coord_x,coord_y,stress_xx,stress_yy,tau_xy,velocity_x,velocity_y,stress_1,eps,damage,lx,ly
5.00066e+0, 1.24914765e+2, -1532219.5, -1723761.1, 272.97775, -0.016769368, 0.122599185, -1532219.1, 183629.14, 0.0027102246, 10.0014715, 9.999223 
5.000694e+0, 1.3491538e+2, -1447679.3, -1701174.5, -2114.9395, -0.022735834, 0.21336365, -1447661.6, 170180.84, 0.0016001622, 10.001748, 9.998559 
5.000673e+0, 1.4491166e+2, -1345954.0, -1546363.6, -4098.705, -0.016020305, -0.02422227, -1345870.3, 174010.06, 0.00071385584, 10.001558, 9.999024 
5.000521e+0, 1.5491405e+2, -1337896.1, -1489961.6, -32812.734, 0.00059831055, 0.22678296, -1331118.0, 90742.164, 0.00020880907, 10.000936, 9.999042 
5.000614e+0, 1.6491403e+2, -1234588.4, -1403161.3, -558.55786, 0.0050946446, 0.33411285, -1234586.5, 89272.07, 0.00003056022, 10.0010395, 9.998916 
5.000919e+0, 1.7491047e+2, -1027704.8, -1267339.8, -21463.977, -0.004994348, 0.022747565, -1025797.5, 200089.48, 0.0000010193884, 10.00185, 9.998785 
5.000742e+0, 1.8490835e+2, -1041841.44, -1321343.3, -26503.656, -0.0063344315, -0.018630372, -1039350.44, 88556.734, 0.0, 10.001516, 9.997898 
5.0000435e+0, 1.9490749e+2, -1174940.0, -1351265.8, 17480.268, 0.00011666339, 0.043990146, -1173223.8, -143302.86, 0.0, 9.999998, 9.997758 
4.9998873e+0, 2.0490707e+2, -978749.4, -979767.94, 88398.79, -0.0006844153, 0.13507158, -890858.4, 41067.297, 0.0, 9.999702, 9.999769 
5.000247e+0, 2.1490653e+2, -740854.44, -823902.2, 32763.607, -0.014821511, 0.0361406, -729485.2, 104441.805, 0.0, 10.000702, 9.999687 
5.000204e+0, 2.2490636e+2, -719422.5, -901463.1, 7164.7183, -0.022393348, 0.12051984, -719140.94, 16788.662, 0.0, 10.000778, 9.9984455 
4.9997798e+0, 2.3490624e+2, -757642.8, -877722.5, 22890.615, -0.020338118, 0.19609034, -753427.25, -115490.15, 0.0, 9.999877, 9.998371 
4.999637e+0, 2.4490651e+2, -597106.0, -520466.44, 49332.063, -0.006011269, 0.29015654, -496319.75, 43616.72, 0.0, 9.999315, 10.000421 
4.9997815e+0, 2.549066e+2, -543518.4, -462771.88, 9626.328, 0.019187162, 0.19145551, -461640.1, -19706.715, 0.000000000017365094, 9.999087, 10.0002575 
4.9998555e+0, 2.649065e+2, -494572.66, -484265.66, 28413.486, 0.023082009, 0.21105973, -460542.1, -116609.11, 0.000000288742, 9.9991665, 9.999392 
4.9998635e+0, 2.7490625e+2, -346239.84, -367738.53, 22926.545, 0.0048590777, 0.18197103, -331667.75, -85732.27, 0.0000033591298, 9.999535, 9.999341 
4.999706e+0, 2.8490618e+2, -263306.94, -245880.27, 8273.086, 0.001223584, 0.23019046, -242578.36, -94640.95, 0.000018802597, 9.9993, 9.999611 
4.9992782e+0, 2.9490456e+2, -266421.13, -176177.52, -15305.284, -0.0029734245, 0.033050746, -173652.4, -123696.734, 0.000081046455, 9.998492, 9.999812 
4.9992672e+0, 3.0490708e+2, -228689.5, -181608.89, 6897.0146, -0.009211645, 0.3082701, -180619.33, -180619.33, 0.0003038914, 9.998621, 9.999378 
4.9996576e+0, 3.1490543e+2, 101356.47, 301172.84, -20761.111, -0.014937159, 0.16004476, 303307.16, 303307.16, 0.00078894256, 9.999394, 10.00235 
1.5001945e+1, 1.2491406e+2, -1550390.5, -1659913.0, -35988.246, -0.049704928, 0.06994339, -1539623.5, 176234.83, 0.0026043395, 10.0011015, 9.999861 
1.5002175e+1, 1.3491644e+2, -1430717.3, -1609895.6, 23872.73, -0.054499965, 0.33562636, -1427591.1, 190243.3, 0.0015429672, 10.00156, 9.999301 
1.5001996e+1, 1.4491309e+2, -1396572.9, -1585088.4, -41773.46, -0.048022024, 0.10182786, -1387731.0, 132137.23, 0.0006869522, 10.001304, 9.998897 
1.5001546e+1, 1.5491273e+2, -1383042.3, -1530270.9, -38760.715, 0.0016932718, 0.13631666, -1373461.3, 48412.477, 0.0001968844, 10.000737, 9.998874 
1.5001847e+1, 1.6491233e+2, -1274197.9, -1424269.8, 15252.845, 0.019015599, 0.2146111, -1272663.3, 51214.902, 0.000026649353, 10.000812, 9.998893 
1.5002793e+1, 1.7491135e+2, -1057004.4, -1277004.9, 24144.398, -0.010471502, 0.20025787, -1054385.8, 171501.22, 0.00000066228677, 10.001655, 9.998829 
1.5002188e+1, 1.849106e+2, -964600.06, -1092201.1, -97401.76, -0.019107113, 0.20873109, -911963.44, 215929.19, 0.0, 10.001263, 9.999599 
1.5000118e+1, 1.9490997e+2, -1091809.9, -1115976.6, -23708.475, 0.0027990122, 0.1590901, -1077283.1, -47386.72, 0.0, 9.9997635, 9.999495 
1.4999638e+1, 2.0490922e+2, -1082289.4, -1132023.5, 112857.96, -0.002890717, 0.17265771, -991591.3, -59688.566, 0.0, 9.999467, 9.998847 
1.5000717e+1, 2.1490812e+2, -842169.3, -973221.4, 86887.516, -0.045738827, 0.14870676, -798869.3, 35044.43, 0.0, 10.000471, 9.998783 
1.5000603e+1, 2.2490712e+2, -688224.8, -774947.7, -42479.137, -0.063935965, 0.14190564, -670884.6, 65038.83, 0.0, 10.000549, 9.999436 
1.4999314e+1, 2.3490608e+2, -727090.0, -749980.7, 4807.0063, -0.06070819, 0.06779613, -726121.5, -88188.625, 0.0, 9.999636, 9.999373 
1.4998919e+1, 2.4490604e+2, -670401.6, -619604.6, 25468.521, -0.015792489, 0.10771454, -609034.6, -69100.586, 0.0, 9.999119, 9.999846 
1.4999335e+1, 2.5490677e+2, -615848.06, -546104.56, 14327.523, 0.059626643, 0.16521303, -543275.94, -101346.79, 0.0, 9.998834, 9.999819 
1.4999571e+1, 2.6490682e+2, -499235.16, -440113.97, 28222.83, 0.07145729, 0.19456844, -428804.56, -84875.13, 0.00000013049092, 9.998972, 9.999801 
1.4999615e+1, 2.7490613e+2, -361425.25, -336412.53, 48227.95, 0.017621834, 0.11866964, -299095.75, -53160.11, 0.0000024373799, 9.999293, 9.999686 
1.4999077e+1, 2.8490573e+2, -305507.9, -281208.97, -34992.266, 0.0023511872, 0.12554273, -256317.0, -108376.3, 0.000015368285, 9.999111, 9.999475 
1.499782e+1, 2.949048e+2, -319190.72, -213633.69, -22272.756, -0.01081356, 0.047464713, -209126.55, -159173.95, 0.000069496324, 9.998204, 9.999711 
1.4997876e+1, 3.0490783e+2, -285427.53, -220513.97, 24607.527, -0.011763032, 0.39949334, -212240.25, -212240.25, 0.00026841622, 9.998373, 9.999251 
1.499893e+1, 3.1490466e+2, -51758.67, 119537.61, 65911.516, -0.038998686, 0.16709201, 141963.2, 141963.2, 0.0007052667, 9.9989, 10.001361 
2.5003657e+1, 1.249147e+2, -1472024.0, -1637678.4, 99660.04, -0.0029910405, 0.06361344, -1425265.5, 290585.1, 0.0024837567, 10.001745, 9.999671 
2.5003868e+1, 1.3491695e+2, -1418090.3, -1625985.5, 58772.95, -0.03757359, 0.3181649, -1402625.3, 215204.33, 0.0014731403, 10.001789, 9.999058 
2.5003573e+1, 1.4491422e+2, -1350936.1, -1571883.9, -1358.6624, -0.027291395, 0.16507113, -1350927.8, 168929.97, 0.00065158884, 10.001686, 9.998782 
2.5003096e+1, 1.5491305e+2, -1278710.5, -1495823.5, -14191.197, 0.053180747, 0.11971853, -1277786.8, 144083.88, 0.0001815959, 10.001544, 9.998707 
2.5003198e+1, 1.6491258e+2, -1236662.8, -1401187.0, 112654.5, 0.070617415, 0.19915852, -1179432.6, 144443.8, 0.000022322774, 10.001055, 9.998921 
2.500395e+1, 1.7491233e+2, -1266040.4, -1368266.8, 110653.15, 0.022521611, 0.24047366, -1195265.6, 30613.885, 0.00000035252413, 10.000197, 9.998887 
2.5003222e+1, 1.8491192e+2, -1091142.4, -1143306.0, -30433.342, 0.01324038, 0.27448717, -1077143.6, 50738.605, 0.0, 10.000343, 9.999683 
2.50011e+1, 1.9491124e+2, -847600.44, -984974.75, -92993.3, 0.05364023, 0.19668256, -800677.56, 229207.98, 0.0, 10.001387, 9.999597 
2.5000405e+1, 2.049104e+2, -817399.9, -1038457.8, 61134.344, 0.03694945, 0.2110177, -801619.44, 130273.3, 0.0, 10.001436, 9.998534 
2.5001124e+1, 2.149091e+2, -876413.56, -1028981.44, 68274.37, -0.04050369, 0.19171384, -850322.56, -16415.967, 0.0, 10.000409, 9.998425 
2.5000718e+1, 2.2490795e+2, -758016.3, -759159.6, -30740.527, -0.065059155, 0.16693714, -727842.1, 8074.462, 0.0, 9.999856, 9.99986 
2.4999215e+1, 2.3490672e+2, -683718.2, -686509.5, -37263.445, -0.031778403, 0.017639771, -647824.25, -9899.948, 0.0, 9.99974, 9.999747 
2.4998656e+1, 2.4490654e+2, -616541.8, -641576.94, 28909.102, 0.023860233, 0.04793983, -597556.6, -57630.355, 0.0, 9.999719, 9.999388 
2.4999014e+1, 2.5490713e+2, -505797.66, -545596.75, 8958.43, 0.1045863, 0.12974793, -503874.16, -61949.273, 0.0, 9.9998255, 9.999328 
2.499915e+1, 2.649073e+2, -400274.63, -393506.03, 53475.684, 0.106210284, 0.19418322, -343307.66, 617.98254, 0.00000003137998, 9.99968, 9.999765 
2.4999034e+1, 2.7490684e+2, -365440.03, -341844.2, 25191.252, 0.039863683, 0.13964985, -325825.03, -79895.34, 0.0000016497497, 9.999301, 9.999635 
2.4998383e+1, 2.849063e+2, -256472.77, -278116.47, -24775.34, 0.009994975, 0.1463483, -240258.9, -92323.37, 0.000012071121, 9.999549, 9.999271 
2.4997239e+1, 2.9490528e+2, -30296.264, -103960.71, -35546.953, 0.016439019, 0.067842275, -15940.612, 34006.656, 0.00005739791, 10.000351, 9.999413 
2.4997352e+1, 3.0490828e+2, -69183.914, -118592.234, 47206.21, 0.040627144, 0.43264842, -40608.42, -40608.42, 0.00023072664, 9.999882, 9.999225 
2.4997984e+1, 3.149044e+2, -252344.73, -76566.09, 64763.76, 0.04954747, 0.102889374, -55281.805, -55281.805, 0.000617959, 9.997983, 10.000428 
3.5005367e+1, 1.2491649e+2, -1560080.1, -1769473.9, 48159.184, -0.07835377, 0.026082613, -1549534.9, 166292.16, 0.0023583595, 10.001546, 9.998858 
3.5005325e+1, 1.3491687e+2, -1482506.6, -1735452.4, 70438.195, -0.10868568, 0.18926312, -1464214.4, 153613.64, 0.0013953737, 10.001706, 9.998339 
3.500498e+1, 1.4491491e+2, -1359490.5, -1552484.5, -24967.355, -0.09916829, 0.13948852, -1356312.9, 163537.63, 0.0006105934, 10.001534, 9.998984 
3.500474e+1, 1.54915e+2, -1273354.4, -1459232.5, -3407.575, 0.024474148, 0.20143992, -1273291.9, 148559.61, 0.00016453842, 10.001452, 9.998995 
3.5004383e+1, 1.6491468e+2, -1221059.5, -1343595.8, 62245.83, 0.046526257, 0.25658205, -1194987.4, 128867.25, 0.000017966355, 10.000939, 9.99938 
3.5004032e+1, 1.7491326e+2, -1248467.6, -1314191.9, 94713.57, -0.025697062, 0.14494137, -1181077.1, 44789.53, 0.00000014192928, 10.000119, 9.999301 
3.500349e+1, 1.8491213e+2, -1197412.5, -1324383.6, -6517.481, -0.02774337, 0.14598976, -1197078.9, -69201.0, 0.0, 10.000183, 9.998513 
3.5002625e+1, 1.9491126e+2, -949895.75, -1163352.3, -38574.344, 0.033655316, 0.17433895, -943138.75, 86749.88, 0.0, 10.001248, 9.998435 
3.500185e+1, 2.049105e+2, -800275.4, -963368.8, 5549.743, 0.008510884, 0.22692618, -800086.75, 131809.8, 0.0, 10.001274, 9.999128 
3.500114e+1, 2.1490951e+2, -857615.7, -948728.5, 44467.8, -0.11064512, 0.1834043, -839510.7, -5605.401, 0.0, 10.000237, 9.999057 
3.500022e+1, 2.2490881e+2, -774821.06, -742630.3, -46094.43, -0.13100494, 0.1636003, -709901.94, 26007.598, 0.0, 9.99965, 10.000068 
3.4999093e+1, 2.3490831e+2, -697114.0, -662808.8, -26565.838, -0.050900936, 0.072405756, -648339.3, -10429.252, 0.0, 9.999535, 10.000002 
3.499853e+1, 2.4490803e+2, -647488.5, -673388.5, 19406.441, 0.0100848805, 0.08971166, -637108.0, -97195.305, 0.0, 9.999576, 9.999242 
3.4998497e+1, 2.549078e+2, -542242.0, -579909.1, 29260.193, 0.037694298, 0.1069923, -526278.1, -84358.22, 0.0, 9.999652, 9.999176 
3.4998256e+1, 2.64908e+2, -429743.0, -433267.72, 26380.12, 0.018870998, 0.1980332, -405066.44, -61145.883, 0.0000000045955626, 9.999586, 9.9995365 
3.499768e+1, 2.749085e+2, -398262.56, -377317.9, 29365.846, -0.060428552, 0.265547, -356612.97, -110696.734, 0.0000011896407, 9.99916, 9.999458 
3.49973e+1, 2.84908e+2, -268722.28, -280896.84, -8057.5444, -0.087304614, 0.27819857, -264711.1, -116789.5, 0.000009641755, 9.999462, 9.999293 
3.4997135e+1, 2.9490602e+2, -62295.223, -136083.55, 9056.913, -0.070294075, 0.114157364, -61199.824, -11259.616, 0.0000464018, 10.000211, 9.999262 
3.4997174e+1, 3.0490804e+2, -43055.664, -54750.258, -35348.527, 0.004230679, 0.37483177, -13074.07, -13074.07, 0.00019513248, 9.999823, 9.999687 
3.499603e+1, 3.149051e+2, -312554.8, -185109.03, 41006.074, -0.019713348, 0.08140861, -173055.25, -173055.25, 0.00053834624, 9.997892, 9.999724 
4.5007858e+1, 1.2491831e+2, -1417705.1, -1709988.1, 32984.4, -0.004475429, 0.066733755, -1414029.0, 301780.13, 0.0022337737, 10.002586, 9.99875 
4.5007366e+1, 1.3491736e+2, -1504006.1, -1768098.8, 28307.541, -0.050113615, 0.114462815, -1501006.0, 116818.07, 0.0013153872, 10.001661, 9.998132 
4.5006573e+1, 1.4491606e+2, -1405337.6, -1543890.3, 15275.059, -0.05109567, 0.12723427, -1403673.6, 116166.0, 0.00056916923, 10.00107, 9.999284 
4.5005718e+1, 1.5491642e+2, -1325111.1, -1456063.9, 3523.6821, 0.017752325, 0.1933239, -1325016.4, 96819.914, 0.00014812649, 10.000958, 9.999273 
4.5005226e+1, 1.6491625e+2, -1196871.5, -1328477.5, 84345.82, 0.042638194, 0.24694204, -1155696.6, 168140.88, 0.000013959289, 10.001107, 9.999399 
4.5005253e+1, 1.7491473e+2, -1041191.4, -1212642.1, 52581.81, 0.025814533, 0.12789288, -1026349.94, 199500.98, 0.000000037538413, 10.001542, 9.999313 
4.5004752e+1, 1.8491343e+2, -1034862.0, -1278838.4, 14242.571, 0.030978777, 0.12654947, -1034033.4, 93831.61, 0.0, 10.001436, 9.998236 
4.5003575e+1, 1.9491233e+2, -1058664.5, -1250158.8, 23821.486, 0.0466736, 0.16231394, -1055745.6, -25866.086, 0.0, 10.000641, 9.998144 
4.5002532e+1, 2.0491153e+2, -945008.7, -1006186.94, 91899.57, 0.01736826, 0.21492934, -878741.1, 53147.016, 0.0, 10.000153, 9.99938 
4.500161e+1, 2.1491079e+2, -889780.8, -935309.06, 73919.516, -0.056271788, 0.16922548, -835199.6, -1306.3453, 0.0, 9.999886, 9.999322 
4.5000455e+1, 2.2491024e+2, -779844.9, -791709.0, 4540.8843, -0.06752785, 0.1708049, -778306.44, -42409.742, 0.0, 9.99981, 9.999664 
4.4999087e+1, 2.3490973e+2, -674847.8, -700725.4, -49716.83, -0.010402883, 0.12322499, -636413.7, 1486.218, 0.0, 9.999899, 9.99958 
4.49984e+1, 2.4490944e+2, -583030.0, -628871.3, 14404.343, 0.032243364, 0.15325962, -578879.6, -38976.754, 0.0, 9.999965, 9.999356 
4.499835e+1, 2.5490898e+2, -482907.5, -543779.4, 15432.468, 0.05025086, 0.14079472, -479218.56, -37309.266, 0.0, 10.000017, 9.999249 
4.499813e+1, 2.6490894e+2, -372467.25, -438001.4, 44832.46, 0.0314828, 0.2170539, -349703.88, -5792.4194, 0.000000013083459, 10.000122, 9.999241 
4.4997832e+1, 2.7490923e+2, -237658.78, -334974.5, 15268.736, -0.011315446, 0.29041964, -235319.38, 10590.759, 0.0000010541644, 10.000411, 9.999149 
4.4997466e+1, 2.8490847e+2, -223693.78, -277685.72, -13277.63, -0.024405764, 0.3052652, -220605.23, -72687.48, 0.000008106713, 9.999852, 9.999136 
4.499691e+1, 2.9490632e+2, -340723.56, -294128.63, -40638.992, -0.010361787, 0.14137936, -270582.75, -220645.25, 0.000037622078, 9.998402, 9.999053 
4.4996607e+1, 3.0490714e+2, -239518.42, -120508.586, -51022.97, 0.05305582, 0.27944764, -101628.695, -101628.695, 0.00016443121, 9.998345, 9.999938 
4.4995543e+1, 3.1490594e+2, -73493.98, -91787.19, -38386.66, 0.07218328, 0.12604198, -43179.258, -43179.258, 0.00047154687, 9.999624, 9.999525 
5.500961e+1, 1.24920405e+2, -1387731.4, -1661940.8, -54132.49, -0.18393126, 0.18283352, -1377431.8, 338363.06, 0.0021078985, 10.002619, 9.999073 
5.500945e+1, 1.3491839e+2, -1472750.4, -1723959.3, 8772.248, -0.06115079, 0.09653356, -1472444.5, 145373.02, 0.0012334009, 10.001734, 9.998403 
5.500794e+1, 1.4491765e+2, -1377586.0, -1486273.3, -11814.772, -0.077103585, 0.12742056, -1376316.5, 143508.44, 0.00052778376, 10.001064, 9.999683 
5.5005515e+1, 1.5491745e+2, -1301110.4, -1407231.6, 15042.821, -0.14376687, 0.10117962, -1299019.3, 122804.63, 0.00013278752, 10.000955, 9.999613 
5.5005044e+1, 1.6491736e+2, -1245889.4, -1409785.1, 85081.02, -0.12706213, 0.17374444, -1209709.3, 114115.17, 0.0000106646075, 10.001024, 9.998876 
5.5007e+1, 1.7491676e+2, -1080259.9, -1282627.5, 83721.63, 0.004431666, 0.19313355, -1050114.0, 175718.34, 0.000000007551507, 10.0015, 9.998845 
5.500655e+1, 1.8491583e+2, -1004070.75, -1192685.1, -32308.559, 0.030143404, 0.21807298, -998689.94, 129153.43, 0.0, 10.001337, 9.998877 
5.5003476e+1, 1.9491445e+2, -1025081.0, -1159742.5, 6595.5967, -0.06513578, 0.16189033, -1024758.75, 5099.8027, 0.0, 10.000553, 9.998807 
5.5001944e+1, 2.0491357e+2, -972953.94, -1024315.4, 69143.586, -0.087955646, 0.1737827, -924876.0, 6990.735, 0.0, 9.999992, 9.999329 
5.5002016e+1, 2.1491298e+2, -914256.75, -953153.6, 78247.13, -0.038978554, 0.15221576, -853077.3, -19206.934, 0.0, 9.999749, 9.999263 
5.5000937e+1, 2.2491224e+2, -869474.6, -947148.75, -5090.2383, -0.033457357, 0.18716122, -869142.44, -133264.36, 0.0, 9.99968, 9.99866 
5.499877e+1, 2.3491114e+2, -766250.0, -860164.5, -30880.664, -0.06542384, 0.18331786, -757005.8, -119113.586, 0.0, 9.999767, 9.998549 
5.499772e+1, 2.4491072e+2, -574048.6, -586322.75, 5333.6035, -0.06733499, 0.23672096, -572054.9, -32158.303, 0.0, 9.999868, 9.999693 
5.4997957e+1, 2.5491077e+2, -482414.8, -497360.56, 31622.266, -0.029124359, 0.2356792, -457394.44, -15501.392, 0.0, 9.999839, 9.999644 
5.4998374e+1, 2.6491022e+2, -404839.97, -497348.72, 41192.875, 0.005310325, 0.258774, -389156.3, -45258.664, 0.000000016276152, 10.000075, 9.998863 
5.4999095e+1, 2.749089e+2, -278286.84, -400944.7, 41965.004, 0.03545887, 0.21124707, -265303.6, -19391.352, 0.00000094951764, 10.000319, 9.99875 
5.499833e+1, 2.849077e+2, -251334.66, -323597.0, -81641.99, 0.040552177, 0.2165519, -198186.06, -50261.125, 0.0000068871877, 9.999809, 9.998836 
5.499598e+1, 2.949062e+2, -374341.06, -341389.28, -79799.02, 0.010964941, 0.14858834, -276383.03, -226443.61, 0.00003070153, 9.9983, 9.998777 
5.4995185e+1, 3.0490544e+2, -235380.33, -94556.46, -11350.338, 0.041009773, 0.13607262, -93647.49, -93647.49, 0.00013855331, 9.998282, 10.000149 
5.4995626e+1, 3.1490663e+2, -67783.09, -47914.676, 56365.785, 0.042883202, 0.20654713, -614.3663, -614.3663, 0.0004144919, 9.9995, 9.999883 
6.50123e+1, 1.2492281e+2, -1655353.6, -1761316.0, 13339.359, -0.053484198, 0.2637997, -1653700.1, 62077.05, 0.0019834668, 10.000611, 9.999379 
6.5011525e+1, 1.3492064e+2, -1507971.8, -1719815.3, 23268.848, 0.0079570515, 0.1456338, -1505446.1, 112353.41, 0.001149572, 10.001373, 9.998621 
6.5009665e+1, 1.4492029e+2, -1310038.9, -1473761.5, 21608.82, -0.026332963, 0.2143544, -1307234.9, 212566.64, 0.00048384682, 10.001634, 9.999489 
6.500704e+1, 1.549191e+2, -1212665.5, -1382695.4, -34323.58, -0.10817229, 0.10983807, -1205998.1, 215811.47, 0.00011744106, 10.001668, 9.99942 
6.500633e+1, 1.649186e+2, -1220785.8, -1407865.4, 55547.594, -0.09919947, 0.15388493, -1205535.6, 118278.336, 0.000008467286, 10.001233, 9.998791 
6.500781e+1, 1.7491812e+2, -1286139.9, -1396227.4, 54832.016, 0.014451627, 0.19677885, -1263489.6, -37668.62, 0.000000004638606, 10.000147, 9.998722 
6.500711e+1, 1.8491757e+2, -1176453.0, -1226474.8, -17298.436, 0.033577505, 0.24582933, -1171053.8, -43225.46, 0.0, 9.999951, 9.999303 
6.5004015e+1, 1.9491678e+2, -984894.2, -1093618.0, -27257.645, -0.058643434, 0.20495939, -978443.3, 51393.86, 0.0, 10.000629, 9.999222 
6.500267e+1, 2.0491607e+2, -850656.2, -988016.3, 41304.11, -0.050865922, 0.22413011, -839192.75, 92651.055, 0.0, 10.000922, 9.999128 
6.50031e+1, 2.1491532e+2, -796526.56, -916977.5, 15028.499, 0.059421197, 0.20383224, -794679.75, 39170.145, 0.0, 10.000651, 9.99907 
6.5001875e+1, 2.2491427e+2, -756514.9, -932034.94, -7885.5317, 0.056144908, 0.23464592, -756161.3, -20300.184, 0.0, 10.000611, 9.998319 
6.4999e+1, 2.3491277e+2, -639560.0, -834425.44, -10619.071, -0.058824215, 0.22154708, -638983.06, -1103.7913, 0.0, 10.000777, 9.998238 
6.4997774e+1, 2.4491188e+2, -459552.4, -563550.75, 49229.18, -0.08274549, 0.25744677, -439945.53, 99941.85, 0.0, 10.000775, 9.999435 
6.499833e+1, 2.5491145e+2, -392275.8, -483679.6, 503.68616, -0.00027247684, 0.23738515, -392273.03, 49613.953, 0.0, 10.000567, 9.999412 
6.4998764e+1, 2.649105e+2, -445705.38, -509694.66, 14976.816, 0.062633045, 0.22984129, -442373.5, -98478.73, 0.00000000394634, 9.999767, 9.998933 
6.499915e+1, 2.749089e+2, -538999.25, -512321.4, 22652.637, 0.11178822, 0.14814295, -499372.13, -253460.34, 0.0000007712445, 9.9984865, 9.9988575 
6.4998025e+1, 2.8490803e+2, -425125.1, -392518.2, -18086.15, 0.10367475, 0.17403169, -384471.88, -236550.94, 0.000006042053, 9.998552, 9.998967 
6.499541e+1, 2.9490745e+2, -126755.48, -194921.33, -14602.683, 0.05774783, 0.18402001, -123758.98, -73833.01, 0.000026519589, 9.999904, 9.999001 
6.4994204e+1, 3.0490607e+2, -24685.291, -6328.2725, 87058.29, 0.0546172, 0.093736544, 72034.016, 72034.016, 0.00012024143, 9.999776, 10.000044 
6.499487e+1, 3.1490743e+2, -296832.5, -153525.84, 79147.8, 0.11848425, 0.21098799, -118415.07, -118415.07, 0.00036921015, 9.997876, 9.999967 
7.501506e+1, 1.2492532e+2, -1611103.4, -1675310.1, -17682.19, 0.07364, 0.31177393, -1606555.9, 109202.87, 0.0018629195, 10.000647, 9.999946 
7.5012976e+1, 1.3492392e+2, -1487400.5, -1686260.1, 58196.99, -0.030278174, 0.24575363, -1471621.0, 146150.31, 0.0010666472, 10.001413, 9.998832 
7.5010926e+1, 1.4492397e+2, -1374921.9, -1594534.1, 5575.0303, -0.11065314, 0.3825193, -1374780.4, 144989.14, 0.0004391749, 10.001575, 9.998688 
7.5009817e+1, 1.5492125e+2, -1266601.4, -1505156.9, -15487.268, -0.042290125, 0.2071998, -1265600.1, 156194.5, 0.00010226521, 10.0017, 9.998571 
7.5008565e+1, 1.649198e+2, -1207657.6, -1363364.5, -1478.375, -0.036581244, 0.18287265, -1207643.6, 116164.17, 0.000007138289, 10.001165, 9.999125 
7.500728e+1, 1.7491885e+2, -1270545.8, -1353231.5, 26685.592, -0.09339941, 0.1398973, -1262681.4, -36864.824, 0.00000003688298, 10.0001, 9.99904 
7.500597e+1, 1.8491863e+2, -1178919.3, -1213803.5, -6255.5015, -0.111142635, 0.20122437, -1177831.4, -50011.734, 0.0, 9.999867, 9.999437 
7.500473e+1, 1.9491914e+2, -980191.0, -1073517.0, 12195.338, -0.08810535, 0.27893582, -978623.7, 51193.34, 0.0, 10.000582, 9.999387 
7.5004256e+1, 2.0491897e+2, -889117.94, -1041678.25, 19017.49, -0.018123815, 0.35586938, -886783.06, 45037.15, 0.0, 10.000812, 9.998812 
7.5004435e+1, 2.1491772e+2, -836006.56, -973179.44, 18519.746, 0.09188083, 0.31682885, -833550.2, 282.2029, 0.0, 10.000533, 9.998744 
7.50028e+1, 2.249163e+2, -751467.0, -890928.44, -14007.453, 0.05567288, 0.30901712, -750074.0, -14228.317, 0.0, 10.000482, 9.998662 
7.4999374e+1, 2.3491453e+2, -636627.6, -796439.9, 11873.164, -0.13352373, 0.23132972, -635750.3, 2111.3894, 0.0, 10.000632, 9.998572 
7.499807e+1, 2.4491291e+2, -533145.25, -693790.4, 28731.785, -0.1605422, 0.21866821, -528161.1, 11714.34, 0.0, 10.00068, 9.998583 
7.499904e+1, 2.5491115e+2, -475437.88, -625746.8, 7292.4214, -0.020514252, 0.15184273, -475084.9, -33194.75, 0.0, 10.000429, 9.998504 
7.4998754e+1, 2.6490995e+2, -426157.03, -442723.22, -46003.434, 0.05326788, 0.14299569, -387696.94, -43795.883, 0.00000000015133415, 9.999666, 9.999435 
7.499742e+1, 2.7490926e+2, -524192.6, -449505.88, -7438.929, 0.05205804, 0.10067163, -448772.16, -202863.75, 0.00000065427645, 9.998354, 9.999351 
7.499614e+1, 2.8490952e+2, -384058.47, -300730.06, 19821.139, 0.023039749, 0.18087813, -296255.53, -148350.13, 0.0000058927376, 9.998518, 9.999618 
7.4994737e+1, 2.9491013e+2, -91630.18, -101306.76, 54565.723, -0.04397385, 0.24309106, -41688.664, 8208.459, 0.000025865007, 9.999798, 9.999705 
7.4993116e+1, 3.049088e+2, -69655.69, -80068.11, 13997.52, -0.06697058, 0.14653245, -59927.54, -59927.54, 0.00011203884, 9.999704, 9.99956 
7.49923e+1, 3.149082e+2, -327121.97, -178162.84, 54268.246, 0.0017559098, 0.116198495, -160489.02, -160489.02, 0.00034091447, 9.997718, 9.999865 
8.5017174e+1, 1.2492749e+2, -1352710.9, -1516913.0, 18053.805, 0.1543333, 0.32810152, -1350749.4, 364991.56, 0.0017451695, 10.0023, 10.000227 
8.50151e+1, 1.3492619e+2, -1428508.0, -1652199.5, 18571.531, 0.037101157, 0.27309862, -1426976.6, 190775.13, 0.0009891815, 10.001819, 9.998858 
8.501292e+1, 1.4492647e+2, -1375670.4, -1608132.3, 23829.4, -0.056171384, 0.43711692, -1373252.9, 146494.7, 0.000399723, 10.001601, 9.998595 
8.5011804e+1, 1.5492369e+2, -1262446.3, -1515172.4, 25301.084, -0.00620686, 0.26622558, -1259938.3, 161835.94, 0.00008899464, 10.001777, 9.998469 
8.5010237e+1, 1.6492206e+2, -1110347.9, -1314716.6, 57444.527, -0.009850083, 0.22884654, -1095308.0, 228480.95, 0.000006071428, 10.001833, 9.999135 
8.5008323e+1, 1.7492074e+2, -1046255.4, -1238578.0, 29969.154, -0.06341704, 0.14973706, -1041693.56, 184106.42, 0.000000076650345, 10.001624, 9.999085 
8.5006744e+1, 1.8492037e+2, -970843.25, -1132389.5, 33057.156, -0.08569129, 0.20149128, -964340.56, 163463.61, 0.0, 10.001371, 9.999276 
8.500559e+1, 1.9492102e+2, -938863.5, -1072643.3, 1327.2693, -0.06905155, 0.309143, -938850.4, 90950.38, 0.0, 10.000944, 9.999219 
8.5005206e+1, 2.0492071e+2, -903412.1, -1065991.8, 16184.126, 0.0056517194, 0.39134052, -901816.7, 29988.695, 0.0, 10.000794, 9.998653 
8.500546e+1, 2.1491918e+2, -795985.06, -973878.25, -4692.7173, 0.132669, 0.34162524, -795861.3, 37959.734, 0.0, 10.000898, 9.998567 
8.500393e+1, 2.2491767e+2, -684995.56, -845870.6, -13464.693, 0.10861015, 0.3298417, -683876.44, 51958.473, 0.0, 10.000896, 9.998764 
8.5000664e+1, 2.349161e+2, -616793.3, -771832.6, -34704.004, -0.06365309, 0.26580423, -609379.7, 28467.924, 0.0, 10.000725, 9.998687 
8.499914e+1, 2.449144e+2, -595993.75, -721279.75, 13746.93, -0.09111409, 0.23632279, -594503.1, -54641.426, 0.0, 10.000232, 9.998598 
8.499945e+1, 2.5491232e+2, -616546.94, -688542.2, 31032.44, 0.03851878, 0.13577755, -605017.3, -163138.17, 0.0, 9.999453, 9.998527 
8.49984e+1, 2.6491132e+2, -465619.72, -463029.13, 28477.041, 0.0762389, 0.14214446, -435817.94, -91930.055, 0.0000000019213902, 9.999358, 9.999461 
8.4996194e+1, 2.7491122e+2, -319213.44, -348790.0, 1254.4851, 0.03638734, 0.15216304, -319160.3, -73270.83, 0.0000006294421, 9.999717, 9.999401 
8.499491e+1, 2.8491133e+2, -270039.53, -226073.14, 43439.92, 0.024192818, 0.20921652, -199370.73, -51483.08, 0.0000062489003, 9.999211, 9.999796 
8.499445e+1, 2.9491135e+2, -321956.94, -187979.11, 14512.566, 0.04535762, 0.19347934, -186425.13, -136539.67, 0.000027811611, 9.998114, 9.999917 
8.499253e+1, 3.0491123e+2, -290897.9, -207932.88, -24076.203, -0.009405781, 0.21445125, -201452.25, -201452.25, 0.00011222166, 9.998254, 9.999395 
8.4990686e+1, 3.1490964e+2, -120024.26, -49613.39, -11132.391, 0.02281613, 0.096814856, -47895.22, -47895.22, 0.00032900518, 9.999017, 10.0001135 
9.501764e+1, 1.24929495e+2, -1365718.3, -1531854.9, -51020.117, -0.10882368, 0.32646638, -1351301.3, 364420.66, 0.0016362383, 10.002247, 10.000148 
9.5017266e+1, 1.3492738e+2, -1432968.0, -1687313.8, 13228.75, 0.02845906, 0.21710141, -1432281.8, 185459.25, 0.0009229167, 10.001917, 9.998573 
9.50152e+1, 1.4492781e+2, -1333659.9, -1515509.6, 15297.631, -0.032235682, 0.3756035, -1332381.9, 187353.64, 0.00036888671, 10.001582, 9.999237 
9.5012546e+1, 1.5492651e+2, -1220074.8, -1429047.0, 48606.742, -0.15209837, 0.29063788, -1209322.1, 212425.11, 0.00007923838, 10.001781, 9.999059 
9.501095e+1, 1.6492546e+2, -1141215.3, -1365608.4, 37227.45, -0.15721418, 0.29828373, -1135200.3, 188556.16, 0.0000051224774, 10.001772, 9.998817 
9.501045e+1, 1.7492391e+2, -1068299.4, -1284722.5, 38652.094, -0.053842854, 0.22639713, -1061603.5, 164166.94, 0.00000007826353, 10.00162, 9.998773 
9.5008886e+1, 1.8492289e+2, -1016933.3, -1211749.9, 3574.205, -0.040704086, 0.25328115, -1016867.75, 110913.22, 0.0, 10.001297, 9.998766 
9.500616e+1, 1.9492237e+2, -985852.8, -1153008.1, 464.62268, -0.14191778, 0.2920243, -985851.5, 43936.62, 0.0, 10.000865, 9.998704 
9.5005107e+1, 2.0492138e+2, -928448.2, -1091414.6, 6265.5747, -0.11591693, 0.33548248, -928207.6, 3591.3948, 0.0, 10.000671, 9.998541 
9.500571e+1, 2.1491954e+2, -820826.75, -998501.25, 15443.791, 0.03349825, 0.26539466, -819494.4, 14322.684, 0.0, 10.000776, 9.99846 
9.500477e+1, 2.2491823e+2, -715964.8, -881054.9, -31222.16, 0.06933661, 0.28801012, -710257.4, 25572.604, 0.0, 10.000771, 9.99858 
9.500234e+1, 2.3491728e+2, -647460.56, -811985.6, -28358.816, -0.0029142648, 0.30142635, -642709.56, -4870.055, 0.0, 10.000611, 9.998468 
9.500049e+1, 2.449162e+2, -547382.1, -595408.6, -28945.877, -0.011711073, 0.30018264, -533785.5, 6061.985, 0.0, 10.000122, 9.9995165 
9.49992e+1, 2.549148e+2, -563592.94, -562292.56, 20296.232, 0.029894255, 0.17147619, -542636.1, -100780.4, 0.0, 9.999367, 9.999442 
9.4997305e+1, 2.649143e+2, -506023.88, -523145.97, 28341.42, -0.00045778262, 0.2032229, -484978.72, -141120.64, 0.0000000017799018, 9.99927, 9.999083 
9.499495e+1, 2.7491453e+2, -367176.53, -417035.2, 27658.457, -0.09562359, 0.28350237, -354870.63, -109013.766, 0.0000005677249, 9.999586, 9.998991 
9.4993836e+1, 2.8491348e+2, -301409.8, -278529.44, -13561.136, -0.039417468, 0.26285693, -272227.5, -124359.79, 0.0000064583187, 9.999157, 9.999459 
9.4994026e+1, 2.949111e+2, -368845.4, -255761.06, -1557.9689, 0.15055755, 0.033364706, -255739.6, -205847.78, 0.000029725905, 9.997982, 9.999515 
9.499199e+1, 3.0491334e+2, -279935.0, -169946.83, 400.2511, 0.0787665, 0.29839247, -169945.38, -169945.38, 0.0001135958, 9.998194, 9.999676 
9.4989043e+1, 3.149119e+2, -106618.22, 10091.011, 53192.605, -0.118060276, 0.16484694, 30696.602, 30696.602, 0.00032168903, 9.9988785, 10.000588 
1.0501908e+2, 1.2493201e+2, -1577707.8, -1665532.9, 20245.398, -0.101466976, 0.31663033, -1573265.5, 142429.11, 0.0015480418, 10.000896, 9.99989 
1.0501921e+2, 1.3492966e+2, -1517937.8, -1752672.9, 35914.79, 0.06985457, 0.20920055, -1512565.6, 105152.29, 0.00087241904, 10.001431, 9.9983635 
1.0501743e+2, 1.4492978e+2, -1347603.4, -1509982.0, 50354.438, 0.050747167, 0.3398631, -1333255.9, 186460.64, 0.0003471946, 10.001452, 9.999327 
1.0501454e+2, 1.5492876e+2, -1322513.0, -1480289.5, 7653.3877, -0.08282759, 0.28424424, -1322142.6, 99583.11, 0.000073446034, 10.001085, 9.999044 
1.0501253e+2, 1.6492794e+2, -1278223.0, -1426240.1, 18403.154, -0.118618384, 0.31293443, -1275969.3, 47763.324, 0.000004420773, 10.000814, 9.998856 
1.05011635e+2, 1.7492665e+2, -1211256.9, -1353478.0, 16130.029, -0.038964853, 0.2642536, -1209450.5, 16293.15, 0.000000050630582, 10.000644, 9.99877 
1.0501016e+2, 1.8492535e+2, -1099957.9, -1282507.4, 36493.395, -0.014949491, 0.27828678, -1092932.8, 34823.723, 0.0, 10.000873, 9.998477 
1.0500799e+2, 1.9492404e+2, -943241.5, -1162464.1, 15605.529, -0.05828114, 0.26376435, -942136.2, 87635.32, 0.0, 10.001305, 9.998416 
1.0500663e+2, 2.049227e+2, -844208.7, -1042902.7, 52960.508, -0.04825868, 0.284243, -830973.94, 100811.3, 0.0, 10.001221, 9.99861 
1.05006166e+2, 2.1492107e+2, -859982.7, -1007010.0, 45584.4, 0.026936004, 0.22766185, -846996.7, -13196.312, 0.0, 10.000465, 9.998549 
1.0500499e+2, 2.249199e+2, -823229.2, -936841.4, 45375.473, 0.05897502, 0.2620825, -807331.3, -71519.54, 0.0, 10.000045, 9.998562 
1.0500317e+2, 2.3491913e+2, -744145.3, -859092.25, 32923.355, 0.06121228, 0.29872888, -735383.25, -97562.67, 0.0, 9.999958, 9.9984665 
1.05001315e+2, 2.4491815e+2, -568832.94, -629041.8, 20939.34, 0.06828286, 0.31940117, -562266.75, -22437.762, 0.0, 10.000078, 9.99931 
1.04999505e+2, 2.5491676e+2, -435787.34, -520653.63, -42572.598, 0.08332625, 0.21337402, -418112.25, 23726.82, 0.0, 10.000348, 9.99925 
1.0499722e+2, 2.649162e+2, -413418.63, -469398.63, -41635.55, 0.041410282, 0.24252464, -391239.34, -47397.168, 0.00000000014537505, 9.999889, 9.999145 
1.0499463e+2, 2.749162e+2, -486258.03, -467212.28, -38060.273, -0.035162568, 0.2975524, -437501.63, -191660.92, 0.00000042821608, 9.998759, 9.999037 
1.04992926e+2, 2.849149e+2, -432096.1, -363302.7, -30470.049, 0.0040743705, 0.25882208, -351747.7, -203893.44, 0.0000059800022, 9.998331, 9.999287 
1.04992196e+2, 2.9491237e+2, -308087.5, -253016.44, -40705.58, 0.15565434, 0.028758373, -231407.81, -181524.94, 0.000029321069, 9.998496, 9.999295 
1.04990214e+2, 3.0491588e+2, -251758.39, -122019.57, 22292.47, 0.09216824, 0.4203311, -118296.016, -118296.016, 0.000109980174, 9.998246, 9.999978 
1.0498793e+2, 3.1491396e+2, -268871.28, -10166.329, 18034.418, -0.033679225, 0.20593478, -8915.193, -8915.193, 0.0003078243, 9.997512, 10.00111 
1.1502054e+2, 1.2493485e+2, -1603558.1, -1734909.3, -14565.828, -0.12884343, 0.2921022, -1601962.3, 113698.62, 0.0014882531, 10.000951, 9.999393 
1.1502047e+2, 1.3493286e+2, -1521908.5, -1771632.3, 64869.49, 0.012295773, 0.2414445, -1506063.1, 111620.5, 0.000840427, 10.0014715, 9.998214 
1.1501925e+2, 1.4493221e+2, -1394615.8, -1589233.0, 19240.959, 0.04513051, 0.32385486, -1392731.8, 126960.24, 0.00033535642, 10.001372, 9.998822 
1.1501711e+2, 1.5493041e+2, -1358703.4, -1553396.8, 12364.524, 0.023752041, 0.24132894, -1357921.3, 63788.355, 0.0000716502, 10.001089, 9.998534 
1.15014486e+2, 1.6492952e+2, -1258603.9, -1381202.5, -1490.6687, -0.043292593, 0.27308786, -1258585.8, 65131.516, 0.0000041980056, 10.000787, 9.999185 
1.1501156e+2, 1.749289e+2, -1186708.0, -1299078.1, 23650.822, -0.14925663, 0.2549491, -1181933.0, 43787.39, 0.000000024917117, 10.000628, 9.99915 
1.15010254e+2, 1.8492776e+2, -1127816.3, -1310005.0, 38600.4, -0.123407535, 0.27251643, -1119975.4, 7755.974, 0.0, 10.000746, 9.998353 
1.1501053e+2, 1.9492593e+2, -962255.8, -1184850.5, 46752.29, 0.026478803, 0.22065437, -952835.0, 76916.64, 0.0, 10.001232, 9.998299 
1.15009286e+2, 2.0492464e+2, -846492.1, -1020701.56, 9217.624, 0.063600816, 0.2412557, -846005.75, 85758.63, 0.0, 10.001101, 9.998821 
1.15006395e+2, 2.1492359e+2, -864035.2, -985559.3, 28969.113, -0.027423047, 0.21909209, -857482.75, -23710.297, 0.0, 10.000332, 9.998764 
1.1500419e+2, 2.2492263e+2, -834579.56, -926347.2, 27842.977, -0.052972198, 0.25659704, -826792.56, -91011.73, 0.0, 9.999904, 9.998698 
1.1500271e+2, 2.3492156e+2, -753323.6, -847667.1, 44954.516, -0.013583761, 0.247337, -735333.4, -97541.87, 0.0, 9.999819, 9.998614 
1.1500123e+2, 2.4492013e+2, -681426.25, -832101.4, 17237.732, 0.020853424, 0.2833938, -679479.3, -139672.3, 0.0, 9.999957, 9.997971 
1.1499984e+2, 2.5491816e+2, -550689.25, -726700.8, -21126.582, 0.049287066, 0.25405684, -548188.94, -106359.26, 0.0, 10.000213, 9.9979 
1.1499769e+2, 2.6491693e+2, -388569.88, -403326.4, -96240.875, 0.06998404, 0.26099402, -299424.88, 44415.49, 0.0, 9.999823, 9.999638 
1.1499481e+2, 2.749162e+2, -466877.94, -402035.66, -61984.902, 0.07246668, 0.19171368, -364504.97, -118663.44, 0.0000002594802, 9.998641, 9.999551 
1.1499172e+2, 2.8491554e+2, -446105.25, -370675.84, -36073.684, 0.01604571, 0.18973143, -356201.38, -208353.19, 0.000005001763, 9.998248, 9.999275 
1.1498845e+2, 2.9491505e+2, -341157.38, -285012.22, -19870.03, -0.10813847, 0.17808692, -278691.66, -228832.28, 0.000026475647, 9.998344, 9.99915 
1.14986755e+2, 3.0491883e+2, -236728.22, -69926.89, -7848.659, -0.11027548, 0.58774465, -69558.4, -69558.4, 0.000100772006, 9.9981785, 10.000361 
1.1498642e+2, 3.149158e+2, -244123.08, 74775.7, 27317.115, -0.010343468, 0.21039946, 77098.78, 77098.78, 0.00028477798, 9.997379, 10.001756 
1.2502225e+2, 1.24936424e+2, -1559670.4, -1746578.6, -39962.47, -0.063269734, 0.22727259, -1551484.5, 164155.7, 0.0014562852, 10.00142, 9.999075 
1.250218e+2, 1.3493489e+2, -1516465.4, -1772024.9, 1619.6932, 0.011766266, 0.22552219, -1516455.1, 101205.36, 0.0008261713, 10.001523, 9.998186 
1.2502076e+2, 1.4493409e+2, -1356326.4, -1579895.6, 9644.979, 0.05885467, 0.29825705, -1355911.0, 163760.45, 0.00033346904, 10.001674, 9.998739 
1.2501925e+2, 1.5493235e+2, -1203638.0, -1489296.9, -3000.095, 0.08381574, 0.22962026, -1203606.5, 218082.95, 0.00007407354, 10.002197, 9.998436 
1.2501666e+2, 1.6493148e+2, -1051668.8, -1277542.5, -3120.5247, 0.033873618, 0.26595956, -1051625.8, 272071.7, 0.000004716059, 10.002178, 9.999236 
1.2501305e+2, 1.7493099e+2, -1063421.6, -1237485.1, -28324.045, -0.093379214, 0.25821137, -1058928.6, 166771.14, 0.000000012759114, 10.001445, 9.999193 
1.2501149e+2, 1.849299e+2, -1073465.6, -1275532.8, 38293.176, -0.080174476, 0.275366, -1066452.1, 61258.23, 0.0, 10.001077, 9.998424 
1.2501204e+2, 1.9492818e+2, -989786.25, -1193098.4, 31222.273, 0.07573486, 0.22722645, -985099.56, 44629.89, 0.0, 10.001014, 9.998348 
1.2501064e+2, 2.0492694e+2, -862658.3, -1021265.3, -3020.521, 0.10540996, 0.24774113, -862600.8, 69140.69, 0.0, 10.000965, 9.998877 
1.250072e+2, 2.1492596e+2, -787544.2, -941696.1, -24832.943, 0.0037842796, 0.2296066, -783642.5, 50106.164, 0.0, 10.000833, 9.9988165 
1.2500468e+2, 2.249249e+2, -717567.56, -856687.7, 5330.596, -0.02108303, 0.24850132, -717363.6, 18393.76, 0.0, 10.000647, 9.998811 
1.2500323e+2, 2.3492365e+2, -660406.9, -785358.56, -8016.7275, 0.038357694, 0.20786953, -659894.6, -22125.81, 0.0, 10.0004, 9.998746 
1.2500153e+2, 2.449222e+2, -671020.94, -850314.6, 38940.74, 0.057664562, 0.24291216, -662928.6, -123143.67, 0.0, 10.000122, 9.997768 
1.24999784e+2, 2.5492036e+2, -621574.06, -788368.6, 59221.168, 0.051707163, 0.24989668, -602686.2, -160877.98, 0.0, 9.999828, 9.99767 
1.2499741e+2, 2.6491904e+2, -420113.9, -434595.78, 9896.639, 0.074553505, 0.26743892, -415092.1, -71271.39, 0.0, 9.9996805, 9.999482 
1.24994464e+2, 2.74918e+2, -323746.38, -346679.44, -36285.254, 0.13133775, 0.17980343, -297158.97, -51333.805, 0.00000012209664, 9.999705, 9.999403 
1.2499081e+2, 2.8491715e+2, -297195.38, -323150.63, -1442.9536, 0.05612687, 0.18029356, -297115.4, -149282.58, 0.000003888246, 9.999388, 9.999046 
1.24986686e+2, 2.9491675e+2, -304403.97, -287906.47, -30051.607, -0.12502791, 0.19591478, -264992.1, -215150.1, 0.00002250982, 9.998699, 9.998951 
1.2498496e+2, 3.049192e+2, -218382.92, -76590.67, -4112.3843, -0.10146213, 0.49192846, -76471.5, -76471.5, 0.000088219014, 9.998322, 10.000277 
1.2498463e+2, 3.1491688e+2, -158664.66, 108001.57, -69685.02, 0.059152506, 0.18470608, 125113.54, 125113.54, 0.00025421134, 9.997993, 10.001696 
1.3502331e+2, 1.249366e+2, -1582311.4, -1784515.6, -93593.11, -0.17632817, 0.10669093, -1545640.8, 169993.38, 0.0014504807, 10.001379, 9.998835 
1.3502264e+2, 1.3493577e+2, -1499044.8, -1742649.9, 16413.537, -0.09628507, 0.15788926, -1497943.8, 119704.2, 0.0008289551, 10.00156, 9.998364 
1.3502148e+2, 1.4493556e+2, -1336829.8, -1546837.3, 10159.935, -0.081771255, 0.27051014, -1336339.4, 183314.27, 0.0003411424, 10.001692, 9.998963 
1.350206e+2, 1.5493453e+2, -1190990.9, -1457980.8, 31232.46, -0.038441345, 0.24922244, -1187386.0, 234279.27, 0.00008049032, 10.002167, 9.998672 
1.3501857e+2, 1.6493377e+2, -1085418.6, -1313984.9, -46095.617, -0.024302194, 0.29580596, -1076472.6, 247200.75, 0.0000062176173, 10.002048, 9.9990425 
1.3501547e+2, 1.749329e+2, -1087467.0, -1272273.5, -38382.875, -0.03180039, 0.26904628, -1079812.3, 145869.63, 0.000000017143847, 10.001396, 9.998971 
1.3501325e+2, 1.849319e+2, -1065288.6, -1247457.6, 22679.225, -0.04863267, 0.29608414, -1062507.6, 65184.445, 0.0, 10.001012, 9.998652 
1.3501194e+2, 1.9493075e+2, -982821.8, -1162837.0, 45224.41, -0.074892014, 0.27727205, -972099.0, 57605.996, 0.0, 10.000938, 9.998593 
1.3501026e+2, 2.0492958e+2, -888564.6, -1049278.8, -23745.482, -0.062042244, 0.3007278, -885129.6, 46587.016, 0.0, 10.000848, 9.998745 
1.3500805e+2, 2.1492815e+2, -817713.1, -969971.4, -13560.486, -0.027769256, 0.24944961, -816514.8, 17214.666, 0.0, 10.000682, 9.998697 
1.3500606e+2, 2.249268e+2, -730727.9, -857385.1, -18587.688, 0.01778708, 0.24227847, -728056.4, 7684.6343, 0.0, 10.000522, 9.998869 
1.350042e+2, 2.3492534e+2, -674379.25, -784826.9, -2283.5056, 0.061993383, 0.17209974, -674332.06, -36578.797, 0.0, 10.000263, 9.9988165 
1.3500181e+2, 2.4492425e+2, -618459.25, -719620.6, 14640.907, 0.040411524, 0.19040497, -616382.94, -76618.95, 0.0, 10.000027, 9.998711 
1.349989e+2, 2.5492334e+2, -574679.2, -659724.1, 64913.38, -0.053096112, 0.19596283, -539600.7, -97825.77, 0.0, 9.999692, 9.998617 
1.3499594e+2, 2.6492256e+2, -493941.8, -567083.4, -3155.5806, -0.07271403, 0.26051822, -493805.9, -150022.38, 0.0, 9.999596, 9.998609 
1.3499302e+2, 2.7492148e+2, -403743.94, -481396.3, -21285.154, -0.0201047, 0.26012343, -398292.25, -152499.34, 0.000000046518082, 9.999575, 9.998536 
1.3498983e+2, 2.849197e+2, -327026.75, -379238.8, -40602.227, -0.01800033, 0.22557727, -304862.03, -157052.53, 0.0000029362805, 9.999357, 9.998676 
1.3498642e+2, 2.9491717e+2, -338704.84, -340242.94, -38313.395, -0.06343057, 0.0630192, -301152.78, -251319.66, 0.000019015239, 9.998605, 9.998642 
1.349843e+2, 3.0491698e+2, -263823.47, -147968.0, -25304.932, -0.025786314, 0.1272429, -142682.11, -142682.11, 0.000075927965, 9.998241, 9.999815 
1.3498165e+2, 3.1491703e+2, -238514.45, -24525.846, -38781.79, -0.11270023, 0.117371574, -17714.137, -17714.137, 0.0002226974, 9.997858, 10.000848 
1.4502518e+2, 1.2493723e+2, -1552221.5, -1742800.4, -96728.266, -0.11158895, 0.08159743, -1511730.1, 203898.34, 0.0014659849, 10.001486, 9.999066 
1.4502394e+2, 1.3493663e+2, -1479035.0, -1666484.9, -11929.777, -0.10406078, 0.097370006, -1478278.8, 139358.86, 0.0008466132, 10.001421, 9.998944 
1.4502278e+2, 1.4493692e+2, -1394099.3, -1535275.1, 40939.11, -0.083585806, 0.21318392, -1383086.5, 136550.22, 0.00035647568, 10.0011215, 9.999323 
1.4502203e+2, 1.5493624e+2, -1378358.1, -1504842.9, 42406.164, -0.026800146, 0.18955994, -1365456.8, 56187.406, 0.00008921642, 10.000688, 9.999066 
1.4502e+2, 1.649356e+2, -1297717.6, -1438387.5, -281.3807, -0.006705254, 0.23659515, -1297717.1, 25934.68, 0.000008328298, 10.000683, 9.998843 
1.4501686e+2, 1.7493472e+2, -1145683.4, -1323768.3, -24576.516, -0.008644208, 0.22768483, -1142354.0, 83308.82, 0.0000000715251, 10.00109, 9.998765 
1.4501446e+2, 1.8493392e+2, -1022967.0, -1199575.4, 61545.918, -0.029922195, 0.27159795, -1003635.1, 124036.99, 0.0, 10.00119, 9.998906 
1.450127e+2, 1.9493301e+2, -966968.1, -1131522.6, 53702.55, -0.08214812, 0.2606958, -950993.06, 78688.33, 0.0, 10.000936, 9.998829 
1.450109e+2, 2.049321e+2, -890915.3, -1029635.5, 25900.025, -0.06782649, 0.28803888, -886237.3, 45453.297, 0.0, 10.000742, 9.998928 
1.4500897e+2, 2.1493097e+2, -827587.0, -954994.7, 27088.217, 0.014271239, 0.2470404, -822066.94, 11634.614, 0.0, 10.000534, 9.998868 
1.450068e+2, 2.2492984e+2, -754191.56, -862094.9, 60631.773, 0.05882476, 0.24950346, -726982.94, 8728.853, 0.0, 10.000345, 9.998922 
1.450044e+2, 2.3492846e+2, -681566.25, -787275.25, 41920.867, 0.06927794, 0.18595947, -666959.94, -29236.363, 0.0, 10.000208, 9.998835 
1.4500175e+2, 2.4492753e+2, -620655.1, -686572.3, 53315.1, 0.048956092, 0.2064195, -590933.8, -51201.582, 0.0, 9.999862, 9.999022 
1.4499885e+2, 2.549269e+2, -605162.0, -637075.75, 25405.324, 0.0015675178, 0.20846008, -591118.0, -149378.8, 0.0, 9.999327, 9.998947 
1.4499581e+2, 2.6492614e+2, -568314.94, -650037.2, 4795.5054, -0.02178169, 0.2818611, -568034.5, -224286.3, 0.0, 9.999277, 9.998204 
1.4499262e+2, 2.74925e+2, -407699.34, -535112.1, -6901.3745, -0.014908725, 0.31622097, -407326.63, -161565.0, 0.00000002138944, 9.999747, 9.998106 
1.4498942e+2, 2.84923e+2, -266592.8, -364483.5, 2047.1431, -0.009124959, 0.2861676, -266550.03, -118769.28, 0.0000023054517, 9.9998255, 9.998553 
1.4498627e+2, 2.9492015e+2, -201345.31, -274241.44, -14504.88, 0.023616398, 0.10238182, -198565.16, -148760.67, 0.000016570593, 9.999558, 9.998623 
1.4498387e+2, 3.0491883e+2, -189529.1, -174322.16, 33416.55, 0.08054377, 0.08148817, -147654.95, -147654.95, 0.0000664134, 9.99904, 9.99924 
1.4497975e+2, 3.1491923e+2, -270652.56, -117686.62, -38971.254, -0.07558552, 0.17313983, -108330.19, -108330.19, 0.0001967113, 9.997986, 10.000143 
1.5502712e+2, 1.2493871e+2, -1496018.6, -1652498.4, -153439.9, -0.15076461, 0.18679474, -1402022.4, 313596.75, 0.0014879738, 10.001577, 9.999656 
1.5502524e+2, 1.3493754e+2, -1414842.5, -1537544.3, -7715.858, -0.15499687, 0.058909535, -1414359.3, 203269.53, 0.0008684092, 10.00143, 9.999836 
1.5502411e+2, 1.4493819e+2, -1358397.3, -1445593.4, 5688.3735, -0.10355527, 0.13244954, -1358027.8, 161593.03, 0.00037251608, 10.001063, 9.999962 
1.5502296e+2, 1.5493758e+2, -1341457.1, -1413391.4, 41867.707, -0.042513136, 0.05316433, -1322228.8, 99396.26, 0.00009664872, 10.000636, 9.99971 
1.5502053e+2, 1.6493714e+2, -1322879.4, -1476616.3, 554.3313, -0.057454277, 0.09838196, -1322877.4, 753.5968, 0.000009881803, 10.000617, 9.998619 
1.5501685e+2, 1.7493662e+2, -1172347.0, -1361595.1, 7404.9854, -0.15156084, 0.15079583, -1172057.6, 53583.598, 0.00000020107916, 10.001014, 9.998546 
1.5501465e+2, 1.8493597e+2, -1021049.6, -1175923.0, 37308.324, -0.16083582, 0.21211068, -1012530.8, 115119.016, 0.0, 10.0011015, 9.999112 
1.5501386e+2, 1.94935e+2, -967030.44, -1108022.5, 60740.59, -0.09209809, 0.17113033, -944472.1, 85186.62, 0.0, 10.000842, 9.999031 
1.5501219e+2, 2.0493454e+2, -875495.1, -970481.7, 5345.885, -0.045070335, 0.21147335, -875195.2, 56468.035, 0.0, 10.000618, 9.999398 
1.5500946e+2, 2.1493445e+2, -815168.8, -893154.56, 33762.016, -0.02392886, 0.22830537, -802583.44, 31081.283, 0.0, 10.0003805, 9.999365 
1.5500656e+2, 2.2493403e+2, -776820.56, -882901.94, 40600.867, -0.031544074, 0.27869472, -763065.0, -27395.494, 0.0, 10.000224, 9.998841 
1.5500349e+2, 2.3493294e+2, -706902.5, -810438.94, 52274.52, -0.07538567, 0.25492004, -685100.5, -47420.35, 0.0, 10.000073, 9.998744 
1.5500095e+2, 2.4493201e+2, -655588.8, -737803.44, 18272.559, -0.048039827, 0.2931521, -651710.56, -112020.53, 0.0, 9.999768, 9.998714 
1.5499914e+2, 2.549309e+2, -648319.25, -696510.3, 21954.31, 0.06336636, 0.27977103, -639817.44, -198115.44, 0.0, 9.999187, 9.998611 
1.5499645e+2, 2.6492983e+2, -576425.25, -646640.75, 8869.058, 0.08502825, 0.33362857, -575322.3, -231607.42, 0.0, 9.999196, 9.998262 
1.5499286e+2, 2.7492845e+2, -427437.1, -546730.7, 29340.164, 0.003922602, 0.33672726, -420611.44, -174879.44, 0.000000019825112, 9.999619, 9.998088 
1.5498917e+2, 2.8492692e+2, -267593.9, -355796.44, -19350.625, -0.049795523, 0.35447678, -263535.34, -115788.19, 0.0000019865888, 9.999777, 9.998637 
1.5498573e+2, 2.9492545e+2, -202498.78, -256639.6, -6477.2617, -0.03277702, 0.3002126, -201734.64, -151976.64, 0.000014949104, 9.999462, 9.998796 
1.5498318e+2, 3.0492476e+2, -248673.48, -272772.4, -16200.781, 0.07860987, 0.3584588, -240532.48, -240532.48, 0.000059797247, 9.998962, 9.998583 
1.5497799e+2, 3.1492344e+2, -337054.84, -211199.73, -33493.09, -0.116994195, 0.3483812, -202841.48, -202841.48, 0.00017773658, 9.997819, 9.999565 
1.6502926e+2, 1.2494169e+2, -1542916.0, -1680299.5, -3364.1792, -0.06545125, 0.2641804, -1542833.6, 172757.92, 0.0014964563, 10.001281, 9.999599 
1.6502668e+2, 1.3493977e+2, -1521036.8, -1602936.0, 25011.605, -0.10745787, 0.06636305, -1514002.5, 103605.91, 0.0008776996, 10.000742, 9.999726 
1.6502525e+2, 1.4494067e+2, -1452232.6, -1465236.8, 24855.44, -0.047136907, 0.16288722, -1433042.9, 86554.63, 0.00037921302, 10.000334, 10.000169 
1.6502357e+2, 1.5494034e+2, -1361184.5, -1401205.9, -5909.885, -0.023675457, 0.09134292, -1360330.0, 61268.62, 0.00009882513, 10.000412, 9.999902 
1.6502118e+2, 1.6493998e+2, -1320925.6, -1457116.8, 273.26062, -0.03970803, 0.12779737, -1320925.1, 2678.2993, 0.000009884257, 10.000544, 9.998785 
1.6501811e+2, 1.7493947e+2, -1211308.0, -1361217.6, 5017.023, -0.100741334, 0.16203117, -1211140.4, 14472.748, 0.0000002904704, 10.000652, 9.99872 
1.6501588e+2, 1.8493882e+2, -1104070.1, -1191419.9, 59111.117, -0.10663946, 0.20127791, -1074249.3, 53371.793, 0.0, 10.0004425, 9.999302 
1.6501449e+2, 1.9493777e+2, -1086822.0, -1141307.0, 53644.84, -0.0571688, 0.1308122, -1053898.8, -24269.137, 0.0, 9.999921, 9.999228 
1.6501248e+2, 2.0493752e+2, -1005464.4, -1014955.3, 27270.611, -0.02126193, 0.1735898, -982529.44, -50897.32, 0.0, 9.999673, 9.999543 
1.6500974e+2, 2.1493794e+2, -900901.0, -919724.56, -877.75146, 0.0068947673, 0.23022997, -900860.2, -67230.516, 0.0, 9.999736, 9.9994955 
1.6500677e+2, 2.2493768e+2, -833829.6, -896955.1, 28878.68, -0.001942468, 0.28684795, -822611.7, -86978.555, 0.0, 9.999772, 9.998963 
1.650035e+2, 2.3493658e+2, -745409.06, -809733.44, 27019.33, -0.056019828, 0.24743755, -735565.9, -97922.09, 0.0, 9.999735, 9.998907 
1.6500086e+2, 2.4493554e+2, -660066.9, -755705.56, 34548.05, -0.02901011, 0.2762209, -648892.56, -109237.63, 0.0, 9.999814, 9.998567 
1.6499901e+2, 2.5493443e+2, -531283.75, -649419.7, 17707.21, 0.098209485, 0.27142537, -528686.75, -87018.69, 0.0, 10.000048, 9.998509 
1.649964e+2, 2.6493338e+2, -461087.4, -572772.75, 51321.336, 0.13362524, 0.32605195, -441086.28, -97405.62, 0.0, 9.999887, 9.998441 
1.64993e+2, 2.7493206e+2, -450844.94, -527190.2, 50725.82, 0.08104692, 0.3123245, -425533.25, -179836.56, 0.000000024295247, 9.999331, 9.998343 
1.6498905e+2, 2.8493077e+2, -347458.56, -383047.78, 50983.844, 0.0020205618, 0.33692762, -311253.16, -163543.25, 0.0000019697127, 9.999187, 9.998737 
1.6498515e+2, 2.9492983e+2, -172518.08, -223241.97, 33125.535, -0.031449758, 0.32825652, -156160.38, -106443.66, 0.000013995548, 9.999582, 9.998978 
1.6498244e+2, 3.0493018e+2, -179376.89, -255209.19, 44450.605, 0.09868273, 0.4849571, -158867.95, -158867.95, 0.000055183133, 9.999462, 9.99848 
1.6497688e+2, 3.1492734e+2, -187894.17, -115279.88, 35839.508, -0.0355564, 0.33645356, -100570.57, -100570.57, 0.00016346599, 9.998693, 9.999816 
1.7503056e+2, 1.2494617e+2, -1594227.0, -1784177.6, -73071.63, -0.13764162, 0.3131264, -1569370.0, 146175.92, 0.0014785845, 10.001265, 9.998891 
1.7502767e+2, 1.3494341e+2, -1602686.1, -1757473.6, 12358.007, -0.11862091, 0.12842304, -1601705.6, 15869.765, 0.00086354057, 10.000694, 9.998674 
1.7502584e+2, 1.4494452e+2, -1479574.0, -1515218.4, 10421.54, -0.06430154, 0.31641778, -1476750.6, 42814.92, 0.00037008742, 10.000289, 9.999855 
1.7502338e+2, 1.5494452e+2, -1381506.1, -1438197.5, 14362.958, -0.1210859, 0.3026553, -1378074.9, 43490.145, 0.000094032526, 10.000388, 9.99966 
1.750215e+2, 1.6494422e+2, -1284420.4, -1374686.3, -10697.914, -0.098181866, 0.32728902, -1283169.8, 40398.555, 0.000008393363, 10.000504, 9.999377 
1.7502013e+2, 1.7494337e+2, -1176754.3, -1277301.3, 24171.652, -0.00034222717, 0.27050382, -1171245.1, 54332.332, 0.00000020811186, 10.000601, 9.999321 
1.7501767e+2, 1.8494253e+2, -1099552.9, -1166192.0, 26429.707, -0.004842378, 0.2517966, -1090343.4, 37241.46, 0.0, 10.000365, 9.999517 
1.7501412e+2, 1.9494146e+2, -1087183.1, -1114515.6, 48818.805, -0.12134251, 0.15586352, -1050153.9, -20561.098, 0.0, 9.9998045, 9.999468 
1.7501134e+2, 2.0494112e+2, -1039471.2, -1060430.5, 12271.508, -0.13243832, 0.1898335, -1033813.5, -102217.13, 0.0, 9.999556, 9.99929 
1.7500934e+2, 2.1494132e+2, -940368.75, -970076.75, 16500.865, -0.034894247, 0.24787869, -933020.94, -99423.37, 0.0, 9.999599, 9.999215 
1.7500693e+2, 2.2494079e+2, -825296.25, -850074.8, 13298.218, 0.008641854, 0.2730902, -819510.3, -83907.21, 0.0, 9.999642, 9.999347 
1.7500393e+2, 2.3493929e+2, -739149.8, -764916.06, 40262.754, -0.014898648, 0.15324552, -709759.25, -72143.875, 0.0, 9.999592, 9.999285 
1.7500097e+2, 2.4493815e+2, -676843.06, -769284.8, 29320.367, -0.028541394, 0.15496594, -668327.7, -128700.99, 0.0, 9.9997225, 9.998514 
1.7499804e+2, 2.549373e+2, -558463.44, -672400.44, 40488.926, -0.034363512, 0.18412769, -545540.9, -103902.77, 0.0, 9.999905, 9.998421 
1.7499535e+2, 2.649367e+2, -436040.38, -514876.2, 14696.471, 0.007443126, 0.26263186, -433389.8, -89743.5, 0.0, 9.999853, 9.998857 
1.7499262e+2, 2.7493578e+2, -433551.63, -472165.28, 43032.79, 0.07239513, 0.2501687, -405693.06, -160037.03, 0.000000035492793, 9.999239, 9.998771 
1.7498857e+2, 2.8493455e+2, -339499.9, -359024.84, 49685.098, -0.00032274483, 0.24835518, -298627.25, -150958.6, 0.0000021240596, 9.999162, 9.998907 
1.7498383e+2, 2.9493332e+2, -178825.86, -207085.63, 65600.64, -0.16108055, 0.19054367, -125850.62, -76170.23, 0.000013429294, 9.999473, 9.999131 
1.7498127e+2, 3.049351e+2, -142327.22, -175913.89, 7131.3555, 0.0034747135, 0.45460272, -140875.77, -140875.77, 0.000050919698, 9.999448, 9.999035 
1.749755e+2, 3.1493142e+2, -123283.23, 53140.44, 93399.07, -0.11821076, 0.16923933, 93399.28, 93399.28, 0.00014908816, 9.998575, 10.001018 
1.8503189e+2, 1.2494852e+2, -1764998.4, -1816721.4, -124589.73, -0.04925156, 0.28106514, -1663614.4, 51909.06, 0.0014297328, 9.999878, 9.999332 
1.8502921e+2, 1.3494626e+2, -1479017.1, -1690019.9, -13093.405, -0.06136006, 0.13974302, -1478207.6, 139339.94, 0.00082590414, 10.001516, 9.998735 
1.850274e+2, 1.4494741e+2, -1286355.8, -1457729.0, 32927.258, 0.0007019368, 0.34456363, -1280247.0, 239290.8, 0.00034715154, 10.001758, 9.999537 
1.8502401e+2, 1.5494688e+2, -1345654.5, -1454343.5, 2436.1084, -0.10752882, 0.30551472, -1345599.9, 75943.98, 0.0000844504, 10.000762, 9.9993725 
1.8502188e+2, 1.6494663e+2, -1306262.6, -1321016.3, 19303.018, -0.08321182, 0.32181808, -1292974.9, 30571.373, 0.000006352812, 10.0001135, 9.999915 
1.8502109e+2, 1.7494635e+2, -1236526.4, -1245740.4, 22403.465, 0.0775498, 0.267476, -1218261.1, 7286.6045, 0.000000056960435, 9.9999485, 9.999843 
1.8501866e+2, 1.8494591e+2, -1147760.8, -1165737.6, 41721.53, 0.08638858, 0.2502323, -1114070.5, 13479.896, 0.0, 9.999948, 9.999718 
1.8501446e+2, 1.9494513e+2, -1040703.0, -1069502.5, 31912.826, -0.07282869, 0.16540407, -1020091.6, 9463.918, 0.0, 10.000033, 9.999668 
1.8501131e+2, 2.0494476e+2, -965073.5, -1035381.1, 39442.94, -0.10888766, 0.19106068, -947392.3, -15832.745, 0.0, 10.000096, 9.999206 
1.8500923e+2, 2.1494465e+2, -870428.9, -946926.6, 30003.455, -0.023113707, 0.22416356, -860065.2, -26500.963, 0.0, 10.000104, 9.999137 
1.8500689e+2, 2.2494417e+2, -767012.94, -805566.4, 45473.934, 0.030259944, 0.2498543, -736898.7, -1329.2191, 0.0, 9.999975, 9.999494 
1.8500416e+2, 2.349431e+2, -713475.4, -737920.4, 25439.451, 0.050226018, 0.16103396, -697474.56, -59897.13, 0.0, 9.999702, 9.999418 
1.850011e+2, 2.4494214e+2, -679516.94, -751382.06, 54660.8, 0.024125002, 0.16581833, -650035.8, -110448.695, 0.0, 9.999617, 9.99869 
1.8499777e+2, 2.5494117e+2, -573391.4, -658255.4, 56949.906, -0.033645354, 0.16264604, -544803.94, -103204.32, 0.0, 9.999699, 9.998618 
1.849949e+2, 2.6494068e+2, -460256.75, -523443.94, 35849.598, -0.008604275, 0.24649046, -444065.94, -100459.57, 0.0, 9.9997015, 9.998862 
1.8499225e+2, 2.749403e+2, -354821.38, -432315.03, 2519.9536, 0.09397896, 0.2875583, -354739.5, -109128.23, 0.000000044067633, 9.999787, 9.998782 
1.8498814e+2, 2.849388e+2, -270961.4, -326198.22, 18382.145, 0.02788579, 0.2587174, -265403.34, -117776.695, 0.000002141611, 9.999602, 9.998932 
1.8498312e+2, 2.9493663e+2, -247803.0, -241820.1, -13984.319, -0.14403123, 0.10211635, -230510.84, -180862.45, 0.000012353572, 9.998978, 9.999143 
1.8498053e+2, 3.0493936e+2, -264036.7, -201435.3, -65120.47, 0.04613746, 0.44874913, -160483.6, -160483.6, 0.00004451732, 9.99846, 9.999337 
1.8497472e+2, 3.149361e+2, -156256.02, 49585.164, -3681.2883, -0.022269078, 0.17831056, 49650.98, 49650.98, 0.00012893318, 9.998229, 10.001196 
1.9503234e+2, 1.24948986e+2, -1670919.6, -1599376.9, -114167.71, -0.068393014, 0.1942669, -1515507.8, 200014.02, 0.0013506947, 9.999797, 10.000861 
1.9503093e+2, 1.3494833e+2, -1410332.5, -1531701.0, 56697.254, -0.07532531, 0.10304905, -1387967.6, 229557.1, 0.00077082973, 10.00147, 9.999839 
1.9502945e+2, 1.4494936e+2, -1313550.0, -1499472.6, -22317.395, -0.01344232, 0.25324917, -1310908.6, 208605.45, 0.0003170448, 10.001688, 9.999288 
1.9502494e+2, 1.5494761e+2, -1369235.3, -1492669.1, -22061.297, -0.12634797, 0.11578801, -1365410.8, 56122.574, 0.000073711046, 10.000719, 9.999129 
1.9502188e+2, 1.6494744e+2, -1279861.5, -1257831.0, 501.982, -0.12778501, 0.12985678, -1257819.6, 65715.63, 0.0000047225935, 10.000062, 10.000383 
1.9502063e+2, 1.749485e+2, -1210483.4, -1179317.3, 33696.125, -0.00038683828, 0.1605851, -1157775.4, 67747.836, 0.0000000036456946, 9.999889, 10.000332 
1.9501841e+2, 1.8494897e+2, -1150263.6, -1149854.3, 30405.559, 0.03430434, 0.20235614, -1119652.8, 7864.7124, 0.0, 9.999852, 9.99988 
1.9501507e+2, 1.949487e+2, -1045540.94, -1056281.4, 49745.242, -0.04482057, 0.15471819, -1000876.94, 28641.877, 0.0, 9.999929, 9.999814 
1.9501193e+2, 2.0494847e+2, -979334.7, -1026326.2, 27869.775, -0.08561815, 0.18057998, -966378.06, -34856.4, 0.0, 9.999936, 9.99934 
1.9500898e+2, 2.1494798e+2, -882684.9, -936529.56, 44599.36, -0.08981537, 0.1639121, -857512.0, -23983.006, 0.0, 9.999951, 9.999281 
1.9500622e+2, 2.249479e+2, -800918.75, -837735.9, 20241.41, -0.058879573, 0.2303214, -791966.94, -56435.816, 0.0, 9.999819, 9.999345 
1.9500366e+2, 2.3494808e+2, -747731.94, -768014.2, 28988.65, 0.0013158357, 0.28089043, -727161.75, -89632.19, 0.0, 9.999535, 9.999289 
1.9500083e+2, 2.4494754e+2, -665554.0, -694969.2, 43812.395, 0.007880882, 0.31017867, -634046.5, -94510.56, 0.0, 9.999499, 9.999133 
1.9499768e+2, 2.5494608e+2, -565123.6, -603453.1, 73823.83, -0.04503456, 0.21218832, -508017.53, -66465.68, 0.0, 9.99954, 9.999069 
1.9499458e+2, 2.6494557e+2, -499662.8, -594133.2, 24444.762, -0.04157287, 0.29353032, -493712.38, -150153.2, 0.0, 9.999647, 9.99841 
1.9499147e+2, 2.7494556e+2, -401323.97, -512848.47, 24960.229, 0.00421585, 0.42174527, -395992.53, -150429.89, 0.000000036761158, 9.999708, 9.998276 
1.9498743e+2, 2.849434e+2, -290866.1, -353965.47, -16691.883, -0.037112035, 0.3613245, -286722.63, -139137.36, 0.0000018181237, 9.999548, 9.998767 
1.9498266e+2, 2.9493973e+2, -279663.6, -272942.66, -22447.936, -0.12757854, 0.07332507, -253605.05, -203984.67, 0.000010151812, 9.9988365, 9.998992 
1.9497983e+2, 3.0494303e+2, -264360.72, -187689.98, -87672.516, 0.09591139, 0.47753724, -130338.0, -130338.0, 0.00003534469, 9.998414, 9.999445 
1.9497372e+2, 3.149417e+2, -212571.56, -27236.475, 76162.04, -0.012513402, 0.38547602, 45.680542, 45.680542, 0.000103030594, 9.998094, 10.000711 
2.050337e+2, 1.2495144e+2, -1506378.1, -1485050.1, 51187.17, 0.055110585, 0.15221526, -1443427.9, 272069.3, 0.0012481128, 10.000791, 10.001169 
2.0503187e+2, 1.3495138e+2, -1623897.6, -1632904.4, 86991.48, -0.037531607, 0.117298804, -1541293.1, 76201.17, 0.0007037624, 9.999977, 9.999885 
2.0503063e+2, 1.44952e+2, -1579955.3, -1582369.9, 9706.269, 0.048422605, 0.20649557, -1571381.5, -51894.453, 0.00028324383, 9.999676, 9.999687 
2.0502564e+2, 1.549507e+2, -1413240.3, -1467837.9, 18443.078, -0.09221894, 0.07514758, -1407594.1, 13906.646, 0.000063005726, 10.000228, 9.999534 
2.0502229e+2, 1.6495068e+2, -1238100.9, -1257291.3, 69983.99, -0.10298794, 0.092606105, -1177057.4, 146443.47, 0.0000035155435, 10.000434, 10.000211 
2.050209e+2, 1.7495157e+2, -1185875.0, -1190786.6, 20921.217, 0.03461714, 0.12817414, -1167266.0, 58225.29, 0.0000000004928599, 10.000155, 10.000133 
2.0501873e+2, 1.8495214e+2, -1138794.0, -1120957.6, 28429.887, 0.08980272, 0.1797651, -1100080.0, 27404.787, 0.0, 9.999822, 10.000092 
2.050156e+2, 1.9495228e+2, -1102311.6, -1061694.8, 22378.988, 0.04829777, 0.15165645, -1051783.1, -22300.895, 0.0, 9.9994335, 10.000015 
2.0501237e+2, 2.0495214e+2, -1029752.5, -1036807.6, 49721.848, -0.008084497, 0.16830452, -983433.25, -51949.363, 0.0, 9.999528, 9.999466 
2.050091e+2, 2.1495143e+2, -862660.3, -911646.4, 40359.72, -0.06735204, 0.11784306, -839943.0, -6450.686, 0.0, 10.000029, 9.9994135 
2.0500614e+2, 2.2495139e+2, -756094.7, -809865.7, 29722.338, -0.056319453, 0.1784828, -742902.1, -7408.3613, 0.0, 10.000095, 9.9994 
2.050035e+2, 2.3495181e+2, -721674.0, -753295.56, 24556.951, 0.03050381, 0.24695306, -708278.2, -70787.86, 0.0, 9.999691, 9.999318 
2.0500073e+2, 2.4495143e+2, -655885.0, -695703.6, 72028.15, 0.0524244, 0.29341075, -601065.2, -61569.26, 0.0, 9.999591, 9.999082 
2.0499788e+2, 2.5495008e+2, -523370.8, -589766.0, 34594.703, 0.01368142, 0.21386112, -508621.84, -67109.68, 0.0, 9.999862, 9.999006 
2.0499474e+2, 2.6494962e+2, -444357.94, -553364.0, 9394.473, 0.0021150673, 0.29760095, -443554.22, -100034.8, 0.0, 9.999962, 9.998537 
2.0499127e+2, 2.749496e+2, -371557.94, -482282.1, 22421.531, 0.01642181, 0.40875834, -367189.9, -121667.3, 0.00000002096579, 9.999846, 9.998412 
2.0498723e+2, 2.8494754e+2, -267335.66, -331432.63, 34071.816, -0.008582487, 0.34977448, -252608.14, -105064.39, 0.0000012828043, 9.999683, 9.998849 
2.0498267e+2, 2.9494423e+2, -164498.02, -205596.27, 16966.898, -0.035860926, 0.0871427, -158398.66, -108823.43, 0.000007381431, 9.999585, 9.999093 
2.0497923e+2, 3.049475e+2, -101690.945, -125196.38, -7138.2456, 0.14979632, 0.49233434, -99692.99, -99692.99, 0.00002618385, 9.999598, 9.999318 
2.0497331e+2, 3.1494534e+2, -43137.973, -8001.3604, 112318.586, 0.08069945, 0.32943806, 88114.586, 88114.586, 0.000078949044, 9.999558, 10.000133 
2.1503487e+2, 1.2495588e+2, -1580127.0, -1626105.1, -26924.023, 0.018263735, 0.15816486, -1567712.8, 147737.52, 0.0011286415, 10.000729, 10.000235 
2.1503173e+2, 1.349555e+2, -1682619.8, -1767445.4, 69686.63, -0.08755409, 0.18327181, -1643453.9, -25998.422, 0.00062779407, 10.000022, 9.998941 
2.1503055e+2, 1.449555e+2, -1520130.4, -1451427.6, 11870.286, 0.028973693, 0.21598326, -1449434.5, 70020.26, 0.00024660726, 9.999642, 10.000601 
2.1502572e+2, 1.5495624e+2, -1344028.1, -1329229.0, 55275.867, -0.14627197, 0.18947382, -1280859.6, 140585.64, 0.000052325075, 10.000241, 10.000479 
2.1502261e+2, 1.6495635e+2, -1311706.3, -1392580.0, 45470.51, -0.14590085, 0.21648873, -1291293.3, 32150.104, 0.000002586899, 10.00036, 9.999315 
2.1502148e+2, 1.7495546e+2, -1258066.3, -1322671.1, 26423.596, 0.04352091, 0.1606224, -1248635.5, -23182.807, 0.000000000052014764, 10.000084, 9.999254 
2.1501912e+2, 1.8495536e+2, -1138494.5, -1095928.0, 1281.8591, 0.11695199, 0.17743127, -1095889.5, 31563.69, 0.0, 9.999709, 10.0003195 
2.1501559e+2, 1.9495581e+2, -1091784.8, -1026715.2, 24006.521, 0.06942382, 0.15269446, -1018817.0, 10629.502, 0.0, 9.999369, 10.000287 
2.1501224e+2, 2.0495576e+2, -1035892.5, -1022209.94, 54174.355, -0.0026697337, 0.15546498, -974446.6, -43000.15, 0.0, 9.999411, 9.999621 
2.1500915e+2, 2.1495491e+2, -871891.7, -897207.44, 71312.266, -0.09732298, 0.07627691, -812122.6, 21332.486, 0.0, 9.999883, 9.99958 
2.1500613e+2, 2.249545e+2, -764196.1, -786179.06, 861.33356, -0.0927249, 0.07885856, -764162.44, -28703.652, 0.0, 9.999926, 9.999641 
2.1500319e+2, 2.3495431e+2, -730439.06, -727501.4, 25423.34, 0.0023202943, 0.059122402, -703504.5, -66045.14, 0.0, 9.999507, 9.999578 
2.1500044e+2, 2.4495392e+2, -713301.1, -792626.4, 67961.26, 0.033749506, 0.12281853, -674275.4, -134809.22, 0.0, 9.999494, 9.9984665 
2.1499796e+2, 2.549532e+2, -585624.0, -686982.75, 60768.715, 0.0016201404, 0.17200504, -557175.4, -115695.125, 0.0, 9.999724, 9.998406 
2.1499492e+2, 2.6495287e+2, -407246.94, -457493.2, -9177.729, -0.007672795, 0.2615359, -405623.06, -62135.992, 0.0, 9.999881, 9.99923 
2.1499118e+2, 2.7495232e+2, -343492.5, -393125.1, 33950.777, -0.011532256, 0.25066072, -326255.22, -80763.21, 0.00000000626477, 9.999712, 9.999087 
2.149871e+2, 2.8495118e+2, -240906.0, -267677.88, 15504.924, -0.023912722, 0.22332722, -233808.14, -86305.13, 0.00000075455597, 9.999647, 9.999303 
2.1498285e+2, 2.9495013e+2, -149726.02, -159301.42, 29306.967, -0.016414912, 0.14512773, -124818.26, -75305.67, 0.0000049684672, 9.999518, 9.999444 
2.1497846e+2, 3.0495283e+2, -135740.45, -200178.81, -19999.346, 0.082651265, 0.502003, -130038.016, -130038.016, 0.000019575336, 9.999609, 9.998801 
2.1497273e+2, 3.1494692e+2, -121133.555, -152289.73, 178679.63, -0.0052537825, 0.016465427, 42645.773, 42645.773, 0.00006230811, 9.999479, 9.999186 
2.2503628e+2, 1.24960415e+2, -1631331.9, -1686633.0, -21195.535, 0.114060834, 0.21663041, -1624142.8, 91263.6, 0.0009987325, 10.000515, 9.999922 
2.25032e+2, 1.349597e+2, -1613600.8, -1739984.1, 60632.223, -0.07512714, 0.21305875, -1589217.0, 28197.506, 0.0005469882, 10.00054, 9.998866 
2.2503111e+2, 1.4495908e+2, -1391836.6, -1404679.1, 66944.62, 0.082329504, 0.19100334, -1331006.0, 188414.4, 0.00020906689, 10.000595, 10.000471 
2.2502671e+2, 1.5496033e+2, -1264239.4, -1307674.5, -1702.0598, -0.09392089, 0.23541711, -1264172.8, 157233.6, 0.000042237294, 10.000871, 10.00033 
2.2502363e+2, 1.6496049e+2, -1232436.4, -1335906.0, -11200.681, -0.09652709, 0.26798728, -1231237.9, 92165.164, 0.0000020119714, 10.000826, 9.999468 
2.2502199e+2, 1.7495912e+2, -1198852.1, -1278809.1, 14340.825, 0.07702872, 0.14735204, -1196357.9, 29056.97, 0.0, 10.00043, 9.999378 
2.2501937e+2, 1.8495871e+2, -1088016.8, -1100862.6, 38217.41, 0.15347776, 0.13948935, -1055686.3, 71731.836, 0.0, 10.000181, 10.000061 
2.2501576e+2, 1.9495913e+2, -1031343.8, -1026914.06, -8967.736, 0.12887302, 0.13983661, -1019891.75, 9522.082, 0.0, 9.999927, 10.00002 
2.2501245e+2, 2.0495918e+2, -968242.9, -968074.6, 46794.727, 0.066925675, 0.15817192, -921363.94, 10049.178, 0.0, 9.999773, 9.999833 
2.250095e+2, 2.1495853e+2, -898373.5, -888889.1, 43751.39, -0.02732485, 0.078045115, -849623.7, -16204.825, 0.0, 9.999601, 9.999784 
2.2500649e+2, 2.2495823e+2, -767340.3, -774679.1, -4673.8857, -0.03834904, 0.07380139, -765067.56, -29646.57, 0.0, 9.99984, 9.999766 
2.2500344e+2, 2.3495801e+2, -586081.6, -642383.75, -20496.807, 0.03876697, 0.040456314, -579410.25, 58011.31, 0.0, 10.000436, 9.999715 
2.2500055e+2, 2.4495772e+2, -567359.5, -722400.25, 60384.5, 0.05301911, 0.10648029, -546616.44, -7189.0, 0.0, 10.000493, 9.998465 
2.249978e+2, 2.549571e+2, -540918.7, -670189.25, 69427.43, 0.008885622, 0.16698869, -510696.78, -69256.266, 0.0, 10.000035, 9.998378 
2.2499473e+2, 2.6495683e+2, -428762.03, -426714.22, 34255.9, 0.0099061, 0.24260682, -393466.94, -50020.527, 0.0, 9.99956, 9.999594 
2.2499132e+2, 2.7495635e+2, -392291.47, -373713.28, 22410.287, 0.065941446, 0.1997429, -358743.2, -113293.83, 0.00000000006385136, 9.999189, 9.999472 
2.2498736e+2, 2.8495544e+2, -303782.8, -299173.6, 20463.129, 0.067912646, 0.17871623, -280885.72, -133427.98, 0.00000032397858, 9.999211, 9.999301 
2.2498277e+2, 2.949548e+2, -147914.47, -166830.45, -32020.182, 0.03138194, 0.14214885, -123984.65, -74520.03, 0.000003287384, 9.999574, 9.999359 
2.2497755e+2, 3.0495697e+2, -129424.68, -210607.7, -55721.03, 0.04002228, 0.45957035, -101077.78, -101077.78, 0.00001601569, 9.999711, 9.998674 
2.2497314e+2, 3.1495133e+2, -103542.67, -123622.06, 141978.89, 0.104502074, -0.0026680417, 28751.047, 28751.047, 0.000054019332, 9.999501, 9.999371 
2.3503725e+2, 1.24965e+2, -1617964.8, -1654732.8, -46935.523, 0.082866214, 0.3127985, -1585941.3, 129424.805, 0.0008678289, 10.000502, 10.000153 
2.350322e+2, 1.3496387e+2, -1558705.9, -1638555.9, 64155.16, -0.14424384, 0.21021089, -1523067.0, 94305.87, 0.00046623294, 10.000575, 9.9995575 
2.3503174e+2, 1.4496242e+2, -1484927.3, -1568685.8, 59955.168, 0.05128515, 0.12131469, -1453673.1, 65713.28, 0.00017258529, 10.000479, 9.999401 
2.3502816e+2, 1.5496284e+2, -1349286.0, -1474884.8, 26892.863, -0.070569865, 0.19898881, -1343770.0, 77615.09, 0.000033446406, 10.000833, 9.999204 
2.3502488e+2, 1.6496296e+2, -1170354.3, -1183237.0, -41730.09, -0.08697342, 0.23100814, -1134571.3, 188810.08, 0.0000017722703, 10.00073, 10.000565 
2.3502211e+2, 1.7496237e+2, -1124360.5, -1111924.9, 14093.074, 0.011542321, 0.07452617, -1102738.9, 122640.55, 0.0000000001389195, 10.000374, 10.000555 
2.3501901e+2, 1.8496214e+2, -1164043.3, -1229084.6, 14961.756, 0.071997, 0.066725224, -1160766.6, -33386.438, 0.0, 10.00006, 9.99924 
2.3501559e+2, 1.9496216e+2, -1101613.9, -1155864.8, -5404.539, 0.08776399, 0.11017888, -1101080.8, -71695.6, 0.0, 9.99985, 9.999173 
2.3501247e+2, 2.049623e+2, -971433.7, -933885.1, 26477.48, 0.067312166, 0.16637164, -920201.25, 11183.989, 0.0, 9.999603, 10.000145 
2.3500973e+2, 2.1496227e+2, -899885.44, -853037.3, 54306.86, 0.0071047717, 0.114672944, -817318.1, 16065.547, 0.0, 9.999433, 10.000111 
2.3500684e+2, 2.2496256e+2, -795876.44, -793965.44, 7150.678, -0.014729106, 0.1563528, -787706.7, -52326.496, 0.0, 9.999672, 9.999716 
2.350038e+2, 2.3496294e+2, -609145.7, -660193.94, 18713.6, -0.0006679856, 0.19058363, -603020.5, 34356.383, 0.0, 10.000302, 9.999661 
2.350005e+2, 2.4496272e+2, -537991.56, -639483.06, 29355.1, -0.03350918, 0.23748147, -530112.6, 9268.184, 0.0, 10.000396, 9.999082 
2.3499693e+2, 2.5496176e+2, -517843.34, -587899.4, 66364.69, -0.115417, 0.19662306, -477829.8, -36436.266, 0.0, 9.9998865, 9.999014 
2.3499379e+2, 2.649615e+2, -439333.22, -428310.47, 5564.549, -0.071209066, 0.24685791, -425989.9, -82593.09, 0.0, 9.999477, 9.999625 
2.3499127e+2, 2.749616e+2, -406902.2, -376927.53, 26029.295, 0.10973914, 0.25708583, -361879.16, -116484.24, 0.0, 9.999068, 9.999513 
2.3498744e+2, 2.8496042e+2, -340996.22, -364334.34, 21497.799, 0.12168908, 0.22617829, -328204.66, -180797.28, 0.00000009734078, 9.999161, 9.998877 
2.3498192e+2, 2.9495826e+2, -201617.94, -257218.55, -2288.7295, -0.055369157, 0.0842596, -201523.89, -152092.25, 0.0000024854203, 9.999472, 9.998795 
2.34976e+2, 3.0495998e+2, -98861.695, -141815.58, -71991.66, -0.119549245, 0.36832866, -45211.695, -45211.695, 0.000014818684, 9.999694, 9.999155 
2.3497377e+2, 3.1495884e+2, -13988.47, 76416.44, 177493.81, 0.14471722, 0.29947555, 214373.25, 214373.25, 0.00005156838, 9.999433, 10.000785 
2.4503888e+2, 1.2496866e+2, -1479496.9, -1583525.1, 27267.252, 0.16297674, 0.28985432, -1472783.0, 242547.47, 0.00074233726, 10.001469, 10.000164 
2.4503286e+2, 1.3496816e+2, -1521597.1, -1585446.3, 29229.676, -0.12692036, 0.21976857, -1510237.1, 107093.03, 0.00038816038, 10.000695, 9.999862 
2.4503253e+2, 1.4496683e+2, -1523615.4, -1575279.6, 112516.95, 0.11048692, 0.121808395, -1434003.3, 85338.12, 0.00013769997, 10.000145, 9.999513 
2.4502946e+2, 1.5496682e+2, -1452722.0, -1514076.0, 138414.2, 0.02379375, 0.14090575, -1341626.0, 79717.06, 0.000025817635, 10.000085, 9.999284 
2.4502598e+2, 1.6496679e+2, -1232971.9, -1223572.8, 100925.92, -0.023866454, 0.1594227, -1127237.0, 196103.63, 0.0000016011192, 10.000333, 10.000494 
2.4502248e+2, 1.7496644e+2, -1074616.5, -1095590.1, 37631.625, 0.0031174617, 0.036667343, -1046037.8, 179299.2, 0.0000000006420841, 10.000747, 10.000498 
2.4501929e+2, 1.8496622e+2, -1038695.94, -1205166.8, 37961.55, 0.0496253, 0.049125165, -1030448.0, 96890.875, 0.0, 10.001088, 9.998901 
2.4501628e+2, 1.9496593e+2, -918769.06, -1105048.5, 28648.873, 0.10994344, 0.09564087, -914462.56, 114885.55, 0.0, 10.001282, 9.998821 
2.4501327e+2, 2.0496613e+2, -748384.2, -812574.6, 81562.9, 0.12134692, 0.16881984, -692828.94, 238519.45, 0.0, 10.001084, 10.000256 
2.4501044e+2, 2.1496658e+2, -761559.2, -772204.5, 60558.938, 0.098572776, 0.15393087, -706089.44, 127252.37, 0.0, 10.000336, 10.000221 
2.4500723e+2, 2.2496682e+2, -763477.25, -782778.2, 58113.445, 0.054370034, 0.18907332, -714218.44, 21119.893, 0.0, 9.999916, 9.999674 
2.4500372e+2, 2.349667e+2, -685167.44, -699218.94, 47334.902, -0.0064860345, 0.17371984, -644339.7, -6999.867, 0.0, 9.999803, 9.999631 
2.4500051e+2, 2.4496637e+2, -601637.56, -634353.7, 61435.473, -0.035016987, 0.19549671, -554419.6, -15076.051, 0.0, 9.9998, 9.999416 
2.4499764e+2, 2.5496572e+2, -493613.97, -535484.5, 48490.902, -0.025171889, 0.15359269, -461732.1, -20381.047, 0.0, 9.999886, 9.999379 
2.4499421e+2, 2.6496542e+2, -388884.7, -434717.8, -6780.15, 0.0065374356, 0.193344, -387902.75, -44548.273, 0.0, 9.999938, 9.999366 
2.4499045e+2, 2.7496526e+2, -293856.03, -346485.72, -36239.023, 0.0859219, 0.20454852, -275385.4, -30029.23, 0.0, 9.999954, 9.999292 
2.4498674e+2, 2.849643e+2, -209953.02, -318548.1, 13522.305, 0.09719841, 0.21156669, -208294.53, -60926.848, 0.00000009803459, 10.000126, 9.998734 
2.4498251e+2, 2.949624e+2, -69024.414, -208529.56, -18455.283, 0.018654257, 0.10809708, -66624.24, -17234.496, 0.0000023443192, 10.000444, 9.998662 
2.4497607e+2, 3.0496293e+2, -19371.096, -140892.55, -92050.51, -0.10415689, 0.29700857, 30163.969, 30163.969, 0.000014153015, 10.000405, 9.99882 
2.4497399e+2, 3.1496298e+2, 45283.336, 144378.44, 18257.412, 0.22481535, 0.38193956, 147635.17, 147635.17, 0.00004937861, 9.999706, 10.001106 
2.5504017e+2, 1.249715e+2, -1502043.3, -1622581.3, -12170.077, 0.07172638, 0.15203454, -1500826.8, 214472.19, 0.00062344765, 10.0014305, 9.99992 
2.550337e+2, 1.3497242e+2, -1517664.0, -1574979.8, 10001.245, -0.14447232, 0.22381535, -1515969.0, 101318.97, 0.0003143659, 10.0006895, 9.999937 
2.5503325e+2, 1.4497222e+2, -1448483.1, -1402067.9, 90237.79, 0.12686363, 0.1745652, -1332101.3, 187184.98, 0.00010539114, 10.000076, 10.00073 
2.5502998e+2, 1.5497212e+2, -1372760.0, -1334906.8, 149647.34, 0.029781898, 0.06035275, -1202993.9, 218287.75, 0.000019009012, 10.000033, 10.000533 
2.5502634e+2, 1.6497192e+2, -1328733.0, -1401840.6, 101017.15, -0.048653472, 0.056272827, -1257859.4, 65421.707, 0.0000013062046, 10.000245, 9.999312 
2.5502264e+2, 1.749714e+2, -1166277.6, -1275177.0, 70128.7, -0.087992795, 0.038138736, -1131942.1, 93344.664, 0.000000000635992, 10.000702, 9.999285 
2.550197e+2, 1.8497097e+2, -1042188.6, -1191037.9, 33409.523, -0.049736608, 0.08578675, -1035033.7, 92259.75, 0.0, 10.000991, 9.999045 
2.550174e+2, 1.9497037e+2, -918087.3, -1083855.9, 51994.11, 0.0581491, 0.0813468, -903128.9, 126174.87, 0.0, 10.001188, 9.999011 
2.5501454e+2, 2.0497055e+2, -790232.2, -856833.06, 41910.574, 0.110406764, 0.15254234, -770003.0, 161300.53, 0.0, 10.000906, 10.000036 
2.5501117e+2, 2.1497129e+2, -796642.3, -812194.06, 46335.063, 0.10823124, 0.18689589, -757435.2, 75859.63, 0.0, 10.000196, 10.000012 
2.5500724e+2, 2.249709e+2, -782485.3, -789459.06, 38756.703, 0.0343108, 0.16871136, -747058.94, -11762.239, 0.0, 9.999774, 9.999697 
2.550027e+2, 2.3496911e+2, -704814.3, -705923.56, 57798.813, -0.11593017, -0.015124124, -647567.44, -10255.662, 0.0, 9.999652, 9.999659 
2.5500017e+2, 2.449685e+2, -614907.0, -634377.56, 49839.87, -0.07724708, -0.027353438, -573860.5, -34543.46, 0.0, 9.999688, 9.999466 
2.5499952e+2, 2.5496882e+2, -513458.1, -541956.5, 63957.594, 0.14257115, 0.02344199, -462181.63, -20866.715, 0.0, 9.999735, 9.999408 
2.549955e+2, 2.6496845e+2, -440586.84, -514986.88, -21525.521, 0.11220585, 0.078522444, -434807.94, -91487.57, 0.0, 9.999833, 9.998862 
2.549884e+2, 2.749672e+2, -346473.75, -428010.28, -20319.754, -0.14990188, 0.031460527, -341690.47, -96355.14, 0.0, 9.999832, 9.9987955 
2.5498483e+2, 2.849669e+2, -208723.81, -297338.8, 10630.415, -0.13879506, 0.12404911, -207466.4, -60125.97, 0.00000013920514, 10.000055, 9.998909 
2.5498408e+2, 2.9496714e+2, -79346.08, -191514.44, 7837.1406, 0.092946224, 0.21481131, -78801.15, -29461.295, 0.0000022917138, 10.000288, 9.998851 
2.5497732e+2, 3.0496562e+2, -107431.234, -311720.5, -125494.734, -0.049589727, 0.24316339, -47765.934, -47765.934, 0.0000129202135, 10.000358, 9.997664 
2.549728e+2, 3.149632e+2, -38899.793, -12803.726, 6786.8057, 0.06404899, 0.20514843, -11144.213, -11144.213, 0.000045825393, 9.99963, 10.000063 
2.650409e+2, 1.249757e+2, -1592427.3, -1706016.0, 71935.17, 0.043527577, 0.10446228, -1557568.6, 157684.9, 0.00051409315, 10.000934, 9.9995985 
2.6503527e+2, 1.3497649e+2, -1538354.0, -1625772.5, -20534.953, -0.04127301, 0.18891573, -1533770.6, 83476.195, 0.0002486299, 10.000678, 9.999609 
2.650347e+2, 1.4497669e+2, -1398577.8, -1358530.3, 67269.79, 0.260064, 0.18794249, -1308367.3, 210874.66, 0.00007773356, 10.000341, 10.000901 
2.6503065e+2, 1.5497644e+2, -1288895.0, -1277841.8, 14921.115, 0.07872734, 0.042033315, -1267456.6, 153781.0, 0.000013419433, 10.00052, 10.000702 
2.6502696e+2, 1.6497624e+2, -1279408.6, -1407845.3, 3513.77, -0.02729794, 0.04141818, -1279312.5, 43925.53, 0.0000010267595, 10.000719, 9.999035 
2.6502377e+2, 1.7497593e+2, -1159788.8, -1302307.8, 9845.576, -0.04739327, 0.07075516, -1159111.8, 66132.63, 0.0000000012219834, 10.00088, 9.999003 
2.6502076e+2, 1.8497565e+2, -1036509.4, -1140543.4, 31009.209, -0.027745092, 0.12377498, -1027967.8, 99281.99, 0.0, 10.00083, 9.999472 
2.650179e+2, 1.9497512e+2, -998823.44, -1076031.8, 35377.402, 0.03668511, 0.08942661, -985065.0, 44191.285, 0.0, 10.000435, 9.9994335 
2.6501495e+2, 2.0497513e+2, -870312.44, -934380.06, 58540.35, 0.09308042, 0.1392925, -835614.44, 95642.39, 0.0, 10.000509, 9.999702 
2.6501203e+2, 2.1497548e+2, -714686.56, -812565.06, 26229.498, 0.14473113, 0.170444, -708100.7, 125152.41, 0.0, 10.000927, 9.999664 
2.6500818e+2, 2.2497496e+2, -623480.56, -723615.6, 32283.328, 0.10298647, 0.16114396, -613974.9, 121282.04, 0.0, 10.0009, 9.999612 
2.650035e+2, 2.3497337e+2, -605303.7, -670420.75, 8727.499, -0.028874107, 0.0057399874, -604154.25, 33115.668, 0.0, 10.000379, 9.9995575 
2.650008e+2, 2.4497275e+2, -561500.5, -610398.1, 33910.33, 0.004239671, 0.00008620935, -544144.4, -4869.1157, 0.0, 10.000075, 9.999439 
2.6499987e+2, 2.549729e+2, -471815.22, -522605.7, 17836.033, 0.2025762, 0.03604143, -466177.56, -24902.791, 0.0, 10.000036, 9.999388 
2.649957e+2, 2.649724e+2, -388139.84, -500851.38, -16014.048, 0.13718857, 0.0823596, -385908.72, -42627.1, 0.0, 10.000234, 9.998768 
2.6498848e+2, 2.7497116e+2, -225231.25, -373296.5, -16257.197, -0.15683444, 0.04976313, -223467.27, 21828.611, 0.0, 10.000695, 9.998748 
2.649853e+2, 2.8497082e+2, -134811.61, -274523.88, 34653.688, -0.11597071, 0.14176954, -126688.53, 20612.379, 0.00000017298198, 10.000614, 9.998795 
2.6498526e+2, 2.9497063e+2, -118687.12, -214486.75, -16813.467, 0.20781161, 0.20137262, -115821.94, -66519.02, 0.000002277503, 10.000027, 9.998821 
2.6497814e+2, 3.0496845e+2, -122976.47, -362539.78, -80943.734, 0.009903214, 0.18181074, -98191.414, -98191.414, 0.000011809922, 10.000409, 9.997313 
2.64973e+2, 3.1496522e+2, 137811.23, 27009.475, 34861.758, 0.07011574, 0.101468235, 147867.22, 147867.22, 0.000042458643, 10.000997, 9.999696 
2.750405e+2, 1.249812e+2, -1618896.1, -1761507.4, 46885.1, -0.1704717, 0.13949366, -1604863.0, 110331.86, 0.00042131313, 10.000922, 9.99923 
2.750368e+2, 1.3498048e+2, -1581222.5, -1717450.8, -26121.328, 0.0068749078, 0.13692558, -1576385.6, 40819.695, 0.0001952308, 10.000689, 9.998975 
2.7503622e+2, 1.4498036e+2, -1464612.5, -1486153.9, 51384.055, 0.33553404, 0.17840679, -1422882.5, 96324.78, 0.000056360343, 10.000302, 10.000046 
2.7503112e+2, 1.5497991e+2, -1354351.3, -1401487.1, 39422.027, 0.04007982, 0.09818374, -1331989.5, 89220.1, 0.000009372096, 10.000476, 9.999873 
2.7502742e+2, 1.6497985e+2, -1242643.3, -1317612.3, -3537.972, -0.08534218, 0.11984645, -1242476.6, 80733.48, 0.0000008660051, 10.000659, 9.999681 
2.7502528e+2, 1.7497998e+2, -1126039.4, -1216696.9, 31125.707, -0.023046186, 0.12886538, -1116381.6, 108828.86, 0.000000004874734, 10.000817, 9.999622 
2.7502197e+2, 1.849801e+2, -1011059.25, -1058896.5, 1456.6421, -0.02030101, 0.16191378, -1011014.94, 116194.15, 0.0, 10.000708, 10.000091 
2.7501735e+2, 1.9498004e+2, -969240.5, -990731.4, 37161.44, -0.09277146, 0.111871324, -941302.1, 87904.78, 0.0, 10.000339, 10.000062 
2.750142e+2, 2.0497985e+2, -919780.75, -1007352.3, 59906.17, -0.06200143, 0.13309048, -889364.5, 41843.867, 0.0, 10.000382, 9.999262 
2.7501252e+2, 2.1497914e+2, -769280.4, -885473.75, 57084.574, 0.06964155, 0.09994924, -745928.44, 87288.52, 0.0, 10.000754, 9.999245 
2.7500966e+2, 2.2497901e+2, -669406.75, -776372.94, -1076.0111, 0.13369831, 0.1637587, -669395.94, 65822.94, 0.0, 10.000717, 9.99934 
2.7500564e+2, 2.3497927e+2, -648659.8, -722724.5, 2574.8325, 0.11913876, 0.2220122, -648570.44, -11354.454, 0.0, 10.000212, 9.999283 
2.7500188e+2, 2.4497898e+2, -584819.7, -629838.9, 19347.691, 0.08055639, 0.26564375, -577647.4, -38428.066, 0.0, 9.999954, 9.999362 
2.749983e+2, 2.549778e+2, -496709.03, -545531.4, 32256.818, 0.00830182, 0.1761423, -480667.66, -39435.645, 0.0, 9.999904, 9.999298 
2.7499437e+2, 2.649771e+2, -380530.53, -460890.88, -16173.348, -0.04956586, 0.19740696, -377397.6, -34158.582, 0.0, 10.00014, 9.999083 
2.7499032e+2, 2.74977e+2, -226776.1, -345233.34, 14486.866, -0.074907914, 0.24148446, -225030.13, 20210.287, 0.00000000009324417, 10.000563, 9.999004 
2.7498776e+2, 2.849757e+2, -166943.53, -328689.3, -3806.4827, 0.03462008, 0.24933283, -166854.0, -19601.557, 0.00000023612336, 10.000561, 9.998445 
2.749856e+2, 2.9497275e+2, -149641.52, -262148.7, -17303.736, 0.19442214, 0.058850605, -147040.31, -97759.37, 0.0000024951785, 9.999943, 9.998538 
2.7497798e+2, 3.0497155e+2, -85756.71, -262416.66, -62039.47, -0.07455749, 0.11707597, -66146.516, -66146.516, 0.0000116764495, 10.000344, 9.998014 
2.7497372e+2, 3.1496936e+2, 127428.78, 57998.902, 66749.06, -0.031142185, 0.08390164, 167950.56, 167950.56, 0.000040637482, 10.000796, 9.999996 
2.8504205e+2, 1.2498543e+2, -1656425.9, -1740075.6, 81208.13, -0.072935, 0.08662681, -1606904.9, 108245.46, 0.00034670465, 10.000539, 9.999538 
2.8503764e+2, 1.349847e+2, -1532282.3, -1682621.3, -26834.377, 0.020317754, 0.074148655, -1527636.0, 89524.305, 0.00015383656, 10.00101, 9.99904 
2.8503633e+2, 1.4498459e+2, -1411798.5, -1533988.4, 120573.69, 0.2923829, 0.14860484, -1337724.6, 181439.36, 0.00004093297, 10.000979, 9.999391 
2.8503194e+2, 1.5498437e+2, -1357981.6, -1471074.0, 91814.2, 0.07341177, 0.15298852, -1306697.8, 114470.88, 0.0000066741927, 10.000736, 9.999272 
2.850286e+2, 1.6498432e+2, -1256343.9, -1285241.8, 74729.94, -0.014913149, 0.18795498, -1194678.9, 128491.41, 0.00000074756446, 10.000401, 10.000037 
2.8502634e+2, 1.7498422e+2, -1217658.8, -1225947.3, 58675.996, 0.050066046, 0.14367047, -1162980.9, 62189.906, 0.000000006090155, 10.000025, 9.999954 
2.8502294e+2, 1.849844e+2, -1079157.8, -1082272.6, 41959.598, 0.04299311, 0.162962, -1038726.7, 88440.37, 0.0, 10.000204, 10.000168 
2.8501835e+2, 1.9498466e+2, -881584.9, -941773.3, 8141.0596, -0.04709566, 0.13632347, -880503.2, 148657.88, 0.0, 10.000903, 10.000127 
2.8501508e+2, 2.0498423e+2, -840034.8, -997072.25, 33149.055, -0.040324107, 0.14413218, -833324.1, 97840.234, 0.0, 10.001071, 9.998992 
2.8501308e+2, 2.1498287e+2, -812350.2, -937125.6, 11141.469, 0.07037097, 0.07150618, -811363.1, 21816.588, 0.0, 10.0006, 9.9989605 
2.850104e+2, 2.2498244e+2, -695838.44, -800629.7, -4234.8726, 0.14971451, 0.126812, -695667.56, 39517.05, 0.0, 10.0006, 9.999223 
2.8500697e+2, 2.3498288e+2, -530253.0, -675292.8, -17590.703, 0.1946628, 0.21438932, -528150.06, 109029.9, 0.0, 10.001082, 9.999181 
2.85003e+2, 2.4498244e+2, -445582.88, -603585.5, 15676.328, 0.15211447, 0.26726127, -444042.56, 95142.89, 0.0, 10.001065, 9.999008 
2.849986e+2, 2.5498098e+2, -429144.7, -547988.75, -21752.592, 0.026128972, 0.18123676, -425288.34, 15914.055, 0.0, 10.000526, 9.998974 
2.8499466e+2, 2.6498047e+2, -324648.06, -389978.5, -23668.28, -0.036112234, 0.21380211, -316974.66, 26232.854, 0.0, 10.000325, 9.999488 
2.8499162e+2, 2.7498072e+2, -217066.17, -295027.94, -13818.324, 0.015481196, 0.2561095, -214689.4, 30513.354, 0.0000000018932573, 10.000409, 9.999433 
2.8498906e+2, 2.849792e+2, -168233.2, -332663.16, 10984.984, 0.11445456, 0.21707095, -167502.58, -20286.127, 0.00000028816427, 10.00057, 9.998415 
2.8498596e+2, 2.949757e+2, 11346.014, -177651.42, -7137.697, 0.19226539, -0.021961551, 11615.193, 60865.758, 0.0000027347362, 10.00104, 9.998579 
2.8497872e+2, 3.0497593e+2, 56069.387, -196078.47, -39097.48, -0.06961019, 0.1703631, 61992.61, 61992.61, 0.000012525966, 10.0013, 9.998013 
2.8497514e+2, 3.14974e+2, 74765.055, 43965.13, -33160.73, 0.07076483, 0.1645427, 95927.27, 95927.27, 0.00004059471, 10.000379, 10.000093 
2.9504433e+2, 1.2498866e+2, -1587974.3, -1610795.0, 68407.586, 0.017781127, -0.029263489, -1530032.0, 185085.08, 0.00028489743, 10.000577, 10.000412 
2.950374e+2, 1.3498902e+2, -1487136.8, -1593102.8, -1484.6833, -0.14400183, -0.003482071, -1487115.9, 129996.72, 0.000121053716, 10.001027, 9.999645 
2.9503468e+2, 1.4498925e+2, -1440970.4, -1594128.4, 89140.59, -0.01788814, 0.09505393, -1400031.8, 119081.57, 0.000029834508, 10.000965, 9.99899 
2.9503256e+2, 1.5498967e+2, -1391505.9, -1532570.3, 95318.56, 0.022494286, 0.20020057, -1343461.4, 77654.586, 0.000004731658, 10.000702, 9.998868 
2.9502982e+2, 1.6498956e+2, -1263956.9, -1279360.1, 47458.906, 0.036360063, 0.25016662, -1223578.8, 99540.24, 0.00000054097734, 10.000321, 10.000107 
2.9502645e+2, 1.7498885e+2, -1220684.8, -1213228.5, 62936.688, 0.026943749, 0.1305088, -1153909.6, 71213.63, 0.0000000012704189, 9.999961, 10.00006 
2.9502335e+2, 1.8498875e+2, -1124275.3, -1158579.3, 52735.227, 0.027611298, 0.13968924, -1085972.8, 41149.33, 0.0, 10.000121, 9.99969 
2.950203e+2, 1.9498897e+2, -930192.9, -1019119.06, 48235.62, 0.026240755, 0.15782683, -909053.8, 120065.02, 0.0, 10.000802, 9.999645 
2.9501706e+2, 2.0498829e+2, -872893.94, -1028114.4, 1806.3678, 0.023068406, 0.16957735, -872872.94, 58252.098, 0.0, 10.00091, 9.998857 
2.950133e+2, 2.149865e+2, -848702.94, -970779.2, 9742.523, 0.0023033682, 0.07282643, -847930.3, -14787.79, 0.0, 10.000421, 9.998816 
2.9500994e+2, 2.2498517e+2, -720886.44, -808764.2, -1137.1685, 0.017291283, 0.042490333, -720871.75, 14282.796, 0.0, 10.000417, 9.999252 
2.9500705e+2, 2.349841e+2, -554368.94, -683636.9, 16329.135, 0.06716992, -0.023242954, -552338.1, 84824.62, 0.0, 10.000909, 9.999204 
2.9500395e+2, 2.4498318e+2, -501554.75, -696080.5, -20732.715, 0.10198874, 0.011465527, -499369.6, 39803.6, 0.0, 10.00096, 9.998428 
2.950003e+2, 2.549823e+2, -489280.2, -645260.3, -29369.854, 0.108937666, 0.044774573, -483933.34, -42745.99, 0.0, 10.000402, 9.998372 
2.949961e+2, 2.6498213e+2, -293717.9, -306825.75, -33376.055, 0.045096997, 0.11279715, -266258.38, 76931.086, 0.0, 10.000247, 10.000093 
2.9499173e+2, 2.7498233e+2, -193257.94, -212743.45, 2741.3372, -0.04764866, 0.087917, -192879.61, 52303.527, 0.0000000016821552, 10.000273, 10.000061 
2.949886e+2, 2.8498143e+2, -150462.3, -289288.75, 13322.906, -0.01892988, 0.058843013, -149195.28, -2004.074, 0.00000022409213, 10.000537, 9.9987335 
2.9498592e+2, 2.9497945e+2, 15213.54, -159137.95, 38680.86, 0.036589745, -0.050396927, 23409.8, 72622.23, 0.0000026534976, 10.000977, 9.99875 
2.949799e+2, 3.0498132e+2, 6779.3623, -282458.2, -73469.055, -0.11724155, 0.3326634, 24371.229, 24371.229, 0.00001292508, 10.001243, 9.997439 
2.9497617e+2, 3.149788e+2, 51192.473, 16854.242, -22066.03, 0.05706556, 0.31448412, 61982.047, 61982.047, 0.000040888393, 10.000285, 9.9999485 
3.0504537e+2, 1.249932e+2, -1685033.8, -1640135.9, 130161.51, 0.11777262, -0.01938561, -1530501.6, 184571.88, 0.00023189843, 9.999849, 10.0005665 
3.050379e+2, 1.3499378e+2, -1556887.6, -1609391.3, -40633.305, -0.15672489, 0.014705359, -1534763.6, 82301.67, 0.000094942065, 10.000467, 9.999808 
3.0503437e+2, 1.4499353e+2, -1476058.4, -1596060.4, 67677.85, -0.1187862, 0.053062074, -1445613.8, 73455.7, 0.000021738364, 10.000689, 9.999096 
3.0503353e+2, 1.5499395e+2, -1358580.5, -1506905.5, 69829.24, 0.053219352, 0.1492667, -1330879.4, 90192.64, 0.0000030875526, 10.000888, 9.998948 
3.050312e+2, 1.649939e+2, -1194585.1, -1279548.8, 52353.938, 0.12656717, 0.2126835, -1169645.6, 153428.89, 0.0000002653173, 10.000912, 9.999827 
3.050274e+2, 1.7499325e+2, -1136382.3, -1204165.9, 10015.209, 0.09905692, 0.12788221, -1134933.4, 90145.12, 0.0, 10.000653, 9.999799 
3.050241e+2, 1.849928e+2, -1097679.4, -1188266.6, 41528.297, 0.07998178, 0.1337968, -1081522.9, 45558.656, 0.0, 10.000486, 9.999311 
3.0502114e+2, 1.9499223e+2, -1026199.9, -1117320.8, 12510.272, 0.06002856, 0.11461965, -1024513.5, 4573.61, 0.0, 10.000345, 9.999205 
3.050181e+2, 2.0499142e+2, -907066.25, -1018479.8, 6524.963, 0.06448795, 0.12398806, -906685.44, 24409.25, 0.0, 10.000561, 9.999094 
3.0501488e+2, 2.1499021e+2, -728133.3, -890875.6, 10756.147, 0.09403998, 0.062482145, -727425.5, 105679.75, 0.0, 10.001142, 9.9990225 
3.0501133e+2, 2.2498906e+2, -615664.25, -778383.94, 35626.156, 0.08031123, 0.04791719, -608206.06, 126909.59, 0.0, 10.001216, 9.9990835 
3.0500746e+2, 2.3498775e+2, -587422.0, -720000.1, 10316.422, 0.03331285, -0.02539885, -586624.0, 50503.668, 0.0, 10.000758, 9.999036 
3.0500415e+2, 2.4498679e+2, -554277.1, -692759.44, 19258.727, 0.05916182, -0.00007138877, -551648.7, -12510.129, 0.0, 10.000514, 9.9986515 
3.050012e+2, 2.5498596e+2, -430148.2, -585285.75, 42839.32, 0.15133649, 0.018433519, -419104.75, 22045.283, 0.0, 10.000704, 9.998627 
3.049971e+2, 2.649857e+2, -262481.9, -311466.0, 68458.29, 0.11216538, 0.073054075, -214266.33, 128885.98, 0.0, 10.000548, 9.999916 
3.049922e+2, 2.7498573e+2, -225162.89, -246737.94, 16087.029, -0.012441279, 0.045421135, -216581.28, 28567.473, 0.00000000014964384, 10.000141, 9.9998865 
3.0498907e+2, 2.84985e+2, -176696.39, -267822.63, 52218.48, -0.0032045462, 0.03441346, -152957.52, -5802.597, 0.00000013461268, 10.00023, 9.999021 
3.0498698e+2, 2.949839e+2, -8793.264, -135728.88, 48255.87, 0.06734112, -0.02461567, 7468.4185, 56636.684, 0.0000024184974, 10.000695, 9.999027 
3.0498132e+2, 3.0498555e+2, -14439.958, -315014.44, -41982.188, -0.08009735, 0.33613962, -8686.311, -8686.311, 0.00001259153, 10.001169, 9.997275 
3.049773e+2, 3.1498235e+2, 154600.63, 31846.902, -9528.957, 0.1168567, 0.26447204, 155335.92, 155335.92, 0.000039642433, 10.001115, 9.999684 
3.1504455e+2, 1.2499917e+2, -1720000.1, -1711870.0, 89900.68, -0.02751015, 0.13744423, -1625942.5, 89075.35, 0.0001887222, 9.999852, 10.000069 
3.150385e+2, 1.349991e+2, -1588688.9, -1655753.9, -8835.506, -0.17205332, 0.13796161, -1587544.4, 29472.043, 0.00007509751, 10.000406, 9.999513 
3.150348e+2, 1.4499755e+2, -1448189.9, -1530187.0, 56622.566, -0.18555473, 0.03593128, -1419281.4, 99749.96, 0.00001598166, 10.000644, 9.999569 
3.1503445e+2, 1.5499716e+2, -1330769.4, -1442214.5, 92608.984, 0.016466193, 0.002240181, -1278411.3, 142625.86, 0.00000170519, 10.000861, 9.999402 
3.1503254e+2, 1.649972e+2, -1245587.9, -1371770.6, 20865.59, 0.1321627, 0.08263325, -1242227.0, 80810.875, 0.000000057148895, 10.000847, 9.999231 
3.1502876e+2, 1.7499739e+2, -1186043.1, -1292348.8, 11168.546, 0.13357754, 0.13959815, -1184882.4, 40154.23, 0.0, 10.000589, 9.999224 
3.150246e+2, 1.8499659e+2, -1135744.0, -1241978.5, 21278.55, 0.057839356, 0.15567897, -1131640.4, -4595.712, 0.0, 10.000375, 9.998998 
3.1502032e+2, 1.9499454e+2, -1061189.4, -1163884.3, 22505.813, -0.09143893, 0.014465747, -1056473.8, -27408.586, 0.0, 10.000237, 9.998934 
3.1501788e+2, 2.0499378e+2, -893522.9, -949661.06, 13443.914, -0.040810086, 0.018047076, -890469.44, 40602.313, 0.0, 10.000391, 9.999648 
3.1501743e+2, 2.1499415e+2, -715090.4, -820623.25, 48569.066, 0.20444125, 0.056666374, -696140.4, 136926.11, 0.0, 10.000961, 9.99959 
3.15014e+2, 2.2499427e+2, -656698.44, -829878.7, 4555.716, 0.20022017, 0.15620281, -656578.7, 78487.76, 0.0, 10.001066, 9.998808 
3.150076e+2, 2.3499396e+2, -630428.25, -772046.25, 8617.552, -0.05515713, 0.21347645, -629905.8, 7167.9185, 0.0, 10.000596, 9.998762 
3.1500322e+2, 2.4499321e+2, -497263.22, -557611.1, 12228.435, -0.1177407, 0.22577024, -494879.5, 44202.043, 0.0, 10.000435, 9.9996195 
3.1500077e+2, 2.549919e+2, -383401.56, -454252.06, 62280.92, 0.008995331, 0.09696781, -347175.84, 93915.305, 0.0, 10.000552, 9.999602 
3.1499723e+2, 2.6499125e+2, -336401.56, -448402.97, 38488.625, 0.03588142, 0.106226906, -324450.4, 18645.453, 0.0, 10.000477, 9.999011 
3.1499264e+2, 2.7499083e+2, -304063.8, -388772.56, 16273.191, -0.017263634, 0.12956473, -301045.2, -55945.246, 0.00000000001473293, 10.000039, 9.998965 
3.1498986e+2, 2.8498995e+2, -168949.73, -237477.6, 54779.516, 0.02325686, 0.1359759, -138600.88, 8507.625, 0.000000108201135, 10.000172, 9.999252 
3.149884e+2, 2.9498866e+2, -12706.519, -117730.55, 85249.04, 0.09926933, 0.03916399, 34905.945, 84027.03, 0.0000023186144, 10.000576, 9.999212 
3.1498253e+2, 3.0498835e+2, 7709.326, -260478.72, -50783.75, -0.10522056, 0.17307468, 17003.574, 17003.574, 0.000012381474, 10.001131, 9.997667 
3.1497785e+2, 3.149843e+2, 133488.6, -3883.8325, 48641.152, -0.01660133, -0.032250173, 148967.44, 148967.44, 0.000038038284, 10.001074, 9.999458 
3.250447e+2, 1.2500346e+2, -1783646.4, -1762133.8, 80034.36, 0.034626495, 0.18891986, -1692136.1, 22842.902, 0.0001575099, 9.999469, 9.999916 
3.2503963e+2, 1.3500322e+2, -1544264.8, -1626833.9, -21289.828, -0.09888864, 0.16211644, -1539098.6, 77880.14, 0.00006189271, 10.00064, 9.999611 
3.250355e+2, 1.4500158e+2, -1444783.9, -1528866.4, 44365.883, -0.1692428, 0.04433659, -1425704.0, 93289.97, 0.000012633238, 10.0006485, 9.999591 
3.2503513e+2, 1.5500118e+2, -1463264.8, -1501295.0, 18524.434, 0.055426672, 0.007541288, -1455733.1, -34734.535, 0.0000008198343, 9.999911, 9.999464 
3.2503328e+2, 1.6500115e+2, -1361372.8, -1403589.8, 18162.441, 0.17111051, 0.069658734, -1354634.4, -31635.523, 0.000000004124255, 9.999987, 9.999413 
3.250295e+2, 1.7500128e+2, -1129457.6, -1249682.0, 29425.79, 0.14109528, 0.106810205, -1122641.9, 102355.59, 0.0, 10.000924, 9.999352 
3.2502547e+2, 1.8500066e+2, -1008321.5, -1173840.6, 83093.53, 0.07194199, 0.13034195, -973804.94, 153198.72, 0.0, 10.001225, 9.999047 
3.250214e+2, 1.949991e+2, -976145.0, -1112672.8, 76549.82, -0.02631953, 0.03493893, -941842.6, 87176.58, 0.0, 10.000799, 9.999002 
3.250189e+2, 2.0499839e+2, -870457.9, -959266.44, 101899.99, 0.020696608, 0.043804284, -803707.56, 127318.72, 0.0, 10.000616, 9.999479 
3.2501814e+2, 2.1499829e+2, -790552.8, -874649.1, 56393.938, 0.20831056, 0.052448064, -762256.6, 70770.08, 0.0, 10.000513, 9.999438 
3.250147e+2, 2.2499852e+2, -734316.2, -853578.4, 13583.694, 0.202716, 0.1648222, -732788.56, 2237.8174, 0.0, 10.00048, 9.9989195 
3.2500872e+2, 2.3499887e+2, -628113.4, -757226.6, 18525.926, 0.008659161, 0.27237657, -625507.75, 11519.867, 0.0, 10.000557, 9.998874 
3.2500425e+2, 2.4499826e+2, -484157.8, -555165.06, 38647.28, -0.053507224, 0.29450554, -467181.72, 71851.805, 0.0, 10.000517, 9.999609 
3.2500124e+2, 2.5499657e+2, -393526.66, -459132.94, -6142.438, 0.01620005, 0.12789965, -392956.5, 48088.926, 0.0, 10.000455, 9.999622 
3.249975e+2, 2.649956e+2, -328926.4, -469502.06, -10965.385, 0.01984601, 0.11575653, -328076.22, 14976.62, 0.0, 10.000633, 9.998796 
3.249932e+2, 2.7499497e+2, -164792.67, -342601.97, -10094.5, -0.010664986, 0.13713749, -164221.42, 80838.23, 0.00000000010851988, 10.00109, 9.998774 
3.2499066e+2, 2.8499395e+2, -67007.74, -228190.8, 60807.34, 0.050939158, 0.15845409, -46641.227, 100429.17, 0.00000014604628, 10.001025, 9.998918 
3.2498956e+2, 2.949927e+2, -55307.125, -170128.31, 21245.871, 0.1776691, 0.09345676, -51502.008, -2417.9868, 0.0000023415487, 10.000416, 9.998933 
3.249837e+2, 3.0499208e+2, 25447.107, -152771.31, -58536.37, -0.07733747, 0.16696179, 42953.836, 42953.836, 0.000012312151, 10.0008745, 9.998502 
3.2497975e+2, 3.1498823e+2, 264961.88, 60222.49, -15.141725, 0.037198585, -0.10203088, 264961.88, 264961.88, 0.000036624067, 10.002029, 9.999407 
3.3504474e+2, 1.25006e+2, -1781703.9, -1738339.9, 35528.65, 0.01660252, 0.14599733, -1718399.9, -3442.798, 0.00013854062, 9.999402, 10.000103 
3.3504075e+2, 1.3500628e+2, -1516584.3, -1550756.4, 25171.313, -0.08805959, 0.115811974, -1503247.8, 113703.1, 0.000055370125, 10.000591, 10.000138 
3.350361e+2, 1.4500567e+2, -1474492.4, -1576862.6, -5665.441, -0.21946575, 0.09211274, -1474179.8, 44776.668, 0.000011804474, 10.00059, 9.99929 
3.3503512e+2, 1.5500623e+2, -1483714.9, -1535009.3, 5817.516, 0.026368525, 0.177255, -1483063.4, -62109.4, 0.00000057438905, 9.999879, 9.999248 
3.3503288e+2, 1.65006e+2, -1311438.6, -1288644.4, 38784.21, 0.100013666, 0.18439364, -1259617.4, 63337.85, 0.00000000201948, 9.999932, 10.000231 
3.350292e+2, 1.7500485e+2, -1078768.8, -1136994.0, 81760.984, -0.017474221, 0.015861714, -1021092.0, 203869.66, 0.0, 10.000887, 10.000147 
3.3502617e+2, 1.8500485e+2, -1004167.94, -1133580.8, 49193.98, -0.016235255, 0.04613453, -987591.06, 139368.47, 0.0, 10.001089, 9.999392 
3.3502394e+2, 1.9500574e+2, -967196.4, -1068341.3, 74005.54, 0.11426819, 0.1582704, -928134.06, 100817.36, 0.0, 10.00069, 9.999358 
3.3502072e+2, 2.0500503e+2, -952483.4, -1091212.4, 82265.62, 0.113875106, 0.19466232, -914241.8, 16718.023, 0.0, 10.000457, 9.99865 
3.3501655e+2, 2.1500254e+2, -875076.06, -1005286.44, 67376.98, -0.029300703, 0.04316999, -846488.44, -13501.366, 0.0, 10.000323, 9.998632 
3.3501306e+2, 2.2500171e+2, -727837.2, -798787.75, 1048.9585, -0.038350824, 0.06752733, -727821.7, 7174.882, 0.0, 10.000308, 9.999376 
3.350104e+2, 2.3500241e+2, -623782.5, -700275.1, 32945.33, 0.09488272, 0.16347767, -611549.4, 25440.732, 0.0, 10.00036, 9.999355 
3.3500686e+2, 2.4500193e+2, -553296.2, -682196.56, 21436.355, 0.12534757, 0.21496974, -549824.75, -10830.052, 0.0, 10.000439, 9.9987755 
3.3500224e+2, 2.5500008e+2, -474072.56, -592796.25, 4799.224, 0.040132076, 0.11471497, -473878.88, -32866.47, 0.0, 10.000313, 9.998772 
3.349977e+2, 2.6499897e+2, -308913.9, -412590.75, -9309.592, -0.053301357, 0.10875063, -308084.6, 34937.633, 0.0, 10.00057, 9.999214 
3.3499327e+2, 2.7499813e+2, -155069.97, -290181.66, 21821.803, -0.143362, 0.06833913, -151632.97, 93395.305, 0.000000000044508567, 10.000955, 9.999196 
3.3499098e+2, 2.849971e+2, -123939.14, -341103.72, 23099.635, -0.05473579, 0.10289546, -121509.24, 25530.793, 0.00000018851506, 10.000988, 9.998165 
3.3499005e+2, 2.9499608e+2, -117270.41, -288179.28, 17950.783, 0.14025803, 0.14253569, -115405.37, -66349.875, 0.0000023038672, 10.000351, 9.998163 
3.3498424e+2, 3.0499652e+2, 95394.875, 302.5016, -22752.592, -0.13845761, 0.30833876, 100558.46, 100558.46, 0.000011796056, 10.000846, 9.999566 
3.3498207e+2, 3.1499386e+2, 245446.55, 47611.863, 56667.85, -0.008662022, 0.055000514, 260528.7, 260528.7, 0.000034748333, 10.0019, 9.9993925 
3.4504494e+2, 1.2500948e+2, -1637251.5, -1668689.9, 57979.203, 0.06872107, 0.18237728, -1592898.4, 122027.58, 0.00012841672, 10.000399, 10.000099 
3.4504214e+2, 1.3500975e+2, -1521701.4, -1546031.9, 2687.8076, 0.015247459, 0.1431185, -1521408.0, 95511.93, 0.00005393956, 10.000497, 10.000238 
3.450376e+2, 1.4500956e+2, -1456903.3, -1543939.1, -8358.885, -0.117698126, 0.14693742, -1456107.8, 62813.445, 0.00001321429, 10.000626, 9.999485 
3.4503567e+2, 1.550102e+2, -1301936.0, -1432710.3, -8660.707, 0.04511229, 0.22471216, -1301364.9, 119552.34, 0.00000089811203, 10.001076, 9.999366 
3.4503314e+2, 1.6500996e+2, -1163799.0, -1218251.6, 45010.465, 0.09327788, 0.22617397, -1138421.0, 184497.42, 0.0000000015154811, 10.000927, 10.000242 
3.4502974e+2, 1.7500879e+2, -1191656.3, -1186398.1, 2298.0942, -0.002901649, 0.049927205, -1185535.4, 39390.063, 0.0, 10.000091, 10.000192 
3.4502697e+2, 1.8500885e+2, -1155451.8, -1169888.5, -31621.54, 0.02358189, 0.06712299, -1130235.1, -3313.1106, 0.0, 9.999886, 9.999729 
3.4502503e+2, 1.950098e+2, -1009352.2, -1054845.6, -34270.613, 0.18750334, 0.15281864, -990966.4, 37945.387, 0.0, 10.00024, 9.999679 
3.4502178e+2, 2.0500928e+2, -955387.8, -1110378.1, 25832.52, 0.17984249, 0.2000309, -951195.6, -20277.107, 0.0, 10.00052, 9.998482 
3.4501716e+2, 2.1500707e+2, -838799.9, -1008616.6, 27197.137, -0.0062212, 0.096207306, -834550.44, -1605.7013, 0.0, 10.000662, 9.998443 
3.4501368e+2, 2.2500598e+2, -657477.06, -757413.3, -1390.5798, -0.021942178, 0.09947162, -657457.75, 77498.836, 0.0, 10.0007515, 9.9994545 
3.4501138e+2, 2.3500583e+2, -557356.8, -660200.4, -25249.277, 0.14584039, 0.1032119, -551492.2, 85463.77, 0.0, 10.000766, 9.999445 
3.4500805e+2, 2.4500515e+2, -489723.66, -663249.25, 5200.914, 0.18537425, 0.13440531, -489567.9, 49394.055, 0.0, 10.000938, 9.998662 
3.4500352e+2, 2.5500363e+2, -336623.16, -546834.4, 10994.998, 0.09325666, 0.08229394, -336049.63, 104927.92, 0.0, 10.001331, 9.998607 
3.4499878e+2, 2.6500273e+2, -233427.14, -387904.25, 20806.865, -0.0224875, 0.115418695, -230673.69, 112312.43, 0.0, 10.001154, 9.999099 
3.4499398e+2, 2.750021e+2, -237620.48, -339644.13, -19205.234, -0.13491057, 0.109356016, -234125.0, 10866.137, 0.0, 10.000446, 9.999101 
3.449915e+2, 2.8500092e+2, -223783.02, -375378.6, 25300.898, -0.053636454, 0.12699898, -219671.86, -72667.65, 0.00000016974016, 10.000274, 9.998258 
3.4499082e+2, 2.9499936e+2, -52763.527, -246115.8, 54203.668, 0.17008491, 0.10482332, -38605.043, 10418.368, 0.0000020169734, 10.000766, 9.998244 
3.4498549e+2, 3.0500007e+2, 161948.44, 6323.4824, 67806.08, -0.11470314, 0.3059801, 187346.66, 187346.66, 0.0000103175025, 10.001385, 9.999364 
3.449848e+2, 3.1499785e+2, 175109.83, -18970.832, -31574.031, 0.110746264, 0.11314589, 180117.25, 180117.25, 0.000031962787, 10.001538, 9.999107 
3.5504448e+2, 1.2501374e+2, -1661554.3, -1709544.6, -38770.563, -0.10263107, 0.28895068, -1639954.3, 74932.734, 0.00012227354, 10.000358, 9.999838 
3.5504335e+2, 1.3501363e+2, -1532338.4, -1567741.8, 19639.426, 0.049962882, 0.236776, -1523600.4, 93285.74, 0.00005490219, 10.000511, 10.000074 
3.550395e+2, 1.450134e+2, -1423779.3, -1476461.8, -9190.242, -0.035036772, 0.21755095, -1422222.1, 96664.51, 0.000015641235, 10.000623, 9.999958 
3.5503638e+2, 1.5501304e+2, -1272931.5, -1378553.8, 23023.05, -0.03408888, 0.1557214, -1268131.3, 152758.03, 0.0000017221555, 10.001093, 9.999736 
3.5503355e+2, 1.6501303e+2, -1223102.4, -1320536.6, -4822.2695, 0.0044012433, 0.19503677, -1222864.3, 100024.766, 0.000000007086625, 10.000839, 9.999578 
3.5503057e+2, 1.7501314e+2, -1243993.6, -1282228.9, -13423.709, 0.03788244, 0.21173704, -1239751.5, -14863.144, 0.0, 10.000034, 9.99956 
3.550274e+2, 1.8501268e+2, -1152174.1, -1133564.0, -29871.441, 0.046687245, 0.1922769, -1111581.9, 15308.856, 0.0, 9.999761, 10.000038 
3.550243e+2, 1.950115e+2, -1004777.75, -1017526.9, -4532.037, 0.05874373, 0.03312896, -1003330.94, 25567.182, 0.0, 10.00012, 9.999991 
3.5502174e+2, 2.0501131e+2, -950371.56, -1062471.1, 16740.842, 0.09770194, 0.07808802, -947924.94, -17024.652, 0.0, 10.000355, 9.998894 
3.550197e+2, 2.1501194e+2, -833432.25, -960225.0, 48031.297, 0.15091324, 0.21557344, -817291.8, 15607.751, 0.0, 10.000499, 9.998857 
3.5501617e+2, 2.2501133e+2, -699803.9, -808828.7, -12595.262, 0.12563853, 0.26253477, -698367.7, 36538.74, 0.0, 10.000598, 9.999173 
3.5501122e+2, 2.350093e+2, -604407.56, -716146.6, -9918.059, 0.023814209, 0.10583458, -603534.06, 33389.49, 0.0, 10.00059, 9.999144 
3.5500735e+2, 2.4500799e+2, -474826.22, -600187.94, 7693.933, -0.0073572295, 0.066671886, -474355.78, 64578.37, 0.0, 10.000807, 9.999154 
3.5500455e+2, 2.5500715e+2, -324502.78, -486555.72, 40787.91, 0.032150898, 0.033727713, -314815.72, 126125.11, 0.0, 10.001188, 9.999086 
3.5500035e+2, 2.6500696e+2, -285095.38, -482101.22, -18813.57, -0.013778625, 0.14163445, -283314.8, 59629.074, 0.0, 10.001091, 9.998484 
3.5499477e+2, 2.75007e+2, -298688.38, -442918.06, -28351.86, -0.13258679, 0.2646942, -293315.3, -48368.406, 0.0, 10.000341, 9.998443 
3.5499185e+2, 2.8500533e+2, -171237.38, -255278.14, 30981.676, -0.08091937, 0.2279095, -161050.7, -14087.563, 0.00000011654808, 10.000229, 9.9991045 
3.5499132e+2, 2.9500228e+2, -9546.322, -133465.34, 94645.875, 0.0996415, -0.03421825, 41617.207, 90606.7, 0.0000016052002, 10.000671, 9.9990635 
3.5498685e+2, 3.050026e+2, 78053.164, -171953.28, 67195.984, -0.14694129, 0.14859943, 94969.305, 94969.305, 0.000008325357, 10.0013895, 9.998144 
3.5498688e+2, 3.1500116e+2, 118557.97, -116335.76, -34114.848, 0.085754104, 0.153001, 123412.32, 123412.32, 0.000028551576, 10.001442, 9.998493 
3.650456e+2, 1.2501703e+2, -1626481.9, -1698044.4, -21961.412, -0.023957537, 0.26050493, -1620279.8, 94574.86, 0.000118926524, 10.000605, 9.999811 
3.6504394e+2, 1.3501702e+2, -1572938.6, -1606061.0, 22636.416, 0.08167903, 0.23816428, -1561452.0, 55401.227, 0.000056465244, 10.000312, 9.9999075 
3.650408e+2, 1.4501692e+2, -1485569.6, -1489662.4, 33339.883, 0.06610523, 0.22907759, -1454213.4, 64638.844, 0.00001794202, 10.000117, 10.000117 
3.6503702e+2, 1.550161e+2, -1400138.4, -1417669.0, 15705.612, -0.018163247, 0.105372086, -1390917.8, 29940.186, 0.000002788093, 10.000122, 9.99994 
3.6503407e+2, 1.6501614e+2, -1308109.3, -1372857.6, 20967.71, 0.012246788, 0.14834516, -1301912.4, 20945.02, 0.00000008230677, 10.000314, 9.999472 
3.650314e+2, 1.750169e+2, -1168293.9, -1254928.9, 15537.925, 0.09771523, 0.239216, -1165591.4, 59261.035, 0.0, 10.000604, 9.999469 
3.6502802e+2, 1.850165e+2, -1033940.9, -1096830.9, 39954.52, 0.098403975, 0.23915507, -1014541.5, 112314.06, 0.0, 10.000664, 9.999854 
3.650243e+2, 1.9501472e+2, -975694.94, -1023163.75, 580.95764, 0.041155092, 0.042175837, -975687.8, 53181.27, 0.0, 10.000411, 9.999813 
3.6502188e+2, 2.0501447e+2, -934710.44, -1014159.06, 33650.105, 0.08604811, 0.07031927, -922373.75, 8497.324, 0.0, 10.00028, 9.999266 
3.6502072e+2, 2.1501549e+2, -848720.5, -924499.06, 29667.85, 0.22733864, 0.20915931, -838487.2, -5623.0586, 0.0, 10.000206, 9.999245 
3.6501735e+2, 2.2501512e+2, -733148.4, -840466.6, 10606.412, 0.2021603, 0.2652184, -732110.2, 2758.3718, 0.0, 10.000434, 9.999037 
3.6501193e+2, 2.3501314e+2, -561722.9, -710289.8, -3875.0845, 0.026834054, 0.12991576, -561621.9, 75264.766, 0.0, 10.000947, 9.999012 
3.65008e+2, 2.450119e+2, -454412.5, -584297.5, 18783.236, -0.019942334, 0.100285865, -451750.72, 87146.47, 0.0, 10.000899, 9.999233 
3.650055e+2, 2.5501126e+2, -452200.6, -531086.1, -5448.9336, 0.06423891, 0.07543461, -451826.0, -10924.275, 0.0, 10.000242, 9.999236 
3.6500153e+2, 2.650108e+2, -409279.56, -569520.6, -30413.484, 0.043015134, 0.16357948, -403701.3, -60794.594, 0.0, 10.00037, 9.998221 
3.6499625e+2, 2.7501014e+2, -174961.63, -411386.2, -42582.78, -0.0595395, 0.23961087, -167525.84, 77390.97, 0.0, 10.001319, 9.998184 
3.6499316e+2, 2.8500834e+2, 11169.63, -179663.31, 25730.617, -0.0260305, 0.20825712, 14578.093, 161512.11, 0.000000055764154, 10.001511, 9.99902 
3.649921e+2, 2.950058e+2, 13681.992, -133788.48, -9924.147, 0.11537836, 0.0036141563, 14346.849, 63302.23, 0.0000011855267, 10.000876, 9.998964 
3.6498836e+2, 3.050054e+2, -13986.194, -231528.94, 11796.731, -0.09557562, 0.12835649, -13348.361, -13348.361, 0.0000067298934, 10.000852, 9.99798 
3.649884e+2, 3.1500444e+2, 91098.55, -89005.664, -102000.73, 0.123537116, 0.19138582, 137110.88, 137110.88, 0.00002565761, 10.001104, 9.998837 
3.75047e+2, 1.2501961e+2, -1606193.5, -1657160.6, -99618.68, -0.019193968, 0.14919075, -1528850.5, 185975.94, 0.0001191897, 10.000605, 10.000085 
3.750434e+2, 1.3501994e+2, -1577301.4, -1615948.4, 20899.965, -0.044105906, 0.15921456, -1568160.8, 48660.53, 0.00005856906, 10.000315, 9.999832 
3.7504092e+2, 1.450201e+2, -1500407.6, -1501450.9, 13557.21, 0.025398027, 0.18180387, -1487362.0, 31455.826, 0.000020069963, 10.000039, 10.0000725 
3.750372e+2, 1.5501933e+2, -1398845.8, -1418413.8, 33583.1, -0.053322975, 0.06820749, -1373650.4, 47173.094, 0.0000038584762, 10.0001335, 9.999931 
3.7503436e+2, 1.6501933e+2, -1291075.6, -1322837.1, 18106.79, -0.025112966, 0.0858881, -1282872.1, 39951.246, 0.00000020238203, 10.000252, 9.999843 
3.7503177e+2, 1.7502011e+2, -1153367.9, -1213256.1, 42065.07, 0.040478904, 0.14389738, -1131677.5, 93139.81, 0.0, 10.000551, 9.999783 
3.750284e+2, 1.8502022e+2, -1095322.6, -1195144.0, 16173.38, 0.039654218, 0.21075138, -1092767.6, 34049.457, 0.0, 10.00054, 9.999237 
3.7502456e+2, 1.9501938e+2, -1036522.25, -1120354.3, 7578.844, -0.0051683635, 0.16699685, -1035842.56, -7016.8613, 0.0, 10.000289, 9.999202 
3.750217e+2, 2.0501864e+2, -935348.6, -981666.4, 17234.23, 0.013258754, 0.1621053, -929639.6, 1192.371, 0.0, 10.000133, 9.999562 
3.7501973e+2, 2.1501777e+2, -854746.06, -892811.2, 40441.11, 0.07832197, 0.08364279, -829082.75, 3755.6592, 0.0, 10.000019, 9.999552 
3.750168e+2, 2.2501737e+2, -755112.4, -850321.56, 12631.482, 0.08055763, 0.12056021, -753465.06, -18622.51, 0.0, 10.000272, 9.999051 
3.7501308e+2, 2.350172e+2, -582433.9, -719767.8, 28584.17, 0.018433444, 0.16276127, -576722.0, 60124.832, 0.0, 10.0007925, 9.999024 
3.750095e+2, 2.4501681e+2, -487622.06, -627952.75, -19691.412, 0.015353052, 0.23099065, -484911.3, 53940.324, 0.0, 10.00079, 9.998987 
3.7500587e+2, 2.5501594e+2, -491712.1, -582504.1, -14268.791, 0.045209154, 0.21105033, -489522.44, -48662.73, 0.0, 10.000104, 9.998952 
3.7500197e+2, 2.650142e+2, -412787.8, -560655.0, -7339.4663, 0.016301434, 0.17833665, -412424.4, -69548.7, 0.0, 10.000298, 9.998318 
3.7499785e+2, 2.7501127e+2, -179127.16, -400084.44, 10567.737, -0.062488854, 0.019749736, -178622.89, 66279.59, 0.0, 10.001228, 9.998308 
3.749949e+2, 2.850099e+2, -56687.895, -313001.97, -10346.237, -0.03745721, 0.06670118, -56270.94, 90646.086, 0.00000003400916, 10.001473, 9.998125 
3.749927e+2, 2.9501e+2, -70701.15, -287683.63, -15401.128, 0.044429988, 0.22547448, -69613.45, -20693.408, 0.000000899484, 10.000773, 9.997963 
3.7498936e+2, 3.050085e+2, 33893.984, -116194.586, 17579.506, -0.10962925, 0.25219953, 35925.53, 35925.53, 0.000005766145, 10.000792, 9.998798 
3.7498835e+2, 3.1500703e+2, 153428.23, 62705.453, -65065.11, -0.06301121, 0.17619114, 187383.45, 187383.45, 0.000023929499, 10.001009, 9.999927 
3.8504884e+2, 1.2502377e+2, -1486553.1, -1626531.4, -11074.0625, 0.06908429, 0.12459584, -1485682.5, 229100.0, 0.00012316402, 10.001562, 9.99983 
3.850434e+2, 1.350234e+2, -1513663.3, -1641263.9, 9367.034, -0.0917474, 0.113670625, -1512979.4, 103806.03, 0.000061385945, 10.000979, 9.999349 
3.850418e+2, 1.450232e+2, -1442041.5, -1494574.5, 31176.605, 0.09504198, 0.13423948, -1427541.5, 91245.51, 0.000022093489, 10.000541, 9.99987 
3.8503796e+2, 1.550231e+2, -1380683.0, -1429243.0, -6966.273, 0.011008881, 0.10554857, -1379703.5, 41083.992, 0.000004863891, 10.00036, 9.999738 
3.850349e+2, 1.6502304e+2, -1306539.3, -1326798.8, -11523.315, 0.017274601, 0.1250355, -1301326.4, 21461.516, 0.00000029520132, 10.000107, 9.999901 
3.8503182e+2, 1.7502314e+2, -1267630.1, -1259142.9, -32559.205, 0.04073932, 0.1068506, -1230551.9, -5764.5205, 0.0, 9.999714, 9.999878 
3.8502872e+2, 1.8502328e+2, -1167171.0, -1238231.0, 1583.4371, 0.04587322, 0.1750719, -1167135.8, -40349.156, 0.0, 10.000072, 9.999169 
3.850259e+2, 1.9502306e+2, -919231.4, -1076130.9, 688.81494, 0.06437439, 0.19800025, -919228.4, 109561.75, 0.0, 10.001126, 9.999108 
3.8502294e+2, 2.050222e+2, -744527.9, -908052.2, 22076.76, 0.06495544, 0.19473955, -741599.8, 189197.53, 0.0, 10.001523, 9.999397 
3.8501984e+2, 2.1502052e+2, -688873.44, -835641.3, -14959.491, 0.038017206, 0.05463089, -687364.2, 145446.14, 0.0, 10.001242, 9.999364 
3.850169e+2, 2.2501993e+2, -684434.25, -816180.3, -22506.309, 0.04230489, 0.08049622, -680695.6, 54120.81, 0.0, 10.000763, 9.999042 
3.850141e+2, 2.350202e+2, -679922.7, -764418.8, -39017.684, 0.08014994, 0.16497365, -664661.8, -27844.42, 0.0, 10.000126, 9.99903 
3.8501075e+2, 2.450201e+2, -562488.6, -668470.44, -44748.414, 0.08934, 0.2626789, -546122.06, -7301.7773, 0.0, 10.000316, 9.998916 
3.8500667e+2, 2.550193e+2, -314971.84, -511768.22, -57505.652, 0.058525946, 0.25648758, -299400.28, 141428.38, 0.0, 10.001375, 9.998821 
3.8500294e+2, 2.6501733e+2, -182659.03, -434900.4, -4042.2808, 0.01678523, 0.20172174, -182594.27, 160252.27, 0.0, 10.001804, 9.998466 
3.8499972e+2, 2.7501407e+2, -110525.71, -347260.7, -12560.896, -0.010969016, -0.0069375313, -109861.11, 135013.81, 0.0, 10.001616, 9.998485 
3.8499668e+2, 2.850129e+2, -98138.82, -356761.84, -11885.891, 0.009582224, 0.06183409, -97593.71, 49293.69, 0.000000026095549, 10.0013, 9.997903 
3.8499346e+2, 2.9501355e+2, -80236.03, -313318.6, 6854.908, 0.05099827, 0.29445818, -80034.6, -31147.924, 0.00000066980994, 10.000808, 9.997765 
3.8499063e+2, 3.0501133e+2, 40826.543, -65416.53, 120226.04, -0.038985122, 0.23714057, 119143.96, 119143.96, 0.000005131084, 10.000626, 9.999228 
3.8498875e+2, 3.1501025e+2, 97418.52, 80361.51, -49986.383, -0.073212795, 0.15680344, 139598.73, 139598.73, 0.000023471404, 10.000435, 10.000321 
3.9505035e+2, 1.2502971e+2, -1567695.6, -1763724.4, -43734.055, -0.011590637, 0.19598232, -1558381.1, 156338.92, 0.0001272644, 10.001465, 9.99893 
3.9504367e+2, 1.350275e+2, -1589149.5, -1779172.8, 1968.3625, -0.20248103, 0.093499504, -1589129.1, 27615.457, 0.00006380605, 10.000928, 9.998422 
3.9504293e+2, 1.450263e+2, -1489139.1, -1579590.8, 5901.511, 0.10877689, 0.09166878, -1488755.8, 30002.834, 0.000023677207, 10.000471, 9.999325 
3.9503875e+2, 1.5502729e+2, -1417389.8, -1505043.5, 829.93256, 0.015285908, 0.2199671, -1417382.0, 3368.8013, 0.000005569423, 10.000352, 9.999222 
3.9503518e+2, 1.6502711e+2, -1323471.1, -1342780.9, -45329.25, 0.0023095016, 0.2575628, -1286779.9, 35972.72, 0.00000035120044, 10.000031, 9.999826 
3.9503115e+2, 1.750259e+2, -1284835.1, -1272835.4, -31110.508, -0.029395085, 0.11911562, -1247151.5, -22388.137, 0.0, 9.999626, 9.9998255 
3.9502856e+2, 1.8502557e+2, -1154623.0, -1183742.9, 27305.813, -0.006696049, 0.1207864, -1138237.9, -11472.656, 0.0, 9.999944, 9.999609 
3.9502776e+2, 1.9502582e+2, -907307.3, -1016758.25, 54167.547, 0.108434506, 0.15011604, -885032.75, 143728.66, 0.0, 10.000982, 9.999583 
3.950252e+2, 2.0502529e+2, -808901.0, -1000280.25, -4140.157, 0.111006044, 0.1814515, -808811.5, 121954.29, 0.0, 10.001348, 9.998849 
3.950207e+2, 2.1502377e+2, -757915.9, -927954.7, -7934.601, -0.028844511, 0.112876326, -757546.44, 75233.63, 0.0, 10.00103, 9.998828 
3.9501715e+2, 2.2502282e+2, -708117.25, -828866.94, -58188.504, -0.037031393, 0.131381, -684640.94, 50149.043, 0.0, 10.000602, 9.999035 
3.950145e+2, 2.3502214e+2, -703779.8, -776726.2, -45638.367, 0.078094944, 0.12541519, -681830.8, -45032.473, 0.0, 9.999966, 9.999023 
3.9501122e+2, 2.4502175e+2, -572404.56, -664277.56, -18348.072, 0.0769167, 0.18934153, -568875.8, -30072.063, 0.0, 10.000206, 9.999004 
3.9500734e+2, 2.550213e+2, -325492.84, -503722.4, -2166.6135, -0.04329045, 0.21183942, -325466.53, 115342.61, 0.0, 10.001243, 9.998945 
3.9500403e+2, 2.650203e+2, -179699.36, -411192.16, -24577.625, -0.082563326, 0.23787753, -177118.72, 165699.94, 0.0, 10.001724, 9.998671 
3.9500132e+2, 2.750185e+2, -113772.39, -331606.7, -3687.3987, -0.047766913, 0.16077659, -113709.984, 131124.34, 0.0, 10.001508, 9.998651 
3.94998e+2, 2.850173e+2, -74756.47, -285810.22, -43804.824, -0.018580485, 0.1889591, -66025.81, 80820.07, 0.000000010243951, 10.001218, 9.998425 
3.949939e+2, 2.9501635e+2, -60539.77, -235792.95, 8839.861, -0.024637848, 0.21390055, -60095.008, -11239.453, 0.0000005130985, 10.000663, 9.998364 
3.949918e+2, 3.050138e+2, 45317.31, -52678.934, 105527.35, -0.01811106, 0.08503454, 112667.1, 112667.1, 0.0000059963604, 10.000606, 9.999327 
3.949888e+2, 3.150137e+2, 60821.26, 32608.543, 6136.001, -0.1840353, 0.10379164, 62098.004, 62098.004, 0.000027747768, 10.000321, 10.000046 
4.0505224e+2, 1.2503336e+2, -1715043.9, -1861468.1, -51223.027, 0.10109552, 0.17338651, -1698903.9, 15779.242, 0.0001282802, 10.000533, 9.998718 
4.0504447e+2, 1.3503169e+2, -1640097.0, -1818275.9, -71648.91, -0.18219553, 0.13321102, -1614860.3, 1843.7075, 0.00006493345, 10.000627, 9.9983015 
4.0504408e+2, 1.4503027e+2, -1482516.0, -1602992.5, 27227.008, 0.18179795, 0.12592134, -1476648.5, 42072.313, 0.00002457309, 10.000626, 9.999093 
4.0503922e+2, 1.550308e+2, -1400289.1, -1523857.3, 9963.624, 0.023404468, 0.23286574, -1399490.9, 21226.55, 0.000005781208, 10.000569, 9.998996 
4.050355e+2, 1.6503045e+2, -1259945.0, -1336331.5, 3130.2888, 0.012898276, 0.2753084, -1259816.9, 62904.477, 0.0000003430959, 10.000574, 9.999603 
4.0503174e+2, 1.7502928e+2, -1147706.4, -1233881.9, -29941.85, 0.02178565, 0.16088441, -1138324.5, 86407.77, 0.0, 10.000674, 9.999586 
4.0502942e+2, 1.8502876e+2, -1033507.8, -1122194.9, 62206.023, 0.05287626, 0.15330334, -1001458.06, 125277.62, 0.0, 10.000777, 9.999625 
4.05029e+2, 1.9502853e+2, -929607.25, -1027005.56, 33959.992, 0.15076128, 0.13757193, -918935.6, 109799.66, 0.0, 10.000835, 9.999586 
4.0502644e+2, 2.0502791e+2, -898884.94, -1057512.9, -28703.664, 0.13672508, 0.16637598, -893850.8, 36889.88, 0.0, 10.000792, 9.998716 
4.0502164e+2, 2.1502666e+2, -823065.75, -975985.9, -34493.332, -0.0076708607, 0.13410872, -815645.4, 17108.629, 0.0, 10.000654, 9.998674 
4.0501794e+2, 2.2502573e+2, -652305.9, -789680.7, -27609.701, -0.025996469, 0.15597314, -646964.5, 87798.68, 0.0, 10.000933, 9.999147 
4.0501523e+2, 2.3502482e+2, -459358.63, -653705.4, -32572.621, 0.082014166, 0.11966828, -454044.72, 182726.42, 0.0, 10.001607, 9.999087 
4.0501207e+2, 2.4502406e+2, -405916.9, -592068.4, 21955.438, 0.090045296, 0.14613082, -403362.44, 135416.66, 0.0, 10.001379, 9.998938 
4.0500847e+2, 2.5502324e+2, -465534.28, -568703.0, 1157.9846, -0.00010289225, 0.13438465, -465521.28, -24732.988, 0.0, 10.000295, 9.998945 
4.050054e+2, 2.6502267e+2, -398990.53, -503494.47, 10404.342, -0.031664435, 0.19652241, -397964.75, -55170.406, 0.0, 10.000147, 9.998791 
4.0500283e+2, 2.7502203e+2, -200211.03, -363648.63, -488.92142, -0.0021031038, 0.21731326, -200209.56, 44591.12, 0.0, 10.0008545, 9.998744 
4.049993e+2, 2.8502086e+2, -67887.15, -276130.8, -42570.883, 0.0022186264, 0.24414812, -59520.6, 87290.734, 0.0000000008315615, 10.001224, 9.998491 
4.04995e+2, 2.950189e+2, 43061.066, -168804.83, -55811.977, -0.0012147601, 0.16000162, 56864.35, 105692.8, 0.0000007104038, 10.00129, 9.998519 
4.0499336e+2, 3.0501622e+2, 65361.13, -75035.625, 28954.996, 0.07883276, 0.01625288, 71098.27, 71098.27, 0.000009515816, 10.000878, 9.999045 
4.049896e+2, 3.1501645e+2, -39009.16, -51730.414, -99628.92, -0.09096621, 0.10277412, 54461.973, 54461.973, 0.000039448827, 9.999747, 9.999756 
4.1505358e+2, 1.2503453e+2, -1664395.3, -1770374.1, -5357.8545, 0.098657966, 0.047906306, -1664125.1, 50548.652, 0.00012596608, 10.000574, 9.999323 
4.1504532e+2, 1.3503604e+2, -1574448.1, -1703927.3, -58815.98, -0.1999582, 0.24520648, -1551720.4, 64942.5, 0.00006410072, 10.0006895, 9.999062 
4.150448e+2, 1.4503506e+2, -1479102.6, -1581391.5, 9049.248, 0.14745082, 0.23442008, -1478308.3, 40366.08, 0.00002430965, 10.000581, 9.999259 
4.1503897e+2, 1.550338e+2, -1399030.1, -1501600.6, 25806.701, -0.09385354, 0.14592323, -1392903.1, 27783.346, 0.0000053776803, 10.000501, 9.999177 
4.150354e+2, 1.6503319e+2, -1307987.3, -1412885.3, -7347.7744, -0.087159604, 0.17872061, -1307475.0, 15218.141, 0.0000002359893, 10.000473, 9.999125 
4.15033e+2, 1.7503339e+2, -1191142.5, -1306021.9, -9909.19, 0.044477303, 0.24846388, -1190294.0, 34398.992, 0.0, 10.0006, 9.999125 
4.1503072e+2, 1.8503283e+2, -1072422.6, -1180675.9, 49057.727, 0.074314676, 0.2788821, -1053499.0, 73199.13, 0.0, 10.000684, 9.999266 
4.1502905e+2, 1.9503121e+2, -972886.44, -1086650.4, 49821.035, 0.043303106, 0.15448979, -954153.0, 74558.77, 0.0, 10.000713, 9.9992285 
4.1502628e+2, 2.0503005e+2, -904323.5, -1040015.2, -47736.285, 0.010625057, 0.1406005, -889212.7, 41509.64, 0.0, 10.000653, 9.998912 
4.1502225e+2, 2.150292e+2, -834910.94, -953927.75, -26738.186, -0.04151836, 0.12661907, -829179.94, 3551.9, 0.0, 10.000453, 9.998923 
4.150188e+2, 2.2502865e+2, -664876.0, -773477.94, -15979.118, -0.058319174, 0.16630463, -662573.7, 72161.89, 0.0, 10.0007515, 9.999347 
4.1501582e+2, 2.3502816e+2, -468072.72, -634177.3, 7672.294, -0.049283035, 0.1479059, -467719.1, 169017.47, 0.0, 10.001448, 9.999298 
4.150127e+2, 2.4502699e+2, -431890.28, -621150.3, -30859.719, -0.01921396, 0.13091236, -426985.56, 111761.0, 0.0, 10.001269, 9.998789 
4.1500944e+2, 2.550249e+2, -493623.72, -599149.3, -23231.771, 0.034522805, 0.006860512, -488735.63, -47967.855, 0.0, 10.00017, 9.9987955 
4.1500655e+2, 2.6502421e+2, -404517.97, -492058.44, 25250.441, 0.03804094, 0.056047533, -397756.84, -54981.074, 0.0, 10.00006, 9.998907 
4.1500384e+2, 2.750246e+2, -210504.7, -354202.6, 41417.813, -0.026982779, 0.17070653, -199421.72, 45351.73, 0.0, 10.000737, 9.9988575 
4.150002e+2, 2.850237e+2, -92331.13, -333057.2, -57007.72, -0.067300595, 0.2367168, -79513.31, 67269.54, 0.00000000001177225, 10.001231, 9.998106 
4.1499603e+2, 2.950213e+2, 3812.6987, -230251.06, -38498.31, -0.07122876, 0.14354365, 9982.201, 58787.438, 0.0000013022876, 10.001193, 9.99815 
4.1499475e+2, 3.0501848e+2, 25637.633, -147816.02, -21886.764, 0.095022686, 0.035192724, 28356.727, 28356.727, 0.000014575742, 10.000848, 9.998551 
4.1499034e+2, 3.1501913e+2, -68562.43, -77122.26, -32698.006, -0.06672006, 0.20678912, -39865.42, -39865.42, 0.000055427667, 9.999616, 9.999632 
4.2505428e+2, 1.250367e+2, -1668476.3, -1733324.9, 97726.62, 0.13512236, 0.041286428, -1597935.4, 116719.13, 0.00012015749, 10.000367, 9.99968 
4.2504624e+2, 1.3503894e+2, -1652833.3, -1689265.5, -115306.07, -0.12724227, 0.26133096, -1554313.4, 62322.0, 0.00006079175, 9.999922, 9.999528 
4.2504522e+2, 1.4503835e+2, -1568665.0, -1580967.1, -9765.118, 0.18215476, 0.24589191, -1563275.1, -44633.402, 0.00002257458, 9.99978, 9.999644 
4.2503905e+2, 1.5503691e+2, -1482862.6, -1495902.1, -20457.293, -0.08434125, 0.09977684, -1467911.3, -47257.258, 0.0000044461326, 9.999734, 9.99958 
4.2503577e+2, 1.6503637e+2, -1347869.0, -1440491.8, 27813.615, -0.075688876, 0.123022355, -1340158.8, -17499.344, 0.00000009724189, 10.00025, 9.99904 
4.250344e+2, 1.7503662e+2, -1093271.0, -1266218.8, 26003.092, 0.09662918, 0.209736, -1089446.0, 135212.45, 0.0, 10.001313, 9.999054 
4.250323e+2, 1.8503615e+2, -994113.5, -1175620.4, 90581.15, 0.1354595, 0.26408508, -956644.0, 170019.8, 0.0, 10.001348, 9.998989 
4.2502984e+2, 1.9503455e+2, -1048502.0, -1156230.0, 69500.93, 0.07906558, 0.17219563, -1014435.9, 14243.063, 0.0, 10.000318, 9.998949 
4.25027e+2, 2.0503344e+2, -953008.3, -1054655.4, 31116.05, 0.04412431, 0.16921563, -944239.56, -13549.481, 0.0, 10.000292, 9.9989805 
4.2502356e+2, 2.1503252e+2, -720456.06, -896295.3, 12564.719, 0.013256505, 0.14682767, -719562.75, 113137.23, 0.0, 10.001226, 9.998951 
4.2502037e+2, 2.2503169e+2, -578444.6, -751377.1, 19087.014, -0.0012690006, 0.16573632, -576363.0, 158343.34, 0.0, 10.001439, 9.99916 
4.250173e+2, 2.3503083e+2, -557735.3, -694019.2, -20037.98, -0.009595906, 0.12854367, -554850.2, 81860.516, 0.0, 10.000917, 9.999135 
4.2501384e+2, 2.4502973e+2, -489895.84, -650318.56, -55853.523, -0.00031564402, 0.12943575, -472365.3, 66354.73, 0.0, 10.000872, 9.998786 
4.2501014e+2, 2.550281e+2, -325906.4, -523272.16, -66482.734, 0.037489884, 0.053288694, -305600.78, 135136.52, 0.0, 10.001329, 9.998768 
4.2500722e+2, 2.650272e+2, -221116.6, -394074.38, 28401.705, 0.049210876, 0.079269715, -216572.1, 126174.88, 0.0, 10.001276, 9.999005 
4.2500508e+2, 2.7502674e+2, -210868.81, -342104.22, 15889.434, 0.03489773, 0.10129378, -208972.39, 35779.227, 0.0, 10.000687, 9.998972 
4.2500165e+2, 2.8502598e+2, -144738.14, -341453.06, -18949.748, -0.018359419, 0.1710127, -142929.33, 3829.8105, 0.0000000012455732, 10.000833, 9.998221 
4.2499742e+2, 2.9502466e+2, 86042.34, -180893.0, -486.9744, -0.06918689, 0.17555103, 86043.234, 134815.22, 0.0000019825331, 10.001721, 9.998233 
4.249958e+2, 3.0502176e+2, 119575.28, -118903.38, 22072.563, 0.0976969, 0.06048131, 121601.016, 121601.016, 0.000019679212, 10.001572, 9.998402 
4.2499182e+2, 3.1502184e+2, 26161.195, -62986.984, 32063.826, 0.09735858, 0.19076103, 36495.563, 36495.563, 0.00007104561, 10.000391, 9.999364 
4.3505368e+2, 1.2503989e+2, -1665938.1, -1708056.5, 120270.63, -0.038846277, 0.14693174, -1564896.9, 149728.7, 0.00011272219, 10.000312, 9.999873 
4.3504688e+2, 1.3504046e+2, -1640498.8, -1659130.4, -114598.0, -0.09589311, 0.1808293, -1534838.5, 81781.98, 0.00005585788, 9.99992, 9.999734 
4.3504488e+2, 1.4504002e+2, -1537971.6, -1508917.9, -23945.434, 0.12333038, 0.14741592, -1495437.4, 23186.605, 0.000019900395, 9.999733, 10.000166 
4.3503886e+2, 1.5504013e+2, -1440907.6, -1415061.3, -6715.353, -0.11502343, 0.10008669, -1413420.6, 7199.6836, 0.0000034951138, 9.999748, 10.000133 
4.3503606e+2, 1.6503984e+2, -1335919.5, -1394876.0, 51531.61, -0.1057633, 0.10365632, -1306030.5, 16590.766, 0.000000032016867, 10.000169, 9.999388 
4.3503544e+2, 1.75039e+2, -1081989.1, -1221458.6, 80169.914, 0.033834174, 0.042847913, -1045468.75, 179159.8, 0.0, 10.001227, 9.999399 
4.3503356e+2, 1.850387e+2, -1027770.3, -1214494.0, 37289.73, 0.097163394, 0.10902007, -1020598.8, 106033.77, 0.0, 10.001215, 9.998788 
4.350309e+2, 1.950387e+2, -1081130.3, -1191666.3, 46273.508, 0.12074797, 0.19839767, -1064316.4, -35680.79, 0.0, 10.000184, 9.99877 
4.3502814e+2, 2.050381e+2, -983626.06, -1082298.0, 50724.15, 0.100169316, 0.26023856, -962202.0, -31558.564, 0.0, 10.000135, 9.998865 
4.350251e+2, 2.1503657e+2, -754396.9, -928337.06, 61425.305, 0.0141949775, 0.18665026, -734892.25, 97766.54, 0.0, 10.001061, 9.998809 
4.3502215e+2, 2.2503491e+2, -645502.44, -852626.1, -14402.959, 0.0054279147, 0.16037397, -644505.7, 90168.805, 0.0, 10.001274, 9.998545 
4.3501925e+2, 2.3503286e+2, -623966.75, -792710.1, -24573.088, 0.06572294, 0.06429352, -620461.1, 16232.137, 0.0, 10.000748, 9.998539 
4.3501523e+2, 2.4503228e+2, -504331.5, -650079.25, -52741.47, 0.020258676, 0.14523505, -487248.38, 51451.082, 0.0, 10.000749, 9.99884 
4.3501005e+2, 2.5503296e+2, -342587.22, -524578.6, -34444.934, -0.13592485, 0.28800622, -336286.1, 104409.805, 0.0, 10.001193, 9.998817 
4.35007e+2, 2.6503175e+2, -221637.95, -383360.56, -5996.759, -0.13091716, 0.2812363, -221415.9, 121290.59, 0.0, 10.00122, 9.999108 
4.35006e+2, 2.750285e+2, -214533.45, -329298.94, 11066.324, 0.021868309, 0.008965796, -213476.11, 31257.95, 0.0, 10.000591, 9.999107 
4.35003e+2, 2.8502774e+2, -115012.266, -265237.44, 2950.2554, -0.0001063296, 0.043352313, -114954.35, 31785.56, 0.000000012355592, 10.000782, 9.998765 
4.3499878e+2, 2.950292e+2, 105962.76, -116741.98, 49060.656, -0.14967655, 0.269944, 116291.52, 165018.44, 0.0000027662056, 10.001634, 9.9987135 
4.3499622e+2, 3.0502605e+2, 126468.24, -106042.945, -34627.754, -0.051305693, 0.10520641, 131515.77, 131515.77, 0.000024180765, 10.00157, 9.998494 
4.3499294e+2, 3.150243e+2, -30602.715, -153495.61, 76248.94, 0.09570139, 0.039964084, 5877.166, 5877.166, 0.00008333817, 10.000279, 9.9987955 
4.4505388e+2, 1.2504296e+2, -1715356.9, -1714025.9, 217956.52, -0.012715054, 0.2121012, -1496733.9, 217862.73, 0.00010688196, 9.999946, 9.999992 
4.4504765e+2, 1.3504268e+2, -1677982.8, -1655444.5, -133698.92, 0.020705463, 0.14571592, -1532540.6, 84057.94, 0.000051033883, 9.999598, 9.999915 
4.450442e+2, 1.4504229e+2, -1531711.0, -1522302.3, 765.25354, 0.08666128, 0.11634413, -1522240.4, -3639.012, 0.000017295639, 9.999841, 10.000021 
4.4503972e+2, 1.55043e+2, -1344407.3, -1384103.4, -73116.85, -0.03261455, 0.14076762, -1288492.4, 132100.39, 0.0000027656245, 10.000471, 9.999996 
4.4503748e+2, 1.6504273e+2, -1243463.1, -1350212.9, -7746.2695, -0.0022319704, 0.15007195, -1242903.9, 79689.76, 0.000000035556127, 10.000772, 9.999419 
4.4503638e+2, 1.7504129e+2, -1146279.9, -1251354.9, -30296.496, 0.039511442, 0.027911054, -1138170.4, 86435.4, 0.0, 10.00076, 9.999431 
4.4503433e+2, 1.8504085e+2, -1062130.1, -1221687.1, -76224.58, 0.07523436, 0.074600875, -1031569.1, 95041.92, 0.0, 10.000964, 9.998844 
4.4503185e+2, 1.9504102e+2, -913036.56, -1105182.3, -81632.695, 0.1518272, 0.17565387, -883038.44, 145574.6, 0.0, 10.001329, 9.998801 
4.450292e+2, 2.0504062e+2, -808819.56, -1009554.3, -15327.858, 0.13886333, 0.26378414, -807655.9, 122963.734, 0.0, 10.001408, 9.998743 
4.4502622e+2, 2.1503936e+2, -745487.6, -934582.4, -35442.125, 0.023188636, 0.23073243, -739063.0, 93570.37, 0.0, 10.001179, 9.998702 
4.4502327e+2, 2.2503789e+2, -676330.3, -844576.9, -79437.63, 0.012647888, 0.21695654, -644751.1, 89896.586, 0.0, 10.000965, 9.998745 
4.4502038e+2, 2.3503591e+2, -610607.3, -767453.1, -58034.15, 0.11168306, 0.11071574, -591469.4, 45196.19, 0.0, 10.000756, 9.998707 
4.4501644e+2, 2.4503534e+2, -501190.47, -642621.8, -5024.018, 0.07694703, 0.17906226, -501012.25, 37659.19, 0.0, 10.000741, 9.998898 
4.4501147e+2, 2.5503597e+2, -384461.63, -536602.8, -14960.167, -0.08802528, 0.3131066, -383004.53, 57662.996, 0.0, 10.000872, 9.998889 
4.450083e+2, 2.6503488e+2, -273716.84, -387635.53, 16823.58, -0.09343187, 0.3001939, -271284.28, 71392.305, 0.0, 10.000782, 9.999281 
4.4500673e+2, 2.7503178e+2, -209286.97, -310013.88, 6534.8765, 0.048443876, 0.03066411, -208864.78, 35836.63, 0.0, 10.000559, 9.999253 
4.4500405e+2, 2.8503102e+2, -148900.42, -272084.75, 41089.48, 0.048423562, 0.05293934, -136452.47, 10254.888, 0.00000003062236, 10.000492, 9.998866 
4.4500098e+2, 2.9503223e+2, -67468.39, -180468.05, 16489.867, -0.017039377, 0.24932368, -65111.223, -16414.107, 0.0000032986038, 10.000369, 9.998879 
4.449975e+2, 3.0503002e+2, 27098.516, -107614.555, -49651.777, -0.021702662, 0.14555678, 43421.14, 43421.14, 0.000027227657, 10.000684, 9.998899 
4.4499436e+2, 3.150284e+2, 155954.6, -59676.035, 57450.375, 0.1592169, 0.052593205, 170305.9, 170305.9, 0.000091368296, 10.001554, 9.998812 
4.5505396e+2, 1.250458e+2, -1720916.9, -1726115.4, 182511.3, -0.07967038, 0.2198302, -1540986.4, 173581.9, 0.000102696926, 9.999943, 9.99991 
4.5504788e+2, 1.3504554e+2, -1666288.9, -1647107.3, -130401.734, 0.045144975, 0.15103988, -1525944.1, 90625.75, 0.000047349753, 9.99965, 9.999951 
4.5504266e+2, 1.4504498e+2, -1591889.8, -1636208.3, 15205.8, -0.0963918, 0.1412936, -1587174.4, -68598.89, 0.000015080613, 9.999802, 9.999255 
4.5504114e+2, 1.5504542e+2, -1405510.6, -1500764.4, -32295.83, 0.02293699, 0.21932879, -1395593.4, 24978.746, 0.0000021144335, 10.000437, 9.999208 
4.5503956e+2, 1.6504498e+2, -1267692.8, -1385371.9, -25868.037, 0.092814945, 0.26189145, -1262257.5, 60319.02, 0.00000004449902, 10.0007, 9.999213 
4.5503685e+2, 1.7504355e+2, -1166100.1, -1286375.5, -14227.388, -0.02513462, 0.15983489, -1164440.0, 60149.742, 0.0, 10.000728, 9.9992075 
4.550342e+2, 1.8504258e+2, -1060989.9, -1194689.8, -77056.69, -0.06582389, 0.15168689, -1025826.9, 100772.66, 0.0, 10.00086, 9.999077 
4.5503226e+2, 1.9504158e+2, -921136.8, -1083995.8, -55327.965, 0.025186822, 0.11204988, -904118.6, 124491.54, 0.0, 10.001172, 9.999017 
4.5502973e+2, 2.0504111e+2, -843603.2, -1044365.0, -39007.98, 0.020217516, 0.19153738, -836290.3, 94326.94, 0.0, 10.001242, 9.998586 
4.5502642e+2, 2.1504094e+2, -784451.5, -964819.06, -29136.305, -0.10089543, 0.28055593, -779861.7, 52761.074, 0.0, 10.000965, 9.998593 
4.550233e+2, 2.2504066e+2, -632504.3, -716056.94, -100285.21, -0.10795658, 0.34273258, -565641.9, 168983.33, 0.0, 10.000795, 9.999716 
4.550202e+2, 2.3503998e+2, -562544.5, -634339.5, -49839.91, -0.015166131, 0.2660282, -537020.1, 99607.67, 0.0, 10.000607, 9.999696 
4.5501706e+2, 2.4503891e+2, -514757.06, -637382.5, -12890.04, 0.036288593, 0.23146118, -513416.75, 25219.047, 0.0, 10.000605, 9.999002 
4.5501402e+2, 2.5503716e+2, -395418.2, -526341.25, 6377.004, 0.047412813, 0.12115477, -395108.3, 45543.957, 0.0, 10.00073, 9.999034 
4.5501068e+2, 2.650364e+2, -279837.72, -377104.28, -2601.588, 0.03688362, 0.12793246, -279768.2, 62889.805, 0.0, 10.000688, 9.9993925 
4.5500693e+2, 2.7503642e+2, -221149.2, -308047.22, 18056.375, -0.023270823, 0.1560227, -217546.66, 27108.217, 0.0, 10.000448, 9.999313 
4.5500436e+2, 2.8503573e+2, -175578.67, -320967.44, 23663.164, -0.004895715, 0.20134969, -171824.27, -25162.877, 0.000000022691747, 10.000452, 9.998554 
4.5500353e+2, 2.950338e+2, -88204.07, -217594.05, 28553.27, 0.15848887, 0.109854825, -82183.21, -33500.64, 0.0000033720132, 10.0003195, 9.998659 
4.549991e+2, 3.0503353e+2, 76021.58, 4510.4727, -24085.361, 0.03258087, 0.16933046, 83377.09, 83377.09, 0.000028360193, 10.000652, 9.999675 
4.5499521e+2, 3.1503394e+2, 183165.83, 16753.324, 129824.27, 0.016203577, 0.1999602, 254159.52, 254159.52, 0.00009465621, 10.001469, 9.999374 
4.6505386e+2, 1.2504806e+2, -1820460.4, -1788273.5, 167961.8, -0.03654555, 0.20400627, -1635635.9, 78908.5, 0.00009773488, 9.999276, 9.999808 
4.6504945e+2, 1.3504815e+2, -1490170.9, -1568495.0, -154401.27, 0.19273725, 0.16710407, -1370042.6, 246500.77, 0.000043477085, 10.00084, 9.999929 
4.6504268e+2, 1.4504741e+2, -1367919.8, -1557084.0, 31975.578, -0.14608419, 0.15263475, -1362661.0, 155890.05, 0.000012657647, 10.001467, 9.998997 
4.650423e+2, 1.5504724e+2, -1327390.5, -1490750.9, -16492.047, 0.07294672, 0.19464682, -1325742.3, 94810.945, 0.0000014631825, 10.001099, 9.9989605 
4.6504095e+2, 1.6504675e+2, -1281602.8, -1396732.1, 35521.203, 0.17537713, 0.24658649, -1271525.4, 51033.145, 0.000000030371112, 10.000645, 9.999152 
4.650378e+2, 1.7504573e+2, -1260978.1, -1337123.8, 25635.182, 0.03607388, 0.19172847, -1253152.1, -28583.287, 0.0, 10.000111, 9.99915 
4.6503496e+2, 1.8504483e+2, -1143307.8, -1232709.6, 20090.799, -0.03645926, 0.19242555, -1139000.4, -12422.017, 0.0, 10.0002575, 9.999124 
4.65033e+2, 1.9504368e+2, -939410.1, -1089484.4, 2226.9805, -0.00019216226, 0.13285692, -939377.06, 89213.15, 0.0, 10.0009985, 9.9990835 
4.6503052e+2, 2.0504312e+2, -852074.9, -1006913.1, 26282.467, -0.0014885754, 0.18010448, -847735.3, 82861.484, 0.0, 10.000995, 9.998965 
4.6502742e+2, 2.1504286e+2, -860261.6, -965391.8, 41121.426, -0.05464646, 0.225063, -846087.94, -13487.209, 0.0, 10.000278, 9.998928 
4.6502423e+2, 2.2504279e+2, -727848.8, -740080.9, 7319.996, -0.046690684, 0.28219497, -724426.06, 10174.574, 0.0, 10.000063, 9.999888 
4.6502095e+2, 2.3504263e+2, -585091.8, -625407.44, -34082.07, 0.01961896, 0.24349609, -565652.56, 70946.44, 0.0, 10.000383, 9.999856 
4.65018e+2, 2.4504167e+2, -503465.66, -615789.5, 4864.492, 0.07980056, 0.20195077, -503255.38, 35350.664, 0.0, 10.000604, 9.9991455 
4.650156e+2, 2.550396e+2, -388625.56, -508656.3, -2985.0474, 0.14291894, 0.045091484, -388551.38, 52072.83, 0.0, 10.00071, 9.999159 
4.6501225e+2, 2.6503894e+2, -277284.1, -420911.53, -10259.145, 0.12075433, 0.07299587, -276555.0, 66075.41, 0.0, 10.000875, 9.999017 
4.6500775e+2, 2.7503943e+2, -168174.95, -324155.38, -50636.953, -0.0014338547, 0.18467282, -153178.2, 91448.35, 0.0, 10.000979, 9.998958 
4.6500513e+2, 2.850386e+2, -119814.62, -257817.1, -13871.971, 0.02427929, 0.21941452, -118434.02, 28200.766, 0.00000001636591, 10.000689, 9.998868 
4.6500486e+2, 2.9503602e+2, -88771.39, -169632.0, -7641.373, 0.27690426, 0.027140066, -88055.61, -39395.883, 0.0000038591365, 10.000125, 9.999069 
4.649998e+2, 3.050365e+2, 25528.438, -63788.375, -1299.7036, 0.059154686, 0.1587291, 25547.346, 25547.346, 0.000029778155, 10.000453, 9.999338 
4.6499673e+2, 3.1503665e+2, 181062.08, 32396.508, 115.22692, 0.043972377, 0.20866, 181062.17, 181062.17, 0.00009717631, 10.001362, 9.999556 
4.7505265e+2, 1.2504965e+2, -1839094.8, -1786953.9, 94279.68, -0.16707367, 0.17247537, -1715206.5, -680.7425, 0.00009217974, 9.999142, 9.999866 
4.750519e+2, 1.3505052e+2, -1488817.3, -1550805.4, -77051.71, 0.31516978, 0.20063862, -1436759.5, 179759.75, 0.00003847725, 10.000809, 10.000049 
4.7504374e+2, 1.4504962e+2, -1353473.0, -1524715.1, 2173.5044, -0.23635824, 0.15490541, -1353445.5, 165082.05, 0.000009911169, 10.001435, 9.999244 
4.750427e+2, 1.550484e+2, -1302256.9, -1448004.0, -15542.841, -0.03729753, 0.06384318, -1300617.9, 119918.484, 0.0000009593812, 10.001123, 9.999249 
4.7504133e+2, 1.6504791e+2, -1286733.3, -1391494.3, 505.11795, 0.110866226, 0.0983715, -1286730.8, 35809.613, 0.000000014696447, 10.000578, 9.999224 
4.750388e+2, 1.7504774e+2, -1267265.6, -1334362.6, 22412.94, 0.09037408, 0.12633017, -1260467.6, -35923.797, 0.0, 10.000047, 9.999204 
4.7503608e+2, 1.8504764e+2, -1161002.1, -1247027.0, 34974.566, 0.015399452, 0.20758083, -1148577.3, -22030.057, 0.0, 10.000156, 9.999077 
4.7503367e+2, 1.9504735e+2, -957604.4, -1104356.3, 46149.06, -0.06609106, 0.23773955, -944298.4, 84254.57, 0.0, 10.0008955, 9.999035 
4.7503123e+2, 2.0504662e+2, -814802.44, -892844.94, -14591.426, -0.058586072, 0.22936894, -812163.56, 118394.85, 0.0, 10.000841, 9.999818 
4.7502872e+2, 2.150452e+2, -827322.6, -852027.25, 30091.291, 0.017132007, 0.06955037, -807147.0, 25419.72, 0.0, 10.0000925, 9.99979 
4.7502565e+2, 2.250443e+2, -794804.44, -850905.3, 5093.7734, 0.05783755, 0.03593979, -794345.7, -59772.17, 0.0, 9.999927, 9.999203 
4.7502217e+2, 2.3504376e+2, -655110.44, -734965.4, -7026.709, 0.07269574, 0.026479391, -654496.9, -17916.26, 0.0, 10.000221, 9.999186 
4.7501883e+2, 2.4504346e+2, -510556.03, -604055.25, -3867.777, 0.069132455, 0.078651235, -510396.3, 28187.309, 0.0, 10.000482, 9.999288 
4.7501576e+2, 2.5504315e+2, -399647.28, -506406.22, 17461.555, 0.05057296, 0.07782069, -396863.84, 43721.58, 0.0, 10.0005865, 9.999238 
4.7501245e+2, 2.6504236e+2, -346275.4, -539122.1, -20650.543, 0.024506709, 0.13225494, -344088.88, -1493.8423, 0.0, 10.000776, 9.998248 
4.7500873e+2, 2.7504078e+2, -234169.73, -435215.4, -29774.883, -0.03455462, 0.11290995, -229852.77, 14763.362, 0.0, 10.000876, 9.99824 
4.750059e+2, 2.850395e+2, -65800.83, -142803.81, -50915.004, -0.0021917794, 0.09964913, -40468.918, 106159.01, 0.0000000367379, 10.000667, 9.999673 
4.750044e+2, 2.950385e+2, -49570.57, -69970.1, -12133.267, 0.17343354, -0.018997954, -43919.426, 4712.492, 0.000004901276, 10.000025, 9.999812 
4.7499916e+2, 3.0503866e+2, -83743.4, -265139.9, 19964.414, -0.07492903, 0.11121026, -81572.11, -81572.11, 0.000032907166, 10.000362, 9.997989 
4.7499794e+2, 3.1503645e+2, 156681.89, 2554.456, 38286.797, -0.049416125, 0.06459464, 165668.72, 165668.72, 0.00010232853, 10.001291, 9.999373 
4.8505262e+2, 1.2505111e+2, -1789413.6, -1772453.8, 101228.08, -0.08331142, 0.05971947, -1679351.1, 35155.35, 0.00008688649, 9.999521, 9.999797 
4.8505315e+2, 1.3505252e+2, -1562460.8, -1592064.4, -18812.525, 0.40063784, 0.14974892, -1553325.1, 63171.4, 0.000032757685, 10.000313, 10.000026 
4.8504454e+2, 1.4505196e+2, -1433243.1, -1556507.9, 49191.555, -0.26326895, 0.13718519, -1416019.0, 102482.99, 0.000007215262, 10.000872, 9.9992895 
4.850442e+2, 1.5505037e+2, -1260789.4, -1428049.5, -27144.523, -0.000013203483, 0.006070043, -1256494.4, 164019.45, 0.00000059770906, 10.001407, 9.9992485 
4.8504248e+2, 1.6504969e+2, -1192427.8, -1352337.6, -19320.145, 0.14647469, 0.023662511, -1190126.6, 132393.06, 0.0000000048834687, 10.001263, 9.999156 
4.8503876e+2, 1.7504956e+2, -1207577.9, -1308199.9, -32244.0, 0.07076229, 0.05990616, -1198132.1, 26390.867, 0.0, 10.000488, 9.999156 
4.8503608e+2, 1.8504965e+2, -1164735.0, -1227924.9, 49317.684, 0.013419871, 0.15391445, -1137759.6, -11235.523, 0.0, 10.000068, 9.999231 
4.850348e+2, 1.9504972e+2, -1083158.0, -1140929.5, 48601.793, 0.014510921, 0.2006148, -1055506.0, -26980.32, 0.0, 9.99996, 9.999211 
4.8503232e+2, 2.0504902e+2, -922622.44, -939696.9, -27546.557, 0.014289335, 0.18344289, -902320.5, 28209.955, 0.0, 10.000062, 9.999888 
4.8502874e+2, 2.150473e+2, -805689.94, -830631.2, -64736.176, 0.015616729, -0.011986026, -752234.2, 80307.18, 0.0, 10.000186, 9.999902 
4.850257e+2, 2.2504641e+2, -743087.2, -834166.75, -49691.008, 0.058419384, -0.046619948, -721224.7, 13323.874, 0.0, 10.000314, 9.999136 
4.8502314e+2, 2.350461e+2, -629748.7, -735493.44, -46578.7, 0.14608699, -0.024011789, -612157.9, 24396.998, 0.0, 10.000431, 9.99909 
4.8501992e+2, 2.4504608e+2, -478791.9, -565926.06, 8864.0, 0.13271447, 0.05052754, -477899.34, 60656.574, 0.0, 10.000607, 9.99949 
4.8501608e+2, 2.550462e+2, -356149.63, -460428.28, 1101.1206, 0.024868216, 0.077660136, -356138.0, 84415.4, 0.0, 10.000795, 9.999451 
4.8501292e+2, 2.650456e+2, -338893.22, -520934.16, 22213.861, 0.0019840626, 0.13466513, -336221.72, 6339.64, 0.0, 10.000763, 9.998376 
4.8501027e+2, 2.7504385e+2, -275980.75, -442999.13, 47469.35, 0.056424793, 0.0879261, -263432.03, -18847.537, 0.0, 10.000527, 9.99836 
4.8500744e+2, 2.8504264e+2, -51098.313, -168969.56, 59556.22, 0.0819569, 0.08261416, -26246.404, 120350.445, 0.00000008825205, 10.000901, 9.999382 
4.8500478e+2, 2.95042e+2, 191795.02, 9875.184, -21569.654, 0.13399933, 0.035900123, 194317.48, 242914.78, 0.0000056092463, 10.001835, 9.999489 
4.849993e+2, 3.0504128e+2, 68608.62, -237313.8, 30039.758, -0.14187613, 0.114144586, 71530.44, 71530.44, 0.000035389916, 10.001603, 9.997575 
4.8499984e+2, 3.1503886e+2, -9112.082, -78517.07, 36839.07, 0.0855636, 0.08378401, 6795.505, 6795.505, 0.00010599746, 10.000148, 9.999366 
4.9505246e+2, 1.250523e+2, -1799588.0, -1799791.9, -77810.09, -0.13798505, -0.13390224, -1721879.8, -7392.046, 0.00007926606, 9.999547, 9.999595 
4.950527e+2, 1.3505416e+2, -1567762.8, -1605386.1, 23375.186, 0.29078025, 0.009813351, -1556569.8, 59905.063, 0.000026309035, 10.000322, 9.999926 
4.950446e+2, 1.4505447e+2, -1462628.8, -1601366.9, 53258.42, -0.38805023, 0.101401344, -1444541.9, 73931.95, 0.0000047383246, 10.000803, 9.999015 
4.9504635e+2, 1.5505323e+2, -1286941.9, -1472437.1, 9003.092, 0.03370299, 0.031721406, -1286506.0, 133978.97, 0.0000002991547, 10.001369, 9.9989605 
4.9504396e+2, 1.6505219e+2, -1209630.9, -1375282.8, -64338.188, 0.13452543, 0.03650008, -1187578.1, 134916.92, 0.0000000005507737, 10.001204, 9.999029 
4.9503738e+2, 1.7505115e+2, -1225036.3, -1330408.0, -48550.504, -0.14867032, -0.0057607414, -1206077.5, 18428.771, 0.0, 10.000426, 9.999034 
4.9503466e+2, 1.8505079e+2, -1154117.5, -1180927.5, 31968.783, -0.164445, 0.030048694, -1132857.0, -6347.107, 0.0, 9.999963, 9.999602 
4.9503595e+2, 1.9505072e+2, -1072891.0, -1095729.8, 57809.527, 0.099201165, 0.02663671, -1025383.8, 3125.4531, 0.0, 9.999854, 9.999574 
4.9503338e+2, 2.050503e+2, -987072.9, -1038575.2, -38617.99, 0.08779613, 0.048239704, -966407.75, -35894.72, 0.0, 9.999905, 9.999289 
4.950271e+2, 2.1504927e+2, -869785.5, -933032.94, -44118.754, -0.19660638, -0.017121855, -847127.3, -14603.691, 0.0, 10.00004, 9.999275 
4.9502385e+2, 2.2504912e+2, -737011.75, -779947.7, -57205.867, -0.18770768, 0.029724415, -697378.3, 37147.645, 0.0, 10.000144, 9.999584 
4.9502346e+2, 2.3504958e+2, -622962.3, -679940.1, -23777.387, 0.10237112, 0.08072071, -614343.5, 22179.035, 0.0, 10.000255, 9.999554 
4.9502084e+2, 2.4504955e+2, -483816.44, -541839.4, 2705.468, 0.13315588, 0.11943898, -483690.56, 54831.97, 0.0, 10.000467, 9.99972 
4.9501616e+2, 2.550487e+2, -356171.47, -434578.3, 25366.943, -0.08415579, 0.03057638, -348680.25, 91848.94, 0.0, 10.000682, 9.999683 
4.9501315e+2, 2.6504853e+2, -283485.03, -381184.44, -2635.7764, -0.08210411, 0.065346666, -283413.97, 59117.438, 0.0, 10.000667, 9.999377 
4.9501178e+2, 2.7504867e+2, -231754.63, -312334.78, 55339.965, 0.1233575, 0.107181385, -203591.78, 40940.44, 0.0, 10.000372, 9.999326 
4.950092e+2, 2.850481e+2, -156274.97, -368506.9, 83382.49, 0.13279322, 0.18661012, -127434.51, 19105.176, 0.00000018947561, 10.000826, 9.998045 
4.9500567e+2, 2.9504663e+2, 86786.63, -193074.9, 33453.43, -0.005981, 0.19257422, 90729.95, 139285.3, 0.000005650319, 10.001777, 9.998118 
4.9499997e+2, 3.0504444e+2, 108665.88, -161129.53, -32208.045, -0.2711927, 0.16655977, 112457.58, 112457.58, 0.00003451672, 10.001619, 9.998093 
4.950014e+2, 3.150437e+2, -6845.438, -58171.492, 8438.883, 0.14786786, 0.24726835, -5493.549, -5493.549, 0.00010176044, 10.0000725, 9.99954 
5.050522e+2, 1.2505583e+2, -1908235.6, -1828886.8, -140872.52, -0.060391154, -0.063247025, -1722208.5, -7753.1147, 0.000066640154, 9.998721, 9.99978 
5.0505286e+2, 1.3505681e+2, -1437522.3, -1532259.8, 52798.69, 0.24951467, -0.018703464, -1413957.9, 202490.67, 0.0000195532, 10.001164, 10.000023 
5.0504637e+2, 1.4505726e+2, -1338871.5, -1533477.1, 73210.625, -0.320047, 0.08086893, -1314405.6, 204039.8, 0.0000028130235, 10.001631, 9.999077 
5.0504774e+2, 1.5505664e+2, -1404534.5, -1517684.4, 16203.086, 0.08683793, 0.06780216, -1402260.0, 18191.207, 0.00000011765629, 10.00053, 9.999047 
5.0504494e+2, 1.6505572e+2, -1346193.4, -1460994.0, -5151.6035, 0.16279608, 0.08676525, -1345962.6, -23501.725, 0.000000000026416515, 10.000337, 9.998865 
5.050382e+2, 1.7505422e+2, -1155058.0, -1317430.6, -20968.04, -0.13192898, 0.016890872, -1152394.0, 72083.12, 0.0, 10.000974, 9.998869 
5.050352e+2, 1.8505344e+2, -999438.9, -1092039.3, 67744.26, -0.14633875, 0.012327709, -963684.25, 162799.67, 0.0, 10.000952, 9.999745 
5.0503623e+2, 1.9505307e+2, -1001390.56, -1044846.9, 50772.945, 0.13261282, -0.032938525, -967891.9, 60592.297, 0.0, 10.000272, 9.999727 
5.0503355e+2, 2.0505297e+2, -970691.56, -1016600.3, 14157.658, 0.11784724, 0.008367598, -966676.7, -36191.863, 0.0, 9.99998, 9.999384 
5.050272e+2, 2.1505289e+2, -877373.9, -924822.94, 24920.28, -0.17940891, 0.02814073, -866690.94, -34202.45, 0.0, 9.999964, 9.999352 
5.05024e+2, 2.2505298e+2, -711689.56, -760805.8, 64372.645, -0.1822467, 0.09320416, -667349.6, 67139.27, 0.0, 10.00028, 9.999657 
5.050239e+2, 2.3505305e+2, -540456.1, -625068.56, 35975.54, 0.10915073, 0.098902926, -527228.06, 109259.766, 0.0, 10.00078, 9.999668 
5.0502163e+2, 2.4505274e+2, -467017.78, -554224.7, 43496.926, 0.16236003, 0.11128361, -449031.94, 89458.41, 0.0, 10.000659, 9.999546 
5.0501716e+2, 2.5505167e+2, -472978.47, -507521.53, 9358.198, -0.0008981611, 0.014739483, -470606.16, -30106.342, 0.0, 9.999949, 9.999535 
5.0501424e+2, 2.6505142e+2, -320101.4, -389991.66, -2244.9077, -0.016262546, 0.045538306, -320029.38, 22473.025, 0.0, 10.0003605, 9.999479 
5.0501263e+2, 2.750517e+2, -20931.652, -200967.95, -48316.27, 0.11017324, 0.09192209, -8784.597, 235716.31, 0.00000000061010413, 10.001761, 9.99943 
5.050105e+2, 2.850512e+2, 2528.8354, -337887.66, -550.3031, 0.12636738, 0.1927797, 2529.725, 149038.22, 0.00000027597625, 10.002117, 9.997637 
5.05008e+2, 2.950497e+2, 9511.854, -279430.6, -16141.14, 0.06868916, 0.23751801, 10410.747, 58937.617, 0.0000049916057, 10.001461, 9.997684 
5.050021e+2, 3.0504704e+2, 94648.37, -145160.52, -50909.395, -0.20029314, 0.17683929, 105008.43, 105008.43, 0.000030276777, 10.001433, 9.998288 
5.050027e+2, 3.150461e+2, 198817.48, 12909.263, -118703.62, 0.20389174, 0.21429598, 256631.47, 256631.47, 0.000090633286, 10.001613, 9.999284 
5.1505053e+2, 1.2506177e+2, -1869667.5, -1756104.4, -217248.48, -0.1809265, 0.2754549, -1588339.6, 126069.12, 0.000052165007, 9.998742, 10.00027 
5.150532e+2, 1.3506053e+2, -1415801.4, -1492946.6, 158077.47, 0.12985712, 0.06490448, -1291658.5, 324758.44, 0.000013925394, 10.001186, 10.000282 
5.150494e+2, 1.4506039e+2, -1317129.9, -1483203.0, 10463.321, -0.22898176, 0.0764603, -1316473.3, 201942.75, 0.000001645238, 10.001602, 9.999441 
5.150479e+2, 1.5506057e+2, -1385279.4, -1467369.8, -8536.047, 0.020343244, 0.1073562, -1384401.1, 36012.105, 0.00000003629146, 10.000484, 9.999418 
5.150449e+2, 1.6506019e+2, -1374646.9, -1497547.5, 6168.194, 0.09430643, 0.17118771, -1374338.0, -51919.707, 0.0, 10.000243, 9.998653 
5.150405e+2, 1.7505886e+2, -1183263.3, -1355828.0, 18816.225, -0.031032903, 0.13409053, -1181235.4, 43199.465, 0.0, 10.000897, 9.998635 
5.150372e+2, 1.8505782e+2, -1017185.5, -1106925.0, 27532.045, -0.07877682, 0.11849924, -1009412.06, 117032.37, 0.0, 10.000853, 9.999689 
5.150352e+2, 1.9505678e+2, -1015621.1, -1058694.6, 41412.348, -0.032198016, 0.0098100975, -990480.1, 37969.766, 0.0, 10.000193, 9.999671 
5.1503235e+2, 2.0505692e+2, -952475.1, -939000.9, -862.1835, -0.027888717, 0.046212748, -938945.94, -8499.159, 0.0, 9.999809, 10.0 
5.1502854e+2, 2.1505794e+2, -855349.9, -841927.1, 38686.258, -0.0677687, 0.10996631, -809374.44, 23063.402, 0.0, 9.999798, 10.000002 
5.1502585e+2, 2.2505781e+2, -751760.0, -812951.3, 66717.49, -0.0487322, 0.13548952, -708957.3, 25481.754, 0.0, 10.000137, 9.999374 
5.150241e+2, 2.3505639e+2, -580735.75, -679398.0, 69999.88, 0.016618473, 0.019322138, -544430.8, 92021.62, 0.0, 10.000645, 9.999367 
5.150217e+2, 2.4505554e+2, -516246.9, -631101.3, 2560.1606, 0.072043136, 0.019924082, -516189.88, 22270.523, 0.0, 10.000553, 9.999065 
5.150187e+2, 2.55055e+2, -526974.9, -588628.6, -225.23573, 0.11752329, 0.02257022, -526974.0, -86508.11, 0.0, 9.999808, 9.999047 
5.150156e+2, 2.650543e+2, -390993.3, -513374.63, 36644.043, 0.054998435, 0.071235426, -380860.2, -38385.496, 0.0, 10.000265, 9.998677 
5.1501244e+2, 2.7505293e+2, -89903.664, -324325.03, 26127.316, -0.119410805, 0.036873206, -87026.96, 157464.14, 0.0000000018853024, 10.001669, 9.998633 
5.1501095e+2, 2.850519e+2, 31222.48, -268901.0, -40179.582, -0.08033185, 0.10346097, 36508.496, 183011.95, 0.00000034894228, 10.002082, 9.998123 
5.15011e+2, 2.9505116e+2, 26781.105, -223354.97, -17881.643, 0.17712268, 0.16692592, 28052.955, 76565.875, 0.000004315403, 10.0013685, 9.998113 
5.15005e+2, 3.0504894e+2, 80485.63, -158076.23, -49253.926, -0.087493755, 0.13697922, 90254.65, 90254.65, 0.000026122347, 10.001384, 9.99822 
5.150027e+2, 3.150457e+2, 130654.555, -97499.4, -88338.484, -0.022107454, -0.042679828, 160859.4, 160859.4, 0.000081293096, 10.001498, 9.998578 
5.250508e+2, 1.2506515e+2, -1625350.3, -1625969.8, -163627.19, -0.09000178, 0.3056039, -1462032.5, 252345.23, 0.000041919076, 10.000362, 10.000378 
5.250531e+2, 1.3506408e+2, -1582731.4, -1584691.1, 176295.4, 0.06647404, 0.12449476, -1407413.1, 208970.45, 0.000010470756, 10.000093, 10.0001745 
5.2505195e+2, 1.4506368e+2, -1561908.4, -1597844.6, -7416.2197, -0.039485138, 0.113178685, -1560438.0, -42052.965, 0.0000009776196, 9.999906, 9.999471 
5.2504814e+2, 1.5506335e+2, -1414045.4, -1475263.3, -84459.59, 0.017922288, 0.083921015, -1354819.4, 65568.63, 0.000000005050013, 10.000254, 9.999472 
5.250447e+2, 1.6506311e+2, -1344083.0, -1456239.6, -9340.006, 0.04589396, 0.1501447, -1343310.5, -20919.086, 0.0, 10.000338, 9.9988985 
5.2504164e+2, 1.7506264e+2, -1270043.5, -1371528.5, 2768.0928, 0.037628774, 0.17805226, -1269968.1, -45568.88, 0.0, 10.0001745, 9.998885 
5.2503824e+2, 1.8506193e+2, -1153148.4, -1174469.8, 28796.875, -0.0018626285, 0.18587285, -1133102.3, -6696.6895, 0.0, 9.999935, 9.999674 
5.2503467e+2, 1.9506074e+2, -1120506.3, -1108114.8, 12066.163, -0.06215383, 0.06729561, -1100746.6, -72333.73, 0.0, 9.999494, 9.999668 
5.2503175e+2, 2.0506056e+2, -1002115.1, -961045.3, 6513.199, -0.043585934, 0.07199635, -960037.1, -29625.219, 0.0, 9.999449, 10.000025 
5.250294e+2, 2.150611e+2, -861069.06, -844644.94, -26189.348, 0.050377302, 0.08621455, -825410.3, 6995.383, 0.0, 9.999747, 10.000011 
5.250271e+2, 2.2506092e+2, -785045.94, -822032.94, 22829.525, 0.079611674, 0.10315965, -774159.2, -39752.523, 0.0, 9.999903, 9.999409 
5.250246e+2, 2.3505974e+2, -680703.6, -727240.9, 17465.617, 0.04647893, 0.010667113, -674878.0, -38460.098, 0.0, 9.99996, 9.999366 
5.250222e+2, 2.4505876e+2, -517690.9, -677446.3, -6796.847, 0.068856835, 0.01727226, -517402.25, 21025.742, 0.0, 10.000734, 9.998668 
5.250199e+2, 2.5505784e+2, -211472.28, -479969.9, -33208.723, 0.15246223, 0.019584544, -207425.9, 233012.69, 0.0, 10.002169, 9.998659 
5.2501684e+2, 2.650569e+2, -160437.14, -444399.78, 37426.777, 0.075821675, 0.08913262, -155587.06, 186863.06, 0.0, 10.002035, 9.998288 
5.250132e+2, 2.7505574e+2, -307616.84, -460865.2, 25689.854, -0.13626742, 0.10418952, -303424.97, -58958.953, 0.00000000009174081, 10.000345, 9.998308 
5.250118e+2, 2.850545e+2, -242364.13, -351808.2, 19156.482, -0.089174554, 0.1430273, -239107.97, -92628.08, 0.00000033351301, 9.999992, 9.998557 
5.250123e+2, 2.950531e+2, -8086.713, -189126.75, 3809.0706, 0.21356681, 0.10138645, -8006.6055, 40486.703, 0.0000041082662, 10.00091, 9.998564 
5.2500725e+2, 3.050516e+2, 164907.17, -109662.51, 28600.496, -0.009902836, 0.11379073, 167854.7, 167854.7, 0.000024723933, 10.001917, 9.998311 
5.2500576e+2, 3.1504843e+2, 273803.72, -13302.6045, -100572.586, 0.09778229, -0.061057124, 305528.5, 305528.5, 0.00007789345, 10.002406, 9.9987335 
5.3505176e+2, 1.2506595e+2, -1627620.3, -1642058.6, -228188.38, -0.12361515, 0.02718185, -1406536.9, 307826.06, 0.000035694404, 10.00042, 10.000237 
5.3505206e+2, 1.3506757e+2, -1625452.9, -1663447.5, 171678.38, -0.07576804, 0.16849107, -1471723.9, 144623.81, 0.000008273398, 10.000052, 9.99966 
5.350535e+2, 1.4506724e+2, -1592956.1, -1644674.8, -11567.404, 0.080063455, 0.2057446, -1590486.9, -72135.26, 0.00000061502607, 9.999829, 9.999181 
5.3504795e+2, 1.5506503e+2, -1442077.0, -1524686.5, -55652.72, -0.065673366, 0.012833584, -1414075.9, 6298.357, 0.00000000036285042, 10.0002165, 9.999147 
5.350437e+2, 1.6506453e+2, -1306009.6, -1364742.6, -33262.996, -0.1175396, 0.03450879, -1291004.8, 31375.213, 0.0, 10.000281, 9.999556 
5.350412e+2, 1.7506552e+2, -1231211.5, -1281659.0, 12162.018, -0.05720034, 0.14490737, -1228432.6, -4061.5417, 0.0, 10.000131, 9.999528 
5.3503805e+2, 1.8506573e+2, -1168118.6, -1184566.4, -1932.4955, -0.05255066, 0.21479078, -1167894.6, -41526.793, 0.0, 9.999845, 9.999645 
5.350341e+2, 1.9506487e+2, -1140774.1, -1127708.4, 11037.943, -0.09528681, 0.12903114, -1121414.9, -93041.11, 0.0, 9.99939, 9.999587 
5.3503126e+2, 2.0506391e+2, -1063619.0, -1045747.9, 4003.957, -0.06840978, 0.08462532, -1044891.8, -114511.58, 0.0, 9.999273, 9.999522 
5.3502935e+2, 2.1506262e+2, -921784.1, -930515.2, -1444.3112, 0.035624307, -0.0323249, -921551.4, -89161.71, 0.0, 9.999577, 9.9995 
5.3502727e+2, 2.2506246e+2, -790137.06, -800155.8, 11037.527, 0.0774112, -0.0004515225, -783025.4, -48635.125, 0.0, 9.999754, 9.999634 
5.3502494e+2, 2.3506312e+2, -687723.56, -701214.75, 35833.207, 0.056209873, 0.065608636, -658006.56, -21621.936, 0.0, 9.999783, 9.999628 
5.3502285e+2, 2.4506232e+2, -561155.6, -736394.44, 33971.26, 0.025579844, 0.09388153, -554800.56, -16406.6, 0.0, 10.000608, 9.998322 
5.350206e+2, 2.5505984e+2, -254299.34, -541551.6, 37868.355, -0.033323776, -0.022227, -249391.05, 191029.17, 0.0, 10.002051, 9.998292 
5.350176e+2, 2.650592e+2, -165754.89, -436399.0, -42221.582, -0.079058126, 0.0871784, -159321.11, 183108.73, 0.0, 10.001953, 9.9983835 
5.350142e+2, 2.7505994e+2, -316749.66, -458095.25, -20490.068, -0.10300144, 0.28790447, -313839.25, -69412.14, 0.0, 10.000239, 9.998388 
5.350125e+2, 2.850587e+2, -217220.06, -287802.72, 41861.523, -0.051476523, 0.2977897, -197758.63, -51318.383, 0.00000019037492, 9.9999485, 9.999015 
5.350119e+2, 2.9505542e+2, 7191.7285, -135976.81, 64112.92, 0.028503988, 0.02529405, 31705.193, 80175.125, 0.0000040138116, 10.000815, 9.998977 
5.350085e+2, 3.050548e+2, 173835.61, -90359.695, 42893.867, -0.110423826, 0.10194222, 180625.23, 180625.23, 0.000024880646, 10.001907, 9.998446 
5.350104e+2, 3.1505415e+2, 340590.06, 114814.69, -63042.063, 0.23908184, 0.15740669, 357000.22, 357000.22, 0.00007745561, 10.00243, 9.999608 
5.4505295e+2, 1.2506832e+2, -1505539.8, -1629259.0, -179996.38, -0.08847014, -0.09410191, -1377069.9, 337265.38, 0.00003031358, 10.001445, 9.99987 
5.450506e+2, 1.3507047e+2, -1743413.9, -1763644.8, 98339.06, -0.18019599, 0.1491861, -1654671.4, -38353.73, 0.000006366235, 9.999435, 9.999276 
5.450541e+2, 1.4507028e+2, -1736832.4, -1692312.1, 60458.535, 0.22343093, 0.21075225, -1650145.9, -131824.1, 0.00000037085837, 9.998747, 9.999385 
5.4504806e+2, 1.5506852e+2, -1442203.5, -1497695.9, 19738.857, -0.062155746, 0.0416178, -1435898.6, -15558.48, 0.00000000007720086, 10.000094, 9.999396 
5.450436e+2, 1.6506808e+2, -1294649.9, -1343348.1, 27362.412, -0.15200627, 0.050371606, -1282371.4, 39973.65, 0.0, 10.000323, 9.999665 
5.450413e+2, 1.7506878e+2, -1333455.0, -1315472.3, -3188.9517, -0.016155472, 0.12438462, -1314923.5, -90585.56, 0.0, 9.999396, 9.999637 
5.450384e+2, 1.8506885e+2, -1226248.8, -1227159.4, 21176.273, 0.027709221, 0.1795734, -1205522.9, -79186.73, 0.0, 9.99949, 9.999536 
5.450348e+2, 1.9506803e+2, -967706.2, -1052195.1, 672.91, -0.012927308, 0.10785791, -967700.8, 60641.203, 0.0, 10.000598, 9.999525 
5.450319e+2, 2.0506692e+2, -804255.7, -947492.8, 26417.76, -0.0086797355, 0.0626998, -799538.7, 130811.11, 0.0, 10.0011635, 9.999296 
5.4502976e+2, 2.1506521e+2, -723156.25, -855027.94, 15361.376, 0.055632185, -0.072675295, -721390.5, 110972.02, 0.0, 10.0010395, 9.999312 
5.450278e+2, 2.2506478e+2, -630318.1, -798020.44, 34476.074, 0.092871375, -0.02433982, -623507.2, 110859.836, 0.0, 10.001166, 9.99897 
5.4502606e+2, 2.3506531e+2, -482309.0, -680401.56, -40998.7, 0.10487428, 0.09542748, -474158.9, 162207.63, 0.0, 10.001526, 9.998938 
5.45024e+2, 2.4506457e+2, -466374.88, -655308.8, -24594.455, 0.06559223, 0.15000778, -463225.78, 75150.336, 0.0, 10.001103, 9.998641 
5.450215e+2, 2.550624e+2, -543447.1, -645692.8, -4890.0776, -0.030598648, 0.03293554, -543213.8, -102815.89, 0.0, 9.999914, 9.998609 
5.450188e+2, 2.6506174e+2, -419501.75, -531576.06, -28386.299, -0.06236997, 0.11263894, -412722.16, -70316.54, 0.0, 10.0001, 9.998618 
5.4501605e+2, 2.750621e+2, -90403.81, -319969.03, -28594.613, -0.006357382, 0.24961543, -86895.68, 157508.03, 0.0, 10.001673, 9.998645 
5.450141e+2, 2.8506085e+2, 21803.453, -175522.55, 40716.777, 0.038266934, 0.24573508, 29874.908, 176291.14, 0.00000011177434, 10.00161, 9.998989 
5.450125e+2, 2.9505798e+2, -118979.76, -192188.1, -1320.4364, 0.0562322, 0.017298946, -118955.945, -70513.18, 0.0000045059896, 9.999958, 9.998992 
5.4501003e+2, 3.0505753e+2, -42072.47, -173413.4, 62743.625, -0.059397206, 0.10021363, -16916.88, -16916.88, 0.000026381855, 10.000335, 9.99862 
5.450132e+2, 3.150574e+2, 318219.03, 172781.39, -126747.1, 0.31118393, 0.1840967, 391626.38, 391626.38, 0.00007890932, 10.002007, 10.000184 
5.550533e+2, 1.2507258e+2, -1537909.4, -1686023.5, -193035.61, -0.265716, -0.012748447, -1405212.5, 309078.97, 0.000026661766, 10.0014105, 9.999491 
5.550483e+2, 1.3507283e+2, -1770387.9, -1817809.1, 26421.625, -0.3883788, 0.07706285, -1758597.8, -142304.55, 0.0000052899522, 9.999423, 9.998918 
5.550534e+2, 1.450727e+2, -1689954.1, -1578151.4, 87889.6, 0.243233, 0.12203101, -1529891.5, -11594.931, 0.00000021782215, 9.998687, 10.000191 
5.5504805e+2, 1.5507376e+2, -1395818.8, -1388673.6, 88799.3, -0.10951687, 0.16183591, -1303375.0, 116911.12, 0.00000000000011946363, 10.000043, 10.000172 
5.550437e+2, 1.6507377e+2, -1334136.4, -1416531.8, -23292.385, -0.20109715, 0.20058013, -1328007.6, -5721.305, 0.0, 10.000282, 9.999184 
5.550414e+2, 1.7507237e+2, -1377277.3, -1394302.4, -24309.78, 0.024528736, 0.1125672, -1360032.8, -135732.05, 0.0, 9.99934, 9.999126 
5.55039e+2, 1.8507127e+2, -1247993.3, -1247147.8, 48113.867, 0.111838646, 0.08151985, -1199454.8, -73144.51, 0.0, 9.999381, 9.999453 
5.5503637e+2, 1.9507024e+2, -990333.5, -1076388.4, 58219.742, 0.04925313, -0.00070386875, -960966.9, 67350.945, 0.0, 10.000493, 9.999417 
5.5503345e+2, 2.0506956e+2, -819771.06, -940766.0, 7667.784, -0.0017561791, -0.004410205, -819287.06, 111034.414, 0.0, 10.001003, 9.999415 
5.550303e+2, 2.1506886e+2, -742870.1, -854606.44, 26252.014, -0.031273186, -0.048695628, -737009.7, 95314.836, 0.0, 10.000858, 9.999404 
5.5502826e+2, 2.2506784e+2, -770898.1, -1047520.8, 33837.004, -0.00683414, 0.016676448, -766819.25, -32481.148, 0.0, 10.000986, 9.997346 
5.550274e+2, 2.3506622e+2, -623713.25, -926505.44, -11368.89, 0.056467477, 0.087653175, -623287.0, 13077.201, 0.0, 10.001324, 9.997344 
5.5502534e+2, 2.4506557e+2, -418905.53, -526611.44, -81396.49, 0.062608995, 0.18066359, -375159.66, 163214.69, 0.0, 10.000965, 9.999599 
5.550221e+2, 2.5506553e+2, -493812.13, -513178.9, -30284.664, 0.0073091686, 0.18145199, -471700.4, -31328.475, 0.0, 9.99978, 9.999589 
5.5501974e+2, 2.650645e+2, -404717.1, -480856.56, 16865.15, -0.009019051, 0.15556183, -401148.66, -58770.457, 0.0, 10.00002, 9.999002 
5.5501825e+2, 2.750621e+2, -83813.336, -282887.53, 46439.45, 0.011254867, -0.018132022, -73513.03, 170884.11, 0.0, 10.001571, 9.998951 
5.550162e+2, 2.850608e+2, -18251.777, -247948.17, -37758.887, 0.06291888, -0.01565804, -12203.9795, 134205.22, 0.00000024371042, 10.001559, 9.998521 
5.550134e+2, 2.9506055e+2, -159492.84, -264896.4, -41651.473, 0.11366996, 0.06280883, -145020.8, -96606.34, 0.0000058589785, 9.999896, 9.998531 
5.550111e+2, 3.050596e+2, -31096.49, -133820.83, 120335.25, -0.0149239125, 0.10460827, 48379.582, 48379.582, 0.000029984647, 10.000275, 9.998915 
5.5501324e+2, 3.1505796e+2, 314890.75, 190512.13, -45960.777, 0.04204942, 0.0047563454, 330031.28, 330031.28, 0.00008416486, 10.001891, 10.000366 
5.65055e+2, 1.2507607e+2, -1703210.0, -1788321.0, -75147.2, -0.16835153, 0.03530658, -1659405.4, 54851.582, 0.000022362967, 10.000365, 9.999277 
5.6504786e+2, 1.3507532e+2, -1554854.9, -1713082.8, -35266.33, -0.43715048, 0.022739308, -1547350.5, 68916.875, 0.000004259607, 10.000906, 9.9989 
5.6505287e+2, 1.4507501e+2, -1463398.1, -1444520.1, 80415.53, 0.25806755, 0.038489178, -1372991.5, 145279.98, 0.00000013010742, 10.000108, 10.00044 
5.6504774e+2, 1.5507703e+2, -1607871.0, -1457615.4, 15585.899, -0.05162897, 0.14695555, -1456015.6, -35764.594, 0.0, 9.998435, 10.000482 
5.6504375e+2, 1.6507727e+2, -1572320.3, -1532288.3, -31068.89, -0.13674226, 0.19425541, -1515346.0, -193097.4, 0.0, 9.998637, 9.999189 
5.650418e+2, 1.7507534e+2, -1168243.1, -1288509.5, -22888.99, 0.0714163, 0.047437966, -1164034.3, 60233.906, 0.0, 10.000744, 9.999172 
5.650395e+2, 1.8507418e+2, -1006712.4, -1141920.0, 69330.836, 0.1463195, 0.01124128, -977481.06, 148797.7, 0.0, 10.001096, 9.999334 
5.650366e+2, 1.9507356e+2, -1129133.4, -1151127.3, 52093.75, 0.074105136, -0.020573825, -1086888.5, -58605.684, 0.0, 9.999589, 9.999322 
5.65034e+2, 2.05073e+2, -1041965.0, -1079148.5, 50191.36, 0.029740574, 0.008240651, -1007032.6, -76745.75, 0.0, 9.999619, 9.999128 
5.650318e+2, 2.1507229e+2, -729032.2, -876419.2, 10468.103, 0.0371069, -0.010279352, -728292.44, 104000.766, 0.0, 10.001085, 9.999139 
5.6502986e+2, 2.2507118e+2, -676247.6, -978560.7, 75187.04, 0.036856845, 0.048771556, -658580.6, 75726.91, 0.0, 10.001542, 9.997549 
5.6502813e+2, 2.3506935e+2, -660435.7, -920265.6, 137611.97, 0.03128973, 0.07752565, -601102.3, 35230.35, 0.0, 10.000973, 9.997553 
5.6502604e+2, 2.4506861e+2, -453618.63, -587275.8, 104780.44, 0.0463251, 0.17209692, -396169.3, 142173.88, 0.0, 10.000945, 9.999171 
5.650234e+2, 2.5506857e+2, -270134.63, -454308.9, 16368.336, 0.085529216, 0.21739253, -268691.22, 171651.53, 0.0, 10.001543, 9.99913 
5.650212e+2, 2.6506704e+2, -202720.5, -388414.1, 51230.313, 0.08126916, 0.16538209, -189524.52, 152829.22, 0.0, 10.001423, 9.998961 
5.6501955e+2, 2.7506375e+2, -228276.27, -351538.78, 22301.52, 0.044124138, -0.096426055, -224365.4, 20013.117, 0.0, 10.000582, 9.998948 
5.650175e+2, 2.8506225e+2, -155696.19, -344852.88, -53065.836, 0.08446336, -0.10174409, -141826.17, 4565.2246, 0.00000046127252, 10.000719, 9.998268 
5.6501496e+2, 2.950625e+2, 102354.02, -171453.67, -67590.81, 0.19123957, 0.05119146, 118130.17, 166522.44, 0.000007820285, 10.001816, 9.998256 
5.650133e+2, 3.0506128e+2, 202029.84, -77403.42, 137761.95, 0.10085499, 0.10478333, 258525.06, 258525.06, 0.00003595913, 10.002107, 9.998426 
5.6501377e+2, 3.1505895e+2, 180886.81, 73557.31, -155031.38, -0.038133565, -0.017602418, 291278.84, 291278.84, 0.000094486146, 10.001195, 9.999898 
5.750575e+2, 1.2507845e+2, -1706223.9, -1778827.6, 48565.23, -0.026583606, 0.019742116, -1681892.4, 32342.223, 0.000015098279, 10.000309, 9.999359 
5.7504857e+2, 1.3507777e+2, -1543707.9, -1681471.4, -12841.349, -0.49106368, -0.014350108, -1542521.1, 73720.36, 0.0000026568694, 10.000867, 9.999134 
5.7505196e+2, 1.4507714e+2, -1481398.6, -1467877.3, -7785.8184, 0.11884203, -0.037809692, -1464326.5, 53920.926, 0.000000050157187, 10.000053, 10.000304 
5.750468e+2, 1.550783e+2, -1625865.4, -1485162.3, -31221.805, -0.025153998, 0.0047820867, -1478545.4, -58310.5, 0.0, 9.998395, 10.000316 
5.7504314e+2, 1.6507858e+2, -1538478.8, -1446523.1, 30006.488, -0.09572644, 0.03186292, -1437597.9, -115366.28, 0.0, 9.998567, 9.999808 
5.7504207e+2, 1.7507766e+2, -1136205.8, -1208439.3, 70010.67, -0.018092006, -0.07506348, -1093544.9, 130695.54, 0.0, 10.00068, 9.999754 
5.7503945e+2, 1.8507758e+2, -1026958.1, -1158629.9, -958.679, -0.004613813, -0.028233506, -1026951.2, 99289.91, 0.0, 10.000992, 9.999269 
5.7503504e+2, 1.9507797e+2, -1152795.1, -1169155.0, 10827.149, -0.079606965, 0.049690396, -1147405.3, -119168.03, 0.0, 9.999459, 9.99926 
5.750332e+2, 2.0507737e+2, -1113738.4, -1186916.6, 89063.06, -0.03680155, 0.108522564, -1054041.5, -123795.984, 0.0, 9.999439, 9.998475 
5.75034e+2, 2.1507558e+2, -804052.8, -985552.9, 79818.445, 0.11896221, 0.049615286, -773945.25, 58322.465, 0.0, 10.000885, 9.9984865 
5.7503223e+2, 2.2507483e+2, -555343.8, -688812.0, 38747.88, 0.089172944, 0.07277493, -544910.3, 189364.89, 0.0, 10.0013685, 9.999624 
5.750279e+2, 2.3507473e+2, -541601.9, -633598.06, 132533.98, -0.12403039, 0.06611742, -447310.72, 188960.86, 0.0, 10.000797, 9.999607 
5.7502556e+2, 2.4507369e+2, -601291.94, -874126.06, 111418.04, -0.12637265, 0.12636943, -561573.9, -23291.074, 0.0, 10.000845, 9.997257 
5.750251e+2, 2.5507143e+2, -422664.7, -741210.75, 56409.39, 0.063377775, 0.14030322, -412970.5, 27340.975, 0.0, 10.001404, 9.997234 
5.7502306e+2, 2.6506928e+2, -237515.4, -449677.8, 4688.9663, 0.08412597, 0.13918021, -237411.83, 104920.8, 0.0, 10.001363, 9.998576 
5.750194e+2, 2.7506688e+2, -261687.42, -409559.66, 4687.4565, -0.06287, 0.0064041493, -261538.98, -17189.541, 0.0, 10.000512, 9.998593 
5.750173e+2, 2.850651e+2, -158311.84, -334285.34, -27320.97, -0.04414397, -0.012898596, -154167.69, -7804.1167, 0.0000006054728, 10.000655, 9.998371 
5.750165e+2, 2.9506382e+2, 90287.48, -172611.89, -5284.7314, 0.12015793, -0.02504913, 90393.664, 138770.5, 0.000009307056, 10.0017185, 9.998294 
5.750163e+2, 3.0506262e+2, 106060.73, -263815.63, 97152.34, 0.15606584, 0.09691674, 130026.13, 130026.13, 0.000040671366, 10.002057, 9.997173 
5.750143e+2, 3.1506e+2, 81372.61, -112307.69, -134198.16, -0.19303264, 0.0714616, 150023.11, 150023.11, 0.000103750725, 10.001103, 9.9986725 
5.850583e+2, 1.2508102e+2, -1810514.8, -1786485.9, 187855.98, 0.08296874, 0.040379338, -1610260.5, 103950.46, 0.000008007214, 9.999374, 9.999776 
5.850494e+2, 1.3508072e+2, -1709364.6, -1697656.0, -17980.385, -0.4094911, -0.009343393, -1684600.9, -68390.08, 0.0000012151539, 9.999444, 9.999717 
5.8505106e+2, 1.4508004e+2, -1590075.8, -1557998.8, 3006.4666, 0.06219226, -0.04459328, -1557719.4, -39503.16, 0.000000012980553, 9.999507, 9.999921 
5.8504647e+2, 1.5508035e+2, -1400884.5, -1412994.5, -74434.875, 0.029704733, -0.057173833, -1332258.8, 87955.37, 0.0, 10.000121, 9.999949 
5.850431e+2, 1.6508064e+2, -1304639.0, -1312616.6, 43853.81, -0.020784978, -0.021447023, -1264593.0, 57618.434, 0.0, 10.000073, 10.000007 
5.85042e+2, 1.750807e+2, -1310804.1, -1267049.4, 26044.6, -0.014083153, -0.048473954, -1254912.9, -30702.584, 0.0, 9.999366, 9.999988 
5.850395e+2, 1.8508087e+2, -1216765.5, -1255388.5, -58259.566, -0.0204367, 0.012384994, -1174700.3, -48491.395, 0.0, 9.999702, 9.999235 
5.850354e+2, 1.9508071e+2, -931850.9, -1071279.1, -75002.31, -0.056445777, 0.04356136, -899166.75, 129044.04, 0.0, 10.000996, 9.999207 
5.850337e+2, 2.0508012e+2, -853380.9, -1060297.1, 75729.94, -0.01238068, 0.104183964, -828625.9, 101593.97, 0.0, 10.001215, 9.9984865 
5.8503455e+2, 2.1507886e+2, -874109.75, -1021252.44, 88623.84, 0.11629465, 0.093334764, -832498.94, -260.81348, 0.0, 10.000399, 9.998481 
5.8503306e+2, 2.2507833e+2, -670507.75, -694804.7, 31521.473, 0.096892506, 0.118268065, -648874.75, 85367.516, 0.0, 10.000372, 10.000067 
5.850293e+2, 2.350782e+2, -467359.66, -554105.75, -30996.611, -0.07079684, 0.06865599, -457422.2, 178813.61, 0.0, 10.001112, 10.0000105 
5.850272e+2, 2.450768e+2, -536098.2, -878426.7, -12538.009, -0.071937464, 0.08992654, -535639.56, 2609.5518, 0.0, 10.001448, 9.99693 
5.850267e+2, 2.5507393e+2, -427763.03, -776227.75, 19292.855, 0.08441355, 0.070082195, -426698.13, 13586.016, 0.0, 10.001518, 9.996925 
5.8502465e+2, 2.650717e+2, -244297.06, -491335.1, 33912.74, 0.10906765, 0.09517549, -239726.17, 102580.945, 0.0, 10.0015, 9.998219 
5.850212e+2, 2.7506983e+2, -150906.28, -392508.78, 6062.311, 0.02073915, 0.04920764, -150754.25, 93566.86, 0.0, 10.001456, 9.998245 
5.850188e+2, 2.8506798e+2, -43800.758, -307684.44, 30421.107, 0.0024959776, 0.05106447, -40339.152, 105997.8, 0.00000055145284, 10.001569, 9.998106 
5.8501756e+2, 2.9506588e+2, 64630.42, -214399.53, -9985.155, 0.06737851, -0.010951652, 64987.285, 113344.5, 0.000008783807, 10.001667, 9.998028 
5.850182e+2, 3.0506423e+2, -26680.979, -334300.72, 106105.02, 0.19764382, 0.07997531, 6366.7207, 6366.7207, 0.000039667964, 10.001173, 9.997108 
5.850157e+2, 3.1506193e+2, -80955.19, -172413.34, -64506.785, -0.08496841, 0.085705146, -47612.94, -47612.94, 0.00010388018, 9.999917, 9.9988165 
5.950571e+2, 1.2508367e+2, -1739235.9, -1634208.3, 216681.44, -0.057603635, 0.100650504, -1463767.9, 250418.98, 0.0000033727015, 9.999377, 10.000812 
5.9505e+2, 1.3508414e+2, -1646702.9, -1561921.3, -10107.333, -0.33165374, 0.03207196, -1560733.0, 55442.56, 0.00000044999516, 9.999431, 10.000653 
5.9504974e+2, 1.4508376e+2, -1639489.4, -1648708.9, 3002.5515, -0.07083328, 0.00808036, -1638597.8, -120419.49, 0.000000014541682, 9.999456, 9.999319 
5.9504634e+2, 1.550831e+2, -1453095.9, -1510813.6, -36864.273, -0.038927265, -0.039394606, -1435137.9, -14948.675, 0.0, 10.000073, 9.999304 
5.9504324e+2, 1.650835e+2, -1326981.5, -1338696.6, 1367.1696, -0.050781008, 0.047492858, -1326824.0, -4636.5146, 0.0, 9.999999, 9.999857 
5.950414e+2, 1.7508452e+2, -1329797.6, -1288930.3, 15177.14, -0.049667165, 0.13109642, -1283910.5, -59733.258, 0.0, 9.9993, 9.999866 
5.9503937e+2, 1.8508402e+2, -1233448.9, -1267122.0, -27045.848, -0.03589094, 0.13322692, -1218427.1, -92245.11, 0.0, 9.999603, 9.999203 
5.950371e+2, 1.9508176e+2, -955833.3, -1085532.8, -12713.45, -0.01486794, -0.045575093, -954598.9, 73605.14, 0.0, 10.000848, 9.999178 
5.9503496e+2, 2.0508128e+2, -827792.0, -968227.1, 30512.47, -0.04008835, -0.0071044476, -821449.0, 108760.88, 0.0, 10.001044, 9.999203 
5.9503305e+2, 2.1508218e+2, -851072.0, -930915.94, 73936.836, -0.10383177, 0.12853041, -806967.7, 25235.846, 0.0, 10.000218, 9.9991865 
5.9503204e+2, 2.250818e+2, -776317.4, -883235.5, 43201.754, -0.069151185, 0.19304653, -761043.2, -26835.469, 0.0, 10.000226, 9.99885 
5.9503186e+2, 2.3507984e+2, -579626.1, -745554.9, 12949.097, 0.049013827, 0.081620775, -578621.7, 57603.54, 0.0, 10.000926, 9.998791 
5.9503037e+2, 2.45078e+2, -465400.6, -704561.56, -23870.47, 0.06828686, 0.05628067, -463041.38, 75200.77, 0.0, 10.001326, 9.998186 
5.950276e+2, 2.5507608e+2, -357481.13, -600356.3, 34996.97, -0.008686819, 0.007927432, -352538.8, 87721.875, 0.0, 10.001388, 9.998198 
5.950256e+2, 2.650744e+2, -276219.88, -540770.7, 15649.284, 0.020523949, 0.037668485, -275297.38, 66979.336, 0.0, 10.00143, 9.997915 
5.9502417e+2, 2.750726e+2, -190301.28, -450832.3, 22531.31, 0.14244084, 0.032077942, -188367.08, 55926.293, 0.0, 10.001356, 9.997896 
5.9502155e+2, 2.8507078e+2, -99192.36, -404316.72, 21906.799, 0.087828346, 0.08742527, -97627.555, 48684.11, 0.0000003359344, 10.001495, 9.997475 
5.9501755e+2, 2.9506862e+2, 7509.0, -303293.7, 10312.292, -0.13916002, 0.08356085, 7850.7813, 56185.15, 0.000006914508, 10.00155, 9.997468 
5.950186e+2, 3.0506608e+2, 48459.605, -175569.75, 48761.7, 0.08753612, 0.04958986, 58612.813, 58612.813, 0.000035638073, 10.001146, 9.998217 
5.95017e+2, 3.1506464e+2, 22334.867, 58573.85, -15824.444, -0.026304884, 0.03511717, 64511.145, 64511.145, 0.00009897654, 9.999844, 10.000438 
6.050566e+2, 1.250856e+2, -1732751.3, -1615407.1, 235420.22, -0.02923048, 0.1281183, -1431457.9, 282710.8, 0.0000011596172, 9.999352, 10.000961 
6.0505104e+2, 1.35086e+2, -1697542.4, -1563403.6, -132715.7, -0.13476385, 0.04082598, -1481772.8, 134385.89, 0.00000014603442, 9.999007, 10.0008335 
6.0504854e+2, 1.4508595e+2, -1706024.3, -1665292.5, -52892.48, -0.09841415, 0.0320958, -1628980.5, -110821.94, 0.0000000031309833, 9.998903, 9.999498 
6.050462e+2, 1.5508573e+2, -1531314.4, -1529577.3, -71492.76, -0.013907471, 0.015575286, -1458947.8, -38782.375, 0.0, 9.999437, 9.999501 
6.0504353e+2, 1.6508617e+2, -1338482.4, -1341483.9, 11338.732, -0.008308058, 0.09551309, -1328545.5, -6382.622, 0.0, 9.999882, 9.999914 
6.0504115e+2, 1.750869e+2, -1198372.5, -1219782.5, 11654.008, -0.040500753, 0.1431271, -1193253.0, 30901.5, 0.0, 10.000161, 9.999937 
6.0503936e+2, 1.8508637e+2, -1141511.0, -1217048.8, 37313.19, -0.018613672, 0.13607594, -1126187.9, -28.088371, 0.0, 10.00023, 9.999237 
6.050382e+2, 1.950843e+2, -1058981.0, -1128975.4, 24045.035, 0.055322655, -0.025557257, -1051516.9, -23335.96, 0.0, 10.000128, 9.999224 
6.0503614e+2, 2.0508382e+2, -917241.5, -983769.6, 53436.258, 0.016938597, -0.0023713042, -887561.7, 42624.168, 0.0, 10.000315, 9.999455 
6.050332e+2, 2.1508446e+2, -763666.4, -863744.75, 30387.787, -0.12548809, 0.08441891, -755162.06, 77017.07, 0.0, 10.000708, 9.999422 
6.0503215e+2, 2.2508396e+2, -724522.1, -896693.44, 62466.8, -0.101066515, 0.14674376, -704245.94, 29938.287, 0.0, 10.000767, 9.998481 
6.0503286e+2, 2.3508209e+2, -660233.4, -817239.1, 65390.918, 0.07945631, 0.079135776, -636566.44, -362.952, 0.0, 10.000541, 9.998465 
6.0503185e+2, 2.4508037e+2, -510453.53, -690715.8, 66586.07, 0.11125174, 0.06420365, -488525.2, 49694.527, 0.0, 10.000877, 9.998496 
6.050293e+2, 2.5507852e+2, -279304.53, -530327.9, 25935.41, 0.0056721205, -0.00469709, -276652.94, 163582.6, 0.0, 10.001791, 9.998489 
6.0502744e+2, 2.6507697e+2, -189821.13, -509711.56, -19931.676, 0.03992764, 0.029427234, -188584.0, 153666.11, 0.0, 10.002066, 9.997824 
6.050263e+2, 2.7507532e+2, -145912.66, -441132.56, -30076.13, 0.21298271, 0.05092514, -142879.75, 101387.08, 0.0, 10.001694, 9.997805 
6.0502356e+2, 2.8507355e+2, -82940.55, -394345.28, 49294.14, 0.14143384, 0.11247995, -75323.78, 70961.98, 0.00000016006682, 10.001601, 9.9974985 
6.0501903e+2, 2.950714e+2, 50220.227, -276262.4, 54020.34, -0.15286201, 0.10321054, 58926.355, 107235.24, 0.0000052467194, 10.001814, 9.997533 
6.050199e+2, 3.0506855e+2, 149129.9, -71494.56, 80651.086, 0.092341386, 0.013918843, 175468.27, 175468.27, 0.000031333126, 10.0016165, 9.998703 
6.0501796e+2, 3.1506827e+2, 157588.02, 141636.75, -45892.453, 0.053645987, 0.080749065, 196192.72, 196192.72, 0.00009226463, 10.000688, 10.000621 
6.1505616e+2, 1.2508683e+2, -1768055.8, -1685015.8, 141807.06, -0.08044209, 0.12944639, -1578775.3, 135381.27, 0.000000319301, 9.999343, 10.00048 
6.15052e+2, 1.3508636e+2, -1745629.9, -1661716.8, -134375.73, 0.0285389, 0.023335073, -1562899.9, 53259.836, 0.000000018009526, 9.999006, 10.000159 
6.15047e+2, 1.4508669e+2, -1641720.0, -1535171.3, -58668.984, -0.18488906, 0.04151283, -1509197.9, 8958.782, 0.0, 9.99891, 10.000389 
6.150458e+2, 1.5508817e+2, -1465410.6, -1400045.9, -39733.387, -0.03476584, 0.10353987, -1381280.4, 38863.133, 0.0, 9.999451, 10.00039 
6.1504346e+2, 1.6508865e+2, -1323325.6, -1295118.9, 5350.825, -0.031722084, 0.12531364, -1294137.9, 27999.844, 0.0, 9.999821, 10.000261 
6.150408e+2, 1.7508785e+2, -1185552.6, -1182781.3, 37714.49, -0.124910824, -0.013049019, -1146427.0, 77715.21, 0.0, 10.000108, 10.00022 
6.15039e+2, 1.850879e+2, -1154529.5, -1214488.0, 19837.215, -0.10674485, 0.022199, -1148560.6, -22418.625, 0.0, 10.000104, 9.999311 
6.150383e+2, 1.9508848e+2, -1069402.6, -1129531.5, 38144.016, 0.020553343, 0.11417357, -1050899.3, -22759.135, 0.0, 10.000032, 9.999268 
6.150367e+2, 2.0508784e+2, -953788.1, -1024575.25, 53963.992, 0.022185633, 0.13219938, -924646.25, 5500.2007, 0.0, 10.000166, 9.999246 
6.150345e+2, 2.1508573e+2, -807403.8, -910348.06, 59456.652, -0.08773773, -0.037995692, -780234.5, 51929.793, 0.0, 10.000516, 9.999196 
6.1503285e+2, 2.2508489e+2, -718446.9, -842366.0, 42436.555, -0.13610037, -0.022096738, -705307.5, 28863.828, 0.0, 10.000588, 9.998938 
6.150316e+2, 2.3508504e+2, -655655.94, -763278.44, 73203.016, -0.12503663, 0.06615154, -618613.8, 17556.53, 0.0, 10.000351, 9.998924 
6.1503106e+2, 2.4508393e+2, -570818.3, -788661.5, 83592.26, -0.08259791, 0.11878315, -542438.8, -4256.8745, 0.0, 10.000757, 9.997882 
6.150311e+2, 2.5508127e+2, -343813.0, -635258.75, 74999.99, -0.01983821, 0.02859513, -325645.22, 114563.39, 0.0, 10.00166, 9.997834 
6.1502975e+2, 2.650794e+2, -196521.48, -504073.13, -47953.543, 0.030761998, 0.06409798, -189217.98, 153009.38, 0.0, 10.001981, 9.997902 
6.1502695e+2, 2.7507803e+2, -159288.9, -438208.47, -26207.584, 0.07188524, 0.10159797, -156847.77, 87393.77, 0.0, 10.001563, 9.997885 
6.150242e+2, 2.8507632e+2, -44196.613, -301164.44, 40868.793, 0.017820515, 0.1324491, -37853.324, 108405.44, 0.00000012615395, 10.001541, 9.998165 
6.150213e+2, 2.9507422e+2, 85730.17, -178420.75, 81390.6, -0.15251656, 0.055616062, 108794.51, 157073.92, 0.000004351736, 10.001717, 9.998245 
6.1502165e+2, 3.0507162e+2, 129626.12, -112946.06, 35829.445, 0.06949327, -0.029916715, 134807.67, 134807.67, 0.000027327982, 10.00161, 9.998436 
6.1501735e+2, 3.1507313e+2, 56374.19, -45183.15, 14022.465, -0.15314622, 0.24768685, 58274.766, 58274.766, 0.00008384043, 10.000588, 9.999392 
6.250559e+2, 1.2508819e+2, -1749834.5, -1707985.3, 150014.08, -0.030138718, 0.083920226, -1577443.5, 136697.84, 0.00000004128188, 9.999594, 10.0002165 
6.25053e+2, 1.3508801e+2, -1584468.5, -1617308.9, -86754.69, 0.17624909, 0.03735051, -1512593.8, 103551.69, 0.000000000001578113, 10.000231, 9.999891 
6.250463e+2, 1.4508826e+2, -1431848.1, -1402220.5, 28639.342, -0.20105913, 0.0502834, -1384790.5, 133353.11, 0.0, 10.000216, 10.000673 
6.2504584e+2, 1.5509008e+2, -1350371.5, -1302808.6, -23494.281, 0.0028292532, 0.11434754, -1293160.5, 126964.48, 0.0, 10.000089, 10.000734 
6.250438e+2, 1.6509058e+2, -1303538.8, -1276777.3, 13744.371, 0.023023672, 0.11759441, -1270976.0, 51142.035, 0.0, 9.99995, 10.000305 
6.25041e+2, 1.7508951e+2, -1238761.6, -1195472.6, -17192.342, -0.083851375, -0.053632542, -1189475.5, 34649.844, 0.0, 9.99973, 10.000295 
6.2503916e+2, 1.8508981e+2, -1166528.1, -1221167.4, -5213.9956, -0.08475838, 0.0027340497, -1166035.0, -39912.027, 0.0, 9.999986, 9.99934 
6.250384e+2, 1.9509111e+2, -983720.7, -1081284.9, -14191.981, 0.011492222, 0.16134441, -981698.25, 46416.508, 0.0, 10.000569, 9.999345 
6.250373e+2, 2.0509055e+2, -891916.8, -1003277.8, 24592.256, 0.04351176, 0.18499663, -886727.75, 43392.508, 0.0, 10.000612, 9.999185 
6.2503594e+2, 2.1508785e+2, -865431.75, -938121.0, 14195.349, 0.029890193, -0.037267614, -862757.94, -30615.22, 0.0, 10.000116, 9.999195 
6.250342e+2, 2.2508675e+2, -763357.06, -868626.56, 27038.908, -0.03086712, -0.046363946, -756818.2, -22666.361, 0.0, 10.000297, 9.998904 
6.2503225e+2, 2.3508692e+2, -545315.4, -718718.06, -6378.055, -0.12682568, 0.049491383, -545081.1, 91069.99, 0.0, 10.001133, 9.998867 
6.250318e+2, 2.4508582e+2, -478488.9, -741586.25, 39599.43, -0.10856713, 0.10740852, -472657.94, 65504.926, 0.0, 10.001363, 9.997922 
6.250328e+2, 2.5508326e+2, -426185.94, -667125.3, 47053.445, 0.016795155, 0.023020385, -417322.84, 22866.35, 0.0, 10.001055, 9.997908 
6.250316e+2, 2.6508158e+2, -289279.56, -503423.53, -20314.027, 0.07451119, 0.048898235, -287369.56, 54836.383, 0.0, 10.001133, 9.998318 
6.250285e+2, 2.7508035e+2, -137993.45, -383682.97, -6443.4478, 0.079888836, 0.060133528, -137824.58, 106392.69, 0.0, 10.001507, 9.99829 
6.250257e+2, 2.850789e+2, -64720.965, -294733.34, 80293.414, 0.029276548, 0.09336982, -39465.06, 106766.52, 0.000000116905284, 10.001333, 9.998312 
6.250231e+2, 2.9507717e+2, -65300.938, -244595.81, 43723.156, -0.07909977, 0.04474233, -55206.82, -6957.1772, 0.000004287332, 10.000624, 9.998334 
6.2502295e+2, 3.0507523e+2, -35545.426, -185265.16, 17594.328, 0.11010183, 0.014128137, -33505.617, -33505.617, 0.000025852014, 10.000467, 9.998472 
6.2501824e+2, 3.1507614e+2, 39536.316, -86578.32, -4394.3623, -0.10590975, 0.2269775, 39689.25, 39689.25, 0.00007870898, 10.000635, 9.999069 
6.350551e+2, 1.2508982e+2, -1746695.9, -1713628.4, 3730.7668, -0.15532993, 0.014585351, -1713212.8, 909.2956, 0.000000010756334, 9.9996395, 10.000161 
6.3505346e+2, 1.3509074e+2, -1584363.1, -1619337.1, -61731.797, 0.16844513, 0.07872813, -1537689.4, 78428.27, 0.0, 10.000231, 9.9998865 
6.3504595e+2, 1.4509067e+2, -1449471.9, -1418782.9, 757.09064, -0.29721195, 0.062584974, -1418764.1, 99355.38, 0.0, 10.000137, 10.000593 
6.350459e+2, 1.5509152e+2, -1362666.8, -1325507.5, -8792.382, -0.036190372, 0.043129563, -1323532.0, 96576.92, 0.0, 10.000074, 10.0005865 
6.3504416e+2, 1.6509193e+2, -1335265.5, -1334807.0, -11449.284, 0.02381591, 0.06340589, -1323584.6, -1481.0455, 0.0, 9.999908, 9.99993 
6.350414e+2, 1.7509167e+2, -1267836.6, -1253232.5, -9448.19, -0.05099681, 0.010009882, -1248593.5, -24487.912, 0.0, 9.999704, 9.99992 
6.3503945e+2, 1.8509184e+2, -1173257.0, -1210793.6, 1082.6266, -0.09299842, 0.06474941, -1173225.9, -47120.598, 0.0, 9.999887, 9.999455 
6.35038e+2, 1.9509204e+2, -994982.8, -1077304.5, 20621.979, -0.11586777, 0.10402209, -990105.9, 38000.492, 0.0, 10.000449, 9.999431 
6.350372e+2, 2.050918e+2, -910268.1, -999105.1, -9459.644, -0.054138795, 0.15044002, -909272.0, 20836.447, 0.0, 10.00043, 9.999297 
6.3503695e+2, 2.1509081e+2, -885697.06, -933879.75, 12297.08, 0.08663044, 0.08405234, -882740.06, -50625.426, 0.0, 9.999916, 9.999319 
6.350359e+2, 2.2508955e+2, -827244.75, -957211.0, 44737.086, 0.081074685, 0.07922685, -813334.2, -79208.234, 0.0, 10.000111, 9.998383 
6.350342e+2, 2.350877e+2, -611206.56, -809399.25, 42779.566, -0.070066445, 0.022070004, -602366.94, 33778.91, 0.0, 10.000936, 9.998338 
6.350335e+2, 2.4508609e+2, -455140.38, -660608.3, 15053.456, -0.104817785, 0.02484582, -454043.34, 84118.766, 0.0, 10.001228, 9.998541 
6.350337e+2, 2.550845e+2, -405100.56, -587220.06, 50661.72, -0.028604234, -0.021315122, -391956.22, 48220.965, 0.0, 10.000902, 9.99853 
6.350328e+2, 2.6508343e+2, -250616.08, -397941.28, -22610.205, 0.040637273, -0.006490983, -247224.16, 94961.77, 0.0, 10.001032, 9.999087 
6.350305e+2, 2.7508235e+2, -103242.945, -282237.06, 24737.604, 0.0910195, -0.06251469, -99887.05, 144306.06, 0.0, 10.001386, 9.9990425 
6.3502747e+2, 2.850813e+2, -99008.84, -349738.3, 36715.375, 0.03818517, -0.00827918, -93743.05, 52461.043, 0.0000001448745, 10.001269, 9.997966 
6.350239e+2, 2.9508042e+2, -117443.36, -315377.78, 39449.55, -0.11178109, 0.06852899, -109870.55, -61652.65, 0.000005079309, 10.000485, 9.997908 
6.350231e+2, 3.050795e+2, -21604.797, -167003.69, 17041.008, 0.046402812, 0.16166534, -19634.268, -19634.268, 0.000027855136, 10.000479, 9.998608 
6.350195e+2, 3.1507742e+2, 44267.77, -57925.508, 75967.97, -0.1243687, 0.043406464, 84724.39, 84724.39, 0.00008149468, 10.000538, 9.99932 
6.450547e+2, 1.2509237e+2, -1889455.4, -1766494.6, -45772.4, -0.087479986, 0.033528417, -1751326.9, -37229.05, 0.0000000047013002, 9.998602, 10.000291 
6.4505327e+2, 1.350934e+2, -1786642.9, -1676193.5, -41532.81, 0.22111529, 0.07650441, -1662318.6, -46228.16, 0.0, 9.998708, 10.000207 
6.450458e+2, 1.4509319e+2, -1612004.9, -1514963.9, 72839.77, -0.2610328, 0.03798734, -1475963.6, 42129.477, 0.0, 9.999099, 10.000431 
6.45046e+2, 1.5509376e+2, -1385394.8, -1355296.8, 19595.576, -0.01924581, 0.007122416, -1345638.3, 74447.35, 0.0, 9.9999895, 10.000425 
6.450445e+2, 1.6509414e+2, -1254770.6, -1331616.5, 40145.277, 0.04312591, 0.047159478, -1237624.0, 84457.37, 0.0, 10.000614, 9.999618 
6.4504206e+2, 1.7509407e+2, -1099203.0, -1203892.0, 20425.928, -0.010783584, 0.045521412, -1095358.9, 128723.445, 0.0, 10.001002, 9.999632 
6.450402e+2, 1.8509383e+2, -1014791.94, -1153391.0, 53539.84, -0.051273465, 0.08523239, -996519.0, 129566.875, 0.0, 10.001066, 9.999277 
6.4503884e+2, 1.9509314e+2, -967511.25, -1079921.0, 17107.807, -0.086591, 0.05144376, -964965.25, 63130.07, 0.0, 10.00073, 9.999269 
6.450378e+2, 2.050929e+2, -858805.25, -947800.06, 2110.4883, -0.039475475, 0.093997635, -858755.2, 71341.805, 0.0, 10.000677, 9.999523 
6.4503723e+2, 2.1509276e+2, -741153.75, -842708.1, -2379.133, 0.094245665, 0.09059471, -741098.06, 90996.75, 0.0, 10.000815, 9.999508 
6.4503676e+2, 2.2509173e+2, -707425.5, -907813.0, 106110.266, 0.117106065, 0.09958866, -661680.3, 72424.055, 0.0, 10.000936, 9.998335 
6.450362e+2, 2.3508947e+2, -596161.4, -803090.94, 107635.16, 0.03989052, 0.0032055182, -550326.8, 85801.73, 0.0, 10.001024, 9.998338 
6.4503545e+2, 2.4508809e+2, -476855.63, -627384.8, 95178.1, -0.007098235, 0.008691572, -430779.25, 107363.59, 0.0, 10.00091, 9.998924 
6.4503455e+2, 2.550873e+2, -418348.1, -547496.1, 86344.74, -0.012184083, 0.0047944635, -375101.8, 65048.1, 0.0, 10.000626, 9.998935 
6.450334e+2, 2.650864e+2, -282922.25, -395508.7, 42725.957, 0.028343435, 0.015440943, -268544.16, 73612.06, 0.0, 10.000732, 9.99925 
6.450321e+2, 2.750851e+2, -109592.9, -267698.72, 7241.337, 0.1291849, -0.079697125, -109261.93, 134904.02, 0.000000000000000000046744374, 10.001266, 9.9992075 
6.450294e+2, 2.8508413e+2, -19031.406, -323351.2, 18503.525, 0.08296845, -0.020139977, -17910.467, 128265.875, 0.00000034821963, 10.001863, 9.997861 
6.4502525e+2, 2.9508352e+2, 150245.8, -208037.75, 3810.6438, -0.104689784, 0.09384931, 150286.33, 198474.53, 0.0000068469953, 10.002402, 9.997724 
6.450243e+2, 3.050825e+2, 186227.17, -74325.16, 4031.9604, 0.050453074, 0.1919108, 186289.55, 186289.55, 0.00003364889, 10.001968, 9.998506 
6.450213e+2, 3.1507927e+2, 72308.15, -4614.7134, -6844.4277, 0.020839628, -0.034201648, 72912.41, 72912.41, 0.000093661416, 10.000567, 9.999659 
6.550534e+2, 1.2509565e+2, -1859671.8, -1700597.9, -191670.16, -0.15030122, 0.1180342, -1572617.1, 141453.16, 0.000000001405694, 9.998586, 10.000749 
6.5505195e+2, 1.3509606e+2, -1732463.9, -1568201.9, -28748.422, 0.17673463, 0.027383367, -1563315.9, 52747.46, 0.0, 9.99873, 10.000931 
6.550455e+2, 1.450959e+2, -1643058.8, -1569584.9, 86029.65, -0.24117173, -0.025066776, -1512776.6, 5286.8423, 0.0, 9.999054, 10.000085 
6.550456e+2, 1.5509681e+2, -1416207.3, -1411281.0, 68302.984, -0.091120265, 0.012031964, -1345396.8, 74658.05, 0.0, 9.9999485, 10.000069 
6.550444e+2, 1.6509709e+2, -1275753.3, -1358041.9, 36325.598, -0.067888856, 0.070795335, -1262012.1, 60039.836, 0.0, 10.000539, 9.999469 
6.550424e+2, 1.7509663e+2, -1117927.0, -1231612.6, 50626.918, -0.112759165, 0.044531446, -1098650.3, 125405.836, 0.0, 10.000956, 9.999461 
6.550412e+2, 1.8509589e+2, -1063737.0, -1230897.9, 24824.871, -0.0960836, 0.06415814, -1060128.3, 65936.32, 0.0, 10.000963, 9.998795 
6.550403e+2, 1.9509447e+2, -1014601.06, -1151664.8, 22371.926, -0.04157287, 0.0046509085, -1011041.9, 17039.084, 0.0, 10.000618, 9.99883 
6.550388e+2, 2.0509383e+2, -862461.7, -919877.94, -7847.703, -0.04185196, 0.015212212, -861408.4, 68678.0, 0.0, 10.000524, 9.999793 
6.550365e+2, 2.1509358e+2, -751205.2, -815297.6, 18111.027, -0.090104245, -0.022213545, -746441.5, 85642.945, 0.0, 10.000613, 9.999794 
6.550363e+2, 2.250932e+2, -705632.25, -854539.6, 94918.05, -0.049843676, 0.013933967, -659451.0, 74636.46, 0.0, 10.000728, 9.9987955 
6.550377e+2, 2.3509228e+2, -593241.25, -749847.5, 125585.67, 0.057805836, 0.006291458, -523547.3, 112551.54, 0.0, 10.000828, 9.998795 
6.5503716e+2, 2.4509183e+2, -484404.94, -610306.5, 67198.516, 0.046441857, 0.071855165, -455277.25, 82827.41, 0.0, 10.000771, 9.999105 
6.550347e+2, 2.550915e+2, -427801.84, -530398.6, 92991.484, -0.08760935, 0.09145087, -372897.88, 67210.25, 0.0, 10.000472, 9.999122 
6.550333e+2, 2.6509055e+2, -325824.44, -470063.38, 47418.574, -0.09518612, 0.10781628, -311632.03, 30485.02, 0.0, 10.000663, 9.998775 
6.5503275e+2, 2.7508873e+2, -156319.97, -345972.34, 48372.01, 0.030341834, 0.012666369, -144694.97, 99439.53, 0.0000000002377775, 10.001174, 9.998718 
6.550307e+2, 2.8508756e+2, -22442.377, -304824.88, 24062.35, -0.008267824, 0.06638184, -20406.654, 125740.484, 0.0000008000927, 10.001768, 9.998024 
6.5502685e+2, 2.9508665e+2, 137785.39, -196904.19, 41059.3, -0.22810186, 0.1299335, 142748.88, 190908.11, 0.000010270006, 10.002256, 9.997862 
6.5502584e+2, 3.0508438e+2, 153759.36, -143385.27, -57908.723, -0.030401522, 0.12271909, 164645.98, 164645.98, 0.00004390313, 10.001963, 9.998042 
6.5502304e+2, 3.150811e+2, 88467.086, 47088.016, 6082.6123, 0.050238896, -0.06605385, 89342.69, 89342.69, 0.00011355634, 10.000489, 10.000055 
6.6505235e+2, 1.2509894e+2, -1985013.9, -1745478.3, -134297.63, -0.051092863, 0.15516715, -1685301.1, 28738.568, 0.00000000035571668, 9.997662, 10.000876 
6.6505134e+2, 1.3509917e+2, -1528814.6, -1460923.1, -6221.8765, 0.19158654, 0.028229846, -1460357.6, 155675.17, 0.0, 10.000062, 10.001039 
6.650467e+2, 1.4509903e+2, -1458704.8, -1513785.4, 77260.65, -0.09485412, -0.0123924175, -1404222.6, 113809.61, 0.0, 10.000471, 9.999777 
6.650458e+2, 1.5509962e+2, -1505130.6, -1485702.8, 27016.322, -0.04191147, 0.020362472, -1466707.1, -46679.813, 0.0, 9.999492, 9.999767 
6.650445e+2, 1.6509971e+2, -1420576.9, -1410511.3, 72841.33, -0.045340262, 0.068493135, -1342529.1, -20503.328, 0.0, 9.99947, 9.999624 
6.6504365e+2, 1.7509915e+2, -1211749.0, -1261080.3, 75020.62, -0.037482925, 0.0153333135, -1157443.3, 66586.305, 0.0, 10.000232, 9.99961 
6.650426e+2, 1.8509841e+2, -1126427.8, -1255029.6, 82767.664, -0.016229069, 0.024432305, -1085918.9, 40118.145, 0.0, 10.000526, 9.998835 
6.6504115e+2, 1.9509707e+2, -1048248.25, -1167691.8, 84232.234, -0.0032130252, -0.027734354, -1004714.2, 23337.807, 0.0, 10.000384, 9.998835 
6.650394e+2, 2.0509629e+2, -875324.4, -971675.9, 96468.586, -0.019727997, -0.011392504, -815671.1, 114388.63, 0.0, 10.0006275, 9.999397 
6.650377e+2, 2.1509571e+2, -698200.7, -834920.6, 39676.844, -0.051290292, -0.040659197, -687520.56, 144543.02, 0.0, 10.001169, 9.999399 
6.6503733e+2, 2.2509532e+2, -632417.6, -794961.44, 90402.81, -0.023103679, 0.0040170485, -592125.6, 141942.06, 0.0, 10.001143, 9.999007 
6.650383e+2, 2.3509479e+2, -619740.06, -741034.8, 72240.42, 0.053979773, 0.018057454, -586064.7, 50010.23, 0.0, 10.000567, 9.998985 
6.650377e+2, 2.4509455e+2, -519240.78, -606306.8, 42902.977, 0.048895977, 0.08755176, -501652.7, 36425.223, 0.0, 10.000409, 9.999317 
6.650358e+2, 2.550943e+2, -400670.47, -498805.16, 34387.824, -0.029438222, 0.09376462, -389820.13, 50259.773, 0.0, 10.0005455, 9.999315 
6.650344e+2, 2.650934e+2, -322230.34, -500442.44, 46766.555, -0.042456634, 0.11838709, -310703.4, 31385.934, 0.0, 10.000822, 9.99849 
6.6503376e+2, 2.7509168e+2, -161602.27, -373336.34, 29541.383, 0.022511115, 0.061510455, -157557.88, 86549.945, 0.0000000023427176, 10.001264, 9.998475 
6.650321e+2, 2.8509042e+2, -61395.95, -290361.06, 43932.2, -0.012994482, 0.10321266, -53255.94, 92864.89, 0.0000014418595, 10.001342, 9.998338 
6.6502917e+2, 2.9508907e+2, -27456.809, -232590.89, 36290.996, -0.1457252, 0.08951571, -21225.715, 26908.238, 0.000014823799, 10.000935, 9.998253 
6.6502815e+2, 3.050865e+2, 86385.42, -186277.33, -7915.9175, 0.040749017, 0.03359504, 86615.05, 86615.05, 0.000057815294, 10.001541, 9.997951 
6.650253e+2, 3.1508437e+2, 406837.34, 174256.08, 28361.176, 0.13062558, -0.023834264, 410245.78, 410245.78, 0.00014076945, 10.002777, 9.999829 
6.750505e+2, 1.2510233e+2, -2014868.1, -1802338.1, -127701.06, -0.0834003, 0.13675785, -1742471.3, -28466.281, 0.0000000023126079, 9.997649, 10.000489 
6.7505103e+2, 1.3510269e+2, -1566713.4, -1533263.5, 91270.77, 0.12100351, 0.06991199, -1457198.0, 158801.28, 0.0, 10.000047, 10.000546 
6.750486e+2, 1.451026e+2, -1485788.8, -1553616.1, 18385.209, 0.008282007, 0.0740885, -1481125.9, 36873.152, 0.0, 10.000403, 9.999536 
6.750457e+2, 1.5510237e+2, -1517558.3, -1510780.6, 8774.437, -0.038270157, 0.049728792, -1504763.4, -84762.1, 0.0, 9.999494, 9.999592 
6.750444e+2, 1.651022e+2, -1393030.8, -1346407.4, 85193.84, -0.030832862, 0.054221366, -1281393.4, 40607.438, 0.0, 9.9994335, 10.000086 
6.7504543e+2, 1.7510179e+2, -1187350.6, -1195425.6, 118392.17, 0.078225635, -0.031901468, -1072927.1, 151074.0, 0.0, 10.000169, 10.00009 
6.750441e+2, 1.8510146e+2, -1105342.8, -1187676.8, 57119.168, 0.052566163, -0.028234018, -1076101.5, 49901.176, 0.0, 10.000422, 9.9993515 
6.7504066e+2, 1.9510104e+2, -1036485.9, -1104531.8, 93201.39, -0.11973548, -0.038571298, -971291.56, 56716.176, 0.0, 10.000225, 9.999345 
6.750394e+2, 2.0510037e+2, -977318.7, -1148787.4, 101470.8, -0.11023334, 0.02309777, -930212.2, -195.71498, 0.0, 10.000464, 9.998266 
6.7504036e+2, 2.1509917e+2, -802825.56, -1007744.1, 74046.4, 0.06866254, 0.039551362, -778869.75, 53162.086, 0.0, 10.000975, 9.998307 
6.7503965e+2, 2.2509813e+2, -664120.6, -816430.56, 53424.473, 0.068800524, 0.07794474, -647250.06, 86794.21, 0.0, 10.000953, 9.998953 
6.750375e+2, 2.3509695e+2, -652805.75, -761096.7, 68872.8, -0.11140131, 0.03042616, -619343.0, 16713.867, 0.0, 10.000361, 9.998946 
6.7503667e+2, 2.4509633e+2, -530424.0, -589940.2, 36084.027, -0.12503114, 0.053291664, -513410.3, 24651.61, 0.0, 10.000244, 9.999508 
6.75037e+2, 2.550959e+2, -413526.28, -489429.5, 56383.3, 0.0132783605, 0.023168689, -383511.72, 56552.0, 0.0, 10.000387, 9.999457 
6.7503643e+2, 2.6509514e+2, -346546.4, -520543.94, 46518.656, 0.043994095, 0.06230938, -334890.38, 7180.991, 0.0, 10.000697, 9.99841 
6.750349e+2, 2.750939e+2, -182938.45, -392317.4, 63962.16, -0.03607372, 0.06261886, -164945.23, 79141.47, 0.0000000015372758, 10.001153, 9.998402 
6.750334e+2, 2.850927e+2, -28987.492, -211972.42, 14643.493, -0.055842258, 0.08411556, -27823.047, 118274.914, 0.0000017821444, 10.001297, 9.998896 
6.750316e+2, 2.9509106e+2, -2883.172, -153510.61, 44027.48, -0.039321832, -0.012873162, 9041.72, 57151.77, 0.000019076204, 10.000815, 9.998853 
6.750305e+2, 3.0508882e+2, 86907.055, -166795.53, 29703.146, 0.08985543, -0.0770817, 90338.26, 90338.26, 0.000073988194, 10.001471, 9.998114 
6.75027e+2, 3.150891e+2, 338199.94, 65159.465, 131655.58, -0.049297966, 0.09754141, 391339.84, 391339.84, 0.00017626988, 10.002648, 9.999134 
6.8504983e+2, 1.2510502e+2, -1880932.9, -1782943.6, -47374.508, 0.052486327, 0.05351874, -1763785.4, -49811.7, 0.0000000036242784, 9.998731, 10.00012 
6.8504965e+2, 1.3510518e+2, -1789479.9, -1696496.4, 99494.42, 0.062111735, 0.023402743, -1633167.3, -17194.797, 0.0, 9.998779, 10.000028 
6.850492e+2, 1.4510526e+2, -1641256.4, -1630776.6, 44523.8, 0.09287609, 0.07017897, -1591185.5, -73213.766, 0.0, 9.999339, 9.999523 
6.8504643e+2, 1.5510486e+2, -1338842.3, -1430077.8, 18137.844, 0.038639765, 0.03164311, -1335368.6, 84606.47, 0.0, 10.000725, 9.999566 
6.850451e+2, 1.6510448e+2, -1203179.4, -1277293.0, 89804.68, 0.03077714, 0.024972629, -1143086.4, 178890.72, 0.0, 10.000827, 9.999893 
6.8504554e+2, 1.7510381e+2, -1277733.1, -1267441.8, 39980.117, 0.106222704, -0.062577195, -1232277.5, -8296.904, 0.0, 9.99966, 9.999853 
6.850443e+2, 1.8510367e+2, -1188509.4, -1206647.4, 3888.1108, 0.07396864, -0.039064, -1187711.0, -61730.082, 0.0, 9.999748, 9.999545 
6.850414e+2, 1.9510368e+2, -918006.1, -1024796.3, -12628.996, -0.08203109, -0.03058773, -916532.94, 111448.4, 0.0, 10.000927, 9.999551 
6.8504053e+2, 2.0510332e+2, -872892.6, -1079067.9, 39527.51, -0.07017028, 0.04324642, -865574.25, 64412.598, 0.0, 10.00114, 9.99839 
6.850413e+2, 2.1510229e+2, -864501.06, -1025611.94, 71636.7, 0.10078047, 0.06671682, -837255.8, -5254.885, 0.0, 10.000514, 9.998392 
6.850405e+2, 2.2510113e+2, -743757.0, -875624.7, 120755.516, 0.08237024, 0.09862534, -672107.56, 61906.906, 0.0, 10.000476, 9.998779 
6.85038e+2, 2.3509963e+2, -579049.44, -746511.1, 95952.875, -0.11576431, 0.037347265, -535431.1, 100598.8, 0.0, 10.000937, 9.998774 
6.8503726e+2, 2.4509858e+2, -430679.16, -570073.1, 76089.5, -0.12670183, 0.037552457, -397190.47, 140848.83, 0.0, 10.001066, 9.999235 
6.850379e+2, 2.5509766e+2, -346518.03, -481696.44, 32892.258, 0.037545223, -0.012707278, -338939.4, 101106.336, 0.0, 10.000982, 9.999207 
6.8503755e+2, 2.6509696e+2, -288916.5, -471359.2, 58778.02, 0.0792149, 0.03250544, -271619.7, 70433.01, 0.0, 10.000984, 9.998613 
6.8503636e+2, 2.7509615e+2, -204453.97, -380851.2, 63763.082, 0.02620039, 0.05453668, -183819.1, 60243.91, 0.00000000039754933, 10.00089, 9.998613 
6.850352e+2, 2.85095e+2, -58252.18, -235301.1, 31335.385, 0.020160338, 0.07262107, -52869.844, 93203.78, 0.000001935021, 10.001135, 9.99881 
6.850338e+2, 2.9509306e+2, 153535.06, -86005.46, -22247.904, 0.054584242, -0.04396115, 155583.86, 203672.9, 0.000022833043, 10.001908, 9.998794 
6.850326e+2, 3.0509114e+2, 209953.64, -128109.92, -23494.715, 0.11417132, -0.058501158, 211578.66, 211578.66, 0.00009092674, 10.0024185, 9.997919 
6.8502957e+2, 3.1509092e+2, 220668.83, -43003.063, 14705.802, -0.016188564, 0.08874201, 221486.48, 221486.48, 0.00021663251, 10.002037, 9.998701 
6.950496e+2, 1.2510714e+2, -1894915.1, -1810616.5, -48105.652, 0.07020311, -0.084826626, -1788807.1, -74862.516, 0.00000000017840025, 9.998745, 9.999909 
6.9504696e+2, 1.3510683e+2, -1825674.5, -1774859.0, 112045.766, -0.12835886, -0.1043829, -1685376.4, -69425.625, 0.0, 9.9988, 9.999475 
6.950481e+2, 1.4510699e+2, -1629700.8, -1602177.8, 78261.484, 0.008457975, -0.035242792, -1536477.1, -18526.707, 0.0, 9.999313, 9.999734 
6.9504774e+2, 1.5510699e+2, -1330700.5, -1412912.9, 86715.836, 0.05270066, -0.052497562, -1275841.3, 144108.58, 0.0, 10.000712, 9.999697 
6.950459e+2, 1.651065e+2, -1277840.9, -1412622.6, 31040.861, -0.0054926905, -0.029331326, -1271035.6, 50919.434, 0.0, 10.000753, 9.998993 
6.950435e+2, 1.7510544e+2, -1349637.6, -1401174.1, 17178.373, -0.09080562, -0.06704621, -1344436.5, -120470.08, 0.0, 9.999597, 9.998963 
6.950427e+2, 1.8510513e+2, -1210430.0, -1224568.8, 35497.89, -0.09053003, -0.012806239, -1181304.4, -55334.12, 0.0, 9.999634, 9.999471 
6.950432e+2, 1.9510512e+2, -945148.6, -1046603.06, 45901.754, -0.031676512, 0.0012137096, -927463.7, 100507.26, 0.0, 10.000791, 9.999458 
6.950423e+2, 2.0510517e+2, -803926.3, -904964.56, -1680.967, -0.035580467, 0.055157684, -803898.4, 126072.016, 0.0, 10.000995, 9.999659 
6.9504017e+2, 2.1510498e+2, -806068.4, -857769.1, 62237.094, -0.09565068, 0.03792628, -764526.6, 67444.67, 0.0, 10.000312, 9.999641 
6.950393e+2, 2.2510432e+2, -791402.6, -930372.56, 122664.05, -0.11195227, 0.07080383, -719910.2, 14067.892, 0.0, 10.000284, 9.998493 
6.950394e+2, 2.3510285e+2, -626431.44, -801934.4, 126586.13, -0.099208124, 0.03808765, -560155.75, 75838.33, 0.0, 10.000756, 9.998475 
6.9503886e+2, 2.4510138e+2, -495704.06, -678668.56, 59036.293, -0.09535095, 0.04672147, -478308.94, 59700.258, 0.0, 10.000945, 9.998549 
6.9503784e+2, 2.550996e+2, -408166.5, -585633.06, 47245.04, -0.10285857, -0.02570255, -396372.75, 43653.94, 0.0, 10.000868, 9.998551 
6.950375e+2, 2.6509875e+2, -271850.63, -408679.97, 42732.836, -0.05849152, 0.014481772, -259601.4, 82432.88, 0.0, 10.000875, 9.999092 
6.950378e+2, 2.7509847e+2, -192416.22, -325929.63, 76957.13, 0.04453057, 0.040789295, -157296.25, 86740.04, 0.0000000054780975, 10.000767, 9.999045 
6.950371e+2, 2.850973e+2, -120088.63, -348998.0, 42877.137, 0.06121688, 0.07460551, -112320.88, 33726.805, 0.000002364329, 10.001072, 9.998056 
6.950352e+2, 2.9509503e+2, 84628.99, -202425.06, 30442.137, -0.043591693, -0.002220408, 87821.87, 135892.52, 0.000027093956, 10.001797, 9.998043 
6.950339e+2, 3.0509353e+2, 165455.08, -214166.47, -42689.74, -0.027150963, 0.08418481, 170196.47, 170196.47, 0.00010798756, 10.002384, 9.997343 
6.9503224e+2, 3.1509033e+2, 187379.56, -92291.89, 67944.6, -0.03752059, -0.0066895387, 203012.48, 203012.48, 0.00025661878, 10.001948, 9.998403 
7.0504856e+2, 1.2510847e+2, -1915642.3, -1778766.5, -103799.5, 0.13083944, -0.08966218, -1722873.9, -8940.915, 0.0, 9.998394, 10.000317 
7.0504624e+2, 1.3510865e+2, -1696669.1, -1690728.1, 7981.8115, -0.10028216, -0.07784426, -1685182.0, -69249.86, 0.0, 9.999565, 9.999691 
7.0504844e+2, 1.4510874e+2, -1594391.3, -1582561.6, 28743.7, 0.10941272, -0.026919525, -1559130.4, -41198.465, 0.0, 9.999545, 9.999752 
7.050478e+2, 1.5510876e+2, -1577974.0, -1522329.3, -8335.673, 0.08353995, -0.04776861, -1521107.4, -101174.77, 0.0, 9.998992, 9.999756 
7.050459e+2, 1.6510846e+2, -1459574.0, -1506810.4, -7988.1772, -0.01198945, -0.005757629, -1458259.6, -136323.03, 0.0, 9.999545, 9.998918 
7.0504373e+2, 1.7510761e+2, -1151192.3, -1307705.4, 4478.474, -0.091165744, -0.015761502, -1151064.1, 72881.99, 0.0, 10.000983, 9.99892 
7.0504314e+2, 1.8510705e+2, -1031969.2, -1154786.1, 68875.63, -0.06808887, 0.020974763, -1001101.7, 124850.52, 0.0, 10.000925, 9.999332 
7.05044e+2, 1.9510631e+2, -1151436.5, -1163881.5, 44417.418, 0.036408015, -0.02180403, -1112807.9, -84848.31, 0.0, 9.999436, 9.999318 
7.05043e+2, 2.0510612e+2, -1019047.8, -981095.25, 8024.888, 0.023699822, 0.005106284, -979468.2, -49508.11, 0.0, 9.999373, 9.999931 
7.050405e+2, 2.151063e+2, -744906.9, -797508.9, -30971.248, -0.09744365, -0.0068483315, -730575.9, 101380.56, 0.0, 10.000577, 9.999937 
7.0504e+2, 2.2510584e+2, -672834.7, -865498.06, 32019.385, -0.10096765, 0.028163282, -667652.6, 66308.02, 0.0, 10.001083, 9.998543 
7.0504105e+2, 2.3510443e+2, -587671.44, -776530.4, 28744.705, -0.007727916, -0.0015725708, -583393.4, 52582.51, 0.0, 10.001004, 9.998522 
7.0504063e+2, 2.4510305e+2, -500276.53, -721356.25, 8661.942, -0.010962084, 0.030696396, -499937.7, 38053.387, 0.0, 10.001081, 9.998198 
7.050389e+2, 2.5510135e+2, -373617.16, -606738.25, -8225.956, -0.09468054, 0.004633889, -373327.25, 66682.08, 0.0, 10.001264, 9.998222 
7.0503837e+2, 2.6510018e+2, -221956.5, -398670.84, -269.7074, -0.06232847, 0.032942582, -221956.1, 120064.36, 0.0, 10.001279, 9.99897 
7.0503914e+2, 2.750992e+2, -144354.83, -311863.9, -44813.06, 0.09408051, -0.001598607, -133119.72, 110908.46, 0.000000016182126, 10.001144, 9.998954 
7.050388e+2, 2.850979e+2, -79710.27, -348541.22, -14367.487, 0.1090482, 0.034896463, -78944.59, 67096.65, 0.0000030357212, 10.001415, 9.997906 
7.0503706e+2, 2.9509622e+2, 86418.35, -219208.67, -14959.358, -0.02866119, 0.030427653, 87148.81, 135210.06, 0.000031540207, 10.001872, 9.997901 
7.050358e+2, 3.050948e+2, 131868.23, -245490.2, -38925.348, -0.04898478, 0.14285788, 135841.64, 135841.64, 0.00012311795, 10.0022135, 9.997208 
7.0503515e+2, 3.150918e+2, 257679.25, -2605.137, 48393.125, 0.063417494, 0.075519525, 266385.47, 266385.47, 0.0002906225, 10.002206, 9.99888 
7.1504617e+2, 1.2510905e+2, -1826489.6, -1594250.1, -50068.484, -0.029369894, 0.060780592, -1583915.8, 130022.29, 0.0, 9.9984, 10.0015745 
7.150472e+2, 1.3511048e+2, -1617610.1, -1538774.0, 58144.414, -0.0014365952, 0.08509347, -1507945.6, 107972.68, 0.0, 9.999605, 10.00072 
7.150497e+2, 1.451105e+2, -1605710.1, -1602145.4, -13934.231, 0.23126481, 0.08398783, -1589880.0, -71963.1, 0.0, 9.999536, 9.999615 
7.150462e+2, 1.5511024e+2, -1588508.0, -1541573.9, -10987.0, -0.012988112, 0.04876701, -1539129.3, -119206.95, 0.0, 9.998979, 9.99963 
7.150447e+2, 1.6511032e+2, -1418708.3, -1400340.6, 29648.129, -0.12227946, 0.094502114, -1378486.5, -56564.543, 0.0, 9.999464, 9.999684 
7.1504563e+2, 1.751103e+2, -1111824.9, -1207590.8, 71178.336, -0.031669833, 0.08987707, -1073922.5, 149997.78, 0.0, 10.000916, 9.999638 
7.1504515e+2, 1.8510936e+2, -1058170.8, -1188357.4, -3998.8354, 0.0040561412, 0.06428622, -1058048.0, 67879.586, 0.0, 10.000834, 9.999149 
7.150431e+2, 1.9510727e+2, -1187521.1, -1201384.3, 5786.6836, -0.020134257, -0.09248097, -1185423.1, -157476.73, 0.0, 9.999282, 9.999137 
7.150421e+2, 2.0510638e+2, -1093233.4, -1089909.4, 38706.582, -0.032780573, -0.095023006, -1052829.1, -122874.836, 0.0, 9.999189, 9.999269 
7.1504194e+2, 2.1510632e+2, -827624.75, -910648.7, 27237.3, -0.038979713, -0.06455102, -819486.8, 12468.341, 0.0, 10.000342, 9.999268 
7.150422e+2, 2.2510579e+2, -671837.56, -826138.3, 11126.678, -0.01774539, -0.01985164, -671039.3, 62921.42, 0.0, 10.000915, 9.9988985 
7.150426e+2, 2.3510449e+2, -591615.7, -739876.3, 40485.36, 0.018413462, -0.07427743, -581280.8, 54693.336, 0.0, 10.000809, 9.998872 
7.150421e+2, 2.4510367e+2, -528329.75, -739825.25, -837.9258, -0.0044386387, -0.0012612197, -528326.44, 9657.704, 0.0, 10.000911, 9.998156 
7.150405e+2, 2.5510296e+2, -401811.25, -625853.44, 14185.182, -0.08902904, 0.07822171, -400916.7, 39077.2, 0.0, 10.001103, 9.998168 
7.1503985e+2, 2.6510128e+2, -276845.8, -503544.3, -22442.504, -0.07494761, 0.09461987, -274645.44, 67365.46, 0.0, 10.001231, 9.998278 
7.1504e+2, 2.750983e+2, -208296.47, -419417.56, -31004.68, 0.03009354, -0.07120762, -203837.39, 40201.254, 0.000000020828322, 10.001031, 9.998275 
7.1503985e+2, 2.850968e+2, -58097.27, -281771.66, -11027.999, 0.038564313, -0.0479773, -57554.863, 88499.68, 0.0000037854625, 10.001333, 9.998399 
7.1503896e+2, 2.9509655e+2, 98241.25, -164278.9, 25824.893, -0.076963626, 0.045675397, 100757.6, 148818.81, 0.000035842306, 10.001758, 9.998327 
7.150378e+2, 3.0509526e+2, 149236.67, -212109.06, -49491.5, -0.114043616, 0.13452742, 155892.64, 155892.64, 0.000135526, 10.0022135, 9.997444 
7.1503747e+2, 3.1509435e+2, 312849.7, 134038.55, 95289.875, -0.005825882, 0.25426814, 354109.78, 354109.78, 0.00031586387, 10.002096, 9.999886 
7.2504556e+2, 1.2510921e+2, -1719936.5, -1549574.5, 120946.91, 0.05696106, 0.072135195, -1486823.3, 227114.5, 0.0, 9.999122, 10.001563 
7.250468e+2, 1.351108e+2, -1733306.4, -1572640.4, 41597.234, 0.05566751, 0.10229536, -1562509.5, 53406.64, 0.0, 9.998738, 10.0009 
7.250491e+2, 1.4511044e+2, -1677529.6, -1638477.3, -23206.822, 0.25201657, 0.05640494, -1627674.8, -109757.01, 0.0, 9.99904, 9.999622 
7.250458e+2, 1.5511021e+2, -1404940.9, -1447602.5, -40102.793, -0.008064019, 0.024951827, -1380848.8, 39073.566, 0.0, 10.000211, 9.999691 
7.2504485e+2, 1.6511045e+2, -1256118.9, -1305590.0, 21096.61, -0.084737904, 0.07743189, -1248344.3, 73576.0, 0.0, 10.0004635, 9.999881 
7.2504693e+2, 1.7511077e+2, -1259675.3, -1254579.9, -7945.791, 0.07095526, 0.08618672, -1248783.4, -24867.625, 0.0, 9.99977, 9.999883 
7.250464e+2, 1.851101e+2, -1190602.4, -1239208.9, -87401.38, 0.101127736, 0.067338005, -1124188.1, 1732.3817, 0.0, 9.9998665, 9.999265 
7.250431e+2, 1.9510815e+2, -975611.6, -1084707.1, -87492.64, -0.008408399, -0.08961611, -927055.44, 100882.234, 0.0, 10.000671, 9.999266 
7.2504205e+2, 2.0510715e+2, -854342.0, -1002263.25, 33675.234, -0.036237024, -0.096624404, -847036.4, 82910.086, 0.0, 10.000964, 9.999019 
7.2504306e+2, 2.1510668e+2, -787871.3, -922837.9, 24196.338, 0.021524167, -0.077026285, -783664.56, 48286.867, 0.0, 10.00075, 9.998996 
7.250436e+2, 2.2510602e+2, -706182.8, -847119.4, 22806.434, 0.052836493, -0.029577734, -702584.1, 31374.541, 0.0, 10.000697, 9.998867 
7.2504383e+2, 2.3510487e+2, -594131.9, -745294.75, -9857.913, 0.0666867, -0.06257342, -593491.75, 42479.273, 0.0, 10.000805, 9.998845 
7.250433e+2, 2.4510416e+2, -516468.03, -692537.56, -11874.578, 0.038137164, 0.0049442598, -515670.8, 22308.316, 0.0, 10.000831, 9.998507 
7.2504187e+2, 2.5510356e+2, -408344.06, -593286.56, 1131.5648, -0.045466408, 0.056252066, -408337.16, 31649.322, 0.0, 10.000903, 9.998486 
7.2504133e+2, 2.651018e+2, -294328.3, -543117.7, 28012.41, -0.045502417, 0.061533995, -291213.25, 50791.004, 0.0, 10.001262, 9.997985 
7.250417e+2, 2.750985e+2, -96353.9, -399391.5, 12669.1045, 0.057962045, -0.09713924, -95825.16, 148210.56, 0.000000011844985, 10.00194, 9.99798 
7.250415e+2, 2.850972e+2, 17394.24, -237453.84, 53643.19, 0.061207853, -0.046020404, 28225.318, 174276.27, 0.000004675658, 10.00184, 9.99845 
7.250405e+2, 2.950974e+2, -6845.9556, -207379.77, 17366.682, -0.04882111, 0.09003334, -5353.075, 42700.207, 0.000040333267, 10.001019, 9.99838 
7.250392e+2, 3.0509534e+2, 62544.51, -231207.81, 1573.1338, -0.14733385, 0.09279269, 62552.938, 62552.938, 0.00014552829, 10.001528, 9.99765 
7.2504073e+2, 3.1509528e+2, 438560.16, 190304.66, 65484.816, 0.08203821, 0.27505067, 454774.72, 454774.72, 0.00033116215, 10.002984, 9.9998455 
7.3504645e+2, 1.2510912e+2, -1804212.9, -1715907.6, 100356.28, 0.15935066, -0.026310788, -1650420.6, 63509.848, 0.0, 9.999099, 10.000421 
7.3504466e+2, 1.351096e+2, -1797572.6, -1707598.6, 32596.924, -0.06933107, -0.017680606, -1697030.4, -81105.2, 0.0, 9.998734, 9.99998 
7.350461e+2, 1.451084e+2, -1677117.8, -1614035.3, -471.57327, 0.008938312, -0.115544856, -1614031.8, -96095.57, 0.0, 9.998952, 9.999821 
7.3504597e+2, 1.5510844e+2, -1401337.0, -1435959.9, 22048.412, -0.048632786, -0.13820755, -1390616.0, 29318.766, 0.0, 10.000192, 9.999779 
7.3504615e+2, 1.6510886e+2, -1276666.6, -1340688.6, -22507.678, -0.040892653, -0.061980326, -1269545.8, 52386.063, 0.0, 10.000433, 9.999652 
7.350472e+2, 1.7510928e+2, -1287182.9, -1293725.4, -15576.374, 0.08675991, -0.020285606, -1274538.0, -50607.484, 0.0, 9.99969, 9.999656 
7.350464e+2, 1.8510944e+2, -1186864.9, -1195099.8, -71452.695, 0.08385503, 0.03819637, -1119411.0, 6518.371, 0.0, 9.999719, 9.999633 
7.350435e+2, 1.9510902e+2, -974180.44, -1042886.6, -43877.41, -0.06717255, -0.0020159367, -952807.75, 75124.164, 0.0, 10.000518, 9.999619 
7.3504245e+2, 2.0510851e+2, -864273.0, -990441.56, 8470.304, -0.11350197, 0.014573767, -863706.9, 66228.5, 0.0, 10.000818, 9.999172 
7.3504317e+2, 2.1510756e+2, -805619.56, -910453.5, 31518.467, -0.0631616, -0.032083962, -796873.25, 35069.996, 0.0, 10.000539, 9.999178 
7.3504376e+2, 2.251067e+2, -769461.8, -927781.1, 11061.875, -0.02228945, 0.010415903, -768692.6, -34740.273, 0.0, 10.000482, 9.998416 
7.350442e+2, 2.3510562e+2, -656247.1, -822399.9, 11335.059, 0.00053427124, 0.027268732, -655477.44, -19511.49, 0.0, 10.000591, 9.998414 
7.350438e+2, 2.4510458e+2, -480274.22, -592126.9, -23880.838, -0.023127634, 0.045990184, -475388.97, 62586.805, 0.0, 10.000714, 9.999253 
7.350425e+2, 2.551032e+2, -382923.0, -499504.5, 19224.299, -0.09807321, -0.053169504, -379834.75, 60150.99, 0.0, 10.000726, 9.999215 
7.3504245e+2, 2.6510185e+2, -308991.4, -545011.2, 40836.137, -0.0895742, -0.04652444, -302125.66, 39872.72, 0.0, 10.00114, 9.998029 
7.350436e+2, 2.751e+2, -109950.83, -403473.1, 60503.574, 0.013901233, -0.066573545, -97968.42, 146049.58, 0.000000051096855, 10.001839, 9.997999 
7.350433e+2, 2.8509915e+2, -4673.7397, -290232.47, 7258.1753, 0.014123189, 0.04914561, -4489.3745, 141540.16, 0.0000058850314, 10.001855, 9.998083 
7.3504126e+2, 2.9509887e+2, -44303.465, -271883.53, 10428.349, -0.11816882, 0.16957933, -43826.605, 4210.2354, 0.000044056193, 10.000951, 9.997973 
7.350396e+2, 3.0509523e+2, 65806.586, -220486.5, 50570.715, -0.29490897, 0.028114242, 74476.805, 74476.805, 0.00015023243, 10.001511, 9.99773 
7.350435e+2, 3.1509417e+2, 346449.28, 24654.88, 150926.55, -0.020077996, 0.10597835, 406157.44, 406157.44, 0.0003329124, 10.002872, 9.99876 
7.4504626e+2, 1.2510866e+2, -1788722.9, -1782454.0, 85158.09, 0.22924873, -0.04714069, -1700372.6, 13559.198, 0.0, 9.99955, 9.999726 
7.45044e+2, 1.3510932e+2, -1630552.0, -1658161.5, -25472.291, -0.055177823, 0.010498193, -1615384.3, 544.7341, 0.0, 10.000046, 9.999669 
7.4504477e+2, 1.4510825e+2, -1510680.6, -1484931.0, 21872.814, -0.056642696, -0.08141387, -1472425.1, 45514.11, 0.0, 9.999879, 10.000254 
7.4504584e+2, 1.5510832e+2, -1496656.4, -1427193.4, 23692.115, -0.02305379, -0.14861582, -1419882.1, 52.927498, 0.0, 9.999316, 10.000245 
7.4504644e+2, 1.651088e+2, -1442859.5, -1417058.6, 20769.12, 0.012754318, -0.0906025, -1405509.5, -83578.92, 0.0, 9.999286, 9.999678 
7.4504703e+2, 1.7510924e+2, -1269196.4, -1277984.9, 14029.167, 0.105707966, -0.049776863, -1258889.4, -34959.24, 0.0, 9.999786, 9.999713 
7.450464e+2, 1.8510959e+2, -1117808.5, -1165064.1, 11345.482, 0.10085015, 0.024298754, -1115225.8, 10702.049, 0.0, 10.000191, 9.99962 
7.450444e+2, 1.9510944e+2, -984851.56, -1055272.5, -16256.735, -0.016004156, 0.0125227235, -981279.8, 46648.223, 0.0, 10.000453, 9.999576 
7.450437e+2, 2.0510893e+2, -888597.3, -1015757.8, 23548.734, -0.05843776, 0.038457245, -884376.44, 45555.15, 0.0, 10.000706, 9.999039 
7.450442e+2, 2.151078e+2, -752217.25, -902680.2, -11368.155, -0.029905805, -0.012708234, -751363.2, 80578.27, 0.0, 10.000976, 9.999016 
7.450445e+2, 2.251068e+2, -683659.0, -877981.5, 6400.4473, -0.011851273, 0.017607005, -683448.44, 50503.3, 0.0, 10.001038, 9.998483 
7.4504465e+2, 2.3510557e+2, -610814.06, -798146.9, 10533.042, -0.012063803, 0.0115355905, -610223.7, 25742.168, 0.0, 10.000871, 9.99845 
7.450446e+2, 2.4510437e+2, -461373.56, -596225.25, 1736.4851, -0.015034248, 0.017710477, -461351.22, 76625.94, 0.0, 10.000898, 9.999145 
7.4504423e+2, 2.5510287e+2, -310730.03, -473201.53, -51866.125, -0.0172526, -0.082959384, -295584.56, 144404.28, 0.0, 10.001255, 9.999143 
7.4504435e+2, 2.6510167e+2, -237427.75, -484312.6, -11958.651, -0.018713713, -0.06486049, -236849.84, 105149.93, 0.0, 10.001526, 9.998256 
7.450451e+2, 2.7510044e+2, -113248.79, -372122.9, -12767.876, 0.0005925426, -0.052147005, -112620.59, 131392.92, 0.00000017449423, 10.001703, 9.998264 
7.4504495e+2, 2.8509954e+2, -19980.682, -347760.75, -55296.887, -0.0061706905, 0.07075861, -10903.409, 135121.8, 0.0000070145306, 10.00197, 9.997634 
7.450435e+2, 2.9509863e+2, 133866.75, -228718.2, -93444.18, -0.048607673, 0.17149642, 156532.06, 204570.56, 0.00004543542, 10.002357, 9.997594 
7.4504197e+2, 3.0509487e+2, 246572.16, -147892.86, 19472.164, -0.2606773, 0.04468863, 247531.03, 247531.03, 0.00014809403, 10.002812, 9.997601 
7.450468e+2, 3.1509218e+2, 293323.25, -77487.61, 12583.624, 0.04245024, -0.027396725, 293749.78, 293749.78, 0.00032280377, 10.00285, 9.998056 
7.5504446e+2, 1.2510763e+2, -1809810.4, -1810674.1, 61312.656, 0.012930433, -0.02782873, -1748928.1, -34984.402, 0.0, 9.999488, 9.999561 
7.550446e+2, 1.3510983e+2, -1616616.5, -1630591.6, 5923.5405, -0.040780902, 0.16564706, -1614443.6, 1484.6868, 0.0, 10.000042, 9.9998665 
7.5504476e+2, 1.4510992e+2, -1470781.6, -1386881.9, -19903.375, -0.08757513, 0.14688115, -1382399.8, 135527.77, 0.0, 9.999822, 10.000953 
7.55045e+2, 1.5510999e+2, -1456615.4, -1329328.9, 17221.322, -0.08358874, 0.011315806, -1327040.1, 92881.19, 0.0, 9.999257, 10.000948 
7.5504524e+2, 1.6511029e+2, -1427270.6, -1370782.4, 19824.264, -0.06881145, -0.0015456899, -1364519.5, -42602.96, 0.0, 9.999223, 10.000026 
7.5504595e+2, 1.7511062e+2, -1256776.1, -1238674.0, 47579.527, -0.012931432, -0.0020062064, -1199292.3, 24622.87, 0.0, 9.999729, 10.0000105 
7.5504607e+2, 1.851105e+2, -1152358.6, -1214427.5, 2715.7424, 0.01642633, 0.02511137, -1152240.0, -26323.488, 0.0, 10.000093, 9.999332 
7.550454e+2, 1.9510949e+2, -1024658.06, -1102220.9, 9399.593, 0.006944529, -0.0427178, -1023535.25, 4389.7236, 0.0, 10.000305, 9.999324 
7.550453e+2, 2.0510857e+2, -949912.56, -1102215.6, 17935.639, -0.002336292, -0.020527406, -947828.9, -17895.154, 0.0, 10.0005245, 9.998538 
7.550456e+2, 2.1510749e+2, -819427.75, -985678.9, 13692.828, -0.014943013, -0.017321024, -818307.56, 13638.033, 0.0, 10.000745, 9.998555 
7.5504553e+2, 2.2510637e+2, -671034.06, -808849.1, -14313.703, -0.046431832, -0.0026420911, -669563.1, 64392.973, 0.0, 10.000848, 9.999052 
7.5504494e+2, 2.3510489e+2, -603710.7, -732757.44, 20995.73, -0.10316093, -0.08829394, -600380.6, 35588.402, 0.0, 10.000656, 9.999004 
7.5504524e+2, 2.4510375e+2, -550330.56, -748202.0, 333.57944, -0.071694866, -0.055120368, -550330.0, -12349.167, 0.0, 10.000754, 9.998169 
7.550464e+2, 2.551025e+2, -396844.47, -624089.4, -22248.344, 0.041879028, -0.036280435, -394686.72, 45309.316, 0.0, 10.001134, 9.998165 
7.550466e+2, 2.6510125e+2, -214889.83, -421934.66, -19877.41, 0.021008, 0.0055102743, -212998.75, 129009.92, 0.0, 10.00146, 9.998716 
7.5504595e+2, 2.750998e+2, -102025.35, -320329.47, 12380.506, -0.1241586, -0.046460222, -101325.47, 142696.45, 0.0000002213921, 10.001578, 9.998684 
7.55046e+2, 2.8509843e+2, -67504.25, -432385.4, -53848.56, -0.12493445, 0.031950325, -59723.297, 86313.93, 0.000006961638, 10.001903, 9.99709 
7.550466e+2, 2.9509664e+2, 90152.12, -307365.13, -53934.73, -0.017885968, 0.10363573, 97339.96, 145398.45, 0.00004401986, 10.002291, 9.997094 
7.550456e+2, 3.0509406e+2, 213039.75, -194813.77, 14861.505, -0.21084529, 0.13069648, 213580.56, 213580.56, 0.0001416952, 10.002736, 9.9973 
7.550496e+2, 3.1509048e+2, 246949.1, -140092.89, 18679.176, -0.05364619, -0.0007362411, 247848.48, 247848.48, 0.0003069929, 10.002719, 9.997679 
7.650434e+2, 1.2510659e+2, -1886025.4, -1820875.9, 90100.97, 0.014277579, -0.011937843, -1757641.9, -43688.332, 0.00000000032551553, 9.998785, 9.999848 
7.650448e+2, 1.3510837e+2, -1792181.4, -1666321.9, 3880.764, 0.06340679, 0.09003725, -1666202.4, -50261.703, 0.0, 9.998601, 10.000319 
7.650445e+2, 1.4510912e+2, -1663788.8, -1503126.5, 357.4922, -0.017254362, 0.12184706, -1503125.8, 14808.236, 0.0, 9.998568, 10.000776 
7.650447e+2, 1.551097e+2, -1475576.3, -1358036.4, -57472.64, -0.0255246, 0.05638167, -1334605.3, 85320.02, 0.0, 9.999184, 10.000802 
7.65045e+2, 1.6511019e+2, -1384312.9, -1325888.9, -44813.02, -0.015218413, 0.056491822, -1301607.4, 20311.924, 0.0, 9.999425, 10.000229 
7.6504594e+2, 1.7511028e+2, -1307381.5, -1241101.3, -58308.035, 0.039417405, 0.010241654, -1207173.5, 16745.023, 0.0, 9.999292, 10.0002 
7.6504624e+2, 1.851101e+2, -1187937.0, -1216283.6, -42128.55, 0.04946809, 0.016857391, -1157661.5, -31742.164, 0.0, 9.999794, 9.9994545 
7.650458e+2, 1.9510925e+2, -931569.0, -1047176.7, -40326.79, 0.0024579277, -0.04709969, -918892.1, 109033.945, 0.0, 10.000895, 9.999419 
7.6504606e+2, 2.0510831e+2, -862275.44, -1061359.3, 1533.0835, 0.0022693153, -0.031962924, -862263.7, 67671.45, 0.0, 10.0011425, 9.998523 
7.650467e+2, 2.151069e+2, -844195.9, -1005690.7, 4832.8755, 0.040085796, -0.058785357, -844051.4, -12100.985, 0.0, 10.00059, 9.998504 
7.6504683e+2, 2.251059e+2, -707068.8, -813508.06, 15867.851, 0.018925278, -0.03777725, -704753.6, 29206.797, 0.0, 10.000561, 9.999158 
7.6504606e+2, 2.35105e+2, -536281.0, -684118.4, -16902.234, -0.06280066, -0.07628074, -534373.2, 101594.84, 0.0, 10.001067, 9.99913 
7.650466e+2, 2.4510396e+2, -474749.06, -719880.7, 10874.887, -0.031913076, -0.033748593, -474267.56, 63711.34, 0.0, 10.001307, 9.998099 
7.650482e+2, 2.5510252e+2, -388590.34, -628471.8, 27993.373, 0.1074565, -0.025378725, -385366.94, 54628.926, 0.0, 10.001227, 9.998092 
7.650485e+2, 2.6510125e+2, -229726.23, -447289.06, 75173.78, 0.072341956, 0.02415603, -206278.7, 135730.69, 0.0, 10.001441, 9.998552 
7.6504767e+2, 2.7509987e+2, -64342.62, -320853.94, 26159.877, -0.11698441, -0.002543153, -61701.938, 182320.7, 0.00000016204108, 10.001918, 9.998521 
7.650482e+2, 2.8509796e+2, 23938.055, -402894.6, 1574.9929, -0.11780345, 0.03896999, 23943.867, 169986.6, 0.000006290961, 10.002596, 9.996949 
7.6505005e+2, 2.9509524e+2, 240174.2, -239775.08, -3751.3005, 0.049792588, 0.025310919, 240203.52, 288275.38, 0.000041719115, 10.003377, 9.99701 
7.650492e+2, 3.0509305e+2, 264275.16, -177036.48, 70458.93, -0.12723619, 0.099680655, 275251.5, 275251.5, 0.00013461517, 10.003097, 9.997265 
7.650518e+2, 3.1509006e+2, 45443.4, -188845.03, 6946.3716, -0.009660292, 0.032818142, 45649.17, 45649.17, 0.00029005748, 10.001106, 9.998139 
7.7504236e+2, 1.2510543e+2, -1840298.5, -1705226.4, -9909.055, -0.059166092, -0.013026614, -1704503.3, 9459.379, 0.0000000023621072, 9.998709, 10.000679 
7.7504414e+2, 1.351049e+2, -1747533.9, -1568902.5, 1775.3588, 0.09695977, -0.20451999, -1568884.9, 47081.32, 0.0, 9.998588, 10.000997 
7.7504355e+2, 1.4510576e+2, -1721272.4, -1619387.6, -471.15515, -0.018449865, -0.15714937, -1619385.5, -101426.12, 0.0, 9.99855, 9.999988 
7.750445e+2, 1.5510763e+2, -1535598.5, -1479712.1, -15975.503, 0.00042449756, -0.009111098, -1475467.8, -55522.094, 0.0, 9.99917, 9.999974 
7.750453e+2, 1.6510864e+2, -1387890.4, -1317569.4, -67625.39, 0.037954193, 0.081420176, -1276510.1, 45427.31, 0.0, 9.999362, 10.000317 
7.7504647e+2, 1.7510836e+2, -1306038.0, -1224378.0, -44152.97, 0.123623304, -0.012620307, -1205070.0, 18868.719, 0.0, 9.999238, 10.00034 
7.7504647e+2, 1.8510857e+2, -1170198.5, -1155975.1, -15105.343, 0.057762228, 0.00050208677, -1146391.1, -20456.02, 0.0, 9.999683, 9.99993 
7.750454e+2, 1.9510894e+2, -919734.9, -988325.44, 16616.383, -0.16855025, 0.012118607, -915921.5, 112008.195, 0.0, 10.000743, 9.9999 
7.750456e+2, 2.0510828e+2, -860330.5, -1009235.94, -35734.76, -0.18561018, 0.010383842, -852198.9, 77735.93, 0.0, 10.000941, 9.998975 
7.750472e+2, 2.1510631e+2, -845648.6, -955018.94, -1935.8652, 0.0022356343, -0.118325405, -845614.4, -13660.599, 0.0, 10.00037, 9.998954 
7.750479e+2, 2.2510558e+2, -765280.3, -886649.8, 17511.572, 0.051915783, -0.06957865, -762804.2, -28841.943, 0.0, 10.000352, 9.998761 
7.750477e+2, 2.3510572e+2, -590021.6, -752915.1, 17241.514, -0.037016578, 0.035420932, -588216.7, 47747.56, 0.0, 10.000879, 9.998753 
7.7504814e+2, 2.4510494e+2, -439287.4, -605184.25, -7704.522, -0.035236586, 0.07784413, -438930.38, 99041.68, 0.0, 10.001137, 9.998968 
7.7504915e+2, 2.5510302e+2, -354134.06, -515104.28, 42318.613, 0.04849664, -0.044662036, -343686.7, 96301.12, 0.0, 10.001054, 9.998952 
7.750497e+2, 2.6510167e+2, -302474.06, -575496.94, 78678.69, 0.015112789, -0.0049750498, -281423.72, 60577.71, 0.0, 10.001343, 9.997722 
7.7504975e+2, 2.751004e+2, -136519.39, -447423.8, 61664.24, -0.13442105, 0.061977886, -124735.63, 119282.3, 0.00000014054619, 10.001814, 9.997705 
7.7505094e+2, 2.8509793e+2, 28849.398, -368985.88, 16748.393, -0.1387774, 0.07573687, 29553.24, 175597.1, 0.0000059856334, 10.002501, 9.997223 
7.750533e+2, 2.9509413e+2, 244580.77, -213532.67, 47137.68, -0.009235521, -0.07448155, 249380.7, 297461.7, 0.0000396548, 10.003298, 9.997229 
7.750525e+2, 3.050918e+2, 275763.97, -129937.06, -11874.559, -0.1401651, -0.04497881, 276111.22, 276111.22, 0.00012692052, 10.003013, 9.997626 
7.7505267e+2, 3.1509075e+2, 101992.555, -38885.64, -39274.375, -0.10640991, 0.052360766, 112201.73, 112201.73, 0.00027215088, 10.000967, 9.999242 
7.85042e+2, 1.2510398e+2, -1876291.8, -1679170.1, -1559.151, 0.075374976, -0.009972812, -1679157.8, 34820.11, 0.0000000040597263, 9.998325, 10.001018 
7.8504324e+2, 1.3510343e+2, -1638365.3, -1497373.5, -64667.61, 0.12490354, -0.21562763, -1472205.6, 143774.73, 0.0, 9.999294, 10.001123 
7.850423e+2, 1.4510456e+2, -1565038.3, -1538216.0, -21298.771, -0.038070146, -0.1526917, -1526457.8, -8487.072, 0.0, 9.99961, 10.000028 
7.8504395e+2, 1.551064e+2, -1484239.6, -1452390.8, -11418.122, 0.023554143, -0.008869091, -1448720.3, -28762.406, 0.0, 9.999525, 9.999985 
7.8504515e+2, 1.6510718e+2, -1349631.3, -1323028.4, -10793.141, 0.07769292, 0.07057275, -1319200.3, 2751.5078, 0.0, 9.999722, 10.000102 
7.850462e+2, 1.7510656e+2, -1202051.4, -1198035.0, -49237.82, 0.14710027, -0.035219893, -1150764.5, 73191.42, 0.0, 10.000059, 10.00012 
7.850465e+2, 1.8510674e+2, -1129579.6, -1131949.5, -13729.156, 0.08958732, -0.016306786, -1116984.4, 8968.601, 0.0, 9.99995, 9.99996 
7.85046e+2, 1.9510733e+2, -1130751.4, -1083259.9, -46939.02, -0.10438081, 0.015009691, -1054402.1, -26455.291, 0.0, 9.999285, 9.999939 
7.8504616e+2, 2.051071e+2, -1042909.3, -1042188.25, -81544.336, -0.13714771, 0.025550637, -961003.6, -31055.586, 0.0, 9.999438, 9.999479 
7.850473e+2, 2.1510567e+2, -829593.44, -889989.75, -74062.086, -0.0077518444, -0.0951554, -779809.6, 52150.31, 0.0, 10.000234, 9.999468 
7.850483e+2, 2.2510517e+2, -729210.4, -875827.7, -3535.088, 0.04641632, -0.047983706, -729125.2, 4840.9463, 0.0, 10.000626, 9.998698 
7.8504896e+2, 2.3510519e+2, -638215.94, -785640.0, -11103.41, 0.02078336, 0.05359403, -637384.4, -1414.0657, 0.0, 10.000588, 9.99867 
7.8504956e+2, 2.4510442e+2, -463141.13, -592790.44, -17196.852, 0.01867486, 0.09000455, -460898.88, 77079.08, 0.0, 10.000876, 9.99917 
7.8505015e+2, 2.5510252e+2, -279253.44, -458930.78, -50285.504, 0.036773596, -0.050483745, -266137.66, 173854.4, 0.0, 10.001474, 9.999133 
7.8505117e+2, 2.651011e+2, -239980.95, -570247.7, 19157.04, 0.008978056, -0.018418102, -238873.47, 103133.23, 0.0, 10.001885, 9.997494 
7.850524e+2, 2.7509964e+2, -109618.47, -458439.4, 14205.006, -0.053617906, 0.05667601, -109040.95, 134985.1, 0.0000001311964, 10.002108, 9.997484 
7.8505397e+2, 2.8509748e+2, -16984.91, -350825.38, 22101.504, -0.05718918, 0.090991, -15528.063, 130521.734, 0.0000058891046, 10.002007, 9.997596 
7.850559e+2, 2.9509452e+2, 1404.9043, -295005.63, 22568.643, 0.01183905, -0.0085391095, 3113.4285, 51191.984, 0.000037489564, 10.001463, 9.997565 
7.850551e+2, 3.0509183e+2, 111233.016, -184695.34, -19763.572, -0.09689382, -0.03903611, 112547.09, 112547.09, 0.00011865352, 10.001756, 9.997856 
7.850545e+2, 3.1509164e+2, 343851.06, 113842.73, -139626.03, -0.07886767, 0.11050912, 409737.44, 409737.44, 0.00025448482, 10.002458, 9.99957 
7.950412e+2, 1.2510277e+2, -1878789.0, -1710382.5, -48107.934, 0.0817987, 0.02596087, -1697608.6, 16385.35, 0.0000000034592607, 9.998422, 10.000765 
7.950415e+2, 1.35104e+2, -1659745.5, -1557546.1, -18448.715, -0.0151438285, 0.0436376, -1554317.9, 61664.81, 0.0, 9.999351, 10.000688 
7.950405e+2, 1.4510548e+2, -1518504.0, -1427191.6, -47779.996, -0.2316959, 0.12558964, -1406761.4, 111206.62, 0.0, 9.9995575, 10.00081 
7.950426e+2, 1.5510598e+2, -1429786.1, -1333884.6, 4426.5234, -0.10474137, 0.047805913, -1333680.6, 86281.375, 0.0, 9.999508, 10.0008 
7.95044e+2, 1.6510585e+2, -1390651.5, -1404435.9, -15399.627, -0.045199294, 0.024267158, -1380672.1, -58710.188, 0.0, 9.999694, 9.999564 
7.9504484e+2, 1.7510493e+2, -1239901.5, -1277905.8, -21272.852, -0.033820525, -0.058511607, -1230379.8, -6410.208, 0.0, 10.000051, 9.99958 
7.950459e+2, 1.8510461e+2, -1182098.6, -1210196.5, -54607.234, 0.0012307958, -0.037221234, -1139762.1, -13788.842, 0.0, 9.9998255, 9.99948 
7.9504704e+2, 1.9510446e+2, -1176876.9, -1152103.5, -56154.957, 0.04138213, -0.037271965, -1106985.3, -79007.69, 0.0, 9.999174, 9.999515 
7.950472e+2, 2.0510472e+2, -1024271.9, -964020.06, -68435.21, 0.001011701, 0.012133463, -919373.3, 10601.506, 0.0, 9.9992695, 10.000096 
7.950466e+2, 2.1510494e+2, -816284.9, -817156.9, -28537.322, -0.12768354, -0.0086674625, -788180.2, 43789.18, 0.0, 10.000038, 10.000062 
7.9504734e+2, 2.2510464e+2, -746200.7, -859452.0, -18058.432, -0.13136129, 0.019269587, -743390.9, -9419.028, 0.0, 10.000403, 9.998919 
7.9504937e+2, 2.3510353e+2, -647552.6, -766074.5, 5760.066, -0.023026636, -0.014770751, -647273.4, -11288.319, 0.0, 10.000415, 9.998889 
7.950505e+2, 2.4510245e+2, -520948.97, -673081.7, -9906.651, -0.008824875, 0.003321708, -520306.6, 17689.451, 0.0, 10.000711, 9.998697 
7.950508e+2, 2.5510097e+2, -337738.03, -541344.9, -11203.778, -0.08633511, -0.04671561, -337123.38, 102885.53, 0.0, 10.001308, 9.998648 
7.950523e+2, 2.650995e+2, -223369.72, -517332.94, 13668.203, -0.0928025, -0.015608585, -222735.56, 119289.22, 0.0, 10.001798, 9.9979 
7.9505515e+2, 2.7509773e+2, -97403.05, -412937.13, 44960.203, -0.025357254, -0.015774906, -91121.74, 152924.77, 0.000000103459534, 10.002014, 9.997843 
7.9505676e+2, 2.8509668e+2, 5663.069, -289038.84, -11361.244, -0.0106589785, 0.09583204, 6100.4146, 152159.7, 0.0000054454867, 10.001944, 9.99805 
7.950569e+2, 2.9509622e+2, 17764.87, -236439.34, 27820.918, -0.072715834, 0.2012605, 20774.057, 68839.26, 0.00003447301, 10.001353, 9.998023 
7.9505664e+2, 3.050932e+2, 104883.97, -178361.13, 3520.0266, -0.15976939, 0.1071702, 104927.71, 104927.71, 0.0001104858, 10.001672, 9.997937 
7.950564e+2, 3.1509104e+2, 283339.9, 19218.334, -69757.164, -0.22324064, 0.05159712, 300631.44, 300631.44, 0.000240168, 10.002322, 9.998982 
8.050403e+2, 1.251015e+2, -1816257.3, -1666641.9, 12272.712, 0.1452069, -0.00071569835, -1665641.9, 48364.83, 0.0000000057252847, 9.998802, 10.000897 
8.050402e+2, 1.3510326e+2, -1824189.4, -1655714.0, 34785.746, -0.020284329, 0.08494565, -1648814.3, -32823.344, 0.0, 9.998285, 10.000553 
8.050396e+2, 1.4510462e+2, -1676588.4, -1489284.1, 46793.637, -0.20184049, 0.15844907, -1478244.5, 39732.32, 0.0, 9.998417, 10.000933 
8.0504256e+2, 1.551047e+2, -1426060.4, -1326051.3, 2322.8203, -0.052596603, 0.030596416, -1325997.4, 93976.08, 0.0, 9.9995, 10.000865 
8.050442e+2, 1.6510443e+2, -1358659.4, -1384474.9, -4131.5947, 0.0014898585, -0.011346776, -1358014.3, -36040.246, 0.0, 9.999919, 9.999591 
8.050449e+2, 1.7510363e+2, -1282922.9, -1300994.9, -4760.6157, -0.016487878, -0.076305464, -1281745.5, -57764.965, 0.0, 9.999779, 9.999559 
8.0504584e+2, 1.8510331e+2, -1193360.9, -1221024.8, 10639.228, 0.0268972, -0.05073044, -1189742.4, -63757.656, 0.0, 9.999788, 9.999419 
8.0504715e+2, 1.9510306e+2, -1088716.5, -1123538.6, 1444.2815, 0.11290942, -0.050467208, -1088656.6, -60665.957, 0.0, 9.999846, 9.999395 
8.0504763e+2, 2.051033e+2, -913984.8, -922673.44, 33756.277, 0.07880809, 0.009677914, -884294.5, 45694.473, 0.0, 10.000075, 9.999995 
8.050473e+2, 2.1510363e+2, -777552.3, -809215.9, -15977.02, -0.072269425, 0.011646505, -770891.6, 61091.793, 0.0, 10.000355, 9.999962 
8.0504805e+2, 2.2510321e+2, -720381.3, -832988.75, -25175.932, -0.10181453, 0.025750024, -715009.0, 18977.773, 0.0, 10.000522, 9.999037 
8.050497e+2, 2.3510176e+2, -628513.9, -742101.44, -39745.805, -0.024639396, -0.05424366, -615987.7, 20013.85, 0.0, 10.000494, 9.999005 
8.05051e+2, 2.4510068e+2, -517975.7, -697287.94, 5321.9224, -0.021256229, -0.032041233, -517817.88, 20194.795, 0.0, 10.000819, 9.998491 
8.050521e+2, 2.550995e+2, -333956.44, -561921.8, -7561.663, -0.075939015, -0.032180514, -333705.88, 106318.44, 0.0, 10.001418, 9.998464 
8.0505437e+2, 2.6509818e+2, -221723.63, -491208.75, 33905.22, -0.054403063, 0.012309745, -217523.31, 124515.875, 0.0, 10.001687, 9.998143 
8.050577e+2, 2.750964e+2, -131046.695, -398013.22, 23308.531, 0.051899787, -0.018193875, -129026.94, 115033.73, 0.00000004701224, 10.001632, 9.9981365 
8.0505896e+2, 2.850957e+2, -24281.29, -251347.9, -16662.39, 0.047500107, 0.08966328, -23065.1, 123004.05, 0.000004093495, 10.001511, 9.998517 
8.050582e+2, 2.950959e+2, 59187.973, -161269.23, -13816.179, -0.072361775, 0.21050248, 60050.465, 108118.34, 0.000029631305, 10.001406, 9.998511 
8.050587e+2, 3.0509335e+2, 150004.64, -155270.0, 38394.098, -0.11399455, 0.14164636, 154759.38, 154759.38, 0.00010221737, 10.001966, 9.997972 
8.050598e+2, 3.150907e+2, 306031.22, -17598.822, -85499.13, -0.11847783, 0.03691949, 327230.4, 327230.4, 0.00023173698, 10.002684, 9.998569 
8.15038e+2, 1.2510052e+2, -1780606.8, -1609609.5, -74835.05, -0.04566243, -0.062439498, -1581484.6, 132528.22, 0.000000004999778, 9.998868, 10.00126 
8.1503844e+2, 1.3510136e+2, -1804749.6, -1623061.3, 26633.088, -0.057604633, -0.08817244, -1619237.6, -3234.2834, 0.0, 9.998329, 10.00075 
8.150392e+2, 1.4510223e+2, -1719229.3, -1586538.3, 66062.2, -0.12590037, -0.03965495, -1559257.1, -41262.523, 0.0, 9.9984455, 10.0002575 
8.150432e+2, 1.551027e+2, -1468613.6, -1414405.1, 58335.08, 0.024757503, -0.058657005, -1377185.0, 42805.438, 0.0, 9.999498, 10.000261 
8.150452e+2, 1.65103e+2, -1337297.0, -1325027.1, -27103.447, 0.07160615, -0.03817828, -1303373.0, 18614.27, 0.0, 9.999855, 10.000027 
8.150456e+2, 1.7510277e+2, -1256976.9, -1233570.0, 7165.7, 0.046444535, -0.098148584, -1231550.6, -7562.275, 0.0, 9.999727, 10.00004 
8.150459e+2, 1.8510294e+2, -1190464.0, -1197281.3, -1767.1049, 0.018444745, -0.05858599, -1190033.1, -64046.566, 0.0, 9.9997, 9.999631 
8.1504583e+2, 1.9510315e+2, -1090516.1, -1104039.5, 21213.11, -0.0376316, -0.031595387, -1075013.1, -47027.5, 0.0, 9.999738, 9.999582 
8.150468e+2, 2.0510288e+2, -1007687.0, -1072546.3, 27507.947, -0.03344482, 0.017338788, -997591.7, -67602.17, 0.0, 9.999883, 9.999061 
8.150489e+2, 2.1510181e+2, -869553.06, -952524.9, 11602.417, 0.023353083, -0.031763352, -867961.2, -35959.8, 0.0, 10.000148, 9.999078 
8.150498e+2, 2.2510092e+2, -751500.7, -842343.25, -43470.688, -0.007050578, -0.022370003, -734050.7, -40.45025, 0.0, 10.00029, 9.9990835 
8.150494e+2, 2.3509984e+2, -657955.56, -751132.0, -24602.78, -0.13513716, -0.07080666, -651858.3, -15838.021, 0.0, 10.000273, 9.999048 
8.150508e+2, 2.4509904e+2, -542600.5, -703088.9, 11723.698, -0.15539974, -0.024360068, -541748.6, -3720.1729, 0.0, 10.000626, 9.998545 
8.1505394e+2, 2.5509816e+2, -356490.84, -569420.1, 31336.436, -0.06863958, 0.0013156885, -351974.88, 88063.02, 0.0, 10.00125, 9.998494 
8.150568e+2, 2.6509717e+2, -226220.36, -471699.9, 16554.2, -0.0064374725, 0.06723364, -225109.03, 116940.91, 0.0, 10.001571, 9.998329 
8.150593e+2, 2.750956e+2, -148810.0, -386598.28, 41187.824, 0.023141282, 0.04732394, -141877.86, 102190.63, 0.000000004527389, 10.001435, 9.998306 
8.150601e+2, 2.8509447e+2, -4243.8135, -191518.06, -36066.676, -0.02934724, 0.07442112, 2462.0547, 148541.83, 0.0000024308686, 10.001423, 9.998973 
8.150591e+2, 2.950936e+2, 66019.97, -118183.13, 6720.784, -0.16146517, 0.044752404, 66264.85, 114350.586, 0.00002455122, 10.001282, 9.998869 
8.150611e+2, 3.050922e+2, 145587.28, -154807.38, 55060.285, -0.10675492, 0.075607896, 155361.42, 155361.42, 0.00009685274, 10.001937, 9.997982 
8.150633e+2, 3.1509015e+2, 263463.03, -49363.434, 13618.459, -0.11069972, 0.027391436, 264054.78, 264054.78, 0.00023260372, 10.002465, 9.99845 
8.250375e+2, 1.251006e+2, -1789116.6, -1648997.6, -12573.633, 0.02539406, -0.06687037, -1647878.3, 66132.31, 0.0000000017683296, 9.998954, 10.000944 
8.2503754e+2, 1.3510083e+2, -1687728.6, -1621019.5, -6754.8496, -0.014509708, -0.11221727, -1620342.4, -4335.1973, 0.0, 9.999349, 10.000279 
8.250391e+2, 1.4510088e+2, -1621036.9, -1568264.1, 88594.59, -0.02406675, -0.10828605, -1502210.0, 15796.667, 0.0, 9.999257, 9.999987 
8.2504296e+2, 1.5510127e+2, -1558822.9, -1489740.4, 67180.13, 0.08681232, -0.10771137, -1448741.8, -28738.115, 0.0, 9.999031, 9.999959 
8.2504493e+2, 1.6510184e+2, -1429276.6, -1361393.9, 2951.1191, 0.10913011, -0.05077479, -1361265.9, -39267.24, 0.0, 9.999163, 10.000116 
8.250454e+2, 1.7510223e+2, -1284663.8, -1244919.1, -24966.33, 0.07332098, -0.054843053, -1232881.8, -8887.017, 0.0, 9.9994955, 10.000086 
8.2504576e+2, 1.8510243e+2, -1171478.9, -1199943.8, -22171.695, 0.039687276, -0.011097445, -1159364.8, -33372.0, 0.0, 9.999872, 9.99953 
8.2504594e+2, 1.9510202e+2, -1019483.4, -1083194.5, -56614.05, -0.016097434, -0.03630744, -986377.94, 41618.258, 0.0, 10.000275, 9.999465 
8.2504714e+2, 2.0510134e+2, -944116.7, -1074607.5, -8007.4404, -0.012433564, -0.0084723765, -943627.2, -13623.096, 0.0, 10.000465, 9.998754 
8.250494e+2, 2.1510011e+2, -853460.8, -982502.75, -15541.278, 0.055273816, -0.03971347, -851615.44, -19596.594, 0.0, 10.000421, 9.99874 
8.250506e+2, 2.2509933e+2, -689110.75, -818625.94, -10969.392, 0.031912915, -0.002474054, -688188.25, 45839.098, 0.0, 10.000723, 9.999056 
8.2505065e+2, 2.3509854e+2, -506327.6, -683347.3, -30285.246, -0.079641424, -0.017108547, -501289.66, 134744.31, 0.0, 10.001317, 9.999025 
8.250524e+2, 2.4509758e+2, -424113.2, -649126.9, 29094.67, -0.094011635, 0.01582747, -420412.06, 117631.16, 0.0, 10.001456, 9.998512 
8.250556e+2, 2.550961e+2, -362740.06, -571960.56, 8395.919, -0.0140475705, -0.016630754, -362403.7, 77654.44, 0.0, 10.001215, 9.998488 
8.250585e+2, 2.6509514e+2, -284686.47, -477115.97, 12938.369, 0.04152014, 0.04330078, -283820.44, 58248.74, 0.0, 10.001075, 9.9985285 
8.2506096e+2, 2.7509424e+2, -200134.48, -387291.38, 4184.3276, 0.079952285, 0.06375518, -200040.97, 44040.074, 0.0, 10.000983, 9.998513 
8.250616e+2, 2.8509295e+2, -54504.375, -217882.75, -44459.51, 0.01031343, 0.069535725, -43189.414, 102903.63, 0.000001518397, 10.001094, 9.998952 
8.2506055e+2, 2.950911e+2, 76806.65, -114334.79, -73789.89, -0.14466661, -0.057293367, 101978.26, 150086.34, 0.000022026383, 10.001346, 9.998868 
8.250635e+2, 3.050901e+2, 119228.54, -189712.52, 20205.9, -0.0407097, 0.023868468, 120544.47, 120544.47, 0.00009707927, 10.001863, 9.997767 
8.250669e+2, 3.15088e+2, 277224.16, -28609.082, -75781.3, 0.016157044, -0.01507319, 294971.8, 294971.8, 0.00024343749, 10.002481, 9.998577 
8.350373e+2, 1.2510234e+2, -1868736.6, -1801253.1, -45472.97, 0.03872157, 0.040618796, -1778370.6, -64376.62, 0.000000000051048894, 9.998905, 9.999924 
8.350371e+2, 1.3510182e+2, -1745462.8, -1744057.0, 23003.941, -0.034214143, 0.015233498, -1721745.1, -105744.305, 0.0, 9.999373, 9.999418 
8.3503836e+2, 1.4510068e+2, -1628989.3, -1583075.9, 57964.09, -0.059572347, -0.053396527, -1543688.0, -25676.016, 0.0, 9.999248, 9.999888 
8.350413e+2, 1.5510036e+2, -1564254.1, -1497368.3, 74595.484, -0.028948402, -0.12098946, -1449062.0, -29049.076, 0.0, 9.999015, 9.99991 
8.35043e+2, 1.651009e+2, -1459362.6, -1402797.9, -2529.5757, -0.034607332, -0.0505509, -1402685.0, -80676.805, 0.0, 9.999073, 9.999878 
8.350439e+2, 1.751022e+2, -1308394.4, -1280116.5, 5229.5693, -0.06373196, 0.060039382, -1279180.4, -55181.75, 0.0, 9.999443, 9.9998665 
8.350452e+2, 1.8510193e+2, -1217252.9, -1274999.1, -24943.443, -0.036355127, 0.09378933, -1207970.6, -81968.78, 0.0, 9.9997835, 9.999062 
8.3504707e+2, 1.9509967e+2, -1068965.4, -1149657.8, -25705.816, 0.03060031, -0.07270742, -1061472.1, -33449.93, 0.0, 10.000126, 9.999078 
8.35048e+2, 2.0509867e+2, -954285.06, -1054322.5, -26628.27, 0.00060180033, -0.068994254, -947638.7, -17606.393, 0.0, 10.000278, 9.998986 
8.3504826e+2, 2.1509857e+2, -865326.7, -960416.4, -46.35875, -0.1268632, -0.013677042, -865326.7, -33290.992, 0.0, 10.000218, 9.998986 
8.3505e+2, 2.2509843e+2, -724886.8, -847350.6, -5441.097, -0.12222302, 0.08075783, -724645.56, 9392.191, 0.0, 10.000519, 9.99896 
8.35053e+2, 2.3509791e+2, -542666.7, -714850.56, 9793.618, -0.0032792308, 0.10122463, -542111.44, 93930.57, 0.0, 10.00112, 9.998908 
8.3505523e+2, 2.4509637e+2, -455397.88, -677345.25, 4896.3433, 0.01586106, 0.08873255, -455289.9, 82766.125, 0.0, 10.001292, 9.998399 
8.350567e+2, 2.5509346e+2, -393505.88, -603884.56, 18076.133, -0.06165763, -0.08020125, -391964.06, 48119.523, 0.0, 10.00107, 9.998341 
8.3505905e+2, 2.6509222e+2, -285339.7, -452834.5, -4881.7427, -0.042958643, -0.04838901, -285197.53, 56898.35, 0.0, 10.000961, 9.998751 
8.350622e+2, 2.7509227e+2, -206288.16, -367797.63, 21708.672, 0.061452158, 0.04774605, -203421.16, 40676.16, 0.0, 10.000843, 9.998716 
8.350631e+2, 2.8509122e+2, -95604.26, -282477.06, -50570.504, 0.013879761, 0.0823374, -82796.9, 63311.43, 0.0000012583888, 10.001008, 9.998549 
8.350619e+2, 2.9508856e+2, 22761.041, -189785.3, -43216.277, -0.18817292, -0.07846617, 31212.031, 79345.03, 0.000022671806, 10.00119, 9.998428 
8.350654e+2, 3.0508712e+2, 85469.12, -243153.34, 37965.855, -0.06975858, -0.0036137502, 89798.3, 89798.3, 0.0001036696, 10.001795, 9.997431 
8.3506936e+2, 3.1508633e+2, 269910.34, 3416.0054, 31178.174, -0.06666972, 0.12367123, 273509.38, 273509.38, 0.00026239955, 10.002293, 9.998883 
8.4503657e+2, 1.2510183e+2, -1919168.3, -1880356.4, -40532.566, 0.09777903, 0.042659447, -1854823.8, -140826.03, 0.0, 9.998782, 9.999441 
8.4503734e+2, 1.3510132e+2, -1607023.9, -1718610.3, -3723.5334, 0.008752522, 0.04957167, -1606899.8, 9107.343, 0.0, 10.000497, 9.999052 
8.4503895e+2, 1.4510006e+2, -1433866.4, -1504878.4, 29926.803, 0.010305062, -0.0054054325, -1422936.5, 95083.78, 0.0, 10.000655, 9.999745 
8.4504056e+2, 1.550997e+2, -1474472.6, -1476433.8, 2466.474, -0.026568895, -0.05976544, -1472798.9, -52777.74, 0.0, 9.99972, 9.999722 
8.4504205e+2, 1.6509998e+2, -1427486.8, -1410703.6, -6799.3447, -0.04700107, 0.004755108, -1408294.8, -86275.59, 0.0, 9.999415, 9.99965 
8.4504354e+2, 1.7510073e+2, -1303860.5, -1305042.0, -36211.492, -0.04460379, 0.08647982, -1268235.0, -44219.23, 0.0, 9.999612, 9.999608 
8.450454e+2, 1.8510026e+2, -1190850.4, -1254833.8, -16368.24, 0.004116039, 0.10836483, -1186906.1, -60885.227, 0.0, 9.99994, 9.999117 
8.4504765e+2, 1.950981e+2, -1036080.4, -1135958.8, -12898.532, 0.08389336, -0.050286897, -1034441.5, -6402.4175, 0.0, 10.000352, 9.999067 
8.450489e+2, 2.0509711e+2, -903794.25, -1032188.94, 9979.008, 0.050087366, -0.0454506, -903023.3, 27025.121, 0.0, 10.000644, 9.998962 
8.45049e+2, 2.1509686e+2, -797613.3, -935065.7, -20535.504, -0.09231288, 0.002730793, -794610.9, 37441.71, 0.0, 10.00072, 9.99892 
8.4505093e+2, 2.2509643e+2, -678433.94, -823156.44, 13389.11, -0.09366386, 0.07232137, -677205.6, 56851.12, 0.0, 10.000849, 9.998953 
8.450544e+2, 2.350956e+2, -564304.3, -720703.3, -3061.846, 0.037211105, 0.062303066, -564244.4, 71818.664, 0.0, 10.00098, 9.998919 
8.4505683e+2, 2.4509408e+2, -457602.9, -686773.75, 20911.47, 0.05700535, 0.053621672, -455710.38, 82366.58, 0.0, 10.001316, 9.998325 
8.450584e+2, 2.5509143e+2, -292808.7, -557721.25, 3519.2134, -0.023508986, -0.078961864, -292761.94, 147340.67, 0.0, 10.00179, 9.998304 
8.4506035e+2, 2.6509014e+2, -198482.22, -399708.84, -12311.221, -0.024630327, -0.059323475, -197731.81, 144383.72, 0.0, 10.001495, 9.998858 
8.450627e+2, 2.750898e+2, -250755.05, -379442.7, -27004.982, 0.057564527, -0.011284054, -245317.81, -1198.0625, 0.0000000050987805, 10.000475, 9.998823 
8.450641e+2, 2.8508884e+2, -139839.66, -334293.13, -5182.491, 0.03200173, 0.043709673, -139701.64, 6428.265, 0.0000017149706, 10.000826, 9.998276 
8.450645e+2, 2.9508683e+2, 186286.1, -129580.66, -26167.926, -0.09206304, -0.03500958, 188439.3, 236589.53, 0.0000255943, 10.002403, 9.998243 
8.450679e+2, 3.050851e+2, 204660.52, -177239.14, 68630.29, -0.022166088, 0.013084003, 216619.42, 216619.42, 0.000114914044, 10.00256, 9.997526 
8.450708e+2, 3.1508404e+2, 97213.18, -41168.258, 63333.28, -0.064824075, 0.108829685, 121822.56, 121822.56, 0.00028702893, 10.000897, 9.999263 
8.550342e+2, 1.2509902e+2, -1935353.3, -1900632.1, -9432.257, -0.09581225, -0.08814246, -1898235.3, -184213.23, 0.0, 9.998739, 9.999317 
8.550375e+2, 1.3509947e+2, -1602012.3, -1690069.9, 69284.45, -0.052270707, -0.0026729496, -1563950.5, 52073.867, 0.0, 10.000449, 9.999254 
8.5504013e+2, 1.4509922e+2, -1450461.6, -1538669.4, -26051.396, 0.022145662, 0.044566143, -1443342.1, 74687.45, 0.0, 10.000636, 9.999535 
8.550405e+2, 1.5509944e+2, -1485416.1, -1500692.5, -11205.831, -0.05300813, 0.069729045, -1479492.9, -59466.074, 0.0, 9.999726, 9.999554 
8.550416e+2, 1.6509913e+2, -1460943.3, -1470753.5, -18124.475, -0.066280775, 0.10517393, -1447071.9, -125041.07, 0.0, 9.9993725, 9.999261 
8.5504377e+2, 1.7509787e+2, -1333209.1, -1355225.4, -13345.27, -0.016241437, 0.019438429, -1326917.8, -102871.984, 0.0, 9.999568, 9.999283 
8.5504574e+2, 1.8509746e+2, -1168127.6, -1188421.8, -16649.06, 0.006099261, 0.03709435, -1158777.1, -32727.824, 0.0, 9.999843, 9.999627 
8.5504746e+2, 1.9509749e+2, -1011747.1, -1065573.4, 17614.805, -0.0070417537, 0.0450108, -1006495.1, 21550.037, 0.0, 10.0002575, 9.999598 
8.550493e+2, 2.050968e+2, -956585.25, -1104332.0, -5369.308, 0.0018730053, 0.07583468, -956390.4, -26339.752, 0.0, 10.00048, 9.998552 
8.5505116e+2, 2.1509495e+2, -853863.94, -1000883.8, -1262.884, 0.020518957, 0.0017669663, -853853.06, -21783.287, 0.0, 10.000504, 9.998572 
8.5505277e+2, 2.2509332e+2, -706978.44, -834389.94, 1658.6285, -0.015210235, -0.034137163, -706956.8, 27127.555, 0.0, 10.000635, 9.998983 
8.5505426e+2, 2.3509161e+2, -588609.25, -728619.75, 20283.195, -0.10333075, -0.13615036, -585730.06, 50367.152, 0.0, 10.000791, 9.998959 
8.5505676e+2, 2.4509068e+2, -488767.38, -706919.1, 22291.344, -0.10893939, -0.083981045, -486512.9, 51593.023, 0.0, 10.00113, 9.998276 
8.5506034e+2, 2.5508997e+2, -325496.72, -579097.56, 37493.258, -0.0351121, -0.017893923, -320069.7, 120046.016, 0.0, 10.00159, 9.998255 
8.550622e+2, 2.650887e+2, -216564.3, -404988.25, -68186.92, -0.01849252, 0.0048116934, -194477.72, 147651.69, 0.0, 10.001354, 9.998897 
8.550622e+2, 2.7508667e+2, -266838.66, -384816.25, -43632.67, -0.07468918, -0.12331832, -252455.19, -8305.804, 0.0000001292932, 10.000358, 9.998845 
8.5506415e+2, 2.8508595e+2, -155341.84, -349939.1, 41900.67, -0.081347, -0.04160856, -146703.28, -546.134, 0.0000031613251, 10.000752, 9.998204 
8.5506785e+2, 2.950858e+2, 164877.13, -151930.11, 53642.617, -0.045394182, 0.07572163, 173713.58, 221873.92, 0.000030116835, 10.0022955, 9.998147 
8.550704e+2, 3.050838e+2, 226381.02, -93350.18, -3104.119, -0.050418995, 0.07066905, 226411.14, 226411.14, 0.00012742863, 10.002425, 9.998156 
8.5507053e+2, 3.1508136e+2, 77365.11, -32955.29, 70230.2, -0.26020107, -0.026836444, 111507.37, 111507.37, 0.00031382052, 10.000711, 9.999404 
8.6503386e+2, 1.2509629e+2, -1779224.8, -1803458.4, 1324.3337, -0.029038958, -0.13679206, -1779152.6, -65103.234, 0.00000000000000000000885557, 9.999706, 9.99952 
8.650373e+2, 1.3509715e+2, -1791209.0, -1760898.3, 20469.178, -0.037630476, -0.03663, -1750584.5, -134538.27, 0.0, 9.999023, 9.999475 
8.6504024e+2, 1.4509724e+2, -1707189.9, -1656308.1, -41834.477, 0.061144575, 0.029644286, -1632786.1, -114737.88, 0.0, 9.998853, 9.999582 
8.650405e+2, 1.5509753e+2, -1512765.3, -1522038.5, -51779.715, -0.006343707, 0.061799727, -1465415.0, -45368.86, 0.0, 9.999554, 9.999504 
8.650417e+2, 1.6509706e+2, -1384504.1, -1448946.8, 4267.347, -0.018015265, 0.09009428, -1384222.8, -62170.957, 0.0, 9.999959, 9.999122 
8.6504394e+2, 1.7509551e+2, -1265587.4, -1343716.6, -10558.492, 0.026056547, -0.0088020405, -1264185.6, -40117.355, 0.0, 10.00011, 9.999102 
8.650461e+2, 1.8509503e+2, -1127723.4, -1176093.5, 1970.3185, 0.050069902, 0.014751679, -1127643.3, -1571.1216, 0.0, 10.000174, 9.999542 
8.650481e+2, 1.9509527e+2, -1036645.7, -1089014.1, -39975.93, 0.042516686, 0.054750893, -1015042.0, 13024.625, 0.0, 10.0001545, 9.999479 
8.6505026e+2, 2.0509447e+2, -965075.94, -1124115.3, -41022.516, 0.053883586, 0.08759236, -955118.06, -25044.533, 0.0, 10.000493, 9.998404 
8.6505234e+2, 2.1509223e+2, -783921.4, -990945.5, -56036.3, 0.07156067, -0.01210608, -769727.0, 62369.742, 0.0, 10.001077, 9.998367 
8.65054e+2, 2.2509038e+2, -621914.1, -808252.94, -31410.465, 0.01928866, -0.05055038, -616761.8, 117352.09, 0.0, 10.001305, 9.998834 
8.6505526e+2, 2.3508868e+2, -537512.6, -720570.0, -63444.918, -0.09723972, -0.13566275, -517673.63, 118454.07, 0.0, 10.001225, 9.9988 
8.6505777e+2, 2.4508795e+2, -501219.16, -668039.4, -24978.705, -0.10364266, -0.075656645, -497559.28, 40575.28, 0.0, 10.000857, 9.998669 
8.6506146e+2, 2.550877e+2, -493117.7, -617824.9, -10528.347, -0.0053890143, 0.00034697325, -492235.1, -52095.94, 0.0, 10.000261, 9.99863 
8.6506325e+2, 2.6508674e+2, -338399.22, -472821.47, -61365.117, -0.0013014348, 0.03629304, -314599.28, 27551.12, 0.0000000005766255, 10.000571, 9.998798 
8.650631e+2, 2.7508464e+2, -63461.953, -298695.0, -89001.27, -0.0855385, -0.08062346, -33583.14, 210588.19, 0.000000514823, 10.001814, 9.99873 
8.6506546e+2, 2.8508377e+2, 41511.914, -239684.44, 42710.55, -0.083550856, -0.015577738, 47856.035, 194036.2, 0.0000054394536, 10.002046, 9.998347 
8.650702e+2, 2.950835e+2, 24906.959, -198496.61, 35470.402, 0.02187095, 0.07771664, 30403.46, 78586.055, 0.000035908153, 10.001257, 9.998333 
8.6507255e+2, 3.0508143e+2, 83686.9, -169994.78, -23498.232, -0.014803709, 0.05764865, 85845.15, 85845.15, 0.00014009468, 10.001455, 9.998099 
8.650727e+2, 3.150794e+2, 257237.33, 38892.98, -54485.83, -0.16663972, 0.0019067524, 270078.56, 270078.56, 0.00033844914, 10.002037, 9.999244 
8.7503463e+2, 1.2509398e+2, -1748360.6, -1735756.9, -57065.047, -0.0067732837, -0.06904228, -1684646.8, 29429.477, 0.0000000055054987, 9.999688, 9.99999 
8.750362e+2, 1.350945e+2, -1760130.5, -1681808.1, 8278.53, -0.08652742, -0.059267063, -1680942.6, -64870.92, 0.0, 9.998981, 10.000024 
8.750386e+2, 1.450943e+2, -1706573.1, -1653409.1, -36202.36, -0.02618606, -0.04952232, -1635077.8, -117003.125, 0.0, 9.9988365, 9.999614 
8.7504005e+2, 1.5509413e+2, -1509115.6, -1505820.5, -9338.156, -0.038889494, -0.07463042, -1497985.6, -77907.91, 0.0, 9.999526, 9.999622 
8.750416e+2, 1.6509402e+2, -1384226.3, -1441007.1, -8281.724, -0.05444028, -0.020214159, -1383043.0, -60963.555, 0.0, 9.999914, 9.999205 
8.750436e+2, 1.7509389e+2, -1266131.0, -1337251.9, 9957.265, -0.05515711, 0.013848797, -1264763.3, -40682.17, 0.0, 10.0000725, 9.999165 
8.750461e+2, 1.850932e+2, -1191852.0, -1289423.3, -14747.28, -0.00030054603, 0.05442482, -1189671.8, -63584.496, 0.0, 10.000089, 9.998806 
8.7504905e+2, 1.9509149e+2, -1104583.3, -1196251.6, -22074.7, 0.09395327, -0.03125541, -1099544.4, -71441.41, 0.0, 10.000014, 9.998807 
8.7505114e+2, 2.0509018e+2, -988460.9, -1132456.8, -33826.535, 0.06945772, -0.019821284, -980910.44, -50793.97, 0.0, 10.000314, 9.998436 
8.750522e+2, 2.1508892e+2, -810979.9, -1001138.8, -19417.498, -0.078088224, -0.021968056, -809017.4, 23113.51, 0.0, 10.000875, 9.998395 
8.750541e+2, 2.250879e+2, -682357.3, -886370.6, -51327.605, -0.12216287, 0.043453295, -670171.7, 63970.793, 0.0, 10.001095, 9.998401 
8.7505686e+2, 2.3508677e+2, -600617.25, -797127.75, -48109.574, -0.07879436, 0.056404676, -589471.3, 46683.367, 0.0, 10.000989, 9.998388 
8.750593e+2, 2.4508579e+2, -465476.72, -559064.8, -63338.813, -0.061443064, 0.07045607, -433521.25, 104642.266, 0.0, 10.000694, 9.999499 
8.750613e+2, 2.550847e+2, -458928.06, -509464.56, -13711.644, -0.081645876, -0.022232905, -455447.53, -15275.523, 0.0, 10.000098, 9.999451 
8.7506306e+2, 2.6508424e+2, -371781.03, -529546.9, -30219.057, -0.10777118, 0.04188046, -366190.84, -24013.172, 0.0000000691861, 10.000503, 9.998447 
8.7506473e+2, 2.7508384e+2, -107027.22, -356626.47, -23334.883, -0.1364916, 0.12167015, -104864.4, 139321.1, 0.000001269736, 10.001669, 9.998402 
8.750676e+2, 2.8508252e+2, 56613.695, -191250.64, -2217.015, -0.110039, 0.14137742, 56633.523, 202830.9, 0.000008255043, 10.001965, 9.998726 
8.750713e+2, 2.9507983e+2, 40466.688, -149791.34, 30134.64, -0.04331609, -0.042504694, 45125.58, 93343.78, 0.000042714033, 10.001177, 9.998712 
8.7507397e+2, 3.0507797e+2, 22738.799, -275631.06, -7843.9995, -0.05142502, -0.027808405, 22944.871, 22944.871, 0.00015288098, 10.001369, 9.997411 
8.750764e+2, 3.1507623e+2, 189494.94, -82286.56, 6229.039, -0.085465595, 0.021495113, 189637.64, 189637.64, 0.00035815634, 10.001938, 9.998465 
8.850351e+2, 1.2509254e+2, -1698246.8, -1680651.4, 14070.541, 0.0821891, 0.034154035, -1672854.5, 41241.23, 0.00000006865043, 9.9999075, 10.000267 
8.8503623e+2, 1.3509248e+2, -1610360.9, -1590986.1, -20504.742, -0.01094373, -0.028418329, -1577995.5, 38098.523, 0.0, 9.999924, 10.000201 
8.850384e+2, 1.4509214e+2, -1576339.1, -1587262.6, -8138.5176, 0.02931707, -0.04075364, -1571999.5, -53902.426, 0.0, 9.99975, 9.999612 
8.850397e+2, 1.55092e+2, -1461275.1, -1484224.8, -27787.209, -0.038123008, -0.0594891, -1442686.6, -22586.807, 0.0, 9.999882, 9.999585 
8.850417e+2, 1.650918e+2, -1343207.6, -1420937.8, -1515.189, -0.04457756, -0.014282785, -1343178.1, -21076.168, 0.0, 10.000203, 9.999199 
8.850445e+2, 1.7509146e+2, -1179440.8, -1297837.9, -24340.955, 0.0086506875, 0.0038222496, -1174631.9, 49472.13, 0.0, 10.000681, 9.999144 
8.8504714e+2, 1.8509056e+2, -1095527.3, -1274001.0, -18668.656, 0.06374668, 0.037747256, -1093595.4, 32517.197, 0.0, 10.00088, 9.998529 
8.850495e+2, 1.9508858e+2, -1009575.4, -1184180.4, -28485.408, 0.10600587, -0.047830135, -1005045.7, 23087.07, 0.0, 10.000807, 9.998509 
8.8505137e+2, 2.0508729e+2, -918105.56, -1073001.9, 24561.555, 0.055177175, -0.02940437, -914304.2, 15842.222, 0.0, 10.000688, 9.998665 
8.850528e+2, 2.1508646e+2, -845688.3, -994109.7, 24288.904, -0.08074369, -0.01112257, -841814.56, -9658.3125, 0.0, 10.000535, 9.998613 
8.850552e+2, 2.2508582e+2, -743864.4, -890002.56, 50617.188, -0.09222514, 0.07200355, -728044.8, 6118.807, 0.0, 10.000553, 9.9986315 
8.850585e+2, 2.3508506e+2, -622524.6, -787189.2, 64859.387, 0.008466165, 0.0979468, -600045.9, 36126.465, 0.0, 10.000735, 9.998579 
8.8506067e+2, 2.4508409e+2, -461847.4, -582444.25, 58112.63, 0.006244382, 0.11410895, -438402.3, 99779.484, 0.0, 10.000834, 9.999262 
8.8506144e+2, 2.5508252e+2, -347870.28, -484464.5, -7146.5815, -0.1074284, -0.0064950557, -347497.38, 92698.56, 0.00000000006372724, 10.000962, 9.999206 
8.850635e+2, 2.6508185e+2, -314841.44, -505085.94, 11082.351, -0.12791874, 0.05421574, -314198.03, 28005.31, 0.00000025387644, 10.000913, 9.998412 
8.8506675e+2, 2.7508166e+2, -234493.52, -419586.63, 2630.9534, -0.04753311, 0.15899709, -234456.13, 9752.249, 0.0000021793016, 10.0008, 9.998384 
8.850698e+2, 2.850803e+2, -93602.03, -242621.58, 37350.695, -0.020420203, 0.16529925, -84764.45, 61455.617, 0.000011106664, 10.000862, 9.998882 
8.8507235e+2, 2.950774e+2, 48957.18, -128711.055, 14992.549, -0.045629177, -0.052680474, 50213.445, 98455.76, 0.000049522223, 10.001171, 9.998849 
8.850753e+2, 3.050757e+2, 50537.77, -266681.16, 53285.49, -0.05832678, -0.02692566, 59249.27, 59249.27, 0.00016467013, 10.001573, 9.997383 
8.850798e+2, 3.150745e+2, 146855.33, -86260.336, 42836.535, 0.08267191, 0.07878916, 154477.6, 154477.6, 0.00037312726, 10.001575, 9.998623 
8.950344e+2, 1.250919e+2, -1711487.8, -1685586.4, -23533.086, -0.063329384, 0.17295854, -1671675.9, 42432.176, 0.00000033567557, 9.999834, 10.000256 
8.9503706e+2, 1.3509144e+2, -1620048.0, -1605447.3, -11660.848, 0.042400077, 0.08199282, -1598990.0, 17120.158, 0.00000000007521531, 9.999911, 10.0001 
8.9503884e+2, 1.4509118e+2, -1589602.8, -1606857.1, -24399.21, 0.050880365, 0.08593949, -1572350.4, -54238.55, 0.0, 9.999717, 9.999495 
8.9503884e+2, 1.5509136e+2, -1477575.0, -1508587.1, -1838.5577, -0.14796214, 0.11508982, -1477466.5, -57356.055, 0.0, 9.999845, 9.999434 
8.9504135e+2, 1.6509046e+2, -1362737.5, -1449326.9, -1536.4923, -0.13972934, 0.10904667, -1362710.3, -40592.11, 0.0, 10.000153, 9.999026 
8.950463e+2, 1.7508829e+2, -1201624.0, -1321454.8, 11370.849, 0.0839885, -0.044315655, -1200554.5, 23582.256, 0.0, 10.000593, 9.999019 
8.9504874e+2, 1.8508719e+2, -1102837.1, -1264655.9, -38395.156, 0.10727743, -0.03262292, -1094189.1, 31958.145, 0.0, 10.000764, 9.998653 
8.950489e+2, 1.9508669e+2, -1027172.56, -1177958.9, -16687.246, -0.0710788, 0.019694295, -1025347.94, 2806.1692, 0.0, 10.000626, 9.998636 
8.950505e+2, 2.0508601e+2, -912172.25, -1022329.56, 2030.1293, -0.13091989, 0.07073048, -912134.8, 18026.61, 0.0, 10.000515, 9.9991 
8.9505357e+2, 2.1508482e+2, -844861.56, -940280.56, 37678.97, -0.078812964, 0.009177876, -831777.1, 395.62012, 0.0, 10.000316, 9.999085 
8.950568e+2, 2.250842e+2, -717885.1, -791100.5, 42081.824, -0.022146553, 0.02955988, -698716.5, 35460.88, 0.0, 10.000347, 9.999417 
8.950597e+2, 2.350838e+2, -596179.6, -683188.0, 86901.766, 0.021586295, 0.010608499, -542500.8, 93678.07, 0.0, 10.000522, 9.999397 
8.950613e+2, 2.4508296e+2, -574032.2, -779891.4, 44381.16, -0.04159405, 0.06369503, -564871.7, -26683.412, 0.0, 10.000677, 9.997988 
8.950617e+2, 2.5508127e+2, -468025.1, -684815.3, 14602.36, -0.21819654, 0.05975922, -467045.94, -26836.215, 0.0000000002378373, 10.0007515, 9.997936 
8.950641e+2, 2.6507986e+2, -310688.0, -469618.4, -7506.57, -0.19154382, 0.09297066, -310334.25, 31890.848, 0.00000030747992, 10.000797, 9.998712 
8.950687e+2, 2.750783e+2, -238397.88, -395314.38, 21348.904, 0.03127137, 0.03811778, -235545.16, 8693.721, 0.0000026197797, 10.000668, 9.998615 
8.950715e+2, 2.8507712e+2, -109188.47, -268182.6, 32549.012, 0.03392327, 0.05731572, -102783.14, 43465.727, 0.000013171274, 10.000818, 9.998733 
8.950727e+2, 2.9507604e+2, 24558.84, -153960.08, 46222.926, -0.1744809, 0.032947034, 35817.09, 84074.31, 0.000055655084, 10.001049, 9.998737 
8.950759e+2, 3.050746e+2, 71801.03, -178633.27, 41911.996, -0.17670918, 0.055741202, 78629.14, 78629.14, 0.00017580122, 10.001414, 9.998053 
8.950816e+2, 3.1507233e+2, 190436.95, 72245.31, 70200.266, 0.041342594, -0.013072419, 223103.84, 223103.84, 0.00038747952, 10.001323, 9.999814 
9.050344e+2, 1.250897e+2, -1792930.3, -1752299.4, 30310.129, 0.0039380207, 0.15655811, -1736126.3, -21996.518, 0.0000010657902, 9.99934, 10.0000515 
9.0503705e+2, 1.3508944e+2, -1651142.5, -1656209.6, -32671.518, 0.069707505, 0.1123054, -1620906.5, -4774.4756, 0.000000007369457, 9.999831, 9.999792 
9.050389e+2, 1.4508931e+2, -1544096.6, -1576517.3, -8873.659, 0.08718518, 0.13862115, -1541826.8, -23694.092, 0.0, 9.99996, 9.999595 
9.0503937e+2, 1.550893e+2, -1452406.0, -1487106.8, -7734.4976, -0.07528106, 0.13554233, -1450760.1, -30628.098, 0.0, 9.999947, 9.999546 
9.050421e+2, 1.6508837e+2, -1382994.9, -1468188.4, 55800.266, -0.0609502, 0.12489986, -1355390.8, -33250.91, 0.0, 10.00005, 9.998958 
9.050472e+2, 1.7508613e+2, -1251880.3, -1352400.3, 35152.023, 0.14092189, -0.027052563, -1240807.3, -16647.578, 0.0, 10.000273, 9.998964 
9.050495e+2, 1.8508512e+2, -1172275.0, -1269365.6, 2977.5032, 0.14339742, -0.017776188, -1172183.8, -46014.36, 0.0, 10.000152, 9.998919 
9.050491e+2, 1.950849e+2, -1139209.9, -1209433.4, 5271.158, -0.061650872, 0.036846712, -1138816.5, -110643.234, 0.0, 9.9997225, 9.998871 
9.050508e+2, 2.0508447e+2, -986791.6, -1027613.1, 75346.61, -0.10898165, 0.08912431, -929140.1, 1037.248, 0.0, 9.999885, 9.999355 
9.050547e+2, 2.1508344e+2, -777475.44, -881833.56, 56110.87, -0.009116534, 0.019089954, -753031.5, 79154.47, 0.0, 10.000666, 9.999314 
9.050578e+2, 2.2508265e+2, -646102.5, -773287.4, 38723.07, 0.029278683, 0.01890033, -635240.44, 98951.445, 0.0, 10.000933, 9.999253 
9.0506e+2, 2.3508178e+2, -569098.75, -691227.1, -20755.863, -0.0032565042, -0.025670147, -565667.6, 70530.805, 0.0, 10.000808, 9.999207 
9.0506184e+2, 2.4508089e+2, -570314.25, -783962.2, -20698.986, -0.05317328, 0.035814013, -568327.3, -30118.678, 0.0, 10.00074, 9.99792 
9.050633e+2, 2.5507966e+2, -470547.06, -690145.75, 2605.604, -0.119324766, 0.084504835, -470516.16, -30290.475, 0.0, 10.00077, 9.997881 
9.0506583e+2, 2.6507813e+2, -288581.6, -451867.97, 51238.707, -0.094627306, 0.10472579, -273834.84, 68406.63, 0.0000002007212, 10.000938, 9.998763 
9.0506953e+2, 2.7507582e+2, -147127.97, -339923.84, 28080.232, 0.024477072, -0.031154158, -143121.4, 101139.06, 0.0000025589381, 10.001264, 9.9987 
9.050723e+2, 2.8507453e+2, -81140.13, -290905.3, 59219.855, 0.0149523225, -0.010146845, -65576.266, 80695.53, 0.000014749117, 10.001156, 9.998428 
9.050741e+2, 2.9507408e+2, -66085.875, -224273.52, 24105.676, -0.100114584, 0.059555966, -62494.05, -14217.325, 0.00006245814, 10.000552, 9.998496 
9.0507793e+2, 3.0507246e+2, 2493.299, -180838.5, 60366.87, -0.07034462, 0.058934644, 20585.297, 20585.297, 0.00018874744, 10.000785, 9.998357 
9.050831e+2, 3.1507018e+2, 218584.72, 107443.31, -13474.071, 0.076294884, -0.029039228, 220194.9, 220194.9, 0.0004049675, 10.00137, 10.00007 
9.150341e+2, 1.250863e+2, -1820072.4, -1796910.8, -3600.6274, -0.03699201, 0.0061319475, -1796363.9, -82205.98, 0.000002613721, 9.999318, 9.999746 
9.1503584e+2, 1.3508648e+2, -1685701.0, -1719145.5, -2251.878, -0.07665984, 0.049312904, -1685550.1, -69390.4, 0.00000007607973, 9.9998045, 9.999368 
9.1503817e+2, 1.4508635e+2, -1530454.4, -1531504.8, -31103.24, -0.029601473, 0.08257129, -1499871.9, 18289.83, 0.0, 9.999891, 9.999935 
9.150407e+2, 1.5508601e+2, -1431691.1, -1435116.9, 9375.196, 0.02318948, 0.011158784, -1423873.6, -3710.2983, 0.0, 9.999916, 9.999913 
9.150435e+2, 1.650858e+2, -1387115.4, -1472667.9, 44110.797, 0.03596126, 0.05441123, -1368446.0, -46281.297, 0.0, 10.000028, 9.998939 
9.150467e+2, 1.7508526e+2, -1260734.3, -1360254.5, 60313.12, 0.031507596, 0.075151436, -1232304.0, -8133.9404, 0.0, 10.000225, 9.998934 
9.150488e+2, 1.8508454e+2, -1155654.0, -1214419.8, -29084.613, 0.020872543, 0.09248737, -1143693.5, -17516.336, 0.0, 10.00006, 9.999342 
9.150496e+2, 1.9508329e+2, -1135078.6, -1161499.3, 7076.605, -0.006988048, 0.0045663654, -1133302.6, -105113.47, 0.0, 9.999558, 9.999277 
9.1505194e+2, 2.0508279e+2, -1015193.56, -1045494.7, 89222.45, -0.021191007, 0.030846518, -939844.5, -9651.413, 0.0, 9.999705, 9.999318 
9.1505563e+2, 2.1508256e+2, -814342.56, -905326.94, 99605.21, -0.015522848, 0.04168143, -750332.5, 81861.086, 0.0, 10.000443, 9.999257 
9.150579e+2, 2.2508135e+2, -749714.56, -951226.9, 15334.515, -0.07911089, 0.060589325, -748554.3, -14348.842, 0.0, 10.000758, 9.998123 
9.1505903e+2, 2.35079e+2, -678161.4, -869402.5, -6956.412, -0.20861769, -0.018264996, -677908.7, -41677.86, 0.0, 10.000597, 9.998084 
9.150617e+2, 2.4507801e+2, -518530.06, -638972.94, -34931.836, -0.16962567, 0.032685257, -509132.16, 29109.25, 0.0, 10.000571, 9.999 
9.1506594e+2, 2.5507784e+2, -419195.72, -549532.6, 21288.215, 0.03428177, 0.082070746, -415806.78, 24435.621, 0.0, 10.000614, 9.998926 
9.1506815e+2, 2.650767e+2, -314413.0, -480264.0, 46892.31, 0.016780052, 0.09585127, -302072.94, 40179.08, 0.00000011562638, 10.000834, 9.998615 
9.1506875e+2, 2.7507415e+2, -177116.53, -368472.7, 59698.49, -0.21641096, -0.049021456, -160019.6, 84254.11, 0.0000025826089, 10.001121, 9.998574 
9.150714e+2, 2.8507257e+2, -125054.6, -355871.66, 19104.764, -0.21672195, -0.03330742, -123483.984, 22804.752, 0.000017159802, 10.001051, 9.998029 
9.150762e+2, 2.9507163e+2, -114536.414, -301726.0, 24699.895, 0.007625121, 0.028587248, -111332.086, -63032.47, 0.00007135739, 10.000457, 9.998009 
9.150807e+2, 3.050692e+2, -20683.332, -205899.2, 74046.23, 0.10124027, -0.01507394, 5279.6973, 5279.6973, 0.00020564985, 10.000695, 9.998217 
9.1508317e+2, 3.1506816e+2, 163592.42, 52093.56, 67101.51, -0.1309087, 0.020312456, 195081.81, 195081.81, 0.00042848263, 10.001147, 9.999776 
9.25034e+2, 1.2508364e+2, -1765082.0, -1760358.8, 15720.326, 0.020235008, -0.031370763, -1746823.6, -32640.354, 0.0000053718704, 9.999642, 9.999854 
9.250358e+2, 1.3508421e+2, -1711875.1, -1718839.4, 480.67072, -0.035280664, 0.038608987, -1711842.1, -95661.125, 0.00000033393198, 9.99956, 9.999511 
9.2503816e+2, 1.4508402e+2, -1596714.9, -1584566.6, 16994.906, 0.011266663, 0.06957174, -1572593.0, -54408.652, 0.0, 9.9995365, 9.999739 
9.2504096e+2, 1.5508358e+2, -1437582.4, -1463134.9, -24723.955, 0.06831433, 0.008239544, -1422528.6, -2340.0496, 0.0, 9.9999895, 9.9996805 
9.250438e+2, 1.6508354e+2, -1334019.4, -1406294.4, 36797.203, 0.07331707, 0.061435007, -1318582.1, 3606.3237, 0.0, 10.000212, 9.9993 
9.250468e+2, 1.7508359e+2, -1233129.9, -1310091.4, 44710.082, 0.029831218, 0.10466607, -1212621.1, 11566.089, 0.0, 10.000251, 9.999269 
9.2504895e+2, 1.8508306e+2, -1130129.1, -1209202.8, -31764.08, 0.032840367, 0.13203283, -1118949.9, 7242.4004, 0.0, 10.000281, 9.999267 
9.2505026e+2, 1.9508162e+2, -1040629.94, -1120736.1, -70151.13, 0.07431067, 0.028299686, -999902.9, 28304.346, 0.0, 10.000239, 9.999222 
9.2505276e+2, 2.05081e+2, -942724.94, -1029670.1, 49178.22, 0.06659236, 0.05220453, -920559.4, 9653.441, 0.0, 10.000284, 9.999155 
9.250563e+2, 2.1508077e+2, -816218.8, -922343.8, 24626.254, 0.018151103, 0.084543705, -810782.75, 21430.26, 0.0, 10.000494, 9.999121 
9.250588e+2, 2.250795e+2, -781496.94, -972879.25, -12448.739, -0.04862619, 0.10564335, -780690.56, -46464.883, 0.0, 10.000564, 9.998064 
9.2506015e+2, 2.3507698e+2, -702037.06, -891267.3, 6545.68, -0.13701002, 0.014783407, -701810.94, -65557.8, 0.0, 10.000462, 9.998003 
9.25063e+2, 2.4507587e+2, -491483.38, -590791.9, 37229.145, -0.09116208, 0.042135105, -479076.75, 59187.176, 0.0, 10.000607, 9.999322 
9.250671e+2, 2.5507572e+2, -327599.75, -466924.34, 2140.7463, 0.08414548, 0.06166628, -327566.88, 112695.555, 0.0, 10.001084, 9.99927 
9.250694e+2, 2.650746e+2, -281209.9, -487118.7, 21888.89, 0.04505438, 0.07603264, -278908.75, 63361.992, 0.00000007319143, 10.001128, 9.998439 
9.250698e+2, 2.7507222e+2, -244814.72, -421310.75, 2129.1025, -0.1832342, -0.04440782, -244789.05, -496.25763, 0.0000027897247, 10.0007105, 9.998417 
9.250727e+2, 2.8507057e+2, -125823.59, -373355.97, 22738.898, -0.18050626, -0.016883131, -123752.08, 22556.46, 0.000020180585, 10.001123, 9.997868 
9.25078e+2, 2.9506943e+2, 155129.56, -191381.2, 6014.306, 0.056706592, 0.043429088, 155233.92, 203554.55, 0.00008285034, 10.002383, 9.997836 
9.2508274e+2, 3.050666e+2, 201361.86, -119531.19, 67046.6, 0.16748396, -0.02844418, 214807.06, 214807.06, 0.0002292469, 10.002271, 9.99806 
9.250847e+2, 3.1506506e+2, 24481.49, -81717.61, 13077.505, -0.03836622, -0.02419295, 26068.166, 26068.166, 0.0004645645, 10.000436, 9.999208 
9.35033e+2, 1.2508151e+2, -1735490.6, -1667592.5, -36459.918, -0.12179381, 0.01586832, -1651723.3, 62484.992, 0.000009857008, 9.999538, 10.00053 
9.350363e+2, 1.3508286e+2, -1654513.0, -1598939.4, 9656.244, 0.03388448, 0.07919935, -1597309.4, 18884.59, 0.0000009955157, 9.999581, 10.000311 
9.3503845e+2, 1.4508255e+2, -1654555.6, -1710119.8, 14335.971, 0.042592306, 0.106054276, -1651074.9, -132876.5, 0.00000000002439963, 9.999558, 9.998872 
9.3503994e+2, 1.5508202e+2, -1500554.3, -1581879.0, 9125.096, -0.079703726, 0.12097271, -1499543.0, -79335.3, 0.0, 9.999941, 9.998889 
9.3504286e+2, 1.6508162e+2, -1289125.5, -1299170.3, 17622.537, -0.087824546, 0.13769704, -1275823.6, 46387.477, 0.0, 10.000145, 10.0000725 
9.350471e+2, 1.750812e+2, -1184860.8, -1202890.5, 63238.81, -0.0014205071, 0.057039175, -1129997.5, 94213.07, 0.0, 10.000216, 10.000026 
9.350496e+2, 1.8508083e+2, -1189634.6, -1312030.1, -47205.88, 0.03598407, 0.095747314, -1173543.6, -47329.664, 0.0, 10.000194, 9.998607 
9.350504e+2, 1.9507995e+2, -1107056.4, -1228179.1, -56345.99, 0.030827487, 0.116450414, -1084898.1, -56671.484, 0.0, 10.00011, 9.99855 
9.3505275e+2, 2.0507915e+2, -975120.8, -1064999.1, 40259.453, 0.008907813, 0.16509184, -959724.6, -29489.037, 0.0, 10.000139, 9.998983 
9.3505645e+2, 2.1507813e+2, -857200.0, -966311.06, 50232.59, -0.039101694, 0.13616762, -837596.1, -5352.4307, 0.0, 10.000305, 9.998916 
9.3505996e+2, 2.2507712e+2, -749309.8, -855368.3, -31680.227, -0.01613715, 0.14716072, -740567.44, -6315.173, 0.0, 10.000345, 9.998977 
9.35063e+2, 2.3507573e+2, -669242.06, -773620.75, 18089.191, 0.07067735, 0.07656259, -666196.06, -29930.977, 0.0, 10.000247, 9.998917 
9.350652e+2, 2.450745e+2, -545980.2, -664881.0, 37634.09, 0.03558993, 0.06944797, -535069.56, 3205.936, 0.0, 10.000438, 9.998896 
9.350666e+2, 2.550731e+2, -384390.5, -546434.0, 38114.49, -0.11377991, 0.009129123, -375873.22, 64413.67, 0.0, 10.00091, 9.998816 
9.35069e+2, 2.650718e+2, -311465.7, -511297.5, -6842.5923, -0.13366693, 0.028440174, -311231.66, 31067.15, 0.00000003612581, 10.000972, 9.9983425 
9.350724e+2, 2.750701e+2, -279533.38, -453287.16, 8035.7954, -0.029565023, -0.0069585633, -279162.5, -34846.516, 0.0000027030533, 10.000552, 9.998268 
9.350758e+2, 2.8506872e+2, -133310.7, -372876.3, 55555.902, -0.025384808, 0.05401427, -121054.21, 25274.744, 0.000022488803, 10.001043, 9.997912 
9.3507904e+2, 2.9506758e+2, 143287.0, -194964.13, 76949.15, -0.1270462, 0.100828424, 159969.47, 208308.45, 0.00009525127, 10.002285, 9.997861 
9.350835e+2, 3.0506456e+2, 176327.66, -148689.83, -11545.258, -0.017572725, 0.0202652, 176737.25, 176737.25, 0.00025879213, 10.002188, 9.997896 
9.350867e+2, 3.1506196e+2, -52030.53, -196669.48, 20459.744, 0.048389126, -0.06848224, -49192.125, -49192.125, 0.0005142612, 10.000266, 9.998495 
9.450327e+2, 1.2507975e+2, -1838357.0, -1697330.4, 20958.594, -0.044111915, 0.090673335, -1694281.5, 19947.424, 0.000016753027, 9.99872, 10.000727 
9.450363e+2, 1.350809e+2, -1660014.0, -1586910.5, -36515.316, 0.09184432, 0.11703462, -1571796.0, 44418.555, 0.000002343361, 9.999462, 10.000452 
9.4503874e+2, 1.4508034e+2, -1606433.9, -1704140.4, 19680.414, 0.1028787, 0.11540887, -1602618.8, -84398.17, 0.0000000053592455, 9.9999485, 9.998732 
9.450404e+2, 1.5507962e+2, -1424088.1, -1572493.8, 26049.863, -0.041916974, 0.12871246, -1419648.4, 583.3041, 0.0, 10.000553, 9.998678 
9.450432e+2, 1.65079e+2, -1266633.4, -1297307.3, 28118.63, -0.060785048, 0.13914533, -1249940.9, 72296.71, 0.0, 10.000345, 9.999981 
9.450471e+2, 1.7507827e+2, -1315338.5, -1277315.5, -27274.5, 0.020819357, 0.04014965, -1263080.4, -38839.92, 0.0, 9.999375, 9.999914 
9.4504964e+2, 1.8507797e+2, -1262130.5, -1332330.0, -64804.887, 0.055637617, 0.083998516, -1223530.5, -97287.49, 0.0, 9.999658, 9.998709 
9.450512e+2, 1.9507754e+2, -936135.44, -1132651.6, -49017.62, 0.05389809, 0.14022249, -924587.44, 103662.414, 0.0, 10.001251, 9.998641 
9.4505376e+2, 2.0507656e+2, -795313.5, -1017629.75, 55009.61, 0.038174134, 0.18240917, -782446.7, 147814.39, 0.0, 10.001534, 9.998637 
9.450573e+2, 2.1507478e+2, -866546.5, -1006242.2, 19997.123, 0.010222724, 0.11014611, -863740.3, -31461.74, 0.0, 10.000396, 9.998591 
9.4506055e+2, 2.2507387e+2, -787505.4, -789871.06, -24493.865, 0.049512684, 0.10982555, -764165.8, -29880.393, 0.0, 9.9997425, 9.999707 
9.450637e+2, 2.3507342e+2, -706723.2, -709162.56, -21528.19, 0.15689214, 0.062109508, -686380.2, -50094.746, 0.0, 9.999651, 9.999639 
9.45066e+2, 2.4507248e+2, -602023.44, -699876.94, 66384.14, 0.09656332, 0.05308671, -568484.0, -30192.266, 0.0, 10.000085, 9.998819 
9.4506747e+2, 2.5507078e+2, -372609.6, -542801.75, 62029.254, -0.110535726, -0.033929646, -352401.47, 87905.63, 0.0, 10.001002, 9.998782 
9.450704e+2, 2.6506948e+2, -234700.34, -502354.5, 28041.613, -0.11911515, 0.0004703594, -231794.03, 110525.95, 0.000000027783642, 10.001614, 9.998101 
9.4507456e+2, 2.7506816e+2, -108744.12, -399597.16, -4860.7397, 0.07658931, 0.029710256, -108662.91, 135672.14, 0.000002329391, 10.001836, 9.998029 
9.450782e+2, 2.8506657e+2, -40651.906, -319034.88, 92518.195, 0.08389463, 0.078926094, -12709.053, 133641.05, 0.000023981273, 10.00165, 9.9979925 
9.45081e+2, 2.9506457e+2, -38531.23, -274951.06, 76667.18, -0.08481567, 0.037887383, -15846.004, 32520.898, 0.00010679835, 10.001003, 9.997938 
9.4508505e+2, 3.050621e+2, 613.71454, -221194.08, 1014.1042, -0.0127764335, -0.00012781602, 618.35095, 618.35095, 0.00028981623, 10.000952, 9.997993 
9.4508827e+2, 3.150601e+2, 82036.39, -132375.48, 5927.8496, 0.14454398, -0.029694052, 82200.15, 82200.15, 0.00057081727, 10.0012045, 9.998487 
9.55032e+2, 1.2507857e+2, -1881727.9, -1763516.1, -2586.3198, -0.06623703, 0.20061626, -1763459.6, -49215.855, 0.00002677623, 9.998656, 10.000279 
9.5503515e+2, 1.350785e+2, -1704763.0, -1655892.8, 3820.7605, 0.00016160535, 0.14990544, -1655595.8, -39354.375, 0.0000047533053, 9.999387, 9.999994 
9.550385e+2, 1.4507736e+2, -1580996.8, -1637511.9, 19075.432, 0.035681397, 0.08644635, -1575160.9, -56909.734, 0.000000046136613, 9.999878, 9.9992285 
9.55042e+2, 1.5507652e+2, -1386241.1, -1498884.3, 64724.28, 0.019420797, 0.037754577, -1356764.4, 63494.777, 0.0, 10.000575, 9.999172 
9.5504457e+2, 1.6507587e+2, -1339071.8, -1447081.1, -25707.22, -0.0039875447, 0.073225774, -1333265.4, -10999.372, 0.0, 10.000339, 9.998958 
9.550462e+2, 1.7507501e+2, -1390309.0, -1425141.3, -47509.563, -0.03681772, 0.05867552, -1357123.9, -132848.5, 0.0, 9.999339, 9.998918 
9.550487e+2, 1.8507464e+2, -1211854.8, -1216207.4, -20613.496, -0.03802648, 0.10519316, -1193303.0, -67025.08, 0.0, 9.999593, 9.999544 
9.550522e+2, 1.9507436e+2, -892970.94, -1019628.25, 26386.75, -0.009385031, 0.09106442, -887693.6, 140583.98, 0.0, 10.00114, 9.999475 
9.5505536e+2, 2.0507318e+2, -855305.8, -1101107.9, -6347.232, 0.018520458, 0.09734694, -855142.0, 75147.64, 0.0, 10.001359, 9.998151 
9.5505816e+2, 2.1507077e+2, -935035.56, -1094175.1, -7295.4917, 0.033915546, 0.009981678, -934701.8, -102384.414, 0.0, 10.000163, 9.998103 
9.550603e+2, 2.2506984e+2, -780355.6, -724875.7, -44339.03, 0.023303086, 0.0055461475, -700314.06, 34010.156, 0.0, 9.999525, 10.000258 
9.55062e+2, 2.3507e+2, -701346.6, -649724.9, -5991.54, -0.0154583, -0.03346066, -649038.56, -12724.115, 0.0, 9.99944, 10.000151 
9.5506495e+2, 2.4506976e+2, -608445.4, -664670.5, 86431.67, -0.043578736, -0.016683402, -545669.3, -7356.425, 0.0, 9.9998865, 9.999149 
9.550693e+2, 2.5506872e+2, -377963.75, -513084.78, 114207.375, -0.06220185, -0.069298595, -312830.06, 127492.98, 0.0, 10.000832, 9.999063 
9.5507294e+2, 2.6506776e+2, -286150.78, -573920.56, 18797.275, -0.049029466, 0.002848941, -284928.13, 57405.996, 0.000000030362223, 10.001467, 9.997678 
9.550758e+2, 2.7506638e+2, -159434.77, -468292.06, 23893.19, -0.02339327, 0.06551675, -157597.31, 86752.98, 0.000002140531, 10.001687, 9.997623 
9.5507926e+2, 2.8506404e+2, -48487.156, -310981.4, 51442.47, 0.0004992759, 0.054328367, -38765.72, 107607.16, 0.000025889522, 10.001544, 9.998098 
9.5508343e+2, 2.9506058e+2, -49077.813, -270479.2, 77019.46, 0.018031852, -0.1430656, -24920.65, 23483.018, 0.00011778403, 10.000891, 9.99802 
9.5508677e+2, 3.0505934e+2, 8190.0435, -180678.19, 5582.3257, 0.042174086, -0.07362575, 8354.895, 8354.895, 0.00031950467, 10.000848, 9.998322 
9.550881e+2, 3.1505945e+2, 95731.266, -63572.97, 79317.33, -0.070613876, 0.06560517, 128487.77, 128487.77, 0.00062882464, 10.001034, 9.999041 
9.650311e+2, 1.2507595e+2, -1991903.3, -1847770.6, 44137.58, 0.026553646, 0.2025077, -1835328.5, -121060.09, 0.000040530904, 9.997983, 10.000057 
9.650349e+2, 1.3507546e+2, -1648514.4, -1644816.3, 24697.986, 0.0351858, 0.12639979, -1621898.1, -5627.693, 0.000008656152, 9.999818, 9.9998865 
9.650389e+2, 1.4507426e+2, -1532168.9, -1597493.6, 40369.53, 0.085579716, 0.059133995, -1512903.1, 5377.7197, 0.00000019058375, 10.000185, 9.999327 
9.6504223e+2, 1.5507376e+2, -1531126.3, -1558076.1, 10354.761, 0.04867698, 0.035224024, -1527607.3, -107321.39, 0.0, 9.9995775, 9.999225 
9.6504474e+2, 1.6507317e+2, -1421541.9, -1511663.6, -28883.646, 0.0120252045, 0.08644931, -1413079.4, -90786.945, 0.0, 9.9999075, 9.9987135 
9.650465e+2, 1.7507212e+2, -1139934.8, -1335397.5, -31345.602, -0.022130048, 0.07960007, -1135031.0, 89273.45, 0.0, 10.001204, 9.998631 
9.650492e+2, 1.8507144e+2, -958870.94, -1102300.3, 25107.385, -0.027648032, 0.11140038, -954602.9, 171707.17, 0.0, 10.001333, 9.999506 
9.650528e+2, 1.9507076e+2, -1020396.56, -1089868.5, -23264.055, -0.012520136, 0.06211061, -1013325.8, 14987.248, 0.0, 10.000276, 9.999427 
9.6505594e+2, 2.0506981e+2, -1053329.5, -1153939.1, -50971.426, 0.026001314, 0.07814553, -1032019.6, -101697.34, 0.0, 9.999851, 9.998497 
9.650588e+2, 2.1506828e+2, -920329.25, -1048604.6, -29233.822, 0.09288617, 0.044042453, -913981.06, -81639.92, 0.0, 10.000117, 9.998425 
9.650608e+2, 2.2506739e+2, -650317.25, -696239.94, -6005.859, 0.07647688, 0.042959213, -649544.75, 84802.734, 0.0, 10.000552, 9.999968 
9.650622e+2, 2.3506679e+2, -470335.78, -564362.56, -62247.344, -0.0119218435, -0.045813546, -439342.84, 197002.4, 0.0, 10.001131, 9.999921 
9.650653e+2, 2.4506627e+2, -444576.2, -600683.75, 10873.278, -0.04664482, -0.041006338, -443822.47, 94524.45, 0.0, 10.001055, 9.999043 
9.650702e+2, 2.5506556e+2, -462909.38, -569886.8, -25457.754, -0.017858643, -0.04442461, -457160.1, -16805.133, 0.0, 10.000305, 9.998944 
9.6507424e+2, 2.6506466e+2, -400056.88, -591926.3, -50152.04, -0.011243549, 0.026068827, -387738.66, -45373.96, 0.000000012060779, 10.000527, 9.998001 
9.650773e+2, 2.7506307e+2, -143232.83, -428661.94, -31067.225, -0.033426642, 0.03564394, -139890.5, 104490.336, 0.0000023356135, 10.001659, 9.997907 
9.650811e+2, 2.8506076e+2, -14191.917, -299960.03, 459.80878, 0.022310564, 0.0146260895, -14191.177, 132212.38, 0.000028869204, 10.001812, 9.99803 
9.650857e+2, 2.9505765e+2, -44762.94, -275474.06, -34426.7, 0.16299728, -0.14279176, -39735.35, 8698.553, 0.00012892728, 10.000969, 9.9979315 
9.650883e+2, 3.0505696e+2, 30721.988, -124432.8, -33370.684, 0.13048421, -0.03761397, 37594.902, 37594.902, 0.00034703137, 10.00077, 9.9987545 
9.650886e+2, 3.150571e+2, 92415.27, 21705.041, -10580.2705, -0.0842582, 0.062240694, 93964.445, 93964.445, 0.0006841425, 10.00061, 9.999832 
9.750289e+2, 1.2507163e+2, -1977429.3, -1801548.9, 51757.844, -0.06836757, 0.08162527, -1787448.1, -73142.15, 0.000058506626, 9.997924, 10.000399 
9.7503513e+2, 1.3507195e+2, -1614128.0, -1574193.5, 103195.55, 0.041658483, 0.042361706, -1489051.1, 127248.93, 0.00001444443, 9.999829, 10.0003605 
9.750394e+2, 1.450714e+2, -1568066.5, -1670751.9, 132.5693, 0.07223058, 0.0391872, -1568066.4, -49759.977, 0.0000005546723, 10.000178, 9.998831 
9.7504085e+2, 1.5507148e+2, -1570146.3, -1630163.8, 7899.601, -0.08749599, 0.12397517, -1569123.9, -148813.73, 0.0, 9.999543, 9.998744 
9.750435e+2, 1.6507095e+2, -1394936.4, -1450081.4, -485.95892, -0.14285485, 0.18211819, -1394932.0, -72615.586, 0.0, 9.999868, 9.999161 
9.750475e+2, 1.7506957e+2, -1112765.1, -1273748.9, 30973.967, -0.071666405, 0.097377986, -1107011.3, 117316.65, 0.0, 10.001172, 9.999072 
9.7505057e+2, 1.8506832e+2, -1036893.0, -1239185.1, -28736.842, -0.052450277, 0.0970058, -1032889.94, 93449.35, 0.0, 10.001225, 9.998617 
9.7505254e+2, 1.9506687e+2, -1101569.5, -1223480.0, -44890.793, -0.09368118, 0.054586146, -1086823.1, -58468.656, 0.0, 10.000131, 9.998574 
9.750552e+2, 2.0506665e+2, -1004552.5, -1014783.9, -58599.617, -0.06225263, 0.13397937, -950845.7, -20488.932, 0.0, 9.999676, 9.999545 
9.750587e+2, 2.1506731e+2, -875921.6, -912793.5, -3498.628, 0.040986523, 0.21487536, -875592.56, -43242.484, 0.0, 9.999924, 9.999455 
9.750615e+2, 2.2506645e+2, -754342.56, -863837.2, -3217.4382, 0.06420748, 0.21798232, -754248.1, -19892.096, 0.0, 10.000342, 9.998916 
9.7506386e+2, 2.3506375e+2, -581285.06, -735575.75, -26212.764, 0.01237648, 0.023059187, -576953.3, 59424.574, 0.0, 10.000883, 9.99886 
9.750666e+2, 2.4506216e+2, -506476.28, -690909.44, -34284.535, -0.049633853, 0.0020013878, -500309.28, 38082.965, 0.0, 10.000884, 9.99851 
9.7506976e+2, 2.550613e+2, -519669.38, -653578.4, -33738.637, -0.12613456, 0.034974236, -511649.22, -71246.54, 0.0, 10.000156, 9.998443 
9.7507375e+2, 2.6506016e+2, -345970.53, -454007.2, -22891.771, -0.14383848, 0.054283142, -341320.2, 1092.4159, 0.0000000034767167, 10.000411, 9.999004 
9.750785e+2, 2.7505833e+2, -90693.375, -291152.72, 33792.46, -0.10705003, -0.063020855, -85150.09, 159276.02, 0.0000028342504, 10.001531, 9.998914 
9.7508305e+2, 2.850569e+2, -51599.473, -351689.0, -44977.277, -0.0014268206, -0.031201098, -45003.29, 101437.28, 0.000032313746, 10.001705, 9.997726 
9.750871e+2, 2.9505563e+2, -85176.26, -330827.56, -37388.85, 0.1561065, 0.029431947, -79611.62, -31152.97, 0.0001399921, 10.000851, 9.997608 
9.7508895e+2, 3.0505455e+2, 47883.77, -59234.887, -49528.3, 0.08270589, 0.090130694, 67274.11, 67274.11, 0.00037284024, 10.0006485, 9.999258 
9.750886e+2, 3.1505227e+2, 130140.01, 145057.03, 39863.71, -0.2266203, -0.1091495, 178153.97, 178153.97, 0.00073526404, 10.000425, 10.000762 
9.8502886e+2, 1.2506734e+2, -1694159.0, -1666605.8, 56763.535, 0.05486357, 0.021039719, -1621970.9, 92373.9, 0.00008108169, 9.999871, 10.000381 
9.8503417e+2, 1.350682e+2, -1772517.5, -1661650.5, 15126.953, 0.03074003, 0.04006523, -1659623.5, -43287.625, 0.000022462764, 9.998766, 10.000279 
9.850387e+2, 1.450679e+2, -1762650.9, -1757619.3, -43665.656, 0.063203156, 0.061752748, -1716397.0, -198056.23, 0.0000013019285, 9.99879, 9.998911 
9.850411e+2, 1.550679e+2, -1454775.9, -1567471.4, -34463.395, -0.03992601, 0.12713161, -1445072.3, -24727.172, 0.0, 10.000285, 9.99882 
9.850442e+2, 1.6506742e+2, -1282122.6, -1382760.4, 3011.2695, -0.083995625, 0.18115827, -1282032.6, 40318.168, 0.0, 10.000586, 9.999276 
9.8504806e+2, 1.7506625e+2, -1304712.4, -1349994.0, -24070.865, -0.061508693, 0.10913511, -1294307.5, -69947.695, 0.0, 9.999798, 9.999205 
9.850511e+2, 1.850651e+2, -1253603.9, -1343141.1, -53008.73, -0.044550233, 0.110556886, -1228988.4, -102617.76, 0.0, 9.999757, 9.9986 
9.850532e+2, 1.9506355e+2, -1076789.8, -1216445.8, -44010.53, -0.048057895, 0.06417039, -1064077.5, -35690.563, 0.0, 10.000338, 9.998519 
9.850558e+2, 2.0506315e+2, -855913.3, -926757.44, -13771.396, -0.012739002, 0.119597144, -853330.44, 77059.586, 0.0, 10.000603, 9.999712 
9.850589e+2, 2.1506354e+2, -786719.6, -851048.06, -54855.35, 0.055873528, 0.15506028, -755294.2, 77089.39, 0.0, 10.000449, 9.99963 
9.8506194e+2, 2.2506258e+2, -751887.9, -921372.2, -15946.383, 0.06918352, 0.1642626, -750400.56, -16009.234, 0.0, 10.000599, 9.998403 
9.850649e+2, 2.3505996e+2, -598895.4, -802420.56, -28065.814, 0.035452656, 0.031459786, -595096.06, 41320.176, 0.0, 10.001005, 9.998348 
9.850681e+2, 2.4505833e+2, -468281.34, -680668.06, 2704.0642, 0.00016397884, 0.03585621, -468246.94, 70185.77, 0.0, 10.001208, 9.99841 
9.850712e+2, 2.5505716e+2, -368078.0, -592924.5, -4980.271, -0.04686042, 0.04711109, -367967.75, 72477.914, 0.0, 10.001257, 9.9983225 
9.85075e+2, 2.6505592e+2, -231692.86, -344619.5, 54126.797, -0.08066352, 0.04182166, -209939.7, 132515.83, 0.00000001775074, 10.00097, 9.999492 
9.8507965e+2, 2.750544e+2, -226821.67, -303767.66, 32399.44, -0.08421782, -0.09112277, -214996.61, 29468.602, 0.000003544514, 10.000366, 9.999396 
9.8508406e+2, 2.8505352e+2, -201637.73, -399046.03, -20644.053, -0.0074378806, -0.039634544, -199501.98, -53028.305, 0.00003520851, 10.0005455, 9.997984 
9.8508805e+2, 2.9505298e+2, 12246.163, -258153.23, -6285.367, 0.15165932, 0.06907553, 12392.186, 60876.535, 0.00014922032, 10.001386, 9.997869 
9.8508996e+2, 3.0505142e+2, 163490.14, -39029.38, 3485.5923, 0.08696656, 0.084287144, 163550.11, 163550.11, 0.00039592202, 10.001621, 9.998913 
9.8509055e+2, 3.1504846e+2, 188233.5, 160326.36, -41549.664, -0.08017453, -0.144265, 218110.02, 218110.02, 0.0007798097, 10.000901, 10.000628 
9.9502975e+2, 1.2506312e+2, -1737703.4, -1745815.1, -41513.438, 0.07481414, 0.020002618, -1700048.1, 14336.574, 0.000108580556, 9.99984, 9.999842 
9.950317e+2, 1.3506429e+2, -1818675.3, -1745305.4, -14466.705, -0.12759237, 0.12194968, -1742555.9, -126178.84, 0.000033028722, 9.99873, 9.999711 
9.950365e+2, 1.450638e+2, -1719283.3, -1668015.3, -12114.912, -0.08752076, 0.12365652, -1665296.6, -146913.17, 0.0000026281716, 9.998782, 9.999537 
9.950426e+2, 1.5506302e+2, -1404852.8, -1466337.9, 36635.22, 0.042056885, 0.04848585, -1387770.3, 32620.096, 0.00000000019976186, 10.00029, 9.9995165 
9.950463e+2, 1.6506265e+2, -1304853.1, -1414897.5, -44333.953, 0.030213118, 0.08799882, -1289214.5, 33179.71, 0.0, 10.000531, 9.999077 
9.950477e+2, 1.7506228e+2, -1323538.3, -1379629.8, -36045.92, -0.119561374, 0.11478103, -1305912.6, -81513.41, 0.0, 9.999759, 9.999019 
9.9505025e+2, 1.8506171e+2, -1218066.6, -1246929.5, -49221.78, -0.13732934, 0.14746633, -1181204.3, -54799.973, 0.0, 9.999662, 9.999307 
9.9505407e+2, 1.9506063e+2, -1044710.5, -1118429.1, -5842.9814, -0.021398671, 0.075819455, -1044250.25, -15837.796, 0.0, 10.000203, 9.999256 
9.9505705e+2, 2.0505917e+2, -934675.44, -1038522.75, -38609.902, 0.028503232, 0.022251109, -921893.7, 8529.986, 0.0, 10.000389, 9.9990425 
9.9505913e+2, 2.1505699e+2, -864852.7, -958551.4, -45581.11, 0.005978936, -0.13187535, -846337.7, -13896.261, 0.0, 10.000223, 9.998995 
9.950618e+2, 2.2505592e+2, -782142.5, -927421.25, -16971.281, -0.02845496, -0.105564065, -780186.25, -45734.3, 0.0, 10.000359, 9.998476 
9.950651e+2, 2.3505558e+2, -628561.25, -808060.2, 5497.0977, -0.08051266, -0.018728297, -628393.06, 8065.847, 0.0, 10.0007715, 9.99842 
9.9506915e+2, 2.450548e+2, -477707.06, -660603.7, -11623.598, -0.042629868, 0.05582612, -476971.28, 61496.875, 0.0, 10.001031, 9.998634 
9.95074e+2, 2.5505313e+2, -378240.88, -571032.25, 15118.788, 0.07857317, -0.00535184, -377062.44, 63421.504, 0.0, 10.001065, 9.998567 
9.950775e+2, 2.650521e+2, -266351.03, -375469.38, 16119.245, 0.04629778, 0.0015849225, -264019.66, 78472.89, 0.000000028595345, 10.000803, 9.999356 
9.950798e+2, 2.7505127e+2, -260191.69, -337077.3, 30949.451, -0.13260244, -0.045664713, -249281.5, -4783.201, 0.000003781716, 10.000223, 9.999233 
9.950835e+2, 2.850505e+2, -154577.7, -279308.16, -4065.7117, -0.1508607, -0.015016266, -154445.33, -7941.3315, 0.000036350866, 10.000447, 9.998852 
9.950883e+2, 2.9504976e+2, 62750.234, -130917.7, 49674.84, -0.014616006, -0.021311846, 74748.28, 123259.164, 0.00015456251, 10.001288, 9.998789 
9.950911e+2, 3.0504766e+2, 57144.633, -236273.38, -31697.365, 0.0011501577, -0.040507834, 60529.785, 60529.785, 0.00041193186, 10.00153, 9.997599 
9.950931e+2, 3.1504512e+2, 74499.99, -23106.25, -24937.457, 0.0029460534, -0.097590566, 80502.17, 80502.17, 0.0008105773, 10.00069, 9.999462 
1.0050297e+3, 1.2505886e+2, -1935667.6, -1869435.1, -20076.924, 0.16252464, 0.029180167, -1863824.6, -149399.6, 0.00014134821, 9.998601, 9.999595 
1.0050313e+3, 1.3505957e+2, -1652325.5, -1694404.3, -19427.326, -0.08694375, 0.112767875, -1644727.9, -28304.387, 0.000046426092, 9.999999, 9.999446 
1.0050363e+3, 1.4505899e+2, -1503183.4, -1498437.4, 45935.55, -0.037540633, 0.09129201, -1454813.6, 63616.395, 0.00000474816, 10.000021, 10.000084 
1.0050425e+3, 1.5505844e+2, -1537946.8, -1473390.0, 37645.996, 0.06475005, -0.011200024, -1456078.9, -35647.273, 0.000000004412824, 9.999146, 10.000016 
1.0050463e+3, 1.6505839e+2, -1499043.6, -1501082.1, -14670.967, 0.04955329, 0.03133592, -1485356.5, -162924.69, 0.0, 9.999145, 9.999167 
1.0050478e+3, 1.7505844e+2, -1287776.6, -1352652.6, -17494.148, -0.081308, 0.08853057, -1283359.9, -58925.67, 0.0, 9.999945, 9.999124 
1.0050506e+3, 1.8505804e+2, -1149551.9, -1199405.5, -5754.714, -0.07586491, 0.12827957, -1148896.3, -22458.146, 0.0, 10.000077, 9.999428 
1.0050548e+3, 1.950569e+2, -1122548.1, -1143655.1, -41762.8, 0.06597267, 0.039302602, -1090026.0, -61579.48, 0.0, 9.999623, 9.999356 
1.0050578e+3, 2.0505537e+2, -1021941.56, -1094450.3, -31664.29, 0.10297859, -0.021662258, -1010060.6, -79601.83, 0.0, 9.999837, 9.99893 
1.0050597e+3, 2.1505308e+2, -813711.75, -954089.25, -34113.94, 0.029902715, -0.17365386, -805860.6, 26617.992, 0.0, 10.000632, 9.998843 
1.00506246e+3, 2.250523e+2, -685973.06, -850061.3, 46229.46, -0.020340769, -0.12371932, -673845.0, 60642.344, 0.0, 10.000905, 9.998738 
1.00506596e+3, 2.3505262e+2, -617994.6, -776647.1, 41116.418, -0.05296884, 0.003773364, -607972.06, 28517.002, 0.0, 10.000735, 9.998654 
1.0050701e+3, 2.4505208e+2, -496772.38, -643503.94, 65934.26, -0.022199655, 0.0826525, -471498.06, 66997.36, 0.0, 10.000788, 9.998872 
1.005075e+3, 2.5505048e+2, -361801.66, -528731.5, 57604.33, 0.07867275, 0.0013628595, -343853.3, 96655.65, 0.0, 10.001057, 9.998849 
1.0050787e+3, 2.6504943e+2, -266859.44, -440116.16, 56295.52, 0.077090025, 0.02122164, -250174.4, 92344.19, 0.000000017098808, 10.001067, 9.998787 
1.0050813e+3, 2.7504843e+2, -229194.44, -378892.38, 6994.586, -0.023220995, 0.009888384, -228868.33, 15661.114, 0.000003428396, 10.000677, 9.998722 
1.0050849e+3, 2.8504756e+2, -88181.34, -218760.05, 19830.883, -0.061775066, 0.04017109, -85236.07, 61300.47, 0.00003625069, 10.000797, 9.999085 
1.0050894e+3, 2.950466e+2, 88970.88, -93061.164, -17763.652, -0.018897846, -0.0036912535, 90688.15, 139230.17, 0.00015744341, 10.001358, 9.99901 
1.00509234e+3, 3.050441e+2, 55601.56, -318503.4, -105236.7, -0.022447743, -0.039629564, 83172.92, 83172.92, 0.00042211023, 10.001834, 9.996918 
1.00509524e+3, 3.1504187e+2, 195069.55, -52936.098, -117459.586, 0.11246493, 0.009264022, 241869.11, 241869.11, 0.0008305699, 10.001839, 9.99875 
1.0150276e+3, 1.250547e+2, -1937761.6, -1855484.6, -34621.617, 0.023328854, 0.048877165, -1842854.9, -128390.39, 0.0001798155, 9.998544, 9.999705 
1.0150325e+3, 1.3505416e+2, -1647882.4, -1682669.5, 46926.652, -0.00960766, -0.00020906252, -1615229.5, 1244.5695, 0.000062927356, 9.999995, 9.999521 
1.01503745e+3, 1.4505352e+2, -1488728.6, -1459823.4, -10953.894, 0.020433577, -0.04684211, -1456141.4, 62338.66, 0.000007860604, 9.999986, 10.000363 
1.0150402e+3, 1.5505424e+2, -1523199.9, -1437074.5, 21970.178, -0.11449921, -0.050570704, -1431793.9, -11325.342, 0.000000028517778, 9.999128, 10.000269 
1.0150437e+3, 1.6505474e+2, -1474987.6, -1446075.8, -3001.0378, -0.15883835, 0.015379627, -1445767.5, -123305.03, 0.0, 9.999117, 9.999559 
1.01504795e+3, 1.7505474e+2, -1261943.8, -1296159.4, 27618.416, -0.09040588, 0.027071053, -1246563.8, -22099.178, 0.0, 9.9999275, 9.999521 
1.0150517e+3, 1.8505415e+2, -1199077.5, -1279786.5, -41770.31, -0.009255621, 0.05214756, -1181352.4, -54880.74, 0.0, 9.999981, 9.998923 
1.0150549e+3, 1.9505253e+2, -1176173.1, -1223500.6, -43851.453, 0.0759695, -0.034434497, -1150007.9, -121520.26, 0.0, 9.99949, 9.99887 
1.0150577e+3, 2.0505188e+2, -1017789.56, -1048915.1, -19382.682, 0.072332814, -0.0023447268, -1008495.0, -78000.9, 0.0, 9.999677, 9.999319 
1.0150601e+3, 2.1505184e+2, -814320.25, -906147.44, 9863.228, -0.017192617, 0.029536555, -813272.75, 19221.514, 0.0, 10.000428, 9.999265 
1.0150633e+3, 2.2505175e+2, -699397.6, -822332.6, 20252.238, -0.04860998, 0.11063965, -696147.2, 38349.53, 0.0, 10.000667, 9.999043 
1.01506725e+3, 2.3505114e+2, -627470.0, -742754.6, 49332.96, -0.027915051, 0.11282077, -609241.5, 27264.031, 0.0, 10.000507, 9.998993 
1.0150707e+3, 2.4505036e+2, -508146.0, -621806.06, 55763.117, -0.072711244, 0.13609953, -485357.06, 53155.65, 0.0, 10.000591, 9.999118 
1.01507366e+3, 2.5504905e+2, -368334.0, -507215.03, 83542.53, -0.18688676, 0.06059139, -329140.53, 111381.12, 0.0, 10.000899, 9.999079 
1.015078e+3, 2.650477e+2, -347761.3, -574708.75, 27676.012, -0.12637495, 0.082326986, -344435.0, -1899.4994, 0.000000011022683, 10.000926, 9.997929 
1.0150835e+3, 2.750459e+2, -308365.1, -509110.1, 15492.499, 0.09441433, 0.07672672, -307176.5, -62618.5, 0.0000031084232, 10.000532, 9.997895 
1.0150878e+3, 2.850446e+2, -138252.92, -296395.8, 25026.719, 0.12127143, 0.12966418, -134386.86, 12184.252, 0.000035475467, 10.000688, 9.998601 
1.01509094e+3, 2.9504356e+2, 27655.848, -179916.42, 26410.371, -0.04572938, 0.121000364, 30963.453, 79541.53, 0.00015874387, 10.001192, 9.998488 
1.01509325e+3, 3.0504075e+2, 34935.742, -332137.88, -113102.97, -0.14585033, 0.084712565, 66986.6, 66986.6, 0.00042931808, 10.001715, 9.996877 
1.0150961e+3, 3.1503883e+2, 139123.02, -95090.125, -70881.46, -0.06131176, 0.16455163, 158903.73, 158903.73, 0.00084597926, 10.001547, 9.998586 
1.0250269e+3, 1.2505005e+2, -1778662.8, -1763175.3, -15620.538, 0.055064388, 0.050838757, -1753484.4, -38974.324, 0.00022439056, 9.999552, 9.999862 
1.0250332e+3, 1.3504948e+2, -1728250.8, -1709078.4, 22136.502, 0.10243559, -0.008503528, -1694541.5, -78021.97, 0.0000828242, 9.999393, 9.999638 
1.02503784e+3, 1.4504915e+2, -1585510.3, -1506017.4, -32787.168, 0.11495391, -0.033749305, -1494239.3, 24283.555, 0.000012107546, 9.999286, 10.00041 
1.025039e+3, 1.5505013e+2, -1459932.1, -1402595.6, -51993.336, -0.15206921, -0.018465424, -1371890.6, 48618.723, 0.00000009714164, 9.99952, 10.000331 
1.02504246e+3, 1.6505058e+2, -1400976.5, -1369599.6, -25069.174, -0.19410075, 0.02446133, -1355714.6, -33211.484, 0.0, 9.999489, 9.99988 
1.0250485e+3, 1.7505032e+2, -1326070.9, -1287146.5, -39513.516, -0.003305599, -0.020249624, -1262562.3, -38056.3, 0.0, 9.999353, 9.999839 
1.0250526e+3, 1.850498e+2, -1221173.9, -1298009.3, -65185.293, 0.0994696, -0.0015459186, -1183927.6, -57415.223, 0.0, 9.999844, 9.99887 
1.02505505e+3, 1.9504863e+2, -978560.9, -1135616.9, -63244.42, 0.092088364, -0.037662223, -956259.75, 72266.36, 0.0, 10.000865, 9.99882 
1.0250577e+3, 2.0504846e+2, -842320.9, -950959.75, -20358.455, 0.057700794, 0.04059456, -838631.1, 91898.39, 0.0, 10.000849, 9.999426 
1.0250603e+3, 2.1504892e+2, -900122.25, -938640.3, -51681.64, -0.000025896534, 0.11555714, -864227.9, -31701.46, 0.0, 9.999822, 9.999334 
1.02506384e+3, 2.2504881e+2, -817030.9, -855337.06, -4672.3394, -0.0087047685, 0.18443844, -816469.2, -81940.88, 0.0, 9.99975, 9.999257 
1.0250681e+3, 2.3504783e+2, -611951.7, -712726.25, -13376.251, 0.019090058, 0.12929565, -610206.44, 26332.129, 0.0, 10.00052, 9.999192 
1.02507174e+3, 2.450469e+2, -482252.8, -610869.1, -1900.5024, -0.030497085, 0.1290488, -482224.72, 56321.754, 0.0, 10.000795, 9.999076 
1.0250746e+3, 2.5504565e+2, -424821.88, -542335.3, -35310.34, -0.1587594, 0.06305183, -415028.06, 25527.852, 0.0, 10.000547, 9.9990015 
1.025079e+3, 2.6504427e+2, -375038.84, -587402.56, -33673.785, -0.10095135, 0.08786009, -369827.22, -27256.988, 0.00000001218603, 10.000743, 9.997927 
1.0250849e+3, 2.7504244e+2, -189196.36, -448003.1, -20918.402, 0.1508762, 0.07859141, -187516.5, 57076.094, 0.0000027111198, 10.00135, 9.997916 
1.0250893e+3, 2.8504112e+2, -45873.094, -267027.97, 63659.92, 0.17955187, 0.13316235, -28857.604, 117748.69, 0.00003356842, 10.001377, 9.998481 
1.02509215e+3, 2.9503995e+2, -51200.36, -231025.08, 52331.39, -0.0075315256, 0.12832168, -37079.996, 11535.027, 0.00015737157, 10.000701, 9.9983835 
1.0250946e+3, 3.0503738e+2, -62839.066, -307723.47, 3953.969, -0.11827386, 0.090252295, -62775.242, -62775.242, 0.00043278775, 10.000752, 9.997492 
1.02509804e+3, 3.1503624e+2, 111510.72, -65265.5, 21702.492, 0.016421003, 0.1815948, 114136.1, 114136.1, 0.00085735595, 10.001156, 9.998971 
1.0350261e+3, 1.2504472e+2, -1760698.1, -1732567.1, -88307.29, -0.058523774, 0.016393628, -1657212.1, 57351.734, 0.00027553758, 9.999579, 10.000057 
1.0350329e+3, 1.3504563e+2, -1723290.6, -1696512.0, 24060.334, 0.10076494, 0.09353477, -1682366.4, -65807.11, 0.000106410545, 9.999384, 9.999728 
1.0350373e+3, 1.450459e+2, -1592512.5, -1519253.0, -47344.63, 0.07997335, 0.1316662, -1496022.4, 22535.479, 0.000017580353, 9.999284, 10.0003195 
1.03503846e+3, 1.5504609e+2, -1462361.4, -1408857.9, -26450.715, -0.19683573, 0.07634868, -1397989.3, 22564.705, 0.00000023822265, 9.999519, 10.000293 
1.03504226e+3, 1.6504595e+2, -1400096.1, -1352574.0, -51045.46, -0.2169918, 0.05070028, -1320030.3, 2522.923, 0.0, 9.999432, 10.00002 
1.03504874e+3, 1.7504518e+2, -1326518.3, -1271818.0, -28263.621, 0.049410634, -0.059607968, -1259838.0, -35279.94, 0.0, 9.9992895, 9.999973 
1.035053e+3, 1.850451e+2, -1206064.0, -1244258.4, -46645.063, 0.11413358, -0.024398973, -1174758.1, -48198.754, 0.0, 9.999746, 9.999287 
1.03505515e+3, 1.9504526e+2, -967421.1, -1085332.8, -12895.494, -0.022814712, 0.029294295, -966027.3, 62533.906, 0.0, 10.000744, 9.999228 
1.0350575e+3, 2.050451e+2, -893266.44, -1010709.06, -77594.68, -0.07740821, 0.10518457, -854678.3, 75886.82, 0.0, 10.000648, 9.999113 
1.0350599e+3, 2.150442e+2, -942456.5, -991769.25, -71468.52, -0.0432497, 0.07419459, -891510.7, -58935.22, 0.0, 9.999661, 9.99905 
1.0350635e+3, 2.2504349e+2, -837398.1, -846703.1, 8468.006, -0.03671125, 0.08680581, -832388.7, -97806.45, 0.0, 9.999538, 9.999415 
1.0350681e+3, 2.350427e+2, -631208.2, -703026.5, 32261.057, -0.05700175, 0.033438962, -618844.75, 17743.346, 0.0, 10.000309, 9.999357 
1.03507265e+3, 2.4504176e+2, -547106.8, -694531.06, -23509.445, -0.042041488, 0.04838509, -543448.56, -4852.026, 0.0, 10.000581, 9.998605 
1.0350771e+3, 2.5504035e+2, -481630.66, -617993.0, -23877.498, 0.010370196, 0.012072709, -477570.5, -36959.85, 0.0, 10.000371, 9.998563 
1.0350813e+3, 2.650393e+2, -337044.53, -478129.16, -26883.09, 0.022647163, 0.04890134, -332095.66, 10525.494, 0.00000000560088, 10.000612, 9.998738 
1.0350851e+3, 2.7503812e+2, -158251.66, -342951.7, 21480.68, -0.002524116, 0.022587797, -155786.34, 88846.42, 0.0000022721786, 10.0011835, 9.9987135 
1.035089e+3, 2.850371e+2, -45836.934, -237481.5, 22172.51, -0.026972996, 0.05324155, -43305.113, 103336.93, 0.000031172072, 10.00125, 9.998746 
1.0350926e+3, 2.9503605e+2, -56292.02, -204793.02, 53687.668, -0.06853986, 0.0340317, -38915.543, 9735.136, 0.00015322318, 10.000543, 9.998641 
1.035096e+3, 3.0503416e+2, -1976.5646, -148160.22, 10137.193, -0.085131414, -0.009911291, -1276.9431, -1276.9431, 0.00043103905, 10.000623, 9.998643 
1.0351e+3, 3.1503436e+2, 134110.98, 57214.25, 85959.0, 0.02174832, 0.107645296, 189828.56, 189828.56, 0.00086192216, 10.000869, 9.999936 
1.0450265e+3, 1.2504017e+2, -1661024.8, -1670743.3, -19532.877, 0.012458769, -0.021321513, -1645755.8, 68852.42, 0.0003338259, 10.000174, 10.00021 
1.045032e+3, 1.3504168e+2, -1693500.8, -1669266.8, 52925.74, 0.08549437, 0.100538984, -1627088.6, -10492.214, 0.00013404706, 9.999496, 9.999872 
1.045036e+3, 1.450422e+2, -1648361.6, -1573101.5, 50510.305, 0.044512875, 0.16738823, -1547745.0, -29151.422, 0.000024406929, 9.999042, 10.000047 
1.0450387e+3, 1.5504195e+2, -1529298.3, -1462143.9, 11237.438, -0.09752043, 0.09544018, -1460313.4, -39716.598, 0.0000004785213, 9.99919, 10.000063 
1.0450427e+3, 1.6504166e+2, -1401918.4, -1350170.9, 6698.694, -0.096725054, 0.064328514, -1349317.8, -26719.457, 0.0, 9.999382, 10.00008 
1.0450482e+3, 1.7504098e+2, -1266140.6, -1237321.1, -7225.5845, 0.06722931, -0.04426783, -1235611.0, -11009.631, 0.0, 9.9996605, 10.000045 
1.0450523e+3, 1.8504116e+2, -1189228.0, -1206337.1, 16028.238, 0.089379616, 0.0016047276, -1179614.3, -53014.69, 0.0, 9.999751, 9.999539 
1.0450552e+3, 1.9504179e+2, -1100290.8, -1119860.9, -1870.847, -0.031947374, 0.07983723, -1100113.5, -71516.766, 0.0, 9.999715, 9.99948 
1.04505785e+3, 2.0504166e+2, -973000.1, -1034734.75, -47641.906, -0.06320595, 0.13805704, -947100.0, -16500.03, 0.0, 10.000037, 9.999235 
1.04506046e+3, 2.1504037e+2, -794219.5, -901418.9, -44299.676, -0.0038089599, 0.0533453, -778282.25, 54330.758, 0.0, 10.000615, 9.999198 
1.0450641e+3, 2.2503954e+2, -643446.3, -766644.25, 92520.63, 0.00045337065, 0.051378205, -593894.5, 140725.72, 0.0, 10.000913, 9.999316 
1.0450687e+3, 2.3503877e+2, -549833.5, -677765.7, 61441.95, -0.05160108, 0.013625631, -525104.75, 111520.52, 0.0, 10.000903, 9.999261 
1.04507364e+3, 2.4503773e+2, -510163.13, -708165.5, 21731.818, -0.017369058, 0.037773162, -507806.0, 30829.451, 0.0, 10.000957, 9.998343 
1.0450787e+3, 2.5503615e+2, -395631.75, -602914.2, 2675.5674, 0.10897546, 0.009440262, -395597.22, 45056.06, 0.0, 10.001078, 9.998331 
1.0450827e+3, 2.650352e+2, -256289.08, -407754.75, 24111.648, 0.10940197, 0.053462386, -252543.39, 90119.56, 0.0000000009945924, 10.001013, 9.999047 
1.0450858e+3, 2.7503434e+2, -213679.03, -342305.56, 1696.8994, -0.008324911, 0.031032164, -213656.64, 31013.451, 0.0000020282196, 10.000642, 9.999002 
1.0450895e+3, 2.8503338e+2, -148706.44, -278845.7, -797.84503, -0.05218368, 0.052884117, -148701.55, -2023.4854, 0.00002862313, 10.000511, 9.998813 
1.0450936e+3, 2.950323e+2, -44883.066, -182501.94, -25727.246, -0.020010965, 0.017193584, -40230.746, 8457.129, 0.00014660136, 10.000566, 9.998772 
1.04509726e+3, 3.050305e+2, 52036.62, -65977.61, -40117.61, -0.0049760845, -0.049204268, 64382.586, 64382.586, 0.00042212423, 10.000739, 9.999152 
1.0451014e+3, 3.1503087e+2, 123512.805, 87684.83, -79772.27, 0.11610903, 0.038199242, 187357.77, 187357.77, 0.00085377786, 10.000599, 10.00029 
1.0550271e+3, 1.2503631e+2, -1642424.4, -1628399.1, -97173.484, -0.034049373, -0.08629344, -1537985.6, 176658.31, 0.00039971265, 10.000171, 10.000494 
1.05503015e+3, 1.3503775e+2, -1680526.8, -1632406.1, 43375.703, -0.08897027, 0.0039002174, -1606864.5, 9765.317, 0.00016604259, 9.999462, 10.000139 
1.0550336e+3, 1.4503822e+2, -1691101.5, -1656171.8, 32881.465, -0.15525709, 0.081493124, -1636404.8, -117777.164, 0.000032768716, 9.999016, 9.99949 
1.0550393e+3, 1.5503776e+2, -1574798.1, -1552857.6, 31953.338, 0.0021844667, 0.04119461, -1530043.9, -109406.87, 0.0000008393984, 9.999167, 9.999455 
1.0550436e+3, 1.6503778e+2, -1402381.5, -1342490.4, -1792.2285, 0.012169588, 0.06943919, -1342436.9, -19798.947, 0.0, 9.999346, 10.000148 
1.0550466e+3, 1.7503785e+2, -1264860.3, -1230014.8, 18929.502, -0.09226641, 0.027279833, -1221710.5, 2923.9731, 0.0, 9.999637, 10.000106 
1.0550504e+3, 1.8503812e+2, -1204008.4, -1211354.0, -5854.122, -0.11999623, 0.07864225, -1200770.3, -74138.65, 0.0, 9.999639, 9.999559 
1.0550547e+3, 1.9503826e+2, -1115143.8, -1124418.5, 13097.483, -0.0756122, 0.10212099, -1105886.9, -77254.42, 0.0, 9.999596, 9.999509 
1.0550583e+3, 2.0503817e+2, -963000.75, -971755.8, -45026.867, -0.036161553, 0.13778788, -922139.1, 8494.279, 0.0, 9.999854, 9.99976 
1.0550613e+3, 2.1503745e+2, -787206.56, -843253.4, -7763.5903, -0.0038501995, 0.055956356, -786151.06, 46487.656, 0.0, 10.000417, 9.9997 
1.05506495e+3, 2.2503686e+2, -707241.5, -842838.4, 76438.47, -0.025439657, 0.07656774, -672866.25, 61776.77, 0.0, 10.000676, 9.998899 
1.0550695e+3, 2.3503606e+2, -608003.0, -749060.7, 77008.53, -0.09854559, 0.07125824, -574106.56, 62543.56, 0.0, 10.000694, 9.998866 
1.0550741e+3, 2.4503492e+2, -544360.06, -733652.3, 8129.8154, -0.09149621, 0.10642864, -544011.5, -5348.9717, 0.0, 10.000763, 9.99826 
1.05507895e+3, 2.5503305e+2, -429721.34, -630122.25, 21497.707, -0.002606463, 0.058706332, -427441.16, 13242.433, 0.0, 10.00089, 9.998233 
1.0550833e+3, 2.6503193e+2, -296178.34, -449661.78, -5286.0693, 0.025424412, 0.099650145, -295996.5, 46699.65, 0.000000000012280949, 10.000843, 9.998835 
1.0550868e+3, 2.7503115e+2, -250091.58, -380861.66, 10468.832, -0.015758568, 0.1033167, -249258.78, -4555.3867, 0.0000016155456, 10.000485, 9.998806 
1.0550904e+3, 2.8503025e+2, -176866.7, -306973.8, -13004.217, -0.037905786, 0.14519235, -175579.66, -28867.854, 0.000025306648, 10.000384, 9.998682 
1.05509445e+3, 2.9502872e+2, -76951.914, -216709.66, 3609.6025, -0.03279281, 0.083036095, -76858.75, -28132.906, 0.00013793015, 10.000428, 9.998609 
1.055098e+3, 3.0502635e+2, 31176.291, -84069.99, -51287.03, -0.03934468, -0.025688756, 50694.49, 50694.49, 0.00040720604, 10.0006275, 9.99908 
1.0551015e+3, 3.1502602e+2, 67370.67, 29234.078, -31925.982, -0.012999169, -0.010760793, 85489.31, 85489.31, 0.0008331317, 10.000351, 10.000008 
1.0650268e+3, 1.2503298e+2, -1832923.6, -1699317.1, -65287.14, 0.0128756855, -0.06422673, -1672712.3, 41964.22, 0.00047318285, 9.998804, 10.000663 
1.0650294e+3, 1.3503405e+2, -1640027.0, -1582774.0, -9074.115, -0.10086029, -0.029125154, -1581370.3, 35293.95, 0.00020250746, 9.999641, 10.000386 
1.0650321e+3, 1.4503446e+2, -1594307.3, -1626475.1, 34715.04, -0.22482276, 0.03682493, -1572131.3, -53469.137, 0.000042863663, 9.999738, 9.99936 
1.065039e+3, 1.5503395e+2, -1533770.9, -1545468.3, 25050.654, 0.04693177, 0.0052169915, -1513895.3, -93222.94, 0.0000013547858, 9.999494, 9.999355 
1.0650436e+3, 1.6503417e+2, -1386793.5, -1353894.8, 55810.668, 0.07708773, 0.06841146, -1312159.9, 10512.338, 0.0, 9.999527, 9.999987 
1.0650461e+3, 1.7503479e+2, -1247278.9, -1238684.0, 21115.055, -0.099126235, 0.09937836, -1221433.5, 3231.95, 0.0, 9.999832, 9.99996 
1.0650501e+3, 1.8503481e+2, -1165192.5, -1194250.0, 10733.706, -0.12409833, 0.13348204, -1161657.5, -34992.707, 0.0, 9.9999, 9.999554 
1.06505506e+3, 1.9503394e+2, -1087716.3, -1113026.0, -6543.3735, -0.010670372, 0.055876646, -1086124.8, -57451.313, 0.0, 9.99978, 9.999501 
1.06505886e+3, 2.0503359e+2, -967901.6, -973538.44, -36793.586, 0.030690895, 0.06494085, -933818.7, -3142.8142, 0.0, 9.999823, 9.999757 
1.06506154e+3, 2.1503343e+2, -837221.9, -864670.5, -76275.09, 0.005790608, 0.042364176, -773446.25, 59229.24, 0.0, 10.000072, 9.999713 
1.0650654e+3, 2.2503296e+2, -752791.1, -884056.3, 26417.758, -0.02225199, 0.07946039, -747673.94, -12994.572, 0.0, 10.00044, 9.998733 
1.0650707e+3, 2.3503178e+2, -591177.3, -755645.4, 15230.71, -0.045910493, 0.05464588, -589778.75, 46912.184, 0.0, 10.00088, 9.998726 
1.0650752e+3, 2.4503072e+2, -520980.1, -690474.44, -20337.217, -0.046168547, 0.08969785, -518574.03, 20128.277, 0.0, 10.000773, 9.998554 
1.0650791e+3, 2.5502932e+2, -524307.9, -649937.5, -13139.613, -0.026706804, 0.062657945, -522948.34, -82230.7, 0.0, 10.000104, 9.998488 
1.0650835e+3, 2.6502824e+2, -406302.9, -523406.8, 25175.768, 0.0059228856, 0.106850624, -401119.84, -58390.195, 0.0, 10.000176, 9.99864 
1.06508814e+3, 2.7502728e+2, -206097.27, -373814.78, -4469.87, 0.057970982, 0.10721136, -205978.22, 38762.188, 0.00000091217555, 10.00087, 9.998657 
1.065092e+3, 2.850264e+2, -105824.41, -279417.72, -5787.9927, 0.062857024, 0.160875, -105631.64, 41117.797, 0.000020761427, 10.000888, 9.998637 
1.0650954e+3, 2.9502502e+2, -107851.03, -237330.6, -18917.453, 0.03446074, 0.12235582, -105143.73, -56381.484, 0.00012637535, 10.000215, 9.998575 
1.0650987e+3, 3.0502266e+2, -34430.453, -103313.21, -8086.6895, 0.016090069, 0.0047988524, -33493.83, -33493.83, 0.00038601994, 10.000124, 9.999183 
1.0651027e+3, 3.1502172e+2, 64399.855, 39810.35, -38595.418, 0.073917404, -0.05209186, 92611.484, 92611.484, 0.0008001297, 10.000288, 10.0000925 
1.0750254e+3, 1.2502989e+2, -1836775.8, -1696954.8, -39289.37, -0.096954234, 0.015174687, -1686671.0, 28037.578, 0.00055371417, 9.998783, 10.000675 
1.0750293e+3, 1.3503066e+2, -1640602.1, -1572576.0, 29415.344, -0.1169286, 0.0074794344, -1561620.8, 55078.527, 0.00024334127, 9.999605, 10.000466 
1.07503116e+3, 1.4503096e+2, -1566740.0, -1574873.3, -1871.6792, -0.34190148, 0.04132722, -1566329.9, -47633.492, 0.00005483326, 9.999744, 9.999718 
1.0750372e+3, 1.5503055e+2, -1505250.1, -1491681.9, 31935.36, -0.11278917, -0.018032828, -1465818.0, -45115.574, 0.000002073113, 9.999504, 9.999725 
1.0750423e+3, 1.6503094e+2, -1424426.8, -1415890.6, 46649.605, -0.03734816, 0.06548637, -1373314.3, -50613.65, 0.0000000000166348, 9.99947, 9.999584 
1.0750465e+3, 1.7503183e+2, -1283504.9, -1297509.6, 49936.9, -0.08159585, 0.16041747, -1240081.8, -15387.674, 0.0, 9.999767, 9.999582 
1.0750509e+3, 1.850313e+2, -1187046.6, -1211657.0, -10949.27, -0.06127309, 0.16108355, -1182880.5, -56181.816, 0.0, 9.999785, 9.999488 
1.07505545e+3, 1.950289e+2, -1112359.4, -1128461.1, 3925.2898, 0.020369254, -0.063662775, -1111453.4, -82734.57, 0.0, 9.999633, 9.999462 
1.0750587e+3, 2.05028e+2, -1033991.4, -1073309.8, -48100.523, 0.005114224, -0.076003134, -1001687.7, -70961.51, 0.0, 9.999657, 9.999158 
1.0750608e+3, 2.150283e+2, -904922.94, -960740.1, -51486.19, -0.10793822, 0.0020690176, -874267.75, -41543.76, 0.0, 9.999873, 9.999153 
1.0750652e+3, 2.2502777e+2, -778785.7, -879604.7, 28644.684, -0.11761788, 0.05538955, -771215.56, -36486.004, 0.0, 10.000193, 9.998881 
1.075072e+3, 2.3502606e+2, -615309.4, -751156.2, 52870.31, -0.026789937, -0.039051067, -597158.06, 39588.465, 0.0, 10.000647, 9.99887 
1.0750765e+3, 2.4502525e+2, -515946.97, -624484.5, -59031.81, -0.017935684, -0.012580111, -490029.38, 48724.53, 0.0, 10.000544, 9.99911 
1.07507885e+3, 2.5502494e+2, -504991.13, -571711.6, -19360.137, -0.09495712, 0.008311096, -499780.38, -59024.96, 0.0, 9.999943, 9.999097 
1.0750832e+3, 2.6502421e+2, -451623.8, -574642.75, 34549.043, -0.06649573, 0.06855003, -442585.06, -99821.664, 0.000000000031670343, 10.0, 9.998375 
1.07508935e+3, 2.7502266e+2, -251167.45, -431024.47, 44577.566, 0.064712204, 0.03730287, -240725.17, 4056.553, 0.00000057346807, 10.000714, 9.998344 
1.0750936e+3, 2.850218e+2, -114526.836, -271349.2, -48729.75, 0.09529104, 0.11049349, -100618.45, 46172.89, 0.000016841232, 10.000775, 9.998742 
1.075096e+3, 2.950214e+2, -119305.8, -227251.94, -19401.764, 0.02377941, 0.15032625, -115924.52, -67129.125, 0.000114238224, 10.000069, 9.998714 
1.07509926e+3, 3.0501938e+2, -35945.277, -83673.11, -6856.1704, 0.016467702, 0.05362507, -34979.902, -34979.902, 0.0003625103, 10.000029, 9.999363 
1.07510366e+3, 3.150178e+2, 41517.87, 33866.42, 28383.32, 0.06500115, -0.09438326, 66332.13, 66332.13, 0.00076317973, 10.000106, 10.000146 
1.0850248e+3, 1.250261e+2, -1627460.0, -1672632.5, 59816.938, -0.09590997, 0.015667448, -1586107.3, 128637.2, 0.00064071716, 10.0005, 10.000039 
1.0850298e+3, 1.3502643e+2, -1687995.1, -1661073.3, -33912.18, -0.0052894102, 0.021116693, -1638048.1, -21305.426, 0.00028839763, 9.999534, 9.9999075 
1.08503126e+3, 1.4502658e+2, -1634289.1, -1544428.5, -27277.219, -0.2653308, 0.042403698, -1536796.6, -18055.662, 0.00006873226, 9.999057, 10.000231 
1.08503625e+3, 1.5502663e+2, -1463448.4, -1413370.1, -29739.72, -0.16440223, -0.020360507, -1399532.4, 21206.309, 0.0000030594845, 9.999569, 10.0002165 
1.0850414e+3, 1.6502693e+2, -1376315.1, -1412216.1, 35456.617, -0.084056854, 0.034985233, -1354524.1, -31787.855, 0.000000000186287, 9.999874, 9.999415 
1.085047e+3, 1.7502716e+2, -1259621.6, -1308114.1, 17348.178, -0.008338916, 0.081183344, -1254054.5, -29317.842, 0.0, 10.000013, 9.9993925 
1.0850517e+3, 1.8502657e+2, -1114105.3, -1179470.0, -891.4571, 0.022036297, 0.08675648, -1114093.1, 12649.309, 0.0, 10.000297, 9.999471 
1.0850553e+3, 1.9502482e+2, -961023.4, -1055970.4, -17099.078, 0.0021280313, -0.06995209, -958037.9, 70718.97, 0.0, 10.00069, 9.999452 
1.08505845e+3, 2.05024e+2, -884964.94, -1018222.56, -22948.36, -0.026194567, -0.065382294, -881123.7, 49639.816, 0.0, 10.000764, 9.998993 
1.0850613e+3, 2.1502373e+2, -824484.3, -942607.1, -34858.492, -0.06673711, -0.025663048, -814964.6, 17801.967, 0.0, 10.000525, 9.998959 
1.0850659e+3, 2.25023e+2, -746649.1, -863518.8, 94385.6, -0.058614437, 0.017528798, -694073.75, 40700.652, 0.0, 10.000411, 9.998893 
1.0850726e+3, 2.3502149e+2, -652807.5, -769845.7, 66559.56, -0.002325308, -0.05649717, -622700.06, 14090.108, 0.0, 10.000389, 9.998874 
1.0850774e+3, 2.4502061e+2, -490290.06, -610607.25, -45416.1, 0.011466423, -0.03644614, -475071.75, 63726.137, 0.0, 10.000696, 9.999152 
1.0850802e+3, 2.5502005e+2, -323237.88, -478606.94, -76394.58, -0.013816035, -0.04235262, -291968.22, 148832.81, 0.0, 10.001171, 9.999156 
1.0850844e+3, 2.650192e+2, -287735.38, -482438.4, 9188.172, 0.011227887, -0.0011716888, -287302.75, 55506.434, 0.000000020287489, 10.001062, 9.998492 
1.0850901e+3, 2.7501765e+2, -289655.56, -438454.72, 7474.4766, 0.088704295, -0.045042753, -289281.06, -44454.4, 0.0000009682407, 10.000388, 9.998449 
1.085094e+3, 2.850168e+2, -188694.86, -311660.88, -45401.49, 0.098002434, 0.024258249, -173748.45, -26912.33, 0.000016002106, 10.000301, 9.998687 
1.0850965e+3, 2.9501644e+2, -38204.504, -185415.89, -75528.945, 0.059351012, 0.07466522, -6347.3154, 42492.65, 0.00010691048, 10.000635, 9.99872 
1.0851001e+3, 3.0501467e+2, 62539.137, -59185.55, -34445.84, 0.06660637, 0.013517341, 71610.625, 71610.625, 0.00034615427, 10.00081, 9.999176 
1.08510435e+3, 3.150136e+2, 84914.93, 28083.316, -89378.98, 0.12712054, -0.052556645, 150286.44, 150286.44, 0.00073994894, 10.000542, 9.999907 
1.0950252e+3, 1.250216e+2, -1707316.0, -1826014.5, 45576.59, -0.19166948, -0.06968654, -1691835.0, 22949.242, 0.000734217, 10.000447, 9.999014 
1.0950306e+3, 1.3502163e+2, -1759513.9, -1818461.1, -60143.656, 0.087139934, 0.011789264, -1722010.3, -105218.37, 0.00033773432, 9.9995575, 9.998822 
1.0950317e+3, 1.4502145e+2, -1602056.1, -1470087.3, -31075.588, -0.15918702, 0.03000696, -1463135.8, 55658.613, 0.0000845864, 9.999031, 10.0007515 
1.09503515e+3, 1.5502222e+2, -1437295.9, -1342052.3, 7194.1094, -0.25481182, -0.013626314, -1341511.9, 79269.34, 0.0000043925156, 9.999507, 10.000731 
1.09504044e+3, 1.6502215e+2, -1375236.5, -1406303.1, 19940.47, -0.21153782, -0.021506619, -1365493.3, -42714.17, 0.0000000006358386, 9.999848, 9.999474 
1.0950474e+3, 1.7502081e+2, -1256897.8, -1301560.1, 39766.32, -0.013464918, -0.14026845, -1233621.5, -8828.572, 0.0, 9.999997, 9.99945 
1.0950519e+3, 1.8502079e+2, -1124482.4, -1182254.4, -6467.2544, -0.012512275, -0.08030521, -1123767.3, 3027.1177, 0.0, 10.00022, 9.999486 
1.0950543e+3, 1.9502176e+2, -979585.3, -1059372.8, 14957.174, -0.19872762, 0.034191657, -976873.56, 51912.88, 0.0, 10.000543, 9.9994955 
1.0950579e+3, 2.0502152e+2, -897759.2, -1008257.1, -50137.938, -0.1970526, 0.08325718, -878400.8, 52387.734, 0.0, 10.000598, 9.9991455 
1.09506264e+3, 2.1501966e+2, -838908.4, -931930.94, -27479.057, -0.011093849, -0.051218055, -831397.44, 1406.607, 0.0, 10.000343, 9.999123 
1.0950674e+3, 2.2501856e+2, -800868.2, -921337.9, 74465.74, 0.015878277, -0.039956275, -765325.25, -30510.57, 0.0, 10.000179, 9.998605 
1.09507225e+3, 2.3501776e+2, -706511.56, -826668.8, 82326.18, -0.115034476, -0.014526615, -664673.4, -27848.98, 0.0, 10.000154, 9.998596 
1.09507725e+3, 2.4501659e+2, -553690.44, -684346.9, -44174.85, -0.09721513, 0.007781929, -540156.75, -1320.3818, 0.0, 10.000456, 9.998756 
1.0950825e+3, 2.550147e+2, -383061.0, -551527.94, -38199.336, 0.07344865, -0.09602381, -374804.1, 66049.82, 0.0, 10.000956, 9.998755 
1.0950866e+3, 2.6501343e+2, -287435.03, -433412.13, -28105.0, 0.10282593, -0.09610154, -282210.94, 60654.02, 0.00000010014453, 10.000858, 9.998924 
1.0950897e+3, 2.750123e+2, -279187.1, -384233.78, 7585.585, -0.014891492, -0.13463832, -278642.16, -33767.75, 0.0000018117424, 10.000246, 9.998893 
1.09509304e+3, 2.850112e+2, -227981.66, -363291.4, -48869.36, -0.069040395, -0.10424544, -212177.58, -65292.25, 0.000017402066, 10.000175, 9.998388 
1.0950967e+3, 2.950098e+2, -77567.86, -240492.6, -40546.57, -0.036743306, -0.13446385, -68034.945, -19135.389, 0.00010435712, 10.000516, 9.998399 
1.0951006e+3, 3.0500835e+2, 719.49567, -154955.98, -59264.07, 0.0071043116, -0.11675162, 20712.957, 20712.957, 0.00033796718, 10.000684, 9.998571 
1.09510414e+3, 3.150089e+2, 1445.128, -93835.01, -45856.387, -0.03013766, 0.044801023, 19929.066, 19929.066, 0.00073108607, 10.000317, 9.999181 
1.1050251e+3, 1.2501746e+2, -1826045.9, -1837866.1, 80437.62, -0.16640277, -0.05732881, -1751301.5, -36477.023, 0.00083503575, 9.999468, 9.999364 
1.1050295e+3, 1.350177e+2, -1763287.6, -1782151.9, -41721.668, 0.0537997, 0.007540797, -1729945.3, -113116.22, 0.0003918232, 9.999385, 9.999133 
1.105032e+3, 1.4501749e+2, -1540017.8, -1473449.4, 96282.34, -0.05319449, 0.014766447, -1404860.5, 113971.11, 0.000102570426, 9.999556, 10.000501 
1.1050358e+3, 1.5501805e+2, -1348714.8, -1330780.6, 44066.105, -0.1742745, -0.02078682, -1294778.5, 126041.7, 0.0000061708192, 10.000212, 10.000488 
1.10504076e+3, 1.6501775e+2, -1328389.3, -1372107.9, 42770.758, -0.16057037, -0.045942575, -1302215.6, 20604.361, 0.0000000015512864, 10.000136, 9.999556 
1.10504724e+3, 1.7501618e+2, -1314445.9, -1313523.3, 25017.383, 0.009215654, -0.19769493, -1288962.9, -64128.086, 0.0, 9.99956, 9.99956 
1.10505186e+3, 1.8501626e+2, -1238174.9, -1245447.9, 31973.81, 0.0043665003, -0.12959044, -1209631.4, -82795.91, 0.0, 9.999483, 9.999403 
1.10505454e+3, 1.9501758e+2, -1079500.5, -1116007.5, 8385.405, -0.17744516, 0.026126238, -1077666.5, -48840.445, 0.0, 9.999893, 9.999418 
1.1050585e+3, 2.0501742e+2, -904825.25, -1020724.25, -30837.186, -0.17866707, 0.09063764, -897131.2, 33697.195, 0.0, 10.000581, 9.999075 
1.1050636e+3, 2.150154e+2, -658532.06, -853934.56, -61682.49, -0.005781947, -0.05047481, -640689.94, 192155.72, 0.0, 10.001607, 9.999055 
1.10506825e+3, 2.2501428e+2, -620181.5, -806050.1, 40576.83, 0.033163324, -0.04956444, -611709.4, 123146.37, 0.0, 10.001303, 9.998847 
1.10507265e+3, 2.3501368e+2, -758921.9, -823174.3, 54349.82, -0.058516175, -0.03004762, -727913.3, -91050.95, 0.0, 9.99968, 9.998839 
1.10507764e+3, 2.4501276e+2, -712638.1, -747038.6, 57391.504, -0.028967068, 0.000030834562, -669924.8, -131053.15, 0.0, 9.999319, 9.998858 
1.1050835e+3, 2.5501117e+2, -480317.13, -585645.44, 54984.715, 0.12887761, -0.0805427, -456844.38, -15957.455, 0.0, 10.000238, 9.998852 
1.1050878e+3, 2.6500988e+2, -313883.5, -461890.06, 56894.574, 0.13713004, -0.0828091, -294540.78, 48357.83, 0.00000018749917, 10.000736, 9.998798 
1.1050903e+3, 2.750085e+2, -224343.6, -368467.44, 13150.628, -0.00049947965, -0.13798866, -223153.48, 21757.389, 0.0000025365616, 10.00068, 9.998794 
1.10509366e+3, 2.8500712e+2, -84729.664, -325123.0, 21847.072, -0.06713971, -0.11311441, -82760.33, 64164.086, 0.000019295574, 10.001278, 9.9981365 
1.10509805e+3, 2.9500556e+2, 180753.53, -147908.27, -8023.2046, -0.0308393, -0.1296073, 180949.28, 229890.38, 0.00010487227, 10.002422, 9.998129 
1.1051019e+3, 3.050039e+2, 204414.25, -98824.82, -44512.44, 0.019196797, -0.10103804, 210813.2, 210813.2, 0.00033641586, 10.002216, 9.998223 
1.10510476e+3, 3.150043e+2, -48880.676, -143753.02, -70967.11, 0.03218196, 0.06602502, -10955.725, -10955.725, 0.0007307893, 10.000075, 9.998936 
1.1150238e+3, 1.2501417e+2, -1712790.9, -1601363.8, 40086.273, -0.33498558, 0.05627845, -1588441.3, 126419.16, 0.000944546, 9.999468, 10.000992 
1.1150264e+3, 1.3501468e+2, -1661351.8, -1571657.1, -29986.902, -0.24414977, 0.008261491, -1562555.4, 54298.246, 0.00045159098, 9.999381, 10.000587 
1.1150315e+3, 1.450146e+2, -1598996.3, -1591000.3, 95294.805, -0.111078605, -0.0042923302, -1499619.6, 19233.293, 0.00012308804, 9.999544, 9.999696 
1.11503735e+3, 1.5501438e+2, -1411474.9, -1455872.3, 83488.53, -0.068280794, -0.037395757, -1347284.3, 73569.336, 0.000008505592, 10.000195, 9.999638 
1.1150421e+3, 1.6501394e+2, -1328483.0, -1365027.6, -1184.1871, -0.07878246, -0.03312965, -1328444.8, -5588.1226, 0.0000000033697685, 10.000096, 9.999631 
1.1150463e+3, 1.7501332e+2, -1312116.0, -1302085.8, 19622.03, -0.079293564, -0.09585684, -1286848.0, -61986.04, 0.0, 9.999518, 9.99967 
1.1150509e+3, 1.8501295e+2, -1261841.1, -1278273.0, 28947.357, -0.07390165, -0.06901526, -1239966.4, -113099.836, 0.0, 9.999411, 9.999213 
1.11505575e+3, 1.9501239e+2, -1115756.5, -1158679.9, 38911.707, -0.08095598, -0.08286854, -1092780.3, -63905.652, 0.0, 9.999758, 9.999189 
1.1150601e+3, 2.0501186e+2, -949488.94, -1076444.5, -14501.893, -0.11730434, -0.025371231, -947853.5, -16972.031, 0.0, 10.000422, 9.998765 
1.1150636e+3, 2.1501093e+2, -716440.25, -917745.7, -5532.105, -0.18552206, -0.03192035, -716288.4, 116602.984, 0.0, 10.001366, 9.998732 
1.115068e+3, 2.2501019e+2, -598251.25, -706672.44, -36836.27, -0.14058436, -0.014679128, -586920.25, 147977.16, 0.0, 10.001075, 9.999639 
1.11507334e+3, 2.3500937e+2, -735968.94, -722716.5, 10859.557, 0.031139143, -0.09707792, -716621.2, -79718.61, 0.0, 9.999456, 9.999638 
1.1150784e+3, 2.4500921e+2, -707533.1, -691291.6, 76714.914, 0.077393055, -0.05426287, -622268.8, -83365.97, 0.0, 9.999121, 9.999338 
1.1150829e+3, 2.5500935e+2, -473860.63, -532776.06, 108659.17, 0.0042138435, -0.0119119305, -390736.97, 50165.04, 0.0, 10.000062, 9.999302 
1.11508705e+3, 2.650084e+2, -386551.7, -573228.9, 36721.066, -0.032212943, 0.029388651, -379588.1, -36675.53, 0.00000020790911, 10.0005665, 9.998113 
1.1150911e+3, 2.750059e+2, -290714.63, -473541.47, 33082.86, -0.029383777, -0.06994955, -284912.34, -39974.145, 0.0000030041283, 10.000532, 9.998143 
1.1150955e+3, 2.8500456e+2, -129077.2, -369371.16, 49334.527, -0.043836627, -0.0013905151, -119342.73, 27610.88, 0.000021785861, 10.001087, 9.997919 
1.1151003e+3, 2.9500377e+2, 135674.17, -195550.42, 66345.81, -0.0905409, 0.08546678, 148469.28, 197432.97, 0.00010887074, 10.00223, 9.997893 
1.1151039e+3, 3.0500135e+2, 171385.81, -128337.26, -131587.22, -0.043760687, 0.055785134, 220957.66, 220957.66, 0.00034133886, 10.002056, 9.998095 
1.1151054e+3, 3.1499937e+2, -87191.34, -178067.53, -82326.22, -0.0013957518, -0.0059123845, -38596.32, -38596.32, 0.0007375019, 9.999878, 9.998797 
1.1250244e+3, 1.2500994e+2, -1815297.6, -1631841.9, 87896.55, -0.16522077, 0.0396076, -1596527.3, 118372.71, 0.0010643419, 9.998679, 10.001178 
1.1250254e+3, 1.3501024e+2, -1618227.0, -1532469.3, -105738.06, -0.27880347, -0.04309827, -1461246.8, 155646.86, 0.00051804923, 9.999601, 10.000755 
1.1250321e+3, 1.4501022e+2, -1561943.5, -1599857.4, 43486.613, -0.0130708115, -0.04472026, -1533461.5, -14569.487, 0.00014661087, 9.999916, 9.999449 
1.125038e+3, 1.5500975e+2, -1469339.8, -1507098.0, 31070.07, -0.013160054, -0.082918644, -1451862.8, -30965.848, 0.00001150662, 9.99991, 9.99941 
1.1250424e+3, 1.6500956e+2, -1376672.3, -1390952.5, -16784.531, -0.038350906, -0.044824194, -1365572.3, -42673.176, 0.0000000061074554, 9.999776, 9.999609 
1.1250462e+3, 1.750095e+2, -1298805.9, -1295398.3, -40737.12, -0.04440079, -0.04788073, -1256329.3, -31429.346, 0.0, 9.999615, 9.999668 
1.1250508e+3, 1.850091e+2, -1183614.9, -1237016.5, 43401.902, -0.037619866, -0.026976116, -1159358.3, -32453.744, 0.0, 9.999929, 9.99925 
1.1250564e+3, 1.950078e+2, -963989.8, -1089274.9, 37638.637, -0.039613552, -0.116013475, -953551.94, 75366.32, 0.0, 10.000779, 9.999191 
1.1250608e+3, 2.0500726e+2, -916710.8, -1028374.0, 23482.852, -0.083971575, -0.073131435, -911973.3, 18951.543, 0.0, 10.000531, 9.999032 
1.1250641e+3, 2.1500707e+2, -990893.0, -1013760.0, 33769.55, -0.16581184, -0.03243422, -966673.94, -133745.52, 0.0, 9.999348, 9.999033 
1.1250686e+3, 2.2500655e+2, -851253.9, -823188.56, 26832.357, -0.098086104, -0.012411108, -806941.0, -72008.67, 0.0, 9.999294, 9.99971 
1.12507425e+3, 2.3500551e+2, -580822.25, -638490.7, -13475.354, 0.12711112, -0.122967884, -577828.8, 59110.1, 0.0, 10.000463, 9.999736 
1.12507895e+3, 2.4500525e+2, -470521.56, -599238.25, 53777.098, 0.14541773, -0.086693354, -451011.13, 87929.62, 0.0, 10.000851, 9.999141 
1.1250827e+3, 2.5500545e+2, -431121.7, -533443.8, 2905.1138, -0.037791014, -0.01495762, -431039.28, 9901.673, 0.0, 10.0004635, 9.999109 
1.1250871e+3, 2.6500466e+2, -388823.47, -556091.0, -30286.557, -0.08038843, 0.04923689, -383508.47, -40558.0, 0.00000016860811, 10.0004835, 9.998267 
1.1250921e+3, 2.750025e+2, -225471.88, -425846.3, -16732.57, 0.021569299, -0.033377808, -224084.2, 20889.246, 0.0000038179373, 10.00092, 9.998278 
1.12509705e+3, 2.8500143e+2, -155785.77, -351300.8, 81705.11, 0.036784917, 0.045496486, -126137.414, 20848.234, 0.000026510976, 10.000754, 9.998201 
1.1251018e+3, 2.950011e+2, -197388.8, -317459.88, 92281.836, -0.03552326, 0.14213449, -147332.55, -98341.53, 0.00011807009, 9.999782, 9.998222 
1.1251053e+3, 3.0499867e+2, -75028.016, -215788.89, -38987.79, 0.0009828428, 0.07851337, -64950.68, -64950.68, 0.0003550206, 10.000251, 9.998365 
1.12510696e+3, 3.1499627e+2, 209329.22, -9952.872, -24644.033, 0.09483779, -0.033529535, 212064.72, 212064.72, 0.0007557848, 10.001801, 9.999045 
1.13502406e+3, 1.2500444e+2, -1908098.3, -1818722.8, -12686.034, -0.15202107, -0.13920392, -1816957.0, -102010.87, 0.0011953667, 9.9986725, 9.99989 
1.13502584e+3, 1.3500443e+2, -1692910.3, -1678470.6, -58829.06, -0.22241485, -0.15394059, -1626420.0, -9471.933, 0.00059164723, 9.999576, 9.999761 
1.1350333e+3, 1.4500466e+2, -1535628.0, -1542974.0, 23795.111, 0.06510789, -0.101688735, -1515224.1, 3722.0906, 0.00017336896, 9.999907, 9.999846 
1.1350369e+3, 1.5500449e+2, -1443893.4, -1450825.5, 51785.617, -0.14745635, -0.14451039, -1395458.0, 25489.072, 0.000015247707, 9.999894, 9.999806 
1.13504104e+3, 1.6500472e+2, -1390954.8, -1415138.6, -43574.066, -0.19671234, -0.077253334, -1357826.0, -34880.17, 0.000000009421829, 9.999751, 9.9994545 
1.13504626e+3, 1.750049e+2, -1314492.4, -1324382.4, -32817.023, -0.03283271, -0.043045282, -1286249.9, -61302.953, 0.0, 9.9995985, 9.999475 
1.1350512e+3, 1.8500474e+2, -1171180.9, -1196631.5, 54797.2, -0.02739197, -0.0017673314, -1127650.9, -701.6982, 0.0, 9.999862, 9.999564 
1.13505594e+3, 1.9500391e+2, -967007.3, -1052780.4, 87097.195, -0.1917228, -0.076014936, -912810.5, 116145.53, 0.0, 10.000594, 9.999535 
1.1350603e+3, 2.0500371e+2, -892677.06, -937328.2, -40993.76, -0.2136606, -0.051167797, -868323.75, 62633.715, 0.0, 10.000351, 9.999747 
1.1350646e+3, 2.1500382e+2, -975184.56, -927063.0, 2388.8884, -0.07618557, -0.05019035, -926944.7, -93988.1, 0.0, 9.999118, 9.999741 
1.13506936e+3, 2.2500339e+2, -922903.2, -924885.75, 50090.6, 0.02407849, -0.027790418, -873794.06, -138833.86, 0.0, 9.999085, 9.999112 
1.1350746e+3, 2.3500203e+2, -660722.1, -748598.75, 47385.813, 0.08714529, -0.11245941, -640038.56, -3066.5054, 0.0, 10.000217, 9.9991 
1.1350789e+3, 2.4500082e+2, -563994.44, -741479.3, 22477.86, 0.026676448, -0.0931261, -561191.94, -22206.57, 0.0, 10.000628, 9.998268 
1.1350824e+3, 2.5499952e+2, -516658.47, -669417.2, 7300.06, -0.13714819, -0.08889754, -516310.4, -75307.586, 0.0, 10.00028, 9.998264 
1.13508716e+3, 2.6499885e+2, -346876.38, -434626.16, -27050.572, -0.1433901, -0.01981266, -339207.7, 3803.5645, 0.00000020663475, 10.000333, 9.999178 
1.1350933e+3, 2.7499822e+2, -187734.16, -314790.97, 24803.918, 0.0026927607, -0.032162853, -183063.64, 61952.742, 0.0000055002247, 10.0007715, 9.999118 
1.13509804e+3, 2.849977e+2, -127290.13, -250812.0, 26672.309, 0.02504954, 0.021129226, -121776.82, 25244.44, 0.000033703815, 10.00059, 9.998963 
1.13510184e+3, 2.949972e+2, -166369.8, -215432.81, 77770.93, -0.049161542, 0.021449795, -109353.086, -60326.4, 0.00013271971, 9.999618, 9.999003 
1.1351057e+3, 3.0499545e+2, -56791.87, -131951.63, 6835.3325, -0.007845085, -0.04176786, -56175.297, -56175.297, 0.00037893685, 10.000063, 9.99903 
1.13510855e+3, 3.1499496e+2, 222768.88, 79285.09, 84074.24, -0.0065439986, -0.03509335, 261550.17, 261550.17, 0.00079122034, 10.001541, 9.999783 
1.14502415e+3, 1.2500054e+2, -2010242.8, -1904936.5, -26918.336, 0.045429774, -0.13491958, -1898454.6, -183472.86, 0.0013373722, 9.998094, 9.9995985 
1.14502676e+3, 1.3500011e+2, -1615623.9, -1652991.1, 32254.482, -0.104819044, -0.18328767, -1597032.5, 19954.918, 0.000672049, 10.000115, 9.999696 
1.1450342e+3, 1.4500017e+2, -1444636.8, -1519030.6, 100570.92, 0.13903625, -0.1368237, -1374604.4, 144383.63, 0.0002032588, 10.000633, 9.999654 
1.14503674e+3, 1.5499997e+2, -1462161.5, -1482594.3, 33778.49, -0.13259545, -0.15882397, -1437088.3, -16097.207, 0.000019742625, 9.999879, 9.999594 
1.1450406e+3, 1.6500019e+2, -1378740.6, -1398857.0, -9630.351, -0.20002848, -0.086379334, -1374873.6, -51883.06, 0.000000013934886, 9.999799, 9.999542 
1.1450463e+3, 1.750004e+2, -1173666.6, -1242886.6, -10339.194, -0.026604272, -0.058214977, -1172155.3, 52835.35, 0.0, 10.000519, 9.999586 
1.1450514e+3, 1.8500037e+2, -1070581.6, -1134282.4, 106083.67, -0.0140715595, -0.013996494, -991670.2, 135320.83, 0.0, 10.000502, 9.999674 
1.14505604e+3, 1.9499983e+2, -1082711.3, -1083796.5, 81274.875, -0.18538858, -0.074473836, -1001977.2, 27017.72, 0.0, 9.999732, 9.99971 
1.1450604e+3, 2.0499972e+2, -990842.44, -992961.06, -54490.715, -0.18696776, -0.049956527, -937400.75, -6405.3213, 0.0, 9.999679, 9.999704 
1.1450649e+3, 2.1499963e+2, -794212.5, -843519.4, -94071.96, -0.0029845694, -0.06596422, -721617.1, 111379.26, 0.0, 10.000342, 9.999738 
1.1450697e+3, 2.2499926e+2, -718846.6, -824394.2, 11956.246, 0.089300305, -0.03547672, -717509.2, 17490.678, 0.0, 10.000509, 9.999104 
1.14507474e+3, 2.3499824e+2, -655139.75, -739753.0, 12582.31, 0.08311757, -0.08672326, -653308.3, -16298.787, 0.0, 10.000253, 9.999134 
1.1450791e+3, 2.4499708e+2, -607906.9, -758628.4, 62604.863, 0.010793058, -0.06736515, -585295.1, -46272.61, 0.0, 10.000291, 9.99832 
1.14508286e+3, 2.5499558e+2, -453412.1, -625229.6, 81783.375, -0.11454702, -0.08836227, -420708.72, 20332.049, 0.0, 10.000659, 9.998379 
1.145088e+3, 2.649949e+2, -295450.6, -401516.25, 86565.58, -0.09760085, -0.032801263, -246964.55, 96084.68, 0.00000038376965, 10.000634, 9.999265 
1.14509426e+3, 2.749945e+2, -264400.13, -336712.97, 44415.54, 0.063882165, -0.037692204, -243285.03, 1767.7313, 0.0000075917305, 10.000177, 9.999253 
1.1450987e+3, 2.84994e+2, -149767.98, -220253.66, 43424.813, 0.06743258, -0.007207651, -129084.336, 17972.31, 0.000041535674, 10.000253, 9.999343 
1.1451019e+3, 2.9499334e+2, 22302.152, -79125.945, 25602.646, -0.042325124, -0.053117447, 28398.404, 77459.73, 0.00014998692, 10.000726, 9.999405 
1.1451063e+3, 3.04992e+2, 86076.375, -32844.4, -2991.7666, 0.018121282, -0.11477361, 86151.59, 86151.59, 0.00040888134, 10.00088, 9.999321 
1.14511035e+3, 3.1499255e+2, 59179.953, 47916.65, -23155.367, 0.11511904, -0.03820608, 77378.67, 77378.67, 0.0008408799, 10.000224, 10.000183 
1.15502186e+3, 1.2499746e+2, -1949396.5, -1769906.9, -80173.55, -0.07181304, -0.026977085, -1739310.8, -24296.875, 0.001489488, 9.998063, 10.000533 
1.15502745e+3, 1.3499755e+2, -1549275.4, -1507196.0, 123804.9, -0.07840727, -0.1252633, -1402655.8, 214353.55, 0.00075867696, 10.000093, 10.000694 
1.1550343e+3, 1.4499679e+2, -1512485.5, -1666385.0, 51046.668, 0.037557434, -0.15961203, -1497093.3, 21924.2, 0.0002361324, 10.00064, 9.998653 
1.1550371e+3, 1.5499611e+2, -1522438.0, -1617323.6, 20951.23, -0.12517111, -0.13535184, -1518017.9, -96988.07, 0.000024990082, 9.999905, 9.998666 
1.1550408e+3, 1.6499594e+2, -1348166.9, -1330519.6, -2455.1755, -0.20959994, -0.0783069, -1330184.4, -7151.0723, 0.000000023716384, 9.999786, 10.000011 
1.1550458e+3, 1.749961e+2, -1153585.5, -1182106.8, 34237.293, -0.16030248, -0.101483166, -1130757.6, 94272.57, 0.0, 10.000447, 10.000031 
1.155051e+3, 1.8499613e+2, -1099175.4, -1173397.8, 57693.89, -0.14220782, -0.06239497, -1067687.6, 59341.42, 0.0, 10.000416, 9.999445 
1.1550563e+3, 1.949956e+2, -1116692.5, -1125094.5, 64847.863, -0.17401804, -0.10208922, -1055909.6, -26875.28, 0.0, 9.999603, 9.999489 
1.1550608e+3, 2.0499524e+2, -1052481.5, -1084464.3, -53712.145, -0.1582646, -0.06378179, -1012430.75, -81391.89, 0.0, 9.999518, 9.999154 
1.1550647e+3, 2.1499464e+2, -868475.56, -945148.3, -52995.02, -0.08239122, -0.07544952, -841404.4, -8357.871, 0.0, 10.000108, 9.999156 
1.15506925e+3, 2.2499433e+2, -718412.06, -770028.4, -15508.863, -0.033858027, -0.03333572, -714110.7, 20939.33, 0.0, 10.000279, 9.999586 
1.15507424e+3, 2.3499407e+2, -654729.7, -688307.44, 19591.877, -0.014617627, -0.057154108, -645717.25, -8665.027, 0.0, 10.000037, 9.999592 
1.1550792e+3, 2.4499393e+2, -566006.06, -621758.44, 54421.656, -0.036040075, -0.010228383, -532736.5, 6316.643, 0.0, 10.000074, 9.999363 
1.155084e+3, 2.5499362e+2, -412123.34, -495316.25, 110910.89, -0.107541606, -0.01837382, -335265.2, 105790.84, 0.0, 10.000459, 9.999371 
1.15508914e+3, 2.6499274e+2, -370885.9, -510314.38, 53690.266, -0.08061758, 0.0031917002, -352607.4, -9541.616, 0.0000005356376, 10.000437, 9.998606 
1.1550946e+3, 2.7499098e+2, -330796.1, -434417.4, 48653.08, 0.044468317, -0.0741599, -311533.1, -66447.586, 0.000008957139, 10.000006, 9.998661 
1.15509875e+3, 2.849902e+2, -165004.55, -213743.9, 45913.504, 0.011652294, -0.050759126, -137394.13, 9698.504, 0.000047577858, 10.000092, 9.999463 
1.15510166e+3, 2.949898e+2, 10446.38, -85905.06, 72382.02, -0.18977247, -0.08243126, 49219.25, 98312.4, 0.00016516355, 10.000631, 9.999412 
1.1551064e+3, 3.0498832e+2, 40127.613, -79113.73, -38996.773, -0.08388763, -0.14251427, 51748.594, 51748.594, 0.00043860512, 10.000692, 9.999079 
1.1551114e+3, 3.149886e+2, 13724.813, 8857.793, 8042.7847, 0.12255674, -0.07227046, 19694.182, 19694.182, 0.0008954558, 9.9999895, 10.000022 
1.1650206e+3, 1.2499256e+2, -1700909.1, -1616732.0, -42072.516, -0.05705084, -0.09072258, -1599309.8, 115751.06, 0.0016512593, 9.999627, 10.000821 
1.1650276e+3, 1.3499354e+2, -1717218.8, -1581332.5, 47678.25, -0.001995817, -0.09864255, -1566272.8, 50775.016, 0.0008513687, 9.998931, 10.000741 
1.1650334e+3, 1.4499287e+2, -1730118.3, -1738921.5, 14362.297, -0.02076172, -0.14093755, -1719498.3, -200443.33, 0.00027198074, 9.999028, 9.998917 
1.16503775e+3, 1.5499224e+2, -1466478.6, -1562583.5, 33905.344, -0.061250836, -0.13964431, -1455721.1, -34655.527, 0.00003101119, 10.000177, 9.998902 
1.1650418e+3, 1.6499203e+2, -1254150.8, -1304806.3, 59506.387, -0.11820903, -0.089586824, -1214806.3, 108263.03, 0.00000004774233, 10.0005, 9.999853 
1.165046e+3, 1.7499207e+2, -1225155.5, -1240409.3, 12732.692, -0.14545788, -0.10583631, -1217940.1, 7127.863, 0.0, 10.000027, 9.999852 
1.1650512e+3, 1.8499188e+2, -1181441.9, -1226335.6, 44461.41, -0.12091659, -0.07497685, -1154082.3, -27013.125, 0.0, 9.999905, 9.999327 
1.1650571e+3, 1.9499113e+2, -1025565.44, -1094553.6, 27226.848, -0.07393131, -0.12558219, -1016114.75, 12961.565, 0.0, 10.000283, 9.999374 
1.1650617e+3, 2.0499057e+2, -929447.2, -1033440.6, -17991.176, -0.060145166, -0.09385344, -926422.6, 4659.814, 0.0, 10.000427, 9.999053 
1.16506495e+3, 2.149899e+2, -841630.25, -935846.6, -28976.852, -0.072071254, -0.10602212, -833431.7, -340.72385, 0.0, 10.000342, 9.999092 
1.1650692e+3, 2.249896e+2, -737069.8, -801491.9, 22636.059, -0.04694225, -0.053784132, -729911.56, 5183.452, 0.0, 10.000226, 9.999407 
1.16507456e+3, 2.3498924e+2, -661810.94, -711582.7, -18768.678, 0.020724596, -0.06529212, -655526.75, -18428.355, 0.0, 10.000057, 9.999433 
1.1650797e+3, 2.4498926e+2, -556044.4, -569304.6, 19769.684, 0.025562083, -0.017985413, -541822.7, -2724.7905, 0.0, 9.999937, 9.999785 
1.1650847e+3, 2.549893e+2, -463920.5, -471677.72, -6101.591, -0.038371854, -0.032687217, -460569.13, -19472.645, 0.0, 9.99989, 9.999805 
1.16508976e+3, 2.6498872e+2, -418608.22, -509632.13, -30838.586, -0.027589878, -0.014655404, -409144.22, -66041.27, 0.00000056359414, 10.000011, 9.998816 
1.1650948e+3, 2.7498725e+2, -286124.3, -390711.13, -13502.994, 0.06949522, -0.08043584, -284409.1, -39289.29, 0.00000928475, 10.000231, 9.9988575 
1.16509914e+3, 2.849864e+2, -101153.57, -219744.9, 57293.254, 0.025907587, -0.05577666, -77996.26, 69131.73, 0.000050789153, 10.000667, 9.99915 
1.1651028e+3, 2.9498577e+2, 73954.9, -85500.16, 8567.137, -0.1557762, -0.08252874, 74413.87, 123546.01, 0.00017624088, 10.001206, 9.99913 
1.165108e+3, 3.0498394e+2, 160598.16, -84497.49, -106858.6, -0.033631027, -0.1336467, 200644.1, 200644.1, 0.00046429865, 10.001772, 9.998539 
1.16511315e+3, 3.1498367e+2, 249514.77, 85327.555, -139635.42, 0.22059938, -0.057651512, 329400.8, 329400.8, 0.00094360544, 10.00176, 9.999715 
1.175021e+3, 1.2498599e+2, -1737977.8, -1661546.0, -39808.88, -0.06367233, -0.3271643, -1644578.5, 70542.32, 0.0018234614, 9.999524, 10.000555 
1.175027e+3, 1.3498826e+2, -1783047.6, -1718453.9, 35004.395, 0.0046909368, -0.108613946, -1703123.0, -86021.58, 0.0009506097, 9.998947, 9.999791 
1.17503114e+3, 1.4498857e+2, -1629745.8, -1523331.8, 39332.16, -0.20472744, -0.081270225, -1510372.3, 8726.603, 0.00031097958, 9.9990015, 10.000403 
1.1750381e+3, 1.5498847e+2, -1368644.8, -1355429.8, 96350.516, -0.0847707, -0.17190918, -1265460.4, 155637.4, 0.00003785508, 10.000157, 10.000331 
1.175043e+3, 1.6498844e+2, -1321258.5, -1435340.4, 22340.848, -0.07711457, -0.13009264, -1317039.5, 6059.484, 0.00000010132158, 10.000463, 9.998972 
1.17504664e+3, 1.7498831e+2, -1291377.9, -1363725.9, 12432.614, -0.120144606, -0.08409356, -1289301.1, -64196.797, 0.0, 9.999967, 9.999033 
1.1750518e+3, 1.849878e+2, -1189324.6, -1225209.6, 39070.758, -0.097193256, -0.048169654, -1164273.4, -37163.543, 0.0, 9.99983, 9.9993725 
1.17505826e+3, 1.9498648e+2, -1041945.06, -1100538.6, 61513.996, -0.023180712, -0.15467525, -1003107.6, 26012.076, 0.0, 10.000157, 9.999399 
1.17506266e+3, 2.049858e+2, -938653.7, -1012493.94, -40764.58, -0.035177793, -0.14959013, -920575.2, 10550.11, 0.0, 10.0002575, 9.999275 
1.1750652e+3, 2.1498542e+2, -856043.2, -920398.44, -16812.352, -0.11449504, -0.15718892, -851915.8, -18785.896, 0.0, 10.000139, 9.999299 
1.17506936e+3, 2.2498485e+2, -821091.0, -918026.44, -4129.8784, -0.09023133, -0.10483753, -820915.4, -85778.914, 0.0, 9.999983, 9.998721 
1.17507495e+3, 2.3498386e+2, -744602.4, -822053.56, -7445.409, 0.032946624, -0.11510277, -743893.2, -106745.47, 0.0, 9.9998045, 9.998789 
1.1750802e+3, 2.4498323e+2, -606100.06, -622644.9, 430.26, 0.046449896, -0.08707952, -606088.9, -66933.57, 0.0, 9.999711, 9.999534 
1.17508486e+3, 2.5498265e+2, -501262.44, -508819.78, 9333.344, -0.050054062, -0.14343089, -494971.84, -53809.55, 0.0, 9.999714, 9.999635 
1.1750897e+3, 2.6498276e+2, -375776.5, -383255.94, -41035.08, -0.058718704, -0.092589356, -338311.1, 4850.127, 0.0000005132723, 9.999845, 9.99977 
1.1750946e+3, 2.7498317e+2, -238429.8, -263598.16, 15500.287, -0.008944244, -0.06927973, -231048.5, 14108.071, 0.000009286575, 10.000103, 9.999795 
1.1750996e+3, 2.849826e+2, -184037.08, -352286.84, 61805.28, -0.033208072, -0.020918846, -163773.8, -16611.082, 0.000051726838, 10.000503, 9.998317 
1.1751048e+3, 2.9498082e+2, 8292.479, -195603.94, 52022.742, -0.117456496, -0.081301585, 20798.64, 69980.586, 0.00018255804, 10.001083, 9.998436 
1.1751106e+3, 3.0497855e+2, 83004.87, -194940.94, -116279.65, 0.02009258, -0.12093714, 125234.68, 125234.68, 0.0004800074, 10.001577, 9.997865 
1.1751146e+3, 3.1497797e+2, 187340.52, 27799.861, -96177.86, 0.12286217, -0.007347203, 232524.13, 232524.13, 0.0009690312, 10.001474, 9.999445 
1.1850197e+3, 1.24980584e+2, -1890967.5, -1743837.0, 30666.205, -0.083729744, -0.34169728, -1737701.1, -22527.775, 0.0020081834, 9.99847, 10.000513 
1.185027e+3, 1.3498278e+2, -1602426.8, -1663521.5, 16010.749, 0.0553474, -0.11214182, -1598485.1, 18671.605, 0.0010574218, 10.000298, 9.999528 
1.18503086e+3, 1.4498365e+2, -1418743.9, -1360423.4, 22029.988, -0.17945531, -0.044146527, -1353037.3, 166111.3, 0.00035351914, 10.000159, 10.000978 
1.1850376e+3, 1.5498377e+2, -1593517.5, -1392099.3, -27080.46, -0.046154775, -0.16960768, -1388521.9, 32620.807, 0.00004562391, 9.998304, 10.000979 
1.1850429e+3, 1.6498382e+2, -1615255.3, -1586150.6, -12122.353, -0.018184634, -0.14849846, -1581763.0, -258620.67, 0.00000019883093, 9.998495, 9.998886 
1.1850476e+3, 1.7498344e+2, -1164527.6, -1306568.3, -3756.9517, -0.062017992, -0.12156528, -1164428.4, 60722.293, 0.0, 10.000866, 9.998984 
1.1850528e+3, 1.8498291e+2, -983196.2, -1123141.1, 23160.086, -0.04971385, -0.086044624, -979462.94, 147693.55, 0.0, 10.001225, 9.999406 
1.1850582e+3, 1.9498186e+2, -1125324.1, -1133796.8, 6278.795, 0.0022768395, -0.17092669, -1121986.3, -92822.76, 0.0, 9.999551, 9.999465 
1.18506275e+3, 2.0498113e+2, -1078729.5, -1103806.8, -23663.582, 0.004326888, -0.16120341, -1064487.9, -133318.89, 0.0, 9.999389, 9.99908 
1.1850664e+3, 2.1498042e+2, -774149.44, -895750.4, -59040.785, -0.023587242, -0.18007688, -750200.2, 82976.01, 0.0, 10.000773, 9.999161 
1.1850708e+3, 2.2497961e+2, -639456.3, -827626.94, -37928.5, 0.008786059, -0.14747149, -632098.94, 103085.88, 0.0, 10.001219, 9.998742 
1.1850757e+3, 2.3497835e+2, -617835.75, -760051.1, -30476.244, 0.09402716, -0.18895194, -611580.0, 25618.545, 0.0, 10.000666, 9.998799 
1.1850803e+3, 2.4497771e+2, -534742.25, -601045.0, 50707.36, 0.071757235, -0.1562272, -507311.03, 31895.531, 0.0, 10.000265, 9.999415 
1.1850845e+3, 2.5497735e+2, -467357.6, -516121.66, 31838.102, -0.059522904, -0.17005199, -451637.88, -10425.332, 0.0, 10.000041, 9.999438 
1.1850896e+3, 2.6497757e+2, -322599.38, -348087.28, 2610.082, -0.061191436, -0.10406253, -322334.84, 20876.332, 0.0000005059796, 10.000188, 9.999833 
1.18509546e+3, 2.7497792e+2, -147092.42, -217185.16, -52198.773, 0.041269425, -0.08942494, -119266.22, 125940.27, 0.000009353779, 10.000728, 9.999807 
1.1851008e+3, 2.849774e+2, -147288.11, -352253.2, 13804.949, 0.03848493, -0.027103987, -146362.5, 850.07983, 0.000051580555, 10.000854, 9.9981365 
1.1851064e+3, 2.9497594e+2, -86191.62, -263891.1, 10195.266, -0.032810543, -0.03827989, -85608.586, -36377.81, 0.00018437536, 10.000549, 9.998218 
1.18511245e+3, 3.0497357e+2, 1748.4598, -261263.47, -74464.695, 0.0813817, -0.060467392, 21367.639, 21367.639, 0.00048100852, 10.001108, 9.997646 
1.1851165e+3, 3.1497228e+2, 280734.53, 57444.965, -95847.53, 0.14567883, 0.0034290089, 316233.6, 316233.6, 0.00096257555, 10.002142, 9.999342 
1.1950175e+3, 1.24976024e+2, -1879782.3, -1715568.5, 123637.76, -0.23100643, -0.17398205, -1649257.6, 65963.9, 0.0022081332, 9.998457, 10.000705 
1.19502686e+3, 1.3497692e+2, -1561193.8, -1578983.5, 96058.91, -0.016361242, -0.13248469, -1473618.8, 143596.5, 0.0011730703, 10.000293, 10.000111 
1.1950321e+3, 1.4497797e+2, -1444035.4, -1405104.0, -69845.47, -0.124672905, -0.06041837, -1352062.4, 167142.64, 0.00040013902, 10.000132, 10.000684 
1.1950359e+3, 1.5497832e+2, -1611191.9, -1435254.1, -79725.74, -0.076275714, -0.13603015, -1404501.8, 16696.889, 0.00005450229, 9.998325, 10.000676 
1.19504124e+3, 1.649783e+2, -1565596.6, -1482829.9, 54897.56, -0.08211539, -0.14361206, -1455465.0, -132267.02, 0.00000035173326, 9.998488, 9.999602 
1.1950483e+3, 1.7497759e+2, -1126045.0, -1214805.9, 101437.8, -0.1047772, -0.21691975, -1059704.0, 165502.13, 0.0, 10.000808, 9.999648 
1.19505346e+3, 1.8497731e+2, -998293.0, -1132181.0, -58622.652, -0.12445826, -0.18609433, -976253.2, 150955.17, 0.0, 10.001134, 9.999385 
1.19505666e+3, 1.9497722e+2, -1144338.1, -1145655.6, -40861.14, -0.1400155, -0.17549242, -1104130.4, -74922.75, 0.0, 9.99943, 9.999442 
1.1950615e+3, 2.0497659e+2, -1137683.6, -1186980.3, 7880.06, -0.08194403, -0.13134179, -1136454.6, -205241.34, 0.0, 9.999227, 9.998583 
1.1950682e+3, 2.1497509e+2, -843485.7, -986931.5, 10615.657, 0.05882079, -0.17941034, -842704.4, -9475.876, 0.0, 10.000547, 9.998644 
1.1950733e+3, 2.2497393e+2, -632905.75, -754764.4, -78176.76, 0.10863864, -0.18616234, -594719.06, 140520.58, 0.0, 10.000964, 9.999365 
1.1950764e+3, 2.3497282e+2, -605849.7, -679307.1, -38149.2, 0.06848756, -0.27818367, -589622.2, 47627.418, 0.0, 10.000431, 9.999462 
1.1950797e+3, 2.4497281e+2, -571634.5, -625664.3, 23023.115, -0.036120772, -0.21264885, -563154.75, -23904.05, 0.0, 10.000041, 9.999359 
1.19508326e+3, 2.5497356e+2, -499072.3, -530987.3, 41975.473, -0.21531543, -0.11041552, -470123.44, -28877.207, 0.0, 9.99983, 9.999435 
1.19508885e+3, 2.6497325e+2, -419847.16, -506300.56, 5949.718, -0.17744045, -0.04807694, -419439.63, -76188.26, 0.0000006389743, 9.999995, 9.998844 
1.1950968e+3, 2.7497151e+2, -234437.2, -359885.0, -11724.237, 0.07685652, -0.1459055, -233350.88, 11918.548, 0.000009301616, 10.000567, 9.998903 
1.1951028e+3, 2.8497094e+2, -139881.97, -307561.38, -11818.378, 0.11031914, -0.066002786, -139053.08, 8223.785, 0.00005191434, 10.000721, 9.998511 
1.195107e+3, 2.9497105e+2, -83233.12, -226709.25, 24957.625, -0.07137064, 0.04153616, -79015.72, -29737.246, 0.00018470343, 10.000404, 9.9985485 
1.1951131e+3, 3.0496907e+2, -30722.578, -272390.72, -43437.26, -0.0011718264, 0.04707292, -23152.334, -23152.334, 0.00047307427, 10.000885, 9.997667 
1.1951178e+3, 3.149666e+2, 236459.16, 42151.82, -8090.1978, -0.0058780415, -0.02099708, 236795.42, 236795.42, 0.0009340092, 10.001832, 9.999374 
1.2050177e+3, 1.24971345e+2, -1673273.4, -1621603.1, 184613.81, -0.11089666, -0.039905813, -1461025.5, 254244.61, 0.0024257244, 9.999911, 10.000656 
1.20502524e+3, 1.3497107e+2, -1889683.9, -1683638.6, 74858.79, -0.06407076, -0.15320516, -1659313.3, -42040.285, 0.0012988481, 9.997835, 10.000565 
1.2050317e+3, 1.4497203e+2, -1788860.8, -1603909.1, -29868.541, -0.051861938, -0.09829052, -1599205.1, -79941.984, 0.00045139206, 9.9978895, 10.000405 
1.2050353e+3, 1.549728e+2, -1314051.5, -1319707.3, -84188.23, -0.0663947, -0.106940866, -1232643.8, 188610.84, 0.00006471426, 10.000476, 10.000434 
1.2050405e+3, 1.6497307e+2, -1242707.1, -1279750.1, 66368.85, -0.08429057, -0.09475728, -1192323.9, 130927.27, 0.00000057087306, 10.000508, 10.000012 
1.205048e+3, 1.7497247e+2, -1489600.9, -1338195.3, 55859.93, -0.083282694, -0.19774812, -1319817.0, -94560.82, 0.0, 9.998105, 10.000093 
1.2050535e+3, 1.8497233e+2, -1425433.4, -1343788.1, -55372.55, -0.09003974, -0.1737859, -1315816.9, -188559.92, 0.0, 9.9982395, 9.999319 
1.2050571e+3, 1.9497229e+2, -915769.56, -1037445.0, -74871.086, -0.109470256, -0.15437539, -880135.0, 149121.98, 0.0, 10.001021, 9.999406 
1.2050623e+3, 2.0497157e+2, -767681.3, -1008880.1, 6829.8813, -0.04955425, -0.11877626, -767488.06, 163775.38, 0.0, 10.001739, 9.998604 
1.205069e+3, 2.149698e+2, -869962.06, -1001924.9, 10250.72, 0.091626726, -0.19676574, -869170.5, -35890.027, 0.0, 10.000336, 9.998656 
1.2050738e+3, 2.2496869e+2, -812129.4, -850677.4, -48179.86, 0.13569224, -0.19505614, -779511.3, -44220.047, 0.0, 9.999777, 9.999283 
1.2050768e+3, 2.3496795e+2, -657446.6, -717885.7, -95081.44, 0.0876252, -0.23692045, -587897.94, 49400.918, 0.0, 10.000132, 9.999351 
1.2050802e+3, 2.4496798e+2, -510767.44, -594813.06, -25776.902, -0.0056794477, -0.16045214, -503491.53, 35807.797, 0.0, 10.00047, 9.999343 
1.2050839e+3, 2.5496843e+2, -363123.78, -470130.84, -45923.3, -0.16922869, -0.088626236, -346117.9, 95178.65, 0.00000000020898414, 10.00079, 9.999378 
1.2050897e+3, 2.6496768e+2, -291201.72, -493678.44, -15521.269, -0.14325501, -0.04642476, -290018.8, 53286.605, 0.00000074892756, 10.001078, 9.998411 
1.20509766e+3, 2.7496544e+2, -157873.83, -372497.72, -30183.87, 0.079449005, -0.15197535, -153709.69, 91619.016, 0.000009032264, 10.0012865, 9.99847 
1.2051038e+3, 2.8496444e+2, -36087.45, -236478.36, -8296.164, 0.118083306, -0.10114693, -35744.574, 111594.49, 0.000052136886, 10.001346, 9.998703 
1.205108e+3, 2.949643e+2, 35401.42, -145107.47, -32106.06, -0.029883334, -0.030753195, 40941.887, 90282.56, 0.0001849306, 10.001139, 9.998749 
1.2051145e+3, 3.049627e+2, 71003.76, -209851.47, -18662.193, 0.046575375, -0.010121738, 72238.4, 72238.4, 0.0004665325, 10.001518, 9.997791 
1.20512e+3, 3.149603e+2, 257511.97, 70905.625, -47642.785, 0.04017514, -0.07922409, 268971.94, 268971.94, 0.00090609276, 10.00192, 9.99952 
1.2150183e+3, 1.2496541e+2, -1686314.6, -1631313.5, -25064.03, -0.1110912, -0.05768883, -1621605.4, 93725.15, 0.0026624324, 9.999864, 10.000602 
1.215022e+3, 1.3496532e+2, -1875230.6, -1652554.1, 4123.7573, -0.21520129, -0.17257646, -1652477.9, -35149.117, 0.0014356553, 9.997836, 10.000778 
1.2150295e+3, 1.4496593e+2, -1797230.5, -1620619.6, 43896.207, -0.10654756, -0.16008195, -1610311.0, -90989.016, 0.0005075534, 9.997892, 10.000286 
1.21503524e+3, 1.5496723e+2, -1331951.9, -1352368.9, 34382.4, -0.15662804, -0.09754591, -1306294.5, 115015.85, 0.000076397075, 10.000453, 10.000224 
1.2150405e+3, 1.6496806e+2, -1237629.8, -1261260.6, -41623.992, -0.18377258, -0.023200506, -1206176.6, 117125.734, 0.0000008702971, 10.000482, 10.000146 
1.2150459e+3, 1.7496812e+2, -1489597.9, -1325087.3, -17794.668, -0.13329113, -0.07419813, -1323184.5, -97883.41, 0.0, 9.998049, 10.000211 
1.215052e+3, 1.8496792e+2, -1438333.5, -1351828.1, 30187.23, -0.090500124, -0.0621078, -1342335.6, -215032.94, 0.0, 9.998161, 9.999302 
1.21505894e+3, 1.949671e+2, -940830.06, -1055797.8, 48700.8, -0.054494306, -0.115921006, -922973.6, 106337.27, 0.0, 10.000877, 9.9993515 
1.2150643e+3, 2.049661e+2, -761908.4, -949485.8, -65354.34, -0.044120204, -0.12939665, -741383.9, 189935.64, 0.0, 10.001537, 9.999105 
1.215068e+3, 2.1496467e+2, -868470.6, -938078.3, -28096.242, -0.064024, -0.22732855, -858545.2, -25214.13, 0.0, 10.000076, 9.999215 
1.21507205e+3, 2.2496402e+2, -902019.6, -985580.9, -54998.098, -0.041702073, -0.16955245, -874732.06, -139393.66, 0.0, 9.999547, 9.998472 
1.2150765e+3, 2.3496382e+2, -743198.94, -846958.06, -63121.44, 0.023434138, -0.07599771, -713372.9, -76028.055, 0.0, 9.99992, 9.998566 
1.21508114e+3, 2.4496327e+2, -556469.1, -630102.75, -28561.066, 0.015606269, -0.01327443, -546689.6, -7337.9854, 0.0, 10.000215, 9.999222 
1.21508606e+3, 2.5496203e+2, -400987.34, -501982.63, -16855.824, -0.061681516, -0.10312827, -398248.4, 43114.113, 0.00000000018849695, 10.000587, 9.999253 
1.2150916e+3, 2.6496094e+2, -314464.78, -494854.13, -24519.596, -0.09636172, -0.09016991, -311191.34, 32180.768, 0.00000061447383, 10.000871, 9.9985075 
1.2150975e+3, 2.7495962e+2, -173654.9, -368209.78, -1265.9238, -0.09176943, -0.112489566, -173646.66, 71737.8, 0.000008322687, 10.001118, 9.998588 
1.2151033e+3, 2.84958e+2, -81413.21, -269737.4, -31549.975, -0.08865732, -0.12743819, -76268.2, 71130.66, 0.000050710027, 10.001102, 9.998584 
1.2151092e+3, 2.9495585e+2, 6328.4307, -166725.9, -13868.922, -0.07274787, -0.2512249, 7432.865, 56850.17, 0.00018357177, 10.00098, 9.99867 
1.2151167e+3, 3.0495432e+2, 57184.598, -200625.0, -15041.856, 0.08049408, -0.22204114, 58059.242, 58059.242, 0.00046227945, 10.001359, 9.997935 
1.2151222e+3, 3.1495318e+2, 230779.05, 88022.28, 6851.373, -0.0067452444, -0.17917997, 231107.11, 231107.11, 0.0008888424, 10.001615, 9.999784 
1.22501865e+3, 1.2496052e+2, -1930557.8, -1759038.5, -14600.573, 0.040830262, -0.013914461, -1757804.5, -42422.023, 0.0029179724, 9.998202, 10.000527 
1.2250213e+3, 1.3496053e+2, -1594343.9, -1536484.4, -17180.803, -0.14004564, -0.10270562, -1531767.3, 85610.18, 0.0015834377, 9.999834, 10.000617 
1.2250287e+3, 1.4496036e+2, -1564945.0, -1528937.4, 69092.016, -0.047912814, -0.1495444, -1475542.0, 43835.14, 0.00056846405, 9.999595, 10.000087 
1.2250348e+3, 1.5496099e+2, -1731498.6, -1552954.9, 10866.324, -0.10925822, -0.1424633, -1552296.0, -130923.78, 0.00008951281, 9.9977865, 10.00011 
1.2250402e+3, 1.6496184e+2, -1606558.5, -1428014.9, -37818.332, -0.13081506, -0.06798279, -1420334.8, -96970.984, 0.0000012652538, 9.997855, 10.0003 
1.2250454e+3, 1.749626e+2, -1205813.6, -1165623.8, -42767.64, -0.07402386, -0.06362618, -1138465.4, 86889.63, 0.0, 9.999875, 10.000441 
1.2250519e+3, 1.849627e+2, -1114657.1, -1180548.8, 85827.77, -0.016972134, -0.043105908, -1055669.1, 71684.45, 0.0, 10.000289, 9.999466 
1.2250597e+3, 1.9496167e+2, -1189076.1, -1159853.1, 81601.27, 0.03216665, -0.13274603, -1091565.5, -62201.52, 0.0, 9.999085, 9.999515 
1.2250653e+3, 2.0496091e+2, -1102412.0, -1109748.6, -30533.443, 0.023536634, -0.13088958, -1075327.3, -143955.98, 0.0, 9.999203, 9.99912 
1.2250685e+3, 2.1496016e+2, -783031.94, -893470.9, -67504.95, -0.0495913, -0.16092691, -751038.44, 82339.71, 0.0, 10.000675, 9.999221 
1.2250724e+3, 2.2495954e+2, -642034.2, -884103.2, -51867.848, -0.042870585, -0.09126898, -631388.7, 103996.98, 0.0, 10.00142, 9.998265 
1.22507714e+3, 2.3495863e+2, -546441.7, -779917.4, -58077.504, 0.0349031, -0.046361525, -532792.7, 104605.03, 0.0, 10.001369, 9.998335 
1.2250821e+3, 2.4495755e+2, -452970.06, -621341.3, 16959.51, 0.05339315, -0.008462641, -451278.75, 88130.37, 0.0, 10.001079, 9.998885 
1.2250873e+3, 2.5495598e+2, -424914.7, -549285.4, -19360.205, 0.013339326, -0.095066465, -421970.66, 19452.172, 0.0, 10.000568, 9.998949 
1.2250929e+3, 2.6495472e+2, -352275.84, -498340.84, 18566.549, -0.019334704, -0.09216614, -349952.78, -6519.511, 0.0000003685213, 10.000575, 9.99861 
1.2250989e+3, 2.7495334e+2, -176787.78, -354746.6, -2146.5447, -0.059768815, -0.13036878, -176761.89, 68682.414, 0.0000073761885, 10.001079, 9.998676 
1.2251046e+3, 2.8495142e+2, -42630.21, -285525.5, -18208.926, -0.07447146, -0.16513851, -41272.746, 106187.766, 0.000049087277, 10.001476, 9.998302 
1.22511074e+3, 2.949488e+2, 74626.305, -173913.44, -46429.25, -0.036408354, -0.3075162, 83016.43, 132500.11, 0.00018153466, 10.001584, 9.998346 
1.2251186e+3, 3.0494738e+2, 124870.32, -173521.89, -9936.515, 0.12638013, -0.24589382, 125200.84, 125200.84, 0.00045750884, 10.001863, 9.997861 
1.22512475e+3, 3.1494617e+2, 258442.44, 64861.332, -89197.04, 0.09056854, -0.20382275, 293274.53, 293274.53, 0.0008772591, 10.001925, 9.9994755 
1.2350169e+3, 1.24956965e+2, -1918117.0, -1756861.8, -41792.29, -0.042753864, 0.108874656, -1746674.1, -31250.95, 0.0031899144, 9.9982815, 10.00051 
1.23502284e+3, 1.349567e+2, -1626982.8, -1615800.0, 52787.965, -0.016359292, 0.040654574, -1568308.1, 49111.24, 0.0017411282, 9.999862, 10.000063 
1.23502865e+3, 1.4495523e+2, -1582909.8, -1577006.1, -22736.277, -0.070035584, -0.09109946, -1557030.9, -37600.99, 0.0006337289, 9.999631, 9.999747 
1.2350334e+3, 1.549539e+2, -1748074.1, -1598817.8, -45833.33, -0.063031465, -0.24335231, -1585867.0, -164425.42, 0.00010392506, 9.997813, 9.999796 
1.2350389e+3, 1.6495425e+2, -1574762.4, -1363629.5, 11526.095, -0.06827211, -0.22728561, -1363002.1, -39565.55, 0.0000017603737, 9.997863, 10.000734 
1.2350458e+3, 1.7495593e+2, -1180722.9, -1111570.1, 47926.875, -0.054889504, -0.17447679, -1087049.0, 138368.92, 0.0, 9.999855, 10.000824 
1.2350525e+3, 1.8495663e+2, -1104047.0, -1141262.1, 22769.033, -0.025776733, -0.12731878, -1093249.3, 34160.797, 0.0, 10.000216, 9.999769 
1.235059e+3, 1.9495602e+2, -1182448.9, -1117973.8, 52842.246, 0.008510098, -0.20675083, -1088311.6, -58895.773, 0.0, 9.998963, 9.999859 
1.2350647e+3, 2.0495602e+2, -1161028.8, -1190950.0, 3065.856, 0.017351344, -0.1250135, -1160717.9, -229299.27, 0.0, 9.999026, 9.99865 
1.2350699e+3, 2.1495628e+2, -849802.0, -981843.25, 5083.1445, 0.00023765938, -0.0062909625, -849606.6, -16185.152, 0.0, 10.000455, 9.998722 
1.2350745e+3, 2.2495523e+2, -653367.06, -855024.94, -69587.7, -0.009735784, 0.032061826, -631685.1, 103747.81, 0.0, 10.001187, 9.998583 
1.23507835e+3, 2.3495251e+2, -558176.94, -751793.6, -39575.594, -0.0146720745, -0.13803916, -550400.0, 87056.42, 0.0, 10.001138, 9.998644 
1.2350825e+3, 2.4495098e+2, -523252.7, -710776.8, -18232.016, -0.043793526, -0.13536628, -521496.53, 17973.828, 0.0, 10.000836, 9.998386 
1.23508714e+3, 2.549503e+2, -487534.28, -633115.1, -18274.04, -0.08331884, -0.08133142, -485275.5, -43797.992, 0.0, 10.000362, 9.998477 
1.2350934e+3, 2.649489e+2, -390316.47, -518323.1, 22300.854, -0.05898981, -0.067282416, -386542.56, -43053.16, 0.00000016286783, 10.000327, 9.998591 
1.2351011e+3, 2.749464e+2, -207723.97, -374365.06, 38529.938, 0.02634848, -0.21712779, -199246.53, 46263.27, 0.000006622681, 10.00089, 9.9986315 
1.2351073e+3, 2.8494456e+2, -98232.61, -351276.16, -25531.158, 0.0085220635, -0.22341777, -95682.31, 51843.453, 0.000048750662, 10.001269, 9.997951 
1.235112e+3, 2.9494306e+2, 25662.314, -235781.83, -14941.459, -0.098204784, -0.21668592, 26513.443, 76053.98, 0.00018217463, 10.001407, 9.998011 
1.2351198e+3, 3.049418e+2, 65569.12, -251177.1, -13067.952, 0.014058348, -0.10316238, 66107.34, 66107.34, 0.00045752534, 10.001671, 9.997421 
1.2351269e+3, 3.1493914e+2, 149703.84, -86787.69, -46314.566, 0.03506439, -0.16355228, 158450.6, 158450.6, 0.00087459444, 10.001617, 9.998578 
1.245016e+3, 1.2495207e+2, -1586274.9, -1625332.6, 44160.492, -0.072145365, 0.08920518, -1557517.9, 157951.38, 0.003475539, 10.000716, 10.000229 
1.2450237e+3, 1.3495156e+2, -1756974.0, -1727940.4, 51632.54, 0.12675986, 0.03986179, -1688822.6, -71352.27, 0.0019075654, 9.999182, 9.999628 
1.24502845e+3, 1.4495015e+2, -1714414.0, -1642822.9, 23063.09, 0.0065552113, -0.06340788, -1636036.5, -116555.45, 0.0007030745, 9.99874, 9.99972 
1.2450327e+3, 1.549488e+2, -1457947.5, -1467742.8, -18034.336, -0.001978516, -0.21417466, -1444157.6, -22666.021, 0.00011956255, 9.9998255, 9.999729 
1.2450382e+3, 1.6494885e+2, -1326785.0, -1265152.9, 88884.47, -0.011258327, -0.21456908, -1201894.0, 121595.34, 0.0000023468863, 9.999679, 10.000518 
1.24504544e+3, 1.7495003e+2, -1406819.0, -1242505.1, 37552.945, 0.004354006, -0.19103444, -1234329.5, -8852.553, 0.0, 9.998421, 10.000604 
1.24505214e+3, 1.8495074e+2, -1338931.6, -1216083.9, 11185.177, 0.015495596, -0.1469275, -1215073.8, -87605.12, 0.0, 9.998449, 10.0001 
1.24505825e+3, 1.9495063e+2, -1036601.2, -1013594.2, 8655.653, 0.006167404, -0.21178356, -1010701.44, 18766.955, 0.0, 9.999816, 10.000163 
1.24506444e+3, 2.0495087e+2, -957822.6, -1094702.6, 31909.682, 0.023640592, -0.119337514, -950749.3, -19281.13, 0.0, 10.000427, 9.998633 
1.2450709e+3, 2.1495117e+2, -887176.1, -999899.4, 30518.852, 0.07417633, 0.0050806855, -879443.8, -45972.617, 0.0, 10.0001955, 9.998722 
1.24507606e+3, 2.2495e+2, -783369.75, -921802.3, -20015.059, 0.07848859, 0.032993972, -780534.0, -45050.26, 0.0, 10.000347, 9.998511 
1.2450797e+3, 2.3494695e+2, -597571.06, -771920.06, -57676.43, 0.029441724, -0.16478635, -580218.25, 57291.56, 0.0, 10.000909, 9.998594 
1.2450837e+3, 2.4494512e+2, -479099.63, -726863.9, -22523.531, -0.014198355, -0.17089573, -477068.72, 62457.684, 0.0, 10.001305, 9.998044 
1.24508835e+3, 2.549443e+2, -348343.78, -599496.0, -47878.016, -0.051126484, -0.10003735, -339526.2, 102009.63, 0.0, 10.00148, 9.998155 
1.2450946e+3, 2.6494288e+2, -224183.0, -453638.4, 40998.324, -0.019118339, -0.069378056, -217077.58, 126470.72, 0.000000050542315, 10.001498, 9.998484 
1.24510266e+3, 2.7494043e+2, -156565.08, -366474.78, 18331.861, 0.08097255, -0.20025358, -154976.14, 90591.38, 0.0000061370592, 10.001273, 9.998523 
1.245109e+3, 2.8493854e+2, -130233.86, -395113.28, -8319.606, 0.070818104, -0.18975607, -129972.805, 17611.584, 0.000049451548, 10.001191, 9.997681 
1.2451139e+3, 2.949369e+2, -16511.08, -277587.66, -36879.47, -0.041719537, -0.17207009, -11401.517, 38200.96, 0.00018750013, 10.001244, 9.997785 
1.2451214e+3, 3.049355e+2, 56845.93, -214222.08, 42490.24, 0.055996984, -0.08398483, 63350.254, 63350.254, 0.000470274, 10.001402, 9.997825 
1.24512926e+3, 3.149329e+2, 127272.62, -103281.07, -1407.5289, 0.13070205, -0.16829392, 127281.21, 127281.21, 0.0008945071, 10.001478, 9.9985485 
1.2550168e+3, 1.2494588e+2, -1618000.0, -1707579.5, 54227.08, -0.140977, -0.08036187, -1592457.0, 123063.73, 0.0037739007, 10.000776, 9.999637 
1.2550236e+3, 1.349454e+2, -1771169.9, -1765687.3, 5452.158, 0.17055374, -0.10118267, -1762326.0, -144797.89, 0.0020822603, 9.999213, 9.999356 
1.255028e+3, 1.4494535e+2, -1690011.8, -1598775.5, 43347.605, 0.033049107, -0.06701534, -1581464.9, -61936.52, 0.0007764397, 9.998767, 10.000008 
1.2550321e+3, 1.5494584e+2, -1437069.8, -1425565.3, 40051.156, -0.082899876, -0.06681965, -1390855.4, 30665.521, 0.00013646827, 9.999831, 10.000015 
1.2550373e+3, 1.6494574e+2, -1395752.3, -1412214.9, 20212.762, -0.102562256, -0.0427687, -1382159.0, -58637.723, 0.0000030208696, 9.999688, 9.99951 
1.2550439e+3, 1.7494501e+2, -1476411.8, -1385214.9, 4942.046, -0.018361187, -0.11140972, -1384947.9, -159417.3, 0.0, 9.998406, 9.999633 
1.2550506e+3, 1.8494506e+2, -1318445.9, -1161686.6, 41911.996, -0.01986848, -0.10678455, -1151184.4, -23655.201, 0.0, 9.998395, 10.0005045 
1.2550572e+3, 1.9494545e+2, -1022376.7, -961876.6, 76732.02, -0.110367104, -0.15992337, -909647.2, 119874.33, 0.0, 9.999715, 10.000569 
1.255064e+3, 2.0494549e+2, -957811.7, -1050258.6, 4649.4575, -0.09365379, -0.1272006, -957578.44, -26058.729, 0.0, 10.000236, 9.999035 
1.2550709e+3, 2.1494496e+2, -892416.4, -958827.5, 38809.605, 0.03108784, -0.12516604, -874545.6, -41019.254, 0.0, 9.999968, 9.999121 
1.2550765e+3, 2.2494383e+2, -854785.7, -1008785.8, -17205.992, 0.069723405, -0.08730225, -852886.7, -117348.266, 0.0, 10.000089, 9.998035 
1.255081e+3, 2.3494178e+2, -663527.3, -858216.0, -18165.557, 0.029062998, -0.13846353, -661846.9, -24287.445, 0.0, 10.0006895, 9.998108 
1.2550855e+3, 2.449399e+2, -524184.06, -766349.25, -33710.99, -0.0055434043, -0.12003934, -519578.88, 19999.57, 0.0, 10.00107, 9.997887 
1.2550904e+3, 2.5493786e+2, -393527.0, -648348.75, -24095.117, -0.03383486, -0.15484387, -391268.7, 50330.21, 0.0, 10.001275, 9.997922 
1.255096e+3, 2.649364e+2, -266639.6, -489517.9, 14175.516, -0.048185367, -0.10359008, -265741.6, 77869.836, 0.00000007625481, 10.001278, 9.998341 
1.2551029e+3, 2.749353e+2, -192722.19, -396407.22, 31139.62, -0.04582625, -0.08839035, -188067.88, 57550.73, 0.0000061507535, 10.001079, 9.998411 
1.2551095e+3, 2.849334e+2, -177323.81, -450172.5, -21232.717, -0.042901322, -0.0628488, -175681.39, -28044.707, 0.000051588533, 10.001009, 9.997385 
1.2551157e+3, 2.9493022e+2, -58551.297, -331978.72, -12729.846, -0.02488697, -0.17494954, -57959.918, -8289.732, 0.00020006, 10.001102, 9.997476 
1.2551236e+3, 3.0492824e+2, 122714.17, -51683.285, 32693.37, 0.099283956, -0.18481934, 128641.56, 128641.56, 0.0005036429, 10.0012865, 9.998995 
1.2551305e+3, 3.1492746e+2, 132986.44, -25407.15, 43530.363, 0.04302724, -0.2171445, 144161.23, 144161.23, 0.0009532297, 10.001189, 9.999224 
1.2650172e+3, 1.24939725e+2, -1988607.9, -1900862.3, 87031.07, -0.03746573, -0.1968286, -1847271.1, -131696.8, 0.004085261, 9.998305, 9.999519 
1.2650223e+3, 1.3493967e+2, -1727842.6, -1729417.3, -40323.945, 0.124336466, -0.17016342, -1688298.3, -70717.49, 0.0022650692, 9.999484, 9.999464 
1.2650277e+3, 1.4494014e+2, -1538645.6, -1513410.5, 67415.09, 0.09324839, -0.09781392, -1457442.4, 62135.492, 0.00085386867, 9.999753, 10.000123 
1.2650318e+3, 1.5494128e+2, -1479618.4, -1430549.8, 10514.26, -0.06731374, -0.040035337, -1428391.8, -6827.579, 0.00015477135, 9.99949, 10.000145 
1.265037e+3, 1.649412e+2, -1469382.5, -1492175.0, 13936.243, -0.07250122, 0.0013604662, -1462776.1, -139211.39, 0.0000038088367, 9.999393, 9.99909 
1.2650436e+3, 1.7493975e+2, -1318081.9, -1359927.5, 3297.4194, 0.045197517, -0.09515017, -1317823.6, -92241.81, 0.0, 9.99972, 9.999173 
1.2650502e+3, 1.849394e+2, -1150644.4, -1119344.3, 103619.69, 0.043648325, -0.0910233, -1030199.4, 97386.12, 0.0, 9.999708, 10.000162 
1.2650569e+3, 1.9493978e+2, -1101530.1, -1036843.2, 44519.71, -0.08590098, -0.11045162, -1014158.44, 15420.714, 0.0, 9.999342, 10.00023 
1.2650639e+3, 2.0493953e+2, -1030801.9, -1059065.5, -30012.283, -0.09324928, -0.10176608, -1011760.75, -80181.23, 0.0, 9.999621, 9.999266 
1.2650709e+3, 2.1493834e+2, -792874.7, -884517.8, -46488.64, 0.016718566, -0.1903624, -773421.4, 60168.477, 0.0, 10.000538, 9.99935 
1.265077e+3, 2.2493729e+2, -724691.7, -948801.56, -58565.77, 0.07022795, -0.1576169, -710309.8, 25290.85, 0.0, 10.000975, 9.998032 
1.265082e+3, 2.349361e+2, -633626.75, -843230.2, -56662.89, 0.0721675, -0.119232334, -619289.5, 18324.975, 0.0, 10.00088, 9.998128 
1.2650873e+3, 2.4493442e+2, -495615.2, -760480.75, -6535.9087, 0.060830142, -0.079161346, -495454.0, 44178.05, 0.0, 10.001285, 9.997836 
1.2650926e+3, 2.549319e+2, -261001.11, -591514.44, -19552.936, 0.040634334, -0.1556361, -259848.39, 181808.42, 0.0, 10.0022, 9.99788 
1.2650985e+3, 2.6493007e+2, -144720.78, -456275.47, 14666.858, 0.015401007, -0.12598789, -144031.84, 199641.42, 0.00000015326442, 10.002237, 9.998105 
1.2651043e+3, 2.7492872e+2, -171329.23, -407212.4, -20283.393, -0.01919896, -0.11298045, -169597.8, 76086.5, 0.0000068361555, 10.001332, 9.998203 
1.2651105e+3, 2.849269e+2, -135011.53, -404962.84, 13678.848, -0.024294479, -0.081157915, -134320.19, 13381.424, 0.000055437977, 10.001175, 9.997626 
1.2651175e+3, 2.9492417e+2, 81468.04, -241155.47, 24061.88, 0.021943707, -0.16455936, 83252.75, 132982.05, 0.00021969865, 10.001944, 9.997708 
1.2651257e+3, 3.049218e+2, 276468.4, 47545.41, 62914.45, 0.13607492, -0.23589179, 292619.53, 292619.53, 0.00055763865, 10.002258, 9.999197 
1.2651327e+3, 3.1492135e+2, 211123.94, 22726.621, -78587.8, 0.12882727, -0.24828853, 239601.39, 239601.39, 0.001054668, 10.00171, 9.999292 
1.2750164e+3, 1.24934204e+2, -1933859.5, -1803634.0, 10276.597, -0.034704085, -0.20227313, -1802828.1, -87203.586, 0.0044096503, 9.998377, 10.000144 
1.2750192e+3, 1.3493448e+2, -1708348.4, -1688604.5, 12717.346, -0.173025, -0.17303231, -1682377.1, -64749.645, 0.0024558255, 9.999474, 9.99975 
1.2750271e+3, 1.4493454e+2, -1534380.0, -1517648.5, 36594.984, -0.0024617075, -0.15594085, -1488475.3, 31153.66, 0.00093550276, 9.999802, 10.000072 
1.2750316e+3, 1.5493529e+2, -1478851.5, -1439246.5, 17870.143, -0.087310284, -0.13145256, -1432375.4, -10755.797, 0.00017466526, 9.999524, 10.00007 
1.275037e+3, 1.6493526e+2, -1451712.5, -1470590.8, 5468.4697, -0.06506623, -0.091075666, -1450242.9, -126623.14, 0.0000047674703, 9.999449, 9.999215 
1.2750438e+3, 1.7493421e+2, -1309933.4, -1344200.4, 32258.94, 0.06042886, -0.16140306, -1290540.3, -64908.69, 0.0, 9.999715, 9.999285 
1.2750503e+3, 1.8493377e+2, -1243806.4, -1291296.0, 73949.16, 0.05735122, -0.11333597, -1189883.4, -62245.734, 0.0, 9.999622, 9.999018 
1.2750567e+3, 1.9493364e+2, -1196586.1, -1209738.0, 49082.523, -0.0664177, -0.07153606, -1153641.0, -123999.98, 0.0, 9.999237, 9.999092 
1.2750633e+3, 2.0493294e+2, -1053807.9, -1066682.0, -15117.689, -0.12200802, -0.053619243, -1043813.8, -112165.98, 0.0, 9.999451, 9.999297 
1.2750706e+3, 2.1493131e+2, -826318.9, -897676.44, 3540.8848, -0.102027, -0.18778604, -826143.6, 7517.8984, 0.0, 10.000296, 9.999378 
1.2750769e+3, 2.2493039e+2, -725375.44, -889973.94, -79179.67, -0.05466202, -0.16946264, -693470.56, 42199.21, 0.0, 10.00072, 9.998556 
1.2750827e+3, 2.3492984e+2, -633732.8, -788221.5, -42433.426, 0.0188102, -0.12018932, -622845.0, 14830.703, 0.0, 10.000644, 9.99862 
1.2750886e+3, 2.4492858e+2, -530300.06, -772674.9, 12728.549, 0.041495394, -0.0603648, -529633.44, 10054.724, 0.0, 10.001035, 9.997868 
1.2750949e+3, 2.549264e+2, -289932.16, -594668.44, 35103.81, 0.022523127, -0.11121479, -285940.7, 155768.72, 0.0, 10.001958, 9.997972 
1.275101e+3, 2.6492396e+2, -209726.44, -534348.3, -34863.34, 0.017666738, -0.13290101, -206024.45, 137708.45, 0.00000020123079, 10.001996, 9.997684 
1.2751064e+3, 2.749207e+2, -231525.77, -487142.28, -33178.1, 0.016559357, -0.26907688, -227289.56, 18474.186, 0.0000077157165, 10.0011425, 9.997744 
1.2751122e+3, 2.84919e+2, -107787.516, -314511.66, 24207.514, -0.01767322, -0.23186618, -104990.64, 42788.34, 0.000060411407, 10.001025, 9.998319 
1.2751189e+3, 2.9491878e+2, 97447.05, -151601.58, 79190.695, -0.073983476, -0.14287095, 120494.66, 170274.38, 0.00024271311, 10.001703, 9.998438 
1.2751271e+3, 3.049161e+2, 176199.22, -112627.555, 33383.895, 0.013476132, -0.23055302, 180007.66, 180007.66, 0.0006225909, 10.002053, 9.998195 
1.2751348e+3, 3.1491512e+2, 106154.19, -107532.375, -52137.06, 0.116868146, -0.20435122, 118196.39, 118196.39, 0.0011840118, 10.001358, 9.998555 
1.285016e+3, 1.2492721e+2, -2028753.5, -1745015.8, -75130.87, 0.14843495, -0.21856548, -1726349.8, -10654.726, 0.0047468157, 9.9972315, 10.001102 
1.2850179e+3, 1.3492845e+2, -1746341.3, -1619642.1, -18810.746, -0.2109916, -0.1747275, -1616908.4, 775.6271, 0.0026545508, 9.998801, 10.000546 
1.2850267e+3, 1.4492877e+2, -1603785.5, -1585371.9, 6845.3213, -0.0069627743, -0.15815803, -1583106.0, -63424.3, 0.0010215283, 9.999501, 9.999747 
1.2850317e+3, 1.5492864e+2, -1427645.3, -1444818.8, -71251.016, -0.030429073, -0.1893082, -1364465.4, 57218.19, 0.00019628371, 10.000022, 9.999786 
1.2850375e+3, 1.6492835e+2, -1330799.8, -1420767.0, -60939.49, 0.009651344, -0.15646034, -1300039.4, 23647.672, 0.0000059623408, 10.000293, 9.999167 
1.285044e+3, 1.7492782e+2, -1221129.5, -1302670.5, -83577.766, 0.08362268, -0.16953157, -1168908.3, 56784.9, 0.0, 10.000324, 9.999282 
1.2850504e+3, 1.8492739e+2, -1204064.5, -1302896.1, -1635.0543, 0.09337071, -0.103597, -1204037.5, -76338.26, 0.0, 10.000051, 9.998724 
1.285057e+3, 1.9492671e+2, -1155826.6, -1220805.8, 51.648384, 0.03626849, -0.0846511, -1155826.6, -126117.61, 0.0, 9.999675, 9.998799 
1.2850638e+3, 2.0492591e+2, -1041118.2, -1084518.6, 27031.338, -0.019176533, -0.05080925, -1028154.4, -96436.16, 0.0, 9.999638, 9.999088 
1.285071e+3, 2.1492463e+2, -892698.06, -946926.5, -3675.1563, -0.07444714, -0.13038447, -892450.1, -58720.22, 0.0, 9.999926, 9.999215 
1.2850775e+3, 2.2492382e+2, -762647.75, -872186.1, -83511.22, -0.044992056, -0.110975176, -717548.06, 18189.174, 0.0, 10.000307, 9.998877 
1.2850837e+3, 2.3492311e+2, -592373.1, -728802.75, -98026.125, 0.071564, -0.109625585, -541162.75, 96580.62, 0.0, 10.000765, 9.998963 
1.2850901e+3, 2.44922e+2, -531108.4, -729915.3, 3673.8403, 0.10263386, -0.07350265, -531040.56, 8712.749, 0.0, 10.000848, 9.998247 
1.2850964e+3, 2.549202e+2, -477675.53, -641322.7, 11121.655, 0.053661555, -0.11911922, -476923.13, -35153.69, 0.0, 10.00049, 9.998353 
1.2851025e+3, 2.6491803e+2, -358406.94, -614706.6, -1381.715, 0.040277306, -0.1301654, -358399.5, -14608.542, 0.00000014147287, 10.000999, 9.997615 
1.2851083e+3, 2.7491498e+2, -41482.402, -403263.34, -11415.371, 0.060447942, -0.2375226, -41122.566, 204699.69, 0.000007879153, 10.002474, 9.997684 
1.2851143e+3, 2.849135e+2, 88184.23, -197250.69, 42752.72, 0.031826463, -0.18327583, 94450.22, 242285.88, 0.00006527563, 10.002282, 9.998518 
1.2851201e+3, 2.9491332e+2, -97134.086, -221438.0, 13520.371, -0.03970365, -0.10789307, -95680.484, -45846.402, 0.000269289, 10.000263, 9.998649 
1.285128e+3, 3.049102e+2, -96066.97, -286390.9, 70243.31, 0.014680063, -0.23262879, -72949.94, -72949.94, 0.0006978728, 10.0003395, 9.997844 
1.2851374e+3, 3.1490964e+2, 273573.16, -22861.348, -37794.152, 0.20077743, -0.1268209, 278315.88, 278315.88, 0.0013327203, 10.002422, 9.998651 
1.2950115e+3, 1.2491912e+2, -1945694.8, -1562801.9, -151279.66, -0.0835892, -0.23408046, -1510245.6, 205536.69, 0.0050962004, 9.997205, 10.002372 
1.295018e+3, 1.349218e+2, -1666629.9, -1439167.1, 50473.492, -0.10316817, -0.17393881, -1428470.3, 189277.9, 0.0028611089, 9.998747, 10.001816 
1.295026e+3, 1.4492293e+2, -1651360.3, -1681304.6, 667.2264, -0.07318029, -0.102476515, -1651345.4, -131609.94, 0.00111182, 9.999495, 9.999089 
1.295032e+3, 1.5492135e+2, -1479589.8, -1545914.6, -32068.645, -0.035794068, -0.21131815, -1466620.4, -44864.703, 0.000219555, 9.999995, 9.999107 
1.295038e+3, 1.6492058e+2, -1340262.3, -1440909.6, -80844.82, -0.0076004714, -0.1860881, -1295358.0, 28407.826, 0.0000074533, 10.000289, 9.999029 
1.2950435e+3, 1.7492066e+2, -1236517.9, -1331117.5, -66995.09, -0.024983848, -0.123129964, -1201807.8, 23957.701, 0.0, 10.000303, 9.999097 
1.29505e+3, 1.8492036e+2, -1174915.9, -1239587.6, -34944.92, -0.0013323742, -0.0615103, -1159641.3, -31871.855, 0.0, 10.0000305, 9.99917 
1.2950577e+3, 1.949191e+2, -1136348.0, -1163526.5, 999.3385, 0.08923635, -0.14598925, -1136311.4, -106528.79, 0.0, 9.999589, 9.999237 
1.2950647e+3, 2.0491847e+2, -1095752.1, -1155549.9, 18259.006, 0.07382611, -0.09612357, -1090617.6, -158826.95, 0.0, 9.999461, 9.99868 
1.2950712e+3, 2.1491821e+2, -955073.44, -1021832.75, 21949.236, -0.049248986, -0.03550102, -948503.5, -114707.36, 0.0, 9.999693, 9.998809 
1.295078e+3, 2.2491746e+2, -795323.0, -875891.6, -82724.984, -0.04907297, 0.005424941, -743595.06, -7790.8794, 0.0, 10.000032, 9.998983 
1.295085e+3, 2.349159e+2, -619654.3, -727418.1, -60236.727, 0.08292126, -0.09115421, -592717.1, 45100.355, 0.0, 10.000512, 9.999095 
1.295091e+3, 2.4491465e+2, -529107.75, -653066.9, -27006.592, 0.09702203, -0.1080353, -523479.5, 16347.66, 0.0, 10.000551, 9.99891 
1.2950966e+3, 2.549133e+2, -469503.47, -561753.25, 16720.62, -0.006277423, -0.17975187, -466566.3, -24729.043, 0.0, 10.000238, 9.999012 
1.295103e+3, 2.649123e+2, -369178.16, -598034.44, 35233.52, -0.051072266, -0.11328638, -363876.6, -20028.871, 0.000000052302592, 10.000817, 9.997826 
1.2951103e+3, 2.7491155e+2, -59485.06, -385768.5, 63730.168, -0.03560498, -0.01392391, -47478.97, 198380.67, 0.000007172051, 10.002231, 9.997924 
1.2951162e+3, 2.8491032e+2, 27625.02, -265082.63, -49046.168, -0.03344857, 0.064110525, 35624.582, 183496.83, 0.00006969282, 10.00203, 9.998173 
1.2951207e+3, 2.9490793e+2, -155504.3, -294326.28, -37218.316, -0.041435014, -0.047158066, -146155.6, -96264.125, 0.0003009035, 10.00006, 9.998244 
1.2951285e+3, 3.0490416e+2, -96309.375, -263427.53, 131587.11, -0.014334183, -0.22130133, -23992.58, -23992.58, 0.0007869782, 10.000235, 9.9980545 
1.2951396e+3, 3.149053e+2, 290246.6, 96943.3, 92495.05, 0.09930512, 0.019582804, 327374.16, 327374.16, 0.0015032826, 10.002066, 9.999643 
1.3050091e+3, 1.2491259e+2, -1819291.4, -1534191.8, -45062.242, -0.07330933, -0.09944833, -1527238.9, 188611.14, 0.0054552136, 9.998224, 10.002069 
1.3050176e+3, 1.3491416e+2, -1731975.6, -1486271.0, -50915.504, 0.014203485, -0.13300383, -1476138.0, 141688.23, 0.003073975, 9.998389, 10.001655 
1.3050246e+3, 1.4491513e+2, -1803186.0, -1731783.8, -81956.86, -0.07406803, -0.08031232, -1678089.8, -158275.14, 0.0012055306, 9.99833, 9.999308 
1.305032e+3, 1.5491375e+2, -1622127.6, -1585997.3, -81732.7, 0.026573433, -0.19563015, -1520357.0, -98524.734, 0.000244213, 9.99888, 9.999369 
1.3050386e+3, 1.6491327e+2, -1437355.6, -1435949.9, -39493.688, 0.07721619, -0.17734738, -1397152.8, -73314.11, 0.000009295233, 9.999445, 9.999457 
1.305044e+3, 1.7491359e+2, -1205742.1, -1261795.4, -21622.146, 0.0020940257, -0.1318547, -1198370.9, 27463.361, 0.0, 10.000322, 9.99955 
1.3050504e+3, 1.8491328e+2, -1072446.0, -1230212.9, 17762.836, 0.007299187, -0.07348877, -1070470.9, 57367.016, 0.0, 10.000886, 9.998835 
1.3050582e+3, 1.9491197e+2, -945520.1, -1104769.0, -38579.363, 0.11572838, -0.13227887, -936666.25, 93187.17, 0.0, 10.001042, 9.998941 
1.3050652e+3, 2.0491135e+2, -911174.8, -1058004.9, -3134.5356, 0.12251405, -0.0692302, -911107.94, 20754.402, 0.0, 10.000683, 9.998765 
1.3050717e+3, 2.149112e+2, -937485.75, -1002482.7, -439.65405, 0.021404715, -0.0069019767, -937482.75, -103615.805, 0.0, 9.999769, 9.998907 
1.3050784e+3, 2.2491051e+2, -830163.5, -879176.0, -17562.725, 0.019202119, 0.030751294, -824520.06, -88645.93, 0.0, 9.999721, 9.999111 
1.3050857e+3, 2.3490895e+2, -616004.25, -712048.7, -31005.611, 0.12287207, -0.07941681, -606864.56, 31022.365, 0.0, 10.0004635, 9.999225 
1.305092e+3, 2.449078e+2, -446166.75, -600381.1, -3266.5566, 0.12707032, -0.10358475, -446097.6, 93798.33, 0.0, 10.001042, 9.999044 
1.3050978e+3, 2.5490665e+2, -278272.47, -458159.8, -32422.049, 0.028862754, -0.16604832, -272607.28, 169297.22, 0.0, 10.001481, 9.999138 
1.3051045e+3, 2.6490602e+2, -265832.66, -519588.72, 14254.858, -0.0076283794, -0.0825459, -265034.38, 78877.05, 0.000000026393016, 10.001401, 9.998086 
1.3051121e+3, 2.7490562e+2, -251669.95, -455819.3, 4344.3003, 0.011924015, 0.02775755, -251577.55, -5658.1016, 0.0000066700077, 10.000787, 9.998152 
1.3051184e+3, 2.8490412e+2, -115555.38, -383759.0, -89522.04, 0.022205718, 0.093811415, -88419.82, 59514.71, 0.00007506801, 10.001264, 9.997716 
1.305123e+3, 2.9490107e+2, 242857.42, -154792.38, -128359.89, 0.03021867, -0.03974228, 280691.78, 330653.34, 0.00033561388, 10.003018, 9.997769 
1.3051303e+3, 3.0489722e+2, 287946.1, -133127.1, 60023.37, 0.01455794, -0.17659968, 296335.2, 296335.2, 0.0008838956, 10.003119, 9.99756 
1.3051417e+3, 3.1489775e+2, 200110.66, 59082.863, -94365.71, 0.15573226, 0.06023519, 247397.84, 247397.84, 0.0016899819, 10.001413, 9.99971 
1.3150084e+3, 1.2490618e+2, -1941406.9, -1800595.6, 63997.516, -0.049937785, 0.023259271, -1775856.0, -59943.62, 0.005819013, 9.998277, 10.000213 
1.3150162e+3, 1.3490553e+2, -1846426.5, -1730352.0, -35963.23, -0.010482942, -0.06248227, -1720112.9, -102194.94, 0.0032902497, 9.998407, 9.999973 
1.3150224e+3, 1.4490539e+2, -1714821.0, -1550136.6, -91806.39, -0.1914971, -0.0977038, -1509155.4, 10763.13, 0.0013013786, 9.998349, 10.000542 
1.3150312e+3, 1.5490605e+2, -1541733.3, -1412475.8, -48770.23, 0.024360042, -0.13126992, -1396139.0, 25772.822, 0.00026992275, 9.998854, 10.000575 
1.3150391e+3, 1.6490644e+2, -1369126.0, -1305252.5, -28288.852, 0.12663274, -0.1285613, -1294525.3, 29380.121, 0.00001153221, 9.999475, 10.000345 
1.315045e+3, 1.7490642e+2, -1141348.5, -1129388.0, 26426.947, 0.03827233, -0.21042833, -1108273.1, 117627.48, 0.0, 10.000315, 10.000464 
1.3150513e+3, 1.8490611e+2, -1155852.0, -1383134.3, 4075.491, -0.018896125, -0.14831458, -1155779.0, -27873.771, 0.0, 10.000808, 9.997818 
1.3150582e+3, 1.9490519e+2, -1037251.2, -1265727.0, -18772.885, -0.023816248, -0.06360568, -1035719.0, -5796.4224, 0.0, 10.000918, 9.997896 
1.3150649e+3, 2.049045e+2, -900208.44, -994092.44, -52373.336, -0.013960462, 0.016907487, -876818.94, 55114.645, 0.0, 10.000509, 9.999287 
1.3150716e+3, 2.1490364e+2, -930832.6, -946484.25, -16356.093, 0.0072744144, -0.043038696, -920526.56, -86584.84, 0.0, 9.9995775, 9.999387 
1.3150784e+3, 2.2490297e+2, -857905.8, -873533.75, -7552.455, 0.020754226, -0.03518486, -854852.5, -118905.29, 0.0, 9.999461, 9.99927 
1.3150857e+3, 2.3490217e+2, -643488.9, -709412.06, 16785.225, 0.045647755, -0.08681385, -639461.2, -1508.1658, 0.0, 10.000215, 9.999361 
1.3150926e+3, 2.4490139e+2, -511875.53, -673697.94, -5338.6924, 0.04388754, -0.059333216, -511699.6, 28260.373, 0.0, 10.000772, 9.998672 
1.3150993e+3, 2.549004e+2, -340181.3, -529733.8, 2738.565, 0.013145652, -0.0683173, -340141.75, 101828.086, 0.0, 10.001231, 9.998769 
1.3151063e+3, 2.6489916e+2, -282119.7, -497605.4, -24676.646, 0.01771666, -0.03958698, -279329.9, 64652.113, 0.000000066602475, 10.001168, 9.998345 
1.3151135e+3, 2.7489728e+2, -267985.88, -432895.34, 5939.9946, 0.05229577, -0.10787988, -267772.2, -21771.672, 0.0000067822207, 10.000561, 9.998409 
1.3151203e+3, 2.848953e+2, -179214.94, -484973.47, -38844.23, 0.04944971, -0.06971491, -174357.27, -26337.816, 0.000081610815, 10.001116, 9.9971 
1.3151261e+3, 2.9489294e+2, 158683.75, -265935.28, -36947.203, 0.012137531, -0.07668253, 161874.64, 211917.06, 0.00036944333, 10.002741, 9.997145 
1.3151331e+3, 3.0488944e+2, 166699.44, -336897.75, -11556.196, -0.054486856, -0.08365763, 166964.48, 166964.48, 0.000976967, 10.002917, 9.996253 
1.315143e+3, 3.1488696e+2, 83989.78, -87317.63, -86974.78, 0.073053524, -0.01554859, 120406.43, 120406.43, 0.0018699723, 10.001028, 9.998879 
1.3250078e+3, 1.24897815e+2, -1962719.3, -1853612.9, 130302.586, 0.08274412, -0.009957016, -1766904.5, -50911.19, 0.006183249, 9.998274, 9.999869 
1.3250142e+3, 1.3489716e+2, -1856204.9, -1749000.5, 22081.209, -0.015814994, -0.07649728, -1744630.5, -126629.33, 0.0035072896, 9.998414, 9.999832 
1.3250215e+3, 1.4489713e+2, -1683471.4, -1497645.3, 53567.164, -0.10337418, -0.11115485, -1483309.6, 36691.563, 0.0013982238, 9.998396, 10.00088 
1.3250303e+3, 1.5489861e+2, -1494212.3, -1347640.4, 2308.9958, 0.059795808, -0.09955264, -1347604.0, 74381.17, 0.00029637254, 9.999, 10.000945 
1.3250385e+3, 1.6489938e+2, -1376907.9, -1303418.8, -1181.2439, 0.14983696, -0.083214864, -1303399.8, 20575.342, 0.000014169166, 9.999398, 10.000388 
1.3250452e+3, 1.7489918e+2, -1233110.8, -1177302.1, -48839.0, 0.063868396, -0.18468733, -1148958.0, 77015.42, 0.0, 9.999679, 10.00045 
1.325052e+3, 1.8489891e+2, -1259783.1, -1380109.1, -32967.766, 0.0070464043, -0.13936144, -1251342.4, -123365.4, 0.0, 9.999868, 9.998293 
1.3250588e+3, 1.948983e+2, -1122456.0, -1255847.0, 21176.271, 0.0014565133, -0.07140372, -1119174.9, -89185.586, 0.0, 10.000103, 9.998359 
1.3250655e+3, 2.0489764e+2, -925223.94, -1024815.7, 33623.016, 0.019088537, -0.002033973, -914935.4, 17063.908, 0.0, 10.0004425, 9.999098 
1.3250722e+3, 2.1489665e+2, -748923.75, -877736.4, -15568.398, 0.047877245, -0.05485572, -747068.9, 86940.67, 0.0, 10.000933, 9.9992 
1.325079e+3, 2.2489592e+2, -633381.9, -759970.8, 12469.362, 0.05385607, -0.043318063, -632165.3, 103850.625, 0.0, 10.000992, 9.999313 
1.325086e+3, 2.3489524e+2, -578095.5, -666345.5, -8515.869, 0.056158412, -0.08651256, -577281.25, 60739.277, 0.0, 10.000634, 9.999451 
1.3250934e+3, 2.448947e+2, -537970.56, -708564.94, 19868.541, 0.06050232, -0.02856196, -535687.1, 4338.9214, 0.0, 10.000692, 9.9984665 
1.3251008e+3, 2.54894e+2, -363635.8, -560164.8, 3900.2568, 0.05772998, 0.0094159385, -363558.44, 78476.79, 0.0, 10.001163, 9.998584 
1.3251081e+3, 2.6489246e+2, -219021.2, -462137.78, -12660.714, 0.06721957, 0.015505235, -218363.66, 125686.86, 0.0000000978673, 10.0015955, 9.998372 
1.3251151e+3, 2.7488965e+2, -46424.977, -318618.44, -41164.426, 0.086564064, -0.14420661, -40335.81, 205740.28, 0.000006920427, 10.002065, 9.998461 
1.3251221e+3, 2.8488767e+2, 25679.934, -342279.0, 17368.959, 0.08900822, -0.13194516, 26497.99, 174592.22, 0.000086783395, 10.002363, 9.997476 
1.3251294e+3, 2.948862e+2, 168030.78, -220368.69, 43266.188, 0.078688785, -0.08202891, 172792.1, 222899.89, 0.0003950438, 10.002636, 9.99751 
1.325136e+3, 3.0488333e+2, 89570.3, -404851.63, 112840.445, -0.010556135, -0.028254338, 114105.95, 114105.95, 0.0010503886, 10.002541, 9.995957 
1.3251448e+3, 3.1487918e+2, 201312.97, -55105.41, 53978.65, 0.1263486, -0.09704772, 212212.69, 212212.69, 0.0020140882, 10.001933, 9.998661 
1.3350059e+3, 1.2488787e+2, -1861234.4, -1641019.6, 19211.098, -0.015226359, -0.16161239, -1639356.3, 76733.016, 0.0065457188, 9.998264, 10.001335 
1.3350117e+3, 1.3488904e+2, -1767038.5, -1561914.4, 27858.742, -0.14781752, -0.1773848, -1558198.1, 59877.94, 0.0037237175, 9.998403, 10.001124 
1.3350216e+3, 1.448902e+2, -1698244.6, -1542494.8, 51556.09, 0.023361797, -0.14398485, -1526975.1, -6911.084, 0.0014951822, 9.998444, 10.000558 
1.3350292e+3, 1.5489157e+2, -1518273.1, -1401595.1, 42243.375, -0.008113394, -0.10475322, -1387906.8, 34144.867, 0.00032323142, 9.999003, 10.000579 
1.3350369e+3, 1.648922e+2, -1443478.1, -1436987.9, -10942.272, -0.0033542626, -0.037055023, -1428819.6, -104772.734, 0.000017128494, 9.999379, 9.99948 
1.335044e+3, 1.7489195e+2, -1305667.4, -1312917.1, -22743.049, -0.056407806, -0.05429437, -1286262.1, -60210.844, 0.00000000003443261, 9.999618, 9.999546 
1.3350515e+3, 1.8489186e+2, -1136684.3, -1112280.3, -42876.64, -0.056055848, -0.041320965, -1079903.1, 48148.504, 0.0, 9.999807, 10.000167 
1.3350597e+3, 1.9489144e+2, -1004938.6, -986674.75, 44968.906, 0.05381082, -0.14346227, -949919.94, 80132.33, 0.0, 9.999985, 10.000269 
1.3350669e+3, 2.048909e+2, -1013240.5, -1164800.6, 32008.73, 0.08342149, -0.11364665, -1006757.7, -74699.414, 0.0, 10.00026, 9.998227 
1.3350728e+3, 2.1489008e+2, -847001.94, -1028283.25, 20556.736, 0.009578033, -0.06014072, -844700.1, -10628.261, 0.0, 10.000702, 9.998283 
1.3350794e+3, 2.2488925e+2, -673907.8, -788737.0, -13778.235, -0.026005322, -0.008188561, -672277.75, 63803.867, 0.0, 10.000749, 9.999229 
1.3350865e+3, 2.348882e+2, -616818.8, -696527.75, -2186.0027, 0.00870127, -0.084581204, -616758.9, 21330.695, 0.0, 10.00041, 9.9993515 
1.335094e+3, 2.4488771e+2, -574292.5, -728004.6, 20522.715, 0.020457363, -0.01472645, -571599.6, -31505.002, 0.0, 10.000462, 9.998438 
1.3351019e+3, 2.5488743e+2, -401123.84, -583884.5, 40317.137, 0.0066488083, 0.06838777, -392625.06, 49475.418, 0.0, 10.000934, 9.998527 
1.3351093e+3, 2.6488593e+2, -270077.8, -518700.38, -12438.4375, -0.007595983, 0.093796864, -269457.1, 74659.52, 0.00000008871969, 10.00138, 9.998088 
1.3351163e+3, 2.7488276e+2, -102640.9, -371859.1, -2420.945, -0.027407186, -0.07942027, -102619.13, 143527.38, 0.000006673535, 10.0018, 9.9982195 
1.335124e+3, 2.848811e+2, 82506.2, -177527.2, 7663.154, -0.0113138715, -0.08471172, 82731.836, 230891.97, 0.00008871381, 10.002158, 9.998708 
1.3351323e+3, 2.9488072e+2, 218565.7, -57679.67, 77357.195, 0.05583669, -0.048068866, 238752.88, 288911.66, 0.00040777776, 10.002387, 9.998751 
1.3351387e+3, 3.0487898e+2, 111590.56, -313230.88, 79111.02, -0.031989217, 0.018697161, 125844.5, 125844.5, 0.0010944809, 10.002347, 9.996675 
1.3351464e+3, 3.1487384e+2, 157043.23, -48776.645, 118998.39, 0.016603805, -0.2210477, 211458.03, 211458.03, 0.002108087, 10.00151, 9.998911 
1.3450047e+3, 1.2488066e+2, -1871380.8, -1608089.0, 61212.21, 0.07859985, -0.13210593, -1594553.6, 121607.836, 0.0069055543, 9.998047, 10.001657 
1.3450113e+3, 1.3488194e+2, -1643310.5, -1465457.0, 29699.582, -0.0483385, -0.16813673, -1460628.6, 157516.11, 0.0039389143, 9.999116, 10.001434 
1.3450219e+3, 1.4488305e+2, -1575299.0, -1519927.6, 42819.72, 0.16205418, -0.13870683, -1496622.9, 23509.824, 0.0015916337, 9.999456, 10.000226 
1.3450286e+3, 1.5488389e+2, -1432069.9, -1398151.0, -2107.2656, -0.00086730614, -0.11620849, -1398020.6, 24106.05, 0.0003501717, 9.999768, 10.000236 
1.345036e+3, 1.6488439e+2, -1381807.8, -1410490.4, 3276.376, -0.040997222, -0.042959344, -1381438.3, -57314.082, 0.000020254476, 9.999805, 9.999464 
1.3450436e+3, 1.7488435e+2, -1317047.0, -1316108.1, 19096.17, -0.050572783, -0.03690171, -1297475.6, -71348.34, 0.0000000014653116, 9.9995365, 9.999562 
1.3450514e+3, 1.8488437e+2, -1147374.3, -1081317.5, 21077.367, -0.01561058, -0.030357918, -1075165.1, 52960.727, 0.0, 9.999569, 10.000492 
1.34506e+3, 1.9488402e+2, -977398.44, -935945.3, -41620.906, 0.095541105, -0.15787467, -910175.75, 119948.12, 0.0, 10.000013, 10.0006 
1.3450676e+3, 2.0488362e+2, -967426.25, -1116538.5, -32347.584, 0.12881234, -0.14406362, -960711.3, -28583.941, 0.0, 10.000442, 9.998472 
1.345074e+3, 2.1488297e+2, -802166.44, -972751.56, 2046.8605, 0.058771614, -0.1019958, -802141.9, 31996.748, 0.0, 10.0008545, 9.998581 
1.3450807e+3, 2.2488227e+2, -660581.06, -818660.2, 11971.113, 0.024112843, -0.034510206, -659679.6, 76467.73, 0.0, 10.001002, 9.998906 
1.3450876e+3, 2.3488131e+2, -566124.56, -704182.1, -25914.75, 0.04802724, -0.06726293, -561420.44, 76735.73, 0.0, 10.000911, 9.999055 
1.345095e+3, 2.4488038e+2, -518587.63, -704225.7, 37567.492, 0.05740522, -0.027207091, -511273.3, 28892.543, 0.0, 10.000862, 9.998416 
1.3451031e+3, 2.5487912e+2, -414838.6, -589479.3, 22445.959, 0.04798907, -0.038752284, -411999.84, 30179.686, 0.0, 10.00085, 9.998533 
1.3451108e+3, 2.648778e+2, -318543.94, -523912.44, 28092.854, 0.041715708, -0.00028576778, -314770.38, 29422.646, 0.000000062099474, 10.000973, 9.998249 
1.3451186e+3, 2.7487594e+2, -163058.52, -385695.63, 27485.426, 0.042975478, -0.05756808, -159715.53, 86495.2, 0.0000065347235, 10.0013, 9.998369 
1.3451266e+3, 2.8487435e+2, 28242.096, -216358.0, 51783.582, 0.06478651, -0.054812774, 38753.348, 186978.06, 0.00008986311, 10.0018215, 9.998608 
1.345135e+3, 2.9487318e+2, 243829.92, -43629.027, -25103.314, 0.10793036, -0.09358257, 246005.69, 296239.47, 0.00041373618, 10.002558, 9.998758 
1.3451412e+3, 3.048723e+2, 215099.36, -137912.83, -66235.53, -0.008484279, -0.0009576112, 227117.92, 227117.92, 0.001115336, 10.002476, 9.997831 
1.3451482e+3, 3.1486925e+2, 188785.95, 50297.99, -43254.637, 0.0703998, -0.1521399, 201185.66, 201185.66, 0.0021558118, 10.001361, 9.999649 
1.3550016e+3, 1.2487596e+2, -1929297.0, -1723805.5, -38360.496, -0.13183333, 0.02394376, -1716878.0, -665.96387, 0.0072628423, 9.998051, 10.0008545 
1.355013e+3, 1.3487603e+2, -1700302.5, -1575898.4, 77702.86, 0.16348308, -0.056212213, -1538567.4, 79638.42, 0.004152666, 9.999097, 10.000683 
1.3550216e+3, 1.4487576e+2, -1614831.8, -1590511.4, 28696.691, 0.14465138, -0.09802692, -1571504.8, -51298.21, 0.0016872559, 9.999411, 9.99976 
1.355028e+3, 1.548756e+2, -1462163.4, -1460476.8, 27262.652, -0.06120746, -0.13490652, -1434044.4, -11834.141, 0.0003769789, 9.999763, 9.99981 
1.3550355e+3, 1.6487586e+2, -1318202.5, -1279979.4, -28266.576, -0.104544036, -0.110170156, -1264969.8, 59238.207, 0.000023370363, 9.999806, 10.000362 
1.3550436e+3, 1.7487623e+2, -1263334.5, -1191623.6, 23827.184, -0.04086588, -0.15397298, -1184428.5, 41774.176, 0.0000000068048798, 9.9994755, 10.000449 
1.3550514e+3, 1.8487638e+2, -1246259.6, -1261948.8, 18936.59, -0.018517205, -0.116403, -1233607.0, -105406.68, 0.0, 9.999472, 9.999294 
1.3550593e+3, 1.9487609e+2, -1082014.3, -1123826.0, -5983.1914, -0.009853485, -0.12161555, -1081175.0, -50971.023, 0.0, 9.999888, 9.99937 
1.3550672e+3, 2.048758e+2, -901220.2, -938205.06, -35782.35, 0.01554217, -0.09885641, -879434.25, 52772.152, 0.0, 10.000267, 9.999778 
1.3550754e+3, 2.1487527e+2, -745045.6, -797512.9, 31130.322, 0.06390895, -0.17757331, -730569.25, 103641.05, 0.0, 10.0006075, 9.999904 
1.3550824e+3, 2.2487496e+2, -738939.2, -913652.7, -14014.751, 0.06945539, -0.11449175, -737822.1, -1607.8807, 0.0, 10.000716, 9.998388 
1.3550885e+3, 2.348746e+2, -639767.9, -799076.3, -13203.821, 0.035963997, -0.033925477, -638680.94, -460.37103, 0.0, 10.000666, 9.998518 
1.3550958e+3, 2.4487278e+2, -555498.4, -724536.0, 18768.63, 0.029082559, -0.052882478, -553439.56, -13200.729, 0.0, 10.000619, 9.998395 
1.355104e+3, 2.5486907e+2, -447957.56, -604013.1, 41054.316, 0.038301565, -0.30958837, -437816.25, 4456.0073, 0.0, 10.000619, 9.998546 
1.3551125e+3, 2.64868e+2, -311376.38, -461953.94, 22370.574, 0.069716476, -0.276901, -308123.2, 36158.465, 0.000000036385206, 10.000766, 9.998777 
1.3551211e+3, 2.7486917e+2, -163578.02, -330825.97, 62128.48, 0.14153409, -0.08074375, -143024.64, 103245.12, 0.0000068750182, 10.001062, 9.998862 
1.3551295e+3, 2.848677e+2, -100136.7, -432302.56, 61016.82, 0.14244987, -0.023230676, -89282.945, 59003.77, 0.00009120505, 10.001607, 9.997226 
1.3551374e+3, 2.948634e+2, 100182.945, -271870.16, 28764.201, 0.05710399, -0.23290624, 102393.63, 152728.14, 0.00041573873, 10.002254, 9.99734 
1.3551432e+3, 3.0486307e+2, 282238.72, 74688.59, -121636.77, -0.09052651, -0.08835669, 338353.53, 338353.53, 0.0011165407, 10.00219, 9.99942 
1.3551491e+3, 3.1486478e+2, 189136.98, 155941.25, -19283.8, -0.040758565, 0.071442015, 197982.28, 197982.28, 0.0021572434, 10.00094, 10.000569 
1.3649996e+3, 1.2486891e+2, -1774015.9, -1690878.3, -23407.78, -0.16528939, 0.06009046, -1684740.8, 31541.574, 0.0076198755, 9.999262, 10.000505 
1.3650131e+3, 1.3486832e+2, -1675074.3, -1630068.4, 5611.624, 0.25387374, -0.035252016, -1629379.3, -11096.155, 0.004366158, 9.999503, 10.0001335 
1.36502e+3, 1.4486775e+2, -1656651.1, -1594283.8, 11683.604, 0.081719056, -0.08592593, -1592166.8, -71880.086, 0.0017823466, 9.999046, 9.999903 
1.3650274e+3, 1.5486775e+2, -1593570.1, -1503711.3, 23798.43, -0.033228647, -0.12613025, -1497797.6, -75509.82, 0.0004035849, 9.998783, 9.999975 
1.3650356e+3, 1.648681e+2, -1435068.6, -1312027.6, 5169.326, -0.018481094, -0.11036283, -1311810.9, 12472.559, 0.000026350568, 9.998894, 10.000585 
1.3650438e+3, 1.748686e+2, -1248924.3, -1156102.4, -33020.96, 0.043525573, -0.16454779, -1145554.0, 80721.68, 0.000000016360648, 9.999453, 10.000706 
1.3650517e+3, 1.8486871e+2, -1182368.4, -1262239.9, 26651.617, 0.052709375, -0.12991364, -1174291.9, -46017.953, 0.0, 10.000063, 9.999 
1.3650599e+3, 1.9486816e+2, -970393.0, -1094851.9, 33725.48, 0.026252046, -0.13106194, -961841.75, 68439.4, 0.0, 10.000793, 9.999117 
1.3650678e+3, 2.0486782e+2, -838562.1, -901703.75, -7078.9497, 0.026261315, -0.105394, -837778.25, 94506.57, 0.0, 10.000652, 9.999856 
1.3650753e+3, 2.1486744e+2, -886423.7, -858026.1, -65314.74, 0.05114446, -0.1752778, -805384.6, 28902.723, 0.0, 9.999589, 9.999991 
1.3650826e+3, 2.2486727e+2, -853674.44, -946972.7, -47891.227, 0.06937894, -0.1142659, -833467.7, -97177.86, 0.0, 9.999833, 9.998583 
1.3650899e+3, 2.3486699e+2, -512998.66, -722644.4, -34621.945, 0.074778356, -0.043965824, -507429.0, 130865.914, 0.0, 10.001453, 9.9986725 
1.3650976e+3, 2.4486527e+2, -359706.22, -638782.06, 17785.377, 0.094581574, -0.055895522, -358577.34, 181734.56, 0.0, 10.002006, 9.998311 
1.3651057e+3, 2.548617e+2, -324002.56, -553138.56, -7523.501, 0.11420395, -0.28987458, -323755.8, 118588.305, 0.0, 10.001508, 9.998464 
1.3651142e+3, 2.6486045e+2, -215808.36, -425652.4, 11064.423, 0.14158556, -0.26455846, -215226.58, 129128.39, 0.000000033203506, 10.001469, 9.998688 
1.365123e+3, 2.7486128e+2, -27672.455, -267604.4, -31908.857, 0.18011864, -0.09892112, -23501.37, 222845.19, 0.0000069323874, 10.002016, 9.998831 
1.3651313e+3, 2.848599e+2, -72666.9, -394563.06, 21254.19, 0.17180601, -0.042817354, -71269.59, 77093.04, 0.00008948749, 10.001724, 9.997414 
1.3651395e+3, 2.948561e+2, -106084.89, -341549.72, 63963.64, 0.12223116, -0.21933328, -89831.23, -39425.75, 0.00040625758, 10.000726, 9.997586 
1.3651454e+3, 3.0485553e+2, 148119.8, 6404.771, -12857.547, -0.00802047, -0.112734124, 149276.89, 149276.89, 0.0010893871, 10.001282, 9.999405 
1.3651516e+3, 3.1485727e+2, 486900.22, 251347.0, -86809.4, 0.014019167, 0.07221137, 515435.63, 515435.63, 0.00210587, 10.00315, 10.000211 
1.3750023e+3, 1.2485918e+2, -1778464.4, -1691118.8, 132338.9, 0.0834987, -0.06012932, -1595432.8, 120942.66, 0.0079810945, 9.9992485, 10.000497 
1.3750108e+3, 1.348588e+2, -1693585.3, -1670561.0, 16208.012, 0.041394673, -0.11079277, -1662192.8, -43815.69, 0.0045821774, 9.999508, 9.999847 
1.3750169e+3, 1.448591e+2, -1601471.3, -1484800.8, -28794.768, -0.18904813, -0.09739517, -1478081.0, 42291.406, 0.0018779465, 9.9990635, 10.000652 
1.3750266e+3, 1.5486029e+2, -1541849.9, -1398003.0, 30930.639, -0.048607666, -0.09442814, -1391634.1, 30725.498, 0.00043006244, 9.99878, 10.000708 
1.3750358e+3, 1.6486113e+2, -1466705.0, -1375396.4, 3978.001, 0.06316781, -0.044186715, -1375223.4, -50872.98, 0.000029160963, 9.998879, 10.00016 
1.3750438e+3, 1.7486154e+2, -1282093.0, -1219360.1, 5256.3335, 0.06536593, -0.06452173, -1218922.8, 7422.631, 0.000000027808229, 9.999416, 10.000296 
1.3750522e+3, 1.8486136e+2, -1149775.1, -1178803.8, 34398.156, 0.051626414, -0.06989509, -1126954.5, 1391.7086, 0.0, 10.000005, 9.999597 
1.3750614e+3, 1.9486007e+2, -953238.44, -1024515.5, 73729.336, 0.06805211, -0.2000437, -906986.06, 123371.36, 0.0, 10.000644, 9.999675 
1.3750684e+3, 2.0485955e+2, -934992.56, -1059067.8, -64353.242, 0.0077993595, -0.17086472, -907643.4, 24720.896, 0.0, 10.000468, 9.998865 
1.3750732e+3, 2.1485962e+2, -993014.06, -1026110.06, -86542.23, -0.12458826, -0.09615722, -921451.94, -87083.38, 0.0, 9.999357, 9.998953 
1.3750806e+3, 2.248594e+2, -837414.75, -847441.7, -3931.986, -0.12533003, -0.024290223, -836056.75, -99684.59, 0.0, 9.99956, 9.999394 
1.3750911e+3, 2.348586e+2, -499333.38, -622055.1, 45706.86, 0.017529845, -0.09050315, -484181.0, 154196.98, 0.0, 10.001157, 9.999498 
1.3751002e+3, 2.4485783e+2, -412834.28, -690704.0, -21871.645, 0.10640416, -0.035739493, -411123.25, 129261.99, 0.0, 10.001743, 9.998086 
1.3751078e+3, 2.5485697e+2, -373211.22, -604349.75, -9862.1045, 0.14103122, 0.019809712, -372791.2, 69604.195, 0.0, 10.001285, 9.998223 
1.3751157e+3, 2.648553e+2, -287500.94, -531553.3, 14851.83, 0.11387862, 0.046249848, -286600.44, 57811.992, 0.000000022673568, 10.00128, 9.99805 
1.3751236e+3, 2.7485225e+2, -108007.086, -377312.78, 9766.735, 0.019102138, -0.11145079, -107653.34, 138787.84, 0.0000066245593, 10.001779, 9.998189 
1.3751319e+3, 2.848509e+2, 26174.656, -155775.28, -35114.566, 0.012472553, -0.1048376, 32716.238, 181169.23, 0.00008473701, 10.001566, 9.999134 
1.3751407e+3, 2.9485124e+2, -18261.666, -103315.74, 49907.277, 0.122000486, -0.0437578, 4780.231, 55227.75, 0.00038290335, 10.000481, 9.999345 
1.3751477e+3, 3.048495e+2, 6163.654, -241137.72, 46029.984, 0.054877166, -0.06585379, 14453.301, 14453.301, 0.0010283956, 10.001084, 9.997787 
1.3751541e+3, 3.1484652e+2, 298243.75, -13378.152, 53111.188, -0.09820272, -0.18772423, 307047.06, 307047.06, 0.0019973381, 10.002641, 9.998608 
1.3850021e+3, 1.2484958e+2, -1813061.1, -1696289.8, 168197.66, 0.1703142, -0.08675343, -1576632.4, 139836.42, 0.008351057, 9.998969, 10.000604 
1.3850094e+3, 1.3484997e+2, -1647616.0, -1611275.5, -17127.377, -0.039108377, -0.08640158, -1604475.6, 13988.798, 0.004803759, 9.999677, 10.000181 
1.385017e+3, 1.4485069e+2, -1525327.8, -1437266.8, -37049.934, -0.10701649, -0.0519648, -1423752.6, 96703.09, 0.0019753822, 9.999534, 10.00076 
1.385026e+3, 1.5485165e+2, -1429514.4, -1328109.6, -65212.836, -0.0016583628, -0.086504854, -1296207.9, 126236.234, 0.00045665295, 9.999488, 10.00085 
1.3850352e+3, 1.6485229e+2, -1390453.6, -1349478.0, -42652.45, 0.09867905, -0.053899646, -1322648.0, 1788.4772, 0.00003186285, 9.999489, 10.000027 
1.3850439e+3, 1.748526e+2, -1260802.6, -1221204.8, -61752.098, 0.1221186, -0.07377416, -1176155.3, 50278.5, 0.000000039188958, 9.9996395, 10.000163 
1.3850524e+3, 1.8485254e+2, -1202693.5, -1167724.4, -2422.3745, 0.11120852, -0.07653382, -1167557.4, -39123.824, 0.0, 9.999452, 9.999959 
1.3850613e+3, 1.9485182e+2, -1142494.4, -1066190.3, -3698.4683, 0.080963306, -0.19247514, -1066011.4, -35572.33, 0.0, 9.999111, 10.000135 
1.3850686e+3, 2.0485164e+2, -1061995.3, -1139259.1, -75035.88, 0.016787766, -0.14396517, -1016230.44, -83787.83, 0.0, 9.999692, 9.99868 
1.385074e+3, 2.148518e+2, -708242.25, -903663.7, -73753.6, -0.07855718, -0.043443132, -683531.6, 150915.17, 0.0, 10.0013895, 9.998804 
1.3850817e+3, 2.2485125e+2, -537330.4, -724578.44, 37823.297, -0.078598805, 0.010024489, -529978.8, 206475.0, 0.0, 10.001689, 9.999225 
1.3850918e+3, 2.3484969e+2, -582023.7, -680207.8, -17181.518, 0.018535322, -0.11421859, -579103.9, 59362.918, 0.0, 10.000647, 9.999356 
1.3851011e+3, 2.4484903e+2, -560171.75, -733756.5, -61049.29, 0.0983986, -0.054181173, -540851.3, -378.33408, 0.0, 10.000614, 9.998327 
1.3851093e+3, 2.5484914e+2, -288915.6, -538142.94, -57126.28, 0.14846568, 0.07402453, -276445.44, 166028.55, 0.0, 10.001739, 9.998458 
1.3851175e+3, 2.648475e+2, -171870.19, -490608.06, 27742.512, 0.13181531, 0.09820862, -169473.55, 175017.22, 0.0000000049794013, 10.002135, 9.997924 
1.3851255e+3, 2.748436e+2, -102500.75, -391560.44, 21990.246, 0.039335944, -0.13134773, -100837.414, 145690.48, 0.0000064670485, 10.001862, 9.998064 
1.3851336e+3, 2.8484222e+2, 52053.383, -135046.73, -47115.28, 0.031850666, -0.12144394, 63248.08, 211787.25, 0.00007994395, 10.001695, 9.999234 
1.3851418e+3, 2.9484332e+2, 192349.17, 20384.205, -123578.04, 0.12783465, 0.003988393, 256914.08, 307439.34, 0.00035496187, 10.0018215, 9.999557 
1.3851497e+3, 3.0484095e+2, 159752.38, -240811.34, -51427.504, 0.09074014, -0.06433027, 166249.66, 166249.66, 0.00095268304, 10.002445, 9.997135 
1.3851577e+3, 3.148367e+2, 373218.3, -20901.0, -29886.682, -0.01886192, -0.24330942, 375471.78, 375471.78, 0.001860375, 10.003305, 9.998237 
1.3949995e+3, 1.24839045e+2, -1800505.8, -1660215.8, -20937.846, -0.061058894, -0.103884704, -1657157.5, 59415.633, 0.008733579, 9.998946, 10.00085 
1.3950084e+3, 1.348417e+2, -1580698.3, -1466243.0, 8776.81, -0.13766587, 0.019889453, -1465573.9, 152972.64, 0.005033633, 9.999655, 10.001187 
1.3950197e+3, 1.4484262e+2, -1556055.8, -1504465.8, -68096.53, 0.17046352, 0.044052217, -1457442.4, 63093.492, 0.002076125, 9.999549, 10.00029 
1.3950254e+3, 1.5484184e+2, -1469662.8, -1404670.6, -48684.637, -0.054106474, -0.10960066, -1378633.1, 43907.582, 0.00048381835, 9.999459, 10.000338 
1.3950334e+3, 1.6484152e+2, -1386930.3, -1342460.8, -59782.813, -0.07374128, -0.15251172, -1300911.8, 23630.783, 0.000034571214, 9.999488, 10.000077 
1.3950434e+3, 1.7484151e+2, -1273631.5, -1228104.9, -43115.086, 0.091857694, -0.2058054, -1202112.9, 24430.334, 0.00000005013657, 9.999555, 10.000159 
1.395052e+3, 1.8484226e+2, -1180141.6, -1109556.8, -37839.41, 0.083299994, -0.1467224, -1093105.8, 35430.64, 0.0, 9.999403, 10.00038 
1.3950592e+3, 1.9484355e+2, -1135726.0, -1021938.1, -1466.0934, -0.07633852, -0.101093225, -1021919.25, 8604.93, 0.0, 9.998976, 10.000509 
1.3950676e+3, 2.0484418e+2, -1042791.25, -1063519.9, -31532.748, -0.09441809, -0.019084906, -1019963.2, -87444.37, 0.0, 9.999535, 9.999273 
1.3950768e+3, 2.1484387e+2, -706342.4, -840014.7, 4374.3228, 0.04197782, -0.021659324, -706199.44, 128323.695, 0.0, 10.001135, 9.999362 
1.395085e+3, 2.2484273e+2, -637413.75, -885621.6, -16919.188, 0.0522274, -0.008801404, -636265.75, 100269.984, 0.0, 10.0014715, 9.998226 
1.3950919e+3, 2.3484044e+2, -685096.1, -846748.25, -35608.742, -0.057612553, -0.10692982, -677599.9, -39040.344, 0.0, 10.00043, 9.99832 
1.3951002e+3, 2.4483909e+2, -552630.6, -659898.3, -36632.668, -0.076847374, -0.096873835, -541314.2, -741.3065, 0.0, 10.000368, 9.998952 
1.3951099e+3, 2.548383e+2, -289082.03, -468229.34, 3803.1643, 0.008887911, -0.1199569, -289001.34, 153577.8, 0.0, 10.001448, 9.999073 
1.3951191e+3, 2.6483712e+2, -184413.61, -464624.13, 969.46484, 0.065179475, -0.09227753, -184410.25, 160179.38, 0.0000000011462398, 10.001905, 9.998216 
1.3951284e+3, 2.7483538e+2, -118971.2, -367829.22, 32281.762, 0.09905504, -0.13836624, -114851.82, 131754.19, 0.0000063015364, 10.001607, 9.998353 
1.395136e+3, 2.8483406e+2, -86332.77, -365945.72, -60562.266, 0.06908873, -0.06829893, -73779.02, 74840.69, 0.000075522126, 10.001458, 9.997758 
1.3951424e+3, 2.9483253e+2, 42546.293, -226186.19, -92771.72, -0.022276875, -0.05245456, 71461.65, 122097.86, 0.00033164787, 10.001554, 9.997989 
1.395151e+3, 3.0482993e+2, 149905.98, -212601.02, -36017.94, -0.047268916, -0.07325305, 153450.0, 153450.0, 0.0008920203, 10.002235, 9.997431 
1.3951614e+3, 3.1482843e+2, 354251.84, 69506.51, 54448.35, -0.036084462, -0.023256669, 364308.2, 364308.2, 0.0017485601, 10.002774, 9.999107 
1.4050007e+3, 1.2483103e+2, -1740892.8, -1682306.8, 92716.516, 0.15866446, -0.08657506, -1614365.9, 102282.195, 0.009133226, 9.999546, 10.00041 
1.4050087e+3, 1.3483295e+2, -1617189.4, -1519924.1, 63775.492, -0.05348814, -0.009894951, -1488354.1, 130275.7, 0.005275387, 9.999536, 10.000878 
1.4050199e+3, 1.4483333e+2, -1589863.8, -1536079.6, -12763.678, 0.2530028, -0.019904282, -1533204.4, -12579.077, 0.0021822979, 9.999397, 10.00014 
1.4050259e+3, 1.548328e+2, -1469094.8, -1424847.1, -13686.785, 0.05884051, -0.13041297, -1420955.8, 1672.6204, 0.00051218417, 9.99956, 10.000147 
1.4050336e+3, 1.6483247e+2, -1395623.9, -1369329.8, 22673.688, 0.0047110743, -0.15435727, -1356267.3, -31635.988, 0.000037386584, 9.99951, 9.9998865 
1.4050429e+3, 1.7483224e+2, -1276589.1, -1240371.1, -10248.905, 0.09275213, -0.21829955, -1237672.1, -11037.073, 0.00000006103049, 9.9995775, 10.000061 
1.4050512e+3, 1.8483318e+2, -1139836.0, -1082708.5, 11984.809, 0.06646807, -0.13953507, -1080296.0, 48330.977, 0.0, 9.9996605, 10.000434 
1.4050587e+3, 1.948351e+2, -991757.06, -941311.2, -15226.442, -0.07276166, -0.04079333, -937071.56, 93537.57, 0.0, 9.999923, 10.000604 
1.4050677e+3, 2.0483573e+2, -934269.44, -996534.8, 3418.8538, -0.050989505, 0.028483164, -934082.25, -1479.2388, 0.0, 10.000213, 9.999415 
1.4050786e+3, 2.1483473e+2, -749074.56, -836609.7, -25355.486, 0.13014731, -0.058655657, -742260.5, 92351.43, 0.0, 10.00074, 9.9995775 
1.405087e+3, 2.2483355e+2, -721629.3, -950019.9, -53541.324, 0.1479986, -0.048882525, -709700.7, 26924.4, 0.0, 10.001015, 9.997997 
1.405093e+3, 2.3483187e+2, -605544.0, -824687.8, -53768.74, -0.0023166807, -0.065284625, -593062.3, 45582.918, 0.0, 10.001061, 9.998157 
1.4051013e+3, 2.448305e+2, -441167.06, -608105.94, 29235.031, -0.04716412, -0.045501675, -436195.38, 104463.86, 0.0, 10.001133, 9.998945 
1.4051111e+3, 2.548292e+2, -309416.88, -470626.9, -7429.9556, 0.010002883, -0.12227935, -309075.16, 133594.67, 0.0, 10.001283, 9.999134 
1.4051208e+3, 2.6482806e+2, -241331.63, -464973.9, -22397.568, 0.08445134, -0.104642965, -239110.6, 105568.55, 0.0000000047036606, 10.001403, 9.998453 
1.4051305e+3, 2.748271e+2, -109401.98, -329611.1, -42657.703, 0.18417005, -0.09669222, -101427.35, 145260.03, 0.000006310061, 10.001552, 9.9986315 
1.4051385e+3, 2.8482565e+2, -37437.05, -425913.16, -47206.45, 0.16347727, -0.014141476, -31782.957, 116919.53, 0.00007178299, 10.002144, 9.997012 
1.4051451e+3, 2.94823e+2, 212514.0, -235107.4, -58089.848, 0.01736631, -0.03601011, 219929.73, 270661.75, 0.0003183702, 10.003103, 9.997186 
1.405154e+3, 3.0482006e+2, 271015.1, -169434.45, 30146.41, 0.0030695142, -0.04049677, 273068.88, 273068.88, 0.0008620041, 10.003139, 9.997288 
1.4051646e+3, 3.1481802e+2, 294752.66, 68756.0, 7367.807, 0.0493669, -0.031276837, 294992.63, 294992.63, 0.0016920328, 10.002227, 9.999373 
1.4150006e+3, 1.2482545e+2, -1797293.6, -1809626.4, -33391.52, 0.09242814, -0.07583979, -1769504.0, -52809.363, 0.009556688, 9.9995775, 9.999528 
1.41501e+3, 1.3482392e+2, -1738869.1, -1761936.6, 77903.25, 0.07770974, -0.17523627, -1671650.5, -52937.883, 0.0055341963, 9.999497, 9.999234 
1.4150168e+3, 1.448228e+2, -1576502.9, -1517756.6, -32558.748, -0.04693045, -0.26008475, -1503279.4, 17445.182, 0.0022969088, 9.999435, 10.000248 
1.4150272e+3, 1.548244e+2, -1469982.4, -1423399.5, 6484.201, 0.20085533, -0.15786701, -1422513.8, 194.33437, 0.0005425403, 9.999545, 10.000166 
1.4150354e+3, 1.6482523e+2, -1405176.5, -1395635.9, -656.705, 0.18636556, -0.058331706, -1395590.9, -70889.336, 0.000040406845, 9.999535, 9.9997 
1.4150417e+3, 1.7482501e+2, -1303891.0, -1276755.8, 8199.909, -0.014507666, -0.09664428, -1274470.4, -47763.258, 0.00000007226826, 9.999489, 9.999861 
1.4150497e+3, 1.848255e+2, -1168186.4, -1126678.1, 2144.0496, -0.09068734, -0.04068903, -1126567.6, 2136.3984, 0.0, 9.999599, 10.000158 
1.4150591e+3, 1.9482638e+2, -1034522.06, -1001203.25, 8444.52, -0.044302, -0.012119637, -999185.25, 31509.623, 0.0, 9.999798, 10.000254 
1.4150687e+3, 2.0482616e+2, -968505.2, -1033736.8, -307.4853, 0.0017970301, -0.0018463235, -968503.75, -35807.227, 0.0, 10.00006, 9.999234 
1.4150788e+3, 2.1482445e+2, -802048.06, -889486.94, 10626.631, 0.06438943, -0.14306758, -800775.1, 33937.43, 0.0, 10.000486, 9.999343 
1.4150876e+3, 2.2482367e+2, -721738.94, -888349.7, -71537.05, 0.07824972, -0.10658225, -695238.4, 41483.527, 0.0, 10.000751, 9.998544 
1.415095e+3, 2.3482375e+2, -611954.06, -772847.1, -36314.766, 0.04854071, 0.0005101338, -604137.3, 34588.586, 0.0, 10.000789, 9.998641 
1.4151032e+3, 2.4482326e+2, -504624.44, -695321.8, 19699.03, 0.021060936, 0.107977286, -502610.78, 38121.81, 0.0, 10.000931, 9.998445 
1.4151126e+3, 2.5482184e+2, -371590.88, -560222.3, 17698.346, 0.0007483473, 0.06748958, -369944.7, 72801.12, 0.0, 10.001104, 9.998607 
1.4151222e+3, 2.648203e+2, -264308.5, -465852.38, -35434.137, 0.04564549, 0.06672569, -258260.22, 86498.83, 0.000000079284355, 10.0012045, 9.998542 
1.4151321e+3, 2.7481848e+2, -142735.03, -341123.53, -14084.698, 0.15278722, -0.01750019, -141740.08, 105033.89, 0.000007370644, 10.001305, 9.998673 
1.415141e+3, 2.848168e+2, -59888.477, -424489.06, -28154.785, 0.1521007, 0.03452753, -57727.15, 91062.94, 0.00007207351, 10.001935, 9.99712 
1.415149e+3, 2.9481462e+2, 173324.53, -251241.06, 3371.486, 0.07665971, 0.044188995, 173351.31, 224165.4, 0.00031938194, 10.002814, 9.997217 
1.4151582e+3, 3.048111e+2, 174049.58, -299404.34, -12589.574, 0.06995936, 0.020880122, 174384.11, 174384.11, 0.00086451345, 10.002857, 9.996512 
1.4151667e+3, 3.1480572e+2, 175940.56, -53397.082, 21632.56, -0.031428184, -0.23656681, 177963.23, 177963.23, 0.0016914787, 10.001734, 9.998748 
1.4249997e+3, 1.24816306e+2, -1741821.5, -1781381.3, -101182.86, 0.0621686, -0.17357495, -1658503.3, 58279.3, 0.010011913, 9.9999895, 9.999524 
1.4250103e+3, 1.3481514e+2, -1793795.8, -1818305.1, -45309.79, 0.19139928, -0.1977692, -1759112.6, -140315.17, 0.0058154534, 9.999289, 9.99894 
1.4250153e+3, 1.4481407e+2, -1600740.0, -1555271.5, -33030.406, -0.117641374, -0.25153905, -1537907.6, -17097.639, 0.002423067, 9.999384, 10.0000105 
1.4250277e+3, 1.5481561e+2, -1379687.8, -1404080.6, -59720.723, 0.26517394, -0.13473639, -1330930.8, 91865.2, 0.00057589856, 10.000277, 9.999934 
1.4250362e+3, 1.648165e+2, -1293548.4, -1347547.1, -59822.2, 0.27764475, -0.014849291, -1254915.0, 69874.47, 0.00004378684, 10.000321, 9.999642 
1.4250416e+3, 1.7481655e+2, -1262191.6, -1259048.6, -77665.8, 0.013057101, -0.028715283, -1182938.4, 43854.18, 0.00000008454083, 9.999776, 9.999837 
1.4250496e+3, 1.8481669e+2, -1166006.9, -1139252.9, -9446.553, -0.05315436, -0.0004244927, -1136253.6, -7461.6406, 0.0, 9.999663, 10.000047 
1.4250599e+3, 1.9481675e+2, -982028.56, -980861.44, -19091.588, 0.052841205, -0.0441293, -962344.5, 68444.46, 0.0, 10.000182, 10.000205 
1.4250697e+3, 2.0481633e+2, -914172.3, -1005284.44, 22658.371, 0.077745385, -0.052891627, -908848.56, 23943.244, 0.0, 10.00042, 9.999254 
1.425079e+3, 2.1481496e+2, -801154.4, -886661.9, 12655.821, 0.032411948, -0.16198385, -799320.5, 35484.21, 0.0, 10.000463, 9.999376 
1.425088e+3, 2.2481449e+2, -703913.0, -851209.9, -31754.11, 0.04645158, -0.1098768, -697359.06, 39451.72, 0.0, 10.000743, 9.998813 
1.4250967e+3, 2.3481485e+2, -499569.75, -686427.94, -48971.363, 0.1152596, 0.0005156729, -487513.34, 151297.75, 0.0, 10.001409, 9.99895 
1.4251055e+3, 2.4481434e+2, -400311.53, -675270.3, 35734.79, 0.11552864, 0.10166822, -395743.2, 145074.7, 0.0, 10.001789, 9.998167 
1.4251146e+3, 2.548125e+2, -255480.25, -536364.5, 10890.138, 0.04011171, 0.051283248, -255058.67, 187776.42, 0.00000000006254562, 10.002037, 9.998324 
1.425124e+3, 2.6481053e+2, -143093.75, -448649.03, -18527.102, 0.060009457, 0.04075622, -141974.47, 202878.42, 0.00000036239143, 10.002208, 9.998173 
1.4251341e+3, 2.748084e+2, -18471.24, -317138.6, -63634.48, 0.1752557, -0.044173215, -5478.414, 241393.69, 0.000010087366, 10.002304, 9.998354 
1.4251433e+3, 2.8480658e+2, 24516.99, -355530.2, -28158.379, 0.1841015, -0.0017512677, 26591.967, 175481.5, 0.00007872079, 10.00239, 9.997385 
1.425152e+3, 2.948046e+2, 176514.92, -214388.38, -39314.426, 0.11375867, 0.0030185962, 180429.7, 231340.38, 0.00033516844, 10.002683, 9.997533 
1.4251618e+3, 3.0480194e+2, 212506.64, -276983.8, -5805.5913, 0.14723645, 0.04211681, 212575.48, 212575.48, 0.0008965645, 10.003056, 9.996599 
1.4251702e+3, 3.1479648e+2, 390234.0, 37300.926, 23649.545, 0.076618314, -0.2320242, 391811.66, 391811.66, 0.0017444047, 10.003218, 9.998682 
1.435001e+3, 1.2480485e+2, -1674701.1, -1655119.8, 136097.17, 0.11322063, -0.26695794, -1528461.5, 188438.45, 0.010506618, 10.00003, 10.000377 
1.4350094e+3, 1.3480677e+2, -1732898.8, -1688522.8, -51017.523, 0.14194639, -0.07230965, -1655077.1, -36194.098, 0.006123269, 9.999273, 9.999832 
1.4350152e+3, 1.448073e+2, -1618430.6, -1606346.4, -20997.594, -0.13005976, 0.0015744868, -1590538.9, -69658.664, 0.002563054, 9.999438, 9.999641 
1.4350267e+3, 1.5480663e+2, -1419054.9, -1477117.8, -9144.831, 0.107762024, -0.055974532, -1417648.8, 5240.9595, 0.0006133788, 10.000234, 9.999462 
1.4350353e+3, 1.6480643e+2, -1291987.6, -1339853.0, -103093.07, 0.116700865, -0.022818051, -1210085.8, 114808.055, 0.000047750204, 10.000305, 9.999703 
1.4350419e+3, 1.7480657e+2, -1264968.9, -1257607.1, -84925.74, 0.03492591, -0.029715497, -1176282.5, 50611.25, 0.00000010052836, 9.99974, 9.999869 
1.4350504e+3, 1.8480664e+2, -1161200.0, -1113680.4, -13228.126, 0.029959278, -0.018947106, -1110246.3, 18645.414, 0.0, 9.999599, 10.000251 
1.4350607e+3, 1.9480634e+2, -990929.7, -965536.7, 16256.74, 0.0756743, -0.12351296, -957605.94, 73284.34, 0.0, 10.000036, 10.0003805 
1.4350699e+3, 2.048063e+2, -919404.0, -978201.2, 3676.576, 0.018993493, -0.115551256, -919175.0, 13713.211, 0.0, 10.000252, 9.999519 
1.4350782e+3, 2.1480626e+2, -823546.3, -876913.56, 30290.82, -0.1097065, -0.11602075, -809862.25, 25026.25, 0.0, 10.000215, 9.999563 
1.4350875e+3, 2.2480601e+2, -742078.56, -864755.2, -24630.025, -0.0969622, -0.051288806, -737318.25, -426.68082, 0.0, 10.000469, 9.998846 
1.4350978e+3, 2.3480535e+2, -540866.7, -701358.56, -5604.448, 0.06803733, -0.050180245, -540671.2, 98228.51, 0.0, 10.001119, 9.998981 
1.4351074e+3, 2.4480377e+2, -444392.8, -708183.9, 24390.764, 0.09811617, -0.049278527, -442156.53, 98758.25, 0.0, 10.001532, 9.998067 
1.4351164e+3, 2.5480106e+2, -308976.97, -577635.9, 38289.383, -0.0077771735, -0.1757392, -303626.5, 139312.72, 0.000000006122379, 10.001741, 9.998182 
1.4351258e+3, 2.6479885e+2, -219290.25, -560198.3, -30044.531, -0.011032246, -0.17110498, -216662.66, 128297.76, 0.0000008787704, 10.001998, 9.997515 
1.4351359e+3, 2.7479693e+2, -97748.34, -434845.1, -37521.594, 0.105875604, -0.16485357, -93622.39, 153358.61, 0.000014147242, 10.002097, 9.997655 
1.4351451e+3, 2.8479508e+2, 17539.29, -323101.38, -34435.613, 0.102726355, -0.10797502, 20985.545, 169985.95, 0.000090681104, 10.002188, 9.997702 
1.4351536e+3, 2.947929e+2, 145824.6, -209611.25, -2289.7886, -0.026638577, -0.15746364, 145839.34, 196862.23, 0.0003647409, 10.00238, 9.997716 
1.4351644e+3, 3.0479246e+2, 249690.72, -127168.53, -15015.757, 0.06967855, 0.046316203, 250288.06, 250288.06, 0.0009617202, 10.00277, 9.997753 
1.435174e+3, 3.1479028e+2, 360622.66, 96123.93, 75597.52, 0.085755005, -0.019338356, 380704.78, 380704.78, 0.001861219, 10.002713, 9.9993305 
1.445e+3, 1.2479524e+2, -1798866.3, -1677710.3, 257749.3, 0.07076743, -0.15827326, -1473516.0, 243481.84, 0.011047917, 9.998985, 10.000732 
1.445008e+3, 1.347972e+2, -1665572.1, -1590935.5, -87426.02, 0.08866589, -0.03017941, -1533196.1, 85783.57, 0.00646129, 9.999425, 10.000433 
1.4450172e+3, 1.44798e+2, -1559876.6, -1545265.3, 7161.4067, 0.1210835, 0.028535638, -1542340.6, -21367.01, 0.0027186894, 9.999717, 9.999909 
1.4450262e+3, 1.5479764e+2, -1472856.6, -1467528.9, 22324.271, 0.06953287, -0.02911132, -1447710.1, -24730.537, 0.0006559602, 9.999714, 9.999775 
1.4450341e+3, 1.6479756e+2, -1370530.6, -1369387.9, -16024.043, 0.012724466, -0.0026229874, -1353925.0, -28943.201, 0.000052490832, 9.999735, 9.999779 
1.4450423e+3, 1.7479765e+2, -1185346.9, -1202097.8, -29095.701, 0.08828625, -0.024956757, -1163445.1, 63536.223, 0.00000012546444, 10.000234, 10.000005 
1.4450514e+3, 1.847975e+2, -1072128.3, -1109598.6, 69621.75, 0.14169349, -0.027815802, -1018764.9, 110215.9, 0.0, 10.0003605, 9.999921 
1.445061e+3, 1.9479679e+2, -999721.6, -1003359.94, 23864.654, 0.12040254, -0.1426472, -977606.9, 53376.4, 0.0, 10.000111, 10.000086 
1.4450702e+3, 2.0479666e+2, -940416.7, -974522.6, 21112.207, 0.04659773, -0.13359436, -930330.56, 2651.2605, 0.0, 10.000065, 9.999636 
1.445079e+3, 2.1479696e+2, -789660.75, -837202.25, 1179.7745, -0.05355486, -0.112774156, -789631.5, 45346.957, 0.0, 10.000372, 9.999755 
1.4450887e+3, 2.2479665e+2, -713533.25, -863212.3, -9228.738, -0.033453025, -0.059969738, -712966.4, 24015.236, 0.0, 10.00071, 9.998747 
1.4450993e+3, 2.3479535e+2, -550018.75, -716974.1, -33348.82, 0.10644686, -0.11178286, -543603.9, 95391.01, 0.0, 10.001089, 9.998891 
1.4451091e+3, 2.4479358e+2, -470585.2, -696237.4, 26156.396, 0.137976, -0.13895625, -467592.94, 73418.12, 0.0, 10.001251, 9.9982815 
1.4451183e+3, 2.5479102e+2, -346740.22, -572660.9, 29415.43, 0.050753668, -0.26925427, -342973.06, 100059.77, 0.000000012932129, 10.001361, 9.998407 
1.4451282e+3, 2.6478907e+2, -254956.3, -604770.3, 41959.71, 0.043971345, -0.24019618, -249993.69, 95058.33, 0.0000016431604, 10.001878, 9.997265 
1.4451386e+3, 2.747875e+2, 18308.33, -402673.2, 21257.545, 0.12363716, -0.1744207, 19379.01, 266449.97, 0.000019343763, 10.003005, 9.997431 
1.4451478e+3, 2.8478533e+2, 153729.08, -261088.9, 32092.225, 0.11123534, -0.13069217, 156197.2, 305290.28, 0.00010742439, 10.003149, 9.997657 
1.4451562e+3, 2.9478252e+2, 113536.02, -220564.56, 5696.0713, 0.015505686, -0.24084826, 113633.11, 164753.34, 0.0004102239, 10.002153, 9.997734 
1.445167e+3, 3.0478233e+2, 151925.77, -148125.11, 33457.688, 0.12370953, -0.03108951, 155611.25, 155611.25, 0.001066146, 10.00198, 9.997998 
1.4451772e+3, 3.147814e+2, 335707.25, 66563.25, -37843.48, 0.14672951, 0.0041557704, 340927.06, 340927.06, 0.0020519032, 10.002632, 9.999155 
1.4549989e+3, 1.24786966e+2, -1801033.3, -1704663.5, 39921.22, -0.04803553, 0.06729238, -1690274.5, 26806.635, 0.011640448, 9.999073, 10.000499 
1.4550059e+3, 1.3478658e+2, -1654955.1, -1551935.3, -44459.953, -0.11321976, -0.07589312, -1535401.4, 83684.37, 0.0068325973, 9.9993515, 10.00074 
1.4550208e+3, 1.4478634e+2, -1502381.8, -1428749.6, -9236.035, 0.4511436, -0.16859554, -1427608.8, 93479.74, 0.0028915813, 9.999727, 10.000705 
1.4550257e+3, 1.5478854e+2, -1410519.3, -1331518.3, 36265.973, -0.0062419786, -0.06443759, -1317395.0, 105671.75, 0.00070428615, 9.999687, 10.00072 
1.4550324e+3, 1.647899e+2, -1348848.6, -1332710.3, -24577.143, -0.1882195, 0.04541439, -1314911.5, 10142.042, 0.000058062662, 9.999767, 10.000017 
1.4550424e+3, 1.747899e+2, -1181470.8, -1180281.6, 6048.7905, 0.039313518, -0.006601612, -1174798.3, 52255.926, 0.00000016567238, 10.0001745, 10.000186 
1.4550522e+3, 1.8478933e+2, -1133827.6, -1226860.5, 41296.883, 0.13329625, -0.022066496, -1118141.1, 10917.612, 0.0, 10.000311, 9.999144 
1.4550608e+3, 1.9478805e+2, -1077608.4, -1136999.8, 30201.156, 0.050814413, -0.10654144, -1064949.1, -33880.47, 0.0, 9.999983, 9.999238 
1.4550702e+3, 2.0478736e+2, -971300.3, -992751.75, 12249.892, 0.014066564, -0.10885814, -965744.1, -32670.828, 0.0, 9.999876, 9.999597 
1.4550808e+3, 2.1478699e+2, -829883.94, -858736.56, 30172.744, 0.058869902, -0.155291, -810866.06, 24209.26, 0.0, 10.000112, 9.999732 
1.4550908e+3, 2.2478624e+2, -759132.56, -897047.8, -13173.485, 0.083664715, -0.13976407, -757885.56, -20803.3, 0.0, 10.000448, 9.998639 
1.4551003e+3, 2.3478492e+2, -607857.44, -761601.9, 51.100166, 0.08561637, -0.17961983, -607857.44, 31238.682, 0.0, 10.000774, 9.9987335 
1.4551102e+3, 2.4478376e+2, -469073.8, -638230.56, 15393.227, 0.07888023, -0.16253015, -467684.44, 73421.8, 0.0, 10.001003, 9.998803 
1.4551203e+3, 2.5478247e+2, -340339.4, -510953.2, 53670.234, 0.076426454, -0.22029708, -324860.6, 118254.516, 0.000000017460069, 10.001147, 9.998939 
1.4551306e+3, 2.647812e+2, -279235.38, -608105.0, 66442.5, 0.071641535, -0.15235344, -266319.1, 78808.02, 0.000002726617, 10.001673, 9.997339 
1.4551413e+3, 2.7477974e+2, -21915.938, -417418.97, 84084.75, 0.06868288, -0.08395188, -4781.653, 242363.16, 0.000025176965, 10.002715, 9.997462 
1.4551508e+3, 2.8477722e+2, 97860.78, -308949.44, -22013.297, 0.061758835, -0.0697385, 99048.49, 248218.17, 0.00012773139, 10.002859, 9.997467 
1.4551593e+3, 2.9477343e+2, 66494.47, -260253.77, -6496.246, 0.06644254, -0.25953493, 66623.58, 117827.766, 0.00046808438, 10.001901, 9.997588 
1.4551696e+3, 3.0477154e+2, 66567.07, -270969.8, 44424.883, 0.14610617, -0.17696185, 72316.125, 72316.125, 0.00120209, 10.001744, 9.997268 
1.4551787e+3, 3.1476963e+2, 167583.3, -175805.05, 31627.008, -0.018163005, -0.16507918, 170471.94, 170471.94, 0.0023053363, 10.002166, 9.997717 
1.4650004e+3, 1.2477817e+2, -1782922.3, -1703604.0, 83984.81, 0.21984223, 0.014953262, -1650385.3, 66778.68, 0.012283002, 9.999254, 10.000417 
1.4650048e+3, 1.3477823e+2, -1643382.6, -1549273.6, 75365.13, -0.12625693, -0.07998123, -1507479.8, 111685.78, 0.00723705, 9.99947, 10.00069 
1.4650203e+3, 1.4477767e+2, -1563079.0, -1450217.1, 124646.88, 0.4825364, -0.20139551, -1369822.3, 151349.05, 0.0030819494, 9.999252, 10.000803 
1.4650255e+3, 1.5477982e+2, -1371615.6, -1282239.9, 77649.555, 0.029010102, -0.1278271, -1237337.3, 185811.13, 0.0007585455, 9.999805, 10.00101 
1.4650328e+3, 1.647812e+2, -1301927.5, -1358631.9, 17525.082, -0.13145453, -0.011902063, -1296948.4, 28186.684, 0.00006440502, 10.000291, 9.999585 
1.465043e+3, 1.7478117e+2, -1101500.5, -1195678.3, -37764.285, 0.055069204, -0.020223117, -1088228.0, 138910.08, 0.00000022299002, 10.000933, 9.999719 
1.4650527e+3, 1.8478048e+2, -1037810.1, -1186717.0, 4843.9946, 0.13322218, -0.019490873, -1037652.75, 91492.29, 0.0, 10.0010395, 9.999045 
1.4650613e+3, 1.9477902e+2, -950942.1, -1077193.6, 8810.974, 0.0700755, -0.11786902, -950330.2, 80826.29, 0.0, 10.000892, 9.99919 
1.465071e+3, 2.0477821e+2, -863204.5, -959011.1, 62884.86, 0.062253427, -0.12001532, -832055.7, 101106.49, 0.0, 10.000684, 9.999447 
1.4650817e+3, 2.1477787e+2, -778939.4, -844989.25, 42942.336, 0.12900077, -0.14904676, -757791.5, 77372.555, 0.0, 10.000505, 9.999635 
1.4650919e+3, 2.2477712e+2, -726166.4, -870127.1, 52557.035, 0.15160534, -0.13719125, -709020.9, 28150.01, 0.0, 10.000629, 9.9987335 
1.4651015e+3, 2.3477556e+2, -531615.75, -713016.44, 44670.098, 0.12285455, -0.21089059, -521212.3, 117973.664, 0.0, 10.00123, 9.998849 
1.4651117e+3, 2.4477449e+2, -369958.53, -610039.3, 77432.766, 0.109151684, -0.18068248, -347151.03, 194044.5, 0.0, 10.001776, 9.998625 
1.4651223e+3, 2.547738e+2, -174113.4, -444109.13, 26062.877, 0.10470143, -0.1624874, -171620.56, 271580.06, 0.000000044837254, 10.002364, 9.998801 
1.4651328e+3, 2.647726e+2, -162781.33, -529847.44, 46061.805, 0.10464042, -0.09353143, -157089.47, 188122.98, 0.0000038968087, 10.002377, 9.99754 
1.4651439e+3, 2.747705e+2, -140080.95, -453254.2, 43294.59, 0.10947645, -0.098837316, -134205.92, 113028.125, 0.000030518888, 10.001792, 9.997671 
1.4651535e+3, 2.8476793e+2, -64375.54, -378715.34, -23077.43, 0.119782254, -0.10976401, -62690.33, 86569.375, 0.00014669454, 10.001702, 9.997549 
1.465162e+3, 2.9476467e+2, 115290.43, -222746.48, -47532.082, 0.14733648, -0.24562405, 121846.84, 173136.5, 0.00052534003, 10.002191, 9.997699 
1.4651722e+3, 3.0476245e+2, 196215.52, -184962.7, 102720.984, 0.19608268, -0.21365042, 222134.63, 222134.63, 0.0013448142, 10.002546, 9.997457 
1.4651813e+3, 3.1476098e+2, 216586.78, -142124.69, 88213.016, 0.025379613, -0.16938344, 237106.05, 237106.05, 0.0025808995, 10.002455, 9.997801 
1.4750004e+3, 1.2476837e+2, -1760703.8, -1669742.6, -126854.13, 0.19358271, -0.35339126, -1580462.5, 136788.34, 0.012969953, 9.999318, 10.0006075 
1.4750047e+3, 1.3477215e+2, -1686713.4, -1624377.4, 77934.086, -0.12034379, -0.03282353, -1571610.0, 47609.117, 0.0076708426, 9.999423, 10.000183 
1.4750157e+3, 1.4477193e+2, -1573299.9, -1498084.0, 112437.84, 0.032412022, -0.074498735, -1417131.4, 104091.37, 0.0032881629, 9.999347, 10.000438 
1.4750257e+3, 1.5477163e+2, -1400406.3, -1336046.3, 113844.69, 0.027190102, -0.21086071, -1249920.9, 173302.03, 0.00081847684, 9.999774, 10.000661 
1.4750351e+3, 1.6477163e+2, -1371128.8, -1510382.4, 20496.557, 0.017973037, -0.16327558, -1368174.6, -42950.05, 0.000071419374, 10.0003195, 9.9985285 
1.4750437e+3, 1.7477168e+2, -1190200.1, -1361124.1, 1582.2368, -0.009130919, -0.056243796, -1190185.4, 37045.582, 0.0000002932695, 10.00086, 9.998611 
1.4750527e+3, 1.847711e+2, -1003149.06, -1114960.3, -21229.271, -0.0073042717, -0.010616348, -999254.0, 129983.914, 0.0, 10.001023, 9.999553 
1.475062e+3, 1.9476958e+2, -927824.25, -1004993.4, 18905.91, 0.033902947, -0.17210598, -923441.3, 107806.47, 0.0, 10.000776, 9.999748 
1.4750716e+3, 2.0476913e+2, -896111.25, -989084.8, 33721.49, 0.034668636, -0.16159855, -885168.44, 48081.184, 0.0, 10.000518, 9.999316 
1.4750811e+3, 2.147697e+2, -828997.75, -889719.2, 49388.063, 0.008045768, -0.087878935, -801384.75, 33859.547, 0.0, 10.000256, 9.999446 
1.4750916e+3, 2.247692e+2, -740358.1, -849046.44, 53717.074, 0.02463385, -0.048064232, -718290.1, 18957.783, 0.0, 10.000396, 9.999 
1.4751026e+3, 2.3476726e+2, -544163.3, -688000.25, 83970.87, 0.08093532, -0.1923888, -505522.44, 133742.27, 0.0, 10.001001, 9.999138 
1.4751133e+3, 2.4476585e+2, -462771.06, -748444.9, 78582.0, 0.0677873, -0.17214082, -442581.84, 98696.664, 0.0, 10.001541, 9.997786 
1.4751236e+3, 2.5476483e+2, -275793.34, -594480.6, 64626.64, -0.009379302, -0.100086436, -263186.44, 180104.58, 0.000000082863835, 10.002101, 9.997897 
1.4751343e+3, 2.64763e+2, -174301.06, -493364.66, 11316.245, -0.0049604196, -0.062089987, -173900.22, 171409.03, 0.0000048986644, 10.002112, 9.997916 
1.4751458e+3, 2.7475992e+2, -146950.03, -407512.84, 48381.78, 0.08959497, -0.21905957, -138256.47, 109081.13, 0.00003489947, 10.001536, 9.998102 
1.4751555e+3, 2.8475755e+2, -98312.516, -392019.78, -23963.578, 0.114623696, -0.22814053, -96370.17, 52990.813, 0.00016199093, 10.001452, 9.997579 
1.475164e+3, 2.9475605e+2, 75573.27, -237394.75, -5686.58, 0.07478732, -0.20473577, 75676.57, 127055.38, 0.0005773318, 10.001897, 9.997739 
1.4751741e+3, 3.0475467e+2, 233606.9, -38528.344, 84889.26, 0.10497935, -0.14467204, 257915.67, 257915.67, 0.0014793195, 10.002247, 9.998606 
1.4751837e+3, 3.14755e+2, 254103.45, 50641.848, 135559.64, -0.047395006, -0.043390967, 321858.88, 321858.88, 0.0028372656, 10.001965, 9.999361 
1.4849997e+3, 1.2476002e+2, -1845857.1, -1699679.5, -216977.53, 0.24329323, -0.41822037, -1543811.5, 173521.2, 0.013700781, 9.998661, 10.000734 
1.4850053e+3, 1.3476409e+2, -1715912.3, -1657169.8, -44509.215, 0.018249655, -0.051017318, -1633214.3, -13917.411, 0.00813248, 9.999257, 10.000055 
1.4850141e+3, 1.4476392e+2, -1628427.3, -1571993.1, 70100.35, -0.046138566, -0.05738855, -1524643.9, -3344.2424, 0.0035089266, 9.999219, 9.99997 
1.4850262e+3, 1.5476285e+2, -1385929.0, -1378424.0, 21336.84, 0.08295255, -0.22336282, -1360512.3, 62796.105, 0.0008836724, 10.000108, 10.0001955 
1.4850363e+3, 1.6476248e+2, -1345111.3, -1475132.4, -7223.7173, 0.110092424, -0.19613619, -1344711.3, -19397.645, 0.00007901186, 10.000446, 9.998697 
1.4850442e+3, 1.7476262e+2, -1230748.0, -1355848.0, 27259.697, -0.015651273, -0.09820327, -1225066.1, 2251.5146, 0.00000037325287, 10.0005045, 9.9988165 
1.4850532e+3, 1.8476212e+2, -1089223.9, -1183709.6, 56405.023, -0.013324302, -0.043329086, -1062890.9, 66433.23, 0.0, 10.00054, 9.999318 
1.4850637e+3, 1.9476075e+2, -938267.0, -1033961.7, 1232.491, 0.11735537, -0.16528566, -938251.1, 93083.516, 0.0, 10.0008, 9.99954 
1.4850733e+3, 2.0476015e+2, -845155.1, -996807.56, 14786.087, 0.12224019, -0.14572327, -843726.94, 89612.4, 0.0, 10.001023, 9.999015 
1.4850818e+3, 2.1476018e+2, -703824.94, -859304.56, -17980.53, -0.00089312583, -0.09308765, -701772.7, 133566.52, 0.0, 10.0012455, 9.999177 
1.4850922e+3, 2.2475953e+2, -609013.6, -777245.44, 23739.205, 0.009954739, -0.05961792, -605727.94, 131616.2, 0.0, 10.001271, 9.999062 
1.4851044e+3, 2.3475799e+2, -502946.25, -657751.2, 1180.2937, 0.14577459, -0.16773455, -502937.25, 136418.98, 0.0, 10.001251, 9.999219 
1.4851154e+3, 2.4475658e+2, -483809.25, -762125.4, 56006.637, 0.14667109, -0.1508567, -472961.63, 68408.43, 0.0, 10.001407, 9.997764 
1.4851256e+3, 2.5475514e+2, -327486.38, -619091.94, 66715.99, 0.008553236, -0.11637672, -312947.4, 130439.89, 0.00000011463164, 10.001747, 9.9979 
1.4851363e+3, 2.6475337e+2, -213450.17, -469116.56, 40135.203, -0.0017474084, -0.09275577, -207297.7, 138107.5, 0.000005857849, 10.001673, 9.998285 
1.4851472e+3, 2.747509e+2, -172484.89, -379235.25, 23678.615, 0.11593966, -0.22205618, -169807.7, 77619.28, 0.000039275426, 10.001199, 9.998455 
1.4851572e+3, 2.8474912e+2, -112762.836, -384794.3, 33745.477, 0.14825726, -0.19486415, -108639.22, 40805.406, 0.00017769585, 10.001288, 9.997707 
1.485166e+3, 2.947481e+2, 93514.86, -219819.61, 19928.004, 0.10281792, -0.12459636, 94777.19, 146235.52, 0.0006303682, 10.001961, 9.997845 
1.4851762e+3, 3.047465e+2, 240661.03, -40974.688, 88156.945, 0.11106391, -0.09021373, 265979.63, 265979.63, 0.0016042597, 10.002295, 9.998582 
1.4851862e+3, 3.1474662e+2, 295260.28, 121349.24, -41009.105, 0.012057312, -0.012097864, 304445.34, 304445.34, 0.003054721, 10.002016, 9.999824 
1.4949973e+3, 1.24753684e+2, -1797112.5, -1620722.1, -99730.96, 0.05482499, -0.11753559, -1575783.4, 141620.81, 0.014485426, 9.99876, 10.001219 
1.495006e+3, 1.3475455e+2, -1703937.4, -1617597.3, -26657.81, 0.12247831, -0.1006443, -1610029.9, 9363.832, 0.008627366, 9.9992075, 10.000345 
1.4950152e+3, 1.4475396e+2, -1651283.4, -1656338.0, 69109.71, 0.07113381, -0.13596204, -1584654.8, -63255.844, 0.0037456865, 9.999351, 9.999339 
1.4950262e+3, 1.5475373e+2, -1439407.3, -1490439.5, 70007.41, 0.043275684, -0.14801385, -1390410.9, 32991.61, 0.0009542572, 10.000101, 9.999437 
1.4950359e+3, 1.6475388e+2, -1238026.3, -1268836.8, -25965.559, -0.025936794, -0.09501689, -1223239.9, 102160.62, 0.00008722728, 10.000505, 10.000086 
1.4950442e+3, 1.7475393e+2, -1138492.5, -1152217.0, 43262.25, -0.09832796, -0.1482179, -1101551.6, 125846.53, 0.0000004647829, 10.000455, 10.000236 
1.4950539e+3, 1.8475357e+2, -1156324.5, -1322674.8, 44401.73, -0.042208068, -0.108138785, -1145214.9, -15812.023, 0.0, 10.000529, 9.998375 
1.4950652e+3, 1.9475262e+2, -1030505.6, -1195403.5, 24965.736, 0.164454, -0.088426515, -1026808.7, 4607.5415, 0.0, 10.0006695, 9.998497 
1.4950751e+3, 2.0475134e+2, -898393.56, -1070946.5, 3881.6335, 0.17220522, -0.061326284, -898306.25, 35124.05, 0.0, 10.000861, 9.998586 
1.4950831e+3, 2.1474943e+2, -767092.4, -936295.44, 6640.816, -0.022396363, -0.16316475, -766832.1, 68615.71, 0.0, 10.001016, 9.998756 
1.4950934e+3, 2.2474821e+2, -658892.25, -825305.1, 4330.5605, -0.028545607, -0.15472913, -658779.6, 78678.266, 0.0, 10.001022, 9.9988575 
1.495106e+3, 2.3474768e+2, -552431.4, -702926.25, 18458.602, 0.170786, -0.14681444, -550200.5, 89260.53, 0.0, 10.001, 9.999031 
1.4951175e+3, 2.4474666e+2, -469568.13, -672019.94, 54974.13, 0.1888252, -0.11648599, -455603.6, 85866.52, 0.0, 10.0011425, 9.998509 
1.4951277e+3, 2.5474474e+2, -310918.3, -529010.1, 101336.42, 0.016076362, -0.21021491, -271101.6, 172387.78, 0.00000015644366, 10.001499, 9.998643 
1.4951378e+3, 2.6474357e+2, -243628.97, -463660.38, 4767.487, -0.036788885, -0.17134249, -243525.72, 101975.06, 0.000006865855, 10.001389, 9.998455 
1.495148e+3, 2.7474308e+2, -200629.95, -375273.78, 25974.012, 0.035501916, -0.11680482, -196848.83, 50656.355, 0.00004412461, 10.000943, 9.998601 
1.4951578e+3, 2.8474224e+2, -128434.836, -365044.47, 39742.49, 0.057655517, -0.016543726, -121937.83, 27575.98, 0.00019465707, 10.001056, 9.997958 
1.4951679e+3, 2.9474083e+2, 76522.75, -197946.11, 75082.24, 0.050956167, -0.019066183, 95719.234, 147248.84, 0.0006807664, 10.001706, 9.998122 
1.495178e+3, 3.0473807e+2, 96635.0, -261310.48, 64305.703, 0.028724818, -0.047747534, 107837.086, 107837.086, 0.0017053906, 10.001971, 9.997216 
1.4951874e+3, 3.1473568e+2, 159201.47, -52262.348, 1993.0061, -0.12196919, -0.07740105, 159220.25, 159220.25, 0.0032076885, 10.001551, 9.998852 
1.504996e+3, 1.2474523e+2, -1844216.1, -1718152.3, 43911.66, 0.052626856, -0.02985215, -1704364.5, 13124.036, 0.015336173, 9.998767, 10.0005455 
1.5050064e+3, 1.3474517e+2, -1519850.9, -1546088.6, -36799.223, 0.18459237, -0.096758634, -1493902.0, 125585.23, 0.0091627855, 10.00052, 10.000227 
1.5050162e+3, 1.4474422e+2, -1431297.1, -1561243.8, 61148.586, 0.17831561, -0.15617779, -1407047.8, 114448.625, 0.0040015904, 10.0009365, 9.999222 
1.5050268e+3, 1.5474448e+2, -1434241.9, -1492055.5, 66842.17, 0.10668753, -0.10738608, -1390323.6, 33171.598, 0.001031135, 10.000175, 9.999384 
1.5050362e+3, 1.6474475e+2, -1336165.5, -1290895.0, -992.77856, 0.0073887566, -0.055212107, -1290873.3, 34618.49, 0.000096309515, 9.999695, 10.000338 
1.5050445e+3, 1.7474443e+2, -1195532.5, -1146542.5, -54511.867, -0.06783683, -0.17372443, -1111275.0, 116216.17, 0.000000575819, 9.999895, 10.000549 
1.5050547e+3, 1.8474434e+2, -1173818.0, -1313939.8, -5.3990636, -0.0023753974, -0.12959807, -1173818.0, -44325.25, 0.0, 10.000351, 9.998507 
1.5050665e+3, 1.9474435e+2, -917243.44, -1122055.0, 31610.914, 0.18288395, -0.027335627, -912475.56, 119022.2, 0.0, 10.001375, 9.998647 
1.5050766e+3, 2.0474312e+2, -794359.56, -1041428.7, 74284.445, 0.20286825, 0.005604074, -773745.0, 159766.78, 0.0, 10.0016775, 9.998393 
1.5050848e+3, 2.1474029e+2, -739933.7, -947257.75, 52137.04, 0.0422858, -0.16326946, -727560.8, 107977.164, 0.0, 10.00131, 9.998541 
1.5050949e+3, 2.2473879e+2, -634991.56, -830382.8, 103889.984, 0.031879216, -0.1648287, -590077.4, 147473.92, 0.0, 10.001278, 9.99869 
1.5051073e+3, 2.3473857e+2, -473769.3, -682987.5, 79839.8, 0.17417525, -0.10783767, -446782.6, 192769.14, 0.0, 10.001628, 9.998859 
1.505119e+3, 2.447376e+2, -417185.47, -640954.06, 112913.25, 0.20878206, -0.06659971, -370112.25, 171448.4, 0.0, 10.001487, 9.998551 
1.5051298e+3, 2.5473553e+2, -399740.38, -563727.9, 65458.9, 0.11319849, -0.17913985, -376815.88, 66765.24, 0.00000020302433, 10.000865, 9.998701 
1.50514e+3, 2.647343e+2, -292041.78, -483168.6, -6107.6924, 0.06770046, -0.15309, -291846.8, 53746.09, 0.0000077496, 10.001028, 9.998499 
1.5051498e+3, 2.7473375e+2, -29948.883, -291031.06, -23829.037, 0.0770534, -0.10621604, -27791.822, 219805.22, 0.000048509926, 10.002077, 9.998648 
1.5051597e+3, 2.847328e+2, 65951.86, -280306.13, 9322.305, 0.084143005, -0.018094286, 66202.66, 215809.52, 0.00020995413, 10.002448, 9.997859 
1.5051702e+3, 2.947312e+2, 146052.11, -165878.61, -40187.758, 0.10220641, -0.025126744, 151146.52, 202770.67, 0.0007220719, 10.002237, 9.998054 
1.5051806e+3, 3.0472845e+2, 107215.78, -286656.94, 1355.5022, 0.09435326, -0.040966775, 107220.445, 107220.445, 0.0017709631, 10.00215, 9.996975 
1.5051904e+3, 3.1472477e+2, 171295.81, -56390.223, -36826.34, 0.033047643, -0.16630149, 177104.0, 177104.0, 0.0032780797, 10.001657, 9.998798 
1.5149961e+3, 1.2473499e+2, -1941263.9, -1967731.3, -2057.2283, 0.10375696, -0.1491089, -1941105.0, -223522.52, 0.016257107, 9.998963, 9.998746 
1.515006e+3, 1.3473623e+2, -1583045.0, -1650955.8, 59413.76, 0.055166073, -0.029506022, -1548568.1, 71006.65, 0.009740974, 10.000429, 9.99954 
1.5150169e+3, 1.4473505e+2, -1385415.4, -1501461.8, 9172.005, 0.07846727, -0.08893093, -1384695.0, 136893.27, 0.0042781597, 10.001066, 9.999577 
1.5150276e+3, 1.5473516e+2, -1399921.6, -1429217.8, 52753.94, 0.12362002, -0.09899862, -1359819.8, 63766.49, 0.0011151112, 10.000202, 9.9998045 
1.5150367e+3, 1.6473505e+2, -1376309.5, -1396240.6, -18740.32, 0.040025543, -0.07075035, -1365049.8, -39462.71, 0.000106548556, 9.999779, 9.999574 
1.5150449e+3, 1.7473418e+2, -1257154.6, -1269509.4, -32288.885, -0.058904164, -0.16834918, -1230457.5, -2861.9795, 0.0000007145684, 9.999864, 9.999724 
1.515055e+3, 1.8473451e+2, -1088417.8, -1134084.0, 18137.338, -0.05241411, -0.10000139, -1082090.8, 47501.813, 0.0, 10.0003395, 9.999746 
1.5150666e+3, 1.9473594e+2, -847521.44, -945826.94, 83990.414, 0.036019973, 0.016613241, -799358.3, 232220.78, 0.0, 10.001244, 9.999919 
1.5150772e+3, 2.0473553e+2, -823269.7, -1059272.3, 39805.605, 0.064447775, 0.067080215, -816736.7, 116846.625, 0.0, 10.00149, 9.998364 
1.5150864e+3, 2.1473287e+2, -779467.06, -970030.2, 53777.754, 0.050071146, -0.08204679, -765338.25, 70270.9, 0.0, 10.001052, 9.99851 
1.5150966e+3, 2.2473128e+2, -688086.06, -876598.06, 98037.74, 0.032892857, -0.08274195, -646343.56, 91280.51, 0.0, 10.000998, 9.99851 
1.5151076e+3, 2.3473063e+2, -524991.44, -730868.8, 110492.93, 0.021412516, -0.046583068, -476916.72, 162712.42, 0.0, 10.001377, 9.998653 
1.5151192e+3, 2.4472938e+2, -502748.22, -762565.5, 70106.53, 0.052604105, 0.013083216, -485038.5, 56603.266, 0.0, 10.001233, 9.997844 
1.5151313e+3, 2.547273e+2, -482368.16, -682524.56, 60438.582, 0.14387093, -0.032832537, -465534.13, -21869.502, 0.00000026346208, 10.000627, 9.998004 
1.5151422e+3, 2.6472524e+2, -330913.6, -498226.78, 17978.838, 0.1540455, -0.053406544, -329003.47, 16680.615, 0.000008336701, 10.000754, 9.9985285 
1.5151522e+3, 2.7472305e+2, -69237.27, -304044.9, 41171.04, 0.08428321, -0.17951286, -62227.625, 185473.95, 0.00005112129, 10.001797, 9.998693 
1.5151623e+3, 2.8472108e+2, -19863.477, -392565.2, -15521.219, 0.048311073, -0.16291717, -19218.21, 130502.4, 0.00022272031, 10.00216, 9.997225 
1.5151724e+3, 2.9471925e+2, 56469.945, -286890.22, -21253.473, 0.07009202, -0.13668449, 57780.5, 109522.9, 0.0007570033, 10.001954, 9.997355 
1.5151833e+3, 3.0471733e+2, 120415.56, -176271.44, -29877.883, 0.13151684, -0.07044423, 123394.5, 123394.5, 0.001811775, 10.001825, 9.997874 
1.515194e+3, 3.1471366e+2, 170503.64, 64001.543, 14079.332, 0.16627805, -0.29893887, 172333.45, 172333.45, 0.0032877466, 10.001178, 9.999837 
1.5249965e+3, 1.2472435e+2, -1732308.0, -1943124.8, -76843.22, 0.16247274, -0.15677553, -1707271.8, 10415.834, 0.017244658, 10.000761, 9.998031 
1.5250057e+3, 1.3472573e+2, -1677238.8, -1644058.0, 7445.231, 0.051579297, -0.06999552, -1642464.0, -22785.791, 0.010359608, 9.999578, 9.999979 
1.5250169e+3, 1.4472517e+2, -1687838.9, -1629004.0, 38251.742, 0.095949665, -0.09399143, -1610166.0, -88480.73, 0.0045741852, 9.998925, 9.9997225 
1.5250279e+3, 1.5472558e+2, -1413176.3, -1407258.0, 20751.158, 0.14887989, -0.09912315, -1389256.0, 34424.336, 0.0012060112, 9.999977, 10.000063 
1.5250373e+3, 1.6472544e+2, -1323118.8, -1391384.5, -735.11053, 0.10208808, -0.075220026, -1323110.9, 2570.854, 0.000118081814, 10.000274, 9.999359 
1.5250456e+3, 1.747246e+2, -1210140.6, -1264325.4, -9520.767, 0.0137087125, -0.14679886, -1208516.5, 19174.266, 0.0000008766353, 10.000297, 9.99954 
1.5250555e+3, 1.847247e+2, -1097998.1, -1114604.5, 71700.63, -0.0018976058, -0.10163164, -1034121.5, 95567.87, 0.0, 10.000163, 9.999979 
1.5250671e+3, 1.9472563e+2, -996242.0, -994064.56, 24209.738, 0.022897128, -0.054169685, -970919.06, 60759.25, 0.0, 10.000109, 10.000153 
1.5250781e+3, 2.0472533e+2, -968730.7, -1137722.5, -32805.02, 0.070012696, -0.00056928553, -962585.94, -28905.041, 0.0, 10.000499, 9.998309 
1.5250885e+3, 2.1472348e+2, -726966.5, -953355.94, -54056.418, 0.1392838, -0.06546172, -714721.4, 120978.64, 0.0, 10.001421, 9.998452 
1.5250987e+3, 2.247219e+2, -616819.06, -864984.56, 10716.054, 0.12073166, -0.053701006, -616357.2, 121358.42, 0.0, 10.001571, 9.998323 
1.5251084e+3, 2.3472038e+2, -609195.75, -791410.06, -11398.452, -0.0036336912, -0.08435138, -608485.5, 31243.674, 0.0, 10.0008745, 9.998484 
1.5251197e+3, 2.4471898e+2, -544157.0, -745126.6, 27710.773, 0.015819771, -0.047138155, -540406.1, 1336.7075, 0.0, 10.000824, 9.998139 
1.5251327e+3, 2.5471753e+2, -322229.03, -565707.25, 53797.68, 0.19640154, -0.05716664, -310871.94, 132886.03, 0.0000003530132, 10.001584, 9.998326 
1.5251443e+3, 2.6471567e+2, -192159.94, -471848.63, 80229.73, 0.24500088, -0.0606457, -170780.06, 174995.56, 0.000008619123, 10.001855, 9.998187 
1.5251543e+3, 2.7471316e+2, -130182.16, -362986.1, 32166.361, 0.13647698, -0.1824312, -125819.51, 121978.01, 0.000051931653, 10.001516, 9.998409 
1.5251642e+3, 2.847109e+2, -105092.13, -445027.22, 14328.454, 0.08207604, -0.17712243, -104489.25, 45330.547, 0.00023518385, 10.001608, 9.997151 
1.5251748e+3, 2.947087e+2, 75711.945, -295447.1, 11672.095, 0.1059068, -0.17080049, 76078.65, 127923.086, 0.000791527, 10.00212, 9.997257 
1.525186e+3, 3.0470723e+2, 240947.81, -119484.57, 32375.662, 0.18948294, -0.06143929, 243832.86, 243832.86, 0.0018473114, 10.002642, 9.997886 
1.5251972e+3, 3.147036e+2, 404293.72, 128572.62, -69775.9, 0.2816763, -0.27793914, 420945.97, 420945.97, 0.0032831845, 10.002965, 9.999436 
1.5349966e+3, 1.2471442e+2, -1701225.6, -1909751.3, -117762.43, 0.00793584, 0.039720055, -1648202.9, 69590.32, 0.018294634, 10.000889, 9.998201 
1.5350054e+3, 1.3471392e+2, -1572578.4, -1430167.1, -33810.49, 0.02192398, -0.20593747, -1422547.8, 197247.45, 0.011016667, 9.999592, 10.001454 
1.5350157e+3, 1.4471486e+2, -1662984.1, -1619634.1, 44486.41, 0.035720933, -0.1495449, -1591823.4, -70038.586, 0.0048880493, 9.999094, 9.999714 
1.535027e+3, 1.5471594e+2, -1419100.6, -1402786.6, 72104.78, 0.034238435, -0.09059556, -1338378.9, 85396.516, 0.0013030368, 9.999914, 10.000126 
1.5350373e+3, 1.6471617e+2, -1293299.5, -1349219.9, -23497.814, 0.041006908, -0.044783548, -1284736.9, 41036.207, 0.00013086536, 10.000343, 9.99962 
1.5350462e+3, 1.7471567e+2, -1197812.3, -1229333.3, 3834.8135, 0.01393604, -0.10864767, -1197352.4, 30424.393, 0.0000010420176, 10.000257, 9.9998 
1.5350561e+3, 1.8471488e+2, -1153731.8, -1234515.3, 46038.95, -0.008924705, -0.123040006, -1132877.5, -3094.5352, 0.0, 10.000173, 9.999154 
1.5350674e+3, 1.9471346e+2, -1063421.9, -1116215.1, 35207.645, 0.0025147207, -0.23527876, -1045814.44, -14019.225, 0.0, 10.000026, 9.999356 
1.5350789e+3, 2.0471257e+2, -1000394.4, -1159139.3, -16812.836, 0.062021796, -0.19687545, -998633.25, -64829.227, 0.0, 10.00031, 9.998249 
1.5350905e+3, 2.1471216e+2, -771164.25, -983520.75, -3284.991, 0.16963899, -0.112850666, -771113.44, 64696.934, 0.0, 10.001161, 9.998366 
1.5351006e+3, 2.247107e+2, -671758.5, -912421.56, -31188.05, 0.13541445, -0.07168046, -667782.44, 70042.625, 0.0, 10.001281, 9.9981365 
1.5351093e+3, 2.3470789e+2, -654166.2, -830165.75, -17624.408, -0.040249154, -0.22061174, -652418.6, -12567.341, 0.0, 10.000632, 9.998337 
1.5351202e+3, 2.4470635e+2, -507805.97, -596669.56, 39098.633, -0.0570529, -0.24604341, -493052.56, 48811.316, 0.0, 10.000523, 9.999297 
1.5351339e+3, 2.5470614e+2, -280456.56, -417231.44, 101751.195, 0.13035275, -0.2523454, -226246.5, 217615.7, 0.0000004707298, 10.001332, 9.999463 
1.535146e+3, 2.6470548e+2, -273675.3, -583169.44, 47201.4, 0.1768509, -0.16211501, -266636.63, 79231.85, 0.0000086272985, 10.001605, 9.997541 
1.5351553e+3, 2.74704e+2, -209171.84, -480489.38, 34177.684, 0.067850195, -0.1118022, -204932.73, 42953.57, 0.000052741245, 10.001315, 9.997699 
1.5351656e+3, 2.8470203e+2, -109717.62, -401265.1, 14612.869, 0.018993363, -0.06455932, -108987.02, 40920.71, 0.00024875673, 10.001371, 9.997571 
1.5351765e+3, 2.946995e+2, 67341.01, -249206.0, 59139.945, 0.041021388, -0.1415147, 78029.14, 129961.54, 0.00082812813, 10.001848, 9.997704 
1.535188e+3, 3.0469796e+2, 127580.75, -285481.0, 27925.24, 0.09570367, -0.00654674, 129460.1, 129460.1, 0.001892961, 10.00235, 9.9968815 
1.5351985e+3, 3.1469437e+2, 199818.83, -158764.88, 4991.279, 0.061896328, -0.1289212, 199888.3, 199888.3, 0.0033092082, 10.002398, 9.997719 
1.5449971e+3, 1.2470478e+2, -2027148.0, -1986380.6, 68291.94, 0.11584208, 0.070928365, -1935495.3, -217604.44, 0.019406972, 9.998297, 9.998919 
1.5450057e+3, 1.3470393e+2, -1409596.0, -1320069.6, 7518.9927, 0.054912888, -0.24833849, -1319442.5, 300451.44, 0.0117135905, 10.00054, 10.001773 
1.545016e+3, 1.447062e+2, -1508366.6, -1568029.8, 72441.42, 0.09995051, -0.06356568, -1459854.9, 62014.973, 0.0052204016, 10.000277, 9.999497 
1.5450272e+3, 1.5470624e+2, -1506177.8, -1464300.3, 53110.89, 0.10039643, -0.0901805, -1428149.6, -4278.086, 0.0014059248, 9.999391, 9.999966 
1.5450378e+3, 1.6470616e+2, -1444162.5, -1417289.6, -261.18948, 0.110943854, -0.06996279, -1417287.1, -91414.63, 0.00014487762, 9.999301, 9.999645 
1.5450466e+3, 1.747062e+2, -1188050.6, -1224857.4, -28618.803, 0.042811524, -0.08421241, -1172428.8, 55441.473, 0.000001197513, 10.000311, 9.999805 
1.5450567e+3, 1.8470532e+2, -1087034.8, -1238271.1, 46659.66, 0.01111676, -0.09178766, -1073797.9, 56079.523, 0.0, 10.000812, 9.998807 
1.5450682e+3, 1.9470325e+2, -933719.5, -1087916.1, 36361.88, 0.0371669, -0.23329487, -925575.0, 106321.47, 0.0, 10.001091, 9.999027 
1.54508e+3, 2.0470203e+2, -843129.2, -1068055.8, 57510.02, 0.09976249, -0.21643044, -829277.8, 104630.29, 0.0, 10.001341, 9.998377 
1.5450919e+3, 2.1470168e+2, -692864.6, -931187.06, 47828.117, 0.18516636, -0.13717523, -683624.44, 152288.08, 0.0, 10.001643, 9.998497 
1.5451023e+3, 2.2470029e+2, -622135.8, -883140.5, 31368.02, 0.1694237, -0.09736283, -618418.9, 119507.2, 0.0, 10.001627, 9.998154 
1.5451108e+3, 2.3469761e+2, -543007.7, -768209.5, 12466.094, 0.033850044, -0.2335842, -542319.75, 97631.5, 0.0, 10.001398, 9.998374 
1.5451217e+3, 2.4469604e+2, -398350.3, -564575.25, 93590.664, 0.017885718, -0.2580084, -356295.3, 185669.08, 0.000000000009610117, 10.001331, 9.99915 
1.5451354e+3, 2.5469553e+2, -274755.03, -432739.0, 32619.46, 0.14490508, -0.27403986, -268284.97, 175680.1, 0.0000005675007, 10.00142, 9.999338 
1.5451472e+3, 2.6469487e+2, -253243.14, -571192.94, -20575.725, 0.16381977, -0.17811047, -251917.14, 94054.484, 0.000008574752, 10.00176, 9.997549 
1.545157e+3, 2.7469355e+2, -46857.387, -412036.75, -21331.762, 0.046030506, -0.10618586, -45615.523, 202373.25, 0.00005426492, 10.00246, 9.997633 
1.5451677e+3, 2.846916e+2, 99779.78, -280220.72, 5801.8657, 0.032884035, -0.060445726, 99868.34, 249878.03, 0.00026286932, 10.002756, 9.997703 
1.5451795e+3, 2.9468903e+2, 187998.03, -175865.73, -23404.162, 0.117127016, -0.15238032, 189497.25, 241530.83, 0.0008685198, 10.002637, 9.997802 
1.5451911e+3, 3.0468744e+2, 193003.78, -213122.95, 18999.383, 0.1813023, -0.048942775, 193890.67, 193890.67, 0.001959959, 10.00261, 9.997261 
1.5452014e+3, 3.14685e+2, 195508.22, -189092.7, 13636.329, 0.124734215, -0.082602814, 195991.11, 195991.11, 0.0033945085, 10.002463, 9.997489 
1.5549956e+3, 1.24695234e+2, -1882259.9, -1721099.6, 8978.552, 0.04398284, -0.07056516, -1720601.0, -2618.6062, 0.020587768, 9.998462, 10.000657 
1.5550058e+3, 1.3469596e+2, -1470340.9, -1425619.4, 63315.668, -0.03388829, -0.16183859, -1380832.0, 239140.75, 0.012455585, 10.000469, 10.001078 
1.555017e+3, 1.4469922e+2, -1516565.0, -1608111.9, 6506.2017, 0.114966735, 0.1692371, -1516104.9, 5835.5674, 0.0055746003, 10.0003605, 9.999187 
1.5550278e+3, 1.5469666e+2, -1532785.1, -1517126.3, 38039.223, 0.19427101, -0.08508268, -1486119.1, -62151.832, 0.001515748, 9.999389, 9.999601 
1.555038e+3, 1.6469565e+2, -1440089.6, -1433101.1, 16922.514, 0.1451951, -0.1287341, -1419315.9, -93338.375, 0.00016035176, 9.999396, 9.999496 
1.5550466e+3, 1.7469627e+2, -1206898.3, -1250899.1, 21039.271, -0.03135243, -0.065108314, -1198457.4, 29512.715, 0.0000013687348, 10.0002575, 9.999654 
1.5550569e+3, 1.8469614e+2, -1085989.1, -1222909.0, 36734.25, -0.089576215, 0.001587363, -1076756.4, 53214.47, 0.0, 10.000759, 9.998937 
1.555069e+3, 1.9469501e+2, -953807.0, -1087591.4, 62932.875, -0.015593084, -0.054806396, -928856.3, 103125.64, 0.0, 10.000923, 9.999105 
1.5550809e+3, 2.0469368e+2, -845567.2, -1043172.7, 49648.406, 0.029257968, -0.063400105, -833794.44, 100199.086, 0.0, 10.001193, 9.99863 
1.5550925e+3, 2.1469206e+2, -703005.4, -905317.25, 76398.43, 0.05786856, -0.13759325, -677396.8, 158609.66, 0.0, 10.001426, 9.99879 
1.5551032e+3, 2.2469069e+2, -655236.25, -888348.7, 5284.841, 0.06620573, -0.11733068, -655116.5, 82901.7, 0.0, 10.001352, 9.99825 
1.5551129e+3, 2.3468933e+2, -572868.7, -783686.4, 19871.14, 0.07145795, -0.12779927, -571012.0, 69019.25, 0.0, 10.001188, 9.998375 
1.5551239e+3, 2.4468775e+2, -525364.0, -768621.8, 82144.15, 0.06985437, -0.09038317, -500223.53, 41823.254, 0.0, 10.001073, 9.997874 
1.5551364e+3, 2.5468573e+2, -397451.94, -636127.8, 54898.85, 0.09030295, -0.13104682, -385429.97, 58636.48, 0.0000005355393, 10.001197, 9.99805 
1.5551482e+3, 2.646838e+2, -256252.64, -516605.53, -7397.367, 0.04853116, -0.11830166, -256042.64, 90042.53, 0.000008556659, 10.001502, 9.998043 
1.5551585e+3, 2.7468184e+2, -49603.023, -353390.56, 30307.047, -0.06205059, -0.17359823, -46608.984, 201495.27, 0.000056489618, 10.002189, 9.998159 
1.5551701e+3, 2.8467968e+2, 32645.535, -349352.78, -12696.275, -0.034167074, -0.15490176, 33067.05, 183191.95, 0.00027893353, 10.002458, 9.997369 
1.555183e+3, 2.946773e+2, 122318.305, -235863.23, -3257.206, 0.15650798, -0.20214285, 122347.92, 174496.17, 0.0009153457, 10.002321, 9.997535 
1.5551949e+3, 3.046756e+2, 248246.98, -21428.05, -2676.9692, 0.26498318, -0.1689496, 248273.56, 248273.56, 0.0020538478, 10.0023, 9.998718 
1.5552048e+3, 3.1467512e+2, 185195.48, -62781.984, 50628.293, 0.15853414, -0.16368619, 195133.72, 195133.72, 0.003548839, 10.001876, 9.99862 
1.5649953e+3, 1.2468653e+2, -1720315.8, -1618052.6, 33386.92, 0.1474244, -0.11019648, -1608117.6, 109947.01, 0.021849003, 9.999461, 10.000912 
1.565006e+3, 1.3468747e+2, -1729890.5, -1624473.8, 36349.184, 0.031629223, -0.101986185, -1613155.4, 6900.0967, 0.013250772, 9.998998, 10.000417 
1.5650164e+3, 1.4468983e+2, -1674704.0, -1684405.9, 25546.54, 0.09142682, 0.16815303, -1653552.0, -131519.42, 0.0059556314, 9.999281, 9.999178 
1.5650281e+3, 1.5468723e+2, -1387710.4, -1459831.3, 34359.51, 0.2321686, -0.082257666, -1373961.9, 50096.98, 0.0016345053, 10.000439, 9.999481 
1.5650383e+3, 1.6468604e+2, -1284579.0, -1396527.1, 59330.4, 0.18268648, -0.12566093, -1258985.9, 67084.805, 0.00017771397, 10.000615, 9.999173 
1.565047e+3, 1.7468622e+2, -1225056.1, -1296425.4, 25068.277, -0.004660622, -0.073152095, -1217130.9, 10937.32, 0.0000016137079, 10.000263, 9.999352 
1.5650578e+3, 1.8468598e+2, -1182351.1, -1297997.0, 59821.992, -0.03766115, 0.0097426195, -1156974.5, -26903.473, 0.0, 10.000212, 9.998687 
1.5650705e+3, 1.9468512e+2, -999893.75, -1142596.9, 26609.758, 0.05711992, 0.0038226407, -995093.3, 36987.957, 0.0, 10.000719, 9.998836 
1.5650824e+3, 2.0468387e+2, -875540.5, -1013248.56, 30068.49, 0.08519473, 0.00051514927, -869261.4, 64830.633, 0.0, 10.000853, 9.998971 
1.5650935e+3, 2.1468219e+2, -745450.6, -873515.25, 22956.506, 0.041601658, -0.11782066, -741459.9, 94643.51, 0.0, 10.000969, 9.999198 
1.5651044e+3, 2.2468083e+2, -658356.4, -899261.25, -13024.241, 0.064333186, -0.11331712, -657654.25, 80459.68, 0.0, 10.001339, 9.9982 
1.5651153e+3, 2.3467971e+2, -460605.47, -727263.06, -31034.244, 0.1641017, -0.09814047, -457041.28, 183083.89, 0.0, 10.00194, 9.9984 
1.5651263e+3, 2.4467805e+2, -397069.0, -744461.75, 81773.664, 0.16642681, -0.053009342, -378782.66, 163359.03, 0.0, 10.002103, 9.997547 
1.5651375e+3, 2.546756e+2, -340119.0, -642627.3, 90205.97, 0.059043974, -0.10431721, -315262.6, 128903.67, 0.00000039469393, 10.001739, 9.997736 
1.5651491e+3, 2.646733e+2, -241291.69, -518775.22, 91821.375, 0.008846908, -0.112614594, -213659.05, 132529.88, 0.000008163994, 10.001636, 9.997968 
1.5651612e+3, 2.7467093e+2, -117966.56, -393724.78, 44430.813, 0.014221065, -0.19520375, -110984.55, 137226.58, 0.000058543963, 10.001744, 9.998097 
1.5651733e+3, 2.846688e+2, -58008.52, -372508.28, 18660.047, 0.076094076, -0.18012244, -56905.246, 93325.95, 0.00029613846, 10.00174, 9.997578 
1.5651853e+3, 2.9466677e+2, 49392.273, -246859.23, 19384.338, 0.2072733, -0.2021308, 50655.246, 102905.42, 0.00096601876, 10.0017, 9.997778 
1.5651973e+3, 3.0466452e+2, 248574.7, 1099.8722, 56887.855, 0.29611662, -0.25051442, 261025.3, 261025.3, 0.002166349, 10.002187, 9.998928 
1.5652081e+3, 3.146648e+2, 375955.94, 42387.918, -60108.383, 0.2564367, -0.17690699, 386456.8, 386456.8, 0.0037553748, 10.003067, 9.998791 
1.5749943e+3, 1.2467742e+2, -1787625.1, -1784751.0, -1351.2197, 0.0122684445, -0.15649685, -1784215.5, -66065.7, 0.023204513, 9.999565, 9.99971 
1.5750058e+3, 1.3467877e+2, -1765137.4, -1699625.0, 36333.73, 0.08069669, -0.03303244, -1683461.8, -63323.18, 0.014108494, 9.999011, 9.999887 
1.5750138e+3, 1.4467837e+2, -1625699.3, -1621522.9, 46176.793, -0.13667773, -0.044526607, -1577387.1, -55243.813, 0.0063687824, 9.99944, 9.999537 
1.5750274e+3, 1.5467796e+2, -1391495.6, -1457068.3, 85907.44, 0.090205744, -0.077404745, -1332330.6, 91815.77, 0.00176415, 10.0004015, 9.999518 
1.5750381e+3, 1.6467726e+2, -1301368.0, -1446451.8, 22933.145, 0.06612074, -0.053959224, -1297829.4, 28323.357, 0.00019721544, 10.00067, 9.998805 
1.5750475e+3, 1.7467609e+2, -1254518.4, -1351737.9, 27915.672, -0.02212827, -0.104178056, -1247072.9, -18908.988, 0.0000019795527, 10.000238, 9.998982 
1.5750588e+3, 1.8467502e+2, -1216401.1, -1375655.9, 59272.67, 0.0066125034, -0.05992448, -1196762.4, -66586.15, 0.0, 10.00023, 9.998149 
1.575072e+3, 1.946739e+2, -1061978.0, -1237170.0, 59010.332, 0.11348339, -0.034540005, -1043955.44, -11763.866, 0.0, 10.000572, 9.998257 
1.5750837e+3, 2.0467287e+2, -877713.56, -981788.94, 14226.789, 0.10129915, -0.00198638, -875803.8, 58397.35, 0.0, 10.000684, 9.999272 
1.5750942e+3, 2.1467184e+2, -759464.1, -850568.25, 40168.42, -0.008668931, -0.08520182, -744283.25, 91922.28, 0.0, 10.00074, 9.999471 
1.5751055e+3, 2.2467053e+2, -691978.44, -911570.44, -5321.5684, 0.0068072877, -0.09283402, -691849.5, 46365.758, 0.0, 10.001092, 9.998232 
1.5751177e+3, 2.3466873e+2, -500045.7, -747375.0, 6092.9697, 0.17313865, -0.14473763, -499895.66, 140337.17, 0.0, 10.001674, 9.99839 
1.5751286e+3, 2.44667e+2, -404640.28, -688409.75, 51695.063, 0.15325244, -0.13505057, -395516.22, 146732.72, 0.0, 10.001793, 9.998078 
1.5751381e+3, 2.5466508e+2, -338171.94, -585196.44, 92015.32, -0.07359484, -0.18855403, -307664.4, 136600.72, 0.00000029448665, 10.001506, 9.9982395 
1.5751502e+3, 2.646632e+2, -326499.8, -639793.4, 77046.1, -0.09330726, -0.14777705, -308577.66, 37706.39, 0.000007127328, 10.001394, 9.997256 
1.5751643e+3, 2.746608e+2, -197712.45, -509115.25, 68947.9, 0.11722796, -0.16264844, -183129.56, 65180.457, 0.000059012113, 10.001533, 9.997408 
1.5751764e+3, 2.8465882e+2, -46634.156, -304224.84, -983.7665, 0.18705055, -0.12770243, -46630.402, 103699.234, 0.00030982727, 10.001539, 9.998145 
1.5751863e+3, 2.9465747e+2, 45122.426, -184134.63, 46144.99, 0.1089257, -0.147304, 54061.934, 106401.625, 0.0010139579, 10.001393, 9.998356 
1.5751979e+3, 3.0465415e+2, 129878.67, -161972.36, 75564.875, 0.103313036, -0.2802252, 148283.03, 148283.03, 0.002282176, 10.001851, 9.997951 
1.5752104e+3, 3.146541e+2, 236917.58, -89762.9, 30126.799, 0.11019981, -0.15375668, 239672.66, 239672.66, 0.0039773253, 10.002435, 9.998158 
1.584993e+3, 1.24666855e+2, -1882635.3, -1889164.1, -34981.02, -0.03477312, -0.1400953, -1850766.8, -132514.1, 0.024665277, 9.999171, 9.999164 
1.585005e+3, 1.3466789e+2, -1642541.9, -1619568.3, -49430.438, 0.074140586, -0.06418452, -1580307.5, 39936.508, 0.0150364665, 9.999752, 10.000076 
1.585014e+3, 1.4466658e+2, -1501706.9, -1552698.9, 15847.451, -0.096093036, -0.1855654, -1497183.1, 25073.99, 0.0068181083, 10.000243, 9.999626 
1.5850279e+3, 1.54667e+2, -1406531.9, -1469910.8, 5503.6333, 0.10073308, -0.13019656, -1406057.5, 18194.215, 0.0019058621, 10.000296, 9.99949 
1.5850388e+3, 1.6466667e+2, -1348346.0, -1476030.0, -28533.754, 0.08137102, -0.06394841, -1342259.6, -16005.043, 0.0002187055, 10.000401, 9.998723 
1.5850487e+3, 1.7466532e+2, -1140452.9, -1299532.4, -42755.387, 0.048125606, -0.12698069, -1129689.8, 98578.414, 0.000002466339, 10.0010605, 9.998937 
1.5850604e+3, 1.8466404e+2, -1090042.9, -1307592.3, 47785.344, 0.09658137, -0.10280749, -1080009.4, 50272.625, 0.0, 10.001077, 9.998204 
1.5850727e+3, 1.9466268e+2, -1033895.9, -1214591.6, 61233.34, 0.13550845, -0.1053974, -1015100.44, 17197.656, 0.0, 10.000727, 9.998333 
1.5850845e+3, 2.0466161e+2, -914223.56, -1026842.2, 63528.73, 0.12278034, -0.071694545, -885640.94, 48667.31, 0.0, 10.000517, 9.99906 
1.5850957e+3, 2.1466073e+2, -787099.2, -890124.4, 23952.234, 0.08468953, -0.11935878, -781802.8, 54510.277, 0.0, 10.000614, 9.999275 
1.5851074e+3, 2.2465946e+2, -733359.1, -918829.9, 9768.002, 0.12056336, -0.119188234, -732846.1, 5477.534, 0.0, 10.000789, 9.998325 
1.5851195e+3, 2.3465757e+2, -544985.1, -764365.06, -9025.251, 0.22284803, -0.18142354, -544614.44, 95727.516, 0.0, 10.001341, 9.99845 
1.5851305e+3, 2.4465586e+2, -384722.06, -658033.44, 40123.85, 0.17957881, -0.17661797, -378953.4, 163404.3, 0.0, 10.001857, 9.998248 
1.5851404e+3, 2.5465435e+2, -196511.66, -502645.47, 12914.58, -0.04379411, -0.20614907, -195967.81, 248402.81, 0.00000023115544, 10.0024185, 9.998374 
1.5851521e+3, 2.6465258e+2, -148067.81, -537275.4, 43014.27, -0.06554967, -0.15725094, -143370.66, 203016.95, 0.0000061293663, 10.002561, 9.997388 
1.5851665e+3, 2.746503e+2, -57997.125, -422386.4, 54549.844, 0.13447759, -0.17823088, -50006.137, 198406.38, 0.000060026516, 10.002428, 9.997558 
1.5851785e+3, 2.8464866e+2, 65154.3, -250760.52, 22868.504, 0.2177536, -0.11754563, 66801.125, 217230.17, 0.0003212461, 10.002317, 9.998123 
1.5851887e+3, 2.9464775e+2, 161067.1, -131045.96, -23266.59, 0.1686036, -0.08603043, 162908.66, 215344.27, 0.0010570007, 10.00219, 9.998329 
1.5852e+3, 3.0464408e+2, 159458.6, -188512.06, 69106.66, 0.1249746, -0.24093764, 172680.7, 172680.7, 0.0023874303, 10.002191, 9.997633 
1.5852125e+3, 3.1464332e+2, 204372.11, -76604.01, -10371.147, 0.12138169, -0.14006224, 204754.4, 204754.4, 0.0041719265, 10.002052, 9.998457 
1.5949939e+3, 1.246558e+2, -1858705.9, -1897910.8, 36835.89, 0.04628094, -0.007978828, -1836581.4, -118217.914, 0.026239868, 9.999383, 9.999019 
1.5950035e+3, 1.34655e+2, -1593030.0, -1519959.8, 6108.0376, -0.093926996, -0.19886315, -1519452.8, 100917.055, 0.016040104, 9.999767, 10.000757 
1.5950161e+3, 1.4465432e+2, -1492184.3, -1577196.5, -1094.5345, 0.022323241, -0.27388057, -1492170.1, 30205.402, 0.0073062, 10.000416, 9.999383 
1.5950286e+3, 1.5465468e+2, -1403954.4, -1476694.0, 19635.984, 0.112660736, -0.22042689, -1398992.1, 25379.705, 0.002060233, 10.0003395, 9.999427 
1.5950394e+3, 1.6465472e+2, -1324379.1, -1450215.6, -28684.402, 0.06993968, -0.12013622, -1318149.0, 8222.821, 0.00024185247, 10.000495, 9.9988575 
1.5950504e+3, 1.7465405e+2, -1140747.3, -1291164.8, -4364.6855, 0.08472059, -0.124268495, -1140620.8, 87758.64, 0.0000030340082, 10.0010195, 9.999015 
1.5950617e+3, 1.8465301e+2, -1043294.8, -1210386.3, 16859.871, 0.074124716, -0.114131235, -1041610.56, 88778.15, 0.0, 10.001071, 9.998875 
1.5950723e+3, 1.9465147e+2, -1007631.44, -1125307.0, 63707.855, -0.012811419, -0.20449771, -979748.0, 52653.195, 0.0, 10.0005865, 9.99901 
1.595084e+3, 2.0465025e+2, -979484.1, -1125918.4, 49932.684, 0.0017743973, -0.19027159, -964078.4, -29666.322, 0.0, 10.0003605, 9.998451 
1.5950975e+3, 2.1464919e+2, -874442.2, -1004119.5, 42151.016, 0.18010734, -0.19503742, -861945.5, -25522.113, 0.0, 10.000335, 9.998623 
1.5951097e+3, 2.2464792e+2, -766857.8, -931985.1, 13432.717, 0.245627, -0.16164695, -765772.2, -27336.064, 0.0, 10.000532, 9.99836 
1.5951206e+3, 2.346463e+2, -579755.94, -778965.9, 33447.855, 0.1784968, -0.20850809, -574289.94, 66161.914, 0.0, 10.001087, 9.998473 
1.5951319e+3, 2.4464485e+2, -447931.0, -722430.06, 49570.72, 0.08909604, -0.16545343, -439253.53, 103213.086, 0.0, 10.001574, 9.997936 
1.5951434e+3, 2.5464335e+2, -261018.42, -562557.25, 52660.008, -0.0012077059, -0.16339342, -252086.58, 192395.92, 0.00000009760233, 10.002119, 9.998094 
1.5951553e+3, 2.646416e+2, -131630.83, -443941.97, 24386.764, -0.05500895, -0.13915658, -129738.055, 216761.23, 0.0000054247644, 10.0022955, 9.998158 
1.595167e+3, 2.746395e+2, -43160.176, -329372.22, 72564.65, -0.068458796, -0.22800946, -25813.832, 222704.19, 0.0000627863, 10.002151, 9.998331 
1.5951791e+3, 2.846382e+2, -28318.088, -364812.16, -28.967377, 0.012579041, -0.14113528, -28318.086, 122212.7, 0.0003316825, 10.001983, 9.9974985 
1.5951915e+3, 2.9463732e+2, 70744.4, -244511.72, 1185.7831, 0.20316291, -0.042003784, 70748.85, 123290.07, 0.0010854213, 10.001881, 9.997699 
1.5952028e+3, 3.04634e+2, 119976.51, -187996.9, 47566.227, 0.16850793, -0.13327895, 127155.72, 127155.72, 0.0024525027, 10.001861, 9.9977865 
1.5952137e+3, 3.1463277e+2, 186120.16, 29690.559, 38773.484, -0.015914356, -0.10678221, 195203.34, 195203.34, 0.0042836345, 10.001472, 9.999457 
1.6049948e+3, 1.2464461e+2, -1858211.9, -1846602.0, 144276.95, 0.22699662, -0.013581358, -1708013.3, 10459.447, 0.027939666, 9.999205, 9.999465 
1.6050029e+3, 1.3464372e+2, -1671804.9, -1552136.5, 35141.9, -0.082016975, -0.21291798, -1542579.9, 77900.16, 0.01712635, 9.999231, 10.000791 
1.6050167e+3, 1.4464378e+2, -1668558.1, -1649104.5, 63896.78, 0.115842745, -0.21261735, -1594198.5, -71719.88, 0.007836914, 9.999185, 9.999464 
1.6050291e+3, 1.5464407e+2, -1394806.9, -1445191.8, 57654.97, 0.13695925, -0.18931215, -1357080.8, 67394.805, 0.0022287087, 10.00031, 9.999642 
1.6050404e+3, 1.6464399e+2, -1323145.0, -1453073.8, 35089.785, 0.1245686, -0.11244296, -1314274.0, 12202.807, 0.00026665046, 10.000533, 9.998807 
1.6050516e+3, 1.7464316e+2, -1252450.5, -1348849.8, 12197.2, 0.14934485, -0.124336325, -1250931.1, -22445.238, 0.0000036433328, 10.000278, 9.998967 
1.6050628e+3, 1.8464212e+2, -1138611.8, -1244121.1, 39907.625, 0.13567449, -0.11755464, -1125217.5, 5277.332, 0.0, 10.000355, 9.998989 
1.6050735e+3, 1.9464058e+2, -913100.8, -1063993.3, 11850.683, 0.030847508, -0.22423874, -912175.75, 120330.25, 0.0, 10.0011425, 9.999168 
1.6050854e+3, 2.0463938e+2, -853612.06, -1077749.0, 14057.009, 0.06403942, -0.21120238, -852733.9, 81783.01, 0.0, 10.001297, 9.99833 
1.6050988e+3, 2.1463847e+2, -791812.4, -972621.5, 6946.315, 0.2603496, -0.18409528, -791545.9, 44982.336, 0.0, 10.00096, 9.998529 
1.605111e+3, 2.2463727e+2, -673497.4, -879066.8, 65651.766, 0.30666283, -0.14265622, -654319.56, 84221.62, 0.0, 10.001131, 9.99843 
1.605122e+3, 2.3463568e+2, -437228.4, -687549.3, 54906.383, 0.16903049, -0.19978175, -425714.6, 214841.73, 0.0, 10.001983, 9.998646 
1.6051336e+3, 2.4463443e+2, -362614.03, -684726.7, 90440.93, 0.085153714, -0.1448412, -338957.88, 203611.89, 0.0, 10.00218, 9.99791 
1.6051461e+3, 2.5463328e+2, -321940.44, -596217.6, 79548.414, 0.08004943, -0.096609004, -300539.0, 144044.94, 0.000000007673713, 10.001712, 9.998065 
1.605158e+3, 2.6463166e+2, -216758.05, -427976.3, 81577.766, 0.044081055, -0.08579007, -188919.73, 157679.52, 0.0000049768487, 10.001457, 9.998681 
1.6051689e+3, 2.746295e+2, -116774.87, -310090.3, 59038.387, -0.03638307, -0.22246704, -100170.74, 148444.44, 0.00006482946, 10.001394, 9.99885 
1.6051811e+3, 2.8462797e+2, -50015.637, -403358.1, 60098.06, 0.02321761, -0.1750914, -40073.63, 110555.52, 0.00033743004, 10.001903, 9.997296 
1.6051942e+3, 2.946267e+2, 239257.72, -185734.14, 46923.71, 0.23725384, -0.09291949, 244376.94, 297021.34, 0.0010902435, 10.003113, 9.997521 
1.6052057e+3, 3.0462378e+2, 304963.03, -150302.84, 93375.87, 0.20923008, -0.11755807, 323370.34, 323370.34, 0.0024557933, 10.003359, 9.99732 
1.6052167e+3, 3.1462157e+2, 311329.78, 72931.87, -49260.863, 0.10130356, -0.13047852, 321107.66, 321107.66, 0.004283157, 10.002372, 9.999334 
1.6149937e+3, 1.2463319e+2, -1745055.5, -1696251.3, -66628.18, 0.09143144, -0.16750897, -1649697.3, 68883.84, 0.02978273, 9.999536, 10.000361 
1.6150029e+3, 1.3463444e+2, -1706168.5, -1635008.6, 27902.775, -0.02565815, -0.08790686, -1625372.4, -4801.1523, 0.018308382, 9.999279, 10.000196 
1.6150151e+3, 1.4463556e+2, -1624757.8, -1585894.6, 82021.15, -0.017556839, 0.034481477, -1521034.8, 1525.9393, 0.008418617, 9.999293, 9.999849 
1.6150287e+3, 1.5463519e+2, -1366691.6, -1390404.0, 117127.58, 0.03088938, -0.043242976, -1260821.6, 163740.88, 0.0024150687, 10.000326, 10.000013 
1.615041e+3, 1.6463432e+2, -1315918.3, -1478164.6, 3491.322, 0.07839724, -0.052911915, -1315843.1, 10727.521, 0.0002938315, 10.000689, 9.998564 
1.6150519e+3, 1.7463267e+2, -1270314.0, -1389436.4, 14346.498, 0.11411076, -0.1235135, -1268610.5, -40022.89, 0.000004294035, 10.000277, 9.998695 
1.6150635e+3, 1.8463132e+2, -1167348.4, -1303560.5, 49505.96, 0.121960685, -0.114732414, -1151256.6, -20655.645, 0.0, 10.000356, 9.998578 
1.6150759e+3, 1.9463001e+2, -958902.9, -1134539.1, 56147.164, 0.12638435, -0.15858921, -942487.94, 90124.38, 0.0, 10.001036, 9.998736 
1.6150878e+3, 2.0462906e+2, -859402.75, -1045719.44, -17866.824, 0.1459473, -0.112570636, -857704.9, 76916.805, 0.0, 10.001107, 9.99864 
1.6150995e+3, 2.1462847e+2, -803715.6, -945619.2, 8481.798, 0.20044582, -0.08785557, -803210.5, 33418.336, 0.0, 10.00074, 9.99882 
1.6151111e+3, 2.246274e+2, -708907.1, -879617.06, 78352.52, 0.1697291, -0.054334685, -678397.56, 60241.97, 0.0, 10.000829, 9.998569 
1.6151229e+3, 2.346256e+2, -471338.3, -688181.6, 105103.99, 0.04726994, -0.14886253, -428756.3, 211900.0, 0.0, 10.001694, 9.998777 
1.615135e+3, 2.4462445e+2, -385345.06, -676069.3, 56164.953, 0.000763652, -0.097913586, -374871.88, 167796.66, 0.0, 10.001923, 9.998097 
1.6151479e+3, 2.5462404e+2, -346900.6, -588856.06, 82973.09, 0.056808382, -0.0068060653, -321180.84, 123495.305, 0.00000000987263, 10.00145, 9.998242 
1.6151601e+3, 2.6462272e+2, -255019.31, -432799.66, 60456.1, 0.071330085, 0.018156404, -236408.77, 110279.17, 0.000004852571, 10.001145, 9.99879 
1.6151716e+3, 2.7462003e+2, -143254.78, -306680.53, 79624.84, 0.054669283, -0.18774042, -110875.1, 137832.17, 0.00006465758, 10.00116, 9.998974 
1.6151837e+3, 2.8461784e+2, -81767.125, -407656.66, 82806.305, 0.064549506, -0.21553318, -61933.664, 88791.945, 0.0003366383, 10.0016365, 9.9973955 
1.6151963e+3, 2.9461613e+2, 201030.8, -191383.17, 116746.586, 0.0966761, -0.2006562, 233137.06, 285880.25, 0.0010768002, 10.00279, 9.997641 
1.615208e+3, 3.0461314e+2, 166481.73, -342268.9, 37000.723, 0.06504982, -0.18048021, 169158.66, 169158.66, 0.0024103601, 10.002973, 9.996166 
1.6152199e+3, 3.146099e+2, 134544.31, -129466.12, -12182.163, 0.12641601, -0.1857486, 135105.23, 135105.23, 0.0041886293, 10.001722, 9.998219 
1.6249926e+3, 1.2462166e+2, -1907965.0, -1730899.1, -140764.17, 0.114285074, -0.18106656, -1653141.3, 65551.82, 0.03179242, 9.998239, 10.000713 
1.6250034e+3, 1.3462281e+2, -1672548.9, -1663731.4, -74248.82, 0.07028664, -0.08336757, -1593760.5, 26924.316, 0.019603958, 9.999679, 9.999799 
1.6250144e+3, 1.4462392e+2, -1591382.1, -1541881.6, 25838.145, -0.012535343, 0.04479352, -1530852.3, -8177.5825, 0.009062119, 9.999427, 10.000074 
1.6250287e+3, 1.546236e+2, -1511414.4, -1423357.6, 26828.703, 0.06477195, -0.058387734, -1415827.5, 8847.675, 0.002624408, 9.9991865, 10.000324 
1.6250415e+3, 1.6462272e+2, -1455593.3, -1526602.1, -34957.547, 0.119377196, -0.09074922, -1441272.0, -114589.52, 0.00032476612, 9.99965, 9.998737 
1.6250522e+3, 1.7462122e+2, -1139651.0, -1299833.1, -28515.496, 0.0953389, -0.16649488, -1134726.1, 93971.375, 0.000005034694, 10.001069, 9.998923 
1.6250642e+3, 1.8462007e+2, -1018263.5, -1244910.0, 56631.96, 0.12344399, -0.1405769, -1004900.75, 125808.375, 0.0, 10.001439, 9.998466 
1.6250777e+3, 1.946192e+2, -980900.9, -1146339.9, 52580.465, 0.21810889, -0.13259551, -965603.94, 67114.266, 0.0, 10.000919, 9.998704 
1.6250898e+3, 2.0461833e+2, -890404.3, -1054903.5, 15084.018, 0.2422623, -0.08116037, -889032.56, 45694.563, 0.0, 10.000853, 9.998706 
1.6251002e+3, 2.146173e+2, -704226.3, -892994.3, -6968.921, 0.18246663, -0.10769514, -703969.4, 132768.53, 0.0, 10.00138, 9.998885 
1.6251118e+3, 2.2461621e+2, -595709.75, -818601.75, 90203.68, 0.13081926, -0.08076695, -563778.9, 174969.66, 0.0, 10.001567, 9.998633 
1.6251247e+3, 2.3461491e+2, -513180.84, -705422.56, 74936.33, 0.07450409, -0.12760009, -487421.97, 153338.86, 0.0, 10.001375, 9.998819 
1.6251373e+3, 2.4461387e+2, -455726.34, -672151.8, 38872.004, 0.06368743, -0.0846067, -448956.34, 93815.18, 0.0, 10.001276, 9.998434 
1.6251494e+3, 2.5461307e+2, -334721.44, -545669.1, 34209.1, 0.0861929, -0.064477555, -329312.5, 115468.71, 0.000000011745934, 10.001362, 9.998584 
1.6251618e+3, 2.6461175e+2, -197725.92, -430960.94, 59511.008, 0.11906558, -0.04274454, -183419.0, 163373.8, 0.0000048598445, 10.001656, 9.998559 
1.6251744e+3, 2.7460957e+2, -4898.734, -271263.94, 11293.825, 0.17954695, -0.16982688, -4420.736, 244388.81, 0.00006306325, 10.002236, 9.998699 
1.625187e+3, 2.8460726e+2, 34374.61, -359677.06, 41434.145, 0.18624102, -0.1868576, 38684.234, 189514.11, 0.00033149842, 10.002492, 9.997299 
1.6251989e+3, 2.9460487e+2, 142423.44, -233036.81, -259.17426, 0.10121656, -0.22709133, 142423.63, 195278.38, 0.0010554205, 10.002456, 9.997507 
1.62521e+3, 3.0460224e+2, 121475.3, -300281.3, -24033.195, 0.029918903, -0.19135705, 122840.375, 122840.375, 0.0023409713, 10.00236, 9.996766 
1.6252224e+3, 3.1459972e+2, 210732.86, -71981.03, -18734.41, 0.20635486, -0.17773789, 211968.9, 211968.9, 0.0040352517, 10.002092, 9.998469 
1.6349898e+3, 1.2460978e+2, -1884365.9, -1708214.1, -6661.8228, -0.07369739, -0.09718298, -1707962.5, 10848.237, 0.03398967, 9.998359, 10.000794 
1.635003e+3, 1.346088e+2, -1686919.5, -1698717.3, -33944.816, 0.03059467, -0.20475602, -1658364.9, -37543.082, 0.02102759, 9.999702, 9.999543 
1.6350143e+3, 1.4460877e+2, -1554110.3, -1513145.5, -20801.717, -0.027082574, -0.1790064, -1504434.8, 18386.758, 0.009775217, 9.999611, 10.000197 
1.6350284e+3, 1.546094e+2, -1491394.9, -1390278.1, 29255.766, 0.082653604, -0.21046396, -1382423.8, 42388.535, 0.002860367, 9.999215, 10.0005455 
1.6350411e+3, 1.6460931e+2, -1399698.6, -1426912.6, -5242.3384, 0.07561474, -0.20722194, -1398723.6, -71912.71, 0.00036087315, 9.999714, 9.999393 
1.6350524e+3, 1.7460872e+2, -1103715.4, -1216990.0, 34344.7, -0.038043674, -0.2516903, -1094115.8, 134700.61, 0.000005927034, 10.001034, 9.999509 
1.6350646e+3, 1.8460836e+2, -995752.8, -1202523.6, 17873.883, -0.012013901, -0.1933504, -994219.1, 136601.06, 0.0, 10.001452, 9.998754 
1.6350785e+3, 1.94608e+2, -977928.5, -1116674.5, 46381.133, 0.17575425, -0.1584321, -963852.0, 68972.88, 0.0, 10.0008135, 9.998963 
1.6350906e+3, 2.0460694e+2, -925375.4, -1086424.6, 16398.2, 0.20837948, -0.13425718, -923722.6, 11113.303, 0.0, 10.000673, 9.99858 
1.6351007e+3, 2.1460481e+2, -744834.7, -930144.75, 31116.36, 0.072548084, -0.25420925, -739749.4, 97107.3, 0.0, 10.001169, 9.998736 
1.6351126e+3, 2.246037e+2, -650738.3, -859031.8, 68970.33, 0.0238071, -0.21692398, -629971.3, 108896.945, 0.0, 10.001254, 9.998502 
1.6351268e+3, 2.3460366e+2, -560256.56, -739048.06, 84451.766, 0.110842004, -0.13076293, -526673.9, 114196.0, 0.0, 10.001105, 9.9987135 
1.6351394e+3, 2.4460268e+2, -476441.06, -639531.1, 23413.219, 0.11912666, -0.09533656, -473146.4, 69732.61, 0.0, 10.000958, 9.998807 
1.6351505e+3, 2.5460044e+2, -339595.44, -497866.56, 56539.32, 0.027175978, -0.25582096, -321472.9, 123425.7, 0.000000006263202, 10.001128, 9.999019 
1.6351628e+3, 2.6459903e+2, -273739.63, -541687.75, 63036.965, 0.036704842, -0.23594634, -259650.48, 87261.234, 0.000005059976, 10.001433, 9.997912 
1.635177e+3, 2.7459833e+2, -84981.04, -385405.63, 60919.293, 0.19126585, -0.15598236, -73098.01, 175821.61, 0.000060994436, 10.001997, 9.998034 
1.63519e+3, 2.8459635e+2, -45852.074, -448887.53, 24165.117, 0.20638086, -0.088295706, -44408.36, 106533.02, 0.0003219481, 10.002179, 9.996828 
1.6352013e+3, 2.9459283e+2, 57434.887, -326728.8, 30275.318, 0.06234148, -0.1891005, 59806.195, 112785.93, 0.0010251604, 10.002123, 9.997014 
1.6352117e+3, 3.04591e+2, 209842.88, -24622.346, -52811.152, -0.08129663, -0.14725906, 221189.05, 221189.05, 0.0022563916, 10.001977, 9.998841 
1.6352238e+3, 3.145908e+2, 240529.34, 131875.66, 47554.45, 0.06750175, -0.13138366, 258402.45, 258402.45, 0.003853191, 10.001502, 10.00015 
1.644988e+3, 1.2459692e+2, -1988259.6, -1713855.0, 60449.188, -0.043461688, -0.08242568, -1701128.8, 17809.38, 0.036383986, 9.997488, 10.00118 
1.6450022e+3, 1.3459586e+2, -1887565.6, -1766025.6, -16850.65, 0.07207993, -0.22367045, -1763732.8, -142784.42, 0.022584815, 9.998208, 9.999808 
1.6450147e+3, 1.4459538e+2, -1649532.5, -1549177.3, 33146.297, 0.11095055, -0.2590762, -1539217.8, -16266.081, 0.010560797, 9.998907, 10.000295 
1.6450281e+3, 1.545967e+2, -1403676.5, -1338598.5, 38779.523, 0.10953978, -0.23238568, -1320515.0, 104421.44, 0.0031241647, 9.999764, 10.000639 
1.645041e+3, 1.6459715e+2, -1350241.8, -1372695.3, 32130.28, 0.07850924, -0.19839561, -1327433.4, -503.10898, 0.0004029895, 9.999933, 9.999659 
1.6450532e+3, 1.7459676e+2, -1280568.9, -1278237.9, 12117.78, 0.025782114, -0.24400543, -1267229.6, -38296.766, 0.0000070009137, 9.999712, 9.999735 
1.645066e+3, 1.845965e+2, -1227889.6, -1281176.6, -8685.923, 0.0665142, -0.19948265, -1226509.5, -95574.26, 0.0, 9.999732, 9.999025 
1.6450791e+3, 1.9459613e+2, -1032943.25, -1112702.5, -18403.27, 0.18538938, -0.19407506, -1028901.8, 4037.8625, 0.0, 10.000318, 9.999215 
1.6450912e+3, 2.0459515e+2, -889237.5, -1069365.0, 13055.501, 0.19993605, -0.17170608, -888296.2, 46653.7, 0.0, 10.000933, 9.99856 
1.6451022e+3, 2.1459337e+2, -669697.3, -888117.56, 1201.9326, 0.07954611, -0.2598586, -669690.7, 167277.16, 0.0, 10.001684, 9.998755 
1.6451144e+3, 2.2459236e+2, -555516.25, -818503.2, 50160.453, 0.05975553, -0.21188226, -546273.75, 192704.97, 0.0, 10.001921, 9.998474 
1.6451284e+3, 2.3459207e+2, -498781.8, -715649.3, 37278.99, 0.16403604, -0.14294621, -492552.56, 148430.47, 0.0, 10.001547, 9.998677 
1.6451411e+3, 2.4459098e+2, -419968.47, -600265.6, 16558.635, 0.18983315, -0.12197458, -418460.34, 124532.56, 0.0, 10.001294, 9.998913 
1.6451523e+3, 2.5458872e+2, -316106.9, -481012.97, -11142.832, 0.091514975, -0.29319215, -315357.4, 129654.25, 0.000000005166704, 10.001259, 9.999076 
1.6451648e+3, 2.6458725e+2, -280371.16, -574759.25, 46890.887, 0.09381417, -0.265368, -273082.7, 73943.336, 0.000005473011, 10.001535, 9.997621 
1.6451792e+3, 2.745866e+2, -56096.63, -397233.44, 19761.256, 0.20486459, -0.15169497, -54955.72, 194081.25, 0.000058881178, 10.002346, 9.997762 
1.6451924e+3, 2.8458485e+2, 55786.242, -365067.78, 34639.445, 0.2199595, -0.061372347, 58618.27, 209676.05, 0.0003079229, 10.002715, 9.997169 
1.6452041e+3, 2.9458177e+2, 109354.45, -263664.97, 51949.793, 0.1325505, -0.1465715, 116454.27, 169545.14, 0.0009851817, 10.002309, 9.997372 
1.6452143e+3, 3.045803e+2, 272777.13, 36413.766, -2091.0889, -0.004765731, -0.102479905, 272795.63, 272795.63, 0.0021654046, 10.002238, 9.99915 
1.6452259e+3, 3.145811e+2, 348300.2, 176719.9, -127946.36, 0.10804691, -0.017374234, 416556.22, 416556.22, 0.003679341, 10.002282, 10.000076 
1.6549876e+3, 1.24583595e+2, -1922372.1, -1635852.5, -109808.89, 0.08612026, -0.083091944, -1598609.1, 120460.9, 0.03897044, 9.9977, 10.001656 
1.6550006e+3, 1.3458444e+2, -1828431.5, -1642415.6, 32032.543, 0.05657211, -0.09702382, -1637054.0, -15994.174, 0.024272982, 9.9982, 10.000666 
1.6550153e+3, 1.4458393e+2, -1626460.1, -1521289.4, 41616.664, 0.2228463, -0.1964734, -1506813.9, 16249.957, 0.0114189135, 9.998996, 10.0004425 
1.6550273e+3, 1.5458561e+2, -1406388.9, -1348922.8, 84238.29, 0.003147623, -0.12299722, -1288652.0, 136394.9, 0.0034161112, 9.999792, 10.000555 
1.6550402e+3, 1.6458628e+2, -1341098.6, -1381835.8, 2240.219, -0.03669529, -0.05526003, -1340975.9, -13936.288, 0.00045137366, 10.000042, 9.999548 
1.6550545e+3, 1.7458542e+2, -1286343.5, -1281544.8, 16761.29, 0.15484248, -0.14665544, -1267011.9, -37965.547, 0.000008273259, 9.999679, 9.999724 
1.6550677e+3, 1.8458454e+2, -1213438.6, -1259296.1, -3546.4006, 0.20893677, -0.16956641, -1213166.0, -82112.28, 0.0, 9.999753, 9.999172 
1.655079e+3, 1.945836e+2, -1036335.3, -1100252.6, 15700.838, 0.11061405, -0.23829523, -1032686.75, 375.76868, 0.0, 10.000222, 9.999352 
1.655091e+3, 2.0458305e+2, -911082.7, -1071165.5, 24935.139, 0.053982694, -0.18186435, -907288.6, 27779.729, 0.0, 10.000748, 9.998636 
1.655104e+3, 2.1458285e+2, -697773.4, -890033.94, 44059.35, 0.07091635, -0.12452709, -688157.5, 148915.16, 0.0, 10.001444, 9.998858 
1.6551168e+3, 2.2458194e+2, -592289.6, -826881.44, 18060.98, 0.08341198, -0.07581641, -590907.25, 148175.55, 0.0, 10.001628, 9.99856 
1.6551295e+3, 2.3458007e+2, -531805.25, -721548.0, 42339.383, 0.0938836, -0.17259456, -522786.28, 118315.09, 0.0, 10.001278, 9.99877 
1.6551419e+3, 2.4457875e+2, -481934.94, -658968.5, 2432.7053, 0.10276252, -0.1658569, -481901.53, 61211.945, 0.0, 10.000996, 9.998652 
1.6551542e+3, 2.5457782e+2, -371788.47, -536728.25, 5410.092, 0.13951398, -0.18236879, -371611.22, 73509.34, 0.00000000856411, 10.001014, 9.998802 
1.655167e+3, 2.645763e+2, -328142.5, -620686.6, 57719.414, 0.13880265, -0.13671686, -317166.22, 29970.559, 0.0000057188686, 10.001297, 9.997425 
1.6551806e+3, 2.7457404e+2, -98772.56, -432651.34, 74360.42, 0.08230883, -0.16477334, -82960.125, 166203.84, 0.00005720022, 10.002105, 9.99764 
1.6551939e+3, 2.845725e+2, 81231.734, -229995.36, 762.6542, 0.06716293, -0.1034059, 81233.6, 232415.03, 0.0002952708, 10.00236, 9.998267 
1.6552067e+3, 2.945714e+2, 149026.86, -118487.1, 67274.34, 0.12848876, -0.11063513, 164992.17, 218183.45, 0.00095047243, 10.002028, 9.998508 
1.6552173e+3, 3.0456975e+2, 106030.41, -210889.5, -19948.297, 0.04070421, -0.06763641, 107281.1, 107281.1, 0.0020977776, 10.00184, 9.997631 
1.6552278e+3, 3.1456977e+2, 132650.84, -142971.02, -55121.49, 0.017004216, 0.099001475, 143265.77, 143265.77, 0.00356369, 10.001728, 9.998142 
1.6649881e+3, 1.2457038e+2, -1772473.0, -1583561.1, -75151.484, 0.31885535, -0.1066305, -1557312.1, 161887.75, 0.041736465, 9.998794, 10.001506 
1.664999e+3, 1.3457215e+2, -1756668.9, -1572675.5, 16195.102, 0.08147429, -0.06282933, -1571260.9, 49918.957, 0.026087236, 9.998519, 10.001004 
1.6650134e+3, 1.4457205e+2, -1822983.3, -1599792.8, 61579.16, 0.21034376, -0.1383979, -1583930.1, -60751.0, 0.012349877, 9.997608, 10.000551 
1.665027e+3, 1.545735e+2, -1585704.6, -1412208.8, 91249.836, 0.07551205, -0.10976895, -1373053.0, 52111.543, 0.003737191, 9.998479, 10.000739 
1.665041e+3, 1.6457407e+2, -1455069.3, -1442288.5, 39039.402, 0.08812936, -0.05763322, -1409119.9, -81961.78, 0.00050616945, 9.999309, 9.999474 
1.6650549e+3, 1.7457293e+2, -1214979.4, -1259297.6, 12384.362, 0.20430239, -0.16836457, -1211753.5, 17414.21, 0.000009797576, 10.000216, 9.999618 
1.665068e+3, 1.8457192e+2, -1086561.6, -1196243.4, 23549.42, 0.23306061, -0.19982126, -1081719.1, 49457.668, 0.0, 10.000633, 9.999173 
1.6650799e+3, 1.9457112e+2, -920835.06, -1039655.06, 68.451584, 0.14859101, -0.25361454, -920835.0, 112349.1, 0.0, 10.001006, 9.99938 
1.6650923e+3, 2.0457077e+2, -856574.94, -1047681.3, 27313.02, 0.101382144, -0.18079627, -852748.0, 82440.78, 0.0, 10.001135, 9.998614 
1.6651054e+3, 2.145708e+2, -752996.0, -922116.9, 5513.063, 0.09423186, -0.09245108, -752816.5, 84375.305, 0.0, 10.0010805, 9.998819 
1.6651183e+3, 2.2456993e+2, -687194.75, -851733.9, -13081.69, 0.108637124, -0.044900324, -686161.1, 53040.914, 0.0, 10.000898, 9.998721 
1.6651307e+3, 2.3456793e+2, -607223.44, -733672.5, -23342.705, 0.1338733, -0.17622377, -603051.94, 38169.613, 0.0, 10.000663, 9.998961 
1.6651434e+3, 2.4456671e+2, -457729.56, -663406.7, 11924.962, 0.15624946, -0.16549365, -457040.47, 86192.36, 0.0, 10.001205, 9.998547 
1.6651562e+3, 2.545662e+2, -140404.8, -438181.38, -3038.7986, 0.1757453, -0.122909464, -140373.8, 304862.8, 0.0000000057748837, 10.002645, 9.9987135 
1.6651694e+3, 2.6456478e+2, -82444.29, -478297.9, 74619.08, 0.16766459, -0.06925684, -68845.62, 278406.1, 0.0000055479773, 10.002876, 9.997643 
1.6651826e+3, 2.7456233e+2, -142806.47, -444962.75, 72134.68, 0.101774655, -0.13540478, -126468.914, 122811.71, 0.000055377644, 10.00173, 9.997754 
1.665196e+3, 2.8456092e+2, -22415.234, -234680.36, 37869.14, 0.10828463, -0.086181216, -15861.539, 135434.84, 0.00028510438, 10.0014515, 9.998651 
1.6652092e+3, 2.9456052e+2, 193497.19, -46833.95, -8685.726, 0.19159068, -0.05951948, 193810.69, 247108.8, 0.000926934, 10.00216, 9.998905 
1.6652203e+3, 3.045583e+2, 250032.14, -191755.7, -31017.998, 0.10354799, -0.07452011, 252199.28, 252199.28, 0.00206355, 10.003027, 9.997193 
1.665231e+3, 3.1455794e+2, 375291.84, -58815.582, -63341.71, 0.08402608, 0.10425639, 384345.38, 384345.38, 0.003521676, 10.003538, 9.997843 
1.6749866e+3, 1.2455753e+2, -1793451.0, -1656126.0, -49450.156, 0.2170479, -0.16000763, -1640172.5, 79152.45, 0.044670317, 9.998925, 10.00092 
1.6749975e+3, 1.3455905e+2, -1768439.9, -1614629.3, -23644.16, 0.028502475, -0.13320851, -1611076.6, 10231.057, 0.028026333, 9.998589, 10.000679 
1.6750082e+3, 1.4455989e+2, -1802905.6, -1580982.3, 56543.418, -0.124369234, -0.09203183, -1567406.1, -44109.188, 0.013357116, 9.9977, 10.000639 
1.6750269e+3, 1.5456046e+2, -1556696.9, -1356678.1, 142131.0, 0.17891842, -0.18759833, -1282897.1, 142391.17, 0.004090086, 9.99849, 10.001122 
1.6750427e+3, 1.6456047e+2, -1443132.8, -1442616.9, 54174.17, 0.2857623, -0.21081826, -1388700.0, -61413.723, 0.0005678562, 9.999408, 9.999428 
1.6750538e+3, 1.7455941e+2, -1231050.9, -1281767.8, 56524.44, 0.044901207, -0.2992323, -1194457.1, 34838.93, 0.000011659807, 10.000169, 9.999487 
1.6750664e+3, 1.8455881e+2, -1098275.9, -1222661.3, 17428.838, -0.024549585, -0.27352244, -1095879.9, 35422.574, 0.0, 10.000631, 9.9990015 
1.6750813e+3, 1.945587e+2, -951534.75, -1072682.0, 26684.16, 0.16354376, -0.24151146, -945917.7, 87387.086, 0.0, 10.00087, 9.999225 
1.6750947e+3, 2.0455827e+2, -886481.75, -1075376.3, 8749.153, 0.18895863, -0.16373411, -886077.4, 49234.125, 0.0, 10.000977, 9.998505 
1.675106e+3, 2.1455728e+2, -796185.75, -961141.8, 21511.766, 0.009955548, -0.1654719, -793426.56, 43898.688, 0.0, 10.00085, 9.998669 
1.6751182e+3, 2.2455645e+2, -722512.2, -850237.9, -36040.69, -0.026628636, -0.114946894, -713044.3, 26291.38, 0.0, 10.000577, 9.998884 
1.6751318e+3, 2.3455568e+2, -630966.06, -728831.4, -17013.87, 0.14314704, -0.13977247, -628092.56, 13250.911, 0.0, 10.000428, 9.999105 
1.6751452e+3, 2.4455488e+2, -497794.1, -676363.7, 44419.523, 0.18431136, -0.097900614, -487354.9, 55996.14, 0.0, 10.000906, 9.998597 
1.675158e+3, 2.5455388e+2, -179216.45, -446922.06, 72784.09, 0.0635546, -0.10896346, -160707.52, 284651.7, 0.0000000017385277, 10.002337, 9.9987955 
1.6751711e+3, 2.645528e+2, -99651.15, -435448.9, 18282.865, 0.022497296, -0.057874735, -98658.65, 248712.14, 0.0000048816705, 10.002532, 9.998108 
1.6751847e+3, 2.7455115e+2, -144255.84, -398943.7, 53168.605, 0.10401516, -0.085145906, -133602.03, 115787.7, 0.000051551386, 10.001504, 9.998187 
1.6751981e+3, 2.8454977e+2, -110134.35, -333047.94, 46418.383, 0.14327095, -0.025299363, -100854.73, 50550.14, 0.0002714196, 10.0011, 9.998143 
1.6752115e+3, 2.9454878e+2, 119614.78, -133108.16, 48986.63, 0.14397398, -0.016595438, 128777.89, 182192.67, 0.0008994481, 10.001853, 9.998467 
1.6752225e+3, 3.045456e+2, 216016.77, -141997.84, -28770.133, -0.0039781258, -0.13839284, 218314.0, 218314.0, 0.002033432, 10.002537, 9.997762 
1.675234e+3, 3.1454512e+2, 381084.34, 74595.76, 19497.09, -0.035475302, -0.031873208, 382319.7, 382319.7, 0.003509679, 10.003037, 9.998992 
1.6849849e+3, 1.2454546e+2, -1995533.3, -1774787.6, 28013.137, 0.20984821, -0.123823225, -1771288.1, -51847.05, 0.04776628, 9.997675, 10.00066 
1.684996e+3, 1.3454558e+2, -1709489.0, -1617491.8, -61972.79, 0.008595618, -0.21913251, -1586312.0, 35126.7, 0.030093629, 9.999148, 10.000379 
1.685008e+3, 1.4454676e+2, -1556684.3, -1508716.4, 49852.207, -0.00054419774, -0.108855, -1477378.8, 46046.285, 0.0144471, 9.999568, 10.000249 
1.685026e+3, 1.5454674e+2, -1457177.5, -1348096.3, 52878.387, 0.21889478, -0.22733055, -1326671.0, 98751.66, 0.004479329, 9.999338, 10.000779 
1.685042e+3, 1.6454656e+2, -1463718.9, -1442452.4, -8284.981, 0.27516764, -0.25224268, -1439605.8, -112183.08, 0.0006375465, 9.999214, 9.99953 
1.6850539e+3, 1.7454608e+2, -1287942.6, -1290389.9, -16079.537, 0.052982368, -0.30092984, -1273040.3, -43612.92, 0.00001399049, 9.999693, 9.999655 
1.685067e+3, 1.8454593e+2, -1204179.4, -1259049.9, -23372.078, 0.005504011, -0.24615084, -1195573.8, -64143.977, 0.0, 9.999844, 9.999124 
1.6850817e+3, 1.9454612e+2, -1095832.3, -1132700.8, -24128.574, 0.16610776, -0.19772142, -1083901.9, -50471.555, 0.0, 9.999829, 9.999314 
1.6850951e+3, 2.045457e+2, -1005810.4, -1095313.5, 12845.7705, 0.19483683, -0.1368813, -1004003.2, -68566.62, 0.0, 10.000001, 9.998836 
1.6851068e+3, 2.1454465e+2, -832133.75, -933330.06, 21464.838, 0.05224481, -0.1805855, -827769.1, 9680.079, 0.0, 10.000425, 9.999054 
1.6851194e+3, 2.2454388e+2, -670820.2, -852743.5, 11109.896, 0.033474393, -0.13323972, -670144.2, 69314.055, 0.0, 10.0010195, 9.99868 
1.685133e+3, 2.3454328e+2, -457541.72, -674908.2, -25301.232, 0.1565472, -0.11457356, -454635.53, 186829.56, 0.0, 10.001724, 9.998879 
1.6851465e+3, 2.4454236e+2, -367908.72, -619013.94, 56192.305, 0.19281596, -0.06717695, -355907.56, 187566.5, 0.0, 10.00182, 9.998535 
1.6851601e+3, 2.5454092e+2, -339529.72, -538996.56, 30538.668, 0.10198917, -0.12204716, -334958.94, 110528.086, 0.0000000018399801, 10.001275, 9.998675 
1.6851735e+3, 2.645397e+2, -266311.53, -457254.38, -16194.592, 0.07904186, -0.09834679, -264947.75, 82550.72, 0.0000039092515, 10.001129, 9.998637 
1.6851865e+3, 2.7453864e+2, -90828.53, -294166.38, -17102.31, 0.14388113, -0.1279346, -89400.125, 160109.28, 0.000046409757, 10.001577, 9.998848 
1.6851999e+3, 2.845377e+2, 21125.607, -289554.53, 68152.38, 0.17929816, -0.05331917, 35418.332, 186938.02, 0.00025645504, 10.002057, 9.998009 
1.6852137e+3, 2.9453695e+2, 189105.9, -118322.89, 50078.473, 0.17855966, 0.0033183931, 197057.75, 250586.16, 0.0008664291, 10.002392, 9.998331 
1.6852254e+3, 3.0453342e+2, 235261.89, -151901.38, 1762.9084, 0.043013323, -0.14274338, 235269.9, 235269.9, 0.0019907402, 10.002701, 9.997647 
1.6852379e+3, 3.145313e+2, 351831.6, 82398.23, -79885.98, 0.09028832, -0.16385156, 373736.6, 373736.6, 0.0034830444, 10.002672, 9.999276 
1.6949815e+3, 1.245333e+2, -1978346.8, -1776709.4, -7800.9634, 0.014132732, -0.07281316, -1776408.0, -56851.36, 0.051028147, 9.997828, 10.000577 
1.6949934e+3, 1.3453147e+2, -1723524.0, -1644324.9, -3277.6167, -0.20116726, -0.32824624, -1644189.5, -22614.404, 0.032295942, 9.999136, 10.000196 
1.6950126e+3, 1.4453256e+2, -1589393.5, -1609084.1, 20874.418, 0.4362686, -0.1965247, -1576159.1, -52594.465, 0.015627254, 9.9997, 9.999497 
1.6950242e+3, 1.5453246e+2, -1531177.8, -1512587.5, 55773.586, 0.062190767, -0.20966652, -1465339.8, -39773.75, 0.004910431, 9.999387, 9.999625 
1.6950376e+3, 1.6453248e+2, -1422335.4, -1377710.0, -13547.878, -0.116656825, -0.17264825, -1373919.1, -46353.184, 0.0007170378, 9.999301, 9.99993 
1.6950542e+3, 1.7453302e+2, -1257948.1, -1221322.5, 17616.602, 0.09294303, -0.17006853, -1214224.6, 15336.005, 0.000016975888, 9.999664, 10.00014 
1.6950688e+3, 1.8453336e+2, -1172401.8, -1203361.0, -42459.1, 0.15811066, -0.10962355, -1142688.5, -11130.341, 0.0, 9.999877, 9.999494 
1.6950803e+3, 1.9453327e+2, -1085412.9, -1087982.3, -14884.662, 0.009539792, -0.12223649, -1071757.6, -38196.418, 0.0, 9.999726, 9.999669 
1.695093e+3, 2.0453313e+2, -987338.8, -1008024.3, 7212.378, -0.035248023, -0.090218686, -985072.44, -49509.195, 0.0, 9.999785, 9.999544 
1.6951078e+3, 2.145328e+2, -810873.06, -846163.6, 52583.1, 0.07559198, -0.13189578, -773053.56, 64511.32, 0.0, 10.000223, 9.999759 
1.6951214e+3, 2.2453204e+2, -749267.2, -935200.9, 19379.572, 0.105869636, -0.099552274, -747268.8, -7696.8726, 0.0, 10.0006895, 9.998265 
1.6951336e+3, 2.3453064e+2, -539440.6, -766325.2, 22726.705, 0.03815221, -0.114501, -537186.5, 104400.71, 0.0, 10.001399, 9.998401 
1.6951472e+3, 2.4452904e+2, -444633.28, -689319.25, 24113.559, 0.034108985, -0.09667463, -442279.56, 101323.83, 0.0, 10.00144, 9.998239 
1.695162e+3, 2.545271e+2, -397644.88, -600430.94, 31500.129, 0.14582917, -0.16836533, -392864.44, 52757.17, 0.0000000033657745, 10.001021, 9.99838 
1.6951756e+3, 2.645256e+2, -273703.88, -397145.84, -15601.995, 0.15383579, -0.1859719, -271762.44, 75872.28, 0.0000030031388, 10.000814, 9.999194 
1.6951877e+3, 2.745246e+2, -85955.04, -222309.61, 22057.719, 0.072148584, -0.2725285, -82475.6, 167165.84, 0.000041455987, 10.001318, 9.99946 
1.6952011e+3, 2.8452432e+2, -14605.221, -282691.25, 58033.965, 0.052936085, -0.17714843, -2581.5688, 149062.27, 0.00024337543, 10.001712, 9.998223 
1.6952159e+3, 2.945246e+2, 163924.4, -113777.21, 84701.04, 0.11543199, -0.034510218, 187719.88, 241363.61, 0.0008331997, 10.002126, 9.998503 
1.6952282e+3, 3.045213e+2, 99895.15, -310422.16, -17612.271, 0.036769543, -0.12179846, 100649.74, 100649.74, 0.0019314514, 10.002216, 9.996771 
1.6952415e+3, 3.145172e+2, 241887.77, 12204.632, -19485.074, 0.120090015, -0.2650505, 243529.05, 243529.05, 0.0034111522, 10.0020275, 9.999078 
1.7049794e+3, 1.2451971e+2, -2087022.1, -1809011.1, -33849.918, 0.08039226, -0.098108985, -1804949.0, -85261.17, 0.054460447, 9.997006, 10.000762 
1.7049925e+3, 1.3451819e+2, -1772067.8, -1693662.1, 2135.98, -0.1796098, -0.2824464, -1693604.0, -71898.445, 0.034638863, 9.998918, 9.999973 
1.7050138e+3, 1.4451927e+2, -1550636.3, -1616434.9, -9076.648, 0.5877353, -0.13438195, -1549407.1, -25710.176, 0.016903277, 10.000114, 9.999239 
1.7050235e+3, 1.5451853e+2, -1499373.3, -1537632.0, 36518.645, 0.036266807, -0.17632706, -1477277.1, -51571.76, 0.00538814, 9.999801, 9.999242 
1.7050362e+3, 1.6451842e+2, -1386877.5, -1332603.9, 43127.098, -0.1934424, -0.14505523, -1308786.3, 18920.367, 0.0008082668, 9.999427, 10.000173 
1.7050539e+3, 1.7451952e+2, -1280882.4, -1195035.0, 28775.781, 0.12686406, -0.11262698, -1186281.9, 43413.08, 0.000020835996, 9.999348, 10.000474 
1.7050691e+3, 1.8452014e+2, -1237681.4, -1224993.4, -11513.177, 0.23714402, -0.04766032, -1218192.0, -86502.44, 0.0, 9.999391, 9.999592 
1.7050801e+3, 1.9451982e+2, -1059316.1, -1070393.0, -35301.66, 0.019196305, -0.0871444, -1029121.0, 4573.642, 0.0, 9.999878, 9.999736 
1.7050931e+3, 2.0451948e+2, -912813.06, -965403.6, -5222.355, -0.031955913, -0.07850164, -912299.44, 23398.809, 0.0, 10.000275, 9.999586 
1.7051086e+3, 2.1451913e+2, -739890.7, -808155.0, -45877.086, 0.11160286, -0.12688671, -716841.44, 120858.28, 0.0, 10.000714, 9.999772 
1.7051226e+3, 2.2451857e+2, -674456.4, -862071.1, -49793.684, 0.15319085, -0.09427197, -662060.0, 77644.37, 0.0, 10.001039, 9.998594 
1.7051351e+3, 2.3451757e+2, -548577.25, -726490.5, -26058.838, 0.06569667, -0.10496569, -544838.94, 96875.23, 0.0, 10.001152, 9.99878 
1.7051487e+3, 2.4451604e+2, -471501.53, -696581.4, 33489.68, 0.07806503, -0.10322341, -466624.28, 77104.5, 0.0, 10.001234, 9.998294 
1.7051636e+3, 2.545137e+2, -351983.2, -563902.5, 29839.816, 0.20038302, -0.2197371, -347861.66, 97888.89, 0.0000000026261497, 10.001298, 9.9984865 
1.7051773e+3, 2.645121e+2, -178173.27, -366711.7, 30593.174, 0.20637222, -0.24900466, -173333.31, 174431.31, 0.0000021613648, 10.00152, 9.99908 
1.7051892e+3, 2.7451128e+2, -17011.992, -208135.08, -21435.18, 0.075200625, -0.29853013, -14637.458, 235132.0, 0.000036656253, 10.001852, 9.99932 
1.705203e+3, 2.845108e+2, 28677.037, -286244.63, 11352.085, 0.06516465, -0.20105554, 29085.719, 180859.72, 0.00022921336, 10.002123, 9.997991 
1.7052186e+3, 2.945104e+2, 172152.28, -137065.73, -42009.516, 0.17495167, -0.0989444, 177757.95, 231539.36, 0.00079328316, 10.00233, 9.998228 
1.7052315e+3, 3.0450746e+2, 202217.94, -258343.36, -85577.68, 0.10980504, -0.13187015, 217605.19, 217605.19, 0.0018438247, 10.00289, 9.996793 
1.705245e+3, 3.1450352e+2, 464901.6, 139801.6, -119805.266, 0.21708459, -0.27072242, 504281.78, 504281.78, 0.0032716861, 10.003498, 9.999212 
1.7149775e+3, 1.2450438e+2, -2014862.9, -1709600.5, -149986.78, 0.08622427, -0.25405103, -1648240.3, 71597.2, 0.058051143, 9.997176, 10.001407 
1.7149934e+3, 1.345064e+2, -1810045.6, -1764067.4, 121395.79, -0.008965267, -0.03986115, -1663503.1, -41679.223, 0.037118543, 9.998894, 9.999499 
1.715011e+3, 1.445071e+2, -1508977.3, -1571759.1, -29148.48, 0.23775892, 0.09000588, -1497531.0, 26288.953, 0.018276531, 10.0002775, 9.999475 
1.715023e+3, 1.545048e+2, -1472304.5, -1489375.0, 41294.395, -0.01669322, -0.14246246, -1438672.5, -12830.863, 0.005915651, 9.999825, 9.999565 
1.715037e+3, 1.6450435e+2, -1368541.4, -1309295.4, 17158.885, -0.11100579, -0.16769426, -1304684.6, 23160.25, 0.0009130136, 9.999494, 10.000297 
1.7150526e+3, 1.7450584e+2, -1280775.0, -1180044.4, 37790.668, 0.023495387, -0.113803625, -1167443.1, 62385.55, 0.000025810483, 9.999294, 10.000598 
1.7150673e+3, 1.845064e+2, -1251168.0, -1252346.6, -11219.889, 0.0780744, -0.047844972, -1240522.0, -108699.234, 0.0, 9.999382, 9.99941 
1.7150806e+3, 1.9450578e+2, -1085615.0, -1104019.4, -1663.0527, 0.054281272, -0.10161481, -1085466.0, -51635.375, 0.0, 9.999784, 9.999551 
1.7150943e+3, 2.0450483e+2, -986845.9, -1077159.6, -4940.0786, 0.030903285, -0.10978929, -986576.5, -50735.313, 0.0, 10.000095, 9.998907 
1.7151086e+3, 2.1450356e+2, -829739.6, -927026.7, -13722.632, 0.021691386, -0.18318824, -827841.06, 10013.978, 0.0, 10.000426, 9.999093 
1.7151228e+3, 2.2450325e+2, -650200.06, -736036.4, -59463.797, 0.03483369, -0.13905232, -619784.0, 120073.336, 0.0, 10.000703, 9.999628 
1.7151368e+3, 2.3450401e+2, -506446.66, -586006.9, -5095.692, 0.094212525, -0.08232784, -506121.63, 135725.06, 0.0, 10.000912, 9.999869 
1.7151506e+3, 2.4450326e+2, -492285.2, -655711.4, 16719.227, 0.12582949, -0.08092035, -490592.25, 53258.98, 0.0, 10.000886, 9.998734 
1.7151645e+3, 2.5450045e+2, -369300.25, -532693.1, 48977.477, 0.1302698, -0.2851934, -355743.88, 90132.62, 0.0000000000058928205, 10.00101, 9.998839 
1.7151777e+3, 2.6449874e+2, -275367.6, -496684.03, 23778.209, 0.08216891, -0.30520055, -272841.7, 75050.51, 0.0000014626683, 10.001213, 9.998334 
1.7151906e+3, 2.744984e+2, -109280.41, -340437.5, 9876.942, -0.0057220473, -0.23043303, -108859.15, 141036.7, 0.000032258973, 10.001592, 9.998538 
1.715205e+3, 2.8449705e+2, -78867.89, -429026.5, 232.54118, 0.020134134, -0.14251143, -78867.734, 73043.12, 0.00021422842, 10.001773, 9.997181 
1.7152211e+3, 2.944943e+2, 75984.65, -269462.38, -923.14465, 0.16610417, -0.20504661, 75987.12, 129928.664, 0.00074612966, 10.002029, 9.997465 
1.7152342e+3, 3.0449176e+2, 167147.89, -208416.0, -78571.39, 0.07252558, -0.18752873, 182923.11, 182923.11, 0.001733618, 10.002401, 9.997358 
1.7152478e+3, 3.1448942e+2, 390659.06, 165459.83, -40110.01, 0.07600973, -0.2323057, 397589.72, 397589.72, 0.0030848195, 10.002773, 9.999719 
1.7249754e+3, 1.2448842e+2, -1761815.4, -1564498.8, -214401.13, 0.10828581, -0.289227, -1427145.8, 292848.78, 0.06177432, 9.998803, 10.001672 
1.7249928e+3, 1.3449119e+2, -1800684.9, -1735199.6, 61541.51, 0.06095963, -0.048702896, -1698232.6, -76259.086, 0.039721623, 9.998842, 9.9997015 
1.7250088e+3, 1.4449254e+2, -1767104.6, -1641683.8, -36163.2, 0.10742192, 0.11663363, -1632003.6, -108040.8, 0.019743169, 9.99825, 9.999985 
1.7250234e+3, 1.5449077e+2, -1515813.8, -1423482.4, 21072.355, 0.06663103, -0.13279983, -1418900.5, 7077.5825, 0.006494274, 9.999122, 10.000381 
1.7250378e+3, 1.6449054e+2, -1422322.6, -1370707.1, 22844.604, 0.057379294, -0.16327925, -1362048.8, -34069.74, 0.001032908, 9.999269, 9.999994 
1.7250514e+3, 1.7449124e+2, -1346436.0, -1253186.8, -27030.07, -0.0034020669, -0.1528347, -1245918.1, -15946.676, 0.00003215152, 9.999008, 10.000237 
1.7250657e+3, 1.8449135e+2, -1284352.9, -1261043.1, -20801.146, 0.0077230823, -0.11750452, -1248854.3, -116884.04, 0.0, 9.999121, 9.999475 
1.7250809e+3, 1.9449101e+2, -1031449.44, -1061744.9, -22589.92, 0.10160985, -0.15127444, -1019398.7, 14575.278, 0.0, 10.000097, 9.999684 
1.7250952e+3, 2.0449047e+2, -965089.75, -1061252.4, 9345.391, 0.120496005, -0.13098952, -964189.94, -28209.719, 0.0, 10.00022, 9.998966 
1.7251086e+3, 2.1448943e+2, -953583.56, -984392.9, 25296.553, 0.037276875, -0.17980143, -939370.3, -101378.39, 0.0, 9.999551, 9.999135 
1.725123e+3, 2.2448903e+2, -807182.5, -800754.1, 35833.92, 0.04983713, -0.14826708, -767990.5, -27995.275, 0.0, 9.999612, 9.999691 
1.7251381e+3, 2.3448943e+2, -535951.2, -594508.3, -26065.447, 0.16037652, -0.13362733, -526029.7, 115958.65, 0.0, 10.0007105, 9.999894 
1.7251523e+3, 2.4448887e+2, -430731.16, -612845.2, -46301.395, 0.19771925, -0.120502375, -419635.34, 124356.17, 0.0, 10.001225, 9.998867 
1.7251654e+3, 2.544871e+2, -365230.72, -509946.25, -60923.324, 0.13187541, -0.2385282, -342998.34, 103009.11, 0.0000000000049057277, 10.000937, 9.999025 
1.725179e+3, 2.6448578e+2, -286640.0, -527512.94, -11263.27, 0.08558946, -0.2169179, -286114.47, 61905.7, 0.0000011502509, 10.001265, 9.998085 
1.7251933e+3, 2.744849e+2, -21756.596, -335272.34, -29493.51, 0.07507389, -0.16127214, -19006.17, 231024.19, 0.000029351942, 10.002355, 9.998205 
1.7252082e+3, 2.8448308e+2, 72402.125, -331538.9, 20976.336, 0.12255629, -0.11242143, 73488.484, 225538.14, 0.00020332959, 10.002731, 9.99737 
1.7252235e+3, 2.9447985e+2, 132092.55, -218180.06, 27204.371, 0.20333523, -0.23676817, 134192.81, 188275.0, 0.00070578046, 10.002342, 9.997643 
1.7252368e+3, 3.0447778e+2, 219593.45, -188747.48, 43476.195, 0.09021235, -0.18402588, 224171.06, 224171.06, 0.0016366781, 10.002728, 9.997371 
1.7252518e+3, 3.1447595e+2, 498461.72, 146419.14, -41934.473, 0.17941314, -0.16109051, 503387.94, 503387.94, 0.002919005, 10.003717, 9.999199 
1.7349732e+3, 1.2447173e+2, -1790401.3, -1642281.9, -105198.01, -0.079237565, -0.23200947, -1587689.1, 132470.88, 0.06561491, 9.998904, 10.001028 
1.7349902e+3, 1.3447234e+2, -1743042.9, -1622681.4, 21347.885, -0.12893741, -0.32501987, -1619007.3, 3149.8406, 0.042436883, 9.998867, 10.000464 
1.7350067e+3, 1.4447519e+2, -1696384.0, -1514873.0, -42155.668, 0.008796311, -0.069080606, -1505560.3, 18569.293, 0.021297567, 9.998336, 10.00081 
1.7350234e+3, 1.544764e+2, -1426623.5, -1241256.0, 65392.38, 0.1323233, -0.14397101, -1220509.5, 205605.3, 0.0071235094, 9.999133, 10.001633 
1.7350383e+3, 1.6447705e+2, -1447181.4, -1458119.6, -4489.911, 0.13386562, -0.123876095, -1445574.5, -117466.32, 0.0011691477, 9.999406, 9.999333 
1.73505e+3, 1.7447571e+2, -1404256.8, -1381345.3, -25079.74, -0.08184413, -0.23270817, -1365228.9, -135105.1, 0.00004011834, 9.999031, 9.999352 
1.7350638e+3, 1.8447502e+2, -1263540.9, -1220763.9, -8342.915, -0.14432742, -0.24220538, -1219194.3, -87063.23, 0.0, 9.999132, 9.999743 
1.7350805e+3, 1.9447546e+2, -1029945.06, -1023124.25, 26132.697, 0.018120248, -0.23437074, -1000180.4, 33944.86, 0.0, 9.999941, 10.000025 
1.7350954e+3, 2.0447618e+2, -937569.06, -961509.25, -30578.545, 0.07345624, -0.14457054, -916701.25, 19415.832, 0.0, 10.0000305, 9.999742 
1.7351082e+3, 2.1447682e+2, -926996.7, -886935.7, 14770.098, 0.010063937, -0.107041076, -882078.94, -43969.074, 0.0, 9.999366, 9.99989 
1.7351225e+3, 2.2447604e+2, -916246.7, -962727.4, 56643.094, 0.012041671, -0.106971376, -878261.6, -138144.53, 0.0, 9.999336, 9.99871 
1.7351387e+3, 2.3447357e+2, -646204.94, -765587.3, 33418.977, 0.11862647, -0.27642122, -637486.56, 4655.042, 0.0, 10.000454, 9.998844 
1.7351533e+3, 2.4447267e+2, -485948.88, -643229.1, -67527.695, 0.13636729, -0.24014999, -460934.5, 83216.6, 0.0, 10.000875, 9.998824 
1.7351657e+3, 2.5447363e+2, -402201.13, -522450.94, -49265.88, 0.0531145, -0.08567596, -384594.88, 61547.93, 0.000000000000012544113, 10.0006695, 9.999066 
1.73518e+3, 2.6447314e+2, -333178.56, -540263.25, 11393.609, 0.044044573, 0.009560757, -332553.6, 15595.28, 0.0000010511417, 10.000912, 9.998163 
1.7351966e+3, 2.7447087e+2, -62092.926, -342101.5, 36330.15, 0.15075988, -0.09010445, -57456.0, 192716.44, 0.000029114979, 10.002043, 9.998296 
1.7352119e+3, 2.844687e+2, 75469.62, -245360.6, -14019.609, 0.18634646, -0.11208279, 76081.086, 228273.14, 0.00019954766, 10.002383, 9.998133 
1.7352253e+3, 2.944665e+2, 132153.64, -128401.75, 37463.18, 0.10665579, -0.22565135, 137433.2, 191643.1, 0.0006844002, 10.00196, 9.998445 
1.7352386e+3, 3.04465e+2, 103268.54, -307344.44, 52978.727, -0.05012804, -0.1289622, 109993.89, 109993.89, 0.0015865878, 10.002229, 9.996778 
1.735256e+3, 3.1446207e+2, 295217.3, -70753.52, 59316.598, 0.15069379, -0.17160124, 304591.25, 304591.25, 0.0028415923, 10.002901, 9.99806 
1.7449738e+3, 1.24457546e+2, -1922761.8, -1810837.5, 65278.895, 0.11032549, -0.115671344, -1780816.5, -60517.484, 0.06957688, 9.998502, 10.000012 
1.7449903e+3, 1.344571e+2, -1740545.0, -1544687.1, 91368.12, 0.03242688, -0.3699594, -1508682.5, 113620.89, 0.045260757, 9.998553, 10.001188 
1.7450052e+3, 1.4445935e+2, -1597067.0, -1460940.6, 79605.766, 0.014126746, -0.21908735, -1424267.6, 100013.27, 0.022935338, 9.999003, 10.000849 
1.7450224e+3, 1.5446185e+2, -1534229.4, -1294652.9, 42822.445, 0.16163008, -0.16946757, -1287228.8, 139027.08, 0.0078018596, 9.998414, 10.001584 
1.7450376e+3, 1.6446303e+2, -1596314.0, -1509333.1, -2484.3892, 0.17908783, -0.10305776, -1509262.3, -181017.48, 0.0013223152, 9.998298, 9.999522 
1.74505e+3, 1.7446178e+2, -1311746.0, -1307511.5, 25254.283, -0.0024611494, -0.22434859, -1284285.9, -54027.09, 0.000049909977, 9.999547, 9.999618 
1.7450641e+3, 1.844611e+2, -1123571.8, -1166741.9, 106672.336, -0.06521675, -0.24018434, -1036322.5, 95942.98, 0.0000000000000006446772, 10.000172, 9.999598 
1.7450804e+3, 1.9446124e+2, -995504.2, -1024937.6, 67299.58, 0.0046906993, -0.24779126, -941331.06, 92931.53, 0.0, 10.000271, 9.999834 
1.7450954e+3, 2.0446168e+2, -895281.2, -965786.75, -33530.91, 0.059537426, -0.16465758, -881881.3, 54375.824, 0.0, 10.000412, 9.999536 
1.745109e+3, 2.144623e+2, -734337.44, -811622.56, -97392.44, 0.09113838, -0.11039149, -668201.5, 170048.92, 0.0, 10.000762, 9.999738 
1.7451236e+3, 2.2446127e+2, -715973.4, -905039.9, -15761.354, 0.11224373, -0.11155664, -714668.44, 25591.996, 0.0, 10.000854, 9.998392 
1.7451392e+3, 2.344583e+2, -643000.3, -796861.9, -12295.6, 0.11365772, -0.29613855, -642023.9, 266.5436, 0.0, 10.000617, 9.998554 
1.7451538e+3, 2.4445729e+2, -492472.9, -628765.9, -59337.28, 0.115494266, -0.2616061, -470259.78, 74041.47, 0.0, 10.000799, 9.998946 
1.7451672e+3, 2.544585e+2, -273636.38, -444606.16, -76676.69, 0.10064673, -0.09416602, -244286.69, 202004.1, 0.0, 10.001526, 9.999178 
1.745182e+3, 2.6445803e+2, -187279.27, -464757.9, 25965.07, 0.1137312, 0.00014231744, -184870.48, 163425.84, 0.0000010008785, 10.0018635, 9.998231 
1.7451984e+3, 2.7445564e+2, -98367.695, -355265.8, 10635.61, 0.14882149, -0.11585201, -97928.13, 152393.6, 0.000030147008, 10.001745, 9.998356 
1.745214e+3, 2.8445378e+2, 29190.451, -245153.25, -31788.494, 0.19318363, -0.126953, 32825.65, 185164.61, 0.00019899277, 10.001936, 9.998365 
1.7452283e+3, 2.944521e+2, 204519.44, -83887.54, -75977.66, 0.20944484, -0.20259368, 223310.58, 277661.3, 0.00068156485, 10.002357, 9.998589 
1.7452417e+3, 3.0445042e+2, 187762.36, -206412.81, 24859.66, 0.05794853, -0.15616432, 189324.02, 189324.02, 0.0015937911, 10.002531, 9.997342 
1.745259e+3, 3.144477e+2, 305766.7, -44174.875, 27165.053, 0.200392, -0.22942759, 307862.88, 307862.88, 0.002881364, 10.002833, 9.998287 
1.7549726e+3, 1.2444408e+2, -1964836.3, -1936993.8, -217282.0, 0.06729259, -0.08625155, -1733187.5, -12758.232, 0.07366958, 9.998644, 9.999089 
1.7549922e+3, 1.344454e+2, -1686091.8, -1430685.9, 137341.33, 0.32958454, -0.19571272, -1370850.4, 251563.0, 0.048192136, 9.99854, 10.002012 
1.7550042e+3, 1.4444554e+2, -1620131.1, -1545636.6, 54087.25, -0.049428456, -0.29682562, -1517212.1, 7200.1187, 0.024652572, 9.999156, 10.00019 
1.7550197e+3, 1.544471e+2, -1625236.9, -1498124.4, 29519.139, 0.024881817, -0.20218998, -1491603.8, -65202.56, 0.008527423, 9.998466, 10.000168 
1.7550346e+3, 1.6444819e+2, -1511516.9, -1345230.8, 7738.0596, 0.01426649, -0.1164052, -1344871.5, -16479.793, 0.0014925194, 9.99836, 10.000614 
1.7550507e+3, 1.7444928e+2, -1225250.3, -1110052.3, 85928.73, 0.08948322, -0.13745643, -1064203.8, 166174.52, 0.00006156021, 9.999484, 10.000997 
1.7550662e+3, 1.8444955e+2, -1162323.3, -1245497.6, 93340.79, 0.08214321, -0.109648034, -1101724.4, 30649.627, 0.0000000010737394, 10.000161, 9.999063 
1.75508e+3, 1.944483e+2, -1060931.1, -1140484.6, 82239.15, -0.07888791, -0.18518685, -1009354.4, 25031.97, 0.0, 10.00018, 9.999086 
1.7550947e+3, 2.0444696e+2, -1002086.8, -1149803.9, -38911.83, -0.08638267, -0.18267317, -992463.5, -56063.1, 0.0, 10.000249, 9.998349 
1.7551105e+3, 2.1444562e+2, -849970.4, -998079.9, -70085.93, 0.14553408, -0.20914787, -822063.7, 16351.898, 0.0, 10.000526, 9.998572 
1.7551254e+3, 2.2444455e+2, -737594.9, -878750.7, -38987.105, 0.19057864, -0.16989101, -727542.56, 12884.072, 0.0, 10.000548, 9.998719 
1.755139e+3, 2.3444365e+2, -650412.2, -757458.0, -3013.1, 0.001730503, -0.19001313, -650327.44, -7893.0156, 0.0, 10.000375, 9.998944 
1.7551532e+3, 2.4444266e+2, -534243.6, -638753.2, -46691.418, -0.04918151, -0.17892312, -516422.38, 28020.375, 0.0, 10.000469, 9.999036 
1.7551692e+3, 2.5444144e+2, -308161.66, -452328.06, -30475.389, 0.11071564, -0.26175988, -301984.16, 144469.0, 0.0, 10.001251, 9.999255 
1.7551842e+3, 2.6444024e+2, -235010.16, -494290.34, 2898.0852, 0.11764705, -0.24504304, -234977.77, 113487.83, 0.00000094846536, 10.001558, 9.99818 
1.7551981e+3, 2.7443922e+2, -141094.77, -373607.63, 27613.28, -0.07134087, -0.223991, -137860.4, 112618.57, 0.000030605133, 10.001449, 9.998371 
1.755214e+3, 2.8443822e+2, -43323.594, -315509.44, -31918.523, -0.035232477, -0.13638486, -39630.695, 112859.31, 0.00020047408, 10.001591, 9.998048 
1.7552319e+3, 2.9443675e+2, 117043.76, -169816.2, -35126.926, 0.2956111, -0.15807256, 121282.53, 175785.94, 0.00069770816, 10.001958, 9.998184 
1.7552458e+3, 3.044344e+2, 203896.03, -58095.98, 4881.8267, 0.16940118, -0.216102, 203986.97, 203986.97, 0.001653074, 10.00205, 9.998582 
1.7552607e+3, 3.1443334e+2, 260519.84, 60859.03, 112512.63, 0.0096108345, -0.28490132, 311106.2, 311106.2, 0.0030124004, 10.002035, 9.999366 
1.7649704e+3, 1.2442874e+2, -1821742.8, -1811030.9, -195374.23, -0.034850005, -0.24847056, -1620939.1, 99639.88, 0.07790593, 9.999366, 9.999639 
1.7649925e+3, 1.3443224e+2, -1679683.1, -1459313.6, 84588.34, 0.5040582, -0.10870957, -1430588.9, 191951.83, 0.05123237, 9.998696, 10.001732 
1.7650023e+3, 1.4443116e+2, -1749154.1, -1656216.5, -9564.11, -0.10535491, -0.30251408, -1655242.5, -130690.734, 0.026445003, 9.998479, 9.999766 
1.7650186e+3, 1.5443206e+2, -1543374.6, -1513337.8, -20906.06, 0.020257855, -0.21827236, -1502614.8, -76065.945, 0.009296644, 9.999293, 9.999661 
1.7650338e+3, 1.6443303e+2, -1340067.5, -1243850.3, 10902.289, 0.04864621, -0.1242675, -1242630.4, 85910.47, 0.0016790463, 9.999466, 10.00077 
1.7650506e+3, 1.7443436e+2, -1272790.3, -1116720.3, -33110.47, 0.15986712, -0.1417254, -1109986.4, 120536.98, 0.000074904594, 9.999078, 10.001144 
1.7650665e+3, 1.8443474e+2, -1321341.9, -1319718.5, -18684.76, 0.1688749, -0.11299339, -1301827.8, -169310.5, 0.000000009428086, 9.999052, 9.999097 
1.7650804e+3, 1.9443358e+2, -1089672.5, -1148352.5, -8280.518, -0.03642794, -0.17982897, -1088526.5, -53997.76, 0.0, 9.999953, 9.999155 
1.7650953e+3, 2.0443198e+2, -986494.7, -1177828.1, -47048.28, -0.04975645, -0.1916117, -975551.56, -39005.527, 0.0, 10.000525, 9.998018 
1.7651115e+3, 2.1442986e+2, -844690.4, -1034314.4, -51242.293, 0.19900121, -0.2546111, -831729.06, 6840.925, 0.0, 10.000749, 9.998209 
1.7651267e+3, 2.2442882e+2, -674092.2, -799733.2, 29220.33, 0.26366708, -0.21348448, -667628.9, 72951.86, 0.0, 10.000789, 9.999138 
1.76514e+3, 2.3442897e+2, -562975.5, -659793.4, 27776.176, 0.07337265, -0.17272769, -555572.8, 87003.625, 0.0, 10.000752, 9.999426 
1.7651543e+3, 2.4442802e+2, -507710.72, -663833.6, 21341.344, 0.014040098, -0.16910613, -504846.0, 39737.57, 0.0, 10.000762, 9.998748 
1.7651701e+3, 2.5442562e+2, -402641.28, -540162.9, -17089.932, 0.121076755, -0.3345713, -400549.3, 46056.633, 0.0, 10.000738, 9.99892 
1.7651854e+3, 2.6442412e+2, -309913.6, -518584.9, 41790.453, 0.116406225, -0.33553335, -301855.44, 46766.098, 0.0000007067664, 10.001017, 9.9982605 
1.7651999e+3, 2.7442375e+2, -95032.99, -338763.0, 27797.531, -0.05246666, -0.25963748, -91902.87, 158725.78, 0.000029110019, 10.001726, 9.998467 
1.765216e+3, 2.844231e+2, 7705.047, -292095.8, 5123.5425, -0.0022585988, -0.13611996, 7792.5815, 160429.22, 0.0002034409, 10.001968, 9.998023 
1.765234e+3, 2.9442185e+2, 82373.07, -196302.4, -35014.168, 0.32896754, -0.12468467, 86705.08, 141355.08, 0.0007263894, 10.001781, 9.998084 
1.765248e+3, 3.044189e+2, 221411.61, -71779.59, 39655.88, 0.20592761, -0.22447504, 226680.61, 226680.61, 0.0017327985, 10.002231, 9.998411 
1.765264e+3, 3.1441793e+2, 416323.8, 114976.914, -35961.43, 0.0974332, -0.25443473, 420555.88, 420555.88, 0.003152883, 10.00313, 9.999243 
1.7749704e+3, 1.2441493e+2, -1667331.6, -1551508.1, -88047.19, -0.06966175, -0.29968682, -1504034.5, 216680.56, 0.08231803, 9.99955, 10.001425 
1.7749913e+3, 1.3441801e+2, -1776747.4, -1665575.0, 72581.17, 0.48264834, -0.08466643, -1629739.9, -7058.8984, 0.054393712, 9.998736, 10.000236 
1.7749988e+3, 1.4441575e+2, -1753667.0, -1687573.4, -6434.0156, -0.37452486, -0.28476438, -1686952.8, -162249.28, 0.02831169, 9.9985695, 9.999509 
1.7750178e+3, 1.5441667e+2, -1514279.5, -1460357.8, 22297.953, -0.016262958, -0.22969216, -1452331.8, -25632.146, 0.010105246, 9.999314, 10.000019 
1.7750345e+3, 1.644176e+2, -1386710.1, -1354323.3, -20989.25, 0.12486256, -0.12889697, -1344006.8, -15314.917, 0.0018804772, 9.999524, 9.999982 
1.7750491e+3, 1.7441706e+2, -1346480.4, -1265787.5, -34203.094, 0.074473955, -0.23150945, -1253240.8, -22547.166, 0.00008970714, 9.999064, 10.000126 
1.7750646e+3, 1.844167e+2, -1279925.6, -1237500.9, -5679.9224, 0.025338985, -0.24688224, -1236753.6, -104058.98, 0.000000028818846, 9.999067, 9.999655 
1.7750809e+3, 1.9441698e+2, -1054519.6, -1050692.5, 41604.48, -0.014068133, -0.2411049, -1010957.56, 23732.799, 0.0, 9.9998455, 9.999878 
1.7750967e+3, 2.0441654e+2, -984749.56, -1127754.4, -55545.33, 0.0053585186, -0.1965174, -965709.8, -29014.541, 0.0, 10.000332, 9.998449 
1.7751119e+3, 2.1441486e+2, -857864.6, -1001958.9, -29275.955, 0.12109874, -0.25670573, -852143.75, -13428.645, 0.0, 10.000499, 9.998545 
1.7751269e+3, 2.2441396e+2, -689069.4, -770521.75, 13227.028, 0.17780176, -0.23456402, -686975.25, 53748.68, 0.0, 10.000518, 9.999473 
1.7751423e+3, 2.3441398e+2, -562449.2, -619268.4, 44405.08, 0.18282992, -0.24931271, -538143.4, 104575.94, 0.0, 10.000563, 9.999802 
1.7751566e+3, 2.4441305e+2, -592705.56, -763498.6, 2745.7734, 0.13127524, -0.2408367, -592661.44, -47934.49, 0.0, 10.000443, 9.99821 
1.77517e+3, 2.544109e+2, -483483.16, -647150.0, 523.8814, 0.006156245, -0.32200912, -483481.5, -36731.547, 0.0, 10.000487, 9.998302 
1.7751852e+3, 2.6440957e+2, -351861.78, -531688.75, 52857.684, -0.041169856, -0.2777547, -337475.84, 11289.02, 0.00000032366296, 10.000707, 9.998317 
1.7752026e+3, 2.7440915e+2, -138145.39, -347253.7, 77138.61, 0.027438039, -0.21191442, -112769.04, 138001.72, 0.00002512301, 10.001399, 9.998556 
1.7752191e+3, 2.8440842e+2, -45378.11, -325121.88, -25633.037, 0.08287429, -0.10104905, -43048.74, 109730.41, 0.00020101898, 10.00163, 9.997961 
1.7752342e+3, 2.944072e+2, 38874.152, -214861.64, -19037.537, 0.13531147, -0.09421338, 40294.566, 95086.44, 0.0007432089, 10.001479, 9.998097 
1.7752483e+3, 3.0440384e+2, 46398.38, -331019.75, 52422.316, -0.021207543, -0.1650475, 53544.39, 53544.39, 0.0017748394, 10.001797, 9.996833 
1.775268e+3, 3.1440333e+2, 202078.95, -99441.305, 84357.08, 0.1389898, 0.016245063, 224075.1, 224075.1, 0.0031987038, 10.002215, 9.998172 
1.7849694e+3, 1.2440186e+2, -2108027.8, -1600737.0, -80818.086, 0.06295969, -0.17662479, -1588172.8, 132671.08, 0.08696164, 9.995848, 10.002824 
1.7849894e+3, 1.3440317e+2, -1859084.5, -1785051.1, 38609.07, 0.43483105, -0.07104957, -1768580.5, -145753.72, 0.057701517, 9.998579, 9.999469 
1.7849983e+3, 1.443999e+2, -1671410.5, -1643351.0, 34738.45, -0.28862903, -0.3278635, -1619916.3, -95057.766, 0.030258754, 9.999122, 9.999545 
1.7850178e+3, 1.5440133e+2, -1555005.3, -1463588.8, 18567.896, 0.08824667, -0.23772523, -1459961.4, -33112.91, 0.0109521225, 9.998959, 10.000168 
1.7850345e+3, 1.6440244e+2, -1457835.1, -1431580.0, 13254.168, 0.2014923, -0.11238973, -1426052.6, -97213.68, 0.0020959692, 9.999227, 9.999586 
1.7850484e+3, 1.7440122e+2, -1200013.9, -1241079.3, -665.103, 0.040680446, -0.24104714, -1200003.0, 30845.463, 0.000105867584, 10.000287, 9.999694 
1.7850639e+3, 1.8440042e+2, -1092838.6, -1141242.5, 54661.918, -0.0027509618, -0.27957913, -1057260.5, 75593.836, 0.0000000562377, 10.00032, 9.999718 
1.7850813e+3, 1.9440071e+2, -1114489.6, -1065549.6, 30561.756, 0.07127192, -0.2856759, -1050868.6, -16018.913, 0.0, 9.999362, 10.0000105 
1.7850976e+3, 2.0440072e+2, -1078259.5, -1093906.1, -20587.947, 0.11494687, -0.2374401, -1064058.6, -127209.29, 0.0, 9.99935, 9.999155 
1.7851123e+3, 2.1439998e+2, -766736.7, -874515.4, -938.51263, 0.1166796, -0.2765318, -766728.5, 72129.43, 0.0, 10.000759, 9.999298 
1.7851274e+3, 2.243995e+2, -580488.44, -742237.0, 38388.887, 0.14418755, -0.23998283, -571839.8, 169023.2, 0.0, 10.001382, 9.99925 
1.785143e+3, 2.3439936e+2, -513494.8, -628320.56, -17814.578, 0.20141684, -0.23803198, -510794.5, 132068.38, 0.0, 10.001058, 9.999502 
1.7851578e+3, 2.4439852e+2, -508214.66, -731919.94, -28775.139, 0.17752571, -0.19865549, -504572.6, 40298.94, 0.0, 10.001081, 9.998109 
1.7851712e+3, 2.543967e+2, -327286.97, -582419.4, -30409.63, 0.028188026, -0.23724777, -323712.47, 123179.04, 0.0, 10.001622, 9.998189 
1.7851868e+3, 2.6439512e+2, -185816.94, -477571.97, 63300.125, 0.00992911, -0.20159473, -172675.1, 176233.14, 0.00000018370703, 10.001926, 9.99812 
1.7852052e+3, 2.7439353e+2, -69774.31, -349285.28, 32292.092, 0.1338006, -0.22707435, -66092.09, 184831.64, 0.000020759246, 10.0019655, 9.9983015 
1.7852218e+3, 2.8439206e+2, 55787.66, -303697.97, -36631.73, 0.16331829, -0.16363725, 59482.473, 212421.2, 0.00019262578, 10.00246, 9.997696 
1.7852362e+3, 2.943908e+2, 333471.25, -107577.8, -101601.73, 0.08030816, -0.12629546, 355751.13, 410703.44, 0.00073903677, 10.003652, 9.997786 
1.7852505e+3, 3.043876e+2, 306163.7, -192710.02, 16220.568, -0.055639148, -0.16774674, 306690.53, 306690.53, 0.0017591042, 10.00354, 9.996936 
1.7852715e+3, 3.1438684e+2, 114139.37, -127584.195, 75583.766, 0.31435558, -0.0035900157, 135827.5, 135827.5, 0.003118364, 10.001501, 9.998347 
1.794966e+3, 1.24386325e+2, -2017858.6, -1471438.5, -198324.2, 0.04059299, -0.21984306, -1407044.9, 313952.28, 0.09190124, 9.99604, 10.003739 
1.7949854e+3, 1.3438754e+2, -1835599.1, -1774359.6, 118000.81, 0.13466707, -0.08943966, -1683070.5, -60091.445, 0.06119029, 9.998706, 9.999499 
1.7950007e+3, 1.4438368e+2, -1648098.3, -1604833.9, 122.53712, -0.0041516265, -0.43523034, -1604833.5, -79818.07, 0.03230053, 9.999175, 9.99978 
1.7950185e+3, 1.5438616e+2, -1566930.8, -1482948.3, 27390.67, 0.20572974, -0.23227145, -1474804.6, -47810.082, 0.011841973, 9.998947, 10.000036 
1.7950335e+3, 1.6438746e+2, -1447633.8, -1432759.4, 29114.7, 0.11526496, -0.0709839, -1410147.0, -81163.92, 0.0023264778, 9.9993105, 9.999546 
1.795048e+3, 1.7438658e+2, -1192261.6, -1227486.5, 48725.93, -0.0700556, -0.17297345, -1158062.8, 72927.69, 0.00012352158, 10.000288, 9.999796 
1.7950639e+3, 1.8438566e+2, -1115121.4, -1189539.0, 2260.5356, -0.08009172, -0.21756682, -1115052.9, 17945.613, 0.000000085167756, 10.000336, 9.999374 
1.795081e+3, 1.9438468e+2, -1160921.6, -1139692.1, 4133.149, 0.0764476, -0.30692294, -1138915.9, -103908.81, 0.0, 9.999269, 9.999544 
1.7950971e+3, 2.043845e+2, -1032329.44, -960295.25, 7552.6274, 0.10935728, -0.29745698, -959511.9, -22504.494, 0.0, 9.999177, 10.00016 
1.7951125e+3, 2.1438524e+2, -720532.4, -727525.94, 65940.664, 0.046531737, -0.30196416, -657995.8, 181002.42, 0.0, 10.000531, 10.000424 
1.7951277e+3, 2.2438538e+2, -690715.06, -894488.56, 11794.229, 0.007431378, -0.22160023, -690034.7, 50963.69, 0.0, 10.001055, 9.998363 
1.7951423e+3, 2.3438488e+2, -626785.8, -797617.94, -13235.912, 0.004255212, -0.15639743, -625766.4, 17242.854, 0.0, 10.000777, 9.998471 
1.7951573e+3, 2.4438411e+2, -542079.56, -727022.06, -23400.13, 0.0023879965, -0.06198879, -539164.75, 5855.0513, 0.0, 10.000757, 9.9983 
1.7951731e+3, 2.543829e+2, -345163.22, -557189.5, 7345.167, 0.03493593, -0.07006034, -344909.06, 102122.26, 0.0, 10.001362, 9.998483 
1.7951898e+3, 2.6438054e+2, -264841.34, -569886.5, 48975.867, 0.084610954, -0.10232671, -257171.0, 91882.22, 0.00000013255313, 10.001614, 9.99764 
1.7952073e+3, 2.7437684e+2, -146968.94, -435233.97, 52747.15, 0.11736864, -0.29916182, -137620.38, 113467.195, 0.0000188634, 10.001662, 9.9978485 
1.7952237e+3, 2.8437424e+2, -41567.668, -423239.63, -13460.507, 0.06344886, -0.2964851, -41093.543, 112019.56, 0.00018772876, 10.002097, 9.997055 
1.7952389e+3, 2.9437298e+2, 226718.28, -219618.47, -22123.2, -0.038435604, -0.19649437, 227812.16, 282940.53, 0.00073121197, 10.003198, 9.997225 
1.7952536e+3, 3.043704e+2, 315778.25, -59810.12, -71410.19, -0.13280225, -0.19988123, 328897.16, 328897.16, 0.0017173345, 10.0030365, 9.998101 
1.7952728e+3, 3.1436914e+2, 138967.1, 87013.66, 78008.11, 0.2434313, -0.23768939, 195209.92, 195209.92, 0.002973509, 10.000849, 10.00011 
1.8049636e+3, 1.24369755e+2, -1875546.0, -1424303.6, -122389.25, 0.16328003, -0.28801757, -1393245.9, 327914.6, 0.097200245, 9.997128, 10.003556 
1.8049836e+3, 1.3437152e+2, -1841825.3, -1777819.0, 108738.234, 0.10209861, -0.08805438, -1696472.3, -73334.85, 0.06490086, 9.998685, 9.999478 
1.8050016e+3, 1.4436807e+2, -1636801.5, -1598425.6, -53238.1, 0.18734941, -0.39950666, -1561023.1, -35854.063, 0.034457777, 9.999226, 9.9998045 
1.8050177e+3, 1.5437025e+2, -1519583.5, -1463365.1, -54819.32, 0.24035043, -0.22563267, -1429868.5, -2718.8276, 0.0127833225, 9.999273, 10.000015 
1.8050322e+3, 1.6437122e+2, -1482723.9, -1442193.9, 15625.282, 0.08737059, -0.09950145, -1436869.5, -107728.43, 0.0025744103, 9.999038, 9.999617 
1.805048e+3, 1.7437056e+2, -1397171.5, -1310397.0, 5494.8823, -0.010459481, -0.1902391, -1310050.4, -78903.27, 0.00014305822, 9.998817, 9.999928 
1.8050644e+3, 1.8436983e+2, -1288995.9, -1274986.4, -9057.308, 0.014799167, -0.22160311, -1270541.1, -137387.45, 0.00000010953618, 9.999145, 9.999365 
1.8050808e+3, 1.9436891e+2, -1003406.94, -1063660.6, -11211.431, 0.07967298, -0.30445886, -1001388.44, 33773.645, 0.0, 10.00036, 9.99954 
1.8050967e+3, 2.0436886e+2, -812649.9, -853945.3, 16910.434, 0.07493878, -0.2813543, -806608.8, 130552.67, 0.0, 10.000674, 10.000186 
1.8051124e+3, 2.1436991e+2, -798291.2, -760351.25, -34715.11, 0.018654468, -0.25614947, -739761.2, 99388.8, 0.0, 9.999975, 10.000473 
1.8051279e+3, 2.2437009e+2, -844109.44, -953240.4, -67967.46, -0.0020178237, -0.18135872, -811514.3, -70364.36, 0.0, 9.999947, 9.998482 
1.805143e+3, 2.3436917e+2, -593465.75, -769503.0, -44352.938, -0.0022171738, -0.16542326, -582922.4, 60242.18, 0.0, 10.000962, 9.998566 
1.8051587e+3, 2.443683e+2, -397056.38, -657267.75, 16803.701, 0.024461532, -0.08835829, -395975.72, 149200.34, 0.0, 10.001734, 9.998332 
1.8051752e+3, 2.5436723e+2, -236218.89, -509247.72, -5136.774, 0.0930557, -0.07509441, -236122.28, 211063.73, 0.0, 10.002102, 9.998486 
1.8051921e+3, 2.6436505e+2, -170180.84, -520597.44, 56938.535, 0.13850679, -0.09111021, -161161.17, 188045.31, 0.00000007008213, 10.002269, 9.99765 
1.8052089e+3, 2.743614e+2, -59503.99, -402819.22, 46632.996, 0.09699031, -0.2712889, -53282.504, 197957.86, 0.000018211349, 10.002299, 9.997767 
1.8052256e+3, 2.8435874e+2, -9695.248, -385787.56, 79109.17, 0.05968316, -0.27780533, 6267.4644, 159533.39, 0.00018396454, 10.002206, 9.997263 
1.8052424e+3, 2.9435727e+2, 95926.89, -263102.75, 81773.46, 0.06505884, -0.21499942, 113674.51, 168956.42, 0.0007180549, 10.002191, 9.997423 
1.8052575e+3, 3.0435485e+2, 229175.4, -112982.85, 21330.14, 0.008812703, -0.21040832, 230500.0, 230500.0, 0.0016645552, 10.002512, 9.997974 
1.8052745e+3, 3.143531e+2, 411253.7, 170303.17, -43112.066, 0.23517361, -0.25720873, 418735.2, 418735.2, 0.002832551, 10.002827, 9.999781 
1.8149611e+3, 1.2435345e+2, -1967770.3, -1640593.3, 80378.055, 0.12307889, -0.24955885, -1621913.3, 99407.79, 0.10291468, 9.997293, 10.001851 
1.8149838e+3, 1.343549e+2, -1855381.9, -1805218.6, 170963.08, 0.21605726, -0.0669519, -1657507.1, -34203.867, 0.06887483, 9.998683, 9.999293 
1.8150006e+3, 1.4435273e+2, -1619613.8, -1580219.5, -75734.29, 0.10022191, -0.24039881, -1521662.8, 3659.7932, 0.036753505, 9.999296, 9.999898 
1.8150154e+3, 1.5435341e+2, -1499036.0, -1432749.9, -39826.63, 0.043097205, -0.23280622, -1414079.6, 13235.99, 0.01378539, 9.999315, 10.000212 
1.8150303e+3, 1.6435367e+2, -1454309.0, -1402695.9, -12982.605, -0.06249268, -0.20323686, -1399614.3, -70301.23, 0.002842686, 9.99912, 9.999847 
1.8150482e+3, 1.7435321e+2, -1390134.8, -1298817.9, 11097.953, 0.08900874, -0.2869606, -1297488.5, -66170.516, 0.00016504708, 9.99882, 10.000009 
1.815065e+3, 1.843531e+2, -1265560.1, -1226759.1, 14352.49, 0.12811306, -0.2752939, -1222027.3, -88708.33, 0.00000012908751, 9.999143, 9.999699 
1.8150802e+3, 1.9435343e+2, -984950.25, -1009597.94, 47321.727, -0.04779654, -0.2715193, -948374.0, 86940.41, 0.0, 10.000285, 9.99995 
1.8150954e+3, 2.0435375e+2, -906619.44, -1003826.4, -20065.504, -0.14593054, -0.19166319, -902640.4, 34671.59, 0.0, 10.000485, 9.999244 
1.8151115e+3, 2.1435392e+2, -907428.06, -931188.06, -43633.664, -0.09434452, -0.15109265, -874086.06, -34772.39, 0.0, 9.999735, 9.999414 
1.8151279e+3, 2.2435354e+2, -822417.44, -832676.06, -47435.7, -0.038866732, -0.12300058, -779834.56, -38516.05, 0.0, 9.999621, 9.999465 
1.8151446e+3, 2.343524e+2, -555790.0, -627901.8, 11445.757, 0.03283244, -0.24054874, -554016.9, 89310.96, 0.0, 10.000689, 9.99967 
1.815161e+3, 2.4435109e+2, -462694.7, -717329.75, 19661.137, 0.059392847, -0.251769, -461185.53, 84154.93, 0.0, 10.001407, 9.998071 
1.8151772e+3, 2.5434962e+2, -291682.34, -562231.4, 28122.389, 0.06030438, -0.2575384, -288790.06, 158566.45, 0.0, 10.001841, 9.998238 
1.8151936e+3, 2.6434842e+2, -205500.02, -515882.88, 43288.742, 0.02024538, -0.17517295, -199575.67, 149794.13, 0.0000000874347, 10.001926, 9.997849 
1.8152097e+3, 2.743472e+2, -92299.96, -389386.1, 70994.734, -0.0788811, -0.14166565, -76206.17, 175176.38, 0.00001648955, 10.001965, 9.998012 
1.8152271e+3, 2.843456e+2, -7428.353, -303961.22, 58067.273, -0.05249079, -0.085988335, 3536.9414, 156934.16, 0.00017264318, 10.001861, 9.997996 
1.815246e+3, 2.9434362e+2, 112623.195, -156104.78, 107960.45, 0.18065433, -0.16952585, 150622.6, 206036.28, 0.000683164, 10.001872, 9.99831 
1.8152617e+3, 3.0434084e+2, 44966.977, -389970.22, 11870.111, 0.12696739, -0.1707609, 45290.688, 45290.688, 0.0015935485, 10.002071, 9.996281 
1.8152738e+3, 3.1433636e+2, 165348.8, -120736.66, 17111.658, -0.17121816, -0.31964862, 166368.66, 166368.66, 0.0027236447, 10.0019655, 9.998149 
1.8249603e+3, 1.2433657e+2, -1804740.0, -1721550.3, 132372.08, 0.22845244, -0.11237637, -1624391.8, 97094.52, 0.10907774, 9.9991255, 10.000386 
1.8249817e+3, 1.3433734e+2, -1844411.1, -1729785.1, 94345.76, 0.16628315, -0.063375704, -1676708.4, -53231.984, 0.07313931, 9.998403, 9.999961 
1.8249997e+3, 1.4433557e+2, -1841930.4, -1625294.3, -48911.082, 0.18549459, -0.26046696, -1614763.4, -89271.56, 0.039204508, 9.997536, 10.000426 
1.8250145e+3, 1.5433668e+2, -1612503.5, -1433930.9, -27449.674, 0.08646723, -0.25432885, -1429806.6, -2327.231, 0.014855209, 9.998338, 10.000662 
1.8250296e+3, 1.6433723e+2, -1461262.4, -1396030.0, 27865.21, -0.026184915, -0.22182098, -1385747.6, -56273.46, 0.0031336718, 9.999028, 9.99993 
1.8250476e+3, 1.7433739e+2, -1257971.6, -1224767.8, 13919.922, 0.117335096, -0.25224537, -1219704.3, 11770.384, 0.00019006866, 9.999695, 10.0000925 
1.8250649e+3, 1.8433775e+2, -1157470.0, -1146682.6, 52101.777, 0.17358416, -0.20719458, -1099696.1, 33775.395, 0.00000015151502, 9.999766, 9.999945 
1.8250804e+3, 1.9433823e+2, -1105618.1, -1033672.7, 41571.2, 0.00016983003, -0.21463625, -1014670.9, 20794.18, 0.0, 9.999344, 10.000226 
1.8250959e+3, 2.043383e+2, -1086006.9, -1126395.0, 5189.148, -0.088715434, -0.15914011, -1085350.9, -147885.86, 0.0, 9.999418, 9.998896 
1.8251118e+3, 2.1433765e+2, -866234.9, -949709.56, -1071.0768, -0.050914153, -0.16679443, -866221.2, -26745.98, 0.0, 10.000199, 9.999041 
1.8251283e+3, 2.2433709e+2, -653832.94, -721569.5, 48638.97, 0.01127404, -0.15215218, -628432.25, 113048.914, 0.0, 10.000618, 9.999766 
1.8251456e+3, 2.3433657e+2, -548031.0, -579205.5, 23211.217, 0.08341673, -0.24541424, -535658.94, 107823.42, 0.0, 10.000537, 10.000087 
1.8251626e+3, 2.4433559e+2, -526140.44, -728950.1, 58109.76, 0.11186128, -0.25588474, -510670.63, 34819.934, 0.0, 10.00088, 9.99824 
1.8251792e+3, 2.54334e+2, -292999.0, -546988.3, 64410.36, 0.08860153, -0.28742573, -277598.66, 169909.1, 0.0, 10.001752, 9.998379 
1.8251958e+3, 2.6433295e+2, -163453.27, -484042.9, 95871.47, 0.06313966, -0.20358405, -136970.77, 212549.44, 0.00000011582431, 10.002181, 9.99794 
1.8252124e+3, 2.7433217e+2, -66426.695, -374772.22, 61623.703, -0.0012932497, -0.126498, -54567.164, 196962.98, 0.000015405387, 10.002125, 9.998043 
1.8252297e+3, 2.8433082e+2, 51884.645, -236567.25, 75235.375, 0.02814413, -0.06505849, 70328.56, 223871.7, 0.00016033741, 10.002121, 9.998327 
1.825248e+3, 2.9432893e+2, 183520.16, -96147.54, 37741.29, 0.17441839, -0.15855552, 188523.83, 244081.7, 0.00064014964, 10.00224, 9.998552 
1.8252644e+3, 3.0432644e+2, 140339.44, -356479.8, 35737.438, 0.16900043, -0.1376116, 142896.95, 142896.95, 0.0015227182, 10.002765, 9.996186 
1.8252778e+3, 3.1432235e+2, 401786.22, -55393.125, 16205.434, -0.032969095, -0.21778996, 402359.94, 402359.94, 0.0026622775, 10.003729, 9.997805 
1.83496e+3, 1.2431821e+2, -1869166.9, -1892833.8, 86422.64, 0.18691182, 0.03612064, -1793771.4, -72106.37, 0.11569034, 9.999271, 9.99909 
1.8349768e+3, 1.3431887e+2, -1708771.8, -1483691.5, 48652.184, -0.19911897, -0.07060966, -1473625.3, 150030.98, 0.07769921, 9.998489, 10.001696 
1.8349983e+3, 1.4431666e+2, -1761643.5, -1489637.5, -56466.234, 0.2355034, -0.45531332, -1478381.4, 47294.32, 0.04181763, 9.997656, 10.001312 
1.8350147e+3, 1.5431999e+2, -1564059.8, -1349503.6, 17638.258, 0.2204413, -0.29161257, -1348063.4, 79578.42, 0.015997248, 9.998386, 10.00123 
1.8350297e+3, 1.6432177e+2, -1448699.5, -1392207.3, 33101.72, 0.03559124, -0.1617366, -1376938.3, -47312.582, 0.0034491862, 9.999122, 9.999913 
1.835046e+3, 1.7432281e+2, -1247967.3, -1214381.0, 48929.465, -0.054523468, -0.107690305, -1179443.0, 52176.79, 0.00021871291, 9.999726, 10.000153 
1.8350631e+3, 1.8432346e+2, -1152225.3, -1131752.4, 19207.09, -0.026663596, -0.045540262, -1120224.3, 13390.802, 0.00000018976193, 9.999754, 10.0000515 
1.8350808e+3, 1.9432308e+2, -1115705.6, -1035502.7, 36715.508, 0.079574525, -0.1449337, -1021233.6, 14382.77, 0.0, 9.999258, 10.000256 
1.8350972e+3, 2.0432228e+2, -1089076.0, -1094248.9, 14209.433, 0.08078635, -0.1903998, -1077219.5, -139596.6, 0.0, 9.99925, 9.999199 
1.8351127e+3, 2.1432105e+2, -874228.94, -915894.2, 39299.62, 0.0026434879, -0.28866363, -850581.7, -10946.209, 0.0, 9.999981, 9.999377 
1.835129e+3, 2.243207e+2, -718424.44, -786659.2, 33565.824, -0.022088319, -0.2548708, -704681.0, 36957.71, 0.0, 10.000319, 9.999468 
1.8351458e+3, 2.3432139e+2, -602758.3, -641338.2, 36021.965, 0.022005077, -0.19621427, -581186.5, 62444.48, 0.0, 10.000313, 9.999775 
1.835163e+3, 2.443214e+2, -531204.44, -665126.4, 70699.22, 0.034182522, -0.1171475, -500789.06, 44840.863, 0.0, 10.000556, 9.99884 
1.8351807e+3, 2.543204e+2, -299675.66, -483407.06, 114811.37, 0.035865065, -0.15299393, -244500.7, 203138.64, 0.0, 10.001425, 9.998974 
1.8351986e+3, 2.6431882e+2, -231413.38, -552024.75, 80093.38, 0.073159836, -0.13568021, -212518.44, 137137.38, 0.000000090536304, 10.001854, 9.997638 
1.8352164e+3, 2.7431628e+2, -118686.94, -427838.94, 82351.52, 0.15302865, -0.20848571, -98118.67, 153564.53, 0.00001528185, 10.001882, 9.997796 
1.835233e+3, 2.8431424e+2, -12244.103, -295292.34, 53334.684, 0.10032129, -0.19777521, -2527.8013, 151176.77, 0.00015301355, 10.001793, 9.998084 
1.8352477e+3, 2.9431298e+2, 112787.72, -152470.77, 69560.04, -0.11624043, -0.2071205, 129922.01, 185637.92, 0.0006077412, 10.00186, 9.998341 
1.8352652e+3, 3.0431172e+2, 121773.555, -272715.28, 47099.895, -0.07624479, -0.08926477, 127319.08, 127319.08, 0.0014712458, 10.002247, 9.997006 
1.8352836e+3, 3.1431115e+2, 331939.16, -33332.742, 84139.71, 0.11138447, 0.06944251, 350388.72, 350388.72, 0.0026387856, 10.003043, 9.998266 
1.8449602e+3, 1.2429599e+2, -2031060.3, -2072522.5, 83041.59, 0.328415, -0.21101913, -1966201.1, -244323.56, 0.12272786, 9.998636, 9.998161 
1.8449755e+3, 1.3430107e+2, -1626928.8, -1246406.5, 44149.47, -0.14951636, -0.054394063, -1241351.4, 382476.97, 0.08254445, 9.998168, 10.00361 
1.8449971e+3, 1.4429964e+2, -1632956.6, -1434500.0, -21373.736, 0.30870986, -0.46035594, -1432224.1, 93618.234, 0.04459436, 9.998536, 10.00129 
1.8450132e+3, 1.543033e+2, -1493238.1, -1321924.3, -29610.203, 0.2272206, -0.25630164, -1316950.8, 110856.164, 0.017215712, 9.998896, 10.001177 
1.8450287e+3, 1.6430537e+2, -1476202.0, -1373364.4, -1870.9319, 0.046528287, -0.106884874, -1373330.4, -43541.953, 0.0037916328, 9.998811, 10.000198 
1.8450452e+3, 1.7430635e+2, -1368885.1, -1235562.1, -1220.1776, -0.048603658, -0.088331774, -1235550.9, -3768.2415, 0.00025177147, 9.998755, 10.000475 
1.8450625e+3, 1.84307e+2, -1286810.3, -1199504.3, -6251.9863, -0.0046157613, -0.04145716, -1199058.9, -65280.773, 0.00000025167606, 9.998844, 10.000021 
1.8450804e+3, 1.9430679e+2, -1096707.8, -1033711.0, -27245.736, 0.1251173, -0.11824816, -1023562.3, 12216.907, 0.0, 9.999413, 10.000191 
1.8450974e+3, 2.0430623e+2, -967741.2, -983558.94, 1081.2739, 0.14410773, -0.15948574, -967667.6, -29884.523, 0.0, 9.999865, 9.999669 
1.8451132e+3, 2.143053e+2, -770911.3, -810722.7, 7590.496, 0.036477804, -0.27194342, -769513.2, 70276.336, 0.0, 10.0004635, 9.999877 
1.8451296e+3, 2.2430493e+2, -657388.06, -829955.94, 17437.451, 0.0015511067, -0.23603211, -655643.75, 86148.65, 0.0, 10.001061, 9.998801 
1.8451466e+3, 2.3430505e+2, -448541.6, -653903.06, -42814.367, 0.02107894, -0.16001664, -439973.06, 203820.06, 0.0, 10.0017395, 9.998988 
1.845164e+3, 2.4430472e+2, -355693.2, -554024.5, -23777.242, 0.048467327, -0.08883514, -352882.44, 192914.19, 0.0, 10.001676, 9.999044 
1.845182e+3, 2.5430372e+2, -384823.63, -497674.2, -47562.84, 0.07753256, -0.14672236, -367451.66, 80353.14, 0.0, 10.000723, 9.999209 
1.8452005e+3, 2.6430228e+2, -371406.97, -577279.8, -11232.484, 0.14223835, -0.14541289, -370795.9, -20977.28, 0.00000009817215, 10.000716, 9.998011 
1.845219e+3, 2.743002e+2, -78332.97, -368833.78, 4087.8503, 0.22527595, -0.20557192, -78275.45, 173565.19, 0.000013983738, 10.001995, 9.998142 
1.8452355e+3, 2.8429818e+2, 57253.125, -297753.16, -3473.3933, 0.16137736, -0.18912643, 57287.105, 211148.86, 0.00014297613, 10.002424, 9.997766 
1.8452494e+3, 2.942966e+2, 77358.83, -204865.83, -59138.73, -0.11147822, -0.19151166, 89250.02, 145128.66, 0.0005747027, 10.001765, 9.99803 
1.8452673e+3, 3.0429485e+2, 161770.83, -174253.86, 22798.123, -0.047035996, -0.14116351, 163310.55, 163310.55, 0.0014161514, 10.002169, 9.997727 
1.8452875e+3, 3.142948e+2, 518191.9, 134912.94, -81723.9, 0.18529285, 0.006399002, 534889.9, 534889.9, 0.0025925355, 10.003955, 9.99899 
1.8549576e+3, 1.24272294e+2, -2045483.0, -2175356.8, -125929.984, 0.1229665, -0.63701767, -1968733.1, -246632.53, 0.13014582, 9.998893, 9.997359 
1.8549772e+3, 1.3428387e+2, -1505602.0, -1004742.9, 67463.02, 0.16557638, -0.038048197, -995815.1, 628178.25, 0.08765755, 9.998182, 10.005445 
1.8549955e+3, 1.4428441e+2, -1671268.0, -1541747.1, -20954.148, 0.23853971, -0.29127017, -1538441.5, -12448.946, 0.04753598, 9.9986725, 10.0004635 
1.85501e+3, 1.5428658e+2, -1530790.9, -1418331.1, -6071.368, -0.038138747, -0.16003118, -1418004.4, 9970.881, 0.01851746, 9.998976, 10.00047 
1.8550256e+3, 1.6428801e+2, -1427187.1, -1289508.6, -29001.414, -0.18383932, -0.06564663, -1283648.9, 46314.43, 0.0041650403, 9.998887, 10.000735 
1.8550447e+3, 1.7428799e+2, -1334539.8, -1162120.0, 10739.566, -0.001811052, -0.20118514, -1161453.8, 70509.734, 0.00029041685, 9.998738, 10.000991 
1.8550627e+3, 1.8428835e+2, -1296446.9, -1218836.3, -6173.839, 0.07582263, -0.20355082, -1218348.3, -84387.07, 0.0000003514084, 9.998842, 9.999891 
1.855079e+3, 1.9428942e+2, -1121696.5, -1061841.0, 5056.528, 0.004468806, -0.1358336, -1061416.9, -25463.387, 0.0, 9.999307, 10.0000515 
1.8550956e+3, 2.0429014e+2, -959101.5, -920777.5, 6245.2075, -0.05745016, -0.06529561, -919785.44, 18160.219, 0.0, 9.999673, 10.000192 
1.8551128e+3, 2.1429032e+2, -764097.2, -743570.3, 44450.063, -0.07050962, -0.12695672, -708214.2, 131724.3, 0.0, 10.000238, 10.000444 
1.8551302e+3, 2.2428963e+2, -765381.4, -988833.9, 27835.09, -0.07343955, -0.10914312, -761966.25, -20022.295, 0.0, 10.00077, 9.997856 
1.8551478e+3, 2.3428766e+2, -563397.8, -833648.56, 937.02765, -0.06012653, -0.13282594, -563394.56, 80573.195, 0.0, 10.00148, 9.997884 
1.8551654e+3, 2.442858e+2, -428503.34, -627272.75, -67095.63, -0.01799743, -0.13673007, -407974.97, 138012.56, 0.0, 10.00134, 9.9987 
1.8551831e+3, 2.5428408e+2, -435930.38, -543572.56, -63826.81, 0.08217445, -0.24918324, -406261.53, 41740.914, 0.0, 10.000474, 9.999007 
1.8552011e+3, 2.6428336e+2, -349316.44, -461519.63, 13373.967, 0.12124136, -0.21023819, -347744.38, 2263.6284, 0.00000008466028, 10.000419, 9.998948 
1.8552198e+3, 2.742837e+2, -54781.047, -245828.28, 75591.12, 0.082503125, -0.12787889, -28490.143, 223513.53, 0.000011476472, 10.001687, 9.999132 
1.855237e+3, 2.8428262e+2, -46658.715, -424656.22, -44708.86, 0.033544812, -0.0404573, -41442.613, 112572.69, 0.00012753624, 10.002036, 9.9970875 
1.8552524e+3, 2.942798e+2, -11101.05, -310582.97, -58763.535, -0.012812219, -0.09967859, 16.648882, 56062.39, 0.0005324824, 10.001436, 9.997462 
1.8552706e+3, 3.0427608e+2, 123368.35, -149565.92, 59229.145, 0.007613156, -0.241245, 135667.38, 135667.38, 0.0013398622, 10.001722, 9.998109 
1.8552902e+3, 3.1427535e+2, 462234.22, 223060.8, 6994.1084, -0.013289374, -0.20306225, 462438.56, 462438.56, 0.0024846024, 10.003115, 9.999981 
1.8649559e+3, 1.2425516e+2, -2163734.0, -2248865.8, -77889.07, 0.10228543, -0.6378382, -2117538.8, -395269.84, 0.1378835, 9.998206, 9.997153 
1.8649757e+3, 1.3426702e+2, -1433955.3, -965574.7, 89723.445, 0.18581244, -0.03397783, -948975.44, 675184.9, 0.09301642, 9.99872, 10.005493 
1.8649936e+3, 1.4426845e+2, -1725370.1, -1573102.1, 12340.161, 0.21201904, -0.19479124, -1572108.6, -45957.273, 0.050644647, 9.998338, 10.000404 
1.8650085e+3, 1.5426992e+2, -1588623.3, -1448957.8, 36726.457, -0.03455148, -0.13271306, -1439889.0, -11748.104, 0.01991141, 9.998602, 10.00044 
1.8650247e+3, 1.6427104e+2, -1471770.9, -1319154.8, 41457.434, -0.1236586, -0.06281617, -1308620.3, 21511.637, 0.0045744055, 9.998606, 10.000662 
1.8650436e+3, 1.7427106e+2, -1369014.8, -1180159.4, 5807.6567, 0.046579517, -0.19403538, -1179980.9, 52150.33, 0.0003360051, 9.998516, 10.000958 
1.8650617e+3, 1.8427154e+2, -1297466.6, -1188668.8, 42914.535, 0.11525126, -0.1969368, -1173779.1, -39652.242, 0.00000050835786, 9.998695, 10.000173 
1.8650784e+3, 1.9427285e+2, -1058821.9, -998423.6, 57388.85, 0.010189416, -0.13714124, -963773.1, 72342.26, 0.0, 9.999583, 10.000362 
1.8650956e+3, 2.042737e+2, -890837.8, -922052.8, 78914.07, -0.042899553, -0.05928322, -826002.6, 112103.61, 0.0, 10.000275, 9.999898 
1.8651135e+3, 2.1427366e+2, -694331.44, -751662.75, 20286.686, -0.048092738, -0.107230045, -687879.1, 152223.63, 0.0, 10.000873, 10.00009 
1.8651314e+3, 2.242728e+2, -705549.94, -930269.3, 23941.24, -0.029500788, -0.10180183, -703027.56, 39082.656, 0.0, 10.001066, 9.998119 
1.8651494e+3, 2.3427083e+2, -636479.9, -834016.7, 56591.758, -0.004927765, -0.14949639, -621415.8, 22716.205, 0.0, 10.000845, 9.998193 
1.8651672e+3, 2.44269e+2, -501210.47, -698459.8, 59062.383, 0.045134313, -0.15243454, -484877.8, 61273.434, 0.0, 10.000985, 9.99839 
1.8651843e+3, 2.542672e+2, -299059.56, -519934.38, 24842.527, 0.11030525, -0.23212335, -296299.94, 151868.33, 0.0, 10.0015955, 9.998633 
1.8652023e+3, 2.642662e+2, -148488.03, -371348.72, 117817.98, 0.13940842, -0.19788596, -97752.42, 252424.89, 0.000000065173005, 10.001825, 9.998892 
1.8652214e+3, 2.7426618e+2, -68386.83, -261100.84, 61078.344, 0.10202217, -0.14450188, -50659.496, 201516.84, 0.000009433609, 10.001621, 9.999067 
1.8652394e+3, 2.8426528e+2, -59109.89, -404036.63, -44136.383, 0.10855069, -0.04727576, -53551.816, 100633.3, 0.00011541344, 10.001847, 9.997305 
1.865256e+3, 2.9426304e+2, 188886.22, -192481.67, -44474.97, 0.13941818, -0.06549237, 194004.19, 250212.31, 0.0004967766, 10.002719, 9.997649 
1.8652734e+3, 3.0425838e+2, 279860.25, -103783.33, 138306.05, 0.08944236, -0.3014831, 324521.34, 324521.34, 0.0012631787, 10.002912, 9.997846 
1.8652926e+3, 3.1425706e+2, 335832.03, 142641.89, -85399.9, -0.018067595, -0.28882688, 368170.06, 368170.06, 0.0023412816, 10.002276, 9.999837 
1.874955e+3, 1.2424446e+2, -2095995.3, -2131903.5, -295509.75, 0.09335583, -0.2973669, -1817894.8, -95510.86, 0.14588223, 9.998322, 9.997899 
1.8749706e+3, 1.3425048e+2, -1552570.5, -1226183.5, 85266.85, -0.2183173, -0.06786845, -1205250.6, 419078.75, 0.0986057, 9.998779, 10.003514 
1.8749905e+3, 1.4425185e+2, -1662207.9, -1473688.5, -1404.5715, 0.018510917, -0.1692856, -1473678.0, 52639.98, 0.053927336, 9.998449, 10.001057 
1.8750088e+3, 1.5425317e+2, -1537783.6, -1354166.1, 63406.406, 0.0910524, -0.18448158, -1334398.8, 93906.35, 0.021407956, 9.99863, 10.001095 
1.875026e+3, 1.6425441e+2, -1495807.1, -1386966.8, 23828.295, 0.06447647, -0.11572323, -1381978.6, -51684.29, 0.0050250688, 9.998688, 10.000158 
1.8750416e+3, 1.7425549e+2, -1414107.4, -1272505.4, 15716.894, -0.04253008, -0.074080035, -1270781.9, -38495.42, 0.00038988978, 9.998503, 10.00034 
1.8750589e+3, 1.8425635e+2, -1250184.6, -1086494.0, 52441.613, -0.07734232, -0.040089756, -1071134.5, 63143.23, 0.000000733184, 9.998682, 10.000882 
1.8750781e+3, 1.9425699e+2, -1023209.9, -895384.06, 102534.26, 0.005290112, -0.12194804, -838474.2, 197792.06, 0.0, 9.999465, 10.001128 
1.8750969e+3, 2.0425682e+2, -983691.44, -1081889.0, 81628.305, 0.01989349, -0.13818334, -937533.4, 732.56085, 0.0, 10.000124, 9.9988785 
1.8751147e+3, 2.1425548e+2, -811900.0, -941390.2, 55491.605, -0.039543044, -0.19982909, -791373.5, 48907.703, 0.0, 10.000639, 9.9989 
1.8751326e+3, 2.242546e+2, -667017.3, -778851.94, 111.3236, -0.043633357, -0.18812314, -667017.2, 75272.42, 0.0, 10.000746, 9.999318 
1.875151e+3, 2.3425433e+2, -573536.75, -642982.1, 62448.496, 0.04662705, -0.21050327, -536806.8, 107481.58, 0.0, 10.000584, 9.999627 
1.8751685e+3, 2.4425381e+2, -568036.44, -764028.06, 61574.504, 0.072738506, -0.14550371, -550297.2, -4004.5852, 0.0, 10.000664, 9.998102 
1.8751852e+3, 2.5425273e+2, -368712.7, -597557.8, 65389.78, 0.016385447, -0.1150653, -351346.22, 96960.01, 0.0, 10.001314, 9.998236 
1.8752034e+3, 2.642507e+2, -270543.2, -560674.5, 95830.12, 0.024340464, -0.10836335, -241748.39, 108579.44, 0.00000004605578, 10.0015335, 9.997742 
1.8752235e+3, 2.742477e+2, -188718.78, -449806.88, 76768.59, 0.1242425, -0.23512335, -167819.22, 84538.17, 0.000008319171, 10.001351, 9.997907 
1.8752424e+3, 2.8424627e+2, -46649.355, -301061.25, -31251.717, 0.16950414, -0.17141469, -42866.668, 111503.43, 0.00010877433, 10.001513, 9.998178 
1.8752593e+3, 2.9424602e+2, 195334.0, -84525.9, 17791.412, 0.17195074, -0.08922592, 196460.52, 252829.25, 0.00047285456, 10.002324, 9.998578 
1.8752755e+3, 3.0424115e+2, 143911.14, -272349.72, 91468.33, -0.03337031, -0.3460163, 163123.47, 163123.47, 0.0011966277, 10.00244, 9.996908 
1.875296e+3, 3.1423885e+2, 131923.34, -80666.3, -51023.406, 0.008778512, -0.33270076, 143535.17, 143535.17, 0.0021936095, 10.001474, 9.998666 
1.8849537e+3, 1.2423375e+2, -2009651.5, -1840566.6, -208559.31, 0.18970227, -0.050135907, -1700066.0, 22430.178, 0.15411249, 9.997752, 10.000223 
1.884969e+3, 1.342346e+2, -1864969.9, -1599106.6, 151285.92, -0.19574438, -0.13161708, -1530647.5, 93840.43, 0.10442951, 9.997638, 10.001287 
1.884989e+3, 1.4423536e+2, -1676307.4, -1496301.9, 63393.89, 0.038944677, -0.1735054, -1476217.0, 50263.82, 0.057399224, 9.998465, 10.000865 
1.8850079e+3, 1.5423691e+2, -1512116.8, -1344243.6, 30582.264, 0.14006917, -0.15893325, -1338845.9, 89620.65, 0.023018045, 9.998871, 10.001013 
1.8850252e+3, 1.6423814e+2, -1462280.1, -1382791.3, 899.7885, 0.124223374, -0.08337013, -1382781.1, -52325.8, 0.005521801, 9.99896, 10.000056 
1.8850407e+3, 1.7423895e+2, -1303681.9, -1229420.5, 3194.1042, -0.027143467, -0.06279707, -1229283.4, 3164.6685, 0.0004532519, 9.99929, 10.000261 
1.8850581e+3, 1.8423945e+2, -1170209.0, -1077921.9, 77032.59, -0.048844837, -0.048332877, -1034269.9, 100171.336, 0.0000010252129, 9.99936, 10.000606 
1.8850783e+3, 1.9423942e+2, -1040140.56, -931696.1, 27092.402, 0.077788256, -0.17194527, -925304.44, 111131.16, 0.0, 9.999469, 10.000863 
1.8850975e+3, 2.0423906e+2, -1062664.6, -1132485.8, 26025.361, 0.11739313, -0.19081753, -1054031.4, -115593.72, 0.0, 9.999641, 9.998761 
1.8851157e+3, 2.14238e+2, -893298.56, -993670.5, 43332.047, 0.023684539, -0.20825362, -877179.94, -36728.324, 0.0, 10.00013, 9.998792 
1.8851338e+3, 2.2423725e+2, -688086.7, -741823.9, 17075.15, 0.01444003, -0.19566582, -683120.06, 59338.457, 0.0, 10.000426, 9.999704 
1.885152e+3, 2.342368e+2, -536660.3, -582984.25, -25608.17, 0.086643316, -0.27381974, -525293.2, 119163.305, 0.0, 10.000667, 9.999991 
1.8851697e+3, 2.4423642e+2, -504586.78, -742528.6, -5370.0356, 0.104325466, -0.20929193, -504465.66, 41993.082, 0.0, 10.001152, 9.998004 
1.8851867e+3, 2.5423595e+2, -281018.8, -578753.56, -26630.643, 0.018901164, -0.09909544, -278655.6, 169812.7, 0.0, 10.002012, 9.998029 
1.8852055e+3, 2.642338e+2, -173268.53, -551021.75, 37209.64, 0.043486856, -0.0809043, -169638.17, 180854.14, 0.000000017635879, 10.002394, 9.997374 
1.8852258e+3, 2.7422968e+2, -78404.53, -427508.6, 35991.582, 0.17446573, -0.2842383, -74732.53, 177799.7, 0.000007223604, 10.002286, 9.99758 
1.885245e+3, 2.8422788e+2, 96776.914, -227411.53, 9045.178, 0.23981145, -0.23821233, 97029.086, 251577.1, 0.00010058898, 10.002498, 9.998203 
1.8852627e+3, 2.942282e+2, 338916.44, -18316.832, -55588.746, 0.2433182, -0.102190875, 347366.66, 403908.2, 0.00044370364, 10.003309, 9.998565 
1.8852782e+3, 3.0422416e+2, 348194.66, -162930.11, 15965.4375, -0.05157349, -0.28230423, 348692.88, 348692.88, 0.0011208182, 10.003737, 9.997077 
1.8852994e+3, 3.142216e+2, 347094.72, -33029.42, -131571.4, 0.14989583, -0.306294, 388191.97, 388191.97, 0.002039731, 10.003141, 9.998226 
1.8949509e+3, 1.2422236e+2, -1704599.1, -1352110.6, -82755.53, 0.018532835, 0.041609913, -1333648.6, 388963.72, 0.16258536, 9.99805, 10.003936 
1.8949696e+3, 1.342197e+2, -2015300.8, -1910037.4, 202862.84, 0.055921815, -0.18658334, -1753089.9, -128456.95, 0.110513955, 9.997643, 9.999104 
1.8949887e+3, 1.4421897e+2, -1731719.8, -1617713.0, 72866.83, 0.09391847, -0.22232284, -1582201.8, -55561.484, 0.06108175, 9.998512, 9.999986 
1.8950056e+3, 1.5422101e+2, -1579326.0, -1483057.8, 57909.77, -0.021005303, -0.06151515, -1455889.5, -27263.482, 0.024752133, 9.998878, 10.000044 
1.8950221e+3, 1.6422205e+2, -1411497.3, -1313395.5, -8544.534, -0.13194829, 0.029594291, -1312656.9, 17959.709, 0.0060684755, 9.9991045, 10.000466 
1.89504e+3, 1.7422129e+2, -1264061.5, -1151583.5, 25238.777, -0.045496985, -0.16022587, -1146179.8, 86437.35, 0.0005270964, 9.999305, 10.000792 
1.8950588e+3, 1.842207e+2, -1240061.0, -1228706.5, 62791.3, 0.037712306, -0.23491554, -1171336.3, -36717.55, 0.0000013718216, 9.999395, 9.999546 
1.8950781e+3, 1.942204e+2, -1140883.9, -1116610.5, 40239.32, 0.08039267, -0.26878667, -1086717.4, -50096.465, 0.0, 9.999373, 9.999635 
1.895097e+3, 2.0422055e+2, -1036474.5, -1046536.1, 27239.293, 0.06881347, -0.19969434, -1013805.4, -75185.84, 0.0, 9.999494, 9.999432 
1.8951158e+3, 2.1422122e+2, -863536.06, -883656.8, 77085.52, 0.015655011, -0.12944265, -795857.2, 44756.86, 0.0, 9.999915, 9.999655 
1.8951342e+3, 2.2422065e+2, -766755.6, -830726.7, 8643.059, -0.015351165, -0.12536724, -765608.5, -22990.318, 0.0, 10.000105, 9.9992485 
1.8951517e+3, 2.342184e+2, -613128.2, -682161.75, 2518.398, -0.028641839, -0.33177322, -613036.44, 31598.342, 0.0, 10.000412, 9.999431 
1.8951698e+3, 2.4421711e+2, -558886.94, -788079.75, 7868.3804, -0.037041523, -0.31974304, -558617.1, -11970.595, 0.0, 10.000848, 9.997847 
1.8951885e+3, 2.5421703e+2, -330016.7, -614515.7, 21834.375, -0.015422149, -0.16092707, -328350.75, 120302.11, 0.0, 10.001727, 9.997922 
1.895208e+3, 2.6421532e+2, -199943.64, -530832.5, 17436.092, 0.034451526, -0.100727476, -199027.38, 151644.16, 0.0000000071100716, 10.002066, 9.997671 
1.8952276e+3, 2.742117e+2, -98650.414, -392741.5, 50291.785, 0.10012707, -0.2952084, -90287.93, 162416.23, 0.0000064443307, 10.001967, 9.997966 
1.8952467e+3, 2.8420982e+2, -8318.303, -365915.28, 12979.951, 0.12425427, -0.24739511, -7847.7793, 146873.92, 0.0000894982, 10.002143, 9.997426 
1.8952656e+3, 2.9420936e+2, 204219.42, -200351.61, 7082.2783, 0.16818531, -0.10475009, 204343.36, 261071.22, 0.00040238924, 10.002883, 9.997523 
1.8952806e+3, 3.0420718e+2, 343515.25, -44666.36, -15509.441, -0.22680382, -0.08614935, 344133.9, 344133.9, 0.0010279405, 10.003221, 9.998118 
1.8953025e+3, 3.142052e+2, 197348.17, -113484.945, -36181.785, 0.0797382, -0.18599372, 201504.25, 201504.25, 0.0018811835, 10.00224, 9.998068 
1.9049469e+3, 1.2420641e+2, -1775904.1, -1212666.6, -112841.08, -0.102861054, -0.019434936, -1190900.8, 531869.56, 0.1713416, 9.996764, 10.005697 
1.9049677e+3, 1.3420367e+2, -2005332.9, -2006623.5, 93467.7, 0.09953661, -0.19638829, -1912508.3, -287717.94, 0.11689223, 9.99822, 9.998121 
1.9049877e+3, 1.4420275e+2, -1746594.9, -1703872.4, 29899.574, 0.15345867, -0.1512039, -1688487.4, -161688.28, 0.06499328, 9.9987, 9.999335 
1.9050042e+3, 1.5420392e+2, -1556341.9, -1509323.6, 21281.17, -0.03420066, -0.04708387, -1501122.1, -72327.25, 0.026617203, 9.999137, 9.999772 
1.9050214e+3, 1.6420464e+2, -1404150.9, -1321264.8, -946.14075, -0.11276049, 0.032940038, -1321253.9, 9534.339, 0.0066676727, 9.999222, 10.000356 
1.9050406e+3, 1.7420359e+2, -1239421.3, -1145495.4, -45319.563, 0.08590878, -0.17758024, -1127194.4, 105595.86, 0.0006122247, 9.999523, 10.000716 
1.9050597e+3, 1.8420246e+2, -1223460.1, -1290669.9, 9420.452, 0.17964299, -0.26990342, -1222164.8, -87368.1, 0.0000017786746, 9.999819, 9.998925 
1.9050777e+3, 1.9420163e+2, -1021856.94, -1136936.6, -5617.1294, 0.059417818, -0.2826029, -1021583.44, 15222.436, 0.0, 10.000526, 9.998957 
1.9050966e+3, 2.0420164e+2, -859169.25, -916480.2, 6834.6426, 0.023683798, -0.20527472, -858365.44, 80440.39, 0.0, 10.000553, 9.999789 
1.9051164e+3, 2.142026e+2, -822982.44, -814888.7, -12714.383, 0.09101973, -0.1527, -805592.7, 35202.426, 0.0, 10.000006, 10.000065 
1.9051352e+3, 2.2420217e+2, -786435.2, -870500.56, -35801.01, 0.090234056, -0.14288154, -773255.06, -30457.969, 0.0, 10.000077, 9.999 
1.9051524e+3, 2.3419994e+2, -537496.44, -685521.75, -51720.81, -0.031510226, -0.3156334, -521215.56, 123600.055, 0.0, 10.001073, 9.999102 
1.9051708e+3, 2.4419846e+2, -475588.75, -741454.56, -11938.492, -0.042358175, -0.3098521, -475053.75, 71776.29, 0.0, 10.001419, 9.997877 
1.905191e+3, 2.5419766e+2, -417441.0, -645286.4, -22045.426, 0.08554294, -0.22685225, -415327.6, 33514.285, 0.0, 10.001093, 9.998005 
1.9052108e+3, 2.6419598e+2, -277707.94, -531651.9, 27212.99, 0.14915, -0.18638462, -274824.47, 76034.37, 0.000000016068412, 10.001346, 9.998021 
1.9052295e+3, 2.7419332e+2, -535.1169, -316847.38, 19499.736, 0.07946708, -0.31522545, 662.45154, 253542.98, 0.000006020835, 10.002453, 9.998282 
1.9052486e+3, 2.841913e+2, 96813.266, -330127.56, 31799.807, 0.08172633, -0.2902974, 99168.81, 254067.63, 0.00007835106, 10.0029125, 9.997311 
1.9052687e+3, 2.941896e+2, 165638.6, -228512.53, 25382.645, 0.21386637, -0.2562605, 167266.47, 224184.73, 0.00035568743, 10.002665, 9.997429 
1.905284e+3, 3.0418876e+2, 302650.47, -50608.516, 46225.914, -0.17052862, -0.11112958, 308599.22, 308599.22, 0.00092660607, 10.002889, 9.99824 
1.9053066e+3, 3.1418684e+2, 377343.7, -84228.414, -117884.08, 0.2160055, -0.2018388, 405707.9, 405707.9, 0.001727788, 10.003637, 9.997641 
1.9149426e+3, 1.2418679e+2, -1860172.0, -1371108.8, -81605.84, -0.29732063, -0.16204192, -1357851.3, 365109.7, 0.18042894, 9.996811, 10.004385 
1.9149637e+3, 1.3418595e+2, -2003070.4, -2004962.3, 141366.22, -0.15881832, -0.19876827, -1862646.9, -237681.69, 0.12358676, 9.998242, 9.998117 
1.9149855e+3, 1.4418644e+2, -1735562.6, -1730549.1, 19362.299, -0.006680897, 0.032827515, -1713532.0, -186570.97, 0.069141634, 9.998904, 9.999058 
1.9150035e+3, 1.5418562e+2, -1513572.3, -1427056.4, 45679.105, -0.065229036, -0.10640887, -1407403.0, 21569.975, 0.028615344, 9.999164, 10.000327 
1.9150223e+3, 1.6418608e+2, -1430006.9, -1402510.4, -11186.995, 0.0045558307, -0.06173146, -1398534.0, -67565.05, 0.0073205116, 9.999338, 9.99974 
1.915042e+3, 1.7418589e+2, -1299482.4, -1265634.4, -24489.188, 0.22383133, -0.106604375, -1252790.3, -19824.04, 0.00070924795, 9.999507, 9.999895 
1.9150601e+3, 1.8418479e+2, -1236314.9, -1328231.1, 12705.809, 0.20283157, -0.13870107, -1234590.9, -99616.52, 0.0000023137907, 9.999856, 9.998655 
1.9150768e+3, 1.9418319e+2, -1048607.8, -1166907.6, 32686.547, -0.11163783, -0.21016027, -1040177.2, -3187.1008, 0.0, 10.000414, 9.998807 
1.9150954e+3, 2.0418227e+2, -890093.2, -944445.7, -26520.11, -0.18213417, -0.21184237, -879297.5, 59699.652, 0.0, 10.000387, 9.99968 
1.9151168e+3, 2.1418208e+2, -859126.6, -841480.4, -21077.172, 0.10661569, -0.266758, -827454.1, 13540.732, 0.0, 9.99979, 9.999986 
1.9151364e+3, 2.2418183e+2, -835415.6, -897436.4, -16720.613, 0.17016077, -0.2361236, -831195.0, -88200.03, 0.0, 9.999753, 9.998974 
1.9151533e+3, 2.3418152e+2, -583356.6, -708254.3, 1246.9702, -0.05350362, -0.21185005, -583344.2, 61653.934, 0.0, 10.000776, 9.999085 
1.915172e+3, 2.4418028e+2, -515318.0, -744911.7, -36741.58, -0.08588633, -0.18387806, -509581.63, 37428.93, 0.0, 10.001073, 9.998023 
1.915193e+3, 2.5417778e+2, -442298.47, -633354.2, -16532.959, 0.15985993, -0.29481265, -440878.34, 8157.5264, 0.0, 10.000823, 9.998214 
1.9152129e+3, 2.6417583e+2, -302538.13, -510105.94, 44670.805, 0.20016044, -0.30448416, -293332.75, 57720.21, 0.000000038925435, 10.001023, 9.998331 
1.9152309e+3, 2.7417463e+2, -27488.24, -295403.16, 78494.945, -0.047312137, -0.32302225, -6184.445, 246875.81, 0.0000054500297, 10.0021305, 9.998582 
1.9152503e+3, 2.8417242e+2, 68063.125, -305055.78, 3982.3123, -0.08764979, -0.34735927, 68105.625, 223184.7, 0.00006657065, 10.002548, 9.99766 
1.9152714e+3, 2.9416892e+2, 126641.68, -206664.84, 40597.83, 0.18789753, -0.5334648, 131515.38, 188629.02, 0.00030471265, 10.0022335, 9.997786 
1.9152877e+3, 3.04169e+2, 174111.39, -211840.47, 43612.508, -0.123513125, -0.26967865, 178978.23, 178978.23, 0.000814986, 10.002438, 9.997339 
1.9153084e+3, 3.1416836e+2, 205629.72, -214418.9, 17204.348, -0.02492816, -0.15810978, 206333.19, 206333.19, 0.0015623207, 10.002738, 9.997139 
1.9249418e+3, 1.2416846e+2, -1986623.4, -1554076.3, -58340.418, -0.033793926, 0.049923092, -1546345.8, 176793.08, 0.18987963, 9.996598, 10.002991 
1.924963e+3, 1.3416605e+2, -1959544.4, -1927066.4, -5806.764, -0.042835616, -0.21927805, -1926059.4, -300898.22, 0.13060497, 9.99826, 9.998661 
1.924983e+3, 1.4416711e+2, -1846484.8, -1747903.4, -46467.105, -0.08859203, 0.042962465, -1729453.6, -202302.34, 0.07352615, 9.998029, 9.999336 
1.9250026e+3, 1.5416652e+2, -1577562.8, -1387851.8, -47806.113, -0.030415958, -0.13345674, -1376485.9, 52672.96, 0.030745408, 9.998453, 10.000925 
1.9250225e+3, 1.6416696e+2, -1483866.4, -1455968.1, -51028.992, 0.11194677, -0.11064553, -1417016.0, -85861.35, 0.008026891, 9.999089, 9.999487 
1.9250423e+3, 1.7416738e+2, -1196136.4, -1254305.5, -59210.47, 0.27222955, -0.06224232, -1159252.8, 73895.83, 0.0008187495, 10.000375, 9.99956 
1.9250606e+3, 1.841666e+2, -1106877.1, -1272313.0, 22992.96, 0.24269788, -0.04311856, -1103740.9, 31413.906, 0.0000031359323, 10.000743, 9.998615 
1.9250774e+3, 1.9416456e+2, -1045259.7, -1161912.6, 26474.865, -0.077118985, -0.16429919, -1039532.3, -2358.3416, 0.0, 10.000389, 9.998851 
1.925096e+3, 2.041632e+2, -943259.44, -997679.06, -12208.853, -0.1267587, -0.20851316, -940645.94, -1460.8708, 0.0, 10.000138, 9.999437 
1.9251175e+3, 2.1416253e+2, -794059.1, -840147.1, -49942.426, 0.17667574, -0.2827977, -762100.6, 79086.51, 0.0, 10.00037, 9.999718 
1.9251372e+3, 2.2416212e+2, -748778.6, -874730.8, -3670.4922, 0.25193232, -0.24297607, -748671.75, -5482.5244, 0.0, 10.000452, 9.998787 
1.9251542e+3, 2.3416196e+2, -643080.4, -756315.1, -30847.494, -0.016123367, -0.18315443, -635222.2, 9970.326, 0.0, 10.000454, 9.998912 
1.9251733e+3, 2.4416083e+2, -552719.2, -734625.56, -50754.96, -0.049314678, -0.14961375, -539516.0, 7688.0127, 0.0, 10.0006695, 9.998292 
1.9251944e+3, 2.5415847e+2, -349022.4, -565395.56, -57158.566, 0.21055967, -0.26963088, -334851.16, 114374.44, 0.0, 10.001328, 9.998455 
1.9252147e+3, 2.6415667e+2, -224348.3, -464899.03, 40049.03, 0.2674154, -0.2817455, -217855.81, 133384.84, 0.000000047147957, 10.001549, 9.998381 
1.9252329e+3, 2.7415538e+2, -153230.05, -354158.7, 12466.423, -0.000255089, -0.30940938, -152459.53, 100790.56, 0.0000044268, 10.001264, 9.998597 
1.9252525e+3, 2.8415334e+2, -57921.02, -326537.72, -33702.832, -0.04067738, -0.3341531, -53756.94, 101510.4, 0.000054025306, 10.001535, 9.997984 
1.9252743e+3, 2.9415056e+2, 243452.5, -122329.32, -48239.625, 0.22937839, -0.4724567, 249707.42, 307000.25, 0.00025237876, 10.002895, 9.998047 
1.9252917e+3, 3.041494e+2, 344221.06, -138116.23, 26350.154, -0.009355575, -0.34743375, 345656.3, 345656.3, 0.0006960178, 10.003627, 9.997284 
1.9253118e+3, 3.141492e+2, 338223.25, -98567.35, -9728.614, 0.04417406, -0.17127346, 338439.8, 338439.8, 0.0013738545, 10.003325, 9.9977 
1.9349393e+3, 1.241454e+2, -2066398.6, -1717225.5, 61748.797, -0.030083986, 0.018524043, -1706627.4, 16735.592, 0.1997211, 9.996727, 10.001563 
1.934964e+3, 1.3414393e+2, -1881349.9, -1756334.4, 6685.2246, 0.18834716, -0.25740153, -1755978.0, -130599.92, 0.13795441, 9.998229, 9.999845 
1.9349797e+3, 1.4414513e+2, -1763061.1, -1619358.4, -59130.41, -0.28060895, -0.09581127, -1598155.9, -70788.945, 0.07814733, 9.998204, 10.00014 
1.9350012e+3, 1.5414663e+2, -1531726.6, -1313776.1, -20663.885, -0.05768832, -0.11852911, -1311834.4, 117517.81, 0.033007, 9.998515, 10.00143 
1.9350211e+3, 1.6414714e+2, -1453574.8, -1420276.6, -23865.795, 0.016266908, -0.11914588, -1407826.4, -76479.44, 0.008786739, 9.999198, 9.999686 
1.9350412e+3, 1.7414796e+2, -1178586.3, -1222299.5, -895.71, 0.09770103, -0.050550543, -1178567.9, 54770.566, 0.00094156526, 10.000385, 9.999782 
1.9350606e+3, 1.841479e+2, -1078879.5, -1223259.0, -4224.3267, 0.11808396, 0.009097722, -1078756.0, 56582.504, 0.0000044945964, 10.000779, 9.998937 
1.9350791e+3, 1.9414598e+2, -1044515.3, -1137076.0, 25351.635, 0.020276578, -0.12645121, -1038026.56, -670.6659, 0.0, 10.00028, 9.99908 
1.935098e+3, 2.0414452e+2, -993686.94, -1064012.5, -23766.34, 0.008859194, -0.17321567, -986408.44, -47040.094, 0.0, 9.999969, 9.999066 
1.935118e+3, 2.1414387e+2, -861795.0, -923177.9, -27987.818, 0.16531295, -0.19969538, -850949.94, -9577.752, 0.0, 10.000125, 9.999266 
1.9351369e+3, 2.2414283e+2, -828373.75, -957503.3, -18505.818, 0.16005015, -0.17877625, -825774.0, -82392.47, 0.0, 10.000101, 9.998386 
1.9351543e+3, 2.3414122e+2, -706362.94, -828435.9, -14246.813, -0.06796065, -0.22801928, -704722.3, -59323.08, 0.0, 10.000202, 9.998535 
1.9351734e+3, 2.4414012e+2, -576712.7, -711828.44, -46026.875, -0.11791258, -0.18533982, -562523.75, -15113.687, 0.0, 10.000353, 9.998607 
1.935195e+3, 2.541397e+2, -360507.78, -528114.3, -17751.207, 0.107065015, -0.152663, -358648.38, 90763.73, 0.0, 10.001072, 9.998836 
1.9352159e+3, 2.6413828e+2, -299400.72, -534824.4, 11381.349, 0.18908988, -0.13278536, -298851.78, 52572.41, 0.00000001782158, 10.001191, 9.998069 
1.935235e+3, 2.741355e+2, -227446.69, -422996.06, 17767.826, 0.059271187, -0.27258328, -225845.39, 27605.135, 0.0000033385966, 10.000926, 9.998272 
1.9352551e+3, 2.8413415e+2, -96698.195, -332594.94, -17680.045, 0.013664455, -0.21719812, -95380.47, 60081.617, 0.00004416703, 10.001203, 9.998111 
1.9352765e+3, 2.9413438e+2, 203694.19, -107566.65, 22629.7, 0.13336258, -0.082723945, 205330.83, 262788.34, 0.00021030588, 10.002491, 9.998339 
1.9352953e+3, 3.0413005e+2, 303126.22, -107786.14, -6813.1396, -0.052619394, -0.30672297, 303239.16, 303239.16, 0.00059174973, 10.003132, 9.997729 
1.9353145e+3, 3.1412753e+2, 300669.2, 49401.016, 53233.367, -0.0712716, -0.4170925, 311481.84, 311481.84, 0.0011892852, 10.002432, 9.999111 
1.9449353e+3, 1.2411976e+2, -1966389.1, -1762624.0, 126986.336, -0.12838022, -0.2443671, -1701701.3, 21911.383, 0.20999403, 9.997822, 10.00073 
1.9449611e+3, 1.3412365e+2, -2027391.9, -1630643.8, 2692.1904, 0.19221003, -0.13554959, -1630625.5, -5050.791, 0.14565058, 9.996353, 10.001631 
1.9449785e+3, 1.4412381e+2, -1902264.9, -1663416.0, 21602.05, -0.15250151, -0.19766499, -1661478.0, -133904.86, 0.083007626, 9.997116, 10.000387 
1.9450003e+3, 1.541261e+2, -1556432.1, -1349690.9, -39193.277, 0.022179263, -0.12608723, -1342510.1, 87040.53, 0.03539992, 9.99843, 10.001232 
1.9450203e+3, 1.6412646e+2, -1492991.8, -1436144.8, -40284.477, 0.032592632, -0.13345201, -1415265.8, -83718.42, 0.009600047, 9.998914, 9.99972 
1.9450408e+3, 1.7412673e+2, -1310053.3, -1275582.5, -56621.594, 0.07137721, -0.12754174, -1233631.3, -86.140305, 0.0010784023, 9.999443, 9.999869 
1.945061e+3, 1.8412693e+2, -1217708.6, -1244027.1, -75669.93, 0.13588354, -0.06348117, -1154062.3, -18519.307, 0.0000066792873, 9.999652, 9.999331 
1.94508e+3, 1.941261e+2, -1096061.4, -1111380.6, -70204.53, 0.112345636, -0.1298784, -1033099.9, 4450.345, 0.0, 9.99975, 9.999499 
1.945099e+3, 2.0412521e+2, -995732.5, -1091938.3, -52142.418, 0.10502968, -0.1284033, -972893.7, -33335.7, 0.0, 10.000081, 9.998823 
1.9451182e+3, 2.1412435e+2, -750784.7, -902371.44, -74616.89, 0.13520727, -0.14185487, -720218.7, 121346.97, 0.0, 10.001033, 9.998973 
1.9451372e+3, 2.2412309e+2, -643280.2, -885884.06, -42035.82, 0.11235392, -0.1238533, -636203.1, 107374.97, 0.0, 10.0014305, 9.998236 
1.9451554e+3, 2.341211e+2, -573408.44, -784995.2, -51296.023, -0.019537715, -0.19384016, -561628.4, 83970.16, 0.0, 10.001183, 9.998371 
1.9451751e+3, 2.4411972e+2, -472397.1, -671133.8, -31122.61, -0.024309976, -0.16448939, -467637.22, 79974.48, 0.0, 10.001136, 9.998507 
1.9451964e+3, 2.5411904e+2, -294856.97, -511875.9, -73161.64, 0.12388031, -0.14109308, -272496.53, 177120.02, 0.0, 10.001596, 9.9986925 
1.9452173e+3, 2.6411742e+2, -192009.17, -492735.78, -45872.168, 0.19047725, -0.12726282, -185167.58, 166463.3, 0.000000002142629, 10.001941, 9.998007 
1.9452368e+3, 2.7411488e+2, -51489.02, -354597.44, -55812.09, 0.09921959, -0.23647259, -41538.84, 212116.77, 0.0000030022966, 10.002157, 9.998174 
1.9452572e+3, 2.8411376e+2, 18121.955, -278509.56, -32065.748, 0.0820568, -0.14935718, 21548.664, 177213.48, 0.00003904193, 10.001986, 9.998112 
1.9452786e+3, 2.9411432e+2, 53002.105, -175714.7, -53879.887, 0.16607046, 0.022297597, 65059.234, 122715.52, 0.00018459432, 10.001407, 9.998406 
1.9452988e+3, 3.0410862e+2, 87497.7, -216899.56, -55205.234, 0.067293696, -0.34584364, 97200.41, 97200.41, 0.0005147773, 10.001699, 9.997646 
1.9453184e+3, 3.1410602e+2, 446740.94, 128147.01, -135434.56, 0.04856685, -0.432241, 496532.6, 496532.6, 0.0010277403, 10.003348, 9.999226 
1.9549355e+3, 1.2409503e+2, -1905840.5, -1740857.3, -13465.71, -0.0104561765, -0.41065213, -1739765.5, -15911.842, 0.22070916, 9.998202, 10.000699 
1.9549544e+3, 1.3410544e+2, -1837551.4, -1324567.0, 9462.904, -0.15285824, 0.15338303, -1324392.5, 301356.3, 0.15369554, 9.996475, 10.004058 
1.9549787e+3, 1.4410324e+2, -1898311.4, -1697107.4, 68098.74, 0.09854911, -0.272058, -1676226.0, -148456.83, 0.08810495, 9.997299, 10.000066 
1.9549994e+3, 1.5410492e+2, -1617579.9, -1484878.3, 18313.963, 0.055308025, -0.16997826, -1482397.1, -52642.742, 0.037922986, 9.998473, 10.000266 
1.9550191e+3, 1.6410494e+2, -1482409.5, -1448967.6, -44950.23, -0.031700566, -0.15316488, -1417729.0, -85973.64, 0.010466628, 9.999057, 9.999566 
1.9550405e+3, 1.7410372e+2, -1313426.5, -1295063.0, -24692.55, 0.06327333, -0.28227225, -1277900.4, -44133.066, 0.0012294218, 9.999484, 9.999721 
1.955061e+3, 1.8410368e+2, -1176730.9, -1172288.9, -84739.16, 0.11934052, -0.25522152, -1089741.6, 46026.664, 0.000009908067, 9.999713, 9.99979 
1.9550794e+3, 1.9410488e+2, -1074912.1, -1044452.44, -56490.695, 0.06247236, -0.16873385, -1001174.6, 36582.74, 0.0, 9.999654, 10.000003 
1.9550982e+3, 2.0410505e+2, -1034653.94, -1128180.6, -37756.848, -0.00843469, -0.082839325, -1021314.1, -81557.66, 0.0, 9.999886, 9.998668 
1.9551176e+3, 2.1410388e+2, -799938.9, -945972.6, -25199.76, -0.05529099, -0.110121824, -795712.7, 46056.0, 0.0, 10.000789, 9.998786 
1.9551371e+3, 2.2410274e+2, -683265.56, -896682.94, -62372.957, -0.06731367, -0.076032735, -666373.56, 77406.5, 0.0, 10.001109, 9.998322 
1.9551569e+3, 2.3410149e+2, -606735.94, -787621.6, -46888.44, -0.014406727, -0.08278372, -595304.2, 50487.145, 0.0, 10.000907, 9.998481 
1.9551772e+3, 2.4409957e+2, -571589.25, -791487.75, -31039.889, 0.034545083, -0.08237873, -567291.8, -19482.469, 0.0, 10.000768, 9.997856 
1.955198e+3, 2.5409657e+2, -384762.03, -629932.25, -37650.04, 0.10859571, -0.22475304, -379110.5, 70728.164, 0.0, 10.00131, 9.998011 
1.9552186e+3, 2.640945e+2, -234260.53, -501964.3, -55366.58, 0.09421344, -0.22977535, -223261.52, 128596.5, 0.00000003752054, 10.0015955, 9.998114 
1.955238e+3, 2.7409366e+2, -79498.75, -346840.47, -29395.69, -0.026442777, -0.18741879, -76304.695, 177559.55, 0.0000033251551, 10.001882, 9.998357 
1.9552584e+3, 2.8409252e+2, -62913.207, -349915.22, -71706.12, -0.03313569, -0.09902084, -45995.06, 109877.72, 0.000036409245, 10.0015745, 9.997817 
1.9552802e+3, 2.9409114e+2, -19077.246, -226126.92, -47999.543, 0.14479579, -0.098041244, -8490.962, 49392.426, 0.00016708692, 10.000999, 9.998246 
1.9553013e+3, 3.0408555e+2, -31338.107, -363656.78, -29740.98, 0.10396339, -0.41292477, -28697.412, -28697.412, 0.00045041234, 10.001248, 9.996869 
1.9553237e+3, 3.1408426e+2, 289901.5, -34274.49, -39628.766, 0.1843264, -0.2927802, 294675.6, 294675.6, 0.00087258307, 10.002698, 9.998398 
1.9649354e+3, 1.2407428e+2, -2077556.1, -1942565.1, 81114.57, 0.20949599, -0.36987308, -1904537.1, -180482.25, 0.23177752, 9.997628, 9.999534 
1.9649516e+3, 1.340849e+2, -1555519.3, -1190095.1, 851.9148, -0.17422457, 0.22308666, -1190093.1, 435855.5, 0.1620495, 9.9985075, 10.004151 
1.9649774e+3, 1.4408067e+2, -1744556.3, -1637384.1, 3266.5254, 0.19455893, -0.4049382, -1637284.6, -109295.63, 0.093428105, 9.9984455, 9.999894 
1.9649982e+3, 1.5408318e+2, -1675700.5, -1533775.4, -39653.934, 0.13258462, -0.2032426, -1523447.6, -93480.89, 0.04057487, 9.998187, 10.000038 
1.9650185e+3, 1.6408364e+2, -1588638.8, -1474274.5, -18532.514, 0.06512432, -0.14406763, -1471346.4, -139383.2, 0.011385711, 9.998226, 9.999786 
1.9650395e+3, 1.7408244e+2, -1357732.0, -1284957.5, 3146.2876, 0.0514387, -0.29804137, -1284821.8, -50847.523, 0.0013940044, 9.999058, 9.999988 
1.96506e+3, 1.8408246e+2, -1206655.9, -1206883.6, -47049.242, 0.07075141, -0.2726595, -1159720.4, -23745.523, 0.000014255441, 9.99959, 9.999616 
1.9650795e+3, 1.9408368e+2, -1023158.94, -1046242.1, -104048.73, 0.082230195, -0.161227, -930013.6, 107951.64, 0.0, 10.000117, 9.999771 
1.9650988e+3, 2.0408373e+2, -919754.5, -1079756.9, -62673.3, 0.041073374, -0.07273545, -898128.25, 41838.12, 0.0, 10.000689, 9.998611 
1.9651182e+3, 2.1408218e+2, -711234.4, -913758.9, -66104.62, -0.085804574, -0.13298093, -691567.44, 150414.31, 0.0, 10.001407, 9.998717 
1.965138e+3, 2.2408094e+2, -620825.5, -863959.4, -111361.38, -0.08828592, -0.1035422, -577529.25, 166464.44, 0.0, 10.001534, 9.9983425 
1.9651583e+3, 2.3407999e+2, -576512.8, -774887.94, -145763.55, 0.036274087, -0.07895825, -499390.47, 146611.67, 0.0, 10.001107, 9.998478 
1.9651787e+3, 2.4407806e+2, -550638.9, -800460.1, -63547.17, 0.12989792, -0.07452151, -535403.5, 12617.251, 0.0, 10.000949, 9.997732 
1.9651997e+3, 2.540749e+2, -425707.3, -670899.9, -62368.85, 0.15462983, -0.21351297, -410754.6, 39297.465, 0.0, 10.001093, 9.997859 
1.9652203e+3, 2.640728e+2, -264569.84, -500035.06, -21680.076, 0.13206927, -0.21413954, -262590.3, 89480.85, 0.00000006167767, 10.001341, 9.998241 
1.9652401e+3, 2.7407196e+2, -78595.766, -331515.47, -47062.37, 0.015549553, -0.18328622, -70122.445, 183953.58, 0.000003603985, 10.001843, 9.9984665 
1.9652608e+3, 2.840702e+2, -7813.0723, -335226.47, -72887.805, 0.038989462, -0.15879732, 7679.88, 163770.05, 0.00003430298, 10.002006, 9.997712 
1.9652824e+3, 2.9406774e+2, 83146.23, -202527.69, -90388.05, 0.24434489, -0.23671257, 109342.98, 167454.73, 0.00015136057, 10.001805, 9.998035 
1.9653039e+3, 3.0406368e+2, 142305.55, -286769.84, 55661.164, 0.19579573, -0.3829908, 149408.53, 149408.53, 0.00039140973, 10.002449, 9.996838 
1.9653267e+3, 3.1406224e+2, 471853.4, 60057.32, -45261.12, 0.16651078, -0.26142, 476769.44, 476769.44, 0.00072701665, 10.00386, 9.998526 
1.9749312e+3, 1.2405779e+2, -2184881.5, -2251660.8, -7868.29, -0.08145214, -0.12293495, -2183967.0, -459753.4, 0.24301729, 9.997988, 9.997246 
1.9749522e+3, 1.3406193e+2, -1682444.5, -1473923.3, 25049.785, 0.011566339, 0.0632366, -1470956.3, 155218.72, 0.17062773, 9.998679, 10.001769 
1.9749737e+3, 1.4405596e+2, -1714461.6, -1609429.1, -31149.299, -0.09623783, -0.61635786, -1600886.1, -72651.98, 0.09895461, 9.998583, 10.000027 
1.9749968e+3, 1.5406086e+2, -1633486.8, -1455494.1, -38634.797, 0.10882549, -0.2211166, -1447469.9, -17282.32, 0.04335473, 9.998227, 10.00056 
1.9750182e+3, 1.6406251e+2, -1517258.8, -1358579.8, -9148.192, 0.1569051, -0.10232117, -1358054.1, -25882.863, 0.012356995, 9.998372, 10.000509 
1.9750375e+3, 1.7406276e+2, -1307813.9, -1182791.0, 44238.254, -0.09619639, -0.17718245, -1168721.0, 65445.68, 0.0015709848, 9.999071, 10.000682 
1.9750574e+3, 1.8406305e+2, -1254733.3, -1322505.3, -46340.023, -0.18016212, -0.12199862, -1231211.5, -95047.12, 0.000019593592, 9.999645, 9.998804 
1.9750792e+3, 1.9406237e+2, -1099213.8, -1185428.9, -71806.67, 0.020018421, -0.110198505, -1058569.0, -20393.615, 0.0, 10.000035, 9.9988575 
1.9751e+3, 2.0406112e+2, -948703.5, -1093076.6, -48640.465, 0.06913882, -0.100800976, -933845.25, 6343.666, 0.0, 10.000489, 9.998615 
1.9751197e+3, 2.1405941e+2, -741370.7, -916621.7, -25653.074, -0.093435526, -0.18866508, -737692.75, 104510.55, 0.0, 10.00115, 9.99882 
1.9751394e+3, 2.24058e+2, -687606.06, -921237.94, -139811.7, -0.14194714, -0.17377499, -622231.8, 121984.46, 0.0, 10.001176, 9.998125 
1.9751593e+3, 2.3405667e+2, -623831.3, -822829.2, -142041.58, 0.0034429887, -0.1680416, -549906.3, 96324.0, 0.0, 10.000884, 9.998257 
1.9751798e+3, 2.4405527e+2, -577123.44, -786310.1, -77654.28, 0.09378923, -0.11193226, -551448.0, -3203.4407, 0.0, 10.000645, 9.997978 
1.9752006e+3, 2.5405395e+2, -431002.22, -635332.0, -41715.082, 0.118068226, -0.10134891, -422813.97, 27443.322, 0.0, 10.00089, 9.998199 
1.9752216e+3, 2.6405218e+2, -319403.22, -535613.2, -22911.29, 0.10470928, -0.083427094, -317002.03, 35269.965, 0.000000055759365, 10.001001, 9.998158 
1.9752428e+3, 2.7404973e+2, -128361.91, -358212.3, -7874.887, 0.06465864, -0.21136582, -128092.42, 126198.44, 0.0000036492006, 10.001518, 9.998432 
1.9752638e+3, 2.8404698e+2, -72451.95, -387724.9, -100292.664, 0.09989561, -0.28436995, -43251.93, 113062.93, 0.00003270768, 10.001642, 9.997535 
1.975285e+3, 2.9404402e+2, 35928.12, -247957.13, -67527.38, 0.2730549, -0.4006244, 51172.188, 109515.164, 0.00013942833, 10.0015745, 9.997835 
1.9753055e+3, 3.0404288e+2, 64204.555, -316442.66, 81989.664, 0.090012394, -0.2448379, 81113.62, 81113.62, 0.00034788318, 10.001916, 9.996875 
1.9753289e+3, 3.1404024e+2, 416781.2, 179603.55, 46462.94, -0.044462595, -0.27880403, 425558.44, 425558.44, 0.0006200004, 10.002919, 9.999767 
1.9849294e+3, 1.24036506e+2, -2157991.8, -2194776.5, 22052.979, -0.037463006, -0.28006524, -2147668.0, -423243.3, 0.25424254, 9.997961, 9.997678 
1.9849522e+3, 1.3403983e+2, -1668581.3, -1588490.3, 43933.516, 0.12598462, -0.042985458, -1569090.0, 57304.164, 0.17932345, 9.9993725, 10.000527 
1.9849722e+3, 1.4403561e+2, -1721856.3, -1622930.4, 30342.56, -0.08131601, -0.47890937, -1614365.3, -85929.12, 0.104643695, 9.998585, 9.999941 
1.9849953e+3, 1.5403964e+2, -1584861.6, -1427649.1, -29072.516, 0.13087541, -0.17129748, -1422445.1, 7952.435, 0.046255346, 9.998539, 10.000616 
1.9850169e+3, 1.6404095e+2, -1475694.9, -1349451.1, 13628.665, 0.19052614, -0.08841613, -1347996.6, -15612.409, 0.013380272, 9.99871, 10.000404 
1.9850367e+3, 1.7404133e+2, -1279979.9, -1185253.4, -19948.434, -0.075337194, -0.13774851, -1181223.9, 53153.79, 0.0017591557, 9.999329, 10.000542 
1.9850574e+3, 1.8404144e+2, -1248976.5, -1339190.0, -95718.35, -0.15397258, -0.08568693, -1188269.3, -51892.957, 0.0000256483, 9.999763, 9.99863 
1.9850793e+3, 1.9404006e+2, -1061180.5, -1188057.4, -95738.45, 0.024090737, -0.12977782, -1009769.94, 28623.113, 0.0, 10.000358, 9.99869 
1.9851007e+3, 2.040385e+2, -931483.6, -1078851.1, -16986.416, 0.089453176, -0.14492792, -929551.06, 10857.969, 0.0, 10.0005865, 9.99867 
1.985121e+3, 2.140372e+2, -810408.75, -940586.25, -31516.936, -0.0466364, -0.19665706, -803179.75, 39239.617, 0.0, 10.00065, 9.998895 
1.985141e+3, 2.2403581e+2, -742040.6, -960660.4, -125789.94, -0.074208446, -0.1776227, -684701.9, 59730.34, 0.0, 10.000854, 9.998009 
1.9851607e+3, 2.3403406e+2, -583576.8, -822075.4, -154345.42, 0.047419798, -0.19734062, -507780.22, 138670.98, 0.0, 10.00124, 9.99809 
1.985181e+3, 2.4403262e+2, -448894.38, -697455.9, -53985.543, 0.13730897, -0.14310302, -437675.5, 110790.04, 0.0, 10.001459, 9.998168 
1.9852018e+3, 2.5403157e+2, -306678.34, -553981.2, -62480.605, 0.13119078, -0.121476695, -291789.16, 158684.84, 0.0, 10.001676, 9.998368 
1.9852231e+3, 2.640298e+2, -236544.63, -489427.53, -25528.121, 0.13598229, -0.11463172, -233993.34, 118494.984, 0.00000004684117, 10.001546, 9.998208 
1.9852446e+3, 2.7402717e+2, -208928.77, -396662.47, -48176.44, 0.14032674, -0.26200303, -197287.53, 57222.914, 0.000003631824, 10.00097, 9.998425 
1.985266e+3, 2.840247e+2, -111090.04, -400318.75, -66853.64, 0.20138298, -0.3019309, -96384.836, 60147.496, 0.000030883682, 10.001374, 9.997564 
1.9852877e+3, 2.9402238e+2, 251843.75, -148943.14, -77688.23, 0.31984138, -0.35019758, 266375.84, 324931.47, 0.00012822116, 10.0031185, 9.997755 
1.985308e+3, 3.040211e+2, 289674.34, -158443.56, 85241.14, 0.09232884, -0.21948382, 305341.22, 305341.22, 0.0003141248, 10.003206, 9.997348 
1.9853315e+3, 3.140186e+2, 129495.95, 70541.414, -28867.61, 0.062425952, -0.28657672, 141277.0, 141277.0, 0.00054966006, 10.000739, 10.000088 
1.9949293e+3, 1.2401702e+2, -1913535.9, -1756613.3, 55906.145, 0.048279855, -0.15017287, -1738733.1, -14109.314, 0.26535824, 9.998244, 10.000549 
1.9949505e+3, 1.3401836e+2, -1655795.8, -1582073.3, 47969.395, -0.027611548, -0.11237351, -1558438.1, 68170.336, 0.18805622, 9.999448, 10.000552 
1.994973e+3, 1.4401959e+2, -1712509.8, -1647501.9, -11944.403, 0.0759227, 0.002279956, -1645376.8, -116781.516, 0.11045076, 9.998775, 9.999683 
1.9949934e+3, 1.5401943e+2, -1610042.3, -1482981.0, -19078.105, 0.06840124, -0.064762175, -1480178.3, -49580.082, 0.04926506, 9.998568, 10.0002165 
1.9950141e+3, 1.6401875e+2, -1520321.9, -1465758.1, 20343.086, -0.007742042, -0.116595626, -1459008.5, -126404.22, 0.014456319, 9.998811, 9.9995575 
1.995037e+3, 1.7401816e+2, -1341970.9, -1310971.5, 11476.968, -0.019004537, -0.17674747, -1307184.9, -72577.664, 0.0019582892, 9.999326, 9.999674 
1.995059e+3, 1.8401758e+2, -1214108.9, -1275725.8, -89660.305, -0.016108265, -0.16460864, -1150111.5, -13500.52, 0.000032105352, 9.999801, 9.999047 
1.9950795e+3, 1.9401672e+2, -1036128.8, -1109875.9, -63271.387, -0.030129278, -0.2110968, -999770.4, 38848.51, 0.0, 10.000254, 9.999271 
1.9951002e+3, 2.0401597e+2, -954644.7, -1089238.9, -33318.863, -0.06300708, -0.18012978, -946848.2, -6222.53, 0.0, 10.000416, 9.998682 
1.9951215e+3, 2.1401535e+2, -842779.44, -961324.2, -15802.372, -0.082327, -0.16189277, -840709.1, 1922.284, 0.0, 10.000446, 9.998849 
1.9951423e+3, 2.2401418e+2, -794899.2, -994885.56, -125272.195, -0.06401017, -0.11778905, -734605.9, 10037.38, 0.0, 10.000526, 9.997932 
1.9951619e+3, 2.3401211e+2, -624201.06, -851069.94, -120696.92, 0.029483855, -0.16196784, -572000.0, 74664.86, 0.0, 10.000995, 9.99801 
1.9951822e+3, 2.4401002e+2, -505328.8, -731178.94, -60628.3, 0.07235861, -0.17129865, -490082.66, 58602.14, 0.0, 10.001096, 9.998115 
1.9952032e+3, 2.540078e+2, -344175.8, -573334.4, -35002.184, 0.06973808, -0.26596856, -338948.75, 111753.7, 0.0, 10.001421, 9.998357 
1.9952242e+3, 2.6400572e+2, -294252.34, -525449.9, -59335.938, 0.0650154, -0.29067186, -279913.3, 72806.9, 0.000000042002604, 10.001193, 9.998128 
1.9952454e+3, 2.7400404e+2, -250198.0, -421088.7, -51052.1, 0.09229316, -0.33615258, -236108.31, 18627.707, 0.0000035134383, 10.000721, 9.99837 
1.9952671e+3, 2.8400293e+2, -172958.6, -451463.44, -31544.719, 0.13004285, -0.22704881, -169430.4, -12683.658, 0.00002820436, 10.001039, 9.997375 
1.9952898e+3, 2.9400212e+2, 182052.47, -201228.17, 9971.813, 0.19730744, -0.118736476, 182311.73, 241067.58, 0.00011358975, 10.00271, 9.997592 
1.9953103e+3, 3.039982e+2, 235508.16, -100914.54, -15954.843, -0.035009306, -0.28081477, 236263.11, 236263.11, 0.00027761882, 10.002515, 9.998057 
1.9953328e+3, 3.1399733e+2, -47653.336, -116401.75, -13648.213, 0.026507298, -0.28337812, -45042.953, -45042.953, 0.0004902181, 10.00002, 9.999118 
2.0049281e+3, 1.239967e+2, -1868908.1, -1624893.6, 43131.367, 0.13628879, 0.10135452, -1617494.3, 107331.76, 0.27641812, 9.997926, 10.001852 
2.0049505e+3, 1.3399577e+2, -1757222.6, -1580416.8, -65436.734, 0.084139235, -0.1526335, -1558833.1, 67997.445, 0.1968332, 9.998511, 10.001017 
2.0049715e+3, 1.439987e+2, -1777577.6, -1693560.8, -78978.24, 0.07922592, 0.10729187, -1646113.8, -117313.88, 0.11636926, 9.998386, 9.999551 
2.0049928e+3, 1.5399756e+2, -1459631.8, -1448193.6, -80835.805, 0.099671215, -0.03346431, -1372874.9, 57938.32, 0.05238356, 9.999739, 9.999911 
2.005014e+3, 1.639964e+2, -1348848.6, -1423393.5, -7710.1016, 0.041007098, -0.10256203, -1348059.5, -15235.171, 0.015589432, 10.000126, 9.999227 
2.005037e+3, 1.7399524e+2, -1331027.4, -1344521.6, -6217.5625, 0.06842606, -0.19314928, -1328599.4, -93767.016, 0.0021699998, 9.99952, 9.999369 
2.0050596e+3, 1.8399426e+2, -1267299.9, -1270454.9, -30025.754, 0.09672293, -0.21623822, -1238810.3, -101971.38, 0.00003871999, 9.999332, 9.999298 
2.00508e+3, 1.9399372e+2, -981922.2, -1053100.6, -53034.78, -0.0070579574, -0.2567298, -953642.2, 85199.125, 0.0, 10.00052, 9.99953 
2.0051008e+3, 2.0399317e+2, -884755.1, -1059695.5, -49200.277, -0.05737136, -0.21708803, -871867.44, 68978.1, 0.0, 10.000934, 9.9986315 
2.0051226e+3, 2.1399243e+2, -847155.7, -975141.06, -67400.29, -0.020391345, -0.1971125, -818208.25, 24645.723, 0.0, 10.000471, 9.998749 
2.0051436e+3, 2.2399138e+2, -787553.4, -940191.9, -112912.74, 0.038974456, -0.15224296, -727586.5, 17278.482, 0.0, 10.0003805, 9.998367 
2.0051634e+3, 2.3398986e+2, -582131.2, -769905.75, -105151.05, 0.08126552, -0.18808183, -535051.94, 111827.33, 0.0, 10.001063, 9.998517 
2.0051837e+3, 2.4398798e+2, -455225.34, -716057.6, -11388.494, 0.11477973, -0.20052205, -454729.06, 94167.49, 0.0, 10.001443, 9.998063 
2.0052049e+3, 2.539854e+2, -372393.0, -599028.0, -26827.979, 0.11335614, -0.32095683, -369260.53, 81658.805, 0.0, 10.001267, 9.998254 
2.005226e+3, 2.6398328e+2, -272852.47, -551469.8, -24111.684, 0.11685598, -0.33124816, -270781.25, 82157.92, 0.000000029896977, 10.0014715, 9.997827 
2.005247e+3, 2.739817e+2, -34629.46, -364136.28, -64815.383, 0.121411175, -0.32982317, -22338.469, 232617.98, 0.0000031274246, 10.002358, 9.997997 
2.0052692e+3, 2.8398076e+2, 56095.164, -330904.34, -3385.342, 0.16661344, -0.19097912, 56124.773, 213091.75, 0.000025154262, 10.002556, 9.9974785 
2.0052919e+3, 2.939801e+2, 42303.805, -260000.94, -3833.481, 0.2037518, -0.06847204, 42352.41, 101326.73, 0.00009776422, 10.001707, 9.997672 
2.0053124e+3, 3.0397582e+2, 140349.52, -49356.863, -17822.865, 0.023507362, -0.3122196, 142009.44, 142009.44, 0.00024035286, 10.001413, 9.998965 
2.0053352e+3, 3.139758e+2, 174049.58, -69488.09, -59989.9, 0.20336932, -0.2985333, 188024.75, 188024.75, 0.000433908, 10.001751, 9.998649 
2.0149247e+3, 1.23971306e+2, -1899612.3, -1695028.3, 125119.27, -0.07960936, -0.010412745, -1635708.0, 89364.65, 0.28771394, 9.998063, 10.001229 
2.0149522e+3, 1.339722e+2, -1704817.3, -1510339.4, -66460.66, 0.36432213, -0.16467136, -1489797.0, 137262.08, 0.20582092, 9.998602, 10.001583 
2.0149669e+3, 1.4397256e+2, -1755010.6, -1686633.9, -66917.66, -0.27384862, -0.18657103, -1645677.0, -116623.016, 0.12247417, 9.99855, 9.999523 
2.0149927e+3, 1.5397392e+2, -1458463.1, -1447705.1, -24665.045, 0.0768985, -0.072803564, -1427839.4, 3204.3735, 0.055639356, 9.999745, 9.999899 
2.015016e+3, 1.63974e+2, -1312797.5, -1371065.3, -40349.496, 0.15862295, -0.032634936, -1292163.3, 40879.953, 0.016791714, 10.000227, 9.999543 
2.015037e+3, 1.7397262e+2, -1310321.8, -1295195.1, -19735.773, 0.07218517, -0.17348106, -1281623.1, -46570.496, 0.0023981123, 9.999501, 9.999717 
2.0150585e+3, 1.839716e+2, -1254447.8, -1265630.5, -17078.49, 0.013633626, -0.22473933, -1242068.6, -105010.016, 0.000045425786, 9.999411, 9.999301 
2.0150803e+3, 1.9397096e+2, -999487.0, -1071611.9, -210.20554, -0.050033297, -0.26488814, -999486.4, 39574.734, 0.0, 10.000439, 9.999444 
2.0151019e+3, 2.0397006e+2, -920180.6, -1092449.4, -77052.35, -0.07377281, -0.24977061, -890746.0, 50322.715, 0.0, 10.000752, 9.998497 
2.0151235e+3, 2.1396852e+2, -895565.25, -1019485.2, -71032.805, 0.0072023286, -0.29414445, -863266.56, -20180.0, 0.0, 10.000228, 9.998562 
2.0151445e+3, 2.2396742e+2, -783242.44, -857144.8, -105930.5, 0.054743577, -0.27627912, -708003.3, 37094.137, 0.0, 10.00005, 9.999103 
2.0151646e+3, 2.3396705e+2, -550058.0, -658588.1, -63967.543, 0.07569646, -0.28463602, -520438.94, 126658.34, 0.0, 10.000853, 9.99939 
2.0151852e+3, 2.4396607e+2, -515333.06, -756461.1, -28271.953, 0.08743041, -0.24863325, -512062.56, 37042.797, 0.0, 10.001091, 9.997952 
2.0152064e+3, 2.5396407e+2, -426208.78, -648374.3, -20390.535, 0.113876656, -0.29015702, -424352.8, 26774.42, 0.0, 10.001007, 9.998039 
2.0152275e+3, 2.6396203e+2, -361152.78, -653696.06, -12092.165, 0.09730502, -0.25634733, -360653.78, -7504.053, 0.0000000091701935, 10.001126, 9.997292 
2.0152493e+3, 2.7396005e+2, -117533.1, -461563.6, -8999.08, 0.07440709, -0.24200055, -117297.87, 137874.34, 0.0000023642951, 10.0020485, 9.997474 
2.0152713e+3, 2.8395835e+2, -2880.628, -352207.44, -48525.332, 0.09044503, -0.15683605, 3734.7935, 160925.58, 0.000021595964, 10.0021305, 9.997532 
2.0152934e+3, 2.9395622e+2, 7450.649, -269451.16, -9967.111, 0.14845349, -0.19630095, 7808.9526, 67020.555, 0.000083873885, 10.001415, 9.997756 
2.0153141e+3, 3.039534e+2, 105200.03, 11289.234, -32592.303, -0.0050042244, -0.33091915, 115402.9, 115402.9, 0.00020823602, 10.000876, 9.999618 
2.0153365e+3, 3.1395608e+2, 37225.438, -94790.06, 64669.637, 0.094488345, -0.13661939, 63625.4, 63625.4, 0.00038362973, 10.00073, 9.998921 
2.0249228e+3, 1.2394595e+2, -1868734.5, -1728485.1, 152954.83, -0.09843241, -0.12579374, -1630346.3, 94969.03, 0.29983783, 9.998562, 10.000731 
2.0249492e+3, 1.3394898e+2, -1871387.3, -1580616.4, -111673.54, 0.28228256, -0.091571, -1542677.3, 84606.39, 0.21537028, 9.997487, 10.001537 
2.0249668e+3, 1.4394717e+2, -1682335.9, -1630747.1, -61684.07, -0.14335583, -0.33694747, -1589681.4, -60380.492, 0.12892798, 9.998959, 9.999707 
2.0249923e+3, 1.5394962e+2, -1510198.3, -1450337.1, -47451.37, 0.10112465, -0.13358223, -1424165.3, 7113.6772, 0.05909158, 9.9993105, 10.000083 
2.0250157e+3, 1.6395023e+2, -1441544.9, -1415486.3, -59352.06, 0.1717758, -0.052769527, -1367750.3, -34477.215, 0.018083457, 9.999303, 9.9996605 
2.025037e+3, 1.7394915e+2, -1201497.0, -1228400.3, -84845.805, 0.09653829, -0.1738402, -1129043.1, 106237.51, 0.0026487417, 10.000235, 9.9998 
2.025059e+3, 1.8394846e+2, -1072173.1, -1166808.5, -48998.934, 0.06503831, -0.20268309, -1051374.4, 85909.86, 0.000052423693, 10.000604, 9.999401 
2.0250814e+3, 1.9394775e+2, -986738.4, -1062695.6, -46424.77, 0.018022848, -0.25738075, -964736.7, 74550.24, 0.0, 10.000489, 9.999484 
2.0251031e+3, 2.0394687e+2, -966512.6, -1098373.8, -99057.06, 0.008582374, -0.25275126, -913451.0, 27843.53, 0.0, 10.000368, 9.998632 
2.0251238e+3, 2.1394548e+2, -843094.5, -981015.44, -107535.63, 0.027001433, -0.29423723, -784307.3, 59003.83, 0.0, 10.000527, 9.998674 
2.025145e+3, 2.2394447e+2, -681029.44, -787240.94, -93629.27, 0.08278889, -0.28355414, -626493.9, 118827.46, 0.0, 10.00066, 9.999282 
2.0251665e+3, 2.3394415e+2, -527934.2, -625733.1, -123550.99, 0.16949832, -0.30605647, -443957.72, 203362.83, 0.0, 10.000913, 9.9995775 
2.0251873e+3, 2.4394351e+2, -526036.1, -755484.1, -102409.45, 0.20576447, -0.251698, -486976.88, 62349.6, 0.0, 10.001007, 9.997988 
2.0252074e+3, 2.5394207e+2, -426093.34, -653188.0, -112298.93, 0.1264697, -0.2312401, -379940.8, 71404.41, 0.0, 10.001033, 9.997992 
2.0252286e+3, 2.6394036e+2, -312927.84, -590104.2, -11955.218, 0.096971795, -0.17530645, -312413.13, 40952.324, 0.000000001074916, 10.001293, 9.997643 
2.0252515e+3, 2.739385e+2, -115607.125, -412856.22, 17342.188, 0.12431333, -0.18337443, -114598.76, 140787.11, 0.0000018159459, 10.001884, 9.997871 
2.0252737e+3, 2.8393683e+2, 10934.062, -321960.38, 7241.055, 0.14539301, -0.12646742, 11091.493, 168495.16, 0.000018189116, 10.002092, 9.997768 
2.0252945e+3, 2.939348e+2, 53613.33, -206302.95, 4985.3774, 0.10830104, -0.183825, 53708.914, 113132.96, 0.000072171526, 10.001567, 9.998104 
2.0253164e+3, 3.039325e+2, 182643.39, -15087.937, 33809.773, 0.11047919, -0.26524398, 188264.66, 188264.66, 0.00017993047, 10.001607, 9.999125 
2.025338e+3, 3.13935e+2, 222855.34, 21272.209, -80289.01, 0.14177106, -0.013870385, 250925.2, 250925.2, 0.00033599298, 10.001797, 9.999241 
2.0349239e+3, 1.2391877e+2, -1870828.1, -1809726.6, -66606.125, 0.033308145, -0.45571458, -1766999.0, -41427.17, 0.3135409, 9.998855, 9.999867 
2.0349409e+3, 1.3392594e+2, -1882577.6, -1626105.5, -64901.945, -0.34006807, 0.060648818, -1610617.0, 16888.426, 0.22593072, 9.997622, 10.001056 
2.0349705e+3, 1.4392243e+2, -1613721.6, -1552251.9, -36455.258, 0.26439774, -0.3468574, -1535304.3, -5762.701, 0.13594478, 9.999226, 10.000116 
2.0349914e+3, 1.5392466e+2, -1468987.6, -1387665.9, -33629.594, 0.040092442, -0.21610598, -1375560.8, 55958.11, 0.06282382, 9.999396, 10.000486 
2.0350127e+3, 1.6392502e+2, -1437411.1, -1433173.9, -57430.586, -0.10640589, -0.1762197, -1377822.9, -44308.188, 0.019494196, 9.999415, 9.999483 
2.0350367e+3, 1.7392479e+2, -1205830.1, -1247094.6, -37081.96, 0.0036611948, -0.19599281, -1184027.0, 51490.24, 0.0029308582, 10.000271, 9.999651 
2.0350602e+3, 1.8392478e+2, -1054243.6, -1136937.4, -63121.6, 0.07108633, -0.15888917, -1020132.5, 117383.46, 0.00006041413, 10.000636, 9.999593 
2.0350826e+3, 1.9392416e+2, -987140.44, -1037784.25, -40181.12, 0.06476078, -0.22492436, -964967.9, 74550.44, 0.0, 10.000384, 9.999705 
2.0351039e+3, 2.0392357e+2, -968643.44, -1057250.1, -111967.125, 0.0035048523, -0.21871968, -892533.25, 48989.727, 0.0, 10.000179, 9.999004 
2.0351236e+3, 2.1392314e+2, -848684.94, -936279.75, -88570.67, -0.08798748, -0.20456038, -793674.56, 49854.973, 0.0, 10.00029, 9.999096 
2.0351447e+3, 2.2392245e+2, -757116.94, -855866.5, -97092.94, -0.050897654, -0.17412165, -697565.56, 47971.97, 0.0, 10.000292, 9.99898 
2.035168e+3, 2.3392119e+2, -601515.25, -709231.1, -95295.53, 0.22154194, -0.25073496, -545911.25, 101637.54, 0.0, 10.0006275, 9.999135 
2.0351893e+3, 2.4392015e+2, -570331.7, -771267.1, -116415.87, 0.27373695, -0.21245334, -517025.5, 32534.85, 0.0, 10.000678, 9.998039 
2.0352075e+3, 2.5391936e+2, -447679.66, -650285.7, -97552.8, 0.019585507, -0.14023091, -408345.38, 43227.777, 0.0, 10.000822, 9.998117 
2.0352285e+3, 2.6391828e+2, -300533.6, -476070.28, -7454.482, -0.07377564, -0.07483576, -300217.6, 53369.168, 0.000000023664393, 10.00093, 9.998593 
2.0352536e+3, 2.7391666e+2, -83070.97, -278531.7, 56881.52, 0.112214155, -0.17381738, -67722.91, 187879.08, 0.0000019634658, 10.001593, 9.998934 
2.035276e+3, 2.8391567e+2, -32824.75, -295638.8, -31893.031, 0.12633197, -0.12332369, -29009.842, 128601.63, 0.000016146072, 10.00161, 9.998172 
2.0352945e+3, 2.9391545e+2, 31604.434, -166308.47, 8243.152, -0.08415779, -0.03599238, 31947.17, 91562.164, 0.00006227005, 10.00119, 9.998566 
2.0353177e+3, 3.039127e+2, -40750.535, -314021.38, 18084.383, 0.06390834, -0.10778959, -39558.953, -39558.953, 0.00015437642, 10.000938, 9.997371 
2.03534e+3, 3.1391066e+2, 144173.6, 60434.88, -42111.555, 0.11069256, -0.13669913, 161687.95, 161687.95, 0.00029131802, 10.000992, 9.999866 
2.0449258e+3, 1.23893805e+2, -1782772.8, -1754742.1, -27098.182, 0.35479927, -0.61160445, -1738249.5, -12436.788, 0.3294151, 9.999425, 9.999992 
2.0449382e+3, 1.3390219e+2, -1688877.0, -1591010.4, -28004.703, -0.4238511, 0.09956212, -1583563.4, 44171.887, 0.23787552, 9.999216, 10.000587 
2.0449711e+3, 1.4389744e+2, -1627331.8, -1547026.1, 35950.344, 0.41555062, -0.40957093, -1533283.9, -3500.007, 0.14372098, 9.9990835, 10.000222 
2.0449914e+3, 1.5390003e+2, -1436094.9, -1356009.6, -44881.93, 0.103748746, -0.25720492, -1335904.1, 95852.76, 0.06692591, 9.999547, 10.00065 
2.0450126e+3, 1.6390051e+2, -1404549.8, -1411085.9, -37832.965, -0.060782727, -0.21765861, -1369844.0, -36092.785, 0.021061258, 9.999594, 9.99956 
2.0450366e+3, 1.7389998e+2, -1275143.3, -1277103.8, -27843.426, 0.0118176555, -0.27346116, -1248262.8, -12505.686, 0.003256253, 9.99977, 9.999695 
2.0450604e+3, 1.8390003e+2, -1163803.5, -1171614.4, -39228.49, 0.0979378, -0.23808412, -1128286.5, 9469.199, 0.00007088071, 9.99982, 9.999745 
2.0450835e+3, 1.9389999e+2, -1009622.75, -1024788.0, -50795.64, 0.13987793, -0.26527262, -965846.94, 73905.7, 0.0, 10.00015, 9.999898 
2.0451048e+3, 2.0389967e+2, -949668.3, -1040722.06, -102994.664, 0.10136855, -0.24263316, -882587.06, 59167.664, 0.0, 10.000259, 9.999092 
2.045124e+3, 2.1389918e+2, -833452.7, -911801.9, -131933.55, -0.063647605, -0.24612825, -735000.6, 108761.53, 0.0, 10.000325, 9.999246 
2.0451447e+3, 2.2389866e+2, -749076.75, -878154.25, -117111.914, -0.054721322, -0.19700639, -679897.7, 65871.85, 0.0, 10.0004425, 9.99877 
2.0451684e+3, 2.3389767e+2, -601235.4, -738488.1, -130721.02, 0.2056162, -0.21959816, -522221.75, 125559.29, 0.0, 10.000739, 9.998891 
2.0451902e+3, 2.4389674e+2, -499178.9, -699441.56, -106427.805, 0.28316975, -0.1715924, -453183.03, 96609.35, 0.0, 10.000998, 9.998386 
2.0452088e+3, 2.5389597e+2, -353483.84, -553864.3, -99082.25, 0.055029944, -0.1377385, -312764.97, 139038.16, 0.0, 10.001252, 9.998569 
2.0452301e+3, 2.6389512e+2, -258511.38, -429249.3, 4017.192, -0.010987077, -0.08548797, -258416.9, 95396.71, 0.00000011200642, 10.001078, 9.998846 
2.045255e+3, 2.7389404e+2, -249931.23, -339362.22, -30644.031, 0.15948693, -0.14617874, -240438.5, 15385.852, 0.000002326167, 10.000347, 9.999117 
2.0452772e+3, 2.8389335e+2, -197880.56, -324140.9, -109042.53, 0.16684403, -0.09951444, -135011.95, 22819.416, 0.000014696717, 10.000237, 9.998641 
2.0452955e+3, 2.938931e+2, 33539.23, -105004.43, -111284.72, -0.06876533, -0.05216993, 95350.87, 155184.39, 0.00005375532, 10.000956, 9.999096 
2.0453201e+3, 3.0389145e+2, 92134.86, -265370.97, 21416.674, 0.18352215, -0.04075233, 93413.27, 93413.27, 0.00013254509, 10.0019, 9.997238 
2.0453428e+3, 3.138881e+2, 429100.94, 163108.89, -138499.39, 0.19011718, -0.16074708, 488120.6, 488120.6, 0.00025431596, 10.00303, 9.999605 
2.0549248e+3, 1.23873495e+2, -1670802.4, -1611566.4, 23033.23, 0.18602346, -0.31705928, -1603664.4, 122350.0, 0.3476065, 9.999796, 10.001217 
2.0549406e+3, 1.3387789e+2, -1681763.9, -1601769.4, -27057.213, -0.15960793, 0.054377943, -1593477.1, 34494.29, 0.2513395, 9.999326, 10.000448 
2.0549676e+3, 1.4387198e+2, -1619351.8, -1568581.4, 34070.21, 0.08064578, -0.5563957, -1551479.1, -21449.525, 0.15236652, 9.9992485, 9.999993 
2.0549917e+3, 1.5387586e+2, -1432160.3, -1364822.3, -15207.054, 0.13475193, -0.25705004, -1361547.3, 70444.59, 0.071473114, 9.999611, 10.000557 
2.0550144e+3, 1.6387685e+2, -1367418.1, -1378721.5, -51363.36, 0.1142777, -0.16941252, -1321396.4, 12585.168, 0.022826005, 9.999773, 9.999704 
2.0550364e+3, 1.7387474e+2, -1257860.6, -1250330.8, -13062.671, -0.015760392, -0.3990012, -1240501.3, -4500.963, 0.0036400491, 9.9998, 9.999868 
2.0550594e+3, 1.8387401e+2, -1150116.3, -1163351.9, -45307.8, -0.04466826, -0.44774866, -1110945.5, 27059.512, 0.00008593674, 9.999893, 9.999774 
2.0550835e+3, 1.9387497e+2, -1005229.3, -1007555.4, -29383.988, 0.10162815, -0.38845718, -976985.4, 63007.043, 0.0, 10.000102, 10.000045 
2.0551057e+3, 2.0387499e+2, -991098.1, -1082155.6, -115420.84, 0.115398765, -0.3357367, -912550.94, 29440.834, 0.0, 10.000068, 9.998899 
2.0551248e+3, 2.1387354e+2, -885405.06, -963685.7, -115953.195, -0.050514564, -0.41347358, -802164.4, 41845.223, 0.0, 10.000082, 9.999005 
2.055145e+3, 2.2387294e+2, -813010.2, -924778.25, -122662.72, -0.11878309, -0.3523003, -734101.1, 11918.378, 0.0, 10.000079, 9.998623 
2.0551673e+3, 2.338735e+2, -645896.94, -769254.56, -103203.445, -0.008012133, -0.20965484, -587345.9, 60672.59, 0.0, 10.000476, 9.998807 
2.0551892e+3, 2.4387322e+2, -512362.22, -638391.8, -110373.53, 0.060951203, -0.12002081, -448281.84, 101741.6, 0.0, 10.0006275, 9.998979 
2.0552106e+3, 2.5387168e+2, -351235.1, -477539.4, -70711.266, 0.08876997, -0.2337486, -319580.72, 132457.08, 0.0, 10.000956, 9.999231 
2.0552324e+3, 2.6387075e+2, -348519.2, -523457.72, -35137.633, 0.09478117, -0.20491387, -341725.4, 12322.659, 0.00000017468948, 10.000689, 9.998382 
2.0552552e+3, 2.7387062e+2, -330136.53, -453795.88, -37849.203, 0.111110225, -0.11072679, -319471.6, -63417.414, 0.0000023499456, 10.000116, 9.998446 
2.0552766e+3, 2.838697e+2, -246762.16, -318617.97, -100207.48, 0.04614901, -0.052728143, -176236.55, -18172.338, 0.000012296112, 9.999802, 9.998878 
2.0552969e+3, 2.9386777e+2, 8682.908, -75084.78, -57560.0, -0.05623464, -0.23486042, 37984.805, 98064.625, 0.000044415407, 10.000609, 9.999462 
2.0553225e+3, 3.0386785e+2, 62840.938, -163000.81, 34443.844, 0.19369243, -0.12115383, 67977.266, 67977.266, 0.00011238728, 10.001243, 9.998236 
2.055345e+3, 3.138665e+2, 171174.47, -133784.36, -155935.05, 0.030753981, -0.15237848, 236790.7, 236790.7, 0.00022372513, 10.002057, 9.998013 
2.0649236e+3, 1.2384874e+2, -1838879.3, -1724861.0, 23609.592, 0.15409376, -0.3245331, -1720165.6, 6090.644, 0.36771804, 9.998771, 10.000503 
2.0649436e+3, 1.3385451e+2, -1497354.1, -1472975.4, -67793.914, 0.16757444, 0.12447468, -1416283.8, 211916.61, 0.26616043, 10.000604, 10.001016 
2.0649655e+3, 1.43848e+2, -1664900.3, -1606802.3, 47602.094, -0.00096660736, -0.5751962, -1580085.6, -49821.52, 0.1618756, 9.998979, 9.999871 
2.0649911e+3, 1.5385176e+2, -1497101.5, -1392531.5, -1178.0138, 0.15742944, -0.2873004, -1392518.3, 39708.86, 0.07651462, 9.999144, 10.000582 
2.0650148e+3, 1.6385333e+2, -1389382.8, -1374694.6, 11592.524, 0.20156573, -0.15046255, -1368315.6, -34104.754, 0.024829434, 9.99959, 9.999799 
2.0650369e+3, 1.7385152e+2, -1187632.8, -1209232.4, 7407.9434, 0.034274165, -0.35779843, -1185336.3, 50890.934, 0.0041003036, 10.000276, 9.999906 
2.0650598e+3, 1.838505e+2, -1086812.1, -1162070.1, -15778.063, -0.012331979, -0.42427528, -1083638.0, 54597.22, 0.000108260756, 10.000467, 9.999492 
2.0650837e+3, 1.9385086e+2, -944930.5, -1007182.9, -61218.188, 0.08212725, -0.39645794, -907379.9, 132849.48, 0.0, 10.000645, 9.999779 
2.0651059e+3, 2.0385078e+2, -913910.56, -1038379.8, -141143.64, 0.1167317, -0.34181383, -821889.94, 120340.15, 0.0, 10.000567, 9.998954 
2.0651256e+3, 2.1384984e+2, -839799.94, -936092.6, -152139.75, 0.019726034, -0.3716351, -728370.06, 115872.27, 0.0, 10.000378, 9.999055 
2.0651458e+3, 2.2384939e+2, -755001.5, -861439.6, -87344.18, -0.03274446, -0.310803, -705940.2, 40309.777, 0.0, 10.000317, 9.998946 
2.0651673e+3, 2.3384954e+2, -617714.56, -714295.0, -66020.516, -0.034264475, -0.24552631, -584208.4, 64042.97, 0.0, 10.000498, 9.999167 
2.0651895e+3, 2.4384925e+2, -495524.78, -610402.7, -44384.11, 0.029383883, -0.1864883, -480374.6, 69880.68, 0.0, 10.000654, 9.999157 
2.0652121e+3, 2.5384805e+2, -360092.6, -460378.78, -76301.75, 0.16002683, -0.27882028, -318932.4, 133332.89, 0.0, 10.000805, 9.999415 
2.0652343e+3, 2.638472e+2, -305429.53, -511617.25, -27896.883, 0.21118999, -0.25445876, -301721.8, 52553.19, 0.00000012472299, 10.001002, 9.998327 
2.0652558e+3, 2.7384683e+2, -151179.95, -366661.72, -26435.875, 0.13120869, -0.16990764, -147984.14, 108299.73, 0.0000018192295, 10.0013485, 9.998451 
2.0652774e+3, 2.838461e+2, -14775.711, -203215.72, -28101.465, 0.080668874, -0.102551684, -10674.297, 147618.42, 0.000008845643, 10.001361, 9.998936 
2.0652986e+3, 2.9384428e+2, 17554.648, -73855.086, -66957.67, 0.06003169, -0.2675786, 52919.29, 113226.3, 0.000033872344, 10.000687, 9.999438 
2.0653234e+3, 3.0384356e+2, 90075.516, -67572.22, 88406.016, 0.20726614, -0.26615486, 129694.99, 129694.99, 0.00009226976, 10.000989, 9.99906 
2.0653486e+3, 3.13844e+2, 244868.4, -73183.195, -268967.88, 0.20687191, -0.2006607, 398305.28, 398305.28, 0.0001939828, 10.002391, 9.998303 
2.0749204e+3, 1.2382033e+2, -2026946.6, -2180474.0, -124298.195, -0.14683904, -0.6071847, -1957619.0, -231088.6, 0.38886976, 9.999067, 9.997211 
2.0749468e+3, 1.3383183e+2, -1439351.9, -1371372.4, -88040.93, 0.37386042, 0.28241825, -1310987.9, 317436.22, 0.28190908, 10.000722, 10.001969 
2.0749648e+3, 1.4382555e+2, -1631945.5, -1578144.9, -10347.754, -0.0367078, -0.43789512, -1576223.3, -45735.85, 0.17213808, 9.999147, 9.9999895 
2.0749892e+3, 1.5382762e+2, -1468202.6, -1347914.0, 18789.717, 0.021225601, -0.3433269, -1345047.3, 87416.58, 0.08207624, 9.999199, 10.000889 
2.0750132e+3, 1.6382979e+2, -1360989.5, -1351367.8, 21898.39, 0.0122955395, -0.1726265, -1333758.0, 683.2362, 0.027111659, 9.999742, 9.9998865 
2.0750374e+3, 1.7383021e+2, -1188970.3, -1214838.1, 39737.42, 0.028206408, -0.15068807, -1160114.9, 76323.5, 0.0046569863, 10.000298, 9.999851 
2.075061e+3, 1.8382949e+2, -1121365.6, -1253341.9, -26700.22, 0.019127341, -0.1576213, -1116168.5, 22277.525, 0.00014131474, 10.000548, 9.998827 
2.0750833e+3, 1.9382754e+2, -1008984.0, -1124785.6, -46244.96, -0.04600282, -0.28604528, -992782.9, 47681.566, 0.0000000002137382, 10.000573, 9.999008 
2.075105e+3, 2.0382681e+2, -923867.6, -1020080.6, -165235.73, -0.07335738, -0.2626931, -799878.0, 142593.55, 0.0, 10.00039, 9.999167 
2.075126e+3, 2.138278e+2, -844389.3, -897363.3, -143693.92, 0.0053186077, -0.13743874, -724761.6, 119701.3, 0.0, 10.000165, 9.999423 
2.075147e+3, 2.2382766e+2, -760502.0, -787573.56, -91415.33, 0.0276108, -0.097188145, -681625.75, 64838.082, 0.0, 9.999962, 9.999618 
2.0751682e+3, 2.3382567e+2, -609772.4, -628922.75, -44133.934, -0.016442426, -0.32048878, -574186.9, 74293.92, 0.0, 10.000218, 9.99988 
2.0751902e+3, 2.4382462e+2, -569871.3, -674837.44, -53888.168, -0.0052634897, -0.366925, -547132.0, 3357.8752, 0.0, 10.000272, 9.998896 
2.0752129e+3, 2.5382483e+2, -423211.5, -534334.3, -56608.543, 0.12529607, -0.2807361, -399453.3, 53035.258, 0.0, 10.000564, 9.999022 
2.0752351e+3, 2.638242e+2, -346849.25, -497435.3, -36230.605, 0.15241437, -0.22379534, -338585.72, 15910.712, 0.000000021824269, 10.000586, 9.998621 
2.0752569e+3, 2.7382243e+2, -169267.55, -322177.22, 2928.4197, 0.06535994, -0.32675913, -169211.48, 87305.23, 0.00000084431264, 10.00101, 9.998917 
2.0752788e+3, 2.8382188e+2, -108307.82, -276264.25, -73220.13, 0.0405562, -0.26050702, -80870.016, 77653.336, 0.000005133315, 10.000861, 9.998664 
2.0753e+3, 2.9382202e+2, -68694.02, -184986.1, -69607.766, 0.10431759, -0.18590967, -36141.637, 24378.975, 0.000023723636, 10.000379, 9.998825 
2.0753227e+3, 3.0381855e+2, 10435.287, -49597.793, 106667.55, -0.019085014, -0.44044492, 91229.2, 91229.2, 0.00007270888, 10.000269, 9.999496 
2.075352e+3, 3.1382164e+2, 188383.78, 88114.75, -143721.69, 0.23473157, -0.20074008, 290464.22, 290464.22, 0.00016093491, 10.0013, 9.999885 
2.0849192e+3, 1.2379756e+2, -1919384.4, -2104189.0, -5200.679, -0.18461856, -0.5487919, -1919238.1, -192485.16, 0.40993002, 9.999717, 9.997411 
2.0849445e+3, 1.3380644e+2, -1621918.4, -1497340.5, -73210.2, 0.18136244, 0.10647305, -1463506.4, 165165.83, 0.29801235, 9.999269, 10.001505 
2.084966e+3, 1.4380255e+2, -1524881.6, -1525726.8, -1895.9764, 0.1512193, -0.3561548, -1523361.8, 7350.6313, 0.18298064, 9.999923, 9.999968 
2.0849892e+3, 1.5380348e+2, -1347076.4, -1322117.8, -29512.807, 0.050257165, -0.3515188, -1302554.3, 130146.51, 0.088167645, 10.000232, 10.000594 
2.085013e+3, 1.638054e+2, -1341688.0, -1354700.1, -35020.547, 0.016161334, -0.18286587, -1312574.3, 22107.307, 0.029713616, 9.999901, 9.999811 
2.0850374e+3, 1.7380632e+2, -1296545.4, -1268722.4, -49917.168, 0.04895099, -0.11106154, -1230814.4, 5860.4395, 0.005333032, 9.99953, 9.999877 
2.0850612e+3, 1.8380585e+2, -1283936.9, -1296517.9, -44466.74, 0.06533579, -0.107795365, -1245317.9, -106637.875, 0.00018960002, 9.999287, 9.999146 
2.085084e+3, 1.9380389e+2, -1081606.0, -1122539.6, -8061.908, -0.00095469976, -0.26564568, -1080075.5, -39378.527, 0.000000020895914, 9.999935, 9.999325 
2.0851058e+3, 2.038031e+2, -926222.5, -979944.7, -69125.41, -0.023617655, -0.2806308, -878922.7, 63780.164, 0.0, 10.00024, 9.999495 
2.0851262e+3, 2.138038e+2, -792474.44, -833099.5, -87264.24, 0.0009912075, -0.21724953, -723189.9, 121504.72, 0.0, 10.000373, 9.999747 
2.0851472e+3, 2.2380356e+2, -695187.7, -799806.4, -32540.873, 0.027827298, -0.18942863, -685892.0, 60803.97, 0.0, 10.000574, 9.999252 
2.0851693e+3, 2.3380178e+2, -530670.56, -642778.44, -96594.54, 0.02450431, -0.3427446, -475043.94, 173669.14, 0.0, 10.000957, 9.999444 
2.0851915e+3, 2.4380077e+2, -461931.25, -631538.8, -126127.67, 0.07058257, -0.35833365, -394748.63, 155974.78, 0.0, 10.001046, 9.998819 
2.0852138e+3, 2.538007e+2, -392233.88, -526846.0, -137436.27, 0.16344748, -0.29397273, -306507.8, 146217.75, 0.0, 10.000805, 9.998957 
2.0852359e+3, 2.638002e+2, -332683.53, -439658.56, -70283.82, 0.18292658, -0.2379614, -297849.28, 56882.176, 0.0, 10.000462, 9.999079 
2.0852573e+3, 2.7379915e+2, -292331.72, -326883.28, -61192.22, 0.07036987, -0.316642, -246023.38, 10719.254, 0.000000115745564, 9.999926, 9.999407 
2.0852795e+3, 2.8379855e+2, -220522.28, -348703.06, -83087.625, 0.1038528, -0.2749996, -179678.73, -20929.744, 0.0000020138657, 10.000138, 9.998522 
2.0853025e+3, 2.9379812e+2, 65372.06, -133232.08, -114148.89, 0.27465734, -0.23165426, 117367.27, 178120.42, 0.000014504671, 10.0013685, 9.998702 
2.0853238e+3, 3.037961e+2, 224649.33, 56774.484, 105687.82, 0.0108744195, -0.34488684, 275676.38, 275676.38, 0.000053405533, 10.00166, 9.999587 
2.0853528e+3, 3.1379825e+2, 13017.751, -75135.52, -243040.13, 0.26833454, -0.18191147, 215945.67, 215945.67, 0.000125829, 10.0002985, 9.999303 
2.0949231e+3, 1.2377953e+2, -1643636.8, -1559216.3, -24978.86, 0.11297836, -0.25435364, -1552379.1, 174554.38, 0.42994058, 9.999847, 10.001961 
2.0949373e+3, 1.3377818e+2, -1724243.0, -1696778.3, -62181.125, -0.5456337, -0.4153636, -1646831.3, -17884.83, 0.31401625, 9.999362, 9.999697 
2.0949686e+3, 1.4377889e+2, -1514884.6, -1551542.3, -2863.3987, 0.32516834, -0.32636592, -1514662.3, 16277.69, 0.19429262, 10.000135, 9.999687 
2.09499e+3, 1.5377924e+2, -1395815.3, -1442009.5, -15907.52, 0.0768867, -0.30330265, -1390867.3, 42071.582, 0.094824284, 10.000313, 9.999663 
2.0950134e+3, 1.6378008e+2, -1329535.4, -1371357.9, -72062.945, 0.014021268, -0.17351285, -1275411.0, 59521.668, 0.032688897, 10.000082, 9.999616 
2.0950364e+3, 1.7377989e+2, -1282135.4, -1247750.0, -56057.24, -0.036514085, -0.22075853, -1206308.1, 30627.582, 0.0061590113, 9.999566, 10.000006 
2.0950598e+3, 1.8377967e+2, -1181036.6, -1106670.6, -42688.44, -0.06457172, -0.25508195, -1087242.0, 51694.027, 0.00026052183, 9.999384, 10.000404 
2.095085e+3, 1.9378002e+2, -996949.44, -932707.5, 25235.662, 0.0687059, -0.3204599, -923980.0, 116946.18, 0.00000016154512, 9.999871, 10.00066 
2.0951074e+3, 2.0377964e+2, -935171.0, -953226.5, -78494.484, 0.077914424, -0.3825263, -865186.8, 77737.445, 0.0, 10.000045, 9.999771 
2.0951255e+3, 2.1377787e+2, -821169.0, -831509.56, -72424.19, -0.120858304, -0.58181083, -753730.75, 91206.7, 0.0, 10.000119, 9.999874 
2.0951457e+3, 2.2377707e+2, -839203.7, -1018123.5, -33799.9, -0.20356107, -0.55926645, -833031.44, -86084.99, 0.0, 10.000227, 9.99792 
2.0951694e+3, 2.3377784e+2, -677719.7, -883635.44, -65224.06, -0.060490344, -0.31054443, -658798.56, -9849.768, 0.0, 10.00068, 9.997923 
2.0951927e+3, 2.4377762e+2, -520785.4, -659433.56, -144501.86, 0.053526152, -0.16107954, -429839.06, 121117.56, 0.0, 10.000642, 9.998823 
2.0952146e+3, 2.5377566e+2, -410750.97, -511363.0, -128475.93, 0.1342087, -0.3083362, -323083.22, 129892.41, 0.0, 10.000568, 9.999178 
2.0952359e+3, 2.6377514e+2, -349294.88, -388250.9, -105287.984, 0.10397437, -0.29351845, -261698.38, 93281.77, 0.0, 10.000106, 9.9995985 
2.0952566e+3, 2.7377668e+2, -297217.84, -276620.16, -63537.383, -0.016084503, -0.16699544, -222552.36, 34412.31, 0.0, 9.999671, 9.999871 
2.0952798e+3, 2.83776e+2, -305347.84, -404190.2, -64992.62, 0.0654926, -0.14983414, -273120.44, -114149.34, 0.00000039293647, 9.999634, 9.998382 
2.0953052e+3, 2.9377264e+2, 17285.35, -142266.7, -38944.848, 0.3762611, -0.38802645, 26283.844, 87287.31, 0.000007667558, 10.0009775, 9.99883 
2.0953254e+3, 3.037746e+2, 63919.613, -67223.32, 41906.344, -0.038310833, -0.1054856, 76166.91, 76166.91, 0.000037309022, 10.000825, 9.999109 
2.0953518e+3, 3.1377324e+2, -269475.34, -406323.66, -65890.19, 0.05156125, -0.21669303, -242908.02, -242908.02, 0.0000961441, 9.999301, 9.997466 
2.1049255e+3, 1.237574e+2, -1699476.1, -1521053.9, -104660.82, 0.4518383, 0.03719336, -1472742.3, 254411.1, 0.44859928, 9.998759, 10.003039 
2.1049355e+3, 1.3375284e+2, -1711316.3, -1653977.6, -113288.25, -0.6121633, -0.5347173, -1565787.4, 63409.688, 0.3298663, 9.999291, 10.000173 
2.1049698e+3, 1.4375578e+2, -1514492.9, -1569953.9, 29560.463, 0.43772194, -0.2329218, -1501691.9, 29476.148, 0.20615475, 10.000248, 9.999505 
2.1049905e+3, 1.5375578e+2, -1372902.6, -1425877.1, 17942.922, 0.101581894, -0.24503969, -1367397.4, 65772.68, 0.10215144, 10.000507, 9.99966 
2.1050131e+3, 1.6375567e+2, -1321838.8, -1365080.4, 31556.219, 0.00774166, -0.21182215, -1305207.1, 29965.355, 0.036114734, 10.000146, 9.9996 
2.1050367e+3, 1.7375529e+2, -1211671.1, -1209235.6, 15013.547, 0.015920322, -0.2834391, -1195390.5, 41785.49, 0.007176738, 10.000036, 10.000027 
2.1050604e+3, 1.8375544e+2, -1122486.8, -1064149.1, 24709.494, 0.04098662, -0.2924881, -1055090.0, 84082.445, 0.0003661867, 9.999721, 10.000536 
2.105085e+3, 1.937562e+2, -1036904.56, -935728.8, -24667.486, 0.12440163, -0.32836425, -930035.1, 111124.67, 0.00000091193453, 9.999525, 10.000807 
2.1051075e+3, 2.037561e+2, -989800.9, -987969.9, -147128.48, 0.11747571, -0.37017095, -841754.06, 101402.41, 0.0, 9.999656, 9.999749 
2.105126e+3, 2.1375437e+2, -760506.2, -819212.5, -179697.84, -0.08946195, -0.5547835, -607779.9, 237390.33, 0.0, 10.00055, 9.999789 
2.1051468e+3, 2.2375374e+2, -736237.8, -939320.44, -87631.625, -0.15845184, -0.51869863, -703652.5, 43525.2, 0.0, 10.000838, 9.998149 
2.1051702e+3, 2.3375468e+2, -675300.5, -851557.25, -31425.498, -0.040585194, -0.27247074, -669865.1, -20688.412, 0.0, 10.00059, 9.998167 
2.1051933e+3, 2.4375446e+2, -524958.06, -670405.4, -17377.932, 0.08662537, -0.13595635, -522910.6, 28273.646, 0.0, 10.000624, 9.998773 
2.1052156e+3, 2.537523e+2, -361188.75, -500295.2, -51402.484, 0.16556002, -0.29051113, -344255.75, 108949.875, 0.0, 10.000951, 9.999083 
2.1052368e+3, 2.637516e+2, -211081.95, -346035.0, -43548.9, 0.16177712, -0.27884057, -198249.16, 156962.88, 0.0, 10.001141, 9.999398 
2.1052574e+3, 2.7375278e+2, -102295.52, -211821.34, -91938.305, 0.035593837, -0.15970968, -50046.152, 207153.27, 0.0, 10.001125, 9.999621 
2.1052803e+3, 2.8375205e+2, -86549.586, -270048.56, -48507.688, 0.104333065, -0.14049187, -74515.81, 84690.43, 0.00000006547354, 10.001054, 9.998591 
2.1053056e+3, 2.93749e+2, 7520.8613, -128325.31, -56930.004, 0.34431145, -0.36729833, 28223.793, 89461.53, 0.000004738257, 10.000873, 9.998955 
2.105327e+3, 3.0375132e+2, 56623.195, -120249.84, 29273.084, 0.06105377, -0.030193793, 61342.094, 61342.094, 0.00002905632, 10.000957, 9.998686 
2.1053526e+3, 3.1374818e+2, 115974.625, -76641.164, -110031.32, 0.111236535, -0.2747953, 165892.94, 165892.94, 0.00007991688, 10.001297, 9.998772 
2.1149194e+3, 1.2372433e+2, -1973092.6, -2043012.4, -111724.77, -0.16085784, -0.35811284, -1890985.8, -163505.94, 0.46656317, 9.998964, 9.998186 
2.114939e+3, 1.3373017e+2, -1521964.5, -1334123.9, -55150.492, -0.24676606, -0.25567007, -1319128.6, 310298.1, 0.34608045, 9.999417, 10.003241 
2.1149692e+3, 1.4373313e+2, -1489226.5, -1568788.6, 44366.39, 0.2852399, -0.09263084, -1469418.1, 61979.582, 0.21890919, 10.000521, 9.999397 
2.1149902e+3, 1.5373315e+2, -1295079.0, -1297179.0, 27983.338, -0.019585758, -0.17210452, -1268126.0, 165268.11, 0.110347085, 10.000665, 10.000577 
2.115012e+3, 1.6373199e+2, -1280685.5, -1319351.3, 3698.8186, -0.20118621, -0.3134424, -1280334.9, 55067.855, 0.040102176, 10.00032, 9.999836 
2.1150376e+3, 1.737324e+2, -1214217.9, -1226120.5, 20021.61, 0.06405629, -0.29837224, -1199281.9, 38114.883, 0.008443992, 10.000075, 9.999896 
2.115062e+3, 1.8373291e+2, -1183897.6, -1203637.8, -3347.2927, 0.19088492, -0.22208492, -1183345.5, -43954.22, 0.00052604213, 9.999771, 9.999552 
2.115084e+3, 1.9373234e+2, -1125855.0, -1095951.3, -24163.914, 0.032777984, -0.28505167, -1082487.4, -41088.953, 0.0000034897541, 9.999427, 9.999748 
2.1151055e+3, 2.0373227e+2, -1048131.1, -1054162.1, -134868.38, -0.08352846, -0.24848273, -916244.56, 27155.996, 0.0, 9.999423, 9.999406 
2.1151271e+3, 2.1373321e+2, -819613.25, -871968.0, -133341.75, -0.053036626, -0.14225133, -709903.6, 135489.34, 0.0, 10.000275, 9.999551 
2.1151489e+3, 2.2373344e+2, -685841.5, -748295.8, -105088.945, -0.04484791, -0.073991016, -607438.3, 139951.97, 0.0, 10.000459, 9.999645 
2.115171e+3, 2.3373216e+2, -588458.5, -617602.3, -26000.795, -0.051697098, -0.22488512, -573224.7, 76174.57, 0.0, 10.000351, 9.999891 
2.1151932e+3, 2.4373104e+2, -591521.9, -718211.6, -21835.852, -0.026157971, -0.26913902, -587863.9, -36454.965, 0.0, 10.00024, 9.998621 
2.1152161e+3, 2.537302e+2, -424982.88, -577203.1, -25899.844, 0.11286987, -0.25644633, -420696.78, 32722.95, 0.0, 10.000719, 9.998655 
2.1152383e+3, 2.637292e+2, -342185.66, -515781.63, -55642.78, 0.15586694, -0.20952341, -325881.7, 29549.096, 0.0, 10.000713, 9.99843 
2.115259e+3, 2.7372754e+2, -201709.89, -360374.2, -68849.2, 0.05775044, -0.28160337, -176000.13, 81445.6, 0.0, 10.000875, 9.998716 
2.1152805e+3, 2.8372642e+2, -142874.56, -281652.44, -69899.3, -0.03498625, -0.26577637, -113771.19, 45686.563, 0.00000005479561, 10.000602, 9.99873 
2.1153034e+3, 2.9372635e+2, -40702.176, -162566.63, -30903.78, -0.00092061725, -0.2267906, -33313.25, 28149.86, 0.0000044706885, 10.000568, 9.998873 
2.1153279e+3, 3.0372587e+2, -134856.1, -279420.72, 9804.218, -0.008979237, -0.111610554, -134194.22, -134194.22, 0.000027145721, 10.0000105, 9.998012 
2.1153545e+3, 3.1372306e+2, 166827.44, 304262.56, 22683.244, 0.09878261, -0.32165107, 307909.6, 307909.6, 0.00007500438, 10.000197, 10.001884 
2.1249221e+3, 1.23704545e+2, -2232104.0, -2656075.3, -71973.47, 0.18552308, -0.05815636, -2220218.8, -492542.9, 0.48543465, 9.99915, 9.993926 
2.1249413e+3, 1.3370726e+2, -1352490.0, -1241486.4, 28833.64, -0.036978524, -0.1929024, -1234443.5, 395210.44, 0.3637423, 10.001207, 10.003437 
2.1249685e+3, 1.4370981e+2, -1532500.3, -1611458.8, 96159.97, 0.19070613, -0.066286094, -1468030.8, 63597.406, 0.23315269, 10.000282, 9.999244 
2.124991e+3, 1.5370987e+2, -1308449.6, -1311889.4, -3248.2935, 0.002311968, -0.13358891, -1306494.0, 127130.98, 0.1197026, 10.00057, 10.000544 
2.1250129e+3, 1.6370878e+2, -1246583.5, -1280078.1, -66502.336, -0.112554744, -0.27996618, -1194752.1, 140880.36, 0.044803485, 10.000441, 10.000083 
2.125038e+3, 1.7370926e+2, -1213785.9, -1204035.9, -59161.21, 0.11825179, -0.27498838, -1149549.1, 88074.26, 0.01004214, 9.999977, 10.000108 
2.125062e+3, 1.8370971e+2, -1233962.6, -1262210.1, -7138.8467, 0.23948637, -0.19956237, -1232261.0, -92643.086, 0.0007722133, 9.999571, 9.999242 
2.1250835e+3, 1.9370875e+2, -1068959.0, -1117702.4, -2989.575, 0.037603203, -0.2633965, -1068776.4, -27144.775, 0.000010944595, 10.000006, 9.999331 
2.1251053e+3, 2.0370874e+2, -949705.4, -993640.8, -42286.09, -0.06893644, -0.20219606, -924021.25, 19613.775, 0.0, 10.000063, 9.9994955 
2.1251272e+3, 2.1371038e+2, -871573.25, -873027.0, -43892.62, -0.033837423, -0.044220757, -828401.5, 17219.334, 0.0, 9.999842, 9.999726 
2.1251497e+3, 2.2371064e+2, -760299.7, -755758.4, -13076.992, 0.02842587, 0.004298231, -744756.4, 2860.3362, 0.0, 9.999813, 9.99991 
2.1251722e+3, 2.3370852e+2, -600680.1, -590418.2, -63618.13, 0.05813833, -0.25851968, -531724.44, 117906.26, 0.0, 10.000125, 10.000188 
2.1251945e+3, 2.4370718e+2, -575392.56, -715500.9, -83231.91, 0.09017541, -0.3385246, -536657.3, 14983.604, 0.0, 10.000401, 9.998552 
2.1252167e+3, 2.53707e+2, -444357.0, -604623.9, -105739.96, 0.11249461, -0.23728709, -391816.75, 61830.016, 0.0, 10.000685, 9.998484 
2.125239e+3, 2.637061e+2, -304141.16, -483142.44, -75881.46, 0.15493663, -0.1741064, -276303.13, 79354.18, 0.0, 10.000925, 9.998545 
2.1252607e+3, 2.737036e+2, -182423.95, -334307.2, -57849.887, 0.13965057, -0.33372098, -162899.67, 94779.305, 0.0, 10.000962, 9.998844 
2.125282e+3, 2.837026e+2, -93468.32, -287054.34, -999.2233, 0.04978743, -0.3052905, -93463.164, 66226.69, 0.000000117451826, 10.001021, 9.998521 
2.1253034e+3, 2.937035e+2, 8061.399, -171116.89, -48122.348, -0.07824522, -0.13377762, 20167.756, 81855.47, 0.0000050467984, 10.001022, 9.998609 
2.1253291e+3, 3.0370125e+2, 50296.184, -229136.88, 65317.773, 0.07688349, -0.16437382, 64810.39, 64810.39, 0.00002697455, 10.0013275, 9.997796 
2.1253565e+3, 3.1370044e+2, 309553.0, 404988.56, -61882.074, 0.28256056, -0.13243282, 435414.1, 435414.1, 0.00007158717, 10.000898, 10.002327 
2.1349424e+3, 1.336851e+2, -1474938.5, -1497262.3, -1477.821, -0.0866939, -0.19432439, -1474841.1, 155027.69, 0.38411817, 10.00128, 10.000659 
2.1349669e+3, 1.4368539e+2, -1527588.6, -1656299.5, 54746.94, -0.09381187, -0.17498685, -1507452.4, 24411.654, 0.24951555, 10.000476, 9.998802 
2.1349922e+3, 1.5368575e+2, -1349878.6, -1423460.3, 13533.982, 0.012510156, -0.13028118, -1347468.3, 86396.21, 0.13052814, 10.000697, 9.999608 
2.1350162e+3, 1.6368592e+2, -1198090.9, -1226303.6, -96302.59, 0.0744007, -0.11175372, -1114867.0, 220995.48, 0.050404422, 10.000652, 10.000371 
2.1350376e+3, 1.7368579e+2, -1172873.8, -1126597.3, -69668.76, 0.043239117, -0.21741226, -1076324.9, 161531.39, 0.012084308, 10.000009, 10.000628 
2.1350598e+3, 1.8368572e+2, -1202495.1, -1218418.8, -11329.087, -0.0013199623, -0.23837227, -1196610.0, -56756.49, 0.001155736, 9.9996605, 9.9995 
2.1350835e+3, 1.936854e+2, -1065722.5, -1097664.6, 23898.395, -0.0037359165, -0.25587654, -1052949.8, -11090.065, 0.000030850606, 9.999943, 9.999502 
2.135106e+3, 2.0368537e+2, -949492.0, -938954.3, -63649.03, -0.05044195, -0.22627427, -880356.44, 63504.777, 0.0, 9.999833, 9.999982 
2.1351263e+3, 2.1368574e+2, -869105.0, -809419.5, -40774.285, -0.14712074, -0.24989283, -788733.75, 57122.19, 0.0, 9.999595, 10.00028 
2.1351485e+3, 2.2368547e+2, -876635.5, -903450.9, -15618.573, -0.11867119, -0.25276944, -869459.06, -121602.45, 0.0, 9.999427, 9.999074 
2.1351734e+3, 2.3368384e+2, -712989.7, -769823.0, -37723.227, 0.14572786, -0.35882154, -694177.6, -44307.316, 0.0, 9.999898, 9.999065 
2.1351965e+3, 2.4368279e+2, -644269.8, -774310.75, -86288.68, 0.21862519, -0.33730513, -601246.75, -49365.805, 0.0, 10.000044, 9.998317 
2.1352167e+3, 2.5368255e+2, -481043.7, -629488.1, -78019.19, 0.029991994, -0.23788589, -447581.5, 6306.13, 0.0, 10.000463, 9.998417 
2.1352385e+3, 2.6368192e+2, -306097.88, -389009.03, -86066.05, -0.030418316, -0.18280114, -252023.73, 103871.125, 0.0, 10.000522, 9.999378 
2.1352619e+3, 2.7368042e+2, -159057.27, -225272.84, -39553.734, 0.13281746, -0.34259498, -140583.81, 117321.17, 0.00000000014169585, 10.000699, 9.999721 
2.135284e+3, 2.836797e+2, -225315.16, -426709.53, -21278.479, 0.09374657, -0.2983882, -223091.52, -63179.813, 0.000000256191, 10.000482, 9.9978 
2.1353047e+3, 2.9367992e+2, -89519.01, -297726.34, -11349.623, -0.086775765, -0.11620634, -88902.16, -26986.063, 0.0000052967753, 10.0006895, 9.997895 
2.1353295e+3, 3.036763e+2, -79611.984, -264874.38, 48827.46, -0.049987942, -0.26453224, -67530.91, -67530.91, 0.000025200057, 10.000416, 9.997947 
2.1353562e+3, 3.1367618e+2, -21911.68, 57249.465, -44400.688, 0.086916566, -0.18032925, 77150.34, 77150.34, 0.00006359548, 9.999561, 10.000522 
2.144944e+3, 1.3366164e+2, -1584928.8, -1582412.1, -45797.957, 0.036097515, -0.12753998, -1537855.1, 92245.266, 0.40760165, 10.000266, 10.000193 
2.144967e+3, 1.436604e+2, -1641233.6, -1672452.4, -24172.92, -0.03801588, -0.25505978, -1628068.3, -95960.53, 0.26811564, 9.999475, 9.999166 
2.1449925e+3, 1.536616e+2, -1553193.8, -1493475.8, 20754.143, 0.07166359, -0.15989771, -1486971.4, -52870.72, 0.14296411, 9.999092, 9.999885 
2.1450171e+3, 1.6366257e+2, -1427826.5, -1356332.9, -21153.934, 0.1960597, -0.06384328, -1350542.6, -14450.802, 0.057087187, 9.999149, 10.0001545 
2.1450381e+3, 1.7366186e+2, -1100813.8, -1115146.9, -74909.305, 0.06698139, -0.20658328, -1032728.94, 205363.67, 0.014719365, 10.000651, 10.000387 
2.1450596e+3, 1.8366139e+2, -1033388.4, -1132805.3, -66201.17, -0.01768978, -0.25425196, -1000310.75, 139783.58, 0.0017550356, 10.00081, 9.999534 
2.1450832e+3, 1.9366144e+2, -1132365.9, -1116789.5, -68697.9, 0.015554307, -0.24606127, -1055439.8, -13343.337, 0.00008036648, 9.999444, 9.9996 
2.1451057e+3, 2.0366153e+2, -1065427.6, -977739.9, -102491.836, 0.010968826, -0.21591598, -910107.94, 33987.92, 0.000000018813253, 9.998967, 10.000136 
2.1451265e+3, 2.1366149e+2, -742650.5, -732355.1, -127117.44, -0.11670505, -0.29417518, -610281.2, 235811.94, 0.0, 10.00038, 10.0004425 
2.1451487e+3, 2.2366118e+2, -644162.9, -814018.75, -92966.914, -0.0869801, -0.30125317, -603171.75, 144922.6, 0.0, 10.0011215, 9.998877 
2.1451738e+3, 2.3366019e+2, -583678.6, -734387.06, -88994.19, 0.15936911, -0.31376064, -542421.44, 107682.78, 0.0, 10.000913, 9.998822 
2.1451972e+3, 2.436593e+2, -533992.06, -685161.44, -62440.21, 0.26150122, -0.2736919, -511536.84, 40576.316, 0.0, 10.000636, 9.998652 
2.1452178e+3, 2.536585e+2, -476098.1, -580901.44, -47769.83, 0.094713114, -0.27028507, -457592.13, -3470.0894, 0.0, 10.000289, 9.9988365 
2.1452393e+3, 2.636577e+2, -362910.6, -433708.38, -33980.34, 0.04115248, -0.2497077, -349240.72, 6889.159, 0.0, 10.000178, 9.999249 
2.1452622e+3, 2.7365693e+2, -211964.47, -270867.44, -104242.82, 0.12510774, -0.3149243, -133092.58, 125043.734, 0.00000000016893417, 10.0004225, 9.999544 
2.1452847e+3, 2.8365666e+2, -180192.7, -384621.97, -65447.305, 0.12837815, -0.22710055, -161035.27, -895.91425, 0.0000002738674, 10.000656, 9.998019 
2.1453066e+3, 2.936564e+2, -33955.016, -219029.77, -24185.445, 0.0394551, -0.115710445, -30846.682, 31298.682, 0.0000047479944, 10.000854, 9.99835 
2.1453314e+3, 3.0365315e+2, 73861.26, -134318.72, 116726.88, 0.084203884, -0.29951668, 126167.85, 126167.85, 0.000021563434, 10.001112, 9.998554 
2.1453571e+3, 3.136533e+2, 33457.563, -58218.848, -111124.86, 0.22096045, -0.20970044, 107826.99, 107826.99, 0.000054127682, 10.000463, 9.999307 
2.1549453e+3, 1.3363643e+2, -1507021.4, -1445236.8, -62104.54, 0.023927227, -0.008235649, -1406765.5, 223587.63, 0.43279883, 10.000492, 10.001754 
2.1549682e+3, 1.436346e+2, -1512133.3, -1490320.4, -71680.16, 0.030254213, -0.34589395, -1428721.8, 103640.25, 0.28823382, 9.999874, 10.000395 
2.1549916e+3, 1.536375e+2, -1439576.0, -1312994.0, 9284.747, 0.027230043, -0.22043511, -1312316.6, 122016.66, 0.15688464, 9.999224, 10.001215 
2.1550152e+3, 1.6363877e+2, -1455084.6, -1463618.3, 8407.255, 0.03733555, -0.13993445, -1449923.5, -113602.95, 0.06501248, 9.999373, 9.999307 
2.1550389e+3, 1.7363739e+2, -1178453.9, -1276206.4, -15903.78, 0.0360436, -0.23573457, -1175931.5, 62401.938, 0.018139776, 10.000659, 9.999257 
2.1550612e+3, 1.8363662e+2, -1031847.06, -1148208.0, -122367.97, -0.0044566193, -0.24302964, -954532.56, 185809.06, 0.0026903055, 10.000882, 9.999399 
2.1550822e+3, 1.9363683e+2, -1135627.6, -1108293.1, -111412.69, -0.051730596, -0.22150466, -1009712.5, 32629.277, 0.00019736934, 9.999384, 9.999685 
2.1551043e+3, 2.0363718e+2, -1102487.3, -1018723.6, -79074.555, -0.086968645, -0.16498268, -971124.25, -26785.135, 0.0000007869328, 9.998806, 9.999936 
2.1551272e+3, 2.1363749e+2, -790566.3, -784793.94, -61814.074, -0.093275756, -0.1870836, -725798.7, 120535.43, 0.0, 10.000168, 10.000187 
2.1551502e+3, 2.2363761e+2, -675946.06, -795693.75, -105691.94, -0.08862832, -0.14944865, -614347.0, 133984.58, 0.0, 10.000754, 9.999179 
2.1551731e+3, 2.3363729e+2, -589495.1, -687890.2, -80871.98, -0.036808383, -0.13831244, -544031.8, 106302.8, 0.0, 10.000655, 9.999264 
2.155196e+3, 2.4363649e+2, -541245.7, -600088.6, -88227.914, 0.035999365, -0.15168598, -477662.94, 74677.14, 0.0, 10.000219, 9.99943 
2.155219e+3, 2.536346e+2, -451388.47, -479945.47, -46765.08, 0.1685605, -0.33715898, -416770.7, 37581.793, 0.0, 10.000074, 9.999633 
2.1552409e+3, 2.6363322e+2, -491815.56, -613532.94, -38145.32, 0.14936261, -0.37762624, -480849.16, -124484.266, 0.0, 9.999808, 9.998189 
2.1552612e+3, 2.7363276e+2, -339970.88, -480159.8, -75372.5, -0.034078322, -0.2834248, -307136.97, -48760.76, 0.0, 10.00017, 9.998232 
2.1552837e+3, 2.8363273e+2, -198258.64, -284924.5, -71892.79, -0.07072724, -0.13826834, -157649.23, 2730.4546, 0.000000100631844, 10.000111, 9.998946 
2.1553086e+3, 2.9363257e+2, -13381.716, -75229.3, 17581.594, 0.1134001, -0.14343198, -8733.14, 53645.043, 0.0000031808167, 10.000426, 9.999539 
2.1553327e+3, 3.0363026e+2, -30757.512, -109739.49, 74869.39, 0.05382854, -0.32799256, 14397.605, 14397.605, 0.000016664693, 10.000141, 9.999155 
2.1553579e+3, 3.1363267e+2, -218368.19, -350666.8, 33286.023, 0.15086779, -0.09208801, -210465.55, -210465.55, 0.000045618737, 9.999515, 9.997736 
2.1649458e+3, 1.3361275e+2, -1608250.5, -1501363.6, 52422.64, 0.10325105, -0.012022767, -1479945.0, 150641.28, 0.45757636, 9.999359, 10.001755 
2.1649683e+3, 1.4361048e+2, -1592481.1, -1484432.6, 11920.972, 0.10796958, -0.37335327, -1483133.0, 49465.69, 0.3088363, 9.999002, 10.000846 
2.1649912e+3, 1.5361392e+2, -1296238.5, -1232387.4, 8435.72, 0.02571884, -0.23098934, -1231291.6, 203272.4, 0.17204043, 10.0003395, 10.001349 
2.1650149e+3, 1.636153e+2, -1329007.9, -1415822.6, -13113.506, 0.03509656, -0.1376879, -1327070.3, 9480.066, 0.07433442, 10.000266, 9.999218 
2.1650393e+3, 1.7361376e+2, -1321092.5, -1347323.6, 33246.816, 0.07630335, -0.2516602, -1298467.8, -59901.953, 0.022589553, 9.999637, 9.999289 
2.165062e+3, 1.8361312e+2, -1243071.6, -1221016.8, -7866.407, 0.07263352, -0.25492367, -1218498.5, -77925.805, 0.00413868, 9.999341, 9.999634 
2.1650822e+3, 1.936139e+2, -1004038.75, -1025657.4, -24969.953, -0.031814173, -0.19566807, -987638.9, 54927.51, 0.00045452762, 10.000221, 9.999858 
2.165104e+3, 2.0361422e+2, -881899.75, -955602.25, 54586.93, -0.057163343, -0.1330359, -852889.44, 91674.12, 0.000007502901, 10.000484, 9.999562 
2.165128e+3, 2.1361376e+2, -827751.9, -853211.56, 33245.51, -0.020374188, -0.18526793, -804882.4, 41684.43, 0.0, 10.00013, 9.999734 
2.1651514e+3, 2.2361356e+2, -797087.1, -837644.2, -15341.189, 0.013905272, -0.1599083, -791937.94, -43370.086, 0.0, 9.999863, 9.999313 
2.1651739e+3, 2.3361355e+2, -673099.1, -707859.6, -37926.117, 0.013945344, -0.13890505, -648760.5, 1806.5486, 0.0, 9.999989, 9.999451 
2.1651965e+3, 2.4361293e+2, -532125.06, -586759.5, -47022.09, 0.082756475, -0.14861484, -505061.16, 47509.35, 0.0, 10.000224, 9.999525 
2.1652195e+3, 2.536111e+2, -359676.75, -413690.78, -84314.734, 0.19807981, -0.33921775, -298149.3, 156432.98, 0.0, 10.000635, 9.999803 
2.1652414e+3, 2.6360992e+2, -365384.97, -565179.44, -55745.46, 0.19360255, -0.36508766, -350883.72, 5708.934, 0.0, 10.000713, 9.99809 
2.165262e+3, 2.736094e+2, -333214.1, -493121.5, -42798.074, 0.01652821, -0.256881, -322480.03, -63874.734, 0.0, 10.000287, 9.998086 
2.1652846e+3, 2.836088e+2, -191046.22, -291568.4, 23113.018, 0.024396611, -0.16288169, -185986.53, -25371.563, 0.0000000029805467, 10.000175, 9.998881 
2.1653096e+3, 2.9360804e+2, -12207.502, -77719.53, -24414.602, 0.18178566, -0.20960869, -4109.7627, 58510.164, 0.000001345268, 10.000462, 9.999497 
2.1653338e+3, 3.0360836e+2, 90236.945, 2183.721, 5169.5576, 0.14351033, -0.15909438, 90539.41, 90539.41, 0.000010778314, 10.000725, 9.999645 
2.1653584e+3, 3.1360835e+2, 5390.9883, -275638.8, -112741.91, 0.17703061, -0.18864995, 45029.285, 45029.285, 0.00003608632, 10.001193, 9.997445 
2.1749468e+3, 1.3359255e+2, -1721504.9, -1675804.5, -126765.72, 0.16195327, 0.07860769, -1569846.0, 60934.633, 0.48078975, 9.999748, 9.9997 
2.1749668e+3, 1.4358877e+2, -1617198.4, -1594894.0, 80355.53, -0.034017228, -0.33971292, -1524920.5, 7890.3906, 0.32934, 9.999375, 9.999766 
2.1749909e+3, 1.5359102e+2, -1374892.9, -1409062.5, 47996.54, -0.07098665, -0.17487368, -1341031.0, 93760.76, 0.18832743, 10.000412, 9.99986 
2.1750152e+3, 1.6359194e+2, -1260759.9, -1312379.3, -44661.52, -0.039108355, -0.059171114, -1234986.6, 101796.88, 0.0852701, 10.000465, 9.9998455 
2.1750388e+3, 1.7359102e+2, -1215155.1, -1147953.9, 21593.105, 0.034226976, -0.24462509, -1141613.6, 97175.42, 0.028395085, 9.999717, 10.0006275 
2.1750613e+3, 1.8359095e+2, -1207679.8, -1171738.9, 717.80707, 0.019059623, -0.28510374, -1171724.5, -30937.176, 0.006367479, 9.999444, 9.999919 
2.1750823e+3, 1.9359232e+2, -1004070.94, -1012554.8, 15418.958, -0.06755701, -0.1776463, -992321.06, 50451.977, 0.0009868387, 10.000168, 9.999966 
2.1751045e+3, 2.035924e+2, -948638.44, -1056049.1, 31832.133, -0.1072489, -0.12016452, -939913.44, 4858.302, 0.000047582707, 10.000308, 9.998964 
2.1751282e+3, 2.1359023e+2, -904434.8, -959110.1, 29058.137, -0.033939328, -0.28206262, -891876.06, -45083.438, 0.00000000032497088, 9.999895, 9.999122 
2.1751519e+3, 2.235889e+2, -868042.8, -888595.8, -25672.146, 0.039640654, -0.3288518, -850666.75, -101861.81, 0.0, 9.999458, 9.999156 
2.1751755e+3, 2.335887e+2, -717640.06, -737312.0, -18718.002, 0.15821375, -0.32042122, -706331.06, -55526.03, 0.0, 9.999728, 9.999366 
2.175198e+3, 2.4358827e+2, -639090.56, -700386.25, -47089.684, 0.1769125, -0.28163972, -613553.6, -60745.656, 0.0, 9.999772, 9.998954 
2.175219e+3, 2.5358757e+2, -442105.84, -520247.63, -53444.676, 0.055722922, -0.29973847, -414973.5, 39840.945, 0.0, 10.0003605, 9.999199 
2.1752405e+3, 2.635874e+2, -388008.9, -495284.47, -82951.305, -0.009908048, -0.2262047, -342864.44, 13952.5625, 0.0, 10.00024, 9.998785 
2.1752635e+3, 2.735867e+2, -313890.3, -385534.78, -40564.72, 0.11052718, -0.22434789, -295594.8, -36769.543, 0.0, 10.000024, 9.998939 
2.1752864e+3, 2.835846e+2, -337064.0, -480475.5, 13155.137, 0.14655642, -0.2809433, -335867.28, -175018.81, 0.0, 9.999708, 9.9978 
2.1753088e+3, 2.9358235e+2, -164370.27, -317311.25, 6827.1777, 0.03313731, -0.35503513, -164066.11, -101191.83, 0.00000028754212, 10.0001335, 9.998006 
2.175334e+3, 3.0358595e+2, -40551.05, -71947.69, -11356.007, 0.032037754, 0.12811838, -36874.23, -36874.23, 0.0000061263827, 9.999947, 9.999474 
2.1753591e+3, 3.1358328e+2, -97093.5, -218412.83, 44244.516, 0.06658199, -0.2160068, -82672.06, -82672.06, 0.000027574106, 10.000089, 9.998341 
2.1849678e+3, 1.4356828e+2, -1678356.6, -1810732.4, -2202.8865, 0.13029546, -0.20928603, -1678320.0, -145308.61, 0.34983045, 9.999666, 9.9981165 
2.1849935e+3, 1.5356724e+2, -1335571.6, -1456588.3, 48127.473, 0.111660875, -0.2581686, -1318765.6, 116260.73, 0.2059314, 10.001067, 9.999216 
2.1850143e+3, 1.6356935e+2, -1363746.6, -1353320.9, -556.0561, -0.09758342, 0.0028141907, -1353291.3, -16283.755, 0.09816949, 9.999692, 9.999913 
2.1850388e+3, 1.7356879e+2, -1156517.6, -1106295.4, -35970.3, 0.050880425, -0.15280305, -1087538.1, 151471.61, 0.036017943, 10.000135, 10.000705 
2.1850616e+3, 1.8356848e+2, -1076478.9, -1126563.3, -84220.625, 0.06526906, -0.21593268, -1013656.25, 127353.61, 0.009796201, 10.00038, 9.999797 
2.1850832e+3, 1.9356893e+2, -985693.9, -1020957.25, -109573.28, 0.0012455529, -0.19307666, -892342.75, 150660.5, 0.0020521113, 10.000324, 9.99984 
2.1851057e+3, 2.035687e+2, -977778.25, -1064888.6, -63918.98, 0.013033961, -0.16085246, -943985.56, 1018.7338, 0.00020967671, 10.000106, 9.998999 
2.185129e+3, 2.1356717e+2, -842451.6, -923358.8, -52801.914, 0.04285294, -0.2612104, -816388.0, 30631.52, 0.00000086887735, 10.0003, 9.999176 
2.1851523e+3, 2.2356595e+2, -715618.06, -807702.75, -32726.105, 0.105610244, -0.30045068, -705172.4, 43857.805, 0.0, 10.000445, 9.999248 
2.185176e+3, 2.3356514e+2, -569276.75, -647179.5, -34880.152, 0.21161422, -0.36186588, -555942.0, 95092.05, 0.0, 10.000675, 9.999527 
2.1851987e+3, 2.4356444e+2, -531483.56, -685009.56, -24946.596, 0.23516019, -0.34847197, -527531.7, 25507.896, 0.0, 10.000654, 9.998641 
2.1852192e+3, 2.535639e+2, -477668.13, -585693.94, -51216.277, 0.068455234, -0.3078619, -457246.5, -2198.5317, 0.0, 10.000301, 9.998789 
2.185241e+3, 2.6356405e+2, -368339.3, -477875.66, -63294.836, 0.023200862, -0.1846063, -339406.88, 17642.012, 0.0, 10.000307, 9.998893 
2.1852642e+3, 2.7356374e+2, -140811.38, -283751.28, -100515.93, 0.1489447, -0.15036681, -88946.8, 170104.9, 0.0, 10.001114, 9.999129 
2.1852872e+3, 2.8356165e+2, -71855.164, -327152.06, -22820.664, 0.17781821, -0.2355449, -69831.305, 91242.21, 0.0, 10.001383, 9.998065 
2.1853088e+3, 2.9355815e+2, -79204.375, -271662.78, 26301.162, -0.0023682613, -0.4426766, -75674.81, -12564.426, 0.000000027227998, 10.000669, 9.998079 
2.1853344e+3, 3.0356196e+2, -571.5723, -132540.34, 120464.91, 0.09614324, 0.08942797, 70796.625, 70796.625, 0.0000044959556, 10.000475, 9.998851 
2.18536e+3, 3.1355992e+2, 101261.414, 60730.582, -28972.504, 0.1436832, -0.10876635, 116352.66, 116352.66, 0.000025056477, 10.000516, 10.00013 
2.1949688e+3, 1.4354728e+2, -1686131.1, -1854227.4, -171186.27, 0.15072612, 0.04851382, -1579473.1, -46255.527, 0.371045, 9.999827, 9.997722 
2.1949981e+3, 1.5354183e+2, -1285102.9, -1370855.6, 13299.531, 0.41199744, -0.4874233, -1283087.5, 152187.86, 0.22535217, 10.001233, 9.999834 
2.1950123e+3, 1.635474e+2, -1366848.5, -1395167.1, -41417.824, -0.358729, 0.06130816, -1337236.5, -12.812134, 0.113554515, 9.999853, 9.999547 
2.1950388e+3, 1.7354673e+2, -1249248.3, -1296983.1, -8740.773, -0.0032857931, 0.020341715, -1247698.0, -8466.896, 0.046104282, 10.000129, 9.999365 
2.195062e+3, 1.8354529e+2, -1090559.6, -1171236.1, -90289.37, 0.020331044, -0.064733185, -1032007.25, 109237.336, 0.015073848, 10.000449, 9.99946 
2.1950842e+3, 1.9354373e+2, -1003366.3, -1044312.4, -106066.33, 0.035307534, -0.2234588, -915815.25, 127441.14, 0.004138987, 10.000274, 9.999704 
2.1951069e+3, 2.035432e+2, -968280.5, -1003791.1, -78447.945, 0.08397255, -0.2357199, -905603.6, 39655.965, 0.00072646124, 9.999932, 9.999499 
2.1951297e+3, 2.1354428e+2, -839955.25, -854868.94, -35865.848, 0.056492183, -0.13452509, -810779.3, 36470.45, 0.000022642807, 10.000037, 9.999764 
2.195152e+3, 2.2354445e+2, -751071.0, -784995.4, -36494.266, 0.015520954, -0.08620919, -727789.56, 21456.334, 0.000000000011542125, 10.00003, 9.999602 
2.1951753e+3, 2.3354274e+2, -579809.6, -614059.3, -13022.664, 0.03913013, -0.27745456, -575420.56, 75835.06, 0.0, 10.000437, 9.9998665 
2.1951978e+3, 2.435413e+2, -613779.8, -747260.3, -51368.7, 0.045516778, -0.3466813, -596300.06, -43033.47, 0.0, 10.000203, 9.998424 
2.19522e+3, 2.5354e+2, -533376.25, -649449.2, -51147.453, 0.07604701, -0.35571638, -514054.5, -58770.984, 0.0, 10.000078, 9.998457 
2.1952419e+3, 2.635396e+2, -481468.8, -598886.6, -54262.324, 0.055627264, -0.23941407, -460233.13, -102941.945, 0.0, 9.999842, 9.998269 
2.195264e+3, 2.7354017e+2, -235283.34, -391545.13, -49315.637, -0.018629497, -0.0680652, -221021.23, 38266.746, 0.0, 10.000758, 9.99854 
2.1952862e+3, 2.8353915e+2, -66196.32, -181537.9, -57859.36, -0.10417126, -0.066540405, -42174.85, 119122.51, 0.0, 10.000836, 9.999315 
2.1953088e+3, 2.9353538e+2, -36653.61, -97823.38, 24219.734, -0.10162115, -0.45175743, -28225.283, 35103.652, 0.000000020729713, 10.000314, 9.999438 
2.1953343e+3, 3.035358e+2, -203669.33, -363397.66, 114934.695, -0.03537805, -0.2635558, -143575.39, -143575.39, 0.0000055230016, 9.999709, 9.997599 
2.19536e+3, 3.135361e+2, -34702.62, 82598.914, -1773.4213, 0.037568178, -0.117614545, 82625.72, 82625.72, 0.000029811183, 9.999312, 10.000806 
2.2049662e+3, 1.435232e+2, -1542488.8, -1579365.4, -62263.5, -0.064540945, -0.09355624, -1495990.9, 37464.406, 0.39437363, 10.000063, 9.999542 
2.2049972e+3, 1.5351894e+2, -1546661.4, -1476632.8, 13062.429, 0.35319126, -0.47278884, -1474275.6, -38776.594, 0.24751917, 9.999068, 10.000019 
2.2050136e+3, 1.6352464e+2, -1308137.6, -1350582.5, -52843.51, -0.19388792, 0.056295034, -1272414.3, 65030.637, 0.13222682, 10.000207, 9.999727 
2.2050391e+3, 1.735233e+2, -1240717.0, -1336743.1, 37737.945, 0.03033185, -0.027023293, -1227661.3, 11798.195, 0.059555795, 10.000305, 9.999051 
2.2050628e+3, 1.8352161e+2, -1145789.1, -1205760.9, 40138.23, 0.06942547, -0.11360091, -1125672.8, 15803.292, 0.023171267, 10.000089, 9.999408 
2.2050852e+3, 1.9352058e+2, -935984.8, -1011552.8, 7105.856, 0.08951788, -0.22047473, -935322.44, 108161.39, 0.008108057, 10.000739, 9.999729 
2.2051077e+3, 2.0352048e+2, -839401.2, -934543.1, 34460.664, 0.14025971, -0.19313076, -828230.94, 117252.68, 0.0021629941, 10.000784, 9.999573 
2.2051299e+3, 2.1352153e+2, -815447.5, -840713.75, 11519.318, 0.09009793, -0.09828641, -810984.06, 36490.098, 0.00023583506, 10.000172, 9.999808 
2.2051524e+3, 2.2352156e+2, -772424.06, -789516.75, 22370.086, 0.062096536, -0.06772805, -757023.3, -7551.099, 0.0000019906881, 9.999855, 9.999662 
2.2051756e+3, 2.335201e+2, -600816.06, -623036.3, -7208.3506, 0.055126425, -0.23478656, -598682.5, 52797.816, 0.0, 10.000274, 9.999901 
2.2051986e+3, 2.435189e+2, -552840.44, -714129.1, -34226.496, 0.08765287, -0.2812163, -545877.94, 7611.743, 0.0, 10.000591, 9.998471 
2.2052208e+3, 2.5351802e+2, -418478.6, -574042.2, -43512.395, 0.12234405, -0.25712976, -407135.0, 48367.42, 0.0, 10.000838, 9.998586 
2.2052427e+3, 2.6351723e+2, -365915.0, -547793.94, 9819.862, 0.12153897, -0.18290095, -365386.38, -7873.986, 0.0, 10.00064, 9.998243 
2.2052644e+3, 2.7351627e+2, -373419.5, -476707.97, 27833.824, 0.021577604, -0.15479712, -366396.47, -106875.06, 0.0, 9.9998455, 9.998414 
2.205287e+3, 2.8351533e+2, -238498.7, -254742.02, 43135.047, -0.016147757, -0.14949742, -202727.39, -41198.996, 0.0, 9.999608, 9.999404 
2.2053103e+3, 2.9351285e+2, 32829.027, -49184.418, -29857.309, 0.002875499, -0.39532125, 42547.152, 106093.94, 0.00000007580395, 10.000728, 9.999577 
2.2053345e+3, 3.035119e+2, -48514.426, -298821.88, 67742.84, 0.0029017478, -0.36555198, -31356.703, -31356.703, 0.0000083740215, 10.000769, 9.997563 
2.2053608e+3, 3.1351265e+2, -59907.285, 115566.54, -102755.9, 0.22504175, -0.12805016, 162946.39, 162946.39, 0.000042885644, 9.99888, 10.001249 
2.2149654e+3, 1.4349982e+2, -1362311.4, -1205694.6, -60268.78, -0.27954188, -0.23525248, -1185187.4, 348500.13, 0.4221777, 10.00005, 10.003708 
2.2149912e+3, 1.5349816e+2, -1588290.0, -1551512.9, 93937.41, -0.20708448, -0.22631326, -1474181.1, -38480.113, 0.27423543, 9.999037, 9.999527 
2.2150183e+3, 1.635008e+2, -1231095.5, -1231968.4, -46965.47, 0.18032841, -0.002846289, -1184564.4, 153109.13, 0.15564767, 10.000429, 10.000539 
2.2150396e+3, 1.7349851e+2, -1178643.5, -1204944.8, 35651.164, -0.004503802, -0.2826077, -1153794.9, 85899.85, 0.07778218, 10.000329, 9.999952 
2.2150627e+3, 1.8349749e+2, -1132743.6, -1188475.6, 37074.445, 0.0062333858, -0.35593647, -1114230.4, 27473.803, 0.035576556, 10.000131, 9.999509 
2.2150855e+3, 1.934993e+2, -951074.06, -1008231.5, 40985.29, 0.029183865, -0.18268287, -929687.44, 113999.85, 0.0154146915, 10.000604, 9.999811 
2.2151074e+3, 2.0350021e+2, -893026.3, -1000787.94, 7905.9478, -0.01471775, -0.04634297, -892449.4, 53229.9, 0.005714695, 10.000585, 9.999213 
2.2151294e+3, 2.134988e+2, -877193.9, -921028.75, 119.01435, -0.00980935, -0.15575826, -877193.5, -29499.28, 0.0013616167, 9.999965, 9.999352 
2.2151524e+3, 2.2349757e+2, -863679.4, -881975.1, 16619.291, 0.01972, -0.20521119, -853856.6, -104150.16, 0.00013056793, 9.999441, 9.999226 
2.2151768e+3, 2.3349702e+2, -665092.3, -693481.7, 24169.01, 0.10961634, -0.24515003, -651257.9, 452.51804, 0.0000045921656, 10.0, 9.999548 
2.2151999e+3, 2.4349698e+2, -615466.8, -719178.7, -43634.066, 0.13495329, -0.16256265, -599551.3, -45840.26, 0.000000030624218, 10.000079, 9.998673 
2.2152214e+3, 2.534975e+2, -440967.5, -543406.75, -21296.965, 0.06999129, -0.03362774, -436716.3, 18992.207, 0.0, 10.0005245, 9.998938 
2.2152427e+3, 2.634963e+2, -405940.34, -519257.2, -34989.12, 0.024346076, -0.040127713, -396007.38, -38288.145, 0.0, 10.000182, 9.998651 
2.2152653e+3, 2.7349204e+2, -383456.97, -428937.22, 8837.153, 0.10256033, -0.39088804, -381800.2, -122047.2, 0.0, 9.999572, 9.998861 
2.2152889e+3, 2.8349012e+2, -410216.2, -483192.66, 54233.258, 0.1513621, -0.45028374, -381339.0, -219571.67, 0.0, 9.999084, 9.998073 
2.2153123e+3, 2.9349014e+2, -124381.53, -280240.2, 39931.285, 0.11598557, -0.30635163, -114746.664, -50978.293, 0.00000027397763, 10.0003395, 9.998163 
2.2153348e+3, 3.034895e+2, -77228.82, -187222.86, -4671.681, -0.1154832, -0.223274, -77030.766, -77030.766, 0.000015050563, 10.000084, 9.99863 
2.215359e+3, 3.1348798e+2, -266758.03, -50110.2, -422.36884, 0.08474769, -0.35148066, -50109.375, -50109.375, 0.00007034586, 9.997824, 10.0005865 
2.2249734e+3, 1.4347395e+2, -1301674.3, -1377079.9, -52189.375, 0.3524522, -0.10539509, -1274993.6, 258943.4, 0.45833316, 10.002396, 10.000592 
2.2249885e+3, 1.5347555e+2, -1281755.6, -1327992.8, -2687.2524, -0.4733209, -0.180655, -1281600.0, 154318.64, 0.30885017, 10.001229, 10.000303 
2.2250201e+3, 1.6347708e+2, -1565931.1, -1381210.0, 16261.539, 0.43896508, -0.09075752, -1379789.4, -41886.973, 0.18666483, 9.997958, 10.000574 
2.2250403e+3, 1.734757e+2, -1231795.8, -1158049.0, 39492.11, 0.086870365, -0.33677626, -1140892.0, 99021.984, 0.103338934, 9.999618, 10.000652 
2.2250633e+3, 1.8347558e+2, -1122288.8, -1166155.0, 39664.418, 0.0811243, -0.36924222, -1098897.3, 43017.33, 0.054786276, 10.000112, 9.999687 
2.225086e+3, 1.9347729e+2, -1039288.06, -1044709.94, 22882.621, 0.058839973, -0.21587808, -1018956.4, 24943.219, 0.028543482, 9.999929, 9.999885 
2.2251077e+3, 2.0347784e+2, -985376.2, -1058976.8, 22063.816, -0.002584581, -0.11935161, -979268.75, -33373.02, 0.013685946, 10.0, 9.999098 
2.2251296e+3, 2.1347612e+2, -776497.6, -890926.7, 1926.5446, -0.009453437, -0.2402937, -776465.2, 71448.46, 0.005262215, 10.000744, 9.999191 
2.2251526e+3, 2.2347504e+2, -652354.75, -799166.25, 64531.984, 0.054487646, -0.25964537, -628022.2, 121903.0, 0.001420654, 10.000943, 9.999081 
2.225177e+3, 2.3347525e+2, -643766.7, -695535.94, 66443.266, 0.15273964, -0.21250272, -598344.06, 53579.31, 0.0002619265, 10.000171, 9.999462 
2.2252002e+3, 2.4347533e+2, -671982.94, -762713.3, 42597.8, 0.1989446, -0.103766784, -655118.1, -101194.33, 0.000035642544, 9.999753, 9.998538 
2.225222e+3, 2.5347507e+2, -471861.38, -576311.7, 13696.569, 0.107926354, -0.041812256, -470095.22, -14166.112, 0.0000011567587, 10.000339, 9.998829 
2.2252436e+3, 2.6347354e+2, -309009.66, -462823.5, -22349.654, 0.08919578, -0.07676729, -305827.97, 52114.832, 0.0, 10.000797, 9.998752 
2.2252665e+3, 2.7347e+2, -97702.93, -264862.56, -46465.434, 0.1804039, -0.36457807, -85655.23, 174313.7, 0.0, 10.001461, 9.999077 
2.2252901e+3, 2.8346834e+2, -96438.75, -337789.3, 48953.51, 0.2718928, -0.40812925, -86887.43, 75092.94, 0.0, 10.001242, 9.998054 
2.2253138e+3, 2.9346752e+2, -161904.92, -304366.06, 98745.02, 0.23293947, -0.3249234, -111380.12, -47389.777, 0.00000073017384, 10.000117, 9.998104 
2.2253361e+3, 3.0346748e+2, -75331.984, -160940.16, 92113.86, 0.06054314, -0.212553, -16562.684, -16562.684, 0.00002755439, 9.999961, 9.998894 
2.2253574e+3, 3.1346396e+2, 187957.19, 153784.55, -105943.1, -0.0122009115, -0.5017416, 278182.94, 278182.94, 0.000118261974, 10.000944, 10.000535 
2.234989e+3, 1.53452e+2, -1238654.9, -1169947.5, -189174.61, -0.6083837, -0.22663788, -1012032.56, 424110.72, 0.35698506, 10.000959, 10.002148 
2.235018e+3, 1.6345263e+2, -1634732.6, -1528835.4, 21377.664, 0.3510171, -0.2789908, -1524682.6, -186543.22, 0.23053116, 9.997971, 9.999555 
2.235041e+3, 1.734545e+2, -1222249.0, -1116201.1, 94031.65, 0.16068983, -0.21565342, -1061273.8, 178847.08, 0.14104874, 9.999522, 10.001063 
2.2350639e+3, 1.8345578e+2, -1112243.0, -1135027.4, 21051.406, 0.069016576, -0.16304792, -1099698.9, 42409.28, 0.08532412, 10.000078, 9.999917 
2.235086e+3, 1.9345452e+2, -1051649.4, -1042709.06, 21918.865, 0.035316356, -0.3131922, -1024809.2, 19311.818, 0.05187056, 9.999811, 9.99996 
2.2351077e+3, 2.0345354e+2, -1019174.75, -1071318.6, 28077.434, -0.036617905, -0.3720704, -1006931.0, -60799.992, 0.030293982, 9.999755, 9.99913 
2.2351304e+3, 2.1345331e+2, -803657.0, -888152.4, 38726.65, -0.047656007, -0.35692608, -788593.06, 59541.383, 0.015773455, 10.000491, 9.999331 
2.235153e+3, 2.2345363e+2, -713923.1, -810576.44, 31342.291, -0.033686765, -0.248157, -704649.4, 45482.215, 0.0069356123, 10.000458, 9.999226 
2.2351763e+3, 2.3345463e+2, -665095.0, -682492.2, 51295.387, 0.0317484, -0.14831397, -621765.9, 30355.068, 0.002541045, 9.999926, 9.9996605 
2.2351989e+3, 2.4345401e+2, -782800.75, -882109.06, 37252.832, 0.056344874, -0.09102155, -770379.9, -216252.0, 0.00075579167, 9.999294, 9.997929 
2.2352222e+3, 2.534509e+2, -554607.2, -675875.56, 48943.96, 0.07964907, -0.26587105, -537318.25, -81155.65, 0.00014769337, 10.000033, 9.998283 
2.2352448e+3, 2.6344907e+2, -433247.75, -579224.8, -25711.705, 0.07595828, -0.27272806, -428851.4, -70669.445, 0.000007045108, 10.0002165, 9.998216 
2.2352676e+3, 2.7344966e+2, -174395.98, -341276.0, -7956.1216, 0.10091448, -0.11481346, -174017.53, 86155.33, 0.00000000065814787, 10.001112, 9.998705 
2.2352901e+3, 2.8344908e+2, -127181.1, -247279.48, -18720.97, 0.115471266, -0.07736165, -124330.53, 37844.785, 0.0, 10.000627, 9.998946 
2.2353132e+3, 2.9344484e+2, -177901.64, -209742.61, 74508.38, 0.15571976, -0.45390567, -117631.83, -53417.906, 0.0000012574419, 9.999612, 9.99897 
2.235338e+3, 3.0344483e+2, -301504.56, -416460.06, 92319.08, 0.1699606, -0.3185823, -250232.58, -250232.58, 0.000044073433, 9.999097, 9.997532 
2.2353564e+3, 3.1344318e+2, -13375.452, 54547.75, 29167.479, -0.25523332, -0.28999934, 65353.684, 65353.684, 0.00018419352, 9.9996805, 10.000426 
2.2449954e+3, 1.534298e+2, -1477031.4, -1986238.9, -68314.99, -0.1537499, -0.6659397, -1468025.6, -31679.646, 0.42759266, 10.001974, 9.994904 
2.2450171e+3, 1.6342984e+2, -1286390.3, -1437665.5, 92911.805, 0.33618563, -0.39519888, -1242221.1, 96136.93, 0.29616648, 10.000941, 9.998815 
2.2450402e+3, 1.7343193e+2, -1179630.8, -1147595.4, 105987.086, 0.14327936, -0.26901004, -1056422.5, 183916.98, 0.19952731, 10.000119, 10.000602 
2.2450638e+3, 1.8343307e+2, -1216933.4, -1204106.5, 3996.0034, 0.08403797, -0.19282208, -1202963.4, -60633.297, 0.13536815, 9.999425, 9.999739 
2.2450864e+3, 1.9343242e+2, -998838.3, -1030738.6, -39533.633, 0.09810682, -0.2722237, -972158.44, 72180.15, 0.09319166, 10.000255, 9.999852 
2.2451091e+3, 2.0343205e+2, -877533.94, -971248.56, -7119.399, 0.10259569, -0.27872276, -876996.2, 69346.9, 0.06306426, 10.000582, 9.999449 
2.2451319e+3, 2.1343188e+2, -832124.7, -863258.4, -10594.335, 0.10129062, -0.2836285, -828861.6, 19481.809, 0.0400799, 10.000106, 9.999707 
2.2451545e+3, 2.2343177e+2, -767567.44, -833604.56, 9790.018, 0.103269726, -0.23692948, -766146.6, -15803.539, 0.023131557, 10.000037, 9.999293 
2.245177e+3, 2.3343192e+2, -572649.8, -631757.6, -22873.883, 0.09262666, -0.22687668, -564831.94, 87507.96, 0.011994159, 10.00053, 9.999733 
2.2451992e+3, 2.4343081e+2, -543057.0, -799375.44, 7369.3955, 0.09721518, -0.20882028, -542845.25, 11506.491, 0.0054928027, 10.001009, 9.997704 
2.2452226e+3, 2.5342795e+2, -394527.4, -618731.0, 21023.904, 0.060050305, -0.33000475, -392573.0, 63811.77, 0.002050329, 10.001197, 9.998132 
2.2452451e+3, 2.6342654e+2, -336016.56, -526623.06, -3085.574, 0.087547995, -0.2837244, -335966.63, 22434.746, 0.0004876709, 10.000835, 9.998292 
2.2452693e+3, 2.7342755e+2, -202351.89, -323019.1, 43468.586, 0.19882461, -0.105625354, -188323.8, 72065.55, 0.000047167257, 10.000765, 9.999014 
2.2452918e+3, 2.8342745e+2, -133876.19, -235526.95, 29864.24, 0.24846664, -0.05128587, -125751.664, 36636.516, 0.00000034188096, 10.000493, 9.999103 
2.2453132e+3, 2.9342362e+2, 82776.016, -104370.234, 2226.1597, 0.11675789, -0.36352012, 82802.5, 147226.8, 0.0000013302117, 10.001437, 9.998844 
2.2453381e+3, 3.034232e+2, 25241.121, -315916.75, 65923.81, 0.17800108, -0.25852942, 37536.797, 37536.797, 0.0000584347, 10.001519, 9.9970665 
2.2453594e+3, 3.1342176e+2, 109669.92, 202253.34, -64322.06, 0.047472566, -0.123029605, 235209.66, 235209.66, 0.00025945, 10.00003, 10.00128 
2.2550158e+3, 1.6340986e+2, -1421172.0, -1677866.3, 50939.57, 0.018524397, -0.31779718, -1411432.9, -72885.79, 0.39765337, 10.000512, 9.997294 
2.2550386e+3, 1.7340782e+2, -1264961.5, -1321051.5, 74496.875, -0.11654295, -0.49647346, -1213405.6, 27166.016, 0.29298013, 10.000087, 9.999251 
2.2550623e+3, 1.8340719e+2, -1327958.4, -1363531.4, -29042.105, -0.100714386, -0.47655025, -1311689.0, -169105.98, 0.21888196, 9.999127, 9.998772 
2.2550872e+3, 1.9341047e+2, -1065098.9, -1102142.3, -11171.531, 0.08882964, -0.12751077, -1061990.5, -17432.965, 0.16615056, 9.999949, 9.999469 
2.255111e+3, 2.0341294e+2, -902735.3, -931965.75, -25119.734, 0.17976162, 0.13144726, -888288.44, 58247.234, 0.12546477, 10.000204, 9.999892 
2.255134e+3, 2.1341157e+2, -835341.44, -809269.8, -16211.734, 0.25746614, -0.05689681, -801502.94, 47040.31, 0.0914258, 9.999849, 10.000203 
2.2551562e+3, 2.2340946e+2, -867395.75, -924196.56, 10015.606, 0.2315898, -0.2234762, -865681.5, -115122.04, 0.062582165, 9.999538, 9.998909 
2.255179e+3, 2.334071e+2, -631570.5, -686957.56, 7438.824, 0.2025594, -0.44188505, -630588.8, 21991.738, 0.039919913, 10.000231, 9.999496 
2.2552007e+3, 2.4340563e+2, -663087.7, -858307.5, -7036.5293, 0.08843629, -0.43935776, -662834.4, -108238.5, 0.023601582, 10.000223, 9.997661 
2.2552222e+3, 2.5340614e+2, -442198.8, -613385.94, 35305.746, -0.11033031, -0.2571477, -435203.22, 21393.785, 0.012405956, 10.000779, 9.99835 
2.2552447e+3, 2.634056e+2, -404195.03, -514578.78, -44736.973, -0.1014332, -0.13794003, -388340.84, -29736.055, 0.005154125, 10.000213, 9.998659 
2.255271e+3, 2.7340367e+2, -212873.97, -222636.89, 50000.383, 0.27861682, -0.34456748, -167517.33, 93101.055, 0.0013586987, 10.000275, 9.99992 
2.2552939e+3, 2.8340343e+2, -327944.56, -445485.13, 8811.973, 0.37168133, -0.31846005, -327287.6, -164667.83, 0.00015517221, 9.999713, 9.9980135 
2.2553132e+3, 2.9340386e+2, -81807.95, -306483.63, 62164.94, -0.060512688, -0.06851481, -65754.71, -1133.9277, 0.0000026982873, 10.000914, 9.997666 
2.2553359e+3, 3.034025e+2, -99712.984, -377205.38, -7767.5034, -0.26227054, -0.00832136, -99495.734, -99495.734, 0.000065484004, 10.000734, 9.996996 
2.2553618e+3, 3.1339645e+2, 14508.112, 278306.06, 93210.016, 0.21940643, -0.3232635, 307917.0, 307917.0, 0.00034262822, 9.998943, 10.002303 
2.2650406e+3, 1.7338552e+2, -1366804.4, -1288408.1, -265661.34, 0.14325085, 0.058714207, -1059068.6, 181734.42, 0.44342524, 9.998417, 10.00101 
2.2650647e+3, 1.83385e+2, -957347.8, -1111374.8, -72892.79, 0.054341387, -0.30471516, -928321.5, 214486.1, 0.3585124, 10.001991, 9.999289 
2.2650865e+3, 1.9338694e+2, -1103862.8, -1057146.5, -92474.766, 0.05563702, -0.09952254, -985125.5, 59663.414, 0.29413474, 9.999419, 10.000081 
2.2651084e+3, 2.0338751e+2, -1138750.3, -1041649.0, -26024.428, 0.0019905171, -0.08168525, -1035113.94, -88332.01, 0.24160613, 9.998366, 10.000077 
2.2651301e+3, 2.1338567e+2, -896592.5, -862415.8, -81426.57, -0.06929543, -0.29664293, -796303.8, 52491.89, 0.1940874, 9.99946, 10.000103 
2.2651535e+3, 2.2338423e+2, -697273.5, -835222.1, -35926.906, -0.029805811, -0.3954455, -688477.7, 62328.844, 0.14888066, 10.000704, 9.998991 
2.265178e+3, 2.3338388e+2, -593900.25, -680224.0, -67707.664, 0.091217875, -0.38486144, -556767.2, 96041.266, 0.108788945, 10.0006, 9.999394 
2.2652009e+3, 2.4338326e+2, -581807.44, -742155.94, -34596.355, 0.11539594, -0.31187105, -574661.5, -19846.281, 0.07581198, 10.000355, 9.998422 
2.2652234e+3, 2.5338343e+2, -433219.13, -520903.22, 23486.22, -0.026387071, -0.25272387, -427324.56, 29493.422, 0.048806984, 10.0003395, 9.999272 
2.2652453e+3, 2.6338267e+2, -337811.47, -494380.0, 906.3369, -0.046733808, -0.19843547, -337806.22, 21020.922, 0.026684597, 10.00062, 9.998648 
2.2652715e+3, 2.7338094e+2, 99502.46, -100910.67, -1911.2239, 0.19405091, -0.369243, 99520.68, 360360.88, 0.010897145, 10.002466, 9.999765 
2.2652939e+3, 2.833804e+2, -42112.145, -337532.1, -90612.164, 0.33821133, -0.33949193, -16533.918, 146310.58, 0.002788968, 10.001753, 9.9978075 
2.2653161e+3, 2.9338074e+2, 63230.582, -241098.94, 61078.883, 0.09565808, -0.07552869, 75031.5, 139878.55, 0.0003034348, 10.001951, 9.997628 
2.2653382e+3, 3.0337837e+2, 76566.24, -238512.45, 27276.572, -0.13152213, -0.17342074, 78910.16, 78910.16, 0.000074942734, 10.00175, 9.997483 
2.265362e+3, 3.13373e+2, 206104.81, 244148.84, 52826.387, 0.25767198, -0.30050442, 281273.63, 281273.63, 0.00045627946, 10.000641, 10.001374 
2.2751069e+3, 2.0335937e+2, -956987.3, -1172309.4, 109940.62, -0.059621315, -0.5010605, -910772.3, 36274.566, 0.4526298, 10.000809, 9.997963 
2.2751324e+3, 2.1335928e+2, -763823.8, -862336.9, -41468.41, 0.16729812, -0.47978476, -748692.2, 100358.57, 0.38963944, 10.001163, 9.999175 
2.27516e+3, 2.23361e+2, -803470.9, -931246.75, -176358.36, 0.4575185, -0.24338225, -679785.0, 71250.88, 0.32267725, 10.000275, 9.998552 
2.2751795e+3, 2.3336247e+2, -791174.56, -781665.06, -92506.055, 0.15019198, -0.0713768, -693791.6, -40769.992, 0.25840095, 9.999254, 9.9992485 
2.2752005e+3, 2.43362e+2, -776027.1, -802947.06, -30815.486, -0.0919279, 0.023708535, -755860.25, -200833.98, 0.20062341, 9.998914, 9.998662 
2.2752263e+3, 2.533596e+2, -461530.88, -370944.84, 37836.36, 0.15519026, -0.37456188, -357220.5, 99829.805, 0.14660953, 9.999432, 10.000787 
2.2752473e+3, 2.6335832e+2, -717933.2, -848952.25, 9584.974, 0.014747375, -0.3950139, -717235.7, -358172.94, 0.09444842, 9.998793, 9.997047 
2.2752708e+3, 2.7335992e+2, -86753.25, -318243.63, 68238.09, -0.17850868, -0.14836414, -68135.555, 192911.83, 0.04983968, 10.001836, 9.998516 
2.2752923e+3, 2.83359e+2, -225558.67, -438170.38, -202603.4, -0.08631364, -0.07898274, -103065.32, 59991.34, 0.019500945, 10.000613, 9.997633 
2.2753201e+3, 2.933546e+2, -3307.884, -190109.08, 86859.625, 0.2836492, -0.39640653, 30838.63, 95938.01, 0.004786881, 10.0012045, 9.998299 
2.2753428e+3, 3.03351e+2, -113901.34, -306273.3, -77612.68, 0.09333152, -0.7052478, -86493.34, -86493.34, 0.0007184054, 10.000461, 9.9975815 
2.2753577e+3, 3.1335214e+2, -313350.6, -361118.25, 138620.42, -0.2975004, -0.17089903, -196571.48, -196571.48, 0.0007782504, 9.998847, 9.997965 
2.2852086e+3, 2.433393e+2, -270676.13, -964077.56, -326607.63, 0.32774782, -0.23603302, -141064.0, 414193.38, 0.45869297, 10.005569, 9.995304 
2.2852163e+3, 2.5333548e+2, -652156.94, -513459.88, -137719.78, -0.7247624, -0.44034806, -428613.84, 28679.08, 0.36361384, 9.998276, 10.0005 
2.28525e+3, 2.633389e+2, -503430.97, -587330.94, 54954.8, 0.30547446, -0.05675371, -476244.63, -116987.875, 0.26167566, 9.999304, 9.998692 
2.2852775e+3, 2.7333814e+2, 290269.0, -48404.176, 240253.81, 0.22370152, -0.11227586, 414865.7, 676126.7, 0.1640845, 10.004602, 9.999444 
2.2852959e+3, 2.83335e+2, 285674.03, -105645.55, -45481.652, 0.07329356, -0.30078217, 290890.66, 454179.97, 0.0825175, 10.003935, 9.99842 
2.285322e+3, 2.93334e+2, 621661.9, 220019.98, 349768.75, 0.16275793, -0.36473387, 824161.2, 889459.4, 0.030766662, 10.004969, 9.999474 
2.2853477e+3, 3.0333456e+2, 624226.25, 214807.42, 96793.38, 0.33936667, -0.38655195, 645956.5, 645956.5, 0.009050696, 10.004629, 9.999266 
2.2853585e+3, 3.1333366e+2, -136781.83, 7174.664, 2033.4496, -0.1310652, -0.16337754, 7203.3813, 7203.3813, 0.003968209, 9.9987755, 10.00052 
2.2952786e+3, 2.7331752e+2, -1040245.06, -414942.16, -829127.94, -0.15600933, -0.0038488472, 158523.81, 419986.22, 0.4346383, 9.993605, 10.003253 
2.295303e+3, 2.8330672e+2, -1077996.3, -1078426.3, -390406.38, 0.28997168, -1.1839106, -687804.8, -524244.75, 0.25421622, 9.995697, 9.995573 
2.2953215e+3, 2.9332185e+2, 438429.94, 261708.17, 445148.28, -0.4660952, 0.0069674198, 803902.3, 869317.7, 0.12189745, 10.003597, 10.0005245 
2.2953525e+3, 3.033316e+2, -534037.6, -728674.06, -117105.414, 0.1964528, 1.0277218, -479091.25, -479091.25, 0.054300442, 9.998493, 9.995578 
2.295365e+3, 3.133164e+2, -311639.2, 510555.8, -436013.25, 0.4649087, -0.7498373, 698715.1, 698715.1, 0.03204639, 9.995367, 10.00552 
2.3053335e+3, 2.933083e+2, -720172.0, -722442.0, -644823.7, 0.17170714, 0.33232754, -76482.35, -10928.483, 0.3636116, 9.996328, 9.997577 
2.3053616e+3, 3.0329236e+2, 1041734.3, 738203.7, -141201.44, 0.064778164, -1.8554938, 1097262.4, 1097262.4, 0.21856111, 10.007419, 10.002964 
2.3053598e+3, 3.133134e+2, -330585.72, -879401.56, 672918.3, -0.09579591, 0.3644241, 121724.16, 121724.16, 0.1720168, 10.000098, 9.994671 
2.3438813e+3, 2.884743e+2, -2136483.0, 12317.109, -950343.2, 0.08151931, -0.6789906, 372311.6, 485227.03, 0.47599417, 9.980121, 10.012228 
2.3575231e+3, 1.7887902e+2, -656716.8, -1189876.9, 361764.6, 0.13893892, 0.04320546, -473921.13, 713034.06, 0.43659818, 10.007328, 9.996601 
2.357197e+3, 1.8885566e+2, -837659.6, -1126287.4, 214536.38, 0.0013499745, -1.4307328, -723415.25, 365762.34, 0.37773317, 10.003408, 9.997711 
2.3568688e+3, 1.9887082e+2, -1156811.1, -1302018.9, -86295.52, 0.04273967, 0.5953346, -1116639.9, -125614.7, 0.3336362, 9.999204, 9.997659 
2.3565333e+3, 2.0885667e+2, -1219947.0, -964013.25, -330333.72, -0.8390061, -0.2599928, -737726.1, 155441.06, 0.30109763, 9.997036, 10.000487 
2.3562133e+3, 2.1884741e+2, -2050679.4, -1643072.4, -41384.227, 0.16408092, -0.8290864, -1638913.1, -843650.6, 0.2783399, 9.991444, 9.997927 
2.355877e+3, 2.2884397e+2, -590016.6, -1118356.3, 15549.606, -0.3493651, -0.30935708, -589559.4, 107739.29, 0.2613125, 10.002304, 9.9955435 
2.3555368e+3, 2.3883e+2, -527475.0, -787616.3, 136617.06, -1.254055, -0.94337845, -468912.2, 130526.125, 0.24582522, 10.000656, 9.998134 
2.3552147e+3, 2.488326e+2, -1110.7825, 88883.24, -3493.1404, -0.10719844, -0.33689037, 89018.625, 590430.6, 0.2302187, 10.001862, 10.003845 
2.3548833e+3, 2.588382e+2, -795798.8, -581670.0, -369295.63, 0.0045027747, 0.3422339, -304232.06, 99123.59, 0.21018535, 9.996253, 10.000367 
2.3545456e+3, 2.6883128e+2, 569251.3, -48781.63, -174086.42, -0.35882744, 0.22370158, 614913.94, 920342.6, 0.17674822, 10.00728, 9.998312 
2.3542216e+3, 2.7881506e+2, 852024.94, -774945.5, 354879.88, -0.32229227, -0.41683847, 926063.2, 1133657.0, 0.13579768, 10.012654, 9.98978 
2.3538907e+3, 2.8880802e+2, 1707018.3, 789335.1, -134385.72, -0.047203947, -0.111016296, 1726292.9, 1835953.3, 0.12680952, 10.013554, 10.000224 
2.3535699e+3, 2.9881218e+2, -418782.78, 154250.86, 391137.25, 0.050655156, 0.12184358, 352584.78, 364199.3, 0.18573867, 9.995121, 10.004083 
2.3532598e+3, 3.0880114e+2, -906337.56, -321808.13, -591855.1, -0.20196271, -0.57277536, 46011.348, 46011.348, 0.30998072, 9.994026, 10.000948 
2.3681733e+3, 1.5921699e+2, -1577942.6, -2111052.5, 82312.68, -0.06090113, -0.074104406, -1565522.9, -185875.33, 0.40917975, 10.000418, 9.994358 
2.3678479e+3, 1.6920781e+2, -1037806.94, -1169903.9, -95424.08, 0.14826211, -0.26646385, -987803.0, 293936.03, 0.3191439, 10.00207, 9.99956 
2.3675188e+3, 1.7920806e+2, -1327044.4, -1524330.3, -234368.06, -0.082650885, 0.24207215, -1171406.4, 12326.111, 0.25440213, 9.999532, 9.997505 
2.3671919e+3, 1.8919174e+2, -1197071.9, -1244654.9, -75450.88, 0.016789854, -0.62881535, -1141750.4, -55863.063, 0.20803183, 9.999321, 9.9987 
2.366866e+3, 1.9917676e+2, -1007970.6, -1125880.5, 56934.68, 0.33008853, -1.517431, -984966.8, 3063.6843, 0.17323136, 9.999762, 9.998779 
2.366532e+3, 2.0918095e+2, -708430.75, -665603.1, 31710.59, -0.18973349, -0.5835647, -648753.25, 241240.16, 0.14628568, 10.000282, 10.001169 
2.3661996e+3, 2.1918935e+2, -567744.9, -640253.1, -102939.88, -0.41904384, 0.62835485, -494861.56, 297054.97, 0.12553912, 10.000855, 10.000383 
2.3658733e+3, 2.2918431e+2, -476169.53, -540309.6, -30653.1, -0.105007924, 0.63094145, -463876.3, 230088.75, 0.108313076, 10.000859, 10.000287 
2.3655441e+3, 2.3917273e+2, -592873.7, -760492.0, -97116.35, 0.029615419, 0.005978309, -548403.6, 47672.88, 0.092006706, 10.000063, 9.998445 
2.365208e+3, 2.4916114e+2, -286928.66, -362515.0, -216385.47, -0.14358318, -0.5478184, -105060.74, 393129.9, 0.07587349, 10.000897, 10.000151 
2.3648763e+3, 2.5914946e+2, -279797.75, -702530.2, -31160.389, -0.080356196, -1.0541931, -277513.22, 122793.07, 0.059167173, 10.001868, 9.996591 
2.3645478e+3, 2.6915008e+2, 275422.03, 199690.55, 51533.242, -0.16010307, -0.44168317, 301505.4, 603811.2, 0.040480368, 10.002715, 10.001733 
2.3642254e+3, 2.7915156e+2, -241075.61, -738600.7, 164712.14, -0.27533796, 0.16300598, -191487.86, 12809.859, 0.022792675, 10.0017185, 9.994925 
2.3638932e+3, 2.891389e+2, 77569.03, -736705.75, -291711.75, -0.14501289, 0.04403304, 171287.52, 277713.22, 0.018048033, 10.00434, 9.992864 
2.363563e+3, 2.9912713e+2, -89251.61, -394551.88, 326294.06, 0.014891858, -0.38133603, 118334.11, 126878.76, 0.038622383, 10.000953, 9.99666 
2.3632471e+3, 3.0913007e+2, -911957.06, 47995.547, 231756.58, -0.15989383, 0.3536787, 101018.65, 101018.65, 0.08553716, 9.992003, 10.00389 
2.3785014e+3, 1.4954288e+2, -1073189.1, -1184043.8, -88893.88, 0.30469546, -0.06337511, -1023858.06, 450605.53, 0.38968346, 10.003496, 10.000954 
2.3781751e+3, 1.5953581e+2, -1549582.6, -1718633.0, -121061.4, 0.3748536, -0.46887553, -1486458.3, -109933.73, 0.27836236, 9.999489, 9.997477 
2.3778476e+3, 1.6952847e+2, -1410947.8, -1458449.3, -48515.45, 0.44316265, -0.4610468, -1380681.4, -102079.34, 0.19862524, 9.999357, 9.99847 
2.3775189e+3, 1.7952468e+2, -1364095.9, -1343297.3, -139396.1, 0.33626512, -0.34086114, -1213913.1, -33267.83, 0.1461588, 9.998641, 9.999093 
2.3771854e+3, 1.8952502e+2, -1008199.6, -716789.94, -14404.091, -0.15485606, 0.03783848, -716079.7, 366552.94, 0.11113541, 9.9987335, 10.002871 
2.3768535e+3, 1.9952251e+2, -1241837.5, -1119384.1, 45795.367, -0.46661198, -0.0022652796, -1104152.3, -119505.73, 0.08556882, 9.997784, 9.999745 
2.3765269e+3, 2.0951204e+2, -1077816.1, -1095784.9, 40213.223, -0.3141244, -0.4150077, -1045595.9, -158848.55, 0.065839775, 9.998866, 9.998573 
2.376197e+3, 2.1950135e+2, -1030521.06, -1065576.1, -78522.85, -0.3854724, -0.89716953, -967593.3, -178740.72, 0.050802168, 9.998524, 9.998398 
2.3758668e+3, 2.2950017e+2, -696536.5, -455311.3, -76307.38, -0.42027485, -0.58592063, -433199.66, 257665.1, 0.03888462, 9.998559, 10.001838 
2.3755388e+3, 2.3949926e+2, -1049528.9, -1015413.8, -130458.984, -0.18415406, -0.28107363, -900901.94, -308027.66, 0.028499532, 9.997266, 9.998007 
2.3752041e+3, 2.494925e+2, -534022.3, -642542.56, -233811.84, -0.21799353, -0.2666508, -348257.13, 146685.19, 0.019239584, 9.999976, 9.998491 
2.3748723e+3, 2.594831e+2, -576938.8, -927475.6, -42911.703, -0.29251903, -0.46737164, -571762.1, -174725.47, 0.01143259, 10.000317, 9.995741 
2.3745468e+3, 2.6947775e+2, 1516.8413, -160908.16, -47909.36, -0.080413476, -0.32173952, 14595.258, 313688.1, 0.005417436, 10.001928, 9.999417 
2.3742247e+3, 2.794724e+2, -448739.4, -761242.2, -16820.365, -0.033606168, -0.29165763, -447836.66, -246687.63, 0.0017240121, 10.000034, 9.995589 
2.3738919e+3, 2.8946376e+2, 260013.77, -344148.06, -262587.16, -0.25956306, -0.17517842, 358188.9, 461426.56, 0.0009965353, 10.0042515, 9.995643 
2.3735636e+3, 2.994598e+2, 274568.94, -195533.84, 129334.55, -0.1579811, 0.021178741, 307802.06, 313081.03, 0.0037784507, 10.003278, 9.996977 
2.3732403e+3, 3.0944744e+2, -431716.13, 28394.191, 106505.19, -0.44063237, -0.4481055, 51851.816, 51851.816, 0.011109927, 9.996302, 10.001766 
2.38882e+3, 1.3987505e+2, -1338928.5, -1236224.9, 50665.3, -1.1139454, 0.18231167, -1215438.0, 353791.22, 0.42782903, 10.000735, 10.002917 
2.3884991e+3, 1.4987008e+2, -1067599.8, -1032342.7, -39520.355, 0.2060123, -0.09154841, -1006697.4, 464566.84, 0.29985446, 10.002072, 10.00283 
2.3881683e+3, 1.5986577e+2, -1489747.0, -1451350.5, -15733.493, 0.21156214, -0.2574467, -1445727.0, -72430.87, 0.19614406, 9.998641, 9.99983 
2.3878413e+3, 1.6986014e+2, -1188973.8, -1240413.0, 147408.42, 0.26465005, -0.2596002, -1065058.0, 210294.92, 0.12585048, 10.000255, 9.999766 
2.3875141e+3, 1.7985487e+2, -869742.6, -1039542.8, 150083.44, 0.2801163, -0.28966427, -782209.94, 395197.97, 0.083471425, 10.001808, 9.999804 
2.3871812e+3, 1.8985355e+2, -782698.8, -698032.1, 4187.41, -0.07036921, -0.014795714, -697825.5, 381591.72, 0.057587944, 10.0007515, 10.001921 
2.3868479e+3, 1.998514e+2, -1025620.06, -1034370.8, -93503.49, -0.4423819, 0.1108975, -936389.6, 45043.22, 0.03970386, 9.999177, 9.999709 
2.3865205e+3, 2.098412e+2, -899343.1, -976643.4, -19687.84, -0.37930587, -0.31952006, -894617.7, -11087.963, 0.026570952, 9.999789, 9.999014 
2.3861931e+3, 2.1983004e+2, -702466.25, -857767.56, -21543.586, -0.27129415, -0.83754635, -699533.06, 86104.17, 0.017417854, 10.000493, 9.998894 
2.385862e+3, 2.2982769e+2, -584253.7, -464091.63, -140038.27, -0.2797518, -0.60613716, -371790.1, 315871.44, 0.011141793, 9.999632, 10.001233 
2.385532e+3, 2.3982596e+2, -746791.56, -808305.8, -169006.53, -0.22438754, -0.30941048, -605766.25, -16086.534, 0.0065593217, 9.999074, 9.99853 
2.3852003e+3, 2.4982047e+2, -116241.17, -414988.16, -117981.74, -0.2475088, -0.21432954, -75267.266, 416464.2, 0.0032030866, 10.002681, 9.998751 
2.3848708e+3, 2.598135e+2, 141798.11, -539193.25, 104082.8, -0.26286802, -0.18477511, 157350.94, 551149.56, 0.0011282732, 10.005052, 9.996091 
2.3845449e+3, 2.698053e+2, -42512.418, -415934.25, 42072.06, -0.04565113, -0.17856558, -37831.004, 258053.16, 0.00023273825, 10.002562, 9.99738 
2.384221e+3, 2.797963e+2, -569876.94, -645295.5, 81265.266, 0.1135374, -0.36078528, -517998.13, -320020.66, 0.000018977813, 9.998323, 9.997215 
2.3838887e+3, 2.8979e+2, -141868.97, -164596.83, 40183.203, -0.2866327, -0.31467977, -111473.72, -11436.44, 0.000039610317, 9.999817, 9.998995 
2.3835613e+3, 2.9978943e+2, -196684.27, -434322.84, 208571.9, -0.07663612, 0.11264585, -75461.336, -73422.07, 0.00031053094, 10.000024, 9.996863 
2.3832346e+3, 3.0977073e+2, -119175.984, 94944.35, -224175.06, -0.14320706, -0.8775524, 236311.9, 236311.9, 0.0010092406, 9.999001, 10.000703 
2.3991567e+3, 1.3020909e+2, -2961613.8, -2215162.8, 525815.3, -0.018168345, -0.06161581, -1943578.9, -279637.0, 0.4904385, 9.990951, 9.999615 
2.3988326e+3, 1.4020471e+2, -1570329.6, -1745617.4, -3584.047, 0.3678348, -0.17142515, -1570256.4, -4267.764, 0.36336115, 10.000491, 9.998003 
2.3984966e+3, 1.5020102e+2, -1232268.8, -1257979.6, -115832.99, 0.28830644, -0.028433058, -1128580.0, 339441.38, 0.24041095, 10.001523, 10.000519 
2.3981597e+3, 1.6019739e+2, -1431443.5, -1389134.4, -41888.883, -0.006770932, -0.00949168, -1363361.4, 6690.6367, 0.14389461, 9.999176, 9.999861 
2.3978335e+3, 1.7019442e+2, -1066142.0, -910889.3, 209593.66, -0.03445275, 0.04680817, -765008.7, 507067.1, 0.08188297, 10.000066, 10.002185 
2.397508e+3, 1.8018954e+2, -1208530.3, -1360043.8, 96757.766, 0.020146344, -0.09002103, -1161400.3, 12719.838, 0.047678713, 10.000063, 9.998373 
2.3971772e+3, 1.901811e+2, -1185095.6, -1310785.0, -69905.484, 0.0035982411, -0.20845433, -1153939.0, -77730.36, 0.028905774, 9.999863, 9.997935 
2.3968457e+3, 2.0017388e+2, -1320738.6, -1356141.8, -102223.59, -0.059176948, -0.27033126, -1234695.3, -256410.23, 0.017015342, 9.998132, 9.997962 
2.3965178e+3, 2.1017198e+2, -882383.8, -734956.94, 22269.73, -0.08505308, 0.022769852, -731666.44, 148635.39, 0.00915297, 9.999101, 10.000951 
2.3961906e+3, 2.2016896e+2, -1007970.4, -1069686.8, -54243.64, -0.01842542, 0.17743856, -976421.8, -194092.45, 0.0045936005, 9.998848, 9.9982195 
2.3958571e+3, 2.3016138e+2, -859352.4, -831537.75, -191909.13, -0.19050744, 0.04143915, -653032.7, 31373.447, 0.0022051786, 9.998869, 9.999024 
2.395524e+3, 2.4015278e+2, -982814.7, -959079.4, -131755.33, -0.40088832, -0.206217, -838658.3, -252166.73, 0.0009056362, 9.997733, 9.99814 
2.395198e+3, 2.5014758e+2, -42722.484, -85911.41, 7634.323, -0.22508167, -0.27308747, -41412.715, 447119.63, 0.00023937336, 10.002148, 10.001151 
2.3948734e+3, 2.6014206e+2, -49656.324, -646338.4, 59590.293, -0.045840546, -0.3185778, -43763.277, 346815.1, 0.000025130046, 10.003887, 9.995923 
2.3945418e+3, 2.701355e+2, -169378.6, -647788.1, -97521.21, -0.123346575, -0.016265955, -150263.2, 142390.94, 0.00000030344088, 10.002512, 9.995787 
2.394211e+3, 2.801288e+2, -576464.7, -463978.84, 2745.246, -0.2977775, 0.057611365, -463911.88, -269182.6, 0.0000000068303647, 9.997543, 9.99886 
2.3938811e+3, 2.9012102e+2, 44344.58, 398573.9, 166404.67, -0.5077693, -0.42316914, 464482.13, 561273.56, 0.0000039429096, 9.999168, 10.003144 
2.3935544e+3, 3.001171e+2, -415311.56, -567047.75, 330948.56, -0.5746013, -0.53871185, -151646.27, -151646.27, 0.00006190627, 9.998704, 9.996571 
2.3932336e+3, 3.101107e+2, 120920.04, 165636.5, 186855.25, -0.109755956, -0.2792523, 331466.4, 331466.4, 0.0002690841, 10.000626, 10.000425 
2.4091548e+3, 1.3053812e+2, -1379548.4, -1298617.8, -48977.426, 0.26600417, -0.03312881, -1275551.8, 385164.22, 0.44510007, 10.00138, 10.003295 
2.4088262e+3, 1.4053452e+2, -1544805.1, -1601724.1, -57689.156, 0.13689777, -0.21712609, -1508937.5, 53810.406, 0.31930807, 9.999912, 9.999527 
2.4084929e+3, 1.5052995e+2, -1103454.8, -1288044.3, -145689.19, 0.15745804, -0.1253474, -1023285.94, 441505.5, 0.20041417, 10.002889, 9.999579 
2.4081586e+3, 1.605246e+2, -737886.2, -1103404.0, -56052.37, 0.05490572, -0.15480618, -729483.7, 637358.5, 0.110025235, 10.0046015, 9.999452 
2.40783e+3, 1.7052099e+2, -859643.8, -887794.94, -4524.402, 0.0019475822, -0.10077005, -858934.56, 409939.63, 0.054970514, 10.001807, 10.001488 
2.407502e+3, 1.8051659e+2, -1397399.4, -1419123.6, -145643.31, -0.049748797, -0.12909713, -1262213.6, -91298.625, 0.027314784, 9.998476, 9.998768 
2.4071714e+3, 1.9050927e+2, -1123645.4, -1264625.6, -112721.83, -0.05906381, -0.18754779, -1061187.9, 11805.487, 0.013986388, 10.0000925, 9.998206 
2.4068408e+3, 2.0050207e+2, -768266.8, -1037135.06, 28348.727, -0.098674774, -0.23154207, -765310.3, 209760.47, 0.006556314, 10.001612, 9.998495 
2.4065134e+3, 2.1049966e+2, -504217.94, -568806.2, 40097.164, -0.08780844, 0.01916278, -485027.2, 392066.9, 0.002469395, 10.001781, 10.000807 
2.4061859e+3, 2.2049703e+2, -550491.75, -812953.8, -108507.3, -0.08297516, 0.25076494, -511442.4, 267676.75, 0.00078321603, 10.001675, 9.998654 
2.4058525e+3, 2.304896e+2, -500764.72, -707825.6, -181503.4, -0.14727697, 0.12714796, -395340.53, 285853.94, 0.00023610769, 10.001309, 9.998786 
2.4055205e+3, 2.4048103e+2, -470781.75, -638135.9, 53150.137, -0.229133, -0.09259043, -455328.66, 127950.39, 0.000047296035, 10.000715, 9.998956 
2.4051958e+3, 2.504753e+2, -181226.52, -98809.24, 123351.94, -0.10743594, -0.25558013, -9964.614, 475358.75, 0.0000020598873, 10.000888, 10.001715 
2.4048719e+3, 2.604698e+2, -405765.63, -674172.0, 372.93314, 0.03175588, -0.35698465, -405765.1, -18397.105, 0.0, 10.000734, 9.997255 
2.4045385e+3, 2.7046442e+2, -326318.66, -710250.25, -118314.31, -0.13201685, 0.018350828, -292786.9, -3352.9993, 0.0, 10.001352, 9.99593 
2.404205e+3, 2.8045914e+2, -37222.457, -90271.49, 25685.299, -0.32756233, 0.2370543, -26824.29, 164672.56, 0.0, 10.000631, 9.999956 
2.4038762e+3, 2.9045102e+2, 225857.3, 588672.75, -23691.736, -0.43746668, -0.3966733, 590213.25, 683771.75, 0.00000028208012, 9.999836, 10.00419 
2.403551e+3, 3.0044657e+2, -458072.9, -488874.34, 75215.65, -0.3230169, -0.64058584, -396697.47, -396697.47, 0.000017512673, 9.997841, 9.997567 
2.4032336e+3, 3.104433e+2, 280364.38, 233921.38, -91687.49, 0.20789686, -0.10477523, 351725.28, 351725.28, 0.0001005609, 10.001701, 10.000449 
2.4191442e+3, 1.3086027e+2, -1341124.8, -927615.06, 7952.681, -0.37808886, -0.20350899, -927462.1, 730101.25, 0.41411307, 9.999138, 10.008368 
2.4188167e+3, 1.4086361e+2, -1689748.5, -1554394.8, -99528.945, -0.26876354, -0.1625771, -1501713.1, 57801.49, 0.28877336, 9.9983, 10.00067 
2.4184895e+3, 1.5085788e+2, -1255764.3, -1371768.0, -55855.777, 0.09263911, -0.22532173, -1233242.3, 228327.75, 0.17287979, 10.001551, 9.999493 
2.4181609e+3, 1.6085066e+2, -1048623.1, -1465094.0, -95459.96, 0.34475014, -0.3896349, -1027785.2, 335856.47, 0.08747846, 10.003063, 9.997556 
2.4178284e+3, 1.7084539e+2, -1074921.4, -1173994.3, -113054.75, 0.20048597, -0.32592663, -1001026.75, 264667.75, 0.038149297, 10.001152, 9.999637 
2.4174961e+3, 1.8084098e+2, -1494695.6, -1450155.3, -136551.52, 0.04855685, -0.23980002, -1334069.8, -166330.77, 0.01570925, 9.997879, 9.998776 
2.4171655e+3, 1.9083773e+2, -1013413.7, -951121.25, -19285.352, -0.12618452, -0.093957625, -945634.0, 124140.64, 0.0064830934, 9.999804, 10.000432 
2.4168357e+3, 2.0083305e+2, -1009048.75, -1217043.9, 41803.75, -0.24769929, -0.05225774, -1000961.3, -29137.43, 0.0021827125, 10.00032, 9.997858 
2.4165076e+3, 2.1082494e+2, -743876.3, -883793.56, 33970.26, -0.3298441, -0.2361023, -736064.9, 137839.55, 0.00044835047, 10.001028, 9.99897 
2.4161795e+3, 2.2081771e+2, -861361.94, -1017082.06, -143289.53, -0.3386752, -0.35025612, -776145.1, -169.47945, 0.000068581576, 9.999922, 9.998068 
2.4158494e+3, 2.3081525e+2, -519840.75, -527809.1, -218109.81, -0.0764757, -0.089769706, -305678.75, 372321.88, 0.0000096515805, 10.000621, 10.0002365 
2.41552e+3, 2.4081166e+2, -728897.25, -807912.9, 13660.291, 0.15824915, 0.06264824, -726602.3, -146567.23, 0.00000040342232, 9.999336, 9.998411 
2.4151924e+3, 2.5080484e+2, -333068.56, -299919.6, 115052.53, -0.026042271, -0.123988524, -200253.8, 281839.97, 0.0, 10.000503, 10.0004635 
2.414865e+3, 2.6079792e+2, -610837.6, -774808.06, -47580.566, -0.2258136, -0.31042227, -598031.0, -213874.98, 0.0, 9.999443, 9.997196 
2.4145342e+3, 2.707925e+2, -307571.03, -489171.88, -108727.61, -0.16575731, -0.10468618, -256715.5, 29502.703, 0.0, 10.000701, 9.997692 
2.4142034e+3, 2.8078705e+2, -383067.66, -528292.5, -4666.9067, -0.14091082, 0.03506051, -382917.84, -194638.2, 0.0, 9.999516, 9.997488 
2.413875e+3, 2.907806e+2, -85137.695, 55026.293, -92068.39, -0.10128338, -0.08982937, 100651.15, 190985.34, 0.0000000009564638, 9.999512, 10.000606 
2.4135505e+3, 3.0077538e+2, -692622.3, -663086.56, 98667.78, 0.009424145, -0.17395757, -578087.6, -578087.6, 0.0000015325257, 9.996632, 9.9969425 
2.4132271e+3, 3.1076586e+2, 264108.4, 225843.27, 1778.738, -0.4290569, -0.4627703, 264190.9, 264190.9, 0.000021924814, 10.001556, 10.000499 
2.4291418e+3, 1.311928e+2, -1512612.6, -1234080.4, 93454.51, -0.1149901, -0.17338067, -1205630.1, 448670.34, 0.3927152, 9.998705, 10.004861 
2.4288122e+3, 1.4119206e+2, -1705463.6, -1578127.9, -1762.4075, -0.12823586, -0.1695586, -1578103.5, -21807.424, 0.26710206, 9.998218, 10.000456 
2.4284853e+3, 1.5118663e+2, -1303199.8, -1353823.9, 16572.8, 0.057036955, -0.2279652, -1298257.0, 160092.0, 0.15331793, 10.000784, 10.000098 
2.4281572e+3, 1.6118036e+2, -1149125.8, -1449138.3, -63481.113, 0.18002963, -0.31018555, -1136246.4, 224165.19, 0.07196278, 10.00186, 9.998279 
2.427823e+3, 1.7117454e+2, -1094461.9, -1238172.9, -113985.54, 0.047501598, -0.27558511, -1031573.5, 230896.75, 0.027363949, 10.001215, 9.999158 
2.4274895e+3, 1.8116906e+2, -1122071.9, -1237467.0, -12852.963, -0.11691493, -0.23955984, -1120657.6, 43868.164, 0.009079448, 10.000205, 9.9991045 
2.4271613e+3, 1.9116572e+2, -816436.9, -825018.4, 48663.332, -0.10105759, -0.11776491, -771875.5, 294684.75, 0.002868925, 10.000914, 10.000804 
2.4268332e+3, 2.011615e+2, -868735.6, -1113553.5, 29113.957, -0.13119559, -0.038921718, -865321.0, 103282.42, 0.00059867656, 10.000967, 9.9983 
2.4265034e+3, 2.1115313e+2, -914192.25, -1053182.6, 36557.32, -0.29319593, -0.20353414, -905163.44, -34475.047, 0.000045539302, 10.0000305, 9.998393 
2.4261741e+3, 2.2114538e+2, -913781.1, -963806.7, -55293.03, -0.37914127, -0.3208253, -878106.56, -105340.445, 0.0000022398012, 9.999094, 9.99885 
2.4258447e+3, 2.311425e+2, -492060.28, -451736.44, -151207.8, -0.07257905, -0.1476815, -319352.3, 355438.63, 0.000000052409952, 10.000495, 10.000856 
2.4255164e+3, 2.411392e+2, -389869.28, -600164.8, 16164.606, 0.19296943, 0.012445327, -388634.03, 188186.03, 0.0, 10.001407, 9.998834 
2.425188e+3, 2.511319e+2, -397873.9, -480777.2, 59942.117, -0.037137013, -0.1288233, -366446.9, 112442.91, 0.0, 10.000611, 9.999214 
2.4248596e+3, 2.611247e+2, -437293.56, -489499.84, -92976.734, -0.25013268, -0.269155, -366825.25, 14133.007, 0.0, 9.999614, 9.99909 
2.4245301e+3, 2.7112e+2, -150734.97, -133782.3, -96926.98, -0.12583856, -0.24395047, -44961.74, 238043.13, 0.0, 10.000412, 10.000324 
2.4242012e+3, 2.8111547e+2, -165486.88, -410936.63, 89507.6, 0.070718065, -0.16140164, -136313.73, 48737.734, 0.0, 10.000815, 9.997687 
2.4238728e+3, 2.9110986e+2, 204733.61, -101107.0, 73045.125, 0.10859422, 0.014029964, 221283.69, 308390.72, 0.0, 10.002595, 9.998139 
2.4235477e+3, 3.0110368e+2, 89635.516, -241363.63, 314295.53, 0.19085403, 0.038637005, 279342.63, 279342.63, 0.000000086511356, 10.001647, 9.997471 
2.4232234e+3, 3.1109253e+2, -330472.0, -58173.313, -133587.78, -0.320019, -0.42667562, -3581.1057, -3581.1057, 0.0000026170453, 9.997243, 10.000725 
2.4394704e+3, 1.2153257e+2, -1461827.0, -1144039.1, -398307.25, -0.24275632, 0.07831501, -874102.2, 874873.6, 0.49457142, 9.999581, 10.007899 
2.4391414e+3, 1.3152668e+2, -1587420.5, -1638397.8, 86264.82, 0.41275272, -0.1207429, -1522957.5, 128065.34, 0.3775347, 10.000794, 9.999374 
2.4388096e+3, 1.4152046e+2, -1647265.0, -1753648.4, 77195.43, 0.26376486, -0.20223103, -1606709.8, -53629.676, 0.25111946, 9.9996605, 9.998501 
2.438481e+3, 1.5151612e+2, -1290149.9, -1309085.1, 99001.01, 0.08226401, -0.16118683, -1200164.9, 254958.17, 0.13882844, 10.000802, 10.000346 
2.4381518e+3, 1.6151117e+2, -1368398.9, -1568581.5, -94375.99, 0.005012956, -0.12868164, -1330921.6, 26250.889, 0.060861234, 10.000422, 9.998098 
2.4378169e+3, 1.7150488e+2, -1137219.9, -1251616.9, -158676.63, -0.15055461, -0.1752335, -1025747.3, 233487.73, 0.02025213, 10.000952, 9.999149 
2.4374834e+3, 1.814986e+2, -1221242.8, -1376648.5, -11484.251, -0.22787262, -0.20483111, -1220398.6, -59101.066, 0.0052852775, 10.0000105, 9.998253 
2.437158e+3, 1.9149384e+2, -919009.2, -937607.4, 58084.08, 0.0074222046, -0.17510065, -869484.56, 193859.95, 0.0012089658, 10.000591, 10.000157 
2.436832e+3, 2.0148925e+2, -1106893.6, -1274182.6, -8841.408, 0.20630516, -0.078155026, -1106427.6, -141036.86, 0.00012403581, 9.999721, 9.997752 
2.4365002e+3, 2.1148422e+2, -981533.9, -1033449.6, -11033.611, -0.06326229, 0.0441645, -979286.25, -111840.734, 0.000001917801, 9.999538, 9.998643 
2.436169e+3, 2.2147827e+2, -1140873.9, -1151068.1, -44622.69, -0.2659225, 0.093611814, -1101058.1, -331552.03, 0.000000018702426, 9.99802, 9.998024 
2.4358386e+3, 2.3147112e+2, -553851.56, -517532.22, -90565.02, -0.19349489, -0.13968661, -443324.16, 228243.11, 0.0, 10.000273, 10.000455 
2.4355096e+3, 2.4146399e+2, -707075.9, -939155.9, 1978.3936, -0.11136179, -0.31469807, -707059.0, -133427.89, 0.0, 10.0001335, 9.997108 
2.4351823e+3, 2.5145724e+2, -589436.6, -726178.75, 12245.001, -0.12570843, -0.26520696, -588348.8, -112645.53, 0.0, 10.000111, 9.997715 
2.4348553e+3, 2.6145118e+2, -561200.4, -450198.3, -109752.945, -0.16720715, -0.23750734, -382711.25, -4946.3403, 0.0, 9.998479, 9.99989 
2.4345253e+3, 2.714482e+2, 20745.543, 328829.4, -64875.477, -0.122674435, -0.34578142, 341933.34, 621714.6, 0.0, 10.000051, 10.003643 
2.4341963e+3, 2.8144464e+2, -317143.34, -467907.75, 122501.19, -0.045431104, -0.41087797, -248688.77, -66880.9, 0.0, 9.999811, 9.997788 
2.4338686e+3, 2.914382e+2, 49704.82, -315686.34, 166769.4, -0.12711066, -0.2590546, 114374.77, 198254.05, 0.0, 10.002238, 9.996808 
2.4335413e+3, 3.014316e+2, -256789.66, -558866.25, 222748.97, -0.34539843, -0.11925299, -138700.34, -138700.34, 0.0, 10.000044, 9.996056 
2.4332188e+3, 3.1142294e+2, -648590.2, -223527.17, 58960.117, -0.18960063, -0.38939527, -215500.44, -215500.44, 0.00000012758136, 9.995315, 10.000417 
2.4494658e+3, 1.2186934e+2, -1771964.6, -1690172.8, -283044.3, -0.21950878, -0.07676782, -1445085.1, 300571.34, 0.48541614, 9.999314, 10.001513 
2.449142e+3, 1.3185811e+2, -1407232.0, -1861003.1, 157919.75, 0.6543592, -0.41595855, -1357683.6, 290085.28, 0.3659335, 10.00413, 9.99627 
2.4488044e+3, 1.4185251e+2, -1099120.9, -1575944.3, 117957.25, -0.15009324, -0.1561314, -1071536.3, 478291.2, 0.23856215, 10.004915, 9.997281 
2.4484761e+3, 1.5184687e+2, -1143103.8, -1329470.1, 96673.74, -0.12620154, -0.13463633, -1102015.1, 349869.56, 0.1275105, 10.002288, 9.999504 
2.4481472e+3, 1.6184095e+2, -1386213.6, -1525668.6, -36304.105, -0.03483802, -0.13780437, -1377328.8, -23385.006, 0.052560914, 9.999959, 9.998629 
2.4478142e+3, 1.7183492e+2, -939215.5, -1117759.4, -56815.324, -0.050859377, -0.19177045, -922669.4, 333331.47, 0.01541553, 10.001985, 9.999658 
2.4474819e+3, 1.8182881e+2, -809286.56, -1175054.9, 53479.93, -0.11362913, -0.20713437, -801627.5, 356432.28, 0.0031067657, 10.002721, 9.998366 
2.4471533e+3, 1.9182321e+2, -857746.44, -1029420.94, 74480.37, -0.065451026, -0.16789804, -829937.94, 230178.19, 0.00048131414, 10.001442, 9.999186 
2.4468257e+3, 2.0181757e+2, -976042.5, -1116215.9, 34820.49, 0.0036162918, -0.11206879, -967869.25, -5696.8276, 0.000015932997, 10.000121, 9.998638 
2.4464959e+3, 2.1181253e+2, -750316.44, -809464.75, 43162.934, -0.017210728, -0.07439805, -727567.8, 136654.25, 0.0000000054715246, 10.00061, 9.9996805 
2.446166e+3, 2.2180697e+2, -626706.06, -845705.94, 73062.87, -0.08152906, -0.03823859, -604568.56, 161707.22, 0.0, 10.001153, 9.998639 
2.4458355e+3, 2.3179963e+2, -324846.28, -510247.78, 11766.226, -0.14037605, -0.22028041, -324102.53, 344239.44, 0.0, 10.002149, 9.999676 
2.4455054e+3, 2.417922e+2, -367999.84, -738866.5, 28935.69, -0.17413874, -0.34988543, -365755.8, 204655.6, 0.0, 10.0020895, 9.9976015 
2.4451777e+3, 2.5178567e+2, -592064.6, -724255.9, 119326.98, -0.09994969, -0.28160253, -521750.72, -49268.098, 0.0, 9.999875, 9.997959 
2.44485e+3, 2.6178002e+2, -530537.6, -375274.13, 111884.25, -0.06152278, -0.20231579, -316726.7, 57814.39, 0.0, 9.998269, 10.000552 
2.4445204e+3, 2.7177638e+2, 36635.914, 283450.9, -90392.1, -0.10181197, -0.34511283, 313014.47, 589579.2, 0.0, 10.000279, 10.003276 
2.4441919e+3, 2.8177246e+2, -3535.6487, -247700.97, -119818.07, -0.10161144, -0.43304807, 45438.836, 224033.38, 0.0, 10.001495, 9.99852 
2.4438637e+3, 2.917664e+2, -141260.39, -362472.44, -7780.7544, -0.25095555, -0.30930594, -140987.05, -60323.63, 0.0, 10.00054, 9.997375 
2.4435367e+3, 3.0176058e+2, -369717.25, -533414.44, 105780.664, -0.3667614, -0.13583197, -317817.06, -317817.06, 0.0, 9.998698, 9.996926 
2.4432139e+3, 3.1175467e+2, -6207.795, 201542.75, 1483.809, 0.049691644, -0.09457304, 201553.34, 201553.34, 0.000000000000427524, 9.998987, 10.001629 
2.4594632e+3, 1.2220214e+2, -1966088.6, -2345805.0, -369759.13, 0.048106536, -0.3753226, -1740293.1, 2088.972, 0.47723785, 10.000164, 9.995494 
2.4591425e+3, 1.3218917e+2, -1683884.3, -2241604.3, 124726.9, 0.8417158, -0.67758185, -1657261.5, -12740.55, 0.3557266, 10.002079, 9.994519 
2.4587996e+3, 1.4218542e+2, -1516709.1, -1981513.6, 22286.05, -0.5713319, -0.062830485, -1515643.0, 30923.408, 0.22774403, 10.001882, 9.995892 
2.4584715e+3, 1.521778e+2, -1318002.9, -1518228.8, -28031.521, -0.26316142, -0.15273188, -1314152.5, 134491.97, 0.11809006, 10.001528, 9.998393 
2.4581435e+3, 1.621707e+2, -1397864.0, -1564391.5, -34755.234, 0.12647416, -0.1873465, -1390901.5, -40186.652, 0.04605504, 10.000138, 9.998248 
2.4578135e+3, 1.7216563e+2, -955497.8, -1057766.3, -6883.169, 0.20730917, -0.21371494, -955036.56, 297722.63, 0.012013259, 10.001688, 10.000159 
2.4574819e+3, 1.8216023e+2, -1073354.6, -1424851.4, -371.8376, 0.16143847, -0.1630189, -1073354.3, 81454.81, 0.0018483637, 10.001553, 9.9971895 
2.457148e+3, 1.9215338e+2, -983912.5, -1231105.4, 2024.7896, -0.21400939, -0.15059237, -983895.94, 72983.88, 0.00018026956, 10.001239, 9.997858 
2.4568166e+3, 2.0214634e+2, -1084787.4, -1172462.4, 13640.058, -0.374961, -0.16365758, -1082714.4, -123765.18, 0.0000007906511, 9.999524, 9.998534 
2.456491e+3, 2.1213917e+2, -722393.94, -671837.94, 40658.973, -0.0458808, -0.44782555, -649239.75, 211770.48, 0.0, 10.000368, 10.000736 
2.4561644e+3, 2.2213274e+2, -911870.75, -1081085.6, 60751.492, 0.18081221, -0.5418336, -892318.9, -129251.46, 0.0, 9.999837, 9.997633 
2.4558343e+3, 2.3212868e+2, -524516.0, -706825.56, 22237.537, 0.0534908, -0.30957252, -521842.75, 143267.67, 0.0, 10.001481, 9.998534 
2.4555036e+3, 2.4212407e+2, -586864.0, -809272.8, -48202.13, -0.035852104, -0.10372551, -576866.6, -9708.2705, 0.0, 10.000624, 9.997782 
2.4551728e+3, 2.5211754e+2, -572857.1, -528954.1, 9523.171, -0.028471746, -0.20088308, -526977.44, -57753.727, 0.0, 9.99927, 9.999555 
2.4548432e+3, 2.62111e+2, -991537.6, -972407.44, 114557.15, -0.064611234, -0.21612784, -867016.75, -495726.53, 0.0, 9.996844, 9.997115 
2.4545154e+3, 2.721045e+2, -380011.8, -458242.5, -12969.128, -0.14498955, -0.21125221, -377917.84, -104558.15, 0.0, 9.999861, 9.998325 
2.4541877e+3, 2.8209913e+2, -210036.03, -362812.9, -149166.55, -0.21728462, -0.1125884, -118836.125, 56580.223, 0.0, 10.000309, 9.998275 
2.4538589e+3, 2.920954e+2, -105098.65, -30177.055, -71482.95, -0.3027743, -0.025042508, 13066.075, 90521.766, 0.0, 9.999556, 10.000082 
2.453534e+3, 3.0208966e+2, -736528.2, -668228.2, 81718.06, -0.110476695, -0.008716175, -613811.5, -613811.5, 0.0, 9.996191, 9.997176 
2.453209e+3, 3.1208435e+2, -158567.33, 322238.03, 183129.77, -0.066061616, -0.044733673, 384043.84, 384043.84, 0.0, 9.9974165, 10.003097 
2.4694584e+3, 1.2252948e+2, -1495521.5, -1642133.5, -410470.0, -0.2503656, 0.025665881, -1151863.0, 587332.56, 0.4678526, 10.003084, 10.0003605 
2.469136e+3, 1.32518e+2, -1722303.9, -1938398.3, -142588.98, 0.57844365, -0.43940908, -1651449.4, -10140.483, 0.34520847, 10.000353, 9.997451 
2.4687968e+3, 1.4251558e+2, -1907566.1, -1995282.1, -39110.62, -0.37307563, 0.058935706, -1892660.5, -349326.03, 0.21743059, 9.998275, 9.997544 
2.468468e+3, 1.5250775e+2, -1274772.1, -1419891.4, 2349.067, -0.26728263, -0.13880299, -1274734.1, 170678.63, 0.109704144, 10.001486, 9.999105 
2.4681398e+3, 1.6250086e+2, -905738.56, -1244677.0, 6250.2173, -0.048239566, -0.2126025, -905623.3, 441856.8, 0.040704507, 10.003244, 9.9989805 
2.4678104e+3, 1.724964e+2, -801509.44, -998575.0, -22283.943, 0.15667218, -0.16011094, -799021.0, 450498.1, 0.00953522, 10.002754, 10.000115 
2.4674793e+3, 1.8249114e+2, -972343.06, -1303265.9, -11349.75, 0.16487671, -0.086078435, -971954.25, 179613.34, 0.0011160366, 10.001854, 9.997893 
2.4671453e+3, 1.9248337e+2, -791842.0, -1117755.3, 33383.555, -0.16578873, -0.1796638, -788457.6, 265188.06, 0.00006263998, 10.002404, 9.998115 
2.4668138e+3, 2.0247586e+2, -634290.3, -932826.9, 80974.83, -0.33952746, -0.23516724, -613741.25, 341977.5, 0.0000000031066179, 10.002407, 9.998818 
2.466488e+3, 2.1246886e+2, -442998.03, -618784.75, 24250.246, -0.0011296619, -0.43569428, -439714.0, 418065.66, 0.0, 10.002502, 10.000147 
2.466161e+3, 2.2246228e+2, -544207.0, -875895.6, -5060.5103, 0.17852663, -0.49759966, -544129.8, 215709.17, 0.0, 10.002095, 9.998 
2.4658298e+3, 2.324576e+2, -505425.63, -730084.6, -3556.4578, -0.03252417, -0.30742607, -505369.34, 156519.3, 0.0, 10.001613, 9.998399 
2.465499e+3, 2.4245277e+2, -420907.25, -659899.9, -88912.17, -0.1513146, -0.109554395, -391458.13, 172480.78, 0.0, 10.001331, 9.99849 
2.465168e+3, 2.5244647e+2, -209875.63, -345985.56, -173430.9, -0.05742995, -0.19379583, -91625.03, 374374.75, 0.0, 10.001617, 9.999725 
2.4648382e+3, 2.6243994e+2, -313105.66, -654608.5, 1041.7888, -0.03408401, -0.21464655, -313102.5, 54963.676, 0.0, 10.001354, 9.997157 
2.4645112e+3, 2.7243307e+2, -294134.88, -555260.06, 150412.22, -0.10526731, -0.14605466, -225523.13, 44621.145, 0.0, 10.000895, 9.997226 
2.4641839e+3, 2.8242776e+2, -129743.78, -211715.5, 112443.12, -0.19073059, 0.037171263, -51049.67, 121155.14, 0.0, 10.000251, 9.999357 
2.4638535e+3, 2.9242447e+2, 48570.113, 145775.86, -1915.5652, -0.30333853, 0.10837074, 145813.6, 220051.94, 0.0, 10.000035, 10.001144 
2.46353e+3, 3.024185e+2, -176038.69, -273752.1, 130004.305, 0.15040646, 0.029800724, -86013.8, -86013.8, 0.0, 9.999337, 9.998413 
2.4632034e+3, 3.1241104e+2, 170054.05, 513553.75, 65320.38, -0.051886175, -0.21111836, 525555.8, 525555.8, 0.0, 9.9992, 10.003688 
2.4794549e+3, 1.2285596e+2, -1474073.6, -1322299.0, -237254.94, -0.38873884, 0.36221367, -1149090.4, 586927.75, 0.45571712, 10.000592, 10.004663 
2.4791288e+3, 1.3284656e+2, -1507523.6, -1534314.0, -91618.27, 0.352863, -0.205864, -1428326.5, 209773.6, 0.33319858, 10.000929, 10.000277 
2.4787952e+3, 1.4284506e+2, -1612794.9, -1689296.0, 55236.246, 0.09960339, 0.16171747, -1583858.0, -43749.113, 0.20679392, 9.99972, 9.998925 
2.4784648e+3, 1.5283772e+2, -1261486.3, -1308654.8, 90657.09, -0.20627989, -0.11584378, -1191396.0, 250784.17, 0.10179194, 10.0011015, 10.000147 
2.478136e+3, 1.6283123e+2, -1237902.6, -1424495.6, -29067.742, -0.20199418, -0.20648277, -1233479.3, 110763.2, 0.036105353, 10.001075, 9.998738 
2.4778067e+3, 1.7282724e+2, -987705.2, -1111492.4, -76795.48, 0.056866415, -0.10243791, -950966.3, 295312.6, 0.0076701324, 10.001711, 9.999769 
2.477476e+3, 1.8282197e+2, -1091931.1, -1365701.5, -22221.73, 0.18609488, -0.0018026774, -1090139.1, 58189.14, 0.000687035, 10.001188, 9.997745 
2.4771443e+3, 1.9281372e+2, -809480.7, -1035647.56, 12292.7295, 0.020182868, -0.2320487, -808814.5, 241593.47, 0.000019881356, 10.002031, 9.998782 
2.476814e+3, 2.0280626e+2, -898572.25, -1219238.9, 37202.45, -0.026730398, -0.27841017, -894312.75, 58167.777, 0.0, 10.001417, 9.997265 
2.4764858e+3, 2.1280098e+2, -678446.0, -907870.1, 2347.9033, 0.07655902, -0.17304021, -678422.0, 176110.22, 0.0, 10.001781, 9.998396 
2.4761562e+3, 2.2279482e+2, -805484.5, -1078321.1, -34969.004, 0.043333188, -0.07161488, -801073.9, -44482.047, 0.0, 10.000741, 9.997216 
2.475823e+3, 2.3278645e+2, -573809.5, -731274.75, -29260.598, -0.34994963, -0.29387623, -568548.0, 90124.91, 0.0, 10.001039, 9.998634 
2.4754912e+3, 2.427789e+2, -761610.2, -986476.44, -105711.914, -0.5099567, -0.33680692, -719718.3, -158971.4, 0.0, 9.999862, 9.996918 
2.4751626e+3, 2.527729e+2, -416820.16, -586888.6, -167137.48, -0.20424232, -0.28385013, -314329.03, 148478.02, 0.0, 10.000961, 9.998293 
2.4748348e+3, 2.627673e+2, -439609.84, -563079.75, -20404.598, -0.017309617, -0.18303272, -436325.2, -71461.766, 0.0, 10.000009, 9.998408 
2.4745074e+3, 2.7276242e+2, -202967.1, -170131.44, 136808.19, -0.0867481, -0.2028579, -48759.48, 218153.1, 0.0, 10.000202, 10.000166 
2.474179e+3, 2.827579e+2, -431792.9, -497692.44, 93497.59, -0.2358029, -0.07564113, -365609.0, -196648.69, 0.0, 9.998886, 9.998046 
2.4738479e+3, 2.9275274e+2, -185469.11, -139330.22, 8239.266, -0.4040416, -0.055316847, -137903.03, -66886.44, 0.0, 9.999321, 9.999462 
2.4735254e+3, 3.0274728e+2, -546671.94, -618783.56, 103929.96, 0.14605458, 0.068612054, -472721.13, -472721.13, 0.0, 9.997665, 9.996826 
2.4731989e+3, 3.1274003e+2, -188414.36, 207768.94, 42548.133, -0.09884535, -0.11672355, 212286.88, 212286.88, 0.0, 9.997421, 10.002429 
2.4894583e+3, 1.2318415e+2, -1763202.9, -1653313.6, 11011.739, 0.3997653, -0.16406527, -1652221.0, 80569.45, 0.43991777, 9.998716, 10.001344 
2.4891245e+3, 1.3317874e+2, -1371053.0, -1539015.0, 80613.71, 0.17182738, -0.19903913, -1338623.6, 296216.63, 0.31901658, 10.002704, 9.99937 
2.4887933e+3, 1.4317465e+2, -1221483.9, -1538238.9, 84284.03, 0.09979566, 0.015365957, -1200453.4, 336424.47, 0.19536594, 10.003138, 9.99838 
2.4884611e+3, 1.531678e+2, -1370337.4, -1433824.9, 71631.45, -0.17289877, -0.11652609, -1323731.0, 115213.94, 0.094030365, 10.000518, 9.999541 
2.4881306e+3, 1.6316141e+2, -1543208.0, -1537655.3, -11930.21, -0.2545852, -0.16281538, -1528182.6, -187176.05, 0.032013185, 9.998729, 9.999093 
2.4878007e+3, 1.7315657e+2, -1109813.4, -1172414.3, -22101.777, -0.1155608, -0.14113255, -1102796.6, 140253.77, 0.0062260167, 10.000795, 9.999813 
2.487471e+3, 1.831509e+2, -961595.5, -1308723.3, -2308.102, -0.060530193, -0.06695807, -961580.2, 183524.42, 0.00043419475, 10.001987, 9.9977665 
2.4871406e+3, 1.9314319e+2, -784871.06, -1091733.3, -47059.617, -0.068247415, -0.18596661, -777816.3, 269366.25, 0.0000058323185, 10.002373, 9.998279 
2.4868116e+3, 2.031362e+2, -759592.2, -1122425.1, -49218.723, -0.016917514, -0.15352724, -753034.1, 196219.25, 0.000000000090419006, 10.002144, 9.997587 
2.4864839e+3, 2.1313094e+2, -607922.5, -899415.56, -16673.441, 0.16601469, -0.031469338, -606971.9, 244336.4, 0.0, 10.002238, 9.998291 
2.4861535e+3, 2.2312497e+2, -525613.6, -819830.6, -7471.245, 0.09591033, 0.06710901, -525424.0, 227943.56, 0.0, 10.002006, 9.998385 
2.4858192e+3, 2.3311733e+2, -418326.94, -602875.94, 18934.498, -0.36425424, -0.12713978, -416404.3, 239034.75, 0.0, 10.001768, 9.9992285 
2.485487e+3, 2.4310954e+2, -470415.0, -763126.8, -5659.2393, -0.5417554, -0.22750042, -470305.63, 87206.86, 0.0, 10.001384, 9.997718 
2.4851589e+3, 2.5310206e+2, -402887.47, -614373.1, 5891.1865, -0.16878615, -0.30772603, -402723.5, 56861.094, 0.0, 10.001042, 9.998134 
2.4848308e+3, 2.6309586e+2, -264511.44, -371778.6, 147428.33, 0.036683906, -0.2532597, -161263.94, 200380.95, 0.0, 10.000567, 9.999489 
2.4845019e+3, 2.730922e+2, -120483.66, -64983.953, 115515.5, -0.14445174, -0.20663671, 26068.068, 289748.97, 0.0, 10.000294, 10.000933 
2.4841733e+3, 2.830878e+2, -257911.94, -414795.47, 8336.949, -0.2523772, -0.102853455, -257470.16, -91744.03, 0.0, 9.999907, 9.998169 
2.4838443e+3, 2.9308134e+2, -85992.35, -186070.67, -30020.002, -0.21818309, -0.13898742, -77678.125, -9882.629, 0.0, 10.000247, 9.998765 
2.4835213e+3, 3.0307594e+2, -220245.52, -394196.25, 150721.83, 0.30758965, 0.019441262, -133204.25, -133204.25, 0.0, 9.999528, 9.997477 
2.483192e+3, 3.130698e+2, -286500.78, 92752.19, 35216.85, -0.06090314, 0.014028721, 95994.65, 95994.65, 0.0, 9.996764, 10.002075 
2.4994548e+3, 1.2351682e+2, -2148701.5, -2220576.3, 36458.74, 0.68000954, -0.2875644, -2133445.8, -403929.63, 0.42027465, 9.998049, 9.997375 
2.4991211e+3, 1.3351147e+2, -1615205.4, -1783134.9, 60911.695, 0.14019752, -0.20172192, -1595438.3, 36134.47, 0.30251706, 10.000928, 9.998246 
2.4987908e+3, 1.4350474e+2, -1534265.5, -1872334.6, -25614.97, 0.10881947, -0.10843659, -1532335.8, 1304.868, 0.18302314, 10.001133, 9.997022 
2.4984573e+3, 1.5349802e+2, -1431530.1, -1593661.9, -60981.355, -0.076941885, -0.14861998, -1411154.4, 24553.492, 0.08629053, 10.000609, 9.998377 
2.4981254e+3, 1.6349167e+2, -1468229.3, -1551170.9, -1153.6251, -0.14848311, -0.10706808, -1468213.3, -130443.94, 0.028287582, 9.999504, 9.998606 
2.4977952e+3, 1.7348547e+2, -1067333.0, -1177712.5, 120.224266, -0.26392424, -0.2467634, -1067332.9, 172492.3, 0.0050760456, 10.001156, 9.999602 
2.497465e+3, 1.8347912e+2, -1185024.1, -1559948.0, -19649.717, -0.3106611, -0.17271905, -1183997.0, -42109.73, 0.00028139996, 10.001245, 9.996357 
2.4971357e+3, 1.9347256e+2, -998982.25, -1298177.9, -57489.465, -0.25597098, -0.090504795, -988316.06, 55643.69, 0.0000014559199, 10.0015335, 9.997203 
2.4968079e+3, 2.0346601e+2, -952534.25, -1207642.8, -43663.92, -0.056713127, 0.048854213, -945267.75, 762.8827, 0.0, 10.000933, 9.997568 
2.496482e+3, 2.1345973e+2, -704870.25, -833032.25, -6325.8643, 0.28549084, -0.029181736, -704558.75, 143537.78, 0.0, 10.001288, 9.999141 
2.4961525e+3, 2.2345454e+2, -743825.44, -896655.1, -22542.396, 0.33279943, 0.08818592, -740569.8, 9579.055, 0.0, 10.00054, 9.998559 
2.4958177e+3, 2.3345046e+2, -495180.6, -551359.8, 9716.034, -0.14944215, 0.16626927, -493547.7, 158636.9, 0.0, 10.000978, 9.99992 
2.4954848e+3, 2.4344417e+2, -671505.56, -812303.94, -34774.57, -0.35224286, 0.15179299, -663385.2, -109144.86, 0.0, 9.999896, 9.998088 
2.4951558e+3, 2.534338e+2, -478289.03, -536531.44, -9456.742, -0.064796016, -0.32595935, -476792.03, -20458.719, 0.0, 10.000154, 9.999053 
2.4948257e+3, 2.6342627e+2, -601355.9, -730703.2, 132890.22, -0.015001153, -0.38865724, -518237.5, -159832.33, 0.0, 9.999244, 9.997633 
2.4944954e+3, 2.7342305e+2, -342737.5, -390539.25, 120928.98, -0.3361572, -0.12983891, -243370.08, 17075.291, 0.0, 9.999765, 9.998938 
2.4941677e+3, 2.8341833e+2, -464229.4, -561272.3, -16017.214, -0.35150856, 0.0900149, -461654.06, -299157.44, 0.0, 9.998835, 9.997647 
2.493843e+3, 2.9341096e+2, -171086.45, -184164.98, 1046.7188, 0.10188191, -0.10114019, -171003.2, -106434.1, 0.0, 9.999572, 9.999059 
2.4935167e+3, 3.0340505e+2, -344274.97, -291269.47, 45318.348, 0.32106352, -0.06227334, -265273.2, -265273.2, 0.0, 9.9981575, 9.998802 
2.4931806e+3, 3.1340057e+2, -576603.75, 31732.314, 83298.06, -0.4770817, -0.10361906, 42931.938, 42931.938, 0.0, 9.994747, 10.002525 
2.5094447e+3, 1.2384813e+2, -2060061.8, -2056348.6, -212025.77, 0.17103262, 0.42057052, -1846171.3, -119899.95, 0.39734322, 9.998019, 9.998522 
2.509116e+3, 1.3383722e+2, -1639267.4, -1534292.5, -33011.207, 0.12396081, -0.34104022, -1524774.5, 103604.5, 0.28406283, 9.999267, 10.001032 
2.508786e+3, 1.4383453e+2, -1657094.4, -1790949.1, -32534.008, 0.019425571, -0.05322767, -1649605.8, -119199.87, 0.16993596, 9.999632, 9.998299 
2.5084552e+3, 1.5382785e+2, -1174786.5, -1385631.4, -796.23047, 0.0681806, -0.16745475, -1174783.5, 257689.13, 0.078587286, 10.002086, 9.999153 
2.5081244e+3, 1.6382124e+2, -1019748.5, -1417181.0, 43739.03, 0.020030815, -0.14956751, -1014991.75, 319546.22, 0.024857625, 10.002932, 9.997885 
2.5077933e+3, 1.7381418e+2, -897016.75, -1233628.1, 3324.0127, -0.19241606, -0.22887856, -896983.94, 339622.34, 0.0041356636, 10.002871, 9.998425 
2.5074622e+3, 1.8380739e+2, -989646.4, -1331274.1, -79358.05, -0.3238894, -0.17444868, -972111.94, 166561.95, 0.00018434241, 10.00192, 9.997622 
2.5071323e+3, 1.9380131e+2, -999909.56, -1205276.3, -7245.489, -0.21486859, -0.11795155, -999654.25, 41084.043, 0.00000026313862, 10.001012, 9.998163 
2.5068036e+3, 2.0379545e+2, -935469.4, -1068966.1, 66814.4, -0.094820715, 0.006719329, -907774.56, 35026.734, 0.0, 10.00039, 9.998814 
2.5064757e+3, 2.1378966e+2, -765215.2, -819089.25, 86015.84, 0.10394748, -0.041852463, -702017.2, 142846.19, 0.0, 10.000579, 9.999663 
2.5061467e+3, 2.2378483e+2, -621204.94, -747907.06, 59223.133, 0.14143875, 0.07220386, -597833.8, 149078.86, 0.0, 10.000799, 9.9995165 
2.5058138e+3, 2.3378138e+2, -455546.94, -508107.22, 48873.285, -0.11031607, 0.19312564, -426336.13, 222606.94, 0.0, 10.000967, 10.000297 
2.5054818e+3, 2.4377586e+2, -484438.88, -648053.44, -34216.97, -0.20115829, 0.21981186, -477571.28, 73421.266, 0.0, 10.000756, 9.998821 
2.5051513e+3, 2.53766e+2, -432288.06, -495448.2, -78062.59, 0.008306992, -0.21101934, -379659.63, 73422.58, 0.0, 10.000284, 9.999333 
2.5048214e+3, 2.6375836e+2, -465120.16, -653193.06, 99795.38, 0.02942248, -0.29551578, -422036.34, -66880.875, 0.0, 10.0000305, 9.997805 
2.5044912e+3, 2.737544e+2, -328757.2, -461451.88, 148090.34, -0.24925809, -0.033413034, -232830.92, 24371.904, 0.0, 10.000124, 9.998331 
2.5041634e+3, 2.837491e+2, -176362.0, -343954.38, 122366.586, -0.2575047, 0.15705955, -111849.78, 47408.773, 0.0, 10.0003195, 9.998452 
2.5038385e+3, 2.9374126e+2, 110366.8, -39459.273, 112414.98, 0.14788677, -0.106316365, 170542.95, 231874.56, 0.0, 10.0012245, 9.999358 
2.503511e+3, 3.0373555e+2, 58245.254, -44338.48, 44476.055, 0.33944878, -0.060296554, 74842.82, 74842.82, 0.0, 10.00052, 9.999392 
2.5031745e+3, 3.13732e+2, -146157.1, 219927.95, -112945.695, -0.17722562, -0.042812996, 251969.83, 251969.83, 0.0, 9.997537, 10.002518 
2.5194368e+3, 1.2416515e+2, -1967015.9, -1759110.8, -118144.86, 0.05080394, -0.31014255, -1705696.4, 17473.164, 0.3720952, 9.997617, 10.000767 
2.5191092e+3, 1.3416247e+2, -1444367.0, -1225076.3, -6812.1953, 0.044440314, -0.50973624, -1224864.9, 400326.66, 0.26429757, 9.999831, 10.00357 
2.5187817e+3, 1.4416485e+2, -1514801.1, -1578173.0, -29189.182, 0.12831102, 0.090186216, -1503405.6, 23760.75, 0.15642525, 10.000204, 9.999388 
2.5184545e+3, 1.5415789e+2, -1198695.3, -1280891.4, -27718.795, 0.27012372, -0.19012165, -1190221.3, 239014.22, 0.071005836, 10.001563, 10.000062 
2.518125e+3, 1.6415092e+2, -1347263.1, -1750540.3, -21518.092, 0.30585274, -0.18058848, -1346118.1, -14811.86, 0.021693112, 10.001548, 9.996227 
2.5177926e+3, 1.7414318e+2, -1199961.5, -1518113.0, -32710.422, 0.024767905, -0.19313389, -1196633.3, 36753.47, 0.00335279, 10.00162, 9.997006 
2.517461e+3, 1.841364e+2, -1096460.9, -1262311.6, -105957.47, -0.09627781, -0.10587946, -1044836.6, 90617.88, 0.00011963712, 10.000736, 9.998636 
2.5171298e+3, 1.9413042e+2, -986731.2, -1012605.5, -53302.832, -0.031564657, -0.23917995, -944818.0, 92692.79, 0.00000002568285, 10.000327, 9.999766 
2.516799e+3, 2.0412529e+2, -1090439.1, -1174168.6, 65873.41, -0.058711957, -0.12592453, -1054252.9, -114690.53, 0.0, 9.999522, 9.9984865 
2.5164676e+3, 2.1412045e+2, -856736.56, -867102.1, 65903.99, -0.2585228, -0.10856375, -795811.9, 45803.836, 0.0, 9.999993, 9.99958 
2.5161377e+3, 2.2411574e+2, -876447.94, -909376.6, 52389.973, -0.2968926, 0.036073025, -837996.1, -94331.74, 0.0, 9.999393, 9.999018 
2.5158086e+3, 2.3411098e+2, -600666.1, -571539.9, 41632.887, -0.20460258, -0.0065707974, -541996.5, 103712.01, 0.0, 10.00008, 10.000232 
2.5154784e+3, 2.4410577e+2, -771655.94, -908257.0, -79788.51, -0.09238064, 0.11556636, -734927.1, -187167.89, 0.0, 9.999464, 9.997632 
2.5151467e+3, 2.5409898e+2, -602370.8, -645768.4, -100045.71, 0.04964242, 0.03093825, -521697.78, -71869.734, 0.0, 9.99953, 9.998629 
2.5148165e+3, 2.6409248e+2, -659603.1, -730941.56, 89892.63, 0.08241982, 0.09805417, -598561.56, -246669.02, 0.0, 9.998797, 9.997811 
2.5144887e+3, 2.7408606e+2, -397254.06, -406651.78, 159019.81, -0.004124388, 0.014379281, -242863.7, 11090.776, 0.0, 9.999435, 9.998953 
2.5141603e+3, 2.8407943e+2, -292898.25, -339108.4, 144348.78, -0.1582889, 0.011674121, -169817.11, -13800.846, 0.0, 9.999448, 9.998853 
2.5138307e+3, 2.940725e+2, 95049.164, 38020.18, 194993.86, -0.33109376, -0.23723581, 263602.38, 321679.75, 0.0, 10.000915, 9.99998 
2.5135028e+3, 3.040684e+2, -162574.36, -375883.63, -49196.836, -0.10444155, 0.025966454, -151774.58, -151774.58, 0.0, 10.000132, 9.997254 
2.51317e+3, 3.1406137e+2, -409528.3, -161351.94, -87791.02, -0.11824915, -0.10094358, -133436.36, -133436.36, 0.0, 9.99703, 10.000074 
2.529428e+3, 1.2449511e+2, -1750849.6, -1457718.3, -6536.895, -0.26511654, -0.46041077, -1457572.5, 262369.1, 0.34545994, 9.997601, 10.003772 
2.5291058e+3, 1.3449228e+2, -1465740.4, -1463771.9, 110143.33, 0.09436011, -0.38364235, -1354608.4, 267353.9, 0.24384509, 10.0008335, 10.00088 
2.5287795e+3, 1.4449124e+2, -1420228.3, -1618699.4, -88501.516, 0.19116066, 0.07615492, -1386496.8, 137475.47, 0.14280653, 10.001327, 9.998588 
2.5284472e+3, 1.5448503e+2, -1279498.0, -1399778.5, -141688.19, -0.100451596, -0.03938361, -1185715.0, 240325.11, 0.06363834, 10.0012865, 9.999353 
2.5281176e+3, 1.6447914e+2, -1301870.9, -1493072.4, -164171.47, -0.08708893, 0.009071492, -1207493.3, 120607.36, 0.0187796, 10.000725, 9.998432 
2.5277898e+3, 1.7447284e+2, -1230802.1, -1327106.1, -35228.5, 0.13819857, -0.054364953, -1219291.3, 10869.645, 0.0026956536, 10.000324, 9.999027 
2.5274587e+3, 1.8446682e+2, -1136382.0, -1169973.9, -54011.094, 0.115294784, -0.03479773, -1096615.6, 35602.51, 0.00007576087, 9.999927, 9.999653 
2.527125e+3, 1.9446075e+2, -940278.75, -948936.25, -64104.113, -0.07723729, -0.1967818, -880357.4, 153917.38, 0.00000000011876218, 10.000365, 10.00022 
2.526793e+3, 2.0445551e+2, -857253.7, -1014301.4, 41496.086, -0.21318595, -0.13588104, -846963.6, 89362.77, 0.0, 10.000812, 9.998974 
2.526463e+3, 2.1445076e+2, -593883.44, -766345.0, 42830.02, -0.32854608, -0.08011488, -583832.56, 254544.52, 0.0, 10.001752, 9.999484 
2.5261334e+3, 2.2444563e+2, -523423.2, -656993.0, -27809.47, -0.32799205, -0.0060832268, -517864.53, 222563.39, 0.0, 10.001358, 9.99981 
2.5258043e+3, 2.3443978e+2, -613561.94, -578307.75, -37514.035, -0.12225006, -0.15033299, -554485.9, 87995.445, 0.0, 9.999842, 10.000373 
2.5254747e+3, 2.4443446e+2, -650751.0, -814543.2, -72815.266, 0.019267548, -0.052350268, -623061.4, -78526.93, 0.0, 9.999999, 9.998033 
2.5251427e+3, 2.544296e+2, -175396.94, -469341.5, -78698.19, 0.07365422, 0.09230791, -155653.13, 290936.3, 0.0, 10.002475, 9.998454 
2.5248128e+3, 2.644236e+2, 18844.146, -347241.03, 73490.66, 0.078452535, 0.20271769, 33046.242, 381696.13, 0.0, 10.003027, 9.9984665 
2.524485e+3, 2.744156e+2, -108858.1, -264311.72, 56724.367, 0.07958913, -0.03607284, -90360.64, 160363.08, 0.0, 10.001216, 9.999149 
2.524156e+3, 2.8440872e+2, -157901.19, -196419.89, 65399.613, -0.06343734, -0.110702455, -108984.06, 43801.996, 0.0, 9.999979, 9.999564 
2.5238246e+3, 2.94403e+2, -47132.42, -6412.11, 25987.18, -0.46547368, -0.26477665, 6240.905, 61077.336, 0.0, 9.999771, 10.000249 
2.5234967e+3, 3.0439872e+2, -234645.06, -499615.47, -203800.16, -0.20220073, 0.0090017505, -124052.44, -124052.44, 0.0, 9.999943, 9.996527 
2.523168e+3, 3.143935e+2, -66224.92, -125106.76, -208306.75, 0.37390614, 0.2041183, 114711.13, 114711.13, 0.0, 9.999797, 9.999088 
2.5394264e+3, 1.2483374e+2, -1637174.3, -1593884.6, 18232.895, 0.23486568, 0.3132043, -1587228.6, 129399.71, 0.31815657, 10.000091, 10.000994 
2.5391048e+3, 1.3482249e+2, -1607740.9, -1841892.6, 131367.61, 0.41933516, -0.19827478, -1548850.3, 69879.836, 0.22319712, 10.001188, 9.997735 
2.5387764e+3, 1.4481655e+2, -1535580.1, -1819494.8, -87251.12, 0.2620162, -0.0028402405, -1510910.3, 9880.4795, 0.12934339, 10.00105, 9.997323 
2.5384387e+3, 1.5481156e+2, -1441106.1, -1628655.8, -122047.08, -0.5457643, 0.113457866, -1380968.0, 41885.223, 0.05657354, 10.000766, 9.998037 
2.5381088e+3, 1.6480741e+2, -1240409.0, -1143867.4, -127692.445, -0.49829516, 0.2857101, -1055626.5, 269269.7, 0.016116831, 9.999869, 10.001211 
2.537786e+3, 1.7480339e+2, -1091082.1, -916502.94, -77346.6, 0.28730482, 0.106878586, -887165.06, 339760.38, 0.0021455006, 9.999848, 10.002045 
2.5374562e+3, 1.8479845e+2, -1275312.9, -1296504.4, -73114.055, 0.39313123, 0.1034459, -1212030.9, -83062.0, 0.000046550977, 9.999303, 9.999077 
2.5371188e+3, 1.9479191e+2, -1068394.9, -1059018.3, -88880.31, -0.18860903, -0.08805092, -974702.7, 56329.633, 0.0, 9.999758, 9.999753 
2.5367868e+3, 2.0478629e+2, -1056850.0, -1150273.3, 55117.984, -0.3585698, -0.010433181, -1031312.25, -98224.17, 0.0, 9.999782, 9.998466 
2.5364608e+3, 2.1478096e+2, -778208.2, -857448.5, 55033.203, -0.2003417, -0.03891968, -750016.75, 85125.22, 0.0, 10.000652, 9.999318 
2.5361317e+3, 2.2477502e+2, -740741.1, -775095.75, -103508.7, -0.05785703, -0.024568709, -652994.1, 84203.61, 0.0, 10.000066, 9.999591 
2.5358006e+3, 2.3476782e+2, -740304.5, -610712.4, -98998.39, 0.0418279, -0.34369382, -557190.2, 82070.55, 0.0, 9.999002, 10.000494 
2.5354698e+3, 2.4476242e+2, -860610.44, -955600.4, -2435.0732, 0.074782155, -0.23050271, -860548.06, -319234.6, 0.0, 9.998911, 9.997527 
2.535139e+3, 2.5475785e+2, -304534.47, -531981.06, 17812.752, -0.020392496, -0.08714758, -303147.9, 140218.0, 0.0, 10.0016985, 9.998343 
2.534809e+3, 2.6475167e+2, -215489.38, -539240.7, -2467.2551, -0.09156182, 0.0520463, -215470.58, 129958.59, 0.0, 10.001916, 9.997634 
2.5344792e+3, 2.747435e+2, -263277.9, -387965.53, 4.423901, -0.092467435, -0.19224109, -263277.9, -15771.33, 0.0, 10.00048, 9.99862 
2.5341505e+3, 2.847373e+2, -385357.1, -441125.53, 19004.0, -0.1408932, -0.10239955, -379496.94, -229930.61, 0.0, 9.999107, 9.998289 
2.5338212e+3, 2.947318e+2, -228894.23, -190031.92, 17135.125, -0.30667055, -0.16832447, -183555.89, -131934.9, 0.0, 9.999026, 9.999324 
2.533493e+3, 3.0472526e+2, -278211.22, -322048.3, -209778.06, -0.10102365, -0.14589465, -89209.74, -89209.74, 0.0, 9.998942, 9.998182 
2.5331637e+3, 3.1472233e+2, 77086.59, 316831.5, -83237.53, 0.31856045, 0.06429592, 342897.03, 342897.03, 0.0, 9.999288, 10.002347 
2.5494242e+3, 1.2515636e+2, -1236335.8, -1516305.3, 268890.28, 0.0006415402, -0.019774046, -1073174.1, 640298.75, 0.29081753, 10.004547, 9.999598 
2.5491023e+3, 1.3515113e+2, -1300524.3, -1572527.0, 109951.516, 0.38388225, -0.022076763, -1261637.9, 353877.78, 0.2027681, 10.003217, 9.998708 
2.5487706e+3, 1.4514427e+2, -1318699.1, -1543471.3, -53178.875, -0.047169097, -0.025526794, -1306752.4, 210828.84, 0.11625642, 10.001936, 9.998819 
2.5484356e+3, 1.5513866e+2, -1366567.0, -1473002.4, 4022.3254, -0.45356005, -0.07724026, -1366415.3, 53226.74, 0.04988728, 10.000638, 9.999209 
2.548106e+3, 1.651343e+2, -1259729.5, -1170785.1, 8036.354, -0.33563396, 0.043020874, -1170064.9, 151619.75, 0.013707004, 9.999786, 10.001073 
2.5477818e+3, 1.751305e+2, -1041331.2, -953132.5, -53087.855, 0.30847925, -0.026142655, -928216.8, 295498.72, 0.0016894786, 10.000413, 10.001549 
2.547451e+3, 1.8512607e+2, -1058516.0, -1152442.9, -141870.88, 0.33743173, 0.029895509, -956037.44, 169719.11, 0.000027889511, 10.000533, 9.9994955 
2.5471136e+3, 1.9512048e+2, -976208.7, -1021947.06, -128591.45, -0.20367816, -0.057468746, -868468.7, 159343.92, 0.0, 10.000331, 9.999783 
2.5467822e+3, 2.0511524e+2, -931106.94, -964402.25, 39189.938, -0.36623055, -0.000089847694, -905175.3, 24689.168, 0.0, 10.000014, 9.999647 
2.5464562e+3, 2.1510969e+2, -826114.5, -827052.0, 69851.87, -0.16576795, -0.09281009, -756729.8, 75189.22, 0.0, 9.999954, 9.99991 
2.5461274e+3, 2.2510406e+2, -668773.4, -721815.3, -103164.51, -0.043576498, -0.08197414, -588775.44, 145196.86, 0.0, 10.000413, 9.999808 
2.545795e+3, 2.3509789e+2, -388532.47, -494115.8, -135396.9, 0.0011621866, -0.24166197, -295999.4, 340029.53, 0.0, 10.00156, 10.000108 
2.5454646e+3, 2.4509206e+2, -327309.78, -628219.2, 4056.7617, -0.020537362, -0.18709628, -327255.1, 210830.5, 0.0, 10.002072, 9.998349 
2.5451347e+3, 2.5508618e+2, -265400.22, -506271.25, 15878.708, -0.13355193, -0.17683262, -264357.97, 175789.53, 0.0, 10.001709, 9.998642 
2.5448048e+3, 2.6508015e+2, -278774.47, -455164.72, -33313.387, -0.14968911, -0.08823809, -272692.53, 69515.97, 0.0, 10.00092, 9.998714 
2.544475e+3, 2.750736e+2, -310951.25, -381923.94, -4220.517, -0.045182634, -0.17572819, -310701.13, -66429.21, 0.0, 9.999942, 9.998979 
2.5441456e+3, 2.8506798e+2, -315129.16, -362449.2, 163719.69, -0.04556589, -0.056819398, -173368.7, -27041.102, 0.0, 9.999238, 9.998829 
2.5438163e+3, 2.9506236e+2, -246989.9, -213217.4, 169387.03, -0.19150396, -0.094362356, -59877.016, -11492.508, 0.0, 9.998838, 9.999332 
2.5434884e+3, 3.050555e+2, 15197.978, 25831.523, 16702.383, 0.057377, -0.18167236, 38042.95, 38042.95, 0.0, 9.999894, 10.000194 
2.5431558e+3, 3.1504986e+2, 304429.38, 289654.3, -103866.9, 0.015023407, -0.34564272, 401171.16, 401171.16, 0.0, 10.001189, 10.001353 
2.5594234e+3, 1.2548658e+2, -1406382.9, -1480813.5, -158575.89, -0.033732045, 0.28151816, -1280713.9, 429527.8, 0.26403108, 10.002299, 10.000883 
2.5590986e+3, 1.3548031e+2, -1364979.0, -1537388.8, 101879.98, 0.21196981, 0.09274475, -1317726.8, 294569.2, 0.18292536, 10.00239, 9.999361 
2.558766e+3, 1.454736e+2, -1307546.8, -1385671.4, -74706.48, -0.18463987, 0.023507224, -1262306.5, 252048.3, 0.1037245, 10.001358, 10.000234 
2.558434e+3, 1.5546647e+2, -1238967.0, -1273599.8, -105393.53, -0.13550094, -0.36485803, -1149476.8, 266941.72, 0.043632858, 10.000982, 10.000429 
2.5581044e+3, 1.654612e+2, -1332772.4, -1389615.8, -11439.064, 0.053855542, -0.3099813, -1330556.8, -12088.738, 0.011545959, 10.000221, 9.999282 
2.557777e+3, 1.7545672e+2, -1234737.3, -1261195.5, -60851.395, 0.3114807, -0.29334256, -1185693.6, 34819.254, 0.0013158798, 10.000131, 9.999513 
2.5574452e+3, 1.8545258e+2, -1146150.4, -1165135.6, -144744.02, 0.23835827, -0.107103236, -1010588.06, 111966.66, 0.000016496271, 9.999982, 9.999625 
2.557109e+3, 1.9544804e+2, -1050199.1, -1060009.0, -146563.17, -0.1319673, -0.12654729, -908458.8, 116142.54, 0.0, 9.999954, 9.999681 
2.5567782e+3, 2.0544341e+2, -991993.44, -882838.44, 21839.875, -0.2398636, -0.034196287, -878630.9, 48016.336, 0.0, 9.999282, 10.0005245 
2.5564507e+3, 2.1543805e+2, -979530.7, -808605.2, 41590.35, -0.18271123, -0.2326347, -799022.5, 29676.098, 0.0, 9.998663, 10.000624 
2.556121e+3, 2.2543381e+2, -928892.25, -964634.8, -79753.16, -0.16281638, -0.047053993, -865032.56, -134290.52, 0.0, 9.999262, 9.998643 
2.5557894e+3, 2.3542958e+2, -614038.6, -718088.6, -101365.164, -0.21185245, 0.04630337, -552127.25, 80660.47, 0.0, 10.000607, 9.998983 
2.555459e+3, 2.4542327e+2, -497972.44, -659078.8, -20506.85, -0.22720803, 0.09065634, -495403.16, 39446.88, 0.0, 10.00082, 9.998682 
2.5551295e+3, 2.5541458e+2, -416697.7, -539256.94, 33.236465, -0.28697437, -0.25867108, -416697.7, 20235.666, 0.0, 10.0006275, 9.998892 
2.5548005e+3, 2.654095e+2, -389082.03, -379289.7, -88350.37, -0.15309645, -0.13127479, -295699.9, 43283.742, 0.0, 9.999795, 9.999687 
2.5544715e+3, 2.7540615e+2, -343984.25, -284914.78, -11896.756, 0.14636566, -0.043179754, -282608.75, -41590.863, 0.0, 9.999346, 9.999882 
2.554141e+3, 2.8540137e+2, -340193.16, -246499.7, 134936.05, 0.079664715, 0.064454325, -150509.63, -7446.282, 0.0, 9.998637, 9.999865 
2.553809e+3, 2.9539567e+2, -284153.72, -151265.9, 185700.69, -0.3072746, -0.11280313, -20480.158, 24635.303, 0.0, 9.99831, 9.99997 
2.5534827e+3, 3.0538997e+2, -160076.8, -244386.16, 72464.49, -0.057060406, -0.008712161, -118397.59, -118397.59, 0.0, 9.999697, 9.998325 
2.5531533e+3, 3.153829e+2, -26623.164, -383308.53, 13875.461, -0.019073004, -0.18569234, -26084.207, -26084.207, 0.0, 10.001373, 9.996532 
2.5694215e+3, 1.2581521e+2, -1689862.5, -1864538.1, 339310.7, 0.05660294, -0.021893932, -1426829.6, 280187.84, 0.23823552, 10.000994, 9.998594 
2.5690952e+3, 1.3581002e+2, -1550618.5, -1713520.8, 158321.69, 0.1552039, 0.0024773933, -1454024.5, 155040.42, 0.16394834, 10.001147, 9.9987135 
2.5687638e+3, 1.4580302e+2, -1404976.4, -1527907.4, -26222.982, -0.06487458, -0.011271972, -1399616.4, 111514.16, 0.09188186, 10.000997, 9.999363 
2.5684315e+3, 1.5579711e+2, -1045470.9, -1292426.1, -115601.03, -0.13814355, -0.14378034, -999802.6, 413383.1, 0.03784501, 10.002764, 9.999492 
2.5681007e+3, 1.6579182e+2, -954086.7, -1153760.4, -126637.41, -0.028961651, -0.08391858, -892664.6, 422571.0, 0.009625426, 10.002558, 9.999807 
2.567771e+3, 1.7578633e+2, -1098764.6, -1190478.3, -73479.984, 0.14097057, -0.16197762, -1058006.5, 159282.45, 0.0010124295, 10.000947, 9.999654 
2.567439e+3, 1.8578163e+2, -993852.44, -1012756.56, -90604.29, 0.05996369, -0.07137898, -912208.5, 207125.5, 0.000009793076, 10.000618, 10.000388 
2.567105e+3, 1.9577698e+2, -786880.4, -890333.44, -57740.93, -0.15394258, -0.111445144, -761084.94, 260293.53, 0.0, 10.001455, 10.000173 
2.5667736e+3, 2.0577222e+2, -782358.2, -794816.56, -4614.5356, -0.21586806, -0.05607398, -780835.2, 142590.67, 0.0, 10.000651, 10.000506 
2.566445e+3, 2.1576704e+2, -963910.2, -854070.7, -39369.65, -0.15173264, -0.1679846, -841417.2, -15939.213, 0.0, 9.998843, 10.000294 
2.5661153e+3, 2.2576296e+2, -813901.0, -841457.4, -38370.67, -0.19479585, 0.0033963968, -786909.75, -59388.477, 0.0, 9.999586, 9.999387 
2.565785e+3, 2.3575912e+2, -371906.16, -594830.7, -9618.567, -0.2924231, 0.13749608, -371491.9, 258072.42, 0.0, 10.002014, 9.999244 
2.565455e+3, 2.4575338e+2, -331989.3, -429626.66, -14430.503, -0.2581515, 0.15894614, -329901.2, 201719.14, 0.0, 10.001242, 10.000051 
2.5651252e+3, 2.557456e+2, -683090.3, -564778.1, 20271.836, -0.15781282, -0.16119802, -561401.1, -127709.13, 0.0, 9.998248, 9.999888 
2.5647953e+3, 2.6574102e+2, -535671.5, -360415.9, 28270.793, -0.060754344, -0.0676368, -355968.38, -20232.31, 0.0, 9.998277, 10.000558 
2.564466e+3, 2.7573827e+2, -116941.18, -119490.35, 14527.135, 0.11392743, 0.049814504, -103632.82, 134132.92, 0.0, 10.000534, 10.000446 
2.5641358e+3, 2.8573367e+2, 6554.347, -44069.36, 66857.28, 0.07024801, 0.12134554, 52730.855, 192539.8, 0.0, 10.000802, 10.000201 
2.5638044e+3, 2.9572776e+2, -102385.95, -90789.305, 11427.129, -0.17104669, -0.06212403, -83773.58, -41912.55, 0.0, 9.999571, 9.999796 
2.5634763e+3, 3.057216e+2, -253470.3, -420927.25, 66786.734, -0.1280817, 0.05580038, -230096.36, -230096.36, 0.0, 9.999456, 9.997281 
2.5631493e+3, 3.1571525e+2, 6742.7383, -3887.4656, -106255.63, 0.00093498884, 0.10392848, 107816.125, 107816.125, 0.0, 9.99977, 9.999986 
2.57942e+3, 1.261486e+2, -1770240.1, -1944580.3, 148929.84, 0.21496423, 0.27567774, -1684845.0, 18900.855, 0.21373183, 10.000323, 9.998093 
2.5790924e+3, 1.3613993e+2, -1542321.0, -1770473.5, 70444.46, 0.26945496, -0.09705926, -1522323.3, 83507.62, 0.14603193, 10.0014105, 9.998134 
2.5787622e+3, 1.4613284e+2, -1473112.0, -1720905.5, 40039.887, 0.18949462, -0.018474163, -1466802.8, 41100.277, 0.080827504, 10.001272, 9.99786 
2.5784287e+3, 1.5612881e+2, -1283665.1, -1588383.4, -47865.715, -0.14299625, 0.1907378, -1276323.1, 133623.8, 0.032553293, 10.001942, 9.997787 
2.5780964e+3, 1.661239e+2, -1057502.3, -1123019.3, -136121.36, -0.16218536, 0.33476037, -950253.1, 361741.53, 0.007938516, 10.001575, 10.000422 
2.577765e+3, 1.7611745e+2, -1211332.0, -1194087.9, -132385.23, -0.02067993, 0.06341924, -1070044.1, 144010.08, 0.00076767127, 10.000033, 10.000014 
2.577433e+3, 1.8611199e+2, -1066007.0, -989266.94, -53381.547, -0.040565774, 0.043396216, -961896.2, 154206.44, 0.000005913737, 10.00001, 10.00078 
2.5771007e+3, 1.9610682e+2, -939290.9, -944930.94, -54706.504, -0.15873718, -0.12544125, -887331.75, 130815.55, 0.0, 10.0005, 10.000183 
2.5767696e+3, 2.0610194e+2, -984816.44, -1051777.4, -69476.8, -0.14823489, 0.0055417838, -941173.9, -20976.992, 0.0, 10.000041, 9.998994 
2.576439e+3, 2.1609639e+2, -1144057.0, -1094249.1, -88223.06, -0.077992834, -0.044191208, -1027482.4, -205224.83, 0.0, 9.998338, 9.99886 
2.57611e+3, 2.2609188e+2, -901966.94, -750642.4, 58849.742, -0.1379865, 0.09535916, -730450.25, -6145.244, 0.0, 9.998649, 10.000382 
2.5757816e+3, 2.360873e+2, -553496.75, -577802.6, 59995.1, -0.2844693, 0.028250411, -504436.06, 121915.11, 0.0, 10.00053, 10.0000105 
2.575452e+3, 2.460836e+2, -449230.44, -352234.34, -138281.47, -0.15236163, 0.16704664, -254192.9, 274192.22, 0.0, 10.00003, 10.001102 
2.5751212e+3, 2.5607938e+2, -803799.9, -538607.56, -62394.89, 0.14306083, 0.057490673, -524660.7, -94239.37, 0.0, 9.997187, 10.000541 
2.5747895e+3, 2.6607513e+2, -705846.1, -477472.56, 106778.0, 0.023786137, 0.17681663, -435325.84, -102863.766, 0.0, 9.997368, 10.000175 
2.5744572e+3, 2.7607068e+2, -293263.78, -280513.0, 107344.84, -0.3414287, 0.12927705, -179354.39, 55153.34, 0.0, 9.999767, 9.999684 
2.5741288e+3, 2.860647e+2, -156136.6, -239235.34, 20804.395, -0.25208655, 0.16947414, -151219.06, -14653.367, 0.0, 10.0003, 9.999061 
2.573802e+3, 2.9605684e+2, -253121.19, -302781.8, 11210.977, 0.04676629, -0.119718306, -250707.6, -212066.83, 0.0, 9.999221, 9.998493 
2.5734696e+3, 3.0605114e+2, -256629.27, -293259.97, 79390.57, -0.25652742, 0.05085499, -193468.77, -193468.77, 0.0, 9.998999, 9.998333 
2.5731426e+3, 3.1604564e+2, 47271.05, 314588.25, 107529.016, -0.25843397, 0.054489862, 352472.97, 352472.97, 0.0, 9.998905, 10.00256 
2.5894135e+3, 1.2647612e+2, -1592352.1, -1593415.0, 78433.516, -0.11017777, 0.09703557, -1514448.3, 186091.42, 0.19077115, 10.000453, 10.000629 
2.58909e+3, 1.3647126e+2, -1310531.0, -1519094.5, 113616.805, 0.26207402, 0.015397622, -1260593.9, 341990.3, 0.12932457, 10.002554, 9.999432 
2.5887603e+3, 1.4646439e+2, -1272008.6, -1523667.3, 57666.063, 0.23616822, 0.00859955, -1259424.1, 245226.9, 0.07062259, 10.0022745, 9.99877 
2.5884265e+3, 1.5645923e+2, -1315533.6, -1544834.4, 94250.85, -0.061548106, 0.071977094, -1281765.9, 124937.086, 0.027766839, 10.001367, 9.998399 
2.588093e+3, 1.664538e+2, -1242623.3, -1310352.4, -44115.418, -0.11592358, 0.19160286, -1220873.3, 87884.99, 0.0064744665, 10.000597, 9.999654 
2.5877604e+3, 1.7644744e+2, -1284202.6, -1313013.0, -67477.555, 0.029447597, 0.056331836, -1229609.8, -18787.441, 0.0005723583, 9.999728, 9.999409 
2.587428e+3, 1.864421e+2, -1034649.4, -931407.56, 6466.771, -0.03599336, 0.04901589, -931004.06, 181866.72, 0.0000035552432, 9.999954, 10.001231 
2.587096e+3, 1.964369e+2, -876735.4, -901087.25, 14408.871, -0.23070733, -0.1128281, -870046.8, 144868.22, 0.0, 10.000698, 10.000457 
2.586765e+3, 2.0643201e+2, -715129.0, -886551.75, -10309.794, -0.21226788, -0.017303372, -714511.2, 202452.38, 0.0, 10.001655, 9.999393 
2.5864354e+3, 2.1642697e+2, -476619.97, -771953.6, 40091.402, -0.05450954, 0.027428742, -471274.34, 347743.97, 0.0, 10.002763, 9.999012 
2.5861058e+3, 2.2642201e+2, -521251.2, -563157.06, 135470.67, -0.10130014, 0.11537757, -405122.66, 315946.5, 0.0, 10.001138, 10.000493 
2.5857764e+3, 2.3641676e+2, -912882.75, -766752.56, 73587.29, -0.25510007, 0.030108642, -736118.1, -112997.31, 0.0, 9.998001, 9.999972 
2.5854468e+3, 2.4641214e+2, -655552.5, -477713.16, -195337.94, -0.10232837, 0.08351355, -352008.47, 173155.83, 0.0, 9.998615, 10.000968 
2.5851163e+3, 2.564076e+2, -207725.77, -275044.3, -253859.67, 0.2454194, -0.0017968932, 14696.347, 441902.1, 0.0, 10.00128, 10.000416 
2.584784e+3, 2.6640394e+2, -97197.22, -153067.67, -76037.54, 0.05243947, 0.1375155, -44125.754, 285114.94, 0.0, 10.001308, 10.000539 
2.584451e+3, 2.764002e+2, -265475.1, -277257.97, -68857.53, -0.4295875, 0.18039945, -202257.44, 29020.273, 0.0, 9.999854, 9.999741 
2.5841233e+3, 2.8639376e+2, -195979.72, -224665.23, -110673.28, -0.28887057, 0.12874044, -98723.69, 34617.445, 0.0, 9.999767, 9.99946 
2.5837973e+3, 2.9638496e+2, -126271.84, -252205.25, -86054.76, 0.16669264, -0.24854596, -82607.28, -47179.97, 0.0, 9.9999895, 9.9985285 
2.583465e+3, 3.063815e+2, 40688.152, -73175.36, -96.75531, -0.19055496, 0.10454527, 40688.24, 40688.24, 0.0, 10.000694, 9.999055 
2.583143e+3, 3.1637552e+2, 267745.97, 519247.94, 15694.89, 0.33830088, 0.036334, 520223.6, 520223.6, 0.0, 9.999855, 10.00359 
2.5994095e+3, 1.2680504e+2, -1600925.0, -1619139.0, 132893.61, -0.14841314, 0.008467918, -1476826.8, 220493.9, 0.16949552, 10.000604, 10.0003395 
2.5990874e+3, 1.3680232e+2, -1285335.9, -1479829.6, 69611.33, 0.26160485, 0.06869801, -1262989.0, 336351.1, 0.11391175, 10.002622, 9.999682 
2.5987577e+3, 1.4679629e+2, -1204826.8, -1332247.4, -40272.066, 0.29737872, 0.051178925, -1193165.8, 308228.28, 0.061296463, 10.002177, 10.000102 
2.5984243e+3, 1.5678929e+2, -1375183.5, -1532976.3, -49687.47, 0.11818657, -0.21951655, -1360841.0, 42617.56, 0.023481611, 10.000874, 9.998664 
2.5980905e+3, 1.6678336e+2, -1351069.5, -1515809.4, -134543.88, 0.12270129, -0.07727522, -1275683.8, 29837.559, 0.005220199, 10.000577, 9.998255 
2.597757e+3, 1.7677754e+2, -1377013.8, -1528505.8, -140196.94, 0.2526429, -0.030863374, -1293409.1, -85822.26, 0.00041937284, 9.999892, 9.997864 
2.5974238e+3, 1.8677245e+2, -1054201.0, -947037.94, 7594.367, 0.06047898, 0.050107956, -946502.44, 163133.45, 0.0000020172258, 9.999928, 10.001091 
2.5970906e+3, 1.9676705e+2, -1055547.0, -1033714.56, -15640.27, -0.3002328, -0.14595439, -1025557.7, -13874.889, 0.0, 9.999763, 9.999961 
2.5967607e+3, 2.0676266e+2, -819060.5, -835480.1, -10103.192, -0.25814733, -0.0235153, -814252.06, 99472.16, 0.0, 10.000668, 10.000156 
2.5964332e+3, 2.1675831e+2, -734792.8, -874591.56, 22942.066, -0.0054488685, -0.011301555, -731124.06, 84643.41, 0.0, 10.001068, 9.999067 
2.5961018e+3, 2.267533e+2, -771451.4, -802467.5, -7834.383, -0.06421353, 0.14040214, -769584.8, -51767.62, 0.0, 10.000047, 9.999332 
2.595769e+3, 2.3674724e+2, -1207447.5, -1087763.9, -33164.58, -0.2614264, 0.057006054, -1079188.4, -459311.4, 0.0, 9.996868, 9.998276 
2.5954396e+3, 2.4673945e+2, -939042.06, -833162.3, -104107.83, -0.14955662, -0.014826791, -769307.2, -247353.27, 0.0, 9.997733, 9.998914 
2.5951108e+3, 2.567304e+2, -536570.94, -655848.3, -165435.97, 0.090831205, -0.38023078, -420352.2, 3690.623, 0.0, 10.000062, 9.998372 
2.59478e+3, 2.667269e+2, -221799.84, -181533.86, -153423.05, 0.014658792, -0.1484961, -46928.473, 279148.22, 0.0, 10.000459, 10.000707 
2.5944483e+3, 2.767253e+2, -402311.7, -352517.06, -120153.14, -0.20461248, 0.0561111, -254708.83, -26617.275, 0.0, 9.999036, 9.99961 
2.5941196e+3, 2.8671944e+2, -245439.67, -147135.42, -137823.61, -0.13095415, 0.032558866, -49961.613, 80185.86, 0.0, 9.999099, 10.000292 
2.593791e+3, 2.9671133e+2, -240662.05, -285410.38, -94976.49, -0.025083924, -0.37031004, -165459.89, -133234.33, 0.0, 9.999236, 9.998639 
2.5934628e+3, 3.067083e+2, -111140.83, -301373.44, -48458.91, 0.014175932, 0.0991792, -99508.0, -99508.0, 0.0, 10.000492, 9.997509 
2.593131e+3, 3.1670085e+2, 130274.484, 379850.97, -20476.76, -0.502914, -0.013975455, 381519.84, 381519.84, 0.0, 9.999415, 10.002781 
2.609408e+3, 1.2713468e+2, -1504907.8, -1550851.9, 115414.03, -0.04006645, 0.10663013, -1410201.8, 283888.22, 0.14988421, 10.001122, 10.000634 
2.6090828e+3, 1.3712987e+2, -1208340.6, -1492682.5, 66894.82, -0.05602073, 0.023448434, -1193389.0, 402743.0, 0.09979623, 10.003286, 9.999309 
2.608753e+3, 1.471249e+2, -1133992.9, -1265502.9, -183856.5, 0.048199575, 0.102295436, -1004486.75, 493692.28, 0.05285716, 10.002473, 10.000462 
2.6084217e+3, 1.5711907e+2, -1340048.9, -1508527.8, -203730.0, 0.20494546, -0.05091254, -1203829.3, 196406.63, 0.019694533, 10.000972, 9.99885 
2.6080874e+3, 1.6711326e+2, -1165158.5, -1385184.5, -235332.0, 0.16784488, 0.05812634, -1015394.7, 286901.84, 0.004163879, 10.0016365, 9.998635 
2.607752e+3, 1.7710735e+2, -931710.75, -1304763.9, -183115.22, 0.057823256, 0.07923457, -856849.94, 347510.88, 0.00030229846, 10.002851, 9.99798 
2.607419e+3, 1.8710181e+2, -776712.6, -930699.06, -112382.305, -0.06320194, 0.15829167, -717479.06, 388936.5, 0.0000010444409, 10.00221, 10.000164 
2.607087e+3, 1.97096e+2, -971493.2, -1069140.1, -150080.28, -0.22269, 0.044510867, -862494.56, 145975.17, 0.0, 10.000493, 9.999425 
2.6067573e+3, 2.0709164e+2, -797945.8, -757632.4, -138741.77, -0.17577109, 0.12913202, -637590.75, 272918.72, 0.0, 10.000379, 10.000878 
2.606429e+3, 2.1708752e+2, -723261.0, -818122.56, -136023.64, -0.016059713, 0.11727192, -626635.9, 185911.27, 0.0, 10.000746, 9.99966 
2.6060972e+3, 2.2708169e+2, -637496.9, -742272.94, -202712.33, -0.061103635, 0.13524559, -480512.5, 234089.89, 0.0, 10.00084, 9.999421 
2.6057637e+3, 2.3707476e+2, -643531.2, -818996.1, -163486.64, -0.19321562, -0.0023263046, -545724.25, 70944.41, 0.0, 10.000551, 9.998414 
2.6054338e+3, 2.4706778e+2, -551822.5, -599344.06, -38267.82, -0.10027939, -0.038814098, -530538.9, -11801.178, 0.0, 10.0001135, 9.999379 
2.605106e+3, 2.5706002e+2, -544027.0, -649400.5, 21673.363, 0.09450635, -0.25317916, -539743.3, -118928.445, 0.0, 9.999804, 9.998593 
2.6047757e+3, 2.6705518e+2, -309004.63, -233993.1, 23117.615, 0.07395106, -0.1564746, -227440.88, 95419.766, 0.0, 9.99975, 10.000764 
2.6044446e+3, 2.770517e+2, -326898.0, -308877.7, 3086.9011, 0.008410998, -0.079965174, -308363.6, -83472.34, 0.0, 9.999382, 9.99979 
2.604115e+3, 2.8704658e+2, -99340.945, -35390.387, 24964.748, -0.02443291, -0.059815615, -26798.965, 100140.8, 0.0, 9.999883, 10.000681 
2.6037848e+3, 2.9704046e+2, -46618.426, -184948.38, 8059.6445, -0.12054189, -0.24081396, -46150.42, -17152.17, 0.0, 10.000441, 9.998774 
2.6034594e+3, 3.070357e+2, -132478.16, -332312.88, 127088.86, 0.12867115, 0.054133065, -70732.11, -70732.11, 0.0, 10.0001955, 9.99751 
2.6031333e+3, 3.1702343e+2, -58505.316, 186413.61, 96984.766, 0.27340978, -0.47823107, 220166.7, 220166.7, 0.0, 9.998411, 10.001939 
2.6194066e+3, 1.2746288e+2, -1416332.8, -1506772.6, 213168.44, 0.13615592, 0.09075974, -1243640.8, 447232.0, 0.13183987, 10.002032, 10.0004015 
2.6190782e+3, 1.3745745e+2, -1471491.1, -1672229.8, 89939.0, -0.30938336, -0.045471333, -1437090.1, 155834.14, 0.08692974, 10.001656, 9.998719 
2.6187485e+3, 1.4745346e+2, -1252976.3, -1365671.9, -181627.31, -0.107541844, 0.1784112, -1119156.9, 375810.03, 0.045284748, 10.001766, 10.0000925 
2.618419e+3, 1.574494e+2, -1330093.4, -1542542.5, -197076.8, 0.36673453, 0.22828099, -1212436.5, 184575.67, 0.01638905, 10.001242, 9.9985 
2.618084e+3, 1.674438e+2, -1112388.4, -1291222.6, -133545.94, 0.1977977, 0.33909526, -1041088.56, 257980.94, 0.0032885466, 10.001793, 9.999175 
2.6177472e+3, 1.7743725e+2, -1085232.8, -1396032.4, -144843.5, -0.20386943, 0.23881683, -1028197.3, 172938.08, 0.00021471751, 10.001928, 9.9978 
2.617415e+3, 1.8743101e+2, -961882.44, -1167803.1, -147982.0, -0.1722988, 0.33356568, -884566.56, 218632.0, 0.00000047553752, 10.001638, 9.998785 
2.6170844e+3, 1.9742481e+2, -1173835.4, -1316829.0, -170945.7, 0.015956756, 0.29881802, -1060037.3, -54776.12, 0.0, 9.999862, 9.998011 
2.616754e+3, 2.0742016e+2, -851207.75, -750557.94, -99636.09, -0.0005153345, 0.39623705, -689258.7, 218045.1, 0.0, 9.999971, 10.00108 
2.616424e+3, 2.1741563e+2, -944889.1, -931557.3, -133153.84, -0.07890172, 0.29853824, -804902.6, 4440.184, 0.0, 9.999378, 9.999515 
2.6160923e+3, 2.274086e+2, -751077.75, -703482.4, -206453.78, -0.08579178, 0.16446292, -519459.25, 191948.13, 0.0, 9.999825, 10.000113 
2.6157597e+3, 2.374005e+2, -859228.6, -848138.9, -164102.42, -0.081070386, -0.18645988, -689487.7, -76004.89, 0.0, 9.998925, 9.99895 
2.6154298e+3, 2.4739788e+2, -564232.3, -391522.7, -42974.375, -0.003957737, 0.08133918, -381420.53, 134086.92, 0.0, 9.999254, 10.001153 
2.6151004e+3, 2.573966e+2, -686049.0, -624673.7, 15099.2, 0.112883165, 0.32004735, -621160.2, -203640.08, 0.0, 9.9985695, 9.999312 
2.6147702e+3, 2.6738957e+2, -461623.16, -358924.3, 8441.905, 0.09820622, 0.20264584, -358235.0, -38650.598, 0.0, 9.999015, 10.000197 
2.614439e+3, 2.773803e+2, -511660.94, -491936.72, 27043.434, 0.0072590066, -0.2796893, -473013.25, -251344.48, 0.0, 9.998612, 9.998862 
2.6141086e+3, 2.8737637e+2, -174528.45, -80362.664, 64589.543, -0.15356661, -0.090035535, -47516.793, 76188.93, 0.0, 9.999552, 10.000471 
2.6137787e+3, 2.97374e+2, -130634.49, -235170.78, 67873.53, -0.34660295, 0.09642108, -97235.99, -71506.57, 0.0, 10.000007, 9.998623 
2.6134512e+3, 3.0736652e+2, -102245.82, -67484.79, 89917.75, -0.19577627, -0.0060145105, 6716.814, 6716.814, 0.0, 9.999395, 9.999702 
2.6131192e+3, 3.173612e+2, -427532.66, -292075.34, 138245.42, -0.5574504, -0.024837157, -205859.31, -205859.31, 0.0, 9.997298, 9.999188 
2.6294047e+3, 1.2779272e+2, -1253433.5, -1453795.9, 130083.72, -0.03245333, 0.027803414, -1189425.6, 498212.63, 0.11528824, 10.0033455, 10.000165 
2.6290762e+3, 1.377871e+2, -1684641.9, -1769185.6, 117036.38, -0.12411839, -0.099400744, -1602477.3, -12783.821, 0.07524984, 9.999932, 9.998921 
2.6287457e+3, 1.4778396e+2, -1306754.3, -1322695.6, -21660.22, -0.041086216, 0.16125822, -1291644.6, 200082.64, 0.038529176, 10.001, 10.000801 
2.628415e+3, 1.5778096e+2, -957425.3, -1306853.0, -1369.2238, 0.16499026, 0.28183463, -957419.94, 436341.13, 0.013527696, 10.003486, 9.999086 
2.6280808e+3, 1.6777459e+2, -917131.94, -1262081.6, -49052.492, 0.09977509, 0.3324781, -910292.2, 385534.25, 0.0025719018, 10.0033045, 9.998706 
2.627745e+3, 1.7776696e+2, -1099923.5, -1427383.0, -66371.06, -0.10675743, 0.20232035, -1086982.5, 110920.695, 0.00015054179, 10.001787, 9.997704 
2.6274118e+3, 1.8776022e+2, -920840.2, -1167242.6, -56821.98, -0.14369678, 0.25781396, -908368.0, 191602.39, 0.0000001940375, 10.001901, 9.998698 
2.6270795e+3, 1.9775356e+2, -855115.6, -1167406.4, -7629.7554, -0.1214941, 0.22008352, -854929.4, 147106.98, 0.0, 10.001898, 9.998109 
2.6267493e+3, 2.07748e+2, -710131.25, -757153.44, 36288.895, -0.05012262, 0.26829246, -690402.8, 213685.61, 0.0, 10.001172, 10.000502 
2.6264197e+3, 2.177427e+2, -793534.8, -848994.1, -18054.328, -0.00006329285, 0.18617299, -788175.3, 17961.213, 0.0, 10.000218, 9.99973 
2.6260877e+3, 2.2773713e+2, -705070.5, -566617.8, -93681.74, 0.00068717083, 0.12254696, -519360.03, 188827.67, 0.0, 9.999524, 10.001251 
2.6257548e+3, 2.377312e+2, -773764.56, -689442.2, -19038.756, -0.007947269, -0.07540581, -685342.75, -75100.305, 0.0, 9.998824, 10.000149 
2.6254243e+3, 2.4772844e+2, -484195.6, -364305.22, 48681.14, 0.03401348, 0.13432783, -347028.13, 165240.22, 0.0, 9.999712, 10.001181 
2.6250952e+3, 2.5772694e+2, -308344.22, -404118.28, -21733.787, 0.087582864, 0.37196967, -303642.97, 110639.76, 0.0, 10.000846, 9.999779 
2.6247647e+3, 2.677198e+2, -245062.36, -269319.56, -61003.004, 0.07574182, 0.22224484, -194993.94, 121353.914, 0.0, 10.000485, 10.0001335 
2.6244333e+3, 2.7771026e+2, -365632.94, -399864.25, -31697.46, 0.02880696, -0.2499335, -346725.34, -128290.17, 0.0, 9.999382, 9.999168 
2.624103e+3, 2.8770673e+2, -254961.94, -114532.01, 55026.45, -0.12205748, -0.058240067, -95539.06, 24929.127, 0.0, 9.998837, 10.000633 
2.6237732e+3, 2.977053e+2, -336468.47, -264326.6, 46698.223, -0.2973165, 0.22736506, -241390.45, -218908.06, 0.0, 9.998184, 9.999337 
2.6234436e+3, 3.0769613e+2, -110019.77, -32188.834, -45855.344, -0.34121504, -0.11758979, -10961.754, -10961.754, 0.0, 9.999103, 10.000117 
2.6231194e+3, 3.176928e+2, -176837.98, -128316.82, -41929.605, 0.1889442, 0.07103046, -104134.984, -104134.984, 0.0, 9.998659, 9.999714 
2.6394024e+3, 1.2812369e+2, -1446745.0, -1580174.0, 4909.4683, -0.05470673, 0.03187311, -1446564.6, 237828.84, 0.10017185, 10.00198, 9.999847 
2.6390743e+3, 1.3811785e+2, -1649082.9, -1756711.0, -24185.44, 0.23430443, -0.108383335, -1643897.9, -57445.97, 0.06469282, 10.000284, 9.998824 
2.6387432e+3, 1.4811523e+2, -1263401.5, -1220986.1, 25838.967, 0.13956857, 0.14335063, -1208766.0, 279712.06, 0.032530583, 10.001029, 10.001435 
2.6384112e+3, 1.5811247e+2, -1186075.6, -1440919.5, -41689.316, -0.03285438, 0.21532707, -1179429.1, 211076.8, 0.011066901, 10.002078, 9.998792 
2.638078e+3, 1.6810536e+2, -1090003.3, -1425564.0, -137411.88, 0.059122648, 0.2383669, -1040914.4, 251664.72, 0.0019930317, 10.002524, 9.997909 
2.6377445e+3, 1.7809679e+2, -1241943.9, -1605818.6, -120370.61, 0.19288813, 0.08097173, -1205729.3, -11062.204, 0.00010503105, 10.001342, 9.996687 
2.6374093e+3, 1.8808971e+2, -946450.9, -1107698.3, -48416.043, -0.049830526, 0.098317906, -933030.44, 163704.16, 0.00000008640195, 10.001623, 9.999124 
2.6370734e+3, 1.9808288e+2, -1013648.8, -1289977.9, -42587.94, -0.362563, -0.010217215, -1007234.06, -8435.993, 0.0, 10.001177, 9.997558 
2.636744e+3, 2.0807609e+2, -834241.6, -933374.4, 3782.7246, -0.14368568, -0.0009413414, -834097.5, 66765.07, 0.0, 10.000879, 9.999411 
2.636417e+3, 2.1806954e+2, -1064793.1, -1075741.0, -53978.79, 0.22653563, -0.12736319, -1016011.44, -213086.17, 0.0, 9.998848, 9.9988365 
2.6360834e+3, 2.2806735e+2, -740107.25, -448015.3, -122157.96, 0.17818272, 0.098714024, -403661.72, 301283.75, 0.0, 9.998792, 10.002365 
2.635748e+3, 2.3806593e+2, -1004505.5, -825664.3, -29173.342, 0.011322459, 0.2236024, -821025.75, -214067.45, 0.0, 9.997451, 9.99986 
2.6354182e+3, 2.4805918e+2, -697660.7, -632410.06, 81021.59, -0.033396393, 0.14523534, -577691.75, -68668.29, 0.0, 9.999065, 9.999612 
2.6350895e+3, 2.58051e+2, -606988.1, -706985.9, -5838.0786, -0.054758184, -0.15974957, -606648.44, -195545.38, 0.0, 9.999582, 9.9983015 
2.6347587e+3, 2.6804614e+2, -346329.84, -280690.4, -113539.92, -0.035064533, -0.051954146, -195321.92, 117827.15, 0.0, 9.999776, 10.00034 
2.6344272e+3, 2.7804187e+2, -567005.56, -526954.1, -57947.777, -0.01582692, -0.032800116, -485669.38, -270480.63, 0.0, 9.998255, 9.998828 
2.6340982e+3, 2.880372e+2, -362131.88, -137801.42, 12884.943, 0.018242938, 0.049971357, -137063.77, -19832.559, 0.0, 9.998071, 10.000813 
2.633769e+3, 2.9803243e+2, -575193.2, -470939.28, 37790.66, -0.058275994, -0.022717549, -458681.8, -439407.0, 0.0, 9.997025, 9.998469 
2.633438e+3, 3.080232e+2, -335234.0, -400611.47, -30524.662, -0.31558096, -0.20840734, -323197.94, -323197.94, 0.0, 9.998791, 9.997676 
2.6331103e+3, 3.1801727e+2, -79459.375, 51236.168, 4015.16, -0.21786164, -0.13071723, 51359.402, 51359.402, 0.0, 9.99887, 10.000808 
2.6493987e+3, 1.2845613e+2, -1633868.1, -1676394.9, -50214.984, -0.19356284, 0.26927376, -1600600.1, 80540.83, 0.08643013, 10.000481, 9.999888 
2.6490697e+3, 1.3844927e+2, -1405653.1, -1651565.6, -6575.7134, 0.061474282, 0.055496823, -1405477.4, 177729.75, 0.055199515, 10.001947, 9.998816 
2.6487395e+3, 1.484442e+2, -1230921.1, -1282362.4, -28582.64, 0.09713535, 0.09108046, -1218190.3, 267063.2, 0.027235242, 10.001505, 10.000796 
2.6484087e+3, 1.5843888e+2, -1405255.5, -1539922.6, -114564.66, 0.061990257, -0.029477883, -1339702.4, 47600.023, 0.0089680515, 10.00041, 9.998941 
2.6480746e+3, 1.6843368e+2, -1167966.6, -1329532.6, -179521.55, 0.027987912, 0.09419971, -1051889.6, 237467.64, 0.0015322798, 10.001442, 9.999076 
2.6477396e+3, 1.7842795e+2, -1010412.75, -1380989.4, -97085.6, -0.024241835, 0.13404699, -986518.44, 204900.56, 0.00007382683, 10.002356, 9.997759 
2.6474065e+3, 1.8842107e+2, -765423.0, -1036761.25, -44221.773, -0.06042566, 0.13994142, -758397.8, 335088.03, 0.000000036839044, 10.00287, 9.99905 
2.6470733e+3, 1.9841394e+2, -698925.25, -1072351.4, -59224.43, -0.15348347, 0.027191611, -689757.5, 305795.44, 0.0, 10.002923, 9.998241 
2.6467413e+3, 2.0840731e+2, -632865.75, -769437.06, -25749.547, -0.055416506, -0.024032163, -628172.2, 269440.78, 0.0, 10.001875, 10.000088 
2.6464102e+3, 2.1840094e+2, -830771.3, -925646.9, 22562.844, 0.095181175, -0.15621938, -825678.9, -26008.002, 0.0, 10.000162, 9.999263 
2.6460773e+3, 2.2839756e+2, -557906.44, -521176.56, -88222.07, 0.12537606, 0.027624356, -449428.22, 252276.8, 0.0, 10.000625, 10.001033 
2.6457438e+3, 2.3839504e+2, -418545.47, -610566.9, -122250.79, 0.08915218, 0.18839079, -359110.66, 244621.63, 0.0, 10.001584, 9.999401 
2.6454136e+3, 2.4838802e+2, -413789.38, -539388.9, 6323.507, 0.008474116, 0.09992591, -413471.8, 92330.39, 0.0, 10.00105, 9.999373 
2.6450846e+3, 2.583794e+2, -516945.88, -650996.9, -30629.672, -0.069448456, -0.18818276, -510278.8, -102391.69, 0.0, 9.999943, 9.998574 
2.644753e+3, 2.6837507e+2, -388826.72, -296721.13, -142658.38, -0.04691999, -0.05735487, -192866.38, 117062.09, 0.0, 9.999324, 10.000491 
2.6444218e+3, 2.7837208e+2, -462749.03, -415153.06, -94012.33, 0.07249676, 0.096962504, -341973.4, -130017.08, 0.0, 9.998531, 9.999498 
2.644093e+3, 2.8836662e+2, -201487.08, -50371.934, 4073.5042, 0.15561812, 0.05195734, -50262.207, 63743.195, 0.0, 9.99902, 10.000986 
2.6437634e+3, 2.9836038e+2, -246681.48, -312687.72, 20110.623, 0.100050576, -0.14672476, -241036.92, -224975.39, 0.0, 9.999128, 9.998568 
2.6434332e+3, 3.0835262e+2, -424639.47, -515842.22, 66918.74, -0.13455306, -0.14883684, -389261.8, -389261.8, 0.0, 9.998374, 9.997127 
2.643104e+3, 3.1834403e+2, -144595.02, 371451.63, 147221.19, -0.23437476, -0.30720603, 410497.5, 410497.5, 0.0, 9.996725, 10.004084 
2.6593947e+3, 1.287882e+2, -1519335.6, -1640026.4, -7282.0107, -0.18097953, 0.49517956, -1518897.9, 158993.55, 0.073999934, 10.0014715, 9.999578 
2.659065e+3, 1.387807e+2, -1404120.9, -1763321.0, -80773.71, -0.08155008, 0.20943254, -1386793.1, 193169.52, 0.04671151, 10.002476, 9.997768 
2.6587358e+3, 1.4877291e+2, -1239817.6, -1348929.9, -88306.67, 0.10605355, 0.053939685, -1190573.8, 291458.06, 0.022592498, 10.001873, 10.000108 
2.6584065e+3, 1.5876502e+2, -1483514.0, -1596635.0, -137349.55, 0.33544487, -0.26527217, -1391535.0, -7432.812, 0.0071954923, 10.000075, 9.9987135 
2.658071e+3, 1.6876209e+2, -1144336.0, -1153302.1, -115497.32, 0.053815383, -0.009295723, -1033234.75, 252900.48, 0.001170623, 10.000951, 10.000505 
2.6577342e+3, 1.7875992e+2, -1184481.6, -1402981.6, -74879.08, -0.28458232, 0.24376602, -1161283.8, 26879.77, 0.00005271245, 10.001032, 9.998219 
2.6574042e+3, 1.8875323e+2, -890591.56, -1130559.3, -22103.516, -0.01528514, 0.26693085, -888572.56, 201658.86, 0.000000014947995, 10.002232, 9.998682 
2.6570758e+3, 1.9874577e+2, -915929.8, -1197633.4, -63489.16, 0.37125838, 0.14416064, -902282.1, 90022.51, 0.0, 10.001647, 9.997986 
2.6567394e+3, 2.0874049e+2, -623520.4, -576485.94, -95271.69, 0.1153657, 0.11657304, -501871.88, 392475.47, 0.0, 10.001336, 10.001553 
2.6564017e+3, 2.1873525e+2, -1091905.1, -1140562.1, -41494.54, -0.23323046, -0.03828936, -1068133.0, -271744.06, 0.0, 9.998961, 9.998291 
2.6560706e+3, 2.2872762e+2, -850232.6, -987497.44, -53037.695, -0.05934281, -0.050558828, -832127.5, -133660.16, 0.0, 10.00018, 9.997943 
2.6557413e+3, 2.3871997e+2, -800271.8, -1039050.6, -103183.15, 0.20558015, -0.14189269, -761862.0, -161312.52, 0.0, 10.000178, 9.997092 
2.6554105e+3, 2.4871616e+2, -485813.75, -491094.44, -41121.504, 0.12054091, 0.110721305, -447247.9, 55343.816, 0.0, 10.000315, 10.000006 
2.655079e+3, 2.5871265e+2, -776452.44, -783423.8, -66828.8, -0.07076469, 0.25557843, -713018.5, -308388.78, 0.0, 9.998358, 9.998389 
2.6547474e+3, 2.6870692e+2, -525037.4, -338051.7, -163087.03, -0.01399158, 0.239244, -243559.73, 63123.355, 0.0, 9.998488, 10.000511 
2.654416e+3, 2.787007e+2, -654121.3, -541365.9, -69546.95, 0.12743531, 0.054306023, -508215.78, -299476.38, 0.0, 9.99754, 9.99906 
2.6540866e+3, 2.886951e+2, -243362.77, -44671.63, 30481.643, 0.112547435, -0.010863108, -40100.535, 70688.72, 0.0, 9.99879, 10.001049 
2.6537564e+3, 2.9869005e+2, -341069.03, -353616.25, 27306.73, -0.10096421, -0.11164442, -319324.5, -306490.56, 0.0, 9.998619, 9.998492 
2.6534286e+3, 3.086863e+2, -387599.5, -303434.7, 6987.352, 0.087341554, 0.16659673, -302858.56, -302858.56, 0.0, 9.997894, 9.99875 
2.6530948e+3, 3.186782e+2, -526815.75, -16724.188, 80937.21, -0.3064971, -0.08005219, -4189.732, -4189.732, 0.0, 9.99511, 10.002156 
2.6693934e+3, 1.2911275e+2, -1399991.3, -1724713.9, -91212.836, -0.24499959, 0.101363726, -1376124.3, 298577.06, 0.062782116, 10.002923, 9.998331 
2.6690662e+3, 1.3910645e+2, -1236860.4, -1662181.6, -148083.11, 0.11277562, 0.07367982, -1190381.8, 386389.66, 0.039146993, 10.0035095, 9.998017 
2.6687333e+3, 1.4910139e+2, -1042012.4, -1071159.6, -158202.39, 0.09146013, 0.05469015, -897713.75, 581101.25, 0.018543638, 10.002475, 10.001759 
2.6683995e+3, 1.590963e+2, -1262669.6, -1325154.0, -81791.71, 0.019931227, -0.1097438, -1206356.3, 174500.48, 0.005710664, 10.000804, 10.000253 
2.6680654e+3, 1.6909271e+2, -1072503.0, -1031629.4, -43950.0, -0.06794146, -0.02792214, -1003596.94, 279294.56, 0.0008890518, 10.000947, 10.001375 
2.6677313e+3, 1.790895e+2, -1107745.0, -1243725.3, -1275.9745, -0.19934668, 0.051055692, -1107733.0, 77191.86, 0.000037964888, 10.000897, 9.99939 
2.6674005e+3, 1.89084e+2, -935919.3, -1075805.4, 68358.336, -0.06180419, 0.10880211, -908062.1, 178919.88, 0.0000000057994387, 10.001477, 9.999476 
2.6670706e+3, 1.9907783e+2, -864499.25, -1117424.3, 55479.313, 0.1365437, 0.07438991, -852865.0, 136180.06, 0.0, 10.001606, 9.998595 
2.6667348e+3, 2.0907237e+2, -531322.06, -656715.9, -84335.984, -0.0143653145, 0.09391125, -488931.1, 402163.25, 0.0, 10.002458, 10.000507 
2.666398e+3, 2.1906666e+2, -475266.9, -866231.56, -147846.47, -0.2575064, 0.014540232, -425653.5, 367491.22, 0.0, 10.003119, 9.998226 
2.666067e+3, 2.2905861e+2, -544694.2, -863281.0, -50272.45, -0.05958259, -0.03821874, -536949.56, 158276.48, 0.0, 10.002248, 9.997871 
2.6657373e+3, 2.390503e+2, -629395.2, -924253.75, 46084.11, 0.22429192, -0.14366849, -622360.44, -25047.91, 0.0, 10.001046, 9.997503 
2.6654056e+3, 2.4904655e+2, -472560.06, -474874.38, 78842.12, 0.11783994, 0.10719312, -394866.6, 104487.17, 0.0, 10.000293, 10.000142 
2.665073e+3, 2.5904372e+2, -553712.25, -628779.75, 21130.479, -0.077472106, 0.34057492, -548173.06, -146787.5, 0.0, 9.999562, 9.998883 
2.6647416e+3, 2.690371e+2, -304520.0, -303647.03, -87274.516, 0.028599784, 0.26463717, -216807.92, 86640.78, 0.0, 10.000174, 10.000008 
2.6644108e+3, 2.7902964e+2, -201160.52, -292758.2, -64984.57, 0.23958875, 0.01742894, -167457.6, 38060.996, 0.0, 10.000388, 9.999439 
2.6640803e+3, 2.890248e+2, -273424.22, -55809.605, 17538.162, 0.11372817, 0.009609281, -54405.22, 53155.727, 0.0, 9.998449, 10.001228 
2.663749e+3, 2.990207e+2, -661090.56, -434746.78, 7674.1587, -0.12357055, 0.013407057, -434486.88, -424890.13, 0.0, 9.995955, 9.999283 
2.663423e+3, 3.090168e+2, -292313.56, -164567.45, -39789.56, 0.2626408, 0.19544536, -153187.77, -153187.77, 0.0, 9.998099, 9.99964 
2.6630875e+3, 3.1901073e+2, 50458.293, 150976.31, -119600.59, -0.2860147, 0.13068828, 230448.84, 230448.84, 0.0, 9.999387, 10.0013 
2.6793933e+3, 1.294375e+2, -1354982.3, -1843284.8, 106493.48, -0.06372423, -0.2869298, -1332767.8, 338740.4, 0.05267765, 10.003909, 9.997023 
2.6790679e+3, 1.3943279e+2, -1420749.0, -1743738.3, -26552.213, 0.48827472, -0.07279342, -1418580.8, 154993.33, 0.03242507, 10.00225, 9.997997 
2.67873e+3, 1.4943103e+2, -1025756.44, -866996.94, -94131.77, 0.08707941, 0.096957065, -823242.9, 652344.75, 0.015032841, 10.001731, 10.0034685 
2.6783913e+3, 1.5942918e+2, -1281357.8, -1240240.8, -79674.16, -0.3348729, 0.08702758, -1178515.5, 199081.81, 0.0044764117, 10.000351, 10.00102 
2.6780602e+3, 1.694241e+2, -1054809.1, -951380.2, -35221.695, -0.1421703, -0.039146446, -940525.06, 339115.38, 0.00066900725, 10.000901, 10.001898 
2.67773e+3, 1.7941877e+2, -1188257.0, -1229658.6, -29741.777, 0.10287747, -0.23268816, -1172721.1, 8966.435, 0.000027210404, 10.000239, 9.99979 
2.6773956e+3, 1.8941489e+2, -992743.2, -967590.94, 33760.78, -0.1473849, -0.118949875, -944140.0, 139588.44, 0.000000001728097, 10.000614, 10.000592 
2.6770613e+3, 1.9941089e+2, -1236770.6, -1398076.0, 11003.846, -0.38876963, -0.02050101, -1236023.4, -250251.28, 0.0, 9.999628, 9.997594 
2.6767296e+3, 2.0940398e+2, -852832.4, -1098462.5, -67842.984, -0.22640827, 0.048253633, -835339.9, 52504.836, 0.0, 10.001546, 9.997877 
2.6763976e+3, 2.1939673e+2, -809501.2, -1170795.5, -135660.53, -0.02101378, 0.03783354, -764234.25, 25685.156, 0.0, 10.001544, 9.996893 
2.6760647e+3, 2.2939081e+2, -505916.8, -645097.75, -95215.48, 0.06807214, 0.08539587, -457571.63, 234404.36, 0.0, 10.001703, 9.999598 
2.675732e+3, 2.39385e+2, -855286.94, -1025266.25, 3496.2266, 0.14149593, 0.069824256, -855215.06, -261184.14, 0.0, 9.999592, 9.997492 
2.6753992e+3, 2.4937871e+2, -624595.75, -595873.94, 48775.28, -0.0081272395, 0.085723445, -559389.4, -63295.7, 0.0, 9.999618, 9.999531 
2.6750663e+3, 2.5937253e+2, -887832.1, -952434.44, 17880.92, -0.18903857, 0.029594075, -883213.25, -485057.25, 0.0, 9.998112, 9.997323 
2.674736e+3, 2.6936585e+2, -482453.47, -539198.44, -66991.836, -0.008493668, 0.07536619, -438073.6, -137850.03, 0.0, 9.999677, 9.998588 
2.6744065e+3, 2.7935922e+2, -432447.9, -545905.8, -100038.47, 0.22697869, 0.031217763, -374173.06, -171883.28, 0.0, 9.999492, 9.998131 
2.674073e+3, 2.8935578e+2, -360658.2, -78736.22, -117666.45, 0.07301649, 0.17429319, -36079.684, 68239.97, 0.0, 9.997839, 10.001327 
2.673739e+3, 2.9935214e+2, -894832.06, -611271.7, -14421.538, -0.17786627, 0.20969425, -610540.1, -604188.6, 0.0, 9.994726, 9.998652 
2.6734164e+3, 3.0934063e+2, -374564.34, -280950.3, 64116.16, 0.31166625, -0.31532937, -248373.6, -248373.6, 0.0, 9.997951, 9.998875 
2.6730856e+3, 3.1934035e+2, 97862.875, 261275.72, -58831.41, -0.0635336, 0.2260539, 280252.3, 280252.3, 0.0, 9.999504, 10.001967 
2.6893955e+3, 1.297737e+2, -1114468.8, -1702079.4, 95968.35, 0.023260184, -0.3217247, -1099192.4, 569017.7, 0.043619167, 10.005502, 9.99719 
2.6890612e+3, 1.3977265e+2, -1690632.6, -1919355.6, 153477.6, 0.14995743, 0.2749801, -1613594.3, -43349.918, 0.02648621, 10.000472, 9.9976635 
2.688725e+3, 1.4976707e+2, -1300150.4, -1220519.6, 93508.77, -0.04152764, 0.23239236, -1158702.5, 313593.38, 0.012009438, 10.000691, 10.001548 
2.688389e+3, 1.5976103e+2, -1217263.9, -1353667.1, 8678.813, -0.2161692, 0.0035342248, -1216713.9, 157634.0, 0.003455713, 10.00127, 9.999828 
2.688057e+3, 1.69756e+2, -965703.2, -1049132.9, -19139.209, -0.08712227, -0.0067490893, -961522.1, 314871.47, 0.00049606664, 10.001963, 10.000783 
2.6877257e+3, 1.7975116e+2, -996092.4, -1214133.5, -99050.2, 0.008390097, -0.03732184, -957815.9, 220622.52, 0.00001910138, 10.001725, 9.99923 
2.68739e+3, 1.8974602e+2, -1108697.3, -1078866.3, -163674.56, -0.18275456, -0.010474049, -929429.0, 151062.27, 0.0000000002885943, 9.999892, 10.000248 
2.687055e+3, 1.9974117e+2, -1429968.9, -1392164.6, -155040.34, -0.3981085, 0.014341443, -1254878.4, -272336.66, 0.0, 9.997727, 9.99858 
2.6867256e+3, 2.0973514e+2, -972172.56, -997876.44, -2403.2996, -0.16976282, 0.026458066, -971949.8, -87348.66, 0.0, 9.99996, 9.999365 
2.6863962e+3, 2.1972886e+2, -578755.2, -930190.5, 54584.81, 0.08797423, 0.0044377693, -570472.3, 216191.02, 0.0, 10.002445, 9.998125 
2.6860616e+3, 2.2972319e+2, -334463.72, -572988.44, -26282.402, 0.027563425, 0.0688139, -331602.06, 357117.13, 0.0, 10.002799, 9.999642 
2.6857263e+3, 2.3971783e+2, -389175.25, -746144.0, -19830.025, -0.06340408, 0.11500843, -388077.06, 202694.77, 0.0, 10.002405, 9.998098 
2.685394e+3, 2.4971089e+2, -324468.94, -543166.3, 8411.53, -0.08750128, 0.09762517, -324145.9, 168694.0, 0.0, 10.00192, 9.99888 
2.685062e+3, 2.5970337e+2, -404626.7, -719869.44, -27169.973, -0.104467385, -0.0016987175, -402302.13, -7388.3716, 0.0, 10.001247, 9.997462 
2.6847312e+3, 2.6969585e+2, -428581.2, -530617.44, -25986.184, 0.037051987, -0.03442356, -422344.34, -125355.91, 0.0, 10.000024, 9.998532 
2.6844004e+3, 2.7968913e+2, -513433.66, -558358.1, 8576.571, 0.2093391, -0.04751922, -511851.97, -312796.75, 0.0, 9.998709, 9.998429 
2.6840663e+3, 2.8968683e+2, -48421.074, 39661.727, -30629.678, 0.027884915, 0.2255037, 49265.66, 150340.86, 0.0, 10.000026, 10.001101 
2.6837316e+3, 2.996836e+2, -59271.043, -252173.02, 58188.77, -0.15985447, 0.35831124, -43077.785, -39973.08, 0.0, 10.00054, 9.998314 
2.68341e+3, 3.0966675e+2, -314075.56, -357999.94, 143781.84, 0.3428145, -0.62514603, -190588.27, -190588.27, 0.0, 9.998727, 9.997999 
2.6830804e+3, 3.1967252e+2, -295364.94, 202637.78, -89257.77, 0.08091568, 0.58111674, 218152.25, 218152.25, 0.0, 9.99613, 10.003191 
2.6993966e+3, 1.3011281e+2, -1480721.5, -1835843.9, -188564.5, 0.15990923, -0.20018159, -1399275.9, 265611.13, 0.03555016, 10.002721, 9.997581 
2.6990533e+3, 1.4011498e+2, -1669794.9, -2065745.5, -37480.44, -0.17165689, 0.69927305, -1666278.3, -99387.98, 0.021269776, 10.001317, 9.996263 
2.69872e+3, 1.5010428e+2, -1356138.4, -1544542.0, 71230.06, -0.06190731, 0.35672188, -1332239.8, 136752.55, 0.009415533, 10.001644, 9.998833 
2.698389e+3, 1.6009265e+2, -1448498.4, -1744419.1, 3639.4343, 0.16272222, -0.16153406, -1448453.6, -77353.16, 0.0026134893, 10.000978, 9.997273 
2.698055e+3, 1.7008835e+2, -1137304.0, -1295266.6, -11846.24, 0.017728426, 0.06913335, -1136420.6, 136724.6, 0.0003600524, 10.001599, 9.999198 
2.6977202e+3, 1.8008463e+2, -1307130.5, -1550432.1, -116280.945, -0.1545311, 0.31000516, -1260495.3, -85309.92, 0.000012952271, 10.000533, 9.9974575 
2.6973853e+3, 1.9007741e+2, -1148942.1, -1195173.1, -212162.98, -0.120712005, 0.230987, -958639.1, 118619.79, 0.000000000007316074, 10.0001955, 9.999228 
2.697051e+3, 2.000705e+2, -1347551.8, -1271228.0, -108423.09, -0.06432207, 0.107950844, -1194446.9, -215119.78, 0.0, 9.998052, 9.999252 
2.6967221e+3, 2.1006648e+2, -760449.6, -505820.94, 100090.33, 0.040748496, 0.028976014, -471187.72, 410168.16, 0.0, 9.999815, 10.002778 
2.6963934e+3, 2.2006239e+2, -851576.2, -999731.4, 82988.92, 0.1182081, -0.05493703, -814412.4, -31025.688, 0.0, 10.000466, 9.998564 
2.696057e+3, 2.3005603e+2, -588952.75, -810283.75, -47003.992, -0.13234702, -0.009433857, -579384.25, 106071.29, 0.0, 10.00175, 9.9984 
2.6957202e+3, 2.4004969e+2, -762671.1, -1116603.0, -33008.164, -0.3582546, 0.055785637, -759619.06, -172093.58, 0.0, 10.000803, 9.996296 
2.6953903e+3, 2.5004348e+2, -479880.06, -708983.75, -22187.271, -0.13219388, 0.20436129, -477751.16, 11837.0, 0.0, 10.001349, 9.997958 
2.6950604e+3, 2.6003686e+2, -686563.0, -901921.2, -73417.52, 0.11051821, 0.24931316, -663915.94, -272262.84, 0.0, 9.999679, 9.996927 
2.6947266e+3, 2.7002764e+2, -462091.0, -403631.16, -81425.625, 0.10685171, -0.04193231, -346347.97, -52609.938, 0.0, 9.99932, 9.999665 
2.6943922e+3, 2.8001955e+2, -693304.5, -641052.1, 39172.55, 0.036072545, -0.30189815, -620092.56, -424280.3, 0.0, 9.997619, 9.998357 
2.6940602e+3, 2.9001865e+2, -126206.914, -56784.145, 57994.21, -0.08852243, 0.15137158, -23907.006, 73913.07, 0.0, 9.999914, 10.000428 
2.6937276e+3, 3.0001625e+2, -210341.55, -515665.28, 63967.383, -0.2533716, 0.4673368, -197481.6, -197481.6, 0.0, 10.000459, 9.99653 
2.6934004e+3, 3.0999848e+2, -488737.13, -615890.75, 32693.766, -0.0037344121, -0.4563006, -480823.4, -480823.4, 0.0, 9.998372, 9.996375 
2.693067e+3, 3.2000008e+2, -565062.4, 26860.195, -86703.48, -0.4046886, 0.44655272, 39298.934, 39298.934, 0.0, 9.994637, 10.002696 
2.7093917e+3, 1.3044658e+2, -1806275.4, -1832157.6, -292207.63, -0.038834304, -0.08690516, -1526722.5, 134903.3, 0.028415078, 9.999688, 9.999107 
2.7090523e+3, 1.4044647e+2, -1234696.5, -1773670.0, -101083.61, -0.13934335, 0.4693466, -1216362.1, 347277.34, 0.016713178, 10.003948, 9.997013 
2.7087185e+3, 1.5043692e+2, -1069335.8, -1447894.4, -4177.356, -0.020774478, 0.23388071, -1069289.6, 396439.94, 0.0071980846, 10.003721, 9.998543 
2.708386e+3, 1.604266e+2, -1253060.6, -1640551.9, 14441.717, 0.10978801, -0.11289441, -1252523.1, 115303.484, 0.0019202423, 10.002186, 9.997432 
2.708051e+3, 1.7042206e+2, -1141333.5, -1310657.3, 57688.242, -0.033498675, 0.102998495, -1123547.5, 146328.13, 0.00025324232, 10.001598, 9.999127 
2.707716e+3, 1.8041791e+2, -1251746.6, -1513422.3, 26249.361, -0.2154412, 0.3424193, -1249139.4, -77217.37, 0.000008369746, 10.000779, 9.997605 
2.707382e+3, 1.9041018e+2, -832010.3, -1102721.9, -19915.164, -0.073168546, 0.2644083, -830553.06, 243448.47, 0.0, 10.002608, 9.998711 
2.707049e+3, 2.0040286e+2, -482443.2, -812423.7, 53827.723, 0.069904655, 0.15865135, -473884.56, 502189.9, 0.0, 10.003694, 9.999711 
2.7067187e+3, 2.1039884e+2, -506426.94, -377993.3, 89659.07, 0.11932143, 0.07805643, -331926.2, 546177.1, 0.0, 10.001379, 10.002992 
2.706388e+3, 2.2039512e+2, -1036007.1, -1023270.56, -35944.863, 0.078495644, 0.017686805, -993134.2, -213003.7, 0.0, 9.998766, 9.999262 
2.7060512e+3, 2.3038909e+2, -904400.1, -1003777.06, -106485.586, -0.22539525, 0.10710767, -836580.6, -154382.66, 0.0, 9.999665, 9.998148 
2.7057153e+3, 2.4038276e+2, -688761.94, -979369.9, -62288.176, -0.46408486, 0.19920447, -675974.0, -91705.15, 0.0, 10.000731, 9.997292 
2.705386e+3, 2.5037658e+2, -543167.5, -645262.5, 33345.996, -0.11014241, 0.26504025, -533241.2, -46912.688, 0.0, 10.00042, 9.99889 
2.7050567e+3, 2.603702e+2, -593212.56, -728895.6, 70194.805, 0.26830727, 0.28672802, -563433.5, -175045.36, 0.0, 9.999679, 9.998109 
2.7047217e+3, 2.703615e+2, -387388.3, -361508.1, -8627.066, 0.19534092, 0.013510156, -358895.97, -68427.74, 0.0, 9.999692, 9.999817 
2.704386e+3, 2.803532e+2, -414977.2, -499748.5, 54303.785, 0.07997352, -0.2529336, -388475.66, -195931.33, 0.0, 9.99935, 9.998518 
2.7040544e+3, 2.9035074e+2, -225697.4, -203018.5, 80685.22, -0.080772005, 0.11496444, -132879.81, -38312.137, 0.0, 9.999594, 9.999628 
2.7037224e+3, 3.0034736e+2, -371326.84, -589781.4, 22861.475, -0.24882054, 0.4106372, -368960.0, -368960.0, 0.0, 9.999208, 9.996662 
2.7033922e+3, 3.1033203e+2, -460376.56, -576009.7, 70316.75, -0.11113444, -0.2724656, -427159.1, -427159.1, 0.0, 9.998365, 9.996702 
2.7030587e+3, 3.2033032e+2, -219727.33, 192331.89, 143280.52, -0.28437203, 0.31629944, 237255.48, 237255.48, 0.0, 9.996918, 10.002752 
2.7193856e+3, 1.3077933e+2, -1615112.1, -1550899.8, -30180.64, -0.112116225, -0.007600019, -1538941.5, 119433.28, 0.02219124, 10.0003, 10.000709 
2.7190536e+3, 1.4077577e+2, -1353507.4, -1792996.4, -41516.34, 0.14446081, 0.07782033, -1349619.9, 210789.03, 0.01278431, 10.002976, 9.997358 
2.7187178e+3, 1.5076898e+2, -1044197.5, -1399729.9, -46212.83, 0.08548172, 0.078107074, -1038288.9, 424183.25, 0.00532732, 10.00384, 9.998785 
2.7183822e+3, 1.6076174e+2, -1214688.5, -1614202.6, -41137.64, 0.063615255, 0.021510705, -1210496.5, 154044.0, 0.0013580795, 10.002554, 9.9974165 
2.718047e+3, 1.7075655e+2, -1111724.6, -1257977.1, -8807.078, -0.036917847, 0.12489144, -1111196.1, 155400.03, 0.00016970174, 10.00174, 9.999381 
2.7177122e+3, 1.8075141e+2, -1428254.0, -1661159.4, 16872.041, -0.12046748, 0.258347, -1427038.1, -258386.14, 0.0000049540654, 9.999932, 9.996995 
2.71738e+3, 1.9074374e+2, -940317.75, -1199255.8, 25483.086, 0.0044998736, 0.2049256, -937833.7, 132898.17, 0.0, 10.002093, 9.998256 
2.7170482e+3, 2.0073642e+2, -835953.3, -1145505.6, 14129.14, 0.16936378, 0.16123287, -835309.75, 137496.83, 0.0, 10.002121, 9.998133 
2.7167147e+3, 2.1073201e+2, -751881.0, -642315.06, -30241.402, 0.16230267, 0.16776715, -634522.4, 240322.44, 0.0, 10.000532, 10.001478 
2.7163813e+3, 2.2072789e+2, -1353856.5, -1317565.4, -55199.8, 0.08682507, 0.20923309, -1277605.3, -500723.75, 0.0, 9.997341, 9.997913 
2.7160454e+3, 2.3072252e+2, -942864.1, -990108.56, -39599.754, -0.21909747, 0.36004084, -920376.2, -241434.4, 0.0, 9.99937, 9.998337 
2.7157107e+3, 2.4071696e+2, -857735.7, -952764.25, -32126.766, -0.44387588, 0.4817168, -847893.75, -266891.47, 0.0, 9.999294, 9.9981165 
2.715381e+3, 2.507103e+2, -498449.03, -345376.9, 15393.054, -0.08585983, 0.2667584, -343844.3, 139215.27, 0.0, 9.999665, 10.001234 
2.7150512e+3, 2.607039e+2, -831267.25, -875432.2, 58102.02, 0.2701712, 0.10742222, -791192.8, -406077.53, 0.0, 9.998284, 9.9977865 
2.7147168e+3, 2.7069798e+2, -558941.0, -565150.44, -6203.6973, 0.28920832, 0.1956118, -555108.5, -267934.3, 0.0, 9.999157, 9.998642 
2.7143824e+3, 2.806914e+2, -696118.4, -849338.75, 50747.574, 0.21740595, 0.23786426, -680835.0, -491594.94, 0.0, 9.998448, 9.996549 
2.7140486e+3, 2.9068288e+2, -403967.16, -457125.4, 58200.586, -0.097168416, 0.13260269, -366563.8, -275240.6, 0.0, 9.99914, 9.998068 
2.713715e+3, 3.006752e+2, -465874.38, -518304.94, -17073.457, -0.41623154, 0.069036014, -460804.78, -460804.78, 0.0, 9.998161, 9.997632 
2.713389e+3, 3.1066808e+2, -270653.1, -56124.297, 46357.34, 0.2545535, -0.13010347, -46535.563, -46535.563, 0.0, 9.997911, 10.000425 
2.7130544e+3, 3.2066673e+2, -342280.97, -33185.074, 332680.63, -0.038379263, 0.24740124, 179093.19, 179093.19, 0.0, 9.996948, 10.001124 
2.7293795e+3, 1.3111553e+2, -1405470.5, -1415930.4, -13128.28, -0.4693323, 0.24674623, -1396568.8, 258513.25, 0.016854309, 10.001592, 10.001019 
2.7290526e+3, 1.4110768e+2, -1409130.6, -1822805.4, 11282.875, 0.2018592, -0.10192064, -1408823.1, 148328.84, 0.009467287, 10.002539, 9.997376 
2.728716e+3, 1.511015e+2, -1000668.7, -1425799.8, -10742.023, -0.00086612784, -0.00061041553, -1000397.44, 458816.78, 0.0037924994, 10.004345, 9.99835 
2.7283794e+3, 1.6109534e+2, -867662.8, -1441524.0, -101908.016, -0.18224622, 0.08746536, -850103.0, 511173.7, 0.0009170214, 10.004864, 9.997479 
2.7280435e+3, 1.710895e+2, -940912.1, -1203346.9, -131565.17, -0.13774475, 0.15016052, -886314.0, 377022.88, 0.0001065257, 10.002951, 9.999203 
2.727708e+3, 1.8108383e+2, -1236104.3, -1492858.6, -52548.902, -0.11943408, 0.23200901, -1225765.6, -60369.92, 0.0000025959862, 10.000818, 9.99774 
2.727376e+3, 1.9107682e+2, -984957.94, -1170044.0, 35196.137, -0.04190507, 0.19800457, -978491.0, 88978.125, 0.0, 10.001445, 9.998855 
2.727044e+3, 2.010703e+2, -876271.3, -1099380.3, -10082.065, 0.027815877, 0.19498226, -875816.7, 93719.26, 0.0, 10.001439, 9.998796 
2.7267092e+3, 2.1106613e+2, -758122.06, -731061.0, -44790.574, 0.0468513, 0.27357507, -697801.94, 173771.58, 0.0, 10.000742, 10.000831 
2.7263746e+3, 2.2106177e+2, -856223.6, -1005314.2, 48229.758, 0.009861013, 0.35409766, -841982.06, -68368.9, 0.0, 10.0003, 9.998641 
2.7260414e+3, 2.3105486e+2, -551763.75, -719475.2, 136812.31, -0.165222, 0.2869775, -475153.3, 200528.61, 0.0, 10.001582, 9.999154 
2.7257085e+3, 2.4104834e+2, -394808.97, -667459.7, 54653.51, -0.2688209, 0.2652649, -384261.56, 193485.7, 0.0, 10.002065, 9.998757 
2.7253762e+3, 2.510425e+2, -504711.28, -420103.22, -104579.53, -0.015301053, 0.18569922, -349595.4, 130207.96, 0.0, 9.99981, 10.000723 
2.7250442e+3, 2.610369e+2, -800356.44, -801926.1, -141604.17, 0.25753915, 0.14118485, -659534.94, -277678.53, 0.0, 9.998094, 9.998407 
2.7247116e+3, 2.7103215e+2, -321950.53, -442502.7, -75722.83, 0.31978273, 0.32020563, -285442.56, -1536.9636, 0.0, 10.000644, 9.998823 
2.7243787e+3, 2.810265e+2, -116240.8, -529838.7, 34857.363, 0.3231675, 0.4554298, -113323.65, 72639.84, 0.0, 10.00212, 9.997 
2.724043e+3, 2.9101652e+2, -252012.7, -419534.16, 96771.55, -0.09458392, 0.21549807, -207786.73, -119726.13, 0.0, 10.0002, 9.997861 
2.7237082e+3, 3.0100754e+2, -352879.8, -314658.34, 96780.484, -0.40665582, 0.025463881, -235119.8, -235119.8, 0.0, 9.998174, 9.999037 
2.7233842e+3, 3.1100357e+2, 78033.766, 277693.38, -3257.1877, 0.4715848, -0.014039321, 277746.5, 277746.5, 0.0, 9.999421, 10.002092 
2.7230477e+3, 3.210019e+2, -203392.53, -56310.695, 101927.91, 0.034984827, 0.2626706, -4163.2485, -4163.2485, 0.0, 9.998039, 10.000537 
2.7393752e+3, 1.3145167e+2, -1454529.5, -1435025.5, 73328.27, -0.5572861, 0.4715342, -1370803.6, 280984.06, 0.012358647, 10.001322, 10.000941 
2.739051e+3, 1.414404e+2, -1612180.9, -1998061.5, 26655.035, 0.33524835, -0.1888759, -1610348.4, -56460.35, 0.0067449408, 10.001541, 9.996599 
2.738714e+3, 1.514346e+2, -1200937.5, -1582707.9, 38043.65, -0.096564375, -0.026118467, -1197183.4, 258768.98, 0.0025850076, 10.003212, 9.997785 
2.738377e+3, 1.6142891e+2, -1165659.4, -1654252.5, -125147.17, -0.36653098, 0.16230874, -1135469.9, 222545.14, 0.0005889778, 10.003166, 9.996815 
2.7380404e+3, 1.7142227e+2, -1040351.8, -1295388.5, -188456.02, -0.18181826, 0.16331539, -940325.44, 319755.1, 0.00006228534, 10.002481, 9.998784 
2.7377042e+3, 1.8141598e+2, -1305905.0, -1532262.3, -26601.613, -0.038035348, 0.22324263, -1302820.8, -140677.55, 0.0000011486238, 10.000477, 9.997607 
2.7373716e+3, 1.9141012e+2, -973815.25, -1051964.0, 76068.47, -0.0918587, 0.20941731, -927372.25, 136832.19, 0.0, 10.00117, 9.999711 
2.7370384e+3, 2.0140493e+2, -1044311.1, -1199929.3, -15598.441, -0.12940273, 0.27735165, -1042763.0, -76505.05, 0.0, 10.000514, 9.998515 
2.7367026e+3, 2.1140102e+2, -799082.4, -794052.0, -80633.97, -0.1175504, 0.38639605, -715894.0, 152398.48, 0.0, 10.000682, 10.000394 
2.7363685e+3, 2.2139603e+2, -1031108.2, -1099908.3, 71622.89, -0.10177871, 0.4367533, -986052.56, -215716.98, 0.0, 9.999255, 9.998473 
2.7360386e+3, 2.3138613e+2, -592330.3, -608436.25, 161987.64, -0.060972586, -0.045743503, -438195.6, 234226.73, 0.0, 10.000868, 10.000198 
2.7357075e+3, 2.4137744e+2, -814419.75, -1118005.3, -18290.758, -0.020267524, -0.2904834, -813321.75, -238818.67, 0.0, 10.000372, 9.99646 
2.735371e+3, 2.5137338e+2, -830622.2, -914579.4, -214449.08, 0.05251649, 0.06434589, -654081.6, -177523.14, 0.0, 9.999126, 9.997595 
2.7350357e+3, 2.6136947e+2, -1067404.5, -1014673.9, -111547.01, 0.10948962, 0.41366345, -926418.7, -547809.06, 0.0, 9.996768, 9.997546 
2.7347055e+3, 2.7136365e+2, -286815.3, -250014.13, 31772.467, 0.1808043, 0.33914837, -231698.63, 48967.797, 0.0, 10.000205, 10.000307 
2.7343744e+3, 2.8135794e+2, -175691.81, -443547.34, 14854.356, 0.18230301, 0.3312554, -174870.56, 7849.9473, 0.0, 10.001378, 9.9979105 
2.7340382e+3, 2.913529e+2, -189292.92, -198279.88, 19154.924, -0.07593529, 0.41514325, -174111.48, -89346.12, 0.0, 9.999941, 9.999454 
2.7337024e+3, 3.0134702e+2, -552223.8, -543121.1, 111339.91, -0.35476092, 0.46247035, -436239.56, -436239.56, 0.0, 9.997504, 9.99777 
2.7333736e+3, 3.1133732e+2, -95816.31, -45598.55, 52094.97, -0.026958654, 0.015689239, -12877.15, -12877.15, 0.0, 9.999395, 9.999803 
2.7330396e+3, 3.2133463e+2, -259288.9, 10830.18, -174490.28, -0.15370591, 0.3101103, 96424.07, 96424.07, 0.0, 9.997409, 10.001242 
2.7493754e+3, 1.3178189e+2, -1461396.9, -1544370.4, 37356.355, -0.30654734, 0.037517153, -1447056.8, 201491.67, 0.008685479, 10.001593, 10.000138 
2.749047e+3, 1.4177652e+2, -1584736.6, -1925492.6, 60286.215, 0.17341529, 0.027246725, -1574385.3, -23786.96, 0.0045926278, 10.00138, 9.997201 
2.7487105e+3, 1.5177143e+2, -1371545.4, -1587707.4, 126650.79, -0.15964723, 0.19023812, -1313127.3, 139528.97, 0.0016782226, 10.001591, 9.99861 
2.7483746e+3, 1.6176553e+2, -1362794.8, -1650148.9, -21990.688, -0.3521169, 0.30584908, -1361121.5, -6401.5083, 0.0003582281, 10.00133, 9.997729 
2.7480382e+3, 1.7175777e+2, -1065607.9, -1263742.8, -59637.28, -0.091443636, 0.16227064, -1049042.5, 207751.13, 0.000033741435, 10.002119, 9.999174 
2.7477023e+3, 1.8175066e+2, -1027547.0, -1378906.1, 108936.69, 0.04806207, 0.13456686, -996512.94, 162348.92, 0.00000040337267, 10.002237, 9.9978075 
2.7473685e+3, 1.9174476e+2, -868076.6, -1079649.8, 156795.23, -0.08488277, 0.1825393, -784718.94, 276203.9, 0.0, 10.002127, 9.999096 
2.747034e+3, 2.0173912e+2, -824913.0, -1133413.1, 8134.3633, -0.19693933, 0.2732054, -824698.7, 138281.17, 0.0, 10.002061, 9.998247 
2.7466992e+3, 2.1173276e+2, -466442.0, -728608.5, -64790.098, -0.16047004, 0.22077435, -451304.25, 413733.06, 0.0, 10.003246, 9.999663 
2.7463654e+3, 2.2172631e+2, -379606.7, -776543.56, 20685.947, -0.114222884, 0.17635897, -378531.56, 388563.28, 0.0, 10.0035305, 9.998683 
2.7460352e+3, 2.3171832e+2, -480227.1, -596810.6, 30859.314, -0.03996839, -0.07010166, -472562.63, 196603.69, 0.0, 10.001654, 10.000011 
2.7457035e+3, 2.4171104e+2, -793596.4, -1033889.0, -181574.95, 0.035581432, -0.17584884, -696016.7, -124781.14, 0.0, 10.000046, 9.9972315 
2.745366e+3, 2.5170648e+2, -632021.75, -847908.94, -212428.83, 0.101244316, 0.1418955, -501684.34, -28387.766, 0.0, 10.000497, 9.997476 
2.74503e+3, 2.617019e+2, -432603.13, -635819.6, 87929.78, 0.13141252, 0.45774212, -399839.2, -24484.113, 0.0, 10.000675, 9.998297 
2.7446994e+3, 2.7169517e+2, -262496.3, -228699.83, 136546.95, 0.04711437, 0.29058442, -108009.484, 169410.95, 0.0, 10.000201, 10.000508 
2.7443686e+3, 2.8168935e+2, -315891.3, -371173.06, -46533.438, 0.013138227, 0.23174296, -289408.47, -109934.08, 0.0, 9.999697, 9.999231 
2.744034e+3, 2.9168707e+2, -83261.36, -25538.82, -138659.11, 0.008119665, 0.4931863, 87230.84, 168721.4, 0.0, 10.000113, 10.000591 
2.7436978e+3, 3.016824e+2, -252358.88, -427088.2, -9066.396, -0.15375812, 0.60687435, -251889.69, -251889.69, 0.0, 9.999602, 9.997582 
2.7433634e+3, 3.1166804e+2, -223135.3, -276306.44, 7932.7915, -0.4751898, -0.17615777, -221977.02, -221977.02, 0.0, 9.999162, 9.998375 
2.7430347e+3, 3.216677e+2, 106927.47, 208822.45, -351059.8, 0.03210676, 0.45968738, 512612.4, 512612.4, 0.0, 9.999717, 10.001483 
2.759376e+3, 1.3211304e+2, -1479646.0, -1596113.9, 8476.049, 0.07816082, -0.29648232, -1479032.4, 166270.56, 0.0058229333, 10.001808, 9.999566 
2.7590424e+3, 1.4211424e+2, -1563924.3, -1895378.3, 4936.818, 0.12416525, 0.36774242, -1563850.6, -16555.473, 0.0029696852, 10.001568, 9.997278 
2.758707e+3, 1.5210912e+2, -1291944.1, -1405187.6, 83539.586, -0.11234546, 0.41556922, -1247645.6, 201706.16, 0.0010279784, 10.0016775, 9.999745 
2.758372e+3, 1.6210288e+2, -1421135.4, -1652298.5, -43169.074, -0.16674484, 0.4136797, -1413336.8, -61920.176, 0.0002033788, 10.000867, 9.997943 
2.7580363e+3, 1.7209436e+2, -1010981.06, -1203905.9, -88283.234, 0.076696195, 0.14439219, -976680.6, 276814.38, 0.000016580547, 10.002356, 9.999471 
2.757701e+3, 1.8208654e+2, -1118852.6, -1530497.8, 68433.23, 0.21126741, 0.054290105, -1107774.1, 47793.723, 0.00000009587778, 10.002195, 9.996767 
2.757366e+3, 1.9208002e+2, -964660.0, -1255056.3, 103430.14, 0.011400074, 0.13442953, -931587.9, 126046.22, 0.0, 10.002126, 9.997862 
2.7570316e+3, 2.0207284e+2, -1059777.9, -1414803.5, 36050.715, -0.13269259, 0.21539773, -1056154.1, -96449.69, 0.0, 10.001281, 9.996683 
2.7566978e+3, 2.120627e+2, -632746.44, -909450.2, -19839.02, -0.07634121, -0.13641782, -631331.25, 230466.22, 0.0, 10.002646, 9.998669 
2.756364e+3, 2.2205466e+2, -742171.2, -1102465.9, -2648.6396, -0.018670056, -0.22560102, -742151.7, 21721.248, 0.0, 10.001914, 9.997161 
2.7560306e+3, 2.3205183e+2, -688206.4, -815813.94, -29854.037, -0.08882619, 0.1356385, -681567.4, -15660.249, 0.0, 10.000903, 9.998795 
2.7556965e+3, 2.4204832e+2, -971541.25, -1053225.3, -192370.94, -0.09811404, 0.47689155, -815724.56, -247777.31, 0.0, 9.998731, 9.997675 
2.7553612e+3, 2.5204125e+2, -577996.3, -580000.75, -190303.64, 0.12660791, 0.31856766, -388692.25, 81327.91, 0.0, 9.999914, 9.999537 
2.755026e+3, 2.6203412e+2, -706863.1, -877501.56, 90395.5, 0.19345985, 0.26324174, -667881.44, -295787.56, 0.0, 9.999395, 9.997239 
2.7546924e+3, 2.7202675e+2, -497279.34, -515332.5, 105440.38, -0.1483359, 0.17014256, -400479.88, -126312.59, 0.0, 9.999502, 9.998829 
2.7543598e+3, 2.820205e+2, -567314.2, -588595.56, -75636.39, -0.30594972, 0.21305889, -501573.66, -325346.5, 0.0, 9.998515, 9.998291 
2.7540287e+3, 2.9201722e+2, -158108.9, -68569.26, -139850.11, 0.031147126, 0.36516908, 33502.293, 111754.54, 0.0, 9.999672, 10.000496 
2.7536947e+3, 3.0201074e+2, -362381.84, -520298.34, -74553.16, 0.003981178, 0.32273686, -332746.47, -332746.47, 0.0, 9.99913, 9.997153 
2.7533546e+3, 3.1199345e+2, -324347.1, -325371.4, -55910.77, -0.72201234, -0.76800954, -268946.13, -268946.13, 0.0, 9.998542, 9.998318 
2.7530298e+3, 3.220001e+2, -76106.016, -171854.69, 35462.113, -0.063214436, 0.63964653, -64402.56, -64402.56, 0.0, 9.999915, 9.998707 
2.769371e+3, 1.3245064e+2, -1351152.0, -1487837.6, -115631.07, -0.26790005, 0.22263348, -1285177.0, 356836.3, 0.0036893368, 10.002478, 9.9999695 
2.7690434e+3, 1.4244817e+2, -1350214.9, -1692565.1, -48678.773, 0.41283417, 0.47271147, -1343427.8, 200605.88, 0.001804221, 10.002611, 9.998143 
2.7687046e+3, 1.5244137e+2, -1186850.0, -1284520.9, 6281.6475, -0.06562604, 0.281082, -1186447.6, 259650.5, 0.00058557204, 10.002093, 10.000362 
2.7683675e+3, 1.6243476e+2, -1264273.6, -1570266.3, -107032.336, -0.31648412, 0.2001988, -1230551.5, 117611.36, 0.00010501939, 10.001827, 9.998055 
2.7680334e+3, 1.7242877e+2, -815719.06, -1170750.1, -138334.36, -0.01890552, 0.221684, -768183.1, 482040.88, 0.0000068884756, 10.003826, 9.999067 
2.7676994e+3, 1.8242264e+2, -703889.0, -1238611.5, -65156.824, 0.14977044, 0.29912454, -696064.06, 456220.66, 0.00000000965895, 10.004564, 9.997652 
2.767364e+3, 1.924155e+2, -698048.06, -1049054.0, 41141.766, 0.0065600234, 0.25143692, -693290.3, 361061.6, 0.0, 10.003544, 9.998648 
2.7670288e+3, 2.0240802e+2, -821088.8, -1209753.3, 62586.086, -0.12642372, 0.23113471, -811259.25, 145162.6, 0.0, 10.002431, 9.997559 
2.7666947e+3, 2.1239874e+2, -644589.3, -925659.44, 78195.69, -0.106740616, -0.016920185, -624299.4, 234206.72, 0.0, 10.002506, 9.998696 
2.766361e+3, 2.2239079e+2, -670176.06, -1057197.0, 74398.68, -0.07967895, -0.07768621, -656366.8, 104214.74, 0.0, 10.0022335, 9.997345 
2.766027e+3, 2.3238625e+2, -637990.0, -883811.2, 67598.695, -0.074389346, 0.19865654, -620627.3, 42007.76, 0.0, 10.001485, 9.998129 
2.7656922e+3, 2.4238165e+2, -550033.7, -778133.6, -35435.664, -0.0473683, 0.47587678, -544655.56, 20031.918, 0.0, 10.00116, 9.998435 
2.7653566e+3, 2.5237495e+2, -169257.88, -342655.56, -115263.37, 0.102285475, 0.35023323, -111726.58, 355027.56, 0.0, 10.002447, 9.999998 
2.7650216e+3, 2.6236793e+2, -159413.81, -533743.6, 39745.613, 0.1495394, 0.26548836, -155240.23, 213582.89, 0.0, 10.002739, 9.997983 
2.764687e+3, 2.7236038e+2, -300198.9, -449333.4, 125049.19, -0.18229303, 0.18290205, -229172.28, 41724.516, 0.0, 10.000894, 9.998669 
2.7643538e+3, 2.823538e+2, -430270.38, -536887.94, 84768.92, -0.32276177, 0.2313888, -383441.28, -210481.03, 0.0, 9.9993725, 9.998255 
2.7640232e+3, 2.9234937e+2, -131013.36, -169434.47, -32920.48, 0.021259032, 0.3577583, -112108.26, -37109.07, 0.0, 10.000108, 9.999687 
2.7636892e+3, 3.0234164e+2, -177216.53, -396243.97, -25948.363, 0.024821863, 0.24581173, -174184.39, -174184.39, 0.0, 10.000135, 9.997519 
2.7633485e+3, 3.123243e+2, -64356.773, -160423.94, -24524.303, -0.7516822, -0.87819576, -58458.3, -58458.3, 0.0, 10.000101, 9.998689 
2.7630243e+3, 3.2233417e+2, -342826.22, -236269.25, 320482.78, -0.05642576, 0.82375646, 35333.477, 35333.477, 0.0, 9.997717, 9.999304 
2.779367e+3, 1.3278855e+2, -1453623.9, -1471598.4, 26003.057, -0.42307088, 0.78359306, -1435098.8, 203621.52, 0.00217142, 10.001558, 10.0005 
2.779045e+3, 1.4278077e+2, -1275785.9, -1662637.8, -26804.674, 0.8430751, 0.45687994, -1273937.4, 266846.5, 0.0010072395, 10.003108, 9.998157 
2.778702e+3, 1.5277238e+2, -1054192.9, -1196585.5, -33263.4, 0.022371579, 0.06625854, -1046805.6, 396050.1, 0.00030058212, 10.002835, 10.000669 
2.778363e+3, 1.627657e+2, -1312020.9, -1639277.0, -66583.03, -0.4311333, -0.01486603, -1298992.8, 45925.45, 0.000046417692, 10.001782, 9.997597 
2.7780306e+3, 1.7276286e+2, -938707.44, -1278520.5, -64557.17, -0.10562927, 0.34629917, -926856.3, 320102.25, 0.0000020738605, 10.00329, 9.998551 
2.7776977e+3, 1.827589e+2, -861957.7, -1236011.0, -36108.152, 0.09190694, 0.6624316, -858504.0, 290499.84, 0.00000000000031198744, 10.003248, 9.998268 
2.777362e+3, 1.9275136e+2, -687269.7, -860600.0, -10590.136, 0.004381687, 0.394555, -686625.06, 364444.78, 0.0, 10.002938, 10.000172 
2.7770263e+3, 2.0274447e+2, -935934.2, -1247943.0, 44924.992, -0.074913695, 0.33806255, -929594.44, 23535.563, 0.0, 10.001711, 9.997604 
2.776691e+3, 2.1273838e+2, -698983.0, -915000.3, 53022.98, -0.17952177, 0.3541901, -686669.94, 168514.38, 0.0, 10.002098, 9.998916 
2.7763563e+3, 2.2273114e+2, -924645.8, -1268293.1, 38124.332, -0.17593832, 0.38976282, -920467.1, -163214.53, 0.0, 10.000965, 9.996476 
2.7760237e+3, 2.3272058e+2, -778555.7, -986548.25, 22962.781, 0.025735896, 0.07183723, -776050.75, -116690.55, 0.0, 10.000765, 9.997711 
2.7756897e+3, 2.4271244e+2, -847113.56, -1061645.8, -15478.541, 0.13050547, 0.062747814, -846002.5, -284557.38, 0.0, 9.999887, 9.997066 
2.775353e+3, 2.527083e+2, -375649.16, -566669.1, -67231.31, 0.01823316, 0.288711, -354359.28, 109132.53, 0.0, 10.001694, 9.998793 
2.7750167e+3, 2.6270333e+2, -367854.0, -589640.94, -1347.8099, -0.05970757, 0.48822945, -367845.8, -2303.1563, 0.0, 10.001289, 9.998235 
2.7746835e+3, 2.7269605e+2, -322829.13, -299378.56, 59351.785, -0.087687716, 0.27063036, -250604.94, 17004.133, 0.0, 10.00016, 9.999989 
2.77435e+3, 2.8268954e+2, -663131.9, -767482.4, 81712.72, -0.14271949, 0.29013556, -618357.5, -448687.0, 0.0, 9.998447, 9.997076 
2.7740163e+3, 2.9268426e+2, -342594.4, -432938.03, 11584.169, -0.17377433, 0.45846406, -341132.7, -269406.4, 0.0, 9.999526, 9.998077 
2.7736807e+3, 3.026775e+2, -302042.16, -464024.8, -14310.344, -0.37905762, 0.56049263, -300787.63, -300787.63, 0.0, 9.99948, 9.9973345 
2.7733448e+3, 3.1266558e+2, -74305.734, -71429.414, 236.48367, -0.61605906, -0.10402319, -71410.1, -71410.1, 0.0, 9.999746, 9.99945 
2.7730155e+3, 3.2266864e+2, -228909.88, 506971.66, 69860.49, -0.19999158, 0.65662205, 513545.1, 513545.1, 0.0, 9.995707, 10.005372 
2.7893686e+3, 1.3312113e+2, -1533242.6, -1565885.3, 285066.53, 0.024072582, 0.4571988, -1264030.5, 371419.9, 0.0011689387, 10.001127, 10.000143 
2.789041e+3, 1.4311379e+2, -993054.4, -1601521.3, 41219.81, 0.40366045, 0.27612594, -990274.7, 547242.1, 0.0005049565, 10.00533, 9.997522 
2.7887005e+3, 1.5310708e+2, -892653.25, -1219899.9, -27435.91, -0.039680243, 0.14813545, -890369.0, 549212.4, 0.00013439951, 10.004351, 9.999801 
2.7883625e+3, 1.631014e+2, -1049203.5, -1410940.0, -57633.027, -0.2725987, 0.20046742, -1040243.1, 301394.7, 0.000016423304, 10.003085, 9.998546 
2.7880284e+3, 1.7309795e+2, -940191.44, -1162093.9, 24072.719, -0.14763218, 0.4099761, -937609.94, 306069.25, 0.0000003300107, 10.002707, 9.999653 
2.787694e+3, 1.830937e+2, -936195.8, -1192214.0, 47036.332, -0.07464873, 0.60742867, -927827.7, 217895.89, 0.0, 10.002274, 9.9990835 
2.7873594e+3, 1.930863e+2, -678550.1, -865728.8, 38515.035, -0.018343361, 0.38262635, -670934.9, 376853.4, 0.0, 10.002874, 10.000273 
2.7870247e+3, 2.0307952e+2, -704086.9, -1045477.56, 25024.268, -0.010263454, 0.31650147, -702262.3, 247585.47, 0.0, 10.002862, 9.998428 
2.786689e+3, 2.1307372e+2, -596722.94, -848954.8, 43936.46, -0.10078206, 0.35583875, -589288.75, 262611.97, 0.0, 10.002683, 9.99911 
2.786354e+3, 2.230668e+2, -646480.56, -1071243.0, 25610.84, -0.12317215, 0.39642182, -644941.94, 109024.836, 0.0, 10.002453, 9.9971485 
2.7860197e+3, 2.3305668e+2, -532581.44, -872807.06, 32131.844, 0.0076258453, 0.13235505, -529573.4, 126496.1, 0.0, 10.002309, 9.997824 
2.785685e+3, 2.4304849e+2, -530218.56, -849586.9, 30954.465, 0.08078637, 0.10100334, -527246.0, 30908.193, 0.0, 10.00173, 9.997631 
2.7853483e+3, 2.530439e+2, -495934.28, -644881.7, 35293.715, -0.019158961, 0.32006988, -487994.53, -27789.053, 0.0, 10.000873, 9.998682 
2.7850124e+3, 2.6303884e+2, -415004.78, -540433.5, 117831.984, -0.09712506, 0.50388235, -344237.06, 18019.95, 0.0, 10.000514, 9.998984 
2.7846786e+3, 2.730318e+2, -86001.02, -174625.67, 75191.94, -0.117973454, 0.31691766, -43035.58, 221283.6, 0.0, 10.001559, 10.000257 
2.7843451e+3, 2.8302523e+2, -186177.77, -520819.56, 90639.53, -0.11209451, 0.31779203, -163204.66, 3176.3489, 0.0, 10.0015745, 9.99726 
2.784011e+3, 2.930192e+2, -146526.52, -391858.88, 88452.875, -0.20380892, 0.47404897, -117961.41, -49512.902, 0.0, 10.001044, 9.997638 
2.7836752e+3, 3.0301297e+2, -228827.34, -383378.1, 87057.586, -0.38682, 0.64803165, -189696.08, -189696.08, 0.0, 9.99963, 9.997852 
2.7833402e+3, 3.130058e+2, -385311.97, -218152.33, 17839.273, -0.41737273, 0.4628987, -216269.72, -216269.72, 0.0, 9.997396, 9.999671 
2.7830058e+3, 3.2300147e+2, 74948.86, 1024519.2, -246941.31, -0.2211801, 0.36377576, 1084898.5, 1084898.5, 0.0, 9.996015, 10.008851 
2.7993706e+3, 1.3345358e+2, -1329240.0, -1562929.9, 454280.13, 0.55845845, 0.088112846, -977018.7, 655160.44, 0.0005685035, 10.002969, 9.999229 
2.799036e+3, 1.4344788e+2, -1372405.6, -1928521.3, -5287.8076, -0.072140284, 0.13760492, -1372355.4, 161883.39, 0.00022583413, 10.003438, 9.996126 
2.798699e+3, 1.5344314e+2, -1118324.0, -1468465.4, -72892.02, -0.030494636, 0.31285313, -1103755.6, 332539.7, 0.00005282333, 10.003464, 9.998466 
2.7983633e+3, 1.634383e+2, -1115315.1, -1351238.4, -39430.84, 0.0344744, 0.4998785, -1108899.4, 229448.9, 0.000004777361, 10.002372, 9.999213 
2.798026e+3, 1.7343324e+2, -894521.2, -979462.6, -7435.1714, -0.11828443, 0.38699344, -893875.3, 346520.34, 0.00000002399446, 10.002402, 10.000984 
2.79769e+3, 1.8342799e+2, -1068944.0, -1316342.6, 44964.047, -0.15557128, 0.43473783, -1061025.4, 81418.19, 0.0, 10.001763, 9.998424 
2.797357e+3, 1.9342114e+2, -860041.25, -1003501.0, 33872.027, 0.02809989, 0.29116967, -852445.9, 192058.84, 0.0, 10.00197, 9.999702 
2.7970234e+3, 2.0341423e+2, -965340.94, -1222791.9, 25024.807, 0.1522945, 0.27109155, -962931.0, -16363.51, 0.0, 10.001377, 9.997904 
2.7966884e+3, 2.1340644e+2, -735314.44, -905822.4, 28185.934, 0.12351427, 0.08027971, -730775.94, 117864.625, 0.0, 10.001736, 9.999144 
2.7963525e+3, 2.234e+2, -882008.56, -1175541.9, 27584.004, 0.05036285, 0.1705878, -879438.94, -128735.0, 0.0, 10.001012, 9.99706 
2.7960157e+3, 2.3339458e+2, -659157.06, -877184.06, 25301.178, -0.08408128, 0.31474745, -656259.5, -3496.9688, 0.0, 10.001368, 9.998196 
2.7956793e+3, 2.4338862e+2, -738041.4, -948007.0, 3303.444, -0.12209124, 0.5029474, -737989.4, -183164.13, 0.0, 10.000444, 9.997534 
2.7953437e+3, 2.5338116e+2, -598654.9, -640944.6, 4473.1123, -0.008525842, 0.36247236, -598186.94, -141286.13, 0.0, 10.00005, 9.999057 
2.7950078e+3, 2.6337445e+2, -692034.4, -778444.1, 142470.31, -0.07299569, 0.40097085, -586362.0, -227395.97, 0.0, 9.999206, 9.997948 
2.7946723e+3, 2.7336764e+2, -277179.47, -371394.16, 124559.234, -0.3968266, 0.3061823, -191117.36, 69909.43, 0.0, 10.0008135, 9.999225 
2.7943388e+3, 2.8336093e+2, -287757.53, -562615.06, 61547.48, -0.4553508, 0.36429188, -274604.9, -111514.51, 0.0, 10.000971, 9.99723 
2.794008e+3, 2.9335338e+2, -151073.39, -296300.7, 70452.555, -0.08246342, 0.2741673, -122512.41, -57342.684, 0.0, 10.000685, 9.998445 
2.7936727e+3, 3.0334717e+2, -412542.88, -519196.28, -28972.92, -0.086811736, 0.4205269, -405180.47, -405180.47, 0.0, 9.99874, 9.997277 
2.793332e+3, 3.1334266e+2, -659278.06, -415360.4, -71531.01, -0.3908249, 0.54969877, -395930.97, -395930.97, 0.0, 9.995936, 9.998943 
2.7929947e+3, 3.233334e+2, -329553.4, 341168.06, -33537.805, -0.520278, 0.15623684, 342840.84, 342840.84, 0.0, 9.995621, 10.004212 
2.8093675e+3, 1.3378765e+2, -1094020.8, -1617552.5, 133117.36, 0.11409221, 0.18642868, -1062117.5, 566796.1, 0.00025074874, 10.005187, 9.997853 
2.809033e+3, 1.4378412e+2, -1494821.6, -1733752.3, -133811.86, -0.09809968, 0.44472936, -1434905.9, 96049.42, 0.00009142473, 10.001471, 9.998429 
2.808697e+3, 1.5378056e+2, -1185856.5, -1270488.5, -14151.979, -0.021519026, 0.5231861, -1183552.8, 249444.23, 0.000018191195, 10.001938, 10.000611 
2.8083608e+3, 1.6377592e+2, -1097706.1, -1300980.4, 47836.215, 0.020120136, 0.6079836, -1087011.6, 248033.7, 0.000001253609, 10.002229, 9.999652 
2.808023e+3, 1.7377007e+2, -861996.25, -1008847.5, 48525.918, -0.13736553, 0.46998566, -847410.06, 389688.5, 0.0000000065346386, 10.002708, 10.000698 
2.807687e+3, 1.8376413e+2, -978405.7, -1217011.6, 32.375885, -0.18801546, 0.45837906, -978405.7, 160745.69, 0.0, 10.002097, 9.9989395 
2.8073528e+3, 1.9375709e+2, -1029019.6, -1089013.3, 30801.242, -0.0062905164, 0.3093077, -1016021.94, 25191.828, 0.0, 10.000753, 9.999733 
2.807019e+3, 2.0375009e+2, -1108655.3, -1233781.6, 60590.055, 0.14462346, 0.26485622, -1084124.8, -140847.66, 0.0, 10.000064, 9.998458 
2.8066847e+3, 2.1374236e+2, -854528.0, -967439.7, 73670.83, 0.18393831, 0.09777492, -818168.7, 27181.008, 0.0, 10.0008335, 9.9992 
2.8063494e+3, 2.2373605e+2, -740035.0, -995353.25, 52445.066, 0.117801726, 0.16430557, -729682.0, 17728.916, 0.0, 10.001419, 9.998117 
2.8060123e+3, 2.3373134e+2, -514535.56, -746336.0, 72387.945, -0.077748545, 0.34297922, -493787.03, 155673.88, 0.0, 10.001987, 9.998836 
2.8056753e+3, 2.4372554e+2, -422373.75, -813370.3, 28534.781, -0.14907795, 0.5147767, -420302.28, 131219.73, 0.0, 10.002524, 9.997489 
2.80534e+3, 2.537173e+2, -175786.86, -532039.7, -52972.08, -0.020051893, 0.39136007, -168077.16, 285529.97, 0.0, 10.003188, 9.998366 
2.8050038e+3, 2.6370984e+2, -144956.08, -529035.6, 43010.066, -0.07799381, 0.38947093, -140198.64, 215481.88, 0.0, 10.002869, 9.9979515 
2.8046674e+3, 2.7370253e+2, -262445.72, -428903.5, 42042.84, -0.4525167, 0.3103208, -252429.52, 5316.7466, 0.0, 10.001023, 9.998805 
2.8043333e+3, 2.836956e+2, -425338.44, -557354.94, 7189.7065, -0.49649733, 0.33403715, -424948.03, -265135.25, 0.0, 9.99955, 9.998017 
2.8040034e+3, 2.936882e+2, -336298.3, -361075.56, -33185.938, -0.015304548, 0.23699656, -313264.0, -251373.48, 0.0, 9.999118, 9.9988575 
2.8036678e+3, 3.0368236e+2, -348588.2, -390105.5, -137202.36, 0.06726314, 0.3616936, -230582.98, -230582.98, 0.0, 9.998693, 9.9981785 
2.8033248e+3, 3.13679e+2, -158889.25, -138484.52, -126091.4, -0.31081274, 0.575933, -22183.404, -22183.404, 0.0, 9.999122, 9.99935 
2.8029865e+3, 3.2366815e+2, -199028.78, -23826.166, 117787.31, -0.5141269, 0.1662927, 35364.348, 35364.348, 0.0, 9.998201, 10.000522 
2.8193635e+3, 1.3412213e+2, -1226544.6, -1736578.0, 22179.268, -0.2540045, 0.3521143, -1225582.0, 400066.4, 0.00010745089, 10.004736, 9.997162 
2.8190315e+3, 1.4412138e+2, -1488305.1, -1458390.8, -39441.633, 0.1376332, 0.8493326, -1431165.4, 96497.555, 0.00003510944, 10.000475, 10.000743 
2.818694e+3, 1.5411824e+2, -1083475.3, -906253.4, 6326.717, 0.05853938, 0.6821816, -906027.8, 523666.88, 0.0000055355054, 10.001412, 10.00332 
2.8183576e+3, 1.6411382e+2, -1273155.4, -1450195.1, 59939.074, 0.03477298, 0.67597693, -1254771.3, 76965.97, 0.0000002527922, 10.001423, 9.999006 
2.818021e+3, 1.7410754e+2, -1064173.0, -1189609.9, 42287.242, -0.069715835, 0.56359285, -1051248.9, 182546.28, 0.0, 10.001817, 9.999876 
2.817684e+3, 1.8410133e+2, -1100307.5, -1276463.4, -29074.535, -0.112048514, 0.5791725, -1095632.9, 40217.793, 0.0, 10.001357, 9.99887 
2.8173482e+3, 1.940938e+2, -1003577.7, -1063942.0, -26071.064, 0.0002753508, 0.34286064, -993876.75, 44040.01, 0.0, 10.000921, 9.99982 
2.8170136e+3, 2.040869e+2, -1167446.0, -1310253.8, 75548.58, 0.12032782, 0.34021363, -1134897.5, -194919.42, 0.0, 10.000037, 9.997877 
2.8166804e+3, 2.1408004e+2, -944088.06, -1027285.8, 77330.766, 0.20426707, 0.2434097, -897877.4, -55835.773, 0.0, 10.00044, 9.998909 
2.8163457e+3, 2.2407365e+2, -865357.4, -1021235.2, 58290.44, 0.1641505, 0.31723902, -845970.8, -101869.24, 0.0, 10.000557, 9.998305 
2.8160095e+3, 2.3406683e+2, -584928.4, -680197.25, 70569.25, 0.01759928, 0.17697017, -547421.4, 98746.195, 0.0, 10.001236, 9.999578 
2.815673e+3, 2.440603e+2, -729144.75, -1149148.9, 31524.17, -0.095864095, 0.3203517, -726791.8, -178555.8, 0.0, 10.001398, 9.995671 
2.8153366e+3, 2.5405252e+2, -441439.88, -848028.4, -32545.79, -0.11916727, 0.37886402, -438851.2, 11472.105, 0.0, 10.002289, 9.996581 
2.8150004e+3, 2.6404482e+2, -368386.34, -694916.8, -24221.855, -0.18327965, 0.49070013, -366599.34, -14196.913, 0.0, 10.001767, 9.997273 
2.8146642e+3, 2.740362e+2, -394056.06, -489373.03, -20423.14, -0.31619123, 0.25470302, -389864.4, -135383.56, 0.0, 10.000254, 9.998693 
2.814329e+3, 2.8402948e+2, -605945.44, -680387.7, -44470.082, -0.37509465, 0.3386164, -585175.2, -428628.38, 0.0, 9.998653, 9.997538 
2.813995e+3, 2.9402414e+2, -485000.06, -430169.56, -56277.977, -0.23395172, 0.4294861, -394984.44, -336376.38, 0.0, 9.998236, 9.998743 
2.8136578e+3, 3.040189e+2, -332748.63, -208750.47, -137879.22, -0.27198738, 0.55985105, -119572.27, -119572.27, 0.0, 9.99814, 9.999678 
2.813319e+3, 3.1401345e+2, -69594.445, 119470.76, -79245.11, -0.3268211, 0.34984398, 148292.13, 148292.13, 0.0, 9.998864, 10.001234 
2.8129828e+3, 3.2401025e+2, -373876.72, -237299.02, 135040.89, -0.34233713, 0.64613163, -154262.36, -154262.36, 0.0, 9.997777, 9.99918 
2.829362e+3, 1.3445966e+2, -995681.94, -1196023.1, -227394.33, -0.48867574, 0.3371661, -847372.5, 774975.8, 0.000050640916, 10.004338, 10.001126 
2.8290296e+3, 1.4446045e+2, -1574773.8, -1540214.0, 127023.38, 0.36767066, 0.850325, -1429300.5, 95034.56, 0.00001538915, 10.0000305, 10.000398 
2.8286886e+3, 1.5445468e+2, -1285078.5, -1178193.4, 99718.29, -0.06271294, 0.5773653, -1118499.6, 307894.2, 0.0000020566958, 10.000709, 10.00183 
2.8283522e+3, 1.6444911e+2, -1330264.6, -1441902.6, 33059.367, -0.14323983, 0.5263339, -1321209.3, 7238.76, 0.00000005936716, 10.000816, 9.999369 
2.8280184e+3, 1.7444302e+2, -1224673.9, -1283152.1, 70013.766, 0.049159598, 0.44461536, -1178039.1, 52465.105, 0.0, 10.000708, 9.999802 
2.8276828e+3, 1.8443698e+2, -1070767.0, -1292695.4, 14452.805, 0.11096093, 0.49423432, -1069829.8, 62730.074, 0.0, 10.0016, 9.998681 
2.8273463e+3, 1.9443001e+2, -630277.0, -970606.94, -2548.9744, 0.07907269, 0.39664122, -630257.9, 404366.1, 0.0, 10.003764, 9.99914 
2.8270108e+3, 2.0442303e+2, -500426.8, -938485.06, 12936.438, 0.068416096, 0.39135835, -500045.1, 436641.5, 0.0, 10.00428, 9.998446 
2.8266755e+3, 2.1441528e+2, -551661.3, -851711.7, 47263.21, 0.04379219, 0.23707838, -544392.6, 294362.6, 0.0, 10.003054, 9.998927 
2.826341e+3, 2.2440834e+2, -540888.5, -868573.1, 31524.24, 0.035357587, 0.24905287, -537883.3, 202938.31, 0.0, 10.002673, 9.998378 
2.8260067e+3, 2.3440136e+2, -338814.53, -658308.4, -38246.215, 0.020426534, 0.17512538, -334299.9, 308594.5, 0.0, 10.0031595, 9.99889 
2.8256705e+3, 2.4439515e+2, -418417.22, -835578.6, -97837.97, -0.03136857, 0.30458283, -396610.9, 148349.66, 0.0, 10.002714, 9.997231 
2.8253332e+3, 2.5438872e+2, -505702.84, -798094.3, 9714.297, -0.096750855, 0.42366326, -505380.44, -58349.48, 0.0, 10.00135, 9.997452 
2.824997e+3, 2.6438144e+2, -456713.06, -669247.8, 135798.72, -0.11892676, 0.5118897, -390544.8, -41439.75, 0.0, 10.000806, 9.9979105 
2.8246617e+3, 2.7437252e+2, -232044.89, -444055.4, 94418.36, -0.13664795, 0.29067618, -196092.61, 55095.813, 0.0, 10.001449, 9.998446 
2.8243253e+3, 2.8436565e+2, -229861.72, -449343.22, 81532.195, -0.17626327, 0.35869852, -202889.16, -49631.81, 0.0, 10.000928, 9.998034 
2.823988e+3, 2.9436058e+2, -300410.06, -382092.94, 48653.094, -0.28025648, 0.5101264, -277728.7, -222411.97, 0.0, 9.999543, 9.998474 
2.8236496e+3, 3.0435523e+2, -157769.23, -33874.293, -11306.046, -0.40944982, 0.6121103, -32851.01, -32851.01, 0.0, 9.998861, 10.00055 
2.823313e+3, 3.1434917e+2, 43276.605, 181513.52, -125019.016, -0.289151, 0.31893733, 255248.55, 255248.55, 0.0, 9.999473, 10.001403 
2.8229785e+3, 3.243489e+2, -242210.53, -311651.63, -97152.67, -0.05679028, 0.94362485, -173760.56, -173760.56, 0.0, 9.999109, 9.998094 
2.8393602e+3, 1.3479856e+2, -1231338.0, -905981.8, -410934.34, -0.4258565, 0.31127816, -626697.06, 992333.44, 0.000026719768, 10.000901, 10.004823 
2.8390267e+3, 1.447995e+2, -1501995.4, -1731303.6, 115165.48, 0.6226429, 0.7546479, -1454142.1, 66861.64, 0.000008259606, 10.001531, 9.9983425 
2.838683e+3, 1.5479088e+2, -1397330.3, -1495532.9, 79402.37, -0.14936343, 0.40839607, -1353073.9, 70019.11, 0.0000013335809, 10.001087, 9.999452 
2.8383464e+3, 1.6478401e+2, -1376769.8, -1448846.5, 27157.184, -0.24337247, 0.34994757, -1367683.0, -42522.215, 0.000000073245815, 10.00056, 9.999385 
2.838016e+3, 1.7477788e+2, -1228969.9, -1288212.4, 25700.975, 0.28579313, 0.23476437, -1219374.3, 7843.16, 0.0, 10.000778, 9.999692 
2.8376824e+3, 1.8477213e+2, -1213470.8, -1478386.4, 84924.81, 0.44397536, 0.38057986, -1188584.0, -59311.652, 0.0, 10.00125, 9.997506 
2.837346e+3, 1.9476569e+2, -871855.8, -1224112.5, 64373.473, 0.2294757, 0.40676066, -860460.44, 170876.13, 0.0, 10.002792, 9.997807 
2.837009e+3, 2.0475836e+2, -649015.3, -973759.56, -8360.931, 0.020737564, 0.42668962, -648800.2, 284602.88, 0.0, 10.003225, 9.998666 
2.836671e+3, 2.1474913e+2, -676709.75, -893529.75, 3278.8835, -0.17757125, 0.061266385, -676660.2, 158821.2, 0.0, 10.002246, 9.998977 
2.836336e+3, 2.2474182e+2, -830682.44, -1186395.1, 65017.67, -0.19784245, 0.12702219, -819171.0, -81616.22, 0.0, 10.001591, 9.996678 
2.8360036e+3, 2.3473552e+2, -665224.0, -1017330.2, 6409.76, -0.03589108, 0.25019744, -665107.4, -25474.148, 0.0, 10.001895, 9.997005 
2.8356683e+3, 2.4473056e+2, -408380.7, -517892.06, -124314.49, 0.01400276, 0.48778364, -327297.22, 214390.88, 0.0, 10.001567, 9.999947 
2.83533e+3, 2.5472593e+2, -452691.66, -444499.5, -38720.15, 0.010993726, 0.44965437, -409659.38, 34070.14, 0.0, 10.000431, 10.0003 
2.834994e+3, 2.6472e+2, -622916.25, -751665.0, 144640.67, 0.01151486, 0.5414849, -528971.4, -183185.48, 0.0, 9.999839, 9.997746 
2.8346592e+3, 2.747116e+2, -386287.16, -560005.1, 129266.56, 0.02039736, 0.35744828, -317408.13, -69539.79, 0.0, 10.000695, 9.997964 
2.8343225e+3, 2.8470436e+2, -323769.75, -483679.2, 30792.041, -0.043256346, 0.4173255, -318045.38, -168103.75, 0.0, 10.000373, 9.998022 
2.8339833e+3, 2.9469723e+2, -404829.63, -441942.9, 25325.875, -0.20557828, 0.34074378, -391989.63, -339974.03, 0.0, 9.998983, 9.998312 
2.833643e+3, 3.046917e+2, -399808.94, -388093.06, 4545.9233, -0.44292817, 0.54139113, -386536.1, -386536.1, 0.0, 9.998389, 9.998289 
2.8333062e+3, 3.1468695e+2, -298688.53, -285687.97, -102739.72, -0.40275088, 0.60413855, -189243.11, -189243.11, 0.0, 9.998579, 9.99858 
2.8329715e+3, 3.2467702e+2, -380542.47, -428834.44, -54526.664, -0.25567588, 0.38724354, -345054.7, -345054.7, 0.0, 9.998597, 9.997428 
2.8493574e+3, 1.3513993e+2, -1889711.1, -1587544.8, -16672.17, -0.1370257, 0.42257276, -1586627.8, 29048.748, 0.000013315561, 9.997831, 10.0016985 
2.8490216e+3, 1.4513373e+2, -1096379.9, -1572593.1, -11912.5, 0.19352685, 0.36787328, -1096082.1, 421643.66, 0.0000038169696, 10.004398, 9.998075 
2.8486803e+3, 1.55128e+2, -1297249.3, -1560618.6, 31821.65, -0.12583335, 0.38620213, -1293458.9, 126328.5, 0.0000005153316, 10.002162, 9.998526 
2.8483444e+3, 1.6512199e+2, -1253620.5, -1438468.8, 41929.824, -0.07974074, 0.4784527, -1244554.0, 77295.414, 0.00000002542409, 10.001541, 9.998995 
2.8480121e+3, 1.7511536e+2, -1050072.3, -1286047.5, 37867.113, 0.24457234, 0.39325118, -1044144.56, 179770.4, 0.0, 10.002273, 9.999019 
2.8476784e+3, 1.8510894e+2, -951684.1, -1218839.1, 88030.19, 0.3228056, 0.44194165, -925285.8, 200689.5, 0.0, 10.002379, 9.998766 
2.8473428e+3, 1.951019e+2, -928226.06, -1154009.0, 175131.19, 0.17119525, 0.34175646, -832753.9, 195286.31, 0.0, 10.001848, 9.998782 
2.847006e+3, 2.0509502e+2, -778757.56, -996039.06, 107268.586, -0.014652113, 0.33942172, -734724.3, 195377.83, 0.0, 10.002061, 9.999104 
2.8466678e+3, 2.1508722e+2, -565816.94, -833851.1, 114555.71, -0.2366302, 0.14341065, -523528.66, 308642.03, 0.0, 10.002829, 9.999161 
2.8463328e+3, 2.2508086e+2, -633240.8, -951894.06, 199759.36, -0.21268016, 0.2367278, -537050.75, 197186.06, 0.0, 10.002298, 9.997945 
2.846e+3, 2.3507512e+2, -782080.3, -977010.6, 289368.44, 0.00076717936, 0.38512114, -574203.75, 62105.02, 0.0, 10.000562, 9.997956 
2.845664e+3, 2.4507e+2, -503709.9, -475221.53, 188553.3, 0.050664883, 0.532835, -300375.16, 237989.13, 0.0, 10.000393, 10.000856 
2.8453252e+3, 2.5506496e+2, -226384.78, -270021.66, 112956.64, -0.050978463, 0.4562608, -133158.67, 307249.25, 0.0, 10.001557, 10.001018 
2.844989e+3, 2.6505932e+2, -343726.1, -546818.06, 232741.3, -0.0213475, 0.50805086, -191342.75, 151118.05, 0.0, 10.001361, 9.998467 
2.8446555e+3, 2.7505222e+2, -384747.25, -504560.5, 239324.33, 0.109029606, 0.46156073, -197945.66, 46585.746, 0.0, 10.000356, 9.9985695 
2.8443187e+3, 2.8504482e+2, -330889.22, -474491.2, 139357.38, 0.09602986, 0.47585517, -245923.31, -99317.34, 0.0, 10.000173, 9.998228 
2.8439784e+3, 2.9503644e+2, -180231.94, -336179.84, 79141.34, -0.09515794, 0.31628317, -147105.53, -98414.25, 0.0, 10.000476, 9.998344 
2.843638e+3, 3.0503017e+2, -99655.305, -337019.06, 170667.89, -0.3624201, 0.4844822, -10460.023, -10460.023, 0.0, 10.000722, 9.997572 
2.8433004e+3, 3.1502587e+2, -8630.283, -285563.3, 153199.84, -0.40349233, 0.7370923, 59405.42, 59405.42, 0.0, 10.001058, 9.99745 
2.8429648e+3, 3.250115e+2, -390068.88, -465783.4, 116624.305, -0.24535756, 0.17027901, -305311.28, -305311.28, 0.0, 9.998437, 9.99736 
2.8593546e+3, 1.3548017e+2, -1742868.8, -1934124.3, 417376.3, 0.22224948, 0.49920484, -1410305.4, 202028.72, 0.0000059672575, 10.0007925, 9.997837 
2.8590158e+3, 1.454676e+2, -1270039.0, -1666124.3, -118712.86, -0.2402473, 0.010290048, -1237184.3, 277269.0, 0.0000015122073, 10.003347, 9.997898 
2.8586787e+3, 1.5546563e+2, -1476076.5, -1694698.0, -81250.54, 0.046674505, 0.41092786, -1449187.1, -32708.363, 0.0000000966577, 10.00121, 9.998034 
2.8583434e+3, 1.6546077e+2, -1432072.6, -1605034.0, 92289.3, 0.21266606, 0.6821006, -1392077.1, -73544.93, 0.00000000026919006, 10.000731, 9.998237 
2.8580084e+3, 1.7545351e+2, -1239583.0, -1479189.0, 95566.2, 0.17396063, 0.59723777, -1206135.6, 14473.02, 0.0, 10.001472, 9.998068 
2.8576732e+3, 1.854466e+2, -946468.25, -1018650.3, 116472.89, 0.11058449, 0.5712489, -860622.9, 262048.64, 0.0, 10.001719, 10.00042 
2.8573385e+3, 1.9543897e+2, -927451.94, -986159.7, 140424.19, 0.1063773, 0.2249264, -813346.4, 211386.97, 0.0, 10.001285, 10.000169 
2.857003e+3, 2.0543331e+2, -894639.0, -1066973.9, 138126.17, 0.03675281, 0.2956904, -818006.94, 108776.734, 0.0, 10.001415, 9.998904 
2.856666e+3, 2.1542804e+2, -786879.0, -991340.0, 128389.14, -0.10887417, 0.34174585, -724991.1, 103845.31, 0.0, 10.001585, 9.998683 
2.8563306e+3, 2.254233e+2, -674487.4, -720390.9, 132678.52, -0.07747705, 0.5173144, -562790.06, 168096.31, 0.0, 10.001061, 10.00005 
2.8559962e+3, 2.3541832e+2, -804869.4, -770312.1, 198801.97, 0.122885406, 0.47638685, -588039.3, 44902.473, 0.0, 9.999637, 9.999741 
2.8556588e+3, 2.4541266e+2, -760220.06, -756611.3, 210493.27, 0.018436588, 0.5647507, -547914.7, -12914.278, 0.0, 9.999532, 9.999205 
2.8553185e+3, 2.5540543e+2, -540445.7, -631984.1, 154432.44, -0.3239918, 0.380095, -425142.9, 11928.174, 0.0, 10.000469, 9.998958 
2.8549823e+3, 2.653998e+2, -413186.34, -494383.84, 185427.2, -0.27869937, 0.5080669, -263965.44, 75159.53, 0.0, 10.000603, 9.999147 
2.85465e+3, 2.753945e+2, -487141.03, -507142.5, 211378.03, 0.077150546, 0.5268711, -285527.28, -44352.17, 0.0, 9.999497, 9.998953 
2.8543139e+3, 2.853877e+2, -496861.53, -615839.6, 151197.92, 0.14281015, 0.6219693, -393870.56, -250626.0, 0.0, 9.99948, 9.997517 
2.853974e+3, 2.9537857e+2, -343770.84, -517184.78, 116409.95, -0.06815813, 0.43332776, -285324.88, -239984.84, 0.0, 9.999918, 9.997325 
2.8536338e+3, 3.0537134e+2, -54619.086, -139815.06, 182747.75, -0.37489882, 0.4812722, 90429.734, 90429.734, 0.0, 10.000448, 9.998978 
2.8532952e+3, 3.1536606e+2, -83220.07, -213717.48, 224989.7, -0.5654962, 0.46604857, 85791.25, 85791.25, 0.0, 10.000244, 9.998271 
2.8529605e+3, 3.2536048e+2, -433122.88, -251112.27, 61621.64, -0.01654736, 0.6273362, -232212.19, -232212.19, 0.0, 9.997327, 9.999309 
2.869354e+3, 1.3581763e+2, -1073223.9, -1411189.5, 241252.34, 0.17595942, 0.72676194, -947659.75, 661373.9, 0.0000021514043, 10.004365, 9.9997835 
2.8690112e+3, 1.4580457e+2, -1305737.0, -1573811.9, -234102.23, -0.46087447, 0.062994875, -1170015.5, 341139.22, 0.00000043033984, 10.002539, 9.998958 
2.8686735e+3, 1.5580328e+2, -1577570.0, -1677721.8, -127082.95, -0.018537784, 0.4744113, -1491052.9, -77879.98, 0.000000019645139, 10.0001335, 9.9987135 
2.868339e+3, 1.6579872e+2, -1433222.9, -1438127.6, 165535.61, 0.23778118, 0.66423905, -1270121.5, 45098.52, 0.0, 9.999971, 9.999762 
2.868004e+3, 1.7579158e+2, -1234725.6, -1345371.0, 264309.66, 0.15107675, 0.5008315, -1020010.9, 197279.7, 0.0, 10.000874, 9.9993105 
2.8676692e+3, 1.8578508e+2, -935512.56, -1053856.0, 230349.5, 0.04837534, 0.4718758, -756856.25, 362493.63, 0.0, 10.001803, 10.000213 
2.8673342e+3, 1.9577806e+2, -809763.25, -990253.0, 205781.19, -0.005483343, 0.2704302, -675308.25, 346101.56, 0.0, 10.002142, 9.999829 
2.866999e+3, 2.0577231e+2, -753575.3, -902787.5, 132763.14, -0.04193207, 0.29846475, -675891.8, 247571.38, 0.0, 10.001953, 9.999772 
2.8666627e+3, 2.157669e+2, -777842.6, -911623.25, 160929.34, -0.12841919, 0.30951107, -670455.6, 155062.33, 0.0, 10.001239, 9.999425 
2.8663263e+3, 2.257624e+2, -599881.5, -642889.9, 110998.375, -0.09598851, 0.44313985, -508323.44, 219241.61, 0.0, 10.0012045, 10.000592 
2.865991e+3, 2.3575817e+2, -492253.4, -577072.9, 78603.27, 0.045352675, 0.4722156, -445348.75, 184261.23, 0.0, 10.001399, 10.0003 
2.8656536e+3, 2.4575286e+2, -465412.88, -609602.4, 106554.836, -0.01996616, 0.5393965, -408854.66, 122809.15, 0.0, 10.001403, 9.999347 
2.8653148e+3, 2.557458e+2, -386016.63, -570175.06, 118578.71, -0.27411836, 0.41369843, -327964.25, 105769.305, 0.0, 10.001442, 9.998956 
2.8649786e+3, 2.6573947e+2, -223492.81, -436262.94, 122581.31, -0.23856352, 0.47169232, -167569.66, 168225.92, 0.0, 10.001886, 9.998993 
2.8646454e+3, 2.757333e+2, -73338.89, -349796.38, 33108.547, 0.048413157, 0.46246606, -69429.1, 168426.27, 0.0, 10.002334, 9.998729 
2.8643087e+3, 2.857273e+2, -202956.92, -402447.78, -2472.8137, 0.11643356, 0.5911452, -202926.28, -63008.676, 0.0, 10.00113, 9.998195 
2.8639686e+3, 2.9572034e+2, -410960.25, -494400.5, 40784.777, -0.03993809, 0.59136444, -394336.88, -352344.84, 0.0, 9.999111, 9.997908 
2.8636286e+3, 3.0571294e+2, -145619.22, -41130.297, 190260.03, -0.33618873, 0.5206729, 103927.95, 103927.95, 0.0, 9.999111, 10.000348 
2.86329e+3, 3.1570584e+2, 40160.313, -20846.057, 138861.23, -0.586281, 0.23838757, 151829.16, 151829.16, 0.0, 10.000371, 9.9995985 
2.8629553e+3, 3.2570535e+2, 90442.945, 14314.166, -302044.44, 0.13662553, 0.82795215, 356812.03, 356812.03, 0.0, 10.000733, 9.999519 
2.879352e+3, 1.3615425e+2, -1320712.8, -1210711.1, 236451.28, 0.13422799, 0.90078646, -1022948.06, 582793.6, 0.00000033823923, 10.001388, 10.002533 
2.8790075e+3, 1.4614293e+2, -1484440.5, -1533460.9, -252158.84, -0.50364065, 0.24366519, -1255603.4, 252239.5, 0.000000039050374, 10.000855, 10.000003 
2.8786683e+3, 1.5614139e+2, -1507722.3, -1567196.0, -157249.39, -0.021872746, 0.538946, -1377422.6, 32439.877, 0.0000000006124831, 10.000334, 9.999371 
2.878334e+3, 1.6613679e+2, -1299313.3, -1199718.8, 209812.22, 0.25945285, 0.6153609, -1033875.3, 278030.03, 0.0, 10.000239, 10.001194 
2.8780007e+3, 1.7612953e+2, -1276150.0, -1261832.5, 228210.78, 0.25032574, 0.2607479, -1040668.25, 173301.17, 0.0, 10.000213, 10.000156 
2.8776655e+3, 1.8612388e+2, -1171589.6, -1271854.5, 209020.19, 0.089426525, 0.32696563, -1006773.94, 109248.58, 0.0, 10.000821, 9.999106 
2.8773302e+3, 1.961183e+2, -1069509.9, -1257907.8, 185655.73, -0.06851065, 0.35132793, -955522.56, 62554.547, 0.0, 10.001127, 9.998436 
2.876994e+3, 2.0611207e+2, -855538.7, -880520.8, 110994.32, -0.13886155, 0.37100944, -756334.75, 163802.39, 0.0, 10.001091, 10.000295 
2.8766578e+3, 2.1610478e+2, -930957.5, -974601.2, 116202.09, -0.17333464, 0.11037267, -834546.0, -12338.777, 0.0, 10.000296, 9.999405 
2.876321e+3, 2.2609976e+2, -782481.6, -789273.75, 104403.76, -0.1853046, 0.22916622, -681418.7, 42839.992, 0.0, 10.000386, 9.999917 
2.8759846e+3, 2.3609583e+2, -780596.44, -843340.1, 75836.38, -0.13907002, 0.33166438, -729899.1, -103597.336, 0.0, 10.000149, 9.999028 
2.875649e+3, 2.460917e+2, -540449.75, -550044.06, 106643.37, -0.040015623, 0.54461443, -438495.7, 89846.836, 0.0, 10.000581, 10.000141 
2.875314e+3, 2.5608653e+2, -553685.25, -645305.9, 128286.3, 0.06581046, 0.50916344, -463275.28, -32884.33, 0.0, 10.00038, 9.998951 
2.874978e+3, 2.6607844e+2, -474928.72, -730910.25, 137880.6, 0.0095573515, 0.4853675, -414790.0, -82317.93, 0.0, 10.001051, 9.997319 
2.8746408e+3, 2.760679e+2, -383788.22, -704707.2, 45411.25, -0.10145769, 0.18229185, -377486.1, -142906.13, 0.0, 10.001219, 9.996796 
2.874302e+3, 2.8606325e+2, -154751.63, -161225.44, -98634.516, -0.12938659, 0.42986152, -59300.92, 77327.945, 0.0, 10.000586, 10.000086 
2.8739613e+3, 2.9606143e+2, -471557.66, -396867.22, -7152.081, -0.15533823, 0.73142576, -396188.53, -357538.94, 0.0, 9.998212, 9.999012 
2.873623e+3, 3.0605403e+2, -254103.5, -60991.008, 204384.08, -0.28740415, 0.59505033, 68496.9, 68496.9, 0.0, 9.998378, 10.000535 
2.8732878e+3, 3.1604287e+2, -283607.4, -311834.28, 168818.4, -0.34255528, -0.105899766, -128313.516, -128313.516, 0.0, 9.99885, 9.998329 
2.8729454e+3, 3.2603946e+2, -296737.1, -563236.94, -220161.55, -0.5210952, 0.35981452, -172641.63, -172641.63, 0.0, 10.000087, 9.995716 
2.8893456e+3, 1.3648929e+2, -1903695.4, -1610665.4, 189047.06, -0.021805942, 0.52887034, -1518003.8, 84445.86, 0.0000000032251708, 9.997788, 10.001576 
2.889002e+3, 1.4648257e+2, -1709105.9, -1526173.5, -129948.07, -0.46714976, 0.33035058, -1458729.1, 45783.934, 0.0, 9.998765, 10.001077 
2.888665e+3, 1.5648074e+2, -1331735.8, -1421228.9, 1515.0464, 0.02566006, 0.53193736, -1331710.1, 74821.73, 0.0, 10.001159, 10.000026 
2.8883302e+3, 1.6647503e+2, -1190723.0, -1317646.3, 190562.66, 0.26940817, 0.54656893, -1053332.6, 255255.03, 0.0, 10.001607, 9.999768 
2.887996e+3, 1.7646685e+2, -1292448.5, -1390999.3, 122498.48, 0.23366201, 0.2669917, -1209686.3, 979.8664, 0.0, 10.000472, 9.9992 
2.887661e+3, 1.8646169e+2, -1107762.3, -1111809.4, 119756.39, 0.056898765, 0.33613765, -990012.3, 122703.32, 0.0, 10.000563, 10.00038 
2.8873253e+3, 1.964579e+2, -1016030.6, -1110696.5, 190365.47, -0.1874763, 0.4531075, -867201.9, 147550.72, 0.0, 10.000826, 9.999643 
2.8869894e+3, 2.0645255e+2, -857910.9, -907898.44, 95941.86, -0.19607121, 0.50740594, -783760.7, 133045.14, 0.0, 10.001024, 10.000187 
2.8866538e+3, 2.1644574e+2, -796048.9, -907437.1, 95146.25, -0.12616488, 0.33732405, -741494.9, 77378.836, 0.0, 10.001016, 9.999577 
2.8863174e+3, 2.2643986e+2, -566957.7, -688969.75, 90501.64, -0.156261, 0.3448915, -518820.3, 202111.61, 0.0, 10.001754, 10.0 
2.88598e+3, 2.3643444e+2, -378862.06, -622739.7, 102161.14, -0.24198493, 0.33468297, -341722.38, 281263.25, 0.0, 10.002602, 9.999428 
2.8856453e+3, 2.464297e+2, -238110.72, -425922.78, 93604.92, -0.08169093, 0.4621812, -199426.31, 325604.63, 0.0, 10.002679, 10.000029 
2.8853115e+3, 2.5642464e+2, -262869.6, -498255.03, 35175.844, 0.18554428, 0.48891416, -257725.38, 169352.97, 0.0, 10.002197, 9.99915 
2.8849745e+3, 2.664171e+2, -436162.2, -619576.1, 110441.98, 0.10476813, 0.44802818, -384315.66, -55161.367, 0.0, 10.000884, 9.998166 
2.884635e+3, 2.7640736e+2, -594633.6, -722580.6, 167368.17, -0.20343986, 0.20439288, -479429.25, -248174.72, 0.0, 9.999317, 9.997616 
2.8842956e+3, 2.864026e+2, -243973.05, -217862.53, 16519.6, -0.24749346, 0.4173543, -209862.22, -76558.42, 0.0, 9.999849, 10.000118 
2.8839555e+3, 2.9640096e+2, -15822.148, -143700.86, -42373.117, -0.13980491, 0.7563882, -3056.0789, 32265.459, 0.0, 10.001036, 9.999443 
2.8836194e+3, 3.0639303e+2, 108102.56, 69286.73, 154500.78, -0.06793042, 0.5537524, 244409.64, 244409.64, 0.0, 10.001006, 10.000223 
2.8832868e+3, 3.1638086e+2, -96812.164, -235405.38, 53463.67, 0.13118415, -0.16908056, -78585.15, -78585.15, 0.0, 10.000068, 9.998379 
2.882938e+3, 3.2637855e+2, -55822.54, -382565.5, -140030.4, -0.80049676, 0.45421585, -4022.5642, -4022.5642, 0.0, 10.001245, 9.996666 
2.8993383e+3, 1.3682474e+2, -1935593.6, -1825049.9, 142416.31, -0.01397987, 0.119708195, -1727556.0, -128403.17, 0.000000008553674, 9.99846, 9.999796 
2.8989965e+3, 1.468224e+2, -1551134.0, -1354784.3, -31797.988, -0.3451651, 0.3774433, -1349763.1, 151416.95, 0.0, 9.999517, 10.001874 
2.8986618e+3, 1.5682012e+2, -1425875.6, -1458409.3, 46363.84, 0.18720187, 0.44424802, -1393007.9, 10191.332, 0.0, 10.000571, 10.000026 
2.8983274e+3, 1.668135e+2, -1414554.5, -1674864.0, 171246.19, 0.36148024, 0.50554466, -1329615.1, -24346.86, 0.0, 10.001279, 9.997417 
2.8979918e+3, 1.7680414e+2, -1430040.3, -1678533.5, 145260.66, 0.28482306, 0.32307953, -1363138.0, -155770.89, 0.0, 10.000575, 9.99716 
2.897656e+3, 1.8679968e+2, -989302.06, -854859.7, 175802.81, 0.04105951, 0.4520231, -733864.75, 375545.8, 0.0, 10.000594, 10.002079 
2.89732e+3, 1.9679746e+2, -1049021.5, -996072.8, 175359.8, -0.22748387, 0.5229463, -845200.2, 166228.52, 0.0, 10.000139, 10.000699 
2.896985e+3, 2.0679368e+2, -1012613.9, -1041942.3, 81404.75, -0.1816166, 0.71470606, -944563.06, -31094.066, 0.0, 10.000322, 9.999534 
2.8966507e+3, 2.1678843e+2, -1070753.8, -1136329.4, 96406.96, 0.038569324, 0.7341448, -1001711.56, -186184.02, 0.0, 9.999674, 9.998597 
2.8963146e+3, 2.2678185e+2, -692637.75, -684406.25, 135931.08, -0.04891272, 0.681382, -552528.6, 165061.52, 0.0, 10.0007925, 10.0004 
2.895977e+3, 2.3677422e+2, -606490.56, -780388.1, 127063.68, -0.27626368, 0.38650325, -539474.2, 80184.81, 0.0, 10.001364, 9.998902 
2.8956413e+3, 2.4676737e+2, -460186.9, -641618.5, 72003.984, -0.18322818, 0.3886756, -435084.16, 86640.375, 0.0, 10.001799, 9.998861 
2.895307e+3, 2.567603e+2, -575291.75, -753193.1, 11696.059, 0.08181949, 0.29400423, -574526.1, -150732.06, 0.0, 10.000665, 9.998063 
2.8949684e+3, 2.6675576e+2, -371019.66, -263797.66, 57007.8, -0.011827421, 0.436018, -239152.47, 86685.625, 0.0, 10.000053, 10.000956 
2.894628e+3, 2.7675188e+2, -652052.6, -586577.7, 148155.11, -0.30504203, 0.47749168, -467586.16, -239710.16, 0.0, 9.998316, 9.999019 
2.8942892e+3, 2.86745e+2, -478523.5, -566818.4, 61875.215, -0.3319409, 0.5483449, -446660.8, -316715.25, 0.0, 9.999411, 9.997887 
2.8939515e+3, 2.9673666e+2, -270065.44, -539788.3, 12778.348, -0.19421351, 0.4345716, -269461.4, -237430.25, 0.0, 10.000611, 9.996886 
2.8936154e+3, 3.0673146e+2, 146577.03, 21569.063, 100740.516, -0.05939662, 0.6196222, 202628.52, 202628.52, 0.0, 10.001789, 9.999297 
2.8932816e+3, 3.1672794e+2, -211308.06, -506963.4, 60507.523, 0.027692862, 0.8428257, -199404.16, -199404.16, 0.0, 10.000437, 9.996199 
2.8929362e+3, 3.2671794e+2, 4391.2266, 541613.4, 8483.608, -0.6245994, 0.2276945, 541747.3, 541747.3, 0.0, 9.998289, 10.004076 
2.909334e+3, 1.3716543e+2, -1739708.0, -1715523.3, 119278.85, 0.025055457, 0.23990285, -1607725.4, -11911.353, 0.000000011355019, 9.999574, 10.000096 
2.908992e+3, 1.4716235e+2, -1378411.5, -1301484.8, -22309.645, -0.32635677, 0.43332303, -1295483.0, 202364.5, 0.0, 10.000711, 10.001727 
2.9086572e+3, 1.571584e+2, -1416347.5, -1457732.3, 51547.227, 0.14082336, 0.36173525, -1381494.5, 18386.68, 0.0, 10.000528, 10.000105 
2.908323e+3, 1.6715218e+2, -1321527.1, -1551328.4, 218128.69, 0.28415933, 0.4078659, -1189887.1, 112058.8, 0.0, 10.0015135, 9.998175 
2.9079875e+3, 1.771444e+2, -1105076.9, -1474091.9, 300468.9, 0.14013518, 0.34176323, -936987.5, 267042.38, 0.0, 10.00247, 9.99769 
2.907652e+3, 1.8713884e+2, -842684.6, -982756.3, 221118.53, -0.02515939, 0.44265148, -680775.56, 425310.8, 0.0, 10.002341, 10.000415 
2.907316e+3, 1.971346e+2, -975173.8, -1070039.8, 101055.4, -0.20735446, 0.49986055, -910973.1, 97154.445, 0.0, 10.000976, 9.999843 
2.9069808e+3, 2.0713039e+2, -931523.4, -929259.25, -15995.037, -0.15545261, 0.6240269, -914356.25, -4184.626, 0.0, 10.0004225, 10.000308 
2.906645e+3, 2.1712577e+2, -969480.5, -981248.44, 73905.46, -0.03761963, 0.6575058, -901225.1, -89003.49, 0.0, 9.99976, 9.999662 
2.90631e+3, 2.2712046e+2, -707371.56, -683093.3, 166323.27, -0.035845812, 0.6744924, -528466.75, 185806.27, 0.0, 10.000565, 10.000561 
2.905975e+3, 2.3711416e+2, -476292.03, -657185.75, 128450.44, -0.14201243, 0.5258294, -409639.7, 206691.14, 0.0, 10.001836, 9.999574 
2.905638e+3, 2.4710727e+2, -449380.78, -613692.4, 68720.086, -0.16254985, 0.47353885, -424429.03, 93968.55, 0.0, 10.001579, 9.999239 
2.9053003e+3, 2.5709996e+2, -524201.06, -639212.4, 99145.61, -0.11787, 0.35008302, -467091.03, -46621.18, 0.0, 10.0004225, 9.999012 
2.904962e+3, 2.6709625e+2, -268450.75, -194184.1, 90268.83, -0.15166469, 0.5158249, -133709.3, 188796.88, 0.0, 10.000441, 10.001335 
2.904623e+3, 2.7709404e+2, -234563.53, -312682.66, 8022.318, -0.26036552, 0.69452643, -233748.2, -9220.945, 0.0, 10.000679, 9.999815 
2.9042867e+3, 2.8708515e+2, -127343.9, -420141.94, 77001.5, -0.08475848, 0.5204934, -108328.58, 18286.014, 0.0, 10.001863, 9.997731 
2.9039478e+3, 2.9707465e+2, -16032.442, -381068.3, 111877.95, -0.14568424, 0.24093327, 15527.816, 44246.848, 0.0, 10.001964, 9.997356 
2.9193297e+3, 1.3750654e+2, -1696926.0, -1643859.5, 120331.61, 0.1587781, 0.4498702, -1547170.6, 45301.367, 0.00000000463828, 9.999755, 10.000422 
2.9189882e+3, 1.4750254e+2, -1392049.9, -1363995.0, -84029.25, -0.22278637, 0.53578204, -1292830.4, 201682.94, 0.0, 10.00093, 10.001126 
2.9186523e+3, 1.5749626e+2, -1487977.3, -1537920.3, -18246.615, 0.14334902, 0.2733197, -1482021.1, -85452.01, 0.0, 10.000299, 9.999637 
2.9183182e+3, 1.6749093e+2, -1241773.8, -1357732.8, 185263.28, 0.19853026, 0.33182558, -1105629.3, 192993.92, 0.0, 10.001411, 9.999552 
2.9179835e+3, 1.7748527e+2, -1176572.1, -1487364.4, 225099.94, 0.04334265, 0.33203197, -1058439.5, 142244.25, 0.0, 10.001977, 9.9978285 
2.9176486e+3, 1.8747829e+2, -1122468.6, -1409664.5, 144818.6, -0.05225115, 0.42663777, -1062123.5, 40633.887, 0.0, 10.001826, 9.997644 
2.9173133e+3, 1.9747047e+2, -1293284.4, -1503088.1, 78111.195, -0.04827384, 0.38072842, -1267397.3, -262558.56, 0.0, 10.000059, 9.997305 
2.916976e+3, 2.0746496e+2, -912494.75, -774885.7, 1837.2471, -0.110683076, 0.39778072, -774861.1, 132031.52, 0.0, 10.000082, 10.001479 
2.9166374e+3, 2.1746019e+2, -1056618.3, -974175.2, 75740.72, -0.19409752, 0.28440386, -929165.2, -120227.26, 0.0, 9.999088, 10.000018 
2.916305e+3, 2.2745697e+2, -804334.06, -742422.75, 213946.95, -0.06564701, 0.50062627, -557203.56, 153768.33, 0.0, 10.000064, 10.00034 
2.9159737e+3, 2.374538e+2, -745232.7, -818431.25, 144809.44, 0.12551893, 0.65653706, -632469.06, -19462.668, 0.0, 10.000282, 9.99917 
2.9156345e+3, 2.4744879e+2, -494217.63, -452414.72, 18147.146, -0.09556358, 0.70241874, -445636.03, 69419.82, 0.0, 10.000617, 10.000738 
2.915292e+3, 2.5744283e+2, -721251.94, -707892.4, 76595.08, -0.45686206, 0.5409064, -637686.4, -220572.7, 0.0, 9.999076, 9.999162 
2.9149547e+3, 2.6743817e+2, -521506.4, -503029.66, 93957.484, -0.3674517, 0.7102912, -417857.47, -98694.58, 0.0, 9.999723, 9.999435 
2.914619e+3, 2.7743354e+2, -499099.0, -586173.44, 45075.01, -0.16045147, 0.7950841, -479968.5, -258755.58, 0.0, 9.999636, 9.998394 
2.914289e+3, 2.8742307e+2, -15981.738, -112813.5, 133858.39, 0.4470416, 0.36996946, 77947.62, 201258.92, 0.0, 10.001661, 9.999869 
2.913943e+3, 2.9741785e+2, 9928.591, -53387.016, 27115.87, -0.36018842, 0.32146546, 19953.96, 45310.258, 0.0, 10.000959, 10.000046 
2.9293218e+3, 1.3783963e+2, -1716928.4, -1762960.0, 62323.36, -0.2531071, 0.17897217, -1673506.8, -84302.85, 0.0, 9.999966, 9.999559 
2.9289874e+3, 1.4783932e+2, -1368771.9, -1441567.6, -250009.95, 0.1037134, 0.7037902, -1152524.3, 338691.1, 0.0, 10.001345, 10.000462 
2.9286456e+3, 1.5782979e+2, -1463942.3, -1551855.5, -147643.23, -0.121857315, 0.18833156, -1353851.1, 39455.06, 0.0, 10.000445, 9.999523 
2.9283127e+3, 1.6782649e+2, -1137469.8, -1219439.6, 68874.8, -0.013869414, 0.38505098, -1098308.0, 197034.78, 0.0, 10.001667, 10.000421 
2.9279813e+3, 1.7782456e+2, -952022.1, -1224699.6, 71541.336, -0.0042193197, 0.6771563, -934392.0, 262976.16, 0.0, 10.002726, 9.999317 
2.9276446e+3, 1.8781799e+2, -949846.6, -1141726.9, 6852.9106, -0.12012493, 0.63442355, -949602.2, 149832.45, 0.0, 10.002124, 9.999377 
2.9273075e+3, 1.9780965e+2, -1111315.8, -1225211.8, 142568.53, -0.21835956, 0.39791673, -1014742.2, -13224.71, 0.0, 10.00037, 9.99909 
2.9269716e+3, 2.0780429e+2, -678738.7, -679858.94, 144979.7, -0.11202182, 0.37185284, -534318.06, 369249.3, 0.0, 10.001652, 10.001439 
2.9266357e+3, 2.1779981e+2, -410058.06, -642367.25, 159712.33, -0.031005777, 0.32646918, -328728.7, 476878.75, 0.0, 10.00321, 10.000396 
2.9263014e+3, 2.277958e+2, -442368.4, -602385.5, 238410.64, -0.031444896, 0.46376637, -270899.34, 436749.84, 0.0, 10.002443, 10.000304 
2.9259673e+3, 2.3779194e+2, -625935.6, -695304.4, 180803.02, -0.059136394, 0.591955, -476520.2, 133171.3, 0.0, 10.000549, 10.0 
2.9256287e+3, 2.4778773e+2, -457855.94, -374016.38, 22611.178, -0.18809259, 0.6414254, -368307.03, 143426.88, 0.0, 10.000463, 10.001415 
2.9252875e+3, 2.5778303e+2, -369466.6, -453851.1, 3360.4224, -0.38222727, 0.5727082, -369333.0, 44447.164, 0.0, 10.000928, 10.000087 
2.924951e+3, 2.6777843e+2, -298336.03, -451373.72, 114391.57, -0.2641922, 0.73008716, -237230.14, 78600.47, 0.0, 10.001356, 9.999072 
2.9246157e+3, 2.7777332e+2, -115636.18, -308923.56, 143401.63, -0.044767648, 0.81934905, -39352.05, 178535.31, 0.0, 10.00166, 9.999386 
2.924284e+3, 2.8776422e+2, -60221.305, 100228.79, 253856.61, 0.4255889, 0.35747397, 286235.28, 406205.84, 0.0, 10.000114, 10.002208 
2.9239368e+3, 2.9776466e+2, -244690.45, -40083.33, -8157.9854, -0.42179137, 0.7081343, -39758.574, -17800.822, 0.0, 9.998327, 10.001501 
2.939315e+3, 1.3817282e+2, -1807298.1, -1939031.8, 165192.16, -0.4002075, 0.040946826, -1695325.5, -109389.48, 0.0, 9.999967, 9.998346 
2.938987e+3, 1.4817473e+2, -1475830.5, -1519493.8, -213027.39, 0.4870628, 0.83931744, -1283519.0, 204412.75, 0.0, 10.000882, 10.000088 
2.938639e+3, 1.5816283e+2, -1425769.9, -1565877.8, -81661.016, -0.29993385, 0.12484953, -1388231.6, 1817.6677, 0.0, 10.000978, 9.999139 
2.9383072e+3, 1.6816178e+2, -1166209.8, -1151950.6, 183603.75, -0.1744893, 0.52134734, -975338.06, 316729.28, 0.0, 10.001233, 10.001033 
2.937979e+3, 1.7816329e+2, -1206804.4, -1230382.9, 123993.57, 0.08387368, 1.0736514, -1094040.9, 100020.766, 0.0, 10.0005865, 10.000251 
2.9376405e+3, 1.88158e+2, -953803.56, -795376.56, -30139.729, -0.15323026, 0.9215623, -789836.44, 306275.03, 0.0, 10.00069, 10.002407 
2.9373002e+3, 1.9815044e+2, -1148535.1, -1052436.0, 97663.88, -0.3974557, 0.46084687, -991641.7, 6538.582, 0.0, 9.999437, 10.000692 
2.936968e+3, 2.0814598e+2, -838996.5, -820074.56, 187756.48, -0.06614148, 0.4846154, -641540.9, 258678.42, 0.0, 10.000959, 10.000732 
2.9366374e+3, 2.1814203e+2, -774196.1, -968014.0, 167418.3, 0.3817237, 0.55898833, -677662.0, 124591.94, 0.0, 10.001478, 9.998974 
2.9362985e+3, 2.281359e+2, -586238.4, -647878.9, 173419.64, 0.016048009, 0.5178124, -440921.56, 263392.72, 0.0, 10.00154, 10.0003 
2.9359576e+3, 2.3812918e+2, -867597.44, -875939.94, 142274.05, -0.54268605, 0.3284296, -729433.5, -123051.72, 0.0, 9.999364, 9.99925 
2.9356217e+3, 2.4812478e+2, -603945.4, -472578.3, 40767.76, -0.36673662, 0.40039742, -460955.06, 47471.633, 0.0, 9.999785, 10.000968 
2.9352868e+3, 2.5812098e+2, -638338.1, -622698.94, 31685.66, 0.023049142, 0.43833447, -597882.25, -187416.44, 0.0, 9.999457, 9.99959 
2.9349503e+3, 2.6811722e+2, -308897.84, -322134.78, 129645.336, 0.06510722, 0.6136411, -185702.16, 126804.77, 0.0, 10.0007925, 10.0002165 
2.934612e+3, 2.7811325e+2, -225326.28, -218597.61, 144525.25, -0.07664093, 0.67959183, -77397.55, 137152.83, 0.0, 10.000443, 10.000567 
2.934269e+3, 2.8810948e+2, -6845.153, 405633.0, 162085.61, -0.5310646, 0.54102, 461703.47, 578286.56, 0.0, 9.999476, 10.00453 
2.9339328e+3, 2.9811102e+2, -488242.03, -195049.73, 104595.91, -0.13068408, 0.8312183, -161560.53, -142997.77, 0.0, 9.997107, 10.000936 
2.9493105e+3, 1.3851093e+2, -1842708.1, -2017788.3, -38475.613, -0.50545603, 0.36816803, -1834625.9, -251995.78, 0.0, 9.999889, 9.99789 
2.9489794e+3, 1.485078e+2, -1401239.8, -1341810.9, -119120.46, 0.17137489, 0.57905513, -1248754.6, 235916.38, 0.0, 10.000744, 10.001409 
2.9486376e+3, 1.5850127e+2, -1101116.6, -1282134.6, 29361.55, -0.18613793, 0.307942, -1096473.3, 290258.56, 0.0, 10.002534, 10.000398 
2.9483044e+3, 1.6849802e+2, -1223416.0, -1144341.8, 180602.66, -0.07468728, 0.4200278, -998999.2, 289768.8, 0.0, 10.000526, 10.001509 
2.9479718e+3, 1.7849612e+2, -1640046.4, -1359899.8, 163772.66, -0.039219324, 0.61422, -1284469.0, -93675.664, 0.0, 9.997105, 10.001099 
2.9476348e+3, 1.8849371e+2, -1261609.3, -922375.06, 23364.637, -0.14144446, 0.7007941, -920773.4, 172046.23, 0.0, 9.998358, 10.00271 
2.9472968e+3, 1.9849052e+2, -974671.3, -900075.9, 44442.375, -0.24962795, 0.6600523, -879354.25, 115497.01, 0.0, 10.00017, 10.001434 
2.9469642e+3, 2.0848551e+2, -800444.5, -752058.2, 119958.35, -0.037578534, 0.56942344, -653877.7, 243016.3, 0.0, 10.000852, 10.00133 
2.946632e+3, 2.1848004e+2, -783788.3, -855912.0, 141069.89, 0.19951303, 0.45054674, -674243.94, 124697.0, 0.0, 10.000734, 10.000146 
2.9462945e+3, 2.2847512e+2, -517094.2, -584703.4, 165125.39, -0.038179267, 0.46668124, -382348.66, 318641.2, 0.0, 10.001775, 10.00068 
2.945955e+3, 2.384701e+2, -292495.56, -519070.4, 115737.31, -0.42640245, 0.4341379, -243828.78, 359212.78, 0.0, 10.002795, 10.000096 
2.9456183e+3, 2.4846505e+2, -273839.53, -376156.94, 43162.965, -0.2472051, 0.43723035, -258063.53, 247028.22, 0.0, 10.002105, 10.000648 
2.945283e+3, 2.5845993e+2, -344383.4, -431745.75, 51960.535, 0.13389988, 0.40568417, -320182.75, 86959.23, 0.0, 10.001024, 10.000244 
2.9449463e+3, 2.684563e+2, -261747.83, -197534.25, 146983.22, 0.15298313, 0.5028668, -79192.0, 229988.05, 0.0, 10.000538, 10.001256 
2.944607e+3, 2.7845302e+2, -189020.81, -104871.16, 87729.914, -0.066984706, 0.57007825, -49648.355, 161566.06, 0.0, 10.000111, 10.001559 
2.944261e+3, 2.8844962e+2, 4866.0874, 328679.66, -98098.46, -0.70269364, 0.45713973, 356079.8, 469326.03, 0.0, 9.999738, 10.003981 
2.9439315e+3, 2.9845044e+2, -27401.139, -24341.064, -126606.21, 0.37802443, 0.75403076, 100744.35, 115981.195, 0.0, 10.000153, 10.000749 
2.9593056e+3, 1.3884716e+2, -2068042.9, -2093414.4, -105986.24, -0.41226155, 0.5016862, -1973985.9, -394640.84, 0.00000000001490612, 9.99831, 9.998118 
2.9589713e+3, 1.488411e+2, -1405224.1, -1164329.3, 29724.133, -0.16671422, 0.30052826, -1160715.8, 320691.63, 0.0, 10.00002, 10.002956 
2.9586378e+3, 1.588405e+2, -1323419.6, -1297675.1, 74732.3, 0.15536359, 0.48889148, -1234714.6, 148689.89, 0.0, 10.000684, 10.0011635 
2.9583013e+3, 1.68834e+2, -1306804.3, -1142804.0, 77072.42, 0.12057334, 0.22369261, -1112269.0, 173198.6, 0.0, 9.999859, 10.0018 
2.9579628e+3, 1.7882696e+2, -1621706.6, -1369496.3, 125500.07, -0.11831165, -0.12867725, -1317689.1, -130150.51, 0.0, 9.997417, 10.000859 
2.9576284e+3, 1.8882807e+2, -1293666.6, -1011710.9, 103280.1, -0.06169518, 0.34572122, -977927.4, 111610.516, 0.0, 9.998602, 10.001905 
2.9572958e+3, 1.9882986e+2, -1210069.5, -1109535.3, 100051.83, 0.15810886, 0.88454026, -1047832.94, -56303.06, 0.0, 9.999104, 10.000482 
2.9569596e+3, 2.088236e+2, -835828.44, -633345.94, 122740.5, -0.009328946, 0.61364937, -575480.25, 318103.38, 0.0, 10.000215, 10.0023575 
2.9566228e+3, 2.1881573e+2, -948856.7, -893379.8, 152462.16, -0.23860429, 0.1411443, -766153.3, 29496.86, 0.0, 9.999629, 10.000351 
2.9562902e+3, 2.2881387e+2, -613516.2, -576879.0, 196097.27, -0.08679991, 0.41117924, -398246.6, 299425.06, 0.0, 10.000982, 10.00106 
2.9559577e+3, 2.3881325e+2, -622878.3, -712746.2, 109183.21, 0.13301001, 0.7640366, -549744.3, 49939.418, 0.0, 10.000811, 9.999706 
2.9556176e+3, 2.488073e+2, -395120.7, -427151.9, -11368.176, 0.022188073, 0.67487234, -391496.16, 110243.83, 0.0, 10.0013685, 10.000577 
2.9552764e+3, 2.5880006e+2, -582281.9, -593511.25, 38372.62, -0.1098126, 0.41850564, -549115.4, -145307.97, 0.0, 9.999763, 9.999684 
2.954939e+3, 2.687963e+2, -343317.9, -171722.5, 132749.9, -0.083225355, 0.47410065, -99457.61, 206386.27, 0.0, 9.999833, 10.001683 
2.9546013e+3, 2.7879283e+2, -527466.9, -468822.84, 56695.313, -0.12979025, 0.49880192, -434315.88, -226437.08, 0.0, 9.998816, 9.999634 
2.9542637e+3, 2.8878328e+2, -344616.97, -284274.84, -135641.56, 0.11739779, 0.07937026, -175489.34, -65515.67, 0.0, 9.999411, 9.999836 
2.953923e+3, 2.987811e+2, -135332.16, -112863.555, 166167.63, -0.055315673, 0.3875586, 42449.1, 54446.516, 0.0, 9.999761, 10.000279 
2.9693043e+3, 1.3918482e+2, -1938645.5, -1578471.3, -10357.52, 0.12523556, 0.5409687, -1578173.6, -2124.8477, 0.00000010737005, 9.997148, 10.002243 
2.9689652e+3, 1.4918302e+2, -1544502.8, -1166630.5, 127060.555, -0.17852919, 0.59649885, -1127879.9, 350177.84, 0.0, 9.998694, 10.0036125 
2.968633e+3, 1.5917908e+2, -1579177.1, -1383704.1, 140902.34, 0.19440196, 0.4186285, -1309959.1, 70127.55, 0.0, 9.998651, 10.001591 
2.9682952e+3, 1.6917536e+2, -1310614.6, -1204156.1, 129816.91, 0.034989055, 0.44961476, -1117079.4, 165044.58, 0.0, 9.999987, 10.00138 
2.9679555e+3, 1.7917098e+2, -1105133.1, -1175990.3, 123306.27, -0.38443902, 0.43412966, -1012266.7, 171903.64, 0.0, 10.001059, 10.000472 
2.967622e+3, 1.8916796e+2, -1030117.94, -992988.44, 66956.24, -0.17000937, 0.5768984, -942070.9, 144137.31, 0.0, 10.000726, 10.001078 
2.9672906e+3, 1.9916531e+2, -1115245.4, -1043473.75, 75573.53, 0.16538079, 0.74369395, -995698.6, -7456.0317, 0.0, 9.99947, 10.0008135 
2.9669547e+3, 2.0916055e+2, -772957.2, -582680.1, 106764.17, -0.020142224, 0.6001563, -534815.44, 355468.38, 0.0, 10.000445, 10.002656 
2.9666176e+3, 2.1915546e+2, -618561.75, -643421.1, 77120.73, -0.33229858, 0.38247114, -552875.5, 239450.48, 0.0, 10.001323, 10.001317 
2.966285e+3, 2.2915313e+2, -734928.94, -631360.94, 69003.92, -0.13318512, 0.5673984, -596871.4, 97479.555, 0.0, 9.999964, 10.00127 
2.9659522e+3, 2.3915118e+2, -917678.5, -765252.1, -13465.746, 0.1286208, 0.78244925, -764071.6, -167697.78, 0.0, 9.998225, 10.00063 
2.9656124e+3, 2.4914488e+2, -523623.22, -414743.25, -61438.715, -0.0005972019, 0.58058375, -387095.3, 111336.95, 0.0, 10.00004, 10.001346 
2.9652712e+3, 2.5913808e+2, -115136.68, -245715.66, -30643.79, -0.2016659, 0.30990914, -108302.945, 292191.06, 0.0, 10.002263, 10.000892 
2.9649335e+3, 2.6913625e+2, 21808.117, 8769.572, 44829.99, -0.18042397, 0.5053191, 60590.375, 363101.97, 0.0, 10.002129, 10.001929 
2.9645962e+3, 2.791341e+2, -159210.02, -352953.88, -5735.358, -0.13212985, 0.6887974, -159040.39, 45493.22, 0.0, 10.001394, 9.999267 
2.9642636e+3, 2.8912252e+2, 26046.79, -371600.1, -67081.51, 0.5542932, 0.24059874, 37058.258, 143707.31, 0.0, 10.002985, 9.997588 
2.963914e+3, 2.991175e+2, 154787.34, 55976.37, 254874.55, -0.5658496, 0.495803, 365000.7, 373700.53, 0.0, 10.001495, 10.000649 
2.9793024e+3, 1.3952574e+2, -1417511.9, -902548.75, 100536.98, 0.64454746, 0.8281419, -883616.75, 689099.75, 0.00000019973128, 9.998973, 10.006014 
2.97896e+3, 1.4952585e+2, -1456549.4, -1102846.6, 72191.15, -0.044932898, 0.9695343, -1088679.8, 386019.06, 0.000000000008976791, 9.999303, 10.003751 
2.978627e+3, 1.5951756e+2, -1661919.3, -1452720.0, 60244.6, 0.29896384, 0.32296246, -1436611.3, -59839.164, 0.0, 9.998301, 10.001303 
2.9782888e+3, 1.6951829e+2, -1371006.0, -1268629.0, 136089.03, -0.034627303, 0.8196402, -1174419.9, 104348.87, 0.0, 9.999854, 10.000971 
2.9779497e+3, 1.7951864e+2, -1332716.9, -1449731.0, 166550.33, -0.52750754, 1.3416566, -1214696.1, -33924.95, 0.0, 10.000324, 9.998953 
2.9776162e+3, 1.8950926e+2, -1128413.5, -1139165.9, 66559.195, -0.2774278, 0.96603745, -1067013.8, 15852.824, 0.0, 10.000599, 10.0001135 
2.9772842e+3, 1.994996e+2, -1215546.1, -1162400.1, 112938.805, 0.11983488, 0.49888372, -1072950.3, -87986.14, 0.0, 9.999225, 10.000098 
2.97695e+3, 2.0949745e+2, -822331.5, -644190.75, 165875.02, 0.018391283, 0.63324225, -544984.56, 341999.97, 0.0, 10.000277, 10.002318 
2.9766154e+3, 2.1949711e+2, -925099.6, -844217.75, 66074.86, -0.10649258, 0.9028367, -807190.25, -18204.275, 0.0, 9.999573, 10.000775 
2.9762787e+3, 2.2949259e+2, -859271.8, -662198.56, -3940.6628, -0.15882114, 0.84850824, -662119.8, 28909.404, 0.0, 9.999177, 10.001366 
2.9759413e+3, 2.3948611e+2, -1133979.5, -898802.8, -2226.521, -0.22560227, 0.6175116, -898781.75, -305690.34, 0.0, 9.997051, 10.000253 
2.9756048e+3, 2.4947964e+2, -569059.44, -285506.88, 31803.068, -0.21298636, 0.31145707, -281983.63, 213167.67, 0.0, 9.99928, 10.002542 
2.9752687e+3, 2.5947434e+2, -405302.88, -387488.2, 21493.83, -0.16843686, 0.11055372, -373129.13, 24070.375, 0.0, 10.000443, 10.000781 
2.9749304e+3, 2.6947585e+2, -85503.11, -2939.9966, 5408.7744, -0.17733532, 0.60643566, -2587.1714, 296599.75, 0.0, 10.001409, 10.002128 
2.9745913e+3, 2.7947694e+2, -414315.03, -563933.1, 8352.637, -0.24306485, 1.0997716, -413850.2, -212670.88, 0.0, 10.000226, 9.998356 
2.974259e+3, 2.894683e+2, -102778.54, -479511.78, -1776.3221, 0.3185142, 1.0035866, -102770.164, 492.5175, 0.0, 10.002481, 9.997055 
2.973914e+3, 2.9945716e+2, -94279.9, -92212.266, -156581.56, -0.23378846, 0.6793596, 63338.9, 68705.81, 0.0, 10.000209, 10.000188 
2.9892918e+3, 1.3986208e+2, -1348545.0, -1192234.9, 108393.05, -0.09533875, 0.44436148, -1136758.9, 432651.78, 0.000000019519112, 10.0008, 10.003239 
2.9889542e+3, 1.4985693e+2, -1618060.1, -1538981.0, -78016.08, -0.10156484, 0.3982196, -1491056.9, -19597.559, 0.0, 9.999751, 10.000621 
2.9886225e+3, 1.5984952e+2, -1738752.5, -1526982.3, -109289.805, 0.4400071, 0.1008399, -1480696.8, -107160.48, 0.0, 9.997881, 10.001025 
2.9882878e+3, 1.6984496e+2, -1289002.9, -917833.25, 67718.85, 0.40183756, -0.1305711, -905864.1, 369714.4, 0.0, 9.999064, 10.003774 
2.9879513e+3, 1.7984265e+2, -1135449.9, -1055613.9, 188244.33, 0.024404155, -0.14011079, -903101.75, 274496.3, 0.0, 10.000343, 10.001662 
2.9876137e+3, 1.8984151e+2, -877310.44, -922270.6, 186096.69, -0.1627284, 0.18401365, -712341.0, 367264.66, 0.0, 10.001857, 10.00107 
2.9872784e+3, 1.9983932e+2, -868556.8, -1026975.2, 251583.72, -0.1260921, 0.4571856, -684007.6, 297617.03, 0.0, 10.001645, 9.999905 
2.986948e+3, 2.0983519e+2, -820842.6, -838251.1, 231498.52, 0.18911912, 0.5615647, -597884.8, 285785.22, 0.0, 10.001085, 10.000646 
2.9866156e+3, 2.1983024e+2, -794318.44, -798000.3, 59420.01, 0.33961886, 0.54647434, -736710.9, 49012.254, 0.0, 10.000355, 10.0007715 
2.986278e+3, 2.298247e+2, -370522.75, -334763.06, 46582.484, 0.18067355, 0.34776434, -302746.84, 385028.75, 0.0, 10.001992, 10.002355 
2.9859406e+3, 2.3982072e+2, 25127.082, -158881.95, 83583.68, 0.061997477, 0.269707, 57424.87, 647236.3, 0.0, 10.004055, 10.002044 
2.985604e+3, 2.4982002e+2, -47219.457, 1266.8733, 79759.164, 0.13075311, 0.4864595, 60385.9, 552199.9, 0.0, 10.002621, 10.002987 
2.985267e+3, 2.5981817e+2, -413702.56, -366708.97, 45327.316, 0.1696987, 0.6198562, -339150.25, 54678.46, 0.0, 10.000077, 10.001192 
2.9849276e+3, 2.6981413e+2, -185589.64, -153418.86, -9712.456, -0.0384703, 0.6579038, -150714.05, 145157.16, 0.0, 10.001077, 10.001377 
2.9845873e+3, 2.7981052e+2, -12873.638, -296060.06, -84182.51, -0.2898727, 0.7556852, 10261.207, 208171.95, 0.0, 10.002466, 9.9992695 
2.9842538e+3, 2.8979823e+2, -138628.98, -354670.47, 32539.22, 0.19784805, 0.18125282, -133834.47, -33804.242, 0.0, 10.001489, 9.9986315 
2.9839122e+3, 2.997897e+2, 49959.27, 103784.516, -214356.47, 0.10102748, 0.048019323, 292911.22, 295016.9, 0.0, 10.000321, 10.001787 
2.999292e+3, 1.4020127e+2, -1272803.8, -1531202.0, -265373.75, 0.23125276, 0.34968618, -1106849.3, 459228.38, 0.000000013810121, 10.002746, 10.000019 
2.9989478e+3, 1.5020049e+2, -1784352.8, -1908142.5, 136618.14, -0.1068118, 0.9651347, -1696262.6, -228164.06, 0.0, 9.999902, 9.997897 
2.998612e+3, 1.6019611e+2, -2021370.3, -1849432.0, 342599.6, 0.13088146, 1.2219002, -1582180.0, -212022.16, 0.0, 9.996651, 9.999348 
2.998276e+3, 1.7019555e+2, -1594060.6, -955823.94, 128033.5, -0.09343055, 1.3408242, -931097.7, 341056.6, 0.0, 9.9964695, 10.004612 
2.9979432e+3, 1.8018965e+2, -1496889.1, -1158646.8, -169017.52, -0.30266294, 0.8074828, -1088667.8, 85531.28, 0.0, 9.997437, 10.002342 
2.9976094e+3, 1.9018406e+2, -999130.8, -811756.56, -227274.22, -0.21455108, 0.4410446, -659616.8, 416625.25, 0.0, 10.000243, 10.002492 
2.9972723e+3, 2.0017973e+2, -886557.6, -1305298.8, -71880.92, -0.42037976, 0.4393494, -874562.2, 103714.18, 0.0, 10.002642, 9.997459 
2.9969403e+3, 2.1017271e+2, -784555.94, -1076805.0, 59100.984, -0.1452455, 0.42852572, -773056.5, 107298.31, 0.0, 10.002537, 9.99812 
2.9966095e+3, 2.2016542e+2, -826545.4, -1049320.4, 5719.0913, 0.20674759, 0.41551942, -826398.6, -43962.023, 0.0, 10.001174, 9.998582 
2.996274e+3, 2.3016635e+2, -671286.6, -388068.1, -30471.365, 0.17284445, 0.8021809, -384826.78, 299599.88, 0.0, 9.999607, 10.002955 
2.995939e+3, 2.4016467e+2, -852497.9, -580297.44, -110838.26, 0.056202017, 0.82322204, -540874.44, 45565.31, 0.0, 9.998052, 10.001953 
2.9955944e+3, 2.5015503e+2, -414515.63, -186899.13, -14585.159, -0.504536, 0.062387053, -185968.34, 302560.38, 0.0, 10.000228, 10.002643 
2.9952613e+3, 2.601598e+2, -775904.9, -763683.4, 63618.285, 0.053645574, 0.8714048, -705883.06, -315405.53, 0.0, 9.998696, 9.998982 
2.994925e+3, 2.70149e+2, -18282.46, -298794.7, 216689.8, 0.16720426, 0.39671066, 99582.03, 392166.9, 0.0, 10.003424, 9.998988 
2.9945844e+3, 2.8014097e+2, -604862.1, -611328.1, -81476.99, -0.29625797, 0.21861239, -526554.0, -331887.47, 0.0, 9.9986315, 9.998841 
2.9942513e+3, 2.9013693e+2, -132835.95, 24707.604, 158316.75, 0.3930414, 0.16977659, 122766.77, 219477.55, 0.0, 10.000218, 10.001588 
2.9939058e+3, 3.0013964e+2, 333683.13, 622994.4, -426641.94, -0.009144972, 0.822102, 928836.94, 928836.94, 0.0, 10.000977, 10.004804 
