coord_x,coord_y,stress_xx,stress_yy,tau_xy,velocity_x,velocity_y,stress_1,eps,damage,lx,ly
4.9994975e+0, 1.2598129e+2, -1756218.9, -1666176.1, -8371.963, -0.021342536, 0.062463783, -1665404.3, 39989.316, 0.000055290777, 9.99942, 10.000613 
4.9997082e+0, 1.3598222e+2, -1654682.6, -1621060.5, -3900.4148, -0.013208811, 0.14484392, -1620614.0, -13228.315, 0.000019222676, 9.99968, 10.000125 
4.9998468e+0, 1.4598174e+2, -1510104.5, -1468535.0, -7740.1553, -0.008423255, 0.0721523, -1467140.6, 42250.082, 0.000002703532, 9.999862, 10.000409 
4.9999052e+0, 1.5598282e+2, -1396441.4, -1367677.0, -13031.081, -0.008989421, 0.13508347, -1362651.6, 48728.895, 0.000000021272871, 9.9999895, 10.000366 
4.99998e+0, 1.6598319e+2, -1329930.6, -1367887.3, -11681.33, -0.008559862, 0.17521201, -1326623.8, -13244.619, 0.0, 10.000131, 9.999625 
5.000071e+0, 1.7598286e+2, -1207517.5, -1254850.8, -6603.8345, -0.0071458328, 0.17665458, -1206613.4, 8772.762, 0.0, 10.000284, 9.999654 
5.0001687e+0, 1.8598281e+2, -1100748.0, -1169653.1, -5561.502, -0.004057014, 0.21286029, -1100302.0, 17088.46, 0.0, 10.000419, 9.999502 
5.00027e+0, 1.95983e+2, -983869.8, -1060393.1, -6409.052, 0.00006292646, 0.27738622, -983336.75, 36055.633, 0.0, 10.000539, 9.999521 
5.000342e+0, 2.0598269e+2, -882079.44, -982824.75, -5303.7715, 0.0011551478, 0.3050913, -881801.0, 39596.164, 0.0, 10.000661, 9.999322 
5.000393e+0, 2.1598199e+2, -764728.8, -873005.8, -2901.9602, 0.00014848012, 0.301111, -764651.06, 58753.21, 0.0, 10.000783, 9.999345 
5.0004447e+0, 2.2598104e+2, -659441.7, -791824.4, -711.5145, -0.0015403514, 0.28222948, -659437.9, 65974.984, 0.0, 10.00092, 9.999163 
5.000499e+0, 2.3597994e+2, -535867.06, -675214.56, 454.0736, -0.0036004917, 0.25176963, -535865.6, 91556.664, 0.0, 10.001069, 9.999219 
5.000575e+0, 2.4597903e+2, -409939.5, -549819.0, -64.581184, -0.0025432918, 0.22979741, -409939.47, 119490.016, 0.0, 10.001201, 9.999344 
5.0006676e+0, 2.559782e+2, -292386.88, -439624.6, -940.1896, 0.0005789765, 0.20978832, -292380.88, 139054.44, 0.0, 10.001323, 9.999369 
5.000749e+0, 2.6597735e+2, -186252.94, -361082.4, -818.5979, 0.00091684767, 0.19945541, -186249.11, 147192.45, 0.0, 10.00148, 9.99916 
5.0008243e+0, 2.7597648e+2, -62009.074, -250622.52, -1889.9236, -0.00062877027, 0.19273928, -61990.14, 173458.1, 0.0, 10.001661, 9.999158 
5.000866e+0, 2.8597513e+2, 21606.639, -210436.14, -3016.2112, -0.0024865319, 0.16774887, 21645.838, 159106.11, 0.0000000005106852, 10.001781, 9.998703 
5.0008845e+0, 2.9597348e+2, 129726.4, -109599.734, -1332.8354, -0.0045203795, 0.12801412, 129733.82, 169209.92, 0.000003227908, 10.00186, 9.998684 
5.0009704e+0, 3.0597273e+2, 169164.14, -101888.984, -2351.2283, -0.00056144677, 0.2012372, 169184.53, 169184.53, 0.000038102575, 10.001951, 9.998359 
5.001087e+0, 3.1597054e+2, 244697.61, 32659.11, -4944.0195, 0.006288336, 0.14753501, 244812.83, 244812.83, 0.00014042419, 10.0020485, 9.999237 
1.4998491e+1, 1.2598115e+2, -1748942.4, -1650828.8, -1.3367999, -0.06415224, 0.08243435, -1650828.8, 54567.438, 0.000051840474, 9.999418, 10.000719 
1.4999126e+1, 1.3598226e+2, -1648847.9, -1608831.9, 5432.3413, -0.039630335, 0.17229733, -1608107.6, -721.9014, 0.000017729604, 9.99968, 10.000209 
1.499954e+1, 1.4598167e+2, -1520122.8, -1489197.1, -3039.7488, -0.025269488, 0.09032346, -1488901.3, 20490.717, 0.0000024017909, 9.999861, 10.000267 
1.4999714e+1, 1.5598238e+2, -1404593.6, -1384498.5, -8170.119, -0.026963176, 0.13138567, -1381596.0, 29789.713, 0.000000014045858, 9.999989, 10.000252 
1.4999941e+1, 1.659827e+2, -1320276.9, -1347784.3, -5978.5117, -0.025682399, 0.16522482, -1319033.8, -5649.0728, 0.0, 10.000131, 9.999763 
1.5000214e+1, 1.7598258e+2, -1198966.0, -1237034.3, -945.14734, -0.021447813, 0.17241329, -1198942.6, 16446.47, 0.0, 10.000284, 9.999777 
1.5000506e+1, 1.8598256e+2, -1102339.9, -1172876.6, -1053.3174, -0.012172705, 0.20945902, -1102324.1, 15068.544, 0.0, 10.000418, 9.99948 
1.5000811e+1, 1.9598268e+2, -984875.06, -1062439.1, -1843.9218, 0.00017842784, 0.27111477, -984831.25, 34563.97, 0.0, 10.000539, 9.999507 
1.5001026e+1, 2.0598242e+2, -877591.75, -973464.7, -721.07135, 0.0034658695, 0.29932243, -877586.3, 43813.254, 0.0, 10.00066, 9.999387 
1.500118e+1, 2.1598183e+2, -760521.8, -864201.5, 1799.5188, 0.00044568765, 0.2989912, -760490.6, 62914.984, 0.0, 10.000782, 9.999405 
1.5001334e+1, 2.2598095e+2, -657066.0, -786806.9, 4882.423, -0.00462787, 0.28288233, -656882.56, 68530.85, 0.0, 10.00092, 9.999197 
1.5001495e+1, 2.3597991e+2, -533952.25, -671160.4, 5949.481, -0.010810928, 0.2546692, -533694.75, 93727.63, 0.0, 10.001069, 9.999247 
1.5001725e+1, 2.4597906e+2, -411738.8, -553500.8, 4491.7544, -0.007636666, 0.23924868, -411596.63, 117832.484, 0.0, 10.001201, 9.999319 
1.5002003e+1, 2.5597832e+2, -294160.16, -443266.03, 3873.2964, 0.0017257108, 0.22882335, -294059.6, 137374.86, 0.0, 10.001323, 9.999344 
1.5002248e+1, 2.6597732e+2, -187822.02, -364291.38, 5974.5396, 0.0027485797, 0.20728047, -187619.98, 145822.03, 0.0, 10.001479, 9.999138 
1.5002473e+1, 2.7597615e+2, -63174.586, -252977.27, 4565.882, -0.0018903642, 0.17586122, -63064.813, 172386.34, 0.0, 10.00166, 9.999142 
1.5002598e+1, 2.859749e+2, 24608.172, -204105.45, -78.06391, -0.0074626026, 0.15248647, 24608.2, 162070.98, 0.00000000036389677, 10.0017805, 9.998746 
1.5002654e+1, 2.9597345e+2, 131806.48, -105212.58, 1832.5643, -0.013557894, 0.13268925, 131820.66, 171296.89, 0.0000031171262, 10.00186, 9.998714 
1.5002912e+1, 3.0597273e+2, 163155.06, -114318.23, 1275.1823, -0.0016949661, 0.21338123, 163160.92, 163160.92, 0.0000374169, 10.001951, 9.998274 
1.5003261e+1, 3.1597045e+2, 239157.1, 21291.29, 93.44833, 0.018791795, 0.1576539, 239157.13, 239157.13, 0.00013856335, 10.002048, 9.999159 
2.4997772e+1, 1.2598084e+2, -1728354.6, -1639522.4, -1119.5143, -0.08483327, 0.0941785, -1639508.3, 65891.375, 0.000046849033, 9.999555, 10.000731 
2.4998534e+1, 1.3598192e+2, -1654138.4, -1610438.5, -1141.5607, -0.06485463, 0.17881724, -1610408.8, -3019.512, 0.000015561249, 9.9996395, 10.000217 
2.4999149e+1, 1.4598127e+2, -1534353.4, -1504348.3, -9623.885, -0.04745126, 0.09400407, -1501526.8, 7869.3716, 0.0000019703923, 9.999799, 10.000194 
2.4999517e+1, 1.5598187e+2, -1405929.5, -1391778.1, -9774.203, -0.04672577, 0.1333655, -1386787.3, 24603.885, 0.000000006345991, 10.000009, 10.000193 
2.4999927e+1, 1.6598222e+2, -1311008.3, -1333560.3, -9118.215, -0.041157976, 0.16664812, -1307782.9, 5606.9937, 0.0, 10.000153, 9.99985 
2.500039e+1, 1.7598218e+2, -1197306.4, -1226915.4, -7661.1743, -0.030904124, 0.17425881, -1195441.5, 19951.379, 0.0, 10.000256, 9.99986 
2.5000829e+1, 1.8598221e+2, -1097646.0, -1165262.6, -4745.7124, -0.022212777, 0.20844166, -1097314.5, 20081.406, 0.0, 10.000427, 9.999528 
2.500125e+1, 1.9598234e+2, -966460.7, -1048793.5, -532.1298, -0.015118625, 0.26506227, -966457.25, 52940.957, 0.0, 10.000645, 9.99955 
2.500164e+1, 2.0598206e+2, -862140.8, -966359.94, -2904.18, -0.0066799014, 0.29176262, -862059.94, 59342.563, 0.0, 10.000768, 9.999384 
2.5002006e+1, 2.159815e+2, -753929.0, -860883.0, -5397.916, 0.0026360278, 0.29268232, -753657.25, 69751.266, 0.0, 10.000827, 9.999407 
2.5002298e+1, 2.2598067e+2, -658259.9, -782231.3, -3268.016, 0.0012716104, 0.27813795, -658173.8, 67242.15, 0.0, 10.00089, 9.999244 
2.5002542e+1, 2.3597968e+2, -547740.25, -673519.25, -1107.8367, -0.0072517553, 0.25174692, -547730.5, 79693.72, 0.0, 10.000956, 9.999286 
2.5002894e+1, 2.4597882e+2, -426998.97, -563976.44, -232.44371, -0.0063578454, 0.2379945, -426998.6, 102432.28, 0.0, 10.001109, 9.99929 
2.5003317e+1, 2.5597808e+2, -295876.22, -446860.88, -1221.3381, 0.00077708816, 0.22940701, -295866.34, 135570.23, 0.0, 10.001323, 9.999319 
2.500368e+1, 2.6597705e+2, -190752.84, -365062.06, 784.7529, -0.0006667398, 0.20667544, -190749.31, 142695.1, 0.0, 10.001456, 9.999144 
2.5004014e+1, 2.7597588e+2, -80481.56, -260665.7, 1694.551, -0.007902911, 0.17228404, -80465.625, 154988.14, 0.0, 10.001539, 9.999147 
2.5004306e+1, 2.8597462e+2, 18076.898, -206173.23, -2207.7356, -0.012097856, 0.14894946, 18098.633, 155563.94, 0.00000000025082827, 10.001731, 9.998756 
2.5004575e+1, 2.959732e+2, 152098.33, -94953.016, -3125.696, -0.014205446, 0.1314368, 152137.86, 191616.33, 0.000002969252, 10.001997, 9.998719 
2.5004968e+1, 3.059725e+2, 185884.1, -108375.37, -6455.844, -0.00011526581, 0.21351033, 186025.67, 186025.67, 0.00003639656, 10.00213, 9.998229 
2.500537e+1, 3.1597015e+2, 254417.23, 24457.05, -3130.993, 0.018857785, 0.15692694, 254459.86, 254459.86, 0.0001357669, 10.002171, 9.999122 
3.499734e+1, 1.2598038e+2, -1734438.8, -1651731.4, 638.91815, -0.083620764, 0.09773826, -1651726.5, 53677.594, 0.000040315306, 9.999553, 10.0006485 
3.499793e+1, 1.3598119e+2, -1659059.3, -1620502.3, 2597.3623, -0.088988066, 0.16440333, -1620328.0, -12931.847, 0.000012732851, 9.999639, 10.000149 
3.4998673e+1, 1.4598055e+2, -1534735.3, -1505130.1, -1724.8989, -0.07512247, 0.08326423, -1505030.0, 4373.312, 0.0000014374052, 9.999799, 10.000188 
3.499931e+1, 1.5598133e+2, -1406056.1, -1392053.9, -2232.3533, -0.06840763, 0.14112084, -1391706.5, 19690.334, 0.0000000013691683, 10.000009, 10.000191 
3.4999943e+1, 1.6598175e+2, -1308478.4, -1328277.9, -5259.6377, -0.05512556, 0.17949863, -1307167.9, 6226.8784, 0.0, 10.000153, 9.9998865 
3.5000598e+1, 1.7598169e+2, -1194165.5, -1220396.5, -3276.0532, -0.03565147, 0.18219437, -1193762.5, 21635.344, 0.0, 10.000256, 9.999905 
3.5001138e+1, 1.8598174e+2, -1089349.0, -1148011.5, 3506.258, -0.034298867, 0.20979923, -1089140.3, 28259.94, 0.0, 10.000427, 9.999647 
3.5001588e+1, 1.9598192e+2, -959450.9, -1034206.8, 7144.412, -0.045927346, 0.2592348, -958774.2, 60627.168, 0.0, 10.000644, 9.999651 
3.5002178e+1, 2.0598161e+2, -867102.0, -976628.9, -641.3855, -0.02941193, 0.28241587, -867098.25, 54307.695, 0.0, 10.000768, 9.999313 
3.5002872e+1, 2.1598096e+2, -758003.8, -869313.5, -3108.5823, 0.006600601, 0.28218055, -757917.1, 65496.063, 0.0, 10.000827, 9.999349 
3.5003337e+1, 2.2598013e+2, -654244.1, -773819.5, -812.17566, 0.016025677, 0.26799476, -654238.6, 71181.836, 0.0, 10.00089, 9.999302 
3.5003644e+1, 2.3597921e+2, -544316.9, -666378.56, 1927.1403, 0.006963891, 0.24300542, -544286.44, 83141.3, 0.0, 10.000956, 9.999334 
3.500408e+1, 2.4597834e+2, -429176.94, -568487.3, 7830.5366, 0.0011873948, 0.22607286, -428738.16, 100696.57, 0.0, 10.001109, 9.99926 
3.5004607e+1, 2.5597748e+2, -297645.8, -450454.06, 6324.6606, -0.0023154314, 0.21156654, -297384.47, 134057.16, 0.0, 10.001323, 9.999294 
3.500505e+1, 2.659766e+2, -188476.8, -360228.94, 3796.9456, -0.009412074, 0.19765458, -188392.9, 145055.83, 0.0, 10.001456, 9.999177 
3.5005444e+1, 2.7597564e+2, -78584.65, -256648.25, 5510.456, -0.018752312, 0.18196394, -78414.28, 157041.78, 0.0, 10.001538, 9.999176 
3.5005993e+1, 2.8597432e+2, 16359.381, -209713.52, 7796.5806, -0.016515885, 0.15708895, 16627.943, 154095.78, 0.00000000021451357, 10.001731, 9.998732 
3.5006648e+1, 2.9597276e+2, 150557.95, -98104.38, 6087.3076, -0.006607005, 0.12423213, 150706.88, 190189.64, 0.0000027944461, 10.001996, 9.998697 
3.500714e+1, 3.0597198e+2, 185551.3, -108961.93, -4921.212, 0.0040913597, 0.20169263, 185633.5, 185633.5, 0.000035014476, 10.00213, 9.998225 
3.5007417e+1, 3.1596968e+2, 254659.89, 25026.99, -151.93248, 0.0062290356, 0.14530596, 254660.0, 254660.0, 0.00013190451, 10.002171, 9.9991255 
4.49967e+1, 1.2597966e+2, -1762765.0, -1673147.3, -2824.5793, -0.09474921, 0.09011896, -1673058.4, 32351.982, 0.000032724987, 9.9993925, 10.000579 
4.4997418e+1, 1.3598044e+2, -1653762.9, -1624027.1, 1186.1592, -0.10763543, 0.15781711, -1623979.9, -16576.492, 0.0000095173555, 9.9997015, 10.000094 
4.4998333e+1, 1.4597979e+2, -1525871.1, -1500199.6, -4548.8877, -0.091868415, 0.07946194, -1499417.4, 9993.278, 0.00000089505704, 9.999857, 10.000195 
4.4999126e+1, 1.5598062e+2, -1419864.3, -1397841.8, -4120.5776, -0.08248133, 0.14051819, -1397096.0, 14307.792, 0.00000000008098328, 9.99991, 10.000198 
4.499991e+1, 1.6598107e+2, -1322052.4, -1331864.1, -6566.0674, -0.06849123, 0.18043394, -1318761.9, -5360.512, 0.0, 10.000046, 9.999913 
4.5000708e+1, 1.7598104e+2, -1194797.8, -1218086.9, -5325.553, -0.049139872, 0.18338363, -1193637.8, 21766.182, 0.0, 10.00024, 9.999928 
4.5001438e+1, 1.8598107e+2, -1098637.8, -1153645.3, -4481.1265, -0.043861974, 0.20831098, -1098275.1, 19131.223, 0.0, 10.000368, 9.999637 
4.5002103e+1, 1.9598119e+2, -987712.0, -1048483.1, -10559.508, -0.049101263, 0.2533053, -985929.5, 33478.633, 0.0, 10.000453, 9.999645 
4.500285e+1, 2.0598088e+2, -888436.94, -983307.0, -18401.055, -0.03106945, 0.274096, -884992.9, 36419.824, 0.0, 10.000606, 9.999346 
4.5003656e+1, 2.1598025e+2, -759137.44, -866289.25, -13257.974, 0.0033355593, 0.2727326, -757521.4, 65898.19, 0.0, 10.000804, 9.999381 
4.5004264e+1, 2.2597946e+2, -638761.06, -763359.56, -9612.503, 0.015203983, 0.25973246, -638023.9, 87402.53, 0.0, 10.000982, 9.999329 
4.5004737e+1, 2.359786e+2, -514351.53, -649024.6, -9183.096, 0.0112208, 0.23749529, -513728.25, 113704.97, 0.0, 10.001148, 9.999361 
4.5005298e+1, 2.459777e+2, -411082.78, -558227.7, -2137.06, 0.0065506543, 0.21709104, -411051.75, 118388.64, 0.0, 10.001226, 9.999273 
4.5005932e+1, 2.559768e+2, -307340.88, -453315.97, -126.38522, 0.0014523336, 0.19507532, -307340.78, 124107.1, 0.0, 10.001248, 9.9993105 
4.500652e+1, 2.6597598e+2, -191005.52, -356706.84, 1156.0956, -0.00622052, 0.18791205, -190997.45, 142456.7, 0.0, 10.001418, 9.99922 
4.5007092e+1, 2.7597526e+2, -54503.19, -241410.88, 3307.1055, -0.01544882, 0.18857202, -54444.695, 181014.98, 0.0, 10.001689, 9.999208 
4.5007783e+1, 2.8597394e+2, 20815.377, -214278.63, 2663.5706, -0.013661759, 0.16438247, 20845.55, 158317.36, 0.00000000034042036, 10.001791, 9.998672 
4.5008555e+1, 2.959722e+2, 115731.23, -120513.164, -1335.3708, -0.0046055308, 0.12137056, 115738.77, 155227.31, 0.0000026033522, 10.001781, 9.998648 
4.5009214e+1, 3.0597138e+2, 170370.2, -112959.92, -8965.876, 0.0044387723, 0.19619378, 170653.64, 170653.64, 0.00003329706, 10.00201, 9.998256 
4.5009658e+1, 3.1596908e+2, 290457.6, 46495.254, -856.4458, 0.002075655, 0.1391763, 290460.6, 290460.6, 0.00012697614, 10.0023985, 9.999165 
5.4995847e+1, 1.2597872e+2, -1766912.1, -1681572.3, 7699.9077, -0.119319506, 0.07168722, -1680883.1, 24535.402, 0.000024933155, 9.999392, 10.000522 
5.4996985e+1, 1.3597964e+2, -1656646.0, -1629845.9, 11896.784, -0.12109348, 0.1592768, -1625326.8, -17915.979, 0.000006388969, 9.999701, 10.000055 
5.499813e+1, 1.45979e+2, -1524826.9, -1497916.4, -2664.3625, -0.09789794, 0.082666375, -1497655.0, 11763.087, 0.00000045379167, 9.999857, 10.000211 
5.499897e+1, 1.5597974e+2, -1418701.0, -1395454.6, -1632.0891, -0.089312315, 0.13156804, -1395340.6, 16071.453, 0.0, 9.99991, 10.000216 
5.499982e+1, 1.6598018e+2, -1320743.4, -1329190.8, 715.4083, -0.08153474, 0.16947247, -1320683.3, -7273.801, 0.0, 10.000047, 9.999932 
5.500073e+1, 1.7598023e+2, -1194584.4, -1217660.6, 1581.6068, -0.07149701, 0.17790346, -1194476.5, 20934.645, 0.0, 10.00024, 9.999931 
5.500173e+1, 1.8598019e+2, -1108380.6, -1173893.5, -1297.56, -0.051120277, 0.20404807, -1108354.9, 9059.58, 0.0, 10.000368, 9.999497 
5.5002797e+1, 1.9598015e+2, -995530.75, -1064770.5, -6882.615, -0.02490804, 0.24733554, -994853.25, 24565.188, 0.0, 10.000453, 9.999533 
5.500365e+1, 2.0597984e+2, -878936.7, -963605.7, -10904.228, -0.011849595, 0.26682377, -877554.94, 43867.855, 0.0, 10.000606, 9.999481 
5.500435e+1, 2.1597932e+2, -750608.9, -848559.8, -5868.0586, -0.0073508183, 0.264309, -750258.56, 73169.16, 0.0, 10.000804, 9.999502 
5.500508e+1, 2.2597864e+2, -639061.3, -763944.94, -3318.5247, -0.0014073222, 0.2532796, -638973.2, 86460.63, 0.0, 10.000982, 9.999325 
5.500583e+1, 2.3597781e+2, -514194.34, -648624.44, -3459.7512, 0.005423356, 0.23519336, -514105.34, 113335.29, 0.0, 10.001148, 9.999364 
5.500656e+1, 2.4597691e+2, -407059.7, -549776.8, -1398.6145, 0.009564289, 0.21100914, -407045.97, 122401.83, 0.0, 10.001226, 9.999332 
5.5007285e+1, 2.5597596e+2, -303379.63, -445055.9, 1599.237, 0.011827116, 0.17993309, -303361.6, 128093.72, 0.0, 10.001248, 9.999368 
5.500809e+1, 2.6597524e+2, -187376.11, -349187.66, 11351.021, 0.00869686, 0.17743649, -186583.72, 146876.95, 0.0, 10.001419, 9.999271 
5.500895e+1, 2.759747e+2, -51948.535, -236049.39, 12376.64, 0.0017846386, 0.19213584, -51120.21, 184344.45, 0.0, 10.001688, 9.999245 
5.5009675e+1, 2.859734e+2, 14065.144, -228179.06, 2193.2627, -0.0037118245, 0.17080268, 14085.0, 151562.22, 0.0000000006700443, 10.00179, 9.998577 
5.50103e+1, 2.9597148e+2, 110134.016, -132017.25, -214.44823, -0.008210602, 0.12280811, 110134.2, 149629.97, 0.0000023959767, 10.001781, 9.998569 
5.501119e+1, 3.0597067e+2, 174835.03, -103670.11, 5700.3945, 0.00085514947, 0.19684917, 174951.66, 174951.66, 0.000031288328, 10.00201, 9.99832 
5.5012095e+1, 3.1596845e+2, 295580.03, 57032.867, 14261.376, 0.005645989, 0.13829823, 296429.6, 296429.6, 0.0001210288, 10.0023985, 9.999236 
6.4995116e+1, 1.259775e+2, -1766570.1, -1680725.1, -14523.3545, -0.13192435, 0.06514564, -1678334.6, 27095.594, 0.00001782932, 9.999391, 10.000528 
6.499652e+1, 1.3597855e+2, -1677435.5, -1637569.5, -4634.8003, -0.12967092, 0.1639457, -1637037.8, -29616.229, 0.0000037958928, 9.999548, 10.000075 
6.4997864e+1, 1.4597793e+2, -1538067.6, -1501394.5, -19694.15, -0.10476468, 0.086879455, -1492822.1, 16606.541, 0.0000001737419, 9.999753, 10.0002365 
6.49988e+1, 1.5597858e+2, -1404814.0, -1385804.6, -17965.129, -0.101218, 0.1258502, -1374984.9, 36438.29, 0.0, 9.999992, 10.000241 
6.49998e+1, 1.6597903e+2, -1303362.1, -1317385.6, -14684.221, -0.093657, 0.16114148, -1294101.5, 19318.75, 0.0, 10.000152, 9.999963 
6.500089e+1, 1.7597914e+2, -1190629.5, -1213259.0, -12962.294, -0.0801687, 0.17258953, -1184738.3, 30682.842, 0.0, 10.000257, 9.999953 
6.500206e+1, 1.859791e+2, -1107350.8, -1179458.4, -12402.328, -0.057002887, 0.20064385, -1105277.1, 12147.515, 0.0, 10.0004015, 9.999443 
6.5003276e+1, 1.9597901e+2, -980878.6, -1062314.8, -11576.321, -0.028548788, 0.24495722, -979265.0, 40164.418, 0.0, 10.000574, 9.999492 
6.500429e+1, 2.0597872e+2, -856248.56, -943999.06, -14261.427, -0.014093113, 0.26219568, -853988.94, 67444.68, 0.0, 10.000725, 9.999558 
6.500517e+1, 2.1597824e+2, -737357.3, -834115.25, -13792.429, -0.00887101, 0.25526702, -735429.6, 88008.21, 0.0, 10.00086, 9.999575 
6.500602e+1, 2.2597761e+2, -644190.06, -764500.7, -14264.196, -0.003692082, 0.24796157, -642522.0, 82921.266, 0.0, 10.000939, 9.999342 
6.500685e+1, 2.359769e+2, -537456.5, -657481.56, -12886.394, 0.0014969349, 0.23926707, -536088.56, 91360.875, 0.0, 10.000978, 9.999385 
6.500773e+1, 2.4597603e+2, -421057.6, -550872.44, -10379.806, 0.0099866595, 0.21379447, -420232.88, 109223.45, 0.0, 10.001106, 9.999383 
6.5008646e+1, 2.5597504e+2, -293750.6, -435622.84, -7796.758, 0.02068334, 0.17398132, -293323.4, 138140.4, 0.0, 10.001294, 9.999411 
6.500958e+1, 2.6597437e+2, -192575.5, -354359.0, 211.7957, 0.017507283, 0.17241026, -192575.23, 140893.94, 0.0, 10.001394, 9.999248 
6.501054e+1, 2.7597386e+2, -89674.65, -256678.67, -4419.667, 0.004604135, 0.19482706, -89557.766, 145915.38, 0.0, 10.00144, 9.999224 
6.5011424e+1, 2.8597254e+2, -4667.342, -237228.02, -12306.65, -0.0019271518, 0.17604323, -4017.912, 133467.83, 0.0000000009839726, 10.001662, 9.998576 
6.501224e+1, 2.9597068e+2, 142084.13, -117049.96, -7394.9365, -0.003936236, 0.12711287, 142294.98, 181799.31, 0.0000021664155, 10.002003, 9.998565 
6.501332e+1, 3.059698e+2, 200219.17, -96203.0, -380.6989, 0.00311991, 0.20336668, 200219.67, 200219.67, 0.000029021434, 10.002206, 9.998277 
6.5014404e+1, 3.1596756e+2, 281884.56, 47570.797, 864.47943, 0.00073971116, 0.14577223, 281887.75, 281887.75, 0.00011410821, 10.002317, 9.99921 
7.499449e+1, 1.25976e+2, -1761734.4, -1670388.6, -9803.356, -0.13311943, 0.07011472, -1669348.4, 36097.203, 0.000012032456, 9.99939, 10.0006 
7.4996024e+1, 1.3597715e+2, -1671827.3, -1625793.0, 1471.3887, -0.13396886, 0.17155643, -1625746.1, -18310.336, 0.000001957589, 9.999548, 10.000156 
7.499754e+1, 1.4597656e+2, -1535613.3, -1496216.3, -10761.683, -0.112961225, 0.09197845, -1493468.3, 15974.115, 0.00000004027787, 9.999753, 10.000272 
7.499863e+1, 1.5597717e+2, -1402339.5, -1380570.9, -9510.446, -0.11835501, 0.12338263, -1377001.1, 34435.65, 0.0, 9.999992, 10.0002775 
7.499984e+1, 1.6597763e+2, -1300459.5, -1311290.6, -10819.314, -0.105039634, 0.15548833, -1293776.0, 19657.67, 0.0, 10.000151, 10.000005 
7.500119e+1, 1.7597778e+2, -1187767.5, -1207308.9, -8742.686, -0.075572416, 0.16738161, -1184427.1, 31006.96, 0.0, 10.000257, 9.999994 
7.500241e+1, 1.859778e+2, -1105291.5, -1175134.3, -5911.0273, -0.061785255, 0.19804275, -1104794.8, 12642.202, 0.0, 10.0004015, 9.999473 
7.5003535e+1, 1.9597778e+2, -978874.06, -1058087.9, -5192.741, -0.059984986, 0.24614993, -978535.06, 40905.992, 0.0, 10.000574, 9.99952 
7.5004774e+1, 2.0597748e+2, -854897.9, -941156.9, -9111.193, -0.037832152, 0.2602303, -853946.0, 67499.29, 0.0, 10.000725, 9.999578 
7.5006104e+1, 2.1597694e+2, -735851.56, -830926.7, -8981.665, -0.0013714646, 0.24560896, -735010.5, 88439.37, 0.0, 10.00086, 9.999597 
7.500708e+1, 2.2597641e+2, -641577.44, -758998.56, -12787.703, 0.00816333, 0.24381657, -640200.94, 85253.8, 0.0, 10.000938, 9.99938 
7.50078e+1, 2.3597588e+2, -534743.7, -651822.6, -10859.417, -0.0007897819, 0.24972996, -533744.94, 93714.63, 0.0, 10.000978, 9.999424 
7.500881e+1, 2.4597506e+2, -418019.16, -544550.06, -3308.5667, 0.0076492312, 0.22541465, -417932.7, 111533.24, 0.0, 10.001106, 9.999426 
7.501001e+1, 2.5597405e+2, -291720.63, -431351.78, -1312.1455, 0.027918244, 0.17719431, -291708.3, 139765.13, 0.0, 10.001293, 9.99944 
7.5011003e+1, 2.659733e+2, -199533.39, -368774.13, 1804.3534, 0.02011472, 0.17285052, -199514.16, 133965.52, 0.0, 10.001394, 9.999148 
7.501186e+1, 2.759727e+2, -95302.35, -268344.38, -1638.0787, -0.007033037, 0.1966039, -95286.84, 140198.27, 0.0, 10.00144, 9.999144 
7.501302e+1, 2.8597143e+2, 1942.0277, -223509.53, 548.2569, -0.008387863, 0.18006453, 1943.361, 139440.69, 0.0000000010869243, 10.001662, 9.998671 
7.501436e+1, 2.9596967e+2, 147088.8, -106669.26, 4503.226, 0.007858487, 0.13415578, 147168.69, 186682.92, 0.0000019142904, 10.002003, 9.998636 
7.5015604e+1, 3.0596885e+2, 189732.55, -117919.29, 3784.168, 0.01089046, 0.21567665, 189779.1, 189779.1, 0.000026528098, 10.002205, 9.998127 
7.501659e+1, 3.1596646e+2, 273139.75, 29546.957, 6117.6123, -0.01285941, 0.1616097, 273293.28, 273293.28, 0.000106300286, 10.002316, 9.999087 
8.4993905e+1, 1.2597442e+2, -1779478.5, -1680868.4, -14477.048, -0.1251518, 0.084489286, -1678786.9, 26674.771, 0.000007783007, 9.999276, 10.000583 
8.4995514e+1, 1.3597544e+2, -1671823.3, -1625015.6, -8942.845, -0.14017102, 0.17120293, -1623365.3, -15912.004, 0.0000008582932, 9.999544, 10.000163 
8.4997207e+1, 1.4597487e+2, -1533832.9, -1488394.0, -23435.2, -0.12058539, 0.09117281, -1478473.3, 30986.076, 0.00000000288778, 9.999736, 10.000334 
8.499851e+1, 1.5597562e+2, -1415627.9, -1380371.4, -20549.496, -0.12304185, 0.13041615, -1370925.0, 40527.305, 0.0, 9.999873, 10.000337 
8.499988e+1, 1.659761e+2, -1321469.6, -1317389.8, -24225.885, -0.10781365, 0.16014835, -1295118.1, 18330.648, 0.0, 9.9999895, 10.00004 
8.5001355e+1, 1.759762e+2, -1208522.6, -1212608.0, -22512.451, -0.076818444, 0.16271316, -1187960.4, 27489.17, 0.0, 10.000094, 10.000036 
8.50027e+1, 1.8597627e+2, -1120901.9, -1171232.1, -14207.356, -0.06565644, 0.19178256, -1117168.4, 283.2425, 0.0, 10.000245, 9.999575 
8.5003936e+1, 1.9597639e+2, -993786.25, -1055239.0, -8260.819, -0.06947825, 0.24353856, -992695.2, 26758.715, 0.0, 10.000428, 9.99961 
8.500534e+1, 2.0597611e+2, -879255.44, -956596.1, -14041.477, -0.046514012, 0.2571335, -876785.06, 44672.89, 0.0, 10.000573, 9.999545 
8.5006845e+1, 2.1597551e+2, -762173.94, -846541.75, -18112.432, -0.00469179, 0.23929252, -758449.9, 65013.637, 0.0, 10.000692, 9.999571 
8.5007966e+1, 2.2597499e+2, -657924.4, -763503.44, -25434.816, 0.009596461, 0.2386268, -652116.44, 73351.914, 0.0, 10.000813, 9.99941 
8.500882e+1, 2.3597454e+2, -539307.5, -650909.75, -23790.05, 0.004854848, 0.24873747, -534447.8, 93024.83, 0.0, 10.000934, 9.999452 
8.5009974e+1, 2.4597375e+2, -420525.44, -545007.0, -14688.106, 0.01408328, 0.2270391, -418815.78, 110662.86, 0.0, 10.001085, 9.999433 
8.501134e+1, 2.5597277e+2, -297016.5, -434132.16, -15768.648, 0.03283015, 0.18020293, -295226.44, 136259.55, 0.0, 10.001258, 9.999438 
8.501246e+1, 2.6597196e+2, -200638.73, -378919.6, -15654.699, 0.024516994, 0.17566745, -199274.55, 134218.39, 0.0, 10.001429, 9.999063 
8.5013425e+1, 2.7597126e+2, -77816.0, -268115.84, -17625.023, -0.002432089, 0.1981174, -76197.39, 159302.33, 0.0, 10.0015955, 9.99907 
8.501474e+1, 2.8597e+2, 18247.832, -210426.52, -12297.407, -0.00640921, 0.18207297, 18907.248, 156419.23, 0.0000000009777485, 10.001751, 9.998718 
8.501628e+1, 2.959683e+2, 135516.4, -107488.336, -12112.244, 0.0051430436, 0.13808008, 136118.64, 175646.67, 0.0000016479609, 10.001903, 9.998679 
8.5017717e+1, 3.0596748e+2, 177905.94, -124942.33, -9764.983, 0.005223333, 0.22019596, 178220.47, 178220.47, 0.000023861305, 10.00213, 9.998116 
8.501886e+1, 3.1596503e+2, 286982.22, 37071.31, 3642.0815, -0.021825634, 0.16180944, 287035.3, 287035.3, 0.00009776159, 10.002408, 9.999095 
9.4993347e+1, 1.2597278e+2, -1787127.0, -1696669.6, -5276.6836, -0.10902885, 0.10820219, -1696362.9, 9115.623, 0.0000050394015, 9.999276, 10.000474 
9.4994974e+1, 1.359734e+2, -1676760.6, -1635254.6, 588.0636, -0.14872648, 0.16288811, -1635246.3, -27772.283, 0.00000033786506, 9.999544, 10.000093 
9.4996864e+1, 1.4597286e+2, -1527651.1, -1475423.3, -18398.44, -0.12810968, 0.08449428, -1469592.9, 39886.938, 0.0, 9.999735, 10.000423 
9.499845e+1, 1.5597394e+2, -1410014.4, -1368488.0, -15550.7705, -0.11590743, 0.14675243, -1363310.1, 48159.254, 0.0, 9.999872, 10.000419 
9.499992e+1, 1.6597444e+2, -1319697.3, -1313552.8, -20324.188, -0.10243843, 0.17494576, -1296069.9, 17395.438, 0.0, 9.9999895, 10.000067 
9.500138e+1, 1.7597438e+2, -1205688.1, -1206699.1, -18302.117, -0.08399938, 0.15861225, -1187884.5, 27583.043, 0.0, 10.000094, 10.000077 
9.5002913e+1, 1.8597452e+2, -1108692.4, -1145860.9, -7315.719, -0.068798035, 0.18191162, -1107304.3, 10164.159, 0.0, 10.000245, 9.999749 
9.500449e+1, 1.9597486e+2, -983313.9, -1033465.0, -1569.034, -0.05735697, 0.23711447, -983264.9, 36203.0, 0.0, 10.000428, 9.99976 
9.500597e+1, 2.0597461e+2, -885343.6, -969198.6, -9562.0, -0.040372957, 0.2528932, -884267.06, 37204.57, 0.0, 10.000573, 9.999458 
9.5007396e+1, 2.1597393e+2, -767424.3, -857438.44, -13597.98, -0.018989831, 0.23636065, -765415.0, 58063.715, 0.0, 10.000691, 9.9994955 
9.500869e+1, 2.2597335e+2, -656373.25, -760297.6, -20872.285, 0.00045613272, 0.2324537, -652337.9, 73146.35, 0.0, 10.000813, 9.999432 
9.500989e+1, 2.3597285e+2, -538135.5, -648499.1, -19047.986, 0.018355237, 0.23630379, -534940.44, 92548.2, 0.0, 10.000934, 9.999468 
9.501121e+1, 2.4597211e+2, -422573.22, -549294.9, -8188.4736, 0.029203221, 0.21867059, -422046.28, 107448.195, 0.0, 10.001085, 9.999403 
9.501262e+1, 2.559712e+2, -299347.2, -438986.84, -9278.139, 0.0352437, 0.18302195, -298733.4, 132768.06, 0.0, 10.001258, 9.999405 
9.5013946e+1, 2.6597038e+2, -205747.05, -389526.1, -9383.319, 0.03052265, 0.1808661, -205269.2, 128239.78, 0.0, 10.001428, 9.99899 
9.501523e+1, 2.7596954e+2, -82459.31, -277748.34, -11459.871, 0.018111235, 0.19932672, -81789.125, 153727.81, 0.0, 10.0015955, 9.999004 
9.501659e+1, 2.8596824e+2, 18243.887, -210426.3, -6661.096, 0.0037309555, 0.18200669, 18437.758, 155967.45, 0.00000000065795036, 10.001751, 9.998718 
9.501801e+1, 2.9596657e+2, 136382.61, -105557.47, -6033.3384, -0.011990288, 0.13888991, 136532.97, 176078.67, 0.000001379458, 10.001902, 9.9986925 
9.501965e+1, 3.0596575e+2, 186577.03, -106818.266, 751.60645, -0.0138043715, 0.21693574, 186578.95, 186578.95, 0.000021105876, 10.00213, 9.99824 
9.502122e+1, 3.1596336e+2, 296704.8, 57252.418, 14666.302, -0.026891747, 0.14609812, 297599.78, 297599.78, 0.000088718174, 10.002408, 9.999233 
1.0499278e+2, 1.2597087e+2, -1769201.9, -1687020.8, -6185.6406, -0.099581525, 0.11541454, -1686557.8, 18940.158, 0.0000035788082, 9.999395, 10.000483 
1.04994506e+2, 1.359715e+2, -1674302.3, -1630623.3, 8787.499, -0.14960422, 0.16958359, -1628921.6, -21428.633, 0.000000177014, 9.999547, 10.000124 
1.0499655e+2, 1.4597102e+2, -1535567.4, -1473973.9, -11921.3125, -0.12967825, 0.09088313, -1471747.0, 37751.152, 0.0, 9.999659, 10.00047 
1.0499827e+2, 1.559721e+2, -1425455.3, -1371156.1, -12201.052, -0.11495566, 0.1498861, -1368540.5, 42947.027, 0.0, 9.999745, 10.000462 
1.0499989e+2, 1.6597259e+2, -1325076.3, -1314468.8, -16153.757, -0.102506794, 0.17472021, -1302770.4, 10713.032, 0.0, 9.999946, 10.000081 
1.050015e+2, 1.7597252e+2, -1186233.8, -1195370.0, -15374.451, -0.08718164, 0.15535851, -1174763.1, 40722.45, 0.0, 10.000219, 10.000093 
1.0500322e+2, 1.8597265e+2, -1094104.5, -1135318.1, -14498.073, -0.06676577, 0.17515531, -1089515.4, 27971.006, 0.0, 10.000331, 9.99978 
1.05004996e+2, 1.9597296e+2, -995618.3, -1036426.5, -19276.36, -0.04447893, 0.22619537, -987952.75, 31532.79, 0.0, 10.000331, 9.999786 
1.0500659e+2, 2.0597273e+2, -901636.9, -979407.75, -25832.332, -0.030575363, 0.24317881, -893838.44, 27650.854, 0.0, 10.000471, 9.999437 
1.05008066e+2, 2.159721e+2, -766517.2, -858946.44, -24998.422, -0.021829974, 0.23178327, -760189.3, 63307.06, 0.0, 10.000707, 9.999478 
1.0500952e+2, 2.2597149e+2, -636131.9, -749561.56, -30669.412, -0.0042855497, 0.22669943, -628370.5, 97131.65, 0.0, 10.000947, 9.999441 
1.0501096e+2, 2.3597094e+2, -500581.25, -629926.8, -30171.342, 0.019064343, 0.22500475, -493889.63, 133617.33, 0.0, 10.001189, 9.999473 
1.0501241e+2, 2.4597028e+2, -393406.28, -539233.44, -22754.453, 0.030215465, 0.21596818, -389938.22, 139574.23, 0.0, 10.001303, 9.999368 
1.05013885e+2, 2.5596952e+2, -291597.78, -439195.06, -24066.35, 0.032993197, 0.19877061, -287772.78, 143745.77, 0.0, 10.001328, 9.99937 
1.0501538e+2, 2.6596862e+2, -206150.66, -393079.22, -20037.566, 0.030699754, 0.19473219, -204026.88, 129499.8, 0.0, 10.00144, 9.99896 
1.050169e+2, 2.7596763e+2, -82343.484, -280859.3, -19137.781, 0.024596015, 0.19721305, -80515.36, 155020.9, 0.0, 10.00161, 9.998976 
1.0501839e+2, 2.859663e+2, 17033.152, -211831.38, -14508.602, 0.009146157, 0.18115734, 17949.24, 155498.31, 0.00000000025503108, 10.001747, 9.998711 
1.0501989e+2, 2.9596475e+2, 130096.11, -109149.65, -14030.968, -0.012673513, 0.1513077, 130916.17, 170480.22, 0.000001118805, 10.001862, 9.998688 
1.05021685e+2, 3.0596396e+2, 179284.5, -108342.09, -7262.923, -0.020389011, 0.22871383, 179467.78, 179467.78, 0.000018367069, 10.00207, 9.998259 
1.0502346e+2, 3.159614e+2, 290530.28, 59013.938, -898.7438, -0.0401336, 0.14284348, 290533.75, 290533.75, 0.00007944771, 10.002345, 9.999276 
1.1499219e+2, 1.2596868e+2, -1760137.9, -1668364.0, -1195.4943, -0.09775658, 0.10593138, -1668348.5, 37171.508, 0.000003050449, 9.999395, 10.00061 
1.14994116e+2, 1.3596976e+2, -1665019.3, -1611092.3, 14229.38, -0.14328595, 0.19109863, -1607568.0, -57.944164, 0.00000018630364, 9.999545, 10.000258 
1.1499625e+2, 1.4596932e+2, -1535834.9, -1474195.3, -8643.204, -0.12576868, 0.11017598, -1473006.1, 36508.38, 0.0000000000835116, 9.999657, 10.000469 
1.1499796e+2, 1.5597011e+2, -1425559.3, -1371356.6, -8217.369, -0.12066987, 0.1398539, -1370138.3, 41368.46, 0.0, 9.999745, 10.00046 
1.1499978e+2, 1.6597056e+2, -1324776.6, -1313773.9, -5816.9, -0.10840848, 0.15950178, -1311268.9, 2234.0251, 0.0, 9.999945, 10.000087 
1.1500172e+2, 1.7597061e+2, -1186776.5, -1196279.8, -5994.6016, -0.0867159, 0.15286179, -1183878.8, 31624.924, 0.0, 10.000218, 10.000088 
1.1500362e+2, 1.8597066e+2, -1102176.8, -1151916.1, -14526.483, -0.059778303, 0.17146744, -1098245.0, 19260.25, 0.0, 10.00033, 9.999666 
1.1500546e+2, 1.9597074e+2, -1002486.1, -1050686.1, -18378.889, -0.0309283, 0.21079807, -996277.8, 23229.143, 0.0, 10.000331, 9.999688 
1.150072e+2, 2.0597051e+2, -898591.0, -973065.4, -16935.154, -0.017236328, 0.22803457, -894920.9, 26589.986, 0.0, 10.000471, 9.999481 
1.1500886e+2, 2.1596998e+2, -763769.0, -853232.06, -16064.558, -0.0133505445, 0.22552949, -760971.8, 62544.668, 0.0, 10.000707, 9.999517 
1.1501046e+2, 2.2596942e+2, -636453.0, -750180.25, -21490.549, -0.004735466, 0.22129847, -632527.5, 92994.54, 0.0, 10.000947, 9.999436 
1.1501203e+2, 2.3596883e+2, -501210.63, -631084.4, -21800.428, 0.0068889353, 0.21487625, -497648.94, 129878.63, 0.0, 10.001189, 9.999465 
1.1501358e+2, 2.4596827e+2, -396362.0, -545296.4, -21834.732, 0.017005552, 0.21898676, -393226.88, 136305.66, 0.0, 10.001303, 9.999327 
1.1501514e+2, 2.559677e+2, -294147.66, -444514.88, -22598.629, 0.02601625, 0.22738041, -290824.75, 140712.5, 0.0, 10.001328, 9.999333 
1.1501676e+2, 2.6596674e+2, -205241.23, -391230.7, -13648.438, 0.025037035, 0.21718915, -204245.0, 129301.03, 0.0, 10.00144, 9.998972 
1.15018435e+2, 2.7596548e+2, -81677.234, -279486.3, -12958.81, 0.01704036, 0.19182049, -80831.89, 154725.8, 0.0, 10.00161, 9.998985 
1.1502015e+2, 2.859642e+2, 16048.426, -213934.27, -10232.941, 0.009747118, 0.17951874, 16502.836, 154072.95, 0.000000000026412617, 10.001747, 9.998696 
1.1502191e+2, 2.959629e+2, 128595.94, -112373.41, -9210.078, 0.0027693196, 0.17510295, 128947.445, 168530.5, 0.0000008745259, 10.001862, 9.998666 
1.15023814e+2, 3.0596206e+2, 173066.08, -121255.43, 3126.2732, -0.014844316, 0.2552618, 173099.28, 173099.28, 0.000015743772, 10.00207, 9.99817 
1.1502559e+2, 3.1595922e+2, 286602.7, 51056.324, 9991.776, -0.061862417, 0.15174872, 287025.78, 287025.78, 0.000070235736, 10.002344, 9.999222 
1.24991596e+2, 1.2596656e+2, -1753576.5, -1660515.6, -3415.4346, -0.09823128, 0.11115522, -1660390.4, 45150.535, 0.0000030832873, 9.99942, 10.000652 
1.249937e+2, 1.3596766e+2, -1676916.8, -1610021.0, 6481.106, -0.13431722, 0.1895338, -1609398.9, -1868.1987, 0.0000002714346, 9.999434, 10.0003195 
1.2499597e+2, 1.4596723e+2, -1541912.4, -1474534.3, -14528.651, -0.11593782, 0.10612809, -1471535.0, 37999.688, 0.0000000011616538, 9.999603, 10.000493 
1.249978e+2, 1.55968e+2, -1405321.1, -1359136.5, -12235.099, -0.11758857, 0.13241065, -1356095.5, 55431.348, 0.0, 9.999874, 10.000482 
1.2499979e+2, 1.6596848e+2, -1314864.0, -1308264.3, -9697.736, -0.10473638, 0.15311833, -1301320.4, 12202.408, 0.0, 10.00001, 10.0000925 
1.2500195e+2, 1.7596859e+2, -1210731.9, -1207931.8, -10100.91, -0.077398635, 0.15117157, -1199134.4, 16388.688, 0.0, 10.000054, 10.000087 
1.2500398e+2, 1.8596861e+2, -1124799.6, -1170080.6, -18108.02, -0.050158434, 0.17190185, -1118448.9, -923.8922, 0.0, 10.000206, 9.999601 
1.250059e+2, 1.9596864e+2, -992438.2, -1052464.0, -18165.158, -0.024637336, 0.21129128, -987369.1, 32158.395, 0.0, 10.000429, 9.999629 
1.2500778e+2, 2.0596834e+2, -883349.56, -966942.06, -15650.307, -0.011283565, 0.225853, -880515.56, 41016.4, 0.0, 10.000582, 9.99947 
1.2500963e+2, 2.1596777e+2, -767298.8, -856032.75, -18794.686, -0.005766006, 0.21876104, -763482.06, 60055.87, 0.0, 10.000687, 9.999508 
1.2501138e+2, 2.2596721e+2, -653816.9, -758239.5, -24519.771, -0.0011126832, 0.21602602, -648345.94, 77197.52, 0.0, 10.000826, 9.999439 
1.2501307e+2, 2.3596667e+2, -530633.06, -645497.4, -24511.342, 0.002661871, 0.2152376, -525621.1, 101927.39, 0.0, 10.000988, 9.999462 
1.2501478e+2, 2.4596614e+2, -413036.03, -558829.44, -26556.91, 0.011831717, 0.22509612, -408349.25, 121204.33, 0.0, 10.001212, 9.999277 
1.2501654e+2, 2.559656e+2, -275907.6, -440977.44, -28097.697, 0.02463983, 0.23946536, -271255.97, 160302.7, 0.0, 10.001476, 9.999286 
1.2501827e+2, 2.6596457e+2, -181434.2, -382030.2, -22041.402, 0.023434682, 0.226488, -179040.86, 154527.22, 0.0, 10.001614, 9.998952 
1.2502001e+2, 2.759632e+2, -75333.484, -278459.13, -23493.396, 0.012321138, 0.19217661, -72651.664, 162928.84, 0.0, 10.001661, 9.998967 
1.2502189e+2, 2.8596193e+2, 29407.627, -207195.77, -18266.273, 0.005137856, 0.1808829, 30809.514, 168402.3, 0.0, 10.001838, 9.998699 
1.2502386e+2, 2.959607e+2, 162397.33, -96802.02, -16231.769, 0.00053965877, 0.18446659, 163409.84, 203014.72, 0.0000006546641, 10.002097, 9.998659 
1.2502593e+2, 3.0595988e+2, 185211.31, -125806.375, -5321.346, -0.017102592, 0.26896328, 185302.33, 185302.33, 0.0000132978475, 10.002199, 9.998076 
1.2502782e+2, 3.1595692e+2, 260449.81, 32213.992, 1929.0245, -0.06586929, 0.16369276, 260466.11, 260466.11, 0.000061306615, 10.002192, 9.999166 
1.3499098e+2, 1.2596455e+2, -1757010.4, -1667514.4, -3355.8843, -0.101302154, 0.13117835, -1667388.8, 38172.066, 0.0000033913916, 9.99942, 10.000605 
1.3499324e+2, 1.3596517e+2, -1678022.4, -1612374.9, 8021.227, -0.12354066, 0.1649189, -1611409.0, -3854.2737, 0.00000039333747, 9.999434, 10.000303 
1.3499573e+2, 1.4596473e+2, -1538313.1, -1467024.6, -4303.477, -0.100959286, 0.07869299, -1466765.9, 42792.777, 0.0000000035362315, 9.999603, 10.000545 
1.3499779e+2, 1.5596579e+2, -1402177.6, -1352312.5, -2798.646, -0.105978265, 0.12754998, -1352156.0, 59391.965, 0.0, 9.999872, 10.000529 
1.3499993e+2, 1.6596636e+2, -1314668.3, -1307613.3, -8010.3164, -0.09166709, 0.15557684, -1302388.1, 11154.895, 0.0, 10.000009, 10.000098 
1.3500218e+2, 1.7596643e+2, -1210601.8, -1207627.4, -7708.6035, -0.059575338, 0.15024644, -1201263.8, 14279.966, 0.0, 10.000054, 10.00009 
1.350043e+2, 1.859665e+2, -1125926.9, -1172420.8, -9653.126, -0.038161814, 0.17639431, -1124002.4, -6456.9434, 0.0, 10.000206, 9.999586 
1.3500634e+2, 1.9596665e+2, -993902.25, -1055498.1, -10151.619, -0.025728619, 0.2276191, -992272.3, 27274.838, 0.0, 10.000428, 9.999608 
1.3500835e+2, 2.0596623e+2, -887987.44, -976575.56, -11696.509, -0.012868382, 0.23657158, -886469.1, 35083.473, 0.0, 10.000581, 9.999404 
1.3501039e+2, 2.1596542e+2, -771464.06, -864659.25, -14572.255, 0.00079903816, 0.21151365, -769238.6, 54322.254, 0.0, 10.000687, 9.999448 
1.3501228e+2, 2.2596486e+2, -653177.1, -756866.9, -18421.67, 0.0064147105, 0.21089248, -650001.56, 75564.81, 0.0, 10.000826, 9.999449 
1.350141e+2, 2.3596449e+2, -530385.4, -645008.6, -18009.277, 0.0061860243, 0.22602957, -527622.4, 99947.51, 0.0, 10.000988, 9.999466 
1.3501602e+2, 2.4596392e+2, -417056.38, -567180.44, -16564.77, 0.014524714, 0.23430954, -415250.3, 114325.24, 0.0, 10.001212, 9.99922 
1.3501805e+2, 2.5596318e+2, -279959.56, -449339.84, -18896.959, 0.028732454, 0.23514648, -277876.94, 153705.89, 0.0, 10.001476, 9.9992285 
1.3501991e+2, 2.659621e+2, -185115.98, -389695.03, -20245.88, 0.025698101, 0.22263996, -183131.63, 150461.19, 0.0, 10.001614, 9.998899 
1.3502166e+2, 2.7596077e+2, -78451.0, -285038.88, -20873.354, 0.0103318365, 0.19817974, -76363.086, 159241.67, 0.0, 10.001662, 9.998921 
1.3502364e+2, 2.8595948e+2, 30797.805, -204356.27, -8435.836, -0.0047733537, 0.18517514, 31100.041, 168717.1, 0.0, 10.001838, 9.998718 
1.3502575e+2, 2.9595816e+2, 162937.56, -95591.54, -7429.7534, -0.019413453, 0.17952867, 163150.9, 202780.38, 0.0000004660869, 10.002097, 9.998668 
1.3502802e+2, 3.0595735e+2, 178352.47, -140032.22, -5634.311, -0.027374212, 0.26990512, 178452.14, 178452.14, 0.000011042731, 10.002199, 9.997979 
1.3503014e+2, 3.1595445e+2, 256445.72, 23837.068, 2715.8914, -0.052911375, 0.17821382, 256477.42, 256477.42, 0.000052781335, 10.002192, 9.999108 
1.4499044e+2, 1.2596227e+2, -1774482.3, -1680596.8, -10541.171, -0.09195746, 0.1393737, -1679427.8, 26155.479, 0.000003766588, 9.99932, 10.000563 
1.4499275e+2, 1.359627e+2, -1663748.8, -1607242.5, 1935.1428, -0.12022752, 0.15678734, -1607176.4, 402.3131, 0.00000052701, 9.99954, 10.000287 
1.449954e+2, 1.4596225e+2, -1530438.9, -1463381.5, -11302.885, -0.095269926, 0.06982198, -1461527.6, 48055.094, 0.000000006774009, 9.999659, 10.000543 
1.4499772e+2, 1.5596335e+2, -1426980.4, -1364124.9, -13900.215, -0.092452005, 0.124149136, -1361188.1, 50383.445, 0.0, 9.9997015, 10.000531 
1.45e+2, 1.6596396e+2, -1329575.4, -1310757.0, -19105.98, -0.07905074, 0.15360405, -1298869.0, 14697.342, 0.0, 9.999889, 10.000134 
1.4500237e+2, 1.7596407e+2, -1191157.0, -1194555.8, -16544.818, -0.053910762, 0.14732873, -1176224.5, 39342.277, 0.0, 10.000172, 10.000123 
1.4500462e+2, 1.8596417e+2, -1107848.3, -1162732.3, -17120.96, -0.035243586, 0.17409673, -1102945.4, 14622.714, 0.0, 10.000325, 9.999595 
1.4500676e+2, 1.9596432e+2, -999111.75, -1057341.1, -15813.035, -0.022752544, 0.22708449, -995094.6, 24474.932, 0.0, 10.00039, 9.999615 
1.450089e+2, 2.0596391e+2, -898027.44, -982981.8, -14418.156, -0.011243923, 0.23657593, -895647.1, 25927.912, 0.0, 10.000519, 9.99939 
1.4501107e+2, 2.159631e+2, -771457.9, -866318.75, -13154.951, 0.000255966, 0.21105267, -769667.44, 53916.164, 0.0, 10.000694, 9.9994335 
1.450132e+2, 2.259625e+2, -642503.06, -754577.06, -14719.496, 0.011185593, 0.21031341, -640602.1, 84987.15, 0.0, 10.000912, 9.999423 
1.4501531e+2, 2.3596211e+2, -507801.47, -637574.75, -17029.467, 0.02133329, 0.22570644, -505604.0, 121988.92, 0.0, 10.001158, 9.999435 
1.4501739e+2, 2.4596146e+2, -407547.7, -571002.44, -18354.57, 0.024315879, 0.23245001, -405511.97, 124087.47, 0.0, 10.001313, 9.999145 
1.4501943e+2, 2.559606e+2, -295241.38, -464716.63, -21987.162, 0.022301776, 0.23048016, -292435.28, 139172.81, 0.0, 10.001406, 9.999157 
1.4502145e+2, 2.6595953e+2, -186558.6, -394779.44, -23428.818, 0.018089274, 0.2236013, -183954.95, 149663.28, 0.0, 10.001622, 9.99886 
1.4502347e+2, 2.759583e+2, -43934.594, -273024.7, -23410.25, 0.0119801825, 0.21046792, -41566.82, 194062.69, 0.0, 10.00192, 9.99888 
1.4502558e+2, 2.859569e+2, 53662.813, -200295.42, -16139.332, -0.0031870618, 0.19151905, 54684.375, 192327.17, 0.0, 10.002025, 9.998656 
1.4502776e+2, 2.9595533e+2, 144873.1, -110310.53, -21258.305, -0.024300683, 0.16834038, 146631.92, 186289.25, 0.00000031171322, 10.001999, 9.998613 
1.4503013e+2, 3.0595452e+2, 166105.83, -143947.25, -17663.78, -0.03168157, 0.2612853, 167108.89, 167108.89, 0.000008961074, 10.002107, 9.997996 
1.4503239e+2, 3.159518e+2, 276033.06, 39328.805, -80.706795, -0.050980717, 0.18391472, 276033.1, 276033.1, 0.000044704477, 10.0023, 9.999162 
1.5498997e+2, 1.2595971e+2, -1776704.0, -1685220.0, -2373.2004, -0.07122569, 0.1357152, -1685158.5, 20449.668, 0.000004107076, 9.99932, 10.000531 
1.5499227e+2, 1.3596025e+2, -1664781.6, -1609160.3, 9803.357, -0.124496825, 0.16533381, -1607483.0, 119.52257, 0.00000065226897, 9.999539, 10.000275 
1.5499504e+2, 1.4595978e+2, -1534696.9, -1471927.3, -9545.163, -0.09902486, 0.07971132, -1470507.9, 39099.016, 0.000000011338887, 9.999657, 10.000485 
1.5499756e+2, 1.5596071e+2, -1430343.4, -1370971.8, -11297.39, -0.07759857, 0.12217196, -1368894.6, 42703.105, 0.0, 9.9997015, 10.0004835 
1.5500002e+2, 1.659613e+2, -1324840.5, -1300873.4, -8344.585, -0.067366935, 0.14715414, -1298254.3, 15338.46, 0.0, 9.999888, 10.000202 
1.5500247e+2, 1.7596148e+2, -1186673.9, -1185172.8, -6583.5234, -0.060464915, 0.14248678, -1179297.1, 36294.895, 0.0, 10.000172, 10.000188 
1.5500487e+2, 1.8596159e+2, -1105603.9, -1157992.9, -14712.775, -0.04149271, 0.16508806, -1101754.9, 15838.226, 0.0, 10.000325, 9.999627 
1.5500721e+2, 1.959617e+2, -996825.56, -1052587.1, -12965.53, -0.015886575, 0.20973071, -993958.3, 25636.436, 0.0, 10.00039, 9.999647 
1.5500948e+2, 2.0596138e+2, -895368.9, -977486.3, -7848.542, -0.006504903, 0.22586611, -894625.44, 26973.822, 0.0, 10.000519, 9.999428 
1.5501168e+2, 2.1596076e+2, -769405.5, -862061.0, -6275.987, -0.0075079473, 0.21733768, -768982.3, 54623.7, 0.0, 10.000694, 9.999463 
1.5501413e+2, 2.2596015e+2, -646763.1, -763401.25, -5430.355, 0.013038948, 0.21430765, -646510.8, 79101.22, 0.0, 10.000912, 9.999363 
1.5501674e+2, 2.3595953e+2, -512354.78, -646968.8, -8268.157, 0.047963236, 0.21435496, -511848.84, 115768.72, 0.0, 10.001158, 9.999371 
1.5501887e+2, 2.4595879e+2, -414065.63, -584522.7, -14922.047, 0.041083775, 0.21955496, -412769.2, 116856.05, 0.0, 10.001313, 9.999052 
1.5502065e+2, 2.5595793e+2, -301241.78, -477250.78, -17710.736, 0.005298432, 0.22544184, -299477.34, 132157.19, 0.0, 10.001406, 9.999071 
1.550229e+2, 2.659569e+2, -188431.47, -398707.2, -12152.964, 0.000536775, 0.22933613, -187731.4, 145912.98, 0.0, 10.001622, 9.998833 
1.5502544e+2, 2.7595577e+2, -46667.387, -278622.63, -13358.148, 0.017017398, 0.22901866, -45900.633, 189754.16, 0.0, 10.001919, 9.998842 
1.5502773e+2, 2.8595412e+2, 43578.895, -221235.33, -17151.453, 0.009655907, 0.19996274, 44685.137, 182355.17, 0.0, 10.002025, 9.998512 
1.5502985e+2, 2.959522e+2, 136765.81, -127217.734, -21312.33, -0.014240797, 0.15098576, 138475.36, 178163.81, 0.000000191647, 10.001999, 9.998497 
1.5503225e+2, 3.0595142e+2, 175244.75, -124952.71, -10284.065, -0.030216683, 0.24326766, 175596.64, 175596.64, 0.000007033754, 10.002106, 9.998127 
1.550346e+2, 3.1594893e+2, 287408.88, 63102.19, 7752.684, -0.060786463, 0.18076183, 287676.53, 287676.53, 0.00003709365, 10.002299, 9.999326 
1.6498932e+2, 1.2595695e+2, -1765733.3, -1672605.0, -5921.336, -0.07178908, 0.12342492, -1672230.0, 33404.77, 0.000004370903, 9.999364, 10.000597 
1.6499187e+2, 1.359577e+2, -1678262.3, -1606739.3, 13832.711, -0.11025711, 0.1647454, -1604157.1, 3469.6064, 0.00000075351153, 9.999408, 10.000355 
1.649948e+2, 1.459573e+2, -1551281.1, -1482718.3, -1164.0586, -0.08221351, 0.083649315, -1482698.5, 26932.07, 0.000000017178404, 9.999555, 10.000461 
1.6499743e+2, 1.5595815e+2, -1422877.3, -1369981.3, -221.02213, -0.065075494, 0.11955988, -1369980.3, 41642.254, 0.0, 9.9997635, 10.000461 
1.65e+2, 1.659587e+2, -1321233.0, -1299306.4, 3199.129, -0.058622796, 0.14345469, -1298849.3, 14768.621, 0.0, 9.999914, 10.000201 
1.6500261e+2, 1.7595892e+2, -1207939.5, -1195207.3, -563.3052, -0.055411316, 0.14211924, -1195182.4, 20434.455, 0.0, 10.000025, 10.00019 
1.6500516e+2, 1.85959e+2, -1124576.8, -1163499.4, -13305.997, -0.037207626, 0.15993434, -1120462.8, -2844.9028, 0.0, 10.000179, 9.9996605 
1.6500767e+2, 1.9595903e+2, -998719.75, -1050593.5, -11314.784, -0.010154408, 0.19401792, -996359.1, 23260.836, 0.0, 10.000364, 9.999673 
1.6501008e+2, 2.0595875e+2, -890805.9, -979169.3, -6960.399, 0.00018701011, 0.21314806, -890260.94, 31363.432, 0.0, 10.0005665, 9.9993925 
1.650125e+2, 2.1595821e+2, -758870.25, -860858.6, -10762.705, -0.00033502723, 0.21698353, -757746.9, 65883.734, 0.0, 10.000783, 9.999428 
1.6501509e+2, 2.2595757e+2, -639538.7, -763755.5, -10388.063, 0.0145848375, 0.21386589, -638675.94, 86961.09, 0.0, 10.0009775, 9.999329 
1.6501783e+2, 2.3595683e+2, -514998.6, -652346.44, -11337.258, 0.039660193, 0.20528501, -514069.06, 113574.555, 0.0, 10.001157, 9.999333 
1.6502012e+2, 2.4595605e+2, -407533.97, -587943.1, -16840.148, 0.032694113, 0.21204065, -405975.53, 123676.28, 0.0, 10.001387, 9.998993 
1.6502216e+2, 2.5595522e+2, -269699.0, -467899.84, -17133.71, 0.0035918085, 0.22643472, -268228.75, 163432.45, 0.0, 10.001648, 9.999019 
1.6502458e+2, 2.6595423e+2, -168652.88, -389112.72, -10240.602, -0.0004641829, 0.23606877, -168178.22, 165492.75, 0.0, 10.001759, 9.998834 
1.6502723e+2, 2.759531e+2, -69712.2, -290106.9, -9557.046, 0.0126822265, 0.23958433, -69298.555, 166382.5, 0.0, 10.001762, 9.998838 
1.6502967e+2, 2.8595144e+2, 21235.145, -237257.8, -10108.846, 0.009142093, 0.20787814, 21629.867, 159326.63, 0.0, 10.001894, 9.998465 
1.6503198e+2, 2.959494e+2, 149121.0, -126762.375, -7256.354, -0.0060586305, 0.15187375, 149311.72, 189027.88, 0.000000103903474, 10.002108, 9.998448 
1.6503447e+2, 3.0594856e+2, 178087.63, -132412.56, -3448.5793, -0.021703625, 0.2446928, 178125.92, 178125.92, 0.0000052712203, 10.002163, 9.998048 
1.6503686e+2, 3.1594604e+2, 257653.16, 45281.53, -294.56293, -0.056025866, 0.18660627, 257653.58, 257653.58, 0.00002996744, 10.00211, 9.999294 
1.7498845e+2, 1.2595402e+2, -1754460.9, -1649039.1, -4458.768, -0.09416044, 0.102899514, -1648850.9, 56812.336, 0.000004515703, 9.999363, 10.000759 
1.7499161e+2, 1.3595505e+2, -1666321.6, -1581780.5, 16293.341, -0.0780741, 0.15497823, -1578749.1, 28902.549, 0.0000008179498, 9.999407, 10.000526 
1.7499474e+2, 1.4595482e+2, -1550647.5, -1481284.9, 6852.7188, -0.045266684, 0.08160793, -1480614.4, 29039.309, 0.000000022541565, 9.999555, 10.00047 
1.7499729e+2, 1.5595566e+2, -1422827.1, -1369825.9, 7358.6367, -0.05491402, 0.1164841, -1368823.3, 42822.7, 0.0, 9.999763, 10.000462 
1.7499997e+2, 1.659562e+2, -1326224.0, -1309628.8, 7398.906, -0.052868962, 0.14264153, -1306809.1, 6832.472, 0.0, 9.999913, 10.000131 
1.7500281e+2, 1.7595638e+2, -1212223.0, -1204106.4, 3929.677, -0.039069608, 0.14620803, -1202515.5, 13125.516, 0.0, 10.000025, 10.000129 
1.750055e+2, 1.859564e+2, -1122268.8, -1158720.1, -6363.668, -0.022679705, 0.15858059, -1121189.8, -3547.0437, 0.0, 10.000179, 9.999693 
1.7500807e+2, 1.9595635e+2, -997358.7, -1047770.9, -4229.365, -0.0056539457, 0.17998885, -997006.4, 22638.89, 0.0, 10.000363, 9.999693 
1.7501074e+2, 2.0595601e+2, -898299.5, -994685.25, 1164.4413, 0.008704118, 0.19844429, -898285.44, 23364.896, 0.0, 10.0005665, 9.999287 
1.750135e+2, 2.1595545e+2, -765771.0, -875136.75, -2718.9639, 0.021592166, 0.21005054, -765703.44, 57953.89, 0.0, 10.000783, 9.9993305 
1.7501608e+2, 2.2595476e+2, -640146.4, -764984.75, -3623.0537, 0.015713414, 0.20899494, -640041.3, 85622.945, 0.0, 10.0009775, 9.99932 
1.7501853e+2, 2.3595402e+2, -515695.78, -653749.2, -4247.292, -0.0034365798, 0.19845782, -515565.25, 112105.89, 0.0, 10.001157, 9.999324 
1.7502119e+2, 2.4595325e+2, -409357.56, -591665.75, -6939.1895, -0.00082747475, 0.20987152, -409093.8, 120585.36, 0.0, 10.001387, 9.998967 
1.7502396e+2, 2.5595248e+2, -271145.4, -470803.53, -8126.7188, 0.016876116, 0.23342769, -270815.2, 160873.05, 0.0, 10.001648, 9.998999 
1.7502649e+2, 2.659515e+2, -166707.75, -385066.34, -10118.172, 0.014890069, 0.24381681, -166239.9, 167458.08, 0.0, 10.001759, 9.998861 
1.7502886e+2, 2.759504e+2, -67516.15, -285629.3, -8542.491, -0.0010178462, 0.24226066, -67182.086, 168526.23, 0.0, 10.001762, 9.998869 
1.7503144e+2, 2.8594878e+2, 24647.633, -230295.94, -1979.0256, -0.0048482073, 0.21525328, 24662.994, 162386.02, 0.0, 10.001894, 9.998512 
1.7503415e+2, 2.959469e+2, 150366.66, -124289.414, -62.709953, -0.00007881345, 0.17080632, 150366.67, 190107.2, 0.00000004563321, 10.002108, 9.998465 
1.7503677e+2, 3.0594593e+2, 158181.88, -173882.83, -5472.7046, -0.006479878, 0.26535904, 158272.05, 158272.05, 0.0000037135492, 10.002164, 9.997763 
1.7503916e+2, 3.159431e+2, 242089.08, 12898.2705, -1273.026, -0.03743884, 0.20124674, 242096.14, 242096.14, 0.000023373406, 10.00211, 9.999072 
1.849877e+2, 1.259512e+2, -1767300.0, -1652938.8, -2914.8835, -0.101252064, 0.09652695, -1652864.5, 52825.305, 0.000004500078, 9.999265, 10.000779 
1.8499117e+2, 1.3595217e+2, -1669217.5, -1578740.0, 7610.798, -0.060098264, 0.13888283, -1578104.4, 29574.29, 0.0000008390777, 9.999368, 10.0005665 
1.8499449e+2, 1.4595199e+2, -1556198.8, -1483984.1, -2859.504, -0.022634951, 0.06749907, -1483871.1, 25809.168, 0.000000025661054, 9.9995165, 10.00047 
1.8499717e+2, 1.5595286e+2, -1434250.5, -1375637.8, -3441.0981, -0.0384079, 0.10558446, -1375436.5, 36235.703, 0.0, 9.999685, 10.00046 
1.85e+2, 1.659534e+2, -1337378.5, -1318177.3, -3568.5227, -0.038262907, 0.1337182, -1317535.5, -3867.483, 0.0, 9.99985, 10.000103 
1.8500298e+2, 1.7595358e+2, -1216065.4, -1208759.1, -3633.8267, -0.02379515, 0.1388777, -1207259.6, 8408.288, 0.0, 10.00001, 10.000104 
1.850058e+2, 1.8595362e+2, -1118920.5, -1156456.1, -11661.701, -0.011105343, 0.15264997, -1115592.5, 2077.0203, 0.0, 10.000199, 9.9997 
1.850085e+2, 1.9595356e+2, -990757.1, -1044335.4, -11558.275, -0.00064525654, 0.17530353, -988370.06, 31301.76, 0.0, 10.000408, 9.999696 
1.8501136e+2, 2.059532e+2, -896676.44, -997693.94, -3816.3037, 0.011333256, 0.19397953, -896532.5, 25144.65, 0.0, 10.000594, 9.999252 
1.850143e+2, 2.159526e+2, -770479.9, -881138.94, -2371.8237, 0.024597935, 0.20533639, -770429.06, 53255.78, 0.0, 10.000767, 9.999297 
1.85017e+2, 2.2595192e+2, -647213.06, -769962.3, -2029.74, 0.012569452, 0.20647652, -647179.5, 78512.46, 0.0, 10.000936, 9.999306 
1.8501954e+2, 2.3595119e+2, -524135.84, -658877.6, -2809.2012, -0.017098902, 0.19966443, -524077.3, 103621.36, 0.0, 10.001103, 9.999314 
1.8502238e+2, 2.4595045e+2, -421244.66, -594095.25, -1294.1239, -0.01403778, 0.2105341, -421234.97, 108471.65, 0.0, 10.00129, 9.998997 
1.8502547e+2, 2.5594968e+2, -292426.16, -478016.13, 1075.038, 0.011729243, 0.23070413, -292419.94, 139295.61, 0.0, 10.001489, 9.999025 
1.8502818e+2, 2.6594874e+2, -177391.73, -389609.0, -4842.845, 0.012624382, 0.24070776, -177281.27, 156444.02, 0.0, 10.001682, 9.998866 
1.8503064e+2, 2.759476e+2, -51625.527, -277112.97, -4759.4077, -0.004012431, 0.2406718, -51525.113, 184210.58, 0.0, 10.001868, 9.998877 
1.8503337e+2, 2.8594607e+2, 43799.848, -218065.16, 2504.5808, -0.0066017346, 0.21621354, 43823.8, 181573.73, 0.0, 10.002013, 9.99854 
1.8503629e+2, 2.959442e+2, 154578.31, -120157.41, 2228.6965, 0.0008997266, 0.17536864, 154596.39, 194363.0, 0.000000013949684, 10.002128, 9.998484 
1.8503903e+2, 3.0594325e+2, 154415.44, -183285.78, -1142.8134, 0.0013460298, 0.27122498, 154419.3, 154419.3, 0.0000024106344, 10.002171, 9.997695 
1.8504149e+2, 3.1594035e+2, 248038.78, 13939.232, 19939.018, -0.017699078, 0.20689605, 249724.9, 249724.9, 0.000017412012, 10.002159, 9.999055 
1.9498704e+2, 1.259485e+2, -1776280.1, -1671102.4, 1026.9784, -0.093480684, 0.104370356, -1671092.4, 34622.523, 0.000004294411, 9.999263, 10.000655 
1.9499058e+2, 1.3594909e+2, -1675873.4, -1592343.5, 11908.449, -0.05646337, 0.11667205, -1590679.0, 17028.783, 0.0000008137795, 9.999368, 10.000473 
1.9499409e+2, 1.4594881e+2, -1557001.9, -1485528.1, 3639.281, -0.014481294, 0.041491594, -1485343.3, 24366.875, 0.000000025948266, 9.999516, 10.00046 
1.9499709e+2, 1.5594974e+2, -1434833.5, -1376709.3, 2962.0405, -0.015844205, 0.08684462, -1376558.8, 35142.633, 0.0, 9.999685, 10.000452 
1.9500008e+2, 1.659503e+2, -1336385.6, -1316009.6, 2428.4045, -0.0150256585, 0.116674945, -1315724.3, -2027.1, 0.0, 9.999849, 10.000117 
1.9500312e+2, 1.759505e+2, -1215297.0, -1207109.4, 2554.2527, -0.009662473, 0.12019213, -1206377.9, 9319.479, 0.0, 10.00001, 10.000115 
1.9500607e+2, 1.8595059e+2, -1120409.5, -1159470.4, -3785.5247, -0.0025512876, 0.14220858, -1120046.0, -2347.4836, 0.0, 10.000198, 9.999679 
1.9500896e+2, 1.9595067e+2, -991770.4, -1046405.0, -3824.4883, 0.004750955, 0.17990626, -991503.94, 28195.762, 0.0, 10.000408, 9.999681 
1.9501191e+2, 2.0595035e+2, -894036.1, -992228.1, 2665.4148, 0.007951957, 0.19972959, -893963.8, 27741.066, 0.0, 10.000594, 9.99929 
1.9501491e+2, 2.1594968e+2, -768325.5, -876633.0, 4148.996, 0.008632313, 0.2028497, -768166.8, 55546.258, 0.0, 10.000766, 9.999328 
1.9501787e+2, 2.2594903e+2, -648654.06, -772923.94, 4283.0674, 0.0050194785, 0.20628402, -648506.6, 77213.44, 0.0, 10.000936, 9.999286 
1.950208e+2, 2.3594838e+2, -524821.1, -660321.3, 3683.1116, -0.0016854242, 0.2087851, -524721.1, 103005.16, 0.0, 10.001103, 9.999305 
1.9502375e+2, 2.4594761e+2, -415418.97, -581984.44, 6177.0127, -0.0071839644, 0.2139873, -415190.22, 114543.89, 0.0, 10.00129, 9.99908 
1.9502673e+2, 2.559468e+2, -287290.53, -467297.63, 8552.715, -0.011791885, 0.21837641, -286885.06, 144858.14, 0.0, 10.001488, 9.9991 
1.9502966e+2, 2.6594582e+2, -178636.56, -392150.47, 2205.3274, -0.0072588897, 0.22682817, -178613.78, 155139.16, 0.0, 10.001682, 9.998849 
1.950326e+2, 2.759448e+2, -52738.453, -279424.38, 2017.7964, 0.0034639635, 0.23482347, -52720.492, 183042.7, 0.0, 10.001868, 9.99886 
1.9503549e+2, 2.8594324e+2, 44176.434, -217224.95, 6840.712, 0.0036512995, 0.21089481, 44355.33, 182132.86, 0.0, 10.002012, 9.998546 
1.9503836e+2, 2.9594138e+2, 155920.6, -117249.445, 6263.2114, -0.0031106772, 0.16591819, 156064.11, 195858.48, 0.0000000023315327, 10.002127, 9.998504 
1.950412e+2, 3.0594045e+2, 164571.52, -162171.44, -1639.6256, 0.0017625327, 0.26262206, 164579.73, 164579.73, 0.0000014034579, 10.002171, 9.99784 
1.9504385e+2, 3.1593776e+2, 261038.33, 40830.21, 20036.865, 0.0026819862, 0.20327744, 262846.63, 262846.63, 0.000012235335, 10.00216, 9.99924 
2.0498645e+2, 1.2594533e+2, -1785689.0, -1681798.8, -10199.032, -0.076121084, 0.08792854, -1680807.0, 24937.65, 0.000003892583, 9.999225, 10.0006 
2.0499015e+2, 1.3594592e+2, -1660434.6, -1588599.1, 5295.0186, -0.042352628, 0.10472513, -1588211.0, 19526.621, 0.00000074131736, 9.999489, 10.00044 
2.0499378e+2, 1.4594564e+2, -1543797.6, -1481619.3, -4328.5703, -0.000938145, 0.031588297, -1481319.4, 28420.79, 0.000000023374444, 9.999617, 10.000439 
2.0499694e+2, 1.5594648e+2, -1442167.6, -1382553.8, -5588.2686, 0.0039781923, 0.06925758, -1382034.4, 29697.842, 0.0, 9.999644, 10.000432 
2.0500007e+2, 1.6594702e+2, -1343957.0, -1320633.0, -4049.1458, 0.002234583, 0.09894471, -1319950.0, -6221.6675, 0.0, 9.999802, 10.000109 
2.0500323e+2, 1.7594726e+2, -1209982.5, -1204597.6, -5829.319, -0.001644431, 0.10851403, -1200869.0, 14859.352, 0.0, 10.000046, 10.000115 
2.0500632e+2, 1.8594743e+2, -1111469.8, -1146661.8, -9621.217, 0.00069272716, 0.1340149, -1109011.1, 8717.549, 0.0, 10.000223, 9.999755 
2.0500936e+2, 1.959476e+2, -994563.25, -1040087.06, -2461.3025, 0.0065366677, 0.17291453, -994430.56, 25298.287, 0.0, 10.000356, 9.99975 
2.0501246e+2, 2.0594731e+2, -903294.1, -997528.3, 5779.3926, 0.0061233016, 0.1935106, -902941.0, 18792.768, 0.0, 10.000534, 9.999283 
2.050156e+2, 2.1594666e+2, -771689.1, -878854.44, 3891.4548, 0.0016789422, 0.19740903, -771548.06, 52194.258, 0.0, 10.000746, 9.999323 
2.0501877e+2, 2.2594602e+2, -647493.3, -771497.75, 3414.8655, 0.0012185067, 0.20325597, -647399.3, 78349.914, 0.0, 10.000939, 9.999293 
2.0502196e+2, 2.3594542e+2, -521339.06, -657217.25, 4888.947, 0.0033665474, 0.20912188, -521163.4, 106591.71, 0.0, 10.0011215, 9.999317 
2.0502505e+2, 2.4594465e+2, -414284.66, -574691.3, 6734.5615, -0.0065622977, 0.2108638, -414002.4, 115760.336, 0.0, 10.001269, 9.999141 
2.0502803e+2, 2.5594378e+2, -297828.47, -466695.22, 7546.7817, -0.02478006, 0.20717233, -297491.88, 134279.84, 0.0, 10.001391, 9.99915 
2.0503117e+2, 2.6594287e+2, -197196.63, -404799.03, 1229.4597, -0.01923659, 0.21888046, -197189.34, 136591.9, 0.0, 10.001571, 9.9988165 
2.050344e+2, 2.7594194e+2, -66557.16, -289044.72, -507.99115, 0.0027763103, 0.23784216, -66556.0, 169235.31, 0.0, 10.001786, 9.998835 
2.0503749e+2, 2.8594035e+2, 36606.652, -215831.52, 2473.4924, 0.0070828577, 0.21106245, 36630.887, 174436.67, 0.0, 10.001939, 9.99859 
2.0504048e+2, 2.959384e+2, 147109.39, -116662.375, 4555.7905, -0.0007089169, 0.15399979, 147188.05, 187011.0, 0.000000000097020676, 10.002046, 9.998548 
2.0504339e+2, 3.059375e+2, 159323.17, -163358.1, -10916.222, 0.006714138, 0.24894367, 159692.03, 159692.03, 0.0000007042908, 10.002129, 9.997852 
2.0504616e+2, 3.159349e+2, 270764.06, 52497.74, 1120.9869, 0.015730651, 0.19802162, 270769.84, 270769.84, 0.000007994477, 10.002196, 9.999302 
2.1498595e+2, 1.2594168e+2, -1784928.1, -1679950.6, -114.62562, -0.0495512, 0.047169603, -1679950.5, 25828.531, 0.0000033185577, 9.999224, 10.000613 
2.1498989e+2, 1.3594268e+2, -1658654.6, -1584742.8, 14502.976, -0.017851913, 0.10316157, -1581998.8, 25769.385, 0.00000061904166, 9.999489, 10.000467 
2.1499361e+2, 1.4594248e+2, -1546273.0, -1486576.6, -3247.009, 0.017882608, 0.037878443, -1486400.6, 23369.629, 0.000000017936356, 9.999616, 10.000404 
2.1499677e+2, 1.5594304e+2, -1444703.6, -1387564.9, -3743.7002, 0.020926936, 0.05288185, -1387320.6, 24444.336, 0.0, 9.999643, 10.000399 
2.15e+2, 1.6594355e+2, -1346338.0, -1325397.0, 5170.733, 0.013399323, 0.08059661, -1324189.8, -10428.066, 0.0, 9.999802, 10.000076 
2.150033e+2, 1.759439e+2, -1210869.4, -1206382.6, 2966.2285, 0.00012682859, 0.103847355, -1204907.0, 10854.026, 0.0, 10.000046, 10.000103 
2.1500652e+2, 1.8594414e+2, -1099468.8, -1121691.0, -4680.8477, -0.0015023667, 0.12804548, -1098523.0, 19237.238, 0.0, 10.000223, 9.999927 
2.1500969e+2, 1.9594435e+2, -984041.8, -1018173.94, 2782.323, 0.0046154847, 0.1544173, -983816.5, 35942.742, 0.0, 10.000356, 9.999901 
2.1501298e+2, 2.059441e+2, -906946.56, -1005068.44, 13754.328, 0.0057351044, 0.17540878, -905055.0, 16708.805, 0.0, 10.000534, 9.999231 
2.1501635e+2, 2.159435e+2, -774674.1, -885051.5, 11786.106, 0.0035292944, 0.18902187, -773429.6, 50342.85, 0.0, 10.000746, 9.99928 
2.150197e+2, 2.259429e+2, -644970.5, -766210.1, 10284.58, 0.0009733513, 0.19739605, -644104.3, 81675.16, 0.0, 10.000939, 9.99933 
2.1502303e+2, 2.3594229e+2, -518895.4, -652033.44, 11549.519, -0.0019267143, 0.20079206, -517900.94, 109884.266, 0.0, 10.001121, 9.999353 
2.1502624e+2, 2.4594156e+2, -411682.4, -569236.7, 11308.172, -0.01220444, 0.20121361, -410874.9, 118917.625, 0.0, 10.001269, 9.999178 
2.150294e+2, 2.559407e+2, -295777.1, -462471.44, 12474.45, -0.027482748, 0.19706012, -294848.75, 136952.31, 0.0, 10.001391, 9.999179 
2.150327e+2, 2.659399e+2, -200652.97, -411952.16, 9345.593, -0.023546508, 0.21684475, -200240.42, 133569.81, 0.0, 10.00157, 9.998768 
2.1503611e+2, 2.75939e+2, -69284.59, -294505.8, 7290.859, -0.0061500436, 0.24970882, -69048.83, 166771.2, 0.0, 10.001785, 9.998797 
2.150394e+2, 2.859374e+2, 42403.79, -203613.38, 6507.1094, 0.0035390959, 0.21671943, 42575.78, 180410.48, 0.0, 10.001938, 9.998675 
2.150426e+2, 2.9593533e+2, 151780.81, -106994.88, 8481.549, 0.007866235, 0.13968077, 152058.5, 191910.86, 0.0, 10.002046, 9.998614 
2.1504563e+2, 3.0593437e+2, 150994.39, -180815.67, -8402.221, 0.016025715, 0.2304099, 151207.02, 151207.02, 0.00000028677624, 10.00213, 9.997732 
2.150484e+2, 3.1593177e+2, 266796.25, 43997.684, 3914.5562, 0.02106271, 0.19065385, 266865.0, 266865.0, 0.0000047712674, 10.002198, 9.999243 
2.2498536e+2, 1.2593819e+2, -1764034.1, -1670028.1, -5334.8745, -0.037736632, 0.037321582, -1669726.4, 36085.867, 0.0000026194793, 9.999368, 10.000613 
2.249895e+2, 1.3593918e+2, -1679197.0, -1593377.8, 8266.25, 0.0033615238, 0.08858063, -1592588.9, 15212.643, 0.0000004546107, 9.999342, 10.000479 
2.2499333e+2, 1.45939e+2, -1566019.6, -1501011.4, -9244.621, 0.035450976, 0.030830013, -1499722.3, 10080.873, 0.000000010467296, 9.999502, 10.000361 
2.249966e+2, 1.5593962e+2, -1427085.9, -1383337.5, -10759.153, 0.032386437, 0.05317051, -1380834.6, 30963.326, 0.0, 9.999783, 10.0003605 
2.2499995e+2, 1.659401e+2, -1329393.1, -1315754.1, -701.87415, 0.024223967, 0.080835976, -1315718.1, -1923.175, 0.0, 9.999911, 10.00009 
2.2500342e+2, 1.7594041e+2, -1225512.6, -1211318.4, 628.22644, 0.013463256, 0.09954832, -1211290.6, 4503.8325, 0.0, 9.999936, 10.000122 
2.2500677e+2, 1.8594065e+2, -1111902.9, -1119648.5, -7909.098, 0.007873461, 0.11889971, -1106969.3, 10824.172, 0.0, 10.000103, 9.999998 
2.2501007e+2, 1.959409e+2, -977677.5, -1007923.7, -8009.5913, 0.0057797227, 0.13995838, -975687.4, 44104.53, 0.0, 10.000368, 9.999965 
2.2501354e+2, 2.059407e+2, -902217.6, -1002889.56, 1585.3079, 0.0052303323, 0.16245662, -902192.6, 19603.523, 0.0, 10.000567, 9.99923 
2.250171e+2, 2.1594015e+2, -778202.9, -886706.56, 3139.4873, 0.0057772994, 0.18238899, -778112.1, 45692.49, 0.0, 10.000721, 9.999281 
2.2502059e+2, 2.2593957e+2, -656033.6, -768920.7, 1433.7028, 0.00048062345, 0.19181426, -656015.4, 69796.09, 0.0, 10.000853, 9.999353 
2.2502398e+2, 2.3593897e+2, -539822.56, -659686.0, 1893.8972, -0.0089850165, 0.19269964, -539792.6, 88024.68, 0.0, 10.000967, 9.999375 
2.2502741e+2, 2.4593827e+2, -425622.44, -573935.0, 1802.6252, -0.018204594, 0.19613095, -425600.53, 104223.75, 0.0, 10.001164, 9.999196 
2.2503081e+2, 2.5593752e+2, -290476.75, -457566.63, 1286.7352, -0.027032468, 0.19892044, -290466.84, 141365.27, 0.0, 10.001417, 9.9992 
2.2503427e+2, 2.6593673e+2, -200135.23, -405661.8, 107.4796, -0.022183936, 0.21870455, -200135.17, 133705.7, 0.0, 10.001548, 9.998821 
2.2503777e+2, 2.7593586e+2, -93768.31, -300227.75, 5952.3604, -0.007761172, 0.24650468, -93596.84, 142253.66, 0.0, 10.001591, 9.998852 
2.2504123e+2, 2.859343e+2, 21051.064, -207859.0, 9054.711, 0.0016897676, 0.21252915, 21408.672, 159273.27, 0.0, 10.001765, 9.99873 
2.2504465e+2, 2.9593232e+2, 152280.25, -102189.55, 8350.5205, 0.0077925036, 0.13774106, 152553.97, 192435.38, 0.0, 10.002029, 9.998655 
2.2504786e+2, 3.059313e+2, 154028.63, -189518.92, -11740.14, 0.02258441, 0.22821444, 154429.36, 154429.36, 0.00000008572978, 10.002194, 9.997642 
2.2505084e+2, 3.1592864e+2, 278217.63, 45798.367, 2740.9604, 0.040600218, 0.19199632, 278249.94, 278249.94, 0.000002540607, 10.002292, 9.999211 
2.349847e+2, 1.2593488e+2, -1765019.9, -1671935.1, -6308.9414, -0.041243274, 0.05854711, -1671509.5, 34334.51, 0.0000018640146, 9.999367, 10.0006 
2.3498903e+2, 1.359354e+2, -1679603.3, -1593760.1, 8430.788, 0.021170754, 0.06090178, -1592940.0, 14897.522, 0.0000002777255, 9.99934, 10.000477 
2.34993e+2, 1.4593527e+2, -1570205.5, -1509281.5, 1530.5348, 0.051711787, 0.010387756, -1509243.0, 595.9697, 0.0000000036051038, 9.9995, 10.000305 
2.3499642e+2, 1.5593618e+2, -1430182.9, -1389627.1, -1045.6862, 0.038200673, 0.070227414, -1389600.3, 22231.268, 0.0, 9.999783, 10.000318 
2.3499997e+2, 1.6593671e+2, -1325380.3, -1307295.0, 167.42014, 0.034557603, 0.099739805, -1307293.5, 6534.6772, 0.0, 9.999911, 10.000148 
2.350036e+2, 1.7593685e+2, -1222146.0, -1204104.1, 2412.8594, 0.038238514, 0.09567381, -1203787.0, 12041.633, 0.0, 9.999935, 10.000172 
2.3500708e+2, 1.8593703e+2, -1113980.4, -1123752.0, 2087.531, 0.028661724, 0.10664554, -1113553.1, 4275.145, 0.0, 10.000102, 9.99997 
2.3501049e+2, 1.9593726e+2, -979178.2, -1010968.8, 1612.6991, 0.009860462, 0.12954353, -979096.56, 40730.355, 0.0, 10.000368, 9.999944 
2.3501408e+2, 2.0593709e+2, -898908.75, -995986.94, 7397.362, 0.004459952, 0.15460408, -898348.3, 23482.49, 0.0, 10.000567, 9.999278 
2.3501785e+2, 2.1593662e+2, -775215.44, -880431.4, 8831.578, 0.008369225, 0.17747003, -774479.25, 49359.313, 0.0, 10.000721, 9.999324 
2.3502144e+2, 2.2593607e+2, -655382.56, -767457.56, 5753.942, -0.00035367144, 0.18652178, -655087.94, 70757.46, 0.0, 10.000852, 9.999364 
2.3502487e+2, 2.3593543e+2, -539225.75, -658396.44, 6697.747, -0.017902054, 0.1848605, -538850.5, 89001.0, 0.0, 10.000966, 9.999384 
2.350285e+2, 2.4593483e+2, -425839.72, -574294.56, 11373.6045, -0.024695093, 0.1955474, -424973.4, 104884.625, 0.0, 10.0011635, 9.999194 
2.3503226e+2, 2.559342e+2, -289817.63, -455931.25, 10114.996, -0.023581969, 0.21255219, -289203.97, 142660.89, 0.0, 10.001416, 9.999212 
2.3503588e+2, 2.6593342e+2, -189250.16, -382863.97, 1655.8046, -0.015308437, 0.22437814, -189236.0, 144637.17, 0.0, 10.001547, 9.998979 
2.3503941e+2, 2.7593246e+2, -83533.195, -279087.53, 8283.189, -0.0022914328, 0.22847475, -83182.97, 152699.73, 0.0, 10.001591, 9.998997 
2.35043e+2, 2.8593102e+2, 22795.975, -204380.94, 18964.617, 0.0013016611, 0.1986328, 24368.25, 162263.75, 0.0, 10.001766, 9.998754 
2.3504658e+2, 2.959293e+2, 153340.55, -99863.6, 17627.365, -0.00092562684, 0.14796816, 154561.81, 194471.92, 0.0, 10.002028, 9.998672 
2.3505008e+2, 3.0592832e+2, 149830.02, -198233.25, -8194.372, 0.026261676, 0.24194828, 150022.83, 150022.83, 0.000000016806371, 10.002193, 9.9975815 
2.3505346e+2, 3.1592557e+2, 278281.38, 45589.99, 6185.9043, 0.07345764, 0.2013822, 278445.72, 278445.72, 0.0000011714155, 10.002293, 9.999209 
2.449843e+2, 1.259312e+2, -1768528.0, -1680125.8, -16165.168, -0.017546035, 0.060543757, -1677262.6, 28616.83, 0.0000011498672, 9.999372, 10.000542 
2.4498866e+2, 1.3593149e+2, -1640456.5, -1579648.4, -5333.3193, 0.036204096, 0.045531698, -1579184.3, 28690.803, 0.00000012802465, 9.999629, 10.000434 
2.4499269e+2, 1.4593138e+2, -1540220.3, -1497257.1, -11836.034, 0.060234316, -0.00033416034, -1494212.3, 15664.282, 0.00000000023702618, 9.999717, 10.000283 
2.4499628e+2, 1.5593238e+2, -1445534.5, -1398729.3, -11971.078, 0.04968289, 0.07000747, -1395845.1, 16023.363, 0.0, 9.999684, 10.000302 
2.4499996e+2, 1.6593291e+2, -1337587.4, -1309078.0, -10653.092, 0.046446454, 0.098976664, -1305537.1, 8327.959, 0.0, 9.99981, 10.000185 
2.4500369e+2, 1.7593302e+2, -1204541.4, -1192278.1, -9905.81, 0.048031807, 0.08749395, -1186759.9, 29105.709, 0.0, 10.000042, 10.000201 
2.450073e+2, 1.8593317e+2, -1101634.8, -1121089.8, -8921.582, 0.03559202, 0.097035564, -1098163.0, 19702.316, 0.0, 10.000201, 9.999941 
2.4501085e+2, 1.959334e+2, -988752.44, -1017751.8, -9756.985, 0.01356516, 0.122479625, -985775.3, 34089.016, 0.0, 10.000312, 9.999925 
2.4501458e+2, 2.0593329e+2, -913576.5, -994443.75, -4347.629, 0.0035954374, 0.15008047, -913343.44, 8524.288, 0.0, 10.000429, 9.999354 
2.4501844e+2, 2.1593292e+2, -794816.06, -882124.6, -612.08167, 0.0019290609, 0.17561258, -794811.75, 29062.688, 0.0, 10.000553, 9.999393 
2.4502218e+2, 2.259324e+2, -674606.25, -777400.94, -2743.8335, -0.0053384313, 0.18559344, -674533.06, 51347.793, 0.0, 10.000723, 9.999358 
2.4502583e+2, 2.3593177e+2, -545802.5, -661924.8, -2984.3745, -0.01638826, 0.18358316, -545725.9, 82161.27, 0.0, 10.000923, 9.999381 
2.4502963e+2, 2.4593115e+2, -441960.1, -579926.75, 2276.556, -0.021529064, 0.1929398, -441922.53, 87971.14, 0.0, 10.001044, 9.999213 
2.4503352e+2, 2.5593054e+2, -332656.94, -473695.38, 2757.9805, -0.022252828, 0.2080646, -332603.03, 99297.44, 0.0, 10.00111, 9.999238 
2.4503735e+2, 2.659298e+2, -212053.78, -383379.53, -6431.8286, -0.013825752, 0.21653917, -211812.67, 122095.53, 0.0, 10.001346, 9.999072 
2.4504109e+2, 2.7592888e+2, -62331.43, -259335.66, -4853.9014, 0.0007332775, 0.2162348, -62211.91, 173704.9, 0.0, 10.001696, 9.999083 
2.4504483e+2, 2.859275e+2, 35258.277, -197104.58, 1280.3774, 0.0043428005, 0.186693, 35265.332, 173194.39, 0.0, 10.001846, 9.998765 
2.4504855e+2, 2.9592583e+2, 129449.83, -109981.08, -604.8304, 0.0011704076, 0.1399879, 129451.35, 169394.72, 0.0, 10.001859, 9.998684 
2.450523e+2, 3.059248e+2, 137897.16, -202416.88, -19433.352, 0.032876432, 0.22932503, 139003.3, 139003.3, 0.0000000018495133, 10.002106, 9.997596 
2.4505605e+2, 3.1592202e+2, 315724.1, 71041.17, -258.90985, 0.09133325, 0.18620671, 315724.38, 315724.38, 0.00000045275593, 10.002519, 9.999275 
2.5498417e+2, 1.2592714e+2, -1776343.9, -1695893.9, -6092.497, 0.03336863, 0.043406133, -1695435.1, 10483.247, 0.0000005982307, 9.999369, 10.000435 
2.549884e+2, 1.3592745e+2, -1646477.9, -1592117.8, 3398.403, 0.047917403, 0.04268461, -1591906.1, 16007.854, 0.00000003796869, 9.999629, 10.000349 
2.5499243e+2, 1.4592734e+2, -1539363.8, -1495376.6, -13044.552, 0.060459964, -0.001087559, -1491799.3, 18116.516, 0.0, 9.999716, 10.000297 
2.5499615e+2, 1.559282e+2, -1444832.6, -1396872.0, -12195.971, 0.06671574, 0.052613474, -1393948.8, 17960.342, 0.0, 9.999683, 10.000316 
2.549999e+2, 1.659287e+2, -1336880.4, -1307229.4, -1850.4866, 0.05977943, 0.07863777, -1307114.4, 6791.3433, 0.0, 9.999808, 10.000198 
2.550037e+2, 1.7592889e+2, -1203977.1, -1190980.0, -1554.4049, 0.042552337, 0.07507873, -1190796.8, 25108.42, 0.0, 10.000042, 10.000211 
2.5500745e+2, 1.8592909e+2, -1103871.9, -1125668.1, -4776.0103, 0.028414018, 0.09010654, -1102871.3, 15033.477, 0.0, 10.000201, 9.999909 
2.550112e+2, 1.9592932e+2, -990091.6, -1020461.44, -5534.2817, 0.016851181, 0.118807204, -989114.56, 30789.623, 0.0, 10.000312, 9.999906 
2.55015e+2, 2.059293e+2, -906121.3, -978915.7, 335.24362, 0.0025997967, 0.148943, -906119.8, 15787.115, 0.0, 10.000429, 9.999461 
2.5501883e+2, 2.1592906e+2, -788149.8, -868286.44, 4378.2524, -0.013651299, 0.17683695, -787911.3, 36000.824, 0.0, 10.000553, 9.999488 
2.550228e+2, 2.2592859e+2, -676126.56, -780581.75, 4848.314, -0.014633405, 0.18895906, -675902.0, 50015.945, 0.0, 10.000723, 9.999336 
2.5502688e+2, 2.3592795e+2, -546930.25, -664260.8, 4125.762, -0.004717481, 0.18873732, -546785.4, 81138.875, 0.0, 10.000923, 9.999366 
2.550308e+2, 2.4592726e+2, -439104.16, -573974.06, 4683.483, -0.008977036, 0.18831582, -438941.72, 90989.54, 0.0, 10.001044, 9.999254 
2.5503463e+2, 2.5592652e+2, -329749.13, -467722.13, 6218.045, -0.02313579, 0.18575774, -329469.47, 102469.4, 0.0, 10.00111, 9.999279 
2.5503865e+2, 2.659258e+2, -210001.44, -379076.1, 6821.06, -0.017825564, 0.19540246, -209726.7, 124219.234, 0.0, 10.001345, 9.999102 
2.550428e+2, 2.7592507e+2, -60674.793, -255620.16, 7157.123, 0.0012420411, 0.20958614, -60412.383, 175540.44, 0.0, 10.001695, 9.999108 
2.5504673e+2, 2.8592366e+2, 35067.25, -197245.48, 1616.4073, 0.010664584, 0.17661309, 35078.496, 173043.8, 0.0, 10.001845, 9.998764 
2.5505054e+2, 2.959218e+2, 130001.27, -108818.586, 1105.1526, 0.013708725, 0.11414942, 130006.38, 169987.55, 0.0, 10.001859, 9.998692 
2.550545e+2, 3.0592072e+2, 143900.13, -190056.58, -3902.236, 0.042233437, 0.19086851, 143945.72, 143945.72, 0.000000000039700524, 10.002106, 9.99768 
2.550586e+2, 3.1591803e+2, 324823.2, 90013.234, 14238.71, 0.094232045, 0.14621979, 325683.47, 325683.47, 0.00000014491832, 10.002519, 9.999406 
2.6498386e+2, 1.2592295e+2, -1759178.4, -1690433.5, -13489.847, 0.058456697, 0.03238735, -1687881.1, 18077.736, 0.00000026973817, 9.999499, 10.000408 
2.6498812e+2, 1.3592331e+2, -1662408.4, -1601295.6, 1432.6537, 0.06327449, 0.03604442, -1601262.1, 6692.25, 0.0000000060296985, 9.999527, 10.000335 
2.6499215e+2, 1.4592324e+2, -1547598.4, -1498273.6, -14839.72, 0.0658323, -0.0016753287, -1494153.1, 15802.479, 0.0, 9.999655, 10.000306 
2.6499593e+2, 1.5592408e+2, -1420017.1, -1384166.6, -14103.142, 0.07203739, 0.049071424, -1379283.8, 32665.564, 0.0, 9.99985, 10.000322 
2.649998e+2, 1.6592458e+2, -1314419.4, -1298863.9, -2902.021, 0.06326453, 0.074329056, -1298340.1, 15605.847, 0.0, 9.999973, 10.000176 
2.650037e+2, 1.7592476e+2, -1204487.3, -1193247.0, -5343.8403, 0.041973226, 0.07223363, -1191112.0, 24833.46, 0.0, 10.000047, 10.000193 
2.650076e+2, 1.8592496e+2, -1106781.1, -1124798.4, -7954.766, 0.025672425, 0.08643551, -1103771.6, 14173.4, 0.0, 10.000172, 9.999929 
2.650115e+2, 1.9592518e+2, -985518.0, -1015803.3, -4767.367, 0.013640464, 0.11245852, -984785.25, 35159.37, 0.0, 10.000332, 9.9999275 
2.6501545e+2, 2.0592521e+2, -891224.6, -967119.25, 582.6252, -0.0011036078, 0.14683843, -891220.1, 30726.527, 0.0, 10.000511, 9.999503 
2.6501942e+2, 2.1592513e+2, -763735.7, -852474.3, -355.27725, -0.017923675, 0.18393834, -763734.25, 60216.348, 0.0, 10.000704, 9.999525 
2.6502353e+2, 2.2592463e+2, -661575.2, -774923.25, -2042.6256, -0.017511863, 0.19287239, -661538.4, 64418.16, 0.0, 10.000829, 9.999324 
2.6502776e+2, 2.3592386e+2, -549701.25, -666401.7, -2090.8135, -0.0048364447, 0.18061143, -549663.8, 78300.07, 0.0, 10.000907, 9.999358 
2.650319e+2, 2.4592312e+2, -435989.06, -568162.5, -1849.0309, -0.0050735963, 0.17381695, -435963.2, 94007.805, 0.0, 10.001047, 9.999293 
2.650359e+2, 2.559224e+2, -310368.25, -454600.28, -223.27391, -0.014343755, 0.16898875, -310367.9, 121610.12, 0.0, 10.001226, 9.999313 
2.6504007e+2, 2.6592165e+2, -212280.83, -382419.2, 1024.4362, -0.00987652, 0.17747074, -212274.66, 121710.375, 0.0, 10.001339, 9.999082 
2.6504436e+2, 2.759209e+2, -103836.45, -278002.25, -2598.2788, 0.004455688, 0.19131958, -103797.7, 132194.58, 0.0, 10.001405, 9.999094 
2.6504853e+2, 2.8591952e+2, 450.21725, -209862.05, -10255.264, 0.016958758, 0.15934558, 949.1019, 138953.64, 0.0, 10.00159, 9.9988 
2.6505256e+2, 2.9591775e+2, 132106.67, -104140.055, -7444.8696, 0.028367246, 0.09911611, 132341.05, 172360.81, 0.0, 10.001858, 9.998724 
2.650567e+2, 3.0591658e+2, 146309.9, -190082.5, -8473.065, 0.052628554, 0.16708559, 146523.19, 146523.19, 0.0, 10.002129, 9.997669 
2.6506108e+2, 3.159138e+2, 311126.47, 87896.695, 1467.9779, 0.09508316, 0.11696145, 311136.13, 311136.13, 0.000000037775372, 10.002406, 9.999445 
2.7498335e+2, 1.2591864e+2, -1755471.4, -1682408.4, -12437.214, 0.056566667, 0.027349686, -1680349.4, 25651.477, 0.00000012804327, 9.999498, 10.000464 
2.7498785e+2, 1.3591902e+2, -1658564.9, -1592787.4, 3080.4944, 0.08227688, 0.025918797, -1592643.4, 15352.776, 0.0000000018569922, 9.999524, 10.000395 
2.749919e+2, 1.459191e+2, -1547553.5, -1497697.1, -7337.087, 0.076402836, -0.0018015543, -1496639.8, 13356.477, 0.0, 9.999653, 10.000311 
2.749957e+2, 1.5592004e+2, -1420209.4, -1384284.6, -7131.89, 0.065051414, 0.059477434, -1382920.6, 29068.42, 0.0, 9.999849, 10.000322 
2.7499974e+2, 1.6592051e+2, -1318536.9, -1307197.3, -127.0004, 0.056366038, 0.086107016, -1307195.9, 6790.06, 0.0, 9.999972, 10.000119 
2.750038e+2, 1.7592059e+2, -1207705.5, -1199742.0, -2231.6565, 0.046221826, 0.079148434, -1199159.3, 16827.193, 0.0, 10.000046, 10.000149 
2.7500778e+2, 1.8592075e+2, -1101831.5, -1114415.8, -1907.849, 0.027346404, 0.08616357, -1101548.6, 16437.74, 0.0, 10.000171, 10.000001 
2.7501172e+2, 1.9592094e+2, -981145.5, -1006677.75, 1416.3013, 0.003749227, 0.10349598, -981067.2, 38918.51, 0.0, 10.000332, 9.99999 
2.7501586e+2, 2.0592105e+2, -892928.4, -970600.25, 7857.3853, -0.0077056964, 0.14376944, -892141.5, 29845.543, 0.0, 10.000511, 9.999479 
2.7502018e+2, 2.159211e+2, -765297.3, -855648.25, 6560.971, -0.011090836, 0.19691071, -764823.4, 59166.523, 0.0, 10.000703, 9.999503 
2.750244e+2, 2.259205e+2, -661819.3, -775364.94, 900.9174, -0.014123305, 0.1973863, -661812.1, 64184.457, 0.0, 10.000828, 9.999321 
2.7502856e+2, 2.3591948e+2, -549663.56, -666288.44, 1244.8645, -0.016661774, 0.15939027, -549650.25, 78355.79, 0.0, 10.000907, 9.999359 
2.750329e+2, 2.4591872e+2, -433489.78, -562939.9, 4931.067, -0.009781525, 0.14956102, -433302.22, 96710.67, 0.0, 10.001046, 9.999329 
2.750373e+2, 2.5591817e+2, -308538.53, -450779.8, 6128.974, 0.0038208722, 0.15762246, -308274.9, 123743.016, 0.0, 10.001226, 9.999339 
2.750416e+2, 2.659174e+2, -217078.16, -392440.84, 3398.8032, 0.009698057, 0.16266333, -217012.3, 117013.234, 0.0, 10.001339, 9.999013 
2.7504584e+2, 2.759164e+2, -107622.14, -286015.72, 574.2538, 0.010156681, 0.16163664, -107620.3, 128414.84, 0.0, 10.001406, 9.999039 
2.7505016e+2, 2.859151e+2, 5615.159, -199286.78, -222.34146, 0.02304111, 0.13500004, 5615.4004, 143662.16, 0.0, 10.001591, 9.998873 
2.7505457e+2, 2.9591358e+2, 136074.64, -95972.99, 2457.7427, 0.045045152, 0.09465732, 136100.67, 176159.9, 0.0, 10.001859, 9.99878 
2.7505895e+2, 3.0591232e+2, 138915.75, -205505.73, 1944.7963, 0.06402545, 0.15759021, 138926.73, 138926.73, 0.0, 10.002129, 9.997563 
2.7506346e+2, 3.1590936e+2, 307425.97, 80221.22, 10980.056, 0.09307895, 0.09767233, 307955.38, 307955.38, 0.00000000643165, 10.002405, 9.9993925 
2.8498304e+2, 1.2591445e+2, -1752387.6, -1682420.1, -10539.479, 0.07439324, 0.03370087, -1680867.0, 25175.0, 0.000000073181255, 9.999525, 10.000452 
2.849876e+2, 1.3591473e+2, -1644332.0, -1586811.1, -90.01275, 0.09971089, 0.023806037, -1586811.0, 21227.326, 0.00000000048290855, 9.999625, 10.000387 
2.8499168e+2, 1.4591487e+2, -1531289.8, -1491046.8, -9268.424, 0.08259102, 0.0028129732, -1489014.6, 21023.287, 0.0, 9.99977, 10.0003 
2.8499562e+2, 1.5591587e+2, -1407397.1, -1379249.0, -10783.124, 0.06369164, 0.071607396, -1375593.0, 36437.176, 0.0, 9.999942, 10.000313 
2.8499973e+2, 1.6591632e+2, -1309344.8, -1305863.5, -6815.8276, 0.05499939, 0.096598685, -1300569.5, 13457.834, 0.0, 10.000049, 10.0000925 
2.850039e+2, 1.759163e+2, -1200013.1, -1198844.4, -6356.009, 0.049323834, 0.08214361, -1193046.0, 22982.828, 0.0, 10.000112, 10.000124 
2.85008e+2, 1.8591638e+2, -1091543.6, -1109755.4, -4863.4834, 0.029945876, 0.085117966, -1090326.3, 27702.883, 0.0, 10.000243, 9.999999 
2.850121e+2, 1.9591656e+2, -967666.2, -1000253.75, -7392.524, 0.002710205, 0.1008936, -966067.6, 53960.938, 0.0, 10.000425, 9.99999 
2.8501636e+2, 2.059167e+2, -891919.2, -968275.56, -3730.8103, -0.010019384, 0.14239112, -891737.3, 30292.213, 0.0, 10.00051, 9.9994955 
2.8502077e+2, 2.159168e+2, -789867.8, -865963.94, -1830.1947, -0.01323222, 0.19872005, -789823.8, 34207.957, 0.0, 10.000527, 9.9995165 
2.8502512e+2, 2.2591616e+2, -685357.2, -788182.1, -4927.2705, -0.016701862, 0.19480366, -685121.6, 40917.16, 0.0, 10.000673, 9.999309 
2.8502944e+2, 2.3591502e+2, -550481.44, -668211.3, -5346.367, -0.020003939, 0.1470666, -550239.1, 77810.02, 0.0, 10.000908, 9.999346 
2.8503394e+2, 2.4591427e+2, -427962.9, -561392.25, -3849.6602, -0.010860132, 0.1380451, -427851.94, 102204.03, 0.0, 10.001089, 9.999319 
2.8503853e+2, 2.5591376e+2, -308173.2, -451495.75, -6238.5513, 0.0071134227, 0.15441512, -307902.13, 124158.13, 0.0, 10.001233, 9.999331 
2.85043e+2, 2.6591298e+2, -205915.84, -385513.28, -7765.404, 0.012941507, 0.15989198, -205580.72, 128486.96, 0.0, 10.00141, 9.999027 
2.8504732e+2, 2.75912e+2, -77536.64, -270447.8, -4242.009, 0.010180265, 0.1537311, -77443.41, 158634.1, 0.0, 10.001608, 9.999048 
2.8505188e+2, 2.8591067e+2, 30784.648, -191452.2, -4590.431, 0.025709437, 0.12760617, 30879.426, 168968.72, 0.0, 10.001782, 9.998835 
2.8505656e+2, 2.9590917e+2, 145827.81, -94676.12, -10256.978, 0.054649204, 0.09205843, 146264.47, 186366.38, 0.0, 10.00194, 9.99875 
2.8506112e+2, 3.059079e+2, 135888.23, -200180.77, -7196.6914, 0.07241441, 0.15228678, 136042.28, 136042.28, 0.0, 10.002078, 9.997624 
2.850658e+2, 3.1590506e+2, 285097.56, 80724.28, 13099.1045, 0.09720094, 0.10037987, 285933.72, 285933.72, 0.00000000043435586, 10.002203, 9.999494 
2.9498294e+2, 1.2591039e+2, -1758409.9, -1694391.8, -6592.207, 0.11158768, 0.052012477, -1693720.0, 12362.277, 0.000000040732502, 9.999523, 10.000371 
2.9498738e+2, 1.3591047e+2, -1649910.5, -1597907.8, 4005.7644, 0.11466593, 0.029667184, -1597601.0, 10479.958, 0.0000000000036468957, 9.999623, 10.000312 
2.9499146e+2, 1.4591056e+2, -1533435.4, -1495087.6, -2661.7734, 0.08348924, 0.0121189235, -1494903.8, 15177.028, 0.0, 9.999768, 10.000274 
2.949956e+2, 1.5591161e+2, -1409035.8, -1382423.9, -4635.5684, 0.067805305, 0.085884884, -1381639.6, 30433.127, 0.0, 9.999941, 10.000291 
2.949998e+2, 1.65912e+2, -1309188.1, -1305418.8, -4518.207, 0.05915101, 0.10622121, -1302408.0, 11662.383, 0.0, 10.000048, 10.000095 
2.9500404e+2, 1.7591186e+2, -1200490.4, -1199592.6, -3569.6587, 0.050927937, 0.08121663, -1196443.8, 19628.867, 0.0, 10.00011, 10.000119 
2.9500827e+2, 1.8591191e+2, -1097094.1, -1121117.0, 2004.132, 0.03311862, 0.08328221, -1096928.1, 21145.34, 0.0, 10.000242, 9.999921 
2.9501256e+2, 1.9591206e+2, -972212.7, -1009698.25, -1041.96, 0.010364486, 0.10473017, -972183.75, 47889.402, 0.0, 10.000425, 9.999926 
2.9501688e+2, 2.0591217e+2, -887872.75, -959908.06, -3071.0044, -0.008150555, 0.1427809, -887742.06, 34332.156, 0.0, 10.00051, 9.999554 
2.9502118e+2, 2.1591222e+2, -786350.9, -858724.44, -375.19983, -0.024374632, 0.18946281, -786348.94, 37727.39, 0.0, 10.000528, 9.999566 
2.9502574e+2, 2.2591159e+2, -687076.56, -791818.56, 3956.3047, -0.025294775, 0.18518335, -686927.4, 39155.766, 0.0, 10.000673, 9.999283 
2.950304e+2, 2.3591049e+2, -552322.56, -672157.44, 3256.3848, -0.015157225, 0.14354323, -552234.2, 75859.08, 0.0, 10.000909, 9.999318 
2.9503506e+2, 2.4590974e+2, -431894.3, -569682.6, 1539.9677, -0.0085515585, 0.13909137, -431877.1, 98223.125, 0.0, 10.00109, 9.999262 
2.9503968e+2, 2.5590923e+2, -311178.53, -457794.63, -613.21783, -0.004338161, 0.15920858, -311175.97, 120929.05, 0.0, 10.001233, 9.999289 
2.9504427e+2, 2.659085e+2, -199254.3, -371674.53, -338.46396, 0.000019092526, 0.16892383, -199253.64, 134857.86, 0.0, 10.00141, 9.999122 
2.950489e+2, 2.7590767e+2, -72452.53, -259817.3, 3019.3462, 0.004544152, 0.16720684, -72403.88, 163715.52, 0.0, 10.001608, 9.999122 
2.9505366e+2, 2.8590623e+2, 20415.36, -212935.31, 1300.3683, 0.024948405, 0.13682844, 20422.607, 158554.78, 0.0, 10.001782, 9.998687 
2.9505852e+2, 2.959045e+2, 137864.17, -111195.14, -4458.1025, 0.057166446, 0.09122036, 137943.95, 178091.73, 0.0, 10.00194, 9.998636 
2.9506326e+2, 3.059033e+2, 151440.8, -167828.14, -2493.9749, 0.077608995, 0.15106778, 151460.28, 151460.28, 0.0, 10.002078, 9.997847 
2.950681e+2, 3.1590092e+2, 302699.88, 117409.99, 16923.12, 0.10670626, 0.12388289, 304232.8, 304232.8, 0.0, 10.002202, 9.999746 
3.0498275e+2, 1.2590598e+2, -1738852.8, -1689522.8, -10816.151, 0.1327214, 0.047825508, -1687255.4, 18870.148, 0.000000022140249, 9.999678, 10.00033 
3.0498713e+2, 1.3590616e+2, -1632000.0, -1593484.9, 2719.978, 0.121619195, 0.039685346, -1593293.8, 14829.814, 0.0, 9.999764, 10.000275 
3.0499122e+2, 1.4590628e+2, -1523304.6, -1490344.1, -671.60443, 0.07818614, 0.024538672, -1490330.4, 19792.934, 0.0, 9.999838, 10.000273 
3.0499548e+2, 1.5590715e+2, -1415671.3, -1386148.3, -733.6621, 0.06475202, 0.08266916, -1386130.0, 25986.53, 0.0, 9.999898, 10.000287 
3.0499983e+2, 1.659075e+2, -1314054.5, -1313410.3, -1823.9456, 0.05665335, 0.101719365, -1311880.3, 2234.3442, 0.0, 10.000039, 10.000045 
3.0500415e+2, 1.7590742e+2, -1185155.6, -1197857.9, -5009.41, 0.046696898, 0.08643435, -1183417.9, 32698.887, 0.0, 10.000239, 10.000069 
3.050086e+2, 1.8590747e+2, -1082706.6, -1119561.8, 202.29596, 0.030818745, 0.094640285, -1082705.6, 35412.074, 0.0, 10.000364, 9.999873 
3.0501303e+2, 1.9590761e+2, -973354.75, -1014942.94, -771.3443, 0.012907657, 0.1193235, -973340.44, 46777.21, 0.0, 10.000438, 9.999884 
3.050174e+2, 2.0590764e+2, -881561.3, -956214.56, -5829.9536, -0.0065555405, 0.1502513, -881108.8, 41010.47, 0.0, 10.000551, 9.999559 
3.0502176e+2, 2.1590754e+2, -761921.44, -846463.25, -6516.9805, -0.02795231, 0.18282488, -761422.0, 62700.207, 0.0, 10.000693, 9.999571 
3.0502644e+2, 2.2590692e+2, -660385.3, -779983.1, 1426.926, -0.031479903, 0.17913473, -660368.3, 65760.484, 0.0, 10.000861, 9.999274 
3.050313e+2, 2.3590592e+2, -533222.8, -664069.06, 1613.279, -0.022068165, 0.14828764, -533202.94, 94935.02, 0.0, 10.001044, 9.999309 
3.0503616e+2, 2.4590513e+2, -417280.94, -564685.75, -308.1404, -0.013025724, 0.14263819, -417280.28, 112864.78, 0.0, 10.001199, 9.999244 
3.0504096e+2, 2.559045e+2, -297797.84, -453356.72, 465.95956, -0.00420438, 0.15327327, -297796.44, 134354.33, 0.0, 10.001334, 9.99927 
3.0504575e+2, 2.6590377e+2, -190879.94, -369016.9, -1646.6754, 0.0012131989, 0.1612306, -190864.72, 143292.67, 0.0, 10.001473, 9.999109 
3.050505e+2, 2.7590293e+2, -72282.8, -261145.27, -6409.213, 0.0043215165, 0.16311459, -72065.55, 164099.42, 0.0, 10.001615, 9.999109 
3.050554e+2, 2.859015e+2, 13384.618, -217566.31, -6685.8726, 0.024962675, 0.13151401, 13578.007, 151755.92, 0.0, 10.001739, 9.998676 
3.0506042e+2, 2.958997e+2, 124542.23, -118492.34, -2576.271, 0.05850025, 0.08157846, 124569.54, 164763.6, 0.0, 10.001852, 9.998629 
3.050653e+2, 3.0589843e+2, 134465.67, -173157.45, -6006.1763, 0.081035726, 0.13506335, 134582.89, 134582.89, 0.0, 10.001949, 9.997872 
3.0507028e+2, 3.158962e+2, 282349.56, 114292.945, -2030.6211, 0.11497031, 0.11969246, 282374.1, 282374.1, 0.0, 10.002034, 9.999806 
3.1498244e+2, 1.2590125e+2, -1739566.8, -1690186.5, -7635.269, 0.13670236, 0.020693468, -1689032.9, 17138.78, 0.00000002336468, 9.999674, 10.000327 
3.1498688e+2, 1.3590182e+2, -1632188.4, -1593746.8, 6023.386, 0.12011544, 0.05441724, -1592825.0, 15341.187, 0.0, 9.999764, 10.000273 
3.1499094e+2, 1.4590198e+2, -1521431.9, -1486444.4, 1537.9509, 0.066461295, 0.040693514, -1486376.9, 23788.688, 0.0, 9.999838, 10.000299 
3.1499526e+2, 1.559025e+2, -1414952.6, -1384179.4, 1950.2805, 0.05400871, 0.06185092, -1384056.3, 28105.29, 0.0, 9.999895, 10.000301 
3.1499976e+2, 1.6590284e+2, -1321827.5, -1329110.6, 5730.359, 0.046969675, 0.08291339, -1318679.5, -4519.309, 0.0, 10.000037, 9.999938 
3.150043e+2, 1.7590295e+2, -1192060.3, -1212132.8, 2125.82, 0.036373634, 0.09794307, -1191837.6, 24323.55, 0.0, 10.000239, 9.99997 
3.1500885e+2, 1.8590307e+2, -1083878.8, -1122049.9, 2918.0732, 0.022902243, 0.1193388, -1083657.0, 34504.73, 0.0, 10.000364, 9.999856 
3.1501347e+2, 1.9590321e+2, -974813.0, -1017894.6, 2251.7935, 0.01026767, 0.14457667, -974695.6, 45466.348, 0.0, 10.000437, 9.999864 
3.15018e+2, 2.059031e+2, -884749.5, -962753.2, -397.07068, -0.00534552, 0.16472389, -884747.44, 37417.305, 0.0, 10.00055, 9.999515 
3.150225e+2, 2.1590278e+2, -764730.0, -852348.25, -902.96356, -0.024207829, 0.1788042, -764720.7, 59448.82, 0.0, 10.000693, 9.999531 
3.1502727e+2, 2.2590214e+2, -659955.9, -779184.25, 8473.558, -0.03546961, 0.17661215, -659356.7, 66819.125, 0.0, 10.000861, 9.999279 
3.1503215e+2, 2.359013e+2, -532718.56, -663033.0, 8431.716, -0.04066436, 0.16119224, -532175.3, 96008.02, 0.0, 10.001044, 9.999316 
3.1503722e+2, 2.4590045e+2, -415901.1, -561850.75, 4795.267, -0.024285126, 0.14866182, -415743.72, 114446.81, 0.0, 10.0012, 9.999264 
3.1504238e+2, 2.5589964e+2, -297199.56, -452196.94, 5579.364, 0.0071930857, 0.1368212, -296998.97, 135198.6, 0.0, 10.001334, 9.999278 
3.1504735e+2, 2.6589873e+2, -199170.0, -386296.7, 3722.5193, 0.016113602, 0.13714187, -199095.97, 135109.44, 0.0, 10.001473, 9.998991 
3.1505215e+2, 2.7589783e+2, -79048.94, -275176.38, -1122.3708, 0.009237473, 0.14180315, -79042.516, 157171.61, 0.0, 10.001615, 9.999013 
3.1505716e+2, 2.8589642e+2, 21892.02, -199890.55, -2423.9717, 0.025520192, 0.11204029, 21918.51, 160144.98, 0.0, 10.001739, 9.998797 
3.1506228e+2, 2.9589474e+2, 131260.52, -104605.336, 1545.2823, 0.058531117, 0.06346244, 131270.64, 171511.42, 0.0, 10.001852, 9.998724 
3.1506726e+2, 3.0589333e+2, 122861.35, -197448.52, -2754.5266, 0.08258851, 0.10468469, 122885.04, 122885.04, 0.0, 10.001949, 9.9977045 
3.150724e+2, 3.1589094e+2, 273585.1, 95856.66, 594.14417, 0.12117744, 0.087265976, 273587.1, 273587.1, 0.0, 10.002035, 9.999679 
3.249821e+2, 1.2589668e+2, -1726191.1, -1683084.4, -6095.4116, 0.13145629, 0.009359469, -1682239.0, 23977.244, 0.00000007294155, 9.9997635, 10.000332 
3.249866e+2, 1.358974e+2, -1641030.6, -1598679.6, 8755.266, 0.118622206, 0.056492828, -1596941.0, 11268.765, 0.00000000003860718, 9.999706, 10.000266 
3.249907e+2, 1.4589757e+2, -1529279.8, -1497068.6, 4309.273, 0.06038558, 0.048369817, -1496502.0, 13707.027, 0.0, 9.999814, 10.000238 
3.2499522e+2, 1.5589795e+2, -1399952.4, -1383551.5, -2084.8604, 0.051739644, 0.060109455, -1383290.6, 28915.984, 0.0, 10.000027, 10.000242 
3.2499984e+2, 1.6589823e+2, -1308445.9, -1326517.5, 2047.0615, 0.047807924, 0.0829026, -1308217.0, 5988.729, 0.0, 10.000146, 9.999904 
3.2500455e+2, 1.7589842e+2, -1199966.6, -1219574.8, 3735.9407, 0.038692698, 0.10805664, -1199278.9, 16927.275, 0.0, 10.000201, 9.999938 
3.250092e+2, 1.8589854e+2, -1094742.1, -1128634.9, 5853.1743, 0.022873461, 0.1313621, -1093759.8, 24447.072, 0.0, 10.000296, 9.999845 
3.2501382e+2, 1.9589862e+2, -978295.56, -1020946.0, 5857.3647, 0.005534101, 0.15242611, -977505.75, 42701.773, 0.0, 10.000419, 9.999851 
3.2501853e+2, 2.0589845e+2, -875651.2, -959863.94, 8263.986, -0.009475262, 0.16889888, -874847.9, 47362.727, 0.0, 10.000619, 9.999501 
3.250233e+2, 2.1589808e+2, -739152.75, -841190.06, 9766.572, -0.024055947, 0.1798338, -738226.4, 85989.05, 0.0, 10.0008745, 9.99952 
3.2502818e+2, 2.2589746e+2, -636585.6, -765710.94, 18041.514, -0.03543409, 0.17607513, -634112.2, 92109.31, 0.0, 10.001012, 9.999299 
3.2503316e+2, 2.3589662e+2, -528327.0, -659202.8, 19174.248, -0.04380051, 0.16010347, -525575.7, 102653.0, 0.0, 10.001067, 9.999331 
3.2503843e+2, 2.4589573e+2, -416841.72, -566463.2, 15351.106, -0.026403133, 0.143282, -415282.94, 114953.26, 0.0, 10.001211, 9.999226 
3.250438e+2, 2.5589478e+2, -287823.97, -451867.66, 11612.813, 0.009022853, 0.12463372, -287005.97, 145238.02, 0.0, 10.001417, 9.999241 
3.250489e+2, 2.6589382e+2, -195832.3, -389993.7, 8227.322, 0.020009361, 0.11991256, -195484.3, 138768.33, 0.0, 10.001519, 9.998943 
3.2505378e+2, 2.7589282e+2, -91332.2, -285755.63, 8834.262, 0.013821805, 0.12074624, -90931.62, 145330.53, 0.0, 10.001551, 9.998971 
3.250589e+2, 2.8589144e+2, 13483.309, -203768.94, 7043.631, 0.028835371, 0.09551144, 13711.434, 151985.73, 0.0, 10.00168, 9.998799 
3.2506415e+2, 2.9588988e+2, 135054.3, -102898.03, 1725.954, 0.0591361, 0.057573773, 135066.83, 175354.5, 0.0, 10.001879, 9.998723 
3.2506922e+2, 3.0588835e+2, 123381.76, -199574.11, -3805.142, 0.08175758, 0.09079726, 123426.586, 123426.586, 0.0, 10.001964, 9.997684 
3.250744e+2, 3.1588596e+2, 264263.56, 92203.8, 9466.765, 0.1215409, 0.07400418, 264782.84, 264782.84, 0.0, 10.001967, 9.999685 
3.349817e+2, 1.2589228e+2, -1725312.1, -1681001.1, -8907.081, 0.11603383, 0.014224158, -1679277.8, 26981.55, 0.00000025481785, 9.999762, 10.000347 
3.349863e+2, 1.3589287e+2, -1642125.1, -1600144.9, 7599.989, 0.11665041, 0.045479994, -1598811.4, 9442.904, 0.0000000058941185, 9.999702, 10.000258 
3.3499047e+2, 1.4589304e+2, -1540439.0, -1519540.5, 12514.392, 0.059506055, 0.047174376, -1513686.5, -3432.6372, 0.0, 9.999811, 10.000086 
3.349953e+2, 1.5589345e+2, -1409464.5, -1403222.4, 5403.664, 0.057483163, 0.07761722, -1400103.1, 12148.481, 0.0, 10.000027, 10.000107 
3.3500013e+2, 1.6589372e+2, -1305665.4, -1320823.9, 3992.5686, 0.058858074, 0.10188518, -1304678.1, 9572.847, 0.0, 10.000146, 9.999943 
3.350049e+2, 1.7589383e+2, -1197762.3, -1214830.5, 6061.525, 0.053542323, 0.1167321, -1195828.6, 20423.143, 0.0, 10.0002, 9.999971 
3.3500955e+2, 1.8589388e+2, -1095387.4, -1129807.3, 10463.127, 0.030594712, 0.1306271, -1092456.4, 25796.572, 0.0, 10.000295, 9.999837 
3.3501416e+2, 1.9589385e+2, -978695.75, -1021779.4, 10964.546, -0.0014758041, 0.14294443, -976065.9, 44188.508, 0.0, 10.000419, 9.9998455 
3.3501905e+2, 2.0589373e+2, -874431.06, -957312.25, 17962.982, -0.019091088, 0.1628536, -870705.4, 51551.375, 0.0, 10.000619, 9.999519 
3.3502412e+2, 2.158935e+2, -737886.44, -838450.25, 18836.637, -0.027588436, 0.18586095, -734473.94, 89786.01, 0.0, 10.000874, 9.999539 
3.3502924e+2, 2.2589286e+2, -634237.75, -760781.3, 20117.605, -0.031576127, 0.17749664, -631116.5, 95149.43, 0.0, 10.001012, 9.999333 
3.3503437e+2, 2.358919e+2, -526658.3, -655804.5, 21761.654, -0.0317962, 0.14522614, -523090.0, 105184.055, 0.0, 10.001067, 9.999354 
3.350397e+2, 2.4589095e+2, -423392.03, -580105.8, 23118.195, -0.0196293, 0.12670068, -420052.8, 110229.28, 0.0, 10.001211, 9.999132 
3.3504513e+2, 2.5589e+2, -293658.25, -463851.16, 18789.443, 0.0013566421, 0.11663777, -291608.56, 140681.55, 0.0, 10.001416, 9.999159 
3.3505034e+2, 2.65889e+2, -194227.58, -386655.16, 9321.844, 0.013009955, 0.10941237, -193777.05, 140522.03, 0.0, 10.001519, 9.998966 
3.3505535e+2, 2.7588788e+2, -90310.58, -283897.7, 10544.78, 0.01791692, 0.0998867, -89737.89, 146571.2, 0.0, 10.001552, 9.998983 
3.3506063e+2, 2.8588653e+2, 5559.586, -220467.05, 14564.379, 0.034644507, 0.08175941, 6494.1997, 144815.64, 0.0, 10.001681, 9.998684 
3.3506605e+2, 2.9588503e+2, 128404.54, -116750.82, 8606.259, 0.06025242, 0.063546, 128706.3, 169041.11, 0.0, 10.001879, 9.998628 
3.3507118e+2, 3.0588353e+2, 131754.45, -182273.05, -3679.9565, 0.07849322, 0.09294242, 131797.56, 131797.56, 0.0, 10.001964, 9.997802 
3.350763e+2, 3.1588122e+2, 273895.22, 111782.89, 8795.299, 0.11522863, 0.0784286, 274371.0, 274371.0, 0.0, 10.001969, 9.99982 
3.449812e+2, 1.2588789e+2, -1751967.4, -1697001.1, -5644.398, 0.09633787, 0.017539443, -1696427.5, 9875.03, 0.00000066099744, 9.999593, 10.000319 
3.4498605e+2, 1.3588846e+2, -1622441.1, -1595218.6, 7974.1963, 0.11439073, 0.05333017, -1593054.8, 15243.091, 0.000000050287014, 9.999858, 10.000217 
3.449903e+2, 1.4588863e+2, -1524922.6, -1519099.0, 15033.89, 0.056929544, 0.059141442, -1506697.5, 3600.1084, 0.0000000000012273421, 9.999948, 10.000023 
3.4499523e+2, 1.5588893e+2, -1430804.0, -1419895.6, 14716.971, 0.05717186, 0.08470003, -1409654.6, 2641.817, 0.0, 9.9999075, 10.00005 
3.4500018e+2, 1.6588911e+2, -1323219.5, -1329997.4, 16019.278, 0.05820838, 0.104252174, -1310234.6, 4061.7676, 0.0, 10.000029, 9.999936 
3.4500507e+2, 1.758892e+2, -1188925.4, -1211740.6, 14634.739, 0.0497891, 0.115207836, -1181777.4, 34519.99, 0.0, 10.000266, 9.999961 
3.450099e+2, 1.858892e+2, -1075386.3, -1125782.0, 15616.896, 0.026686618, 0.13019054, -1070939.3, 47359.484, 0.0, 10.000457, 9.999786 
3.450147e+2, 1.9588919e+2, -953215.6, -1014483.25, 12947.531, -0.0030836002, 0.14700723, -950591.8, 69708.5, 0.0, 10.000615, 9.999801 
3.450197e+2, 2.0588899e+2, -861338.2, -949574.5, 18498.943, -0.02101951, 0.16141862, -857616.8, 64686.254, 0.0, 10.000703, 9.999532 
3.4502488e+2, 2.1588865e+2, -756798.0, -846388.2, 19044.836, -0.031795055, 0.17177455, -752917.56, 71389.195, 0.0, 10.000739, 9.99955 
3.450302e+2, 2.25888e+2, -653169.25, -771953.8, 17853.172, -0.03151236, 0.16469945, -650544.0, 75768.64, 0.0, 10.000891, 9.999315 
3.4503555e+2, 2.3588713e+2, -519707.47, -654622.94, 15543.628, -0.022838257, 0.1437523, -517939.84, 110380.266, 0.0, 10.001124, 9.999335 
3.4504098e+2, 2.4588615e+2, -418982.6, -580248.7, 17848.459, -0.01340511, 0.12456159, -417030.8, 113297.625, 0.0, 10.001251, 9.999112 
3.4504646e+2, 2.558851e+2, -311384.72, -474276.1, 18990.088, -0.0033088154, 0.105268486, -309200.13, 123137.23, 0.0, 10.001303, 9.999142 
3.4505183e+2, 2.658841e+2, -198388.08, -387495.97, 12182.3955, 0.009292431, 0.09919879, -197606.52, 136739.63, 0.0, 10.001485, 9.998977 
3.4505707e+2, 2.7588308e+2, -59746.367, -269070.2, 12161.719, 0.023488078, 0.09820571, -59042.14, 177313.03, 0.0, 10.0017605, 9.998984 
3.4506246e+2, 2.8588176e+2, 23752.24, -222416.5, 14004.732, 0.04064535, 0.084781796, 24546.418, 162914.27, 0.0, 10.001852, 9.998589 
3.4506786e+2, 2.958802e+2, 113103.586, -133685.31, 9442.865, 0.0604293, 0.068660475, 113464.375, 153846.86, 0.0, 10.001815, 9.998543 
3.4507304e+2, 3.0587855e+2, 122378.4, -182639.03, -6010.2847, 0.07673412, 0.09017238, 122496.78, 122496.78, 0.0, 10.001882, 9.997839 
3.450783e+2, 3.158764e+2, 284570.38, 122460.34, -452.49847, 0.11507183, 0.08579663, 284571.66, 284571.66, 0.0, 10.002019, 9.999869 
3.5498056e+2, 1.2588346e+2, -1757917.9, -1708132.6, 3715.9487, 0.071704105, 0.019191904, -1707856.9, -1510.8745, 0.0000013452728, 9.999587, 10.000245 
3.5498586e+2, 1.358842e+2, -1627838.8, -1606306.1, 17055.238, 0.111251205, 0.08036048, -1596903.3, 11437.098, 0.00000017487064, 9.999857, 10.000142 
3.5499024e+2, 1.4588434e+2, -1522970.1, -1515047.0, 13437.461, 0.052130453, 0.08447196, -1504999.3, 5341.135, 0.0000000006565857, 9.999948, 10.000051 
3.5499507e+2, 1.5588439e+2, -1429582.6, -1416977.8, 14042.152, 0.05062185, 0.08114823, -1407888.5, 4452.5293, 0.0, 9.999906, 10.000071 
3.5500008e+2, 1.6588444e+2, -1327175.1, -1337889.3, 24886.668, 0.045712717, 0.08982938, -1307075.5, 7266.4116, 0.0, 10.000027, 9.999883 
3.5500512e+2, 1.7588447e+2, -1192936.9, -1220002.0, 23320.963, 0.02716514, 0.10346649, -1179506.5, 36836.66, 0.0, 10.000265, 9.999905 
3.5501018e+2, 1.8588454e+2, -1081866.1, -1139248.3, 21583.502, 0.010920584, 0.13004765, -1074654.3, 43690.1, 0.0, 10.000456, 9.999694 
3.550153e+2, 1.958846e+2, -959085.8, -1026668.56, 18611.28, 0.00055452826, 0.16451317, -954299.56, 66045.91, 0.0, 10.000615, 9.999718 
3.5502043e+2, 2.0588423e+2, -860781.25, -948449.1, 19856.875, -0.015386416, 0.1645803, -856493.4, 65856.18, 0.0, 10.000703, 9.999539 
3.5502556e+2, 2.1588352e+2, -756596.5, -846048.06, 21112.76, -0.036770966, 0.13777421, -751863.75, 72492.17, 0.0, 10.000739, 9.999552 
3.5503104e+2, 2.2588292e+2, -658140.7, -782339.06, 26751.977, -0.035332307, 0.13777855, -652623.5, 73738.125, 0.0, 10.000891, 9.999244 
3.5503674e+2, 2.3588236e+2, -524009.03, -663521.94, 23820.203, -0.017035645, 0.15543745, -520054.13, 108312.74, 0.0, 10.001124, 9.999274 
3.550423e+2, 2.458814e+2, -415401.34, -572820.2, 19736.613, -0.007854662, 0.13663077, -412964.56, 117410.65, 0.0, 10.001251, 9.999164 
3.5504773e+2, 2.5588012e+2, -307985.38, -467310.7, 21631.875, -0.005201579, 0.09057681, -305100.6, 127285.19, 0.0, 10.001303, 9.999189 
3.5505328e+2, 2.6587918e+2, -198563.03, -387848.6, 22561.295, 0.008623692, 0.08921042, -195911.06, 138482.77, 0.0, 10.001485, 9.998975 
3.550589e+2, 2.7587846e+2, -60621.816, -270596.28, 21463.229, 0.030504758, 0.11529095, -58450.336, 177950.11, 0.0, 10.00176, 9.998975 
3.5506436e+2, 2.8587705e+2, 18248.404, -233634.52, 12468.608, 0.046812512, 0.10424244, 18864.115, 157277.69, 0.0, 10.001851, 9.998511 
3.5506967e+2, 2.9587528e+2, 108012.03, -144372.33, 8645.674, 0.059329964, 0.07288444, 108307.85, 148738.56, 0.0, 10.001816, 9.998469 
3.550749e+2, 3.0587348e+2, 119589.48, -188733.44, -830.4981, 0.07603065, 0.082558066, 119591.71, 119591.71, 0.0, 10.001883, 9.997797 
3.5508037e+2, 3.1587145e+2, 282753.16, 118153.984, 3898.1306, 0.120051086, 0.09397066, 282845.44, 282845.44, 0.0, 10.002021, 9.999839 
3.6497998e+2, 1.2587875e+2, -1757406.4, -1707464.9, -9408.264, 0.054709908, 0.01641432, -1705751.3, 640.50854, 0.000002293197, 9.999589, 10.000249 
3.6498547e+2, 1.3587956e+2, -1667370.4, -1626242.3, 10868.308, 0.10051717, 0.084219866, -1623546.9, -15160.882, 0.00000039420158, 9.999589, 10.000134 
3.6498994e+2, 1.4587972e+2, -1546410.0, -1526072.1, 8584.545, 0.036238406, 0.090144806, -1522933.1, -12547.268, 0.000000005977529, 9.999785, 10.000052 
3.6499497e+2, 1.5587965e+2, -1399966.1, -1402877.6, 7097.3555, 0.037890043, 0.07733643, -1394176.8, 18210.346, 0.0, 10.00011, 10.000069 
3.6500016e+2, 1.6587967e+2, -1295393.6, -1329276.3, 17080.219, 0.03587661, 0.08412459, -1288277.9, 26110.484, 0.0, 10.000274, 9.999823 
3.6500534e+2, 1.7587969e+2, -1187807.9, -1223946.8, 15225.411, 0.01881796, 0.10166452, -1182248.5, 34141.305, 0.0, 10.000328, 9.999846 
3.650106e+2, 1.8587974e+2, -1081198.0, -1143565.9, 17041.94, 0.004684181, 0.13076468, -1076845.0, 41546.27, 0.0, 10.000481, 9.999652 
3.6501595e+2, 1.9587976e+2, -948902.3, -1026081.56, 17446.875, -0.0027373345, 0.16659304, -945141.56, 75251.28, 0.0, 10.000704, 9.999679 
3.6502123e+2, 2.0587933e+2, -839355.6, -939320.94, 15256.169, -0.01371223, 0.16467316, -837079.2, 85318.14, 0.0, 10.000855, 9.999529 
3.650265e+2, 2.1587859e+2, -726008.3, -832690.94, 15209.966, -0.028815879, 0.13351141, -723882.2, 100521.79, 0.0, 10.000956, 9.999539 
3.6503205e+2, 2.2587793e+2, -641932.56, -777979.56, 24305.17, -0.029518198, 0.13221204, -637720.75, 88689.25, 0.0, 10.001018, 9.999212 
3.650378e+2, 2.3587736e+2, -536194.3, -672212.56, 24317.693, -0.019276602, 0.1506218, -531977.5, 96438.12, 0.0, 10.001053, 9.9992485 
3.650435e+2, 2.458764e+2, -421642.53, -572453.7, 20696.916, -0.010548863, 0.13364068, -418853.72, 111569.96, 0.0, 10.001194, 9.999193 
3.650491e+2, 2.558752e+2, -290728.0, -456350.03, 21010.072, -0.0030818877, 0.09021894, -288104.34, 144329.17, 0.0, 10.0014105, 9.999213 
3.6505482e+2, 2.658742e+2, -195960.11, -391777.13, 20275.678, 0.011901791, 0.0856769, -193882.73, 140559.22, 0.0, 10.001526, 9.998928 
3.650606e+2, 2.7587336e+2, -90859.29, -289723.7, 15644.859, 0.03249618, 0.10443791, -89636.016, 146813.75, 0.0, 10.001572, 9.998934 
3.6506617e+2, 2.85872e+2, -3936.7778, -243151.47, 6075.138, 0.049363203, 0.09763479, -3782.5918, 134680.05, 0.0, 10.001694, 9.998522 
3.6507156e+2, 2.9587036e+2, 116337.98, -139852.6, 8899.116, 0.06354492, 0.078700826, 116646.73, 157125.22, 0.0, 10.00187, 9.998474 
3.6507687e+2, 3.058684e+2, 131243.84, -188892.72, 2893.578, 0.07860222, 0.072952464, 131270.0, 131270.0, 0.0, 10.001987, 9.9977455 
3.6508235e+2, 3.158662e+2, 285433.9, 113984.84, 6022.342, 0.11807778, 0.074433014, 285645.2, 285645.2, 0.0, 10.002063, 9.99979 
3.7497947e+2, 1.2587377e+2, -1751929.8, -1695556.6, -10817.739, 0.044726398, 0.008979615, -1693552.0, 12887.876, 0.000003431768, 9.999587, 10.000332 
3.749849e+2, 1.3587452e+2, -1663558.8, -1617701.4, 11935.308, 0.081959285, 0.064567715, -1614780.9, -6346.2163, 0.0000006949508, 9.999586, 10.000195 
3.7498948e+2, 1.4587474e+2, -1548440.9, -1529772.5, 20886.459, 0.009119636, 0.075862475, -1516229.4, -5795.47, 0.00000001953993, 9.9997835, 10.000029 
3.7499487e+2, 1.5587477e+2, -1401998.4, -1406892.5, 18351.383, 0.018693253, 0.07326006, -1385931.6, 26502.889, 0.0, 10.000109, 10.000042 
3.7500033e+2, 1.6587481e+2, -1300045.0, -1338839.0, 18963.346, 0.02842691, 0.08712905, -1292315.4, 22120.25, 0.0, 10.000274, 9.999758 
3.750057e+2, 1.7587481e+2, -1191993.0, -1232580.3, 17803.059, 0.024552763, 0.10970277, -1185290.8, 31146.824, 0.0, 10.000328, 9.999787 
3.750111e+2, 1.8587476e+2, -1080633.5, -1142382.0, 25440.17, 0.007824931, 0.1322911, -1071502.5, 46937.414, 0.0, 10.000481, 9.9996605 
3.7501654e+2, 1.9587465e+2, -948602.56, -1025375.1, 25499.373, -0.013051124, 0.15332435, -940904.94, 79537.67, 0.0, 10.000703, 9.999684 
3.7502205e+2, 2.0587432e+2, -841448.25, -943571.4, 19096.014, -0.016124846, 0.16164659, -837994.25, 84452.06, 0.0, 10.0008545, 9.9995 
3.7502766e+2, 2.1587382e+2, -727850.8, -836501.94, 18853.64, -0.008235721, 0.15866618, -724672.25, 99778.71, 0.0, 10.000955, 9.999514 
3.750332e+2, 2.2587308e+2, -641354.5, -776867.5, 25684.76, -0.014334813, 0.14785829, -636649.6, 89808.19, 0.0, 10.001018, 9.99922 
3.7503874e+2, 2.3587213e+2, -535444.3, -670760.6, 26273.438, -0.029508596, 0.1296228, -530522.06, 97944.32, 0.0, 10.001054, 9.999259 
3.7504455e+2, 2.4587123e+2, -420962.53, -571085.7, 28887.363, -0.02148584, 0.11578087, -415595.75, 114878.086, 0.0, 10.001194, 9.999203 
3.7505057e+2, 2.5587034e+2, -290784.6, -456407.38, 28598.598, 0.0028528546, 0.10392452, -285985.47, 146495.1, 0.0, 10.00141, 9.999213 
3.7505642e+2, 2.658692e+2, -202242.83, -404835.2, 21895.785, 0.01896722, 0.08854906, -199903.39, 134587.11, 0.0, 10.001526, 9.998838 
3.7506214e+2, 2.7586782e+2, -95795.055, -300112.47, 17780.557, 0.029267315, 0.06625883, -94259.26, 142243.83, 0.0, 10.001572, 9.998862 
3.7506783e+2, 2.858666e+2, 2797.5513, -229278.25, 12662.963, 0.047978878, 0.065565266, 3486.447, 142001.45, 0.0, 10.001695, 9.998617 
3.7507352e+2, 2.9586542e+2, 121961.555, -128136.76, 15096.115, 0.07287241, 0.086225696, 122869.47, 163395.36, 0.0, 10.00187, 9.998554 
3.7507892e+2, 3.0586326e+2, 127085.39, -197644.4, 5560.058, 0.0843345, 0.06163305, 127180.56, 127180.56, 0.0, 10.001988, 9.997685 
3.7508434e+2, 3.1586063e+2, 281217.47, 104887.67, 8011.362, 0.10817952, 0.025746249, 281580.72, 281580.72, 0.0, 10.002064, 9.999727 
3.8497868e+2, 1.2586863e+2, -1797949.8, -1718556.8, -12935.691, 0.022149634, -0.0027457215, -1716502.3, -10012.915, 0.000004652705, 9.999274, 10.000324 
3.849843e+2, 1.358693e+2, -1651029.8, -1614336.5, 4136.333, 0.06333433, 0.045847137, -1613876.0, -5390.7, 0.0000010439659, 9.999683, 10.00017 
3.849891e+2, 1.4586957e+2, -1530399.5, -1524061.8, 10439.636, -0.010177407, 0.06442225, -1516320.6, -5836.3975, 0.000000039313953, 9.99992, 10.000002 
3.8499486e+2, 1.5586966e+2, -1416170.8, -1416661.1, 7187.3755, 0.011631606, 0.07222311, -1409224.4, 3259.7798, 0.0, 10.000025, 10.000015 
3.8500053e+2, 1.6586967e+2, -1316963.5, -1351610.8, 5527.9336, 0.025082765, 0.08714805, -1316103.0, -1617.2582, 0.0, 10.000177, 9.999716 
3.8500598e+2, 1.7586958e+2, -1188368.4, -1234419.3, 6273.294, 0.01791988, 0.10433013, -1187529.1, 28959.516, 0.0, 10.000368, 9.999756 
3.850115e+2, 1.8586951e+2, -1075241.0, -1131934.9, 17972.96, 0.00091054675, 0.12364439, -1070023.4, 48467.418, 0.0, 10.0004835, 9.999731 
3.8501713e+2, 1.9586946e+2, -967116.9, -1027339.25, 22629.814, -0.01776611, 0.14284657, -959561.2, 60931.484, 0.0, 10.000546, 9.999746 
3.8502282e+2, 2.058692e+2, -866389.4, -958185.8, 18831.066, -0.017210322, 0.15530261, -862676.56, 59819.387, 0.0, 10.000694, 9.999476 
3.850286e+2, 2.1586876e+2, -736421.6, -842655.0, 18745.336, -0.0048355656, 0.16076997, -733210.94, 91289.414, 0.0, 10.000905, 9.9994955 
3.8503426e+2, 2.25868e+2, -633678.56, -769050.3, 23972.447, -0.009995705, 0.14831224, -629558.75, 96948.43, 0.0, 10.001053, 9.999257 
3.850399e+2, 2.3586701e+2, -518612.4, -659287.7, 26950.764, -0.026704216, 0.121030055, -513625.9, 114889.95, 0.0, 10.001155, 9.999289 
3.850458e+2, 2.4586609e+2, -417511.0, -574925.6, 30523.531, -0.018178573, 0.10721594, -411799.56, 118723.87, 0.0, 10.001242, 9.999153 
3.8505197e+2, 2.5586522e+2, -307424.72, -469886.88, 25806.033, 0.008077652, 0.10181109, -303424.13, 129106.15, 0.0, 10.001319, 9.999165 
3.8505796e+2, 2.65864e+2, -211839.69, -413481.5, 19156.918, 0.024032507, 0.08361882, -210035.83, 124505.12, 0.0, 10.001477, 9.998803 
3.8506377e+2, 2.7586251e+2, -80510.8, -296548.44, 18827.885, 0.032650717, 0.051936164, -78882.2, 157672.56, 0.0, 10.001694, 9.998828 
3.850696e+2, 2.8586122e+2, 17176.248, -224413.64, 9473.142, 0.049953897, 0.053984366, 17547.137, 156113.81, 0.0, 10.001802, 9.998599 
3.850754e+2, 2.958602e+2, 115656.945, -132710.03, 3564.36, 0.07355661, 0.085884616, 115708.086, 156284.77, 0.0, 10.001834, 9.99854 
3.8508087e+2, 3.058579e+2, 125564.836, -191677.5, -3486.4702, 0.08166557, 0.048227575, 125603.15, 125603.15, 0.0, 10.001949, 9.997745 
3.8508633e+2, 3.1585532e+2, 292861.1, 115349.48, 6834.287, 0.09966968, 0.0077352137, 293123.8, 293123.8, 0.0, 10.002124, 9.999769 
3.9497757e+2, 1.2586333e+2, -1805617.8, -1733483.5, 1010.8965, -0.013387903, -0.01916417, -1733469.4, -26929.19, 0.000005817951, 9.99927, 10.000223 
3.9498383e+2, 1.3586386e+2, -1658974.6, -1630427.0, 18599.563, 0.044401273, 0.028094433, -1621255.4, -12717.587, 0.0000013925978, 9.999681, 10.000061 
3.9498892e+2, 1.4586414e+2, -1532647.4, -1528509.6, 14298.487, -0.021898812, 0.055912558, -1516131.1, -5594.2637, 0.00000005997622, 9.999919, 9.999971 
3.9499497e+2, 1.5586433e+2, -1418200.8, -1420641.9, 11266.089, 0.016527494, 0.07419309, -1408089.3, 4446.825, 0.0, 10.000023, 9.999989 
3.950007e+2, 1.6586427e+2, -1318349.8, -1354333.0, 12638.103, 0.025738098, 0.08412798, -1314354.5, 183.92188, 0.0, 10.000176, 9.999698 
3.9500615e+2, 1.75864e+2, -1188754.8, -1235143.6, 13052.917, -0.0010893797, 0.08558993, -1185334.1, 31209.012, 0.0, 10.000368, 9.999751 
3.950118e+2, 1.8586402e+2, -1066160.0, -1113099.6, 20280.715, -0.01611885, 0.10487419, -1058611.4, 59932.91, 0.0, 10.0004835, 9.99986 
3.9501768e+2, 1.958642e+2, -958761.2, -1010079.5, 25477.285, -0.017025612, 0.13514589, -948261.2, 72281.93, 0.0, 10.000546, 9.999865 
3.9502352e+2, 2.0586395e+2, -867664.4, -960873.75, 26778.03, -0.017081287, 0.14571363, -860519.1, 62027.004, 0.0, 10.000695, 9.999458 
3.950294e+2, 2.1586338e+2, -737239.75, -844263.8, 26373.416, -0.018538758, 0.14007683, -731093.6, 93458.61, 0.0, 10.000905, 9.999485 
3.9503527e+2, 2.2586271e+2, -629175.7, -759572.6, 27827.13, -0.016513094, 0.1336854, -623485.6, 103072.586, 0.0, 10.001052, 9.999323 
3.950412e+2, 2.3586197e+2, -515142.28, -651992.8, 30662.209, -0.011228725, 0.12462415, -508586.3, 119977.85, 0.0, 10.001154, 9.999339 
3.9504725e+2, 2.45861e+2, -425117.34, -590670.75, 33356.277, -0.0010000435, 0.10783496, -418649.3, 111923.19, 0.0, 10.001241, 9.999045 
3.9505336e+2, 2.5585982e+2, -314299.84, -484087.13, 29124.123, 0.012518805, 0.084187195, -309443.0, 123139.61, 0.0, 10.001319, 9.999067 
3.9505947e+2, 2.6585865e+2, -210761.44, -411153.2, 27262.967, 0.026972493, 0.070983715, -207118.58, 127474.78, 0.0, 10.001476, 9.998819 
3.9506558e+2, 2.7585736e+2, -80423.66, -296263.28, 26300.354, 0.042385526, 0.060973536, -77265.14, 159339.77, 0.0, 10.001693, 9.998831 
3.9507148e+2, 2.85856e+2, 8115.977, -243263.16, 10514.142, 0.055121865, 0.06247161, 8554.973, 147172.67, 0.0, 10.001802, 9.998469 
3.9507714e+2, 2.958547e+2, 108504.18, -147822.16, 5169.488, 0.065588444, 0.07780714, 108608.4, 149239.23, 0.0, 10.001835, 9.998436 
3.950827e+2, 3.0585235e+2, 137884.47, -166402.27, 3042.1406, 0.070499025, 0.032661047, 137914.89, 137914.89, 0.0, 10.00195, 9.997917 
3.9508837e+2, 3.158502e+2, 302976.6, 136176.67, 12430.258, 0.091424905, 0.016530551, 303897.84, 303897.84, 0.0, 10.002125, 9.999912 
4.049765e+2, 1.2585783e+2, -1808357.0, -1733742.8, -10786.707, -0.048012942, -0.020834899, -1732214.6, -25621.023, 0.0000067594556, 9.999248, 10.000233 
4.049833e+2, 1.3585836e+2, -1663232.3, -1633481.1, 15751.064, 0.026852457, 0.025982754, -1626691.5, -18100.207, 0.0000016759602, 9.999657, 10.000052 
4.0498865e+2, 1.4585865e+2, -1538052.1, -1533773.4, 4568.7383, -0.039081294, 0.056120012, -1530867.9, -20277.604, 0.00000007424828, 9.999893, 9.999948 
4.0499485e+2, 1.558588e+2, -1423408.3, -1425377.9, 1934.3949, 0.0045536687, 0.07296019, -1422222.5, -9632.27, 0.0, 9.999997, 9.999969 
4.0500078e+2, 1.658587e+2, -1321578.3, -1353936.1, 7827.8096, 0.015437653, 0.08138594, -1319784.1, -5191.4204, 0.0, 10.000146, 9.999715 
4.050064e+2, 1.7585844e+2, -1192749.3, -1234851.6, 10580.24, -0.013120396, 0.08170326, -1190240.0, 26357.305, 0.0, 10.000331, 9.99977 
4.0501222e+2, 1.8585849e+2, -1062202.6, -1106686.0, 12045.184, -0.02632613, 0.101014644, -1059150.5, 59447.56, 0.0, 10.000492, 9.9999 
4.050182e+2, 1.9585872e+2, -943195.5, -998522.9, 10596.139, -0.022529911, 0.13202934, -941235.56, 79360.55, 0.0, 10.000636, 9.999901 
4.050242e+2, 2.0585845e+2, -860493.9, -958158.56, 11051.232, -0.020574655, 0.13949753, -859258.94, 63340.277, 0.0, 10.000748, 9.999452 
4.0503022e+2, 2.1585782e+2, -747634.44, -849445.7, 11304.182, -0.0220348, 0.12791727, -746394.44, 78211.75, 0.0, 10.000834, 9.999483 
4.0503627e+2, 2.258572e+2, -644311.8, -761825.6, 10621.312, -0.013584935, 0.12208921, -643359.5, 83252.336, 0.0, 10.000926, 9.999368 
4.050424e+2, 2.3585653e+2, -531330.25, -655134.75, 11875.187, 0.0026034487, 0.11837383, -530201.5, 98415.27, 0.0, 10.001023, 9.999381 
4.0504855e+2, 2.458556e+2, -438263.38, -596375.44, 19369.994, 0.011369726, 0.103920445, -435925.0, 94699.73, 0.0, 10.001148, 9.999051 
4.0505466e+2, 2.5585446e+2, -317482.3, -485330.1, 23769.488, 0.014631306, 0.08032068, -314181.2, 118453.79, 0.0, 10.001295, 9.999069 
4.0506095e+2, 2.658533e+2, -218121.03, -419813.47, 25413.773, 0.027521465, 0.07042981, -214968.13, 119677.75, 0.0, 10.001448, 9.998774 
4.050673e+2, 2.7585202e+2, -96037.695, -308379.9, 19678.473, 0.047626603, 0.06608981, -94229.42, 142428.23, 0.0, 10.001605, 9.99879 
4.0507331e+2, 2.8585064e+2, 6523.905, -242839.38, 5657.9785, 0.05952953, 0.0669828, 6652.217, 145322.8, 0.0, 10.001786, 9.99848 
4.0507904e+2, 2.9584923e+2, 130670.11, -136488.69, 10516.781, 0.06500626, 0.07719206, 131083.47, 171767.27, 0.0, 10.001984, 9.998442 
4.0508467e+2, 3.058469e+2, 154002.58, -163636.05, 2937.4956, 0.06437659, 0.02935878, 154029.75, 154029.75, 0.0, 10.002083, 9.997872 
4.0509036e+2, 3.1584495e+2, 295655.16, 124848.61, -4361.7515, 0.077497385, 0.03859455, 295766.47, 295766.47, 0.0, 10.002108, 9.999843 
4.149754e+2, 1.2585214e+2, -1800224.8, -1716304.9, 2643.6135, -0.081952855, -0.0075822384, -1716221.8, -9571.8545, 0.0000073152505, 9.999245, 10.000354 
4.1498283e+2, 1.3585277e+2, -1656972.1, -1620060.6, 30177.227, 0.010627588, 0.03956007, -1603143.0, 5502.948, 0.0000018222407, 9.999655, 10.000145 
4.149883e+2, 1.4585304e+2, -1539613.6, -1536623.1, 8463.753, -0.06181306, 0.06503919, -1529523.5, -18878.695, 0.00000007352536, 9.999891, 9.999929 
4.1499454e+2, 1.5585303e+2, -1424444.1, -1427310.6, 6012.9316, -0.024418343, 0.06860968, -1419696.0, -7049.665, 0.0, 9.999996, 9.999956 
4.150007e+2, 1.65853e+2, -1318067.1, -1346591.1, 14628.237, -0.0059095197, 0.07905313, -1311899.0, 2749.5015, 0.0, 10.000146, 9.999765 
4.150067e+2, 1.7585292e+2, -1189802.5, -1228614.4, 17374.656, -0.018336626, 0.09261344, -1183161.0, 33490.18, 0.0, 10.00033, 9.999814 
4.1501266e+2, 1.8585294e+2, -1065738.8, -1113877.1, 17431.678, -0.029914085, 0.11196795, -1060089.4, 58562.563, 0.0, 10.000491, 9.999851 
4.1501874e+2, 1.9585304e+2, -946470.7, -1005230.4, 15924.489, -0.03436007, 0.13344306, -942432.5, 78219.11, 0.0, 10.000635, 9.999855 
4.150249e+2, 2.0585272e+2, -860204.44, -957520.6, 14310.482, -0.027778083, 0.13664521, -858143.7, 64511.652, 0.0, 10.000747, 9.999455 
4.150311e+2, 2.1585208e+2, -747128.56, -848404.56, 14671.663, -0.015566445, 0.12421014, -745045.9, 79616.24, 0.0, 10.000834, 9.999491 
4.1503733e+2, 2.2585142e+2, -642610.7, -758267.6, 14283.861, -0.0014812337, 0.11347979, -640872.75, 85795.4, 0.0, 10.000926, 9.9993925 
4.1504356e+2, 2.358507e+2, -529188.0, -650627.75, 15680.791, 0.014744238, 0.102378264, -527195.94, 101477.71, 0.0, 10.001022, 9.999412 
4.1504976e+2, 2.4584994e+2, -430057.53, -579321.5, 24824.377, 0.01891506, 0.09551742, -426037.25, 104642.85, 0.0, 10.001148, 9.999168 
4.1505596e+2, 2.5584906e+2, -310509.13, -470924.47, 29231.998, 0.014302026, 0.08999461, -305348.3, 127339.02, 0.0, 10.001296, 9.999168 
4.1506234e+2, 2.658479e+2, -225509.94, -435223.1, 31184.87, 0.025566138, 0.08178671, -220970.9, 113727.64, 0.0, 10.001448, 9.998668 
4.150689e+2, 2.7584642e+2, -102051.086, -320763.13, 25607.559, 0.04839988, 0.06728914, -99092.875, 137620.14, 0.0, 10.001605, 9.998705 
4.150751e+2, 2.858451e+2, 16718.55, -221534.25, 12978.502, 0.063025825, 0.06757331, 17423.451, 156148.81, 0.0, 10.001785, 9.998627 
4.1508108e+2, 2.958439e+2, 138522.56, -120256.984, 17198.664, 0.07140616, 0.0839663, 139660.6, 180396.23, 0.0, 10.001985, 9.998553 
4.1508672e+2, 3.058415e+2, 136323.13, -200642.4, 3703.7942, 0.062928095, 0.038064707, 136363.83, 136363.83, 0.0, 10.002084, 9.997618 
4.1509226e+2, 3.158395e+2, 276603.44, 84945.02, -3889.756, 0.05679775, 0.0702344, 276682.34, 276682.34, 0.0, 10.002109, 9.999568 
4.249745e+2, 1.2584607e+2, -1801238.5, -1708615.4, -10123.971, -0.09682701, -0.002406042, -1707521.6, -812.26855, 0.000007399852, 9.999203, 10.000426 
4.249822e+2, 1.3584663e+2, -1694889.5, -1632847.8, 15720.817, -0.0036241682, 0.033692308, -1629091.6, -20386.219, 0.0000017914846, 9.999372, 10.000195 
4.2498788e+2, 1.458469e+2, -1574224.1, -1555280.4, -9474.554, -0.08220652, 0.05683195, -1551355.0, -40650.61, 0.000000055205398, 9.999662, 9.999911 
4.249944e+2, 1.5584688e+2, -1419985.5, -1426224.6, -12453.469, -0.038719814, 0.06009677, -1410266.9, 2439.6782, 0.0, 10.000031, 9.999947 
4.2500076e+2, 1.6584693e+2, -1306723.6, -1332958.5, -7706.177, -0.016417066, 0.07481952, -1304627.5, 10080.368, 0.0, 10.000189, 9.999839 
4.2500684e+2, 1.7584698e+2, -1204545.6, -1228132.5, -3116.053, -0.027763722, 0.096022196, -1204140.9, 12568.06, 0.0, 10.000196, 9.999882 
4.2501298e+2, 1.8584706e+2, -1091680.4, -1124892.3, 2627.4446, -0.037333533, 0.11445223, -1091473.8, 27235.645, 0.0, 10.000307, 9.999865 
4.2501923e+2, 1.958471e+2, -966746.94, -1013542.5, 5561.7334, -0.03878569, 0.12882724, -966095.0, 54614.73, 0.0, 10.00049, 9.999867 
4.2502558e+2, 2.0584677e+2, -875681.5, -963401.75, 4197.798, -0.027051326, 0.1318374, -875481.1, 47232.27, 0.0, 10.000634, 9.99947 
4.2503196e+2, 2.158462e+2, -758410.94, -851905.56, 5173.6016, -0.00825611, 0.12400952, -758125.5, 66594.1, 0.0, 10.000749, 9.999508 
4.250383e+2, 2.2584553e+2, -647504.0, -756162.0, 6252.486, 0.0052426835, 0.11153112, -647145.4, 79580.09, 0.0, 10.000874, 9.999432 
4.250446e+2, 2.3584482e+2, -528643.8, -646042.44, 8891.789, 0.01586299, 0.094194666, -527974.2, 100756.99, 0.0, 10.001008, 9.999451 
4.2505094e+2, 2.458441e+2, -426414.78, -574808.75, 16095.518, 0.020697104, 0.091764405, -424689.06, 106047.94, 0.0, 10.001161, 9.999192 
4.2505735e+2, 2.5584337e+2, -304344.7, -465589.06, 13440.266, 0.021079816, 0.09811315, -303232.06, 129510.92, 0.0, 10.001328, 9.999189 
4.2506385e+2, 2.6584223e+2, -225284.83, -437745.88, 15348.848, 0.02730909, 0.09048923, -224181.72, 110572.69, 0.0, 10.001461, 9.998644 
4.2507038e+2, 2.7584067e+2, -107779.56, -325248.4, 16128.157, 0.037891243, 0.06848478, -106589.95, 130180.125, 0.0, 10.001573, 9.99869 
4.2507678e+2, 2.8583935e+2, 18091.463, -214105.48, 5605.823, 0.051275272, 0.06824905, 18226.723, 157008.77, 0.0, 10.001765, 9.998687 
4.2508304e+2, 2.9583827e+2, 146101.25, -111246.94, 2963.76, 0.06636978, 0.08880019, 146135.38, 186926.22, 0.0, 10.002013, 9.998601 
4.250888e+2, 3.0583575e+2, 142137.69, -207306.88, -11625.122, 0.05713458, 0.03795581, 142524.0, 142524.0, 0.0, 10.002165, 9.997534 
4.250943e+2, 3.158338e+2, 288541.75, 77583.984, -7081.2554, 0.041763708, 0.08202364, 288779.2, 288779.2, 0.0, 10.002247, 9.999451 
4.3497372e+2, 1.2583962e+2, -1800024.9, -1705496.5, -6158.367, -0.09291756, -0.005562637, -1705097.0, 1675.3906, 0.0000070344795, 9.999201, 10.000449 
4.349814e+2, 1.3583998e+2, -1694784.0, -1632386.3, 22745.7, -0.016053775, 0.008377107, -1624975.0, -16205.112, 0.0000016069694, 9.99937, 10.000198 
4.3498737e+2, 1.4584024e+2, -1575757.6, -1558112.0, 4423.9824, -0.10042166, 0.03151697, -1557065.0, -46295.867, 0.000000030249723, 9.9996605, 9.999893 
4.3499446e+2, 1.5584032e+2, -1420671.1, -1427308.1, 191.53021, -0.03843971, 0.04723818, -1420665.6, -7894.908, 0.0, 10.0000305, 9.99994 
4.3500096e+2, 1.6584048e+2, -1300202.0, -1319210.3, -7545.6567, -0.016251123, 0.06849877, -1297570.9, 17200.148, 0.0, 10.000188, 9.999933 
4.350069e+2, 1.7584066e+2, -1198109.3, -1214728.9, -2257.9556, -0.041578498, 0.09202263, -1197807.9, 18962.674, 0.0, 10.000196, 9.999974 
4.3501315e+2, 1.8584079e+2, -1086513.0, -1114142.4, 9468.885, -0.048742183, 0.108668774, -1083579.4, 35190.953, 0.0, 10.000306, 9.999938 
4.3501973e+2, 1.9584085e+2, -961848.2, -1003276.5, 12256.573, -0.035951238, 0.118238464, -958493.75, 62276.676, 0.0, 10.000489, 9.999938 
4.3502632e+2, 2.0584062e+2, -874096.0, -959999.3, 8553.307, -0.018578079, 0.1249824, -873252.6, 49520.75, 0.0, 10.000633, 9.999494 
4.350328e+2, 2.1584016e+2, -756611.56, -848127.06, 9623.036, -0.00025194208, 0.12727338, -755610.6, 69168.04, 0.0, 10.000748, 9.999534 
4.350392e+2, 2.2583956e+2, -643669.06, -748234.0, 11286.428, 0.0065362696, 0.11622047, -642464.75, 84319.22, 0.0, 10.000874, 9.999486 
4.3504548e+2, 2.3583885e+2, -525468.9, -639544.0, 14033.049, 0.0059990548, 0.0937769, -523767.94, 105021.46, 0.0, 10.001008, 9.999495 
4.3505207e+2, 2.4583814e+2, -431013.6, -584432.1, 22308.723, 0.016636053, 0.09258874, -427835.5, 102959.91, 0.0, 10.001162, 9.999126 
4.350588e+2, 2.558374e+2, -308324.44, -473769.75, 19443.283, 0.034699474, 0.10466352, -306070.16, 126731.805, 0.0, 10.0013275, 9.999133 
4.3506533e+2, 2.6583624e+2, -221341.33, -429549.72, 19414.926, 0.032568783, 0.0965853, -219546.4, 115267.016, 0.0, 10.001461, 9.9987 
4.350717e+2, 2.7583468e+2, -104119.21, -317886.5, 20635.205, 0.01617289, 0.06978169, -102145.49, 134683.34, 0.0, 10.001574, 9.998739 
4.3507826e+2, 2.858334e+2, 16645.238, -217251.25, 14848.159, 0.024452895, 0.06909969, 17584.057, 156424.69, 0.0, 10.001766, 9.998665 
4.3508488e+2, 2.958323e+2, 144899.11, -113450.85, 11577.076, 0.050190125, 0.09183015, 145416.86, 186266.25, 0.0, 10.002012, 9.998587 
4.3509084e+2, 3.058297e+2, 147581.3, -195821.28, -8651.246, 0.047099337, 0.029432563, 147799.11, 147799.11, 0.0, 10.002164, 9.997613 
4.3509644e+2, 3.1582782e+2, 291148.88, 82677.336, -4343.5654, 0.031146385, 0.07190044, 291239.34, 291239.34, 0.0, 10.002249, 9.999485 
4.449729e+2, 1.2583302e+2, -1789465.4, -1701037.8, -16588.541, -0.09678384, -0.0029371863, -1698028.3, 8809.159, 0.00000631539, 9.999276, 10.000443 
4.4498077e+2, 1.3583331e+2, -1669932.5, -1622501.5, 12731.598, -0.02518313, 0.0062503186, -1619300.1, -10464.682, 0.0000013346397, 9.999549, 10.000179 
4.4498688e+2, 1.4583358e+2, -1570186.1, -1552970.8, -5545.8726, -0.116719164, 0.031560767, -1551338.9, -40504.508, 0.000000013876045, 9.999689, 9.999915 
4.4499424e+2, 1.5583372e+2, -1464098.1, -1445232.9, -7205.256, -0.04647763, 0.05113994, -1442795.8, -29960.29, 0.0, 9.99972, 9.999967 
4.4500092e+2, 1.658339e+2, -1338291.6, -1329248.1, -16741.16, -0.021809382, 0.06868361, -1316428.9, -1593.2844, 0.0, 9.99989, 10.000008 
4.45007e+2, 1.7583407e+2, -1197578.5, -1206275.8, -13066.965, -0.049449988, 0.08311941, -1188155.6, 28679.396, 0.0, 10.000165, 10.000047 
4.450134e+2, 1.8583429e+2, -1084224.4, -1105745.3, -3807.3342, -0.05575578, 0.10100104, -1083570.6, 35263.227, 0.0, 10.000291, 10.000004 
4.450201e+2, 1.9583449e+2, -983310.75, -1006147.25, -1490.2654, -0.03967626, 0.11926219, -983213.9, 37618.633, 0.0, 10.00031, 10.000005 
4.4502681e+2, 2.0583433e+2, -893888.25, -960806.94, -441.2522, -0.021239001, 0.12565964, -893885.4, 28949.436, 0.0, 10.000461, 9.999572 
4.450335e+2, 2.1583387e+2, -757954.56, -840777.4, 4451.716, -0.0034359416, 0.1212352, -757716.0, 67123.805, 0.0, 10.000705, 9.999605 
4.4504005e+2, 2.2583334e+2, -639144.4, -745493.56, 4529.242, 0.0047219973, 0.112298295, -638951.8, 87892.734, 0.0, 10.000902, 9.999492 
4.4504654e+2, 2.3583272e+2, -517029.25, -635038.94, 3505.5627, 0.0067964243, 0.09809923, -516925.22, 111924.07, 0.0, 10.001064, 9.999498 
4.4505322e+2, 2.4583197e+2, -430184.44, -586224.8, 11440.036, 0.018027235, 0.09486243, -429350.2, 101505.54, 0.0, 10.001177, 9.999106 
4.4506007e+2, 2.5583112e+2, -320085.28, -481308.03, 12123.871, 0.035234157, 0.0975629, -319178.66, 113684.82, 0.0, 10.001255, 9.999117 
4.4506678e+2, 2.6582995e+2, -224948.56, -429583.5, 13777.756, 0.032731034, 0.090608545, -224025.1, 110849.805, 0.0, 10.001429, 9.998715 
4.4507337e+2, 2.758285e+2, -89160.195, -309271.97, 11799.248, 0.016405528, 0.072485045, -88529.5, 148359.84, 0.0, 10.001671, 9.998753 
4.4507998e+2, 2.8582725e+2, 23207.145, -215485.1, 4722.3276, 0.017951883, 0.07335755, 23300.535, 162201.56, 0.0, 10.001818, 9.998652 
4.4508663e+2, 2.958261e+2, 127659.805, -122714.195, 2092.3152, 0.031917177, 0.092314675, 127677.29, 168587.6, 0.0, 10.001898, 9.998578 
4.4509286e+2, 3.0582345e+2, 141323.78, -194408.73, -18419.967, 0.034141753, 0.021772856, 142331.38, 142331.38, 0.0, 10.002102, 9.997652 
4.450988e+2, 3.1582168e+2, 311517.94, 92192.11, -17402.352, 0.03388082, 0.07159663, 312890.13, 312890.13, 0.0, 10.00239, 9.999482 
4.5497206e+2, 1.2582625e+2, -1792311.8, -1706289.0, -9272.737, -0.109258436, 0.0049869963, -1705300.8, 1603.9999, 0.0000053674253, 9.999273, 10.000408 
4.5498028e+2, 1.3582662e+2, -1673004.5, -1628562.9, 22384.979, -0.031195972, 0.027224729, -1619242.4, -10340.489, 0.0000010357217, 9.999548, 10.000139 
4.5498642e+2, 1.4582697e+2, -1566070.8, -1544135.8, -4438.571, -0.13137925, 0.056901198, -1543271.6, -32371.398, 0.000000007555667, 9.999687, 9.999976 
4.5499378e+2, 1.5582712e+2, -1460036.0, -1436670.1, -5381.6807, -0.06319893, 0.072001405, -1435490.1, -22589.145, 0.0, 9.999719, 10.000026 
4.550007e+2, 1.658272e+2, -1334585.6, -1321466.5, -6526.5303, -0.033343256, 0.07555733, -1318772.8, -3871.107, 0.0, 9.99989, 10.000061 
4.5500714e+2, 1.7582722e+2, -1193938.4, -1198502.1, -3552.69, -0.05146515, 0.069204286, -1191997.9, 24904.277, 0.0, 10.000164, 10.000101 
4.5501363e+2, 1.8582752e+2, -1080397.0, -1097637.3, -3138.0337, -0.05849763, 0.09125365, -1079843.5, 39056.434, 0.0, 10.00029, 10.000059 
4.5502034e+2, 1.9582802e+2, -978970.25, -997145.06, -49.417168, -0.0500899, 0.13180007, -978970.1, 41925.945, 0.0, 10.00031, 10.000067 
4.5502713e+2, 2.058279e+2, -884669.3, -941715.25, 8735.677, -0.03505127, 0.13389668, -883361.56, 39535.992, 0.0, 10.000461, 9.999702 
4.5503405e+2, 2.1582736e+2, -749867.94, -823958.25, 13432.439, -0.01776074, 0.10610657, -747507.8, 77395.24, 0.0, 10.000705, 9.999721 
4.550409e+2, 2.2582687e+2, -642320.25, -752004.6, 10626.491, -0.00028509795, 0.0999108, -641300.25, 85607.09, 0.0, 10.000902, 9.999447 
4.550477e+2, 2.3582642e+2, -519687.06, -640483.06, 9290.812, 0.017986748, 0.10702468, -518976.66, 109934.2, 0.0, 10.001064, 9.999461 
4.5505446e+2, 2.4582562e+2, -428310.97, -582420.3, 14285.926, 0.024736056, 0.09856256, -426997.84, 103920.04, 0.0, 10.001177, 9.999133 
4.5506123e+2, 2.5582457e+2, -318432.6, -478100.38, 15485.562, 0.02278757, 0.077183135, -316944.6, 115983.01, 0.0, 10.001256, 9.999138 
4.5506814e+2, 2.6582342e+2, -226656.27, -433290.7, 22821.898, 0.027668705, 0.072899155, -224165.7, 110773.125, 0.0, 10.00143, 9.99869 
4.5507523e+2, 2.7582216e+2, -90917.27, -312889.78, 20286.246, 0.037885424, 0.07665903, -89078.53, 147873.06, 0.0, 10.00167, 9.998728 
4.5508194e+2, 2.858209e+2, 23005.855, -215935.38, 7581.279, 0.031131707, 0.08100061, 23246.158, 162209.38, 0.0, 10.001818, 9.99865 
4.5508835e+2, 2.9581967e+2, 127716.695, -122920.15, 5583.1045, 0.011393001, 0.09030172, 127841.0, 168814.61, 0.0, 10.001899, 9.998576 
4.5509478e+2, 3.0581698e+2, 141502.0, -194383.1, -7511.1436, 0.018077038, 0.014936527, 141669.88, 141669.88, 0.0, 10.002103, 9.997652 
4.551013e+2, 3.1581533e+2, 308680.84, 86175.94, -6860.354, 0.04861674, 0.07862339, 308892.2, 308892.2, 0.0, 10.002391, 9.999441 
4.649714e+2, 1.2581937e+2, -1777464.5, -1690857.8, -16397.693, -0.10504704, 0.016431322, -1687857.0, 19116.379, 0.000004304928, 9.99934, 10.000483 
4.6497977e+2, 1.3581981e+2, -1684224.3, -1627813.1, 26505.87, -0.031987663, 0.04005063, -1617313.3, -8343.792, 0.0000007438799, 9.999444, 10.000195 
4.649859e+2, 1.4582017e+2, -1579604.9, -1548760.8, -2392.6003, -0.14416023, 0.068992056, -1548576.3, -37609.043, 0.0000000034677494, 9.999586, 9.999993 
4.649934e+2, 1.558203e+2, -1455905.5, -1432667.0, -6609.4546, -0.07674906, 0.07943516, -1430918.6, -17950.314, 0.0, 9.999739, 10.000044 
4.6500048e+2, 1.658204e+2, -1336719.3, -1317302.6, -6334.806, -0.042660862, 0.08150949, -1315418.6, -449.91315, 0.0, 9.999853, 10.000108 
4.650072e+2, 1.7582048e+2, -1222902.6, -1207615.4, -4151.3447, -0.053674743, 0.07605328, -1206560.8, 10407.781, 0.0, 9.999944, 10.000144 
4.6501386e+2, 1.8582077e+2, -1104645.6, -1106828.1, -7648.0986, -0.05839251, 0.09422339, -1098011.3, 20954.965, 0.0, 10.0001135, 10.000082 
4.6502063e+2, 1.9582121e+2, -973383.3, -991702.5, -6907.1963, -0.05078119, 0.1274236, -971070.9, 49891.855, 0.0, 10.000337, 10.000092 
4.6502763e+2, 2.0582114e+2, -872736.2, -929780.56, -40.554115, -0.036886793, 0.12867385, -872736.2, 50227.58, 0.0, 10.000516, 9.999758 
4.650347e+2, 2.1582069e+2, -752307.6, -819084.94, -1073.3599, -0.021287374, 0.104836024, -752290.4, 72677.92, 0.0, 10.000662, 9.999775 
4.6504173e+2, 2.2582024e+2, -649377.94, -749525.5, -2834.9949, -0.0037973865, 0.098065205, -649297.75, 77674.234, 0.0, 10.000828, 9.999499 
4.650487e+2, 2.3581979e+2, -524489.2, -637730.06, 2717.3945, 0.015835835, 0.10136226, -524424.0, 104551.32, 0.0, 10.001009, 9.999507 
4.6505564e+2, 2.4581903e+2, -429646.38, -586559.7, 6564.081, 0.022494916, 0.09575637, -429372.25, 101610.016, 0.0, 10.001183, 9.999102 
4.650625e+2, 2.55818e+2, -306590.47, -475540.53, 3609.9248, 0.019483587, 0.08217262, -306513.38, 126478.62, 0.0, 10.00135, 9.99911 
4.650696e+2, 2.6581687e+2, -216549.23, -426175.84, 13084.313, 0.025356408, 0.07767058, -215735.7, 119267.586, 0.0, 10.001489, 9.99871 
4.6507686e+2, 2.7581558e+2, -98928.64, -314941.63, 13753.204, 0.03788151, 0.07542786, -98056.516, 138959.67, 0.0, 10.001608, 9.998744 
4.6508375e+2, 2.8581434e+2, 17792.96, -221101.11, 918.7992, 0.029996276, 0.08140149, 17796.496, 156824.25, 0.0, 10.001793, 9.998626 
4.6509025e+2, 2.9581314e+2, 144283.95, -117618.63, -2365.5881, 0.0067129256, 0.097854756, 144305.31, 185343.28, 0.0, 10.002025, 9.998552 
4.650969e+2, 3.0581042e+2, 163631.3, -185081.0, -12830.864, 0.009904753, 0.020655489, 164102.77, 164102.77, 0.0, 10.002261, 9.99764 
4.6510363e+2, 3.1580883e+2, 321273.28, 86927.99, -13527.969, 0.03572233, 0.09077109, 322051.63, 322051.63, 0.0, 10.0025, 9.999393 
4.7497094e+2, 1.2581235e+2, -1765197.5, -1664690.1, -16294.144, -0.08475883, 0.030790193, -1662114.5, 44929.008, 0.0000032345054, 9.999336, 10.000664 
4.7497925e+2, 1.3581286e+2, -1673855.1, -1606033.1, 30738.557, -0.027898353, 0.04478112, -1594175.0, 14862.948, 0.00000048107097, 9.999442, 10.000345 
4.749854e+2, 1.4581323e+2, -1581631.5, -1552741.6, 3284.9685, -0.15548286, 0.06786297, -1552372.9, -41337.36, 0.000000000765976, 9.999585, 9.999967 
4.7499302e+2, 1.5581328e+2, -1457588.0, -1436003.6, -1229.7407, -0.08731138, 0.073371775, -1435933.9, -22896.332, 0.0, 9.999738, 10.000022 
4.7500023e+2, 1.658135e+2, -1334069.4, -1311776.0, -3110.7444, -0.049938325, 0.08645099, -1311350.1, 3686.6724, 0.0, 9.999853, 10.000146 
4.750071e+2, 1.7581384e+2, -1220640.4, -1202838.8, -314.31903, -0.056472052, 0.10360347, -1202833.3, 14200.919, 0.0, 9.999944, 10.000177 
4.7501397e+2, 1.8581402e+2, -1105571.8, -1108657.5, 760.45526, -0.055790037, 0.1100375, -1105394.5, 13638.166, 0.0, 10.000113, 10.00007 
4.7502106e+2, 1.9581409e+2, -974297.8, -993550.8, 1306.8407, -0.041942265, 0.106327236, -974209.5, 46822.867, 0.0, 10.000337, 10.000079 
4.7502822e+2, 2.0581402e+2, -874228.4, -932838.56, 5461.104, -0.026982497, 0.11001531, -873723.9, 49309.484, 0.0, 10.000516, 9.999737 
4.7503543e+2, 2.1581385e+2, -752806.1, -820174.4, 4613.2153, -0.014287663, 0.11714477, -752491.7, 72543.72, 0.0, 10.000662, 9.999767 
4.7504252e+2, 2.2581345e+2, -638997.6, -728049.9, 3980.1875, -0.0059327097, 0.10661211, -638820.06, 88218.5, 0.0, 10.000828, 9.999647 
4.7504956e+2, 2.3581287e+2, -515570.75, -619241.25, 9469.376, 0.00043262576, 0.0814755, -514712.9, 114329.805, 0.0, 10.001009, 9.999634 
4.750567e+2, 2.4581222e+2, -435882.03, -599580.94, 12773.07, 0.011264727, 0.08664828, -434891.38, 96157.484, 0.0, 10.001183, 9.999012 
4.750639e+2, 2.558115e+2, -312002.0, -486843.63, 9670.776, 0.025040217, 0.11196082, -311468.72, 121587.96, 0.0, 10.00135, 9.999032 
4.7507107e+2, 2.6581034e+2, -211983.39, -416810.9, 17421.521, 0.02573852, 0.10441846, -210512.19, 124556.15, 0.0, 10.00149, 9.998775 
4.7507828e+2, 2.7580878e+2, -94899.68, -306789.75, 18488.73, 0.016823614, 0.06891153, -93298.52, 143784.61, 0.0, 10.001608, 9.998799 
4.7508535e+2, 2.8580752e+2, 14759.297, -227578.03, 9562.58, 0.014646068, 0.07470032, 15136.049, 154230.69, 0.0, 10.001794, 9.998581 
4.7509238e+2, 2.9580653e+2, 141065.75, -124277.94, 6168.692, 0.017161064, 0.11460739, 141209.08, 182312.5, 0.0, 10.002024, 9.998507 
4.7509915e+2, 3.0580378e+2, 161881.4, -188640.17, -3875.3772, 0.009344244, 0.038484626, 161924.25, 161924.25, 0.0, 10.00226, 9.997616 
4.751057e+2, 3.1580213e+2, 317384.5, 78874.8, -4768.7676, -0.004599198, 0.10606125, 317479.8, 317479.8, 0.0, 10.0025, 9.999338 
4.849703e+2, 1.2580542e+2, -1773065.6, -1667552.6, -12682.763, -0.079048656, 0.047377925, -1666049.5, 41062.82, 0.000002270887, 9.999279, 10.000671 
4.8497865e+2, 1.358058e+2, -1691785.5, -1614661.1, 25860.795, -0.02417441, 0.04773357, -1606792.5, 2315.3987, 0.0000002759338, 9.999319, 10.000345 
4.8498487e+2, 1.4580615e+2, -1594310.5, -1550840.6, 596.37463, -0.16001832, 0.06550894, -1550832.5, -39727.11, 0.000000000009128432, 9.999464, 10.000038 
4.8499268e+2, 1.5580626e+2, -1463830.5, -1431813.8, 3077.0313, -0.09081145, 0.07066814, -1431520.6, -18414.248, 0.0, 9.999663, 10.000086 
4.8500004e+2, 1.6580655e+2, -1338949.6, -1314356.8, 91.42909, -0.054685954, 0.08787259, -1314356.4, 748.6381, 0.0, 9.99982, 10.000144 
4.8500693e+2, 1.7580695e+2, -1220461.0, -1202865.1, 136.41597, -0.06436251, 0.11229845, -1202864.1, 14237.815, 0.0, 9.999946, 10.000176 
4.8501408e+2, 1.8580712e+2, -1106009.4, -1106422.0, 4570.6396, -0.05858814, 0.11508503, -1101640.4, 17460.113, 0.0, 10.000099, 10.000092 
4.8502144e+2, 1.9580708e+2, -982138.9, -995125.2, 7566.262, -0.033669382, 0.09970887, -978661.6, 42439.023, 0.0, 10.000273, 10.000098 
4.8502877e+2, 2.05807e+2, -882059.6, -937793.75, 12404.064, -0.018812602, 0.100996055, -879423.7, 43678.0, 0.0, 10.000466, 9.999726 
4.8503608e+2, 2.1580687e+2, -751875.3, -820897.75, 12281.585, -0.01430392, 0.112348095, -749755.1, 75348.445, 0.0, 10.000673, 9.999757 
4.8504335e+2, 2.2580649e+2, -632945.06, -726071.9, 5657.7427, -0.010449749, 0.10487305, -632602.56, 94504.1, 0.0, 10.000874, 9.999639 
4.8505053e+2, 2.3580593e+2, -507368.34, -616435.5, -559.34424, -0.005881637, 0.08229498, -507365.47, 121745.38, 0.0, 10.001071, 9.999623 
4.8505783e+2, 2.458053e+2, -432458.66, -600501.4, -953.4733, 0.006044512, 0.09133619, -432453.25, 98663.89, 0.0, 10.001218, 9.998989 
4.8506522e+2, 2.558046e+2, -316289.56, -490812.28, 849.69574, 0.022866743, 0.12125361, -316285.4, 116839.734, 0.0, 10.001329, 9.999015 
4.8507255e+2, 2.6580346e+2, -208963.84, -409590.7, 10636.926, 0.022579862, 0.1148584, -208401.47, 126734.96, 0.0, 10.001486, 9.998825 
4.8507982e+2, 2.7580193e+2, -82956.73, -296718.5, 10834.442, 0.009753849, 0.07817724, -82408.984, 154741.48, 0.0, 10.001672, 9.998837 
4.8508713e+2, 2.8580064e+2, 17396.344, -236631.08, 1277.3732, 0.008040105, 0.08033255, 17402.768, 156565.33, 0.0, 10.001857, 9.998488 
4.850944e+2, 2.9579946e+2, 137133.75, -135485.88, -5617.3247, 0.014146841, 0.11442263, 137249.44, 178422.39, 0.0, 10.002037, 9.998424 
4.851013e+2, 3.0579665e+2, 163410.27, -185204.8, -13565.049, 0.0014697405, 0.036319744, 163937.31, 163937.31, 0.0, 10.00226, 9.99764 
4.8510802e+2, 3.1579518e+2, 317745.22, 78175.14, -11153.942, -0.023582889, 0.117765516, 318263.4, 318263.4, 0.0, 10.002506, 9.9993305 
4.949695e+2, 1.2579858e+2, -1785332.4, -1692165.3, -15666.813, -0.089121066, 0.065969355, -1689601.3, 17578.672, 0.0000015131092, 9.999276, 10.000504 
4.94978e+2, 1.357986e+2, -1702568.5, -1636813.1, 27942.48, -0.021115173, 0.04894258, -1626543.1, -17363.695, 0.00000014199817, 9.999318, 10.000194 
4.9498436e+2, 1.4579892e+2, -1582596.4, -1526240.3, 8020.616, -0.15815572, 0.062013727, -1525121.0, -13944.052, 0.0, 9.999462, 10.000208 
4.9499238e+2, 1.5579925e+2, -1453368.1, -1409837.4, 10202.017, -0.08775121, 0.07142782, -1407565.0, 5610.1045, 0.0, 9.999662, 10.000237 
4.9499986e+2, 1.6579956e+2, -1341977.5, -1320514.1, 4589.5537, -0.05726781, 0.08589301, -1319574.0, -4400.5264, 0.0, 9.99982, 10.000102 
4.9500674e+2, 1.7579985e+2, -1222902.8, -1207912.9, 4970.994, -0.07745939, 0.10230264, -1206414.3, 10757.656, 0.0, 9.999945, 10.000142 
4.9501407e+2, 1.8580006e+2, -1102132.6, -1098307.3, 11069.251, -0.06689868, 0.10938957, -1088986.6, 30183.154, 0.0, 10.000098, 10.000147 
4.950218e+2, 1.9580022e+2, -978615.2, -987730.6, 14247.13, -0.026143873, 0.107367836, -968214.5, 52953.02, 0.0, 10.000273, 10.00015 
4.9502933e+2, 2.0580009e+2, -882138.44, -937907.06, 20168.115, -0.012503279, 0.10157775, -875609.25, 47559.48, 0.0, 10.000466, 9.999726 
4.950367e+2, 2.1579973e+2, -752830.56, -822864.94, 20054.795, -0.021362724, 0.09076664, -747494.3, 77678.34, 0.0, 10.000673, 9.999743 
4.9504414e+2, 2.2579935e+2, -644370.06, -749743.8, 13072.971, -0.017494079, 0.0929949, -642772.4, 84403.9, 0.0, 10.000874, 9.999476 
4.9505162e+2, 2.3579895e+2, -517667.84, -637829.0, 6630.9663, -0.0033598447, 0.1034133, -517303.03, 111876.836, 0.0, 10.00107, 9.999476 
4.9505904e+2, 2.4579825e+2, -429456.0, -594410.4, 3209.298, 0.006665057, 0.109590724, -429393.6, 101793.54, 0.0, 10.001218, 9.999031 
4.9506643e+2, 2.5579733e+2, -313190.7, -484685.13, 5304.764, 0.012966027, 0.110588714, -313026.78, 120170.54, 0.0, 10.001331, 9.999057 
4.9507394e+2, 2.6579627e+2, -206137.34, -404078.63, 17624.984, 0.015680844, 0.10936354, -204580.25, 130627.33, 0.0, 10.001487, 9.998862 
4.9508157e+2, 2.7579507e+2, -81304.055, -293544.75, 17742.695, 0.016188653, 0.10268316, -79831.04, 157387.25, 0.0, 10.001673, 9.998859 
4.95089e+2, 2.857936e+2, 7750.7837, -256935.78, 8034.3716, 0.009963076, 0.09794794, 7994.437, 147226.02, 0.0, 10.001858, 9.998349 
4.9509627e+2, 2.9579198e+2, 128865.42, -153128.58, 1447.123, -0.0019128004, 0.098096915, 128872.84, 170119.28, 0.0, 10.002039, 9.9983015 
4.9510342e+2, 3.057891e+2, 168478.36, -175007.53, -4205.907, -0.013722764, 0.0150046395, 168529.84, 168529.84, 0.0, 10.002261, 9.997709 
4.9511054e+2, 3.15788e+2, 320088.1, 83267.53, -2067.4944, -0.022963876, 0.12399767, 320106.16, 320106.16, 0.0, 10.002505, 9.999366 
5.049687e+2, 1.2579156e+2, -1786205.9, -1692068.4, -29399.514, -0.0913867, 0.08293087, -1683641.3, 23608.578, 0.0000009949754, 9.999268, 10.000508 
5.0497735e+2, 1.3579145e+2, -1700451.8, -1636015.3, 32234.365, -0.019809734, 0.054866266, -1622658.6, -13408.37, 0.000000065122016, 9.999333, 10.000192 
5.049837e+2, 1.4579181e+2, -1587172.8, -1521052.6, 15297.957, -0.1611333, 0.066782646, -1517684.8, -6437.397, 0.0, 9.999399, 10.000274 
5.049919e+2, 1.5579225e+2, -1481517.6, -1416741.0, 9689.462, -0.08959537, 0.081932835, -1415322.8, -2078.5618, 0.0, 9.999441, 10.000297 
5.049995e+2, 1.6579258e+2, -1373387.9, -1335793.5, 4849.0293, -0.058380146, 0.094793275, -1335178.1, -19935.953, 0.0, 9.999604, 10.000101 
5.050067e+2, 1.757928e+2, -1235748.6, -1214054.9, 8078.415, -0.078177884, 0.1042689, -1211377.1, 5864.237, 0.0, 9.999857, 10.000142 
5.050142e+2, 1.85793e+2, -1105989.4, -1097981.8, 13253.804, -0.06710307, 0.10793397, -1088140.1, 31099.059, 0.0, 10.000063, 10.000167 
5.0502205e+2, 1.9579315e+2, -983196.6, -988231.75, 13740.777, -0.025756208, 0.10505698, -971744.7, 49491.727, 0.0, 10.000234, 10.000165 
5.050298e+2, 2.05793e+2, -888322.25, -944032.9, 18879.426, -0.009920019, 0.0986665, -882527.1, 40710.484, 0.0, 10.000438, 9.999698 
5.050374e+2, 2.1579261e+2, -756411.06, -828139.5, 16559.275, -0.015379737, 0.087429896, -752772.7, 72469.25, 0.0, 10.000664, 9.999712 
5.0504506e+2, 2.257922e+2, -650462.56, -761337.4, 11561.86, -0.012183996, 0.09141413, -649269.75, 77976.51, 0.0, 10.00087, 9.999398 
5.050527e+2, 2.3579174e+2, -524198.28, -648785.4, 11312.62, -0.001811541, 0.104968354, -523179.4, 106071.28, 0.0, 10.00106, 9.999407 
5.0506026e+2, 2.4579105e+2, -420276.72, -587248.94, 9080.655, 0.00454216, 0.11197123, -419784.3, 111473.87, 0.0, 10.001269, 9.999055 
5.0506777e+2, 2.5579014e+2, -288306.5, -470957.94, 9722.837, 0.007247831, 0.11246544, -287790.38, 145477.66, 0.0, 10.001494, 9.999072 
5.0507545e+2, 2.6578906e+2, -184298.17, -401634.97, 16549.938, 0.009246394, 0.11477728, -183045.14, 152233.27, 0.0, 10.001673, 9.99879 
5.0508326e+2, 2.7578786e+2, -65816.336, -293831.22, 8652.605, 0.011153614, 0.114355944, -65488.465, 171801.1, 0.0, 10.001814, 9.998789 
5.0509083e+2, 2.8578636e+2, 28774.426, -248429.19, 2481.0884, 0.0019676578, 0.10665321, 28796.63, 168099.98, 0.0, 10.002009, 9.998334 
5.050982e+2, 2.957846e+2, 157154.55, -141869.8, 4714.695, -0.01611776, 0.097314365, 157228.86, 198547.63, 0.0, 10.002244, 9.99828 
5.051057e+2, 3.0578163e+2, 182850.05, -177021.8, -5029.6284, -0.025018964, 0.010355042, 182920.33, 182920.33, 0.0, 10.0023985, 9.997629 
5.05113e+2, 3.1578052e+2, 309525.94, 66179.234, -13984.791, -0.023888523, 0.12848867, 310327.0, 310327.0, 0.0, 10.002484, 9.999258 
5.1496804e+2, 1.2578437e+2, -1774206.1, -1666613.0, -32201.273, -0.087017894, 0.098001465, -1657712.0, 49609.918, 0.00000067894854, 9.999266, 10.000684 
5.149766e+2, 1.3578439e+2, -1690144.9, -1614373.1, 34681.387, -0.02067228, 0.065745234, -1600896.3, 8424.244, 0.000000029496794, 9.999331, 10.000341 
5.1498306e+2, 1.4578481e+2, -1590132.9, -1526850.8, 16747.617, -0.16945498, 0.08002862, -1522691.8, -11375.163, 0.0, 9.999397, 10.000235 
5.149913e+2, 1.5578529e+2, -1483885.6, -1421494.8, 11685.847, -0.09664856, 0.102392554, -1419377.8, -6064.425, 0.0, 9.99944, 10.000264 
5.1499915e+2, 1.6578561e+2, -1370776.5, -1330222.5, 14126.7705, -0.058277078, 0.114748, -1325786.6, -10475.335, 0.0, 9.999604, 10.000139 
5.150066e+2, 1.7578581e+2, -1233456.4, -1209141.5, 17258.732, -0.06682728, 0.11815723, -1200188.1, 17122.172, 0.0, 9.999856, 10.000176 
5.150143e+2, 1.857859e+2, -1107262.8, -1100547.1, 19650.611, -0.05943595, 0.11071672, -1083969.5, 35339.3, 0.0, 10.000062, 10.00015 
5.150222e+2, 1.957859e+2, -984656.4, -991297.9, 20325.19, -0.032556638, 0.09295041, -967382.44, 53924.89, 0.0, 10.000234, 10.000144 
5.150302e+2, 2.0578577e+2, -892133.75, -951946.0, 27370.201, -0.011172975, 0.09225244, -881499.7, 41808.645, 0.0, 10.000438, 9.999643 
5.1503825e+2, 2.1578552e+2, -759915.7, -835472.0, 24990.43, 0.0033281695, 0.102026656, -752398.06, 72913.38, 0.0, 10.000664, 9.999661 
5.1504606e+2, 2.2578503e+2, -650090.94, -760665.94, 18750.111, 0.005153656, 0.100024424, -646998.0, 80318.54, 0.0, 10.00087, 9.999403 
5.1505375e+2, 2.3578434e+2, -523745.0, -647947.4, 18582.92, -0.0013321467, 0.08737858, -521024.28, 108299.125, 0.0, 10.00106, 9.999413 
5.150615e+2, 2.4578367e+2, -419766.25, -586313.3, 17491.248, -0.00042897882, 0.09874417, -417949.1, 113381.234, 0.0, 10.00127, 9.999062 
5.1506925e+2, 2.5578302e+2, -289029.06, -472559.66, 17924.045, 0.005510219, 0.12653342, -287294.94, 146042.52, 0.0, 10.001495, 9.999061 
5.150771e+2, 2.6578188e+2, -196867.86, -427908.94, 21834.137, 0.003250805, 0.13090554, -194822.56, 140526.42, 0.0, 10.001673, 9.99861 
5.150849e+2, 2.7578038e+2, -76722.05, -316806.16, 14285.742, -0.0051595266, 0.11379956, -75874.99, 161489.2, 0.0, 10.001815, 9.998631 
5.150927e+2, 2.8577882e+2, 36104.03, -233403.14, 11328.984, -0.015956085, 0.10678719, 36579.418, 175957.3, 0.0, 10.00201, 9.998437 
5.1510036e+2, 2.9577732e+2, 162316.81, -130986.58, 13047.437, -0.028674433, 0.111153066, 162896.08, 204286.19, 0.0, 10.002244, 9.998355 
5.15108e+2, 3.0577424e+2, 167046.03, -209817.72, -1706.6041, -0.032649986, 0.021561382, 167053.77, 167053.77, 0.0, 10.0023985, 9.997404 
5.151155e+2, 3.157728e+2, 292407.16, 30250.885, -10409.431, -0.027008722, 0.13138172, 292819.8, 292819.8, 0.0, 10.002486, 9.999011 
5.24967e+2, 1.2577718e+2, -1820052.6, -1675569.3, -22339.242, -0.092037655, 0.10099479, -1672194.1, 35198.734, 0.0000005002885, 9.998895, 10.000801 
5.249759e+2, 1.3577732e+2, -1721767.0, -1618885.6, 45446.098, -0.018419292, 0.07068882, -1601686.0, 7703.8994, 0.000000016983103, 9.999068, 10.000438 
5.2498233e+2, 1.4577779e+2, -1610481.4, -1537042.4, 26554.791, -0.1680263, 0.083570994, -1528446.6, -17060.986, 0.0, 9.99926, 10.000231 
5.2499074e+2, 1.5577823e+2, -1484645.4, -1422529.0, 24073.947, -0.09416552, 0.10253584, -1414291.3, -908.7078, 0.0, 9.999438, 10.000258 
5.249988e+2, 1.6577852e+2, -1371366.1, -1333506.8, 28234.754, -0.05294643, 0.11395196, -1318443.4, -3062.6238, 0.0, 9.999613, 10.000113 
5.2500653e+2, 1.757787e+2, -1245831.3, -1218537.5, 26239.502, -0.057308733, 0.11811751, -1202608.3, 14771.495, 0.0, 9.999786, 10.000146 
5.250144e+2, 1.8577872e+2, -1118901.4, -1112696.8, 24780.277, -0.051961962, 0.107753426, -1090825.4, 28553.662, 0.0, 10.0000105, 10.000091 
5.2502245e+2, 1.957786e+2, -983394.94, -996959.75, 22303.016, -0.03165204, 0.08433719, -966865.8, 54512.69, 0.0, 10.00027, 10.000088 
5.250307e+2, 2.0577845e+2, -884928.2, -951757.2, 29261.951, -0.009703083, 0.08551867, -873926.56, 49453.254, 0.0, 10.000501, 9.999614 
5.25039e+2, 2.1577825e+2, -754846.44, -836386.7, 28562.898, 0.010462295, 0.10286652, -745836.6, 79545.95, 0.0, 10.000713, 9.999631 
5.2504706e+2, 2.2577773e+2, -643464.3, -760613.8, 21228.844, 0.010269417, 0.10141052, -639736.06, 87652.02, 0.0, 10.000929, 9.999374 
5.250549e+2, 2.3577695e+2, -512765.16, -645573.56, 18562.072, -0.0037636575, 0.083996944, -510219.63, 119176.16, 0.0, 10.001148, 9.999386 
5.250628e+2, 2.457763e+2, -409235.9, -581800.8, 15897.759, -0.0031704523, 0.096670985, -407783.53, 123619.13, 0.0, 10.001345, 9.999056 
5.250708e+2, 2.557757e+2, -285592.28, -472222.88, 15375.486, 0.007903329, 0.13027053, -284334.06, 149075.05, 0.0, 10.001525, 9.999049 
5.250787e+2, 2.657745e+2, -195422.03, -436433.72, 22327.395, 0.0032584055, 0.1323659, -193371.08, 142050.31, 0.0, 10.001723, 9.998527 
5.2508664e+2, 2.757728e+2, -64907.94, -320151.47, 21923.316, -0.013365492, 0.107183285, -63038.598, 174399.81, 0.0, 10.001935, 9.998549 
5.250946e+2, 2.8577122e+2, 46205.83, -235411.23, 15343.12, -0.026182542, 0.10522419, 47039.29, 186491.8, 0.0, 10.00211, 9.998375 
5.2510256e+2, 2.957698e+2, 159160.67, -139150.44, 4917.8276, -0.036099523, 0.123924784, 159241.72, 200705.84, 0.0, 10.002251, 9.998295 
5.251103e+2, 3.0576664e+2, 167530.64, -211570.9, -8243.068, -0.042042885, 0.029034296, 167709.78, 167709.78, 0.0, 10.00241, 9.997386 
5.251179e+2, 3.1576508e+2, 302622.22, 29699.04, -2138.3997, -0.041143276, 0.12619065, 302638.97, 302638.97, 0.0, 10.00258, 9.998961 
5.349658e+2, 1.2577e+2, -1816648.5, -1667695.3, -21367.86, -0.10773716, 0.09121181, -1664690.5, 42772.16, 0.00000041209, 9.998892, 10.000856 
5.34975e+2, 1.3577029e+2, -1718893.1, -1612780.1, 52156.496, -0.013583902, 0.06992636, -1591437.0, 18021.582, 0.000000018082496, 9.999067, 10.000481 
5.349817e+2, 1.4577073e+2, -1608554.9, -1532751.3, 33157.227, -0.15732938, 0.07769784, -1520294.9, -8840.636, 0.0, 9.999258, 10.000261 
5.349903e+2, 1.5577106e+2, -1483443.6, -1419695.1, 30495.664, -0.08241877, 0.08249358, -1407456.4, 5995.3447, 0.0, 9.999436, 10.000278 
5.349985e+2, 1.657713e+2, -1378074.8, -1347248.6, 34558.0, -0.042633962, 0.09247489, -1324822.4, -9372.019, 0.0, 9.999612, 10.000019 
5.350064e+2, 1.7577146e+2, -1252563.4, -1232482.9, 32933.48, -0.04980665, 0.10431087, -1208093.1, 9356.598, 0.0, 9.999785, 10.00005 
5.3501445e+2, 1.8577142e+2, -1125941.9, -1127256.6, 34475.758, -0.044827662, 0.09914331, -1092117.3, 27332.455, 0.0, 10.0000105, 9.999991 
5.3502285e+2, 1.9577125e+2, -989820.0, -1010308.06, 31817.11, -0.023243783, 0.079116575, -966638.44, 54811.586, 0.0, 10.00027, 9.999996 
5.3503126e+2, 2.0577103e+2, -885376.06, -952702.44, 37206.25, -0.0056517143, 0.07846635, -868864.44, 54587.65, 0.0, 10.000501, 9.999608 
5.3503966e+2, 2.1577077e+2, -755637.2, -838041.5, 36537.324, 0.006117932, 0.09021432, -741770.4, 83685.06, 0.0, 10.000713, 9.9996195 
5.350479e+2, 2.2577028e+2, -647614.56, -769291.8, 29455.479, 0.003268724, 0.095627844, -640859.06, 86601.74, 0.0, 10.000929, 9.999315 
5.3505594e+2, 2.3576961e+2, -516774.3, -654003.4, 26671.033, -0.009188642, 0.094488844, -511772.94, 117694.88, 0.0, 10.001148, 9.999328 
5.350641e+2, 2.4576889e+2, -410295.97, -584242.6, 22624.777, -0.003860074, 0.10557293, -407401.38, 124073.805, 0.0, 10.001346, 9.999039 
5.350724e+2, 2.5576812e+2, -286433.47, -474355.47, 22161.063, 0.014148208, 0.12402226, -283855.47, 149627.48, 0.0, 10.001526, 9.999033 
5.3508055e+2, 2.6576686e+2, -194429.95, -434693.97, 30203.566, 0.008889571, 0.119546965, -190691.23, 144804.39, 0.0, 10.001724, 9.998537 
5.350886e+2, 2.7576518e+2, -65396.535, -321261.8, 29634.023, -0.013815158, 0.09451494, -62009.203, 175503.11, 0.0, 10.001936, 9.998542 
5.350967e+2, 2.857636e+2, 30752.988, -267640.66, 20614.07, -0.029055942, 0.1019457, 32170.348, 171697.64, 0.0, 10.0021105, 9.998154 
5.3510475e+2, 2.957621e+2, 145907.8, -166936.25, 10392.483, -0.038896687, 0.1360728, 146252.64, 187793.39, 0.0, 10.002252, 9.998104 
5.3511256e+2, 3.0575886e+2, 180259.95, -185524.36, -1840.799, -0.053503107, 0.03331572, 180269.22, 180269.22, 0.0, 10.002412, 9.997564 
5.351202e+2, 3.1575727e+2, 312435.9, 49658.582, 4155.295, -0.06625291, 0.11221358, 312501.6, 312501.6, 0.0, 10.002582, 9.999098 
5.449644e+2, 1.257627e+2, -1856636.4, -1687838.8, -29231.873, -0.1261023, 0.08383838, -1682919.8, 24613.822, 0.00000036785775, 9.998622, 10.000848 
5.4497397e+2, 1.3576303e+2, -1748218.6, -1628869.5, 45076.45, -0.007776285, 0.069142304, -1613758.1, -4228.69, 0.000000024396927, 9.998875, 10.000463 
5.4498106e+2, 1.4576344e+2, -1627098.6, -1541995.9, 22292.326, -0.14308953, 0.07481525, -1536510.1, -24984.797, 0.0, 9.999133, 10.000258 
5.449898e+2, 1.557637e+2, -1493257.9, -1425388.5, 16725.527, -0.06789053, 0.072621934, -1421490.5, -7967.3877, 0.0, 9.999373, 10.00027 
5.449982e+2, 1.6576388e+2, -1382672.5, -1356647.1, 20706.184, -0.03174512, 0.08138861, -1345204.3, -29682.12, 0.0, 9.999612, 9.999954 
5.450062e+2, 1.7576401e+2, -1248294.3, -1237276.0, 21351.059, -0.044721246, 0.09606796, -1220734.8, -3212.6719, 0.0, 9.999845, 9.999989 
5.4501456e+2, 1.8576393e+2, -1114406.6, -1124857.4, 29249.586, -0.040284827, 0.09092497, -1089919.4, 29603.107, 0.0, 10.000103, 9.999963 
5.450232e+2, 1.957637e+2, -975627.9, -1006709.7, 31543.904, -0.015670685, 0.06898316, -956004.3, 65518.816, 0.0, 10.000381, 9.999968 
5.450318e+2, 2.0576347e+2, -873649.3, -951265.8, 35151.61, -0.0012902165, 0.071272135, -860096.2, 63429.16, 0.0, 10.0006, 9.99957 
5.450404e+2, 2.1576324e+2, -749664.4, -839640.6, 32134.248, 0.00294167, 0.089527264, -739366.5, 86162.21, 0.0, 10.000773, 9.999579 
5.4504883e+2, 2.2576272e+2, -644922.1, -775109.0, 24951.07, 0.0010038791, 0.09709583, -640303.94, 87230.664, 0.0, 10.000978, 9.999251 
5.450571e+2, 2.3576199e+2, -512653.75, -658837.7, 21811.955, -0.00440362, 0.09497492, -509468.6, 120073.9, 0.0, 10.001205, 9.999267 
5.4506546e+2, 2.457612e+2, -397977.28, -579818.1, 17314.559, -0.0018907641, 0.102873504, -396343.28, 135207.16, 0.0, 10.001437, 9.999024 
5.450739e+2, 2.5576037e+2, -266169.03, -466160.0, 17006.701, 0.0057842215, 0.11641192, -264733.16, 168825.47, 0.0, 10.001673, 9.999019 
5.450822e+2, 2.6575908e+2, -177446.55, -429003.97, 22492.074, 0.0007101659, 0.11259251, -175451.33, 160120.02, 0.0, 10.001852, 9.998515 
5.4509056e+2, 2.757574e+2, -60154.75, -321938.06, 19462.818, -0.013699403, 0.09222112, -58715.656, 178872.17, 0.0, 10.001986, 9.998513 
5.4509884e+2, 2.857558e+2, 32188.365, -276690.1, 15152.32, -0.027975861, 0.10326621, 32929.895, 172533.2, 0.0, 10.002162, 9.998066 
5.45107e+2, 2.9575428e+2, 157836.3, -169684.81, 14609.276, -0.042615104, 0.14025773, 158486.66, 200104.44, 0.0, 10.002371, 9.998027 
5.45115e+2, 3.0575097e+2, 208292.31, -167220.81, 1519.3683, -0.06237124, 0.03270261, 208298.45, 208298.45, 0.0, 10.002584, 9.997607 
5.4512274e+2, 3.1574938e+2, 343878.34, 65446.277, -2326.5518, -0.07836062, 0.1074614, 343897.78, 343897.78, 0.000000000015387011, 10.002795, 9.999104 
5.5496275e+2, 1.2575528e+2, -1861995.8, -1698654.6, -25613.2, -0.1486425, 0.078846134, -1694732.4, 12873.183, 0.0000003291145, 9.998621, 10.000774 
5.5497295e+2, 1.3575557e+2, -1753924.8, -1640650.9, 54494.164, -0.001230444, 0.06859534, -1618691.8, -9089.349, 0.000000025104656, 9.998875, 10.000382 
5.549804e+2, 1.4575593e+2, -1629818.6, -1547408.4, 31295.828, -0.1255391, 0.07504343, -1536871.0, -25272.203, 0.0, 9.999131, 10.000222 
5.549894e+2, 1.5575615e+2, -1496186.6, -1431297.5, 25564.734, -0.050977726, 0.07314022, -1422435.8, -8839.104, 0.0, 9.9993725, 10.00023 
5.549979e+2, 1.6575629e+2, -1385266.4, -1361863.3, 29335.531, -0.02051059, 0.080915205, -1341981.6, -26385.455, 0.0, 9.999611, 9.999919 
5.550061e+2, 1.7575637e+2, -1250405.8, -1241553.4, 30104.918, -0.042206425, 0.0934549, -1215551.0, 2045.7838, 0.0, 9.999845, 9.999959 
5.550147e+2, 1.8575624e+2, -1111485.5, -1118810.5, 39559.367, -0.038519293, 0.0831188, -1075419.5, 44177.836, 0.0, 10.000103, 10.000005 
5.550236e+2, 1.9575599e+2, -973409.3, -1002084.8, 41622.652, -0.009070316, 0.05399047, -943724.2, 77873.68, 0.0, 10.0003805, 9.999999 
5.550325e+2, 2.0575581e+2, -878537.9, -961407.44, 41575.99, 0.003273096, 0.063910045, -861275.1, 62324.527, 0.0, 10.0006, 9.9995 
5.5504113e+2, 2.1575569e+2, -754514.1, -849754.25, 38784.152, 0.00070563995, 0.10055801, -740718.56, 84883.945, 0.0, 10.000773, 9.999511 
5.550498e+2, 2.2575508e+2, -649605.44, -784995.7, 33467.605, 0.0031744197, 0.10568976, -641784.3, 85825.23, 0.0, 10.000978, 9.999184 
5.5505854e+2, 2.3575409e+2, -517086.1, -668306.06, 30404.367, 0.010228466, 0.08571235, -511201.94, 118417.81, 0.0, 10.001207, 9.999202 
5.55067e+2, 2.4575321e+2, -398518.84, -581220.8, 26030.965, 0.002554559, 0.08885087, -394882.4, 136746.03, 0.0, 10.001438, 9.999015 
5.550753e+2, 2.5575244e+2, -266998.13, -468093.75, 25521.695, -0.016850758, 0.107458, -263809.66, 169826.44, 0.0, 10.001674, 9.999005 
5.550839e+2, 2.6575118e+2, -181201.95, -437112.9, 27400.547, -0.020980218, 0.11130767, -178301.05, 157347.48, 0.0, 10.001853, 9.998459 
5.550926e+2, 2.7574956e+2, -63346.563, -329073.2, 24570.932, -0.013311844, 0.10010986, -61093.664, 176571.27, 0.0, 10.001987, 9.998463 
5.551011e+2, 2.8574792e+2, 35196.473, -270774.0, 22841.041, -0.0233772, 0.10924771, 36892.184, 176572.77, 0.0, 10.002163, 9.998106 
5.551093e+2, 2.9574633e+2, 160060.45, -165014.02, 22278.246, -0.047296822, 0.13676229, 161580.14, 203275.44, 0.0, 10.002371, 9.998059 
5.551175e+2, 3.0574298e+2, 202087.28, -179961.75, 9278.52, -0.06891849, 0.027322842, 202312.48, 202312.48, 0.0, 10.0025835, 9.9975195 
5.5512553e+2, 3.157414e+2, 335347.94, 47928.313, 5349.49, -0.07897248, 0.11156323, 335447.47, 335447.47, 0.0000000020600701, 10.002794, 9.998983 
5.649613e+2, 1.2574743e+2, -1888841.4, -1707380.3, -53589.42, -0.14721297, 0.07845517, -1692735.9, 14946.274, 0.00000027083397, 9.998419, 10.000812 
5.6497186e+2, 1.3574778e+2, -1755788.9, -1638806.4, 40264.066, 0.004401132, 0.07015714, -1626287.6, -16609.05, 0.000000017878008, 9.998849, 10.000407 
5.649796e+2, 1.4574808e+2, -1630964.5, -1548752.0, 16557.045, -0.11511849, 0.07167531, -1545542.9, -33867.617, 0.0, 9.999127, 10.000215 
5.6498885e+2, 1.5574823e+2, -1511342.1, -1439602.9, 13142.14, -0.035195008, 0.062452856, -1437271.1, -23597.479, 0.0, 9.999273, 10.00022 
5.649977e+2, 1.6574836e+2, -1396584.0, -1370239.3, 22105.375, -0.006427068, 0.07039202, -1357679.3, -42006.004, 0.0, 9.999546, 9.999892 
5.65006e+2, 1.7574844e+2, -1242146.4, -1240428.9, 23111.467, -0.03475871, 0.08871012, -1218160.3, -486.46634, 0.0, 9.999913, 9.999933 
5.650149e+2, 1.8574832e+2, -1100529.1, -1113554.9, 28542.488, -0.033510465, 0.078925714, -1077765.9, 41908.473, 0.0, 10.000178, 10.000004 
5.65024e+2, 1.9574802e+2, -975923.5, -1003797.7, 27254.607, -0.0034314515, 0.046471175, -959249.25, 62425.992, 0.0, 10.000366, 9.999994 
5.6503314e+2, 2.0574783e+2, -883858.4, -968578.9, 26177.361, 0.011014673, 0.057345077, -876422.6, 47254.59, 0.0, 10.000583, 9.999459 
5.650421e+2, 2.1574773e+2, -750162.8, -852308.94, 25482.463, 0.01166554, 0.09815777, -744158.6, 81521.664, 0.0, 10.000824, 9.999469 
5.650509e+2, 2.2574708e+2, -637819.2, -782200.06, 23937.23, 0.010158713, 0.10412671, -633954.06, 93733.61, 0.0, 10.001072, 9.999157 
5.650598e+2, 2.3574604e+2, -501504.2, -663909.4, 23953.055, 0.007748894, 0.08248925, -498045.06, 131653.44, 0.0, 10.0013275, 9.999173 
5.650684e+2, 2.4574517e+2, -386978.4, -580277.5, 18327.145, -0.0028495179, 0.08715447, -385256.1, 146451.33, 0.0, 10.001537, 9.998973 
5.6507695e+2, 2.5574437e+2, -264425.56, -471661.97, 15472.377, -0.020039745, 0.109610036, -263276.75, 170438.42, 0.0, 10.001712, 9.998962 
5.650857e+2, 2.6574308e+2, -174562.23, -439371.78, 16011.117, -0.024480555, 0.113804765, -173597.67, 162130.38, 0.0, 10.001923, 9.99841 
5.6509453e+2, 2.757414e+2, -41581.82, -323584.75, 13461.505, -0.01923876, 0.10027181, -40940.688, 196804.45, 0.0, 10.002159, 9.998418 
5.6510323e+2, 2.8573972e+2, 54759.844, -263070.44, 8227.497, -0.02959502, 0.11002822, 54972.684, 194733.67, 0.0, 10.002305, 9.998091 
5.651117e+2, 2.9573813e+2, 160277.05, -167114.95, 4036.0903, -0.05199772, 0.14044292, 160326.8, 202102.34, 0.0, 10.002381, 9.99804 
5.6512004e+2, 3.0573475e+2, 195514.05, -189704.47, -6286.1167, -0.07063324, 0.029018497, 195616.61, 195616.61, 0.0, 10.002566, 9.997461 
5.6512845e+2, 3.157331e+2, 334947.2, 37559.965, -8676.664, -0.07495709, 0.113059185, 335200.13, 335200.13, 0.000000017271022, 10.002835, 9.998893 
5.7495993e+2, 1.2573916e+2, -1878415.0, -1685606.0, -43313.137, -0.12249552, 0.08246165, -1676323.0, 31440.457, 0.00000019303324, 9.998418, 10.000962 
5.749708e+2, 1.3573962e+2, -1746529.8, -1619666.9, 55603.047, 0.008768543, 0.07398726, -1598746.4, 11011.692, 0.000000007774616, 9.998849, 10.00054 
5.7497877e+2, 1.4573991e+2, -1629645.5, -1545753.9, 21946.043, -0.112183675, 0.06492384, -1540359.6, -28605.002, 0.0, 9.999126, 10.0002365 
5.7498825e+2, 1.5573992e+2, -1510076.3, -1436744.4, 19010.008, -0.020661866, 0.040572982, -1432109.3, -18355.346, 0.0, 9.999271, 10.000241 
5.7499737e+2, 1.6574006e+2, -1398003.8, -1373046.5, 35797.62, 0.010378657, 0.049747776, -1347614.9, -31861.525, 0.0, 9.999545, 9.999874 
5.750061e+2, 1.7574027e+2, -1243849.6, -1243917.3, 36300.734, -0.022514252, 0.0817956, -1207582.6, 10170.318, 0.0, 9.999913, 9.99991 
5.750151e+2, 1.8574017e+2, -1103630.0, -1119994.9, 35466.117, -0.025369518, 0.0783403, -1075414.6, 44338.984, 0.0, 10.000178, 9.99996 
5.750245e+2, 1.9573984e+2, -978860.4, -1009937.8, 34331.87, 0.0011139563, 0.046369135, -956714.44, 65040.76, 0.0, 10.000366, 9.999952 
5.750338e+2, 2.0573956e+2, -884873.06, -970730.5, 35102.586, 0.02173156, 0.05158545, -872348.5, 51409.523, 0.0, 10.000583, 9.999444 
5.750431e+2, 2.1573934e+2, -751095.5, -854350.4, 34542.98, 0.03552831, 0.08255116, -740605.25, 85156.72, 0.0, 10.000824, 9.9994545 
5.750521e+2, 2.2573873e+2, -636731.9, -780099.9, 33494.547, 0.021799712, 0.09258004, -629292.7, 98476.375, 0.0, 10.001073, 9.999171 
5.7506084e+2, 2.3573786e+2, -500876.53, -662721.4, 33310.727, -0.011488524, 0.08513364, -494288.72, 135489.97, 0.0, 10.0013275, 9.999182 
5.7506984e+2, 2.4573702e+2, -391917.56, -590723.9, 24768.637, -0.017960371, 0.09741477, -388878.2, 142909.3, 0.0, 10.001538, 9.998901 
5.7507885e+2, 2.557362e+2, -269220.3, -481961.13, 22094.998, -0.004575693, 0.12251402, -266949.78, 166846.05, 0.0, 10.001713, 9.998891 
5.750878e+2, 2.6573476e+2, -177388.2, -445539.06, 24836.08, -0.0105366865, 0.12003173, -175107.3, 160702.56, 0.0, 10.001924, 9.998367 
5.750966e+2, 2.7573287e+2, -44497.492, -329783.3, 21881.078, -0.031305056, 0.09305709, -42828.996, 194999.42, 0.0, 10.002159, 9.998375 
5.7510537e+2, 2.857312e+2, 50140.92, -272775.94, 10916.215, -0.046402037, 0.10579228, 50509.523, 190354.03, 0.0, 10.002306, 9.998024 
5.75114e+2, 2.957297e+2, 155709.94, -176815.89, 7281.851, -0.057097614, 0.15109329, 155869.33, 197727.8, 0.0, 10.002382, 9.997973 
5.751226e+2, 3.0572623e+2, 193028.64, -194979.23, 3703.1584, -0.068128094, 0.037692618, 193063.97, 193063.97, 0.00000000021282408, 10.002566, 9.997425 
5.751313e+2, 3.1572446e+2, 329992.75, 27490.281, 1169.0731, -0.06707544, 0.1114588, 329997.28, 329997.28, 0.0000000699572, 10.002834, 9.998824 
5.849584e+2, 1.2573041e+2, -1918280.0, -1698928.8, -53259.113, -0.10919442, 0.069139846, -1686681.1, 21166.998, 0.00000011738098, 9.998119, 10.001014 
5.849695e+2, 1.35731e+2, -1786859.9, -1634114.0, 43454.684, 0.02055534, 0.067316175, -1622617.0, -12775.138, 0.0000000014227642, 9.99855, 10.000584 
5.849779e+2, 1.4573133e+2, -1652915.3, -1551942.9, 1327.6028, -0.099366486, 0.057656627, -1551925.4, -40087.266, 0.0, 9.998945, 10.00028 
5.849876e+2, 1.5573135e+2, -1502921.8, -1428335.4, 0.06577062, -0.009114834, 0.030830732, -1428335.4, -14498.281, 0.0, 9.9993, 10.000285 
5.8499706e+2, 1.657315e+2, -1386700.6, -1365391.1, 21753.797, 0.023339475, 0.03833965, -1351822.9, -35986.633, 0.0, 9.999614, 9.999893 
5.850062e+2, 1.7573172e+2, -1245586.1, -1243316.0, 24815.652, -0.005199316, 0.06926138, -1219609.5, -1773.7367, 0.0, 9.999895, 9.999923 
5.850154e+2, 1.8573166e+2, -1108159.0, -1128638.9, 21472.74, -0.012155388, 0.07204469, -1094609.5, 25226.848, 0.0, 10.000175, 9.999902 
5.850249e+2, 1.9573139e+2, -969555.0, -1011028.06, 19151.768, 0.0035644483, 0.05173278, -962064.0, 59774.05, 0.0, 10.000454, 9.999903 
5.8503443e+2, 2.0573108e+2, -865314.5, -955841.5, 21927.295, 0.02217129, 0.052518763, -860282.94, 63558.242, 0.0, 10.000694, 9.999493 
5.85044e+2, 2.1573073e+2, -736196.06, -842432.75, 26107.96, 0.04064831, 0.0671202, -730126.7, 95718.94, 0.0, 10.000906, 9.999496 
5.850532e+2, 2.2573018e+2, -632122.25, -781775.0, 25389.213, 0.024563512, 0.08164803, -627932.2, 99920.28, 0.0, 10.0011215, 9.999137 
5.8506215e+2, 2.3572946e+2, -501715.56, -667059.4, 21459.969, -0.016413148, 0.09418943, -498975.7, 130885.52, 0.0, 10.001339, 9.999146 
5.8507127e+2, 2.4572861e+2, -388628.3, -592557.06, 12318.785, -0.023070509, 0.109312184, -387886.84, 143983.45, 0.0, 10.001575, 9.998871 
5.850806e+2, 2.5572765e+2, -255230.08, -478605.63, 12574.26, -0.004257755, 0.1244672, -254524.48, 179355.38, 0.0, 10.001823, 9.99886 
5.8508974e+2, 2.6572618e+2, -165611.1, -443078.16, 16730.498, -0.010551598, 0.11852323, -164605.94, 171288.39, 0.0, 10.002018, 9.998339 
5.850987e+2, 2.7572426e+2, -45467.52, -334348.22, 14640.425, -0.035880767, 0.09298396, -44727.44, 193185.36, 0.0, 10.00217, 9.998339 
5.851076e+2, 2.8572252e+2, 46880.71, -287663.44, -452.62204, -0.05088385, 0.10693641, 46881.324, 186811.08, 0.0, 10.00234, 9.997905 
5.8511645e+2, 2.957209e+2, 169053.06, -181994.84, -7867.648, -0.05804072, 0.15311491, 169229.31, 211174.58, 0.0, 10.002523, 9.9978695 
5.8512527e+2, 3.0571738e+2, 213771.58, -176927.38, -6014.7803, -0.066270545, 0.03610273, 213864.16, 213864.16, 0.000000006848287, 10.002674, 9.997497 
5.8513415e+2, 3.1571564e+2, 328065.03, 30204.916, -613.50165, -0.061437555, 0.10771153, 328066.28, 328066.28, 0.00000018333391, 10.002805, 9.998857 
5.9495646e+2, 1.2572122e+2, -1922087.4, -1706201.1, -42870.465, -0.10866688, 0.037653476, -1697999.5, 9936.807, 0.000000058921596, 9.9981165, 10.000965 
5.9496826e+2, 1.3572189e+2, -1790060.4, -1640689.3, 59395.254, 0.039604202, 0.050033804, -1619950.9, -10020.983, 0.000000000010343272, 9.998549, 10.00054 
5.9497714e+2, 1.4572231e+2, -1648327.9, -1542343.3, 14533.219, -0.07674031, 0.049819726, -1540386.5, -28460.906, 0.0, 9.998944, 10.000347 
5.94987e+2, 1.5572253e+2, -1498313.5, -1418723.5, 12920.846, -0.00076589885, 0.033231363, -1416678.4, -2755.2585, 0.0, 9.999299, 10.000351 
5.9499675e+2, 1.6572268e+2, -1382734.1, -1357093.0, 32190.445, 0.032248, 0.036225725, -1335264.0, -19342.037, 0.0, 9.999613, 9.99995 
5.950063e+2, 1.7572281e+2, -1242232.3, -1236292.6, 35301.24, 0.016985897, 0.051196843, -1203836.5, 14085.395, 0.0, 9.999894, 9.999971 
5.950158e+2, 1.857228e+2, -1113327.1, -1139383.3, 31827.854, 0.0059434045, 0.060041767, -1091964.1, 27958.299, 0.0, 10.000175, 9.999828 
5.950254e+2, 1.9572267e+2, -973815.5, -1019919.75, 29336.697, 0.0038749252, 0.062475506, -959557.56, 62366.137, 0.0, 10.000454, 9.999842 
5.95035e+2, 2.0572236e+2, -857474.0, -939577.56, 29769.094, 0.012383516, 0.06009681, -847816.4, 76110.36, 0.0, 10.000694, 9.999605 
5.950448e+2, 2.1572189e+2, -729414.4, -828334.94, 33974.457, 0.027163932, 0.051896665, -718869.8, 107061.51, 0.0, 10.000906, 9.999594 
5.9505427e+2, 2.257214e+2, -638027.75, -794018.3, 33490.66, 0.018422982, 0.07127245, -631141.44, 96796.414, 0.0, 10.001121, 9.999053 
5.950636e+2, 2.3572086e+2, -507184.88, -678442.06, 29697.86, -0.0075313076, 0.10946744, -502181.13, 127764.9, 0.0, 10.001339, 9.999068 
5.950729e+2, 2.4571995e+2, -387970.4, -591222.44, 21594.535, -0.01855136, 0.12286168, -385701.44, 146254.44, 0.0, 10.001575, 9.99888 
5.950823e+2, 2.5571877e+2, -254706.97, -477552.8, 21543.475, -0.018686535, 0.11593191, -252643.38, 181323.73, 0.0, 10.001823, 9.998868 
5.9509164e+2, 2.657173e+2, -166509.39, -445000.88, 22274.396, -0.024250058, 0.109549664, -164739.08, 171242.31, 0.0, 10.002018, 9.998325 
5.951009e+2, 2.7571556e+2, -47475.727, -338481.25, 20312.666, -0.033562236, 0.099610485, -46064.71, 191933.63, 0.0, 10.00217, 9.998311 
5.9511006e+2, 2.8571367e+2, 34785.152, -312730.72, 6397.4063, -0.04387197, 0.113250494, 34902.883, 174919.58, 0.0, 10.002339, 9.997733 
5.9511894e+2, 2.9571176e+2, 159047.36, -202859.84, -1064.1963, -0.055269588, 0.14714283, 159050.48, 201086.3, 0.0, 10.002523, 9.997726 
5.9512794e+2, 3.0570823e+2, 226463.75, -150875.05, -1194.7737, -0.065301605, 0.024932588, 226467.53, 226467.53, 0.000000033052434, 10.002676, 9.997675 
5.95137e+2, 3.1570673e+2, 337567.5, 49537.438, 4290.6885, -0.05830105, 0.10105918, 337631.4, 337631.4, 0.00000037488923, 10.002807, 9.998989 
6.0495466e+2, 1.2571177e+2, -1925384.0, -1707640.3, -67139.6, -0.102896154, 0.026710615, -1688602.8, 19425.338, 0.000000021349177, 9.998095, 10.000965 
6.0496694e+2, 1.3571237e+2, -1793658.1, -1642404.0, 44024.28, 0.05024163, 0.03261539, -1630523.5, -20501.084, 0.0, 9.998525, 10.00054 
6.049762e+2, 1.4571284e+2, -1651928.1, -1541295.6, -3914.1177, -0.06003891, 0.036573954, -1541157.4, -29139.545, 0.0, 9.998907, 10.000372 
6.049864e+2, 1.5571325e+2, -1503058.1, -1417568.3, -8992.546, 0.014481851, 0.036579747, -1416632.5, -2618.5425, 0.0, 9.999252, 10.000381 
6.0499644e+2, 1.6571347e+2, -1382579.1, -1346092.8, 8309.049, 0.044761878, 0.03928075, -1344289.6, -28277.568, 0.0, 9.999567, 10.000048 
6.050062e+2, 1.7571355e+2, -1241777.1, -1226098.6, 14251.577, 0.026905382, 0.041008007, -1217672.6, 339.2276, 0.0, 9.999855, 10.00006 
6.05016e+2, 1.8571357e+2, -1120747.5, -1146008.9, 13879.658, 0.012148645, 0.050602145, -1114611.8, 5400.454, 0.0, 10.000137, 9.999801 
6.050258e+2, 1.9571353e+2, -980368.4, -1025529.7, 14496.178, 0.005099908, 0.06441721, -976115.75, 45897.516, 0.0, 10.00042, 9.999819 
6.0503566e+2, 2.0571324e+2, -860035.75, -934907.6, 11167.516, 0.00871373, 0.06261282, -858405.56, 65610.64, 0.0, 10.000651, 9.999658 
6.0504556e+2, 2.1571276e+2, -734990.44, -825343.0, 11086.69, 0.018943341, 0.046764277, -733649.94, 92370.81, 0.0, 10.000843, 9.999644 
6.050553e+2, 2.2571233e+2, -643740.6, -793419.5, 14638.3545, 0.015974123, 0.068530455, -642322.44, 85704.305, 0.0, 10.001067, 9.999083 
6.05065e+2, 2.357119e+2, -509052.13, -676721.7, 19174.54, 0.0034391973, 0.11672504, -506887.3, 123146.71, 0.0, 10.001315, 9.999092 
6.050746e+2, 2.4571103e+2, -394768.16, -599106.3, 12719.419, -0.009366609, 0.13357829, -393979.47, 138064.45, 0.0, 10.001549, 9.998839 
6.0508406e+2, 2.557098e+2, -265197.6, -487104.56, 8713.786, -0.022785882, 0.12523723, -264855.94, 169200.0, 0.0, 10.001771, 9.998828 
6.0509354e+2, 2.6570824e+2, -174816.25, -449976.94, 5378.5586, -0.031474102, 0.11619296, -174711.16, 161359.56, 0.0, 10.001965, 9.998317 
6.05103e+2, 2.7570644e+2, -53005.875, -342144.94, 3821.1372, -0.036180392, 0.10251436, -52955.383, 185132.56, 0.0, 10.002135, 9.9983015 
6.051124e+2, 2.857046e+2, 35017.402, -313701.22, -1119.1646, -0.041447468, 0.119383805, 35020.992, 175127.14, 0.0, 10.002346, 9.997724 
6.0512155e+2, 2.957028e+2, 167709.05, -199781.89, 3080.3264, -0.047520194, 0.16193542, 167734.86, 209859.58, 0.00000000003092486, 10.002587, 9.997717 
6.0513073e+2, 3.056992e+2, 246610.02, -139636.9, -608.13934, -0.058402065, 0.033604153, 246610.98, 246610.98, 0.00000008707832, 10.002808, 9.997688 
6.0514e+2, 3.1569755e+2, 365982.13, 60396.08, -7410.148, -0.054875597, 0.095821016, 366161.72, 366161.72, 0.0000006525611, 10.003015, 9.998963 
6.149528e+2, 1.2570202e+2, -1922009.4, -1700624.8, -56627.152, -0.092734, 0.036424737, -1686981.1, 21142.32, 0.0000000039655865, 9.998095, 10.001014 
6.1496544e+2, 1.3570242e+2, -1790573.6, -1636174.9, 59663.78, 0.05225373, 0.015056104, -1615806.3, -5687.0, 0.0, 9.998525, 10.000583 
6.149752e+2, 1.457029e+2, -1653241.0, -1543850.1, 8770.326, -0.049439147, 0.017720485, -1543151.4, -31036.518, 0.0, 9.998906, 10.000355 
6.149859e+2, 1.557035e+2, -1503630.4, -1418585.8, 3645.4573, 0.036522537, 0.040839378, -1418429.8, -4319.9917, 0.0, 9.999251, 10.000376 
6.149962e+2, 1.6570385e+2, -1372981.5, -1326154.4, 18957.166, 0.06084986, 0.04754219, -1319442.0, -3335.338, 0.0, 9.999566, 10.000185 
6.15006e+2, 1.7570394e+2, -1232787.3, -1207460.0, 24867.813, 0.024533039, 0.0386968, -1192217.0, 25888.479, 0.0, 9.999855, 10.000188 
6.1501604e+2, 1.85704e+2, -1119572.6, -1143545.3, 24324.973, 0.0063647064, 0.04380641, -1104441.1, 15664.48, 0.0, 10.000137, 9.999818 
6.1502624e+2, 1.9570397e+2, -979434.44, -1023443.3, 24802.78, 0.0070440224, 0.057713717, -968282.1, 53824.598, 0.0, 10.000419, 9.999834 
6.150363e+2, 2.0570374e+2, -860513.1, -935779.06, 18254.662, 0.010960624, 0.06010848, -856319.4, 67790.164, 0.0, 10.00065, 9.999652 
6.150464e+2, 2.1570331e+2, -734657.5, -824651.5, 18406.262, 0.015816329, 0.051513206, -731038.5, 95075.4, 0.0, 10.000843, 9.999649 
6.150564e+2, 2.2570296e+2, -633993.7, -773170.94, 23901.229, 0.017040154, 0.07331661, -630003.44, 98115.59, 0.0, 10.001067, 9.999222 
6.1506647e+2, 2.3570262e+2, -500471.56, -658919.56, 28349.57, 0.016306762, 0.116267815, -495551.97, 134573.1, 0.0, 10.001315, 9.999214 
6.1507624e+2, 2.4570185e+2, -401118.3, -612384.1, 20917.504, 0.004192277, 0.1415126, -399067.2, 133067.19, 0.0, 10.001549, 9.998748 
6.150859e+2, 2.557007e+2, -271227.8, -499655.78, 16871.363, -0.017026814, 0.15160923, -269988.44, 164157.84, 0.0, 10.001771, 9.998742 
6.1509544e+2, 2.6569906e+2, -175200.19, -450836.66, 11793.189, -0.03256323, 0.13786441, -174696.53, 161465.67, 0.0, 10.001965, 9.998311 
6.151051e+2, 2.7569705e+2, -52478.785, -341130.25, 10483.153, -0.043639302, 0.10216447, -52098.563, 186082.94, 0.0, 10.002136, 9.998309 
6.151147e+2, 2.8569534e+2, 45432.824, -292177.94, 7879.665, -0.04363216, 0.12549637, 45616.63, 185814.66, 0.0, 10.002346, 9.997871 
6.1512434e+2, 2.9569393e+2, 176347.56, -181895.27, 11975.394, -0.035333652, 0.19620875, 176747.44, 218959.58, 0.0000000010306047, 10.002587, 9.997839 
6.1513364e+2, 3.0569026e+2, 236137.6, -161349.48, 7101.3105, -0.04611737, 0.060947888, 236264.42, 236264.42, 0.00000016756015, 10.002808, 9.9975395 
6.15143e+2, 3.1568813e+2, 353083.66, 34056.297, 250.89021, -0.051904313, 0.09180542, 353083.84, 353083.84, 0.000001002472, 10.003012, 9.998784 
6.249512e+2, 1.25692e+2, -1913312.9, -1694094.4, -74946.266, -0.070268296, 0.055403095, -1670921.4, 37300.766, 0.00000000008306351, 9.998144, 10.001034 
6.249641e+2, 1.3569222e+2, -1784517.8, -1630275.3, 44179.266, 0.06278179, 0.01572875, -1618517.4, -8298.225, 0.0, 9.998553, 10.000609 
6.249742e+2, 1.456927e+2, -1651610.1, -1533176.5, -7334.029, -0.036632393, 0.011481705, -1532724.0, -20509.262, 0.0, 9.998876, 10.000443 
6.249852e+2, 1.5569347e+2, -1515801.9, -1414707.1, -4663.3105, 0.050437123, 0.041870132, -1414492.4, -284.3248, 0.0, 9.9991255, 10.000463 
6.2499577e+2, 1.6569392e+2, -1390740.3, -1325197.5, 11725.961, 0.070437014, 0.051765785, -1323162.8, -6958.8804, 0.0, 9.999404, 10.00027 
6.2500584e+2, 1.7569412e+2, -1248827.0, -1206203.0, 13393.306, 0.026517088, 0.042789623, -1202344.0, 15857.87, 0.0, 9.999706, 10.000268 
6.250161e+2, 1.8569417e+2, -1140752.1, -1149335.8, 10799.037, 0.0064117257, 0.042343754, -1133423.4, -13221.531, 0.0, 9.999973, 9.999857 
6.250265e+2, 1.9569407e+2, -1006906.0, -1032475.1, 12880.366, 0.009097933, 0.046634316, -1001542.6, 20660.746, 0.0, 10.000213, 9.999871 
6.2503695e+2, 2.0569393e+2, -882768.56, -943877.3, 7828.3135, 0.0141045265, 0.053805143, -881781.7, 42424.016, 0.0, 10.000486, 9.999675 
6.250472e+2, 2.1569368e+2, -740604.8, -824629.9, 9966.579, 0.01944976, 0.06098628, -739438.8, 86770.055, 0.0, 10.00079, 9.999675 
6.250575e+2, 2.2569337e+2, -632667.56, -766154.5, 12432.907, 0.019910067, 0.08431861, -631519.44, 96694.125, 0.0, 10.001049, 9.999279 
6.250678e+2, 2.3569301e+2, -502787.3, -654011.6, 10908.508, 0.017380603, 0.11801163, -502004.5, 128215.3, 0.0, 10.001273, 9.999268 
6.250778e+2, 2.4569228e+2, -404390.4, -612176.75, 5542.2354, 0.004196184, 0.1446412, -404242.7, 127986.055, 0.0, 10.001518, 9.998764 
6.250876e+2, 2.5569123e+2, -268787.06, -496289.56, 9159.249, -0.017454598, 0.16389418, -268418.9, 165821.05, 0.0, 10.001778, 9.998761 
6.250974e+2, 2.6568967e+2, -167626.25, -441262.6, 7716.562, -0.034316458, 0.15128964, -167408.81, 168846.69, 0.0, 10.001991, 9.9983635 
6.2510717e+2, 2.7568766e+2, -43950.96, -331380.94, 10809.574, -0.047446437, 0.11097443, -43545.01, 194729.58, 0.0, 10.00217, 9.99836 
6.2511706e+2, 2.8568602e+2, 53595.168, -285897.03, 7228.368, -0.045710064, 0.1355975, 53749.0, 194039.64, 0.0, 10.002393, 9.997892 
6.2512696e+2, 2.9568467e+2, 186498.64, -174817.64, 1789.9651, -0.03262827, 0.21180718, 186507.5, 228811.63, 0.000000004235602, 10.002648, 9.997859 
6.2513655e+2, 3.0568096e+2, 237268.17, -161706.02, -4301.226, -0.037867855, 0.07703496, 237314.53, 237314.53, 0.000000262113, 10.002819, 9.997532 
6.251461e+2, 3.1567886e+2, 337917.2, 21533.15, -1112.58, -0.03640273, 0.108177, 337921.1, 337921.1, 0.0000013873902, 10.002931, 9.998736 
6.349496e+2, 1.2568168e+2, -1913796.1, -1695081.4, -64947.7, -0.03631166, 0.083459176, -1677249.0, 31075.324, 0.0, 9.998144, 10.001027 
6.3496286e+2, 1.3568181e+2, -1783770.0, -1628927.8, 58838.035, 0.08188526, 0.03485239, -1609107.3, 1214.97, 0.0, 9.998553, 10.000619 
6.349732e+2, 1.4568226e+2, -1637982.8, -1504886.1, 1792.7319, -0.021695448, 0.01808557, -1504862.0, 7455.462, 0.0, 9.998875, 10.000638 
6.3498443e+2, 1.5568313e+2, -1503078.4, -1388241.5, 4558.1846, 0.055920146, 0.039745905, -1388060.9, 26248.229, 0.0, 9.999125, 10.000645 
6.3499516e+2, 1.6568372e+2, -1388704.1, -1320877.4, 22870.512, 0.07319082, 0.051962923, -1313886.3, 2417.461, 0.0, 9.999403, 10.0003 
6.350056e+2, 1.7568405e+2, -1246674.1, -1201648.1, 24485.697, 0.032717, 0.053284872, -1190898.8, 27402.05, 0.0, 9.999705, 10.0003 
6.350162e+2, 1.8568407e+2, -1136542.0, -1140574.1, 19610.365, 0.012191231, 0.0462297, -1118844.3, 1456.49, 0.0, 9.999972, 9.999918 
6.350268e+2, 1.9568385e+2, -1002740.8, -1023869.56, 21929.508, 0.011145791, 0.031242758, -988963.7, 33339.477, 0.0, 10.000213, 9.99993 
6.350375e+2, 2.0568381e+2, -879265.0, -936577.6, 19085.166, 0.017933564, 0.043748893, -873491.25, 50813.36, 0.0, 10.000486, 9.999725 
6.350481e+2, 2.1568385e+2, -737658.2, -818347.44, 21115.168, 0.0294909, 0.07511974, -732466.7, 93838.98, 0.0, 10.000789, 9.999719 
6.350586e+2, 2.256836e+2, -634438.6, -769613.8, 20747.688, 0.024388751, 0.10142161, -631325.75, 96984.58, 0.0, 10.001048, 9.999255 
6.350689e+2, 2.3568305e+2, -503830.0, -656003.5, 19442.75, 0.006941319, 0.12188054, -501385.13, 128932.93, 0.0, 10.001272, 9.999254 
6.3507915e+2, 2.4568233e+2, -396248.34, -595142.3, 15240.924, -0.009081168, 0.14314584, -395087.25, 137239.69, 0.0, 10.001518, 9.998881 
6.3508934e+2, 2.5568143e+2, -260593.86, -479104.06, 18631.69, -0.024093729, 0.16281153, -259016.58, 175320.31, 0.0, 10.001777, 9.99888 
6.350994e+2, 2.6568002e+2, -159977.81, -425290.63, 14223.363, -0.0369699, 0.15689902, -159217.48, 177133.06, 0.0, 10.001991, 9.998474 
6.3510936e+2, 2.7567822e+2, -37381.105, -317723.9, 17531.332, -0.048009574, 0.12831171, -36289.03, 202078.27, 0.0, 10.00217, 9.998454 
6.3511944e+2, 2.8567654e+2, 46382.96, -300954.8, 16735.96, -0.04789697, 0.14940286, 47187.496, 187571.5, 0.0, 10.002393, 9.997788 
6.351295e+2, 2.9567495e+2, 180680.67, -186960.47, 11033.999, -0.039102, 0.21008001, 181011.53, 223411.97, 0.000000008608103, 10.002648, 9.997775 
6.351394e+2, 3.056714e+2, 246328.73, -143310.92, -294.7164, -0.03368931, 0.08271747, 246328.95, 246328.95, 0.00000035003856, 10.002821, 9.997658 
6.351493e+2, 3.156697e+2, 344055.22, 33375.125, 2901.0398, -0.009598641, 0.1427018, 344082.28, 344082.28, 0.0000017531521, 10.002934, 9.9988165 
6.449481e+2, 1.2567084e+2, -1896644.5, -1684836.9, -65439.344, -0.011457072, 0.07046271, -1666250.0, 42180.285, 0.0, 9.998254, 10.001045 
6.4496154e+2, 1.3567112e+2, -1789310.4, -1628436.8, 64868.063, 0.098863594, 0.03583569, -1605539.4, 4887.295, 0.0, 9.998502, 10.000648 
6.449722e+2, 1.4567165e+2, -1647511.6, -1500324.1, 1884.5308, -0.0053880955, 0.019804332, -1500300.0, 12121.401, 0.0, 9.99877, 10.000719 
6.4498353e+2, 1.5567257e+2, -1506983.8, -1381604.6, -3854.536, 0.060495436, 0.03806033, -1381486.3, 32926.41, 0.0, 9.999062, 10.000721 
6.4499456e+2, 1.656732e+2, -1398719.3, -1323996.0, 10125.204, 0.07362441, 0.052406248, -1322648.3, -6241.478, 0.0, 9.999327, 10.000316 
6.450053e+2, 1.7567362e+2, -1265117.5, -1208194.0, 10439.709, 0.036343526, 0.05994817, -1206339.9, 12063.829, 0.0, 9.999569, 10.000321 
6.450161e+2, 1.856737e+2, -1147803.3, -1131934.9, 7508.2095, 0.015676556, 0.05235297, -1128945.5, -8542.592, 0.0, 9.999835, 10.000043 
6.45027e+2, 1.9567356e+2, -1007495.56, -1013363.8, 14541.646, 0.011399636, 0.03176318, -995595.0, 26809.11, 0.0, 10.000125, 10.000045 
6.450379e+2, 2.0567358e+2, -897786.75, -947859.94, 10409.062, 0.01840285, 0.0455837, -895709.1, 28696.012, 0.0, 10.000369, 9.999704 
6.4504886e+2, 2.1567366e+2, -769393.06, -835421.1, 7133.347, 0.03309273, 0.083558224, -768631.2, 57775.195, 0.0, 10.000579, 9.999702 
6.450595e+2, 2.2567345e+2, -659387.6, -772869.56, 8873.493, 0.024918107, 0.11210455, -658698.0, 69712.7, 0.0, 10.000839, 9.999333 
6.4507e+2, 2.35673e+2, -518033.47, -654175.94, 14989.307, -0.0006116659, 0.13142724, -516402.7, 114014.84, 0.0, 10.001138, 9.999331 
6.4508057e+2, 2.456723e+2, -408078.28, -593845.6, 11441.908, -0.016713599, 0.15036559, -407376.2, 125049.68, 0.0, 10.001407, 9.998943 
6.45091e+2, 2.5567144e+2, -274394.88, -478814.8, 10539.172, -0.025566094, 0.16681926, -273852.97, 160582.63, 0.0, 10.001653, 9.998941 
6.4510137e+2, 2.656701e+2, -167862.61, -422526.13, 974.64734, -0.03578898, 0.16264158, -167858.88, 168589.69, 0.0, 10.001909, 9.998532 
6.451115e+2, 2.756684e+2, -33076.266, -309089.75, 636.8351, -0.046822276, 0.13929182, -33074.797, 205389.55, 0.0, 10.0021715, 9.998511 
6.451219e+2, 2.8566673e+2, 56291.26, -291341.16, 5894.2354, -0.04424838, 0.15847705, 56391.17, 196871.81, 0.0, 10.00244, 9.997832 
6.4513224e+2, 2.9566514e+2, 193130.47, -176287.53, 10458.201, -0.03100096, 0.21217702, 193426.3, 235923.36, 0.000000011710588, 10.002714, 9.997817 
6.451424e+2, 3.056616e+2, 267855.6, -130824.484, -4316.5967, -0.024724144, 0.08374781, 267902.34, 267902.34, 0.00000040808163, 10.00296, 9.997676 
6.451524e+2, 3.1565994e+2, 379241.28, 47846.12, -8992.071, -0.0018502455, 0.1491937, 379485.1, 379485.1, 0.0000020407565, 10.003187, 9.998794 
6.5494645e+2, 1.2565945e+2, -1893488.3, -1678568.8, -60994.566, 0.003219494, 0.014911446, -1662465.0, 46075.164, 0.0, 9.998255, 10.001087 
6.5496016e+2, 1.3566017e+2, -1785920.4, -1621585.0, 73897.19, 0.11331282, 0.01848835, -1593243.4, 17289.334, 0.0, 9.998502, 10.000694 
6.549711e+2, 1.4566085e+2, -1649925.9, -1505148.1, 12471.449, 0.012007513, 0.016636038, -1504081.6, 8444.897, 0.0, 9.998769, 10.000687 
6.549826e+2, 1.5566175e+2, -1509239.3, -1386143.4, 6806.1846, 0.06417211, 0.036828633, -1385768.1, 28750.355, 0.0, 9.999061, 10.00069 
6.5499383e+2, 1.656624e+2, -1398910.4, -1324341.6, 19042.232, 0.07175388, 0.053139955, -1319760.4, -3247.1108, 0.0, 9.999327, 10.000314 
6.5500486e+2, 1.7566282e+2, -1264472.5, -1206816.9, 19476.293, 0.03713136, 0.0627479, -1200854.4, 17656.043, 0.0, 9.999568, 10.000331 
6.5501595e+2, 1.8566307e+2, -1134662.1, -1104588.5, 18162.383, 0.016611211, 0.060663383, -1096046.1, 24461.926, 0.0, 9.999834, 10.000232 
6.5502703e+2, 1.956632e+2, -995778.06, -988956.4, 25103.053, 0.009803976, 0.048084326, -967033.5, 55472.62, 0.0, 10.000124, 10.000213 
6.5503824e+2, 2.0566319e+2, -904313.0, -961385.0, 18119.496, 0.015547465, 0.059225935, -899046.4, 25460.861, 0.0, 10.000369, 9.999612 
6.550494e+2, 2.1566309e+2, -774758.94, -846567.94, 15178.678, 0.03035311, 0.08639945, -771682.4, 54828.633, 0.0, 10.000579, 9.999626 
6.550603e+2, 2.2566295e+2, -647119.6, -747314.25, 20080.87, 0.021507028, 0.11643271, -643244.9, 85269.64, 0.0, 10.000838, 9.99951 
6.550711e+2, 2.3566279e+2, -506568.06, -630297.2, 26006.977, -0.005532671, 0.1465264, -501323.84, 129194.31, 0.0, 10.001137, 9.999496 
6.550819e+2, 2.4566218e+2, -407669.66, -592871.9, 20502.941, -0.019039052, 0.16606633, -405427.03, 127098.54, 0.0, 10.001406, 9.998951 
6.550927e+2, 2.5566125e+2, -274183.63, -478111.34, 19694.977, -0.022166898, 0.17564666, -272298.94, 162237.11, 0.0, 10.001651, 9.998947 
6.551033e+2, 2.656599e+2, -167462.2, -421528.3, 10692.788, -0.031032754, 0.16846617, -167012.97, 169536.55, 0.0, 10.001908, 9.99854 
6.551137e+2, 2.756582e+2, -31584.615, -306010.9, 10410.558, -0.04407677, 0.14445962, -31190.25, 207375.36, 0.0, 10.0021715, 9.998533 
6.5512437e+2, 2.8565666e+2, 69052.625, -264863.97, 15906.852, -0.03523782, 0.16326913, 69808.67, 210389.14, 0.0, 10.0024395, 9.9980135 
6.551352e+2, 2.9565525e+2, 204349.92, -152835.3, 20377.643, -0.009297526, 0.21767014, 205508.72, 248102.77, 0.000000011654482, 10.002713, 9.997978 
6.551455e+2, 3.056516e+2, 262027.9, -143157.11, 3901.5288, -0.011415286, 0.080260746, 262065.47, 262065.47, 0.00000041978168, 10.00296, 9.997591 
6.5515554e+2, 3.1564972e+2, 371145.78, 30234.691, -879.8668, -0.012350721, 0.1289314, 371148.03, 371148.03, 0.0000022012798, 10.00319, 9.998672 
6.64945e+2, 1.2564823e+2, -1886470.5, -1673666.1, -76066.63, 0.025828494, 0.0030830295, -1649272.5, 59377.223, 0.0, 9.998297, 10.001101 
6.649588e+2, 1.3564906e+2, -1783537.6, -1617478.3, 60772.836, 0.12389351, 0.013108573, -1597613.5, 13027.946, 0.0, 9.998506, 10.000721 
6.6497004e+2, 1.4564976e+2, -1656167.6, -1504827.9, 1954.8077, 0.0247797, 0.014055706, -1504802.6, 7832.279, 0.0, 9.998713, 10.000716 
6.6498166e+2, 1.5565076e+2, -1526689.8, -1390860.9, 1049.755, 0.07004278, 0.040450547, -1390852.8, 23773.602, 0.0, 9.998925, 10.000723 
6.649931e+2, 1.6565147e+2, -1416951.6, -1325008.1, 18493.482, 0.07421684, 0.05704947, -1321427.8, -4807.1665, 0.0, 9.999168, 10.000385 
6.650044e+2, 1.7565192e+2, -1279330.8, -1206454.3, 24418.94, 0.03998856, 0.0622365, -1199028.6, 19588.889, 0.0, 9.999434, 10.000398 
6.6501576e+2, 1.8565229e+2, -1150203.5, -1110505.6, 19700.965, 0.02067456, 0.066189356, -1102388.4, 18226.137, 0.0, 9.999722, 10.000245 
6.6502714e+2, 1.9565256e+2, -1008993.56, -993498.1, 13327.757, 0.015298075, 0.06777814, -985829.75, 36781.754, 0.0, 10.000026, 10.000229 
6.650386e+2, 2.0565258e+2, -913244.25, -958124.1, 4271.14, 0.018137261, 0.07662001, -912841.44, 11770.953, 0.0, 10.000276, 9.999679 
6.6504985e+2, 2.1565239e+2, -783806.8, -843554.94, 13376.757, 0.026787888, 0.08880899, -780948.7, 45667.785, 0.0, 10.000485, 9.999692 
6.6506106e+2, 2.2565226e+2, -658412.2, -748289.0, 20898.719, 0.018213307, 0.11602856, -653790.4, 74829.27, 0.0, 10.000742, 9.999549 
6.650722e+2, 2.3565221e+2, -518775.2, -631650.44, 16585.63, -0.003532955, 0.15270121, -516388.6, 114233.69, 0.0, 10.001034, 9.9995365 
6.650833e+2, 2.4565168e+2, -421271.63, -594034.4, 6283.4395, -0.015025926, 0.17453527, -421043.4, 111585.68, 0.0, 10.001289, 9.998999 
6.650943e+2, 2.5565076e+2, -290679.84, -481014.34, 8679.8, -0.018724073, 0.18317144, -290284.84, 144354.4, 0.0, 10.001516, 9.998992 
6.651052e+2, 2.6564944e+2, -179682.81, -426568.66, 3766.9514, -0.024377102, 0.17672418, -179625.34, 157027.28, 0.0, 10.001821, 9.998547 
6.65116e+2, 2.756478e+2, -28804.75, -303137.5, 3110.7761, -0.031300206, 0.15467206, -28769.48, 209899.33, 0.0, 10.002184, 9.998547 
6.65127e+2, 2.856463e+2, 79984.766, -247689.64, 2811.645, -0.022958474, 0.17181481, 80008.89, 220691.77, 0.0, 10.002464, 9.99812 
6.65138e+2, 2.9564494e+2, 206302.28, -141325.47, 1961.499, -0.0027805897, 0.2215595, 206313.34, 249008.4, 0.000000008469742, 10.002682, 9.998073 
6.651485e+2, 3.0564126e+2, 264325.03, -149172.23, -13339.373, -0.004991122, 0.079436906, 264754.9, 264754.9, 0.00000038345433, 10.003007, 9.997527 
6.651589e+2, 3.156393e+2, 396637.0, 31062.951, -17057.627, -0.0003891433, 0.12451255, 397431.2, 397431.2, 0.000002213461, 10.003415, 9.998569 
6.749436e+2, 1.256372e+2, -1887707.5, -1676334.4, -72427.27, 0.05519232, 0.03555896, -1653898.5, 54860.348, 0.0, 9.998298, 10.001081 
6.7495733e+2, 1.3563776e+2, -1782968.8, -1616715.8, 68215.36, 0.13047181, 0.019815892, -1592309.3, 18443.69, 0.0, 9.998507, 10.000726 
6.7496884e+2, 1.4563844e+2, -1649705.6, -1491571.9, 9611.997, 0.03276199, 0.011864966, -1490989.8, 21756.908, 0.0, 9.998713, 10.000808 
6.7498064e+2, 1.5563963e+2, -1520090.8, -1377057.8, 9022.956, 0.0776804, 0.048998207, -1376490.8, 38245.223, 0.0, 9.998924, 10.000818 
6.749924e+2, 1.6564046e+2, -1406926.6, -1304026.5, 28326.248, 0.08060419, 0.06429159, -1296744.3, 19984.668, 0.0, 9.999167, 10.000529 
6.750038e+2, 1.7564093e+2, -1270664.6, -1188432.8, 34343.16, 0.044826675, 0.058549374, -1175976.5, 42748.52, 0.0, 9.9994335, 10.000522 
6.750155e+2, 1.8564133e+2, -1161531.0, -1134005.8, 30978.08, 0.02777352, 0.068988174, -1113870.8, 6851.411, 0.0, 9.999721, 10.000084 
6.750274e+2, 1.9564165e+2, -1018652.2, -1013410.5, 24419.654, 0.027603053, 0.09071267, -991471.44, 31248.762, 0.0, 10.000025, 10.0000925 
6.750389e+2, 2.056417e+2, -897597.5, -925569.1, 11993.127, 0.025928952, 0.09765286, -893159.5, 31561.047, 0.0, 10.000275, 9.999903 
6.750503e+2, 2.1564154e+2, -769451.2, -813853.06, 21295.557, 0.022245483, 0.09087633, -760888.8, 65834.016, 0.0, 10.000485, 9.999896 
6.7506176e+2, 2.2564141e+2, -664932.25, -761944.25, 31787.197, 0.014821878, 0.11111998, -655444.6, 73281.24, 0.0, 10.000742, 9.999455 
6.750733e+2, 2.3564127e+2, -524586.4, -643674.8, 27390.174, 0.0050533935, 0.1501866, -518588.72, 112141.07, 0.0, 10.001034, 9.9994545 
6.7508465e+2, 2.4564078e+2, -415238.53, -581559.25, 14710.012, -0.004982418, 0.1759476, -413947.56, 118788.79, 0.0, 10.001289, 9.999084 
6.750959e+2, 2.5564e+2, -284805.1, -469171.13, 17412.754, -0.015344195, 0.1894897, -283174.9, 151570.19, 0.0, 10.001518, 9.999073 
6.751071e+2, 2.656388e+2, -179089.39, -425698.38, 17321.121, -0.016073717, 0.1873778, -177878.75, 158879.1, 0.0, 10.001822, 9.998552 
6.751184e+2, 2.7563718e+2, -28354.586, -302295.1, 16371.979, -0.009145949, 0.16954324, -27379.59, 211394.34, 0.0, 10.002185, 9.998552 
6.751296e+2, 2.8563565e+2, 82299.14, -243037.72, 10745.198, -0.0077347998, 0.18377317, 82653.64, 223441.5, 0.0, 10.002464, 9.998152 
6.7514056e+2, 2.956342e+2, 208516.9, -137275.23, 10403.378, -0.010713439, 0.2241151, 208829.63, 251629.55, 0.0000000040864183, 10.002684, 9.998099 
6.751515e+2, 3.0563056e+2, 261443.86, -155618.33, 1724.0188, -0.0052385516, 0.08127986, 261450.98, 261450.98, 0.0000003121116, 10.003009, 9.997482 
6.751627e+2, 3.156286e+2, 390572.44, 18655.3, -2439.9382, 0.03209943, 0.13440104, 390588.44, 390588.44, 0.0000020895884, 10.003414, 9.998485 
6.849421e+2, 1.2562597e+2, -1875431.6, -1671362.0, -75096.92, 0.07790722, 0.05533713, -1646705.6, 62164.297, 0.0, 9.998386, 10.001073 
6.8495595e+2, 1.3562648e+2, -1781949.6, -1614603.0, 69541.76, 0.13835712, 0.0347621, -1589477.1, 21387.297, 0.0, 9.9985075, 10.00074 
6.849676e+2, 1.4562713e+2, -1654136.6, -1485067.0, 11485.796, 0.044171948, 0.018664628, -1484290.4, 28568.002, 0.0, 9.998646, 10.000884 
6.849796e+2, 1.5562835e+2, -1531739.4, -1374187.3, 9928.831, 0.08347221, 0.051454667, -1373564.1, 41283.04, 0.0, 9.998809, 10.000894 
6.849915e+2, 1.6562925e+2, -1422027.5, -1303308.1, 28356.088, 0.08443365, 0.06811292, -1296883.1, 19955.951, 0.0, 9.99903, 10.000601 
6.850033e+2, 1.7562987e+2, -1286213.0, -1188866.5, 28845.904, 0.050949268, 0.068030335, -1180960.9, 37872.855, 0.0, 9.999297, 10.000585 
6.850152e+2, 1.8563025e+2, -1191264.8, -1156078.4, 27247.1, 0.034224175, 0.078601636, -1141238.3, -20407.0, 0.0, 9.999551, 10.000014 
6.850273e+2, 1.9563045e+2, -1056329.6, -1038284.5, 27512.994, 0.032284155, 0.09595501, -1018352.44, 4478.489, 0.0, 9.999796, 10.000032 
6.850391e+2, 2.0563053e+2, -916958.56, -928272.75, 11859.793, 0.027844299, 0.10394678, -909475.75, 15355.399, 0.0, 10.0001135, 9.999962 
6.850507e+2, 2.1563049e+2, -764831.3, -805288.1, 8731.593, 0.020771846, 0.10258151, -763027.3, 63804.6, 0.0, 10.00049, 9.999952 
6.850625e+2, 2.2563034e+2, -661943.7, -758692.8, 16298.785, 0.013563044, 0.11855505, -659271.75, 69562.99, 0.0, 10.000755, 9.999472 
6.850743e+2, 2.356301e+2, -537991.44, -648020.1, 20042.902, 0.006655406, 0.14587684, -534454.1, 96385.33, 0.0, 10.000933, 9.999473 
6.85086e+2, 2.4562964e+2, -418188.97, -574901.1, 13197.197, -0.001472358, 0.16921185, -417085.34, 115760.266, 0.0, 10.001235, 9.999156 
6.8509746e+2, 2.5562897e+2, -263063.16, -451013.9, 14836.717, -0.010522899, 0.18750788, -261899.16, 172953.97, 0.0, 10.001635, 9.999142 
6.851091e+2, 2.6562786e+2, -159557.25, -415207.38, 14151.932, -0.010136137, 0.191782, -158776.23, 178088.72, 0.0, 10.001952, 9.998562 
6.8512064e+2, 2.7562633e+2, -24948.188, -300045.75, 13332.628, -0.0023028047, 0.18145953, -24303.531, 214576.92, 0.0, 10.002206, 9.998557 
6.8513215e+2, 2.8562474e+2, 86347.445, -245450.56, 4001.685, -0.0012661545, 0.19046338, 86395.7, 227290.69, 0.0, 10.002512, 9.998113 
6.8514335e+2, 2.956231e+2, 231179.38, -130760.09, -1392.4528, -0.0054731523, 0.21583715, 231184.73, 274093.34, 0.0000000009738006, 10.002859, 9.99806 
6.851547e+2, 3.0561945e+2, 278380.44, -152169.22, -10918.478, 0.003319911, 0.07781613, 278657.16, 278657.16, 0.00000022618863, 10.003146, 9.997439 
6.851662e+2, 3.1561765e+2, 381459.7, 5060.71, -15348.71, 0.047851745, 0.15193044, 382084.53, 382084.53, 0.0000018662819, 10.003391, 9.998402 
6.949407e+2, 1.2561452e+2, -1875278.3, -1671576.0, -73922.68, 0.09261887, 0.061617844, -1647577.1, 61405.78, 0.0, 9.998388, 10.00107 
6.949545e+2, 1.3561523e+2, -1780397.4, -1611515.5, 73804.3, 0.14720449, 0.058224972, -1583807.6, 27168.076, 0.0, 9.9985075, 10.000761 
6.949664e+2, 1.4561585e+2, -1650016.5, -1476271.5, 17361.193, 0.05875067, 0.034846846, -1474553.6, 38416.145, 0.0, 9.998644, 10.000945 
6.949785e+2, 1.5561692e+2, -1527906.3, -1366318.5, 16199.719, 0.08718344, 0.047677062, -1364710.5, 50249.15, 0.0, 9.998809, 10.000948 
6.949905e+2, 1.6561788e+2, -1422245.1, -1303967.6, 38312.258, 0.08552009, 0.068272255, -1292642.0, 24308.791, 0.0, 9.99903, 10.000596 
6.950026e+2, 1.7561872e+2, -1286337.3, -1189085.6, 38708.527, 0.05816143, 0.09055925, -1175559.9, 43383.76, 0.0, 9.999296, 10.000584 
6.9501483e+2, 1.8561907e+2, -1189892.4, -1153104.8, 36230.52, 0.039878555, 0.09501296, -1130866.3, -9924.703, 0.0, 9.99955, 10.000035 
6.9502705e+2, 1.95619e+2, -1055379.6, -1036390.25, 36886.85, 0.029340718, 0.08380811, -1007795.7, 15147.887, 0.0, 9.999796, 10.000046 
6.950392e+2, 2.0561907e+2, -924140.75, -943350.1, 25898.666, 0.023831414, 0.09572349, -906123.2, 18820.945, 0.0, 10.0001135, 9.999859 
6.950512e+2, 2.1561922e+2, -771095.0, -818354.3, 22367.607, 0.022159182, 0.12362596, -762187.44, 64756.16, 0.0, 10.00049, 9.999863 
6.9506323e+2, 2.2561908e+2, -653362.1, -741042.75, 22901.068, 0.014306158, 0.13801508, -647741.0, 81205.086, 0.0, 10.000755, 9.999593 
6.950752e+2, 2.356187e+2, -529631.0, -631121.44, 27135.285, 0.0014150882, 0.13992102, -522831.47, 108119.695, 0.0, 10.000935, 9.999588 
6.9508713e+2, 2.4561822e+2, -413926.1, -566451.7, 28081.469, -0.004436706, 0.15469748, -408920.28, 124036.586, 0.0, 10.001236, 9.999213 
6.950992e+2, 2.5561768e+2, -259174.33, -442941.5, 29356.598, -0.0045069274, 0.1775451, -254598.58, 180364.67, 0.0, 10.001635, 9.999197 
6.9511104e+2, 2.6561666e+2, -158768.08, -413538.16, 23357.357, -0.0065779965, 0.19016209, -156644.38, 180329.55, 0.0, 10.001951, 9.998573 
6.951228e+2, 2.7561527e+2, -24643.656, -299592.0, 22789.813, -0.010110385, 0.190617, -22767.465, 216220.89, 0.0, 10.002206, 9.99856 
6.951346e+2, 2.8561357e+2, 78922.195, -261079.02, 16748.49, -0.0032508962, 0.19232412, 79745.234, 220749.47, 0.0, 10.002512, 9.998005 
6.9514644e+2, 2.956116e+2, 224026.14, -145726.6, 11232.211, 0.012150971, 0.19723639, 224367.03, 267388.03, 0.000000000021633938, 10.002859, 9.997957 
6.9515795e+2, 3.0560797e+2, 275740.22, -158113.45, -2026.6948, 0.020158857, 0.06915564, 275749.7, 275749.7, 0.00000014519733, 10.003147, 9.997398 
6.951696e+2, 3.1560647e+2, 376318.13, -6722.938, -6565.0137, 0.047445677, 0.17584075, 376430.6, 376430.6, 0.0000015881137, 10.003396, 9.998319 
7.0493907e+2, 1.2560275e+2, -1914374.5, -1682204.6, -83563.875, 0.11009533, 0.054522093, -1655255.9, 53842.64, 0.0, 9.998086, 10.001143 
7.0495296e+2, 1.3560373e+2, -1797758.8, -1609504.0, 72273.52, 0.1518505, 0.068657756, -1584957.8, 26131.14, 0.0, 9.998344, 10.000854 
7.0496505e+2, 1.4560442e+2, -1656566.9, -1475821.6, 17935.613, 0.068310894, 0.04651629, -1474059.0, 39023.313, 0.0, 9.998584, 10.000977 
7.049772e+2, 1.5560547e+2, -1522305.1, -1360334.4, 14931.582, 0.08929225, 0.052958228, -1358969.4, 56102.887, 0.0, 9.998834, 10.000977 
7.0498955e+2, 1.6560642e+2, -1417854.0, -1303552.1, 37020.35, 0.08654731, 0.071827844, -1292609.5, 24454.113, 0.0, 9.999068, 10.00058 
7.0500195e+2, 1.7560725e+2, -1288386.1, -1191632.1, 36568.145, 0.064390324, 0.09585908, -1179366.3, 39690.215, 0.0, 9.9992895, 10.000568 
7.050144e+2, 1.8560758e+2, -1187204.8, -1152995.1, 34039.73, 0.04306159, 0.100524716, -1132004.3, -10949.831, 0.0, 9.999574, 10.000025 
7.050268e+2, 1.956075e+2, -1039753.6, -1030519.9, 32295.81, 0.0224473, 0.0885207, -1002512.6, 20544.17, 0.0, 9.99991, 10.0000305 
7.0503926e+2, 2.0560755e+2, -914977.0, -945480.1, 23038.283, 0.016513439, 0.102082476, -902599.4, 22458.299, 0.0, 10.000205, 9.9998 
7.050517e+2, 2.1560767e+2, -778240.5, -827678.3, 22493.23, 0.022406837, 0.1332956, -769538.3, 57519.316, 0.0, 10.000466, 9.999809 
7.0506394e+2, 2.2560748e+2, -648631.9, -732534.56, 19255.545, 0.014545882, 0.14398262, -644423.8, 84636.36, 0.0, 10.000761, 9.999648 
7.050761e+2, 2.3560707e+2, -504251.5, -612978.7, 18834.771, -0.00457112, 0.13677023, -501081.2, 129983.72, 0.0, 10.001083, 9.999641 
7.0508844e+2, 2.4560662e+2, -395010.8, -555148.75, 18462.896, -0.007948764, 0.14841758, -392909.72, 140160.45, 0.0, 10.001357, 9.999233 
7.0510083e+2, 2.5560609e+2, -264052.94, -443449.5, 16796.258, 0.0013387183, 0.17278959, -262493.9, 172582.1, 0.0, 10.001593, 9.999213 
7.0511305e+2, 2.6560503e+2, -169469.28, -421973.63, 7297.0674, 0.0013076547, 0.18198678, -169258.6, 167828.4, 0.0, 10.001892, 9.998544 
7.0512503e+2, 2.7560353e+2, -21545.023, -301558.1, 3772.3179, -0.0059061176, 0.17520906, -21494.213, 217608.22, 0.0, 10.002242, 9.998529 
7.051372e+2, 2.8560176e+2, 83231.516, -265444.75, -643.00775, 0.0031377645, 0.1789208, 83232.7, 224351.33, 0.0, 10.002569, 9.997948 
7.051494e+2, 2.9559988e+2, 223490.55, -152058.4, -2559.8708, 0.025304824, 0.19298483, 223507.98, 266643.22, 0.0, 10.002882, 9.997903 
7.0516133e+2, 3.055962e+2, 289716.47, -153731.4, -13296.381, 0.033641297, 0.06444094, 290114.78, 290114.78, 0.00000008201181, 10.003254, 9.997377 
7.051732e+2, 3.1559458e+2, 412220.25, 3515.0906, -16622.578, 0.056409102, 0.16112481, 412895.2, 412895.2, 0.0000012936833, 10.003673, 9.998256 
7.149374e+2, 1.2559065e+2, -1904484.6, -1661008.9, -76099.625, 0.12925729, 0.033500496, -1639180.5, 70036.23, 0.0, 9.998082, 10.00129 
7.149513e+2, 1.3559198e+2, -1786243.9, -1585744.5, 81530.24, 0.15173046, 0.065564476, -1556776.6, 54427.164, 0.0, 9.998344, 10.001017 
7.149637e+2, 1.4559285e+2, -1656433.9, -1475797.4, 26990.621, 0.07236242, 0.05322714, -1471850.8, 41344.945, 0.0, 9.998585, 10.000977 
7.149761e+2, 1.5559398e+2, -1522302.0, -1360361.0, 24157.62, 0.08961159, 0.06738739, -1356834.1, 58351.023, 0.0, 9.998834, 10.000977 
7.1498865e+2, 1.6559485e+2, -1419721.3, -1307417.5, 45218.156, 0.08735218, 0.07892722, -1291474.1, 25703.11, 0.0, 9.999068, 10.000554 
7.1500134e+2, 1.7559546e+2, -1290329.3, -1195762.4, 44997.44, 0.06938355, 0.08394829, -1177773.4, 41398.625, 0.0, 9.9992895, 10.000541 
7.15014e+2, 1.8559581e+2, -1190321.1, -1159568.3, 46522.637, 0.043572694, 0.095079705, -1125946.8, -4776.868, 0.0, 9.999574, 9.999979 
7.150266e+2, 1.9559595e+2, -1042811.3, -1036879.0, 44683.31, 0.011523452, 0.109774634, -995063.5, 28106.967, 0.0, 9.99991, 9.999987 
7.150393e+2, 2.0559596e+2, -916156.25, -947980.1, 32713.662, 0.0058353976, 0.122819394, -895690.0, 29481.8, 0.0, 10.000205, 9.999783 
7.150522e+2, 2.1559584e+2, -779340.1, -830215.5, 32329.754, 0.021424817, 0.13192472, -763640.4, 63533.574, 0.0, 10.000467, 9.999792 
7.1506476e+2, 2.255956e+2, -649124.0, -733873.9, 31236.766, 0.014132525, 0.13680826, -638855.1, 90321.766, 0.0, 10.000762, 9.999639 
7.1507716e+2, 2.3559524e+2, -504693.0, -614236.0, 30678.262, -0.011411645, 0.13628623, -496686.53, 134494.13, 0.0, 10.001084, 9.999632 
7.1508974e+2, 2.4559478e+2, -396105.78, -557793.25, 27092.467, -0.012100955, 0.15001278, -391686.9, 141498.56, 0.0, 10.001358, 9.999214 
7.151025e+2, 2.5559422e+2, -265412.4, -446727.44, 25685.05, 0.006911822, 0.17306156, -261844.08, 173347.23, 0.0, 10.001595, 9.99919 
7.151151e+2, 2.65593e+2, -174091.0, -432089.7, 20253.03, 0.013201104, 0.16767415, -172510.8, 164693.2, 0.0, 10.001894, 9.998474 
7.1512747e+2, 2.7559116e+2, -25856.625, -310974.6, 16711.656, 0.0096229585, 0.1363841, -24880.445, 214341.97, 0.0, 10.002244, 9.998464 
7.1513987e+2, 2.8558952e+2, 82695.46, -266999.2, 10739.844, 0.01732165, 0.15079153, 83025.0, 224263.0, 0.0, 10.002571, 9.997936 
7.151523e+2, 2.9558796e+2, 222955.67, -153638.73, 9097.944, 0.033910833, 0.20228, 223175.33, 266426.6, 0.0, 10.002884, 9.997891 
7.1516466e+2, 3.0558416e+2, 289825.13, -153803.36, 2217.4192, 0.04358454, 0.06378852, 289836.22, 289836.22, 0.00000004119849, 10.003255, 9.997376 
7.1517706e+2, 3.1558204e+2, 408968.75, -2926.8528, -1480.2827, 0.07371649, 0.10997178, 408974.06, 408974.06, 0.0000010048329, 10.003672, 9.998213 
7.249354e+2, 1.255785e+2, -1921155.9, -1667104.5, -77009.445, 0.13346472, 0.019497665, -1645583.9, 63751.637, 0.0, 9.99796, 10.0013075 
7.2494954e+2, 1.3557999e+2, -1797620.4, -1586353.6, 72233.93, 0.14494997, 0.06203133, -1564017.6, 47303.785, 0.0, 9.998245, 10.0010605 
7.2496223e+2, 1.4558092e+2, -1661813.6, -1477312.1, 14679.344, 0.07379982, 0.054227617, -1476151.5, 37161.223, 0.0, 9.998544, 10.000986 
7.2497493e+2, 1.5558209e+2, -1515163.1, -1356107.3, 12367.914, 0.086242415, 0.072117016, -1355151.3, 60150.52, 0.0, 9.998879, 10.000983 
7.249877e+2, 1.6558291e+2, -1406559.4, -1303388.5, 31934.338, 0.08130774, 0.08084196, -1294303.9, 22990.416, 0.0, 9.999168, 10.000532 
7.250006e+2, 1.7558344e+2, -1272435.0, -1189559.0, 32102.287, 0.063549966, 0.07792746, -1178578.9, 40711.117, 0.0, 9.999424, 10.000519 
7.2501355e+2, 1.855838e+2, -1177803.6, -1156170.6, 36514.246, 0.041076686, 0.0924898, -1128904.5, -7616.665, 0.0, 9.999671, 9.999955 
7.2502655e+2, 1.9558403e+2, -1043954.44, -1040116.4, 36246.613, 0.014428486, 0.11959949, -1005738.06, 17549.598, 0.0, 9.999914, 9.999962 
7.2503954e+2, 2.0558403e+2, -917142.5, -951694.2, 24928.682, 0.0059930375, 0.13385588, -904088.6, 21200.508, 0.0, 10.000213, 9.999753 
7.2505254e+2, 2.155838e+2, -768306.25, -828209.94, 23642.277, 0.01238768, 0.13536343, -760099.6, 67192.59, 0.0, 10.000557, 9.999763 
7.2506547e+2, 2.2558348e+2, -634447.1, -731102.1, 21310.818, 0.0051230816, 0.1364883, -629957.06, 99338.625, 0.0, 10.000882, 9.9996 
7.250782e+2, 2.3558308e+2, -491916.8, -612149.2, 18438.395, -0.01288926, 0.13494502, -489152.72, 142146.89, 0.0, 10.00119, 9.999596 
7.2509116e+2, 2.4558257e+2, -381438.97, -553332.1, 11279.9795, -0.008974987, 0.14500915, -380701.94, 152602.88, 0.0, 10.001471, 9.999191 
7.251042e+2, 2.5558195e+2, -247604.17, -440954.06, 9744.909, 0.012259583, 0.16243534, -247114.28, 188196.84, 0.0, 10.001729, 9.999166 
7.251171e+2, 2.6558062e+2, -158606.77, -430238.16, 8224.924, 0.021987744, 0.1541914, -158357.95, 178966.3, 0.0, 10.002026, 9.998424 
7.251299e+2, 2.7557874e+2, -13504.185, -310513.44, 5989.3633, 0.022705058, 0.12235331, -13383.454, 225959.63, 0.0, 10.002353, 9.998415 
7.2514266e+2, 2.8557703e+2, 96024.84, -266614.38, -1554.4442, 0.026417771, 0.13811934, 96031.51, 237390.66, 0.0, 10.002689, 9.997882 
7.2515535e+2, 2.9557547e+2, 241213.31, -150542.39, -6178.656, 0.032461654, 0.19246541, 241310.75, 284683.75, 0.0, 10.003034, 9.99784 
7.25168e+2, 3.0557168e+2, 299643.16, -149311.48, -14318.529, 0.04573636, 0.057988293, 300099.34, 300099.34, 0.000000018939705, 10.0033245, 9.997374 
7.2518086e+2, 3.1556955e+2, 391919.25, -16124.456, -18749.184, 0.09085908, 0.10595914, 392778.94, 392778.94, 0.0000007295325, 10.003576, 9.998167 
7.3493326e+2, 1.2556629e+2, -1929480.0, -1684053.9, -67804.01, 0.12087283, 0.012336194, -1666567.5, 42887.21, 0.0, 9.997958, 10.001192 
7.349476e+2, 1.3556772e+2, -1803322.0, -1597953.6, 82400.78, 0.13121203, 0.058189187, -1568979.5, 42462.164, 0.0, 9.998244, 10.000981 
7.3496073e+2, 1.4556862e+2, -1660749.3, -1474999.0, 26938.791, 0.0724452, 0.049490612, -1471171.0, 42262.49, 0.0, 9.998543, 10.001002 
7.3497367e+2, 1.5556979e+2, -1514135.3, -1354232.5, 24656.025, 0.07870085, 0.066950485, -1350517.0, 64905.31, 0.0, 9.99888, 10.000996 
7.349867e+2, 1.6557065e+2, -1407696.1, -1306086.6, 41316.8, 0.06802389, 0.07739721, -1291407.0, 26007.627, 0.0, 9.99917, 10.000514 
7.349999e+2, 1.7557117e+2, -1273647.5, -1192196.0, 41483.46, 0.04682979, 0.07774439, -1174788.5, 44621.613, 0.0, 9.999424, 10.000501 
7.350132e+2, 1.8557154e+2, -1178051.1, -1156717.8, 45464.03, 0.03548139, 0.092750795, -1120685.9, 722.2632, 0.0, 9.999671, 9.999951 
7.350266e+2, 1.9557175e+2, -1044329.6, -1041047.4, 45429.55, 0.030844077, 0.118131354, -997229.3, 26178.889, 0.0, 9.999914, 9.999956 
7.3503983e+2, 2.0557174e+2, -920002.75, -957858.7, 37669.363, 0.016733652, 0.13530472, -896773.3, 28636.297, 0.0, 10.000214, 9.999711 
7.35053e+2, 2.1557154e+2, -771213.06, -834567.7, 36358.39, -0.0046060937, 0.14338452, -754668.1, 72744.18, 0.0, 10.000559, 9.999719 
7.350662e+2, 2.2557116e+2, -638928.44, -740780.8, 32735.525, -0.01240937, 0.142767, -629314.6, 100101.77, 0.0, 10.000883, 9.999534 
7.3507947e+2, 2.3557058e+2, -496319.56, -621473.06, 29766.363, -0.009326054, 0.13284148, -489600.66, 141821.06, 0.0, 10.00119, 9.999532 
7.350927e+2, 2.4556993e+2, -383410.75, -557633.25, 20793.795, 0.0010320678, 0.13372296, -380963.34, 152464.67, 0.0, 10.0014715, 9.999162 
7.3510593e+2, 2.555692e+2, -249298.8, -444966.9, 19416.51, 0.017283833, 0.141304, -247390.67, 188044.61, 0.0, 10.001731, 9.999137 
7.3511916e+2, 2.6556793e+2, -160660.58, -434977.0, 20193.697, 0.027670288, 0.14134969, -159181.98, 178265.66, 0.0, 10.002027, 9.99839 
7.3513234e+2, 2.7556622e+2, -16086.671, -315975.1, 18097.904, 0.033258192, 0.13197474, -14998.433, 224465.98, 0.0, 10.002354, 9.998378 
7.3514533e+2, 2.8556436e+2, 89381.914, -280300.84, 11253.625, 0.030497033, 0.14039439, 89724.17, 231206.2, 0.0, 10.002688, 9.997788 
7.351582e+2, 2.9556242e+2, 235130.95, -163068.19, 6575.433, 0.021516416, 0.16456503, 235239.5, 278739.63, 0.0, 10.003033, 9.997754 
7.351712e+2, 3.0555877e+2, 299080.72, -150809.06, -5108.529, 0.040432867, 0.04694275, 299138.72, 299138.72, 0.0000000073965225, 10.003325, 9.997363 
7.3518455e+2, 3.1555712e+2, 388675.78, -23859.16, -9620.328, 0.10696782, 0.14496604, 388900.0, 388900.0, 0.0000004773962, 10.00358, 9.998113 
7.4493104e+2, 1.255539e+2, -1936734.1, -1689574.1, -77319.07, 0.10454769, 0.017853554, -1667379.5, 42196.676, 0.0, 9.997917, 10.001173 
7.4494576e+2, 1.355553e+2, -1793111.1, -1591767.0, 80114.516, 0.117648095, 0.05925069, -1563779.9, 47783.297, 0.0, 9.998309, 10.000993 
7.4495935e+2, 1.4555615e+2, -1655210.8, -1476367.9, 24314.877, 0.072426386, 0.04733048, -1473121.0, 40434.4, 0.0, 9.998599, 10.000965 
7.4497247e+2, 1.555573e+2, -1522200.8, -1362410.5, 18312.576, 0.07092435, 0.06485638, -1360338.8, 55205.96, 0.0, 9.998843, 10.000957 
7.449857e+2, 1.655581e+2, -1416957.9, -1316518.4, 31636.578, 0.05625555, 0.07544048, -1307384.1, 10153.319, 0.0, 9.999132, 10.00046 
7.449992e+2, 1.7555858e+2, -1272747.3, -1197732.0, 28896.19, 0.035526235, 0.075927444, -1187891.9, 31641.799, 0.0, 9.999456, 10.000446 
7.4501276e+2, 1.855589e+2, -1167066.6, -1154130.8, 29919.355, 0.027255548, 0.09144063, -1129988.3, -8456.316, 0.0, 9.999759, 9.9999275 
7.450265e+2, 1.955591e+2, -1027013.1, -1035726.7, 28449.633, 0.027255436, 0.11764197, -1002588.6, 20943.475, 0.0, 10.000047, 9.999928 
7.450401e+2, 2.0555903e+2, -898863.06, -953518.4, 22913.088, 0.012115245, 0.13312612, -890528.25, 35005.68, 0.0, 10.000383, 9.999659 
7.450535e+2, 2.1555875e+2, -745473.3, -827971.2, 20605.197, -0.014607964, 0.13721788, -740613.2, 86924.32, 0.0, 10.00076, 9.999666 
7.45067e+2, 2.2555831e+2, -621927.1, -738942.3, 12832.687, -0.020351453, 0.13740034, -620536.3, 109005.67, 0.0, 10.001027, 9.999476 
7.4508065e+2, 2.3555773e+2, -497992.63, -628538.56, 10622.524, -0.009471117, 0.13250303, -497133.94, 134413.58, 0.0, 10.001206, 9.9994755 
7.4509424e+2, 2.4555703e+2, -382367.88, -561297.06, 4389.427, 0.003039062, 0.13263525, -382260.25, 151293.97, 0.0, 10.001496, 9.999124 
7.451077e+2, 2.555562e+2, -230246.98, -439427.25, 2300.7996, 0.017114447, 0.13459206, -230221.67, 205340.48, 0.0, 10.001878, 9.999104 
7.451213e+2, 2.6555488e+2, -138220.83, -421402.66, 3334.6003, 0.029461194, 0.13043705, -138181.56, 199392.94, 0.0, 10.00217, 9.998415 
7.451348e+2, 2.7555317e+2, -9347.926, -310636.78, 5515.095, 0.040285733, 0.117962115, -9247.005, 230343.7, 0.0, 10.002391, 9.998396 
7.4514806e+2, 2.8555128e+2, 77644.39, -294776.03, 2637.966, 0.040743906, 0.12484005, 77663.07, 219271.92, 0.0, 10.002646, 9.997709 
7.451613e+2, 2.955492e+2, 215001.02, -181152.11, -1128.7711, 0.03328943, 0.14882219, 215004.23, 258632.64, 0.0, 10.002931, 9.997679 
7.4517465e+2, 3.0554566e+2, 296355.34, -155690.58, -11524.682, 0.045442995, 0.043575004, 296648.97, 296648.97, 0.0000000015345106, 10.003323, 9.997331 
7.451882e+2, 3.1554416e+2, 416013.2, -18980.19, -17756.918, 0.09793622, 0.16024272, 416736.84, 416736.84, 0.00000026410652, 10.003804, 9.998038 
7.549287e+2, 1.2554136e+2, -1931538.8, -1678353.5, -63071.582, 0.08321537, 0.03604057, -1663511.6, 46188.08, 0.0, 9.997915, 10.001252 
7.549439e+2, 1.3554275e+2, -1786115.3, -1577327.4, 93752.305, 0.10376179, 0.06534786, -1541408.9, 70277.07, 0.0, 9.998309, 10.001092 
7.54958e+2, 1.4554355e+2, -1661386.5, -1489373.9, 32891.31, 0.07338624, 0.047720563, -1483299.1, 30379.281, 0.0, 9.998599, 10.000876 
7.5497127e+2, 1.5554462e+2, -1528403.0, -1375459.8, 27438.148, 0.06283977, 0.06590243, -1370686.3, 44982.473, 0.0, 9.998844, 10.000867 
7.5498474e+2, 1.655453e+2, -1423364.0, -1330010.4, 43637.54, 0.045977157, 0.075051814, -1312789.1, 4873.6367, 0.0, 9.999133, 10.000367 
7.5499856e+2, 1.7554565e+2, -1279068.8, -1210981.6, 40827.54, 0.029417038, 0.07245721, -1191866.4, 27793.898, 0.0, 9.999456, 10.000356 
7.550124e+2, 1.855459e+2, -1170328.5, -1160998.6, 40542.188, 0.01622732, 0.08848405, -1124853.9, -3194.7437, 0.0, 9.999759, 9.999881 
7.5502634e+2, 1.9554609e+2, -1030376.56, -1042897.3, 39299.203, 0.0038255502, 0.11804924, -996842.2, 26817.01, 0.0, 10.000047, 9.999879 
7.550403e+2, 2.0554592e+2, -903260.3, -962782.94, 36895.887, -0.0077636247, 0.12737691, -885618.7, 40043.44, 0.0, 10.000384, 9.999595 
7.550542e+2, 2.1554543e+2, -749874.2, -837039.6, 34219.07, -0.017926207, 0.1172322, -738045.75, 89621.836, 0.0, 10.00076, 9.999604 
7.5506806e+2, 2.2554497e+2, -625326.0, -746009.75, 19383.807, -0.019046914, 0.12068784, -622289.06, 107383.336, 0.0, 10.001027, 9.999428 
7.550818e+2, 2.3554453e+2, -501297.72, -635807.56, 17588.0, -0.013270999, 0.13374889, -499036.03, 132640.84, 0.0, 10.001207, 9.999425 
7.5509566e+2, 2.4554384e+2, -385395.38, -567999.75, 18506.508, -0.0027588098, 0.14130405, -383538.66, 150144.69, 0.0, 10.001498, 9.999077 
7.5510955e+2, 2.5554293e+2, -233033.44, -445174.6, 16067.369, 0.011872988, 0.14184813, -231823.4, 203868.27, 0.0, 10.001878, 9.999064 
7.5512344e+2, 2.6554146e+2, -132713.44, -409973.44, 11316.705, 0.027371768, 0.12160192, -132252.3, 205452.39, 0.0, 10.002169, 9.998493 
7.5513715e+2, 2.7553958e+2, -4008.9363, -299969.94, 13657.781, 0.04368358, 0.08138012, -3380.0042, 236341.73, 0.0, 10.002392, 9.998468 
7.5515085e+2, 2.8553772e+2, 72998.055, -304921.44, 12787.774, 0.056474183, 0.09214251, 73430.26, 215169.75, 0.0, 10.002648, 9.997639 
7.5516456e+2, 2.955359e+2, 210166.88, -191528.31, 9474.731, 0.06613145, 0.1448909, 210390.23, 254148.03, 0.0, 10.002933, 9.997607 
7.5517803e+2, 3.0553234e+2, 293138.8, -162883.2, 6201.0747, 0.059898667, 0.048018448, 293223.13, 293223.13, 0.00000000001992495, 10.003324, 9.997281 
7.551916e+2, 3.1553066e+2, 410025.25, -32048.785, -130.58363, 0.06493695, 0.15264927, 410025.28, 410025.28, 0.000000109993245, 10.003806, 9.997948 
7.649264e+2, 1.2552814e+2, -1971177.5, -1688050.6, -95737.234, 0.07482745, 0.052554846, -1658716.9, 51113.22, 0.0, 9.997603, 10.001335 
7.649419e+2, 1.355295e+2, -1808610.1, -1576103.1, 60269.953, 0.08365345, 0.06801977, -1561408.8, 50407.145, 0.0, 9.998103, 10.001199 
7.649564e+2, 1.4553027e+2, -1674846.6, -1500987.0, -2751.3901, 0.06552308, 0.045665197, -1500943.5, 12865.014, 0.0, 9.998529, 10.00083 
7.6497e+2, 1.5553133e+2, -1518311.4, -1375595.3, -4821.1543, 0.05651637, 0.06737131, -1375432.5, 40366.49, 0.0, 9.998935, 10.000822 
7.649839e+2, 1.6553201e+2, -1403072.6, -1322134.3, 15381.654, 0.04018501, 0.078985766, -1319309.6, -1516.3883, 0.0, 9.999281, 10.00035 
7.6499796e+2, 1.7553237e+2, -1262165.9, -1204614.6, 18118.766, 0.024132183, 0.077955216, -1199385.4, 20405.492, 0.0, 9.99958, 10.0003395 
7.6501215e+2, 1.8553258e+2, -1150245.6, -1152790.1, 21976.576, 0.009475506, 0.09012424, -1129504.5, -7714.4194, 0.0, 9.999903, 9.9998665 
7.650264e+2, 1.9553265e+2, -1002607.8, -1031083.56, 23231.041, -0.0062656556, 0.11139406, -989598.7, 34191.98, 0.0, 10.000245, 9.999865 
7.6504064e+2, 2.0553246e+2, -890428.7, -960307.75, 21633.186, -0.013537381, 0.12154324, -884273.6, 41520.01, 0.0, 10.000488, 9.999561 
7.6505494e+2, 2.1553202e+2, -768331.4, -849932.0, 21069.076, -0.01302613, 0.11981017, -763212.5, 64586.406, 0.0, 10.00065, 9.999568 
7.6506907e+2, 2.2553149e+2, -642648.56, -762671.9, 6803.3545, -0.013055121, 0.12301068, -642264.2, 87540.18, 0.0, 10.000944, 9.999353 
7.650831e+2, 2.355309e+2, -486187.44, -636726.1, 3058.2368, -0.013937675, 0.12858911, -486125.34, 145684.84, 0.0, 10.001347, 9.9993515 
7.6509714e+2, 2.4553014e+2, -366673.28, -563229.94, 3641.0369, -0.00539198, 0.13386571, -366605.88, 167211.38, 0.0, 10.001645, 9.999039 
7.651114e+2, 2.555292e+2, -238013.34, -451542.1, 1662.0325, 0.011016555, 0.13646853, -238000.4, 197825.11, 0.0, 10.001861, 9.999029 
7.651256e+2, 2.655277e+2, -137830.16, -412554.84, -6850.0137, 0.028631406, 0.11160802, -137659.47, 200179.38, 0.0, 10.002135, 9.998492 
7.6513964e+2, 2.755257e+2, 5312.225, -295783.44, -10473.017, 0.047255654, 0.061284047, 5676.069, 245532.67, 0.0, 10.002458, 9.998466 
7.6515365e+2, 2.855238e+2, 88522.76, -301687.38, -12048.348, 0.06280576, 0.071954206, 88894.414, 230768.98, 0.0, 10.002773, 9.997601 
7.6516765e+2, 2.9552203e+2, 229671.0, -186213.06, -12645.814, 0.07560321, 0.1326934, 230055.17, 273947.88, 0.0, 10.003084, 9.99757 
7.6518154e+2, 3.055185e+2, 308639.88, -154941.84, -8024.929, 0.06735204, 0.040947597, 308778.75, 308778.75, 0.0, 10.003428, 9.997285 
7.651954e+2, 3.1551683e+2, 406598.34, -38161.375, -11034.299, 0.06524967, 0.1429699, 406871.94, 406871.94, 0.000000028836135, 10.003802, 9.997907 
7.7492404e+2, 1.2551422e+2, -1965566.8, -1675528.4, -76772.0, 0.07875675, 0.06718457, -1656460.6, 53506.887, 0.0, 9.9976, 10.001423 
7.749397e+2, 1.3551557e+2, -1800697.5, -1559397.1, 77870.5, 0.057024974, 0.06714228, -1536449.8, 75503.5, 0.0, 9.998101, 10.001315 
7.749548e+2, 1.4551634e+2, -1675257.0, -1501905.5, 11823.9, 0.048449207, 0.04109319, -1501102.6, 12842.787, 0.0, 9.998529, 10.000824 
7.749689e+2, 1.5551746e+2, -1518383.3, -1375968.6, 9937.306, 0.05171017, 0.06924535, -1375278.6, 40656.96, 0.0, 9.998936, 10.000819 
7.7498317e+2, 1.6551824e+2, -1398876.1, -1313671.0, 26292.725, 0.0387061, 0.0872099, -1306210.8, 11718.139, 0.0, 9.999281, 10.000408 
7.7499753e+2, 1.755187e+2, -1258129.8, -1196411.5, 29270.764, 0.019545406, 0.09244865, -1184737.6, 35187.72, 0.0, 9.99958, 10.000396 
7.75012e+2, 1.8551888e+2, -1148809.4, -1149905.0, 34646.746, 0.0068423715, 0.09643161, -1114706.1, 7218.433, 0.0, 9.999903, 9.999887 
7.750266e+2, 1.9551876e+2, -1001324.1, -1028411.6, 35541.938, -0.0032739404, 0.097758874, -976832.9, 47093.426, 0.0, 10.000244, 9.999884 
7.750412e+2, 2.0551866e+2, -890769.56, -961022.75, 27506.75, -0.0055709784, 0.115520544, -881281.2, 44647.36, 0.0, 10.000488, 9.9995575 
7.750557e+2, 2.155185e+2, -769038.75, -851580.0, 27352.908, -0.00019614582, 0.14431602, -760797.3, 67134.06, 0.0, 10.000651, 9.9995575 
7.7507013e+2, 2.255179e+2, -649786.25, -777678.44, 21653.61, -0.002589367, 0.14389613, -646219.56, 83718.21, 0.0, 10.000945, 9.99925 
7.7508444e+2, 2.3551689e+2, -493027.25, -650952.6, 17645.88, -0.0116613, 0.117402785, -491079.6, 140867.7, 0.0, 10.001347, 9.999254 
7.750988e+2, 2.4551594e+2, -368900.97, -567936.56, 11492.015, -0.0051450655, 0.110959135, -368239.63, 165716.13, 0.0, 10.001645, 9.999006 
7.751133e+2, 2.5551504e+2, -240296.39, -456498.78, 9732.703, 0.0140826795, 0.118814036, -239859.14, 196104.34, 0.0, 10.001862, 9.998995 
7.7512777e+2, 2.655135e+2, -143361.6, -424345.13, 4941.0684, 0.032841597, 0.10033402, -143274.73, 194702.1, 0.0, 10.002136, 9.99841 
7.751421e+2, 2.755115e+2, -65.2136, -307260.72, 1285.4447, 0.0510408, 0.057122204, -59.834816, 239935.3, 0.0, 10.002459, 9.998386 
7.751564e+2, 2.8550956e+2, 88231.43, -302674.7, -723.1386, 0.06020651, 0.06402441, 88232.77, 230246.63, 0.0, 10.002774, 9.997593 
7.7517056e+2, 2.9550764e+2, 229827.81, -186450.2, -1082.5632, 0.06253107, 0.11250389, 229830.63, 273863.53, 0.0, 10.003086, 9.997568 
7.751849e+2, 3.0550414e+2, 312225.03, -147923.2, 5608.026, 0.06741752, 0.022837618, 312293.38, 312293.38, 0.0, 10.00343, 9.997333 
7.7519953e+2, 3.1550258e+2, 406497.34, -38092.266, 2307.9578, 0.09581316, 0.1311332, 406509.3, 406509.3, 0.0000000029769756, 10.0038, 9.997909 
7.849215e+2, 1.2549981e+2, -1967878.8, -1682399.5, -76891.8, 0.06921957, 0.058497813, -1663006.6, 47102.086, 0.0, 9.997608, 10.001371 
7.8493756e+2, 1.3550122e+2, -1801557.4, -1561201.3, 64858.89, 0.035549004, 0.069150105, -1544816.4, 67277.83, 0.0, 9.998101, 10.001302 
7.849532e+2, 1.4550208e+2, -1673663.0, -1495004.5, -6816.6943, 0.040814973, 0.04666697, -1494744.8, 19341.281, 0.0, 9.998514, 10.000878 
7.849678e+2, 1.5550318e+2, -1519216.0, -1370601.1, -3937.8452, 0.04870722, 0.07111597, -1370496.9, 45578.824, 0.0, 9.998905, 10.000871 
7.849824e+2, 1.65504e+2, -1403321.3, -1318447.1, 7935.3115, 0.034475837, 0.089518525, -1317711.6, 357.24347, 0.0, 9.999263, 10.000384 
7.84997e+2, 1.7550448e+2, -1258343.5, -1198700.5, 4589.892, 0.010432462, 0.09888527, -1198349.4, 21715.936, 0.0, 9.999589, 10.000376 
7.850118e+2, 1.8550466e+2, -1148486.6, -1142291.4, 8497.4, -0.00016574608, 0.101513974, -1136344.6, -14280.3545, 0.0, 9.999873, 9.999953 
7.850268e+2, 1.9550456e+2, -1014319.44, -1027931.25, 12641.1045, -0.0028800238, 0.09706705, -1006768.56, 17296.963, 0.0, 10.000126, 9.999944 
7.850417e+2, 2.0550446e+2, -906825.6, -975300.94, 1642.7708, -0.0013472595, 0.11542839, -906786.25, 19281.506, 0.0, 10.000406, 9.999498 
7.850565e+2, 2.155043e+2, -764579.1, -855653.1, -2325.3816, 0.0051065786, 0.15020655, -764519.8, 63551.246, 0.0, 10.000709, 9.999501 
7.850712e+2, 2.2550368e+2, -638605.25, -770542.7, -670.1414, 0.0044507696, 0.1507406, -638601.8, 91475.66, 0.0, 10.001015, 9.999266 
7.8508586e+2, 2.3550265e+2, -495525.6, -650538.6, 3733.0532, -0.0024527719, 0.12078749, -495435.75, 136650.98, 0.0, 10.001323, 9.999268 
7.851005e+2, 2.4550161e+2, -377001.88, -576914.75, -3027.9998, 0.002867951, 0.10699062, -376956.03, 157139.7, 0.0, 10.001612, 9.9989605 
7.851152e+2, 2.5550056e+2, -240198.1, -461862.34, -5759.9087, 0.01813759, 0.10453787, -240048.53, 196056.2, 0.0, 10.001885, 9.998946 
7.851299e+2, 2.6549903e+2, -139450.13, -431869.34, -7857.462, 0.033927877, 0.09027745, -139239.16, 198879.39, 0.0, 10.002204, 9.998326 
7.8514457e+2, 2.7549708e+2, 9171.884, -311694.16, -11829.758, 0.050061062, 0.06317885, 9607.435, 249744.06, 0.0, 10.002562, 9.998306 
7.851592e+2, 2.8549507e+2, 102726.875, -294460.4, -14986.36, 0.05925752, 0.07068588, 103291.53, 245447.25, 0.0, 10.002869, 9.997603 
7.851737e+2, 2.9549307e+2, 237523.33, -181584.7, -14188.466, 0.06331845, 0.10727571, 238003.11, 282178.75, 0.0, 10.003135, 9.997578 
7.851884e+2, 3.054896e+2, 312051.72, -149005.55, -7099.0596, 0.06807562, 0.019779209, 312161.0, 312161.0, 0.0, 10.003434, 9.997323 
7.8520334e+2, 3.1548807e+2, 398095.53, -47731.99, -14398.343, 0.09375458, 0.1341228, 398560.06, 398560.06, 0.0, 10.003768, 9.997858 
7.949189e+2, 1.2548487e+2, -1981903.6, -1711490.1, -56863.97, 0.044498898, 0.025406599, -1700019.1, 10234.584, 0.0, 9.997608, 10.001173 
7.9493546e+2, 1.3548651e+2, -1812025.6, -1582833.9, 82275.734, 0.01914084, 0.074279115, -1556357.1, 55881.66, 0.0, 9.998101, 10.001154 
7.9495174e+2, 1.4548746e+2, -1665515.6, -1478165.1, 7054.16, 0.042747002, 0.06279788, -1477899.9, 36330.13, 0.0, 9.998514, 10.000995 
7.949667e+2, 1.5548855e+2, -1511712.8, -1355166.1, 10416.791, 0.04735577, 0.07303953, -1354476.1, 61743.176, 0.0, 9.998905, 10.000977 
7.9498154e+2, 1.6548929e+2, -1410801.4, -1334108.8, 20050.783, 0.027266664, 0.08586307, -1329183.0, -10969.992, 0.0, 9.999263, 10.000277 
7.9499644e+2, 1.7548968e+2, -1265059.8, -1212792.5, 16589.213, -0.0032814716, 0.09724715, -1207971.9, 12238.927, 0.0, 9.999589, 10.000279 
7.950116e+2, 1.8548992e+2, -1140725.8, -1126298.3, 17757.682, -0.011640805, 0.1053048, -1114345.0, 7864.176, 0.0, 9.999873, 10.000064 
7.950269e+2, 1.9549002e+2, -1007310.0, -1013479.8, 22020.8, -0.005197516, 0.109137625, -988159.06, 36049.18, 0.0, 10.000126, 10.000044 
7.9504204e+2, 2.0548984e+2, -914773.94, -991866.5, 12757.927, -0.00090317597, 0.121318266, -912717.5, 13493.726, 0.0, 10.000406, 9.999385 
7.950571e+2, 2.154894e+2, -771738.4, -870588.44, 8860.771, 0.002948904, 0.1380189, -770950.4, 57267.387, 0.0, 10.000709, 9.999399 
7.950722e+2, 2.2548884e+2, -629525.25, -751766.94, 10737.44, 0.007964715, 0.14381053, -628589.25, 101634.12, 0.0, 10.001015, 9.999394 
7.9508734e+2, 2.3548819e+2, -487100.3, -633023.7, 15020.482, 0.013247905, 0.13806202, -485570.22, 146658.14, 0.0, 10.001323, 9.999389 
7.951023e+2, 2.4548715e+2, -381300.0, -585945.44, 6907.6216, 0.018240903, 0.12129025, -381067.1, 153170.0, 0.0, 10.001612, 9.9988985 
7.9511714e+2, 2.5548577e+2, -244428.77, -471099.03, 4341.759, 0.023160417, 0.093784496, -244345.63, 191903.47, 0.0, 10.001887, 9.998882 
7.951321e+2, 2.6548418e+2, -145414.95, -444779.78, 5215.88, 0.03195672, 0.08155131, -145324.1, 192939.67, 0.0, 10.002205, 9.998237 
7.951471e+2, 2.754824e+2, 3532.6182, -323665.6, 1251.4014, 0.04396621, 0.0785737, 3537.404, 243818.44, 0.0, 10.002562, 9.998224 
7.95162e+2, 2.8548044e+2, 104508.305, -291014.63, -5265.1563, 0.059170596, 0.09087862, 104578.38, 246878.53, 0.0, 10.00287, 9.997627 
7.951769e+2, 2.954783e+2, 239027.73, -178889.0, -4494.6978, 0.07715001, 0.11663502, 239076.08, 283396.84, 0.0, 10.003136, 9.997596 
7.9519176e+2, 3.0547485e+2, 308035.72, -157800.16, 5156.8384, 0.06952729, 0.031315967, 308092.8, 308092.8, 0.0, 10.003435, 9.997262 
7.952067e+2, 3.154733e+2, 391245.1, -62049.504, -1721.5923, 0.060323205, 0.14941877, 391251.66, 391251.66, 0.0, 10.003767, 9.99776 
8.049164e+2, 1.2546973e+2, -1971125.6, -1720469.0, -67425.164, 0.030578272, 0.013069261, -1703483.0, 6918.3545, 0.0, 9.997743, 10.001046 
8.049335e+2, 1.3547143e+2, -1809784.5, -1591573.6, 73928.0, 0.0059466376, 0.07788972, -1568886.3, 43500.496, 0.0, 9.998159, 10.001066 
8.049502e+2, 1.454724e+2, -1663220.8, -1478271.1, -6475.148, 0.041467763, 0.07462194, -1478044.8, 36333.4, 0.0, 9.998535, 10.000983 
8.049655e+2, 1.554735e+2, -1510449.6, -1355386.6, -12554.321, 0.038305353, 0.08321269, -1354376.8, 61990.89, 0.0, 9.998918, 10.00097 
8.049807e+2, 1.6547419e+2, -1406491.8, -1327623.8, -3354.3086, 0.016946396, 0.09128042, -1327481.4, -9119.919, 0.0, 9.999273, 10.000317 
8.0499595e+2, 1.7547455e+2, -1259764.1, -1206197.4, 3975.2727, -0.008814781, 0.09530963, -1205904.0, 14455.2, 0.0, 9.999608, 10.000316 
8.050114e+2, 1.8547483e+2, -1142405.3, -1131105.4, 711.3012, -0.015743148, 0.106427506, -1131060.9, -8703.377, 0.0, 9.99988, 10.000028 
8.0502695e+2, 1.9547501e+2, -1014045.75, -1020234.3, -5858.249, -0.01077942, 0.12207578, -1010514.8, 13841.555, 0.0, 10.000095, 10.000012 
8.0504245e+2, 2.0547482e+2, -915562.0, -985155.7, -10088.917, -0.0048329397, 0.1329612, -914128.94, 12230.367, 0.0, 10.000371, 9.999448 
8.050578e+2, 2.1547432e+2, -769333.25, -862489.75, -952.3012, 0.0032042118, 0.1373145, -769323.56, 59042.35, 0.0, 10.000696, 9.99946 
8.0507326e+2, 2.2547378e+2, -631842.3, -750878.44, 1457.3236, 0.012753957, 0.13963525, -631824.5, 98546.625, 0.0, 10.000991, 9.999413 
8.050887e+2, 2.3547316e+2, -495290.8, -635328.7, -2560.187, 0.02289103, 0.13795975, -495244.0, 137131.42, 0.0, 10.00126, 9.999403 
8.0510396e+2, 2.4547212e+2, -384874.4, -591886.0, -11553.632, 0.026404956, 0.12176143, -384231.6, 150152.64, 0.0, 10.001606, 9.998861 
8.051191e+2, 2.5547066e+2, -227871.55, -466921.44, -12476.733, 0.024712859, 0.09169228, -227222.11, 209174.78, 0.0, 10.002018, 9.998848 
8.0513436e+2, 2.6546907e+2, -126163.5, -434440.4, -8583.316, 0.03027588, 0.07963682, -125924.7, 212487.1, 0.0, 10.002334, 9.998246 
8.051496e+2, 2.754673e+2, 5062.5557, -322000.9, -5445.346, 0.04175861, 0.07925297, 5153.1914, 245582.1, 0.0, 10.002568, 9.998232 
8.0516493e+2, 2.854654e+2, 103241.36, -295274.78, -10135.759, 0.06115647, 0.09766994, 103498.984, 245946.9, 0.0, 10.002877, 9.997594 
8.0518025e+2, 2.9546335e+2, 253782.05, -174787.9, -13517.772, 0.087133706, 0.13237244, 254207.98, 298676.56, 0.0, 10.00325, 9.997569 
8.0519533e+2, 3.0545995e+2, 327160.8, -139574.6, -2305.5713, 0.07452264, 0.049747854, 327172.2, 327172.2, 0.0, 10.003529, 9.997342 
8.0521035e+2, 3.154584e+2, 386503.78, -59960.957, 501.3048, 0.04854699, 0.15661776, 386504.34, 386504.34, 0.0, 10.003716, 9.997798 
8.1491405e+2, 1.2545441e+2, -1974753.9, -1728221.6, -49518.285, 0.026795857, 0.02233693, -1718647.3, -8095.475, 0.0, 9.997744, 10.000993 
8.149315e+2, 1.3545603e+2, -1811821.5, -1595757.8, 88584.22, -0.004190205, 0.079848684, -1564082.6, 48455.508, 0.0, 9.998158, 10.001038 
8.149487e+2, 1.4545697e+2, -1673076.9, -1498821.4, 7351.696, 0.03673504, 0.08176585, -1498511.8, 16018.518, 0.0, 9.998535, 10.000843 
8.1496423e+2, 1.55458e+2, -1519194.8, -1373760.3, 1554.9961, 0.021419099, 0.10177901, -1373743.6, 42777.246, 0.0, 9.998919, 10.000843 
8.149798e+2, 1.6545871e+2, -1393319.3, -1300505.8, 8927.348, 0.003393952, 0.105975874, -1299654.9, 18859.438, 0.0, 9.999273, 10.000503 
8.149956e+2, 1.7545909e+2, -1247833.6, -1181595.3, 16201.198, -0.0064292303, 0.09310347, -1177845.0, 42665.46, 0.0, 9.999608, 10.000484 
8.1501126e+2, 1.8545935e+2, -1155189.4, -1157739.8, 8695.808, -0.012699816, 0.104901016, -1147675.8, -25166.715, 0.0, 9.99988, 9.9998455 
8.15027e+2, 1.954595e+2, -1025418.8, -1043979.9, 2278.6833, -0.019636793, 0.13586085, -1025143.2, -633.38, 0.0, 10.000095, 9.999849 
8.150427e+2, 2.054594e+2, -899107.8, -951076.06, 1871.1392, -0.013180034, 0.1501517, -899040.5, 27471.355, 0.0, 10.000371, 9.999682 
8.150585e+2, 2.1545906e+2, -753865.75, -830416.1, 10901.9375, 0.0056750164, 0.14778218, -752343.44, 76171.86, 0.0, 10.000695, 9.999681 
8.1507427e+2, 2.2545844e+2, -638238.56, -764284.7, 11221.314, 0.018725976, 0.1382762, -637247.4, 93273.22, 0.0, 10.000991, 9.99932 
8.1508994e+2, 2.3545761e+2, -501345.3, -648245.4, 7543.19, 0.026634997, 0.12125625, -500959.0, 131568.67, 0.0, 10.001261, 9.999314 
8.151056e+2, 2.4545655e+2, -386098.66, -594596.94, 3643.3596, 0.027491512, 0.10889992, -386035.03, 148501.83, 0.0, 10.001606, 9.998842 
8.151211e+2, 2.554553e+2, -228864.03, -468613.72, 2456.8499, 0.022596285, 0.09767541, -228838.86, 207709.17, 0.0, 10.002016, 9.998837 
8.151366e+2, 2.654537e+2, -119300.61, -419792.34, -64.26361, 0.028508259, 0.084258325, -119300.59, 219261.92, 0.0, 10.002331, 9.998348 
8.1515217e+2, 2.7545187e+2, 11568.418, -308493.88, 3250.85, 0.043285564, 0.06647839, 11601.433, 252181.47, 0.0, 10.002568, 9.998325 
8.1516784e+2, 2.8545004e+2, 97072.586, -308129.72, 3439.5837, 0.06512464, 0.092108004, 97101.78, 239700.67, 0.0, 10.002876, 9.997506 
8.151835e+2, 2.9544815e+2, 248494.97, -185524.6, -26.967293, 0.09265619, 0.15378174, 248494.97, 293113.9, 0.0, 10.003249, 9.997496 
8.151989e+2, 3.054449e+2, 341471.84, -109645.99, 4646.3755, 0.08184965, 0.074441, 341519.7, 341519.7, 0.0, 10.003527, 9.997549 
8.152141e+2, 3.1544325e+2, 397760.63, -36566.17, 7223.551, 0.056613196, 0.15563326, 397880.72, 397880.72, 0.0, 10.003716, 9.997959 
8.2491195e+2, 1.2543875e+2, -1948929.3, -1724984.1, -67860.25, 0.023785088, 0.04385409, -1706025.9, 4680.3276, 0.0, 9.997961, 10.00091 
8.249296e+2, 1.3544014e+2, -1798569.8, -1595252.8, 63954.4, -0.017964898, 0.08614492, -1576808.8, 35885.8, 0.0, 9.998276, 10.000984 
8.249471e+2, 1.4544101e+2, -1671663.4, -1506193.0, -15447.804, 0.02996225, 0.087496646, -1504763.3, 9924.352, 0.0, 9.99858, 10.000771 
8.2496303e+2, 1.5544204e+2, -1524084.6, -1383452.5, -15929.264, 0.008933237, 0.11416052, -1381670.8, 35007.844, 0.0, 9.998917, 10.000777 
8.2497895e+2, 1.6544278e+2, -1393933.4, -1288141.5, -11537.586, -0.007544871, 0.11855059, -1286897.8, 31773.691, 0.0, 9.999215, 10.000615 
8.249951e+2, 1.7544322e+2, -1259180.1, -1175121.5, -9984.359, -0.009092053, 0.10072389, -1173951.8, 46714.58, 0.0, 9.999479, 10.000591 
8.2501113e+2, 1.8544349e+2, -1175331.4, -1170981.3, -15489.41, -0.01194635, 0.11064387, -1157515.0, -34850.176, 0.0, 9.999757, 9.999813 
8.25027e+2, 1.9544362e+2, -1034406.94, -1051053.4, -10528.401, -0.019852303, 0.14206633, -1029309.1, -4642.737, 0.0, 10.000046, 9.999825 
8.25043e+2, 2.0544358e+2, -895947.3, -937286.3, -8790.045, -0.012056029, 0.1569202, -894155.9, 32511.953, 0.0, 10.0003395, 9.999791 
8.250592e+2, 2.1544334e+2, -755577.75, -819654.9, -9148.221, 0.010359529, 0.15531114, -754297.3, 74372.125, 0.0, 10.000634, 9.999784 
8.2507527e+2, 2.2544274e+2, -643741.1, -770228.1, -10364.953, 0.020207686, 0.14231396, -642897.4, 87777.16, 0.0, 10.000967, 9.99929 
8.250912e+2, 2.3544179e+2, -492643.3, -646996.5, -9510.956, 0.019109247, 0.11821512, -492059.47, 140623.38, 0.0, 10.001333, 9.999288 
8.251071e+2, 2.4544072e+2, -380775.28, -587468.94, -9082.651, 0.020435855, 0.1048178, -380376.94, 154315.2, 0.0, 10.001624, 9.998882 
8.25123e+2, 2.5543952e+2, -249960.53, -474185.44, -6123.5854, 0.023941932, 0.09734083, -249793.42, 186909.03, 0.0, 10.001851, 9.998878 
8.2513887e+2, 2.6543802e+2, -144638.27, -430006.97, -10768.927, 0.03199045, 0.08654636, -144232.47, 194484.02, 0.0, 10.002149, 9.998365 
8.251547e+2, 2.7543622e+2, 3993.902, -310040.66, -13557.981, 0.043582488, 0.07060646, 4578.161, 245312.06, 0.0, 10.002507, 9.998343 
8.2517064e+2, 2.8543442e+2, 93906.13, -307487.34, -10338.735, 0.061948255, 0.09823668, 94172.25, 236924.94, 0.0, 10.002846, 9.997525 
8.2518667e+2, 2.954326e+2, 237357.7, -188333.45, -6432.7144, 0.08602358, 0.16198993, 237454.89, 282227.63, 0.0, 10.003161, 9.997519 
8.2520235e+2, 3.054294e+2, 336695.8, -102777.6, -7061.56, 0.07821663, 0.08814483, 336809.25, 336809.25, 0.0, 10.003455, 9.99763 
8.2521784e+2, 3.1542784e+2, 402660.3, -29425.713, -13484.324, 0.059728246, 0.1681227, 403080.72, 403080.72, 0.0, 10.00373, 9.998002 
8.3490986e+2, 1.2542272e+2, -1956678.4, -1741554.8, -52954.883, 0.020379972, 0.07787938, -1729225.9, -18361.168, 0.0, 9.997962, 10.000796 
8.349277e+2, 1.354238e+2, -1804088.8, -1606980.5, 74866.836, -0.035678014, 0.097133756, -1581768.9, 31086.98, 0.0, 9.998277, 10.000904 
8.349456e+2, 1.4542457e+2, -1671868.8, -1506874.0, -3495.6294, 0.020884382, 0.09202771, -1506800.0, 8049.756, 0.0, 9.99858, 10.000766 
8.3496183e+2, 1.5542562e+2, -1524414.8, -1384229.3, -3596.8662, 0.0006093842, 0.120230705, -1384137.0, 32703.684, 0.0, 9.998917, 10.000772 
8.349781e+2, 1.654264e+2, -1391207.0, -1282661.3, -1776.1324, -0.016027816, 0.12888789, -1282632.3, 36200.793, 0.0, 9.999215, 10.000653 
8.349945e+2, 1.7542696e+2, -1256104.3, -1169031.6, -134.55624, -0.016846767, 0.11811986, -1169031.5, 51795.38, 0.0, 9.999479, 10.000633 
8.350109e+2, 1.8542728e+2, -1167009.8, -1153915.1, -4829.4346, -0.01363245, 0.123613626, -1152326.8, -29502.033, 0.0, 9.999757, 9.99993 
8.350271e+2, 1.9542737e+2, -1026523.1, -1034842.6, 134.0494, -0.011731569, 0.14078663, -1026521.0, -1694.8358, 0.0, 10.000046, 9.999936 
8.3504343e+2, 2.0542733e+2, -896923.2, -939435.4, 2034.4677, -0.0017609576, 0.15344122, -896826.0, 30001.146, 0.0, 10.0003395, 9.999777 
8.3505994e+2, 2.1542719e+2, -756381.1, -821494.56, 1761.5017, 0.017078003, 0.15996476, -756333.5, 72494.49, 0.0, 10.000634, 9.999772 
8.3507615e+2, 2.2542661e+2, -641829.8, -766252.06, 3147.1707, 0.017201481, 0.15150328, -641750.25, 89082.414, 0.0, 10.000967, 9.999318 
8.3509237e+2, 2.3542571e+2, -490688.94, -642682.8, 3807.6282, 0.0006303523, 0.12831475, -490593.6, 142247.22, 0.0, 10.001332, 9.999318 
8.351086e+2, 2.4542466e+2, -374233.34, -573652.1, -866.5557, 0.005398504, 0.10926627, -374229.56, 160620.33, 0.0, 10.001622, 9.998979 
8.3512485e+2, 2.5542346e+2, -243676.1, -461275.9, 2336.0928, 0.028439213, 0.09115944, -243651.03, 193208.98, 0.0, 10.001851, 9.998967 
8.351411e+2, 2.6542202e+2, -149055.14, -439433.47, 2273.0635, 0.04030359, 0.08660381, -149037.34, 189836.2, 0.0, 10.00215, 9.998301 
8.351572e+2, 2.7542034e+2, -2.7930422, -318392.66, -470.15927, 0.042291302, 0.09049586, -2.09877, 240888.27, 0.0, 10.002507, 9.998286 
8.351734e+2, 2.8541854e+2, 102133.83, -290288.72, 1295.5537, 0.05163776, 0.11537948, 102138.1, 245047.3, 0.0, 10.002845, 9.997643 
8.3518964e+2, 2.9541662e+2, 245124.95, -172154.08, 4979.3706, 0.068202, 0.15821525, 245184.36, 290114.16, 0.0, 10.00316, 9.99763 
8.352056e+2, 3.0541354e+2, 334412.1, -107902.805, 2739.259, 0.06454889, 0.09173564, 334429.06, 334429.06, 0.0, 10.003456, 9.997595 
8.352215e+2, 3.1541213e+2, 398201.34, -39450.1, -3622.599, 0.057259466, 0.19108441, 398231.3, 398231.3, 0.0, 10.003732, 9.997932 
8.4490776e+2, 1.2540606e+2, -1944219.1, -1740506.0, -72725.12, 0.015366725, 0.09443397, -1717207.9, -6178.491, 0.0, 9.998069, 10.0007515 
8.449258e+2, 1.354071e+2, -1795388.0, -1604517.6, 55377.055, -0.04827806, 0.111728944, -1589614.8, 23406.121, 0.0, 9.998344, 10.000888 
8.449442e+2, 1.4540787e+2, -1672070.4, -1506385.8, -20638.916, 0.016792709, 0.10679256, -1503853.5, 11161.2295, 0.0, 9.998577, 10.000771 
8.4496063e+2, 1.5540886e+2, -1539917.4, -1391099.4, -19620.576, -0.0061393026, 0.13025038, -1388556.0, 28449.86, 0.0, 9.998808, 10.000777 
8.4497714e+2, 1.6540965e+2, -1410608.4, -1291730.3, -18693.076, -0.024478832, 0.13801037, -1288860.1, 30138.123, 0.0, 9.999082, 10.000655 
8.449938e+2, 1.7541021e+2, -1268572.4, -1174116.8, -19859.3, -0.025699457, 0.1296361, -1170111.1, 50880.93, 0.0, 9.999391, 10.000641 
8.450105e+2, 1.8541062e+2, -1165566.1, -1138319.1, -24652.848, -0.019498996, 0.13552074, -1123775.9, -786.84955, 0.0, 9.999703, 10.000064 
8.4502715e+2, 1.9541083e+2, -1021814.2, -1018038.44, -18492.293, -0.011793336, 0.151583, -1001337.9, 23650.96, 0.0, 10.000016, 10.000066 
8.4504384e+2, 2.0541081e+2, -898121.1, -936238.9, -14442.296, 0.000156268, 0.15801893, -893267.2, 33722.137, 0.0, 10.000316, 9.99981 
8.450605e+2, 2.1541059e+2, -758559.0, -818747.25, -11280.934, 0.017754622, 0.1539147, -756514.1, 72476.5, 0.0, 10.000604, 9.999805 
8.450771e+2, 2.2541006e+2, -652079.4, -766701.25, -7063.05, 0.016562128, 0.14548935, -651645.8, 79349.16, 0.0, 10.000877, 9.999358 
8.450935e+2, 2.3540927e+2, -515906.06, -650299.2, -5631.6343, -0.001486286, 0.13103491, -515670.5, 117331.56, 0.0, 10.00114, 9.999358 
8.4511006e+2, 2.4540831e+2, -396993.44, -581159.94, -13239.056, 0.0040800883, 0.11715199, -396046.63, 138963.88, 0.0, 10.0014515, 9.999009 
8.451267e+2, 2.5540715e+2, -248335.94, -460311.84, -14849.566, 0.029839363, 0.10158586, -247300.73, 189719.52, 0.0, 10.001806, 9.998995 
8.4514326e+2, 2.6540574e+2, -150682.06, -442512.2, -13601.9375, 0.041545115, 0.09640624, -150049.47, 188984.52, 0.0, 10.002149, 9.99828 
8.4515965e+2, 2.75404e+2, -5288.5005, -322867.0, -13249.025, 0.04105653, 0.09674596, -4736.724, 236314.8, 0.0, 10.00248, 9.998269 
8.4517616e+2, 2.854022e+2, 99122.375, -286412.34, -13753.025, 0.04529735, 0.122591645, 99612.36, 242682.53, 0.0, 10.002802, 9.997691 
8.451926e+2, 2.9540038e+2, 241618.44, -169138.02, -15378.71, 0.05438668, 0.17044543, 242193.4, 287283.25, 0.0, 10.003118, 9.997671 
8.45209e+2, 3.0539736e+2, 334306.5, -115362.76, -20271.027, 0.0518255, 0.11216064, 335218.47, 335218.47, 0.0, 10.003488, 9.997528 
8.452253e+2, 3.153959e+2, 414888.28, -42341.824, -29008.379, 0.051635686, 0.21053055, 416721.3, 416721.3, 0.0, 10.003895, 9.997833 
8.549058e+2, 1.2538873e+2, -1942442.8, -1737228.0, -58421.734, 0.0073314114, 0.09262194, -1721761.8, -10561.702, 0.0, 9.99807, 10.000774 
8.549241e+2, 1.3539003e+2, -1792229.4, -1597877.9, 64733.785, -0.055777393, 0.12999104, -1578290.6, 34898.66, 0.0, 9.998343, 10.000934 
8.5494274e+2, 1.4539088e+2, -1670965.5, -1504225.1, -12562.791, 0.017812753, 0.13211595, -1503284.0, 11898.164, 0.0, 9.998576, 10.000786 
8.5495937e+2, 1.553918e+2, -1538736.8, -1388952.8, -10995.874, -0.011437189, 0.14440906, -1388149.9, 29024.123, 0.0, 9.998809, 10.0007925 
8.5497606e+2, 1.6539252e+2, -1412989.3, -1296942.4, -7296.897, -0.03313537, 0.14596544, -1296485.4, 22681.898, 0.0, 9.999082, 10.000619 
8.549931e+2, 1.7539302e+2, -1270452.6, -1178217.9, -8375.549, -0.03587203, 0.13530879, -1177463.5, 43698.645, 0.0, 9.999391, 10.000613 
8.550101e+2, 1.8539353e+2, -1155069.6, -1116699.0, -13034.94, -0.029704422, 0.14638947, -1112689.9, 10467.949, 0.0, 9.999703, 10.000212 
8.55027e+2, 1.9539401e+2, -1011495.44, -996811.1, -6968.962, -0.020037789, 0.17424218, -994030.4, 31124.05, 0.0, 10.000016, 10.000212 
8.55044e+2, 2.0539401e+2, -892559.8, -924820.56, -3899.4172, -0.00629241, 0.17052804, -892095.2, 35059.09, 0.0, 10.000316, 9.999889 
8.5506105e+2, 2.1539357e+2, -753030.44, -807401.2, -781.8641, 0.01242034, 0.13748662, -753019.25, 76137.84, 0.0, 10.000604, 9.999884 
8.55078e+2, 2.2539307e+2, -648640.5, -759652.5, 2440.3667, 0.018048314, 0.12472758, -648586.9, 82574.21, 0.0, 10.000877, 9.999407 
8.550948e+2, 2.3539248e+2, -512499.47, -643344.3, 4074.4985, 0.011984648, 0.12658076, -512372.72, 120793.72, 0.0, 10.00114, 9.999406 
8.5511166e+2, 2.4539168e+2, -399397.84, -586202.0, -247.82579, 0.015814481, 0.12820835, -399397.53, 135776.22, 0.0, 10.001451, 9.998975 
8.5512847e+2, 2.5539064e+2, -250740.53, -465337.38, -1868.5643, 0.028216632, 0.12776525, -250724.27, 186458.72, 0.0, 10.001805, 9.998961 
8.5514534e+2, 2.6538914e+2, -149311.1, -439650.97, -1467.0201, 0.035962865, 0.115575165, -149303.67, 189893.9, 0.0, 10.002148, 9.9983 
8.551621e+2, 2.7538717e+2, -3984.6558, -320146.6, -1097.4144, 0.03977406, 0.09025108, -3980.8464, 237236.23, 0.0, 10.002479, 9.998288 
8.551789e+2, 2.8538543e+2, 97516.055, -289832.03, -2195.182, 0.04247859, 0.12032179, 97528.5, 240763.88, 0.0, 10.002802, 9.997668 
8.5519564e+2, 2.9538387e+2, 239940.08, -173006.92, -3616.644, 0.043874666, 0.19733994, 239971.75, 285224.53, 0.0, 10.0031185, 9.997644 
8.5521233e+2, 3.0538088e+2, 327573.5, -129698.19, -4900.4, 0.039561532, 0.14816077, 327626.0, 327626.0, 0.0, 10.003489, 9.997429 
8.552291e+2, 3.1537908e+2, 405836.9, -61073.586, -13570.547, 0.042762574, 0.22577682, 406231.0, 406231.0, 0.0, 10.003894, 9.997705 
8.649038e+2, 1.2537123e+2, -1932212.3, -1737625.1, -49504.2, 0.0016386536, 0.0797512, -1725755.0, -14383.663, 0.00000000000000000000885557, 9.998163, 10.000726 
8.649223e+2, 1.3537268e+2, -1801342.5, -1604931.0, 62830.527, -0.06696109, 0.1344369, -1586551.9, 26807.799, 0.0, 9.998293, 10.000909 
8.6494124e+2, 1.453736e+2, -1683375.5, -1511897.5, -15635.9795, 0.013798387, 0.1435538, -1510483.4, 4868.7573, 0.0, 9.9985, 10.000771 
8.6495805e+2, 1.553744e+2, -1540851.9, -1391605.9, -16360.731, -0.018794797, 0.14637427, -1389833.4, 27511.684, 0.0, 9.998801, 10.000777 
8.649751e+2, 1.6537508e+2, -1408550.8, -1293826.6, -10590.136, -0.038761914, 0.14593585, -1292857.3, 26481.33, 0.0, 9.999108, 10.0006275 
8.649925e+2, 1.7537564e+2, -1265537.8, -1174288.8, -8322.397, -0.035241086, 0.13986686, -1173535.9, 47797.203, 0.0, 9.999418, 10.000627 
8.6500984e+2, 1.8537623e+2, -1149579.3, -1104566.4, -14913.302, -0.028196177, 0.15303376, -1100073.8, 23254.229, 0.0, 9.999701, 10.000297 
8.6502695e+2, 1.9537678e+2, -1014549.7, -988915.25, -13766.426, -0.022313317, 0.18078859, -982923.0, 42400.42, 0.0, 9.999955, 10.000295 
8.6504424e+2, 2.0537683e+2, -901240.56, -923425.25, -13844.969, -0.0120789455, 0.17407976, -894592.5, 32730.225, 0.0, 10.000233, 9.999939 
8.650615e+2, 2.1537638e+2, -760712.5, -805586.4, -12926.781, 0.0032672216, 0.13557737, -757255.1, 72070.39, 0.0, 10.000527, 9.999932 
8.650788e+2, 2.2537589e+2, -657708.9, -761891.7, -12972.139, 0.014737814, 0.12087689, -656117.94, 75211.45, 0.0, 10.000806, 9.999425 
8.6509603e+2, 2.3537533e+2, -521227.44, -645490.0, -13732.3545, 0.022606634, 0.12380951, -519727.97, 113606.54, 0.0, 10.001071, 9.999424 
8.6511314e+2, 2.4537458e+2, -408738.72, -592523.4, -14890.638, 0.026041698, 0.12946022, -407540.06, 127801.56, 0.0, 10.001395, 9.998959 
8.6513025e+2, 2.5537357e+2, -256869.23, -469849.63, -15254.135, 0.02575892, 0.1355195, -255782.25, 181568.47, 0.0, 10.001771, 9.998946 
8.6514735e+2, 2.653721e+2, -153978.2, -438910.94, -15781.574, 0.029057352, 0.1240768, -153106.78, 186258.47, 0.0, 10.002104, 9.998325 
8.651645e+2, 2.7537012e+2, -13739.382, -321956.16, -15084.778, 0.035314266, 0.09466986, -13002.86, 228381.94, 0.0, 10.0024, 9.998313 
8.6518157e+2, 2.8536838e+2, 91573.67, -295337.34, -13795.362, 0.037034385, 0.12430999, 92064.92, 235468.1, 0.0, 10.002773, 9.997643 
8.651987e+2, 2.953668e+2, 251571.3, -169748.97, -15292.158, 0.034509085, 0.20386334, 252125.61, 297546.3, 0.0, 10.003209, 9.997623 
8.652158e+2, 3.0536383e+2, 340868.03, -122712.84, -13403.838, 0.030399546, 0.15741801, 341255.25, 341255.25, 0.0, 10.003578, 9.997434 
8.652329e+2, 3.1536198e+2, 401696.06, -65765.45, -15112.133, 0.036097, 0.2255152, 402184.1, 402184.1, 0.0, 10.003878, 9.997681 
8.749019e+2, 1.253536e+2, -1940707.8, -1755472.8, -39953.285, -0.0025780813, 0.05549578, -1747222.8, -35679.766, 0.0000000055054987, 9.998163, 10.000604 
8.749204e+2, 1.3535509e+2, -1808309.3, -1619327.9, 67201.56, -0.08235085, 0.12453894, -1597868.0, 15663.7295, 0.0, 9.998293, 10.000811 
8.749396e+2, 1.4535598e+2, -1686929.6, -1519421.5, -4725.6826, 0.00419513, 0.14066245, -1519288.3, -3763.5637, 0.0, 9.9985, 10.000719 
8.749567e+2, 1.5535666e+2, -1544320.9, -1398939.3, -5200.192, -0.0283868, 0.13616434, -1398753.4, 18765.47, 0.0, 9.998801, 10.000728 
8.749742e+2, 1.6535738e+2, -1404701.9, -1286020.4, 789.8462, -0.041486666, 0.13812056, -1286015.1, 33497.13, 0.0, 9.999109, 10.000682 
8.74992e+2, 1.753581e+2, -1261662.6, -1166585.4, 3085.3618, -0.023986235, 0.14329216, -1166485.3, 55019.76, 0.0, 9.999419, 10.000679 
8.7500966e+2, 1.8535872e+2, -1148060.1, -1101735.0, -5533.8745, -0.015171825, 0.15549281, -1101083.1, 22416.443, 0.0, 9.9997015, 10.000316 
8.75027e+2, 1.9535917e+2, -1013109.2, -986171.0, -4396.7993, -0.018824188, 0.17149529, -985471.5, 40024.23, 0.0, 9.999956, 10.000314 
8.7504435e+2, 2.0535928e+2, -899685.7, -920394.2, -3074.9236, -0.0173385, 0.16875663, -899238.75, 28255.787, 0.0, 10.000233, 9.999959 
8.7506187e+2, 2.1535902e+2, -759185.9, -802659.1, -2216.6384, -0.009722344, 0.14767271, -759073.1, 70422.62, 0.0, 10.000528, 9.999952 
8.7507945e+2, 2.2535853e+2, -658553.56, -763939.5, -3351.8987, 0.0066125654, 0.13340226, -658447.06, 73052.61, 0.0, 10.000807, 9.999412 
8.750971e+2, 2.3535785e+2, -522021.63, -647514.56, -3998.2449, 0.03036338, 0.1227518, -521894.38, 111611.73, 0.0, 10.001072, 9.99941 
8.751146e+2, 2.4535699e+2, -408764.25, -592751.9, -1102.4677, 0.034744147, 0.12142379, -408757.66, 126756.24, 0.0, 10.001395, 9.998957 
8.7513196e+2, 2.5535598e+2, -256886.22, -469697.03, -1538.9172, 0.02234451, 0.12572165, -256875.1, 180648.06, 0.0, 10.001769, 9.998948 
8.7514937e+2, 2.6535457e+2, -152162.56, -434805.66, -5016.957, 0.02072605, 0.12230837, -152073.53, 187463.23, 0.0, 10.002102, 9.998355 
8.7516683e+2, 2.753528e+2, -12019.148, -318126.28, -4133.55, 0.027784968, 0.10921592, -11963.341, 229591.2, 0.0, 10.0023985, 9.998341 
8.7518424e+2, 2.85351e+2, 89267.64, -299458.4, 2235.1016, 0.029021187, 0.13423164, 89280.49, 232853.9, 0.0, 10.002769, 9.997617 
8.7520176e+2, 2.953492e+2, 249266.73, -173107.86, 664.60815, 0.026038473, 0.19159906, 249267.78, 294861.16, 0.0, 10.003202, 9.997603 
8.752192e+2, 3.0534625e+2, 346973.56, -108964.484, -2246.9753, 0.023948412, 0.14200762, 346984.63, 346984.63, 0.0, 10.003573, 9.997531 
8.752367e+2, 3.1534445e+2, 406519.8, -56059.555, -3917.5203, 0.030878127, 0.20905752, 406552.97, 406552.97, 0.0, 10.003879, 9.997747 
8.8490003e+2, 1.2533589e+2, -1934331.9, -1758544.9, -56113.887, -0.011089416, 0.060648102, -1742159.8, -30443.246, 0.00000006865042, 9.998234, 10.000548 
8.849186e+2, 1.3533725e+2, -1804731.3, -1621669.0, 50027.652, -0.09661374, 0.12074255, -1608889.5, 4817.001, 0.0, 9.998336, 10.000772 
8.84938e+2, 1.4533816e+2, -1684092.5, -1519903.6, -11543.454, -0.004457128, 0.13977802, -1519096.0, -3396.423, 0.0, 9.998528, 10.000702 
8.8495547e+2, 1.5533887e+2, -1541740.0, -1399612.9, -9241.174, -0.03947383, 0.14036663, -1399014.5, 18679.006, 0.0, 9.998828, 10.00071 
8.849732e+2, 1.6533959e+2, -1409305.5, -1289864.5, -6209.486, -0.048541464, 0.14457165, -1289542.5, 30144.373, 0.0, 9.999085, 10.000667 
8.849914e+2, 1.7534028e+2, -1280372.0, -1177008.0, -9355.835, -0.020856079, 0.14961326, -1176168.0, 45512.004, 0.0, 9.999298, 10.000666 
8.850093e+2, 1.8534085e+2, -1162497.5, -1102138.0, -17710.324, -0.008607698, 0.15553887, -1097325.4, 26349.252, 0.0, 9.999575, 10.000374 
8.8502693e+2, 1.9534126e+2, -1016239.3, -981399.4, -13766.489, -0.014968654, 0.15999971, -976616.4, 49054.27, 0.0, 9.999908, 10.000369 
8.8504463e+2, 2.053414e+2, -903561.4, -926912.7, -13380.829, -0.015125953, 0.15992637, -897478.44, 30190.77, 0.0, 10.000227, 9.999917 
8.8506246e+2, 2.1534124e+2, -761859.2, -808400.4, -17357.258, -0.007955479, 0.15359494, -756098.9, 73571.23, 0.0, 10.000529, 9.999912 
8.850803e+2, 2.2534077e+2, -657593.8, -766845.0, -21980.242, 0.0076248287, 0.14403866, -653337.44, 78336.77, 0.0, 10.000829, 9.99938 
8.850982e+2, 2.3534001e+2, -516150.2, -647902.4, -23924.158, 0.03009909, 0.1297849, -511940.44, 121740.8, 0.0, 10.001127, 9.99938 
8.85116e+2, 2.453391e+2, -406742.7, -589228.0, -19650.703, 0.03408469, 0.12227269, -404650.6, 131038.91, 0.0, 10.001399, 9.998979 
8.851337e+2, 2.55338e+2, -273030.4, -474922.22, -18484.955, 0.02202074, 0.11790424, -271351.9, 166347.19, 0.0, 10.001648, 9.998971 
8.851514e+2, 2.6533666e+2, -174661.4, -446856.28, -22346.152, 0.018242141, 0.11739328, -172839.08, 166873.3, 0.0, 10.001953, 9.998343 
8.851691e+2, 2.7533498e+2, -26152.451, -326059.3, -24411.86, 0.021016097, 0.11726232, -24178.365, 217550.9, 0.0, 10.002307, 9.998329 
8.851869e+2, 2.853332e+2, 69213.6, -307660.9, -16739.86, 0.020255849, 0.14059891, 69955.68, 213704.03, 0.0, 10.002626, 9.997629 
8.852048e+2, 2.9533124e+2, 207691.45, -191181.86, -15694.92, 0.017463118, 0.18385601, 208308.06, 254077.52, 0.0, 10.002909, 9.997621 
8.852226e+2, 3.0532834e+2, 322571.56, -105600.86, -13069.857, 0.016241685, 0.13184781, 322970.13, 322970.13, 0.0, 10.003341, 9.997665 
8.852405e+2, 3.1532663e+2, 417367.53, -38760.96, -12288.667, 0.02362778, 0.19347036, 417698.38, 417698.38, 0.0, 10.0039015, 9.997854 
8.9489806e+2, 1.2531814e+2, -1933419.3, -1757203.5, -47174.668, -0.025841242, 0.09609243, -1745369.1, -33477.5, 0.00000033535434, 9.998235, 10.000558 
8.949168e+2, 1.353192e+2, -1803215.3, -1618567.6, 53198.527, -0.10979206, 0.12389783, -1604337.4, 9546.473, 0.00000000007521531, 9.998336, 10.000794 
8.9493644e+2, 1.4532012e+2, -1682919.3, -1517574.0, -809.6004, -0.012028678, 0.14147957, -1517570.0, -1693.4852, 0.0, 9.998528, 10.000718 
8.949541e+2, 1.5532102e+2, -1540650.0, -1397589.6, 1706.6935, -0.052397918, 0.15909219, -1397569.3, 20299.363, 0.0, 9.998829, 10.000724 
8.9497215e+2, 1.6532171e+2, -1415391.4, -1302804.8, 1622.3538, -0.060277965, 0.16529316, -1302781.4, 17080.959, 0.0, 9.999085, 10.000577 
8.949906e+2, 1.7532222e+2, -1286117.9, -1189171.5, -1455.7761, -0.026002927, 0.15898782, -1189149.6, 32708.043, 0.0, 9.999298, 10.000583 
8.9500886e+2, 1.8532267e+2, -1155726.9, -1088305.1, -5464.9224, -0.008647821, 0.15330577, -1087865.1, 35987.79, 0.0, 9.999575, 10.000469 
8.9502686e+2, 1.9532306e+2, -1009869.9, -968444.5, -1583.4076, -0.010894296, 0.14632824, -968384.06, 57463.918, 0.0, 9.999908, 10.000458 
8.950449e+2, 2.0532319e+2, -910792.8, -942220.4, -2346.2195, -0.005714785, 0.1476229, -910618.6, 17227.918, 0.0, 10.000228, 9.999812 
8.950631e+2, 2.1532306e+2, -768876.2, -823282.6, -6329.477, 0.00802035, 0.1535341, -768149.5, 61698.797, 0.0, 10.00053, 9.99981 
8.9508116e+2, 2.253226e+2, -660814.25, -773816.44, -11119.189, 0.01743096, 0.15283974, -659730.5, 72122.24, 0.0, 10.00083, 9.999332 
8.950992e+2, 2.3532185e+2, -519246.3, -654617.2, -12988.575, 0.022100834, 0.14449687, -518011.34, 115848.44, 0.0, 10.001128, 9.999334 
8.951172e+2, 2.4532087e+2, -403563.34, -582991.75, -10613.323, 0.024283266, 0.13156751, -402937.75, 132930.52, 0.0, 10.0014, 9.999022 
8.9513534e+2, 2.553197e+2, -269924.6, -468987.2, -9319.63, 0.024445089, 0.11198189, -269489.22, 168389.11, 0.0, 10.00165, 9.999011 
8.9515334e+2, 2.653183e+2, -178129.52, -454468.13, -9544.924, 0.021184344, 0.10951464, -177800.22, 162091.61, 0.0, 10.001954, 9.998291 
8.9517134e+2, 2.753167e+2, -29435.879, -332957.3, -11643.506, 0.014839644, 0.119261876, -28989.873, 212918.81, 0.0, 10.002307, 9.998282 
8.951894e+2, 2.853149e+2, 72425.375, -301166.63, -6516.522, 0.0106477225, 0.1436768, 72539.01, 216466.72, 0.0, 10.002626, 9.997674 
8.952075e+2, 2.9531294e+2, 211439.5, -184037.83, -5297.097, 0.00857166, 0.18017066, 211510.44, 257459.22, 0.0, 10.002911, 9.997668 
8.952258e+2, 3.0531013e+2, 334215.8, -81444.39, 7261.22, 0.0071535357, 0.12640563, 334342.63, 334342.63, 0.0, 10.003341, 9.997832 
8.952443e+2, 3.1530848e+2, 426197.84, -18779.969, 7678.062, 0.013938153, 0.17735596, 426330.28, 426330.28, 0.0, 10.003894, 9.997996 
9.0489614e+2, 1.252999e+2, -1946322.1, -1754373.8, -61277.04, -0.036155418, 0.11703208, -1736480.0, -24408.53, 0.0000010631732, 9.998108, 10.000638 
9.04915e+2, 1.3530083e+2, -1802360.9, -1608184.6, 38088.113, -0.11791729, 0.12262171, -1600980.8, 13083.103, 0.000000007369457, 9.9983, 10.000882 
9.0493494e+2, 1.4530174e+2, -1686333.8, -1520443.9, -9629.892, -0.014097312, 0.13655537, -1519886.8, -3830.6523, 0.0, 9.99851, 10.000706 
9.049528e+2, 1.5530267e+2, -1552526.9, -1404788.9, -9336.795, -0.05740248, 0.15905659, -1404201.1, 13846.874, 0.0, 9.9987545, 10.00071 
9.049711e+2, 1.6530333e+2, -1424887.0, -1316135.8, -9675.878, -0.06420019, 0.166574, -1315281.5, 4760.7007, 0.0, 9.99906, 10.000498 
9.0499e+2, 1.7530374e+2, -1273548.4, -1191551.9, -12169.976, -0.025578551, 0.15832315, -1189783.8, 32255.096, 0.0, 9.999422, 10.000506 
9.0500855e+2, 1.8530412e+2, -1130522.8, -1073717.3, -18283.232, -0.005480381, 0.14827202, -1068341.4, 55693.12, 0.0, 9.999739, 10.00049 
9.0502685e+2, 1.9530447e+2, -994027.1, -958595.56, -20090.717, -0.006277041, 0.13491298, -949525.44, 76503.97, 0.0, 10.000009, 10.000477 
9.050452e+2, 2.053046e+2, -905616.1, -944934.25, -21560.676, -0.0014794951, 0.13790019, -896097.44, 31930.494, 0.0, 10.000286, 9.999764 
9.050637e+2, 2.1530451e+2, -766286.5, -827124.75, -21422.504, 0.010139821, 0.15268603, -759500.1, 70529.67, 0.0, 10.00057, 9.9997635 
9.0508205e+2, 2.2530404e+2, -659903.6, -776381.75, -23922.156, 0.016925078, 0.15419918, -655181.94, 76852.7, 0.0, 10.000849, 9.999305 
9.051003e+2, 2.3530321e+2, -521913.44, -658973.0, -24272.947, 0.018647473, 0.14182296, -517741.72, 116300.49, 0.0, 10.001123, 9.999307 
9.051186e+2, 2.453022e+2, -403421.63, -587735.06, -24625.059, 0.020491611, 0.12853268, -400188.3, 135862.77, 0.0, 10.001422, 9.998978 
9.0513694e+2, 2.55301e+2, -259438.14, -468794.6, -29625.928, 0.022507904, 0.11210651, -255326.53, 182734.77, 0.0, 10.001743, 9.998967 
9.051553e+2, 2.6529956e+2, -168732.98, -455399.3, -31619.441, 0.018703545, 0.11024492, -165286.78, 174788.52, 0.0, 10.002043, 9.998241 
9.051736e+2, 2.7529788e+2, -30927.361, -338950.88, -33614.387, 0.009907156, 0.11855353, -27301.723, 214791.19, 0.0, 10.002319, 9.998235 
9.0519196e+2, 2.8529605e+2, 75410.71, -299849.28, -29559.023, 0.0031798498, 0.14177692, 77724.79, 221837.03, 0.0, 10.002647, 9.997673 
9.052104e+2, 2.9529408e+2, 227636.83, -176308.72, -31673.965, -0.0019615104, 0.17708187, 230105.34, 276238.63, 0.0, 10.003023, 9.997667 
9.052291e+2, 3.0529135e+2, 337680.56, -77542.27, -23034.012, -0.004350204, 0.1307202, 338954.44, 338954.44, 0.0, 10.003355, 9.997851 
9.052479e+2, 3.1528974e+2, 388723.72, -36986.72, -33069.246, 0.0029778962, 0.18429258, 391277.22, 391277.22, 0.0, 10.003637, 9.997994 
9.1489416e+2, 1.2528118e+2, -1935651.9, -1732480.1, -48617.94, -0.043072492, 0.12391148, -1721445.5, -9189.885, 0.0000026057617, 9.998108, 10.000789 
9.1491324e+2, 1.3528213e+2, -1791620.6, -1585778.4, 44596.906, -0.121390745, 0.11634374, -1576531.6, 37714.75, 0.00000007607973, 9.9983, 10.001037 
9.1493344e+2, 1.4528304e+2, -1689405.4, -1526847.6, -771.472, -0.011011559, 0.124540895, -1526844.0, -10605.851, 0.0, 9.99851, 10.000663 
9.149516e+2, 1.5528385e+2, -1555740.1, -1411486.4, -329.82925, -0.054479863, 0.14033476, -1411485.6, 6745.7627, 0.0, 9.998754, 10.000664 
9.149702e+2, 1.6528447e+2, -1429979.1, -1326814.1, 3638.524, -0.06026152, 0.14852107, -1326686.0, -6459.4814, 0.0, 9.99906, 10.000425 
9.149894e+2, 1.7528488e+2, -1278482.4, -1202020.0, 1143.8494, -0.019677205, 0.14751688, -1202002.9, 20220.342, 0.0, 9.999422, 10.000434 
9.150083e+2, 1.8528523e+2, -1134334.0, -1081845.1, -8347.601, 0.00074605085, 0.14033775, -1080549.5, 43669.73, 0.0, 9.999739, 10.000434 
9.150269e+2, 1.9528551e+2, -997661.8, -966358.6, -10236.431, -0.001262903, 0.12568851, -963308.44, 62906.168, 0.0, 10.00001, 10.000423 
9.150455e+2, 2.0528562e+2, -905016.25, -943965.2, -11238.26, -0.0024266827, 0.13072406, -902006.2, 26206.889, 0.0, 10.000287, 9.999771 
9.150641e+2, 2.152856e+2, -765703.1, -826249.9, -11092.468, -0.001322392, 0.15102097, -763734.94, 66479.55, 0.0, 10.000571, 9.999769 
9.1508275e+2, 2.252851e+2, -660352.94, -777702.4, -13955.457, 0.0062304833, 0.1483227, -658716.1, 73503.47, 0.0, 10.000851, 9.999296 
9.1510147e+2, 2.3528412e+2, -522493.94, -660598.6, -14258.603, 0.01936036, 0.12251847, -521037.2, 113191.18, 0.0, 10.001124, 9.999295 
9.1512007e+2, 2.4528308e+2, -412222.16, -606356.56, -12870.292, 0.022392316, 0.11366652, -411372.63, 124865.09, 0.0, 10.001423, 9.99885 
9.151386e+2, 2.5528196e+2, -268077.22, -487016.3, -17855.639, 0.016426193, 0.11788204, -266630.56, 171617.25, 0.0, 10.001744, 9.998842 
9.151572e+2, 2.652805e+2, -171912.14, -462372.2, -21445.275, 0.010970127, 0.119156204, -170337.33, 169925.2, 0.0, 10.002044, 9.998194 
9.1517586e+2, 2.7527863e+2, -34008.453, -345878.0, -23400.47, 0.005767184, 0.11518765, -32262.426, 210019.23, 0.0, 10.002321, 9.998187 
9.151945e+2, 2.852767e+2, 72092.76, -306881.8, -15884.65, -0.0026284154, 0.13503084, 72757.39, 217059.05, 0.0, 10.002648, 9.997624 
9.152132e+2, 2.952747e+2, 223823.11, -183638.16, -17957.535, -0.013894656, 0.17465796, 224613.0, 270935.56, 0.0, 10.00302, 9.997619 
9.1523224e+2, 3.0527207e+2, 328931.47, -94819.77, -12443.96, -0.017968206, 0.14409757, 329296.56, 329296.56, 0.0, 10.00335, 9.997735 
9.152514e+2, 3.1527048e+2, 378573.13, -56803.0, -22286.498, -0.009971096, 0.2101693, 379710.97, 379710.97, 0.0, 10.003632, 9.997861 
9.248921e+2, 1.2526216e+2, -1931832.0, -1722122.4, -39996.47, -0.049606778, 0.10716565, -1714753.1, -2311.9617, 0.000005355975, 9.998098, 10.000865 
9.2491144e+2, 1.3526314e+2, -1794753.4, -1578457.4, 41076.703, -0.12131436, 0.09455092, -1570919.3, 43511.47, 0.00000033393198, 9.998241, 10.001114 
9.24932e+2, 1.4526409e+2, -1696746.0, -1540222.3, -3159.2168, -0.0071187536, 0.10605783, -1540158.5, -23736.219, 0.0, 9.998503, 10.000574 
9.2495036e+2, 1.5526482e+2, -1540957.5, -1414058.4, -6254.2495, -0.057598468, 0.1250794, -1413750.9, 4665.8525, 0.0, 9.9988985, 10.000577 
9.249693e+2, 1.6526543e+2, -1411789.1, -1323277.1, -3825.6323, -0.06386941, 0.13831006, -1323112.0, -2699.7185, 0.0, 9.9992075, 10.000378 
9.249888e+2, 1.7526585e+2, -1280315.6, -1208183.4, -4561.848, -0.017509986, 0.14416775, -1207896.1, 14512.923, 0.0, 9.9994335, 10.000386 
9.2500806e+2, 1.8526614e+2, -1142469.4, -1092605.3, -13201.596, 0.0053691976, 0.13657226, -1089325.8, 35079.8, 0.0, 9.999713, 10.000372 
9.250269e+2, 1.9526629e+2, -996964.25, -972635.3, -15824.217, 0.0025706512, 0.11461063, -964840.3, 61561.84, 0.0, 10.000043, 10.000364 
9.250458e+2, 2.0526636e+2, -897179.06, -943120.6, -18809.818, -0.0022124539, 0.11737156, -890460.3, 37940.855, 0.0, 10.000354, 9.999744 
9.250646e+2, 2.1526633e+2, -756966.8, -825031.9, -21384.74, -0.007238978, 0.14028479, -750805.8, 79596.76, 0.0, 10.000645, 9.9997425 
9.250836e+2, 2.2526577e+2, -653131.56, -779541.8, -27626.22, -0.00069052866, 0.13865459, -647357.75, 85050.31, 0.0, 10.000923, 9.999248 
9.2510253e+2, 2.3526475e+2, -516502.16, -663096.75, -30937.86, 0.016091548, 0.11229021, -510240.38, 124177.04, 0.0, 10.001189, 9.999247 
9.251215e+2, 2.4526367e+2, -411692.9, -616077.7, -28110.746, 0.018562514, 0.10608154, -407897.1, 128530.305, 0.0, 10.001471, 9.99876 
9.2514026e+2, 2.5526252e+2, -271467.2, -498534.9, -30470.266, 0.008249296, 0.115949444, -267449.47, 170988.6, 0.0, 10.001763, 9.998754 
9.2515916e+2, 2.6526096e+2, -172460.42, -469878.06, -33649.664, 0.0021263042, 0.11752374, -168700.84, 171752.73, 0.0, 10.002071, 9.998129 
9.251781e+2, 2.75259e+2, -27945.148, -350015.63, -36858.03, -0.0007513692, 0.10894518, -23780.924, 218692.78, 0.0, 10.002394, 9.998123 
9.2519706e+2, 2.85257e+2, 76511.61, -307211.94, -28224.293, -0.01215868, 0.12701812, 78576.5, 223070.64, 0.0, 10.002689, 9.997602 
9.252161e+2, 2.95255e+2, 212521.16, -191557.78, -28642.03, -0.030678054, 0.16765313, 214541.27, 261056.25, 0.0, 10.002954, 9.997597 
9.2523533e+2, 3.0525237e+2, 300139.63, -117643.78, -23412.785, -0.034073148, 0.1444143, 301447.6, 301447.6, 0.0, 10.003192, 9.997655 
9.252548e+2, 3.152507e+2, 340296.97, -85740.62, -30755.582, -0.019708425, 0.21028434, 342505.75, 342505.75, 0.0, 10.003414, 9.9977665 
9.348902e+2, 1.2524284e+2, -1932092.1, -1722834.6, -28787.988, -0.057821654, 0.06519605, -1718946.4, -6318.504, 0.000009813605, 9.998098, 10.00086 
9.349097e+2, 1.3524388e+2, -1795092.1, -1579002.3, 46114.5, -0.11771297, 0.057164915, -1569572.8, 45044.12, 0.0000009955157, 9.99824, 10.001111 
9.3493056e+2, 1.4524487e+2, -1706538.8, -1560686.9, 11360.895, -0.0023764393, 0.0814557, -1559807.3, -43199.063, 0.00000000002439963, 9.998503, 10.000434 
9.3494916e+2, 1.5524562e+2, -1550403.1, -1433887.8, 8272.132, -0.067140065, 0.11317713, -1433303.4, -14699.666, 0.0, 9.9988985, 10.000441 
9.349684e+2, 1.6524623e+2, -1413343.6, -1326714.4, 4500.5415, -0.07544834, 0.13585895, -1326481.1, -5881.6016, 0.0, 9.9992075, 10.000354 
9.3498826e+2, 1.752467e+2, -1281997.5, -1211905.8, 3756.9116, -0.019268777, 0.14833058, -1211704.9, 10890.983, 0.0, 9.9994335, 10.0003605 
9.350078e+2, 1.852469e+2, -1147475.0, -1103240.5, -1070.6047, 0.008220984, 0.13699031, -1103214.6, 21378.701, 0.0, 9.999714, 10.000299 
9.35027e+2, 1.9524685e+2, -1001731.8, -982813.56, -3795.8477, 0.0051045814, 0.10167707, -982080.4, 44511.46, 0.0, 10.000044, 10.000294 
9.3504614e+2, 2.0524676e+2, -901408.8, -952182.8, -8213.642, -0.0009684201, 0.097948276, -900113.1, 28478.89, 0.0, 10.000355, 9.999682 
9.3506527e+2, 2.1524668e+2, -761194.8, -834140.0, -10838.384, -0.007887863, 0.120786056, -759618.5, 70975.42, 0.0, 10.000646, 9.99968 
9.350844e+2, 2.252461e+2, -658960.9, -792183.2, -17932.44, -0.004037496, 0.12528278, -656589.25, 76010.44, 0.0, 10.000925, 9.999161 
9.3510365e+2, 2.3524512e+2, -521981.0, -675385.25, -21170.99, 0.008941073, 0.110628456, -519112.88, 115496.39, 0.0, 10.001193, 9.999161 
9.351228e+2, 2.4524398e+2, -415060.47, -624042.06, -17350.797, 0.009084979, 0.105442256, -413629.72, 122990.25, 0.0, 10.001473, 9.998704 
9.351419e+2, 2.552427e+2, -275052.53, -506585.63, -19592.05, -0.0022011101, 0.10673159, -273406.38, 165225.48, 0.0, 10.001766, 9.998697 
9.351611e+2, 2.6524103e+2, -178064.13, -481825.47, -21823.26, -0.00796403, 0.10585019, -176504.27, 164143.94, 0.0, 10.002072, 9.998047 
9.3518037e+2, 2.7523902e+2, -33375.215, -361506.1, -24855.568, -0.009316463, 0.10006903, -31503.113, 211165.72, 0.0, 10.002394, 9.998045 
9.3519956e+2, 2.85237e+2, 76397.55, -307267.22, -18245.842, -0.025116676, 0.117952615, 77263.305, 221952.81, 0.0, 10.002687, 9.997603 
9.352188e+2, 2.9523498e+2, 211933.66, -191799.44, -18917.885, -0.05277617, 0.15626201, 212818.16, 259528.48, 0.0, 10.002949, 9.997598 
9.3523836e+2, 3.052323e+2, 295687.6, -125743.74, -15322.396, -0.05332709, 0.1326671, 296243.97, 296243.97, 0.0, 10.003186, 9.997602 
9.3525815e+2, 3.1523043e+2, 335261.38, -95509.08, -22023.041, -0.026638245, 0.18565664, 336384.38, 336384.38, 0.0, 10.00341, 9.997702 
9.448882e+2, 1.2522335e+2, -1928911.8, -1726405.9, -46478.387, -0.06693832, 0.047571957, -1716247.9, -3430.449, 0.000016619406, 9.998141, 10.000815 
9.449079e+2, 1.3522437e+2, -1777501.3, -1575200.6, 18619.635, -0.12468364, 0.041820683, -1573501.1, 41305.438, 0.0000023427797, 9.998382, 10.001069 
9.44929e+2, 1.4522533e+2, -1694765.1, -1561371.1, -9650.958, -0.0040578134, 0.06776826, -1560676.5, -43878.223, 0.0000000053592455, 9.998611, 10.000377 
9.449481e+2, 1.5522595e+2, -1562211.3, -1445747.9, -6631.713, -0.063031234, 0.09373949, -1445371.4, -26576.465, 0.0, 9.998845, 10.000384 
9.4496757e+2, 1.6522653e+2, -1423661.3, -1335881.1, -8344.654, -0.07110197, 0.118678674, -1335094.9, -14303.7, 0.0, 9.999156, 10.000316 
9.449877e+2, 1.7522706e+2, -1269120.3, -1210027.6, -10392.64, -0.020122288, 0.14060803, -1208253.1, 14534.148, 0.0, 9.999541, 10.000321 
9.4500756e+2, 1.8522725e+2, -1129468.3, -1103083.0, -15894.186, 0.0065344814, 0.13305812, -1095619.6, 29165.459, 0.0, 9.999875, 10.000222 
9.450271e+2, 1.952271e+2, -990584.6, -985705.1, -19110.537, 0.0068141273, 0.09635811, -968879.25, 57905.402, 0.0, 10.000156, 10.000219 
9.4504654e+2, 2.0522693e+2, -889477.2, -948680.9, -22673.285, 0.0019104121, 0.08858904, -881791.7, 46993.91, 0.0, 10.000447, 9.999661 
9.45066e+2, 2.1522674e+2, -748580.4, -830464.4, -22211.854, -0.0059207273, 0.104903966, -742943.25, 87844.76, 0.0, 10.000744, 9.999658 
9.450854e+2, 2.2522618e+2, -643792.0, -794470.56, -27313.348, -0.0057904273, 0.113642134, -638993.7, 93800.414, 0.0, 10.001071, 9.999074 
9.4510484e+2, 2.3522523e+2, -493848.63, -671451.25, -30719.441, 0.0008193463, 0.11322657, -488685.25, 146118.45, 0.0, 10.001428, 9.999074 
9.4512427e+2, 2.4522403e+2, -386845.44, -616017.56, -29750.178, -0.0021683392, 0.108746484, -383046.38, 153768.83, 0.0, 10.001692, 9.998654 
9.4514364e+2, 2.552226e+2, -263325.88, -506343.8, -31581.371, -0.013745439, 0.09809054, -259288.8, 179539.78, 0.0, 10.00187, 9.998649 
9.451631e+2, 2.6522085e+2, -173200.58, -480111.56, -28102.924, -0.020358132, 0.093834594, -170648.5, 170196.8, 0.0, 10.002109, 9.99804 
9.451826e+2, 2.7521887e+2, -32775.938, -361861.9, -25905.893, -0.022734482, 0.09285295, -30749.09, 212116.14, 0.0, 10.002401, 9.998038 
9.452022e+2, 2.8521684e+2, 61452.223, -321496.4, -22965.354, -0.03600892, 0.11077598, 62824.535, 207710.78, 0.0, 10.002616, 9.99754 
9.4522154e+2, 2.9521468e+2, 180491.77, -213591.83, -28262.094, -0.05840537, 0.14476775, 182508.28, 229416.61, 0.0, 10.002762, 9.997538 
9.4524133e+2, 3.0521205e+2, 276594.5, -126385.08, -18791.863, -0.061179467, 0.11909775, 277468.9, 277468.9, 0.0, 10.003018, 9.997678 
9.4526136e+2, 3.1521007e+2, 334429.44, -88832.54, -16511.719, -0.043499727, 0.15945762, 335072.6, 335072.6, 0.0, 10.003375, 9.997765 
9.5488626e+2, 1.2520371e+2, -1934962.5, -1739597.5, -31820.598, -0.07869484, 0.05587671, -1734545.3, -21535.791, 0.000026449812, 9.998143, 10.000725 
9.549061e+2, 1.3520464e+2, -1783659.8, -1588050.1, 26928.86, -0.14298333, 0.049103532, -1584410.6, 30588.99, 0.0000047469885, 9.998382, 10.00098 
9.5492756e+2, 1.4520545e+2, -1692936.0, -1557656.6, -1190.6973, -0.012659747, 0.065109655, -1557646.1, -40653.863, 0.000000046136613, 9.998611, 10.000402 
9.5494705e+2, 1.5520588e+2, -1560515.0, -1442331.5, 1984.623, -0.045191936, 0.066738605, -1442298.1, -23307.93, 0.0, 9.998845, 10.000408 
9.549669e+2, 1.6520639e+2, -1427601.8, -1344225.1, 5949.9014, -0.050663866, 0.08664276, -1343802.6, -22815.621, 0.0, 9.999156, 10.000258 
9.549872e+2, 1.7520697e+2, -1273001.1, -1218330.1, 3830.8926, -0.020127416, 0.12094296, -1218063.0, 4919.7876, 0.0, 9.999542, 10.000264 
9.550073e+2, 1.852072e+2, -1135243.4, -1115350.3, -5547.8623, 0.00016760433, 0.124745555, -1113907.6, 11072.983, 0.0, 9.999875, 10.000138 
9.550272e+2, 1.9520706e+2, -996189.94, -997657.3, -8819.517, 0.0075833155, 0.09852557, -988073.6, 38906.707, 0.0, 10.000157, 10.000137 
9.55047e+2, 2.0520686e+2, -888095.2, -946143.6, -11912.874, 0.0062631173, 0.08913983, -885745.5, 43236.227, 0.0, 10.000447, 9.999679 
9.5506674e+2, 2.1520656e+2, -747194.25, -827945.9, -11382.948, -0.0015701862, 0.09249413, -745620.4, 85364.375, 0.0, 10.000744, 9.999675 
9.550864e+2, 2.2520597e+2, -649947.6, -807544.3, -14263.814, -0.006155113, 0.10362056, -648667.0, 84324.08, 0.0, 10.001072, 9.998984 
9.5510614e+2, 2.3520513e+2, -500098.28, -684460.9, -17692.834, -0.008312747, 0.11996057, -498415.7, 136584.94, 0.0, 10.001428, 9.998985 
9.551258e+2, 2.4520385e+2, -390128.84, -622926.75, -23288.596, -0.015167845, 0.115848705, -387821.97, 149190.98, 0.0, 10.001692, 9.998608 
9.551453e+2, 2.552022e+2, -266051.47, -512473.94, -24842.92, -0.026300214, 0.089978024, -263571.9, 175456.1, 0.0, 10.001871, 9.998606 
9.55165e+2, 2.6520044e+2, -168706.92, -471056.13, -17183.754, -0.035054043, 0.08146255, -167733.44, 173311.2, 0.0, 10.00211, 9.998103 
9.551848e+2, 2.751986e+2, -29018.152, -353436.03, -15171.061, -0.041333884, 0.087049246, -28310.238, 214752.61, 0.0, 10.0023985, 9.998098 
9.5520467e+2, 2.851965e+2, 52249.75, -339731.75, -17702.639, -0.045661278, 0.105210595, 53047.61, 198131.9, 0.0, 10.002611, 9.997417 
9.5522445e+2, 2.951942e+2, 172026.63, -230755.55, -22532.584, -0.048674636, 0.13317952, 173283.22, 220392.03, 0.0, 10.002759, 9.997421 
9.5524436e+2, 3.0519152e+2, 289291.3, -99064.17, -5331.769, -0.058351826, 0.103906535, 289364.5, 289364.5, 0.0, 10.003014, 9.997869 
9.5526445e+2, 3.1518966e+2, 345156.03, -64039.25, -3013.8557, -0.07085565, 0.13011129, 345178.25, 345178.25, 0.0, 10.003363, 9.997941 
9.648842e+2, 1.2518366e+2, -1957220.6, -1752451.5, -52988.39, -0.082201526, 0.07364468, -1739552.3, -26346.36, 0.00003990401, 9.998, 10.000705 
9.649044e+2, 1.3518433e+2, -1793431.9, -1594834.5, 4806.7847, -0.14355832, 0.04390166, -1594718.3, 20480.146, 0.000008636752, 9.998325, 10.00096 
9.649261e+2, 1.4518507e+2, -1685722.1, -1547851.8, -19864.408, -0.010849313, 0.051440686, -1545046.8, -27855.54, 0.00000019058375, 9.998634, 10.000458 
9.64946e+2, 1.5518555e+2, -1542785.3, -1427659.4, -14569.269, -0.03905601, 0.05235141, -1425844.3, -6656.241, 0.0, 9.99894, 10.000463 
9.649662e+2, 1.6518605e+2, -1414162.5, -1343625.9, -5570.109, -0.04327191, 0.07134885, -1343188.6, -22003.973, 0.0, 9.999274, 10.000206 
9.6498686e+2, 1.7518657e+2, -1263505.8, -1219507.6, -7593.0195, -0.014349813, 0.10464004, -1218234.1, 4947.2607, 0.0, 9.999633, 10.000212 
9.6500725e+2, 1.8518676e+2, -1125188.8, -1115865.0, -18108.096, 0.0030318021, 0.109524325, -1101828.4, 23351.455, 0.0, 9.999969, 10.00009 
9.650274e+2, 1.951866e+2, -981234.0, -995690.9, -18839.316, 0.00615655, 0.086040966, -968284.0, 58896.023, 0.0, 10.000283, 10.00009 
9.650475e+2, 2.0518638e+2, -869443.7, -938234.1, -22062.955, 0.00416181, 0.07940429, -862975.7, 66205.83, 0.0, 10.000581, 9.999669 
9.650675e+2, 2.151861e+2, -730877.6, -821107.44, -23764.613, -0.0010679925, 0.08572794, -725001.25, 106183.02, 0.0, 10.000861, 9.999665 
9.6508753e+2, 2.2518551e+2, -647217.5, -811453.6, -26094.525, -0.0053592636, 0.097985, -643171.2, 90019.77, 0.0, 10.001114, 9.998937 
9.651075e+2, 2.351846e+2, -516363.2, -697410.2, -26592.842, -0.00918424, 0.113693334, -512537.97, 122663.445, 0.0, 10.001338, 9.998939 
9.651274e+2, 2.4518332e+2, -402974.88, -627533.3, -30545.244, -0.018875003, 0.10940736, -398894.16, 138319.81, 0.0, 10.001597, 9.998621 
9.651471e+2, 2.5518167e+2, -262779.75, -509163.13, -27912.982, -0.03401291, 0.08372253, -259657.03, 179571.58, 0.0, 10.001887, 9.998621 
9.6516705e+2, 2.6517993e+2, -170855.98, -473246.3, -21785.777, -0.042549577, 0.0776552, -169294.48, 171950.45, 0.0, 10.0021, 9.998092 
9.651871e+2, 2.7517813e+2, -52683.9, -366077.9, -25244.2, -0.044718456, 0.08794486, -50663.48, 192599.45, 0.0, 10.002241, 9.998087 
9.652071e+2, 2.85176e+2, 21681.21, -360346.2, -28786.396, -0.04907195, 0.10463427, 23838.135, 169123.1, 0.0, 10.002427, 9.997364 
9.6522707e+2, 2.9517356e+2, 153332.78, -245201.53, -28719.086, -0.05587415, 0.12537223, 155391.69, 202702.52, 0.0, 10.002654, 9.997373 
9.652472e+2, 3.0517095e+2, 274614.34, -95424.516, -9584.541, -0.0646627, 0.099038176, 274862.4, 274862.4, 0.0, 10.002868, 9.997963 
9.6526766e+2, 3.1516916e+2, 308821.72, -72062.51, -13848.11, -0.072611384, 0.12625557, 309324.56, 309324.56, 0.0, 10.003073, 9.998025 
9.748822e+2, 1.2516321e+2, -1954124.3, -1745362.5, -35542.094, -0.07893385, 0.10090991, -1739477.3, -26070.795, 0.000057479218, 9.997996, 10.000755 
9.7490287e+2, 1.3516346e+2, -1790211.3, -1587849.3, 16497.648, -0.12607343, 0.025825685, -1586513.1, 28889.314, 0.000014404859, 9.998323, 10.00101 
9.749249e+2, 1.4516422e+2, -1679803.6, -1535785.1, -8606.537, 0.0015643587, 0.026417585, -1535272.6, -17877.775, 0.0000005546723, 9.998634, 10.000541 
9.749449e+2, 1.5516499e+2, -1536954.4, -1415768.9, -3302.6482, -0.04495587, 0.05065039, -1415678.9, 3709.1292, 0.0, 9.99894, 10.000545 
9.749654e+2, 1.6516554e+2, -1417646.8, -1351110.1, 7715.514, -0.049346257, 0.073033206, -1350227.1, -28843.156, 0.0, 9.999274, 10.0001545 
9.7498655e+2, 1.7516588e+2, -1266890.8, -1226844.5, 5628.027, -0.0029783868, 0.09178274, -1226068.5, -2685.916, 0.0, 9.999633, 10.000162 
9.750073e+2, 1.8516594e+2, -1126168.9, -1118161.6, -6586.754, 0.015018376, 0.08744448, -1114457.3, 10925.241, 0.0, 9.999969, 10.000073 
9.750276e+2, 1.9516571e+2, -982227.2, -997966.5, -7325.6216, 0.0025200874, 0.059070785, -979345.25, 48038.168, 0.0, 10.000283, 10.000074 
9.7504795e+2, 2.0516554e+2, -872176.3, -944095.1, -11923.939, -0.004394368, 0.059504025, -870250.94, 59133.797, 0.0, 10.000581, 9.999629 
9.750683e+2, 2.1516542e+2, -733542.8, -826764.3, -13597.799, -0.0044406643, 0.08447082, -731599.9, 99786.516, 0.0, 10.000861, 9.999626 
9.750886e+2, 2.251648e+2, -647812.1, -812853.25, -17973.127, -0.0035756528, 0.096761815, -645877.5, 87515.96, 0.0, 10.001114, 9.998927 
9.7510886e+2, 2.351637e+2, -516836.03, -698605.0, -18286.354, -0.0022688524, 0.0949451, -515014.66, 120391.125, 0.0, 10.001339, 9.998931 
9.75129e+2, 2.4516243e+2, -398121.34, -617605.4, -19831.705, -0.0138762435, 0.08989219, -396343.8, 141074.22, 0.0, 10.001597, 9.99869 
9.751489e+2, 2.5516102e+2, -258170.97, -499527.47, -17266.828, -0.037389107, 0.07916409, -256941.94, 182488.42, 0.0, 10.001886, 9.998688 
9.751691e+2, 2.6515937e+2, -176645.97, -485189.1, -16623.637, -0.04354771, 0.08185902, -175752.9, 165693.23, 0.0, 10.002099, 9.998011 
9.751894e+2, 2.751575e+2, -58226.887, -377675.3, -19852.842, -0.03394074, 0.09489262, -56997.816, 186467.45, 0.0, 10.002241, 9.998008 
9.7520953e+2, 2.851553e+2, 22156.75, -359388.7, -20244.773, -0.046755593, 0.108543165, 23227.928, 168716.0, 0.0, 10.002426, 9.997372 
9.7522944e+2, 2.9515278e+2, 153853.89, -244012.17, -20120.334, -0.079373546, 0.12108107, 154868.8, 202383.11, 0.0, 10.002653, 9.997381 
9.752499e+2, 3.0515027e+2, 274733.28, -94700.15, -1725.286, -0.080332555, 0.103509545, 274741.34, 274741.34, 0.0, 10.002865, 9.997971 
9.7527087e+2, 3.1514862e+2, 307826.13, -72800.19, -5512.2627, -0.05180906, 0.14285602, 307905.94, 307905.94, 0.0, 10.003067, 9.998023 
9.8488027e+2, 1.2514205e+2, -1950755.9, -1742514.6, -39215.086, -0.07334822, 0.08740606, -1735374.6, -21761.863, 0.00007951568, 9.998014, 10.000767 
9.849013e+2, 1.3514227e+2, -1795754.8, -1589694.0, 3734.4277, -0.11424435, 0.0083364295, -1589626.4, 25982.766, 0.000022398126, 9.998282, 10.001017 
9.849236e+2, 1.4514308e+2, -1676349.8, -1530360.4, -21858.771, 0.010153415, 0.012485062, -1527157.8, -9556.857, 0.0000013019285, 9.998643, 10.000574 
9.849439e+2, 1.5514395e+2, -1511976.8, -1399709.6, -20501.506, -0.04102563, 0.04233099, -1396082.9, 23510.156, 0.0, 9.999095, 10.00058 
9.849647e+2, 1.651445e+2, -1396564.5, -1341297.3, -12969.096, -0.047571488, 0.06367999, -1338405.3, -16816.285, 0.0, 9.999421, 10.000151 
9.849862e+2, 1.7514476e+2, -1268108.4, -1227799.0, -11625.641, -0.0013891543, 0.075162075, -1224686.4, -1098.1462, 0.0, 9.999627, 10.000158 
9.850073e+2, 1.8514483e+2, -1135768.8, -1122045.8, -19632.182, 0.015147129, 0.07130633, -1108110.5, 17477.621, 0.0, 9.9999, 10.00008 
9.850279e+2, 1.9514468e+2, -988428.06, -1000103.1, -18833.037, 0.00019575043, 0.050560538, -974548.56, 53040.07, 0.0, 10.000238, 10.000081 
9.850485e+2, 2.0514454e+2, -878745.8, -947522.5, -23225.078, -0.007462544, 0.054296143, -871637.6, 57952.18, 0.0, 10.000538, 9.999625 
9.850691e+2, 2.1514441e+2, -742305.7, -831132.9, -22345.227, -0.0066992408, 0.07866125, -737001.3, 94590.4, 0.0, 10.000802, 9.999624 
9.8508966e+2, 2.251438e+2, -653349.94, -810832.0, -24968.094, -0.0049834326, 0.09087517, -649486.1, 84112.53, 0.0, 10.001057, 9.998969 
9.8511016e+2, 2.3514275e+2, -519897.2, -695345.2, -21753.645, -0.0028841905, 0.08924151, -517240.22, 118370.31, 0.0, 10.001298, 9.998972 
9.8513055e+2, 2.451415e+2, -404757.88, -620467.25, -22465.87, -0.014721848, 0.08439813, -402442.94, 135179.66, 0.0, 10.001552, 9.998692 
9.8515075e+2, 2.551401e+2, -268510.78, -504200.47, -25071.693, -0.03945952, 0.07397082, -265873.28, 173761.63, 0.0, 10.001815, 9.99869 
9.8517114e+2, 2.6513845e+2, -192220.47, -498034.1, -30629.71, -0.044803444, 0.07968548, -189182.83, 152468.08, 0.0, 10.002016, 9.997962 
9.851916e+2, 2.751366e+2, -73250.99, -389897.88, -31607.521, -0.032436844, 0.098302536, -70126.77, 173543.7, 0.0, 10.00216, 9.997962 
9.852119e+2, 2.851344e+2, 19819.822, -355171.97, -24940.742, -0.044775482, 0.11188929, 21471.36, 167164.6, 0.0, 10.002389, 9.997418 
9.8523206e+2, 2.9513186e+2, 162993.69, -234450.06, -22355.908, -0.07886641, 0.11902331, 164247.23, 211966.2, 0.0, 10.002695, 9.997427 
9.8525274e+2, 3.0512935e+2, 270768.84, -99809.15, -10054.3125, -0.08132547, 0.10311503, 271041.4, 271041.4, 0.0, 10.002852, 9.99794 
9.852738e+2, 3.1512764e+2, 277097.56, -91315.92, -16282.219, -0.054919105, 0.14008409, 277815.75, 277815.75, 0.0, 10.002872, 9.997989 
9.948783e+2, 1.2512021e+2, -1953286.6, -1747777.5, -24051.53, -0.0675952, 0.030647013, -1745000.1, -31175.402, 0.00010622788, 9.9980135, 10.000731 
9.948996e+2, 1.3512078e+2, -1798924.8, -1595856.1, 13465.899, -0.10833669, -0.008927204, -1594967.0, 20851.23, 0.00003292342, 9.998281, 10.000976 
9.949222e+2, 1.451217e+2, -1677793.3, -1533261.3, -5137.075, 0.014743818, 0.00999134, -1533079.0, -15269.726, 0.0000026281716, 9.998641, 10.000555 
9.9494314e+2, 1.5512241e+2, -1512880.3, -1401806.3, -3879.4453, -0.027275382, 0.027321009, -1401670.9, 18132.004, 0.00000000019976186, 9.999096, 10.000566 
9.9496424e+2, 1.6512294e+2, -1393461.3, -1335269.5, -5555.882, -0.037910562, 0.04304499, -1334743.9, -12944.696, 0.0, 9.999422, 10.000192 
9.949857e+2, 1.7512324e+2, -1264985.6, -1221728.0, -4126.956, -0.009607258, 0.054668225, -1221337.8, 2460.2305, 0.0, 9.999628, 10.000199 
9.9500704e+2, 1.8512343e+2, -1133860.9, -1118416.0, -7253.505, 0.0032801952, 0.06102388, -1115543.6, 10253.133, 0.0, 9.999901, 10.000105 
9.950281e+2, 1.9512352e+2, -986454.75, -996239.6, -6557.933, -0.0010559842, 0.060297426, -983165.4, 44630.105, 0.0, 10.000238, 10.000108 
9.95049e+2, 2.0512341e+2, -876545.44, -943117.4, -13696.49, -0.005234623, 0.063661925, -873837.6, 55958.95, 0.0, 10.000538, 9.999656 
9.9506986e+2, 2.151231e+2, -740008.25, -826538.75, -12831.554, -0.007919568, 0.068440065, -738145.56, 93654.54, 0.0, 10.000803, 9.999656 
9.9509066e+2, 2.2512256e+2, -647165.5, -798221.4, -16271.053, -0.009563404, 0.08029404, -645432.7, 88373.71, 0.0, 10.001057, 9.999055 
9.951114e+2, 2.3512177e+2, -513774.53, -682838.75, -13073.908, -0.010809115, 0.09606692, -512769.47, 123046.1, 0.0, 10.001298, 9.999059 
9.95132e+2, 2.4512054e+2, -409146.72, -629656.94, -12868.997, -0.021253223, 0.09242314, -408398.22, 129429.25, 0.0, 10.001551, 9.998629 
9.9515253e+2, 2.5511894e+2, -273080.72, -513393.78, -15282.842, -0.040468495, 0.06811506, -272112.7, 167729.36, 0.0, 10.001813, 9.998629 
9.951731e+2, 2.6511723e+2, -194062.86, -501574.7, -25289.691, -0.0464952, 0.071430475, -191996.92, 149862.1, 0.0, 10.002014, 9.997939 
9.9519366e+2, 2.7511543e+2, -74614.31, -392766.28, -26046.943, -0.039876524, 0.098652765, -72495.96, 171382.39, 0.0, 10.002159, 9.997943 
9.952143e+2, 2.8511328e+2, 25366.791, -343408.75, -13074.309, -0.04361726, 0.11483616, 25829.736, 171730.06, 0.0, 10.002387, 9.9975 
9.9523497e+2, 2.9511082e+2, 167879.94, -223332.06, -10503.772, -0.056811508, 0.11860911, 168161.75, 216086.53, 0.0, 10.00269, 9.997506 
9.9525565e+2, 3.0510828e+2, 265362.84, -110377.88, -8898.994, -0.06925122, 0.09803817, 265573.47, 265573.47, 0.0, 10.002849, 9.99787 
9.952764e+2, 3.1510633e+2, 272180.8, -101895.32, -14641.648, -0.080404155, 0.118302606, 272753.03, 272753.03, 0.0, 10.002873, 9.997916 
1.0048765e+3, 1.2509844e+2, -1923189.1, -1739770.0, -31565.83, -0.06079763, 0.013955725, -1734489.6, -20452.654, 0.00013782152, 9.998248, 10.000673 
1.0048981e+3, 1.3509904e+2, -1765766.4, -1586850.6, -983.934, -0.10423555, -0.01538988, -1586845.3, 29185.17, 0.000046236724, 9.998539, 10.000912 
1.004921e+3, 1.4509997e+2, -1657254.8, -1522009.1, -17606.908, 0.015076654, 0.005670284, -1519754.5, -1733.0945, 0.00000474816, 9.998777, 10.0005665 
1.0049422e+3, 1.551006e+2, -1531983.8, -1409657.6, -14509.303, -0.019309804, 0.0138930725, -1407960.3, 12055.457, 0.000000004412824, 9.998959, 10.000578 
1.0049636e+3, 1.6510113e+2, -1410915.6, -1337766.3, -14515.449, -0.031770114, 0.026669636, -1334991.1, -12979.304, 0.0, 9.999277, 10.000245 
1.00498535e+3, 1.751015e+2, -1246167.5, -1206688.5, -12333.396, -0.014819944, 0.04114877, -1203152.3, 20857.594, 0.0, 9.999732, 10.000253 
1.0050069e+3, 1.8510176e+2, -1112915.6, -1108214.1, -18706.299, -0.003382454, 0.05251616, -1091711.5, 34296.594, 0.0, 10.000045, 10.000105 
1.00502826e+3, 1.9510193e+2, -988923.94, -997199.1, -19901.703, 0.000451476, 0.058808457, -972734.25, 55272.203, 0.0, 10.000221, 10.00011 
1.0050496e+3, 2.0510185e+2, -885646.7, -942584.6, -26781.416, 0.00012572818, 0.06251832, -875029.5, 54978.03, 0.0, 10.000455, 9.9997 
1.00507066e+3, 2.1510151e+2, -745194.56, -824062.8, -24995.096, -0.0029874793, 0.061270732, -737940.3, 94070.93, 0.0, 10.000746, 9.9997 
1.0050917e+3, 2.2510102e+2, -650578.7, -795155.56, -31070.91, -0.008559347, 0.07484905, -644184.1, 89833.02, 0.0, 10.001014, 9.999097 
1.0051125e+3, 2.3510037e+2, -516687.34, -679432.9, -31458.895, -0.016946452, 0.0997029, -510818.0, 125207.21, 0.0, 10.001259, 9.999101 
1.0051334e+3, 2.4509922e+2, -419215.78, -629823.4, -30385.91, -0.025341902, 0.098323956, -414919.4, 123117.195, 0.0, 10.001463, 9.99867 
1.0051543e+3, 2.5509757e+2, -297193.25, -520095.8, -25437.361, -0.033857886, 0.069603644, -294327.22, 145724.05, 0.0, 10.001627, 9.998671 
1.00517504e+3, 2.650959e+2, -213413.19, -507278.9, -29297.342, -0.040726364, 0.070544, -210520.83, 131547.33, 0.0, 10.001867, 9.997971 
1.00519575e+3, 2.7509412e+2, -70009.18, -386721.63, -26522.094, -0.04578728, 0.097574785, -67803.53, 176283.72, 0.0, 10.002176, 9.997976 
1.0052166e+3, 2.8509206e+2, 29690.45, -330786.38, -12730.196, -0.045414757, 0.114015564, 30139.455, 176247.86, 0.0, 10.002372, 9.997593 
1.0052377e+3, 2.950897e+2, 141717.31, -225331.95, -9615.435, -0.03978626, 0.11824013, 141969.03, 190100.56, 0.0, 10.002465, 9.9976 
1.00525856e+3, 3.0508712e+2, 239645.3, -121796.945, -5910.6445, -0.054369707, 0.091811396, 239741.94, 239741.94, 0.0, 10.002668, 9.997878 
1.0052793e+3, 3.15085e+2, 286665.44, -94515.516, -6180.0005, -0.08762237, 0.09151297, 286765.63, 286765.63, 0.0, 10.002972, 9.997919 
1.0148747e+3, 1.2507679e+2, -1928864.4, -1751846.3, -16404.193, -0.055484373, 0.039271556, -1750338.9, -36089.824, 0.00017450533, 9.998248, 10.000591 
1.0148966e+3, 1.3507709e+2, -1771831.8, -1599644.9, 9485.889, -0.10231534, -0.010446183, -1599123.9, 17121.479, 0.000062540406, 9.998539, 10.000824 
1.01491965e+3, 1.4507788e+2, -1654393.3, -1516315.8, -11046.227, 0.010728683, -0.00063470326, -1515437.6, 2799.8047, 0.000007860604, 9.998777, 10.000607 
1.0149412e+3, 1.550785e+2, -1529385.5, -1404275.4, -7989.3315, -0.017370194, 0.001963786, -1403767.3, 16464.031, 0.000000028517778, 9.998958, 10.000615 
1.0149629e+3, 1.6507907e+2, -1406727.8, -1329124.4, 2272.0967, -0.029314993, 0.014555585, -1329058.0, -6831.1533, 0.0, 9.999277, 10.000304 
1.0149851e+3, 1.7507955e+2, -1241745.1, -1197749.9, 4427.343, -0.017198231, 0.03464428, -1197308.8, 26914.953, 0.0, 9.999732, 10.000314 
1.0150069e+3, 1.8507984e+2, -1114560.8, -1111947.9, -12440.32, -0.005020117, 0.045841143, -1100745.6, 25476.316, 0.0, 10.000045, 10.000079 
1.0150285e+3, 1.9507992e+2, -990516.4, -1000862.9, -13613.178, 0.0045901043, 0.04621172, -981126.6, 47094.797, 0.0, 10.000222, 10.000084 
1.01505004e+3, 2.0507987e+2, -881808.1, -934910.4, -16280.583, 0.008407086, 0.050895475, -877214.1, 53008.305, 0.0, 10.000456, 9.999752 
1.0150715e+3, 2.1507967e+2, -741425.7, -816307.6, -14456.229, 0.00774275, 0.057055417, -738731.75, 93493.17, 0.0, 10.000746, 9.999754 
1.0150927e+3, 2.2507924e+2, -651124.44, -796154.75, -22280.285, -0.0022978801, 0.07448784, -647778.8, 86451.67, 0.0, 10.001013, 9.999091 
1.01511374e+3, 2.3507859e+2, -517280.84, -680312.2, -22543.563, -0.021492243, 0.10026038, -514221.0, 122018.07, 0.0, 10.001256, 9.999096 
1.0151349e+3, 2.4507754e+2, -409967.66, -610267.6, -24444.293, -0.02733921, 0.102133185, -407027.7, 131222.03, 0.0, 10.00146, 9.998805 
1.01515606e+3, 2.5507608e+2, -287834.72, -500353.78, -19350.217, -0.020224372, 0.078141265, -286087.22, 154175.19, 0.0, 10.001625, 9.998808 
1.0151771e+3, 2.6507446e+2, -208379.86, -496127.3, -17693.371, -0.028087012, 0.07674539, -207295.98, 134982.23, 0.0, 10.0018635, 9.998049 
1.01519786e+3, 2.750727e+2, -65403.453, -375745.78, -14898.191, -0.05066821, 0.094953254, -64689.9, 179607.25, 0.0, 10.002169, 9.998055 
1.01521894e+3, 2.850707e+2, 35640.035, -317127.94, -9403.09, -0.050453544, 0.10954425, 35890.5, 182208.0, 0.0, 10.002366, 9.99769 
1.01524025e+3, 2.9506844e+2, 148340.02, -211049.0, -6146.266, -0.02753036, 0.11846676, 148445.1, 196784.31, 0.0, 10.002462, 9.997699 
1.0152613e+3, 3.0506596e+2, 245085.86, -110325.92, 5737.3477, -0.037216406, 0.085082926, 245178.45, 245178.45, 0.0, 10.002667, 9.997958 
1.0152822e+3, 3.1506363e+2, 291638.44, -84052.18, 5795.639, -0.07992014, 0.058162812, 291727.84, 291727.84, 0.0, 10.002971, 9.9979925 
1.0248732e+3, 1.250546e+2, -1897524.8, -1739132.0, -22585.215, -0.046008702, 0.04059045, -1735974.5, -21508.463, 0.0002164286, 9.998474, 10.000568 
1.0248952e+3, 1.3505486e+2, -1750043.1, -1592638.3, 3081.7327, -0.09454594, -0.010941869, -1592578.0, 23884.664, 0.00008198819, 9.998705, 10.000792 
1.0249185e+3, 1.4505558e+2, -1629452.6, -1506420.0, -19055.688, 0.009040491, -0.0049171653, -1503536.1, 14919.02, 0.000012107449, 9.998958, 10.0005865 
1.0249402e+3, 1.5505609e+2, -1491488.3, -1388114.4, -20681.168, -0.01826638, -0.011404333, -1384130.4, 36319.754, 0.00000009714164, 9.999228, 10.000596 
1.0249623e+3, 1.6505668e+2, -1381567.9, -1312959.5, -10728.033, -0.027877185, 0.0016322122, -1311321.1, 11124.353, 0.0, 9.999433, 10.0003395 
1.0249847e+3, 1.7505729e+2, -1262614.3, -1203887.1, -10706.684, -0.012147697, 0.031745985, -1201996.0, 22445.049, 0.0, 9.999573, 10.000349 
1.02500685e+3, 1.8505761e+2, -1144910.4, -1123846.6, -27764.635, -0.0015971959, 0.04271614, -1104683.5, 21755.645, 0.0, 9.9998255, 10.000103 
1.0250287e+3, 1.950576e+2, -992652.6, -999116.06, -25204.742, 0.0012655786, 0.032606788, -970473.25, 57966.203, 0.0, 10.0001955, 10.000109 
1.0250504e+3, 2.0505759e+2, -880556.44, -931468.0, -29236.986, 0.0034110409, 0.039243013, -867246.25, 63193.96, 0.0, 10.000452, 9.999777 
1.0250721e+3, 2.1505755e+2, -760871.2, -822625.3, -29491.207, 0.0059455154, 0.05936183, -749050.2, 83391.305, 0.0, 10.0006, 9.99978 
1.02509364e+3, 2.2505718e+2, -680283.3, -801953.0, -35242.21, -0.0021280437, 0.07867252, -670812.44, 63634.152, 0.0, 10.000777, 9.999164 
1.0251149e+3, 2.350565e+2, -551728.4, -688633.56, -29905.139, -0.020656345, 0.09489093, -545481.06, 90974.336, 0.0, 10.000985, 9.999168 
1.02513626e+3, 2.4505556e+2, -438350.2, -612936.94, -31070.223, -0.027813934, 0.09954594, -432985.66, 105479.4, 0.0, 10.001219, 9.998902 
1.0251576e+3, 2.5505435e+2, -302435.1, -496161.63, -29016.734, -0.023781141, 0.08997849, -298182.28, 142293.28, 0.0, 10.001477, 9.998907 
1.0251788e+3, 2.6505283e+2, -228120.0, -493830.34, -27514.986, -0.028472893, 0.08708651, -225300.67, 117189.77, 0.0, 10.0016775, 9.998154 
1.0252e+3, 2.75051e+2, -108431.375, -384482.5, -23128.219, -0.041896302, 0.0880599, -106507.055, 138002.56, 0.0, 10.001823, 9.998161 
1.0252212e+3, 2.8504908e+2, -4092.2754, -328745.25, -18323.793, -0.041871183, 0.101319835, -3061.333, 143467.9, 0.0, 10.002062, 9.997757 
1.02524266e+3, 2.9504704e+2, 142078.47, -206500.39, -17475.652, -0.027989196, 0.124712884, 142952.4, 191501.69, 0.0, 10.002388, 9.997766 
1.02526404e+3, 3.0504465e+2, 252006.16, -93228.29, -3792.7534, -0.03131889, 0.094421916, 252047.81, 252047.81, 0.0, 10.002656, 9.99808 
1.0252854e+3, 3.150423e+2, 285623.13, -73775.93, -710.3559, -0.053359993, 0.05323966, 285624.53, 285624.53, 0.0, 10.002873, 9.99811 
1.03487186e+3, 1.2503189e+2, -1894746.6, -1733770.6, -10572.202, -0.03240342, 0.015358431, -1733079.3, -18391.547, 0.0002637313, 9.998475, 10.000606 
1.0348941e+3, 1.3503237e+2, -1748316.0, -1589282.5, 11467.203, -0.08084072, -0.017352398, -1588459.9, 28222.215, 0.00010469639, 9.998706, 10.000814 
1.03491746e+3, 1.4503308e+2, -1635149.9, -1518588.9, -9175.013, 0.01011441, -0.007145134, -1517871.0, 803.53406, 0.000017566988, 9.998959, 10.000504 
1.0349394e+3, 1.550334e+2, -1496957.3, -1399852.1, -10881.682, -0.022105394, -0.026184587, -1398647.6, 22024.182, 0.00000023822265, 9.9992285, 10.000515 
1.03496164e+3, 1.6503395e+2, -1380850.8, -1311841.5, -5835.101, -0.0276892, -0.012129749, -1311351.6, 11315.959, 0.0, 9.9994335, 10.000347 
1.0349844e+3, 1.7503473e+2, -1262057.3, -1203084.1, -5735.886, 0.00016857986, 0.03236271, -1202531.5, 22130.396, 0.0, 9.999573, 10.000354 
1.0350067e+3, 1.8503508e+2, -1139875.6, -1113706.3, -14277.381, 0.0068583223, 0.043090604, -1107424.8, 19234.768, 0.0, 9.999826, 10.000173 
1.0350287e+3, 1.95035e+2, -987612.3, -988835.8, -11671.4375, -0.00943862, 0.01809966, -976536.6, 52123.703, 0.0, 10.0001955, 10.000179 
1.0350507e+3, 2.0503503e+2, -880840.9, -932186.94, -24153.037, -0.014728815, 0.027572677, -871265.2, 59395.527, 0.0, 10.000452, 9.999772 
1.0350725e+3, 2.150352e+2, -761012.8, -823133.44, -24338.668, -0.008133183, 0.06788152, -752612.9, 80047.94, 0.0, 10.0006, 9.999777 
1.0350943e+3, 2.2503491e+2, -669934.9, -780704.7, -27855.951, -0.008013077, 0.087244645, -663324.25, 71340.93, 0.0, 10.000778, 9.99931 
1.0351159e+3, 2.3503418e+2, -541531.6, -667672.4, -22439.16, -0.01481545, 0.0839917, -537658.8, 99015.15, 0.0, 10.000985, 9.999313 
1.0351373e+3, 2.4503335e+2, -434313.4, -604603.4, -21633.844, -0.026814511, 0.09086787, -431608.0, 107074.42, 0.0, 10.001219, 9.9989605 
1.0351588e+3, 2.5503245e+2, -298542.63, -487785.22, -19522.514, -0.043700047, 0.10476352, -296549.63, 144141.0, 0.0, 10.001475, 9.998965 
1.0351803e+3, 2.65031e+2, -219728.03, -475976.56, -22431.383, -0.04152504, 0.10135148, -217779.27, 124925.39, 0.0, 10.001675, 9.998278 
1.0352019e+3, 2.7502906e+2, -99994.47, -366452.53, -18059.33, -0.02066255, 0.07769741, -98776.055, 145948.4, 0.0, 10.00182, 9.998286 
1.0352235e+3, 2.850272e+2, -2127.6733, -323978.34, -6378.7983, -0.020677626, 0.08995588, -2001.3007, 144742.19, 0.0, 10.002058, 9.997791 
1.03524484e+3, 2.950254e+2, 144051.48, -201749.0, -5482.108, -0.04049767, 0.13602433, 144138.38, 192900.05, 0.0, 10.002384, 9.997801 
1.0352666e+3, 3.0502322e+2, 262940.16, -70762.71, 3684.9734, -0.036503635, 0.11793724, 262980.84, 262980.84, 0.0, 10.002656, 9.998235 
1.0352887e+3, 3.1502104e+2, 297333.7, -51158.715, 6736.084, -0.010505653, 0.07398058, 297463.84, 297463.84, 0.0, 10.002879, 9.998262 
1.0448705e+3, 1.2500894e+2, -1844411.1, -1705594.8, -24856.96, -0.021305935, -0.0015669574, -1701278.0, 13634.021, 0.00031664252, 9.998804, 10.00064 
1.044893e+3, 1.3500953e+2, -1723858.1, -1574722.1, -5493.2446, -0.068958126, -0.025728192, -1574520.1, 42384.89, 0.00013079311, 9.998862, 10.000838 
1.04491636e+3, 1.4501029e+2, -1625036.6, -1513551.0, -18378.047, 0.012951377, -0.012070564, -1510599.5, 8297.458, 0.000024312307, 9.999028, 10.000504 
1.0449386e+3, 1.550106e+2, -1488281.5, -1395370.3, -14257.941, -0.017116314, -0.03275554, -1393231.5, 27663.16, 0.0000004785213, 9.999288, 10.000517 
1.0449612e+3, 1.6501112e+2, -1369370.3, -1307448.5, -10331.359, -0.023033323, -0.01934982, -1305770.3, 17120.328, 0.0, 9.999517, 10.000337 
1.044984e+3, 1.750119e+2, -1240790.9, -1193826.9, -11513.843, 0.0012235568, 0.025279079, -1191156.0, 33728.984, 0.0, 9.999724, 10.000344 
1.0450066e+3, 1.8501227e+2, -1127189.9, -1104107.0, -18934.057, 0.0051048137, 0.036765076, -1093474.1, 33408.32, 0.0, 9.999899, 10.000203 
1.0450288e+3, 1.9501223e+2, -1007739.4, -995045.4, -19422.115, -0.013023189, 0.013104841, -980959.5, 47923.23, 0.0, 10.000043, 10.00021 
1.0450509e+3, 2.0501229e+2, -912370.1, -946964.44, -35509.3, -0.020127377, 0.02441034, -890169.1, 40713.867, 0.0, 10.000235, 9.999775 
1.045073e+3, 2.1501249e+2, -778901.3, -831220.2, -35266.5, -0.015349751, 0.067286536, -761151.25, 71732.086, 0.0, 10.000476, 9.999781 
1.04509495e+3, 2.2501227e+2, -671888.3, -767459.7, -38692.316, -0.012249858, 0.0867317, -658187.7, 76699.44, 0.0, 10.000704, 9.999435 
1.04511686e+3, 2.3501162e+2, -542182.7, -653771.25, -34810.715, -0.011314342, 0.08081105, -532213.9, 104680.53, 0.0, 10.00092, 9.999439 
1.04513854e+3, 2.450109e+2, -445234.2, -605741.06, -34988.99, -0.022209816, 0.08789935, -437938.53, 100963.47, 0.0, 10.001126, 9.998996 
1.04516014e+3, 2.5501007e+2, -318087.4, -492984.38, -34743.445, -0.044757113, 0.10491389, -311438.38, 129471.66, 0.0, 10.001324, 9.999002 
1.0451819e+3, 2.650087e+2, -238768.25, -478304.8, -43215.25, -0.04201971, 0.10401653, -231210.19, 111713.34, 0.0, 10.001515, 9.998338 
1.0452037e+3, 2.750068e+2, -113159.516, -365960.0, -43593.504, -0.0142353475, 0.08228595, -105853.31, 139089.17, 0.0, 10.001701, 9.998347 
1.04522556e+3, 2.8500497e+2, -14673.153, -323002.66, -27872.648, -0.012128785, 0.09220751, -12173.757, 134787.27, 0.0, 10.001943, 9.997853 
1.0452472e+3, 2.950032e+2, 127902.734, -202532.83, -25212.363, -0.034769185, 0.13148712, 129815.375, 178794.47, 0.0, 10.002244, 9.997862 
1.04526944e+3, 3.0500105e+2, 256862.7, -74266.29, -20014.564, -0.026638445, 0.11327759, 258068.06, 258068.06, 0.0, 10.002618, 9.998228 
1.0452919e+3, 3.1499887e+2, 322770.25, -39680.305, -28346.563, 0.010723541, 0.07522766, 324973.78, 324973.78, 0.0, 10.003058, 9.998254 
1.0548694e+3, 1.24985784e+2, -1841701.5, -1700855.9, -21421.066, -0.015408418, -0.010796749, -1697670.1, 17468.693, 0.0003754382, 9.998806, 10.000672 
1.0548919e+3, 1.3498637e+2, -1722207.0, -1571513.1, -3716.3018, -0.059021983, -0.036060486, -1571421.5, 45709.645, 0.00016041061, 9.998862, 10.000861 
1.05491556e+3, 1.4498723e+2, -1619182.0, -1501454.0, -8779.156, 0.01738589, -0.019757206, -1500803.0, 18319.283, 0.000032450233, 9.999027, 10.000587 
1.05493814e+3, 1.5498771e+2, -1482431.6, -1383387.8, -4854.7393, -0.0033976499, -0.03107912, -1383150.4, 37967.965, 0.0000008393984, 9.999288, 10.0006 
1.0549607e+3, 1.6498823e+2, -1371336.4, -1311861.1, -2923.384, -0.013917702, -0.019952027, -1311717.8, 11396.619, 0.0, 9.999518, 10.000306 
1.05498366e+3, 1.7498885e+2, -1242553.1, -1197897.1, -4034.522, -0.009001706, 0.010601621, -1197535.6, 27574.754, 0.0, 9.999725, 10.000317 
1.0550064e+3, 1.849892e+2, -1127750.1, -1105698.3, -13877.382, -0.007100605, 0.023713453, -1098999.8, 28107.918, 0.0, 9.9999, 10.000193 
1.0550288e+3, 1.9498932e+2, -1008323.7, -996787.1, -14377.898, -0.009862671, 0.017246557, -987063.56, 42042.945, 0.0, 10.000045, 10.000197 
1.05505124e+3, 2.049894e+2, -911563.3, -945775.06, -26845.0, -0.01313192, 0.029568855, -896837.4, 34269.51, 0.0, 10.0002365, 9.999783 
1.0550735e+3, 2.1498945e+2, -778169.56, -830045.1, -26597.563, -0.016011711, 0.057965863, -766956.3, 66152.61, 0.0, 10.000476, 9.999789 
1.0550956e+3, 2.2498931e+2, -664485.2, -752287.56, -31002.973, -0.0150549775, 0.077348776, -654641.6, 80470.5, 0.0, 10.000704, 9.99954 
1.0551178e+3, 2.3498891e+2, -534668.5, -638317.9, -27081.672, -0.010194663, 0.084852226, -528019.1, 109097.414, 0.0, 10.00092, 9.999546 
1.05513975e+3, 2.449882e+2, -444393.63, -604053.0, -27956.348, -0.014460969, 0.090490475, -439640.0, 99483.61, 0.0, 10.001125, 9.999008 
1.05516165e+3, 2.549872e+2, -317497.0, -491500.03, -27584.117, -0.028238118, 0.09162222, -313228.88, 127904.57, 0.0, 10.001322, 9.999014 
1.0551835e+3, 2.649859e+2, -239172.6, -478872.78, -36548.973, -0.03072681, 0.095858805, -233723.56, 109423.18, 0.0, 10.0015135, 9.998335 
1.0552053e+3, 2.7498427e+2, -113324.195, -366432.28, -36905.227, -0.021783011, 0.10034067, -108052.89, 137110.64, 0.0, 10.0017, 9.998344 
1.05522744e+3, 2.8498244e+2, -9011.873, -311306.1, -16961.77, -0.015854606, 0.10701783, -8063.123, 139118.53, 0.0, 10.001942, 9.997934 
1.05524965e+3, 2.9498044e+2, 133262.44, -190853.84, -14113.459, -0.012629286, 0.11333241, 133875.84, 183076.92, 0.0, 10.002241, 9.997944 
1.0552722e+3, 3.0497816e+2, 245552.1, -97017.61, -3590.858, -0.0030000247, 0.08358961, 245589.72, 245589.72, 0.0, 10.002614, 9.998075 
1.05529495e+3, 3.1497598e+2, 311437.94, -62676.26, -11878.956, 0.0114753945, 0.0629426, 311814.75, 311814.75, 0.0, 10.003056, 9.998097 
1.0648683e+3, 1.2496259e+2, -1814334.6, -1682361.0, -21775.674, -0.0039558685, -0.015112921, -1678860.8, 36505.11, 0.00044022893, 9.998972, 10.000719 
1.06489085e+3, 1.349632e+2, -1691069.9, -1551901.5, -4118.629, -0.048148993, -0.044043463, -1551779.6, 65577.88, 0.0001936281, 9.999057, 10.000901 
1.06491454e+3, 1.4496405e+2, -1599196.9, -1497870.6, -8237.199, 0.017253587, -0.027056394, -1497205.4, 22143.297, 0.00004209593, 9.999192, 10.000532 
1.0649374e+3, 1.5496455e+2, -1475094.4, -1386056.6, -15231.977, -0.00038542642, -0.029105607, -1383522.9, 37822.137, 0.0000013547506, 9.999366, 10.000544 
1.06496036e+3, 1.6496508e+2, -1365111.4, -1308083.6, -17603.602, -0.011702345, -0.017405316, -1303087.4, 20254.111, 0.0, 9.999559, 10.000313 
1.0649833e+3, 1.7496559e+2, -1235194.0, -1193522.0, -16266.802, -0.011818547, 0.005135476, -1187924.3, 37413.69, 0.0, 9.999773, 10.000323 
1.06500626e+3, 1.8496595e+2, -1116782.5, -1099163.3, -25774.18, -0.00999207, 0.017002098, -1080734.6, 46600.45, 0.0, 9.99997, 10.000202 
1.0650289e+3, 1.9496612e+2, -991336.44, -987207.8, -24587.36, -0.007859188, 0.015776362, -964598.25, 64734.824, 0.0, 10.000156, 10.000209 
1.0650515e+3, 2.0496619e+2, -903888.5, -945899.8, -37271.027, -0.010981929, 0.026742304, -882111.4, 49222.355, 0.0, 10.000306, 9.999748 
1.0650738e+3, 2.1496615e+2, -788681.4, -839047.2, -40356.355, -0.01863631, 0.047644485, -766295.25, 67041.92, 0.0, 10.000422, 9.999753 
1.0650962e+3, 2.2496599e+2, -674867.6, -748359.4, -45583.43, -0.019272901, 0.06681967, -653063.44, 82276.71, 0.0, 10.000595, 9.9996195 
1.0651185e+3, 2.3496574e+2, -542620.25, -633049.9, -43726.996, -0.01263293, 0.08121304, -524934.9, 112407.88, 0.0, 10.000827, 9.999626 
1.0651409e+3, 2.4496509e+2, -459845.84, -611595.25, -48036.03, -0.0115315, 0.0874147, -445918.38, 93431.03, 0.0, 10.00102, 9.999007 
1.06516294e+3, 2.5496402e+2, -338982.2, -501914.8, -48922.777, -0.016304277, 0.08267339, -325421.13, 115938.945, 0.0, 10.001175, 9.999013 
1.0651851e+3, 2.6496273e+2, -255230.39, -484665.7, -55311.39, -0.018913103, 0.08696927, -242592.28, 100781.19, 0.0, 10.001395, 9.998352 
1.06520705e+3, 2.7496117e+2, -114585.36, -365030.5, -54411.81, -0.019328687, 0.09745728, -103274.64, 142114.92, 0.0, 10.001684, 9.998362 
1.0652294e+3, 2.8495938e+2, -5436.2866, -300209.34, -33452.105, -0.0139053315, 0.10229707, -1687.6693, 145719.4, 0.0, 10.001926, 9.998017 
1.065252e+3, 2.9495737e+2, 122116.445, -186754.36, -30518.73, -0.0024339824, 0.09908101, 125103.04, 174528.95, 0.0, 10.002124, 9.998028 
1.0652749e+3, 3.04955e+2, 216836.89, -117061.21, -9241.999, 0.011427822, 0.06370192, 217092.52, 217092.52, 0.0, 10.002444, 9.998018 
1.06529795e+3, 3.149529e+2, 284473.1, -81632.96, -11187.89, 0.025861476, 0.05360856, 284814.66, 284814.66, 0.0, 10.002897, 9.998043 
1.0748674e+3, 1.2493941e+2, -1809977.0, -1673499.8, -17703.781, 0.012473907, -0.014112234, -1671240.6, 44352.41, 0.0005108164, 9.998972, 10.00078 
1.07489005e+3, 1.3494e+2, -1687044.6, -1543727.1, -1122.162, -0.03651054, -0.04967385, -1543718.4, 73865.516, 0.00023041679, 9.999057, 10.0009575 
1.0749137e+3, 1.4494076e+2, -1613215.9, -1527204.0, -1831.7748, 0.012202712, -0.03411531, -1527165.1, -7589.239, 0.000053336094, 9.999192, 10.000331 
1.0749366e+3, 1.5494116e+2, -1489128.4, -1415429.4, -9064.342, -0.00834015, -0.026763141, -1414331.0, 7243.4175, 0.0000020676762, 9.999366, 10.000341 
1.0749597e+3, 1.6494164e+2, -1362372.0, -1302694.6, -9912.785, -0.0166557, -0.011589731, -1301091.1, 22480.512, 0.0000000000166348, 9.999559, 10.000349 
1.074983e+3, 1.7494218e+2, -1232374.5, -1188045.3, -8537.279, -0.007470917, 0.008793437, -1186458.0, 39109.58, 0.0, 9.999774, 10.0003605 
1.0750062e+3, 1.8494251e+2, -1114460.0, -1094757.6, -19191.64, -0.0036981155, 0.016560571, -1083036.5, 44527.883, 0.0, 9.999972, 10.000233 
1.0750291e+3, 1.9494267e+2, -988866.1, -982467.94, -17989.902, -0.0070260605, 0.008879323, -967394.9, 62167.28, 0.0, 10.000157, 10.000241 
1.0750517e+3, 2.0494267e+2, -909200.06, -957337.7, -33350.3, -0.013718167, 0.016088633, -892140.4, 39422.91, 0.0, 10.000307, 9.999669 
1.0750742e+3, 2.1494253e+2, -794070.44, -850840.94, -36364.98, -0.02329879, 0.03626792, -776323.94, 57243.89, 0.0, 10.000423, 9.999672 
1.07509665e+3, 2.2494237e+2, -670842.2, -740587.06, -37250.766, -0.024925405, 0.055211574, -654688.06, 80882.98, 0.0, 10.000597, 9.999672 
1.0751194e+3, 2.3494217e+2, -538811.75, -625351.56, -35309.02, -0.018521575, 0.0702299, -526233.56, 111339.33, 0.0, 10.000827, 9.99968 
1.0751419e+3, 2.4494158e+2, -461158.75, -614348.5, -42569.89, -0.013301284, 0.07889202, -450123.88, 89455.19, 0.0, 10.00102, 9.998989 
1.07516415e+3, 2.5494054e+2, -340214.06, -504586.44, -43365.72, -0.00894457, 0.07775876, -329474.7, 112115.04, 0.0, 10.001175, 9.998995 
1.0751865e+3, 2.6493922e+2, -253061.25, -479991.84, -44758.39, -0.0068829656, 0.077540815, -244552.42, 99051.03, 0.0, 10.001394, 9.998385 
1.07520886e+3, 2.7493757e+2, -112827.56, -360658.6, -43766.598, -0.007697911, 0.07549312, -105325.53, 140294.67, 0.0, 10.00168, 9.998394 
1.07523136e+3, 2.8493583e+2, -265.0299, -288535.44, -26412.639, -0.006737528, 0.07976012, 2135.0332, 149771.94, 0.0, 10.001922, 9.9981 
1.075254e+3, 2.94934e+2, 127422.36, -174979.08, -23467.34, -0.003236601, 0.08832793, 129232.664, 178886.1, 0.0, 10.00212, 9.998112 
1.0752773e+3, 3.0493167e+2, 218060.0, -113629.88, 7305.5815, 0.017198093, 0.052443072, 218220.83, 218220.83, 0.0, 10.0024395, 9.998045 
1.0753012e+3, 3.1492966e+2, 285608.56, -77673.945, 5510.533, 0.05178846, 0.04689464, 285692.13, 285692.13, 0.0, 10.002889, 9.998075 
1.0848666e+3, 1.2491609e+2, -1784538.5, -1666210.4, -14015.711, 0.02114296, -0.021165056, -1664572.9, 51248.027, 0.0005868399, 9.999168, 10.000735 
1.08488925e+3, 1.349166e+2, -1640077.1, -1527035.9, -6685.498, -0.03074525, -0.057925727, -1526641.9, 91170.47, 0.00027068684, 9.999406, 10.000903 
1.08491294e+3, 1.4491731e+2, -1568467.9, -1515401.4, -9838.866, 0.0055031707, -0.04174355, -1513635.9, 6169.106, 0.00006622561, 9.999542, 10.000243 
1.08493604e+3, 1.5491769e+2, -1467382.4, -1414944.0, -9052.998, -0.010107265, -0.02710946, -1413425.1, 8379.052, 0.000003027, 9.999559, 10.000252 
1.08495936e+3, 1.6491811e+2, -1352765.0, -1304985.8, -5720.0, -0.014334096, -0.009267799, -1304310.6, 19491.541, 0.000000000186287, 9.999657, 10.000287 
1.0849829e+3, 1.7491856e+2, -1227315.4, -1192569.4, -11994.645, -0.002495074, 0.008886587, -1188831.0, 36967.91, 0.0, 9.99984, 10.000298 
1.0850062e+3, 1.8491884e+2, -1112313.9, -1094889.8, -29657.502, 0.000009853928, 0.012691002, -1072691.3, 55105.063, 0.0, 9.999992, 10.000221 
1.0850292e+3, 1.9491892e+2, -995772.94, -986970.44, -31840.766, -0.0083947005, -0.00063447875, -959228.2, 70566.24, 0.0, 10.000115, 10.00023 
1.085052e+3, 2.0491889e+2, -913448.3, -961669.7, -46164.285, -0.01602068, 0.005158266, -885477.6, 46318.0, 0.0, 10.000288, 9.999648 
1.0850747e+3, 2.1491875e+2, -782377.5, -847403.75, -44912.58, -0.022385214, 0.028045876, -759444.75, 74355.336, 0.0, 10.000514, 9.999651 
1.0850973e+3, 2.2491856e+2, -663356.0, -741506.56, -47580.473, -0.023737501, 0.048567276, -640861.94, 94941.58, 0.0, 10.000669, 9.999631 
1.08512014e+3, 2.3491834e+2, -552739.94, -636521.5, -52721.27, -0.020257892, 0.06440001, -527293.0, 110512.87, 0.0, 10.000751, 9.9996395 
1.0851427e+3, 2.4491772e+2, -479143.7, -623803.06, -61982.39, -0.014575333, 0.07446832, -456218.97, 83593.27, 0.0, 10.0009, 9.998981 
1.0851653e+3, 2.549167e+2, -349223.56, -509639.34, -62193.76, -0.0061274697, 0.074944034, -327935.78, 113887.04, 0.0, 10.001117, 9.998988 
1.085188e+3, 2.6491532e+2, -262658.25, -480373.5, -61576.586, 0.0024943799, 0.07036092, -246449.25, 97387.4, 0.0, 10.00131, 9.998423 
1.0852106e+3, 2.749136e+2, -138862.02, -369035.34, -60352.902, 0.010821089, 0.058066662, -123997.1, 121856.66, 0.0, 10.001484, 9.99843 
1.08523324e+3, 2.8491193e+2, -28287.69, -294519.22, -43562.063, 0.013284337, 0.06112539, -21341.111, 126528.68, 0.0, 10.001698, 9.998167 
1.0852562e+3, 2.9491025e+2, 108074.16, -176807.86, -41747.176, 0.0104934145, 0.07746223, 114065.85, 163950.52, 0.0, 10.001956, 9.998178 
1.0852798e+3, 3.0490795e+2, 198059.6, -111329.49, -2854.7034, 0.030569205, 0.036661435, 198085.94, 198085.94, 0.0, 10.002252, 9.99815 
1.08530395e+3, 3.1490603e+2, 250592.92, -81787.06, 546.2277, 0.07070018, 0.031238245, 250593.81, 250593.81, 0.0, 10.002595, 9.998188 
1.0948657e+3, 1.2489264e+2, -1795766.6, -1689253.0, -4458.7334, 0.020446975, -0.037834488, -1689066.8, 26982.5, 0.00066826155, 9.9991665, 10.000578 
1.0948887e+3, 1.3489304e+2, -1651779.0, -1551901.0, 2045.5481, -0.03126365, -0.068818666, -1551859.1, 66183.305, 0.00031450897, 9.999408, 10.000732 
1.0949124e+3, 1.4489369e+2, -1566452.6, -1512098.6, -9377.999, -0.003044659, -0.049810983, -1510526.0, 9509.876, 0.000080840386, 9.999545, 10.000264 
1.0949357e+3, 1.5489414e+2, -1465674.8, -1411888.1, -8858.881, -0.005778592, -0.030316383, -1410466.6, 11567.48, 0.0000043066148, 9.99956, 10.000273 
1.0949591e+3, 1.6489452e+2, -1364322.5, -1329292.6, 769.6063, -0.0047837454, -0.010622874, -1329275.8, -5243.0425, 0.0000000006358386, 9.999657, 10.00012 
1.0949828e+3, 1.748948e+2, -1238865.3, -1216953.8, -5403.9517, 0.003036042, 0.0054124617, -1215693.4, 10338.21, 0.0, 9.999841, 10.00013 
1.0950061e+3, 1.848949e+2, -1116083.4, -1103180.8, -25389.564, 0.0009943433, 0.0054516736, -1083435.8, 44594.895, 0.0, 9.999994, 10.000164 
1.0950292e+3, 1.9489488e+2, -999447.75, -995245.8, -27573.018, -0.012025999, -0.012812074, -969693.9, 60335.734, 0.0, 10.000117, 10.000173 
1.0950522e+3, 2.0489484e+2, -910870.6, -956923.7, -38082.13, -0.018042732, -0.006178628, -889394.7, 42635.867, 0.0, 10.00029, 9.9996805 
1.09507516e+3, 2.1489479e+2, -779780.56, -842387.7, -36792.77, -0.016236393, 0.022785159, -762776.56, 71257.21, 0.0, 10.000515, 9.999685 
1.095098e+3, 2.248946e+2, -672361.1, -760648.5, -44853.496, -0.01611181, 0.04668645, -653572.3, 82465.11, 0.0, 10.0006695, 9.999499 
1.0951208e+3, 2.3489426e+2, -561565.06, -655753.25, -49859.83, -0.018184246, 0.063558176, -540074.5, 97967.016, 0.0, 10.000754, 9.999506 
1.09514356e+3, 2.4489357e+2, -478568.28, -623580.3, -54039.33, -0.015467715, 0.073948815, -460645.47, 79403.23, 0.0, 10.000904, 9.998981 
1.09516636e+3, 2.5489256e+2, -348863.38, -509393.56, -54146.887, -0.007637092, 0.07402507, -332307.16, 109751.914, 0.0, 10.001118, 9.99899 
1.0951893e+3, 2.6489115e+2, -260004.06, -474989.06, -55213.363, 0.009180019, 0.06526226, -246653.06, 97419.76, 0.0, 10.00131, 9.99846 
1.09521225e+3, 2.748894e+2, -136248.83, -363462.22, -53991.74, 0.035428096, 0.044882126, -124071.625, 122018.336, 0.0, 10.001482, 9.99847 
1.0952352e+3, 2.8488773e+2, -25132.71, -287687.06, -34230.95, 0.04488472, 0.046089668, -20743.182, 127362.31, 0.0, 10.001696, 9.998216 
1.09525844e+3, 2.9488614e+2, 111500.51, -169645.69, -32289.363, 0.037126128, 0.06654822, 115161.24, 165280.55, 0.0, 10.001955, 9.998228 
1.0952822e+3, 3.0488387e+2, 209481.86, -86714.83, 9267.103, 0.050507553, 0.016915873, 209771.52, 209771.52, 0.0, 10.002247, 9.9983225 
1.0953068e+3, 3.1488213e+2, 261103.05, -56445.277, 12476.841, 0.082908265, 0.011097138, 261592.52, 261592.52, 0.0, 10.002579, 9.99837 
1.10486485e+3, 1.2486891e+2, -1781306.9, -1691363.6, -23931.553, 0.009446613, -0.046084117, -1685392.4, 30888.484, 0.00075576623, 9.999306, 10.000496 
1.1048882e+3, 1.3486922e+2, -1662145.8, -1567147.6, -12456.44, -0.019643405, -0.07637227, -1565541.5, 52734.03, 0.00036234639, 9.999382, 10.00064 
1.104912e+3, 1.4486982e+2, -1566355.3, -1515050.0, -23458.535, 0.0026050226, -0.056766342, -1505941.3, 14328.535, 0.00009737699, 9.999559, 10.0002365 
1.1049353e+3, 1.5487029e+2, -1428380.3, -1396745.1, -27011.154, -0.0079272445, -0.03253613, -1381261.0, 41006.7, 0.0000060098255, 9.99983, 10.000246 
1.1049589e+3, 1.6487063e+2, -1318180.8, -1314399.1, -15993.587, -0.008936474, -0.010331124, -1300184.9, 24081.51, 0.0000000015512864, 10.000007, 10.000053 
1.10498264e+3, 1.7487083e+2, -1207622.6, -1209175.5, -14673.08, 0.0026745053, 0.0058269664, -1193705.5, 32560.66, 0.0, 10.000088, 10.000064 
1.10500626e+3, 1.8487088e+2, -1089018.3, -1096107.3, -30350.459, -0.00097334967, 0.004154359, -1062006.0, 66259.83, 0.0, 10.000206, 10.00011 
1.1050293e+3, 1.9487076e+2, -966928.25, -985431.75, -32386.38, -0.021444311, -0.018022094, -942498.06, 87767.445, 0.0, 10.000367, 10.000119 
1.10505246e+3, 2.0487066e+2, -886725.44, -948863.0, -45440.54, -0.025610263, -0.013921115, -862747.75, 69519.17, 0.0, 10.000472, 9.999648 
1.1050757e+3, 2.1487056e+2, -781634.4, -846919.56, -49237.13, -0.01200708, 0.0141946925, -755202.1, 79068.13, 0.0, 10.000519, 9.999652 
1.1050987e+3, 2.2487028e+2, -679578.1, -774471.75, -57306.082, -0.0073143463, 0.03662238, -652626.1, 83648.56, 0.0, 10.000665, 9.999407 
1.1051217e+3, 2.3486982e+2, -544544.7, -658067.06, -59581.16, -0.01224279, 0.0511428, -519015.25, 119264.93, 0.0, 10.000917, 9.999412 
1.1051446e+3, 2.4486911e+2, -454865.72, -615099.2, -64544.84, -0.009465324, 0.06401215, -432100.34, 108187.53, 0.0, 10.00108, 9.998955 
1.1051676e+3, 2.5486812e+2, -346036.16, -511053.38, -66950.414, 0.0012618966, 0.07177847, -322290.22, 120007.57, 0.0, 10.001151, 9.998962 
1.1051907e+3, 2.6486674e+2, -267862.75, -478682.28, -69949.62, 0.021622663, 0.063401304, -246764.94, 97546.56, 0.0, 10.001256, 9.998461 
1.1052138e+3, 2.748649e+2, -148584.47, -369418.88, -71606.01, 0.05229707, 0.035588764, -127398.555, 118930.48, 0.0, 10.001398, 9.998469 
1.1052371e+3, 2.8486317e+2, -36469.383, -290307.66, -49933.266, 0.06390668, 0.02976755, -27000.107, 121344.734, 0.0, 10.001606, 9.9982395 
1.1052605e+3, 2.9486153e+2, 103403.24, -170719.22, -49675.297, 0.05561015, 0.04356345, 112127.52, 162486.33, 0.0, 10.001887, 9.998253 
1.1052844e+3, 3.0485928e+2, 181878.14, -93820.08, -17348.701, 0.06712574, -0.009667818, 182965.55, 182965.55, 0.0, 10.002031, 9.998377 
1.10530905e+3, 3.1485778e+2, 187382.56, -84015.164, -22577.684, 0.09671973, 0.0046436647, 189247.98, 189247.98, 0.0, 10.002039, 9.998441 
1.1148639e+3, 1.248449e+2, -1781897.1, -1692427.1, -21477.27, -0.01385074, -0.04642993, -1687538.6, 28977.27, 0.00085056474, 9.999304, 10.00049 
1.1148878e+3, 1.3484517e+2, -1663725.0, -1569917.4, -10105.056, 0.0043829335, -0.08046652, -1568841.3, 49669.973, 0.00041499882, 9.999379, 10.000623 
1.1149117e+3, 1.4484571e+2, -1572111.1, -1526688.1, -13713.029, 0.022935957, -0.06252313, -1522869.4, -2363.132, 0.00011616446, 9.9995575, 10.000158 
1.1149349e+3, 1.5484613e+2, -1433728.4, -1408295.0, -17292.693, -0.016774498, -0.033615913, -1399546.6, 22957.994, 0.000008247579, 9.999831, 10.000166 
1.1149586e+3, 1.6484648e+2, -1315535.5, -1309675.1, -13383.441, -0.027241072, -0.008326618, -1298904.9, 25598.393, 0.0000000033697685, 10.000009, 10.000085 
1.1149827e+3, 1.7484674e+2, -1204929.3, -1204224.3, -12054.858, -0.0037801561, 0.01003727, -1192516.8, 33985.35, 0.0, 10.00009, 10.000097 
1.11500636e+3, 1.8484677e+2, -1092573.5, -1103928.9, -24730.21, -0.0059790276, 0.00866039, -1072877.5, 55624.094, 0.0, 10.000207, 10.000056 
1.1150295e+3, 1.9484657e+2, -970371.75, -993043.7, -26743.574, -0.036710035, -0.016344152, -952660.75, 77841.24, 0.0, 10.000368, 10.000067 
1.11505285e+3, 2.0484634e+2, -893354.06, -963195.6, -43982.46, -0.03877753, -0.0180567, -872115.1, 60389.473, 0.0, 10.000474, 9.999549 
1.1150763e+3, 2.1484607e+2, -788171.56, -861349.6, -47847.734, -0.009790854, 0.0024287656, -764526.4, 69983.055, 0.0, 10.000522, 9.999553 
1.1150995e+3, 2.2484566e+2, -683442.44, -783303.25, -48234.496, 0.0024735047, 0.018641118, -663949.4, 72565.69, 0.0, 10.000668, 9.999345 
1.11512266e+3, 2.3484507e+2, -548544.3, -666685.1, -50342.652, -0.0027421995, 0.027644385, -530002.25, 108519.37, 0.0, 10.000917, 9.999352 
1.11514576e+3, 2.4484435e+2, -458800.47, -623448.0, -61957.332, 0.0028995282, 0.045114405, -438090.7, 102438.84, 0.0, 10.00108, 9.998898 
1.1151689e+3, 2.5484347e+2, -349827.9, -519399.28, -64313.66, 0.019715305, 0.068306625, -328195.28, 114343.54, 0.0, 10.001152, 9.998904 
1.1151922e+3, 2.6484206e+2, -270032.16, -483955.72, -64683.168, 0.03937797, 0.06450172, -251994.98, 92557.54, 0.0, 10.001259, 9.998424 
1.11521535e+3, 2.7484012e+2, -150649.06, -374789.63, -66231.0, 0.061877374, 0.029790564, -132541.42, 114029.34, 0.0, 10.001402, 9.998431 
1.11523874e+3, 2.8483826e+2, -36211.91, -290328.1, -39545.074, 0.07103795, 0.012408702, -30200.201, 118387.336, 0.0, 10.001607, 9.9982395 
1.1152624e+3, 2.9483646e+2, 102736.99, -171144.58, -39095.4, 0.06662237, 0.0099709, 108208.38, 158811.1, 0.0, 10.001883, 9.998253 
1.11528665e+3, 3.048342e+2, 177536.28, -102103.46, -17201.973, 0.08071837, -0.04238215, 178590.47, 178590.47, 0.0, 10.002027, 9.9983225 
1.1153113e+3, 3.1483305e+2, 185694.78, -88712.32, -22449.559, 0.11118369, 0.013345255, 187519.27, 187519.27, 0.0, 10.002043, 9.998406 
1.124863e+3, 1.2482079e+2, -1780948.3, -1698760.3, -20637.725, -0.022951052, -0.048200343, -1693869.1, 22882.44, 0.0009537465, 9.999341, 10.000428 
1.12488724e+3, 1.3482103e+2, -1643708.6, -1568832.0, -14029.293, 0.006299874, -0.077439085, -1566289.8, 52457.95, 0.00047316175, 9.999555, 10.0005455 
1.1249112e+3, 1.4482147e+2, -1546930.5, -1520908.6, -16158.148, 0.019855695, -0.061531313, -1513174.3, 7569.535, 0.00013752929, 9.999759, 10.0001 
1.1249349e+3, 1.548218e+2, -1421251.8, -1408598.6, -18597.918, -0.012106125, -0.038254604, -1395280.6, 27462.486, 0.00001111389, 9.999945, 10.000109 
1.1249588e+3, 1.6482212e+2, -1303020.9, -1302209.9, -19943.902, -0.024177665, -0.014038578, -1282667.4, 42074.45, 0.0000000061074554, 10.00009, 10.000096 
1.1249827e+3, 1.7482242e+2, -1189533.4, -1195227.4, -20273.852, -0.012780138, 0.008077944, -1171907.6, 54832.27, 0.0, 10.000189, 10.00011 
1.12500645e+3, 1.8482243e+2, -1082085.8, -1106829.5, -31992.465, -0.016980883, 0.006754676, -1060156.4, 68583.41, 0.0, 10.000315, 9.999984 
1.1250299e+3, 1.948221e+2, -961008.25, -996636.44, -35658.395, -0.03870245, -0.022463812, -938961.8, 91779.65, 0.0, 10.000468, 9.999994 
1.1250533e+3, 2.0482178e+2, -877086.9, -963454.3, -54856.94, -0.037879735, -0.025409779, -850455.7, 82289.16, 0.0, 10.000622, 9.9994755 
1.1250768e+3, 2.1482147e+2, -756537.1, -854325.25, -57060.38, -0.012766831, -0.0023597986, -730287.9, 104462.164, 0.0, 10.000775, 9.999478 
1.12510026e+3, 2.2482097e+2, -658857.25, -779329.3, -55365.785, 0.002229849, 0.013579601, -637277.94, 99478.37, 0.0, 10.000872, 9.999274 
1.12512365e+3, 2.3482028e+2, -555227.06, -677600.2, -58478.29, 0.006788228, 0.018883118, -531776.1, 106987.6, 0.0, 10.000906, 9.999283 
1.125147e+3, 2.4481948e+2, -473466.38, -637420.25, -71362.83, 0.017637862, 0.034446303, -446756.28, 94016.13, 0.0, 10.00101, 9.998836 
1.12517014e+3, 2.5481853e+2, -349227.47, -526102.44, -74484.8, 0.034970094, 0.057740934, -322039.8, 120742.53, 0.0, 10.001187, 9.998841 
1.12519346e+3, 2.648171e+2, -256939.86, -481142.34, -73718.266, 0.051032364, 0.05434999, -234873.03, 109923.4, 0.0, 10.001365, 9.998391 
1.1252168e+3, 2.7481508e+2, -131983.89, -369268.13, -74912.984, 0.06542872, 0.020425757, -110312.414, 136502.38, 0.0, 10.001546, 9.998399 
1.1252405e+3, 2.848132e+2, -33469.69, -293979.03, -50381.445, 0.07953309, 0.0031361242, -24065.6, 124766.34, 0.0, 10.001648, 9.998195 
1.1252644e+3, 2.9481134e+2, 68220.1, -192853.25, -53323.79, 0.09417737, -0.00031899178, 78691.41, 129539.24, 0.0, 10.001668, 9.998206 
1.1252887e+3, 3.0480903e+2, 146133.33, -117388.97, -31098.57, 0.10616772, -0.05654797, 149753.58, 149753.58, 0.0, 10.001813, 9.998321 
1.12531334e+3, 3.14808e+2, 195912.89, -81118.445, -32850.7, 0.11205399, 0.014471494, 199755.08, 199755.08, 0.0, 10.002102, 9.99843 
1.13486245e+3, 1.2479662e+2, -1790420.3, -1717334.5, -12856.818, -0.016816117, -0.051717035, -1715138.9, 1848.8798, 0.0010656647, 9.999336, 10.000304 
1.1348866e+3, 1.3479684e+2, -1653886.1, -1589972.9, -6437.555, -0.014980757, -0.0670091, -1589331.0, 29653.719, 0.00053702114, 9.999554, 10.000401 
1.1349107e+3, 1.4479718e+2, -1549672.5, -1527013.8, -9585.823, -0.00813901, -0.053594675, -1523502.6, -2520.556, 0.00016162105, 9.99976, 10.000058 
1.134935e+3, 1.5479729e+2, -1423899.4, -1414380.3, -12129.047, 0.0060545597, -0.04651129, -1406110.4, 16872.53, 0.000014669085, 9.999946, 10.00007 
1.134959e+3, 1.6479753e+2, -1303548.4, -1303697.1, -16575.129, 0.0007339886, -0.027559198, -1287047.5, 37934.516, 0.000000009421829, 10.000091, 10.000087 
1.1349828e+3, 1.7479788e+2, -1189958.1, -1196603.1, -16936.135, -0.024312714, -0.000023148366, -1176021.8, 50957.64, 0.0, 10.000191, 10.0001 
1.1350066e+3, 1.8479784e+2, -1088514.8, -1120644.3, -26634.91, -0.034249324, -0.0015064485, -1073474.9, 55504.914, 0.0, 10.000316, 9.999889 
1.13503054e+3, 1.9479737e+2, -967480.2, -1010576.7, -30232.15, -0.027823366, -0.036366004, -951902.9, 79080.72, 0.0, 10.00047, 9.999898 
1.1350541e+3, 2.04797e+2, -880548.2, -971031.94, -49452.31, -0.023217479, -0.036096364, -858765.0, 74222.62, 0.0, 10.000623, 9.999423 
1.13507755e+3, 2.1479675e+2, -759916.4, -861873.56, -51574.1, -0.020773595, -0.0004972704, -738378.06, 96613.87, 0.0, 10.000776, 9.999426 
1.13510095e+3, 2.2479625e+2, -664245.1, -791275.8, -54348.73, -0.007826445, 0.020912075, -644166.3, 92831.87, 0.0, 10.000874, 9.999191 
1.13512464e+3, 2.3479545e+2, -560424.6, -689330.1, -57399.063, 0.01615992, 0.02415612, -538570.9, 100435.56, 0.0, 10.000909, 9.999201 
1.1351481e+3, 2.4479447e+2, -478067.63, -647822.7, -64954.098, 0.03449436, 0.031601794, -456065.66, 84950.76, 0.0, 10.001013, 9.998763 
1.1351715e+3, 2.5479332e+2, -354043.66, -536587.4, -67766.81, 0.04707587, 0.040606357, -331636.6, 111391.586, 0.0, 10.001188, 9.998769 
1.135195e+3, 2.647918e+2, -258981.75, -485538.53, -66755.04, 0.056799218, 0.033785008, -240775.42, 104267.61, 0.0, 10.001365, 9.998362 
1.1352183e+3, 2.747899e+2, -134056.31, -373482.5, -67798.81, 0.0632578, 0.0077813114, -116190.69, 130870.266, 0.0, 10.001545, 9.998371 
1.1352422e+3, 2.84788e+2, -39939.5, -307308.47, -49474.668, 0.08901308, 0.0011135348, -31078.256, 117999.72, 0.0, 10.001647, 9.998104 
1.1352665e+3, 2.9478619e+2, 61685.824, -206401.39, -52319.207, 0.13616459, 0.010313686, 71534.5, 122628.66, 0.0, 10.001667, 9.998114 
1.13529086e+3, 3.0478376e+2, 148870.06, -111449.234, -20055.2, 0.14188372, -0.053892516, 150406.08, 150406.08, 0.0, 10.00181, 9.998363 
1.1353153e+3, 3.1478277e+2, 200438.81, -70710.88, -21430.922, 0.100478984, 0.013501771, 202122.2, 202122.2, 0.0, 10.002096, 9.998505 
1.1448618e+3, 1.24772124e+2, -1789608.6, -1729448.0, -15962.449, -0.012292217, -0.06551947, -1725475.0, -8248.397, 0.0011858052, 9.999396, 10.000191 
1.1448861e+3, 1.3477238e+2, -1631595.8, -1593835.3, -8656.634, -0.01832044, -0.065820195, -1591945.4, 27278.922, 0.00060623867, 9.99977, 10.000269 
1.1449104e+3, 1.4477263e+2, -1514099.5, -1513591.6, -16766.502, -0.022899853, -0.051085413, -1497077.3, 24145.338, 0.00018835878, 10.000021, 10.000025 
1.144935e+3, 1.5477261e+2, -1401363.9, -1407144.8, -19287.607, 0.005736435, -0.05400384, -1384751.3, 38473.004, 0.000018936791, 10.000116, 10.000036 
1.14495926e+3, 1.647728e+2, -1278040.5, -1290679.4, -22667.457, 0.004125336, -0.03949021, -1260828.0, 64395.645, 0.000000013934886, 10.000263, 10.000092 
1.144983e+3, 1.7477316e+2, -1148432.1, -1175678.3, -22014.613, -0.028937368, -0.010604403, -1136166.4, 91054.195, 0.0, 10.000473, 10.000108 
1.14500694e+3, 1.847731e+2, -1059202.4, -1117783.0, -34794.93, -0.040303405, -0.008102708, -1043010.75, 86210.62, 0.0, 10.0005665, 9.999787 
1.14503086e+3, 1.947726e+2, -965669.75, -1021203.5, -39269.85, -0.028306149, -0.036155302, -945341.7, 85884.51, 0.0, 10.000533, 9.999794 
1.1450547e+3, 2.047722e+2, -881898.4, -975747.7, -53189.383, -0.01971586, -0.032649826, -857893.25, 75337.555, 0.0, 10.000631, 9.999387 
1.1450784e+3, 2.1477191e+2, -748222.0, -860107.0, -54123.023, -0.014662327, 0.0020493364, -726325.75, 108909.37, 0.0, 10.0008745, 9.999391 
1.1451021e+3, 2.247713e+2, -649252.44, -796423.06, -62931.94, -0.0016954973, 0.020656355, -626011.94, 111230.21, 0.0, 10.001031, 9.99908 
1.1451256e+3, 2.3477036e+2, -541478.9, -692847.1, -68549.6, 0.019117797, 0.019402498, -515049.7, 124202.37, 0.0, 10.001095, 9.999087 
1.1451492e+3, 2.4476926e+2, -456797.63, -637522.9, -72330.78, 0.034311313, 0.021125225, -431414.22, 109848.68, 0.0, 10.00116, 9.998762 
1.14517264e+3, 2.54768e+2, -348388.5, -533507.2, -69962.55, 0.044014376, 0.023022056, -324922.03, 118352.664, 0.0, 10.001226, 9.998771 
1.1451962e+3, 2.6476648e+2, -268235.1, -495739.94, -65917.57, 0.058616646, 0.016030682, -250516.08, 94773.6, 0.0, 10.001327, 9.998309 
1.1452199e+3, 2.747646e+2, -149967.52, -387157.22, -69026.25, 0.07849807, -0.0026588752, -131342.25, 115965.69, 0.0, 10.001462, 9.998317 
1.1452439e+3, 2.8476277e+2, -56108.44, -318542.9, -54491.26, 0.107361734, -0.0013937405, -45243.797, 104081.21, 0.0, 10.001552, 9.998072 
1.14526816e+3, 2.9476097e+2, 48798.902, -215984.58, -53189.46, 0.14600848, 0.015864167, 59084.04, 110425.04, 0.0, 10.001594, 9.998083 
1.14529274e+3, 3.0475843e+2, 136088.81, -108670.8, -11062.195, 0.15009366, -0.063358724, 136587.77, 136587.77, 0.0, 10.001685, 9.998442 
1.1453174e+3, 3.1475735e+2, 170119.36, -71908.125, -10328.987, 0.11576082, -0.011789541, 170559.36, 170559.36, 0.0, 10.001832, 9.998623 
1.1548612e+3, 1.24747336e+2, -1797559.5, -1744947.6, -3037.903, -0.010809429, -0.090940334, -1744772.9, -27304.805, 0.0013130474, 9.999392, 10.000088 
1.15488596e+3, 1.3474764e+2, -1640201.5, -1611730.8, 5039.9736, -0.002960414, -0.07410464, -1610864.9, 8601.275, 0.0006802244, 9.999769, 10.000147 
1.1549104e+3, 1.4474787e+2, -1515898.0, -1517754.4, -13481.418, -0.023557147, -0.05388515, -1503312.9, 18152.105, 0.00021757523, 10.000022, 9.999995 
1.1549349e+3, 1.5474778e+2, -1403321.0, -1411575.4, -16377.004, -0.013563636, -0.060741097, -1390559.1, 32907.906, 0.000023929451, 10.000117, 10.000006 
1.1549592e+3, 1.6474791e+2, -1276582.9, -1288124.6, -15416.65, -0.014849418, -0.04985702, -1265892.4, 59574.203, 0.000000023716384, 10.000264, 10.00011 
1.1549835e+3, 1.7474829e+2, -1146676.5, -1172582.5, -14537.715, -0.026943853, -0.02369599, -1140158.4, 87304.93, 0.0, 10.000474, 10.000129 
1.15500756e+3, 1.8474826e+2, -1066698.4, -1133880.5, -36244.19, -0.03516019, -0.01315292, -1050872.9, 78591.195, 0.0, 10.000568, 9.999677 
1.1550314e+3, 1.9474784e+2, -973319.6, -1037804.9, -40970.84, -0.03993965, -0.022115367, -953425.94, 78043.26, 0.0, 10.000535, 9.99968 
1.1550553e+3, 2.047474e+2, -883324.7, -979383.25, -44580.27, -0.027391234, -0.015268587, -865823.75, 67650.61, 0.0, 10.000633, 9.999361 
1.15507945e+3, 2.1474695e+2, -749505.3, -863147.8, -45256.848, 0.0048279017, 0.005345302, -733684.7, 101794.76, 0.0, 10.000875, 9.99937 
1.1551033e+3, 2.2474614e+2, -659113.56, -817269.56, -60585.336, 0.019972073, 0.013092424, -638572.7, 98915.39, 0.0, 10.001032, 9.998937 
1.1551267e+3, 2.3474498e+2, -551408.06, -714151.7, -66254.375, 0.015991759, 0.005126151, -527846.5, 111653.9, 0.0, 10.001097, 9.99894 
1.15515016e+3, 2.4474381e+2, -451822.5, -628148.25, -69817.98, 0.017924674, 0.0034257136, -427525.4, 113986.26, 0.0, 10.001163, 9.998826 
1.1551737e+3, 2.5474265e+2, -342870.97, -523147.5, -67346.91, 0.026572233, 0.0049102944, -320490.28, 123031.52, 0.0, 10.001231, 9.998841 
1.15519755e+3, 2.6474112e+2, -273302.13, -507058.47, -60796.676, 0.05638145, 0.00079659204, -258435.3, 87101.12, 0.0, 10.001329, 9.998231 
1.1552217e+3, 2.747392e+2, -156030.6, -399587.13, -63719.555, 0.10934129, -0.011037648, -140367.5, 107188.21, 0.0, 10.001461, 9.998232 
1.15524575e+3, 2.847374e+2, -54822.523, -315724.78, -52550.133, 0.13370724, -0.0041427496, -44635.773, 104937.24, 0.0, 10.001551, 9.998093 
1.1552695e+3, 2.947357e+2, 50987.906, -212572.03, -51131.953, 0.12659937, 0.016933212, 60560.113, 112148.484, 0.0, 10.001597, 9.998105 
1.1552942e+3, 3.0473298e+2, 143585.44, -93623.49, -5569.0645, 0.13293909, -0.08353726, 143716.13, 143716.13, 0.0, 10.001687, 9.998545 
1.1553196e+3, 3.1473178e+2, 178716.08, -51347.75, -4809.862, 0.15416172, -0.055722144, 178816.6, 178816.6, 0.0, 10.00182, 9.998771 
1.1648607e+3, 1.24722525e+2, -1738991.3, -1727713.5, -4945.2817, -0.011357791, -0.10233474, -1725852.3, -8142.321, 0.0014461256, 9.999842, 9.999989 
1.164886e+3, 1.3472268e+2, -1629208.9, -1619915.9, 3835.455, 0.011055205, -0.086104095, -1618537.4, 1172.3528, 0.0007584584, 9.999904, 10.000026 
1.1649105e+3, 1.4472286e+2, -1509093.0, -1516502.0, -15658.905, -0.0230286, -0.06487945, -1496706.4, 25002.93, 0.00024917058, 10.000078, 9.999976 
1.1649349e+3, 1.5472281e+2, -1367643.8, -1396234.9, -18210.58, -0.02762234, -0.06699196, -1358787.9, 64923.07, 0.000029664654, 10.000371, 9.999988 
1.16495945e+3, 1.6472292e+2, -1245920.1, -1278770.3, -23602.607, -0.029802397, -0.056417935, -1233590.0, 92120.85, 0.00000004774233, 10.000499, 10.00006 
1.1649839e+3, 1.7472316e+2, -1155159.5, -1182256.6, -28408.977, -0.0277473, -0.036279052, -1137233.8, 90474.984, 0.0, 10.000441, 10.000078 
1.165008e+3, 1.8472312e+2, -1075187.8, -1142233.1, -49092.68, -0.03147012, -0.022629492, -1049264.3, 80445.67, 0.0, 10.000528, 9.999638 
1.165032e+3, 1.9472279e+2, -939871.9, -1025977.25, -48260.93, -0.042563643, -0.018418517, -918251.1, 113463.47, 0.0, 10.000784, 9.99964 
1.165056e+3, 2.0472234e+2, -841402.7, -958128.0, -47524.152, -0.029951531, -0.009704898, -824500.9, 109218.83, 0.0, 10.000917, 9.99937 
1.1650803e+3, 2.147218e+2, -742959.2, -858763.06, -46029.49, 0.009517857, 0.000112108246, -726892.56, 108832.51, 0.0, 10.000916, 9.99938 
1.1651043e+3, 2.247209e+2, -670194.2, -832473.1, -58315.434, 0.026020598, 0.000985146, -651412.2, 86322.28, 0.0, 10.000999, 9.998847 
1.1651278e+3, 2.3471962e+2, -546487.3, -721993.25, -60208.805, 0.017151946, -0.009543817, -527818.1, 111929.94, 0.0, 10.001176, 9.998848 
1.1651514e+3, 2.447184e+2, -430858.47, -618663.9, -65901.9, 0.017475259, -0.010693685, -410040.75, 131718.98, 0.0, 10.00131, 9.998819 
1.1651749e+3, 2.5471726e+2, -318320.7, -511765.75, -69040.15, 0.02774399, -0.0054092132, -296208.06, 147561.19, 0.0, 10.001402, 9.998836 
1.1651988e+3, 2.6471573e+2, -261097.5, -504029.78, -65167.125, 0.062187463, -0.008917951, -244720.34, 101063.62, 0.0, 10.001427, 9.998204 
1.1652231e+3, 2.7471378e+2, -170307.05, -409529.88, -64382.055, 0.123282395, -0.023513312, -154080.55, 93723.56, 0.0, 10.001377, 9.998203 
1.1652473e+3, 2.8471202e+2, -68357.84, -321349.2, -48303.426, 0.14525256, -0.012616503, -59449.027, 90372.42, 0.0, 10.001454, 9.998099 
1.1652711e+3, 2.947104e+2, 62477.066, -206051.03, -48002.844, 0.124115296, 0.0194272, 70800.21, 122636.195, 0.0, 10.001674, 9.998113 
1.1652958e+3, 3.0470765e+2, 146619.6, -79770.11, -11039.082, 0.13014887, -0.09038625, 147156.61, 147156.61, 0.0, 10.001656, 9.998654 
1.1653213e+3, 3.1470647e+2, 124519.94, -59016.164, -10090.444, 0.16723363, -0.07029051, 125073.02, 125073.02, 0.0, 10.0013685, 9.998935 
1.1748606e+3, 1.24697745e+2, -1745404.6, -1741885.1, -4173.2324, -0.014046435, -0.09861517, -1739115.8, -21164.045, 0.0015842223, 9.999845, 9.99989 
1.174886e+3, 1.3469759e+2, -1637858.5, -1637877.3, 5301.8154, 0.023189664, -0.10209799, -1632566.1, -12611.357, 0.0008407167, 9.999903, 9.999904 
1.1749105e+3, 1.4469767e+2, -1510333.4, -1518896.8, -5386.165, -0.021839308, -0.08479186, -1507734.4, 14220.954, 0.0002831922, 10.000077, 9.999961 
1.1749352e+3, 1.5469775e+2, -1367848.4, -1397077.6, -7672.5273, -0.036408108, -0.072674766, -1365956.8, 57998.965, 0.000036181405, 10.000372, 9.999982 
1.17495984e+3, 1.646978e+2, -1254084.9, -1296408.9, -25939.813, -0.040599946, -0.058908578, -1241770.0, 84186.1, 0.00000010132158, 10.000502, 9.999938 
1.1749843e+3, 1.7469785e+2, -1163656.0, -1200474.0, -31106.797, -0.03146076, -0.048321865, -1145919.1, 82037.414, 0.0, 10.0004425, 9.999952 
1.1750086e+3, 1.8469773e+2, -1073006.4, -1138143.4, -40252.95, -0.029509779, -0.03645538, -1053796.4, 76162.195, 0.0, 10.00053, 9.999665 
1.1750327e+3, 1.9469751e+2, -937299.5, -1021057.56, -39001.06, -0.036491133, -0.02491024, -921951.5, 110010.75, 0.0, 10.000785, 9.999674 
1.1750569e+3, 2.046971e+2, -838484.9, -952520.56, -47675.867, -0.02749669, -0.015828038, -821178.94, 112787.66, 0.0, 10.000918, 9.999408 
1.17508106e+3, 2.1469651e+2, -739982.1, -853131.75, -46485.117, -0.00012768997, -0.013392467, -723334.1, 112637.64, 0.0, 10.000917, 9.999418 
1.1751051e+3, 2.246956e+2, -672844.3, -838413.1, -52148.258, 0.01681495, -0.015458462, -657788.5, 80192.586, 0.0, 10.001, 9.998806 
1.17512904e+3, 2.3469427e+2, -549528.2, -728327.5, -53705.137, 0.022144763, -0.024698956, -534637.2, 105357.766, 0.0, 10.001175, 9.998805 
1.1751528e+3, 2.4469304e+2, -436425.72, -629961.2, -62417.23, 0.03181157, -0.021573165, -418041.78, 123965.234, 0.0, 10.001308, 9.998743 
1.1751765e+3, 2.546919e+2, -323995.16, -523080.88, -65408.34, 0.046141557, -0.00839666, -304428.7, 139588.31, 0.0, 10.001399, 9.99876 
1.1752004e+3, 2.6469034e+2, -260028.1, -501748.63, -66548.62, 0.0754355, -0.01335058, -242917.63, 103114.62, 0.0, 10.001426, 9.99822 
1.1752245e+3, 2.7468827e+2, -168411.2, -406629.22, -65780.68, 0.12134255, -0.039818205, -151453.86, 96599.28, 0.0, 10.001381, 9.998222 
1.1752486e+3, 2.8468654e+2, -68774.0, -322796.7, -40095.785, 0.14252776, -0.026494648, -62595.426, 87474.945, 0.0, 10.001456, 9.998089 
1.175273e+3, 2.946851e+2, 60410.367, -208434.28, -39511.016, 0.13649644, 0.023195527, 66096.87, 118180.79, 0.0, 10.001664, 9.9981 
1.1752975e+3, 3.046824e+2, 153431.27, -63746.723, -20963.262, 0.14025013, -0.08532288, 155436.25, 155436.25, 0.0, 10.001646, 9.99877 
1.1753225e+3, 3.1468147e+2, 137554.8, -33066.805, -20921.621, 0.15717003, -0.057090867, 140082.75, 140082.75, 0.0, 10.001372, 9.999112 
1.1848605e+3, 1.2467262e+2, -1709751.6, -1726248.8, -19503.25, -0.0181005, -0.10173781, -1696824.4, 21372.955, 0.0017273793, 10.000097, 9.999875 
1.1848861e+3, 1.3467234e+2, -1589599.3, -1618923.8, -3227.45, 0.026040025, -0.11242723, -1589248.3, 30952.809, 0.0009271282, 10.000254, 9.999865 
1.1849106e+3, 1.4467238e+2, -1471797.6, -1505017.4, -9551.989, -0.025868902, -0.095688395, -1469246.9, 52955.258, 0.00031980837, 10.000362, 9.999918 
1.18493564e+3, 1.5467249e+2, -1367286.4, -1401287.9, -14764.469, -0.03214002, -0.07574677, -1361770.1, 62432.19, 0.0000435681, 10.000396, 9.999941 
1.1849603e+3, 1.6467252e+2, -1261997.0, -1305894.9, -36873.04, -0.036435474, -0.05937935, -1241034.6, 85168.49, 0.00000019883093, 10.000472, 9.999887 
1.18498474e+3, 1.7467248e+2, -1143848.8, -1196441.3, -36746.57, -0.037217602, -0.052288104, -1124958.6, 103246.086, 0.0, 10.000603, 9.999903 
1.1850092e+3, 1.8467237e+2, -1047302.7, -1125219.9, -39302.152, -0.035179615, -0.040547952, -1030922.06, 99285.09, 0.0, 10.000705, 9.99967 
1.18503354e+3, 1.9467217e+2, -939164.0, -1021101.8, -40227.777, -0.030366603, -0.025527736, -922715.8, 109494.49, 0.0, 10.000769, 9.9996805 
1.1850578e+3, 2.0467176e+2, -849799.8, -958868.94, -55851.344, -0.018726705, -0.016881771, -826274.2, 107940.445, 0.0, 10.000846, 9.999399 
1.18508205e+3, 2.146711e+2, -737778.2, -852963.9, -58437.977, 0.0008586682, -0.019111319, -713322.7, 122897.52, 0.0, 10.000937, 9.99941 
1.1851061e+3, 2.2467017e+2, -666918.0, -827760.3, -59724.363, 0.01473496, -0.025376009, -647166.5, 91062.85, 0.0, 10.001008, 9.998875 
1.1851301e+3, 2.3466888e+2, -561742.56, -726129.7, -53182.043, 0.021974914, -0.03876852, -546037.6, 94204.69, 0.0, 10.001057, 9.998877 
1.18515395e+3, 2.4466766e+2, -467636.78, -649474.5, -57660.633, 0.034310743, -0.036529753, -450894.2, 91360.016, 0.0, 10.001114, 9.998702 
1.18517786e+3, 2.546665e+2, -358747.34, -544653.3, -58643.137, 0.052573994, -0.020440768, -341794.56, 102470.2, 0.0, 10.001183, 9.998715 
1.1852018e+3, 2.6466495e+2, -277566.63, -509515.9, -59635.367, 0.08009463, -0.023043504, -263132.3, 83147.945, 0.0, 10.001303, 9.998226 
1.18522584e+3, 2.746629e+2, -153186.92, -398595.44, -60105.668, 0.11786292, -0.047584616, -139256.55, 109044.38, 0.0, 10.001483, 9.998228 
1.1852501e+3, 2.846612e+2, -63438.47, -320934.03, -37103.98, 0.1425686, -0.030664105, -58198.574, 92119.43, 0.0, 10.001497, 9.998081 
1.1852746e+3, 2.946598e+2, 9883.941, -233558.05, -36299.57, 0.15303825, 0.023746299, 15181.289, 67512.86, 0.0, 10.001322, 9.998093 
1.1852991e+3, 3.0465707e+2, 100358.64, -87934.88, -24711.754, 0.15108943, -0.08725907, 103547.81, 103547.81, 0.0, 10.001277, 9.99878 
1.1853236e+3, 3.146563e+2, 142231.45, -22227.91, -32835.33, 0.13876618, -0.047423977, 148544.86, 148544.86, 0.0, 10.0013685, 9.999187 
1.1948605e+3, 1.2464717e+2, -1705011.8, -1716215.5, -15483.081, -0.024025766, -0.11313099, -1694148.3, 24298.176, 0.0018763061, 10.000095, 9.999946 
1.1948863e+3, 1.3464701e+2, -1586090.9, -1612431.3, 2109.7383, 0.019251658, -0.116618484, -1585923.0, 34525.484, 0.0010180003, 10.000257, 9.999908 
1.19491085e+3, 1.4464705e+2, -1476526.3, -1515601.3, -8837.784, -0.035396647, -0.09673726, -1474620.4, 47828.836, 0.00035919753, 10.000365, 9.999845 
1.1949362e+3, 1.546471e+2, -1372834.6, -1413035.6, -14342.304, -0.014890409, -0.0761937, -1368242.4, 56208.305, 0.00005194898, 10.000396, 9.999861 
1.1949609e+3, 1.6464713e+2, -1260686.5, -1303483.1, -32565.71, -0.017210465, -0.05799958, -1243118.0, 83333.92, 0.00000035173326, 10.000472, 9.999904 
1.1949852e+3, 1.7464712e+2, -1141876.8, -1192928.9, -32203.389, -0.044979837, -0.04824093, -1126309.8, 102143.21, 0.0, 10.000605, 9.999927 
1.19500965e+3, 1.8464701e+2, -1048604.9, -1128520.5, -37206.37, -0.048596315, -0.03499682, -1033964.7, 96490.484, 0.0, 10.000707, 9.999647 
1.1950343e+3, 1.9464679e+2, -940550.0, -1024542.94, -38226.117, -0.024359263, -0.02030493, -925757.94, 106700.63, 0.0, 10.000771, 9.999657 
1.1950588e+3, 2.0464633e+2, -853492.1, -966976.94, -52755.035, -0.0039203498, -0.012956039, -832756.8, 101706.695, 0.0, 10.000847, 9.999343 
1.195083e+3, 2.1464561e+2, -741515.56, -861208.0, -55202.156, 0.012032915, -0.017367702, -719944.06, 116526.125, 0.0, 10.000938, 9.999352 
1.1951072e+3, 2.2464468e+2, -654854.75, -803211.1, -58033.965, 0.019452322, -0.029072026, -634850.44, 103628.53, 0.0, 10.00101, 9.999043 
1.1951311e+3, 2.3464346e+2, -549178.0, -700431.4, -51533.223, 0.01686195, -0.05168442, -533289.25, 107200.695, 0.0, 10.001058, 9.999053 
1.195155e+3, 2.4464227e+2, -468131.4, -650879.3, -55187.707, 0.025534423, -0.055199, -452758.53, 89742.625, 0.0, 10.001115, 9.9986925 
1.1951789e+3, 2.546411e+2, -359660.53, -547001.2, -55929.496, 0.047513884, -0.041074947, -344233.47, 100279.13, 0.0, 10.0011835, 9.998699 
1.195203e+3, 2.6463956e+2, -278439.66, -511431.2, -52710.695, 0.076351576, -0.037887193, -267069.53, 79458.484, 0.0, 10.001303, 9.998213 
1.1952273e+3, 2.7463764e+2, -154653.5, -400815.13, -52936.367, 0.11287037, -0.047567304, -143752.42, 104795.19, 0.0, 10.001479, 9.998215 
1.1952516e+3, 2.84636e+2, -64283.094, -321977.78, -42738.508, 0.14498971, -0.025897458, -57379.863, 93184.67, 0.0, 10.0014925, 9.998076 
1.195276e+3, 2.9463452e+2, 9600.159, -234573.56, -42124.457, 0.17230299, 0.021246739, 16663.102, 69242.16, 0.0, 10.001323, 9.998085 
1.19530044e+3, 3.0463168e+2, 94532.734, -100754.87, -20806.271, 0.16165596, -0.095675476, 96724.87, 96724.87, 0.0, 10.001279, 9.998692 
1.1953247e+3, 3.1463096e+2, 140793.1, -25382.23, -28643.77, 0.11303693, -0.038410045, 145591.86, 145591.86, 0.0, 10.0013685, 9.9991665 
1.2048606e+3, 1.2462162e+2, -1671474.8, -1701682.5, -10789.944, -0.028462045, -0.12975484, -1668016.5, 50679.305, 0.002031728, 10.000334, 9.999929 
1.2048865e+3, 1.3462146e+2, -1553983.8, -1601749.9, 1057.9868, 0.015465781, -0.12895647, -1553960.3, 66737.555, 0.001113559, 10.000498, 9.999865 
1.20491125e+3, 1.4462148e+2, -1444879.6, -1500649.4, -16617.719, -0.04499458, -0.10856382, -1440303.5, 82395.2, 0.0004014388, 10.000584, 9.999842 
1.20493665e+3, 1.5462151e+2, -1347500.5, -1400941.3, -16892.965, -0.007743455, -0.09050565, -1342608.4, 82092.04, 0.000061428385, 10.000571, 9.999859 
1.20496154e+3, 1.6462152e+2, -1241107.8, -1298751.6, -29652.455, -0.005599135, -0.070237175, -1228577.9, 98123.85, 0.00000057087306, 10.0006275, 9.999861 
1.2049858e+3, 1.7462155e+2, -1122010.9, -1188360.5, -34474.742, -0.042953167, -0.05318175, -1107341.4, 121361.42, 0.0, 10.000763, 9.999881 
1.20501034e+3, 1.8462144e+2, -1033740.56, -1123227.5, -46558.473, -0.049708657, -0.036774684, -1013911.0, 116794.23, 0.0, 10.000817, 9.999629 
1.20503515e+3, 1.9462119e+2, -941005.9, -1026563.56, -47444.785, -0.02119324, -0.023928383, -919901.75, 112807.2, 0.0, 10.000776, 9.99964 
1.2050596e+3, 2.0462072e+2, -856943.4, -964051.3, -55160.504, -0.0018916358, -0.018763492, -833616.2, 101097.805, 0.0, 10.000804, 9.999384 
1.2050839e+3, 2.1462001e+2, -742651.75, -856976.7, -50441.816, 0.0067097764, -0.025888018, -723578.25, 113142.22, 0.0, 10.000911, 9.999394 
1.205108e+3, 2.246191e+2, -652042.44, -790707.0, -54297.574, 0.013720541, -0.03996332, -633311.2, 105417.375, 0.0, 10.000981, 9.999143 
1.2051321e+3, 2.34618e+2, -548955.44, -688874.5, -53621.75, 0.018930145, -0.06437611, -530769.5, 109968.73, 0.0, 10.001011, 9.999154 
1.20515615e+3, 2.4461685e+2, -471142.3, -647949.3, -56802.28, 0.02848198, -0.069813594, -454466.44, 88282.26, 0.0, 10.001077, 9.998731 
1.2051801e+3, 2.5461566e+2, -356636.66, -541271.2, -53955.91, 0.043125905, -0.057900567, -342025.38, 102734.74, 0.0, 10.001186, 9.998736 
1.2052042e+3, 2.646142e+2, -284119.3, -509921.4, -47382.97, 0.070930876, -0.053542435, -274579.38, 72195.84, 0.0, 10.001246, 9.99825 
1.20522864e+3, 2.7461237e+2, -185652.72, -411327.84, -44235.46, 0.11402806, -0.0581198, -177291.72, 71502.516, 0.0, 10.001248, 9.998253 
1.2052529e+3, 2.8461078e+2, -94604.79, -332073.22, -36375.938, 0.1472181, -0.031948578, -89157.59, 61652.9, 0.0, 10.0012665, 9.998116 
1.2052774e+3, 2.946094e+2, 9155.763, -230178.06, -33009.594, 0.16871966, 0.018318458, 13625.079, 66449.41, 0.0, 10.001301, 9.998125 
1.20530166e+3, 3.0460647e+2, 95784.86, -108826.56, -5760.9927, 0.15744856, -0.10651601, 95946.94, 95946.94, 0.0, 10.001326, 9.998613 
1.205326e+3, 3.1460565e+2, 134600.16, -28690.361, -13140.892, 0.11651108, -0.05009901, 135650.92, 135650.92, 0.0, 10.001328, 9.999162 
1.2148608e+3, 1.2459603e+2, -1678970.0, -1717676.3, -6878.777, -0.03154442, -0.15133704, -1677783.9, 41161.105, 0.0021936102, 10.000335, 9.99982 
1.214887e+3, 1.3459574e+2, -1563693.8, -1622387.9, 6319.441, 0.014447006, -0.15007454, -1563021.1, 57927.805, 0.0012136708, 10.000499, 9.9997225 
1.2149117e+3, 1.4459568e+2, -1439877.8, -1490753.5, -17494.078, -0.054923575, -0.13192038, -1434442.8, 88507.65, 0.00044641417, 10.000586, 9.999909 
1.2149371e+3, 1.5459573e+2, -1341718.4, -1389567.6, -17941.752, -0.010914581, -0.118980505, -1335738.3, 89213.06, 0.00007201624, 10.000573, 9.999937 
1.21496215e+3, 1.6459578e+2, -1248420.3, -1314491.6, -25312.775, -0.0018981044, -0.096224815, -1239837.5, 87114.88, 0.0000008702971, 10.000629, 9.999753 
1.2149867e+3, 1.745958e+2, -1129906.4, -1205313.9, -29849.51, -0.031365827, -0.06717405, -1119521.0, 109433.164, 0.0, 10.000765, 9.999764 
1.21501125e+3, 1.8459567e+2, -1034566.7, -1125586.9, -48260.906, -0.038623363, -0.04583264, -1013742.1, 117214.914, 0.0, 10.000819, 9.999613 
1.2150359e+3, 1.9459537e+2, -941413.8, -1028093.94, -49309.35, -0.02083648, -0.03634532, -919105.0, 113856.26, 0.0, 10.000778, 9.999629 
1.2150603e+3, 2.0459493e+2, -847685.0, -945436.3, -51677.69, -0.012450391, -0.03413459, -825431.06, 109534.85, 0.0, 10.000806, 9.999511 
1.2150846e+3, 2.1459433e+2, -732859.06, -837220.4, -46710.96, -0.014699326, -0.044262547, -715005.94, 121965.05, 0.0, 10.000913, 9.99953 
1.21510886e+3, 2.245935e+2, -649697.2, -786331.9, -53291.047, -0.0022724404, -0.05776916, -631370.44, 107607.52, 0.0, 10.000983, 9.999172 
1.21513315e+3, 2.3459247e+2, -547202.8, -685364.7, -52581.926, 0.027583878, -0.07702862, -529467.7, 111519.33, 0.0, 10.00101, 9.999179 
1.2151572e+3, 2.445914e+2, -465701.63, -636402.25, -52784.56, 0.04236643, -0.08071324, -450698.13, 92298.6, 0.0, 10.001075, 9.998811 
1.2151811e+3, 2.5459027e+2, -351249.6, -529452.6, -49642.445, 0.039297815, -0.07114522, -338353.8, 106653.5, 0.0, 10.0011835, 9.99882 
1.2152054e+3, 2.6458886e+2, -279126.9, -498618.84, -46819.992, 0.06374904, -0.069899224, -269556.97, 77464.94, 0.0, 10.001242, 9.998331 
1.21522985e+3, 2.7458706e+2, -180959.48, -400316.7, -43777.703, 0.12021402, -0.0784895, -172545.39, 76495.44, 0.0, 10.001242, 9.998332 
1.2152543e+3, 2.845856e+2, -90090.84, -321398.25, -34763.496, 0.14876203, -0.04813714, -84979.16, 66076.88, 0.0, 10.00126, 9.998192 
1.21527836e+3, 2.9458442e+2, 14136.002, -219309.33, -31418.273, 0.14471129, 0.014686939, 18290.498, 71358.28, 0.0, 10.001298, 9.998202 
1.2153027e+3, 3.0458143e+2, 90376.92, -119509.55, -5005.53, 0.13981839, -0.119588204, 90496.234, 90496.234, 0.0, 10.001322, 9.998542 
1.2153276e+3, 3.1458038e+2, 133833.44, -28317.238, -12214.691, 0.1443855, -0.078326255, 134748.39, 134748.39, 0.0, 10.001319, 9.99917 
1.2248613e+3, 1.24570444e+2, -1634087.5, -1703846.3, -6894.732, -0.036642976, -0.16553529, -1633412.6, 85781.97, 0.0023606704, 10.000679, 9.999748 
1.2248876e+3, 1.3457009e+2, -1539149.9, -1621967.1, 10406.943, 0.017548712, -0.15921251, -1537862.1, 83337.28, 0.0013175874, 10.000718, 9.9996195 
1.22491226e+3, 1.4457002e+2, -1415027.1, -1479228.6, -17858.79, -0.06190319, -0.13803513, -1410393.8, 112807.625, 0.0004937232, 10.000759, 9.999905 
1.2249377e+3, 1.5457009e+2, -1309934.6, -1374259.8, -24921.371, -0.018731387, -0.123575024, -1301409.4, 123792.58, 0.000083587045, 10.0007925, 9.999936 
1.2249629e+3, 1.6457008e+2, -1227179.1, -1309881.6, -31886.885, -0.005605387, -0.10242842, -1216312.6, 110890.805, 0.0000012652538, 10.0008, 9.9997015 
1.2249876e+3, 1.7457001e+2, -1131639.8, -1211824.5, -31702.797, -0.025211032, -0.07873644, -1120619.9, 108586.21, 0.0, 10.000778, 9.999713 
1.2250121e+3, 1.845698e+2, -1040501.56, -1126853.8, -49156.508, -0.031869408, -0.060981486, -1018251.8, 112957.74, 0.0, 10.000772, 9.999626 
1.2250366e+3, 1.9456951e+2, -939278.0, -1025127.06, -48437.113, -0.024326524, -0.05270153, -917482.56, 115731.03, 0.0, 10.000785, 9.999645 
1.22506104e+3, 2.0456913e+2, -836841.94, -930630.0, -47127.19, -0.020747079, -0.04886827, -817252.7, 117964.87, 0.0, 10.00084, 9.999596 
1.2250853e+3, 2.1456867e+2, -722202.4, -822019.4, -45558.04, -0.021283995, -0.054264545, -704535.8, 132685.5, 0.0, 10.000943, 9.999619 
1.2251098e+3, 2.2456796e+2, -647131.9, -777078.1, -57318.715, -0.006045913, -0.066330515, -625462.4, 113764.9, 0.0, 10.000967, 9.999243 
1.22513406e+3, 2.3456696e+2, -559043.75, -683060.1, -53872.9, 0.027779894, -0.08807479, -538909.94, 102325.766, 0.0, 10.0008955, 9.99925 
1.2251582e+3, 2.4456592e+2, -490056.44, -639681.7, -49327.01, 0.04420607, -0.09566756, -475258.3, 67986.61, 0.0, 10.000872, 9.998886 
1.2251823e+3, 2.5456482e+2, -386054.94, -537630.7, -46846.324, 0.040047895, -0.09177771, -372745.22, 72509.87, 0.0, 10.000908, 9.998896 
1.2252064e+3, 2.6456347e+2, -320163.38, -510045.56, -47509.836, 0.06415521, -0.09158506, -308939.53, 38329.56, 0.0, 10.000924, 9.9984045 
1.225231e+3, 2.745618e+2, -223214.88, -412441.44, -45366.43, 0.12126452, -0.095356554, -212900.64, 36386.51, 0.0, 10.0009165, 9.998405 
1.2252553e+3, 2.8456044e+2, -124632.93, -328906.22, -32828.62, 0.1459415, -0.060620576, -119486.71, 31814.658, 0.0, 10.000984, 9.998273 
1.2252794e+3, 2.945594e+2, -3659.5183, -218892.97, -29116.887, 0.13263655, 0.0050810613, 209.86612, 53521.938, 0.0, 10.001138, 9.9982815 
1.22530386e+3, 3.045564e+2, 69720.63, -125320.86, -5225.4956, 0.1307857, -0.1323516, 69860.53, 69860.53, 0.0, 10.0011635, 9.998578 
1.2253289e+3, 3.1455544e+2, 99717.43, -30881.236, -5455.834, 0.15559182, -0.08575176, 99944.95, 99944.95, 0.0, 10.001026, 9.999292 
1.2348619e+3, 1.245449e+2, -1636167.4, -1708659.6, -7876.0547, -0.04398699, -0.17238735, -1635321.5, 84122.85, 0.0025307094, 10.00068, 9.999715 
1.2348883e+3, 1.3454458e+2, -1543287.3, -1631339.5, 11062.18, 0.024863008, -0.15579385, -1541918.8, 79530.4, 0.0014240493, 10.00072, 9.999555 
1.23491295e+3, 1.4454454e+2, -1420730.1, -1491658.5, -17215.117, -0.06580876, -0.1261309, -1416772.8, 106678.5, 0.00054276333, 10.00076, 9.999819 
1.23493835e+3, 1.5454459e+2, -1315754.3, -1386955.1, -24357.86, -0.031467933, -0.10369155, -1308218.9, 117233.1, 0.00009593835, 10.000793, 9.999848 
1.2349635e+3, 1.6454448e+2, -1226461.5, -1309047.0, -33220.914, -0.01707299, -0.088485226, -1214756.9, 112697.35, 0.0000017602412, 10.000802, 9.999707 
1.2349883e+3, 1.7454419e+2, -1130513.6, -1210131.3, -33001.94, -0.0246555, -0.087793276, -1118613.0, 110845.55, 0.0, 10.00078, 9.999723 
1.2350129e+3, 1.845439e+2, -1037439.44, -1121127.3, -49152.875, -0.029551648, -0.08222145, -1014731.7, 116730.83, 0.0, 10.000774, 9.999665 
1.2350372e+3, 1.9454366e+2, -935966.2, -1018986.7, -48319.375, -0.031738173, -0.072909065, -913775.1, 119690.69, 0.0, 10.000788, 9.999687 
1.2350617e+3, 2.0454337e+2, -833765.0, -924848.75, -43713.656, -0.027034473, -0.06303578, -816180.5, 119288.33, 0.0, 10.000842, 9.999635 
1.2350864e+3, 2.1454307e+2, -719386.06, -816278.56, -41874.105, -0.013734279, -0.05635252, -703797.3, 133674.03, 0.0, 10.000942, 9.999659 
1.2351107e+3, 2.2454245e+2, -639755.6, -761734.7, -59843.24, 0.0018842831, -0.06603674, -615299.7, 124176.8, 0.0, 10.000966, 9.99935 
1.2351349e+3, 2.3454148e+2, -551265.6, -667273.5, -56663.51, 0.019924581, -0.09741738, -528181.94, 113302.4, 0.0, 10.000896, 9.999358 
1.235159e+3, 2.4454042e+2, -485061.0, -629725.94, -48152.105, 0.03444909, -0.11434864, -470499.22, 72994.03, 0.0, 10.000873, 9.998954 
1.2351831e+3, 2.545393e+2, -381807.03, -528474.56, -45290.01, 0.04475222, -0.11936262, -368949.0, 76554.48, 0.0, 10.000905, 9.9989605 
1.2352074e+3, 2.6453802e+2, -316169.84, -501071.72, -47383.402, 0.071376555, -0.11832307, -304734.5, 42782.31, 0.0, 10.00092, 9.998468 
1.2352318e+3, 2.7453652e+2, -218891.73, -403268.25, -45238.695, 0.11753493, -0.10920591, -208390.1, 41143.2, 0.0, 10.000915, 9.998469 
1.2352562e+3, 2.8453532e+2, -119465.21, -317551.78, -26940.406, 0.1388824, -0.06989473, -115866.6, 35680.008, 0.0, 10.00098, 9.998353 
1.2352805e+3, 2.9453427e+2, 582.9093, -208082.6, -22914.709, 0.13060556, -0.010037388, 3069.6643, 56626.91, 0.0, 10.001128, 9.998361 
1.2353049e+3, 3.045314e+2, 77236.375, -107909.52, -9629.4375, 0.12888835, -0.14506143, 77735.86, 77735.86, 0.0, 10.001155, 9.998702 
1.2353298e+3, 3.1453082e+2, 115333.37, 1012.5558, -10716.63, 0.151745, -0.07346177, 116329.28, 116329.28, 0.0, 10.001027, 9.999512 
1.2448627e+3, 1.2451943e+2, -1594881.8, -1692045.4, -8708.108, -0.044748418, -0.16935584, -1594107.5, 125586.375, 0.002701762, 10.00098, 9.999683 
1.2448891e+3, 1.3451901e+2, -1513252.0, -1623883.1, 11650.175, 0.02919275, -0.15697446, -1512038.4, 109660.99, 0.0015319061, 10.000958, 9.999491 
1.2449137e+3, 1.445189e+2, -1397433.9, -1488678.8, -15901.409, -0.07358096, -0.12692407, -1394742.1, 128960.0, 0.00059303787, 10.000957, 9.999744 
1.2449391e+3, 1.5451892e+2, -1295057.4, -1384969.3, -22424.797, -0.041442677, -0.09827015, -1289774.8, 135928.55, 0.00010892868, 10.000972, 9.999776 
1.2449642e+3, 1.6451877e+2, -1208910.3, -1303693.8, -35024.797, -0.02592396, -0.082872465, -1197372.3, 130333.95, 0.0000023447426, 10.000937, 9.999678 
1.24498904e+3, 1.7451839e+2, -1123176.5, -1209381.5, -37934.547, -0.02836496, -0.08889768, -1108860.8, 120850.38, 0.0, 10.000843, 9.999698 
1.2450137e+3, 1.8451804e+2, -1026947.06, -1110469.0, -51773.0, -0.030564958, -0.08998578, -1002191.7, 129523.586, 0.0, 10.000823, 9.999714 
1.24503806e+3, 1.9451778e+2, -917678.75, -1004069.75, -50193.58, -0.033003774, -0.08752655, -894653.06, 139065.23, 0.0, 10.000888, 9.999741 
1.24506265e+3, 2.0451757e+2, -825133.4, -911909.94, -45954.41, -0.027275922, -0.07702729, -805320.8, 130399.69, 0.0, 10.000864, 9.999712 
1.24508716e+3, 2.1451746e+2, -744444.6, -819290.44, -41612.742, -0.011525167, -0.060391296, -725902.44, 111819.055, 0.0, 10.000732, 9.999739 
1.2451116e+3, 2.2451691e+2, -670916.7, -767003.94, -57487.3, -0.00022512491, -0.0703921, -644040.44, 95685.266, 0.0, 10.0007105, 9.999435 
1.2451355e+3, 2.3451589e+2, -555753.3, -659536.25, -56140.01, 0.0055070096, -0.11501809, -531195.94, 110537.695, 0.0, 10.000824, 9.999446 
1.24515966e+3, 2.4451488e+2, -486235.56, -623352.0, -51202.57, 0.020052772, -0.13533165, -469225.5, 74516.55, 0.0, 10.000835, 9.999015 
1.24518394e+3, 2.5451392e+2, -403941.16, -532381.2, -49199.42, 0.04521646, -0.13144346, -387261.28, 58489.773, 0.0, 10.000726, 9.99902 
1.2452082e+3, 2.645127e+2, -344700.75, -507462.75, -49146.57, 0.07575183, -0.1275111, -331012.03, 16751.512, 0.0, 10.000693, 9.998533 
1.2452325e+3, 2.7451125e+2, -237477.23, -404876.78, -46946.72, 0.112860866, -0.122743286, -225210.11, 24569.578, 0.0, 10.000756, 9.998534 
1.24525696e+3, 2.8451008e+2, -141859.36, -319744.38, -27393.992, 0.1322006, -0.08620456, -137736.3, 14056.218, 0.0, 10.000791, 9.998429 
1.2452814e+3, 2.9450908e+2, -43796.16, -220872.48, -23906.625, 0.12989442, -0.027441015, -40625.363, 13177.156, 0.0, 10.000787, 9.998436 
1.2453059e+3, 3.0450627e+2, 33029.133, -132298.72, -17384.383, 0.12720498, -0.15726064, 34837.34, 34837.34, 0.0, 10.000865, 9.998673 
1.2453308e+3, 3.1450593e+2, 120346.05, 10720.618, -29467.424, 0.14409946, -0.06453051, 127764.86, 127764.86, 0.0, 10.001031, 9.999576 
1.2548636e+3, 1.2449409e+2, -1596914.9, -1697215.1, -12498.545, -0.038369182, -0.1554674, -1595380.9, 124561.57, 0.002872962, 10.000984, 9.999647 
1.2548901e+3, 1.344934e+2, -1517835.0, -1634220.5, 9875.533, 0.03025727, -0.16288057, -1517003.0, 104946.91, 0.001640651, 10.00096, 9.999419 
1.2549146e+3, 1.4449313e+2, -1401662.6, -1497925.3, -16052.107, -0.085703075, -0.14095962, -1399056.4, 124897.46, 0.0006444068, 10.000958, 9.9996805 
1.25494e+3, 1.5449315e+2, -1299060.6, -1393918.5, -22487.488, -0.048753865, -0.10779919, -1293999.6, 131955.98, 0.00012257921, 10.000974, 9.999714 
1.254965e+3, 1.64493e+2, -1213194.5, -1313290.0, -38956.2, -0.032139573, -0.085885495, -1199820.1, 128138.66, 0.0000030126384, 10.000939, 9.999612 
1.2549898e+3, 1.7449263e+2, -1127383.6, -1218873.1, -41945.188, -0.03644612, -0.0820938, -1111064.1, 118899.37, 0.0, 10.000846, 9.999632 
1.2550144e+3, 1.8449226e+2, -1022803.8, -1102539.6, -49978.44, -0.035126984, -0.084290214, -998739.8, 133227.88, 0.0, 10.000825, 9.999768 
1.255039e+3, 1.9449192e+2, -913142.2, -995060.0, -48071.473, -0.028416768, -0.09664386, -890946.5, 143024.45, 0.0, 10.000889, 9.999803 
1.2550634e+3, 2.0449175e+2, -817258.6, -895879.75, -50839.383, -0.021689547, -0.0908436, -792304.4, 143668.11, 0.0, 10.000865, 9.999823 
1.2550879e+3, 2.1449181e+2, -736158.06, -802711.06, -46816.81, -0.014570038, -0.06620817, -711996.44, 125975.125, 0.0, 10.000734, 9.999852 
1.255112e+3, 2.2449134e+2, -666153.3, -757566.3, -53881.402, -0.012130513, -0.079117134, -641203.7, 98771.336, 0.0, 10.000712, 9.9995 
1.2551361e+3, 2.344902e+2, -551584.4, -650534.56, -52011.977, -0.015212586, -0.14050747, -529274.8, 112708.79, 0.0, 10.000821, 9.99951 
1.2551603e+3, 2.4448928e+2, -483110.8, -616244.3, -55006.813, 0.0012031763, -0.15869837, -463324.3, 80667.03, 0.0, 10.000832, 9.999066 
1.2551846e+3, 2.5448865e+2, -400564.63, -525208.75, -53361.31, 0.04152293, -0.12929524, -380841.16, 65156.766, 0.0, 10.000724, 9.99907 
1.2552088e+3, 2.644875e+2, -340302.9, -498382.5, -47017.754, 0.077295996, -0.120493405, -327375.53, 20633.918, 0.0, 10.000693, 9.998596 
1.2552333e+3, 2.7448595e+2, -233189.81, -395851.6, -44395.46, 0.107082814, -0.13587381, -221861.81, 28164.559, 0.0, 10.000754, 9.998597 
1.2552577e+3, 2.8448474e+2, -137459.42, -310216.47, -27207.324, 0.12554337, -0.10893701, -133275.88, 18763.266, 0.0, 10.000788, 9.998496 
1.2552822e+3, 2.9448384e+2, -39587.53, -211438.83, -23807.393, 0.13018383, -0.047225602, -36350.355, 17697.727, 0.0, 10.000783, 9.998504 
1.2553068e+3, 3.044811e+2, 20766.834, -156678.2, -11151.504, 0.12555307, -0.16922463, 21464.902, 21464.902, 0.0, 10.000859, 9.998509 
1.2553316e+3, 3.1448072e+2, 114424.35, -295.74863, -22578.07, 0.13243526, -0.056881033, 118707.99, 118707.99, 0.0, 10.001024, 9.999504 
1.2648648e+3, 1.2446855e+2, -1566115.4, -1680039.0, -13438.821, -0.03392217, -0.1581529, -1564551.5, 155641.05, 0.0030443578, 10.001186, 9.999667 
1.2648912e+3, 1.344678e+2, -1481997.3, -1618331.6, 15115.113, 0.028830357, -0.17233357, -1480341.5, 141858.5, 0.0017503432, 10.001213, 9.999407 
1.2649155e+3, 1.4446743e+2, -1381520.0, -1501025.0, -13073.792, -0.09897735, -0.15273778, -1380106.4, 144098.36, 0.00069703115, 10.001153, 9.999565 
1.264941e+3, 1.5446736e+2, -1305090.6, -1410271.8, -24441.584, -0.05274461, -0.11546028, -1299688.4, 126519.64, 0.00013704965, 10.000991, 9.999593 
1.264966e+3, 1.644672e+2, -1216017.8, -1314303.1, -39483.36, -0.03388688, -0.0893132, -1202121.3, 126090.43, 0.0000037895563, 10.000919, 9.999614 
1.2649906e+3, 1.744669e+2, -1111062.5, -1209890.5, -36959.227, -0.04402193, -0.08144524, -1098769.8, 131445.92, 0.0, 10.000955, 9.99964 
1.2650152e+3, 1.8446653e+2, -1010731.06, -1093855.3, -44196.957, -0.04089662, -0.085199006, -991623.7, 140595.83, 0.0, 10.000897, 9.999793 
1.2650397e+3, 1.9446611e+2, -935421.25, -1002878.5, -45331.863, -0.02321457, -0.10587078, -912646.8, 121576.36, 0.0, 10.000725, 9.999827 
1.2650642e+3, 2.0446596e+2, -843525.1, -901558.56, -50836.605, -0.015703835, -0.10361199, -814006.94, 122217.42, 0.0, 10.000655, 9.999884 
1.2650885e+3, 2.1446611e+2, -735362.6, -795203.8, -50781.06, -0.020216895, -0.07660359, -706342.94, 131879.52, 0.0, 10.0007105, 9.999914 
1.2651126e+3, 2.2446568e+2, -665972.25, -750782.9, -59211.016, -0.020938097, -0.08974045, -635547.94, 104677.34, 0.0, 10.000685, 9.999559 
1.2651367e+3, 2.3446457e+2, -585454.2, -660213.3, -57873.063, -0.01675438, -0.15488149, -553938.75, 88294.81, 0.0, 10.000561, 9.999568 
1.2651609e+3, 2.444637e+2, -530389.9, -639006.7, -63984.12, 0.0018889761, -0.17143416, -500773.5, 43467.473, 0.0, 10.000508, 9.999065 
1.2651852e+3, 2.544631e+2, -427186.63, -538476.6, -66637.28, 0.038203657, -0.133558, -396016.34, 50230.977, 0.0, 10.000544, 9.999066 
1.2652095e+3, 2.6446205e+2, -349119.63, -493412.1, -58391.86, 0.071432084, -0.124299444, -328450.5, 19807.951, 0.0, 10.000593, 9.998678 
1.2652339e+3, 2.744605e+2, -240732.2, -389565.22, -54170.4, 0.100593045, -0.14868085, -223103.89, 27170.885, 0.0, 10.000661, 9.998686 
1.2652583e+3, 2.844593e+2, -150491.73, -308589.44, -39835.266, 0.11818391, -0.12766142, -141021.83, 11265.102, 0.0, 10.000665, 9.998567 
1.2652828e+3, 2.9445845e+2, -63699.402, -215361.63, -36551.57, 0.12132862, -0.06850821, -55349.906, -1054.6597, 0.0, 10.000585, 9.998572 
1.2653074e+3, 3.044557e+2, -18982.771, -186043.16, -13614.133, 0.11696876, -0.18733783, -17880.598, -17880.598, 0.0, 10.000631, 9.998417 
1.2653325e+3, 3.1445536e+2, 86351.68, -13001.693, -19337.844, 0.13013555, -0.06325669, 89982.83, 89982.83, 0.0, 10.000828, 9.999511 
1.274866e+3, 1.2444286e+2, -1560369.4, -1668355.5, -15519.736, -0.03145857, -0.17821938, -1558183.1, 162260.63, 0.003216271, 10.001187, 9.999747 
1.2748924e+3, 1.3444221e+2, -1478191.5, -1611391.9, 15298.385, 0.02478769, -0.18575716, -1476457.1, 145992.33, 0.0018611854, 10.001216, 9.999454 
1.2749164e+3, 1.4444183e+2, -1393231.3, -1526160.4, -19667.238, -0.11349724, -0.16227731, -1390382.5, 134071.88, 0.0007511169, 10.001156, 9.999392 
1.2749419e+3, 1.5444162e+2, -1317938.0, -1437478.5, -31207.535, -0.053572576, -0.12115447, -1310281.3, 116178.84, 0.0001525157, 10.000993, 9.999406 
1.2749669e+3, 1.644414e+2, -1211114.1, -1304561.0, -39027.22, -0.031308867, -0.09309957, -1196959.0, 131505.53, 0.000004722807, 10.00092, 9.9996805 
1.2749915e+3, 1.7444116e+2, -1105020.8, -1198005.4, -36044.33, -0.051179923, -0.086944215, -1092685.1, 137782.17, 0.0, 10.000957, 9.999722 
1.2750159e+3, 1.844408e+2, -1011043.6, -1095223.9, -50711.246, -0.047999028, -0.09271144, -987230.75, 145239.98, 0.0, 10.000899, 9.999783 
1.2750405e+3, 1.9444036e+2, -935851.6, -1004684.75, -52139.57, -0.017568616, -0.11522738, -907793.94, 126680.69, 0.0, 10.000728, 9.999814 
1.275065e+3, 2.0444019e+2, -842548.5, -900378.56, -49464.64, -0.009469113, -0.11534269, -814167.56, 122308.5, 0.0, 10.000658, 9.999891 
1.2750891e+3, 2.1444032e+2, -734417.9, -793695.0, -48902.402, -0.0284544, -0.09142153, -706873.5, 131600.61, 0.0, 10.000711, 9.999925 
1.2751132e+3, 2.2443995e+2, -662414.1, -743726.56, -63672.113, -0.027001405, -0.102276936, -627525.2, 112951.13, 0.0, 10.000686, 9.999608 
1.2751375e+3, 2.3443899e+2, -581547.25, -652665.75, -62633.664, -0.00042702872, -0.15878469, -545082.6, 97400.74, 0.0, 10.000563, 9.9996195 
1.2751617e+3, 2.4443811e+2, -533864.56, -646831.3, -62877.305, 0.020835616, -0.17406291, -505826.22, 38664.688, 0.0, 10.000509, 9.999012 
1.2751856e+3, 2.544374e+2, -431203.44, -547159.1, -64931.336, 0.035273105, -0.14371417, -402132.4, 44366.64, 0.0, 10.000544, 9.999006 
1.27521e+3, 2.644363e+2, -342742.78, -479912.4, -55422.855, 0.0586205, -0.13819067, -323148.4, 25361.988, 0.0, 10.000591, 9.998773 
1.2752344e+3, 2.7443483e+2, -234270.55, -374805.03, -51076.297, 0.093255274, -0.16137232, -217668.5, 32856.406, 0.0, 10.000654, 9.998791 
1.2752588e+3, 2.8443372e+2, -146701.17, -298936.38, -42088.355, 0.110091425, -0.14287661, -135839.94, 16695.996, 0.0, 10.000656, 9.998637 
1.2752831e+3, 2.9443285e+2, -59852.27, -206228.33, -39136.707, 0.104161434, -0.091204464, -50045.3, 4498.7188, 0.0, 10.000579, 9.998638 
1.2753078e+3, 3.0443016e+2, -22199.871, -191372.08, -6246.935, 0.10185327, -0.21075402, -21969.508, -21969.508, 0.0, 10.000624, 9.998384 
1.2753333e+3, 3.1442982e+2, 89390.016, -3911.5442, -10812.103, 0.13531815, -0.08051875, 90626.57, 90626.57, 0.0, 10.000815, 9.999579 
1.2848672e+3, 1.2441742e+2, -1516524.9, -1650984.0, -3608.875, -0.043990772, -0.19341493, -1516428.1, 204264.34, 0.0033890037, 10.001507, 9.999712 
1.2848936e+3, 1.3441679e+2, -1472644.6, -1616372.9, 20237.541, 0.026173187, -0.1913637, -1469849.4, 152848.47, 0.0019731622, 10.001288, 9.999384 
1.2849174e+3, 1.4441636e+2, -1400241.3, -1539815.5, -16989.416, -0.116360545, -0.16431691, -1398203.0, 126500.33, 0.0008066489, 10.001153, 9.999298 
1.2849429e+3, 1.5441605e+2, -1306406.9, -1442488.5, -21944.703, -0.055253413, -0.124283485, -1302955.6, 123754.82, 0.00016903538, 10.001119, 9.99931 
1.284968e+3, 1.6441576e+2, -1194438.3, -1300323.6, -27622.334, -0.0315798, -0.09737681, -1187665.6, 141050.06, 0.00000585612, 10.001052, 9.999645 
1.2849922e+3, 1.7441547e+2, -1108371.8, -1202844.3, -33140.617, -0.049672097, -0.09216462, -1097905.6, 132813.06, 0.0, 10.000948, 9.999692 
1.2850168e+3, 1.8441513e+2, -1012640.0, -1096562.9, -54138.152, -0.048363235, -0.09621344, -986105.44, 146616.69, 0.0, 10.000892, 9.999777 
1.2850413e+3, 1.9441473e+2, -912594.6, -993768.44, -55288.195, -0.024334824, -0.1137552, -884595.25, 150130.4, 0.0, 10.00089, 9.99981 
1.2850656e+3, 2.044145e+2, -817737.75, -887055.4, -50949.664, -0.015850892, -0.11735509, -790775.94, 145951.28, 0.0, 10.000824, 9.999903 
1.2850899e+3, 2.1441452e+2, -738686.0, -794114.5, -50276.16, -0.025848176, -0.10771246, -708991.44, 129734.7, 0.0, 10.000676, 9.999939 
1.2851138e+3, 2.2441414e+2, -675215.94, -746335.8, -66586.0, -0.020831898, -0.12141324, -635289.44, 105438.84, 0.0, 10.000584, 9.999639 
1.2851381e+3, 2.3441331e+2, -579714.4, -648171.8, -67383.46, 0.0021769549, -0.1665849, -538364.44, 104369.68, 0.0, 10.000561, 9.999651 
1.2851621e+3, 2.4441254e+2, -528472.5, -641582.2, -63270.152, 0.02055434, -0.176518, -500165.3, 44575.668, 0.0, 10.000536, 9.999035 
1.2851861e+3, 2.5441182e+2, -434755.3, -546358.9, -59614.516, 0.033267602, -0.14778264, -408900.9, 37848.2, 0.0, 10.000509, 9.999028 
1.2852104e+3, 2.644107e+2, -362465.25, -484501.72, -50448.086, 0.053780455, -0.14663574, -344311.28, 4449.12, 0.0, 10.000435, 9.998816 
1.2852347e+3, 2.744092e+2, -282686.28, -393126.2, -50661.945, 0.084243745, -0.17779891, -262967.06, -12192.22, 0.0, 10.0003, 9.998835 
1.2852591e+3, 2.8440812e+2, -198844.19, -317154.2, -42552.9, 0.099655636, -0.16220371, -185129.0, -32343.607, 0.0, 10.000269, 9.998698 
1.2852834e+3, 2.9440734e+2, -86962.31, -212533.05, -40154.098, 0.09546398, -0.10694597, -75220.14, -20427.691, 0.0, 10.000364, 9.998697 
1.2853083e+3, 3.044047e+2, -53618.39, -206234.7, -4081.94, 0.092480086, -0.2234166, -53509.293, -53509.293, 0.0, 10.000408, 9.998385 
1.285334e+3, 3.1440434e+2, 33823.39, -18545.277, -5855.009, 0.12625931, -0.097760566, 34470.016, 34470.016, 0.0, 10.000382, 9.999687 
1.2948684e+3, 1.2439227e+2, -1527187.3, -1674169.3, -15086.852, -0.07226779, -0.20365788, -1525654.6, 195283.4, 0.0035624073, 10.001512, 9.999551 
1.294895e+3, 1.3439158e+2, -1486218.4, -1645155.1, 11084.081, 0.032857362, -0.18887089, -1485449.1, 137495.86, 0.0020858154, 10.00129, 9.9991865 
1.2949187e+3, 1.4439109e+2, -1401200.6, -1541959.1, -19275.68, -0.10738976, -0.15859139, -1398608.6, 126342.77, 0.00086324645, 10.001153, 9.999284 
1.294944e+3, 1.5439071e+2, -1306513.6, -1443315.5, -23714.592, -0.05775966, -0.124813996, -1302519.4, 124439.22, 0.0001865044, 10.00112, 9.999304 
1.2949689e+3, 1.6439028e+2, -1203905.9, -1320736.5, -31999.26, -0.03484055, -0.1021866, -1195715.6, 133249.19, 0.0000072252774, 10.001055, 9.999505 
1.2949935e+3, 1.7438985e+2, -1118192.0, -1223981.8, -37510.984, -0.039694246, -0.09716479, -1106241.4, 124728.35, 0.0, 10.000951, 9.999546 
1.2950177e+3, 1.8438949e+2, -1012809.5, -1097561.5, -54722.4, -0.042083513, -0.09585047, -985973.75, 146999.84, 0.0, 10.000894, 9.999769 
1.295042e+3, 1.9438921e+2, -912253.9, -993631.44, -55629.355, -0.04328635, -0.10165713, -884020.94, 150955.08, 0.0, 10.000891, 9.999811 
1.2950662e+3, 2.0438893e+2, -816581.06, -885226.25, -56445.69, -0.034774248, -0.10976909, -784841.9, 152135.86, 0.0, 10.000825, 9.999914 
1.2950906e+3, 2.143887e+2, -737413.0, -791991.9, -55983.883, -0.013091088, -0.12536688, -702421.56, 136556.81, 0.0, 10.000677, 9.999953 
1.2951148e+3, 2.2438826e+2, -674346.7, -745055.56, -67744.49, -0.0029779663, -0.14693879, -633286.1, 107694.84, 0.0, 10.000585, 9.999647 
1.2951384e+3, 2.3438758e+2, -578737.6, -646805.44, -68203.18, -0.008135379, -0.17810318, -536548.3, 106437.43, 0.0, 10.000563, 9.99966 
1.2951623e+3, 2.4438694e+2, -521868.88, -628378.25, -64159.777, 0.0020379133, -0.17881548, -491741.7, 53249.582, 0.0, 10.000537, 9.9991255 
1.2951866e+3, 2.5438637e+2, -428251.88, -532647.9, -60510.285, 0.03185655, -0.14620087, -400536.63, 46461.094, 0.0, 10.000507, 9.999125 
1.2952109e+3, 2.6438525e+2, -363296.44, -485914.9, -55062.086, 0.056199465, -0.14995481, -342200.22, 6808.5366, 0.0, 10.000433, 9.998808 
1.295235e+3, 2.7438357e+2, -283584.56, -395181.44, -55360.91, 0.07361148, -0.19762012, -260780.88, -9756.106, 0.0, 10.0003, 9.998821 
1.2952593e+3, 2.8438243e+2, -195596.77, -310438.97, -39083.49, 0.08679108, -0.18541957, -183557.8, -30522.357, 0.0, 10.000268, 9.998746 
1.2952839e+3, 2.943819e+2, -84203.78, -205790.45, -36225.57, 0.09401867, -0.11662029, -74229.03, -19188.268, 0.0, 10.00036, 9.998747 
1.2953086e+3, 3.0437934e+2, -52981.32, -203192.67, -4715.3394, 0.08817263, -0.22634849, -52833.445, -52833.445, 0.0, 10.0004, 9.998411 
1.295334e+3, 3.143789e+2, 41915.746, 11.937662, -6217.1216, 0.10440727, -0.1141635, 42818.7, 42818.7, 0.0, 10.000374, 9.999819 
1.3048698e+3, 1.24367386e+2, -1506850.9, -1679104.9, -11197.537, -0.08879675, -0.20129272, -1506126.0, 215055.33, 0.0037353144, 10.001718, 9.999416 
1.3048962e+3, 1.3436651e+2, -1456573.9, -1650071.3, 18895.738, 0.03021657, -0.18622336, -1454745.9, 168444.64, 0.002198173, 10.001577, 9.999014 
1.3049199e+3, 1.4436588e+2, -1363274.5, -1534007.6, -9132.403, -0.111543864, -0.1579902, -1362787.4, 162411.3, 0.00092024496, 10.001459, 9.99919 
1.3049452e+3, 1.5436539e+2, -1275035.9, -1437893.8, -19661.975, -0.057589486, -0.12463042, -1272695.6, 154510.72, 0.00020472471, 10.001379, 9.999215 
1.30497e+3, 1.6436489e+2, -1182604.8, -1318810.0, -33080.098, -0.031949792, -0.10377772, -1174995.8, 154217.67, 0.000008878654, 10.001238, 9.999429 
1.3049944e+3, 1.7436434e+2, -1114528.8, -1230188.4, -33531.656, -0.03559944, -0.10189466, -1105510.5, 125708.8, 0.0, 10.001011, 9.999474 
1.3050187e+3, 1.8436393e+2, -1017684.5, -1102872.0, -43276.086, -0.039247897, -0.09895718, -999557.2, 133666.47, 0.0, 10.000874, 9.999742 
1.3050427e+3, 1.9436371e+2, -919414.6, -999453.9, -45884.84, -0.04513871, -0.0974585, -898549.2, 136676.52, 0.0, 10.000854, 9.999789 
1.305067e+3, 2.0436344e+2, -823605.25, -889372.8, -53211.13, -0.03719942, -0.105611354, -793936.94, 143290.64, 0.0, 10.000781, 9.999907 
1.3050912e+3, 2.1436311e+2, -743429.3, -795519.75, -54899.32, -0.010992662, -0.1303188, -708710.3, 130518.586, 0.0, 10.00064, 9.999947 
1.3051152e+3, 2.2436263e+2, -676821.7, -745730.2, -62879.13, -0.0002120995, -0.15465228, -639576.0, 101655.75, 0.0, 10.0005665, 9.999651 
1.305139e+3, 2.34362e+2, -575988.1, -644985.2, -63615.58, -0.009140586, -0.18082024, -538118.9, 105117.16, 0.0, 10.00058, 9.999663 
1.3051629e+3, 2.443614e+2, -525354.06, -629559.9, -66419.79, -0.00034040064, -0.17872018, -493039.56, 52201.78, 0.0, 10.000512, 9.999129 
1.305187e+3, 2.5436082e+2, -452733.88, -544267.94, -69987.33, 0.030865995, -0.14570163, -414877.7, 32370.084, 0.0, 10.0003395, 9.999125 
1.305211e+3, 2.643597e+2, -389655.44, -495592.88, -65978.555, 0.05246981, -0.15156846, -358014.13, -8755.384, 0.0, 10.000239, 9.998834 
1.3052352e+3, 2.74358e+2, -291553.66, -395875.84, -63599.45, 0.06212718, -0.20489986, -261461.05, -10186.391, 0.0, 10.000233, 9.998848 
1.3052593e+3, 2.8435686e+2, -205324.9, -313307.22, -44398.273, 0.0737933, -0.1958185, -189414.34, -36129.09, 0.0, 10.000195, 9.998761 
1.3052839e+3, 2.9435632e+2, -119502.805, -221354.47, -44120.34, 0.08708056, -0.12657256, -103048.78, -47758.348, 0.0, 10.000112, 9.998759 
1.3053088e+3, 3.0435383e+2, -98121.03, -221585.78, -14047.947, 0.078928895, -0.23064828, -96542.81, -96542.81, 0.0, 10.000076, 9.99844 
1.305334e+3, 3.1435338e+2, 12261.139, 1174.0242, -14492.485, 0.08597673, -0.1233151, 22234.127, 22234.127, 0.0, 10.000105, 9.999956 
1.3148715e+3, 1.2434284e+2, -1514643.1, -1695591.6, -19971.004, -0.092556074, -0.18522453, -1512465.1, 208956.67, 0.003906043, 10.0017185, 9.999303 
1.3148977e+3, 1.3434167e+2, -1466640.3, -1672184.6, 12918.202, 0.018009152, -0.18337968, -1465831.5, 157602.56, 0.0023090318, 10.001582, 9.99886 
1.3149211e+3, 1.4434078e+2, -1375075.9, -1559528.1, -13150.221, -0.12942046, -0.16275485, -1374143.1, 151301.61, 0.000976971, 10.001462, 9.999015 
1.3149466e+3, 1.543402e+2, -1286902.8, -1463331.4, -23198.977, -0.055043932, -0.12383966, -1283903.3, 143550.25, 0.00022350362, 10.001382, 9.999041 
1.3149713e+3, 1.6433959e+2, -1183232.9, -1320900.0, -41749.273, -0.022955613, -0.102211505, -1171561.5, 157899.75, 0.000010883257, 10.001241, 9.9994135 
1.3149953e+3, 1.74339e+2, -1114405.3, -1230723.1, -42526.617, -0.037414853, -0.1063147, -1100515.8, 130951.586, 0.0, 10.001014, 9.99947 
1.3150196e+3, 1.8433852e+2, -1020633.7, -1109771.9, -44979.574, -0.040105782, -0.10543922, -1001881.6, 131590.39, 0.0, 10.000876, 9.999694 
1.3150437e+3, 1.9433829e+2, -922397.4, -1006387.2, -46892.55, -0.030455595, -0.10107649, -901444.0, 134030.5, 0.0, 10.000855, 9.999741 
1.3150679e+3, 2.0433801e+2, -825444.56, -893921.3, -58468.426, -0.023537965, -0.10496713, -791927.3, 145549.25, 0.0, 10.000784, 9.999875 
1.3150918e+3, 2.1433772e+2, -744969.94, -799682.8, -60383.2, -0.019171096, -0.12309256, -706035.3, 133442.48, 0.0, 10.000643, 9.999917 
1.3151157e+3, 2.2433725e+2, -676737.3, -746441.06, -62859.58, -0.01214031, -0.14521185, -639714.44, 101766.19, 0.0, 10.000569, 9.999645 
1.3151397e+3, 2.3433658e+2, -576143.44, -645539.9, -63054.652, -0.001569954, -0.1751485, -538870.44, 104614.71, 0.0, 10.00058, 9.99966 
1.3151635e+3, 2.4433589e+2, -531146.0, -641728.44, -72270.37, 0.012379595, -0.17643769, -495442.03, 50049.2, 0.0, 10.000512, 9.999046 
1.3151872e+3, 2.543352e+2, -458460.7, -556955.4, -76087.16, 0.030162284, -0.14627764, -417073.84, 30425.322, 0.0, 10.000342, 9.999037 
1.3152112e+3, 2.6433408e+2, -385776.88, -488286.25, -66140.94, 0.042843897, -0.15176302, -353355.6, -3845.2786, 0.0, 10.000242, 9.998883 
1.315235e+3, 2.7433246e+2, -287485.4, -387298.0, -63302.258, 0.049652338, -0.20062365, -256782.69, -5258.0195, 0.0, 10.000232, 9.998909 
1.3152593e+3, 2.8433132e+2, -206907.63, -316025.8, -46756.656, 0.06054232, -0.19442792, -189613.55, -36078.55, 0.0, 10.000191, 9.998744 
1.3152838e+3, 2.9433063e+2, -121533.94, -225205.78, -46444.15, 0.075103834, -0.13717137, -103770.85, -48229.316, 0.0, 10.000109, 9.998734 
1.3153087e+3, 3.0432817e+2, -96838.82, -218000.19, -12505.278, 0.06491371, -0.23652782, -95561.59, -95561.59, 0.0, 10.000072, 9.998467 
1.3153338e+3, 3.143278e+2, 20201.064, 20156.648, -12029.209, 0.06968474, -0.124546446, 32208.086, 32208.086, 0.0, 10.0000925, 10.000093 
1.3248731e+3, 1.2431804e+2, -1521751.8, -1705353.5, -27080.55, -0.09943572, -0.18749264, -1517840.9, 203823.75, 0.004073657, 10.001698, 9.999246 
1.3248992e+3, 1.3431689e+2, -1459823.0, -1678891.1, 13047.383, 0.012763457, -0.17621939, -1459048.6, 164628.47, 0.0024175402, 10.001672, 9.998771 
1.3249226e+3, 1.4431588e+2, -1364912.5, -1567310.8, -9679.493, -0.13746004, -0.15764198, -1364450.6, 161238.3, 0.0010328876, 10.001588, 9.9989 
1.324948e+3, 1.5431507e+2, -1287008.3, -1476142.3, -15200.033, -0.049539838, -0.12935022, -1285794.5, 141905.05, 0.00024265106, 10.001437, 9.998925 
1.3249727e+3, 1.6431431e+2, -1175292.9, -1324239.1, -34183.453, -0.013766898, -0.112586774, -1167822.4, 161886.05, 0.000013283229, 10.001327, 9.999349 
1.3249965e+3, 1.743137e+2, -1080982.4, -1221065.0, -39463.242, -0.03727177, -0.113669716, -1070630.1, 161084.6, 0.0, 10.001271, 9.999411 
1.3250205e+3, 1.8431321e+2, -983025.0, -1097510.6, -43140.93, -0.04130544, -0.11075075, -968588.8, 165130.97, 0.0, 10.001161, 9.99964 
1.3250446e+3, 1.9431292e+2, -908944.5, -1005537.25, -45380.188, -0.022875072, -0.105759874, -890969.44, 144753.38, 0.0, 10.000973, 9.999689 
1.3250688e+3, 2.0431261e+2, -821315.4, -898369.2, -58056.953, -0.0155687565, -0.10757574, -790164.94, 147560.5, 0.0, 10.00084, 9.999817 
1.3250925e+3, 2.1431229e+2, -729501.75, -798654.0, -62286.008, -0.02151337, -0.12166132, -692838.44, 146888.66, 0.0, 10.000778, 9.999858 
1.3251162e+3, 2.2431183e+2, -661769.4, -737910.4, -64910.215, -0.016219709, -0.14041553, -624589.0, 117141.055, 0.0, 10.000668, 9.999656 
1.3251401e+3, 2.3431121e+2, -587468.4, -649196.44, -64011.08, 0.0034280634, -0.16797781, -547269.0, 96465.06, 0.0, 10.000496, 9.999675 
1.325164e+3, 2.4431048e+2, -552958.0, -657935.94, -72202.58, 0.017818592, -0.17023009, -516181.6, 29558.836, 0.0, 10.000387, 9.998994 
1.3251875e+3, 2.5430968e+2, -459709.47, -563917.0, -74176.07, 0.02496056, -0.14509949, -421166.16, 26583.404, 0.0, 10.000362, 9.998979 
1.3252114e+3, 2.643085e+2, -380494.2, -484897.2, -64622.727, 0.033125762, -0.15275824, -349622.88, 138.26932, 0.0, 10.000276, 9.99889 
1.3252352e+3, 2.7430692e+2, -304657.78, -394318.03, -65532.734, 0.043475598, -0.2006053, -270088.4, -18313.465, 0.0, 10.00011, 9.998919 
1.3252594e+3, 2.8430578e+2, -229925.81, -319470.1, -47096.78, 0.053116128, -0.19772397, -209716.02, -55931.094, 0.0, 10.000001, 9.998812 
1.3252836e+3, 2.943051e+2, -137277.06, -224927.47, -40437.98, 0.05980481, -0.14840095, -121471.07, -65679.836, 0.0, 9.999969, 9.998803 
1.3253082e+3, 3.043027e+2, -128916.36, -238410.44, -6367.15, 0.041695952, -0.24257115, -128547.34, -128547.34, 0.0, 9.999874, 9.998422 
1.3253336e+3, 3.143022e+2, -34348.52, -973.23816, -11224.885, 0.04275637, -0.13615143, 2450.6943, 2450.6943, 0.0, 9.999697, 10.000138 
1.3348746e+3, 1.24293044e+2, -1522077.9, -1705954.9, -32148.014, -0.10949364, -0.20928843, -1516619.3, 205289.97, 0.0042385682, 10.001698, 9.999242 
1.3349009e+3, 1.342922e+2, -1461466.8, -1682763.4, 11267.477, 0.014512928, -0.16484495, -1460894.5, 163024.64, 0.0025235927, 10.001673, 9.998744 
1.3349243e+3, 1.4429118e+2, -1368585.8, -1575343.6, -15853.779, -0.1355145, -0.14239937, -1367377.3, 158553.72, 0.0010875799, 10.001589, 9.998845 
1.3349494e+3, 1.5429005e+2, -1290813.4, -1484548.8, -21438.516, -0.04104014, -0.1411223, -1288469.4, 139474.67, 0.00026189684, 10.001438, 9.998868 
1.334974e+3, 1.642891e+2, -1183076.3, -1341084.5, -36971.645, -0.0044844425, -0.13496837, -1174853.4, 155101.31, 0.000016032998, 10.001328, 9.999233 
1.3349977e+3, 1.7428848e+2, -1088761.0, -1238020.4, -41910.313, -0.035326146, -0.12408269, -1077798.3, 154162.98, 0.00000000003443261, 10.001274, 9.999294 
1.3350216e+3, 1.8428797e+2, -986899.56, -1106367.8, -50236.99, -0.042949896, -0.1149467, -968582.94, 165383.81, 0.0, 10.0011635, 9.999578 
1.3350457e+3, 1.942876e+2, -912502.06, -1013855.6, -52725.977, -0.022361299, -0.11146175, -890047.75, 145922.8, 0.0, 10.000977, 9.999631 
1.3350695e+3, 2.0428722e+2, -826893.94, -910867.2, -60891.074, -0.013342396, -0.113325946, -794917.06, 143056.98, 0.0, 10.000844, 9.99973 
1.3350931e+3, 2.1428683e+2, -735377.1, -811535.9, -64686.418, -0.018400658, -0.12586899, -698394.06, 141582.8, 0.0, 10.00078, 9.999769 
1.3351169e+3, 2.2428638e+2, -659931.3, -734779.06, -71054.51, -0.012855883, -0.14018472, -617047.7, 124932.23, 0.0, 10.0006695, 9.999677 
1.3351406e+3, 2.3428586e+2, -584949.44, -644905.56, -70398.914, 0.0058589284, -0.15944338, -538411.5, 105571.336, 0.0, 10.000499, 9.999703 
1.3351643e+3, 2.4428517e+2, -554435.4, -661782.25, -73325.96, 0.016269596, -0.16026752, -517237.8, 28751.154, 0.0, 10.00039, 9.998967 
1.3351877e+3, 2.5428426e+2, -462101.88, -569019.6, -74776.52, 0.015520181, -0.14217219, -423640.25, 24358.832, 0.0, 10.000361, 9.998944 
1.3352114e+3, 2.6428303e+2, -383333.0, -490627.72, -69972.88, 0.023164943, -0.15448116, -348808.7, 1202.7244, 0.0, 10.000275, 9.998852 
1.3352354e+3, 2.7428138e+2, -307195.72, -399804.72, -70863.734, 0.042698275, -0.20479214, -268849.3, -16823.646, 0.0, 10.00011, 9.998882 
1.3352592e+3, 2.842802e+2, -220630.97, -300039.3, -47735.496, 0.05065588, -0.20556557, -198245.69, -44210.44, 0.0, 10.0, 9.998946 
1.3352835e+3, 2.9427963e+2, -127975.35, -204251.11, -40837.617, 0.04135172, -0.15982679, -110236.51, -54196.633, 0.0, 9.999961, 9.998949 
1.3353078e+3, 3.0427733e+2, -137929.72, -255320.36, -11919.911, 0.010017279, -0.24811779, -136731.58, -136731.58, 0.0, 9.999866, 9.998311 
1.3353327e+3, 3.1427658e+2, -37844.574, -7191.516, -15795.997, 0.0057505895, -0.15625575, -508.59262, -508.59262, 0.0, 9.999692, 10.000098 
1.3448763e+3, 1.2426821e+2, -1522593.6, -1703087.9, -29787.854, -0.11324686, -0.22019282, -1517804.6, 204347.77, 0.0044024647, 10.001682, 9.999269 
1.3449025e+3, 1.3426752e+2, -1462456.5, -1682700.0, 19206.602, 0.02192594, -0.16250582, -1460794.1, 163366.8, 0.0026278205, 10.001665, 9.998749 
1.3449258e+3, 1.4426647e+2, -1367583.4, -1580458.9, -9769.908, -0.13203116, -0.14108737, -1367135.9, 159036.95, 0.0011408281, 10.00162, 9.998795 
1.344951e+3, 1.5426517e+2, -1277705.6, -1484213.6, -15622.784, -0.04259099, -0.1502441, -1276530.4, 151656.61, 0.00028088767, 10.0015545, 9.998814 
1.3449754e+3, 1.6426408e+2, -1170111.3, -1346882.3, -29944.941, -0.0068853158, -0.1492351, -1165176.4, 165022.4, 0.000018979208, 10.001471, 9.999125 
1.3449991e+3, 1.7426339e+2, -1084243.6, -1248077.5, -34378.375, -0.032698154, -0.13555878, -1077322.3, 154884.23, 0.0000000014653116, 10.001358, 9.999184 
1.3450228e+3, 1.8426281e+2, -977302.5, -1108070.9, -44360.1, -0.038677987, -0.12168652, -963674.6, 170537.97, 0.0, 10.001257, 9.999521 
1.3450468e+3, 1.9426247e+2, -888156.0, -1007750.06, -46946.074, -0.021148467, -0.111364536, -871929.2, 164287.17, 0.0, 10.001168, 9.99958 
1.3450705e+3, 2.0426206e+2, -804103.6, -906518.0, -53917.516, -0.01302497, -0.11135131, -780951.75, 157268.66, 0.0, 10.00103, 9.999669 
1.345094e+3, 2.1426158e+2, -732994.6, -816828.4, -55881.055, -0.016196065, -0.12885521, -705056.56, 135167.75, 0.0, 10.000825, 9.999711 
1.3451175e+3, 2.2426108e+2, -664713.8, -743860.06, -63963.043, -0.011957819, -0.141521, -629071.9, 113156.14, 0.0, 10.000667, 9.999616 
1.3451411e+3, 2.342606e+2, -578726.25, -648568.7, -70215.99, 0.0013518096, -0.14990757, -535226.94, 109003.99, 0.0, 10.000571, 9.999642 
1.3451646e+3, 2.4425991e+2, -548410.2, -660923.94, -75559.04, 0.010245007, -0.14715037, -510465.13, 35772.24, 0.0, 10.000442, 9.998947 
1.3451882e+3, 2.5425893e+2, -477440.84, -578252.6, -76208.555, 0.013194582, -0.13512751, -436476.63, 11771.469, 0.0, 10.000266, 9.998926 
1.3452116e+3, 2.6425767e+2, -399726.66, -489980.1, -68140.75, 0.020793166, -0.15120377, -363124.66, -12864.373, 0.0, 10.000127, 9.998927 
1.3452353e+3, 2.7425608e+2, -312331.72, -392778.6, -60893.92, 0.035192754, -0.20297568, -279575.75, -27302.318, 0.0, 10.000035, 9.998965 
1.3452591e+3, 2.8425497e+2, -235080.47, -304019.2, -37176.094, 0.040039312, -0.20469688, -218852.7, -64570.37, 0.0, 9.999889, 9.998971 
1.3452832e+3, 2.9425445e+2, -169568.28, -222210.48, -39473.96, 0.0302168, -0.15748166, -148444.75, -92158.01, 0.0, 9.999668, 9.998966 
1.3453072e+3, 3.0425224e+2, -184346.64, -270824.1, -9411.186, -0.003817952, -0.24033551, -183334.3, -183334.3, 0.0, 9.999518, 9.998371 
1.3453321e+3, 3.1425124e+2, -60445.38, -1288.409, 994.7474, -0.009931297, -0.17616701, -1271.6868, -1271.6868, 0.0, 9.999466, 10.000247 
1.354878e+3, 1.24243595e+2, -1519579.0, -1696045.1, -35084.92, -0.11004672, -0.21951224, -1512859.3, 209534.19, 0.0045679878, 10.001678, 9.999319 
1.3549043e+3, 1.3424286e+2, -1459982.9, -1677757.4, 17647.193, 0.03515563, -0.16913171, -1458562.1, 165840.03, 0.0027314809, 10.001665, 9.998783 
1.3549274e+3, 1.4424174e+2, -1370947.0, -1587903.3, -12878.568, -0.12713726, -0.15405782, -1370185.3, 156229.11, 0.0011927416, 10.001621, 9.998743 
1.3549523e+3, 1.5424044e+2, -1281256.8, -1492217.1, -18610.053, -0.05453472, -0.15687542, -1279627.6, 148800.39, 0.00029931884, 10.001556, 9.998758 
1.3549767e+3, 1.642393e+2, -1176828.6, -1361552.9, -34539.098, -0.021309383, -0.15535296, -1170581.9, 159858.47, 0.00002192539, 10.001472, 9.999023 
1.3550004e+3, 1.7423843e+2, -1091197.4, -1263259.0, -39004.176, -0.02955735, -0.14806291, -1082768.5, 149681.67, 0.0000000068048798, 10.001361, 9.999079 
1.3550241e+3, 1.8423781e+2, -980924.2, -1116262.3, -48144.113, -0.028684508, -0.13100557, -965545.3, 168911.92, 0.0, 10.001259, 9.999465 
1.3550478e+3, 1.9423757e+2, -891241.6, -1014813.4, -50578.715, -0.01934299, -0.10564807, -873179.5, 163280.81, 0.0, 10.00117, 9.999531 
1.3550714e+3, 2.0423715e+2, -806314.3, -911807.25, -61567.383, -0.014676393, -0.10183265, -777988.44, 160475.98, 0.0, 10.001032, 9.999633 
1.3550949e+3, 2.1423651e+2, -734888.7, -821664.75, -63775.047, -0.015054377, -0.13059591, -701141.9, 139327.55, 0.0, 10.000828, 9.999677 
1.3551182e+3, 2.2423592e+2, -674139.8, -764357.25, -67879.44, -0.013539971, -0.14432769, -637747.56, 104726.805, 0.0, 10.00067, 9.999474 
1.3551416e+3, 2.3423542e+2, -589176.75, -670734.1, -73717.85, -0.009714903, -0.13950436, -545710.4, 98768.03, 0.0, 10.000572, 9.999491 
1.355165e+3, 2.442347e+2, -549453.3, -663357.75, -81674.68, -0.00013806885, -0.13120061, -506834.9, 39650.72, 0.0, 10.000442, 9.998931 
1.3551883e+3, 2.5423366e+2, -477679.9, -579166.44, -82352.89, 0.017068822, -0.12442504, -431692.22, 16804.49, 0.0, 10.000267, 9.99892 
1.3552117e+3, 2.6423243e+2, -387581.72, -464981.06, -71210.5, 0.025191864, -0.14337268, -345234.5, 5273.519, 0.0, 10.000127, 9.999099 
1.3552351e+3, 2.7423105e+2, -299482.72, -365719.0, -63798.367, 0.021536862, -0.19531515, -260718.7, -8200.078, 0.0, 10.000032, 9.999153 
1.3552588e+3, 2.8423005e+2, -240927.64, -315598.88, -44625.344, 0.021720434, -0.19580266, -220079.33, -65552.625, 0.0, 9.999886, 9.998894 
1.3552827e+3, 2.9422942e+2, -176888.8, -237470.0, -46909.816, 0.024964452, -0.14351927, -151339.89, -94807.54, 0.0, 9.999667, 9.998862 
1.3553068e+3, 3.0422732e+2, -169933.22, -240846.28, -10997.109, -0.0024940525, -0.2209987, -168266.95, -168266.95, 0.0, 9.9995165, 9.998578 
1.3553317e+3, 3.1422624e+2, -39792.26, 43131.43, 826.0438, -0.007695826, -0.19336511, 43139.656, 43139.656, 0.0, 9.999457, 10.000557 
1.3648796e+3, 1.2421909e+2, -1500936.0, -1697904.1, -21166.893, -0.114626214, -0.22542264, -1498687.0, 223945.72, 0.0047382293, 10.001855, 9.99922 
1.3649061e+3, 1.3421828e+2, -1434599.4, -1678691.0, 23201.816, 0.03763279, -0.17196375, -1432413.6, 192228.86, 0.0028363883, 10.001897, 9.998664 
1.3649291e+3, 1.44217e+2, -1340303.0, -1579265.9, -17735.404, -0.12848492, -0.16316417, -1338993.9, 187662.28, 0.0012438492, 10.00186, 9.998688 
1.3649538e+3, 1.5421559e+2, -1258036.0, -1486496.9, -23251.61, -0.05979707, -0.17334777, -1255693.6, 172976.92, 0.0003170788, 10.00174, 9.998709 
1.3649781e+3, 1.6421439e+2, -1163033.9, -1362436.1, -39804.188, -0.025045535, -0.17144361, -1155381.9, 175301.42, 0.00002472805, 10.0016, 9.998956 
1.3650018e+3, 1.7421356e+2, -1086274.5, -1268541.1, -42019.76, -0.024504725, -0.15269352, -1077053.8, 155639.22, 0.000000016360648, 10.001429, 9.99901 
1.3650253e+3, 1.8421294e+2, -983476.1, -1124397.5, -48905.22, -0.020144017, -0.13036086, -968167.2, 166533.31, 0.0, 10.001272, 9.999402 
1.365049e+3, 1.942126e+2, -899904.94, -1025782.0, -52239.24, -0.014537616, -0.10844057, -881049.9, 155654.8, 0.0, 10.001141, 9.99947 
1.3650726e+3, 2.042121e+2, -811124.25, -918225.2, -65585.336, -0.011379117, -0.106393, -780004.25, 158705.25, 0.0, 10.001018, 9.999596 
1.3650957e+3, 2.1421143e+2, -726419.44, -821403.1, -68263.9, -0.010256976, -0.13456775, -690752.2, 149962.58, 0.0, 10.000903, 9.999641 
1.3651189e+3, 2.242108e+2, -671802.44, -776757.3, -71994.95, -0.008518833, -0.14421678, -635189.2, 107531.125, 0.0, 10.000746, 9.9993515 
1.365142e+3, 2.3421028e+2, -605034.2, -692942.25, -76662.14, -0.0060428325, -0.13059777, -560619.44, 84106.164, 0.0, 10.000527, 9.999359 
1.3651653e+3, 2.4420951e+2, -559907.1, -663413.56, -81628.12, -0.00008190167, -0.12071403, -515008.7, 31724.707, 0.0, 10.00035, 9.998974 
1.3651885e+3, 2.5420845e+2, -479295.1, -573399.8, -78144.42, 0.010139596, -0.12194935, -435130.8, 13613.388, 0.0, 10.000229, 9.998977 
1.3652116e+3, 2.6420727e+2, -392496.6, -461009.06, -69041.71, 0.015022729, -0.14184994, -349679.84, 1074.9467, 0.0, 10.000067, 9.999154 
1.365235e+3, 2.74206e+2, -322455.2, -370447.78, -71437.58, 0.013660942, -0.18588941, -271091.38, -18327.291, 0.0, 9.999849, 9.9992075 
1.3652584e+3, 2.8420502e+2, -265602.3, -318984.38, -52650.52, 0.013331685, -0.19094928, -233263.8, -78491.914, 0.0, 9.999681, 9.998968 
1.3652822e+3, 2.9420432e+2, -184664.1, -232876.95, -42982.816, 0.011562419, -0.15839212, -159489.27, -102710.77, 0.0, 9.999579, 9.998936 
1.3653061e+3, 3.0420235e+2, -178718.7, -232281.73, -3910.694, -0.01632006, -0.22710665, -178434.69, -178434.69, 0.0, 9.999403, 9.998691 
1.3653308e+3, 3.142014e+2, -75321.53, 46449.945, 812.9622, -0.011467207, -0.19815433, 46455.37, 46455.37, 0.0, 9.999127, 10.000738 
1.3748814e+3, 1.2419477e+2, -1518924.4, -1735462.5, -24322.297, -0.12749493, -0.23837228, -1516226.1, 206643.55, 0.0049160505, 10.001856, 9.998962 
1.3749078e+3, 1.3419381e+2, -1453973.0, -1719578.8, 23806.295, 0.028819004, -0.17108022, -1451856.1, 173025.42, 0.0029444871, 10.001899, 9.9983835 
1.3749309e+3, 1.441923e+2, -1344642.3, -1588827.6, -22839.992, -0.13645406, -0.16836968, -1342524.3, 184373.58, 0.0012949365, 10.001862, 9.998622 
1.3749556e+3, 1.5419061e+2, -1260937.8, -1493234.3, -28327.879, -0.058456283, -0.19961359, -1257533.1, 171381.06, 0.0003342444, 10.001742, 9.998662 
1.3749798e+3, 1.6418938e+2, -1165243.1, -1367855.6, -46624.496, -0.018110508, -0.19757012, -1155029.0, 175898.19, 0.000027345353, 10.001603, 9.998918 
1.3750033e+3, 1.7418881e+2, -1088066.0, -1273176.4, -48896.906, -0.017665625, -0.14959511, -1075943.8, 156990.86, 0.000000027808229, 10.001431, 9.998978 
1.3750267e+3, 1.841882e+2, -988188.8, -1135089.4, -54398.035, -0.013234857, -0.11977038, -970238.4, 164703.77, 0.0, 10.001275, 9.999328 
1.3750501e+3, 1.9418758e+2, -904697.4, -1036658.75, -57406.098, -0.006933994, -0.1195282, -883220.0, 153729.31, 0.0, 10.001143, 9.999394 
1.3750735e+3, 2.0418695e+2, -813627.5, -924287.25, -70099.2, -0.003395564, -0.12481041, -779652.9, 159302.73, 0.0, 10.00102, 9.999553 
1.3750967e+3, 2.1418637e+2, -728689.2, -826995.7, -72621.73, -0.0020174033, -0.14079416, -690150.0, 150810.16, 0.0, 10.000906, 9.999602 
1.3751197e+3, 2.2418576e+2, -678871.44, -792361.8, -79857.3, 0.002653591, -0.14130272, -637651.3, 105314.555, 0.0, 10.000749, 9.999243 
1.3751428e+3, 2.3418516e+2, -612725.44, -709616.44, -84574.23, 0.011332573, -0.12304835, -563704.2, 81268.3, 0.0, 10.000529, 9.999244 
1.3751657e+3, 2.4418436e+2, -553207.1, -649911.2, -86018.54, 0.0097022345, -0.11525586, -502882.38, 44098.35, 0.0, 10.000351, 9.999066 
1.3751885e+3, 2.541833e+2, -471644.4, -557499.0, -82167.41, -0.0067666466, -0.1270061, -421866.6, 27124.133, 0.0, 10.000228, 9.999087 
1.3752115e+3, 2.6418215e+2, -396873.88, -469708.88, -76295.22, -0.00882473, -0.14611857, -348750.3, 2250.4622, 0.0, 10.000064, 9.999096 
1.3752347e+3, 2.7418098e+2, -327969.38, -381266.13, -78770.05, 0.01040654, -0.17509897, -271462.13, -18452.215, 0.0, 9.9998455, 9.999136 
1.3752581e+3, 2.8417993e+2, -251908.02, -289642.97, -55963.438, 0.013425076, -0.18965939, -211717.16, -56699.11, 0.0, 9.999676, 9.999173 
1.3752815e+3, 2.9417905e+2, -169512.88, -200301.77, -46153.965, -0.009221934, -0.19820155, -136253.67, -79228.36, 0.0, 9.999574, 9.999163 
1.3753052e+3, 3.0417734e+2, -177263.56, -228739.19, -13222.734, -0.043955795, -0.25526217, -174065.66, -174065.66, 0.0, 9.999399, 9.998717 
1.3753298e+3, 3.1417677e+2, -70440.78, 55362.293, -7871.2114, -0.02191016, -0.19127923, 55852.863, 55852.863, 0.0, 9.999131, 10.000798 
1.3848832e+3, 1.24170385e+2, -1485830.6, -1730889.8, -42911.56, -0.1329868, -0.23375751, -1478533.8, 244574.27, 0.0051032617, 10.002135, 9.998858 
1.3849099e+3, 1.341692e+2, -1427193.0, -1718797.5, 21683.35, 0.02712159, -0.17747714, -1425589.4, 199532.47, 0.003057239, 10.002136, 9.998275 
1.3849327e+3, 1.4416751e+2, -1320689.0, -1583432.8, -23699.604, -0.13837238, -0.18401463, -1318568.4, 208571.38, 0.0013467348, 10.002053, 9.998566 
1.3849574e+3, 1.5416583e+2, -1245073.0, -1490986.0, -29950.418, -0.05601031, -0.21032235, -1241477.9, 187678.23, 0.0003509688, 10.001876, 9.998612 
1.3849814e+3, 1.6416457e+2, -1147067.4, -1359222.0, -46806.086, -0.014064446, -0.20814297, -1137199.9, 193969.3, 0.000029813278, 10.001729, 9.998916 
1.3850048e+3, 1.7416395e+2, -1058746.8, -1258656.5, -46417.227, -0.016143031, -0.16575976, -1048494.8, 184681.98, 0.000000039188958, 10.001632, 9.99898 
1.385028e+3, 1.841633e+2, -960523.06, -1129020.3, -51274.25, -0.013167721, -0.13771532, -946146.75, 189038.05, 0.0, 10.001497, 9.999262 
1.3850515e+3, 1.9416262e+2, -885383.2, -1035201.8, -54227.94, -0.0066950545, -0.13398552, -867815.06, 169377.63, 0.0, 10.001311, 9.999323 
1.3850746e+3, 2.0416199e+2, -802069.94, -927682.1, -67286.53, -0.0021661322, -0.13278672, -772832.1, 166367.5, 0.0, 10.001139, 9.999472 
1.3850977e+3, 2.1416144e+2, -722649.9, -833144.0, -73094.07, 0.0014404405, -0.13821818, -686272.8, 154931.77, 0.0, 10.000988, 9.99952 
1.3851205e+3, 2.241608e+2, -673342.8, -790218.0, -82601.8, 0.007877707, -0.1347385, -630597.4, 112613.3, 0.0, 10.00079, 9.999238 
1.3851433e+3, 2.3416017e+2, -612609.94, -709054.44, -79540.45, 0.017535076, -0.1220031, -567815.7, 77402.06, 0.0, 10.000529, 9.999248 
1.3851662e+3, 2.4415937e+2, -558275.3, -645800.9, -75218.26, 0.014598113, -0.11657549, -515015.28, 32210.45, 0.0, 10.000289, 9.999124 
1.3851885e+3, 2.541584e+2, -489239.47, -558998.94, -74916.5, -0.0063919458, -0.12556082, -441480.97, 7753.534, 0.0, 10.000078, 9.999148 
1.3852115e+3, 2.641573e+2, -427734.53, -487055.78, -71942.32, -0.012757204, -0.14356633, -379578.38, -28334.223, 0.0, 9.999865, 9.999072 
1.3852344e+3, 2.7415606e+2, -359666.9, -399843.78, -72127.78, 0.002452282, -0.17507774, -304882.38, -51628.113, 0.0, 9.999643, 9.9991045 
1.3852575e+3, 2.8415504e+2, -276462.22, -287668.1, -47343.207, 0.0053585176, -0.19360663, -234391.55, -79129.16, 0.0, 9.99945, 9.999295 
1.385281e+3, 2.9415423e+2, -200763.23, -200217.69, -44090.535, -0.012032647, -0.20480832, -156399.08, -99131.02, 0.0, 9.999295, 9.999296 
1.3853045e+3, 3.0415273e+2, -210235.1, -243367.55, -16902.31, -0.047731105, -0.2502167, -203134.3, -203134.3, 0.0, 9.999169, 9.998727 
1.3853289e+3, 3.141519e+2, -74813.11, 57168.28, -11140.042, -0.031859007, -0.20994268, 58101.965, 58101.965, 0.0, 9.999085, 10.000833 
1.3948853e+3, 1.2414597e+2, -1481911.5, -1722843.4, -48323.605, -0.130598, -0.21102749, -1472580.6, 250767.06, 0.005300489, 10.002135, 9.998914 
1.394912e+3, 1.341445e+2, -1422419.8, -1709578.1, 20534.56, 0.03256358, -0.19090985, -1420958.8, 204404.44, 0.0031755816, 10.002138, 9.998338 
1.3949348e+3, 1.4414269e+2, -1323528.0, -1590103.3, -30766.16, -0.13442443, -0.210379, -1320023.3, 207358.52, 0.0013999565, 10.002056, 9.998519 
1.3949594e+3, 1.5414128e+2, -1248439.1, -1498600.3, -37307.207, -0.052575666, -0.2054342, -1242993.9, 186401.94, 0.0003674642, 10.001878, 9.99856 
1.3949831e+3, 1.6413999e+2, -1144712.4, -1355062.8, -51321.98, -0.012973076, -0.20283677, -1132858.6, 198550.25, 0.00003219316, 10.001732, 9.998943 
1.3950063e+3, 1.7413901e+2, -1055720.6, -1253228.3, -50471.613, -0.020003205, -0.2009759, -1043570.44, 189848.89, 0.00000005013657, 10.001635, 9.999017 
1.3950296e+3, 1.8413822e+2, -964447.7, -1137938.8, -58334.535, -0.02002044, -0.18412867, -946657.56, 188770.64, 0.0, 10.0015, 9.9992 
1.3950527e+3, 1.9413778e+2, -889873.9, -1045327.2, -61436.223, -0.013804306, -0.15190645, -868525.6, 168909.11, 0.0, 10.001313, 9.999252 
1.3950756e+3, 2.0413725e+2, -810239.1, -945284.4, -73183.34, -0.0076294444, -0.13062985, -778187.1, 161254.31, 0.0, 10.001141, 9.999351 
1.3950986e+3, 2.1413666e+2, -731507.44, -851768.4, -78682.72, 0.00018345182, -0.12719384, -692609.44, 148838.45, 0.0, 10.000988, 9.999393 
1.3951214e+3, 2.24136e+2, -667135.6, -777426.1, -91879.58, 0.0073309084, -0.12462395, -615122.8, 128331.88, 0.0, 10.00079, 9.999326 
1.3951439e+3, 2.3413531e+2, -604742.1, -693084.0, -89094.39, 0.013097791, -0.1270245, -549470.2, 95991.27, 0.0, 10.00053, 9.999357 
1.3951664e+3, 2.4413455e+2, -556576.75, -642743.0, -82996.61, 0.01464155, -0.12433354, -506147.34, 41321.293, 0.0, 10.00029, 9.9991455 
1.3951889e+3, 2.5413376e+2, -488453.8, -557413.9, -82388.414, 0.009647698, -0.11820938, -433621.34, 15854.43, 0.0, 10.000077, 9.999161 
1.3952114e+3, 2.6413265e+2, -427802.47, -486993.6, -79624.99, 0.0015124122, -0.1345754, -372450.78, -20965.482, 0.0, 9.999863, 9.999074 
1.3952339e+3, 2.7413127e+2, -359545.94, -399598.1, -79700.11, -0.009809736, -0.18434316, -297394.47, -43897.125, 0.0, 9.999642, 9.999107 
1.3952568e+3, 2.8413025e+2, -273603.2, -281898.97, -52524.203, -0.010558637, -0.20217896, -225063.36, -69558.04, 0.0, 9.999449, 9.999335 
1.3952802e+3, 2.9412982e+2, -198005.73, -194440.77, -49107.13, 0.00025454632, -0.18224178, -147083.78, -89576.29, 0.0, 9.999294, 9.999337 
1.3953038e+3, 3.0412844e+2, -211102.1, -244417.19, -19423.648, -0.03103912, -0.21551698, -202171.52, -202171.52, 0.0, 9.999165, 9.998723 
1.3953277e+3, 3.1412688e+2, -75509.54, 57750.184, -11646.093, -0.041550547, -0.24845307, 58760.324, 58760.324, 0.0, 9.999076, 10.000842 
1.4048876e+3, 1.2412127e+2, -1448135.8, -1698948.5, -50941.72, -0.12690645, -0.21581854, -1438184.1, 285405.4, 0.0055082403, 10.002337, 9.9989805 
1.4049141e+3, 1.3411981e+2, -1387728.5, -1683405.0, 22737.592, 0.033987667, -0.20278911, -1385990.3, 239613.8, 0.0033006065, 10.002337, 9.998421 
1.404937e+3, 1.4411798e+2, -1291704.6, -1574949.6, -31468.895, -0.13608676, -0.22854415, -1288250.5, 239371.9, 0.0014556336, 10.002276, 9.998516 
1.4049613e+3, 1.5411665e+2, -1206584.3, -1479069.5, -34951.535, -0.054137304, -0.21559033, -1202172.5, 227463.5, 0.00038406154, 10.002169, 9.998553 
1.404985e+3, 1.6411534e+2, -1105524.3, -1335053.8, -49310.086, -0.013658617, -0.21408683, -1095379.4, 236269.77, 0.00003454216, 10.001997, 9.998953 
1.405008e+3, 1.7411424e+2, -1041320.56, -1245084.1, -50943.17, -0.018733563, -0.22506654, -1029294.0, 204366.27, 0.00000006103049, 10.001729, 9.999026 
1.405031e+3, 1.8411344e+2, -965709.4, -1140423.1, -58424.87, -0.01859546, -0.20982648, -947972.5, 187696.86, 0.0, 10.0015, 9.999183 
1.4050539e+3, 1.9411312e+2, -888684.06, -1046874.25, -58011.055, -0.014904553, -0.16357511, -869690.9, 167984.28, 0.0, 10.001332, 9.999233 
1.4050768e+3, 2.0411263e+2, -821125.4, -958400.8, -68299.98, -0.007229111, -0.13277666, -792933.2, 146748.7, 0.0, 10.001101, 9.999279 
1.4050995e+3, 2.14112e+2, -766737.7, -877270.1, -70502.945, 0.007593854, -0.12639597, -732421.44, 109268.01, 0.0, 10.000784, 9.999316 
1.4051221e+3, 2.2411135e+2, -700861.6, -789557.2, -82311.336, 0.015296191, -0.121741265, -651711.4, 91985.25, 0.0, 10.000541, 9.999362 
1.4051443e+3, 2.341107e+2, -620158.0, -695466.7, -84309.8, 0.012681824, -0.12308988, -565476.06, 80226.6, 0.0, 10.000403, 9.999401 
1.4051665e+3, 2.4410996e+2, -566402.25, -646338.9, -82632.64, 0.012047, -0.1226591, -514579.4, 33130.15, 0.0, 10.000218, 9.999154 
1.4051889e+3, 2.541091e+2, -504487.7, -564548.06, -83052.516, 0.013626859, -0.12328885, -446202.9, 3514.1587, 0.0, 9.999966, 9.999165 
1.4052112e+3, 2.6410803e+2, -443642.3, -489160.6, -78609.17, 0.0062221577, -0.1405895, -384563.94, -32837.52, 0.0, 9.999731, 9.999122 
1.4052334e+3, 2.741067e+2, -372925.72, -399996.9, -75425.37, -0.012438674, -0.18407002, -309831.06, -56093.535, 0.0, 9.999525, 9.99916 
1.4052561e+3, 2.8410578e+2, -284503.97, -279090.53, -43539.25, -0.017372834, -0.20319745, -238173.95, -82428.9, 0.0, 9.999341, 9.999406 
1.4052795e+3, 2.9410532e+2, -209203.78, -191661.0, -38026.71, -0.006967819, -0.19225188, -161407.17, -103659.98, 0.0, 9.999183, 9.99941 
1.4053027e+3, 3.0410418e+2, -235527.38, -245022.94, -5714.557, -0.033226352, -0.21153925, -232845.64, -232845.64, 0.0, 9.99895, 9.998821 
1.4053267e+3, 3.141026e+2, -133089.38, 41682.195, 10627.676, -0.027781852, -0.25660464, 42326.082, 42326.082, 0.0, 9.998631, 10.000945 
1.4148898e+3, 1.240963e+2, -1442998.8, -1688466.9, -56278.105, -0.12211269, -0.24996203, -1430711.1, 293122.1, 0.0057284734, 10.002337, 9.999053 
1.4149165e+3, 1.3409516e+2, -1380651.3, -1669106.4, 21539.832, 0.03130886, -0.21323694, -1379051.8, 246792.16, 0.00343434, 10.002338, 9.998519 
1.414939e+3, 1.4409341e+2, -1288689.5, -1569258.6, -36380.94, -0.14348522, -0.2381901, -1284048.9, 243812.42, 0.001515353, 10.002278, 9.998555 
1.4149633e+3, 1.5409197e+2, -1203582.8, -1473652.0, -39574.508, -0.06100284, -0.24083175, -1197903.1, 231972.98, 0.00040130108, 10.0021715, 9.9985895 
1.414987e+3, 1.6409065e+2, -1106071.6, -1337147.3, -59340.918, -0.016464584, -0.24213876, -1091723.6, 240165.89, 0.000036934056, 10.002, 9.998937 
1.4150098e+3, 1.7408967e+2, -1042228.8, -1247974.1, -61454.0, -0.01252909, -0.2382306, -1025270.9, 208628.73, 0.00000007226826, 10.001733, 9.999005 
1.4150326e+3, 1.8408896e+2, -963666.5, -1137156.5, -65443.906, -0.009073775, -0.21491194, -941748.75, 194159.38, 0.0, 10.001503, 9.999204 
1.4150552e+3, 1.9408865e+2, -886482.8, -1043093.9, -64508.625, -0.010217138, -0.16909087, -863333.4, 174580.5, 0.0, 10.001334, 9.999258 
1.4150779e+3, 2.0408817e+2, -822550.9, -962026.1, -79890.46, -0.0013176454, -0.13915317, -786242.2, 153678.73, 0.0, 10.001102, 9.999253 
1.4151004e+3, 2.1408746e+2, -768437.8, -881595.94, -82423.49, 0.023106806, -0.13545348, -725042.75, 116886.56, 0.0, 10.000786, 9.999286 
1.4151227e+3, 2.2408684e+2, -701827.56, -792290.9, -87863.58, 0.03122596, -0.1258797, -648236.56, 95699.95, 0.0, 10.000544, 9.999343 
1.4151447e+3, 2.3408635e+2, -621450.44, -698460.9, -89186.445, 0.016045624, -0.11078466, -562812.06, 83129.38, 0.0, 10.000403, 9.999381 
1.4151667e+3, 2.4408555e+2, -566924.56, -647469.8, -91360.16, 0.006948825, -0.11194535, -507354.47, 40594.164, 0.0, 10.000217, 9.999147 
1.4151888e+3, 2.5408444e+2, -505058.44, -565610.06, -91937.43, 0.0062520094, -0.1395942, -438540.06, 11418.398, 0.0, 9.999964, 9.999159 
1.4152108e+3, 2.6408336e+2, -438188.8, -477373.34, -85672.47, 0.0017337898, -0.16043629, -369896.9, -17929.25, 0.0, 9.999728, 9.999205 
1.415233e+3, 2.7408242e+2, -367372.63, -387240.28, -82299.46, -0.0068408162, -0.1753877, -294409.63, -40434.367, 0.0, 9.999519, 9.999251 
1.4152555e+3, 2.8408155e+2, -278740.1, -265326.13, -48783.88, -0.01622476, -0.19715738, -222790.33, -66808.21, 0.0, 9.999331, 9.999506 
1.4152783e+3, 2.9408076e+2, -203434.25, -177952.88, -43005.12, -0.031656858, -0.23064235, -145840.86, -87853.586, 0.0, 9.999174, 9.999508 
1.4153016e+3, 3.040799e+2, -223698.48, -218780.02, -16338.096, -0.05269608, -0.23472454, -204717.11, -204717.11, 0.0, 9.998942, 9.999006 
1.4153257e+3, 3.1407896e+2, -121921.58, 66700.55, 1135.7029, 0.005146257, -0.23704088, 66707.38, 66707.38, 0.0, 9.998621, 10.0011215 
1.4248924e+3, 1.2407167e+2, -1371557.8, -1661304.1, -42863.26, -0.12525888, -0.2740251, -1365349.8, 358723.25, 0.005965021, 10.002865, 9.998986 
1.4249189e+3, 1.3407059e+2, -1342458.6, -1655400.5, 27557.322, 0.031075386, -0.22890827, -1340050.5, 286032.88, 0.0035795863, 10.002624, 9.998474 
1.4249414e+3, 1.4406884e+2, -1267206.5, -1551595.6, -36472.668, -0.14371568, -0.25413582, -1262603.4, 265497.38, 0.0015810293, 10.002397, 9.998619 
1.4249654e+3, 1.5406747e+2, -1191643.0, -1459243.9, -36802.902, -0.0647252, -0.2554273, -1186673.8, 243440.88, 0.00041995206, 10.002217, 9.998666 
1.424989e+3, 1.6406623e+2, -1099664.9, -1333251.5, -57179.984, -0.020673914, -0.25526154, -1086418.9, 245708.7, 0.000039492217, 10.002042, 9.998943 
1.4250116e+3, 1.7406526e+2, -1021561.7, -1237786.9, -58335.516, -0.013656543, -0.24989457, -1006827.4, 227310.23, 0.00000008454083, 10.001875, 9.999006 
1.4250341e+3, 1.8406457e+2, -944187.8, -1128919.3, -63805.152, -0.007079638, -0.22431342, -924292.56, 211853.56, 0.0, 10.001643, 9.999192 
1.4250566e+3, 1.9406429e+2, -889327.8, -1045714.3, -65992.02, -0.0049569793, -0.17474473, -865202.3, 172949.64, 0.0, 10.001322, 9.999246 
1.425079e+3, 2.0406382e+2, -831732.75, -963979.94, -82698.03, 0.0057557146, -0.1435826, -791972.94, 148186.05, 0.0, 10.00103, 9.999274 
1.4251012e+3, 2.1406311e+2, -766708.1, -877734.9, -81535.01, 0.030019736, -0.14276564, -723582.3, 118584.98, 0.0, 10.000786, 9.999311 
1.4251234e+3, 2.2406247e+2, -705964.7, -801285.9, -83140.29, 0.03702521, -0.13217667, -657792.94, 86381.78, 0.0, 10.0005455, 9.99928 
1.425145e+3, 2.3406199e+2, -640156.44, -715552.94, -88381.02, 0.019263297, -0.11017913, -581769.5, 64410.723, 0.0, 10.000311, 9.999309 
1.4251669e+3, 2.440612e+2, -583342.0, -643788.2, -92025.695, 0.007704738, -0.11179234, -516703.53, 31483.908, 0.0, 10.000056, 9.99925 
1.4251886e+3, 2.540601e+2, -524289.56, -561177.4, -84082.9, 0.0046241116, -0.15019311, -456651.5, -6455.0254, 0.0, 9.999774, 9.99928 
1.4252104e+3, 2.640591e+2, -468077.9, -484131.5, -72816.266, -0.000038032827, -0.17279372, -402847.38, -50642.754, 0.0, 9.999491, 9.999272 
1.4252323e+3, 2.740583e+2, -408994.34, -400356.84, -71798.5, -0.0053800996, -0.17815116, -332747.3, -78536.36, 0.0, 9.999204, 9.999313 
1.4252546e+3, 2.8405753e+2, -321650.78, -268500.75, -34736.066, -0.012181125, -0.20175453, -251339.9, -95122.87, 0.0, 9.998962, 9.999661 
1.4252773e+3, 2.9405677e+2, -247722.75, -180797.69, -24408.266, -0.026257047, -0.24946578, -172841.58, -114619.99, 0.0, 9.998792, 9.999673 
1.4253002e+3, 3.040562e+2, -270306.3, -223379.44, -1866.8878, -0.049016263, -0.24135782, -223305.28, -223305.28, 0.0, 9.998547, 9.999165 
1.4253241e+3, 3.140553e+2, -173447.7, 55631.24, 14110.764, 0.004886452, -0.25296783, 56497.156, 56497.156, 0.0, 9.99821, 10.001244 
1.4348952e+3, 1.2404746e+2, -1386344.3, -1692908.6, -56430.74, -0.13681504, -0.28780678, -1376286.8, 348021.7, 0.006222031, 10.002869, 9.998767 
1.4349216e+3, 1.3404611e+2, -1355660.4, -1683716.9, 17290.658, 0.032928213, -0.24983329, -1354751.5, 271570.44, 0.0037388622, 10.002626, 9.99828 
1.4349438e+3, 1.4404427e+2, -1261097.5, -1539527.5, -44491.97, -0.13694519, -0.27674106, -1254160.6, 274179.97, 0.0016542807, 10.0023985, 9.998701 
1.4349677e+3, 1.540432e+2, -1183420.3, -1442875.4, -44144.457, -0.06527883, -0.2593926, -1176115.1, 254236.33, 0.00044086375, 10.002219, 9.998777 
1.4349909e+3, 1.6404209e+2, -1097648.4, -1329901.5, -64075.996, -0.026260734, -0.25324368, -1081143.5, 251219.47, 0.000042391872, 10.002045, 9.998965 
1.4350133e+3, 1.7404102e+2, -1019947.8, -1235330.6, -64963.504, -0.022176076, -0.26000807, -1001870.8, 232503.3, 0.00000010052836, 10.001878, 9.999022 
1.4350358e+3, 1.8404026e+2, -946921.0, -1135477.0, -75691.01, -0.012746148, -0.23815945, -920296.25, 216087.05, 0.0, 10.001646, 9.999146 
1.435058e+3, 1.9404003e+2, -892660.56, -1053525.6, -78265.55, 0.00064149086, -0.18061784, -860866.1, 177523.11, 0.0, 10.001325, 9.999191 
1.43508e+3, 2.0403959e+2, -826823.3, -954570.4, -92175.96, 0.013870133, -0.14609438, -778553.0, 161843.03, 0.0, 10.001033, 9.999339 
1.435102e+3, 2.1403892e+2, -760932.5, -866441.75, -90666.17, 0.028649384, -0.14833526, -708790.0, 133613.39, 0.0, 10.000788, 9.999389 
1.4351238e+3, 2.2403826e+2, -713301.5, -816981.1, -91782.81, 0.032991227, -0.14048801, -659730.44, 84680.75, 0.0, 10.000546, 9.999172 
1.4351454e+3, 2.3403761e+2, -649335.6, -734552.1, -96782.78, 0.022033721, -0.120560996, -586197.1, 60221.805, 0.0, 10.000309, 9.999179 
1.4351669e+3, 2.4403685e+2, -569413.56, -614525.3, -101906.055, 0.013658447, -0.12160582, -487597.0, 60829.098, 0.0, 10.000053, 9.999454 
1.4351884e+3, 2.5403604e+2, -508123.13, -527139.8, -94211.984, 0.008121163, -0.15561652, -422940.88, 27490.602, 0.0, 9.999771, 9.9995165 
1.4352098e+3, 2.640352e+2, -464755.3, -476701.16, -82912.83, 0.00059133186, -0.178073, -387600.53, -35162.777, 0.0, 9.999487, 9.999326 
1.4352314e+3, 2.7403435e+2, -406977.94, -395888.5, -81741.82, -0.007782727, -0.19100517, -319503.56, -65058.67, 0.0, 9.999201, 9.999346 
1.4352536e+3, 2.8403366e+2, -307929.03, -239590.8, -41007.313, -0.0060382513, -0.21599998, -220382.69, -63932.535, 0.0, 9.99896, 9.999862 
1.4352764e+3, 2.9403323e+2, -233529.69, -149838.66, -30649.309, 0.005154692, -0.25110582, -139814.84, -81363.81, 0.0, 9.998784, 9.999889 
1.4352989e+3, 3.0403295e+2, -261995.77, -204358.97, -14099.7295, -0.025055364, -0.23308642, -201094.63, -201094.63, 0.0, 9.998538, 9.999299 
1.435322e+3, 3.1403166e+2, -168638.2, 65658.79, 3117.7227, -0.024397314, -0.29805878, 65700.266, 65700.266, 0.0, 9.998208, 10.001313 
1.4448982e+3, 1.24023445e+2, -1349887.6, -1688320.8, -55672.332, -0.13384043, -0.29378572, -1340964.8, 383577.75, 0.006501599, 10.00318, 9.998648 
1.4449243e+3, 1.3402198e+2, -1307732.9, -1669503.3, 29583.758, 0.032018043, -0.26013345, -1305329.6, 321228.06, 0.003913358, 10.002997, 9.998198 
1.4449464e+3, 1.4402007e+2, -1208915.8, -1511082.4, -30864.475, -0.1376429, -0.29083446, -1205795.4, 322781.78, 0.0017359345, 10.002745, 9.998729 
1.4449699e+3, 1.540191e+2, -1150502.4, -1422071.0, -35832.848, -0.064639755, -0.2675354, -1145853.9, 284732.7, 0.000464682, 10.002426, 9.99882 
1.4449929e+3, 1.6401803e+2, -1081775.6, -1320890.3, -57340.65, -0.028002396, -0.2584638, -1068736.3, 263861.3, 0.000045794342, 10.00215, 9.998976 
1.445015e+3, 1.7401697e+2, -1011587.1, -1230465.6, -59085.395, -0.03248946, -0.2664055, -996655.9, 237953.14, 0.00000012546444, 10.001933, 9.999028 
1.4450373e+3, 1.8401618e+2, -946233.3, -1137979.8, -74696.36, -0.023078524, -0.24639004, -920569.6, 216049.02, 0.0, 10.001664, 9.99912 
1.4450593e+3, 1.9401589e+2, -894746.06, -1057823.9, -76336.31, 0.0027887688, -0.19164862, -864589.75, 174035.44, 0.0, 10.001326, 9.999161 
1.4450812e+3, 2.0401546e+2, -827956.6, -952610.7, -88293.39, 0.019075027, -0.15571521, -782207.9, 158424.08, 0.0, 10.001015, 9.99936 
1.4451027e+3, 2.140149e+2, -765304.4, -865699.94, -90497.33, 0.02323977, -0.14991419, -712015.06, 130623.2, 0.0, 10.000747, 9.9994135 
1.4451241e+3, 2.2401427e+2, -729300.56, -826060.5, -92221.82, 0.025701674, -0.13988051, -673538.9, 71106.98, 0.0, 10.000443, 9.999159 
1.4451455e+3, 2.3401353e+2, -682588.6, -752660.1, -89780.336, 0.025596045, -0.12702528, -621250.06, 25404.61, 0.0, 10.000091, 9.99916 
1.4451669e+3, 2.440128e+2, -601400.4, -616752.44, -92509.64, 0.022106137, -0.13046949, -516248.88, 32412.791, 0.0, 9.999777, 9.999571 
1.445188e+3, 2.5401214e+2, -535667.5, -525727.5, -92604.09, 0.012542412, -0.15939069, -437960.13, 12704.871, 0.0, 9.999518, 9.999647 
1.4452092e+3, 2.6401144e+2, -489535.5, -476375.38, -83698.53, 0.0042987713, -0.17899856, -398998.66, -46329.008, 0.0, 9.999265, 9.999435 
1.4452305e+3, 2.7401075e+2, -426221.5, -393157.94, -77626.516, 0.00012700466, -0.19357954, -330322.38, -75646.52, 0.0, 9.999018, 9.999452 
1.4452526e+3, 2.8401008e+2, -333725.03, -244101.6, -37339.78, 0.0039558453, -0.22215715, -230583.66, -73903.05, 0.0, 9.998749, 9.999932 
1.4452751e+3, 2.9400972e+2, -278558.9, -164203.31, -37566.207, 0.014031928, -0.26017267, -152966.78, -94285.58, 0.0, 9.998444, 9.999955 
1.4452973e+3, 3.0400965e+2, -302822.97, -207916.19, -26403.219, -0.017389128, -0.22954567, -201065.3, -201065.3, 0.0, 9.998189, 9.999442 
1.4453201e+3, 3.140083e+2, -187099.03, 65564.47, -5896.191, -0.017160388, -0.31426242, 65701.984, 65701.984, 0.0, 9.998044, 10.001391 
1.4549015e+3, 1.2399968e+2, -1351183.8, -1691679.5, -67160.78, -0.11599254, -0.29230356, -1338415.4, 386359.6, 0.0068028797, 10.003181, 9.998624 
1.4549272e+3, 1.3399825e+2, -1305188.0, -1665073.8, 21605.182, 0.028310962, -0.25946382, -1303895.6, 322894.25, 0.004102922, 10.003, 9.998227 
1.4549491e+3, 1.4399627e+2, -1210530.5, -1515294.5, -43497.105, -0.14611988, -0.29614332, -1204444.0, 324365.72, 0.0018261482, 10.002748, 9.998699 
1.4549725e+3, 1.5399522e+2, -1152205.1, -1426483.8, -48444.973, -0.06310642, -0.27988866, -1143900.0, 286919.94, 0.00049169204, 10.002429, 9.998789 
1.454995e+3, 1.639941e+2, -1081864.8, -1322001.0, -66331.6, -0.026053842, -0.27110443, -1064760.6, 268070.4, 0.0000497536, 10.002152, 9.998967 
1.4550169e+3, 1.7399314e+2, -1011710.4, -1231668.8, -67544.88, -0.044663526, -0.26915318, -992624.75, 242217.33, 0.00000016567238, 10.001936, 9.999019 
1.4550386e+3, 1.8399236e+2, -946491.3, -1139458.8, -87326.24, -0.038161762, -0.2488773, -912840.5, 224011.45, 0.0, 10.001667, 9.999108 
1.4550605e+3, 1.939919e+2, -894886.25, -1059058.0, -89169.66, 0.0014216761, -0.20766003, -855772.6, 183087.0, 0.0, 10.001328, 9.999151 
1.4550821e+3, 2.0399144e+2, -829316.44, -956265.75, -98568.98, 0.02131991, -0.17236497, -775552.56, 165314.11, 0.0, 10.001018, 9.999334 
1.4551033e+3, 2.1399106e+2, -766882.2, -869768.8, -100374.27, 0.013789037, -0.14781468, -705536.25, 137335.55, 0.0, 10.000749, 9.999385 
1.4551245e+3, 2.239905e+2, -723911.8, -815625.9, -104911.3, 0.015096482, -0.13075417, -655273.25, 89605.46, 0.0, 10.000445, 9.999229 
1.4551456e+3, 2.3398975e+2, -676543.4, -740656.4, -102636.57, 0.029773707, -0.1297497, -601073.6, 45813.93, 0.0, 10.0000925, 9.999242 
1.4551668e+3, 2.4398902e+2, -598918.0, -611890.8, -101968.734, 0.032805983, -0.13843127, -503229.56, 45664.883, 0.0, 9.999778, 9.999604 
1.4551876e+3, 2.5398844e+2, -533453.3, -521476.56, -101536.445, 0.017650655, -0.1615626, -425752.06, 25145.176, 0.0, 9.999519, 9.999677 
1.4552087e+3, 2.639879e+2, -478496.8, -453720.88, -92242.47, 0.01050357, -0.17596503, -373038.25, -20137.719, 0.0, 9.999265, 9.999591 
1.4552298e+3, 2.7398738e+2, -414801.75, -368954.63, -86230.6, 0.017035294, -0.18696661, -302652.6, -47748.3, 0.0, 9.999015, 9.99962 
1.4552513e+3, 2.8398675e+2, -337402.78, -251079.25, -47910.64, 0.01729957, -0.2208901, -229755.61, -72846.78, 0.0, 9.998745, 9.999887 
1.4552735e+3, 2.939861e+2, -283245.22, -174391.45, -48265.582, 0.002831188, -0.27552685, -156073.23, -97161.02, 0.0, 9.998445, 9.999886 
1.4552954e+3, 3.0398625e+2, -292619.3, -187114.84, -31899.86, -0.024576377, -0.23044774, -178219.7, -178219.7, 0.0, 9.99819, 9.999585 
1.4553185e+3, 3.1398517e+2, -182819.06, 76204.87, -8940.796, 0.02114477, -0.30373898, 76513.11, 76513.11, 0.0, 9.998035, 10.00147 
1.4649048e+3, 1.239762e+2, -1313857.9, -1685491.3, -49236.457, -0.11118715, -0.29859847, -1307445.4, 417558.97, 0.0071233953, 10.003493, 9.998516 
1.4649303e+3, 1.3397473e+2, -1280429.8, -1659367.5, 35520.875, 0.029339785, -0.26409686, -1277128.8, 349891.13, 0.004306822, 10.0032, 9.99817 
1.464952e+3, 1.4397272e+2, -1184533.6, -1494614.6, -32237.52, -0.14314, -0.30300412, -1181217.5, 347822.5, 0.0019247683, 10.0028925, 9.998771 
1.4649749e+3, 1.5397172e+2, -1121369.0, -1401564.0, -28400.084, -0.061066773, -0.29075968, -1118519.4, 312529.66, 0.0005218786, 10.002599, 9.998878 
1.4649974e+3, 1.6397065e+2, -1069461.0, -1327794.0, -43883.176, -0.024823096, -0.28057265, -1062210.0, 270849.9, 0.0000541964, 10.002289, 9.99886 
1.4650188e+3, 1.7396963e+2, -1017633.75, -1248870.1, -54404.273, -0.045015454, -0.26994374, -1005473.25, 229599.08, 0.00000022299002, 10.001959, 9.998889 
1.4650403e+3, 1.839688e+2, -949740.06, -1137593.6, -79918.99, -0.04130798, -0.24750857, -920340.94, 216742.03, 0.0, 10.001632, 9.999138 
1.4650618e+3, 1.9396834e+2, -893917.56, -1053265.3, -78004.555, -0.00589365, -0.21323338, -862089.7, 177000.52, 0.0, 10.001313, 9.999198 
1.465083e+3, 2.0396787e+2, -832901.7, -964501.0, -84115.43, 0.014525507, -0.17952144, -791907.1, 149190.1, 0.0, 10.001022, 9.999275 
1.465104e+3, 2.1396747e+2, -768335.44, -878475.8, -89155.19, 0.014108915, -0.14875713, -718613.56, 124489.445, 0.0, 10.000774, 9.999311 
1.465125e+3, 2.2396693e+2, -719480.8, -807541.3, -101063.125, 0.017793287, -0.12873232, -653273.06, 91836.89, 0.0, 10.000451, 9.999282 
1.4651456e+3, 2.339662e+2, -683202.5, -736263.4, -100715.23, 0.02771634, -0.12994972, -605582.0, 41536.08, 0.0, 10.000014, 9.999309 
1.4651664e+3, 2.4396552e+2, -609965.9, -610074.75, -94322.89, 0.03061736, -0.14096515, -515697.44, 33426.926, 0.0, 9.999672, 9.999667 
1.465187e+3, 2.53965e+2, -536863.0, -515962.7, -91172.016, 0.022329418, -0.16626291, -434643.88, 16482.902, 0.0, 9.999466, 9.99974 
1.465208e+3, 2.639645e+2, -483790.4, -446794.9, -86037.37, 0.01889367, -0.17963253, -377289.28, -24160.01, 0.0, 9.999188, 9.999676 
1.4652288e+3, 2.7396414e+2, -439870.34, -371522.6, -86574.21, 0.024568249, -0.18583164, -312621.5, -57489.855, 0.0, 9.998802, 9.999705 
1.46525e+3, 2.8396353e+2, -367311.53, -259270.89, -44958.023, 0.023488944, -0.22364563, -243010.22, -85874.37, 0.0, 9.998513, 9.999942 
1.4652719e+3, 2.9396287e+2, -289934.9, -171572.36, -36774.137, 0.0065787463, -0.2917161, -161077.53, -101937.516, 0.0, 9.998373, 9.999938 
1.4652936e+3, 3.0396315e+2, -300262.78, -183327.56, -20877.443, -0.019710967, -0.23124166, -179711.94, -179711.94, 0.0, 9.998106, 9.999651 
1.4653164e+3, 3.1396228e+2, -237851.55, 44886.77, -3267.1318, 0.031586476, -0.29178745, 44924.52, 44924.52, 0.0, 9.99768, 10.001425 
1.4749083e+3, 1.2395306e+2, -1327553.9, -1714524.9, -64048.83, -0.120206185, -0.3132701, -1317228.5, 408001.47, 0.007461449, 10.003496, 9.998315 
1.4749336e+3, 1.3395147e+2, -1290523.6, -1681013.0, 23359.006, 0.034875, -0.27439865, -1289131.3, 338116.25, 0.0045245043, 10.003202, 9.998021 
1.4749548e+3, 1.4394948e+2, -1172501.9, -1470334.0, -44297.484, -0.12864625, -0.3116646, -1166053.0, 363214.56, 0.0020316239, 10.002895, 9.998937 
1.4749776e+3, 1.5394865e+2, -1106575.1, -1371736.6, -40015.133, -0.05854057, -0.30015436, -1100668.1, 330605.6, 0.0005551441, 10.002602, 9.999082 
1.4749995e+3, 1.6394764e+2, -1083429.9, -1357793.5, -56730.34, -0.024522506, -0.28678742, -1072162.4, 261121.69, 0.000059017875, 10.002293, 9.998653 
1.475021e+3, 1.7394644e+2, -1034951.6, -1285899.3, -67147.07, -0.03390264, -0.2688636, -1018114.5, 217185.19, 0.0000002932695, 10.001963, 9.998633 
1.475042e+3, 1.8394555e+2, -944649.25, -1128093.4, -92162.96, -0.032769036, -0.24246779, -906344.6, 230966.84, 0.0, 10.001636, 9.999202 
1.475063e+3, 1.9394517e+2, -886365.44, -1038728.6, -90104.22, -0.018986242, -0.20860937, -844553.8, 194763.1, 0.0, 10.001317, 9.999296 
1.475084e+3, 2.0394468e+2, -839103.2, -978307.6, -93765.33, -0.0012369971, -0.17734908, -791930.4, 149393.36, 0.0, 10.001025, 9.999179 
1.4751048e+3, 2.1394412e+2, -776692.44, -896166.2, -98249.64, 0.02350306, -0.15251671, -721444.56, 121887.33, 0.0, 10.000775, 9.99919 
1.4751256e+3, 2.2394352e+2, -717127.2, -802851.4, -116421.72, 0.03311055, -0.1335177, -635928.06, 109411.65, 0.0, 10.000451, 9.999314 
1.4751457e+3, 2.3394291e+2, -679204.2, -728989.94, -116667.26, 0.019823778, -0.12779315, -584803.7, 62542.637, 0.0, 10.000018, 9.999357 
1.475166e+3, 2.4394229e+2, -603245.3, -597304.6, -102350.71, 0.016139746, -0.13843516, -497881.16, 51470.508, 0.0, 9.999676, 9.999754 
1.4751866e+3, 2.5394174e+2, -530634.8, -503042.78, -98225.04, 0.026227672, -0.17335677, -417649.66, 33704.324, 0.0, 9.999465, 9.999829 
1.4752072e+3, 2.6394132e+2, -482953.7, -444691.28, -98997.06, 0.029118707, -0.18944053, -362993.8, -9637.663, 0.0, 9.999186, 9.999692 
1.4752275e+3, 2.73941e+2, -439062.9, -370631.56, -100066.914, 0.023576431, -0.1896199, -299092.34, -43734.18, 0.0, 9.998804, 9.999711 
1.4752485e+3, 2.8394046e+2, -357151.6, -238839.5, -50350.598, 0.022969246, -0.2300543, -220312.73, -62950.75, 0.0, 9.998515, 10.000082 
1.4752704e+3, 2.9393983e+2, -280080.66, -149244.66, -41476.836, 0.023114879, -0.3087668, -137204.0, -77838.75, 0.0, 9.998364, 10.000097 
1.4752918e+3, 3.039404e+2, -302292.1, -184851.19, -35367.035, -0.004319428, -0.23225343, -175022.97, -175022.97, 0.0, 9.998094, 9.999647 
1.4753139e+3, 3.1393963e+2, -248801.45, 22200.088, -16226.118, 0.017412098, -0.276765, 23168.162, 23168.162, 0.0, 9.997678, 10.001271 
1.484912e+3, 1.2393031e+2, -1293900.4, -1705545.3, -46309.098, -0.111050904, -0.3279462, -1288755.1, 436697.03, 0.007817738, 10.003763, 9.998248 
1.4849369e+3, 1.3392876e+2, -1267516.9, -1670451.0, 54129.77, 0.039207507, -0.28529036, -1260371.9, 367097.34, 0.004756172, 10.0033655, 9.998014 
1.484958e+3, 1.4392677e+2, -1159472.6, -1471932.1, -13063.272, -0.124113984, -0.3183162, -1158927.5, 370561.9, 0.0021468382, 10.00302, 9.998865 
1.4849801e+3, 1.5392591e+2, -1086615.3, -1370713.6, -29754.582, -0.06269632, -0.30514622, -1083532.4, 347963.94, 0.00059159106, 10.002777, 9.999003 
1.4850019e+3, 1.6392483e+2, -1060352.4, -1352755.9, -56512.44, -0.030101668, -0.28873366, -1049810.4, 283697.03, 0.0000641918, 10.002479, 9.998598 
1.4850228e+3, 1.7392364e+2, -1019226.94, -1284366.5, -52780.16, -0.031249816, -0.26626533, -1009106.5, 226416.73, 0.00000037325287, 10.002097, 9.998578 
1.4850438e+3, 1.8392271e+2, -932570.5, -1129783.5, -72367.19, -0.029781872, -0.23678254, -908864.9, 228670.56, 0.0, 10.001752, 9.999134 
1.4850643e+3, 1.9392228e+2, -870010.1, -1038561.0, -82867.68, -0.027238544, -0.20185363, -836093.4, 203448.1, 0.0, 10.001464, 9.999226 
1.4850849e+3, 2.0392174e+2, -832430.2, -980224.5, -94464.12, -0.011745249, -0.17073987, -786393.0, 155156.02, 0.0, 10.001094, 9.999132 
1.4851056e+3, 2.139211e+2, -805276.9, -914829.56, -94150.625, 0.024090592, -0.14839707, -751127.6, 92430.34, 0.0, 10.000601, 9.9991455 
1.4851259e+3, 2.2392045e+2, -744490.3, -811161.56, -106284.51, 0.037518855, -0.13197313, -666436.25, 79129.72, 0.0, 10.000243, 9.999357 
1.4851457e+3, 2.3391989e+2, -665024.4, -716333.2, -106230.32, 0.016964156, -0.12842846, -581394.6, 66177.21, 0.0, 10.000092, 9.999409 
1.4851657e+3, 2.4391931e+2, -580705.25, -581330.94, -95380.47, 0.012541924, -0.14101902, -485637.1, 63939.56, 0.0, 9.999809, 9.999799 
1.485186e+3, 2.539188e+2, -547497.06, -506315.9, -95236.35, 0.031875145, -0.177667, -429469.66, 22109.145, 0.0, 9.99933, 9.999872 
1.4852063e+3, 2.6391843e+2, -508239.7, -447517.22, -93451.94, 0.037581373, -0.19190568, -379618.25, -26037.947, 0.0, 9.998973, 9.999774 
1.4852263e+3, 2.7391827e+2, -433320.22, -358183.53, -88918.87, 0.024890048, -0.18591577, -299222.38, -43641.516, 0.0, 9.998803, 9.999796 
1.485247e+3, 2.8391778e+2, -356345.88, -231261.61, -41011.57, 0.026922729, -0.22635584, -219014.25, -61430.266, 0.0, 9.99849, 10.000145 
1.4852686e+3, 2.9391715e+2, -335046.0, -168906.83, -39464.992, 0.044706516, -0.31134596, -160008.8, -100421.38, 0.0, 9.997958, 10.000156 
1.48529e+3, 3.039179e+2, -362473.2, -190975.53, -27826.2, 0.018753266, -0.22940013, -186573.61, -186573.61, 0.0, 9.997583, 9.99985 
1.4853115e+3, 3.139173e+2, -272063.25, 20002.207, 10354.348, 0.014461735, -0.28113666, 20368.83, 20368.83, 0.0, 9.99748, 10.00135 
1.4949161e+3, 1.2390803e+2, -1289304.6, -1696535.0, -64577.086, -0.083747745, -0.3431758, -1279309.6, 446360.63, 0.00819526, 10.003765, 9.998309 
1.4949404e+3, 1.3390665e+2, -1257763.0, -1650626.8, 38173.176, 0.042376705, -0.2968049, -1254088.1, 373596.56, 0.005003208, 10.003367, 9.99815 
1.4949608e+3, 1.4390466e+2, -1181151.1, -1517638.1, -23637.625, -0.12982199, -0.3228573, -1179498.8, 350206.2, 0.0022711838, 10.003022, 9.99855 
1.4949828e+3, 1.5390345e+2, -1111916.4, -1424142.1, -39414.066, -0.07384754, -0.30581498, -1107017.8, 324698.97, 0.00063171395, 10.00278, 9.998636 
1.4950041e+3, 1.6390227e+2, -1053701.8, -1339942.4, -70815.99, -0.041720595, -0.28647193, -1037140.06, 296589.63, 0.000069858055, 10.002482, 9.998685 
1.4950249e+3, 1.7390123e+2, -1008870.1, -1263994.1, -67547.91, -0.03707509, -0.26206452, -992089.5, 243653.45, 0.00000046463128, 10.002101, 9.998717 
1.4950454e+3, 1.8390031e+2, -945927.8, -1158617.1, -83748.46, -0.032475837, -0.23038413, -916910.0, 220844.83, 0.0, 10.001756, 9.998935 
1.4950657e+3, 1.9389966e+2, -886291.06, -1073298.0, -93690.086, -0.030985858, -0.19311331, -847428.7, 192335.2, 0.0, 10.001467, 9.998986 
1.495086e+3, 2.03899e+2, -832317.25, -980894.2, -112120.29, -0.017239034, -0.1599633, -772107.6, 169665.33, 0.0, 10.001097, 9.999126 
1.495106e+3, 2.1389839e+2, -802765.5, -911037.2, -112510.12, 0.016244015, -0.1366724, -732044.56, 111736.74, 0.0, 10.000607, 9.99917 
1.495126e+3, 2.2389776e+2, -740216.1, -803688.9, -112824.055, 0.031341583, -0.12433146, -654749.8, 91039.12, 0.0, 10.000249, 9.999407 
1.4951457e+3, 2.3389712e+2, -661315.7, -709049.56, -111268.6, 0.01844753, -0.13168469, -571383.06, 76411.68, 0.0, 10.0000925, 9.999459 
1.4951655e+3, 2.4389651e+2, -580728.6, -581357.9, -111441.586, 0.018971283, -0.14841214, -469601.25, 80198.305, 0.0, 9.999808, 9.9998 
1.4951855e+3, 2.5389606e+2, -547610.25, -507092.53, -112453.48, 0.03921253, -0.17931308, -413087.63, 38713.953, 0.0, 9.9993305, 9.9998665 
1.4952053e+3, 2.6389584e+2, -498300.38, -427397.78, -100001.8, 0.044337638, -0.18756409, -356749.34, -2947.2786, 0.0, 9.998974, 9.999912 
1.4952251e+3, 2.7389592e+2, -423021.4, -336034.38, -94238.55, 0.027954118, -0.17566206, -275736.8, -19936.498, 0.0, 9.998799, 9.999951 
1.4952455e+3, 2.8389552e+2, -357753.1, -233154.78, -58704.242, 0.0345327, -0.21371882, -209853.86, -52051.33, 0.0, 9.998486, 10.000135 
1.4952669e+3, 2.938948e+2, -336987.44, -173588.72, -58798.875, 0.07072913, -0.30053726, -154629.78, -94822.71, 0.0, 9.99796, 10.000124 
1.4952877e+3, 3.0389568e+2, -335354.4, -135228.98, -33118.582, 0.048674285, -0.22297654, -129890.625, -129890.625, 0.0, 9.997584, 10.000234 
1.495309e+3, 3.1389523e+2, -254108.17, 59923.23, 8680.388, 0.020929048, -0.3012483, 60162.99, 60162.99, 0.0, 9.997468, 10.001632 
1.50492e+3, 1.23886354e+2, -1272638.0, -1697356.6, -42009.055, -0.06274888, -0.34065896, -1268522.6, 457360.13, 0.008597806, 10.0039215, 9.998228 
1.5049437e+3, 1.3388494e+2, -1203363.0, -1626449.6, 50860.848, 0.039974228, -0.29679137, -1197334.6, 430562.66, 0.005267704, 10.003755, 9.998128 
1.504964e+3, 1.4388289e+2, -1131974.5, -1514859.9, -16056.673, -0.13505943, -0.31902856, -1131302.4, 398615.78, 0.0024058474, 10.003453, 9.998362 
1.5049855e+3, 1.5388148e+2, -1099055.4, -1441436.4, -20699.713, -0.07253363, -0.3022499, -1097808.4, 334124.44, 0.0006761825, 10.002971, 9.998425 
1.5050067e+3, 1.6388017e+2, -1043364.75, -1335697.1, -48273.22, -0.039522372, -0.2816829, -1035599.56, 298347.5, 0.0000762831, 10.002557, 9.998677 
1.505027e+3, 1.7387916e+2, -986115.94, -1251056.8, -54428.63, -0.04468073, -0.2550282, -975370.2, 260589.1, 0.00000057502143, 10.00225, 9.9987335 
1.5050471e+3, 1.8387818e+2, -937375.9, -1170495.6, -75025.09, -0.041802317, -0.22439879, -915317.7, 222653.84, 0.0, 10.001884, 9.998791 
1.5050672e+3, 1.9387732e+2, -903225.25, -1099777.1, -79969.52, -0.029135838, -0.19278336, -874799.6, 165183.63, 0.0, 10.0014305, 9.998821 
1.505087e+3, 2.0387657e+2, -836599.06, -981247.75, -94597.04, -0.013518776, -0.16034727, -789846.06, 152147.36, 0.0, 10.001061, 9.999141 
1.5051067e+3, 2.1387607e+2, -768908.1, -890517.2, -94260.95, 0.0074999575, -0.12991734, -717541.75, 126458.66, 0.0, 10.000821, 9.999207 
1.5051262e+3, 2.2387546e+2, -704215.56, -784331.5, -93905.03, 0.020587336, -0.11707304, -642181.44, 103825.92, 0.0, 10.000488, 9.999424 
1.5051457e+3, 2.3387475e+2, -672415.06, -712960.9, -95302.445, 0.021835351, -0.13464244, -595253.1, 52760.52, 0.0, 10.000011, 9.999471 
1.5051652e+3, 2.438741e+2, -610794.6, -594212.9, -99454.94, 0.027665617, -0.15720546, -502703.84, 47314.93, 0.0, 9.999597, 9.999813 
1.5051846e+3, 2.5387368e+2, -554758.06, -509032.88, -99967.51, 0.03943157, -0.18685332, -429346.94, 22673.889, 0.0, 9.999276, 9.999879 
1.5052043e+3, 2.6387355e+2, -498476.97, -416441.38, -84592.8, 0.043092217, -0.19206463, -363446.4, -9425.828, 0.0, 9.998926, 10.00001 
1.5052238e+3, 2.7387375e+2, -454896.9, -339620.1, -82143.22, 0.03613428, -0.17492273, -296910.63, -40893.574, 0.0, 9.998531, 10.000054 
1.5052441e+3, 2.8387344e+2, -402928.75, -255142.9, -52560.332, 0.0459545, -0.2103724, -238356.42, -80337.85, 0.0, 9.998178, 10.000133 
1.505265e+3, 2.938727e+2, -349306.3, -181180.92, -52542.223, 0.076048516, -0.29731232, -166111.28, -106087.35, 0.0, 9.997884, 10.000108 
1.5052854e+3, 3.0387372e+2, -335871.16, -112186.06, -29453.674, 0.058042657, -0.21620187, -108372.766, -108372.766, 0.0, 9.997482, 10.000441 
1.5053064e+3, 3.1387347e+2, -325102.3, 34019.26, 869.89856, 0.044542607, -0.29471543, 34021.367, 34021.367, 0.0, 9.996946, 10.001704 
1.514924e+3, 1.2386536e+2, -1288730.1, -1731130.8, -51531.15, -0.04864476, -0.3191687, -1282807.0, 443282.22, 0.009027933, 10.003923, 9.997995 
1.5149474e+3, 1.3386364e+2, -1215879.4, -1653149.9, 43599.668, 0.031510256, -0.28516126, -1211574.5, 416532.06, 0.005551251, 10.003757, 9.997944 
1.5149674e+3, 1.4386149e+2, -1136308.5, -1524851.0, -33787.027, -0.14018016, -0.30677095, -1133392.4, 396736.28, 0.002551727, 10.003457, 9.998291 
1.5149888e+3, 1.5385997e+2, -1102705.1, -1450086.6, -39487.16, -0.058850463, -0.29429206, -1098273.1, 333871.38, 0.0007254567, 10.0029745, 9.998364 
1.5150094e+3, 1.6385858e+2, -1049903.1, -1350391.9, -60998.293, -0.023548437, -0.2742942, -1037992.8, 296166.63, 0.00008370529, 10.002561, 9.998575 
1.5150292e+3, 1.738575e+2, -993125.4, -1266732.9, -66256.7, -0.05407462, -0.2452836, -977925.1, 258246.84, 0.00000071310234, 10.002254, 9.998625 
1.5150489e+3, 1.8385637e+2, -943409.1, -1184195.1, -91707.71, -0.057820708, -0.21882991, -912458.9, 225726.56, 0.0, 10.001888, 9.998695 
1.5150686e+3, 1.9385527e+2, -909212.9, -1113530.9, -97094.33, -0.022000836, -0.20052989, -870433.0, 169766.58, 0.0, 10.001435, 9.998726 
1.5150881e+3, 2.0385444e+2, -833790.44, -976552.5, -104377.79, -0.00095589965, -0.1714708, -778720.0, 163490.47, 0.0, 10.001065, 9.999172 
1.5151075e+3, 2.1385412e+2, -765384.9, -883872.56, -103045.086, -0.002246266, -0.12801771, -705766.94, 138448.42, 0.0, 10.000823, 9.999252 
1.5151265e+3, 2.2385357e+2, -705274.56, -786991.75, -110469.2, 0.005318421, -0.11025968, -628350.0, 117871.445, 0.0, 10.000489, 9.999405 
1.5151457e+3, 2.3385276e+2, -674043.2, -716952.44, -112656.92, 0.026999392, -0.13724577, -580816.2, 67412.63, 0.0, 10.000012, 9.999443 
1.515165e+3, 2.4385202e+2, -609086.7, -591330.5, -111237.31, 0.038449343, -0.16721399, -488617.53, 61617.152, 0.0, 9.9995985, 9.999832 
1.5151839e+3, 2.538516e+2, -552666.4, -505250.16, -111013.56, 0.032753136, -0.19999056, -415441.38, 36795.58, 0.0, 9.999278, 9.999905 
1.515203e+3, 2.6385146e+2, -494499.22, -408720.22, -98114.53, 0.034112368, -0.20488794, -344530.44, 9705.854, 0.0, 9.998928, 10.000063 
1.5152225e+3, 2.738518e+2, -450816.6, -331873.7, -95900.59, 0.048770867, -0.18275306, -278501.1, -22269.594, 0.0, 9.998533, 10.000108 
1.5152423e+3, 2.8385156e+2, -402918.38, -255497.27, -63164.883, 0.06074503, -0.21525918, -232135.44, -73902.836, 0.0, 9.998178, 10.000131 
1.5152626e+3, 2.9385084e+2, -350553.56, -182467.81, -62965.023, 0.062484268, -0.3011139, -161497.36, -101258.8, 0.0, 9.997877, 10.000103 
1.5152827e+3, 3.0385196e+2, -333839.03, -106380.42, -48133.59, 0.048505083, -0.20990361, -96613.99, -96613.99, 0.0, 9.997474, 10.000484 
1.5153037e+3, 3.13852e+2, -332861.7, 17099.674, -16434.13, 0.08271661, -0.26290414, 17869.725, 17869.725, 0.0, 9.996948, 10.001588 
1.5249282e+3, 1.2384457e+2, -1235172.1, -1717105.8, -41928.723, -0.047381554, -0.30185592, -1231551.5, 494742.03, 0.009485353, 10.00435, 9.997886 
1.5249513e+3, 1.3384262e+2, -1192389.9, -1647487.1, 64225.59, 0.034449928, -0.28711608, -1183499.8, 444813.06, 0.005853996, 10.003947, 9.997891 
1.524971e+3, 1.4384039e+2, -1127930.5, -1534521.4, -13268.691, -0.12814935, -0.30640784, -1127497.9, 402837.5, 0.002708953, 10.003575, 9.998168 
1.5249918e+3, 1.5383884e+2, -1070794.4, -1449872.0, -25365.63, -0.053808972, -0.2848887, -1069104.5, 363247.6, 0.00077962264, 10.003261, 9.998227 
1.5250121e+3, 1.6383736e+2, -1007398.44, -1340702.8, -49178.15, -0.021761779, -0.2619571, -1000293.8, 334074.34, 0.000092205315, 10.002901, 9.998477 
1.5250315e+3, 1.7383611e+2, -968088.9, -1265218.4, -53625.316, -0.0511208, -0.24050029, -958706.94, 277675.06, 0.0000008739153, 10.002472, 9.998529 
1.5250508e+3, 1.8383485e+2, -925136.06, -1183167.5, -80170.83, -0.056305774, -0.21899225, -902255.7, 236140.9, 0.0, 10.0020485, 9.998625 
1.52507e+3, 1.9383368e+2, -885447.9, -1109678.4, -84198.17, -0.025620295, -0.20108472, -857352.0, 183059.33, 0.0, 10.001632, 9.998657 
1.5250893e+3, 2.038328e+2, -814108.3, -968332.5, -88813.39, -0.0058477307, -0.17217681, -773602.0, 168820.6, 0.0, 10.001206, 9.99916 
1.5251082e+3, 2.1383248e+2, -773919.25, -888597.6, -91159.42, -0.0023853604, -0.12819935, -723565.25, 120862.17, 0.0, 10.000769, 9.999246 
1.525127e+3, 2.2383195e+2, -723610.0, -789002.3, -102219.52, 0.006202774, -0.11145171, -648984.8, 97448.39, 0.0, 10.000335, 9.999465 
1.5251458e+3, 2.3383117e+2, -684256.44, -713931.5, -98250.5, 0.022572407, -0.14276472, -599729.44, 48710.457, 0.0, 9.999909, 9.999513 
1.5251644e+3, 2.4383046e+2, -618767.1, -596257.6, -89127.336, 0.033624224, -0.17420751, -517677.25, 32768.207, 0.0, 9.999535, 9.999828 
1.5251832e+3, 2.5383005e+2, -559722.9, -510207.47, -91415.21, 0.03573944, -0.20323487, -440256.72, 12190.9795, 0.0, 9.999237, 9.999889 
1.5252021e+3, 2.6382995e+2, -498614.38, -408927.28, -85087.75, 0.042251278, -0.20638224, -357589.4, -3142.3672, 0.0, 9.998894, 10.000077 
1.525221e+3, 2.7383026e+2, -458990.1, -333665.38, -86265.055, 0.05739873, -0.18619043, -289705.8, -33263.707, 0.0, 9.998469, 10.000125 
1.5252405e+3, 2.8383002e+2, -427122.03, -268990.94, -54970.367, 0.06957251, -0.21974821, -251759.55, -93316.18, 0.0, 9.998021, 10.000113 
1.5252604e+3, 2.938293e+2, -401538.3, -209141.73, -56016.51, 0.071609244, -0.30457267, -194020.84, -133571.02, 0.0, 9.997538, 10.000083 
1.5252802e+3, 3.0383047e+2, -378413.06, -117835.11, -40834.74, 0.059311282, -0.20999855, -111585.836, -111585.836, 0.0, 9.997127, 10.000572 
1.5253006e+3, 3.1383085e+2, -352314.53, 688.60675, -3554.9004, 0.08898731, -0.24311538, 724.4026, 724.4026, 0.0, 9.996846, 10.001523 
1.5349326e+3, 1.2382405e+2, -1234196.3, -1715879.0, -59370.13, -0.060574707, -0.28904182, -1226986.5, 499508.7, 0.009967482, 10.0043545, 9.997892 
1.5349554e+3, 1.3382189e+2, -1186856.5, -1636439.6, 48054.516, 0.048739195, -0.30290973, -1181777.5, 446738.25, 0.006175149, 10.003949, 9.997966 
1.5349749e+3, 1.4381966e+2, -1140075.8, -1560527.8, -26119.758, -0.0986414, -0.317948, -1138459.3, 392078.75, 0.002877216, 10.003578, 9.997989 
1.5349951e+3, 1.5381812e+2, -1085413.8, -1481128.3, -37697.387, -0.05743609, -0.27425572, -1081854.5, 350701.03, 0.000838507, 10.003263, 9.998012 
1.535015e+3, 1.6381654e+2, -1013886.5, -1355177.9, -65250.105, -0.0344044, -0.2447346, -1001837.0, 332736.03, 0.000101727834, 10.002904, 9.998377 
1.535034e+3, 1.7381503e+2, -973545.2, -1277676.5, -70004.88, -0.036262438, -0.2405455, -958205.2, 278384.06, 0.0000010362653, 10.002476, 9.998443 
1.535053e+3, 1.8381365e+2, -927935.94, -1190134.0, -96028.45, -0.037631065, -0.22482383, -896528.3, 242076.58, 0.0, 10.002052, 9.998575 
1.5350716e+3, 1.9381256e+2, -888006.06, -1116212.9, -99838.73, -0.039726716, -0.19475316, -850493.6, 190124.95, 0.0, 10.0016365, 9.9986105 
1.5350902e+3, 2.0381166e+2, -817464.6, -976473.44, -105112.63, -0.027858885, -0.16279803, -765175.2, 177454.77, 0.0, 10.00121, 9.999103 
1.535109e+3, 2.1381117e+2, -777710.7, -897454.9, -107287.58, 0.0065164096, -0.130296, -714719.9, 129916.74, 0.0, 10.0007715, 9.999184 
1.5351275e+3, 2.238106e+2, -713813.56, -769611.1, -117755.625, 0.022497488, -0.12029992, -620696.94, 125945.805, 0.0, 10.000338, 9.999598 
1.5351455e+3, 2.3380995e+2, -672477.7, -690758.75, -113631.164, 0.0090028215, -0.15114984, -567620.0, 81027.25, 0.0, 9.999914, 9.99967 
1.5351637e+3, 2.4380936e+2, -620195.6, -600352.2, -100135.92, 0.013872493, -0.17851624, -509647.63, 41003.81, 0.0, 9.999538, 9.999799 
1.5351824e+3, 2.53809e+2, -563696.8, -518739.53, -101495.875, 0.047418386, -0.19724517, -437262.88, 15390.76, 0.0, 9.999237, 9.999831 
1.5352012e+3, 2.638089e+2, -500603.72, -412872.34, -99274.734, 0.06600735, -0.19734387, -348203.8, 6449.506, 0.0, 9.998892, 10.0000515 
1.5352196e+3, 2.738091e+2, -460632.13, -336926.16, -101135.164, 0.062310196, -0.1860178, -280229.1, -23579.61, 0.0, 9.998467, 10.000104 
1.5352385e+3, 2.8380877e+2, -429809.53, -274589.63, -71775.695, 0.072694145, -0.22425373, -246487.44, -87835.945, 0.0, 9.99802, 10.000075 
1.5352581e+3, 2.9380804e+2, -403809.22, -214738.16, -73201.5, 0.10052619, -0.30726445, -189710.2, -129051.88, 0.0, 9.99754, 10.000044 
1.5352775e+3, 3.0380923e+2, -369580.56, -100123.84, -51412.703, 0.08809433, -0.21581164, -90647.5, -90647.5, 0.0, 9.997128, 10.000694 
1.5352972e+3, 3.1380984e+2, -354815.44, -2914.0693, -11025.416, 0.06706392, -0.23324911, -2568.9707, -2568.9707, 0.0, 9.996838, 10.001503 
1.544937e+3, 1.2380373e+2, -1184450.6, -1700665.4, -43209.793, -0.062147014, -0.2974258, -1180858.8, 545835.7, 0.010473148, 10.004741, 9.997812 
1.5449595e+3, 1.3380156e+2, -1139750.9, -1616999.3, 56794.17, 0.05387529, -0.3073764, -1133085.3, 495629.5, 0.0065146955, 10.0042925, 9.997934 
1.5449786e+3, 1.437994e+2, -1108179.9, -1556589.9, -17549.8, -0.08310165, -0.31102479, -1107494.1, 423242.53, 0.00305655, 10.00385, 9.997884 
1.5449984e+3, 1.5379766e+2, -1069944.4, -1486798.6, -22002.709, -0.057439916, -0.2748834, -1068786.3, 363970.03, 0.0009019722, 10.0034275, 9.997893 
1.5450178e+3, 1.6379596e+2, -1006619.75, -1363931.3, -47915.785, -0.039182108, -0.2462018, -1000305.8, 334469.38, 0.000112228045, 10.003008, 9.998266 
1.5450366e+3, 1.7379442e+2, -965056.6, -1285792.1, -55035.33, -0.030680792, -0.23310992, -955875.8, 280916.0, 0.0000011877057, 10.002588, 9.998332 
1.5450552e+3, 1.83793e+2, -913093.1, -1186646.1, -81440.69, -0.029357433, -0.21394388, -890682.94, 248124.89, 0.0, 10.002171, 9.998542 
1.5450732e+3, 1.9379184e+2, -872115.7, -1111178.5, -83956.27, -0.040247418, -0.18875901, -845577.2, 195244.67, 0.0, 10.001758, 9.998586 
1.5450914e+3, 2.0379087e+2, -805717.06, -973066.06, -89693.09, -0.033182304, -0.16145365, -766728.3, 176105.34, 0.0, 10.001302, 9.999082 
1.5451097e+3, 2.1379031e+2, -778024.3, -899945.1, -89578.09, 0.0022837098, -0.13343489, -730631.56, 114209.336, 0.0, 10.00078, 9.999162 
1.5451278e+3, 2.2378974e+2, -710816.8, -762673.94, -97791.58, 0.019373385, -0.124931395, -635574.8, 111272.19, 0.0, 10.000336, 9.999645 
1.5451454e+3, 2.3378919e+2, -653836.8, -675468.3, -100744.51, 0.0074331206, -0.15234521, -563329.1, 85521.34, 0.0, 10.000016, 9.999725 
1.5451634e+3, 2.4378866e+2, -607063.0, -590570.44, -91481.68, 0.015187875, -0.17785843, -506964.13, 43889.85, 0.0, 9.999615, 9.999829 
1.5451816e+3, 2.5378832e+2, -584918.7, -526096.94, -87706.76, 0.053393863, -0.197861, -463001.2, -10145.234, 0.0, 9.999081, 9.999855 
1.5451999e+3, 2.6378816e+2, -542596.0, -435736.7, -81289.33, 0.07508604, -0.20052025, -391890.03, -37034.094, 0.0, 9.998616, 10.000027 
1.5452181e+3, 2.7378833e+2, -492808.0, -356246.34, -84138.164, 0.07198169, -0.19274108, -316168.97, -59316.016, 0.0, 9.998265, 10.000069 
1.5452366e+3, 2.8378803e+2, -450188.13, -285613.8, -56912.91, 0.08069414, -0.22570984, -267849.72, -108994.87, 0.0, 9.997887, 10.000063 
1.5452558e+3, 2.9378745e+2, -417009.88, -221728.33, -57001.742, 0.1038373, -0.29147446, -206307.53, -145447.42, 0.0, 9.997455, 10.000036 
1.5452747e+3, 3.0378857e+2, -386206.88, -100227.336, -34066.055, 0.09447865, -0.2112184, -96225.37, -96225.37, 0.0, 9.996982, 10.000763 
1.5452941e+3, 3.137891e+2, -414160.44, -39703.6, 4184.228, 0.07772953, -0.2446346, -39656.855, -39656.855, 0.0, 9.996468, 10.001429 
1.5549418e+3, 1.2378364e+2, -1196020.6, -1725396.8, -61537.582, -0.052437913, -0.32658195, -1188961.3, 537929.2, 0.011006829, 10.004745, 9.99764 
1.5549637e+3, 1.3378169e+2, -1149364.4, -1637533.3, 39014.254, 0.049559057, -0.30091208, -1146266.0, 482643.53, 0.0068751867, 10.004295, 9.997791 
1.5549825e+3, 1.4377962e+2, -1110254.1, -1561763.8, -34138.758, -0.08206195, -0.28549632, -1107687.5, 423243.38, 0.0032480878, 10.003853, 9.997848 
1.5550019e+3, 1.5377748e+2, -1071182.9, -1490414.4, -38355.03, -0.054146733, -0.28643787, -1067702.8, 365251.2, 0.0009703434, 10.003431, 9.997868 
1.5550208e+3, 1.6377564e+2, -1014666.1, -1381743.0, -64109.516, -0.036241148, -0.26627097, -1003791.6, 331182.7, 0.00012386087, 10.003012, 9.998143 
1.5550391e+3, 1.737743e+2, -974263.56, -1305941.4, -71073.125, -0.034256916, -0.21847261, -959675.4, 277314.25, 0.0000013544981, 10.002591, 9.998193 
1.5550573e+3, 1.8377292e+2, -914076.5, -1189609.3, -97148.234, -0.031467535, -0.18658341, -883268.4, 255737.11, 0.0, 10.002173, 9.998521 
1.555075e+3, 1.9377153e+2, -871981.8, -1112018.9, -99480.445, -0.027743015, -0.18301438, -836113.2, 204908.05, 0.0, 10.001761, 9.998579 
1.5550928e+3, 2.0377044e+2, -804286.0, -971396.9, -108723.83, -0.022360293, -0.16797653, -750719.7, 192314.17, 0.0, 10.001307, 9.999091 
1.5551104e+3, 2.1376993e+2, -776396.44, -897846.3, -108965.46, -0.01460754, -0.13762867, -712377.7, 132662.78, 0.0, 10.000785, 9.999175 
1.555128e+3, 2.2376938e+2, -712662.56, -767726.0, -110180.875, -0.0025525696, -0.12556987, -626625.7, 120420.56, 0.0, 10.00034, 9.99961 
1.5551455e+3, 2.3376885e+2, -656529.9, -681984.7, -111974.74, 0.016935343, -0.14668259, -556561.56, 92488.34, 0.0, 10.000019, 9.9996805 
1.5551631e+3, 2.4376832e+2, -601066.75, -578877.1, -109698.65, 0.036163364, -0.17241983, -479713.66, 71339.664, 0.0, 9.999617, 9.999908 
1.5551808e+3, 2.5376797e+2, -577804.8, -512043.28, -106862.69, 0.054003444, -0.20481531, -433117.16, 19937.957, 0.0, 9.999083, 9.999951 
1.5551984e+3, 2.6376778e+2, -544503.56, -440167.2, -94150.64, 0.070405275, -0.2152774, -384697.72, -29642.416, 0.0, 9.998617, 9.999996 
1.5552165e+3, 2.7376792e+2, -496660.1, -364267.0, -95875.35, 0.08533908, -0.20578608, -313955.75, -56902.664, 0.0, 9.998263, 10.000014 
1.5552345e+3, 2.837677e+2, -450067.63, -285108.16, -71397.945, 0.09253313, -0.22440003, -258498.14, -99444.016, 0.0, 9.997885, 10.000068 
1.555253e+3, 2.9376745e+2, -416195.13, -219718.31, -72309.92, 0.08409022, -0.2593055, -195975.13, -134918.94, 0.0, 9.997452, 10.000052 
1.5552714e+3, 3.037684e+2, -385198.78, -97957.1, -52088.816, 0.08058378, -0.19789903, -88802.98, -88802.98, 0.0, 9.99698, 10.000781 
1.555291e+3, 3.1376854e+2, -422795.66, -57750.176, -11835.683, 0.116097465, -0.27373305, -57366.836, -57366.836, 0.0, 9.996467, 10.001306 
1.5649468e+3, 1.2376425e+2, -1162200.9, -1725654.5, -49266.07, -0.04302125, -0.32433027, -1157925.8, 569154.7, 0.01157836, 10.005055, 9.997487 
1.5649681e+3, 1.3376206e+2, -1127626.5, -1641049.4, 51665.703, 0.050840188, -0.30937868, -1122479.0, 506623.13, 0.007261734, 10.00451, 9.9976635 
1.5649866e+3, 1.4375998e+2, -1089426.6, -1560216.6, -18557.756, -0.07228352, -0.28359723, -1088696.3, 442427.22, 0.0034540987, 10.004035, 9.99777 
1.5650055e+3, 1.5375786e+2, -1040982.2, -1484246.3, -26278.734, -0.04495304, -0.27660263, -1039429.7, 393717.0, 0.0010445331, 10.003676, 9.997791 
1.565024e+3, 1.6375594e+2, -989931.06, -1380458.1, -57427.383, -0.028542629, -0.25419763, -981661.44, 353506.34, 0.00013699086, 10.003228, 9.998047 
1.5650418e+3, 1.7375444e+2, -975010.8, -1317568.3, -62594.363, -0.031132247, -0.21394928, -963931.5, 273253.28, 0.0000015912761, 10.002636, 9.998092 
1.5650594e+3, 1.8375295e+2, -918523.6, -1192429.9, -82125.98, -0.031048672, -0.18576656, -895786.94, 243414.6, 0.0, 10.002148, 9.998513 
1.5650769e+3, 1.9375162e+2, -862315.9, -1106958.0, -83301.914, -0.026774898, -0.17895865, -836644.8, 204571.9, 0.0, 10.001827, 9.998582 
1.5650941e+3, 2.0375054e+2, -785310.4, -961649.2, -97576.02, -0.020974172, -0.1644514, -741969.6, 201259.53, 0.0, 10.001435, 9.999096 
1.5651113e+3, 2.1374995e+2, -755752.94, -887507.75, -99641.72, -0.012655694, -0.14129178, -702180.3, 143055.7, 0.0, 10.000926, 9.999177 
1.5651283e+3, 2.2374935e+2, -697042.44, -758767.1, -95592.2, -0.00043846702, -0.13204838, -627454.06, 119787.85, 0.0, 10.0004425, 9.999621 
1.5651456e+3, 2.337489e+2, -658357.25, -681573.7, -93149.086, 0.017963072, -0.14857759, -576095.9, 73149.4, 0.0, 10.000002, 9.999691 
1.5651627e+3, 2.4374844e+2, -610575.75, -578849.1, -94828.74, 0.03633456, -0.17076665, -498566.0, 52682.27, 0.0, 9.999534, 9.9999485 
1.5651798e+3, 2.5374812e+2, -583891.4, -510280.0, -96875.3, 0.054262307, -0.20204227, -443454.22, 9795.272, 0.0, 9.9990225, 9.999992 
1.565197e+3, 2.63748e+2, -554604.56, -438752.03, -80657.91, 0.07148226, -0.21452817, -397374.97, -42125.66, 0.0, 9.998522, 10.0000515 
1.5652145e+3, 2.737481e+2, -526438.7, -372489.8, -74837.28, 0.08778528, -0.21097533, -342106.53, -84859.555, 0.0, 9.9980345, 10.000068 
1.5652323e+3, 2.8374794e+2, -493912.75, -307777.06, -46140.23, 0.09631049, -0.22811134, -296967.34, -137719.84, 0.0, 9.997592, 10.000052 
1.5652503e+3, 2.9374778e+2, -451622.6, -239196.31, -49724.516, 0.09020597, -0.25262526, -228133.03, -166884.2, 0.0, 9.997221, 10.00003 
1.5652685e+3, 3.0374858e+2, -407371.53, -99882.16, -33251.906, 0.09064859, -0.21006514, -96327.39, -96327.39, 0.0, 9.996791, 10.000857 
1.5652873e+3, 3.1374875e+2, -452995.7, -75621.875, 13179.39, 0.11736374, -0.2865006, -75162.164, -75162.164, 0.0, 9.996275, 10.001274 
1.5749519e+3, 1.23745605e+2, -1171879.0, -1746287.6, -70146.37, -0.03537399, -0.28874442, -1163436.9, 563826.6, 0.012198068, 10.005058, 9.997345 
1.5749727e+3, 1.337427e+2, -1135864.3, -1658699.0, 30260.607, 0.05754406, -0.33245027, -1134118.6, 495173.28, 0.0076801656, 10.004513, 9.997541 
1.5749907e+3, 1.4374052e+2, -1097208.5, -1577347.6, -33417.457, -0.053636808, -0.30529547, -1094893.9, 436420.63, 0.0036774415, 10.004039, 9.997651 
1.5750092e+3, 1.537388e+2, -1049524.5, -1502966.6, -40164.86, -0.029950364, -0.24585415, -1045994.25, 387340.2, 0.0011257085, 10.00368, 9.997662 
1.5750274e+3, 1.6373691e+2, -994561.44, -1391122.1, -79029.14, -0.0162801, -0.21017306, -979392.25, 355963.1, 0.00015191181, 10.003232, 9.9979725 
1.5750445e+3, 1.7373484e+2, -979129.3, -1327454.0, -85127.56, -0.021588825, -0.21916242, -959438.06, 277939.06, 0.0000019351096, 10.002641, 9.998022 
1.5750617e+3, 1.8373312e+2, -917509.75, -1191662.0, -95408.086, -0.028286465, -0.21108572, -887575.2, 251820.66, 0.0, 10.002152, 9.998517 
1.5750787e+3, 1.9373207e+2, -861076.06, -1105358.5, -95117.16, -0.037137106, -0.1766705, -828408.56, 212999.94, 0.0, 10.00183, 9.998591 
1.5750955e+3, 2.0373109e+2, -785410.44, -962710.94, -115702.266, -0.028953047, -0.1511186, -728301.0, 215118.69, 0.0, 10.001438, 9.999087 
1.5751123e+3, 2.1373035e+2, -755856.7, -888969.5, -118439.19, 0.007105651, -0.14432137, -686554.4, 158873.39, 0.0, 10.000931, 9.999166 
1.5751289e+3, 2.2372968e+2, -692647.1, -750959.5, -111851.82, 0.02451771, -0.14409171, -606213.9, 141220.23, 0.0, 10.000447, 9.999673 
1.5751454e+3, 2.337293e+2, -653746.6, -672740.56, -108964.74, 0.010995227, -0.1578245, -553865.8, 95571.16, 0.0, 10.000004, 9.999751 
1.575162e+3, 2.4372897e+2, -610622.2, -579432.75, -112871.22, 0.016772347, -0.17293878, -481084.03, 70355.26, 0.0, 9.999535, 9.999945 
1.5751788e+3, 2.5372878e+2, -584629.44, -512385.4, -114866.94, 0.053730357, -0.19009925, -428094.75, 25344.785, 0.0, 9.999023, 9.999978 
1.5751956e+3, 2.637287e+2, -545447.75, -420475.56, -97734.98, 0.077473186, -0.19926901, -366958.9, -11520.406, 0.0, 9.998524, 10.000176 
1.5752125e+3, 2.7372882e+2, -515761.84, -351228.4, -92123.1, 0.08027892, -0.20927322, -309986.1, -52550.695, 0.0, 9.998037, 10.000214 
1.5752299e+3, 2.8372863e+2, -496415.3, -313283.84, -59873.617, 0.092601806, -0.23664516, -295446.03, -136010.13, 0.0, 9.997592, 10.000015 
1.5752478e+3, 2.9372832e+2, -456930.2, -248770.55, -62720.434, 0.11856349, -0.2689911, -231333.03, -169894.36, 0.0, 9.997213, 9.999968 
1.5752655e+3, 3.0372894e+2, -399980.97, -82885.47, -50875.86, 0.12146566, -0.2457734, -74922.73, -74922.73, 0.0, 9.996782, 10.000979 
1.5752833e+3, 3.1372964e+2, -449286.63, -68690.78, -3338.6785, 0.085794106, -0.2842459, -68661.49, -68661.49, 0.0, 9.996277, 10.001322 
1.5849572e+3, 1.23727165e+2, -1150190.4, -1747652.5, -55956.387, -0.014673122, -0.27119157, -1144994.9, 582450.0, 0.012871451, 10.005265, 9.997236 
1.5849774e+3, 1.3372397e+2, -1086272.0, -1645323.5, 45483.008, 0.053158265, -0.33390084, -1082595.9, 546880.1, 0.008134212, 10.004906, 9.997443 
1.584995e+3, 1.4372176e+2, -1048994.5, -1565871.6, -19016.238, -0.05295721, -0.30052242, -1048295.75, 483203.03, 0.0039202147, 10.004424, 9.997543 
1.5850131e+3, 1.5371998e+2, -1047908.7, -1515178.1, -25818.553, -0.014652601, -0.23597084, -1046486.44, 387033.13, 0.0012146346, 10.003749, 9.997544 
1.5850307e+3, 1.6371799e+2, -998256.3, -1392152.8, -59695.59, 0.00258489, -0.20252521, -989408.1, 346133.16, 0.00016856183, 10.003204, 9.997978 
1.5850474e+3, 1.7371581e+2, -943261.7, -1307747.1, -59151.383, -0.019353192, -0.22547206, -933902.5, 303660.97, 0.0000023797534, 10.002877, 9.998042 
1.5850638e+3, 1.8371403e+2, -879001.06, -1182285.4, -68589.805, -0.0324535, -0.22143833, -864210.3, 275372.22, 0.0, 10.002458, 9.998434 
1.5850806e+3, 1.93713e+2, -860935.3, -1116473.9, -76746.336, -0.030048378, -0.17493373, -839657.7, 201937.75, 0.0, 10.001881, 9.99849 
1.5850969e+3, 2.0371202e+2, -790050.9, -958389.2, -99906.164, -0.021032449, -0.14728501, -743584.3, 200022.44, 0.0, 10.001379, 9.9991455 
1.5851131e+3, 2.137112e+2, -740319.94, -872518.3, -96341.53, -0.0017509267, -0.15464444, -689582.5, 156032.2, 0.0, 10.000999, 9.999245 
1.5851292e+3, 2.2371052e+2, -681399.8, -749010.2, -91590.67, 0.0107857315, -0.15883207, -617574.9, 130046.195, 0.0, 10.000541, 9.99964 
1.5851454e+3, 2.3371021e+2, -664502.44, -683456.7, -97272.22, 0.012280235, -0.16137451, -576246.75, 73377.11, 0.0, 9.999955, 9.999701 
1.5851615e+3, 2.4370995e+2, -623291.3, -575711.4, -102705.47, 0.024889326, -0.16909556, -494076.6, 57549.12, 0.0, 9.999406, 10.000031 
1.5851778e+3, 2.5370988e+2, -593109.25, -504470.56, -96594.9, 0.05490333, -0.1856788, -442513.03, 11111.624, 0.0, 9.998915, 10.000084 
1.585194e+3, 2.6370984e+2, -560643.56, -430185.75, -78784.94, 0.07567806, -0.19663322, -393131.34, -37508.1, 0.0, 9.998431, 10.000154 
1.5852106e+3, 2.737099e+2, -530412.25, -363162.6, -86321.98, 0.081928946, -0.20985948, -326601.75, -68980.68, 0.0, 9.997959, 10.000168 
1.5852274e+3, 2.837097e+2, -515213.22, -312037.22, -59106.67, 0.09740678, -0.23585379, -296093.44, -136472.19, 0.0, 9.99742, 10.000106 
1.5852448e+3, 2.9370958e+2, -514454.53, -263688.56, -50749.707, 0.12714168, -0.26500213, -253807.28, -192185.13, 0.0, 9.996765, 10.00008 
1.5852621e+3, 3.0371004e+2, -463156.63, -104905.81, -26572.383, 0.1340492, -0.26397026, -102945.6, -102945.6, 0.0, 9.996314, 10.001053 
1.5852793e+3, 3.1371102e+2, -460136.8, -73207.11, 18688.59, 0.08333619, -0.28106776, -72306.555, -72306.555, 0.0, 9.996201, 10.001327 
1.5949628e+3, 1.2370897e+2, -1155059.1, -1758256.5, -69646.51, 0.018260771, -0.27054626, -1147122.0, 580501.8, 0.013597252, 10.005269, 9.997163 
1.594982e+3, 1.3370588e+2, -1091324.4, -1656176.6, 31222.385, 0.037412982, -0.31430733, -1089603.9, 540050.0, 0.00862386, 10.004909, 9.997368 
1.5949991e+3, 1.437037e+2, -1055616.6, -1580561.8, -43408.5, -0.07067664, -0.26935598, -1052051.4, 479624.84, 0.004182756, 10.004428, 9.997441 
1.595017e+3, 1.5370138e+2, -1055000.8, -1531106.5, -51749.156, 0.00065698015, -0.24637638, -1049441.0, 384260.94, 0.0013113432, 10.003753, 9.997434 
1.5950342e+3, 1.6369921e+2, -991945.5, -1380177.9, -73920.15, 0.027937492, -0.23081535, -978347.25, 357377.97, 0.00018661015, 10.003208, 9.998059 
1.5950501e+3, 1.7369734e+2, -935201.3, -1292107.8, -71542.484, -0.024321655, -0.23308334, -921394.6, 316349.2, 0.0000028938316, 10.002881, 9.998149 
1.5950663e+3, 1.8369566e+2, -890471.8, -1207265.8, -89207.75, -0.04362612, -0.21711761, -867078.75, 272683.0, 0.0, 10.002461, 9.998261 
1.5950826e+3, 1.936944e+2, -875291.4, -1147484.3, -98316.76, -0.0063152756, -0.17370865, -843493.75, 198283.9, 0.0, 10.001885, 9.998277 
1.5950985e+3, 2.0369327e+2, -781335.75, -941364.8, -114685.336, 0.0022249874, -0.1527484, -721510.9, 222279.56, 0.0, 10.001383, 9.999261 
1.5951137e+3, 2.1369249e+2, -728372.06, -848733.56, -110116.71, -0.037907027, -0.17202397, -663064.1, 182733.08, 0.0, 10.001003, 9.999407 
1.5951292e+3, 2.2369187e+2, -689024.1, -765957.3, -112148.195, -0.040045153, -0.17616287, -608928.94, 138874.06, 0.0, 10.000545, 9.999523 
1.5951453e+3, 2.3369159e+2, -675221.44, -706701.9, -118353.91, 0.02097812, -0.15935527, -571565.7, 78240.75, 0.0, 9.999958, 9.999539 
1.5951613e+3, 2.4369137e+2, -611292.6, -551712.06, -120400.445, 0.05881257, -0.15931286, -457471.2, 94336.86, 0.0, 9.999409, 10.0001955 
1.5951768e+3, 2.536914e+2, -577596.75, -473484.94, -113950.75, 0.057692636, -0.1883584, -400262.78, 53542.59, 0.0, 9.9989195, 10.000296 
1.5951924e+3, 2.6369134e+2, -571330.9, -453518.88, -95593.31, 0.06657075, -0.20605163, -400139.53, -44335.44, 0.0, 9.998435, 9.999992 
1.5952086e+3, 2.7369124e+2, -546088.0, -395608.97, -102579.64, 0.091368146, -0.21286751, -343633.84, -85829.34, 0.0, 9.997957, 9.999947 
1.5952249e+3, 2.8369117e+2, -501551.25, -283636.5, -81289.08, 0.109348014, -0.22667529, -256654.08, -96849.9, 0.0, 9.997418, 10.000302 
1.5952414e+3, 2.9369137e+2, -494944.06, -225396.69, -74416.51, 0.117793165, -0.24225762, -206216.61, -144416.33, 0.0, 9.996773, 10.00034 
1.5952584e+3, 3.0369177e+2, -460239.72, -100329.586, -32760.805, 0.13002135, -0.2663388, -97371.836, -97371.836, 0.0, 9.996319, 10.001082 
1.5952757e+3, 3.136928e+2, -464933.78, -79036.79, 16936.688, 0.1055989, -0.2779605, -78294.88, -78294.88, 0.0, 9.9961815, 10.001297 
1.6049683e+3, 1.2369122e+2, -1098776.6, -1740843.6, -47469.363, 0.021358745, -0.27051416, -1095286.1, 632511.94, 0.014370252, 10.00571, 9.997069 
1.6049871e+3, 1.3368805e+2, -1059230.6, -1651994.6, 49265.383, 0.040655427, -0.31397927, -1055164.1, 574665.06, 0.009146684, 10.005184, 9.997263 
1.6050038e+3, 1.4368588e+2, -1029432.7, -1567810.9, -30470.56, -0.056295812, -0.2605627, -1027713.6, 504137.53, 0.004464287, 10.004611, 9.99744 
1.6050209e+3, 1.5368342e+2, -1024553.06, -1515370.8, -31430.281, 0.0032581936, -0.25378215, -1022548.56, 411329.13, 0.001415612, 10.00396, 9.997442 
1.6050375e+3, 1.6368118e+2, -968630.7, -1376650.6, -43717.33, 0.027149491, -0.2425377, -963999.2, 371902.25, 0.00020582402, 10.003403, 9.997989 
1.6050531e+3, 1.736794e+2, -922596.56, -1295287.1, -54130.484, -0.016039873, -0.2290559, -914893.7, 323025.9, 0.0000034510517, 10.003009, 9.998065 
1.6050689e+3, 1.8367769e+2, -878988.94, -1202230.9, -82075.47, -0.032440692, -0.21018985, -859342.94, 280594.9, 0.0, 10.002543, 9.998256 
1.6050845e+3, 1.9367623e+2, -865004.5, -1142072.9, -76881.805, -0.0020966686, -0.18523015, -845100.94, 196854.08, 0.0, 10.001955, 9.99828 
1.6051e+3, 2.0367505e+2, -773943.9, -940181.6, -82080.15, 0.0013508215, -0.16917807, -740247.1, 203721.11, 0.0, 10.001445, 9.999238 
1.6051148e+3, 2.1367443e+2, -720934.5, -848193.9, -90760.51, -0.040642653, -0.17075922, -673721.0, 172252.83, 0.0, 10.001068, 9.999378 
1.6051298e+3, 2.2367388e+2, -678767.1, -754738.75, -103580.43, -0.042642415, -0.16941234, -606426.94, 141552.23, 0.0, 10.000588, 9.999578 
1.6051453e+3, 2.3367351e+2, -674083.06, -698592.0, -95273.23, 0.021721715, -0.16753817, -590279.44, 59703.625, 0.0, 9.999935, 9.999606 
1.6051607e+3, 2.436733e+2, -619163.56, -558446.7, -88679.27, 0.059804592, -0.17130008, -495073.34, 56911.383, 0.0, 9.999369, 10.000168 
1.6051756e+3, 2.536734e+2, -576064.9, -477715.7, -99793.29, 0.054152846, -0.18614218, -415639.03, 38342.43, 0.0, 9.998952, 10.00025 
1.6051908e+3, 2.6367337e+2, -569723.9, -448825.94, -90725.78, 0.06368769, -0.2015709, -400255.44, -44275.2, 0.0, 9.99843, 10.000026 
1.6052064e+3, 2.7367315e+2, -575987.9, -405239.38, -80336.93, 0.09683447, -0.22387873, -373384.03, -115402.34, 0.0, 9.997733, 9.999989 
1.6052222e+3, 2.8367317e+2, -533153.75, -294644.5, -49479.49, 0.11101621, -0.23447274, -284787.22, -124806.64, 0.0, 9.997185, 10.0003395 
1.6052382e+3, 2.9367366e+2, -476979.75, -212617.23, -57436.465, 0.097417004, -0.22226167, -200677.6, -138704.05, 0.0, 9.99688, 10.000376 
1.6052547e+3, 3.0367392e+2, -454536.9, -92593.23, -27186.902, 0.11762081, -0.26629516, -90562.516, -90562.516, 0.0, 9.996338, 10.001125 
1.6052717e+3, 3.1367496e+2, -574451.9, -125627.0, 26260.773, 0.12658307, -0.28240886, -124095.71, -124095.71, 0.0, 9.995405, 10.00135 
1.6149737e+3, 1.2367401e+2, -1107136.5, -1758462.4, -66080.44, -0.008192341, -0.2693552, -1100500.0, 627466.7, 0.015186423, 10.005713, 9.996947 
1.6149925e+3, 1.3367048e+2, -1068777.0, -1672318.0, 28766.879, 0.062441587, -0.33239806, -1067408.9, 562592.6, 0.009701244, 10.005188, 9.997122 
1.6150089e+3, 1.4366835e+2, -1022115.6, -1553632.0, -54710.723, -0.009727397, -0.2736911, -1016542.5, 515480.78, 0.004764853, 10.004616, 9.997537 
1.6150248e+3, 1.536661e+2, -1015303.6, -1497463.0, -56428.723, -0.006693243, -0.25852877, -1008787.6, 425259.13, 0.0015279031, 10.003964, 9.997563 
1.6150406e+3, 1.6366391e+2, -983259.75, -1408463.8, -60138.363, 0.00020185906, -0.23811887, -974917.8, 361151.94, 0.00022640538, 10.003408, 9.997768 
1.6150564e+3, 1.7366196e+2, -941369.9, -1335237.5, -68880.05, 0.0048225736, -0.21361454, -929671.5, 308419.4, 0.0000040571203, 10.003013, 9.997789 
1.6150716e+3, 1.836601e+2, -868114.7, -1180405.6, -103169.516, 0.00050904497, -0.20063323, -837109.56, 303001.28, 0.0, 10.002545, 9.9984045 
1.6150865e+3, 1.9365855e+2, -849501.1, -1111322.8, -98919.484, -0.01665964, -0.20892863, -816330.56, 225797.03, 0.0, 10.00196, 9.998488 
1.6151012e+3, 2.0365736e+2, -784288.06, -963175.6, -96942.2, -0.023066046, -0.19614823, -741830.44, 202309.77, 0.0, 10.001451, 9.999079 
1.6151161e+3, 2.1365698e+2, -736172.7, -880066.25, -104199.875, -0.011929032, -0.15180035, -681494.25, 164650.7, 0.0, 10.001068, 9.999161 
1.6151309e+3, 2.236565e+2, -663985.6, -723913.06, -126046.98, 0.00055159075, -0.13966066, -564389.9, 183760.05, 0.0, 10.000587, 9.999792 
1.6151452e+3, 2.3365594e+2, -653928.44, -658089.2, -119213.6, 0.015135355, -0.18531175, -536777.06, 113377.19, 0.0, 9.999939, 9.999883 
1.6151598e+3, 2.4365564e+2, -632900.25, -588777.56, -104580.08, 0.029727826, -0.2040227, -503957.22, 48199.11, 0.0, 9.999375, 9.999957 
1.6151744e+3, 2.5365588e+2, -596306.4, -519919.44, -113969.92, 0.04430084, -0.17942992, -437913.56, 16239.79, 0.0, 9.998952, 9.999961 
1.6151892e+3, 2.6365584e+2, -555616.75, -419323.28, -114095.86, 0.06620742, -0.1838937, -354572.16, 1580.1377, 0.0, 9.998428, 10.000231 
1.6152042e+3, 2.736556e+2, -555729.25, -364639.63, -105395.55, 0.09848639, -0.24194914, -317927.5, -59774.09, 0.0, 9.997738, 10.000265 
1.6152193e+3, 2.836556e+2, -540149.6, -310591.03, -61803.215, 0.10310933, -0.25790995, -295009.56, -134858.19, 0.0, 9.9971895, 10.000228 
1.6152346e+3, 2.9365638e+2, -489781.84, -237788.97, -67411.88, 0.0664179, -0.20567553, -220888.72, -158745.86, 0.0, 9.996873, 10.000207 
1.6152507e+3, 3.036564e+2, -452671.88, -87128.76, -57731.094, 0.09682483, -0.2647444, -78227.88, -78227.88, 0.0, 9.996329, 10.001168 
1.6152674e+3, 3.1365737e+2, -564547.1, -106796.15, -6496.1484, 0.14578564, -0.2926606, -106703.984, -106703.984, 0.0, 9.995411, 10.001477 
1.6249797e+3, 1.2365746e+2, -1024354.5, -1725968.1, -41899.26, -0.019594088, -0.26413015, -1021861.2, 706268.1, 0.016044833, 10.006331, 9.996872 
1.6249979e+3, 1.3365382e+2, -1053469.4, -1675609.6, 53071.79, 0.06805511, -0.32983482, -1048974.5, 581190.94, 0.010288258, 10.005345, 9.997023 
1.6250138e+3, 1.4365166e+2, -1021876.0, -1556453.6, -22787.611, 0.013116089, -0.26636, -1020906.4, 511280.84, 0.005085877, 10.004633, 9.997508 
1.625029e+3, 1.5364926e+2, -957295.3, -1471927.3, -34364.473, -0.0065373727, -0.26279593, -955010.75, 479200.53, 0.001649512, 10.004375, 9.9975395 
1.625044e+3, 1.6364697e+2, -919892.3, -1389741.4, -46648.703, -0.007317293, -0.24751537, -915305.6, 420929.53, 0.00024900943, 10.003896, 9.997662 
1.6250594e+3, 1.7364497e+2, -946441.94, -1351396.9, -45553.85, 0.013845814, -0.21587159, -941380.8, 296876.63, 0.00000475879, 10.003037, 9.997666 
1.6250743e+3, 1.8364313e+2, -884980.9, -1182802.6, -69901.01, 0.0134870615, -0.19853455, -869390.7, 270886.9, 0.0, 10.002406, 9.998455 
1.6250885e+3, 1.9364162e+2, -815339.6, -1086401.9, -74783.38, -0.020644037, -0.20758814, -796076.56, 246216.36, 0.0, 10.00216, 9.998563 
1.6251026e+3, 2.0364045e+2, -752808.6, -951294.9, -81881.26, -0.030865896, -0.19874197, -723390.44, 220914.83, 0.0, 10.001682, 9.999048 
1.6251172e+3, 2.1363993e+2, -777244.75, -905224.8, -78412.24, -0.0014279883, -0.16405526, -740026.06, 106285.53, 0.0, 10.000811, 9.999111 
1.6251314e+3, 2.2363941e+2, -717707.8, -744889.8, -91555.06, 0.013312746, -0.15298326, -638740.44, 109576.45, 0.0, 10.000198, 9.999834 
1.6251451e+3, 2.3363905e+2, -637848.4, -644218.0, -99921.29, 0.0030847995, -0.18418749, -541061.1, 109258.164, 0.0, 10.000025, 9.999936 
1.6251591e+3, 2.4363883e+2, -601863.3, -577779.2, -96949.695, 0.008931932, -0.19785504, -492126.56, 60194.234, 0.0, 9.999606, 9.999921 
1.6251732e+3, 2.5363886e+2, -626209.94, -540066.1, -91237.67, 0.042257033, -0.18586153, -482244.5, -27924.725, 0.0, 9.998772, 9.999908 
1.6251875e+3, 2.6363882e+2, -597551.06, -430671.6, -82564.914, 0.071252115, -0.19607255, -396726.7, -40407.453, 0.0, 9.998103, 10.000308 
1.6252019e+3, 2.736387e+2, -552607.1, -352291.72, -86038.69, 0.08994618, -0.24520802, -320410.72, -62092.44, 0.0, 9.997713, 10.000361 
1.6252163e+3, 2.836389e+2, -534761.0, -301725.72, -44474.996, 0.08959654, -0.25556523, -293526.16, -133211.45, 0.0, 9.997201, 10.000282 
1.6252314e+3, 2.9363966e+2, -544365.56, -258682.56, -35233.824, 0.06473584, -0.21038617, -254401.27, -192094.98, 0.0, 9.996475, 10.000255 
1.6252469e+3, 3.0363947e+2, -521549.06, -118051.18, -23400.684, 0.103285104, -0.29395932, -116698.6, -116698.6, 0.0, 9.995849, 10.001187 
1.6252625e+3, 3.136408e+2, -561698.1, -92596.05, 23919.973, 0.12500246, -0.2849003, -91379.5, -91379.5, 0.0, 9.995376, 10.001591 
1.634986e+3, 1.2364164e+2, -1025913.94, -1729790.0, -75681.44, -0.014958179, -0.25290382, -1017868.56, 710416.6, 0.016945397, 10.006338, 9.996844 
1.6350031e+3, 1.3363805e+2, -1057488.8, -1684296.1, 15438.738, 0.05735603, -0.30671695, -1057108.8, 573211.9, 0.010908577, 10.005349, 9.996962 
1.6350183e+3, 1.4363585e+2, -1032231.4, -1578898.5, -36321.305, 0.012063731, -0.23902008, -1029828.7, 502513.97, 0.005428636, 10.004637, 9.997353 
1.6350333e+3, 1.5363297e+2, -968928.6, -1497001.8, -44085.574, 0.0032479826, -0.2663187, -965273.5, 469097.5, 0.0017816649, 10.004379, 9.997366 
1.6350481e+3, 1.6363038e+2, -919545.5, -1389895.4, -76221.17, 0.0041989447, -0.2701798, -907502.06, 428895.3, 0.00027437788, 10.003899, 9.997661 
1.6350625e+3, 1.7362845e+2, -944119.4, -1348121.3, -78123.08, 0.011293317, -0.23535115, -929538.75, 308880.47, 0.000005604758, 10.003043, 9.997686 
1.6350767e+3, 1.8362673e+2, -887622.06, -1189866.6, -82063.06, 0.006782244, -0.20384218, -866778.44, 273659.7, 0.0, 10.002412, 9.998404 
1.6350906e+3, 1.9362547e+2, -819593.8, -1095621.4, -83521.23, -0.0147074405, -0.18227836, -796289.3, 246161.84, 0.0, 10.00216, 9.9985 
1.6351044e+3, 2.0362425e+2, -746588.25, -938581.8, -111169.93, -0.022695791, -0.17776027, -695703.7, 248759.9, 0.0, 10.001682, 9.999136 
1.635118e+3, 2.136232e+2, -768551.0, -889028.9, -110888.016, -0.008228693, -0.20587301, -702596.1, 143877.94, 0.0, 10.000817, 9.99922 
1.6351314e+3, 2.2362259e+2, -725139.8, -762468.8, -100766.086, -0.0029974815, -0.20740059, -641324.2, 107156.2, 0.0, 10.000206, 9.99971 
1.635145e+3, 2.336228e+2, -649359.94, -668166.7, -105217.19, -0.014418672, -0.1653949, -553126.75, 97351.9, 0.0, 10.000024, 9.999773 
1.6351585e+3, 2.4362275e+2, -593907.44, -560604.5, -123976.06, -0.003369474, -0.15480958, -452166.66, 100312.13, 0.0, 9.999602, 10.000042 
1.635172e+3, 2.5362235e+2, -614190.3, -516233.9, -121622.4, 0.047285862, -0.20428199, -434098.16, 20383.146, 0.0, 9.9987755, 10.000072 
1.6351856e+3, 2.6362216e+2, -599438.2, -436331.3, -98140.914, 0.078505985, -0.23625869, -390281.47, -33799.68, 0.0, 9.99811, 10.000267 
1.6351993e+3, 2.7362245e+2, -557920.56, -363507.56, -99215.29, 0.071893714, -0.23532708, -321815.63, -63338.484, 0.0, 9.997713, 10.000285 
1.6352133e+3, 2.8362286e+2, -521121.9, -272866.22, -68828.195, 0.07045182, -0.22951129, -255060.84, -94589.33, 0.0, 9.997197, 10.0004835 
1.6352281e+3, 2.9362336e+2, -527817.4, -224302.02, -61423.156, 0.08927684, -0.23365767, -212342.88, -149878.22, 0.0, 9.996474, 10.000492 
1.635243e+3, 3.0362296e+2, -522265.0, -119457.15, -41397.79, 0.13449685, -0.35053104, -115246.58, -115246.58, 0.0, 9.995847, 10.001179 
1.6352573e+3, 3.136251e+2, -555067.3, -78103.04, 7878.5103, 0.06815735, -0.2630112, -77972.94, -77972.94, 0.0, 9.995372, 10.001694 
1.6449925e+3, 1.2362643e+2, -1014492.7, -1734639.3, -51435.184, 0.0054322802, -0.24268444, -1010837.56, 717597.56, 0.017886978, 10.00647, 9.996747 
1.6450085e+3, 1.3362274e+2, -979039.44, -1661267.6, 29921.883, 0.040919557, -0.29549277, -977729.6, 652742.1, 0.011561067, 10.005964, 9.996822 
1.6450232e+3, 1.4362043e+2, -941224.44, -1542210.4, -17477.684, -0.0032246073, -0.22462952, -940716.6, 591777.8, 0.005792587, 10.0053005, 9.997284 
1.6450378e+3, 1.5361738e+2, -975890.94, -1507195.6, -16777.752, 0.012313654, -0.26416868, -975361.7, 459162.4, 0.0019244987, 10.004362, 9.997304 
1.645052e+3, 1.6361469e+2, -958260.5, -1411264.9, -45096.0, 0.021254806, -0.27466917, -953814.9, 382736.34, 0.00030288965, 10.003645, 9.997635 
1.6450655e+3, 1.7361277e+2, -907037.56, -1332762.8, -50429.234, 0.0067572603, -0.2354919, -901145.5, 337427.13, 0.000006604078, 10.00331, 9.997663 
1.6450791e+3, 1.8361102e+2, -834413.75, -1167439.9, -54306.29, -0.0031682511, -0.20396075, -825781.8, 314809.84, 0.0, 10.002792, 9.998374 
1.6450928e+3, 1.9360965e+2, -851434.9, -1114850.0, -53911.895, -0.0018786163, -0.19026616, -840828.06, 201777.52, 0.0, 10.001959, 9.998464 
1.6451061e+3, 2.0360838e+2, -793933.25, -958227.06, -82805.7, -0.0044050715, -0.19002174, -759440.06, 185178.27, 0.0, 10.001344, 9.999164 
1.6451187e+3, 2.136074e+2, -725100.3, -864131.9, -88464.76, -0.014235645, -0.2160404, -682106.25, 164521.8, 0.0, 10.0011, 9.999254 
1.6451317e+3, 2.2360681e+2, -668699.4, -743234.8, -79354.68, -0.016367361, -0.21462625, -618297.0, 130337.39, 0.0, 10.000629, 9.999638 
1.645145e+3, 2.3360698e+2, -692880.25, -699496.94, -79065.55, -0.0061076884, -0.16844913, -617053.9, 33579.836, 0.0, 9.99977, 9.999679 
1.645158e+3, 2.4360697e+2, -662943.0, -584834.06, -98814.86, 0.010886901, -0.15257186, -517635.88, 34997.94, 0.0, 9.99909, 10.000121 
1.6451707e+3, 2.5360674e+2, -615807.7, -505380.7, -101467.586, 0.040788915, -0.1953657, -445077.1, 9557.473, 0.0, 9.998715, 10.0001745 
1.6451837e+3, 2.636066e+2, -580797.06, -424825.03, -76839.84, 0.061588537, -0.22879884, -393329.63, -36695.26, 0.0, 9.998227, 10.000289 
1.6451968e+3, 2.7360678e+2, -582075.3, -374574.03, -72137.96, 0.06145438, -0.24086004, -351959.8, -93329.1, 0.0, 9.997545, 10.000289 
1.6452104e+3, 2.8360724e+2, -559759.8, -274108.72, -45637.402, 0.06243293, -0.2384536, -266994.6, -106370.06, 0.0, 9.996858, 10.000638 
1.6452242e+3, 2.9360795e+2, -562029.9, -221193.08, -43636.875, 0.079579465, -0.23576653, -215695.0, -153079.98, 0.0, 9.996156, 10.000666 
1.6452387e+3, 3.0360755e+2, -564845.56, -137493.28, -17740.342, 0.13040264, -0.3658037, -136758.11, -136758.11, 0.0, 9.995545, 10.0012 
1.6452523e+3, 3.1360987e+2, -584786.94, -72043.67, 35460.285, 0.04822018, -0.25814545, -69602.93, -69602.93, 0.0, 9.995082, 10.001874 
1.6549994e+3, 1.2361189e+2, -1026430.6, -1759257.6, -67648.85, 0.039032035, -0.23175997, -1020238.1, 708340.2, 0.01886817, 10.006472, 9.996578 
1.6550143e+3, 1.3360786e+2, -994193.06, -1693277.4, 10545.262, 0.018336462, -0.2956752, -994034.06, 636584.44, 0.0122434, 10.005969, 9.996601 
1.6550282e+3, 1.4360547e+2, -939900.56, -1540518.6, -50761.145, -0.03309744, -0.22289483, -935640.75, 597001.44, 0.0061759125, 10.005305, 9.997294 
1.6550422e+3, 1.5360251e+2, -972043.9, -1500604.5, -52580.09, 0.020405617, -0.25663766, -966864.06, 467806.34, 0.0020772552, 10.004367, 9.997348 
1.6550559e+3, 1.6359988e+2, -961154.56, -1418614.4, -60918.73, 0.043585587, -0.26155585, -953181.1, 383515.5, 0.00033453075, 10.00365, 9.997582 
1.6550688e+3, 1.7359795e+2, -911474.4, -1342906.1, -62736.367, 0.000246554, -0.21680412, -902536.75, 336181.16, 0.000007749186, 10.003313, 9.997592 
1.6550818e+3, 1.8359603e+2, -835133.3, -1169799.8, -82974.875, -0.016385606, -0.1987912, -815690.6, 325047.72, 0.0, 10.002795, 9.998357 
1.6550949e+3, 1.9359419e+2, -851552.94, -1116523.4, -85070.86, 0.01738522, -0.23017012, -826591.7, 216164.64, 0.0, 10.001965, 9.99845 
1.6551077e+3, 2.0359285e+2, -795813.5, -963433.2, -94361.49, 0.023387218, -0.23437315, -753416.44, 191353.23, 0.0, 10.0013485, 9.999126 
1.6551198e+3, 2.1359247e+2, -728040.4, -870451.9, -96740.18, -0.019653128, -0.1962212, -679125.7, 167648.44, 0.0, 10.0011, 9.999211 
1.6551322e+3, 2.2359201e+2, -670774.56, -747591.06, -107845.34, -0.02715791, -0.17673434, -594702.2, 154077.16, 0.0, 10.000628, 9.99961 
1.655145e+3, 2.3359154e+2, -694393.25, -703865.44, -110482.04, 0.026354693, -0.19188905, -588545.9, 62238.945, 0.0, 9.999774, 9.999648 
1.6551575e+3, 2.435914e+2, -659607.5, -579547.06, -114023.12, 0.050065946, -0.1889935, -498731.53, 54054.793, 0.0, 9.999096, 10.000155 
1.6551693e+3, 2.5359192e+2, -612471.8, -499139.22, -114032.89, 0.023608541, -0.16121753, -428469.1, 26311.287, 0.0, 9.998717, 10.0002165 
1.6551815e+3, 2.63592e+2, -575527.0, -414196.5, -99693.46, 0.021968585, -0.17669223, -366621.06, -9843.114, 0.0, 9.998227, 10.000363 
1.6551943e+3, 2.7359158e+2, -576760.75, -363947.97, -96437.77, 0.057524737, -0.25999177, -326748.78, -67969.12, 0.0, 9.997545, 10.000363 
1.6552071e+3, 2.835919e+2, -552121.2, -258611.11, -70616.82, 0.0644548, -0.27966568, -242504.94, -81730.54, 0.0, 9.996859, 10.000745 
1.65522e+3, 2.935933e+2, -554385.8, -205556.95, -68857.1, 0.038641516, -0.21961989, -192456.88, -129698.3, 0.0, 9.996156, 10.000774 
1.6552338e+3, 3.0359298e+2, -562314.6, -132032.7, -35268.35, 0.09370503, -0.34334123, -129161.08, -129161.08, 0.0, 9.995543, 10.001239 
1.6552475e+3, 3.1359503e+2, -568931.8, -36720.77, 18719.557, 0.061116397, -0.26828635, -36063.156, -36063.156, 0.0, 9.9950695, 10.002123 
1.665006e+3, 1.2359791e+2, -976911.6, -1736856.4, -46256.906, 0.035938732, -0.21786648, -974106.4, 754609.8, 0.019887317, 10.006835, 9.996555 
1.6650201e+3, 1.3359374e+2, -990825.4, -1697495.1, 40060.26, 0.015659189, -0.29185465, -988561.7, 642195.94, 0.012953792, 10.006023, 9.996546 
1.6650335e+3, 1.435913e+2, -945915.2, -1548098.5, -19745.18, -0.023486234, -0.21872064, -945268.44, 587513.2, 0.00657728, 10.005287, 9.997251 
1.6650468e+3, 1.5358837e+2, -931423.94, -1485928.8, -29075.166, 0.022665825, -0.24524207, -929903.56, 504906.0, 0.0022393216, 10.00467, 9.997302 
1.6650596e+3, 1.635857e+2, -907170.4, -1393214.1, -31437.096, 0.04331365, -0.25142863, -905145.5, 431690.5, 0.00036925275, 10.0040245, 9.997576 
1.6650721e+3, 1.7358363e+2, -908796.0, -1341969.1, -27451.578, 0.0059039043, -0.22086458, -907063.25, 331794.8, 0.0000090666135, 10.003333, 9.997588 
1.6650847e+3, 1.8358162e+2, -851160.3, -1178492.4, -50981.695, -0.008971135, -0.21059391, -843403.75, 297475.22, 0.0, 10.00269, 9.998347 
1.6650969e+3, 1.9357981e+2, -828698.06, -1106732.6, -54425.406, 0.019124294, -0.23906417, -818423.9, 224472.81, 0.0, 10.002128, 9.998439 
1.6651091e+3, 2.0357847e+2, -773626.1, -960230.8, -56892.617, 0.024821946, -0.23899801, -757648.56, 187261.58, 0.0, 10.001534, 9.999058 
1.6651209e+3, 2.1357808e+2, -765102.75, -897242.44, -61093.336, -0.009088933, -0.19417048, -741185.8, 105729.14, 0.0, 10.000885, 9.99913 
1.6651328e+3, 2.2357759e+2, -718081.75, -767695.0, -79828.055, -0.015195422, -0.17412104, -659294.8, 89625.84, 0.0, 10.000293, 9.999632 
1.6651447e+3, 2.3357706e+2, -688732.4, -696923.6, -79429.16, 0.026214909, -0.19909331, -613293.3, 37633.125, 0.0, 9.999796, 9.999684 
1.6651565e+3, 2.4357691e+2, -639255.1, -572634.06, -76871.17, 0.04216597, -0.19742022, -522166.5, 30761.514, 0.0, 9.999249, 10.000129 
1.6651678e+3, 2.5357753e+2, -629868.94, -512068.9, -82215.72, 0.01616331, -0.1563675, -469832.22, -14910.723, 0.0, 9.998618, 10.000175 
1.6651796e+3, 2.635777e+2, -603848.75, -412741.1, -75437.414, 0.015453207, -0.16924544, -386552.0, -29633.445, 0.0, 9.997969, 10.000497 
1.6651917e+3, 2.7357727e+2, -603543.75, -359070.56, -67398.625, 0.0511681, -0.26720348, -341720.78, -82801.125, 0.0, 9.997287, 10.000521 
1.6652037e+3, 2.8357768e+2, -579632.44, -264604.84, -38166.754, 0.05134666, -0.28970364, -260046.75, -99133.484, 0.0, 9.996639, 10.000809 
1.6652158e+3, 2.9357925e+2, -566609.4, -207003.58, -41093.594, 0.010463929, -0.21519707, -202367.42, -139471.6, 0.0, 9.996054, 10.000813 
1.665229e+3, 3.0357897e+2, -589843.8, -139835.98, -13123.477, 0.07638725, -0.3431479, -139453.6, -139453.6, 0.0, 9.995332, 10.0012865 
1.6652422e+3, 3.1358096e+2, -651620.3, -43379.184, 40869.383, 0.060690824, -0.280406, -40645.344, -40645.344, 0.0, 9.994361, 10.002418 
1.6750124e+3, 1.2358455e+2, -968613.94, -1719016.8, -72708.695, -0.00801018, -0.19948904, -961633.94, 767214.25, 0.020940453, 10.00684, 9.996677 
1.6750264e+3, 1.3358039e+2, -983537.9, -1682109.1, 9167.641, 0.03250305, -0.28415096, -983417.6, 647471.25, 0.013691036, 10.006026, 9.99665 
1.6750394e+3, 1.4357795e+2, -952525.9, -1562542.5, -43906.12, 0.025425812, -0.21245866, -949381.94, 583530.6, 0.0069966996, 10.005291, 9.99715 
1.6750515e+3, 1.5357497e+2, -940292.6, -1505596.5, -52408.984, 0.019180615, -0.23008223, -935474.9, 499466.6, 0.0024109404, 10.004675, 9.997166 
1.6750635e+3, 1.6357216e+2, -904197.56, -1388510.0, -57268.406, 0.020532724, -0.2440204, -897517.9, 439451.34, 0.00040729868, 10.00403, 9.997606 
1.6750757e+3, 1.7356981e+2, -904287.75, -1333849.1, -53479.004, 0.023006259, -0.24694629, -897729.9, 341263.22, 0.000010636183, 10.003338, 9.9976425 
1.6750875e+3, 1.8356779e+2, -851009.8, -1179168.1, -72661.84, 0.018284623, -0.23903142, -835640.6, 305372.88, 0.0, 10.002693, 9.9983425 
1.675099e+3, 1.9356646e+2, -829247.25, -1109074.3, -75228.51, 0.004065473, -0.21825126, -810305.06, 232722.0, 0.0, 10.002131, 9.998421 
1.6751105e+3, 2.035652e+2, -780070.1, -974830.6, -80505.445, 0.0008565292, -0.20525011, -751101.5, 193938.56, 0.0, 10.001538, 9.998957 
1.6751221e+3, 2.135642e+2, -773231.06, -914890.7, -84842.17, 0.016422836, -0.20892802, -733539.1, 113511.72, 0.0, 10.000887, 9.999009 
1.6751334e+3, 2.2356352e+2, -713260.1, -758256.44, -98346.09, 0.018318277, -0.205219, -634871.6, 114186.875, 0.0, 10.000294, 9.999698 
1.6751443e+3, 2.3356348e+2, -681678.8, -683039.2, -97111.734, -0.004674274, -0.19105238, -585244.9, 65814.41, 0.0, 9.999798, 9.99978 
1.6751553e+3, 2.4356344e+2, -644984.44, -585447.8, -98908.36, -0.010301291, -0.17921638, -511925.2, 41134.473, 0.0, 9.999251, 10.00004 
1.6751665e+3, 2.5356355e+2, -638216.8, -530132.06, -104484.664, 0.017366232, -0.17867218, -466541.03, -11482.596, 0.0, 9.99862, 10.0000515 
1.6751777e+3, 2.635636e+2, -590740.7, -386214.63, -99247.055, 0.03966435, -0.20354174, -345972.56, 11084.108, 0.0, 9.997971, 10.000679 
1.6751888e+3, 2.7356377e+2, -587063.0, -325447.56, -91770.555, 0.04275175, -0.26355043, -296466.38, -37414.74, 0.0, 9.997288, 10.000752 
1.6752e+3, 2.8356445e+2, -578020.0, -261859.9, -59597.465, 0.024110924, -0.2708756, -250998.67, -89956.32, 0.0, 9.99664, 10.000828 
1.6752116e+3, 2.935658e+2, -568379.9, -211199.69, -61624.863, -0.0067295125, -0.2212723, -200866.39, -137838.7, 0.0, 9.996055, 10.000784 
1.6752243e+3, 3.0356538e+2, -586545.7, -133482.58, -46245.54, 0.076345876, -0.36240566, -128810.33, -128810.33, 0.0, 9.995332, 10.00133 
1.6752365e+3, 3.1356746e+2, -628313.5, 4890.64, 4007.1208, 0.04841572, -0.29408234, 4915.9976, 4915.9976, 0.0, 9.99436, 10.00275 
1.6850191e+3, 1.2357177e+2, -949230.56, -1704562.6, -33973.64, -0.022830676, -0.2078808, -947705.56, 781267.9, 0.022021122, 10.006961, 9.99672 
1.6850324e+3, 1.3356772e+2, -967940.06, -1671944.6, 36846.168, 0.03592459, -0.2823416, -966016.8, 664995.8, 0.014452997, 10.00613, 9.996669 
1.6850448e+3, 1.4356528e+2, -942801.0, -1568396.3, -11768.84, 0.045287754, -0.20804775, -942579.6, 590456.8, 0.0074343528, 10.005407, 9.997053 
1.6850561e+3, 1.5356213e+2, -921753.75, -1509661.3, -18201.207, 0.018222507, -0.2312641, -921190.75, 513876.47, 0.0025928323, 10.00486, 9.997047 
1.6850676e+3, 1.6355921e+2, -875206.94, -1374319.1, -28519.514, 0.0132282805, -0.24853045, -873582.6, 463513.4, 0.00044915656, 10.00423, 9.997607 
1.6850792e+3, 1.7355691e+2, -886710.7, -1323352.4, -28517.01, 0.03421093, -0.24974574, -884856.1, 354263.1, 0.000012563888, 10.00345, 9.99766 
1.6850905e+3, 1.8355493e+2, -843182.4, -1179958.6, -44210.875, 0.03619505, -0.23852392, -837475.25, 303664.1, 0.0, 10.002768, 9.998301 
1.6851012e+3, 1.935536e+2, -815852.1, -1108642.6, -48917.824, 0.0082729785, -0.21196981, -807895.4, 235257.73, 0.0, 10.002251, 9.998366 
1.685112e+3, 2.0355232e+2, -765996.8, -968125.0, -58962.973, -0.0013105223, -0.19786742, -750054.1, 195112.3, 0.0, 10.0016365, 9.998955 
1.685123e+3, 2.1355127e+2, -778321.56, -916727.25, -55753.67, 0.020627666, -0.20838429, -758656.5, 88521.2, 0.0, 10.000851, 9.999013 
1.6851337e+3, 2.2355056e+2, -733149.5, -772057.9, -59831.434, 0.023780594, -0.20685557, -689688.94, 59496.664, 0.0, 10.000177, 9.999659 
1.6851439e+3, 2.3355052e+2, -699269.7, -697015.9, -67961.85, -0.007030902, -0.18660976, -630171.56, 21014.832, 0.0, 9.999702, 9.999729 
1.6851544e+3, 2.435505e+2, -653581.1, -580495.6, -76664.28, -0.01724802, -0.17610325, -532110.25, 21076.51, 0.0, 9.999155, 10.00012 
1.685165e+3, 2.5355053e+2, -652855.94, -526141.1, -67964.14, 0.012071417, -0.18966778, -496583.03, -41397.496, 0.0, 9.998473, 10.000149 
1.6851756e+3, 2.6355067e+2, -611127.56, -389350.7, -57703.566, 0.034384087, -0.21564713, -375235.3, -18052.318, 0.0, 9.997803, 10.000737 
1.685186e+3, 2.7355108e+2, -602460.56, -327392.6, -63201.895, 0.033136353, -0.25447333, -313565.84, -54389.918, 0.0, 9.99716, 10.000799 
1.6851965e+3, 2.835519e+2, -586576.2, -250044.45, -33550.984, 0.009082322, -0.2587404, -246732.16, -85566.55, 0.0, 9.996514, 10.000969 
1.6852073e+3, 2.9355314e+2, -587319.56, -203959.52, -23414.666, -0.024869902, -0.2365722, -202534.7, -139383.05, 0.0, 9.995855, 10.000929 
1.6852196e+3, 3.0355278e+2, -621541.75, -150086.42, -13461.816, 0.07129914, -0.37763828, -149702.34, -149702.34, 0.0, 9.995092, 10.001331 
1.6852306e+3, 3.1355503e+2, -642830.44, 24984.744, 26729.273, 0.042267818, -0.2951822, 26052.873, 26052.873, 0.0, 9.994145, 10.002992 
1.6950263e+3, 1.2355962e+2, -952265.94, -1709987.3, -60492.152, -0.011771342, -0.24132678, -947467.0, 781624.6, 0.02312395, 10.006964, 9.996682 
1.6950384e+3, 1.335558e+2, -972526.8, -1681858.4, 5384.632, 0.025579615, -0.28636518, -972485.94, 658642.9, 0.015236645, 10.006135, 9.996599 
1.6950502e+3, 1.4355333e+2, -949011.5, -1582589.1, -33807.055, 0.035761215, -0.20544963, -947212.75, 585940.3, 0.007889534, 10.005413, 9.996954 
1.695061e+3, 1.535499e+2, -928238.44, -1524442.3, -38860.39, 0.01947551, -0.2484088, -925716.2, 509470.56, 0.0027855062, 10.004866, 9.996944 
1.6950719e+3, 1.6354692e+2, -876738.9, -1378709.6, -56663.3, 0.021024706, -0.26485604, -870422.1, 466794.2, 0.0004953112, 10.004233, 9.997576 
1.6950826e+3, 1.7354494e+2, -887515.2, -1326404.3, -57782.625, 0.039596017, -0.23023775, -880035.25, 359201.34, 0.0000149574835, 10.003455, 9.997638 
1.6950932e+3, 1.83543e+2, -848299.3, -1191871.8, -64742.8, 0.044762928, -0.20993222, -836504.1, 304752.4, 0.0, 10.002771, 9.998218 
1.6951036e+3, 1.9354121e+2, -822110.3, -1122550.0, -67773.44, 0.030705333, -0.21959649, -807529.56, 235745.45, 0.0, 10.002254, 9.99827 
1.6951138e+3, 2.0353982e+2, -759347.8, -955216.7, -86537.96, 0.017297301, -0.2160023, -726591.9, 218697.58, 0.0, 10.001639, 9.9990425 
1.6951236e+3, 2.1353921e+2, -769029.7, -899128.75, -84822.59, 0.004489497, -0.19323531, -727185.25, 120110.65, 0.0, 10.000856, 9.999131 
1.6951336e+3, 2.2353862e+2, -742051.56, -792350.6, -78620.65, 0.00236607, -0.1801297, -684655.94, 64646.63, 0.0, 10.000183, 9.9995165 
1.6951439e+3, 2.3353815e+2, -712504.44, -724984.56, -84509.41, 0.017328583, -0.18557146, -634005.0, 17303.17, 0.0, 9.999703, 9.999537 
1.6951539e+3, 2.4353798e+2, -637641.75, -547258.2, -99828.28, 0.018644167, -0.18743287, -482869.03, 70440.82, 0.0, 9.999153, 10.00035 
1.6951634e+3, 2.5353843e+2, -631847.7, -482724.13, -92448.46, 0.00068166485, -0.19017616, -438516.47, 16787.242, 0.0, 9.998472, 10.000447 
1.6951731e+3, 2.6353878e+2, -615213.25, -398346.38, -81070.48, 0.0013479985, -0.20686075, -371390.63, -14091.97, 0.0, 9.997804, 10.000676 
1.695183e+3, 2.7353916e+2, -611137.3, -345974.1, -86013.35, 0.021905858, -0.24004795, -320517.16, -61223.836, 0.0, 9.997161, 10.000672 
1.695193e+3, 2.8353992e+2, -569250.8, -214231.16, -56818.26, 0.005007004, -0.252799, -205359.52, -44075.645, 0.0, 9.996513, 10.001216 
1.6952032e+3, 2.9354113e+2, -566966.1, -160959.73, -46875.71, -0.04364698, -0.2609972, -155617.95, -92349.08, 0.0, 9.995851, 10.001227 
1.6952145e+3, 3.0354103e+2, -624675.7, -156580.86, -46613.746, 0.06169202, -0.38859394, -151984.13, -151984.13, 0.0, 9.9950905, 10.001288 
1.6952248e+3, 3.135435e+2, -630980.44, 47087.88, -11111.729, 0.04153254, -0.28175193, 47269.92, 47269.92, 0.0, 9.994155, 10.0031395 
1.7050333e+3, 1.23548456e+2, -914395.94, -1704934.4, -23680.527, -0.016317248, -0.2570008, -913687.2, 815512.8, 0.024246141, 10.0072975, 9.996556 
1.7050447e+3, 1.3354464e+2, -929549.2, -1677967.0, 30930.068, 0.011805475, -0.28764117, -928273.06, 702964.7, 0.016039103, 10.0065155, 9.996442 
1.7050557e+3, 1.4354205e+2, -901611.3, -1565752.5, -4222.8496, 0.03137427, -0.20729205, -901584.44, 631678.9, 0.008360808, 10.005772, 9.996897 
1.705066e+3, 1.5353847e+2, -900017.8, -1515237.8, -4244.774, 0.02800701, -0.26091057, -899988.56, 535309.7, 0.002988867, 10.00508, 9.996903 
1.7050762e+3, 1.6353543e+2, -860015.75, -1374460.4, -24474.373, 0.033303406, -0.27958196, -858854.0, 478474.25, 0.00054600654, 10.004366, 9.997541 
1.7050862e+3, 1.7353356e+2, -866719.56, -1320333.8, -27840.994, 0.03996424, -0.23179093, -865017.2, 374330.44, 0.000017899565, 10.003615, 9.9976015 
1.705096e+3, 1.8353163e+2, -829496.06, -1183759.6, -27321.607, 0.042062584, -0.20706415, -827401.3, 313966.2, 0.0, 10.002906, 9.998208 
1.7051059e+3, 1.9352973e+2, -820969.56, -1122807.5, -23151.1, 0.04023964, -0.22788171, -819204.2, 224183.0, 0.0, 10.002265, 9.998262 
1.7051156e+3, 2.0352829e+2, -761981.9, -963888.25, -46378.88, 0.030523725, -0.22565849, -751838.0, 193564.33, 0.0, 10.001655, 9.998975 
1.7051247e+3, 2.1352777e+2, -740717.94, -894473.3, -60013.5, 0.0066878754, -0.18674266, -720067.2, 127341.27, 0.0, 10.001091, 9.99905 
1.7051339e+3, 2.235272e+2, -708025.8, -775568.9, -58298.668, 0.0005569189, -0.16714627, -674423.4, 74991.68, 0.0, 10.000417, 9.999518 
1.7051436e+3, 2.3352663e+2, -734082.25, -733692.7, -50154.74, 0.023383692, -0.18325977, -683732.4, -32311.074, 0.0, 9.999549, 9.999551 
1.7051528e+3, 2.4352643e+2, -685702.4, -561167.75, -60336.227, 0.024095412, -0.19168474, -536730.5, 16692.4, 0.0, 9.998785, 10.00043 
1.7051616e+3, 2.53527e+2, -664763.3, -488445.88, -67820.766, -0.008335592, -0.19283067, -465376.8, -9961.118, 0.0, 9.998204, 10.000536 
1.7051707e+3, 2.6352745e+2, -640049.56, -401480.72, -61860.824, -0.014638163, -0.20531602, -386394.25, -28984.797, 0.0, 9.997597, 10.000753 
1.70518e+3, 2.7352798e+2, -639147.9, -351230.72, -53155.72, 0.010351329, -0.23260944, -341730.5, -82327.43, 0.0, 9.996935, 10.000744 
1.7051893e+3, 2.8352883e+2, -595005.25, -203943.69, -19206.875, -0.0048574363, -0.24957289, -203002.61, -41609.81, 0.0, 9.996241, 10.001417 
1.7051986e+3, 2.935301e+2, -605112.94, -155463.72, -15938.34, -0.052302413, -0.27251273, -154899.47, -91522.664, 0.0, 9.995488, 10.001439 
1.7052095e+3, 3.0353037e+2, -669843.4, -184126.53, -20479.238, 0.06045705, -0.3756923, -183264.6, -183264.6, 0.0, 9.994807, 10.001235 
1.7052187e+3, 3.1353265e+2, -609667.94, 70038.47, 10926.5205, 0.016442206, -0.2756152, 70214.07, 70214.07, 0.0, 9.994248, 10.003251 
1.7150404e+3, 1.2353833e+2, -929738.56, -1736015.8, -48946.273, -0.040648986, -0.25349498, -926778.1, 802520.4, 0.025385512, 10.0073, 9.996339 
1.7150511e+3, 1.3353424e+2, -946469.3, -1713786.1, 1259.7661, -0.005178073, -0.28600022, -946467.25, 684872.0, 0.01685861, 10.00652, 9.996195 
1.7150615e+3, 1.4353143e+2, -902546.8, -1568609.3, -30477.385, 0.032221388, -0.21359625, -901155.1, 632212.0, 0.008847204, 10.005777, 9.996875 
1.7150714e+3, 1.5352784e+2, -898393.3, -1512899.3, -30455.242, 0.043263707, -0.26908427, -896887.6, 538514.06, 0.0032026386, 10.005085, 9.996919 
1.7150807e+3, 1.6352475e+2, -862370.4, -1380596.3, -52455.844, 0.049471904, -0.2926663, -857114.0, 480317.94, 0.0006012979, 10.00437, 9.997498 
1.7150897e+3, 1.7352273e+2, -869537.56, -1327892.8, -55946.18, 0.035414383, -0.25353348, -862807.7, 376644.84, 0.000021465157, 10.003622, 9.997547 
1.7150989e+3, 1.835208e+2, -824467.7, -1175043.5, -51716.84, 0.028446764, -0.22905885, -816997.56, 324474.78, 0.0, 10.0029125, 9.998265 
1.7151083e+3, 1.935191e+2, -815216.2, -1111946.0, -46872.766, 0.037204124, -0.23690811, -807988.06, 235502.02, 0.0, 10.002269, 9.998336 
1.7151172e+3, 2.0351769e+2, -777349.75, -996396.9, -67512.234, 0.038353093, -0.22697529, -758213.6, 187291.84, 0.0, 10.001656, 9.998752 
1.7151259e+3, 2.1351689e+2, -759966.44, -934947.06, -80330.07, 0.026219083, -0.18858415, -728681.9, 118833.71, 0.0, 10.001092, 9.998773 
1.7151345e+3, 2.2351623e+2, -698352.8, -756264.94, -88341.91, 0.017304858, -0.16752206, -634342.5, 115180.96, 0.0, 10.000419, 9.999651 
1.715143e+3, 2.3351589e+2, -719329.2, -704209.0, -81839.14, 0.0119859995, -0.17962255, -629581.5, 21944.756, 0.0, 9.999553, 9.999752 
1.7151515e+3, 2.4351577e+2, -689549.3, -570318.94, -82559.805, 0.00063578505, -0.18892005, -528100.44, 25426.277, 0.0, 9.998789, 10.000367 
1.7151597e+3, 2.5351617e+2, -672315.3, -504925.2, -88108.15, -0.015343383, -0.19747494, -467096.97, -11574.839, 0.0, 9.998207, 10.000423 
1.7151682e+3, 2.6351666e+2, -625799.8, -372428.44, -84947.39, -0.014817692, -0.21063913, -346584.4, 10931.679, 0.0, 9.997598, 10.000953 
1.7151767e+3, 2.735175e+2, -621413.56, -314801.63, -76772.11, -0.001537542, -0.23149413, -296653.0, -37147.01, 0.0, 9.996935, 10.000995 
1.7151853e+3, 2.8351852e+2, -584147.8, -181923.44, -46146.207, -0.020253403, -0.24885644, -176697.11, -15203.615, 0.0, 9.996242, 10.001569 
1.7151941e+3, 2.9351994e+2, -596053.8, -137444.19, -43575.51, -0.052315168, -0.2723785, -133340.52, -69863.81, 0.0, 9.99549, 10.001563 
1.7152044e+3, 3.0352056e+2, -673933.1, -193495.95, -41882.035, 0.06632628, -0.3399037, -189872.22, -189872.22, 0.0, 9.994809, 10.001171 
1.7152125e+3, 3.135225e+2, -604675.0, 79667.93, -13854.036, -0.02986337, -0.27221346, 79948.28, 79948.28, 0.0, 9.99425, 10.003317 
1.7250477e+3, 1.2352873e+2, -911379.3, -1730179.9, -33507.465, -0.04229888, -0.24575223, -910010.4, 819382.2, 0.02654064, 10.007454, 9.9963045 
1.7250577e+3, 1.335245e+2, -905715.4, -1698319.9, 27223.725, -0.016700393, -0.2876638, -904781.44, 726652.75, 0.01769482, 10.006831, 9.99615 
1.7250673e+3, 1.4352155e+2, -859995.06, -1554555.5, -112.95666, 0.026417853, -0.22421552, -859995.06, 673468.25, 0.009348485, 10.006105, 9.996813 
1.7250766e+3, 1.5351799e+2, -886950.4, -1514548.8, -7169.667, 0.048106886, -0.27053383, -886868.44, 548629.2, 0.0034265555, 10.005197, 9.996852 
1.7250854e+3, 1.6351487e+2, -850994.56, -1370653.9, -24455.873, 0.058198582, -0.2953117, -849846.1, 487681.94, 0.00066115486, 10.00443, 9.997537 
1.7250936e+3, 1.7351271e+2, -823428.9, -1299644.6, -19538.387, 0.03638792, -0.27530208, -822628.56, 416920.75, 0.000025752985, 10.003914, 9.997601 
1.7251019e+3, 1.8351072e+2, -781447.4, -1163675.8, -20637.27, 0.026500713, -0.25502014, -780336.4, 361233.13, 0.0, 10.003249, 9.998181 
1.7251106e+3, 1.9350916e+2, -815136.2, -1124263.1, -30591.332, 0.040918045, -0.24074584, -812137.94, 231448.98, 0.0, 10.002323, 9.998224 
1.7251189e+3, 2.0350778e+2, -797760.56, -1008666.7, -45805.914, 0.044053692, -0.21929601, -788241.75, 157360.75, 0.0, 10.001527, 9.99873 
1.725127e+3, 2.1350689e+2, -779984.75, -945583.25, -38519.203, 0.027207367, -0.18812905, -771463.44, 76149.99, 0.0, 10.00096, 9.998762 
1.7251347e+3, 2.235062e+2, -711560.8, -759798.8, -47480.625, 0.014513765, -0.17124312, -682424.44, 67197.234, 0.0, 10.000318, 9.999675 
1.7251424e+3, 2.335059e+2, -719793.5, -701415.25, -55286.383, 0.0073924013, -0.18251093, -654559.5, -2935.6843, 0.0, 9.999538, 9.999778 
1.7251502e+3, 2.4350582e+2, -690423.7, -569724.7, -55853.17, -0.004928124, -0.19127452, -547845.0, 5779.042, 0.0, 9.998779, 10.000374 
1.7251578e+3, 2.535062e+2, -693440.5, -514760.47, -52679.434, -0.020535925, -0.19810173, -500385.7, -44766.168, 0.0, 9.998062, 10.000424 
1.7251657e+3, 2.6350677e+2, -649236.75, -370836.22, -47350.477, -0.018894985, -0.20875762, -363003.22, -5390.376, 0.0, 9.997383, 10.001066 
1.7251736e+3, 2.7350774e+2, -636577.9, -307501.38, -47870.12, -0.0043904786, -0.23021209, -300679.22, -41077.93, 0.0, 9.99677, 10.001123 
1.7251813e+3, 2.835088e+2, -601334.75, -181245.38, -29308.191, -0.028261209, -0.2540678, -179210.5, -17622.125, 0.0, 9.996087, 10.001647 
1.7251894e+3, 2.935103e+2, -623660.75, -143917.77, -32193.094, -0.072227046, -0.28236857, -141767.1, -78195.234, 0.0, 9.995273, 10.001622 
1.7251989e+3, 3.0351135e+2, -702943.25, -204359.64, -20779.514, 0.0529516, -0.3092007, -203495.11, -203495.11, 0.0, 9.994598, 10.001197 
1.7252065e+3, 3.1351298e+2, -609516.1, 88673.28, 10790.987, -0.044124257, -0.2727181, 88840.02, 88840.02, 0.0, 9.99417, 10.003417 
1.7350553e+3, 1.2351969e+2, -902802.44, -1710695.3, -53462.297, -0.02475371, -0.23225796, -899279.94, 830201.9, 0.027713504, 10.007455, 9.996442 
1.7350644e+3, 1.3351545e+2, -895496.44, -1676388.1, 3412.9172, -0.023344366, -0.2925389, -895481.56, 736040.9, 0.018548505, 10.006835, 9.9963 
1.7350733e+3, 1.4351243e+2, -867028.06, -1570059.8, -32600.082, 0.013610162, -0.23906858, -865519.6, 668032.0, 0.009864343, 10.00611, 9.996705 
1.7350817e+3, 1.5350893e+2, -896352.75, -1535798.6, -41590.04, 0.04286671, -0.2653524, -893659.06, 541927.1, 0.003660056, 10.005204, 9.996704 
1.7350897e+3, 1.6350578e+2, -842174.0, -1354063.6, -45817.816, 0.05973064, -0.2878558, -838105.3, 499511.47, 0.0007254487, 10.0044365, 9.997648 
1.7350975e+3, 1.7350347e+2, -812300.2, -1277495.1, -38743.133, 0.042376027, -0.29722708, -809095.56, 430542.56, 0.000030878968, 10.003917, 9.997751 
1.7351052e+3, 1.8350142e+2, -797027.6, -1196755.4, -53077.24, 0.03541849, -0.28478092, -790099.94, 351559.06, 0.0, 10.003251, 9.997954 
1.735113e+3, 1.9349986e+2, -834963.3, -1166982.1, -65072.98, 0.05105165, -0.23960836, -822665.06, 221012.88, 0.0, 10.002329, 9.99793 
1.7351204e+3, 2.0349854e+2, -785281.3, -984489.3, -68336.805, 0.0476586, -0.20312762, -764092.6, 181601.14, 0.0, 10.001533, 9.998893 
1.7351277e+3, 2.1349776e+2, -762699.3, -910493.8, -58996.402, 0.010279686, -0.18541832, -742037.7, 105664.88, 0.0, 10.000962, 9.999003 
1.7351349e+3, 2.2349705e+2, -717357.9, -772291.8, -74910.09, -0.0071006166, -0.17781875, -665037.94, 84672.266, 0.0, 10.000319, 9.999589 
1.735142e+3, 2.334966e+2, -729591.6, -722670.2, -83647.61, 0.0091466475, -0.19156921, -642411.75, 9302.773, 0.0, 9.99954, 9.999632 
1.735149e+3, 2.4349648e+2, -684944.4, -559574.0, -82012.4, 0.006270403, -0.19871044, -519033.88, 34681.508, 0.0, 9.998783, 10.000443 
1.7351557e+3, 2.534971e+2, -685613.8, -499583.2, -78381.586, -0.02420405, -0.19502987, -470961.66, -15252.96, 0.0, 9.998065, 10.000528 
1.735163e+3, 2.6349777e+2, -647145.8, -367336.75, -69933.05, -0.026787536, -0.19994505, -350831.84, 6868.873, 0.0, 9.997386, 10.00109 
1.7351705e+3, 2.7349868e+2, -635963.94, -306635.44, -69747.43, 0.00064162246, -0.22836308, -292472.88, -32783.04, 0.0, 9.99677, 10.00113 
1.7351775e+3, 2.8349966e+2, -600638.6, -180187.52, -57788.34, -0.029870983, -0.26462063, -172389.52, -10711.187, 0.0, 9.996087, 10.001655 
1.7351842e+3, 2.9350102e+2, -623118.1, -144080.0, -61760.57, -0.11027934, -0.3022046, -136245.58, -72582.47, 0.0, 9.995277, 10.001619 
1.7351933e+3, 3.035026e+2, -694919.5, -189187.86, -38025.332, 0.021720296, -0.28270888, -186344.77, -186344.77, 0.0, 9.994603, 10.0013 
1.7352007e+3, 3.1350413e+2, -602492.75, 103972.93, -10547.908, -0.028775286, -0.26875266, 104130.38, 104130.38, 0.0, 9.994165, 10.003525 
1.7450629e+3, 1.2351129e+2, -874845.56, -1692182.1, -12507.255, -0.023335798, -0.23811245, -874654.25, 854909.5, 0.02890811, 10.007641, 9.996482 
1.7450711e+3, 1.3350703e+2, -881091.56, -1663880.9, 33068.918, -0.024731325, -0.30419022, -879697.06, 751906.8, 0.019419642, 10.00692, 9.996344 
1.7450795e+3, 1.4350396e+2, -851633.75, -1563488.0, -7426.753, 0.011650357, -0.2580273, -851556.3, 682077.06, 0.010392996, 10.006226, 9.996694 
1.7450868e+3, 1.5350053e+2, -844303.7, -1512705.1, -8338.286, 0.024913568, -0.2753435, -844199.7, 591467.9, 0.0039016732, 10.005575, 9.996683 
1.7450942e+3, 1.6349742e+2, -787216.2, -1329973.8, -9598.267, 0.040124804, -0.29289067, -787046.5, 550651.44, 0.000793745, 10.004827, 9.997625 
1.7451015e+3, 1.7349507e+2, -814298.0, -1281352.0, -15683.686, 0.046574563, -0.30504233, -813771.94, 425947.78, 0.000036916375, 10.003917, 9.997725 
1.7451085e+3, 1.8349296e+2, -820153.6, -1213695.8, -33679.734, 0.048860133, -0.2928643, -817292.06, 324448.9, 0.0, 10.0031185, 9.997901 
1.7451154e+3, 1.934914e+2, -811826.25, -1162599.4, -29433.26, 0.047810182, -0.24342631, -809373.7, 234386.81, 0.0, 10.002519, 9.997868 
1.7451221e+3, 2.0349003e+2, -746140.0, -965903.8, -27912.42, 0.037715055, -0.20557931, -742650.25, 203126.47, 0.0, 10.001804, 9.998889 
1.7451286e+3, 2.1348925e+2, -773253.3, -915286.0, -36043.223, 0.011759059, -0.19094479, -764630.25, 83155.36, 0.0, 10.00089, 9.999004 
1.7451352e+3, 2.2348854e+2, -751907.44, -787708.0, -57962.74, -0.00068220746, -0.18396284, -709143.9, 40649.195, 0.0, 10.000077, 9.9995985 
1.7451416e+3, 2.3348813e+2, -742468.2, -727765.4, -55947.867, 0.008173618, -0.19524466, -678688.0, -26890.848, 0.0, 9.999449, 9.99964 
1.7451479e+3, 2.4348798e+2, -684195.56, -558253.5, -50852.55, 0.00033127662, -0.20385982, -540284.25, 13513.938, 0.0, 9.998786, 10.00045 
1.7451538e+3, 2.5348857e+2, -686657.44, -499583.84, -54740.51, -0.029173559, -0.20598349, -484743.28, -28951.25, 0.0, 9.998057, 10.00053 
1.7451602e+3, 2.634893e+2, -654637.7, -360796.44, -48507.848, -0.030670049, -0.2072917, -352995.78, 4787.544, 0.0, 9.9972925, 10.00118 
1.745167e+3, 2.734905e+2, -672992.6, -313043.72, -41569.633, -0.0043264967, -0.22137648, -308305.3, -48535.273, 0.0, 9.996469, 10.001231 
1.7451733e+3, 2.8349146e+2, -642798.9, -197674.61, -22514.559, -0.04219111, -0.26233417, -196538.72, -34780.35, 0.0, 9.995788, 10.001678 
1.7451791e+3, 2.934926e+2, -613942.06, -138852.27, -26257.037, -0.13659902, -0.32322368, -137405.52, -73660.016, 0.0, 9.995338, 10.001625 
1.7451876e+3, 3.0349457e+2, -678143.8, -168712.98, -5453.0625, 0.005744735, -0.26939052, -168654.63, -168654.63, 0.0, 9.994666, 10.00141 
1.7451948e+3, 3.1349587e+2, -684453.8, 64967.688, 14182.644, -0.022493435, -0.28733927, 65235.996, 65235.996, 0.0, 9.993603, 10.003527 
1.7550702e+3, 1.2350356e+2, -879445.8, -1700998.1, -36629.34, -0.041146826, -0.26225245, -877815.9, 851821.9, 0.030126851, 10.007647, 9.996419 
1.7550781e+3, 1.3349931e+2, -885695.0, -1673195.9, 5735.086, -0.020962218, -0.32243243, -885653.25, 746024.94, 0.020306675, 10.006923, 9.996279 
1.7550859e+3, 1.4349619e+2, -846514.44, -1552747.6, -32114.14, 0.020261949, -0.28092077, -845057.1, 688651.25, 0.010931504, 10.0062275, 9.996767 
1.755092e+3, 1.5349282e+2, -836975.5, -1498413.9, -32961.926, -0.005598659, -0.30003706, -835336.94, 600404.7, 0.0041492856, 10.005579, 9.99678 
1.7550987e+3, 1.6348977e+2, -797561.4, -1352946.6, -42480.48, -0.00022396308, -0.30998963, -794330.94, 543440.75, 0.0008652544, 10.004832, 9.997465 
1.7551054e+3, 1.7348745e+2, -827859.0, -1310978.9, -49800.71, 0.048891727, -0.29919475, -822778.94, 417015.06, 0.00004382474, 10.0039215, 9.9975195 
1.7551118e+3, 1.8348536e+2, -811913.44, -1197828.5, -57418.457, 0.06656378, -0.2801199, -803551.6, 338263.97, 0.000000000016639355, 10.003122, 9.998009 
1.7551176e+3, 1.9348373e+2, -800119.6, -1139315.9, -51399.418, 0.03155407, -0.2520458, -792502.0, 251332.88, 0.0, 10.0025215, 9.998027 
1.7551236e+3, 2.0348227e+2, -757586.9, -990703.56, -60110.543, 0.014572851, -0.22573492, -742999.8, 202851.92, 0.0, 10.001807, 9.998718 
1.7551297e+3, 2.134813e+2, -788861.25, -949038.2, -69779.65, 0.030688751, -0.20430923, -762726.5, 85136.26, 0.0, 10.000894, 9.998772 
1.7551357e+3, 2.234806e+2, -744410.1, -773650.25, -82146.0, 0.03229127, -0.18987615, -675593.3, 74277.445, 0.0, 10.000082, 9.999694 
1.755141e+3, 2.334804e+2, -731195.56, -705685.7, -78388.914, 0.004391258, -0.19383648, -639020.75, 12851.579, 0.0, 9.999454, 9.99979 
1.7551464e+3, 2.4348028e+2, -687723.1, -566662.25, -76679.86, -0.021964604, -0.20649776, -529500.7, 24372.348, 0.0, 9.99879, 10.000391 
1.7551519e+3, 2.5348055e+2, -693278.94, -513950.34, -80940.9, -0.035717357, -0.22984423, -482820.94, -26950.854, 0.0, 9.998058, 10.000432 
1.7551574e+3, 2.6348132e+2, -644061.56, -339438.1, -77860.39, -0.031219745, -0.22984178, -320691.06, 37170.266, 0.0, 9.997293, 10.001327 
1.7551634e+3, 2.73483e+2, -659294.3, -285827.4, -71391.195, -0.01849687, -0.2099396, -272645.66, -12802.858, 0.0, 9.996472, 10.001417 
1.7551689e+3, 2.8348413e+2, -640366.9, -193829.72, -40460.8, -0.06438886, -0.2482169, -190193.17, -28363.572, 0.0, 9.995791, 10.001704 
1.7551744e+3, 2.934849e+2, -614193.56, -139106.13, -42417.535, -0.15322477, -0.3446491, -135348.64, -71528.53, 0.0, 9.995336, 10.001626 
1.7551823e+3, 3.0348718e+2, -669768.6, -150963.63, -41541.945, 0.0025662864, -0.26747125, -147658.33, -147658.33, 0.0, 9.994663, 10.0015335 
1.7551884e+3, 3.1348833e+2, -691096.4, 49565.594, -33339.34, -0.023106111, -0.3129487, 51063.266, 51063.266, 0.0, 9.993609, 10.003419 
1.7650782e+3, 1.23496644e+2, -832553.25, -1685681.8, -4024.8892, -0.047563836, -0.2846561, -832534.3, 897169.56, 0.031371213, 10.008023, 9.9963455 
1.765085e+3, 1.334924e+2, -869307.75, -1672589.5, 34578.297, -0.02588498, -0.33795264, -867822.0, 763922.56, 0.021208547, 10.007078, 9.996207 
1.765092e+3, 1.4348923e+2, -839386.94, -1545887.3, 2515.1384, 0.01950355, -0.29697612, -839378.0, 694397.4, 0.011477503, 10.0062685, 9.996794 
1.7650977e+3, 1.5348603e+2, -817002.06, -1483472.6, -1529.9413, -0.014252999, -0.3057811, -816998.56, 618808.75, 0.0044008386, 10.005697, 9.996824 
1.7651033e+3, 1.6348304e+2, -776750.4, -1347082.4, -19874.182, -0.012611495, -0.31149998, -776058.6, 561778.3, 0.0009389791, 10.004995, 9.997426 
1.7651093e+3, 1.7348059e+2, -811493.4, -1309180.4, -18667.39, 0.040504597, -0.3072049, -810794.1, 429066.4, 0.00005142122, 10.004062, 9.997463 
1.765115e+3, 1.8347842e+2, -801009.94, -1195876.5, -15625.862, 0.060226213, -0.2905169, -800392.56, 341490.28, 0.0000000004293444, 10.003213, 9.997977 
1.7651202e+3, 1.9347681e+2, -802035.9, -1143376.8, -22069.07, 0.02335175, -0.25731802, -800614.94, 243286.97, 0.0, 10.002523, 9.997997 
1.7651254e+3, 2.0347533e+2, -764721.06, -1000404.6, -42763.473, 0.009144489, -0.23044007, -757201.75, 188717.34, 0.0, 10.001786, 9.998661 
1.7651308e+3, 2.1347423e+2, -783487.94, -953534.0, -42164.55, 0.036572862, -0.2168763, -773607.0, 74324.68, 0.0, 10.000962, 9.998707 
1.7651357e+3, 2.2347346e+2, -729873.2, -768234.1, -44081.88, 0.04129904, -0.20215176, -700979.75, 48960.406, 0.0, 10.00019, 9.999679 
1.7651404e+3, 2.334734e+2, -723496.1, -702966.7, -50933.934, 0.0018132542, -0.191297, -661273.44, -9332.862, 0.0, 9.999512, 9.999781 
1.765145e+3, 2.4347334e+2, -690891.75, -563581.7, -58752.383, -0.031428266, -0.20047404, -540612.2, 13328.634, 0.0, 9.998749, 10.000431 
1.7651497e+3, 2.534735e+2, -722347.0, -522698.63, -53988.86, -0.043472, -0.23945178, -509034.2, -53095.445, 0.0, 9.997838, 10.000478 
1.7651546e+3, 2.6347432e+2, -675197.75, -347666.78, -43499.977, -0.03855595, -0.24290013, -341987.94, 15941.731, 0.0, 9.997052, 10.001386 
1.7651597e+3, 2.7347615e+2, -652822.56, -275903.25, -45454.72, -0.028344046, -0.20908643, -270499.13, -10589.876, 0.0, 9.996489, 10.001476 
1.7651646e+3, 2.8347737e+2, -636729.7, -184422.88, -19268.834, -0.07257406, -0.24827151, -183603.48, -21707.98, 0.0, 9.995785, 10.001771 
1.7651695e+3, 2.9347807e+2, -684315.9, -164494.73, -16262.601, -0.14988089, -0.35987142, -163986.45, -100099.78, 0.0, 9.99482, 10.001699 
1.7651768e+3, 3.0348068e+2, -738958.44, -163570.42, -8705.293, 0.01173031, -0.26089042, -163438.73, -163438.73, 0.0, 9.994101, 10.001717 
1.7651819e+3, 3.1348172e+2, -676722.3, 40199.445, -6137.022, -0.03829628, -0.33569285, 40251.973, 40251.973, 0.0, 9.993779, 10.003271 
1.7750862e+3, 1.2349059e+2, -839742.0, -1698337.0, -36168.83, -0.045499608, -0.30425355, -838221.06, 891540.56, 0.0326455, 10.008022, 9.996257 
1.775092e+3, 1.3348633e+2, -874808.94, -1684385.6, -897.3089, -0.039802965, -0.35083544, -874807.94, 756994.75, 0.022127053, 10.007084, 9.996124 
1.7750981e+3, 1.4348313e+2, -840670.8, -1549586.3, -20894.93, 0.009093537, -0.30642536, -840055.44, 693778.6, 0.012030536, 10.006274, 9.996766 
1.7751035e+3, 1.5348013e+2, -817972.56, -1485578.8, -23019.547, -0.0018713706, -0.29331145, -817179.75, 618684.75, 0.0046549784, 10.005697, 9.996811 
1.7751086e+3, 1.6347715e+2, -772053.75, -1337224.5, -52999.99, 0.0019533334, -0.29804668, -767126.56, 570767.44, 0.0010139737, 10.004993, 9.997496 
1.7751132e+3, 1.7347446e+2, -805130.25, -1297249.5, -53847.023, 0.021700755, -0.3285345, -799307.25, 440612.25, 0.000059422877, 10.004066, 9.997544 
1.775118e+3, 1.8347216e+2, -811946.06, -1220369.4, -42636.527, 0.030561175, -0.3230815, -807542.56, 334400.4, 0.0000000022461928, 10.003219, 9.9978075 
1.7751227e+3, 1.9347063e+2, -816784.94, -1174956.5, -47357.375, 0.022708267, -0.25930592, -810629.1, 233332.67, 0.0, 10.002525, 9.99778 
1.7751274e+3, 2.0346916e+2, -761143.25, -993654.44, -72213.6, 0.020510124, -0.2203583, -740540.6, 205438.58, 0.0, 10.001788, 9.998708 
1.7751315e+3, 2.1346794e+2, -776300.4, -939944.1, -72384.09, 0.029776145, -0.22866938, -748878.1, 99114.516, 0.0, 10.000967, 9.998799 
1.7751358e+3, 2.2346711e+2, -737885.2, -786471.44, -69440.7, 0.027295902, -0.22033377, -688610.9, 61390.895, 0.0, 10.0001955, 9.999552 
1.7751399e+3, 2.3346712e+2, -734802.7, -727406.25, -75170.945, 0.00030666962, -0.18761817, -655842.6, -3840.2456, 0.0, 9.999515, 9.999612 
1.7751437e+3, 2.434671e+2, -681498.5, -544908.2, -90516.6, -0.028914057, -0.18650587, -499812.47, 54189.766, 0.0, 9.998751, 10.00056 
1.7751475e+3, 2.5346732e+2, -709079.75, -496657.53, -87134.61, -0.052417915, -0.23590142, -465488.72, -9489.909, 0.0, 9.997843, 10.000655 
1.7751515e+3, 2.6346815e+2, -676527.06, -352027.66, -65618.09, -0.052290477, -0.24693187, -339261.06, 18728.209, 0.0, 9.997057, 10.001354 
1.7751561e+3, 2.734699e+2, -657357.0, -285978.5, -65516.496, -0.03519417, -0.21753503, -274759.38, -14789.254, 0.0, 9.9964905, 10.001408 
1.7751604e+3, 2.8347105e+2, -629107.8, -168915.83, -52733.285, -0.06882964, -0.26115555, -162950.45, -993.6366, 0.0, 9.995784, 10.001879 
1.7751646e+3, 2.9347193e+2, -673572.06, -143208.52, -51994.67, -0.1272425, -0.36980504, -138159.25, -74213.08, 0.0, 9.9948225, 10.001845 
1.775171e+3, 3.0347493e+2, -722120.7, -129742.47, -23129.137, 0.033030048, -0.25132194, -128840.77, -128840.77, 0.0, 9.994103, 10.001949 
1.7751755e+3, 3.134761e+2, -692228.4, 8211.533, -26289.697, -0.06799493, -0.33653772, 9196.882, 9196.882, 0.0, 9.993777, 10.003054 
1.7850943e+3, 1.23485245e+2, -834686.1, -1697555.5, -12567.982, -0.033252843, -0.31796685, -834503.06, 895309.8, 0.033954132, 10.008079, 9.996235 
1.785099e+3, 1.3348106e+2, -833300.2, -1664655.1, 24350.422, -0.05462304, -0.35774907, -832587.56, 799265.75, 0.023064187, 10.007387, 9.996113 
1.7851044e+3, 1.434778e+2, -803292.5, -1535504.3, 6686.5527, -0.009622122, -0.31635314, -803231.44, 730653.9, 0.012590686, 10.006558, 9.996725 
1.7851092e+3, 1.5347476e+2, -850169.56, -1505807.4, 2121.9104, -0.000977476, -0.30346924, -850162.7, 585753.9, 0.004910766, 10.005499, 9.996767 
1.7851134e+3, 1.634718e+2, -822300.25, -1358846.6, -27293.979, 0.007681053, -0.30528155, -820915.4, 517030.72, 0.0010893886, 10.00464, 9.997517 
1.7851172e+3, 1.734692e+2, -792360.0, -1287556.1, -31862.95, 0.006194686, -0.3279996, -790318.2, 449652.47, 0.00006751053, 10.004141, 9.997573 
1.785121e+3, 1.8346688e+2, -777650.0, -1207124.0, -22984.514, 0.01003241, -0.32255468, -776423.44, 365570.63, 0.0000000068240182, 10.00347, 9.997776 
1.7851253e+3, 1.9346519e+2, -824870.3, -1183721.8, -16426.006, 0.026009254, -0.27220517, -824120.0, 219894.31, 0.0, 10.002493, 9.997735 
1.7851292e+3, 2.0346367e+2, -783964.75, -1007166.0, -32558.021, 0.030112287, -0.23604083, -779312.56, 166719.67, 0.0, 10.001643, 9.998684 
1.7851324e+3, 2.1346259e+2, -768609.7, -938593.7, -40537.96, 0.014139674, -0.22768672, -759437.1, 88607.5, 0.0, 10.001031, 9.998776 
1.7851359e+3, 2.234618e+2, -722143.56, -782481.94, -42308.703, 0.004041243, -0.21340281, -700349.25, 49704.44, 0.0, 10.00032, 9.999518 
1.7851394e+3, 2.3346162e+2, -750127.1, -738878.4, -39504.973, 0.0011370076, -0.19481863, -704599.44, -52543.598, 0.0, 9.999428, 9.999575 
1.7851426e+3, 2.4346156e+2, -702782.06, -554909.56, -53948.805, -0.01794613, -0.19762205, -537319.6, 16736.604, 0.0, 9.998605, 10.000561 
1.7851453e+3, 2.5346196e+2, -698718.4, -490893.3, -63227.57, -0.056123182, -0.23164885, -473168.9, -17117.47, 0.0, 9.997911, 10.000661 
1.7851485e+3, 2.634628e+2, -665492.44, -349156.7, -46538.74, -0.061483108, -0.237683, -342452.1, 15589.505, 0.0, 9.997144, 10.001331 
1.7851524e+3, 2.7346438e+2, -694714.7, -307378.03, -43207.83, -0.034329433, -0.22288945, -302616.7, -42592.574, 0.0, 9.996249, 10.001376 
1.785156e+3, 2.8346547e+2, -679789.0, -185663.7, -34295.395, -0.063202344, -0.2727729, -183294.75, -21283.506, 0.0, 9.995404, 10.001946 
1.7851593e+3, 2.934665e+2, -691735.06, -140594.84, -38112.492, -0.12428595, -0.37035036, -137971.78, -73973.266, 0.0, 9.99465, 10.0019455 
1.7851652e+3, 3.0346978e+2, -716903.06, -101354.055, 4398.0903, 0.034605857, -0.24762617, -101322.63, -101322.63, 0.0, 9.994029, 10.002179 
1.7851691e+3, 3.134711e+2, -743935.56, -42484.766, -6276.5977, -0.07209254, -0.33433324, -42428.61, -42428.61, 0.0, 9.993536, 10.002821 
1.7951027e+3, 1.2348067e+2, -832903.9, -1693147.8, -35483.844, -0.0142105, -0.32546315, -831442.75, 898414.7, 0.03529474, 10.008084, 9.996264 
1.7951064e+3, 1.3347659e+2, -830453.2, -1657604.6, -1708.3704, -0.06996185, -0.3590956, -830449.6, 801446.6, 0.024018561, 10.007389, 9.996161 
1.7951107e+3, 1.4347324e+2, -807842.06, -1544501.1, -31049.783, -0.036042348, -0.326808, -806535.7, 727393.3, 0.013157122, 10.006558, 9.996664 
1.7951144e+3, 1.534699e+2, -854971.8, -1517013.3, -37693.793, -0.011666984, -0.33530927, -852832.6, 583130.56, 0.0051675295, 10.005504, 9.996688 
1.795118e+3, 1.6346693e+2, -823729.6, -1363591.1, -48821.813, 0.0044105626, -0.33234683, -819350.0, 518643.22, 0.0011645813, 10.004645, 9.997481 
1.7951213e+3, 1.734648e+2, -793725.44, -1291404.4, -50143.582, -0.00618044, -0.3065377, -788723.5, 451290.7, 0.00007541637, 10.004144, 9.997546 
1.7951244e+3, 1.8346263e+2, -770623.7, -1193259.8, -56811.11, -0.0018663736, -0.29032502, -763120.3, 378916.03, 0.00000001523009, 10.003472, 9.997871 
1.7951278e+3, 1.934605e+2, -816064.0, -1166791.3, -52833.918, 0.03276542, -0.2955547, -808277.9, 235781.73, 0.0, 10.002497, 9.997849 
1.7951308e+3, 2.0345882e+2, -789994.25, -1021272.8, -56788.926, 0.037758756, -0.27632782, -776802.5, 169276.05, 0.0, 10.001649, 9.998585 
1.7951334e+3, 2.1345814e+2, -777670.9, -958672.3, -62476.273, -0.009835431, -0.21454014, -758200.4, 89887.79, 0.0, 10.001035, 9.998637 
1.7951359e+3, 2.2345746e+2, -718037.6, -775054.5, -73305.414, -0.028061932, -0.18260087, -667892.3, 82204.14, 0.0, 10.000323, 9.999568 
1.7951389e+3, 2.3345688e+2, -743976.9, -727102.2, -72089.51, 0.0038470533, -0.2123647, -662957.94, -10856.409, 0.0, 9.999431, 9.999655 
1.7951414e+3, 2.4345663e+2, -711016.56, -572995.0, -79863.36, 0.0007938897, -0.2323016, -536456.5, 17646.955, 0.0, 9.998608, 10.000436 
1.7951432e+3, 2.5345725e+2, -709538.56, -514400.47, -87916.016, -0.055276453, -0.22628354, -480634.28, -24536.984, 0.0, 9.997914, 10.0005 
1.7951456e+3, 2.634582e+2, -666090.94, -351636.78, -77888.555, -0.06691112, -0.21590813, -333401.66, 24685.72, 0.0, 9.997148, 10.001313 
1.7951488e+3, 2.734595e+2, -693928.8, -307056.47, -75686.7, -0.025902621, -0.22657427, -292776.4, -32704.332, 0.0, 9.996253, 10.001377 
1.7951515e+3, 2.8346053e+2, -677671.0, -182464.67, -62603.418, -0.055441037, -0.2837236, -174673.02, -12613.379, 0.0, 9.995408, 10.001967 
1.7951538e+3, 2.9346186e+2, -687944.75, -133737.48, -65400.324, -0.14132588, -0.35993317, -126124.37, -62079.91, 0.0, 9.994653, 10.001992 
1.795159e+3, 3.0346513e+2, -700108.2, -67317.805, -13474.814, 0.015850447, -0.24953254, -67030.99, -67030.99, 0.0, 9.994031, 10.002414 
1.7951627e+3, 3.1346694e+2, -762172.75, -80038.664, -33897.387, -0.05137333, -0.30505848, -78358.336, -78358.336, 0.0, 9.993533, 10.002564 
1.8051109e+3, 1.2347706e+2, -791997.6, -1682850.3, 3495.7502, -0.018421883, -0.32680613, -791983.9, 937908.44, 0.036659103, 10.008431, 9.99617 
1.8051137e+3, 1.3347287e+2, -834376.6, -1667572.9, 25238.94, -0.069496565, -0.3623667, -833612.8, 798319.7, 0.024986606, 10.007405, 9.996084 
1.8051173e+3, 1.4346945e+2, -817858.94, -1544400.9, -7414.254, -0.03252687, -0.33560288, -817783.3, 716182.7, 0.0137288505, 10.006473, 9.996705 
1.80512e+3, 1.5346621e+2, -822483.1, -1494414.0, -5110.406, -0.021974957, -0.33998692, -822444.25, 613554.5, 0.0054251077, 10.005702, 9.996747 
1.8051226e+3, 1.6346326e+2, -791169.2, -1359453.1, -4420.9727, -0.01101931, -0.3337801, -791134.8, 546893.8, 0.0012392872, 10.004922, 9.997376 
1.8051252e+3, 1.7346102e+2, -804638.7, -1311780.1, -12297.352, -0.011912428, -0.30711412, -804340.7, 435710.9, 0.00008300651, 10.004136, 9.99741 
1.8051279e+3, 1.8345882e+2, -779608.8, -1183551.1, -30568.494, -0.0050474177, -0.29102093, -777308.6, 364765.56, 0.000000026817805, 10.003352, 9.997994 
1.8051301e+3, 1.9345681e+2, -793460.4, -1136851.5, -24747.68, 0.01968556, -0.29786322, -791686.0, 252409.02, 0.0, 10.002572, 9.998018 
1.8051325e+3, 2.0345521e+2, -771203.1, -1019610.6, -19121.316, 0.023564065, -0.2794614, -769739.9, 176373.1, 0.0, 10.001811, 9.998517 
1.8051343e+3, 2.1345444e+2, -777927.6, -971251.1, -21969.146, -0.009757271, -0.21697277, -775462.5, 72661.6, 0.0, 10.001088, 9.998525 
1.8051362e+3, 2.2345369e+2, -721145.8, -774367.5, -40834.45, -0.022268793, -0.18619514, -699016.7, 51116.613, 0.0, 10.000294, 9.999586 
1.8051381e+3, 2.3345311e+2, -750156.5, -725497.25, -44507.92, 0.000087915265, -0.21994755, -691642.75, -39504.7, 0.0, 9.99937, 9.999695 
1.80514e+3, 2.4345286e+2, -727637.0, -588288.5, -45528.305, -0.0057809325, -0.23935325, -574732.2, -20592.316, 0.0, 9.998526, 10.00037 
1.8051411e+3, 2.5345346e+2, -728160.1, -533049.9, -47124.203, -0.052562796, -0.22636694, -522264.4, -66130.23, 0.0, 9.997829, 10.000412 
1.8051428e+3, 2.6345435e+2, -678560.5, -360074.84, -40375.746, -0.059238058, -0.21624605, -355035.97, 3089.127, 0.0, 9.997074, 10.00129 
1.8051451e+3, 2.7345556e+2, -700613.75, -311515.56, -40526.496, -0.021088656, -0.23544152, -307339.34, -47228.594, 0.0, 9.996214, 10.001366 
1.805147e+3, 2.8345665e+2, -687862.6, -190307.06, -26797.389, -0.055187937, -0.28545645, -188867.97, -26770.223, 0.0, 9.995352, 10.00194 
1.8051483e+3, 2.9345813e+2, -708213.7, -144728.03, -32292.676, -0.14800422, -0.33979544, -142883.42, -78802.836, 0.0, 9.99452, 10.001981 
1.8051529e+3, 3.0346113e+2, -715154.5, -46400.17, 24445.506, 0.008648627, -0.27090913, -45507.785, -45507.785, 0.0, 9.993808, 10.002664 
1.8051562e+3, 3.1346342e+2, -832444.94, -124677.29, -4660.586, -0.04206961, -0.30719554, -124646.6, -124646.6, 0.0, 9.993099, 10.002466 
1.8151191e+3, 1.2347444e+2, -807222.2, -1712907.6, -30708.752, -0.04636325, -0.3218376, -806182.1, 923735.44, 0.038042195, 10.008435, 9.995955 
1.8151213e+3, 1.3346995e+2, -848262.5, -1696695.4, -12556.146, -0.05515872, -0.36772317, -848076.75, 783884.8, 0.025967488, 10.007408, 9.995883 
1.815124e+3, 1.4346644e+2, -808951.06, -1526142.3, -37036.55, -0.0014541788, -0.34309947, -807043.56, 726952.6, 0.014306985, 10.006476, 9.99683 
1.8151256e+3, 1.5346369e+2, -809235.4, -1467851.5, -33870.566, -0.031625748, -0.31876075, -807498.06, 628525.3, 0.0056844433, 10.005706, 9.996928 
1.8151273e+3, 1.6346079e+2, -803090.5, -1385463.0, -33873.42, -0.03785469, -0.31061977, -801126.94, 536925.6, 0.0013138432, 10.004926, 9.997196 
1.8151294e+3, 1.7345785e+2, -821481.94, -1347562.0, -41287.465, -0.011784532, -0.328699, -818261.4, 421821.63, 0.00009032423, 10.004138, 9.997164 
1.8151312e+3, 1.8345544e+2, -769442.3, -1163110.6, -59160.277, -0.00033962968, -0.32317355, -760743.94, 381363.84, 0.000000039553314, 10.003353, 9.998136 
1.8151325e+3, 1.9345416e+2, -777922.44, -1105981.8, -53443.42, -0.012189617, -0.28005305, -769435.7, 274685.3, 0.0, 10.002577, 9.998229 
1.8151338e+3, 2.0345281e+2, -773438.56, -1025711.3, -45915.324, -0.011458684, -0.24703996, -765341.56, 180794.42, 0.0, 10.001816, 9.998474 
1.8151356e+3, 2.1345143e+2, -784295.5, -984924.6, -48137.38, 0.012707385, -0.23417857, -773343.6, 74809.195, 0.0, 10.001089, 9.998431 
1.815137e+3, 2.2345044e+2, -722440.94, -777338.0, -73335.68, 0.019161135, -0.22250958, -671585.3, 78579.29, 0.0, 10.000294, 9.999567 
1.8151374e+3, 2.3345022e+2, -749775.8, -726220.3, -78169.88, -0.009766506, -0.21801737, -658945.9, -6779.9355, 0.0, 9.999374, 9.999688 
1.815138e+3, 2.4345015e+2, -727611.94, -590292.1, -71684.7, -0.03643231, -0.22021292, -559690.4, -5524.109, 0.0, 9.998533, 10.000354 
1.8151389e+3, 2.534505e+2, -729169.8, -536388.0, -71917.23, -0.04825939, -0.23183666, -512515.47, -56352.613, 0.0, 9.997832, 10.000388 
1.8151401e+3, 2.6345116e+2, -680427.06, -364771.9, -70648.55, -0.039262567, -0.23763324, -349681.13, 8474.43, 0.0, 9.997076, 10.001258 
1.8151413e+3, 2.7345246e+2, -702417.25, -316272.94, -71985.375, -0.020474112, -0.24872132, -303289.88, -43148.848, 0.0, 9.996216, 10.001332 
1.8151422e+3, 2.834537e+2, -692353.2, -200845.02, -57740.65, -0.062921174, -0.27788895, -194152.97, -32026.38, 0.0, 9.995356, 10.001867 
1.815143e+3, 2.9345533e+2, -712541.9, -154778.92, -61841.402, -0.14454499, -0.31086728, -148004.6, -83896.625, 0.0, 9.994523, 10.001911 
1.8151467e+3, 3.0345768e+2, -696812.4, -9381.125, 351.2243, 0.012650857, -0.31346902, -9380.946, -9380.946, 0.0, 9.99381, 10.002918 
1.8151493e+3, 3.134606e+2, -828943.75, -117943.016, -41526.94, -0.044367824, -0.31142074, -115525.8, -115525.8, 0.0, 9.9931, 10.002513 
1.8251275e+3, 1.23472795e+2, -777452.2, -1709309.9, 7461.2295, -0.052986663, -0.32099283, -777392.44, 952540.94, 0.039446045, 10.008711, 9.995848 
1.8251288e+3, 1.3346826e+2, -832559.9, -1698610.8, 29695.723, -0.054088183, -0.36248457, -831542.8, 800435.56, 0.026964543, 10.00757, 9.995791 
1.8251306e+3, 1.4346465e+2, -798139.94, -1526222.4, 15639.1, 0.006383272, -0.340165, -797804.1, 736210.06, 0.014894925, 10.00658, 9.9967785 
1.8251313e+3, 1.5346189e+2, -788281.7, -1462549.3, 4683.0664, -0.036388725, -0.31294265, -788249.2, 647792.25, 0.005947699, 10.005876, 9.9968815 
1.8251322e+3, 1.6345896e+2, -782826.06, -1375645.0, -4772.562, -0.0472364, -0.304964, -782787.6, 555283.06, 0.0013892438, 10.005068, 9.997194 
1.8251336e+3, 1.7345595e+2, -832174.7, -1352395.1, 3998.466, -0.0093493825, -0.3289566, -832143.94, 407957.8, 0.00009757818, 10.004065, 9.997165 
1.8251345e+3, 1.8345352e+2, -789635.06, -1172039.0, -726.8024, 0.004233946, -0.32630238, -789633.7, 352493.0, 0.000000050418024, 10.003213, 9.99814 
1.8251349e+3, 1.9345228e+2, -768223.25, -1100687.1, -8578.116, -0.024090977, -0.28000045, -768002.06, 276137.13, 0.0, 10.002643, 9.998233 
1.8251356e+3, 2.0345093e+2, -757700.56, -1015873.3, -14777.106, -0.027043179, -0.24790812, -756857.5, 189296.47, 0.0, 10.001916, 9.998492 
1.8251367e+3, 2.1344948e+2, -809983.06, -995060.1, -10841.405, 0.017184226, -0.2444265, -809350.2, 38821.19, 0.0, 10.000904, 9.998449 
1.8251371e+3, 2.2344844e+2, -762531.7, -801844.7, -28600.684, 0.031508554, -0.23583816, -747484.06, 2699.463, 0.0, 10.000042, 9.999519 
1.8251368e+3, 2.3344827e+2, -742584.56, -729471.8, -36887.805, -0.012303053, -0.22117269, -698562.25, -46377.336, 0.0, 9.9994545, 9.999626 
1.8251365e+3, 2.4344824e+2, -698006.25, -576366.2, -35274.336, -0.044001743, -0.21575993, -566877.25, -12692.283, 0.0, 9.998739, 10.000349 
1.8251368e+3, 2.5344858e+2, -735365.8, -538950.5, -34541.867, -0.042550404, -0.22860116, -533053.0, -76871.71, 0.0, 9.997789, 10.000391 
1.8251371e+3, 2.6344913e+2, -709782.5, -385249.88, -32594.705, -0.027832223, -0.24253035, -382008.56, -23833.674, 0.0, 9.996902, 10.001201 
1.8251376e+3, 2.7345026e+2, -719692.94, -332270.1, -36766.125, -0.01718785, -0.26329818, -328811.88, -68649.555, 0.0, 9.996132, 10.001263 
1.8251376e+3, 2.834516e+2, -702291.44, -205531.9, -24319.332, -0.062029783, -0.27931073, -204344.17, -42197.1, 0.0, 9.995288, 10.001866 
1.8251374e+3, 2.9345348e+2, -734327.1, -162526.56, -20625.785, -0.13616668, -0.28537914, -161783.53, -97658.195, 0.0, 9.994363, 10.001934 
1.8251404e+3, 3.034552e+2, -722236.6, -14873.35, 45228.563, 0.016393574, -0.35802388, -11993.179, -11993.179, 0.0, 9.9936075, 10.002977 
1.8251422e+3, 3.1345856e+2, -856846.5, -126070.22, -25927.174, -0.042954806, -0.3176259, -125151.51, -125151.51, 0.0, 9.9928875, 10.002559 
1.8351364e+3, 1.2347212e+2, -780092.5, -1711847.4, -30443.086, -0.042250752, -0.32512861, -779098.94, 950840.94, 0.040876422, 10.008709, 9.9958315 
1.8351363e+3, 1.334678e+2, -832536.75, -1697839.8, -12602.982, -0.064953186, -0.34693414, -832353.25, 799629.9, 0.027983153, 10.007573, 9.995796 
1.8351372e+3, 1.4346406e+2, -813430.25, -1558816.9, -12985.701, -0.007355646, -0.32692614, -813204.06, 720816.25, 0.015497492, 10.006585, 9.996552 
1.8351372e+3, 1.534608e+2, -806538.9, -1501132.6, -20988.176, -0.03740044, -0.32200277, -805905.25, 630147.44, 0.0062181563, 10.0058775, 9.996617 
1.8351373e+3, 1.6345777e+2, -771593.94, -1353024.9, -40187.83, -0.0408276, -0.31623325, -768829.4, 569253.7, 0.0014670574, 10.005069, 9.99735 
1.8351376e+3, 1.734553e+2, -815119.2, -1318859.4, -33482.234, -0.004640513, -0.3089103, -812903.44, 427204.8, 0.00010514524, 10.004071, 9.997393 
1.8351378e+3, 1.8345301e+2, -797471.2, -1190360.4, -24218.54, 0.008671292, -0.30163056, -795983.94, 346147.63, 0.00000005737688, 10.00322, 9.998013 
1.8351376e+3, 1.9345115e+2, -781527.2, -1129338.5, -29081.584, -0.017395863, -0.29687193, -779112.3, 265037.72, 0.0, 10.0026455, 9.998035 
1.8351376e+3, 2.0344955e+2, -752584.3, -1005949.94, -49483.477, -0.024453755, -0.28054404, -743262.9, 202904.17, 0.0, 10.001918, 9.998561 
1.8351375e+3, 2.1344851e+2, -801009.06, -978021.0, -48255.098, 0.004649662, -0.24789746, -788709.0, 59471.203, 0.0, 10.00091, 9.998565 
1.8351372e+3, 2.2344764e+2, -767118.75, -813226.75, -52119.582, 0.016198482, -0.22711259, -733182.06, 17008.8, 0.0, 10.000049, 9.999439 
1.8351364e+3, 2.334472e+2, -750465.44, -746920.0, -57589.258, -0.008263986, -0.2292113, -691076.2, -38880.598, 0.0, 9.999457, 9.999506 
1.8351355e+3, 2.4344707e+2, -697610.9, -576404.06, -67616.55, -0.029937971, -0.22528453, -546206.75, 7989.8906, 0.0, 9.998741, 10.000349 
1.8351346e+3, 2.5344762e+2, -733155.9, -535956.06, -69071.94, -0.035682518, -0.21680659, -514169.63, -57979.33, 0.0, 9.997795, 10.00041 
1.8351342e+3, 2.6344815e+2, -714721.6, -397612.66, -61365.645, -0.024800187, -0.23168631, -386151.63, -27967.557, 0.0, 9.99691, 10.001113 
1.8351337e+3, 2.7344888e+2, -726656.9, -348453.03, -64875.016, -0.01148425, -0.28007397, -337634.22, -77458.555, 0.0, 9.996138, 10.00115 
1.835133e+3, 2.8345025e+2, -697239.94, -196089.36, -57964.008, -0.052975137, -0.2897226, -189472.5, -27312.291, 0.0, 9.995291, 10.001931 
1.835132e+3, 2.9345256e+2, -726861.44, -147587.05, -53369.066, -0.12385752, -0.26157787, -142711.16, -78577.54, 0.0, 9.994364, 10.002038 
1.835134e+3, 3.034536e+2, -731437.0, -35425.62, 20363.836, 0.018783921, -0.404314, -34830.33, -34830.33, 0.0, 9.993611, 10.002835 
1.8351352e+3, 3.1345734e+2, -851711.75, -117434.66, -63814.277, -0.036528576, -0.30734843, -111929.98, -111929.98, 0.0, 9.992894, 10.002616 
1.8451451e+3, 1.2347221e+2, -803469.1, -1724711.4, -4980.584, -0.038177427, -0.3318658, -803442.25, 926497.06, 0.04233857, 10.008563, 9.995809 
1.8451437e+3, 1.3346809e+2, -817411.94, -1688515.9, 9415.278, -0.07718349, -0.33343604, -817310.2, 814670.44, 0.02902813, 10.007682, 9.995807 
1.8451437e+3, 1.4346437e+2, -783848.56, -1544257.8, 22728.18, -0.020039132, -0.31301323, -783169.9, 750847.9, 0.016119197, 10.006797, 9.99655 
1.8451431e+3, 1.5346093e+2, -805394.06, -1501494.0, 33745.773, -0.036132954, -0.3255338, -803761.94, 632289.75, 0.006499172, 10.005892, 9.996607 
1.8451424e+3, 1.6345783e+2, -778757.1, -1360724.8, 16958.234, -0.034684893, -0.32354882, -778263.4, 559819.2, 0.0015488634, 10.00504, 9.997311 
1.8451416e+3, 1.7345552e+2, -786525.7, -1310205.6, 3409.7175, -0.011334558, -0.2966827, -786503.5, 453602.97, 0.00011349598, 10.004291, 9.997346 
1.845141e+3, 1.8345323e+2, -759802.4, -1176173.0, 8326.144, 0.00052189495, -0.28448474, -759635.94, 382493.75, 0.00000006143512, 10.003497, 9.997975 
1.8451403e+3, 1.9345112e+2, -787719.56, -1136558.4, 14898.379, -0.005912365, -0.30074462, -787084.44, 257065.89, 0.0, 10.002623, 9.997996 
1.8451396e+3, 2.0344941e+2, -772105.56, -1016651.75, -6645.5815, -0.008251018, -0.29321504, -771925.1, 174243.22, 0.0, 10.001791, 9.998548 
1.8451384e+3, 2.134485e+2, -782533.3, -969998.25, -15449.495, -0.0019028853, -0.24749726, -781268.56, 66911.68, 0.0, 10.001042, 9.998555 
1.845137e+3, 2.2344767e+2, -736867.0, -798682.56, -17450.664, 0.0018463094, -0.22109798, -732280.9, 17909.508, 0.0, 10.000258, 9.999437 
1.8451358e+3, 2.3344715e+2, -757844.5, -750695.7, -14244.247, -0.002610639, -0.2300111, -739584.2, -87388.43, 0.0, 9.99941, 9.999502 
1.8451343e+3, 2.4344699e+2, -718484.75, -586568.7, -23765.865, -0.013458788, -0.22826609, -582417.7, -28220.627, 0.0, 9.9986, 10.000346 
1.8451326e+3, 2.534476e+2, -724269.06, -532006.25, -27971.697, -0.026249563, -0.21704192, -528019.44, -71829.18, 0.0, 9.997859, 10.000405 
1.8451312e+3, 2.6344803e+2, -697893.94, -398300.3, -20735.006, -0.020513028, -0.23730865, -396872.03, -38687.137, 0.0, 9.997066, 10.001033 
1.8451299e+3, 2.7344856e+2, -728058.8, -360017.88, -23627.533, -0.0071106898, -0.29625833, -358507.22, -98328.5, 0.0, 9.996177, 10.001051 
1.8451282e+3, 2.8345e+2, -703782.5, -197146.48, -21786.734, -0.044574223, -0.29195905, -196211.31, -34048.69, 0.0, 9.995238, 10.001947 
1.8451263e+3, 2.934527e+2, -739911.8, -150378.25, -20845.988, -0.10820156, -0.23060992, -149642.05, -85509.52, 0.0, 9.994261, 10.002067 
1.8451275e+3, 3.0345312e+2, -770379.3, -73180.086, 55128.32, 0.020157369, -0.4237572, -68847.945, -68847.945, 0.0, 9.993428, 10.002664 
1.8451281e+3, 3.134569e+2, -871257.1, -97188.68, -41576.484, -0.03281494, -0.30934188, -94961.945, -94961.945, 0.0, 9.992635, 10.002878 
1.8551536e+3, 1.23473085e+2, -807138.56, -1729545.8, -33577.688, -0.041373357, -0.34113768, -805917.9, 924013.5, 0.043835256, 10.008562, 9.995776 
1.8551512e+3, 1.3346918e+2, -817602.56, -1687021.0, -22699.955, -0.09207474, -0.32250193, -817010.25, 814960.6, 0.030102098, 10.00768, 9.995819 
1.8551505e+3, 1.434656e+2, -770808.3, -1516247.0, -10276.087, -0.033047915, -0.2990683, -770666.7, 763339.9, 0.016762678, 10.006796, 9.996745 
1.8551491e+3, 1.5346223e+2, -789812.75, -1469276.1, -152.05687, -0.032507617, -0.32360193, -789812.75, 646225.9, 0.0067930087, 10.005894, 9.996828 
1.8551476e+3, 1.6345912e+2, -794276.6, -1393945.6, -12053.176, -0.02860503, -0.32667643, -794034.44, 544035.06, 0.0016358318, 10.005043, 9.997083 
1.8551458e+3, 1.7345658e+2, -807672.3, -1355589.3, -24101.096, -0.029228855, -0.29193717, -806614.25, 433482.3, 0.00012307917, 10.004295, 9.997033 
1.8551444e+3, 1.8345417e+2, -756034.5, -1169973.1, -23088.568, -0.019969203, -0.2746852, -754750.6, 387370.7, 0.00000006598231, 10.003503, 9.998016 
1.8551432e+3, 1.9345216e+2, -779945.5, -1121717.5, -17374.727, 0.010057006, -0.29213765, -779064.5, 265076.13, 0.0, 10.002626, 9.998097 
1.8551417e+3, 2.0345044e+2, -778219.1, -1030402.2, -34786.17, 0.020677619, -0.28665608, -773508.7, 172649.63, 0.0, 10.001793, 9.998452 
1.8551394e+3, 2.1344937e+2, -791283.7, -989330.56, -42395.98, -0.003079043, -0.24351881, -782589.6, 65582.39, 0.0, 10.001045, 9.998423 
1.8551372e+3, 2.2344849e+2, -731690.06, -789222.8, -47624.957, -0.011776103, -0.21784748, -704817.94, 45364.766, 0.0, 10.000261, 9.999501 
1.8551354e+3, 2.3344809e+2, -750316.3, -736387.8, -44944.664, 0.004583925, -0.22378144, -697871.06, -45684.785, 0.0, 9.9994135, 9.999599 
1.8551332e+3, 2.4344797e+2, -718585.4, -588162.2, -51045.51, 0.0051564225, -0.22485052, -570559.56, -16372.681, 0.0, 9.998604, 10.000335 
1.8551306e+3, 2.5344837e+2, -725943.75, -536880.8, -54651.36, -0.014598875, -0.22883739, -522219.97, -66038.02, 0.0, 9.997863, 10.00037 
1.8551283e+3, 2.6344866e+2, -702772.3, -409894.28, -52255.81, -0.015147237, -0.25864592, -400850.0, -42671.855, 0.0, 9.997069, 10.000952 
1.8551262e+3, 2.7344915e+2, -733595.06, -373086.94, -56230.53, -0.0043509747, -0.31116763, -364519.9, -104347.47, 0.0, 9.9961815, 10.000959 
1.8551235e+3, 2.8345075e+2, -705489.06, -202380.72, -57624.59, -0.037183046, -0.28608176, -195864.95, -33709.594, 0.0, 9.995244, 10.00191 
1.8551208e+3, 2.9345372e+2, -742686.7, -157631.73, -55631.152, -0.08922934, -0.1944985, -152388.9, -88265.6, 0.0, 9.994266, 10.002016 
1.855121e+3, 3.0345368e+2, -785006.4, -105043.27, 26842.875, 0.020245658, -0.41787148, -103985.25, -103985.25, 0.0, 9.993433, 10.002444 
1.8551207e+3, 3.1345722e+2, -837525.75, -28398.023, -82331.16, -0.030738128, -0.30889466, -20105.568, -20105.568, 0.0, 9.992639, 10.00335 
1.865162e+3, 1.23475164e+2, -823954.2, -1735090.6, 8962.305, -0.0390792, -0.32727075, -823866.06, 906045.75, 0.045363907, 10.008444, 9.995794 
1.865159e+3, 1.3347119e+2, -826206.9, -1683781.0, 20497.041, -0.09717856, -0.32168683, -825717.25, 806234.4, 0.031203957, 10.007597, 9.995881 
1.865157e+3, 1.4346758e+2, -781252.94, -1521351.6, 28016.19, -0.03571469, -0.3044299, -780193.94, 753793.56, 0.017428, 10.00673, 9.996741 
1.865155e+3, 1.5346436e+2, -801425.2, -1476790.9, 20677.58, -0.028840838, -0.31442842, -800792.75, 635225.8, 0.0071005025, 10.005824, 9.996809 
1.8651526e+3, 1.6346127e+2, -795245.1, -1391613.8, 13568.715, -0.023938892, -0.31309998, -794936.56, 543112.44, 0.0017285381, 10.005026, 9.997106 
1.8651502e+3, 1.7345862e+2, -788484.1, -1343239.6, 26411.469, -0.03178968, -0.29227445, -787229.5, 452847.1, 0.00013419747, 10.0044155, 9.997059 
1.8651478e+3, 1.8345615e+2, -738543.4, -1170223.3, 28900.156, -0.02456671, -0.28028545, -736617.1, 405484.75, 0.00000007495282, 10.003661, 9.997937 
1.8651459e+3, 1.9345415e+2, -783382.25, -1134407.4, 18546.127, 0.012246777, -0.28721008, -782405.1, 261716.45, 0.0, 10.002651, 9.997997 
1.8651435e+3, 2.0345242e+2, -780961.56, -1026548.3, 4108.482, 0.028379118, -0.2772398, -780892.8, 165246.5, 0.0, 10.001754, 9.998497 
1.8651405e+3, 2.1345136e+2, -783630.1, -978006.2, 11583.123, 0.0075563346, -0.24064575, -782942.25, 65210.125, 0.0, 10.001067, 9.998488 
1.8651377e+3, 2.234504e+2, -729093.25, -792908.1, 5838.04, -0.0012903565, -0.22250547, -728563.56, 21599.658, 0.0, 10.000302, 9.9994545 
1.8651348e+3, 2.3344986e+2, -757865.0, -747717.6, -4754.1826, 0.009713711, -0.23706895, -745838.3, -93670.086, 0.0, 9.999396, 9.999529 
1.8651317e+3, 2.4344967e+2, -727368.1, -595297.7, -13755.22, 0.008316948, -0.23906314, -593880.3, -39710.688, 0.0, 9.998559, 10.000306 
1.8651286e+3, 2.5345019e+2, -730214.75, -541599.2, -16232.078, -0.008134965, -0.23109894, -540212.44, -84048.31, 0.0, 9.997848, 10.000344 
1.8651254e+3, 2.6345053e+2, -697725.1, -403050.25, -14741.623, -0.007784807, -0.2549374, -402314.63, -44154.7, 0.0, 9.9970875, 10.000989 
1.8651225e+3, 2.7345106e+2, -724026.3, -363171.0, -10433.804, 0.0022475212, -0.31045303, -362869.56, -102715.96, 0.0, 9.996227, 10.001004 
1.865119e+3, 2.8345263e+2, -702592.75, -208237.53, -11339.835, -0.025074938, -0.28661704, -207977.55, -45840.875, 0.0, 9.995297, 10.0018425 
1.8651153e+3, 2.9345548e+2, -750864.6, -174719.86, -13134.337, -0.06784289, -0.19708966, -174420.6, -110314.06, 0.0, 9.994268, 10.001896 
1.8651144e+3, 3.0345532e+2, -820478.3, -152515.06, 70541.89, 0.019310322, -0.41168007, -145146.6, -145146.6, 0.0, 9.993322, 10.002171 
1.8651132e+3, 3.1345862e+2, -835895.3, 17831.678, -52483.49, -0.021051377, -0.30151206, 21046.037, 21046.037, 0.0, 9.992456, 10.003755 
1.8751705e+3, 1.23478435e+2, -821928.1, -1727246.6, -18760.762, -0.03426898, -0.29264167, -821539.56, 908341.4, 0.046916936, 10.008441, 9.995851 
1.8751664e+3, 1.3347414e+2, -820185.4, -1669357.6, -10508.953, -0.09280285, -0.3296217, -820055.4, 811867.6, 0.032330036, 10.007597, 9.99598 
1.8751638e+3, 1.4347033e+2, -794845.3, -1549779.8, -4748.1235, -0.028459795, -0.32706013, -794815.44, 739145.06, 0.018114094, 10.006732, 9.996545 
1.8751608e+3, 1.5346725e+2, -818498.0, -1513318.8, -12574.598, -0.025772724, -0.29867125, -818270.56, 617721.0, 0.007421936, 10.005828, 9.996558 
1.8751577e+3, 1.6346428e+2, -776978.0, -1354720.8, -10372.284, -0.021207761, -0.28417957, -776791.8, 561229.4, 0.0018273077, 10.00503, 9.997358 
1.8751547e+3, 1.7346163e+2, -764715.5, -1294409.3, 3945.8699, -0.020003594, -0.29728448, -764686.1, 475360.84, 0.00014697056, 10.004416, 9.997395 
1.8751515e+3, 1.834591e+2, -752150.2, -1198867.5, -6609.2383, -0.014353283, -0.3000674, -752052.44, 390019.47, 0.00000009515549, 10.003661, 9.997742 
1.8751483e+3, 1.9345704e+2, -803190.5, -1177253.1, -18860.553, 0.00121095, -0.2857826, -802241.94, 241851.69, 0.0, 10.002657, 9.997702 
1.8751451e+3, 2.0345533e+2, -767836.75, -1001534.8, -22634.328, 0.015901174, -0.26531237, -765664.75, 180447.0, 0.0, 10.001761, 9.998666 
1.8751419e+3, 2.134544e+2, -765495.7, -941736.75, -13242.855, 0.029283129, -0.23872645, -764506.2, 83615.79, 0.0, 10.001071, 9.998736 
1.8751383e+3, 2.2345339e+2, -739556.2, -815783.25, -26285.992, 0.031750437, -0.23442365, -731370.75, 18761.883, 0.0, 10.000306, 9.999297 
1.8751341e+3, 2.3345241e+2, -773206.5, -781573.94, -37757.11, 0.012625, -0.26878527, -739402.06, -87259.75, 0.0, 9.999403, 9.999294 
1.8751302e+3, 2.4345207e+2, -729844.9, -602798.6, -40206.258, -0.0032728051, -0.27011108, -591143.75, -36998.027, 0.0, 9.998567, 10.000252 
1.8751264e+3, 2.5345293e+2, -731043.9, -545104.1, -41470.406, -0.006718102, -0.22445677, -536274.25, -80136.52, 0.0, 9.997853, 10.000319 
1.8751225e+3, 2.634535e+2, -687258.7, -382732.5, -45246.316, 0.0011655507, -0.22726718, -376152.03, -18020.918, 0.0, 9.997091, 10.001127 
1.8751188e+3, 2.734541e+2, -711656.56, -338797.94, -42291.063, 0.012230144, -0.29467863, -334061.28, -73938.02, 0.0, 9.99623, 10.001171 
1.8751144e+3, 2.834555e+2, -709134.6, -223202.56, -48510.13, -0.0084759975, -0.293687, -218407.16, -56299.457, 0.0, 9.995302, 10.0017395 
1.8751098e+3, 2.934579e+2, -763074.06, -202287.84, -50523.434, -0.044214934, -0.23774524, -197772.34, -133689.05, 0.0, 9.994276, 10.001704 
1.8751077e+3, 3.034579e+2, -842840.8, -201514.63, 37804.184, 0.016620878, -0.40259302, -199293.88, -199293.88, 0.0, 9.993331, 10.001831 
1.875106e+3, 3.134611e+2, -812288.0, 65331.395, -92626.63, -0.0035270224, -0.27774912, 75000.95, 75000.95, 0.0, 9.992461, 10.00408 
1.885179e+3, 1.2348241e+2, -826051.75, -1727461.1, 28871.15, -0.03518499, -0.29163143, -825128.0, 904714.1, 0.048489872, 10.008419, 9.995858 
1.8851742e+3, 1.3347824e+2, -822736.0, -1664521.9, 30584.336, -0.08048056, -0.32036567, -821626.25, 810256.56, 0.0334783, 10.007564, 9.996029 
1.8851708e+3, 1.4347444e+2, -800214.94, -1560672.6, 38607.082, -0.011093209, -0.3180948, -798259.94, 735660.56, 0.018820543, 10.006737, 9.996467 
1.8851666e+3, 1.534712e+2, -807600.5, -1519552.0, 41087.56, -0.027601883, -0.29489645, -805237.1, 630716.25, 0.007757576, 10.005957, 9.996452 
1.8851627e+3, 1.6346815e+2, -760663.75, -1344916.0, 44695.63, -0.029630344, -0.2824595, -757264.3, 580719.56, 0.0019324158, 10.005136, 9.997374 
1.885159e+3, 1.7346555e+2, -788224.3, -1301942.6, 37591.734, -0.012158538, -0.2932238, -785488.06, 454520.5, 0.00016136716, 10.00424, 9.997427 
1.8851553e+3, 1.8346302e+2, -786226.56, -1216939.6, 17588.842, -0.0027426898, -0.2975096, -785509.5, 356523.78, 0.00000013738268, 10.003436, 9.9977255 
1.885151e+3, 1.9346085e+2, -784985.0, -1171725.0, 23140.006, -0.0060306774, -0.29139242, -783605.4, 260450.89, 0.0, 10.002798, 9.99767 
1.8851468e+3, 2.0345908e+2, -723452.1, -977193.4, 25932.225, 0.0021217037, -0.27449772, -720829.0, 225245.73, 0.0, 10.002055, 9.998691 
1.8851429e+3, 2.1345824e+2, -755470.6, -933310.4, 19649.28, 0.031107722, -0.24288309, -753325.5, 94758.26, 0.0, 10.001125, 9.998768 
1.8851386e+3, 2.2345728e+2, -743492.44, -819649.2, 2455.7256, 0.04088295, -0.23581214, -743413.3, 6680.4717, 0.0, 10.000289, 9.999277 
1.8851338e+3, 2.3345624e+2, -743041.7, -770508.06, 4989.6895, 0.0143375, -0.27259347, -742163.3, -90059.16, 0.0, 9.999627, 9.999261 
1.8851289e+3, 2.4345584e+2, -692402.44, -591998.1, 8166.9526, -0.0019964464, -0.27569112, -591338.2, -37229.625, 0.0, 9.9988575, 10.000184 
1.8851244e+3, 2.5345662e+2, -731472.06, -553514.0, 2755.8293, 0.00530825, -0.2276194, -553471.4, -97369.97, 0.0, 9.997889, 10.000242 
1.8851197e+3, 2.634573e+2, -701104.44, -379828.6, -5391.7607, 0.015092387, -0.22353292, -379738.13, -21643.803, 0.0, 9.996959, 10.00121 
1.885115e+3, 2.7345803e+2, -722851.2, -332010.6, -7188.994, 0.016188918, -0.2844085, -331878.4, -71794.07, 0.0, 9.996104, 10.001277 
1.8851097e+3, 2.8345937e+2, -713212.7, -230947.08, -15345.852, -0.0014657554, -0.29640427, -230459.25, -68389.69, 0.0, 9.995301, 10.001685 
1.8851045e+3, 2.9346135e+2, -731485.9, -199757.53, -12645.355, -0.02159792, -0.26633704, -199456.97, -135407.9, 0.0, 9.99455, 10.001588 
1.8851012e+3, 3.0346188e+2, -820151.7, -213204.17, 78347.24, 0.015441531, -0.36544007, -203253.92, -203253.92, 0.0, 9.993587, 10.001626 
1.8850987e+3, 3.134643e+2, -816856.8, 82414.49, -49409.523, 0.022006245, -0.2966373, 85121.1, 85121.1, 0.0, 9.992349, 10.004251 
1.8951872e+3, 1.2348712e+2, -830354.56, -1734609.0, 1016.69293, -0.04342876, -0.32196462, -830353.44, 899441.8, 0.05008921, 10.008422, 9.995808 
1.895182e+3, 1.3348348e+2, -824277.2, -1665895.1, -781.19556, -0.06142643, -0.29550576, -824276.44, 807554.94, 0.03465233, 10.007563, 9.996021 
1.8951777e+3, 1.4347982e+2, -799167.8, -1557244.9, 9370.03, 0.015067299, -0.28010327, -799052.06, 734815.8, 0.019548805, 10.006735, 9.996492 
1.8951724e+3, 1.5347616e+2, -805684.9, -1516150.5, 11989.063, -0.034187652, -0.30206153, -805482.6, 630421.8, 0.008107788, 10.0059595, 9.996475 
1.8951675e+3, 1.6347288e+2, -774728.44, -1375737.8, 11926.722, -0.048683174, -0.30561602, -774491.9, 563445.3, 0.0020439958, 10.00514, 9.997161 
1.8951635e+3, 1.7347036e+2, -805619.4, -1339517.6, 4362.907, -0.008246639, -0.28063363, -805583.7, 434377.97, 0.00017724748, 10.004244, 9.997169 
1.8951589e+3, 1.8346788e+2, -775439.3, -1195876.4, -7189.114, 0.009999535, -0.2741975, -775316.44, 366669.9, 0.00000021063906, 10.00344, 9.9978695 
1.8951538e+3, 1.9346555e+2, -769471.1, -1140838.1, -222.44603, -0.009863889, -0.30363685, -769471.0, 274538.8, 0.0, 10.002802, 9.997882 
1.8951488e+3, 2.034637e+2, -731034.4, -994207.56, -6912.7065, -0.01310735, -0.30341235, -730852.94, 215175.78, 0.0, 10.002059, 9.998573 
1.895144e+3, 2.1346286e+2, -767305.25, -959439.1, -14566.311, 0.013883418, -0.2527748, -766207.2, 81830.88, 0.0, 10.00113, 9.998587 
1.8951388e+3, 2.2346202e+2, -735408.3, -804594.75, -22872.668, 0.027273742, -0.2273365, -728530.44, 21516.79, 0.0, 10.000295, 9.999379 
1.8951334e+3, 2.3346129e+2, -731945.8, -748881.5, -18703.025, 0.014810658, -0.24977994, -719883.0, -67828.38, 0.0, 9.999632, 9.999409 
1.8951279e+3, 2.434609e+2, -697769.5, -604458.3, -25611.637, 0.011275902, -0.25696918, -597890.8, -43831.95, 0.0, 9.998861, 10.000098 
1.8951224e+3, 2.5346124e+2, -739799.75, -572414.3, -32713.295, 0.027320027, -0.24034676, -566248.06, -110192.0, 0.0, 9.997893, 10.000112 
1.895117e+3, 2.6346177e+2, -698774.94, -376802.4, -37189.68, 0.033684883, -0.24271537, -372562.63, -14512.311, 0.0, 9.996964, 10.001229 
1.895111e+3, 2.734628e+2, -719316.25, -326516.13, -38358.54, 0.013979387, -0.2787303, -322805.3, -62767.68, 0.0, 9.99611, 10.001313 
1.8951051e+3, 2.8346407e+2, -713151.56, -232749.2, -43360.758, -0.0040387926, -0.29479337, -228866.88, -66843.63, 0.0, 9.995307, 10.001671 
1.8950993e+3, 2.9346588e+2, -733876.94, -206802.95, -40711.11, 0.00020233155, -0.28507507, -203676.97, -139671.81, 0.0, 9.994556, 10.001538 
1.8950947e+3, 3.0346715e+2, -824427.56, -223572.52, 33644.547, 0.015400013, -0.30039555, -221694.48, -221694.48, 0.0, 9.99359, 10.001554 
1.8950912e+3, 3.134685e+2, -817498.0, 80494.34, -98616.01, 0.055369787, -0.33982652, 91196.64, 91196.64, 0.0, 9.99235, 10.004238 
1.9051959e+3, 1.2349287e+2, -808863.4, -1731478.3, 28129.62, -0.046647936, -0.33105427, -808006.56, 921731.56, 0.051725395, 10.008628, 9.99573 
1.9051896e+3, 1.3348918e+2, -833476.2, -1674385.6, 20988.357, -0.053552497, -0.30532217, -832952.7, 798822.4, 0.03585751, 10.0075245, 9.99598 
1.9051845e+3, 1.4348552e+2, -816909.9, -1563601.9, 39112.36, 0.030327342, -0.28888327, -814866.7, 718945.1, 0.020300293, 10.006607, 9.99651 
1.9051786e+3, 1.53482e+2, -797972.1, -1509586.8, 42976.734, -0.0237977, -0.297929, -795386.0, 640460.9, 0.008472017, 10.006004, 9.996497 
1.9051729e+3, 1.6347872e+2, -760346.25, -1377501.5, 39190.395, -0.0439598, -0.29877058, -757867.56, 580012.06, 0.0021614505, 10.0052805, 9.99708 
1.9051677e+3, 1.7347597e+2, -799860.94, -1348344.6, 40702.2, -0.009696276, -0.289159, -796856.94, 443049.75, 0.00019428424, 10.004335, 9.997063 
1.9051622e+3, 1.8347338e+2, -769161.6, -1193209.4, 39272.98, 0.0054959175, -0.28558698, -765555.06, 376377.28, 0.00000031501193, 10.003487, 9.997864 
1.9051567e+3, 1.9347124e+2, -767735.06, -1139032.1, 32943.95, -0.012226011, -0.29558042, -764834.7, 279119.44, 0.0, 10.002811, 9.997889 
1.9051509e+3, 2.0346944e+2, -727539.6, -990096.6, 14073.096, -0.014653172, -0.2922266, -726787.44, 219185.14, 0.0, 10.002074, 9.998593 
1.905145e+3, 2.1346837e+2, -752040.75, -950092.9, 18450.107, 0.010417284, -0.2672428, -750336.6, 97646.99, 0.0, 10.001229, 9.998603 
1.9051391e+3, 2.2346747e+2, -720370.44, -796785.2, 20053.223, 0.024600074, -0.2476627, -715427.7, 34565.37, 0.0, 10.000398, 9.999382 
1.9051331e+3, 2.3346701e+2, -737398.94, -751657.56, 14027.923, 0.018525915, -0.24203025, -728792.6, -76794.36, 0.0, 9.999597, 9.999405 
1.9051269e+3, 2.4346669e+2, -707706.75, -605566.94, -1625.4746, 0.020056896, -0.24278046, -605541.06, -51539.05, 0.0, 9.99878, 10.000129 
1.9051205e+3, 2.5346678e+2, -731884.06, -564777.6, 1623.3573, 0.036736824, -0.2539979, -564761.8, -108760.61, 0.0, 9.997934, 10.000143 
1.905114e+3, 2.634673e+2, -688837.06, -379320.34, 1830.0624, 0.040322438, -0.25715205, -379309.53, -21313.893, 0.0, 9.9970665, 10.001162 
1.9051072e+3, 2.7346858e+2, -717973.4, -335455.88, -8325.201, 0.017069202, -0.25765494, -335274.75, -75293.73, 0.0, 9.996163, 10.0012245 
1.9051005e+3, 2.834698e+2, -710788.7, -230516.95, -13947.302, 0.009322554, -0.27965412, -230112.27, -68144.2, 0.0, 9.995322, 10.0016775 
1.9050941e+3, 2.9347113e+2, -734245.44, -205408.33, -8272.948, 0.034539033, -0.31786883, -205278.94, -141324.73, 0.0, 9.99455, 10.001549 
1.9050884e+3, 3.0347311e+2, -817086.3, -204114.39, 61104.95, 0.017138384, -0.26885694, -198082.4, -198082.4, 0.0, 9.993575, 10.001694 
1.9050838e+3, 3.1347406e+2, -823874.25, 63461.906, -57755.645, 0.068594545, -0.36062562, 67205.36, 67205.36, 0.0, 9.992368, 10.00411 
1.9152044e+3, 1.2349962e+2, -819218.9, -1748516.8, -8881.607, -0.047281254, -0.32134086, -819133.94, 910536.8, 0.053399723, 10.008617, 9.995619 
1.915197e+3, 1.3349535e+2, -839247.3, -1685826.0, -19447.469, -0.05619535, -0.3469162, -838800.8, 792912.8, 0.037093457, 10.007527, 9.995901 
1.9151913e+3, 1.4349154e+2, -815959.4, -1562766.5, 14311.76, 0.035219647, -0.3405095, -815685.2, 718066.8, 0.021073062, 10.006615, 9.996512 
1.9151849e+3, 1.5348871e+2, -797030.7, -1507548.3, 20655.848, 0.0021107625, -0.283278, -796430.7, 639350.25, 0.008847726, 10.006004, 9.996512 
1.9151784e+3, 1.6348565e+2, -758281.94, -1372939.4, 5592.5337, -0.017331893, -0.2642234, -758231.06, 579580.5, 0.002283103, 10.005278, 9.997114 
1.915172e+3, 1.7348228e+2, -796837.5, -1343608.6, 5274.111, -0.016392706, -0.31752726, -796786.7, 443057.1, 0.00021192415, 10.00434, 9.997094 
1.9151655e+3, 1.8347949e+2, -778670.9, -1215192.1, 12865.123, -0.015440661, -0.32916397, -778292.06, 363579.47, 0.0000004368729, 10.003493, 9.997711 
1.9151594e+3, 1.9347788e+2, -780531.6, -1166822.9, 8376.569, -0.013371128, -0.2682343, -780350.06, 263539.53, 0.0, 10.002814, 9.997698 
1.915153e+3, 2.0347624e+2, -717435.6, -969882.1, -15951.238, -0.0034124504, -0.2433617, -716431.75, 229475.05, 0.0, 10.002076, 9.998733 
1.9151464e+3, 2.1347469e+2, -737913.6, -921973.44, -12584.146, 0.019855013, -0.28605267, -737057.2, 110863.64, 0.0, 10.001232, 9.9987955 
1.9151397e+3, 2.2347358e+2, -726463.7, -810916.75, -9493.771, 0.032131277, -0.2951575, -725409.56, 24522.14, 0.0, 10.000402, 9.999285 
1.9151327e+3, 2.3347338e+2, -747499.4, -773955.44, -14936.235, 0.025111688, -0.24865891, -740775.7, -88840.01, 0.0, 9.9996, 9.999251 
1.9151255e+3, 2.4347319e+2, -697726.8, -586280.7, -31988.426, 0.02433421, -0.23306224, -577751.75, -23813.17, 0.0, 9.998784, 10.00026 
1.9151184e+3, 2.5347322e+2, -718819.4, -539326.2, -29205.734, 0.0338124, -0.2683191, -534693.6, -78756.01, 0.0, 9.997939, 10.000317 
1.915111e+3, 2.634738e+2, -699000.2, -402198.97, -31152.904, 0.035236496, -0.26675507, -398964.34, -41033.188, 0.0, 9.997072, 10.001002 
1.9151033e+3, 2.7347535e+2, -732256.2, -366958.9, -41398.72, 0.025282495, -0.22237557, -362326.0, -102410.44, 0.0, 9.996169, 10.001007 
1.915096e+3, 2.8347635e+2, -708454.56, -227485.6, -42766.875, 0.038031682, -0.2521946, -223712.44, -61807.39, 0.0, 9.995327, 10.001698 
1.915089e+3, 2.93477e+2, -729283.3, -196742.58, -37490.016, 0.08034551, -0.36346385, -194116.3, -130219.19, 0.0, 9.9945545, 10.001608 
1.9150819e+3, 3.0347964e+2, -791491.75, -152447.7, 17126.8, 0.019743247, -0.26938152, -151989.03, -151989.03, 0.0, 9.993579, 10.002048 
1.9150761e+3, 3.1348118e+2, -841688.8, 24501.611, -99132.13, 0.061396, -0.33551887, 35702.07, 35702.07, 0.0, 9.992374, 10.003841 
1.925213e+3, 1.23506725e+2, -874856.3, -1770144.8, 4301.262, -0.024243843, -0.33113763, -874835.6, 854765.3, 0.05510155, 10.008201, 9.99567 
1.9252047e+3, 1.3350259e+2, -817537.9, -1663524.8, 2875.5496, -0.054576855, -0.35102165, -817528.1, 814114.0, 0.038350772, 10.007646, 9.995996 
1.925198e+3, 1.4349881e+2, -775667.06, -1545900.8, 42883.92, 0.030173648, -0.3450671, -773286.8, 760393.2, 0.021859523, 10.006919, 9.996481 
1.925191e+3, 1.5349588e+2, -815256.7, -1522642.1, 44133.28, 0.01264317, -0.29352102, -812513.9, 623196.2, 0.009229749, 10.005909, 9.996453 
1.9251837e+3, 1.6349278e+2, -786538.8, -1378967.6, 28612.602, -0.0035956416, -0.2768537, -785160.06, 552580.94, 0.0024064302, 10.005053, 9.99718 
1.9251762e+3, 1.7348953e+2, -773291.44, -1322845.6, 31553.287, -0.021403028, -0.32734782, -771485.7, 468286.28, 0.00022951125, 10.004464, 9.997176 
1.9251691e+3, 1.8348682e+2, -745038.44, -1202913.8, 42474.996, -0.02838919, -0.3342783, -741131.56, 400667.5, 0.0000005556501, 10.003744, 9.997673 
1.9251621e+3, 1.9348523e+2, -788448.9, -1177650.0, 46079.117, -0.014730543, -0.26529756, -783067.75, 260749.78, 0.0, 10.002792, 9.997633 
1.925155e+3, 2.034836e+2, -735819.1, -971723.8, 25470.498, 0.001301603, -0.23912984, -733100.4, 212734.44, 0.0, 10.001922, 9.998793 
1.9251476e+3, 2.13482e+2, -737067.7, -912671.44, 20524.217, 0.019976072, -0.29202983, -734700.75, 113147.81, 0.0, 10.001202, 9.998873 
1.92514e+3, 2.2348088e+2, -723084.9, -810469.8, 19503.793, 0.029793847, -0.30670202, -718929.4, 30929.988, 0.0, 10.000433, 9.999271 
1.9251323e+3, 2.3348066e+2, -753891.06, -780547.0, 21786.213, 0.025233451, -0.25795335, -741679.4, -89815.59, 0.0, 9.999574, 9.999218 
1.9251244e+3, 2.434805e+2, -702388.56, -582798.6, 6748.14, 0.027723877, -0.24031375, -582419.06, -28552.334, 0.0, 9.99873, 10.000309 
1.9251163e+3, 2.5348064e+2, -718871.25, -532378.25, 1036.877, 0.039348647, -0.27241197, -532372.5, -76507.79, 0.0, 9.997911, 10.000377 
1.9251081e+3, 2.634813e+2, -699262.1, -407923.44, -3315.6248, 0.03884109, -0.2659684, -407885.7, -50027.918, 0.0, 9.997097, 10.00095 
1.9250998e+3, 2.734828e+2, -720583.56, -369485.0, -3346.8003, 0.025988808, -0.21778627, -369453.1, -109609.984, 0.0, 9.996286, 10.000932 
1.9250916e+3, 2.834837e+2, -697123.56, -219403.25, -504.42673, 0.04984979, -0.25016233, -219402.7, -57569.195, 0.0, 9.995397, 10.0017185 
1.9250838e+3, 2.934844e+2, -752742.94, -201690.16, 2691.3044, 0.11296763, -0.36393413, -201677.02, -137851.73, 0.0, 9.994369, 10.001661 
1.9250755e+3, 3.0348736e+2, -786809.6, -115371.41, 55065.11, 0.01748303, -0.2565145, -110885.45, -110885.45, 0.0, 9.993464, 10.002357 
1.9250688e+3, 3.1348908e+2, -805592.9, -59.652325, -58368.617, 0.06365069, -0.33086187, 4147.739, 4147.739, 0.0, 9.992805, 10.003464 
1.9352217e+3, 1.2351419e+2, -862901.06, -1741861.0, -14255.038, 0.018705731, -0.35988668, -862669.94, 866858.25, 0.05681596, 10.008204, 9.995863 
1.9352125e+3, 1.3351092e+2, -801612.94, -1627690.3, -17769.889, -0.049643107, -0.32042652, -801230.9, 830329.7, 0.0396151, 10.007647, 9.9962435 
1.9352047e+3, 1.4350733e+2, -781074.44, -1556632.0, 7614.87, 0.0153887365, -0.30624008, -780999.6, 752596.44, 0.022648545, 10.006919, 9.9964075 
1.9351968e+3, 1.5350352e+2, -824026.7, -1541931.3, 6411.1504, 0.008820269, -0.32685712, -823969.44, 611664.8, 0.009611854, 10.005914, 9.996321 
1.9351888e+3, 1.6350017e+2, -779679.75, -1366193.3, 4622.2637, -0.0020487017, -0.33292282, -779643.4, 558024.4, 0.002529099, 10.005057, 9.997266 
1.9351807e+3, 1.7349768e+2, -764517.3, -1305400.3, 9792.616, -0.025022687, -0.31957716, -764340.1, 475351.5, 0.00024658197, 10.004465, 9.997296 
1.9351727e+3, 1.834953e+2, -740649.2, -1194246.9, 8879.286, -0.03400204, -0.30351254, -740475.44, 401240.16, 0.00000065426195, 10.003744, 9.997734 
1.935165e+3, 1.9349325e+2, -784787.06, -1171008.8, 10573.786, -0.016383527, -0.28551084, -784497.8, 259240.45, 0.0, 10.002794, 9.997678 
1.935157e+3, 2.0349143e+2, -736687.06, -974857.6, -2197.5647, -0.00030780878, -0.27678007, -736666.8, 209090.25, 0.0, 10.001925, 9.998771 
1.9351487e+3, 2.1349026e+2, -739085.7, -918203.06, -5559.373, 0.011028321, -0.28577653, -738913.3, 108853.945, 0.0, 10.001205, 9.998834 
1.9351403e+3, 2.234893e+2, -718320.9, -801921.2, -11150.623, 0.017903388, -0.2842873, -716859.1, 32917.445, 0.0, 10.000436, 9.99933 
1.9351318e+3, 2.3348881e+2, -748288.0, -770383.94, -9566.872, 0.019128462, -0.2696789, -744721.5, -92938.22, 0.0, 9.999578, 9.999287 
1.9351232e+3, 2.4348855e+2, -704110.6, -587988.3, -23272.57, 0.03019338, -0.2634783, -583497.8, -29710.777, 0.0, 9.998734, 10.000272 
1.9351144e+3, 2.5348893e+2, -722155.2, -540707.5, -28659.324, 0.052856658, -0.26690972, -536288.44, -80505.21, 0.0, 9.997915, 10.000319 
1.9351053e+3, 2.6348963e+2, -695720.8, -401905.8, -33068.887, 0.050613265, -0.2558206, -398229.9, -40453.566, 0.0, 9.997101, 10.000991 
1.935096e+3, 2.7349082e+2, -716406.4, -362151.88, -33109.08, 0.01891196, -0.24291125, -359084.03, -99319.484, 0.0, 9.99629, 10.000981 
1.9350868e+3, 2.834918e+2, -695361.9, -217254.72, -37864.195, 0.044812556, -0.271821, -214274.6, -52520.27, 0.0, 9.9954, 10.001732 
1.9350785e+3, 2.9349312e+2, -748648.7, -195152.16, -36109.195, 0.13302596, -0.31969067, -192806.39, -129066.555, 0.0, 9.994375, 10.001705 
1.9350688e+3, 3.0349606e+2, -767594.1, -77237.336, 28029.36, 0.01067367, -0.234084, -76101.17, -76101.17, 0.0, 9.993469, 10.002617 
1.9350617e+3, 3.1349787e+2, -838573.7, -69890.68, -71365.16, 0.07352592, -0.3206931, -63321.223, -63321.223, 0.0, 9.992808, 10.002984 
1.94523e+3, 1.2352293e+2, -843776.7, -1739321.5, 29802.47, 0.037290696, -0.35464558, -842786.0, 886656.75, 0.058529004, 10.008392, 9.99579 
1.9452201e+3, 1.3351959e+2, -800155.3, -1631019.1, 5297.3843, -0.039222382, -0.31514525, -800121.5, 831354.3, 0.04087315, 10.007687, 9.9962 
1.9452117e+3, 1.4351599e+2, -775424.8, -1541783.4, 14574.5625, 0.020275448, -0.30424166, -775147.75, 758363.6, 0.02343049, 10.006914, 9.9965105 
1.9452028e+3, 1.5351221e+2, -800252.0, -1515898.9, 28922.0, 0.011300829, -0.33601946, -799085.06, 636463.56, 0.009989353, 10.006021, 9.996447 
1.9451939e+3, 1.6350889e+2, -764747.44, -1359144.0, 43174.848, -0.0016496254, -0.3446561, -761627.75, 575953.6, 0.0026498125, 10.005165, 9.997261 
1.9451852e+3, 1.735065e+2, -778514.8, -1315345.6, 38801.523, -0.025961364, -0.31889877, -775724.75, 463880.22, 0.00026301524, 10.004386, 9.997265 
1.9451764e+3, 1.8350418e+2, -757674.8, -1191271.5, 25501.04, -0.03456758, -0.29927218, -756180.2, 385448.5, 0.00000072707013, 10.003581, 9.997831 
1.9451678e+3, 1.9350213e+2, -785913.4, -1158247.9, 30352.533, -0.013804989, -0.29336077, -783455.3, 260195.63, 0.0, 10.002732, 9.997795 
1.945159e+3, 2.0350035e+2, -735565.44, -971657.8, 27023.328, 0.0026710355, -0.28851333, -732511.9, 213157.27, 0.0, 10.001924, 9.998793 
1.9451499e+3, 2.1349928e+2, -741493.25, -919116.6, 26862.43, 0.009341321, -0.28703135, -737519.7, 110158.875, 0.0, 10.00119, 9.998834 
1.9451408e+3, 2.2349837e+2, -718111.0, -795665.44, 18213.482, 0.014279947, -0.28212404, -714046.6, 35640.844, 0.0, 10.000414, 9.999382 
1.9451314e+3, 2.3349786e+2, -746902.75, -762925.56, 17810.93, 0.019200124, -0.27607962, -735384.4, -83690.05, 0.0, 9.999561, 9.999345 
1.9451219e+3, 2.4349765e+2, -706415.7, -584726.44, 6065.8013, 0.034011584, -0.2699731, -584424.8, -30727.205, 0.0, 9.998702, 10.000309 
1.9451123e+3, 2.5349817e+2, -732472.75, -542359.56, 6811.597, 0.058611553, -0.26038513, -542115.8, -86423.45, 0.0, 9.997832, 10.000346 
1.9451024e+3, 2.6349887e+2, -711948.6, -406943.6, 6022.875, 0.05355882, -0.25062227, -406824.7, -49139.21, 0.0, 9.99698, 10.001014 
1.9450921e+3, 2.7349988e+2, -736118.3, -369431.28, 3427.6558, 0.015849236, -0.25815827, -369399.25, -109723.61, 0.0, 9.996148, 10.0009985 
1.9450822e+3, 2.8350094e+2, -710759.1, -228990.84, -7596.003, 0.045736756, -0.27617213, -228871.11, -67206.445, 0.0, 9.9953165, 10.001691 
1.945073e+3, 2.9350272e+2, -729583.5, -188171.06, -10556.597, 0.1415017, -0.27582416, -187965.3, -124319.01, 0.0, 9.994517, 10.001683 
1.9450621e+3, 3.0350524e+2, -729815.1, -34665.71, 48925.633, -0.009557389, -0.24527043, -31239.143, -31239.143, 0.0, 9.993627, 10.002832 
1.9450544e+3, 3.135075e+2, -887652.9, -112132.18, -35790.418, 0.08661018, -0.30159843, -110483.95, -110483.95, 0.0, 9.992555, 10.002814 
1.9552384e+3, 1.2353287e+2, -866365.8, -1786980.1, 5765.754, 0.031292826, -0.31936088, -866329.7, 863015.4, 0.060230672, 10.008396, 9.995461 
1.955228e+3, 1.3352868e+2, -822266.7, -1677819.0, -19985.953, -0.023571983, -0.33306885, -821800.06, 809587.3, 0.04211865, 10.00769, 9.995878 
1.9552189e+3, 1.4352487e+2, -757789.9, -1504693.1, -16780.43, 0.043346953, -0.33570972, -757413.06, 776012.0, 0.024202405, 10.006916, 9.99677 
1.955209e+3, 1.535219e+2, -775082.06, -1464011.6, -4461.4844, 0.019158054, -0.3226291, -775053.2, 660400.2, 0.010361334, 10.006025, 9.996801 
1.9551991e+3, 1.6351889e+2, -770918.44, -1373421.5, 13336.807, -0.0026460914, -0.31542268, -770623.4, 566859.25, 0.0027685275, 10.00517, 9.997163 
1.9551896e+3, 1.7351598e+2, -790745.7, -1341772.6, 10003.787, -0.024546044, -0.32500663, -790564.1, 448948.13, 0.00027894654, 10.004388, 9.997084 
1.9551799e+3, 1.8351346e+2, -748621.06, -1173251.3, -5429.169, -0.030678416, -0.31967953, -748551.7, 392986.53, 0.00000077855054, 10.003583, 9.997956 
1.9551705e+3, 1.9351181e+2, -773157.4, -1132955.9, -915.086, -0.007528136, -0.2893936, -773155.0, 270400.84, 0.0, 10.002735, 9.997969 
1.955161e+3, 2.0351025e+2, -731255.7, -964032.25, -459.53372, 0.009829255, -0.27584356, -731254.75, 214316.88, 0.0, 10.001927, 9.998844 
1.9551511e+3, 2.1350901e+2, -739134.44, -915272.0, 192.71327, 0.014473978, -0.29538774, -739134.25, 108448.61, 0.0, 10.001192, 9.99886 
1.9551411e+3, 2.2350805e+2, -714890.56, -789912.25, -12389.642, 0.01838306, -0.29908642, -712897.44, 36694.96, 0.0, 10.000415, 9.999422 
1.955131e+3, 2.3350772e+2, -743692.0, -757215.1, -13221.907, 0.024833405, -0.27769026, -735603.06, -84005.43, 0.0, 9.999563, 9.999385 
1.9551207e+3, 2.4350768e+2, -698880.5, -570364.1, -25567.584, 0.03886903, -0.2607973, -565464.44, -11865.208, 0.0, 9.998705, 10.000407 
1.9551101e+3, 2.535083e+2, -724532.56, -527601.4, -24987.275, 0.05665027, -0.25225627, -524480.4, -68887.56, 0.0, 9.997837, 10.000445 
1.9550994e+3, 2.6350898e+2, -711159.5, -407268.7, -24813.863, 0.047713082, -0.2497082, -405255.88, -47669.883, 0.0, 9.996985, 10.00101 
1.9550882e+3, 2.735099e+2, -736816.94, -372782.3, -27542.271, 0.016650561, -0.2649667, -370710.3, -111132.85, 0.0, 9.996154, 10.000974 
1.9550776e+3, 2.835111e+2, -717127.44, -243748.84, -38171.668, 0.052360468, -0.26450655, -240690.56, -79124.96, 0.0, 9.99532, 10.001589 
1.9550675e+3, 2.935131e+2, -735701.4, -201891.83, -40204.11, 0.13795204, -0.23053825, -198880.81, -135335.39, 0.0, 9.99452, 10.001589 
1.9550554e+3, 3.0351472e+2, -718626.94, -12785.109, 9632.845, -0.043462165, -0.29013294, -12653.671, -12653.671, 0.0, 9.993629, 10.002982 
1.9550471e+3, 3.13518e+2, -874666.7, -87991.75, -57373.867, 0.10095013, -0.2670249, -83829.375, -83829.375, 0.0, 9.992563, 10.002977 
1.9652471e+3, 1.2354318e+2, -838487.06, -1768728.5, 25908.813, 0.03812581, -0.31141242, -837766.0, 891478.06, 0.06191871, 10.0086, 9.995487 
1.9652358e+3, 1.3353892e+2, -815434.3, -1666982.0, 23938.303, -0.005745457, -0.33849412, -814761.94, 816525.06, 0.04335404, 10.007719, 9.995937 
1.965226e+3, 1.4353512e+2, -762318.75, -1503846.5, 34864.875, 0.061788432, -0.34368733, -760683.06, 772641.4, 0.024967771, 10.00688, 9.996793 
1.9652149e+3, 1.5353225e+2, -758814.06, -1454199.4, 23658.227, 0.019665688, -0.32026502, -758010.06, 677341.56, 0.0107298205, 10.006134, 9.996815 
1.9652042e+3, 1.6352932e+2, -748020.4, -1358990.1, 29697.611, -0.007609771, -0.30791283, -746580.25, 590800.1, 0.0028858974, 10.005316, 9.9971895 
1.9651939e+3, 1.7352638e+2, -791833.56, -1338921.1, 40023.418, -0.013104234, -0.32229173, -788921.06, 450489.63, 0.00029454086, 10.004369, 9.997111 
1.9651838e+3, 1.8352388e+2, -757106.94, -1167496.1, 33279.133, -0.014657872, -0.32002914, -754425.8, 387010.7, 0.0000008150818, 10.003485, 9.998041 
1.9651732e+3, 1.9352233e+2, -769923.44, -1120827.6, 31949.225, -0.0076906774, -0.28881106, -767038.25, 276414.44, 0.0, 10.002714, 9.99806 
1.9651628e+3, 2.0352086e+2, -728252.6, -956101.25, 29526.88, 0.0019007269, -0.27587295, -724488.44, 220978.98, 0.0, 10.001923, 9.998899 
1.9651522e+3, 2.135196e+2, -750614.5, -915473.44, 31189.867, 0.01346772, -0.29947317, -744910.94, 102567.66, 0.0, 10.001093, 9.998905 
1.9651414e+3, 2.2351867e+2, -734077.5, -791775.9, 17549.465, 0.019328648, -0.30552515, -729158.94, 20328.967, 0.0, 10.000254, 9.999486 
1.9651304e+3, 2.3351845e+2, -762906.8, -759276.56, 17491.264, 0.019584712, -0.28203157, -743506.5, -92014.1, 0.0, 9.999402, 9.999447 
1.9651192e+3, 2.435185e+2, -711033.75, -567875.1, 6424.672, 0.03272463, -0.26146033, -567587.4, -14094.464, 0.0, 9.998588, 10.00048 
1.965108e+3, 2.535192e+2, -719720.06, -517243.03, 4751.337, 0.056903735, -0.25056437, -517131.6, -61646.277, 0.0, 9.997839, 10.000515 
1.9650963e+3, 2.6351985e+2, -704417.1, -405995.38, 1460.8671, 0.047673367, -0.25434312, -405988.22, -48509.414, 0.0, 9.997043, 10.000989 
1.9650844e+3, 2.7352062e+2, -740185.3, -379063.66, -3099.6748, 0.00967449, -0.28054053, -379037.06, -119564.94, 0.0, 9.996153, 10.00093 
1.965073e+3, 2.8352195e+2, -719953.6, -243286.72, -8914.757, 0.0506113, -0.26628736, -243120.05, -81660.68, 0.0, 9.995296, 10.001603 
1.9650622e+3, 2.9352427e+2, -735693.2, -197989.77, -322.87363, 0.15054366, -0.20233104, -197989.58, -134553.55, 0.0, 9.994506, 10.001621 
1.9650489e+3, 3.0352518e+2, -735759.7, -36772.336, 34458.848, -0.05006509, -0.32639855, -35077.684, -35077.684, 0.0, 9.993583, 10.002839 
1.9650397e+3, 3.1352872e+2, -864906.0, -65375.92, -34004.195, 0.10029943, -0.25822064, -63932.324, -63932.324, 0.0, 9.992556, 10.003136 
1.9752559e+3, 1.235539e+2, -815999.75, -1718774.9, -3403.4456, 0.055922173, -0.32850948, -815986.94, 913152.4, 0.06360187, 10.008611, 9.995831 
1.9752438e+3, 1.3355026e+2, -789364.94, -1609833.6, -8338.465, 0.013243806, -0.33234486, -789280.2, 841894.6, 0.0445878, 10.007721, 9.996337 
1.975233e+3, 1.4354669e+2, -777263.1, -1533744.4, 6431.78, 0.074982874, -0.33025488, -777208.44, 756001.56, 0.025732609, 10.006878, 9.996585 
1.975221e+3, 1.5354331e+2, -780450.8, -1499949.8, -3575.029, 0.01328694, -0.3279415, -780433.06, 654810.4, 0.011097759, 10.006136, 9.996501 
1.9752094e+3, 1.6354021e+2, -737905.6, -1338869.9, -4182.8354, -0.016217137, -0.32006174, -737876.5, 599398.0, 0.0030029316, 10.005319, 9.997328 
1.9751985e+3, 1.735377e+2, -776774.7, -1308354.9, 4813.2813, 0.007449745, -0.31117576, -776731.1, 462569.34, 0.00030999604, 10.00437, 9.997322 
1.9751874e+3, 1.8353541e+2, -754112.75, -1162046.1, 3888.7273, 0.012435738, -0.30170202, -754075.7, 387248.34, 0.000000841243, 10.003486, 9.998079 
1.9751759e+3, 1.9353367e+2, -768804.8, -1119948.3, 3851.429, -0.014011044, -0.2915947, -768762.6, 274579.13, 0.0, 10.002718, 9.998065 
1.9751644e+3, 2.0353211e+2, -723780.6, -948442.2, -484.92273, -0.020311646, -0.28793058, -723779.56, 221577.33, 0.0, 10.001927, 9.998951 
1.9751532e+3, 2.1353105e+2, -746268.25, -907479.9, 938.33606, 0.006419788, -0.299481, -746262.75, 101103.625, 0.0, 10.001095, 9.9989605 
1.9751418e+3, 2.2353022e+2, -728394.2, -780976.94, -13583.357, 0.017061502, -0.30193388, -725092.56, 24282.121, 0.0, 10.000256, 9.99956 
1.9751297e+3, 2.3352996e+2, -756855.3, -748395.3, -13597.484, 0.0039155185, -0.28867468, -738385.06, -87005.805, 0.0, 9.999407, 9.99952 
1.9751176e+3, 2.4353005e+2, -707145.7, -561797.3, -21458.277, 0.01597892, -0.27128008, -558695.5, -5316.1685, 0.0, 9.998594, 10.00052 
1.9751059e+3, 2.5353083e+2, -716784.06, -512658.66, -22606.066, 0.059102595, -0.25553775, -510185.1, -54814.35, 0.0, 9.997843, 10.000546 
1.9750933e+3, 2.6353145e+2, -706809.94, -412316.0, -30666.264, 0.053124566, -0.26473558, -409156.53, -51791.785, 0.0, 9.997046, 10.000945 
1.9750804e+3, 2.73532e+2, -744180.94, -388894.6, -36326.773, -0.0051193666, -0.30391046, -385218.38, -125858.05, 0.0, 9.996157, 10.000862 
1.9750682e+3, 2.8353342e+2, -710801.44, -226161.81, -38948.79, 0.04021646, -0.28057587, -223051.6, -61704.867, 0.0, 9.995301, 10.001719 
1.9750568e+3, 2.9353613e+2, -724511.9, -177036.84, -30233.158, 0.17833905, -0.19199532, -175372.34, -112053.14, 0.0, 9.994513, 10.001763 
1.9750427e+3, 3.0353653e+2, -766571.94, -102420.45, -5860.1924, -0.029789062, -0.3541705, -102368.75, -102368.75, 0.0, 9.9935875, 10.002387 
1.975032e+3, 3.1353965e+2, -851850.0, -39400.742, -47069.32, 0.08109641, -0.28071728, -36682.87, -36682.87, 0.0, 9.992558, 10.003314 
1.9852647e+3, 1.2356564e+2, -783948.25, -1705690.1, 39231.246, 0.076286495, -0.35410282, -782281.5, 946742.5, 0.06529566, 10.008876, 9.995798 
1.9852516e+3, 1.335623e+2, -785473.44, -1608160.9, 4933.7954, 0.025562827, -0.32642445, -785443.9, 845613.2, 0.0458297, 10.007762, 9.996328 
1.9852398e+3, 1.4355886e+2, -786120.2, -1532271.9, 20411.586, 0.08150499, -0.3127448, -785562.25, 747528.8, 0.026502335, 10.006798, 9.996632 
1.9852272e+3, 1.5355526e+2, -783204.0, -1495075.0, 36736.508, 0.019054838, -0.336606, -781313.2, 653813.25, 0.01146789, 10.006095, 9.996553 
1.9852148e+3, 1.6355214e+2, -740397.3, -1335721.0, 39317.563, -0.010327018, -0.33462402, -737811.9, 599346.0, 0.0031208394, 10.005286, 9.997364 
1.985203e+3, 1.7354998e+2, -786317.3, -1309301.3, 34056.527, 0.01520691, -0.29594627, -784108.9, 455072.38, 0.0003256671, 10.004292, 9.997352 
1.985191e+3, 1.8354787e+2, -756337.6, -1150467.9, 36215.977, 0.021183118, -0.27462772, -753037.44, 388165.72, 0.000000869186, 10.003419, 9.99819 
1.9851787e+3, 1.9354604e+2, -754211.5, -1099325.6, 45037.332, -0.00636927, -0.28469312, -748430.94, 294789.9, 0.0, 10.002763, 9.998184 
1.9851664e+3, 2.0354442e+2, -715801.6, -945667.0, 36407.7, -0.016877314, -0.29344282, -710172.94, 235063.25, 0.0, 10.001989, 9.9989395 
1.9851543e+3, 2.1354334e+2, -761725.3, -918986.0, 29574.4, 0.0006992111, -0.3029078, -756347.44, 90898.76, 0.0, 10.001009, 9.998921 
1.9851418e+3, 2.2354253e+2, -741242.8, -778701.25, 15377.484, 0.0060590873, -0.30304953, -735738.75, 13515.521, 0.0, 10.0001335, 9.999634 
1.985129e+3, 2.3354237e+2, -745448.9, -732606.4, 16889.924, -0.0055448525, -0.28753513, -720958.25, -69700.82, 0.0, 9.999443, 9.99961 
1.9851162e+3, 2.435425e+2, -694538.44, -552464.0, 6592.397, 0.00912353, -0.27189577, -552158.75, 1098.0896, 0.0, 9.99867, 10.000546 
1.9851036e+3, 2.5354323e+2, -729821.94, -517427.9, 3736.3438, 0.05596082, -0.26483706, -517362.2, -62113.21, 0.0, 9.997748, 10.000558 
1.9850904e+3, 2.635438e+2, -725157.06, -412138.13, -1243.0764, 0.050752822, -0.27794948, -412133.2, -54890.28, 0.0, 9.996883, 10.001024 
1.9850764e+3, 2.7354452e+2, -745410.8, -380120.9, 3610.291, -0.010173602, -0.31246313, -380085.22, -120848.2, 0.0, 9.996111, 10.000943 
1.9850634e+3, 2.8354603e+2, -696213.0, -220162.34, 7009.783, 0.03661121, -0.28537008, -220059.16, -58836.348, 0.0, 9.995408, 10.001707 
1.9850515e+3, 2.935487e+2, -694070.7, -167127.73, 2194.67, 0.17943075, -0.19540827, -167118.6, -103922.516, 0.0, 9.994744, 10.0017185 
1.9850364e+3, 3.035491e+2, -767727.8, -137465.73, 7160.3535, -0.024440594, -0.3408656, -137384.39, -137384.39, 0.0, 9.993731, 10.002076 
1.9850245e+3, 3.135518e+2, -844007.4, -6217.101, 8042.9985, 0.0840319, -0.27406693, -6139.8936, -6139.8936, 0.0, 9.992487, 10.003575 
1.9952738e+3, 1.2357834e+2, -811019.9, -1760773.8, 2143.263, 0.09620138, -0.38896215, -811015.0, 917883.6, 0.06701427, 10.008875, 9.995411 
1.9952594e+3, 1.3357502e+2, -811368.5, -1664028.9, -34544.47, 0.031692002, -0.3199811, -809971.25, 820961.94, 0.047089238, 10.007772, 9.995934 
1.9952466e+3, 1.4357163e+2, -766024.7, -1492493.9, -6609.8267, 0.08212827, -0.29057375, -765964.56, 767002.75, 0.027283, 10.006809, 9.996908 
1.9952334e+3, 1.535681e+2, -756974.8, -1440047.1, 10877.37, 0.03567869, -0.3462586, -756801.7, 678199.2, 0.011843727, 10.006095, 9.996932 
1.9952203e+3, 1.635651e+2, -745809.9, -1346510.0, 3493.1504, 0.008366468, -0.3516745, -745789.56, 591241.25, 0.003241223, 10.005282, 9.997293 
1.9952072e+3, 1.7356314e+2, -795713.6, -1330529.3, -2882.572, 0.0108844, -0.2768592, -795698.1, 443355.28, 0.00034208753, 10.004296, 9.997205 
1.9951943e+3, 1.8356119e+2, -743264.2, -1125581.6, 10588.813, 0.012794502, -0.23937461, -742971.1, 398103.06, 0.0000009240506, 10.003426, 9.998359 
1.9951816e+3, 1.9355938e+2, -738983.3, -1068116.6, 21206.23, 0.014196146, -0.26857913, -737622.56, 305467.84, 0.0, 10.002762, 9.998401 
1.9951688e+3, 2.035577e+2, -721880.9, -958291.75, 1836.4938, 0.010373679, -0.29262307, -721866.6, 223239.28, 0.0, 10.0019865, 9.998855 
1.9951552e+3, 2.135564e+2, -770605.75, -939075.75, -6505.492, -0.0039832895, -0.30950582, -770354.9, 76763.68, 0.0, 10.001014, 9.998783 
1.9951417e+3, 2.2355555e+2, -735378.06, -768712.25, -11167.095, -0.013354488, -0.30861828, -731982.8, 17144.414, 0.0, 10.00014, 9.999701 
1.9951282e+3, 2.3355563e+2, -738163.94, -718597.8, -7908.2715, -0.009221409, -0.2791312, -715801.2, -64673.67, 0.0, 9.999446, 9.999706 
1.9951148e+3, 2.4355583e+2, -693832.56, -552015.56, -26042.654, 0.011564374, -0.2638475, -547384.44, 5741.663, 0.0, 9.998672, 10.000549 
1.9951011e+3, 2.535563e+2, -729972.3, -519484.44, -30192.512, 0.047321185, -0.27816606, -515239.22, -60118.547, 0.0, 9.997753, 10.000543 
1.9950871e+3, 2.6355696e+2, -710994.6, -384731.78, -30729.85, 0.04051545, -0.29353234, -381862.66, -24748.695, 0.0, 9.996889, 10.001211 
1.9950725e+3, 2.7355808e+2, -729641.44, -349142.88, -25018.8, -0.0058698505, -0.30624253, -347504.88, -88401.78, 0.0, 9.996116, 10.001155 
1.9950588e+3, 2.8355962e+2, -705186.2, -240563.75, -17842.3, 0.03933015, -0.28133366, -239879.6, -78790.98, 0.0, 9.995413, 10.001566 
1.995046e+3, 2.9356188e+2, -709323.9, -200699.05, -24531.19, 0.15363684, -0.2137336, -199518.64, -136450.98, 0.0, 9.99475, 10.001487 
1.9950302e+3, 3.0356282e+2, -780054.2, -164244.64, -41784.68, -0.03331822, -0.28427786, -161422.36, -161422.36, 0.0, 9.993733, 10.001892 
1.9950172e+3, 3.135652e+2, -822083.56, 38164.215, -12429.187, 0.10458874, -0.2386895, 38343.758, 38343.758, 0.0, 9.992489, 10.0038805 
2.005283e+3, 1.2359249e+2, -797786.9, -1755795.0, 24898.957, 0.11638568, -0.35915855, -797140.2, 931621.44, 0.0687677, 10.008999, 9.995385 
2.0052673e+3, 1.3358891e+2, -771520.1, -1644225.4, 11775.371, 0.03324176, -0.31457236, -771361.25, 859436.8, 0.04837605, 10.008075, 9.995922 
2.0052536e+3, 1.4358544e+2, -730930.4, -1479814.8, 48997.13, 0.07731405, -0.28937265, -727738.25, 805094.44, 0.028082317, 10.007085, 9.996864 
2.0052396e+3, 1.5358202e+2, -774321.8, -1454312.3, 37726.453, 0.04891207, -0.329806, -772235.1, 662630.7, 0.012229922, 10.006004, 9.996877 
2.0052256e+3, 1.6357909e+2, -767838.44, -1345307.8, 21007.47, 0.027004816, -0.32960507, -767075.2, 569820.0, 0.0033659895, 10.005082, 9.997396 
2.0052116e+3, 1.7357713e+2, -767778.0, -1303073.5, 33193.48, 0.012682928, -0.26659492, -765727.5, 473189.78, 0.00035980507, 10.004431, 9.997328 
2.0051977e+3, 1.835752e+2, -710399.94, -1103962.0, 51701.59, 0.0061705825, -0.23588364, -703721.3, 437216.22, 0.0000010228638, 10.00363, 9.998407 
2.0051843e+3, 1.9357345e+2, -765297.4, -1076871.3, 48735.164, 0.014199123, -0.26257375, -757852.3, 285100.75, 0.0, 10.002567, 9.998432 
2.0051706e+3, 2.035718e+2, -765781.8, -976663.8, 27535.197, 0.013075247, -0.28576025, -762245.8, 182722.31, 0.0, 10.001676, 9.998878 
2.0051563e+3, 2.1357049e+2, -759660.75, -931712.3, 30135.508, -0.005846776, -0.3043966, -754535.1, 92445.766, 0.0, 10.001082, 9.998799 
2.005142e+3, 2.2356968e+2, -704662.8, -749197.7, 28085.693, -0.016851017, -0.30413878, -691088.3, 57900.992, 0.0, 10.000334, 9.99974 
2.0051277e+3, 2.335698e+2, -754950.4, -722104.9, 26393.52, -0.009117986, -0.27446848, -707441.9, -56453.055, 0.0, 9.999312, 9.999745 
2.0051134e+3, 2.4356996e+2, -732356.06, -573966.7, 6791.196, 0.010816168, -0.26201022, -573676.06, -20688.53, 0.0, 9.998423, 10.000518 
2.0050989e+3, 2.5357035e+2, -732325.56, -525397.6, 598.2513, 0.038803354, -0.28139478, -525395.9, -70412.44, 0.0, 9.997761, 10.000497 
2.005084e+3, 2.6357105e+2, -689622.06, -365499.25, -7066.5825, 0.031525344, -0.291455, -365345.25, -8369.007, 0.0, 9.997, 10.001288 
2.0050687e+3, 2.7357242e+2, -728647.75, -337778.28, -9853.297, -0.0052917567, -0.28924844, -337530.06, -78567.53, 0.0, 9.996078, 10.00125 
2.0050542e+3, 2.8357393e+2, -719297.6, -246083.63, 5010.826, 0.03789585, -0.27637205, -246030.58, -85082.04, 0.0, 9.995313, 10.001575 
2.0050405e+3, 2.935758e+2, -714608.6, -205688.73, 10627.303, 0.13749215, -0.24422254, -205466.9, -142535.14, 0.0, 9.994727, 10.001462 
2.0050241e+3, 3.0357736e+2, -771724.0, -162632.94, -12293.507, -0.019820062, -0.24685292, -162384.92, -162384.92, 0.0, 9.993804, 10.001867 
2.0050098e+3, 3.135795e+2, -798379.4, 51500.25, 48752.008, 0.09922532, -0.22503036, 54287.688, 54287.688, 0.0, 9.992646, 10.003896 
2.015292e+3, 1.23608015e+2, -779730.1, -1713814.0, -5716.2935, 0.13532287, -0.27160653, -779695.1, 948918.2, 0.07056778, 10.009003, 9.995679 
2.0152754e+3, 1.3360393e+2, -750125.6, -1597875.4, -21552.902, 0.030028231, -0.31112885, -749578.0, 881074.06, 0.04970105, 10.008078, 9.996252 
2.0152605e+3, 1.4360029e+2, -754865.75, -1529586.8, 10241.547, 0.06691209, -0.30826685, -754730.4, 777957.25, 0.028908834, 10.007089, 9.996512 
2.0152457e+3, 1.5359698e+2, -805293.25, -1521160.1, -1566.6978, 0.058764648, -0.28906608, -805289.8, 629431.7, 0.012631634, 10.006012, 9.996416 
2.015231e+3, 1.6359407e+2, -749032.0, -1308229.0, -4392.429, 0.045386266, -0.27112857, -748997.5, 587753.8, 0.0034972432, 10.00509, 9.997649 
2.015216e+3, 1.7359191e+2, -742169.4, -1250521.5, 9549.698, 0.020002998, -0.26454547, -741990.06, 496783.25, 0.00037929948, 10.004431, 9.997689 
2.0152013e+3, 1.8358988e+2, -715668.7, -1115160.4, 14295.077, 0.00096702704, -0.26175672, -715157.8, 425635.7, 0.0000011751448, 10.003628, 9.998333 
2.0151867e+3, 1.935882e+2, -774798.1, -1098386.4, 9306.32, -0.0051728464, -0.26585203, -774530.7, 268278.34, 0.0, 10.002572, 9.998283 
2.015172e+3, 2.0358668e+2, -756539.8, -959680.4, 3661.4568, -0.007324891, -0.27330372, -756473.9, 188349.38, 0.0, 10.001683, 9.998992 
2.0151573e+3, 2.1358557e+2, -748614.56, -909513.44, 8933.776, -0.0051346365, -0.2883626, -748120.06, 98713.695, 0.0, 10.001083, 9.998953 
2.0151423e+3, 2.235848e+2, -704462.9, -749181.75, -7452.8403, -0.005390288, -0.29010096, -703253.5, 45587.617, 0.0, 10.000333, 9.999742 
2.0151271e+3, 2.3358479e+2, -755984.5, -725903.2, -11336.927, -0.0056702252, -0.2730519, -722109.06, -71267.22, 0.0, 9.999317, 9.999718 
2.0151117e+3, 2.4358486e+2, -736323.2, -584500.75, -19256.947, 0.0067453193, -0.26589745, -582096.3, -29254.662, 0.0, 9.99843, 10.000443 
2.0150965e+3, 2.5358528e+2, -737567.25, -537903.6, -23558.527, 0.030220877, -0.27499077, -535161.56, -80323.516, 0.0, 9.997765, 10.00041 
2.0150809e+3, 2.63586e+2, -691363.7, -370648.0, -40240.508, 0.02369772, -0.27225494, -365676.06, -8845.515, 0.0, 9.9970045, 10.001252 
2.0150647e+3, 2.7358747e+2, -729431.8, -341235.75, -43813.742, -0.008380958, -0.26167062, -336352.16, -77536.12, 0.0, 9.996083, 10.001225 
2.0150495e+3, 2.8358877e+2, -708158.44, -224786.7, -18103.496, 0.03205818, -0.270743, -224109.64, -63306.242, 0.0, 9.995318, 10.00172 
2.0150352e+3, 2.9359034e+2, -702419.2, -181825.42, -13926.604, 0.12971781, -0.28696108, -181453.13, -118663.76, 0.0, 9.99473, 10.001625 
2.0150182e+3, 3.0359268e+2, -761356.5, -142151.19, -57178.113, 0.016205596, -0.22763371, -136915.56, -136915.56, 0.0, 9.993806, 10.002008 
2.015002e+3, 3.1359488e+2, -820119.6, 4707.392, 21325.666, 0.06582804, -0.2112851, 5258.393, 5258.393, 0.0, 9.99265, 10.003573 
2.0253013e+3, 1.2362414e+2, -775480.25, -1711070.1, 44213.074, 0.14484392, -0.24234812, -773395.56, 955061.9, 0.07243002, 10.009051, 9.995675 
2.0252836e+3, 1.3361998e+2, -740721.1, -1591908.4, 6097.954, 0.03766722, -0.28891358, -740677.5, 889819.0, 0.051074747, 10.008154, 9.996258 
2.0252676e+3, 1.436163e+2, -739267.9, -1524751.6, 31817.479, 0.0725464, -0.28702587, -737981.1, 794550.9, 0.029769251, 10.00722, 9.996482 
2.0252518e+3, 1.5361288e+2, -777386.3, -1512255.3, 47543.12, 0.0656735, -0.27624446, -774323.25, 660243.9, 0.013052893, 10.006231, 9.996369 
2.025236e+3, 1.636099e+2, -723277.3, -1294243.6, 61506.758, 0.053238768, -0.26194838, -716726.7, 619870.7, 0.0036367697, 10.005263, 9.997661 
2.0252205e+3, 1.736078e+2, -755259.75, -1254646.5, 52500.195, 0.02835526, -0.2510276, -749800.1, 488818.44, 0.00040091938, 10.004334, 9.997705 
2.0252049e+3, 1.8360575e+2, -741592.6, -1131860.5, 40525.703, 0.0064876624, -0.24901432, -737428.8, 403209.97, 0.0000013920838, 10.003471, 9.998292 
2.0251893e+3, 1.9360393e+2, -758347.5, -1096514.6, 40661.293, -0.008420711, -0.2621973, -753527.06, 289128.75, 0.0, 10.002714, 9.998227 
2.0251738e+3, 2.0360239e+2, -723068.4, -935124.56, 40832.176, -0.014457448, -0.27214065, -715477.7, 229192.58, 0.0, 10.001879, 9.999064 
2.0251583e+3, 2.1360146e+2, -767843.3, -908328.0, 41765.574, -0.0072836857, -0.27862328, -756364.5, 90314.336, 0.0, 10.000909, 9.999043 
2.0251426e+3, 2.2360076e+2, -745900.9, -768912.25, 20671.244, -0.0039227516, -0.27885562, -733749.0, 14936.323, 0.0, 10.00005, 9.999742 
2.0251264e+3, 2.336006e+2, -748434.9, -724131.5, 16614.85, -0.004268797, -0.27292547, -715698.8, -65011.676, 0.0, 9.99938, 9.999699 
2.0251104e+3, 2.436006e+2, -708552.1, -570496.6, 12781.729, 0.0056042727, -0.27062088, -569323.25, -16635.836, 0.0, 9.998621, 10.000446 
2.0250942e+3, 2.536011e+2, -745808.7, -541261.5, 15118.271, 0.024821877, -0.2720329, -540150.1, -85466.99, 0.0, 9.997708, 10.000414 
2.0250778e+3, 2.636019e+2, -712183.75, -384203.28, 1652.5303, 0.019097608, -0.2648837, -384194.97, -27519.54, 0.0, 9.996879, 10.001219 
2.0250608e+3, 2.736032e+2, -716354.8, -338932.78, -2681.0867, -0.009437017, -0.25919607, -338913.75, -80252.06, 0.0, 9.996193, 10.001187 
2.0250447e+3, 2.8360447e+2, -695810.3, -216402.98, 18793.064, 0.022039402, -0.274179, -215667.42, -55017.69, 0.0, 9.995395, 10.0017395 
2.0250295e+3, 2.9360604e+2, -745351.0, -197901.94, 10951.248, 0.10569528, -0.28975338, -197682.95, -135047.4, 0.0, 9.994419, 10.001664 
2.0250121e+3, 3.0360866e+2, -773552.6, -120162.914, -36355.047, 0.042165108, -0.22033182, -118146.31, -118146.31, 0.0, 9.993605, 10.0022545 
2.0249948e+3, 3.1361082e+2, -777976.94, -2851.59, 60564.477, 0.049452167, -0.23077218, 1852.077, 1852.077, 0.0, 9.993061, 10.003322 
2.0353103e+3, 1.23640835e+2, -794935.0, -1751002.4, 13927.83, 0.14400369, -0.26817313, -794732.1, 933562.1, 0.07436623, 10.009057, 9.99539 
2.035292e+3, 1.3363706e+2, -761176.5, -1632683.3, -25442.688, 0.05441469, -0.24869883, -760434.4, 869896.94, 0.052504424, 10.008155, 9.995965 
2.035275e+3, 1.4363351e+2, -723085.4, -1490058.6, -3052.7886, 0.09214301, -0.22841379, -723073.2, 809292.7, 0.030667607, 10.007219, 9.996729 
2.0352581e+3, 1.5362969e+2, -754610.75, -1465290.5, 11117.342, 0.06964961, -0.28949255, -754436.9, 679966.1, 0.013496072, 10.006235, 9.996692 
2.0352413e+3, 1.6362657e+2, -737746.56, -1326270.1, 26711.762, 0.05123416, -0.2984108, -736536.6, 599897.4, 0.0037858095, 10.00527, 9.9974375 
2.035225e+3, 1.7362477e+2, -775768.56, -1299327.0, 18312.732, 0.037390634, -0.22674975, -775128.8, 463324.63, 0.00042494157, 10.004341, 9.997397 
2.0352085e+3, 1.8362278e+2, -742091.7, -1134670.9, 12176.712, 0.021570206, -0.2005357, -741714.4, 398759.34, 0.0000016874708, 10.003476, 9.998272 
2.035192e+3, 1.9362059e+2, -756493.06, -1093779.5, 13220.438, 0.0032555042, -0.25216103, -755975.6, 286518.22, 0.0, 10.002716, 9.998246 
2.0351756e+3, 2.0361887e+2, -721024.7, -931811.44, 6273.3086, -0.009224692, -0.28136814, -720838.2, 223671.48, 0.0, 10.001881, 9.999088 
2.035159e+3, 2.1361808e+2, -765590.06, -905133.1, 6036.1636, -0.012468617, -0.27450413, -765329.5, 81187.06, 0.0, 10.000913, 9.999064 
2.0351425e+3, 2.2361745e+2, -745853.5, -770496.25, -5308.0137, -0.012232796, -0.27016976, -744758.8, 3763.533, 0.0, 10.000054, 9.99973 
2.0351258e+3, 2.3361717e+2, -749461.4, -727381.3, -7514.892, -0.0048472774, -0.27434886, -725066.3, -74541.266, 0.0, 9.999382, 9.999677 
2.035109e+3, 2.4361716e+2, -703099.3, -560421.56, -19634.496, 0.0072216853, -0.27620864, -557768.9, -5243.5474, 0.0, 9.998624, 10.000515 
2.035092e+3, 2.5361776e+2, -739156.5, -529315.6, -18736.166, 0.022102185, -0.27205434, -527655.8, -73136.43, 0.0, 9.997713, 10.000495 
2.0350745e+3, 2.6361856e+2, -714192.44, -390433.53, -25154.965, 0.017338991, -0.26908773, -388490.75, -31979.133, 0.0, 9.996885, 10.001174 
2.035057e+3, 2.7361962e+2, -720170.6, -348478.4, -28329.303, -0.008538447, -0.2815413, -346331.63, -87831.36, 0.0, 9.996197, 10.001121 
2.03504e+3, 2.8362092e+2, -703040.1, -232735.31, -17094.553, 0.007647008, -0.28590274, -232114.78, -71626.45, 0.0, 9.995398, 10.001627 
2.0350236e+3, 2.9362285e+2, -751418.1, -211624.05, -26885.563, 0.06505435, -0.25177214, -210288.27, -147817.14, 0.0, 9.994421, 10.00157 
2.0350058e+3, 3.0362514e+2, -748555.75, -69635.14, -59131.51, 0.058396082, -0.22779962, -64523.49, -64523.49, 0.0, 9.993608, 10.002602 
2.0349878e+3, 3.1362748e+2, -790497.3, -31472.865, 37764.227, 0.05301435, -0.25411204, -29598.586, -29598.586, 0.0, 9.99307, 10.003123 
2.0453192e+3, 1.2365883e+2, -769569.1, -1744713.1, 40019.836, 0.12770699, -0.25300044, -767929.5, 960189.1, 0.07637604, 10.009297, 9.995317 
2.0453e+3, 1.3365479e+2, -770715.9, -1645006.8, 13528.947, 0.06231666, -0.25148875, -770506.56, 859652.0, 0.053991143, 10.008133, 9.99589 
2.0452823e+3, 1.4365126e+2, -733890.2, -1484898.1, 44947.04, 0.10617811, -0.22887567, -731209.7, 800983.44, 0.031604845, 10.007106, 9.9968195 
2.0452644e+3, 1.5364772e+2, -735658.4, -1443191.3, 45929.73, 0.065280534, -0.27163333, -732689.25, 701537.9, 0.013961722, 10.006318, 9.996802 
2.0452465e+3, 1.6364469e+2, -715006.7, -1326564.9, 55600.746, 0.04059906, -0.27511123, -709992.75, 626264.56, 0.003944886, 10.005479, 9.997334 
2.0452294e+3, 1.7364258e+2, -755481.4, -1305534.1, 57752.97, 0.040938724, -0.2193784, -749483.0, 488796.8, 0.00045161386, 10.004552, 9.997252 
2.0452121e+3, 1.836404e+2, -722467.56, -1127840.0, 60296.57, 0.03253141, -0.19966733, -713688.94, 426612.8, 0.000002078816, 10.003624, 9.998246 
2.0451948e+3, 1.9363831e+2, -760092.4, -1096315.5, 59277.637, 0.0099158455, -0.24190713, -749947.56, 292373.44, 0.0, 10.002698, 9.998236 
2.0451775e+3, 2.0363662e+2, -736844.5, -946118.56, 46199.4, -0.005791401, -0.26527986, -727099.3, 217237.34, 0.0, 10.001803, 9.999025 
2.0451601e+3, 2.1363576e+2, -763749.2, -912441.75, 38229.81, -0.010155257, -0.25891688, -754495.9, 91848.63, 0.0, 10.000963, 9.998989 
2.0451427e+3, 2.2363502e+2, -735307.3, -759315.44, 28580.426, -0.010690954, -0.26066217, -716312.4, 32038.658, 0.0, 10.000103, 9.999782 
2.045125e+3, 2.3363468e+2, -770045.44, -729396.56, 32748.836, -0.004166643, -0.27898762, -711177.94, -60824.19, 0.0, 9.999209, 9.999744 
2.0451075e+3, 2.4363466e+2, -736784.06, -578702.6, 21317.824, 0.004638145, -0.284086, -575878.25, -23524.682, 0.0, 9.998404, 10.000494 
2.0450896e+3, 2.5363535e+2, -737459.94, -532713.2, 13362.613, 0.014615788, -0.26796904, -531844.8, -77497.79, 0.0, 9.9977455, 10.000454 
2.0450716e+3, 2.6363608e+2, -697779.8, -386676.25, 2299.2485, 0.013631801, -0.26752678, -386659.28, -30319.318, 0.0, 9.997019, 10.001134 
2.0450532e+3, 2.7363694e+2, -727844.0, -356387.47, 613.0526, -0.000035118235, -0.29863542, -356386.44, -98055.55, 0.0, 9.996165, 10.00108 
2.0450352e+3, 2.8363827e+2, -723931.4, -247714.53, 9690.532, 0.005370323, -0.2899316, -247517.42, -87199.18, 0.0, 9.995278, 10.00158 
2.0450176e+3, 2.936406e+2, -755136.06, -217177.6, 4974.3545, 0.029366624, -0.2112729, -217131.6, -154834.14, 0.0, 9.994414, 10.0015335 
2.0449995e+3, 3.036423e+2, -727384.75, -51192.914, -24172.947, 0.059118364, -0.24752115, -50329.867, -50329.867, 0.0, 9.993721, 10.002672 
2.0449808e+3, 3.1364483e+2, -794362.2, -39380.227, 43322.984, 0.04834674, -0.2612567, -36902.367, -36902.367, 0.0, 9.993072, 10.003066 
2.0553282e+3, 1.2367804e+2, -765608.44, -1730283.4, 1412.8085, 0.09650211, -0.20214573, -765606.4, 962324.7, 0.0784493, 10.009293, 9.995419 
2.055308e+3, 1.3367318e+2, -764501.75, -1629320.8, -27622.205, 0.061752737, -0.29437223, -763620.44, 866357.94, 0.055530306, 10.008135, 9.995997 
2.0552896e+3, 1.4366956e+2, -737969.6, -1493641.5, 14780.169, 0.114520304, -0.28384742, -737680.7, 794333.1, 0.03257939, 10.007111, 9.996757 
2.0552705e+3, 1.5366694e+2, -740879.9, -1455355.8, 17253.598, 0.05294122, -0.2250241, -740463.5, 693576.5, 0.014449297, 10.006323, 9.996717 
2.0552519e+3, 1.6366416e+2, -715081.3, -1327996.4, 22079.816, 0.021836922, -0.19698842, -714286.94, 621781.0, 0.0041141314, 10.005483, 9.997324 
2.0552339e+3, 1.7366119e+2, -755517.7, -1306668.6, 23406.105, 0.03934452, -0.22784953, -754525.44, 483572.5, 0.00048118498, 10.004554, 9.997245 
2.0552158e+3, 1.8365867e+2, -724670.1, -1133592.1, 25950.184, 0.039580893, -0.24275659, -723029.9, 417093.06, 0.0000025908514, 10.003627, 9.998207 
2.0551975e+3, 1.9365706e+2, -762226.2, -1102804.6, 24983.635, 0.01165542, -0.23133433, -760403.25, 281734.56, 0.0, 10.002704, 9.99819 
2.0551792e+3, 2.0365557e+2, -746383.44, -968210.4, 14915.911, -0.004311848, -0.22558494, -745384.94, 198766.94, 0.0, 10.001811, 9.998872 
2.0551611e+3, 2.1365438e+2, -775312.5, -938045.6, 7605.5586, -0.00078920374, -0.23260011, -774957.9, 71205.52, 0.0, 10.000967, 9.998813 
2.0551428e+3, 2.2365345e+2, -727375.75, -744367.9, -4018.2263, 0.0001836792, -0.25039285, -726473.44, 21698.4, 0.0, 10.000107, 9.999884 
2.0551242e+3, 2.3365305e+2, -758822.44, -708269.6, -164.36346, -0.0026593613, -0.28647768, -708269.06, -58095.438, 0.0, 9.999216, 9.999887 
2.0551057e+3, 2.4365304e+2, -743785.3, -595671.8, -4107.18, -0.002265602, -0.2939171, -595558.0, -43385.156, 0.0, 9.998412, 10.000376 
2.0550871e+3, 2.5365376e+2, -748260.25, -556951.06, -10796.579, 0.0025345837, -0.25985757, -556343.7, -102177.12, 0.0, 9.997751, 10.000287 
2.0550683e+3, 2.6365435e+2, -700023.56, -392950.1, -28580.65, 0.00799304, -0.26039648, -390312.63, -34151.504, 0.0, 9.997023, 10.00109 
2.0550495e+3, 2.73655e+2, -728584.06, -359861.0, -31847.977, 0.015389199, -0.31096724, -357130.38, -98976.016, 0.0, 9.996171, 10.001055 
2.0550305e+3, 2.836565e+2, -722702.1, -246686.55, -23955.396, 0.014669278, -0.2865451, -245484.03, -85343.76, 0.0, 9.995282, 10.001587 
2.0550117e+3, 2.9365927e+2, -754576.56, -216604.39, -26783.291, -0.0012311203, -0.16718446, -215274.25, -153159.0, 0.0, 9.994414, 10.001539 
2.0549932e+3, 3.0366006e+2, -742600.9, -83926.7, -47794.7, 0.04389511, -0.28063133, -80476.695, -80476.695, 0.0, 9.993723, 10.002448 
2.0549738e+3, 3.1366283e+2, -784635.2, -21982.73, 2426.5198, 0.04094808, -0.24419203, -21975.01, -21975.01, 0.0, 9.99308, 10.003183 
2.0653372e+3, 1.2369764e+2, -787083.56, -1732911.1, 35907.367, 0.08197368, -0.21678741, -785722.3, 942016.5, 0.0805734, 10.009118, 9.995484 
2.0653161e+3, 1.33693e+2, -760344.94, -1619658.1, 3367.841, 0.05621981, -0.29258013, -760331.7, 869452.56, 0.057113606, 10.008146, 9.996061 
2.0652966e+3, 1.436895e+2, -726948.75, -1497683.1, 52778.383, 0.11163297, -0.26903364, -723351.4, 808467.44, 0.033586975, 10.007241, 9.996664 
2.0652768e+3, 1.5368675e+2, -731669.75, -1464381.8, 53838.234, 0.047924407, -0.21183674, -727735.0, 706111.9, 0.014957275, 10.006451, 9.996593 
2.0652573e+3, 1.6368386e+2, -703168.6, -1323110.8, 50822.727, 0.01708853, -0.18681426, -699029.8, 636846.2, 0.004293449, 10.005571, 9.9973135 
2.0652385e+3, 1.7368083e+2, -755900.56, -1305970.9, 51707.758, 0.039326426, -0.22344844, -751082.1, 486824.1, 0.00051386544, 10.00455, 9.997251 
2.0652194e+3, 1.8367827e+2, -726640.56, -1140728.1, 59256.85, 0.0421707, -0.24002035, -718327.6, 421603.78, 0.0000032571547, 10.003642, 9.998149 
2.0652005e+3, 1.9367665e+2, -735247.8, -1097694.8, 56545.85, 0.012841223, -0.22245291, -726630.9, 315315.6, 0.0, 10.002925, 9.998117 
2.0651811e+3, 2.036751e+2, -712077.5, -959427.0, 43092.64, -0.0033594144, -0.21339308, -704785.0, 239176.11, 0.0, 10.002082, 9.9988 
2.065162e+3, 2.1367383e+2, -772230.4, -944811.56, 41690.207, 0.0023396409, -0.22276804, -762687.0, 83286.734, 0.0, 10.001027, 9.998736 
2.0651428e+3, 2.2367284e+2, -729205.56, -747692.4, 35160.75, 0.0041979332, -0.24120468, -702093.5, 45889.36, 0.0, 10.000108, 9.999859 
2.0651235e+3, 2.3367245e+2, -731373.9, -697202.3, 27659.893, -0.00031476843, -0.27378592, -681776.6, -31792.252, 0.0, 9.999416, 9.999866 
2.0651042e+3, 2.436724e+2, -712647.25, -584912.56, 19360.387, -0.0048017916, -0.28155088, -582042.6, -30058.938, 0.0, 9.998647, 10.000335 
2.0650847e+3, 2.53673e+2, -752362.7, -563875.75, 20824.166, -0.009263112, -0.25633132, -561602.5, -107623.984, 0.0, 9.997747, 10.000239 
2.0650652e+3, 2.6367345e+2, -720323.44, -405935.28, 7715.9077, -0.0031171395, -0.26274118, -405746.03, -49772.047, 0.0, 9.9969, 10.001059 
2.0650457e+3, 2.736741e+2, -735678.44, -367058.63, 3386.7473, 0.019351782, -0.30889422, -367027.5, -109059.984, 0.0, 9.996141, 10.001019 
2.0650259e+3, 2.836757e+2, -709257.1, -234276.38, 10423.419, 0.01875043, -0.27618608, -234047.73, -74095.055, 0.0, 9.995352, 10.001637 
2.0650059e+3, 2.9367852e+2, -736008.25, -202695.17, 12434.024, -0.016052514, -0.15618542, -202405.42, -140478.81, 0.0, 9.994523, 10.00158 
2.0649865e+3, 3.0367896e+2, -761491.25, -122431.37, -5390.4604, 0.032853942, -0.29372725, -122385.91, -122385.91, 0.0, 9.993724, 10.002181 
2.0649666e+3, 3.1368172e+2, -798018.2, -1266.9977, 26745.438, 0.024751067, -0.23450704, -370.2131, -370.2131, 0.0, 9.992875, 10.003424 
2.0753464e+3, 1.2371764e+2, -789006.94, -1729803.4, 3202.7854, 0.08037017, -0.290845, -788996.06, 938545.9, 0.08273538, 10.009106, 9.995512 
2.0753242e+3, 1.3371418e+2, -759898.9, -1616776.9, -30795.793, 0.045906134, -0.24994007, -758793.5, 870783.4, 0.05872985, 10.008148, 9.996082 
2.0753036e+3, 1.43711e+2, -736182.06, -1517326.9, 23506.115, 0.0984596, -0.19125628, -735475.4, 796133.7, 0.03462048, 10.007248, 9.996523 
2.0752832e+3, 1.5370712e+2, -743903.5, -1489856.5, 25119.365, 0.048970133, -0.22977164, -743058.56, 690589.4, 0.015482765, 10.00645, 9.99642 
2.075263e+3, 1.637038e+2, -704380.25, -1325608.8, 14363.663, 0.024477491, -0.23877011, -704048.3, 631633.06, 0.0044823387, 10.005569, 9.997299 
2.0752428e+3, 1.7370145e+2, -754070.0, -1304233.8, 13862.314, 0.040446024, -0.20716432, -753720.94, 483984.06, 0.00054977846, 10.004556, 9.997261 
2.0752232e+3, 1.8369915e+2, -731480.5, -1153329.9, 31530.188, 0.040417504, -0.19516845, -729136.9, 410590.9, 0.0000041218454, 10.003651, 9.99806 
2.075203e+3, 1.9369704e+2, -742406.2, -1113734.4, 30447.73, 0.013407145, -0.21506543, -739926.1, 301821.25, 0.0, 10.002928, 9.998008 
2.0751834e+3, 2.0369522e+2, -712046.8, -960167.75, 5714.7124, -0.0029458252, -0.22680852, -711915.25, 231849.27, 0.0, 10.002083, 9.9987955 
2.0751631e+3, 2.1369404e+2, -770568.7, -943447.3, 2732.1455, -0.00076677173, -0.22848742, -770525.5, 75250.65, 0.0, 10.001033, 9.998744 
2.075143e+3, 2.2369312e+2, -738722.56, -770193.0, 8189.1406, 0.0013887315, -0.23280662, -736719.2, 11065.588, 0.0, 10.000117, 9.9997015 
2.075123e+3, 2.3369278e+2, -743485.5, -724398.1, 2542.2847, 0.002755847, -0.24179861, -724065.4, -74278.77, 0.0, 9.999423, 9.999678 
2.0751028e+3, 2.4369264e+2, -710025.94, -581200.06, -13009.946, -0.0031892841, -0.24816562, -579899.3, -28112.543, 0.0, 9.9986515, 10.00036 
2.0750822e+3, 2.5369292e+2, -747231.56, -555176.6, -12590.898, -0.021137007, -0.2572725, -554354.7, -100571.32, 0.0, 9.997753, 10.000298 
2.075062e+3, 2.6369336e+2, -721463.5, -410237.78, -21442.424, -0.019842383, -0.274074, -408767.4, -52988.27, 0.0, 9.996905, 10.001028 
2.0750417e+3, 2.7369422e+2, -738862.3, -375202.44, -25345.938, 0.011943103, -0.29228404, -373444.4, -115673.36, 0.0, 9.996145, 10.000962 
2.0750213e+3, 2.836958e+2, -702733.25, -222164.81, -20788.479, 0.017705142, -0.25915766, -221267.22, -61510.973, 0.0, 9.995356, 10.00172 
2.0750006e+3, 2.9369834e+2, -730572.0, -193214.83, -18404.467, -0.015348597, -0.17927451, -192585.2, -130852.77, 0.0, 9.994528, 10.001645 
2.0749803e+3, 3.0369896e+2, -783767.5, -170156.63, -37348.3, 0.024771359, -0.284976, -167891.72, -167891.72, 0.0, 9.993727, 10.001853 
2.0749593e+3, 3.137013e+2, -772509.6, 50991.97, -20605.025, 0.0030299735, -0.23728307, 51507.207, 51507.207, 0.0, 9.992874, 10.003784 
2.0853552e+3, 1.23739295e+2, -840896.94, -1763438.3, 40392.785, 0.08200056, -0.2931045, -839131.75, 888197.5, 0.084916644, 10.008766, 9.995445 
2.0853323e+3, 1.3373578e+2, -764842.3, -1626767.8, -407.3297, 0.035168573, -0.2499901, -764842.1, 864523.2, 0.06036395, 10.008163, 9.996 
2.085311e+3, 1.4373258e+2, -718249.0, -1509225.3, 49480.563, 0.08423665, -0.18725643, -715165.75, 816232.06, 0.035669927, 10.007388, 9.996511 
2.0852898e+3, 1.5372863e+2, -759052.56, -1497152.4, 62084.36, 0.052425664, -0.23170206, -753866.8, 679570.25, 0.016020866, 10.00635, 9.996418 
2.0852685e+3, 1.6372527e+2, -729396.06, -1348253.3, 58357.957, 0.0316878, -0.2402647, -723941.06, 611530.0, 0.0046791444, 10.005446, 9.997202 
2.0852475e+3, 1.7372294e+2, -732089.1, -1306255.4, 49048.973, 0.028097168, -0.1964091, -727929.2, 509565.84, 0.0005887133, 10.004764, 9.997146 
2.0852266e+3, 1.8372053e+2, -693633.1, -1141627.5, 60694.09, 0.023851546, -0.1828594, -685555.94, 453962.78, 0.0000052304576, 10.003941, 9.997999 
2.0852064e+3, 1.937182e+2, -752029.3, -1124365.8, 62660.484, 0.01808936, -0.21945973, -741767.0, 299773.34, 0.0, 10.00289, 9.9979515 
2.0851853e+3, 2.037163e+2, -728052.0, -968110.7, 40415.3, 0.009367803, -0.23774177, -721430.5, 222127.8, 0.0, 10.001977, 9.998791 
2.0851643e+3, 2.1371521e+2, -733486.4, -925409.44, 36392.992, -0.003383086, -0.22817495, -726817.2, 118751.51, 0.0, 10.001289, 9.998743 
2.085143e+3, 2.237143e+2, -694810.5, -765955.06, 42374.477, -0.0069650174, -0.22358824, -675056.6, 72520.664, 0.0, 10.000494, 9.999548 
2.0851226e+3, 2.3371382e+2, -742378.8, -744000.4, 36761.54, 0.0039538564, -0.22943082, -706419.06, -56837.773, 0.0, 9.99952, 9.9994955 
2.0851016e+3, 2.4371354e+2, -713125.56, -580244.0, 21155.234, 0.0010022699, -0.23959354, -576957.3, -25374.26, 0.0, 9.998623, 10.000379 
2.0850801e+3, 2.537138e+2, -729241.25, -541091.3, 20568.795, -0.024548037, -0.26034263, -538868.94, -85289.35, 0.0, 9.997856, 10.000343 
2.0850588e+3, 2.6371422e+2, -706458.8, -403935.97, 10744.547, -0.02962579, -0.2737879, -403554.8, -47980.316, 0.0, 9.997015, 10.001018 
2.0850375e+3, 2.7371526e+2, -750945.6, -383347.3, 9003.665, -0.0017483855, -0.27189836, -383126.9, -125561.95, 0.0, 9.996075, 10.000938 
2.0850164e+3, 2.8371674e+2, -715534.9, -224995.72, 16330.656, 0.0047514252, -0.25141734, -224452.66, -64901.184, 0.0, 9.995256, 10.001747 
2.0849949e+3, 2.9371884e+2, -725286.6, -190010.97, 13420.51, -0.020840151, -0.21762355, -189674.7, -128143.16, 0.0, 9.994564, 10.001648 
2.0849739e+3, 3.0372e+2, -785164.1, -176783.78, -2016.819, 0.016941376, -0.26337776, -176777.1, -176777.1, 0.0, 9.993747, 10.001798 
2.0849518e+3, 3.13722e+2, -776111.3, 62975.06, 22331.225, -0.008295663, -0.2451432, 63568.957, 63568.957, 0.0, 9.992794, 10.003903 
2.095364e+3, 1.2376247e+2, -854084.9, -1788023.4, 18582.447, 0.085493416, -0.23423523, -853715.3, 873386.6, 0.087094694, 10.008761, 9.995279 
2.0953403e+3, 1.337578e+2, -778643.0, -1654576.8, -21925.785, 0.02320008, -0.2887823, -778094.5, 851054.9, 0.062000252, 10.008164, 9.9958105 
2.0953181e+3, 1.4375429e+2, -711517.44, -1494856.5, 13901.954, 0.06830387, -0.24921885, -711270.8, 819913.8, 0.036725603, 10.007392, 9.996614 
2.0952961e+3, 1.5375125e+2, -748506.44, -1475852.0, 23405.44, 0.05804087, -0.21876475, -747754.0, 685460.94, 0.016566282, 10.006354, 9.996563 
2.0952739e+3, 1.6374819e+2, -741801.5, -1375667.3, 31104.453, 0.03852349, -0.19599056, -740278.8, 594967.06, 0.0048814174, 10.005451, 9.997012 
2.095252e+3, 1.7374523e+2, -748345.94, -1341597.5, 23904.92, 0.002980563, -0.190817, -747384.25, 489892.4, 0.00063006405, 10.004767, 9.996902 
2.0952302e+3, 1.8374245e+2, -695734.94, -1147512.0, 23552.928, -0.006508393, -0.20053566, -694510.4, 444794.03, 0.0000065980935, 10.003944, 9.997959 
2.0952092e+3, 1.9374011e+2, -752065.9, -1126417.6, 23691.338, 0.026460158, -0.23506826, -750572.5, 290753.22, 0.0, 10.002895, 9.997936 
2.0951875e+3, 2.0373827e+2, -728025.4, -970299.06, 13565.743, 0.032436047, -0.24633016, -727268.1, 216074.75, 0.0, 10.001984, 9.998775 
2.0951656e+3, 2.1373731e+2, -733986.7, -928229.8, 11432.88, -0.005733739, -0.22185317, -733316.06, 112035.78, 0.0, 10.001295, 9.998722 
2.0951435e+3, 2.2373636e+2, -705491.56, -789517.5, 7619.6313, -0.020517107, -0.21371493, -704806.2, 42554.813, 0.0, 10.000498, 9.999386 
2.095122e+3, 2.3373553e+2, -754575.94, -771059.6, 775.3561, 0.0031006606, -0.23581518, -754539.56, -105170.45, 0.0, 9.999525, 9.999309 
2.0951001e+3, 2.4373507e+2, -711901.3, -579820.4, -8095.1704, 0.0074149347, -0.25454536, -579326.06, -27953.135, 0.0, 9.998629, 10.00038 
2.0950781e+3, 2.5373542e+2, -726571.94, -537499.25, -7936.0396, -0.019932315, -0.26576856, -537166.75, -83798.83, 0.0, 9.997862, 10.000367 
2.0950559e+3, 2.6373604e+2, -705716.56, -404217.25, -24111.967, -0.03282933, -0.26244783, -402301.13, -46940.348, 0.0, 9.99702, 10.001015 
2.0950334e+3, 2.7373722e+2, -750203.1, -383600.3, -26128.27, -0.022096744, -0.24696335, -381747.47, -124397.56, 0.0, 9.996079, 10.0009365 
2.0950115e+3, 2.837384e+2, -717614.8, -230952.39, -10735.945, -0.020240368, -0.2528938, -230715.67, -71376.586, 0.0, 9.99526, 10.001706 
2.0949896e+3, 2.9373989e+2, -729019.1, -199383.4, -13909.267, -0.032294292, -0.2727286, -199018.36, -137693.47, 0.0, 9.994569, 10.001583 
2.0949675e+3, 3.0374205e+2, -769649.4, -145856.44, -37915.414, 0.009097268, -0.22719422, -143560.31, -143560.31, 0.0, 9.993749, 10.00201 
2.0949449e+3, 3.13744e+2, -788383.7, 36845.074, -22340.668, -0.0094719995, -0.23765008, 37449.44, 37449.44, 0.0, 9.992794, 10.003726 
2.1053725e+3, 1.2378566e+2, -866700.94, -1787029.3, 37061.74, 0.075269856, -0.22763771, -865210.9, 861663.7, 0.08925032, 10.008656, 9.995337 
2.1053484e+3, 1.3378085e+2, -779809.5, -1649654.1, 11647.957, 0.014658767, -0.29841676, -779653.56, 849269.4, 0.06362464, 10.008148, 9.995851 
2.1053255e+3, 1.4377733e+2, -709224.06, -1499388.8, 37018.023, 0.06111861, -0.26110947, -707493.6, 823464.7, 0.037777834, 10.007444, 9.996555 
2.1053025e+3, 1.5377426e+2, -741416.8, -1480375.9, 29103.773, 0.058928028, -0.22363746, -740272.3, 692716.7, 0.017113028, 10.006444, 9.996487 
2.1052796e+3, 1.637712e+2, -728099.94, -1368245.9, 44232.957, 0.04226968, -0.19798645, -725058.0, 609962.25, 0.0050861384, 10.005546, 9.997017 
2.1052568e+3, 1.737682e+2, -740176.4, -1335861.3, 55795.05, 0.00081783294, -0.19743712, -734995.4, 502055.84, 0.0006729458, 10.004819, 9.996916 
2.1052341e+3, 1.8376543e+2, -689059.5, -1151266.3, 55344.797, -0.012633213, -0.20408306, -682524.9, 456554.22, 0.000008193781, 10.004024, 9.997893 
2.1052122e+3, 1.9376318e+2, -726104.94, -1122503.0, 49156.55, 0.019726973, -0.22239637, -720100.1, 321000.13, 0.0, 10.003114, 9.997857 
2.1051897e+3, 2.037613e+2, -698166.4, -960018.9, 41617.61, 0.029138234, -0.23000242, -691711.0, 251406.84, 0.0, 10.002209, 9.998735 
2.1051668e+3, 2.1376014e+2, -733673.94, -932001.6, 38629.26, 0.0005680289, -0.22250745, -726415.56, 118712.875, 0.0, 10.001316, 9.998685 
2.1051441e+3, 2.2375908e+2, -716730.4, -800326.1, 33640.31, -0.013410749, -0.22001573, -704874.44, 42264.008, 0.0, 10.000446, 9.999335 
2.1051213e+3, 2.3375832e+2, -746228.6, -773085.6, 35092.06, -0.002689107, -0.22916012, -722083.5, -72937.266, 0.0, 9.999611, 9.999251 
2.1050988e+3, 2.4375784e+2, -692212.6, -572991.6, 33865.953, -0.0026757775, -0.24540922, -564043.3, -12892.964, 0.0, 9.998778, 10.000353 
2.1050759e+3, 2.53758e+2, -716321.25, -535565.56, 30602.527, -0.020677637, -0.269834, -530525.0, -77378.375, 0.0, 9.997947, 10.000338 
2.1050529e+3, 2.637586e+2, -691892.06, -399952.53, 9115.182, -0.032257352, -0.26837462, -399668.2, -44528.387, 0.0, 9.9971285, 10.000991 
2.1050295e+3, 2.7375987e+2, -715018.94, -368859.97, 5608.2085, -0.03255502, -0.24112655, -368769.13, -111641.11, 0.0, 9.996333, 10.000914 
2.1050066e+3, 2.83761e+2, -696973.7, -226584.84, 19100.734, -0.03414203, -0.2488978, -225810.52, -66692.805, 0.0, 9.995429, 10.001654 
2.1049836e+3, 2.9376233e+2, -760085.5, -218895.27, 15364.9795, -0.038685348, -0.28019583, -218459.39, -157354.19, 0.0, 9.994378, 10.00154 
2.1049611e+3, 3.037647e+2, -776926.0, -123256.336, -674.6107, 0.0009079947, -0.21914262, -123255.64, -123255.64, 0.0, 9.993589, 10.002241 
2.1049374e+3, 3.1376672e+2, -772843.44, 4086.7136, 5685.341, -0.016763419, -0.24399199, 4128.315, 4128.315, 0.0, 9.993076, 10.003363 
2.115381e+3, 1.23808935e+2, -852059.06, -1751240.5, 18605.947, 0.052032024, -0.26674426, -851674.2, 874971.9, 0.09136891, 10.008662, 9.995579 
2.1153565e+3, 1.3380492e+2, -766516.44, -1616941.8, -6875.3887, 0.008969642, -0.28188005, -766460.9, 862225.4, 0.065221764, 10.0081415, 9.996085 
2.1153328e+3, 1.4380158e+2, -726208.4, -1531390.4, 2350.627, 0.06125759, -0.22874546, -726201.56, 804518.25, 0.038813464, 10.007435, 9.996334 
2.1153088e+3, 1.5379772e+2, -761192.75, -1522501.5, -7863.512, 0.05488674, -0.24471778, -761111.5, 671647.6, 0.0176526, 10.006446, 9.996199 
2.1152851e+3, 1.6379432e+2, -714927.3, -1342572.5, 16497.627, 0.04283973, -0.24158971, -714493.94, 620299.5, 0.0052894983, 10.005551, 9.997191 
2.1152617e+3, 1.7379183e+2, -723568.1, -1301774.3, 28893.844, 0.019552773, -0.21516415, -722127.8, 514691.2, 0.0007163421, 10.004818, 9.997152 
2.1152383e+3, 1.8378942e+2, -696287.25, -1166208.9, 22149.934, 0.003066849, -0.19449775, -695245.5, 443597.84, 0.000009968405, 10.00402, 9.997794 
2.1152149e+3, 1.9378732e+2, -736079.9, -1144495.9, 15426.796, -0.0014359673, -0.18319055, -735497.94, 305366.44, 0.0, 10.003116, 9.997706 
2.1151914e+3, 2.0378533e+2, -702149.06, -970085.4, 8630.386, 0.0013817394, -0.19075716, -701871.4, 241012.33, 0.0, 10.0022135, 9.998666 
2.1151683e+3, 2.1378364e+2, -737384.9, -941186.4, 5922.448, 0.01496788, -0.2302783, -737212.9, 107685.99, 0.0, 10.00132, 9.998622 
2.1151447e+3, 2.2378242e+2, -712812.3, -793934.4, 2651.7786, 0.012797451, -0.24139288, -712725.75, 34184.258, 0.0, 10.000451, 9.999378 
2.1151209e+3, 2.3378211e+2, -741126.94, -764771.6, 4366.8794, -0.013567456, -0.20985895, -740346.25, -91432.97, 0.0, 9.999619, 9.999307 
2.1150972e+3, 2.4378178e+2, -695529.4, -582099.56, 2934.8914, -0.028623814, -0.21348031, -582023.6, -31107.59, 0.0, 9.998785, 10.000289 
2.1150738e+3, 2.537815e+2, -721526.4, -548366.2, -411.1543, -0.026728727, -0.27233732, -548365.2, -95448.805, 0.0, 9.997952, 10.000249 
2.1150501e+3, 2.6378182e+2, -695062.44, -408380.56, -21044.027, -0.028157836, -0.29083765, -406844.03, -51931.832, 0.0, 9.997133, 10.000932 
2.1150258e+3, 2.7378312e+2, -718050.6, -376825.13, -24532.514, -0.033605386, -0.25494188, -375070.38, -118170.305, 0.0, 9.996338, 10.000858 
2.115002e+3, 2.837844e+2, -701317.4, -237103.97, -20496.623, -0.037331477, -0.23965265, -236200.73, -77312.63, 0.0, 9.995432, 10.001581 
2.114978e+3, 2.9378602e+2, -761403.4, -222888.45, -24604.816, -0.040288348, -0.23818375, -221766.6, -160893.56, 0.0, 9.99438, 10.0015135 
2.1149546e+3, 3.0378792e+2, -759567.0, -88332.516, -21360.123, -0.007909538, -0.2411347, -87653.48, -87653.48, 0.0, 9.993591, 10.002481 
2.1149305e+3, 3.1379047e+2, -811475.7, -77765.37, -20208.473, -0.029058171, -0.22966973, -77209.195, -77209.195, 0.0, 9.993081, 10.0028 
2.1253896e+3, 1.23833135e+2, -829183.2, -1734711.1, 43651.105, 0.03245818, -0.2858938, -827083.8, 899324.44, 0.09343518, 10.008839, 9.995607 
2.1253645e+3, 1.3382934e+2, -796584.1, -1629667.4, 3939.5698, 0.012099662, -0.2798875, -796565.5, 831881.0, 0.066773094, 10.007929, 9.996093 
2.1253401e+3, 1.4382613e+2, -768931.2, -1547142.4, 9848.759, 0.06699365, -0.21703468, -768806.56, 761672.5, 0.039815944, 10.007115, 9.996378 
2.1253152e+3, 1.5382214e+2, -755405.75, -1514275.5, 21101.896, 0.040197175, -0.24873555, -754819.44, 677700.06, 0.018174428, 10.00647, 9.996242 
2.1252905e+3, 1.638187e+2, -694109.8, -1330502.6, 51695.94, 0.02654352, -0.25418973, -689937.75, 644616.6, 0.005486946, 10.005692, 9.997206 
2.1252666e+3, 1.7381623e+2, -739763.4, -1308325.0, 47506.7, 0.031153463, -0.22422309, -735821.25, 500758.13, 0.0007590703, 10.004704, 9.99716 
2.1252425e+3, 1.8381388e+2, -726077.25, -1180365.4, 36224.56, 0.02307814, -0.19755644, -723206.9, 415396.38, 0.000011870317, 10.003818, 9.997793 
2.125218e+3, 1.9381188e+2, -740213.5, -1146753.6, 39283.926, -0.003942469, -0.17688, -736452.3, 304171.75, 0.0, 10.003092, 9.997701 
2.1251936e+3, 2.0380989e+2, -692150.0, -968224.6, 36273.746, -0.010493361, -0.18074723, -687463.56, 255179.95, 0.0, 10.002298, 9.998636 
2.1251695e+3, 2.138081e+2, -729251.25, -940976.25, 34560.27, 0.014996019, -0.22539765, -723752.7, 120906.78, 0.0, 10.001394, 9.998586 
2.1251452e+3, 2.2380686e+2, -698873.7, -785190.44, 34468.293, 0.016556043, -0.2402951, -686798.8, 59872.164, 0.0, 10.000541, 9.999393 
2.1251206e+3, 2.3380657e+2, -718359.5, -751509.6, 33620.727, -0.01904408, -0.20948754, -697450.1, -48776.16, 0.0, 9.999767, 9.999325 
2.1250959e+3, 2.4380624e+2, -677923.9, -578562.44, 28352.5, -0.037261896, -0.2085642, -571041.44, -20365.03, 0.0, 9.99893, 10.000242 
2.1250717e+3, 2.5380602e+2, -719874.25, -554123.4, 26049.143, -0.02920127, -0.25772163, -550125.94, -97449.26, 0.0, 9.997995, 10.000187 
2.1250471e+3, 2.6380622e+2, -691746.2, -405699.84, 13072.146, -0.029082479, -0.28447947, -405103.72, -50430.066, 0.0, 9.997154, 10.000938 
2.1250223e+3, 2.7380726e+2, -703024.44, -368233.0, 14886.111, -0.038715895, -0.27583936, -367572.4, -110908.76, 0.0, 9.996438, 10.000868 
2.1249974e+3, 2.8380862e+2, -690192.5, -240741.77, 10711.775, -0.041786164, -0.24620461, -240486.63, -81836.18, 0.0, 9.99555, 10.001498 
2.1249723e+3, 2.9381067e+2, -751845.2, -225746.44, 4950.149, -0.040749975, -0.19039442, -225699.88, -165068.7, 0.0, 9.994481, 10.001443 
2.124948e+3, 3.0381173e+2, -748984.4, -84136.266, 12460.564, -0.02558025, -0.27458736, -83902.81, -83902.81, 0.0, 9.99367, 10.00247 
2.1249233e+3, 3.138146e+2, -823160.44, -94962.125, -6418.267, -0.03699248, -0.22600804, -94905.555, -94905.555, 0.0, 9.993053, 10.002694 
2.1353982e+3, 1.23858236e+2, -841979.8, -1759538.5, 11991.518, 0.015058407, -0.28890142, -841823.1, 884338.3, 0.09543459, 10.008837, 9.995438 
2.1353726e+3, 1.3385417e+2, -810948.9, -1659416.8, -27871.19, 0.022504091, -0.2905149, -810034.3, 818169.06, 0.068264335, 10.007928, 9.995891 
2.1353474e+3, 1.4385101e+2, -751044.9, -1508747.6, -13823.723, 0.07708022, -0.22317697, -750792.75, 779443.0, 0.040773503, 10.007116, 9.996648 
2.1353213e+3, 1.5384752e+2, -732604.5, -1466570.8, -2652.452, 0.015887447, -0.2374916, -732594.94, 699675.56, 0.018670792, 10.006473, 9.99657 
2.1352959e+3, 1.6384423e+2, -703819.9, -1351828.9, 16227.218, -0.004870167, -0.23910189, -703413.75, 630889.75, 0.0056747, 10.005693, 9.997059 
2.1352713e+3, 1.738414e+2, -753804.9, -1339138.8, 10705.397, 0.035928655, -0.22539605, -753609.2, 482723.44, 0.0007999195, 10.004708, 9.996948 
2.1352464e+3, 1.8383883e+2, -719430.1, -1168208.3, 8505.355, 0.046658736, -0.21233891, -719269.0, 419089.84, 0.000013830661, 10.003821, 9.997876 
2.1352212e+3, 1.9383684e+2, -731420.9, -1129527.4, 12728.358, 0.010635002, -0.20127179, -731014.3, 309364.94, 0.0, 10.003093, 9.99782 
2.135196e+3, 2.0383501e+2, -692047.0, -968956.9, 3585.9055, -0.007898088, -0.19752814, -692000.6, 250396.81, 0.0, 10.002299, 9.998632 
2.1351707e+3, 2.1383354e+2, -730143.9, -944396.5, 1265.1765, 0.0011571293, -0.2079388, -730136.44, 114274.29, 0.0, 10.001398, 9.998562 
2.1351455e+3, 2.2383231e+2, -699525.44, -788293.9, 5348.355, -0.00085766346, -0.21819106, -699204.3, 47217.72, 0.0, 10.0005455, 9.999372 
2.1351203e+3, 2.3383158e+2, -719352.56, -755125.25, 5207.0923, -0.019418137, -0.22770613, -718610.0, -70181.26, 0.0, 9.999771, 9.9993 
2.135095e+3, 2.438312e+2, -680168.0, -584785.4, -5706.7266, -0.029542278, -0.22922659, -584445.2, -34013.434, 0.0, 9.998934, 10.000199 
2.1350695e+3, 2.5383148e+2, -722435.2, -561107.0, -8719.694, -0.028679563, -0.22600077, -560637.06, -108209.03, 0.0, 9.998, 10.000138 
2.1350442e+3, 2.638317e+2, -686142.56, -395902.53, -14703.867, -0.035160527, -0.25045267, -395159.5, -40734.664, 0.0, 9.997159, 10.001005 
2.1350186e+3, 2.7383214e+2, -696926.9, -357765.1, -12830.992, -0.047914248, -0.30445185, -357280.38, -100860.93, 0.0, 9.996444, 10.000938 
2.134993e+3, 2.8383362e+2, -697284.25, -257124.19, -29495.486, -0.047568943, -0.26814264, -255156.47, -96751.12, 0.0, 9.995554, 10.001386 
2.134967e+3, 2.938363e+2, -760892.2, -245415.17, -34409.773, -0.04060336, -0.13565713, -243128.34, -182748.1, 0.0, 9.994481, 10.001309 
2.1349414e+3, 3.0383608e+2, -767890.0, -124598.75, -11971.41, -0.053287897, -0.32153842, -124376.05, -124376.05, 0.0, 9.993673, 10.0021925 
2.1349165e+3, 3.1383908e+2, -793396.2, -35095.29, -32667.232, -0.03747855, -0.23628142, -33690.605, -33690.605, 0.0, 9.993058, 10.003104 
2.145407e+3, 1.238841e+2, -832292.4, -1740089.9, 26468.455, 0.008537265, -0.28217715, -831521.25, 894387.1, 0.09735606, 10.00887, 9.995554 
2.1453804e+3, 1.3387991e+2, -807250.8, -1645739.9, 5091.4814, 0.0146893775, -0.3042872, -807219.9, 820730.94, 0.06968941, 10.007919, 9.995987 
2.1453543e+3, 1.438768e+2, -753465.9, -1505978.4, 33282.184, 0.06522358, -0.23800844, -751996.75, 777985.75, 0.041682377, 10.007092, 9.996677 
2.1453276e+3, 1.5387353e+2, -730378.9, -1462639.8, 25547.803, 0.003929235, -0.23098505, -729488.6, 702526.9, 0.019138524, 10.006482, 9.99659 
2.1453016e+3, 1.6387033e+2, -697479.25, -1347571.9, 25957.035, -0.014127771, -0.22603212, -696444.5, 637603.4, 0.0058504436, 10.005737, 9.997066 
2.145276e+3, 1.7386734e+2, -743312.94, -1333647.6, 32907.258, 0.03335737, -0.22851184, -741484.25, 494594.06, 0.0008378733, 10.004783, 9.996948 
2.1452503e+3, 1.8386473e+2, -709968.4, -1160919.0, 43265.605, 0.048565283, -0.22091158, -705854.9, 432250.16, 0.000015756528, 10.003878, 9.997897 
2.1452244e+3, 1.9386287e+2, -735649.9, -1128825.0, 40869.7, 0.013763624, -0.19857289, -731446.5, 308678.03, 0.0, 10.003056, 9.997841 
2.1451983e+3, 2.0386109e+2, -702915.06, -973974.4, 24267.33, -0.006739127, -0.18940805, -700759.6, 241382.63, 0.0, 10.002227, 9.9986315 
2.145172e+3, 2.1385957e+2, -732734.2, -946234.75, 22098.877, -0.004787651, -0.20308654, -730470.8, 113685.27, 0.0, 10.001386, 9.998554 
2.145146e+3, 2.2385834e+2, -692887.06, -775900.4, 32376.26, -0.0076905712, -0.21603878, -681753.2, 64414.098, 0.0, 10.000554, 9.999451 
2.14512e+3, 2.3385769e+2, -718417.1, -744452.4, 40177.285, -0.016701726, -0.22727999, -689201.2, -41028.367, 0.0, 9.999736, 9.999389 
2.145094e+3, 2.4385734e+2, -690210.25, -596174.4, 29302.621, -0.0240878, -0.22830276, -587790.8, -37615.33, 0.0, 9.998896, 10.000138 
2.1450676e+3, 2.5385755e+2, -725671.3, -571792.7, 23221.988, -0.032369122, -0.22234656, -568364.6, -116191.74, 0.0, 9.998019, 10.000055 
2.1450412e+3, 2.6385772e+2, -689552.56, -392043.44, 17693.688, -0.044261836, -0.24681088, -390994.84, -36824.65, 0.0, 9.997114, 10.001052 
2.1450147e+3, 2.7385825e+2, -732939.75, -368480.2, 17893.746, -0.052768305, -0.30144098, -367603.75, -111439.64, 0.0, 9.996171, 10.000995 
2.1449883e+3, 2.8385973e+2, -718032.9, -263328.06, 6007.8716, -0.046157595, -0.2643729, -263248.7, -105099.414, 0.0, 9.995398, 10.001416 
2.1449617e+3, 2.9386237e+2, -709046.5, -220296.55, 14065.721, -0.039737202, -0.13918908, -219892.1, -159767.81, 0.0, 9.994839, 10.001308 
2.1449348e+3, 3.038619e+2, -757541.2, -158634.45, 32212.037, -0.08231695, -0.3367118, -156906.9, -156906.9, 0.0, 9.993915, 10.001841 
2.1449092e+3, 3.1386474e+2, -833568.44, -6259.204, 9729.198, -0.034973145, -0.23169233, -6144.804, -6144.804, 0.0, 9.992579, 10.003531 
2.1554157e+3, 1.239107e+2, -813758.44, -1693667.0, -5265.1084, 0.010256102, -0.26816905, -813726.94, 911922.06, 0.09918883, 10.008855, 9.995905 
2.155388e+3, 1.3390656e+2, -785681.4, -1598243.8, -28593.404, -0.009402505, -0.320876, -784676.44, 843012.6, 0.07104413, 10.007922, 9.996328 
2.155361e+3, 1.4390351e+2, -766004.7, -1533597.9, 9610.567, 0.033989493, -0.2604401, -765884.4, 763835.3, 0.0425412, 10.007102, 9.996478 
2.155334e+3, 1.5390022e+2, -748739.4, -1501570.0, 3346.0706, 0.0027098896, -0.22854637, -748724.56, 683029.75, 0.01957626, 10.006482, 9.996324 
2.1553074e+3, 1.6389702e+2, -688358.75, -1328129.9, -7787.6177, -0.0041832402, -0.21475008, -688263.94, 645523.4, 0.0060128924, 10.0057335, 9.997203 
2.1552807e+3, 1.7389405e+2, -729810.0, -1307032.6, -2557.0984, 0.023907894, -0.23344041, -729798.7, 506018.13, 0.0008723049, 10.004786, 9.997131 
2.1552539e+3, 1.8389152e+2, -712459.75, -1168209.0, 12403.936, 0.030813409, -0.22357304, -712122.4, 425719.9, 0.000017555294, 10.003884, 9.997846 
2.1552274e+3, 1.9388989e+2, -740892.0, -1140918.3, 10614.953, 0.006193789, -0.1706577, -740610.5, 299249.78, 0.0, 10.0030575, 9.997759 
2.1552004e+3, 2.0388809e+2, -703099.1, -975271.0, -6512.641, -0.007107667, -0.15851544, -702943.4, 238935.22, 0.0, 10.002228, 9.998623 
2.1551733e+3, 2.138862e+2, -732334.9, -946695.56, -8504.701, -0.0034956632, -0.21066764, -731998.0, 111898.0, 0.0, 10.001389, 9.998551 
2.1551464e+3, 2.2388496e+2, -680701.06, -752086.9, 2388.2207, -0.0046700398, -0.23254533, -680621.25, 65285.76, 0.0, 10.000558, 9.999615 
2.15512e+3, 2.3388483e+2, -705012.4, -717962.8, 9969.225, -0.011294699, -0.20841667, -699600.06, -51693.3, 0.0, 9.999739, 9.99957 
2.1550928e+3, 2.4388456e+2, -695842.7, -609224.7, -3221.389, -0.02099048, -0.20693696, -609105.06, -59196.71, 0.0, 9.9988985, 10.000049 
2.1550654e+3, 2.538842e+2, -733522.25, -589854.9, -9442.082, -0.040406145, -0.24687608, -589237.0, -137325.17, 0.0, 9.998023, 9.99993 
2.1550381e+3, 2.638843e+2, -687798.44, -390104.53, -17728.377, -0.056492515, -0.27261087, -389052.47, -35142.27, 0.0, 9.997119, 10.001065 
2.155011e+3, 2.7388546e+2, -730713.06, -365016.2, -17928.63, -0.053886708, -0.26572236, -364139.34, -108241.086, 0.0, 9.996173, 10.0010195 
2.1549836e+3, 2.83887e+2, -705107.94, -237789.06, -16578.207, -0.038004108, -0.23527558, -237201.69, -79318.79, 0.0, 9.9954, 10.001593 
2.1549563e+3, 2.9388887e+2, -698514.6, -201134.17, -7594.206, -0.037980497, -0.20414986, -201018.25, -141154.11, 0.0, 9.994847, 10.001437 
2.1549284e+3, 3.0388904e+2, -788324.75, -224752.17, -18040.57, -0.112645335, -0.31756034, -224175.27, -224175.27, 0.0, 9.99392, 10.001386 
2.1549019e+3, 3.1389132e+2, -805410.2, 52803.043, -30624.027, -0.034445554, -0.22733913, 53894.43, 53894.43, 0.0, 9.992573, 10.003942 
2.1654245e+3, 1.239383e+2, -859341.8, -1711041.4, 39171.97, 0.018500518, -0.26010165, -857544.0, 867835.44, 0.100917, 10.008504, 9.99594 
2.1653958e+3, 1.3393421e+2, -771454.2, -1590049.6, -3890.5862, -0.030532911, -0.30601907, -771435.75, 855982.75, 0.07231757, 10.008036, 9.996333 
2.1653679e+3, 1.4393114e+2, -732670.2, -1520838.3, 24395.598, 0.0036890456, -0.24656129, -731915.8, 797533.44, 0.043343626, 10.007367, 9.996439 
2.1653406e+3, 1.5392762e+2, -762699.9, -1513396.9, 31754.406, 0.0020389888, -0.23252752, -761359.06, 670127.25, 0.019980883, 10.006412, 9.996275 
2.1653129e+3, 1.6392441e+2, -707222.25, -1325127.3, 26784.729, 0.0038878233, -0.2222582, -706063.4, 627456.1, 0.0061608185, 10.005555, 9.997308 
2.1652853e+3, 1.739217e+2, -711512.25, -1284329.1, 27201.906, 0.008038791, -0.22343451, -710223.4, 525322.56, 0.0009028615, 10.004856, 9.9972515 
2.1652576e+3, 1.8391931e+2, -692615.75, -1160144.1, 37106.04, 0.00941557, -0.20781288, -689689.06, 447881.25, 0.000019155459, 10.00403, 9.997829 
2.1652302e+3, 1.9391753e+2, -749935.25, -1149190.0, 37549.285, 0.007750268, -0.16665603, -746434.5, 293155.5, 0.0, 10.0030155, 9.997721 
2.1652026e+3, 2.039157e+2, -713153.0, -968958.75, 29658.602, 0.0034098378, -0.1597935, -709759.3, 231849.28, 0.0, 10.002113, 9.99872 
2.1651748e+3, 2.1391396e+2, -725905.2, -931103.1, 35581.57, -0.0055052103, -0.20717345, -719910.44, 123713.85, 0.0, 10.001382, 9.998659 
2.1651469e+3, 2.2391276e+2, -681591.2, -752761.1, 41358.9, -0.012086405, -0.22751595, -662615.7, 83018.88, 0.0, 10.000556, 9.999609 
2.1651193e+3, 2.3391259e+2, -729349.56, -732106.44, 33432.707, -0.012767767, -0.20779876, -697266.9, -49631.848, 0.0, 9.999585, 9.999546 
2.1650915e+3, 2.4391228e+2, -721250.56, -612857.06, 19242.916, -0.018856801, -0.21155441, -609542.3, -59905.344, 0.0, 9.99869, 10.000123 
2.1650635e+3, 2.5391194e+2, -744552.56, -585098.1, 28235.705, -0.03909501, -0.25414357, -580245.9, -128606.06, 0.0, 9.997908, 10.000017 
2.1650352e+3, 2.639122e+2, -700129.2, -403122.6, 22075.455, -0.058592815, -0.2676679, -401490.75, -47853.83, 0.0, 9.997067, 10.0009985 
2.1650068e+3, 2.739135e+2, -740027.0, -379171.66, 13744.697, -0.06081343, -0.23696344, -378648.88, -123024.92, 0.0, 9.996153, 10.000931 
2.164979e+3, 2.839148e+2, -702038.8, -226736.13, 18344.027, -0.04207412, -0.22844574, -226029.2, -68418.336, 0.0, 9.995383, 10.001676 
2.1649511e+3, 2.9391617e+2, -711056.1, -197831.73, 19676.854, -0.03338132, -0.25847325, -197078.44, -137482.0, 0.0, 9.994724, 10.001518 
2.164922e+3, 3.0391732e+2, -811159.7, -228098.48, 3919.5156, -0.11900657, -0.27888644, -228072.14, -228072.14, 0.0, 9.993734, 10.0014515 
2.164894e+3, 3.1391907e+2, -806984.25, 59516.84, 43790.633, -0.05342, -0.25188732, 61724.273, 61724.273, 0.0, 9.992535, 10.0040045 
2.175433e+3, 1.23966835e+2, -875156.56, -1744976.0, 21609.826, 0.031701595, -0.2579373, -874620.0, 850480.25, 0.10252368, 10.008512, 9.995694 
2.1754035e+3, 1.3396285e+2, -791665.9, -1630718.0, -20057.012, -0.04997797, -0.263933, -791186.7, 835952.7, 0.073495336, 10.008035, 9.996036 
2.175375e+3, 1.4395967e+2, -727892.1, -1508949.5, -7558.5054, -0.026432121, -0.20152426, -727819.0, 801352.4, 0.044080507, 10.00736, 9.996529 
2.1753469e+3, 1.5395574e+2, -754844.75, -1495099.6, -3099.942, 0.0018922291, -0.24229367, -754831.8, 676379.6, 0.020348752, 10.006404, 9.996406 
2.1753186e+3, 1.6395248e+2, -703767.06, -1317023.3, 231.73047, 0.010223411, -0.24606243, -703767.0, 629477.56, 0.006293472, 10.0055485, 9.997368 
2.1752898e+3, 1.7395031e+2, -708248.3, -1277312.3, 1435.6978, -0.013995235, -0.19981775, -708244.7, 527021.6, 0.0009294838, 10.004852, 9.997303 
2.1752615e+3, 1.8394804e+2, -692443.7, -1159897.3, 695.6513, -0.015573622, -0.17576744, -692442.7, 444846.9, 0.000020516072, 10.004028, 9.997833 
2.1752334e+3, 1.9394574e+2, -750129.7, -1150265.3, 142.92297, 0.0175961, -0.18492377, -750129.6, 289184.22, 0.0, 10.0030155, 9.997715 
2.1752049e+3, 2.0394386e+2, -700068.5, -942987.06, 1996.3263, 0.023836944, -0.19044964, -700052.1, 241280.47, 0.0, 10.002116, 9.9988985 
2.175176e+3, 2.1394278e+2, -711413.2, -902278.1, 8759.574, -0.010951694, -0.19267644, -711012.0, 132329.67, 0.0, 10.001385, 9.9988575 
2.1751472e+3, 2.2394173e+2, -693533.06, -778977.0, 6184.061, -0.029554702, -0.20217015, -693087.8, 52262.848, 0.0, 10.000559, 9.99943 
2.1751189e+3, 2.3394088e+2, -744738.5, -765693.56, -2594.4763, -0.021078188, -0.22506814, -744422.0, -97063.86, 0.0, 9.999589, 9.999315 
2.1750903e+3, 2.4394044e+2, -704754.8, -580420.0, -10490.686, -0.01776065, -0.24105254, -579541.06, -30179.38, 0.0, 9.998694, 10.000345 
2.1750613e+3, 2.5394076e+2, -724333.4, -544815.1, -1094.0806, -0.028893728, -0.24401459, -544808.44, -93451.02, 0.0, 9.997911, 10.000294 
2.1750322e+3, 2.6394138e+2, -710296.94, -425785.03, -12325.259, -0.051011916, -0.2325865, -425252.1, -71900.97, 0.0, 9.99707, 10.000843 
2.175003e+3, 2.7394232e+2, -753718.94, -409589.84, -20153.549, -0.0738609, -0.21613087, -408413.6, -153071.6, 0.0, 9.996159, 10.000721 
2.1749741e+3, 2.8394312e+2, -702883.4, -230257.3, -7434.241, -0.058628906, -0.2445862, -230140.39, -72806.484, 0.0, 9.995387, 10.001651 
2.174946e+3, 2.9394418e+2, -709458.56, -195719.36, -8504.28, -0.026693668, -0.30147254, -195578.63, -136256.75, 0.0, 9.994726, 10.0015335 
2.174916e+3, 3.039467e+2, -768480.3, -140354.67, -42798.46, -0.10123791, -0.21861751, -137451.94, -137451.94, 0.0, 9.993733, 10.002056 
2.1748862e+3, 3.139482e+2, -831618.0, 6892.2056, 17004.604, -0.09848817, -0.2738641, 7236.9097, 7236.9097, 0.0, 9.992538, 10.003642 
2.1854417e+3, 1.2399607e+2, -847362.3, -1730572.0, 41743.863, 0.029846724, -0.24460429, -845393.75, 879420.75, 0.104000345, 10.008742, 9.995682 
2.1854113e+3, 1.3399199e+2, -799221.6, -1639275.5, 16412.342, -0.055068348, -0.2567289, -798901.1, 827953.7, 0.0745701, 10.008011, 9.995988 
2.1853821e+3, 1.4398882e+2, -750113.1, -1510950.3, 26539.36, -0.03778514, -0.19410428, -749188.5, 779698.25, 0.044747394, 10.00717, 9.996604 
2.185353e+3, 1.53985e+2, -779086.25, -1496946.3, 26992.922, -0.012885077, -0.23223068, -778072.7, 652852.8, 0.020678805, 10.006196, 9.996491 
2.1853237e+3, 1.639818e+2, -734200.56, -1329791.5, 36596.348, -0.0042760237, -0.23459388, -731960.3, 600997.75, 0.0064112996, 10.005334, 9.997382 
2.1852945e+3, 1.7397963e+2, -739886.6, -1292040.5, 35010.48, -0.02222893, -0.18748213, -737675.56, 497304.44, 0.0009525225, 10.004635, 9.997305 
2.1852651e+3, 1.8397735e+2, -711637.9, -1156363.1, 25997.86, -0.020618698, -0.1675664, -710123.25, 426879.9, 0.000021638602, 10.003844, 9.997945 
2.185236e+3, 1.9397505e+2, -755951.0, -1139085.8, 32518.375, 0.011027326, -0.1893747, -753210.6, 285816.2, 0.0, 10.002919, 9.997836 
2.1852069e+3, 2.0397323e+2, -707286.9, -944869.1, 41270.004, 0.0193018, -0.19548897, -700322.06, 240722.66, 0.0, 10.002063, 9.99891 
2.1851775e+3, 2.1397232e+2, -722548.3, -907563.06, 34204.063, -0.008286249, -0.17942198, -716427.44, 126625.25, 0.0, 10.001311, 9.998856 
2.185148e+3, 2.2397132e+2, -700346.8, -778816.7, 23592.922, -0.025052354, -0.18418278, -693799.56, 51261.77, 0.0, 10.000501, 9.999457 
2.1851183e+3, 2.3397036e+2, -741279.7, -760573.0, 32112.598, -0.022375984, -0.22315243, -717396.1, -70326.1, 0.0, 9.999601, 9.999343 
2.1850888e+3, 2.4396987e+2, -698975.1, -573540.2, 31936.973, -0.019882785, -0.24348593, -565876.94, -16803.316, 0.0, 9.99872, 10.000379 
2.1850593e+3, 2.5397038e+2, -729895.44, -544085.5, 23647.672, -0.024008231, -0.23212071, -541123.1, -90055.445, 0.0, 9.997862, 10.000321 
2.1850292e+3, 2.63971e+2, -717489.9, -434939.7, 4960.4766, -0.044918273, -0.21693902, -434852.63, -81791.42, 0.0, 9.997049, 10.00079 
2.184999e+3, 2.7397174e+2, -738865.5, -409139.9, 7943.1133, -0.0765597, -0.21468854, -408948.66, -153894.55, 0.0, 9.996293, 10.000658 
2.1849695e+3, 2.8397244e+2, -703526.3, -234290.83, 25068.047, -0.069014594, -0.24811761, -232955.42, -75908.52, 0.0, 9.995402, 10.001615 
2.1849404e+3, 2.939736e+2, -763291.5, -220890.5, 20241.816, -0.03894007, -0.29181832, -220136.16, -161102.6, 0.0, 9.994356, 10.001537 
2.1849097e+3, 3.0397612e+2, -763093.8, -98692.98, -21863.887, -0.09113867, -0.22917348, -97974.266, -97974.266, 0.0, 9.993605, 10.002403 
2.1848789e+3, 3.139779e+2, -767270.7, -13007.778, 29715.86, -0.11873717, -0.28678462, -11838.867, -11838.867, 0.0, 9.993202, 10.003184 
2.1954502e+3, 1.2402601e+2, -837205.1, -1706682.4, 17268.729, 0.013874515, -0.22370745, -836862.25, 887660.0, 0.10535397, 10.008743, 9.995859 
2.1954194e+3, 1.3402165e+2, -792247.3, -1618767.4, -8452.692, -0.04729646, -0.2794565, -792160.9, 834403.75, 0.07554942, 10.007993, 9.996142 
2.1953891e+3, 1.4401856e+2, -749732.06, -1506013.3, -6932.107, -0.033011474, -0.21856016, -749668.56, 778926.94, 0.045350537, 10.007153, 9.99665 
2.1953589e+3, 1.5401529e+2, -776284.6, -1491981.0, -8274.575, -0.041610982, -0.2046375, -776189.0, 654440.3, 0.020975154, 10.006199, 9.996526 
2.1953286e+3, 1.6401224e+2, -735533.25, -1335021.4, 10214.0625, -0.037666302, -0.19248305, -735359.25, 597301.44, 0.0065165395, 10.005342, 9.997344 
2.1952991e+3, 1.7400962e+2, -744036.5, -1300307.6, 9539.093, -0.0179467, -0.18533246, -743872.94, 490814.3, 0.00097286433, 10.00463, 9.997252 
2.1952693e+3, 1.8400726e+2, -698743.3, -1128721.9, -7301.2295, -0.007943233, -0.1804075, -698619.4, 438091.7, 0.00002258267, 10.003838, 9.998139 
2.1952388e+3, 1.9400539e+2, -739675.9, -1106768.6, -1914.9718, -0.011033131, -0.18077643, -739665.9, 299063.6, 0.0, 10.002922, 9.998058 
2.1952085e+3, 2.0400374e+2, -717008.6, -967249.56, 12781.36, -0.008279534, -0.1768677, -716357.5, 224388.33, 0.0, 10.0020685, 9.9987545 
2.1951787e+3, 2.1400255e+2, -736306.7, -937014.44, 6770.816, 0.0019058583, -0.1675886, -736078.56, 106679.11, 0.0, 10.001311, 9.998654 
2.1951486e+3, 2.2400153e+2, -685044.1, -747794.7, -9102.396, -0.00006613219, -0.17314327, -683750.44, 61016.434, 0.0, 10.000501, 9.999672 
2.1951179e+3, 2.3400092e+2, -722163.2, -722628.9, -1348.6149, -0.017213047, -0.20269291, -721027.44, -74256.38, 0.0, 9.999606, 9.999602 
2.1950874e+3, 2.4400055e+2, -709610.94, -597661.5, -436.19403, -0.025238242, -0.21975626, -597659.8, -48886.453, 0.0, 9.998725, 10.000212 
2.1950571e+3, 2.5400072e+2, -744613.6, -576619.8, -8544.191, -0.02479427, -0.21878293, -576186.4, -125415.125, 0.0, 9.997868, 10.000097 
2.1950264e+3, 2.6400107e+2, -714114.9, -429784.5, -24085.973, -0.040532716, -0.22070244, -427758.56, -74990.87, 0.0, 9.997054, 10.000824 
2.1949954e+3, 2.7400175e+2, -733423.1, -399410.38, -21060.12, -0.0688858, -0.23247616, -398087.75, -143326.83, 0.0, 9.996296, 10.000725 
2.1949649e+3, 2.8400272e+2, -707273.44, -243355.0, -14655.271, -0.07343641, -0.23812713, -242892.5, -86142.09, 0.0, 9.995404, 10.001553 
2.1949343e+3, 2.9400432e+2, -763868.44, -223525.8, -19751.455, -0.07138537, -0.22851963, -222804.78, -164072.7, 0.0, 9.994359, 10.00152 
2.1949033e+3, 3.0400538e+2, -757457.06, -88679.08, -39660.926, -0.08881715, -0.31707662, -86335.26, -86335.26, 0.0, 9.993609, 10.002472 
2.194872e+3, 3.1400833e+2, -802782.0, -89821.89, 21183.94, -0.11149438, -0.25733078, -89193.016, -89193.016, 0.0, 9.993213, 10.002653 
2.2054587e+3, 1.2405689e+2, -820503.56, -1687909.5, 56425.344, -0.015072104, -0.22015412, -816848.5, 907371.8, 0.10660145, 10.008835, 9.995958 
2.2054273e+3, 1.340526e+2, -833333.5, -1631664.5, 26084.564, -0.038891483, -0.2752582, -832482.1, 793779.75, 0.076449476, 10.007663, 9.996208 
2.2053963e+3, 1.4404956e+2, -802716.25, -1529638.6, 33103.445, -0.019270984, -0.21285188, -801211.9, 727080.4, 0.045902085, 10.006768, 9.996665 
2.2053647e+3, 1.5404633e+2, -765239.94, -1485329.9, 31411.479, -0.057833813, -0.19646284, -763872.3, 666453.44, 0.021244653, 10.006275, 9.996533 
2.205334e+3, 1.6404328e+2, -710894.8, -1324914.6, 42560.086, -0.061123855, -0.18299785, -707958.8, 624398.5, 0.0066122585, 10.005524, 9.997325 
2.2053038e+3, 1.7404062e+2, -779550.4, -1319872.9, 42392.613, -0.016890382, -0.17764732, -776244.56, 458140.13, 0.000991672, 10.0044, 9.997228 
2.2052729e+3, 1.8403825e+2, -742271.6, -1141272.9, 29038.986, -0.000238268, -0.17360666, -740169.3, 396239.06, 0.000023455272, 10.003505, 9.998212 
2.2052415e+3, 1.9403647e+2, -731120.3, -1093182.3, 24963.537, -0.022436587, -0.17203495, -729407.25, 309018.1, 0.0, 10.002943, 9.99814 
2.2052105e+3, 2.0403485e+2, -700749.2, -960583.44, 32812.688, -0.02351859, -0.1680975, -696669.56, 243771.63, 0.0, 10.002189, 9.998741 
2.20518e+3, 2.140336e+2, -761295.25, -951830.9, 37642.32, 0.0055359444, -0.1626956, -754128.2, 88325.88, 0.0, 10.001155, 9.998627 
2.205149e+3, 2.2403257e+2, -715194.56, -757138.6, 26892.584, 0.011559269, -0.1703159, -702063.25, 42400.434, 0.0, 10.000275, 9.999715 
2.2051176e+3, 2.3403202e+2, -717254.25, -714388.3, 19614.168, -0.014177352, -0.19745415, -696154.8, -49687.785, 0.0, 9.999618, 9.999652 
2.2050862e+3, 2.4403173e+2, -694120.3, -589775.6, 12597.705, -0.02683861, -0.20813997, -588276.2, -39807.816, 0.0, 9.998834, 10.000213 
2.2050549e+3, 2.5403196e+2, -745505.7, -577552.75, 19144.58, -0.023933925, -0.19991584, -575398.2, -124932.38, 0.0, 9.997868, 10.000089 
2.2050235e+3, 2.6403216e+2, -723558.75, -439327.22, 15678.303, -0.036090273, -0.21164663, -438465.03, -86001.43, 0.0, 9.997014, 10.000775 
2.2049917e+3, 2.7403256e+2, -736828.0, -407025.56, 9612.685, -0.061614733, -0.2449424, -406745.63, -152286.14, 0.0, 9.996303, 10.000668 
2.2049601e+3, 2.840337e+2, -697989.44, -238226.03, 4044.0427, -0.07520945, -0.23194672, -238190.47, -81743.1, 0.0, 9.995469, 10.001555 
2.2049284e+3, 2.9403576e+2, -737681.06, -208868.1, 5030.7085, -0.09222056, -0.17849463, -208820.23, -150395.83, 0.0, 9.9945345, 10.001534 
2.204897e+3, 3.040357e+2, -753593.44, -115622.38, -13571.016, -0.08128474, -0.36494875, -115333.83, -115333.83, 0.0, 9.993763, 10.002211 
2.2048652e+3, 3.1403914e+2, -810734.1, -79071.45, 28901.498, -0.106370635, -0.22848251, -77931.586, -77931.586, 0.0, 9.993098, 10.002781 
2.2154671e+3, 1.24088675e+2, -823310.25, -1687312.0, 18166.246, -0.054652214, -0.23100348, -822928.5, 900980.56, 0.10775627, 10.008813, 9.995975 
2.215435e+3, 1.3408475e+2, -836437.8, -1636032.8, -13819.403, -0.031769533, -0.24775109, -836199.06, 789748.5, 0.07728149, 10.007656, 9.996182 
2.2154033e+3, 1.4408173e+2, -804325.44, -1533057.5, 14090.823, 0.0005365088, -0.18163472, -804053.06, 723924.8, 0.046410643, 10.006768, 9.996643 
2.2153711e+3, 1.5407807e+2, -768568.75, -1490270.5, 14265.118, -0.062852725, -0.20513833, -768286.9, 661728.3, 0.021492906, 10.006265, 9.996507 
2.2153391e+3, 1.6407488e+2, -713479.2, -1327997.1, 3795.3826, -0.07563725, -0.20155708, -713455.75, 618592.1, 0.0067013297, 10.00551, 9.997311 
2.2153078e+3, 1.7407253e+2, -779973.2, -1321938.0, 894.367, -0.0193233, -0.16473933, -779971.75, 454100.94, 0.001010094, 10.004402, 9.997213 
2.2152764e+3, 1.8407026e+2, -744150.1, -1147739.1, 6757.3794, 0.0025475118, -0.14922825, -744037.0, 392058.72, 0.000024382984, 10.003512, 9.998165 
2.2152443e+3, 1.9406827e+2, -734675.9, -1101315.4, 4919.0522, -0.02426905, -0.16332275, -734609.9, 303504.72, 0.0, 10.002943, 9.998086 
2.2152126e+3, 2.0406657e+2, -693469.56, -945814.8, -3599.8193, -0.02758571, -0.1685056, -693418.25, 246712.67, 0.0, 10.002187, 9.998845 
2.2151811e+3, 2.1406543e+2, -752038.6, -934551.5, -616.386, 0.0028182762, -0.1640181, -752036.56, 90105.81, 0.0, 10.001161, 9.998744 
2.2151491e+3, 2.2406438e+2, -723213.1, -776404.1, 1325.9463, 0.010557367, -0.17491007, -723180.06, 20972.193, 0.0, 10.000282, 9.99958 
2.2151172e+3, 2.340636e+2, -727693.25, -737958.94, -4511.157, -0.013405682, -0.20686676, -725992.6, -79834.33, 0.0, 9.999622, 9.99949 
2.215085e+3, 2.440634e+2, -682737.8, -567711.2, -22537.967, -0.025044702, -0.20822957, -563452.8, -15293.671, 0.0, 9.9988365, 10.000363 
2.2150527e+3, 2.5406408e+2, -731417.94, -550145.9, -16948.111, -0.021558847, -0.17532627, -548574.94, -98423.07, 0.0, 9.997871, 10.000277 
2.2150205e+3, 2.6406428e+2, -732869.94, -460554.0, -12194.294, -0.03162902, -0.1899133, -460009.03, -107859.586, 0.0, 9.997019, 10.000629 
2.214988e+3, 2.740642e+2, -749108.2, -434606.5, -18356.775, -0.055479966, -0.2532022, -433538.66, -179388.13, 0.0, 9.996308, 10.000478 
2.2149555e+3, 2.8406534e+2, -693480.25, -230508.25, -31775.066, -0.07488034, -0.23010671, -228337.61, -72199.195, 0.0, 9.995473, 10.001608 
2.2149229e+3, 2.9406786e+2, -735382.2, -205135.13, -29516.691, -0.10104035, -0.14047047, -203497.11, -145386.03, 0.0, 9.994535, 10.001561 
2.2148909e+3, 3.0406705e+2, -796692.6, -206506.89, -39972.563, -0.06836806, -0.37071282, -203811.9, -203811.9, 0.0, 9.993766, 10.001587 
2.2148584e+3, 3.140699e+2, -749444.75, 45166.574, -3904.6284, -0.1015315, -0.23658547, 45185.758, 45185.758, 0.0, 9.993106, 10.003633 
2.2254756e+3, 1.2412179e+2, -870560.7, -1718556.3, 56299.688, -0.055170942, -0.2220709, -866839.2, 856745.2, 0.10882122, 10.008502, 9.995883 
2.2254424e+3, 1.3411768e+2, -846879.5, -1655643.8, 19509.629, -0.046926633, -0.24344885, -846409.1, 779216.1, 0.07804633, 10.0076475, 9.99605 
2.2254096e+3, 1.4411455e+2, -800639.5, -1528365.6, 56075.914, -0.016875675, -0.18126413, -796343.9, 731312.9, 0.04687776, 10.006788, 9.996665 
2.2253773e+3, 1.5411092e+2, -814964.4, -1508964.3, 61481.555, -0.057814337, -0.20467848, -809559.8, 620133.7, 0.021722542, 10.005924, 9.996542 
2.2253445e+3, 1.6410775e+2, -772297.8, -1361700.0, 45522.934, -0.06509075, -0.19912095, -768802.56, 562923.4, 0.0067858063, 10.005129, 9.997262 
2.2253123e+3, 1.741054e+2, -780352.1, -1328324.9, 38894.74, -0.026527831, -0.15664032, -777605.2, 456145.94, 0.0010289481, 10.004429, 9.997156 
2.2252798e+3, 1.8410309e+2, -724347.9, -1138396.1, 49946.08, -0.0064118463, -0.14080901, -718408.1, 417366.47, 0.000025486988, 10.003653, 9.99816 
2.2252473e+3, 1.94101e+2, -760089.4, -1113612.8, 51307.832, -0.012774796, -0.16295053, -752793.5, 285000.78, 0.0, 10.002771, 9.998083 
2.2252148e+3, 2.0409928e+2, -725667.2, -961930.94, 36522.758, -0.01357878, -0.169166, -720150.2, 219660.67, 0.0, 10.001972, 9.9988365 
2.225182e+3, 2.1409822e+2, -734252.06, -926573.56, 29633.572, -0.0058071394, -0.15538856, -729789.56, 112032.1, 0.0, 10.001288, 9.998735 
2.2251494e+3, 2.2409716e+2, -690720.25, -760310.06, 32929.82, -0.0040484094, -0.16463596, -677608.4, 66223.15, 0.0, 10.000507, 9.99958 
2.2251166e+3, 2.340963e+2, -732920.06, -740343.6, 38527.094, -0.010643224, -0.20577297, -697926.4, -52087.87, 0.0, 9.99959, 9.999487 
2.2250837e+3, 2.4409607e+2, -696971.44, -574159.25, 18988.115, -0.015475379, -0.2096381, -571290.5, -23450.848, 0.0, 9.998741, 10.000363 
2.2250505e+3, 2.540968e+2, -714887.8, -541546.06, 10524.879, -0.019167412, -0.16882753, -540909.4, -91077.55, 0.0, 9.997987, 10.000278 
2.2250175e+3, 2.640971e+2, -709942.94, -449861.88, 14883.13, -0.029187663, -0.17625792, -449012.97, -97184.29, 0.0, 9.997182, 10.000622 
2.2249843e+3, 2.7409703e+2, -746166.4, -433708.56, 21873.732, -0.04503629, -0.23702095, -432184.72, -178355.33, 0.0, 9.996334, 10.000468 
2.2249512e+3, 2.84098e+2, -681912.94, -227940.23, 10878.826, -0.070046164, -0.22742859, -227679.69, -71860.85, 0.0, 9.995569, 10.001577 
2.2249174e+3, 2.9410022e+2, -697891.56, -196847.06, 4041.4912, -0.11463665, -0.1637432, -196814.47, -139019.33, 0.0, 9.994839, 10.00147 
2.2248848e+3, 3.040999e+2, -800646.5, -244618.95, -2083.5515, -0.06434183, -0.32060573, -244611.16, -244611.16, 0.0, 9.993898, 10.001259 
2.2248513e+3, 3.1410202e+2, -765055.7, 89846.89, 44543.016, -0.088635825, -0.2301327, 92161.445, 92161.445, 0.0, 9.992779, 10.004095 
2.2354844e+3, 1.2415612e+2, -886237.3, -1746881.9, 25878.967, -0.025618281, -0.19761811, -885459.8, 837787.8, 0.10980032, 10.008475, 9.9957 
2.2354497e+3, 1.3415138e+2, -862961.2, -1689297.5, -10095.172, -0.08100458, -0.2588335, -862837.9, 762457.25, 0.07874682, 10.00764, 9.995825 
2.235416e+3, 1.4414805e+2, -797923.8, -1522275.0, 25720.89, -0.06550175, -0.20663764, -797011.7, 730317.06, 0.047306467, 10.006786, 9.99671 
2.2353831e+3, 1.5414484e+2, -810762.5, -1499164.1, 29652.904, -0.044758394, -0.19591099, -809487.56, 619873.6, 0.02193648, 10.0059185, 9.996613 
2.2353499e+3, 1.641418e+2, -778723.4, -1374691.9, 18920.79, -0.03384711, -0.17835635, -778123.3, 553269.06, 0.006867444, 10.005124, 9.997177 
2.2353163e+3, 1.7413916e+2, -787454.2, -1343787.3, 13171.619, -0.038346622, -0.15272562, -787142.5, 446277.84, 0.0010487075, 10.004428, 9.997052 
2.2352833e+3, 1.841367e+2, -722571.94, -1135989.0, 18124.918, -0.025693152, -0.14657101, -721778.8, 413666.5, 0.000026892109, 10.0036545, 9.998178 
2.2352502e+3, 1.9413464e+2, -757370.06, -1109737.0, 18517.219, 0.010898399, -0.1697971, -756399.6, 281065.22, 0.0, 10.002776, 9.998109 
2.2352171e+3, 2.0413294e+2, -733121.6, -979477.5, 10638.616, 0.016614484, -0.16954954, -732663.06, 206818.39, 0.0, 10.001977, 9.998715 
2.2351831e+3, 2.1413192e+2, -742954.94, -946401.56, 4806.066, -0.020450158, -0.13756908, -742841.44, 98651.0, 0.0, 10.001292, 9.998599 
2.2351496e+3, 2.241309e+2, -681850.3, -743563.25, -143.11104, -0.031490557, -0.14066577, -681850.0, 61652.008, 0.0, 10.000511, 9.999695 
2.2351162e+3, 2.3413005e+2, -722571.1, -720732.75, 4296.1245, -0.005948569, -0.1944899, -717258.56, -71750.42, 0.0, 9.999595, 9.99962 
2.2350828e+3, 2.4412969e+2, -707299.8, -597687.6, -9816.987, 0.0014608421, -0.2122614, -596815.3, -49304.77, 0.0, 9.998747, 10.0002 
2.2350486e+3, 2.5413015e+2, -727296.6, -569457.5, -18038.7, -0.017240513, -0.18063566, -567422.2, -117916.01, 0.0, 9.9979925, 10.000086 
2.2350146e+3, 2.6413056e+2, -700737.7, -432452.94, -17388.969, -0.028978754, -0.17037345, -431330.56, -79828.82, 0.0, 9.997186, 10.000742 
2.2349808e+3, 2.7413097e+2, -734595.4, -410979.78, -9986.704, -0.03008127, -0.19493552, -410671.9, -157175.55, 0.0, 9.996337, 10.000626 
2.2349468e+3, 2.8413162e+2, -690519.56, -247095.36, -17000.91, -0.06065902, -0.22430341, -246444.5, -90955.22, 0.0, 9.995571, 10.001446 
2.2349119e+3, 2.941327e+2, -712216.9, -229426.89, -25180.498, -0.13443576, -0.2532356, -228117.13, -170639.44, 0.0, 9.994847, 10.001244 
2.2348784e+3, 3.0413422e+2, -802139.75, -249786.98, -44628.57, -0.070497714, -0.21002372, -246204.36, -246204.36, 0.0, 9.993904, 10.001223 
2.2348443e+3, 3.1413555e+2, -767343.75, 85016.14, -16212.201, -0.06641521, -0.20228466, 85324.39, 85324.39, 0.0, 9.992774, 10.004066 
2.2454926e+3, 1.2419072e+2, -923822.7, -1757697.5, 35181.406, -0.018743604, -0.19442634, -922341.0, 800567.75, 0.110709734, 10.008154, 9.995779 
2.245457e+3, 1.34186e+2, -876360.0, -1690718.8, 16488.229, -0.09379937, -0.25700906, -876026.3, 748929.6, 0.07939711, 10.007524, 9.99587 
2.2454226e+3, 1.4418267e+2, -807253.4, -1532947.0, 52684.52, -0.08433907, -0.20515186, -803448.5, 723541.2, 0.0477066, 10.006751, 9.996652 
2.2453889e+3, 1.5417941e+2, -834536.2, -1518152.0, 47254.71, -0.042166796, -0.1896691, -831285.2, 597737.4, 0.022139406, 10.005787, 9.996545 
2.245355e+3, 1.6417634e+2, -798628.0, -1377412.3, 44496.215, -0.023301395, -0.174602, -795227.1, 535826.8, 0.0069475537, 10.00496, 9.997236 
2.2453208e+3, 1.7417364e+2, -798829.06, -1341451.0, 50310.527, -0.039465718, -0.16205432, -794203.8, 438878.25, 0.0010695392, 10.004319, 9.997119 
2.2452866e+3, 1.8417118e+2, -734079.1, -1149278.1, 52572.875, -0.03035537, -0.15586501, -727525.75, 407581.4, 0.000028719449, 10.0036125, 9.998106 
2.2452532e+3, 1.9416922e+2, -758354.7, -1119435.6, 44360.527, 0.0144765945, -0.16036928, -752984.6, 284141.9, 0.0, 10.002812, 9.998023 
2.245219e+3, 2.0416756e+2, -721069.9, -967572.2, 41753.043, 0.023244416, -0.15403624, -714189.7, 224953.4, 0.0, 10.002037, 9.998766 
2.2451846e+3, 2.1416648e+2, -737922.0, -936926.25, 49640.566, -0.018271517, -0.13334683, -726226.75, 114927.55, 0.0, 10.0013, 9.998659 
2.2451502e+3, 2.2416547e+2, -685517.8, -749744.9, 40440.16, -0.031505, -0.13631564, -665991.4, 77172.33, 0.0, 10.000508, 9.999652 
2.245116e+3, 2.341647e+2, -719332.3, -724754.9, 30472.117, -0.004564977, -0.17530043, -691451.06, -46281.555, 0.0, 9.999644, 9.999567 
2.2450815e+3, 2.4416427e+2, -696229.44, -594136.75, 18353.38, 0.005633786, -0.19429848, -590937.6, -43764.97, 0.0, 9.998835, 10.000181 
2.2450466e+3, 2.5416452e+2, -713527.94, -564720.9, 23135.328, -0.008668054, -0.18264851, -561206.94, -112036.79, 0.0, 9.998099, 10.000065 
2.245012e+3, 2.641649e+2, -684112.44, -423207.03, 21959.969, -0.021498058, -0.17394534, -421371.6, -70205.91, 0.0, 9.997299, 10.000749 
2.244977e+3, 2.7416545e+2, -724569.0, -404102.25, 18487.207, -0.030339008, -0.18317164, -403039.28, -149880.94, 0.0, 9.996401, 10.00064 
2.2449422e+3, 2.8416595e+2, -703950.4, -266553.56, 9293.535, -0.06029747, -0.22284535, -266356.2, -111203.25, 0.0, 9.995539, 10.001326 
2.2449067e+3, 2.941667e+2, -735234.1, -254466.92, 3223.821, -0.122680165, -0.27357346, -254445.3, -197299.5, 0.0, 9.994753, 10.001115 
2.2448723e+3, 3.0416897e+2, -767111.5, -195934.8, -3725.7332, -0.06320873, -0.16234171, -195910.5, -195910.5, 0.0, 9.993989, 10.00155 
2.2448371e+3, 3.1417003e+2, -739667.0, 61069.125, 28581.518, -0.062501036, -0.21599737, 62088.02, 62088.02, 0.0, 9.99313, 10.003729 
2.2555007e+3, 1.24225646e+2, -910234.56, -1719064.8, 12610.023, -0.030847576, -0.21020369, -910038.0, 812529.0, 0.11156832, 10.008128, 9.996059 
2.2554646e+3, 1.3422152e+2, -863020.94, -1655206.4, -5872.2227, -0.08975892, -0.23995279, -862977.44, 761630.5, 0.08001441, 10.007502, 9.996125 
2.2554292e+3, 1.4421833e+2, -819574.5, -1557035.5, 18613.867, -0.07946324, -0.18055442, -819105.0, 707535.25, 0.04808941, 10.006739, 9.996493 
2.2553945e+3, 1.5421468e+2, -847657.06, -1546522.3, 12073.536, -0.04903056, -0.18552597, -847448.56, 581228.94, 0.022335788, 10.005787, 9.996351 
2.2553599e+3, 1.6421142e+2, -785932.2, -1352721.9, 20222.578, -0.030450432, -0.18561512, -785211.56, 545498.94, 0.0070267967, 10.004965, 9.997405 
2.2553252e+3, 1.7420883e+2, -784194.6, -1312376.0, 26222.49, -0.031202551, -0.18290028, -782896.0, 449840.47, 0.0010914344, 10.004322, 9.997319 
2.2552903e+3, 1.842065e+2, -744862.75, -1172764.5, 22926.813, -0.02267499, -0.16778506, -743637.8, 391122.47, 0.000031062955, 10.003613, 9.997946 
2.2552556e+3, 1.942047e+2, -771237.4, -1147698.9, 14807.291, -0.0007019618, -0.13607346, -770655.9, 266123.8, 0.0, 10.002815, 9.997829 
2.255221e+3, 2.0420307e+2, -706624.0, -939278.2, 14626.144, 0.008516474, -0.12452215, -705708.1, 233088.11, 0.0, 10.002041, 9.9989605 
2.2551858e+3, 2.1420182e+2, -721365.6, -903929.3, 22346.44, -0.00012826094, -0.14177513, -718670.2, 122137.35, 0.0, 10.001303, 9.998886 
2.2551508e+3, 2.242008e+2, -699389.2, -780070.1, 8591.495, -0.006030164, -0.1498427, -698484.44, 44332.652, 0.0, 10.000512, 9.999444 
2.2551155e+3, 2.342002e+2, -735494.1, -760422.7, -1724.8363, -0.00692524, -0.14853704, -735375.4, -90552.305, 0.0, 9.99965, 9.999321 
2.25508e+3, 2.4419978e+2, -687517.0, -578231.94, -9547.428, -0.0025503528, -0.15672158, -577404.1, -30577.768, 0.0, 9.99884, 10.000289 
2.2550449e+3, 2.5419986e+2, -703346.4, -545466.9, -4616.5674, 0.006446034, -0.17508969, -545332.0, -96507.766, 0.0, 9.998104, 10.000196 
2.2550093e+3, 2.6420003e+2, -691983.06, -441042.63, -11751.324, -0.007129295, -0.18698643, -440493.53, -89672.445, 0.0, 9.997302, 10.000627 
2.2549734e+3, 2.7420044e+2, -734097.94, -425543.47, -15904.42, -0.046796337, -0.20272344, -424725.8, -171909.83, 0.0, 9.996405, 10.000492 
2.2549374e+3, 2.8420097e+2, -711619.5, -284055.03, -21950.096, -0.06916439, -0.22296372, -282931.13, -128120.72, 0.0, 9.995543, 10.001206 
2.2549018e+3, 2.9420212e+2, -737376.2, -260233.03, -26912.805, -0.07760053, -0.2214188, -258719.84, -201920.05, 0.0, 9.994755, 10.001077 
2.2548665e+3, 3.0420408e+2, -717684.2, -94404.73, -34140.633, -0.042310227, -0.18144722, -92540.22, -92540.22, 0.0, 9.993991, 10.002248 
2.2548302e+3, 3.142059e+2, -786504.94, -38952.766, -17903.035, -0.07532183, -0.21757454, -38524.254, -38524.254, 0.0, 9.993137, 10.003039 
2.2655083e+3, 1.2426141e+2, -951138.0, -1729385.1, 42011.363, -0.046519604, -0.21992864, -948876.7, 773340.06, 0.1123741, 10.00777, 9.99616 
2.265472e+3, 1.3425751e+2, -900144.25, -1666258.5, 14508.317, -0.07663377, -0.23353185, -899869.6, 724385.94, 0.08059889, 10.0071945, 9.996196 
2.265436e+3, 1.442544e+2, -843544.6, -1560373.1, 31549.646, -0.062096342, -0.17242545, -842158.7, 684128.25, 0.048455104, 10.006534, 9.996568 
2.2654004e+3, 1.542507e+2, -846921.1, -1537882.6, 41002.402, -0.051261686, -0.18790588, -844496.5, 583827.6, 0.022524932, 10.005761, 9.996422 
2.2653647e+3, 1.6424742e+2, -782090.6, -1354125.8, 58433.29, -0.038791858, -0.1934347, -776182.7, 554174.6, 0.0071042464, 10.00501, 9.997373 
2.2653294e+3, 1.7424478e+2, -792197.6, -1320298.0, 48175.34, -0.02783992, -0.18911499, -787838.9, 444544.88, 0.0011140178, 10.004289, 9.997279 
2.2652939e+3, 1.8424249e+2, -750052.9, -1168472.0, 39188.008, -0.018391505, -0.1707329, -746414.25, 387993.13, 0.00003393106, 10.003552, 9.998003 
2.2652583e+3, 1.942408e+2, -769989.1, -1139809.5, 47654.9, -0.010103774, -0.13367215, -763947.06, 272478.8, 0.0, 10.002796, 9.997891 
2.2652227e+3, 2.0423922e+2, -707183.44, -936062.94, 51726.734, -0.0022569087, -0.122232735, -696036.1, 242405.81, 0.0, 10.002026, 9.998988 
2.2651872e+3, 2.1423791e+2, -728773.4, -904171.56, 44637.527, 0.004614973, -0.14749427, -718067.0, 122386.62, 0.0, 10.001242, 9.998912 
2.2651514e+3, 2.2423689e+2, -706675.75, -786471.4, 27518.07, 0.0037490092, -0.15497623, -698106.25, 44357.05, 0.0, 10.000478, 9.999414 
2.265115e+3, 2.3423637e+2, -724661.25, -758805.1, 32094.348, -0.006121065, -0.13995673, -705380.75, -60911.695, 0.0, 9.999743, 9.999286 
2.2650792e+3, 2.4423602e+2, -677208.75, -577260.56, 26211.605, -0.001866456, -0.13858797, -570803.7, -24331.422, 0.0, 9.998933, 10.000249 
2.265043e+3, 2.5423604e+2, -718532.0, -557084.75, 17677.49, 0.017785639, -0.15644145, -555171.8, -106701.38, 0.0, 9.998022, 10.000154 
2.2650066e+3, 2.642361e+2, -699725.2, -445215.13, 10247.068, 0.002016258, -0.17993824, -444803.22, -94334.58, 0.0, 9.997254, 10.000618 
2.2649698e+3, 2.7423626e+2, -698870.2, -409498.2, 15680.633, -0.052914366, -0.21490638, -408650.94, -156185.4, 0.0, 9.9966545, 10.000481 
2.2649333e+3, 2.84237e+2, -673864.6, -270655.44, 10905.335, -0.06462461, -0.21267377, -270360.72, -115902.51, 0.0, 9.995826, 10.00116 
2.264897e+3, 2.942387e+2, -739122.3, -261101.45, 11168.612, -0.03815026, -0.15462822, -260840.66, -204397.86, 0.0, 9.994747, 10.001072 
2.2648604e+3, 3.0423966e+2, -717678.6, -80576.5, -10027.325, -0.044920262, -0.21768562, -80418.72, -80418.72, 0.0, 9.993935, 10.002368 
2.2648232e+3, 3.1424215e+2, -761411.7, -43461.93, -32869.168, -0.07912299, -0.19464074, -41960.254, -41960.254, 0.0, 9.993382, 10.00289 
2.2755158e+3, 1.2429797e+2, -954597.4, -1737270.5, 21294.146, -0.06644466, -0.2246602, -954018.5, 767839.75, 0.11309636, 10.007773, 9.996103 
2.2754793e+3, 1.34294e+2, -907406.75, -1680131.9, -4816.0156, -0.056570586, -0.235973, -907376.75, 716521.6, 0.08112637, 10.007185, 9.996106 
2.275443e+3, 1.4429092e+2, -827848.5, -1524218.8, 4784.727, -0.034619927, -0.17823045, -827815.6, 698113.56, 0.04878767, 10.006523, 9.996822 
2.275406e+3, 1.542875e+2, -827364.9, -1497140.8, 12178.043, -0.050093886, -0.19563973, -827143.5, 600819.2, 0.022698708, 10.005761, 9.996702 
2.2753696e+3, 1.642843e+2, -796987.56, -1386695.9, 31207.465, -0.048873436, -0.1979692, -795340.7, 534654.25, 0.0071768444, 10.0050125, 9.9971485 
2.2753336e+3, 1.7428151e+2, -810561.1, -1358872.1, 21700.88, -0.029088456, -0.1823759, -809703.56, 422320.53, 0.0011364573, 10.004287, 9.997017 
2.2752973e+3, 1.8427916e+2, -733257.0, -1134152.9, 11592.1, -0.017070834, -0.1663133, -732922.06, 401126.44, 0.000037226386, 10.0035515, 9.99824 
2.275261e+3, 1.9427752e+2, -749973.3, -1099892.6, 19525.979, -0.014348635, -0.15102644, -748887.1, 287178.1, 0.000000000000000002497382, 10.0028, 9.998165 
2.2752246e+3, 2.0427598e+2, -715814.75, -956051.1, 22491.771, -0.009748036, -0.1441733, -713727.2, 224353.42, 0.0, 10.002031, 9.99885 
2.2751883e+3, 2.142747e+2, -740039.25, -929447.06, 15804.548, -0.003542287, -0.15062566, -738729.56, 101363.336, 0.0, 10.0012455, 9.998738 
2.2751516e+3, 2.242737e+2, -696821.2, -767791.3, 178.69228, -0.0012951244, -0.15277565, -696820.75, 45282.03, 0.0, 10.000483, 9.999542 
2.2751148e+3, 2.3427323e+2, -713145.94, -736626.2, 4662.9126, -0.0022871913, -0.14893456, -712253.8, -68145.84, 0.0, 9.999748, 9.999437 
2.2750778e+3, 2.4427295e+2, -690415.6, -606463.94, -7766.078, 0.0071930764, -0.13872527, -605751.56, -59640.88, 0.0, 9.998937, 10.000049 
2.275041e+3, 2.5427303e+2, -733315.5, -589802.94, -16439.865, 0.025067665, -0.126473, -587943.8, -139834.58, 0.0, 9.998027, 9.999928 
2.275004e+3, 2.64273e+2, -692200.4, -431490.5, -13431.009, 0.005956063, -0.15317897, -430800.4, -80691.51, 0.0, 9.997259, 10.000712 
2.2749662e+3, 2.7427295e+2, -690221.0, -393510.44, -8079.445, -0.04882918, -0.22032203, -393290.6, -141183.02, 0.0, 9.996659, 10.000589 
2.2749291e+3, 2.84274e+2, -672356.25, -268819.03, -29708.379, -0.046772774, -0.19135343, -266643.66, -112546.85, 0.0, 9.995828, 10.001173 
2.274892e+3, 2.942763e+2, -737739.44, -259179.56, -29011.313, -0.005285012, -0.071820125, -257427.25, -201352.1, 0.0, 9.994748, 10.001086 
2.274854e+3, 3.0427563e+2, -752155.44, -153543.17, -32730.264, -0.07310274, -0.27404797, -151758.9, -151758.9, 0.0, 9.993937, 10.001867 
2.2748166e+3, 3.1427845e+2, -726368.06, 26568.46, -31775.55, -0.07757015, -0.17158099, 27907.078, 27907.078, 0.0, 9.993392, 10.003367 
2.2855239e+3, 1.2433548e+2, -922850.7, -1712776.4, 48887.18, -0.058722142, -0.21688879, -919836.6, 801654.06, 0.11368604, 10.007992, 9.996171 
2.2854866e+3, 1.3433145e+2, -922280.2, -1683095.0, 32783.75, -0.037764985, -0.23776531, -920870.1, 702661.0, 0.081555985, 10.007058, 9.996146 
2.2854492e+3, 1.4432834e+2, -858643.44, -1536295.5, 44677.92, -0.019287998, -0.1873774, -855710.44, 669851.8, 0.049058728, 10.006291, 9.996849 
2.2854117e+3, 1.5432498e+2, -827780.8, -1493800.0, 36172.727, -0.0501855, -0.19991644, -825822.0, 601773.06, 0.022842193, 10.005749, 9.99673 
2.2853746e+3, 1.6432181e+2, -790267.5, -1380531.9, 48023.313, -0.054074384, -0.20120126, -786385.9, 543241.1, 0.007239083, 10.005052, 9.99717 
2.2853379e+3, 1.74319e+2, -829008.0, -1365351.6, 56427.105, -0.025901536, -0.18933314, -823135.75, 408520.7, 0.0011574103, 10.004153, 9.997034 
2.2853008e+3, 1.8431666e+2, -754263.4, -1138744.3, 54875.33, -0.012610807, -0.17325626, -746584.6, 387095.97, 0.000040776646, 10.003387, 9.998286 
2.2852637e+3, 1.9431512e+2, -747539.8, -1092771.6, 46656.17, -0.017850043, -0.15372695, -741345.6, 294350.8, 0.00000000020988672, 10.002795, 9.998214 
2.2852266e+3, 2.0431358e+2, -706001.6, -951410.0, 40406.39, -0.015821803, -0.14771494, -699519.9, 238191.77, 0.0, 10.002103, 9.998845 
2.2851895e+3, 2.1431223e+2, -735737.7, -928184.8, 44193.25, -0.0053836214, -0.16064642, -726074.44, 113650.41, 0.0, 10.001283, 9.998727 
2.2851521e+3, 2.2431122e+2, -697084.56, -767540.06, 31922.041, 0.00040548606, -0.16127223, -684772.75, 56962.17, 0.0, 10.000483, 9.999542 
2.2851145e+3, 2.3431085e+2, -718593.9, -738675.75, 25405.51, 0.0027818365, -0.14626905, -701317.06, -57577.64, 0.0, 9.999712, 9.999439 
2.285077e+3, 2.443106e+2, -688589.2, -608523.3, 10414.709, 0.0108018145, -0.13137081, -607190.8, -61448.707, 0.0, 9.998965, 10.000019 
2.2850391e+3, 2.5431064e+2, -703284.5, -578086.06, 15969.819, 0.019761002, -0.12252865, -576081.06, -128339.54, 0.0, 9.998249, 9.9999 
2.285001e+3, 2.6431057e+2, -670579.0, -415082.8, 24651.477, 0.0024116768, -0.1482153, -412726.06, -62984.844, 0.0, 9.997385, 10.000762 
2.2849628e+3, 2.743107e+2, -731747.0, -406914.47, 25308.707, -0.033034313, -0.20698766, -404954.4, -153215.75, 0.0, 9.996349, 10.000645 
2.284925e+3, 2.843118e+2, -697871.3, -283526.5, 4178.3555, -0.025361719, -0.17479292, -283484.38, -129756.91, 0.0, 9.9956665, 10.001148 
2.284887e+3, 2.9431397e+2, -655277.7, -225591.58, 785.4289, -0.005016517, -0.06416618, -225590.14, -169883.0, 0.0, 9.995343, 10.001029 
2.284848e+3, 3.0431315e+2, -708475.5, -172932.6, -13151.307, -0.08378775, -0.25942335, -172609.83, -172609.83, 0.0, 9.994412, 10.001504 
2.2848101e+3, 3.1431562e+2, -761238.2, 46646.09, 30289.258, -0.057772916, -0.15661108, 47780.105, 47780.105, 0.0, 9.992999, 10.003692 
2.295532e+3, 1.243739e+2, -914622.25, -1693123.4, 16570.533, -0.029997313, -0.20007561, -914269.7, 806844.94, 0.11409284, 10.00798, 9.99633 
2.2954936e+3, 1.3436982e+2, -912798.0, -1663281.6, -202.65839, -0.020765956, -0.2387038, -912797.94, 710356.4, 0.081846625, 10.007065, 9.99628 
2.2954556e+3, 1.4436659e+2, -869169.06, -1562207.9, 23768.11, -0.014832549, -0.19872838, -868354.9, 656831.56, 0.04923947, 10.006302, 9.996668 
2.2954172e+3, 1.5436313e+2, -841748.06, -1523422.5, 16234.718, -0.051652543, -0.20121422, -841361.6, 585859.56, 0.022939404, 10.005745, 9.99653 
2.2953793e+3, 1.6435994e+2, -775420.0, -1349071.1, 15694.567, -0.055120304, -0.20379159, -774990.94, 554262.44, 0.007284616, 10.005046, 9.99739 
2.2953421e+3, 1.7435722e+2, -810721.56, -1329412.3, 22591.338, -0.019012587, -0.20815875, -809739.5, 421541.44, 0.0011752609, 10.004159, 9.99728 
2.2953042e+3, 1.8435498e+2, -762907.25, -1159285.8, 31825.898, -0.0057738624, -0.1895873, -760368.2, 372935.84, 0.000044358083, 10.003395, 9.998143 
2.2952664e+3, 1.9435354e+2, -759077.75, -1117789.6, 24825.432, -0.020952927, -0.14329244, -757367.8, 277952.1, 0.0000000020348991, 10.002796, 9.998044 
2.2952285e+3, 2.0435198e+2, -698267.25, -936133.6, 10704.071, -0.020603701, -0.13511975, -697786.5, 239549.06, 0.0, 10.002103, 9.998952 
2.2951907e+3, 2.1435045e+2, -726064.25, -909835.8, 13841.792, -0.00142609, -0.17706072, -725027.56, 114322.21, 0.0, 10.0012865, 9.998853 
2.2951525e+3, 2.2434944e+2, -705637.94, -787428.5, 3147.8813, 0.008284135, -0.17932013, -705516.94, 35843.008, 0.0, 10.000488, 9.999405 
2.2951142e+3, 2.3434922e+2, -728508.5, -761332.6, -3315.1687, 0.008678396, -0.13242716, -728177.0, -84813.28, 0.0, 9.999717, 9.999283 
2.2950757e+3, 2.4434897e+2, -678861.56, -590216.94, -16597.822, 0.008809052, -0.1173153, -587211.06, -41844.188, 0.0, 9.99897, 10.000144 
2.295037e+3, 2.5434878e+2, -692153.75, -556614.6, -11340.717, 0.0014847502, -0.14484067, -555672.25, -108304.35, 0.0, 9.998252, 10.000048 
2.2949983e+3, 2.6434883e+2, -670457.7, -415978.0, -14347.236, -0.008638153, -0.16451322, -415171.7, -65805.61, 0.0, 9.997387, 10.000757 
2.2949594e+3, 2.7434942e+2, -731765.6, -408056.4, -13374.628, -0.005290731, -0.17402373, -407504.75, -156145.56, 0.0, 9.99635, 10.000638 
2.2949208e+3, 2.8435028e+2, -703025.4, -295648.6, -9533.212, -0.0007173931, -0.16404575, -295425.63, -142074.78, 0.0, 9.995669, 10.001065 
2.2948821e+3, 2.9435152e+2, -664052.8, -246963.67, -14172.8955, -0.039477974, -0.13583592, -246482.63, -191142.94, 0.0, 9.995354, 10.000879 
2.2948426e+3, 3.0435213e+2, -723905.56, -207335.28, -69405.03, -0.07581116, -0.16742906, -198172.72, -198172.72, 0.0, 9.994419, 10.001267 
2.2948033e+3, 3.1435344e+2, -756135.1, 58193.535, 9810.981, -0.03356766, -0.16337472, 58311.72, 58311.72, 0.0, 9.992993, 10.003776 
2.30554e+3, 1.24412864e+2, -926598.1, -1699922.6, 41995.87, -0.0055956123, -0.20767948, -924324.2, 796408.4, 0.11427584, 10.007895, 9.996316 
2.3055008e+3, 1.3440883e+2, -893300.25, -1656910.4, 16673.053, -0.009715846, -0.23829584, -892936.4, 729835.3, 0.08196759, 10.007232, 9.996242 
2.3054619e+3, 1.4440553e+2, -846892.25, -1552736.1, 42477.94, -0.0100626, -0.20046003, -844345.1, 680459.3, 0.04930933, 10.006475, 9.996647 
2.305423e+3, 1.5440202e+2, -860682.9, -1534653.6, 46704.93, -0.037609562, -0.20607455, -857461.7, 569378.4, 0.022978425, 10.005625, 9.996509 
2.3053846e+3, 1.6439888e+2, -795504.4, -1349504.9, 46170.734, -0.04151642, -0.20642889, -791682.8, 537189.1, 0.00730802, 10.004871, 9.997469 
2.3053461e+3, 1.7439632e+2, -793012.25, -1310606.1, 41295.992, -0.018427262, -0.20240383, -789738.2, 441159.38, 0.0011883059, 10.004242, 9.997367 
2.3053077e+3, 1.8439412e+2, -745472.6, -1149845.6, 50064.082, -0.010887752, -0.18508796, -739366.56, 393553.63, 0.0000476708, 10.003515, 9.998148 
2.3052691e+3, 1.9439252e+2, -778333.06, -1127194.3, 53973.46, -0.022606427, -0.15162419, -770173.5, 264763.94, 0.000000006496825, 10.002668, 9.998038 
2.3052305e+3, 2.0439097e+2, -721318.75, -942611.25, 43646.65, -0.021218318, -0.14351383, -713021.25, 223932.02, 0.0, 10.001929, 9.998989 
2.3051919e+3, 2.1438964e+2, -717926.56, -900978.75, 40122.16, -0.0037984555, -0.16981833, -709518.6, 129447.31, 0.0, 10.001326, 9.998893 
2.305153e+3, 2.2438869e+2, -687127.9, -776337.06, 27134.678, 0.0054582246, -0.16890372, -679522.7, 61452.92, 0.0, 10.000609, 9.99942 
2.3051138e+3, 2.3438835e+2, -722842.1, -756762.4, 32700.73, 0.00664336, -0.13473786, -702965.0, -59984.715, 0.0, 9.999752, 9.999295 
2.3050745e+3, 2.4438804e+2, -683917.75, -585599.44, 24803.848, 0.0044309953, -0.12666796, -579696.3, -34712.543, 0.0, 9.998909, 10.000203 
2.3050348e+3, 2.5438792e+2, -712805.9, -559388.06, 23699.398, -0.0078121484, -0.15188685, -555810.5, -108826.3, 0.0, 9.998083, 10.000109 
2.3049954e+3, 2.643881e+2, -681694.7, -427776.6, 12573.934, -0.01274201, -0.15927544, -427155.44, -78174.04, 0.0, 9.99734, 10.000697 
2.304956e+3, 2.7438882e+2, -685445.3, -392593.4, 9866.39, 0.0052784425, -0.15063885, -392261.38, -141287.53, 0.0, 9.996701, 10.000574 
2.3049167e+3, 2.8438944e+2, -668949.1, -284910.3, 18596.861, 0.002587138, -0.1567317, -284011.88, -131044.125, 0.0, 9.995931, 10.001012 
2.3048769e+3, 2.9439023e+2, -721934.5, -280079.06, 15212.174, -0.060252257, -0.1673085, -279555.97, -224595.39, 0.0, 9.994982, 10.000829 
2.3048371e+3, 3.0439153e+2, -744112.0, -199302.52, -32514.516, -0.033593647, -0.13542685, -197368.89, -197368.89, 0.0, 9.994207, 10.001423 
2.3047961e+3, 3.1439245e+2, -688236.4, 43174.395, 78917.21, -0.047169626, -0.18217565, 51592.457, 51592.457, 0.0, 9.99367, 10.003343 
2.315548e+3, 1.2445242e+2, -934838.56, -1719752.4, 17399.697, 0.014124146, -0.23526777, -934453.06, 785891.2, 0.11420827, 10.007906, 9.99616 
2.3155081e+3, 1.344485e+2, -905922.44, -1684835.9, -6522.009, -0.00436591, -0.23658861, -905867.8, 716515.06, 0.08190072, 10.007225, 9.996055 
2.3154682e+3, 1.444452e+2, -840960.6, -1539214.1, 12609.518, -0.005253282, -0.19459002, -840733.0, 683682.94, 0.04925723, 10.00647, 9.996744 
2.315429e+3, 1.5444165e+2, -852365.3, -1518160.4, 15247.19, -0.010562374, -0.2138412, -852016.3, 574435.5, 0.022952778, 10.005626, 9.996623 
2.3153894e+3, 1.644386e+2, -799018.56, -1358295.8, 22125.553, -0.016010744, -0.2084412, -798144.6, 530338.25, 0.0073057734, 10.004874, 9.99741 
2.31535e+3, 1.7443624e+2, -797651.9, -1320648.1, 18021.361, -0.023776323, -0.17524727, -797031.6, 433475.03, 0.0011951026, 10.00424, 9.997301 
2.3153108e+3, 1.8443403e+2, -737038.0, -1132780.6, 19337.75, -0.026520727, -0.16293573, -736095.3, 396434.03, 0.000050385515, 10.003513, 9.998267 
2.3152718e+3, 1.9443208e+2, -768597.8, -1108587.0, 22558.445, -0.022919541, -0.17681319, -767107.56, 267441.66, 0.000000012642861, 10.002672, 9.998166 
2.3152325e+3, 2.0443057e+2, -723374.1, -948763.75, 20857.766, -0.01829093, -0.17023695, -721460.2, 215104.63, 0.0, 10.001933, 9.998946 
2.3151931e+3, 2.1442975e+2, -721263.8, -908995.06, 17960.484, -0.012494093, -0.14054896, -719560.94, 119012.82, 0.0, 10.001327, 9.998839 
2.3151533e+3, 2.244289e+2, -676390.9, -754975.7, -4200.479, -0.007612376, -0.13240473, -676167.0, 64415.438, 0.0, 10.00061, 9.999569 
2.3151135e+3, 2.344282e+2, -710802.44, -733255.06, 530.5813, -0.0030364303, -0.15277985, -710789.94, -68200.48, 0.0, 9.999755, 9.999457 
2.3150733e+3, 2.4442783e+2, -684409.4, -588441.4, -6351.4487, -0.002220157, -0.15822044, -588022.9, -43429.777, 0.0, 9.998913, 10.000183 
2.315033e+3, 2.5442806e+2, -714419.6, -564816.0, -7542.591, -0.008546841, -0.143753, -564436.7, -117845.92, 0.0, 9.998089, 10.000071 
2.3149927e+3, 2.6442838e+2, -690061.75, -447057.56, -12490.689, -0.010397839, -0.13291691, -446417.22, -97829.5, 0.0, 9.997345, 10.000564 
2.3149526e+3, 2.744288e+2, -694628.5, -413496.56, -14525.9795, -0.00224764, -0.13709229, -412748.0, -162164.84, 0.0, 9.996705, 10.00043 
2.3149124e+3, 2.8442922e+2, -670665.56, -289712.3, -17440.668, -0.016063994, -0.15246662, -288915.53, -136336.78, 0.0, 9.995933, 10.000979 
2.3148715e+3, 2.9443005e+2, -718726.94, -274038.9, -22150.904, -0.0667815, -0.15785356, -272938.25, -218367.97, 0.0, 9.994981, 10.000873 
2.314832e+3, 3.0443126e+2, -704687.56, -118408.375, -54182.59, 0.044726107, -0.16796263, -113442.99, -113442.99, 0.0, 9.994207, 10.00198 
2.3147893e+3, 3.144333e+2, -756930.4, -103731.75, 36452.785, -0.09015394, -0.14974345, -101703.74, -101703.74, 0.0, 9.993683, 10.002331 
2.3255561e+3, 1.2449295e+2, -907975.56, -1700615.6, 28378.684, 0.024110205, -0.2208256, -906960.9, 812987.1, 0.11387394, 10.008083, 9.99622 
2.3255152e+3, 1.3448888e+2, -911541.7, -1683041.3, 19227.248, 0.005443337, -0.2399779, -911062.8, 710924.44, 0.08163352, 10.007163, 9.996096 
2.3254746e+3, 1.444855e+2, -862284.44, -1552047.9, 43902.883, 0.0041955695, -0.20488995, -859501.3, 664519.4, 0.049074657, 10.006327, 9.996723 
2.3254345e+3, 1.544821e+2, -857076.7, -1522436.5, 37595.855, 0.004875252, -0.20854531, -854959.1, 571096.6, 0.022857176, 10.005606, 9.996601 
2.3253946e+3, 1.6447909e+2, -795465.2, -1347142.5, 46642.098, -0.00076766516, -0.20039317, -791549.56, 536536.8, 0.0072749928, 10.004863, 9.997489 
2.3253542e+3, 1.7447671e+2, -813235.0, -1318384.8, 52418.367, -0.017011385, -0.17913783, -807853.0, 422257.2, 0.001194496, 10.004095, 9.997384 
2.3253143e+3, 1.844745e+2, -756273.1, -1137385.0, 53783.77, -0.024581144, -0.17066273, -748828.4, 383304.1, 0.000052244875, 10.0033655, 9.998304 
2.3252742e+3, 1.9447264e+2, -764532.6, -1102029.6, 49497.74, -0.020896189, -0.17952096, -757423.0, 276728.63, 0.000000017833118, 10.002685, 9.998203 
2.3252341e+3, 2.044712e+2, -721575.1, -947823.06, 47212.043, -0.01837987, -0.16723317, -712118.5, 224048.34, 0.0, 10.001949, 9.998943 
2.325194e+3, 2.1447043e+2, -747855.2, -922048.94, 47271.266, -0.017534439, -0.12988639, -735853.94, 102321.89, 0.0, 10.001149, 9.998833 
2.3251538e+3, 2.2446963e+2, -697927.6, -749037.8, 23850.031, -0.014193413, -0.12284674, -688527.2, 51656.78, 0.0, 10.000396, 9.999711 
2.325113e+3, 2.3446894e+2, -708557.1, -715014.9, 27405.55, -0.0072238874, -0.1557008, -684190.9, -42000.92, 0.0, 9.9997, 9.999607 
2.3250723e+3, 2.4446861e+2, -678952.25, -588998.5, 18345.828, -0.0067017716, -0.16312495, -585400.8, -41207.9, 0.0, 9.998968, 10.000152 
2.325031e+3, 2.5446892e+2, -702868.0, -563905.94, 16263.216, -0.014890653, -0.13756941, -562027.94, -115837.51, 0.0, 9.998192, 10.000025 
2.32499e+3, 2.6446918e+2, -677829.25, -446378.25, 18321.049, -0.013699601, -0.124815635, -444937.0, -96748.83, 0.0, 9.997456, 10.000513 
2.3249492e+3, 2.744695e+2, -692687.8, -417919.47, 22176.572, -0.00036845566, -0.13626906, -416141.1, -165955.81, 0.0, 9.996746, 10.000378 
2.3249082e+3, 2.8446996e+2, -672920.6, -284869.66, 16196.865, -0.018728632, -0.14506814, -284194.78, -132014.6, 0.0, 9.995896, 10.001028 
2.3248665e+3, 2.94471e+2, -717864.1, -264444.53, 17081.504, -0.07523466, -0.13352919, -263801.94, -209633.1, 0.0, 9.994952, 10.00095 
2.3248261e+3, 3.0447176e+2, -669098.25, -81319.13, -13438.061, 0.055456515, -0.20112349, -81012.07, -81012.07, 0.0, 9.99437, 10.002154 
2.3247829e+3, 3.144746e+2, -748304.9, -140362.25, 20634.527, -0.09866335, -0.11781399, -139662.69, -139662.69, 0.0, 9.993919, 10.001965 
2.3355642e+3, 1.2453439e+2, -895981.0, -1673258.6, -3378.3164, 0.02518796, -0.1751229, -895966.3, 823577.7, 0.11326401, 10.008064, 9.996442 
2.3355225e+3, 1.3453e+2, -896879.4, -1651918.0, -13359.848, 0.018289862, -0.24737549, -896643.06, 724941.56, 0.08115605, 10.007165, 9.996309 
2.3354812e+3, 1.4452653e+2, -869764.9, -1571767.4, 17216.98, 0.016577384, -0.22756232, -869342.9, 654275.7, 0.04875279, 10.006335, 9.996586 
2.3354402e+3, 1.5452336e+2, -867625.56, -1544894.4, 11409.157, 0.010085802, -0.19201459, -867433.4, 558218.75, 0.022685613, 10.005601, 9.996451 
2.3353994e+3, 1.6452035e+2, -783245.25, -1321037.6, 18841.365, 0.0058211097, -0.18439388, -782585.94, 545096.7, 0.0072128503, 10.004857, 9.997673 
2.3353587e+3, 1.745177e+2, -799026.5, -1289958.9, 23990.47, 0.00035981074, -0.2102025, -797856.94, 431851.13, 0.001185712, 10.004096, 9.997581 
2.3353176e+3, 1.8451555e+2, -759283.94, -1145200.0, 28311.984, -0.0075004566, -0.20401205, -757217.94, 374511.6, 0.000053136322, 10.003368, 9.998252 
2.3352769e+3, 1.9451413e+2, -768709.3, -1111556.5, 24485.64, -0.017217781, -0.16192387, -766969.44, 266775.66, 0.000000019606611, 10.002685, 9.998139 
2.335236e+3, 2.0451279e+2, -719757.7, -944949.75, 17868.965, -0.021345455, -0.13791074, -718348.6, 217411.19, 0.0, 10.00195, 9.998964 
2.3351952e+3, 2.1451168e+2, -745240.06, -918281.25, 17950.47, -0.019269088, -0.1365689, -743397.56, 94374.73, 0.0, 10.001152, 9.998859 
2.3351541e+3, 2.2451086e+2, -688506.8, -731492.6, -2294.287, -0.014761889, -0.13793753, -688384.7, 51395.785, 0.0, 10.000401, 9.99983 
2.3351128e+3, 2.3451056e+2, -698857.0, -696820.7, 1318.1912, -0.0065358453, -0.1440471, -696173.25, -54391.035, 0.0, 9.999704, 9.999731 
2.3350711e+3, 2.4451037e+2, -682018.44, -597219.3, -10963.642, -0.009409451, -0.14249827, -595824.75, -52041.1, 0.0, 9.998972, 10.000094 
2.3350291e+3, 2.5451046e+2, -706605.5, -573417.2, -12985.089, -0.027042529, -0.13332242, -572163.06, -126379.48, 0.0, 9.998196, 9.999959 
2.3349874e+3, 2.6451057e+2, -675726.06, -443491.8, -8802.005, -0.022555018, -0.13492307, -443158.66, -95375.54, 0.0, 9.997458, 10.000534 
2.3349461e+3, 2.7451083e+2, -689311.4, -413120.5, -5890.966, 0.010736293, -0.14954664, -412994.9, -163214.22, 0.0, 9.996752, 10.00041 
2.3349041e+3, 2.8451163e+2, -664376.2, -268746.66, -20301.273, -0.0056473734, -0.13484186, -267707.66, -115935.17, 0.0, 9.995899, 10.00114 
2.3348613e+3, 2.945131e+2, -711602.7, -251892.16, -16407.006, -0.08676594, -0.09190353, -251307.33, -197550.84, 0.0, 9.99495, 10.0010395 
2.3348199e+3, 3.04513e+2, -686127.7, -117446.37, -27729.43, -0.005814558, -0.2357112, -116097.46, -116097.46, 0.0, 9.99437, 10.001907 
2.3347774e+3, 3.145158e+2, -720958.8, -87546.43, -33870.41, -0.05145412, -0.13203414, -85740.43, -85740.43, 0.0, 9.993931, 10.002324 
2.3455723e+3, 1.2457639e+2, -923168.8, -1681859.0, 19917.322, 0.04955354, -0.14955917, -922646.25, 796488.3, 0.11237727, 10.007825, 9.996489 
2.3455298e+3, 1.3457209e+2, -891336.44, -1644660.9, 1448.8608, 0.032473158, -0.21676834, -891333.7, 729840.6, 0.08046482, 10.007186, 9.996347 
2.3454875e+3, 1.4456856e+2, -852969.75, -1550048.6, 31230.922, 0.024294026, -0.20798907, -851573.3, 671634.94, 0.048287135, 10.006401, 9.9967 
2.3454458e+3, 1.5456533e+2, -880796.56, -1537981.6, 42304.77, 0.020014053, -0.1895853, -878084.5, 547157.0, 0.022434304, 10.005453, 9.996568 
2.345404e+3, 1.6456236e+2, -808087.1, -1326048.1, 60639.484, 0.016408587, -0.18720393, -801082.56, 526188.7, 0.007117521, 10.004659, 9.997732 
2.3453626e+3, 1.7455983e+2, -802324.75, -1284636.8, 55861.12, 0.010083294, -0.20538586, -795939.44, 433356.13, 0.0011684517, 10.004048, 9.997638 
2.345321e+3, 1.8455772e+2, -760619.8, -1142342.0, 55157.504, 0.00021818097, -0.19793254, -752809.5, 378507.03, 0.000053067106, 10.003349, 9.998279 
2.3452796e+3, 1.9455628e+2, -788003.25, -1117679.8, 56881.91, -0.013128258, -0.16116077, -778464.94, 254867.27, 0.000000017443154, 10.0025425, 9.998164 
2.3452377e+3, 2.0455492e+2, -740814.0, -954478.6, 53053.586, -0.020394659, -0.13893436, -728365.9, 206981.19, 0.0, 10.001806, 9.998966 
2.3451963e+3, 2.1455382e+2, -745145.5, -917662.94, 50638.59, -0.020867154, -0.13590883, -731380.06, 105979.7, 0.0, 10.001155, 9.99886 
2.3451543e+3, 2.2455306e+2, -678382.4, -720485.6, 26298.7, -0.018721333, -0.13420823, -665747.3, 73620.18, 0.0, 10.000448, 9.999882 
2.3451123e+3, 2.3455286e+2, -699618.75, -690638.2, 24772.627, -0.011964858, -0.13505657, -669952.2, -28584.148, 0.0, 9.999675, 9.999786 
2.3450698e+3, 2.4455266e+2, -682809.94, -596117.06, 12595.981, -0.014829433, -0.13606223, -594324.0, -50954.67, 0.0, 9.998964, 10.000104 
2.345027e+3, 2.5455263e+2, -687504.9, -562558.5, 15987.6, -0.03196219, -0.13816866, -560545.25, -115175.04, 0.0, 9.998323, 9.99997 
2.3449846e+3, 2.6455277e+2, -665667.7, -439975.63, 17225.176, -0.029055152, -0.1361425, -438668.53, -91298.94, 0.0, 9.997537, 10.000518 
2.3449427e+3, 2.745532e+2, -714971.8, -426124.94, 15954.05, 0.004253456, -0.13241065, -425246.4, -175880.38, 0.0, 9.996582, 10.000401 
2.3448999e+3, 2.8455392e+2, -668155.94, -254653.25, 2782.475, 0.0013374756, -0.13126838, -254634.53, -103276.04, 0.0, 9.995808, 10.001278 
2.3448564e+3, 2.9455513e+2, -663366.94, -215899.34, 10248.297, -0.06147343, -0.12944855, -215664.75, -162320.2, 0.0, 9.99523, 10.00115 
2.344814e+3, 3.0455586e+2, -668518.44, -118429.695, 10836.359, -0.039906736, -0.18760678, -118216.31, -118216.31, 0.0, 9.994536, 10.001818 
2.3447712e+3, 3.145581e+2, -745805.0, -81749.9, 7770.0386, -0.030997682, -0.13910301, -81658.99, -81658.99, 0.0, 9.993689, 10.002478 
2.3555803e+3, 1.2461898e+2, -927288.75, -1694091.8, -2329.233, 0.09058155, -0.13882814, -927281.7, 791437.7, 0.11122294, 10.00783, 9.996392 
2.3555368e+3, 1.3461508e+2, -899254.1, -1661915.6, -19559.04, 0.047146555, -0.154902, -898752.9, 722003.56, 0.07956852, 10.007173, 9.996237 
2.3554939e+3, 1.4461155e+2, -833048.94, -1507068.4, -1194.9604, 0.028232073, -0.1545878, -833046.8, 689743.1, 0.047683798, 10.0063925, 9.997006 
2.3554511e+3, 1.5460801e+2, -856928.2, -1490553.9, 7845.631, 0.033659007, -0.19944982, -856831.06, 567992.8, 0.022106081, 10.005462, 9.99689 
2.3554087e+3, 1.646051e+2, -810830.4, -1335213.5, 37712.03, 0.029870424, -0.2051865, -808132.1, 518720.25, 0.006989699, 10.004668, 9.997666 
2.3553666e+3, 1.7460304e+2, -808137.8, -1296774.3, 33418.324, 0.012796726, -0.168877, -805862.9, 423010.44, 0.0011428338, 10.004045, 9.997558 
2.3553242e+3, 1.8460096e+2, -755214.8, -1130613.9, 25694.824, -0.00040238164, -0.15758748, -753464.25, 377429.78, 0.00005205263, 10.003344, 9.9983635 
2.355282e+3, 1.9459906e+2, -781143.1, -1104764.3, 26973.59, -0.008740364, -0.17567413, -778910.3, 254002.78, 0.000000012769815, 10.002544, 9.998253 
2.3552397e+3, 2.0459759e+2, -742204.44, -959337.75, 28781.502, -0.015985537, -0.16700278, -738454.2, 196474.45, 0.0, 10.001811, 9.998932 
2.3551972e+3, 2.1459682e+2, -747255.0, -923466.75, 26655.455, -0.022583025, -0.12841478, -743311.1, 93627.53, 0.0, 10.001157, 9.998821 
2.3551548e+3, 2.2459617e+2, -679372.9, -724125.06, -2201.3618, -0.026114305, -0.113170706, -679264.9, 59680.71, 0.0, 10.000451, 9.999857 
2.3551115e+3, 2.3459578e+2, -700312.7, -694231.94, -4243.0894, -0.023690509, -0.12854503, -692052.4, -51104.637, 0.0, 9.9996805, 9.999761 
2.3550686e+3, 2.4459547e+2, -677440.9, -587082.3, -11674.268, -0.022984486, -0.14322457, -585598.4, -42648.273, 0.0, 9.99897, 10.000165 
2.3550254e+3, 2.5459546e+2, -681402.44, -551931.5, -8363.229, -0.029924816, -0.1525484, -551393.5, -106442.79, 0.0, 9.998328, 10.000043 
2.3549822e+3, 2.645958e+2, -669682.94, -449804.7, -18988.346, -0.033705782, -0.1283689, -448176.94, -101229.01, 0.0, 9.9975395, 10.000451 
2.3549387e+3, 2.745966e+2, -719444.56, -436048.5, -20591.963, -0.020566233, -0.08326685, -434560.06, -185618.48, 0.0, 9.996581, 10.000335 
2.3548958e+3, 2.8459683e+2, -657050.6, -232263.83, -19903.52, 0.002598552, -0.1348488, -231333.28, -80394.586, 0.0, 9.995808, 10.001434 
2.3548523e+3, 2.9459697e+2, -653256.06, -198060.42, -11509.92, 0.0024871747, -0.25252688, -197769.58, -144835.52, 0.0, 9.99524, 10.001269 
2.3548083e+3, 3.0460045e+2, -663362.25, -110287.82, -21787.28, -0.04694553, -0.051000454, -109430.88, -109430.88, 0.0, 9.994543, 10.001873 
2.3547646e+3, 3.1460112e+2, -757410.3, -104493.23, -1246.3091, -0.05941618, -0.15971473, -104490.85, -104490.85, 0.0, 9.993681, 10.002327 
2.3655884e+3, 1.2466269e+2, -930527.8, -1701907.0, 38782.797, 0.10758794, -0.12264279, -928582.8, 789709.25, 0.10981681, 10.007827, 9.996331 
2.3655441e+3, 1.346587e+2, -930612.6, -1686356.4, 25909.283, 0.07083662, -0.13897134, -929725.44, 690605.56, 0.07848208, 10.006968, 9.996167 
2.3655002e+3, 1.446552e+2, -847749.6, -1497332.5, 41836.086, 0.048886962, -0.14092967, -845066.3, 677298.2, 0.0469541, 10.006209, 9.997163 
2.3654568e+3, 1.5465184e+2, -828719.3, -1457669.3, 41206.383, 0.044877067, -0.18228276, -826031.06, 598364.6, 0.021707218, 10.005581, 9.997057 
2.3654136e+3, 1.6464902e+2, -792463.06, -1328132.4, 66861.35, 0.037273318, -0.18584996, -784243.7, 542179.4, 0.006831376, 10.004807, 9.997646 
2.3653705e+3, 1.7464694e+2, -836605.94, -1313185.5, 65721.695, 0.022252075, -0.14733979, -827708.8, 400735.63, 0.0011089535, 10.003864, 9.99753 
2.3653276e+3, 1.8464482e+2, -790567.4, -1144194.1, 60954.813, 0.009956894, -0.14002874, -780355.44, 350110.16, 0.000050042654, 10.00309, 9.99839 
2.3652844e+3, 1.9464281e+2, -784362.4, -1102327.8, 57372.3, 0.0017004121, -0.17013668, -774327.06, 258158.1, 0.000000007665355, 10.00251, 9.998284 
2.3652415e+3, 2.0464133e+2, -735828.7, -951841.6, 57881.273, -0.007916997, -0.16738185, -721296.8, 213203.78, 0.0, 10.001841, 9.998968 
2.3651983e+3, 2.1464059e+2, -758271.94, -924195.6, 60696.79, -0.019868588, -0.12677106, -738439.0, 98070.8, 0.0, 10.001066, 9.998858 
2.365155e+3, 2.2463995e+2, -690655.8, -731954.6, 35854.895, -0.030332634, -0.111128084, -669929.25, 68587.33, 0.0, 10.000388, 9.999832 
2.3651113e+3, 2.3463951e+2, -682221.7, -688255.94, 33583.15, -0.036307454, -0.12898016, -651520.44, -11000.822, 0.0, 9.999821, 9.999732 
2.3650675e+3, 2.4463914e+2, -653092.94, -570490.3, 21749.92, -0.03538921, -0.1476739, -565113.4, -22590.96, 0.0, 9.99912, 10.000205 
2.3650235e+3, 2.5463912e+2, -688028.3, -549346.0, 23000.049, -0.032979023, -0.16034988, -545631.0, -101108.13, 0.0, 9.998262, 10.000091 
2.3649795e+3, 2.646396e+2, -668463.6, -447025.9, 13607.328, -0.03613479, -0.1269119, -446192.88, -99674.01, 0.0, 9.997542, 10.000467 
2.3649353e+3, 2.7464056e+2, -660127.7, -405379.03, 18402.213, -0.029893994, -0.06412063, -404056.6, -155545.97, 0.0, 9.9969845, 10.000349 
2.3648916e+3, 2.8464055e+2, -595146.8, -207494.1, 13838.705, -0.0007674022, -0.13612117, -207000.69, -56490.72, 0.0, 9.996258, 10.001386 
2.3648477e+3, 2.9464018e+2, -647301.9, -200973.84, 4949.412, 0.014000422, -0.30015182, -200918.97, -148408.38, 0.0, 9.995309, 10.001215 
2.3648028e+3, 3.046446e+2, -668019.75, -106042.06, -10361.087, -0.037862275, -0.000036866404, -105851.1, -105851.1, 0.0, 9.994487, 10.001928 
2.3647583e+3, 3.1464458e+2, -728623.06, -103176.07, 34787.426, -0.059167255, -0.19409059, -101247.13, -101247.13, 0.0, 9.9939375, 10.002211 
2.375596e+3, 1.2470739e+2, -933453.44, -1710396.3, 9187.151, 0.105119824, -0.10678937, -933344.8, 784509.25, 0.10817644, 10.007821, 9.996269 
2.3755513e+3, 1.3470297e+2, -933615.8, -1695490.0, -3644.7043, 0.10056176, -0.15986162, -933598.44, 686299.6, 0.077218466, 10.006967, 9.996106 
2.3755066e+3, 1.4469948e+2, -845442.25, -1494844.4, 19529.916, 0.08182871, -0.15790164, -844855.44, 677076.5, 0.046106488, 10.006209, 9.997182 
2.3754624e+3, 1.5469673e+2, -827340.5, -1454802.9, 18680.91, 0.053877763, -0.14161018, -826784.9, 597172.75, 0.021242378, 10.005574, 9.997082 
2.3754182e+3, 1.6469401e+2, -792441.75, -1327999.6, 32570.914, 0.039826177, -0.13542724, -790468.1, 535515.7, 0.0066444553, 10.004803, 9.997651 
2.3753746e+3, 1.7469151e+2, -835236.5, -1312675.6, 30788.254, 0.03742896, -0.13943474, -833259.3, 394749.8, 0.0010671135, 10.003871, 9.997533 
2.3753308e+3, 1.8468928e+2, -791635.56, -1149699.1, 39251.777, 0.029753173, -0.14220467, -787383.2, 342648.16, 0.000047060163, 10.0031, 9.998349 
2.3752871e+3, 1.9468749e+2, -786086.94, -1108076.4, 36210.867, 0.017273529, -0.14638935, -782064.9, 249983.92, 0.000000003596552, 10.002516, 9.998244 
2.3752435e+3, 2.0468603e+2, -728722.3, -938761.25, 29459.156, 0.0031973484, -0.1428671, -724668.75, 209394.73, 0.0, 10.001844, 9.999058 
2.3751995e+3, 2.1468511e+2, -750777.25, -910473.06, 32173.197, -0.013472663, -0.13049112, -744539.1, 91534.32, 0.0, 10.00107, 9.998952 
2.3751552e+3, 2.2468439e+2, -692763.94, -738162.1, 14434.591, -0.031805, -0.1265274, -688563.06, 49517.64, 0.0, 10.000392, 9.999789 
2.3751108e+3, 2.3468398e+2, -684831.4, -695196.44, 12386.514, -0.049859125, -0.1361832, -676586.94, -36503.03, 0.0, 9.999824, 9.999685 
2.3750664e+3, 2.4468365e+2, -651899.6, -569637.5, -10430.075, -0.051978912, -0.14952113, -568335.7, -26249.006, 0.0, 9.999123, 10.000212 
2.3750217e+3, 2.546836e+2, -686671.4, -548249.25, -9712.783, -0.04153792, -0.16137987, -547571.06, -103483.94, 0.0, 9.998266, 10.000098 
2.3749769e+3, 2.646841e+2, -661759.7, -434695.9, -8254.987, -0.03647682, -0.1320423, -434396.2, -88313.44, 0.0, 9.997546, 10.000552 
2.3749323e+3, 2.7468508e+2, -653246.0, -393720.16, -2330.8315, -0.024125278, -0.0771646, -393699.22, -145625.56, 0.0, 9.996991, 10.000427 
2.3748878e+3, 2.8468516e+2, -613608.0, -248294.22, -22294.781, -0.010107769, -0.13512637, -246938.63, -96865.875, 0.0, 9.996265, 10.001103 
2.3748423e+3, 2.9468483e+2, -664741.06, -238117.13, -33462.56, -0.02953326, -0.26680204, -235508.4, -183434.22, 0.0, 9.995309, 10.000962 
2.3747976e+3, 3.046884e+2, -664289.0, -98541.79, -34682.03, -0.010093813, -0.041547548, -96423.6, -96423.6, 0.0, 9.994484, 10.001983 
2.3747525e+3, 3.146887e+2, -726335.9, -100579.58, 42477.4, -0.041585587, -0.1988488, -97709.305, -97709.305, 0.0, 9.993945, 10.002226 
2.385604e+3, 1.2475277e+2, -937647.44, -1712670.1, 31749.984, 0.12506261, -0.10483056, -936348.9, 781061.2, 0.10631779, 10.007775, 9.996273 
2.3855583e+3, 1.3474843e+2, -940498.75, -1698899.8, 25528.244, 0.11799223, -0.14839828, -939640.4, 679813.2, 0.07578592, 10.0069065, 9.99611 
2.3855129e+3, 1.4474496e+2, -859815.2, -1501562.0, 56627.984, 0.09796169, -0.14362957, -854856.6, 666630.9, 0.04514469, 10.0061035, 9.997182 
2.3854677e+3, 1.547423e+2, -857038.56, -1469314.8, 54389.348, 0.07264961, -0.11955835, -852244.56, 571268.2, 0.020713966, 10.005365, 9.997081 
2.385423e+3, 1.6473958e+2, -812803.3, -1335562.1, 63871.65, 0.05650998, -0.11408594, -805112.5, 520426.53, 0.006430954, 10.004654, 9.997668 
2.3853785e+3, 1.7473696e+2, -818261.1, -1301541.4, 62705.574, 0.04749642, -0.12954253, -810257.6, 417307.38, 0.0010183684, 10.003979, 9.997555 
2.3853339e+3, 1.847347e+2, -766237.9, -1139859.5, 77598.89, 0.035559, -0.13483234, -750762.1, 378825.25, 0.000043354004, 10.003289, 9.998323 
2.3852895e+3, 1.9473295e+2, -778981.6, -1107338.5, 75107.96, 0.020908095, -0.13062434, -762617.1, 268987.4, 0.0000000010889621, 10.00258, 9.998217 
2.3852451e+3, 2.047315e+2, -724796.0, -931465.56, 62592.92, 0.0044256733, -0.12767704, -707317.06, 226301.88, 0.0, 10.001851, 9.999103 
2.3852004e+3, 2.147305e+2, -743035.56, -900952.75, 60892.086, -0.014571772, -0.12681273, -722283.06, 113345.945, 0.0, 10.001102, 9.999 
2.3851556e+3, 2.2472972e+2, -696801.8, -740486.0, 46718.125, -0.034058444, -0.128071, -667072.0, 70564.47, 0.0, 10.00037, 9.999782 
2.3851104e+3, 2.3472933e+2, -710211.7, -707852.7, 47535.445, -0.05227881, -0.13411154, -661482.1, -21842.295, 0.0, 9.999655, 9.999678 
2.3850653e+3, 2.4472909e+2, -665575.44, -577188.7, 23684.197, -0.055442322, -0.13917553, -571242.3, -29600.023, 0.0, 9.999038, 10.000198 
2.3850198e+3, 2.5472915e+2, -649221.06, -530890.5, 22462.139, -0.04577544, -0.14080341, -526770.1, -83127.91, 0.0, 9.99853, 10.000088 
2.3849747e+3, 2.6472956e+2, -616236.56, -403750.88, 20190.857, -0.035167757, -0.121818595, -401849.3, -56211.01, 0.0, 9.997824, 10.000628 
2.3849292e+3, 2.7473035e+2, -663765.0, -389896.0, 25189.047, -0.013476661, -0.0919325, -387598.5, -139968.5, 0.0, 9.996885, 10.000504 
2.3848836e+3, 2.8473052e+2, -637128.2, -267814.78, 12105.339, -0.015306574, -0.13469966, -267418.44, -117790.79, 0.0, 9.996143, 10.001026 
2.3848371e+3, 2.9473048e+2, -629409.0, -231479.39, 14697.686, -0.069664374, -0.22780477, -230937.27, -179310.1, 0.0, 9.995603, 10.000863 
2.3847923e+3, 3.0473313e+2, -647472.9, -143664.94, -3372.224, 0.01676871, -0.068873286, -143642.36, -143642.36, 0.0, 9.994832, 10.001503 
2.3847461e+3, 3.1473354e+2, -694299.75, -17103.904, 42971.656, -0.039103422, -0.17302036, -14388.018, -14388.018, 0.0, 9.993874, 10.002831 
2.3956119e+3, 1.2479883e+2, -932746.5, -1705664.4, 950.88464, 0.15911657, -0.111397326, -932745.4, 784214.5, 0.10425721, 10.007771, 9.996329 
2.3955652e+3, 1.3479498e+2, -934740.1, -1690560.6, -4204.5835, 0.12568326, -0.11171607, -934716.75, 684281.8, 0.07419335, 10.006911, 9.996166 
2.395519e+3, 1.4479154e+2, -860076.7, -1506554.5, 30595.203, 0.100930735, -0.10617709, -858632.0, 662400.44, 0.04407437, 10.006112, 9.997144 
2.3954734e+3, 1.547885e+2, -858385.0, -1475182.6, 27292.357, 0.098780125, -0.11378436, -857179.7, 565881.75, 0.02012719, 10.005372, 9.99704 
2.395428e+3, 1.6478568e+2, -810171.6, -1332528.5, 38731.973, 0.08421346, -0.11667583, -807315.3, 517773.22, 0.006194959, 10.004661, 9.997688 
2.3953824e+3, 1.7478324e+2, -815648.8, -1297995.9, 37507.516, 0.052785106, -0.11725463, -812749.6, 414362.75, 0.0009647642, 10.0039835, 9.997579 
2.395337e+3, 1.8478101e+2, -767463.1, -1143852.6, 51081.926, 0.028929356, -0.118921176, -760653.7, 368480.56, 0.000039368104, 10.003292, 9.998297 
2.3952919e+3, 1.9477917e+2, -780425.3, -1111670.8, 48822.15, 0.013673435, -0.122086324, -773379.3, 257773.22, 0.0000000001152025, 10.002582, 9.998188 
2.3952468e+3, 2.0477767e+2, -725228.1, -933756.0, 34810.945, -0.0033425146, -0.1208085, -719570.44, 213596.83, 0.0, 10.001854, 9.999087 
2.3952012e+3, 2.1477671e+2, -743305.4, -903046.75, 33193.656, -0.022669531, -0.116359286, -736682.44, 98494.336, 0.0, 10.001105, 9.998986 
2.3951557e+3, 2.2477594e+2, -694782.5, -738279.0, 19864.346, -0.03701486, -0.11672242, -687076.06, 50108.01, 0.0, 10.000375, 9.999797 
2.3951101e+3, 2.3477556e+2, -708027.75, -705439.75, 20449.91, -0.04442024, -0.12308801, -686242.94, -47055.266, 0.0, 9.9996605, 9.999693 
2.3950642e+3, 2.447754e+2, -667861.3, -583976.5, 4131.1167, -0.046586122, -0.11659606, -583773.5, -42583.973, 0.0, 9.9990425, 10.000152 
2.3950183e+3, 2.547756e+2, -651459.06, -537504.5, 3279.803, -0.046104085, -0.09880901, -537410.2, -94221.695, 0.0, 9.998535, 10.000042 
2.3949721e+3, 2.6477584e+2, -611878.3, -396254.34, -15444.963, -0.032193102, -0.09636943, -395153.66, -49967.78, 0.0, 9.997828, 10.00068 
2.3949262e+3, 2.747763e+2, -659116.44, -381254.3, -10712.746, 0.0026805701, -0.10863954, -380841.9, -133661.81, 0.0, 9.996885, 10.000565 
2.3948796e+3, 2.8477675e+2, -628871.0, -251477.61, -8979.836, -0.01604919, -0.13465922, -251264.06, -102089.07, 0.0, 9.996143, 10.00114 
2.3948322e+3, 2.9477724e+2, -625559.0, -226146.6, -6875.3623, -0.108432546, -0.18380328, -226028.28, -174858.44, 0.0, 9.99561, 10.000898 
2.3947874e+3, 3.0477875e+2, -720667.75, -298193.75, -40384.234, 0.04117411, -0.08314977, -294368.06, -294368.06, 0.0, 9.99484, 10.000441 
2.39474e+3, 3.1477857e+2, -603837.06, 169536.67, -15633.42, -0.042078, -0.14467509, 169852.56, 169852.56, 0.0, 9.993873, 10.004118 
2.4056196e+3, 1.2484577e+2, -934518.06, -1695758.8, 22460.645, 0.16271879, -0.10504249, -933855.94, 782645.5, 0.10201171, 10.0076885, 9.996443 
2.4055721e+3, 1.3484216e+2, -925767.7, -1672394.0, 22343.188, 0.13345271, -0.09251884, -925099.6, 693437.7, 0.072455175, 10.00691, 9.996291 
2.4055251e+3, 1.4483877e+2, -857046.0, -1512078.8, 61814.3, 0.11204547, -0.08603814, -851263.75, 669307.0, 0.04290861, 10.006163, 9.997078 
2.4054788e+3, 1.5483557e+2, -852837.94, -1479941.5, 57266.24, 0.11546756, -0.09987611, -847651.4, 574950.0, 0.019493021, 10.005444, 9.99697 
2.4054326e+3, 1.6483264e+2, -803047.9, -1332916.1, 67191.79, 0.09938869, -0.10872724, -794660.2, 529969.5, 0.005943173, 10.004728, 9.99765 
2.4053863e+3, 1.7483012e+2, -813064.7, -1300451.3, 61373.953, 0.058348347, -0.11379418, -805455.0, 421199.34, 0.00090889976, 10.00402, 9.997542 
2.4053404e+3, 1.8482794e+2, -763065.1, -1134342.6, 74070.59, 0.03118185, -0.11151368, -748833.4, 379842.2, 0.00003557309, 10.003294, 9.99836 
2.4052945e+3, 1.9482628e+2, -780812.56, -1103980.9, 77452.73, 0.019646548, -0.102032475, -763208.6, 267483.25, 0.000000000004061441, 10.00255, 9.998254 
2.4052486e+3, 2.0482475e+2, -733462.8, -941304.44, 65259.78, 0.0006904713, -0.10401472, -714671.0, 218035.58, 0.0, 10.001817, 9.999051 
2.4052021e+3, 2.1482351e+2, -747565.6, -909051.2, 61542.793, -0.026458, -0.11965817, -726785.44, 107932.89, 0.0, 10.001097, 9.998946 
2.405156e+3, 2.2482271e+2, -688474.2, -736175.06, 48412.098, -0.039702397, -0.12284093, -658356.4, 78369.95, 0.0, 10.000426, 9.9997835 
2.4051099e+3, 2.3482247e+2, -687795.0, -696577.44, 46732.527, -0.03666228, -0.11344466, -645247.8, -6518.9077, 0.0, 9.999807, 9.999681 
2.4050632e+3, 2.4482241e+2, -655362.75, -575484.94, 32224.176, -0.037515584, -0.09591524, -564106.06, -23376.053, 0.0, 9.999122, 10.00017 
2.4050166e+3, 2.548227e+2, -676010.75, -546857.2, 36112.523, -0.045049235, -0.07271006, -537445.6, -94717.28, 0.0, 9.99836, 10.00006 
2.40497e+3, 2.6482284e+2, -637419.75, -403449.63, 12229.481, -0.03460192, -0.08241438, -402812.13, -58085.695, 0.0, 9.997634, 10.000721 
2.4049231e+3, 2.7482304e+2, -646097.2, -368725.38, 15734.633, 0.000527036, -0.12276528, -367835.66, -121113.24, 0.0, 9.996954, 10.000615 
2.4048758e+3, 2.8482357e+2, -599470.8, -235628.13, 22153.45, -0.01910686, -0.14072293, -234284.22, -85568.125, 0.0, 9.996343, 10.00115 
2.4048279e+3, 2.9482448e+2, -602412.3, -215122.53, 14949.493, -0.108955994, -0.15115152, -214546.33, -163838.78, 0.0, 9.995772, 10.000895 
2.4047822e+3, 3.0482537e+2, -712557.94, -318773.28, 514.3047, 0.057318673, -0.09564277, -318772.63, -318772.63, 0.0, 9.995006, 10.000217 
2.4047336e+3, 3.148247e+2, -562647.75, 223318.84, 60450.023, -0.05316967, -0.18692707, 227940.98, 227940.98, 0.0, 9.994017, 10.004414 
2.415627e+3, 1.24893494e+2, -925611.06, -1678618.0, -4752.907, 0.14141668, -0.093785025, -925581.06, 790454.5, 0.099598765, 10.007671, 9.996582 
2.4155788e+3, 1.3489e+2, -913691.25, -1649538.6, -4796.1753, 0.13991024, -0.085823394, -913660.0, 704409.56, 0.07059406, 10.006911, 9.9964485 
2.4155313e+3, 1.4488664e+2, -861171.5, -1525756.5, 35715.74, 0.12840073, -0.07744868, -859257.6, 660844.56, 0.041669797, 10.006171, 9.99698 
2.4154843e+3, 1.5488349e+2, -858605.7, -1494660.5, 30752.896, 0.124158785, -0.07927521, -857122.25, 565010.6, 0.018827898, 10.005447, 9.996869 
2.4154373e+3, 1.648804e+2, -809569.06, -1348206.5, 40870.88, 0.10405487, -0.0930142, -806485.5, 517677.47, 0.005684083, 10.004731, 9.997546 
2.4153902e+3, 1.7487757e+2, -819000.44, -1315178.6, 35186.98, 0.0637532, -0.11878767, -816517.56, 409673.3, 0.00085347873, 10.004026, 9.99744 
2.4153435e+3, 1.8487544e+2, -752950.44, -1115550.5, 46564.58, 0.040995732, -0.11152949, -747066.1, 381145.2, 0.000032342843, 10.0033, 9.998487 
2.4152972e+3, 1.9487423e+2, -771056.06, -1084858.8, 49721.402, 0.037289307, -0.07123764, -763366.25, 266856.6, 0.000000000003904099, 10.002551, 9.998386 
2.4152502e+3, 2.0487268e+2, -737796.9, -951701.4, 38184.195, 0.015130291, -0.07826982, -731185.0, 201052.42, 0.0, 10.00182, 9.9989805 
2.4152032e+3, 2.1487096e+2, -751601.56, -919642.1, 34824.69, -0.026802259, -0.13574354, -744670.4, 89583.42, 0.0, 10.001103, 9.998873 
2.4151562e+3, 2.2487001e+2, -691268.56, -744172.44, 25281.39, -0.042404808, -0.14491381, -681130.2, 55132.99, 0.0, 10.000432, 9.999728 
2.4151096e+3, 2.3487003e+2, -690841.44, -704644.56, 23489.793, -0.029151753, -0.105135344, -673260.3, -34996.523, 0.0, 9.999811, 9.999626 
2.4150625e+3, 2.4487008e+2, -649816.5, -565674.56, 3360.5784, -0.028261326, -0.07755044, -565540.56, -25276.629, 0.0, 9.9991255, 10.000237 
2.415015e+3, 2.5487033e+2, -670522.4, -537207.6, 6890.7456, -0.042943407, -0.062896565, -536852.4, -94590.19, 0.0, 9.9983635, 10.000127 
2.4149673e+3, 2.6487046e+2, -635956.8, -401828.06, -14081.886, -0.0429152, -0.07987396, -400984.13, -56723.805, 0.0, 9.997637, 10.000733 
2.4149197e+3, 2.748705e+2, -644008.7, -366170.2, -9951.865, -0.021761172, -0.13404389, -365814.2, -119556.93, 0.0, 9.996958, 10.000632 
2.414872e+3, 2.84871e+2, -606164.9, -251317.03, -53.487198, -0.024788566, -0.15359643, -251317.03, -103065.586, 0.0, 9.996346, 10.001042 
2.4148239e+3, 2.9487213e+2, -605028.3, -222114.25, -8341.675, -0.067295246, -0.13121386, -221932.61, -171691.77, 0.0, 9.995775, 10.000847 
2.4147773e+3, 3.0487308e+2, -666473.8, -224787.58, -34451.12, 0.06494098, -0.10437502, -222116.58, -222116.58, 0.0, 9.9950075, 10.000863 
2.4147275e+3, 3.1487316e+2, -624999.6, 90211.97, 5162.3037, -0.06518443, -0.175006, 90249.23, 90249.23, 0.0, 9.994026, 10.003498 
2.4256343e+3, 1.2494205e+2, -957901.56, -1692427.0, 25382.48, 0.1443279, -0.07812854, -957025.44, 758535.7, 0.097035475, 10.007397, 9.996608 
2.4255857e+3, 1.3493857e+2, -908831.4, -1643158.8, 20693.688, 0.14505687, -0.07189884, -908248.7, 709346.0, 0.06863655, 10.006919, 9.996488 
2.4255374e+3, 1.4493515e+2, -852024.06, -1527345.9, 52689.848, 0.13326809, -0.06780355, -847937.8, 671689.9, 0.040383507, 10.006259, 9.996925 
2.4254897e+3, 1.549319e+2, -866738.5, -1504500.9, 49713.3, 0.12668946, -0.071513794, -862886.6, 558772.7, 0.018148746, 10.005415, 9.996816 
2.4254419e+3, 1.6492881e+2, -814097.9, -1351068.0, 70103.34, 0.10594644, -0.08348977, -805096.5, 518593.13, 0.0054255817, 10.004704, 9.997538 
2.4253944e+3, 1.74926e+2, -803967.9, -1308057.6, 70809.59, 0.067161046, -0.10461973, -794210.1, 431507.22, 0.00080073875, 10.004134, 9.997435 
2.425347e+3, 1.8492389e+2, -734699.94, -1103178.5, 74870.71, 0.045752775, -0.0980236, -720068.06, 407669.7, 0.000029880799, 10.003414, 9.998515 
2.4252996e+3, 1.9492261e+2, -771097.44, -1081560.4, 70128.7, 0.042890977, -0.06393274, -755991.5, 273757.9, 0.0000000000084542815, 10.00254, 9.998412 
2.4252522e+3, 2.0492104e+2, -742033.4, -956568.1, 61856.043, 0.02021118, -0.07377522, -725476.44, 206287.69, 0.0, 10.001806, 9.998951 
2.4252044e+3, 2.149193e+2, -737052.1, -915299.8, 60883.7, -0.023458667, -0.12994672, -718241.3, 115539.45, 0.0, 10.001219, 9.998845 
2.4251567e+3, 2.2491835e+2, -677666.3, -738395.8, 52062.363, -0.039455704, -0.13685164, -647760.8, 88029.484, 0.0, 10.000533, 9.999717 
2.4251091e+3, 2.3491837e+2, -701340.75, -710560.56, 53388.715, -0.025201997, -0.09436778, -652363.3, -14572.135, 0.0, 9.999747, 9.999614 
2.4250615e+3, 2.449184e+2, -659658.56, -563703.6, 34120.016, -0.024341669, -0.06946157, -552808.25, -13017.001, 0.0, 9.999034, 10.000293 
2.4250132e+3, 2.5491863e+2, -661854.4, -526173.56, 36377.613, -0.04083437, -0.06227551, -517035.72, -75246.61, 0.0, 9.998399, 10.000183 
2.4249649e+3, 2.6491874e+2, -620623.75, -396012.56, 14192.906, -0.046451658, -0.0819999, -395119.28, -51332.016, 0.0, 9.997753, 10.000715 
2.4249165e+3, 2.749188e+2, -629239.75, -361136.84, 15057.973, -0.032476135, -0.13531904, -360293.78, -114508.945, 0.0, 9.997071, 10.00061 
2.4248682e+3, 2.8491938e+2, -609127.9, -253535.38, 27775.65, -0.02608436, -0.14215608, -251378.88, -103600.84, 0.0, 9.996334, 10.001031 
2.4248198e+3, 2.949208e+2, -625346.6, -224043.52, 27261.37, -0.04860332, -0.089696504, -222200.06, -172435.86, 0.0, 9.995608, 10.000911 
2.424772e+3, 3.0492118e+2, -622026.1, -145055.48, -3253.5205, 0.042338762, -0.15235738, -145033.3, -145033.3, 0.0, 9.995066, 10.001381 
2.4247217e+3, 3.1492245e+2, -597024.5, 25948.77, 26345.375, -0.058376435, -0.14691752, 27060.924, 27060.924, 0.0, 9.994555, 10.0028 
2.4356419e+3, 1.24991424e+2, -959144.5, -1700361.8, 7774.9976, 0.16434085, -0.055300716, -959063.0, 756015.25, 0.09434068, 10.007399, 9.996547 
2.4355926e+3, 1.3498782e+2, -912482.94, -1653147.0, 3672.3066, 0.14794987, -0.05528709, -912464.75, 704648.3, 0.066606194, 10.006908, 9.996425 
2.4355434e+3, 1.4498428e+2, -854799.94, -1534137.8, 22360.98, 0.1280173, -0.060535617, -854064.75, 665082.75, 0.0390699, 10.006249, 9.996884 
2.4354948e+3, 1.5498088e+2, -868292.6, -1509578.0, 18789.418, 0.12340295, -0.07412496, -867742.56, 553437.7, 0.017467665, 10.005416, 9.996782 
2.4354465e+3, 1.649779e+2, -808856.25, -1341574.8, 49147.977, 0.1050631, -0.07788685, -804359.9, 518849.75, 0.005173003, 10.004706, 9.997603 
2.4353983e+3, 1.7497541e+2, -800032.7, -1299238.6, 49590.4, 0.068792745, -0.07310901, -795154.1, 430080.1, 0.00075202686, 10.0041275, 9.9975 
2.4353501e+3, 1.8497322e+2, -740825.9, -1115512.4, 42055.402, 0.045818545, -0.07306747, -736163.56, 391091.75, 0.000028194901, 10.003408, 9.998435 
2.435302e+3, 1.9497147e+2, -775788.44, -1093250.1, 37455.527, 0.03731244, -0.078406505, -771429.1, 257842.38, 0.00000000002968512, 10.002544, 9.998332 
2.4352537e+3, 2.0496985e+2, -741148.9, -957177.0, 39924.023, 0.016821453, -0.08814477, -734006.7, 197279.94, 0.0, 10.001813, 9.998945 
2.4352056e+3, 2.149685e+2, -736861.4, -916105.5, 39150.67, -0.016596587, -0.103469655, -728683.2, 104616.31, 0.0, 10.00122, 9.998841 
2.4351573e+3, 2.2496767e+2, -675984.7, -736092.9, 22643.96, -0.03137126, -0.10093154, -668409.06, 66899.09, 0.0, 10.000534, 9.999734 
2.4351089e+3, 2.3496747e+2, -699380.5, -708128.44, 23540.31, -0.025134152, -0.08144794, -679811.25, -42499.965, 0.0, 9.99975, 9.999631 
2.4350603e+3, 2.4496739e+2, -656786.44, -559579.8, 9865.627, -0.025835881, -0.07104722, -558588.6, -19276.527, 0.0, 9.999038, 10.00032 
2.4350114e+3, 2.5496757e+2, -658790.94, -521645.94, 12500.297, -0.038972955, -0.07091065, -520515.9, -79206.5, 0.0, 9.998403, 10.000215 
2.4349624e+3, 2.6496768e+2, -624452.44, -405684.5, -11908.085, -0.045086753, -0.08874203, -405038.22, -61730.633, 0.0, 9.997757, 10.0006485 
2.4349134e+3, 2.749678e+2, -633607.7, -372196.44, -12277.767, -0.030877933, -0.12617365, -371621.06, -126315.62, 0.0, 9.997076, 10.000534 
2.4348645e+3, 2.8496867e+2, -603850.1, -243938.48, -657.06995, -0.023171302, -0.10536702, -243937.28, -96641.16, 0.0, 9.996336, 10.001099 
2.4348152e+3, 2.9497045e+2, -614335.5, -201647.88, 1572.3116, -0.056785177, -0.026161402, -201641.89, -152363.88, 0.0, 9.995606, 10.001067 
2.4347663e+3, 3.0496958e+2, -595664.0, -91473.51, -22800.656, -0.013899292, -0.2436596, -90444.516, -90444.516, 0.0, 9.995068, 10.00175 
2.4347164e+3, 3.1497207e+2, -628865.0, -43478.16, 30699.436, -0.038155742, -0.14385287, -41872.594, -41872.594, 0.0, 9.994569, 10.002317 
2.4456489e+3, 1.2504113e+2, -958757.0, -1696600.6, 21357.527, 0.15238822, -0.047625046, -958139.3, 756452.7, 0.09153308, 10.007363, 9.996591 
2.4455994e+3, 1.3503762e+2, -940227.0, -1662822.4, 23572.195, 0.1549757, -0.041173037, -939458.8, 677167.06, 0.06451674, 10.006672, 9.996471 
2.4455495e+3, 1.4503407e+2, -884448.44, -1542501.6, 44308.06, 0.13826264, -0.05002539, -881478.5, 637181.5, 0.037737254, 10.006005, 9.9969425 
2.4455002e+3, 1.5503061e+2, -869612.44, -1503221.4, 46889.207, 0.12156387, -0.07693454, -866161.25, 554532.0, 0.016788317, 10.005377, 9.996842 
2.4454509e+3, 1.6502763e+2, -814981.6, -1346628.0, 78880.55, 0.10326754, -0.08034677, -803525.0, 519197.47, 0.004927531, 10.004675, 9.997582 
2.4454023e+3, 1.7502525e+2, -834135.8, -1317420.4, 72912.664, 0.0790577, -0.06133251, -823375.1, 401371.16, 0.0007073339, 10.003903, 9.997482 
2.4453536e+3, 1.8502307e+2, -771415.8, -1135955.6, 61548.76, 0.055393685, -0.05692259, -761304.4, 365463.25, 0.000027088983, 10.003226, 9.998381 
2.4453044e+3, 1.9502121e+2, -764960.25, -1093288.1, 58322.336, 0.0338987, -0.067956425, -754907.94, 273877.13, 0.00000000008671795, 10.0026455, 9.998281 
2.4452554e+3, 2.0501956e+2, -718636.3, -940820.94, 63438.527, 0.012390244, -0.08023725, -701799.1, 229001.4, 0.0, 10.001948, 9.998991 
2.4452065e+3, 2.1501826e+2, -746324.2, -915123.8, 65809.2, -0.010192139, -0.094487034, -723699.8, 109112.93, 0.0, 10.001135, 9.998887 
2.4451578e+3, 2.250175e+2, -697396.3, -747856.1, 48816.676, -0.02447176, -0.08578891, -667675.2, 67145.625, 0.0, 10.000398, 9.999717 
2.4451084e+3, 2.3501736e+2, -702650.1, -711116.4, 46945.637, -0.028039267, -0.055880774, -659747.1, -22923.518, 0.0, 9.999738, 9.999615 
2.4450593e+3, 2.4501722e+2, -643775.7, -547788.8, 35827.77, -0.030279802, -0.05498448, -535890.7, 2934.313, 0.0, 9.999107, 10.000366 
2.4450098e+3, 2.5501716e+2, -641199.0, -507146.78, 39462.957, -0.036858883, -0.08260301, -496392.25, -55568.73, 0.0, 9.998501, 10.000265 
2.4449602e+3, 2.6501727e+2, -614771.56, -406912.4, 13436.5, -0.041589055, -0.097680256, -406047.44, -63226.01, 0.0, 9.997852, 10.000592 
2.4449104e+3, 2.7501768e+2, -623134.8, -372207.28, 13124.341, -0.030197795, -0.10399211, -371522.7, -126705.04, 0.0, 9.997174, 10.0004835 
2.4448606e+3, 2.8501844e+2, -580498.4, -229858.58, 22417.479, -0.0306039, -0.09027105, -228431.17, -81621.74, 0.0, 9.996488, 10.00112 
2.4448106e+3, 2.9501984e+2, -591631.44, -189573.1, 20985.531, -0.08014712, -0.050574142, -188480.7, -139686.14, 0.0, 9.99576, 10.001075 
2.4447612e+3, 3.050196e+2, -580059.1, -74784.23, -16213.737, -0.020612383, -0.20742306, -74264.48, -74264.48, 0.0, 9.995138, 10.001829 
2.4447109e+3, 3.1502232e+2, -610730.3, -35047.39, 36737.547, -0.030047374, -0.097836696, -32712.432, -32712.432, 0.0, 9.994698, 10.002311 
2.4556558e+3, 1.2509117e+2, -951651.44, -1682281.4, -2794.1946, 0.11447535, -0.054999202, -951640.75, 762461.4, 0.0886278, 10.00734, 9.99671 
2.455606e+3, 1.3508801e+2, -932118.75, -1645756.0, -1010.03906, 0.16478668, -0.02585522, -932117.3, 684015.2, 0.062372155, 10.006659, 9.996595 
2.4555556e+3, 1.4508459e+2, -875205.9, -1525015.3, 21077.168, 0.16004342, -0.03433245, -874522.94, 643642.2, 0.036383096, 10.006003, 9.997066 
2.4555054e+3, 1.5508105e+2, -859982.6, -1485383.8, 23110.3, 0.12025573, -0.08071177, -859129.8, 561068.8, 0.016106669, 10.00538, 9.996965 
2.4554555e+3, 1.6507801e+2, -821818.56, -1362826.3, 49607.355, 0.10042954, -0.09092027, -817307.44, 504921.03, 0.004686104, 10.004679, 9.997472 
2.4554062e+3, 1.7507559e+2, -840800.6, -1332795.6, 43890.035, 0.09614709, -0.067077056, -836915.94, 387337.66, 0.0006650807, 10.003906, 9.997377 
2.4553567e+3, 1.8507348e+2, -773996.1, -1142415.1, 39908.676, 0.072840385, -0.047973108, -769722.6, 356552.03, 0.000026177097, 10.003227, 9.998338 
2.455307e+3, 1.950718e+2, -768082.25, -1099715.3, 36815.086, 0.032231543, -0.03422381, -764044.56, 264245.9, 0.00000000016280782, 10.002642, 9.99824 
2.4552573e+3, 2.0507012e+2, -713269.06, -930029.0, 33177.387, 0.006938888, -0.052460756, -708304.6, 222001.61, 0.0, 10.001946, 9.999068 
2.4552077e+3, 2.1506856e+2, -739779.44, -903305.1, 35509.758, -0.004496449, -0.10248014, -732401.4, 99919.3, 0.0, 10.001139, 9.998968 
2.455158e+3, 2.2506784e+2, -700957.3, -757579.94, 24201.422, -0.01894085, -0.089692086, -692022.94, 42305.42, 0.0, 10.000404, 9.999649 
2.4551079e+3, 2.3506805e+2, -706240.7, -720789.56, 21990.012, -0.03402786, -0.01797171, -690353.1, -54024.684, 0.0, 9.999744, 9.999547 
2.4550581e+3, 2.4506783e+2, -639415.0, -540695.2, 12778.228, -0.03759036, -0.022225197, -539068.0, -737.8464, 0.0, 9.999112, 10.000415 
2.4550083e+3, 2.5506735e+2, -636621.44, -499465.53, 15910.864, -0.034751784, -0.097772196, -497643.97, -57312.13, 0.0, 9.998506, 10.000318 
2.454958e+3, 2.6506752e+2, -618398.06, -416011.3, -12739.186, -0.03633317, -0.1088612, -415212.6, -72883.52, 0.0, 9.997855, 10.00053 
2.4549074e+3, 2.750683e+2, -625534.75, -378654.16, -12457.481, -0.03117919, -0.06871183, -378027.16, -133705.31, 0.0, 9.997177, 10.000441 
2.4548566e+3, 2.8506863e+2, -582406.75, -235340.73, -5497.746, -0.048959777, -0.09823185, -235253.66, -88935.25, 0.0, 9.9964905, 10.001082 
2.454806e+3, 2.950689e+2, -601767.9, -213037.95, -7606.033, -0.11870761, -0.16689104, -212889.19, -164574.56, 0.0, 9.995767, 10.000913 
2.4547566e+3, 3.050713e+2, -597668.3, -113159.3, -36014.406, 0.026463991, -0.031547867, -110496.914, -110496.914, 0.0, 9.995142, 10.001566 
2.4547054e+3, 3.1507146e+2, -589442.56, 8420.345, 15936.985, -0.046549864, -0.16361, 8844.869, 8844.869, 0.0, 9.994698, 10.002612 
2.4656628e+3, 1.251419e+2, -982044.6, -1684752.8, 15574.596, 0.11096141, -0.051296864, -981699.56, 731905.9, 0.08563235, 10.007031, 9.996839 
2.4656123e+3, 1.3513874e+2, -955641.9, -1643643.1, 17248.814, 0.16833055, -0.03521369, -955209.7, 660425.75, 0.060167868, 10.0064125, 9.996728 
2.4655615e+3, 1.4513542e+2, -893403.1, -1527931.0, 40517.766, 0.16145536, -0.042247597, -890826.3, 626840.75, 0.03499684, 10.005842, 9.997122 
2.4655105e+3, 1.551321e+2, -862005.5, -1479659.0, 38084.95, 0.11157845, -0.07375421, -859666.06, 560032.94, 0.015412816, 10.005337, 9.997024 
2.46546e+3, 1.6512914e+2, -818252.0, -1359254.8, 58752.266, 0.09200467, -0.07743973, -811945.06, 509782.97, 0.004442426, 10.004698, 9.997484 
2.4654101e+3, 1.7512669e+2, -835836.3, -1327996.9, 60761.94, 0.09763782, -0.0553827, -828445.7, 395307.53, 0.0006226293, 10.003934, 9.997395 
2.4653599e+3, 1.8512453e+2, -780355.75, -1144611.6, 65860.86, 0.075120755, -0.043053914, -768813.25, 356961.5, 0.000025000976, 10.003183, 9.998342 
2.4653094e+3, 1.9512275e+2, -795882.44, -1112154.5, 65455.895, 0.02660438, -0.040527366, -782870.94, 244920.69, 0.00000000021615258, 10.00245, 9.998246 
2.465259e+3, 2.051211e+2, -736362.06, -938350.56, 59341.234, 0.0019380453, -0.056044072, -720218.7, 209588.5, 0.0, 10.00178, 9.999089 
2.4652088e+3, 2.151197e+2, -733774.9, -897210.4, 56714.984, -0.0005892789, -0.089973256, -716022.1, 115798.1, 0.0, 10.001171, 9.998993 
2.4651583e+3, 2.2511902e+2, -683988.94, -751082.56, 46395.656, -0.014676292, -0.07231761, -660282.4, 73545.305, 0.0, 10.000532, 9.999631 
2.4651077e+3, 2.3511915e+2, -690430.6, -714374.4, 47680.48, -0.037762504, -0.0069195996, -653242.0, -17413.377, 0.0, 9.999862, 9.999533 
2.4650571e+3, 2.4511889e+2, -631726.8, -535479.4, 38491.227, -0.043718707, -0.01606333, -521979.5, 15851.25, 0.0, 9.999163, 10.000424 
2.4650066e+3, 2.5511837e+2, -646593.44, -502774.34, 37861.984, -0.037408713, -0.09452002, -493415.75, -53583.363, 0.0, 9.998434, 10.000327 
2.4649556e+3, 2.6511857e+2, -624576.9, -418225.44, 12426.951, -0.036193185, -0.103376515, -417479.75, -75650.414, 0.0, 9.997813, 10.000533 
2.4649045e+3, 2.7511942e+2, -608117.4, -369573.1, 17495.389, -0.030550804, -0.055992685, -368296.75, -124475.23, 0.0, 9.997296, 10.000443 
2.4648532e+3, 2.8511962e+2, -557118.25, -225847.73, 20186.074, -0.059033584, -0.09226586, -224622.23, -78803.414, 0.0, 9.996679, 10.001055 
2.4648012e+3, 2.9511967e+2, -580600.2, -208959.81, 18132.209, -0.14345206, -0.18151611, -208077.23, -160260.13, 0.0, 9.995942, 10.000854 
2.4647519e+3, 3.0512214e+2, -592852.1, -149668.1, 2905.0747, 0.050352152, -0.015737485, -149649.06, -149649.06, 0.0, 9.995347, 10.001213 
2.4646997e+3, 3.151212e+2, -567639.5, 19553.48, 20050.502, -0.06635511, -0.22434218, 20237.336, 20237.336, 0.0, 9.994849, 10.002613 
2.47567e+3, 1.2519333e+2, -973044.25, -1669247.0, -4792.602, 0.13267346, -0.038095087, -973011.25, 740090.75, 0.08254369, 10.007022, 9.996959 
2.4756187e+3, 1.3518983e+2, -946075.56, -1626861.0, -4655.913, 0.16502407, -0.066221826, -946043.75, 669090.6, 0.057891283, 10.006413, 9.996843 
2.4755672e+3, 1.451866e+2, -892223.44, -1529543.5, 21926.568, 0.14578953, -0.07018183, -891469.94, 625695.4, 0.033562772, 10.005847, 9.99711 
2.4755156e+3, 1.551837e+2, -862623.5, -1481118.9, 19417.021, 0.09656532, -0.056650143, -862014.56, 557179.56, 0.014694298, 10.00533, 9.997019 
2.4754646e+3, 1.6518098e+2, -812194.1, -1345121.6, 30390.762, 0.07851477, -0.042734772, -810466.6, 510754.53, 0.0041895485, 10.004686, 9.997589 
2.4754138e+3, 1.7517857e+2, -828928.9, -1313126.0, 32232.1, 0.0855146, -0.028245077, -826792.6, 396452.78, 0.000577603, 10.003927, 9.997501 
2.4753629e+3, 1.8517621e+2, -777957.9, -1140490.1, 38413.195, 0.06409568, -0.04236062, -773932.4, 351335.9, 0.000023236666, 10.003183, 9.998372 
2.4753115e+3, 1.9517402e+2, -792647.2, -1107328.0, 38052.62, 0.017194867, -0.08371397, -788111.06, 239177.58, 0.00000000023303823, 10.002454, 9.99828 
2.4752605e+3, 2.0517248e+2, -738801.7, -945159.9, 36588.543, -0.0028713117, -0.08738386, -732506.4, 196797.03, 0.0, 10.001783, 9.9990425 
2.4752097e+3, 2.1517168e+2, -736796.94, -904249.0, 34073.098, 0.0014707475, -0.057226196, -730129.25, 101182.48, 0.0, 10.00117, 9.998946 
2.4751587e+3, 2.2517103e+2, -682397.3, -748910.94, 21401.064, -0.011621229, -0.03548494, -676106.4, 57212.742, 0.0, 10.000533, 9.999647 
2.4751075e+3, 2.3517065e+2, -688000.4, -711139.8, 22252.336, -0.039413836, -0.022689518, -674489.75, -39165.344, 0.0, 9.999866, 9.999555 
2.4750562e+3, 2.4517034e+2, -633963.2, -541923.6, 10891.066, -0.049018797, -0.03535198, -540652.44, -3325.5498, 0.0, 9.9991665, 10.0003805 
2.475005e+3, 2.551702e+2, -649197.56, -509938.38, 10011.85, -0.045341413, -0.07226469, -509222.28, -69896.86, 0.0, 9.998438, 10.0002775 
2.4749534e+3, 2.6517037e+2, -620067.9, -410477.88, -7547.703, -0.041152433, -0.08122128, -410206.44, -68883.945, 0.0, 9.997816, 10.0005865 
2.4749017e+3, 2.7517095e+2, -604420.25, -363930.66, -2020.8978, -0.02831534, -0.06677097, -363913.7, -120596.61, 0.0, 9.997301, 10.000482 
2.4748497e+3, 2.851715e+2, -559045.3, -231799.4, -8142.474, -0.060759567, -0.071543865, -231596.92, -86286.07, 0.0, 9.996683, 10.001014 
2.4747969e+3, 2.9517218e+2, -578120.75, -205346.42, -10807.273, -0.15437123, -0.0896198, -205033.36, -157731.52, 0.0, 9.995944, 10.000879 
2.4747473e+3, 3.0517197e+2, -624137.5, -216146.1, -14544.453, 0.048582256, -0.1744433, -215628.25, -215628.25, 0.0, 9.99535, 10.000757 
2.4746946e+3, 3.1517297e+2, -558338.5, 35737.035, -33778.41, -0.07019698, -0.13703582, 37651.465, 37651.465, 0.0, 9.994856, 10.002725 
2.4856767e+3, 1.2524547e+2, -993267.75, -1681853.0, 32391.793, 0.14268798, -0.03490949, -991747.4, 720843.75, 0.07934397, 10.006861, 9.99694 
2.4856247e+3, 1.3524191e+2, -942357.25, -1627213.8, 25094.275, 0.14472166, -0.06766739, -941438.94, 673185.4, 0.055521064, 10.006436, 9.996828 
2.4855725e+3, 1.4523871e+2, -892595.06, -1526415.3, 45156.438, 0.12353823, -0.06914594, -889394.06, 627261.2, 0.032062422, 10.005826, 9.99714 
2.4855207e+3, 1.5523593e+2, -896036.1, -1493701.3, 44435.766, 0.099308915, -0.045297045, -892750.44, 525932.5, 0.013939281, 10.005081, 9.99705 
2.485469e+3, 1.6523325e+2, -849040.25, -1351467.6, 53611.145, 0.08490972, -0.032558803, -843383.4, 477326.1, 0.0039222077, 10.004385, 9.997689 
2.4854173e+3, 1.7523082e+2, -850329.0, -1311725.3, 54813.418, 0.075834155, -0.030181667, -843906.6, 378826.84, 0.0005287633, 10.003734, 9.997603 
2.4853657e+3, 1.8522847e+2, -789784.1, -1145229.6, 60883.84, 0.052816294, -0.04850026, -779644.6, 345111.56, 0.000020785536, 10.003102, 9.998377 
2.485314e+3, 1.952263e+2, -786563.75, -1102862.0, 58102.625, 0.018072583, -0.086785845, -776228.25, 250548.2, 0.00000000017417703, 10.002494, 9.998288 
2.4852622e+3, 2.0522484e+2, -735522.4, -941405.1, 56501.496, 0.0011040869, -0.08388591, -721035.7, 207755.06, 0.0, 10.001801, 9.999058 
2.4852107e+3, 2.1522413e+2, -756680.44, -911605.0, 58059.117, -0.000118764074, -0.04386937, -737337.44, 93460.84, 0.0, 10.001028, 9.998962 
2.4851589e+3, 2.2522345e+2, -706741.1, -761376.2, 49426.46, -0.013299441, -0.026260791, -677585.5, 55220.65, 0.0, 10.000373, 9.999637 
2.4851072e+3, 2.3522289e+2, -694379.0, -714581.5, 47692.805, -0.035923313, -0.030080622, -655729.44, -20916.52, 0.0, 9.999827, 9.999548 
2.4850552e+3, 2.452226e+2, -624564.8, -538793.9, 33235.117, -0.04695093, -0.038043905, -527423.1, 9392.087, 0.0, 9.999241, 10.000364 
2.4850032e+3, 2.5522268e+2, -624598.75, -499443.56, 34284.945, -0.05071574, -0.05130524, -490667.0, -51854.863, 0.0, 9.998616, 10.000262 
2.4849509e+3, 2.652228e+2, -592592.2, -392845.53, 20488.867, -0.04975975, -0.067708984, -390765.56, -49955.78, 0.0, 9.99799, 10.000623 
2.4848989e+3, 2.7522308e+2, -595937.9, -355769.97, 24026.791, -0.035531823, -0.08560405, -353389.88, -110583.31, 0.0, 9.997346, 10.000514 
2.4848463e+3, 2.8522378e+2, -555231.94, -234845.95, 15008.635, -0.062468037, -0.07220898, -234144.4, -89345.95, 0.0, 9.996735, 10.000967 
2.4847929e+3, 2.9522493e+2, -545367.2, -191434.55, 11740.17, -0.14875972, -0.037283756, -191045.55, -144260.66, 0.0, 9.996181, 10.000859 
2.4847423e+3, 3.0522352e+2, -605969.44, -232353.53, 15801.538, 0.02275284, -0.23399115, -231686.42, -231686.42, 0.0, 9.995586, 10.00053 
2.4846895e+3, 3.152253e+2, -539805.2, 78152.58, 5366.1787, -0.053607754, -0.08803354, 78199.18, 78199.18, 0.0, 9.994843, 10.00302 
2.4956836e+3, 1.2529832e+2, -997931.94, -1697432.4, 16983.799, 0.14306854, -0.03838532, -997519.8, 714553.44, 0.07600364, 10.006862, 9.996823 
2.4956307e+3, 1.3529493e+2, -947771.25, -1644154.5, 8834.06, 0.10943962, -0.043739818, -947659.2, 666446.5, 0.053032506, 10.006439, 9.996712 
2.495578e+3, 1.4529169e+2, -888242.7, -1521266.8, 17707.266, 0.095373996, -0.04397794, -887747.75, 628389.25, 0.030480035, 10.00583, 9.997174 
2.495526e+3, 1.5528876e+2, -892698.06, -1488026.8, 16805.082, 0.1166945, -0.03924579, -892224.06, 525941.75, 0.01314074, 10.005079, 9.997092 
2.4954733e+3, 1.6528597e+2, -842899.06, -1339436.1, 29123.313, 0.10740571, -0.04350298, -841196.75, 478996.13, 0.003638799, 10.004384, 9.997774 
2.4954209e+3, 1.7528346e+2, -843633.75, -1299601.6, 30205.838, 0.06743078, -0.057232287, -841641.44, 380575.78, 0.00047625834, 10.003737, 9.997686 
2.4953684e+3, 1.8528129e+2, -791529.4, -1150127.9, 38001.586, 0.041195188, -0.059505124, -787546.44, 336691.94, 0.000017741677, 10.003104, 9.998344 
2.4953164e+3, 1.9527955e+2, -788938.1, -1107344.8, 35285.74, 0.028129026, -0.052697048, -785074.6, 241180.81, 0.00000000005180779, 10.002488, 9.998262 
2.495264e+3, 2.0527811e+2, -731457.7, -933217.4, 27738.637, 0.0127391005, -0.04957063, -727713.56, 200556.13, 0.0, 10.001798, 9.999118 
2.4952117e+3, 2.1527708e+2, -751372.0, -902786.8, 29537.195, -0.0054899883, -0.050248653, -745814.06, 84466.0, 0.0, 10.001034, 9.9990225 
2.4951592e+3, 2.2527628e+2, -709406.25, -769247.4, 29053.627, -0.019503728, -0.042728115, -697621.25, 34667.46, 0.0, 10.00038, 9.999581 
2.4951069e+3, 2.3527585e+2, -697447.5, -722458.6, 26720.787, -0.02788662, -0.028450906, -680450.7, -46156.22, 0.0, 9.99983, 9.999494 
2.4950545e+3, 2.4527565e+2, -623973.44, -538951.0, 9451.959, -0.03787008, -0.024531808, -537912.9, -1616.7981, 0.0, 9.999243, 10.000363 
2.4950014e+3, 2.552758e+2, -623649.0, -499195.2, 10645.006, -0.053736456, -0.032251053, -498291.25, -59998.355, 0.0, 9.99862, 10.000264 
2.4949488e+3, 2.6527572e+2, -591556.3, -392549.25, -4111.159, -0.062462077, -0.063399, -392464.34, -52172.793, 0.0, 9.997993, 10.000625 
2.4948958e+3, 2.7527574e+2, -594244.6, -354138.47, -1295.7373, -0.053052783, -0.11317603, -354131.47, -111841.125, 0.0, 9.99735, 10.000525 
2.4948427e+3, 2.8527644e+2, -559261.7, -244672.28, -6665.386, -0.0640095, -0.09504873, -244531.13, -100249.14, 0.0, 9.996737, 10.0009 
2.4947894e+3, 2.952779e+2, -549433.75, -202010.06, -7941.557, -0.12581137, -0.025367219, -201828.63, -155561.95, 0.0, 9.996186, 10.000786 
2.4947374e+3, 3.0527675e+2, -605014.1, -232592.23, -11706.04, -0.029938756, -0.18603903, -232224.66, -232224.66, 0.0, 9.995591, 10.000528 
2.494684e+3, 3.15278e+2, -529624.1, 98220.77, -3051.4026, -0.0375372, -0.10152405, 98235.61, 98235.61, 0.0, 9.9948435, 10.0031595 
2.5056902e+3, 1.2535179e+2, -1003361.2, -1708072.0, 38082.38, 0.12673327, -0.027315998, -1001309.25, 710240.25, 0.07249659, 10.006834, 9.996756 
2.505637e+3, 1.353484e+2, -949382.06, -1652069.4, 31711.459, 0.09767972, -0.025799973, -947953.9, 665629.0, 0.05040977, 10.006443, 9.996655 
2.5055835e+3, 1.4534514e+2, -886905.6, -1511515.1, 30327.205, 0.08509567, -0.028780159, -885436.56, 630177.9, 0.028810112, 10.005795, 9.997257 
2.5055304e+3, 1.5534216e+2, -907314.2, -1485768.9, 32471.041, 0.10761926, -0.035688754, -905497.2, 512145.84, 0.012299937, 10.004937, 9.997174 
2.5054777e+3, 1.6533941e+2, -857656.56, -1339795.9, 52925.34, 0.099052414, -0.044554733, -851915.25, 467754.4, 0.003342215, 10.004256, 9.99783 
2.5054243e+3, 1.7533696e+2, -840132.7, -1290756.9, 51364.94, 0.058800645, -0.056614686, -834352.0, 387341.34, 0.00042149637, 10.003735, 9.9977455 
2.5053713e+3, 1.8533488e+2, -794987.9, -1144928.6, 55960.055, 0.035582405, -0.055748127, -786256.94, 337456.8, 0.0000143640455, 10.003055, 9.998402 
2.5053185e+3, 1.9533324e+2, -821575.6, -1116065.5, 58984.348, 0.028768208, -0.044002738, -810200.8, 215529.33, 0.0000000000010010511, 10.002237, 9.998322 
2.5052658e+3, 2.0533185e+2, -759459.25, -944707.06, 55824.793, 0.014314152, -0.037403837, -743936.94, 183806.86, 0.0, 10.001601, 9.999131 
2.5052124e+3, 2.1533084e+2, -737776.8, -894093.94, 53452.703, -0.007545196, -0.036387462, -721246.6, 108507.37, 0.0, 10.001122, 9.999037 
2.5051594e+3, 2.2532998e+2, -699049.7, -769565.0, 49150.457, -0.021275043, -0.031405006, -673818.75, 57944.4, 0.0, 10.000478, 9.99953 
2.5051063e+3, 2.3532943e+2, -722034.2, -738906.8, 47190.41, -0.025623962, -0.023609322, -682531.94, -48761.895, 0.0, 9.999685, 9.999449 
2.5050536e+3, 2.4532923e+2, -651653.06, -550148.4, 34235.227, -0.033630434, -0.019222632, -539681.0, -3909.0964, 0.0, 9.999047, 10.000379 
2.505e+3, 2.5532946e+2, -635085.44, -502505.78, 35803.297, -0.049832437, -0.018412057, -493454.94, -55686.81, 0.0, 9.998536, 10.000279 
2.5049466e+3, 2.6532948e+2, -586716.6, -388700.8, 21371.385, -0.06574124, -0.045718227, -386420.53, -46654.434, 0.0, 9.998024, 10.000634 
2.504893e+3, 2.753294e+2, -569052.6, -340492.72, 23993.719, -0.0679325, -0.0997995, -338001.06, -96236.59, 0.0, 9.99752, 10.000536 
2.5048393e+3, 2.8532985e+2, -541695.94, -248180.0, 14210.8, -0.07322835, -0.103625536, -247493.58, -103734.82, 0.0, 9.996912, 10.00079 
2.5047854e+3, 2.953309e+2, -555693.06, -217579.94, 9892.395, -0.11750901, -0.06037161, -217290.77, -171542.98, 0.0, 9.996201, 10.00067 
2.5047326e+3, 3.0533066e+2, -589985.94, -212744.19, 9623.725, -0.045133296, -0.1315248, -212498.84, -212498.84, 0.0, 9.995645, 10.000637 
2.504679e+3, 3.153313e+2, -489724.25, 90115.44, 33121.496, -0.052597933, -0.11802123, 92001.26, 92001.26, 0.0, 9.99524, 10.00291 
2.5156966e+3, 1.2540588e+2, -999367.0, -1712465.1, 24490.152, 0.09667923, -0.005777395, -998526.94, 712492.9, 0.06882103, 10.006865, 9.996711 
2.5156432e+3, 1.3540235e+2, -952699.4, -1658060.9, 17208.912, 0.104679786, -0.012586267, -952279.8, 660775.6, 0.047661602, 10.006417, 9.996627 
2.5155893e+3, 1.453991e+2, -881761.94, -1498113.8, -663.251, 0.088396035, -0.021258647, -881761.2, 633325.94, 0.027065493, 10.005768, 9.997367 
2.515535e+3, 1.5539618e+2, -898420.0, -1470481.0, 1457.1028, 0.07583134, -0.033781633, -898416.3, 518698.22, 0.0114282025, 10.004944, 9.997277 
2.515481e+3, 1.6539355e+2, -854657.4, -1336878.9, 33754.14, 0.06513707, -0.036577933, -852306.2, 466833.66, 0.0030393463, 10.004266, 9.997848 
2.515428e+3, 1.7539129e+2, -839408.0, -1287928.8, 31746.447, 0.050307132, -0.031777825, -837172.1, 383989.9, 0.00036681833, 10.003725, 9.997771 
2.515374e+3, 1.8538918e+2, -787367.2, -1128003.6, 25612.967, 0.034803227, -0.039966978, -785452.06, 337730.47, 0.000011028373, 10.003046, 9.998524 
2.5153205e+3, 1.9538735e+2, -812305.94, -1098902.1, 29029.379, 0.020335421, -0.05924542, -809395.1, 215805.28, 0.0, 10.002243, 9.998438 
2.515267e+3, 2.0538607e+2, -761393.75, -951070.2, 38031.832, 0.006759539, -0.044569705, -754052.2, 173160.95, 0.0, 10.001607, 9.999086 
2.5152135e+3, 2.1538542e+2, -740875.5, -900857.7, 35213.027, -0.0066409474, -0.0022214008, -733467.94, 95752.35, 0.0, 10.00112, 9.998994 
2.5151598e+3, 2.2538456e+2, -703009.75, -778536.06, 19550.164, -0.019100955, 0.0059708883, -698249.2, 32980.508, 0.0, 10.000478, 9.99947 
2.515106e+3, 2.3538364e+2, -724502.9, -746358.0, 17821.76, -0.02912181, -0.016907128, -714525.25, -81285.305, 0.0, 9.999692, 9.999396 
2.5150523e+3, 2.4538332e+2, -649541.7, -548063.6, 14889.492, -0.034136713, -0.022186253, -545924.0, -10681.072, 0.0, 9.999054, 10.000392 
2.5149986e+3, 2.5538367e+2, -633189.1, -500473.38, 15950.051, -0.03950728, -0.009609801, -498583.38, -61345.29, 0.0, 9.998541, 10.000294 
2.5149447e+3, 2.6538393e+2, -585790.06, -388318.9, 1802.6968, -0.05962233, -0.0138163725, -388302.44, -49068.902, 0.0, 9.998027, 10.000638 
2.51489e+3, 2.7538413e+2, -568635.3, -341233.13, 4488.2856, -0.0802311, -0.043187756, -341144.6, -99915.555, 0.0, 9.997523, 10.000531 
2.514836e+3, 2.8538394e+2, -553051.8, -273548.16, -13138.278, -0.09078618, -0.09806397, -272931.94, -129702.83, 0.0, 9.996916, 10.000616 
2.5147814e+3, 2.953839e+2, -567057.44, -242801.11, -17288.955, -0.124843344, -0.14725293, -241881.89, -196652.84, 0.0, 9.996203, 10.000498 
2.5147283e+3, 3.053852e+2, -574321.75, -181326.11, -7087.156, -0.019809116, -0.06901355, -181198.34, -181198.34, 0.0, 9.9956455, 10.000854 
2.5146735e+3, 3.1538537e+2, -540579.5, -17859.629, 6774.79, -0.0920097, -0.1221574, -17771.838, -17771.838, 0.0, 9.995247, 10.002167 
2.525703e+3, 1.2546031e+2, -943481.2, -1686598.6, 40842.86, 0.07125236, -0.019661834, -941243.1, 769243.3, 0.06500674, 10.007254, 9.99671 
2.525649e+3, 1.3545702e+2, -1015278.8, -1689399.4, 37299.21, 0.1028282, -0.00085384346, -1013221.3, 599299.0, 0.044823617, 10.00595, 9.996636 
2.5255945e+3, 1.4545389e+2, -949808.94, -1518014.5, 34203.082, 0.08517211, -0.0042469124, -947757.44, 566793.6, 0.025275573, 10.005224, 9.997486 
2.5255397e+3, 1.5545097e+2, -884897.9, -1450630.0, 36181.79, 0.05133877, -0.028476452, -882593.25, 533984.94, 0.010543355, 10.00498, 9.997394 
2.5254852e+3, 1.6544837e+2, -840229.6, -1325728.3, 60949.49, 0.03969787, -0.034603905, -832694.94, 485908.2, 0.0027385138, 10.00435, 9.997882 
2.5254312e+3, 1.7544617e+2, -883574.5, -1304210.1, 59919.508, 0.04129237, -0.02591386, -875205.5, 345419.53, 0.00031474014, 10.003404, 9.997812 
2.525377e+3, 1.8544416e+2, -826398.75, -1136701.3, 57711.777, 0.034227584, -0.029342521, -816012.8, 306631.78, 0.000008091692, 10.002739, 9.9986105 
2.5253227e+3, 1.9544245e+2, -796936.44, -1081848.8, 58026.32, 0.02114965, -0.043433964, -785571.9, 239089.19, 0.0, 10.002312, 9.99852 
2.5252685e+3, 2.054412e+2, -754586.3, -953652.56, 63593.824, 0.0070602186, -0.029485151, -736005.0, 190668.9, 0.0, 10.001683, 9.99903 
2.5252143e+3, 2.1544042e+2, -778558.75, -924157.44, 59540.57, -0.008174876, 0.007284829, -757311.1, 71371.26, 0.0, 10.000888, 9.998943 
2.52516e+3, 2.2543952e+2, -729685.0, -789798.9, 47243.773, -0.019459927, 0.013079782, -703747.4, 26944.902, 0.0, 10.000292, 9.99948 
2.5251058e+3, 2.3543862e+2, -699175.94, -732306.7, 50100.727, -0.025804242, -0.0087856045, -662973.0, -30270.904, 0.0, 9.999863, 9.999409 
2.5250512e+3, 2.454383e+2, -614811.5, -535235.7, 47812.043, -0.0313303, -0.011899445, -512821.72, 21883.33, 0.0, 9.999313, 10.000353 
2.524997e+3, 2.5543863e+2, -617555.56, -496302.56, 44646.277, -0.04024163, 0.0023829816, -481637.22, -44936.484, 0.0, 9.998667, 10.000259 
2.5249425e+3, 2.6543885e+2, -581637.7, -384787.63, 29726.426, -0.06033892, -0.0033537156, -380396.56, -41700.066, 0.0, 9.998054, 10.000648 
2.5248876e+3, 2.7543902e+2, -578058.1, -344350.78, 32236.799, -0.078948304, -0.03316711, -339985.66, -99293.88, 0.0, 9.997457, 10.00054 
2.5248328e+3, 2.8543884e+2, -549459.7, -268784.2, 21070.398, -0.093380004, -0.08906187, -267211.25, -124519.27, 0.0, 9.996932, 10.000639 
2.5247774e+3, 2.954387e+2, -528910.94, -223871.14, 31827.256, -0.13215706, -0.14928013, -220585.73, -175892.55, 0.0, 9.996469, 10.000498 
2.524724e+3, 3.0544016e+2, -562902.56, -212123.73, 26294.525, -0.022474049, -0.03672381, -210163.64, -210163.64, 0.0, 9.995885, 10.0005245 
2.5246686e+3, 3.154404e+2, -531403.9, 28697.295, -20630.717, -0.11041661, -0.05108426, 29456.178, 29456.178, 0.0, 9.99513, 10.0025425 
2.53571e+3, 1.2551516e+2, -945165.4, -1685730.1, -5381.417, 0.04790645, -0.059473306, -945126.3, 764822.44, 0.06110323, 10.007202, 9.996741 
2.535655e+3, 1.3551244e+2, -1009895.56, -1684363.0, -7073.898, 0.09355036, 0.010665611, -1009821.4, 602156.44, 0.041943, 10.005959, 9.996667 
2.5355995e+3, 1.455095e+2, -938943.06, -1501788.3, 25799.729, 0.076686785, 0.020501394, -937762.94, 576243.8, 0.023474554, 10.0052395, 9.997594 
2.5355443e+3, 1.5550652e+2, -880475.2, -1436730.1, 25890.965, 0.032622706, -0.020544412, -879272.7, 536761.6, 0.009663611, 10.004952, 9.997504 
2.5354892e+3, 1.6550386e+2, -841272.5, -1322641.4, 25608.83, 0.021032285, -0.038005676, -839913.94, 478145.88, 0.002446999, 10.004322, 9.997918 
2.5354344e+3, 1.7550163e+2, -879988.6, -1298561.8, 25563.146, 0.03138253, -0.03651701, -878433.2, 341649.16, 0.00026722436, 10.003408, 9.997851 
2.5353795e+3, 1.8549985e+2, -822049.2, -1130693.8, 41902.547, 0.033686645, -0.022297457, -816461.5, 305638.47, 0.0000057652073, 10.0027485, 9.998649 
2.535325e+3, 1.9549857e+2, -794835.06, -1077254.1, 41494.594, 0.030172372, 0.0012629806, -788864.7, 235247.81, 0.0, 10.002307, 9.998556 
2.5352702e+3, 2.0549718e+2, -760299.2, -965748.5, 33764.836, 0.014190978, 0.0051067853, -754892.4, 171234.13, 0.0, 10.001681, 9.99895 
2.535215e+3, 2.1549582e+2, -782077.6, -934355.1, 30523.969, -0.012560466, -0.0076752556, -776186.94, 51953.598, 0.0, 10.000896, 9.998871 
2.5351602e+3, 2.2549486e+2, -723962.06, -780972.25, 31297.174, -0.022272956, -0.007926244, -710134.5, 20016.277, 0.0, 10.000301, 9.999537 
2.5351053e+3, 2.3549433e+2, -694593.3, -724342.7, 33223.418, -0.016113028, 0.0018145051, -673066.75, -40910.15, 0.0, 9.999866, 9.999464 
2.5350505e+3, 2.454941e+2, -621506.06, -550489.3, 23142.422, -0.02560518, 0.01154256, -543613.56, -9455.041, 0.0, 9.999315, 10.000249 
2.5349954e+3, 2.5549424e+2, -623509.9, -510411.44, 20165.984, -0.052361585, 0.01749727, -506923.3, -70767.02, 0.0, 9.998671, 10.000162 
2.5349402e+3, 2.6549414e+2, -580728.06, -384608.9, 6909.3325, -0.06782953, -0.0152771445, -384365.78, -46210.5, 0.0, 9.998056, 10.000649 
2.534885e+3, 2.7549404e+2, -576733.75, -343282.7, 9376.481, -0.063917674, -0.07272453, -342906.7, -102753.42, 0.0, 9.997459, 10.000547 
2.5348297e+3, 2.8549454e+2, -534184.2, -238380.2, 2950.032, -0.08073333, -0.075525075, -238350.78, -96203.31, 0.0, 9.996934, 10.000849 
2.5347736e+3, 2.954954e+2, -517169.9, -201071.34, 14218.184, -0.14002457, -0.058274493, -200433.11, -156293.56, 0.0, 9.996471, 10.000654 
2.534719e+3, 3.0549547e+2, -627418.4, -348241.44, -512.99634, -0.055666883, -0.03669581, -348240.5, -348240.5, 0.0, 9.995891, 9.999589 
2.5346634e+3, 3.154953e+2, -400359.4, 297533.47, -77761.02, -0.11496351, -0.00805015, 306092.84, 306092.84, 0.0, 9.995135, 10.004392 
2.5457168e+3, 1.2557128e+2, -1020554.75, -1708875.1, 11980.192, 0.05903652, -0.041280597, -1020346.3, 689053.8, 0.057155624, 10.006564, 9.996879 
2.5456604e+3, 1.355685e+2, -982242.9, -1656087.4, 17369.79, 0.0636754, 0.012496313, -981795.44, 629633.5, 0.039056353, 10.00608, 9.996802 
2.545604e+3, 1.455656e+2, -926091.56, -1492893.0, 56801.465, 0.044476066, 0.019419972, -920455.3, 593002.06, 0.02168762, 10.005313, 9.997619 
2.545549e+3, 1.5556273e+2, -968338.8, -1475835.0, 51353.473, 0.028292289, -0.013260415, -963194.5, 452289.88, 0.008802259, 10.004328, 9.997536 
2.5454932e+3, 1.655602e+2, -921405.3, -1350773.6, 52894.71, 0.022037398, -0.02536553, -914985.06, 402523.9, 0.0021695807, 10.003727, 9.99801 
2.5454375e+3, 1.7555806e+2, -869198.8, -1283132.6, 55812.906, 0.019930135, -0.021356734, -861805.3, 357725.16, 0.00022516174, 10.003441, 9.997939 
2.545382e+3, 1.8555632e+2, -806105.75, -1122554.5, 70106.086, 0.022654874, -0.007350289, -791269.94, 330277.75, 0.0000040749073, 10.002859, 9.998649 
2.545327e+3, 1.95555e+2, -833436.8, -1095108.5, 66723.35, 0.03009527, 0.014032597, -817405.3, 206155.03, 0.0, 10.002043, 9.998558 
2.5452715e+3, 2.0555355e+2, -792443.4, -984654.06, 61640.727, 0.018649815, 0.013731824, -774374.25, 151200.7, 0.0, 10.001479, 9.998915 
2.545216e+3, 2.1555209e+2, -751726.7, -922622.0, 60854.496, -0.008648028, -0.0048441947, -732271.7, 95318.27, 0.0, 10.0011215, 9.998841 
2.5451604e+3, 2.2555111e+2, -685396.9, -761511.9, 60006.36, -0.020486034, -0.0039458377, -652397.1, 77202.99, 0.0, 10.0005665, 9.999541 
2.5451052e+3, 2.3555064e+2, -696604.25, -724322.56, 57814.867, -0.017673552, 0.01254986, -651010.6, -19405.518, 0.0, 9.999851, 9.999469 
2.5450498e+3, 2.4555036e+2, -637282.9, -564835.8, 46623.16, -0.025997546, 0.019802516, -542018.1, -8410.52, 0.0, 9.999241, 10.000185 
2.5449938e+3, 2.5555032e+2, -622325.8, -515811.84, 45967.6, -0.04770004, 0.016481744, -498717.38, -63110.17, 0.0, 9.998709, 10.000105 
2.5449383e+3, 2.6555023e+2, -566076.94, -374020.44, 34487.926, -0.06507003, -0.014052772, -368015.16, -30408.85, 0.0, 9.998146, 10.000677 
2.5448823e+3, 2.7555028e+2, -561481.4, -333432.94, 38675.34, -0.06808986, -0.061150916, -327052.4, -87449.13, 0.0, 9.997558, 10.0005665 
2.5448263e+3, 2.855508e+2, -525133.1, -248291.72, 23900.74, -0.08180752, -0.053351197, -246243.44, -104646.19, 0.0, 9.997061, 10.000718 
2.5447702e+3, 2.9555166e+2, -500026.13, -204336.4, 8466.085, -0.13142142, -0.021095771, -204094.2, -160504.88, 0.0, 9.99664, 10.00055 
2.5447148e+3, 3.0555123e+2, -588651.9, -300989.44, 21145.547, -0.08656038, -0.06069173, -299443.38, -299443.38, 0.0, 9.996037, 9.999842 
2.5446585e+3, 3.155502e+2, -394541.97, 287533.75, 19660.781, -0.12479019, -0.14097072, 288100.0, 288100.0, 0.0, 9.995239, 10.004268 
2.5557235e+3, 1.2562849e+2, -1007133.6, -1681565.8, -3902.4795, 0.09454104, 0.020634029, -1007111.06, 701730.75, 0.053192716, 10.006538, 9.997089 
2.555666e+3, 1.3562523e+2, -971940.25, -1629475.3, 121.0703, 0.01651215, 0.005368146, -971940.2, 638933.5, 0.036182575, 10.006041, 9.9970045 
2.5556087e+3, 1.4562225e+2, -932161.94, -1503286.8, 21322.578, -0.006283219, -0.0021767218, -931367.0, 581535.7, 0.019927485, 10.005289, 9.99756 
2.555553e+3, 1.5561959e+2, -969821.9, -1482305.9, 17031.137, 0.035780884, -0.0058309017, -969256.56, 445671.78, 0.007966639, 10.004334, 9.997489 
2.5554967e+3, 1.6561732e+2, -911039.3, -1332470.5, 42845.863, 0.038660116, 0.0013219116, -906727.44, 410223.47, 0.0019084564, 10.0037365, 9.998133 
2.5554407e+3, 1.7561541e+2, -862239.75, -1267262.8, 43875.48, 0.006544385, 0.016322913, -857541.25, 361428.6, 0.000188361, 10.003431, 9.998055 
2.5553846e+3, 1.8561353e+2, -810045.44, -1129958.6, 39147.652, 0.0024693508, 0.013805923, -805324.6, 315663.56, 0.0000029076905, 10.002852, 9.998603 
2.555329e+3, 1.9561179e+2, -834663.9, -1100827.0, 36925.215, 0.021636562, -0.0026292093, -829636.2, 193368.44, 0.0, 10.002053, 9.998516 
2.555273e+3, 2.0561033e+2, -791034.7, -985425.56, 48288.234, 0.020704955, -0.00034047334, -779700.4, 145318.69, 0.0, 10.001492, 9.998905 
2.555217e+3, 2.1560922e+2, -751589.44, -923890.8, 46828.727, 0.0030636198, 0.015790544, -739684.7, 87346.016, 0.0, 10.001124, 9.998833 
2.5551608e+3, 2.2560827e+2, -689231.44, -770805.3, 33155.387, -0.0147509305, 0.023476431, -677455.56, 51585.01, 0.0, 10.000569, 9.999478 
2.5551048e+3, 2.3560758e+2, -699597.56, -732820.8, 31093.434, -0.030880576, 0.022704583, -680956.56, -49908.76, 0.0, 9.999858, 9.999409 
2.5550488e+3, 2.4560708e+2, -639149.8, -570759.2, 26377.752, -0.032213237, 0.012938803, -561767.6, -28715.096, 0.0, 9.999246, 10.000144 
2.5549927e+3, 2.556069e+2, -624045.0, -521000.9, 25423.309, -0.026306402, -0.0012259072, -515069.78, -80016.11, 0.0, 9.998713, 10.00007 
2.5549364e+3, 2.6560715e+2, -562769.9, -368559.78, 11873.216, -0.0525443, 0.00139887, -367836.6, -30786.89, 0.0, 9.998149, 10.000715 
2.5548798e+3, 2.7560773e+2, -559943.4, -331682.38, 16430.299, -0.09258269, 0.005595915, -330505.78, -91464.23, 0.0, 9.9975605, 10.000579 
2.5548232e+3, 2.8560764e+2, -559343.75, -321307.0, 7629.898, -0.09694798, -0.02261034, -321062.7, -180021.08, 0.0, 9.997066, 10.0002165 
2.5547668e+3, 2.9560745e+2, -525337.9, -259507.23, -8248.27, -0.10558048, -0.044253923, -259251.55, -216207.86, 0.0, 9.996648, 10.00017 
2.5547105e+3, 3.0560732e+2, -482271.88, -81552.59, -9791.983, -0.11573758, -0.1163497, -81313.45, -81313.45, 0.0, 9.996039, 10.001349 
2.5546533e+3, 3.156085e+2, -584484.06, -106647.54, 8036.9834, -0.14493862, -0.11399741, -106512.4, -106512.4, 0.0, 9.995236, 10.001562 
2.5657296e+3, 1.2568605e+2, -1044658.06, -1687065.1, 34277.504, 0.07980768, 0.02863344, -1042834.25, 665444.3, 0.04923641, 10.006184, 9.997219 
2.5656715e+3, 1.3568293e+2, -1045750.8, -1652831.8, 33510.785, 0.015505464, 0.013113869, -1043906.6, 566402.44, 0.033332225, 10.005443, 9.997131 
2.5656137e+3, 1.4568004e+2, -993396.2, -1532196.4, 52656.215, -0.0074672922, 0.009237864, -988298.44, 524038.8, 0.018199565, 10.00485, 9.99757 
2.565557e+3, 1.5567745e+2, -962188.75, -1477627.5, 53001.375, 0.02324475, 0.012522097, -956795.2, 457567.34, 0.007159662, 10.004383, 9.997497 
2.5655e+3, 1.656751e+2, -909454.1, -1338804.6, 80252.71, 0.0283598, 0.019054458, -894943.94, 421441.78, 0.0016639519, 10.00378, 9.998066 
2.5654438e+3, 1.7567308e+2, -917565.06, -1299648.6, 68438.63, 0.00862141, 0.027638478, -905676.25, 312729.8, 0.00015607837, 10.003079, 9.998 
2.5653872e+3, 1.8567115e+2, -849261.25, -1146829.4, 58414.16, 0.0032134668, 0.023590444, -838205.06, 282219.56, 0.0000021053752, 10.002578, 9.998618 
2.5653306e+3, 1.9566944e+2, -807489.94, -1085831.8, 59832.043, 0.010765214, 0.009314547, -795173.5, 227267.14, 0.0, 10.002234, 9.99853 
2.5652742e+3, 2.0566797e+2, -756523.3, -967732.94, 75134.4, 0.012221661, 0.008298515, -732522.75, 191932.33, 0.0, 10.001728, 9.998912 
2.565218e+3, 2.156668e+2, -755537.8, -924781.44, 73691.836, 0.007863647, 0.017351426, -727948.5, 98518.555, 0.0, 10.001098, 9.998837 
2.5651613e+3, 2.2566582e+2, -698730.06, -782397.56, 56279.504, -0.0076935147, 0.02726253, -670439.3, 58037.85, 0.0, 10.000538, 9.999412 
2.5651044e+3, 2.3566513e+2, -678264.7, -728314.0, 53644.29, -0.029760486, 0.035377465, -644095.25, -13610.475, 0.0, 10.000033, 9.999352 
2.5650477e+3, 2.456646e+2, -615319.0, -556780.4, 49881.285, -0.03278171, 0.024055196, -528215.1, 4274.674, 0.0, 9.999403, 10.000161 
2.564991e+3, 2.5566435e+2, -628893.7, -521315.44, 53150.473, -0.025663525, 0.0013557905, -499485.5, -64994.176, 0.0, 9.998674, 10.000083 
2.5649342e+3, 2.656646e+2, -567311.44, -379771.44, 41628.625, -0.052719414, 0.00952671, -370946.3, -34458.875, 0.0, 9.998161, 10.000629 
2.564877e+3, 2.7566522e+2, -529622.44, -325300.97, 35924.453, -0.094058275, 0.028507022, -319168.7, -80689.28, 0.0, 9.997808, 10.000501 
2.5648203e+3, 2.8566504e+2, -534381.5, -305061.7, 40743.266, -0.09826192, -0.0064986306, -298037.94, -157557.48, 0.0, 9.997224, 10.000249 
2.564763e+3, 2.956647e+2, -552009.9, -266815.66, 65659.266, -0.10699341, -0.04582139, -252425.28, -209941.58, 0.0, 9.9964485, 10.000212 
2.564706e+3, 3.056651e+2, -467417.03, -36978.39, 31465.588, -0.12359401, -0.08705178, -34690.38, -34690.38, 0.0, 9.995985, 10.001678 
2.5646484e+3, 3.156683e+2, -554743.56, -177491.1, -30822.318, -0.15358646, 0.090014726, -174989.42, -174989.42, 0.0, 9.995806, 10.000802 
2.5757352e+3, 1.2574403e+2, -1042054.56, -1680649.8, 7910.308, 0.027890252, -0.004437735, -1041956.56, 665753.6, 0.04531539, 10.006152, 9.99728 
2.5756773e+3, 1.357415e+2, -1042485.7, -1646101.1, 7100.309, 0.05035137, 0.034951914, -1042402.2, 567333.4, 0.03051903, 10.005425, 9.997187 
2.575619e+3, 1.4573884e+2, -989363.6, -1525210.1, 35101.47, 0.028711785, 0.04802819, -987074.0, 524687.9, 0.016509056, 10.004845, 9.9976225 
2.575561e+3, 1.5573621e+2, -959066.4, -1472707.3, 34643.24, -0.0065629613, 0.039533462, -956740.4, 457047.47, 0.006383003, 10.004383, 9.997532 
2.5755036e+3, 1.6573358e+2, -924676.06, -1372591.8, 53818.348, -0.0034492111, 0.028585445, -918300.4, 397513.5, 0.0014359662, 10.003785, 9.997834 
2.5754467e+3, 1.757311e+2, -930638.56, -1329582.8, 43406.78, 0.024022266, 0.015872383, -925970.4, 291868.44, 0.00012767671, 10.003088, 9.997792 
2.57539e+3, 1.8572925e+2, -844138.25, -1138999.4, 45973.633, 0.021317607, 0.024364691, -837136.44, 282720.38, 0.0000015362658, 10.002586, 9.99867 
2.5753325e+3, 1.9572796e+2, -803242.5, -1078656.5, 46342.21, -0.0026792486, 0.047861576, -795653.9, 226214.77, 0.0, 10.002237, 9.99858 
2.5752756e+3, 2.0572641e+2, -755772.56, -967419.2, 51343.99, -0.005817697, 0.037140146, -743974.56, 179908.8, 0.0, 10.00173, 9.998915 
2.575219e+3, 2.1572478e+2, -754977.1, -925126.1, 50237.098, 0.005630913, 0.00048196956, -741251.6, 84647.4, 0.0, 10.001101, 9.998836 
2.5751618e+3, 2.2572376e+2, -703803.7, -794476.1, 37407.8, 0.00065736583, 0.009167868, -690363.1, 37546.797, 0.0, 10.000541, 9.999329 
2.5751045e+3, 2.3572332e+2, -682460.3, -738199.0, 33932.934, -0.014392666, 0.050742913, -666419.06, -36503.066, 0.0, 10.000035, 9.999287 
2.575047e+3, 2.4572292e+2, -610701.2, -548447.7, 22211.682, -0.028320985, 0.053138975, -541335.25, -9415.678, 0.0, 9.999406, 10.000219 
2.5749895e+3, 2.5572267e+2, -625027.6, -514866.78, 26443.947, -0.04681119, 0.025052905, -508847.8, -74927.64, 0.0, 9.998678, 10.000128 
2.5749323e+3, 2.657226e+2, -582442.4, -412970.9, 28056.295, -0.06542737, 0.009322396, -408446.9, -72527.09, 0.0, 9.998165, 10.0004015 
2.574875e+3, 2.7572274e+2, -541210.3, -351473.9, 21327.885, -0.07163929, 0.003469879, -349106.03, -111188.55, 0.0, 9.997814, 10.00032 
2.5748172e+3, 2.8572303e+2, -493186.97, -221049.5, 10893.306, -0.08587855, -0.0054811104, -220614.14, -80700.17, 0.0, 9.997227, 10.000827 
2.5747594e+3, 2.957235e+2, -520218.97, -200630.45, 37437.35, -0.13765228, -0.021077532, -196303.53, -154394.86, 0.0, 9.996444, 10.00067 
2.5747022e+3, 3.0572465e+2, -533799.1, -175451.42, 24398.004, -0.107438534, 0.04258331, -173797.92, -173797.92, 0.0, 9.995985, 10.00073 
2.574644e+3, 3.15725e+2, -439590.66, 57092.41, -59849.387, -0.16117932, 0.01882124, 64202.37, 64202.37, 0.0, 9.995821, 10.002409 
2.585741e+3, 1.2580301e+2, -1082553.1, -1695992.0, 25803.457, 0.014779883, 0.001197738, -1081469.6, 625663.2, 0.041463483, 10.00582, 9.997329 
2.5856823e+3, 1.3580047e+2, -1080026.6, -1660019.5, 24598.69, 0.039426085, 0.034998026, -1078985.3, 530173.2, 0.027762067, 10.005128, 9.997233 
2.5856233e+3, 1.4579786e+2, -1021319.56, -1540372.6, 61311.348, 0.020349465, 0.052242033, -1014175.7, 497008.66, 0.01486458, 10.004616, 9.997627 
2.585565e+3, 1.5579534e+2, -976798.5, -1480735.3, 56761.125, -0.013914706, 0.055729985, -970484.3, 442725.1, 0.0056398273, 10.004259, 9.997536 
2.585507e+3, 1.6579267e+2, -931922.5, -1379559.0, 72886.35, -0.008117059, 0.04463065, -920353.75, 394881.88, 0.0012249933, 10.003754, 9.9978 
2.5854498e+3, 1.7579007e+2, -926060.6, -1331243.5, 75566.09, 0.024228914, 0.022813262, -912426.44, 304835.16, 0.000102820115, 10.003139, 9.997756 
2.5853923e+3, 1.857881e+2, -845436.56, -1149993.1, 86695.34, 0.020272886, 0.027978495, -822487.1, 296793.63, 0.0000011114956, 10.002625, 9.998573 
2.5853345e+3, 1.9578673e+2, -815902.44, -1093211.4, 75912.664, -0.009709026, 0.05213551, -796481.6, 224812.06, 0.0, 10.002192, 9.9985 
2.585277e+3, 2.0578519e+2, -763745.4, -965260.2, 70220.625, -0.011065079, 0.044248145, -741689.94, 181618.28, 0.0, 10.001654, 9.998964 
2.58522e+3, 2.1578364e+2, -760780.1, -922261.0, 72176.86, 0.008072045, 0.012009733, -733222.3, 92100.51, 0.0, 10.00104, 9.998882 
2.5851622e+3, 2.2578262e+2, -717193.3, -803276.7, 65872.47, 0.0062460364, 0.021011299, -681547.2, 45786.484, 0.0, 10.0004635, 9.999304 
2.5851044e+3, 2.3578213e+2, -702134.75, -750086.75, 65933.8, -0.009036368, 0.060776778, -655953.0, -26612.463, 0.0, 9.999915, 9.999261 
2.5850463e+3, 2.4578167e+2, -609920.3, -555926.9, 48531.54, -0.027013034, 0.062299404, -527388.6, 3956.1716, 0.0, 9.999449, 10.000145 
2.5849882e+3, 2.5578132e+2, -576965.94, -498565.75, 42305.543, -0.051758505, 0.03288559, -480090.84, -46744.703, 0.0, 9.999042, 10.000062 
2.58493e+3, 2.6578122e+2, -548327.9, -395978.63, 48388.914, -0.07006408, 0.017607128, -381908.8, -46562.645, 0.0, 9.998401, 10.000402 
2.5848725e+3, 2.757814e+2, -574246.06, -366622.3, 58717.47, -0.071450315, 0.015742105, -351167.06, -113823.21, 0.0, 9.997588, 10.000323 
2.5848144e+3, 2.8578174e+2, -514435.9, -226499.9, 32759.215, -0.08560821, 0.009290157, -222819.84, -83479.79, 0.0, 9.997064, 10.000866 
2.5847557e+3, 2.9578224e+2, -474400.4, -174264.55, 17603.877, -0.13955034, -0.011734274, -173235.55, -131900.7, 0.0, 9.99674, 10.000708 
2.584698e+3, 3.0578348e+2, -495262.78, -151922.05, 36301.93, -0.112828724, 0.062348112, -148125.77, -148125.77, 0.0, 9.996231, 10.000771 
2.5846395e+3, 3.157822e+2, -458291.72, 85207.67, 9251.076, -0.17723803, -0.13009453, 85365.09, 85365.09, 0.0, 9.995542, 10.002731 
2.5957465e+3, 1.2586287e+2, -1084724.1, -1694621.8, -797.43494, 0.027850786, 0.037592664, -1084723.0, 621824.25, 0.037710506, 10.005771, 9.997362 
2.5956866e+3, 1.358598e+2, -1075485.9, -1655243.3, -1428.1809, -0.0077504036, 0.015926642, -1075482.4, 533095.06, 0.02508291, 10.005133, 9.997265 
2.5956273e+3, 1.4585714e+2, -1021350.9, -1546754.1, 46965.285, -0.021884264, 0.027906954, -1017185.7, 493418.28, 0.013278794, 10.004631, 9.997578 
2.5955692e+3, 1.558549e+2, -979672.06, -1486389.1, 42252.65, -0.0031080572, 0.06360082, -976173.0, 436453.8, 0.0049357675, 10.004251, 9.997502 
2.595511e+3, 1.6585243e+2, -924716.0, -1363611.9, 49334.82, 0.008269376, 0.06711223, -919238.75, 395412.2, 0.0010322591, 10.003745, 9.997915 
2.5954527e+3, 1.7584996e+2, -918708.94, -1318318.4, 52229.79, 0.010807474, 0.046941474, -911995.2, 304679.8, 0.000081372455, 10.003145, 9.997843 
2.5953946e+3, 1.8584771e+2, -860529.9, -1184042.6, 69841.84, 0.0029825475, 0.033824887, -846096.0, 272600.78, 0.0000007755459, 10.002634, 9.998338 
2.5953367e+3, 1.9584578e+2, -830109.25, -1123553.8, 59024.984, -0.011255788, 0.025202537, -818681.7, 202034.03, 0.0, 10.002192, 9.998293 
2.595279e+3, 2.0584434e+2, -758018.56, -953854.8, 47427.63, -0.0050321133, 0.03233471, -747137.1, 175592.42, 0.0, 10.001652, 9.999045 
2.5952208e+3, 2.1584336e+2, -754908.6, -911131.0, 49547.28, 0.015156068, 0.049973104, -740519.56, 84219.016, 0.0, 10.001041, 9.9989605 
2.5951627e+3, 2.258424e+2, -715858.6, -802077.0, 45327.63, 0.009055042, 0.060545478, -696413.9, 30334.88, 0.0, 10.000467, 9.999312 
2.5951043e+3, 2.3584159e+2, -701558.44, -750870.25, 45344.574, -0.014537661, 0.065750375, -674600.0, -45841.418, 0.0, 9.99992, 9.999254 
2.5950456e+3, 2.4584085e+2, -624254.06, -587656.6, 32984.04, -0.028750097, 0.05186519, -568235.44, -37469.832, 0.0, 9.999454, 9.999927 
2.5949875e+3, 2.5584033e+2, -589123.3, -525530.3, 25571.72, -0.040034033, 0.02416842, -516523.22, -83753.8, 0.0, 9.999045, 9.999877 
2.5949284e+3, 2.6584047e+2, -532344.0, -364071.66, 17263.42, -0.06705095, 0.035376504, -362318.8, -27552.28, 0.0, 9.998403, 10.000623 
2.5948697e+3, 2.7584124e+2, -562549.06, -342737.66, 29263.406, -0.09510272, 0.06900617, -338908.53, -102150.4, 0.0, 9.997586, 10.000489 
2.594811e+3, 2.8584114e+2, -552464.5, -306029.1, 20517.807, -0.09769961, 0.03818948, -304332.5, -165573.6, 0.0, 9.997063, 10.000322 
2.5947523e+3, 2.9584068e+2, -502019.28, -233643.89, 3829.608, -0.11095122, -0.022588309, -233589.27, -192825.92, 0.0, 9.996746, 10.000299 
2.594694e+3, 3.0584136e+2, -417341.28, 7698.6055, 10363.104, -0.14328928, -0.044713218, 7951.1235, 7951.1235, 0.0, 9.996237, 10.001867 
2.5946346e+3, 3.1584334e+2, -541436.44, -88516.516, -9522.612, -0.20224524, -0.010343635, -88316.39, -88316.39, 0.0, 9.995541, 10.001542 
2.605752e+3, 1.2592289e+2, -1152665.8, -1717973.3, 10513.52, 0.02464965, 0.06382568, -1152470.3, 553490.7, 0.034076758, 10.005222, 9.997463 
2.6056916e+3, 1.359198e+2, -1065819.1, -1639459.8, 12396.557, -0.022670152, 0.029409092, -1065551.4, 542439.4, 0.02250097, 10.005143, 9.997367 
2.605632e+3, 1.4591715e+2, -1008002.8, -1533321.0, 58790.965, -0.03584168, 0.035369825, -1001503.6, 508513.25, 0.011765089, 10.004692, 9.997639 
2.6055732e+3, 1.5591493e+2, -1013869.7, -1496741.9, 60362.793, -0.0039788834, 0.06934011, -1006438.25, 405600.94, 0.004277076, 10.003989, 9.997556 
2.6055145e+3, 1.6591251e+2, -961219.4, -1381228.4, 68349.41, 0.006935306, 0.07460879, -950376.6, 363686.4, 0.00085905544, 10.003497, 9.997912 
2.6054555e+3, 1.7591007e+2, -917098.1, -1316853.5, 62719.563, -0.0016546219, 0.058374144, -907488.75, 308598.03, 0.000063243526, 10.003158, 9.997845 
2.605397e+3, 1.8590781e+2, -860316.06, -1183438.5, 82957.914, -0.0042152153, 0.04391186, -840262.2, 277846.44, 0.0000005058523, 10.002638, 9.998338 
2.6053387e+3, 1.9590582e+2, -858992.06, -1136615.0, 87420.35, -0.0012193277, 0.030792376, -833758.0, 186370.02, 0.0, 10.001994, 9.998298 
2.6052803e+3, 2.0590438e+2, -786356.0, -964881.44, 79844.016, 0.0060547995, 0.03699069, -755856.9, 166284.97, 0.0, 10.001451, 9.999064 
2.6052216e+3, 2.1590343e+2, -762956.44, -912913.5, 76838.58, 0.015644288, 0.056587175, -730576.0, 93574.59, 0.0, 10.000981, 9.998975 
2.605163e+3, 2.2590247e+2, -712970.8, -806809.1, 68867.83, 0.0074454756, 0.06936347, -676558.2, 49602.746, 0.0, 10.000518, 9.999253 
2.605104e+3, 2.3590158e+2, -685170.7, -747905.3, 63992.36, -0.011420967, 0.075580135, -645271.4, -17100.035, 0.0, 10.000058, 9.999207 
2.605045e+3, 2.4590077e+2, -610534.25, -581654.56, 59222.785, -0.023367116, 0.056985214, -535136.7, -4957.671, 0.0, 9.999555, 9.999917 
2.604986e+3, 2.5590014e+2, -595173.4, -530368.56, 66331.81, -0.03487566, 0.022595534, -488948.06, -56764.72, 0.0, 9.999017, 9.999856 
2.6049268e+3, 2.659003e+2, -520033.56, -375826.56, 42749.34, -0.0685567, 0.040794052, -364106.3, -29925.047, 0.0, 9.998568, 10.000461 
2.6048672e+3, 2.7590102e+2, -487352.78, -322161.16, 25461.025, -0.10604033, 0.08933166, -318325.88, -82151.9, 0.0, 9.998173, 10.000347 
2.6048082e+3, 2.8590086e+2, -485227.9, -270301.88, 30428.068, -0.10524934, 0.056094766, -266077.06, -127901.58, 0.0, 9.997514, 10.000348 
2.604749e+3, 2.9590026e+2, -510862.88, -232765.3, 57611.805, -0.109989494, -0.01620586, -221302.67, -181122.44, 0.0, 9.99667, 10.0003395 
2.6046896e+3, 3.05901e+2, -418840.97, 18631.703, 40134.34, -0.15411763, -0.04053982, 22283.203, 22283.203, 0.0, 9.99618, 10.001967 
2.60463e+3, 3.1590447e+2, -512174.6, -128385.79, -28705.646, -0.19726704, 0.13655148, -126250.62, -126250.62, 0.0, 9.9959755, 10.001057 
2.6157567e+3, 1.2598313e+2, -1138205.6, -1695881.9, 6928.205, 0.009919076, 0.08023599, -1138119.6, 567253.06, 0.030574344, 10.0052395, 9.997609 
2.6156965e+3, 1.3598044e+2, -1060519.4, -1621734.6, 6690.241, -0.014331395, 0.07051281, -1060439.6, 546958.44, 0.020030156, 10.0051, 9.997511 
2.6156366e+3, 1.4597785e+2, -1003358.2, -1517853.6, 31707.904, -0.029256692, 0.069563344, -1001411.44, 508011.56, 0.010333713, 10.004657, 9.997764 
2.615577e+3, 1.5597546e+2, -1005421.2, -1481711.8, 34161.355, -0.014896012, 0.07370551, -1002983.5, 408462.94, 0.0036682768, 10.003995, 9.997658 
2.6155177e+3, 1.6597293e+2, -967179.06, -1397140.4, 54832.875, -0.00885717, 0.069304734, -960296.4, 353175.03, 0.0007060193, 10.003509, 9.997799 
2.6154584e+3, 1.7597044e+2, -922947.75, -1328918.0, 48836.965, -0.013341312, 0.057923704, -917155.5, 298340.9, 0.00004826116, 10.003154, 9.997766 
2.6153994e+3, 1.8596838e+2, -847457.75, -1156491.1, 58664.793, -0.0027800612, 0.057749003, -836696.0, 280820.1, 0.0000003029616, 10.002633, 9.998527 
2.6153407e+3, 1.959668e+2, -846330.5, -1111984.5, 63323.48, 0.01914267, 0.0655092, -832008.3, 187522.67, 0.0, 10.001997, 9.9984665 
2.6152816e+3, 2.0596524e+2, -788898.0, -972647.7, 61709.98, 0.021229682, 0.056141667, -770097.1, 151448.42, 0.0, 10.001458, 9.999009 
2.6152223e+3, 2.1596384e+2, -766082.7, -921635.25, 58812.895, 0.008802944, 0.034557443, -746349.5, 77209.25, 0.0, 10.000987, 9.998914 
2.615163e+3, 2.2596279e+2, -721338.8, -826137.0, 51414.668, 0.0017011794, 0.04998491, -700327.2, 25242.873, 0.0, 10.000523, 9.99912 
2.615104e+3, 2.3596211e+2, -691275.94, -762313.94, 46257.953, 0.00078764267, 0.08952258, -668473.44, -40894.43, 0.0, 10.000062, 9.999107 
2.6150447e+3, 2.4596141e+2, -597230.7, -555484.9, 38788.332, -0.011160504, 0.07707292, -532309.94, -2724.9172, 0.0, 9.9995575, 10.000097 
2.6149848e+3, 2.5596082e+2, -586253.3, -513371.06, 46387.137, -0.03736478, 0.028651265, -490823.0, -59235.125, 0.0, 9.99902, 9.999972 
2.614925e+3, 2.6596057e+2, -559131.75, -458721.63, 27765.29, -0.074678116, 0.032942005, -451555.44, -117964.805, 0.0, 9.998571, 9.999891 
2.6148653e+3, 2.7596068e+2, -518463.47, -389468.13, 8607.551, -0.1037582, 0.073850006, -388896.3, -153304.25, 0.0, 9.998181, 9.999883 
2.6148054e+3, 2.8596082e+2, -440773.78, -180362.3, -2328.8499, -0.10877583, 0.06291312, -180341.48, -42751.42, 0.0, 9.9975195, 10.000964 
2.6147455e+3, 2.9596108e+2, -476834.75, -162584.34, 28050.467, -0.139482, 0.012486009, -160100.16, -120515.375, 0.0, 9.996668, 10.000824 
2.614686e+3, 3.0596256e+2, -488752.25, -127416.375, 30705.049, -0.1417501, 0.09231169, -124825.74, -124825.74, 0.0, 9.99618, 10.000966 
2.614626e+3, 3.1596285e+2, -488488.4, -81862.586, -2026.4783, -0.18554275, 0.048084844, -81852.484, -81852.484, 0.0, 9.995987, 10.001371 
2.6257616e+3, 1.260439e+2, -1114433.6, -1672229.3, 28097.17, -0.0057956893, 0.094918266, -1113021.9, 591756.7, 0.027212942, 10.005337, 9.997727 
2.625701e+3, 1.3604128e+2, -1134564.4, -1645926.3, 26461.883, 0.0028471153, 0.08305287, -1133198.8, 473603.84, 0.01767943, 10.00452, 9.9976225 
2.6256406e+3, 1.4603873e+2, -1079778.1, -1550006.6, 51425.473, -0.013327964, 0.0763419, -1074219.9, 434607.28, 0.00899063, 10.004105, 9.997807 
2.6255804e+3, 1.5603629e+2, -1007469.6, -1476809.9, 47550.8, -0.021456594, 0.072191946, -1002700.5, 408150.53, 0.0031113029, 10.003959, 9.997707 
2.6255208e+3, 1.6603385e+2, -959273.1, -1383098.5, 69739.25, -0.018055141, 0.06969822, -948092.7, 364782.47, 0.00057273253, 10.003524, 9.997886 
2.6254612e+3, 1.7603152e+2, -954206.06, -1334344.3, 75959.64, -0.0122178355, 0.067794956, -939589.7, 275308.6, 0.000036096004, 10.002903, 9.997848 
2.625402e+3, 1.860295e+2, -880113.6, -1171710.0, 82155.89, 0.0010660561, 0.067012616, -858559.75, 258358.0, 0.00000016598092, 10.002412, 9.998528 
2.6253426e+3, 1.9602782e+2, -844646.5, -1110695.0, 73310.086, 0.020987013, 0.066871956, -825783.25, 193150.31, 0.0, 10.002011, 9.9984665 
2.625283e+3, 2.0602624e+2, -776165.56, -971211.1, 67977.266, 0.020568693, 0.058718134, -754811.94, 166136.42, 0.0, 10.00157, 9.998963 
2.625223e+3, 2.1602486e+2, -752487.2, -918806.9, 65007.145, 0.005358271, 0.044231426, -730093.75, 92867.75, 0.0, 10.0011015, 9.998876 
2.6251635e+3, 2.2602378e+2, -709536.7, -819300.8, 62597.19, -0.000948812, 0.057747748, -681169.44, 43803.633, 0.0, 10.000603, 9.9991255 
2.625104e+3, 2.3602302e+2, -688385.75, -760080.1, 67069.27, 0.0014123847, 0.090516016, -648184.9, -21202.467, 0.0, 10.000083, 9.99911 
2.625044e+3, 2.4602233e+2, -595124.94, -562474.7, 52007.277, -0.009185278, 0.08177446, -524290.5, 4698.031, 0.0, 9.999611, 10.000022 
2.6249838e+3, 2.5602177e+2, -569502.0, -513037.78, 40153.04, -0.035007484, 0.04291931, -492185.1, -61193.613, 0.0, 9.999171, 9.999901 
2.6249236e+3, 2.660214e+2, -555859.06, -463739.22, 35502.906, -0.071941525, 0.04216747, -451644.4, -118648.766, 0.0, 9.998626, 9.999829 
2.6248634e+3, 2.7602127e+2, -549235.9, -410086.66, 53541.637, -0.099868715, 0.06907366, -391869.88, -156870.48, 0.0, 9.997999, 9.999826 
2.6248026e+3, 2.860216e+2, -443030.22, -182487.1, 24962.906, -0.11365688, 0.07729336, -180116.92, -43120.7, 0.0, 9.997513, 10.000952 
2.6247418e+3, 2.960222e+2, -415576.97, -136917.0, 7432.0854, -0.16145591, 0.06537308, -136718.9, -97731.19, 0.0, 9.997107, 10.000789 
2.6246822e+3, 3.0602324e+2, -453213.88, -141808.66, 29410.025, -0.13931356, 0.118442014, -139055.42, -139055.42, 0.0, 9.996563, 10.000682 
2.6246217e+3, 3.16022e+2, -488469.47, -66156.54, 48796.254, -0.19373004, -0.055169363, -60591.688, -60591.688, 0.0, 9.995926, 10.001506 
2.6357666e+3, 1.2610523e+2, -1110183.9, -1662074.4, -1695.0503, -0.022636976, 0.11096646, -1110178.6, 593999.56, 0.024007846, 10.005312, 9.997811 
2.6357058e+3, 1.3610245e+2, -1125278.4, -1634472.9, -1398.9357, 0.02525546, 0.0726912, -1125274.5, 480928.94, 0.015458303, 10.004543, 9.997691 
2.6356447e+3, 1.4609982e+2, -1077559.1, -1553540.6, 45297.58, 0.008773962, 0.060662583, -1073286.6, 434941.94, 0.007740586, 10.00413, 9.997772 
2.6355842e+3, 1.5609744e+2, -1007861.44, -1477758.8, 39586.215, -0.024546826, 0.06578841, -1004549.9, 405702.56, 0.0026069002, 10.003953, 9.9977045 
2.6355243e+3, 1.6609526e+2, -943910.0, -1349953.8, 45726.87, -0.021654347, 0.075369686, -938824.1, 373449.72, 0.00045817046, 10.003515, 9.998119 
2.635464e+3, 1.760933e+2, -939861.7, -1306372.4, 52466.145, -0.0007997525, 0.08745316, -932499.06, 281793.56, 0.000026377018, 10.002908, 9.998039 
2.6354042e+3, 1.8609111e+2, -891340.3, -1197587.4, 66269.72, 0.006080348, 0.072377905, -877615.2, 238698.52, 0.00000008213487, 10.002419, 9.998347 
2.6353443e+3, 1.9608893e+2, -855345.5, -1134344.8, 57598.902, 0.0056307507, 0.038786873, -843922.06, 174413.05, 0.0, 10.002014, 9.998304 
2.635284e+3, 2.0608741e+2, -779104.3, -978524.7, 50305.74, 0.006052844, 0.04699189, -767132.9, 153216.94, 0.0, 10.001572, 9.998914 
2.6352242e+3, 2.1608649e+2, -753713.0, -923044.25, 47293.77, 0.0059301713, 0.08217615, -741399.4, 80959.63, 0.0, 10.001105, 9.998846 
2.635164e+3, 2.2608541e+2, -700249.56, -801531.3, 43109.58, -0.00094743527, 0.08988337, -684385.3, 39984.86, 0.0, 10.000607, 9.999248 
2.6351038e+3, 2.3608436e+2, -682084.44, -748469.56, 47426.57, -0.010406542, 0.07949072, -657388.94, -31007.48, 0.0, 10.000086, 9.99919 
2.6350436e+3, 2.4608351e+2, -618395.25, -612368.5, 35221.543, -0.017256815, 0.07196649, -580031.7, -51642.152, 0.0, 9.999614, 9.999679 
2.6349828e+3, 2.5608292e+2, -587002.4, -551169.94, 22716.717, -0.027522506, 0.06560707, -540154.5, -109760.17, 0.0, 9.999176, 9.999639 
2.6349223e+3, 2.6608273e+2, -524017.66, -398861.5, 11528.741, -0.06033088, 0.06902063, -397808.4, -65412.12, 0.0, 9.998628, 10.000276 
2.6348612e+3, 2.7608284e+2, -525555.8, -361495.7, 30828.184, -0.09475442, 0.076197565, -355894.1, -121498.5, 0.0, 9.997998, 10.000162 
2.6348e+3, 2.8608307e+2, -491591.56, -284314.0, 9825.085, -0.119914666, 0.09997047, -283849.34, -147455.25, 0.0, 9.997514, 10.000254 
2.6347384e+3, 2.9608357e+2, -455454.47, -222540.23, -9902.366, -0.17526345, 0.14278184, -222120.0, -183730.16, 0.0, 9.997115, 10.000198 
2.6346782e+3, 3.0608281e+2, -417765.94, -71270.35, 4718.1826, -0.15025252, 0.01963998, -71206.12, -71206.12, 0.0, 9.996572, 10.0011635 
2.6346177e+3, 3.1608433e+2, -490500.22, -71777.33, -17152.96, -0.16506782, 0.07380775, -71075.836, -71075.836, 0.0, 9.995924, 10.0014715 
2.645772e+3, 1.2616698e+2, -1161044.5, -1692660.4, 27027.314, 0.0127780605, 0.106579944, -1159674.0, 543898.75, 0.020983165, 10.004967, 9.997761 
2.64571e+3, 1.3616414e+2, -1092227.1, -1622808.8, 20386.775, 0.011511931, 0.06756551, -1091444.9, 514154.03, 0.013381192, 10.004787, 9.997652 
2.6456487e+3, 1.4616154e+2, -1048185.4, -1539542.5, 66265.72, -0.00418199, 0.060611106, -1039405.5, 468218.6, 0.0065899794, 10.004335, 9.9977665 
2.6455882e+3, 1.5615924e+2, -1041271.3, -1492659.4, 61072.08, -0.0050819116, 0.073730305, -1033154.4, 376493.16, 0.0021559997, 10.003721, 9.997712 
2.6455274e+3, 1.661571e+2, -974636.75, -1354179.0, 59528.008, -0.0032126438, 0.0834079, -965519.3, 346149.16, 0.00036127973, 10.003262, 9.99821 
2.645467e+3, 1.7615515e+2, -934552.4, -1294408.0, 56339.707, -0.003944992, 0.090545304, -925937.94, 287748.88, 0.000018812569, 10.002908, 9.998118 
2.645406e+3, 1.8615301e+2, -889150.44, -1198201.6, 72509.03, -0.0015278612, 0.07653204, -872984.1, 242723.53, 0.000000036221024, 10.002446, 9.998327 
2.645346e+3, 1.9615085e+2, -870291.8, -1142391.0, 74051.54, 0.003934599, 0.04796294, -851444.3, 166284.75, 0.0, 10.001921, 9.998291 
2.6452857e+3, 2.0614935e+2, -791739.5, -984930.2, 74237.77, 0.006393713, 0.057363212, -766507.5, 153236.39, 0.0, 10.001491, 9.998906 
2.6452252e+3, 2.1614839e+2, -751864.2, -922685.06, 73094.81, 0.0061606197, 0.09203208, -724856.7, 96896.63, 0.0, 10.001124, 9.998837 
2.6451644e+3, 2.2614726e+2, -691047.8, -800771.2, 59735.816, -0.0031862457, 0.09789661, -664803.56, 58961.305, 0.0, 10.0006895, 9.99921 
2.6451036e+3, 2.3614612e+2, -666631.6, -744056.44, 52275.688, -0.016227664, 0.08342426, -640294.8, -14517.988, 0.0, 10.000209, 9.999159 
2.6450428e+3, 2.4614531e+2, -609891.4, -610467.6, 49425.75, -0.02192816, 0.08060223, -560752.94, -32968.035, 0.0, 9.999685, 9.999656 
2.644982e+3, 2.561448e+2, -595707.3, -556651.8, 60024.914, -0.027480206, 0.08631494, -513058.06, -83268.9, 0.0, 9.999126, 9.999622 
2.6449206e+3, 2.6614454e+2, -521896.25, -396462.53, 36670.85, -0.061472986, 0.08364414, -386528.47, -54736.785, 0.0, 9.99864, 10.000284 
2.644859e+3, 2.761445e+2, -496221.94, -346957.22, 22814.535, -0.1017777, 0.07097586, -343547.97, -109755.6, 0.0, 9.998201, 10.000163 
2.6447973e+3, 2.8614476e+2, -481647.03, -292079.75, 15707.626, -0.11459036, 0.10920537, -290787.03, -154996.53, 0.0, 9.99764, 10.000138 
2.644736e+3, 2.9614556e+2, -482425.63, -247901.56, 39781.43, -0.14258899, 0.19353382, -241337.31, -203552.77, 0.0, 9.996988, 10.000082 
2.6446742e+3, 3.0614397e+2, -432859.75, -85272.336, 46533.285, -0.18955027, -0.003757969, -79150.51, -79150.51, 0.0, 9.996503, 10.001098 
2.6446137e+3, 3.1614688e+2, -460545.63, -40510.71, -37036.74, -0.14596732, 0.1978701, -37269.984, -37269.984, 0.0, 9.996059, 10.00162 
2.6557776e+3, 1.2622918e+2, -1169623.8, -1713527.0, 17333.53, 0.08363418, 0.08599949, -1169072.0, 533890.3, 0.018165106, 10.004964, 9.997619 
2.6557145e+3, 1.362264e+2, -1099324.1, -1640639.8, 10095.598, -0.030646639, 0.06810462, -1099135.9, 505852.9, 0.011464295, 10.004787, 9.997532 
2.6556525e+3, 1.4622389e+2, -1047877.0, -1540312.0, 41866.94, -0.043268677, 0.073986195, -1044342.8, 462670.78, 0.0055456865, 10.0043335, 9.997765 
2.655592e+3, 1.5622163e+2, -1042372.0, -1494253.0, 38096.7, 0.031846963, 0.09375085, -1039182.7, 369853.63, 0.001759458, 10.003714, 9.997706 
2.655531e+3, 1.6621935e+2, -977925.8, -1360730.1, 45691.816, 0.031576525, 0.09311101, -972547.56, 338511.25, 0.00028103677, 10.003258, 9.998169 
2.6554692e+3, 1.762172e+2, -936084.5, -1298130.0, 42081.633, -0.019960994, 0.07909267, -931257.56, 281822.56, 0.000013158939, 10.002907, 9.9980955 
2.655408e+3, 1.8621524e+2, -881593.9, -1183402.1, 52586.727, -0.019312533, 0.079855524, -872693.7, 242405.52, 0.000000014940222, 10.002447, 9.99843 
2.6553476e+3, 1.9621356e+2, -862758.2, -1128110.1, 54731.016, 0.014878951, 0.08928838, -851912.75, 165202.97, 0.0, 10.001924, 9.99839 
2.6552868e+3, 2.0621198e+2, -790119.75, -982644.56, 60365.246, 0.019555176, 0.08660932, -772758.1, 146372.72, 0.0, 10.0014925, 9.998922 
2.655226e+3, 2.162106e+2, -752488.0, -924143.9, 58728.137, 0.0046771737, 0.07671699, -734318.7, 86825.46, 0.0, 10.001122, 9.99883 
2.655165e+3, 2.2620939e+2, -705233.9, -830819.1, 41744.703, -0.0075688036, 0.08433336, -692624.0, 30533.0, 0.0, 10.000689, 9.999006 
2.6551035e+3, 2.3620836e+2, -675961.56, -764958.2, 33931.17, -0.01597743, 0.101547234, -664500.75, -39332.1, 0.0, 10.000212, 9.999016 
2.655042e+3, 2.462077e+2, -589416.06, -569272.25, 28309.63, -0.023625154, 0.106693186, -549296.25, -22121.549, 0.0, 9.999688, 9.999939 
2.6549807e+3, 2.5620744e+2, -580937.8, -527180.56, 39252.113, -0.035762984, 0.10476616, -506486.22, -77310.16, 0.0, 9.999128, 9.999825 
2.654919e+3, 2.6620683e+2, -553492.6, -463305.63, 19821.191, -0.07579376, 0.08534196, -459141.6, -127959.48, 0.0, 9.998642, 9.9998255 
2.6548567e+3, 2.762061e+2, -519704.16, -397211.78, 4901.3525, -0.12162863, 0.052377433, -397015.97, -163825.72, 0.0, 9.998204, 9.999818 
2.654795e+3, 2.8620666e+2, -446390.1, -220212.19, -9471.169, -0.09663921, 0.10394206, -219816.27, -84630.49, 0.0, 9.997642, 10.000632 
2.6547334e+3, 2.9620823e+2, -456928.5, -195286.55, 16919.102, -0.059856843, 0.21694641, -194197.02, -157025.5, 0.0, 9.996986, 10.000446 
2.65467e+3, 3.0620685e+2, -481778.28, -186640.16, 31847.494, -0.26138356, 0.061817337, -183242.69, -183242.69, 0.0, 9.996499, 10.000405 
2.6546097e+3, 3.162078e+2, -438234.9, 3484.2732, -45242.887, -0.14095183, 0.1337125, 8070.635, 8070.635, 0.0, 9.996064, 10.001924 
2.6657823e+3, 1.2629154e+2, -1195464.9, -1724443.9, 18892.303, 0.090826, 0.08524403, -1194791.0, 507560.4, 0.015569407, 10.0047655, 9.997638 
2.665719e+3, 1.3628891e+2, -1114936.9, -1645458.8, 17519.484, -0.011498419, 0.08080359, -1114358.9, 490017.97, 0.009716746, 10.004662, 9.997558 
2.6656568e+3, 1.4628646e+2, -1062882.8, -1536283.6, 38792.477, -0.025452971, 0.08533657, -1059725.0, 446676.28, 0.004610844, 10.004182, 9.997863 
2.6655957e+3, 1.562842e+2, -1070036.5, -1496491.4, 42718.074, 0.04144942, 0.09445542, -1065799.5, 342624.4, 0.0014166351, 10.003478, 9.997803 
2.665534e+3, 1.6628203e+2, -1009994.9, -1371052.1, 66985.695, 0.0398508, 0.097626634, -997967.9, 312477.8, 0.00021596697, 10.003019, 9.99821 
2.665472e+3, 1.7627999e+2, -960887.4, -1304143.3, 67222.93, -0.009497539, 0.096196055, -948192.06, 264273.88, 0.000009125485, 10.002716, 9.998143 
2.6654106e+3, 1.8627813e+2, -895805.94, -1182352.6, 72643.125, -0.012993501, 0.09900039, -878442.2, 236042.06, 0.000000005798, 10.00232, 9.998497 
2.6653492e+3, 1.9627647e+2, -866246.75, -1122876.4, 72028.89, 0.013680882, 0.104969606, -847412.5, 169087.78, 0.0, 10.001873, 9.998448 
2.6652884e+3, 2.062749e+2, -802844.9, -990445.0, 76567.61, 0.017874064, 0.10044782, -775562.1, 142953.45, 0.0, 10.001416, 9.998903 
2.6652268e+3, 2.1627347e+2, -777700.2, -936208.2, 71446.68, 0.0071353433, 0.088314734, -750249.8, 70279.7, 0.0, 10.000954, 9.998826 
2.6651654e+3, 2.2627224e+2, -723788.8, -830289.25, 65323.016, -0.0069165723, 0.09259838, -692761.6, 29780.379, 0.0, 10.0005245, 9.999087 
2.6651034e+3, 2.3627128e+2, -685533.4, -761499.4, 77652.75, -0.020644698, 0.10717592, -637071.8, -12519.232, 0.0, 10.000115, 9.9990835 
2.6650417e+3, 2.4627063e+2, -597204.9, -580470.25, 61036.105, -0.031329826, 0.11533875, -527230.56, -671.86505, 0.0, 9.999671, 9.999868 
2.6649797e+3, 2.5627032e+2, -574193.6, -529797.0, 45381.29, -0.04517563, 0.11915577, -501475.75, -72914.7, 0.0, 9.999203, 9.99977 
2.664917e+3, 2.662697e+2, -549533.44, -457977.0, 37869.11, -0.08328897, 0.09844239, -444343.8, -113776.64, 0.0, 9.998658, 9.999852 
2.6648548e+3, 2.7626896e+2, -540356.0, -404842.7, 58978.98, -0.123185545, 0.05990695, -382769.03, -150194.0, 0.0, 9.998057, 9.999834 
2.6647925e+3, 2.8626943e+2, -448078.16, -227739.3, 33007.46, -0.09206735, 0.10690022, -222900.92, -88329.2, 0.0, 9.997663, 10.000569 
2.6647305e+3, 2.9627088e+2, -404258.78, -176940.25, 16066.576, -0.052693922, 0.21515726, -175810.31, -139250.89, 0.0, 9.997381, 10.000381 
2.6646662e+3, 3.062699e+2, -466094.72, -204647.31, 31435.361, -0.26048958, 0.121259205, -200920.78, -200920.78, 0.0, 9.996719, 10.000174 
2.6646057e+3, 3.1626987e+2, -437934.06, 41420.316, -8467.913, -0.11403943, 0.11207912, 41569.86, 41569.86, 0.0, 9.995908, 10.002256 
2.6757863e+3, 1.2635419e+2, -1179623.8, -1704397.9, 15436.259, 0.051635094, 0.09996877, -1179170.1, 522568.72, 0.013196251, 10.004809, 9.997755 
2.675724e+3, 1.3635176e+2, -1111219.8, -1630979.1, 11340.659, 0.054308236, 0.10277906, -1110972.5, 492789.94, 0.008137066, 10.004622, 9.997677 
2.6756614e+3, 1.4634933e+2, -1055347.1, -1514130.0, 12688.858, 0.034343008, 0.09471065, -1054996.4, 450789.9, 0.0037832626, 10.004147, 9.998034 
2.6755986e+3, 1.5634699e+2, -1056046.4, -1471699.1, 18384.42, 0.028301317, 0.07919664, -1055234.9, 352574.7, 0.0011247027, 10.003492, 9.997968 
2.6755366e+3, 1.6634509e+2, -1001052.9, -1356661.5, 55476.703, 0.027574338, 0.098255806, -992599.2, 317229.5, 0.00016407586, 10.003035, 9.998303 
2.675475e+3, 1.7634356e+2, -955816.5, -1292131.0, 54637.47, 0.023440821, 0.13729358, -947162.75, 264681.7, 0.0000063491566, 10.002706, 9.998232 
2.675413e+3, 1.8634166e+2, -895145.94, -1180002.8, 55704.47, 0.012842451, 0.13123678, -884640.25, 229222.88, 0.0000000017280947, 10.002313, 9.998518 
2.6753512e+3, 1.9633965e+2, -864662.5, -1121368.6, 55474.66, 0.00046308388, 0.09857028, -853187.25, 162695.14, 0.0, 10.001878, 9.998458 
2.6752892e+3, 2.0633811e+2, -806775.06, -1000527.7, 59329.18, 0.0031509711, 0.101370074, -790051.3, 127846.38, 0.0, 10.001422, 9.998834 
2.6752278e+3, 2.1633695e+2, -777997.94, -937962.5, 54241.664, 0.013660857, 0.12415253, -761340.06, 58569.563, 0.0, 10.000955, 9.998815 
2.6751658e+3, 2.2633585e+2, -699269.5, -780287.1, 50002.477, -0.0019282658, 0.12025709, -675426.06, 46494.016, 0.0, 10.000525, 9.999432 
2.6751032e+3, 2.3633486e+2, -667724.4, -725466.75, 61768.813, -0.030914979, 0.10053349, -628412.5, -4483.7437, 0.0, 10.000117, 9.999332 
2.675041e+3, 2.4633408e+2, -627341.44, -644383.8, 43249.047, -0.044817653, 0.10719962, -591782.1, -65844.96, 0.0, 9.999673, 9.99943 
2.6749784e+3, 2.5633353e+2, -595189.9, -575227.3, 26974.887, -0.055994432, 0.13022391, -556446.3, -128502.07, 0.0, 9.9992075, 9.999457 
2.6749158e+3, 2.663332e+2, -512793.7, -382806.16, 14955.216, -0.084154695, 0.123985685, -381107.75, -51160.934, 0.0, 9.99866, 10.00037 
2.6748526e+3, 2.7633306e+2, -515036.25, -352749.47, 38218.33, -0.10629278, 0.095752046, -344199.56, -112253.28, 0.0, 9.998055, 10.000195 
2.67479e+3, 2.8633305e+2, -495205.03, -326783.22, 22840.86, -0.10288152, 0.11754291, -323740.6, -189792.23, 0.0, 9.997664, 9.999889 
2.6747268e+3, 2.963334e+2, -439852.44, -253564.56, 1811.3639, -0.12789062, 0.1829278, -253546.94, -217597.61, 0.0, 9.997389, 9.999853 
2.6746637e+3, 3.0633327e+2, -445560.8, -163975.84, -2875.415, -0.17585133, 0.17590283, -163946.48, -163946.48, 0.0, 9.996724, 10.000453 
2.674601e+3, 3.1633344e+2, -419827.8, 82819.125, -47417.754, -0.14837313, 0.16217418, 87253.21, 87253.21, 0.0, 9.995892, 10.002548 
2.6857913e+3, 1.2641747e+2, -1118725.3, -1654635.4, 29994.291, 0.04495684, 0.119068086, -1117051.8, 584068.7, 0.01103616, 10.005135, 9.997942 
2.6857284e+3, 1.364151e+2, -1199773.3, -1653683.0, 33193.69, 0.08969936, 0.11074384, -1197358.6, 405784.03, 0.006717508, 10.00392, 9.997858 
2.6856652e+3, 1.464128e+2, -1141535.3, -1544090.9, 48981.605, 0.063054174, 0.104726195, -1135661.0, 369504.06, 0.0030568987, 10.003504, 9.998136 
2.685602e+3, 1.5641068e+2, -1039337.2, -1452548.8, 48199.902, 0.020951318, 0.098762065, -1033789.25, 373397.44, 0.0008790314, 10.003563, 9.998063 
2.6855394e+3, 1.664088e+2, -988293.2, -1346554.0, 71649.734, 0.019851709, 0.115443386, -974495.1, 334710.56, 0.00012313991, 10.003108, 9.998335 
2.6854774e+3, 1.7640723e+2, -1002218.2, -1308707.3, 67907.64, 0.03695836, 0.14576772, -987846.1, 223375.88, 0.0000044684857, 10.002366, 9.998281 
2.685415e+3, 1.8640544e+2, -929358.2, -1180918.4, 80611.86, 0.02423278, 0.14144218, -905743.2, 207496.22, 0.0000000002885943, 10.002014, 9.998653 
2.685353e+3, 1.9640361e+2, -855630.4, -1104438.8, 85646.69, -0.0040968587, 0.11570303, -828999.0, 186257.6, 0.0, 10.001891, 9.998565 
2.6852906e+3, 2.0640206e+2, -807885.25, -1009969.6, 82993.18, -0.0043418775, 0.11943174, -778170.44, 139101.61, 0.0, 10.001456, 9.99875 
2.6852286e+3, 2.1640082e+2, -797427.1, -951721.5, 77825.53, 0.010785475, 0.1406304, -764991.0, 54294.414, 0.0, 10.000844, 9.998772 
2.685166e+3, 2.2639973e+2, -703311.75, -763763.7, 70342.07, -0.004125042, 0.13307649, -656976.56, 64318.64, 0.0, 10.000422, 9.999593 
2.6851034e+3, 2.3639886e+2, -660147.0, -706692.06, 67748.125, -0.034001283, 0.10793334, -611785.6, 11516.418, 0.0, 10.000107, 9.999464 
2.6850405e+3, 2.4639808e+2, -633317.94, -654408.1, 56744.59, -0.049228355, 0.11292431, -586146.94, -60836.41, 0.0, 9.999666, 9.999363 
2.6849777e+3, 2.5639746e+2, -608324.06, -586906.1, 67567.53, -0.062047154, 0.13638633, -529204.2, -101885.234, 0.0, 9.999145, 9.999405 
2.6849142e+3, 2.6639724e+2, -498576.7, -373811.8, 42345.945, -0.0875318, 0.14281398, -360797.0, -31476.31, 0.0, 9.998753, 10.000384 
2.6848507e+3, 2.7639732e+2, -461407.63, -326590.06, 27778.88, -0.10350203, 0.1349316, -321090.6, -89772.695, 0.0, 9.998426, 10.000194 
2.6847872e+3, 2.8639698e+2, -475200.47, -331413.4, 24385.314, -0.106459126, 0.1316057, -327390.38, -194067.17, 0.0, 9.997868, 9.999758 
2.6847237e+3, 2.9639667e+2, -477534.47, -281350.0, 43678.754, -0.14743018, 0.14443842, -272064.78, -236733.95, 0.0, 9.997176, 9.999762 
2.6846606e+3, 3.063977e+2, -430758.34, -133163.0, 43117.383, -0.13212703, 0.24662589, -127041.81, -127041.81, 0.0, 9.996727, 10.000661 
2.6845968e+3, 3.1639746e+2, -372642.75, 76301.62, -13048.729, -0.1902937, 0.17627698, 76680.56, 76680.56, 0.0, 9.996346, 10.002282 
2.6957962e+3, 1.2648135e+2, -1109835.9, -1624261.1, -13458.677, 0.06048239, 0.1410367, -1109484.0, 591012.7, 0.009078952, 10.005071, 9.998184 
2.6957324e+3, 1.3647898e+2, -1177305.3, -1618900.9, -4645.0596, 0.101244256, 0.10728954, -1177256.5, 425261.38, 0.0054494212, 10.003964, 9.998076 
2.6956686e+3, 1.4647694e+2, -1133127.1, -1536994.8, 51709.883, 0.06788585, 0.115411684, -1126611.5, 377926.28, 0.0024241686, 10.003544, 9.998167 
2.6956052e+3, 1.5647519e+2, -1040730.2, -1450749.4, 46021.3, 0.017909693, 0.14650156, -1035628.1, 370928.03, 0.0006741943, 10.003539, 9.998089 
2.6955423e+3, 1.6647317e+2, -993033.25, -1352643.9, 43589.59, 0.015098044, 0.14555134, -987825.06, 320751.88, 0.00009101029, 10.003089, 9.998304 
2.6954794e+3, 1.7647105e+2, -999156.6, -1306963.3, 43971.332, 0.033475444, 0.12680306, -992998.4, 217599.48, 0.0000031725767, 10.002382, 9.998285 
2.6954168e+3, 1.864695e+2, -911998.9, -1148893.5, 76401.28, 0.023548076, 0.13353144, -889496.1, 223116.56, 0.000000000007316074, 10.002028, 9.998868 
2.6953545e+3, 1.9646834e+2, -844171.6, -1079845.6, 77670.5, -0.00062323955, 0.15327415, -820876.5, 193746.7, 0.0, 10.001884, 9.998738 
2.6952916e+3, 2.0646676e+2, -815741.06, -1025260.0, 59412.094, -0.0057314285, 0.151986, -800066.56, 116572.484, 0.0, 10.00145, 9.99865 
2.695229e+3, 2.1646507e+2, -803009.06, -964008.8, 56592.523, -0.001656647, 0.13912517, -785107.0, 33549.887, 0.0, 10.000845, 9.998689 
2.695166e+3, 2.2646396e+2, -704776.94, -768535.0, 58848.75, -0.012867841, 0.13281824, -669727.25, 50939.94, 0.0, 10.000426, 9.999559 
2.6951033e+3, 2.3646328e+2, -658152.7, -704430.9, 54674.465, -0.030491196, 0.12992881, -621922.5, 749.8454, 0.0, 10.000113, 9.999478 
2.69504e+3, 2.4646263e+2, -612135.25, -611750.5, 36864.285, -0.045341976, 0.13200873, -575078.06, -50399.254, 0.0, 9.999669, 9.999656 
2.6949763e+3, 2.564621e+2, -595225.75, -560759.6, 48948.313, -0.06382244, 0.13686736, -526099.4, -99414.125, 0.0, 9.999146, 9.999585 
2.6949126e+3, 2.664618e+2, -534306.8, -449497.75, 30140.436, -0.093436666, 0.15452445, -439877.38, -111188.33, 0.0, 9.998755, 9.999865 
2.6948488e+3, 2.7646166e+2, -486433.72, -380850.53, 12947.579, -0.11545843, 0.17767167, -379285.97, -148595.5, 0.0, 9.998433, 9.99982 
2.6947853e+3, 2.8646117e+2, -443246.38, -266307.66, -2679.4316, -0.1020803, 0.14958629, -266267.06, -133570.6, 0.0, 9.9978695, 10.000206 
2.6947212e+3, 2.964607e+2, -452803.22, -228856.52, 20419.102, -0.107626885, 0.100852005, -227009.95, -192306.64, 0.0, 9.997169, 10.000128 
2.6946568e+3, 3.0646327e+2, -422954.72, -117621.7, 31734.12, -0.1353604, 0.33465242, -114358.36, -114358.36, 0.0, 9.996727, 10.00077 
2.6945928e+3, 3.1646195e+2, -443149.94, -78721.086, -17775.121, -0.18946473, 0.15307985, -77856.16, -77856.16, 0.0, 9.996375, 10.001207 
2.705801e+3, 1.265461e+2, -1236333.1, -1687065.1, 36787.55, 0.10058787, 0.15201859, -1233350.4, 466513.25, 0.007319142, 10.004197, 9.998169 
2.7057362e+3, 1.3654369e+2, -1120996.0, -1593005.1, 29372.053, 0.079265155, 0.11673253, -1119175.3, 482709.78, 0.004326164, 10.004357, 9.998064 
2.7056718e+3, 1.4654168e+2, -1092065.9, -1521101.9, 75455.33, 0.053881403, 0.13148776, -1079182.4, 424722.63, 0.0018778832, 10.003845, 9.998129 
2.7056086e+3, 1.5654e+2, -1123941.5, -1491630.6, 65971.9, 0.050248574, 0.17321463, -1112463.0, 293460.13, 0.00050492556, 10.002973, 9.998078 
2.705545e+3, 1.6653797e+2, -1051395.3, -1366158.6, 71601.35, 0.04127886, 0.16611756, -1035873.06, 272070.4, 0.000065794164, 10.002629, 9.99843 
2.7054816e+3, 1.7653583e+2, -963479.3, -1278098.9, 81078.32, 0.025038702, 0.13167256, -943814.4, 266149.78, 0.0000022107067, 10.002583, 9.998385 
2.7054188e+3, 1.8653429e+2, -900081.9, -1151566.8, 103169.42, 0.015068593, 0.14169234, -863174.1, 248804.77, 0.0, 10.0021515, 9.998788 
2.705356e+3, 1.9653319e+2, -901665.94, -1112326.5, 84688.125, 0.009738652, 0.17608763, -871842.44, 142146.9, 0.0, 10.001513, 9.9986925 
2.7052927e+3, 2.0653161e+2, -853668.5, -1029897.2, 67784.7, -0.0013756804, 0.16903453, -830612.25, 85392.81, 0.0, 10.001134, 9.998768 
2.7052295e+3, 2.1652986e+2, -788494.2, -945996.7, 79031.3, -0.01641865, 0.13864471, -755676.1, 62346.64, 0.0, 10.0009, 9.998783 
2.7051663e+3, 2.2652878e+2, -695707.0, -771778.0, 85889.28, -0.024461657, 0.13588239, -639808.1, 80224.79, 0.0, 10.000525, 9.999488 
2.7051032e+3, 2.3652816e+2, -667878.44, -713609.44, 78558.61, -0.026443971, 0.14827797, -608925.3, 13112.536, 0.0, 10.000069, 9.999434 
2.7050397e+3, 2.4652751e+2, -605994.56, -599051.5, 47473.063, -0.041528974, 0.1477186, -554923.2, -30878.955, 0.0, 9.999674, 9.999739 
2.7049753e+3, 2.5652695e+2, -567307.56, -539949.1, 44143.41, -0.06901983, 0.14027797, -507414.06, -81363.484, 0.0, 9.9993105, 9.999647 
2.7049112e+3, 2.6652667e+2, -527221.7, -456996.34, 40734.52, -0.095472395, 0.16403592, -438329.8, -110275.33, 0.0, 9.998856, 9.9997635 
2.7048472e+3, 2.7652657e+2, -505185.22, -397351.1, 53003.58, -0.10690804, 0.20318145, -375661.06, -145604.69, 0.0, 9.998341, 9.999748 
2.704783e+3, 2.8652608e+2, -433512.94, -249153.38, 26202.361, -0.096121475, 0.17220427, -245501.66, -113439.47, 0.0, 9.997887, 10.000313 
2.704718e+3, 2.9652557e+2, -403183.38, -194208.94, 25102.33, -0.112614855, 0.10936378, -191235.9, -157167.52, 0.0, 9.997467, 10.000219 
2.7046537e+3, 3.0652818e+2, -382685.22, -102678.43, 25600.232, -0.13018115, 0.34482455, -100357.12, -100357.12, 0.0, 9.997026, 10.000726 
2.7045894e+3, 3.1652632e+2, -438387.6, -109712.82, -6978.0547, -0.15981144, 0.11796748, -109564.734, -109564.734, 0.0, 9.996556, 10.000905 
2.7158058e+3, 1.2661162e+2, -1242637.9, -1714902.4, 41242.133, 0.15678898, 0.15486534, -1239063.3, 460159.1, 0.0057564355, 10.0042515, 9.9979515 
2.7157396e+3, 1.3660917e+2, -1136523.4, -1623373.3, 29084.715, 0.030707708, 0.13676065, -1134792.0, 466453.1, 0.003344083, 10.004342, 9.997864 
2.7156752e+3, 1.4660701e+2, -1101285.0, -1537395.6, 42513.953, 0.02605425, 0.15165126, -1097179.3, 406087.6, 0.0014126017, 10.003828, 9.998026 
2.715612e+3, 1.5660514e+2, -1124618.0, -1497289.0, 38535.313, 0.11076364, 0.1827602, -1120675.0, 284612.03, 0.00036677255, 10.002988, 9.998034 
2.715548e+3, 1.6660325e+2, -1032485.7, -1330619.3, 70349.44, 0.09160607, 0.17911282, -1016719.4, 290585.94, 0.000045955265, 10.002643, 9.99867 
2.715484e+3, 1.7660145e+2, -953508.5, -1256267.0, 75266.58, 0.012044749, 0.15638386, -935829.4, 273492.25, 0.000001439657, 10.002575, 9.99854 
2.7154204e+3, 1.8659976e+2, -924550.5, -1201397.5, 78698.35, 0.00022794197, 0.1630591, -903743.06, 207595.39, 0.0, 10.002145, 9.998451 
2.7153575e+3, 1.9659822e+2, -917562.8, -1146676.1, 63637.254, 0.025542084, 0.1856387, -901074.0, 112280.54, 0.0, 10.001516, 9.998457 
2.715294e+3, 2.0659664e+2, -831897.75, -987251.6, 59806.293, 0.0076273847, 0.17264794, -811541.56, 103827.99, 0.0, 10.001142, 9.999058 
2.71523e+3, 2.1659516e+2, -770755.94, -911520.3, 69061.87, -0.033919428, 0.14011388, -742531.9, 74851.266, 0.0, 10.000908, 9.999018 
2.7151665e+3, 2.2659416e+2, -702564.75, -787521.75, 68481.266, -0.038917378, 0.14209764, -664457.25, 54935.27, 0.0, 10.000529, 9.999379 
2.715103e+3, 2.365935e+2, -675444.5, -730065.56, 61707.76, -0.021991257, 0.16209829, -635273.8, -13875.079, 0.0, 10.00007, 9.999322 
2.715039e+3, 2.4659273e+2, -615472.9, -619857.9, 33916.18, -0.03777073, 0.15999645, -583678.4, -60271.492, 0.0, 9.999676, 9.999596 
2.7149743e+3, 2.5659198e+2, -570653.2, -548595.0, 29649.693, -0.07828545, 0.14764962, -527989.56, -102574.54, 0.0, 9.999315, 9.999587 
2.71491e+3, 2.6659185e+2, -504261.9, -410563.28, 21077.447, -0.093709745, 0.17127633, -406040.25, -78623.19, 0.0, 9.9988575, 10.000083 
2.7148455e+3, 2.765921e+2, -489825.47, -365796.2, 34140.867, -0.07728724, 0.21052915, -357019.5, -127603.99, 0.0, 9.99834, 9.999968 
2.714781e+3, 2.8659174e+2, -452951.38, -290114.8, 10506.759, -0.08955782, 0.20074381, -289439.66, -158019.48, 0.0, 9.997887, 10.000033 
2.7147147e+3, 2.965913e+2, -418109.56, -227201.39, 9488.932, -0.16738512, 0.1747376, -226730.92, -193304.83, 0.0, 9.997473, 9.999992 
2.714651e+3, 3.065922e+2, -397197.94, -135325.7, 5928.9185, -0.11360704, 0.26230326, -135191.53, -135191.53, 0.0, 9.997034, 10.0005 
2.714586e+3, 3.165915e+2, -382066.0, 5989.8086, 14243.808, -0.12978907, 0.16294432, 6511.933, 6511.933, 0.0, 9.996561, 10.0016985 
2.7258095e+3, 1.2667765e+2, -1189566.5, -1683542.0, 44237.508, 0.14013757, 0.19409052, -1185636.1, 512941.8, 0.0043928823, 10.00459, 9.998003 
2.7257442e+3, 1.3667522e+2, -1196036.6, -1646477.5, 46462.11, 0.06110164, 0.17551963, -1191294.1, 409306.03, 0.0025014295, 10.003907, 9.997913 
2.725679e+3, 1.4667296e+2, -1159226.6, -1562487.6, 62132.195, 0.056052167, 0.17634653, -1149870.6, 352751.9, 0.0010244938, 10.00342, 9.998049 
2.725615e+3, 1.5667088e+2, -1114409.1, -1489756.4, 67394.19, 0.11705723, 0.1864672, -1102675.3, 301969.03, 0.00025607843, 10.003051, 9.998053 
2.7255505e+3, 1.6666906e+2, -1033472.4, -1334234.6, 101376.586, 0.09534726, 0.18902946, -1002492.9, 304169.16, 0.000030382742, 10.002653, 9.998637 
2.7254865e+3, 1.7666744e+2, -1002365.5, -1281274.0, 87401.234, 0.023680035, 0.18707828, -977240.1, 231436.77, 0.0000008235445, 10.002249, 9.998524 
2.7254224e+3, 1.8666568e+2, -959417.0, -1213116.3, 93001.92, 0.009469332, 0.18690224, -928976.5, 181717.58, 0.0, 10.001886, 9.998492 
2.725359e+3, 1.9666396e+2, -909083.2, -1136905.9, 103439.8, 0.027677935, 0.18745822, -869125.75, 143585.94, 0.0, 10.0015545, 9.998503 
2.7252948e+3, 2.0666242e+2, -811707.4, -972082.8, 104893.44, 0.006939606, 0.17389637, -759862.1, 154864.0, 0.0, 10.001262, 9.999103 
2.7252308e+3, 2.1666107e+2, -757105.8, -900638.2, 95991.84, -0.035243873, 0.15290037, -709018.7, 107719.3, 0.0, 10.000987, 9.999053 
2.7251667e+3, 2.266601e+2, -699446.1, -791758.44, 84374.266, -0.04114837, 0.15866941, -649428.44, 69319.04, 0.0, 10.000579, 9.999324 
2.725103e+3, 2.3665938e+2, -673854.6, -732654.0, 81613.836, -0.02493576, 0.17805578, -616506.6, 4248.384, 0.0, 10.000099, 9.999289 
2.7250382e+3, 2.4665858e+2, -612512.94, -612940.9, 67036.44, -0.040249348, 0.17358719, -545690.1, -22926.906, 0.0, 9.999677, 9.99964 
2.7249733e+3, 2.5665784e+2, -572636.25, -543563.6, 75212.67, -0.07947973, 0.15793976, -481495.44, -56724.688, 0.0, 9.99928, 9.999637 
2.7249086e+3, 2.6665768e+2, -499950.8, -402192.6, 54192.83, -0.091072574, 0.17671712, -378092.03, -51319.18, 0.0, 9.998865, 10.0001335 
2.7248436e+3, 2.7665794e+2, -472287.06, -351145.28, 47597.64, -0.06835108, 0.20962207, -334681.3, -105909.66, 0.0, 9.998439, 10.000017 
2.7247784e+3, 2.8665778e+2, -434501.06, -280278.8, 32545.396, -0.08940144, 0.21880217, -273692.1, -142917.86, 0.0, 9.998014, 10.000037 
2.724712e+3, 2.9665765e+2, -407598.38, -224310.39, 51982.5, -0.18654202, 0.22678114, -210594.05, -177817.38, 0.0, 9.997559, 9.999969 
2.724648e+3, 3.0665734e+2, -394151.1, -153850.27, 55222.33, -0.0729236, 0.20498033, -141767.45, -141767.45, 0.0, 9.997144, 10.000318 
2.724582e+3, 3.166576e+2, -337353.4, 73542.51, 29134.621, -0.1622556, 0.21452485, 75598.016, 75598.016, 0.0, 9.9966755, 10.002104 
2.7358133e+3, 1.2674415e+2, -1170247.1, -1647095.8, 19799.57, 0.07213627, 0.2600504, -1169426.5, 528503.4, 0.0032307673, 10.004599, 9.99825 
2.7357486e+3, 1.3674183e+2, -1181158.8, -1614472.9, 22471.908, 0.15184312, 0.22741668, -1179996.5, 419953.84, 0.0017967237, 10.003898, 9.998138 
2.735683e+3, 1.467395e+2, -1151708.0, -1547478.8, 47805.473, 0.12839526, 0.20376809, -1146015.4, 355957.22, 0.0007100489, 10.003418, 9.998154 
2.7356175e+3, 1.5673722e+2, -1108914.6, -1481673.3, 53136.79, 0.078938276, 0.18553457, -1101488.0, 302507.03, 0.00016963588, 10.003062, 9.998104 
2.7355528e+3, 1.6673535e+2, -1049991.6, -1371860.9, 86320.664, 0.062336367, 0.19686835, -1028303.06, 277710.53, 0.000018432016, 10.0026655, 9.998375 
2.7354884e+3, 1.7673376e+2, -1012274.0, -1303876.8, 73416.07, 0.056004804, 0.22292306, -994833.4, 213196.1, 0.00000037747915, 10.0022545, 9.998367 
2.7354243e+3, 1.8673205e+2, -934227.94, -1162462.4, 80924.9, 0.038200647, 0.2127031, -908446.7, 201598.95, 0.0, 10.001891, 9.998839 
2.73536e+3, 1.9673036e+2, -889760.56, -1098257.8, 90826.125, 0.017030047, 0.18315588, -855744.3, 156317.02, 0.0, 10.001558, 9.998768 
2.735296e+3, 2.0672888e+2, -823735.9, -998081.25, 94256.484, -0.001973218, 0.17358929, -782521.06, 131554.25, 0.0, 10.001264, 9.998924 
2.7352318e+3, 2.1672758e+2, -767747.56, -922574.4, 84398.94, -0.021462465, 0.17487366, -730635.8, 85451.67, 0.0, 10.000983, 9.998905 
2.735167e+3, 2.2672656e+2, -701110.7, -795489.6, 66535.1, -0.03243397, 0.18443488, -666729.5, 51368.313, 0.0, 10.000578, 9.9993 
2.7351028e+3, 2.3672576e+2, -671303.94, -728683.56, 64078.715, -0.03634348, 0.1975943, -629785.56, -9679.082, 0.0, 10.000102, 9.999315 
2.7350378e+3, 2.4672508e+2, -596387.4, -580806.2, 52057.426, -0.049027715, 0.18905628, -535959.6, -13846.539, 0.0, 9.99968, 9.999862 
2.7349725e+3, 2.567245e+2, -562522.75, -523526.22, 60073.375, -0.072693236, 0.17062354, -479866.0, -55748.145, 0.0, 9.999281, 9.999775 
2.7349073e+3, 2.6672417e+2, -516736.7, -437701.25, 38026.57, -0.08813632, 0.17991512, -422376.75, -96254.82, 0.0, 9.998866, 9.999891 
2.7348417e+3, 2.7672407e+2, -481390.2, -370923.88, 31696.928, -0.08182901, 0.19998898, -362475.03, -134349.94, 0.0, 9.99844, 9.999883 
2.734776e+3, 2.867242e+2, -412930.94, -236694.48, 15717.515, -0.09473704, 0.2254588, -235303.7, -105179.336, 0.0, 9.998015, 10.000337 
2.7347094e+3, 2.967247e+2, -394166.6, -197371.72, 34856.99, -0.16470483, 0.26446015, -191380.16, -159260.31, 0.0, 9.99756, 10.0001545 
2.7346456e+3, 3.067237e+2, -404974.6, -177149.34, 42691.0, -0.012485712, 0.17815202, -169412.44, -169412.44, 0.0, 9.997145, 10.000159 
2.7345783e+3, 3.1672433e+2, -353326.72, 43112.91, -112585.2, -0.19469512, 0.24086308, 72854.766, 72854.766, 0.0, 9.996656, 10.001908 
2.7458176e+3, 1.2681082e+2, -1193547.6, -1660003.0, 36700.906, 0.07886363, 0.27071384, -1190677.8, 506600.63, 0.0022707516, 10.004443, 9.998236 
2.7457523e+3, 1.3680863e+2, -1232870.8, -1636955.4, 27730.73, 0.18241692, 0.25371814, -1230976.6, 368321.53, 0.0012273112, 10.003531, 9.998159 
2.7456862e+3, 1.4680636e+2, -1180724.3, -1546000.8, 67495.77, 0.15060061, 0.22923748, -1168651.4, 332668.03, 0.00046497319, 10.003155, 9.998289 
2.74562e+3, 1.5680414e+2, -1102172.8, -1465802.4, 72991.664, 0.076125994, 0.20164289, -1088068.1, 315272.4, 0.00010455116, 10.003057, 9.998215 
2.745555e+3, 1.6680223e+2, -1046939.5, -1373821.1, 109027.99, 0.061177503, 0.20754401, -1013911.5, 291447.84, 0.000009845442, 10.002705, 9.998341 
2.7454907e+3, 1.7680056e+2, -1017517.56, -1307974.9, 110842.44, 0.07125068, 0.23050852, -980051.4, 227324.72, 0.00000012200492, 10.00223, 9.998349 
2.745426e+3, 1.8679892e+2, -938829.3, -1161850.5, 112656.82, 0.052826274, 0.22619045, -891827.56, 217564.31, 0.0, 10.001851, 9.99886 
2.7453613e+3, 1.9679734e+2, -893105.25, -1096839.0, 100984.695, 0.021472732, 0.20704125, -851533.06, 159873.31, 0.0, 10.001525, 9.998792 
2.745297e+3, 2.0679584e+2, -837568.4, -1004110.5, 104861.39, 0.00017955451, 0.1952473, -786936.56, 126483.9, 0.0, 10.001169, 9.998927 
2.7452323e+3, 2.1679446e+2, -793243.8, -932354.44, 106120.12, -0.016878387, 0.1881739, -735915.6, 79517.914, 0.0, 10.000801, 9.998924 
2.7451676e+3, 2.2679348e+2, -716508.5, -795675.9, 93661.26, -0.031244282, 0.198235, -654409.8, 63033.72, 0.0, 10.000444, 9.999361 
2.7451026e+3, 2.367928e+2, -668132.94, -719092.6, 96908.77, -0.041457266, 0.21585827, -593410.3, 26040.988, 0.0, 10.0000925, 9.999384 
2.7450374e+3, 2.4679218e+2, -585156.25, -566757.3, 79933.82, -0.052885525, 0.2087699, -495495.3, 25961.63, 0.0, 9.999724, 9.999934 
2.7449718e+3, 2.5679168e+2, -550728.56, -511982.9, 77158.12, -0.07118503, 0.19040674, -451802.72, -28342.0, 0.0, 9.999342, 9.999822 
2.744906e+3, 2.6679128e+2, -502482.53, -441545.66, 59208.742, -0.08561687, 0.19716673, -405425.78, -79960.24, 0.0, 9.999015, 9.999791 
2.7448404e+3, 2.76791e+2, -448395.2, -362526.13, 62087.285, -0.08080685, 0.21372177, -329974.2, -102503.805, 0.0, 9.998702, 9.999812 
2.7447742e+3, 2.8679112e+2, -366712.8, -208771.47, 33281.234, -0.0881566, 0.23472409, -202044.95, -72575.12, 0.0, 9.998313, 10.000383 
2.7447072e+3, 2.9679155e+2, -343348.66, -167661.5, 33500.73, -0.14774844, 0.2666431, -161490.22, -130025.28, 0.0, 9.997891, 10.000196 
2.7446425e+3, 3.0679074e+2, -369464.3, -155513.64, 44368.04, -0.01876229, 0.19181792, -146677.73, -146677.73, 0.0, 9.997373, 10.0001955 
2.7445748e+3, 3.1679165e+2, -329593.88, 27068.02, -96982.03, -0.16753535, 0.2825022, 51733.234, 51733.234, 0.0, 9.996942, 10.001658 
2.7558225e+3, 1.2687768e+2, -1210969.0, -1692433.6, 1781.9834, 0.13767001, 0.24100563, -1210962.4, 485660.88, 0.0015091287, 10.004422, 9.998024 
2.7557555e+3, 1.3687569e+2, -1237989.8, -1655418.5, 131.62384, 0.16579168, 0.26185736, -1237989.8, 360653.3, 0.0007877806, 10.003562, 9.998019 
2.755689e+3, 1.4687361e+2, -1166144.5, -1522789.0, 65023.35, 0.13510288, 0.2538792, -1154659.3, 346003.13, 0.0002834328, 10.003182, 9.998437 
2.7556232e+3, 1.5687159e+2, -1091770.8, -1444329.1, 67145.625, 0.10162828, 0.23127402, -1079415.6, 323265.38, 0.000058262318, 10.003055, 9.9983635 
2.755558e+3, 1.6686964e+2, -1037754.3, -1353831.5, 90761.71, 0.084893756, 0.21978684, -1013546.1, 291153.28, 0.0000044041435, 10.002698, 9.998483 
2.755493e+3, 1.7686783e+2, -1011951.6, -1297198.6, 93240.28, 0.07158253, 0.21448758, -984177.9, 222539.2, 0.000000024025011, 10.002231, 9.998424 
2.7554277e+3, 1.8686625e+2, -956942.7, -1200418.1, 100124.49, 0.055785142, 0.2300437, -921057.5, 187675.33, 0.0, 10.001854, 9.998596 
2.755363e+3, 1.9686487e+2, -906132.1, -1123892.6, 88728.97, 0.039436955, 0.2550014, -874556.94, 136189.95, 0.0, 10.001523, 9.998609 
2.7552977e+3, 2.0686331e+2, -827002.9, -982637.25, 91381.96, 0.011695338, 0.23561822, -784794.3, 127967.3, 0.0, 10.001168, 9.999076 
2.755233e+3, 2.1686174e+2, -781869.94, -909965.44, 92374.62, -0.022327792, 0.19491689, -733511.4, 81264.65, 0.0, 10.000805, 9.999077 
2.7551678e+3, 2.2686088e+2, -706555.7, -776489.5, 80230.74, -0.03727241, 0.20178156, -654003.1, 62781.465, 0.0, 10.000448, 9.999493 
2.7551022e+3, 2.3686044e+2, -661314.5, -705506.06, 83151.17, -0.03997112, 0.23172738, -597373.44, 21416.25, 0.0, 10.0000925, 9.999478 
2.755037e+3, 2.4685988e+2, -590874.06, -579205.06, 65479.19, -0.05205195, 0.2320947, -519300.94, 1493.9094, 0.0, 9.999724, 9.99985 
2.7549708e+3, 2.5685933e+2, -554010.7, -519931.03, 63369.34, -0.075798325, 0.21825984, -471350.53, -48551.215, 0.0, 9.999345, 9.999767 
2.754905e+3, 2.66859e+2, -499413.94, -436713.94, 47629.37, -0.0833908, 0.22961056, -411043.06, -86239.414, 0.0, 9.999018, 9.999824 
2.7548388e+3, 2.7685884e+2, -449303.94, -366077.16, 49486.08, -0.064934134, 0.2525133, -343033.4, -116226.055, 0.0, 9.998707, 9.999786 
2.7547726e+3, 2.868585e+2, -383671.5, -245379.97, 16896.256, -0.07015994, 0.24554853, -243345.53, -114534.59, 0.0, 9.998317, 10.000132 
2.754705e+3, 2.9685822e+2, -351677.2, -186563.16, 17180.314, -0.13854851, 0.22814861, -184794.47, -153981.38, 0.0, 9.997896, 10.000066 
2.7546388e+3, 3.068585e+2, -350927.03, -118119.07, 19680.283, -0.09500672, 0.25774065, -116467.13, -116467.13, 0.0, 9.997375, 10.000454 
2.7545723e+3, 3.1685886e+2, -351030.63, -23965.459, 51373.055, -0.11529949, 0.2710951, -16085.976, -16085.976, 0.0, 9.996969, 10.001294 
2.765827e+3, 1.2694538e+2, -1279285.1, -1719231.3, 11461.815, 0.17561515, 0.25363758, -1278986.8, 416974.13, 0.0009356135, 10.003925, 9.998078 
2.765759e+3, 1.3694331e+2, -1214310.1, -1638225.8, 26836.879, 0.15432976, 0.26433605, -1212617.9, 385363.22, 0.00046807752, 10.003701, 9.99807 
2.7656922e+3, 1.4694126e+2, -1152532.8, -1515674.3, 96407.695, 0.12693036, 0.25702953, -1128525.4, 371475.0, 0.00015749612, 10.003276, 9.99844 
2.7656263e+3, 1.5693928e+2, -1133670.6, -1462970.6, 89062.14, 0.12443994, 0.24046648, -1111126.4, 290891.88, 0.000028159518, 10.002763, 9.998376 
2.7655604e+3, 1.669374e+2, -1078045.3, -1370807.8, 103286.64, 0.10950677, 0.23138249, -1045274.06, 258762.33, 0.0000015734015, 10.002414, 9.998502 
2.765495e+3, 1.769356e+2, -1022618.9, -1299725.3, 97830.94, 0.082644664, 0.2260049, -991561.1, 214492.72, 0.0000000017471812, 10.002149, 9.998445 
2.7654293e+3, 1.8693398e+2, -968695.06, -1206597.9, 112991.1, 0.061788607, 0.23736992, -923584.2, 184485.77, 0.0, 10.001778, 9.998589 
2.7653643e+3, 1.9693252e+2, -929057.4, -1133941.0, 118570.32, 0.045643747, 0.25674903, -874804.44, 135280.27, 0.0, 10.001365, 9.998614 
2.7652988e+3, 2.0693104e+2, -839697.9, -985092.06, 123462.15, 0.016068434, 0.24405654, -769119.8, 142979.05, 0.0, 10.001069, 9.9991045 
2.7652335e+3, 2.1692963e+2, -776368.94, -903331.5, 115001.79, -0.021021953, 0.21551989, -708490.8, 105621.234, 0.0, 10.000829, 9.999109 
2.765168e+3, 2.2692877e+2, -702848.6, -772930.06, 91477.19, -0.039764475, 0.22161041, -639930.5, 76190.16, 0.0, 10.00047, 9.999505 
2.7651024e+3, 2.3692827e+2, -665520.1, -704361.3, 86338.65, -0.046476822, 0.24466097, -596444.9, 21681.486, 0.0, 10.000054, 9.999503 
2.7650362e+3, 2.4692775e+2, -588993.3, -574818.6, 72707.586, -0.05383754, 0.2458434, -508853.78, 11277.36, 0.0, 9.999726, 9.999877 
2.76497e+3, 2.5692728e+2, -539435.3, -510947.66, 77822.68, -0.06817994, 0.2365665, -446076.03, -23941.078, 0.0, 9.999439, 9.999782 
2.7649036e+3, 2.669269e+2, -493144.94, -438042.4, 59495.77, -0.07955839, 0.24740306, -400028.3, -75888.76, 0.0, 9.999084, 9.999781 
2.7648374e+3, 2.7692667e+2, -455172.3, -372785.47, 55934.113, -0.07114402, 0.26701447, -344512.9, -118368.984, 0.0, 9.998689, 9.999746 
2.7647704e+3, 2.869262e+2, -376855.28, -248825.22, 31667.885, -0.061564215, 0.2558568, -241420.52, -113272.2, 0.0, 9.998398, 10.000067 
2.764703e+3, 2.969258e+2, -324084.4, -181515.1, 43562.02, -0.103375636, 0.23355556, -169258.42, -139106.94, 0.0, 9.998124, 9.999989 
2.7646357e+3, 3.0692604e+2, -318446.94, -123294.086, 18840.848, -0.1382933, 0.27153885, -121491.76, -121491.76, 0.0, 9.997692, 10.000263 
2.7645692e+3, 3.1692576e+2, -320398.13, 357.52087, 69916.74, -0.12368347, 0.23810177, 14935.113, 14935.113, 0.0, 9.997143, 10.001376 
2.775831e+3, 1.2701374e+2, -1265262.8, -1685527.0, 2933.5754, 0.19840555, 0.2968511, -1265242.3, 430049.8, 0.00053158693, 10.003902, 9.998322 
2.775762e+3, 1.3701145e+2, -1200456.5, -1611961.1, 15865.134, 0.14549576, 0.26132524, -1199845.8, 397467.53, 0.0002522698, 10.003709, 9.998247 
2.775695e+3, 1.4700931e+2, -1158813.6, -1532179.0, 75842.96, 0.12377201, 0.24321304, -1143995.5, 355337.88, 0.00007721653, 10.003287, 9.998322 
2.775629e+3, 1.5700729e+2, -1139820.8, -1478028.0, 70829.9, 0.14527807, 0.23384804, -1125586.1, 275766.1, 0.000011151193, 10.00277, 9.99827 
2.775563e+3, 1.670055e+2, -1083252.5, -1383505.0, 93450.11, 0.13471523, 0.24321166, -1056543.1, 246826.75, 0.00000042374444, 10.002419, 9.998412 
2.775497e+3, 1.7700383e+2, -1023503.2, -1303102.6, 87240.52, 0.10201663, 0.26053286, -998515.56, 206870.84, 0.00000000000031093438, 10.002153, 9.998421 
2.7754313e+3, 1.870021e+2, -953306.06, -1176784.8, 97448.98, 0.06992118, 0.24663559, -916782.2, 190621.06, 0.0, 10.001785, 9.998791 
2.775365e+3, 1.9700035e+2, -916736.6, -1111309.5, 103851.03, 0.040544856, 0.21877062, -871721.7, 137697.89, 0.0, 10.001375, 9.998765 
2.7752998e+3, 2.0699908e+2, -844775.06, -997732.3, 114098.45, 0.014061811, 0.22540528, -783894.9, 127537.14, 0.0, 10.001077, 9.999016 
2.775234e+3, 2.1699807e+2, -782512.4, -916220.75, 104392.516, -0.01251689, 0.24792752, -725401.75, 88040.305, 0.0, 10.000827, 9.999023 
2.775168e+3, 2.2699715e+2, -710254.25, -788654.75, 75834.92, -0.039016977, 0.25554484, -664087.1, 51364.863, 0.0, 10.000469, 9.999398 
2.7751017e+3, 2.3699632e+2, -668496.06, -711847.3, 71573.05, -0.062441625, 0.25577748, -615388.44, 2072.6426, 0.0, 10.000058, 9.999451 
2.7750355e+3, 2.4699579e+2, -579787.06, -557160.8, 61905.027, -0.05848917, 0.2508655, -505543.66, 13922.064, 0.0, 9.99973, 9.999998 
2.7749693e+3, 2.5699547e+2, -534199.3, -501105.84, 66255.08, -0.0483555, 0.24493903, -449362.53, -27894.816, 0.0, 9.999442, 9.999849 
2.7749026e+3, 2.6699498e+2, -502594.28, -457885.44, 44239.55, -0.074754335, 0.24931629, -430673.16, -107199.73, 0.0, 9.9990835, 9.999646 
2.7748355e+3, 2.7699447e+2, -460020.1, -382951.4, 41960.273, -0.10111056, 0.2555782, -364515.94, -139035.48, 0.0, 9.998688, 9.999679 
2.7747688e+3, 2.8699428e+2, -367379.25, -230290.53, 21803.904, -0.06166298, 0.2673229, -226906.19, -99424.29, 0.0, 9.9984, 10.000195 
2.7747017e+3, 2.9699445e+2, -326011.78, -187494.92, 30895.537, -0.038108923, 0.28922236, -180916.27, -151436.86, 0.0, 9.99813, 9.999947 
2.7746332e+3, 3.0699316e+2, -369308.9, -229974.1, 164.41393, -0.15362056, 0.21716388, -229973.9, -229973.9, 0.0, 9.997694, 9.99953 
2.7745658e+3, 3.1699315e+2, -273272.6, 99841.63, -61392.152, -0.13344172, 0.27085084, 109683.484, 109683.484, 0.0, 9.997127, 10.002072 
2.7858344e+3, 1.2708199e+2, -1350480.9, -1716974.6, 26022.076, 0.20529823, 0.2984401, -1348642.5, 345981.13, 0.00027005732, 10.003276, 9.998406 
2.7857655e+3, 1.3707975e+2, -1221595.1, -1614219.5, 24927.316, 0.15623727, 0.25755882, -1220018.9, 376625.53, 0.00011939084, 10.0035305, 9.998317 
2.7856982e+3, 1.4707768e+2, -1169526.8, -1539337.8, 67777.47, 0.13289644, 0.24750832, -1157496.3, 341167.7, 0.00003157788, 10.003225, 9.998302 
2.7856317e+3, 1.5707578e+2, -1154103.8, -1483642.4, 71011.03, 0.15124904, 0.25159648, -1139453.1, 261229.0, 0.0000033549736, 10.002669, 9.99828 
2.7855653e+3, 1.6707395e+2, -1092566.3, -1377170.6, 112143.78, 0.14123325, 0.25322282, -1053688.5, 249011.14, 0.00000007042765, 10.002312, 9.9985075 
2.785499e+3, 1.7707223e+2, -1032326.5, -1298895.4, 116592.07, 0.11131202, 0.25385982, -988527.8, 216188.5, 0.0, 10.002059, 9.998494 
2.785433e+3, 1.8707047e+2, -948754.8, -1178073.9, 118112.02, 0.07382094, 0.24117362, -898801.9, 207931.16, 0.0, 10.001834, 9.998757 
2.7853665e+3, 1.970688e+2, -882367.56, -1095566.6, 108236.88, 0.034878615, 0.22216865, -837050.44, 171698.81, 0.0, 10.001618, 9.998755 
2.7853006e+3, 2.0706755e+2, -826533.1, -984456.6, 116657.62, 0.011489152, 0.22969814, -764626.3, 146135.16, 0.0, 10.001185, 9.999053 
2.7852347e+3, 2.1706657e+2, -804641.25, -922947.3, 116248.375, -0.0057851546, 0.25001463, -733361.25, 79409.98, 0.0, 10.000661, 9.999055 
2.7851686e+3, 2.2706562e+2, -722347.44, -796277.75, 97973.45, -0.03384519, 0.2562197, -654597.6, 60183.81, 0.0, 10.000398, 9.999378 
2.7851018e+3, 2.3706475e+2, -642600.0, -702200.44, 98251.05, -0.063546486, 0.2551286, -569729.3, 47061.934, 0.0, 10.000251, 9.999422 
2.785035e+3, 2.4706423e+2, -559917.1, -556855.44, 76921.58, -0.0612576, 0.25902095, -481449.47, 37346.625, 0.0, 9.999909, 9.999912 
2.7849686e+3, 2.5706396e+2, -534018.94, -506871.75, 66790.33, -0.050856855, 0.26605797, -452289.72, -31491.6, 0.0, 9.999473, 9.999793 
2.7849013e+3, 2.6706338e+2, -485939.1, -446444.4, 49979.883, -0.076432124, 0.26226684, -412452.13, -89647.73, 0.0, 9.9991865, 9.999673 
2.784834e+3, 2.770627e+2, -418770.72, -360359.78, 59390.855, -0.10131235, 0.2508719, -323381.94, -98569.63, 0.0, 9.998961, 9.999701 
2.7847672e+3, 2.8706264e+2, -321726.75, -211912.7, 35745.367, -0.06523304, 0.27400574, -201302.47, -74489.734, 0.0, 9.998732, 10.000159 
2.7846998e+3, 2.9706302e+2, -280480.75, -176672.6, 29333.65, -0.045561858, 0.321462, -168957.08, -140148.66, 0.0, 9.998495, 9.999843 
2.7846313e+3, 3.0706105e+2, -372847.72, -267402.1, 1907.3472, -0.1231626, 0.20521416, -267367.6, -267367.6, 0.0, 9.997828, 9.9992075 
2.7845633e+3, 3.170612e+2, -241682.31, 172336.17, -31836.58, -0.08316427, 0.30006972, 174769.98, 174769.98, 0.0, 9.9971, 10.002582 
2.7958372e+3, 1.2715021e+2, -1344669.8, -1718305.9, 35479.43, 0.19984213, 0.27016604, -1341330.6, 352623.8, 0.00011800271, 10.003331, 9.998372 
2.7957693e+3, 1.3714817e+2, -1224444.4, -1617139.6, 28265.803, 0.18248244, 0.25465864, -1222420.3, 373553.53, 0.000046695113, 10.003515, 9.998305 
2.7957013e+3, 1.4714636e+2, -1168148.3, -1533215.0, 46443.92, 0.15085143, 0.26638252, -1162332.3, 335659.38, 0.000009788546, 10.003209, 9.998353 
2.795634e+3, 1.571447e+2, -1145280.8, -1468593.9, 52361.418, 0.14340743, 0.2882893, -1137012.1, 262996.1, 0.00000067164456, 10.002682, 9.998378 
2.7955672e+3, 1.6714276e+2, -1074007.5, -1342123.4, 102110.57, 0.13238786, 0.2606616, -1039548.1, 262477.75, 0.0000000035986794, 10.002324, 9.998743 
2.795501e+3, 1.7714077e+2, -1022420.8, -1278897.0, 106370.18, 0.1127392, 0.2127877, -984046.7, 219996.69, 0.0, 10.002059, 9.9986315 
2.7954343e+3, 1.8713918e+2, -965948.2, -1213915.9, 109616.59, 0.07403001, 0.22452344, -924439.44, 181619.86, 0.0, 10.001833, 9.998512 
2.7953678e+3, 1.9713783e+2, -893059.75, -1117984.1, 97772.61, 0.028893478, 0.26161546, -856501.0, 151572.94, 0.0, 10.001617, 9.998603 
2.7953014e+3, 2.0713645e+2, -816133.8, -963445.8, 96803.625, 0.008357256, 0.2529466, -768150.4, 141936.81, 0.0, 10.001185, 9.999198 
2.7952352e+3, 2.1713513e+2, -794830.44, -903863.4, 99309.65, -0.0025115637, 0.22481854, -736057.7, 76041.59, 0.0, 10.000665, 9.999186 
2.7951688e+3, 2.2713423e+2, -718213.7, -789391.56, 92634.83, -0.024941092, 0.22693275, -654566.6, 59542.246, 0.0, 10.000402, 9.999424 
2.795102e+3, 2.3713356e+2, -643961.7, -705562.44, 90340.336, -0.04950786, 0.2429776, -579315.56, 36801.313, 0.0, 10.000251, 9.9994 
2.795035e+3, 2.471331e+2, -580554.9, -599957.56, 60226.004, -0.06243159, 0.26973417, -529253.9, -11131.529, 0.0, 9.999909, 9.999618 
2.7949676e+3, 2.5713277e+2, -546859.44, -534232.5, 51946.613, -0.07707632, 0.30034328, -488217.13, -68090.98, 0.0, 9.999474, 9.999605 
2.7949005e+3, 2.6713213e+2, -472497.03, -419980.1, 41654.867, -0.08443525, 0.2869218, -396997.97, -74865.53, 0.0, 9.99919, 9.999854 
2.794833e+3, 2.771314e+2, -410859.4, -345860.53, 50717.3, -0.0707926, 0.25312907, -318123.28, -93983.84, 0.0, 9.998967, 9.999799 
2.7947652e+3, 2.8713125e+2, -337423.2, -245742.44, 26540.154, -0.075501926, 0.2747796, -238613.77, -112472.66, 0.0, 9.998735, 9.999926 
2.794697e+3, 2.9713145e+2, -292616.44, -202374.6, 15826.596, -0.13541272, 0.3284783, -199679.42, -171540.19, 0.0, 9.998495, 9.999667 
2.7946296e+3, 3.0712983e+2, -363175.53, -247082.81, -33636.773, -0.028630868, 0.2457504, -238041.08, -238041.08, 0.0, 9.997823, 9.9993515 
2.79456e+3, 3.1712943e+2, -231566.98, 193995.94, 74024.2, -0.10621262, 0.27195376, 206504.36, 206504.36, 0.0, 9.997101, 10.002728 
2.8058404e+3, 1.2721908e+2, -1295133.5, -1693934.5, 40352.04, 0.18365328, 0.28422588, -1291091.5, 402188.1, 0.000040909137, 10.003671, 9.998375 
2.8057724e+3, 1.3721685e+2, -1319193.8, -1659495.9, 36234.04, 0.20774779, 0.24947362, -1315378.5, 279922.5, 0.000013370687, 10.002852, 9.998333 
2.8057042e+3, 1.4721514e+2, -1247035.9, -1560258.0, 60524.07, 0.16774668, 0.26432493, -1235747.5, 261570.55, 0.000001926778, 10.002622, 9.998449 
2.8056362e+3, 1.572137e+2, -1141754.6, -1456276.4, 67684.89, 0.13185294, 0.2984603, -1127807.4, 271525.56, 0.000000061834285, 10.002663, 9.99847 
2.8055695e+3, 1.6721182e+2, -1064133.5, -1331973.1, 105701.086, 0.123527505, 0.2700432, -1027444.94, 273904.88, 0.0, 10.002372, 9.998789 
2.8055027e+3, 1.7720981e+2, -1036414.2, -1280113.3, 99299.734, 0.119076625, 0.21565667, -1001076.75, 202290.39, 0.0, 10.001942, 9.998679 
2.805436e+3, 1.8720827e+2, -989382.6, -1222835.0, 115286.516, 0.08096071, 0.22845523, -942047.94, 163334.88, 0.0, 10.001664, 9.998532 
2.8053692e+3, 1.9720697e+2, -913651.44, -1123471.5, 118631.99, 0.03130101, 0.27008733, -860195.9, 147201.38, 0.0, 10.001459, 9.99864 
2.8053024e+3, 2.0720564e+2, -811688.2, -953383.7, 112864.73, 0.0076889223, 0.26129398, -749277.3, 160132.67, 0.0, 10.001185, 9.999266 
2.805236e+3, 2.1720436e+2, -760429.2, -881115.56, 110622.91, -0.0058402536, 0.23087151, -694761.56, 116660.05, 0.0, 10.000877, 9.999238 
2.805169e+3, 2.272035e+2, -704862.8, -785976.06, 102542.125, -0.023660187, 0.23788121, -635148.25, 78282.64, 0.0, 10.00051, 9.999395 
2.8051022e+3, 2.3720288e+2, -664953.06, -718606.75, 95674.266, -0.040597115, 0.26158234, -592415.7, 23023.082, 0.0, 10.000123, 9.999372 
2.8050348e+3, 2.4720237e+2, -574688.75, -603704.2, 76801.12, -0.057595555, 0.2864372, -511037.1, 6407.999, 0.0, 9.999981, 9.999556 
2.8049672e+3, 2.572019e+2, -484319.28, -510922.22, 83203.52, -0.08064665, 0.31192452, -413360.72, 6089.511, 0.0, 9.999935, 9.999542 
2.8048995e+3, 2.6720127e+2, -425647.94, -406242.63, 59640.465, -0.08280995, 0.30467904, -355520.72, -34064.086, 0.0, 9.999553, 9.999773 
2.8048322e+3, 2.7720052e+2, -407583.25, -353150.7, 51033.297, -0.05810412, 0.28044775, -322529.94, -99066.57, 0.0, 9.999031, 9.999716 
2.8047642e+3, 2.8720006e+2, -335796.13, -258446.95, 32456.947, -0.07379024, 0.28150985, -246632.17, -121164.38, 0.0, 9.998807, 9.999803 
2.8046954e+3, 2.9719982e+2, -271703.03, -200946.73, 26136.514, -0.15350357, 0.3034687, -192339.31, -164869.44, 0.0, 9.998678, 9.999588 
2.804628e+3, 3.0719885e+2, -282615.75, -203276.61, -39762.516, 0.018042063, 0.28783032, -186779.17, -186779.17, 0.0, 9.998356, 9.999394 
2.8045568e+3, 3.1719798e+2, -151824.6, 174343.86, 108965.65, -0.15958333, 0.26354477, 207397.28, 207397.28, 0.0, 9.997902, 10.002205 
2.8158435e+3, 1.272885e+2, -1300825.8, -1694002.3, 7351.923, 0.15852003, 0.32800487, -1300688.3, 391911.7, 0.000009398705, 10.00362, 9.998399 
2.8157753e+3, 1.3728578e+2, -1312535.0, -1650636.1, 11655.389, 0.23071158, 0.24126862, -1312133.8, 282492.1, 0.0000021889277, 10.002872, 9.998384 
2.8157067e+3, 1.4728408e+2, -1234630.0, -1540918.1, 61878.383, 0.18331757, 0.2458915, -1222601.3, 274041.6, 0.00000016251443, 10.002647, 9.998571 
2.8156385e+3, 1.5728281e+2, -1136411.8, -1445228.1, 64938.465, 0.11803321, 0.28836587, -1123312.0, 275343.7, 0.0000000005064632, 10.002661, 9.998548 
2.8155714e+3, 1.6728112e+2, -1072606.6, -1349123.8, 88906.69, 0.11424776, 0.28226885, -1046488.1, 254183.11, 0.0, 10.002368, 9.998673 
2.8155047e+3, 1.7727928e+2, -1037343.4, -1283942.1, 84747.68, 0.12809604, 0.2553462, -1011026.9, 191660.69, 0.0, 10.001948, 9.998651 
2.8154376e+3, 1.8727767e+2, -972251.7, -1188160.0, 107558.21, 0.093228884, 0.24858353, -927815.3, 176888.2, 0.0, 10.001666, 9.99877 
2.8153706e+3, 1.9727625e+2, -901269.2, -1096564.6, 109849.96, 0.04035473, 0.2513175, -851940.44, 154778.34, 0.0, 10.001452, 9.998829 
2.8153035e+3, 2.0727514e+2, -813256.6, -956013.56, 101100.39, 0.00888994, 0.257566, -760876.56, 147853.14, 0.0, 10.001181, 9.99925 
2.8152364e+3, 2.1727422e+2, -762716.1, -885811.2, 98117.266, -0.014363262, 0.2655868, -708440.1, 102298.375, 0.0, 10.000875, 9.9992075 
2.815169e+3, 2.272734e+2, -711681.8, -800827.25, 87598.13, -0.029327769, 0.28561032, -657968.44, 54779.36, 0.0, 10.000511, 9.999293 
2.815102e+3, 2.3727271e+2, -666825.4, -723913.25, 83848.195, -0.03857984, 0.30962402, -606795.75, 7961.222, 0.0, 10.000127, 9.999333 
2.8150347e+3, 2.47272e+2, -563149.8, -581314.44, 75677.72, -0.04718618, 0.30893308, -496011.34, 20752.977, 0.0, 9.999986, 9.999708 
2.814967e+3, 2.5727135e+2, -480599.6, -504673.53, 77617.64, -0.061452437, 0.30030993, -414091.13, 4679.244, 0.0, 9.999939, 9.999584 
2.8148988e+3, 2.672707e+2, -450848.1, -459199.75, 39237.027, -0.071815714, 0.31583175, -415565.3, -94788.24, 0.0, 9.999554, 9.99941 
2.8148308e+3, 2.772701e+2, -427200.1, -393836.34, 34620.168, -0.064106785, 0.33578777, -372088.53, -149304.5, 0.0, 9.999029, 9.999438 
2.8147626e+3, 2.872691e+2, -336021.4, -259500.23, 28250.018, -0.057221286, 0.29379898, -250201.02, -125408.06, 0.0, 9.998807, 9.999797 
2.8146943e+3, 2.9726806e+2, -269881.0, -198753.98, 18343.389, -0.092991285, 0.23959014, -194301.95, -167501.03, 0.0, 9.998682, 9.999602 
2.8146258e+3, 3.0726823e+2, -286670.28, -214926.3, -54381.23, -0.00003553171, 0.33738828, -185651.39, -185651.39, 0.0, 9.998367, 9.99931 
2.8145546e+3, 3.1726655e+2, -242647.28, -19475.154, 44308.133, -0.13383907, 0.25923267, -11000.148, -11000.148, 0.0, 9.997917, 10.00087 
2.8258464e+3, 1.2735754e+2, -1423588.5, -1733230.0, 9415.516, 0.16433623, 0.32443267, -1423302.5, 268621.6, 0.000000966965, 10.002692, 9.998576 
2.8257778e+3, 1.3735506e+2, -1288822.6, -1622135.3, 21496.295, 0.20952587, 0.24510448, -1287442.0, 306505.28, 0.000000116965474, 10.002964, 9.998535 
2.8257093e+3, 1.4735347e+2, -1220146.4, -1529096.1, 70529.91, 0.17373593, 0.25409716, -1204806.8, 291156.3, 0.0000000014119189, 10.002729, 9.998611 
2.8256407e+3, 1.5735228e+2, -1185344.4, -1463973.8, 67521.39, 0.13530786, 0.29863918, -1169843.9, 228131.47, 0.0, 10.002306, 9.9985895 
2.8255734e+3, 1.6735058e+2, -1117222.4, -1369201.0, 93270.69, 0.121159226, 0.28863892, -1086454.9, 213536.45, 0.0, 10.002058, 9.998684 
2.825506e+3, 1.7734869e+2, -1043068.1, -1281146.4, 96885.266, 0.110909484, 0.25680375, -1008624.1, 193384.11, 0.0, 10.001887, 9.998698 
2.825439e+3, 1.8734725e+2, -972409.1, -1171704.0, 117557.59, 0.08399629, 0.25463232, -917948.1, 186074.58, 0.0, 10.001597, 9.998915 
2.825372e+3, 1.97346e+2, -921056.4, -1091688.8, 113505.59, 0.05107642, 0.26482084, -864378.3, 141657.4, 0.0, 10.001258, 9.998955 
2.8253046e+3, 2.0734496e+2, -841651.7, -967379.4, 104597.89, 0.01705064, 0.27202797, -782480.4, 125565.81, 0.0, 10.000978, 9.999269 
2.825237e+3, 2.1734406e+2, -782604.3, -892938.2, 104319.14, -0.017384982, 0.27909067, -719763.3, 90291.94, 0.0, 10.0007305, 9.999228 
2.8251696e+3, 2.273433e+2, -700632.4, -794692.8, 100296.75, -0.032121573, 0.30266437, -636886.75, 75177.57, 0.0, 10.0005865, 9.999298 
2.825102e+3, 2.3734266e+2, -616027.6, -698116.8, 103367.41, -0.035766397, 0.3317482, -545854.06, 68219.08, 0.0, 10.000473, 9.999343 
2.8250346e+3, 2.473419e+2, -538609.2, -568912.75, 89934.445, -0.042075105, 0.3267534, -462559.1, 53521.64, 0.0, 10.000154, 9.999711 
2.8249666e+3, 2.5734118e+2, -510152.94, -521092.47, 80840.28, -0.05607022, 0.30949706, -434597.56, -16510.166, 0.0, 9.999747, 9.999562 
2.8248984e+3, 2.6734054e+2, -446512.3, -470470.34, 50999.5, -0.06638557, 0.3337525, -406103.88, -86009.69, 0.0, 9.999643, 9.999288 
2.8248298e+3, 2.7733997e+2, -345445.56, -365396.22, 63520.523, -0.057454176, 0.3699498, -291121.88, -69020.8, 0.0, 9.99964, 9.999338 
2.824762e+3, 2.8733858e+2, -273152.34, -237155.56, 57469.96, -0.04828206, 0.3039717, -194931.55, -70818.734, 0.0, 9.999276, 9.9997225 
2.8246927e+3, 2.973371e+2, -258749.13, -198696.63, 42571.645, -0.08172789, 0.2113602, -176627.58, -150502.9, 0.0, 9.998784, 9.999552 
2.824624e+3, 3.07338e+2, -237810.7, -194329.81, -25997.34, 0.0019274631, 0.386106, -182180.61, -182180.61, 0.0, 9.998718, 9.99928 
2.824553e+3, 3.1733552e+2, -160589.77, -36628.195, 51331.297, -0.098915845, 0.23506421, -18132.154, -18132.154, 0.0, 9.998728, 10.00036 
2.8358492e+3, 1.2742639e+2, -1397208.5, -1688953.5, 20544.705, 0.19316551, 0.28831443, -1395768.9, 295481.06, 0.000000016734337, 10.002736, 9.998859 
2.83578e+3, 1.3742469e+2, -1275458.4, -1591714.5, 24513.975, 0.15134363, 0.2600808, -1273569.5, 319695.75, 0.00000000000042985277, 10.002951, 9.998751 
2.8357115e+3, 1.4742331e+2, -1225079.4, -1535804.3, 53514.164, 0.14316408, 0.2832934, -1216121.3, 279157.84, 0.0, 10.002712, 9.998574 
2.8356436e+3, 1.5742205e+2, -1184964.3, -1463224.8, 53967.715, 0.17684278, 0.32471114, -1174864.0, 222428.17, 0.0, 10.002305, 9.998595 
2.8355753e+3, 1.6742016e+2, -1109186.6, -1353456.1, 87219.26, 0.14072672, 0.28947803, -1081241.0, 218068.72, 0.0, 10.00206, 9.998792 
2.8355074e+3, 1.7741808e+2, -1035932.3, -1266591.5, 89172.055, 0.07204629, 0.22617598, -1005479.25, 195849.45, 0.0, 10.001887, 9.998798 
2.83544e+3, 1.8741696e+2, -968418.7, -1163744.1, 104756.555, 0.056730777, 0.24982923, -922861.5, 180478.66, 0.0, 10.001597, 9.99897 
2.835373e+3, 1.9741626e+2, -916569.9, -1082775.8, 101474.45, 0.06320896, 0.3069017, -868512.0, 136836.36, 0.0, 10.001258, 9.999017 
2.835305e+3, 2.0741516e+2, -838018.94, -960700.3, 95388.08, 0.031016715, 0.30166966, -785950.8, 121408.76, 0.0, 10.00098, 9.999314 
2.8352374e+3, 2.1741393e+2, -777718.0, -883822.25, 96625.07, -0.017255835, 0.27282268, -720538.8, 88832.805, 0.0, 10.000734, 9.999289 
2.83517e+3, 2.274132e+2, -693850.0, -781632.4, 96596.64, -0.032538816, 0.2915826, -631640.5, 79739.766, 0.0, 10.000589, 9.999387 
2.8351024e+3, 2.3741272e+2, -613379.75, -692785.5, 96640.04, -0.031356573, 0.3294016, -548604.8, 64782.438, 0.0, 10.000472, 9.999381 
2.8350344e+3, 2.4741207e+2, -548946.1, -590660.44, 74228.51, -0.042355753, 0.34002963, -492700.16, 22694.27, 0.0, 10.000154, 9.999563 
2.8349662e+3, 2.5741136e+2, -515936.9, -533661.3, 68848.13, -0.06583999, 0.3398907, -455382.94, -37981.574, 0.0, 9.999748, 9.999476 
2.8348976e+3, 2.674107e+2, -437328.56, -452652.56, 51915.895, -0.06667124, 0.3582303, -392512.3, -73104.3, 0.0, 9.999647, 9.99941 
2.8348297e+3, 2.774101e+2, -338694.38, -354485.13, 59600.84, -0.039173137, 0.38001934, -286468.25, -65053.71, 0.0, 9.999652, 9.999409 
2.8347608e+3, 2.8740865e+2, -283686.3, -260512.72, 37892.69, -0.049628865, 0.3133309, -232474.9, -109047.83, 0.0, 9.999281, 9.99956 
2.8346908e+3, 2.974071e+2, -268781.66, -217986.16, 28999.35, -0.12442726, 0.2280039, -204835.13, -179394.95, 0.0, 9.9987755, 9.999424 
2.834623e+3, 3.074082e+2, -235069.33, -190373.19, -21511.982, 0.030289477, 0.4293098, -181701.88, -181701.88, 0.0, 9.998723, 9.999307 
2.8345513e+3, 3.1740537e+2, -125290.54, 34661.023, 40805.887, -0.10640126, 0.23382302, 44469.684, 44469.684, 0.0, 9.998739, 10.000842 
2.8458515e+3, 1.274959e+2, -1387274.1, -1683343.0, 34591.613, 0.1818981, 0.29297188, -1383286.4, 307282.88, 0.0, 10.002802, 9.998866 
2.8457823e+3, 1.3749439e+2, -1351549.5, -1620696.9, 20847.734, 0.14179, 0.27928036, -1349944.1, 242639.47, 0.0, 10.002397, 9.998819 
2.8457135e+3, 1.4749306e+2, -1290394.3, -1543059.1, 52034.383, 0.13721775, 0.29292497, -1280097.8, 214498.63, 0.0, 10.002162, 9.998789 
2.8456452e+3, 1.5749182e+2, -1215935.9, -1458739.5, 68956.2, 0.17735946, 0.31561705, -1197719.0, 198889.44, 0.0, 10.00201, 9.998767 
2.845577e+3, 1.6749005e+2, -1134716.3, -1362748.4, 106016.72, 0.14013968, 0.28522742, -1093042.8, 205582.28, 0.0, 10.001875, 9.998816 
2.8455088e+3, 1.7748813e+2, -1052969.0, -1267874.9, 100839.266, 0.06628037, 0.23560345, -1013062.9, 187580.2, 0.0, 10.001744, 9.9988575 
2.845441e+3, 1.8748711e+2, -978800.4, -1154085.9, 112823.484, 0.050992303, 0.25812262, -923578.2, 179075.42, 0.0, 10.001465, 9.999099 
2.8453737e+3, 1.9748646e+2, -925413.7, -1073081.3, 115841.805, 0.060918674, 0.30856982, -861876.6, 142784.44, 0.0, 10.001139, 9.99914 
2.845306e+3, 2.0748544e+2, -831992.7, -948552.7, 117398.71, 0.03177192, 0.3032219, -759203.94, 147467.42, 0.0, 10.000984, 9.999395 
2.8452381e+3, 2.1748431e+2, -750072.44, -862450.5, 119985.61, -0.0140080415, 0.27685642, -673770.9, 134911.7, 0.0, 10.000892, 9.999358 
2.8451702e+3, 2.2748366e+2, -690409.5, -779053.1, 114038.7, -0.030486025, 0.29862034, -612382.44, 98308.36, 0.0, 10.000611, 9.999393 
2.8451025e+3, 2.374832e+2, -644707.1, -707803.3, 108817.49, -0.031684887, 0.33913463, -562956.8, 49740.73, 0.0, 10.000258, 9.99938 
2.8450343e+3, 2.474825e+2, -553942.3, -598181.5, 90335.45, -0.03909979, 0.34979132, -483057.78, 31647.229, 0.0, 10.000143, 9.999516 
2.8449658e+3, 2.5748175e+2, -466896.53, -514495.97, 92122.4, -0.056224458, 0.3496897, -395549.2, 21163.229, 0.0, 10.000107, 9.999434 
2.8448972e+3, 2.67481e+2, -406433.2, -440877.56, 71311.23, -0.06298505, 0.36116776, -350293.97, -31574.014, 0.0, 9.999874, 9.99938 
2.844829e+3, 2.7748024e+2, -352385.3, -363388.03, 66050.82, -0.045792766, 0.37250605, -291607.16, -70879.555, 0.0, 9.999569, 9.999387 
2.8447598e+3, 2.8747892e+2, -259338.14, -252228.92, 44210.863, -0.057288237, 0.31956545, -211430.0, -88690.72, 0.0, 9.999465, 9.999528 
2.8446898e+3, 2.9747757e+2, -176736.3, -176640.58, 45306.555, -0.1311694, 0.25853637, -131381.86, -106631.11, 0.0, 9.999424, 9.999394 
2.8446212e+3, 3.074783e+2, -195561.83, -176748.81, -3677.5103, 0.026089715, 0.42764613, -176055.48, -176055.48, 0.0, 9.999021, 9.999255 
2.8445497e+3, 3.1747565e+2, -134706.83, 56570.383, 49101.71, -0.111690186, 0.2526104, 68438.62, 68438.62, 0.0, 9.998564, 10.001076 
2.8558537e+3, 1.2756597e+2, -1403376.1, -1713462.9, 18468.586, 0.13808033, 0.3270383, -1402280.0, 287603.25, 0.0, 10.002787, 9.998667 
2.8557846e+3, 1.3756414e+2, -1353449.5, -1625848.1, 8840.656, 0.17175712, 0.301431, -1353162.9, 238738.97, 0.0, 10.0024, 9.998782 
2.8557155e+3, 1.4756279e+2, -1260210.1, -1483172.9, 46644.71, 0.15097553, 0.2875796, -1250845.3, 243068.94, 0.0, 10.0021715, 9.999196 
2.8556466e+3, 1.5756163e+2, -1194157.8, -1415599.5, 62725.48, 0.14398597, 0.27894783, -1177624.6, 218299.38, 0.0, 10.002019, 9.99906 
2.8555787e+3, 1.6756023e+2, -1138323.5, -1370686.0, 100713.95, 0.12259341, 0.27803913, -1100747.1, 197190.17, 0.0, 10.001876, 9.998761 
2.8555104e+3, 1.7755878e+2, -1052910.0, -1266141.9, 94197.23, 0.0872497, 0.27903926, -1017258.3, 182693.55, 0.0, 10.001736, 9.998874 
2.8554428e+3, 1.8755764e+2, -966772.9, -1127655.9, 100413.53, 0.06258895, 0.2766139, -918553.1, 183410.31, 0.0, 10.001457, 9.999285 
2.8553748e+3, 1.9755664e+2, -913929.44, -1048636.6, 105724.27, 0.0450523, 0.2744097, -855927.0, 148046.5, 0.0, 10.001135, 9.99931 
2.8553066e+3, 2.0755586e+2, -824904.25, -934193.25, 114090.33, 0.021148544, 0.28064016, -753047.25, 152934.16, 0.0, 10.000985, 9.999494 
2.855239e+3, 2.1755521e+2, -745838.06, -853544.7, 114040.44, -0.0070590596, 0.29090264, -673574.75, 134413.63, 0.0, 10.000891, 9.999421 
2.8551707e+3, 2.275546e+2, -695287.56, -789861.5, 100216.93, -0.026567088, 0.3222355, -631761.7, 78234.49, 0.0, 10.000613, 9.999319 
2.8551024e+3, 2.3755406e+2, -646691.9, -713387.94, 98480.836, -0.038805444, 0.35995525, -576066.0, 35938.137, 0.0, 10.000263, 9.99934 
2.8550342e+3, 2.4755324e+2, -550169.44, -591739.9, 89378.13, -0.03220769, 0.3561602, -479191.47, 34820.99, 0.0, 10.000147, 9.999558 
2.854966e+3, 2.5755233e+2, -467161.9, -516401.13, 88239.18, -0.02696119, 0.33849558, -400172.16, 15848.432, 0.0, 10.000112, 9.99942 
2.854897e+3, 2.675514e+2, -419730.13, -469225.0, 59376.742, -0.056294877, 0.3415741, -380150.0, -62119.867, 0.0, 9.999876, 9.999186 
2.854828e+3, 2.775504e+2, -361087.06, -381025.34, 56287.363, -0.07888788, 0.3476088, -313892.84, -93852.52, 0.0, 9.999565, 9.999268 
2.8547588e+3, 2.8754938e+2, -251900.72, -237354.98, 44053.637, -0.07045878, 0.32233617, -199977.9, -77928.484, 0.0, 9.999466, 9.999631 
2.854689e+3, 2.975485e+2, -169896.2, -166392.6, 39265.242, -0.10029985, 0.30002186, -128840.09, -104783.555, 0.0, 9.99944, 9.999457 
2.8546196e+3, 3.0754822e+2, -206752.86, -199204.38, -25410.15, -0.021538999, 0.37383446, -177289.7, -177289.7, 0.0, 9.999017, 9.999104 
2.8545484e+3, 3.175465e+2, -141922.19, 45644.44, 51918.406, -0.07443898, 0.30271474, 59056.42, 59056.42, 0.0, 9.998541, 10.001016 
2.865856e+3, 1.2763582e+2, -1463518.1, -1726687.9, 17762.428, 0.13525848, 0.32668847, -1462324.6, 226875.03, 0.0, 10.002306, 9.998808 
2.8657866e+3, 1.376343e+2, -1401407.3, -1633801.0, 29911.006, 0.17142235, 0.3184205, -1397619.3, 193596.17, 0.0, 10.0020075, 9.998916 
2.8657174e+3, 1.4763308e+2, -1292379.1, -1489354.9, 65904.19, 0.1401957, 0.30492088, -1272362.9, 220863.83, 0.0, 10.001913, 9.999276 
2.8656483e+3, 1.5763193e+2, -1205627.3, -1409082.5, 61255.945, 0.11859607, 0.2895524, -1188608.0, 206628.3, 0.0, 10.00189, 9.999166 
2.8655797e+3, 1.6763066e+2, -1160300.5, -1363820.5, 98795.87, 0.10291575, 0.28751415, -1120230.6, 177017.8, 0.0, 10.001652, 9.998916 
2.8655118e+3, 1.7762937e+2, -1099463.9, -1271480.4, 104600.39, 0.08192255, 0.29087585, -1050051.9, 149209.31, 0.0, 10.001344, 9.999025 
2.8654435e+3, 1.8762837e+2, -1003204.06, -1130719.0, 111043.555, 0.060426995, 0.28987303, -938915.94, 162355.39, 0.0, 10.001146, 9.999413 
2.8653756e+3, 1.976275e+2, -926524.56, -1041368.6, 113918.6, 0.04071294, 0.28731057, -856374.1, 146906.11, 0.0, 10.000994, 9.999426 
2.8653073e+3, 2.076268e+2, -839592.56, -935163.7, 122265.734, 0.019057957, 0.2923466, -756106.0, 149181.56, 0.0, 10.00086, 9.999546 
2.8652394e+3, 2.1762617e+2, -764330.6, -856043.3, 118524.9, -0.0042170295, 0.30230513, -683100.56, 124193.57, 0.0, 10.000737, 9.999476 
2.865171e+3, 2.2762565e+2, -680357.3, -777330.6, 107582.03, -0.023966307, 0.3362939, -610840.4, 98460.79, 0.0, 10.000694, 9.999365 
2.8651026e+3, 2.3762518e+2, -585377.75, -680299.5, 114121.83, -0.03819716, 0.37712577, -509241.2, 102067.195, 0.0, 10.000672, 9.999369 
2.8650343e+3, 2.4762426e+2, -513234.44, -580921.7, 101276.7, -0.030926436, 0.36809403, -440296.22, 73021.09, 0.0, 10.000433, 9.999494 
2.8649658e+3, 2.5762323e+2, -471514.28, -522014.6, 93140.35, -0.024314055, 0.34138808, -400262.13, 15064.576, 0.0, 10.000098, 9.999388 
2.8648967e+3, 2.676222e+2, -392491.25, -448991.44, 77076.6, -0.05719667, 0.3345925, -338650.72, -21314.117, 0.0, 10.000034, 9.999248 
2.8648275e+3, 2.7762118e+2, -293874.3, -347478.1, 89497.94, -0.08403299, 0.334272, -227251.25, -7904.7305, 0.0, 10.000026, 9.999275 
2.864758e+3, 2.8762034e+2, -241318.11, -253460.22, 65197.79, -0.0726033, 0.33866507, -181909.33, -60554.84, 0.0, 9.999634, 9.999438 
2.8646883e+3, 2.9761964e+2, -213897.11, -197660.33, 39788.258, -0.09702565, 0.3499006, -165170.67, -141809.64, 0.0, 9.999184, 9.999366 
2.8646183e+3, 3.076183e+2, -131029.5, -147286.95, -7859.147, -0.037674814, 0.3119038, -127851.484, -127851.484, 0.0, 9.999475, 9.999238 
2.8645477e+3, 3.176177e+2, 982.384, 50534.234, 57925.76, -0.05716724, 0.3535902, 88760.22, 88760.22, 0.0, 9.9998, 10.000442 
2.8758585e+3, 1.2770563e+2, -1436748.4, -1670100.0, 5948.0176, 0.16216946, 0.30239603, -1436596.9, 251920.36, 0.0, 10.002301, 9.999199 
2.8757882e+3, 1.3770486e+2, -1382651.6, -1597080.9, 20389.543, 0.14509618, 0.33201262, -1380730.1, 209794.77, 0.0, 10.002016, 9.999165 
2.8757185e+3, 1.4770381e+2, -1303838.6, -1514560.9, 64680.637, 0.10907531, 0.33982944, -1285569.0, 206965.84, 0.0, 10.001918, 9.999102 
2.8756496e+3, 1.5770265e+2, -1209102.6, -1415421.9, 58033.984, 0.099312894, 0.3376989, -1193899.0, 200646.69, 0.0, 10.001885, 9.999125 
2.875581e+3, 1.677013e+2, -1138851.0, -1318668.4, 87265.59, 0.08149829, 0.30971456, -1103464.6, 193093.5, 0.0, 10.001648, 9.9992285 
2.8755128e+3, 1.7769995e+2, -1081794.3, -1234778.9, 94439.92, 0.054757755, 0.27587846, -1036754.8, 161815.8, 0.0, 10.001343, 9.999279 
2.8754443e+3, 1.8769935e+2, -997578.6, -1119969.8, 105021.88, 0.046863537, 0.29952377, -937223.8, 163353.36, 0.0, 10.00115, 9.999485 
2.8753763e+3, 1.97699e+2, -921629.0, -1032350.7, 108174.055, 0.046431422, 0.34182173, -855472.56, 147109.05, 0.0, 10.000998, 9.999487 
2.875308e+3, 2.0769818e+2, -838724.8, -934024.94, 117419.78, 0.023877239, 0.33398727, -759655.0, 144935.1, 0.0, 10.000862, 9.999554 
2.8752398e+3, 2.1769725e+2, -761045.56, -848952.25, 114971.016, -0.0072392425, 0.3105289, -681912.6, 124687.13, 0.0, 10.000735, 9.999527 
2.8751716e+3, 2.2769682e+2, -669847.56, -755596.8, 107199.53, -0.02247073, 0.34157625, -597266.7, 111338.97, 0.0, 10.000694, 9.999515 
2.8751034e+3, 2.3769656e+2, -579727.56, -668553.3, 110837.625, -0.029202405, 0.39101836, -504735.75, 105874.49, 0.0, 10.000671, 9.999451 
2.8750345e+3, 2.4769562e+2, -525645.6, -607007.06, 88155.05, -0.03604852, 0.38542637, -469237.56, 43382.06, 0.0, 10.000433, 9.999315 
2.8749657e+3, 2.576944e+2, -474583.8, -529170.7, 83962.65, -0.050376773, 0.3584154, -413589.88, 1040.9482, 0.0, 10.0001, 9.999338 
2.8748965e+3, 2.6769346e+2, -369130.56, -401815.38, 78202.74, -0.06516733, 0.34092423, -305580.9, 11058.3125, 0.0, 10.000038, 9.99957 
2.8748274e+3, 2.7769265e+2, -284054.8, -330128.88, 83436.78, -0.060931336, 0.33213055, -220533.17, -1887.1718, 0.0, 10.000037, 9.99939 
2.8747576e+3, 2.8769186e+2, -277970.47, -329672.3, 46369.25, -0.06590666, 0.37013376, -250733.0, -130078.7, 0.0, 9.999634, 9.998915 
2.874687e+3, 2.97691e+2, -234503.64, -236459.48, 30305.947, -0.12481791, 0.41291672, -205159.84, -182495.8, 0.0, 9.9991665, 9.999107 
2.874618e+3, 3.076885e+2, -99572.64, -82249.43, 16679.48, -0.013305338, 0.24452074, -72116.664, -72116.664, 0.0, 9.999477, 9.999682 
2.8745466e+3, 3.176894e+2, -85893.36, -134571.08, -6474.226, -0.102918625, 0.40765896, -85046.99, -85046.99, 0.0, 9.999818, 9.999162 
2.8858602e+3, 1.2777625e+2, -1499229.5, -1686347.4, 13259.306, 0.17866138, 0.3428006, -1498294.6, 189532.9, 0.0, 10.001812, 9.999323 
2.8857896e+3, 1.377754e+2, -1410015.0, -1598016.6, 13221.024, 0.118595146, 0.3520538, -1409089.8, 180745.66, 0.0, 10.001776, 9.999273 
2.8857198e+3, 1.4777438e+2, -1340063.0, -1528448.9, 63631.84, 0.086562864, 0.3563667, -1320584.0, 171261.2, 0.0, 10.001656, 9.999132 
2.885651e+3, 1.5777329e+2, -1257269.3, -1428049.0, 67368.48, 0.09625355, 0.35735172, -1233893.6, 159962.03, 0.0, 10.00151, 9.999219 
2.8855821e+3, 1.6777219e+2, -1164857.0, -1302790.8, 92926.03, 0.07678863, 0.3333246, -1118101.5, 177764.16, 0.0, 10.001347, 9.999482 
2.8855133e+3, 1.777711e+2, -1092732.8, -1218294.0, 97659.51, 0.041175477, 0.30263135, -1039415.2, 158460.02, 0.0, 10.001175, 9.999472 
2.885445e+3, 1.8777055e+2, -1011741.56, -1124519.1, 107207.97, 0.034249086, 0.32346666, -946997.2, 152884.16, 0.0, 10.001044, 9.999504 
2.8853768e+3, 1.9777018e+2, -927887.2, -1028929.4, 106717.03, 0.03930131, 0.3619263, -860336.7, 141549.47, 0.0, 10.000927, 9.999544 
2.8853086e+3, 2.0776954e+2, -844249.4, -919157.5, 121081.56, 0.024271099, 0.35908598, -754961.4, 148931.61, 0.0, 10.00075, 9.99971 
2.8852403e+3, 2.1776882e+2, -778755.7, -842852.9, 129451.164, 0.0007032227, 0.34259626, -677444.94, 128455.47, 0.0, 10.000552, 9.999657 
2.8851718e+3, 2.277684e+2, -703391.4, -764670.1, 122431.97, -0.0154593885, 0.3657237, -607823.2, 100082.86, 0.0, 10.000435, 9.999577 
2.8851035e+3, 2.3776807e+2, -620591.6, -678593.25, 119954.375, -0.025809184, 0.4021943, -526182.1, 83728.84, 0.0, 10.000351, 9.999535 
2.8850347e+3, 2.4776721e+2, -522766.44, -592725.7, 108920.086, -0.036271024, 0.39535898, -443346.94, 68572.25, 0.0, 10.000401, 9.999428 
2.8849655e+3, 2.5776616e+2, -409522.2, -485136.1, 125196.19, -0.05339149, 0.37306276, -316548.97, 97379.695, 0.0, 10.000497, 9.999447 
2.884896e+3, 2.6776528e+2, -347430.6, -389340.4, 103483.234, -0.06381072, 0.35938436, -262801.94, 53134.45, 0.0, 10.000182, 9.999584 
2.884827e+3, 2.777645e+2, -340509.44, -352844.22, 84072.88, -0.05308296, 0.3511011, -262378.03, -44434.637, 0.0, 9.999633, 9.999427 
2.884757e+3, 2.877637e+2, -278073.53, -338835.5, 80818.75, -0.07537127, 0.39057273, -222114.06, -102162.59, 0.0, 9.999678, 9.998828 
2.884686e+3, 2.9776278e+2, -95916.164, -173377.83, 99227.016, -0.15621537, 0.43831885, -28129.021, -6167.8257, 0.0, 10.000141, 9.999068 
2.884618e+3, 3.077598e+2, -7860.5127, -45677.094, 72011.12, 0.025843246, 0.22205177, 47683.36, 47683.36, 0.0, 10.000143, 9.999615 
2.8845462e+3, 3.1776106e+2, -90861.85, -131718.2, -34042.715, -0.107202806, 0.43244264, -71588.44, -71588.44, 0.0, 9.999759, 9.999214 
2.8958622e+3, 1.2784751e+2, -1504948.6, -1697338.8, 11815.659, 0.18699871, 0.42852843, -1504225.8, 182906.67, 0.0, 10.001809, 9.9992485 
2.8957906e+3, 1.3784598e+2, -1409823.1, -1597503.6, 12374.133, 0.09144572, 0.37650418, -1409010.8, 180135.8, 0.0, 10.001775, 9.999277 
2.8957212e+3, 1.4784487e+2, -1328224.8, -1503032.0, 59318.06, 0.07062136, 0.3591574, -1309996.9, 181159.95, 0.0, 10.00165, 9.99931 
2.8956527e+3, 1.5784389e+2, -1245611.3, -1401130.8, 62885.53, 0.10611414, 0.35478008, -1223365.1, 169800.5, 0.0, 10.001497, 9.99941 
2.8955835e+3, 1.6784327e+2, -1151833.5, -1273413.3, 86842.74, 0.08493773, 0.35835934, -1106618.3, 188552.75, 0.0, 10.001336, 9.999689 
2.8955144e+3, 1.7784274e+2, -1084006.4, -1198718.6, 91649.67, 0.037716143, 0.36406228, -1033245.06, 163930.31, 0.0, 10.001167, 9.99961 
2.8954458e+3, 1.8784195e+2, -1014303.7, -1129442.8, 103134.44, 0.02174158, 0.3588205, -953759.06, 145424.83, 0.0, 10.00104, 9.999473 
2.8953776e+3, 1.9784112e+2, -924219.0, -1020987.75, 102291.48, 0.019922234, 0.3516743, -859446.0, 141747.3, 0.0, 10.000925, 9.9996 
2.895309e+3, 2.0784089e+2, -824222.7, -877855.8, 113668.65, 0.02103804, 0.3699963, -734250.2, 168945.75, 0.0, 10.00075, 9.999994 
2.8952408e+3, 2.1784087e+2, -765098.5, -814999.2, 122814.78, 0.019630918, 0.39662513, -664725.3, 140471.0, 0.0, 10.000553, 9.999847 
2.8951722e+3, 2.2784038e+2, -704708.94, -768096.94, 118822.11, -0.0038966828, 0.40726617, -613426.5, 93776.03, 0.0, 10.000437, 9.999553 
2.8951034e+3, 2.3783971e+2, -614028.25, -665369.3, 118093.4, -0.03027407, 0.41049588, -518847.53, 90363.14, 0.0, 10.000352, 9.999626 
2.8950348e+3, 2.4783908e+2, -494867.2, -535196.06, 112908.85, -0.031466417, 0.39821595, -400336.3, 110879.664, 0.0, 10.0004015, 9.999823 
2.894966e+3, 2.578385e+2, -391628.53, -449185.25, 125277.74, -0.03327353, 0.38513815, -291866.2, 121353.94, 0.0, 10.000502, 9.999692 
2.8948963e+3, 2.6783773e+2, -369344.44, -436170.9, 82397.6, -0.053989906, 0.3909438, -313843.06, 1385.1405, 0.0, 10.000186, 9.999262 
2.8948265e+3, 2.7783677e+2, -343020.97, -357789.7, 65256.4, -0.06149806, 0.39267218, -284732.44, -67493.62, 0.0, 9.999629, 9.999395 
2.8947562e+3, 2.878359e+2, -251307.39, -280945.53, 100752.37, -0.10096541, 0.39628893, -164290.11, -45044.02, 0.0, 9.999671, 9.999228 
2.8946856e+3, 2.9783505e+2, -80794.22, -143673.98, 114962.42, -0.19564398, 0.41399986, 6949.895, 28202.365, 0.0, 10.000151, 9.999267 
2.8946185e+3, 3.0783218e+2, -52408.4, -137736.13, 63236.47, 0.07994542, 0.23701566, -18789.523, -18789.523, 0.0, 10.000143, 9.998981 
2.894546e+3, 3.1783244e+2, 26688.469, 124262.18, -65432.703, -0.055671815, 0.38455006, 157093.92, 157093.92, 0.0, 9.999711, 10.000996 
2.9058632e+3, 1.2791795e+2, -1555643.8, -1698096.1, 12768.823, 0.18099657, 0.43230948, -1554508.3, 131935.9, 0.0, 10.001358, 9.999461 
2.9057923e+3, 1.3791691e+2, -1444118.5, -1591932.8, 28050.12, 0.086382374, 0.40790555, -1438974.6, 149478.69, 0.0, 10.001444, 9.9994755 
2.9057223e+3, 1.4791588e+2, -1369113.4, -1506020.4, 71480.3, 0.059837613, 0.38405526, -1338595.6, 151866.73, 0.0, 10.001297, 9.999459 
2.9056534e+3, 1.5791489e+2, -1299997.4, -1413604.0, 74042.734, 0.08818345, 0.36235607, -1263479.0, 128992.414, 0.0, 10.001063, 9.999534 
2.9055843e+3, 1.6791436e+2, -1207905.4, -1294449.8, 91400.266, 0.07359306, 0.3706652, -1150051.5, 144424.42, 0.0, 10.000925, 9.999743 
2.905515e+3, 1.7791404e+2, -1128270.9, -1210074.9, 88116.64, 0.03693677, 0.38833615, -1072026.0, 124452.91, 0.0, 10.000819, 9.999701 
2.9054466e+3, 1.8791336e+2, -1040234.8, -1121252.3, 109491.51, 0.018795596, 0.37978873, -963998.75, 134487.23, 0.0, 10.000772, 9.999659 
2.905378e+3, 1.9791262e+2, -942599.2, -1015338.3, 121072.73, 0.010956169, 0.36384338, -852551.4, 147942.7, 0.0, 10.000735, 9.999731 
2.9053095e+3, 2.0791246e+2, -843157.94, -886259.2, 118937.77, 0.014486394, 0.3859762, -743834.1, 158662.02, 0.0, 10.000615, 10.000001 
2.9052413e+3, 2.1791255e+2, -773519.1, -812501.8, 111216.18, 0.018285094, 0.42115268, -680099.2, 124396.805, 0.0, 10.000466, 9.999907 
2.9051724e+3, 2.2791216e+2, -704667.7, -744565.0, 116211.37, -0.0045194207, 0.42755353, -606705.25, 99795.484, 0.0, 10.000336, 9.9997635 
2.9051036e+3, 2.3791161e+2, -621509.4, -647131.44, 131411.63, -0.030715188, 0.42172694, -502285.8, 106221.164, 0.0, 10.000207, 9.999821 
2.905035e+3, 2.4791111e+2, -535185.06, -526945.44, 121854.516, -0.03169884, 0.40176556, -409141.1, 101369.64, 0.0, 10.000007, 10.00007 
2.904966e+3, 2.5791073e+2, -484170.4, -466917.38, 123028.1, -0.03458997, 0.38325262, -352213.72, 60299.33, 0.0, 9.999752, 9.99993 
2.904896e+3, 2.679104e+2, -419433.2, -432821.8, 100602.555, -0.05344863, 0.41063377, -325302.47, -10785.157, 0.0, 9.999726, 9.999504 
2.9048258e+3, 2.7790993e+2, -285965.38, -296451.75, 127228.66, -0.055004697, 0.43972483, -163871.92, 52651.637, 0.0, 9.999884, 9.99969 
2.904755e+3, 2.8790903e+2, -309658.8, -218941.47, 151531.11, -0.12464938, 0.38313034, -106125.91, 12404.205, 0.0, 9.998892, 10.000022 
2.9158643e+3, 1.2798782e+2, -1524592.4, -1635704.1, 18780.453, 0.16401184, 0.3797938, -1521503.9, 164256.7, 0.0, 10.001368, 9.999884 
2.9157934e+3, 1.3798808e+2, -1423065.1, -1543995.3, 29668.582, 0.097611174, 0.44571295, -1416178.5, 171578.03, 0.0, 10.001426, 9.999813 
2.915723e+3, 1.479873e+2, -1361092.5, -1487746.4, 62598.6, 0.052241106, 0.4252525, -1335375.1, 154388.2, 0.0, 10.001289, 9.999589 
2.915654e+3, 1.5798618e+2, -1293654.5, -1402991.8, 66647.66, 0.04774283, 0.3775854, -1262122.4, 129651.484, 0.0, 10.001074, 9.999601 
2.9155847e+3, 1.679855e+2, -1211376.6, -1304491.4, 87601.77, 0.046998058, 0.37280107, -1158728.9, 135051.4, 0.0, 10.000936, 9.999669 
2.915516e+3, 1.7798503e+2, -1123907.0, -1201791.8, 86056.15, 0.03841403, 0.38233608, -1068392.1, 127392.78, 0.0, 10.000822, 9.999757 
2.915447e+3, 1.8798476e+2, -1014362.56, -1067507.1, 108399.79, 0.023904944, 0.3890082, -929325.75, 168461.75, 0.0, 10.0007715, 10.000029 
2.9153785e+3, 1.9798459e+2, -930158.9, -988842.1, 118005.48, 0.011228977, 0.39557835, -837901.94, 161887.3, 0.0, 10.000731, 9.999915 
2.9153097e+3, 2.0798424e+2, -860280.06, -921324.06, 112815.89, 0.0042998744, 0.4064923, -773930.25, 127863.72, 0.0, 10.000612, 9.999763 
2.915241e+3, 2.1798389e+2, -777569.94, -820385.06, 106020.14, -0.0036750732, 0.41896474, -690817.7, 112981.5, 0.0, 10.0004635, 9.999855 
2.9151723e+3, 2.2798377e+2, -674422.2, -681970.44, 111399.586, -0.016425176, 0.428361, -566732.8, 139067.47, 0.0, 10.000336, 10.000194 
2.9151034e+3, 2.3798376e+2, -601117.94, -605655.44, 125835.445, -0.02633863, 0.43528107, -477530.78, 130269.21, 0.0, 10.00021, 10.000105 
2.9150346e+3, 2.4798332e+2, -528360.7, -513229.78, 112293.49, -0.037473973, 0.40563896, -408247.2, 101556.43, 0.0, 10.000008, 10.000164 
2.9149652e+3, 2.5798285e+2, -467660.47, -432915.78, 114503.875, -0.059972584, 0.3672637, -334473.88, 77333.625, 0.0, 9.999752, 10.000164 
2.9148954e+3, 2.6798332e+2, -363433.2, -315877.66, 103720.984, -0.06322147, 0.41801363, -233243.84, 80559.88, 0.0, 9.999723, 10.000309 
2.9148257e+3, 2.779841e+2, -244375.77, -212290.9, 135972.92, -0.036818653, 0.49207184, -91417.32, 124380.016, 0.0, 9.999892, 10.000265 
2.9147536e+3, 2.8798306e+2, -229358.13, -63732.113, 65210.14, -0.14549778, 0.3512783, -41139.445, 76664.445, 0.0, 9.99893, 10.001078 
2.9258648e+3, 1.2805867e+2, -1550729.8, -1639473.1, 40045.684, 0.13045546, 0.37949756, -1535331.0, 149735.48, 0.0, 10.001149, 9.999964 
2.9257944e+3, 1.3805896e+2, -1493464.4, -1569705.0, 32579.574, 0.10018622, 0.43989035, -1481439.0, 105623.24, 0.0, 10.000905, 9.999888 
2.925724e+3, 1.4805835e+2, -1409631.3, -1505630.4, 57729.52, 0.051752698, 0.4305773, -1382553.1, 106514.86, 0.0, 10.000931, 9.9996395 
2.9256546e+3, 1.5805744e+2, -1297418.8, -1397198.3, 57076.23, 0.03275871, 0.3991409, -1271501.6, 119575.55, 0.0, 10.001013, 9.999672 
2.9255852e+3, 1.6805686e+2, -1209113.8, -1289930.4, 82741.46, 0.033000395, 0.39297146, -1157440.6, 135642.0, 0.0, 10.000891, 9.999792 
2.925516e+3, 1.7805645e+2, -1136936.3, -1197790.8, 93928.664, 0.031608727, 0.395986, -1068629.5, 126457.21, 0.0, 10.000685, 9.999851 
2.9254475e+3, 1.8805622e+2, -1041449.1, -1075933.3, 105321.48, 0.019799298, 0.40185308, -951967.7, 145120.94, 0.0, 10.000563, 10.0000725 
2.9253787e+3, 1.9805609e+2, -965668.0, -1001318.75, 94552.84, 0.0070353323, 0.4091306, -887274.94, 111814.77, 0.0, 10.000465, 9.999959 
2.9253098e+3, 2.0805578e+2, -896300.5, -932996.3, 96784.0, -0.0015287723, 0.4191245, -816140.6, 84953.62, 0.0, 10.000339, 9.999816 
2.9252413e+3, 2.1805549e+2, -809539.8, -826754.56, 109958.9, -0.010498713, 0.42983192, -707851.94, 95247.25, 0.0, 10.000202, 9.999938 
2.9251724e+3, 2.2805545e+2, -687120.7, -666303.9, 109319.97, -0.021624768, 0.43331453, -566897.94, 138201.08, 0.0, 10.000152, 10.000391 
2.9251036e+3, 2.3805556e+2, -601939.06, -587830.44, 106951.414, -0.02958161, 0.43307275, -487700.94, 119396.06, 0.0, 10.000122, 10.000272 
2.9250342e+3, 2.4805535e+2, -528407.6, -493750.16, 89343.87, -0.036297042, 0.41139412, -420070.06, 89028.414, 0.0, 9.999919, 10.000342 
2.9249647e+3, 2.580552e+2, -473478.13, -413278.0, 97285.48, -0.053046327, 0.38746879, -341542.5, 69557.09, 0.0, 9.99961, 10.00037 
2.9248944e+3, 2.6805598e+2, -376559.34, -275263.4, 76180.74, -0.0758584, 0.4323999, -234430.64, 78662.44, 0.0, 9.999426, 10.000734 
2.9248247e+3, 2.7805695e+2, -296887.0, -194065.48, 85403.27, -0.07406571, 0.48453215, -145792.81, 69291.47, 0.0, 9.999335, 10.000665 
2.9247528e+3, 2.8805628e+2, -85337.086, 45364.86, -42858.117, -0.11956539, 0.33539942, 58164.816, 175251.5, 0.0, 9.999728, 10.001456 
2.9358652e+3, 1.2813017e+2, -1563620.4, -1663945.6, 28115.707, 0.08511642, 0.41334376, -1556278.4, 128086.84, 0.0, 10.001142, 9.999799 
2.935795e+3, 1.3812956e+2, -1501124.4, -1586337.3, 27940.53, 0.09646022, 0.40015557, -1492780.0, 93590.34, 0.0, 10.000909, 9.999772 
2.935725e+3, 1.4812909e+2, -1410915.3, -1507617.8, 61504.76, 0.05625969, 0.40904936, -1381031.8, 107343.984, 0.0, 10.000927, 9.999628 
2.9356554e+3, 1.5812866e+2, -1294983.1, -1387395.0, 57923.7, 0.03653158, 0.42596674, -1267093.5, 123287.69, 0.0, 10.000993, 9.999749 
2.935586e+3, 1.6812837e+2, -1191372.4, -1249915.9, 74427.94, 0.02781443, 0.42700645, -1140666.9, 151716.83, 0.0, 10.000876, 10.000074 
2.9355165e+3, 1.7812815e+2, -1129009.8, -1180643.4, 86423.805, 0.017432943, 0.42560384, -1064629.0, 129755.98, 0.0, 10.000681, 9.999971 
2.9354474e+3, 1.881277e+2, -1057132.8, -1109340.0, 101103.23, 0.0075307013, 0.41784886, -978817.7, 117571.95, 0.0, 10.000566, 9.999843 
2.9353788e+3, 1.9812718e+2, -969738.5, -1010698.5, 90952.44, -0.0023037058, 0.40650383, -896988.8, 101406.18, 0.0, 10.000468, 9.999893 
2.93531e+3, 2.0812714e+2, -874016.25, -887066.2, 91425.45, -0.0034843057, 0.4243768, -788883.2, 111513.41, 0.0, 10.000339, 10.000132 
2.9352412e+3, 2.181273e+2, -795719.94, -797977.4, 106134.04, -0.0025961893, 0.45189562, -690708.56, 111687.81, 0.0, 10.000201, 10.000136 
2.935172e+3, 2.2812718e+2, -688363.44, -669083.1, 108052.08, -0.020954277, 0.44235224, -570242.0, 134155.02, 0.0, 10.000152, 10.000373 
2.9351032e+3, 2.3812704e+2, -597792.4, -579590.5, 103592.62, -0.04206094, 0.41744903, -484699.84, 121697.88, 0.0, 10.000122, 10.000328 
2.935034e+3, 2.4812727e+2, -509517.28, -455310.2, 78881.12, -0.02857028, 0.42014793, -399006.1, 109389.05, 0.0, 9.999921, 10.000607 
2.9349643e+3, 2.5812784e+2, -459916.7, -387091.84, 86686.234, -0.014739374, 0.44415793, -329481.03, 80908.3, 0.0, 9.999618, 10.000546 
2.9348937e+3, 2.6812834e+2, -371968.06, -267838.28, 70072.29, -0.09223396, 0.45345217, -232605.53, 79779.89, 0.0, 9.999433, 10.000783 
2.9348227e+3, 2.7812842e+2, -276592.7, -157524.31, 81521.09, -0.17761312, 0.41187042, -116112.93, 98272.24, 0.0, 9.999356, 10.000906 
2.9347527e+3, 2.8812906e+2, -79826.9, 59701.125, -12595.828, -0.048497632, 0.3766604, 60829.09, 177203.2, 0.0, 9.999722, 10.001554 
2.9458657e+3, 1.2820101e+2, -1599902.4, -1672495.1, -3622.5625, 0.06450136, 0.41974708, -1599722.0, 83949.55, 0.0, 10.000852, 9.999882 
2.9457954e+3, 1.3820057e+2, -1517653.3, -1587398.9, 14249.829, 0.0835203, 0.4137708, -1514854.1, 70820.96, 0.0, 10.000764, 9.999836 
2.9457253e+3, 1.4820014e+2, -1450600.0, -1527552.3, 52509.867, 0.049906097, 0.42491964, -1423978.5, 63701.883, 0.0, 10.000655, 9.999623 
2.945656e+3, 1.5819967e+2, -1365564.5, -1421025.3, 48290.418, 0.03506793, 0.44038773, -1337608.9, 52077.742, 0.0, 10.000504, 9.999756 
2.9455864e+3, 1.6819952e+2, -1242633.6, -1266892.3, 53127.938, 0.03101923, 0.4504573, -1200268.0, 91419.945, 0.0, 10.000487, 10.000147 
2.9455167e+3, 1.7819948e+2, -1153983.8, -1184838.4, 53646.914, 0.021667043, 0.45772707, -1113590.0, 80097.79, 0.0, 10.000473, 10.000044 
2.945448e+3, 1.8819901e+2, -1068339.1, -1106279.8, 81810.07, 0.0065980772, 0.44294098, -1003328.75, 92363.41, 0.0, 10.000448, 9.999922 
2.945379e+3, 1.981985e+2, -970163.5, -1001845.25, 90269.91, -0.0068117785, 0.42191708, -894355.06, 103342.4, 0.0, 10.000422, 9.99998 
2.9453102e+3, 2.0819853e+2, -875632.25, -878753.3, 80857.78, -0.0059834765, 0.43942004, -796319.94, 103378.33, 0.0, 10.000283, 10.000217 
2.9452413e+3, 2.1819882e+2, -801410.2, -794146.9, 82658.66, -0.0027443308, 0.47220975, -715040.1, 86656.64, 0.0, 10.000129, 10.0002 
2.9451722e+3, 2.2819881e+2, -698311.0, -669242.44, 86765.85, -0.023596585, 0.46515232, -595801.94, 107894.8, 0.0, 10.000058, 10.00042 
2.945103e+3, 2.3819865e+2, -613739.25, -581564.5, 84891.58, -0.048842557, 0.43556833, -511249.4, 94448.17, 0.0, 9.999983, 10.000384 
2.9450336e+3, 2.4819893e+2, -503333.53, -443234.3, 49417.535, -0.029570457, 0.43493193, -415447.3, 92247.336, 0.0, 9.999918, 10.000694 
2.9449642e+3, 2.5819972e+2, -415653.75, -352996.38, 45087.613, -0.004271096, 0.46823812, -329421.7, 80265.234, 0.0, 9.99986, 10.000669 
2.944893e+3, 2.682003e+2, -328045.84, -238536.2, 33027.582, -0.084279284, 0.47780353, -227668.95, 84012.6, 0.0, 9.999689, 10.000866 
2.9448217e+3, 2.782e+2, -255508.58, -158287.3, 46035.02, -0.18886665, 0.39722154, -139948.58, 73736.17, 0.0, 9.999536, 10.00082 
2.9447526e+3, 2.882014e+2, -15510.297, 83755.36, -45886.754, -0.04328897, 0.45712426, 101717.0, 217384.66, 0.0, 10.000188, 10.001495 
2.9558665e+3, 1.282714e+2, -1583020.6, -1634573.4, -5781.9907, 0.05889421, 0.41438657, -1582380.1, 100602.83, 0.0, 10.00084, 10.000147 
2.9557958e+3, 1.3827185e+2, -1506713.8, -1561061.9, 11402.084, 0.062844075, 0.4719468, -1504418.6, 80558.76, 0.0, 10.00075, 10.000023 
2.9557255e+3, 1.4827137e+2, -1452006.1, -1528069.0, 46049.75, 0.036444977, 0.47070903, -1430313.4, 56669.69, 0.0, 10.000645, 9.999625 
2.955656e+3, 1.582705e+2, -1370117.5, -1428519.5, 45279.758, 0.031761073, 0.44596255, -1345439.5, 43553.797, 0.0, 10.000495, 9.999708 
2.9555866e+3, 1.6827036e+2, -1248644.6, -1279541.6, 54583.836, 0.042445153, 0.46598646, -1207365.3, 83629.69, 0.0, 10.000488, 10.00006 
2.9555175e+3, 1.7827044e+2, -1150323.1, -1178151.4, 54040.035, 0.041398987, 0.49148735, -1108434.6, 84559.76, 0.0, 10.000477, 10.000089 
2.9554483e+3, 1.8827021e+2, -1044530.94, -1056698.4, 81221.09, 0.015492341, 0.4756647, -969166.06, 125830.07, 0.0, 10.000447, 10.000263 
2.9553792e+3, 1.9827002e+2, -956042.44, -971283.94, 87244.17, -0.006327075, 0.45458812, -876086.8, 120910.7, 0.0, 10.000416, 10.000193 
2.95531e+3, 2.0826997e+2, -884344.2, -896546.6, 73573.33, -0.009350407, 0.46492276, -816619.56, 82379.78, 0.0, 10.000281, 10.000096 
2.955241e+3, 2.1827008e+2, -805297.94, -802568.56, 78658.74, -0.012192477, 0.4917998, -725262.7, 75737.38, 0.0, 10.00013, 10.000142 
2.9551718e+3, 2.2827028e+2, -690550.5, -653039.6, 84368.3, -0.029700888, 0.5008832, -585367.25, 117630.97, 0.0, 10.000056, 10.000532 
2.955103e+3, 2.3827037e+2, -609395.44, -572379.5, 81654.24, -0.049784794, 0.48473305, -507161.97, 97834.93, 0.0, 9.999981, 10.000449 
2.9550332e+3, 2.4827033e+2, -507872.66, -453164.47, 47325.316, -0.039979275, 0.45434234, -425856.56, 81140.484, 0.0, 9.999919, 10.000626 
2.9549634e+3, 2.582708e+2, -408505.2, -340079.4, 40986.406, -0.023737794, 0.46092597, -320903.1, 88089.02, 0.0, 9.9998665, 10.000754 
2.9548928e+3, 2.6827195e+2, -317296.9, -217553.81, 28181.186, -0.05093833, 0.50793314, -210142.28, 100838.69, 0.0, 9.999695, 10.001008 
2.954822e+3, 2.782718e+2, -285781.2, -221042.36, 46152.742, -0.10465098, 0.44445217, -197039.31, 15942.995, 0.0, 9.9995365, 10.000389 
2.9547516e+3, 2.8827214e+2, -49220.016, 16028.4375, -8454.431, -0.1407938, 0.47502726, 17106.104, 132084.1, 0.0, 10.000186, 10.001027 
2.9658666e+3, 1.2834188e+2, -1607682.9, -1646586.5, -20192.273, 0.05178102, 0.41914672, -1599097.3, 83196.22, 0.0, 10.0006695, 10.000147 
2.9657963e+3, 1.3834232e+2, -1547909.8, -1578172.9, -13025.742, 0.07916612, 0.4760039, -1543075.5, 41212.582, 0.0, 10.000452, 10.000051 
2.965726e+3, 1.4834179e+2, -1480691.3, -1524168.6, 24223.943, 0.040432103, 0.4592887, -1469882.0, 16411.531, 0.0, 10.000369, 9.999786 
2.965656e+3, 1.58341e+2, -1389746.1, -1420604.5, 39236.645, 0.019432148, 0.4254877, -1363014.0, 25288.021, 0.0, 10.000282, 9.999867 
2.9655868e+3, 1.6834086e+2, -1267803.0, -1285947.0, 61438.09, 0.01663574, 0.43612018, -1214770.8, 75533.125, 0.0, 10.0003395, 10.000091 
2.9655173e+3, 1.7834096e+2, -1162726.9, -1184247.1, 64481.85, 0.013001894, 0.4619822, -1108113.5, 84189.766, 0.0, 10.000387, 10.000093 
2.9654482e+3, 1.8834092e+2, -1060764.6, -1068566.8, 73133.086, 0.0064052446, 0.46473992, -991428.6, 102875.35, 0.0, 10.000348, 10.000232 
2.9653794e+3, 1.983408e+2, -976074.4, -984346.0, 52937.758, -0.0012111914, 0.45747477, -927111.1, 69193.92, 0.0, 10.00029, 10.000165 
2.96531e+3, 2.0834084e+2, -886110.2, -887039.7, 42149.19, -0.0130478395, 0.4694491, -844423.2, 53882.66, 0.0, 10.000221, 10.000193 
2.9652408e+3, 2.1834102e+2, -792482.3, -787530.75, 64896.617, -0.024285028, 0.49367306, -725062.75, 75242.75, 0.0, 10.000175, 10.000226 
2.9651716e+3, 2.2834134e+2, -681867.25, -649125.75, 68639.18, -0.024839234, 0.51063293, -594932.06, 107370.63, 0.0, 10.000112, 10.000535 
2.9651028e+3, 2.3834158e+2, -605082.0, -566787.2, 58262.62, -0.025557123, 0.50760674, -524606.3, 79693.94, 0.0, 9.9999895, 10.000486 
2.965033e+3, 2.4834149e+2, -513869.22, -462104.75, 27390.764, -0.049109932, 0.4732231, -450302.2, 55999.168, 0.0, 9.999897, 10.000579 
2.9649627e+3, 2.5834182e+2, -403318.6, -341681.84, 22434.453, -0.0712142, 0.46785238, -334380.97, 73917.51, 0.0, 9.999912, 10.000726 
2.9648927e+3, 2.68343e+2, -251451.1, -200238.61, -2774.588, -0.026999258, 0.5268956, -200088.73, 110197.664, 0.0, 10.000204, 10.000885 
2.9648226e+3, 2.7834293e+2, -176257.1, -201147.08, 1643.5236, -0.001791548, 0.4858828, -176149.03, 36137.527, 0.0, 10.000425, 10.000102 
2.9647505e+3, 2.8834236e+2, -112982.06, -71268.03, -25051.01, -0.23347951, 0.4741987, -59527.992, 54765.33, 0.0, 9.99999, 10.000526 
2.975867e+3, 1.2841214e+2, -1621103.3, -1674623.4, -31371.83, 0.046520725, 0.41023695, -1606628.8, 74977.32, 0.0, 10.000672, 9.999952 
2.9757968e+3, 1.3841195e+2, -1557916.9, -1589698.0, -13399.657, 0.1223083, 0.42524603, -1553021.4, 30585.824, 0.0, 10.000414, 9.9999895 
2.975726e+3, 1.4841151e+2, -1459494.4, -1481079.6, 23415.617, 0.05332537, 0.39740333, -1444503.9, 41107.117, 0.0, 10.000374, 10.00008 
2.9756558e+3, 1.5841123e+2, -1365070.3, -1373026.4, 39749.11, -0.008010753, 0.38262397, -1329100.6, 58512.242, 0.0, 10.0002985, 10.000186 
2.975586e+3, 1.6841106e+2, -1259318.5, -1268553.3, 63603.715, -0.044894464, 0.36963752, -1200164.8, 89449.836, 0.0, 10.00034, 10.000209 
2.9755166e+3, 1.7841111e+2, -1165984.8, -1189870.1, 63813.58, -0.057633996, 0.38216558, -1113006.0, 78608.375, 0.0, 10.000382, 10.000056 
2.975448e+3, 1.8841113e+2, -1084605.4, -1118579.3, 70473.6, -0.019511025, 0.4165111, -1029100.4, 64515.117, 0.0, 10.000351, 9.9998865 
2.9753795e+3, 1.9841087e+2, -990031.6, -1015399.25, 51089.516, 0.0055394107, 0.43031937, -950074.94, 45544.83, 0.0, 10.0002985, 9.999948 
2.97531e+3, 2.0841113e+2, -864273.3, -842706.0, 39789.117, -0.017464513, 0.4524441, -812265.1, 85352.57, 0.0, 10.000225, 10.000496 
2.9752403e+3, 2.1841164e+2, -777973.7, -756576.7, 63372.055, -0.037199255, 0.4788078, -703006.44, 96606.54, 0.0, 10.000171, 10.000441 
2.9751715e+3, 2.2841199e+2, -689463.4, -663879.06, 65185.633, -0.009582299, 0.4975358, -610242.25, 91367.75, 0.0, 10.000107, 10.000436 
2.975103e+3, 2.3841232e+2, -605485.94, -566553.7, 52529.723, 0.020445932, 0.50875384, -529999.25, 73608.04, 0.0, 9.999985, 10.00049 
2.9750323e+3, 2.4841245e+2, -515703.94, -465735.72, 25577.178, -0.058216304, 0.49404687, -454965.16, 50642.227, 0.0, 9.999896, 10.000554 
2.9749614e+3, 2.584127e+2, -412872.34, -362313.0, 27442.652, -0.14711441, 0.489015, -350281.0, 57325.06, 0.0, 9.999915, 10.000583 
2.974893e+3, 2.6841342e+2, -275959.56, -252903.66, 12096.831, -0.0132020665, 0.5310881, -247721.53, 61876.78, 0.0, 10.000212, 10.00052 
2.9748243e+3, 2.784135e+2, -178341.98, -209105.14, -2844.6787, 0.115882985, 0.52738005, -178081.16, 33515.66, 0.0, 10.000445, 10.000036 
2.9747498e+3, 2.884123e+2, -163846.13, -173713.31, -41076.535, -0.28353107, 0.4686956, -127407.96, -13796.983, 0.0, 9.999983, 9.999823 
2.985867e+3, 1.2848513e+2, -1621191.6, -1678250.3, 33319.56, -0.00560628, 0.5538316, -1605856.3, 75033.82, 0.0, 10.000692, 9.999918 
2.9857957e+3, 1.384844e+2, -1628462.4, -1619419.5, 71855.53, 0.0139961215, 0.5173437, -1551943.3, 30953.389, 0.0, 9.999919, 10.000021 
2.985726e+3, 1.4848395e+2, -1518194.0, -1529944.9, 98948.32, 0.04472613, 0.5009669, -1424946.9, 59953.836, 0.0, 10.000066, 9.99989 
2.985657e+3, 1.5848322e+2, -1427705.8, -1430733.4, 72220.99, 0.09740067, 0.46356997, -1356982.8, 29924.746, 0.0, 9.999994, 9.999933 
2.9855877e+3, 1.6848339e+2, -1298559.1, -1297677.9, 78949.5, 0.10341966, 0.504107, -1219167.8, 69737.49, 0.0, 10.000123, 10.000111 
2.985518e+3, 1.784835e+2, -1171654.5, -1204313.8, 68087.33, 0.061185446, 0.53120023, -1117965.9, 72938.11, 0.0, 10.000401, 9.999946 
2.9854485e+3, 1.8848282e+2, -1078708.4, -1131981.3, 73682.38, -0.005277582, 0.50851405, -1026995.6, 65916.766, 0.0, 10.000465, 9.999739 
2.985379e+3, 1.9848228e+2, -964103.44, -1010524.2, 73300.78, -0.04200191, 0.50388956, -910426.06, 84493.65, 0.0, 10.00051, 9.99988 
2.98531e+3, 2.0848209e+2, -844347.6, -852777.56, 39461.758, -0.040589936, 0.49532706, -808876.4, 88045.89, 0.0, 10.000445, 10.000322 
2.9852405e+3, 2.184821e+2, -775973.06, -765858.0, 26585.998, -0.038726483, 0.48965427, -743852.75, 55069.656, 0.0, 10.000227, 10.000351 
2.9851717e+3, 2.2848237e+2, -700447.4, -657616.5, 31967.668, -0.011439116, 0.49457088, -640553.94, 60366.285, 0.0, 9.99998, 10.000541 
2.9851025e+3, 2.3848271e+2, -626608.3, -573837.7, 30243.814, 0.008064737, 0.49955258, -560087.3, 42830.11, 0.0, 9.9998255, 10.000519 
2.9850316e+3, 2.4848312e+2, -528674.4, -476820.2, 6857.1445, -0.07708279, 0.5142368, -475928.72, 28986.74, 0.0, 9.9998255, 10.000514 
2.984961e+3, 2.5848356e+2, -421690.03, -371344.0, 14734.293, -0.16116294, 0.5320202, -367348.88, 39564.492, 0.0, 9.999872, 10.000544 
2.9848927e+3, 2.6848388e+2, -297713.2, -268212.53, 26289.69, -0.027616238, 0.5352729, -252817.88, 56091.848, 0.0, 10.000078, 10.000482 
2.984824e+3, 2.7848405e+2, -178987.47, -185197.45, 19068.729, 0.07923513, 0.5325075, -162772.6, 48134.605, 0.0, 10.000334, 10.000258 
2.9847494e+3, 2.8848335e+2, -178001.36, -209732.02, -6865.143, -0.26313597, 0.5104791, -176579.73, -63662.266, 0.0, 10.000003, 9.99958 
2.9958677e+3, 1.2855594e+2, -1689886.6, -1713452.3, -77763.37, 0.00613004, 0.37563962, -1623018.4, 57175.734, 0.0, 10.000216, 9.999914 
2.9957965e+3, 1.3855569e+2, -1582545.3, -1600049.0, -59209.75, 0.1005818, 0.37553936, -1531444.1, 50752.203, 0.0, 10.00023, 10.000012 
2.9957253e+3, 1.4855589e+2, -1462440.8, -1582170.5, -53441.242, -0.006893699, 0.46724156, -1442057.5, 42137.477, 0.0, 10.000769, 9.999204 
2.9956552e+3, 1.5855448e+2, -1340274.1, -1473713.1, -85638.53, -0.030851461, 0.43645698, -1298432.9, 87776.87, 0.0, 10.000941, 9.999191 
2.9955858e+3, 1.6855296e+2, -1252497.6, -1312187.1, -46834.754, -0.058792014, 0.3497022, -1226806.8, 61417.36, 0.0, 10.000575, 9.9998045 
2.9955176e+3, 1.7855343e+2, -1212439.1, -1247070.6, -44981.836, -0.007041696, 0.4387701, -1181555.4, 8663.3125, 0.0, 10.000197, 9.999762 
2.9954487e+3, 1.8855238e+2, -1079473.3, -1132994.5, 3546.492, -0.00005521437, 0.38501588, -1079239.3, 12990.42, 0.0, 10.0004425, 9.999753 
2.9953793e+3, 1.9855262e+2, -974094.3, -1016288.5, 30706.838, -0.06257026, 0.44453314, -957935.56, 36292.703, 0.0, 10.000431, 9.999885 
2.9953104e+3, 2.0855255e+2, -898416.5, -947781.06, 8307.401, 0.023220066, 0.4865369, -897056.0, -825.1811, 0.0, 10.000363, 9.999712 
2.9952404e+3, 2.1855168e+2, -762631.44, -800646.2, -4942.6523, -0.042442318, 0.45203975, -761999.3, 36241.703, 0.0, 10.000493, 9.999985 
2.9951707e+3, 2.2855203e+2, -674161.44, -610912.56, -4452.949, -0.07657963, 0.45667988, -610600.6, 89637.06, 0.0, 10.000013, 10.000846 
2.9951012e+3, 2.3855259e+2, -607152.6, -557101.8, 9428.483, -0.07083898, 0.46136567, -555384.6, 46847.688, 0.0, 9.999926, 10.000585 
2.995031e+3, 2.4855354e+2, -524335.2, -479661.72, 6426.9766, -0.10550915, 0.5322624, -478755.5, 25470.068, 0.0, 9.999877, 10.000468 
2.994961e+3, 2.5855443e+2, -417143.56, -362791.97, 18826.006, -0.11415633, 0.59770536, -356908.1, 49311.957, 0.0, 9.999876, 10.000601 
2.9948917e+3, 2.6855433e+2, -278215.06, -228165.42, 38109.43, -0.07641595, 0.5385218, -207598.9, 100621.67, 0.0, 10.000079, 10.000756 
2.9948217e+3, 2.7855447e+2, -146151.13, -113396.23, 20633.23, -0.12759814, 0.4946845, -103430.73, 106787.5, 0.0, 10.000325, 10.000752 
2.9947504e+3, 2.8855678e+2, -146582.53, -136694.86, -18879.516, -0.14550525, 0.7134487, -122122.6, -9922.032, 0.0, 9.999979, 10.000091 
