coord_x,coord_y,stress_xx,stress_yy,tau_xy,velocity_x,velocity_y,stress_1,eps,damage,lx,ly
5.000485e+0, 1.2574174e+2, -1613509.1, -1590425.4, 26439.307, 0.03111712, -0.0109555805, -1573118.4, 134610.53, 0.0027102246, 10.000176, 10.000765 
4.9998814e+0, 1.3574095e+2, -1498379.4, -1456869.3, -45589.813, -0.028718228, -0.3065637, -1427532.4, 182196.33, 0.0016001622, 10.000248, 10.00096 
5.000081e+0, 1.457435e+2, -1494219.6, -1671797.5, -36140.543, -0.03593366, -0.008782483, -1487146.0, 24556.072, 0.00071385584, 10.000781, 9.998539 
5.0006944e+0, 1.557418e+2, -1271322.3, -1520915.3, -40423.094, -0.01863835, -0.11227888, -1264938.8, 148783.38, 0.00020880907, 10.001672, 9.998475 
5.000918e+0, 1.6574042e+2, -1237701.9, -1563683.4, -22268.875, 0.0024045724, -0.03955461, -1236187.6, 79552.12, 0.00003056022, 10.001708, 9.997494 
5.00083e+0, 1.7573881e+2, -1231029.1, -1510002.3, 10725.333, 0.024902616, -0.0075225183, -1230617.5, -12857.036, 0.0000010193884, 10.001081, 9.997493 
5.0006276e+0, 1.8573749e+2, -1036186.2, -1175082.4, 47408.152, 0.011314653, 0.025252908, -1021547.56, 98226.78, 0.0, 10.000941, 9.999181 
5.0003177e+0, 1.95736e+2, -910025.2, -1073651.4, 15483.693, -0.031054445, -0.1008183, -908572.9, 113213.81, 0.0, 10.001176, 9.999097 
5.0004476e+0, 2.0573595e+2, -752010.25, -891904.56, -5174.6724, -0.02711256, -0.03498331, -751819.06, 171965.64, 0.0, 10.001357, 9.9995775 
5.000863e+0, 2.1573651e+2, -648523.0, -818522.8, -61672.992, 0.0067004533, 0.003107614, -628506.0, 197270.55, 0.0, 10.001512, 9.999336 
5.001003e+0, 2.2573516e+2, -658987.44, -978445.75, -41653.12, 0.01377715, 0.0390916, -653645.75, 74145.63, 0.0, 10.001657, 9.997496 
5.000965e+0, 2.3573203e+2, -539565.6, -866086.3, -14105.29, 0.0030773787, -0.08613403, -538957.44, 90868.96, 0.0, 10.001784, 9.997534 
5.000809e+0, 2.457307e+2, -363319.44, -587060.0, 16284.549, -0.007814715, -0.037792332, -362140.44, 169699.92, 0.0, 10.0017, 9.9988165 
5.000566e+0, 2.5573018e+2, -311125.28, -526959.3, 18359.592, -0.0200221, -0.026773924, -309574.7, 124268.41, 0.000000000017365094, 10.001449, 9.998682 
5.000538e+0, 2.6572934e+2, -207538.7, -370615.56, 38382.953, -0.012387424, 0.0024805262, -198956.3, 136893.33, 0.000000288742, 10.001249, 9.999171 
5.000671e+0, 2.757282e+2, -138375.34, -292189.25, 20377.51, 0.009050094, -0.092150174, -135721.48, 102137.74, 0.0000033591298, 10.001073, 9.999122 
5.0007886e+0, 2.8572842e+2, -73618.9, -249810.98, 31049.822, 0.023835229, 0.040153604, -68307.21, 71545.414, 0.000018802597, 10.00102, 9.998758 
5.000816e+0, 2.9572812e+2, 49347.703, -125322.66, 22457.71, 0.020752406, 0.06314518, 52188.918, 94038.47, 0.000081046455, 10.001105, 9.998906 
5.0008446e+0, 3.0572146e+2, 63392.56, -278731.94, 59418.383, -0.0030399968, -0.42060453, 73418.24, 73418.24, 0.0003038914, 10.001659, 9.997249 
5.001178e+0, 3.157226e+2, 140157.5, -275626.1, 84443.49, -0.0047576968, -0.06093483, 156653.11, 156653.11, 0.00078894256, 10.00224, 9.997013 
1.5001428e+1, 1.2574239e+2, -1751797.0, -1784024.8, -14532.863, 0.09455623, -0.004269953, -1746211.6, -38488.715, 0.0026043395, 9.999836, 9.999619 
1.499973e+1, 1.3574159e+2, -1604395.0, -1625919.5, -26849.787, -0.07385759, -0.11733682, -1586230.8, 23497.926, 0.0015429672, 10.000077, 9.999905 
1.5000226e+1, 1.4574355e+2, -1495340.5, -1612619.8, -16118.218, -0.10714461, 0.14169393, -1493165.6, 18543.305, 0.0006869522, 10.0005455, 9.999074 
1.5002069e+1, 1.5574124e+2, -1263956.4, -1455132.4, 5092.6816, -0.05551809, -0.031516418, -1263820.8, 149911.0, 0.0001968844, 10.001483, 9.99903 
1.5002769e+1, 1.6573992e+2, -1177815.3, -1384184.0, -59221.52, 0.010918679, -0.051587515, -1162028.1, 153716.56, 0.000026649353, 10.0015, 9.998837 
1.5002532e+1, 1.7573921e+2, -1169104.4, -1335799.9, 3402.038, 0.079519816, -0.0321457, -1169035.0, 48716.53, 0.00000066228677, 10.000904, 9.99879 
1.5001848e+1, 1.8573835e+2, -1098358.6, -1240722.6, 42874.063, 0.03359521, 0.0026648426, -1086443.9, 33315.934, 0.0, 10.000706, 9.998851 
1.5000945e+1, 1.9573714e+2, -971487.06, -1143230.0, 39559.887, -0.09079248, -0.028454, -962812.8, 58958.945, 0.0, 10.000957, 9.998735 
1.500132e+1, 2.0573601e+2, -858600.0, -1054037.3, -10731.487, -0.08208853, -0.00012914075, -858012.5, 65771.65, 0.0, 10.001135, 9.99858 
1.500257e+1, 2.1573481e+2, -739107.5, -949737.2, -40138.813, 0.019013572, -0.00666217, -731717.7, 94080.734, 0.0, 10.001295, 9.9985485 
1.5002997e+1, 2.2573374e+2, -604913.4, -807968.4, -51895.695, 0.04396442, 0.023773855, -592419.0, 135391.38, 0.0, 10.001441, 9.99878 
1.5002863e+1, 2.3573267e+2, -491018.4, -703532.1, 4087.8235, 0.009108964, 0.0135230245, -490939.8, 138881.83, 0.0, 10.001554, 9.998768 
1.5002432e+1, 2.4573201e+2, -360673.53, -531705.0, -7290.28, -0.02118146, 0.04505254, -360363.34, 171463.39, 0.0, 10.001515, 9.999297 
1.500169e+1, 2.5573137e+2, -308406.34, -459261.03, 21183.91, -0.05804782, 0.024321994, -305488.03, 128341.516, 0.0, 10.001211, 9.999271 
1.5001617e+1, 2.6572987e+2, -234639.61, -378093.75, 18871.313, -0.0357657, -0.046116762, -232198.63, 103642.53, 0.00000013049092, 10.001071, 9.999217 
1.5002035e+1, 2.757277e+2, -175766.61, -312475.7, 25059.855, 0.029876458, -0.2103247, -171317.72, 66541.98, 0.0000024373799, 10.00085, 9.999104 
1.500232e+1, 2.857274e+2, -91803.125, -238159.77, 22187.893, 0.0696141, -0.13446492, -88513.35, 51345.418, 0.000015368285, 10.000842, 9.998938 
1.5002432e+1, 2.957277e+2, 27872.656, -104298.39, 49777.7, 0.06027082, -0.036163144, 44522.348, 86374.31, 0.000069496324, 10.000842, 9.999193 
1.5002598e+1, 3.0572295e+2, 111299.65, -106356.68, 71840.65, 0.0050165644, -0.4060106, 132873.36, 132873.36, 0.00026841622, 10.0014305, 9.998563 
1.5003455e+1, 3.1572452e+2, 226125.84, 34507.02, 149536.73, -0.012350166, -0.08737151, 307913.38, 307913.38, 0.0007052667, 10.001764, 9.9993925 
2.5002176e+1, 1.257428e+2, -1668181.3, -1822241.8, 3590.272, 0.15497406, 0.060578436, -1668097.6, 39620.117, 0.0024837567, 10.000785, 9.998868 
2.5000864e+1, 1.3574094e+2, -1423274.0, -1631456.8, -17292.596, -0.038488835, -0.08669559, -1421847.4, 187889.56, 0.0014731403, 10.001764, 9.999035 
2.500173e+1, 1.4574204e+2, -1341186.5, -1526134.3, 20001.178, -0.051495373, 0.12327352, -1339048.1, 172677.69, 0.00065158884, 10.001578, 9.999148 
2.5003797e+1, 1.5574007e+2, -1384912.4, -1504374.4, -8034.7373, 0.021544417, -0.03628905, -1384374.4, 29369.756, 0.0001815959, 10.000634, 9.999085 
2.5004417e+1, 1.6573903e+2, -1257473.0, -1373365.9, -68035.06, 0.07261609, -0.05072049, -1226051.9, 89700.84, 0.000022322774, 10.000753, 9.999257 
2.5004032e+1, 1.7573857e+2, -1035516.8, -1222983.3, -91042.51, 0.1117146, -0.06172495, -998580.0, 219175.2, 0.00000035252413, 10.001638, 9.999189 
2.5003204e+1, 1.857378e+2, -979357.3, -1209646.9, -48154.652, 0.061188914, -0.0245043, -969693.5, 150069.0, 0.0, 10.001625, 9.998615 
2.5002155e+1, 1.957366e+2, -1006777.2, -1184056.4, -54101.97, -0.049140498, -0.04402511, -991570.75, 30204.586, 0.0, 10.000816, 9.998508 
2.5002512e+1, 2.0573533e+2, -925378.0, -1120816.8, -2814.1055, -0.053420205, -0.004939439, -925337.5, -1546.5516, 0.0, 10.00083, 9.9982605 
2.5003865e+1, 2.1573377e+2, -740556.3, -982432.7, 3613.944, 0.020225083, -0.022668963, -740502.3, 85308.23, 0.0, 10.001428, 9.998253 
2.5004384e+1, 2.2573309e+2, -569253.75, -732683.3, 3416.1665, 0.045671783, 0.033837907, -569182.4, 158636.16, 0.0, 10.001429, 9.999287 
2.500432e+1, 2.3573291e+2, -549748.75, -684827.4, -8683.554, 0.03755937, 0.04913875, -549192.8, 80626.7, 0.0, 10.000932, 9.9991865 
2.5003803e+1, 2.4573243e+2, -488406.84, -578159.2, -19905.912, 0.01805448, 0.07565883, -484190.1, 47631.7, 0.0, 10.000588, 9.999408 
2.500289e+1, 2.5573146e+2, -423468.22, -503900.66, -35909.355, -0.008538591, 0.0022276405, -409769.44, 24058.049, 0.0, 10.000381, 9.999349 
2.500283e+1, 2.6572993e+2, -308045.97, -412732.44, -364.87143, 0.010983804, -0.075855695, -308044.7, 27794.396, 0.00000003137998, 10.000586, 9.999198 
2.5003403e+1, 2.7572787e+2, -142061.73, -300366.6, -12317.95, 0.077028565, -0.23403735, -141108.98, 96746.85, 0.0000016497497, 10.001118, 9.999046 
2.5003913e+1, 2.8572726e+2, 3864.8586, -224792.95, 15167.35, 0.11374307, -0.17158133, 4866.5522, 144725.95, 0.000012071121, 10.001647, 9.9986315 
2.5004464e+1, 2.9572722e+2, 182206.61, -67957.234, -10427.724, 0.12828466, -0.08563673, 182640.52, 224499.03, 0.00005739791, 10.002098, 9.998822 
2.5004515e+1, 3.0572385e+2, 170438.95, -57910.867, -20717.107, 0.05261799, -0.30759096, 172303.3, 172303.3, 0.00023072664, 10.001764, 9.9987335 
2.5005168e+1, 3.157245e+2, 160583.64, 135228.39, -60252.31, 0.05767916, -0.13284703, 209477.63, 209477.63, 0.000617959, 10.000763, 10.0005455 
3.5002363e+1, 1.257428e+2, -1709979.1, -1861044.0, -5630.7036, 0.026118081, 0.11237213, -1709769.5, -2054.3464, 0.0023583595, 10.000599, 9.998688 
3.5002857e+1, 1.3573897e+2, -1448893.5, -1661610.0, 23762.09, -0.05082716, -0.19025497, -1446271.5, 163481.88, 0.0013953737, 10.001689, 9.998857 
3.5004184e+1, 1.4573884e+2, -1367629.1, -1549522.0, -32359.674, -0.006135956, -0.088840835, -1362043.8, 149710.63, 0.0006105934, 10.001449, 9.999048 
3.500547e+1, 1.557382e+2, -1399298.3, -1511704.5, -23328.37, 0.08778526, -0.10195648, -1394649.1, 19110.709, 0.00016453842, 10.000553, 9.999068 
3.500561e+1, 1.6573764e+2, -1283082.8, -1404773.4, -51736.336, 0.0807657, -0.06366779, -1264060.8, 51704.074, 0.000017966355, 10.000651, 9.999101 
3.5004997e+1, 1.7573671e+2, -1057449.3, -1254796.4, -47298.266, 0.009078073, -0.095476694, -1046698.94, 171074.63, 0.00000014192928, 10.0015745, 9.999009 
3.5004357e+1, 1.8573564e+2, -986720.94, -1188124.3, -92491.36, -0.01745292, -0.08858451, -950691.2, 169093.11, 0.0, 10.001476, 9.99883 
3.5003605e+1, 1.9573435e+2, -1006867.2, -1153350.5, -66815.76, -0.018228738, -0.13247174, -980969.1, 40828.84, 0.0, 10.00069, 9.998779 
3.5003704e+1, 2.0573375e+2, -904150.6, -1038231.25, 3636.209, -0.04492266, -0.071565144, -904052.06, 19753.893, 0.0, 10.000672, 9.998902 
3.500445e+1, 2.1573338e+2, -721554.4, -903311.5, 37552.42, -0.09398374, -0.027594313, -714101.4, 111711.48, 0.0, 10.001264, 9.998875 
3.5004842e+1, 2.2573313e+2, -594927.8, -737486.06, -25094.873, -0.08036644, 0.037879262, -590639.3, 137177.3, 0.0, 10.001234, 9.999344 
3.5004982e+1, 2.3573284e+2, -571770.25, -682913.8, -12410.715, -0.020913687, 0.043264188, -570401.3, 59417.656, 0.0, 10.000742, 9.999286 
3.500464e+1, 2.4573202e+2, -513126.22, -599561.4, -40044.96, 0.014746857, 0.0364464, -497425.56, 34399.43, 0.0, 10.000456, 9.9993305 
3.5003877e+1, 2.557306e+2, -451871.44, -525296.1, -26263.078, 0.020833693, -0.07037821, -443444.6, -9608.551, 0.0, 10.000222, 9.999281 
3.500387e+1, 2.6572958e+2, -310242.75, -396349.44, 7903.052, 0.028162004, -0.09920907, -309523.4, 26319.148, 0.0000000045955626, 10.000496, 9.999352 
3.500436e+1, 2.757288e+2, -151712.13, -287609.78, 24560.66, 0.027940273, -0.14285831, -147409.53, 90437.04, 0.0000011896407, 10.0009775, 9.999199 
3.500528e+1, 2.85728e+2, -43521.617, -301386.03, 19507.553, 0.053608395, -0.08251041, -42054.215, 97799.92, 0.000009641755, 10.001564, 9.998145 
3.5006538e+1, 2.957267e+2, 111865.42, -179402.0, 15681.63, 0.0877227, -0.06436352, 112707.27, 154576.73, 0.0000464018, 10.001958, 9.998126 
3.500613e+1, 3.0572385e+2, 121700.75, -150319.92, -69039.55, 0.008534693, -0.15730356, 138219.98, 138219.98, 0.00019513248, 10.00171, 9.998122 
3.5005614e+1, 3.1572303e+2, 157542.86, 148303.27, -49054.54, -0.044686798, -0.08322199, 202194.66, 202194.66, 0.00053834624, 10.000664, 10.000683 
4.5004177e+1, 1.2574087e+2, -1480145.0, -1739401.5, 7653.2896, 0.099338725, 0.025201745, -1479919.3, 227812.03, 0.0022337737, 10.002162, 9.99875 
4.5004576e+1, 1.3573815e+2, -1589951.1, -1730812.6, -17457.055, 0.021697313, -0.16758108, -1587820.0, 21940.543, 0.0013153872, 10.000733, 9.998835 
4.5005882e+1, 1.4573756e+2, -1464669.0, -1588309.8, -5068.951, 0.07239461, -0.11645588, -1464461.5, 47305.066, 0.00056916923, 10.00073, 9.999147 
4.500679e+1, 1.5573718e+2, -1207293.6, -1416138.9, -21323.45, 0.11501663, -0.10615501, -1205138.8, 208630.34, 0.00014812649, 10.001839, 9.999127 
4.5006877e+1, 1.6573673e+2, -1164510.9, -1342978.1, -18877.625, 0.115162246, -0.058956083, -1162535.9, 153237.19, 0.000013959289, 10.001459, 9.999131 
4.5006493e+1, 1.7573571e+2, -1281125.8, -1356715.0, -27210.713, 0.09100258, -0.10171581, -1272349.5, -54565.766, 0.000000037538413, 10.000017, 9.999062 
4.500593e+1, 1.8573485e+2, -1147215.8, -1229264.6, -10350.279, 0.06714503, -0.09267707, -1145930.3, -26137.584, 0.0, 10.000222, 9.999162 
4.5005116e+1, 1.9573408e+2, -859757.2, -1046466.3, -1374.9581, 0.032684408, -0.1147886, -859747.06, 162053.6, 0.0, 10.001547, 9.999105 
4.5005104e+1, 2.0573372e+2, -736897.7, -926442.5, 73092.31, -0.011182494, -0.061729506, -711986.0, 211819.67, 0.0, 10.001671, 9.999197 
4.500572e+1, 2.1573338e+2, -768599.75, -895130.1, 53430.43, -0.05673452, -0.045170315, -749056.1, 76754.71, 0.0, 10.000796, 9.99916 
4.5006076e+1, 2.2573315e+2, -646011.06, -753508.44, 21045.531, -0.04863101, 0.0045312564, -642037.7, 85775.88, 0.0, 10.00084, 9.9994335 
4.500624e+1, 2.3573281e+2, -453738.1, -622298.75, 10102.739, 0.0026758183, 0.0009832619, -453134.72, 176681.1, 0.0, 10.001536, 9.999332 
4.500614e+1, 2.4573188e+2, -317742.2, -538191.0, -3332.1467, 0.056100678, -0.0047844225, -317691.8, 214132.05, 0.0, 10.001948, 9.999025 
4.5005786e+1, 2.5573012e+2, -190658.3, -435032.2, -33274.336, 0.102164485, -0.112766005, -186208.63, 247630.98, 0.0, 10.002165, 9.998963 
4.5005688e+1, 2.6572928e+2, -88287.586, -282708.5, 19264.982, 0.09494192, -0.11273535, -86397.02, 249447.86, 0.000000013083459, 10.001997, 9.999408 
4.5005876e+1, 2.757291e+2, -52292.246, -236478.36, 3737.5718, 0.05982135, -0.101047345, -52216.434, 185626.16, 0.0000010541644, 10.001647, 9.999233 
4.5006892e+1, 2.857282e+2, -71512.805, -328697.6, 40981.902, 0.07628342, -0.047394287, -65140.313, 74711.57, 0.000008106713, 10.00143, 9.998031 
4.5008418e+1, 2.9572624e+2, 1032.6615, -256747.78, 35159.973, 0.12529992, -0.076442815, 5742.263, 47616.617, 0.000037622078, 10.001294, 9.997921 
4.5007756e+1, 3.0572397e+2, 26074.86, -238519.64, -5333.695, 0.036924683, -0.080315486, 26182.332, 26182.332, 0.00016443121, 10.001229, 9.99774 
4.500709e+1, 3.1572232e+2, 198365.98, 114871.7, -17558.951, 0.026160732, -0.06561259, 201908.36, 201908.36, 0.00047154687, 10.001172, 10.000202 
5.500614e+1, 1.2573732e+2, -1469154.6, -1735910.1, -91650.53, -0.013835718, -0.20314576, -1440700.8, 267063.0, 0.0021078985, 10.002216, 9.998758 
5.5005544e+1, 1.357385e+2, -1569328.8, -1712268.1, -48679.22, -0.007159013, -0.013770583, -1554325.5, 55432.715, 0.0012334009, 10.00082, 9.998925 
5.5006456e+1, 1.457382e+2, -1443832.1, -1546594.9, 16120.977, 0.0037947074, 0.042854834, -1441362.4, 70400.0, 0.00052778376, 10.000733, 9.999433 
5.5007255e+1, 1.5573709e+2, -1191925.1, -1385984.8, 28504.436, -0.065223865, -0.044140466, -1187825.0, 225945.89, 0.00013278752, 10.001841, 9.999334 
5.5007565e+1, 1.6573642e+2, -1166432.8, -1330853.5, -88190.336, -0.0014970491, -0.033796035, -1128077.5, 187699.25, 0.0000106646075, 10.00139, 9.999244 
5.500795e+1, 1.7573553e+2, -1270183.6, -1328720.9, -60543.395, 0.19461404, -0.07995205, -1232205.3, -14419.049, 0.000000007551507, 9.999994, 9.99926 
5.5007464e+1, 1.8573542e+2, -1124833.5, -1163171.5, 24258.12, 0.16398181, -0.03683152, -1113084.8, 6703.0317, 0.0, 10.000136, 9.999657 
5.500621e+1, 1.9573578e+2, -839621.5, -985494.5, 55409.316, -0.048482753, 0.007875536, -820961.5, 200822.56, 0.0, 10.001467, 9.999562 
5.500622e+1, 2.0573524e+2, -760408.44, -939175.5, 28680.822, -0.09787531, 0.021789365, -755919.7, 167869.9, 0.0, 10.001523, 9.999178 
5.5007195e+1, 2.1573374e+2, -786518.06, -904768.44, 38002.246, -0.02349348, -0.0732305, -775358.44, 50446.29, 0.0, 10.000679, 9.999149 
5.500762e+1, 2.2573313e+2, -654199.56, -741233.0, 34878.598, -0.010275265, -0.06867814, -641946.94, 85862.67, 0.0, 10.000718, 9.999576 
5.500768e+1, 2.3573299e+2, -467142.9, -620915.0, 49464.33, -0.037837077, -0.066052064, -452605.84, 177202.84, 0.0, 10.001412, 9.999401 
5.5007786e+1, 2.4573196e+2, -370504.28, -627355.3, -5409.944, -0.00792288, -0.052278865, -370390.4, 161428.11, 0.0, 10.001864, 9.99845 
5.5008024e+1, 2.5573003e+2, -250480.8, -517454.72, -13465.459, 0.07283352, -0.12242522, -249803.34, 184035.08, 0.0, 10.002001, 9.998467 
5.5007887e+1, 2.657291e+2, -96808.766, -295012.47, -7811.258, 0.07941522, -0.10882527, -96501.4, 239344.2, 0.000000016276152, 10.001961, 9.999349 
5.500759e+1, 2.7572867e+2, -67385.47, -251246.3, 5419.0327, 0.030165948, -0.1115356, -67225.89, 170618.9, 0.00000094951764, 10.001563, 9.999182 
5.5008227e+1, 2.8572768e+2, -56584.984, -285895.8, 23060.898, 0.032889534, -0.07790735, -54288.83, 85564.84, 0.0000068871877, 10.001387, 9.998338 
5.500957e+1, 2.957259e+2, 6254.674, -221694.89, 44427.234, 0.068261385, -0.12125361, 14607.444, 56480.65, 0.00003070153, 10.001187, 9.998212 
5.500892e+1, 3.057242e+2, 15307.782, -242680.9, -14178.907, -0.0025988074, -0.08223471, 16084.707, 16084.707, 0.00013855331, 10.0011635, 9.9977455 
5.5008715e+1, 3.1572202e+2, 105435.89, -47176.363, 17712.701, 0.0018695812, -0.10927816, 107464.72, 107464.72, 0.0004144919, 10.001053, 9.999142 
6.500779e+1, 1.2573649e+2, -1781183.4, -1907949.0, -16975.857, 0.055876855, -0.22070831, -1778949.4, -71178.14, 0.0019834668, 10.000124, 9.9986105 
6.500724e+1, 1.3573837e+2, -1381974.0, -1614393.8, -22397.164, 0.03475574, 0.039207138, -1379835.4, 229923.55, 0.001149572, 10.002051, 9.999021 
6.5008134e+1, 1.4573745e+2, -1312607.5, -1474115.8, 47816.36, 0.06687502, 0.024919981, -1299512.6, 212256.56, 0.00048384682, 10.001613, 9.999498 
6.50083e+1, 1.5573642e+2, -1511960.0, -1527428.6, 10196.285, -0.020161208, -0.060961597, -1506896.6, -93119.42, 0.00011744106, 9.999615, 9.999419 
6.500837e+1, 1.6573605e+2, -1364963.4, -1390338.5, -47128.0, 0.02690305, -0.041688114, -1328845.0, -13065.1455, 0.000008467286, 9.999872, 9.999568 
6.5008676e+1, 1.7573552e+2, -1004503.56, -1167888.0, -35351.09, 0.19251809, -0.08262533, -997182.75, 220602.44, 0.000000004638606, 10.001689, 9.999545 
6.5008324e+1, 1.8573558e+2, -909481.3, -1051399.0, 48697.258, 0.17473468, -0.03702738, -894378.7, 225406.08, 0.0, 10.001586, 9.99972 
6.50074e+1, 1.9573599e+2, -1051648.3, -1080865.6, 19339.857, 0.008428985, 0.00402514, -1042019.7, -20239.0, 0.0, 9.99998, 9.999623 
6.50076e+1, 2.0573542e+2, -956955.06, -1020152.06, 24394.209, -0.030873217, 0.0057413965, -948634.4, -24848.41, 0.0, 10.000105, 9.999309 
6.5008634e+1, 2.1573387e+2, -675411.1, -837074.7, 22791.363, 0.026704825, -0.107243314, -672259.44, 153540.78, 0.0, 10.001385, 9.999273 
6.500929e+1, 2.2573307e+2, -515259.78, -693076.44, 34541.69, 0.043857824, -0.1168343, -508785.63, 219021.03, 0.0, 10.001745, 9.9994135 
6.500972e+1, 2.357327e+2, -477035.9, -640229.06, 1622.1794, 0.03483384, -0.12525874, -477019.78, 152788.8, 0.0, 10.001398, 9.999273 
6.501004e+1, 2.4573176e+2, -421233.84, -672356.44, -11554.948, 0.05449882, -0.089862026, -420703.28, 111114.96, 0.0, 10.00159, 9.998296 
6.5010345e+1, 2.5573018e+2, -235095.25, -530840.5, -17823.328, 0.1065631, -0.10631067, -234024.98, 199810.38, 0.0, 10.002183, 9.998309 
6.5010065e+1, 2.6572874e+2, -100387.98, -360508.28, -20601.553, 0.09693916, -0.10296353, -98766.44, 237081.89, 0.00000000394634, 10.002217, 9.998778 
6.50094e+1, 2.7572724e+2, -47367.266, -291027.13, -70047.54, 0.047062106, -0.15845008, -28665.389, 209193.83, 0.0000007712445, 10.001936, 9.998715 
6.5009683e+1, 2.8572613e+2, 2045.8671, -229987.48, -39346.457, 0.036461107, -0.1283752, 8536.386, 148405.3, 0.000006042053, 10.001673, 9.998583 
6.5010774e+1, 2.9572505e+2, 45997.492, -162830.25, -51202.598, 0.076751895, -0.12890318, 57876.19, 99756.7, 0.000026519589, 10.001313, 9.998545 
6.5010524e+1, 3.0572373e+2, 78941.54, -187371.69, -50755.453, 0.039069984, -0.08618196, 88286.85, 88286.85, 0.00012024143, 10.00148, 9.997981 
6.5011317e+1, 3.1572157e+2, 194761.14, -59911.965, -53818.625, 0.13284102, -0.11904188, 205667.28, 205667.28, 0.00036921015, 10.001873, 9.998686 
7.500828e+1, 1.2573819e+2, -1776769.0, -1906991.3, 281.94064, 0.009230945, -0.02149748, -1776768.4, -69012.59, 0.0018629195, 10.00017, 9.9985895 
7.5009024e+1, 1.3573763e+2, -1367109.6, -1593022.1, 46302.71, -0.03535219, -0.022849085, -1357987.9, 251776.0, 0.0010666472, 10.002091, 9.999147 
7.501011e+1, 1.4573531e+2, -1330018.9, -1499613.4, -43835.004, 0.057683125, -0.17478831, -1319358.9, 192428.28, 0.0004391749, 10.001567, 9.999346 
7.500949e+1, 1.5573506e+2, -1515213.1, -1547596.9, -38145.727, 0.09452959, -0.16507408, -1489965.0, -76176.08, 0.00010226521, 9.999659, 9.999269 
7.50088e+1, 1.6573553e+2, -1338465.5, -1320194.6, 6278.4575, 0.04560481, -0.08238944, -1318245.1, -2461.9485, 0.000007138289, 9.999815, 10.0000725 
7.500824e+1, 1.7573567e+2, -981859.75, -1111109.0, 35254.363, -0.057893403, -0.10896323, -972869.06, 244911.66, 0.00000003688298, 10.001646, 9.999954 
7.500807e+1, 1.8573527e+2, -950928.8, -1119802.8, -26391.018, -0.043602474, -0.10246846, -946900.56, 172883.88, 0.0, 10.001503, 9.999295 
7.5008225e+1, 1.9573455e+2, -1081873.0, -1133361.9, -21310.889, 0.056999188, -0.13556723, -1074196.9, -52404.64, 0.0, 9.999934, 9.999288 
7.500883e+1, 2.0573418e+2, -948680.0, -979943.56, 60878.016, 0.050469566, -0.11571964, -901458.9, 22336.408, 0.0, 10.000007, 9.999631 
7.5009626e+1, 2.1573374e+2, -672804.06, -807601.6, 79262.11, -0.04553803, -0.15347192, -636159.2, 189638.64, 0.0, 10.001274, 9.999532 
7.5010663e+1, 2.25733e+2, -564476.1, -766854.94, 10321.184, -0.023301674, -0.14602643, -563951.1, 163853.56, 0.0, 10.001623, 9.998965 
7.5011945e+1, 2.357319e+2, -526005.94, -711665.5, 6436.412, 0.08562792, -0.1829789, -525783.06, 104032.984, 0.0, 10.001261, 9.998853 
7.5012404e+1, 2.4573125e+2, -415685.9, -640665.56, -1307.4401, 0.10404347, -0.11176715, -415678.3, 116144.664, 0.0, 10.001505, 9.998549 
7.501232e+1, 2.5573063e+2, -245383.45, -523324.6, 15673.319, 0.054721355, -0.058737826, -244502.4, 189327.02, 0.0, 10.002052, 9.998425 
7.501167e+1, 2.6572835e+2, -190381.3, -523524.03, -43432.777, 0.006599578, -0.083694555, -184811.95, 151039.45, 0.00000000015133415, 10.002126, 9.997697 
7.501076e+1, 2.7572477e+2, -136654.39, -446293.34, -63425.05, -0.04759815, -0.24371731, -124166.34, 113719.266, 0.00000065427645, 10.001809, 9.997708 
7.5010854e+1, 2.857235e+2, 15656.911, -195697.23, -64628.387, -0.048422217, -0.19579048, 33852.645, 173750.05, 0.0000058927376, 10.00164, 9.998837 
7.501159e+1, 2.9572356e+2, 57078.918, -122616.65, -46507.566, -0.013394136, -0.10741989, 68402.164, 110298.914, 0.000025865007, 10.00122, 9.998877 
7.501205e+1, 3.057223e+2, 97137.09, -128000.16, -38283.55, 0.011347913, -0.10130363, 103468.95, 103468.95, 0.00011203884, 10.001406, 9.998411 
7.501392e+1, 3.1572068e+2, 187306.75, -31792.814, -3710.328, 0.13899525, -0.11679173, 187369.56, 187369.56, 0.00034091447, 10.001698, 9.998952 
8.500902e+1, 1.2573719e+2, -1731484.3, -1833502.5, 23773.916, 0.077226184, -0.019719373, -1726216.1, -18449.857, 0.0017451695, 10.000276, 9.999029 
8.501049e+1, 1.357371e+2, -1540026.0, -1602055.4, 42065.41, -0.006211364, -0.035435345, -1518777.8, 90989.0, 0.0009891815, 10.000603, 9.99979 
8.5011595e+1, 1.457348e+2, -1448165.4, -1543319.6, -55172.47, 0.10828397, -0.22621053, -1422889.4, 88900.234, 0.000399723, 10.000677, 9.999486 
8.5010356e+1, 1.5573502e+2, -1358597.0, -1458509.6, -52124.086, 0.17445791, -0.18111165, -1336355.3, 77432.7, 0.00008899464, 10.000674, 9.999392 
8.500944e+1, 1.6573577e+2, -1208724.3, -1251341.4, 76370.11, 0.095262095, -0.07992342, -1150745.6, 165034.44, 0.000006071428, 10.000673, 10.000136 
8.5009027e+1, 1.7573594e+2, -1139576.9, -1180163.0, 42109.598, -0.07709696, -0.10783633, -1113125.6, 104651.53, 0.000000076650345, 10.000532, 10.00002 
8.500909e+1, 1.8573524e+2, -1041531.56, -1188123.3, -39641.12, -0.05490217, -0.123440035, -1031498.56, 88285.43, 0.0, 10.000978, 9.999085 
8.500955e+1, 1.9573402e+2, -828134.5, -1033803.06, -43924.945, 0.11421183, -0.18136592, -819146.25, 202650.48, 0.0, 10.001767, 9.999091 
8.5010093e+1, 2.0573376e+2, -712766.9, -850116.94, 75150.4, 0.106681965, -0.14764911, -679638.94, 244159.6, 0.0, 10.001572, 9.999763 
8.5010535e+1, 2.1573392e+2, -763136.25, -839601.3, 48030.63, -0.040001903, -0.13603644, -739979.3, 85815.836, 0.0, 10.000615, 9.999627 
8.5011727e+1, 2.2573325e+2, -713910.9, -851033.06, 10093.993, -0.022753745, -0.1201927, -713171.8, 14630.004, 0.0, 10.000663, 9.998841 
8.50136e+1, 2.3573187e+2, -510141.72, -713317.2, 3905.289, 0.12512547, -0.17119284, -510066.7, 119750.0, 0.0, 10.001427, 9.998752 
8.5014474e+1, 2.4573119e+2, -359301.2, -602977.5, 31766.902, 0.15157723, -0.104160555, -355227.97, 176596.06, 0.0, 10.001838, 9.998641 
8.501464e+1, 2.557308e+2, -244889.05, -511125.13, 10200.163, 0.094204456, -0.038141232, -244498.81, 189328.9, 0.0, 10.002011, 9.998517 
8.5014045e+1, 2.657284e+2, -206873.38, -541121.1, -1913.8253, 0.04595558, -0.07494308, -206862.42, 128987.73, 0.0000000019213902, 10.00201, 9.997649 
8.501307e+1, 2.7572444e+2, -153714.75, -463947.94, 28811.24, 0.018519394, -0.27192596, -151061.73, 86826.3, 0.0000006294421, 10.001697, 9.997658 
8.5012954e+1, 2.8572303e+2, -16295.733, -252111.86, 71054.24, 0.009845427, -0.21759221, 3458.8967, 143360.36, 0.0000062489003, 10.001595, 9.998471 
8.5013396e+1, 2.9572323e+2, 135006.44, -117610.305, 16595.354, 0.0240303, -0.078457974, 136091.98, 177991.77, 0.000027811611, 10.001901, 9.998578 
8.5013986e+1, 3.0572078e+2, 193816.03, -113752.164, 8877.024, 0.037685953, -0.1618927, 194072.02, 194072.02, 0.00011222166, 10.002181, 9.998156 
8.501589e+1, 3.1571913e+2, 237810.25, 39840.555, -58375.734, 0.17758441, -0.16192906, 253741.58, 253741.58, 0.00032900518, 10.001834, 9.999375 
9.5009065e+1, 1.2573366e+2, -1677507.4, -1713121.0, -4037.4739, -0.022913426, -0.20443086, -1677055.4, 30745.674, 0.0016362383, 10.000239, 9.99987 
9.5011055e+1, 1.3573681e+2, -1450982.4, -1443352.3, 64567.535, -0.05297144, -0.008576754, -1382487.3, 227280.92, 0.0009229167, 10.000703, 10.0008335 
9.50122e+1, 1.4573592e+2, -1417473.4, -1477947.0, -70333.71, 0.058748323, -0.13229237, -1371152.4, 140624.33, 0.00036888671, 10.000672, 9.999937 
9.501041e+1, 1.5573633e+2, -1333563.5, -1410002.4, -37318.645, 0.07304089, -0.10776602, -1318365.6, 95408.23, 0.00007923838, 10.000686, 9.99972 
9.5009923e+1, 1.6573681e+2, -1241117.0, -1307173.0, 58955.504, 0.04363956, -0.028305132, -1206568.4, 109201.28, 0.0000051224774, 10.000619, 9.99978 
9.501055e+1, 1.7573641e+2, -1162016.9, -1227508.3, 54485.39, -0.015558949, -0.07951608, -1131194.1, 86579.44, 0.00000007826353, 10.000531, 9.999695 
9.501093e+1, 1.8573557e+2, -1054535.0, -1200453.1, -20791.896, -0.00031320786, -0.0922174, -1051630.1, 68152.01, 0.0, 10.000913, 9.999031 
9.5011e+1, 1.9573449e+2, -841970.3, -1048715.0, -3810.6372, 0.047490984, -0.136657, -841900.1, 179893.2, 0.0, 10.001702, 9.99902 
9.5010996e+1, 2.0573425e+2, -742909.6, -886443.75, 26802.822, 0.00929066, -0.086941, -738067.94, 185727.17, 0.0, 10.001452, 9.999573 
9.5010895e+1, 2.1573432e+2, -790735.44, -871914.7, 32455.729, -0.097677946, -0.068279594, -779354.94, 46438.35, 0.0, 10.000502, 9.999463 
9.501202e+1, 2.2573367e+2, -720260.8, -837391.44, 28864.818, -0.091791816, -0.048932057, -713533.94, 14265.513, 0.0, 10.000546, 9.998988 
9.5014185e+1, 2.3573235e+2, -516801.4, -705051.8, 43613.066, 0.0074729607, -0.11144584, -507188.22, 122624.805, 0.0, 10.001322, 9.998861 
9.501579e+1, 2.4573138e+2, -376530.44, -613770.6, 25518.28, 0.06824809, -0.076210454, -373816.66, 158006.28, 0.0, 10.001732, 9.998617 
9.501692e+1, 2.557305e+2, -252982.86, -511815.88, 32949.8, 0.085972585, -0.0609872, -248854.17, 184977.72, 0.0, 10.001929, 9.998556 
9.501679e+1, 2.657287e+2, -146695.86, -394950.7, -26411.361, 0.09002305, -0.0963765, -143917.11, 191929.72, 0.0000000017799018, 10.001932, 9.998683 
9.501585e+1, 2.7572608e+2, -111252.9, -345375.28, 30447.023, 0.092895046, -0.26092324, -107358.13, 130509.99, 0.0000005677249, 10.00157, 9.9985285 
9.5015544e+1, 2.8572467e+2, -96430.7, -405577.1, 67553.836, 0.075793765, -0.1907327, -82313.67, 57567.5, 0.0000064583187, 10.00154, 9.997441 
9.501571e+1, 2.9572397e+2, 42848.37, -281692.1, 50879.863, 0.025917193, -0.0444929, 50638.098, 92528.54, 0.000029725905, 10.001777, 9.997512 
9.501585e+1, 3.0571917e+2, 127046.17, -235347.03, -7388.3926, -0.023790749, -0.2667448, 127196.74, 127196.74, 0.0001135958, 10.002113, 9.997343 
9.5016307e+1, 3.1571695e+2, 250445.92, 99845.63, -34485.715, -0.033712935, -0.24800688, 257967.13, 257967.13, 0.00032168903, 10.00169, 9.999854 
1.05010204e+2, 1.2573272e+2, -1594816.3, -1652076.6, 106651.7, 0.06298279, -0.23868595, -1513018.8, 194790.98, 0.0015480418, 10.000688, 10.000088 
1.05011545e+2, 1.3573603e+2, -1532162.4, -1445397.3, 61780.05, -0.025329677, -0.0579342, -1413289.3, 196484.8, 0.00087241904, 9.999975, 10.00118 
1.0501266e+2, 1.457358e+2, -1492144.3, -1501727.0, -56457.523, 0.075177915, -0.14162132, -1440275.1, 71501.3, 0.0003471946, 10.000126, 10.000025 
1.0501103e+2, 1.5573657e+2, -1280753.4, -1391285.3, -84150.23, 0.058759544, -0.0786105, -1235343.6, 178427.38, 0.000073446034, 10.001076, 9.999662 
1.0501063e+2, 1.6573682e+2, -1202206.5, -1327379.5, -1082.8112, 0.03874465, 0.00058005383, -1202197.3, 113573.28, 0.000004420773, 10.001075, 9.999409 
1.0501145e+2, 1.7573589e+2, -1212099.8, -1289596.8, -34502.523, 0.03822713, -0.06840062, -1198965.0, 18816.469, 0.000000050630582, 10.000366, 9.999341 
1.05012074e+2, 1.8573521e+2, -1083511.5, -1166535.6, -26161.426, 0.049433883, -0.070614815, -1075955.5, 43832.59, 0.0, 10.000519, 9.999447 
1.0501244e+2, 1.9573483e+2, -899939.0, -1033207.06, -9924.473, 0.05802075, -0.085923135, -899204.0, 122586.555, 0.0, 10.001136, 9.999388 
1.0501238e+2, 2.0573445e+2, -794722.6, -949441.0, 9264.056, 0.02174438, -0.0499046, -794169.9, 129623.52, 0.0, 10.001263, 9.999231 
1.0501212e+2, 2.1573378e+2, -751038.06, -882588.5, -21506.902, -0.037492067, -0.07020187, -747611.2, 78188.19, 0.0, 10.000909, 9.99919 
1.0501315e+2, 2.2573301e+2, -655730.4, -771489.06, 40583.93, -0.040740333, -0.067859836, -642919.75, 84886.1, 0.0, 10.000829, 9.999322 
1.05015256e+2, 2.3573205e+2, -552024.5, -686969.0, 42777.902, 0.011149433, -0.12233831, -539606.5, 90207.36, 0.0, 10.000933, 9.999183 
1.0501722e+2, 2.457311e+2, -444628.3, -654017.3, 53362.703, 0.06777605, -0.09811163, -431813.16, 100010.81, 0.0, 10.001298, 9.998551 
1.0501916e+2, 2.557299e+2, -273462.84, -522833.47, 31107.309, 0.13010252, -0.106493935, -269640.97, 164196.64, 0.0, 10.001813, 9.998529 
1.0501918e+2, 2.657287e+2, -119387.35, -347517.06, -57248.3, 0.14040619, -0.100427195, -105827.13, 230021.02, 0.00000000014537505, 10.001993, 9.998973 
1.0501792e+2, 2.7572724e+2, -37608.66, -283270.5, -82875.26, 0.13247068, -0.17114778, -12264.877, 225593.34, 0.00000042821608, 10.001978, 9.9987545 
1.0501777e+2, 2.8572574e+2, 11344.903, -388472.38, 11578.721, 0.10968607, -0.10703017, 11679.942, 151552.31, 0.0000059800022, 10.002407, 9.997153 
1.0501845e+2, 2.9572397e+2, 209613.5, -239562.56, 15052.629, 0.06963456, -0.039230045, 210117.38, 252008.77, 0.000029321069, 10.003072, 9.997186 
1.0501837e+2, 3.0571824e+2, 151732.45, -267527.8, -20034.854, 0.010721834, -0.3208273, 152687.66, 152687.66, 0.000109980174, 10.002481, 9.99694 
1.0501778e+2, 3.1571713e+2, 139848.1, 59164.938, -56946.063, -0.00030181953, -0.15268862, 169294.03, 169294.03, 0.0003078243, 10.000875, 9.999966 
1.15011536e+2, 1.2573417e+2, -1619575.3, -1717322.1, 42152.066, 0.048616532, -0.13433047, -1603908.8, 103885.95, 0.0014882531, 10.000739, 9.9996195 
1.1501152e+2, 1.3573469e+2, -1549755.0, -1491506.0, 47741.625, -0.06282107, -0.19223428, -1464706.5, 145079.05, 0.000840427, 10.000015, 10.000842 
1.1501263e+2, 1.4573431e+2, -1523538.8, -1552235.3, -37080.91, 0.019544896, -0.25720894, -1498126.9, 13662.752, 0.00033535642, 10.000059, 9.999711 
1.1501155e+2, 1.5573578e+2, -1302757.9, -1437181.3, -34668.043, -0.03561888, -0.09731324, -1294343.6, 119435.695, 0.0000716502, 10.001087, 9.999336 
1.1501111e+2, 1.6573589e+2, -1238313.9, -1400880.8, -39908.055, -0.05839208, 0.008861536, -1229045.4, 86736.73, 0.0000041980056, 10.001059, 9.998919 
1.1501141e+2, 1.7573428e+2, -1237135.8, -1340280.1, -44368.92, -0.039149027, -0.08090342, -1220676.4, -2874.9158, 0.000000024917117, 10.0003605, 9.998996 
1.1501225e+2, 1.857341e+2, -1040789.0, -1052176.5, -16023.956, -0.013993272, -0.06082351, -1029477.25, 90324.945, 0.0, 10.000408, 10.00029 
1.1501335e+2, 1.9573495e+2, -855432.4, -928063.0, 23973.846, -0.00034887265, -0.036641598, -848232.75, 173556.75, 0.0, 10.001079, 10.00014 
1.15013815e+2, 2.0573428e+2, -848081.7, -1034479.0, -18249.36, 0.008442975, -0.035206728, -846311.75, 77482.375, 0.0, 10.001149, 9.998704 
1.1501376e+2, 2.1573217e+2, -800135.2, -957177.75, -22415.832, 0.007553715, -0.14914152, -796998.25, 28816.49, 0.0, 10.000785, 9.99874 
1.15014695e+2, 2.2573122e+2, -639695.2, -706359.7, 31691.432, 0.0062728506, -0.17253746, -627034.06, 100787.57, 0.0, 10.000697, 9.99983 
1.15016386e+2, 2.3573093e+2, -536130.25, -626018.44, 62373.84, 0.00070497586, -0.21397, -504194.78, 125625.17, 0.0, 10.000804, 9.999665 
1.1501844e+2, 2.4573022e+2, -470101.38, -676987.2, 59644.742, 0.030147703, -0.18000501, -454137.7, 77690.23, 0.0, 10.001181, 9.998447 
1.1502085e+2, 2.5572896e+2, -302554.25, -551534.56, 59066.895, 0.08701761, -0.18090844, -289252.16, 144593.16, 0.0, 10.00168, 9.998396 
1.150208e+2, 2.6572832e+2, -161106.52, -419928.97, -69185.805, 0.075005434, -0.087131664, -143773.27, 192081.08, 0.0, 10.001928, 9.998513 
1.1501891e+2, 2.7572793e+2, -80831.67, -349849.25, -64214.84, 0.00063635234, -0.006627794, -66289.6, 171569.22, 0.0000002594802, 10.001867, 9.99836 
1.150192e+2, 2.8572616e+2, 30089.688, -328652.06, 26812.348, -0.018868325, 0.026149223, 32082.572, 171958.22, 0.000005001763, 10.002327, 9.997602 
1.1502118e+2, 2.957232e+2, 207734.48, -206353.63, 49397.78, -0.0029240916, -0.06465349, 213545.73, 255448.98, 0.000026475647, 10.002917, 9.997491 
1.1502115e+2, 3.057178e+2, 142858.53, -262995.34, -83639.516, 0.0102865165, -0.31962726, 159419.42, 159419.42, 0.000100772006, 10.002406, 9.997 
1.1501941e+2, 3.1571963e+2, 106218.24, 23716.03, -55670.74, 0.00395547, 0.122035585, 134255.56, 134255.56, 0.00028477798, 10.000742, 9.999783 
1.2501259e+2, 1.2573522e+2, -1682728.4, -1779764.8, 59767.387, 0.10797184, -0.046704706, -1654265.0, 53519.81, 0.0014562852, 10.000466, 9.999307 
1.2501253e+2, 1.3573459e+2, -1432477.5, -1493300.5, -291.3058, -0.0017578143, -0.16766943, -1432476.1, 177312.94, 0.0008261713, 10.001076, 10.000317 
1.250137e+2, 1.4573394e+2, -1384724.5, -1502676.8, -30714.834, 0.082148515, -0.2280342, -1377205.6, 134590.97, 0.00033346904, 10.001086, 9.999556 
1.2501264e+2, 1.5573499e+2, -1331650.4, -1465709.5, -53456.07, -0.020092236, -0.09456649, -1312944.8, 100845.24, 0.00007407354, 10.000949, 9.999203 
1.2501214e+2, 1.657351e+2, -1229337.0, -1376941.9, -22635.74, -0.051333047, 0.006909614, -1225943.8, 89848.01, 0.000004716059, 10.001018, 9.999117 
1.2501228e+2, 1.7573394e+2, -1120895.0, -1271162.3, -292.1393, -0.014780838, -0.053189326, -1120894.5, 96910.79, 0.000000012759114, 10.001076, 9.999144 
1.250133e+2, 1.8573362e+2, -971733.5, -1055145.0, 47642.9, 0.029940324, -0.037866876, -950120.9, 169686.72, 0.0, 10.001038, 9.999958 
1.2501496e+2, 1.9573395e+2, -904388.94, -987133.25, -29852.127, 0.07077672, -0.031208517, -894743.44, 127057.7, 0.0, 10.000894, 9.999822 
1.2501545e+2, 2.0573314e+2, -854101.0, -1015106.44, -67101.79, 0.07311481, -0.040236205, -829802.3, 94004.766, 0.0, 10.001015, 9.9988985 
1.2501511e+2, 2.1573122e+2, -723840.75, -902113.7, -44163.316, 0.049755745, -0.15249245, -713500.0, 112324.74, 0.0, 10.001235, 9.998897 
1.2501606e+2, 2.2573014e+2, -563867.0, -706650.1, 28410.242, 0.04755509, -0.17867598, -558421.75, 169411.53, 0.0, 10.001371, 9.9994955 
1.2501803e+2, 2.3572956e+2, -465399.47, -619606.7, -31350.004, 0.06412427, -0.21767272, -459269.72, 170566.28, 0.0, 10.001428, 9.999392 
1.2501991e+2, 2.4572918e+2, -449531.2, -631134.94, -19979.287, 0.069524996, -0.15847099, -447359.13, 84482.19, 0.0, 10.001157, 9.998776 
1.2502186e+2, 2.557287e+2, -430735.84, -584775.2, -11228.57, 0.08041947, -0.11483767, -429921.66, 3929.2883, 0.0, 10.000656, 9.998672 
1.2502192e+2, 2.6572803e+2, -314182.53, -498209.4, -68596.14, 0.054902863, -0.031728335, -291427.06, 44432.887, 0.0, 10.000902, 9.99846 
1.2502067e+2, 2.7572706e+2, -101921.08, -358053.84, -60849.953, 0.006644217, -0.006931478, -88199.88, 149670.53, 0.00000012209664, 10.001738, 9.998349 
1.2502125e+2, 2.857254e+2, 8976.819, -294663.78, 64062.832, -0.018907683, 0.017360346, 21939.557, 161825.7, 0.000003888246, 10.002002, 9.997987 
1.2502342e+2, 2.957232e+2, 75609.96, -222512.31, 53764.2, -0.0035522962, -0.035876572, 85009.58, 126915.65, 0.00002250982, 10.001816, 9.997903 
1.2502326e+2, 3.057189e+2, 121300.95, -230824.16, -51451.875, 0.01346229, -0.22620626, 128665.01, 128665.01, 0.000088219014, 10.002027, 9.997436 
1.2502114e+2, 3.1572106e+2, 310622.63, 77797.98, -31750.744, 0.039606217, 0.20900123, 314874.88, 314874.88, 0.00025421134, 10.002327, 9.999404 
1.3501252e+2, 1.2573576e+2, -1704475.1, -1818003.1, 33057.645, -0.019690553, 0.008616236, -1695550.8, 12230.935, 0.0014504807, 10.000437, 9.999059 
1.3501401e+2, 1.3573575e+2, -1468823.9, -1577267.4, 29623.418, 0.0005500712, 0.011534441, -1461259.4, 148525.13, 0.0008289551, 10.00112, 9.999713 
1.3501538e+2, 1.4573476e+2, -1387917.6, -1519561.5, -54448.324, 0.09871284, -0.048192695, -1368316.1, 143480.02, 0.0003411424, 10.001116, 9.999432 
1.3501392e+2, 1.5573415e+2, -1334857.1, -1469881.1, -44136.188, -0.02326276, -0.06946627, -1321710.1, 92093.25, 0.00008049032, 10.000929, 9.99919 
1.3501325e+2, 1.6573441e+2, -1182912.1, -1249417.6, -35190.55, -0.06985945, -0.0010815618, -1167748.8, 148051.11, 0.0000062176173, 10.000897, 10.000044 
1.3501345e+2, 1.7573485e+2, -1077473.4, -1167007.9, 17701.135, -0.03961537, 0.0076482138, -1074100.9, 143692.05, 0.000000017143847, 10.001033, 9.99987 
1.350147e+2, 1.8573388e+2, -1087820.9, -1287795.6, 29791.564, 0.028080469, 0.008045536, -1083477.0, 36325.67, 0.0, 10.000985, 9.998391 
1.3501668e+2, 1.9573179e+2, -1009635.1, -1191618.1, -18990.676, 0.11554957, -0.07495834, -1007674.44, 14151.005, 0.0, 10.000825, 9.998453 
1.3501687e+2, 2.0573097e+2, -808135.5, -894640.06, -73533.61, 0.08460992, -0.06757336, -766076.9, 157755.52, 0.0, 10.000903, 9.9997835 
1.3501568e+2, 2.1573085e+2, -691195.4, -803470.9, -20623.082, -0.04847352, -0.090360954, -687527.1, 138302.86, 0.0, 10.001099, 9.999642 
1.3501683e+2, 2.2572978e+2, -664328.9, -889736.5, 16710.965, -0.04342574, -0.084232256, -663096.7, 64743.965, 0.0, 10.001254, 9.998297 
1.350197e+2, 2.3572786e+2, -556973.56, -780939.7, -17609.703, 0.055482194, -0.1416472, -555597.44, 74265.43, 0.0, 10.001296, 9.998348 
1.3502122e+2, 2.457278e+2, -408714.38, -523174.28, -50550.758, 0.05428437, -0.042710163, -389585.66, 142279.61, 0.0, 10.00106, 9.999563 
1.3502178e+2, 2.55729e+2, -397186.2, -483326.34, -11315.102, -0.02524429, 0.087620825, -395724.7, 38129.938, 0.0, 10.000521, 9.99943 
1.3502222e+2, 2.657278e+2, -304227.1, -459690.2, -49789.492, -0.03752981, 0.06487964, -289648.38, 46216.758, 0.0, 10.000829, 9.998757 
1.3502266e+2, 2.757245e+2, -98122.9, -319295.22, -19065.588, -0.0014383895, -0.17372133, -96491.43, 141402.89, 0.000000046518082, 10.001608, 9.998675 
1.3502355e+2, 2.8572333e+2, 31703.936, -239019.03, 44662.867, -0.024279678, -0.13748898, 38881.93, 178787.17, 0.0000029362805, 10.001962, 9.998388 
1.3502473e+2, 2.957238e+2, 94700.414, -162409.39, 64826.36, -0.09486256, 0.030946298, 110120.58, 152022.73, 0.000019015239, 10.001717, 9.998367 
1.3502422e+2, 3.0572134e+2, 173826.2, -101947.69, -49067.81, -0.1188, -0.04510902, 182296.56, 182296.56, 0.000075927965, 10.001956, 9.998346 
1.3502212e+2, 3.1572142e+2, 245133.8, -23903.8, 42107.984, -0.1625867, 0.10508138, 251570.28, 251570.28, 0.0002226974, 10.002184, 9.998774 
1.4501375e+2, 1.2573466e+2, -1535656.9, -1752615.0, 55138.234, 0.015852723, -0.090706855, -1522448.1, 185343.27, 0.0014659849, 10.001684, 9.998905 
1.450149e+2, 1.3573574e+2, -1605713.5, -1692871.6, -1446.1039, 0.023603339, 0.0709211, -1605689.5, 4098.2983, 0.0008466132, 10.000402, 9.999258 
1.450163e+2, 1.4573507e+2, -1512327.9, -1533724.5, -5777.735, 0.14016134, 0.04641245, -1510867.4, 928.7766, 0.00035647568, 10.000063, 9.999844 
1.4501484e+2, 1.5573418e+2, -1367752.3, -1440902.1, 16269.763, 0.007035869, -0.04791069, -1364296.8, 49506.227, 0.00008921642, 10.000512, 9.99959 
1.4501439e+2, 1.6573405e+2, -1184829.1, -1278714.6, 29937.902, -0.041859977, -0.02382033, -1176095.1, 139706.88, 0.000008328298, 10.001008, 9.9997835 
1.4501502e+2, 1.7573416e+2, -1026318.8, -1172658.6, -37419.785, -0.0013046844, -0.024638684, -1017305.5, 200493.13, 0.0000000715251, 10.001509, 9.999601 
1.4501627e+2, 1.8573302e+2, -1012598.94, -1272669.6, 847.75653, 0.06380413, -0.017842768, -1012596.1, 107214.65, 0.0, 10.001599, 9.99821 
1.450178e+2, 1.957308e+2, -948016.8, -1186395.6, 25825.691, 0.13101366, -0.08944261, -945250.94, 76584.9, 0.0, 10.001342, 9.998258 
1.4501798e+2, 2.0573016e+2, -779301.44, -887879.9, 9288.087, 0.10019139, -0.0530842, -778512.6, 145329.78, 0.0, 10.001134, 9.999712 
1.4501707e+2, 2.1573047e+2, -724760.06, -827761.2, -39663.05, -0.00034985613, -0.02478901, -711257.06, 114579.92, 0.0, 10.00091, 9.99956 
1.4501834e+2, 2.2572967e+2, -708818.1, -902198.7, 51616.598, 0.0064797495, 0.008339942, -695903.25, 31942.578, 0.0, 10.000926, 9.998369 
1.4502126e+2, 2.3572785e+2, -574559.8, -784809.06, 79612.2, 0.096969225, -0.042230163, -547815.94, 82051.414, 0.0, 10.001158, 9.998396 
1.4502238e+2, 2.457275e+2, -379091.22, -501661.56, 67282.14, 0.0648845, 0.021943774, -349366.72, 182504.73, 0.0, 10.001227, 9.999636 
1.4502223e+2, 2.557281e+2, -295107.3, -421979.9, 27916.662, -0.05445735, 0.087664455, -289236.28, 144627.77, 0.0, 10.001177, 9.999535 
1.4502314e+2, 2.657268e+2, -199820.89, -376883.5, 25663.342, -0.04880353, 0.03555499, -196176.28, 139697.44, 0.0, 10.001398, 9.99906 
1.4502485e+2, 2.7572384e+2, -46227.145, -269799.03, 25347.238, 0.05611912, -0.19641699, -43389.445, 194509.11, 0.00000002138944, 10.00184, 9.998921 
1.4502573e+2, 2.8572282e+2, -10429.786, -278393.06, 58138.918, 0.01751008, -0.15018116, 1640.6666, 141549.72, 0.0000023054517, 10.001746, 9.998221 
1.4502594e+2, 2.9572335e+2, 29268.438, -195807.7, 2958.483, -0.11186143, 0.040373515, 29307.318, 71214.63, 0.000016570593, 10.001284, 9.998334 
1.4502552e+2, 3.0572155e+2, 143133.55, -47166.355, -81514.445, -0.14611532, -0.005888723, 173275.73, 173275.73, 0.0000664134, 10.001467, 9.998946 
1.4502436e+2, 3.15721e+2, 202372.92, -53161.24, -41469.402, -0.1300868, 0.030803343, 208934.31, 208934.31, 0.0001967113, 10.001942, 9.998681 
1.5501554e+2, 1.2573235e+2, -1530816.3, -1770416.3, -27532.197, -0.051430713, -0.3047141, -1527693.3, 180116.0, 0.0014879738, 10.001786, 9.998746 
1.5501475e+2, 1.3573463e+2, -1630742.6, -1750032.3, -38709.258, -0.06713351, 0.027277153, -1619282.5, -9484.424, 0.0008684092, 10.000417, 9.998869 
1.5501592e+2, 1.4573494e+2, -1445732.0, -1382522.6, -7131.8555, 0.057551295, 0.06214236, -1381728.0, 130068.305, 0.00037251608, 10.000014, 10.000901 
1.5501481e+2, 1.5573512e+2, -1311526.6, -1312106.3, 47688.64, -0.08362449, -0.029844228, -1264127.0, 149661.2, 0.00009664872, 10.000472, 10.000485 
1.5501513e+2, 1.6573416e+2, -1295759.5, -1497676.5, 34968.613, -0.1036619, -0.053010505, -1289875.0, 25921.531, 0.000009881803, 10.000954, 9.998315 
1.5501665e+2, 1.7573202e+2, -1125365.0, -1362041.5, -5378.992, -0.02047522, -0.13204038, -1125242.8, 92577.95, 0.00000020107916, 10.001438, 9.99834 
1.5501758e+2, 1.857311e+2, -944961.5, -1114456.5, -22262.873, 0.007004964, -0.104069345, -942086.1, 177744.9, 0.0, 10.001519, 9.999336 
1.5501794e+2, 1.9573094e+2, -894079.25, -1051991.6, 32548.22, -0.021169426, -0.081840426, -887633.6, 134198.84, 0.0, 10.001255, 9.999219 
1.5501837e+2, 2.0573066e+2, -868133.94, -1048352.7, -10771.362, -0.0044976133, 0.0045972182, -867492.44, 56344.563, 0.0, 10.001023, 9.99867 
1.5501876e+2, 2.1573013e+2, -805361.4, -962038.0, -33530.035, 0.04638492, 0.05116581, -798487.25, 27358.096, 0.0, 10.000768, 9.998708 
1.5502018e+2, 2.2572982e+2, -639111.4, -734789.6, 47282.668, 0.06735963, 0.10698465, -619688.06, 108160.55, 0.0, 10.000818, 9.999574 
1.5502234e+2, 2.3572947e+2, -516369.28, -639091.2, 102243.5, 0.059781227, 0.08319534, -458487.22, 171362.9, 0.0, 10.0010395, 9.999457 
1.5502304e+2, 2.457282e+2, -434911.16, -597005.44, 51197.605, -0.021135684, 0.036742065, -420094.7, 111765.734, 0.0, 10.001138, 9.999023 
1.5502277e+2, 2.5572595e+2, -353719.72, -515179.4, 42967.74, -0.15003444, -0.12125537, -342997.22, 90882.76, 0.0, 10.001045, 9.998962 
1.5502419e+2, 2.657251e+2, -191405.75, -340985.25, 30048.668, -0.113278076, -0.1168537, -185595.08, 150290.67, 0.0, 10.001325, 9.999337 
1.5502682e+2, 2.7572504e+2, -54757.305, -258327.52, 57119.453, 0.039564434, -0.08631216, -39825.49, 198058.44, 0.000000019825112, 10.001714, 9.99906 
1.5502743e+2, 2.8572378e+2, -68841.1, -391349.44, 29096.537, -0.018796874, -0.027351154, -66237.05, 73661.19, 0.0000019865888, 10.001704, 9.997469 
1.5502667e+2, 2.9572177e+2, -25725.887, -289266.28, 4459.911, -0.21153457, -0.01818535, -25650.434, 16272.63, 0.000014949104, 10.001183, 9.997747 
1.5502675e+2, 3.0571952e+2, 151932.64, -4896.2837, -72829.1, -0.19808239, -0.10277143, 180536.44, 180536.44, 0.000059797247, 10.001389, 9.999255 
1.5502682e+2, 3.1571972e+2, 203380.16, -6975.5977, 32963.59, -0.14106083, -0.021672055, 208424.7, 208424.7, 0.00017773658, 10.001775, 9.9990635 
1.6501778e+2, 1.2573254e+2, -1658011.5, -1785507.9, -42337.293, 0.059907995, -0.22797748, -1645233.4, 62577.297, 0.0014964563, 10.00071, 9.999155 
1.6501498e+2, 1.3573392e+2, -1592328.8, -1717215.8, -54885.18, -0.083046295, -0.010841554, -1571636.4, 38168.47, 0.0008776996, 10.000598, 9.999014 
1.6501583e+2, 1.4573367e+2, -1383233.5, -1364966.1, 17216.139, 0.03309439, -0.02959778, -1354610.9, 157196.4, 0.00037921302, 10.000521, 10.000769 
1.6501543e+2, 1.5573448e+2, -1286919.4, -1316429.8, -51113.5, -0.07145547, -0.04505074, -1248474.0, 165319.58, 0.00009882513, 10.0007105, 10.000343 
1.6501634e+2, 1.6573367e+2, -1310987.8, -1499815.4, -8923.941, -0.060168166, -0.049230818, -1310567.0, 5234.0405, 0.000009884257, 10.000821, 9.998359 
1.6501838e+2, 1.7573132e+2, -1207473.3, -1394922.0, 33679.69, 0.04788458, -0.1538916, -1201605.5, 16221.612, 0.0000002904704, 10.000837, 9.9984 
1.6501917e+2, 1.8573065e+2, -1001065.1, -1129567.6, 46257.03, 0.04318375, -0.11091352, -986146.06, 133689.33, 0.0, 10.001101, 9.999412 
1.6501896e+2, 1.9573106e+2, -846325.56, -1021488.7, -4235.413, -0.050928187, -0.04393427, -846223.2, 175608.5, 0.0, 10.001558, 9.999263 
1.6501951e+2, 2.0573056e+2, -775161.5, -1038041.2, -26747.611, -0.024365785, 0.035199456, -772467.56, 151371.1, 0.0, 10.001831, 9.998347 
1.6502057e+2, 2.1572925e+2, -649839.4, -920057.5, -25493.229, 0.09931855, 0.038683128, -647455.3, 178399.63, 0.0, 10.001982, 9.998413 
1.6502202e+2, 2.2572869e+2, -506133.72, -665959.56, 49724.332, 0.13267313, 0.080108784, -491926.6, 235933.94, 0.0, 10.001713, 9.999615 
1.6502365e+2, 2.3572856e+2, -505729.9, -625988.06, -8925.324, 0.093312085, 0.07509038, -505071.1, 124787.95, 0.0, 10.00109, 9.999517 
1.6502415e+2, 2.4572708e+2, -458220.4, -610599.4, -33457.58, -0.010119085, 0.008879789, -451197.8, 80672.77, 0.0, 10.000995, 9.998997 
1.6502388e+2, 2.5572443e+2, -313541.8, -494653.7, -28283.451, -0.14924762, -0.18833481, -309227.66, 124665.76, 0.0, 10.0013275, 9.99896 
1.6502537e+2, 2.657238e+2, -201200.27, -378112.6, -15215.928, -0.12149573, -0.15048628, -199901.11, 135997.27, 0.0, 10.001375, 9.999063 
1.6502821e+2, 2.757243e+2, -133029.08, -314331.06, -57435.605, 0.04016107, -0.039831392, -116365.34, 121527.88, 0.000000024295247, 10.001255, 9.998882 
1.6502899e+2, 2.8572306e+2, -100968.33, -384180.94, -32801.086, -0.0076877205, 0.019109141, -97219.01, 42687.8, 0.0000019697127, 10.0014, 9.9976635 
1.6502856e+2, 2.957207e+2, 91199.914, -206036.5, -16309.314, -0.16489846, -0.02310574, 92092.125, 134024.28, 0.000013995548, 10.001871, 9.997994 
1.6502862e+2, 3.0571738e+2, 247730.97, -4698.641, -48461.38, -0.17726189, -0.20892389, 256714.83, 256714.83, 0.000055183133, 10.002199, 9.998889 
1.6502957e+2, 3.157176e+2, 288701.94, 45714.168, -22692.064, -0.051314007, -0.08226763, 290802.94, 290802.94, 0.00016346599, 10.002262, 9.999209 
1.7501943e+2, 1.2573525e+2, -1591113.5, -1643129.4, -79089.23, 0.08264012, 0.13610485, -1533865.8, 173929.53, 0.0014785845, 10.000693, 10.000135 
1.7501503e+2, 1.3573372e+2, -1547802.9, -1611230.1, -49786.406, -0.17223941, -0.035497416, -1520487.4, 89319.336, 0.00086354057, 10.000558, 9.999747 
1.750157e+2, 1.4573139e+2, -1486212.9, -1575227.3, 8882.598, -0.07253852, -0.21817939, -1485335.3, 26492.672, 0.00037008742, 10.00049, 9.999348 
1.7501625e+2, 1.5573227e+2, -1368783.5, -1482911.6, -28379.992, -0.09664354, -0.09164011, -1362115.9, 51703.242, 0.000094032526, 10.000694, 9.999208 
1.7501764e+2, 1.6573264e+2, -1202163.0, -1270297.1, -22459.367, -0.04740217, -0.00959553, -1195425.8, 120388.74, 0.000008393363, 10.000792, 9.999955 
1.7501976e+2, 1.757322e+2, -1115024.3, -1193084.0, 49479.25, 0.066716135, -0.08249327, -1091034.0, 126783.266, 0.00000020811186, 10.000794, 9.999807 
1.750206e+2, 1.8573178e+2, -1075862.4, -1272071.8, 51367.168, 0.043176573, -0.026579713, -1063228.1, 56594.875, 0.0, 10.001035, 9.998471 
1.750204e+2, 1.9573128e+2, -918250.56, -1147739.5, 25807.43, -0.09690315, 0.040895052, -915384.1, 106448.21, 0.0, 10.001459, 9.9984455 
1.7502095e+2, 2.0572993e+2, -766966.0, -997063.6, -37240.348, -0.091447905, 0.054800957, -761088.94, 162757.69, 0.0, 10.001719, 9.998685 
1.7502211e+2, 2.1572775e+2, -654347.56, -899809.7, -7632.111, 0.02574197, -0.063743085, -654110.5, 171756.16, 0.0, 10.001854, 9.998613 
1.7502342e+2, 2.2572623e+2, -597745.0, -829673.44, 13038.899, 0.07499971, -0.068572246, -597014.25, 130867.5, 0.0, 10.001595, 9.998546 
1.7502473e+2, 2.3572502e+2, -591822.8, -775761.56, -15589.874, 0.06299018, -0.07655262, -590510.8, 39384.07, 0.0, 10.000959, 9.998553 
1.7502522e+2, 2.4572417e+2, -436599.66, -545804.0, -32986.156, -0.029484712, -0.062316384, -427409.3, 104492.46, 0.0, 10.00091, 9.999478 
1.7502515e+2, 2.5572348e+2, -308305.5, -451329.13, -3393.6167, -0.18480554, -0.11260265, -308225.03, 125679.93, 0.0, 10.001189, 9.999323 
1.7502646e+2, 2.6572275e+2, -253575.23, -483023.03, -34469.027, -0.18170281, -0.061180346, -248508.97, 87403.14, 0.0, 10.0013485, 9.998357 
1.7502865e+2, 2.757216e+2, -184474.06, -402534.03, -47474.527, -0.07643989, -0.046041794, -174586.56, 63339.457, 0.000000035492793, 10.001166, 9.998324 
1.7502992e+2, 2.857207e+2, -23736.055, -218402.38, -29463.746, -0.088016085, 0.008574882, -19374.297, 120559.39, 0.0000021240596, 10.001381, 9.998805 
1.750309e+2, 2.9572016e+2, 144307.13, -66317.68, 17741.066, -0.15403247, 0.030447599, 145791.0, 187725.52, 0.000013429294, 10.001759, 9.998997 
1.7503075e+2, 3.0571508e+2, 180684.6, -141379.03, -54557.227, -0.21244857, -0.32733965, 189675.53, 189675.53, 0.000050919698, 10.002184, 9.997961 
1.7503172e+2, 3.1571513e+2, 270370.72, 44435.72, 48873.215, -0.13211998, -0.12325004, 280489.56, 280489.56, 0.00014908816, 10.002132, 9.999252 
1.8502012e+2, 1.257359e+2, -1718223.4, -1699358.5, 76924.97, 0.14100693, 0.16415375, -1631289.8, 76500.1, 0.0014297328, 9.999794, 10.000179 
1.8501644e+2, 1.3573453e+2, -1464759.3, -1553262.4, -14698.805, -0.09996195, -0.012286432, -1462381.9, 147414.64, 0.00082590414, 10.001054, 9.9999 
1.8501744e+2, 1.4573142e+2, -1396503.1, -1621270.3, 75106.97, 0.013139375, -0.23844342, -1373716.0, 138109.83, 0.00034715154, 10.001484, 9.998548 
1.8501782e+2, 1.5573156e+2, -1301444.6, -1528542.6, 51385.98, -0.0391525, -0.10900266, -1290358.5, 123468.71, 0.0000844504, 10.001484, 9.998515 
1.8501887e+2, 1.6573204e+2, -1153909.5, -1217937.6, 28707.826, -0.009508742, 0.0023622513, -1142923.1, 172899.34, 0.000006352812, 10.001033, 10.000181 
1.8502058e+2, 1.7573223e+2, -1168836.9, -1195668.3, -25061.934, 0.10077172, -0.029539, -1153825.8, 63992.383, 0.000000056960435, 10.00034, 10.0 
1.8502152e+2, 1.8573171e+2, -1160125.9, -1301493.1, 33420.34, 0.06942889, 0.0007180782, -1152623.1, -32799.27, 0.0, 10.000421, 9.998563 
1.8502165e+2, 1.9573063e+2, -976357.5, -1164153.3, 55563.91, -0.087346286, 0.0023881237, -961149.2, 60688.332, 0.0, 10.001016, 9.9985485 
1.8502265e+2, 2.0572926e+2, -800538.2, -999792.94, 31803.809, -0.06837847, 0.0019070805, -795585.0, 128266.14, 0.0, 10.001415, 9.998814 
1.8502435e+2, 2.157275e+2, -678339.4, -901973.4, 19657.383, 0.083160415, -0.089302786, -676624.7, 149242.02, 0.0, 10.001631, 9.998709 
1.8502533e+2, 2.2572584e+2, -596043.56, -874284.4, 72521.875, 0.10310637, -0.089413896, -578275.75, 149608.13, 0.0, 10.001807, 9.998139 
1.8502572e+2, 2.3572414e+2, -475978.3, -763032.8, 66757.66, 0.024853207, -0.10602097, -461212.6, 168691.4, 0.0, 10.001941, 9.998168 
1.8502639e+2, 2.4572355e+2, -321089.44, -499634.3, 80062.67, -0.03826037, -0.04336415, -290446.9, 241462.78, 0.0, 10.0017395, 9.999398 
1.8502738e+2, 2.5572363e+2, -302732.13, -457536.22, 43976.504, -0.07676765, -0.008210991, -291111.66, 142794.19, 0.0, 10.001259, 9.999246 
1.8502872e+2, 2.6572242e+2, -266614.4, -522085.38, 50052.797, -0.08894231, 0.014459843, -257157.9, 78760.13, 0.0, 10.001424, 9.998048 
1.8503018e+2, 2.7571988e+2, -55210.477, -368977.53, 36244.16, -0.08241966, -0.075905874, -51078.227, 186867.11, 0.000000044067633, 10.002192, 9.998063 
1.8503168e+2, 2.8571895e+2, 76772.37, -160356.92, 26635.467, -0.07447473, -0.018029796, 79727.36, 219679.92, 0.000002141611, 10.002, 9.9989195 
1.8503353e+2, 2.957194e+2, 42406.105, -108539.75, -34602.02, -0.019671975, 0.093259074, 49960.06, 91902.86, 0.000012353572, 10.000999, 9.999088 
1.8503286e+2, 3.0571344e+2, -224.31917, -234666.86, -46344.008, -0.14848363, -0.35500708, 8604.373, 8604.373, 0.00004451732, 10.000969, 9.9979 
1.8503435e+2, 3.1571305e+2, 240739.66, 66891.93, 84363.7, -0.04842803, -0.18761665, 274947.9, 274947.9, 0.00012893318, 10.001719, 9.999632 
1.9501911e+2, 1.257346e+2, -1795048.0, -1837696.4, 90759.77, -0.01550097, -0.1244228, -1723141.0, -15347.735, 0.0013506947, 9.99972, 9.999262 
1.9501883e+2, 1.3573633e+2, -1506559.3, -1623903.4, 35657.78, 0.00066184957, 0.06259743, -1496573.6, 113200.82, 0.00077082973, 10.001008, 9.99943 
1.9502059e+2, 1.4573373e+2, -1409943.5, -1639775.1, 56828.336, 0.13852206, -0.08558708, -1396659.8, 115141.23, 0.0003170448, 10.001434, 9.998448 
1.9501968e+2, 1.557325e+2, -1319227.3, -1557598.8, 61505.656, -0.03600812, -0.0832727, -1304292.9, 109523.63, 0.000073711046, 10.0014515, 9.998332 
1.9501959e+2, 1.6573203e+2, -1240438.5, -1391027.4, -9139.506, -0.07215824, 0.0036118885, -1239885.9, 75937.375, 0.0000047225935, 10.000989, 9.999023 
1.950205e+2, 1.757315e+2, -1243148.9, -1341388.4, -31599.813, 0.023377264, 0.012812868, -1233862.3, -16033.113, 0.0000000036456946, 10.000298, 9.999025 
1.950215e+2, 1.8573043e+2, -1093128.1, -1146401.9, 42377.688, -0.004169783, -0.024237964, -1069711.0, 50126.766, 0.0, 10.000344, 9.99967 
1.9502237e+2, 1.9572899e+2, -918720.8, -1024214.5, 90480.15, -0.14732368, -0.16714078, -866735.2, 155113.11, 0.0, 10.000924, 9.999558 
1.9502425e+2, 2.0572853e+2, -824505.06, -1014626.7, 29361.354, -0.079996124, -0.121979594, -820073.94, 103778.42, 0.0, 10.00127, 9.998778 
1.950269e+2, 2.157285e+2, -698772.9, -912335.4, 40899.406, 0.14491159, -0.035534248, -691208.2, 134646.5, 0.0, 10.0014925, 9.998704 
1.9502737e+2, 2.2572759e+2, -604664.56, -856665.0, 63461.547, 0.10065347, 0.026741976, -589585.3, 138281.2, 0.0, 10.001662, 9.998327 
1.9502619e+2, 2.357259e+2, -488786.4, -751212.44, 83070.65, -0.15030831, -0.0073067234, -464701.03, 165185.55, 0.0, 10.001783, 9.998321 
1.9502729e+2, 2.4572517e+2, -379353.3, -593419.44, 48567.395, -0.14876756, 0.067090884, -368849.7, 163044.88, 0.0, 10.001625, 9.998808 
1.9503006e+2, 2.55725e+2, -363069.4, -546378.75, 41682.54, 0.03535914, 0.13210288, -354036.38, 79858.97, 0.0, 10.001107, 9.998707 
1.9503166e+2, 2.657229e+2, -269720.66, -520537.34, 65199.563, 0.03489724, 0.09141174, -253784.61, 82130.15, 0.0, 10.001381, 9.998087 
1.9503239e+2, 2.7571905e+2, -71649.484, -386906.4, 77821.28, -0.11168174, -0.13268313, -53485.785, 184465.92, 0.000000036761158, 10.002111, 9.997988 
1.9503391e+2, 2.857176e+2, 3361.4875, -300448.84, -22192.02, -0.08316139, -0.06541103, 4973.9595, 144938.86, 0.0000018181237, 10.001948, 9.997982 
1.950361e+2, 2.9571846e+2, -32146.645, -232705.9, -50932.855, 0.10069039, 0.17699187, -19953.344, 22002.906, 0.000010151812, 10.000877, 9.998291 
1.9503452e+2, 3.0571246e+2, 51598.234, -117075.21, -28094.582, -0.11166758, -0.2817617, 56154.64, 56154.64, 0.00003534469, 10.0009365, 9.998715 
1.9503663e+2, 3.157117e+2, 291348.25, 208266.77, 146227.17, -0.056615602, -0.2423251, 401820.72, 401820.72, 0.000103030594, 10.001592, 10.000646 
2.0501952e+2, 1.2573312e+2, -1650390.5, -1766063.0, -2494.2788, 0.019800836, -0.21118526, -1650336.8, 57469.605, 0.0012481128, 10.000715, 9.999276 
2.0502016e+2, 1.3573575e+2, -1528167.6, -1595443.1, -60873.508, 0.064663626, 0.030399462, -1492256.3, 117522.76, 0.0007037624, 10.000673, 9.999806 
2.0502216e+2, 1.4573394e+2, -1526247.5, -1663723.6, 23562.38, 0.20753546, -0.070894994, -1522321.3, -10523.331, 0.00028324383, 10.000507, 9.99873 
2.0502065e+2, 1.5573284e+2, -1431501.0, -1587248.8, 17838.85, -0.03161054, -0.08103199, -1429484.0, -15672.202, 0.000063005726, 10.000577, 9.9985485 
2.0502037e+2, 1.6573206e+2, -1277227.5, -1456256.1, 14175.508, -0.082191154, -0.012263109, -1276112.0, 39709.684, 0.0000035155435, 10.000946, 9.998599 
2.0502141e+2, 1.757309e+2, -1105049.4, -1320782.3, 15807.231, 0.035387035, -0.01723103, -1103897.3, 113937.484, 0.0000000004928599, 10.001443, 9.99862 
2.0502263e+2, 1.8572974e+2, -929123.56, -1053217.1, 104126.836, 0.0277441, -0.05374949, -869959.0, 249885.22, 0.0, 10.00141, 9.999793 
2.0502381e+2, 1.9572854e+2, -903214.0, -1006055.9, 50811.887, -0.08990844, -0.18254131, -882344.1, 139506.89, 0.0, 10.000977, 9.999656 
2.0502569e+2, 2.0572825e+2, -870802.25, -1029506.4, -4260.266, -0.038484976, -0.13158067, -870687.94, 53165.82, 0.0, 10.000922, 9.998845 
2.0502818e+2, 2.1572831e+2, -752002.25, -928232.5, -9781.251, 0.1509341, -0.03952093, -751461.0, 74394.93, 0.0, 10.001095, 9.998786 
2.0502874e+2, 2.257277e+2, -649776.25, -854482.25, 40884.746, 0.101796575, 0.03798207, -641912.6, 85952.08, 0.0, 10.001237, 9.9985485 
2.0502794e+2, 2.3572642e+2, -544792.0, -763748.1, 35011.336, -0.12258913, 0.021364842, -539329.9, 90550.27, 0.0, 10.001318, 9.998466 
2.0502923e+2, 2.4572536e+2, -452146.38, -681998.0, 18079.355, -0.09574615, 0.082002655, -450733.0, 81158.84, 0.0, 10.001356, 9.998327 
2.0503211e+2, 2.557243e+2, -350317.4, -589663.56, -6859.1885, 0.12210385, 0.11091047, -350121.0, 83781.41, 0.0, 10.001411, 9.998261 
2.0503351e+2, 2.6572207e+2, -278634.5, -507227.06, 66215.05, 0.09565751, 0.06444482, -260839.63, 75083.77, 0.0, 10.001247, 9.998236 
2.0503378e+2, 2.7571854e+2, -237813.55, -452025.03, 55163.02, -0.11472411, -0.14408323, -224442.75, 13513.031, 0.00000002096579, 10.000915, 9.998106 
2.0503578e+2, 2.8571707e+2, -113882.086, -382712.38, 12292.303, -0.04579375, -0.070624925, -113321.195, 26648.705, 0.0000012828043, 10.001278, 9.997731 
2.0503914e+2, 2.9571772e+2, 150449.36, -170937.45, 8129.1567, 0.25807133, 0.17413831, 150654.84, 192620.4, 0.000007381431, 10.002257, 9.998045 
2.0503666e+2, 3.0571216e+2, 244276.73, -61841.566, 35340.41, -0.053391892, -0.20992088, 248303.7, 248303.7, 0.00002618385, 10.002416, 9.998399 
2.0503843e+2, 3.1571117e+2, 313482.53, 215700.61, 46239.344, -0.031688392, -0.15958692, 331885.0, 331885.0, 0.000078949044, 10.001784, 10.0006 
2.1502033e+2, 1.2573135e+2, -1593268.5, -1634633.0, -30153.102, -0.04249821, -0.103058465, -1577386.3, 130443.88, 0.0011286415, 10.000654, 10.000211 
2.1502012e+2, 1.3573287e+2, -1430297.6, -1402491.3, -50392.336, -0.041063037, -0.10679365, -1364119.3, 245690.08, 0.00062779407, 10.00071, 10.001116 
2.1502173e+2, 1.4573224e+2, -1493073.6, -1588330.3, 9017.885, 0.07280303, -0.180464, -1492227.5, 19586.727, 0.00024660726, 10.000475, 9.999262 
2.1502033e+2, 1.557327e+2, -1391768.5, -1509050.4, 37007.08, -0.15938185, -0.09046645, -1381067.6, 32743.605, 0.000052325075, 10.000588, 9.99908 
2.1502075e+2, 1.6573218e+2, -1269971.6, -1427415.4, 19620.408, -0.16868028, -0.033840347, -1267563.4, 48254.176, 0.000002586899, 10.000885, 9.998825 
2.1502289e+2, 1.7573042e+2, -1102971.0, -1299930.4, 46877.535, 0.008265708, -0.12564053, -1092383.0, 125452.24, 0.000000000052014764, 10.001378, 9.998788 
2.1502444e+2, 1.8572956e+2, -1006696.2, -1193994.8, 76072.1, 0.040648952, -0.08981892, -979692.5, 140151.14, 0.0, 10.001314, 9.998876 
2.1502557e+2, 1.9572923e+2, -966789.75, -1126154.3, 51518.273, -0.044586375, -0.04687763, -951585.75, 70260.555, 0.0, 10.000917, 9.99886 
2.1502663e+2, 2.0572837e+2, -873417.4, -1009738.56, -11037.195, -0.06380343, -0.025042705, -872529.5, 51325.83, 0.0, 10.0008135, 9.999032 
2.1502776e+2, 2.1572687e+2, -756848.8, -908502.94, 7808.3784, -0.029081233, -0.109919876, -756447.9, 69423.38, 0.0, 10.000964, 9.998983 
2.1502909e+2, 2.257261e+2, -655864.06, -828678.0, 31603.375, -0.013365888, -0.06948616, -650265.94, 77613.74, 0.0, 10.001079, 9.998797 
2.1503054e+2, 2.3572576e+2, -555632.4, -744275.3, 53476.203, -0.022625295, -0.018611109, -541527.6, 88356.49, 0.0, 10.001143, 9.998678 
2.1503186e+2, 2.4572425e+2, -493162.0, -750018.25, 7173.2607, 0.0021608805, 0.008890068, -492961.8, 38938.43, 0.0, 10.001278, 9.997901 
2.1503314e+2, 2.5572172e+2, -394312.75, -651635.1, 8978.763, 0.053630788, -0.066200286, -393999.84, 39926.52, 0.0, 10.001285, 9.997899 
2.1503383e+2, 2.6571995e+2, -274140.94, -479844.88, 39997.72, -0.027724821, -0.06138108, -266637.38, 69306.14, 0.0, 10.001172, 9.998454 
2.1503392e+2, 2.7571827e+2, -241559.75, -430091.38, 60896.35, -0.22579664, -0.106502205, -223600.75, 14357.342, 0.00000000626477, 10.000786, 9.998317 
2.1503693e+2, 2.8571722e+2, -80787.68, -307836.25, 34902.69, -0.09238498, -0.0318943, -75543.445, 64424.84, 0.00000075455597, 10.001251, 9.998259 
2.1504234e+2, 2.9571706e+2, 158873.64, -136401.67, 55286.64, 0.31640682, 0.08847148, 168885.88, 210856.67, 0.0000049684672, 10.002183, 9.998321 
2.1503899e+2, 3.0571246e+2, 135268.98, -289009.4, 1489.3909, -0.089229524, -0.12865941, 135274.22, 135274.22, 0.000019575336, 10.002414, 9.996842 
2.1503909e+2, 3.1571147e+2, 206780.94, 15166.504, 26660.049, -0.20997071, 0.068522975, 210421.11, 210421.11, 0.00006230811, 10.001692, 9.999271 
2.2502127e+2, 1.2573124e+2, -1779684.4, -1745951.6, 192755.8, 0.06298718, -0.0408312, -1569325.6, 138505.95, 0.0009987325, 9.999449, 10.0000305 
2.2501999e+2, 1.3573211e+2, -1548559.1, -1458081.9, -15190.478, -0.07286944, -0.108246036, -1455599.6, 154220.34, 0.0005469882, 9.999907, 10.001108 
2.2502157e+2, 1.4573213e+2, -1502441.5, -1538783.0, 34140.04, 0.033438012, -0.14366518, -1481937.8, 29879.984, 0.00020906689, 10.000184, 9.999751 
2.2502153e+2, 1.5573253e+2, -1370168.0, -1450024.1, 31143.352, -0.087149195, -0.10450616, -1359458.6, 54353.758, 0.000042237294, 10.000538, 9.999515 
2.2502239e+2, 1.6573204e+2, -1255486.5, -1421373.8, 37913.164, -0.09258999, -0.06318291, -1247232.3, 68584.97, 0.0000020119714, 10.000991, 9.998804 
2.250241e+2, 1.7573044e+2, -1096082.6, -1304763.1, 11005.572, -0.0033973241, -0.13813783, -1095503.8, 122329.98, 0.0, 10.001459, 9.998708 
2.2502564e+2, 1.8572953e+2, -1018172.44, -1229538.9, 49762.656, 0.031265445, -0.08928652, -1007042.7, 112800.8, 0.0, 10.001363, 9.998609 
2.2502697e+2, 1.9572906e+2, -1012713.7, -1175490.5, 44802.793, 0.018819965, -0.03266726, -1001196.94, 20651.965, 0.0, 10.000734, 9.9986105 
2.2502789e+2, 2.0572802e+2, -889301.3, -1018296.94, 45719.305, -0.0071945605, -0.0139105925, -874740.8, 49118.727, 0.0, 10.000702, 9.99904 
2.250286e+2, 2.1572632e+2, -746814.5, -905795.06, 28785.234, -0.037412655, -0.1192863, -741763.1, 84113.45, 0.0, 10.001036, 9.998976 
2.2503012e+2, 2.2572535e+2, -617121.44, -825621.25, 53251.152, -0.026900623, -0.09225411, -604308.44, 123578.09, 0.0, 10.001403, 9.998665 
2.2503226e+2, 2.3572478e+2, -477761.13, -719226.9, 17906.797, 0.015565992, -0.050067753, -476440.4, 153452.53, 0.0, 10.001736, 9.998564 
2.2503373e+2, 2.457232e+2, -399383.78, -712867.44, -3164.21, 0.03483222, -0.020277653, -399351.84, 132558.05, 0.0, 10.001956, 9.997829 
2.2503467e+2, 2.5572067e+2, -273839.03, -605306.3, -5667.826, 0.04339666, -0.0896843, -273742.13, 160194.67, 0.0, 10.002145, 9.997811 
2.2503527e+2, 2.657192e+2, -164887.25, -417366.5, 39854.387, -0.029454103, -0.053551245, -158745.55, 177205.72, 0.0, 10.001882, 9.998544 
2.2503558e+2, 2.7571824e+2, -148641.77, -373832.84, 26394.797, -0.15844803, -0.04038363, -145589.38, 92369.93, 0.00000000006385136, 10.001372, 9.998422 
2.250385e+2, 2.8571707e+2, -123810.55, -332862.0, 27704.938, -0.037878882, 0.021350907, -120201.21, 19769.469, 0.00000032397858, 10.000963, 9.998228 
2.2504339e+2, 2.9571626e+2, -80530.84, -262223.8, -23510.754, 0.29068553, 0.07235744, -77537.89, -35557.223, 0.000003287384, 10.000586, 9.9982195 
2.2504029e+2, 3.0571207e+2, -63868.07, -381304.22, 5724.3516, -0.119275406, -0.092794955, -63764.875, -63764.875, 0.00001601569, 10.001039, 9.996864 
2.2504216e+2, 3.1571156e+2, 239384.02, 508.656, 62109.195, -0.07402031, 0.13952585, 254567.7, 254567.7, 0.000054019332, 10.002041, 9.999002 
2.3502173e+2, 1.2573272e+2, -1877897.8, -1946457.8, 181054.47, 0.08988281, -0.03992269, -1727906.6, -20094.844, 0.0008678289, 9.999443, 9.998659 
2.3501928e+2, 1.3573332e+2, -1641626.4, -1663167.3, 2255.6755, -0.16654977, 0.029867416, -1641392.6, -31580.605, 0.00046623294, 9.999942, 9.999693 
2.3502114e+2, 1.4573336e+2, -1478423.3, -1463406.3, 30741.244, -0.059285067, 0.03015864, -1439269.8, 72541.08, 0.00017258529, 10.000083, 10.000317 
2.3502386e+2, 1.5573218e+2, -1341506.9, -1385102.8, 62164.004, 0.05662523, -0.13751565, -1297429.8, 116386.34, 0.000033446406, 10.000516, 9.999974 
2.3502484e+2, 1.6573147e+2, -1295192.3, -1482523.9, 41099.54, 0.020076923, -0.116993375, -1286572.0, 29250.178, 0.0000017722703, 10.000905, 9.998427 
2.3502475e+2, 1.7573076e+2, -1122389.4, -1346335.4, 39301.297, -0.11835946, -0.06784582, -1115692.5, 102139.62, 0.0000000001389195, 10.001403, 9.998453 
2.3502576e+2, 1.857296e+2, -1013686.4, -1193079.0, 12847.204, -0.12050615, -0.050673336, -1012771.0, 107073.21, 0.0, 10.00125, 9.998915 
2.3502749e+2, 1.9572793e+2, -1004906.7, -1143514.3, 35599.15, -0.029546611, -0.13888267, -996298.25, 25561.209, 0.0, 10.000664, 9.998868 
2.3502895e+2, 2.0572712e+2, -920437.4, -1046845.8, 45218.203, 0.005499057, -0.10494395, -905927.6, 17939.736, 0.0, 10.000552, 9.998913 
2.3503026e+2, 2.1572663e+2, -780459.7, -938265.1, 56763.945, -0.0036113542, -0.07704554, -762162.7, 63709.74, 0.0, 10.0008745, 9.99883 
2.3503153e+2, 2.2572543e+2, -679602.5, -916637.06, 55696.14, -0.05299954, -0.037331633, -667167.9, 60717.52, 0.0, 10.001242, 9.998118 
2.3503278e+2, 2.3572353e+2, -531702.0, -800379.2, 45123.645, -0.13770394, -0.070658274, -524326.06, 105580.11, 0.0, 10.001602, 9.998074 
2.3503435e+2, 2.4572217e+2, -393229.06, -680180.06, -9610.094, -0.13012257, -0.010260284, -392907.6, 139014.1, 0.0, 10.001866, 9.998098 
2.3503618e+2, 2.5572106e+2, -276573.72, -577439.5, 13004.096, -0.052286882, 0.035750333, -276012.72, 157922.06, 0.0, 10.001999, 9.998073 
2.3503743e+2, 2.6571992e+2, -179151.6, -426250.34, 7072.8174, -0.029396735, 0.092895746, -178949.31, 156996.81, 0.0, 10.001798, 9.998524 
2.350384e+2, 2.7571836e+2, -169275.63, -390924.03, 24477.025, -0.045184277, 0.053304866, -166604.77, 71354.92, 0.0, 10.001258, 9.9983635 
2.3503996e+2, 2.857167e+2, -168326.92, -414780.66, 1941.6245, -0.020037651, 0.094490685, -168311.63, -28334.814, 0.00000009734078, 10.000919, 9.997685 
2.3504178e+2, 2.9571515e+2, -129059.25, -342413.4, -19610.938, 0.030995138, 0.13371396, -127271.64, -85276.625, 0.0000024854203, 10.000488, 9.997723 
2.3504008e+2, 3.0571097e+2, 55779.98, -129783.81, 36196.156, -0.27434888, -0.098239005, 62590.46, 62590.46, 0.000014818684, 10.001027, 9.998598 
2.3504683e+2, 3.1571156e+2, 288636.94, 117898.14, 95432.31, 0.12255199, 0.0681602, 331311.53, 331311.53, 0.00005156838, 10.001969, 9.999849 
2.4502183e+2, 1.2573187e+2, -1845779.1, -1912260.5, 73153.86, 0.16188127, -0.04627848, -1798667.9, -90847.22, 0.00074233726, 9.999611, 9.99881 
2.4501961e+2, 1.3573262e+2, -1669660.3, -1702494.5, -66132.09, -0.11383755, 0.06313422, -1617938.0, -8117.576, 0.00038816038, 9.999877, 9.999456 
2.4502112e+2, 1.45733e+2, -1493381.3, -1468272.3, 13299.834, -0.054129716, 0.10909801, -1462537.4, 49279.26, 0.00013769997, 9.999958, 10.0003395 
2.4502453e+2, 1.5573154e+2, -1405307.8, -1411845.4, -24302.29, 0.10693245, -0.093353845, -1384055.4, 29770.086, 0.000025817635, 10.00007, 9.999996 
2.4502599e+2, 1.6573083e+2, -1340659.9, -1469868.1, 5497.911, 0.07568713, -0.088845365, -1340426.4, -24595.357, 0.0000016011192, 10.000433, 9.998756 
2.4502625e+2, 1.7573045e+2, -1178949.8, -1338066.1, 26170.604, -0.07251098, -0.038039926, -1174755.9, 43080.316, 0.0000000006420841, 10.000859, 9.998779 
2.4502702e+2, 1.8572941e+2, -1037981.9, -1195491.1, 10954.174, -0.101575, -0.02744445, -1037223.7, 82623.11, 0.0, 10.001058, 9.9989805 
2.450281e+2, 1.9572769e+2, -950982.44, -1111733.4, -6930.6553, -0.04765617, -0.13056809, -950684.2, 71178.75, 0.0, 10.001026, 9.9988985 
2.450298e+2, 2.057268e+2, -812651.0, -1015091.06, 42919.164, 0.0021154878, -0.09278905, -803927.6, 119943.68, 0.0, 10.001383, 9.998725 
2.4503222e+2, 2.1572635e+2, -644850.7, -892775.44, 19065.848, 0.063621566, -0.04290694, -643393.06, 182482.77, 0.0, 10.0019, 9.998643 
2.4503352e+2, 2.2572497e+2, -606796.8, -906151.0, 37478.75, 0.0009352681, -0.003389271, -602175.8, 125714.99, 0.0, 10.00185, 9.997897 
2.4503401e+2, 2.3572269e+2, -578640.9, -842358.56, 28931.982, -0.15431423, -0.05222226, -575504.1, 54411.246, 0.0, 10.001372, 9.997894 
2.4503554e+2, 2.4572122e+2, -496126.94, -707248.75, 12875.064, -0.15099585, -0.005262214, -495344.66, 36586.33, 0.0, 10.0010605, 9.998309 
2.4503784e+2, 2.5572023e+2, -427003.53, -625147.06, 5006.3555, -0.02058763, 0.030624246, -426877.13, 7064.082, 0.0, 10.000873, 9.998287 
2.4503942e+2, 2.6571885e+2, -280253.9, -505110.2, 16555.633, 0.025253998, 0.067432314, -279041.47, 56913.06, 0.0, 10.001216, 9.998269 
2.4504061e+2, 2.7571693e+2, -84870.98, -373279.66, -10671.28, 0.02363727, 0.0136836665, -84476.67, 153495.78, 0.0, 10.001942, 9.998154 
2.4504176e+2, 2.8571525e+2, -27007.441, -363036.84, -9790.514, 0.024524918, 0.071784265, -26722.428, 113267.82, 0.00000009803459, 10.001961, 9.997546 
2.4504262e+2, 2.9571375e+2, 8568.191, -283907.3, -26911.566, 0.025209688, 0.12632084, 11023.79, 53032.3, 0.0000023443192, 10.001474, 9.997649 
2.450416e+2, 3.057098e+2, 169563.52, -15286.444, 71173.125, -0.24083349, -0.10155207, 193791.83, 193791.83, 0.000014153015, 10.001555, 9.999128 
2.4504977e+2, 3.1571072e+2, 237442.06, 53409.82, -58122.53, 0.24328181, 0.04605696, 254261.58, 254261.58, 0.00004937861, 10.001817, 9.999465 
2.5502062e+2, 1.2572889e+2, -1734136.8, -1673730.4, 46162.805, 0.013963323, -0.04353409, -1648768.0, 59088.344, 0.00062344765, 9.99958, 10.0004635 
2.550206e+2, 1.3572991e+2, -1594606.5, -1542994.1, -46640.44, -0.030975534, -0.02493398, -1515496.6, 94349.36, 0.0003143659, 9.999868, 10.000553 
2.5502127e+2, 1.4573099e+2, -1544570.5, -1561778.6, -823.1692, -0.075908385, 0.075251885, -1544531.3, -32695.621, 0.00010539114, 9.999905, 9.999719 
2.55023e+2, 1.5573049e+2, -1443652.6, -1481623.5, -6430.804, -0.0857002, 0.025305705, -1442593.1, -28751.666, 0.000019009012, 10.00003, 9.999533 
2.5502536e+2, 1.6573009e+2, -1276548.6, -1316114.4, 7677.611, -0.058814622, 0.021874065, -1275111.1, 40732.88, 0.0000013062046, 10.000346, 9.999851 
2.5502816e+2, 1.7572962e+2, -1116381.4, -1196906.0, 56596.527, 0.0015643329, -0.042974077, -1087187.1, 130658.3, 0.000000000635992, 10.000814, 9.999767 
2.55029e+2, 1.8572907e+2, -1063478.9, -1227946.5, -2093.8582, -0.041593596, -0.017824769, -1063452.3, 56398.01, 0.0, 10.000966, 9.998803 
2.5502825e+2, 1.9572821e+2, -974277.2, -1140801.5, 7762.205, -0.16734147, -0.0214723, -973916.1, 47944.188, 0.0, 10.000937, 9.998742 
2.5503013e+2, 2.0572703e+2, -861764.6, -1076776.0, 51267.65, -0.12902825, 0.0102795735, -850165.94, 73706.484, 0.0, 10.001214, 9.998382 
2.550341e+2, 2.1572539e+2, -686423.7, -945420.7, 48891.863, 0.033073127, -0.023482827, -677501.56, 148386.38, 0.0, 10.001759, 9.998347 
2.5503573e+2, 2.2572386e+2, -614721.4, -893710.5, 5290.8594, 0.007448838, 0.009535801, -614621.06, 113282.48, 0.0, 10.001723, 9.998044 
2.5503555e+2, 2.3572217e+2, -588662.56, -830410.3, 25900.34, -0.16677694, 0.00052204076, -585918.75, 44002.77, 0.0, 10.001227, 9.998047 
2.550369e+2, 2.4572027e+2, -500021.6, -691768.44, -8590.043, -0.14852217, -0.01192775, -499637.53, 32301.348, 0.0, 10.000964, 9.998459 
2.550393e+2, 2.55718e+2, -440676.75, -622424.06, 11175.25, 0.008152968, -0.11661803, -439992.2, -6034.3364, 0.0, 10.000737, 9.998372 
2.550408e+2, 2.657159e+2, -324459.5, -572647.44, 29959.645, 0.011736339, -0.12930351, -320894.2, 15083.027, 0.0, 10.001121, 9.9978485 
2.5504175e+2, 2.7571374e+2, -128247.64, -435997.63, 27818.957, -0.08848999, -0.16293003, -125753.17, 112245.82, 0.0, 10.00182, 9.997786 
2.5504348e+2, 2.8571254e+2, -17089.1, -326820.28, -43102.0, -0.029270295, -0.05506366, -11202.914, 128809.52, 0.00000013920514, 10.001899, 9.997822 
2.5504535e+2, 2.9571182e+2, 1765.0693, -262501.13, -30764.326, 0.11749622, 0.049288906, 5299.209, 47321.566, 0.0000022917138, 10.0013275, 9.997864 
2.5504434e+2, 3.057084e+2, 119888.125, -108737.67, 75585.78, -0.15087833, -0.108113036, 142617.73, 142617.73, 0.0000129202135, 10.001515, 9.998501 
2.5505012e+2, 3.157086e+2, 98484.13, -216459.81, -42771.93, 0.02901785, 0.04157626, 104189.55, 104189.55, 0.000045825393, 10.001737, 9.997651 
2.6501948e+2, 1.2572719e+2, -1744131.4, -1600232.1, 176680.23, -0.02176003, -0.033970498, -1481413.1, 226461.28, 0.00051409315, 9.9991255, 10.001198 
2.6502126e+2, 1.3572782e+2, -1656151.1, -1540980.1, -22180.352, 0.09405839, -0.09922163, -1536856.1, 73007.32, 0.0002486299, 9.999261, 10.000874 
2.6502153e+2, 1.4572874e+2, -1629638.4, -1650010.4, 49714.375, -0.009040857, -0.0071087056, -1589077.3, -77222.33, 0.00007773356, 9.999536, 9.9992895 
2.6502275e+2, 1.5572871e+2, -1429928.8, -1517929.6, 23175.736, -0.116392486, 0.03195414, -1424198.4, -10338.832, 0.000013419433, 10.000298, 9.999161 
2.6502526e+2, 1.6572845e+2, -1296557.5, -1297656.5, 13969.574, -0.07885103, 0.044678967, -1283126.6, 32735.086, 0.0000010267595, 10.000092, 10.000096 
2.6502863e+2, 1.7572792e+2, -1349535.4, -1283011.8, -26279.102, 0.060706824, -0.05231722, -1273883.3, -56020.453, 0.0000000012219834, 9.999101, 9.999997 
2.6502997e+2, 1.8572761e+2, -1249862.1, -1307198.3, -37759.81, 0.034744855, -0.019127928, -1231120.6, -111255.47, 0.0, 9.999643, 9.998901 
2.6502985e+2, 1.9572724e+2, -925295.2, -1107802.9, -41653.215, -0.10759997, 0.020473238, -916238.25, 105632.53, 0.0, 10.001232, 9.998832 
2.6503178e+2, 2.0572598e+2, -822746.6, -1062073.4, 18723.695, -0.08903786, 0.04211499, -821290.6, 102592.77, 0.0, 10.001491, 9.998353 
2.650354e+2, 2.157239e+2, -852446.44, -1030507.8, 13349.326, 0.05012512, -0.03376748, -851451.2, -25548.262, 0.0, 10.000635, 9.99831 
2.6503712e+2, 2.2572234e+2, -746759.3, -933634.7, 18974.96, 0.03199202, -0.012973997, -744852.06, -16933.701, 0.0, 10.000707, 9.998264 
2.6503745e+2, 2.35721e+2, -541363.2, -788951.94, 11749.809, -0.10217005, -0.006308063, -540806.8, 89125.6, 0.0, 10.001462, 9.998225 
2.6503885e+2, 2.4571918e+2, -383713.47, -643575.2, -10832.001, -0.08248481, -0.013891438, -383262.72, 148686.03, 0.0, 10.00181, 9.998378 
2.65041e+2, 2.557168e+2, -276047.4, -548871.9, -30996.814, 0.05330904, -0.12142909, -272570.03, 161398.58, 0.0, 10.001903, 9.99831 
2.6504225e+2, 2.6571453e+2, -252288.6, -525673.5, 34416.508, 0.029839948, -0.15560769, -248022.47, 87966.68, 0.0, 10.001556, 9.997964 
2.65043e+2, 2.757123e+2, -248945.03, -474619.03, 43489.94, -0.08909014, -0.2097477, -240854.1, -2843.5608, 0.0, 10.000922, 9.997946 
2.6504496e+2, 2.8571117e+2, -138750.02, -387430.9, 8174.3677, -0.022269202, -0.10430291, -138481.61, 1541.3998, 0.00000017298198, 10.001065, 9.997805 
2.6504716e+2, 2.9571038e+2, 76949.86, -220674.16, -26525.059, 0.15125811, -0.005125544, 79295.36, 121329.02, 0.000002277503, 10.001801, 9.997929 
2.6504666e+2, 3.0570748e+2, 195123.27, -65165.066, 131704.84, -0.07941313, -0.121722884, 250137.6, 250137.6, 0.000011809922, 10.00198, 9.998598 
2.6505134e+2, 3.1570756e+2, 20628.943, -260999.84, 6371.838, 0.014739751, 0.0126840295, 20773.033, 20773.033, 0.000042458643, 10.001193, 9.997624 
2.7501777e+2, 1.2572671e+2, -1753893.6, -1620028.3, 124517.74, -0.18195489, -0.02799347, -1545593.9, 162281.95, 0.00042131313, 9.999114, 10.001072 
2.750209e+2, 1.3572657e+2, -1680821.9, -1592353.1, -10331.3, 0.0948207, -0.13637844, -1591162.6, 18708.66, 0.0001952308, 9.999266, 10.000517 
2.7502143e+2, 1.4572644e+2, -1650869.6, -1686552.9, 57240.984, -0.017954454, -0.11921153, -1608754.1, -96881.33, 0.000056360343, 9.999503, 9.999057 
2.750235e+2, 1.5572636e+2, -1452521.9, -1554656.3, 63042.4, -0.10771785, -0.061583053, -1422458.3, -8579.746, 0.000009372096, 10.000261, 9.998927 
2.7502546e+2, 1.6572604e+2, -1343116.3, -1383301.6, -36678.566, -0.10325566, -0.014300249, -1321387.5, -5504.1855, 0.0000008660051, 10.000044, 9.99953 
2.7502713e+2, 1.7572534e+2, -1394107.6, -1364156.1, -42937.06, -0.03522844, -0.07047436, -1333658.1, -115769.18, 0.000000004874734, 9.999056, 9.99946 
2.7502957e+2, 1.8572499e+2, -1244006.3, -1269294.3, 8899.231, -0.00079098204, -0.030914588, -1241188.5, -121296.38, 0.0, 9.999535, 9.999212 
2.7503246e+2, 1.9572476e+2, -915882.25, -1066828.0, 28149.467, 0.0000751441, -0.0088747125, -910803.6, 111091.14, 0.0, 10.001145, 9.999153 
2.750344e+2, 2.0572378e+2, -822221.3, -1031184.5, -27011.55, -0.0042177434, 0.01049351, -818786.1, 105117.75, 0.0, 10.001366, 9.998625 
2.7503565e+2, 2.1572189e+2, -856147.1, -998874.5, -818.4028, -0.0153073985, -0.07402055, -856142.44, -30221.584, 0.0, 10.00047, 9.998603 
2.7503735e+2, 2.2572044e+2, -757086.9, -916068.56, 34557.637, -0.04201874, -0.06960536, -749900.0, -21964.832, 0.0, 10.000539, 9.998468 
2.7503932e+2, 2.3571907e+2, -553653.75, -776801.1, 50815.38, -0.0892947, -0.08248769, -542626.9, 87322.45, 0.0, 10.001297, 9.998391 
2.7504098e+2, 2.4571787e+2, -419909.5, -693116.44, -19822.836, -0.07548791, -0.020521935, -418478.75, 113482.79, 0.0, 10.001701, 9.998089 
2.750424e+2, 2.557165e+2, -310087.5, -592652.56, -14806.482, -0.023585435, 0.00088540366, -309313.75, 124661.02, 0.0, 10.001777, 9.998075 
2.7504334e+2, 2.657146e+2, -220780.58, -436441.34, -6189.5264, -0.04388409, -0.019917682, -220603.1, 115387.86, 0.0, 10.001466, 9.998615 
2.75044e+2, 2.7571228e+2, -230252.03, -405413.88, 35546.164, -0.111144915, -0.14603461, -223313.39, 14696.24, 0.00000000009324417, 10.000794, 9.998481 
2.7504578e+2, 2.8571072e+2, -163879.05, -426132.22, 21066.914, -0.077382125, -0.09277057, -162197.52, -22172.23, 0.00000023612336, 10.00101, 9.997561 
2.750476e+2, 2.9570928e+2, 57797.637, -239904.48, 16449.498, -0.02710117, -0.039351407, 58703.797, 100747.44, 0.0000024951785, 10.001705, 9.997844 
2.750481e+2, 3.057072e+2, 255989.63, 81013.195, 97733.28, -0.16192861, -0.12848169, 299672.97, 299672.97, 0.0000116764495, 10.001923, 9.999615 
2.750524e+2, 3.157078e+2, 106610.484, -31261.785, 12783.526, -0.063591525, -0.029478215, 107785.75, 107785.75, 0.000040637482, 10.000998, 9.999288 
2.8501785e+2, 1.2572531e+2, -1863495.4, -1720878.3, 64950.117, -0.042455863, 0.018993463, -1695732.5, 12157.664, 0.00034670465, 9.9986105, 10.000601 
2.8502062e+2, 1.3572504e+2, -1584516.8, -1578327.4, -107640.164, 0.113089845, -0.06445835, -1473737.4, 136151.81, 0.00015383656, 10.0001, 10.000194 
2.8502092e+2, 1.4572439e+2, -1531635.3, -1588237.9, -7329.506, -0.03916675, -0.10440218, -1530701.5, -18806.496, 0.00004093297, 10.000146, 9.999422 
2.8502405e+2, 1.5572445e+2, -1576776.4, -1575814.1, 13844.243, -0.01847384, -0.069942996, -1562442.6, -148546.77, 0.0000066741927, 9.999234, 9.99928 
2.8502613e+2, 1.6572401e+2, -1424641.0, -1469111.8, -18514.133, -0.015979247, -0.02722545, -1417942.3, -102040.72, 0.00000074756446, 9.999694, 9.999114 
2.8502724e+2, 1.7572296e+2, -1103659.8, -1271278.8, -41417.207, -0.0339889, -0.073746234, -1093984.4, 123928.43, 0.000000006090155, 10.0012455, 9.999053 
2.8503007e+2, 1.857224e+2, -989256.94, -1143678.1, 31167.082, 0.018533112, -0.039099373, -983203.75, 136714.7, 0.0, 10.001276, 9.99923 
2.8503424e+2, 1.9572204e+2, -1064856.8, -1137662.3, 1420.6581, 0.12220493, -0.030726472, -1064829.0, -42907.92, 0.0, 10.000113, 9.999164 
2.8503627e+2, 2.0572118e+2, -967119.8, -1089029.0, -50728.008, 0.103386395, -0.004530469, -948772.5, -24843.447, 0.0, 10.000335, 9.998715 
2.8503668e+2, 2.1571968e+2, -699372.6, -912721.2, -68047.15, -0.0039628665, -0.059067123, -679517.0, 146426.45, 0.0, 10.00151, 9.998691 
2.8503826e+2, 2.257184e+2, -621221.94, -827335.06, -22834.586, -0.038272146, -0.04887263, -618722.44, 109233.55, 0.0, 10.001384, 9.998664 
2.8504068e+2, 2.3571719e+2, -688640.06, -816506.7, -31588.38, -0.021070719, -0.06890708, -681262.1, -51293.93, 0.0, 10.000276, 9.998602 
2.8504276e+2, 2.4571614e+2, -585324.4, -753115.2, -23973.543, -0.0014062754, -0.0108306715, -581966.3, -49987.496, 0.0, 10.000465, 9.998271 
2.8504455e+2, 2.557151e+2, -315165.7, -569826.56, -14949.534, 0.026767317, 0.020006038, -314291.1, 119698.45, 0.0, 10.001645, 9.998285 
2.850452e+2, 2.657136e+2, -158512.8, -383921.06, -25303.863, -0.0148012685, 0.017607583, -155707.17, 180294.66, 0.0, 10.001792, 9.998823 
2.8504524e+2, 2.7571154e+2, -165469.81, -350654.56, -39075.41, -0.075480744, -0.1002118, -157562.25, 80455.02, 0.0000000018932573, 10.001116, 9.998712 
2.8504708e+2, 2.8570998e+2, -164555.88, -384459.8, 34547.668, -0.031761914, -0.08193646, -159256.05, -19224.291, 0.00000028816427, 10.000825, 9.997939 
2.8504956e+2, 2.9570857e+2, -12686.921, -225730.95, 46564.773, 0.043470457, -0.062333573, -2953.9663, 39093.496, 0.0000027347362, 10.001032, 9.998256 
2.850506e+2, 3.0570605e+2, 162832.45, 18109.088, 88440.47, -0.059469506, -0.20736903, 204742.06, 204742.06, 0.000012525966, 10.001334, 9.999471 
2.8505364e+2, 3.1570694e+2, 140523.16, 65915.26, -119017.44, -0.0145006515, -0.071342476, 227945.84, 227945.84, 0.00004059471, 10.0008745, 10.00001 
2.9501864e+2, 1.2572324e+2, -1916782.1, -1847728.6, 39826.984, 0.09161026, 0.12756109, -1829545.9, -121630.83, 0.00028489743, 9.998666, 9.999708 
2.9502007e+2, 1.3572319e+2, -1611154.0, -1639223.6, -48557.72, 0.012457405, 0.1118358, -1574643.5, 35274.04, 0.000121053716, 10.000123, 9.999764 
2.9501975e+2, 1.4572248e+2, -1461565.3, -1443506.9, -62254.418, -0.21608856, 0.033419516, -1389630.4, 122291.87, 0.000029834508, 10.000137, 10.000423 
2.9502383e+2, 1.5572295e+2, -1517889.5, -1446710.6, -2658.9988, 0.0027297772, 0.004438984, -1446611.5, -32699.453, 0.000004731658, 9.999205, 10.000179 
2.9502672e+2, 1.6572241e+2, -1453913.5, -1512573.6, 28235.326, 0.04557511, 0.012905536, -1442531.3, -126615.0, 0.00000054097734, 9.999629, 9.99884 
2.9502845e+2, 1.7572096e+2, -1128513.9, -1308047.5, 27934.32, -0.07186524, -0.05088088, -1124267.9, 93665.11, 0.0000000012704189, 10.001196, 9.998816 
2.9503113e+2, 1.8571995e+2, -1021735.56, -1194049.8, -27031.285, -0.03433354, -0.03393168, -1017594.6, 102348.31, 0.0, 10.001195, 9.998928 
2.9503468e+2, 1.9571902e+2, -1097973.4, -1186066.5, -23515.193, 0.1206105, -0.052704386, -1092089.4, -70138.97, 0.0, 10.000025, 9.998873 
2.9503688e+2, 2.0571816e+2, -996715.8, -1114362.5, -18823.9, 0.10588453, -0.008410816, -993777.3, -69817.76, 0.0, 10.000181, 9.998613 
2.9503796e+2, 2.1571717e+2, -730991.6, -937466.56, -14223.021, -0.053754583, -0.0011717634, -730016.44, 95955.27, 0.0, 10.001336, 9.998602 
2.9503942e+2, 2.2571626e+2, -634997.1, -813671.0, -78418.14, -0.085455954, 0.04219281, -605462.3, 122518.58, 0.0, 10.001207, 9.998839 
2.9504123e+2, 2.357153e+2, -697470.3, -796549.8, -51805.832, -0.020713873, 0.029872177, -675330.0, -45340.77, 0.0, 10.000116, 9.998814 
2.9504386e+2, 2.4571407e+2, -549660.0, -658403.0, 5734.573, 0.030071432, 0.021881606, -549358.4, -17358.443, 0.0, 10.000372, 9.99897 
2.9504687e+2, 2.5571245e+2, -289884.25, -489188.03, 36981.523, 0.06272609, -0.06890153, -283243.47, 150770.55, 0.0, 10.001519, 9.998906 
2.9504734e+2, 2.6571128e+2, -179841.77, -409923.75, -62528.14, -0.00934871, -0.059845183, -163946.89, 172077.0, 0.0, 10.001716, 9.998679 
2.9504612e+2, 2.757101e+2, -187322.47, -364810.3, -49799.754, -0.13263406, -0.0767309, -174304.42, 63729.043, 0.0000000016821552, 10.000986, 9.998675 
2.9504836e+2, 2.857091e+2, -98231.54, -240039.08, 27787.223, -0.019050086, -0.05736388, -92981.03, 47059.543, 0.00000022409213, 10.000792, 9.998951 
2.9505262e+2, 2.9570818e+2, 31313.855, -124838.81, 79116.71, 0.20260888, -0.081831664, 64392.227, 106437.95, 0.0000026534976, 10.000974, 9.998989 
2.9505375e+2, 3.0570394e+2, 74240.92, -152390.02, 70765.99, 0.08976309, -0.36782965, 94522.69, 94522.69, 0.00001292508, 10.001285, 9.998316 
2.9505402e+2, 3.1570458e+2, 113176.24, 29187.025, -65618.09, -0.13971896, -0.15284033, 149087.23, 149087.23, 0.000040888393, 10.000787, 9.999796 
3.050175e+2, 1.2572038e+2, -1881483.6, -1845772.4, 138627.89, 0.110051565, 0.054846697, -1723854.9, -15914.259, 0.00023189843, 9.998983, 9.999574 
3.0502024e+2, 1.3572109e+2, -1779655.5, -1702304.8, 82643.78, 0.08842695, 0.099223904, -1649734.5, -39797.336, 0.000094942065, 9.9988785, 9.999939 
3.0502024e+2, 1.4572045e+2, -1586290.1, -1500037.9, 59552.633, -0.1276857, 0.020768516, -1469635.9, 42305.14, 0.000021738364, 9.999291, 10.00043 
3.0502427e+2, 1.5572044e+2, -1358213.8, -1371664.4, 6553.2153, 0.079920135, -0.05570842, -1355548.9, 58386.09, 0.0000030875526, 10.000315, 10.000153 
3.050274e+2, 1.6572003e+2, -1309121.5, -1463380.5, 64852.777, 0.10679042, -0.025938457, -1285479.8, 30458.975, 0.0000002653173, 10.000687, 9.998674 
3.0502957e+2, 1.7571913e+2, -1243228.4, -1382482.0, 39009.293, -0.032636106, -0.016391307, -1233045.4, -15093.614, 0.0, 10.000472, 9.998662 
3.0503216e+2, 1.85718e+2, -1084865.9, -1237845.9, -9196.313, -0.022048095, 0.00080028217, -1084315.0, 35648.277, 0.0, 10.0008135, 9.998817 
3.0503517e+2, 1.9571641e+2, -892524.44, -1107566.6, -19920.787, 0.106053285, -0.06941476, -890694.56, 131281.84, 0.0, 10.0015, 9.998718 
3.0503756e+2, 2.0571543e+2, -822502.0, -1025105.9, 41732.098, 0.1068538, -0.031030083, -814242.75, 109744.016, 0.0, 10.001343, 9.998675 
3.0503944e+2, 2.157148e+2, -841860.0, -987990.4, 27552.842, 0.007859494, 0.006570171, -836837.5, -10841.448, 0.0, 10.000544, 9.998649 
3.05041e+2, 2.2571397e+2, -689367.9, -819754.75, -11316.095, -0.019781878, 0.043413676, -688393.06, 39610.79, 0.0, 10.000739, 9.999028 
3.0504242e+2, 2.3571281e+2, -456310.94, -659611.06, -10405.621, 0.016431473, -0.007267912, -455779.75, 174232.4, 0.0, 10.001676, 9.999007 
3.050449e+2, 2.4571177e+2, -400772.63, -553171.7, 58686.89, 0.062292613, -0.019016575, -380792.53, 151227.63, 0.0, 10.001283, 9.999243 
3.0504805e+2, 2.5571063e+2, -484107.13, -549566.1, 32139.732, 0.110036485, -0.0908192, -470965.25, -36935.375, 0.0, 10.000065, 9.999184 
3.0504888e+2, 2.6570946e+2, -400085.8, -519791.13, -37292.15, 0.05611486, -0.09031783, -389418.66, -53378.645, 0.0, 10.000215, 9.998649 
3.0504817e+2, 2.757081e+2, -117346.34, -332732.4, -44943.758, -0.041647263, -0.12831882, -108344.34, 129708.66, 0.00000000014964384, 10.001474, 9.998657 
3.050502e+2, 2.8570735e+2, 38257.9, -151236.69, 12131.913, 0.053717643, -0.08840952, 39031.457, 179088.53, 0.00000013461268, 10.001652, 9.999139 
3.0505386e+2, 2.957073e+2, 25987.055, -113378.27, -20153.904, 0.2420988, -0.05095701, 28843.025, 70896.25, 0.0000024184974, 10.000913, 9.999079 
3.0505535e+2, 3.057023e+2, 58938.15, -279284.7, 14396.205, 0.11576301, -0.3561703, 59549.81, 59549.81, 0.00001259153, 10.001679, 9.99727 
3.0505666e+2, 3.1570232e+2, 404827.1, 87723.48, -152455.45, -0.055393822, -0.09880098, 466232.88, 466232.88, 0.000039642433, 10.003124, 9.999095 
3.1501377e+2, 1.2571682e+2, -1831915.6, -1747568.6, 42824.23, -0.23610023, -0.18525137, -1729637.9, -21671.771, 0.0001887222, 9.999007, 10.000233 
3.1502047e+2, 1.3571888e+2, -1734616.8, -1594477.1, 91239.02, 0.19313034, -0.09053617, -1549506.4, 60439.918, 0.00007509751, 9.998836, 10.000693 
3.150218e+2, 1.4571847e+2, -1666928.6, -1664368.8, 80873.2, 0.06088417, -0.1250443, -1584765.4, -72815.18, 0.00001598166, 9.999268, 9.999314 
3.1502488e+2, 1.5571688e+2, -1432896.0, -1524746.9, 56291.543, 0.071633436, -0.24983661, -1406172.4, 7792.929, 0.00000170519, 10.000308, 9.999103 
3.1502783e+2, 1.6571675e+2, -1321654.4, -1478605.4, 36254.063, 0.048787564, -0.1396138, -1313684.8, 2285.2742, 0.000000057148895, 10.000632, 9.998602 
3.1503028e+2, 1.7571743e+2, -1253303.1, -1391724.0, 43082.836, -0.042810243, 0.031897675, -1240989.3, -23019.592, 0.0, 10.00042, 9.998625 
3.1503272e+2, 1.8571657e+2, -1095722.4, -1236475.3, 2864.6213, -0.07813634, 0.074592955, -1095664.1, 24315.006, 0.0, 10.000709, 9.998879 
3.1503537e+2, 1.9571428e+2, -900323.75, -1099036.1, 17015.709, -0.05960148, -0.074609905, -898877.2, 123121.47, 0.0, 10.001396, 9.998826 
3.1503797e+2, 2.0571315e+2, -835837.3, -1012324.2, -2502.282, -0.012850009, -0.064041495, -835801.8, 88207.59, 0.0, 10.001175, 9.998844 
3.1504062e+2, 2.1571271e+2, -853183.0, -972525.5, 17594.125, 0.0473681, -0.022745961, -850643.25, -24627.85, 0.0, 10.0003805, 9.998832 
3.1504244e+2, 2.2571161e+2, -690062.2, -788594.8, 11771.986, 0.027632698, -0.035975937, -688675.25, 39348.63, 0.0, 10.000598, 9.999313 
3.1504366e+2, 2.3570982e+2, -462596.94, -635327.56, 33666.633, -0.050892342, -0.17428648, -456267.0, 173769.17, 0.0, 10.001516, 9.999255 
3.150455e+2, 2.4570927e+2, -424128.16, -588518.56, -1308.8064, -0.039206147, -0.13849397, -424117.72, 107922.02, 0.0, 10.001218, 9.999033 
3.1504762e+2, 2.557095e+2, -514809.75, -584226.3, 4176.945, 0.034367025, -0.051389094, -514559.34, -80521.29, 0.0, 9.999933, 9.999012 
3.1504944e+2, 2.6570824e+2, -398984.5, -503258.13, -3425.8796, 0.059893653, -0.06332285, -398872.06, -62822.055, 0.0, 10.000153, 9.998793 
3.15051e+2, 2.757055e+2, -125773.28, -328604.4, 11425.396, 0.06159564, -0.25209963, -125131.73, 112944.29, 0.00000000001473293, 10.001375, 9.998737 
3.1505218e+2, 2.8570473e+2, -15774.564, -250316.38, -30867.805, 0.05340439, -0.1807892, -11780.113, 128301.74, 0.000000108201135, 10.001598, 9.998481 
3.1505275e+2, 2.9570556e+2, -40534.29, -227404.47, -23765.98, -0.004250421, 0.014815468, -37559.12, 4513.1074, 0.0000023186144, 10.000801, 9.998352 
3.15055e+2, 3.057009e+2, -5616.981, -403480.5, 63062.406, -0.11484068, -0.17924853, 4139.3335, 4139.3335, 0.000012381474, 10.0016365, 9.996435 
3.150609e+2, 3.1570008e+2, 323429.34, -69547.086, -51628.31, -0.017384894, 0.06435412, 330098.94, 330098.94, 0.000038038284, 10.003066, 9.998043 
3.2501295e+2, 1.2571438e+2, -1846842.5, -1734653.1, -43950.26, -0.19291615, -0.1777426, -1719486.0, -11495.294, 0.0001575099, 9.998791, 10.000433 
3.2502016e+2, 1.3571593e+2, -1543680.8, -1490999.4, -66510.31, 0.23128709, -0.15334839, -1445803.6, 164170.67, 0.00006189271, 10.00006, 10.000825 
3.2502225e+2, 1.4571606e+2, -1515066.1, -1623774.9, -26287.902, 0.12604132, -0.12467351, -1509043.0, 2931.225, 0.000012633238, 10.000432, 9.999045 
3.250253e+2, 1.557149e+2, -1424696.4, -1545737.8, -16014.667, 0.08691075, -0.17802982, -1422613.4, -8625.059, 0.0000008198343, 10.000449, 9.998903 
3.2502833e+2, 1.657148e+2, -1335743.5, -1443737.3, 19338.213, 0.054215115, -0.073955394, -1332385.1, -16392.193, 0.000000004124255, 10.000391, 9.998943 
3.2503077e+2, 1.757153e+2, -1249847.9, -1355482.6, 23650.021, -0.021418516, 0.049435463, -1244794.8, -26802.623, 0.0, 10.00031, 9.998921 
3.250334e+2, 1.857146e+2, -1148525.0, -1233781.3, 40838.49, -0.049432028, 0.08238978, -1132119.8, -12120.439, 0.0, 10.000234, 9.999115 
3.2503632e+2, 1.9571282e+2, -1076815.9, -1154283.3, 33468.72, -0.026862036, -0.041417245, -1064359.3, -42345.074, 0.0, 10.000082, 9.9990635 
3.250391e+2, 2.057118e+2, -934362.7, -1062579.9, 28654.697, 0.023587165, -0.033578396, -928250.2, -4226.7266, 0.0, 10.000491, 9.998832 
3.2504174e+2, 2.1571115e+2, -734716.5, -914364.0, 11723.411, 0.09010343, -0.0145276105, -733954.7, 92075.86, 0.0, 10.001185, 9.998842 
3.2504356e+2, 2.2570999e+2, -611315.06, -750740.2, 23723.166, 0.057592623, -0.03407695, -607389.1, 120650.125, 0.0, 10.001136, 9.999314 
3.2504472e+2, 2.3570827e+2, -601691.25, -703561.94, -709.36475, -0.042903565, -0.17098619, -601686.3, 28364.932, 0.0, 10.00056, 9.999245 
3.2504648e+2, 2.4570745e+2, -521477.2, -665555.9, -33623.336, -0.026647406, -0.14469671, -514016.88, 18040.223, 0.0, 10.000663, 9.998782 
3.2504866e+2, 2.5570723e+2, -317115.53, -515283.5, -49803.68, 0.07822885, -0.080974735, -305302.97, 128756.875, 0.0, 10.001381, 9.998794 
3.250507e+2, 2.6570615e+2, -205206.53, -413334.4, -12857.963, 0.11426372, -0.06401785, -204415.19, 131655.66, 0.0, 10.001502, 9.998765 
3.250528e+2, 2.7570403e+2, -154692.58, -348013.7, -39636.043, 0.12014028, -0.1814323, -146881.7, 91209.74, 0.00000000010851988, 10.001206, 9.998684 
3.250538e+2, 2.857029e+2, -61851.14, -343387.25, -71435.07, 0.06807949, -0.11326443, -44762.883, 95339.914, 0.00000014604628, 10.001573, 9.997862 
3.2505384e+2, 2.9570255e+2, 156479.7, -192489.83, -88002.37, -0.041093964, 0.021830015, 177415.89, 219522.47, 0.0000023415487, 10.002412, 9.997818 
3.2505652e+2, 3.056986e+2, 103383.5, -313707.1, 84843.13, -0.14754348, -0.091889866, 119981.49, 119981.49, 0.000012312151, 10.002261, 9.996734 
3.2506344e+2, 3.1569737e+2, 57357.598, -149482.38, -19551.553, 0.046733923, 0.07913648, 59189.484, 59189.484, 0.000036624067, 10.001075, 9.99843 
3.3501405e+2, 1.2571314e+2, -1874610.1, -1778760.6, -73479.82, -0.035010953, 0.09619427, -1738958.1, -30944.432, 0.00013854062, 9.998748, 10.000145 
3.350189e+2, 1.3571231e+2, -1583418.1, -1558133.8, -19450.217, 0.064081445, -0.06454943, -1547578.3, 62441.8, 0.000055370125, 10.000021, 10.000367 
3.350211e+2, 1.4571325e+2, -1476281.9, -1530068.5, -47410.152, -0.0693893, 0.03262397, -1448668.5, 63343.613, 0.000011804474, 10.000374, 9.999718 
3.350252e+2, 1.5571472e+2, -1375662.9, -1437134.5, -1601.0992, -0.0065183686, 0.16964118, -1375621.1, 38380.336, 0.00000057438905, 10.0004225, 9.999661 
3.3502835e+2, 1.6571441e+2, -1298692.5, -1354558.5, 2605.6318, -0.012318398, 0.18177745, -1298571.3, 17433.785, 0.00000000201948, 10.000336, 9.999584 
3.3503065e+2, 1.7571269e+2, -1213020.3, -1272795.5, 36582.0, -0.09955259, 0.021892665, -1195669.0, 22350.951, 0.0, 10.000278, 9.999507 
3.3503374e+2, 1.8571201e+2, -1143691.1, -1193987.4, 19067.445, -0.06785114, 0.010786569, -1137279.9, -17254.83, 0.0, 10.000108, 9.999448 
3.3503768e+2, 1.9571184e+2, -1068399.4, -1114916.4, 42296.797, 0.06934518, 0.014439799, -1043388.06, -21363.154, 0.0, 9.99999, 9.999376 
3.3504048e+2, 2.0571122e+2, -963367.4, -1089632.4, 39293.96, 0.08996809, 0.053991042, -952137.75, -28107.164, 0.0, 10.000354, 9.998713 
3.350424e+2, 2.1570998e+2, -768781.0, -942208.2, 47259.785, 0.009197189, 0.02685281, -756738.6, 69304.02, 0.0, 10.001005, 9.998737 
3.3504388e+2, 2.2570902e+2, -655115.06, -804524.1, -13244.493, -0.048658554, 0.04499388, -653950.06, 74100.87, 0.0, 10.000978, 9.999018 
3.350451e+2, 2.3570807e+2, -647528.94, -752990.5, -9280.585, -0.08492751, 0.014509833, -646718.44, -16660.818, 0.0, 10.000374, 9.99899 
3.350475e+2, 2.4570638e+2, -541341.2, -694582.3, -20324.525, -0.01855509, -0.029471572, -538691.3, -6619.309, 0.0, 10.000601, 9.998614 
3.350507e+2, 2.5570387e+2, -348300.84, -550525.75, -12610.887, 0.11513932, -0.17576839, -347517.44, 86577.02, 0.0, 10.001256, 9.9986105 
3.3505243e+2, 2.657033e+2, -232919.22, -456542.25, -38377.59, 0.10709605, -0.08650378, -226516.3, 109585.03, 0.0, 10.001444, 9.998492 
3.3505306e+2, 2.7570376e+2, -194636.92, -398837.53, -33347.22, -0.0053345584, 0.08025952, -189329.1, 48770.52, 0.000000000044508567, 10.001072, 9.998397 
3.3505476e+2, 2.857019e+2, -96634.48, -412653.25, -52512.477, -0.02919705, 0.111489184, -88137.03, 51982.332, 0.00000018851506, 10.001544, 9.997406 
3.3505678e+2, 2.9569834e+2, 124091.234, -252470.44, -43652.16, -0.028036546, -0.028519463, 129085.3, 171240.16, 0.0000023038672, 10.002359, 9.997442 
3.350593e+2, 3.0569524e+2, 184282.22, -135910.0, 32979.594, -0.12503153, -0.10372214, 187643.8, 187643.8, 0.000011796056, 10.002229, 9.997966 
3.3506346e+2, 3.15694e+2, 155342.66, 85133.92, -52440.69, -0.12798055, -0.05169356, 183344.1, 183344.1, 0.000034748333, 10.000935, 10.000116 
3.4501418e+2, 1.2571034e+2, -1703272.8, -1683666.0, -43577.074, 0.067229815, 0.2064371, -1648803.1, 59243.664, 0.00012841672, 9.999884, 10.000245 
3.4501818e+2, 1.3570893e+2, -1758488.9, -1668808.6, -6839.5254, 0.062858894, 0.009178237, -1668290.0, -58231.977, 0.00005393956, 9.998912, 10.000162 
3.4502095e+2, 1.4570989e+2, -1688575.3, -1580080.3, 15963.717, -0.02764347, 0.09715916, -1577780.1, -65730.75, 0.00001321429, 9.998712, 10.000163 
3.450247e+2, 1.5571177e+2, -1502984.4, -1453037.5, -2668.0825, -0.029915197, 0.23491345, -1452895.4, -38861.035, 0.00000089811203, 9.999366, 10.000053 
3.4502825e+2, 1.6571167e+2, -1361891.3, -1346632.5, -5960.3716, -0.015167419, 0.22847767, -1344580.3, -28545.361, 0.0000000015154811, 9.999715, 9.999944 
3.450314e+2, 1.7571e+2, -1262829.1, -1255370.5, -16429.547, -0.01616333, 0.03304829, -1242252.4, -24204.605, 0.0, 9.999759, 9.999876 
3.4503472e+2, 1.8570949e+2, -1147403.6, -1188679.8, -18505.293, 0.029006634, 0.020247772, -1140322.1, -20271.574, 0.0, 10.000038, 9.999528 
3.4503835e+2, 1.9570956e+2, -1000366.06, -1076232.9, -36882.6, 0.12584397, 0.041016664, -985391.3, 36657.496, 0.0, 10.000414, 9.99945 
3.4504107e+2, 2.0570892e+2, -898698.9, -1034481.75, -702.5504, 0.10485756, 0.06680204, -898695.25, 25358.762, 0.0, 10.0007, 9.9989195 
3.45043e+2, 2.1570754e+2, -778156.4, -930948.2, -2206.2988, -0.013706742, 0.003525618, -778124.5, 47942.08, 0.0, 10.00087, 9.99888 
3.4504485e+2, 2.257067e+2, -686640.7, -844856.8, -52898.36, -0.03691187, 0.04098523, -670584.06, 57490.035, 0.0, 10.000869, 9.998798 
3.4504664e+2, 2.3570608e+2, -609528.94, -759816.8, -68007.85, 0.01971635, 0.06660294, -583323.56, 46756.098, 0.0, 10.000728, 9.998782 
3.4504896e+2, 2.4570432e+2, -494795.16, -661895.75, -10916.342, 0.05905752, 0.024554709, -494085.03, 38009.74, 0.0, 10.00089, 9.998695 
3.450516e+2, 2.5570148e+2, -332240.1, -541329.4, -17227.967, 0.082255825, -0.16168168, -330830.1, 103289.75, 0.0, 10.001352, 9.998634 
3.450533e+2, 2.6570058e+2, -251510.33, -490713.1, -36781.375, 0.057262637, -0.08969215, -245982.33, 90147.086, 0.0, 10.001434, 9.998259 
3.4505433e+2, 2.7570087e+2, -180515.03, -409574.0, -53127.63, 0.012107345, 0.0805066, -168792.6, 69337.36, 0.0, 10.001257, 9.99823 
3.450567e+2, 2.8569907e+2, -74365.09, -358350.34, 26984.67, 0.022553042, 0.10555898, -71823.71, 68324.95, 0.00000016974016, 10.001538, 9.99777 
3.450598e+2, 2.9569575e+2, 132112.5, -209191.36, 63232.22, 0.052432813, -0.043018986, 143450.67, 185631.36, 0.0000020169734, 10.002261, 9.997782 
3.4506258e+2, 3.056931e+2, 191547.66, -139039.31, 89699.97, -0.00628394, -0.08648598, 214318.05, 214318.05, 0.0000103175025, 10.002272, 9.997941 
3.4506506e+2, 3.1569093e+2, 246103.27, 186174.2, -145074.78, -0.06284378, -0.13557045, 364275.72, 364275.72, 0.000031962787, 10.00129, 10.000639 
3.5501257e+2, 1.2570594e+2, -1678590.3, -1625896.4, -128037.66, -0.16484888, 0.15155007, -1521523.0, 186567.28, 0.00012227354, 9.999854, 10.000655 
3.5501754e+2, 1.3570575e+2, -1742237.3, -1636834.3, -27272.29, 0.07099882, 0.06245943, -1630195.9, -20107.611, 0.00005490219, 9.998936, 10.000362 
3.5502124e+2, 1.4570616e+2, -1685207.0, -1577663.6, 23447.045, 0.08670379, 0.07965081, -1572774.0, -60689.96, 0.000015641235, 9.998723, 10.000182 
3.5502356e+2, 1.5570605e+2, -1502547.1, -1460778.8, 34892.473, -0.12139288, 0.023406431, -1440998.0, -26910.635, 0.0000017221555, 9.999394, 9.999993 
3.5502756e+2, 1.657065e+2, -1359115.4, -1322473.9, -21746.0, -0.09225541, 0.06706996, -1312359.8, 3723.4573, 0.000000007086625, 9.999639, 10.000144 
3.5503253e+2, 1.7570719e+2, -1255309.4, -1229351.5, 730.6568, 0.08768079, 0.0870902, -1229331.0, -11255.673, 0.0, 9.999711, 10.000078 
3.550358e+2, 1.8570708e+2, -1176481.6, -1221374.5, -15918.204, 0.10324728, 0.11181053, -1171410.3, -51334.72, 0.0, 9.999922, 9.999359 
3.5503796e+2, 1.9570619e+2, -1024023.75, -1100942.5, -8330.136, 0.014705354, 0.053329084, -1023131.94, -1048.4487, 0.0, 10.000309, 9.9993305 
3.5504052e+2, 2.0570517e+2, -889963.6, -982044.6, -7790.9204, -0.045859285, 0.022067107, -889309.1, 34782.43, 0.0, 10.000547, 9.999357 
3.5504332e+2, 2.1570383e+2, -772777.8, -884108.25, 17804.492, -0.09580258, -0.07950454, -769999.75, 56101.746, 0.0, 10.000713, 9.99928 
3.5504612e+2, 2.2570306e+2, -719358.44, -878792.9, -68520.664, -0.022895295, -0.044762515, -693957.06, 34151.383, 0.0, 10.000725, 9.998632 
3.5504884e+2, 2.3570247e+2, -644315.9, -793200.8, -57752.85, 0.1422518, 0.00052837835, -624540.1, 5575.2573, 0.0, 10.000566, 9.99863 
3.5505033e+2, 2.4570152e+2, -497826.63, -639034.56, -4956.598, 0.080497436, 0.03324825, -497652.84, 34471.016, 0.0, 10.000771, 9.998906 
3.550509e+2, 2.5570002e+2, -340767.16, -526250.2, 11869.417, -0.15131138, -0.03855779, -340010.7, 94125.516, 0.0, 10.001218, 9.9988 
3.5505292e+2, 2.6569808e+2, -269820.84, -514909.8, -54794.902, -0.1510306, -0.06937769, -258128.1, 78026.63, 0.0, 10.001372, 9.998122 
3.5505605e+2, 2.7569556e+2, -201185.11, -429385.5, -40898.02, 0.03194024, -0.16870934, -194076.78, 44103.863, 0.0, 10.001157, 9.998142 
3.5505927e+2, 2.8569448e+2, -4324.5005, -202831.25, 41573.086, 0.094172284, -0.12397891, 4030.461, 144220.66, 0.00000011654808, 10.001497, 9.9988575 
3.550624e+2, 2.9569465e+2, 181148.08, -83690.77, 105870.24, 0.043349225, -0.035177663, 218267.48, 260453.38, 0.0000016052002, 10.002162, 9.998693 
3.5506597e+2, 3.056921e+2, 119009.63, -288072.25, 46216.95, 0.07475806, -0.052951556, 124190.805, 124190.805, 0.000008325357, 10.002258, 9.996927 
3.5506716e+2, 3.1568888e+2, 188660.0, 86844.94, -145900.75, -0.057272185, -0.1140201, 292279.5, 292279.5, 0.000028551576, 10.001201, 10.000003 
3.6501294e+2, 1.2570123e+2, -1752301.1, -1649665.6, -89058.43, -0.06648607, 0.059572376, -1598197.6, 109938.586, 0.000118926524, 9.999279, 10.000782 
3.6501676e+2, 1.3570212e+2, -1658611.3, -1595454.6, -72397.97, 0.08496404, 0.07661725, -1548047.8, 62075.64, 0.000056465244, 9.999501, 10.000372 
3.6502114e+2, 1.4570217e+2, -1598040.6, -1543316.4, 26084.176, 0.18331882, 0.061195407, -1532875.5, -20754.025, 0.00001794202, 9.999349, 10.000118 
3.650232e+2, 1.5570126e+2, -1551945.9, -1487238.9, 6608.167, -0.072117046, -0.06932154, -1486570.9, -72439.98, 0.000002788093, 9.99907, 9.999969 
3.650274e+2, 1.6570173e+2, -1392906.9, -1345078.4, -16057.343, -0.050730664, -0.017143235, -1340187.6, -24060.736, 0.00000008230677, 9.999431, 10.0000925 
3.6503294e+2, 1.7570311e+2, -1189917.9, -1199117.9, -47838.254, 0.14399855, 0.07630193, -1146458.9, 71655.35, 0.0, 10.000166, 10.000067 
3.650362e+2, 1.8570337e+2, -1104861.6, -1161534.1, -43923.574, 0.14055687, 0.12599386, -1080927.3, 39184.28, 0.0, 10.000311, 9.999582 
3.650379e+2, 1.9570257e+2, -1063351.3, -1095727.6, -33734.168, 0.0051901033, 0.0547099, -1042122.2, -20003.719, 0.0, 9.999943, 9.999543 
3.6504075e+2, 2.0570168e+2, -967624.94, -1009304.6, 1261.769, -0.040843707, 0.02266582, -967586.75, -43461.445, 0.0, 9.999966, 9.999454 
3.6504444e+2, 2.1570049e+2, -834583.9, -900061.94, -28766.818, -0.02275676, -0.07582005, -823741.1, 2393.3892, 0.0, 10.000227, 9.999405 
3.650474e+2, 2.2569968e+2, -711581.06, -839857.75, -80093.07, 0.045158412, -0.067260504, -673110.3, 55030.793, 0.0, 10.000627, 9.998951 
3.6504978e+2, 2.3569895e+2, -543377.6, -711925.56, -60123.117, 0.16100146, -0.0646416, -524129.2, 106018.49, 0.0, 10.00112, 9.9989195 
3.6505142e+2, 2.4569839e+2, -439054.47, -639761.3, 16318.16, 0.095079616, 0.0053987405, -437736.4, 94417.336, 0.0, 10.001279, 9.998671 
3.6505246e+2, 2.5569776e+2, -362996.38, -551826.25, -23687.055, -0.10411362, 0.04131437, -360070.4, 74090.734, 0.0, 10.001134, 9.998664 
3.6505458e+2, 2.656959e+2, -269178.1, -490704.88, -65919.33, -0.10919683, 0.010198776, -251046.63, 85132.57, 0.0, 10.001279, 9.99833 
3.650576e+2, 2.7569276e+2, -112227.914, -362927.3, -52409.535, 0.051507007, -0.17057315, -101712.586, 136496.38, 0.0, 10.001669, 9.998353 
3.650609e+2, 2.8569162e+2, 62296.023, -152755.52, 45161.6, 0.096200794, -0.14832218, 71395.125, 211612.73, 0.000000055764154, 10.001852, 9.9990425 
3.6506423e+2, 2.9569227e+2, 142199.56, -84630.56, 14286.616, 0.039131638, -0.032583002, 143095.84, 185304.16, 0.0000011855267, 10.001817, 9.99885 
3.650689e+2, 3.0568972e+2, 88525.6, -309244.53, -28643.504, 0.16176705, -0.054796252, 90577.63, 90577.63, 0.0000067298934, 10.002101, 9.996848 
3.6506975e+2, 3.1568706e+2, 323212.6, 105776.05, -183762.25, 0.03792607, -0.047815368, 428008.3, 428008.3, 0.00002565761, 10.002345, 9.999581 
3.7501428e+2, 1.2569648e+2, -1755934.0, -1657702.0, -78536.75, 0.06537217, -0.021644581, -1614187.5, 93994.7, 0.0001191897, 9.99928, 10.000719 
3.7501538e+2, 1.3569799e+2, -1664222.0, -1608400.4, -57581.457, -0.041152403, 0.06180642, -1572321.9, 37841.56, 0.00005856906, 9.999507, 10.000275 
3.750202e+2, 1.456979e+2, -1612183.8, -1555458.9, -4071.2598, 0.11111348, 0.039179206, -1555168.3, -43006.44, 0.000020069963, 9.999281, 10.000066 
3.7502313e+2, 1.5569735e+2, -1551754.9, -1492641.3, 15505.18, -0.022773918, -0.051657703, -1488821.1, -74655.41, 0.0000038584762, 9.999091, 9.999924 
3.7502742e+2, 1.6569738e+2, -1424988.4, -1397734.4, -828.05457, -0.027451662, -0.024842309, -1397709.3, -81543.39, 0.00000020238203, 9.999373, 9.999756 
3.7503222e+2, 1.7569786e+2, -1218457.3, -1249057.0, -7747.7637, 0.022402544, 0.0125843035, -1216607.4, 1556.1876, 0.0, 10.00012, 9.999747 
3.7503552e+2, 1.8569833e+2, -1076034.5, -1076049.9, -71357.46, 0.011578718, 0.06543842, -1004684.75, 115474.016, 0.0, 10.0002, 10.00022 
3.7503776e+2, 1.9569856e+2, -1039080.7, -1019001.44, -30897.541, -0.032883357, 0.03301226, -996553.4, 25601.277, 0.0, 9.999831, 10.00012 
3.7504137e+2, 2.0569834e+2, -1008003.4, -1061257.0, -2069.0718, -0.0036265717, 0.055109542, -1007923.1, -83766.664, 0.0, 9.999826, 9.999166 
3.7504584e+2, 2.1569751e+2, -874734.56, -940742.94, -6056.718, 0.067557946, 0.02321714, -874183.44, -48018.305, 0.0, 10.000048, 9.999209 
3.7504825e+2, 2.256966e+2, -676975.6, -735852.1, -78333.516, 0.046414528, -0.012455902, -622731.44, 105440.1, 0.0, 10.000478, 9.999741 
3.7504908e+2, 2.3569538e+2, -514179.2, -621713.3, -31957.627, -0.04949373, -0.14135464, -505398.78, 124779.69, 0.0, 10.000981, 9.99961 
3.750518e+2, 2.456949e+2, -495222.47, -732449.3, -2447.3525, -0.020455688, -0.06294475, -495197.25, 36987.977, 0.0, 10.001177, 9.998082 
3.750558e+2, 2.5569475e+2, -419402.0, -639582.8, -13375.399, 0.08418537, 0.0802314, -418592.44, 15601.828, 0.0, 10.001003, 9.998126 
3.750578e+2, 2.6569387e+2, -240127.81, -414790.7, -63763.78, 0.056003097, 0.14550446, -219326.92, 116877.016, 0.0, 10.001211, 9.998884 
3.750584e+2, 2.7569216e+2, -89629.05, -297181.72, -23256.537, -0.06749021, 0.054356974, -87055.04, 151161.95, 0.0, 10.001582, 9.99885 
3.75061e+2, 2.8569046e+2, 15579.198, -240846.86, 32829.54, -0.10786583, 0.025202526, 19715.553, 159946.89, 0.00000003400916, 10.001811, 9.998459 
3.7506485e+2, 2.9568878e+2, 86869.484, -179370.73, 30989.916, -0.1185353, -0.029527066, 90429.07, 132675.84, 0.000000899484, 10.0017185, 9.998254 
3.7507084e+2, 3.0568597e+2, 134621.22, -198037.48, -24926.408, 0.11825388, -0.08639962, 136478.6, 136478.6, 0.000005766145, 10.002045, 9.997637 
3.750719e+2, 3.1568512e+2, 283296.6, 42092.62, -87397.92, -0.047365416, 0.020309502, 311635.0, 311635.0, 0.000023929499, 10.00226, 9.9991865 
3.8501483e+2, 1.2569337e+2, -1732990.9, -1691914.5, 84130.7, 0.18708828, -0.0058520073, -1625851.4, 82359.4, 0.00012316402, 9.999638, 10.000315 
3.8501507e+2, 1.3569431e+2, -1549741.0, -1590304.1, -23166.588, -0.05850837, 0.049747758, -1539232.5, 70965.695, 0.000061385945, 10.000432, 9.999967 
3.8502014e+2, 1.4569366e+2, -1448320.3, -1514662.0, 22145.758, 0.12198093, 0.0058522876, -1441607.0, 70595.25, 0.000022093489, 10.000573, 9.99972 
3.8502342e+2, 1.5569323e+2, -1386716.6, -1445846.5, -22787.607, 0.03988841, -0.037860367, -1378953.9, 35251.176, 0.000004863891, 10.00038, 9.999616 
3.8502753e+2, 1.6569304e+2, -1340995.4, -1360945.5, 434.44803, 0.02721035, -0.021091543, -1340986.0, -24779.244, 0.00000029520132, 9.999948, 9.9997425 
3.850318e+2, 1.7569298e+2, -1343522.4, -1311141.3, -3149.2898, 0.019427417, -0.03624793, -1310837.9, -92629.96, 0.0, 9.999262, 9.999739 
3.8503528e+2, 1.8569322e+2, -1194851.9, -1158503.5, -53533.348, 0.011024588, 0.005010963, -1120143.5, 62.29028, 0.0, 9.999483, 10.000002 
3.8503835e+2, 1.9569333e+2, -975756.5, -1014751.75, -108675.52, 0.025716549, -0.020328434, -884843.4, 137361.42, 0.0, 10.000359, 9.999902 
3.8504237e+2, 2.056934e+2, -885342.06, -986437.0, -69231.13, 0.08199184, 0.034808718, -850169.06, 74035.8, 0.0, 10.000608, 9.9993 
3.8504687e+2, 2.1569324e+2, -821133.7, -906482.25, -66272.29, 0.15972033, 0.05911273, -784984.7, 41222.723, 0.0, 10.000368, 9.999299 
3.8504907e+2, 2.2569251e+2, -704741.06, -756286.4, -119869.78, 0.09735436, 0.04063968, -607904.6, 120308.266, 0.0, 10.000325, 9.999665 
3.850495e+2, 2.3569113e+2, -593533.56, -662072.8, -168027.83, -0.072017334, -0.098286055, -456316.25, 173905.88, 0.0, 10.00046, 9.999576 
3.8505247e+2, 2.4569057e+2, -576297.06, -727703.2, -116270.46, -0.028834589, -0.049668305, -513256.56, 18972.787, 0.0, 10.000443, 9.998453 
3.850572e+2, 2.556903e+2, -489454.66, -640383.3, -82420.23, 0.16860048, 0.04692421, -453169.44, -18931.557, 0.0, 10.000366, 9.998427 
3.850594e+2, 2.656897e+2, -274489.5, -403921.13, -59537.918, 0.1200898, 0.112990394, -251268.4, 84975.516, 0.0, 10.000853, 9.999137 
3.850597e+2, 2.756887e+2, -43769.52, -247288.89, -73021.664, -0.09515734, 0.065376535, -20280.664, 217968.84, 0.0, 10.001787, 9.999089 
3.8506252e+2, 2.8568715e+2, 11294.457, -290900.94, -22423.264, -0.13579713, 0.060122535, 12949.2295, 153213.2, 0.000000026095549, 10.001998, 9.998021 
3.8506696e+2, 2.9568496e+2, 44575.23, -240557.66, -35047.363, -0.06699454, 0.0018747926, 48819.92, 91106.664, 0.00000066980994, 10.001614, 9.997878 
3.850735e+2, 3.0568248e+2, 181134.8, -135262.98, -32225.621, 0.19079962, -0.02505311, 184383.67, 184383.67, 0.000005131084, 10.002182, 9.998 
3.8507468e+2, 3.1568146e+2, 393721.75, 61077.426, -128347.36, -0.026551161, 0.022768514, 437485.53, 437485.53, 0.000023471404, 10.00318, 9.998866 
3.9501408e+2, 1.2569195e+2, -1807209.5, -1815505.5, 131140.22, 0.07387268, 0.10362266, -1680151.8, 28069.35, 0.0001272644, 9.999548, 9.999501 
3.9501536e+2, 1.3569109e+2, -1596970.8, -1670075.8, 16172.015, -0.10576842, 0.034202907, -1593553.0, 16674.096, 0.00006380605, 10.000385, 9.999434 
3.9502048e+2, 1.4568953e+2, -1512338.3, -1637057.6, -2882.6375, 0.057336237, -0.032911576, -1512271.8, -29.728321, 0.000023677207, 10.000513, 9.998914 
3.950234e+2, 1.5568888e+2, -1435140.1, -1547924.8, -16891.16, -0.033999164, -0.02366189, -1432664.8, -18415.293, 0.000005569423, 10.0003805, 9.998916 
3.9502737e+2, 1.6568854e+2, -1320070.3, -1299551.3, -43381.996, -0.014088461, -0.0133456895, -1265232.1, 51018.82, 0.00000035120044, 9.99988, 10.0001955 
3.9503133e+2, 1.7568842e+2, -1329105.5, -1261635.8, -10373.122, 0.015483072, -0.077376425, -1260077.0, -41829.1, 0.0, 9.9991865, 10.000114 
3.9503518e+2, 1.8568796e+2, -1287350.4, -1326271.8, -33517.48, 0.02450099, -0.065024205, -1268053.6, -147800.38, 0.0, 9.9993725, 9.998909 
3.9503926e+2, 1.9568697e+2, -1061456.8, -1160305.5, -65022.645, 0.048188515, -0.08697525, -1029206.7, -6938.979, 0.0, 10.000223, 9.998966 
3.9504334e+2, 2.0568702e+2, -867119.75, -910500.06, -92506.87, 0.09372996, -0.023710432, -793794.2, 130474.69, 0.0, 10.000444, 9.999901 
3.9504722e+2, 2.1568768e+2, -815137.75, -846553.6, -57709.17, 0.12875466, 0.022440875, -771036.94, 55224.51, 0.0, 10.000173, 9.999801 
3.9504954e+2, 2.2568744e+2, -790767.3, -900784.06, -126286.03, 0.08190924, 0.07974441, -708029.25, 20235.412, 0.0, 10.000175, 9.998749 
3.9505062e+2, 2.3568621e+2, -670041.8, -784467.94, -147129.3, -0.034402605, 0.0519131, -569393.0, 60885.652, 0.0, 10.000303, 9.998811 
3.95053e+2, 2.4568535e+2, -499154.94, -545167.7, -131471.44, -0.0482302, 0.038037565, -388692.1, 143594.4, 0.0, 10.000345, 9.99976 
3.9505637e+2, 2.5568447e+2, -419968.56, -468891.9, -68399.11, 0.014258802, -0.057469744, -371788.56, 62503.57, 0.0, 10.000246, 9.999667 
3.9505902e+2, 2.6568356e+2, -288041.72, -417650.7, -36383.324, -0.032569423, -0.07904981, -278526.84, 57771.26, 0.0, 10.000785, 9.99908 
3.9506114e+2, 2.756824e+2, -64547.52, -269965.8, -26465.51, -0.16543913, -0.1325324, -61192.574, 177113.69, 0.0, 10.001686, 9.998989 
3.9506504e+2, 2.8568158e+2, -16799.572, -327084.2, -49698.87, -0.11615979, -0.045448717, -9033.583, 131282.34, 0.000000010243951, 10.001918, 9.997806 
3.9507002e+2, 2.9568082e+2, 12125.0, -272746.6, -25862.563, 0.039983224, 0.06192987, 14453.9375, 56782.555, 0.0000005130985, 10.001472, 9.997725 
3.9507663e+2, 3.0567926e+2, 178516.13, -133863.53, -1985.9382, 0.25238705, 0.12897637, 178528.75, 178528.75, 0.0000059963604, 10.002151, 9.998024 
3.9507717e+2, 3.1567568e+2, 356756.84, 14503.9, 3780.567, -0.16050354, -0.067685924, 356798.6, 356798.6, 0.000027747768, 10.003056, 9.998604 
4.0501383e+2, 1.2568809e+2, -1743063.3, -1811574.6, 143652.9, 0.08937292, 0.09532429, -1629638.1, 78617.97, 0.0001282802, 10.000072, 9.999288 
4.0501642e+2, 1.3568687e+2, -1630817.4, -1687175.3, -50403.387, -0.008782958, -0.009159968, -1601250.8, 9015.382, 0.00006493345, 10.000151, 9.999432 
4.0502116e+2, 1.4568554e+2, -1570305.1, -1674004.0, 5055.473, 0.104945056, -0.052617814, -1570059.3, -57779.9, 0.00002457309, 10.000148, 9.998837 
4.0502408e+2, 1.5568495e+2, -1481302.4, -1584044.5, 11879.875, 0.017690198, -0.02852336, -1479946.6, -65660.29, 0.000005781208, 10.000105, 9.998809 
4.0502807e+2, 1.6568434e+2, -1265696.9, -1304690.4, 12241.658, 0.050241295, -0.022537189, -1262172.3, 54118.207, 0.0000003430959, 10.000389, 9.99991 
4.050318e+2, 1.7568374e+2, -1093073.0, -1181066.4, -42793.38, 0.06567452, -0.10943736, -1075693.9, 142598.5, 0.0, 10.000938, 9.999822 
4.0503573e+2, 1.8568313e+2, -1070728.0, -1247235.6, -16891.734, 0.07185422, -0.085433744, -1069126.0, 51173.594, 0.0, 10.000988, 9.998667 
4.050402e+2, 1.9568223e+2, -1025647.25, -1171153.1, -8998.855, 0.109593906, -0.071563385, -1025092.8, -2778.7874, 0.0, 10.000601, 9.998711 
4.050439e+2, 2.0568205e+2, -859159.5, -919837.4, -25444.688, 0.11269754, -0.011585733, -849901.94, 74415.984, 0.0, 10.000552, 9.999783 
4.05047e+2, 2.1568224e+2, -738681.06, -823772.94, -73907.3, 0.071484245, -0.0032236811, -695948.4, 130367.23, 0.0, 10.000751, 9.999678 
4.0504962e+2, 2.2568206e+2, -687152.56, -842822.56, -93234.66, 0.048402295, 0.06199703, -643533.94, 84784.805, 0.0, 10.000853, 9.998821 
4.050519e+2, 2.3568135e+2, -581906.06, -739444.5, -65663.74, 0.04068032, 0.077720545, -558126.2, 72202.21, 0.0, 10.000884, 9.998847 
4.0505427e+2, 2.4568053e+2, -401585.94, -487199.7, -42452.54, 0.020284144, 0.062568195, -384104.78, 148230.03, 0.0, 10.00097, 9.999856 
4.0505674e+2, 2.5567952e+2, -284278.22, -385705.3, -92637.37, -0.009643224, -0.060762692, -229381.42, 204958.5, 0.0, 10.001131, 9.999801 
4.0505987e+2, 2.656784e+2, -247884.81, -432939.2, -67827.18, -0.03798617, -0.09179801, -225687.1, 110660.086, 0.0, 10.001199, 9.998772 
4.050635e+2, 2.7567694e+2, -162510.8, -351902.25, -100587.01, -0.05909511, -0.14706007, -119057.96, 119301.12, 0.0, 10.001146, 9.998685 
4.0506738e+2, 2.8567585e+2, -96021.664, -361590.97, -102175.17, -0.03360559, -0.07712691, -61260.71, 79110.82, 0.0000000008315615, 10.001342, 9.997849 
4.0507144e+2, 2.956748e+2, 66223.984, -230659.7, -84969.984, 0.034257565, -0.005389509, 88822.72, 131208.81, 0.0000007104038, 10.001768, 9.997865 
4.0507823e+2, 3.0567396e+2, 184651.56, -125228.08, 865.1759, 0.21222569, 0.120608024, 184653.97, 184653.97, 0.000009515816, 10.002158, 9.998088 
4.0508124e+2, 3.1567052e+2, 246729.39, -29944.5, 17270.342, -0.00025933376, -0.065814644, 247803.25, 247803.25, 0.000039448827, 10.0022135, 9.998722 
4.1501322e+2, 1.2568152e+2, -1698476.8, -1735553.0, 154387.77, -0.056685448, -0.041709352, -1561518.1, 146800.36, 0.00012596608, 10.000124, 9.999783 
4.1501778e+2, 1.356817e+2, -1575893.4, -1598397.6, -38527.457, 0.072566055, -0.06989538, -1547008.5, 63306.492, 0.00006410072, 10.000227, 10.00001 
4.1502178e+2, 1.4568157e+2, -1525120.3, -1569774.4, -10611.678, 0.10983213, -0.059128977, -1522726.8, -10411.548, 0.00002430965, 10.000119, 9.999563 
4.1502506e+2, 1.5568154e+2, -1446679.0, -1497062.0, 28805.025, 0.07082955, -0.051845226, -1433603.8, -19288.867, 0.0000053776803, 10.000054, 9.999426 
4.1502917e+2, 1.6568059e+2, -1357648.3, -1472339.3, 19208.596, 0.08820071, -0.048410114, -1354516.6, -38192.316, 0.0000002359893, 10.000291, 9.998804 
4.1503274e+2, 1.7567907e+2, -1172039.5, -1328003.4, -9008.248, 0.028736813, -0.115646504, -1171521.0, 46818.887, 0.0, 10.000869, 9.998844 
4.1503644e+2, 1.8567877e+2, -1041621.56, -1165242.5, -45805.816, 0.011453332, -0.049529817, -1026498.9, 93845.67, 0.0, 10.000897, 9.9992695 
4.1504067e+2, 1.9567907e+2, -1005964.4, -1103787.5, -10118.045, 0.07019359, 0.020032927, -1004928.8, 17415.34, 0.0, 10.000494, 9.999217 
4.150438e+2, 2.0567845e+2, -939712.75, -1059752.4, -31379.625, 0.016272163, 0.06157569, -932004.75, -7652.191, 0.0, 10.0004225, 9.998892 
4.1504586e+2, 2.1567698e+2, -816890.25, -940732.44, -54592.32, -0.14486226, -0.00918723, -796261.1, 30108.443, 0.0, 10.000555, 9.998969 
4.1504896e+2, 2.2567646e+2, -641523.9, -706732.06, -104962.89, -0.12841552, 0.001984838, -564217.9, 164156.38, 0.0, 10.000676, 9.999842 
4.1505283e+2, 2.3567645e+2, -541616.9, -620538.25, -50141.945, 0.020236336, -0.01546259, -517270.34, 113101.625, 0.0, 10.000734, 9.999736 
4.150557e+2, 2.4567606e+2, -486454.56, -643463.8, -47734.58, 0.03688152, 0.024604024, -473081.2, 59293.44, 0.0, 10.00088, 9.998824 
4.150578e+2, 2.5567517e+2, -369606.47, -538950.5, -72350.016, -0.047973182, 0.017925473, -342905.8, 91477.305, 0.0, 10.001022, 9.9988 
4.1506153e+2, 2.6567402e+2, -292983.7, -506237.28, -80979.9, -0.020365974, 0.05200528, -265718.66, 70674.65, 0.0, 10.001123, 9.998299 
4.1506642e+2, 2.7567238e+2, -209947.6, -420970.0, -87348.25, 0.07891568, 0.024760362, -178483.14, 59924.527, 0.0, 10.001034, 9.998258 
4.1506925e+2, 2.8566998e+2, -72459.39, -316924.0, -101454.03, -0.016734721, -0.028844163, -35840.64, 104589.32, 0.00000000001177225, 10.001344, 9.998163 
4.1507074e+2, 2.9566696e+2, 76094.586, -190681.9, -54340.117, -0.25741467, -0.18752645, 86738.53, 129197.46, 0.0000013022876, 10.001672, 9.998194 
4.150779e+2, 3.056666e+2, 196441.92, -85634.25, -3854.0352, -0.07322728, -0.04331881, 196494.58, 196494.58, 0.000014575742, 10.002111, 9.998372 
4.15086e+2, 3.156664e+2, 268173.63, 56113.813, 100636.16, 0.18376148, 0.0624518, 308328.47, 308328.47, 0.000055427667, 10.00206, 9.999375 
4.2501393e+2, 1.2567617e+2, -1631131.0, -1687804.3, 222236.67, -0.0054592453, -0.09265038, -1435431.8, 272936.66, 0.00012015749, 10.000508, 9.999926 
4.2501897e+2, 1.356768e+2, -1604822.8, -1598600.4, -65698.555, 0.19059113, -0.091118105, -1535939.4, 74422.53, 0.00006079175, 9.999967, 10.000125 
4.2502192e+2, 1.4567718e+2, -1476848.9, -1515200.6, -20088.367, 0.10901446, -0.048633564, -1468253.3, 44103.96, 0.00002257458, 10.0003195, 9.999838 
4.250264e+2, 1.5567726e+2, -1290511.8, -1392892.1, -57365.0, 0.1624321, -0.059214804, -1264817.8, 149537.27, 0.0000044461326, 10.001013, 9.999672 
4.2503062e+2, 1.6567631e+2, -1281430.5, -1480598.4, -30982.7, 0.17639908, -0.044309657, -1276722.1, 39643.516, 0.00000009724189, 10.001018, 9.998395 
4.250334e+2, 1.7567456e+2, -1253386.6, -1406116.5, -34067.484, 0.03496399, -0.09450998, -1246132.3, -27745.836, 0.0, 10.000485, 9.998494 
4.250369e+2, 1.8567432e+2, -1097805.6, -1163614.1, -39558.137, 0.0010743586, -0.018702855, -1079255.6, 41134.563, 0.0, 10.00037, 9.999545 
4.2504138e+2, 1.9567494e+2, -980871.06, -1067001.4, -53392.805, 0.09638083, 0.05634418, -955340.3, 67044.14, 0.0, 10.000541, 9.999456 
4.250445e+2, 2.0567428e+2, -944010.3, -1074935.3, -26956.986, 0.049867216, 0.08539241, -938677.25, -14284.453, 0.0, 10.000462, 9.998761 
4.250463e+2, 2.1567237e+2, -885802.4, -989769.5, -22151.57, -0.1271184, -0.0099743735, -881279.44, -54865.242, 0.0, 10.000153, 9.998827 
4.2504948e+2, 2.2567178e+2, -683080.9, -696963.5, -45242.367, -0.11676429, -0.014782817, -644250.44, 84168.664, 0.0, 10.00027, 10.000098 
4.2505363e+2, 2.3567204e+2, -533674.9, -590758.7, -77301.27, 0.034647353, -0.031530503, -479814.53, 150598.28, 0.0, 10.0006895, 9.999955 
4.2505693e+2, 2.4567147e+2, -478075.56, -713394.25, -52651.637, 0.0625677, 0.01572731, -466832.16, 65585.56, 0.0, 10.001253, 9.998171 
4.2505974e+2, 2.5566998e+2, -278717.66, -571046.9, -78380.52, 0.0035093373, 0.016879981, -259028.13, 175405.88, 0.0, 10.001961, 9.998137 
4.2506364e+2, 2.656683e+2, -174952.8, -503272.0, -68585.62, 0.03360482, 0.060757127, -161201.3, 175248.9, 0.0, 10.002161, 9.997831 
4.2506832e+2, 2.756663e+2, -108804.42, -419244.6, -100379.22, 0.13366142, 0.04578217, -79175.21, 159293.72, 0.0, 10.001934, 9.997843 
4.2507103e+2, 2.8566357e+2, -22941.03, -282425.28, -89248.305, 0.02122184, -0.026828114, 4791.537, 145285.2, 0.0000000012455732, 10.00167, 9.998225 
4.2507252e+2, 2.956602e+2, 38698.51, -204594.7, -94295.11, -0.22183105, -0.22881985, 70965.73, 113490.055, 0.0000019825331, 10.001405, 9.998224 
4.2507887e+2, 3.056598e+2, 96016.836, -143810.94, -32161.953, -0.13742669, -0.08621207, 100255.0, 100255.0, 0.000019679212, 10.001466, 9.998283 
4.2508858e+2, 3.1565997e+2, 216064.03, 30576.504, -1413.2592, 0.27309152, 0.064803496, 216074.8, 216074.8, 0.00007104561, 10.001693, 9.999379 
4.350152e+2, 1.2567206e+2, -1650795.0, -1708603.8, 142704.5, -0.0021305638, -0.06268557, -1534097.1, 174308.56, 0.00011272219, 10.000457, 9.999799 
4.3501964e+2, 1.3567223e+2, -1625985.5, -1643124.4, -63864.836, 0.22238626, -0.07388276, -1570117.8, 40288.484, 0.00005585788, 9.999985, 9.99981 
4.35021e+2, 1.4567229e+2, -1499518.5, -1555983.1, -4015.8096, -0.052969854, -0.03367633, -1499234.4, 13171.832, 0.000019900395, 10.000283, 9.999578 
4.3502754e+2, 1.556721e+2, -1299246.9, -1419875.4, -19119.035, 0.13619235, -0.046773378, -1296289.1, 118117.766, 0.0000034951138, 10.001036, 9.999481 
4.350319e+2, 1.656714e+2, -1270913.4, -1438039.0, -65573.97, 0.17102735, -0.018780325, -1248256.1, 68159.75, 0.000000032016867, 10.000938, 9.99872 
4.3503335e+2, 1.7567013e+2, -1242537.5, -1366094.0, -38732.344, -0.050492603, -0.050908923, -1231399.8, -12967.598, 0.0, 10.000416, 9.998798 
4.3503663e+2, 1.8566982e+2, -1119209.1, -1179495.6, -45927.434, -0.09039178, 0.005218132, -1094416.5, 26019.813, 0.0, 10.000251, 9.999495 
4.3504184e+2, 1.9567002e+2, -998455.7, -1073623.9, -32881.43, 0.058863662, 0.04392144, -986102.25, 36331.168, 0.0, 10.000417, 9.999471 
4.3504557e+2, 2.0566958e+2, -929041.5, -1007452.75, -52273.277, 0.0841534, 0.06623114, -902905.1, 21532.664, 0.0, 10.000305, 9.999298 
4.350479e+2, 2.156684e+2, -877397.3, -935663.3, -18751.564, -0.013125121, -0.014519224, -871884.2, -45433.98, 0.0, 9.999995, 9.999273 
4.3505067e+2, 2.2566806e+2, -743175.3, -785191.44, -42139.89, -0.049797226, 0.0140897315, -717097.2, 11355.709, 0.0, 10.000113, 9.999567 
4.350538e+2, 2.3566811e+2, -591697.94, -674912.4, -46978.543, -0.042613678, 0.029311337, -570550.56, 59900.2, 0.0, 10.000532, 9.999453 
4.3505764e+2, 2.4566671e+2, -521046.0, -775732.44, -39376.406, -0.019412031, 0.039616164, -515097.1, 17366.906, 0.0, 10.001143, 9.997789 
4.3506205e+2, 2.55664e+2, -324371.13, -634409.25, -39487.35, 0.00733415, -0.04757744, -319420.94, 115070.484, 0.0, 10.001833, 9.997758 
4.3506575e+2, 2.6566154e+2, -213033.61, -571133.8, -88111.87, -0.0005805434, -0.047542166, -192527.6, 143988.48, 0.0, 10.002109, 9.997392 
4.3506882e+2, 2.756589e+2, -150125.33, -485032.47, -92173.27, -0.04500216, -0.08100181, -126433.38, 112108.25, 0.0, 10.001841, 9.9974375 
4.3507224e+2, 2.8565666e+2, -47859.19, -321039.78, -110212.055, -0.060154233, -0.0739854, -8939.928, 131622.47, 0.000000012355592, 10.001625, 9.997976 
4.3507642e+2, 2.9565454e+2, 2083.974, -260803.72, -87130.52, -0.012530959, -0.12271977, 28339.883, 70921.12, 0.0000027662056, 10.001328, 9.997872 
4.350808e+2, 3.056535e+2, 60613.516, -218796.16, -32721.078, -0.11796417, 0.00094602245, 64394.254, 64394.254, 0.000024180765, 10.001465, 9.997769 
4.3508816e+2, 3.1565112e+2, 142111.2, -96389.2, 26207.309, -0.009409876, -0.05239876, 144957.0, 144957.0, 0.00008333817, 10.001582, 9.998559 
4.450159e+2, 1.2566727e+2, -1808386.4, -1790743.9, 140396.63, 0.09318619, -0.09334524, -1658891.6, 49557.152, 0.00010688196, 9.999449, 9.999709 
4.450209e+2, 1.3566722e+2, -1511053.9, -1603663.4, -59441.21, 0.3231486, -0.10605547, -1482010.3, 128443.305, 0.000051033883, 10.00087, 9.99966 
4.450209e+2, 1.4566724e+2, -1350182.6, -1504467.9, 33760.164, -0.13682714, -0.052708104, -1343118.8, 169336.55, 0.000017295639, 10.0013895, 9.999399 
4.4502807e+2, 1.5566705e+2, -1347119.0, -1458769.8, -17640.023, 0.10886048, -0.052960265, -1344398.3, 70058.8, 0.0000027656245, 10.000774, 9.999337 
4.4503284e+2, 1.6566664e+2, -1309911.5, -1444784.9, -43863.133, 0.19983605, 0.004645863, -1296901.4, 19562.092, 0.000000035556127, 10.000587, 9.998861 
4.4503438e+2, 1.7566594e+2, -1182091.5, -1323836.3, -55147.51, 0.005494362, 0.0121199, -1163163.4, 55311.254, 0.0, 10.000759, 9.998934 
4.450373e+2, 1.856654e+2, -1075758.0, -1162360.9, -40195.074, -0.055051174, 0.042695373, -1059977.6, 60503.04, 0.0, 10.000585, 9.999438 
4.450419e+2, 1.9566467e+2, -1052284.4, -1102806.0, -59118.492, 0.0495153, -0.0048281504, -1013255.94, 9230.067, 0.0, 10.000073, 9.999426 
4.450459e+2, 2.0566425e+2, -948155.2, -973500.9, -55481.61, 0.109564126, 0.002730418, -903917.5, 20571.332, 0.0, 10.000009, 9.999665 
4.4504923e+2, 2.1566382e+2, -817335.2, -870443.8, -60789.426, 0.11470286, -0.0370451, -777553.3, 48938.734, 0.0, 10.000264, 9.999583 
4.4505206e+2, 2.2566342e+2, -704275.0, -844996.9, -52078.82, 0.05501887, 0.006995083, -687098.2, 41398.004, 0.0, 10.000718, 9.998863 
4.450546e+2, 2.3566273e+2, -529312.2, -720682.5, -98556.875, -0.045828927, 0.020716442, -487632.5, 142871.36, 0.0, 10.001284, 9.998777 
4.4505867e+2, 2.4566118e+2, -462352.3, -721913.25, -54761.707, -0.03823276, 0.032975987, -451271.8, 81247.33, 0.0, 10.001434, 9.99802 
4.4506395e+2, 2.5565878e+2, -396495.84, -643988.75, -37296.918, 0.052509584, -0.045660254, -390997.4, 43544.773, 0.0, 10.001232, 9.997979 
4.4506788e+2, 2.656564e+2, -321677.53, -627265.0, -29199.268, 0.046574004, -0.043875962, -318912.53, 17653.115, 0.0, 10.001386, 9.997347 
4.4507062e+2, 2.7565375e+2, -150006.27, -495580.72, -34597.555, -0.04244005, -0.0736257, -146576.53, 92015.72, 0.0, 10.001889, 9.997339 
4.450743e+2, 2.8565142e+2, -7099.801, -364943.3, -37424.484, -0.034257263, -0.039444488, -3227.7205, 137387.17, 0.00000003062236, 10.002166, 9.997423 
4.4507936e+2, 2.9564914e+2, 77443.69, -275548.88, -71522.04, 0.119132474, -0.050541177, 91384.64, 134021.27, 0.0000032986038, 10.00208, 9.997403 
4.4508275e+2, 3.056477e+2, 119009.805, -226331.61, 35357.113, -0.086465344, 0.07032206, 122592.61, 122592.61, 0.000027227657, 10.002017, 9.997443 
4.450899e+2, 3.1564397e+2, 218636.33, -58961.92, 25799.371, -0.0065432563, -0.092216134, 221013.72, 221013.72, 0.000091368296, 10.002114, 9.998548 
4.5501494e+2, 1.2566172e+2, -1818884.6, -1816721.3, 67892.875, -0.021801373, -0.19983108, -1749901.4, -41402.895, 0.000102696926, 9.99946, 9.999525 
4.550222e+2, 1.3566172e+2, -1507295.5, -1615006.6, 9634.675, 0.3252002, -0.19671138, -1506440.5, 104063.766, 0.000047349753, 10.00093, 9.999559 
4.5502108e+2, 1.4566185e+2, -1363632.0, -1518989.9, 4146.59, -0.30023336, -0.12376138, -1363521.5, 148984.94, 0.000015080613, 10.001343, 9.999318 
4.5502764e+2, 1.5566199e+2, -1358414.9, -1474973.4, -23404.521, -0.048639655, -0.0800706, -1353890.9, 60615.58, 0.0000021144335, 10.000751, 9.999235 
4.550331e+2, 1.6566204e+2, -1314734.1, -1442285.6, -54637.145, 0.12905365, 0.025696252, -1294530.4, 21978.643, 0.00000004449902, 10.000527, 9.998907 
4.5503616e+2, 1.756619e+2, -1182997.4, -1323332.9, -35345.074, 0.07017513, 0.08743354, -1174598.1, 43916.0, 0.0, 10.00074, 9.998948 
4.5503852e+2, 1.8566093e+2, -1100224.1, -1189272.1, -72781.59, -0.022067035, 0.079969734, -1059427.9, 61096.273, 0.0, 10.000486, 9.999297 
4.550411e+2, 1.956589e+2, -1082501.0, -1131879.0, -64800.633, -0.06831076, -0.0852521, -1037845.44, -15303.548, 0.0, 9.999934, 9.999289 
4.5504504e+2, 2.0565833e+2, -956954.0, -957354.75, -60040.203, -0.0034208265, -0.094930425, -897113.8, 27431.361, 0.0, 9.999856, 9.999852 
4.550498e+2, 2.1565872e+2, -833775.6, -859590.2, -36388.797, 0.12123517, -0.07444403, -808072.75, 18466.22, 0.0, 10.000073, 9.999746 
4.550532e+2, 2.2565794e+2, -791379.94, -990742.25, -42674.527, 0.07470251, -0.027007904, -782629.3, -54081.332, 0.0, 10.000561, 9.997945 
4.550555e+2, 2.3565596e+2, -603550.4, -843411.9, -63572.805, -0.11139574, -0.053023648, -587742.8, 42828.723, 0.0, 10.001143, 9.998003 
4.5505956e+2, 2.456549e+2, -421993.03, -605973.56, -74231.36, -0.11879049, -0.0016267528, -395777.97, 136804.7, 0.0, 10.001304, 9.998881 
4.5506507e+2, 2.5565425e+2, -356722.44, -529988.75, -27873.457, 0.013290433, 0.011735662, -352348.8, 82238.03, 0.0, 10.001098, 9.998832 
4.5506963e+2, 2.6565284e+2, -318148.53, -598777.5, -20842.81, 0.057389222, 0.059374563, -316608.94, 19991.357, 0.0, 10.0013, 9.997578 
4.5507333e+2, 2.7565074e+2, -157456.53, -484084.1, 1521.0309, 0.006512599, 0.05604588, -157449.45, 81172.92, 0.0, 10.001778, 9.997465 
4.5507684e+2, 2.8564793e+2, -68882.54, -488128.6, -52711.73, -0.027337259, 0.07963832, -62356.684, 78294.445, 0.000000022691747, 10.002131, 9.996599 
4.5508087e+2, 2.95644e+2, 25151.182, -380031.28, -58932.406, 0.021265661, -0.0135454815, 33548.66, 76239.21, 0.0000033720132, 10.002038, 9.996717 
4.5508415e+2, 3.0564228e+2, 105132.74, -241151.45, 32326.113, -0.18095005, 0.1126697, 108124.586, 108124.586, 0.000028360193, 10.001976, 9.997352 
4.5509312e+2, 3.1563795e+2, 252220.4, 38293.332, 18447.895, 0.031059502, -0.09838311, 253799.6, 253799.6, 0.00009465621, 10.002003, 9.999266 
4.6501386e+2, 1.256568e+2, -1819850.1, -1806754.5, -14538.898, -0.059354406, -0.1872691, -1797357.0, -88808.586, 0.00009773488, 9.999368, 9.999636 
4.6502337e+2, 1.3565722e+2, -1592950.0, -1645923.9, 14465.466, 0.40032053, -0.16384168, -1589257.4, 21291.92, 0.000043477085, 10.000257, 9.9996805 
4.650226e+2, 1.4565733e+2, -1454158.9, -1558314.6, 3836.7559, -0.24452111, -0.099916786, -1454017.8, 58533.066, 0.000012657647, 10.000699, 9.999363 
4.6502835e+2, 1.5565728e+2, -1386972.3, -1479187.0, -49136.254, -0.03177389, -0.081802115, -1365698.3, 48854.316, 0.0000014631825, 10.000516, 9.999323 
4.6503344e+2, 1.6565728e+2, -1321363.9, -1396321.8, -12530.694, 0.13426912, -0.005856038, -1319324.6, -2770.8965, 0.000000030371112, 10.00029, 9.999326 
4.6503678e+2, 1.7565718e+2, -1254189.0, -1312808.0, 3785.5574, 0.09958374, 0.015448769, -1253945.5, -35389.297, 0.0, 10.000072, 9.999336 
4.6503934e+2, 1.8565632e+2, -1142064.3, -1217205.4, 7269.687, 0.0320332, 0.0033764874, -1141367.4, -20802.764, 0.0, 10.000207, 9.999254 
4.6504194e+2, 1.9565456e+2, -994044.4, -1097193.5, 359.05878, 0.00035833323, -0.129761, -994043.1, 28537.277, 0.0, 10.00055, 9.999245 
4.650459e+2, 2.0565403e+2, -826631.94, -942901.8, 28452.732, 0.0511416, -0.11388759, -820042.6, 104542.18, 0.0, 10.000945, 9.999431 
4.650507e+2, 2.1565416e+2, -673419.56, -833131.94, -25875.36, 0.14416534, -0.073534094, -669332.06, 157250.84, 0.0, 10.00138, 9.999307 
4.6505442e+2, 2.2565311e+2, -644204.6, -917357.1, 10465.773, 0.0975397, -0.033167645, -643804.25, 84790.47, 0.0, 10.001574, 9.997948 
4.6505737e+2, 2.3565088e+2, -537760.4, -812900.7, 26644.479, -0.056838352, -0.08339815, -535203.9, 95415.516, 0.0, 10.001613, 9.997979 
4.650614e+2, 2.456497e+2, -393227.94, -614492.94, 11676.097, -0.07184751, -0.033149157, -392613.5, 140018.3, 0.0, 10.001586, 9.998683 
4.6506643e+2, 2.5564906e+2, -310978.1, -528447.5, -46420.223, 0.028200783, -0.0015351445, -301483.9, 133153.31, 0.0, 10.001492, 9.998648 
4.650713e+2, 2.6564783e+2, -246703.38, -544699.6, -31481.55, 0.07905169, 0.060684714, -243413.86, 93235.664, 0.0, 10.001685, 9.997777 
4.650758e+2, 2.7564597e+2, -110088.586, -440845.25, -35041.01, 0.07421892, 0.065430835, -106417.03, 132251.73, 0.0, 10.002003, 9.997665 
4.650795e+2, 2.856433e+2, -45892.438, -469384.03, -30208.531, 0.025849486, 0.09158559, -43748.457, 96947.414, 0.00000001636591, 10.002263, 9.996659 
4.6508318e+2, 2.9563943e+2, 113280.516, -316360.66, -17016.42, 0.032624472, -0.0027843826, 113953.414, 156687.64, 0.0000038591365, 10.002567, 9.996888 
4.6508634e+2, 3.0563712e+2, 101944.38, -266436.4, 104429.04, -0.15119137, 0.058118448, 129488.555, 129488.555, 0.000029778155, 10.002012, 9.997197 
4.6509543e+2, 3.1563318e+2, 69826.88, -12143.702, -4323.557, 0.15291323, -0.087224215, 70054.3, 70054.3, 0.00009717631, 10.000567, 9.999632 
4.7501147e+2, 1.2565239e+2, -1803166.1, -1733696.4, -149628.61, -0.3139434, -0.05692431, -1614823.8, 93775.91, 0.00009217974, 9.999243, 10.00018 
4.7502413e+2, 1.3565366e+2, -1558702.5, -1568004.3, 67373.836, 0.41325668, -0.002968316, -1495819.1, 114769.836, 0.00003847725, 10.000252, 10.000203 
4.7502485e+2, 1.4565368e+2, -1442899.1, -1531165.8, -17360.754, -0.13239987, 0.019460617, -1439607.4, 72981.28, 0.000009911169, 10.000669, 9.999571 
4.7502965e+2, 1.5565285e+2, -1362697.8, -1436551.3, -42416.836, 0.00787357, -0.0644092, -1343386.0, 71209.414, 0.0000009593812, 10.000535, 9.999613 
4.750336e+2, 1.656523e+2, -1277260.6, -1289805.9, -34827.895, 0.087832466, -0.09932081, -1248145.0, 68453.61, 0.000000014696447, 10.000228, 10.000091 
4.750359e+2, 1.7565165e+2, -1212891.5, -1214198.0, 12210.444, -0.02508019, -0.20221052, -1201316.9, 17285.104, 0.0, 10.000018, 10.000043 
4.7503924e+2, 1.8565157e+2, -1143775.6, -1200192.6, 7681.387, -0.02655119, -0.17780423, -1142748.5, -22146.518, 0.0, 10.0001135, 9.999418 
4.7504398e+2, 1.9565165e+2, -1000895.1, -1093467.5, 28937.357, 0.118074134, -0.14173818, -992593.94, 30007.615, 0.0, 10.000465, 9.999317 
4.7504804e+2, 2.0565125e+2, -922246.1, -1107382.6, 32279.45, 0.14273003, -0.05763484, -916779.44, 7828.8037, 0.0, 10.000805, 9.9983635 
4.7505143e+2, 2.156502e+2, -766411.7, -980923.1, 4608.24, 0.05095239, -0.031133465, -766312.75, 60310.38, 0.0, 10.001193, 9.998377 
4.750553e+2, 2.2564892e+2, -603669.06, -804010.5, -637.4342, -0.0020341284, -0.015158353, -603667.06, 124969.03, 0.0, 10.001433, 9.998801 
4.7505966e+2, 2.3564729e+2, -509074.88, -719530.8, 42083.97, -0.016085017, -0.09131419, -500971.53, 129677.78, 0.0, 10.00146, 9.998698 
4.7506368e+2, 2.4564543e+2, -497758.9, -806893.3, -2954.362, -0.029420106, -0.07498115, -497730.7, 34937.613, 0.0, 10.001474, 9.997418 
4.7506756e+2, 2.556431e+2, -412067.72, -715366.7, -32627.49, -0.04045039, -0.085360155, -408597.53, 26096.873, 0.0, 10.001378, 9.997423 
4.7507235e+2, 2.656413e+2, -243945.81, -513959.2, -31565.773, -0.011426106, -0.03612966, -240304.73, 96408.93, 0.0, 10.001588, 9.998029 
4.750776e+2, 2.7563956e+2, -103979.016, -400801.88, -6257.869, 0.022277473, -0.045702476, -103847.14, 134883.63, 0.0, 10.001896, 9.997986 
4.7508183e+2, 2.856376e+2, 7377.6035, -353786.25, -32671.951, -0.0015165897, -0.009459788, 10309.405, 151058.86, 0.0000000367379, 10.002232, 9.997472 
4.750858e+2, 2.9563522e+2, 151304.02, -218395.27, 6383.904, -0.004285811, -0.037133593, 151414.22, 194185.27, 0.000004901276, 10.002464, 9.997621 
4.750888e+2, 3.05632e+2, 80357.914, -287951.2, 37596.56, -0.12684543, -0.09484448, 84156.55, 84156.55, 0.000032907166, 10.001929, 9.997079 
4.7509608e+2, 3.1562948e+2, 67665.54, -2813.5112, -58645.83, 0.08692892, -0.08084855, 100844.99, 100844.99, 0.00010232853, 10.000522, 9.999708 
4.850116e+2, 1.2564777e+2, -1697661.5, -1651298.0, -164445.4, -0.2352441, 0.017469708, -1508408.4, 200241.58, 0.00008688649, 9.999826, 10.000481 
4.8502415e+2, 1.3564877e+2, -1490932.4, -1514425.4, 76230.71, 0.38543904, 0.031466953, -1425548.5, 185090.86, 0.000032757685, 10.000618, 10.000414 
4.850262e+2, 1.456489e+2, -1431733.4, -1476536.8, -18792.295, -0.046870753, 0.030145798, -1424894.9, 87741.29, 0.000007215262, 10.00054, 10.000002 
4.8503e+2, 1.556482e+2, -1430957.8, -1426429.4, -66996.87, 0.033420004, -0.08088762, -1361658.5, 52981.457, 0.00000059770906, 9.999881, 9.999996 
4.8503354e+2, 1.6564773e+2, -1344314.4, -1310577.5, -33151.344, 0.092215955, -0.13279998, -1290249.8, 26391.787, 0.0000000048834687, 9.999725, 10.000186 
4.8503622e+2, 1.7564714e+2, -1211349.0, -1200225.0, -58053.402, 0.014757122, -0.24416927, -1147467.8, 71176.516, 0.0, 9.9999895, 10.00014 
4.8503998e+2, 1.8564723e+2, -1105699.3, -1185145.4, -51069.992, 0.0289975, -0.20344268, -1080722.5, 39920.242, 0.0, 10.000408, 9.999364 
4.8504505e+2, 1.9564766e+2, -939639.2, -1063430.0, -71996.0, 0.16296797, -0.13353154, -906590.06, 116049.91, 0.0, 10.00091, 9.999288 
4.8504898e+2, 2.056472e+2, -911988.2, -1128959.8, -26870.535, 0.15528463, -0.041986573, -908709.94, 15937.857, 0.0, 10.000976, 9.998153 
4.8505205e+2, 2.1564576e+2, -870709.25, -1048062.3, -10637.712, 0.037939705, -0.03179622, -870073.5, -43406.81, 0.0, 10.0005455, 9.998239 
4.850565e+2, 2.2564451e+2, -684422.0, -822257.06, 23592.621, 0.012900836, -0.016571563, -680495.56, 48183.46, 0.0, 10.000792, 9.998987 
4.8506188e+2, 2.3564315e+2, -481962.75, -691149.94, -12528.434, 0.064537175, -0.08118682, -481215.06, 149473.83, 0.0, 10.001568, 9.998847 
4.8506603e+2, 2.4564123e+2, -434813.25, -782934.9, -16609.396, 0.040247105, -0.074293844, -434022.6, 98685.59, 0.0, 10.001933, 9.997363 
4.8506916e+2, 2.5563872e+2, -336269.9, -680760.75, 12461.663, -0.037837014, -0.09749572, -335819.72, 98916.67, 0.0, 10.001923, 9.9973955 
4.8507375e+2, 2.6563677e+2, -210456.7, -489498.7, 77892.03, -0.032869052, -0.062741786, -190186.34, 146570.45, 0.0, 10.001775, 9.998109 
4.8507932e+2, 2.7563488e+2, -151002.88, -412635.8, 60751.29, 0.029139437, -0.09562434, -137584.58, 101190.84, 0.0, 10.001514, 9.998095 
4.8508406e+2, 2.856332e+2, -80022.68, -340432.13, 49891.44, 0.048653584, -0.060952935, -70791.305, 69999.01, 0.00000008825205, 10.001384, 9.997974 
4.8508862e+2, 2.9563183e+2, 17896.16, -232883.03, 29319.21, 0.09999143, -0.041117106, 21278.326, 64079.406, 0.0000056092463, 10.00133, 9.998065 
4.8509172e+2, 3.0562818e+2, 69063.57, -281142.16, 83198.11, -0.00992934, -0.16473453, 87823.91, 87823.91, 0.000035389916, 10.001796, 9.99718 
4.85098e+2, 3.1562626e+2, 342835.47, 85364.83, -69916.695, 0.13661934, -0.10368329, 360596.3, 360596.3, 0.00010599746, 10.002595, 9.999313 
4.9501285e+2, 1.2564285e+2, -1687565.8, -1642725.9, -277233.13, -0.1763528, 0.037177105, -1387007.6, 321692.72, 0.00007926606, 9.999879, 10.000514 
4.950229e+2, 1.3564257e+2, -1490927.1, -1521029.1, 114955.67, 0.1640239, -0.07045141, -1390041.3, 220659.17, 0.000026309035, 10.000641, 10.000357 
4.9502623e+2, 1.4564297e+2, -1404145.1, -1402180.9, -59092.1, -0.13841149, -0.070428014, -1344062.8, 168630.81, 0.0000047383246, 10.000469, 10.000545 
4.9502897e+2, 1.5564346e+2, -1402208.4, -1359998.6, -74903.05, -0.094455905, -0.11772147, -1303283.9, 111401.13, 0.0000002991547, 9.999856, 10.0004635 
4.9503276e+2, 1.6564369e+2, -1384949.0, -1385359.6, -38669.977, 0.009758272, -0.093510866, -1346483.9, -29802.299, 0.0000000005507737, 9.999679, 9.999699 
4.9503735e+2, 1.756435e+2, -1250692.5, -1271858.0, -35857.434, 0.094742976, -0.114835575, -1223888.8, -5204.9297, 0.0, 9.999943, 9.999673 
4.950412e+2, 1.8564321e+2, -1138069.3, -1227806.6, -44665.516, 0.07844783, -0.08008497, -1119627.5, 1060.3855, 0.0, 10.000307, 9.999118 
4.9504468e+2, 1.9564249e+2, -968109.0, -1098816.9, -43553.023, 0.0034988504, -0.098118514, -954926.3, 67769.92, 0.0, 10.000805, 9.999098 
4.9504834e+2, 2.0564182e+2, -879778.1, -1029731.6, -58545.043, -0.027282014, -0.060986336, -859628.44, 65075.29, 0.0, 10.000829, 9.998907 
4.9505222e+2, 2.156409e+2, -843934.75, -965623.25, -9640.231, -0.027594415, -0.07349725, -843175.75, -16462.797, 0.0, 10.000415, 9.998873 
4.9505743e+2, 2.256398e+2, -746622.56, -912929.44, 41983.375, 0.0034923642, -0.042072695, -736625.06, -7900.8486, 0.0, 10.000636, 9.998434 
4.9506366e+2, 2.3563837e+2, -538114.3, -765417.1, 32375.555, 0.053778518, -0.06274309, -533592.9, 97146.055, 0.0, 10.001388, 9.998421 
4.9506792e+2, 2.456371e+2, -377650.28, -629851.94, -29444.338, 0.008364358, -0.029802104, -374258.3, 158493.0, 0.0, 10.001794, 9.998479 
4.950707e+2, 2.5563565e+2, -279931.7, -538021.0, 27077.768, -0.10780888, -0.055435047, -277121.4, 157643.7, 0.0, 10.001811, 9.99843 
4.9507505e+2, 2.6563397e+2, -231606.8, -508837.84, 52743.363, -0.11244686, -0.038756054, -221911.4, 114870.5, 0.0, 10.001679, 9.998016 
4.9508038e+2, 2.7563184e+2, -178949.53, -435042.97, 66980.18, -0.04568194, -0.088231675, -162489.13, 76314.67, 0.0, 10.001371, 9.998004 
4.9508566e+2, 2.8563038e+2, -72675.02, -310498.06, 36650.59, 0.03836218, -0.042993672, -67154.98, 73661.84, 0.00000018947561, 10.001324, 9.998207 
4.950913e+2, 2.9562923e+2, 24584.572, -207810.75, 47612.047, 0.1885574, -0.014072943, 33960.81, 76784.97, 0.000005650319, 10.001285, 9.998257 
4.950947e+2, 3.0562568e+2, 93531.36, -230722.53, 106703.27, 0.077845745, -0.15873137, 125493.92, 125493.92, 0.00003451672, 10.001791, 9.997529 
4.9510008e+2, 3.1562358e+2, 272775.47, -41398.93, -6837.423, 0.011487544, -0.1531397, 272924.2, 272924.2, 0.00010176044, 10.002512, 9.998478 
5.0501394e+2, 1.2563837e+2, -1651118.6, -1638928.3, -177405.88, -0.058950275, -0.01995966, -1467512.9, 241230.3, 0.000066640154, 10.000215, 10.0003605 
5.0502205e+2, 1.3563818e+2, -1589243.4, -1603571.9, 175047.1, 0.059185483, -0.08740617, -1421214.0, 189529.02, 0.0000195532, 10.000116, 10.000041 
5.050276e+2, 1.4563859e+2, -1515922.6, -1453598.6, -17779.13, 0.00048083227, -0.069168754, -1448883.5, 63853.332, 0.0000028130235, 9.999705, 10.000554 
5.0502914e+2, 1.5563917e+2, -1458364.8, -1381388.4, -105980.516, -0.033150814, -0.10868764, -1307123.8, 107604.78, 0.00000011765629, 9.999465, 10.000497 
5.0503254e+2, 1.6563958e+2, -1380659.6, -1393090.5, -7379.4194, 0.022526039, -0.06631238, -1377226.9, -60502.797, 0.000000000026416515, 9.999738, 9.99962 
5.0503767e+2, 1.7563954e+2, -1198453.0, -1255773.1, -2209.9875, 0.12243045, -0.06365956, -1198367.9, 20357.723, 0.0, 10.000324, 9.999604 
5.0504166e+2, 1.856392e+2, -1126336.5, -1216129.0, 30378.375, 0.10329882, -0.03057622, -1117024.6, 3705.022, 0.0, 10.000357, 9.999181 
5.0504494e+2, 1.956384e+2, -1091714.1, -1150815.6, 31964.99, 0.0050084963, -0.061141286, -1077733.1, -54995.12, 0.0, 9.999926, 9.9991665 
5.05049e+2, 2.056375e+2, -934058.06, -1033034.4, 35832.18, -0.016964255, -0.058126085, -922447.75, 2298.4448, 0.0, 10.000384, 9.999076 
5.0505364e+2, 2.1563628e+2, -687583.6, -870636.3, 6050.251, 0.02675548, -0.120484896, -687383.9, 139372.81, 0.0, 10.001433, 9.999015 
5.050588e+2, 2.2563528e+2, -646824.94, -872795.06, 71155.984, 0.05538119, -0.08309276, -626285.5, 102481.61, 0.0, 10.001345, 9.998376 
5.050646e+2, 2.3563428e+2, -706417.5, -843668.25, 69264.75, 0.07780667, -0.053885292, -677538.8, -46759.77, 0.0, 10.000237, 9.998431 
5.0506914e+2, 2.456333e+2, -590282.9, -685155.6, 43217.25, 0.044315234, -0.015529206, -573548.06, -40759.72, 0.0, 10.000122, 9.998907 
5.0507283e+2, 2.55632e+2, -395587.22, -547951.44, 22733.01, -0.018536672, -0.06864108, -392267.72, 42531.19, 0.0, 10.000817, 9.998841 
5.0507724e+2, 2.656306e+2, -280714.3, -538893.75, 48697.848, -0.03008192, -0.042825993, -271834.34, 64978.637, 0.0, 10.00136, 9.997974 
5.0508213e+2, 2.7562886e+2, -135518.38, -418808.53, 30800.27, -0.011307949, -0.048334587, -132208.34, 106623.78, 0.00000000061010413, 10.001681, 9.997972 
5.050874e+2, 2.856272e+2, 4047.9072, -251051.69, 28137.668, 0.06901858, -0.030538257, 7114.6445, 147961.84, 0.00000027597625, 10.001758, 9.998409 
5.0509316e+2, 2.9562545e+2, 85665.79, -160096.9, 3509.1553, 0.2418804, -0.08384577, 85715.88, 128576.37, 0.0000049916057, 10.00163, 9.998425 
5.050973e+2, 3.0562297e+2, 133082.77, -185556.75, 116558.266, 0.1646968, -0.13716203, 171167.7, 171167.7, 0.000030276777, 10.001949, 9.997767 
5.051028e+2, 3.1562182e+2, 236366.03, -70591.76, -67751.82, 0.056293946, -0.06547292, 250655.08, 250655.08, 0.000090633286, 10.002311, 9.998378 
5.1501375e+2, 1.2563445e+2, -1674938.9, -1701854.4, -214905.66, -0.1773548, -0.13960105, -1473070.0, 235706.88, 0.000052165007, 10.000257, 9.999913 
5.150213e+2, 1.3563564e+2, -1624448.4, -1689382.3, 182126.25, -0.06672255, -0.01810384, -1471917.8, 138848.64, 0.000013925394, 10.000162, 9.999433 
5.150299e+2, 1.4563575e+2, -1556165.0, -1533507.1, -47081.87, 0.2139004, 0.03125509, -1496410.4, 16355.537, 0.000001645238, 9.999686, 10.000019 
5.150301e+2, 1.5563527e+2, -1495737.5, -1452545.9, -96539.04, 0.08473969, -0.063683905, -1375216.6, 39554.098, 0.00000003629146, 9.999434, 10.000028 
5.1503235e+2, 1.6563529e+2, -1371200.8, -1351793.6, 3841.147, 0.0004785928, -0.05570406, -1351061.0, -34290.914, 0.0, 9.999649, 9.999941 
5.1503676e+2, 1.7563531e+2, -1186432.5, -1215320.5, 32201.008, -0.03972952, -0.082132004, -1165584.4, 53184.492, 0.0, 10.000265, 9.999905 
5.15041e+2, 1.8563545e+2, -1110239.8, -1162814.5, 728.4065, -0.030100228, -0.03745664, -1110229.6, 10536.605, 0.0, 10.000269, 9.999585 
5.150454e+2, 1.9563544e+2, -1075148.3, -1105601.4, 34395.46, 0.024911026, -0.032933407, -1052759.8, -29994.682, 0.0, 9.999867, 9.999506 
5.1505035e+2, 2.0563416e+2, -997840.1, -1128266.4, 62118.98, 0.05748168, -0.05236365, -972989.25, -48212.863, 0.0, 10.000225, 9.9985 
5.150558e+2, 2.156317e+2, -743429.56, -950857.5, 53824.035, 0.07259301, -0.18477298, -730294.8, 96504.77, 0.0, 10.001274, 9.998543 
5.150604e+2, 2.2563072e+2, -634417.06, -816193.06, 13680.387, 0.053065956, -0.14707458, -633393.25, 95416.22, 0.0, 10.001205, 9.998837 
5.1506436e+2, 2.356307e+2, -695787.06, -794281.5, 45706.203, -0.0054348446, -0.0642519, -677845.44, -47034.598, 0.0, 10.000114, 9.998835 
5.150692e+2, 2.4562973e+2, -613283.75, -714239.75, 55708.656, 0.00870004, -0.03507141, -588585.4, -55765.25, 0.0, 10.000043, 9.998744 
5.1507497e+2, 2.5562778e+2, -423755.97, -578867.06, 64037.355, 0.079645626, -0.1421298, -400734.94, 34103.098, 0.0, 10.000691, 9.998692 
5.1508e+2, 2.6562667e+2, -295636.88, -548688.2, 47254.324, 0.07539029, -0.0754981, -287100.63, 49749.26, 0.0, 10.001273, 9.997951 
5.1508427e+2, 2.7562585e+2, -147778.1, -427815.88, 62205.188, 0.00209251, 0.017107913, -134582.19, 104279.0, 0.0000000018853024, 10.001601, 9.997956 
5.1508886e+2, 2.8562367e+2, 6171.661, -235289.61, 9458.804, 0.0073985565, -0.022904912, 6541.6255, 147423.63, 0.00000034894228, 10.001716, 9.998533 
5.1509374e+2, 2.956203e+2, 77260.66, -157086.73, 20271.611, 0.09458174, -0.25409585, 79001.27, 121912.48, 0.000004315403, 10.001538, 9.998487 
5.15099e+2, 3.0561993e+2, 137526.63, -160403.78, 124233.99, 0.105632946, -0.10706323, 182532.33, 182532.33, 0.000026122347, 10.001901, 9.997961 
5.151054e+2, 3.156205e+2, 258823.9, 5718.2427, -11948.705, 0.012169615, 0.123856135, 259386.73, 259386.73, 0.000081293096, 10.002202, 9.998952 
5.2501523e+2, 1.2563154e+2, -1618965.1, -1678025.3, -190891.16, -0.054867983, -0.09965598, -1455333.5, 253472.61, 0.000041919076, 10.000651, 9.999881 
5.250199e+2, 1.3563228e+2, -1744709.6, -1756121.1, 117953.34, -0.17121033, -0.018215984, -1632324.1, -21524.717, 0.000010470756, 9.999385, 9.999341 
5.250304e+2, 1.4563198e+2, -1675518.0, -1624281.9, -4271.6265, 0.33920315, 0.013032191, -1623928.3, -111124.914, 0.0000009776196, 9.999009, 9.9997225 
5.250302e+2, 1.556318e+2, -1444262.9, -1455155.8, -66750.57, 0.13748635, -0.02552449, -1382736.9, 32070.105, 0.000000005050013, 9.999905, 9.999778 
5.2503204e+2, 1.6563174e+2, -1324720.3, -1331299.6, 46280.87, -0.0020428794, -0.012087434, -1281612.3, 35195.008, 0.0, 9.999973, 9.999933 
5.2503633e+2, 1.756314e+2, -1316926.1, -1279120.5, 19953.69, -0.0524853, -0.072111435, -1270537.5, -51728.93, 0.0, 9.999359, 9.999914 
5.250411e+2, 1.8563142e+2, -1170743.1, -1166722.6, 7605.2734, -0.019758962, -0.050547548, -1160866.4, -40060.656, 0.0, 9.999744, 9.999822 
5.2504617e+2, 1.956315e+2, -929227.44, -1007152.1, -3294.4226, 0.07160018, -0.054111965, -929088.44, 93713.18, 0.0, 10.000773, 9.999746 
5.250515e+2, 2.0563038e+2, -897908.7, -1084133.5, 67889.87, 0.113760374, -0.068204835, -875786.75, 49024.008, 0.0, 10.000911, 9.998478 
5.25057e+2, 2.1562806e+2, -890593.06, -1030176.4, 75028.52, 0.121441245, -0.18443951, -857914.44, -31081.57, 0.0, 10.000283, 9.998483 
5.2506155e+2, 2.2562686e+2, -732047.94, -882548.1, 43134.363, 0.081229046, -0.15526856, -720561.94, 8283.158, 0.0, 10.000638, 9.99864 
5.2506524e+2, 2.356263e+2, -466393.16, -709087.1, -3298.0996, 0.0018913735, -0.107261285, -466348.34, 164504.11, 0.0, 10.001801, 9.998606 
5.2507037e+2, 2.4562523e+2, -328313.03, -596284.8, 10941.442, 0.023401784, -0.06703191, -327867.03, 204996.33, 0.0, 10.002085, 9.998576 
5.250765e+2, 2.5562364e+2, -295540.78, -532152.3, -9530.277, 0.13021824, -0.11960415, -295157.56, 139721.06, 0.0, 10.001646, 9.998552 
5.2508193e+2, 2.6562244e+2, -252624.77, -505994.22, 16360.502, 0.14325774, -0.0673676, -251572.7, 85318.8, 0.0, 10.001476, 9.9981365 
5.2508664e+2, 2.756212e+2, -148500.7, -397939.2, 16288.396, 0.09564799, -0.03533302, -147441.56, 91464.13, 0.00000000009174081, 10.001497, 9.998188 
5.25091e+2, 2.8561935e+2, -25701.115, -249140.92, -10485.8, 0.06886802, -0.056548603, -25210.105, 115713.695, 0.00000033351301, 10.001489, 9.998545 
5.2509487e+2, 2.956168e+2, 58001.88, -163894.72, -38343.723, 0.06946088, -0.21058315, 64440.832, 107387.49, 0.0000041082662, 10.001395, 9.998505 
5.251011e+2, 3.0561656e+2, 132084.75, -178986.06, 109506.81, 0.14416887, -0.0449188, 166767.66, 166767.66, 0.000024723933, 10.001919, 9.997836 
5.2510846e+2, 3.156163e+2, 318939.28, 77823.51, -118200.61, 0.105268605, 0.118522175, 367217.38, 367217.38, 0.00007789345, 10.002426, 9.999348 
5.350178e+2, 1.256295e+2, -1575085.8, -1600719.5, -176099.55, 0.039871592, 0.08594481, -1411337.3, 297494.66, 0.000035694404, 10.00072, 10.000376 
5.3501743e+2, 1.356281e+2, -1724268.6, -1707039.0, 75855.22, -0.38411576, -0.08096306, -1639311.0, -28469.777, 0.000008273398, 9.999359, 9.999695 
5.3502864e+2, 1.4562736e+2, -1686356.8, -1634759.0, 12028.134, 0.21797778, -0.109475985, -1632092.9, -119244.71, 0.00000061502607, 9.998955, 9.999672 
5.35029e+2, 1.5562882e+2, -1454221.8, -1472554.5, -21732.174, -0.012115015, 0.017005192, -1439801.9, -24965.05, 0.00000000036285042, 9.999886, 9.999666 
5.3503126e+2, 1.6562891e+2, -1357459.9, -1387163.9, 5938.2285, -0.112280376, 0.069820024, -1356316.8, -39480.7, 0.0, 9.999922, 9.999576 
5.3503615e+2, 1.7562768e+2, -1345581.8, -1332329.5, 15093.751, -0.040362053, -0.041644298, -1322471.5, -103625.45, 0.0, 9.999329, 9.999568 
5.3504133e+2, 1.8562703e+2, -1181066.3, -1169731.3, 33771.35, 0.004247431, -0.07195761, -1141155.1, -20306.455, 0.0, 9.999666, 9.999836 
5.3504664e+2, 1.9562654e+2, -942189.4, -1014573.0, 46288.113, 0.015141547, -0.13534829, -919623.75, 103224.68, 0.0, 10.00068, 9.999744 
5.350517e+2, 2.0562612e+2, -882544.94, -1009769.9, 30810.713, 0.022379812, -0.11048031, -875476.1, 49373.6, 0.0, 10.000737, 9.999066 
5.3505677e+2, 2.1562551e+2, -879854.6, -970031.9, 67263.484, 0.043505114, -0.11297392, -843965.75, -17111.059, 0.0, 10.000121, 9.99897 
5.3506184e+2, 2.2562382e+2, -820552.8, -1033623.1, 73183.81, 0.022716982, -0.10695405, -797837.75, -68964.84, 0.0, 10.000493, 9.997676 
5.3506696e+2, 2.3562105e+2, -553827.8, -848856.2, 51704.184, -0.036776822, -0.18553624, -545029.0, 85874.52, 0.0, 10.00162, 9.997729 
5.3507215e+2, 2.4561971e+2, -361620.13, -635755.6, -17766.992, -0.032891657, -0.11906592, -360473.4, 172444.98, 0.0, 10.001963, 9.998361 
5.350773e+2, 2.5561932e+2, -324578.34, -567380.75, -8312.637, 0.005207841, -0.031229382, -324294.1, 110629.055, 0.0, 10.001539, 9.998361 
5.350828e+2, 2.6561773e+2, -229834.73, -442716.1, 2898.5967, 0.055492748, -0.031095976, -229795.28, 107143.57, 0.0, 10.001408, 9.998605 
5.350887e+2, 2.7561492e+2, -132921.25, -345213.56, 33384.1, 0.11593117, -0.20785308, -127795.195, 111171.305, 0.0, 10.001398, 9.998607 
5.3509325e+2, 2.856141e+2, -33033.02, -254593.6, -25695.861, 0.11103423, -0.1428565, -30091.94, 110882.766, 0.00000019037492, 10.001452, 9.998522 
5.350962e+2, 2.9561472e+2, 43116.73, -179215.58, -17167.162, 0.023733523, 0.025680518, 44434.465, 87403.46, 0.0000040138116, 10.001325, 9.998437 
5.351034e+2, 3.0561265e+2, 92777.83, -260671.67, 124275.16, 0.14413881, 0.045263793, 132099.27, 132099.27, 0.000024880646, 10.001916, 9.997273 
5.351109e+2, 3.1560892e+2, 329599.25, 94518.34, -47598.324, 0.02933152, -0.08855642, 338871.1, 338871.1, 0.00007745561, 10.002431, 9.999464 
5.450194e+2, 1.2562563e+2, -1722755.1, -1679933.6, -85024.72, 0.19406909, 0.12353143, -1613665.4, 95207.85, 0.00003031358, 9.999728, 10.000351 
5.450165e+2, 1.3562457e+2, -1777873.9, -1711147.5, -44340.016, -0.3683146, -0.016803546, -1689020.6, -78141.484, 0.000006366235, 9.998907, 9.999892 
5.4502773e+2, 1.4562362e+2, -1767576.8, -1662745.0, 1603.1786, 0.27194053, -0.07783524, -1662720.5, -149833.58, 0.00000037085837, 9.998346, 9.9997835 
5.450283e+2, 1.5562478e+2, -1601696.9, -1530225.5, -50175.965, -0.0046726014, 0.005626927, -1504360.4, -89483.984, 0.00000000007720086, 9.998812, 9.999794 
5.45031e+2, 1.6562472e+2, -1418384.9, -1442664.8, 6002.541, -0.10261692, 0.052974984, -1416982.0, -100105.75, 0.0, 9.999647, 9.999311 
5.450366e+2, 1.7562355e+2, -1175759.6, -1275702.6, -11312.066, 0.02196627, -0.025127025, -1174495.3, 44391.25, 0.0, 10.00064, 9.9993105 
5.4504204e+2, 1.8562254e+2, -1062076.1, -1145689.9, 21934.512, 0.074495405, -0.06519945, -1056671.4, 64221.566, 0.0, 10.000607, 9.9995575 
5.4504716e+2, 1.9562145e+2, -1087878.3, -1109450.5, -12233.561, 0.058221083, -0.16583523, -1082354.9, -59456.297, 0.0, 9.999772, 9.999531 
5.450522e+2, 2.05621e+2, -988273.9, -1053484.4, -24534.89, 0.04184932, -0.13501798, -980073.94, -55173.793, 0.0, 9.999979, 9.999141 
5.450572e+2, 2.1562082e+2, -767212.4, -901222.4, -50190.066, 0.04774272, -0.10095255, -750499.3, 76402.055, 0.0, 10.000848, 9.99909 
5.450627e+2, 2.2561929e+2, -713922.4, -960357.0, 22946.525, 0.03497259, -0.09327807, -711803.94, 17113.113, 0.0, 10.001118, 9.997882 
5.4506856e+2, 2.3561648e+2, -646640.1, -876843.5, 54936.184, 0.0048864293, -0.19670476, -634202.06, -3255.3857, 0.0, 10.000902, 9.997892 
5.450739e+2, 2.4561511e+2, -496371.5, -698005.2, 44120.484, -0.00022807912, -0.14303707, -487139.94, 45821.37, 0.0, 10.001024, 9.998386 
5.4507875e+2, 2.5561467e+2, -339713.47, -573217.0, 38634.477, 0.008944842, -0.059848715, -333487.22, 101479.2, 0.0, 10.001428, 9.998379 
5.4508424e+2, 2.6561326e+2, -236933.4, -443043.72, 63278.816, 0.0673945, -0.045641303, -219056.45, 117924.45, 0.0, 10.001355, 9.998624 
5.450905e+2, 2.7561072e+2, -194149.4, -372621.1, 33259.82, 0.1819896, -0.19871965, -188152.63, 50853.703, 0.0, 10.000973, 9.998623 
5.4509526e+2, 2.8560987e+2, -13245.475, -276254.9, 12502.24, 0.16338387, -0.12224273, -12652.514, 128362.73, 0.00000011177434, 10.001733, 9.99824 
5.4509854e+2, 2.956103e+2, 323399.88, -67501.27, -28433.273, 0.030378131, 0.060065635, 325457.22, 368468.47, 0.0000045059896, 10.003384, 9.998201 
5.451066e+2, 3.0560714e+2, 280556.8, -190058.14, 105463.734, 0.21427375, -0.012056785, 303110.2, 303110.2, 0.000026381855, 10.003288, 9.997089 
5.4511356e+2, 3.1560317e+2, 137755.0, -10043.671, -79557.98, 0.12930438, -0.15730357, 172440.13, 172440.13, 0.00007890932, 10.001183, 9.999328 
5.5501956e+2, 1.2562014e+2, -1745961.5, -1725969.9, -19397.531, 0.168935, 0.055043653, -1714144.1, -5216.688, 0.000026661766, 9.999725, 10.0000305 
5.550169e+2, 1.3562165e+2, -1782254.3, -1723083.5, -73855.06, -0.26009133, 0.18126814, -1673108.5, -62195.086, 0.0000052899522, 9.99891, 9.999816 
5.5502737e+2, 1.4562067e+2, -1747205.1, -1607126.1, -2545.25, 0.3631732, 0.09637662, -1607079.9, -94159.234, 0.00000021782215, 9.998303, 10.000179 
5.5502784e+2, 1.5561964e+2, -1582527.1, -1485127.6, -12352.0625, 0.031185722, -0.06891653, -1483585.6, -68660.06, 0.00000000000011946363, 9.99879, 10.000117 
5.5503094e+2, 1.6561927e+2, -1437341.3, -1477052.3, 30043.115, -0.10890782, -0.05959255, -1421185.3, -104257.97, 0.0, 9.999623, 9.999087 
5.5503744e+2, 1.7561898e+2, -1202235.1, -1318787.3, 34604.223, 0.005280308, -0.02669813, -1192735.4, 26195.102, 0.0, 10.000585, 9.999044 
5.55043e+2, 1.8561794e+2, -1109069.1, -1219208.4, -23252.691, 0.07349504, -0.030765109, -1104361.3, 16577.385, 0.0, 10.000504, 9.9991045 
5.5504745e+2, 1.9561614e+2, -1132708.3, -1186004.9, -24586.393, 0.074889615, -0.15170528, -1123098.9, -100146.37, 0.0, 9.999692, 9.999053 
5.5505234e+2, 2.0561497e+2, -1034778.4, -1115446.0, -3685.1006, 0.041811507, -0.15179217, -1034610.4, -109647.93, 0.0, 9.99984, 9.998777 
5.550579e+2, 2.1561404e+2, -811064.75, -953749.94, -4483.345, -0.0019482209, -0.15756947, -810924.0, 16048.239, 0.0, 10.000679, 9.998811 
5.5506366e+2, 2.2561328e+2, -650048.25, -787088.6, 1846.611, -0.008245764, -0.12710054, -650023.4, 78954.7, 0.0, 10.000945, 9.999156 
5.550697e+2, 2.356125e+2, -588674.75, -711099.0, 62921.03, -0.00035463623, -0.15197305, -562103.2, 68879.39, 0.0, 10.000711, 9.999121 
5.550752e+2, 2.4561138e+2, -497998.13, -675384.5, 46828.113, 0.0026527648, -0.14203432, -486394.97, 46597.22, 0.0, 10.000903, 9.998609 
5.550803e+2, 2.5560975e+2, -343505.28, -551998.5, 68048.695, -0.0047240723, -0.20133531, -323261.03, 111747.48, 0.0, 10.001297, 9.998591 
5.550858e+2, 2.6560894e+2, -276846.44, -507813.75, 34895.43, 0.053166565, -0.11671704, -271689.44, 65328.95, 0.0, 10.001283, 9.998211 
5.5509156e+2, 2.756084e+2, -239032.1, -448133.53, 38517.63, 0.16031332, -0.024000067, -232162.61, 6864.6406, 0.0, 10.000896, 9.998143 
5.550968e+2, 2.8560644e+2, -54812.04, -355694.2, 59734.74, 0.114610955, -0.0018031411, -43386.637, 97660.47, 0.00000024371042, 10.001698, 9.997716 
5.551013e+2, 2.9560345e+2, 281275.6, -143484.36, 45922.418, -0.079991035, -0.11412076, 286183.72, 329259.03, 0.0000058589785, 10.003318, 9.99772 
5.551101e+2, 3.055999e+2, 285250.0, -156739.98, 20034.98, 0.20865794, -0.21851885, 286156.3, 286156.3, 0.000029984647, 10.003203, 9.99735 
5.551156e+2, 3.1559885e+2, 90419.055, -82053.3, -93620.805, 0.14605236, -0.09700589, 131468.13, 131468.13, 0.00008416486, 10.001066, 9.998891 
5.650187e+2, 1.2561476e+2, -1825683.9, -1798593.0, 124836.38, 0.15755971, -0.013996935, -1686569.4, 22406.932, 0.000022362967, 9.9993105, 9.99972 
5.650172e+2, 1.3561673e+2, -1774478.6, -1723687.9, -111405.24, -0.108396925, 0.16032152, -1634820.1, -23859.4, 0.000004259607, 9.998987, 9.999754 
5.650264e+2, 1.45616e+2, -1592361.4, -1536480.1, 37249.684, 0.40036583, 0.10294055, -1517856.6, -4890.527, 0.00000013010742, 9.99935, 10.000178 
5.650278e+2, 1.5561482e+2, -1306293.5, -1346300.6, -24672.922, 0.06256602, -0.07842962, -1294533.9, 120437.516, 0.0, 10.000652, 10.000179 
5.650313e+2, 1.6561437e+2, -1297358.3, -1413504.1, 15649.2295, -0.070273265, -0.07869006, -1295286.6, 21686.883, 0.0, 10.000582, 9.999071 
5.650379e+2, 1.7561397e+2, -1360243.8, -1392370.8, 12759.538, 0.061753605, -0.058132656, -1355792.9, -136814.9, 0.0, 9.999474, 9.999074 
5.650436e+2, 1.8561313e+2, -1188380.1, -1254295.8, 27777.56, 0.12780982, -0.0465098, -1178235.6, -57250.863, 0.0, 9.999958, 9.999115 
5.650484e+2, 1.9561179e+2, -860725.06, -1049323.6, 36710.336, 0.11428707, -0.12652935, -853831.5, 169163.42, 0.0, 10.001555, 9.999075 
5.650535e+2, 2.0561047e+2, -758208.5, -1024008.06, 91797.125, 0.0781924, -0.12416879, -729587.2, 195420.08, 0.0, 10.001919, 9.998401 
5.6505924e+2, 2.1560898e+2, -750681.7, -959658.44, 64270.7, 0.053116497, -0.14777048, -732497.56, 94525.85, 0.0, 10.001255, 9.998487 
5.6506515e+2, 2.2560813e+2, -602062.06, -750620.0, 52802.074, 0.035057884, -0.11939027, -585206.94, 143823.2, 0.0, 10.001224, 9.999269 
5.65071e+2, 2.356075e+2, -444643.8, -627544.0, 1105.6221, 0.021407045, -0.14084159, -444637.13, 186395.08, 0.0, 10.001642, 9.999242 
5.650766e+2, 2.4560641e+2, -393026.78, -598487.06, -30740.53, 0.024064094, -0.14467165, -388526.03, 144514.6, 0.0, 10.001539, 9.998809 
5.6508183e+2, 2.5560468e+2, -360707.97, -541374.94, -44114.39, 0.04079721, -0.2304407, -350511.78, 84545.09, 0.0, 10.001114, 9.998741 
5.650875e+2, 2.6560372e+2, -231070.53, -493752.16, -18735.172, 0.09182912, -0.16303946, -229741.02, 107326.36, 0.0, 10.001618, 9.998148 
5.650935e+2, 2.7560315e+2, 40567.938, -313736.6, -13774.819, 0.17805396, -0.07331384, 41102.676, 280178.5, 0.0, 10.002822, 9.998131 
5.650991e+2, 2.8560123e+2, 102589.94, -278133.56, 74326.734, 0.13134721, -0.051754497, 116585.87, 257681.11, 0.00000046127252, 10.002747, 9.99775 
5.651041e+2, 2.9559833e+2, 44004.3, -257669.34, 74356.305, -0.031985436, -0.15953782, 61335.867, 104458.805, 0.000007820285, 10.001669, 9.997736 
5.651131e+2, 3.0559516e+2, 70918.16, -223799.55, 64178.004, 0.28335187, -0.24199238, 84287.17, 84287.17, 0.00003595913, 10.001564, 9.997685 
5.651169e+2, 3.1559476e+2, 209926.11, -15462.597, -59865.33, 0.13957028, -0.09343324, 224840.05, 224840.05, 0.000094486146, 10.0018425, 9.998978 
5.7501674e+2, 1.2560916e+2, -1844366.3, -1825639.1, 160382.45, -0.048234392, -0.115126245, -1674347.1, 34675.95, 0.000015098279, 9.999272, 9.999544 
5.75017e+2, 1.3560957e+2, -1785644.0, -1745033.1, -119893.02, -0.062780485, -0.082398646, -1643738.1, -32714.955, 0.0000026568694, 9.998978, 9.999611 
5.750246e+2, 1.4560951e+2, -1613092.1, -1569932.4, 63092.332, 0.24650916, -0.055072095, -1524831.4, -11807.12, 0.000000050157187, 9.999316, 9.999961 
5.750277e+2, 1.5561026e+2, -1329441.5, -1383397.4, 33455.0, -0.038555663, -0.019011868, -1313442.1, 101572.39, 0.0, 10.0006075, 9.999949 
5.750318e+2, 1.6560999e+2, -1283740.1, -1369489.4, -43724.87, -0.11262887, -0.008629365, -1265376.8, 51639.055, 0.0, 10.000511, 9.999404 
5.7503766e+2, 1.7560856e+2, -1344118.5, -1351281.0, -9276.104, 0.05572962, -0.123353176, -1337756.4, -118727.56, 0.0, 9.999434, 9.999377 
5.750437e+2, 1.856082e+2, -1161452.4, -1180330.5, 76049.66, 0.10773535, -0.107633665, -1094258.3, 26772.223, 0.0, 9.999885, 9.999656 
5.750496e+2, 1.9560835e+2, -846041.6, -987070.44, 105867.375, 0.04086038, -0.08927419, -789354.7, 233671.52, 0.0, 10.001421, 9.999566 
5.7505536e+2, 2.056075e+2, -808701.4, -1086911.9, 50515.92, 0.03704329, -0.04624549, -799812.94, 125221.57, 0.0, 10.001737, 9.998056 
5.750611e+2, 2.1560565e+2, -805000.8, -1031152.0, 54740.074, 0.08054672, -0.06779623, -792447.7, 34607.12, 0.0, 10.001077, 9.998083 
5.7506657e+2, 2.2560376e+2, -690370.56, -899545.44, 55438.707, 0.03767699, -0.073043674, -676585.75, 52487.977, 0.0, 10.00107, 9.9983225 
5.7507193e+2, 2.3560154e+2, -530602.75, -767459.5, 30849.242, -0.07577232, -0.15918995, -526650.75, 104443.78, 0.0, 10.001472, 9.9983635 
5.750775e+2, 2.4560025e+2, -401948.63, -597164.4, -61229.445, -0.0708059, -0.14829755, -384333.5, 148772.47, 0.0, 10.001439, 9.998874 
5.750831e+2, 2.5559938e+2, -369989.7, -536817.0, -39503.94, 0.015325439, -0.1542571, -361108.16, 74004.55, 0.0, 10.000999, 9.998833 
5.750892e+2, 2.6559764e+2, -212190.7, -446110.72, 13556.906, 0.06687825, -0.18795206, -211407.64, 125720.2, 0.0, 10.001573, 9.998503 
5.7509583e+2, 2.7559495e+2, 58588.754, -261287.64, 38800.55, 0.089170806, -0.3436811, 63227.92, 302380.22, 0.0, 10.00274, 9.99854 
5.751016e+2, 2.855942e+2, 140920.11, -179777.77, 18309.623, 0.077003315, -0.26388386, 141962.06, 283121.6, 0.0000006054728, 10.002671, 9.998462 
5.751067e+2, 2.955948e+2, 76281.79, -169778.52, 57049.277, 0.012982197, -0.0892254, 88865.2, 132020.38, 0.000009307056, 10.001583, 9.998381 
5.7511526e+2, 3.055929e+2, 91347.33, -169998.78, 67968.62, 0.3131074, -0.09170451, 107967.11, 107967.11, 0.000040671366, 10.001521, 9.998079 
5.7511675e+2, 3.155904e+2, 231883.27, 51049.137, 49038.336, -0.13132916, -0.1912809, 244325.36, 244325.36, 0.000103750725, 10.001752, 9.999485 
5.8501565e+2, 1.2560308e+2, -1921892.8, -1806916.0, 132895.7, -0.030169664, -0.114836514, -1719607.3, -10524.231, 0.000008007214, 9.998464, 10.000081 
5.850172e+2, 1.3560371e+2, -1628562.9, -1608275.5, -180636.75, 0.036815375, -0.1144916, -1437497.9, 173580.19, 0.0000012151539, 9.999784, 10.000168 
5.850228e+2, 1.4560392e+2, -1586078.0, -1571617.0, 55455.45, 0.13388796, -0.07700879, -1522922.6, -9846.47, 0.000000012980553, 9.999603, 9.999784 
5.8502764e+2, 1.5560459e+2, -1632381.4, -1541348.6, -5138.678, 0.0031395177, -0.03694421, -1541059.4, -125990.11, 0.0, 9.998606, 9.999803 
5.8503246e+2, 1.6560434e+2, -1461595.6, -1431399.0, -43855.7, -0.02295328, -0.027461985, -1400115.4, -83044.66, 0.0, 9.999185, 9.999621 
5.850382e+2, 1.756032e+2, -1097699.0, -1204660.4, -43338.277, 0.090672016, -0.13715187, -1082343.8, 136736.94, 0.0, 10.001006, 9.999627 
5.8504415e+2, 1.8560305e+2, -999296.2, -1099582.8, 32837.35, 0.115384914, -0.110902704, -989500.9, 131579.45, 0.0, 10.000978, 9.999693 
5.850501e+2, 1.9560339e+2, -1130222.3, -1123217.0, -1323.8815, 0.060271025, -0.0766644, -1122975.3, -99899.734, 0.0, 9.999447, 9.9995985 
5.8505636e+2, 2.0560265e+2, -1036916.6, -1164058.8, 10629.887, 0.05689288, -0.040597335, -1036034.06, -110951.56, 0.0, 10.000025, 9.998348 
5.8506286e+2, 2.1560085e+2, -610394.94, -910733.94, 33163.383, 0.09592761, -0.08754993, -606776.6, 220324.3, 0.0, 10.002285, 9.998332 
5.8506846e+2, 2.255991e+2, -521797.7, -827432.8, 64780.793, 0.066119626, -0.08600539, -508634.06, 220484.8, 0.0, 10.002275, 9.99824 
5.8507335e+2, 2.355971e+2, -682222.2, -854314.6, 74939.56, -0.019460019, -0.13768767, -654163.6, -23024.664, 0.0, 10.000486, 9.998252 
5.850789e+2, 2.4559584e+2, -536089.25, -670589.3, 80240.76, -0.018667314, -0.11277055, -498643.8, 34506.867, 0.0, 10.000555, 9.998788 
5.8508486e+2, 2.555949e+2, -200359.86, -462236.06, 60490.605, 0.04373881, -0.12006263, -187062.39, 248095.56, 0.0, 10.002203, 9.998754 
5.8509135e+2, 2.6559293e+2, -110507.57, -413853.72, 100249.055, 0.09138148, -0.16786788, -80371.42, 256804.06, 0.0, 10.002366, 9.998335 
5.850983e+2, 2.7558982e+2, -149405.61, -375923.66, 56672.754, 0.1440412, -0.34495807, -136017.84, 103185.73, 0.0, 10.001403, 9.998386 
5.851039e+2, 2.855891e+2, -29547.135, -239416.84, 14888.102, 0.111155234, -0.26408714, -28496.24, 112714.266, 0.00000055145284, 10.001402, 9.998659 
5.8510834e+2, 2.9559004e+2, 153207.39, -109864.53, -15152.97, 0.0078046955, -0.07475819, 154077.33, 197280.48, 0.000008783807, 10.002012, 9.998583 
5.851166e+2, 3.0558845e+2, 180460.28, -88261.53, 14310.664, 0.2922948, -0.0770391, 181220.25, 181220.25, 0.000039667964, 10.001965, 9.998418 
5.8511835e+2, 3.1558642e+2, 158919.92, 43684.203, -6841.018, -0.09825032, -0.16711642, 159324.63, 159324.63, 0.00010388018, 10.001139, 9.999712 
5.9501487e+2, 1.2559655e+2, -1810748.8, -1577511.9, 115832.164, -0.027669314, -0.0032991346, -1529762.0, 179394.28, 0.0000033727015, 9.998491, 10.001632 
5.9501755e+2, 1.3559914e+2, -1542629.3, -1425815.9, -129499.32, 0.059946265, 0.05702186, -1342161.3, 268964.06, 0.00000044999516, 9.999776, 10.001424 
5.950207e+2, 1.4559923e+2, -1599252.5, -1591934.3, -2553.9546, -0.08371793, 0.027775837, -1591131.1, -78009.305, 0.000000014541682, 9.999574, 9.999656 
5.9502697e+2, 1.5559776e+2, -1647129.1, -1567251.4, -23017.596, 0.04361177, -0.12996756, -1561093.4, -145957.45, 0.0, 9.998582, 9.999639 
5.950329e+2, 1.6559753e+2, -1459035.9, -1410272.3, 10350.864, 0.069452144, -0.11988742, -1408166.1, -91028.56, 0.0, 9.999128, 9.999788 
5.9503907e+2, 1.755979e+2, -1097070.6, -1186003.8, 32350.766, 0.042715114, -0.09386288, -1086547.8, 132585.14, 0.0, 10.000939, 9.9997835 
5.950445e+2, 1.8559772e+2, -1045788.9, -1175537.3, -41294.2, 0.0270839, -0.055695847, -1033761.4, 87372.9, 0.0, 10.000889, 9.999214 
5.9504944e+2, 1.9559684e+2, -1176036.9, -1188923.0, -37106.555, 0.021848222, -0.095312044, -1144818.1, -121675.13, 0.0, 9.999326, 9.999204 
5.950561e+2, 2.0559593e+2, -989941.1, -1034596.0, 83597.09, 0.002990105, -0.10839382, -925741.2, -590.45166, 0.0, 9.999885, 9.999307 
5.950642e+2, 2.1559468e+2, -570353.56, -785321.25, 124666.22, -0.024717279, -0.19615494, -513233.5, 313927.03, 0.0, 10.002105, 9.99928 
5.9507036e+2, 2.2559422e+2, -492414.72, -735538.56, -18700.363, -0.000654141, -0.14796813, -490984.75, 238179.69, 0.0, 10.002131, 9.998947 
5.950749e+2, 2.3559408e+2, -660400.06, -773754.8, 29309.498, 0.05605042, -0.083931245, -653270.2, -22103.617, 0.0, 10.000327, 9.998887 
5.9508044e+2, 2.4559312e+2, -566158.44, -711190.8, 128963.29, 0.044580586, -0.0481451, -490721.5, 42454.39, 0.0, 10.000455, 9.998561 
5.9508675e+2, 2.5559127e+2, -233706.73, -502726.34, 128465.58, -0.02138314, -0.12480271, -182215.75, 252977.1, 0.0, 10.002077, 9.998536 
5.950935e+2, 2.6558954e+2, -168669.53, -518120.94, 47560.97, 0.039892577, -0.099980906, -162312.06, 174898.08, 0.0, 10.002296, 9.997656 
5.951006e+2, 2.7558762e+2, -210308.45, -483005.8, 40930.293, 0.19518372, -0.09152144, -204297.55, 34933.223, 0.0, 10.001317, 9.997696 
5.951056e+2, 2.8558588e+2, -59994.195, -287777.47, 27084.547, 0.10331967, -0.06592961, -56818.0, 84430.875, 0.0000003359344, 10.001342, 9.998354 
5.951086e+2, 2.9558405e+2, 123164.086, -147411.44, 22841.111, -0.20302907, -0.12339966, 125078.71, 168345.77, 0.000006914508, 10.001911, 9.998369 
5.9511703e+2, 3.0558172e+2, 195343.72, -50153.42, -25452.734, 0.09712994, -0.2019444, 197954.84, 197954.84, 0.000035638073, 10.001925, 9.998702 
5.951206e+2, 3.1558272e+2, 155676.31, 55256.26, 67453.625, -0.07086405, -0.016656484, 189555.75, 189555.75, 0.00009897654, 10.001059, 9.999829 
6.0501343e+2, 1.2559085e+2, -1886286.1, -1582040.5, 266867.28, 0.023292925, 0.006860978, -1426983.4, 282229.38, 0.0000011596172, 9.997836, 10.001923 
6.050183e+2, 1.355935e+2, -1643852.4, -1437848.4, -54055.94, 0.2088528, 0.050167546, -1424525.6, 186654.45, 0.00000014603442, 9.998946, 10.001725 
6.0502e+2, 1.455937e+2, -1548715.5, -1549969.6, 40952.41, -0.11789166, 0.0076369266, -1508385.4, 4789.816, 0.0000000031309833, 9.999819, 9.999849 
6.050271e+2, 1.5559247e+2, -1324536.9, -1391332.5, 10886.862, 0.09928271, -0.14279418, -1322807.3, 92379.92, 0.0, 10.000695, 9.999844 
6.050334e+2, 1.6559237e+2, -1252552.5, -1322105.4, 96924.71, 0.14175339, -0.123220176, -1184354.1, 132833.66, 0.0, 10.000571, 9.999713 
6.050393e+2, 1.7559285e+2, -1294454.9, -1289925.5, 73099.25, 0.051927093, -0.08038935, -1219055.9, 126.85872, 0.0, 9.999608, 9.999721 
6.0504484e+2, 1.8559252e+2, -1172394.0, -1238372.3, 21677.059, 0.025362933, -0.05237418, -1165909.4, -44723.484, 0.0, 10.000049, 9.99918 
6.0505015e+2, 1.955913e+2, -842883.4, -1027137.1, 29629.541, 0.05769035, -0.1231876, -838235.94, 184961.98, 0.0, 10.001626, 9.999202 
6.050571e+2, 2.0559058e+2, -703429.9, -874281.75, 181832.19, 0.030276291, -0.12783226, -587956.5, 337247.5, 0.0, 10.001754, 9.9995165 
6.050653e+2, 2.155899e+2, -767689.0, -859451.9, 136509.94, -0.043403506, -0.17771389, -669556.3, 157652.45, 0.0, 10.000651, 9.99948 
6.050716e+2, 2.2558971e+2, -682688.25, -790719.9, -53809.293, -0.009097094, -0.12621048, -660460.06, 68749.5, 0.0, 10.000685, 9.99925 
6.050763e+2, 2.3558968e+2, -448152.63, -632126.44, -60926.855, 0.10797487, -0.084468484, -429805.16, 201404.6, 0.0, 10.001644, 9.999204 
6.0508215e+2, 2.4558876e+2, -348131.94, -622720.94, 101853.82, 0.10228471, -0.050144307, -314476.2, 218742.52, 0.0, 10.002037, 9.998406 
6.0508895e+2, 2.555869e+2, -256592.98, -532338.9, 76017.555, 0.004159279, -0.11079714, -237025.1, 198211.92, 0.0, 10.002003, 9.998376 
6.0509557e+2, 2.655854e+2, -224225.72, -524684.8, 6534.7295, 0.052048314, -0.06421066, -224083.66, 113168.9, 0.0, 10.0018215, 9.997841 
6.051022e+2, 2.7558386e+2, -171941.83, -449394.75, 34468.24, 0.21937667, -0.032045636, -167723.92, 71545.27, 0.0, 10.001497, 9.997846 
6.0510725e+2, 2.8558186e+2, -54912.613, -320997.94, 119328.53, 0.13103803, -0.022481145, -9238.6045, 132051.61, 0.00000016006682, 10.001544, 9.998026 
6.051109e+2, 2.9557934e+2, 106364.5, -185493.61, 79476.66, -0.1613846, -0.11728207, 126603.516, 169919.36, 0.0000052467194, 10.001933, 9.998096 
6.051185e+2, 3.055771e+2, 170284.86, -38350.277, 5960.7114, 0.08451849, -0.18859231, 170455.02, 170455.02, 0.000031333126, 10.001659, 9.998914 
6.0512227e+2, 3.1557822e+2, 54760.11, -22557.545, 74850.445, 0.035872445, 0.0005549504, 100345.53, 100345.53, 0.00009226463, 10.00048, 9.999593 
6.150103e+2, 1.2558596e+2, -1939466.0, -1687631.3, 161738.2, -0.14125043, -0.0780545, -1608574.4, 100678.2, 0.000000319301, 9.997829, 10.001191 
6.150189e+2, 1.3558686e+2, -1699384.8, -1551839.6, 970.7622, 0.34443527, -0.12687585, -1551833.1, 59408.836, 0.000000018009526, 9.998948, 10.000941 
6.150202e+2, 1.4558738e+2, -1512720.8, -1479224.0, 49799.402, -0.1209713, -0.12366152, -1443432.0, 69803.91, 0.0, 9.999829, 10.000329 
6.150276e+2, 1.5558858e+2, -1290661.1, -1328246.3, 50628.723, 0.04042424, -0.08093999, -1255449.8, 159774.45, 0.0, 10.000709, 10.000277 
6.150335e+2, 1.6558883e+2, -1277642.8, -1359380.5, 45080.508, 0.06558901, -0.036661785, -1257663.3, 59558.617, 0.0, 10.000513, 9.999483 
6.1503863e+2, 1.7558801e+2, -1317087.0, -1330210.0, 56988.492, -0.010924701, -0.09873912, -1266283.5, -47053.06, 0.0, 9.999574, 9.999464 
6.150448e+2, 1.8558745e+2, -1160754.1, -1190520.4, 68328.96, -0.018405797, -0.100452684, -1105706.1, 15528.931, 0.0, 9.9999485, 9.999554 
6.150519e+2, 1.9558683e+2, -835597.75, -991283.75, 99635.97, 0.0415763, -0.1485708, -787001.6, 236237.64, 0.0, 10.001532, 9.9994955 
6.150589e+2, 2.0558664e+2, -760953.5, -959065.25, 126402.3, 0.009382989, -0.08652715, -699417.94, 225823.61, 0.0, 10.001607, 9.999003 
6.1506575e+2, 2.1558642e+2, -828906.3, -946157.94, 113148.52, -0.09086159, -0.038662754, -760097.5, 67148.28, 0.0, 10.000474, 9.998973 
6.150717e+2, 2.2558556e+2, -714045.5, -816276.1, -27752.178, -0.08762661, -0.025128415, -706997.6, 22256.393, 0.0, 10.000517, 9.999153 
6.1507714e+2, 2.3558399e+2, -481019.8, -657660.5, -11376.451, 0.0007106016, -0.13152437, -480290.16, 150977.45, 0.0, 10.001462, 9.999115 
6.150837e+2, 2.4558283e+2, -371055.13, -644368.6, 84463.06, 0.02190838, -0.11145572, -347059.84, 186218.69, 0.0, 10.001924, 9.998313 
6.15091e+2, 2.555818e+2, -279064.88, -551542.6, 88085.51, -0.020143388, -0.08156608, -253069.08, 182220.88, 0.0, 10.001879, 9.998306 
6.1509717e+2, 2.6558048e+2, -167544.75, -388745.6, -19026.063, -0.0020850506, -0.06402509, -165920.2, 171382.0, 0.0, 10.001743, 9.998811 
6.1510247e+2, 2.7557868e+2, -126588.55, -326915.84, 39547.152, 0.06853202, -0.16067417, -119064.07, 120254.06, 0.0, 10.001379, 9.99874 
6.151084e+2, 2.8557718e+2, -87600.1, -379513.1, 117924.89, 0.059314698, -0.12241609, -45914.438, 95419.45, 0.00000012615395, 10.001498, 9.997645 
6.1511445e+2, 2.9557595e+2, 71758.52, -236647.97, 109554.734, -0.046774697, -0.055949133, 106713.625, 150062.9, 0.000004351736, 10.001848, 9.997781 
6.1512077e+2, 3.0557436e+2, 173156.53, -36204.195, -48099.133, 0.10935176, -0.04560681, 183678.19, 183678.19, 0.000027327982, 10.001664, 9.99894 
6.1512244e+2, 3.155734e+2, 5074.2617, -112978.5, 95815.53, -0.071907856, -0.062626876, 58585.563, 58585.563, 0.00008384043, 10.0004225, 9.999007 
6.2500864e+2, 1.255812e+2, -1941682.5, -1716922.1, 73512.23, -0.075240254, -0.08667514, -1695014.0, 14283.7705, 0.00000004128188, 9.997922, 10.000962 
6.250183e+2, 1.3558197e+2, -1671672.4, -1554622.4, 18885.174, 0.3885895, -0.12933086, -1551650.9, 59639.41, 0.000000000001578113, 9.999186, 10.000825 
6.250198e+2, 1.4558245e+2, -1562734.4, -1500059.0, 84755.04, -0.119434774, -0.124605216, -1441033.8, 72251.625, 0.0, 9.999468, 10.000364 
6.2502795e+2, 1.5558419e+2, -1493648.4, -1411804.5, 28127.014, 0.08985808, -0.03599859, -1403070.3, 12198.204, 0.0, 9.99928, 10.000377 
6.25034e+2, 1.655845e+2, -1383147.5, -1403381.3, 39335.39, 0.11013827, 0.008435438, -1352648.9, -35383.234, 0.0, 9.9997835, 9.999519 
6.2503874e+2, 1.7558342e+2, -1138828.0, -1231870.1, 34458.656, -0.008693492, -0.08564061, -1127455.9, 91820.805, 0.0, 10.00078, 9.999541 
6.250453e+2, 1.855829e+2, -1013994.7, -1114061.8, 90246.12, 0.0019610308, -0.09053568, -960840.44, 160440.17, 0.0, 10.000893, 9.999639 
6.250535e+2, 1.9558255e+2, -1019443.2, -1067162.0, 76382.68, 0.12229138, -0.12441599, -963280.2, 60001.445, 0.0, 10.000193, 9.999622 
6.250605e+2, 2.0558242e+2, -995251.4, -1066932.0, 113107.805, 0.09621142, -0.063115574, -912441.3, 12841.182, 0.0, 9.999969, 9.999058 
6.250665e+2, 2.1558216e+2, -875139.44, -956080.4, 118563.91, -0.035341676, -0.02603135, -790329.2, 36957.383, 0.0, 10.0001135, 9.999072 
6.2507266e+2, 2.2558099e+2, -702028.75, -855759.56, 63649.063, -0.058824226, -0.030692771, -679096.9, 50201.27, 0.0, 10.000786, 9.998762 
6.2507886e+2, 2.3557879e+2, -451453.88, -690815.2, 29545.867, 0.015840286, -0.15512472, -447860.78, 183457.8, 0.0, 10.001849, 9.998718 
6.250858e+2, 2.4557745e+2, -369217.63, -646473.06, 98742.875, 0.044127822, -0.132586, -337646.03, 195685.98, 0.0, 10.001933, 9.998303 
6.2509304e+2, 2.555766e+2, -363260.25, -588489.75, 79168.13, 0.030568158, -0.082676016, -338217.2, 97124.94, 0.0, 10.001285, 9.998338 
6.2509894e+2, 2.655755e+2, -220967.63, -411990.16, -19825.041, 0.029165879, -0.049717814, -218931.81, 118421.22, 0.0, 10.001354, 9.998839 
6.251039e+2, 2.755738e+2, -42757.09, -284311.5, -62637.645, 0.052919254, -0.13588218, -27480.602, 211887.75, 0.0, 10.001934, 9.998769 
6.2511003e+2, 2.8557244e+2, -10788.176, -322611.5, 36010.074, 0.0642625, -0.0902096, -6683.677, 134698.56, 0.000000116905284, 10.001932, 9.997838 
6.2511694e+2, 2.955714e+2, 23617.701, -253463.42, 35346.168, 0.050080176, -0.022754839, 28055.596, 71450.9, 0.000004287332, 10.001457, 9.997877 
6.2512296e+2, 3.0557007e+2, 162003.39, -93858.65, -99464.73, 0.16798638, 0.034387972, 196120.45, 196120.45, 0.000025852014, 10.001844, 9.998439 
6.251253e+2, 3.1556776e+2, 319094.03, 15852.335, -42905.87, 0.074207455, -0.07049685, 325047.94, 325047.94, 0.00007870898, 10.002705, 9.998777 
6.3500744e+2, 1.255765e+2, -1907630.5, -1663925.1, -55206.004, -0.06866065, -0.011373899, -1652002.8, 57346.324, 0.000000010756334, 9.997995, 10.001293 
6.35016e+2, 1.3557863e+2, -1638768.4, -1492517.4, 67188.89, 0.20820537, 0.03691942, -1466336.9, 144989.95, 0.0, 9.999201, 10.001253 
6.350182e+2, 1.4557892e+2, -1582514.8, -1525707.8, 56136.645, -0.2541848, 0.00877737, -1491198.0, 22125.541, 0.0, 9.999412, 10.00021 
6.350279e+2, 1.5557934e+2, -1508291.3, -1441145.4, 41332.05, 0.11884513, -0.013244672, -1421469.0, -6149.3784, 0.0, 9.999274, 10.000179 
6.3503456e+2, 1.655794e+2, -1372796.3, -1375540.4, 61371.613, 0.1503984, 0.0022168625, -1312781.4, 4537.584, 0.0, 9.999749, 9.99973 
6.350393e+2, 1.755789e+2, -1128780.0, -1208927.8, 82752.26, -0.06644206, -0.052040957, -1076909.1, 142414.19, 0.0, 10.000755, 9.999721 
6.35046e+2, 1.8557867e+2, -1033515.2, -1130295.8, 48521.234, -0.04416078, -0.034623783, -1013378.6, 107945.86, 0.0, 10.000796, 9.999569 
6.3505447e+2, 1.9557829e+2, -1039809.2, -1083720.3, 63327.02, 0.16419347, -0.06351503, -994739.7, 28586.807, 0.0, 10.000081, 9.999563 
6.350613e+2, 2.0557788e+2, -975243.75, -987176.56, 103565.65, 0.16336025, -0.06074699, -877472.8, 47854.887, 0.0, 9.999805, 9.9996805 
6.3506716e+2, 2.1557714e+2, -861789.25, -887263.2, 140916.8, -0.011183221, -0.13655116, -733034.94, 94296.14, 0.0, 9.999934, 9.999631 
6.350737e+2, 2.2557594e+2, -775116.9, -966485.2, 89888.19, -0.04972614, -0.13386483, -739517.56, -10175.202, 0.0, 10.000614, 9.998081 
6.35081e+2, 2.3557405e+2, -525178.4, -799439.7, 82397.73, 0.01652911, -0.16190164, -502327.13, 129036.08, 0.0, 10.001659, 9.998062 
6.3508797e+2, 2.4557261e+2, -387714.88, -653762.3, 61944.965, 0.03791184, -0.11888566, -373999.06, 159380.02, 0.0, 10.001806, 9.99831 
6.350945e+2, 2.555713e+2, -386140.03, -604892.44, 70932.44, 0.019831056, -0.1139112, -365153.03, 70240.414, 0.0, 10.001153, 9.998288 
6.3510054e+2, 2.6557037e+2, -295012.06, -545485.5, -13185.036, 0.022265084, -0.015216124, -294319.9, 43085.32, 0.0, 10.001273, 9.997959 
6.35106e+2, 2.7556932e+2, -115159.84, -407793.84, -25713.525, 0.031873535, 0.047084767, -112917.59, 126501.35, 0.0, 10.0018215, 9.9979725 
6.351118e+2, 2.855678e+2, 35008.383, -213675.72, 2149.9275, 0.013792699, 0.067902446, 35026.97, 176461.66, 0.0000001448745, 10.001879, 9.998612 
6.35118e+2, 2.9556584e+2, 44778.98, -176098.17, 41434.652, -0.032964766, -0.019338287, 52295.945, 95747.63, 0.000005079309, 10.001332, 9.998463 
6.3512456e+2, 3.0556446e+2, 78243.055, -276384.4, -72519.21, 0.10462012, 0.072592504, 92499.664, 92499.664, 0.000027855136, 10.00185, 9.997196 
6.351297e+2, 3.1556106e+2, 292630.1, -23464.955, 33730.004, 0.1706807, -0.034684114, 296189.3, 296189.3, 0.00008149468, 10.002619, 9.998556 
6.450073e+2, 1.2557234e+2, -1759716.6, -1650528.0, 19249.525, 0.07694484, -0.016155424, -1647233.8, 62155.137, 0.0000000047013002, 9.999268, 10.000767 
6.4501476e+2, 1.3557428e+2, -1661993.0, -1538546.0, 109771.65, 0.17826933, 0.048832085, -1474334.6, 137035.63, 0.0, 9.999226, 10.000906 
6.450179e+2, 1.4557444e+2, -1598769.4, -1539770.4, 94544.62, -0.21246104, 0.026322586, -1470230.0, 43138.45, 0.0, 9.999326, 10.000155 
6.450275e+2, 1.5557438e+2, -1443763.5, -1415970.4, 54564.1, 0.14092836, -0.03816019, -1373561.0, 41807.15, 0.0, 9.999731, 10.000137 
6.450347e+2, 1.6557439e+2, -1335997.3, -1366385.5, 118439.58, 0.18532287, -0.021078227, -1231781.3, 85586.51, 0.0, 10.000033, 9.999662 
6.450405e+2, 1.7557423e+2, -1203009.1, -1250459.9, 92562.96, 0.013896811, -0.034575254, -1131179.3, 88189.72, 0.0, 10.000272, 9.999668 
6.450472e+2, 1.8557401e+2, -1096920.8, -1180533.6, 40957.176, 0.014873409, -0.0034111107, -1080201.4, 41169.44, 0.0, 10.000451, 9.999388 
6.450546e+2, 1.9557342e+2, -989002.25, -1074991.6, 17891.02, 0.15289079, -0.033758365, -985428.4, 37947.32, 0.0, 10.000519, 9.999405 
6.4506143e+2, 2.0557271e+2, -806571.0, -912453.06, 84400.74, 0.14100544, -0.05229715, -759881.56, 165497.98, 0.0, 10.000996, 9.999613 
6.450681e+2, 2.1557154e+2, -607760.25, -775091.44, 37249.074, 0.015119702, -0.1655406, -599842.94, 227542.94, 0.0, 10.001722, 9.999535 
6.450753e+2, 2.255704e+2, -617804.44, -887963.5, 12169.488, 0.0023671493, -0.15408604, -617257.3, 112139.07, 0.0, 10.001658, 9.998121 
6.4508295e+2, 2.3556899e+2, -618046.1, -834369.75, 26878.836, 0.08705883, -0.14312364, -614756.4, 16656.904, 0.0, 10.000967, 9.998152 
6.450898e+2, 2.4556771e+2, -472629.47, -673972.6, 68002.94, 0.085185006, -0.09866691, -451813.75, 81613.5, 0.0, 10.001151, 9.998488 
6.4509606e+2, 2.5556627e+2, -245374.42, -518868.97, 65059.004, 0.02552127, -0.12050124, -230686.92, 204754.3, 0.0, 10.002052, 9.998446 
6.4510214e+2, 2.6556507e+2, -178990.0, -536987.44, 36351.996, 0.018369755, -0.032987013, -175336.02, 162119.64, 0.0, 10.002275, 9.997536 
6.4510816e+2, 2.7556366e+2, -119532.47, -456383.56, 20223.104, 0.06956939, 0.039484065, -118322.71, 121151.37, 0.000000000000000000046744374, 10.001992, 9.9975605 
6.4511424e+2, 2.855618e+2, 17678.818, -244990.97, 37586.273, 0.078352, 0.05991205, 22951.326, 164444.42, 0.00000034821963, 10.001862, 9.9984 
6.451202e+2, 2.955595e+2, 86147.43, -185357.55, -27021.236, 0.04744883, -0.046128213, 88810.57, 132324.25, 0.0000068469953, 10.001741, 9.998197 
6.451267e+2, 3.0555746e+2, 103364.29, -272397.78, -48611.79, 0.13887271, 0.0033545042, 109551.26, 109551.26, 0.00003364889, 10.002077, 9.997092 
6.4513296e+2, 3.1555477e+2, 331762.66, 40666.67, 66544.68, 0.24327509, -0.03233358, 346253.44, 346253.44, 0.000093661416, 10.0027, 9.99894 
6.550072e+2, 1.2556861e+2, -1844731.5, -1829880.1, -88357.55, 0.062264647, -0.117378704, -1748636.8, -39218.55, 0.000000001405694, 9.999282, 9.999526 
6.5501404e+2, 1.35569e+2, -1733298.3, -1691870.1, 116756.625, 0.14916465, -0.0939634, -1594004.4, 17415.123, 0.0, 9.99925, 9.999836 
6.5501845e+2, 1.4556907e+2, -1605974.0, -1548769.8, 90027.32, -0.13332598, -0.072131775, -1482910.3, 30508.95, 0.0, 9.999298, 10.000113 
6.5502644e+2, 1.5556929e+2, -1453173.9, -1428799.6, 83719.64, 0.021979738, -0.10432696, -1356384.8, 59029.137, 0.0, 9.999696, 10.000073 
6.5503395e+2, 1.6556942e+2, -1361252.9, -1404763.9, 109997.36, 0.07514274, -0.058218654, -1270880.3, 46531.918, 0.0, 9.999973, 9.999423 
6.550419e+2, 1.7556934e+2, -1226538.4, -1290222.9, 115605.92, 0.087798834, -0.042354345, -1138469.6, 80945.02, 0.0, 10.000234, 9.99941 
6.5504825e+2, 1.8556897e+2, -1129266.9, -1226557.1, 28917.184, 0.051625546, 0.0028113688, -1121320.9, 98.23195, 0.0, 10.000361, 9.999115 
6.550534e+2, 1.9556807e+2, -1022684.5, -1121590.3, 38796.848, -0.04204401, -0.03501324, -1009282.1, 14146.251, 0.0, 10.00042, 9.999132 
6.550604e+2, 2.0556693e+2, -884109.94, -1040304.4, 97451.14, -0.08855034, -0.040494163, -837323.6, 88114.66, 0.0, 10.000853, 9.998809 
6.5506905e+2, 2.1556526e+2, -687231.6, -891872.6, 75689.25, -0.09367826, -0.12033981, -662279.44, 165172.38, 0.0, 10.001519, 9.998832 
6.55077e+2, 2.2556433e+2, -592960.75, -789791.25, -27607.906, -0.02381021, -0.0960303, -589161.75, 140298.63, 0.0, 10.001461, 9.998887 
6.5508425e+2, 2.3556365e+2, -592147.1, -738214.9, 17794.443, 0.08864293, -0.08946567, -590010.6, 41457.816, 0.0, 10.000789, 9.998895 
6.550909e+2, 2.4556275e+2, -464717.6, -627899.44, 85716.49, 0.057354134, -0.06026875, -427968.34, 105507.73, 0.0, 10.001026, 9.998863 
6.5509725e+2, 2.5556144e+2, -241903.31, -475654.8, 112472.15, -0.095714256, -0.11191296, -196575.7, 238910.3, 0.0, 10.001902, 9.998812 
6.551035e+2, 2.6555958e+2, -191404.13, -547375.7, 10757.06, -0.106664784, -0.10452354, -191079.34, 146424.88, 0.0, 10.002202, 9.997502 
6.5510994e+2, 2.7555698e+2, -136733.69, -478529.44, 28867.568, 0.0087580215, -0.14561625, -134312.73, 105219.484, 0.0000000002377775, 10.001922, 9.997447 
6.5511656e+2, 2.8555474e+2, -73755.62, -415342.0, 18483.299, 0.09346405, -0.09769924, -72758.39, 68797.59, 0.0000008000927, 10.001792, 9.997254 
6.551232e+2, 2.9555246e+2, -3570.811, -343296.94, -11628.887, 0.12548834, -0.09430517, -3173.2175, 40406.637, 0.000010270006, 10.001631, 9.997158 
6.55129e+2, 3.055493e+2, 167611.08, -143809.05, -33584.016, 0.12185044, -0.15667886, 171191.67, 171191.67, 0.00004390313, 10.002087, 9.997979 
6.551343e+2, 3.1554818e+2, 388575.34, 176078.6, 131913.1, 0.032765828, -0.12019784, 451707.56, 451707.56, 0.00011355634, 10.002624, 9.999912 
6.650064e+2, 1.2556447e+2, -1991774.1, -1951418.3, -154179.53, 0.10984421, -0.09993125, -1816101.9, -106644.234, 0.00000000035571668, 9.998496, 9.999063 
6.6501385e+2, 1.3556406e+2, -1593777.3, -1693460.1, 55879.79, 0.15515262, -0.10180316, -1568740.6, 42727.555, 0.0, 10.000484, 9.999241 
6.650201e+2, 1.4556383e+2, -1435583.0, -1487907.8, 31215.639, 0.048049163, -0.07044757, -1421016.0, 92455.266, 0.0, 10.000566, 9.999913 
6.650264e+2, 1.555637e+2, -1475976.6, -1455214.5, -17468.133, 0.06590257, -0.12345179, -1445275.6, -29806.715, 0.0, 9.999621, 9.999915 
6.650336e+2, 1.655637e+2, -1416560.4, -1408146.3, 81951.84, 0.07605129, -0.09256997, -1330293.5, -12826.277, 0.0, 9.999499, 9.999627 
6.6504234e+2, 1.7556365e+2, -1259683.4, -1286289.0, 88447.086, 0.14213105, -0.092863776, -1183544.3, 35923.906, 0.0, 9.99992, 9.999587 
6.6504914e+2, 1.8556325e+2, -1145782.8, -1279491.3, 40958.21, 0.10400952, -0.039447412, -1134233.8, -12760.112, 0.0, 10.000456, 9.998705 
6.650541e+2, 1.9556221e+2, -956625.94, -1139503.8, 6937.7036, -0.040356338, -0.048438583, -956363.1, 67123.24, 0.0, 10.001079, 9.998697 
6.650612e+2, 2.0556092e+2, -901087.25, -1068877.0, 95440.836, -0.090917684, -0.035733864, -857910.06, 67588.71, 0.0, 10.000817, 9.99864 
6.6507e+2, 2.1555923e+2, -949387.2, -1036453.3, 91486.06, -0.051134598, -0.10108305, -891604.8, -64091.242, 0.0, 9.999793, 9.998681 
6.650779e+2, 2.2555839e+2, -794470.1, -861011.56, 29601.438, 0.010022369, -0.07263735, -783207.9, -53686.64, 0.0, 9.999981, 9.999116 
6.6508496e+2, 2.3555796e+2, -531997.75, -687290.25, 6126.3066, 0.078571, -0.056956563, -531756.44, 99769.39, 0.0, 10.001122, 9.999087 
6.65092e+2, 2.4555704e+2, -411403.34, -607902.94, 65549.02, 0.053022526, -0.038543392, -391544.3, 141988.86, 0.0, 10.001383, 9.998838 
6.650991e+2, 2.5555542e+2, -396541.44, -555610.94, 28585.354, -0.04279904, -0.11717688, -391560.53, 43984.906, 0.0, 10.000832, 9.99879 
6.651058e+2, 2.6555344e+2, -304237.9, -581000.25, -35356.953, -0.04393966, -0.13366589, -299792.38, 37771.684, 0.0, 10.00133, 9.997696 
6.651125e+2, 2.7555093e+2, -11783.862, -394451.16, -31813.453, 0.045484092, -0.186743, -9157.049, 230432.61, 0.0000000023427176, 10.002697, 9.997642 
6.651193e+2, 2.8554866e+2, 121237.93, -380230.8, 8369.76, 0.11615614, -0.12370021, 121377.586, 262990.94, 0.0000014418595, 10.003364, 9.99675 
6.651259e+2, 2.955461e+2, 213080.47, -285454.2, -8857.787, 0.16600358, -0.09857686, 213237.8, 256878.05, 0.000014823799, 10.003315, 9.996746 
6.651314e+2, 3.0554238e+2, 318137.66, -77179.945, -6973.107, 0.11177032, -0.19504087, 318260.63, 318260.63, 0.000057815294, 10.003149, 9.997926 
6.651368e+2, 3.1554115e+2, 347181.63, 93488.81, 22156.734, 0.041017815, -0.16062632, 349102.2, 349102.2, 0.00014076945, 10.002595, 9.999364 
6.750041e+2, 1.255601e+2, -1982791.9, -1930880.5, -110651.97, -0.036521103, 0.036270212, -1843180.8, -133675.78, 0.0000000023126079, 9.998498, 9.9992 
6.750138e+2, 1.3555945e+2, -1605868.5, -1715113.0, 131066.02, 0.066123836, 0.019078301, -1518498.3, 93018.36, 0.0, 10.000479, 9.999094 
6.7502236e+2, 1.4555879e+2, -1465107.6, -1535309.4, -25598.834, 0.17940114, 0.032905582, -1456764.6, 56759.14, 0.0, 10.000511, 9.999612 
6.7502683e+2, 1.5555774e+2, -1490984.8, -1484416.5, -33449.67, 0.11386951, -0.07817135, -1454090.1, -38558.832, 0.0, 9.999619, 9.999714 
6.750332e+2, 1.655574e+2, -1373954.4, -1315832.6, 82062.47, 0.054525793, -0.11031139, -1257837.3, 59694.055, 0.0, 9.9994755, 10.000277 
6.7504174e+2, 1.7555733e+2, -1225972.0, -1204353.0, 118125.2, 0.055063955, -0.17727219, -1096543.8, 122984.34, 0.0, 9.999867, 10.0001745 
6.750493e+2, 1.8555689e+2, -1198870.8, -1370249.3, 45837.008, 0.047651153, -0.12522312, -1187381.5, -65847.72, 0.0, 10.000368, 9.998128 
6.75056e+2, 1.9555591e+2, -1014613.75, -1223859.6, 40688.14, 0.012844374, -0.06691714, -1006980.4, 16568.383, 0.0, 10.000929, 9.99819 
6.7506313e+2, 2.0555489e+2, -895401.8, -1023875.9, 42954.707, 0.00082221016, -0.02634055, -882363.3, 43196.445, 0.0, 10.000664, 9.999027 
6.750707e+2, 2.155535e+2, -946594.1, -992947.4, 70572.14, 0.007183566, -0.10013999, -895490.3, -67919.766, 0.0, 9.999628, 9.999058 
6.7507786e+2, 2.2555266e+2, -842221.06, -921607.0, 57391.176, -0.0144290505, -0.071367525, -812133.8, -82555.875, 0.0, 9.999814, 9.998781 
6.750848e+2, 2.3555195e+2, -585109.7, -749633.7, 62730.9, -0.07282506, -0.051159427, -563920.25, 67665.11, 0.0, 10.000918, 9.998757 
6.7509264e+2, 2.4555062e+2, -467254.5, -685513.75, 33258.695, -0.04719172, -0.035100646, -462299.0, 71298.805, 0.0, 10.001224, 9.99838 
6.7510104e+2, 2.5554842e+2, -447554.6, -630621.44, 27734.988, 0.0389723, -0.12661083, -443444.94, -7827.1084, 0.0, 10.000696, 9.998339 
6.7510855e+2, 2.6554674e+2, -289876.44, -525869.5, 1116.4706, 0.06889318, -0.10831125, -289871.16, 47762.15, 0.0, 10.001228, 9.998121 
6.751155e+2, 2.7554536e+2, 1111.7958, -342079.88, 34571.605, 0.044139475, -0.09538151, 4559.745, 244206.97, 0.0000000015372758, 10.002585, 9.998058 
6.7512214e+2, 2.8554338e+2, 126850.18, -354033.84, -6990.733, 0.03104301, -0.03161894, 126951.78, 268617.78, 0.0000017821444, 10.003305, 9.996955 
6.7512804e+2, 2.9554063e+2, 207525.34, -269173.84, 9680.611, 0.0054449793, -0.046574336, 207721.84, 251414.72, 0.000019076204, 10.003198, 9.996914 
6.751332e+2, 3.0553672e+2, 235331.39, -232472.78, -35372.28, -0.050303716, -0.11908646, 237990.89, 237990.89, 0.000073988194, 10.003087, 9.996884 
6.751395e+2, 3.1553394e+2, 196578.64, -187752.16, 39950.945, -0.031436995, -0.12352505, 200687.58, 200687.58, 0.00017626988, 10.002475, 9.997482 
6.8500364e+2, 1.2555316e+2, -1761487.9, -1742172.4, -150062.98, 0.02430891, 0.07767574, -1601456.8, 108121.84, 0.0000000036242784, 9.999633, 9.999965 
6.8501276e+2, 1.3555284e+2, -1888568.4, -1787152.6, 40435.555, 0.04284448, 0.0410143, -1773004.4, -161421.67, 0.0, 9.998288, 9.999642 
6.850227e+2, 1.4555255e+2, -1794862.9, -1678554.8, -34708.797, 0.29356194, 0.058576073, -1668984.4, -155398.89, 0.0, 9.998171, 9.999762 
6.850272e+2, 1.5555187e+2, -1516003.8, -1484095.8, -38388.453, 0.2023721, -0.03127421, -1458478.0, -42886.746, 0.0, 9.999374, 9.999848 
6.850332e+2, 1.6555165e+2, -1320958.9, -1300970.5, 89698.22, 0.09482733, -0.052443583, -1220711.4, 96879.805, 0.0, 9.999876, 10.000192 
6.850412e+2, 1.7555155e+2, -1245228.6, -1225796.6, 41068.54, 0.024566753, -0.11480861, -1193310.5, 26278.803, 0.0, 9.999774, 10.000084 
6.8504924e+2, 1.8555121e+2, -1229611.3, -1328990.8, 31024.467, 0.036238726, -0.071832426, -1220721.3, -99128.805, 0.0, 9.99991, 9.998628 
6.8505716e+2, 1.9555038e+2, -1092814.5, -1208396.6, 77343.27, 0.09095325, -0.050995395, -1054056.1, -30453.336, 0.0, 10.000156, 9.998663 
6.850646e+2, 2.0554939e+2, -897097.94, -1051200.1, 99478.78, 0.09001594, -0.016049806, -848320.2, 77292.78, 0.0, 10.000802, 9.99875 
6.850717e+2, 2.1554796e+2, -647076.6, -881183.9, 47544.52, 0.045819778, -0.067351475, -637789.3, 189837.0, 0.0, 10.001837, 9.998752 
6.8507886e+2, 2.2554688e+2, -552388.1, -787090.75, 53978.36, 0.009904545, -0.044709377, -540569.0, 189067.25, 0.0, 10.001811, 9.998741 
6.8508613e+2, 2.3554589e+2, -590827.7, -758192.0, 50706.76, -0.0215807, -0.050349332, -576663.7, 54981.992, 0.0, 10.000883, 9.998717 
6.8509424e+2, 2.4554446e+2, -489347.25, -691299.94, 89354.3, 0.0077362773, -0.042662766, -455488.84, 78169.63, 0.0, 10.001066, 9.998403 
6.851028e+2, 2.5554243e+2, -220244.16, -514834.53, 92057.914, 0.08302142, -0.11944134, -193842.69, 241834.05, 0.0, 10.002257, 9.998367 
6.851106e+2, 2.655409e+2, -107316.08, -453226.4, 93651.21, 0.0976252, -0.086673, -83588.66, 254102.7, 0.0, 10.002534, 9.997992 
6.85118e+2, 2.755394e+2, -100164.4, -404349.84, 54401.62, 0.08120748, -0.0675007, -90727.766, 148978.17, 0.00000000039754933, 10.001925, 9.997952 
6.85125e+2, 2.8553733e+2, -21431.426, -395641.63, 32484.145, 0.055542424, -0.028313514, -18632.502, 123093.3, 0.000001935021, 10.002159, 9.997217 
6.851313e+2, 2.9553434e+2, 235500.25, -226625.08, 18231.188, 0.01776869, -0.08484512, 236218.36, 279972.03, 0.000022833043, 10.003255, 9.997179 
6.85136e+2, 3.0553135e+2, 288575.0, -244885.28, -1244.4391, -0.09068955, -0.062214784, 288577.9, 288577.9, 0.00009092674, 10.003624, 9.99654 
6.8514204e+2, 3.1552863e+2, 222118.47, -211806.16, 71067.64, -0.022639992, -0.017617006, 233461.33, 233461.33, 0.00021663251, 10.002784, 9.997184 
6.9500434e+2, 1.2554382e+2, -1649923.6, -1514507.1, -176759.78, 0.053480167, 0.04111164, -1392931.4, 316745.0, 0.00000000017840025, 9.999663, 10.001502 
6.950104e+2, 1.3554434e+2, -1800705.9, -1608808.3, 2890.7478, -0.054846037, -0.034360513, -1608764.8, 2900.8113, 0.0, 9.99831, 10.000853 
6.9502085e+2, 1.4554507e+2, -1752428.8, -1588048.4, -6032.9927, 0.2485866, -0.008350706, -1587827.3, -74170.336, 0.0, 9.998155, 10.000393 
6.9502693e+2, 1.55546e+2, -1481758.4, -1415537.1, 20963.643, 0.20667969, 0.0022239974, -1409458.6, 6190.804, 0.0, 9.999373, 10.000326 
6.950331e+2, 1.6554646e+2, -1388718.8, -1426374.4, 71577.47, 0.0626075, 0.07285807, -1333534.3, -15887.269, 0.0, 9.999821, 9.999351 
6.950402e+2, 1.7554644e+2, -1304192.3, -1332569.9, 55997.563, -0.08250393, 0.103129864, -1260613.9, -40963.957, 0.0, 9.999709, 9.99938 
6.9504845e+2, 1.8554631e+2, -1133669.9, -1104003.4, 28399.145, -0.06166318, 0.11609805, -1086797.0, 34851.406, 0.0, 9.999803, 10.000219 
6.950574e+2, 1.9554576e+2, -1010795.9, -1008930.6, 101825.336, 0.063276045, 0.00397846, -908033.6, 115613.65, 0.0, 10.000042, 10.00008 
6.950654e+2, 2.0554453e+2, -985285.7, -1206138.3, 122097.35, 0.05212646, 0.00068877504, -931085.94, -5427.779, 0.0, 10.000671, 9.997751 
6.950727e+2, 2.155425e+2, -741244.6, -1030811.94, 96612.805, -0.06336049, -0.0097087575, -711969.8, 115711.54, 0.0, 10.001637, 9.997819 
6.9508046e+2, 2.2554104e+2, -563697.94, -765501.56, 6234.345, -0.03731314, 0.006727528, -563505.56, 166190.27, 0.0, 10.0016165, 9.998981 
6.9508845e+2, 2.3553975e+2, -597856.7, -733369.75, 33743.0, 0.0937629, -0.053983074, -589919.5, 41786.863, 0.0, 10.000717, 9.998963 
6.950964e+2, 2.4553865e+2, -466957.34, -621780.44, 120458.56, 0.08376172, -0.053188488, -401180.84, 132533.5, 0.0, 10.00096, 9.998933 
6.951041e+2, 2.5553742e+2, -203732.83, -453454.56, 149134.13, -0.043633938, -0.10629339, -134091.19, 301631.8, 0.0, 10.0021305, 9.998853 
6.951119e+2, 2.6553568e+2, -171950.63, -558734.2, 58375.777, -0.066621065, -0.081088, -163332.22, 174407.11, 0.0, 10.0024185, 9.99732 
6.951195e+2, 2.7553314e+2, -161152.39, -505802.4, 50528.484, 0.0017877148, -0.09905377, -153897.23, 85868.234, 0.0000000054780975, 10.001823, 9.997302 
6.9512737e+2, 2.8553042e+2, -8949.396, -357083.22, 57379.31, 0.042584278, -0.10531117, 264.00937, 142056.27, 0.000002364329, 10.002106, 9.997504 
6.9513506e+2, 2.9552734e+2, 238743.39, -191672.84, 79207.95, 0.024882704, -0.20766072, 252856.95, 296679.03, 0.000027093956, 10.003137, 9.997473 
6.951394e+2, 3.0552626e+2, 303066.5, -206299.3, -37499.71, -0.15028174, -0.024795812, 305812.44, 305812.44, 0.00010798756, 10.003581, 9.996823 
6.9514406e+2, 3.1552535e+2, 288620.06, -61087.695, 84992.76, -0.178105, 0.16820985, 308182.38, 308182.38, 0.00025661878, 10.002725, 9.998246 
7.0500416e+2, 1.2553622e+2, -1852581.3, -1563121.0, 34208.973, 0.16447951, -0.004404578, -1559133.0, 150617.61, 0.0, 9.998031, 10.001972 
7.050085e+2, 1.3553722e+2, -1753775.9, -1546490.8, 39031.85, -0.07088275, -0.07229196, -1539384.6, 72348.12, 0.0, 9.998427, 10.001232 
7.05019e+2, 1.4553803e+2, -1687428.6, -1561562.3, 63355.53, 0.23583418, -0.054516964, -1535195.3, -21471.844, 0.0, 9.998631, 10.000339 
7.050264e+2, 1.5553957e+2, -1496348.5, -1422012.1, 8125.254, 0.22486897, 0.022029852, -1421134.3, -5421.8584, 0.0, 9.999295, 10.0003 
7.05033e+2, 1.6554017e+2, -1458177.9, -1482137.3, 57219.676, 0.10285695, 0.1202557, -1411697.3, -93987.29, 0.0, 9.999455, 9.999133 
7.0504016e+2, 1.7553978e+2, -1414372.5, -1401179.3, 56285.492, -0.014449298, 0.13518094, -1351105.3, -131388.05, 0.0, 9.999037, 9.999219 
7.050487e+2, 1.8553957e+2, -1182391.5, -1102291.9, 50898.793, 0.008867689, 0.13156398, -1077575.4, 44141.043, 0.0, 9.999357, 10.000448 
7.0505804e+2, 1.9553907e+2, -960240.5, -961220.1, -5383.8843, 0.12125129, 0.0066412115, -955324.25, 68389.15, 0.0, 10.0002775, 10.000304 
7.0506626e+2, 2.0553787e+2, -974287.75, -1168490.0, 47091.906, 0.09251827, -0.020841133, -963470.94, -37748.05, 0.0, 10.000583, 9.998064 
7.050738e+2, 2.1553586e+2, -914012.44, -1079670.5, 90847.695, -0.04546206, -0.06148694, -873902.7, -46158.047, 0.0, 10.000285, 9.998142 
7.050817e+2, 2.255346e+2, -724265.75, -852239.7, 44586.33, -0.013646263, -0.036725763, -710263.75, 19493.41, 0.0, 10.000563, 9.998889 
7.050899e+2, 2.3553365e+2, -509927.13, -699783.3, 19540.322, 0.14381674, -0.05314179, -507936.84, 123828.47, 0.0, 10.00137, 9.998877 
7.050981e+2, 2.4553259e+2, -407214.28, -619021.5, 104149.625, 0.1442485, -0.03296103, -364582.63, 169191.31, 0.0, 10.001475, 9.9987135 
7.051063e+2, 2.5553113e+2, -387668.7, -563791.75, 49817.094, 0.026812091, -0.086743705, -374554.25, 61231.598, 0.0, 10.000955, 9.99867 
7.0511425e+2, 2.655292e+2, -296015.3, -597302.9, 286.42993, -0.01414066, -0.08452976, -296015.03, 41788.723, 0.0, 10.001473, 9.997516 
7.051219e+2, 2.755265e+2, 2267.37, -401298.0, 22554.379, 0.0155957565, -0.13710602, 3523.972, 243353.58, 0.000000016182126, 10.002845, 9.997523 
7.0512986e+2, 2.85524e+2, 130188.82, -286159.7, 68942.45, 0.044723786, -0.1326366, 141307.94, 283161.75, 0.0000030357212, 10.003022, 9.997563 
7.0513785e+2, 2.9552156e+2, 84015.53, -260695.05, 44469.28, 0.057770144, -0.17927198, 89659.85, 133538.5, 0.000031540207, 10.0020275, 9.997546 
7.0514256e+2, 3.0551988e+2, 159180.52, -245127.33, -30817.77, -0.120140016, -0.07154032, 161516.06, 161516.06, 0.00012311795, 10.0024605, 9.997088 
7.0514846e+2, 3.1551906e+2, 499150.97, 113795.91, 17353.764, -0.055441737, 0.097821996, 499930.88, 499930.88, 0.0002906225, 10.003872, 9.998877 
7.1500236e+2, 1.2553036e+2, -1874914.6, -1613059.4, 59721.805, 0.11100632, -0.04590182, -1600081.8, 109719.51, 0.0, 9.998048, 10.0016165 
7.150066e+2, 1.3553137e+2, -1772864.8, -1599515.6, 59446.04, -0.14082277, -0.08299773, -1581088.8, 30696.33, 0.0, 9.998474, 10.000851 
7.150168e+2, 1.4553146e+2, -1737306.1, -1663941.5, 67115.76, 0.106410936, -0.08202273, -1624137.8, -110352.76, 0.0, 9.998632, 9.999628 
7.1502495e+2, 1.555327e+2, -1543572.6, -1517975.0, 47990.223, 0.1191596, 0.034195684, -1481106.1, -65327.063, 0.0, 9.999283, 9.999647 
7.1503264e+2, 1.6553283e+2, -1439754.9, -1426723.3, 26653.73, 0.08751568, 0.090635434, -1405800.5, -88020.19, 0.0, 9.999389, 9.999542 
7.150406e+2, 1.755316e+2, -1401021.1, -1362191.3, 56832.707, 0.0982295, -0.01748805, -1321548.8, -101757.43, 0.0, 9.998995, 9.999505 
7.1504945e+2, 1.8553093e+2, -1269508.6, -1266983.0, 70028.18, 0.11738272, -0.021388598, -1198206.3, -76409.54, 0.0, 9.999287, 9.999356 
7.1505874e+2, 1.9553044e+2, -1048020.94, -1108848.8, 43153.813, 0.13053995, -0.037677534, -1025640.4, -1840.2589, 0.0, 10.000132, 9.999365 
7.15067e+2, 2.0552959e+2, -887869.56, -943114.44, 23064.531, 0.07811819, -0.0701654, -879506.25, 46299.156, 0.0, 10.000397, 9.999697 
7.150745e+2, 2.1552815e+2, -842475.5, -875235.44, 94470.516, -0.027349936, -0.21659398, -762975.44, 64839.766, 0.0, 10.000061, 9.999648 
7.150822e+2, 2.2552767e+2, -776105.9, -924180.44, 57866.7, -0.04439339, -0.1623741, -756174.7, -26355.398, 0.0, 10.000404, 9.998475 
7.1509016e+2, 2.3552768e+2, -567544.8, -778324.3, 61046.383, 0.0012368335, -0.041183807, -551141.06, 80680.69, 0.0, 10.00119, 9.998427 
7.1509904e+2, 2.4552634e+2, -498356.22, -770285.75, 69366.734, 0.068037294, 0.022866925, -481683.66, 52153.07, 0.0, 10.001314, 9.997753 
7.1510875e+2, 2.555236e+2, -469714.5, -699406.25, 49089.477, 0.14706023, -0.06052944, -459663.0, -23798.223, 0.0, 10.000814, 9.997805 
7.1511734e+2, 2.6552144e+2, -228120.14, -449248.53, 36081.105, 0.112644814, -0.08999839, -222381.77, 115501.95, 0.0, 10.001434, 9.998556 
7.1512485e+2, 2.755194e+2, 53657.215, -268131.34, 86972.49, -0.017488059, -0.18246181, 75659.586, 315558.16, 0.000000020828322, 10.002723, 9.998504 
7.151322e+2, 2.8551796e+2, 106830.24, -306787.06, 17664.547, -0.056270655, -0.1160934, 107583.28, 249494.64, 0.0000037854625, 10.002918, 9.997465 
7.1513927e+2, 2.9551688e+2, 57676.14, -285881.16, 33936.734, -0.04636612, -0.011867244, 60996.34, 104920.36, 0.000035842306, 10.001922, 9.997416 
7.151452e+2, 3.0551243e+2, 176686.63, -218737.84, 12870.972, -0.15310352, -0.18444058, 177105.13, 177105.13, 0.000135526, 10.002488, 9.997267 
7.151542e+2, 3.1550914e+2, 486998.16, 109682.48, 93759.586, 0.056792162, -0.28308058, 509012.2, 509012.2, 0.00031586387, 10.003764, 9.998916 
7.2500086e+2, 1.2552415e+2, -1935134.8, -1709155.8, 31830.219, 0.17937878, 0.014742828, -1704757.9, 5102.537, 0.0, 9.997896, 10.0010605 
7.25006e+2, 1.3552408e+2, -1895344.1, -1677870.4, -66118.68, -0.0008582532, -0.09610908, -1659346.1, -47489.793, 0.0, 9.997752, 10.000653 
7.250159e+2, 1.4552358e+2, -1759702.6, -1676429.5, 46801.22, 0.16824552, -0.14383422, -1655424.6, -141562.53, 0.0, 9.99847, 9.999638 
7.250244e+2, 1.5552515e+2, -1427113.3, -1455162.6, 49963.145, 0.10797661, 0.004982471, -1389243.8, 26608.316, 0.0, 10.000049, 9.999717 
7.250324e+2, 1.6552527e+2, -1263401.6, -1332577.3, 18421.787, 0.08007238, 0.053959012, -1258801.6, 59050.23, 0.0, 10.000521, 9.999668 
7.2504056e+2, 1.755238e+2, -1238380.9, -1269422.1, 3233.5107, 0.13942549, -0.093443535, -1238047.6, -18183.52, 0.0, 10.00003, 9.999656 
7.250494e+2, 1.8552311e+2, -1224083.6, -1273875.8, 99421.234, 0.17294425, -0.093832314, -1146488.8, -24618.287, 0.0, 9.99972, 9.999098 
7.250588e+2, 1.9552276e+2, -1152218.3, -1180727.0, 102733.71, 0.16552193, -0.07160277, -1062754.8, -38879.77, 0.0, 9.999511, 9.9991665 
7.2506744e+2, 2.0552234e+2, -954324.5, -937815.44, 80577.69, 0.12152316, -0.06938657, -865070.56, 60806.438, 0.0, 9.999793, 10.000029 
7.250755e+2, 2.155215e+2, -766355.06, -807400.4, 30906.916, 0.058307864, -0.18529415, -749777.6, 78103.14, 0.0, 10.000447, 9.999934 
7.250835e+2, 2.2552101e+2, -681290.9, -899237.7, 12266.234, 0.012513908, -0.13595615, -680602.7, 49282.27, 0.0, 10.001144, 9.998297 
7.2509146e+2, 2.3552053e+2, -479654.1, -755425.1, -798.12134, -0.01159624, -0.044457395, -479651.78, 152240.34, 0.0, 10.001874, 9.998262 
7.251007e+2, 2.4551901e+2, -406608.9, -732714.4, 43517.477, 0.07470661, 0.014753252, -400901.56, 133007.34, 0.0, 10.001985, 9.997678 
7.251108e+2, 2.5551638e+2, -345385.06, -647935.94, 62087.08, 0.23969959, -0.05046994, -333139.66, 102796.78, 0.0, 10.001703, 9.997726 
7.251197e+2, 2.6551434e+2, -203518.75, -419437.84, 107374.08, 0.20981711, -0.072521806, -159213.88, 178740.6, 0.0, 10.001543, 9.998698 
7.251274e+2, 2.7551246e+2, -110363.125, -332290.66, 57009.277, 0.04080473, -0.16588508, -96575.08, 143393.13, 0.000000011844985, 10.001527, 9.998639 
7.25135e+2, 2.8551117e+2, -53312.95, -369835.0, -27026.238, 0.0023184721, -0.09751867, -51021.9, 90957.484, 0.000004675658, 10.001777, 9.997573 
7.2514236e+2, 2.9551017e+2, 115060.74, -244819.58, -30930.55, 0.05845464, 0.005466742, 117699.77, 161690.23, 0.000040333267, 10.002271, 9.997521 
7.2514844e+2, 3.055053e+2, 273017.34, -164070.23, 37594.883, -0.088111944, -0.2133572, 276227.38, 276227.38, 0.00014552829, 10.003126, 9.997345 
7.251588e+2, 3.155021e+2, 481066.03, 46051.01, 19526.83, 0.14970873, -0.3090652, 481940.78, 481940.78, 0.00033116215, 10.003994, 9.998372 
7.349991e+2, 1.2551771e+2, -1982581.4, -1803925.3, 6655.2817, 0.15122887, 0.20140506, -1803677.6, -93750.7, 0.0, 9.99789, 10.000404 
7.350062e+2, 1.3551533e+2, -1914710.1, -1721900.6, -63619.574, 0.2119148, -0.107587904, -1702800.8, -90854.58, 0.0, 9.997754, 10.000355 
7.3501563e+2, 1.4551418e+2, -1718391.6, -1566955.9, 86986.69, 0.26238406, -0.25117692, -1527348.6, -13392.2705, 0.0, 9.998381, 10.000422 
7.350243e+2, 1.5551671e+2, -1384310.6, -1363311.1, 123493.09, 0.052440926, -0.08368387, -1249872.3, 166060.89, 0.0, 10.000033, 10.000355 
7.350319e+2, 1.6551752e+2, -1267517.3, -1335763.4, -16964.105, -0.05007789, 0.0054474734, -1263533.1, 54392.21, 0.0, 10.000499, 9.999653 
7.3503935e+2, 1.7551656e+2, -1247509.0, -1273860.5, 1886.0269, -0.010536103, -0.08965029, -1247374.8, -27441.014, 0.0, 9.999962, 9.999661 
7.350482e+2, 1.8551622e+2, -1207126.5, -1207200.0, 78178.086, 0.04492121, -0.08080716, -1128985.1, -7048.81, 0.0, 9.999593, 9.999611 
7.350579e+2, 1.9551611e+2, -1142908.6, -1127894.1, 109424.97, 0.09387509, -0.08521271, -1025719.2, -1782.1671, 0.0, 9.999377, 9.999586 
7.3506725e+2, 2.0551617e+2, -1038291.6, -1081454.0, 88595.24, 0.10092788, -0.0061484217, -968686.94, -42749.87, 0.0, 9.999656, 9.999109 
7.350763e+2, 2.1551605e+2, -854740.2, -943234.6, 69756.79, 0.07036369, 0.037326366, -816380.94, 11558.813, 0.0, 10.000243, 9.999097 
7.35085e+2, 2.2551477e+2, -711310.5, -911689.1, 24762.85, 0.029255694, 0.0476422, -708295.6, 21656.588, 0.0, 10.000931, 9.998313 
7.3509336e+2, 2.3551226e+2, -508074.7, -761183.75, 40881.668, -0.028955193, -0.0667056, -501635.38, 130340.305, 0.0, 10.001654, 9.998324 
7.3510253e+2, 2.4551071e+2, -364985.38, -621618.56, 18959.096, 0.031087313, -0.05731265, -363592.3, 170397.6, 0.0, 10.001871, 9.998497 
7.351123e+2, 2.5550961e+2, -318138.97, -554014.5, 65849.1, 0.18345013, -0.051208094, -301001.13, 134998.83, 0.0, 10.00154, 9.998452 
7.351211e+2, 2.655081e+2, -272981.53, -537497.9, 94648.414, 0.17129177, -0.018027823, -242603.45, 95411.0, 0.0, 10.001432, 9.997938 
7.3512924e+2, 2.7550575e+2, -176417.97, -445800.44, 78724.56, 0.035091434, -0.07728726, -155098.67, 84938.21, 0.000000051096855, 10.001429, 9.997907 
7.3513776e+2, 2.855037e+2, -25794.135, -320149.0, -22767.578, 0.062637925, -0.0685795, -24043.533, 118012.8, 0.0000058850314, 10.001796, 9.997908 
7.3514646e+2, 2.9550162e+2, 125205.04, -213201.05, 9242.539, 0.20221919, -0.11078012, 125457.29, 169533.31, 0.000044056193, 10.002214, 9.997769 
7.351521e+2, 3.0549857e+2, 263990.78, -180777.0, 63940.793, -0.06519321, -0.15126069, 273000.53, 273000.53, 0.00015023243, 10.003118, 9.997232 
7.351612e+2, 3.1549758e+2, 384623.47, -129990.16, 62736.863, -0.0917548, -0.011113618, 392161.38, 392161.38, 0.0003329124, 10.003888, 9.997213 
7.4499774e+2, 1.2550801e+2, -2005861.3, -1776811.0, 11012.011, 0.25324842, 0.14660825, -1776282.8, -66257.734, 0.0, 9.997595, 10.000707 
7.450052e+2, 1.3550752e+2, -1735272.5, -1566473.1, -56199.973, 0.30225003, -0.033157036, -1549473.9, 62551.21, 0.0, 9.998718, 10.000939 
7.4501395e+2, 1.4550708e+2, -1653125.4, -1513543.3, 138653.0, 0.2537406, -0.14365023, -1428107.3, 85920.39, 0.0, 9.998731, 10.000615 
7.450235e+2, 1.5550877e+2, -1661586.6, -1470403.6, 95622.234, 0.079981945, -0.08232843, -1430786.6, -14774.971, 0.0, 9.998029, 10.000572 
7.450318e+2, 1.6550957e+2, -1562460.4, -1474391.8, -26455.605, -0.0031271153, -0.008227517, -1467055.6, -149051.73, 0.0, 9.9984665, 9.999679 
7.450397e+2, 1.755092e+2, -1257334.6, -1269934.0, -36888.555, 0.037593473, -0.04633338, -1226211.8, -6204.871, 0.0, 9.999862, 9.999731 
7.4504834e+2, 1.8550898e+2, -1094963.0, -1154477.6, 27478.078, 0.076023914, -0.031103792, -1084216.8, 37791.637, 0.0, 10.000353, 9.999617 
7.450576e+2, 1.955085e+2, -1047142.2, -1088611.1, -2210.1467, 0.09845204, -0.07334518, -1047024.7, -23012.396, 0.0, 10.000045, 9.999544 
7.45067e+2, 2.0550841e+2, -1021272.75, -1122026.1, 32338.475, 0.10625312, 0.01595926, -1011786.4, -85771.98, 0.0, 9.999975, 9.998667 
7.450767e+2, 2.1550836e+2, -904861.9, -1015547.8, 14393.724, 0.101598606, 0.1117971, -903020.75, -75002.85, 0.0, 10.000097, 9.998669 
7.450862e+2, 2.2550672e+2, -804659.06, -919372.5, 25453.898, 0.09753779, 0.08870802, -799264.7, -69231.57, 0.0, 10.000136, 9.998634 
7.4509525e+2, 2.3550348e+2, -713434.75, -829613.8, 30647.092, 0.08620542, -0.133119, -705846.0, -73784.63, 0.0, 10.000092, 9.998611 
7.451043e+2, 2.455021e+2, -539459.1, -680732.5, 26136.465, 0.09605967, -0.13111378, -534778.75, -705.8766, 0.0, 10.000564, 9.998728 
7.451132e+2, 2.5550202e+2, -290768.06, -513555.22, -2444.9707, 0.1282113, -0.04736819, -290741.22, 145332.11, 0.0, 10.001609, 9.998697 
7.451222e+2, 2.655007e+2, -232404.2, -540906.8, 38762.96, 0.12973127, 0.008715666, -227608.25, 110478.375, 0.0, 10.001818, 9.997729 
7.4513143e+2, 2.7549803e+2, -202251.39, -471860.9, 33648.117, 0.12163296, -0.06368903, -198115.44, 41998.453, 0.00000017449423, 10.001339, 9.997758 
7.4514043e+2, 2.8549588e+2, -40242.543, -334811.44, 2147.477, 0.16308533, -0.053953785, -40226.887, 101908.625, 0.0000070145306, 10.001736, 9.997839 
7.451494e+2, 2.9549384e+2, 219159.31, -169940.58, -29537.404, 0.2473381, -0.08566108, 221388.78, 265544.2, 0.00004543542, 10.0028715, 9.997752 
7.451558e+2, 3.0549175e+2, 342875.9, -164318.89, 46652.633, -0.028117096, -0.021495908, 347131.38, 347131.38, 0.00014809403, 10.003749, 9.997036 
7.4516577e+2, 3.154894e+2, 386701.28, -153481.42, -51747.31, -0.017576471, 0.0022771186, 391613.8, 391613.8, 0.00032280377, 10.004023, 9.996968 
7.549958e+2, 1.2549475e+2, -1922780.5, -1594440.8, -1270.717, 0.2325449, -0.19265708, -1594435.9, 115721.62, 0.0, 9.997552, 10.001981 
7.550026e+2, 1.3550057e+2, -1634706.8, -1365580.0, -4515.554, 0.1423757, 0.10905669, -1365504.3, 246589.98, 0.0, 9.998738, 10.002317 
7.5501066e+2, 1.4550228e+2, -1684527.1, -1567465.0, 92394.84, 0.011200122, 0.16947953, -1516622.0, -2546.0352, 0.0, 9.998693, 10.000259 
7.550216e+2, 1.5550156e+2, -1692442.6, -1521203.0, 86663.695, 0.04546925, 0.027754901, -1484997.8, -68912.055, 0.0, 9.997977, 10.00025 
7.550314e+2, 1.6550148e+2, -1560159.3, -1458574.1, 8368.8125, 0.08182581, 0.022368195, -1457889.4, -139802.13, 0.0, 9.998415, 9.999814 
7.5504094e+2, 1.7550173e+2, -1259490.9, -1264267.1, 27169.486, 0.1465121, 0.036545236, -1234604.8, -14520.807, 0.0, 9.999817, 9.999793 
7.550496e+2, 1.8550134e+2, -1134600.0, -1216616.0, -1867.2236, 0.13571426, 0.0534467, -1134557.5, -12470.33, 0.0, 10.000266, 9.999234 
7.550574e+2, 1.955e+2, -1089710.9, -1145751.1, 1599.0582, 0.049291138, -0.034877185, -1089665.3, -65565.64, 0.0, 9.999914, 9.999214 
7.550664e+2, 2.0549919e+2, -1049055.9, -1142505.5, 22197.547, 0.016110526, 0.0005086759, -1044051.25, -117943.76, 0.0, 9.99981, 9.998611 
7.550763e+2, 2.1549857e+2, -936026.06, -1028766.1, 33214.234, 0.024174187, 0.04499606, -925357.8, -97243.87, 0.0, 9.9998865, 9.998678 
7.550865e+2, 2.2549702e+2, -787588.8, -844204.25, 10725.979, 0.093394995, -0.0024713292, -785624.9, -55498.42, 0.0, 9.999962, 9.999237 
7.550968e+2, 2.3549438e+2, -704634.4, -763369.56, 46687.746, 0.20507309, -0.2222481, -678845.8, -46698.43, 0.0, 9.999889, 9.999164 
7.551056e+2, 2.4549346e+2, -583960.06, -743054.1, 50482.61, 0.14120436, -0.18192352, -569293.4, -35138.105, 0.0, 10.000432, 9.998362 
7.551132e+2, 2.5549358e+2, -332535.66, -572334.4, 47782.914, -0.06849864, -0.04012479, -323365.03, 112791.42, 0.0, 10.001488, 9.998352 
7.5512254e+2, 2.6549226e+2, -214334.17, -490884.78, 5699.9272, -0.047821827, 0.011123629, -214216.73, 123953.97, 0.0, 10.001764, 9.998098 
7.551335e+2, 2.7548945e+2, -195898.45, -435928.94, 35485.36, 0.16231573, -0.11439665, -190762.31, 49436.324, 0.0000002213921, 10.001238, 9.998055 
7.551427e+2, 2.854878e+2, -79678.8, -406813.56, 31419.002, 0.18581875, -0.041965216, -76688.555, 65527.85, 0.000006961638, 10.001688, 9.99737 
7.5515056e+2, 2.9548672e+2, 180766.6, -235656.53, 34107.344, 0.036115434, 0.0760816, 183541.67, 227771.19, 0.00004401986, 10.0028, 9.997342 
7.551589e+2, 3.054846e+2, 313271.38, -204481.2, 50709.836, -0.1279818, 0.16365081, 318191.28, 318191.28, 0.0001416952, 10.003674, 9.996784 
7.5517136e+2, 3.1547856e+2, 407052.03, -81299.6, -30484.688, 0.06402433, -0.15973635, 408947.63, 408947.63, 0.0003069929, 10.003905, 9.997512 
7.6499444e+2, 1.2548655e+2, -1843216.4, -1575970.8, 142373.84, 0.32264733, -0.16256166, -1514336.4, 195901.86, 0.00000000032551553, 9.998124, 10.001845 
7.6500136e+2, 1.3549188e+2, -1647593.4, -1385301.3, -18424.604, 0.15201144, 0.09945781, -1384013.4, 228167.34, 0.0, 9.998687, 10.002206 
7.650091e+2, 1.454938e+2, -1689123.3, -1608329.5, 32757.523, -0.014921452, 0.20050892, -1596717.1, -82556.17, 0.0, 9.998797, 9.999946 
7.6502067e+2, 1.5549275e+2, -1570848.5, -1494832.1, 4337.273, 0.12810116, 0.05561816, -1494585.5, -78411.29, 0.0, 9.998925, 9.9999895 
7.6503104e+2, 1.6549253e+2, -1434780.1, -1380964.9, 9670.163, 0.1744874, 0.04107891, -1379280.0, -61103.203, 0.0, 9.999211, 9.999957 
7.650407e+2, 1.7549276e+2, -1283479.4, -1263560.3, -1651.2108, 0.16250993, 0.03801829, -1263424.3, -43251.082, 0.0, 9.999603, 9.9999 
7.650497e+2, 1.8549249e+2, -1193762.6, -1277299.9, -25955.35, 0.14101322, 0.074979864, -1186355.1, -64179.04, 0.0, 10.00001, 9.998933 
7.65058e+2, 1.9549134e+2, -1036171.8, -1152537.1, -48930.59, 0.09977802, 0.037535742, -1018332.0, 5856.4424, 0.0, 10.000419, 9.998926 
7.650671e+2, 2.0549022e+2, -924240.6, -1037623.7, 18383.287, 0.08005429, 0.033233095, -921334.5, 4863.6626, 0.0, 10.00049, 9.998999 
7.6507676e+2, 2.1548872e+2, -850146.9, -952725.75, 34781.36, 0.0723689, -0.047689527, -839465.75, -11256.363, 0.0, 10.000316, 9.998999 
7.6508707e+2, 2.2548744e+2, -726544.25, -840845.6, 26714.213, 0.13684447, -0.07065512, -720608.94, 9610.264, 0.0, 10.0005045, 9.999 
7.6509774e+2, 2.3548609e+2, -556954.1, -713435.0, -29509.943, 0.255644, -0.13687466, -551574.0, 80656.414, 0.0, 10.00101, 9.998958 
7.651066e+2, 2.4548514e+2, -480898.2, -698915.2, -3425.1914, 0.1725319, -0.08898578, -480844.38, 53395.305, 0.0, 10.0011635, 9.998313 
7.6511425e+2, 2.554842e+2, -412952.47, -616188.1, -8601.006, -0.07662933, -0.047712408, -412589.13, 23661.35, 0.0, 10.000958, 9.998307 
7.6512396e+2, 2.6548272e+2, -256418.03, -492055.2, -27678.783, -0.05919046, -0.014838525, -253210.44, 85054.94, 0.0, 10.001395, 9.99827 
7.651354e+2, 2.754806e+2, -23444.848, -334781.84, -45224.3, 0.18846749, -0.08922241, -17008.691, 223277.58, 0.00000016204108, 10.002347, 9.99822 
7.6514506e+2, 2.8547907e+2, 84103.62, -332411.63, 9459.092, 0.20618004, -0.010860666, 84318.32, 226621.45, 0.000006290961, 10.002832, 9.997323 
7.6515317e+2, 2.9547775e+2, 186267.11, -226708.2, 8996.701, 0.026698595, 0.08275314, 186463.0, 230782.36, 0.000041719115, 10.00284, 9.997362 
7.651627e+2, 3.054756e+2, 231185.05, -248214.33, 69469.414, -0.066615626, 0.16676363, 241048.86, 241048.86, 0.00013461517, 10.003107, 9.996772 
7.651757e+2, 3.1547013e+2, 323689.97, -50830.035, -61703.316, 0.16676895, -0.09497095, 333593.88, 333593.88, 0.00029005748, 10.003005, 9.998176 
7.7499247e+2, 1.2548347e+2, -1955072.8, -1792341.6, 68613.41, 0.23658706, 0.24067561, -1767273.4, -57006.656, 0.0000000023621072, 9.998069, 10.000387 
7.750007e+2, 1.3548145e+2, -1764343.6, -1625948.9, 7212.092, 0.17896461, -0.054390296, -1625574.0, -13289.35, 0.0, 9.998683, 10.00056 
7.750086e+2, 1.4548157e+2, -1693158.6, -1613893.0, 14982.167, 0.012076252, -0.055741686, -1611155.6, -96872.19, 0.0, 9.998783, 9.999915 
7.7502066e+2, 1.5548247e+2, -1575892.1, -1504959.1, 27368.322, 0.18817565, 0.0029410732, -1495627.1, -79350.91, 0.0, 9.998922, 9.999922 
7.750304e+2, 1.6548286e+2, -1431471.8, -1358561.8, 7738.8223, 0.15078466, 0.0449139, -1357749.4, -39477.76, 0.0, 9.999151, 10.000139 
7.7503866e+2, 1.7548247e+2, -1277329.9, -1237605.8, 31276.055, -0.04068615, -0.040896356, -1220418.0, -144.9551, 0.0, 9.999552, 10.000101 
7.750482e+2, 1.8548255e+2, -1224995.9, -1322614.9, -23429.697, -0.03736625, 0.03616495, -1219663.8, -97389.96, 0.0, 9.999915, 9.998676 
7.7505887e+2, 1.954827e+2, -1069440.8, -1192292.9, -18396.775, 0.115766086, 0.1558323, -1066745.0, -42468.055, 0.0, 10.000286, 9.998721 
7.750686e+2, 2.0548156e+2, -894913.75, -933402.44, -3558.401, 0.1594732, 0.11769238, -894587.56, 31698.225, 0.0, 10.000307, 9.9998 
7.750778e+2, 2.1547899e+2, -830738.3, -863422.1, 41685.32, 0.1181628, -0.15058263, -802306.06, 25996.455, 0.0, 10.000113, 9.999705 
7.750875e+2, 2.2547819e+2, -830125.44, -1012793.44, 29567.494, 0.10353641, -0.10258605, -825458.75, -95149.234, 0.0, 10.000315, 9.997916 
7.750975e+2, 2.3547849e+2, -652668.2, -873382.3, 3223.7578, 0.10544884, 0.106367506, -652621.1, -20309.33, 0.0, 10.000836, 9.997949 
7.751069e+2, 2.4547707e+2, -483517.8, -665410.7, -24846.734, 0.05947283, 0.14046623, -480184.8, 54141.863, 0.0, 10.001004, 9.998618 
7.7511597e+2, 2.5547397e+2, -414844.44, -583658.2, 2529.9778, -0.029255025, -0.06354636, -414806.53, 21547.697, 0.0, 10.000808, 9.9986 
7.75126e+2, 2.654723e+2, -273981.7, -509228.56, -5059.192, -0.02371123, -0.06321108, -273872.94, 64496.44, 0.0, 10.001313, 9.998194 
7.7513677e+2, 2.7547133e+2, -42787.867, -349908.97, 5627.175, 0.057790294, -0.0069372426, -42684.8, 197693.8, 0.00000014054619, 10.002235, 9.998175 
7.75147e+2, 2.8546953e+2, 95200.92, -283111.47, -3271.896, 0.08306249, 0.02426512, 95229.22, 237626.45, 0.0000059856334, 10.002726, 9.997707 
7.751568e+2, 2.9546684e+2, 199483.34, -183043.97, 30599.066, 0.05571497, -0.0645488, 201915.55, 246341.22, 0.0000396548, 10.002766, 9.997698 
7.75167e+2, 3.0546474e+2, 242855.16, -205002.31, 58939.414, 0.02593268, -0.0023809262, 250481.89, 250481.89, 0.00012692052, 10.003038, 9.997102 
7.75178e+2, 3.1546372e+2, 346372.75, 30889.846, -13682.275, 0.02443745, 0.15175831, 346965.03, 346965.03, 0.00027215088, 10.002855, 9.9988165 
7.8499013e+2, 1.2547496e+2, -2038040.1, -1871016.0, -3484.3403, 0.2306288, 0.2532588, -1870943.4, -160596.2, 0.0000000040597263, 9.997703, 10.000008 
7.850003e+2, 1.3547225e+2, -1794227.4, -1703007.8, -9452.711, 0.2834884, -0.04816048, -1702038.5, -89663.22, 0.0, 9.998782, 9.999965 
7.8500855e+2, 1.4547212e+2, -1605194.6, -1554187.9, 57671.43, 0.1130295, -0.054516956, -1516632.5, -2255.4417, 0.0, 9.999321, 10.000061 
7.8501964e+2, 1.5547292e+2, -1476570.6, -1444233.9, 48815.6, 0.18178691, -0.01647656, -1408978.8, 7390.0713, 0.0, 9.9995575, 10.000029 
7.8502953e+2, 1.6547331e+2, -1343076.9, -1329083.5, 63193.598, 0.12822507, 0.025909157, -1272500.4, 45863.535, 0.0, 9.999811, 10.000016 
7.850386e+2, 1.7547305e+2, -1223903.5, -1222385.0, 27019.033, -0.012053092, -0.035239805, -1196114.5, 24250.531, 0.0, 9.999972, 9.999993 
7.8504854e+2, 1.8547311e+2, -1191370.0, -1272821.0, 7076.2114, 0.009197695, 0.029612407, -1190759.9, -68394.39, 0.0, 10.00001, 9.998965 
7.850592e+2, 1.9547312e+2, -1121152.0, -1184584.3, 23856.635, 0.15376821, 0.10305319, -1113181.1, -88812.695, 0.0, 9.999813, 9.998989 
7.8506917e+2, 2.0547217e+2, -944662.5, -1001638.2, 47936.93, 0.19812332, 0.093231566, -917387.4, 8988.654, 0.0, 10.000139, 9.999422 
7.8507864e+2, 2.1547014e+2, -762208.9, -869816.25, -21630.646, 0.16700916, -0.08239897, -758023.6, 70366.984, 0.0, 10.000749, 9.99936 
7.850885e+2, 2.2546919e+2, -740055.75, -971190.7, -2378.3464, 0.14898126, -0.030665992, -740031.3, -9631.503, 0.0, 10.000937, 9.997897 
7.8509843e+2, 2.354688e+2, -669533.94, -886070.5, 19379.521, 0.13428928, 0.11172556, -667813.2, -35405.164, 0.0, 10.00074, 9.99791 
7.8510827e+2, 2.4546716e+2, -463006.03, -666481.06, 49473.52, 0.095546044, 0.13004361, -451614.63, 82810.28, 0.0, 10.001196, 9.998512 
7.8511804e+2, 2.5546417e+2, -217946.55, -500677.5, 14471.749, 0.036043696, -0.05416336, -217207.73, 219243.9, 0.0, 10.002205, 9.998496 
7.851282e+2, 2.6546258e+2, -131822.84, -432046.06, 16338.511, 0.02580902, -0.042933203, -130936.3, 207529.22, 0.0, 10.002257, 9.998267 
7.851386e+2, 2.754618e+2, -146441.19, -391597.53, 7947.5923, 0.06361996, 0.020089954, -146183.81, 94288.98, 0.0000001311964, 10.001492, 9.998241 
7.851491e+2, 2.854598e+2, -76705.25, -371828.4, 30798.924, 0.085819535, 0.03070207, -73525.35, 68967.695, 0.0000058891046, 10.001564, 9.997665 
7.8515965e+2, 2.9545674e+2, 117831.445, -228998.31, -1983.5502, 0.10700408, -0.08208756, 117842.79, 162367.28, 0.000037489564, 10.002222, 9.997655 
7.8517044e+2, 3.0545446e+2, 203404.4, -140148.88, 45090.395, 0.11186611, -0.07440181, 209223.83, 209223.83, 0.00011865352, 10.002387, 9.997861 
7.851801e+2, 3.154555e+2, 232861.86, 42054.793, -50220.14, 0.016125437, 0.19939527, 245272.5, 245272.5, 0.00025448482, 10.001782, 9.999401 
7.949862e+2, 1.2546153e+2, -1975270.8, -1770864.1, -41824.332, -0.015182563, -0.09414283, -1762637.5, -52162.79, 0.0000000034592607, 9.997815, 10.0006485 
7.949998e+2, 1.3546431e+2, -1752410.6, -1635762.1, 39185.242, 0.312495, 0.10915138, -1623821.1, -11369.0, 0.0, 9.998851, 10.000397 
7.950086e+2, 1.4546546e+2, -1593487.5, -1518130.9, 44099.38, 0.14368555, 0.19786492, -1497805.6, 16635.77, 0.0, 9.999279, 10.000322 
7.9501754e+2, 1.5546411e+2, -1459725.8, -1404967.8, 75139.17, -0.03119111, -0.012832472, -1352374.9, 64077.043, 0.0, 9.999545, 10.0002985 
7.950281e+2, 1.6546392e+2, -1377860.3, -1396458.8, 53493.6, -0.037265886, -0.01718544, -1332863.6, -14410.372, 0.0, 9.999782, 9.999575 
7.950402e+2, 1.7546453e+2, -1251149.1, -1280309.8, 47367.043, 0.107777975, 0.05265207, -1216169.1, 4279.938, 0.0, 9.999965, 9.999605 
7.950502e+2, 1.8546414e+2, -1155458.1, -1167077.5, -15426.384, 0.14296284, 0.05146848, -1144783.8, -22332.174, 0.0, 9.999885, 9.999747 
7.9505855e+2, 1.9546255e+2, -1085986.3, -1086428.6, 31955.299, 0.07334802, -0.116985954, -1054251.4, -29788.102, 0.0, 9.99971, 9.999707 
7.950682e+2, 2.0546207e+2, -1069372.1, -1224076.6, 54619.953, 0.061959296, -0.041130595, -1052031.6, -125562.45, 0.0, 9.999984, 9.997971 
7.9507893e+2, 2.1546213e+2, -884576.6, -1080502.8, 14974.363, 0.09034907, 0.13644464, -883438.75, -54964.69, 0.0, 10.00056, 9.998006 
7.950896e+2, 2.2546053e+2, -702887.44, -844926.3, -21013.629, 0.14434803, 0.13717672, -699843.8, 30645.934, 0.0, 10.000727, 9.998865 
7.951002e+2, 2.3545727e+2, -628667.56, -766116.94, 31522.377, 0.21028322, -0.10476441, -621783.1, 10734.325, 0.0, 10.000584, 9.99881 
7.951103e+2, 2.4545553e+2, -520859.2, -751069.6, 73054.664, 0.14628407, -0.111254334, -499633.22, 34900.313, 0.0, 10.001048, 9.998002 
7.951199e+2, 2.5545472e+2, -277906.7, -585804.6, 65770.36, -0.026231224, -0.02494462, -264445.88, 172097.63, 0.0, 10.002036, 9.997993 
7.9512995e+2, 2.654536e+2, -125689.74, -400087.66, -25326.709, -0.048615832, 0.042980477, -123371.69, 215182.52, 0.0, 10.002168, 9.998529 
7.951404e+2, 2.7545196e+2, -143638.48, -370290.84, 2513.519, 0.058546882, -0.0024173919, -143610.63, 96957.805, 0.000000103459534, 10.001419, 9.998424 
7.9515094e+2, 2.8544992e+2, -113910.85, -440549.0, 43075.12, 0.081264414, 0.021158028, -108325.85, 34263.35, 0.0000054454867, 10.001529, 9.997211 
7.9516137e+2, 2.9544738e+2, 75126.54, -294634.47, 45562.05, 0.0102116, 0.0070972466, 80657.96, 125274.63, 0.00003447301, 10.002119, 9.997256 
7.951725e+2, 3.0544487e+2, 273413.2, 22725.432, 20430.803, 0.041476004, -0.057983276, 275067.38, 275067.38, 0.0001104858, 10.00231, 9.999016 
7.951812e+2, 3.1544423e+2, 236481.53, 78668.83, -9569.866, -0.13389899, -0.06278545, 237059.73, 237059.73, 0.000240168, 10.001649, 9.999719 
8.0498457e+2, 1.2544972e+2, -1845131.5, -1651414.4, -37665.754, 0.026111128, -0.23241602, -1644348.5, 66239.09, 0.0000000057252847, 9.998487, 10.001153 
8.0499804e+2, 1.3545367e+2, -1739717.5, -1602751.1, -3672.994, 0.26914734, 0.06566158, -1602652.6, 9900.374, 0.0, 9.998816, 10.000662 
8.050075e+2, 1.4545524e+2, -1633965.8, -1512884.0, 15974.696, 0.13957423, 0.17544986, -1510811.9, 3726.3352, 0.0, 9.998903, 10.000539 
8.0501676e+2, 1.5545425e+2, -1519772.8, -1416848.8, -1396.7528, -0.019906182, -0.018502675, -1416829.8, -284.01404, 0.0, 9.999057, 10.000458 
8.0502784e+2, 1.6545412e+2, -1470219.3, -1439265.8, 21004.555, 0.0017888031, -0.025014244, -1428651.9, -110104.57, 0.0, 9.999155, 9.999586 
8.050405e+2, 1.7545454e+2, -1357613.1, -1333962.3, 15190.866, 0.18838304, 0.033114415, -1326536.6, -105991.03, 0.0, 9.999253, 9.999588 
8.050505e+2, 1.8545415e+2, -1151049.5, -1137590.9, -21267.346, 0.19603373, 0.019680753, -1122013.6, 533.8927, 0.0, 9.999801, 9.999992 
8.050583e+2, 1.9545272e+2, -942151.1, -999101.8, -50068.242, 0.042951245, -0.15272681, -913027.25, 111528.71, 0.0, 10.000617, 9.999883 
8.0506825e+2, 2.0545214e+2, -949667.56, -1187742.0, 23746.564, 0.034134496, -0.08043866, -947322.06, -20759.238, 0.0, 10.000902, 9.997779 
8.0507994e+2, 2.1545197e+2, -883848.44, -1098648.6, 43619.566, 0.14584509, 0.093252026, -875328.56, -46756.535, 0.0, 10.000657, 9.99783 
8.050911e+2, 2.2545038e+2, -665338.25, -813049.06, 46096.98, 0.21859467, 0.096051954, -652133.0, 78455.22, 0.0, 10.000933, 9.998976 
8.0510163e+2, 2.3544736e+2, -480485.9, -680496.75, 6675.547, 0.2499476, -0.13389829, -480263.34, 152349.67, 0.0, 10.001558, 9.998916 
8.0511177e+2, 2.4544585e+2, -436567.38, -710094.44, 71141.91, 0.17223229, -0.12479091, -419170.5, 115456.37, 0.0, 10.001599, 9.998032 
8.051218e+2, 2.554452e+2, -413004.3, -648213.75, 74699.42, 0.014062811, -0.024787841, -391286.13, 45349.297, 0.0, 10.001081, 9.998036 
8.0513203e+2, 2.6544398e+2, -254611.19, -485275.66, 12021.464, -0.0111523755, 0.037734177, -253986.36, 84661.61, 0.0, 10.001366, 9.998342 
8.0514246e+2, 2.7544186e+2, -17376.08, -325054.06, -19433.244, 0.08470817, -0.036933616, -16153.515, 224513.8, 0.00000004701224, 10.00233, 9.998306 
8.0515313e+2, 2.8544e+2, 70212.23, -312967.53, 76930.38, 0.105218574, -0.010316398, 85080.5, 227766.38, 0.000004093495, 10.002623, 9.997561 
8.051639e+2, 2.9543805e+2, 146853.7, -219761.86, 100803.63, 0.052810684, -0.0035394572, 172742.27, 217448.4, 0.000029631305, 10.002443, 9.997613 
8.0517524e+2, 3.0543602e+2, 207964.98, -22439.275, 47896.973, 0.121228434, -0.029887687, 217525.23, 217525.23, 0.00010221737, 10.001921, 9.998904 
8.051833e+2, 3.154344e+2, 72598.61, -38299.13, -99500.3, -0.027095485, -0.120831095, 131057.1, 131057.1, 0.00023173698, 10.000702, 9.999375 
8.149842e+2, 1.2543997e+2, -1817130.5, -1617886.3, -84412.664, 0.061301097, -0.12613794, -1586932.4, 123749.39, 0.000000004999778, 9.998582, 10.001343 
8.149945e+2, 1.3544054e+2, -1725604.5, -1585929.6, 18975.46, -0.0038574687, -0.17726173, -1583397.6, 29278.49, 0.0, 9.998873, 10.000747 
8.150048e+2, 1.454417e+2, -1627242.1, -1507568.8, 1161.7214, -0.065216914, -0.113801174, -1507557.5, 7107.712, 0.0, 9.998934, 10.000566 
8.1501716e+2, 1.5544342e+2, -1513483.5, -1403875.8, 18996.637, 0.07039764, -0.0368896, -1400676.6, 15972.819, 0.0, 9.999055, 10.000549 
8.1502837e+2, 1.6544396e+2, -1455380.0, -1394032.4, 7546.9883, 0.108887084, 0.0003622644, -1393117.6, -74472.414, 0.0, 9.999097, 9.999921 
8.1503904e+2, 1.7544316e+2, -1339196.1, -1285083.3, 36052.355, 0.09012891, -0.10290231, -1267064.0, -46410.01, 0.0, 9.999213, 9.999936 
8.1504893e+2, 1.8544321e+2, -1189947.0, -1201914.0, -3850.6382, 0.032848373, -0.06846776, -1188815.1, -66162.53, 0.0, 9.999721, 9.999595 
8.15058e+2, 1.9544365e+2, -981157.56, -1058518.6, -4511.532, -0.0807081, -0.01302783, -980895.3, 43750.42, 0.0, 10.000515, 9.999525 
8.150689e+2, 2.0544253e+2, -913167.2, -1069719.9, -1720.4529, -0.012597799, -0.025708186, -913148.3, 13507.668, 0.0, 10.000719, 9.998678 
8.150815e+2, 2.1543978e+2, -849859.2, -985428.56, 50902.47, 0.20332009, -0.20183773, -832874.6, -4191.096, 0.0, 10.000471, 9.998696 
8.1509244e+2, 2.254388e+2, -745704.5, -928691.3, 52599.53, 0.23969857, -0.1439723, -731662.3, -967.49176, 0.0, 10.000718, 9.998284 
8.151021e+2, 2.3543891e+2, -557599.7, -787892.44, 43073.01, 0.11381314, 0.00978528, -549807.2, 82888.94, 0.0, 10.001333, 9.998285 
8.1511235e+2, 2.4543792e+2, -426132.25, -641580.06, 35866.684, 0.046400588, 0.07174516, -420318.25, 114388.1, 0.0, 10.001401, 9.998598 
8.151233e+2, 2.554357e+2, -400965.22, -586620.1, 72236.266, 0.028687539, -0.043272566, -376170.34, 60556.67, 0.0, 10.000925, 9.998536 
8.151339e+2, 2.6543373e+2, -305291.7, -563407.06, 34037.14, 0.015173801, -0.052751288, -300878.72, 37867.79, 0.0, 10.00126, 9.997852 
8.1514424e+2, 2.7543154e+2, -78093.34, -402915.28, 34327.387, -0.00046551842, -0.081311814, -74505.24, 166263.63, 0.000000004527389, 10.002135, 9.997862 
8.1515527e+2, 2.8542998e+2, 136132.11, -159542.86, 55751.69, 0.019267673, -0.060236625, 146295.17, 289078.44, 0.0000024308686, 10.002543, 9.998655 
8.1516695e+2, 2.9542878e+2, 190166.92, -98757.805, 114804.586, 0.06604091, -0.08854394, 230229.55, 275022.1, 0.00002455122, 10.002311, 9.998509 
8.151783e+2, 3.0542776e+2, 116897.945, -210311.28, -8509.175, 0.20488687, 0.018128274, 117119.08, 117119.08, 0.00009685274, 10.001918, 9.99761 
8.15185e+2, 3.1542528e+2, -10949.412, -178779.14, -60661.297, -0.0018486811, -0.037065107, 8680.388, 8680.388, 0.00023260372, 10.000573, 9.998471 
8.2498306e+2, 1.2543002e+2, -1889558.6, -1655867.3, -26027.451, 0.124242984, -0.057878092, -1653003.5, 57776.19, 0.0000000017683296, 9.998092, 10.001313 
8.249933e+2, 1.3542965e+2, -1788249.0, -1629948.3, 14796.262, 0.022903115, -0.19840862, -1628577.1, -15796.292, 0.0, 9.998489, 10.000632 
8.2500434e+2, 1.4543015e+2, -1662559.9, -1527119.8, 27767.209, 0.01457364, -0.19398843, -1521648.1, -6872.122, 0.0, 9.99871, 10.000535 
8.250165e+2, 1.5543227e+2, -1519170.8, -1409362.0, 1692.5422, 0.11378388, -0.07299493, -1409335.9, 7421.475, 0.0, 9.99904, 10.000508 
8.250277e+2, 1.6543311e+2, -1388975.1, -1331436.0, 15619.161, 0.12681468, -0.02040145, -1327469.5, -8719.8125, 0.0, 9.999398, 10.000208 
8.2503843e+2, 1.7543255e+2, -1256040.9, -1222426.8, 6756.025, 0.09530944, -0.12962587, -1221119.8, -365.22867, 0.0, 9.9996605, 10.000159 
8.2504886e+2, 1.8543261e+2, -1173748.1, -1225533.5, 12545.965, 0.056205925, -0.08870699, -1170868.8, -48115.527, 0.0, 9.999964, 9.999311 
8.2505894e+2, 1.9543286e+2, -1035425.94, -1115462.8, -12757.473, -0.0118321385, -0.023366543, -1033441.6, -8691.078, 0.0, 10.000272, 9.999247 
8.2507014e+2, 2.054317e+2, -889389.94, -1028880.3, -13591.291, 0.044370696, -0.041433115, -888078.0, 38683.55, 0.0, 10.000758, 9.998927 
8.250824e+2, 2.154291e+2, -706627.4, -893872.75, -44730.555, 0.21101378, -0.22669262, -696490.56, 132295.98, 0.0, 10.001353, 9.998899 
8.2509327e+2, 2.2542839e+2, -653689.7, -890237.6, -13182.69, 0.22098427, -0.1473442, -652957.3, 77838.04, 0.0, 10.001352, 9.998262 
8.251029e+2, 2.3542893e+2, -635436.56, -829753.1, -5219.8296, 0.09840944, 0.051052716, -635296.44, -2502.113, 0.0, 10.000796, 9.998273 
8.251135e+2, 2.4542798e+2, -514047.16, -654868.0, 24076.705, 0.063686654, 0.106168546, -510044.44, 24759.598, 0.0, 10.000678, 9.99885 
8.2512486e+2, 2.5542554e+2, -377038.9, -544407.9, 6569.2764, 0.09979528, -0.056317676, -376781.44, 60044.082, 0.0, 10.000973, 9.998796 
8.251359e+2, 2.654236e+2, -278404.06, -549191.1, 37387.867, 0.08588711, -0.07480189, -273336.7, 65507.652, 0.0, 10.001443, 9.997858 
8.2514656e+2, 2.7542165e+2, -94074.73, -404702.47, 40412.805, 0.04012445, -0.08571563, -88903.1, 151962.06, 0.0, 10.00201, 9.9979 
8.251575e+2, 2.8542033e+2, 66359.49, -174213.67, 38857.5, 0.03137847, -0.052102797, 72480.06, 215357.83, 0.000001518397, 10.001991, 9.998821 
8.251687e+2, 2.954192e+2, 77012.375, -133736.02, -1418.5264, 0.066445045, -0.087573245, 77021.92, 121908.33, 0.000022026383, 10.001437, 9.998692 
8.2518053e+2, 3.0541834e+2, 107181.445, -237624.33, -50806.688, 0.24990799, 0.037295252, 114511.9, 114511.9, 0.00009707927, 10.001964, 9.99739 
8.251885e+2, 3.1541538e+2, 400277.9, 48544.195, -56286.793, 0.17458794, -0.05167383, 409065.72, 409065.72, 0.00024343749, 10.003261, 9.99873 
8.349797e+2, 1.2542042e+2, -1914442.1, -1699226.9, -52111.4, -0.086359516, 0.017525015, -1687272.8, 23603.414, 0.000000000051048894, 9.998059, 10.001032 
8.349941e+2, 1.3542119e+2, -1788712.0, -1637400.9, 43572.305, 0.21388113, 0.0054288977, -1625750.6, -12884.92, 0.0, 9.998522, 10.000563 
8.3500564e+2, 1.4542073e+2, -1683375.6, -1567770.4, 20347.31, 0.22729278, -0.06882772, -1564293.6, -49424.383, 0.0, 9.998698, 10.00026 
8.3501434e+2, 1.5542082e+2, -1533896.0, -1438540.3, 29038.854, -0.04451141, -0.12973596, -1430393.0, -13523.974, 0.0, 9.999033, 10.000308 
8.3502525e+2, 1.6542159e+2, -1383484.0, -1299417.1, 8670.75, -0.08589787, -0.088780686, -1298532.1, 20328.46, 0.0, 9.999313, 10.00047 
8.3503824e+2, 1.754228e+2, -1245817.0, -1187323.6, 33661.92, 0.077560045, -0.041976772, -1171977.9, 48868.07, 0.0, 9.99961, 10.000422 
8.3505005e+2, 1.8542247e+2, -1201512.4, -1266939.4, 6932.98, 0.14268662, -0.040234458, -1200785.8, -77937.19, 0.0, 9.99989, 9.999067 
8.350608e+2, 1.9542038e+2, -1067733.5, -1150723.0, 13708.859, 0.10944824, -0.18939377, -1065527.6, -40657.402, 0.0, 10.00014, 9.999066 
8.3507144e+2, 2.0541967e+2, -946939.2, -1107113.9, -6878.72, 0.07348529, -0.12957604, -946644.3, -19764.924, 0.0, 10.000575, 9.998481 
8.3508223e+2, 2.1541986e+2, -762181.06, -964430.06, -8235.365, 0.030359251, 0.0071649565, -761846.3, 67034.77, 0.0, 10.001161, 9.998505 
8.3509296e+2, 2.2541921e+2, -638887.3, -815740.0, -50272.44, 0.034490537, 0.077415854, -625595.75, 105293.51, 0.0, 10.001157, 9.998871 
8.3510363e+2, 2.354175e+2, -620717.25, -760868.56, -7994.404, 0.06596968, -0.0096496055, -620262.75, 12643.525, 0.0, 10.00062, 9.998836 
8.351146e+2, 2.454162e+2, -540887.94, -674595.94, 19940.988, 0.082623996, -0.014776883, -537977.3, -3059.1702, 0.0, 10.00052, 9.998791 
8.35126e+2, 2.5541484e+2, -401074.84, -564502.1, 35322.875, 0.08515162, -0.061388265, -393767.0, 43162.703, 0.0, 10.000837, 9.998725 
8.351374e+2, 2.6541367e+2, -257971.27, -483910.03, 44756.207, 0.074507765, -0.026687253, -249428.52, 89512.54, 0.0, 10.001341, 9.998357 
8.3514905e+2, 2.7541226e+2, -83718.07, -352019.72, 78292.92, 0.049628664, -0.035747238, -62542.707, 178412.95, 0.0, 10.001871, 9.998332 
8.351595e+2, 2.8541103e+2, 10385.1045, -268767.5, 2010.8282, -0.0043122177, 0.022755539, 10399.588, 153368.44, 0.0000012583888, 10.001902, 9.998214 
8.3516896e+2, 2.954096e+2, 13742.931, -229086.73, 517.8859, -0.09347201, 0.016921882, 13744.035, 58729.113, 0.000022671806, 10.001285, 9.998114 
8.3518153e+2, 3.0540788e+2, 158006.7, -118911.28, -7612.67, 0.11913486, 0.039415862, 158215.81, 158215.81, 0.0001036696, 10.001908, 9.998231 
8.351926e+2, 3.1540653e+2, 460953.13, 217908.6, 67423.83, 0.1810479, 0.03266343, 478404.38, 478404.38, 0.00026239955, 10.003085, 9.999978 
8.449787e+2, 1.254089e+2, -1841600.1, -1686536.4, -55584.773, -0.008106097, 0.003251941, -1668669.9, 42318.047, 0.0, 9.998649, 10.000833 
8.4499294e+2, 1.3541017e+2, -1701896.1, -1603074.0, -28462.277, 0.228118, 0.044000134, -1595462.8, 17510.78, 0.0, 9.999155, 10.000491 
8.4500486e+2, 1.4540954e+2, -1618227.8, -1557840.0, -17942.318, 0.2669866, -0.03304568, -1552911.3, -37932.73, 0.0, 9.999237, 10.000068 
8.4501374e+2, 1.5540896e+2, -1507670.3, -1453118.6, -42036.438, -0.012584516, -0.14049245, -1430284.3, -13299.896, 0.0, 9.999325, 10.000075 
8.4502494e+2, 1.6540955e+2, -1357520.8, -1276757.3, -35152.227, -0.048310336, -0.108688526, -1263600.6, 55376.324, 0.0, 9.999459, 10.000553 
8.450383e+2, 1.7541099e+2, -1262387.9, -1189070.8, -57234.637, 0.13098803, -0.04741243, -1157761.3, 63198.71, 0.0, 9.99948, 10.000471 
8.450503e+2, 1.854106e+2, -1232838.1, -1284670.4, -51543.9, 0.19640626, -0.050552856, -1201061.8, -78098.3, 0.0, 9.999696, 9.999031 
8.4506124e+2, 1.9540827e+2, -1086567.0, -1170137.6, -63022.926, 0.15363109, -0.21846738, -1052735.5, -27746.732, 0.0, 10.000051, 9.99898 
8.4507203e+2, 2.0540781e+2, -954641.75, -1099877.9, -22047.184, 0.08409989, -0.13563997, -951368.7, -24372.418, 0.0, 10.000477, 9.998583 
8.4508276e+2, 2.1540861e+2, -803998.94, -979316.56, -19457.395, -0.0064215967, 0.059030782, -801865.44, 27126.596, 0.0, 10.000848, 9.998561 
8.4509367e+2, 2.2540781e+2, -665791.3, -811320.8, -62412.25, 0.01085429, 0.10421591, -642691.6, 88309.76, 0.0, 10.000909, 9.999007 
8.451047e+2, 2.3540542e+2, -604758.7, -733278.2, -90142.664, 0.11578692, -0.06650463, -558316.06, 74707.945, 0.0, 10.00067, 9.998985 
8.451158e+2, 2.4540421e+2, -483413.03, -636997.1, -11743.035, 0.13859701, -0.07134958, -482520.38, 52513.94, 0.0, 10.000872, 9.99888 
8.4512717e+2, 2.5540367e+2, -312368.22, -506327.38, -16939.354, 0.09700851, -0.048308857, -310899.94, 126138.22, 0.0, 10.001394, 9.998848 
8.451389e+2, 2.6540262e+2, -243868.81, -469100.7, 883.3303, 0.09098669, -0.009278182, -243865.34, 95182.664, 0.0, 10.001394, 9.998432 
8.451511e+2, 2.7540085e+2, -208192.67, -404481.94, -27953.959, 0.124032326, -0.06008619, -204289.31, 36776.86, 0.0000000050987805, 10.000968, 9.998413 
8.4516144e+2, 2.8539968e+2, -111201.16, -311817.75, -59314.7, 0.05470229, -0.008370126, -94976.24, 48102.348, 0.0000017149706, 10.000988, 9.998355 
8.451701e+2, 2.9539862e+2, 29588.23, -194379.61, -39243.625, -0.09840202, 0.003703115, 36265.426, 81355.79, 0.0000255943, 10.001284, 9.99834 
8.451828e+2, 3.0539653e+2, 164620.8, -119839.21, 26648.332, 0.0713005, -0.02707399, 167095.69, 167095.69, 0.000114914044, 10.001958, 9.998211 
8.4519637e+2, 3.1539503e+2, 393275.9, 187874.1, 1322.2662, 0.2877116, -0.041232616, 393284.4, 393284.4, 0.00028702893, 10.00257, 10.000031 
8.54979e+2, 1.2539536e+2, -1871916.4, -1737728.9, -64530.33, 0.08557537, -0.13757809, -1711732.8, -616.5425, 0.0, 9.998613, 10.000494 
8.549892e+2, 1.3539673e+2, -1710788.4, -1607858.3, -1535.3486, -0.08924991, -0.07930449, -1607835.4, 5267.551, 0.0, 9.999124, 10.000458 
8.550016e+2, 1.453968e+2, -1628781.1, -1581074.8, -33601.195, -0.019368254, -0.079327166, -1563720.9, -48618.867, 0.0, 9.9992285, 9.999923 
8.5501426e+2, 1.553968e+2, -1513505.5, -1468756.8, -18269.93, 0.06670947, -0.11201227, -1462245.1, -45143.176, 0.0, 9.999339, 9.999962 
8.550263e+2, 1.6539706e+2, -1381319.5, -1316138.0, -51934.867, 0.11005602, -0.09234704, -1287414.9, 31683.365, 0.0, 9.999415, 10.000304 
8.55038e+2, 1.7539713e+2, -1280235.5, -1216434.3, -42352.48, 0.12046546, -0.14972053, -1195312.4, 25783.65, 0.0, 9.999442, 10.000298 
8.5504913e+2, 1.8539709e+2, -1237829.6, -1277971.1, -52935.074, 0.07718432, -0.115908474, -1201288.0, -78190.805, 0.0, 9.999609, 9.999126 
8.550598e+2, 1.9539668e+2, -1087353.3, -1155787.1, -34552.176, -0.02230702, -0.10099581, -1072942.5, -47837.918, 0.0, 9.99997, 9.999119 
8.5507137e+2, 2.0539625e+2, -941649.6, -1037108.4, -24389.34, -0.051875364, -0.047666214, -935779.25, -8668.789, 0.0, 10.000322, 9.999092 
8.5508364e+2, 2.1539539e+2, -797656.25, -915442.4, 9518.39, -0.03080262, -0.07475004, -796892.0, 32227.256, 0.0, 10.000633, 9.999101 
8.5509497e+2, 2.2539423e+2, -722498.0, -880460.5, -86645.84, 0.024967197, -0.06979476, -684237.9, 46893.227, 0.0, 10.000695, 9.99864 
8.551055e+2, 2.3539262e+2, -651186.6, -793823.8, -80098.055, 0.10719179, -0.12821038, -615257.6, 17890.414, 0.0, 10.00051, 9.99865 
8.551165e+2, 2.4539207e+2, -490362.9, -614523.44, -6723.014, 0.098486304, -0.065151125, -489999.94, 45152.51, 0.0, 10.000718, 9.999108 
8.5512793e+2, 2.55392e+2, -322632.47, -488873.7, 16425.723, 0.011323805, -0.018791756, -321025.06, 116125.65, 0.0, 10.0012245, 9.999052 
8.5514e+2, 2.653905e+2, -282566.38, -520985.7, -31454.56, 0.030498825, -0.022043282, -278486.4, 60679.047, 0.0, 10.001269, 9.99814 
8.551524e+2, 2.753875e+2, -243676.27, -451688.72, -22751.223, 0.12563525, -0.16507977, -241216.94, -20.200344, 0.0000001292932, 10.000856, 9.998146 
8.5516286e+2, 2.8538644e+2, -56129.043, -180964.4, -59860.145, 0.067106836, -0.13728462, -32064.336, 111141.35, 0.0000031613251, 10.0009165, 9.999287 
8.551715e+2, 2.953864e+2, 76209.87, -79696.19, -10011.42, -0.12943299, -0.11227343, 76850.12, 122052.05, 0.000030116835, 10.001196, 9.999175 
8.551839e+2, 3.053842e+2, 97188.766, -228599.47, 39065.04, -0.038803194, -0.1580632, 101807.55, 101807.55, 0.00012742863, 10.00185, 9.997507 
8.5519916e+2, 3.153815e+2, 269122.16, -26308.87, 72755.875, 0.23307288, -0.21155685, 286067.78, 286067.78, 0.00031382052, 10.0024, 9.99864 
8.6497897e+2, 1.2538257e+2, -1844680.5, -1782697.3, -27534.713, 0.21297623, -0.17168158, -1772232.4, -60993.156, 0.00000000000000000000885557, 9.99904, 9.999985 
8.6498827e+2, 1.3538343e+2, -1688583.9, -1653737.9, -56655.18, -0.099153265, -0.118324496, -1611887.1, 1345.7792, 0.0, 9.999485, 9.999988 
8.6500084e+2, 1.4538357e+2, -1597161.6, -1540138.1, -68794.305, -0.01573362, -0.102115, -1494181.3, 21050.682, 0.0, 9.999337, 10.000151 
8.650141e+2, 1.5538386e+2, -1552894.8, -1476594.9, -65637.99, 0.14441462, -0.12311544, -1438825.4, -21597.502, 0.0, 9.999, 10.000088 
8.650262e+2, 1.6538405e+2, -1443027.8, -1363802.8, -38253.863, 0.18287387, -0.10708328, -1348347.1, -29121.799, 0.0, 9.99907, 10.000136 
8.650374e+2, 1.7538384e+2, -1280956.6, -1239650.5, -60935.477, 0.121687755, -0.17266107, -1195963.3, 25264.248, 0.0, 9.999524, 10.0001 
8.6504865e+2, 1.8538417e+2, -1167483.3, -1186001.8, -24919.14, 0.066043764, -0.11888633, -1150158.8, -26933.336, 0.0, 9.999865, 9.999623 
8.6506e+2, 1.9538477e+2, -1038689.1, -1078216.9, -7359.728, 0.00187757, -0.051255684, -1037363.25, -12141.316, 0.0, 10.000094, 9.999582 
8.6507195e+2, 2.0538448e+2, -929716.1, -982228.9, 33630.66, -0.008697686, -0.027110545, -913306.1, 13918.926, 0.0, 10.000199, 9.999522 
8.6508435e+2, 2.1538305e+2, -852500.75, -902314.2, 25298.23, 0.01665093, -0.15331423, -841906.1, -12668.441, 0.0, 10.000086, 9.999456 
8.650959e+2, 2.25382e+2, -733516.44, -900691.25, -21877.285, 0.054638136, -0.14744008, -730700.9, 547.1556, 0.0, 10.000703, 9.998491 
8.6510664e+2, 2.3538105e+2, -453649.06, -717434.4, -34898.992, 0.10425457, -0.12117265, -449110.0, 184148.61, 0.0, 10.001961, 9.99847 
8.651179e+2, 2.4538016e+2, -329452.84, -595994.7, 19421.023, 0.10451668, -0.05875238, -328045.2, 207222.44, 0.0, 10.002082, 9.998573 
8.651296e+2, 2.5537887e+2, -351061.8, -560135.2, -44700.473, 0.06216441, -0.07667144, -341905.72, 95373.67, 0.0, 10.001282, 9.998535 
8.651415e+2, 2.6537737e+2, -306074.13, -512058.9, -63274.797, 0.082664736, -0.060852185, -288190.0, 51104.914, 0.0000000005766255, 10.001035, 9.998307 
8.6515373e+2, 2.753754e+2, -168138.95, -398067.72, -60163.05, 0.16065134, -0.11844717, -153348.17, 87968.445, 0.000000514823, 10.001313, 9.998287 
8.651645e+2, 2.8537422e+2, 1672.3701, -181271.38, -88359.625, 0.122471586, -0.095702335, 37379.613, 180706.14, 0.0000054394536, 10.00144, 9.9990425 
8.6517406e+2, 2.953733e+2, 89374.68, -94903.14, -153720.69, 0.004936752, -0.1351907, 176455.27, 221786.38, 0.000035908153, 10.00139, 9.998983 
8.651862e+2, 3.05371e+2, 129801.914, -215413.45, -50736.996, 0.008162896, -0.17819002, 137104.36, 137104.36, 0.00014009468, 10.002062, 9.997498 
8.652014e+2, 3.1536898e+2, 320943.7, -8843.581, -29840.514, 0.2136176, -0.16340071, 323622.03, 323622.03, 0.00033844914, 10.002815, 9.998544 
8.749774e+2, 1.2537088e+2, -1895210.1, -1885046.1, -41891.934, 0.081735715, -0.056732703, -1847929.1, -136575.61, 0.0000000055054987, 9.999027, 9.999286 
8.7498975e+2, 1.3537036e+2, -1737540.1, -1742076.4, -29377.877, 0.06425363, -0.079166606, -1710343.0, -96980.19, 0.0, 9.999446, 9.999387 
8.7500215e+2, 1.4536996e+2, -1573985.9, -1490466.9, -101431.82, 0.13529909, -0.10343349, -1422534.6, 92832.17, 0.0, 9.999323, 10.000501 
8.750128e+2, 1.5537025e+2, -1527022.5, -1415270.5, -61746.52, 0.07973166, -0.16710135, -1387871.3, 29489.37, 0.0, 9.998978, 10.000511 
8.75024e+2, 1.6537078e+2, -1457934.4, -1389102.3, -37590.824, 0.029129602, -0.13450947, -1372552.4, -53197.082, 0.0, 9.999033, 9.999987 
8.75036e+2, 1.7537132e+2, -1293285.3, -1259054.6, -29626.807, 0.0027374404, -0.10700318, -1241954.8, -20602.61, 0.0, 9.999494, 9.999981 
8.7504846e+2, 1.8537207e+2, -1122784.4, -1073711.3, -31431.47, 0.032248322, -0.04717214, -1058373.3, 64972.324, 0.0, 9.999783, 10.000434 
8.7506133e+2, 1.953725e+2, -999436.6, -964009.9, 17560.668, 0.09482731, -0.07846194, -956780.5, 68560.2, 0.0, 9.999958, 10.000429 
8.750734e+2, 2.0537248e+2, -935584.0, -954842.1, 14265.899, 0.08388102, -0.08556346, -928001.56, -661.56665, 0.0, 10.000023, 9.999799 
8.750845e+2, 2.153718e+2, -858141.0, -874598.2, 36051.176, 0.002057439, -0.16502166, -829391.25, -45.65731, 0.0, 9.999912, 9.999731 
8.75096e+2, 2.253713e+2, -763488.3, -919711.5, 8789.183, -0.023978133, -0.1134655, -762995.4, -31645.463, 0.0, 10.000514, 9.998454 
8.7510765e+2, 2.3537067e+2, -492667.0, -743357.44, 25797.242, -0.013870877, -0.05277772, -490039.88, 143316.56, 0.0, 10.001724, 9.998406 
8.7511957e+2, 2.4536839e+2, -440947.53, -791701.94, -26619.777, 0.033904318, -0.058794938, -438938.78, 96441.836, 0.0, 10.001918, 9.9973135 
8.7513155e+2, 2.5536445e+2, -457442.1, -745623.25, -54997.23, 0.10603474, -0.21759467, -447303.0, -9880.116, 0.0, 10.001129, 9.9973345 
8.7514323e+2, 2.6536343e+2, -278226.25, -445430.06, -66477.05, 0.11839046, -0.11958117, -255017.67, 84417.67, 0.0000000691861, 10.000983, 9.998795 
8.751546e+2, 2.7536458e+2, -153612.95, -342271.13, -31485.615, 0.08028119, 0.07807815, -148496.97, 92929.484, 0.000001269736, 10.001197, 9.998728 
8.75166e+2, 2.8536317e+2, -96682.75, -375614.97, -104818.39, 0.09729943, 0.123975076, -61684.844, 81755.45, 0.000008255043, 10.00139, 9.997738 
8.751773e+2, 2.953591e+2, -1691.1816, -277284.88, -130084.16, 0.15154359, -0.09207884, 50010.934, 95489.56, 0.000042714033, 10.001351, 9.997756 
8.751892e+2, 3.0535692e+2, 167490.94, -122840.58, -25479.596, 0.07704617, -0.101016335, 169710.08, 169710.08, 0.00015288098, 10.002004, 9.998157 
8.7520254e+2, 3.153556e+2, 361997.4, 94803.12, 26822.453, -0.037944146, -0.08503011, 364663.38, 364663.38, 0.00035815634, 10.002719, 9.99931 
8.849765e+2, 1.2535828e+2, -1752670.9, -1780136.4, 8374.571, 0.06884853, -0.04449591, -1750318.8, -38841.78, 0.00000006865043, 9.999847, 9.999617 
8.8499016e+2, 1.353576e+2, -1754626.6, -1727119.0, 19328.035, 0.1897759, -0.10460562, -1717150.6, -103664.6, 0.0, 9.999216, 9.99961 
8.8500255e+2, 1.4535733e+2, -1631607.5, -1523203.9, 7564.4907, 0.2730579, -0.12413059, -1522678.6, -7189.5317, 0.0, 9.998982, 10.000424 
8.850122e+2, 1.553578e+2, -1460374.3, -1393056.0, -27466.79, 0.10724319, -0.16066839, -1383271.3, 34211.63, 0.0, 9.999496, 10.0004 
8.8502324e+2, 1.653583e+2, -1366512.4, -1342455.5, 20669.09, 0.02419394, -0.12276011, -1330569.6, -11091.422, 0.0, 9.999659, 10.000003 
8.850356e+2, 1.7535882e+2, -1294781.0, -1259296.4, 8644.189, 0.015743656, -0.0992393, -1257302.6, -35827.297, 0.0, 9.999486, 9.999986 
8.8504815e+2, 1.853595e+2, -1184483.5, -1084171.3, 8900.267, 0.057572708, -0.0555094, -1083387.6, 40081.523, 0.0, 9.999268, 10.000612 
8.85061e+2, 1.9535981e+2, -1131912.8, -1012502.5, -22667.506, 0.12818564, -0.11530764, -1008344.4, 17120.479, 0.0, 9.998975, 10.000573 
8.8507336e+2, 2.0536013e+2, -997149.5, -983505.9, -3555.5186, 0.115379155, -0.09653833, -982634.94, -55173.82, 0.0, 9.9996, 9.999803 
8.850852e+2, 2.153602e+2, -695623.75, -798548.7, -30073.22, 0.03310282, -0.09792265, -687480.94, 141979.14, 0.0, 10.001039, 9.999714 
8.850972e+2, 2.2535963e+2, -611990.7, -853146.5, -45896.785, 0.0018551451, -0.050386313, -603550.94, 127914.5, 0.0, 10.0015745, 9.998395 
8.8510925e+2, 2.3535815e+2, -557065.0, -784421.0, -67388.3, 0.0068201865, -0.06878006, -538592.06, 94887.83, 0.0, 10.001309, 9.998324 
8.8512135e+2, 2.4535587e+2, -527902.1, -818921.9, -60574.82, 0.058819056, -0.07551184, -515797.16, 19706.68, 0.0, 10.001264, 9.997435 
8.851332e+2, 2.5535256e+2, -390755.0, -703182.94, -21929.883, 0.14218917, -0.18463396, -389223.22, 48316.516, 0.00000000006372724, 10.001524, 9.997436 
8.851448e+2, 2.6535153e+2, -194747.3, -432567.75, 33185.434, 0.15621819, -0.081901215, -190203.42, 149349.19, 0.00000025387644, 10.0016775, 9.998544 
8.8515645e+2, 2.7535212e+2, -77567.29, -332418.44, -20797.871, 0.118992336, 0.08684238, -75881.17, 165668.22, 0.0000021793016, 10.001832, 9.9984865 
8.8516814e+2, 2.8535047e+2, 727.8351, -369611.53, -41766.688, 0.13739303, 0.13743779, 5379.8257, 148946.28, 0.000011106664, 10.002252, 9.997345 
8.8517994e+2, 2.953465e+2, 205040.7, -220521.75, -37901.004, 0.20433602, -0.030104937, 208389.84, 253994.83, 0.000049522223, 10.002962, 9.997359 
8.851921e+2, 3.0534416e+2, 290996.97, -100425.164, 79273.8, 0.121258184, -0.017651223, 306442.6, 306442.6, 0.00016467013, 10.003014, 9.997832 
8.852054e+2, 3.153429e+2, 255983.31, 30483.55, -9221.926, 0.018832155, 0.044169318, 256359.81, 256359.81, 0.00037312726, 10.002058, 9.999194 
8.9497536e+2, 1.2534472e+2, -1672452.0, -1595900.6, -53049.008, -0.1056743, -0.13866143, -1568760.5, 142849.69, 0.00000033567557, 9.999794, 10.000894 
8.949892e+2, 1.3534555e+2, -1677625.0, -1562580.5, 3742.178, 0.14003293, -0.16571826, -1562458.9, 51140.34, 0.00000000007521531, 9.999209, 10.000733 
8.9500153e+2, 1.4534609e+2, -1676856.6, -1611240.1, 6930.41, 0.2339021, -0.12903006, -1610516.1, -94921.664, 0.0, 9.998956, 9.999836 
8.950119e+2, 1.5534663e+2, -1505682.4, -1481379.0, 10539.323, 0.09061404, -0.094755, -1477445.3, -59852.39, 0.0, 9.999475, 9.9998045 
8.950232e+2, 1.6534676e+2, -1364323.8, -1330384.3, -2384.8357, 0.023774082, -0.06943919, -1330217.5, -10624.42, 0.0, 9.999625, 10.000101 
8.9503556e+2, 1.7534633e+2, -1295638.4, -1245010.9, 18779.38, 0.03694575, -0.15538286, -1238805.6, -17208.44, 0.0, 9.999421, 10.000113 
8.950473e+2, 1.8534653e+2, -1232497.3, -1161568.1, -17249.098, 0.016726801, -0.14231789, -1157595.9, -34000.527, 0.0, 9.999165, 10.0001335 
8.9505863e+2, 1.953469e+2, -1187385.6, -1092404.6, -17432.412, -0.038688283, -0.14796044, -1089306.3, -63714.035, 0.0, 9.998825, 10.000094 
8.9507157e+2, 2.0534763e+2, -1036881.56, -1033639.6, 35526.594, -0.048061162, -0.050507348, -999697.06, -72110.93, 0.0, 9.999454, 9.999534 
8.95086e+2, 2.1534832e+2, -743291.6, -847316.7, 40502.547, -0.0212835, 0.035204187, -729381.75, 100198.89, 0.0, 10.000824, 9.99948 
8.950991e+2, 2.2534707e+2, -653774.9, -893283.94, -69370.23, 0.007770556, 0.034954447, -635133.7, 96459.88, 0.0, 10.001363, 9.998227 
8.951111e+2, 2.3534384e+2, -591826.75, -809890.1, -61107.586, 0.025520884, -0.14600138, -575870.25, 57755.39, 0.0, 10.001106, 9.998247 
8.951227e+2, 2.453428e+2, -446991.66, -619671.7, -67524.195, 0.041367773, -0.10186724, -423722.75, 111912.69, 0.0, 10.001124, 9.998873 
8.9513403e+2, 2.5534326e+2, -324198.34, -520779.22, 3163.5974, 0.046670426, 0.02449647, -324147.44, 113482.555, 0.0000000002378373, 10.001333, 9.998785 
8.951461e+2, 2.653418e+2, -275583.78, -574469.94, 24547.072, 0.0776045, 0.06666317, -273581.2, 66064.36, 0.00000030747992, 10.001568, 9.997621 
8.951587e+2, 2.7533826e+2, -163103.52, -478891.4, 6597.089, 0.1314278, -0.077277556, -162965.75, 78717.83, 0.0000026197797, 10.001706, 9.99754 
8.9517033e+2, 2.853362e+2, 21094.672, -318480.6, -30603.967, 0.099832736, -0.0432326, 23830.785, 167535.61, 0.000013171274, 10.002202, 9.997723 
8.951813e+2, 2.9533517e+2, 212604.42, -177559.06, 3988.827, -0.0016476415, 0.043163996, 212645.2, 258358.4, 0.000055655084, 10.002833, 9.997718 
8.951943e+2, 3.0533257e+2, 183369.47, -283736.47, 32713.537, 0.014505876, 0.07234234, 185649.42, 185649.42, 0.00017580122, 10.002867, 9.9966345 
8.952088e+2, 3.153291e+2, 167610.28, -96411.97, -11753.253, 0.090706766, 0.032020733, 168132.45, 168132.45, 0.00038747952, 10.001848, 9.998405 
9.0497524e+2, 1.2533234e+2, -1824598.1, -1650356.0, 41672.53, -0.022621358, -0.17685091, -1640902.4, 70829.484, 0.0000010657902, 9.998626, 10.001096 
9.049885e+2, 1.3533339e+2, -1603836.3, -1520770.1, -38791.023, 0.14184098, -0.19155067, -1505472.4, 108245.48, 0.000000007369457, 9.999672, 10.0008 
9.0500075e+2, 1.4533424e+2, -1560110.0, -1569216.6, -22512.512, 0.22967786, -0.12235232, -1541695.0, -25984.555, 0.0, 9.99979, 9.999727 
9.050116e+2, 1.5533498e+2, -1537194.4, -1509584.0, -18224.525, 0.13044499, -0.06241069, -1500526.1, -82817.93, 0.0, 9.999289, 9.999709 
9.050232e+2, 1.653352e+2, -1416001.1, -1348543.1, 24163.791, 0.083481506, -0.027866988, -1340780.8, -21072.629, 0.0, 9.999238, 10.0001745 
9.050355e+2, 1.7533456e+2, -1270623.4, -1225754.0, 5246.719, 0.09761139, -0.13676228, -1225148.6, -3435.2107, 0.0, 9.999558, 10.000183 
9.0504724e+2, 1.8533464e+2, -1122243.8, -1139820.9, 8342.969, 0.058544807, -0.12640646, -1118914.4, 4798.164, 0.0, 10.000045, 9.99986 
9.0505826e+2, 1.9533497e+2, -931133.56, -1005869.44, -3022.7932, -0.038786463, -0.10754671, -931011.5, 94698.14, 0.0, 10.000711, 9.999791 
9.050716e+2, 2.0533518e+2, -893024.0, -1015580.75, 85802.734, -0.04580356, -0.022547161, -848864.5, 78844.414, 0.0, 10.0006695, 9.999063 
9.0508676e+2, 2.1533486e+2, -891890.4, -969974.8, 36463.12, 0.021658292, 0.010367547, -877511.1, -47797.133, 0.0, 10.000025, 9.99902 
9.0510035e+2, 2.2533348e+2, -812996.8, -945746.25, -36974.9, 0.06266396, 0.0067093614, -803392.94, -71663.85, 0.0, 10.000185, 9.998431 
9.0511256e+2, 2.3533083e+2, -573898.94, -780374.4, -34108.355, 0.071866915, -0.12982684, -568410.4, 65345.625, 0.0, 10.001149, 9.998431 
9.051243e+2, 2.4533023e+2, -354371.06, -537281.94, -49998.07, 0.07267793, -0.066844285, -341596.44, 194164.75, 0.0, 10.001608, 9.999199 
9.0513563e+2, 2.553311e+2, -255255.69, -449242.5, -94592.23, 0.06667924, 0.06549146, -216766.97, 220983.58, 0.0, 10.001658, 9.999109 
9.051478e+2, 2.6532948e+2, -261130.17, -591598.0, -49412.65, 0.08894303, 0.08643462, -253900.02, 85867.08, 0.0000002007212, 10.001784, 9.997397 
9.0516055e+2, 2.7532524e+2, -131935.17, -481566.97, -47784.152, 0.14182235, -0.106513456, -125522.15, 116289.445, 0.0000025589381, 10.0020075, 9.997371 
9.0517235e+2, 2.8532302e+2, 25427.545, -294617.34, -21256.816, 0.092524864, -0.08426183, 26833.213, 170666.58, 0.000014749117, 10.00213, 9.997936 
9.051834e+2, 2.9532257e+2, 118652.84, -193800.2, -34303.797, -0.028349731, 0.035655703, 122374.67, 168210.7, 0.00006245814, 10.002077, 9.9979725 
9.0519696e+2, 3.0531982e+2, 101296.05, -337909.6, 43322.8, 0.037613824, 0.04359981, 105528.58, 105528.58, 0.00018874744, 10.002347, 9.996527 
9.052117e+2, 3.1531653e+2, 239464.55, -103111.17, 13105.996, 0.18000387, 0.03815966, 239965.22, 239965.22, 0.0004049675, 10.002474, 9.998088 
9.14975e+2, 1.2532151e+2, -1886684.4, -1768481.6, 32051.484, 0.018350488, -0.13312021, -1760350.1, -48512.094, 0.000002613721, 9.998608, 10.000287 
9.1498774e+2, 1.3532114e+2, -1669477.5, -1648730.6, 9933.818, 0.05925427, -0.19627103, -1644741.4, -30899.344, 0.00000007607973, 9.99965, 9.9999275 
9.149998e+2, 1.4532161e+2, -1541654.5, -1518067.6, -61215.047, 0.105120294, -0.13920018, -1467520.4, 48318.336, 0.0, 9.999737, 10.000103 
9.1501075e+2, 1.5532297e+2, -1512442.8, -1452509.6, -19044.387, 0.083239734, -0.05604825, -1446970.0, -29142.352, 0.0, 9.99927, 10.000107 
9.150225e+2, 1.6532381e+2, -1419264.9, -1352178.3, 17536.541, 0.060088262, 0.02124427, -1347870.8, -28049.795, 0.0, 9.999221, 10.000157 
9.15035e+2, 1.7532375e+2, -1277922.6, -1233834.4, 33423.67, 0.05786936, -0.029115435, -1215840.0, 5982.073, 0.0, 9.999522, 10.000145 
9.150474e+2, 1.8532395e+2, -1136809.5, -1151115.8, 19278.049, 0.03971312, -0.002029021, -1123400.3, 419.29828, 0.0, 9.999961, 9.999824 
9.150597e+2, 1.9532411e+2, -959433.5, -1027347.4, 37576.105, -0.0038463718, 0.0025546846, -942744.25, 83072.31, 0.0, 10.000554, 9.99972 
9.1507286e+2, 2.0532294e+2, -972870.94, -1141077.0, 47711.727, -0.010751563, -0.006898643, -960280.0, -32451.648, 0.0, 10.000496, 9.998282 
9.1508704e+2, 2.1532016e+2, -973364.75, -1093389.3, 28893.62, 0.023913054, -0.14409687, -966771.3, -136913.94, 0.0, 9.999831, 9.998262 
9.1510046e+2, 2.25319e+2, -797779.94, -881974.8, -17550.738, 0.030217014, -0.11432508, -794267.9, -62397.266, 0.0, 10.000033, 9.998947 
9.1511333e+2, 2.3531906e+2, -571738.3, -726879.8, 18733.115, 0.011535238, -0.03269879, -569508.4, 64363.688, 0.0, 10.0009365, 9.998899 
9.1512567e+2, 2.453183e+2, -431972.97, -660225.8, -62688.766, 0.02083984, 0.029827137, -415889.1, 119991.02, 0.0, 10.001436, 9.998441 
9.151375e+2, 2.5531635e+2, -327714.44, -568583.5, -75125.85, 0.057280496, -0.04039833, -306204.03, 131694.44, 0.0, 10.001514, 9.998364 
9.1514945e+2, 2.653147e+2, -240529.05, -526628.75, -54964.29, 0.05229833, -0.011844257, -230332.9, 109582.39, 0.00000011562638, 10.001694, 9.997886 
9.1516155e+2, 2.753129e+2, -116408.36, -418669.34, -20187.385, 0.013107668, -0.009708014, -115066.05, 126868.25, 0.0000025826089, 10.001875, 9.9978695 
9.151737e+2, 2.85311e+2, 15617.584, -286821.63, -38338.445, -0.015271434, 0.010886808, 20401.842, 164354.16, 0.000017159802, 10.002018, 9.998038 
9.1518575e+2, 2.9530883e+2, 107359.75, -194826.66, -13685.772, -0.039430305, -0.047197856, 107978.305, 153949.6, 0.00007135739, 10.0019865, 9.998009 
9.151996e+2, 3.0530593e+2, 144002.92, -223890.55, 42232.906, 0.04095084, -0.09588795, 148788.84, 148788.84, 0.00020564985, 10.002249, 9.997346 
9.152129e+2, 3.1530532e+2, 235613.88, -52526.258, 82130.805, -0.009136974, 0.073900804, 257380.03, 257380.03, 0.00042848263, 10.002247, 9.998528 
9.249744e+2, 1.2531023e+2, -1929928.4, -1792717.9, 39421.23, 0.1325428, -0.051654495, -1782198.4, -70245.51, 0.0000053718704, 9.998312, 10.000274 
9.249871e+2, 1.3530998e+2, -1774880.9, -1699750.0, 33035.574, 0.0792993, -0.1055496, -1687290.3, -73335.17, 0.00000033393198, 9.998915, 9.999953 
9.24999e+2, 1.4530994e+2, -1594842.6, -1528983.5, -1864.0922, 0.09237162, -0.106907725, -1528930.8, -12975.464, 0.0, 9.999313, 10.000234 
9.2501026e+2, 1.5531062e+2, -1417333.9, -1397252.6, -18457.996, 0.084766015, -0.10315285, -1386281.1, 31667.576, 0.0, 9.999885, 10.000188 
9.2502224e+2, 1.6531135e+2, -1328179.6, -1332653.4, 32972.582, 0.086509265, -0.029151022, -1297368.1, 22574.027, 0.0, 9.99995, 9.999932 
9.25035e+2, 1.7531186e+2, -1280850.0, -1262139.9, -999.29767, 0.10016646, -0.001997899, -1262086.8, -40148.176, 0.0, 9.999623, 9.9999 
9.2504776e+2, 1.8531187e+2, -1219884.0, -1230305.8, 7765.053, 0.097402945, 0.038157307, -1215743.4, -91804.74, 0.0, 9.99957, 9.999467 
9.2506045e+2, 1.9531111e+2, -1110313.1, -1133321.5, -33160.31, 0.0735367, -0.014853419, -1086718.1, -60772.633, 0.0, 9.999673, 9.999411 
9.250739e+2, 2.0530969e+2, -1000339.0, -1128943.5, 29341.625, 0.06458534, -0.04565825, -993960.9, -66001.59, 0.0, 10.000198, 9.998516 
9.25088e+2, 2.1530733e+2, -759692.75, -962763.0, 61666.145, 0.08000338, -0.1611072, -742433.5, 87548.99, 0.0, 10.001177, 9.998515 
9.2510134e+2, 2.2530657e+2, -637633.8, -819235.56, 51392.105, 0.06566607, -0.10006408, -624098.94, 107893.2, 0.0, 10.001185, 9.998822 
9.25114e+2, 2.3530692e+2, -675068.3, -794628.8, 5906.774, 0.021015914, 0.023257904, -674777.2, -40784.74, 0.0, 10.000285, 9.998754 
9.2512673e+2, 2.4530587e+2, -600028.8, -761974.56, -22789.008, 0.0409646, 0.074883744, -596883.0, -60878.914, 0.0, 10.000374, 9.9982605 
9.251395e+2, 2.5530323e+2, -350281.06, -593495.75, -27539.156, 0.11739043, -0.046540868, -347201.8, 90827.43, 0.0, 10.001431, 9.998236 
9.251514e+2, 2.6530156e+2, -205492.13, -469538.6, 15480.652, 0.085189395, -0.031386375, -204587.61, 135457.38, 0.00000007319143, 10.001732, 9.998272 
9.2516273e+2, 2.753003e+2, -169131.25, -402385.03, 15151.63, -0.025373347, -0.014306319, -168151.14, 73905.42, 0.0000027897247, 10.00131, 9.9982605 
9.251753e+2, 2.852987e+2, -48545.94, -315722.16, 46387.34, -0.02873244, 0.016257675, -40721.293, 103350.29, 0.000020180585, 10.001567, 9.998052 
9.251889e+2, 2.952966e+2, 178227.22, -158551.23, 26714.525, 0.06808452, -0.035717096, 180333.16, 226424.56, 0.00008285034, 10.002452, 9.998031 
9.252027e+2, 3.0529404e+2, 231932.22, -80461.414, 82857.05, 0.13375717, -0.102913536, 252548.11, 252548.11, 0.0002292469, 10.002374, 9.998282 
9.2521435e+2, 3.152934e+2, 103433.09, -59684.863, 91675.44, -0.016800463, -0.031022042, 144578.03, 144578.03, 0.0004645645, 10.001056, 9.999063 
9.349724e+2, 1.2529822e+2, -1878888.8, -1660152.8, 15169.352, 0.03278254, 0.03183617, -1659105.8, 52973.76, 0.000009857008, 9.998225, 10.001215 
9.34986e+2, 1.353001e+2, -1697968.6, -1543615.3, 66715.74, 0.052734196, 0.08043325, -1518776.0, 95279.39, 0.0000009955157, 9.998948, 10.000998 
9.349982e+2, 1.4529948e+2, -1609010.8, -1564366.9, 1230.2336, 0.037531342, -0.014589827, -1564333.0, -48275.223, 0.00000000002439963, 9.999339, 9.999982 
9.350097e+2, 1.5529795e+2, -1439181.6, -1429623.5, 17759.17, 0.0024775919, -0.20678534, -1416011.6, 2059.0732, 0.0, 9.999832, 9.99999 
9.35022e+2, 1.6529788e+2, -1364540.9, -1396564.5, 1301.1602, 0.030175364, -0.18421198, -1364488.0, -44416.89, 0.0, 9.999893, 9.999526 
9.350349e+2, 1.7529891e+2, -1312660.9, -1325297.4, 3347.3582, 0.09737998, -0.05998541, -1311829.0, -89766.75, 0.0, 9.999604, 9.99948 
9.350476e+2, 1.8529844e+2, -1283953.5, -1345479.0, -632.855, 0.099400274, -0.009728041, -1283947.0, -159877.83, 0.0, 9.999496, 9.998715 
9.350602e+2, 1.9529608e+2, -1177733.8, -1245320.5, -13283.656, 0.04822597, -0.14692912, -1175216.8, -149121.27, 0.0, 9.999553, 9.998703 
9.3507415e+2, 2.0529552e+2, -926464.2, -944684.8, 50778.945, 0.04113507, -0.12609714, -883984.8, 44116.063, 0.0, 10.000059, 9.999849 
9.350893e+2, 2.1529631e+2, -700014.75, -798567.3, 113061.66, 0.066983655, -0.057516586, -625957.8, 204132.28, 0.0, 10.000991, 9.99974 
9.351025e+2, 2.2529607e+2, -725611.6, -950112.0, 2259.9475, 0.04254835, 0.03741632, -725588.9, 6505.6465, 0.0, 10.000966, 9.998029 
9.35114e+2, 2.3529448e+2, -755677.25, -918367.7, -11583.059, -0.029578865, 0.04488737, -754856.7, -120740.32, 0.0, 10.000098, 9.997996 
9.351269e+2, 2.4529307e+2, -596376.06, -720769.56, 614.9192, -0.004920731, 0.07711754, -596373.0, -60241.016, 0.0, 10.000229, 9.998614 
9.351411e+2, 2.5529146e+2, -351697.3, -560068.2, 27094.14, 0.110625915, 0.026928738, -348231.94, 89913.18, 0.0, 10.001263, 9.998553 
9.351532e+2, 2.6528978e+2, -203167.5, -423555.38, -12794.056, 0.06857053, 0.008390154, -202427.25, 137731.34, 0.00000003612581, 10.001566, 9.998661 
9.3516344e+2, 2.7528763e+2, -166551.34, -363656.84, 19174.752, -0.11547714, -0.104450464, -164703.31, 77473.71, 0.0000027030533, 10.001178, 9.998585 
9.351766e+2, 2.8528637e+2, -64020.98, -334072.44, 65297.74, -0.08616702, -0.051159482, -49060.902, 95128.49, 0.000022488803, 10.001498, 9.997961 
9.351924e+2, 2.9528582e+2, 158276.78, -177782.8, 79201.78, 0.12666489, 0.055842992, 176007.4, 222204.63, 0.00009525127, 10.002347, 9.997952 
9.352058e+2, 3.0528396e+2, 288989.47, 64379.906, 23142.922, 0.17372645, 0.01462929, 291349.22, 291349.22, 0.00025879213, 10.002275, 9.999321 
9.352149e+2, 3.1528178e+2, 131860.84, 31145.809, 110731.984, -0.13568419, -0.17437674, 203148.1, 203148.1, 0.0005142612, 10.000934, 9.999741 
9.449708e+2, 1.2528613e+2, -1875146.5, -1629880.8, 88046.37, 0.06492935, 0.0903198, -1601546.8, 110653.89, 0.000016753027, 9.998105, 10.001487 
9.4498515e+2, 1.352876e+2, -1713707.8, -1528840.8, 23132.076, 0.09940553, 0.074322514, -1525990.3, 88188.32, 0.000002343361, 9.9987335, 10.001203 
9.4499785e+2, 1.4528693e+2, -1663697.9, -1608650.6, -38493.824, 0.09100504, -0.030106056, -1588852.8, -72671.63, 0.0000000053592455, 9.999031, 9.999829 
9.450093e+2, 1.5528576e+2, -1521940.0, -1496304.6, -54118.984, 0.015416425, -0.16764373, -1453506.1, -35314.797, 0.0, 9.999355, 9.999779 
9.4502175e+2, 1.6528553e+2, -1383306.9, -1402580.1, -29139.8, 0.033527423, -0.15225673, -1362251.6, -42058.344, 0.0, 9.999758, 9.999544 
9.4503486e+2, 1.7528588e+2, -1220502.1, -1279970.0, -29275.23, 0.11523496, -0.09816198, -1208509.0, 13680.633, 0.0, 10.000237, 9.999481 
9.4504786e+2, 1.8528529e+2, -1140447.8, -1282864.0, 38697.688, 0.13156094, -0.056643713, -1130612.0, -6414.372, 0.0, 10.000531, 9.9986315 
9.450608e+2, 1.9528337e+2, -1011777.4, -1171536.3, 45985.71, 0.099631734, -0.13951197, -999486.25, 26734.146, 0.0, 10.000744, 9.998621 
9.450747e+2, 2.0528309e+2, -850273.56, -917336.6, 111220.55, 0.07723238, -0.08328091, -767639.8, 160584.36, 0.0, 10.000607, 9.999777 
9.4508964e+2, 2.1528406e+2, -846754.9, -874224.8, 40619.188, 0.066433646, 0.0058152936, -817611.3, 12601.973, 0.0, 10.000002, 9.999691 
9.451032e+2, 2.2528367e+2, -824887.5, -991491.9, -51909.863, 0.05797458, 0.08817908, -810037.3, -77818.414, 0.0, 10.000278, 9.998068 
9.4511557e+2, 2.3528174e+2, -560350.44, -817476.7, -36349.89, 0.05612167, 0.058287628, -555310.44, 78932.14, 0.0, 10.001429, 9.99804 
9.4512844e+2, 2.4528016e+2, -419922.5, -625808.5, 16601.088, 0.07340672, 0.070280775, -418592.5, 117666.11, 0.0, 10.001396, 9.998698 
9.4514185e+2, 2.5527862e+2, -486333.9, -610078.06, -4210.6196, 0.12027449, 0.014599379, -486190.8, -47920.098, 0.0, 10.000278, 9.998671 
9.451543e+2, 2.6527703e+2, -357721.97, -507239.84, -18466.066, 0.08341485, -0.0024269903, -355475.1, -15191.459, 0.000000027783642, 10.000535, 9.998588 
9.451659e+2, 2.7527493e+2, -57102.953, -319870.78, -53720.33, -0.016077433, -0.09633907, -46544.6, 195756.95, 0.000002329391, 10.001959, 9.998518 
9.451792e+2, 2.852736e+2, 14485.769, -288553.03, -10271.572, 0.0045615756, -0.045043107, 14833.526, 159147.81, 0.000023981273, 10.002011, 9.998031 
9.451939e+2, 2.952729e+2, -75137.76, -283947.7, -20982.367, 0.13898005, 0.03749703, -73050.2, -26726.285, 0.00010679835, 10.000722, 9.998012 
9.4520736e+2, 3.052713e+2, 86200.586, -59633.42, -67572.28, 0.18182416, 0.033590667, 112696.37, 112696.37, 0.00028981623, 10.001023, 9.999069 
9.452184e+2, 3.1526867e+2, 344641.56, 117711.59, -119037.08, 0.05372302, -0.1682883, 395627.56, 395627.56, 0.00057081727, 10.002487, 9.999588 
9.549683e+2, 1.2527423e+2, -1927232.6, -1719348.6, 63736.867, -0.066813454, 0.13592847, -1701363.0, 10950.552, 0.00002677623, 9.998059, 10.000874 
9.549841e+2, 1.3527262e+2, -1766024.1, -1618797.8, 58898.324, 0.09119078, -0.1269575, -1598135.3, 16187.905, 0.0000047533053, 9.998677, 10.000595 
9.549975e+2, 1.452722e+2, -1680130.1, -1631860.5, -47765.914, 0.10633143, -0.17041826, -1602478.4, -86152.36, 0.000000046136613, 9.998974, 9.9997015 
9.550086e+2, 1.5527418e+2, -1525495.3, -1510630.5, -26690.133, -0.029201547, 0.017395684, -1490357.3, -72047.83, 0.0, 9.999385, 9.999664 
9.55021e+2, 1.6527447e+2, -1357686.1, -1349035.8, -27004.053, -0.050831724, 0.07414689, -1326012.8, -5706.249, 0.0, 9.999754, 9.999914 
9.5503455e+2, 1.7527285e+2, -1199227.3, -1226393.9, 2924.9614, 0.027359761, -0.110345416, -1198915.9, 23403.535, 0.0, 10.0001955, 9.999869 
9.550481e+2, 1.8527246e+2, -1108253.9, -1205630.0, 31002.611, 0.07084337, -0.095271766, -1099221.1, 25101.99, 0.0, 10.000471, 9.999197 
9.550617e+2, 1.9527285e+2, -988640.56, -1104041.3, 68043.055, 0.08154588, -0.006683603, -957126.6, 69195.17, 0.0, 10.000648, 9.999135 
9.5507526e+2, 2.0527232e+2, -970799.56, -1130059.3, 70730.87, 0.044987265, 0.07089212, -943922.25, -15591.964, 0.0, 10.000448, 9.998394 
9.550888e+2, 2.1527061e+2, -970764.56, -1083348.5, 33686.23, -0.043152127, 0.032538187, -961455.1, -131103.81, 0.0, 9.999794, 9.998358 
9.551031e+2, 2.252695e+2, -794223.2, -881119.2, -23696.844, -0.006141442, 0.064108945, -788181.06, -55817.313, 0.0, 10.000076, 9.998922 
9.5511806e+2, 2.3526861e+2, -536650.9, -718624.1, 22856.549, 0.14223696, 0.05466174, -533823.94, 100547.85, 0.0, 10.001209, 9.998828 
9.5513076e+2, 2.4526714e+2, -457222.25, -655233.9, -38732.563, 0.14196797, 0.043854833, -449915.5, 86469.16, 0.0, 10.0012, 9.998584 
9.5514137e+2, 2.552648e+2, -514187.88, -641133.75, -27044.18, 0.0060702353, -0.081350945, -508666.6, -70261.195, 0.0, 10.000166, 9.9985075 
9.5515436e+2, 2.652633e+2, -410780.0, -591990.4, 20788.576, 0.0065774126, -0.05223756, -408425.72, -68006.52, 0.000000030362223, 10.000433, 9.998053 
9.551695e+2, 2.7526215e+2, -114183.375, -403170.03, 18772.156, 0.116404936, -0.0010752009, -112969.07, 129461.44, 0.000002140531, 10.001814, 9.998012 
9.5518243e+2, 2.8526044e+2, 11569.314, -266095.6, -72496.39, 0.1000744, 0.023070108, 29357.984, 173804.77, 0.000025889522, 10.001891, 9.998242 
9.551933e+2, 2.95258e+2, -71494.49, -263713.3, -43662.938, -0.03587155, -0.083037056, -62041.26, -15571.803, 0.00011778403, 10.0006695, 9.998172 
9.552072e+2, 3.0525634e+2, -26478.813, -283023.28, -15390.186, 0.038249698, -0.026256008, -25558.85, -25558.85, 0.00031950467, 10.000974, 9.997562 
9.552234e+2, 3.1525388e+2, 252822.52, -41876.46, -6346.434, 0.23294324, -0.06387166, 252959.13, 252959.13, 0.00062882464, 10.002346, 9.998563 
9.6496654e+2, 1.2526e+2, -1967564.0, -1775084.1, 46423.867, -0.015534077, 0.047622725, -1764472.4, -52021.98, 0.000040530904, 9.997897, 10.000594 
9.6498275e+2, 1.3525897e+2, -1703020.3, -1610179.6, 26505.205, 0.078274526, -0.13457136, -1603145.5, 11311.697, 0.000008656152, 9.999185, 10.000427 
9.6499676e+2, 1.4525889e+2, -1595532.8, -1560069.6, -36425.887, 0.12812464, -0.14741583, -1537288.8, -20830.92, 0.00000019058375, 9.999455, 9.999941 
9.650083e+2, 1.55261e+2, -1541634.9, -1492921.3, -29174.781, 0.020061836, 0.031918664, -1479272.5, -60832.7, 0.0, 9.999199, 9.99986 
9.650209e+2, 1.6526133e+2, -1420710.9, -1377411.4, 15199.131, -0.01226694, 0.08299108, -1372608.8, -52172.164, 0.0, 9.999336, 9.999911 
9.650345e+2, 1.7525968e+2, -1248280.0, -1253339.4, -18611.34, 0.0265963, -0.10251001, -1232027.3, -9576.755, 0.0, 9.999882, 9.999829 
9.650484e+2, 1.8525943e+2, -1138026.5, -1201278.0, -5072.6685, 0.077730164, -0.08015026, -1137622.4, -13169.851, 0.0, 10.000165, 9.999388 
9.650625e+2, 1.9526014e+2, -1046492.56, -1116761.4, -24526.805, 0.13348947, 0.023831844, -1038778.56, -12331.508, 0.0, 10.000164, 9.999296 
9.650761e+2, 2.0525952e+2, -982955.1, -1156810.9, 37765.05, 0.09071804, 0.09666373, -975106.1, -46649.637, 0.0, 10.000492, 9.998172 
9.650893e+2, 2.1525739e+2, -784411.7, -1015118.0, 50293.7, -0.03503256, 0.037264567, -773924.44, 56558.305, 0.0, 10.001191, 9.99814 
9.651037e+2, 2.2525619e+2, -623451.2, -762393.1, 49612.01, 0.0076500643, 0.053032592, -607554.9, 124940.49, 0.0, 10.0010805, 9.99926 
9.6511936e+2, 2.352555e+2, -655817.8, -733581.56, 28970.707, 0.21093039, 0.029147364, -646211.5, -11712.521, 0.0, 10.000207, 9.999204 
9.651322e+2, 2.4525413e+2, -536058.06, -729532.5, -14435.848, 0.19671759, 0.02498399, -534986.9, 1524.2021, 0.0, 10.000797, 9.9982815 
9.651426e+2, 2.552519e+2, -169501.02, -510625.78, -46522.69, -0.003433624, -0.05276904, -163270.06, 275263.13, 0.0, 10.002683, 9.998202 
9.651559e+2, 2.6525047e+2, -72697.695, -425326.53, 26943.816, 0.009279258, -0.003030666, -70650.84, 269896.13, 0.000000012060779, 10.002732, 9.998086 
9.651717e+2, 2.7524933e+2, -227111.64, -458439.06, 29731.332, 0.20759183, 0.04295427, -223351.55, 19205.959, 0.0000023356135, 10.001036, 9.998004 
9.651846e+2, 2.8524724e+2, -115210.42, -348974.03, -7711.7314, 0.18111207, 0.037138652, -114956.29, 29620.709, 0.000028869204, 10.001123, 9.998028 
9.651949e+2, 2.952441e+2, 219400.42, -150704.81, -52800.02, -0.03993537, -0.1146338, 226785.63, 273391.66, 0.00012892728, 10.0028, 9.997911 
9.6520895e+2, 3.052423e+2, 257671.34, -188915.08, 30635.584, 0.019402036, -0.038590506, 259763.13, 259763.13, 0.00034703137, 10.003083, 9.997196 
9.652267e+2, 3.1524035e+2, 138796.0, -92104.44, 60155.69, 0.39082548, 0.007211542, 153528.2, 153528.2, 0.0006841425, 10.001528, 9.998606 
9.749647e+2, 1.2524308e+2, -1949866.3, -1725944.1, 36422.723, -0.07109784, -0.19539827, -1720168.8, -7554.2773, 0.000058506626, 9.997853, 10.000948 
9.749806e+2, 1.352468e+2, -1666544.3, -1537131.9, 82110.91, -0.0852575, 0.05123106, -1497295.8, 117283.35, 0.00001444443, 9.999202, 10.0009165 
9.749953e+2, 1.4524731e+2, -1563831.4, -1496386.6, -62346.715, -0.009810508, 0.04999532, -1459226.6, 57346.99, 0.0000005546723, 9.999463, 10.000379 
9.75008e+2, 1.5524636e+2, -1516226.4, -1432948.3, -18800.385, 0.03728023, -0.11970652, -1428900.8, -10319.845, 0.0, 9.999171, 10.000283 
9.750209e+2, 1.6524616e+2, -1455079.1, -1442574.0, 16718.363, 0.02421962, -0.1222261, -1430977.3, -110394.2, 0.0, 9.9993, 9.999486 
9.7503424e+2, 1.7524634e+2, -1280508.3, -1316541.1, 13845.23, -0.017445013, -0.08017545, -1275802.9, -53219.945, 0.0, 9.999859, 9.999411 
9.750483e+2, 1.8524623e+2, -1163924.8, -1233770.3, -18196.262, 0.022025336, -0.015122362, -1159468.5, -34883.164, 0.0, 10.000074, 9.9992075 
9.7506285e+2, 1.9524546e+2, -1074230.5, -1144328.9, -7562.1655, 0.12396916, -0.043436065, -1073423.9, -46829.887, 0.0, 10.000037, 9.999163 
9.750769e+2, 2.0524496e+2, -950171.6, -1052171.6, 47162.855, 0.095980845, 0.0074552693, -931707.0, -3106.681, 0.0, 10.000325, 9.998978 
9.750906e+2, 2.1524438e+2, -757474.56, -916568.2, 89968.37, -0.04949376, 0.024179915, -716929.7, 113678.15, 0.0, 10.001, 9.998914 
9.7510463e+2, 2.2524364e+2, -659353.94, -790163.3, -1577.8652, -0.037113443, 0.05351035, -659334.9, 73279.79, 0.0, 10.000878, 9.999164 
9.7511894e+2, 2.3524241e+2, -694710.0, -764684.56, 11078.752, 0.12244236, -0.017050514, -692997.9, -58373.52, 0.0, 9.999998, 9.999087 
9.7513247e+2, 2.4524127e+2, -591484.06, -810867.8, 39837.375, 0.11474909, 0.032456767, -584474.06, -47837.22, 0.0, 10.000647, 9.997801 
9.751451e+2, 2.5523987e+2, -224944.64, -586453.56, 39009.473, -0.04883588, 0.08547313, -220783.14, 217872.0, 0.0, 10.002509, 9.997768 
9.7515845e+2, 2.6523843e+2, -55368.06, -355231.34, -52098.965, -0.04003313, 0.12396946, -46574.152, 294094.8, 0.0000000034767167, 10.002584, 9.998638 
9.751722e+2, 2.752365e+2, -201693.0, -385984.13, -11976.801, 0.12155848, 0.03708366, -200917.9, 41764.54, 0.0000028342504, 10.000948, 9.998544 
9.7518545e+2, 2.852341e+2, -173620.89, -452728.97, 42313.2, 0.113682665, 0.0103728445, -167347.16, -22643.348, 0.000032313746, 10.001053, 9.997349 
9.751979e+2, 2.9523104e+2, 154027.19, -255937.67, 34062.203, -0.061497457, -0.06844656, 156838.0, 203572.92, 0.0001399921, 10.002673, 9.997248 
9.7521174e+2, 3.052289e+2, 280476.38, -110286.51, -37546.43, -0.035587385, -0.025115322, 284051.3, 284051.3, 0.00037284024, 10.002952, 9.997801 
9.752274e+2, 3.1522706e+2, 185316.53, 36036.016, 47857.676, 0.2333133, -0.03201545, 199341.52, 199341.52, 0.00073526404, 10.001396, 9.999546 
9.849642e+2, 1.2522951e+2, -1715402.3, -1627693.3, 118804.47, 0.029043356, -0.18071975, -1544907.6, 167838.58, 0.00008108169, 9.9995165, 10.000823 
9.8497874e+2, 1.3523322e+2, -1882722.3, -1661422.4, 69041.78, -0.104989626, 0.08050334, -1641649.3, -26935.559, 0.000022462764, 9.99778, 10.000758 
9.8499364e+2, 1.452338e+2, -1796420.8, -1576684.0, -31489.852, -0.024212787, 0.07667051, -1572260.3, -55552.203, 0.0000013019285, 9.997714, 10.000671 
9.850075e+2, 1.552329e+2, -1445296.1, -1367836.9, -39675.066, 0.06950975, -0.119911835, -1351122.0, 67591.19, 0.0, 9.999515, 10.000563 
9.850211e+2, 1.6523287e+2, -1342429.1, -1400954.9, 19371.309, 0.08599701, -0.11330707, -1336598.4, -15884.685, 0.0, 10.000125, 9.999377 
9.850345e+2, 1.7523335e+2, -1309721.3, -1340011.5, 9912.888, 0.0447859, -0.028586417, -1306765.6, -84053.555, 0.0, 9.999707, 9.999321 
9.8504853e+2, 1.8523319e+2, -1183384.6, -1229256.4, 36534.445, 0.058631048, 0.029682925, -1163183.3, -38468.36, 0.0, 9.999896, 9.999317 
9.8506284e+2, 1.9523205e+2, -998295.75, -1098074.3, 31018.176, 0.105516575, -0.042715546, -989439.25, 37286.33, 0.0, 10.000533, 9.999239 
9.850774e+2, 2.052314e+2, -880562.5, -1001226.06, 97384.164, 0.10013417, -0.02116551, -826336.0, 102395.97, 0.0, 10.000702, 9.999155 
9.850921e+2, 2.1523084e+2, -843220.4, -939311.5, 65264.113, 0.04434349, -0.022969408, -810224.06, 20513.693, 0.0, 10.000326, 9.999084 
9.8510605e+2, 2.2523005e+2, -705551.44, -862152.94, -28641.979, 0.036666784, 0.016882086, -700477.3, 32268.063, 0.0, 10.000761, 9.998732 
9.851194e+2, 2.352288e+2, -446437.78, -692937.44, -67635.73, 0.08028021, -0.0117989285, -429099.16, 205658.66, 0.0, 10.001902, 9.99867 
9.8513323e+2, 2.4522774e+2, -413398.7, -709100.5, 10726.144, 0.07821814, 0.059323303, -413010.13, 123760.336, 0.0, 10.001821, 9.997923 
9.851473e+2, 2.552264e+2, -487791.88, -702070.0, 16835.955, 0.024850521, 0.10442137, -486477.13, -47689.39, 0.0, 10.000657, 9.997865 
9.851607e+2, 2.6522484e+2, -310868.8, -460204.13, -59204.4, 0.034157418, 0.12498393, -290245.22, 50556.496, 0.00000001775074, 10.00076, 9.998802 
9.851736e+2, 2.752229e+2, -33972.758, -290375.88, -84934.97, 0.11568479, 0.021824393, -8390.091, 234425.38, 0.000003544514, 10.002035, 9.998689 
9.851872e+2, 2.8522062e+2, 17364.14, -392497.34, 29000.166, 0.11927663, 0.01239822, 19405.906, 164241.98, 0.00003520851, 10.002475, 9.997103 
9.852013e+2, 2.9521772e+2, 46545.715, -339142.78, 19277.557, 0.054201137, -0.023417901, 47506.855, 94372.99, 0.00014922032, 10.002042, 9.997 
9.8521477e+2, 3.052149e+2, 163921.05, -192572.56, -61445.93, 0.024834719, -0.020623663, 174214.75, 174214.75, 0.00039592202, 10.002285, 9.997541 
9.85229e+2, 3.1521302e+2, 376730.97, 106591.47, -108924.21, 0.19563171, -0.0030694422, 415178.72, 415178.72, 0.0007798097, 10.002824, 9.999337 
9.94964e+2, 1.2521946e+2, -1770499.9, -1735458.4, 302.28015, -0.015637137, 0.099334985, -1735455.8, -22611.197, 0.000108580556, 9.999505, 10.000077 
9.949769e+2, 1.3521838e+2, -1940943.4, -1772360.0, 17578.549, -0.102210894, -0.04525256, -1770546.5, -155686.44, 0.000033028722, 9.997751, 10.000001 
9.9499154e+2, 1.4521839e+2, -1789106.6, -1561936.5, 13127.129, -0.05303818, -0.07354925, -1561180.4, -44319.188, 0.0000026281716, 9.997707, 10.000783 
9.9500644e+2, 1.5522064e+2, -1429768.5, -1340535.0, 40453.465, -0.02340914, 0.0341466, -1324926.0, 93910.445, 0.00000000019976186, 9.99953, 10.000748 
9.95021e+2, 1.6522154e+2, -1333296.4, -1370308.5, -13237.962, 0.02523601, 0.11288704, -1329049.0, -8221.401, 0.0, 10.000083, 9.999603 
9.950351e+2, 1.7522076e+2, -1297217.8, -1307791.4, 10836.494, 0.09161611, 0.04897758, -1290447.3, -67610.0, 0.0, 9.9996805, 9.999555 
9.9504876e+2, 1.8522026e+2, -1177118.0, -1195821.3, 42937.65, 0.060410652, 0.048333146, -1142525.4, -17683.729, 0.0, 9.999811, 9.999588 
9.9506205e+2, 1.9521973e+2, -995550.44, -1064322.8, 69061.32, -0.055369817, 0.0077511836, -952788.2, 74055.69, 0.0, 10.000413, 9.999529 
9.95077e+2, 2.0521866e+2, -938939.2, -1073305.9, 64691.56, -0.030695818, -0.005663197, -912856.25, 15996.986, 0.0, 10.000501, 9.998753 
9.9509346e+2, 2.1521674e+2, -901245.0, -1008582.1, 65845.21, 0.11898429, -0.10341236, -869967.06, -39094.54, 0.0, 10.0001135, 9.998706 
9.9510777e+2, 2.2521558e+2, -788234.1, -979525.56, -1191.5797, 0.11103646, -0.048715606, -788226.7, -55340.49, 0.0, 10.000531, 9.998036 
9.951203e+2, 2.3521481e+2, -526367.6, -805486.3, -9333.583, -0.045798503, 0.04084427, -526055.8, 108842.164, 0.0, 10.001676, 9.998004 
9.9513406e+2, 2.452136e+2, -395026.44, -632102.25, -47729.43, -0.04940919, 0.09768208, -385778.06, 151133.25, 0.0, 10.001647, 9.998536 
9.951488e+2, 2.5521156e+2, -467952.88, -624351.06, -7987.14, 0.08361726, 0.012409959, -467546.03, -28616.115, 0.0, 10.000494, 9.998478 
9.951625e+2, 2.6521003e+2, -355305.25, -519050.63, -25423.057, 0.10734871, 0.018958228, -351448.88, -10505.485, 0.000000028595345, 10.000623, 9.998462 
9.951751e+2, 2.7520853e+2, -79357.27, -351732.3, -18360.398, 0.032606468, -0.0017213466, -78125.195, 164831.08, 0.000003781716, 10.001901, 9.998331 
9.9518925e+2, 2.8520662e+2, 16675.43, -368489.13, -891.31146, 0.04974458, 0.033662148, 16677.494, 161652.17, 0.000036350866, 10.002365, 9.997317 
9.952047e+2, 2.9520416e+2, 52459.594, -306848.44, 27562.063, 0.14948368, 0.019169701, 54561.55, 101560.66, 0.00015456251, 10.001957, 9.997259 
9.952178e+2, 3.0520055e+2, 68483.53, -374237.3, -46842.99, 0.062220037, -0.012192628, 73385.58, 73385.58, 0.00041193186, 10.002218, 9.9963255 
9.9523014e+2, 3.1519786e+2, 259938.25, -90512.13, -47988.992, -0.047048196, 0.046350278, 266390.8, 266390.8, 0.0008105773, 10.002637, 9.99807 
1.0049629e+3, 1.252056e+2, -1969702.5, -1850210.5, -55931.844, 0.005605253, 0.08996689, -1828115.4, -115135.016, 0.00014134821, 9.9982195, 9.999911 
1.0049762e+3, 1.3520455e+2, -1721867.9, -1686954.8, -37847.992, -0.006808164, -0.034646917, -1662731.6, -47735.93, 0.000046426092, 9.999348, 9.999812 
1.0049912e+3, 1.4520438e+2, -1551081.4, -1469600.8, 48937.418, 0.064524405, -0.05832013, -1446665.0, 70333.65, 0.00000474816, 9.999465, 10.000555 
1.00500576e+3, 1.5520625e+2, -1518773.6, -1412300.9, 2585.7278, -0.017914081, 0.03663705, -1412238.1, 6739.953, 0.000000004412824, 9.999051, 10.000486 
1.0050204e+3, 1.6520704e+2, -1435612.5, -1398759.0, -53039.535, 0.0034989319, 0.109149486, -1361036.5, -40066.523, 0.0, 9.9992695, 9.999811 
1.0050351e+3, 1.7520651e+2, -1230225.8, -1251769.0, -60596.86, 0.11727327, 0.045932297, -1179450.6, 43525.85, 0.0, 10.000026, 9.999779 
1.0050493e+3, 1.8520603e+2, -1083148.3, -1154475.6, 1667.1267, 0.10846846, 0.038027696, -1083109.3, 41871.242, 0.0, 10.00048, 9.999545 
1.00506306e+3, 1.9520526e+2, -955407.7, -1049995.4, -28935.127, -0.0068330653, -0.020627195, -947258.3, 79726.95, 0.0, 10.000715, 9.9994755 
1.005078e+3, 2.052044e+2, -880435.1, -1024433.1, -14275.8955, 0.009094472, -0.022071522, -879033.44, 49959.125, 0.0, 10.000804, 9.998946 
1.0050939e+3, 2.1520303e+2, -804593.25, -947931.25, -3204.6655, 0.13880001, -0.07950053, -804521.6, 26484.066, 0.0, 10.000691, 9.998858 
1.0051086e+3, 2.2520187e+2, -752293.56, -964789.1, 42399.184, 0.13066457, -0.029891701, -744146.06, -11126.785, 0.0, 10.000807, 9.998001 
1.005122e+3, 2.3520054e+2, -602700.5, -847864.8, 43361.55, -0.0073339795, 0.00959904, -595257.25, 39779.586, 0.0, 10.0011835, 9.997951 
1.0051359e+3, 2.451991e+2, -411961.97, -621488.9, -3864.478, -0.0063265683, 0.03936693, -411890.72, 125160.82, 0.0, 10.001451, 9.998704 
1.0051502e+3, 2.551973e+2, -295186.84, -516347.6, -29211.639, 0.12869258, -0.043248102, -291393.56, 147672.64, 0.0, 10.001598, 9.998674 
1.00516394e+3, 2.6519567e+2, -219648.02, -509106.6, 9972.264, 0.14571331, -0.029694766, -219304.86, 121776.28, 0.000000017098808, 10.001789, 9.997966 
1.0051771e+3, 2.7519372e+2, -110255.31, -413468.5, -25646.291, 0.05400603, -0.04923658, -108101.41, 134999.83, 0.000003428396, 10.001894, 9.997899 
1.00519165e+3, 2.8519207e+2, -2907.8506, -331521.44, 3674.6953, 0.08008356, 0.013262201, -2866.7637, 142251.03, 0.00003625069, 10.002046, 9.997712 
1.0052075e+3, 2.9519054e+2, 108574.65, -237986.11, 4420.295, 0.2343212, 0.0487909, 108631.016, 155763.63, 0.00015744341, 10.002159, 9.997631 
1.0052208e+3, 3.0518693e+2, 133519.66, -370761.28, 30510.053, 0.12685691, 0.010165357, 135358.88, 135358.88, 0.00042211023, 10.002761, 9.996112 
1.00523345e+3, 3.1518415e+2, 358564.9, -93134.4, 35952.16, -0.008307812, 0.09131354, 361408.53, 361408.53, 0.0008305699, 10.003488, 9.997678 
1.01495996e+3, 1.2518798e+2, -1945581.1, -1779417.5, -77724.516, -0.18505085, -0.21881607, -1748729.0, -35575.242, 0.0001798155, 9.998156, 10.000416 
1.01497635e+3, 1.3519181e+2, -1690203.6, -1621779.6, 16282.311, 0.029182568, 0.10083415, -1618102.6, -2983.0823, 0.000062927356, 9.999357, 10.000249 
1.014992e+3, 1.4519188e+2, -1606104.3, -1578225.4, 10361.875, 0.14898571, 0.1147533, -1574796.0, -57676.555, 0.000007860604, 9.999443, 9.999817 
1.0150048e+3, 1.5518978e+2, -1572616.6, -1520561.0, 4210.774, -0.047601648, -0.111428685, -1520222.6, -101085.18, 0.000000028517778, 9.99904, 9.999744 
1.0150189e+3, 1.6518952e+2, -1424053.5, -1369100.0, -41462.855, -0.10477209, -0.12104291, -1346836.0, -25696.514, 0.0, 9.999244, 10.000029 
1.0150342e+3, 1.7519064e+2, -1216651.3, -1222437.1, -17892.322, -0.008855152, -0.04101526, -1201419.5, 21709.57, 0.0, 10.000016, 9.999987 
1.0150496e+3, 1.8519053e+2, -1122090.8, -1215088.6, -6742.537, 0.064875886, -0.0018389047, -1121604.4, 3526.3406, 0.0, 10.000393, 9.99917 
1.01506524e+3, 1.9518887e+2, -998910.1, -1109948.9, -6139.3857, 0.11450738, -0.11602949, -998571.75, 28575.99, 0.0, 10.000585, 9.9991255 
1.0150798e+3, 2.0518875e+2, -851624.0, -928415.6, -34620.063, 0.08199501, -0.059953596, -838320.8, 90827.37, 0.0, 10.0006485, 9.99968 
1.01509325e+3, 2.151898e+2, -778240.7, -850662.4, 5748.5884, -0.024931451, 0.047671475, -777787.2, 53349.125, 0.0, 10.000512, 9.999608 
1.015108e+3, 2.2518905e+2, -751648.6, -910618.1, 38081.1, -0.03176612, 0.07539422, -742997.2, -9853.456, 0.0, 10.000583, 9.99848 
1.015124e+3, 2.351862e+2, -601448.6, -792404.5, 71222.54, 0.053527005, -0.08645055, -577810.25, 57362.465, 0.0, 10.000958, 9.998436 
1.0151384e+3, 2.4518448e+2, -460727.2, -674610.44, -17836.018, 0.07415012, -0.094519585, -459250.0, 77939.234, 0.0, 10.001244, 9.998442 
1.01515114e+3, 2.551835e+2, -335914.84, -567370.4, -9240.163, 0.02795198, -0.0691915, -335546.53, 103650.75, 0.0, 10.001449, 9.998401 
1.0151647e+3, 2.6518163e+2, -275932.63, -594520.3, 1018.1002, 0.020910554, -0.03844918, -275929.34, 65287.023, 0.000000011022683, 10.001658, 9.99744 
1.0151792e+3, 2.7517858e+2, -162221.52, -491180.0, 485.1715, 0.040582985, -0.11633694, -162220.8, 81028.625, 0.0000031084232, 10.001766, 9.997425 
1.01519406e+3, 2.8517708e+2, 15837.847, -268669.3, -7599.8896, 0.08367117, -0.040917438, 16040.714, 161305.75, 0.000035475467, 10.001947, 9.998187 
1.01520926e+3, 2.9517677e+2, 116265.4, -183388.73, 28982.11, 0.1448729, 0.06982752, 119042.766, 166309.72, 0.00015874387, 10.002002, 9.998077 
1.0152232e+3, 3.051739e+2, 163741.55, -277358.16, 48260.207, 0.067614116, 0.047933128, 168959.9, 168959.9, 0.00042931808, 10.002636, 9.996809 
1.01523764e+3, 3.1517178e+2, 344384.1, -45558.324, 103558.66, 0.0016155777, 0.121285655, 370180.13, 370180.13, 0.00084597926, 10.003181, 9.998139 
1.02495864e+3, 1.2517378e+2, -1932631.8, -1755070.9, -20194.256, -0.11098119, -0.17138103, -1752803.1, -39507.86, 0.00022439056, 9.998149, 10.000599 
1.0249762e+3, 1.3517697e+2, -1651244.1, -1589180.6, 4075.03, 0.09266147, 0.07444938, -1588914.3, 26350.445, 0.0000828242, 9.999565, 10.000383 
1.0249922e+3, 1.4517684e+2, -1568155.3, -1579501.4, -16266.39, 0.21958263, 0.07210287, -1556601.0, -39335.95, 0.000012107546, 9.9997635, 9.999671 
1.0250045e+3, 1.5517479e+2, -1572329.4, -1536203.8, -10765.776, 0.024879647, -0.13977069, -1533238.8, -113955.67, 0.00000009714164, 9.999099, 9.999614 
1.0250185e+3, 1.6517435e+2, -1456907.6, -1396347.6, 36105.395, -0.056466866, -0.15225771, -1379505.6, -58218.61, 0.0, 9.999102, 9.999887 
1.025034e+3, 1.7517518e+2, -1252210.6, -1250619.0, -4384.3047, -0.017212402, -0.0868905, -1246958.9, -23678.957, 0.0, 9.999855, 9.999852 
1.0250499e+3, 1.8517517e+2, -1144970.6, -1228220.5, 12612.704, 0.06819311, -0.030583346, -1143101.8, -17820.55, 0.0, 10.000225, 9.999167 
1.02506615e+3, 1.9517404e+2, -1057716.4, -1138314.9, 13934.604, 0.17566329, -0.08994543, -1055375.3, -28081.637, 0.0, 10.000173, 9.999138 
1.0250808e+3, 2.0517395e+2, -892073.6, -956435.06, -155.82103, 0.13927859, -0.029177513, -892073.25, 37221.383, 0.0, 10.000424, 9.999595 
1.0250939e+3, 2.1517448e+2, -721607.0, -832561.5, -55061.375, -0.02512874, 0.039122924, -698921.06, 132367.2, 0.0, 10.000963, 9.999513 
1.0251089e+3, 2.2517385e+2, -661259.56, -812295.2, -31558.398, -0.011882348, 0.06031931, -654930.75, 78362.89, 0.0, 10.0009575, 9.998975 
1.0251256e+3, 2.351718e+2, -660124.94, -767781.5, -25490.914, 0.1576147, -0.06989146, -654394.25, -19081.287, 0.0, 10.000327, 9.998911 
1.0251401e+3, 2.451704e+2, -574537.5, -731406.9, -52558.492, 0.17199893, -0.069035195, -558556.1, -21229.82, 0.0, 10.00049, 9.998398 
1.0251526e+3, 2.5516918e+2, -353070.5, -584042.44, -66422.42, 0.037585158, -0.05774149, -335331.3, 104006.44, 0.0, 10.001371, 9.99832 
1.0251665e+3, 2.6516727e+2, -220215.67, -573123.4, -9236.074, 0.0126892775, -0.024941916, -219974.11, 121384.03, 0.00000001218603, 10.002062, 9.997394 
1.02518186e+3, 2.751644e+2, -55945.426, -442104.88, -10736.401, 0.10010294, -0.08530586, -55647.152, 187742.84, 0.0000027111198, 10.002514, 9.997399 
1.02519676e+3, 2.851628e+2, 89204.695, -252835.55, -9761.21, 0.14601362, -0.009153109, 89483.04, 234890.08, 0.00003356842, 10.002528, 9.998026 
1.0252112e+3, 2.951621e+2, 108239.34, -204662.9, -56801.625, 0.1554471, 0.08230956, 118231.54, 165645.16, 0.00015737157, 10.002018, 9.9979315 
1.02522545e+3, 3.0515936e+2, 94254.37, -251923.63, -5938.0093, 0.0795927, 0.059681617, 94356.19, 94356.19, 0.00043278775, 10.001916, 9.997315 
1.02524094e+3, 3.151577e+2, 172736.02, -100650.68, -31052.771, 0.09916651, 0.12087115, 176218.8, 176218.8, 0.00085735595, 10.0018635, 9.998387 
1.034958e+3, 1.2516293e+2, -1937642.3, -1775169.4, -32054.746, -0.07641972, 0.22345316, -1769073.9, -55667.855, 0.00027553758, 9.998189, 10.000439 
1.0349756e+3, 1.351601e+2, -1668612.8, -1627143.0, 64056.883, 0.04173902, -0.10952869, -1580548.8, 34881.344, 0.000106410545, 9.999567, 10.000124 
1.0349914e+3, 1.4515935e+2, -1532019.1, -1504123.6, -63762.367, 0.11899085, -0.18740797, -1452801.3, 64633.785, 0.000017580353, 9.999767, 10.000186 
1.0350044e+3, 1.551612e+2, -1532303.1, -1457857.9, -19997.684, 0.05807018, -0.05930172, -1452826.1, -33410.84, 0.00000023822265, 9.999113, 10.000149 
1.0350184e+3, 1.6516152e+2, -1505257.3, -1483116.8, 43625.242, -0.0036319501, 0.0056089717, -1449179.1, -127766.33, 0.0, 9.999053, 9.9993105 
1.0350339e+3, 1.751601e+2, -1301174.3, -1338098.3, 37927.133, -0.032712918, -0.097131945, -1277454.3, -54025.25, 0.0, 9.999798, 9.999278 
1.0350497e+3, 1.8516003e+2, -1129356.1, -1175967.9, -8638.796, -0.01219673, -0.04045132, -1127806.5, -2375.5112, 0.0, 10.00014, 9.999568 
1.0350653e+3, 1.9516082e+2, -1046878.06, -1093161.1, 23870.762, 0.05014138, 0.052103862, -1036772.9, -9349.741, 0.0, 10.000069, 9.9995 
1.03508055e+3, 2.0515995e+2, -987045.2, -1110542.9, 2634.1812, 0.05398985, 0.06653803, -986989.0, -57556.73, 0.0, 10.000238, 9.998626 
1.03509545e+3, 2.1515706e+2, -808392.06, -978773.6, -17563.492, 0.014157726, -0.11242314, -806600.4, 24861.154, 0.0, 10.000806, 9.998589 
1.0351107e+3, 2.2515629e+2, -653713.0, -747097.4, -69669.375, 0.055198286, -0.08724842, -616536.3, 116932.54, 0.0, 10.000752, 9.999518 
1.0351264e+3, 2.3515727e+2, -649101.56, -701121.3, -32955.523, 0.16810521, 0.030604927, -633128.4, 2329.6245, 0.0, 10.00014, 9.999456 
1.03514075e+3, 2.4515674e+2, -602433.4, -743213.7, -31158.805, 0.15098217, 0.09128518, -595845.3, -58382.0, 0.0, 10.000296, 9.99841 
1.03515394e+3, 2.5515443e+2, -374596.03, -588885.6, -14019.174, 0.016375227, -0.012024072, -373682.75, 65804.12, 0.0, 10.0012045, 9.998364 
1.03516854e+3, 2.6515272e+2, -212372.52, -524339.3, -7879.809, -0.003165301, 0.015256204, -212173.61, 129331.695, 0.00000000560088, 10.0019245, 9.997793 
1.03518456e+3, 2.751511e+2, -54738.77, -398782.2, 24204.49, 0.08538264, 0.040753268, -53044.258, 190478.95, 0.0000022721786, 10.002348, 9.997773 
1.0351995e+3, 2.8514913e+2, 19663.424, -368837.66, -43219.195, 0.12595467, 0.10133003, 24413.314, 169957.48, 0.000031172072, 10.002407, 9.997286 
1.0352131e+3, 2.9514676e+2, 38385.5, -321214.66, -49216.277, 0.10786137, 0.09918057, 44999.773, 92569.3, 0.00015322318, 10.001896, 9.99719 
1.035227e+3, 3.0514362e+2, 99003.625, -221137.63, -14926.826, 0.028611086, 0.057076536, 99698.09, 99698.09, 0.00043103905, 10.001836, 9.997561 
1.03524245e+3, 3.1514242e+2, 140825.86, -103507.445, 16386.688, -0.012351207, 0.1443517, 141919.97, 141919.97, 0.00086192216, 10.001622, 9.998471 
1.04495764e+3, 1.2514807e+2, -1828766.8, -1718048.0, -27689.475, 0.05721631, 0.26846972, -1711509.3, 2042.9818, 0.0003338259, 9.998884, 10.000504 
1.04497485e+3, 1.3514483e+2, -1790198.8, -1682250.3, 53890.918, 0.07253809, -0.11301307, -1659952.3, -44372.168, 0.00013404706, 9.998689, 10.000171 
1.04499035e+3, 1.4514431e+2, -1646879.3, -1561533.4, -49291.29, 0.094790846, -0.16784711, -1539009.6, -21426.19, 0.000024406929, 9.999008, 10.000147 
1.0450044e+3, 1.551467e+2, -1384562.5, -1383429.8, -90867.54, 0.1068984, 0.016203785, -1293126.9, 126433.34, 0.0000004785213, 10.000145, 10.000149 
1.0450188e+3, 1.651471e+2, -1296973.1, -1389169.3, 4875.017, 0.06942009, 0.092062056, -1296716.1, 24841.025, 0.0, 10.000489, 9.999283 
1.04503416e+3, 1.7514534e+2, -1250314.1, -1316796.9, 11821.981, 0.0071832435, -0.042239275, -1248274.5, -24698.586, 0.0, 10.000145, 9.999269 
1.0450498e+3, 1.8514515e+2, -1118993.3, -1144512.4, 7613.638, 0.004341589, -0.0049725245, -1116894.4, 8683.4795, 0.0, 10.000113, 9.999791 
1.0450655e+3, 1.9514614e+2, -981199.3, -1034923.06, -9844.834, 0.052618627, 0.08473006, -979452.06, 48115.24, 0.0, 10.000417, 9.999726 
1.0450812e+3, 2.0514518e+2, -937450.3, -1089413.3, 36596.734, 0.07991051, 0.08065513, -929096.1, 480.72754, 0.0, 10.000588, 9.9986 
1.0450968e+3, 2.1514201e+2, -848450.5, -995840.4, 52568.75, 0.09196672, -0.12609193, -831622.44, -13.536275, 0.0, 10.000537, 9.998591 
1.0451122e+3, 2.2514118e+2, -657706.94, -770500.8, 22910.68, 0.13648003, -0.09834216, -653230.94, 80386.42, 0.0, 10.000803, 9.999343 
1.0451273e+3, 2.3514223e+2, -483292.34, -643441.06, -25806.877, 0.20865248, 0.04417159, -479236.47, 156370.63, 0.0, 10.001354, 9.99928 
1.04514174e+3, 2.4514164e+2, -411518.78, -658356.6, -1924.8964, 0.17129706, 0.112065114, -411503.75, 126109.99, 0.0, 10.001621, 9.998366 
1.0451555e+3, 2.5513926e+2, -317016.2, -562916.56, -21124.975, 0.03816291, 0.004034256, -315214.56, 124424.5, 0.0, 10.001605, 9.998353 
1.04517065e+3, 2.6513785e+2, -222065.66, -487266.2, 3797.3845, 0.03140446, 0.044341467, -222011.28, 119642.6, 0.0000000009945924, 10.001667, 9.998185 
1.04518704e+3, 2.751368e+2, -120305.305, -394153.4, 2127.5454, 0.14703338, 0.09568337, -120288.78, 123375.28, 0.0000020282196, 10.001706, 9.998134 
1.0452022e+3, 2.851348e+2, -33227.344, -437908.16, -17628.148, 0.1732277, 0.15054756, -32460.9, 113224.914, 0.00002862313, 10.002229, 9.996899 
1.0452157e+3, 2.9513177e+2, 195752.45, -278745.78, -37495.133, 0.11975719, 0.11840354, 198697.08, 246416.28, 0.00014660136, 10.003136, 9.996876 
1.0452299e+3, 3.0512854e+2, 334204.94, -90977.92, 22089.662, 0.060232192, 0.072464585, 335349.5, 335349.5, 0.00042212423, 10.0033655, 9.997723 
1.04524545e+3, 3.1512722e+2, 281106.56, -35622.9, -15743.373, 0.104497015, 0.13613279, 281887.2, 281887.2, 0.00085377786, 10.002542, 9.998512 
1.0549568e+3, 1.2512895e+2, -1796583.6, -1647625.5, -87728.68, 0.0061822296, -0.07781999, -1607024.4, 106712.1, 0.00039971265, 9.998885, 10.000978 
1.0549736e+3, 1.3513127e+2, -1764034.9, -1621561.8, 61220.906, 0.044221126, 0.054977167, -1598869.4, 16844.465, 0.00016604259, 9.998669, 10.000596 
1.0549888e+3, 1.4513202e+2, -1696091.6, -1661644.3, -29135.383, -0.011247208, 0.13925011, -1645022.3, -127314.49, 0.000032768716, 9.998996, 9.999467 
1.05500415e+3, 1.5513138e+2, -1436147.9, -1488775.3, -35132.234, 0.0363029, 0.0868239, -1418567.6, 1149.1256, 0.0000008393984, 10.000127, 9.999439 
1.0550192e+3, 1.6513117e+2, -1261090.6, -1305421.5, -25660.139, 0.017680505, 0.109146856, -1249348.1, 72371.15, 0.0, 10.000451, 9.999871 
1.0550343e+3, 1.7513101e+2, -1212415.6, -1235253.4, 13808.926, -0.03345915, 0.0749998, -1205915.9, 17803.508, 0.0, 10.000128, 9.999837 
1.0550499e+3, 1.8513075e+2, -1134944.5, -1152641.4, 357.7828, -0.021682533, 0.076510325, -1134937.3, -9216.827, 0.0, 10.000007, 9.999785 
1.05506614e+3, 1.9513011e+2, -996456.1, -1042058.75, 17283.113, 0.04825749, 0.0007290453, -990646.1, 37079.234, 0.0, 10.000303, 9.999735 
1.055082e+3, 2.0512976e+2, -902474.8, -976434.1, 16049.593, 0.087316155, 0.014263715, -899142.1, 30585.467, 0.0, 10.000416, 9.99946 
1.05509765e+3, 2.151293e+2, -818492.6, -892193.2, 64094.473, 0.094331846, -0.006826148, -781410.2, 50320.926, 0.0, 10.000349, 9.999399 
1.055113e+3, 2.251284e+2, -754302.4, -918734.44, 28973.178, 0.11502378, 0.021355715, -749346.6, -15606.014, 0.0, 10.000583, 9.9984255 
1.0551284e+3, 2.351267e+2, -573375.6, -785125.56, 10635.943, 0.1530838, -0.022086894, -572842.75, 62916.91, 0.0, 10.001161, 9.998396 
1.05514295e+3, 2.4512528e+2, -446993.13, -688242.6, -18592.973, 0.10200534, 0.00938127, -445568.6, 92207.52, 0.0, 10.001437, 9.998247 
1.05515674e+3, 2.5512373e+2, -349984.16, -592732.9, -7799.013, -0.031726256, -0.0019725128, -349733.84, 90059.54, 0.0, 10.001439, 9.998226 
1.0551721e+3, 2.651227e+2, -219568.7, -446430.03, -9300.507, -0.012498127, 0.06390884, -219188.06, 122615.8, 0.000000000012280949, 10.00152, 9.99853 
1.0551891e+3, 2.751218e+2, -115233.6, -352092.53, 24654.639, 0.147095, 0.08637766, -112694.516, 131116.45, 0.0000016155456, 10.001573, 9.998482 
1.0552045e+3, 2.851201e+2, -54572.38, -454354.44, 2715.2322, 0.1581292, 0.15854435, -54553.938, 91275.35, 0.000025306648, 10.002113, 9.996842 
1.0552183e+3, 2.9511723e+2, 168636.78, -302481.78, 22504.162, 0.031530447, 0.14930011, 169709.31, 217571.47, 0.00013793015, 10.0029955, 9.996787 
1.0552332e+3, 3.0511397e+2, 326878.63, -81315.19, -14722.077, 0.016624052, 0.10610565, 327408.9, 327408.9, 0.00040720604, 10.003255, 9.997842 
1.0552491e+3, 3.1511226e+2, 247289.67, -57678.01, 5110.242, 0.14609687, 0.1111662, 247375.28, 247375.28, 0.0008331317, 10.002333, 9.998465 
1.06495544e+3, 1.2511249e+2, -1839386.3, -1686823.1, -4480.944, 0.011575626, -0.19921756, -1686691.6, 27202.373, 0.00047318285, 9.998695, 10.000803 
1.0649732e+3, 1.3511612e+2, -1710620.5, -1605320.9, 29977.01, 0.1161585, 0.080716394, -1597385.0, 18476.52, 0.00020250746, 9.999105, 10.000494 
1.0649878e+3, 1.4511713e+2, -1670254.8, -1639837.9, 7577.8936, -0.0032575992, 0.19299798, -1638054.5, -120200.836, 0.000042863663, 9.999116, 9.999571 
1.0650036e+3, 1.5511549e+2, -1575085.0, -1540185.6, 21279.842, 0.027106445, 0.028457237, -1530115.8, -110244.58, 0.0000013547858, 9.9991045, 9.999579 
1.0650189e+3, 1.6511513e+2, -1415059.8, -1371332.4, 64628.234, 0.017428387, 0.023893917, -1324969.8, -3095.421, 0.0, 9.999349, 9.999955 
1.0650346e+3, 1.7511567e+2, -1252302.8, -1243516.1, 30670.855, 0.0020173148, 0.054716337, -1216925.5, 6941.635, 0.0, 9.999809, 9.999938 
1.06505044e+3, 1.8511544e+2, -1140183.3, -1176344.1, 32813.93, 0.026854267, 0.062381834, -1120798.3, 5070.1074, 0.0, 10.000049, 9.999607 
1.0650667e+3, 1.9511417e+2, -1033570.56, -1078785.3, 5519.764, 0.08300624, -0.059137095, -1032906.44, -5025.5396, 0.0, 10.00012, 9.999573 
1.0650826e+3, 2.0511416e+2, -893019.9, -921611.06, 7979.608, 0.11669247, -0.026809298, -890943.6, 38936.52, 0.0, 10.000267, 9.999903 
1.0650984e+3, 2.1511506e+2, -762633.8, -813596.1, -8984.497, 0.1330636, 0.042847916, -761096.3, 70773.484, 0.0, 10.000518, 9.999851 
1.0651139e+3, 2.2511432e+2, -723982.06, -927986.0, 17456.63, 0.1359677, 0.07583403, -722499.06, 11378.561, 0.0, 10.000887, 9.998218 
1.0651294e+3, 2.3511173e+2, -560115.7, -796178.06, 22220.395, 0.13570294, -0.03780508, -558042.3, 77863.78, 0.0, 10.001336, 9.998228 
1.0651443e+3, 2.4511021e+2, -417970.7, -675236.06, 32611.354, 0.098432705, -0.0065049557, -413901.2, 124022.54, 0.0, 10.0016365, 9.998242 
1.06515884e+3, 2.5510934e+2, -302491.03, -576062.6, 19180.59, 0.022898668, 0.05249993, -301152.78, 138782.11, 0.0, 10.00178, 9.998187 
1.0651744e+3, 2.6510802e+2, -147047.45, -426136.0, 39811.984, 0.053317584, 0.10072095, -141479.36, 200468.4, 0.0, 10.002073, 9.9984 
1.0651914e+3, 2.7510607e+2, -6877.902, -306301.16, -2075.5889, 0.19411182, 0.031080196, -6863.5146, 237100.8, 0.00000091217555, 10.00236, 9.998407 
1.06520705e+3, 2.8510424e+2, 22369.193, -384374.63, 17059.186, 0.19447851, 0.07845011, 23083.416, 169066.05, 0.000020761427, 10.002487, 9.997148 
1.0652213e+3, 2.9510203e+2, 113378.78, -297017.28, 27067.596, 0.070738055, 0.10282817, 115156.32, 163164.11, 0.00012637535, 10.002452, 9.99709 
1.0652365e+3, 3.050992e+2, 245235.7, -147740.86, 9178.541, 0.06444962, 0.09703534, 245449.95, 245449.95, 0.00038601994, 10.002817, 9.997585 
1.0652527e+3, 3.1509715e+2, 364289.34, -20475.3, -55483.223, 0.22903496, 0.09201695, 372130.25, 372130.25, 0.0008001297, 10.003244, 9.998256 
1.07495315e+3, 1.2509851e+2, -1906921.5, -1813230.5, 3748.5862, -0.17292736, -0.11662179, -1813080.8, -99054.13, 0.00055371417, 9.998662, 9.999937 
1.0749727e+3, 1.350994e+2, -1770350.4, -1720154.9, 52652.44, 0.13282761, -0.032844927, -1686924.4, -70901.45, 0.00024334127, 9.999078, 9.999712 
1.0749869e+3, 1.4509964e+2, -1601007.5, -1501971.4, -18669.814, -0.046809513, -0.007367348, -1498568.8, 19452.453, 0.00005483326, 9.9991255, 10.000519 
1.0750021e+3, 1.55099e+2, -1504738.0, -1400939.8, 35834.8, -0.062598355, -0.16769329, -1389770.3, 30253.615, 0.000002073113, 9.999121, 10.000533 
1.0750178e+3, 1.6509902e+2, -1452733.3, -1434428.9, 62024.773, -0.05966801, -0.15895669, -1380884.8, -58862.87, 0.0000000000166348, 9.999297, 9.999541 
1.0750345e+3, 1.7509939e+2, -1288154.1, -1304847.4, 63401.773, -0.0073986845, -0.110914536, -1232552.0, -8533.286, 0.0, 9.999757, 9.999539 
1.0750507e+3, 1.8509929e+2, -1181212.6, -1234783.5, 18523.51, 0.020925872, -0.0515016, -1175431.5, -49410.203, 0.0, 9.999941, 9.999255 
1.07506655e+3, 1.9509834e+2, -1078246.4, -1136043.9, 22161.223, 0.023493553, -0.103046514, -1070727.3, -42693.652, 0.0, 9.999974, 9.999247 
1.0750824e+3, 2.0509845e+2, -918644.9, -936677.7, -2506.4846, 0.044984408, -0.042166304, -918302.94, 11730.778, 0.0, 10.0001, 9.999885 
1.0750985e+3, 2.1509925e+2, -789008.0, -823983.0, 14827.217, 0.081238404, 0.016312346, -783568.25, 48456.727, 0.0, 10.000321, 9.999878 
1.0751144e+3, 2.2509897e+2, -719983.1, -864870.5, 19732.436, 0.07844358, 0.06512124, -717343.8, 16684.256, 0.0, 10.000655, 9.998762 
1.07513e+3, 2.350973e+2, -555763.8, -735328.2, 57530.79, 0.034219652, -0.01010077, -538912.8, 97133.13, 0.0, 10.001114, 9.998755 
1.0751456e+3, 2.450964e+2, -450944.56, -689843.25, 24424.54, 0.033478823, 0.05792033, -448473.0, 89584.0, 0.0, 10.001413, 9.998243 
1.0751614e+3, 2.5509587e+2, -322942.47, -581056.5, 42251.36, 0.07311621, 0.14724946, -316202.25, 123862.71, 0.0, 10.001617, 9.998227 
1.07517734e+3, 2.6509374e+2, -219900.11, -531198.9, 35334.82, 0.11218564, 0.14331576, -215939.72, 126146.43, 0.000000000031670343, 10.001883, 9.997771 
1.0751936e+3, 2.750897e+2, -75068.875, -413381.03, 31164.91, 0.14654247, -0.07245203, -72221.96, 171901.92, 0.00000057346807, 10.002212, 9.997748 
1.0752092e+3, 2.8508738e+2, 58013.047, -288106.2, -86.68127, 0.13654195, -0.07708073, 58013.07, 204158.58, 0.000016841232, 10.002394, 9.997849 
1.07522435e+3, 2.9508635e+2, 145409.4, -200718.98, 49932.355, 0.08389928, -0.00343724, 152468.66, 200623.0, 0.000114238224, 10.002324, 9.997812 
1.0752396e+3, 3.0508426e+2, 183999.27, -255652.84, 21059.848, 0.06362461, 0.059930377, 185005.75, 185005.75, 0.0003625103, 10.002732, 9.996885 
1.075255e+3, 3.1508178e+2, 285235.0, -145255.39, 22303.813, 0.06388905, 0.07635092, 286387.47, 286387.47, 0.00076317973, 10.003063, 9.997494 
1.0849527e+3, 1.2508385e+2, -1725788.8, -1747506.0, 28275.01, -0.11705542, -0.04358607, -1706359.0, 7811.872, 0.00064071716, 9.99994, 9.999798 
1.08497165e+3, 1.3508353e+2, -1886132.6, -1783224.1, 24906.186, 0.18111125, -0.07625864, -1777513.1, -161335.69, 0.00028839763, 9.998286, 9.999672 
1.0849856e+3, 1.450835e+2, -1754365.8, -1547229.9, 50717.12, -0.033993017, -0.08732271, -1535478.5, -17301.264, 0.00006873226, 9.997996, 10.000729 
1.0850017e+3, 1.550837e+2, -1439684.5, -1347440.1, 3017.3616, -0.023694722, -0.18095006, -1347341.5, 72829.586, 0.0000030594845, 9.9994955, 10.00071 
1.0850179e+3, 1.6508396e+2, -1331236.5, -1374880.4, 26080.15, -0.011884028, -0.16119404, -1319053.0, 3113.774, 0.000000000186287, 10.0001135, 9.99956 
1.08503446e+3, 1.7508395e+2, -1265098.6, -1293878.8, 23910.035, 0.01668213, -0.15031569, -1251582.4, -27415.215, 0.0, 9.999906, 9.999544 
1.0850506e+3, 1.8508379e+2, -1201933.5, -1256108.3, 35542.22, 0.035839316, -0.09297189, -1184333.3, -58162.56, 0.0, 9.9998455, 9.999164 
1.0850665e+3, 1.9508313e+2, -1100108.0, -1156624.9, 25350.797, 0.041664787, -0.10481002, -1090403.3, -62222.54, 0.0, 9.999883, 9.999151 
1.0850827e+3, 2.0508306e+2, -943664.0, -973056.94, 42158.43, 0.064443566, -0.04481995, -913713.9, 16469.23, 0.0, 10.000043, 9.999653 
1.085099e+3, 2.1508315e+2, -805818.7, -860166.6, 4804.905, 0.09967157, -0.032809045, -805397.2, 26784.93, 0.0, 10.000337, 9.999619 
1.0851152e+3, 2.2508284e+2, -697493.44, -820155.7, 26328.059, 0.101641335, 0.012847622, -692081.25, 42104.086, 0.0, 10.000668, 9.999067 
1.0851313e+3, 2.3508187e+2, -547319.4, -698879.7, 7307.553, 0.070687264, -0.02180134, -546967.9, 89227.83, 0.0, 10.001032, 9.999051 
1.0851472e+3, 2.4508113e+2, -470984.22, -691571.94, -11670.958, 0.07573444, 0.043915275, -470368.44, 67835.695, 0.0, 10.001214, 9.99835 
1.08516306e+3, 2.550803e+2, -395304.16, -603622.56, -15927.756, 0.1207191, 0.09739554, -394093.38, 46120.414, 0.0, 10.001063, 9.998352 
1.0851793e+3, 2.6507822e+2, -303069.7, -579168.56, 51867.934, 0.15099353, 0.09318718, -293647.34, 48587.88, 0.000000020287489, 10.001343, 9.997693 
1.0851959e+3, 2.7507442e+2, -100574.305, -435949.47, 48961.266, 0.16815232, -0.092072316, -93572.65, 150699.69, 0.0000009682407, 10.00207, 9.997659 
1.0852119e+3, 2.8507227e+2, 116662.56, -237448.69, 41931.93, 0.15381783, -0.08389825, 121560.17, 267852.72, 0.000016002106, 10.002711, 9.99804 
1.0852274e+3, 2.9507148e+2, 275125.97, -108331.945, 11375.67, 0.1303977, -0.008549796, 275463.16, 323761.5, 0.00010691048, 10.003107, 9.998062 
1.0852428e+3, 3.0506933e+2, 245587.17, -222781.3, 23027.727, 0.09866747, 0.038535867, 246716.63, 246716.63, 0.00034615427, 10.003145, 9.99693 
1.0852578e+3, 3.150665e+2, 216001.88, -177047.97, 19015.596, 0.07215681, 0.026082672, 216919.69, 216919.69, 0.00073994894, 10.002596, 9.99751 
1.09495446e+3, 1.2506846e+2, -1670873.3, -1625100.5, -9058.81, -0.015157439, 0.0066482094, -1623372.9, 90954.69, 0.000734217, 9.999907, 10.000653 
1.0949697e+3, 1.3506879e+2, -1824810.5, -1664624.1, -28435.709, 0.122722484, -0.046066288, -1659726.0, -43403.92, 0.00033773432, 9.998309, 10.000479 
1.09498315e+3, 1.4506882e+2, -1807392.1, -1649382.6, 84320.45, -0.11984584, -0.054052778, -1612837.9, -94517.4, 0.0000845864, 9.997969, 10.000038 
1.09500185e+3, 1.5506954e+2, -1496329.1, -1450679.8, 75909.56, 0.002244121, -0.025000405, -1394237.6, 26075.629, 0.0000043925156, 9.999444, 10.000022 
1.0950187e+3, 1.6506988e+2, -1301397.1, -1310305.3, -1435.8014, 0.017985016, 0.014863964, -1301171.5, 21137.611, 0.0000000006358386, 10.0000925, 10.000018 
1.095034e+3, 1.7506936e+2, -1232879.5, -1228393.9, 32180.084, -0.053234242, -0.0728367, -1198378.5, 25934.035, 0.0, 9.999897, 10.000003 
1.0950498e+3, 1.8506904e+2, -1203322.3, -1240493.3, 17964.047, -0.060336474, -0.059767466, -1196059.6, -69744.016, 0.0, 9.999773, 9.999301 
1.0950663e+3, 1.9506863e+2, -1108404.9, -1142260.5, 43677.73, 0.004596651, -0.06429425, -1078489.4, -50168.465, 0.0, 9.999752, 9.999309 
1.09508276e+3, 2.0506796e+2, -1002479.3, -1063585.1, 36074.043, 0.044371367, -0.044659868, -985758.4, -55429.81, 0.0, 9.999897, 9.999106 
1.09509915e+3, 2.1506672e+2, -868141.6, -949995.4, 31496.623, 0.05649401, -0.11166766, -857425.06, -25083.555, 0.0, 10.000158, 9.999091 
1.09511584e+3, 2.2506595e+2, -736133.7, -847149.9, 22855.371, 0.07540616, -0.083606884, -731612.5, 2737.067, 0.0, 10.0004425, 9.998988 
1.0951329e+3, 2.3506524e+2, -584221.1, -724406.6, 37251.902, 0.10210739, -0.086216964, -574936.94, 61419.977, 0.0, 10.000811, 9.998981 
1.0951488e+3, 2.4506432e+2, -482186.22, -664289.1, -32887.707, 0.087669894, -0.05032461, -476428.75, 61937.188, 0.0, 10.001005, 9.998633 
1.0951636e+3, 2.5506288e+2, -401648.13, -574740.7, -3284.4495, 0.036909956, -0.09088061, -401585.84, 38793.805, 0.0, 10.000886, 9.998633 
1.0951799e+3, 2.6506165e+2, -302651.94, -536288.75, 67011.25, 0.050520536, -0.040640872, -284796.47, 57596.375, 0.00000010014453, 10.001167, 9.998071 
1.0951979e+3, 2.7506015e+2, -94904.93, -391635.78, 99296.086, 0.11960276, -0.031878464, -64743.01, 179667.19, 0.0000018117424, 10.001927, 9.998035 
1.0952145e+3, 2.8505862e+2, 70084.62, -298338.22, 40587.79, 0.10874123, 0.03988901, 74503.04, 220929.47, 0.000017402066, 10.0025625, 9.997687 
1.09523e+3, 2.950569e+2, 226036.34, -172268.33, 46547.65, 0.04154567, 0.051527455, 231403.78, 279847.16, 0.00010435712, 10.002941, 9.997702 
1.0952453e+3, 3.0505422e+2, 270335.66, -135358.23, -11591.044, 0.019101838, 0.0286899, 270666.56, 270666.56, 0.00033796718, 10.003001, 9.997594 
1.09526e+3, 3.1505114e+2, 230574.14, -108745.195, 49694.3, -0.028336253, -0.072692096, 237702.28, 237702.28, 0.00073108607, 10.002425, 9.998067 
1.1049534e+3, 1.2505342e+2, -2100242.5, -1804279.1, 150395.9, 0.061030064, 0.03743064, -1741269.0, -26794.16, 0.00083503575, 9.996878, 10.000848 
1.1049685e+3, 1.3505346e+2, -1681882.5, -1575164.5, -43253.473, 0.14139576, -0.065277904, -1559835.5, 56635.375, 0.0003918232, 9.999224, 10.000634 
1.10498294e+3, 1.4505333e+2, -1557713.9, -1556355.5, 101564.03, -0.010209593, -0.08847167, -1455468.4, 63002.047, 0.000102570426, 9.999755, 9.999836 
1.1050011e+3, 1.5505427e+2, -1613900.5, -1531878.6, 99058.71, 0.042508733, -0.017531533, -1465677.0, -45215.125, 0.0000061708192, 9.998708, 9.999833 
1.10501796e+3, 1.650546e+2, -1548504.0, -1420269.9, 64228.945, 0.026448362, 0.027143445, -1393632.6, -71174.28, 0.0000000015512864, 9.998378, 10.000076 
1.1050336e+3, 1.7505395e+2, -1365017.0, -1279073.9, 29115.318, -0.03546442, -0.08208728, -1270139.1, -45675.707, 0.0, 9.998962, 10.000088 
1.1050497e+3, 1.8505377e+2, -1204235.3, -1212363.1, 42017.86, -0.037693918, -0.072163776, -1166085.3, -39620.75, 0.0, 9.999644, 9.999555 
1.1050663e+3, 1.9505371e+2, -996254.9, -1059038.5, 40913.742, 0.0153938085, -0.06843037, -976077.5, 52387.82, 0.0, 10.000395, 9.999569 
1.105083e+3, 2.0505308e+2, -916788.6, -1043220.9, 72124.63, 0.060790144, -0.049523193, -884097.3, 46375.1, 0.0, 10.000572, 9.998926 
1.1050996e+3, 2.1505155e+2, -864714.6, -968663.44, 59195.676, 0.09412056, -0.12362763, -837914.25, -5425.5103, 0.0, 10.000262, 9.998916 
1.1051167e+3, 2.2505057e+2, -736322.4, -861908.3, 116618.984, 0.121743, -0.10293894, -666665.56, 67833.33, 0.0, 10.000501, 9.998855 
1.1051343e+3, 2.3504974e+2, -527798.9, -711777.56, 96150.625, 0.14409663, -0.103303395, -486720.63, 149785.92, 0.0, 10.001264, 9.998846 
1.1051505e+3, 2.4504855e+2, -383514.75, -625676.94, 22684.553, 0.12911175, -0.08341379, -381408.13, 157109.81, 0.0, 10.001742, 9.998528 
1.10516526e+3, 2.5504667e+2, -250298.58, -510791.66, -18283.219, 0.085332416, -0.1575285, -249021.6, 191514.42, 0.0, 10.00198, 9.9985285 
1.1051815e+3, 2.650456e+2, -163512.28, -460182.3, 67654.88, 0.06694165, -0.08752221, -148812.14, 193735.64, 0.00000018749917, 10.002072, 9.99817 
1.1051992e+3, 2.7504504e+2, -92214.73, -375859.66, 44743.81, 0.07658017, 0.004096462, -85323.98, 159233.08, 0.0000025365616, 10.001891, 9.998163 
1.1052162e+3, 2.850438e+2, -43638.95, -349920.84, 25175.846, 0.08340176, 0.093131214, -41583.332, 104988.555, 0.000019295574, 10.001754, 9.997741 
1.1052329e+3, 2.9504165e+2, 27982.594, -265059.6, 20219.8, 0.12128377, 0.06416809, 29371.174, 77965.336, 0.00010487227, 10.001563, 9.997741 
1.1052486e+3, 3.050391e+2, 196036.97, -130325.41, 16294.248, 0.09921196, 0.034789536, 196848.47, 196848.47, 0.00033641586, 10.002283, 9.997975 
1.1052631e+3, 3.150367e+2, 399075.5, 28827.07, 1876.7185, 0.0017152008, -0.046398647, 399085.0, 399085.0, 0.0007307893, 10.003353, 9.998545 
1.1149488e+3, 1.2503923e+2, -2139547.8, -1883733.0, 219124.6, -0.17138124, 0.05369856, -1757916.4, -43308.426, 0.000944546, 9.996877, 10.000306 
1.1149678e+3, 1.3503759e+2, -1734375.1, -1686876.4, 60364.25, 0.10305106, -0.13560684, -1645757.6, -29134.553, 0.00045159098, 9.999228, 9.999874 
1.1149846e+3, 1.45037e+2, -1523379.3, -1482847.8, 37873.516, 0.13832258, -0.19349505, -1460158.9, 58468.586, 0.00012308804, 9.999756, 10.000336 
1.11499935e+3, 1.5503815e+2, -1584372.5, -1467758.9, 73607.42, -0.037566867, -0.15044096, -1432162.9, -11548.275, 0.000008505592, 9.9987, 10.000277 
1.11501515e+3, 1.650384e+2, -1579242.0, -1481192.0, 64387.598, -0.1258344, -0.112941034, -1449289.8, -126677.97, 0.0000000033697685, 9.998355, 9.999677 
1.1150326e+3, 1.7503776e+2, -1393342.8, -1336182.0, 66041.42, -0.06418013, -0.17951459, -1292801.9, -68182.64, 0.0, 9.9989395, 9.99972 
1.1150497e+3, 1.8503791e+2, -1188319.9, -1163522.0, 52205.695, -0.036712456, -0.13689151, -1122263.0, 4355.1343, 0.0, 9.999576, 9.999923 
1.11506626e+3, 1.9503847e+2, -993650.75, -1019892.4, 82491.49, -0.062175002, -0.106651545, -923243.1, 105369.67, 0.0, 10.000253, 9.999905 
1.115083e+3, 2.0503849e+2, -928542.6, -1031927.3, 37360.246, -0.022908157, -0.045504946, -916455.0, 14158.624, 0.0, 10.000418, 9.999073 
1.1151e+3, 2.1503754e+2, -885677.8, -964359.4, 62295.89, 0.08169682, -0.082245484, -851340.44, -18715.629, 0.0, 10.000056, 9.999043 
1.1151173e+3, 2.2503664e+2, -776375.5, -896324.8, 129217.484, 0.109860525, -0.05113203, -693892.75, 40741.12, 0.0, 10.0002985, 9.998714 
1.115135e+3, 2.3503551e+2, -570274.6, -747473.75, 140726.61, 0.07334335, -0.06825441, -492579.7, 144063.92, 0.0, 10.001041, 9.998709 
1.1151519e+3, 2.450339e+2, -453702.06, -724805.5, 17028.074, 0.07382307, -0.05343216, -452636.72, 86022.8, 0.0, 10.001538, 9.997946 
1.11516796e+3, 2.550315e+2, -318445.2, -612049.56, 9449.183, 0.11493191, -0.124739565, -318141.4, 122543.51, 0.0, 10.001801, 9.99792 
1.1151837e+3, 2.6503003e+2, -198426.81, -494934.88, 45354.297, 0.0532844, -0.058624033, -191644.5, 151057.1, 0.00000020790911, 10.001911, 9.998005 
1.11519955e+3, 2.750291e+2, -120533.94, -404148.16, 60120.11, -0.10882054, 0.010908983, -108316.1, 136397.33, 0.0000030041283, 10.001756, 9.998034 
1.1152169e+3, 2.850279e+2, -38188.633, -300033.25, 3757.917, -0.054650187, 0.0890981, -38134.71, 108592.914, 0.000021785861, 10.0016, 9.998152 
1.1152357e+3, 2.9502591e+2, 35888.01, -217584.25, 42195.0, 0.20245536, 0.037852295, 42727.57, 91476.15, 0.00010887074, 10.001431, 9.99813 
1.1152522e+3, 3.0502406e+2, 182743.6, -130680.17, 49260.016, 0.1901666, 0.055279218, 190303.33, 190303.33, 0.00034133886, 10.00217, 9.998025 
1.11526586e+3, 3.150227e+2, 375684.4, 21125.914, 105664.38, -0.13741279, 0.07166666, 404785.63, 404785.63, 0.0007375019, 10.003168, 9.998585 
1.124948e+3, 1.2502262e+2, -1853613.5, -1740661.4, 158986.36, -0.016565034, -0.019449854, -1628418.1, 86348.875, 0.0010643419, 9.998802, 10.00038 
1.12496585e+3, 1.3502134e+2, -1836930.8, -1732446.3, 22195.766, 0.038972083, -0.1711849, -1727926.8, -111146.91, 0.00051804923, 9.998507, 9.999914 
1.12498425e+3, 1.4502127e+2, -1700271.5, -1557782.1, 18230.477, 0.2006158, -0.18570489, -1555486.6, -36706.035, 0.00014661087, 9.998505, 10.000421 
1.12499826e+3, 1.5502253e+2, -1520167.9, -1422590.9, -17172.467, -0.022410333, -0.14216292, -1419656.9, 1110.8359, 0.00001150662, 9.999098, 10.000383 
1.12501405e+3, 1.6502284e+2, -1444064.6, -1409402.1, 35041.203, -0.10876526, -0.10782945, -1387640.4, -64875.51, 0.0000000061074554, 9.999253, 9.999737 
1.12503186e+3, 1.7502207e+2, -1368304.4, -1313874.8, 36702.53, -0.016423885, -0.19409819, -1295398.0, -70624.77, 0.0, 9.999076, 9.999803 
1.1250493e+3, 1.8502223e+2, -1274169.5, -1202131.8, 65570.055, 0.01593963, -0.15755165, -1163338.9, -36567.066, 0.0, 9.998969, 9.999953 
1.12506606e+3, 1.9502284e+2, -1173697.0, -1111206.1, 39326.656, -0.03213701, -0.12366962, -1092223.5, -63457.418, 0.0, 9.9990015, 9.999898 
1.12508304e+3, 2.0502304e+2, -1052904.1, -1077372.8, 17349.855, -0.008390737, -0.047275968, -1043908.8, -113143.68, 0.0, 9.999524, 9.999185 
1.1251003e+3, 2.1502247e+2, -784085.25, -896976.0, 403.80438, 0.09258614, -0.056978278, -784083.8, 48689.082, 0.0, 10.000694, 9.999188 
1.12511806e+3, 2.2502162e+2, -648995.56, -833283.9, 98207.7, 0.12558949, -0.030421577, -606472.4, 128308.875, 0.0, 10.001146, 9.998752 
1.12513624e+3, 2.3502028e+2, -573807.7, -743514.8, 89808.47, 0.09824069, -0.07043588, -535106.9, 101685.42, 0.0, 10.0009775, 9.998771 
1.1251536e+3, 2.4501857e+2, -530295.3, -783626.4, 21252.188, 0.111613914, -0.060008306, -528524.8, 10284.198, 0.0, 10.001112, 9.997749 
1.1251701e+3, 2.550162e+2, -367843.94, -658249.8, 10412.081, 0.16874139, -0.10447196, -367471.1, 73363.39, 0.0, 10.001569, 9.997721 
1.125186e+3, 2.650144e+2, -206761.22, -497444.06, 85743.914, 0.10166685, -0.058684368, -183353.88, 159499.75, 0.00000016860811, 10.001859, 9.998011 
1.1252015e+3, 2.750128e+2, -86562.21, -387924.72, 70476.38, -0.08524633, -0.05687077, -70895.16, 173975.58, 0.0000038179373, 10.001999, 9.99802 
1.1252187e+3, 2.8501147e+2, 41556.12, -264619.34, 35784.195, -0.043490525, 0.013128226, 45682.773, 192567.88, 0.000026510976, 10.002153, 9.998124 
1.1252376e+3, 2.9501012e+2, 138883.67, -164009.77, 2063.0796, 0.22522226, 0.01954249, 138897.72, 187797.81, 0.00011807009, 10.002134, 9.998145 
1.1252546e+3, 3.0500817e+2, 229346.88, -135813.66, 62985.48, 0.21779364, 0.041469388, 239905.73, 239905.73, 0.0003550206, 10.002632, 9.997769 
1.1252697e+3, 3.150063e+2, 376820.88, -15365.1045, 39719.02, -0.057031788, 0.03975156, 380803.0, 380803.0, 0.0007557848, 10.00333, 9.998274 
1.1349485e+3, 1.2500335e+2, -1804817.5, -1634146.5, 28607.809, 0.077705145, -0.20384279, -1629479.0, 85475.26, 0.0011953667, 9.998807, 10.001095 
1.13496214e+3, 1.3500479e+2, -1776433.9, -1596794.9, 21839.184, -0.2125016, -0.1787114, -1594178.0, 22762.676, 0.00059164723, 9.998476, 10.0008545 
1.1349813e+3, 1.4500639e+2, -1717614.3, -1593527.0, 21770.254, 0.010411697, -0.059386954, -1589818.4, -70891.08, 0.00017336896, 9.998503, 10.00018 
1.1349975e+3, 1.550077e+2, -1538384.0, -1460400.8, 25170.25, -0.045103412, 0.015793698, -1452982.4, -32063.496, 0.000015247707, 9.999092, 10.000133 
1.1350141e+3, 1.6500804e+2, -1412310.9, -1338333.3, 9151.147, -0.075252734, 0.040681325, -1337218.0, -14301.681, 0.000000009421829, 9.999233, 10.000232 
1.1350311e+3, 1.7500702e+2, -1338785.6, -1248930.3, 43377.477, -0.030899052, -0.11950283, -1231407.1, -6483.435, 0.0, 9.999062, 10.000253 
1.13504834e+3, 1.8500675e+2, -1298701.4, -1242694.9, 46744.617, -0.012529227, -0.13427815, -1216207.5, -89282.24, 0.0, 9.9989195, 9.999703 
1.1350653e+3, 1.950069e+2, -1212006.3, -1155247.8, 56203.492, -0.030548371, -0.12094589, -1120665.0, -91740.914, 0.0, 9.998845, 9.999675 
1.1350826e+3, 2.0500693e+2, -1078442.0, -1094079.1, 42737.156, -0.029129, -0.052267477, -1042814.06, -111888.81, 0.0, 9.999367, 9.999146 
1.1351005e+3, 2.1500647e+2, -821521.7, -920212.5, 56953.117, 0.009061141, -0.044761315, -795510.44, 37421.418, 0.0, 10.000463, 9.999142 
1.1351187e+3, 2.2500564e+2, -663941.94, -815111.8, 72565.3, 0.044781037, -0.02394916, -634747.06, 100192.58, 0.0, 10.000929, 9.9989805 
1.1351372e+3, 2.350041e+2, -592582.4, -731228.6, 99862.6, 0.07861429, -0.11006465, -540339.75, 96612.4, 0.0, 10.000751, 9.998967 
1.1351548e+3, 2.450026e+2, -547886.06, -775445.0, 23126.76, 0.09674605, -0.096127376, -545559.5, -6593.2793, 0.0, 10.000919, 9.997896 
1.13517135e+3, 2.5500086e+2, -379210.13, -644028.3, 44646.45, 0.11915993, -0.09399714, -371885.63, 69098.625, 0.0, 10.001404, 9.997898 
1.135188e+3, 2.649989e+2, -217278.3, -491459.66, 77827.08, 0.086804174, -0.08171742, -196727.27, 146276.08, 0.00000020663475, 10.001734, 9.9981165 
1.1352047e+3, 2.749962e+2, -100528.84, -391807.22, 97478.95, -0.005038556, -0.19653623, -70917.01, 174111.81, 0.0000055002247, 10.001882, 9.998057 
1.13522135e+3, 2.8499457e+2, -8812.878, -337038.56, 16638.514, -0.03166333, -0.13624498, -7971.59, 139073.33, 0.000033703815, 10.0020275, 9.997681 
1.1352382e+3, 2.9499394e+2, 91914.766, -233923.44, 21287.492, 0.030675119, -0.0132806385, 93299.62, 142352.05, 0.00013271971, 10.002013, 9.997724 
1.13525584e+3, 3.049913e+2, 170727.36, -222126.3, 77424.46, 0.04356876, -0.01409416, 185435.67, 185435.67, 0.00037893685, 10.002489, 9.997244 
1.1352736e+3, 3.1498763e+2, 306444.44, -105394.914, 116274.42, -0.076765105, -0.14042191, 337004.47, 337004.47, 0.00079122034, 10.003092, 9.997768 
1.14494845e+3, 1.24986626e+2, -1818727.9, -1626460.4, 5223.0854, 0.22963397, -0.18866363, -1626318.6, 88801.02, 0.0013373722, 9.998606, 10.001267 
1.1449602e+3, 1.349888e+2, -1791965.4, -1559454.0, -4018.8047, -0.21844871, -0.1334365, -1559384.6, 57713.723, 0.000672049, 9.9981365, 10.001294 
1.14497975e+3, 1.449907e+2, -1779143.5, -1597198.1, 68074.47, 0.031771425, -0.020660784, -1574547.9, -55466.055, 0.0002032588, 9.997975, 10.000403 
1.1449968e+3, 1.5499151e+2, -1635582.3, -1481569.3, 59940.168, 0.026046999, -0.014954816, -1460990.8, -39912.78, 0.000019742625, 9.9983225, 10.000354 
1.1450136e+3, 1.6499211e+2, -1492650.5, -1360061.4, 72516.65, -0.0052186777, 0.01878933, -1328103.1, -5030.075, 0.000000013934886, 9.998612, 10.000383 
1.1450302e+3, 1.7499216e+2, -1340793.0, -1229335.6, 54492.07, -0.021905763, -0.050370045, -1207121.5, 17948.89, 0.0, 9.998966, 10.000431 
1.1450475e+3, 1.8499202e+2, -1221907.3, -1221650.3, 95374.38, -0.011858658, -0.053974126, -1126404.3, 666.5671, 0.0, 9.999527, 9.999545 
1.1450652e+3, 1.949914e+2, -1009430.4, -1063251.5, 72033.58, 0.0018215999, -0.10654584, -959444.8, 69632.39, 0.0, 10.000299, 9.999579 
1.14508286e+3, 2.0499094e+2, -913208.4, -1025232.94, 96382.445, 0.009138392, -0.07793275, -857744.4, 73337.85, 0.0, 10.000513, 9.999084 
1.1451008e+3, 2.1499029e+2, -867093.3, -949125.1, 83551.09, 0.02669026, -0.08457916, -815033.5, 18055.969, 0.0, 10.000147, 9.999111 
1.1451193e+3, 2.2498964e+2, -751751.6, -851450.2, 125047.43, 0.053991336, -0.046540085, -666983.6, 68112.164, 0.0, 10.000329, 9.999007 
1.1451381e+3, 2.349886e+2, -533364.44, -691320.94, 98919.84, 0.08307524, -0.08574566, -485761.9, 151342.98, 0.0, 10.001135, 9.9990425 
1.145156e+3, 2.449873e+2, -415375.84, -697472.4, 52519.51, 0.09830004, -0.064321056, -405915.28, 133201.72, 0.0, 10.001748, 9.998041 
1.14517294e+3, 2.5498542e+2, -249917.64, -559358.56, 43077.582, 0.11390918, -0.089913785, -244032.69, 197101.8, 0.0, 10.002193, 9.9980955 
1.1451903e+3, 2.6498327e+2, -138646.61, -500946.2, 77800.51, 0.11196978, -0.086851306, -122646.28, 220508.9, 0.00000038376965, 10.002467, 9.997702 
1.1452077e+3, 2.749804e+2, -31450.299, -400073.88, 28251.785, 0.093684494, -0.1803982, -29297.617, 215885.88, 0.0000075917305, 10.002536, 9.9976845 
1.14522435e+3, 2.8497818e+2, 113349.77, -319159.0, -10078.255, 0.03314257, -0.14268857, 113584.484, 260789.7, 0.000041535674, 10.003033, 9.997327 
1.1452405e+3, 2.9497656e+2, 333323.03, -155089.06, -37444.824, -0.029794192, -0.08023049, 336177.13, 385398.0, 0.00014998692, 10.003836, 9.997389 
1.1452584e+3, 3.0497366e+2, 391470.66, -123405.6, 58100.594, -0.0054062023, -0.08900473, 397945.53, 397945.53, 0.00040888134, 10.004001, 9.9972 
1.1452776e+3, 3.1497088e+2, 300470.53, -104102.945, 67458.5, 0.046156082, -0.12992778, 311422.13, 311422.13, 0.0008408799, 10.003041, 9.997786 
1.154945e+3, 1.24971725e+2, -1834088.1, -1646464.9, -155823.52, -0.05827643, -0.051687915, -1558393.0, 156877.36, 0.001489488, 9.998569, 10.001139 
1.1549596e+3, 1.3497362e+2, -1790451.0, -1551236.5, -6928.8257, -0.122732066, -0.028895501, -1551035.9, 66214.586, 0.00075867696, 9.998126, 10.001344 
1.1549789e+3, 1.4497414e+2, -1739723.5, -1523232.5, 60988.383, 0.10349414, -0.08164236, -1507233.6, 12010.648, 0.0002361324, 9.997991, 10.000916 
1.1549957e+3, 1.5497385e+2, -1591105.4, -1397784.3, 86648.86, 0.0428367, -0.24071844, -1364632.4, 56613.676, 0.000024990082, 9.998344, 10.000926 
1.1550121e+3, 1.6497506e+2, -1495690.5, -1363305.5, 66455.49, -0.049126774, -0.17591213, -1335701.5, -12466.854, 0.000000023716384, 9.998607, 10.000359 
1.1550286e+3, 1.7497759e+2, -1352949.4, -1240177.6, 83979.91, -0.116946705, 0.0054475847, -1195410.1, 29802.184, 0.0, 9.998912, 10.000377 
1.1550463e+3, 1.8497814e+2, -1246038.1, -1255288.4, 105921.69, -0.121300235, 0.084895484, -1144640.6, -17432.969, 0.0, 9.999456, 9.999348 
1.1550649e+3, 1.949763e+2, -1040598.6, -1101225.0, 112974.12, -0.07799774, -0.07288474, -953941.56, 75283.54, 0.0, 10.000178, 9.999379 
1.1550831e+3, 2.0497507e+2, -927708.94, -1018279.06, 59332.09, -0.0371782, -0.11813609, -898354.7, 32881.586, 0.0, 10.000351, 9.999209 
1.15510106e+3, 2.1497408e+2, -889762.94, -949715.2, 84353.82, 0.013773714, -0.17170742, -830217.4, 3027.3333, 0.0, 9.999937, 9.999212 
1.15511954e+3, 2.249737e+2, -798711.3, -901819.9, 138035.0, 0.023627354, -0.098186284, -702917.4, 32331.572, 0.0, 10.000127, 9.998757 
1.15513854e+3, 2.349737e+2, -583955.3, -746995.06, 144456.64, -0.00816669, -0.009225915, -499604.13, 137647.4, 0.0, 10.000923, 9.998764 
1.155157e+3, 2.4497253e+2, -430519.34, -678207.25, 47792.36, -0.0051599364, 0.0324246, -421617.53, 117645.164, 0.0, 10.001529, 9.998278 
1.1551745e+3, 2.5496992e+2, -262475.94, -544813.6, 73297.9, 0.024410741, -0.09353912, -244581.19, 196704.33, 0.0, 10.002009, 9.998286 
1.15519226e+3, 2.6496756e+2, -224684.9, -638454.8, 65379.363, 0.04765444, -0.07860236, -214600.17, 128709.27, 0.0000005356376, 10.002296, 9.996834 
1.15521036e+3, 2.7496508e+2, -109625.25, -527257.1, 51996.27, 0.06375952, -0.044881314, -103248.93, 142088.7, 0.000008957139, 10.002383, 9.996883 
1.1552274e+3, 2.849622e+2, 77729.48, -354656.03, 7366.9688, 0.008348116, -0.028179847, 77854.96, 225221.63, 0.000047577858, 10.002871, 9.99716 
1.1552437e+3, 2.9495832e+2, 298824.2, -204660.23, 22349.686, -0.12765935, -0.17511496, 299814.34, 349216.5, 0.00016516355, 10.003722, 9.99711 
1.15526184e+3, 3.049554e+2, 375787.88, -102844.9, 13152.401, -0.09176136, -0.18095593, 376149.0, 376149.0, 0.00043860512, 10.003798, 9.997424 
1.1552809e+3, 3.1495538e+2, 285605.88, -81904.83, 87417.914, -0.006800417, 0.028636985, 305339.88, 305339.88, 0.0008954558, 10.002815, 9.998042 
1.1649426e+3, 1.2495663e+2, -1950749.3, -1739763.6, -81534.47, -0.100555085, -0.036408804, -1711927.5, 3489.783, 0.0016512593, 9.997931, 10.000795 
1.16495974e+3, 1.3495803e+2, -1791432.0, -1605312.3, 9120.804, 0.07317068, -0.010841452, -1604866.4, 12537.91, 0.0008513687, 9.998372, 10.000848 
1.1649778e+3, 1.4495793e+2, -1670547.6, -1494463.5, 84705.24, 0.18587342, -0.096176, -1460331.9, 59072.496, 0.00027198074, 9.998502, 10.0008545 
1.1649942e+3, 1.549578e+2, -1572221.8, -1396875.8, 25119.457, 0.056405444, -0.23606364, -1393348.3, 28055.475, 0.00003101119, 9.998515, 10.000844 
1.1650105e+3, 1.6495892e+2, -1492331.9, -1365468.4, 16740.965, -0.054315086, -0.17415151, -1363296.4, -39903.676, 0.00000004774233, 9.998636, 10.000335 
1.1650275e+3, 1.7496109e+2, -1351642.9, -1247721.0, -1969.6072, -0.10017345, -0.021428147, -1247683.6, -22309.959, 0.0, 9.998931, 10.000331 
1.1650459e+3, 1.8496159e+2, -1283170.6, -1267149.5, 74261.43, -0.08028323, 0.05086226, -1200467.9, -73098.305, 0.0, 9.999173, 9.999402 
1.1650653e+3, 1.9496007e+2, -1136768.5, -1139859.4, 70555.234, -0.02073413, -0.07806493, -1067741.8, -38358.363, 0.0, 9.999487, 9.999449 
1.1650837e+3, 2.0495899e+2, -985990.4, -1061905.0, 38117.273, 0.013659091, -0.10396704, -970154.75, -38761.508, 0.0, 10.000043, 9.999044 
1.1651015e+3, 2.1495798e+2, -768689.94, -900548.1, -207.01526, 0.030069571, -0.14615622, -768689.6, 64712.57, 0.0, 10.000844, 9.999092 
1.16512e+3, 2.2495736e+2, -688084.56, -863454.8, 78490.516, 0.030717518, -0.085182264, -658086.06, 77322.586, 0.0, 10.000936, 9.998641 
1.1651394e+3, 2.3495676e+2, -682743.56, -808112.7, 69204.65, 0.023282394, -0.042612225, -652054.5, -14638.073, 0.0, 10.00029, 9.998659 
1.1651583e+3, 2.4495547e+2, -540879.2, -720725.9, 43572.797, 0.036100563, -0.015149286, -530878.6, 8550.207, 0.0, 10.000726, 9.998369 
1.165177e+3, 2.5495318e+2, -216956.89, -512029.84, 23372.154, 0.06221535, -0.1167065, -215117.1, 226331.64, 0.0, 10.002274, 9.9983835 
1.165195e+3, 2.6495114e+2, -125482.766, -597098.75, 30216.576, 0.06584483, -0.06833289, -123554.664, 219915.27, 0.00000056359414, 10.003007, 9.996775 
1.1652128e+3, 2.7494913e+2, -48505.42, -504130.25, 35286.375, 0.056281786, 0.01920924, -45788.824, 199706.03, 0.00000928475, 10.002847, 9.996818 
1.1652302e+3, 2.849463e+2, 68477.41, -384143.13, 68440.55, 0.009708675, 0.052185975, 78599.89, 226124.31, 0.000050789153, 10.0028925, 9.996954 
1.16524756e+3, 2.949421e+2, 182074.11, -278439.9, 40207.316, -0.069308184, -0.10299705, 185558.23, 235121.27, 0.00017624088, 10.003007, 9.996942 
1.16526596e+3, 3.049386e+2, 312425.94, -145662.66, 38394.26, -0.021910602, -0.15336224, 315621.63, 315621.63, 0.00046429865, 10.003393, 9.997343 
1.1652845e+3, 3.1493804e+2, 389740.4, -21099.889, 36848.258, 0.056750823, 0.016313275, 393019.2, 393019.2, 0.00094360544, 10.003475, 9.998162 
1.1749414e+3, 1.2494124e+2, -1998283.4, -1809069.3, -62040.813, -0.092824355, -0.17304286, -1790541.3, -74980.23, 0.0018234614, 9.99784, 10.000356 
1.1749602e+3, 1.3494211e+2, -1869565.3, -1767291.9, 39338.934, 0.2570535, -0.086259924, -1753911.0, -136352.52, 0.0009506097, 9.9983835, 9.99973 
1.1749761e+3, 1.449422e+2, -1719453.1, -1588511.8, 67825.125, 0.119405195, -0.06713486, -1559713.4, -40152.152, 0.00031097958, 9.998476, 10.000216 
1.1749918e+3, 1.5494342e+2, -1621937.6, -1498658.1, 43865.85, -0.068506114, -0.0026605495, -1484642.9, -63092.773, 0.00003785508, 9.9985075, 10.000148 
1.1750084e+3, 1.6494367e+2, -1505233.5, -1387244.4, 8811.3, -0.16391984, 0.014531489, -1386590.0, -63042.723, 0.00000010132158, 9.998615, 10.000193 
1.17502674e+3, 1.7494269e+2, -1364757.0, -1263830.1, 25640.627, -0.10021356, -0.14162484, -1257689.8, -32135.111, 0.0, 9.99888, 10.000244 
1.1750459e+3, 1.8494251e+2, -1268042.0, -1218882.3, 67627.08, -0.026848257, -0.15047376, -1171506.8, -43951.895, 0.0, 9.999104, 9.999766 
1.1750656e+3, 1.9494282e+2, -1127992.3, -1098332.6, 101522.13, 0.042309, -0.1336302, -1010562.9, 18988.31, 0.0, 9.999381, 9.999789 
1.1750843e+3, 2.0494275e+2, -1044785.7, -1147558.0, 49257.926, 0.026033975, -0.047510784, -1024989.8, -93437.38, 0.0, 9.999891, 9.998527 
1.1751018e+3, 2.1494202e+2, -836213.8, -995491.4, 44417.53, -0.05629538, -0.009944836, -824664.56, 8897.103, 0.0, 10.000641, 9.998543 
1.1751204e+3, 2.2494051e+2, -713441.25, -860975.44, 35511.797, -0.054670107, -0.016396968, -705338.5, 30237.563, 0.0, 10.000704, 9.998766 
1.1751399e+3, 2.3493794e+2, -702571.6, -797550.0, 61579.23, 0.02822756, -0.18557227, -672296.94, -34698.69, 0.0, 10.000076, 9.998829 
1.1751598e+3, 2.4493624e+2, -578044.56, -753007.5, 84690.49, 0.076429315, -0.20039353, -543766.06, -4152.572, 0.0, 10.000526, 9.998248 
1.1751798e+3, 2.5493515e+2, -245217.84, -530893.6, 97744.19, 0.090024754, -0.17591032, -214976.02, 226648.58, 0.0, 10.002098, 9.998339 
1.17519826e+3, 2.6493403e+2, -109856.164, -523499.53, 6187.349, 0.051912457, -0.06528647, -109763.63, 233873.75, 0.0000005132723, 10.002827, 9.997372 
1.1752147e+3, 2.7493247e+2, -23384.053, -428315.38, 47255.773, -0.066009074, 0.006583704, -17942.398, 227713.55, 0.000009286575, 10.002737, 9.997396 
1.1752323e+3, 2.8493032e+2, 23807.01, -441606.75, 56433.11, -0.09688418, 0.10310999, 30551.979, 178231.11, 0.000051726838, 10.0027485, 9.996625 
1.1752514e+3, 2.9492736e+2, 154283.2, -314373.25, 64493.383, -0.026158996, 0.09512359, 162996.36, 212705.72, 0.00018255804, 10.002904, 9.996746 
1.1752704e+3, 3.0492282e+2, 269130.9, -189164.75, 31653.74, 0.058276586, -0.046819407, 271306.84, 271306.84, 0.0004800074, 10.003214, 9.997123 
1.17528774e+3, 3.149192e+2, 362127.13, -13879.829, 82962.65, -0.033678908, -0.15884371, 379618.44, 379618.44, 0.0009690312, 10.003214, 9.998329 
1.18493885e+3, 1.2492449e+2, -2158680.8, -1855934.0, -77877.06, -0.04798577, -0.22968161, -1837075.9, -121353.58, 0.0020081834, 9.996565, 10.000666 
1.1849582e+3, 1.3492541e+2, -1945681.6, -1806490.5, -18243.467, 0.27015442, -0.14387092, -1804139.0, -186419.97, 0.0010574218, 9.997842, 9.999735 
1.1849738e+3, 1.4492592e+2, -1714197.9, -1631938.1, 86509.21, 0.04842507, -0.06359199, -1577279.1, -57560.258, 0.00035351914, 9.9986925, 9.999823 
1.184991e+3, 1.5492739e+2, -1517439.8, -1485340.6, 43575.508, -0.030996112, 0.061946563, -1454953.0, -33244.652, 0.00004562391, 9.99939, 9.999817 
1.1850083e+3, 1.6492724e+2, -1400575.6, -1368340.3, 38501.156, -0.06940987, 0.07244838, -1342719.3, -19009.422, 0.00000019883093, 9.9994755, 9.999911 
1.18502624e+3, 1.7492515e+2, -1358497.3, -1284424.9, 6484.708, -0.030393554, -0.17034048, -1283861.5, -58134.64, 0.0, 9.99904, 10.000018 
1.1850454e+3, 1.8492472e+2, -1240097.5, -1202511.5, 87632.68, 0.023742476, -0.1959559, -1131679.4, -3950.435, 0.0, 9.999271, 9.9998045 
1.18506566e+3, 1.9492564e+2, -1004127.5, -1030601.7, 61543.414, 0.07802609, -0.12229655, -954413.75, 75305.695, 0.0, 10.000193, 9.999865 
1.1850846e+3, 2.0492558e+2, -952455.44, -1121293.0, 37198.234, 0.04160457, -0.030276291, -944623.25, -12902.907, 0.0, 10.000593, 9.9983835 
1.185102e+3, 2.1492422e+2, -869292.6, -1020721.56, 33595.754, -0.067088515, -0.04147743, -862173.8, -28438.44, 0.0, 10.00046, 9.998458 
1.18512094e+3, 2.2492246e+2, -695219.56, -870273.25, 58570.973, -0.0554034, -0.05844639, -677430.2, 58321.688, 0.0, 10.000911, 9.998598 
1.1851412e+3, 2.3492002e+2, -443175.3, -692215.1, 23172.36, 0.07247177, -0.19906424, -441037.56, 196735.86, 0.0, 10.00194, 9.9986515 
1.1851616e+3, 2.4491838e+2, -352143.84, -658004.8, 76012.484, 0.13302623, -0.19474277, -334294.88, 205493.88, 0.0, 10.002143, 9.99812 
1.1851817e+3, 2.549172e+2, -342264.94, -600207.4, 53953.58, 0.12422131, -0.1587761, -331434.28, 110366.88, 0.0, 10.001526, 9.998145 
1.18520066e+3, 2.6491576e+2, -232550.7, -551635.56, -15041.485, 0.07683163, -0.081821136, -231843.23, 111973.14, 0.0000005059796, 10.001871, 9.997629 
1.1852179e+3, 2.7491367e+2, 58456.363, -364172.78, -40715.695, -0.033255234, -0.08700243, 62343.133, 308181.38, 0.000009353779, 10.003203, 9.997608 
1.185236e+3, 2.8491172e+2, 154780.8, -377763.2, -25364.916, -0.046079144, 0.015438391, 155986.19, 303846.13, 0.000051580555, 10.003662, 9.996612 
1.18525535e+3, 2.949097e+2, 193764.55, -300725.72, -33975.566, 0.075087324, 0.111445226, 196088.03, 245970.95, 0.00018437536, 10.003211, 9.996686 
1.1852744e+3, 3.0490538e+2, 269045.1, -201192.31, -14877.892, 0.15242797, 0.002899502, 269515.34, 269515.34, 0.00048100852, 10.003242, 9.997033 
1.1852911e+3, 3.1490153e+2, 391116.16, 4441.6836, -22100.375, 0.0013014945, -0.12718426, 392375.22, 392375.22, 0.00096257555, 10.003363, 9.99839 
1.1949359e+3, 1.2490632e+2, -2081363.0, -1689541.1, 7776.6187, -0.07447541, -0.21723993, -1689386.9, 26515.174, 0.0022081332, 9.996545, 10.001806 
1.19495325e+3, 1.3490784e+2, -1852208.8, -1615319.6, 40307.223, -0.048063613, -0.20513907, -1608649.1, 9238.113, 0.0011730703, 9.997847, 10.001041 
1.19497046e+3, 1.4490905e+2, -1725217.8, -1652161.1, 91301.664, -0.19905692, -0.1111145, -1590351.8, -70473.55, 0.00040013902, 9.998686, 9.999685 
1.1949915e+3, 1.5490982e+2, -1524854.4, -1507457.0, 86291.195, 0.042906374, -0.04249957, -1429427.1, -7550.373, 0.00005450229, 9.99941, 9.99966 
1.1950098e+3, 1.6490975e+2, -1426772.0, -1423643.4, 1290.0269, 0.09269959, 0.000013525602, -1423180.0, -99300.28, 0.00000035173326, 9.9994755, 9.999535 
1.19502574e+3, 1.7490852e+2, -1392760.4, -1350656.4, 4899.533, -0.01805525, -0.112957984, -1350093.8, -124203.73, 0.0, 9.99901, 9.999584 
1.1950442e+3, 1.849082e+2, -1271288.6, -1250887.1, 103889.74, -0.06640584, -0.08915859, -1156698.5, -28806.53, 0.0, 9.999207, 9.9995 
1.1950649e+3, 1.9490853e+2, -1044015.7, -1084453.5, 110967.33, -0.04793747, -0.04532439, -951440.3, 78447.83, 0.0, 10.000065, 9.9995575 
1.1950842e+3, 2.0490749e+2, -954286.94, -1084614.4, 12503.046, -0.07311327, -0.054083474, -953098.25, -21201.463, 0.0, 10.000425, 9.998712 
1.195102e+3, 2.1490471e+2, -877578.75, -990335.0, 43629.86, -0.13708676, -0.2381303, -862668.3, -28746.754, 0.0, 10.000255, 9.998766 
1.1951217e+3, 2.249033e+2, -765586.94, -963013.44, 77238.69, -0.105514266, -0.21108262, -738960.2, -3024.5076, 0.0, 10.000683, 9.99807 
1.1951431e+3, 2.3490301e+2, -513227.75, -781327.5, 74068.91, 0.02873237, -0.08510548, -494125.5, 143815.97, 0.0, 10.001703, 9.99815 
1.19516335e+3, 2.4490187e+2, -398139.78, -700927.9, 34843.625, 0.07555756, 0.003944463, -394181.84, 145772.19, 0.0, 10.001916, 9.99794 
1.19518265e+3, 2.548995e+2, -379852.44, -632628.44, 47830.934, 0.025010187, -0.06327829, -371104.5, 70872.38, 0.0, 10.001334, 9.998013 
1.195202e+3, 2.648966e+2, -275426.97, -599728.8, 19596.533, 0.00463321, -0.11346755, -274247.1, 69757.5, 0.0000006389743, 10.001691, 9.99739 
1.1952218e+3, 2.748929e+2, 20559.896, -399699.2, 29562.328, 0.012365887, -0.2622525, 22629.215, 268669.66, 0.000009301616, 10.003023, 9.99745 
1.1952407e+3, 2.8489062e+2, 147251.28, -359261.28, -54800.527, 0.032370336, -0.19250448, 153112.42, 301176.97, 0.00005191434, 10.003508, 9.996818 
1.19525895e+3, 2.948894e+2, 188110.6, -286341.1, -25605.205, 0.07445361, -0.042215455, 189488.45, 239569.64, 0.00018470343, 10.003084, 9.996851 
1.1952776e+3, 3.048866e+2, 229399.75, -236708.17, -16824.438, 0.12140776, 0.0031871242, 230006.25, 230006.25, 0.00047307427, 10.003057, 9.99687 
1.19529404e+3, 3.1488478e+2, 349004.5, -22155.303, 33693.484, -0.11742872, 0.08931522, 352038.34, 352038.34, 0.0009340092, 10.003113, 9.99832 
1.2049326e+3, 1.24887586e+2, -2037339.0, -1665730.5, 49368.93, -0.050230633, -0.17076777, -1659283.6, 56802.664, 0.0024257244, 9.996848, 10.001833 
1.2049502e+3, 1.3488899e+2, -1818544.4, -1544892.5, -71245.016, -0.1295931, -0.2063709, -1527455.0, 90616.42, 0.0012988481, 9.997869, 10.001507 
1.2049695e+3, 1.4489041e+2, -1775455.0, -1665064.3, -26949.842, -0.1421339, -0.12171091, -1658836.4, -138776.52, 0.00045139206, 9.998281, 9.999795 
1.20499045e+3, 1.5489079e+2, -1653164.9, -1552660.8, -56689.234, 0.06505307, -0.10381132, -1527157.0, -105095.11, 0.00006471426, 9.998457, 9.999805 
1.20500915e+3, 1.6489099e+2, -1482394.4, -1466164.4, -81515.22, 0.10884749, -0.032977425, -1392361.3, -68298.266, 0.00000057087306, 9.999168, 9.999382 
1.20502576e+3, 1.7489071e+2, -1173930.1, -1255930.3, -93740.234, 0.0076379757, -0.038593296, -1112615.9, 113450.09, 0.0, 10.000575, 9.999468 
1.2050443e+3, 1.8489033e+2, -1078958.6, -1212912.9, 23732.908, -0.04055536, 0.009674205, -1074878.1, 53191.652, 0.0, 10.000769, 9.999003 
1.2050648e+3, 1.9488949e+2, -1122075.4, -1172584.6, -14474.709, -0.0355365, -0.015025119, -1118221.4, -88142.945, 0.0, 9.999757, 9.999092 
1.2050845e+3, 2.0488812e+2, -1013074.6, -1081890.9, -61072.758, -0.04693046, -0.048163127, -977384.25, -45294.426, 0.0, 9.999864, 9.999004 
1.20510325e+3, 2.1488585e+2, -725905.56, -886452.7, -67703.04, -0.07363922, -0.21246758, -701167.0, 132940.88, 0.0, 10.001135, 9.9990635 
1.20512314e+3, 2.2488463e+2, -663216.9, -932092.75, 1368.0801, -0.048889, -0.17250086, -663209.94, 72909.89, 0.0, 10.00146, 9.997914 
1.2051443e+3, 2.348842e+2, -651753.1, -868762.0, -6027.099, 0.036640905, -0.040562082, -651585.8, -13457.29, 0.0, 10.000834, 9.997976 
1.2051646e+3, 2.448831e+2, -518172.88, -729638.2, 10563.05, 0.059192352, 0.0510079, -517646.53, 22494.207, 0.0, 10.000986, 9.998171 
1.2051839e+3, 2.5488096e+2, -273777.84, -557393.5, 13696.453, -0.004352327, -0.017644538, -273117.94, 169042.3, 0.00000000020898414, 10.001968, 9.998213 
1.205204e+3, 2.6487812e+2, -180371.03, -555915.4, 49080.848, 0.0035527663, -0.072936095, -174062.5, 170124.47, 0.00000074892756, 10.002337, 9.997381 
1.205225e+3, 2.748743e+2, -124313.555, -472834.06, 39015.145, 0.08817429, -0.22789598, -119999.41, 126224.34, 0.000009032264, 10.00202, 9.997433 
1.2052443e+3, 2.8487188e+2, 3723.1917, -397000.53, -10978.399, 0.11016011, -0.18886255, 4023.735, 152272.6, 0.000052136886, 10.002392, 9.997099 
1.20526195e+3, 2.948705e+2, 247177.78, -223318.8, -21622.064, 0.06958477, -0.08094154, 248169.36, 298435.25, 0.0001849306, 10.00337, 9.99714 
1.205281e+3, 3.0486792e+2, 378523.97, -197440.27, 24394.781, 0.12439012, -0.011658585, 379555.34, 379555.34, 0.0004665325, 10.00422, 9.996575 
1.2052987e+3, 3.1486633e+2, 519572.63, 48592.414, -3836.942, -0.010063264, 0.12466891, 519603.88, 519603.88, 0.00090609276, 10.004373, 9.998183 
1.2149279e+3, 1.2486724e+2, -2109877.5, -1803311.6, -13662.789, -0.28894973, -0.19791567, -1802704.0, -86418.71, 0.0026624324, 9.996823, 10.000889 
1.2149486e+3, 1.3486901e+2, -1855513.8, -1619998.0, -26419.316, -0.09566944, -0.14541444, -1617070.8, 1199.9763, 0.0014356553, 9.997867, 10.000994 
1.2149704e+3, 1.4487006e+2, -1741310.0, -1594462.5, -42653.438, 0.0835896, -0.09627626, -1582972.4, -62709.07, 0.0005075534, 9.998286, 10.000275 
1.2149876e+3, 1.5487032e+2, -1623951.9, -1493908.0, -31032.541, -0.09520622, -0.13459137, -1486882.3, -64618.45, 0.000076397075, 9.998458, 10.000214 
1.2150059e+3, 1.6487096e+2, -1477776.0, -1450968.9, -46500.125, -0.1705502, -0.044910938, -1415979.1, -91719.03, 0.0000008702971, 9.999154, 9.999485 
1.2150258e+3, 1.7487173e+2, -1178353.3, -1249514.1, -25654.494, -0.082456924, 0.047367487, -1170068.9, 56185.375, 0.0, 10.000509, 9.999543 
1.2150454e+3, 1.8487109e+2, -1128652.9, -1301467.0, -31562.373, -0.0347243, 0.09238093, -1123068.9, 5193.704, 0.0, 10.000707, 9.998427 
1.215065e+3, 1.9486858e+2, -1181241.4, -1271350.1, -35383.97, -0.028615298, -0.037481554, -1169007.8, -138718.52, 0.0, 9.99965, 9.998468 
1.21508494e+3, 2.048675e+2, -1021856.7, -1059578.6, -32983.777, -0.021032827, -0.020240372, -1002722.06, -70423.14, 0.0, 9.999694, 9.999236 
1.2151052e+3, 2.1486767e+2, -742697.25, -861100.94, -5536.285, -0.014771424, 0.030604772, -742438.94, 91854.234, 0.0, 10.000877, 9.999357 
1.2151251e+3, 2.2486654e+2, -683616.25, -921402.1, -39686.293, -0.016342768, 0.054900143, -677167.5, 59135.504, 0.0, 10.001225, 9.998105 
1.2151446e+3, 2.3486379e+2, -665465.2, -852022.06, -12472.517, -0.026345028, -0.066649735, -664635.0, -26302.69, 0.0, 10.000636, 9.998188 
1.21516466e+3, 2.4486223e+2, -518925.75, -676379.1, 31961.334, -0.05366688, -0.0553526, -512685.28, 27662.014, 0.0, 10.000752, 9.998646 
1.21518515e+3, 2.5486162e+2, -267411.56, -500808.13, 65124.273, -0.092760354, -0.020439241, -250469.8, 191880.81, 0.00000000018849695, 10.001781, 9.998688 
1.21520594e+3, 2.6486027e+2, -193247.03, -541255.0, 19726.389, -0.05525934, 0.039943352, -192132.44, 152230.95, 0.00000061447383, 10.002153, 9.997576 
1.21522695e+3, 2.7485773e+2, -127449.234, -452620.38, 44748.965, 0.059815113, -0.0068431576, -121403.44, 124986.58, 0.000008322687, 10.001891, 9.997641 
1.2152463e+3, 2.8485528e+2, -13439.532, -379131.6, 9310.988, 0.047290947, 0.0096188, -13202.616, 135211.97, 0.000050710027, 10.002182, 9.997314 
1.2152641e+3, 2.9485276e+2, 242424.22, -195866.1, 38625.363, -0.086280294, -0.020737184, 245802.14, 296241.13, 0.00018357177, 10.003217, 9.997396 
1.2152847e+3, 3.0484918e+2, 318272.75, -284893.06, 18440.838, 0.028901564, -0.03818319, 318836.03, 318836.03, 0.00046227945, 10.00406, 9.9960575 
1.2153042e+3, 3.148459e+2, 467666.84, -2099.5547, 40113.992, 0.035905182, -0.017084902, 471067.63, 471067.63, 0.0008888424, 10.0041275, 9.997956 
1.2249258e+3, 1.2484695e+2, -2117994.0, -1835479.0, -50036.473, -0.15056928, -0.14269097, -1826878.8, -110390.336, 0.0029179724, 9.996864, 10.000652 
1.22494675e+3, 1.3484865e+2, -1870477.0, -1647634.0, -39150.67, -0.051674098, -0.0774156, -1640955.9, -22480.598, 0.0015834377, 9.9978485, 10.0008135 
1.224969e+3, 1.4484942e+2, -1726531.9, -1554229.9, -41923.273, 0.12323326, -0.060799245, -1544570.9, -24101.057, 0.00056846405, 9.998258, 10.000563 
1.2249856e+3, 1.5485004e+2, -1611896.5, -1441205.8, -84876.164, -0.131986, -0.10050321, -1406185.9, 16279.0, 0.00008951281, 9.998375, 10.000595 
1.2250044e+3, 1.648507e+2, -1538937.0, -1482135.3, -31491.55, -0.20652702, -0.029822087, -1468129.5, -143669.66, 0.0000012652538, 9.998697, 9.999522 
1.2250259e+3, 1.748511e+2, -1348568.8, -1323679.1, -41819.22, -0.051992755, 0.021939145, -1292492.3, -66034.695, 0.0, 9.999282, 9.999643 
1.2250463e+3, 1.8485053e+2, -1236568.4, -1334369.9, -31239.09, 0.032390054, 0.059187617, -1227441.9, -98976.945, 0.0, 9.9998665, 9.998614 
1.2250656e+3, 1.948485e+2, -1042852.94, -1185086.9, -13893.497, 0.03317448, -0.039472982, -1041508.56, -11022.112, 0.0, 10.000507, 9.998657 
1.22508556e+3, 2.048477e+2, -889567.06, -1012933.4, 64421.773, 0.034797844, 0.0032519985, -862059.56, 70434.32, 0.0, 10.000691, 9.999068 
1.22510634e+3, 2.1484785e+2, -827701.4, -918934.5, 26313.197, 0.031909373, 0.07295309, -820656.25, 13832.995, 0.0, 10.000392, 9.999182 
1.22512646e+3, 2.2484656e+2, -764607.5, -956602.7, -9972.419, 0.030114977, 0.083572164, -764090.9, -27589.842, 0.0, 10.00064, 9.998144 
1.2251461e+3, 2.3484334e+2, -548303.4, -795109.7, -33963.88, 0.02153124, -0.08699857, -543714.8, 94818.92, 0.0, 10.001423, 9.998204 
1.22516625e+3, 2.4484153e+2, -356053.3, -604015.3, 36756.45, -0.010538064, -0.099679574, -350719.47, 189831.33, 0.0, 10.001866, 9.99863 
1.22518726e+3, 2.5484097e+2, -242923.2, -489086.53, 5605.132, -0.06630581, -0.059037596, -242795.64, 199758.47, 0.0, 10.001937, 9.998708 
1.2252083e+3, 2.648401e+2, -163540.72, -493722.3, -35128.78, -0.032708123, 0.03622202, -159844.67, 184717.64, 0.0000003685213, 10.002243, 9.99784 
1.22522935e+3, 2.7483854e+2, 14992.244, -349144.6, -46841.375, 0.08165998, 0.062053386, 20921.229, 267500.7, 0.0000073761885, 10.002772, 9.997899 
1.225249e+3, 2.8483623e+2, 145423.95, -295148.78, -35290.223, 0.06681845, 0.07431513, 148232.81, 296834.94, 0.000049087277, 10.003207, 9.997404 
1.2252676e+3, 2.9483297e+2, 266719.03, -181903.94, -47936.797, -0.057849206, -0.037522066, 271784.06, 322416.6, 0.00018153466, 10.003345, 9.997444 
1.22528866e+3, 3.0482963e+2, 305916.22, -297893.47, -18175.252, 0.046253543, -0.03191607, 306462.8, 306462.8, 0.00045750884, 10.00402, 9.995975 
1.2253086e+3, 3.1482637e+2, 573106.56, 30093.674, -43948.766, 0.048258755, 0.0019047114, 576640.56, 576640.56, 0.0008772591, 10.0049, 9.997811 
1.23492494e+3, 1.2482683e+2, -2062419.1, -1741638.6, -132535.64, -0.009437939, -0.00054906914, -1693964.6, 22730.229, 0.0031899144, 9.996939, 10.001265 
1.2349439e+3, 1.3482791e+2, -1852891.8, -1627111.9, 4991.1445, -0.1627862, -0.015709804, -1627001.6, -8316.389, 0.0017411282, 9.997892, 10.000939 
1.2349645e+3, 1.448284e+2, -1714548.6, -1542374.6, -59740.92, -0.20751213, -0.03932052, -1523676.4, -2995.6475, 0.0006337289, 9.998305, 10.000627 
1.2349839e+3, 1.5482976e+2, -1602409.1, -1431098.8, -69520.8, -0.17743413, -0.0058016023, -1406436.4, 16230.387, 0.00010392506, 9.998395, 10.000669 
1.23500414e+3, 1.6483003e+2, -1522074.6, -1446907.0, -33776.785, -0.13266823, 0.009402917, -1433959.5, -109295.65, 0.0000017603737, 9.9987, 9.999756 
1.2350255e+3, 1.7482883e+2, -1336968.3, -1299212.3, -6748.4575, -0.039652266, -0.12404866, -1298042.4, -71366.74, 0.0, 9.999269, 9.99982 
1.23504624e+3, 1.8482861e+2, -1183664.9, -1211130.6, -24423.125, 0.0149484025, -0.10130107, -1169378.4, -40701.227, 0.0, 9.99981, 9.999486 
1.2350661e+3, 1.9482923e+2, -995158.7, -1060043.1, 26011.984, 0.016491083, -0.028036239, -986018.2, 44652.152, 0.0, 10.000392, 9.99957 
1.235086e+3, 2.0482866e+2, -950893.5, -1103167.9, 32688.55, -0.006132143, 0.019693688, -944172.9, -11497.933, 0.0, 10.000532, 9.998527 
1.2351061e+3, 2.1482652e+2, -896786.0, -1019598.8, 30120.406, -0.054859772, -0.08299212, -889796.6, -55101.438, 0.0, 10.000202, 9.998585 
1.2351267e+3, 2.2482471e+2, -804514.7, -995341.3, 3299.7883, -0.038245182, -0.084503636, -804457.6, -67744.23, 0.0, 10.000444, 9.997977 
1.2351481e+3, 2.348229e+2, -589413.25, -835275.75, 14724.519, 0.046959102, -0.09813461, -588534.56, 50197.938, 0.0, 10.001221, 9.998031 
1.23516895e+3, 2.448211e+2, -417992.44, -679325.3, 24281.092, 0.0365228, -0.07897592, -415755.6, 124994.71, 0.0, 10.001639, 9.99822 
1.23518944e+3, 2.5481904e+2, -297940.28, -559621.6, 27175.977, -0.062131822, -0.14657895, -295147.8, 147621.73, 0.0, 10.00174, 9.998322 
1.23521045e+3, 2.648177e+2, -185812.0, -480699.38, -29254.36, -0.0670977, -0.08948179, -182937.83, 161844.4, 0.00000016286783, 10.001997, 9.998046 
1.2352318e+3, 2.7481684e+2, 1561.6715, -334137.2, -5928.72, 0.019796738, -0.018229589, 1666.345, 248457.75, 0.000006622681, 10.002593, 9.998088 
1.2352522e+3, 2.8481477e+2, 120824.27, -301454.8, -41097.76, 0.027850185, 0.010088545, 124786.875, 273598.03, 0.000048750662, 10.003019, 9.997452 
1.2352716e+3, 2.9481122e+2, 248335.42, -186035.4, -18247.21, -0.025710162, -0.1352823, 249100.61, 299945.97, 0.00018217463, 10.00319, 9.997496 
1.2352926e+3, 3.0480918e+2, 292724.8, -284059.7, 8041.401, 0.00676346, -0.012465539, 292836.9, 292836.9, 0.00045752534, 10.003845, 9.996154 
1.2353114e+3, 3.1480742e+2, 520528.25, -8582.213, 24547.37, -0.23722294, 0.149431, 521664.66, 521664.66, 0.00087459444, 10.004606, 9.997684 
1.2449227e+3, 1.2480632e+2, -2009550.3, -1690565.5, -7613.363, 0.0849067, 0.041524626, -1690383.9, 26516.303, 0.003475539, 9.997214, 10.0014715 
1.244942e+3, 1.3480726e+2, -1916181.1, -1653551.5, 51875.625, -0.10130187, 0.007823687, -1643676.1, -24786.223, 0.0019075654, 9.997437, 10.000983 
1.2449617e+3, 1.4480777e+2, -1779526.6, -1605030.9, 15571.739, -0.28461012, -0.0022037448, -1603652.1, -82767.46, 0.0007030745, 9.997995, 10.00034 
1.2449829e+3, 1.5480885e+2, -1489580.1, -1416038.9, -61049.438, -0.14925352, 0.032389626, -1381541.6, 41333.14, 0.00011956255, 9.99932, 10.00033 
1.245004e+3, 1.6480905e+2, -1371205.8, -1339118.6, -31590.633, -0.0481734, 0.04369513, -1319731.1, 5141.234, 0.0000023468863, 9.9995985, 10.000054 
1.2450254e+3, 1.7480813e+2, -1369183.9, -1276405.8, -34495.582, 0.04800657, -0.09119673, -1264985.8, -38105.875, 0.0, 9.998904, 10.000141 
1.2450461e+3, 1.8480812e+2, -1251439.4, -1201973.0, 2008.7708, 0.067056686, -0.08304912, -1201891.5, -73014.07, 0.0, 9.99917, 9.999852 
1.2450663e+3, 1.948087e+2, -953471.75, -1001912.75, -17007.576, -0.011386426, -0.049717233, -948096.75, 82771.516, 0.0, 10.000508, 9.999913 
1.2450868e+3, 2.0480797e+2, -844110.94, -1085483.0, -21950.824, -0.028677503, -0.021486506, -842130.94, 90743.664, 0.0, 10.001402, 9.99823 
1.2451078e+3, 2.1480556e+2, -689149.6, -951900.5, -40618.496, 0.028931767, -0.12282501, -683013.75, 151886.81, 0.0, 10.001759, 9.9983015 
1.24512866e+3, 2.24804e+2, -583903.5, -880785.4, -1969.0338, 0.05467565, -0.08648043, -583890.44, 153027.03, 0.0, 10.001955, 9.998021 
1.24514945e+3, 2.34803e+2, -470894.34, -766088.75, -10626.598, 0.039965376, -0.024590177, -470512.3, 168415.88, 0.0, 10.002016, 9.998105 
1.2451705e+3, 2.4480127e+2, -392498.44, -702012.6, 27607.277, 0.031284984, 0.011646233, -390055.28, 150890.55, 0.0, 10.001975, 9.997894 
1.245192e+3, 2.5479847e+2, -313363.38, -599835.4, 531.1289, 0.034086615, -0.095317975, -313362.38, 129611.04, 0.0, 10.001797, 9.998002 
1.2452134e+3, 2.6479656e+2, -152777.23, -453345.7, 3225.5918, 0.028422216, -0.08603531, -152742.63, 192248.72, 0.000000050542315, 10.002138, 9.998179 
1.2452344e+3, 2.747953e+2, 66742.67, -292747.72, -9267.313, 0.0035379275, -0.06825203, 66981.414, 313983.66, 0.0000061370592, 10.002955, 9.998221 
1.2452549e+3, 2.8479326e+2, 153957.66, -301908.5, -40108.047, -0.010228405, -0.040942166, 157459.55, 306481.47, 0.000049451548, 10.003335, 9.99729 
1.245275e+3, 2.9479e+2, 245611.2, -197443.36, -74298.81, 0.005513831, -0.13359961, 257738.89, 308793.16, 0.00018750013, 10.003248, 9.997372 
1.2452966e+3, 3.0478835e+2, 314519.7, -237414.73, 27943.516, 0.048227713, 0.0154974125, 315930.8, 315930.8, 0.000470274, 10.003805, 9.9965105 
1.2453163e+3, 3.1478608e+2, 556420.56, 1186.7904, -12361.863, -0.20094223, 0.09554142, 556695.6, 556695.6, 0.0008945071, 10.004875, 9.997629 
1.2549198e+3, 1.2478565e+2, -2011994.5, -1719190.1, 64691.1, -0.01582245, -0.008158779, -1705534.4, 11567.204, 0.0037739007, 9.997298, 10.00124 
1.254941e+3, 1.3478695e+2, -1913416.8, -1655686.4, 71675.0, 0.023168223, -0.005401156, -1637094.6, -18007.92, 0.0020822603, 9.997465, 10.0009575 
1.2549606e+3, 1.4478777e+2, -1821873.0, -1698500.6, 46661.457, -0.24132678, 0.050956998, -1682840.4, -161760.83, 0.0007764397, 9.998017, 9.999687 
1.2549822e+3, 1.5478742e+2, -1534486.5, -1512233.8, 5453.567, -0.19250882, 0.006518231, -1510969.1, -87881.62, 0.00013646827, 9.999333, 9.999662 
1.2550037e+3, 1.6478786e+2, -1350926.4, -1303711.0, -77453.85, -0.08603767, 0.06482377, -1246347.0, 78737.33, 0.0000030208696, 9.99962, 10.000291 
1.255025e+3, 1.7478915e+2, -1349030.6, -1234310.9, -47458.953, 0.09373139, 0.121446386, -1217222.8, 9846.506, 0.0, 9.998896, 10.000436 
1.2550457e+3, 1.8478905e+2, -1262036.5, -1215532.9, 31303.135, 0.068748884, 0.10884866, -1199790.6, -70724.78, 0.0, 9.999131, 9.999782 
1.2550655e+3, 1.9478701e+2, -973445.0, -1021373.8, 48765.3, -0.17843507, -0.10919888, -943073.9, 88005.625, 0.0, 10.000408, 9.999829 
1.2550871e+3, 2.0478572e+2, -876185.06, -1108558.9, -25228.041, -0.16108038, -0.13000512, -873477.7, 59614.05, 0.0, 10.001216, 9.998165 
1.2551108e+3, 2.1478501e+2, -727341.56, -979255.4, -10860.262, 0.14316924, -0.052564666, -726874.2, 108230.44, 0.0, 10.0015335, 9.998228 
1.255132e+3, 2.2478437e+2, -603380.8, -863584.25, -16613.467, 0.1604893, 0.070391096, -602324.4, 134789.47, 0.0, 10.001711, 9.998253 
1.25515e+3, 2.3478353e+2, -484892.9, -747600.8, 8253.926, -0.124019526, 0.12079487, -484633.8, 154488.16, 0.0, 10.001807, 9.998333 
1.2551709e+3, 2.4478188e+2, -440557.53, -751606.9, 3518.5234, -0.1564998, 0.16403225, -440517.75, 100620.94, 0.0, 10.001759, 9.997658 
1.2551945e+3, 2.5477904e+2, -361303.44, -659441.5, 10120.174, 0.08607148, 0.07781497, -360960.3, 82207.64, 0.0, 10.001615, 9.9976845 
1.2552166e+3, 2.6477644e+2, -176132.84, -451771.16, 16485.613, 0.10747325, 0.030783799, -175150.36, 170041.64, 0.00000007625481, 10.001927, 9.998289 
1.2552364e+3, 2.7477387e+2, 45450.61, -287099.94, 42303.867, -0.110814035, -0.094100475, 50747.727, 297960.7, 0.0000061507535, 10.002739, 9.998365 
1.2552567e+3, 2.8477156e+2, 96379.24, -377567.0, -55734.39, -0.1918998, -0.07597071, 102845.195, 252079.61, 0.000051588533, 10.003148, 9.996855 
1.2552775e+3, 2.9476923e+2, 198444.56, -271119.1, -55415.766, -0.104819044, -0.041622613, 204895.84, 256155.89, 0.00020006, 10.003143, 9.996912 
1.2553005e+3, 3.0476707e+2, 338768.03, -170844.38, 56622.082, 0.026616437, 0.054513603, 344983.4, 344983.4, 0.0005036429, 10.003733, 9.997 
1.255322e+3, 3.1476277e+2, 502623.28, -41758.797, 66073.06, -0.18230534, -0.124995686, 510527.97, 510527.97, 0.00095322955, 10.004576, 9.997479 
1.2649167e+3, 1.2476373e+2, -2100750.0, -1772907.8, 56859.402, -0.00784207, -0.008191304, -1763326.3, -46008.867, 0.004085261, 9.996753, 10.001148 
1.264939e+3, 1.347653e+2, -1827282.4, -1591214.1, -50220.4, 0.067311175, 0.019146863, -1580974.6, 38325.45, 0.0022650692, 9.998002, 10.001127 
1.2649602e+3, 1.4476609e+2, -1791279.4, -1678854.3, -14348.022, -0.08146653, 0.060361993, -1677052.0, -155758.86, 0.00085386867, 9.998204, 9.999739 
1.2649813e+3, 1.547657e+2, -1774781.1, -1618732.1, -39607.523, -0.12061815, 0.011644832, -1609254.8, -185953.72, 0.00015477135, 9.997663, 9.999736 
1.2650026e+3, 1.6476609e+2, -1580866.4, -1433339.3, -64958.445, -0.05242934, 0.06963818, -1408814.1, -83516.07, 0.0000038088367, 9.998139, 10.000103 
1.2650245e+3, 1.7476714e+2, -1205129.1, -1190068.1, -105209.305, 0.098974586, 0.12373504, -1092120.1, 135164.81, 0.0, 9.999995, 10.00021 
1.2650456e+3, 1.847668e+2, -1056747.8, -1118539.0, -24953.76, 0.08346735, 0.100233234, -1047929.06, 81354.88, 0.0, 10.000545, 9.999766 
1.265066e+3, 1.9476461e+2, -1080343.3, -1070896.6, -38576.895, -0.11709997, -0.13026632, -1036754.94, -5455.497, 0.0, 9.999681, 9.999833 
1.2650882e+3, 2.0476359e+2, -1055204.5, -1161418.1, -39638.543, -0.09407838, -0.1382731, -1042042.5, -108733.555, 0.0, 9.999844, 9.99846 
1.2651123e+3, 2.1476354e+2, -767268.4, -964489.2, -33496.71, 0.16312732, -0.027078342, -761734.44, 73580.484, 0.0, 10.001111, 9.998527 
1.2651336e+3, 2.2476295e+2, -583168.8, -847444.3, -24987.17, 0.16908905, 0.07905816, -580827.0, 156496.11, 0.0, 10.0018, 9.998335 
1.2651521e+3, 2.347615e+2, -479308.63, -734433.3, -41889.91, -0.08835813, 0.06615289, -472606.6, 166729.33, 0.0, 10.001789, 9.998443 
1.265173e+3, 2.4475975e+2, -402883.03, -739201.56, -9019.276, -0.121966064, 0.09414277, -402641.34, 138712.52, 0.0, 10.002024, 9.997627 
1.2651967e+3, 2.5475731e+2, -227489.34, -598946.1, -15996.494, 0.09041603, 0.053227253, -226801.75, 216578.64, 0.0, 10.002537, 9.997667 
1.2652187e+3, 2.6475513e+2, -100422.72, -409212.78, 23424.363, 0.118467994, 0.04599011, -98655.89, 246745.7, 0.00000015326442, 10.002433, 9.998336 
1.265239e+3, 2.747529e+2, -111640.02, -349806.47, 2596.473, -0.05626101, -0.049007967, -111611.73, 135808.36, 0.0000068361555, 10.001622, 9.998458 
1.2652598e+3, 2.8475073e+2, -35568.813, -433117.8, -5260.6733, -0.12759972, -0.027136413, -35499.21, 113940.92, 0.000055437977, 10.002186, 9.99695 
1.2652817e+3, 2.9474834e+2, 394040.84, -168685.78, -152.63742, -0.0625307, -0.006350619, 394040.88, 445506.34, 0.00021969865, 10.004431, 9.997011 
1.2653053e+3, 3.0474555e+2, 568751.25, -44867.61, 105721.74, 0.057656325, 0.021790035, 586455.44, 586455.44, 0.00055763865, 10.005274, 9.997113 
1.2653273e+3, 3.1474125e+2, 420872.13, -113780.68, 7360.904, -0.08116998, -0.16548422, 420973.44, 420973.44, 0.0010546672, 10.00418, 9.997169 
1.2749134e+3, 1.24740735e+2, -2073796.1, -1731212.9, 47853.0, -0.0768951, 0.062409747, -1724654.3, -7108.0576, 0.0044096503, 9.996818, 10.001395 
1.2749353e+3, 1.3474236e+2, -1814090.1, -1567687.3, 4014.3933, -0.12191133, 0.07756332, -1567621.9, 51907.547, 0.0024558255, 9.998008, 10.001289 
1.2749597e+3, 1.4474273e+2, -1726504.0, -1559808.8, -53757.74, 0.012542025, 0.025663648, -1543976.1, -22450.727, 0.00093550276, 9.998263, 10.000527 
1.2749799e+3, 1.5474387e+2, -1714453.4, -1503718.4, -43735.887, -0.06068599, 0.049532752, -1495001.9, -71488.27, 0.00017466526, 9.997696, 10.000511 
1.275001e+3, 1.6474377e+2, -1618967.9, -1523180.1, -16251.657, -0.08304991, 0.04980573, -1520498.0, -194984.72, 0.0000047674703, 9.998181, 9.999468 
1.2750232e+3, 1.7474213e+2, -1254941.8, -1291855.5, -19171.6, -0.060578313, -0.098412246, -1246786.5, -19259.568, 0.0, 9.999982, 9.999519 
1.2750453e+3, 1.8474144e+2, -1069897.9, -1128121.6, -70139.375, -0.02826983, -0.11881831, -1023068.75, 106462.44, 0.0, 10.000474, 9.99973 
1.2750673e+3, 1.9474153e+2, -1093860.4, -1078007.1, -54381.215, 0.029780606, -0.12336273, -1030977.8, 550.0888, 0.0, 9.999591, 9.999826 
1.2750895e+3, 2.0474157e+2, -1034381.94, -1082654.5, -12961.085, 0.029540338, -0.05684553, -1031122.06, -97595.234, 0.0, 9.999692, 9.999073 
1.2751117e+3, 2.147412e+2, -758449.8, -891681.7, 28450.69, -0.03139849, -0.039027285, -752628.7, 82902.63, 0.0, 10.0008745, 9.999142 
1.2751335e+3, 2.2473983e+2, -620238.56, -862668.0, -41607.277, -0.04159134, -0.041413568, -613296.44, 124247.79, 0.0, 10.001542, 9.998351 
1.2751551e+3, 2.3473704e+2, -515650.9, -755524.7, -26231.86, 0.005204617, -0.19006129, -512815.78, 126753.86, 0.0, 10.001557, 9.998408 
1.2751764e+3, 2.4473499e+2, -428651.9, -735300.6, -5044.682, -0.010432971, -0.19479358, -428568.94, 113021.87, 0.0, 10.001785, 9.997765 
1.2751976e+3, 2.5473353e+2, -248326.0, -586158.0, 21749.426, -0.08601174, -0.15724295, -246931.55, 196677.42, 0.0, 10.002299, 9.997867 
1.2752195e+3, 2.6473278e+2, -138031.58, -437335.94, -21120.293, -0.07454585, -0.027900875, -136548.6, 209070.11, 0.00000020123079, 10.002222, 9.998241 
1.2752417e+3, 2.7473232e+2, -141903.86, -378458.88, -9858.396, 0.02216763, 0.061348833, -141493.72, 106130.26, 0.0000077157165, 10.00148, 9.998327 
1.275264e+3, 2.847306e+2, -13122.501, -361505.6, 55965.777, 0.030870399, 0.10749412, -4352.677, 145287.47, 0.000060411407, 10.002076, 9.997493 
1.2752867e+3, 2.947273e+2, 395777.88, -103303.11, 105262.07, -0.04015119, -0.019132467, 417070.47, 468740.56, 0.00024271311, 10.0041685, 9.997585 
1.2753102e+3, 3.0472383e+2, 502721.6, -130311.15, 56455.668, -0.005594794, -0.06883649, 507717.06, 507717.06, 0.0006225909, 10.005051, 9.996634 
1.2753312e+3, 3.1472176e+2, 326486.13, -231097.81, 3124.7866, -0.14885227, 0.013240359, 326503.66, 326503.66, 0.0011840115, 10.003863, 9.996504 
1.2849118e+3, 1.24717265e+2, -2176624.5, -1726850.1, 74171.73, 0.14203821, 0.06982748, -1714934.3, 2843.7449, 0.0047468157, 9.99584, 10.0019 
1.284932e+3, 1.347193e+2, -1986939.3, -1621049.1, 45708.945, -0.17285657, 0.096774854, -1615425.4, 4331.241, 0.0026545508, 9.996665, 10.001566 
1.2849578e+3, 1.4471981e+2, -1826028.0, -1570963.0, -10307.817, 0.055998795, 0.02667305, -1570547.1, -48797.02, 0.0010215283, 9.997451, 10.000837 
1.284979e+3, 1.5472136e+2, -1508390.6, -1363000.3, -74365.58, 0.027428597, 0.062480956, -1331701.0, 92031.98, 0.00019628371, 9.99895, 10.000867 
1.2850006e+3, 1.647211e+2, -1432937.3, -1464994.6, -6157.002, 0.007428944, 0.04084317, -1431795.4, -106061.79, 0.0000059623408, 9.999565, 9.99922 
1.2850228e+3, 1.7471874e+2, -1387584.3, -1381198.6, -12353.808, -0.044198584, -0.15241969, -1371631.8, -143877.27, 0.0, 9.999171, 9.999302 
1.2850454e+3, 1.8471798e+2, -1262694.9, -1265848.4, -49443.57, -0.003880447, -0.14609744, -1214802.9, -85041.67, 0.0, 9.999365, 9.999312 
1.2850685e+3, 1.947187e+2, -1003986.56, -1080514.6, -99852.68, 0.13993886, -0.045636825, -935317.44, 96438.51, 0.0, 10.000428, 9.999402 
1.2850906e+3, 2.0471887e+2, -842700.06, -942367.0, -39276.25, 0.12057031, 0.037857812, -829082.8, 104671.125, 0.0, 10.000799, 9.999506 
1.2851118e+3, 2.1471815e+2, -798251.4, -853798.5, -40419.547, -0.08165596, -0.025075627, -776983.0, 58775.176, 0.0, 10.000368, 9.999642 
1.285134e+3, 2.2471671e+2, -756157.44, -914691.75, -79406.195, -0.09406577, -0.06806748, -723225.56, 14545.044, 0.0, 10.000547, 9.998473 
1.2851575e+3, 2.3471414e+2, -532549.94, -747409.5, -90627.77, 0.105191395, -0.20532894, -499428.84, 140366.16, 0.0, 10.001381, 9.998543 
1.2851793e+3, 2.4471258e+2, -398103.66, -670926.44, -27848.975, 0.1109703, -0.18952411, -395289.94, 146521.39, 0.0, 10.001783, 9.998204 
1.2851995e+3, 2.5471187e+2, -312181.88, -566093.25, -18698.08, -0.09002972, -0.12056412, -310812.3, 133008.63, 0.0, 10.001649, 9.998313 
1.2852211e+3, 2.64711e+2, -162119.38, -498367.9, -24606.998, -0.11169748, -0.0043663178, -160328.16, 185503.78, 0.00000014147287, 10.002252, 9.997815 
1.2852447e+3, 2.7470955e+2, 160013.22, -284338.75, -72726.26, 0.06027777, 0.03559395, 171613.36, 419461.78, 0.000007879153, 10.003762, 9.997883 
1.2852676e+3, 2.8470787e+2, 268834.25, -218327.2, -193.62027, 0.09083155, 0.10610555, 268834.34, 418700.0, 0.00006527563, 10.003993, 9.997551 
1.2852901e+3, 2.947055e+2, 190209.52, -192808.98, -29682.465, -0.023075351, 0.06511683, 192496.14, 244383.56, 0.000269289, 10.002713, 9.997668 
1.285314e+3, 3.0470157e+2, 213466.61, -251124.31, -30721.32, -0.005244199, -0.04038702, 215489.27, 215489.27, 0.0006978728, 10.002958, 9.996826 
1.2853368e+3, 3.146999e+2, 487002.1, -120385.82, -109950.45, -0.023440447, 0.06260081, 506292.84, 506292.84, 0.0013327191, 10.004763, 9.996852 
1.2949078e+3, 1.2469396e+2, -2123500.3, -1605761.9, -78536.63, 0.08719812, 0.059063327, -1594110.6, 123895.695, 0.0050962004, 9.995815, 10.002741 
1.2949288e+3, 1.346963e+2, -1973093.0, -1573904.5, 86628.54, -0.19391395, 0.07773325, -1555915.8, 64063.54, 0.0028611089, 9.996597, 10.0019245 
1.2949544e+3, 1.4469741e+2, -1843085.9, -1604512.1, 21446.436, -0.09574842, 0.0666624, -1602599.5, -80632.99, 0.00111182, 9.997447, 10.000608 
1.2949781e+3, 1.5469822e+2, -1528296.1, -1402508.6, 1183.8835, 0.01331092, 0.052046403, -1402497.5, 21461.25, 0.000219555, 9.99894, 10.000604 
1.295001e+3, 1.6469812e+2, -1414299.1, -1429745.8, -38893.49, 0.06563413, 0.048720874, -1382369.5, -56410.844, 0.0000074533, 9.999576, 9.999453 
1.2950228e+3, 1.7469704e+2, -1374676.5, -1353926.1, -12711.408, 0.013845222, -0.042631093, -1347893.3, -119926.18, 0.0, 9.999162, 9.999495 
1.2950453e+3, 1.8469653e+2, -1326322.8, -1395144.8, -28949.826, 0.011350816, 0.018543169, -1315764.8, -185791.2, 0.0, 9.999349, 9.998434 
1.2950686e+3, 1.946962e+2, -1081102.9, -1222250.3, -44440.883, 0.09222767, 0.105549574, -1068276.0, -36293.203, 0.0, 10.000337, 9.998476 
1.2950909e+3, 2.0469555e+2, -849978.4, -914439.44, -71070.69, 0.049707696, 0.14259046, -804171.44, 129818.33, 0.0, 10.000621, 9.999778 
1.2951118e+3, 2.1469434e+2, -806890.6, -822458.44, -42407.97, -0.12971883, -0.0025590325, -771558.1, 64438.008, 0.0, 10.000157, 9.999956 
1.2951344e+3, 2.2469345e+2, -778634.4, -902034.9, -64920.285, -0.1308407, -0.016080845, -750771.44, -12768.54, 0.0, 10.000295, 9.998681 
1.2951587e+3, 2.346927e+2, -553262.4, -734099.3, -39201.418, 0.07584269, 0.004887825, -545130.1, 94882.38, 0.0, 10.001134, 9.9987545 
1.2951812e+3, 2.4469236e+2, -396136.06, -594445.06, -48846.258, 0.103345305, 0.10077326, -384757.44, 157259.05, 0.0, 10.00149, 9.998862 
1.2952016e+3, 2.5469205e+2, -300869.4, -484361.25, -7369.091, -0.06382486, 0.14365993, -300573.94, 143444.38, 0.0, 10.001415, 9.998978 
1.2952237e+3, 2.6468968e+2, -239135.77, -623093.0, 11391.399, -0.12663478, 0.114847, -238798.1, 107243.73, 0.000000052302592, 10.002087, 9.997044 
1.2952474e+3, 2.7468494e+2, 68865.305, -416299.78, 2880.4578, -0.073995575, -0.100251935, 68882.41, 316972.84, 0.000007172051, 10.0035095, 9.997102 
1.29527e+3, 2.8468287e+2, 199750.08, -301755.6, -59536.92, -0.08335752, -0.0104696425, 206721.19, 356834.94, 0.00006969282, 10.003733, 9.997102 
1.2952918e+3, 2.946831e+2, 125128.84, -279083.16, -51354.496, -0.1562689, 0.2529649, 131551.31, 183666.16, 0.0003009035, 10.002506, 9.997172 
1.2953165e+3, 3.0467895e+2, 251038.63, -153455.25, 21425.59, -0.08365482, 0.12124907, 252170.36, 252170.36, 0.0007869782, 10.002868, 9.997545 
1.2953426e+3, 3.1467623e+2, 526835.25, 46842.008, 1457.2666, 0.023267923, 0.03481162, 526839.7, 526839.7, 0.0015032811, 10.004405, 9.998175 
1.3049044e+3, 1.2467066e+2, -1865805.1, -1497495.0, -74461.78, 0.10292289, 0.07501354, -1483010.5, 235221.55, 0.0054552136, 9.997651, 10.0026045 
1.3049272e+3, 1.3467203e+2, -1919129.0, -1567031.4, -2535.3293, -0.02357634, 0.017197663, -1567013.1, 53201.63, 0.003073975, 9.997062, 10.001743 
1.3049516e+3, 1.4467332e+2, -1903804.0, -1638482.0, 17685.15, -0.070021115, 0.0351646, -1637308.4, -115108.13, 0.0012055306, 9.997028, 10.000581 
1.3049765e+3, 1.5467396e+2, -1598520.8, -1434102.9, -14390.129, -0.010522757, -0.00020851992, -1432852.9, -8658.454, 0.000244213, 9.99844, 10.000626 
1.3050006e+3, 1.6467416e+2, -1437815.8, -1430122.8, -60849.035, 0.07540217, 0.022684133, -1372998.8, -46806.37, 0.000009295233, 9.999413, 9.999515 
1.3050236e+3, 1.7467381e+2, -1220569.5, -1265398.4, -86442.74, 0.12055947, 0.0018870695, -1153682.5, 74512.695, 0.0, 10.000204, 9.999582 
1.3050461e+3, 1.8467346e+2, -1156483.1, -1287020.9, -34218.473, 0.1127643, 0.061860207, -1148057.1, -17856.895, 0.0, 10.000376, 9.998696 
1.3050683e+3, 1.9467275e+2, -1147270.5, -1218807.3, 6969.935, 0.06265714, 0.08181417, -1146597.8, -114386.29, 0.0, 9.999726, 9.998797 
1.3050906e+3, 2.0467193e+2, -1007304.75, -1031572.75, 37213.117, 0.015482236, 0.10483482, -980297.4, -46077.465, 0.0, 9.999713, 9.999416 
1.305113e+3, 2.1467082e+2, -796883.94, -859453.3, -21050.432, -0.030602602, 0.008023497, -790461.2, 45766.48, 0.0, 10.000412, 9.999582 
1.305136e+3, 2.2467008e+2, -692914.9, -853815.25, -33123.74, -0.012112571, 0.026046358, -686362.7, 51871.63, 0.0, 10.000838, 9.99875 
1.3051596e+3, 2.3466948e+2, -586971.44, -740564.06, -51550.65, 0.08312221, 0.0516047, -571273.75, 68968.77, 0.0, 10.000848, 9.998845 
1.3051824e+3, 2.4466904e+2, -423533.38, -617848.0, -54943.316, 0.08774469, 0.13371503, -409073.9, 133173.61, 0.0, 10.001318, 9.998796 
1.305204e+3, 2.546684e+2, -168900.75, -432046.16, -96751.9, -0.0077411355, 0.15188675, -137156.88, 307095.5, 0.0, 10.002345, 9.998905 
1.3052265e+3, 2.6466605e+2, -136924.56, -557797.1, -41222.78, -0.06443853, 0.12030434, -132924.95, 213350.22, 0.000000026393016, 10.002726, 9.997187 
1.30525e+3, 2.746615e+2, -81983.805, -477953.0, -22614.414, -0.08487292, -0.087302305, -80696.445, 167624.17, 0.0000066700077, 10.002408, 9.997219 
1.3052729e+3, 2.8465927e+2, 14689.1455, -412523.1, -32134.135, -0.091079816, -0.003488868, 17092.693, 167437.39, 0.00007506801, 10.002556, 9.996899 
1.3052954e+3, 2.946592e+2, 237781.88, -248685.63, -48850.707, -0.075097226, 0.2501475, 242638.92, 294988.84, 0.00033561388, 10.00338, 9.996953 
1.3053203e+3, 3.0465484e+2, 381539.28, -84472.41, 81198.555, -0.028457891, 0.100129604, 395282.16, 395282.16, 0.0008838956, 10.003746, 9.997594 
1.3053468e+3, 3.1465244e+2, 444502.44, 84296.98, -52985.63, 0.060268037, 0.044572424, 452134.8, 452134.8, 0.0016899819, 10.003502, 9.998874 
1.3149005e+3, 1.2464618e+2, -1936960.3, -1663167.5, -30415.533, -0.13394949, -0.015759401, -1659829.4, 58637.35, 0.005819013, 9.99772, 10.001433 
1.3149267e+3, 1.3464648e+2, -1973017.8, -1688092.4, -17660.19, 0.19953181, -0.094736435, -1687002.0, -66539.164, 0.0032902497, 9.997089, 10.000904 
1.3149494e+3, 1.4464754e+2, -1877549.5, -1587409.0, 39096.867, -0.035846338, -0.07492485, -1582232.9, -59781.418, 0.0013013786, 9.997054, 10.000916 
1.3149737e+3, 1.5464872e+2, -1580162.1, -1389839.1, 50072.45, -0.16741785, -0.086412914, -1377469.5, 46969.363, 0.00026992275, 9.998413, 10.000947 
1.3149987e+3, 1.6464926e+2, -1446750.0, -1458584.3, -50157.87, -0.09164168, -0.035810918, -1402161.5, -75727.15, 0.00001153221, 9.999442, 9.9993105 
1.3150243e+3, 1.7464896e+2, -1233732.9, -1295226.9, -42032.656, 0.15882155, -0.034197375, -1212401.9, 16038.3, 0.0, 10.000201, 9.999384 
1.3150473e+3, 1.8464871e+2, -1064530.8, -1077158.5, -75319.52, 0.16997203, -0.023220409, -995260.9, 135181.25, 0.0, 10.000303, 10.000167 
1.3150668e+3, 1.9464827e+2, -1056406.3, -1006116.6, -5655.5146, -0.07906742, -0.12728733, -1005488.44, 26954.082, 0.0, 9.999623, 10.000308 
1.3150892e+3, 2.0464803e+2, -1100764.1, -1187523.1, 46550.934, -0.11750804, -0.08072647, -1080513.6, -146068.92, 0.0, 9.999555, 9.99842 
1.3151148e+3, 2.1464764e+2, -903868.56, -1039972.44, 22928.59, 0.08682346, 0.004329791, -900109.75, -63656.938, 0.0, 10.000222, 9.998438 
1.3151385e+3, 2.2464658e+2, -735016.0, -878092.25, -48129.926, 0.12429309, 0.053602528, -720332.4, 18132.967, 0.0, 10.000582, 9.998701 
1.31516e+3, 2.3464449e+2, -624700.9, -762919.5, -32717.926, -0.0076409783, -0.06790034, -617347.4, 23138.406, 0.0, 10.000612, 9.998806 
1.3151824e+3, 2.4464278e+2, -510842.72, -738463.7, -34916.195, -0.071858324, -0.07292748, -505607.13, 36896.117, 0.0, 10.001061, 9.998091 
1.315206e+3, 2.5464138e+2, -255559.08, -555403.0, -39660.18, -0.057299186, -0.061051294, -250401.95, 194116.73, 0.0, 10.0021, 9.998178 
1.3152295e+3, 2.6464024e+2, -105304.14, -441427.03, -66317.89, -0.06951849, 0.023070347, -92692.64, 253837.42, 0.000000066602475, 10.002512, 9.998086 
1.3152523e+3, 2.7463907e+2, -48061.67, -354517.56, -12237.719, -0.11678034, 0.058904503, -47573.758, 200966.3, 0.0000067822207, 10.002196, 9.998161 
1.315276e+3, 2.8463724e+2, -2584.7485, -424574.5, -18395.96, -0.081341185, 0.13289334, -1784.3246, 148774.05, 0.000081610815, 10.002438, 9.9968815 
1.3153005e+3, 2.9463413e+2, 200303.0, -274652.03, 3825.9587, 0.054497868, 0.081458695, 200333.83, 252925.0, 0.00036944333, 10.003148, 9.996895 
1.3153246e+3, 3.0462936e+2, 309519.72, -193077.75, 62486.215, 0.0042897435, -0.06898644, 317171.9, 317171.9, 0.000976967, 10.003573, 9.996926 
1.3153484e+3, 3.1462824e+2, 396000.97, 75201.805, -3007.4646, -0.17521615, 0.06824755, 396029.16, 396029.16, 0.0018699723, 10.003122, 9.99899 
1.3248986e+3, 1.2462121e+2, -2069708.8, -1806279.4, 13182.228, -0.04615362, -0.064828165, -1805621.4, -86913.82, 0.006183249, 9.997113, 10.000757 
1.324924e+3, 1.3462164e+2, -1871371.0, -1677375.8, -73984.484, 0.18079671, -0.09046781, -1652380.5, -31675.047, 0.0035072896, 9.99797, 10.000542 
1.3249472e+3, 1.4462265e+2, -1710932.6, -1504479.6, 58869.516, -0.017902074, -0.056687485, -1488873.0, 33823.004, 0.0013982238, 9.998183, 10.000938 
1.3249727e+3, 1.5462384e+2, -1563372.1, -1373518.6, 20531.14, -0.09751468, -0.07645257, -1371323.8, 53359.75, 0.00029637254, 9.998496, 10.001011 
1.3249984e+3, 1.6462456e+2, -1552755.9, -1453821.4, -50616.5, -0.007273074, -0.0354618, -1432514.0, -105837.2, 0.000014169166, 9.998476, 9.999803 
1.3250236e+3, 1.7462462e+2, -1497613.4, -1371838.4, -24198.777, 0.17682642, -0.044755306, -1367343.3, -138664.75, 0.0, 9.998159, 9.999846 
1.3250466e+3, 1.846247e+2, -1317973.0, -1183598.3, -46330.215, 0.17730519, -0.033102803, -1169172.9, -38495.91, 0.0, 9.998502, 10.000303 
1.3250671e+3, 1.946245e+2, -1031576.44, -982229.8, -113754.625, -0.011474691, -0.12443211, -890503.44, 142171.2, 0.0, 9.999738, 10.000417 
1.32509e+3, 2.0462413e+2, -976240.7, -1149899.1, -52853.72, -0.038813837, -0.084820524, -961419.4, -26741.055, 0.0, 10.00052, 9.998207 
1.3251154e+3, 2.1462329e+2, -834084.4, -1026696.4, -40919.77, 0.10851484, -0.021144722, -825751.56, 10940.015, 0.0, 10.000812, 9.998238 
1.3251391e+3, 2.2462223e+2, -684174.44, -850564.9, -60104.906, 0.12418966, 0.039823446, -664734.2, 73970.305, 0.0, 10.000928, 9.998725 
1.3251607e+3, 2.346208e+2, -583395.25, -730011.8, -75380.71, 0.014382564, -0.021724634, -551554.3, 89164.44, 0.0, 10.000865, 9.998903 
1.3251837e+3, 2.4461912e+2, -498106.66, -759526.44, 12787.133, -0.037528478, -0.01771032, -497482.7, 45253.402, 0.0, 10.001268, 9.997842 
1.3252084e+3, 2.5461686e+2, -258262.28, -581299.25, 8755.421, -0.031363178, -0.06436746, -258025.16, 186734.67, 0.0, 10.002198, 9.997942 
1.3252324e+3, 2.646155e+2, -61494.51, -414343.25, -34106.27, -0.029824259, 0.005934322, -58228.047, 288545.28, 0.0000000978673, 10.002791, 9.998131 
1.3252556e+3, 2.7461478e+2, 82304.19, -282721.94, -83160.32, -0.03657994, 0.081494935, 100356.97, 349135.5, 0.000006920427, 10.003053, 9.998238 
1.3252795e+3, 2.8461283e+2, 143897.33, -338970.7, -54399.04, -0.0043480517, 0.1321601, 149949.97, 300747.13, 0.000086783395, 10.003408, 9.996997 
1.3253042e+3, 2.94609e+2, 337315.3, -195086.42, -66897.91, 0.07512538, 0.005370072, 345592.53, 398427.6, 0.0003950438, 10.004047, 9.997005 
1.325328e+3, 3.0460462e+2, 341657.44, -197630.61, 9795.387, 0.0028558709, -0.10312251, 341835.3, 341835.3, 0.0010503886, 10.003908, 9.996723 
1.3253528e+3, 3.146035e+2, 361612.78, 86838.734, -82373.72, -0.028437834, 0.057999797, 384415.1, 384415.1, 0.0020140882, 10.002771, 9.99923 
1.3348983e+3, 1.24595605e+2, -2063194.6, -1787829.5, 17640.148, 0.13948537, -0.0915557, -1786704.1, -67747.484, 0.0065457188, 9.997098, 10.000888 
1.3349181e+3, 1.3459757e+2, -1870739.4, -1672615.4, -42534.637, -0.2227239, 0.030498538, -1663869.8, -42927.695, 0.0037237175, 9.997953, 10.000581 
1.334944e+3, 1.445986e+2, -1712941.6, -1520625.9, 47707.12, -0.1777037, 0.06967377, -1509441.8, 13492.85, 0.0014951822, 9.998221, 10.000817 
1.3349731e+3, 1.5459938e+2, -1571062.6, -1394911.3, 48795.97, 0.06636879, 0.026766855, -1382297.4, 42630.086, 0.00032323142, 9.998505, 10.000868 
1.3349992e+3, 1.6460018e+2, -1479274.1, -1297085.9, -81323.06, 0.18687394, 0.030074706, -1266067.1, 60851.855, 0.000017128494, 9.998461, 10.000882 
1.3350208e+3, 1.7460093e+2, -1424702.4, -1209711.3, -22532.152, 0.047490053, -0.026838545, -1207375.1, 21534.094, 0.00000000003443261, 9.998115, 10.0009775 
1.3350438e+3, 1.8460152e+2, -1407018.8, -1362123.0, -20054.133, 0.0025255769, 0.035068974, -1354469.9, -223566.34, 0.0, 9.998466, 9.999103 
1.3350685e+3, 1.9460149e+2, -1135875.3, -1179171.9, -52350.363, 0.13174258, 0.09079824, -1100873.6, -67966.87, 0.0, 9.9996395, 9.99912 
1.3350923e+3, 2.0460036e+2, -962461.7, -1080770.1, -58685.168, 0.11820054, 0.09423417, -938290.25, -3370.8423, 0.0, 10.000347, 9.998767 
1.3351145e+3, 2.1459775e+2, -824294.9, -955678.75, -13319.864, -0.08250648, -0.08039353, -822958.06, 13986.563, 0.0, 10.0005865, 9.998841 
1.3351376e+3, 2.2459702e+2, -708648.6, -847844.9, -74302.664, -0.13924438, -0.025476262, -676439.2, 62513.49, 0.0, 10.000695, 9.998851 
1.3351618e+3, 2.3459831e+2, -607033.8, -733927.56, -59758.12, 0.0060994127, 0.1756142, -583322.56, 57619.555, 0.0, 10.000663, 9.998974 
1.3351859e+3, 2.4459776e+2, -514985.78, -744109.75, 29587.775, 0.0336847, 0.2794445, -511226.66, 31721.553, 0.0, 10.00106, 9.998041 
1.3352104e+3, 2.5459468e+2, -280601.97, -573536.75, 60694.215, -0.076622255, 0.12685715, -268524.47, 176453.34, 0.0, 10.001966, 9.998104 
1.3352348e+3, 2.6459175e+2, -148586.5, -543719.4, -39344.145, -0.087878235, 0.07284831, -144707.02, 202298.73, 0.00000008871969, 10.002567, 9.99735 
1.3352594e+3, 2.7458876e+2, -11194.438, -415088.22, -52890.99, 0.013533075, -0.003814724, -4383.088, 244651.44, 0.000006673535, 10.002793, 9.99745 
1.3352832e+3, 2.845862e+2, 123598.4, -332201.25, -48889.816, -0.007334005, 0.019644078, 128783.42, 279842.75, 0.00008871381, 10.003198, 9.997144 
1.3353063e+3, 2.9458383e+2, 310047.97, -190278.75, -17943.938, -0.15601532, 0.019154163, 310690.7, 363772.5, 0.00040777776, 10.00378, 9.99717 
1.3353303e+3, 3.0458066e+2, 332434.7, -173107.73, -38021.0, -0.18911359, 0.010223959, 335278.2, 335278.2, 0.0010944809, 10.003717, 9.99698 
1.3353583e+3, 3.1457788e+2, 324061.1, 85833.98, -42122.164, 0.18191995, -0.023562081, 331289.6, 331289.6, 0.0021080854, 10.002425, 9.999398 
1.3448966e+3, 1.2457009e+2, -2092717.1, -1758893.6, -9545.773, 0.30287194, -0.079388805, -1758620.9, -39414.008, 0.0069055543, 9.996717, 10.001264 
1.3449155e+3, 1.3457218e+2, -1864483.0, -1624757.1, -16944.988, -0.25809807, 0.015916282, -1623565.3, -2375.9084, 0.0039389143, 9.997819, 10.000969 
1.344943e+3, 1.4457321e+2, -1768872.6, -1552522.3, 82406.04, -0.091214016, 0.03753132, -1524709.9, -1528.1741, 0.0015916337, 9.997869, 10.000769 
1.3449717e+3, 1.5457426e+2, -1736514.0, -1482586.1, 53338.043, 0.1463086, 0.029780613, -1471837.3, -46663.74, 0.0003501717, 9.997413, 10.000793 
1.3449977e+3, 1.6457528e+2, -1558789.0, -1327511.6, -47127.363, 0.23713346, 0.05486974, -1318277.3, 8886.484, 0.000020254476, 9.9978695, 10.000966 
1.3450193e+3, 1.7457609e+2, -1233328.5, -1103802.4, -102517.07, 0.044002768, -0.0010878476, -1047305.4, 181847.47, 0.0000000014653116, 9.999375, 10.001096 
1.3450427e+3, 1.8457657e+2, -1215682.6, -1305667.4, -87369.914, 0.0040590796, 0.058478855, -1162400.9, -31251.822, 0.0, 9.9999275, 9.998781 
1.3450685e+3, 1.9457625e+2, -1185396.4, -1237040.8, -80119.2, 0.1798903, 0.11823467, -1127040.9, -93883.85, 0.0, 9.999457, 9.9988 
1.3450927e+3, 2.045752e+2, -1067098.0, -1089991.6, -21658.72, 0.17527084, 0.12729573, -1054047.3, -118878.28, 0.0, 9.999431, 9.999147 
1.3451149e+3, 2.1457309e+2, -891318.7, -933028.75, -27147.781, -0.059335742, -0.04348549, -877940.2, -40753.258, 0.0, 9.9998865, 9.999323 
1.3451383e+3, 2.2457227e+2, -744336.5, -897535.44, -71907.56, -0.12626499, -0.010085745, -715873.25, 23321.504, 0.0, 10.000593, 9.998564 
1.345163e+3, 2.3457266e+2, -485962.5, -706287.56, -115530.22, 0.026836226, 0.13503659, -436491.03, 204702.17, 0.0, 10.001638, 9.998692 
1.3451879e+3, 2.4457195e+2, -374726.94, -648284.06, -22246.955, 0.086610176, 0.22667351, -372929.53, 170270.89, 0.0, 10.0019, 9.998306 
1.3452129e+3, 2.545697e+2, -367904.13, -578627.06, -18107.584, 0.036312886, 0.12744613, -366359.47, 78861.13, 0.0, 10.001218, 9.998434 
1.3452376e+3, 2.6456705e+2, -347507.28, -653067.3, -38848.043, 0.01629311, 0.088786304, -342645.6, 4600.3706, 0.000000062099474, 10.001266, 9.997228 
1.345262e+3, 2.745635e+2, -98606.24, -474154.4, -44715.676, 0.035916086, -0.027346939, -93355.46, 155926.3, 0.0000065347235, 10.002253, 9.99731 
1.345286e+3, 2.8456068e+2, 69585.984, -340228.6, 10568.915, -0.00039883849, -0.027632145, 69858.375, 221167.66, 0.00008986311, 10.002722, 9.997329 
1.3453098e+3, 2.9455882e+2, 157543.63, -226472.0, -2311.2634, -0.100123875, 0.0013669693, 157557.55, 210883.38, 0.00041373618, 10.002574, 9.997498 
1.345334e+3, 3.0455655e+2, 197646.08, -238444.55, -9131.45, -0.13585879, 0.059112918, 197837.19, 197837.19, 0.001115336, 10.002749, 9.997012 
1.3453618e+3, 3.145536e+2, 415973.94, 109128.875, -75869.99, 0.27932292, -0.002287947, 433708.44, 433708.44, 0.0021558101, 10.003148, 9.999196 
1.3548909e+3, 1.24544874e+2, -2050163.6, -1661209.0, -180326.83, -0.018623324, -0.034615256, -1590470.9, 128985.375, 0.0072628423, 9.996702, 10.001941 
1.354916e+3, 1.3454555e+2, -1819912.4, -1525147.9, 33348.098, -0.03472919, -0.14740966, -1521422.1, 100023.984, 0.004152666, 9.997797, 10.001665 
1.354943e+3, 1.4454651e+2, -1781719.1, -1569367.5, 42930.836, 0.09420589, -0.16085535, -1561016.6, -37579.84, 0.0016872559, 9.9978285, 10.0006695 
1.3549681e+3, 1.5454844e+2, -1743706.1, -1498708.5, 53213.492, 0.008592533, -0.074311614, -1487649.8, -62227.67, 0.0003769789, 9.997411, 10.000686 
1.3549936e+3, 1.6454972e+2, -1620808.5, -1454282.4, -13121.544, 0.009221489, 0.026256172, -1453254.9, -125842.805, 0.000023370363, 9.997861, 10.0001 
1.3550192e+3, 1.7455001e+2, -1307653.5, -1245511.0, -31316.27, 0.05014634, 0.00866518, -1232467.3, -3056.7937, 0.0000000068048798, 9.999316, 10.0001545 
1.3550435e+3, 1.8454984e+2, -1193077.3, -1235007.4, -119802.15, 0.04358629, 0.027699957, -1092419.6, 38994.176, 0.0, 9.999836, 9.999304 
1.3550666e+3, 1.9454885e+2, -1161484.4, -1161222.8, -81333.32, 0.008471524, -0.04122959, -1080020.1, -46594.734, 0.0, 9.999345, 9.999373 
1.3550906e+3, 2.0454863e+2, -1073545.5, -1066952.1, -24689.316, 0.004827382, 0.012560113, -1045340.4, -109912.945, 0.0, 9.999277, 9.999377 
1.355116e+3, 2.1454915e+2, -909869.44, -920021.9, 2408.4126, 0.044055272, 0.082759604, -909327.06, -71906.91, 0.0, 9.999662, 9.999521 
1.3551407e+3, 2.2454782e+2, -827042.44, -1006031.4, -54309.64, 0.02831454, 0.08631655, -811852.6, -72420.22, 0.0, 10.000327, 9.997945 
1.355164e+3, 2.3454404e+2, -570034.3, -820491.9, -60205.246, -0.049105085, -0.12457719, -556313.75, 85156.805, 0.0, 10.001383, 9.998029 
1.3551891e+3, 2.4454206e+2, -385794.03, -615023.94, -61393.34, -0.006189444, -0.13938427, -370386.94, 173102.33, 0.0, 10.001657, 9.998653 
1.3552158e+3, 2.5454208e+2, -369637.1, -534011.8, -26155.658, 0.16763927, -0.051208194, -365575.5, 79911.336, 0.0, 10.001011, 9.998843 
1.3552405e+3, 2.645412e+2, -344739.8, -603320.4, -21404.838, 0.14287537, 0.044562683, -342979.94, 4515.6455, 0.000000036385206, 10.001078, 9.997661 
1.3552631e+3, 2.745388e+2, -110932.43, -437372.88, 13472.645, -0.10023522, 0.0024150638, -110377.336, 139144.75, 0.0000068750182, 10.00199, 9.997689 
1.3552877e+3, 2.8453627e+2, 53781.94, -320523.03, -10412.442, -0.14001432, 0.00286089, 54071.37, 205618.58, 0.00009120505, 10.002498, 9.997569 
1.3553143e+3, 2.9453373e+2, 138159.83, -213229.75, 13693.279, 0.04958957, -0.064823166, 138692.64, 192263.22, 0.00041573873, 10.0023365, 9.997708 
1.3553384e+3, 3.04532e+2, 152627.27, -271620.16, -10997.671, 0.0042933975, 0.043424968, 152912.17, 152912.17, 0.0011165407, 10.002517, 9.996888 
1.3553628e+3, 3.145298e+2, 294465.5, -39573.008, 6406.4326, -0.009189762, 0.08142329, 294588.34, 294588.34, 0.0021572434, 10.002725, 9.998371 
1.3648869e+3, 1.2451973e+2, -1825852.9, -1569547.3, -125750.164, -0.13896433, -0.014016187, -1518155.5, 201549.03, 0.0076198755, 9.998281, 10.00182 
1.3649155e+3, 1.3452e+2, -1856359.3, -1593324.3, -40186.027, 0.16563733, -0.13161977, -1587321.8, 34377.445, 0.004366158, 9.9977255, 10.0012455 
1.3649409e+3, 1.4452083e+2, -1841307.6, -1582348.5, -26675.602, 0.13044037, -0.14035034, -1579629.3, -55939.098, 0.0017823466, 9.997352, 10.000802 
1.3649654e+3, 1.5452266e+2, -1624953.6, -1421091.9, -25366.03, -0.022505172, -0.078873485, -1417983.0, 7690.558, 0.0004035849, 9.998152, 10.000847 
1.3649915e+3, 1.6452368e+2, -1543882.3, -1465573.8, -9616.916, -0.016689138, 0.004013153, -1464410.0, -136743.86, 0.000026350568, 9.998575, 9.999693 
1.3650185e+3, 1.745235e+2, -1441118.5, -1354951.0, -26645.66, 0.09858423, -0.017989771, -1347377.0, -117705.56, 0.000000016360648, 9.998586, 9.999765 
1.3650434e+3, 1.845234e+2, -1281965.4, -1221947.5, -75140.01, 0.10060266, 0.0070313187, -1171045.6, -39371.508, 0.0, 9.998997, 9.999795 
1.3650657e+3, 1.9452314e+2, -1033436.0, -1033444.7, -75786.35, -0.014160482, -0.042749785, -957654.0, 76022.05, 0.0, 9.99996, 9.999946 
1.3650902e+3, 2.0452325e+2, -918337.1, -1010286.25, -8150.2246, -0.024431754, 0.019394398, -917620.25, 18053.93, 0.0, 10.000412, 9.999228 
1.3651164e+3, 2.1452358e+2, -832944.0, -905807.44, -41757.438, 0.08595391, 0.09043706, -813959.56, 23710.727, 0.0, 10.0002775, 9.999332 
1.3651416e+3, 2.2452205e+2, -827440.6, -1002462.7, -34680.813, 0.11060233, 0.08023703, -820819.06, -81133.945, 0.0, 10.000307, 9.997977 
1.3651657e+3, 2.3451802e+2, -692300.2, -881072.5, -28488.453, 0.025235262, -0.15553825, -688094.56, -46369.66, 0.0, 10.000533, 9.998031 
1.3651907e+3, 2.4451588e+2, -498060.03, -686001.3, -8443.329, 0.046170365, -0.1806123, -497681.47, 46063.875, 0.0, 10.000973, 9.998487 
1.365217e+3, 2.5451577e+2, -267771.0, -502788.1, -53313.57, 0.17613955, -0.08844077, -256242.38, 189502.66, 0.0, 10.001794, 9.998673 
1.365242e+3, 2.6451513e+2, -203283.61, -508244.78, -38938.676, 0.16396655, 0.031700198, -198390.27, 149361.13, 0.000000033203506, 10.001937, 9.997899 
1.3652655e+3, 2.7451363e+2, -181651.06, -432661.7, -50295.016, -0.011490791, 0.050257843, -171948.48, 77820.27, 0.0000069323874, 10.001351, 9.99802 
1.3652906e+3, 2.8451148e+2, -82868.48, -379004.28, -28536.924, -0.033771224, 0.062733054, -80143.61, 71646.9, 0.00008948749, 10.001562, 9.997604 
1.3653176e+3, 2.9450852e+2, 227901.86, -158930.67, -54676.02, 0.12934466, -0.0455993, 235481.42, 289299.28, 0.00040625758, 10.002926, 9.9977865 
1.3653417e+3, 3.0450666e+2, 318472.94, -139580.38, -52100.67, 0.059627466, 0.024626682, 324324.3, 324324.3, 0.0010893871, 10.003441, 9.997361 
1.3653655e+3, 3.14505e+2, 280794.56, -47710.137, -45116.938, 0.026329815, 0.0837243, 286878.28, 286878.28, 0.00210587, 10.002604, 9.998411 
1.3748868e+3, 1.2449416e+2, -1898700.3, -1719775.9, -28566.887, -0.06992844, -0.07603714, -1715325.6, 4630.5884, 0.0079810945, 9.998299, 10.00076 
1.3749136e+3, 1.3449548e+2, -1962570.9, -1815549.1, -60464.61, 0.17336732, 0.0632272, -1793876.9, -171928.5, 0.0045821774, 9.99773, 9.999714 
1.374936e+3, 1.4449626e+2, -1815703.1, -1532275.3, -29164.553, -0.14392786, 0.11040212, -1529305.4, -5364.2705, 0.0018779465, 9.997362, 10.001144 
1.3749634e+3, 1.5449695e+2, -1596940.9, -1363828.9, 20113.703, -0.07546327, 0.014867368, -1362106.1, 63822.504, 0.00043006244, 9.998147, 10.001247 
1.3749908e+3, 1.6449712e+2, -1536851.6, -1449294.1, -28810.264, 0.01563213, -0.01095884, -1440664.8, -112738.984, 0.000029160963, 9.998564, 9.999813 
1.375017e+3, 1.7449664e+2, -1434810.0, -1338714.8, -9869.807, 0.0584571, -0.07547288, -1337711.5, -107776.81, 0.000000027808229, 9.998558, 9.999897 
1.375042e+3, 1.8449733e+2, -1256667.6, -1155301.6, -58600.65, 0.035847, -0.0022816055, -1128506.9, 3422.4944, 0.0, 9.998945, 10.000272 
1.3750659e+3, 1.94499e+2, -1022555.5, -978915.25, -27608.54, -0.018702317, 0.09617738, -965545.2, 68365.51, 0.0, 9.999823, 10.000388 
1.3750905e+3, 2.0449895e+2, -973855.44, -1086128.0, -28900.107, -0.056700878, 0.14023949, -966853.0, -30942.357, 0.0, 10.000243, 9.99879 
1.3751154e+3, 2.144966e+2, -903394.06, -997308.3, -29490.432, -0.06678032, -0.007613766, -894901.56, -56966.48, 0.0, 10.000041, 9.998821 
1.3751408e+3, 2.2449514e+2, -826437.44, -935760.1, -42490.26, -0.017960578, -0.008702366, -811865.25, -71914.87, 0.0, 10.000038, 9.998561 
1.375167e+3, 2.3449454e+2, -688652.4, -807481.8, -2460.0535, 0.10414698, 0.033651378, -688601.44, -46644.54, 0.0, 10.000262, 9.998659 
1.3751926e+3, 2.4449314e+2, -577581.4, -805642.6, 600.9056, 0.10266828, 0.08538182, -577579.75, -33608.86, 0.0, 10.000764, 9.997772 
1.3752168e+3, 2.5449067e+2, -351374.16, -630669.56, -6591.3555, -0.048123732, 0.016099075, -351218.7, 94776.76, 0.0, 10.001593, 9.997897 
1.3752422e+3, 2.6448902e+2, -218016.73, -501319.2, -72461.48, -0.043286446, 0.06803657, -200558.78, 147453.1, 0.000000022673568, 10.001772, 9.998024 
1.3752688e+3, 2.7448794e+2, -196926.11, -420725.28, -53060.516, 0.14847517, 0.11292522, -184983.31, 65039.21, 0.0000066245593, 10.00117, 9.998187 
1.3752946e+3, 2.8448614e+2, -105142.53, -400202.56, 876.0821, 0.16802885, 0.15554707, -105139.93, 46899.94, 0.00008473701, 10.001444, 9.997518 
1.3753194e+3, 2.944833e+2, 182015.66, -192435.31, 21462.666, -0.007411391, 0.069077276, 183241.83, 237308.16, 0.00038290335, 10.002655, 9.997691 
1.3753437e+3, 3.0448058e+2, 349536.03, -25235.455, -86329.13, -0.12033148, 0.011909751, 368465.9, 368465.9, 0.0010283956, 10.003227, 9.998241 
1.3753688e+3, 3.1447878e+2, 263099.03, 24182.916, -6192.29, 0.04461036, -0.03634383, 263259.4, 263259.4, 0.0019973381, 10.002163, 9.999099 
1.3848847e+3, 1.2446804e+2, -2076921.5, -1828770.9, -19143.787, -0.027588744, -0.012167988, -1827302.6, -107087.53, 0.008351057, 9.997188, 10.000548 
1.384911e+3, 1.3446942e+2, -1888861.3, -1791435.9, -115205.766, 0.12217055, 0.14891185, -1715067.4, -92859.46, 0.004803759, 9.9983015, 9.999607 
1.3849339e+3, 1.444701e+2, -1648777.5, -1467173.3, 15551.612, -0.12451034, 0.19743055, -1465851.1, 58350.215, 0.0019753822, 9.998559, 10.001029 
1.3849624e+3, 1.5447016e+2, -1485414.9, -1318381.1, -9106.581, -0.011785732, 0.049161106, -1317886.1, 108306.7, 0.00045665295, 9.998945, 10.001183 
1.3849899e+3, 1.6447012e+2, -1496126.1, -1425842.5, -72765.96, 0.08406743, 0.007489968, -1380176.9, -51985.64, 0.00003186285, 9.998869, 9.999806 
1.3850155e+3, 1.7446996e+2, -1474556.0, -1354331.9, -106282.375, 0.08116295, -0.028562313, -1292339.9, -62141.44, 0.000000039188958, 9.998303, 9.999896 
1.3850406e+3, 1.8447062e+2, -1332973.6, -1166023.1, -93671.79, 0.046674352, 0.03237959, -1124029.1, 8163.3203, 0.0, 9.99828, 10.000539 
1.3850655e+3, 1.9447209e+2, -1095487.9, -972584.8, -95691.086, -0.007329021, 0.07606675, -920312.7, 113860.36, 0.0, 9.999129, 10.0007715 
1.3850905e+3, 2.04472e+2, -1060637.4, -1121729.6, -78877.95, -0.037647825, 0.09297653, -1006597.44, -70424.95, 0.0, 9.999629, 9.998833 
1.3851155e+3, 2.1446978e+2, -928610.94, -1002147.25, -78125.82, -0.036399364, -0.04738811, -879033.6, -40836.074, 0.0, 9.99984, 9.998878 
1.3851412e+3, 2.2446889e+2, -769042.94, -873281.25, -27213.584, 0.016601091, -0.011650492, -762365.94, -22157.816, 0.0, 10.000258, 9.998895 
1.385168e+3, 2.344694e+2, -536638.4, -693500.44, -35589.65, 0.12878212, 0.10814051, -528941.3, 113262.21, 0.0, 10.001111, 9.999042 
1.3851939e+3, 2.4446832e+2, -446609.44, -748004.06, 19389.152, 0.11829695, 0.17191575, -445367.22, 98846.81, 0.0, 10.001694, 9.997712 
1.3852184e+3, 2.5446507e+2, -292410.88, -613713.2, 20083.621, -0.05400761, 0.037581842, -291160.38, 155084.58, 0.0, 10.002035, 9.9978 
1.385244e+3, 2.6446268e+2, -152188.58, -493316.97, -26713.486, -0.05051613, 0.027901212, -150109.34, 198158.6, 0.0000000049794013, 10.002324, 9.997815 
1.3852708e+3, 2.7446097e+2, 10570.614, -347289.06, -69831.46, 0.16154952, 0.030304959, 23714.512, 273998.66, 0.0000064670485, 10.002685, 9.997973 
1.3852967e+3, 2.8445908e+2, 61184.285, -326173.44, 22264.486, 0.20096476, 0.08091589, 62459.797, 214761.77, 0.00007994395, 10.0026045, 9.997483 
1.3853222e+3, 2.944567e+2, 120544.586, -212603.28, 9372.167, 0.039329138, 0.04114622, 120808.04, 175132.5, 0.00035496187, 10.002188, 9.997779 
1.385347e+3, 3.0445346e+2, 236582.44, -93937.76, -106248.82, -0.05692282, -0.0652502, 267790.44, 267790.44, 0.00095268304, 10.002501, 9.998119 
1.3853721e+3, 3.144515e+2, 449689.63, 113491.41, -146091.38, 0.09500743, -0.11960221, 504301.1, 504301.1, 0.001860375, 10.003419, 9.999107 
1.3948826e+3, 1.2444054e+2, -2038933.3, -1733397.9, -26610.27, -0.011871679, 0.11686756, -1731097.6, -10607.798, 0.008733579, 9.997142, 10.001211 
1.394907e+3, 1.3444164e+2, -1792053.9, -1586606.5, -77241.26, -0.13447386, 0.10584919, -1560806.4, 61672.918, 0.005033633, 9.998288, 10.001015 
1.3949345e+3, 1.4444236e+2, -1680328.5, -1538392.9, 1618.9894, 0.04638288, 0.11035942, -1538374.4, -13904.0625, 0.002076125, 9.998585, 10.000526 
1.394962e+3, 1.5444237e+2, -1530629.0, -1407162.1, 22894.127, 0.017029537, 0.015365821, -1403053.6, 23411.996, 0.00048381835, 9.998921, 10.000586 
1.3949887e+3, 1.6444266e+2, -1514171.5, -1463813.6, -113043.21, 0.032681245, 0.048160594, -1373179.1, -44715.965, 0.000034571214, 9.998871, 9.999546 
1.3950138e+3, 1.7444314e+2, -1507035.5, -1403920.6, -116054.37, 0.052243233, 0.10785981, -1328486.8, -98021.53, 0.00000005013657, 9.998227, 9.999595 
1.3950387e+3, 1.8444324e+2, -1314722.1, -1117189.4, -86278.81, -0.0036470098, 0.11152236, -1084811.5, 47652.44, 0.0, 9.998236, 10.000893 
1.3950637e+3, 1.9444261e+2, -1090567.3, -931982.06, -49854.945, -0.113027655, -0.08902019, -917611.25, 116849.42, 0.0, 9.998995, 10.00112 
1.3950896e+3, 2.0444255e+2, -1046222.3, -1056220.4, -87635.22, -0.108297974, -0.11183445, -963443.7, -26985.477, 0.0, 9.999475, 9.999353 
1.3951162e+3, 2.14443e+2, -928220.9, -945464.7, -57342.156, 0.03574137, -0.036071524, -878856.06, -40397.547, 0.0, 9.999606, 9.999376 
1.3951422e+3, 2.2444321e+2, -779399.5, -855886.5, -13550.693, 0.06957752, 0.0725088, -777069.75, -36610.79, 0.0, 10.000073, 9.999107 
1.3951679e+3, 2.3444293e+2, -554090.1, -682388.3, 13732.358, -0.019572627, 0.08966912, -552636.75, 89824.836, 0.0, 10.000894, 9.999227 
1.3951941e+3, 2.4444175e+2, -451107.38, -696748.56, 14547.644, -0.042417724, 0.109117396, -450248.8, 94222.586, 0.0, 10.001438, 9.998186 
1.3952215e+3, 2.54439e+2, -305519.94, -568940.25, 48231.535, 0.02030401, -0.020727878, -296966.6, 149527.53, 0.0, 10.001739, 9.998244 
1.3952471e+3, 2.644361e+2, -223243.83, -591348.7, -30893.527, 0.010857193, -0.07453861, -220669.08, 127851.234, 0.0000000011462398, 10.002104, 9.9972515 
1.3952713e+3, 2.7443293e+2, -67221.305, -454996.53, -37796.688, -0.07769868, -0.16216344, -63571.59, 186979.98, 0.0000063015364, 10.002445, 9.997354 
1.395297e+3, 2.844306e+2, 25614.607, -347448.22, -10388.769, -0.059522912, -0.11680528, 25903.684, 178477.53, 0.000075522126, 10.002384, 9.997438 
1.3953252e+3, 2.9442877e+2, 75180.12, -243206.97, 16173.208, 0.09753847, -0.0976607, 75999.57, 130590.73, 0.00033164787, 10.001922, 9.997695 
1.3953511e+3, 3.0442542e+2, 143458.42, -242174.72, -90716.65, 0.08541149, -0.16908221, 163732.78, 163732.78, 0.0008920203, 10.002301, 9.997199 
1.3953744e+3, 3.144238e+2, 346521.6, 7487.0127, -55694.688, -0.075729914, -0.09967534, 355436.4, 355436.4, 0.0017485601, 10.00297, 9.998592 
1.4048824e+3, 1.2441336e+2, -1911018.9, -1669972.6, 49427.016, 0.2224057, 0.15031499, -1660231.3, 60524.31, 0.009133226, 9.997965, 10.001263 
1.4049053e+3, 1.3441391e+2, -1660363.6, -1479582.5, -35636.02, -0.14426786, 0.038954504, -1472811.5, 149935.84, 0.005275387, 9.998968, 10.001434 
1.4049348e+3, 1.4441442e+2, -1608081.0, -1534900.8, 20422.955, 0.18466285, 0.010498306, -1529587.0, -4846.9883, 0.0021822979, 9.999228, 10.000233 
1.4049609e+3, 1.5441458e+2, -1562407.8, -1463683.3, 14042.892, 0.03353782, -0.03141705, -1461724.6, -34987.934, 0.00051218417, 9.998892, 10.000206 
1.4049871e+3, 1.6441503e+2, -1520465.4, -1465198.6, -63537.133, 0.0065459437, 0.037876174, -1423545.9, -94812.1, 0.000037386584, 9.998809, 9.999568 
1.4050132e+3, 1.7441577e+2, -1322418.6, -1299477.3, -71836.625, 0.11771552, 0.10729631, -1238201.3, -7469.196, 0.00000006103049, 9.999424, 9.999729 
1.4050384e+3, 1.844158e+2, -1140781.5, -1053571.9, -190.79694, 0.0868565, 0.104263864, -1053571.5, 79159.836, 0.0, 9.999525, 10.000705 
1.4050627e+3, 1.9441475e+2, -1086345.3, -949231.2, -42039.492, -0.11280162, -0.12266455, -937368.2, 97365.445, 0.0, 9.999109, 10.000946 
1.4050888e+3, 2.0441471e+2, -1059732.5, -1043619.8, -62747.14, -0.1250225, -0.14316775, -988413.94, -51682.91, 0.0, 9.999292, 9.99954 
1.4051166e+3, 2.144157e+2, -786336.44, -846912.25, -84989.695, 0.08372444, -0.034020156, -726399.06, 112325.336, 0.0, 10.000451, 9.99965 
1.4051431e+3, 2.2441584e+2, -670243.25, -831111.2, -46020.016, 0.12314151, 0.067231245, -658008.6, 82716.445, 0.0, 10.000961, 9.998842 
1.4051682e+3, 2.3441468e+2, -599311.8, -729552.1, -91063.3, -0.046026852, 0.025366098, -552480.4, 90256.805, 0.0, 10.000705, 9.998986 
1.405195e+3, 2.4441333e+2, -530093.8, -687485.2, -74549.51, -0.05171908, 0.022094341, -500389.13, 44359.023, 0.0, 10.000686, 9.998615 
1.4052238e+3, 2.5441143e+2, -371411.1, -540089.9, -69550.836, 0.13152279, -0.07144504, -346432.34, 100328.2, 0.0, 10.001032, 9.998778 
1.4052501e+3, 2.644089e+2, -311330.0, -655297.7, -87692.484, 0.13781606, -0.11085446, -290263.53, 58519.8, 0.0000000047036606, 10.001598, 9.997054 
1.4052737e+3, 2.7440548e+2, -71321.36, -477059.1, -113978.164, -0.07034456, -0.1904523, -41495.574, 209323.06, 0.000006310061, 10.00253, 9.99715 
1.405299e+3, 2.8440323e+2, 98113.54, -304170.22, -71566.97, -0.09766813, -0.13288066, 110466.125, 263307.6, 0.00007178299, 10.002837, 9.997516 
1.4053273e+3, 2.9440165e+2, 126864.13, -211148.7, -69256.64, 0.10610471, -0.10064514, 140503.97, 195360.22, 0.0003183702, 10.002237, 9.997768 
1.4053538e+3, 3.0439833e+2, 153610.81, -269875.13, -49753.39, 0.14425474, -0.15331174, 159377.58, 159377.58, 0.0008620041, 10.00252, 9.996898 
1.4053783e+3, 3.1439626e+2, 510140.56, 103622.74, -39126.434, -0.015330173, -0.0969215, 513872.13, 513872.13, 0.0016920328, 10.004013, 9.998755 
1.4148785e+3, 1.24386206e+2, -1930385.3, -1716674.1, -213715.31, -0.03836574, 0.027969884, -1584589.6, 136425.27, 0.009556688, 9.997995, 10.0009365 
1.4149056e+3, 1.343864e+2, -1705039.4, -1563350.3, 19265.379, -0.03688929, -0.056189813, -1560777.5, 62232.586, 0.0055341963, 9.998938, 10.000874 
1.4149337e+3, 1.4438623e+2, -1613466.6, -1554303.4, -13694.933, 0.1145929, -0.1206048, -1551287.0, -26276.47, 0.0022969088, 9.999262, 10.000083 
1.4149588e+3, 1.5438676e+2, -1583091.5, -1503709.5, 14243.612, -0.090422645, -0.09880485, -1501231.1, -74224.44, 0.0005425403, 9.998878, 9.99994 
1.4149849e+3, 1.6438739e+2, -1479082.0, -1385614.1, -65958.55, -0.1307462, -0.02190405, -1351511.3, -22509.418, 0.000040406845, 9.998833, 10.000109 
1.4150131e+3, 1.7438807e+2, -1293485.1, -1221332.1, -33596.934, 0.14453383, -0.012889193, -1208110.9, 22886.002, 0.00000007226826, 9.999344, 10.000312 
1.415039e+3, 1.843885e+2, -1198421.5, -1157372.0, -31471.684, 0.17139988, 0.026590966, -1140323.8, -7330.8853, 0.0, 9.999463, 10.000017 
1.4150618e+3, 1.9438837e+2, -1161723.6, -1078592.6, -44669.85, -0.13566881, -0.027119566, -1059141.1, -24148.36, 0.0, 9.998995, 10.000112 
1.4150873e+3, 2.0438829e+2, -1080597.6, -1058990.0, -45455.402, -0.22014703, -0.0065310425, -1023072.1, -86079.766, 0.0, 9.999164, 9.999497 
1.4151163e+3, 2.1438795e+2, -822204.06, -869565.8, -26989.328, -0.006114105, -0.028581353, -809979.4, 29014.941, 0.0, 10.000219, 9.999611 
1.4151436e+3, 2.2438687e+2, -753716.1, -947116.3, -72164.22, 0.052009683, -0.018538345, -729757.25, 11248.417, 0.0, 10.000718, 9.998159 
1.4151686e+3, 2.3438464e+2, -693310.0, -863717.25, -85377.88, -0.082862884, -0.090973035, -657894.25, -14863.765, 0.0, 10.000448, 9.998186 
1.4151958e+3, 2.4438326e+2, -523954.6, -631471.2, -76676.81, -0.06776839, -0.07665355, -484068.4, 60974.242, 0.0, 10.000489, 9.999095 
1.4152251e+3, 2.543826e+2, -355245.88, -469908.84, -38767.76, 0.14296266, -0.10535317, -343368.72, 103673.15, 0.0, 10.000866, 9.999343 
1.4152525e+3, 2.643811e+2, -337711.1, -664410.1, -72137.484, 0.19272943, -0.07008854, -322491.63, 26563.535, 0.000000079284355, 10.001407, 9.997082 
1.4152773e+3, 2.743784e+2, -116435.39, -507419.84, -56229.53, 0.02652793, -0.08070076, -108509.4, 142578.25, 0.000007370644, 10.002258, 9.997074 
1.4153023e+3, 2.8437656e+2, 91137.74, -267975.66, -104685.25, -0.08323096, 0.005714668, 119426.195, 272534.34, 0.00007207351, 10.002615, 9.9978695 
1.415328e+3, 2.943751e+2, 113693.19, -184811.78, -66728.97, -0.07507426, 0.010584012, 127930.945, 183051.52, 0.00031938194, 10.001994, 9.998072 
1.4153549e+3, 3.0437192e+2, 115041.93, -285469.53, -8942.095, -0.021755407, -0.040016387, 115241.484, 115241.484, 0.00086451345, 10.002267, 9.996894 
1.4153829e+3, 3.1436887e+2, 457268.97, 124030.3, 66037.97, 0.00050926855, -0.09425863, 469878.56, 469878.56, 0.0016914787, 10.003491, 9.9991255 
1.4248766e+3, 1.24359146e+2, -1727775.0, -1645025.6, -231875.84, -0.09165937, -0.070875384, -1450862.1, 270415.3, 0.010011913, 9.999534, 10.00069 
1.4249061e+3, 1.3435932e+2, -1829607.9, -1696682.4, -20431.38, 0.15742868, -0.080440916, -1693612.9, -70339.46, 0.0058154534, 9.998441, 10.000189 
1.4249316e+3, 1.4435907e+2, -1741044.3, -1612844.0, 5580.283, 0.029670224, -0.1195129, -1612601.5, -87326.35, 0.002423067, 9.998382, 10.000101 
1.4249584e+3, 1.5435947e+2, -1505912.8, -1460481.5, 12530.823, -0.044678584, -0.114056475, -1457254.5, -29981.98, 0.00057589856, 9.999391, 9.999979 
1.424985e+3, 1.6436005e+2, -1347101.5, -1307778.4, -38449.836, -0.06334918, -0.053931445, -1284254.6, 45012.957, 0.00004378684, 9.99967, 10.000234 
1.4250122e+3, 1.7436069e+2, -1279552.6, -1198542.3, -75792.914, 0.13550608, -0.064990014, -1153110.0, 78151.04, 0.00000008454083, 9.999359, 10.000458 
1.4250383e+3, 1.8436104e+2, -1248995.3, -1255423.3, -54019.41, 0.17237054, -0.0118653085, -1198094.3, -64835.87, 0.0, 9.999426, 9.999364 
1.4250621e+3, 1.9436091e+2, -1038337.75, -1091734.9, -89313.695, -0.048387285, 0.0040798155, -971817.5, 63444.508, 0.0, 10.00016, 9.9994545 
1.425088e+3, 2.0436057e+2, -868578.75, -990582.7, -34956.88, -0.13618563, 0.04917102, -859272.6, 77993.16, 0.0, 10.000763, 9.999193 
1.4251165e+3, 2.1435957e+2, -684496.6, -836668.5, -70358.35, -0.04176296, -0.012264689, -656951.7, 182322.0, 0.0, 10.001289, 9.999325 
1.4251442e+3, 2.2435808e+2, -666015.8, -920786.0, -113285.664, 0.013779468, -0.020991977, -622929.25, 118359.15, 0.0, 10.001383, 9.998031 
1.4251703e+3, 2.3435587e+2, -611321.0, -835290.6, -115922.38, 0.00832364, -0.07860583, -562127.0, 81185.7, 0.0, 10.00105, 9.998104 
1.4251976e+3, 2.4435443e+2, -447311.94, -602208.94, -39206.953, 0.051388167, -0.059871405, -437953.44, 107372.29, 0.0, 10.001055, 9.999023 
1.4252265e+3, 2.543537e+2, -242405.56, -423121.2, -82226.42, 0.15432248, -0.090914786, -210592.52, 236734.88, 0.00000000006254562, 10.00167, 9.99928 
1.4252539e+3, 2.6435244e+2, -226826.77, -550413.25, -97157.64, 0.17725255, -0.0514501, -199896.23, 149442.13, 0.00000036239143, 10.001899, 9.997624 
1.4252798e+3, 2.7435055e+2, -165069.11, -459280.22, -69968.67, 0.08786002, -0.041156616, -149276.97, 102084.336, 0.000010087366, 10.001608, 9.997712 
1.4253053e+3, 2.8434908e+2, -32334.223, -317505.8, -66378.81, 0.0013708806, 0.04336592, -17640.47, 135737.56, 0.00007872079, 10.001725, 9.997966 
1.4253305e+3, 2.9434755e+2, 206473.0, -128919.11, -106230.76, -0.0375252, 0.036571935, 237288.77, 292681.6, 0.00033516844, 10.002591, 9.998164 
1.425358e+3, 3.0434486e+2, 240986.78, -229173.86, 390.818, 0.029887373, 0.025854269, 240987.11, 240987.11, 0.0008965645, 10.003107, 9.996902 
1.4253867e+3, 3.1434104e+2, 379391.4, 94784.74, 23637.666, 0.07382226, -0.108080134, 381341.25, 381341.25, 0.0017444047, 10.002875, 9.999244 
1.4348768e+3, 1.2433349e+2, -1723788.5, -1656792.6, -96696.84, -0.11432222, -0.029161505, -1587955.9, 133574.22, 0.010506618, 9.999592, 10.00058 
1.4349064e+3, 1.3433291e+2, -1901362.9, -1839382.6, -39542.195, 0.3111266, -0.02094396, -1820133.6, -196598.5, 0.006123269, 9.998414, 9.999214 
1.4349277e+3, 1.4433311e+2, -1709986.8, -1559314.6, 21990.111, -0.23608334, 0.014995791, -1556170.9, -30638.729, 0.002563054, 9.99842, 10.000458 
1.4349589e+3, 1.5433298e+2, -1485618.9, -1411145.1, 67336.625, 0.03272341, -0.07070575, -1371435.3, 56096.81, 0.0006133788, 9.9993515, 10.000344 
1.4349861e+3, 1.643331e+2, -1370801.4, -1353597.1, -69469.125, 0.056831148, -0.058568962, -1292199.6, 37330.402, 0.000047750204, 9.999659, 9.999926 
1.4350103e+3, 1.7433338e+2, -1310750.6, -1258309.9, -75299.86, -0.036844943, -0.0663979, -1204795.9, 26731.096, 0.00000010052836, 9.999331, 10.000066 
1.4350359e+3, 1.843333e+2, -1290661.8, -1329616.8, -50401.137, -0.0454028, -0.01283479, -1256105.5, -122576.42, 0.0, 9.999375, 9.998878 
1.4350632e+3, 1.943325e+2, -1093129.4, -1177405.6, -46510.13, 0.0107642375, -0.01595644, -1072507.5, -36967.24, 0.0, 10.000037, 9.998928 
1.4350902e+3, 2.043317e+2, -927964.56, -1079129.6, -33865.742, -0.030294728, 0.03440928, -920724.4, 16825.887, 0.0, 10.000609, 9.998657 
1.435117e+3, 2.1433057e+2, -760131.1, -941392.4, -34388.184, -0.15830332, 0.016595878, -753826.4, 85735.24, 0.0, 10.001057, 9.998718 
1.4351444e+3, 2.2432952e+2, -676562.9, -879674.44, -138865.3, -0.13149989, 0.06613688, -606080.44, 135492.0, 0.0, 10.001121, 9.998434 
1.4351724e+3, 2.3432834e+2, -616536.9, -783473.8, -109642.664, 0.09625999, 0.06448941, -562206.56, 81377.37, 0.0, 10.000793, 9.998578 
1.4352001e+3, 2.4432676e+2, -523577.72, -708354.3, -37357.06, 0.16641651, 0.070600465, -516310.88, 29287.79, 0.0, 10.000825, 9.998408 
1.4352272e+3, 2.5432447e+2, -337397.28, -549863.3, -40147.496, 0.04134873, -0.045590322, -330064.13, 117554.96, 0.000000006122379, 10.001369, 9.998553 
1.435254e+3, 2.6432294e+2, -180361.42, -400191.78, -118984.12, -0.027569056, -0.049341127, -128293.375, 221338.97, 0.0000008787704, 10.00166, 9.998776 
1.4352806e+3, 2.7432215e+2, -105433.51, -290767.13, -59892.117, -0.016707104, -0.054634687, -87763.55, 163875.27, 0.000014147242, 10.00141, 9.998976 
1.4353073e+3, 2.8432098e+2, -76018.73, -365382.34, -54705.79, 0.0036357762, 0.004355747, -66021.68, 87629.16, 0.000090681104, 10.001538, 9.997725 
1.4353342e+3, 2.9431894e+2, 130500.96, -224191.47, -49141.07, 0.04605334, -0.01812329, 137183.34, 192857.75, 0.0003647409, 10.00231, 9.997652 
1.4353622e+3, 3.0431703e+2, 221573.45, -200531.13, -20659.889, 0.12145917, 0.06967359, 222582.23, 222582.23, 0.0009617202, 10.00284, 9.997214 
1.4353888e+3, 3.1431308e+2, 318015.88, 75051.48, 62002.37, -0.052670382, -0.114574105, 332923.63, 332923.63, 0.001861219, 10.002424, 9.999326 
1.444875e+3, 1.2430574e+2, -1900523.0, -1725047.3, -7674.396, -0.15439473, -0.009149082, -1724712.3, -2910.7256, 0.011047917, 9.998283, 10.000737 
1.4449051e+3, 1.3430521e+2, -1782814.6, -1773502.1, -107335.125, 0.31898034, -0.013732307, -1670722.3, -46915.832, 0.00646129, 9.999172, 9.999298 
1.4449266e+3, 1.4430575e+2, -1598431.4, -1515653.8, 16095.402, -0.23453434, 0.062364552, -1512634.3, 13166.112, 0.0027186894, 9.999245, 10.000344 
1.4449582e+3, 1.5430519e+2, -1644769.0, -1492716.8, -23950.914, 0.09526677, -0.061981887, -1489033.3, -61228.15, 0.0006559602, 9.998289, 10.000291 
1.4449856e+3, 1.643051e+2, -1572742.0, -1449963.3, -104636.805, 0.12969978, -0.06664825, -1390036.9, -60231.855, 0.000052490832, 9.99828, 9.999928 
1.4450097e+3, 1.7430554e+2, -1210939.0, -1199908.4, -109391.305, -0.053600036, -0.062421393, -1095893.5, 135906.33, 0.00000012546444, 9.999998, 10.000135 
1.4450356e+3, 1.843053e+2, -1082319.8, -1256692.3, -38085.266, -0.07218389, -0.018197542, -1074364.4, 59438.39, 0.0, 10.000902, 9.998652 
1.445064e+3, 1.9430391e+2, -1003108.8, -1157754.8, -48483.316, 0.061916377, -0.058360033, -989165.8, 46653.277, 0.0, 10.000745, 9.998722 
1.4450914e+3, 2.0430276e+2, -934398.5, -1113688.4, 18064.662, 0.038148556, -0.0165774, -932596.44, 5236.2783, 0.0, 10.000722, 9.9983635 
1.4451179e+3, 2.1430174e+2, -786265.3, -976607.4, 740.72363, -0.15741947, 0.004304137, -786262.44, 53582.39, 0.0, 10.001011, 9.998488 
1.4451455e+3, 2.2430083e+2, -637682.1, -854026.56, -80060.83, -0.13335209, 0.07812205, -611277.4, 130577.09, 0.0, 10.00134, 9.998511 
1.4451742e+3, 2.3429978e+2, -475967.53, -702115.6, -108727.27, 0.16449475, 0.074071504, -432174.25, 211689.3, 0.0, 10.001681, 9.99871 
1.445202e+3, 2.4429819e+2, -451616.03, -688735.9, -8117.421, 0.24886557, 0.07767998, -451338.47, 94539.78, 0.0, 10.0013895, 9.998268 
1.445228e+3, 2.5429568e+2, -479993.7, -638988.1, -5648.016, 0.052203234, -0.043724015, -479793.28, -31890.656, 0.000000012932129, 10.000456, 9.998391 
1.4452548e+3, 2.6429418e+2, -342663.34, -433594.0, -28626.115, -0.041446973, -0.051705055, -334402.06, 15513.484, 0.0000016431604, 10.00036, 9.999174 
1.4452821e+3, 2.7429384e+2, -57224.797, -214925.83, -69507.98, -0.004989165, -0.057056922, -30962.217, 220953.8, 0.000019343763, 10.001523, 9.999435 
1.4453095e+3, 2.842926e+2, 7453.017, -345212.94, -59097.81, 0.04130695, -0.021512939, 17092.807, 171020.98, 0.00010742439, 10.002196, 9.997541 
1.4453371e+3, 2.942902e+2, 94624.75, -257331.92, -73006.98, 0.12343678, -0.05955838, 109167.78, 165123.81, 0.0004102239, 10.00214, 9.997491 
1.4453657e+3, 3.0428883e+2, 191440.19, -198627.14, 11993.342, 0.2190734, 0.08242784, 191808.61, 191808.61, 0.001066146, 10.002548, 9.997382 
1.4453925e+3, 3.1428573e+2, 455217.13, 124062.63, -8504.723, 0.031443235, -0.039399307, 455435.4, 455435.4, 0.0020519032, 10.003462, 9.999151 
1.4548759e+3, 1.2427553e+2, -1876821.6, -1693490.1, 118161.76, 0.013953648, -0.07925547, -1635607.3, 86487.875, 0.011640448, 9.998349, 10.000933 
1.4549017e+3, 1.3427633e+2, -1713628.4, -1617555.1, -53605.56, 0.04303422, -0.067663275, -1593612.1, 30473.885, 0.0068325973, 9.999114, 10.000402 
1.4549272e+3, 1.442772e+2, -1644180.0, -1614332.8, -31314.482, -0.13779268, 0.022540318, -1594567.6, -68489.484, 0.0028915813, 9.999263, 9.999655 
1.4549558e+3, 1.5427604e+2, -1694622.1, -1587840.5, -47684.676, -0.003180444, -0.096533574, -1569646.4, -141554.11, 0.00070428615, 9.998257, 9.999651 
1.4549832e+3, 1.6427608e+2, -1538115.3, -1384674.0, -71959.56, 0.008381664, -0.07554479, -1356208.0, -26115.438, 0.000058062662, 9.998303, 10.000366 
1.45501e+3, 1.7427726e+2, -1184597.9, -1133110.0, -28563.629, -0.045262814, -0.047182363, -1120401.0, 111677.64, 0.00000016567238, 9.999944, 10.000622 
1.4550371e+3, 1.842771e+2, -1082363.3, -1246389.6, -56112.594, -0.050860647, -0.02535359, -1065004.5, 69074.52, 0.0, 10.000855, 9.998748 
1.4550641e+3, 1.9427511e+2, -1019575.75, -1163970.6, -39194.227, -0.02055338, -0.12586164, -1009622.94, 26476.031, 0.0, 10.000617, 9.99875 
1.4550912e+3, 2.0427376e+2, -968075.44, -1138283.1, 8548.214, -0.063360825, -0.102872424, -967647.2, -29533.27, 0.0, 10.000536, 9.998281 
1.455119e+3, 2.1427293e+2, -828599.5, -1006925.2, 27543.074, -0.17321807, -0.054248847, -824442.25, 15682.617, 0.0, 10.00077, 9.998396 
1.455147e+3, 2.2427185e+2, -679682.4, -883694.44, -83282.29, -0.13810728, 0.010197685, -650002.5, 92134.07, 0.0, 10.001093, 9.998426 
1.4551753e+3, 2.3427026e+2, -530764.25, -742323.1, -77398.39, 0.083502136, -0.03432154, -505471.94, 138678.64, 0.0, 10.001372, 9.998582 
1.4552027e+3, 2.4426886e+2, -464165.8, -661475.56, -54063.43, 0.15877494, -0.018755553, -450323.4, 95840.06, 0.0, 10.00115, 9.998576 
1.4552286e+3, 2.5426745e+2, -478587.2, -601017.1, -21535.385, 0.048842717, -0.064943105, -474909.6, -26732.236, 0.000000017460069, 10.000299, 9.998732 
1.4552556e+3, 2.6426637e+2, -387798.75, -495986.3, -6468.8604, -0.020578546, -0.03706148, -387413.3, -37225.79, 0.000002726617, 10.000222, 9.99881 
1.4552836e+3, 2.7426544e+2, -125411.484, -295740.28, -7372.3857, -0.031860795, -0.057694808, -125092.98, 127102.13, 0.000025176965, 10.0012665, 9.998999 
1.4553113e+3, 2.8426388e+2, -29634.99, -355138.13, -75182.53, -0.018770954, -0.033886455, -13108.88, 141102.03, 0.00012773139, 10.001913, 9.997609 
1.4553387e+3, 2.942614e+2, 72762.55, -252340.17, -50765.754, 0.0486575, -0.09366443, 80505.36, 136743.61, 0.00046808438, 10.001919, 9.997638 
1.4553681e+3, 3.0426037e+2, 155193.92, -222937.64, 32156.283, 0.18055864, 0.07487259, 157908.98, 157908.98, 0.00120209, 10.00233, 9.997319 
1.4553966e+3, 3.1425855e+2, 321738.88, -42851.035, 65482.742, 0.044264905, 0.095709495, 333143.28, 333143.28, 0.0023053363, 10.00298, 9.99824 
1.4648761e+3, 1.2424639e+2, -1942461.6, -1727529.4, 176613.78, 0.25717786, -0.06420008, -1628255.5, 94124.664, 0.012283002, 9.997925, 10.000904 
1.4648995e+3, 1.3424723e+2, -1802689.8, -1604969.0, -99344.48, -0.03523491, -0.09800485, -1563677.0, 60694.66, 0.00723705, 9.998286, 10.00088 
1.4649273e+3, 1.4424822e+2, -1791596.6, -1686001.0, -47106.25, 0.019238982, -0.014230451, -1668041.4, -141678.48, 0.0030819494, 9.998229, 9.999679 
1.4649542e+3, 1.5424757e+2, -1562161.1, -1504006.3, -42175.676, -0.012120477, -0.09730709, -1481856.0, -53483.707, 0.0007585455, 9.99906, 9.999849 
1.4649816e+3, 1.6424794e+2, -1383981.9, -1330071.1, 17209.682, -0.022964956, -0.048754122, -1325045.9, 5324.23, 0.00006440502, 9.999436, 10.000194 
1.4650099e+3, 1.7424907e+2, -1270716.6, -1199826.6, -25806.055, -0.01209814, -0.00522372, -1191427.5, 40930.688, 0.00000022299002, 9.999439, 10.00041 
1.4650378e+3, 1.8424898e+2, -1268719.8, -1299797.1, -68895.516, 0.0041982885, 0.02245665, -1213632.4, -79274.07, 0.0, 9.999463, 9.999032 
1.4650646e+3, 1.942473e+2, -1105498.4, -1161150.9, -70310.62, 0.013494041, -0.08358272, -1057707.9, -21334.4, 0.0, 9.999872, 9.999109 
1.465092e+3, 2.0424598e+2, -986444.0, -1130932.0, 44696.008, -0.017267697, -0.08035066, -973735.44, -35349.203, 0.0, 10.0003195, 9.998447 
1.4651205e+3, 2.1424498e+2, -791305.9, -967735.5, 58138.668, -0.09402456, -0.06754855, -773870.56, 66526.99, 0.0, 10.00092, 9.998599 
1.4651486e+3, 2.242438e+2, -672364.0, -872335.25, -17511.164, -0.06740136, -0.026742132, -670842.2, 71567.164, 0.0, 10.001129, 9.998478 
1.4651763e+3, 2.3424213e+2, -580058.5, -761692.2, -41510.645, 0.0911783, -0.08434532, -571021.3, 73403.06, 0.0, 10.001015, 9.99862 
1.4652036e+3, 2.4424069e+2, -452309.72, -695385.94, 2548.3093, 0.14406683, -0.057715382, -452283.0, 94155.305, 0.0, 10.001405, 9.998219 
1.46523e+3, 2.5423944e+2, -173953.66, -490514.63, -50548.58, 0.043195773, -0.049075235, -166077.97, 282374.06, 0.000000044837254, 10.002565, 9.998388 
1.4652573e+3, 2.642382e+2, -66326.82, -407023.5, -47398.37, 0.010184328, 0.014658935, -59855.582, 290609.8, 0.0000038968087, 10.002713, 9.998225 
1.4652857e+3, 2.742369e+2, -125603.914, -363867.2, -89715.19, 0.066784814, 0.013209264, -95600.84, 156879.44, 0.000030518888, 10.001542, 9.998406 
1.4653136e+3, 2.8423527e+2, -68220.945, -301757.88, -83744.17, 0.06162584, 0.031479705, -41295.426, 113201.26, 0.00014669454, 10.001334, 9.998259 
1.4653404e+3, 2.9423326e+2, 201943.4, -102308.52, -69258.5, -0.010369532, -0.044576116, 216967.22, 273481.5, 0.00052534003, 10.002445, 9.998407 
1.46537e+3, 3.0423212e+2, 250993.44, -172446.33, 59202.066, 0.11638904, 0.06407762, 259114.84, 259114.84, 0.0013448142, 10.002984, 9.9973345 
1.4654008e+3, 3.1423083e+2, 207170.08, -137495.98, 27504.174, 0.2156617, 0.15107656, 209351.1, 209351.1, 0.0025808995, 10.002356, 9.997883 
1.4748724e+3, 1.2421764e+2, -1942999.8, -1733568.5, -61155.004, -0.0030538808, -0.015722413, -1717018.8, 5645.1772, 0.012969953, 9.9979725, 10.000811 
1.4748976e+3, 1.3421787e+2, -1828000.3, -1641465.0, -92534.0, -0.087656066, -0.09068832, -1603350.0, 21313.291, 0.0076708426, 9.998231, 10.000644 
1.4749265e+3, 1.4421873e+2, -1710851.1, -1540174.3, -49981.992, 0.06546978, -0.051963486, -1526614.5, 41.180347, 0.0032881629, 9.998304, 10.000651 
1.474953e+3, 1.5421994e+2, -1492081.0, -1352385.4, 4851.863, -0.06804509, -0.05560183, -1352217.0, 76426.17, 0.00081847684, 9.999028, 10.000911 
1.4749804e+3, 1.6422085e+2, -1429886.8, -1436671.4, 314.77, -0.118811585, 0.025101807, -1429872.1, -99236.56, 0.000071419374, 9.999476, 9.999443 
1.4750087e+3, 1.7422114e+2, -1345636.6, -1339103.1, -11987.587, -0.08997994, 0.07351098, -1329945.1, -97308.36, 0.0000002932695, 9.999374, 9.99948 
1.475037e+3, 1.8422107e+2, -1240423.9, -1243430.5, -74906.57, -0.04718786, 0.13600671, -1167005.5, -32366.799, 0.0, 9.999457, 9.999429 
1.4750649e+3, 1.9422029e+2, -1083360.6, -1094933.3, -40258.58, 0.025193121, 0.068843484, -1048474.6, -11830.757, 0.0, 9.999774, 9.999618 
1.475093e+3, 2.0421931e+2, -969147.56, -1060872.0, 45634.977, 0.02389452, 0.051617425, -950311.25, -11660.225, 0.0, 10.000171, 9.998996 
1.4751218e+3, 2.1421796e+2, -792634.6, -910402.2, 92813.375, -0.06297517, -0.027740544, -741601.94, 99060.15, 0.0, 10.000666, 9.999112 
1.47515e+3, 2.242167e+2, -698299.1, -875590.4, -39353.24, -0.061496176, -0.02486655, -689956.5, 52716.176, 0.0, 10.000894, 9.998578 
1.4751773e+3, 2.3421527e+2, -601750.2, -764559.1, -30258.725, 0.053961426, -0.06772435, -596308.3, 48377.344, 0.0, 10.000822, 9.9987 
1.4752044e+3, 2.442136e+2, -547712.56, -848719.06, 23180.889, 0.051603947, -0.025985489, -545937.8, 765.56335, 0.0, 10.001209, 9.99726 
1.4752313e+3, 2.5421143e+2, -287100.8, -665549.5, 9174.306, -0.09588124, -0.0050030607, -286878.53, 161850.2, 0.000000082863835, 10.002304, 9.997314 
1.4752592e+3, 2.642097e+2, -155075.89, -531389.2, -95622.875, -0.08474474, 0.09698047, -132171.73, 218578.81, 0.0000048986644, 10.00245, 9.997495 
1.4752883e+3, 2.742082e+2, -203659.38, -476981.9, -104767.05, 0.13702291, 0.14161806, -168121.81, 84649.13, 0.00003489947, 10.00133, 9.997727 
1.4753157e+3, 2.842068e+2, -37446.27, -190828.58, -62548.19, 0.11409165, 0.18227924, -15173.746, 139610.27, 0.00016199093, 10.001127, 9.999121 
1.4753409e+3, 2.9420564e+2, 233678.61, 28082.465, -5353.285, -0.22091259, 0.076390736, 233817.89, 290604.97, 0.0005773318, 10.002165, 9.999438 
1.475371e+3, 3.0420378e+2, 220046.17, -168729.33, 25999.094, -0.12036434, 0.05451732, 221777.13, 221777.13, 0.0014793195, 10.002686, 9.997503 
1.4754039e+3, 3.1420234e+2, 162555.05, -131150.06, 49668.184, 0.23838669, 0.10973199, 170727.02, 170727.02, 0.0028372656, 10.001928, 9.998132 
1.4848706e+3, 1.24189295e+2, -1952322.8, -1749307.0, -38965.035, 0.052125946, -0.0006110756, -1742085.3, -19140.46, 0.013700781, 9.997929, 10.000739 
1.4848962e+3, 1.3419002e+2, -1762949.9, -1618997.5, -45503.617, -0.043886866, -0.015333332, -1605820.0, 19120.37, 0.00813248, 9.998672, 10.000606 
1.4849254e+3, 1.4419076e+2, -1660036.6, -1497437.3, 33716.785, 0.11404208, 0.0079822205, -1490722.9, 36210.902, 0.0035089266, 9.998613, 10.000778 
1.4849529e+3, 1.5419206e+2, -1458349.3, -1318570.0, -18661.928, 0.020344032, -0.0012710816, -1316121.3, 112798.16, 0.0008836724, 9.999204, 10.001045 
1.4849806e+3, 1.6419286e+2, -1446411.3, -1446394.4, -24530.777, -0.034822077, 0.064437665, -1421872.0, -90959.78, 0.00007901186, 9.999415, 9.999395 
1.485008e+3, 1.741928e+2, -1335464.4, -1337244.0, -13644.853, -0.091987476, 0.08520758, -1322680.4, -89764.04, 0.00000037325287, 9.999484, 9.999439 
1.4850363e+3, 1.8419257e+2, -1202836.0, -1228883.1, 1856.0745, -0.06306943, 0.13532571, -1202704.4, -67784.79, 0.0, 9.999722, 9.999405 
1.4850654e+3, 1.9419199e+2, -979010.06, -1043618.06, -34484.145, 0.06812877, 0.08806202, -964062.56, 72860.54, 0.0, 10.000479, 9.999631 
1.4850943e+3, 2.0419116e+2, -893209.0, -1004676.06, 28556.348, 0.106060475, 0.07787546, -886319.1, 52609.36, 0.0, 10.00063, 9.999151 
1.4851229e+3, 2.1418989e+2, -871685.94, -924946.5, 10651.363, 0.02465117, -0.008581318, -869634.8, -28697.346, 0.0, 10.000031, 9.999312 
1.485151e+3, 2.2418863e+2, -804426.0, -929253.2, -79045.586, 0.0022352852, -0.014291958, -766123.8, -23176.219, 0.0, 10.000175, 9.998549 
1.4851782e+3, 2.3418733e+2, -502747.16, -719048.7, -110382.91, 0.03344381, -0.038444206, -456363.22, 188597.27, 0.0, 10.001516, 9.998673 
1.4852056e+3, 2.4418564e+2, -407956.5, -767478.3, -6626.735, 0.021870963, -0.001784768, -407834.4, 139143.95, 0.0, 10.002109, 9.997391 
1.4852338e+3, 2.5418332e+2, -367065.72, -684839.8, 28207.178, -0.036288783, -0.008107235, -364581.34, 84422.48, 0.00000011463164, 10.001678, 9.997483 
1.4852619e+3, 2.6418144e+2, -293678.03, -606346.4, -5931.2856, -0.0020957554, 0.07226801, -293565.56, 57460.887, 0.000005857849, 10.001544, 9.997409 
1.4852898e+3, 2.7417985e+2, -137557.08, -459723.9, -23620.81, 0.13866122, 0.12334684, -135834.44, 117213.52, 0.000039275426, 10.001856, 9.997588 
1.485317e+3, 2.841783e+2, 63091.645, -184468.88, 66835.664, 0.10866265, 0.16999157, 79983.195, 235045.98, 0.00017769585, 10.002, 9.998744 
1.4853437e+3, 2.9417664e+2, 163866.77, -54696.895, -6066.699, -0.12893228, 0.0660905, 164035.03, 221104.55, 0.0006303682, 10.001881, 9.999022 
1.485374e+3, 3.0417383e+2, 150730.31, -200350.1, -6517.439, -0.039843302, -0.02971699, 150851.27, 150851.27, 0.0016042597, 10.002173, 9.997545 
1.4854062e+3, 3.1417224e+2, 312871.5, -8679.599, -78865.11, 0.24272276, 0.0019388323, 331172.7, 331172.7, 0.003054721, 10.002744, 9.998576 
1.4948682e+3, 1.2416181e+2, -1909235.6, -1680770.3, -14821.981, -0.057217635, 0.028444635, -1679812.6, 43405.887, 0.014485426, 9.998022, 10.00116 
1.494895e+3, 1.3416421e+2, -1759660.3, -1597739.5, -19550.951, -0.054759152, 0.16414651, -1595412.3, 29784.86, 0.008627366, 9.998621, 10.000771 
1.4949234e+3, 1.4416468e+2, -1693114.8, -1602164.4, 22643.14, -0.0035601018, 0.1818281, -1596839.0, -69645.18, 0.0037456865, 9.998745, 10.000006 
1.4949532e+3, 1.5416418e+2, -1528290.3, -1462986.8, 17400.549, 0.10790301, 0.08689765, -1458639.6, -29440.94, 0.0009542572, 9.99919, 10.000067 
1.4949815e+3, 1.6416411e+2, -1390007.9, -1345236.6, -41249.18, 0.06606519, 0.08766694, -1320690.3, 10508.112, 0.00008722728, 9.999476, 10.000059 
1.4950073e+3, 1.7416401e+2, -1288350.8, -1228306.8, 1746.5591, -0.14487363, 0.029389933, -1228256.0, 4940.9043, 0.0000004647829, 9.999439, 10.000205 
1.495035e+3, 1.8416357e+2, -1230202.3, -1288191.8, 8090.0327, -0.1920235, 0.032676484, -1229094.8, -93894.89, 0.0, 9.999723, 9.999002 
1.4950652e+3, 1.9416253e+2, -1036326.25, -1133437.1, 7367.76, -0.0029119542, -0.009424295, -1035770.44, 1439.3268, 0.0, 10.000351, 9.999079 
1.495095e+3, 2.0416166e+2, -928048.9, -1045725.94, -9020.203, 0.086500034, 0.015703814, -927361.5, 11855.626, 0.0, 10.00049, 9.9989395 
1.4951235e+3, 2.141608e+2, -913301.8, -965907.5, 2396.4592, 0.053902764, -0.011314389, -913192.9, -71969.89, 0.0, 9.999839, 9.999123 
1.4951515e+3, 2.2415973e+2, -846581.7, -971315.0, -51777.813, -0.0046228506, 0.019115387, -827889.5, -84656.805, 0.0, 9.99997, 9.998364 
1.4951785e+3, 2.3415829e+2, -549775.56, -763042.44, -42735.996, -0.10113667, -0.0029471044, -541530.56, 103718.02, 0.0, 10.00128, 9.998487 
1.4952068e+3, 2.4415687e+2, -368996.78, -626042.94, -31679.229, -0.092123754, 0.019630753, -365150.1, 182112.67, 0.0, 10.001845, 9.9984865 
1.4952368e+3, 2.541551e+2, -317723.63, -529252.6, 30386.646, 0.07554836, -0.05613205, -313445.06, 135832.61, 0.00000015644366, 10.001442, 9.998669 
1.4952649e+3, 2.641534e+2, -311219.47, -578567.06, -13956.89, 0.10879978, -0.03733958, -310492.84, 40801.563, 0.000006865855, 10.001275, 9.9977255 
1.4952901e+3, 2.7415165e+2, -158316.5, -443699.7, 5170.861, -0.055628277, -0.023936015, -158222.84, 95091.83, 0.00004412461, 10.001612, 9.997813 
1.4953172e+3, 2.8414947e+2, -68984.73, -410148.84, 45309.477, -0.09699532, 0.018324867, -63069.797, 92266.016, 0.00019465707, 10.001784, 9.9973 
1.4953479e+3, 2.9414645e+2, 22223.979, -299029.9, 20780.852, 0.06602966, -0.0710138, 23562.645, 80923.82, 0.0006807664, 10.001657, 9.997456 
1.4953783e+3, 3.041425e+2, 80729.96, -271349.94, 4610.251, 0.15365157, -0.17896955, 80790.32, 80790.32, 0.0017053906, 10.001868, 9.997199 
1.4954066e+3, 3.1414044e+2, 259362.56, -8482.58, -6149.144, -0.05247291, -0.17653732, 259503.66, 259503.66, 0.0032076885, 10.002267, 9.998807 
1.5048663e+3, 1.2413355e+2, -1868506.0, -1687646.8, 31336.385, -0.053561617, 0.013326633, -1682371.3, 41125.53, 0.015336173, 9.998414, 10.000933 
1.5048942e+3, 1.3413638e+2, -1787930.4, -1628767.0, -70009.19, 0.0076731257, 0.1989204, -1602355.6, 23115.504, 0.0091627855, 9.998472, 10.000648 
1.5049224e+3, 1.4413628e+2, -1713989.4, -1623127.8, 26466.64, 0.046053816, 0.17285453, -1615980.6, -88507.18, 0.0040015904, 9.998672, 9.999891 
1.5049528e+3, 1.5413582e+2, -1503118.0, -1455421.4, 46773.824, 0.13920781, 0.09133661, -1426767.0, 2710.953, 0.001031135, 9.999398, 10.000013 
1.5049812e+3, 1.6413572e+2, -1348189.8, -1323483.5, 24140.502, 0.09592845, 0.09053598, -1308719.0, 22758.291, 0.000096309515, 9.999731, 10.000098 
1.5050076e+3, 1.741355e+2, -1204088.5, -1176248.1, -21828.035, -0.07151195, 0.011115607, -1164279.4, 69195.734, 0.000000575819, 9.99995, 10.000321 
1.5050356e+3, 1.8413487e+2, -1176511.4, -1283630.5, 17491.068, -0.10960412, -0.00052708073, -1173727.8, -38248.758, 0.0, 10.000201, 9.998786 
1.5050659e+3, 1.9413356e+2, -982612.6, -1129901.0, 7247.0156, -0.0082038175, -0.04753529, -982256.94, 55235.027, 0.0, 10.000827, 9.998858 
1.5050955e+3, 2.0413245e+2, -823317.75, -1008974.25, 14364.75, 0.063338526, -0.030131891, -822212.9, 117289.02, 0.0, 10.001271, 9.9988165 
1.5051246e+3, 2.1413146e+2, -661377.44, -859644.9, -8335.744, 0.09313053, -0.056710254, -661027.56, 180481.73, 0.0, 10.001628, 9.998996 
1.5051529e+3, 2.2413039e+2, -595416.5, -858555.94, 422.49118, 0.05563625, -0.014446854, -595415.8, 148104.02, 0.0, 10.001755, 9.998269 
1.50518e+3, 2.3412913e+2, -505076.2, -750600.1, -20146.873, -0.08926061, -0.008016751, -503433.97, 142101.6, 0.0, 10.00164, 9.998392 
1.5052083e+3, 2.44128e+2, -408600.06, -596175.0, -31537.115, -0.08095465, 0.031192737, -403439.7, 144107.55, 0.0, 10.001373, 9.998914 
1.5052384e+3, 2.5412682e+2, -354968.88, -491303.53, -63368.637, 0.1312539, -0.031535115, -330064.38, 119490.77, 0.00000020302433, 10.000957, 9.999154 
1.5052664e+3, 2.6412532e+2, -322453.47, -567492.4, -66927.76, 0.15628277, -0.025470527, -305365.1, 46203.293, 0.0000077496, 10.001118, 9.997882 
1.5052913e+3, 2.741232e+2, -73907.58, -390733.75, -81149.37, -0.08372005, -0.06067177, -54332.11, 199258.06, 0.000048509926, 10.002113, 9.997949 
1.5053192e+3, 2.841208e+2, 26614.133, -393442.6, 1304.2443, -0.10879124, -0.038633563, 26618.184, 182232.23, 0.00020995413, 10.0025835, 9.997022 
1.505351e+3, 2.9411778e+2, 116828.26, -278662.1, 4882.2993, 0.18633644, -0.096887305, 116888.52, 174531.06, 0.0007220719, 10.002461, 9.997175 
1.5053812e+3, 3.0411428e+2, 138014.06, -229814.34, 91685.79, 0.26225606, -0.15162218, 159601.0, 159601.0, 0.0017709631, 10.002188, 9.997348 
1.5054081e+3, 3.1411204e+2, 141319.89, -14496.686, 53128.06, -0.05456808, -0.17108923, 157710.56, 157710.56, 0.0032780797, 10.001217, 9.999298 
1.5148662e+3, 1.2410535e+2, -1898732.4, -1792359.6, -48487.55, 0.008834368, 0.0029850842, -1773574.9, -49803.867, 0.016257107, 9.998595, 10.000128 
1.5148929e+3, 1.3410676e+2, -1844896.8, -1719023.5, -38072.676, 0.0049664676, 0.0920584, -1708403.8, -82643.82, 0.009740974, 9.998377, 10.000066 
1.514922e+3, 1.4410587e+2, -1659348.6, -1543429.8, 27288.43, 0.0803413, 0.00043811247, -1537327.0, -9557.448, 0.0042781597, 9.998793, 10.000386 
1.5149508e+3, 1.54107e+2, -1453432.4, -1360064.4, 87860.02, -0.028744547, 0.01372429, -1307255.8, 122501.43, 0.0011151112, 9.99942, 10.000661 
1.5149793e+3, 1.6410773e+2, -1367287.4, -1384306.5, 10680.896, -0.10746224, 0.080483235, -1362140.6, -30391.982, 0.000106548556, 9.999813, 9.99964 
1.5150085e+3, 1.7410734e+2, -1249316.0, -1265297.3, -39.57942, 0.0011406278, 0.035440817, -1249316.0, -15565.645, 0.0000007145684, 9.999919, 9.999729 
1.5150377e+3, 1.8410659e+2, -1174888.5, -1279693.3, 21759.387, 0.034699153, 0.04085232, -1170550.5, -34794.348, 0.0, 10.000199, 9.998815 
1.5150662e+3, 1.9410509e+2, -996896.3, -1131038.9, 44204.61, -0.07855828, -0.028381808, -983639.5, 54130.074, 0.0, 10.000708, 9.998908 
1.5150952e+3, 2.041036e+2, -853144.9, -1032952.8, 8408.212, -0.10648523, -0.04705902, -852752.5, 87029.695, 0.0, 10.001104, 9.998735 
1.5151255e+3, 2.1410197e+2, -703777.5, -888620.8, 20033.889, 0.012434948, -0.1287138, -701631.06, 140164.08, 0.0, 10.001369, 9.998923 
1.5151545e+3, 2.2410074e+2, -640427.25, -887205.7, -18785.943, 0.03463275, -0.09854007, -639005.3, 104802.414, 0.0, 10.001473, 9.99821 
1.515182e+3, 2.3409984e+2, -547065.75, -780836.5, -6822.1904, -0.069206126, -0.04692215, -546866.8, 98954.78, 0.0, 10.001395, 9.998304 
1.5152098e+3, 2.440991e+2, -461096.47, -652504.4, -63190.715, -0.09673164, 0.046287812, -442116.9, 105714.69, 0.0, 10.001136, 9.998647 
1.5152383e+3, 2.540984e+2, -403816.22, -544843.8, -61359.492, -0.00089514913, 0.05658894, -380857.13, 68980.27, 0.00000026346208, 10.00074, 9.998896 
1.5152663e+3, 2.64097e+2, -353154.8, -571242.25, -47621.316, 0.006616454, 0.08756586, -343209.78, 8640.255, 0.000008336701, 10.000868, 9.997976 
1.5152936e+3, 2.7409458e+2, -108001.086, -392586.16, -19617.318, -0.1051535, 0.004985091, -106655.164, 147218.4, 0.00005112129, 10.001832, 9.99807 
1.5153222e+3, 2.8409228e+2, 23188.574, -333927.03, -17431.148, -0.104094155, 0.009934611, 24037.387, 179933.13, 0.00022272031, 10.002291, 9.99757 
1.5153527e+3, 2.9409015e+2, 115416.336, -217741.98, 22585.846, 0.080603, -0.02505976, 116940.53, 174857.42, 0.0007570033, 10.002182, 9.997726 
1.5153824e+3, 3.0408835e+2, 136323.44, -154764.58, 41586.83, 0.14323723, 0.030277673, 142148.25, 142148.25, 0.001811775, 10.001878, 9.998 
1.5154095e+3, 3.1408656e+2, 141272.22, 94958.03, 78648.125, -0.076814055, -0.02400322, 200101.58, 200101.58, 0.0032877447, 10.000786, 10.000242 
1.5248655e+3, 1.240767e+2, -2040416.6, -1821437.0, -5840.7275, 0.15271404, -0.025301784, -1821281.4, -97228.8, 0.017244658, 9.997481, 10.000452 
1.5248924e+3, 1.3407819e+2, -1638858.6, -1588274.1, 16035.9, 0.08593501, 0.04079592, -1583619.0, 42418.55, 0.010359608, 9.999676, 10.000322 
1.5249215e+3, 1.4407702e+2, -1485956.9, -1510246.9, 95305.1, 0.1100761, -0.067845315, -1402026.0, 126023.1, 0.0045741852, 10.000223, 9.999915 
1.5249498e+3, 1.5407827e+2, -1456669.8, -1409127.8, 25340.932, -0.06630411, 0.000046228513, -1398153.6, 31884.66, 0.0012060112, 9.999599, 10.000234 
1.5249786e+3, 1.6407892e+2, -1450435.3, -1443003.5, -33092.293, -0.12519968, 0.092227496, -1413419.1, -81386.86, 0.000118081814, 9.999361, 9.999447 
1.5250091e+3, 1.7407857e+2, -1197100.9, -1250851.4, -48442.098, 0.05423717, 0.06913376, -1168578.4, 65455.848, 0.0000008766353, 10.000358, 9.999606 
1.525039e+3, 1.8407764e+2, -1101639.5, -1262627.0, 524.63574, 0.1185463, 0.073280685, -1101637.8, 34404.04, 0.0, 10.000768, 9.998673 
1.5250672e+3, 1.9407575e+2, -1018821.75, -1160241.4, -27005.867, -0.023922151, -0.018449167, -1013840.1, 24218.803, 0.0, 10.000623, 9.998767 
1.5250961e+3, 2.0407423e+2, -928008.0, -1057224.1, -32258.379, -0.08065675, -0.035168417, -920402.5, 19669.553, 0.0, 10.000522, 9.998851 
1.5251261e+3, 2.1407315e+2, -808863.06, -921965.2, -36117.918, -0.017738106, -0.07979345, -798313.25, 43766.918, 0.0, 10.000558, 9.999085 
1.5251555e+3, 2.2407211e+2, -760538.44, -929306.0, -31399.813, 0.028965583, -0.044556174, -754885.7, -10795.183, 0.0, 10.000565, 9.998368 
1.5251839e+3, 2.3407097e+2, -656962.7, -813345.7, -34918.96, 0.045029126, -0.034582987, -649519.8, -3414.345, 0.0, 10.000543, 9.998495 
1.525212e+3, 2.4407007e+2, -526513.94, -690676.2, -37134.39, 0.030368356, 0.03586146, -518504.7, 29612.047, 0.0, 10.000744, 9.998555 
1.525239e+3, 2.540694e+2, -318505.63, -513302.9, -58157.6, -0.028162977, 0.06208194, -302463.5, 147660.05, 0.0000003530132, 10.001388, 9.998785 
1.5252669e+3, 2.64068e+2, -239359.53, -525624.2, -6503.17, -0.053026013, 0.098520726, -239211.88, 112925.02, 0.000008619123, 10.001668, 9.99791 
1.5252957e+3, 2.7406546e+2, -177044.13, -424377.06, -30413.557, -0.041678198, 0.010376413, -173359.19, 80801.63, 0.000051931653, 10.001359, 9.998068 
1.5253249e+3, 2.840633e+2, -98404.93, -377945.84, -14224.669, 0.007634981, 0.021960787, -97682.96, 58498.965, 0.00023518385, 10.001385, 9.99772 
1.5253551e+3, 2.9406172e+2, 80157.664, -226856.34, -42121.137, 0.12529255, 0.032404725, 85831.66, 144031.38, 0.000791527, 10.001871, 9.9978485 
1.5253845e+3, 3.0406064e+2, 198312.23, -100031.62, -33205.688, 0.16449118, 0.14611365, 201963.36, 201963.36, 0.0018473114, 10.002174, 9.998246 
1.5254115e+3, 3.1405804e+2, 310893.44, 166742.31, -99013.58, 0.000061557046, -0.006416761, 361286.53, 361286.53, 0.0032831791, 10.0019655, 10.000183 
1.5348636e+3, 1.2404807e+2, -1927930.4, -1615429.3, 43744.336, 0.11932175, -0.03990964, -1609421.4, 114915.54, 0.018294634, 9.997577, 10.001836 
1.5348928e+3, 1.34051e+2, -1562445.1, -1434383.1, 103912.62, 0.106528886, 0.06550149, -1376357.6, 249943.17, 0.011016667, 9.999694, 10.001383 
1.5349206e+3, 1.4405014e+2, -1557590.4, -1701169.5, 52338.51, -0.05486702, -0.0027807318, -1540537.0, -12228.974, 0.0048880493, 10.000396, 9.998526 
1.5349492e+3, 1.5404984e+2, -1577044.5, -1640988.3, 12233.08, -0.11280417, 0.068300135, -1574784.1, -144465.11, 0.0013030368, 9.999534, 9.998675 
1.5349786e+3, 1.6404952e+2, -1440765.6, -1441244.5, -24697.508, -0.099744834, 0.14825995, -1416306.4, -83980.305, 0.00013086536, 9.999426, 9.999432 
1.5350088e+3, 1.7404918e+2, -1192544.4, -1233308.3, 1751.6908, -0.0402903, 0.11389305, -1192469.3, 41857.285, 0.0000010420176, 10.000321, 9.9997425 
1.5350388e+3, 1.8404806e+2, -1124014.1, -1313740.3, -22757.275, -0.007544957, 0.10804307, -1121322.6, 15013.014, 0.0, 10.000783, 9.998318 
1.5350686e+3, 1.9404553e+2, -1054347.0, -1216178.4, -19959.014, 0.020257976, -0.013532555, -1051921.8, -13561.909, 0.0, 10.00054, 9.998425 
1.5350978e+3, 2.0404433e+2, -931384.56, -1021004.44, -47587.227, -0.0097427415, 0.0024724808, -910830.3, 29540.79, 0.0, 10.00034, 9.999184 
1.5351257e+3, 2.1404485e+2, -822355.2, -887789.3, -19251.092, -0.12713535, 0.08223822, -817111.56, 25253.549, 0.0, 10.000297, 9.999442 
1.5351547e+3, 2.2404444e+2, -774137.0, -892991.0, -47284.08, -0.10928459, 0.14348033, -757620.94, -13252.202, 0.0, 10.000283, 9.998753 
1.5351856e+3, 2.3404245e+2, -660881.3, -768402.3, -15963.15, 0.12251799, 0.023777213, -658561.4, -12173.482, 0.0, 10.000307, 9.99892 
1.5352142e+3, 2.4404083e+2, -568836.0, -708189.25, -29040.14, 0.14942041, -0.0006937115, -563026.44, -14622.886, 0.0, 10.000454, 9.998568 
1.53524e+3, 2.5403973e+2, -361846.16, -543697.3, -14318.314, -0.090503745, -0.013238906, -360725.7, 89688.78, 0.0000004707298, 10.001145, 9.998688 
1.5352674e+3, 2.6403823e+2, -284940.66, -568577.4, -32735.361, -0.18093537, 0.025533658, -281211.6, 71217.58, 0.0000086272985, 10.001443, 9.997723 
1.5352972e+3, 2.7403587e+2, -216238.83, -466553.1, -25997.777, -0.052486427, -0.028873598, -213567.2, 40884.777, 0.000052741245, 10.001188, 9.997861 
1.5353271e+3, 2.8403375e+2, -146992.33, -433071.03, -13353.631, 0.060482506, 0.010944936, -146370.36, 10103.299, 0.00024875673, 10.00118, 9.997447 
1.5353575e+3, 2.9403234e+2, 23348.592, -286179.03, 7305.1685, 0.15232985, 0.066126645, 23520.906, 82012.17, 0.00082812813, 10.001614, 9.997566 
1.5353867e+3, 3.040313e+2, 138002.61, -156053.61, -49957.34, 0.1512092, 0.20961095, 146258.11, 146258.11, 0.001892961, 10.001886, 9.997994 
1.5354128e+3, 3.1402704e+2, 177217.55, 4974.152, -44467.047, -0.12537669, -0.095896825, 188019.86, 188019.86, 0.003309201, 10.001488, 9.999288 
1.5448622e+3, 1.2401941e+2, -1809960.1, -1604802.9, 32454.691, 0.21049744, 0.07195767, -1599791.3, 124831.15, 0.019406972, 9.998588, 10.001414 
1.5448922e+3, 1.3402252e+2, -1624035.4, -1424007.1, -40722.113, 0.12872517, 0.15996332, -1416034.6, 210548.05, 0.0117135905, 9.999059, 10.001766 
1.5449207e+3, 1.4402111e+2, -1805981.1, -1793153.9, -55775.93, 0.009708237, 0.0037894836, -1743424.0, -214830.27, 0.0052204016, 9.998584, 9.998774 
1.5449496e+3, 1.5402092e+2, -1553417.4, -1600080.0, 13124.244, -0.017948838, 0.061021443, -1549979.4, -119377.82, 0.0014059248, 9.99955, 9.998961 
1.5449792e+3, 1.640205e+2, -1349917.0, -1431084.5, 102646.484, -0.0075117447, 0.12981386, -1280122.5, 52486.348, 0.00014487762, 10.000201, 9.999121 
1.545009e+3, 1.7401984e+2, -1181946.8, -1273773.0, 56117.05, -0.04979581, 0.096751064, -1155353.8, 79260.53, 0.000001197513, 10.000573, 9.999348 
1.5450391e+3, 1.8401866e+2, -1132584.8, -1301708.8, 39856.063, -0.04271093, 0.10291034, -1123662.9, 12962.238, 0.0, 10.00068, 9.998438 
1.5450695e+3, 1.9401672e+2, -999971.8, -1165457.4, 47795.586, 0.051934782, 0.021348925, -987159.44, 51483.934, 0.0, 10.000833, 9.998623 
1.5450987e+3, 2.0401575e+2, -893241.5, -1016463.6, 46754.34, 0.061271697, 0.054399386, -877509.9, 63143.258, 0.0, 10.0006695, 9.999059 
1.5451263e+3, 2.1401605e+2, -855195.44, -921126.56, -315.34122, -0.07192138, 0.12815115, -855193.94, -12542.669, 0.0, 10.000151, 9.999288 
1.5451552e+3, 2.2401564e+2, -792359.7, -844781.6, 2889.3164, -0.07102737, 0.17679246, -792200.94, -47546.324, 0.0, 9.999941, 9.999232 
1.5451856e+3, 2.3401405e+2, -619035.56, -679662.06, 2892.942, 0.115825, 0.044311717, -618897.8, 27768.709, 0.0, 10.0003395, 9.999494 
1.5452147e+3, 2.440125e+2, -539033.25, -729346.3, 26109.848, 0.14934915, 0.009307092, -535516.1, 13164.308, 0.000000000009610117, 10.000776, 9.998292 
1.5452418e+3, 2.54011e+2, -374726.97, -591908.0, -5631.114, -0.025628513, -0.007950817, -374581.06, 76116.49, 0.0000005675007, 10.001205, 9.998354 
1.5452696e+3, 2.6400954e+2, -251686.8, -539361.7, -5214.1396, -0.09840568, 0.04839776, -251592.33, 101120.69, 0.000008574752, 10.001637, 9.997829 
1.5452988e+3, 2.7400768e+2, -64998.7, -387239.88, -13775.387, -0.046157338, 0.044846684, -64410.89, 190319.08, 0.00005426492, 10.002191, 9.997936 
1.5453285e+3, 2.8400546e+2, 3899.5566, -362072.06, 39083.51, 0.04227345, 0.06479681, 8026.8877, 164779.5, 0.00026286932, 10.002253, 9.997386 
1.545359e+3, 2.9400286e+2, 16008.297, -297248.72, 24374.15, 0.16017519, 0.012256294, 17893.475, 76674.07, 0.0008685198, 10.001624, 9.997457 
1.5453888e+3, 3.0400166e+2, 138036.86, -146456.53, 45676.91, 0.19338574, 0.13485214, 145190.64, 145190.64, 0.001959959, 10.001829, 9.998099 
1.545416e+3, 3.1399924e+2, 351313.72, 23968.94, -1115.5005, -0.023878545, 0.01831942, 351317.5, 351317.5, 0.0033944633, 10.002957, 9.9987135 
1.5548603e+3, 1.2398987e+2, -1937067.5, -1903640.9, -4538.354, 0.0750206, 0.24783769, -1903035.6, -178118.92, 0.020587768, 9.998769, 9.999255 
1.55489e+3, 1.339928e+2, -1651699.1, -1459305.4, -57659.69, -0.02661733, 0.35594857, -1443348.4, 183534.64, 0.012455585, 9.998981, 10.001562 
1.5549211e+3, 1.4398971e+2, -1652434.9, -1491774.1, -60138.64, 0.14351659, -0.049984943, -1471757.0, 57151.133, 0.0055746003, 9.998645, 10.000818 
1.5549503e+3, 1.5399162e+2, -1402064.9, -1281568.5, 67078.695, 0.07475212, -0.007440882, -1251653.5, 179231.0, 0.001515748, 9.999539, 10.001152 
1.5549798e+3, 1.6399215e+2, -1372622.3, -1501405.9, 101449.75, -0.0056598363, 0.062298793, -1316854.4, 16023.56, 0.00016035176, 10.000293, 9.9986 
1.5550093e+3, 1.739906e+2, -1247381.6, -1397941.1, 80826.42, -0.09876951, 0.025819706, -1212208.0, 22688.938, 0.0000013687348, 10.0005245, 9.998522 
1.5550391e+3, 1.839896e+2, -1099559.4, -1222233.0, 26991.96, -0.1290666, 0.06654154, -1093883.0, 43025.465, 0.0, 10.000636, 9.999002 
1.5550694e+3, 1.9398929e+2, -977713.56, -1080385.0, 68978.98, -0.060882144, 0.08126947, -943064.1, 95845.88, 0.0, 10.000674, 9.99928 
1.555099e+3, 2.0398845e+2, -953761.8, -1113850.4, 11440.296, -0.014587597, 0.12110199, -952948.4, -12029.701, 0.0, 10.000531, 9.998466 
1.5551275e+3, 2.1398678e+2, -931429.9, -1038007.9, -4259.368, 0.014924051, 0.068743475, -931259.94, -88321.805, 0.0, 9.999957, 9.998588 
1.5551558e+3, 2.239858e+2, -794110.75, -795494.5, -2659.4736, -0.011517057, 0.077799916, -792054.6, -47107.4, 0.0, 9.999709, 9.999683 
1.555184e+3, 2.3398563e+2, -610526.94, -621845.5, 32024.953, -0.100283936, 0.030026367, -583665.06, 63278.176, 0.0, 10.0001545, 9.999987 
1.5552129e+3, 2.4398485e+2, -605973.44, -810997.56, 26919.412, -0.11411642, 0.06349448, -602497.9, -53547.883, 0.0, 10.000529, 9.9978485 
1.5552436e+3, 2.5398305e+2, -443705.94, -683245.25, 26388.955, 0.019037863, 0.071636885, -440833.22, 10140.192, 0.0000005355393, 10.000981, 9.997834 
1.5552728e+3, 2.639817e+2, -271225.13, -522496.7, 1748.5918, 0.030285308, 0.15447056, -271212.97, 81776.92, 0.000008556659, 10.001392, 9.99806 
1.5553004e+3, 2.7398077e+2, -79353.74, -360058.44, 28879.625, -0.14171292, 0.20302247, -76413.336, 178583.83, 0.000056489618, 10.001948, 9.998235 
1.5553288e+3, 2.839782e+2, -38157.426, -388250.0, 2866.5847, -0.17809524, 0.17670375, -38133.957, 118887.09, 0.00027893353, 10.001995, 9.997326 
1.5553594e+3, 2.9397315e+2, -23683.535, -316572.56, 19871.629, -0.001419512, -0.11882208, -22341.455, 36727.973, 0.0009153457, 10.001364, 9.997443 
1.5553902e+3, 3.0397153e+2, 112213.48, -130088.69, 63580.56, 0.12609798, -0.04988904, 127883.71, 127883.71, 0.0020538478, 10.001547, 9.99834 
1.5554197e+3, 3.1397378e+2, 243367.98, -61149.613, 79247.484, 0.009446896, 0.27155042, 262756.8, 262756.8, 0.0035487113, 10.002392, 9.998387 
1.5648602e+3, 1.2395959e+2, -1863022.0, -1977185.0, 76171.06, 0.15747862, 0.2116838, -1824917.8, -99705.49, 0.021849003, 9.999743, 9.998302 
1.5648891e+3, 1.3396199e+2, -1610449.8, -1440557.6, 21498.934, -0.010423602, 0.28578705, -1437879.3, 189306.72, 0.013250772, 9.999263, 10.001574 
1.5649208e+3, 1.4395984e+2, -1568309.0, -1428841.5, 42514.82, 0.24565962, -0.045242175, -1416903.3, 112298.94, 0.0059556314, 9.999125, 10.001017 
1.5649505e+3, 1.5396181e+2, -1429051.3, -1284459.8, -22255.205, 0.17370796, -0.009304049, -1281111.9, 150064.7, 0.0016345053, 9.999307, 10.001238 
1.56498e+3, 1.6396238e+2, -1506332.8, -1547069.5, -25361.365, 0.04268609, 0.050010737, -1494173.1, -161004.27, 0.00017771397, 9.999288, 9.998778 
1.5650094e+3, 1.7396091e+2, -1356497.3, -1428090.8, 3775.0005, -0.092707545, 0.004356808, -1356298.8, -121111.25, 0.0000016137079, 9.999663, 9.998737 
1.5650392e+3, 1.8396018e+2, -1210722.6, -1244193.1, 3395.011, -0.12717074, 0.048513412, -1210381.8, -73185.49, 0.0, 9.999723, 9.999294 
1.5650694e+3, 1.9396043e+2, -1121870.4, -1119105.5, -14494.769, -0.05546938, 0.08578828, -1105927.4, -66735.3, 0.0, 9.999527, 9.999574 
1.565099e+3, 2.039597e+2, -1097710.9, -1173778.6, -28189.87, 0.0070325164, 0.12035393, -1088402.9, -147203.78, 0.0, 9.99955, 9.998502 
1.5651281e+3, 2.139576e+2, -875602.1, -1000649.4, -26977.617, 0.053620085, 0.020310687, -870030.25, -26807.973, 0.0, 10.000343, 9.998632 
1.5651564e+3, 2.2395633e+2, -650794.25, -779350.1, 12317.335, 0.031180378, 0.020342406, -649624.75, 95609.92, 0.0, 10.0008955, 9.999236 
1.5651847e+3, 2.3395629e+2, -507990.88, -619599.4, -49558.38, -0.08735222, 0.033226985, -489161.7, 158069.89, 0.0, 10.001054, 9.999567 
1.5652137e+3, 2.4395564e+2, -513123.78, -755215.1, -50797.445, -0.1103076, 0.09769253, -502897.1, 46340.87, 0.0, 10.00111, 9.997954 
1.5652442e+3, 2.5395387e+2, -427862.22, -653609.56, -35551.625, 0.004616103, 0.09391326, -422395.75, 28864.277, 0.00000039469393, 10.000999, 9.99802 
1.5652741e+3, 2.6395237e+2, -296516.63, -558180.06, -2344.2993, 0.04284199, 0.16138768, -296495.6, 56782.32, 0.000008163994, 10.001309, 9.997858 
1.565303e+3, 2.7395108e+2, -69283.19, -381822.5, -50877.613, -0.045648348, 0.19899939, -61209.496, 194081.28, 0.000058543963, 10.002128, 9.997998 
1.565332e+3, 2.839487e+2, 28555.955, -345372.25, -97189.96, -0.081363626, 0.20339651, 52308.402, 209621.88, 0.00029613846, 10.002393, 9.997456 
1.5653607e+3, 2.939446e+2, 75825.37, -250159.47, -112288.21, -0.025528673, -0.0025285918, 110760.13, 170111.56, 0.00096601876, 10.001947, 9.9976425 
1.5653913e+3, 3.0394232e+2, 180277.81, -93893.07, 19204.816, 0.06824557, -0.014775867, 181616.52, 181616.52, 0.002166349, 10.001983, 9.998376 
1.5654226e+3, 3.1394428e+2, 241673.27, -88171.6, -52417.367, 0.08082277, 0.28203475, 249802.81, 249802.81, 0.0037551883, 10.002438, 9.998195 
1.5748595e+3, 1.2392971e+2, -1797462.1, -1871882.6, -107141.164, 0.029358441, 0.09232598, -1721253.5, 4244.02, 0.023204513, 9.999858, 9.998977 
1.574889e+3, 1.3393034e+2, -1586911.4, -1397921.1, 26072.762, 0.015741903, -0.030149138, -1394390.1, 233098.31, 0.014108494, 9.9992895, 10.001855 
1.5749195e+3, 1.4393184e+2, -1656433.1, -1647356.0, 28765.172, 0.16028841, 0.046461884, -1622773.6, -93301.34, 0.0063687824, 9.999278, 9.999441 
1.57495e+3, 1.5393147e+2, -1584461.4, -1593651.8, -7644.392, 0.15958132, 0.060756117, -1580137.4, -148659.88, 0.00176415, 9.999261, 9.999135 
1.5749791e+3, 1.6393109e+2, -1431438.1, -1405413.9, -35037.56, -0.01388399, 0.09841094, -1381050.3, -47567.965, 0.00019721544, 9.999337, 9.999728 
1.5750085e+3, 1.7393075e+2, -1268884.5, -1242367.3, 33340.543, -0.16773738, 0.034835722, -1219745.8, 15739.889, 0.0000019795527, 9.999641, 10.000022 
1.5750387e+3, 1.8393058e+2, -1198121.5, -1224427.0, -18561.576, -0.18675566, 0.054662127, -1188525.0, -51038.09, 0.0, 9.9997425, 9.999424 
1.5750691e+3, 1.9393042e+2, -1143717.3, -1134720.0, -9226.524, -0.06492548, 0.056939572, -1128953.8, -89466.82, 0.0, 9.999399, 9.999529 
1.5750986e+3, 2.0392977e+2, -1078377.8, -1104074.0, -20853.104, -0.02841267, 0.073634416, -1066732.5, -125240.29, 0.0, 9.999413, 9.999049 
1.5751272e+3, 2.1392825e+2, -866146.1, -935549.2, 15427.24, -0.08404132, -0.023725107, -862871.4, -19365.307, 0.0, 10.000143, 9.99918 
1.5751565e+3, 2.2392702e+2, -761738.2, -955918.0, 7317.576, -0.08491267, -0.0032270767, -761462.8, -15943.915, 0.0, 10.000666, 9.998133 
1.5751868e+3, 2.3392609e+2, -638336.9, -831138.25, -28594.09, 0.0100417845, 0.05029371, -634185.5, 13345.5, 0.0, 10.000799, 9.998239 
1.575216e+3, 2.4392498e+2, -517502.66, -696245.1, -68507.75, -0.0021148673, 0.118756376, -494266.06, 55277.36, 0.0, 10.000815, 9.998498 
1.5752436e+3, 2.539235e+2, -405840.0, -562943.25, -24053.398, -0.17294846, 0.06257822, -402239.8, 49317.383, 0.00000029448665, 10.000801, 9.998736 
1.5752736e+3, 2.6392165e+2, -375572.75, -673267.8, 9238.783, -0.17119415, 0.089797586, -375286.3, -21709.69, 0.000007127328, 10.001098, 9.997172 
1.5753068e+3, 2.7391893e+2, -158665.84, -514166.88, 2042.6798, 0.0819215, 0.064079314, -158654.11, 96953.86, 0.000059012113, 10.0019, 9.997201 
1.5753368e+3, 2.839172e+2, 7488.26, -337265.1, -123070.7, 0.14104404, 0.16696234, 46913.652, 204541.36, 0.00030982727, 10.002163, 9.997622 
1.5753624e+3, 2.9391715e+2, 56601.824, -231255.72, -98372.81, -0.0767834, 0.331015, 87008.08, 146635.63, 0.0010139579, 10.001693, 9.997894 
1.5753913e+3, 3.0391395e+2, 126421.38, -139805.38, 23992.156, -0.1387314, 0.22444758, 128566.26, 128566.26, 0.002282176, 10.001722, 9.998168 
1.5754238e+3, 3.1391108e+2, 151198.8, -130003.71, 19139.31, -0.092966996, 0.05188605, 152495.48, 152495.48, 0.003977177, 10.001844, 9.998167 
1.5848579e+3, 1.2390046e+2, -1898471.5, -1854738.3, -50652.027, -0.04356959, 0.047289494, -1821434.4, -95655.56, 0.024665277, 9.998888, 9.999538 
1.5848891e+3, 1.3389994e+2, -1636475.9, -1504204.3, -42013.758, 0.12603325, -0.12307034, -1491987.6, 135796.67, 0.0150364665, 9.9993, 10.0011 
1.5849192e+3, 1.4390275e+2, -1600274.5, -1652068.9, -23526.033, 0.18025358, 0.13564587, -1591184.0, -61426.277, 0.0068181083, 9.999798, 9.999159 
1.5849493e+3, 1.5390119e+2, -1519269.4, -1597747.6, 30422.129, 0.14631748, 0.06242963, -1508857.5, -77081.484, 0.0019058621, 9.999845, 9.998831 
1.5849781e+3, 1.639005e+2, -1391475.6, -1357150.9, 86663.27, -0.031492066, 0.075245485, -1285967.0, 47817.242, 0.0002187055, 9.999495, 9.999981 
1.5850084e+3, 1.7390107e+2, -1316996.8, -1223832.4, 47434.535, -0.12490264, 0.06615331, -1203932.0, 31846.166, 0.000002466339, 9.99915, 10.000381 
1.5850389e+3, 1.8390119e+2, -1259101.1, -1223974.5, 1443.0492, -0.09740438, 0.08665105, -1223915.3, -86140.016, 0.0, 9.9992075, 9.999682 
1.5850693e+3, 1.939005e+2, -994609.06, -1032166.1, 1384.6067, -0.008462244, 0.011276746, -994558.06, 45220.848, 0.0, 10.000293, 9.999797 
1.585099e+3, 2.0389982e+2, -860068.9, -1003403.5, 17846.994, 0.0048817806, 0.0096529955, -857880.1, 83903.65, 0.0, 10.000896, 9.9990425 
1.5851279e+3, 2.1389903e+2, -751743.2, -885093.25, -16258.733, -0.06004052, -0.01169292, -749789.44, 94001.67, 0.0, 10.000907, 9.999173 
1.5851574e+3, 2.238979e+2, -782401.3, -997351.0, -7464.652, -0.053192094, 0.032685123, -782142.4, -36338.734, 0.0, 10.000688, 9.997838 
1.5851878e+3, 2.3389614e+2, -714618.6, -911702.0, -10122.038, 0.044960327, 0.042558476, -714100.1, -66275.27, 0.0, 10.00046, 9.997866 
1.5852171e+3, 2.4389452e+2, -529916.06, -707314.44, 18549.324, 0.041364804, 0.08479695, -527997.25, 21845.096, 0.0, 10.000774, 9.998433 
1.5852454e+3, 2.538932e+2, -240064.17, -491239.9, -28191.25, -0.12884614, 0.054523204, -236938.95, 214914.58, 0.00000023115544, 10.001983, 9.998664 
1.5852754e+3, 2.6389134e+2, -192555.47, -562222.0, 11281.415, -0.14135732, 0.07762408, -192211.5, 161661.02, 0.0000061293663, 10.0022745, 9.997355 
1.5853082e+3, 2.738884e+2, -212105.48, -509817.84, 33209.098, 0.07030943, 0.009665182, -208446.06, 47459.53, 0.000060026516, 10.001432, 9.997437 
1.5853386e+3, 2.8388688e+2, -94821.02, -388983.4, -11571.858, 0.1451916, 0.123619065, -94366.51, 63556.613, 0.0003212461, 10.001478, 9.9975815 
1.5853655e+3, 2.9388744e+2, 213552.23, -161338.63, -52666.766, 0.019193377, 0.35612696, 220810.61, 280728.6, 0.0010570007, 10.00279, 9.997835 
1.5853946e+3, 3.0388373e+2, 325513.6, -74018.805, 65711.305, -0.051610395, 0.20860696, 336043.63, 336043.63, 0.0023874303, 10.003188, 9.997942 
1.5854259e+3, 3.138801e+2, 181113.11, -83498.914, -23967.078, -0.058001403, -0.002095194, 183266.39, 183266.39, 0.004171727, 10.001878, 9.998498 
1.5948567e+3, 1.23870894e+2, -1845394.6, -1798010.0, 77542.586, -0.13649125, -0.066367514, -1740621.0, -14555.655, 0.026239868, 9.999075, 9.999855 
1.5948898e+3, 1.3387115e+2, -1783076.1, -1803150.8, 6093.621, 0.23133694, 0.020554481, -1781371.1, -153300.81, 0.016040104, 9.999294, 9.999033 
1.594919e+3, 1.4387237e+2, -1507794.8, -1506528.0, -35989.707, 0.12388761, 0.19947574, -1471166.0, 58895.62, 0.0073062, 9.999975, 10.000083 
1.5949479e+3, 1.5387115e+2, -1405783.0, -1376538.1, 42726.617, -0.007532882, 0.012705728, -1346001.0, 86069.125, 0.002060233, 9.999893, 10.000332 
1.5949768e+3, 1.6387102e+2, -1408909.6, -1414771.4, 51454.438, -0.15846851, 0.015933987, -1360302.6, -26232.258, 0.00024185247, 9.999584, 9.999542 
1.5950082e+3, 1.7387198e+2, -1373856.0, -1332823.9, 46757.53, -0.07808114, 0.11625997, -1302279.4, -66216.35, 0.0000030340082, 9.999112, 9.999651 
1.5950394e+3, 1.8387201e+2, -1231219.1, -1167939.5, 18899.164, -0.008725708, 0.14928515, -1162724.8, -24663.24, 0.0, 9.99921, 10.000066 
1.5950698e+3, 1.9387062e+2, -980088.75, -968569.3, 57239.4, -0.017589187, -0.048299666, -916800.56, 123268.07, 0.0, 10.000157, 10.000297 
1.5950997e+3, 2.0386992e+2, -912389.4, -1076742.0, 6993.5996, -0.0334484, -0.057123497, -912092.3, 29980.885, 0.0, 10.000746, 9.998609 
1.5951294e+3, 2.1387017e+2, -828415.0, -982012.75, -2991.2495, -0.009392527, 0.073328756, -828356.75, 15718.549, 0.0, 10.0006485, 9.998629 
1.5951586e+3, 2.2386925e+2, -789808.25, -962426.06, -31237.41, -0.023441168, 0.15285835, -784329.3, -38242.645, 0.0, 10.000458, 9.99819 
1.5951869e+3, 2.3386648e+2, -713834.94, -864002.6, 648.6817, -0.101001024, 0.015033108, -713832.2, -65719.164, 0.0, 10.000255, 9.998294 
1.5952167e+3, 2.4386434e+2, -617385.4, -833063.6, 46789.723, -0.119091764, 0.01463607, -607672.1, -57538.016, 0.0, 10.00054, 9.997677 
1.5952487e+3, 2.5386298e+2, -342717.2, -634259.06, 35439.75, -0.017239986, 0.06644198, -338470.97, 113678.195, 0.00000009760233, 10.0017, 9.997806 
1.5952791e+3, 2.6386133e+2, -172209.92, -463973.8, -26484.7, -0.019714521, 0.12158628, -169825.28, 184341.05, 0.0000054247644, 10.002023, 9.998154 
1.5953073e+3, 2.738593e+2, -174462.44, -382617.4, 21158.617, -0.19009584, 0.035632856, -172333.48, 83852.6, 0.0000627863, 10.00121, 9.998419 
1.595337e+3, 2.8385752e+2, -154704.31, -444296.34, 10122.012, -0.1865485, 0.08042357, -154350.95, 3852.6917, 0.0003316825, 10.001192, 9.997336 
1.5953693e+3, 2.9385552e+2, 137180.31, -238378.88, 22115.176, 0.08447432, 0.094354875, 138478.11, 198702.48, 0.0010854213, 10.002449, 9.99747 
1.5953998e+3, 3.038517e+2, 239738.36, -158210.31, 10442.532, 0.12758516, -0.020331692, 240012.2, 240012.2, 0.002452494, 10.002808, 9.9975395 
1.5954277e+3, 3.1385112e+2, 133558.27, -46060.42, -21821.135, -0.11153329, 0.10262484, 136171.22, 136171.22, 0.00428331, 10.001331, 9.999008 
1.6048552e+3, 1.2384094e+2, -1990978.8, -1794111.8, 15970.197, -0.10568242, -0.026866024, -1792824.6, -66462.72, 0.027939666, 9.997794, 10.000507 
1.6048883e+3, 1.3384186e+2, -1847645.9, -1823236.4, 12273.423, 0.19966461, 0.12266383, -1818132.4, -189772.36, 0.01712635, 9.9988365, 9.999113 
1.6049187e+3, 1.43842e+2, -1649059.0, -1551456.8, 58834.156, 0.16224025, 0.18718429, -1523818.3, 6543.3604, 0.007836914, 9.9989395, 10.000255 
1.6049473e+3, 1.5384178e+2, -1461681.5, -1365665.1, 554.48145, -0.02305088, 0.06721885, -1365661.9, 66698.734, 0.0022287087, 9.99937, 10.000644 
1.6049765e+3, 1.6384189e+2, -1432346.5, -1423736.3, -5785.7603, -0.119985394, 0.07845967, -1420829.6, -86471.85, 0.00026665046, 9.9994335, 9.99954 
1.6050082e+3, 1.7384212e+2, -1314569.0, -1304082.0, 5823.8296, 0.012820383, 0.11024686, -1301489.0, -65133.004, 0.0000036433328, 9.999533, 9.999637 
1.6050397e+3, 1.8384175e+2, -1175107.9, -1154613.8, 49999.07, 0.08619331, 0.111213714, -1113822.5, 24534.615, 0.0, 9.999642, 9.999949 
1.6050701e+3, 1.9384037e+2, -982758.8, -982018.7, 14951.129, 0.010917499, -0.07970674, -967433.06, 72931.45, 0.0, 10.000163, 10.000206 
1.6051003e+3, 2.0383975e+2, -957665.0, -1108567.1, -39951.25, -0.021933384, -0.07016978, -947740.6, -5371.7847, 0.0, 10.000503, 9.998504 
1.6051303e+3, 2.1384032e+2, -807935.6, -979481.7, -56089.195, 0.016796159, 0.10723877, -791224.44, 53144.42, 0.0, 10.000844, 9.998544 
1.6051596e+3, 2.2383936e+2, -653511.0, -895949.75, -38286.65, 0.0069771297, 0.18828665, -647608.4, 98772.484, 0.0, 10.001383, 9.998197 
1.6051881e+3, 2.3383611e+2, -399237.22, -696905.2, -67491.95, -0.09460618, -0.0043022987, -384649.28, 263761.1, 0.0, 10.002361, 9.998403 
1.6052182e+3, 2.438338e+2, -320370.53, -693107.94, 6371.073, -0.113512866, -0.028218262, -320261.66, 230171.0, 0.0, 10.002591, 9.997657 
1.6052505e+3, 2.538327e+2, -336279.75, -635624.44, 23750.988, 0.012864871, 0.05740371, -334407.0, 118038.94, 0.000000007673713, 10.00175, 9.997779 
1.6052811e+3, 2.6383123e+2, -244024.23, -479980.34, -770.32745, 0.013846617, 0.12455579, -244021.72, 110439.516, 0.0000049768487, 10.001441, 9.998333 
1.6053087e+3, 2.738294e+2, -61839.277, -313365.0, -58247.688, -0.18841399, 0.051638465, -49005.277, 207472.5, 0.00006482946, 10.001903, 9.998584 
1.6053385e+3, 2.838275e+2, -1610.0535, -370361.0, -23833.783, -0.17643228, 0.07611561, -75.967155, 158420.17, 0.00033743004, 10.002199, 9.997382 
1.6053721e+3, 2.9382506e+2, 120441.625, -240441.83, -24027.027, 0.15173598, 0.043096006, 122034.28, 182555.84, 0.0010902435, 10.002291, 9.997543 
1.6054027e+3, 3.0382165e+2, 149083.28, -202540.1, -12986.355, 0.19835556, -0.032655902, 149562.25, 149562.25, 0.0024557733, 10.002182, 9.997529 
1.60543e+3, 3.138207e+2, 214313.56, 39702.117, -110508.48, -0.014639113, 0.05283652, 267842.53, 267842.53, 0.004282768, 10.001651, 9.99945 
1.6148539e+3, 1.23810485e+2, -1907612.5, -1699919.8, -102252.62, -0.104372635, 0.16509962, -1658027.9, 68642.18, 0.02978273, 9.998104, 10.001028 
1.6148843e+3, 1.338124e+2, -1678245.6, -1485306.4, 37740.8, -0.11252484, 0.20238732, -1478186.6, 150463.22, 0.018308382, 9.998873, 10.001441 
1.6149175e+3, 1.4381227e+2, -1674144.5, -1628665.0, 53816.52, 0.10456868, 0.13899918, -1592981.1, -62329.71, 0.008418617, 9.999038, 9.9996805 
1.6149469e+3, 1.5381308e+2, -1532618.1, -1514771.9, 32873.566, -0.036145214, 0.22253548, -1489631.9, -56984.984, 0.0024150687, 9.999379, 9.999616 
1.614977e+3, 1.6381301e+2, -1378923.4, -1354657.6, -23283.66, -0.07214628, 0.25356254, -1340535.4, -5887.6445, 0.0002938315, 9.999597, 9.999941 
1.6150081e+3, 1.7381148e+2, -1271650.4, -1219579.4, 19864.865, 0.028907828, 0.04975483, -1212866.5, 23790.307, 0.000004294035, 9.999534, 10.000223 
1.6150391e+3, 1.838104e+2, -1214473.3, -1236683.8, 50663.484, 0.04068412, -0.029676178, -1173712.3, -35049.484, 0.0, 9.999646, 9.99938 
1.61507e+3, 1.9380978e+2, -1048036.25, -1095668.8, 48596.875, -0.050852735, -0.072690375, -1017733.44, 22932.375, 0.0, 10.00007, 9.999472 
1.6151002e+3, 2.0380941e+2, -971629.4, -1097662.3, -46160.715, -0.10996214, -0.0043441793, -956531.25, -13862.147, 0.0, 10.000331, 9.998659 
1.6151302e+3, 2.1380946e+2, -823023.1, -961813.44, -30071.707, -0.098224156, 0.09458863, -816787.6, 27884.645, 0.0, 10.000636, 9.998764 
1.6151603e+3, 2.2380826e+2, -719376.7, -960424.7, -20652.643, -0.09107462, 0.15183531, -717620.0, 29066.021, 0.0, 10.001082, 9.997894 
1.6151908e+3, 2.3380496e+2, -468429.63, -770435.8, -12365.661, -0.08289919, -0.010721675, -467924.16, 180793.23, 0.0, 10.002069, 9.998036 
1.615221e+3, 2.4380276e+2, -316875.16, -624826.2, -33822.758, -0.104556404, -0.031017337, -313204.13, 237534.7, 0.0, 10.0023155, 9.998262 
1.6152507e+3, 2.538022e+2, -323553.7, -548767.3, 11686.086, -0.16107488, 0.030178068, -322948.94, 129795.62, 0.00000000987263, 10.001484, 9.998505 
1.615281e+3, 2.6380104e+2, -326183.88, -578909.06, -5749.626, -0.17667922, 0.106761605, -326053.13, 28703.844, 0.000004852571, 10.0011425, 9.997788 
1.6153115e+3, 2.737986e+2, -147625.52, -430127.6, -16005.829, -0.10737266, 0.039355464, -146721.55, 110060.336, 0.00006465758, 10.001656, 9.997889 
1.6153425e+3, 2.8379685e+2, -28837.586, -363268.84, -34243.75, -0.023165928, 0.10899637, -25367.242, 133433.17, 0.0003366383, 10.001922, 9.997565 
1.6153738e+3, 2.937961e+2, 98581.77, -212809.11, 8415.815, 0.06209445, 0.20003907, 98809.055, 159618.25, 0.0010768002, 10.001969, 9.99789 
1.6154033e+3, 3.037932e+2, 108975.18, -193974.69, -47386.816, 0.009763928, 0.14701588, 116214.35, 116214.35, 0.0024103401, 10.001815, 9.997744 
1.6154315e+3, 3.1378928e+2, 154577.6, 61290.8, -58911.08, -0.091452084, -0.089567065, 183074.88, 183074.88, 0.0041881627, 10.001083, 9.999838 
1.6248535e+3, 1.23779945e+2, -2039998.1, -1763569.9, 42116.87, 0.1051801, 0.19196422, -1757295.4, -30325.742, 0.03179242, 9.997215, 10.000968 
1.6248822e+3, 1.3378155e+2, -1762488.1, -1475667.1, 31935.139, -0.15645956, 0.14135212, -1472154.5, 156795.61, 0.019603958, 9.998054, 10.001892 
1.6249152e+3, 1.4378169e+2, -1829041.6, -1691464.0, 23436.975, 0.037973493, 0.07529445, -1687581.0, -156632.81, 0.009062119, 9.9979515, 9.999761 
1.6249464e+3, 1.5378295e+2, -1651387.9, -1560140.0, 59620.016, 0.042767726, 0.19525947, -1530690.1, -97749.67, 0.002624408, 9.998528, 9.999707 
1.6249776e+3, 1.6378303e+2, -1445742.4, -1391311.6, 69593.14, 0.07144819, 0.24064055, -1343801.6, -8861.503, 0.00032476612, 9.999159, 9.999903 
1.6250083e+3, 1.7378154e+2, -1191335.0, -1178444.9, 29433.463, 0.06878453, 0.040292818, -1154759.1, 82189.64, 0.000005034694, 10.000084, 10.000232 
1.6250391e+3, 1.8378045e+2, -1126481.4, -1252585.1, 62654.945, 0.03569364, -0.015749402, -1100644.6, 38311.12, 0.0, 10.00051, 9.998863 
1.6250703e+3, 1.9377986e+2, -1020181.6, -1135319.9, 39350.492, -0.031996474, 0.0014379793, -1008017.94, 32943.125, 0.0, 10.000523, 9.998974 
1.625101e+3, 2.0377912e+2, -930246.6, -1089650.6, -22154.646, -0.07410033, 0.06046036, -927224.75, 15744.286, 0.0, 10.000645, 9.998571 
1.6251309e+3, 2.1377799e+2, -766206.9, -939796.06, -53481.56, -0.081199214, 0.045849714, -751052.56, 93929.46, 0.0, 10.001027, 9.998737 
1.6251613e+3, 2.2377662e+2, -705140.5, -927136.25, -12977.551, -0.07075998, 0.08075277, -704384.44, 42612.063, 0.0, 10.001055, 9.998137 
1.6251923e+3, 2.3377481e+2, -673545.5, -842524.25, 5197.741, -0.04748365, 0.04093674, -673385.75, -24371.186, 0.0, 10.000531, 9.998289 
1.6252227e+3, 2.437733e+2, -581059.2, -729859.8, 12471.664, -0.060505595, 0.069302425, -580021.1, -28991.404, 0.0, 10.000405, 9.998459 
1.6252518e+3, 2.5377223e+2, -380436.16, -557485.1, -20646.082, -0.15730609, 0.060385045, -378060.47, 74980.125, 0.000000011745934, 10.001004, 9.998677 
1.6252822e+3, 2.6377082e+2, -274105.56, -535596.75, 10595.193, -0.16747198, 0.09798557, -273676.97, 81377.945, 0.0000048598445, 10.001427, 9.99795 
1.6253139e+3, 2.7376857e+2, -143213.98, -413182.6, 21060.402, -0.02119365, 0.04075994, -141580.94, 115495.91, 0.00006306325, 10.001613, 9.998024 
1.6253453e+3, 2.8376696e+2, -49033.887, -320189.13, 64966.332, 0.087583415, 0.09579468, -34272.17, 124820.63, 0.00033149842, 10.00158, 9.99801 
1.6253754e+3, 2.9376626e+2, 27770.89, -198095.14, 55907.742, 0.08913632, 0.15184261, 40851.93, 101951.59, 0.0010554205, 10.001283, 9.998313 
1.6254047e+3, 3.0376408e+2, 81096.31, -203239.5, 61822.586, 0.00086748693, 0.13992263, 93956.62, 93956.62, 0.002340937, 10.001585, 9.997807 
1.6254342e+3, 3.1376052e+2, 382847.16, 126379.71, -30522.75, 0.01891742, -0.047783446, 386429.7, 386429.7, 0.0040345946, 10.002791, 9.9995 
1.63485e+3, 1.2375005e+2, -2036542.5, -1785339.8, 48999.86, -0.037854947, 0.093083926, -1776120.1, -48866.945, 0.03398967, 9.99734, 10.000753 
1.6348812e+3, 1.3374919e+2, -1872674.1, -1703815.4, 54569.836, -0.087228395, -0.07310498, -1687715.3, -58453.105, 0.02102759, 9.998065, 10.000299 
1.6349114e+3, 1.437501e+2, -1746479.1, -1564568.6, 6537.0728, -0.18448597, -0.0016717633, -1564334.0, -33080.87, 0.009775217, 9.99812, 10.000563 
1.6349456e+3, 1.5375145e+2, -1563408.9, -1381311.3, 91643.11, 0.06796208, 0.00568861, -1343176.6, 90063.45, 0.002860367, 9.998537, 10.0009365 
1.634978e+3, 1.6375212e+2, -1463139.9, -1443693.6, 83338.445, 0.14990687, 0.055322677, -1369513.0, -34279.383, 0.00036087315, 9.999222, 9.999516 
1.635008e+3, 1.7375225e+2, -1244920.8, -1283662.8, 73244.93, 0.0063114655, 0.084751405, -1188528.6, 48703.96, 0.000005927034, 10.000057, 9.999522 
1.6350389e+3, 1.8375185e+2, -1148167.0, -1308227.0, 45660.92, -0.074723855, 0.1551811, -1136057.4, 3179.5051, 0.0, 10.000547, 9.998467 
1.6350707e+3, 1.9375044e+2, -1058115.6, -1196444.8, 51873.156, -0.058486037, 0.12596859, -1040824.6, 427.28427, 0.0, 10.00044, 9.998601 
1.635102e+3, 2.0374854e+2, -974068.56, -1142031.8, -24845.893, -0.05564152, 0.10462027, -970470.4, -27198.93, 0.0, 10.000477, 9.998296 
1.6351324e+3, 2.1374574e+2, -814223.06, -993298.56, -21148.3, -0.061581306, -0.050552715, -811759.44, 33539.65, 0.0, 10.000819, 9.998475 
1.6351625e+3, 2.2374445e+2, -706492.06, -857359.06, -41722.71, -0.09035056, -0.022391263, -695722.3, 51590.188, 0.0, 10.000749, 9.99876 
1.6351923e+3, 2.3374555e+2, -654279.7, -746309.0, 1087.8208, -0.11287741, 0.14884356, -654266.8, -4963.7285, 0.0, 10.000293, 9.99906 
1.6352226e+3, 2.4374528e+2, -643103.2, -789368.1, 13685.111, -0.12291513, 0.26911527, -641833.75, -90526.555, 0.0, 10.000118, 9.998182 
1.6352534e+3, 2.537427e+2, -441510.22, -626022.75, 22459.287, -0.124399975, 0.15048215, -438815.75, 14518.488, 0.000000006263202, 10.0007715, 9.998311 
1.6352843e+3, 2.637407e+2, -259477.89, -454553.03, 4686.7505, -0.11633466, 0.121527225, -259365.36, 95988.16, 0.000005059976, 10.00119, 9.998628 
1.6353153e+3, 2.7373943e+2, -118217.984, -306293.53, 54670.793, -0.062029075, 0.06764665, -103480.766, 153881.27, 0.000060994436, 10.001361, 9.998885 
1.6353463e+3, 2.8373784e+2, -62661.85, -272304.5, 37302.28, -0.0040278845, 0.050416317, -56222.355, 103152.45, 0.0003219481, 10.001274, 9.998476 
1.6353767e+3, 2.9373562e+2, 14469.175, -159458.03, 69332.12, 0.052070558, -0.0789481, 38724.324, 100118.24, 0.0010251604, 10.001023, 9.9986925 
1.6354063e+3, 3.0373424e+2, 23737.982, -251977.86, 76224.68, -0.020521935, -0.020557104, 43407.86, 43407.86, 0.002256329, 10.001287, 9.997615 
1.6354378e+3, 3.1373397e+2, 246136.34, -23979.348, 88510.484, 0.038667377, 0.13549292, 272555.22, 272555.22, 0.0038522251, 10.002228, 9.998731 
1.6448465e+3, 1.2371776e+2, -2099439.0, -1781738.1, -10260.381, -0.094867945, -0.005703418, -1781407.1, -53841.723, 0.036383986, 9.996796, 10.001045 
1.6448794e+3, 1.3371691e+2, -1912328.8, -1754340.1, -36878.32, -0.061958555, -0.14402068, -1746155.8, -116579.15, 0.022584815, 9.997938, 10.000019 
1.64491e+3, 1.4371867e+2, -1652410.0, -1507082.8, -20428.438, -0.15719777, 0.022740075, -1504265.8, 27294.756, 0.010560797, 9.9987, 10.000689 
1.6449443e+3, 1.5371971e+2, -1437560.9, -1300060.0, -46044.355, 0.060132015, -0.020188736, -1286065.6, 147483.45, 0.0031241647, 9.999292, 10.001138 
1.644977e+3, 1.6372025e+2, -1440353.3, -1446673.0, -61376.754, 0.13956372, 0.008052936, -1382055.1, -46511.395, 0.0004029895, 9.999448, 9.999387 
1.6450079e+3, 1.7372039e+2, -1351427.1, -1361182.9, -67176.51, 0.018380232, 0.06337821, -1288951.6, -51407.75, 0.0000070009137, 9.999437, 9.9993 
1.645039e+3, 1.837201e+2, -1278701.9, -1350729.3, -29805.664, -0.04038644, 0.15193596, -1267967.6, -128419.195, 0.0, 9.999583, 9.99862 
1.6450712e+3, 1.93719e+2, -1063469.6, -1176018.3, -18516.63, -0.039972506, 0.13237809, -1060501.5, -18939.83, 0.0, 10.000321, 9.998779 
1.6451028e+3, 2.0371744e+2, -946939.3, -1108667.6, -37732.44, -0.026802028, 0.13010688, -938569.25, 5009.05, 0.0, 10.000587, 9.99846 
1.6451335e+3, 2.1371518e+2, -889449.44, -1001852.1, -38683.977, -0.0065220534, 0.00799635, -877422.9, -31822.555, 0.0, 10.00021, 9.998689 
1.6451636e+3, 2.2371411e+2, -749574.94, -851803.3, -12027.315, -0.022244496, 0.03391078, -748178.94, -567.9135, 0.0, 10.000327, 9.999017 
1.6451932e+3, 2.3371479e+2, -497150.22, -641900.9, -33898.652, -0.089421734, 0.14088093, -489604.9, 159999.8, 0.0, 10.001245, 9.999332 
1.6452236e+3, 2.4371454e+2, -423697.34, -655930.3, -3660.1357, -0.09799657, 0.2371182, -423639.7, 127968.37, 0.0, 10.001497, 9.998439 
1.6452548e+3, 2.5371262e+2, -435433.6, -602826.7, 11033.753, -0.048207156, 0.16323015, -434709.44, 18919.375, 0.000000005166704, 10.000712, 9.998508 
1.645286e+3, 2.6371104e+2, -372321.56, -482232.3, 44540.668, -0.011805458, 0.15535328, -356538.25, -894.1741, 0.000005473011, 10.000313, 9.99885 
1.6453168e+3, 2.737098e+2, -188615.63, -308080.03, 4460.088, -0.0078002745, 0.08365765, -188449.34, 69202.64, 0.000058881178, 10.000775, 9.999135 
1.6453476e+3, 2.8370813e+2, -24433.424, -269999.53, -9822.898, 0.015120369, 0.05331226, -24041.123, 135624.3, 0.0003079229, 10.001592, 9.998362 
1.6453785e+3, 2.9370573e+2, 237161.13, -73785.4, -59917.844, 0.06373824, -0.07318809, 248307.44, 309994.6, 0.0009851817, 10.002638, 9.998518 
1.6454086e+3, 3.0370438e+2, 318546.9, -78489.65, -17172.252, -0.0040895385, -0.016170967, 319288.22, 319288.22, 0.0021653366, 10.003145, 9.997926 
1.6454405e+3, 3.1370503e+2, 275959.2, -13370.378, -53142.266, 0.09848116, 0.20044392, 285411.25, 285411.25, 0.0036781193, 10.0024605, 9.998681 
1.6548444e+3, 1.2368348e+2, -2030823.9, -1688830.0, 48097.953, -0.043436475, -0.054379724, -1682194.3, 45708.438, 0.03897044, 9.996975, 10.001624 
1.654876e+3, 1.3368526e+2, -1835383.9, -1593869.3, 19168.295, -0.21279258, -0.018490775, -1592357.5, 37531.31, 0.024272982, 9.997928, 10.001139 
1.6549101e+3, 1.4368755e+2, -1672941.0, -1571183.0, -18087.129, -0.046814647, 0.15364076, -1568063.8, -36195.11, 0.0114189135, 9.9987955, 10.000198 
1.654942e+3, 1.5368783e+2, -1496521.0, -1428446.0, -13182.802, -0.117805384, 0.12337188, -1425982.3, 7884.2437, 0.0034161112, 9.999324, 10.000238 
1.6549744e+3, 1.6368753e+2, -1414606.8, -1421450.6, -81674.32, -0.11941157, 0.116238214, -1336282.8, -413.41086, 0.00045137366, 9.999558, 9.999511 
1.6550072e+3, 1.736861e+2, -1329284.3, -1308058.6, -55558.582, -0.016757686, -0.020751163, -1262108.3, -24226.82, 0.000008273259, 9.999408, 9.999676 
1.6550395e+3, 1.8368529e+2, -1233826.9, -1265669.5, -20189.467, -0.0001376889, -0.031946383, -1224036.3, -84146.88, 0.0, 9.999603, 9.999201 
1.6550712e+3, 1.9368553e+2, -1034682.56, -1096523.6, 21084.465, -0.104439735, 0.024295066, -1028178.0, 13712.114, 0.0, 10.000223, 9.99938 
1.6551025e+3, 2.0368584e+2, -933213.9, -1038077.56, -61752.88, -0.14124525, 0.14847128, -904636.4, 39253.11, 0.0, 10.000409, 9.999029 
1.6551334e+3, 2.1368608e+2, -879706.56, -931613.94, -39438.63, -0.037518874, 0.21598843, -858448.0, -12560.054, 0.0, 9.999995, 9.999275 
1.6551642e+3, 2.2368522e+2, -791902.0, -879454.7, -866.56683, -0.012149932, 0.23445116, -791893.4, -43997.64, 0.0, 10.000071, 9.998951 
1.6551945e+3, 2.3368251e+2, -547176.4, -683939.8, 20107.666, -0.11333902, 0.018311406, -544281.3, 105638.43, 0.0, 10.000978, 9.999174 
1.6552249e+3, 2.4368118e+2, -425696.53, -587384.5, -35971.918, -0.15325224, -0.0101929335, -418054.78, 133876.64, 0.0, 10.001186, 9.999057 
1.6552556e+3, 2.53682e+2, -418420.63, -510791.3, -3762.4011, -0.056465793, 0.1076096, -418267.63, 35657.098, 0.00000000856411, 10.00048, 9.999244 
1.6552866e+3, 2.6368162e+2, -429804.97, -556389.5, 35550.56, 0.007739143, 0.20063546, -420504.16, -64575.7, 0.0000057188686, 10.00011, 9.998442 
1.655318e+3, 2.736794e+2, -247680.53, -392645.5, 42696.586, 0.0011125058, 0.08059156, -236039.84, 21909.217, 0.00005720022, 10.000598, 9.998643 
1.6553491e+3, 2.8367767e+2, -113360.66, -380334.13, 7242.267, -0.019739911, 0.095278114, -113164.336, 46801.766, 0.0002952708, 10.001272, 9.997758 
1.6553804e+3, 2.9367623e+2, 148126.08, -188771.48, 11792.24, -0.044128325, 0.12501143, 148538.33, 210519.8, 0.00095047243, 10.002324, 9.997885 
1.6554105e+3, 3.036741e+2, 282524.1, -39434.89, -49931.703, -0.14215401, 0.11790371, 290090.06, 290090.06, 0.0020977305, 10.002685, 9.998404 
1.6554418e+3, 3.1367326e+2, 219978.06, -4765.6226, -11925.063, -0.07525375, 0.11856394, 220609.03, 220609.03, 0.003562478, 10.001922, 9.999 
1.664843e+3, 1.23650625e+2, -2022187.4, -1744068.1, 81520.31, 0.10823112, -0.03403263, -1721934.9, 6290.7974, 0.041736465, 9.997274, 10.0011 
1.664874e+3, 1.3365372e+2, -1771470.8, -1533933.5, 43443.69, -0.21546285, 0.107276306, -1526237.3, 103962.14, 0.026087236, 9.998212, 10.001431 
1.6649094e+3, 1.4365487e+2, -1808842.0, -1661801.5, -11614.732, 0.049000934, 0.16308618, -1660889.6, -128698.836, 0.012349877, 9.998004, 9.999937 
1.6649409e+3, 1.5365489e+2, -1666421.4, -1536317.6, 6049.5684, -0.09338578, 0.13351808, -1536036.9, -101845.61, 0.003737191, 9.998295, 9.999977 
1.6649736e+3, 1.636546e+2, -1530685.3, -1462624.9, -3369.294, -0.09726872, 0.13893583, -1462458.5, -126264.586, 0.00050616945, 9.99872, 9.9996195 
1.6650069e+3, 1.7365319e+2, -1300274.1, -1277019.0, -24255.996, 0.01724302, -0.01613715, -1261747.6, -23541.984, 0.000009797576, 9.99953, 9.999827 
1.6650394e+3, 1.8365245e+2, -1212110.3, -1217768.9, 16515.557, 0.04713695, -0.040929448, -1198183.4, -57970.984, 0.0, 9.999604, 9.999522 
1.6650711e+3, 1.9365309e+2, -1176442.5, -1120944.1, 6303.2847, -0.06559518, 0.017463846, -1120237.3, -78028.36, 0.0, 9.999074, 9.999755 
1.6651024e+3, 2.0365383e+2, -1070535.1, -1039575.25, -43294.32, -0.11392974, 0.13596795, -1009076.6, -64873.375, 0.0, 9.9991865, 9.999613 
1.6651332e+3, 2.1365456e+2, -762498.06, -806965.06, -45744.6, -0.06204703, 0.19485007, -733870.0, 112325.16, 0.0, 10.000499, 9.999892 
1.6651644e+3, 2.2365394e+2, -651986.5, -801667.0, 14403.87, -0.024546549, 0.20005134, -650613.0, 97586.64, 0.0, 10.000999, 9.999019 
1.6651958e+3, 2.3365118e+2, -651656.75, -731577.25, 6423.9966, -0.025904275, -0.025033772, -651143.7, -919.2137, 0.0, 10.0002575, 9.999174 
1.6652265e+3, 2.4364974e+2, -573939.94, -672642.0, -32725.549, -0.03239544, -0.061732043, -564075.4, -11838.107, 0.0, 10.000207, 9.998966 
1.6652565e+3, 2.5365034e+2, -302228.84, -466354.66, -87258.53, -0.048936024, 0.05333201, -264507.06, 189725.14, 0.0000000057748837, 10.001318, 9.999161 
1.6652873e+3, 2.6364988e+2, -167666.69, -441040.13, -36460.6, -0.016385397, 0.1450217, -162887.39, 193350.03, 0.0000055479773, 10.001955, 9.9983425 
1.6653197e+3, 2.736477e+2, -83141.305, -342240.53, -44674.81, 0.06890587, 0.050448354, -75654.65, 182604.08, 0.000055377644, 10.001823, 9.998416 
1.6653515e+3, 2.836462e+2, -52389.83, -327101.8, -3873.5513, 0.09347328, 0.09443745, -52335.223, 107939.3, 0.00028510438, 10.001583, 9.997954 
1.6653824e+3, 2.9364544e+2, -4637.462, -229341.38, 2720.0151, -0.009129709, 0.16611317, -4604.5415, 57679.332, 0.000926934, 10.001175, 9.998127 
1.6654125e+3, 3.0364293e+2, 118729.305, -131293.45, 6423.6, -0.14552118, 0.10791193, 118894.23, 118894.23, 0.0020635084, 10.001593, 9.998299 
1.6654445e+3, 3.1364205e+2, 327508.28, 47347.844, -81418.45, -0.019470112, 0.12543918, 349451.0, 349451.0, 0.003520621, 10.002659, 9.998996 
1.6748387e+3, 1.23618945e+2, -2101001.5, -1941099.3, -216321.1, -0.1277726, -0.0070055067, -1790427.4, -61890.41, 0.044670317, 9.997423, 9.999669 
1.6748726e+3, 1.3362241e+2, -1810783.4, -1630690.1, 66654.42, -0.18754575, 0.22936854, -1608704.6, 21802.887, 0.028026333, 9.998275, 10.000727 
1.6749069e+3, 1.4362065e+2, -1794343.6, -1652917.9, -32298.807, -0.05742689, 0.041729957, -1645890.8, -113364.06, 0.013357116, 9.99809, 9.999959 
1.6749406e+3, 1.53621e+2, -1642572.1, -1490098.3, 34555.9, -0.00089137343, 0.012615481, -1482632.3, -48109.707, 0.004090086, 9.998301, 10.000298 
1.6749743e+3, 1.6362143e+2, -1511928.6, -1445264.3, 7919.219, 0.05373192, 0.06587007, -1444336.5, -107818.48, 0.0005678562, 9.998807, 9.9997 
1.6750063e+3, 1.7362165e+2, -1307558.0, -1281940.4, 15898.118, -0.0032978058, 0.080089465, -1274333.1, -35817.11, 0.000011659807, 9.999487, 9.999816 
1.6750383e+3, 1.8362175e+2, -1206735.4, -1211435.0, -16360.255, -0.05721273, 0.13577323, -1192557.0, -52041.14, 0.0, 9.999614, 9.999569 
1.6750705e+3, 1.936216e+2, -1185874.9, -1118497.9, -2193.4963, -0.0503042, 0.11151351, -1118426.6, -75908.18, 0.0, 9.998973, 9.999826 
1.6751021e+3, 2.0362136e+2, -1044861.3, -958783.0, -18855.701, -0.08724996, 0.099331096, -954833.8, -10313.661, 0.0, 9.99906, 10.000232 
1.6751325e+3, 2.136207e+2, -749997.6, -728416.0, 20047.281, -0.21013139, -0.04695798, -716439.8, 130081.76, 0.0, 10.00026, 10.000553 
1.6751638e+3, 2.2362043e+2, -689407.1, -803797.25, -18053.914, -0.21102741, -0.054791313, -686625.4, 61896.273, 0.0, 10.000674, 9.999159 
1.6751969e+3, 2.3362067e+2, -681633.6, -744532.1, -8650.126, 0.037155375, 0.017701833, -680465.7, -29945.77, 0.0, 10.000042, 9.999188 
1.6752283e+3, 2.4362002e+2, -663533.5, -796785.3, -17549.477, 0.102918126, 0.09126806, -661260.94, -108733.84, 0.0, 9.999944, 9.998236 
1.675257e+3, 2.536178e+2, -399814.22, -603186.2, -22773.182, -0.15392467, 0.004862019, -397295.34, 57254.402, 0.0000000017385277, 10.001038, 9.998351 
1.6752875e+3, 2.6361597e+2, -215333.8, -461660.8, -48452.0, -0.2278578, 0.0010509158, -206146.08, 150422.33, 0.0000048816705, 10.001614, 9.99837 
1.6753215e+3, 2.7361465e+2, -108165.61, -343807.13, -24258.309, 0.049850926, -0.02254725, -105694.24, 152887.5, 0.000051551386, 10.001592, 9.998526 
1.6753541e+3, 2.8361368e+2, -57922.527, -257580.28, -31336.268, 0.16481394, 0.043879334, -53119.83, 107471.875, 0.0002714196, 10.001244, 9.998595 
1.6753839e+3, 2.9361314e+2, 20220.703, -122452.73, 15951.639, -0.0073319296, 0.054867376, 21982.426, 84579.414, 0.0008994481, 10.000918, 9.998994 
1.6754137e+3, 3.0361047e+2, 13687.195, -242356.25, 23149.785, -0.20480952, -0.042255104, 15763.412, 15763.412, 0.0020333803, 10.00116, 9.997736 
1.6754471e+3, 3.1361073e+2, 246797.48, -17454.496, 22960.932, -0.07645906, 0.15896678, 248777.72, 248777.72, 0.0035086612, 10.002233, 9.998747 
1.6848376e+3, 1.23587176e+2, -1908400.8, -1898465.6, -239530.39, -0.029630981, 0.038086027, -1663851.3, 64998.676, 0.04776628, 9.999002, 9.9991865 
1.6848731e+3, 1.3359049e+2, -1726729.9, -1631669.0, 49210.453, 0.0117776375, 0.29269594, -1610783.0, 20038.578, 0.030093629, 9.999058, 10.000325 
1.6849048e+3, 1.4358716e+2, -1677632.0, -1607731.3, 698.0338, -0.07802154, -0.028568741, -1607724.3, -74868.62, 0.0144471, 9.998917, 9.999882 
1.6849396e+3, 1.53588e+2, -1515062.1, -1431139.9, 13847.275, 0.046427798, -0.004538655, -1428914.1, 5932.4507, 0.004479329, 9.999181, 10.000285 
1.6849737e+3, 1.6358885e+2, -1448649.5, -1386506.5, 16019.946, 0.110779844, 0.082842715, -1382619.8, -45781.96, 0.0006375465, 9.999112, 9.999963 
1.6850057e+3, 1.7358962e+2, -1342570.1, -1258099.9, 22090.92, 0.017566502, 0.11421672, -1252671.5, -13840.718, 0.00001399049, 9.999073, 10.000175 
1.6850379e+3, 1.8359002e+2, -1260766.1, -1219392.1, 24250.266, -0.024045862, 0.17231719, -1208203.9, -67376.766, 0.0, 9.999171, 9.999721 
1.6850702e+3, 1.9358979e+2, -1061766.0, -1050701.4, 11973.864, 0.006812469, 0.12834182, -1043043.5, -213.76591, 0.0, 9.9997835, 9.999902 
1.6851021e+3, 2.0358923e+2, -932010.9, -923300.2, 6537.2095, -0.014502542, 0.09016643, -919800.3, 25034.064, 0.0, 9.999922, 10.000056 
1.685133e+3, 2.1358822e+2, -903350.25, -820069.56, -54529.36, -0.13891824, -0.07253656, -793099.6, 53741.24, 0.0, 9.999303, 10.000374 
1.6851644e+3, 2.2358812e+2, -845305.8, -852863.75, -88210.695, -0.14877963, -0.062806405, -760793.2, -11953.284, 0.0, 9.999462, 9.999433 
1.6851972e+3, 2.3358934e+2, -538709.56, -637754.1, -80710.055, 0.030970829, 0.07821555, -493539.88, 157287.8, 0.0, 10.000842, 9.999561 
1.6852288e+3, 2.4358894e+2, -448134.7, -699133.4, -31314.021, 0.08790432, 0.15935385, -444287.0, 108544.54, 0.0, 10.001447, 9.998169 
1.6852582e+3, 2.5358567e+2, -450348.5, -652534.5, -33100.043, -0.094992496, -0.020242464, -445067.6, 9796.17, 0.0000000018399801, 10.000773, 9.998141 
1.685289e+3, 2.635833e+2, -371005.28, -529747.75, 6039.856, -0.15913035, -0.06900524, -370775.8, -13888.541, 0.0000039092515, 10.000508, 9.99844 
1.6853222e+3, 2.735825e+2, -165229.44, -343108.34, -8980.645, -0.0073865284, -0.05441834, -164777.17, 94118.125, 0.000046409757, 10.001124, 9.998732 
1.6853546e+3, 2.83582e+2, 12410.485, -215722.06, -487.4033, 0.081332214, 0.045449995, 12411.527, 173312.19, 0.00025645504, 10.001668, 9.998704 
1.6853856e+3, 2.9358193e+2, 161374.89, -43656.94, -44539.707, 0.037675697, 0.09665669, 170632.39, 233534.77, 0.0008664291, 10.001826, 9.999119 
1.6854163e+3, 3.0357915e+2, 171557.69, -200652.03, 24505.135, -0.0982143, -0.0050583817, 173164.1, 173164.1, 0.0019906836, 10.002341, 9.997489 
1.6854505e+3, 3.13578e+2, 393162.4, 59287.645, -13783.035, 0.02589215, 0.10775869, 393730.44, 393730.44, 0.0034818437, 10.003152, 9.998888 
1.694838e+3, 1.2355446e+2, -1858214.1, -1838773.9, -84703.78, 0.0057803206, 0.025924519, -1763234.4, -34061.176, 0.051028147, 9.999169, 9.999512 
1.6948743e+3, 1.3355763e+2, -1726212.9, -1632233.5, 51078.38, 0.19131218, 0.2785066, -1609818.4, 21326.387, 0.032295942, 9.999058, 10.000326 
1.6949037e+3, 1.4355429e+2, -1665751.5, -1611902.3, -10726.365, -0.15331532, -0.05395118, -1609844.3, -76665.445, 0.015627254, 9.999033, 9.999801 
1.6949378e+3, 1.5355605e+2, -1539329.0, -1492254.8, 34227.95, -0.084082276, 0.10269279, -1474252.1, -39090.08, 0.004910431, 9.999227, 9.999845 
1.694971e+3, 1.6355704e+2, -1395179.4, -1294599.9, -5318.8984, -0.095187575, 0.20328602, -1294319.4, 42832.65, 0.0007170378, 9.999191, 10.000555 
1.6950044e+3, 1.7355715e+2, -1292923.8, -1150575.3, 35193.41, -0.046506003, 0.09407974, -1142349.5, 96799.39, 0.000016975888, 9.999052, 10.000922 
1.6950376e+3, 1.8355735e+2, -1240700.4, -1186480.8, 25595.828, -0.007196357, 0.07921251, -1176306.6, -35160.97, 0.0, 9.999202, 9.999933 
1.69507e+3, 1.9355756e+2, -1069970.1, -1042079.1, 44495.527, -0.03372976, 0.06712227, -1009394.94, 33748.734, 0.0, 9.999672, 10.000013 
1.695102e+3, 2.0355749e+2, -1031566.25, -1081277.3, -29358.92, -0.045045488, 0.11479393, -1017954.4, -72808.67, 0.0, 9.999709, 9.999079 
1.6951339e+3, 2.1355698e+2, -1010886.94, -1005245.25, -62588.164, 0.006749169, 0.11614342, -945414.4, -98260.195, 0.0, 9.999125, 9.999197 
1.6951653e+3, 2.2355682e+2, -851937.2, -796598.8, -60240.07, -0.014311167, 0.16745797, -757977.3, -8821.376, 0.0, 9.999174, 9.999951 
1.6951962e+3, 2.3355721e+2, -530388.1, -545335.75, -6789.367, -0.16388857, 0.14477003, -527764.75, 123382.79, 0.0, 10.000526, 10.000343 
1.6952275e+3, 2.4355644e+2, -475493.66, -664983.25, -59266.594, -0.20541078, 0.12569624, -458483.78, 94667.586, 0.0, 10.0010605, 9.998592 
1.69526e+3, 2.5355372e+2, -460431.9, -618534.25, -39789.082, -0.015648084, -0.0305348, -450983.03, 4193.602, 0.0000000033657745, 10.000538, 9.998492 
1.6952915e+3, 2.6355162e+2, -408043.97, -537586.3, 7634.7515, 0.0035565456, -0.0709584, -407595.53, -50399.594, 0.0000030031388, 10.000221, 9.998517 
1.6953214e+3, 2.735509e+2, -196933.19, -350066.2, 35916.535, -0.23039839, -0.061623063, -188927.67, 70275.22, 0.000041455987, 10.000877, 9.998797 
1.695353e+3, 2.8355074e+2, -63459.88, -292335.6, -11891.873, -0.28827184, 0.080809414, -62843.66, 98362.05, 0.00024337543, 10.001323, 9.998344 
1.6953868e+3, 2.935512e+2, 91786.84, -131868.38, -15851.58, -0.042655006, 0.2319206, 92904.74, 156110.53, 0.0008331997, 10.001562, 9.998651 
1.6954194e+3, 3.0354837e+2, 84138.016, -256229.73, 34264.08, -0.03168718, 0.16274883, 87553.04, 87553.04, 0.0019313671, 10.00184, 9.997329 
1.6954537e+3, 3.135447e+2, 342058.66, 117204.76, 77566.32, -0.026365288, 0.008167753, 366219.97, 366219.97, 0.003409665, 10.002473, 9.999595 
1.7048365e+3, 1.2352184e+2, -1997093.3, -1820911.5, 47100.73, 0.044025578, -0.01680776, -1809110.0, -79617.375, 0.054460447, 9.997861, 10.000272 
1.7048731e+3, 1.3352467e+2, -1807806.3, -1685193.1, 84857.62, 0.21133988, 0.21995538, -1641812.9, -10346.334, 0.034638863, 9.9985695, 10.000196 
1.7049034e+3, 1.4352196e+2, -1613928.9, -1564897.8, 38087.19, -0.07906104, -0.05327019, -1544118.3, -10623.804, 0.016903277, 9.999331, 9.999971 
1.704937e+3, 1.5352389e+2, -1510324.0, -1457716.0, 84708.68, -0.06364211, 0.102334164, -1395321.3, 40154.543, 0.00538814, 9.99936, 10.000007 
1.7049702e+3, 1.6352479e+2, -1413661.4, -1336000.0, 68945.76, -0.097777605, 0.19736405, -1295702.0, 41765.285, 0.0008082668, 9.9992, 10.000261 
1.7050035e+3, 1.7352465e+2, -1300597.3, -1190569.5, -3396.924, -0.03245027, 0.09513509, -1190464.8, 49004.22, 0.000020835996, 9.999151, 10.000602 
1.705037e+3, 1.8352474e+2, -1268957.4, -1188156.0, -22087.428, 0.03011134, 0.08544273, -1182512.4, -41044.598, 0.0, 9.998957, 10.000053 
1.7050694e+3, 1.9352506e+2, -1175248.3, -1072985.4, -24334.246, 0.0055102883, 0.067127645, -1067490.1, -24025.793, 0.0, 9.998858, 10.000209 
1.7051019e+3, 2.0352525e+2, -1108765.4, -1098616.8, -26147.572, 0.009402933, 0.12271818, -1077055.8, -131592.66, 0.0, 9.9991, 9.999241 
1.7051339e+3, 2.1352533e+2, -862056.5, -917794.94, 1597.442, 0.052924093, 0.16899201, -862010.75, -14546.441, 0.0, 10.000095, 9.99932 
1.7051655e+3, 2.235251e+2, -666263.75, -743249.2, 67133.71, 0.026347348, 0.21735299, -627370.25, 122096.44, 0.0, 10.000604, 9.99962 
1.7051968e+3, 2.3352428e+2, -610293.3, -624230.6, 984.9312, -0.12716791, 0.11203698, -610224.06, 41247.16, 0.0, 10.000164, 9.99996 
1.7052285e+3, 2.4352333e+2, -598788.1, -701796.06, -84030.836, -0.15221941, 0.08722871, -551733.25, 1744.7799, 0.0, 10.000122, 9.998795 
1.705261e+3, 2.5352204e+2, -398241.4, -544213.7, -103747.98, 0.031210257, 0.04541358, -344378.72, 111111.04, 0.0000000026261497, 10.000804, 9.998859 
1.7052925e+3, 2.6352063e+2, -243827.2, -439996.06, -14188.756, 0.05403574, 0.040402703, -242806.25, 114695.83, 0.0000021613648, 10.001253, 9.998704 
1.7053226e+3, 2.73519e+2, -142828.33, -310455.75, -13159.443, -0.19670174, -0.046990566, -141801.55, 117712.7, 0.000036656253, 10.00117, 9.998945 
1.7053543e+3, 2.835181e+2, -111392.29, -358515.84, -18882.736, -0.24697271, 0.027521374, -109957.79, 51565.504, 0.00022921336, 10.001184, 9.997946 
1.7053887e+3, 2.9351795e+2, 30102.484, -218269.55, -73393.516, 0.0028854308, 0.17161325, 50168.938, 113699.85, 0.00079328316, 10.001411, 9.998115 
1.7054215e+3, 3.035156e+2, 86243.72, -220807.89, 36480.76, 0.016832607, 0.1710493, 90518.484, 90518.484, 0.001843639, 10.001692, 9.997627 
1.7054567e+3, 3.1351224e+2, 262549.4, 148430.73, 19708.453, 0.08066088, 0.0019814775, 265857.22, 265857.22, 0.0032697981, 10.001656, 10.000156 
1.7148362e+3, 1.2348977e+2, -1882923.4, -1622972.0, -121111.27, 0.12934273, -0.076014824, -1575291.9, 154512.0, 0.058051143, 9.997978, 10.001642 
1.7148694e+3, 1.3349222e+2, -1847262.1, -1760327.9, 157770.8, -0.037380397, 0.15229864, -1640145.9, -8364.638, 0.037118543, 9.998547, 9.999694 
1.7149034e+3, 1.4349036e+2, -1559215.3, -1490819.5, 31513.3, -0.056057103, -0.017351115, -1478513.9, 55286.793, 0.018276531, 9.999481, 10.000419 
1.7149371e+3, 1.5349136e+2, -1456352.8, -1351655.9, 101122.22, -0.036870517, -0.026924828, -1290135.6, 145653.77, 0.005915651, 9.999374, 10.000734 
1.7149703e+3, 1.6349211e+2, -1485422.0, -1496285.4, 47139.977, -0.042043053, 0.05943149, -1443401.9, -105618.0, 0.0009130136, 9.999254, 9.999131 
1.7150025e+3, 1.7349225e+2, -1410060.9, -1404704.8, 6281.336, -0.06638161, 0.12635294, -1400554.4, -160764.98, 0.000025810483, 9.999104, 9.99915 
1.7150353e+3, 1.8349236e+2, -1268007.9, -1185689.1, -40932.18, -0.069796115, 0.20102808, -1168800.9, -27008.482, 0.0, 9.998951, 10.000073 
1.7150685e+3, 1.9349234e+2, -1165574.9, -1035355.75, -13076.108, -0.0077955886, 0.12196511, -1034055.6, 9735.509, 0.0, 9.99878, 10.000505 
1.715101e+3, 2.034925e+2, -1049779.3, -939308.94, -9778.558, -0.012595832, 0.1100033, -938450.06, 7336.0747, 0.0, 9.998942, 10.000411 
1.7151324e+3, 2.1349312e+2, -805591.75, -739167.44, 52869.19, -0.12465135, 0.07489663, -709944.0, 137829.69, 0.0, 9.999831, 10.000673 
1.7151645e+3, 2.2349273e+2, -789543.06, -927659.7, 43562.832, -0.15400925, 0.07462213, -776951.1, -27176.38, 0.0, 10.000288, 9.998513 
1.7151983e+3, 2.3349057e+2, -749851.4, -868524.5, 1155.596, -0.008493666, -0.009438048, -749840.1, -98040.86, 0.0, 9.999955, 9.998393 
1.7152308e+3, 2.4348956e+2, -644783.2, -718235.56, -79087.49, 0.043006025, 0.0479425, -594310.5, -40498.402, 0.0, 9.999796, 9.99883 
1.715261e+3, 2.534904e+2, -422623.22, -526556.4, -59113.902, -0.0744536, 0.18853883, -395881.6, 59923.945, 0.0000000000058928205, 10.000511, 9.999122 
1.7152922e+3, 2.6348978e+2, -271533.47, -422499.38, -29439.1, -0.14349587, 0.23819448, -265995.8, 91813.734, 0.0000014626683, 10.000934, 9.998977 
1.7153251e+3, 2.734867e+2, -159443.05, -286897.16, 1346.3184, -0.08263195, -0.024555115, -159428.83, 100402.18, 0.000032258973, 10.000916, 9.999231 
1.715358e+3, 2.8348407e+2, -198386.25, -465256.6, -30723.83, -0.019570779, -0.11106076, -194894.81, -33041.68, 0.00021422842, 10.000866, 9.99737 
1.7153902e+3, 2.9348227e+2, -50266.83, -331460.34, -32399.951, -0.0050661266, -0.07217124, -46581.9, 17294.871, 0.0007461243, 10.001169, 9.997457 
1.7154221e+3, 3.0348077e+2, 49802.21, -185453.42, 22120.006, -0.11807945, 0.025380949, 51863.984, 51863.984, 0.0017331638, 10.001252, 9.99807 
1.7154586e+3, 3.1347978e+2, 187193.89, 169521.42, 72300.055, 0.044970796, 0.031282313, 251195.67, 251195.67, 0.0030820621, 10.000935, 10.000634 
1.7248358e+3, 1.2345821e+2, -1746925.4, -1461392.9, -206708.06, 0.29626292, 0.0062809996, -1352941.3, 377175.38, 0.06177432, 9.998467, 10.002586 
1.7248689e+3, 1.3346015e+2, -1784904.3, -1740997.9, 130227.28, 0.05586846, 0.16019826, -1630886.4, 1210.1996, 0.039721623, 9.999009, 9.999585 
1.7249027e+3, 1.434583e+2, -1696275.0, -1571890.8, 25767.092, -0.011878193, 0.011052957, -1566764.3, -32649.352, 0.019743169, 9.998585, 10.000303 
1.7249364e+3, 1.5345922e+2, -1516408.8, -1365323.3, 4799.6396, 0.0018891032, -0.014591466, -1365171.0, 70934.79, 0.006494274, 9.998866, 10.000909 
1.72497e+3, 1.6346025e+2, -1519671.4, -1502985.8, 931.6463, 0.036347885, 0.08783516, -1502933.9, -164835.89, 0.001032908, 9.998973, 9.999229 
1.7250022e+3, 1.7346047e+2, -1366135.5, -1372177.1, 43546.008, -0.011989571, 0.15197952, -1325505.6, -85403.48, 0.00003215152, 9.999349, 9.999259 
1.7250349e+3, 1.8346049e+2, -1207096.0, -1174684.6, 83442.414, -0.016569413, 0.2197986, -1105888.8, 36216.797, 0.0, 9.999444, 9.999911 
1.7250681e+3, 1.9346058e+2, -1069196.8, -1008709.44, 43049.207, 0.04841469, 0.17077321, -986342.1, 57762.223, 0.0, 9.999532, 10.000323 
1.7251009e+3, 2.0346063e+2, -940635.4, -869748.3, 43137.387, 0.047982775, 0.14936945, -849361.06, 96738.97, 0.0, 9.999617, 10.000572 
1.7251326e+3, 2.134605e+2, -762327.25, -695887.06, 2409.0876, -0.08340417, 0.023303421, -695799.8, 152291.63, 0.0, 10.000023, 10.000888 
1.7251651e+3, 2.234598e+2, -813992.6, -965634.44, -23751.387, -0.102798246, -0.008164018, -810359.5, -60264.93, 0.0, 10.000265, 9.998246 
1.725199e+3, 2.3345815e+2, -717685.56, -894580.44, -28168.83, 0.058950085, -0.0050300853, -713308.25, -61190.887, 0.0, 10.000382, 9.997993 
1.7252314e+3, 2.434572e+2, -566977.0, -701676.56, -24726.477, 0.117605984, 0.09027215, -562581.44, -8450.128, 0.0, 10.00039, 9.998663 
1.7252615e+3, 2.534576e+2, -488730.13, -566971.44, -55354.266, -0.032844916, 0.19357242, -460067.88, -3938.9167, 0.0000000000049057277, 10.000078, 9.999052 
1.7252928e+3, 2.6345685e+2, -377465.6, -478852.22, -4761.331, -0.11026715, 0.23570362, -377242.5, -19108.262, 0.0000011502509, 10.000244, 9.998911 
1.7253265e+3, 2.7345398e+2, -117013.94, -280614.2, -36811.313, -0.03217849, 0.010020021, -109112.7, 151041.3, 0.000029351942, 10.00127, 9.999104 
1.72536e+3, 2.8345132e+2, -21718.121, -349163.44, -32550.502, 0.046656206, -0.08261109, -18513.719, 143661.94, 0.00020332959, 10.0019655, 9.9976225 
1.7253923e+3, 2.93449e+2, 107176.875, -220839.78, -28567.748, 0.0518514, -0.120980315, 109646.32, 173847.3, 0.0007057303, 10.002133, 9.99773 
1.725424e+3, 3.034478e+2, 170673.27, -132781.78, 68553.125, -0.07902303, -0.011182532, 185441.31, 185441.31, 0.0016357172, 10.002048, 9.998085 
1.7254598e+3, 3.1344715e+2, 192117.97, 96138.305, -3412.055, 0.091716796, 0.046711694, 192239.13, 192239.13, 0.0029146082, 10.00119, 10.000069 
1.7348324e+3, 1.2342701e+2, -1716373.0, -1421166.0, -212053.3, 0.014431967, 0.20339406, -1310402.8, 420029.88, 0.06561491, 9.998582, 10.002817 
1.7348714e+3, 1.3342832e+2, -1767408.1, -1711274.0, 115802.96, 0.36620063, 0.24139471, -1620185.3, 12228.703, 0.042436883, 9.99903, 9.999784 
1.7349006e+3, 1.4342539e+2, -1733632.5, -1660452.1, 1359.3146, -0.12779781, 0.01255205, -1660426.9, -125985.18, 0.021297567, 9.998639, 9.999661 
1.7349346e+3, 1.5342748e+2, -1547276.6, -1429350.6, 26128.727, -0.09745629, 0.14758354, -1423820.6, 12604.065, 0.0071235094, 9.998872, 10.00046 
1.7349687e+3, 1.634293e+2, -1402112.3, -1293725.9, -4589.2334, -0.033661418, 0.29691175, -1293532.0, 44876.67, 0.0011691477, 9.9991045, 10.000608 
1.7350021e+3, 1.7342924e+2, -1249207.9, -1137053.0, 68140.48, 0.0070186453, 0.1699814, -1104881.9, 135525.81, 0.00004011834, 9.999367, 10.00087 
1.735035e+3, 1.8342918e+2, -1231023.1, -1226113.0, 67219.31, 0.025126303, 0.15183343, -1161303.9, -18896.09, 0.0, 9.999453, 9.999553 
1.7350678e+3, 1.9342966e+2, -1140895.3, -1124107.8, 57098.438, 0.037384868, 0.20848669, -1074789.4, -30383.883, 0.0, 9.999385, 9.999602 
1.7351006e+3, 2.0342943e+2, -1022146.8, -998675.6, 39837.883, 0.03588637, 0.2339398, -968880.75, -22474.324, 0.0, 9.999438, 9.999773 
1.735134e+3, 2.1342766e+2, -848532.0, -833389.6, 33190.34, 0.02798222, 0.021728694, -806917.9, 41498.07, 0.0, 9.999838, 10.000032 
1.7351668e+3, 2.2342648e+2, -830562.2, -933127.0, -32301.037, -0.0052202367, -0.02162027, -821237.3, -70812.83, 0.0, 9.99998, 9.998604 
1.7351985e+3, 2.3342656e+2, -709457.44, -824077.94, -5595.7046, -0.05569384, 0.0943613, -709184.9, -56755.37, 0.0, 10.000143, 9.998594 
1.7352304e+3, 2.4342586e+2, -629543.8, -755976.8, -44982.723, -0.06620862, 0.18801428, -615173.1, -60733.387, 0.0, 10.000077, 9.998439 
1.7352623e+3, 2.5342375e+2, -545596.5, -632103.4, -43232.75, 0.001241284, 0.0780087, -527694.94, -71236.02, 0.000000000000012544113, 9.999857, 9.998711 
1.7352942e+3, 2.6342195e+2, -456332.56, -569405.94, 15158.69, -0.023980262, 0.055162612, -454335.63, -95860.9, 0.0000010511417, 9.999938, 9.998432 
1.7353265e+3, 2.734209e+2, -194009.92, -371177.3, 29088.871, -0.17885877, 0.0513138, -189356.11, 71126.92, 0.000029114979, 10.000986, 9.998608 
1.7353599e+3, 2.834195e+2, -28626.84, -281254.94, -40305.137, -0.1909306, 0.085531265, -22352.266, 140141.72, 0.00019954766, 10.00161, 9.998261 
1.7353943e+3, 2.9341733e+2, 109341.84, -126202.92, 3105.763, 0.0013607444, -0.026612716, 109382.79, 173894.45, 0.0006841952, 10.001744, 9.9985695 
1.7354263e+3, 3.0341604e+2, 65983.36, -225752.52, 18732.994, -0.08637262, 0.043309275, 67181.33, 67181.33, 0.0015848171, 10.001543, 9.997668 
1.7354596e+3, 3.134134e+2, 3990.4563, -116782.836, 27937.771, -0.112851925, -0.049600672, 10140.012, 10140.012, 0.0028348994, 10.000479, 9.998914 
1.7448314e+3, 1.2339477e+2, -1627349.6, -1452548.9, -31438.207, 0.027381985, 0.21985997, -1447066.6, 283682.5, 0.06957688, 9.999582, 10.002098 
1.7448713e+3, 1.3339531e+2, -1869117.9, -1803390.4, 44919.82, 0.49537677, 0.23437557, -1780596.1, -147855.97, 0.045260757, 9.998539, 9.99939 
1.7448995e+3, 1.4339297e+2, -1786448.1, -1664061.8, 27415.574, -0.0771212, 0.07599136, -1658201.1, -123438.375, 0.022935338, 9.99819, 9.999837 
1.7449337e+3, 1.53395e+2, -1565188.4, -1409884.0, 64066.28, -0.041756336, 0.17666472, -1386866.6, 49878.5, 0.0078018596, 9.998637, 10.000684 
1.7449681e+3, 1.6339669e+2, -1435150.5, -1268661.9, 59883.094, 0.02807082, 0.28099248, -1249360.6, 89368.11, 0.0013223152, 9.998707, 10.000978 
1.7450018e+3, 1.7339683e+2, -1291652.1, -1108950.3, 8902.037, 0.08065043, 0.13722996, -1108517.5, 132205.89, 0.000049909977, 9.998874, 10.001307 
1.7450352e+3, 1.8339697e+2, -1270324.0, -1248382.0, 4088.5527, 0.11970459, 0.116615295, -1247644.9, -104924.6, 0.0000000000000006446772, 9.999208, 9.999506 
1.7450683e+3, 1.933974e+2, -1042134.3, -1089694.1, 3520.312, 0.121255554, 0.1793228, -1041875.1, 2843.9255, 0.0, 10.000131, 9.999462 
1.745101e+3, 2.0339707e+2, -898477.4, -985435.1, 38187.645, 0.10979854, 0.21870609, -884088.2, 62634.375, 0.0, 10.000466, 9.999378 
1.745134e+3, 2.1339525e+2, -866014.4, -886145.9, 23173.154, 0.06764263, 0.04616303, -850815.25, -2079.837, 0.0, 9.999904, 9.999643 
1.7451666e+3, 2.2339419e+2, -825986.2, -885539.3, 25769.93, 0.016913151, 0.01764501, -816383.4, -65639.58, 0.0, 9.999786, 9.9990425 
1.7451987e+3, 2.3339468e+2, -614056.75, -707907.8, 31594.086, -0.051652998, 0.118945934, -604412.06, 48330.22, 0.0, 10.000493, 9.9992285 
1.745231e+3, 2.4339421e+2, -475196.4, -661281.2, 17428.396, -0.047118027, 0.19032891, -473578.2, 81169.95, 0.0, 10.001094, 9.998583 
1.7452633e+3, 2.533917e+2, -309737.63, -513854.1, 1446.5701, 0.060930733, 0.040171944, -309727.38, 147042.22, 0.0, 10.001501, 9.998716 
1.7452955e+3, 2.6338965e+2, -254795.95, -537880.0, 104899.35, 0.06063995, 0.014659848, -220161.88, 138626.52, 0.0000010008785, 10.001576, 9.997868 
1.7453277e+3, 2.7338862e+2, -223470.5, -462481.38, 71711.64, -0.13722841, 0.08101494, -203605.55, 57195.11, 0.000030147008, 10.00109, 9.997935 
1.7453612e+3, 2.8338727e+2, -121927.23, -326925.44, 18063.113, -0.16566089, 0.15860575, -120347.79, 42465.223, 0.00019898178, 10.000943, 9.9982815 
1.7453958e+3, 2.9338497e+2, 42959.625, -157476.97, -38453.81, 0.035976212, 0.025807464, 50083.78, 114913.68, 0.00068108423, 10.001236, 9.998623 
1.7454277e+3, 3.0338323e+2, 59721.04, -189055.95, -1819.7614, -0.04893142, 0.031118674, 59734.348, 59734.348, 0.0015910987, 10.001307, 9.998054 
1.7454612e+3, 3.1338117e+2, 146204.13, -45672.375, -13321.456, -0.026780779, -0.03950795, 147124.58, 147124.58, 0.0028723662, 10.001416, 9.9989605 
1.7548324e+3, 1.2336101e+2, -1708931.1, -1651185.1, 37270.03, 0.084704444, 0.028999986, -1632912.6, 98157.56, 0.07366958, 9.999697, 10.000587 
1.7548673e+3, 1.3336083e+2, -1936008.4, -1941245.1, 22883.998, 0.21351925, 0.112880155, -1915593.4, -282516.28, 0.048192136, 9.998536, 9.998443 
1.7548987e+3, 1.4336151e+2, -1689101.1, -1495725.1, 24779.484, -0.01969986, 0.23892778, -1492600.3, 42473.277, 0.024652572, 9.998322, 10.000943 
1.7549336e+3, 1.5336178e+2, -1497737.6, -1281950.4, 89762.016, 0.047567993, 0.07682629, -1249493.5, 187573.23, 0.008527423, 9.998672, 10.001564 
1.7549676e+3, 1.633621e+2, -1470031.6, -1351699.9, 38472.6, 0.05273517, 0.023198862, -1340291.4, -1230.6381, 0.0014925194, 9.998761, 10.00038 
1.7550008e+3, 1.7336315e+2, -1353930.6, -1224339.9, 28774.863, 0.07483326, 0.0464802, -1218237.9, 22812.162, 0.00006156021, 9.998824, 10.000534 
1.7550348e+3, 1.8336396e+2, -1251274.3, -1210092.1, 17360.14, 0.11488777, 0.12150331, -1203750.6, -60708.2, 0.0000000010737394, 9.99921, 9.999767 
1.7550689e+3, 1.9336388e+2, -1027373.8, -1041425.25, 49964.18, 0.16303074, 0.09495085, -983943.8, 61100.695, 0.0, 10.000049, 9.999834 
1.755102e+3, 2.0336354e+2, -924208.44, -1001685.94, 7872.4854, 0.110331036, 0.115674056, -923416.56, 23631.756, 0.0, 10.000305, 9.999343 
1.7551327e+3, 2.1336298e+2, -901254.06, -911678.9, 13374.683, -0.08358007, 0.07246277, -892112.0, -43059.086, 0.0, 9.999692, 9.999572 
1.7551647e+3, 2.2336262e+2, -829292.44, -826640.25, 29101.19, -0.17636622, 0.097639345, -798834.94, -47779.56, 0.0, 9.999505, 9.999582 
1.7551993e+3, 2.3336264e+2, -605038.56, -632645.2, 74452.92, -0.07331131, 0.08363999, -543120.25, 109934.49, 0.0, 10.000243, 9.999868 
1.7552327e+3, 2.4336225e+2, -505609.6, -644451.75, 20557.572, -0.013241647, 0.11309101, -502629.7, 52427.293, 0.0, 10.000751, 9.998864 
1.7552644e+3, 2.53361e+2, -330664.25, -500150.38, 31399.8, -0.0010113027, 0.061879285, -325034.0, 132031.83, 0.0, 10.001253, 9.99893 
1.7552966e+3, 2.633592e+2, -343449.56, -664648.6, 69735.61, -0.015178117, 0.08410807, -328962.66, 30119.908, 0.00000094846536, 10.001324, 9.997124 
1.7553298e+3, 2.7335688e+2, -321670.66, -603742.44, 72608.305, -0.06754134, 0.10699569, -304077.75, -42967.94, 0.000030605133, 10.000827, 9.997091 
1.7553633e+3, 2.8335467e+2, -208800.06, -433220.7, 11416.121, -0.07915373, 0.16560304, -208220.83, -45087.773, 0.0002004244, 10.000625, 9.997704 
1.7553967e+3, 2.93352e+2, -46439.91, -266045.6, -1767.9938, -0.035699047, 0.049652588, -46425.68, 18729.244, 0.000696978, 10.000912, 9.99803 
1.7554282e+3, 3.0334958e+2, 44983.836, -117984.914, -23200.867, -0.17897105, -0.0069896406, 48222.44, 48222.44, 0.0016497358, 10.000885, 9.9987335 
1.7554636e+3, 3.1335038e+2, 75588.08, -2175.6985, 64168.16, 0.019658668, 0.09106379, 111735.2, 111735.2, 0.003001796, 10.000647, 9.999606 
1.7648312e+3, 1.2332796e+2, -1863912.4, -1740394.3, 47937.93, 0.07436107, -0.01448049, -1723972.6, 7418.272, 0.07790593, 9.998671, 10.000434 
1.7648663e+3, 1.333271e+2, -1773327.3, -1856754.5, 68415.01, 0.22654843, -0.0004536277, -1734912.0, -101505.95, 0.05123237, 9.999602, 9.9985075 
1.7648987e+3, 1.4332938e+2, -1475175.3, -1417366.1, 75158.125, 0.092368014, 0.285099, -1365746.0, 169641.39, 0.026445003, 9.9999, 10.000747 
1.7649327e+3, 1.5332885e+2, -1523173.0, -1327777.6, 1530.1157, 0.104972385, 0.0780337, -1327765.6, 109623.04, 0.009296644, 9.99867, 10.001248 
1.7649661e+3, 1.6332878e+2, -1560722.3, -1409564.3, -15353.517, 0.07153991, 0.009868131, -1408020.5, -68633.7, 0.0016790463, 9.99821, 10.0002365 
1.7650001e+3, 1.7332971e+2, -1257256.1, -1194630.0, -4140.479, 0.09199707, 0.032838333, -1194357.4, 47020.188, 0.000074904594, 9.999554, 10.0003805 
1.7650345e+3, 1.833304e+2, -1128533.6, -1138089.0, 16912.514, 0.14832711, 0.099905655, -1115737.0, 27634.125, 0.000000009428086, 9.999999, 9.999887 
1.7650689e+3, 1.9333042e+2, -1123189.6, -1064994.0, -2996.6084, 0.20302504, 0.06897635, -1064840.0, -19468.404, 0.0, 9.999303, 10.00004 
1.765102e+3, 2.0333032e+2, -1091285.8, -1076873.8, -19600.465, 0.1630109, 0.10114509, -1063196.6, -115823.22, 0.0, 9.999158, 9.999371 
1.7651328e+3, 2.1333016e+2, -835850.7, -879851.6, -37603.344, -0.040818084, 0.105108485, -814284.75, 35090.707, 0.0, 10.000166, 9.999553 
1.7651649e+3, 2.2333e+2, -675360.7, -727903.3, -12434.595, -0.13414188, 0.14066903, -672566.56, 78810.09, 0.0, 10.000472, 9.999783 
1.7651992e+3, 2.3332977e+2, -679118.25, -639097.4, -38609.203, -0.047087822, 0.08027396, -615621.2, 37755.54, 0.0, 9.999626, 10.000111 
1.7652328e+3, 2.4332926e+2, -651190.3, -716576.44, -50266.21, 0.0046412908, 0.08424247, -623920.6, -68541.47, 0.0, 9.999707, 9.998898 
1.7652653e+3, 2.533282e+2, -302981.34, -490472.94, -70043.375, -0.016184414, 0.058167174, -279704.28, 177681.77, 0.0, 10.001417, 9.998938 
1.7652982e+3, 2.633265e+2, -197088.17, -570120.1, -32959.363, -0.0224136, 0.07994789, -194198.42, 165203.16, 0.0000007067664, 10.002254, 9.997313 
1.7653313e+3, 2.7332383e+2, -219215.42, -531466.56, -12905.277, -0.02149351, 0.048037667, -218682.95, 42748.1, 0.000029110019, 10.001448, 9.997281 
1.7653649e+3, 2.833215e+2, -137563.28, -397282.28, 54091.125, 0.0036621562, 0.08649934, -126748.195, 36706.684, 0.00020337792, 10.001122, 9.997711 
1.765399e+3, 2.9331934e+2, 90787.38, -209770.77, 26920.219, 0.056079194, 0.032201428, 93179.516, 158653.31, 0.0007256054, 10.001918, 9.997929 
1.7654301e+3, 3.0331635e+2, 227599.92, -37644.258, 14424.553, -0.102746174, -0.06858381, 228382.05, 228382.05, 0.0017291429, 10.002148, 9.998682 
1.7654647e+3, 3.1331688e+2, 123245.625, 20023.438, -43095.586, 0.07420481, 0.018688766, 138872.42, 138872.42, 0.0031412542, 10.000924, 9.999646 
1.7748275e+3, 1.2329653e+2, -1780060.0, -1619558.6, -122894.63, -0.24681011, 0.15192941, -1553033.1, 178670.0, 0.08231803, 9.998842, 10.001282 
1.774869e+3, 1.3329457e+2, -1694084.9, -1699808.1, 132928.14, 0.47958246, -0.076731235, -1563987.6, 69734.57, 0.054393712, 9.999632, 9.999586 
1.7748988e+3, 1.4329621e+2, -1568349.3, -1636865.9, 22589.857, 0.048901714, 0.16904823, -1561571.9, -25864.287, 0.02831169, 10.000008, 9.999168 
1.7749304e+3, 1.5329619e+2, -1629102.5, -1555896.5, -34412.438, -0.027421767, 0.17075536, -1542260.1, -104549.164, 0.010105246, 9.998698, 9.999665 
1.7749633e+3, 1.6329674e+2, -1535059.1, -1369714.9, 1122.6598, -0.06764331, 0.24214068, -1369707.3, -30000.582, 0.0018804772, 9.998264, 10.000484 
1.774999e+3, 1.7329651e+2, -1225329.8, -1122775.9, 60210.418, 0.00084873266, 0.10062647, -1094966.6, 146739.42, 0.00008970714, 9.99953, 10.000885 
1.7750339e+3, 1.8329632e+2, -1128471.0, -1141743.4, -14648.35, 0.05594861, 0.05318588, -1119025.8, 24680.607, 0.000000028818846, 10.000013, 9.999857 
1.7750674e+3, 1.9329691e+2, -1141502.3, -1085107.3, -14815.848, 0.10727106, 0.08772662, -1081451.9, -35750.105, 0.0, 9.999221, 9.999946 
1.775101e+3, 2.0329724e+2, -1112014.5, -1082862.4, -7788.6377, 0.11434242, 0.16572331, -1080912.0, -133212.75, 0.0, 9.999004, 9.999397 
1.7751342e+3, 2.1329679e+2, -871467.7, -898930.6, 14764.732, 0.061394747, 0.13555782, -865036.06, -15332.479, 0.0, 9.999935, 9.999527 
1.7751668e+3, 2.2329628e+2, -734631.75, -790715.75, -46661.17, -0.015013193, 0.15291801, -708234.6, 43473.15, 0.0, 10.000201, 9.999485 
1.7751984e+3, 2.3329583e+2, -724927.44, -698456.25, -53707.336, -0.10082787, 0.095843494, -656377.6, -2667.1506, 0.0, 9.999451, 9.999795 
1.7752314e+3, 2.43295e+2, -702473.25, -749565.3, -16611.31, -0.1418435, 0.08999699, -697203.5, -141486.92, 0.0, 9.999403, 9.99881 
1.7752661e+3, 2.5329357e+2, -349995.84, -520217.38, 14488.403, -0.10621097, 0.031710587, -348771.47, 108956.52, 0.0, 10.001135, 9.998866 
1.7752999e+3, 2.6329184e+2, -191324.03, -471458.38, -59938.563, -0.105863035, 0.0141215315, -179038.19, 180704.73, 0.00000032366296, 10.001888, 9.998163 
1.7753316e+3, 2.732896e+2, -197618.08, -403882.7, -22772.752, -0.14402083, -0.07312874, -195133.77, 66629.36, 0.00002512301, 10.001114, 9.998307 
1.7753653e+3, 2.8328785e+2, -171199.0, -388908.9, 49710.02, -0.0911475, -0.043606434, -160385.72, 3392.8376, 0.00020098852, 10.000781, 9.997934 
1.7754017e+3, 2.932867e+2, 45879.137, -214219.02, 80398.35, 0.1229887, -0.016868556, 68724.33, 134512.98, 0.00074255146, 10.001539, 9.998077 
1.7754334e+3, 3.0328336e+2, 98833.51, -187440.89, -35831.54, -0.032261573, -0.1308425, 103250.22, 103250.22, 0.001770995, 10.001654, 9.997885 
1.7754641e+3, 3.1328276e+2, -13922.946, -79387.03, -5633.839, -0.13361779, -0.06658803, -13441.637, -13441.637, 0.0031863125, 10.000188, 9.999289 
1.7848264e+3, 1.23264484e+2, -1788834.6, -1602250.5, -125240.914, -0.2302736, 0.3125619, -1539373.8, 192645.94, 0.08696164, 9.998734, 10.001439 
1.78487e+3, 1.3326105e+2, -1682592.3, -1686443.5, 9664.935, 0.6415735, -0.06979237, -1674663.0, -40611.008, 0.057701517, 9.999733, 9.999592 
1.784898e+3, 1.4326294e+2, -1668872.5, -1687085.0, -104913.586, 0.03717448, 0.20826355, -1572670.8, -36636.734, 0.030258754, 9.999335, 9.999143 
1.7849296e+3, 1.5326254e+2, -1560244.8, -1516439.8, -80580.13, 0.03181351, 0.16548522, -1454838.5, -16797.734, 0.0109521225, 9.999139, 9.999722 
1.7849627e+3, 1.6326305e+2, -1464441.9, -1340764.3, 89919.37, 0.033468917, 0.22794811, -1293472.3, 46564.637, 0.0020959692, 9.998774, 10.000433 
1.7849985e+3, 1.73263e+2, -1380759.4, -1201558.4, 76907.36, 0.05643623, 0.10927285, -1173078.4, 68956.74, 0.000105867584, 9.9985, 10.000832 
1.7850335e+3, 1.8326291e+2, -1311878.9, -1231601.1, 7635.995, 0.08339774, 0.07834855, -1230881.3, -86846.234, 0.0000000562377, 9.998756, 9.999852 
1.785067e+3, 1.9326364e+2, -966251.3, -996048.3, -10612.371, 0.09325491, 0.123918295, -962858.06, 83171.37, 0.0, 10.000391, 9.999992 
1.7851007e+3, 2.0326394e+2, -814994.94, -944264.8, 12482.806, 0.10467389, 0.19449434, -813800.56, 134226.7, 0.0, 10.001055, 9.999366 
1.7851347e+3, 2.1326299e+2, -844566.4, -890825.2, -4274.3477, 0.110756926, 0.119996004, -844174.75, 5860.3413, 0.0, 10.00013, 9.999495 
1.7851676e+3, 2.2326215e+2, -837012.3, -859014.25, -36064.41, 0.083985336, 0.113737434, -810308.3, -58266.36, 0.0, 9.999589, 9.999316 
1.785199e+3, 2.3326175e+2, -670303.8, -693317.3, -69905.4, -0.0011184807, 0.085753925, -610964.5, 43080.168, 0.0, 9.999935, 9.9995985 
1.7852318e+3, 2.43261e+2, -590163.06, -680560.1, 34082.484, -0.0530775, 0.096655615, -578753.06, -22702.62, 0.0, 10.000131, 9.9989195 
1.7852668e+3, 2.5325966e+2, -496224.8, -573107.94, 52028.56, -0.07856534, 0.029184474, -469976.94, -11915.337, 0.0, 10.0000725, 9.999002 
1.785301e+3, 2.632582e+2, -404567.84, -535720.25, -29210.701, -0.09413786, 0.01531159, -398356.13, -38282.168, 0.00000018370703, 10.000224, 9.99854 
1.7853329e+3, 2.7325624e+2, -208687.45, -373866.63, -70545.164, -0.105687216, -0.07439108, -182660.0, 79429.914, 0.000020759246, 10.000832, 9.998677 
1.7853665e+3, 2.8325486e+2, -119855.266, -324451.28, 28629.383, -0.036916208, -0.04907143, -115924.63, 48177.223, 0.0001926232, 10.000979, 9.998269 
1.7854029e+3, 2.9325426e+2, -102822.4, -252897.53, 20881.475, 0.1508688, 0.0013809336, -99971.12, -33864.242, 0.00073852757, 10.000376, 9.998365 
1.7854345e+3, 3.0325118e+2, -46517.977, -255190.73, -15124.181, -0.006244661, -0.098241575, -45427.508, -45427.508, 0.0017551996, 10.000646, 9.997905 
1.7854656e+3, 3.1324986e+2, 297630.03, 72634.63, -10062.222, -0.07346049, -0.085634805, 298079.16, 298079.16, 0.003105376, 10.002292, 9.999344 
1.7948268e+3, 1.2322951e+2, -1804053.3, -1672443.0, -23182.637, -0.13780156, 0.21663095, -1668478.9, 63884.3, 0.09190124, 9.998896, 10.000831 
1.7948687e+3, 1.3322638e+2, -1740373.0, -1840859.6, 14244.627, 0.50025094, 0.0006477381, -1738392.8, -103995.77, 0.06119029, 9.999848, 9.998493 
1.7948964e+3, 1.4322968e+2, -1564438.0, -1478269.6, -136603.81, -0.10170418, 0.41116703, -1378116.8, 158248.98, 0.03230053, 9.999382, 10.000572 
1.7949304e+3, 1.53228e+2, -1445792.8, -1274053.8, -73404.164, 0.16112822, 0.07278433, -1246955.4, 191421.8, 0.011841973, 9.999122, 10.001403 
1.7949638e+3, 1.6322765e+2, -1476612.4, -1387619.9, 58362.324, 0.22293441, -0.028284188, -1358726.3, -18348.469, 0.0023264778, 9.998854, 10.00008 
1.794998e+3, 1.7322898e+2, -1425401.9, -1299214.1, 76025.25, 0.13677709, 0.057404857, -1263511.9, -21145.283, 0.00012352158, 9.998509, 10.000165 
1.7950325e+3, 1.8323e+2, -1304632.4, -1220214.5, 38544.266, 0.07221922, 0.16914323, -1205263.5, -60904.69, 0.000000085167756, 9.998778, 9.999915 
1.795067e+3, 1.9323057e+2, -974372.44, -984739.25, 61180.81, 0.025091214, 0.18436448, -918155.9, 128199.51, 0.0, 10.000273, 10.000126 
1.7951009e+3, 2.0323043e+2, -843333.9, -962853.44, -25120.396, -0.024467798, 0.20594439, -838268.75, 110088.58, 0.0, 10.0008745, 9.99933 
1.7951337e+3, 2.1322882e+2, -875346.0, -913060.9, -26728.91, -0.016092228, 0.07163862, -861492.0, -11122.365, 0.0, 9.999941, 9.999441 
1.7951667e+3, 2.2322758e+2, -886876.44, -900402.8, -45788.016, 0.01915391, 0.0337508, -847354.8, -94975.35, 0.0, 9.999324, 9.999159 
1.7952004e+3, 2.3322733e+2, -718304.75, -736531.1, -38885.22, 0.11693651, 0.037149176, -687479.06, -33097.62, 0.0, 9.999694, 9.999415 
1.7952338e+3, 2.4322698e+2, -622665.06, -677000.2, 22461.91, 0.10663034, 0.08925723, -614581.94, -58197.953, 0.0, 9.999826, 9.99909 
1.795267e+3, 2.5322628e+2, -514234.56, -550833.94, 66252.875, -0.07732319, 0.06088155, -463800.56, -5412.003, 0.0, 9.999825, 9.9992695 
1.7953008e+3, 2.6322523e+2, -457521.63, -570958.3, -25451.447, -0.15637442, 0.07982492, -452072.88, -91675.19, 0.00000013255313, 9.999902, 9.998455 
1.7953344e+3, 2.7322367e+2, -262576.56, -406112.4, -29272.762, -0.06284045, 0.031360514, -256836.22, 5576.791, 0.0000188634, 10.000506, 9.998604 
1.795368e+3, 2.8322253e+2, -151709.66, -310486.5, -5631.137, -0.017061226, 0.07564639, -151510.2, 12913.495, 0.00018772867, 10.000628, 9.998538 
1.7954016e+3, 2.9322195e+2, -123805.45, -213399.19, 27598.725, -0.027923545, 0.093916535, -115986.266, -49559.094, 0.00073078944, 10.000032, 9.998795 
1.7954333e+3, 3.032197e+2, -84770.66, -241748.61, 10567.286, -0.21706244, 0.036695443, -84062.49, -84062.49, 0.0017135283, 10.000232, 9.998205 
1.795468e+3, 3.1321824e+2, 245596.23, 137944.5, 126144.164, -0.13037519, -0.015480987, 328918.38, 328918.38, 0.0029599608, 10.001584, 10.000114 
1.8048279e+3, 1.2319445e+2, -1655011.5, -1656547.5, -2700.6826, 0.026100298, 0.1665092, -1652971.8, 79734.94, 0.097200245, 10.00026, 10.000286 
1.8048668e+3, 1.3319162e+2, -1747475.5, -1760436.0, 72731.17, 0.36460117, -0.06930273, -1680936.5, -46200.086, 0.06490086, 9.999454, 9.99923 
1.8048961e+3, 1.4319608e+2, -1629203.8, -1503013.6, 10050.043, -0.033916354, 0.40507504, -1502218.3, 34474.926, 0.034457777, 9.9988785, 10.000637 
1.8049304e+3, 1.531945e+2, -1387650.5, -1258051.5, -83574.445, 0.2412115, 0.082868546, -1217098.1, 221607.23, 0.0127833225, 9.999563, 10.001303 
1.8049634e+3, 1.6319394e+2, -1352424.6, -1339772.1, -2525.7432, 0.2751496, -0.028572725, -1339286.5, 1422.6106, 0.0025744103, 9.999764, 9.99997 
1.804997e+3, 1.7319536e+2, -1303429.1, -1245555.8, 21329.57, 0.16228418, 0.074704304, -1238544.1, 4152.602, 0.00014305822, 9.999381, 10.000102 
1.8050314e+3, 1.831964e+2, -1279852.3, -1212447.1, 68086.336, 0.10560411, 0.19306876, -1170178.6, -25490.178, 0.00000010953618, 9.998958, 9.999886 
1.8050666e+3, 1.9319671e+2, -1186458.9, -1085140.6, 55273.492, 0.045691643, 0.18169294, -1060823.1, -14135.182, 0.0, 9.9988165, 10.000137 
1.8051007e+3, 2.031966e+2, -1084773.1, -1045252.7, -11922.901, -0.006970158, 0.19488695, -1041934.3, -93244.945, 0.0, 9.999065, 9.99965 
1.8051337e+3, 2.1319576e+2, -808383.94, -834780.2, -15665.596, -0.010289756, 0.098413445, -801097.9, 49595.54, 0.0, 10.000205, 9.999854 
1.8051669e+3, 2.2319478e+2, -685388.4, -837490.06, 4830.974, 0.038228374, 0.075346194, -685235.06, 67465.51, 0.0, 10.000867, 9.9988365 
1.8052009e+3, 2.3319376e+2, -590056.4, -731573.4, -41920.594, 0.15355432, 0.053176038, -578570.7, 76141.53, 0.0, 10.000828, 9.998895 
1.8052344e+3, 2.4319305e+2, -492871.8, -603796.94, 17376.16, 0.15882985, 0.09536566, -490213.6, 66505.67, 0.0, 10.000647, 9.999225 
1.8052673e+3, 2.5319272e+2, -453152.13, -497473.97, 27345.482, -0.03330364, 0.08451682, -440115.3, 18603.82, 0.0, 10.0001135, 9.999528 
1.8053012e+3, 2.6319197e+2, -457686.75, -549181.56, -3936.154, -0.09265559, 0.11311188, -457517.72, -96793.32, 0.00000007008213, 9.999821, 9.998635 
1.8053356e+3, 2.7319056e+2, -313023.06, -424791.7, -30854.896, 0.037837178, 0.07043272, -305071.0, -42332.04, 0.000018211349, 10.000127, 9.998666 
1.8053694e+3, 2.8318924e+2, -158315.08, -310907.13, 21065.432, 0.08377141, 0.09382925, -155460.38, 9291.081, 0.00018396281, 10.000556, 9.998573 
1.8054023e+3, 2.9318798e+2, 93343.5, -111891.12, -17413.055, -0.016571922, 0.052724563, 94810.42, 161571.45, 0.0007176876, 10.00152, 9.998785 
1.8054345e+3, 3.0318615e+2, 173131.39, -119497.17, -11200.701, -0.18015884, 0.03749804, 173559.48, 173559.48, 0.0016608938, 10.002038, 9.998159 
1.8054704e+3, 3.1318557e+2, 166791.78, 67266.3, -23841.854, 0.0036497219, 0.09931574, 172208.42, 172208.42, 0.002818699, 10.001083, 9.99991 
1.8148288e+3, 1.23159684e+2, -1679300.3, -1742086.5, -194327.94, 0.017949285, 0.21185267, -1513846.0, 219200.39, 0.10291468, 10.00044, 9.999639 
1.8148638e+3, 1.3315657e+2, -1569441.9, -1397212.8, 47930.18, 0.08861311, -0.28523982, -1384772.8, 250299.03, 0.06887483, 9.999447, 10.001847 
1.8148966e+3, 1.4316185e+2, -1693983.5, -1649677.0, 1138.9304, 0.07825583, 0.15955296, -1649647.8, -112628.87, 0.036753505, 9.998932, 9.9995985 
1.8149292e+3, 1.531619e+2, -1509988.3, -1521515.9, -43966.973, 0.13051108, 0.1807158, -1471408.9, -32381.992, 0.01378539, 9.9996, 9.999467 
1.814961e+3, 1.6316195e+2, -1329838.8, -1312841.0, -30184.004, 0.0124265915, 0.22761959, -1289982.3, 51048.742, 0.002842686, 9.99985, 10.000113 
1.8149953e+3, 1.7316216e+2, -1273514.3, -1184304.5, 18378.97, 0.013670827, 0.16799083, -1180666.5, 62358.637, 0.00016504708, 9.9993725, 10.00053 
1.8150303e+3, 1.8316223e+2, -1283462.8, -1220769.1, 42057.137, 0.04174239, 0.16798133, -1199661.9, -54639.17, 0.00000012908751, 9.99896, 9.999829 
1.8150656e+3, 1.9316211e+2, -1202281.5, -1106257.9, 62261.28, 0.028410539, 0.12549706, -1075646.6, -28620.225, 0.0, 9.998761, 10.000022 
1.8151002e+3, 2.0316243e+2, -1065780.0, -965399.6, 8615.09, 0.00040821536, 0.16138011, -964665.6, -15642.016, 0.0, 9.9988985, 10.000274 
1.8151341e+3, 2.1316357e+2, -790516.6, -740345.6, 42475.992, 0.0042444733, 0.1878545, -716100.7, 134907.55, 0.0, 9.999958, 10.00062 
1.8151677e+3, 2.2316352e+2, -774636.75, -944355.94, -4513.535, -0.0008321264, 0.23170786, -774516.8, -21509.016, 0.0, 10.000528, 9.998266 
1.8152002e+3, 2.3316105e+2, -690875.4, -880548.75, -27669.512, -0.014241168, 0.14882971, -686921.44, -31884.455, 0.0, 10.000566, 9.997999 
1.8152331e+3, 2.4315913e+2, -539556.75, -630052.1, -10795.057, -0.049384724, 0.13047463, -538286.9, 18770.092, 0.0, 10.000345, 9.999184 
1.8152672e+3, 2.5315875e+2, -468532.7, -473511.97, 25601.516, -0.07978705, 0.08430392, -445300.06, 13754.968, 0.0, 9.999877, 9.999798 
1.8153015e+3, 2.6315817e+2, -491688.16, -546673.06, -12074.205, -0.059334498, 0.10590089, -489153.6, -128097.42, 0.0000000874347, 9.999503, 9.998807 
1.8153359e+3, 2.7315694e+2, -346064.56, -419756.25, 2359.2742, 0.048811745, 0.061210558, -345989.1, -82922.0, 0.00001648955, 9.999825, 9.998837 
1.8153702e+3, 2.831552e+2, -233172.75, -392113.16, 32979.91, 0.07355004, 0.0503183, -226601.17, -61518.27, 0.00017264257, 10.000226, 9.998178 
1.8154041e+3, 2.9315266e+2, 16076.687, -194877.56, 46247.355, -0.019669076, -0.0896412, 25770.05, 92875.69, 0.00068283465, 10.00118, 9.998379 
1.8154374e+3, 3.031509e+2, 55772.844, -253131.86, -51471.59, -0.14046949, -0.04784945, 64123.605, 64123.605, 0.0015899244, 10.001577, 9.997458 
1.8154708e+3, 3.1314984e+2, 8930.85, -56533.734, -16049.484, -0.12881683, 0.030168664, 12653.857, 12653.857, 0.0027097166, 10.000287, 9.9994 
1.8248305e+3, 1.2312586e+2, -1799265.8, -1880502.0, -71586.36, 0.18724503, 0.22704756, -1757576.9, -24199.135, 0.10907774, 9.999861, 9.998889 
1.8248618e+3, 1.3312301e+2, -1558190.8, -1328655.8, -53389.105, -0.031607702, -0.29158708, -1316845.3, 318553.63, 0.07313931, 9.999183, 10.002506 
1.8248963e+3, 1.4312813e+2, -1836956.0, -1714225.6, -59168.953, 0.22405423, 0.08724189, -1690346.1, -152999.02, 0.039204508, 9.997972, 9.999606 
1.8249285e+3, 1.531286e+2, -1622778.1, -1610566.5, -12319.435, 0.15204616, 0.18437919, -1602922.8, -163570.13, 0.014855209, 9.999011, 9.999127 
1.8249601e+3, 1.6312854e+2, -1347766.6, -1333269.0, 60973.734, -0.037825555, 0.24747734, -1279114.8, 62243.965, 0.0031336718, 9.999775, 10.000006 
1.8249947e+3, 1.731285e+2, -1164540.4, -1132922.8, 36207.664, 0.0026923108, 0.16215958, -1109223.3, 134131.25, 0.00019006866, 10.000137, 10.000512 
1.82503e+3, 1.8312834e+2, -1128407.8, -1167415.6, 57827.965, 0.084140755, 0.14993542, -1086883.3, 58470.25, 0.00000015151502, 10.000116, 9.999637 
1.825065e+3, 1.9312793e+2, -1087668.3, -1073843.1, 35640.215, 0.078117944, 0.100751095, -1044451.4, 2908.6382, 0.0, 9.999674, 9.999795 
1.8250997e+3, 2.0312807e+2, -1008542.8, -933066.0, 9747.343, 0.06903184, 0.13252725, -931827.5, 17531.635, 0.0, 9.999278, 10.000293 
1.8251343e+3, 2.1312925e+2, -902509.0, -778928.25, -28454.328, 0.075897805, 0.15033413, -772691.44, 78652.59, 0.0, 9.999141, 10.000727 
1.8251681e+3, 2.2312953e+2, -933550.44, -1000531.5, -50835.914, 0.067992784, 0.21322194, -906164.8, -152823.94, 0.0, 9.999323, 9.998477 
1.8252006e+3, 2.3312794e+2, -740013.9, -872040.6, -25291.441, 0.0002674894, 0.19181822, -735334.8, -79972.75, 0.0, 10.000086, 9.998295 
1.8252335e+3, 2.4312636e+2, -526475.06, -647832.8, 43293.22, -0.043749668, 0.19580758, -512613.84, 44765.53, 0.0, 10.000534, 9.998962 
1.8252675e+3, 2.5312516e+2, -429497.25, -492175.94, 4149.32, -0.03409303, 0.103935756, -429223.75, 30162.057, 0.0, 10.000299, 9.9994545 
1.825302e+3, 2.6312414e+2, -385822.72, -490387.44, -12467.127, 0.013513572, 0.095760345, -384356.84, -22965.238, 0.00000011582431, 10.000214, 9.998852 
1.8253364e+3, 2.73123e+2, -234302.3, -360252.7, -43274.137, 0.09110934, 0.053168308, -220867.25, 42533.72, 0.000015405387, 10.000553, 9.998906 
1.8253708e+3, 2.831212e+2, -165224.84, -360572.25, 38267.895, 0.1069383, 0.037262227, -157995.81, 7420.8003, 0.00016033727, 10.000717, 9.998152 
1.825405e+3, 2.931187e+2, -78927.23, -257889.39, 28458.352, -0.0019991912, -0.08066536, -74510.8, -7070.861, 0.0006397898, 10.000593, 9.998234 
1.8254393e+3, 3.0311695e+2, -28096.816, -299013.9, 1249.5446, -0.059905443, -0.027199844, -28091.053, -28091.053, 0.0015189088, 10.001009, 9.997425 
1.8254729e+3, 3.1311572e+2, 289268.66, 38994.953, -61681.492, -0.019302092, 0.056294195, 303644.66, 303644.66, 0.0026480672, 10.002319, 9.999129 
1.8348312e+3, 1.2309311e+2, -1837134.0, -1986255.6, 73832.11, 0.18700022, 0.21383244, -1806763.9, -73064.78, 0.11569034, 9.999964, 9.998117 
1.8348603e+3, 1.3309114e+2, -1627106.9, -1488014.4, -109367.12, -0.1166592, -0.07490173, -1427954.1, 207762.61, 0.07769921, 9.999265, 10.001304 
1.8348946e+3, 1.430951e+2, -1754852.0, -1568666.4, -69138.48, 0.19665724, 0.20769821, -1545800.6, -8124.578, 0.04181763, 9.998073, 10.000554 
1.834928e+3, 1.5309459e+2, -1542099.5, -1453983.0, 42754.254, 0.16134177, 0.09432673, -1436648.6, 3034.719, 0.015997248, 9.9990425, 10.000191 
1.8349604e+3, 1.6309363e+2, -1354286.5, -1367410.6, 59920.594, -0.023203628, 0.01977726, -1300569.8, 41123.863, 0.0034491862, 9.999861, 9.999732 
1.8349952e+3, 1.7309408e+2, -1193635.4, -1204761.8, 59572.13, 0.0023116458, 0.03425889, -1139367.3, 104320.09, 0.00021871291, 10.000171, 10.000009 
1.8350303e+3, 1.830944e+2, -1157093.0, -1223826.6, 28862.947, 0.058604546, 0.11190011, -1146341.6, -657.875, 0.00000018976193, 10.000111, 9.9992485 
1.8350649e+3, 1.9309388e+2, -1131163.4, -1144546.6, 29560.775, 0.0626619, 0.09472605, -1107546.4, -59854.94, 0.0, 9.999588, 9.9993515 
1.8350992e+3, 2.030933e+2, -1064339.5, -1012903.25, -13666.945, 0.048322134, 0.09933552, -1009497.4, -59799.258, 0.0, 9.999121, 9.999823 
1.8351336e+3, 2.1309285e+2, -962389.56, -860976.2, -21996.736, 0.06977328, 0.0009604093, -856410.6, -4710.185, 0.0, 9.998954, 10.000255 
1.8351677e+3, 2.2309296e+2, -906746.0, -880379.56, -39460.684, 0.0804327, 0.038426302, -851958.2, -98259.234, 0.0, 9.999045, 9.999438 
1.8352014e+3, 2.3309416e+2, -681872.0, -696334.0, 20426.879, 0.06492053, 0.16957022, -667434.0, -11743.625, 0.0, 9.999848, 9.99962 
1.8352349e+3, 2.430943e+2, -600820.4, -723825.2, 25409.8, 0.022191593, 0.278028, -595778.0, -38087.152, 0.0, 10.0001955, 9.998609 
1.8352681e+3, 2.530921e+2, -529486.25, -631794.06, 12894.648, -0.032840412, 0.16407008, -527886.06, -68175.56, 0.0, 10.000013, 9.998636 
1.8353018e+3, 2.6309016e+2, -447608.88, -558683.94, -15850.218, -0.047495913, 0.12724324, -445391.34, -83663.56, 0.000000090536304, 9.999947, 9.998514 
1.8353364e+3, 2.7308857e+2, -273636.88, -389824.4, -6026.105, 0.015056977, 0.055023387, -273325.2, -9584.715, 0.00001528185, 10.000327, 9.998811 
1.8353708e+3, 2.83087e+2, -203404.33, -367046.28, 13603.002, 0.0046124198, 0.05423755, -202281.27, -36526.938, 0.00015301339, 10.000397, 9.998263 
1.8354046e+3, 2.9308566e+2, -114893.66, -252616.69, 52637.42, -0.12862544, 0.034472536, -97079.88, -29312.145, 0.00060731446, 10.0002575, 9.998425 
1.8354398e+3, 3.030842e+2, -93051.53, -323888.47, 23918.717, -0.14402987, 0.10641255, -90599.19, -90599.19, 0.0014671788, 10.0005455, 9.997473 
1.8354744e+3, 3.130834e+2, 155914.3, -70666.63, 21334.205, -0.15696272, 0.20432287, 157905.56, 157905.56, 0.0026243564, 10.00163, 9.998689 
1.8448314e+3, 1.23057775e+2, -1974019.9, -2050789.3, 97155.22, 0.28110173, 0.14541708, -1907941.5, -173893.81, 0.12272786, 9.999064, 9.998104 
1.8448593e+3, 1.3305831e+2, -1659779.1, -1487165.8, -194273.4, -0.12418424, 0.108279414, -1360890.8, 275152.34, 0.08254445, 9.99905, 10.00142 
1.8448935e+3, 1.4306094e+2, -1557759.5, -1448621.8, -64978.617, 0.24688265, 0.2430011, -1418338.0, 119677.16, 0.04459436, 9.999278, 10.00084 
1.8449272e+3, 1.5306044e+2, -1516036.3, -1404255.6, -34335.02, 0.18863219, 0.097004406, -1394551.6, 45467.74, 0.017215712, 9.999053, 10.000531 
1.8449602e+3, 1.6305967e+2, -1505739.3, -1442676.5, -6457.966, 0.038969293, 0.020840919, -1442021.9, -99995.734, 0.0037916328, 9.998849, 9.999703 
1.8449956e+3, 1.7306007e+2, -1312915.1, -1273443.3, -11982.768, 0.08059074, 0.04633366, -1270090.4, -26068.504, 0.00025177147, 9.999423, 9.999894 
1.8450308e+3, 1.8306036e+2, -1207489.6, -1233814.5, -6423.105, 0.13376418, 0.12271924, -1206006.0, -59986.953, 0.00000025167606, 9.999696, 9.999381 
1.8450643e+3, 1.9305994e+2, -1104864.4, -1109752.0, 7091.133, 0.07142206, 0.09363204, -1099807.8, -51783.785, 0.0, 9.9996605, 9.999556 
1.8450983e+3, 2.0305933e+2, -996838.5, -997337.06, 41992.906, 0.037656683, 0.08839637, -955094.1, -5064.0156, 0.0, 9.999666, 9.999671 
1.8451332e+3, 2.1305864e+2, -803127.3, -812490.7, 22868.646, 0.09301387, -0.0059567615, -784466.06, 67569.93, 0.0, 10.000187, 10.0 
1.8451679e+3, 2.2305863e+2, -699986.25, -762286.75, 22790.691, 0.13809799, 0.027395409, -692539.1, 61496.73, 0.0, 10.000393, 9.999587 
1.8452016e+3, 2.3305978e+2, -632435.7, -647268.75, -21212.146, 0.099381864, 0.12991747, -617380.94, 38644.797, 0.0, 10.000069, 9.999839 
1.8452352e+3, 2.4305993e+2, -636347.5, -749416.06, -27272.432, 0.06273265, 0.22512668, -630113.06, -72087.586, 0.0, 10.000003, 9.998512 
1.8452688e+3, 2.5305787e+2, -461016.7, -623352.06, -37682.652, 0.03061604, 0.14551681, -452695.97, 7350.2803, 0.0, 10.000581, 9.998419 
1.8453027e+3, 2.6305595e+2, -314460.56, -499274.72, -1990.2297, 0.018819524, 0.12550846, -314439.13, 47625.855, 0.00000009817215, 10.000895, 9.998463 
1.8453369e+3, 2.7305442e+2, -222391.81, -367825.75, -18508.818, 0.006068995, 0.066565424, -220073.23, 44004.31, 0.000013983738, 10.000706, 9.998773 
1.845371e+3, 2.8305313e+2, -155131.19, -326927.66, 37559.52, -0.021079535, 0.09599386, -147278.56, 18810.242, 0.00014297603, 10.0006485, 9.998424 
1.8454055e+3, 2.9305267e+2, 8491.3545, -165624.8, 21704.074, -0.08334458, 0.14586462, 11156.048, 79250.59, 0.00057426473, 10.000979, 9.998682 
1.8454415e+3, 3.030509e+2, 54299.37, -222620.56, 76364.99, -0.04832662, 0.1568781, 73962.055, 73962.055, 0.00141219, 10.001413, 9.997763 
1.8454757e+3, 3.1304902e+2, 207905.4, -21283.18, -40126.715, -0.16783136, 0.13588533, 214727.78, 214727.78, 0.002578793, 10.001852, 9.998928 
1.854831e+3, 1.230215e+2, -1912176.5, -1986901.9, 79102.84, 0.25337163, 0.17918143, -1862056.4, -127649.14, 0.13014582, 9.999289, 9.998458 
1.8548578e+3, 1.3302433e+2, -1570418.6, -1320907.4, -159229.33, -0.20577312, 0.23839761, -1243381.1, 392997.94, 0.08765755, 9.99906, 10.002654 
1.8548931e+3, 1.4302547e+2, -1559105.0, -1477519.4, -84992.54, 0.216422, 0.1674687, -1424037.1, 114328.86, 0.04753598, 9.999396, 10.000586 
1.8549256e+3, 1.5302612e+2, -1535770.4, -1459242.0, -34452.27, 0.092972785, 0.18179809, -1446017.3, -5656.281, 0.01851746, 9.999113, 10.000122 
1.8549587e+3, 1.6302663e+2, -1484438.0, -1415842.9, -14412.396, -0.033409152, 0.24781775, -1412937.8, -70580.92, 0.0041650403, 9.998923, 9.99985 
1.8549956e+3, 1.7302641e+2, -1301372.9, -1248759.9, 22443.85, 0.110284686, 0.19104177, -1240486.6, 3872.0864, 0.00029041685, 9.999409, 10.000073 
1.8550311e+3, 1.8302612e+2, -1157604.6, -1129924.1, -22870.717, 0.15867446, 0.1718215, -1117032.0, 29328.428, 0.0000003514084, 9.999695, 10.000096 
1.8550633e+3, 1.9302605e+2, -1057973.6, -990383.3, 14530.696, -0.023776222, 0.09574075, -987391.9, 60966.215, 0.0, 9.999562, 10.000424 
1.8550967e+3, 2.0302609e+2, -1019037.25, -1001856.75, 40041.117, -0.11853312, 0.10287216, -969494.75, -19139.113, 0.0, 9.999489, 9.999724 
1.8551329e+3, 2.1302642e+2, -845271.94, -848884.3, 55535.58, 0.03016381, 0.11870262, -791513.2, 60839.57, 0.0, 9.999969, 9.999854 
1.855168e+3, 2.2302622e+2, -777337.4, -860637.5, 1912.9882, 0.095485255, 0.16309886, -777293.5, -22938.826, 0.0, 10.000115, 9.999052 
1.8552005e+3, 2.3302488e+2, -712825.5, -763192.75, -18172.213, -0.023667822, 0.08224843, -706953.6, -50586.586, 0.0, 9.999843, 9.999156 
1.855234e+3, 2.4302359e+2, -679632.2, -770508.8, -23753.684, -0.08029396, 0.07792003, -673797.9, -115418.04, 0.0, 9.999707, 9.9985075 
1.8552697e+3, 2.5302246e+2, -483106.53, -605778.94, 2073.2515, 0.031514246, 0.06728055, -483071.5, -22678.852, 0.0, 10.000316, 9.99866 
1.8553044e+3, 2.6302138e+2, -350341.7, -499409.44, -21327.076, 0.06354956, 0.1117013, -347350.44, 15053.804, 0.00000008466028, 10.000576, 9.998614 
1.8553367e+3, 2.7302033e+2, -257697.98, -374363.66, -3148.1323, -0.072929256, 0.08321278, -257613.11, 6800.9204, 0.000011476472, 10.000425, 9.99886 
1.8553706e+3, 2.830196e+2, -211386.25, -363811.16, 26271.658, -0.14706552, 0.16899268, -206985.2, -40564.293, 0.00012753508, 10.000302, 9.998342 
1.855407e+3, 2.930197e+2, -33916.766, -170039.48, 57947.152, -0.051446646, 0.27305433, -12590.09, 55830.703, 0.00053210376, 10.000627, 9.998821 
1.8554436e+3, 3.0301708e+2, 2249.8586, -218844.47, 68664.66, -0.011724425, 0.17625043, 21839.201, 21839.201, 0.0013364273, 10.000936, 9.998015 
1.8554772e+3, 3.1301445e+2, 153505.81, 50698.19, -8264.934, -0.26209217, 0.0497864, 154166.0, 154166.0, 0.0024723716, 10.001094, 9.999768 
1.8648303e+3, 1.2298539e+2, -2094077.1, -2070360.0, 160293.39, 0.3326347, 0.18942367, -1921487.1, -186726.55, 0.1378835, 9.998059, 9.998453 
1.8648571e+3, 1.3298923e+2, -1575357.9, -1218853.4, -147577.73, -0.15059784, 0.24005696, -1165690.3, 471032.5, 0.09301642, 9.998535, 10.003676 
1.8648921e+3, 1.4299078e+2, -1698481.9, -1525816.4, -43527.313, 0.24982546, 0.14588465, -1515464.3, 23241.385, 0.050644647, 9.998373, 10.000721 
1.8649246e+3, 1.5299179e+2, -1592770.5, -1495468.0, -5454.206, 0.10883173, 0.19882245, -1495163.3, -54465.92, 0.01991141, 9.99876, 10.000048 
1.8649581e+3, 1.6299249e+2, -1468721.5, -1412973.8, 71567.02, 0.019980408, 0.29154554, -1364044.0, -21352.322, 0.0045744055, 9.999042, 9.999808 
1.864995e+3, 1.7299207e+2, -1285838.9, -1236811.6, 69425.54, 0.13652374, 0.20850979, -1187699.0, 56997.203, 0.0003360051, 9.999507, 10.000093 
1.8650308e+3, 1.8299177e+2, -1148381.3, -1109920.6, 15316.676, 0.1861096, 0.18108647, -1104566.4, 42131.965, 0.00000050835786, 9.999693, 10.000234 
1.8650635e+3, 1.9299223e+2, -1024622.6, -957120.06, -34303.176, 0.042294122, 0.13980508, -942748.0, 105943.12, 0.0, 9.999714, 10.000585 
1.865097e+3, 2.029926e+2, -1001608.5, -1015556.75, -4949.176, -0.023555493, 0.17627054, -1000030.9, -49344.965, 0.0, 9.999688, 9.99954 
1.8651327e+3, 2.129926e+2, -882398.25, -898973.3, -24329.447, 0.048952587, 0.18742831, -864983.5, -12296.469, 0.0, 9.999829, 9.999582 
1.8651679e+3, 2.22992e+2, -792504.3, -862303.8, -47930.676, 0.09195164, 0.20586906, -768113.75, -13420.652, 0.0, 10.000001, 9.999099 
1.8652011e+3, 2.329903e+2, -628145.25, -709995.94, -52525.41, 0.038695715, 0.083748914, -602483.8, 54223.887, 0.0, 10.000388, 9.999265 
1.8652351e+3, 2.4298894e+2, -550630.8, -698577.0, 5126.578, 0.022934012, 0.06543347, -550453.4, 8266.576, 0.0, 10.000544, 9.998605 
1.86527e+3, 2.5298834e+2, -496057.22, -601751.8, -1604.9927, 0.05762564, 0.097272605, -496032.88, -35305.445, 0.0, 10.000187, 9.998753 
1.8653044e+3, 2.6298735e+2, -411693.03, -524498.4, 2617.644, 0.06325901, 0.14497273, -411632.3, -48894.375, 0.000000065173005, 10.0001335, 9.998656 
1.865338e+3, 2.7298582e+2, -201505.98, -347458.84, -29054.508, -0.008154853, 0.07260249, -195934.83, 68818.03, 0.000009433609, 10.00081, 9.998861 
1.8653725e+3, 2.8298512e+2, -89526.266, -305671.5, 25881.613, -0.019927682, 0.1578592, -86470.36, 80289.49, 0.00011541226, 10.001151, 9.99832 
1.8654086e+3, 2.929856e+2, -15469.952, -166310.56, 6151.144, 0.04520554, 0.3093731, -15219.53, 53535.88, 0.00049646525, 10.000777, 9.998767 
1.8654445e+3, 3.0298224e+2, -28972.422, -252072.1, 67402.18, 0.013831923, 0.14894003, -10190.298, -10190.298, 0.0012601693, 10.000778, 9.997859 
1.8654795e+3, 3.1297964e+2, 248789.73, 90273.31, -151354.58, -0.15078862, 0.048211906, 340382.56, 340382.56, 0.0023303956, 10.001727, 9.9997425 
1.8748274e+3, 1.22948885e+2, -2108268.3, -2119835.5, 109057.86, 0.15594722, 0.042377878, -2004840.8, -269728.1, 0.14588223, 9.998154, 9.998068 
1.8748568e+3, 1.3295299e+2, -1535915.9, -1148079.4, -140933.47, -0.060570795, 0.086678654, -1102275.9, 534797.7, 0.0986057, 9.998574, 10.004222 
1.8748899e+3, 1.4295694e+2, -1653472.5, -1458882.3, -50425.77, 0.13980259, 0.17588831, -1446591.4, 92441.86, 0.053927336, 9.998463, 10.001166 
1.8749236e+3, 1.5295735e+2, -1567624.1, -1449575.8, 26020.34, 0.09888299, 0.13950124, -1444094.8, -3065.6704, 0.021407956, 9.998777, 10.0003605 
1.8749578e+3, 1.629573e+2, -1462785.6, -1416528.9, 73252.96, 0.047374543, 0.13969623, -1362839.8, -19809.604, 0.0050250688, 9.999114, 9.999751 
1.8749939e+3, 1.7295702e+2, -1298919.1, -1264677.4, 100184.336, 0.0237163, 0.092351764, -1180161.5, 64872.977, 0.00038988978, 9.999499, 9.999917 
1.8750294e+3, 1.8295714e+2, -1179264.9, -1171723.0, -232.12021, 0.02998298, 0.13352148, -1171715.9, -24681.22, 0.000000733184, 9.999687, 9.999813 
1.8750644e+3, 1.9295837e+2, -1078496.5, -1042354.06, -22733.912, 0.13737226, 0.22406343, -1031383.94, 17639.928, 0.0, 9.999605, 10.000052 
1.875099e+3, 2.0295876e+2, -1043718.7, -1077385.6, -19515.514, 0.16184339, 0.30837035, -1034779.7, -83758.12, 0.0, 9.999568, 9.999179 
1.8751326e+3, 2.1295734e+2, -936412.94, -965218.0, -6240.5527, 0.017170526, 0.21230558, -935119.0, -82081.62, 0.0, 9.999628, 9.999227 
1.8751669e+3, 2.2295617e+2, -807786.9, -825688.4, -50286.81, -0.037423916, 0.17975259, -765660.44, -10611.23, 0.0, 9.999698, 9.999499 
1.875203e+3, 2.3295581e+2, -619940.9, -633435.25, -23365.412, 0.14610964, 0.12626143, -602367.94, 54681.69, 0.0, 10.000133, 9.999909 
1.8752377e+3, 2.4295554e+2, -582661.2, -694700.6, -19864.715, 0.2030805, 0.16963542, -579243.4, -20193.408, 0.0, 10.0002365, 9.998785 
1.8752696e+3, 2.5295517e+2, -527817.0, -608500.94, 1188.0408, -0.025572937, 0.2169882, -527799.5, -66746.25, 0.0, 9.999938, 9.998825 
1.8753028e+3, 2.6295373e+2, -463687.13, -575601.25, 5143.5557, -0.13501772, 0.22562018, -463451.25, -100384.52, 0.00000004605578, 9.999874, 9.99844 
1.8753394e+3, 2.7295092e+2, -255179.92, -400544.22, 17717.416, 0.042736627, 0.051288262, -253051.64, 12042.114, 0.000008319171, 10.00055, 9.998629 
1.8753755e+3, 2.8294972e+2, -141992.0, -339908.22, 1205.818, 0.13824637, 0.09878157, -141984.66, 25120.727, 0.00010877432, 10.000827, 9.998244 
1.8754096e+3, 2.929502e+2, -79430.07, -215439.31, 19309.125, 0.04584265, 0.26115385, -76741.91, -7641.998, 0.00047256332, 10.000424, 9.998599 
1.8754436e+3, 3.0294612e+2, -134588.8, -364417.13, 68883.61, -0.18572949, 0.06143888, -115524.54, -115524.54, 0.0011935966, 10.000339, 9.997293 
1.8754834e+3, 3.1294382e+2, 75347.625, -75361.52, -55465.395, 0.0065006106, 0.050943837, 93559.72, 93559.72, 0.0021831873, 10.000937, 9.998968 
1.8848261e+3, 1.2291522e+2, -2064849.0, -1994208.0, 131188.31, 0.2587081, 0.0573359, -1893668.6, -158227.34, 0.15411249, 9.997931, 9.9990635 
1.8848553e+3, 1.329175e+2, -1699791.8, -1322718.0, -113168.85, -0.012194918, -0.025784103, -1291360.9, 346058.9, 0.10442951, 9.997814, 10.003294 
1.8848892e+3, 1.4292182e+2, -1577274.1, -1461783.0, -76150.76, 0.20630968, 0.1728637, -1423959.3, 115417.414, 0.057399224, 9.9992, 10.000771 
1.8849233e+3, 1.529218e+2, -1377617.4, -1365535.6, -74540.9, 0.12953457, 0.10842447, -1296791.3, 144586.02, 0.023018045, 10.000179, 10.000237 
1.8849576e+3, 1.6292155e+2, -1294283.0, -1344613.3, -47161.906, 0.059667367, 0.10007946, -1265992.3, 77388.37, 0.005521801, 10.0002985, 9.999678 
1.8849933e+3, 1.7292154e+2, -1320828.4, -1279769.0, -44189.074, 0.043228023, 0.083225146, -1251573.5, -6191.231, 0.0004532519, 9.999353, 9.999891 
1.885029e+3, 1.8292184e+2, -1308763.9, -1231394.6, -69777.3, 0.06933519, 0.14309356, -1190296.0, -42915.297, 0.0000010252129, 9.998788, 9.999828 
1.885064e+3, 1.9292274e+2, -1061724.3, -1025799.56, -65540.55, 0.1489877, 0.1930949, -975804.5, 73568.42, 0.0, 9.999683, 10.000115 
1.8850988e+3, 2.0292307e+2, -952371.9, -1018745.3, -12577.681, 0.17614445, 0.26156726, -950068.4, 1302.7328, 0.0, 10.000143, 9.999301 
1.8851326e+3, 2.1292205e+2, -886969.9, -927258.1, -2442.0374, 0.07160005, 0.19652118, -886822.44, -33439.277, 0.0, 9.999907, 9.999355 
1.8851674e+3, 2.2292124e+2, -809999.94, -842210.1, 1594.3326, 0.055541914, 0.19617368, -809921.2, -54528.938, 0.0, 9.999765, 9.999339 
1.8852033e+3, 2.3292099e+2, -638850.06, -674064.4, -55886.746, 0.19044818, 0.18223158, -597862.5, 59531.02, 0.0, 10.000142, 9.999624 
1.885238e+3, 2.429207e+2, -526594.25, -632424.0, -72222.21, 0.22302163, 0.2282044, -489976.84, 69417.75, 0.0, 10.0004835, 9.999085 
1.8852699e+3, 2.5291994e+2, -380459.06, -498266.53, -74677.375, -0.005399236, 0.20225707, -344250.44, 117148.12, 0.0, 10.000776, 9.999182 
1.8853034e+3, 2.6291832e+2, -320204.22, -526248.56, -15344.09, -0.10237607, 0.17705071, -319067.8, 44344.723, 0.000000017635879, 10.000976, 9.998228 
1.8853404e+3, 2.729158e+2, -185858.8, -398144.25, -40445.82, 0.052813917, 0.06334466, -178413.92, 87024.805, 0.000007223604, 10.0012, 9.998307 
1.8853767e+3, 2.8291446e+2, -94990.47, -335650.38, -44287.43, 0.17014717, 0.12906356, -87099.23, 80353.31, 0.00010058898, 10.001256, 9.998056 
1.8854114e+3, 2.9291403e+2, 12728.23, -195168.9, -86028.17, 0.16546749, 0.2152474, 43709.832, 113166.05, 0.0004433926, 10.0011635, 9.99838 
1.8854445e+3, 3.0291036e+2, 38638.79, -244701.36, 54769.96, -0.14350656, 0.05737554, 48857.355, 48857.355, 0.0011175777, 10.001317, 9.997683 
1.8854854e+3, 3.129095e+2, 139960.98, -61242.313, -71443.27, 0.10580952, 0.14918599, 162748.3, 162748.3, 0.0020294136, 10.001424, 9.998852 
1.8948261e+3, 1.2288537e+2, -1876973.0, -1688956.6, -118323.15, 0.37049273, 0.31681103, -1631842.6, 103894.75, 0.16258536, 9.998216, 10.001161 
1.8948513e+3, 1.3288319e+2, -1855885.9, -1620425.8, -52565.9, -0.2246545, -0.049261615, -1609223.5, 28534.004, 0.110513955, 9.99781, 10.001033 
1.8948898e+3, 1.428853e+2, -1649752.1, -1617401.0, -50035.42, 0.28964344, 0.11860668, -1580991.4, -41254.27, 0.06108175, 9.999244, 9.999639 
1.8949232e+3, 1.5288498e+2, -1424872.9, -1467751.8, -28468.723, 0.07219229, 0.09950138, -1410673.6, 31070.066, 0.024752133, 10.000195, 9.999518 
1.8949564e+3, 1.6288508e+2, -1273029.9, -1332348.9, -89807.67, -0.12875596, 0.17132214, -1208110.9, 135634.17, 0.0060684755, 10.000433, 9.999698 
1.8949932e+3, 1.7288557e+2, -1305877.9, -1249549.8, -72859.4, 0.064147525, 0.18356737, -1199600.4, 46139.973, 0.0005270964, 9.999356, 10.000096 
1.895029e+3, 1.8288577e+2, -1262797.8, -1141091.9, -66788.164, 0.15448068, 0.19581446, -1111591.4, 36146.074, 0.0000013718216, 9.998819, 10.000427 
1.8950619e+3, 1.928856e+2, -1028795.56, -932681.44, -21533.352, -0.05725359, 0.068201855, -928077.6, 121658.47, 0.0, 9.999585, 10.000798 
1.895096e+3, 2.0288576e+2, -936508.4, -956923.75, -27857.746, -0.14803973, 0.059608508, -917047.0, 34685.715, 0.0, 10.000005, 9.999801 
1.895133e+3, 2.1288674e+2, -878679.1, -869864.0, 1765.1543, 0.08852102, 0.14481443, -869523.6, -15798.905, 0.0, 9.9997225, 9.999843 
1.8951689e+3, 2.2288702e+2, -902944.8, -968643.2, -6354.796, 0.21102962, 0.2546025, -902335.75, -146611.55, 0.0, 9.99948, 9.998607 
1.8952021e+3, 2.3288597e+2, -749101.3, -845551.7, -21787.06, 0.042612735, 0.25853378, -744408.25, -86670.03, 0.0, 9.999896, 9.998561 
1.8952358e+3, 2.4288468e+2, -557718.56, -631236.56, -74424.34, -0.06930947, 0.2633731, -511470.28, 48280.85, 0.0, 10.000184, 9.999246 
1.8952708e+3, 2.5288287e+2, -379173.25, -438029.38, -47606.844, -0.014160495, 0.07985194, -352633.25, 109128.4, 0.0, 10.000525, 9.999717 
1.8953057e+3, 2.628811e+2, -380057.44, -585465.06, -22980.232, -0.005302662, 0.021027347, -377517.88, -13742.499, 0.0000000071100716, 10.000694, 9.997958 
1.8953401e+3, 2.7288014e+2, -262419.63, -483645.75, -11862.745, -0.1095498, 0.10304873, -261785.34, 4004.6414, 0.0000064443307, 10.000894, 9.997863 
1.8953755e+3, 2.828791e+2, -169093.5, -412000.75, -64653.992, -0.088184394, 0.24088763, -152956.72, 14846.595, 0.0000894982, 10.000912, 9.997701 
1.8954134e+3, 2.928768e+2, -69142.56, -290025.78, -55778.285, 0.21526632, 0.16804408, -55856.38, 13969.465, 0.00040206578, 10.00083, 9.997897 
1.8954463e+3, 3.0287477e+2, 51855.61, -110695.01, 46895.934, -0.1314478, 0.15713902, 64414.754, 64414.754, 0.0010247865, 10.000895, 9.998787 
1.8954849e+3, 3.1287643e+2, -2544.8467, -126554.15, 50999.914, -0.12949257, 0.35311034, 15734.796, 15734.796, 0.001871534, 10.000511, 9.998811 
1.9048238e+3, 1.2285183e+2, -1853269.5, -1549757.9, -128565.83, 0.35283017, 0.29896897, -1502619.3, 233448.48, 0.1713416, 9.997817, 10.002442 
1.9048503e+3, 1.3284966e+2, -1754798.9, -1722122.9, -44654.37, -0.15223597, 0.008481186, -1690911.5, -52823.094, 0.11689223, 9.999238, 9.999583 
1.9048893e+3, 1.4285085e+2, -1656452.0, -1697546.8, 27648.693, 0.34269226, 0.21755518, -1642551.6, -102473.38, 0.06499328, 9.999485, 9.999 
1.904923e+3, 1.5284996e+2, -1519638.0, -1509922.1, 64543.457, 0.094337575, 0.14209603, -1450054.0, -7964.433, 0.026617203, 9.999471, 9.999609 
1.9049565e+3, 1.6285007e+2, -1444173.6, -1418218.1, 50030.016, -0.09220554, 0.20927422, -1379510.0, -35419.777, 0.0066676727, 9.999279, 9.999666 
1.9049932e+3, 1.7285039e+2, -1253469.9, -1222933.8, 16437.902, 0.12596826, 0.20797965, -1215767.0, 30319.027, 0.0006122247, 9.999729, 10.00009 
1.9050288e+3, 1.8285026e+2, -1133023.8, -1105461.5, 29988.258, 0.22612974, 0.19520207, -1086239.4, 61846.664, 0.0000017786746, 9.999833, 10.00019 
1.9050615e+3, 1.9284971e+2, -1033782.7, -970075.75, -23184.209, -0.054283466, 0.06813926, -962531.9, 87556.66, 0.0, 9.999705, 10.000498 
1.9050956e+3, 2.0284972e+2, -972898.25, -958681.56, -60541.137, -0.16217175, 0.059976857, -904832.9, 47253.934, 0.0, 9.999719, 9.999905 
1.9051331e+3, 2.1285076e+2, -750781.56, -784906.7, -87994.24, 0.11334273, 0.1317438, -678210.9, 175865.94, 0.0, 10.0005245, 10.000024 
1.9051693e+3, 2.2285113e+2, -681659.75, -848237.3, -65199.117, 0.25113493, 0.23234025, -659175.44, 96899.18, 0.0, 10.000915, 9.998753 
1.905202e+3, 2.3285013e+2, -657571.8, -791433.0, -28638.732, 0.02905663, 0.22928455, -651702.1, 6385.6367, 0.0, 10.00045, 9.998679 
1.9052358e+3, 2.4284884e+2, -579458.8, -671057.9, 3924.4402, -0.07605605, 0.23755777, -579291.0, -19189.887, 0.0, 10.000191, 9.998952 
1.9052722e+3, 2.5284672e+2, -372647.66, -475403.6, -61860.55, 0.066767894, 0.062428925, -343611.56, 118505.414, 0.0, 10.000766, 9.99933 
1.9053076e+3, 2.6284507e+2, -293737.34, -513396.4, -41330.746, 0.11306688, 0.023686325, -286218.0, 77912.87, 0.000000016068412, 10.001124, 9.998257 
1.905341e+3, 2.728449e+2, -206496.36, -414642.9, -10326.973, -0.087779105, 0.14653547, -205985.27, 60150.86, 0.000006020835, 10.00103, 9.998299 
1.9053765e+3, 2.8284404e+2, -116664.71, -383832.56, 39748.227, -0.09510617, 0.2684057, -110876.52, 57270.824, 0.00007835106, 10.001236, 9.997749 
1.9054154e+3, 2.928411e+2, 155915.92, -181647.0, 23593.563, 0.2654009, 0.13830943, 157556.98, 227733.7, 0.00035541714, 10.002379, 9.997888 
1.9054484e+3, 3.028401e+2, 320834.66, 71105.31, 110999.96, -0.069443375, 0.21131933, 363039.34, 363039.34, 0.0009238466, 10.002529, 9.999253 
1.9054867e+3, 3.128404e+2, -33185.957, -150352.0, -13956.455, 0.04135273, 0.2309411, -31546.451, -31546.451, 0.0017193768, 10.000254, 9.998814 
1.9148187e+3, 1.22814395e+2, -1848920.4, -1548445.3, 20699.68, -0.028347768, -0.033020195, -1547025.9, 189408.53, 0.18042894, 9.997822, 10.002431 
1.9148529e+3, 1.3281633e+2, -1802659.9, -1829686.1, -12296.976, 0.14775664, 0.108266816, -1797902.3, -159484.25, 0.12358676, 9.999277, 9.998824 
1.9148874e+3, 1.428182e+2, -1627391.8, -1683119.1, 8255.285, 0.14401494, 0.4672531, -1626194.5, -85792.17, 0.069141634, 9.999679, 9.999007 
1.9149221e+3, 1.528168e+2, -1445217.6, -1358465.8, 69052.266, 0.037101004, 0.2462356, -1320296.1, 122118.62, 0.028615344, 9.999481, 10.000661 
1.9149573e+3, 1.6281661e+2, -1433707.1, -1420306.8, 43464.09, 0.0054234234, 0.22207043, -1383029.4, -38614.574, 0.0073205116, 9.999377, 9.999603 
1.914993e+3, 1.7281608e+2, -1281717.8, -1276475.6, 43424.918, 0.094808094, 0.16484246, -1235592.8, 10825.823, 0.00070924795, 9.999707, 9.999728 
1.915028e+3, 1.8281531e+2, -1205971.4, -1268360.8, 8849.144, 0.11819452, 0.15847594, -1204740.5, -56314.62, 0.0000023137907, 9.999873, 9.999058 
1.915062e+3, 1.9281515e+2, -1138036.4, -1163743.4, -17476.59, 0.028894905, 0.19561562, -1129195.6, -78765.375, 0.0, 9.999604, 9.999219 
1.915097e+3, 2.0281485e+2, -1024375.44, -1034159.2, -52112.31, -0.031123817, 0.25193602, -976925.9, -24491.43, 0.0, 9.999574, 9.999458 
1.915133e+3, 2.1281408e+2, -793617.2, -824904.44, -44121.203, 0.017118484, 0.16063015, -762448.4, 91991.43, 0.0, 10.000306, 9.999853 
1.9151683e+3, 2.2281352e+2, -659718.2, -728238.1, -84456.94, 0.03768256, 0.14024019, -602836.94, 153606.31, 0.0, 10.000591, 9.999737 
1.9152026e+3, 2.3281361e+2, -606170.56, -619553.9, -33286.785, 0.019193027, 0.12256108, -578909.5, 79531.42, 0.0, 10.000182, 9.999987 
1.9152373e+3, 2.428131e+2, -674963.2, -803427.8, 240.82625, 0.0226756, 0.15961392, -674962.75, -114516.81, 0.0, 9.999902, 9.998186 
1.9152734e+3, 2.5281128e+2, -500760.88, -682350.8, -22433.127, 0.08835926, 0.13939147, -498030.6, -35564.19, 0.0, 10.000513, 9.998029 
1.9153087e+3, 2.6281005e+2, -288591.72, -433295.2, -57792.625, 0.08387212, 0.19688408, -268343.47, 96136.086, 0.000000038925435, 10.000816, 9.998961 
1.9153427e+3, 2.728101e+2, -157753.25, -249449.92, 26.252035, -0.05180078, 0.21384256, -157753.25, 108724.32, 0.0000054500297, 10.000762, 9.999561 
1.9153783e+3, 2.828091e+2, -143417.9, -362802.03, 48436.88, -0.0648384, 0.23806433, -133199.67, 35286.34, 0.00006657065, 10.000907, 9.998054 
1.9154169e+3, 2.9280648e+2, 82695.28, -214941.45, 89161.734, 0.1482285, 0.13083601, 107360.98, 177874.2, 0.0003045757, 10.001877, 9.997902 
1.9154502e+3, 3.0280626e+2, 225614.03, -2871.943, 23322.219, -0.16283023, 0.28965914, 227970.3, 227970.3, 0.0008128925, 10.002, 9.998988 
1.9154872e+3, 3.1280357e+2, -120244.78, -159009.86, -1531.6198, 0.017182535, 0.013352791, -120184.36, -120184.36, 0.0015555571, 9.999581, 9.999043 
1.9248165e+3, 1.2278028e+2, -1963795.6, -1619533.9, 95393.04, 0.030484859, 0.11730341, -1594868.3, 141900.72, 0.18987963, 9.997136, 10.002221 
1.924854e+3, 1.3278224e+2, -1822762.1, -1850466.4, -102238.49, 0.36879587, 0.25196746, -1733441.6, -94688.82, 0.13060497, 9.999155, 9.998755 
1.924886e+3, 1.4278153e+2, -1729236.1, -1739209.0, -11417.439, 0.07978372, 0.37022483, -1721763.8, -181001.33, 0.07352615, 9.999031, 9.9989195 
1.9249214e+3, 1.5278113e+2, -1429820.1, -1330308.0, -43769.414, 0.02942492, 0.23232456, -1313796.3, 128967.96, 0.030745408, 9.999513, 10.00083 
1.9249573e+3, 1.6278116e+2, -1376467.5, -1404705.6, -82114.16, 0.07143862, 0.22366332, -1307267.4, 37494.766, 0.008026891, 9.999835, 9.999481 
1.9249931e+3, 1.7278035e+2, -1231888.9, -1274375.1, -101104.914, 0.13119592, 0.15810621, -1149819.5, 96949.76, 0.0008187495, 10.000145, 9.999535 
1.9250283e+3, 1.8277955e+2, -1164891.1, -1273272.6, -73782.51, 0.16376995, 0.17062667, -1127536.9, 21240.545, 0.0000031359323, 10.000228, 9.998861 
1.9250627e+3, 1.927795e+2, -1008680.8, -1119092.3, -46161.457, 0.091171876, 0.22986886, -991924.4, 58856.54, 0.0, 10.000529, 9.999082 
1.9250974e+3, 2.0277914e+2, -893328.5, -973606.7, 13654.993, 0.039275896, 0.2856493, -891069.4, 61715.895, 0.0, 10.000481, 9.999442 
1.925133e+3, 2.1277797e+2, -821209.5, -837515.2, 10940.108, 0.019772574, 0.15512337, -815718.44, 39074.715, 0.0, 10.0001135, 9.999865 
1.9251685e+3, 2.2277711e+2, -769231.94, -804558.5, -27971.955, 0.03686026, 0.11463557, -753813.2, 2985.5454, 0.0, 9.999974, 9.999496 
1.9252035e+3, 2.3277703e+2, -562225.75, -632623.6, -124831.25, 0.09196478, 0.10971984, -467725.78, 191073.66, 0.0, 10.0006485, 9.999667 
1.9252388e+3, 2.4277647e+2, -493054.2, -709998.9, -106230.484, 0.13722803, 0.16132118, -449700.44, 111105.24, 0.0, 10.001096, 9.998261 
1.9252741e+3, 2.5277525e+2, -400626.16, -621985.56, -56723.2, 0.113290474, 0.18673167, -386937.38, 75883.66, 0.0, 10.001113, 9.998175 
1.9253096e+3, 2.6277426e+2, -251219.33, -420651.8, -21189.781, 0.08682696, 0.25855878, -248609.47, 116222.914, 0.000000047147957, 10.001119, 9.998894 
1.9253443e+3, 2.727735e+2, -91777.164, -233858.8, -99174.81, 0.021881497, 0.21531169, -40824.367, 226013.52, 0.0000044268, 10.0013, 9.999406 
1.9253801e+3, 2.8277233e+2, -97169.266, -281961.25, -77175.586, 0.03755142, 0.20887189, -69178.01, 99669.984, 0.000054025306, 10.0009985, 9.998548 
1.9254176e+3, 2.9277077e+2, -151960.53, -263717.84, -44573.965, 0.15705566, 0.15614736, -136360.08, -65496.996, 0.0002523606, 9.999972, 9.998483 
1.9254518e+3, 3.0276978e+2, -37650.8, -154528.67, -4611.74, -0.105120026, 0.21266751, -37469.113, -37469.113, 0.0006949562, 10.00028, 9.99878 
1.9254896e+3, 3.1276807e+2, 477685.75, 149177.31, -95907.99, 0.12373146, 0.08274176, 503636.13, 503636.13, 0.0013694268, 10.003519, 9.999306 
1.9348136e+3, 1.2274371e+2, -1974325.8, -1654399.0, 71129.73, -0.04725981, 0.18992053, -1639297.4, 97830.8, 0.1997211, 9.99722, 10.001886 
1.9348523e+3, 1.3274714e+2, -1773938.4, -1739689.1, -88153.65, 0.23041293, 0.42446694, -1667012.3, -27917.11, 0.13795441, 9.999117, 9.999534 
1.9348846e+3, 1.4274107e+2, -1719401.8, -1752563.8, -21474.695, -0.022178145, -0.05331774, -1708851.8, -167695.67, 0.07814733, 9.999164, 9.998769 
1.9349205e+3, 1.527429e+2, -1477163.6, -1443624.5, -15928.455, -0.048062656, 0.10547082, -1437265.4, 5873.166, 0.033007, 9.99957, 10.0000105 
1.9349562e+3, 1.627434e+2, -1371090.5, -1418957.1, -85715.41, -0.08062735, 0.2029159, -1306029.8, 39104.74, 0.008786739, 9.999937, 9.99934 
1.9349931e+3, 1.7274305e+2, -1226873.5, -1269356.3, -80563.99, 0.10441714, 0.18241611, -1164797.8, 82341.82, 0.00094156526, 10.000159, 9.999569 
1.9350292e+3, 1.8274297e+2, -1100972.6, -1147804.6, -80388.055, 0.1892933, 0.22628102, -1040659.6, 108481.38, 0.0000044945964, 10.00026, 9.999706 
1.9350626e+3, 1.9274294e+2, -955850.8, -984763.3, -22864.916, 0.0060324958, 0.19101611, -943255.5, 107883.586, 0.0, 10.000417, 10.000064 
1.9350967e+3, 2.0274276e+2, -891575.3, -929769.25, -13077.979, -0.113047205, 0.18854621, -887526.5, 65611.73, 0.0, 10.000305, 9.999828 
1.9351329e+3, 2.1274243e+2, -843165.6, -828461.0, 7928.2227, -0.012788429, 0.124323025, -825000.7, 30136.426, 0.0, 9.999882, 10.000037 
1.935169e+3, 2.2274171e+2, -916525.8, -1035881.4, -26583.55, 0.06919984, 0.14166752, -910872.7, -153729.6, 0.0, 9.999659, 9.998058 
1.9352044e+3, 2.327402e+2, -730814.5, -925770.7, -80829.24, 0.10476205, 0.17957087, -701661.9, -42497.605, 0.0, 10.000404, 9.99777 
1.9352397e+3, 2.4273899e+2, -485070.2, -619502.8, -113878.664, 0.096163906, 0.2525832, -420050.4, 141129.33, 0.0, 10.000774, 9.999043 
1.9352746e+3, 2.5273862e+2, -328007.66, -411543.28, -41405.977, 0.018098392, 0.21479177, -310962.16, 152218.78, 0.0, 10.000861, 9.9997425 
1.9353096e+3, 2.6273754e+2, -361265.56, -567410.0, -34302.945, -0.02987422, 0.21697924, -355707.34, 9483.0, 0.00000001782158, 10.000778, 9.998046 
1.9353455e+3, 2.727352e+2, -250129.64, -475083.88, -72059.41, -0.0057408735, 0.15908521, -229026.6, 38189.617, 0.0000033385966, 10.000948, 9.997906 
1.9353813e+3, 2.8273398e+2, -111047.21, -237941.52, -127649.18, 0.027703073, 0.21982428, -31946.633, 137282.86, 0.00004416703, 10.000671, 9.999015 
1.935417e+3, 2.9273424e+2, -106599.195, -108540.39, -62597.758, 0.08812691, 0.23861018, -44964.51, 26259.424, 0.00021030588, 9.999722, 9.999665 
1.9354522e+3, 3.0273125e+2, -118365.78, -240349.58, 58393.21, -0.117704734, 0.04012876, -94919.664, -94919.664, 0.0005915191, 9.999935, 9.998356 
1.9354914e+3, 3.127318e+2, 332349.47, 106651.56, 107577.89, -0.09430143, 0.20477101, 375410.4, 375410.4, 0.0011872258, 10.002476, 9.99948 
1.9448105e+3, 1.22703746e+2, -1866224.9, -1657995.5, 37355.723, -0.10948537, 0.0061744824, -1651496.8, 86026.125, 0.20999403, 9.998193, 10.001388 
1.9448505e+3, 1.3271067e+2, -1897643.4, -1700242.8, -134108.69, 0.2251391, 0.53881496, -1632429.1, 7024.8467, 0.14565058, 9.997811, 10.00046 
1.9448836e+3, 1.4270334e+2, -1686694.6, -1695551.0, -19863.857, -0.015455566, -0.15387137, -1670771.4, -129245.43, 0.083007626, 9.999185, 9.99917 
1.9449204e+3, 1.5270601e+2, -1530573.1, -1490912.3, -18249.79, 0.015306727, 0.10081689, -1483792.8, -40291.543, 0.03539992, 9.999287, 9.999828 
1.944956e+3, 1.6270675e+2, -1505422.3, -1494290.3, -17114.254, -0.01929821, 0.23230341, -1481859.6, -136363.66, 0.009600047, 9.999054, 9.999254 
1.944993e+3, 1.7270637e+2, -1302372.4, -1316199.8, -44714.21, 0.11203338, 0.21825866, -1264040.5, -16538.299, 0.0010784023, 9.999681, 9.999479 
1.945029e+3, 1.827064e+2, -1143589.3, -1121288.6, -61947.1, 0.19476628, 0.26533684, -1069496.4, 80005.75, 0.0000066792873, 9.999788, 10.00011 
1.9450623e+3, 1.9270651e+2, -1114340.8, -996599.56, -75375.83, 0.00971484, 0.1910177, -959828.9, 91667.62, 0.0, 9.999093, 10.000607 
1.9450964e+3, 2.0270641e+2, -1088852.8, -1035781.0, -42580.656, -0.08669497, 0.16892387, -1012144.5, -58651.18, 0.0, 9.999008, 9.999725 
1.9451337e+3, 2.1270591e+2, -725560.56, -803352.0, -76390.32, 0.043514967, 0.119173765, -678733.7, 176761.06, 0.0, 10.000832, 9.999751 
1.9451702e+3, 2.2270502e+2, -600270.25, -894630.94, -89077.53, 0.1330488, 0.13963889, -575413.2, 182089.98, 0.0, 10.001855, 9.997973 
1.9452047e+3, 2.3270325e+2, -639689.44, -887052.44, -47303.598, 0.07483963, 0.1575514, -630952.1, 28573.938, 0.0, 10.001033, 9.997744 
1.9452396e+3, 2.4270204e+2, -529873.06, -637177.7, 24449.35, 0.036394566, 0.22907989, -524564.9, 36976.586, 0.0, 10.000481, 9.999055 
1.9452754e+3, 2.5270188e+2, -309500.06, -408737.38, -40180.895, 0.023147365, 0.21783131, -295271.13, 168270.63, 0.0, 10.001021, 9.999681 
1.9453113e+3, 2.627008e+2, -287418.72, -520463.8, -65009.92, 0.038679082, 0.2182729, -270510.4, 95041.77, 0.000000002142629, 10.001211, 9.998167 
1.9453467e+3, 2.7269843e+2, -295444.53, -486027.9, -30611.955, 0.06623393, 0.14161114, -290648.25, -23070.344, 0.0000030022966, 10.000546, 9.998045 
1.9453824e+3, 2.826973e+2, -168303.44, -304946.25, 18353.059, 0.08898037, 0.21826138, -165881.3, 3708.868, 0.00003904193, 10.000435, 9.99868 
1.9454177e+3, 2.926978e+2, 180549.52, -18986.855, -58633.87, 0.06221235, 0.31101233, 196503.5, 268087.1, 0.00018459432, 10.00188, 9.999257 
1.9454536e+3, 3.026936e+2, 220062.17, -52887.684, 46472.04, -0.07552663, 0.011107463, 227757.48, 227757.48, 0.00051477127, 10.002176, 9.99855 
1.9454932e+3, 3.1269494e+2, -15684.378, 3034.9268, 72425.2, 0.016099017, 0.23570304, 66702.76, 66702.76, 0.0010271312, 9.999743, 10.000109 
1.9548102e+3, 1.2266535e+2, -1840954.5, -1701077.6, -42895.152, -0.054171566, 0.037405677, -1688971.1, 48933.32, 0.22070916, 9.998565, 10.000889 
1.954849e+3, 1.326729e+2, -1805263.4, -1555420.9, -57190.953, 0.2674637, 0.5907847, -1542951.8, 96876.56, 0.15369554, 9.997926, 10.001517 
1.9548824e+3, 1.4266843e+2, -1594261.1, -1544875.9, -5620.635, -0.10229009, 0.064584896, -1544244.3, -2372.9814, 0.08810495, 9.999365, 10.000114 
1.9549206e+3, 1.5267046e+2, -1496774.8, -1431790.3, -7865.268, 0.07090167, 0.20999084, -1430851.9, 13000.029, 0.037922986, 9.999325, 10.000223 
1.9549565e+3, 1.6267115e+2, -1488961.8, -1489990.6, -22954.979, 0.07721786, 0.31060192, -1466515.5, -120669.195, 0.010466628, 9.999179, 9.999226 
1.9549921e+3, 1.7267027e+2, -1315778.1, -1355562.4, -8703.186, 0.032972585, 0.27022773, -1313957.5, -66100.59, 0.0012294218, 9.999721, 9.999194 
1.9550274e+3, 1.8266982e+2, -1137666.0, -1122703.6, -90433.805, 0.011055738, 0.2872886, -1039442.1, 110419.336, 0.000009908067, 9.999851, 10.000067 
1.9550611e+3, 1.926701e+2, -1125015.5, -999623.2, -92972.03, -0.033590686, 0.2314699, -950182.75, 101671.16, 0.0, 9.999013, 10.000624 
1.9550961e+3, 2.0266981e+2, -1156631.4, -1136827.0, -11613.072, -0.051255748, 0.21336465, -1131467.6, -177614.42, 0.0, 9.998834, 9.999116 
1.9551347e+3, 2.1266831e+2, -815829.5, -932218.44, 8880.066, 0.05047763, 0.13560987, -815155.9, 40711.176, 0.0, 10.000583, 9.998982 
1.9551717e+3, 2.2266696e+2, -569551.25, -749302.25, -110268.17, 0.062132817, 0.11120735, -517171.1, 240708.23, 0.0, 10.001497, 9.999146 
1.9552039e+3, 2.3266615e+2, -557854.0, -650236.4, -67707.13, -0.12485347, 0.054275494, -522082.5, 137803.08, 0.0, 10.000755, 9.999497 
1.9552378e+3, 2.426655e+2, -638438.3, -781228.6, 18751.223, -0.21614286, 0.10567236, -636016.94, -74124.4, 0.0, 10.000133, 9.998232 
1.9552761e+3, 2.5266492e+2, -460499.28, -654563.9, 1108.4506, -0.019250546, 0.19913857, -460492.94, 3411.6099, 0.0, 10.000739, 9.99812 
1.9553135e+3, 2.6266408e+2, -272669.28, -414797.03, -93961.875, 0.11070978, 0.2844671, -225924.38, 139992.14, 0.00000003752054, 10.000881, 9.999056 
1.9553478e+3, 2.72663e+2, -211100.84, -261157.31, -40193.25, 0.086909175, 0.17802016, -188780.27, 79144.07, 0.0000033251551, 10.000338, 9.999687 
1.9553824e+3, 2.826622e+2, -298854.06, -498655.28, 33058.62, 0.030997586, 0.23191926, -293526.3, -123595.14, 0.000036409245, 10.000108, 9.997504 
1.9554183e+3, 2.9266158e+2, -11414.777, -312582.44, 27666.252, -0.0805642, 0.39658028, -8894.357, 63046.535, 0.00016708692, 10.001445, 9.997441 
1.9554548e+3, 3.02657e+2, 180932.81, -20361.988, -35237.824, -0.20190986, 0.1482035, 186923.14, 186923.14, 0.00045041088, 10.001666, 9.999032 
1.9554959e+3, 3.1265733e+2, -4565.339, 151682.25, 3804.4512, 0.2307967, 0.15088, 151774.83, 151774.83, 0.0008724613, 9.999256, 10.001341 
1.9648096e+3, 1.226291e+2, -1895433.6, -1732630.9, 2228.8193, 0.06150419, 0.23414141, -1732600.4, 5661.0, 0.23177752, 9.998343, 10.000647 
1.9648455e+3, 1.3263233e+2, -1628148.9, -1473721.4, -37287.355, 0.087574445, 0.373062, -1465189.5, 175038.77, 0.1620495, 9.999205, 10.0015135 
1.9648832e+3, 1.4263234e+2, -1649788.0, -1521508.9, -63038.96, 0.074527375, 0.2746323, -1495716.3, 46511.48, 0.093428105, 9.998782, 10.000559 
1.9649202e+3, 1.526341e+2, -1565396.5, -1407180.4, -110207.88, 0.15942945, 0.34046552, -1350627.6, 93583.57, 0.04057487, 9.998624, 10.000721 
1.964956e+3, 1.6263437e+2, -1541851.0, -1460555.9, -56849.477, 0.14244686, 0.347358, -1431317.1, -85108.68, 0.011385711, 9.998586, 9.999711 
1.9649914e+3, 1.7263335e+2, -1360126.3, -1320331.8, -9142.893, 0.013406692, 0.24523757, -1318331.6, -70114.695, 0.0013940044, 9.999187, 9.999688 
1.9650266e+3, 1.826328e+2, -1209365.6, -1212781.0, -64385.637, -0.03445443, 0.2389753, -1146665.0, 3555.8015, 0.000014255441, 9.999596, 9.999574 
1.9650613e+3, 1.9263284e+2, -1029588.1, -1046611.25, -161120.1, 0.031010501, 0.23684411, -876754.94, 175464.36, 0.0, 10.000064, 9.999797 
1.9650967e+3, 2.026324e+2, -972229.8, -1055688.9, -56871.125, 0.087481365, 0.25668952, -943420.8, 10802.052, 0.0, 10.000119, 9.999053 
1.965135e+3, 2.1263099e+2, -985020.44, -997671.3, 8341.312, 0.100517295, 0.17365213, -980877.4, -124641.15, 0.0, 9.999326, 9.999145 
1.9651717e+3, 2.2262995e+2, -904093.4, -840857.3, -68948.43, 0.0735779, 0.1471237, -796622.94, -38377.97, 0.0, 9.998907, 9.999769 
1.9652042e+3, 2.3262975e+2, -647428.6, -615313.2, -135438.97, -0.10748214, 0.08382015, -494983.38, 165259.95, 0.0, 9.99979, 10.000209 
1.9652385e+3, 2.4262932e+2, -582551.2, -736401.56, -36966.73, -0.17005672, 0.107303426, -574129.9, -11883.159, 0.0, 10.000392, 9.998441 
1.9652767e+3, 2.526286e+2, -554772.6, -697723.5, 23327.805, 0.018248925, 0.18162626, -551062.2, -86802.28, 0.0, 10.000057, 9.998175 
1.9653141e+3, 2.626279e+2, -365153.16, -447094.28, 21360.406, 0.14190193, 0.27579767, -359919.25, 6350.9395, 0.00000006167767, 10.000213, 9.999153 
1.9653486e+3, 2.726272e+2, -14583.734, -160943.06, -69217.17, 0.069402784, 0.20632662, 12965.347, 281239.78, 0.000003603985, 10.001681, 9.999722 
1.9653834e+3, 2.8262618e+2, 20365.441, -325705.5, -10807.172, 0.028978186, 0.23210327, 20702.602, 190985.97, 0.00003430298, 10.002224, 9.997672 
1.9654201e+3, 2.9262495e+2, -115648.19, -353664.22, 68531.2, 0.021336054, 0.32561636, -97326.55, -25027.855, 0.00015136057, 10.000683, 9.99754 
1.9654569e+3, 3.026215e+2, -49467.69, -192960.38, 104119.72, -0.06629454, 0.20953298, 5231.426, 5231.426, 0.00039140965, 10.000328, 9.998505 
1.965496e+3, 3.126201e+2, 414635.6, 283279.94, -124836.84, 0.18079537, 0.1208506, 490017.38, 490017.38, 0.0007269925, 10.002395, 10.000766 
1.9748083e+3, 1.22594245e+2, -1851393.8, -1720202.9, -7586.02, 0.00036750262, 0.48766682, -1719765.6, 18834.998, 0.24301729, 9.998663, 10.000606 
1.9748396e+3, 1.3258888e+2, -1688230.0, -1620575.6, -35107.35, -0.47033656, -0.12209371, -1605650.4, 35003.664, 0.17062773, 9.999373, 10.0002575 
1.9748849e+3, 1.4259478e+2, -1631091.3, -1511837.9, -96364.48, 0.31295562, 0.4446154, -1458144.4, 84453.63, 0.09895461, 9.998899, 10.000595 
1.9749191e+3, 1.5259685e+2, -1520552.4, -1325104.5, -105179.266, 0.14679782, 0.4941155, -1279257.4, 165322.27, 0.04335473, 9.998659, 10.001293 
1.9749537e+3, 1.6259634e+2, -1444789.6, -1288710.1, -57333.8, 0.014370559, 0.34866565, -1269913.1, 76670.26, 0.012356995, 9.998717, 10.000833 
1.9749899e+3, 1.7259556e+2, -1268713.1, -1131042.3, 23583.455, -0.07586164, 0.1462984, -1127114.5, 121468.164, 0.0015709848, 9.999195, 10.000984 
1.9750258e+3, 1.825952e+2, -1270103.3, -1350615.5, -64035.93, -0.10578522, 0.11736096, -1234721.1, -84139.26, 0.000019593592, 9.999638, 9.998614 
1.9750617e+3, 1.9259459e+2, -1156326.3, -1289699.9, -131726.83, 0.06069135, 0.20617312, -1075368.0, -22773.963, 0.0, 9.999978, 9.998171 
1.975098e+3, 2.0259401e+2, -969342.6, -1007172.3, -87998.41, 0.15560378, 0.29737166, -898249.2, 56354.62, 0.0, 9.999938, 9.999473 
1.9751343e+3, 2.1259397e+2, -939395.06, -855037.7, -10714.16, 0.06799692, 0.2504605, -853698.2, 2903.6726, 0.0, 9.999118, 10.000224 
1.9751701e+3, 2.2259404e+2, -951536.2, -868205.8, -65552.58, -0.010318952, 0.26769504, -832197.8, -73598.484, 0.0, 9.998592, 9.999736 
1.9752052e+3, 2.3259395e+2, -701543.0, -680920.94, -81412.44, -0.0090646455, 0.24248548, -609169.2, 51430.77, 0.0, 9.999579, 9.999863 
1.9752406e+3, 2.4259354e+2, -554499.9, -608943.6, -56271.508, -0.0056525855, 0.24720886, -519211.63, 43391.715, 0.0, 10.000088, 9.999465 
1.9752769e+3, 2.5259283e+2, -473189.7, -490509.6, 20715.053, 0.0006605476, 0.18008421, -459397.28, 5211.1665, 0.0, 9.999888, 9.99968 
1.9753128e+3, 2.6259208e+2, -464838.4, -585618.6, 40493.61, -0.03618547, 0.20393758, -452518.84, -85903.43, 0.000000055759365, 9.999919, 9.998341 
1.9753484e+3, 2.7259102e+2, -164171.48, -392115.66, 5941.3296, -0.11826272, 0.23375468, -164016.73, 104611.33, 0.0000036492006, 10.001346, 9.998285 
1.9753848e+3, 2.825895e+2, 37132.055, -203042.5, -65949.984, -0.09554309, 0.25278583, 54049.723, 224693.83, 0.00003270768, 10.001833, 9.998711 
1.9754227e+3, 2.925877e+2, -16775.25, -106207.0, 31806.084, 0.16527358, 0.11269111, -6617.3027, 66041.58, 0.00013942833, 10.000495, 9.999331 
1.9754589e+3, 3.025869e+2, -247659.23, -497665.1, 126550.02, 0.0649736, 0.22756785, -194784.02, -194784.02, 0.00034788318, 9.999905, 9.996601 
1.9754958e+3, 3.1258336e+2, 159349.69, -31919.045, -6262.264, -0.12324188, 0.17572255, 159554.5, 159554.5, 0.0006200003, 10.001532, 9.998982 
1.9848093e+3, 1.2255628e+2, -1770559.9, -1654755.1, 46912.54, 0.2357476, 0.355726, -1638135.9, 100833.35, 0.25424254, 9.999, 10.001096 
1.984839e+3, 1.3254994e+2, -1802858.0, -1782074.9, 15796.688, -0.42979267, -0.26634723, -1773558.3, -132525.56, 0.17932345, 9.999033, 9.999296 
1.9848834e+3, 1.4255652e+2, -1750523.6, -1601672.8, -22773.2, 0.32763353, 0.44155666, -1598266.5, -55295.715, 0.104643695, 9.998235, 10.000258 
1.9849175e+3, 1.525581e+2, -1540786.0, -1337357.6, -82704.79, 0.1478775, 0.45015472, -1307977.0, 136980.47, 0.046255346, 9.998527, 10.001283 
1.9849525e+3, 1.625575e+2, -1435186.4, -1258979.1, -49090.43, 0.038671553, 0.28498206, -1246225.9, 100736.54, 0.013380272, 9.998685, 10.001045 
1.9849896e+3, 1.7255743e+2, -1293836.8, -1108211.3, -65647.945, 0.0037075328, 0.12283662, -1087340.8, 161613.39, 0.0017591557, 9.9988785, 10.001288 
1.9850263e+3, 1.8255751e+2, -1333552.4, -1370741.6, -129691.35, 0.009163215, 0.1167614, -1221129.4, -70180.7, 0.0000256483, 9.999142, 9.998714 
1.985062e+3, 1.9255655e+2, -1135958.5, -1275303.1, -101729.26, 0.09007971, 0.16018856, -1082330.0, -29365.674, 0.0, 10.000066, 9.998232 
1.985098e+3, 2.0255579e+2, -881922.9, -960581.44, 3057.9814, 0.14677113, 0.2277657, -881804.1, 73171.98, 0.0, 10.000522, 9.999515 
1.985134e+3, 2.1255624e+2, -765887.3, -770605.94, -35177.707, 0.085611574, 0.23033254, -732989.9, 123980.85, 0.0, 10.000315, 10.000228 
1.9851698e+3, 2.2255667e+2, -736518.6, -774567.1, -85431.94, 0.04725924, 0.2874185, -668018.4, 90947.8, 0.0, 10.000104, 9.999648 
1.9852054e+3, 2.3255682e+2, -657969.06, -675374.7, -108262.695, 0.058810428, 0.3010893, -558060.0, 102906.22, 0.0, 9.999945, 9.999722 
1.9852413e+3, 2.425566e+2, -550793.9, -575769.25, -67701.19, 0.07387989, 0.32434642, -494438.3, 68530.07, 0.0, 10.0000305, 9.999691 
1.9852774e+3, 2.5255546e+2, -294906.84, -372354.1, -106063.62, 0.024525758, 0.18675631, -220718.97, 244256.34, 0.0, 10.001003, 9.999939 
1.9853133e+3, 2.6255432e+2, -241765.4, -469976.66, -93518.766, -0.032700628, 0.15716785, -208338.47, 158645.94, 0.00000004684117, 10.001419, 9.998405 
1.9853494e+3, 2.7255344e+2, -289447.44, -458839.78, -75553.766, -0.10936389, 0.21100707, -260645.55, 8351.382, 0.000003631824, 10.000517, 9.998221 
1.985386e+3, 2.825524e+2, -144283.81, -238017.19, -69610.04, -0.056957707, 0.26719332, -107233.61, 63775.44, 0.000030883682, 10.00038, 9.999158 
1.9854242e+3, 2.9255113e+2, 235755.2, 72781.734, -107610.445, 0.21520895, 0.1279472, 289250.3, 362268.84, 0.00012822116, 10.002018, 9.99981 
1.9854604e+3, 3.0255052e+2, 166030.84, -287754.84, 23591.781, 0.0987212, 0.23251823, 167254.06, 167254.06, 0.0003141248, 10.002655, 9.996729 
1.9854979e+3, 3.125481e+2, 52647.445, -117872.31, -19875.588, -0.004681655, 0.3016646, 54933.477, 54933.477, 0.00054965925, 10.000865, 9.998736 
1.9948077e+3, 1.225196e+2, -1714960.8, -1600646.3, -113512.06, 0.077572376, 0.2984636, -1530713.3, 208610.81, 0.26535824, 9.999292, 10.001497 
1.9948433e+3, 1.325156e+2, -1833722.8, -1863679.9, 8196.5, 0.08416775, -0.048718214, -1831626.8, -190263.61, 0.18805622, 9.999094, 9.99871 
1.9948784e+3, 1.4251739e+2, -1770169.9, -1683282.3, -50138.996, -0.057125177, 0.24630386, -1660384.0, -117036.85, 0.11045076, 9.998412, 9.999615 
1.9949152e+3, 1.5251772e+2, -1576862.3, -1413790.9, -61503.746, 0.029060168, 0.19050258, -1393195.4, 52150.563, 0.04926506, 9.998555, 10.000717 
1.9949518e+3, 1.6251759e+2, -1466842.8, -1347352.9, -56798.29, 0.052468553, 0.13705692, -1324663.0, 22684.734, 0.014456319, 9.998783, 10.000384 
1.99499e+3, 1.7251883e+2, -1338463.9, -1199805.0, -51615.516, 0.12873933, 0.17079356, -1182701.0, 66631.84, 0.0019582892, 9.998879, 10.000654 
1.9950272e+3, 1.8251958e+2, -1248162.5, -1200465.8, -116343.68, 0.15396008, 0.23020826, -1105551.4, 45771.613, 0.000032105352, 9.999175, 9.999866 
1.9950613e+3, 1.9251867e+2, -1027959.94, -1024345.94, -57329.77, 0.0018125231, 0.10789108, -968794.7, 84536.336, 0.0, 9.999961, 10.0 
1.9950965e+3, 2.0251787e+2, -932493.4, -1030590.7, -15509.191, -0.091824025, 0.076146804, -930099.75, 25239.172, 0.0, 10.000362, 9.999113 
1.9951339e+3, 2.125177e+2, -869378.6, -942551.1, -31010.674, 0.02488194, 0.114932895, -858004.3, -660.49036, 0.0, 10.000123, 9.999141 
1.9951706e+3, 2.2251777e+2, -796297.5, -827628.2, -102454.055, 0.07648136, 0.21118486, -708318.1, 51027.996, 0.0, 9.999796, 9.999433 
1.9952047e+3, 2.3251851e+2, -682170.4, -678561.75, -95265.59, -0.026329089, 0.27551985, -585083.4, 76257.766, 0.0, 9.999736, 9.999801 
1.99524e+3, 2.4251848e+2, -644681.1, -698019.3, -54355.03, -0.094522014, 0.33690527, -610805.1, -47462.676, 0.0, 9.999715, 9.999006 
1.995278e+3, 2.5251648e+2, -393693.28, -519552.4, -48195.78, -0.028727299, 0.19821905, -377357.7, 88002.25, 0.0, 10.000751, 9.999049 
1.9953153e+3, 2.625147e+2, -256803.36, -410877.6, -124121.88, -0.013179847, 0.13623522, -187755.02, 179621.22, 0.000000042002604, 10.00104, 9.998991 
1.9953504e+3, 2.725144e+2, -254457.36, -318092.75, -92203.59, -0.066307165, 0.14165281, -188736.0, 80645.19, 0.0000035134383, 10.000241, 9.999312 
1.9953866e+3, 2.8251463e+2, -220704.19, -320682.3, -47174.125, -0.06879152, 0.27161178, -201959.67, -30578.834, 0.00002820436, 10.000049, 9.998751 
1.9954246e+3, 2.925147e+2, 117265.74, -76114.086, -19874.016, 0.017179426, 0.33732256, 119287.11, 192668.03, 0.00011358975, 10.001588, 9.998995 
1.9954607e+3, 3.0251235e+2, 177857.47, -87210.08, -36322.195, -0.16052483, 0.23706268, 182744.6, 182744.6, 0.0002776181, 10.001939, 9.998433 
1.9955e+3, 3.125142e+2, -14942.333, -86791.41, 15963.755, 0.06025983, 0.5008319, -11555.118, -11555.118, 0.00049017585, 10.000186, 9.999246 
2.0048054e+3, 1.22481525e+2, -1743802.8, -1616754.4, -125834.59, -0.062017377, 0.23854654, -1539318.8, 200375.28, 0.27641812, 9.999115, 10.001449 
2.0048445e+3, 1.3248032e+2, -1710555.0, -1803053.6, -97517.766, 0.27225208, 0.15049754, -1648875.1, -7169.862, 0.1968332, 9.999936, 9.9987 
2.0048757e+3, 1.4247864e+2, -1766077.8, -1692746.6, -58364.87, -0.14095265, 0.10189876, -1660486.0, -116763.45, 0.11636926, 9.998489, 9.999507 
2.0049138e+3, 1.5247908e+2, -1509507.5, -1397259.5, -32395.947, 0.02786924, 0.06574763, -1388580.8, 57137.707, 0.05238356, 9.999061, 10.000598 
2.0049512e+3, 1.6247943e+2, -1428280.9, -1399048.3, 16833.863, 0.10517406, 0.08918928, -1391370.8, -43655.21, 0.015589432, 9.999313, 9.999788 
2.0049892e+3, 1.7248026e+2, -1347840.4, -1293168.9, -14079.541, 0.167045, 0.14924794, -1289756.0, -40047.004, 0.0021699998, 9.999148, 9.999904 
2.0050266e+3, 1.8248072e+2, -1261388.5, -1170324.8, -54571.996, 0.20720375, 0.2126337, -1144784.5, 6920.317, 0.00003871999, 9.998954, 10.00017 
2.0050614e+3, 1.924805e+2, -1018917.2, -956004.8, -101980.99, 0.029919893, 0.107714616, -880738.9, 172965.66, 0.0, 9.999768, 10.000563 
2.0050967e+3, 2.0248021e+2, -955275.56, -1015064.06, -110139.016, -0.06880101, 0.08517091, -871045.9, 84660.516, 0.0, 10.000115, 9.999335 
2.0051338e+3, 2.1247986e+2, -931574.3, -960512.56, -82058.08, 0.045304522, 0.09795567, -862719.5, -5006.4624, 0.0, 9.999659, 9.999243 
2.0051704e+3, 2.224797e+2, -828723.2, -829751.2, -44813.598, 0.11216499, 0.16315086, -784420.6, -24703.418, 0.0, 9.999539, 9.999534 
2.0052049e+3, 2.3248023e+2, -543889.4, -597110.75, -63238.555, -0.014105745, 0.19852194, -501890.7, 159822.63, 0.0, 10.000662, 9.9999 
2.0052405e+3, 2.4248014e+2, -433559.16, -634850.9, -1224.0283, -0.07428186, 0.26230174, -433551.72, 130163.195, 0.0, 10.0012865, 9.998699 
2.0052786e+3, 2.5247848e+2, -473190.38, -605186.5, 1518.8652, 0.00104634, 0.19875215, -473172.9, -7441.0483, 0.0, 10.000394, 9.998634 
2.005316e+3, 2.6247698e+2, -411798.8, -468234.13, -36218.566, 0.035395164, 0.18162361, -394103.28, -26356.21, 0.000000029896977, 9.999874, 9.999168 
2.005351e+3, 2.7247632e+2, -183203.52, -250907.75, -80625.96, -0.024701362, 0.12002787, -129611.3, 140143.23, 0.0000031274246, 10.000544, 9.999649 
2.0053874e+3, 2.8247663e+2, -104023.79, -253060.53, -6858.5513, -0.015390831, 0.23209102, -103708.83, 68043.84, 0.000025154262, 10.000791, 9.998866 
2.0054251e+3, 2.9247752e+2, -131415.44, -201264.64, 14309.881, 0.020309484, 0.38393068, -128597.49, -54851.24, 0.00009776422, 9.999907, 9.998944 
2.0054616e+3, 3.0247486e+2, -11530.586, -28681.975, 57796.383, -0.1350182, 0.20202036, 38322.86, 38322.86, 0.00024035014, 9.9999695, 9.999803 
2.0055021e+3, 3.1247687e+2, 258684.83, 63861.04, 25319.73, 0.17755136, 0.3422862, 261921.67, 261921.67, 0.0004337669, 10.001939, 9.9994755 
2.0148043e+3, 1.2244034e+2, -1769977.9, -1679633.5, 76288.305, -0.16399579, -0.03600646, -1636146.6, 103949.516, 0.28771394, 9.999189, 10.000804 
2.014842e+3, 1.3244413e+2, -1677961.6, -1746781.1, -146006.88, -0.020134585, 0.32585943, -1562364.5, 79694.484, 0.20582092, 10.000048, 9.999098 
2.0148753e+3, 1.4244004e+2, -1714824.6, -1621328.4, -87285.375, -0.094176844, -0.0016290459, -1569060.8, -24961.059, 0.12247417, 9.998634, 9.99993 
2.014913e+3, 1.5244217e+2, -1473368.4, -1327818.8, -2513.627, 0.010745667, 0.08529702, -1327775.4, 118300.164, 0.055639356, 9.999069, 10.001096 
2.01495e+3, 1.624432e+2, -1441209.1, -1449197.4, 1795.3511, 0.025702178, 0.15852539, -1440824.1, -92760.08, 0.016791714, 9.999415, 9.999399 
2.014987e+3, 1.7244184e+2, -1404199.0, -1403729.8, -11566.859, 0.00893109, 0.07450701, -1392395.1, -142313.58, 0.0023981123, 9.999128, 9.999155 
2.015024e+3, 1.8244104e+2, -1295477.1, -1260623.6, -55414.49, 0.008249875, 0.07912822, -1219960.3, -67867.34, 0.000045425786, 9.999023, 9.999523 
2.0150615e+3, 1.92442e+2, -1075245.3, -1054648.6, -61747.42, 0.036312412, 0.16011329, -1002346.6, 51738.69, 0.0, 9.999686, 9.999927 
2.0150982e+3, 2.024428e+2, -926969.75, -917105.3, -131130.69, 0.0414241, 0.25506747, -790814.1, 165264.4, 0.0, 9.999943, 10.0000925 
2.0151334e+3, 2.1244268e+2, -881625.9, -805920.2, -87964.375, 0.023781883, 0.17935792, -748009.94, 110068.78, 0.0, 9.99944, 10.00041 
2.015169e+3, 2.2244233e+2, -853887.8, -818371.5, -31483.926, -0.009751325, 0.14156233, -799982.9, -39901.723, 0.0, 9.999251, 9.999756 
2.0152056e+3, 2.3244166e+2, -574210.1, -619671.94, -4980.553, -0.028534336, 0.062428985, -573670.9, 88414.89, 0.0, 10.000466, 9.999847 
2.0152423e+3, 2.4244122e+2, -486766.06, -661943.7, -29015.906, -0.041611288, 0.092172325, -482085.03, 82004.8, 0.0, 10.00094, 9.998676 
2.015279e+3, 2.5244117e+2, -506384.9, -621541.2, -21348.959, -0.024724146, 0.19332261, -502554.4, -36460.47, 0.0, 10.000176, 9.998626 
2.0153151e+3, 2.624406e+2, -464880.7, -516247.4, -39941.543, -0.058666747, 0.2759101, -443077.6, -74974.87, 0.0000000091701935, 9.99961, 9.998967 
2.0153509e+3, 2.7243912e+2, -237630.6, -298485.03, -33201.367, -0.11964424, 0.15209688, -223022.86, 47095.29, 0.0000023642951, 10.00027, 9.999453 
2.0153876e+3, 2.8243867e+2, -148966.2, -246468.73, -49163.074, -0.106807485, 0.18931891, -128480.96, 43642.152, 0.000021595964, 10.000373, 9.999105 
2.0154253e+3, 2.9243928e+2, -139536.6, -167143.34, -888.2862, 0.026483418, 0.2740744, -139508.03, -65390.652, 0.000083873885, 9.999665, 9.999302 
2.0154622e+3, 3.024375e+2, -32661.533, 43698.727, 82328.07, -0.10097739, 0.12806751, 96268.984, 96268.984, 0.00020823472, 9.999509, 10.0005 
2.0155017e+3, 3.124386e+2, 127117.08, 45756.496, 200820.02, -0.098123014, 0.080186, 291335.7, 291335.7, 0.0003833975, 10.00093, 9.999795 
2.0248057e+3, 1.2240196e+2, -1664449.8, -1601176.3, 179273.27, 0.029377867, -0.044868793, -1450769.6, 289700.63, 0.29983783, 10.000014, 10.001208 
2.0248398e+3, 1.3240644e+2, -1905715.4, -1797550.6, -157543.66, -0.122784056, 0.3194857, -1685065.0, -42638.934, 0.21537028, 9.998185, 9.999574 
2.0248753e+3, 1.4240241e+2, -1558370.0, -1547065.5, -29309.748, 0.01454947, -0.037489153, -1522868.0, 21598.225, 0.12892798, 9.99971, 9.999934 
2.0249127e+3, 1.524044e+2, -1374714.0, -1307816.6, -32319.365, 0.057674993, 0.05828941, -1294753.4, 151689.36, 0.05909158, 9.999909, 10.000834 
2.0249496e+3, 1.624052e+2, -1415404.5, -1434311.6, -39535.824, 0.047226332, 0.12329176, -1384207.8, -35774.023, 0.018083457, 9.999621, 9.999378 
2.0249861e+3, 1.7240392e+2, -1266274.6, -1333263.8, -27206.586, -0.020437961, 0.048309334, -1256617.4, -6166.1416, 0.0026487417, 10.00011, 9.999141 
2.0250233e+3, 1.8240334e+2, -1137898.6, -1194980.9, 3971.6853, -0.025614962, 0.07672578, -1137623.6, 14837.847, 0.000052423693, 10.000144, 9.999427 
2.0250611e+3, 1.9240426e+2, -1105981.6, -1089539.3, 9332.31, 0.05887104, 0.16432773, -1085323.4, -30868.248, 0.0, 9.999545, 9.999752 
2.0250982e+3, 2.02405e+2, -1035621.75, -985160.25, -26626.367, 0.11212512, 0.26849648, -973709.25, -17259.732, 0.0, 9.999265, 9.999942 
2.025133e+3, 2.1240494e+2, -773917.4, -776431.75, -106878.586, 0.019510226, 0.21194515, -668288.6, 190161.38, 0.0, 10.000264, 10.000209 
2.0251685e+3, 2.2240452e+2, -625930.9, -705150.9, -85548.53, -0.036366716, 0.18010023, -571267.3, 189185.69, 0.0, 10.000806, 9.999776 
2.025206e+3, 2.3240377e+2, -590124.75, -615355.25, -76078.766, -0.0122038275, 0.08326901, -525622.4, 136835.28, 0.0, 10.000317, 9.999935 
2.0252433e+3, 2.4240331e+2, -576277.5, -661807.06, -65010.176, 0.013249378, 0.09350031, -541227.44, 23233.176, 0.0, 10.000161, 9.999036 
2.0252796e+3, 2.5240338e+2, -336980.0, -497326.16, -58224.715, -0.027303593, 0.16735198, -318068.06, 148394.52, 0.0, 10.0011635, 9.998997 
2.0253156e+3, 2.6240292e+2, -184923.92, -395912.66, -39124.94, -0.0605795, 0.24424747, -177902.42, 190567.27, 0.000000001074916, 10.001605, 9.998828 
2.0253514e+3, 2.7240172e+2, -228154.19, -325451.94, -83362.99, -0.08638612, 0.18307705, -180283.11, 90200.734, 0.0000018159459, 10.000505, 9.999137 
2.0253879e+3, 2.8240126e+2, -216699.72, -283763.34, -72636.266, -0.059167482, 0.24123858, -170228.97, 2261.0315, 0.000018189116, 9.999895, 9.999089 
2.0254253e+3, 2.9240155e+2, -2712.268, -75243.805, -78941.25, 0.028246984, 0.2852353, 47895.016, 122382.01, 0.000072171526, 10.000497, 9.999524 
2.0254639e+3, 3.0239984e+2, 158050.7, 6899.9683, 23010.338, 0.05376672, 0.17232424, 161476.05, 161476.05, 0.00017992329, 10.0012865, 9.999434 
2.0255023e+3, 3.1239977e+2, 152438.64, -286.74203, -112364.15, -0.12136643, 0.16131519, 211932.36, 211932.36, 0.00033564074, 10.001263, 9.9993515 
2.034807e+3, 1.2236464e+2, -1562449.1, -1463668.1, 29425.725, 0.08029729, 0.0042957836, -1455566.9, 285266.94, 0.3135409, 10.000307, 10.002414 
2.034838e+3, 1.323669e+2, -1841585.5, -1694846.8, -101079.57, -0.1635179, 0.09703905, -1643315.6, -505.75784, 0.22593072, 9.9983015, 10.000228 
2.0348753e+3, 1.4236568e+2, -1548858.9, -1587458.8, -7458.211, -0.025182763, -0.009513618, -1547468.0, -2645.217, 0.13594478, 9.999959, 9.999524 
2.0349129e+3, 1.5236579e+2, -1429542.1, -1438649.1, -26916.684, 0.03859853, -0.018090095, -1406796.5, 40024.08, 0.06282382, 9.999987, 9.999841 
2.0349494e+3, 1.6236524e+2, -1382469.0, -1390459.6, -53248.8, -0.0038269917, -0.034279883, -1333065.9, 15760.197, 0.019494196, 9.999726, 9.999629 
2.0349863e+3, 1.7236638e+2, -1207645.8, -1221151.9, 3264.849, -0.051185332, 0.065914236, -1206897.9, 43921.04, 0.0029308582, 10.000143, 9.999894 
2.0350233e+3, 1.8236749e+2, -1102552.0, -1127818.4, -21947.52, -0.06693323, 0.19566676, -1089861.5, 62949.67, 0.00006041413, 10.000174, 9.999876 
2.0350602e+3, 1.9236723e+2, -1096358.4, -1047549.2, -4728.6978, -0.024363209, 0.13424787, -1047095.3, 7718.7573, 0.0, 9.999455, 10.000085 
2.0350964e+3, 2.0236684e+2, -1128724.9, -1140295.9, -19999.324, -0.029981203, 0.13944583, -1113691.0, -156871.67, 0.0, 9.999108, 9.998951 
2.0351325e+3, 2.1236652e+2, -906303.5, -1000858.6, -52795.273, -0.09039713, 0.19755267, -882711.4, -23884.004, 0.0, 10.00005, 9.998774 
2.0351686e+3, 2.223663e+2, -690987.0, -753661.56, -99967.97, -0.13852842, 0.2824255, -617559.7, 143272.81, 0.0, 10.00045, 9.999606 
2.0352057e+3, 2.3236644e+2, -613888.1, -601050.8, -76402.36, -0.091920614, 0.25485113, -530797.94, 132031.2, 0.0, 10.000056, 10.000154 
2.0352428e+3, 2.4236622e+2, -578373.9, -596415.44, -53925.203, -0.083225764, 0.25147638, -532720.1, 32108.783, 0.0, 9.999863, 9.999629 
2.0352797e+3, 2.5236508e+2, -319997.38, -407101.22, -6276.9795, -0.13383442, 0.13034411, -319547.34, 147290.4, 0.0, 10.000922, 9.999736 
2.0353165e+3, 2.6236403e+2, -262819.03, -461451.44, -77356.305, -0.15764967, 0.11405604, -236247.56, 132599.92, 0.000000023664393, 10.001205, 9.998562 
2.0353523e+3, 2.7236375e+2, -300673.25, -428749.8, -109250.77, -0.07994054, 0.1889145, -238075.7, 32780.125, 0.0000019634658, 10.000295, 9.998529 
2.035388e+3, 2.8236386e+2, -281343.84, -336575.22, -84217.695, -0.06732072, 0.34884748, -220329.69, -47470.82, 0.000016146072, 9.999567, 9.998876 
2.0354246e+3, 2.9236424e+2, -45338.83, -94751.32, -29423.098, -0.12637717, 0.40748623, -31624.8, 43231.22, 0.00006227005, 10.000192, 9.999543 
2.0354654e+3, 3.0236167e+2, -138021.42, -445204.9, 14404.354, 0.039403915, 0.32739097, -137347.45, -137347.45, 0.00015436458, 10.0006275, 9.996623 
2.035504e+3, 3.123585e+2, -23307.287, -168444.05, -78387.94, -0.13308981, 0.3187542, 10945.859, 10945.859, 0.0002908974, 10.00048, 9.998542 
2.044807e+3, 1.2232858e+2, -1725977.8, -1467684.9, 43187.56, 0.15458293, 0.06830304, -1460655.0, 280530.94, 0.3294151, 9.998177, 10.003491 
2.0448361e+3, 1.323279e+2, -1801847.0, -1767843.6, -85557.625, -0.19125658, -0.04917943, -1697614.8, -54423.133, 0.23787552, 9.99901, 9.999391 
2.0448764e+3, 1.4232856e+2, -1605093.3, -1633595.8, -41957.125, 0.11833351, 0.09466414, -1575033.1, -29845.348, 0.14372098, 9.99966, 9.9993515 
2.044913e+3, 1.5232828e+2, -1417703.3, -1430477.3, -57584.56, 0.08527354, 0.04773616, -1366152.5, 81037.66, 0.06692591, 10.00007, 9.9998665 
2.044949e+3, 1.623274e+2, -1342519.4, -1354899.0, -22718.012, 0.002097207, -0.011315792, -1325163.0, 24036.096, 0.021061258, 9.99991, 9.999796 
2.044986e+3, 1.7232868e+2, -1320198.0, -1253533.1, -32018.086, -0.02155301, 0.080995165, -1240646.4, 10542.759, 0.003256253, 9.999266, 10.000103 
2.0450234e+3, 1.8232991e+2, -1271360.0, -1193944.8, -56653.918, -0.00014333587, 0.20880571, -1164037.9, -10859.1455, 0.00007088071, 9.998959, 10.000009 
2.0450602e+3, 1.9232966e+2, -969536.75, -969337.1, -78372.84, 0.0069011855, 0.1353861, -891064.06, 164116.42, 0.0, 10.000273, 10.00022 
2.0450966e+3, 2.0232908e+2, -851926.25, -1018840.1, -56039.71, -0.005792417, 0.11959733, -834857.0, 122329.82, 0.0, 10.001035, 9.998874 
2.0451328e+3, 2.1232826e+2, -845286.75, -976760.7, -26594.797, -0.065924875, 0.13672806, -840110.9, 19088.773, 0.0, 10.000498, 9.998722 
2.045169e+3, 2.2232793e+2, -740252.44, -808620.9, 8270.826, -0.10192555, 0.22008613, -739266.1, 21940.424, 0.0, 10.0002165, 9.999362 
2.045206e+3, 2.3232844e+2, -505998.1, -583332.1, -27181.365, -0.094135016, 0.260635, -497400.28, 165801.34, 0.0, 10.000916, 9.999877 
2.0452431e+3, 2.4232839e+2, -397264.44, -518841.03, -19024.463, -0.08076511, 0.29312077, -394357.0, 170844.34, 0.0, 10.001131, 9.999564 
2.0452806e+3, 2.5232688e+2, -446606.44, -461942.2, -53688.035, -0.07763604, 0.13785358, -400041.47, 67171.75, 0.0, 10.000027, 9.99979 
2.0453177e+3, 2.6232564e+2, -478553.84, -539789.06, -100117.75, -0.0555365, 0.089733556, -404476.66, -35252.816, 0.00000011200642, 9.999588, 9.998808 
2.0453532e+3, 2.723255e+2, -152670.67, -329142.34, -105524.92, -0.03999861, 0.15521605, -103352.62, 167875.73, 0.000002326167, 10.001171, 9.9987955 
2.0453885e+3, 2.8232533e+2, 56874.473, -233159.64, -36766.37, -0.08060122, 0.28774175, 61462.605, 234695.72, 0.000014696717, 10.002128, 9.998358 
2.0454247e+3, 2.9232475e+2, 32710.4, -142917.8, -84287.516, -0.15543257, 0.33889318, 66616.06, 141857.5, 0.00005375532, 10.001114, 9.998763 
2.0454668e+3, 3.0232298e+2, -113232.11, -433389.63, 78821.9, 0.1465115, 0.38581708, -94878.53, -94878.53, 0.00013253847, 10.000783, 9.996627 
2.0455064e+3, 3.1231952e+2, 202283.16, -37092.35, 16183.0205, -0.0025866996, 0.34009743, 203372.25, 203372.25, 0.0002539401, 10.001866, 9.998791 
2.0548052e+3, 1.2229475e+2, -1651626.6, -1361781.9, -36422.113, 0.06607643, 0.24633957, -1357275.1, 384242.44, 0.3476065, 9.998449, 10.004552 
2.0548333e+3, 1.3228977e+2, -1941645.4, -2082842.3, -35088.203, -0.42241544, -0.084662326, -1933406.5, -289838.22, 0.2513395, 9.999106, 9.997188 
2.0548779e+3, 1.422909e+2, -1584448.8, -1623641.9, -38896.52, 0.24177383, 0.2501763, -1560491.1, -14928.371, 0.15236652, 9.9998045, 9.999348 
2.054913e+3, 1.5229204e+2, -1339442.1, -1283369.6, -30442.445, 0.052033156, 0.25880542, -1270020.1, 177530.1, 0.071473114, 10.0001335, 10.0009165 
2.0549482e+3, 1.6229178e+2, -1323610.8, -1355859.3, -56517.38, -0.121731825, 0.20119552, -1280962.5, 68589.2, 0.022826005, 10.000075, 9.99972 
2.0549853e+3, 1.7229079e+2, -1343762.6, -1309579.0, -50914.41, -0.06320604, 0.10269996, -1272964.1, -21402.166, 0.0036400491, 9.999288, 9.999712 
2.0550227e+3, 1.822904e+2, -1277686.6, -1227061.1, -42660.164, -0.0074404324, 0.106865495, -1202769.1, -49203.176, 0.00008593674, 9.99903, 9.999755 
2.0550609e+3, 1.9229124e+2, -980874.75, -984915.6, -17691.398, 0.014081641, 0.15207231, -965088.8, 90468.445, 0.0, 10.000219, 10.000146 
2.0550981e+3, 2.0229144e+2, -826636.0, -919062.8, -73738.33, 0.004074748, 0.18739013, -785826.3, 171728.47, 0.0, 10.0008335, 9.999654 
2.0551337e+3, 2.1228993e+2, -802020.0, -833056.75, -38269.46, -0.04687491, 0.028998116, -776242.25, 83326.87, 0.0, 10.000261, 9.999823 
2.0551695e+3, 2.2228898e+2, -810359.06, -874267.3, 5780.3535, -0.106042616, -0.008519282, -809840.44, -48261.24, 0.0, 9.999882, 9.999069 
2.0552066e+3, 2.3228963e+2, -597485.56, -711367.3, 14870.26, -0.15226556, 0.11409281, -595575.9, 68000.9, 0.0, 10.000652, 9.999125 
2.0552437e+3, 2.4228975e+2, -501038.5, -642774.4, -57717.54, -0.15635033, 0.23537774, -480508.53, 85070.13, 0.0, 10.00075, 9.99889 
2.0552815e+3, 2.522885e+2, -530558.6, -573701.25, -79144.36, -0.000385682, 0.16736613, -470098.53, -2506.8018, 0.0, 9.999769, 9.999141 
2.0553188e+3, 2.6228747e+2, -484313.7, -473518.63, -78117.34, 0.065141395, 0.15371881, -400612.56, -31011.307, 0.00000017468948, 9.999262, 9.9994135 
2.055354e+3, 2.722869e+2, -120489.04, -204318.52, -23811.01, -0.11118767, 0.082038365, -114197.87, 157405.14, 0.0000023499456, 10.000916, 9.999779 
2.055389e+3, 2.822856e+2, -90469.055, -419692.72, -65818.97, -0.2956481, 0.08734634, -77798.086, 95815.82, 0.000012296112, 10.0016365, 9.997303 
2.0554253e+3, 2.9228315e+2, -131329.72, -411460.72, -98222.11, -0.25005794, 0.09056037, -100322.34, -24678.465, 0.000044415407, 10.000807, 9.997061 
2.0554678e+3, 3.0228293e+2, -51750.1, -162986.73, 83698.68, 0.117731586, 0.30621383, -6875.3057, -6875.3057, 0.00011238554, 10.000213, 9.998737 
2.055508e+3, 3.12282e+2, 85269.8, -29447.809, -5747.4473, -0.06377392, 0.20222022, 85557.03, 85557.03, 0.00022337346, 10.000845, 9.999311 
2.0648047e+3, 1.2225631e+2, -1544627.4, -1213920.8, -116558.31, 0.18840986, 0.18254751, -1176968.5, 564927.44, 0.36771804, 9.9989195, 10.006023 
2.0648347e+3, 1.3225137e+2, -1804343.3, -2107703.3, -100240.77, -0.21960701, -0.09861603, -1774212.9, -130267.1, 0.26616043, 10.000416, 9.996369 
2.0648767e+3, 1.4225268e+2, -1738485.5, -1702338.5, 4610.704, 0.21639217, 0.30282462, -1701759.8, -155821.03, 0.1618756, 9.9987335, 9.999334 
2.0649129e+3, 1.5225367e+2, -1380132.9, -1253085.6, -26457.842, 0.04046239, 0.25333837, -1247796.0, 200130.25, 0.07651462, 9.999584, 10.001416 
2.0649487e+3, 1.6225371e+2, -1304465.1, -1362431.6, -69255.65, -0.07014426, 0.1965119, -1258372.5, 91551.266, 0.024829434, 10.00031, 9.999544 
2.0649856e+3, 1.722523e+2, -1224006.9, -1301281.0, -109584.484, -0.0016819912, 0.0987299, -1146447.6, 105491.44, 0.0041003036, 10.000346, 9.999245 
2.0650227e+3, 1.8225145e+2, -1161713.1, -1164663.8, -52849.72, 0.06446679, 0.084467605, -1110318.1, 43630.22, 0.000108260756, 9.999809, 9.999792 
2.0650603e+3, 1.9225235e+2, -1160531.6, -1039468.1, -25579.674, 0.04020714, 0.11170489, -1034285.25, 21653.05, 0.0, 9.998854, 10.0004225 
2.0650977e+3, 2.0225279e+2, -1164614.3, -1062758.3, -47970.5, 0.025927499, 0.1503437, -1043723.2, -85790.34, 0.0, 9.998436, 9.999813 
2.065134e+3, 2.1225189e+2, -840159.1, -841377.9, -107129.68, -0.0021642675, 0.0423615, -733637.06, 126304.93, 0.0, 9.9999695, 9.999902 
2.0651704e+3, 2.2225124e+2, -653556.56, -789445.7, -85265.52, -0.03594834, 0.030188948, -612475.1, 149474.63, 0.0, 10.000916, 9.999153 
2.065207e+3, 2.322515e+2, -673908.94, -737024.9, -58456.82, -0.10625833, 0.10639168, -639035.7, 24915.494, 0.0, 10.000094, 9.999207 
2.0652442e+3, 2.4225162e+2, -649455.7, -700654.7, -47624.91, -0.10606066, 0.21849032, -620986.06, -55032.926, 0.0, 9.999669, 9.999013 
2.065282e+3, 2.522511e+2, -402693.22, -492480.63, -45309.813, 0.046717085, 0.208681, -383802.75, 84156.586, 0.0, 10.000565, 9.999313 
2.0653193e+3, 2.6225033e+2, -210808.16, -350138.2, 22112.047, 0.11720875, 0.21090184, -207383.11, 162583.0, 0.00000012472299, 10.001155, 9.999364 
2.065355e+3, 2.722491e+2, -132266.75, -215092.22, -21647.191, -0.082372844, 0.09126646, -126950.32, 145022.69, 0.0000018192295, 10.000863, 9.999729 
2.0653906e+3, 2.822477e+2, -196240.44, -451274.6, -66044.125, -0.22477552, 0.07288192, -180152.39, -6168.0396, 0.000008845643, 10.00081, 9.9974985 
2.0654267e+3, 2.9224518e+2, -41750.26, -347919.22, -36796.973, -0.16934662, 0.058084216, -37389.91, 38622.65, 0.000033872344, 10.001336, 9.997247 
2.0654675e+3, 3.0224404e+2, 189532.81, 35502.53, 221118.67, 0.048694827, 0.1315933, 346664.63, 346664.63, 0.00009226449, 10.001434, 9.9995575 
2.0655093e+3, 3.1224516e+2, -89339.78, -92516.7, -176768.4, 0.06435066, 0.1567717, 85847.3, 85847.3, 0.00019361054, 9.999497, 9.999561 
2.074802e+3, 1.2221504e+2, -1473100.6, -1109538.1, -136599.11, -0.08760202, 0.039770726, -1063934.8, 678369.0, 0.38886976, 9.999201, 10.007264 
2.0748408e+3, 1.3221249e+2, -1748139.3, -2022512.6, -147916.81, 0.28555518, -0.1049744, -1683584.6, -39258.13, 0.28190908, 10.000539, 9.996903 
2.0748721e+3, 1.422138e+2, -1706454.9, -1668969.6, -35079.137, -0.17145357, 0.2609461, -1647940.0, -101623.46, 0.17213808, 9.998878, 9.999495 
2.0749114e+3, 1.5221302e+2, -1368906.9, -1237882.6, 17460.389, -0.102047026, 0.029048715, -1235595.9, 212723.6, 0.08207624, 9.999626, 10.001515 
2.0749499e+3, 1.6221297e+2, -1300585.8, -1387081.0, -72450.09, -0.021445775, -0.03854729, -1259457.0, 90860.68, 0.027111659, 10.000451, 9.999307 
2.0749865e+3, 1.7221318e+2, -1254970.3, -1369144.9, -102887.53, 0.040600974, 0.07068601, -1194393.6, 57927.17, 0.0046569863, 10.000368, 9.998765 
2.0750229e+3, 1.822131e+2, -1132347.5, -1121909.6, -97331.27, 0.053957514, 0.15464725, -1029657.5, 124667.445, 0.00014131474, 9.999888, 10.000048 
2.0750588e+3, 1.9221294e+2, -1132921.3, -967896.94, -55212.914, -0.035305046, 0.025662143, -951128.06, 105195.85, 0.0000000002137382, 9.998792, 10.000944 
2.0750952e+3, 2.0221305e+2, -1217107.1, -1142337.9, -32055.896, -0.10599081, 0.011989762, -1130476.3, -172153.9, 0.0, 9.998301, 9.999334 
2.0751335e+3, 2.1221392e+2, -929124.94, -979850.9, -30421.795, -0.065442115, 0.16175595, -914880.25, -54560.113, 0.0, 9.999764, 9.99905 
2.0751713e+3, 2.2221442e+2, -684871.06, -766030.6, -101074.695, -0.053443495, 0.30512762, -616534.3, 145785.92, 0.0, 10.000548, 9.999483 
2.0752075e+3, 2.322139e+2, -662458.56, -643838.94, -77133.05, -0.08871746, 0.23102333, -575455.9, 88870.055, 0.0, 9.999812, 9.999975 
2.0752442e+3, 2.4221374e+2, -648172.1, -609497.25, -43667.477, -0.11120008, 0.23533137, -581077.1, -14749.931, 0.0, 9.999296, 9.999815 
2.0752817e+3, 2.5221434e+2, -383960.03, -393871.6, 4023.7427, -0.06465551, 0.25873604, -382532.22, 85787.09, 0.0, 10.000313, 10.000109 
2.0753191e+3, 2.6221398e+2, -317490.8, -471855.22, 2861.7048, -0.066726424, 0.2749259, -317437.78, 52883.34, 0.000000021824269, 10.000739, 9.998724 
2.075356e+3, 2.722118e+2, -250614.2, -392185.9, -17309.838, -0.10872455, 0.1598644, -248528.47, 23813.438, 0.00000084431264, 10.000581, 9.998648 
2.0753928e+3, 2.8221074e+2, -184315.11, -321783.66, -75172.51, -0.11177716, 0.19850211, -151190.13, 23161.326, 0.000005133315, 10.00038, 9.998585 
2.0754294e+3, 2.9221e+2, 21426.48, -141436.17, 4624.3384, -0.08933132, 0.1965997, 21557.68, 97913.055, 0.000023723636, 10.000998, 9.998831 
2.075466e+3, 3.0220592e+2, 42000.57, -83589.86, 146943.72, -0.27975324, -0.10064405, 139004.28, 139004.28, 0.00007269807, 10.000694, 9.9990635 
2.0755081e+3, 3.1220993e+2, -236853.55, -178363.69, -182778.1, -0.06705809, 0.2877156, -22505.674, -22505.674, 0.00016065389, 9.998652, 9.9993305 
2.0848003e+3, 1.22177094e+2, -1545332.4, -1230755.8, -55446.203, -0.16344644, 0.15962876, -1221269.0, 521410.28, 0.40993002, 9.998989, 10.006202 
2.0848423e+3, 1.3217509e+2, -1853782.9, -2023249.5, -154855.23, 0.44363347, 0.026410619, -1761994.5, -117299.875, 0.29801235, 9.9996, 9.997345 
2.0848714e+3, 1.4217435e+2, -1481971.8, -1545463.1, -18171.621, -0.18383488, 0.14878394, -1477138.9, 69564.27, 0.18298064, 10.000512, 9.999549 
2.0849112e+3, 1.5217376e+2, -1371711.8, -1277184.0, -16618.563, -0.06424779, -0.035977215, -1274347.4, 174357.63, 0.088167645, 9.999783, 10.001163 
2.0849507e+3, 1.6217437e+2, -1500744.1, -1448207.0, -87176.56, 0.10152956, -0.02234025, -1383427.3, -32730.352, 0.029713616, 9.998886, 9.999659 
2.0849866e+3, 1.7217495e+2, -1398565.9, -1369969.6, -71647.99, 0.09469662, 0.06239924, -1311207.0, -58511.992, 0.005333032, 9.99906, 9.999411 
2.0850225e+3, 1.821751e+2, -1234595.5, -1181301.9, 993.71594, 0.07011666, 0.1288453, -1181283.4, -26587.049, 0.00018960002, 9.999234, 9.999965 
2.0850584e+3, 1.9217502e+2, -959727.7, -929223.3, -42995.242, -0.021659985, 0.047893856, -898855.1, 157841.31, 0.000000020895914, 10.000189, 10.000534 
2.0850947e+3, 2.0217524e+2, -894951.4, -989738.9, -19333.896, -0.072343305, 0.07578503, -891159.5, 67535.84, 0.0, 10.000562, 9.999276 
2.0851335e+3, 2.1217614e+2, -908953.94, -961562.56, 14848.005, -0.04369916, 0.22493014, -905052.6, -44359.53, 0.0, 9.999885, 9.999105 
2.0851716e+3, 2.2217663e+2, -850902.4, -841601.2, -15489.466, -0.018790511, 0.3587384, -830079.2, -67385.98, 0.0, 9.99937, 9.999546 
2.0852076e+3, 2.3217592e+2, -683995.6, -644770.8, -70998.41, -0.055646244, 0.25859997, -590725.75, 73973.46, 0.0, 9.9996, 10.000084 
2.0852442e+3, 2.421756e+2, -557588.8, -537533.06, -29033.07, -0.05316212, 0.22849192, -516844.84, 49855.797, 0.0, 9.999787, 10.0000725 
2.0852822e+3, 2.5217614e+2, -423293.72, -383482.44, -37341.895, 0.0043317135, 0.22206932, -361071.97, 107620.33, 0.0, 9.999909, 10.000376 
2.08532e+3, 2.6217598e+2, -401270.4, -514872.3, -25369.658, 0.0083875, 0.24091533, -395862.28, -25170.225, 0.0, 10.000175, 9.9987 
2.0853563e+3, 2.7217415e+2, -230238.14, -403561.0, -22554.428, -0.1179693, 0.18167165, -227351.23, 45359.547, 0.000000115745564, 10.0008135, 9.998453 
2.0853935e+3, 2.821731e+2, -37575.55, -217372.89, -39418.39, -0.098746434, 0.22217344, -29313.229, 145408.23, 0.0000020138657, 10.00121, 9.998909 
2.0854317e+3, 2.9217276e+2, 6917.997, -73668.82, -86892.16, 0.07480605, 0.209385, 62404.574, 139125.7, 0.000014504671, 10.000589, 9.999488 
2.0854668e+3, 3.0217063e+2, 27667.473, -74022.484, 80607.65, -0.22109962, 0.050690744, 72126.24, 72126.24, 0.00005340342, 10.000459, 9.99927 
2.0855083e+3, 3.1217253e+2, 177184.52, -77177.484, -233702.7, -0.045219023, 0.26322845, 316071.1, 316071.1, 0.0001257325, 10.001782, 9.998573 
2.0948e+3, 1.2213997e+2, -1681676.3, -1531097.3, 536.6725, -0.18629959, 0.27389714, -1531095.4, 211951.56, 0.42994058, 9.999092, 10.002755 
2.0948386e+3, 1.3213933e+2, -1814235.9, -1960118.9, -89543.68, 0.082932554, 0.31107682, -1771684.8, -126635.49, 0.31401625, 9.999689, 9.997738 
2.0948741e+3, 1.4213412e+2, -1468672.3, -1557363.4, -37749.73, -0.032201577, -0.03878544, -1454780.6, 92319.91, 0.19429262, 10.000708, 9.999391 
2.094912e+3, 1.521358e+2, -1414114.6, -1380810.8, -41156.215, 0.0020946732, 0.07173696, -1353065.4, 96018.25, 0.094824284, 9.999853, 10.000354 
2.0949502e+3, 1.6213797e+2, -1410424.8, -1299505.4, -113028.695, 0.106876366, 0.25989372, -1229063.3, 121998.16, 0.032688897, 9.999046, 10.000624 
2.0949854e+3, 1.7213763e+2, -1270127.1, -1111462.0, -56361.953, 0.03002521, 0.09014034, -1093479.0, 159582.36, 0.0061590113, 9.999088, 10.001178 
2.0950207e+3, 1.821374e+2, -1249585.0, -1234815.9, 13064.118, -0.06930677, 0.018286921, -1227193.8, -72131.25, 0.00026052183, 9.999327, 9.999554 
2.0950584e+3, 1.9213864e+2, -1061713.0, -1127123.6, 1942.1119, -0.058594123, 0.18690744, -1061655.4, -4600.0313, 0.00000016154512, 10.000129, 9.999206 
2.095096e+3, 2.0213942e+2, -909795.8, -977141.9, -44631.984, -0.04952462, 0.3459976, -887559.25, 71492.89, 0.0, 10.000376, 9.999451 
2.0951334e+3, 2.1213856e+2, -891212.06, -867587.56, -2464.046, -0.06321142, 0.25077564, -867333.3, -6271.6265, 0.0, 9.999647, 9.999859 
2.0951705e+3, 2.221378e+2, -907725.7, -887468.25, -29456.586, -0.10138128, 0.2160225, -866447.6, -103377.78, 0.0, 9.999061, 9.999378 
2.0952062e+3, 2.3213747e+2, -756546.25, -737843.6, -45685.906, -0.14925018, 0.20174508, -700561.8, -35489.766, 0.0, 9.999353, 9.999563 
2.0952433e+3, 2.4213712e+2, -634305.25, -607994.6, -36285.066, -0.12443656, 0.21102683, -582553.7, -15479.426, 0.0, 9.999407, 9.99977 
2.0952834e+3, 2.5213656e+2, -468853.28, -428977.16, -18475.863, 0.10624757, 0.11451128, -421732.8, 47344.625, 0.0, 9.999692, 10.000169 
2.0953217e+3, 2.6213628e+2, -422614.78, -478269.6, -23736.252, 0.13209483, 0.1180939, -413866.6, -42788.098, 0.0, 9.99984, 9.999108 
2.095356e+3, 2.72136e+2, -236913.27, -348882.22, 18231.12, -0.2563794, 0.15291597, -234019.6, 39062.4, 0.0, 10.000521, 9.998967 
2.0953926e+3, 2.8213474e+2, -149300.86, -318177.63, -68652.18, -0.35240313, 0.16536188, -124913.86, 50181.56, 0.00000039293647, 10.000661, 9.998479 
2.0954332e+3, 2.921335e+2, -62891.992, -139225.28, -84913.47, 0.13872963, 0.10975438, -7961.971, 69146.17, 0.000007667558, 10.00025, 9.999202 
2.0954688e+3, 3.021365e+2, -49882.6, -47437.51, 85908.92, -0.12171557, 0.4436812, 37257.56, 37257.56, 0.000037309022, 9.999719, 9.999782 
2.09551e+3, 3.1213275e+2, -27049.684, -233305.28, 40762.617, -0.13035913, 0.047185533, -19285.94, -19285.94, 0.00009614077, 10.000728, 9.997967 
2.1048032e+3, 1.2210074e+2, -1617151.4, -1620873.5, 72777.25, 0.1767358, 0.2483735, -1546211.4, 197219.33, 0.44859928, 10.000821, 10.000879 
2.1048374e+3, 1.3210276e+2, -1717554.5, -1860709.0, -72356.41, -0.01718453, 0.4963755, -1687353.8, -41944.88, 0.3298663, 10.000098, 9.9982395 
2.1048753e+3, 1.4209531e+2, -1612970.8, -1650361.4, -25979.244, 0.084164925, -0.093162775, -1599659.3, -52176.375, 0.20615475, 9.999663, 9.999229 
2.1049124e+3, 1.5209821e+2, -1515218.3, -1429214.1, -36787.656, 0.11495243, 0.14128481, -1415625.5, 33829.973, 0.10215144, 9.999183, 10.000297 
2.1049495e+3, 1.6210066e+2, -1447389.8, -1303835.9, -22523.906, 0.16804346, 0.35812017, -1300384.9, 51046.184, 0.036114734, 9.998745, 10.00071 
2.1049847e+3, 1.7210007e+2, -1126997.4, -1018824.9, -82678.69, 0.008131098, 0.13883217, -974112.94, 279319.6, 0.007176738, 9.999971, 10.001379 
2.10502e+3, 1.820998e+2, -1079169.5, -1155995.6, -78970.44, -0.09740748, 0.05053383, -1029765.1, 125667.89, 0.0003661867, 10.000512, 9.999524 
2.1050583e+3, 1.9210073e+2, -1138290.6, -1177392.6, -45719.402, -0.023419695, 0.20376787, -1108117.4, -50688.516, 0.00000091193453, 9.999666, 9.999082 
2.1050964e+3, 2.0210123e+2, -1084591.0, -1065341.9, -8664.358, 0.03941767, 0.3412509, -1062016.4, -102588.43, 0.0, 9.999146, 9.999461 
2.1051332e+3, 2.1210012e+2, -818013.2, -836107.3, -34491.04, -0.029447386, 0.21822883, -791402.44, 70035.93, 0.0, 10.0001135, 9.999883 
2.1051702e+3, 2.2209921e+2, -689595.8, -779581.56, -74183.55, -0.08002373, 0.17039613, -647827.2, 115619.03, 0.0, 10.000568, 9.999378 
2.1052063e+3, 2.3209882e+2, -664655.5, -696346.75, -98354.06, -0.10302748, 0.1533657, -580878.8, 84569.74, 0.0, 10.000018, 9.999511 
2.1052437e+3, 2.4209824e+2, -614849.3, -649796.8, -35481.867, -0.04113165, 0.16293034, -592771.9, -25318.752, 0.0, 9.999736, 9.999342 
2.1052837e+3, 2.5209746e+2, -441041.5, -480621.7, -61560.777, 0.14622669, 0.10219068, -396168.03, 73293.36, 0.0, 10.000155, 9.999603 
2.105322e+3, 2.620973e+2, -309741.72, -369759.25, -61102.125, 0.1761144, 0.13423225, -271677.03, 99786.08, 0.0, 10.000364, 9.999609 
2.1053568e+3, 2.7209756e+2, -264447.0, -263394.66, -34250.773, -0.19073184, 0.1500429, -229666.03, 43791.8, 0.0, 9.999898, 9.99986 
2.1053933e+3, 2.8209668e+2, -262829.53, -347499.6, -43080.902, -0.27609965, 0.13422836, -244764.08, -69298.24, 0.00000006547354, 9.999812, 9.99866 
2.1054336e+3, 2.920949e+2, -7378.6177, -143986.4, -93627.03, 0.16637297, 0.047536075, 40211.59, 117698.37, 0.000004738257, 10.000809, 9.998882 
2.1054704e+3, 3.0209807e+2, 162306.28, -1428.7941, 70490.555, 0.03316975, 0.44735262, 188472.14, 188472.14, 0.00002905632, 10.001388, 9.9993 
2.1055107e+3, 3.1209382e+2, 74509.65, -24970.943, -64594.97, -0.08736861, 0.036240045, 106296.08, 106296.08, 0.00007991688, 10.000705, 9.999416 
2.1148078e+3, 1.2205479e+2, -1666838.4, -1751407.9, 70183.195, 0.43355826, -0.38494438, -1627186.1, 116689.69, 0.46656317, 10.001036, 9.999361 
2.1148375e+3, 1.3206497e+2, -1653720.5, -1729630.0, -83829.99, -0.06345245, 0.54795337, -1599653.3, 46124.13, 0.34608045, 10.000228, 9.999119 
2.1148743e+3, 1.4205793e+2, -1593068.0, -1665921.0, -40033.375, -0.04255541, -0.023786224, -1575369.0, -27519.055, 0.21890919, 9.999898, 9.999013 
2.1149121e+3, 1.5206099e+2, -1447893.1, -1332327.0, -46928.77, 0.13012598, 0.17349143, -1315670.9, 134149.36, 0.110347085, 9.999325, 10.00097 
2.1149482e+3, 1.6206224e+2, -1474127.5, -1396896.3, -15536.218, 0.09715624, 0.24944256, -1393888.0, -42079.93, 0.040102176, 9.998908, 9.999982 
2.1149836e+3, 1.7206216e+2, -1216938.0, -1217535.1, -25770.63, -0.10312848, 0.21081486, -1191464.1, 62345.055, 0.008443992, 10.0000105, 9.999992 
2.11502e+3, 1.8206215e+2, -1051173.9, -1109126.1, -109754.88, -0.19811897, 0.22589952, -966634.56, 189174.88, 0.00052604213, 10.00056, 9.99982 
2.1150582e+3, 1.9206126e+2, -1081758.3, -1037350.25, -73411.9, -0.04864635, 0.10778634, -982857.94, 74959.55, 0.0000034897541, 9.999575, 10.00008 
2.1150957e+3, 2.0206061e+2, -1126309.5, -1103695.3, -6145.012, 0.020940311, 0.07050617, -1102133.3, -142309.53, 0.0, 9.998943, 9.999295 
2.1151331e+3, 2.1206088e+2, -901223.94, -944915.9, 16297.596, -0.078272454, 0.14239265, -895814.5, -33992.15, 0.0, 9.999863, 9.9992485 
2.1151704e+3, 2.2206093e+2, -741538.4, -806818.75, -90734.09, -0.14393045, 0.22938243, -677752.1, 86069.93, 0.0, 10.000215, 9.999364 
2.115207e+3, 2.3205978e+2, -679008.94, -680033.9, -105522.484, -0.050853513, 0.118290246, -573997.7, 91832.53, 0.0, 9.999811, 9.999725 
2.1152441e+3, 2.4205878e+2, -705112.0, -757731.6, -41693.87, 0.0023190565, 0.09036295, -682120.9, -114282.016, 0.0, 9.999402, 9.998754 
2.1152824e+3, 2.5205854e+2, -539920.4, -632678.06, -28105.928, 0.00008826268, 0.16552787, -532068.75, -62222.33, 0.0, 9.999934, 9.998654 
2.1153209e+3, 2.620586e+2, -341344.63, -332988.5, -77103.16, -0.02779042, 0.26777133, -259950.3, 111897.92, 0.0, 9.99994, 10.000058 
2.1153577e+3, 2.7205887e+2, -209816.86, -99299.305, -31789.854, -0.0933659, 0.169668, -90807.58, 183030.33, 0.0, 9.999682, 10.001085 
2.1153948e+3, 2.8205842e+2, -294896.34, -326809.3, -37951.746, -0.14723864, 0.098461725, -269683.13, -93845.68, 0.00000005479561, 9.999435, 9.998986 
2.1154329e+3, 2.9205638e+2, -85779.87, -246924.88, -24045.135, -0.020689804, -0.007474412, -82268.5, -4406.1, 0.0000044706885, 10.000527, 9.998319 
2.1154717e+3, 3.020553e+2, -95504.695, -300215.94, 31276.799, -0.044367637, 0.10792008, -90832.695, -90832.695, 0.000027145721, 10.00045, 9.997662 
2.115511e+3, 3.1205562e+2, 91679.8, 256552.52, 26545.559, -0.22673678, 0.2286936, 260721.11, 260721.11, 0.00007500438, 9.999729, 10.001789 
2.1247995e+3, 1.220231e+2, -1559393.8, -1332794.4, -26632.729, -0.44146985, 0.25877693, -1329706.3, 414478.03, 0.48543465, 9.999363, 10.00556 
2.1248381e+3, 1.3202503e+2, -1711633.8, -1739000.4, -108672.36, 0.027595524, 0.340822, -1615786.6, 30382.24, 0.3637423, 9.999738, 9.999267 
2.1248733e+3, 1.4202176e+2, -1730864.8, -1706921.6, -7772.192, -0.06632717, 0.13139354, -1704619.9, -156413.23, 0.23315269, 9.99883, 9.9992485 
2.1249114e+3, 1.5202373e+2, -1396764.8, -1281125.9, -53927.125, 0.113475196, 0.19200149, -1259880.6, 190305.13, 0.1197026, 9.999537, 10.001299 
2.1249475e+3, 1.6202407e+2, -1363479.0, -1345462.8, 1359.7781, 0.12968077, 0.15385741, -1345360.8, 6820.5415, 0.044803485, 9.999658, 9.999994 
2.1249838e+3, 1.720246e+2, -1410199.5, -1328608.6, 54513.35, -0.016768746, 0.19490884, -1301316.1, -47138.926, 0.01004214, 9.998763, 9.999834 
2.1250205e+3, 1.8202515e+2, -1388939.3, -1257253.4, 53317.285, -0.07017107, 0.2709038, -1238373.0, -82200.56, 0.0007722133, 9.998167, 9.999954 
2.1250576e+3, 1.9202414e+2, -1056755.8, -1005913.56, 16292.053, -0.025711896, 0.11684644, -1001140.9, 57040.176, 0.000010944595, 9.999636, 10.000279 
2.1250953e+3, 2.0202337e+2, -894932.2, -1002000.9, 68012.57, 0.0045068576, 0.060277954, -861912.3, 98275.54, 0.0, 10.000595, 9.999183 
2.1251333e+3, 2.1202353e+2, -848307.4, -941480.75, 84019.65, -0.04596604, 0.14111474, -798823.1, 63364.184, 0.0, 10.000349, 9.999014 
2.1251716e+3, 2.2202326e+2, -771711.0, -873999.25, 6333.633, -0.033698857, 0.22666614, -771320.3, -7129.835, 0.0, 10.000225, 9.998901 
2.1252082e+3, 2.3202169e+2, -578710.4, -691522.2, -87170.89, 0.04502222, 0.12555218, -531287.6, 134917.25, 0.0, 10.000759, 9.999191 
2.1252449e+3, 2.4202053e+2, -478166.94, -638400.7, -27072.957, 0.08200864, 0.11391816, -473716.34, 94499.63, 0.0, 10.000941, 9.998821 
2.1252823e+3, 2.5202066e+2, -499584.1, -581392.8, 28532.08, -0.010911217, 0.20800783, -490616.16, -20397.66, 0.0, 10.000093, 9.998928 
2.1253203e+3, 2.620207e+2, -397907.4, -378051.5, 56285.21, -0.031737853, 0.29856893, -330825.38, 41393.984, 0.0, 9.999635, 9.999891 
2.1253586e+3, 2.7202013e+2, -147649.88, -111067.664, -31802.975, 0.01287951, 0.15548132, -92670.984, 181548.05, 0.0, 10.000312, 10.000696 
2.1253963e+3, 2.8201982e+2, -49088.69, -175031.84, -73263.6, -0.017142097, 0.11267452, -15452.944, 160764.81, 0.000000117451826, 10.000944, 9.999328 
2.1254326e+3, 2.9201928e+2, 20235.082, -130683.55, -58674.97, -0.11694499, 0.109785706, 40362.69, 118588.44, 0.0000050467984, 10.000961, 9.998918 
2.1254721e+3, 3.0201665e+2, -3116.3975, -359129.0, 120162.9, -0.038291205, 0.06494912, 33645.47, 33645.47, 0.00002697455, 10.001408, 9.996867 
2.1255133e+3, 3.1201816e+2, 369402.28, 309739.84, -29745.785, -0.05117155, 0.44471225, 381698.4, 381698.4, 0.00007158717, 10.001854, 10.00121 
2.1348393e+3, 1.3198353e+2, -1759137.8, -1844532.4, -171757.1, 0.15597524, -0.019708933, -1624850.4, 21727.209, 0.38411817, 9.999786, 9.998471 
2.1348713e+3, 1.4198649e+2, -1671785.0, -1627619.6, -38256.85, -0.211479, 0.3741724, -1605529.5, -56973.742, 0.24951555, 9.99901, 9.9997 
2.1349092e+3, 1.519863e+2, -1376295.1, -1265979.3, -24072.764, -0.08033278, 0.20409478, -1260955.0, 189598.14, 0.13052814, 9.9996605, 10.00137 
2.1349473e+3, 1.6198602e+2, -1282826.8, -1225034.5, -33502.395, 0.06904864, 0.06743677, -1209688.1, 142863.38, 0.050404422, 9.999864, 10.000765 
2.1349844e+3, 1.7198731e+2, -1334079.6, -1177204.0, 23941.906, 0.1339473, 0.08424214, -1173631.4, 80905.73, 0.012084308, 9.998789, 10.000865 
2.135021e+3, 1.8198864e+2, -1383973.6, -1265638.3, 69104.92, 0.10754818, 0.17291671, -1233831.8, -77308.125, 0.001155736, 9.998245, 9.999859 
2.1350572e+3, 1.9198927e+2, -1108765.8, -1100813.5, 84997.16, -0.084699206, 0.23530695, -1019699.5, 38820.9, 0.000030850606, 9.999574, 9.9996605 
2.135094e+3, 2.0198932e+2, -933399.75, -1032879.06, 60650.715, -0.20699896, 0.30391148, -904701.25, 55820.92, 0.0, 10.000387, 9.999071 
2.1351337e+3, 2.1198775e+2, -874694.1, -939776.44, 82401.5, -0.050838433, 0.20540534, -818641.06, 43895.527, 0.0, 10.000111, 9.999139 
2.1351731e+3, 2.2198614e+2, -885154.8, -1019485.44, 7628.3057, 0.06866602, 0.17566289, -884723.06, -120170.61, 0.0, 9.999853, 9.998074 
2.1352093e+3, 2.3198442e+2, -704238.56, -898698.06, -51362.906, 0.054499034, 0.18048352, -691505.7, -24932.54, 0.0, 10.000531, 9.99788 
2.1352454e+3, 2.4198326e+2, -495863.97, -595081.44, -55886.19, 0.0040668356, 0.23572014, -470744.56, 97842.22, 0.0, 10.000603, 9.999277 
2.1352825e+3, 2.5198352e+2, -436597.66, -410259.63, 8118.1016, -0.024292635, 0.22670938, -407958.47, 62622.34, 0.0, 9.999919, 10.000183 
2.13532e+3, 2.619832e+2, -511992.2, -535555.3, 50549.08, -0.0317465, 0.22527722, -471869.84, -99288.02, 0.0, 9.999309, 9.99896 
2.1353589e+3, 2.71981e+2, -317264.16, -413095.28, 15118.858, -0.0066907015, 0.09348565, -314935.53, -40330.605, 0.00000000014169585, 10.000088, 9.998732 
2.1353965e+3, 2.8198028e+2, -120844.96, -194768.61, -78297.53, -0.11321431, 0.13897732, -71223.42, 105388.914, 0.000000256191, 10.000424, 9.999421 
2.135432e+3, 2.9198286e+2, 74532.91, 42095.445, -25710.152, -0.2892506, 0.33557177, 88712.516, 167296.2, 0.0000052967753, 10.000697, 10.000228 
2.1354717e+3, 3.0198035e+2, -133704.94, -419366.1, 120045.98, -0.2938093, 0.20276137, -89956.81, -89956.81, 0.000025200057, 10.000592, 9.996805 
2.1355149e+3, 3.119776e+2, -48375.0, -217948.86, 19555.883, -0.14126508, 0.25091466, -46148.965, -46148.965, 0.00006359548, 10.000513, 9.998175 
2.1448393e+3, 1.3194595e+2, -1848927.1, -1828947.1, -23989.268, 0.26128027, -0.046475746, -1812950.9, -166004.23, 0.40760165, 9.998829, 9.998978 
2.1448718e+3, 1.4194976e+2, -1576769.0, -1576642.0, 19390.727, -0.07965864, 0.39194092, -1557314.6, -8399.544, 0.26811564, 9.999644, 9.999741 
2.1449085e+3, 1.519492e+2, -1459952.3, -1334214.8, -7628.5156, -0.07707109, 0.20718218, -1333753.6, 117163.06, 0.14296411, 9.999165, 10.001076 
2.1449466e+3, 1.6194907e+2, -1457243.3, -1303897.9, -42270.816, 0.092770964, 0.105425134, -1293017.6, 59896.37, 0.057087187, 9.998651, 10.00078 
2.1449842e+3, 1.7195e+2, -1256822.8, -1120613.1, -79776.8, 0.21773863, 0.06979238, -1083824.8, 171077.52, 0.014719365, 9.999266, 10.001022 
2.145021e+3, 1.819509e+2, -1207148.6, -1196299.6, -33756.746, 0.23378459, 0.11325993, -1167534.4, -10642.153, 0.0017550356, 9.999533, 9.999714 
2.1450572e+3, 1.9195157e+2, -1112986.3, -1125557.5, -6842.0615, -0.014673301, 0.20132032, -1109980.9, -51092.387, 0.00008036648, 9.999659, 9.999438 
2.1450944e+3, 2.0195174e+2, -1026909.7, -1075704.9, 2191.5803, -0.14994088, 0.29611227, -1026811.44, -65922.195, 0.000000018813253, 9.99974, 9.999091 
2.1451345e+3, 2.119503e+2, -833743.6, -909887.2, -6082.024, 0.015286832, 0.20297535, -833260.9, 29642.363, 0.0, 10.000334, 9.999246 
2.1451741e+3, 2.219488e+2, -754613.2, -960509.75, -33961.848, 0.1488909, 0.17827296, -749155.94, 15763.203, 0.0, 10.000762, 9.99805 
2.1452099e+3, 2.3194717e+2, -653869.44, -883137.4, -38547.992, 0.06263192, 0.20579436, -647561.7, 19378.162, 0.0, 10.000919, 9.997804 
2.1452458e+3, 2.4194601e+2, -440452.44, -569471.94, 2882.843, -0.00080067065, 0.2669523, -440388.06, 128565.51, 0.0, 10.000977, 9.999285 
2.1452829e+3, 2.5194597e+2, -298256.72, -339918.75, -44695.754, 0.0039949478, 0.22706959, -269776.06, 201172.45, 0.0, 10.000842, 10.00023 
2.1453206e+3, 2.6194525e+2, -328906.16, -487598.1, 1065.2235, 0.024653746, 0.19718938, -328899.0, 44053.08, 0.0, 10.000717, 9.998622 
2.145359e+3, 2.7194282e+2, -285312.06, -451070.7, 24536.604, -0.010840053, 0.09427973, -281756.28, -6776.955, 0.00000000016893417, 10.000543, 9.998251 
2.1453969e+3, 2.8194192e+2, -120279.18, -257531.6, 26049.229, -0.09582623, 0.16914475, -115501.58, 61488.13, 0.0000002738674, 10.000649, 9.998896 
2.1454336e+3, 2.919437e+2, 202869.63, 68980.38, -61487.766, -0.25015432, 0.34156546, 226822.36, 305789.88, 0.0000047479944, 10.001736, 9.999904 
2.1454732e+3, 3.019413e+2, 256713.23, -91283.0, 47762.65, -0.26016822, 0.16439539, 263149.63, 263149.63, 0.000021563434, 10.0025625, 9.998153 
2.1455164e+3, 3.1193894e+2, 2024.718, -212885.5, -50675.05, -0.022254461, 0.11944098, 13374.327, 13374.327, 0.000054127682, 10.00085, 9.99806 
2.1548371e+3, 1.3191257e+2, -1714356.1, -1612433.8, 29038.465, 0.0331837, 0.30062577, -1604741.1, 42532.285, 0.43279883, 9.999012, 10.000569 
2.1548733e+3, 1.4191109e+2, -1543923.1, -1600951.0, -26487.002, 0.008817129, 0.117937155, -1533519.1, 15769.64, 0.28823382, 10.000066, 9.999382 
2.1549086e+3, 1.5191242e+2, -1501331.1, -1437422.5, -25308.201, -0.022305425, 0.1930768, -1428614.4, 22661.953, 0.15688464, 9.999297, 10.000196 
2.1549448e+3, 1.6191325e+2, -1489594.9, -1413483.6, -49120.59, -0.004698958, 0.26825243, -1389401.8, -36133.598, 0.06501248, 9.998855, 9.999902 
2.1549824e+3, 1.7191258e+2, -1314488.6, -1238652.0, -53277.52, 0.09030295, 0.15993182, -1211176.9, 44096.25, 0.018139776, 9.999271, 10.000191 
2.1550198e+3, 1.8191181e+2, -1206942.1, -1216488.5, -42105.99, 0.12199584, 0.09657717, -1169339.6, -12060.371, 0.0026903055, 9.999611, 9.999543 
2.1550576e+3, 1.9191109e+2, -1105113.5, -1096989.0, 5626.131, 0.0392162, 0.03215942, -1094111.9, -34827.176, 0.00019736934, 9.999607, 9.999659 
2.1550956e+3, 2.0191072e+2, -1041644.3, -1071313.0, 3121.6736, -0.021480655, 0.054100245, -1041319.4, -80031.164, 0.0000007869328, 9.999584, 9.999198 
2.155135e+3, 2.119111e+2, -859893.94, -918581.3, 26564.135, 0.015334065, 0.13510942, -849656.0, 13632.169, 0.0, 10.00013, 9.999287 
2.1551736e+3, 2.219111e+2, -762713.5, -896007.25, -37113.37, 0.015138486, 0.23611411, -753076.7, 12215.005, 0.0, 10.000408, 9.998661 
2.1552098e+3, 2.3190977e+2, -623435.0, -765918.06, -19772.361, -0.06525284, 0.20262094, -620742.06, 46564.65, 0.0, 10.000682, 9.998722 
2.1552461e+3, 2.4190862e+2, -527052.5, -659988.94, -12960.694, -0.115722865, 0.21986842, -525800.6, 43517.625, 0.0, 10.0006075, 9.998834 
2.1552834e+3, 2.5190786e+2, -401348.72, -511890.9, -36001.336, -0.04771387, 0.20425181, -390657.78, 80664.875, 0.0, 10.000658, 9.999138 
2.1553208e+3, 2.6190674e+2, -372248.16, -499413.13, -13353.117, -0.056415405, 0.20117994, -370861.13, 2470.2947, 0.0, 10.000388, 9.998694 
2.1553583e+3, 2.7190512e+2, -268190.44, -373669.6, 32215.191, -0.14440314, 0.123273976, -259129.67, 16217.934, 0.0, 10.000355, 9.998877 
2.155397e+3, 2.819039e+2, -272263.22, -453237.9, 33738.883, -0.18862092, 0.16322082, -266177.94, -88818.47, 0.000000100631844, 10.0001745, 9.997763 
2.1554363e+3, 2.91902e+2, -729.66296, -251217.88, 16282.277, -0.19140571, 0.14884722, 324.2858, 79700.04, 0.0000031808167, 10.001298, 9.997914 
2.1554753e+3, 3.0189878e+2, 251159.61, 149902.02, -1169.0399, -0.3620213, -0.07014116, 251173.11, 251173.11, 0.000016664693, 10.001544, 10.000266 
2.1555163e+3, 3.1190288e+2, -23812.902, -53612.996, 42853.777, -0.18942311, 0.17157227, 6657.278, 6657.278, 0.000045618737, 9.999971, 9.999562 
2.1648347e+3, 1.3187589e+2, -1644110.5, -1594013.6, 94840.66, -0.10728845, 0.26567587, -1520969.4, 126661.16, 0.45757636, 9.999808, 10.000622 
2.1648738e+3, 1.4187346e+2, -1569045.4, -1602594.6, -61023.613, 0.07224561, 0.017490095, -1522532.8, 27121.74, 0.3088363, 9.999866, 9.999502 
2.164909e+3, 1.5187535e+2, -1463696.1, -1448492.1, -57645.055, 0.06468969, 0.15251492, -1397950.0, 53687.83, 0.17204043, 9.999716, 9.999925 
2.1649446e+3, 1.6187634e+2, -1498861.9, -1499218.0, -13485.234, 0.09594177, 0.29323176, -1485553.5, -131923.88, 0.07433442, 9.999105, 9.999203 
2.1649817e+3, 1.7187512e+2, -1274140.1, -1305133.6, -7416.7827, 0.089448094, 0.1994848, -1272456.8, -16814.672, 0.022589553, 9.999879, 9.999461 
2.1650192e+3, 1.8187387e+2, -1116005.6, -1181164.5, 19066.146, 0.08775749, 0.13984908, -1110836.8, 46817.35, 0.00413868, 10.000308, 9.999443 
2.1650578e+3, 1.918728e+2, -982376.06, -1030749.94, 18749.83, 0.0723047, 0.036782816, -975959.7, 83702.15, 0.00045452762, 10.000436, 9.999722 
2.1650964e+3, 2.0187217e+2, -950163.56, -1032340.2, 24931.229, 0.074082635, 0.032473665, -943191.4, 18475.648, 0.000007502901, 10.000205, 9.999172 
2.165135e+3, 2.1187298e+2, -934238.6, -961194.9, 15126.928, 0.024817381, 0.16209672, -927456.3, -63791.92, 0.0, 9.99964, 9.999234 
2.1651731e+3, 2.2187348e+2, -883070.56, -900469.4, -12850.311, -0.015371533, 0.30033806, -876251.94, -110588.09, 0.0, 9.999369, 9.99912 
2.1652102e+3, 2.3187238e+2, -607071.7, -686975.2, -31529.477, -0.061741665, 0.22831437, -596128.94, 71545.01, 0.0, 10.00049, 9.999352 
2.1652474e+3, 2.4187112e+2, -421869.3, -644128.7, -28427.676, -0.05958417, 0.2058187, -418290.94, 151394.39, 0.0, 10.001462, 9.998534 
2.1652846e+3, 2.5186977e+2, -293272.38, -523679.44, -61084.457, -0.028741648, 0.19254997, -278079.72, 193618.52, 0.0, 10.001707, 9.99853 
2.1653217e+3, 2.6186863e+2, -188870.25, -456176.4, -12928.516, -0.045427017, 0.24048983, -188246.4, 185462.69, 0.0, 10.001825, 9.998306 
2.1653594e+3, 2.7186754e+2, -94538.44, -321366.38, -53523.19, -0.13345139, 0.25117335, -82543.234, 193176.64, 0.0, 10.001682, 9.998597 
2.1653982e+3, 2.8186572e+2, -113071.71, -412994.94, -34345.195, -0.118699595, 0.2538328, -109188.99, 68548.586, 0.0000000029805467, 10.0014, 9.997458 
2.165438e+3, 2.9186165e+2, -112399.29, -340025.7, 6230.5483, -0.07868251, 0.0722941, -112228.875, -32453.934, 0.000001345268, 10.000694, 9.997588 
2.1654773e+3, 3.0186033e+2, 139099.22, 162096.08, 49171.746, -0.20504633, 0.027950475, 201095.9, 201095.9, 0.000010778314, 10.000475, 10.000867 
2.1655163e+3, 3.118633e+2, 241826.11, 83375.54, -154057.1, -0.24108057, 0.10378091, 335835.44, 335835.44, 0.00003608632, 10.001774, 9.99963 
2.174834e+3, 1.318373e+2, -1704750.0, -1761514.9, -50697.043, -0.24785082, 0.015960827, -1675031.3, -27026.443, 0.48078975, 10.000207, 9.9986725 
2.1748726e+3, 1.4183763e+2, -1532541.9, -1587349.8, -32022.559, -0.11558753, 0.10537138, -1517798.3, 32206.617, 0.32934, 10.0002, 9.999427 
2.1749087e+3, 1.5183817e+2, -1454695.8, -1443573.3, -65963.75, 0.048918553, 0.10490804, -1382936.8, 69062.87, 0.18832743, 9.999781, 9.999939 
2.174945e+3, 1.6183819e+2, -1507437.3, -1564839.0, -14835.615, 0.17805591, 0.17536135, -1503829.8, -149829.64, 0.0852701, 9.999299, 9.998658 
2.174982e+3, 1.7183772e+2, -1295455.9, -1367072.8, 35954.477, 0.07164703, 0.19784065, -1280520.1, -24512.064, 0.028395085, 9.99995, 9.998995 
2.1750188e+3, 1.8183714e+2, -1127172.6, -1222252.0, 14749.43, -0.050693024, 0.24517335, -1124937.1, 33079.0, 0.006367479, 10.000388, 9.999118 
2.1750574e+3, 1.9183643e+2, -1009304.44, -1070430.8, 29619.95, -0.04900381, 0.20106335, -997306.5, 62715.754, 0.0009868387, 10.000371, 9.999472 
2.1750957e+3, 2.0183581e+2, -989150.6, -1074642.6, -3705.9514, -0.05837858, 0.22031261, -988990.25, -26961.666, 0.000047582707, 10.000029, 9.998973 
2.1751338e+3, 2.1183582e+2, -972910.1, -991099.75, 2367.274, -0.08384086, 0.28063187, -972607.06, -108573.69, 0.00000000032497088, 9.999421, 9.999135 
2.1751717e+3, 2.2183572e+2, -924823.6, -899336.06, -27.281345, -0.112046115, 0.36260155, -899336.0, -133298.66, 0.0, 9.998998, 9.999304 
2.1752109e+3, 2.3183465e+2, -622964.9, -657516.9, 27922.857, -0.0659936, 0.2607719, -607405.75, 60639.563, 0.0, 10.00023, 9.999674 
2.1752493e+3, 2.4183315e+2, -505090.47, -704819.1, -21915.123, -0.043671433, 0.19699365, -502714.13, 67344.164, 0.0, 10.000995, 9.998334 
2.1752861e+3, 2.5183138e+2, -359329.63, -597895.6, -39363.535, -0.07137042, 0.17539154, -353002.4, 119075.555, 0.0, 10.001439, 9.998146 
2.175323e+3, 2.6183057e+2, -313635.16, -606821.94, -26336.83, -0.12763162, 0.30821, -311288.13, 62800.4, 0.0, 10.001386, 9.997472 
2.1753614e+3, 2.7183008e+2, -211225.44, -497310.53, -36392.496, -0.13211508, 0.47679982, -206668.58, 69427.19, 0.0, 10.001418, 9.997505 
2.1754e+3, 2.8182715e+2, -165762.36, -409880.38, -65623.39, -0.13456745, 0.43605056, -149239.88, 28885.379, 0.0, 10.00094, 9.99769 
2.1754387e+3, 2.9182196e+2, -101926.43, -251230.45, -95.68858, -0.12220044, 0.047979467, -101926.37, -21755.018, 0.00000028754212, 10.000407, 9.99833 
2.1754792e+3, 3.0182397e+2, -57380.848, -64712.426, 49195.992, -0.11632346, 0.35647818, -11714.259, -11714.259, 0.0000061263827, 9.99976, 9.999617 
2.1755174e+3, 3.118232e+2, 13251.906, -143245.83, 34637.75, -0.39694214, 0.18537702, 20575.574, 20575.574, 0.000027574106, 10.000748, 9.998544 
2.1848723e+3, 1.4180191e+2, -1874094.0, -1649593.5, 70099.72, 0.0051776245, 0.15784146, -1629503.0, -79147.89, 0.34983045, 9.997232, 10.000397 
2.1849097e+3, 1.5180106e+2, -1431505.4, -1526780.8, -148184.27, 0.13705386, 0.121778265, -1323489.8, 128872.195, 0.2059314, 10.000435, 9.999098 
2.1849442e+3, 1.6179979e+2, -1461981.0, -1558319.1, -79374.46, 0.15393363, 0.1125901, -1417303.1, -62927.934, 0.09816949, 9.999701, 9.998505 
2.1849817e+3, 1.7179962e+2, -1302517.1, -1375583.9, -10760.832, 0.07848851, 0.17930168, -1300965.3, -44583.887, 0.036017943, 9.999985, 9.9988985 
2.1850188e+3, 1.817993e+2, -1192262.1, -1281904.1, -9046.485, -0.044479687, 0.26308367, -1191358.3, -32969.727, 0.009796201, 10.000012, 9.998905 
2.1850571e+3, 1.9179888e+2, -1142696.6, -1161150.3, -21220.365, -0.04028214, 0.26905584, -1128783.9, -68390.664, 0.0020521113, 9.999527, 9.999262 
2.1850957e+3, 2.0179842e+2, -1121392.9, -1127563.5, -2562.1306, -0.0043384973, 0.3145092, -1120467.8, -158069.03, 0.00020967671, 9.9991, 9.999053 
2.1851335e+3, 2.1179765e+2, -894205.4, -934341.94, -4397.177, -0.04808468, 0.28291163, -893729.3, -29320.39, 0.00000086887735, 9.99989, 9.999299 
2.1851717e+3, 2.2179702e+2, -712046.0, -793500.25, 39216.95, -0.06621926, 0.29883105, -696234.0, 70182.7, 0.0, 10.00042, 9.999359 
2.1852115e+3, 2.317967e+2, -613150.6, -641190.25, 29461.986, -0.018770397, 0.27031314, -594542.8, 73875.13, 0.0, 10.000259, 9.99977 
2.1852505e+3, 2.4179585e+2, -604612.94, -735812.9, -107.09427, 0.022314142, 0.25896522, -604612.9, -34187.832, 0.0, 10.000221, 9.998504 
2.1852873e+3, 2.5179392e+2, -446328.53, -623184.3, -11031.43, -0.038995836, 0.20589215, -445643.1, 26802.836, 0.0, 10.000743, 9.9983225 
2.1853247e+3, 2.61793e+2, -351703.34, -644080.0, 55398.332, -0.06986669, 0.31627673, -341558.7, 32898.543, 0.0, 10.001176, 9.9973345 
2.1853635e+3, 2.717922e+2, -209946.44, -534903.4, 61389.344, -0.05921654, 0.4944685, -198735.8, 77731.445, 0.0, 10.001577, 9.997184 
2.1854019e+3, 2.817891e+2, -33695.027, -337924.4, 65688.38, -0.057008747, 0.44694805, -20117.705, 158380.69, 0.0, 10.001775, 9.997804 
2.1854395e+3, 2.9178372e+2, 15442.664, -191800.94, 35111.477, -0.10716775, 0.034097042, 21229.7, 101776.72, 0.000000027227998, 10.00117, 9.998391 
2.1854803e+3, 3.017861e+2, 33767.266, -174340.58, 137225.6, -0.01626823, 0.43131733, 101928.57, 101928.57, 0.0000044959556, 10.000959, 9.998335 
2.185519e+3, 3.117842e+2, 173626.03, 19733.334, 11351.19, -0.293354, 0.32151556, 174458.8, 174458.8, 0.000025056477, 10.001343, 9.999454 
2.1948712e+3, 1.4176418e+2, -1628766.5, -1262220.8, 205585.77, 0.058820266, 0.15516733, -1170076.8, 380649.78, 0.371045, 9.997327, 10.004277 
2.1949106e+3, 1.5176342e+2, -1493310.6, -1701667.1, -160888.06, 0.16409743, 0.2030571, -1405817.0, 46914.234, 0.22535217, 10.000576, 9.997776 
2.1949412e+3, 1.6176108e+2, -1418329.8, -1499120.3, -114973.19, -0.18504578, 0.11890235, -1336861.9, 17893.906, 0.113554515, 9.999856, 9.998838 
2.194981e+3, 1.7176056e+2, -1297993.8, -1362189.1, 10299.939, -0.017260188, 0.1413864, -1296381.6, -39616.703, 0.046104282, 9.999974, 9.998995 
2.195019e+3, 1.8175985e+2, -1176425.9, -1266133.4, -27412.662, -0.079911016, 0.17844824, -1168712.4, -9936.729, 0.015073848, 10.000083, 9.998984 
2.1950571e+3, 1.9176021e+2, -1146872.9, -1161256.6, -36303.453, -0.035989035, 0.26107728, -1117055.8, -56281.39, 0.004138987, 9.999495, 9.999279 
2.1950954e+3, 2.0176016e+2, -1127741.4, -1106563.1, -6696.4873, 0.028549671, 0.3382057, -1104623.4, -141847.31, 0.00072646124, 9.998956, 9.999264 
2.195134e+3, 2.1175836e+2, -907472.94, -902889.3, 36012.316, -0.017884098, 0.17256232, -869095.94, -4303.4194, 0.000022642807, 9.999642, 9.999627 
2.1951723e+3, 2.2175725e+2, -774905.4, -829627.9, 30479.863, -0.07443869, 0.11824715, -761307.4, 5495.4404, 0.000000000011542125, 10.000012, 9.999305 
2.1952115e+3, 2.317584e+2, -657985.2, -684808.1, 32685.15, -0.055796552, 0.25192678, -636066.94, 32725.78, 0.0, 10.000043, 9.999573 
2.19525e+3, 2.4175906e+2, -642264.75, -710156.4, -3851.4282, -0.06612794, 0.39110216, -642046.94, -71259.74, 0.0, 9.999793, 9.998877 
2.1952878e+3, 2.5175723e+2, -436766.94, -548508.25, 19061.44, -0.0766331, 0.2836497, -433604.8, 39199.176, 0.0, 10.000511, 9.998944 
2.195326e+3, 2.617555e+2, -404762.47, -638531.5, 51801.652, -0.09010467, 0.26582563, -393797.84, -18978.074, 0.0, 10.000703, 9.997582 
2.195365e+3, 2.7175355e+2, -246777.5, -531371.0, 89466.98, -0.071127675, 0.30254775, -220988.84, 55850.293, 0.0, 10.001259, 9.997341 
2.1954033e+3, 2.8175086e+2, -118526.43, -396486.8, 34182.32, -0.11335413, 0.28687453, -114384.56, 64480.85, 0.0, 10.001296, 9.997621 
2.19544e+3, 2.9174694e+2, -72710.86, -300574.44, 32068.988, -0.1879909, 0.061913967, -68283.56, 12619.502, 0.000000020729713, 10.000859, 9.997789 
2.1954794e+3, 3.0174616e+2, -184473.25, -446641.97, 136665.27, -0.2371739, 0.26285732, -126188.92, -126188.92, 0.0000055230016, 10.000238, 9.996777 
2.195521e+3, 3.1174442e+2, 51247.926, 56452.094, 50631.832, -0.29747307, 0.27794364, 104548.664, 104548.664, 0.000029811183, 10.000201, 10.000201 
2.2048686e+3, 1.4172252e+2, -1461925.9, -1150346.0, 188947.73, 0.09006831, -0.014851224, -1061244.6, 489891.53, 0.39437363, 9.998229, 10.00511 
2.2049087e+3, 1.5172514e+2, -1873054.9, -1741171.6, -218501.13, 0.079142846, 0.3095233, -1578878.6, -125770.71, 0.24751917, 9.997294, 9.999062 
2.2049409e+3, 1.6172247e+2, -1535551.8, -1486028.9, -61104.918, -0.10564121, 0.0757885, -1444859.0, -89723.7, 0.13222682, 9.998718, 9.999492 
2.2049807e+3, 1.7172216e+2, -1341664.6, -1389870.5, 55987.016, -0.009171527, 0.10704139, -1304812.8, -47671.453, 0.059555795, 9.999632, 9.99901 
2.2050193e+3, 1.8172172e+2, -1183228.5, -1264946.8, 29702.975, -0.025789088, 0.16776064, -1173572.9, -14424.391, 0.023171267, 10.000012, 9.999036 
2.2050576e+3, 1.9172204e+2, -985967.75, -1085955.6, -14842.516, 0.024231734, 0.24535793, -983811.0, 77337.31, 0.008108057, 10.000612, 9.999278 
2.2050957e+3, 2.0172198e+2, -880740.9, -1003208.94, 25619.0, 0.10086206, 0.33080542, -875597.7, 87552.82, 0.0021629941, 10.000716, 9.999133 
2.205134e+3, 2.1172026e+2, -876689.9, -912035.8, 8682.324, 0.044018645, 0.19234625, -874672.3, -9506.113, 0.00023583506, 9.999935, 9.9994335 
2.2051726e+3, 2.2171894e+2, -880066.75, -899695.75, 8114.1797, -0.002179193, 0.13677047, -877146.9, -109968.25, 0.0000019906881, 9.999372, 9.999138 
2.2052117e+3, 2.317198e+2, -672924.44, -718514.0, -19695.836, -0.030267078, 0.26165107, -665594.0, 3578.1558, 0.0, 10.000041, 9.999358 
2.2052506e+3, 2.4172018e+2, -526840.8, -661633.8, -40281.387, -0.02293556, 0.39443064, -515720.56, 55449.02, 0.0, 10.000602, 9.998826 
2.205289e+3, 2.5171855e+2, -406909.38, -515839.84, -88668.555, -0.0033410725, 0.30210125, -357314.2, 115869.195, 0.0, 10.000691, 9.999058 
2.2053275e+3, 2.6171663e+2, -367960.75, -584677.56, -55655.137, 0.0017870686, 0.25030723, -354503.56, 20696.23, 0.0, 10.000784, 9.997922 
2.2053657e+3, 2.7171406e+2, -219215.97, -478261.44, -19612.045, -0.10391064, 0.18665275, -217739.58, 59484.844, 0.0, 10.001234, 9.997739 
2.2054043e+3, 2.81712e+2, -74519.88, -361004.88, -42956.848, -0.14888456, 0.199314, -68217.39, 111026.875, 0.0, 10.0015335, 9.997749 
2.2054423e+3, 2.917096e+2, 51583.082, -244097.03, -87853.63, -0.07501619, 0.14383048, 75716.695, 156985.95, 0.00000007580395, 10.001737, 9.997754 
2.2054814e+3, 3.0170766e+2, 1096.8821, -397289.22, 130535.34, -0.10812324, 0.2332465, 40057.87, 40057.87, 0.0000083740215, 10.001636, 9.996473 
2.2055227e+3, 3.1170627e+2, 179600.98, 135925.1, -11799.213, -0.15385832, 0.3508194, 182584.75, 182584.75, 0.000042885644, 10.000945, 10.000394 
2.2148691e+3, 1.4168175e+2, -1615120.3, -1387538.9, 158634.81, 0.20167857, 0.14279126, -1306103.3, 245433.61, 0.4221777, 9.998219, 10.002676 
2.2149031e+3, 1.5168579e+2, -1632972.0, -1286150.5, -112146.81, -0.2272058, 0.42274317, -1253046.9, 200449.5, 0.27423543, 9.997251, 10.002689 
2.2149432e+3, 1.616838e+2, -1431238.9, -1319511.5, -34100.633, 0.17359747, -0.00007973956, -1309925.9, 45589.56, 0.15564767, 9.998903, 10.000593 
2.2149803e+3, 1.7168444e+2, -1328601.6, -1365065.9, 89168.195, -0.049013097, 0.086100765, -1255820.8, 1689.2933, 0.07778218, 9.999649, 9.999164 
2.2150193e+3, 1.8168491e+2, -1180991.1, -1275641.8, 34409.5, -0.07461315, 0.23392493, -1169804.0, -10297.175, 0.035576556, 10.000073, 9.998937 
2.215058e+3, 1.9168428e+2, -1010707.75, -1105338.0, 15921.4, 0.012097476, 0.22917181, -1008100.8, 53414.793, 0.0154146915, 10.000484, 9.999201 
2.2150962e+3, 2.0168376e+2, -941639.44, -1087914.6, 1187.3043, 0.02334695, 0.2842136, -941629.75, 21893.736, 0.005714695, 10.000528, 9.998643 
2.2151338e+3, 2.1168314e+2, -951359.4, -1024077.9, -11828.765, -0.00800691, 0.32166034, -949483.6, -83951.67, 0.0013616167, 9.999747, 9.998753 
2.2151716e+3, 2.2168219e+2, -968435.4, -995930.56, 1779.0867, -0.05900434, 0.36711398, -968320.75, -200777.64, 0.00013056793, 9.999, 9.998656 
2.2152112e+3, 2.3168065e+2, -729708.94, -781685.2, 23118.355, -0.07871694, 0.28419507, -720914.3, -51356.043, 0.0000045921656, 9.999799, 9.9990425 
2.215251e+3, 2.4167918e+2, -636655.5, -769010.94, -48288.063, -0.06384858, 0.27371335, -620911.1, -49338.977, 0.000000030624218, 10.000109, 9.998315 
2.2152902e+3, 2.516778e+2, -486515.66, -611600.9, -73124.62, 0.04307257, 0.25771835, -452835.66, 20748.69, 0.0, 10.000409, 9.998528 
2.2153287e+3, 2.6167607e+2, -412572.6, -569307.7, -59871.016, 0.014155453, 0.24902605, -392319.6, -16719.441, 0.0, 10.000346, 9.998228 
2.2153655e+3, 2.716738e+2, -214875.94, -388770.78, 9942.214, -0.2911909, 0.13943967, -214309.36, 63312.723, 0.0, 10.000909, 9.998498 
2.2154036e+3, 2.8167248e+2, -163613.44, -400025.53, -51077.734, -0.40749237, 0.18070479, -153049.9, 26584.957, 0.0, 10.000935, 9.997754 
2.2154453e+3, 2.9167128e+2, -4219.993, -270559.72, -57335.293, 0.038054366, 0.24671662, 7598.2417, 89246.87, 0.00000027397763, 10.001373, 9.997734 
2.2154848e+3, 3.016699e+2, -30454.127, -309821.47, 93055.516, 0.024313942, 0.3431955, -2296.0361, -2296.0361, 0.000015050563, 10.001027, 9.997336 
2.2155215e+3, 3.1166792e+2, -63879.977, -106885.46, 133497.44, -0.43810514, 0.31413314, 49835.375, 49835.375, 0.00007034586, 9.999881, 9.999209 
2.2248715e+3, 1.4164013e+2, -1796079.5, -1966144.5, -335139.66, 0.5460206, 0.18035972, -1535353.3, 16592.951, 0.45833316, 9.999399, 9.997128 
2.2249012e+3, 1.5164582e+2, -1343893.1, -1112292.1, 23329.104, -0.22581664, 0.3013259, -1109965.5, 343926.63, 0.30885017, 9.999127, 10.003512 
2.2249441e+3, 1.6164692e+2, -1242893.5, -1274781.8, -32016.707, 0.3135453, 0.1744273, -1223070.6, 132810.2, 0.18666483, 10.000544, 10.000186 
2.2249804e+3, 1.7164657e+2, -1226188.0, -1321595.5, -19795.066, -0.0019254552, 0.1766492, -1222244.0, 35639.953, 0.103338934, 10.000427, 9.999079 
2.2250198e+3, 1.8164632e+2, -1241875.3, -1300942.0, -63254.79, -0.0029326025, 0.256889, -1201599.0, -41712.344, 0.054786276, 9.99962, 9.998991 
2.2250585e+3, 1.9164549e+2, -1131662.4, -1141538.5, -80075.19, 0.064251155, 0.21529669, -1056373.1, 5522.783, 0.028543482, 9.999527, 9.999411 
2.2250964e+3, 2.0164481e+2, -1075533.8, -1152193.1, -41585.7, 0.073349535, 0.23700689, -1057307.8, -93403.53, 0.013685946, 9.999608, 9.998645 
2.2251342e+3, 2.1164453e+2, -835115.7, -984430.4, -46984.824, 0.028923715, 0.32307488, -821561.4, 44348.6, 0.005262215, 10.00063, 9.998603 
2.2251724e+3, 2.2164372e+2, -636393.9, -866746.5, 26756.406, 0.008859041, 0.40207174, -633326.9, 134593.3, 0.001420654, 10.001381, 9.998407 
2.2252119e+3, 2.3164158e+2, -597717.75, -744944.9, 32012.176, -0.018520053, 0.28426424, -591058.44, 78882.695, 0.0002619265, 10.000795, 9.998825 
2.2252515e+3, 2.4163952e+2, -624219.2, -785403.2, 4719.5337, -0.005865734, 0.23921694, -624081.1, -52120.234, 0.000035642544, 10.000278, 9.998132 
2.2252908e+3, 2.516381e+2, -427041.9, -600254.2, -8840.884, 0.046667956, 0.2317659, -426591.8, 47383.023, 0.0000011567587, 10.000845, 9.998423 
2.2253291e+3, 2.6163658e+2, -305161.44, -527909.6, 24904.541, 0.020281298, 0.25456572, -302410.9, 73579.14, 0.0, 10.00111, 9.998155 
2.2253662e+3, 2.7163517e+2, -245903.56, -401794.1, -2846.0725, -0.26550418, 0.24428514, -245851.63, 32153.86, 0.0, 10.000718, 9.998498 
2.2254045e+3, 2.8163448e+2, -218783.13, -374066.66, -47693.973, -0.34836048, 0.33073977, -205304.31, -25290.945, 0.0, 10.000312, 9.99825 
2.2254466e+3, 2.9163277e+2, 28715.926, -166197.9, -22421.379, 0.035929754, 0.29293633, 31261.854, 113291.42, 0.00000073017384, 10.00123, 9.998516 
2.2254871e+3, 3.0163234e+2, 167261.2, -151967.28, 130993.484, 0.102439605, 0.38724655, 214131.83, 214131.83, 0.00002755439, 10.002092, 9.9979315 
2.2255222e+3, 3.116291e+2, 187313.02, 7470.982, 2534.666, -0.43829852, 0.2556877, 187348.73, 187348.73, 0.000118261974, 10.0015745, 9.999226 
2.2349021e+3, 1.5160584e+2, -1493603.3, -1343455.0, 31391.717, -0.09316714, 0.028889248, -1337156.1, 117133.11, 0.35698506, 9.998845, 10.00139 
2.2349434e+3, 1.6161098e+2, -1363229.0, -1569458.8, -29617.678, 0.105828494, 0.5292626, -1359059.8, -2820.4114, 0.23053116, 10.000578, 9.99802 
2.2349812e+3, 1.7160822e+2, -1263487.5, -1385316.8, -35000.64, 0.001240656, 0.360911, -1254148.0, 4117.8164, 0.14104874, 10.000338, 9.99868 
2.2350195e+3, 1.8160586e+2, -1232085.3, -1274482.6, -89362.164, -0.025857544, 0.23523661, -1161441.9, -1153.4385, 0.08532412, 9.9995985, 9.999181 
2.2350581e+3, 1.9160558e+2, -1112897.3, -1076661.5, -74214.99, 0.04375425, 0.20632938, -1018384.8, 43904.844, 0.05187056, 9.999418, 9.999921 
2.2350962e+3, 2.0160529e+2, -1081055.3, -1111223.5, -32644.914, 0.049372207, 0.22124065, -1060178.0, -95886.69, 0.030293982, 9.999386, 9.999032 
2.235135e+3, 2.116043e+2, -843268.94, -947357.94, 2554.2407, 0.020880694, 0.19829993, -843206.3, 23095.332, 0.015773455, 10.000395, 9.998971 
2.2351739e+3, 2.216034e+2, -705340.06, -897741.0, 13209.607, 0.0031442568, 0.24342397, -704437.4, 63874.047, 0.0069356123, 10.0009165, 9.998406 
2.235213e+3, 2.3160249e+2, -639377.7, -775436.25, 20426.512, -0.0047215484, 0.25305253, -636377.25, 33944.563, 0.002541045, 10.000555, 9.998723 
2.2352515e+3, 2.4160111e+2, -693433.8, -821182.4, -5743.8413, -0.06410703, 0.28673044, -693176.1, -120839.125, 0.00075579167, 9.999833, 9.99809 
2.2352901e+3, 2.5159928e+2, -452639.94, -584732.7, 26820.035, -0.12922896, 0.21447958, -447402.1, 26953.992, 0.00014769337, 10.000553, 9.998662 
2.2353284e+3, 2.6159796e+2, -436450.78, -666833.06, -4464.9175, -0.19831763, 0.26596355, -436364.28, -59992.754, 0.000007045108, 10.000566, 9.997446 
2.2353677e+3, 2.715978e+2, -358275.6, -564995.25, -6684.425, -0.2021596, 0.47103676, -358059.7, -79681.54, 0.00000000065814787, 10.000424, 9.997504 
2.2354065e+3, 2.8159732e+2, -257352.3, -312213.22, -60426.184, -0.23223297, 0.6074125, -218421.97, -38035.805, 0.0, 9.999748, 9.998921 
2.2354454e+3, 2.9159403e+2, 30924.275, -26922.832, 34739.957, -0.24738489, 0.27301145, 47205.105, 129618.26, 0.0000012574419, 10.00069, 9.999708 
2.2354868e+3, 3.0159408e+2, -18647.568, -301810.0, 101422.8, -0.17319372, 0.37609467, 13931.556, 13931.556, 0.000044073433, 10.001136, 9.997336 
2.235525e+3, 3.1159237e+2, 17228.291, -14753.129, 70493.586, -0.38091326, 0.47237283, 73522.08, 73522.08, 0.00018419352, 10.000259, 9.99967 
2.2449036e+3, 1.515703e+2, -1595444.9, -1693733.1, -120901.56, 0.100456215, 0.39622578, -1514081.0, -59440.68, 0.42759266, 9.999637, 9.998058 
2.2449434e+3, 1.615701e+2, -1523703.1, -1613098.1, -69965.3, 0.13677631, 0.49390244, -1485376.5, -128732.39, 0.29616648, 9.999328, 9.998337 
2.2449821e+3, 1.7156816e+2, -1217159.4, -1279876.4, -18598.256, 0.07820261, 0.34459686, -1212059.0, 46601.895, 0.19952731, 10.000393, 9.999388 
2.2450207e+3, 1.8156639e+2, -1062379.8, -1169296.8, -19613.39, 0.09373342, 0.22744247, -1058895.4, 101780.9, 0.13536815, 10.000796, 9.999322 
2.2450584e+3, 1.9156642e+2, -1001200.8, -1045416.5, -82037.97, 0.092175476, 0.23984173, -938344.06, 124331.4, 0.09319166, 10.000315, 9.999741 
2.2450961e+3, 2.0156634e+2, -1002059.6, -1058708.6, -33232.016, 0.098596916, 0.2834214, -986719.0, -22043.496, 0.06306426, 9.999808, 9.999222 
2.2451362e+3, 2.115649e+2, -869431.2, -913046.75, -8598.293, 0.14133933, 0.18464684, -867797.3, -1109.3832, 0.0400799, 9.999981, 9.999428 
2.2451758e+3, 2.2156361e+2, -777367.3, -914037.0, 18349.85, 0.15637511, 0.16083926, -774946.44, -6246.52, 0.023131557, 10.000304, 9.99861 
2.2452141e+3, 2.315634e+2, -640101.9, -764241.0, -14205.62, 0.05821079, 0.22687767, -638497.0, 32208.324, 0.011994159, 10.000502, 9.998832 
2.245252e+3, 2.415627e+2, -541042.5, -766804.0, 11263.9375, -0.02316349, 0.33199584, -540481.94, 32233.502, 0.0054928027, 10.000896, 9.99798 
2.245291e+3, 2.5156122e+2, -317547.06, -533458.8, 7296.3667, -0.12358455, 0.30964595, -317300.78, 157431.3, 0.002050329, 10.001524, 9.998562 
2.2453296e+3, 2.6155987e+2, -298961.53, -604180.0, -32464.486, -0.17310138, 0.3779549, -295546.66, 81200.85, 0.0004876709, 10.00151, 9.997435 
2.2453691e+3, 2.7155897e+2, -240987.13, -477375.16, 12608.36, -0.12030167, 0.4877396, -240316.53, 38443.004, 0.000047167257, 10.001092, 9.997797 
2.2454074e+3, 2.8155786e+2, -164036.63, -268954.5, 35444.8, -0.10386845, 0.5357936, -153184.63, 27586.865, 0.00000034188096, 10.00037, 9.998933 
2.2454455e+3, 2.9155442e+2, 57261.324, -70480.44, -1437.421, -0.2723713, 0.2379049, 57277.5, 140078.52, 0.0000013302117, 10.001061, 9.999261 
2.2454873e+3, 3.0155408e+2, -61189.75, -344042.1, 6182.03, -0.18736365, 0.3257274, -61054.7, -61054.7, 0.0000584347, 10.00087, 9.997188 
2.2455266e+3, 3.1155366e+2, -86840.45, 94271.1, -103475.266, -0.1189746, 0.5756127, 141219.8, 141219.8, 0.00025945, 9.998737, 10.001165 
2.2549428e+3, 1.6152517e+2, -1473196.8, -1379037.4, -74151.36, 0.06569992, 0.17971882, -1338282.5, 18803.229, 0.39765337, 9.998756, 10.000256 
2.2549832e+3, 1.7152606e+2, -1138871.3, -1093138.0, 4320.9766, 0.07916385, 0.11445207, -1092733.3, 166338.45, 0.29298013, 10.000333, 10.001147 
2.255023e+3, 1.815275e+2, -1119722.4, -1224324.3, -62915.164, 0.13879827, 0.20764603, -1090208.3, 70845.664, 0.21888196, 10.000525, 9.999078 
2.2550586e+3, 1.9152749e+2, -1103937.6, -1198065.6, -108812.58, 0.060081054, 0.28416878, -1032447.06, 30611.232, 0.16615056, 10.000046, 9.998781 
2.2550954e+3, 2.0152758e+2, -1058370.0, -1097531.3, -48403.656, -0.0013075256, 0.4014581, -1025736.5, -60676.41, 0.12546477, 9.999485, 9.999088 
2.2551373e+3, 2.1152608e+2, -871113.8, -860760.6, 10025.961, 0.21776837, 0.24954101, -854653.7, 12417.402, 0.0914258, 9.999757, 9.999877 
2.2551775e+3, 2.2152436e+2, -841160.3, -941362.6, 15732.086, 0.2543277, 0.15069517, -838748.4, -69662.64, 0.062582165, 9.999851, 9.99864 
2.2552149e+3, 2.3152411e+2, -671240.25, -770617.3, 3297.4429, 0.05156553, 0.2006413, -671130.94, -37.71887, 0.039919913, 10.000232, 9.99892 
2.2552525e+3, 2.4152415e+2, -672952.94, -861634.8, 8806.484, -0.10521752, 0.382458, -672542.8, -99444.84, 0.023601582, 10.000158, 9.997668 
2.255293e+3, 2.5152382e+2, -402546.1, -612898.8, 39784.746, -0.1064438, 0.5004641, -395272.97, 79830.49, 0.012405956, 10.00114, 9.998182 
2.2553317e+3, 2.6152214e+2, -365298.8, -597127.94, -71239.45, -0.1358176, 0.5712886, -345157.34, 31962.988, 0.005154125, 10.000923, 9.997751 
2.2553696e+3, 2.7151862e+2, -220741.23, -312263.94, 3815.8289, -0.1876304, 0.2901489, -220582.42, 58567.71, 0.0013586987, 10.000592, 9.999155 
2.255407e+3, 2.8151613e+2, -360891.9, -482568.3, 1491.652, -0.22234681, 0.14419113, -360873.63, -179702.92, 0.00015517221, 9.999582, 9.997822 
2.2554472e+3, 2.915143e+2, -157798.55, -391216.63, 51457.465, -0.24013382, 0.20826156, -146958.1, -63768.14, 0.0000026982873, 10.000598, 9.99724 
2.2554876e+3, 3.0151272e+2, -169352.67, -401638.88, -77254.24, -0.32440308, 0.2862281, -146005.86, -146005.86, 0.000065484004, 10.000218, 9.997077 
2.2555247e+3, 3.1151003e+2, -110540.18, 290222.84, 27981.484, -0.25792825, 0.2600337, 292167.1, 292167.1, 0.00034262822, 9.997761, 10.002965 
2.2649834e+3, 1.7148799e+2, -1531666.3, -1250931.3, 99125.63, 0.24958013, 0.33781657, -1219458.9, 39981.977, 0.44342524, 9.996521, 10.001807 
2.2650234e+3, 1.8148948e+2, -953916.2, -1239686.9, 2370.4026, 0.01245466, 0.18412146, -953896.5, 207527.03, 0.3585124, 10.002777, 9.997906 
2.2650582e+3, 1.9148791e+2, -1077064.0, -1319889.1, -187590.0, -0.036754865, 0.28217506, -975024.06, 88422.49, 0.29413474, 10.000994, 9.997477 
2.2650939e+3, 2.0148641e+2, -952591.06, -1066548.1, -53529.816, -0.11790023, 0.3054336, -931390.3, 34077.42, 0.24160613, 10.000223, 9.999021 
2.2651336e+3, 2.1148507e+2, -686916.25, -788152.56, -37630.387, -0.17045562, 0.19304235, -674461.1, 193017.55, 0.1940874, 10.001311, 9.999802 
2.2651745e+3, 2.2148427e+2, -506361.2, -723240.8, -46635.582, -0.12923253, 0.17599736, -496758.34, 272726.84, 0.14888066, 10.002229, 9.999074 
2.2652142e+3, 2.3148541e+2, -434907.6, -592490.7, -70926.02, -0.08855254, 0.3333274, -407686.84, 263790.9, 0.108788945, 10.001796, 9.999469 
2.2652532e+3, 2.4148558e+2, -446246.88, -686447.94, 4730.2036, -0.085246995, 0.48612866, -446153.75, 127325.78, 0.07581198, 10.001428, 9.998287 
2.2652939e+3, 2.5148442e+2, -309292.44, -504832.56, 75171.89, -0.11819723, 0.45448276, -283734.5, 191757.69, 0.048806984, 10.001444, 9.998859 
2.265332e+3, 2.6148233e+2, -300718.78, -575965.44, 18190.426, -0.17984462, 0.44529715, -299521.84, 77990.57, 0.026684597, 10.001322, 9.997748 
2.2653702e+3, 2.714791e+2, -105901.76, -308823.78, -54564.44, -0.2357619, 0.22780107, -92160.27, 187379.06, 0.010897145, 10.0015135, 9.998785 
2.265407e+3, 2.8147694e+2, -287929.0, -471490.66, -90569.02, -0.17107928, 0.1560074, -250766.17, -69209.54, 0.002788968, 10.000139, 9.997661 
2.2654498e+3, 2.9147598e+2, 101036.32, -245025.45, 141962.7, -0.10931943, 0.31579006, 151820.3, 235387.22, 0.0003034348, 10.002302, 9.997437 
2.2654897e+3, 3.0147314e+2, 257121.89, -230299.1, 25746.463, -0.24790253, 0.22045578, 258478.1, 258478.1, 0.000074942734, 10.003329, 9.996779 
2.2655255e+3, 3.1146866e+2, 195728.16, 188508.6, -87669.445, -0.13231486, 0.24279536, 279862.1, 279862.1, 0.00045627946, 10.000794, 10.000915 
2.2750969e+3, 2.0144717e+2, -983620.0, -1285218.8, 88377.555, 0.07372038, 0.48979118, -959630.8, 6224.35, 0.4526298, 10.000884, 9.99713 
2.2751358e+3, 2.1144678e+2, -985304.06, -1012422.1, 65680.21, -0.10912893, 0.51119184, -931797.94, -63935.59, 0.38963944, 9.999346, 9.9989805 
2.2751787e+3, 2.2144683e+2, -1161216.4, -1059209.0, -90252.664, 0.01014744, 0.59446716, -1006545.3, -236681.33, 0.32267725, 9.997485, 9.998938 
2.2752166e+3, 2.3144694e+2, -795356.06, -676799.9, -50892.105, -0.038159378, 0.55272686, -657950.5, 13911.634, 0.25840095, 9.998755, 10.00024 
2.2752544e+3, 2.4144566e+2, -614067.25, -741210.06, 7917.9385, -0.21590547, 0.52374035, -613576.06, -39702.45, 0.20062341, 10.000104, 9.998513 
2.2752942e+3, 2.514429e+2, -350033.16, -355118.03, 82892.336, -0.2815282, 0.1336947, -269644.28, 206255.67, 0.14660953, 10.000513, 10.000417 
2.2753309e+3, 2.6144102e+2, -663936.8, -903833.1, -14317.144, -0.5092315, 0.07794116, -663085.4, -285167.1, 0.09444842, 9.999518, 9.996321 
2.2753704e+3, 2.71441e+2, -333993.28, -639087.8, -48098.23, -0.40743235, 0.33461735, -326590.22, -46670.53, 0.04983968, 10.000925, 9.99675 
2.2754075e+3, 2.8144047e+2, -447090.0, -545764.06, -156539.14, -0.20579411, 0.56973636, -332297.06, -150371.3, 0.019500945, 9.999102, 9.997615 
2.2754519e+3, 2.914391e+2, 110473.41, -27991.92, 241393.58, -0.13704416, 0.48319253, 292366.25, 376301.2, 0.004786881, 10.001518, 9.999273 
2.2754924e+3, 3.0143481e+2, -49090.97, -506610.06, -99335.98, -0.37546754, 0.1247114, -28454.111, -28454.111, 0.0007184054, 10.0019045, 9.99551 
2.2755256e+3, 3.1143022e+2, -510282.03, -828593.56, -63828.766, -0.24157675, 0.41412738, -497959.9, -497959.9, 0.0007782504, 9.999096, 9.99464 
2.2852598e+3, 2.414079e+2, -447952.56, -1377738.6, -108049.734, -0.050399393, 0.39799857, -435561.3, 138684.48, 0.45869297, 10.004354, 9.9927025 
2.2852932e+3, 2.5140902e+2, -803491.56, -460102.7, -80591.6, -0.21692924, 0.6765504, -442129.0, 34108.746, 0.36361384, 9.996649, 10.001687 
2.2853367e+3, 2.614099e+2, -706777.75, -812520.9, 24268.242, 0.11222755, 0.7878847, -701474.1, -323246.2, 0.26167566, 9.9984665, 9.99755 
2.2853787e+3, 2.7140749e+2, 158606.95, -315119.63, 150194.38, 0.18655434, 0.7551459, 202212.14, 482463.1, 0.1640845, 10.004522, 9.997421 
2.2854114e+3, 2.8140277e+2, 241654.36, -253517.92, 30611.242, 0.041702807, 0.57942086, 243539.55, 425835.3, 0.0825175, 10.004188, 9.997247 
2.2854534e+3, 2.914005e+2, 323821.2, -39119.01, 350998.94, -0.21502385, 0.4936928, 537486.06, 621802.7, 0.030766618, 10.003363, 9.998444 
2.2854963e+3, 3.0139935e+2, 237068.8, 31155.723, -120000.03, -0.13558832, 0.3829325, 292226.3, 292226.3, 0.009050352, 10.001947, 9.999271 
2.2855246e+3, 3.1139627e+2, -197499.33, 41961.42, 50740.52, -0.1878954, 0.34341252, 52269.363, 52269.363, 0.003966859, 9.998071, 10.001109 
2.2953758e+3, 2.7136588e+2, 377333.72, 125689.38, -257002.08, -0.5890877, 0.27611548, 537660.6, 818317.0, 0.434636, 10.007133, 10.0011015 
2.2954172e+3, 2.813624e+2, -1259168.5, -1499185.8, -367203.34, 0.11579115, 0.027965477, -992860.75, -810178.3, 0.25417718, 9.995918, 9.992575 
2.2954541e+3, 2.9136413e+2, -171189.75, -662620.56, 401850.84, -0.5749329, 0.4464757, 54115.188, 138788.9, 0.12177755, 10.001791, 9.994754 
2.2955015e+3, 3.013703e+2, -478321.94, -31855.127, -260623.81, 0.020091591, 1.2704128, 88070.22, 88070.22, 0.054085594, 9.996004, 10.001579 
2.295525e+3, 3.113648e+2, 376063.1, 1990225.0, -341263.28, -0.14080785, -0.45248896, 2059409.0, 2059409.0, 0.031726737, 9.995015, 10.016206 
2.3054558e+3, 2.913275e+2, -813768.9, 629804.25, -462229.13, -0.4386866, 0.53693694, 765124.2, 850158.4, 0.36188495, 9.988226, 10.013791 
2.305512e+3, 3.0133697e+2, 1098594.5, 827611.06, 512514.6, 0.14283957, -0.09689648, 1493224.6, 1493224.6, 0.21656229, 10.007567, 10.0036745 
2.305527e+3, 3.113348e+2, -286761.94, -1767678.3, -201532.2, -0.15385646, 0.5461593, -259826.13, -259826.13, 0.16991389, 10.004173, 9.98656 
2.344553e+3, 2.7596676e+2, -786544.94, -1623173.4, -1240797.8, -0.37737957, 0.07109381, 104555.13, 340089.72, 0.4737269, 10.001677, 9.989479 
2.344144e+3, 2.8596884e+2, -1921848.1, -335373.22, -1547370.6, -0.3357491, 0.7286996, 610234.25, 747749.06, 0.44553214, 9.983891, 10.008659 
2.3584974e+3, 1.7646764e+2, -1448642.8, -1648304.0, -470122.47, -0.9547052, 0.30822933, -1067868.3, 142759.22, 0.43654624, 9.999296, 9.996851 
2.3581074e+3, 1.8645224e+2, -268638.22, -664523.6, 8875.401, 0.0789389, -0.25238892, -268439.3, 844333.44, 0.37771034, 10.0086355, 9.999899 
2.3577139e+3, 1.9644971e+2, -1603512.3, -1364268.8, -21238.908, 0.6146858, 0.07771637, -1362397.9, -347612.47, 0.33362412, 9.995554, 9.998976 
2.3573115e+3, 2.0643261e+2, -1700750.6, -1124047.4, -194428.23, -0.3705351, -0.87439793, -1064621.8, -147672.28, 0.30109417, 9.993432, 10.000847 
2.356925e+3, 2.1643107e+2, -1551454.6, -1192829.5, 55716.23, 0.34689668, -0.4965743, -1184372.9, -365405.72, 0.27833623, 9.9941025, 9.999687 
2.35653e+3, 2.2643074e+2, -331436.5, -828691.25, 20094.842, 0.039251674, 0.40543246, -330625.78, 390347.22, 0.26130953, 10.004337, 9.996519 
2.3561315e+3, 2.3641647e+2, -708587.3, -1129171.8, -124309.32, -0.8302854, -0.088385865, -674593.6, -51477.695, 0.24582325, 10.000334, 9.9958515 
2.3557426e+3, 2.4640585e+2, -85635.99, -881242.9, 6506.858, 0.13952237, 0.12808043, -85582.78, 439641.28, 0.23020536, 10.005947, 9.99397 
2.355345e+3, 2.5639084e+2, -44813.645, -676581.3, 327676.84, 0.34095353, -0.04373057, 94445.03, 521820.25, 0.21001165, 10.004479, 9.995718 
2.3549375e+3, 2.6638407e+2, 806247.8, 771347.7, 395646.16, -0.2524216, -0.14281541, 1184828.5, 1514266.0, 0.17538756, 10.005707, 10.005901 
2.3545389e+3, 2.7637854e+2, -779755.9, -960367.2, 829405.3, -1.0443025, -0.1461542, -35754.492, 195729.9, 0.13194536, 9.99769, 9.995639 
2.3541474e+3, 2.8636903e+2, 782562.9, 374561.03, 214579.7, -0.03415699, -0.03343786, 874637.7, 1008213.25, 0.12197767, 10.0062065, 10.000443 
2.3537746e+3, 2.9636547e+2, 650694.25, 483541.5, 523287.03, 1.9773961, -0.22707514, 1097037.0, 1132646.8, 0.1822581, 10.004502, 10.002047 
2.3533604e+3, 3.063515e+2, 219408.28, -600642.4, -190397.22, -0.13808137, -0.4010386, 261458.02, 261458.02, 0.3079857, 10.006001, 9.993181 
2.3692754e+3, 1.5687263e+2, -1771038.5, -2088832.8, 540227.75, -0.67353165, -0.35811618, -1366824.4, 35815.344, 0.4091781, 9.998769, 9.995351 
2.3688987e+3, 1.6687302e+2, -1235474.3, -1217401.4, 264259.63, 0.8679543, 0.6601644, -962023.7, 342621.3, 0.31914258, 10.00005, 10.000431 
2.3685053e+3, 1.7686115e+2, -1560204.8, -1438775.0, 158887.67, 0.77365077, 0.13980131, -1329397.0, -122632.56, 0.25440118, 9.997089, 9.999256 
2.3681074e+3, 1.8685193e+2, -1263020.4, -1114173.8, -98713.836, 0.7770813, 0.06906737, -1064971.6, 43882.43, 0.20803176, 9.998159, 10.000232 
2.3677078e+3, 1.9684903e+2, -836400.25, -959651.56, -67037.87, 0.88321835, 0.4995909, -806966.56, 203912.48, 0.17323133, 10.000874, 9.999462 
2.367307e+3, 2.068413e+2, -497851.84, -671135.4, 173161.77, 0.12144986, 0.53788435, -390865.63, 522087.1, 0.14628568, 10.002515, 10.000107 
2.3669092e+3, 2.1683149e+2, -248330.39, -554340.94, 44052.094, -0.531384, 0.2730962, -242115.06, 572932.56, 0.12553912, 10.003738, 9.999704 
2.3665208e+3, 2.26821e+2, -452635.88, -670907.1, 101316.85, -0.23031513, 0.06548664, -412856.44, 304293.8, 0.108313076, 10.001735, 9.9988985 
2.366133e+3, 2.3680712e+2, -967627.4, -955481.8, 112760.99, 0.23387446, -0.42489803, -848630.2, -229343.58, 0.092006706, 9.997539, 9.998322 
2.3657325e+3, 2.4680218e+2, -619664.6, -436915.7, -40548.63, -0.08229923, -0.124885745, -428322.75, 93017.85, 0.07587346, 9.998095, 10.000969 
2.3653318e+3, 2.5680023e+2, -378915.38, -633021.9, 65820.984, -0.47377342, 0.5144657, -362877.97, 60489.855, 0.059166603, 10.000686, 9.997636 
2.3649341e+3, 2.6679185e+2, 467800.1, 475875.7, -147992.83, -0.29598677, 0.347299, 619885.8, 945328.94, 0.040462647, 10.003235, 10.003506 
2.3645432e+3, 2.7677894e+2, 54214.92, -251659.55, 30968.74, 0.07228298, -0.4492926, 57318.9, 284874.0, 0.022697838, 10.002337, 9.997967 
2.3641433e+3, 2.867682e+2, -156160.06, -514791.16, -116779.98, -0.06195415, -0.44643676, -121485.82, 8170.1143, 0.01788364, 10.001209, 9.99593 
2.3637466e+3, 2.9676175e+2, -724860.5, -402892.2, 354697.47, -0.2516838, -0.35744324, -174355.89, -142635.23, 0.038474835, 9.99536, 9.999258 
2.363357e+3, 3.0676407e+2, 117216.05, 760237.4, -306473.97, 0.15295291, 0.35778388, 882906.2, 882906.2, 0.08542172, 9.99789, 10.006433 
2.3796624e+3, 1.4727604e+2, -1306399.5, -1124675.3, 132576.53, -0.3464088, -0.1363525, -1054812.6, 441866.97, 0.38968268, 9.999761, 10.003528 
2.3792751e+3, 1.5726963e+2, -1438092.0, -1353896.9, 117941.77, -0.025381096, -0.49626076, -1270764.8, 127964.805, 0.27836236, 9.998911, 10.000498 
2.3788816e+3, 1.6726086e+2, -1549391.5, -1478668.3, 163227.7, -0.08586552, -0.5381344, -1347015.6, -46197.797, 0.19862524, 9.998187, 9.9989195 
2.3784837e+3, 1.7725353e+2, -1741285.6, -1714588.1, 42971.234, -0.47785056, -0.49096778, -1682940.0, -480041.84, 0.1461588, 9.996872, 9.997404 
2.3780866e+3, 1.8724741e+2, -1365158.3, -1327913.9, -54988.43, -0.44749868, -0.13817745, -1288479.9, -183514.1, 0.11113541, 9.998282, 9.9986 
2.3776923e+3, 1.9724026e+2, -1151601.3, -1321439.8, -39747.438, -0.060722783, -0.0149695305, -1142759.4, -135716.78, 0.08556882, 9.999469, 9.997554 
2.3773025e+3, 2.0723075e+2, -880420.94, -1074075.5, 220560.64, 0.11533317, -0.00076010905, -736369.6, 172767.28, 0.065839775, 10.000581, 9.997945 
2.3769104e+3, 2.172194e+2, -861040.8, -1084305.1, 101242.41, -0.13684428, -0.22392355, -821968.7, -10722.074, 0.050802168, 10.000137, 9.997497 
2.3765154e+3, 2.2721335e+2, -644561.25, -434087.63, -41956.914, -0.24178445, -0.10831158, -426032.03, 287272.5, 0.03888462, 9.998931, 10.001834 
2.3761226e+3, 2.3720871e+2, -1241177.1, -951085.44, -22115.318, 0.022415685, 0.03294438, -949409.1, -334060.2, 0.028499532, 9.995285, 9.99941 
2.3757227e+3, 2.4720225e+2, -756447.6, -530007.94, 6857.849, -0.23703669, 0.12734501, -529800.44, -12384.779, 0.019239584, 9.997472, 10.00049 
2.3753239e+3, 2.5719368e+2, -671394.3, -856115.1, 106391.07, -0.6886256, 0.087954186, -622866.44, -203361.67, 0.01143259, 9.9992, 9.996767 
2.3749304e+3, 2.6718435e+2, 32214.691, -237625.33, -204306.69, -0.26291013, 0.10740171, 142130.61, 463725.16, 0.005417436, 10.002499, 9.998646 
2.374541e+3, 2.771729e+2, -164823.66, -511095.0, -195047.61, 0.29700226, -0.1925364, -77153.8, 146547.25, 0.0017239751, 10.001491, 9.996614 
2.3741353e+3, 2.8716177e+2, 107478.51, 52082.82, -373304.97, -0.27643374, -0.4008706, 454111.75, 579914.5, 0.0009962119, 10.0011215, 9.999915 
2.3737325e+3, 2.971578e+2, -749861.7, -385466.3, 91740.72, -0.79963374, -0.3395265, -363672.94, -335838.9, 0.0037776493, 9.994979, 9.999658 
2.3733555e+3, 3.0715185e+2, 353756.78, 460222.56, 71241.77, 0.2411035, -0.055641685, 495922.97, 495922.97, 0.011108151, 10.001483, 10.002283 
2.3900491e+3, 1.3766973e+2, -1712603.6, -1708409.1, 408315.2, 0.084239945, -0.79994345, -1302185.8, 288653.13, 0.42782646, 9.999486, 9.99933 
2.3896591e+3, 1.4767686e+2, -1448604.5, -1264210.8, 96584.336, 0.08959956, 0.52318627, -1222883.0, 269876.38, 0.2998544, 9.998664, 10.002291 
2.3892678e+3, 1.5766315e+2, -1311463.5, -1319775.1, -40148.0, -0.073358685, -0.32707754, -1275256.8, 119625.39, 0.19614406, 9.999812, 10.000298 
2.3888725e+3, 1.6765535e+2, -1190939.5, -1223239.8, -147678.36, -0.22703563, -0.3765492, -1058530.8, 238427.67, 0.12585048, 10.000168, 9.999958 
2.3884761e+3, 1.7764965e+2, -1237516.3, -1375489.3, -130063.07, -0.40385497, -0.21971814, -1159276.6, 39742.56, 0.083471425, 9.999799, 9.998394 
2.3880811e+3, 1.8764108e+2, -1040918.75, -1256238.9, -172436.52, -0.25225946, -0.12547824, -945293.25, 155816.08, 0.057587944, 10.000839, 9.997923 
2.3876873e+3, 1.9763117e+2, -815434.3, -1149955.0, -152423.8, 0.02485722, -0.18493901, -756400.5, 246812.34, 0.03970386, 10.001684, 9.997699 
2.3872942e+3, 2.0762269e+2, -930547.8, -918314.2, 68488.39, 0.00886119, -0.19302213, -855670.0, 49624.6, 0.026570952, 9.999279, 9.999665 
2.3869011e+3, 2.176142e+2, -1353736.8, -1137568.3, 160246.53, -0.12551272, -0.24988288, -1052362.3, -244988.17, 0.017417854, 9.995872, 9.999205 
2.3865075e+3, 2.276091e+2, -864591.94, -559353.94, 36581.79, -0.091890916, -0.073010504, -555030.94, 154392.42, 0.011141793, 9.997508, 10.001628 
2.386114e+3, 2.3760436e+2, -377210.63, -498629.7, -38265.945, 0.039558157, 0.115081795, -366157.13, 245312.92, 0.0065593217, 10.001061, 9.999715 
2.3857148e+3, 2.4759603e+2, -220699.11, -301211.28, -78689.5, -0.24561149, 0.021712312, -172566.33, 340987.22, 0.0032030866, 10.001236, 10.000254 
2.3853166e+3, 2.5758582e+2, -680210.0, -792328.5, 39512.07, -0.6336316, -0.18064727, -667684.7, -252028.8, 0.0011282732, 9.99881, 9.997362 
2.3849241e+3, 2.6757753e+2, -487140.7, -612626.4, -17368.875, -0.2488785, -0.003400295, -484781.0, -167043.06, 0.00023273825, 9.999433, 9.997551 
2.3845352e+3, 2.775683e+2, -313397.25, -456467.53, 138143.22, 0.33149147, 0.03929596, -229366.25, -9538.702, 0.000018977813, 9.99984, 9.997776 
2.3841307e+3, 2.875572e+2, 477890.66, 382991.16, -133556.52, -0.17747761, -0.2874428, 572175.94, 694104.2, 0.000039610317, 10.002982, 10.001264 
2.3837277e+3, 2.9755265e+2, 498960.13, 48090.414, 34634.883, -0.43281275, -0.23311548, 501605.2, 525567.6, 0.00031053094, 10.004202, 9.998163 
2.3833498e+3, 3.0753988e+2, -266142.53, -142572.33, -93981.875, 0.42087704, -0.3411631, -91885.25, -91885.25, 0.0010092399, 9.998642, 9.999295 
2.4004461e+3, 1.2807707e+2, -1260260.0, -1178107.6, 1638.0353, 0.18626195, 0.23755486, -1178075.0, 506790.72, 0.4904372, 10.003172, 10.004231 
2.4000432e+3, 1.3807723e+2, -1450309.3, -1438243.8, -59024.527, 0.079122044, 0.40440598, -1384944.5, 201904.69, 0.36336103, 10.000544, 10.000692 
2.3996507e+3, 1.4806795e+2, -1573850.9, -1612112.0, 215496.98, 0.05818912, 0.2615377, -1376637.0, 112295.91, 0.24041095, 9.9997, 9.998654 
2.3992598e+3, 1.5805557e+2, -1667573.1, -1709370.0, 51043.348, -0.09927315, -0.14906047, -1633315.6, -242265.8, 0.14389461, 9.998452, 9.998016 
2.3988664e+3, 1.6805042e+2, -1230908.0, -1055779.1, -66412.31, -0.08512117, 0.03884565, -1033443.06, 259656.5, 0.08188297, 9.999139, 10.001578 
2.3984727e+3, 1.7804608e+2, -1348919.9, -1379464.5, -109422.89, 0.038732544, 0.20295116, -1253708.6, -58565.89, 0.047678713, 9.998886, 9.998811 
2.398079e+3, 1.8803559e+2, -1246655.4, -1429438.5, -83368.336, 0.25363266, 0.12129557, -1214342.9, -117094.97, 0.028905774, 9.999807, 9.997172 
2.397685e+3, 1.9802389e+2, -1153736.8, -1332083.4, -97942.695, 0.43765378, -0.055326816, -1110453.9, -111088.305, 0.017015342, 9.999546, 9.997443 
2.3972866e+3, 2.0801736e+2, -881810.56, -530542.1, -29207.396, 0.119596355, -0.06657735, -528130.1, 373294.47, 0.00915297, 9.998222, 10.002801 
2.3968887e+3, 2.1801189e+2, -1432290.3, -1047352.0, 53579.918, -0.19395134, -0.111973114, -1040033.3, -236561.95, 0.0045936005, 9.994958, 10.000257 
2.3964971e+3, 2.2800489e+2, -1076997.9, -881226.3, 147129.52, -0.124521635, -0.060142994, -802395.6, -96854.63, 0.0022051786, 9.997105, 9.999569 
2.3961072e+3, 2.3799603e+2, -747422.94, -879823.0, 20998.963, -0.0070644217, -0.10730027, -744172.25, -136541.1, 0.0009056362, 9.999489, 9.997852 
2.3957092e+3, 2.4798746e+2, -333408.25, -298516.6, -170235.81, -0.1444029, -0.2018604, -144835.02, 364880.3, 0.00023937336, 10.00044, 10.000538 
2.395311e+3, 2.5797853e+2, -818416.5, -798088.5, -53417.6, -0.34202048, -0.3515744, -753876.5, -342074.3, 0.000025130046, 9.997691, 9.997868 
2.3949158e+3, 2.679736e+2, -285377.4, -180282.55, 37357.1, -0.30632836, -0.038105823, -168356.83, 145493.61, 0.00000030344088, 9.999476, 10.000462 
2.3945227e+3, 2.7796966e+2, -304199.9, -252313.55, 181853.61, -0.2055807, 0.19291715, -94561.92, 121327.23, 0.0000000068303647, 9.999103, 9.999556 
2.3941301e+3, 2.8795838e+2, 306062.97, 32653.744, 64712.02, 0.1823845, -0.08537779, 320605.8, 438601.2, 0.0000039429096, 10.003082, 9.998758 
2.3937385e+3, 2.9794842e+2, 170189.22, -598214.44, 59464.176, 0.576553, -0.18147707, 174763.72, 194851.31, 0.00006190627, 10.004127, 9.993733 
2.3933339e+3, 3.079337e+2, -458896.25, -413450.22, -160402.1, -0.55845356, -0.26872817, -274169.63, -274169.63, 0.0002690841, 9.997984, 9.997726 
2.410434e+3, 1.2848069e+2, -2308350.8, -1903338.0, 66825.05, -0.08830066, 0.5014684, -1892597.1, -211704.48, 0.44510007, 9.994956, 10.000255 
2.4100383e+3, 1.3847116e+2, -1364456.1, -1605788.0, -1693.076, 0.055125587, 0.2253645, -1364444.3, 218539.08, 0.31930807, 10.002389, 9.998239 
2.4096455e+3, 1.4846048e+2, -1256714.0, -1437557.9, 98403.36, 0.08582957, 0.026703158, -1213497.1, 271584.44, 0.20041417, 10.002019, 9.998763 
2.4092527e+3, 1.5844865e+2, -1567670.0, -1649578.0, 124489.49, -0.028286068, -0.30338863, -1477571.1, -90379.95, 0.110025235, 9.999002, 9.998182 
2.4088591e+3, 1.684428e+2, -1268432.9, -1179160.1, 13770.132, -0.0031662062, -0.11544672, -1177084.4, 112164.92, 0.054970514, 9.999276, 10.000602 
2.4084651e+3, 1.7843802e+2, -1194875.5, -1242234.6, -76165.805, 0.048761673, 0.107530996, -1138793.3, 52505.215, 0.027314784, 9.9995575, 9.999461 
2.4080703e+3, 1.8842939e+2, -1112780.0, -1087312.9, 1915.9047, 0.18226632, 0.018579818, -1087169.5, 6211.441, 0.013986388, 9.999417, 9.9997635 
2.4076752e+3, 1.9841936e+2, -1155726.1, -1166949.4, 130225.7, 0.26946458, -0.1784713, -1030991.2, -35514.51, 0.006556314, 9.998705, 9.999011 
2.4072783e+3, 2.0841238e+2, -862415.6, -742503.75, 33534.035, 0.16431953, -0.1307098, -733762.9, 163783.7, 0.002469395, 9.999311, 10.000828 
2.4068812e+3, 2.1840616e+2, -710358.2, -781275.4, -35823.87, -0.03455023, -0.042494666, -695411.8, 104197.195, 0.00078321603, 10.00013, 9.999622 
2.4064882e+3, 2.2839825e+2, -677668.0, -660395.9, 104636.52, -0.14231883, -0.09926088, -564039.6, 137646.38, 0.00023610769, 9.999529, 9.999979 
2.4060972e+3, 2.3838906e+2, -844001.4, -865297.6, 114814.01, -0.20678659, -0.21419492, -739342.8, -135566.84, 0.000047296035, 9.998378, 9.998524 
2.4057014e+3, 2.4838108e+2, -517219.9, -463040.06, -111098.28, -0.1561643, -0.21304002, -375776.63, 130079.766, 0.0000020598873, 9.999418, 9.999945 
2.4053054e+3, 2.5837323e+2, -352435.16, -466523.3, -54731.797, -0.10158896, -0.21578519, -330424.84, 77510.445, 0.0, 10.00034, 9.998865 
2.4049091e+3, 2.6836798e+2, -132148.44, -40828.96, -101048.88, -0.20308083, -0.009769956, 24397.23, 334383.78, 0.0, 10.000205, 10.001093 
2.404514e+3, 2.7836406e+2, -256549.7, -167025.69, -150937.02, -0.3080503, 0.17119446, -54353.2, 157671.08, 0.0, 9.999017, 10.000213 
2.4041258e+3, 2.8835395e+2, -81510.61, -239873.3, -147608.33, 0.28796116, -0.010938742, 6812.9824, 120934.375, 0.00000028208012, 10.000644, 9.998132 
2.4037397e+3, 2.9834417e+2, -220759.52, -819506.4, 525.4477, 1.0862726, -0.0013319498, -220759.05, -204543.58, 0.000017512673, 10.001418, 9.99357 
2.4033257e+3, 3.0832687e+2, 433657.78, -92726.49, -361260.94, -0.74101037, -0.2721455, 617432.7, 617432.7, 0.0001005609, 10.004434, 9.996937 
2.4204244e+3, 1.2886918e+2, -1949172.6, -2129109.0, 153978.78, 0.07820808, -0.397115, -1860804.8, -183737.2, 0.41411307, 9.999117, 9.996623 
2.4200344e+3, 1.3886327e+2, -1587577.1, -2091699.6, -13553.452, 0.1959777, -0.008880656, -1587213.0, -8078.0576, 0.28877336, 10.001568, 9.9952965 
2.4196409e+3, 1.4885317e+2, -1349443.0, -1418859.4, -33545.477, 0.20821522, -0.13386971, -1335881.5, 145345.73, 0.17287979, 10.000788, 9.999529 
2.4192461e+3, 1.5884191e+2, -1694342.3, -1771136.0, -51655.164, 0.16811948, -0.46748096, -1668376.3, -285048.47, 0.08747846, 9.998333, 9.997733 
2.4188516e+3, 1.6883476e+2, -1445028.9, -1391872.1, -209.46236, 0.09261556, -0.33848947, -1391871.3, -106471.664, 0.038149297, 9.998713, 9.999305 
2.4184568e+3, 1.788289e+2, -1367893.9, -1306619.1, -63482.684, 0.04377213, -0.13499944, -1266767.5, -79306.62, 0.01570925, 9.998402, 9.999515 
2.41806e+3, 1.8882276e+2, -924895.7, -611654.75, -57343.258, -0.002281445, -0.23290005, -601487.25, 488026.78, 0.0064830934, 9.999108, 10.003143 
2.4176638e+3, 1.9881569e+2, -1244017.4, -1212713.5, 1779.1202, 0.026600683, -0.42956993, -1212612.8, -221037.45, 0.0021827125, 9.998194, 9.998925 
2.4172698e+3, 2.0880707e+2, -1186009.9, -1391849.5, -3057.784, 0.16069439, -0.27315542, -1185964.5, -292293.03, 0.00044835047, 9.999249, 9.996366 
2.4168764e+3, 2.1879825e+2, -1094019.6, -1246454.6, -52733.586, 0.2578402, -0.069538996, -1077555.3, -281783.06, 0.000068581576, 9.998842, 9.99702 
2.4164802e+3, 2.287912e+2, -653310.4, -398850.0, 34172.62, -0.13851112, -0.10893546, -394340.72, 303495.84, 0.0000096515805, 9.99887, 10.001984 
2.416085e+3, 2.3878397e+2, -1035573.0, -910552.75, 44228.363, -0.5143566, -0.22797832, -896488.3, -296588.16, 0.00000040342232, 9.997046, 9.998818 
2.4156916e+3, 2.4877754e+2, -664184.6, -664808.1, -77180.42, -0.30387545, -0.018495427, -587315.3, -85344.81, 0.0, 9.999087, 9.998668 
2.4152993e+3, 2.587707e+2, -657898.8, -807585.25, -84109.37, -0.015515025, 0.18042488, -620154.75, -216107.2, 0.0, 9.999183, 9.997095 
2.4149038e+3, 2.687607e+2, -393359.16, -396196.53, -149267.9, -0.003345305, 0.07457354, -245503.19, 60642.582, 0.0, 9.999536, 9.998901 
2.4145079e+3, 2.7875057e+2, -656896.94, -622611.25, -185897.53, -0.12138364, -0.124793544, -453067.8, -244824.55, 0.0, 9.997498, 9.997816 
2.4141136e+3, 2.887433e+2, -47825.4, 13751.522, -94557.305, -0.2464527, -0.07905509, 82406.58, 192720.19, 0.0000000009564638, 10.000011, 10.000109 
2.413724e+3, 2.987377e+2, -354855.56, -632607.56, 95072.81, -0.1383782, 0.10353984, -325430.1, -313061.9, 0.0000015325257, 9.999577, 9.995718 
2.4133313e+3, 3.087257e+2, 504063.88, -43882.734, -204106.17, -0.20826203, 0.085233726, 571734.7, 571734.7, 0.000021924814, 10.004886, 9.997055 
2.4304177e+3, 1.292589e+2, -1336816.6, -1590381.9, -47534.31, -0.25099614, -0.48442966, -1328198.6, 345047.78, 0.3927152, 10.003919, 9.99842 
2.430032e+3, 1.3925552e+2, -1475527.8, -1862989.6, -70785.49, 0.4055113, 0.055838753, -1463001.0, 112285.15, 0.26710206, 10.001895, 9.99674 
2.429634e+3, 1.492453e+2, -1435743.8, -1592279.8, -188681.0, 0.1953598, -0.0435212, -1309741.4, 167643.83, 0.15331793, 10.000618, 9.9984865 
2.4292347e+3, 1.59234e+2, -1574940.6, -1606079.3, -198970.47, -0.1659917, -0.29882482, -1390931.3, -11439.493, 0.07196278, 9.998631, 9.998739 
2.4288413e+3, 1.6922684e+2, -1283124.6, -1072038.0, -52053.05, -0.08133208, -0.36720407, -1059899.9, 221655.55, 0.027363949, 9.998747, 10.001533 
2.4284485e+3, 1.7922035e+2, -1261278.6, -1185979.4, -4442.8057, 0.012887653, -0.39447764, -1185718.1, -2104.1792, 0.009079448, 9.998774, 10.000146 
2.4280524e+3, 1.8921459e+2, -946532.1, -877108.6, -160521.98, -0.008480018, -0.30527946, -747588.2, 338084.13, 0.002868925, 9.999981, 10.000911 
2.427656e+3, 1.9920851e+2, -892062.3, -1122209.0, -281235.2, -0.052193105, -0.21831605, -703268.75, 284466.03, 0.00059867656, 10.00082, 9.998312 
2.4272618e+3, 2.0919962e+2, -903421.56, -1232771.6, -192438.02, 0.063563086, -0.114887945, -814817.56, 75014.18, 0.000045539302, 10.0009, 9.996751 
2.4268684e+3, 2.1919036e+2, -807779.4, -1009658.7, -61497.45, 0.17160319, 0.0070701526, -790521.1, 1411.9697, 0.0000022398012, 10.000258, 9.997973 
2.4264726e+3, 2.2918348e+2, -590347.25, -357084.9, -51224.945, -0.0566542, -0.046679612, -346331.53, 347663.22, 0.000000052409952, 9.999203, 10.002139 
2.4260774e+3, 2.3917687e+2, -838066.56, -744239.4, -98163.61, -0.3371583, -0.11838948, -682355.06, -86303.37, 0.0, 9.99804, 9.99947 
2.4256839e+3, 2.4916945e+2, -698210.56, -759776.3, -171601.34, -0.25517753, 0.020630034, -554652.94, -56519.688, 0.0, 9.999122, 9.998037 
2.4252915e+3, 2.5916174e+2, -450391.1, -659162.0, -181665.17, -0.073636085, 0.1899762, -345256.72, 54963.36, 0.0, 10.000245, 9.997624 
2.4248967e+3, 2.6915166e+2, -154691.89, -300388.0, -175615.45, 0.003431335, 0.05444638, -37414.645, 264903.9, 0.0, 10.001095, 9.998869 
2.4245018e+3, 2.7914122e+2, -75155.664, -273228.03, -24469.523, 0.045559734, -0.14378428, -72177.52, 132240.88, 0.0, 10.00104, 9.99853 
2.4241057e+3, 2.891346e+2, 197068.83, 206651.94, 41425.69, -0.36735415, -0.07220238, 243562.27, 350045.13, 0.0, 10.0011835, 10.000954 
2.4237134e+3, 2.9912975e+2, -99798.49, -222698.56, 116825.05, -0.57931, 0.08264744, -29247.773, -20717.018, 0.000000086511356, 9.999895, 9.998434 
2.4233337e+3, 3.091237e+2, -215763.42, -213855.34, -382390.34, 0.53022885, 0.4569922, 167582.17, 167582.17, 0.0000026170453, 9.998833, 9.998954 
2.4407986e+3, 1.1965913e+2, -1562018.3, -1959408.8, 573991.6, -0.29422626, -0.108350076, -1153304.1, 614019.6, 0.49455103, 10.004887, 9.9971285 
2.440412e+3, 1.2964903e+2, -1554360.3, -1552995.5, -84777.85, -0.39499316, -0.39984658, -1468897.3, 200525.98, 0.3775347, 10.0007, 10.00033 
2.4400291e+3, 1.3964671e+2, -1609472.1, -1843768.3, -182702.9, 0.7204929, 0.09224828, -1509585.6, 61862.96, 0.25111946, 10.000508, 9.997519 
2.4396268e+3, 1.496371e+2, -1531784.4, -1756754.3, -238121.6, 0.20048521, 0.08432162, -1380916.4, 92631.36, 0.13882844, 10.0004835, 9.997323 
2.4392231e+3, 1.59626e+2, -1535863.8, -1526504.5, -181437.27, -0.4163654, -0.07268533, -1349686.5, 25972.564, 0.060861234, 9.998746, 9.999199 
2.438831e+3, 1.6961877e+2, -1122602.5, -695707.94, -59514.12, -0.20421208, -0.38192394, -687566.25, 590147.9, 0.02025213, 9.9986315, 10.004184 
2.4384405e+3, 1.796121e+2, -1461476.1, -1361903.6, -66548.42, 0.11942807, -0.6216001, -1328579.4, -148814.66, 0.0052852775, 9.997812, 9.99942 
2.4380454e+3, 1.8960626e+2, -1309411.8, -1488349.3, -139595.2, 0.07056215, -0.2608086, -1233075.0, -151237.53, 0.0012089658, 9.9994545, 9.996951 
2.4376497e+3, 1.9960025e+2, -1144563.8, -1392966.6, -223561.94, 0.018402314, 0.17382577, -1013019.4, -29104.688, 0.00012403581, 9.999901, 9.996857 
2.4372536e+3, 2.0959194e+2, -815400.25, -876767.5, -175573.92, -0.04096308, 0.16082883, -667848.94, 218150.25, 0.000001917801, 10.000339, 9.999354 
2.4368587e+3, 2.195831e+2, -976941.7, -1036157.94, -83507.83, -0.039930016, 0.10056059, -917948.44, -129862.35, 0.000000018702426, 9.998996, 9.998347 
2.4364656e+3, 2.2957575e+2, -699152.56, -543399.4, -93491.88, 0.07616939, 0.048014563, -499598.13, 190555.53, 0.0, 9.999071, 10.00087 
2.4360728e+3, 2.3956807e+2, -1071641.4, -1023246.94, -117057.58, 0.15141734, -0.024115158, -927911.8, -335686.84, 0.0, 9.997242, 9.997932 
2.4356768e+3, 2.4955802e+2, -769209.2, -817287.75, -118661.12, -0.10710459, -0.10594153, -672176.75, -177845.72, 0.0, 9.998887, 9.997698 
2.4352813e+3, 2.595481e+2, -621484.44, -749648.3, -152500.58, -0.36865234, -0.13715465, -520148.97, -123712.37, 0.0, 9.999247, 9.997469 
2.4348877e+3, 2.695426e+2, -79331.58, -39322.582, -157523.92, -0.25149432, 0.027392374, 99461.984, 397949.94, 0.0, 10.000749, 10.000792 
2.4344951e+3, 2.7953705e+2, -218672.22, -301903.94, -35689.9, -0.023123426, 0.1415921, -205464.28, -4926.289, 0.0, 9.999987, 9.998851 
2.4341035e+3, 2.895276e+2, -24653.549, -57501.152, 32561.156, 0.011566944, -0.029485665, -4608.5957, 98021.055, 0.0, 10.000434, 9.999471 
2.433711e+3, 2.9951873e+2, -473470.53, -359212.44, 39669.703, -0.20678867, -0.15014769, -346789.97, -342074.63, 0.0, 9.997282, 9.998744 
2.4333183e+3, 3.095138e+2, -308572.63, 264420.66, -78685.0, -0.22979175, -0.097912535, 275029.47, 275029.47, 0.00000012758136, 9.996257, 10.003329 
2.4507968e+3, 1.2004742e+2, -1701803.6, -1572783.6, 62628.438, -0.003943601, -0.03735802, -1547383.3, 216142.38, 0.48540634, 9.998868, 10.002659 
2.4504077e+3, 1.3003975e+2, -1768686.1, -1620370.0, -47448.813, -0.018038219, -0.23899242, -1606489.4, 59107.168, 0.3659335, 9.998496, 10.000756 
2.4500184e+3, 1.4003362e+2, -1454022.3, -1589856.3, -137587.86, 0.22786081, -0.1841923, -1368501.5, 199155.08, 0.23856215, 10.000936, 9.999163 
2.4496192e+3, 1.5002763e+2, -1260268.0, -1379206.4, -189852.61, 0.04901978, -0.03379016, -1120788.5, 348930.8, 0.1275105, 10.001343, 9.999629 
2.449219e+3, 1.6002065e+2, -1233722.3, -1306602.3, -78612.08, -0.15596294, 0.05055327, -1183515.1, 188275.56, 0.052560914, 10.000478, 9.999902 
2.4488242e+3, 1.7001288e+2, -1129003.3, -913277.6, -91534.49, -0.080802135, -0.17493095, -879673.3, 394184.3, 0.01541553, 9.999398, 10.002339 
2.4484304e+3, 1.800051e+2, -1440894.6, -1369190.0, -156481.0, -0.01172591, -0.3704065, -1244506.8, -68581.71, 0.0031067657, 9.997933, 9.999338 
2.448036e+3, 1.8999851e+2, -1222638.6, -1346175.5, -49077.387, -0.07891996, -0.14648828, -1205515.1, -127514.84, 0.00048131414, 9.999549, 9.997929 
2.4476416e+3, 1.9999158e+2, -888213.56, -1124666.6, -7168.1216, -0.1505218, 0.12162004, -887996.44, 92084.19, 0.000015932997, 10.000958, 9.998181 
2.4472462e+3, 2.0998263e+2, -696649.0, -715983.56, -61644.457, -0.12208524, -0.025396064, -643918.44, 238247.19, 0.0000000054715246, 10.000683, 10.0003 
2.4468511e+3, 2.1997368e+2, -741133.5, -846661.2, -6779.481, -0.09110229, -0.15936035, -740699.75, 43549.547, 0.0, 10.000162, 9.999113 
2.4464585e+3, 2.2996695e+2, -475511.53, -571750.0, -20289.924, 0.07013841, -0.06608429, -471408.72, 214908.4, 0.0, 10.001068, 9.999793 
2.446066e+3, 2.3995991e+2, -379588.94, -666140.9, -39278.277, 0.18869026, 0.038414408, -374302.5, 214086.13, 0.0, 10.001688, 9.998295 
2.4456696e+3, 2.4994998e+2, -367795.63, -562531.0, 27825.924, -0.10184151, -0.06314856, -363897.6, 126593.77, 0.0, 10.001173, 9.998459 
2.4452734e+3, 2.599402e+2, -393852.9, -526463.9, 47314.78, -0.43165454, -0.12615623, -378702.22, 13889.978, 0.0, 10.000161, 9.998604 
2.4448806e+3, 2.6993462e+2, -147262.9, -108603.56, -86318.195, -0.26012415, 0.042634953, -39477.223, 255168.38, 0.0, 10.000308, 10.000588 
2.4444893e+3, 2.7992952e+2, -79210.16, -165502.5, -108481.33, 0.046390947, 0.21184516, -5609.6304, 191083.19, 0.0, 10.0004635, 9.999586 
2.4440978e+3, 2.8991985e+2, -71393.94, -62779.992, -19092.695, 0.17878516, -0.0068929465, -47514.508, 51269.203, 0.0, 9.999863, 9.999774 
2.4437055e+3, 2.9991034e+2, -253392.08, -127445.6, 70076.02, 0.10908027, -0.2152854, -96204.836, -95331.96, 0.0, 9.998029, 10.000027 
2.4433066e+3, 3.0990547e+2, 266978.22, 808160.0, -176668.75, -0.4991322, -0.215092, 860727.4, 860727.4, 0.000000000000427524, 9.998827, 10.005896 
2.4607913e+3, 1.2043907e+2, -1713744.0, -1360769.3, -50659.95, 0.30962065, 0.19520041, -1353642.4, 406049.25, 0.4772346, 9.996996, 10.006281 
2.4604028e+3, 1.3043109e+2, -1820975.8, -1610354.5, 168694.64, 0.3903851, -0.13250344, -1516797.9, 144964.6, 0.3557266, 9.998027, 10.001258 
2.4600068e+3, 1.404217e+2, -1562720.1, -1506936.9, -1809.7799, -0.22600655, -0.43878528, -1506878.3, 56974.504, 0.22774403, 9.999271, 10.000526 
2.4596117e+3, 1.5041901e+2, -1294993.9, -1135438.3, -135773.66, 0.017053891, -0.18809305, -1057739.1, 408141.78, 0.11809006, 9.999904, 10.002131 
2.4592166e+3, 1.6041604e+2, -1452779.5, -1475907.9, -87279.48, 0.33503532, 0.13861349, -1376301.5, -8389.208, 0.04605504, 9.999268, 9.999284 
2.4588178e+3, 1.7040783e+2, -1357701.3, -1339225.6, -102493.305, 0.11962555, 0.084006935, -1245554.6, 24439.49, 0.012013259, 9.999269, 9.999408 
2.4584197e+3, 1.8039912e+2, -1470671.9, -1446486.8, -99943.82, -0.10891377, 0.025729, -1357906.6, -185826.44, 0.0018483637, 9.998089, 9.99872 
2.4580261e+3, 1.9039111e+2, -1105032.9, -1038894.8, 20248.176, -0.24715744, -0.06686364, -1033188.25, 40971.086, 0.00018026956, 9.999305, 10.000132 
2.4576333e+3, 2.0038289e+2, -1086456.4, -1146403.5, -34917.543, -0.29769415, -0.11858814, -1070412.0, -94172.484, 0.0000007906511, 9.999395, 9.998783 
2.4572386e+3, 2.1037279e+2, -831139.94, -791078.94, -120556.73, -0.15974295, -0.41534954, -688900.0, 189430.34, 0.0, 9.9998865, 10.000168 
2.4568443e+3, 2.2036307e+2, -1024957.7, -1091596.3, -37282.52, -0.0071462058, -0.59607583, -1008275.4, -227855.81, 0.0, 9.998881, 9.998029 
2.4564509e+3, 2.3035797e+2, -653710.8, -745979.56, -8003.938, -0.011952823, -0.26257133, -653021.6, 29457.588, 0.0, 10.000489, 9.998768 
2.4560578e+3, 2.4035303e+2, -613676.0, -806383.3, -56065.42, -0.03454495, 0.1278017, -598551.56, -14014.027, 0.0, 10.000376, 9.997926 
2.455662e+3, 2.5034547e+2, -363383.72, -408064.84, -25384.7, -0.20189272, 0.14017819, -351908.84, 134704.88, 0.0, 10.000609, 9.999755 
2.4552672e+3, 2.603371e+2, -686020.06, -788053.75, -1827.9697, -0.34522048, 0.13861181, -685987.3, -297290.47, 0.0, 9.9987955, 9.997442 
2.4548756e+3, 2.7032712e+2, -410731.4, -500823.53, -79765.266, -0.07528715, 0.040982172, -364171.53, -73373.305, 0.0, 9.99976, 9.998099 
2.4544837e+3, 2.8031826e+2, -343314.34, -352655.63, -109995.38, 0.1551295, 0.042338576, -237890.48, -45004.38, 0.0, 9.999082, 9.998937 
2.4540876e+3, 2.9031253e+2, -62345.145, 183455.3, -40283.33, -0.11298092, 0.025970355, 189888.8, 284822.5, 0.0, 9.999015, 10.001822 
2.4536954e+3, 3.003047e+2, -784972.6, -649165.94, 44038.85, -0.09459789, -0.062047705, -636135.44, -636135.44, 0.0, 9.995727, 9.997518 
2.4533047e+3, 3.1029555e+2, -323952.8, 162822.56, -45950.09, -0.006874679, -0.19006047, 167122.13, 167122.13, 0.0, 9.996681, 10.002354 
2.4707788e+3, 1.2083096e+2, -1822846.8, -1555613.9, 50784.59, -0.022594575, -0.28120568, -1546288.3, 209553.66, 0.46785173, 9.997379, 10.003441 
2.4703938e+3, 1.3082758e+2, -1784590.9, -1574949.3, 308233.88, 0.38328186, -0.088054955, -1354200.5, 303671.84, 0.34520847, 9.998288, 10.001678 
2.4699971e+3, 1.4081913e+2, -1706995.5, -1542347.6, 133143.73, -0.3924837, -0.315355, -1468132.5, 91821.586, 0.21743059, 9.998118, 10.00086 
2.4696025e+3, 1.508141e+2, -1418629.6, -1171542.0, -43702.797, -0.08434736, -0.29991955, -1164040.0, 297961.84, 0.109704144, 9.998866, 10.002298 
2.4692082e+3, 1.6080917e+2, -1464880.3, -1498780.6, 6449.5454, 0.27735636, -0.16094728, -1463694.8, -99644.414, 0.040704507, 9.999218, 9.999153 
2.4688108e+3, 1.708011e+2, -1259085.9, -1419121.1, 20809.39, 0.14259137, -0.08657761, -1256424.3, 9711.672, 0.00953522, 10.000434, 9.998355 
2.4684131e+3, 1.8079266e+2, -1116191.3, -1327915.1, 46778.547, -0.08221828, 0.009042937, -1106316.5, 61908.34, 0.0011160366, 10.000674, 9.9983015 
2.468019e+3, 1.9078398e+2, -1111573.3, -1124498.8, 45883.555, -0.18607774, -0.059206653, -1071699.5, -1386.9866, 0.00006263998, 9.999546, 9.999466 
2.4676254e+3, 2.0077547e+2, -1207648.0, -1140246.8, -75578.766, -0.24674715, -0.09689393, -1091195.5, -118799.43, 0.0000000031066179, 9.998195, 9.99943 
2.4672318e+3, 2.1076693e+2, -863204.6, -779492.6, -132560.92, -0.05028741, -0.26461527, -682336.7, 192134.7, 0.0, 9.999428, 10.000547 
2.4668379e+3, 2.207582e+2, -763163.94, -942004.6, -24119.174, 0.09211534, -0.35806385, -759968.2, 16582.275, 0.0, 10.000433, 9.998348 
2.4664445e+3, 2.3075084e+2, -588538.9, -801269.3, 8591.929, -0.014295715, -0.19175696, -588192.44, 90437.71, 0.0, 10.001173, 9.998132 
2.4660508e+3, 2.4074398e+2, -403491.6, -669574.3, -73867.39, -0.13951041, 0.06070296, -384360.7, 196344.77, 0.0, 10.001559, 9.998313 
2.4656552e+3, 2.5073665e+2, -321662.03, -385939.7, -163740.69, -0.21458185, 0.1019643, -186935.89, 295841.06, 0.0, 10.000801, 9.999856 
2.4652605e+3, 2.607288e+2, -444471.53, -585602.75, -152950.31, -0.23203324, 0.12291414, -346593.38, 38259.945, 0.0, 9.999895, 9.998339 
2.4648693e+3, 2.707189e+2, -302824.56, -439333.28, -63366.043, 0.05842215, 0.0015420717, -277945.06, 9008.91, 0.0, 10.000303, 9.998328 
2.4644773e+3, 2.8071e+2, -79851.02, -143449.52, 10537.008, 0.21432069, -0.011891841, -78150.7, 110892.58, 0.0, 10.000417, 9.999751 
2.4640788e+3, 2.9070434e+2, 165583.23, 295831.34, -98280.52, -0.2120694, -0.012383796, 348606.4, 439697.28, 0.0, 10.00043, 10.002 
2.4636878e+3, 3.006963e+2, -192469.95, -436503.38, -48460.707, 0.030118635, -0.096201174, -183198.73, -183198.73, 0.0, 9.999893, 9.997033 
2.4632998e+3, 3.1068414e+2, -12041.507, 51941.24, -74005.39, 0.35767195, -0.28557128, 100573.97, 100573.97, 0.0, 9.999534, 10.000379 
2.4807705e+3, 1.2122578e+2, -2084491.1, -1865273.5, 31544.693, 0.08766725, -0.5244053, -1860824.6, -108857.72, 0.4557171, 9.997026, 10.000285 
2.4803847e+3, 1.3122413e+2, -1823372.0, -1603303.0, 256412.0, 0.3751078, -0.11043181, -1434312.9, 219669.81, 0.33319858, 9.997973, 10.001436 
2.4799885e+3, 1.4121711e+2, -1781902.0, -1598219.8, 65006.684, -0.320324, -0.17595783, -1577541.4, -21490.758, 0.20679392, 9.997816, 10.000477 
2.4795935e+3, 1.5120956e+2, -1400519.9, -1216181.5, -122886.16, -0.13083185, -0.39073873, -1154740.3, 303380.44, 0.10179194, 9.999265, 10.001775 
2.4791995e+3, 1.6120186e+2, -1503843.1, -1596361.3, -83721.35, 0.22201812, -0.4769337, -1454451.0, -94256.484, 0.036105353, 9.999398, 9.998378 
2.478804e+3, 1.7119423e+2, -1281086.1, -1474759.9, -29077.04, 0.18981534, -0.3342737, -1276814.9, -14537.077, 0.0076701324, 10.000604, 9.997836 
2.4784079e+3, 1.811863e+2, -1270773.9, -1580488.3, -7051.342, 0.10448762, -0.10029351, -1270613.5, -106248.695, 0.000687035, 10.000505, 9.996612 
2.4780127e+3, 1.911774e+2, -1225558.5, -1355658.8, -28741.207, -0.0154994605, -0.05368737, -1219491.9, -153032.25, 0.000019881356, 9.999665, 9.997748 
2.4776182e+3, 2.0116894e+2, -1303848.3, -1266445.0, -81453.97, -0.02635236, 0.053864915, -1201573.4, -233026.02, 0.0, 9.9979925, 9.998606 
2.4772254e+3, 2.1116327e+2, -837240.0, -714627.0, -101988.07, 0.1383993, 0.12621194, -656937.5, 213659.83, 0.0, 9.999499, 10.0008545 
2.4768323e+3, 2.2115652e+2, -930073.56, -1113657.6, -21259.49, 0.25029954, 0.2246953, -927643.8, -154985.84, 0.0, 9.9997835, 9.997439 
2.4764384e+3, 2.3114471e+2, -687651.9, -927094.1, 8118.4414, 0.01712222, -0.011087231, -687376.94, -12602.689, 0.0, 10.000858, 9.997393 
2.4760441e+3, 2.4113327e+2, -713005.0, -961709.1, -114725.04, -0.1777465, -0.13568944, -668167.06, -91279.54, 0.0, 10.000204, 9.996929 
2.4756487e+3, 2.5112435e+2, -498380.9, -575700.7, -206370.9, -0.17394504, -0.17976345, -327080.0, 151893.84, 0.0, 10.000182, 9.998767 
2.4752541e+3, 2.6111627e+2, -614923.1, -605288.6, -160141.34, -0.112482354, -0.12565814, -449892.1, -68840.39, 0.0, 9.9986315, 9.998786 
2.4748619e+3, 2.711107e+2, -242276.02, -113247.15, -47064.46, 0.024011884, -0.05223501, -97904.36, 185200.92, 0.0, 9.999594, 10.000863 
2.4744685e+3, 2.8110448e+2, -379104.88, -427837.5, -3519.8743, 0.032750275, 0.061196838, -378851.94, -193685.94, 0.0, 9.999072, 9.998441 
2.4740732e+3, 2.9109347e+2, -140549.8, -139179.97, -104800.65, -0.11159012, -0.261267, -35062.0, 52211.508, 0.0, 9.999722, 9.999283 
2.473685e+3, 3.0108392e+2, -525688.06, -689215.4, -96258.266, 0.4197019, -0.2919945, -481154.66, -481154.66, 0.0, 9.998167, 9.996103 
2.47329e+3, 3.11079e+2, -225169.34, 58089.25, -98218.75, -0.005325234, 0.09118515, 88813.6, 88813.6, 0.0, 9.99773, 10.00127 
2.4907644e+3, 1.2162564e+2, -2084565.6, -1866408.0, -65072.516, 0.3627201, 0.08183497, -1848472.5, -100413.15, 0.43991777, 9.997074, 10.000254 
2.4903758e+3, 1.3161764e+2, -1801302.3, -1584760.0, 228968.8, 0.33117196, -0.15814938, -1439753.9, 210378.0, 0.31901658, 9.998083, 10.001485 
2.489982e+3, 1.4160985e+2, -1795806.4, -1711644.5, 18980.611, -0.12060057, -0.27002388, -1707562.0, -155356.81, 0.19536594, 9.99811, 9.999583 
2.4895865e+3, 1.5160312e+2, -1414943.0, -1394249.9, -159939.73, -0.075378686, -0.23791958, -1244322.5, 209952.58, 0.094030365, 9.99993, 10.000165 
2.4891916e+3, 1.6159597e+2, -1248839.8, -1429601.0, -166736.44, 0.06329309, -0.16968824, -1149563.6, 206784.75, 0.032013185, 10.000948, 9.998784 
2.4887969e+3, 1.715887e+2, -1020046.9, -1218842.9, -82721.086, 0.08340167, -0.09805214, -990128.44, 268293.72, 0.0062260167, 10.001809, 9.999012 
2.4884021e+3, 1.8158087e+2, -992880.3, -1344175.9, -56313.355, 0.03947633, 0.03628293, -984073.94, 176427.72, 0.00043419475, 10.001889, 9.997573 
2.4880064e+3, 1.9157109e+2, -982727.56, -1230604.6, -49407.316, 0.024480764, -0.020302685, -973242.56, 89357.8, 0.0000058323185, 10.001202, 9.997908 
2.4876116e+3, 2.0156166e+2, -962558.75, -1174531.6, 3917.0203, 0.012882638, 0.020871332, -962486.4, 2208.4868, 0.000000000090419006, 10.000561, 9.997999 
2.4872187e+3, 2.1155417e+2, -516138.0, -750538.8, -57919.574, 0.07176605, 0.07530928, -502607.34, 364158.38, 0.0, 10.002411, 9.999245 
2.4868257e+3, 2.2154622e+2, -369512.28, -841596.7, -105977.836, 0.06136909, 0.1612056, -346812.88, 422028.3, 0.0, 10.003507, 9.99752 
2.4864319e+3, 2.3153499e+2, -437112.44, -810723.0, -75071.73, -0.09379419, -0.010016171, -422592.16, 248359.1, 0.0, 10.002493, 9.997466 
2.4860379e+3, 2.4152376e+2, -462340.34, -746283.9, -162925.73, -0.21446134, -0.1333623, -388208.47, 184852.17, 0.0, 10.001394, 9.997841 
2.4856423e+3, 2.5151432e+2, -358691.3, -510319.9, -194118.2, -0.13953742, -0.25069717, -226107.72, 249042.3, 0.0, 10.000977, 9.998902 
2.4852473e+3, 2.6150584e+2, -308275.6, -377347.75, -119779.09, -0.046324592, -0.24919224, -218153.05, 159077.25, 0.0, 10.000223, 9.999615 
2.4848537e+3, 2.7150086e+2, -265534.94, -99389.61, -153558.52, 0.019218242, -0.13962121, -7873.369, 271403.53, 0.0, 9.999145, 10.001259 
2.4844605e+3, 2.8149503e+2, -432106.4, -452620.8, -165075.0, 0.025729045, -0.014207087, -276970.25, -95637.09, 0.0, 9.998534, 9.99857 
2.4840674e+3, 2.914838e+2, -112319.09, -247583.5, -158025.53, 0.05999041, -0.27647975, -8061.2563, 75387.05, 0.0, 10.000285, 9.998338 
2.4836797e+3, 3.0147454e+2, 8584.344, -286986.66, -48131.492, 0.6008167, -0.24719946, 16224.692, 16224.692, 0.0, 10.001127, 9.997443 
2.4832807e+3, 3.1147125e+2, 72453.96, 294838.1, -173218.05, -0.062633365, 0.2411692, 389481.34, 389481.34, 0.0, 9.999085, 10.00237 
2.5007555e+3, 1.2202087e+2, -1695291.1, -1680007.8, 26376.44, 0.38420057, 0.23696409, -1660188.4, 84006.81, 0.42027465, 9.999873, 10.000552 
2.5003678e+3, 1.320114e+2, -1624183.4, -1511741.8, 155309.14, 0.42533377, -0.13237603, -1402790.8, 243488.05, 0.30251706, 9.999534, 10.001296 
2.4999754e+3, 1.4200234e+2, -1892089.8, -1897679.9, -24053.275, 0.13966338, -0.2942508, -1870669.6, -322305.47, 0.18302314, 9.998036, 9.99835 
2.4995796e+3, 1.5199655e+2, -1515904.8, -1618191.8, -121131.02, 0.015317339, -0.052199487, -1435563.0, 14870.272, 0.08629053, 9.999928, 9.998558 
2.4991846e+3, 1.6199061e+2, -1270187.1, -1435390.8, -105519.76, 0.015517901, 0.24721229, -1218783.4, 133716.53, 0.028287582, 10.000792, 9.998799 
2.4987905e+3, 1.7198336e+2, -922518.7, -1062898.4, -97704.54, -0.0014588352, 0.19753616, -872405.6, 382160.97, 0.0050760456, 10.001945, 10.000036 
2.498396e+3, 1.8197514e+2, -1005311.8, -1287641.4, -140695.38, 0.009753889, 0.20463036, -947171.06, 209471.17, 0.00028139996, 10.001673, 9.998035 
2.4980003e+3, 1.9196476e+2, -926351.5, -1112202.4, -162476.78, 0.05050744, -0.006229467, -832103.7, 226635.75, 0.0000014559199, 10.001347, 9.998606 
2.497605e+3, 2.019539e+2, -1120050.9, -1448087.4, -13594.436, 0.07567441, -0.0951529, -1119488.4, -158645.6, 0.0, 10.000464, 9.9961605 
2.4972118e+3, 2.1194258e+2, -766580.5, -1120933.9, -2368.2747, -0.09391346, -0.22287779, -766564.7, 96389.375, 0.0, 10.001958, 9.996867 
2.4968186e+3, 2.219323e+2, -665575.7, -1094600.9, -112700.375, -0.21606234, -0.16609794, -637772.3, 127283.164, 0.0, 10.002091, 9.996462 
2.496425e+3, 2.3192398e+2, -559545.4, -814273.0, -111015.83, -0.24675147, -0.087569594, -517953.4, 149186.42, 0.0, 10.001519, 9.997873 
2.4960312e+3, 2.4191551e+2, -673715.5, -797807.7, -193254.14, -0.24153613, 0.020327749, -532791.44, 36431.66, 0.0, 9.999823, 9.998233 
2.495635e+3, 2.5190642e+2, -426775.1, -423904.8, -208569.94, -0.17392579, -0.17956375, -216765.08, 254540.97, 0.0, 10.000118, 9.999865 
2.4952392e+3, 2.6189762e+2, -600403.4, -666867.94, -161876.7, -0.09977331, -0.22660369, -468383.0, -94995.1, 0.0, 9.998998, 9.998188 
2.4948457e+3, 2.7188918e+2, -506430.2, -437094.6, -185927.78, 0.05031605, -0.2988943, -282630.16, -7159.0215, 0.0, 9.998519, 9.999217 
2.4944529e+3, 2.818819e+2, -661995.0, -606573.0, -155576.42, 0.13990887, -0.15909189, -476258.94, -298714.34, 0.0, 9.997293, 9.998075 
2.4940598e+3, 2.9187703e+2, -160449.83, -150907.78, -70592.05, 0.003090953, 0.095433526, -84925.71, -5327.185, 0.0, 9.99955, 9.999302 
2.4936694e+3, 3.0187002e+2, -91472.71, -169946.4, -105791.086, 0.120714076, 0.23560087, -17876.566, -17876.566, 0.0, 9.999901, 9.9988 
2.4932754e+3, 3.1185615e+2, -187712.06, 233167.1, -131972.5, 0.094879545, -0.53617424, 271125.5, 271125.5, 0.0, 9.997359, 10.002665 
2.5107467e+3, 1.2241069e+2, -1399887.1, -1439665.0, 155193.9, -0.09378659, -0.20710178, -1263312.9, 477055.72, 0.39734322, 10.002487, 10.001957 
2.5103605e+3, 1.3240552e+2, -1552961.4, -1705246.8, 77510.3, 0.3233938, 0.051987756, -1520450.6, 121969.54, 0.28406283, 10.00127, 9.998694 
2.509964e+3, 1.4239514e+2, -1745945.0, -1762238.5, -47527.84, -0.19055039, -0.09078072, -1705870.8, -161345.7, 0.16993596, 9.998757, 9.998909 
2.5095716e+3, 1.523902e+2, -1321583.0, -1344033.9, -4708.03, -0.11058496, 0.09096502, -1320635.6, 125942.11, 0.078587286, 10.000503, 10.000227 
2.5091788e+3, 1.6238385e+2, -1190149.0, -1468491.9, 20752.85, -0.021919083, 0.2815061, -1188610.3, 160033.17, 0.024857625, 10.001609, 9.998184 
2.508786e+3, 1.7237319e+2, -917666.94, -1246455.1, -47723.305, 0.01857626, 0.075702965, -910880.06, 339866.53, 0.0041356636, 10.0027485, 9.998417 
2.5083914e+3, 1.8236302e+2, -791359.4, -1180617.9, -228286.97, -0.006710692, -0.0030410006, -685996.1, 466847.34, 0.00018434241, 10.003065, 9.998105 
2.5079948e+3, 1.923543e+2, -625990.6, -960146.8, -263403.88, -0.018844988, -0.04561979, -481144.53, 573779.25, 0.00000026313862, 10.003316, 9.998738 
2.5075987e+3, 2.0234483e+2, -654497.56, -1141978.0, -113708.69, -0.077211164, -0.032402214, -629278.75, 327734.38, 0.0, 10.003238, 9.99694 
2.5072062e+3, 2.1233325e+2, -609623.5, -1034779.3, -6406.1235, -0.196884, -0.19612424, -609527.0, 249599.78, 0.0, 10.002901, 9.997071 
2.506813e+3, 2.223227e+2, -557552.3, -932406.9, -75425.62, -0.2670977, -0.19929877, -542944.94, 218286.1, 0.0, 10.002185, 9.997583 
2.5064197e+3, 2.3231503e+2, -647840.9, -792169.1, -82551.35, -0.15083593, -0.10765345, -610358.3, 52950.09, 0.0, 10.000461, 9.9986105 
2.506025e+3, 2.4230757e+2, -658957.6, -697588.5, -98135.74, -0.09544613, 0.0388299, -578254.5, -12872.617, 0.0, 9.999404, 9.999146 
2.5056282e+3, 2.5229934e+2, -317247.38, -350542.56, -144738.88, -0.15310448, -0.07491042, -188201.84, 279255.63, 0.0, 10.000673, 10.00016 
2.505232e+3, 2.622905e+2, -173239.95, -497379.44, -131765.2, -0.14612283, -0.122646354, -126434.92, 243105.02, 0.0, 10.001975, 9.997948 
2.504839e+3, 2.7227983e+2, 71962.55, -313421.94, -145513.89, 0.03955415, -0.27576885, 120733.74, 392378.5, 0.0, 10.003061, 9.997949 
2.504446e+3, 2.8227097e+2, 197248.52, -151798.31, -66612.12, 0.1421067, -0.20269382, 209528.73, 383261.9, 0.0, 10.002848, 9.998562 
2.5040522e+3, 2.9226732e+2, 43585.04, -30642.396, -52256.18, -0.043113537, 0.14952892, 70566.06, 146339.55, 0.0, 10.000592, 9.999738 
2.5036615e+3, 3.0226147e+2, -134220.22, -70434.35, -134147.47, 0.08377155, 0.34266913, 35559.27, 35559.27, 0.0, 9.998902, 10.000005 
2.5032717e+3, 3.1224492e+2, 101472.26, 407715.13, -266354.97, 0.6457408, -0.77644235, 561825.1, 561825.1, 0.0, 9.99891, 10.003184 
2.5207427e+3, 1.2280463e+2, -1411061.0, -1450092.5, 155859.66, -0.08412161, -0.3427573, -1273500.0, 463002.44, 0.3720952, 10.002279, 10.001759 
2.5203517e+3, 1.3279942e+2, -1736034.1, -2126887.3, 6942.4805, 0.0962981, 0.1575617, -1735910.9, -97347.72, 0.26429757, 10.001124, 9.995806 
2.5199544e+3, 1.4278884e+2, -1642208.4, -1617884.4, 20316.111, -0.32956317, 0.14716855, -1606368.1, -65693.71, 0.15642525, 9.999197, 9.99961 
2.519564e+3, 1.52784e+2, -1273410.8, -1140259.4, 14551.488, -0.15946455, 0.16060941, -1138687.8, 304028.9, 0.071005836, 10.00018, 10.001793 
2.5191736e+3, 1.627765e+2, -1470054.8, -1764957.5, 27456.28, 0.07777943, 0.20712449, -1467520.3, -122732.625, 0.021693112, 10.000497, 9.996655 
2.5187817e+3, 1.727622e+2, -1260053.4, -1617963.8, -2386.2383, 0.123124756, -0.17293902, -1260037.5, -13106.1045, 0.00335279, 10.001483, 9.996419 
2.5183877e+3, 1.8275031e+2, -1056791.4, -1413073.1, -144381.36, 0.10593799, -0.25445127, -1005628.6, 143420.75, 0.00011963712, 10.001737, 9.9971285 
2.5179893e+3, 1.9274351e+2, -749563.3, -1050951.4, -193830.08, -0.083569296, -0.100367196, -654739.94, 396373.2, 0.00000002568285, 10.002604, 9.998423 
2.517593e+3, 2.0273593e+2, -789644.44, -1175753.1, -49492.992, -0.19294031, 0.11242264, -783401.2, 169783.89, 0.0, 10.002214, 9.9971895 
2.517201e+3, 2.1272527e+2, -743708.0, -987343.0, 2328.9585, -0.22091447, -0.07458104, -743685.75, 111603.41, 0.0, 10.001502, 9.998049 
2.5168085e+3, 2.2271547e+2, -849051.7, -1005426.9, -107448.32, -0.14773418, -0.083022974, -794354.2, -36969.266, 0.0, 10.00006, 9.998046 
2.5164145e+3, 2.3270753e+2, -729020.1, -734035.25, -134794.36, 0.08243638, -0.1256092, -596710.0, 62752.71, 0.0, 9.999615, 9.999365 
2.5160196e+3, 2.427001e+2, -850272.8, -858913.9, -83731.2, 0.17270274, 0.010619485, -770750.75, -209215.31, 0.0, 9.998535, 9.998437 
2.5156218e+3, 2.5269294e+2, -459896.44, -480081.03, -99610.42, -0.08281711, 0.033895165, -369868.34, 93736.42, 0.0, 10.000079, 9.999521 
2.5152257e+3, 2.626846e+2, -441192.5, -762127.5, -103284.5, -0.24721804, 0.13581157, -410826.28, -45141.895, 0.0, 10.000874, 9.996617 
2.5148323e+3, 2.7267283e+2, -83675.36, -463378.63, -104432.59, -0.18165742, -0.08447632, -56847.945, 210948.31, 0.0, 10.002463, 9.997128 
2.514439e+3, 2.8266147e+2, 23366.793, -275140.9, -142633.94, -0.12827377, -0.1970994, 80561.85, 250466.55, 0.0, 10.0020075, 9.998071 
2.5140455e+3, 2.9265237e+2, -69972.17, -81553.734, -121138.984, -0.04845209, -0.4012401, 45514.36, 117507.84, 0.0, 9.999963, 9.999629 
2.513655e+3, 3.0264717e+2, -325263.63, -202058.23, -163568.05, 0.26793763, -0.11339576, -88877.07, -88877.07, 0.0, 9.997927, 9.9995165 
2.51326e+3, 3.1264028e+2, -107270.48, 269550.0, -133851.66, 0.19064362, -0.26756635, 312255.94, 312255.94, 0.0, 9.997888, 10.002636 
2.530739e+3, 1.23201914e+2, -1357568.6, -1295481.3, -36685.246, -0.084248744, -0.1004528, -1278467.5, 454147.97, 0.34545994, 10.001848, 10.003465 
2.5303438e+3, 1.3319263e+2, -1736506.0, -2135508.3, 36415.484, -0.12279159, 0.008262279, -1733209.8, -98502.66, 0.24384509, 10.001085, 9.995806 
2.5299498e+3, 1.4318253e+2, -1633273.6, -1712675.1, 102558.96, -0.112664066, 0.09358357, -1562999.5, -26192.193, 0.14280653, 9.999672, 9.998725 
2.529558e+3, 1.5317369e+2, -1355813.5, -1334718.6, 43701.668, -0.07519389, -0.12495147, -1300309.6, 138578.86, 0.06363834, 10.000248, 10.000332 
2.5291666e+3, 1.6316514e+2, -1412531.1, -1623998.0, 6055.327, 0.012246881, -0.13237256, -1412357.9, -71387.37, 0.0187796, 10.000296, 9.997742 
2.528774e+3, 1.7315552e+2, -1279419.6, -1480799.9, 96718.38, -0.0021030158, -0.17694516, -1240492.6, 2577.8953, 0.0026956536, 10.000541, 9.997878 
2.5283802e+3, 1.8314636e+2, -1125494.5, -1350670.5, 49136.535, -0.07892354, -0.09170211, -1115239.3, 29924.861, 0.00007576087, 10.0008335, 9.997977 
2.5279838e+3, 1.9313836e+2, -763241.2, -1048766.5, 35326.313, -0.17873716, -0.03461268, -758935.44, 288306.66, 0.00000000011876218, 10.0024, 9.998565 
2.5275886e+3, 2.0312989e+2, -722597.3, -1079024.0, 78005.234, -0.17832652, 0.086183526, -706273.2, 243051.2, 0.0, 10.002312, 9.9978075 
2.5271964e+3, 2.1311975e+2, -997125.06, -1096471.6, 88376.945, 0.020387894, -0.03241045, -945418.3, -93995.016, 0.0, 9.999585, 9.998266 
2.5268027e+3, 2.2311042e+2, -1014581.4, -947007.56, 37126.008, 0.08566765, -0.0418638, -930595.94, -177083.28, 0.0, 9.99821, 9.999351 
2.5264063e+3, 2.3310243e+2, -577448.25, -588104.2, 39698.066, 0.016455, -0.12814134, -542722.2, 112864.15, 0.0, 10.000191, 10.000154 
2.526011e+3, 2.4309425e+2, -432924.97, -739985.6, 73130.15, -0.0088051595, -0.06607315, -416397.72, 141268.03, 0.0, 10.001619, 9.997784 
2.525616e+3, 2.530857e+2, -272151.5, -583405.3, -11493.221, -0.035937764, 0.012859047, -271727.7, 188027.25, 0.0, 10.002081, 9.997884 
2.525221e+3, 2.6307666e+2, -242776.88, -634732.56, -48476.176, -0.11503404, 0.13714427, -236870.45, 124974.77, 0.0, 10.001949, 9.997007 
2.5248265e+3, 2.7306524e+2, -307098.75, -552894.0, -13097.928, -0.15299179, -0.040421735, -306402.78, -42450.92, 0.0, 10.000698, 9.997423 
2.5244325e+3, 2.8305382e+2, -228353.78, -314333.72, -23526.959, -0.12849237, -0.19996098, -222337.06, -56278.16, 0.0, 9.999863, 9.998819 
2.5240386e+3, 2.9304245e+2, -65446.07, -70407.08, -55513.785, -0.0024596532, -0.61817586, -12357.401, 55807.78, 0.0, 9.999871, 9.99978 
2.523647e+3, 3.0303612e+2, -49846.707, -160937.48, -12957.635, 0.31714824, -0.38881627, -48355.348, -48355.348, 0.0, 10.000123, 9.9987755 
2.5232524e+3, 3.130367e+2, 272967.56, 315306.6, -106848.85, 0.22402947, 0.3785909, 403062.84, 403062.84, 0.0, 10.000913, 10.001594 
2.5407308e+3, 1.23599894e+2, -1568973.9, -1331332.4, -109721.81, -0.28982127, 0.38318062, -1288421.1, 440297.2, 0.31815657, 9.999354, 10.004049 
2.540338e+3, 1.3358559e+2, -1630395.8, -1974310.3, -119379.72, -0.019563954, -0.13375486, -1593018.8, 37832.004, 0.22319712, 10.0014715, 9.996706 
2.5399452e+3, 1.435755e+2, -1474505.4, -1780151.9, 44329.89, 0.17895336, -0.05456836, -1468205.8, 64739.31, 0.12934339, 10.001481, 9.997399 
2.5395522e+3, 1.53563e+2, -1412533.0, -1599951.1, 8780.905, 0.07374623, -0.46202108, -1412122.5, 22941.66, 0.05657354, 10.000855, 9.998215 
2.5391594e+3, 1.6355427e+2, -1404700.3, -1454864.3, 5680.959, 0.023305856, -0.4117639, -1404065.0, -66915.27, 0.016116831, 9.999726, 9.999143 
2.5387657e+3, 1.7355089e+2, -1252156.6, -1224273.8, 45774.332, -0.13828467, -0.07988673, -1190364.9, 48824.23, 0.0021455006, 9.999709, 10.000016 
2.5383717e+3, 1.8354519e+2, -1294851.1, -1414536.6, 43911.684, -0.23040561, 0.21692467, -1280468.6, -139218.48, 0.000046550977, 9.999638, 9.998117 
2.537978e+3, 1.9353507e+2, -962687.9, -1148674.4, 34373.92, -0.20485401, 0.034885578, -956538.25, 86812.625, 0.0, 10.001082, 9.998518 
2.5375846e+3, 2.0352533e+2, -979338.7, -1238252.4, -32714.984, -0.003628101, 0.05210816, -975269.0, -29821.668, 0.0, 10.00085, 9.99736 
2.537192e+3, 2.1351546e+2, -1089395.8, -1150166.5, -51744.664, 0.40042934, -0.059255783, -1059774.6, -212231.2, 0.0, 9.999125, 9.998061 
2.5367966e+3, 2.235065e+2, -1071001.6, -935543.75, 53730.4, 0.4147768, -0.027768737, -916819.44, -167192.73, 0.0, 9.997789, 9.999608 
2.536396e+3, 2.3349865e+2, -663072.3, -540943.3, 79395.16, -0.26636484, -0.19711393, -501845.63, 149847.25, 0.0, 9.999369, 10.00082 
2.536e+3, 2.4348971e+2, -829304.6, -1208125.4, 63417.523, -0.47747362, -0.13133278, -818969.94, -265191.66, 0.0, 10.000262, 9.995169 
2.5356105e+3, 2.534778e+2, -597511.2, -1031347.5, 4505.4106, -0.029442582, -0.16150977, -597464.4, -141556.7, 0.0, 10.001214, 9.995172 
2.535219e+3, 2.6346707e+2, -398041.0, -666048.7, -97109.79, 0.19914551, -0.054951873, -366553.63, -8534.463, 0.0, 10.00085, 9.997275 
2.5348225e+3, 2.7345788e+2, -365669.5, -436244.47, -49847.76, 0.12229525, -0.1621696, -339883.22, -79778.8, 0.0, 9.999793, 9.998621 
2.5344265e+3, 2.8344938e+2, -409662.03, -406587.3, -34929.78, 0.013605468, -0.081327416, -373161.1, -210979.67, 0.0, 9.998751, 9.998704 
2.5340295e+3, 2.934401e+2, -175609.98, -111410.85, -10036.625, -0.17660953, -0.32738683, -109878.35, -45614.543, 0.0, 9.999172, 9.999802 
2.533636e+3, 3.0342984e+2, -304569.03, -490622.66, 44108.13, -0.0903313, -0.40451217, -294641.88, -294641.88, 0.0, 9.999421, 9.996807 
2.5332463e+3, 3.1342426e+2, 98277.25, 149496.77, 27383.281, 0.10615806, -0.06125031, 161379.72, 161379.72, 0.0, 10.000205, 10.000767 
2.5507262e+3, 1.2398046e+2, -1886664.3, -1777973.0, 423821.84, -0.0732578, -0.4723834, -1405026.6, 319948.88, 0.29081753, 9.998745, 10.000541 
2.550335e+3, 1.3397513e+2, -1313499.5, -1558615.9, -24584.645, 0.11752953, -0.28069952, -1311058.1, 315966.0, 0.2027681, 10.00303, 9.998944 
2.549941e+3, 1.439668e+2, -1099962.5, -1547227.5, -40760.875, 0.036015455, -0.16038772, -1096278.1, 432827.34, 0.11625642, 10.004193, 9.9977045 
2.5495458e+3, 1.5395647e+2, -1274775.1, -1561327.5, -42718.707, -0.0068336595, -0.33391693, -1268542.4, 162667.88, 0.04988728, 10.001895, 9.99801 
2.5491515e+3, 1.6394813e+2, -1344336.9, -1350059.3, -12583.54, -0.09256215, -0.25686163, -1334293.4, -1000.0232, 0.013707004, 9.999808, 9.999832 
2.5487572e+3, 1.739427e+2, -1271504.3, -1181747.9, 3302.2097, -0.22620705, -0.15300637, -1181626.5, 53719.7, 0.0016894786, 9.999339, 10.000506 
2.5483635e+3, 1.8393634e+2, -1301042.5, -1330668.4, -18213.957, -0.27195376, 0.015280355, -1292378.4, -154968.44, 0.000027889511, 9.999153, 9.998942 
2.5479713e+3, 1.9392759e+2, -1142206.3, -1183178.0, 8472.969, -0.14526884, -0.07660009, -1140523.1, -101024.18, 0.0, 9.999564, 9.999051 
2.5475785e+3, 2.039187e+2, -1009721.06, -1158373.9, -83993.18, 0.04767448, -0.04393309, -971890.1, -30303.227, 0.0, 10.000148, 9.998266 
2.5471848e+3, 2.1390915e+2, -722288.7, -942969.56, -78294.984, 0.3555809, -0.14916292, -697332.7, 146346.0, 0.0, 10.00138, 9.9984455 
2.5467888e+3, 2.2390011e+2, -584971.1, -774561.44, -20903.67, 0.3548573, -0.12628825, -582693.7, 163070.75, 0.0, 10.001381, 9.999001 
2.546389e+3, 2.3389156e+2, -691931.44, -715936.25, -106513.08, -0.17167722, -0.2158543, -596746.6, 51096.844, 0.0, 9.999791, 9.999459 
2.5459933e+3, 2.4388233e+2, -837531.8, -1078818.9, -68190.24, -0.3929335, -0.17700197, -819594.06, -269661.4, 0.0, 9.999472, 9.99651 
2.5456038e+3, 2.538709e+2, -567580.1, -919489.44, 80239.23, -0.08303087, -0.25327557, -550148.2, -98097.42, 0.0, 10.000794, 9.996254 
2.5452122e+3, 2.6386067e+2, -276566.2, -508593.03, 42109.348, 0.16101812, -0.17988265, -269160.34, 84994.72, 0.0, 10.001176, 9.998233 
2.5448167e+3, 2.7385274e+2, -236101.44, -367058.75, -25598.227, 0.25852478, -0.14161748, -231275.6, 24957.078, 0.0, 10.000545, 9.998803 
2.54442e+3, 2.8384483e+2, -129418.87, -254300.89, 11657.984, 0.16539244, -0.01589503, -128339.9, 29966.557, 0.0, 10.000445, 9.998998 
2.5440216e+3, 2.9383585e+2, 126637.734, -6759.0195, -41104.656, -0.22784299, -0.17830856, 138286.44, 198673.2, 0.0, 10.001294, 9.99958 
2.5436285e+3, 3.0382514e+2, 42174.496, -231011.94, 75305.87, -0.12792997, -0.33738658, 61557.82, 61557.82, 0.0, 10.001216, 9.997815 
2.543237e+3, 3.1381413e+2, -183862.2, -173097.05, 91546.375, -0.10228369, -0.5238026, -86775.15, -86775.15, 0.0, 9.998789, 9.999357 
2.5607193e+3, 1.2437238e+2, -1629250.8, -1605260.4, -11861.707, -0.044034794, -0.31071004, -1600385.9, 120739.4, 0.26403108, 10.000253, 10.000793 
2.560331e+3, 1.3436534e+2, -1446388.4, -1518823.1, 35441.406, 0.18657832, -0.40201876, -1431932.4, 191261.86, 0.18292536, 10.001385, 10.000043 
2.5599366e+3, 1.4435887e+2, -1461719.3, -1696981.0, -128893.32, 0.03699758, -0.15814318, -1404849.4, 120412.46, 0.1037245, 10.001253, 9.998078 
2.5595397e+3, 1.5435126e+2, -1447589.8, -1634521.8, -149231.88, -0.049326867, -0.12027202, -1364970.4, 62375.59, 0.043632858, 10.000623, 9.998109 
2.5591433e+3, 1.6434304e+2, -1336650.5, -1331062.9, 6425.01, -0.11877136, -0.0402712, -1326850.5, 2577.8398, 0.011545959, 9.99991, 9.999858 
2.5587493e+3, 1.7433375e+2, -1195917.3, -1170850.8, -4110.243, -0.2165166, -0.32830378, -1170194.0, 61317.414, 0.0013158798, 10.000061, 10.000193 
2.5583562e+3, 1.8432592e+2, -1187560.0, -1213209.0, 3217.036, -0.19084422, -0.30508626, -1187162.8, -53577.016, 0.000016496271, 9.999806, 9.999399 
2.5579646e+3, 1.9431897e+2, -1131379.0, -1139737.4, -7023.54, -0.021506973, -0.2899044, -1127385.4, -91727.71, 0.0, 9.999559, 9.999345 
2.5575715e+3, 2.043114e+2, -1082900.5, -1123557.4, -69695.58, 0.10713181, -0.15459643, -1030629.25, -92897.04, 0.0, 9.99949, 9.998792 
2.557176e+3, 2.1430244e+2, -878430.56, -955428.1, -63400.508, 0.13246709, -0.28628576, -842755.3, -2939.325, 0.0, 10.000184, 9.998906 
2.5567806e+3, 2.2429314e+2, -948624.1, -1238262.1, -84662.49, 0.18866734, -0.18447904, -925692.5, -183783.63, 0.0, 10.000244, 9.996315 
2.5563848e+3, 2.342826e+2, -1016441.9, -1192728.9, -167717.9, 0.1935915, -0.23288141, -915116.2, -271095.7, 0.0, 9.99903, 9.99651 
2.5559896e+3, 2.4427351e+2, -762536.0, -682361.9, -15694.828, 0.05818567, -0.15772238, -679398.94, -133289.64, 0.0, 9.998564, 9.999619 
2.5555953e+3, 2.5426525e+2, -462637.7, -449379.75, 128591.96, -0.2594522, -0.33128044, -327246.0, 120934.4, 0.0, 9.999834, 9.999903 
2.5552016e+3, 2.642575e+2, -503326.75, -696128.3, -3562.8584, -0.23010226, -0.1671627, -503260.94, -153006.64, 0.0, 10.00013, 9.997365 
2.5548086e+3, 2.7424935e+2, -429871.53, -601937.5, -36473.504, 0.17718913, -0.06506932, -422459.4, -170118.83, 0.0, 9.999942, 9.997427 
2.5544137e+3, 2.8423953e+2, -293031.84, -451676.88, 18910.146, 0.22357693, -0.0046299356, -290808.94, -136368.42, 0.0, 9.99995, 9.997833 
2.5540164e+3, 2.9422817e+2, -27226.979, -235172.25, -8474.623, -0.16722228, -0.31615162, -26882.174, 29669.932, 0.0, 10.000978, 9.998118 
2.553625e+3, 3.042218e+2, 147744.6, 100952.266, -49408.625, 0.08994632, -0.065880015, 179016.45, 179016.45, 0.0, 10.000922, 10.000136 
2.5532317e+3, 3.1421274e+2, -180183.23, 73920.195, 144091.16, 0.15101366, -0.39560178, 138973.66, 138973.66, 0.0, 9.998029, 10.001299 
2.5707114e+3, 1.2476446e+2, -1577430.9, -1649111.6, -30199.867, -0.30484635, -0.22161384, -1566403.8, 150890.8, 0.23823552, 10.001074, 9.999943 
2.5703233e+3, 1.3475804e+2, -1697353.0, -1675838.8, -22630.852, 0.12465059, -0.20172983, -1661538.5, -42179.938, 0.16394834, 9.999531, 9.999697 
2.5699303e+3, 1.4475109e+2, -1735033.8, -1606819.9, -131459.94, 0.1259872, -0.08616081, -1524668.8, -3239.916, 0.09188186, 9.998297, 10.000126 
2.5695333e+3, 1.5474522e+2, -1442390.0, -1420907.9, -68665.38, 0.037307598, -0.04664809, -1362148.5, 61341.082, 0.03784501, 9.999676, 10.000077 
2.5691378e+3, 1.6473787e+2, -1167111.3, -1223624.1, 95886.2, -0.05752973, 0.005482237, -1095404.6, 230155.17, 0.009625426, 10.000949, 10.000104 
2.5687435e+3, 1.7472813e+2, -881562.44, -1050252.5, 111875.09, -0.2045055, -0.2863737, -825799.94, 401847.22, 0.0010124295, 10.002303, 9.999962 
2.5683504e+3, 1.8471974e+2, -815524.1, -1053950.9, -1766.8597, -0.22219492, -0.28740585, -815511.06, 314216.44, 0.000009793076, 10.00238, 9.999274 
2.5679576e+3, 1.9471239e+2, -911724.44, -1074132.5, -19474.854, -0.037703343, -0.24754633, -909421.8, 122382.984, 0.0, 10.001123, 9.999085 
2.5675637e+3, 2.0470488e+2, -909153.6, -984598.6, -90336.375, 0.054156974, -0.12623678, -848980.0, 84899.11, 0.0, 10.000341, 9.999362 
2.5671682e+3, 2.146968e+2, -811164.7, -904618.75, -76990.17, 0.060887694, -0.17451319, -767831.2, 68123.06, 0.0, 10.000432, 9.999193 
2.5667733e+3, 2.2468741e+2, -837831.56, -1181251.5, -78225.76, 0.11464853, -0.10640663, -820852.44, -82804.01, 0.0, 10.000835, 9.996465 
2.5663784e+3, 2.3467603e+2, -680048.94, -1077721.1, -37241.44, 0.24857454, -0.18149705, -676591.4, -36421.9, 0.0, 10.001363, 9.99624 
2.5659838e+3, 2.4466693e+2, -307143.38, -335454.3, 110664.586, 0.17427704, -0.1384391, -209732.6, 332525.9, 0.0, 10.001059, 10.000799 
2.5655887e+3, 2.5465995e+2, -377458.94, -312572.06, 46480.39, -0.18155138, -0.23424198, -288332.13, 155982.25, 0.0, 9.999896, 10.00084 
2.565194e+3, 2.646523e+2, -523194.3, -688425.06, -143955.53, -0.2589299, -0.14031519, -439832.28, -93447.68, 0.0, 9.999757, 9.997622 
2.5648007e+3, 2.746429e+2, -270706.2, -544005.9, -115399.56, 0.07464446, -0.14825372, -228497.88, 19983.975, 0.0, 10.000942, 9.997366 
2.5644067e+3, 2.8463298e+2, -145241.39, -404154.66, 18605.951, 0.18347773, -0.10291632, -143911.16, 6673.6514, 0.0, 10.000995, 9.997648 
2.5640115e+3, 2.9462245e+2, -215134.64, -415048.84, 18102.73, 0.02915917, -0.2466476, -213508.63, -160815.36, 0.0, 9.999947, 9.997405 
2.5636187e+3, 3.0461675e+2, -27221.203, 87154.96, -73382.24, 0.18595864, 0.0823466, 123001.445, 123001.445, 0.0, 9.999291, 10.000864 
2.5632206e+3, 3.1461215e+2, 29024.646, 375796.06, 25426.695, -0.060480874, 0.17805466, 377650.53, 377650.53, 0.0, 9.99838, 10.003259 
2.580709e+3, 1.2515916e+2, -1835654.4, -1817385.9, -4940.506, 0.04562749, 0.20735951, -1816135.4, -102697.36, 0.21373183, 9.999162, 9.999532 
2.5803158e+3, 1.351512e+2, -1654950.6, -1658498.8, -56940.934, 0.16378431, 0.010654744, -1599756.1, 15762.111, 0.14603193, 9.999804, 9.999695 
2.579923e+3, 1.4514379e+2, -1462729.5, -1276986.5, -39912.86, 0.30353206, -0.010442838, -1268773.1, 248817.22, 0.080827504, 9.999351, 10.001996 
2.5795272e+3, 1.5513931e+2, -1320067.3, -1189742.6, -78362.25, 0.22455566, -0.01853982, -1152989.4, 266641.53, 0.032553293, 9.999837, 10.001608 
2.5791323e+3, 1.6513279e+2, -1277532.9, -1299656.4, 96340.15, 0.08948243, 0.04988465, -1191621.5, 130068.23, 0.007938516, 10.000333, 9.999825 
2.5787386e+3, 1.7512354e+2, -1173483.5, -1246191.4, 89808.26, -0.1400791, -0.20030019, -1112950.3, 110823.47, 0.00076767127, 10.000576, 9.9994135 
2.5783452e+3, 1.85115e+2, -1116248.9, -1270523.8, -60621.656, -0.17776771, -0.15186219, -1095278.4, 30579.307, 0.000005913737, 10.00074, 9.998526 
2.577951e+3, 1.9510679e+2, -1154839.5, -1274226.8, -84643.48, -0.032976832, -0.16014574, -1110957.8, -83012.97, 0.0, 9.99996, 9.998209 
2.5775564e+3, 2.0509931e+2, -1010329.1, -1052934.3, -79575.2, 0.061802853, 0.02117296, -949254.44, -19234.176, 0.0, 9.99981, 9.99911 
2.5771612e+3, 2.1509162e+2, -926253.7, -999488.5, -86987.36, 0.10022669, -0.009654169, -868490.8, -36397.684, 0.0, 9.999871, 9.998787 
2.576766e+3, 2.2508252e+2, -916214.94, -1082416.9, -62569.066, 0.11919795, 0.060412776, -895293.56, -161110.56, 0.0, 9.999943, 9.997498 
2.5763705e+3, 2.3507129e+2, -819748.44, -1031618.7, -22856.158, 0.11194738, -0.13761353, -817310.75, -181013.5, 0.0, 10.00011, 9.997104 
2.5759766e+3, 2.4506235e+2, -599580.3, -649150.75, 64243.582, 0.11387811, -0.039118078, -555506.6, -17121.56, 0.0, 9.999952, 9.999122 
2.5755838e+3, 2.5505474e+2, -673320.1, -673142.3, 9576.463, 0.090254135, -0.054411285, -663654.4, -223199.67, 0.0, 9.998931, 9.998792 
2.5751886e+3, 2.6504546e+2, -598924.7, -628885.9, -113373.83, -0.027087705, -0.05268751, -499546.0, -157004.7, 0.0, 9.998933, 9.998409 
2.5747916e+3, 2.7503422e+2, -369493.25, -509126.0, -61009.797, -0.17755361, -0.3718375, -346592.2, -101943.95, 0.0, 10.000037, 9.998011 
2.5743976e+3, 2.85026e+2, -216212.13, -358573.3, -11941.715, -0.07780184, -0.21192922, -215217.36, -68487.59, 0.0, 10.000281, 9.998264 
2.5740057e+3, 2.950194e+2, -311899.72, -419034.47, 34200.43, 0.15130849, -0.050254405, -301912.9, -253113.25, 0.0, 9.999204, 9.997714 
2.5736082e+3, 3.0501053e+2, -298336.28, -286394.2, -64627.402, -0.027817382, 0.06417746, -227462.58, -227462.58, 0.0, 9.998589, 9.998603 
2.5732085e+3, 3.149999e+2, -216038.61, 126667.766, 133460.31, -0.51085377, -0.22859651, 172509.36, 172509.36, 0.0, 9.9974375, 10.001966 
2.5907007e+3, 1.2555069e+2, -1854250.8, -1640731.6, 86532.35, -0.010909005, -0.06341703, -1610066.9, 99532.57, 0.19077115, 9.998182, 10.001371 
2.5903088e+3, 1.3554561e+2, -1530570.9, -1536588.0, 94343.37, 0.13136211, 0.0019695638, -1439188.1, 172461.27, 0.12932457, 10.0004225, 10.000338 
2.589915e+3, 1.4553797e+2, -1347974.0, -1341301.9, -3468.7813, 0.1866057, -0.005792027, -1339825.3, 173899.52, 0.07062259, 10.000727, 10.000853 
2.5895196e+3, 1.555319e+2, -1299224.1, -1308937.4, -62827.758, 0.12609257, -0.023523828, -1241065.6, 174719.38, 0.027766839, 10.000512, 10.000447 
2.5891247e+3, 1.6552527e+2, -1288110.3, -1238150.1, 16003.268, 0.0070793238, 0.05185224, -1233463.6, 84383.08, 0.0064744665, 9.999887, 10.000498 
2.5887316e+3, 1.7551741e+2, -1397960.1, -1310093.4, 51981.684, -0.111404166, -0.08913367, -1285966.1, -66048.33, 0.0005723583, 9.998705, 9.99993 
2.588338e+3, 1.8550937e+2, -1352141.6, -1313299.6, -61117.832, -0.112082034, -0.053710416, -1268591.4, -146595.6, 0.0000035552432, 9.99875, 9.999207 
2.5879437e+3, 1.9550075e+2, -1147725.0, -1223864.9, -21858.738, -0.032039445, -0.12582697, -1141895.9, -117811.92, 0.0, 9.999676, 9.998735 
2.587549e+3, 2.0549266e+2, -852760.75, -983367.7, -10651.045, 0.017027518, -0.031387556, -851897.9, 74267.48, 0.0, 10.000845, 9.999135 
2.587155e+3, 2.1548477e+2, -588326.6, -864837.5, -18331.752, 0.07513024, -0.012834704, -587116.6, 241126.67, 0.0, 10.002173, 9.9986725 
2.5867596e+3, 2.2547616e+2, -534172.9, -754626.6, -71496.75, 0.08979701, 0.042582523, -513015.75, 217311.69, 0.0, 10.00184, 9.9988575 
2.586363e+3, 2.354665e+2, -709596.75, -864631.3, -15779.795, 0.06613235, -0.080865204, -708007.0, -75584.83, 0.0, 10.000241, 9.998234 
2.585969e+3, 2.4545759e+2, -658187.25, -775608.4, 85684.01, 0.077681944, 0.0045606093, -613029.25, -78518.34, 0.0, 9.999867, 9.998326 
2.5855765e+3, 2.5544897e+2, -516599.4, -700952.0, 49407.67, 0.13590552, 0.022885764, -504192.78, -67595.04, 0.0, 10.000351, 9.997941 
2.5851813e+3, 2.6543942e+2, -313411.0, -378626.7, -27191.922, 0.010805345, -0.009630586, -303560.94, 35126.54, 0.0, 10.000348, 9.999467 
2.5847837e+3, 2.7542865e+2, -311868.0, -391926.4, -11640.265, -0.2277234, -0.31638238, -310209.88, -69425.01, 0.0, 9.999938, 9.998924 
2.5843903e+3, 2.85421e+2, -253716.97, -245336.94, -12708.976, -0.075275846, -0.21156625, -236145.1, -93287.35, 0.0, 9.999351, 9.999525 
2.5839987e+3, 2.954153e+2, -362449.2, -354096.84, -4660.986, 0.32721525, -0.03177211, -352014.8, -307097.78, 0.0, 9.998328, 9.998633 
2.5835985e+3, 3.0540502e+2, -247293.89, -389438.84, 9980.549, -0.12314389, -0.045495987, -246596.55, -246596.55, 0.0, 9.999444, 9.997508 
2.5832072e+3, 3.1539032e+2, -34950.96, -169290.77, 229250.89, 0.22244866, -0.5581437, 136767.73, 136767.73, 0.0, 10.000153, 9.998702 
2.6006934e+3, 1.259443e+2, -1689650.8, -1663642.8, 71597.09, 0.08724481, -0.21830496, -1603878.3, 101862.375, 0.16949552, 9.999891, 10.000342 
2.6003015e+3, 1.3593967e+2, -1532950.6, -1589636.6, 30087.332, 0.12675798, -0.10331057, -1519958.8, 87824.05, 0.11391175, 10.000648, 9.999812 
2.5999072e+3, 1.4593236e+2, -1491563.4, -1541255.6, -51089.715, 0.10034994, 0.005740224, -1459598.5, 50257.69, 0.061296463, 10.000393, 9.999475 
2.5995114e+3, 1.5592436e+2, -1522556.8, -1611190.1, -84648.086, 0.04764541, -0.07312475, -1471326.3, -59386.344, 0.023481611, 9.999876, 9.998623 
2.599117e+3, 1.6591762e+2, -1283535.6, -1168452.3, 9216.748, 0.014377233, 0.05037472, -1167718.8, 146286.31, 0.005220199, 9.999667, 10.001098 
2.598724e+3, 1.759113e+2, -1367901.1, -1269279.4, -3072.451, 0.019400384, 0.0031668397, -1269183.8, -53122.08, 0.00041937284, 9.998842, 10.000163 
2.5983304e+3, 1.8590367e+2, -1289304.1, -1210267.6, -23206.775, 0.019869838, 0.034708194, -1203957.4, -85823.69, 0.0000020172258, 9.998936, 9.999782 
2.597936e+3, 1.9589439e+2, -1234663.6, -1252276.6, -16473.223, 0.013496046, -0.18134433, -1224790.8, -204567.03, 0.0, 9.999091, 9.998793 
2.597542e+3, 2.0588577e+2, -1019246.44, -1087489.0, 26320.88, 0.03040445, -0.12371857, -1010274.25, -87963.95, 0.0, 9.999948, 9.9987955 
2.5971493e+3, 2.1587728e+2, -915526.3, -1076623.8, 6417.145, 0.07524254, -0.15817451, -915271.06, -90873.484, 0.0, 10.000318, 9.998057 
2.5967535e+3, 2.2586969e+2, -672411.3, -716595.75, -134803.2, 0.07532482, -0.015928684, -557902.06, 168568.9, 0.0, 10.000542, 9.999709 
2.5963554e+3, 2.3586193e+2, -860834.7, -889865.06, -86722.15, 0.06412084, -0.06387043, -787421.4, -158878.69, 0.0, 9.999098, 9.998578 
2.5959608e+3, 2.4585319e+2, -854768.7, -951895.56, 89108.81, 0.024465878, 0.067164235, -801849.2, -271217.3, 0.0, 9.998989, 9.997504 
2.5955674e+3, 2.5584313e+2, -771470.4, -936263.6, 60614.195, -0.053000122, -0.004449334, -751576.8, -318837.94, 0.0, 9.99917, 9.996886 
2.5951725e+3, 2.6583433e+2, -427715.44, -395384.7, -54915.938, -0.11794996, 0.07107246, -354304.28, -19481.441, 0.0, 9.999527, 9.999704 
2.594777e+3, 2.7582568e+2, -450886.47, -462245.97, -27395.932, -0.1476028, -0.07788823, -428587.72, -191690.1, 0.0, 9.999083, 9.998842 
2.594384e+3, 2.858173e+2, -340556.97, -229098.19, -79580.85, 0.11911437, -0.063758746, -187673.7, -48697.52, 0.0, 9.9986, 9.999982 
2.593991e+3, 2.9580906e+2, -531107.06, -426915.0, -52960.21, 0.4643275, -0.20075169, -404722.53, -363664.4, 0.0, 9.997261, 9.998625 
2.5935897e+3, 3.057971e+2, -325594.4, -444977.06, 64113.453, -0.22571646, -0.37434337, -297686.7, -297686.7, 0.0, 9.999135, 9.997206 
2.593199e+3, 3.1579322e+2, 93331.49, 197196.64, 253621.75, -0.065891, 0.18452135, 404148.2, 404148.2, 0.0, 9.9998865, 10.0013 
2.6106843e+3, 1.2633926e+2, -1490426.6, -1467475.0, -45873.043, -0.30910632, 0.09477892, -1431664.1, 270214.28, 0.14988421, 10.000898, 10.001431 
2.6102936e+3, 1.3633168e+2, -1467393.4, -1536709.6, -13481.264, -0.06875143, -0.1113607, -1464863.8, 139079.48, 0.09979623, 10.000972, 10.000085 
2.6098993e+3, 1.463248e+2, -1450793.6, -1413061.4, -92829.27, -0.019260442, -0.031062886, -1337200.5, 168809.53, 0.05285716, 10.000178, 10.000509 
2.6095033e+3, 1.5631756e+2, -1507027.4, -1532397.4, -35051.484, -0.045218553, -0.087707296, -1482436.1, -74351.07, 0.019694533, 9.999592, 9.999346 
2.609109e+3, 1.6631053e+2, -1232149.6, -1142394.9, 62646.6, -0.05859747, -0.027702883, -1110210.1, 199942.3, 0.004163879, 9.999985, 10.00112 
2.6087162e+3, 1.763035e+2, -1118092.3, -1155424.4, 44808.008, -0.06424421, -0.118721195, -1088217.9, 123998.08, 0.00030229846, 10.000555, 10.00012 
2.6083228e+3, 1.8629594e+2, -996481.0, -1039272.5, -16717.361, -0.03674435, -0.094386704, -990724.44, 123562.7, 0.0000010444409, 10.000716, 10.000145 
2.6079288e+3, 1.9628744e+2, -1020238.5, -1127177.9, -2256.1162, -0.0124681145, -0.22656916, -1020190.94, -3821.8657, 0.0, 10.000321, 9.999111 
2.6075345e+3, 2.0627953e+2, -989640.44, -1064073.4, 20286.623, -0.03461396, -0.13159725, -984470.44, -66020.56, 0.0, 9.999964, 9.998995 
2.6071402e+3, 2.1627156e+2, -1028504.06, -1128718.0, 18767.203, -0.084404364, -0.09529124, -1025104.8, -204570.88, 0.0, 9.999353, 9.998209 
2.606745e+3, 2.2626327e+2, -768459.94, -787581.3, -148001.88, -0.011606025, -0.029733673, -629710.25, 92904.45, 0.0, 9.999852, 9.999608 
2.606349e+3, 2.3625466e+2, -606616.25, -783415.5, -157865.03, 0.124253504, -0.11513758, -514085.34, 110609.336, 0.0, 10.000726, 9.9985895 
2.6059538e+3, 2.4624626e+2, -562336.7, -717734.2, 24447.975, 0.08317272, -0.013589736, -558581.2, -31801.432, 0.0, 10.000523, 9.998386 
2.6055595e+3, 2.5623733e+2, -598965.3, -785457.75, 64451.793, -0.06433806, -0.007868528, -578858.56, -149983.66, 0.0, 9.999909, 9.997617 
2.6051646e+3, 2.6622874e+2, -388331.75, -332202.2, -5194.1724, -0.1427924, 0.024304194, -331725.56, -768.8303, 0.0, 9.999494, 10.000205 
2.6047692e+3, 2.7622017e+2, -417834.56, -412675.97, -1423.1862, -0.11562015, -0.10709711, -412309.38, -179278.38, 0.0, 9.999038, 9.999241 
2.6043755e+3, 2.8621235e+2, -304432.63, -263503.72, -83241.97, 0.15079223, -0.035510916, -198247.6, -63141.08, 0.0, 9.999027, 9.999538 
2.6039818e+3, 2.962046e+2, -312857.1, -384916.34, -118807.25, 0.47591507, -0.036739398, -224736.42, -187550.61, 0.0, 9.998926, 9.998136 
2.603582e+3, 3.061895e+2, -223619.55, -408750.7, 77340.914, -0.18688072, -0.51275223, -195561.73, -195561.73, 0.0, 9.999686, 9.997251 
2.6031932e+3, 3.161858e+2, 257702.36, 449443.03, -5758.6074, 0.062665, 0.06728526, 449615.84, 449615.84, 0.0, 10.000105, 10.002942 
2.620676e+3, 1.2673296e+2, -1443760.5, -1354821.9, 71700.56, -0.5391721, 0.22944659, -1314920.0, 383106.88, 0.13183987, 10.000978, 10.002142 
2.6202857e+3, 1.3672471e+2, -1637452.4, -1569359.6, 25215.336, -0.14404386, -0.10858613, -1561039.0, 39054.79, 0.08692974, 9.999583, 10.000453 
2.6198915e+3, 1.46718e+2, -1489995.4, -1359049.9, -32594.695, -0.028650561, -0.061317258, -1351385.1, 150771.28, 0.045284748, 9.999497, 10.00125 
2.6194954e+3, 1.5671164e+2, -1475536.0, -1460168.0, -24733.193, -0.037616026, -0.11200245, -1441952.8, -37731.645, 0.01638905, 9.999557, 9.999885 
2.6191014e+3, 1.667042e+2, -1252956.6, -1198793.8, 115070.69, -0.07138061, -0.09328, -1107660.8, 198630.75, 0.0032885466, 10.000118, 10.000645 
2.618709e+3, 1.766958e+2, -1230557.6, -1284524.8, 58061.734, -0.09886399, -0.27887386, -1193515.5, 14852.568, 0.00021471751, 10.000147, 9.999437 
2.6183158e+3, 1.8668818e+2, -1054975.9, -1062062.6, -35490.586, -0.0515547, -0.23782216, -1022852.2, 87588.2, 0.00000047553752, 10.000329, 10.000164 
2.6179215e+3, 1.9668084e+2, -1187828.6, -1243466.0, -57001.742, 0.034316804, -0.27220866, -1152219.6, -139707.88, 0.0, 9.999408, 9.99875 
2.617526e+3, 2.06674e+2, -1067814.4, -1084194.5, -20059.934, -0.0779974, -0.06229923, -1054337.0, -139753.73, 0.0, 9.999444, 9.999069 
2.61713e+3, 2.1666689e+2, -1215649.8, -1262582.4, -20039.715, -0.28004378, 0.028968152, -1208257.4, -391597.6, 0.0, 9.998368, 9.99775 
2.616736e+3, 2.2665718e+2, -937046.1, -941092.56, -109403.9, -0.10767306, 0.018832466, -829646.75, -110890.555, 0.0, 9.999171, 9.998821 
2.616343e+3, 2.3664603e+2, -898681.9, -1008673.6, -117338.17, 0.24132119, -0.26367855, -824090.75, -203227.16, 0.0, 9.999262, 9.997704 
2.615948e+3, 2.4663833e+2, -601363.56, -569878.75, 17613.02, 0.20548278, -0.13552241, -561998.25, -39059.35, 0.0, 9.999677, 9.999747 
2.6155525e+3, 2.566319e+2, -730679.6, -753092.56, 40482.85, -0.0150310015, -0.032850698, -699880.75, -274878.06, 0.0, 9.99873, 9.998367 
2.615156e+3, 2.6662302e+2, -471404.34, -338087.25, -27813.553, -0.166432, -0.08063439, -332517.28, -5431.3013, 0.0, 9.99886, 10.000417 
2.614759e+3, 2.7661255e+2, -594183.75, -553703.2, -6477.532, -0.281437, -0.45400858, -552691.94, -323510.3, 0.0, 9.998165, 9.998656 
2.614364e+3, 2.866069e+2, -492766.44, -505998.28, -80576.9, -0.15938395, -0.05128405, -418534.3, -287292.2, 0.0, 9.998542, 9.998042 
2.6139697e+3, 2.9660308e+2, -526610.6, -679212.1, -81464.984, 0.08765012, 0.46353677, -491294.44, -458003.7, 0.0, 9.9984, 9.9963455 
2.6135764e+3, 3.0658495e+2, -338774.84, -479921.56, 75026.766, -0.0034382148, -0.22919239, -306345.22, -306345.22, 0.0, 9.999054, 9.997048 
2.6131853e+3, 3.165808e+2, -33276.05, 122005.125, -6033.877, -0.10469352, 0.3137635, 122239.234, 122239.234, 0.0, 9.99907, 10.001181 
2.6306733e+3, 1.2712862e+2, -1486044.0, -1410662.5, 53442.395, -0.2665521, 0.05938769, -1382956.9, 311188.66, 0.11528824, 10.000793, 10.001756 
2.6302785e+3, 1.3712159e+2, -1794709.4, -1678844.5, 85507.234, -0.12789087, -0.11292477, -1633492.6, -37290.62, 0.07524984, 9.998573, 10.000202 
2.6298827e+3, 1.4711474e+2, -1603988.8, -1442712.1, 94103.99, -0.14405447, -0.04275819, -1399422.6, 98843.92, 0.038529176, 9.99884, 10.000983 
2.629487e+3, 1.5710759e+2, -1375177.0, -1439461.1, 102075.16, -0.18571873, -0.12618268, -1300302.9, 100035.83, 0.013527696, 10.000311, 9.999692 
2.629095e+3, 1.6710012e+2, -1164140.6, -1251604.8, 157592.92, -0.07315538, -0.05243689, -1044324.5, 258087.0, 0.0025719018, 10.001038, 9.999895 
2.6287043e+3, 1.7709228e+2, -1157016.4, -1333652.4, 106259.31, 0.060015485, -0.08496376, -1107163.8, 97322.22, 0.00015054179, 10.000889, 9.998789 
2.6283097e+3, 1.8708342e+2, -1069978.6, -1205396.1, -62921.07, 0.057217296, -0.075485304, -1045256.1, 61316.914, 0.0000001940375, 10.000718, 9.99903 
2.627914e+3, 1.9707403e+2, -1133766.1, -1273275.3, -96274.8, -0.027319647, -0.19234952, -1084632.0, -75965.9, 0.0, 9.999868, 9.998374 
2.6275188e+3, 2.0706709e+2, -900703.4, -853119.25, -36892.04, -0.048748877, -0.065498866, -833012.75, 77721.44, 0.0, 9.99991, 10.000445 
2.6271245e+3, 2.170609e+2, -805600.5, -921127.8, 25867.434, -0.0790187, 0.014542226, -800073.06, 12722.322, 0.0, 10.000449, 9.999119 
2.6267296e+3, 2.2705194e+2, -724369.56, -830638.4, -32031.963, 0.013517102, 0.012548974, -715461.1, -576.5945, 0.0, 10.000494, 9.998974 
2.6263347e+3, 2.3704152e+2, -722258.4, -884189.0, 8005.848, 0.18566513, -0.1736437, -721863.56, -104875.586, 0.0, 10.000149, 9.998168 
2.6259398e+3, 2.470335e+2, -539690.6, -545709.94, 82561.87, 0.14749305, -0.09263741, -460083.56, 58983.152, 0.0, 10.0, 9.99981 
2.6255444e+3, 2.5702667e+2, -546406.7, -623038.0, 31729.252, -0.012647529, -0.013368285, -534974.6, -113841.27, 0.0, 9.999673, 9.998843 
2.6251483e+3, 2.6701763e+2, -412128.2, -364342.53, -93545.39, -0.12371017, -0.07749834, -291686.88, 31532.469, 0.0, 9.99939, 10.000027 
2.624751e+3, 2.7700737e+2, -465481.6, -500866.88, -128324.89, -0.21085873, -0.3715272, -353635.4, -128318.95, 0.0, 9.998932, 9.998697 
2.6243556e+3, 2.870016e+2, -265782.56, -403116.47, -91666.52, -0.18007626, -0.0007073523, -219916.13, -92538.34, 0.0, 9.9999895, 9.998113 
2.6239607e+3, 2.9699796e+2, -63374.516, -416591.5, -4101.087, -0.05825206, 0.5585126, -63326.906, -33903.477, 0.0, 10.001296, 9.996805 
2.62357e+3, 3.0698007e+2, -86368.08, -380461.13, 158889.05, 0.11989266, -0.1285598, -16923.473, -16923.473, 0.0, 10.000808, 9.996928 
2.6231772e+3, 3.1696808e+2, -163921.36, 116274.19, 89387.53, -0.009663985, -0.29163346, 142361.6, 142361.6, 0.0, 9.997737, 10.001855 
2.6406705e+3, 1.2752569e+2, -1538413.1, -1509301.6, 31108.836, 0.11698763, -0.06557541, -1489511.6, 200736.97, 0.10017185, 10.000706, 10.001038 
2.640271e+3, 1.3751934e+2, -1438453.0, -1589967.5, -3043.2314, -0.03315507, -0.10145377, -1438391.9, 153908.89, 0.06469282, 10.001524, 9.999389 
2.639874e+3, 1.4751194e+2, -1324189.8, -1400999.5, 85917.36, -0.1634261, -0.016619308, -1268484.4, 225887.9, 0.032530583, 10.001265, 10.000061 
2.6394796e+3, 1.5750343e+2, -1430722.6, -1594711.9, 27379.67, -0.23228647, -0.15921009, -1426272.0, -29813.723, 0.011066901, 10.000531, 9.998491 
2.6390892e+3, 1.6749637e+2, -1196977.1, -1335763.8, 98313.31, 0.009294557, 0.021053622, -1146033.6, 152495.84, 0.0019930317, 10.001159, 9.999213 
2.6387003e+3, 1.7748961e+2, -1256346.5, -1533607.5, 54495.03, 0.33004552, 0.1645721, -1246020.1, -45422.92, 0.00010503105, 10.000895, 9.9974165 
2.6383045e+3, 1.874794e+2, -1171131.4, -1368284.3, -64390.234, 0.20776515, 0.15568659, -1151964.8, -49264.65, 0.00000008640195, 10.000722, 9.997793 
2.6379055e+3, 1.9746773e+2, -1264176.4, -1438400.5, -78664.6, -0.05503781, -0.08206698, -1233914.5, -229097.02, 0.0, 9.999574, 9.997325 
2.6375124e+3, 2.074604e+2, -794148.0, -616824.4, 27400.53, 0.080359444, -0.057741806, -612686.94, 294196.78, 0.0, 9.99988, 10.002072 
2.6371217e+3, 2.1745467e+2, -940674.9, -888512.4, 29812.69, 0.36594525, -0.10341134, -874982.6, -66051.3, 0.0, 9.999159, 9.999974 
2.6367247e+3, 2.274477e+2, -825695.4, -825852.2, -46544.24, 0.24740258, 0.031128772, -779229.44, -68228.92, 0.0, 9.999647, 9.999369 
2.6363254e+3, 2.374399e+2, -969711.3, -1046046.6, -6698.258, 0.0085849045, 0.045070305, -969128.0, -356046.34, 0.0, 9.998721, 9.997737 
2.63593e+3, 2.4743098e+2, -711790.5, -723566.4, 62835.8, -0.055817865, 0.10376307, -654567.4, -139395.25, 0.0, 9.999323, 9.998877 
2.635536e+3, 2.5742155e+2, -828591.94, -911009.4, 12140.6875, -0.07775333, -0.0069718403, -826840.75, -409573.5, 0.0, 9.998487, 9.997432 
2.635141e+3, 2.6741296e+2, -594107.94, -565656.44, -120246.52, -0.0156086795, 0.09056708, -458797.1, -139443.8, 0.0, 9.998766, 9.998891 
2.6347452e+3, 2.7740452e+2, -723532.9, -747076.94, -128438.51, 0.07395344, 0.069020644, -606328.06, -384890.34, 0.0, 9.997803, 9.997543 
2.6343504e+3, 2.8739575e+2, -245187.3, -212407.44, -42063.063, 0.06057435, 0.09014972, -183653.92, -60134.094, 0.0, 9.999448, 9.999644 
2.6339552e+3, 2.9738712e+2, -105172.19, -326392.13, 38253.766, -0.060262337, -0.022258738, -98744.06, -73144.02, 0.0, 10.000632, 9.997727 
2.6335612e+3, 3.0737475e+2, -89475.336, -316492.6, 96335.78, -0.10296919, -0.23795582, -54105.516, -54105.516, 0.0, 10.00064, 9.997372 
2.633166e+3, 3.1736884e+2, -368101.1, -87696.86, -70293.414, -0.21500756, 0.1364023, -71062.125, -71062.125, 0.0, 9.9969425, 10.000779 
2.650663e+3, 1.2792556e+2, -1632704.0, -1666665.0, 126406.41, -0.11931663, 0.030230911, -1522142.8, 164180.17, 0.08643013, 10.000518, 9.999968 
2.6502675e+3, 1.3791613e+2, -1116078.1, -1610252.0, 105934.09, -0.074446395, -0.1770513, -1094326.8, 494082.88, 0.055199515, 10.004557, 9.997839 
2.6498705e+3, 1.479067e+2, -1151605.6, -1632057.4, -9686.065, -0.12937035, -0.06617657, -1151410.5, 339094.8, 0.027235242, 10.003793, 9.997255 
2.6494744e+3, 1.5789665e+2, -1423685.0, -1765110.5, -63765.023, -0.18927561, -0.09443381, -1412164.9, -19554.992, 0.0089680515, 10.001252, 9.996985 
2.649083e+3, 1.6788903e+2, -1068140.0, -1153592.0, 56758.58, -0.0627176, 0.005881217, -1039823.4, 254861.23, 0.0015322798, 10.001596, 10.000215 
2.648693e+3, 1.7788194e+2, -967151.1, -1249777.3, 45728.73, 0.083525635, 0.03006624, -959936.44, 236815.89, 0.00007382683, 10.002201, 9.9987335 
2.6482967e+3, 1.8787327e+2, -852911.8, -1052080.4, -27573.45, -0.0031579204, 0.03453509, -849164.94, 249671.66, 0.000000036839044, 10.00215, 9.99931 
2.647898e+3, 1.9786386e+2, -856380.2, -1087171.1, 78132.305, -0.20895608, -0.086140156, -832417.2, 168511.2, 0.0, 10.001607, 9.998775 
2.6475045e+3, 2.0785595e+2, -649006.9, -605866.4, 124951.39, -0.024187537, -0.13506022, -500637.1, 402362.56, 0.0, 10.001049, 10.001608 
2.6471132e+3, 2.178488e+2, -796111.3, -820744.44, 61702.45, 0.25817513, -0.2527687, -745508.2, 59553.637, 0.0, 10.000047, 10.000036 
2.646716e+3, 2.2784163e+2, -756328.7, -785453.6, -38024.906, 0.15459226, -0.1500901, -730173.1, -23040.057, 0.0, 9.999979, 9.999544 
2.6463166e+3, 2.3783433e+2, -696479.8, -863464.7, 2332.0598, -0.09381516, -0.07544784, -696447.25, -87238.26, 0.0, 10.000202, 9.998332 
2.6459223e+3, 2.4782568e+2, -581915.5, -665479.1, 93898.78, -0.045049142, -0.019234477, -520922.3, -9625.372, 0.0, 10.000106, 9.998965 
2.6455295e+3, 2.5781628e+2, -606350.4, -801985.4, 95889.45, 0.08530874, -0.08332284, -567189.6, -153797.55, 0.0, 9.999824, 9.997592 
2.6451343e+3, 2.678077e+2, -317598.9, -545366.44, 11582.708, 0.09140229, 0.06747773, -317011.4, -1528.3812, 0.0, 10.001044, 9.997971 
2.644739e+3, 2.7779946e+2, -37641.492, -405963.44, -5597.062, 0.14178571, 0.18900147, -37556.457, 180014.0, 0.0, 10.002319, 9.997742 
2.6443434e+3, 2.8778943e+2, 57440.77, 47462.36, 44882.406, 0.108734295, 0.0042713983, 97610.42, 217271.5, 0.0, 10.000903, 10.0007715 
2.6439473e+3, 2.977789e+2, -297255.25, -282628.94, 81665.586, -0.08085432, -0.36873335, -207949.7, -186197.56, 0.0, 9.998555, 9.999058 
2.6435536e+3, 3.0777073e+2, -257092.16, -298226.03, 108609.266, -0.10691415, -0.27431038, -167119.64, -167119.64, 0.0, 9.998909, 9.998388 
2.643161e+3, 3.1776673e+2, 161229.7, 375940.13, -210275.7, 0.21367258, 0.20781486, 504680.25, 504680.25, 0.0, 9.999447, 10.002819 
2.6606548e+3, 1.2832418e+2, -1934600.0, -1902444.8, 163365.11, -0.20876303, 0.08766718, -1754368.0, -71957.695, 0.073999934, 9.998782, 9.99908 
2.6602644e+3, 1.3831277e+2, -1450018.9, -2001019.6, 55089.004, -0.04080816, -0.25385833, -1444565.0, 139956.08, 0.04671151, 10.003069, 9.995857 
2.6598674e+3, 1.483018e+2, -1395297.9, -1991933.8, -71572.99, -0.026178936, -0.083653316, -1386832.0, 99803.02, 0.022592498, 10.003227, 9.995036 
2.6594698e+3, 1.5829068e+2, -1528864.8, -1970179.8, -5653.9673, -0.016874228, 0.0025602127, -1528792.4, -140040.44, 0.0071954923, 10.00128, 9.995576 
2.6590768e+3, 1.6828172e+2, -1088379.8, -1070913.1, 193239.05, -0.08719459, -0.030235903, -886210.1, 404627.5, 0.001170623, 10.001095, 10.001018 
2.658685e+3, 1.7827363e+2, -1187420.1, -1236619.0, 86425.336, -0.14824665, -0.19717865, -1122161.5, 70749.85, 0.00005271245, 10.000288, 9.999728 
2.6582885e+3, 1.882671e+2, -865350.44, -820493.1, -34074.67, -0.2208033, -0.15975165, -802128.06, 292841.66, 0.000000014947995, 10.001083, 10.001401 
2.6578912e+3, 1.9826092e+2, -1003659.1, -1081175.0, 23393.326, -0.2682334, -0.15567797, -997146.5, -122.09133, 0.0, 10.000356, 9.999422 
2.657496e+3, 2.0825249e+2, -857755.8, -833301.0, 63405.535, -0.19142742, -0.21779087, -780954.7, 118147.7, 0.0, 10.000345, 10.000283 
2.657102e+3, 2.1824327e+2, -1139807.1, -1161912.6, 9314.462, -0.05402896, -0.4267315, -1136405.8, -335217.22, 0.0, 9.998631, 9.998314 
2.6567057e+3, 2.2823478e+2, -823346.94, -805069.5, -28631.75, -0.066666625, -0.40104887, -784153.4, -80881.35, 0.0, 9.999619, 9.99949 
2.656309e+3, 2.3822662e+2, -878119.94, -982471.0, -2505.0037, -0.110484645, -0.43616644, -878059.8, -272705.53, 0.0, 9.999246, 9.997935 
2.6559165e+3, 2.4821912e+2, -613619.06, -610462.06, 65642.39, 0.12364801, -0.29802778, -546379.2, -38950.625, 0.0, 9.999692, 9.999496 
2.6555246e+3, 2.5821143e+2, -856408.4, -973715.75, 97608.22, 0.36734784, -0.25303978, -801186.56, -391681.7, 0.0, 9.998486, 9.997023 
2.655128e+3, 2.682021e+2, -495346.44, -703003.3, 75596.67, 0.12579395, -0.10946568, -470741.22, -159135.19, 0.0, 10.000343, 9.997125 
2.6547304e+3, 2.781923e+2, -251702.16, -580333.94, 32559.62, -0.17823169, -0.08738498, -248507.33, -34794.34, 0.0, 10.001343, 9.996963 
2.6543343e+3, 2.8818336e+2, 29346.834, 119251.7, -46790.953, -0.17882763, -0.19529197, 139184.66, 254978.83, 0.0, 10.000512, 10.001367 
2.6539367e+3, 2.9817495e+2, -498510.16, -374408.66, 50679.125, -0.25915045, -0.42027262, -356342.8, -338477.56, 0.0, 9.997317, 9.998984 
2.6535463e+3, 3.081679e+2, -316872.78, -239194.0, 155947.11, 0.06902019, -0.2604389, -117322.48, -117322.48, 0.0, 9.998242, 9.9990425 
2.6531544e+3, 3.181623e+2, 202340.38, 617769.8, -185166.08, 0.29881358, -0.073461, 688320.94, 688320.94, 0.0, 9.998922, 10.004692 
2.6706457e+3, 1.2871504e+2, -2108856.8, -1868703.8, 159806.92, -0.30544525, -0.10828322, -1788888.8, -110311.01, 0.062782116, 9.99708, 10.000156 
2.670257e+3, 1.3870743e+2, -1521698.6, -1831806.4, 87270.19, -0.2980045, -0.16801338, -1498826.1, 81829.38, 0.039146993, 10.001634, 9.997742 
2.669862e+3, 1.486981e+2, -1264368.0, -1579143.3, -45920.82, -0.13653247, -0.110475026, -1257805.8, 224939.17, 0.018543638, 10.00266, 9.998143 
2.6694652e+3, 1.5868813e+2, -1275185.1, -1659089.0, 183346.94, 0.033333044, -0.1561769, -1201690.9, 183149.58, 0.005710664, 10.002156, 9.997307 
2.669071e+3, 1.6867898e+2, -1196118.3, -1286855.9, 318275.28, -0.027322387, -0.15749227, -919994.5, 366936.4, 0.0008890518, 10.000961, 9.999624 
2.6686776e+3, 1.7867029e+2, -1394369.0, -1421879.8, 186905.38, -0.16600901, -0.23205398, -1220713.5, -31696.803, 0.000037964888, 9.999133, 9.999019 
2.6682818e+3, 1.8866277e+2, -1087196.5, -980075.25, 19268.283, -0.16467066, -0.23278223, -976714.8, 114372.73, 0.0000000057994387, 9.999724, 10.000984 
2.6678854e+3, 1.9865562e+2, -989625.06, -1063317.8, -20666.5, -0.14730664, -0.27904308, -984225.0, 8928.579, 0.0, 10.000286, 9.9995985 
2.6674896e+3, 2.0864801e+2, -840685.44, -831337.0, -2861.785, -0.1533567, -0.2650004, -830530.5, 64694.875, 0.0, 10.000442, 10.000294 
2.6670936e+3, 2.186398e+2, -837691.6, -975829.4, 12679.64, -0.17530362, -0.34666556, -836537.4, -39233.766, 0.0, 10.000375, 9.998796 
2.666698e+3, 2.2863123e+2, -548732.56, -685370.3, 24662.838, -0.1450346, -0.34387356, -544417.25, 154970.39, 0.0, 10.001453, 9.999487 
2.6663032e+3, 2.3862258e+2, -337577.97, -699599.8, 25462.064, -0.09111809, -0.3898562, -335795.9, 265676.97, 0.0, 10.002708, 9.998249 
2.66591e+3, 2.4861401e+2, -212702.47, -449613.56, -3837.7517, 0.12248242, -0.35505262, -212640.33, 290915.63, 0.0, 10.002489, 9.999282 
2.665517e+3, 2.5860566e+2, -354272.0, -682019.75, -12018.973, 0.3255312, -0.3511074, -353831.84, 51805.727, 0.0, 10.001588, 9.99755 
2.6651207e+3, 2.685968e+2, -432981.4, -657601.44, 38501.855, 0.08194469, -0.20369256, -426565.16, -118830.02, 0.0, 10.000545, 9.997413 
2.6647234e+3, 2.7858746e+2, -455037.16, -581037.3, 28088.611, -0.21688172, -0.14719997, -449059.13, -239220.36, 0.0, 9.999369, 9.997953 
2.6643264e+3, 2.8857985e+2, -128414.23, 73046.09, -87769.2, -0.1706122, -0.17711563, 105919.82, 217828.03, 0.0, 9.999201, 10.001762 
2.6639286e+3, 2.9857278e+2, -236308.34, -162724.17, -2186.8035, -0.11668437, -0.28139627, -162659.25, -148690.7, 0.0, 9.998593, 9.9998865 
2.6635382e+3, 3.085649e+2, -291105.0, -143866.73, 162467.45, 0.15814614, -0.28068754, -39117.008, -39117.008, 0.0, 9.998006, 9.99985 
2.6631445e+3, 3.1855872e+2, 42819.395, 622807.25, -223626.47, 0.18956187, -0.19873177, 699017.2, 699017.2, 0.0, 9.997291, 10.00557 
2.6806384e+3, 1.2910599e+2, -1678698.3, -1622354.8, 323473.6, -0.13766935, -0.22576438, -1325828.4, 348917.25, 0.05267765, 9.999917, 10.000555 
2.68025e+3, 1.3910146e+2, -1480990.8, -1627503.0, 28815.066, -0.41076592, -0.06830435, -1475527.4, 101269.72, 0.03242507, 10.001187, 9.999313 
2.6798558e+3, 1.4909391e+2, -1128929.3, -1128754.1, -199464.4, -0.19881257, -0.15486167, -929377.25, 549482.06, 0.015032841, 10.001914, 10.001582 
2.679461e+3, 1.590854e+2, -1291942.0, -1526873.0, -49328.957, 0.15870489, -0.3966948, -1282004.6, 98924.94, 0.0044764117, 10.00149, 9.99851 
2.6790658e+3, 1.6907686e+2, -1294872.9, -1505825.5, 102181.39, 0.10066907, -0.28389955, -1253494.5, 29523.037, 0.00066900725, 10.001125, 9.99801 
2.6786706e+3, 1.7906839e+2, -1487587.6, -1652716.4, 47345.33, -0.028547933, -0.19059063, -1474976.0, -289867.9, 0.000027210404, 9.999385, 9.997312 
2.6782757e+3, 1.890592e+2, -1148995.5, -1140479.4, -8404.623, 0.008669471, -0.23910964, -1135315.8, -48115.953, 0.000000001728097, 9.999952, 9.999744 
2.6778805e+3, 1.9905026e+2, -1211243.4, -1284781.0, -48285.227, 0.101726495, -0.35624734, -1187321.1, -198033.72, 0.0, 9.999375, 9.998496 
2.6774836e+3, 2.0904383e+2, -879049.5, -808622.9, -34440.926, -0.005986046, -0.23378676, -794580.1, 96769.914, 0.0, 10.000063, 10.000592 
2.6770863e+3, 2.1903771e+2, -1062169.0, -1122302.6, -3355.1262, -0.1348573, -0.1372958, -1061982.4, -268572.88, 0.0, 9.999089, 9.998409 
2.676692e+3, 2.2902957e+2, -654120.2, -752735.2, 47457.5, -0.116035976, -0.09337747, -634991.94, 60497.08, 0.0, 10.00084, 9.9992895 
2.6762986e+3, 2.3902082e+2, -683331.3, -998069.6, 22829.979, -0.045891616, -0.13360292, -681683.94, -84109.27, 0.0, 10.001024, 9.996992 
2.6759034e+3, 2.4900994e+2, -418162.75, -640500.5, -37128.824, -0.032462858, -0.24612567, -412126.38, 87554.1, 0.0, 10.001642, 9.998269 
2.6755077e+3, 2.5899914e+2, -632589.9, -898412.4, -43740.29, -0.037001226, -0.4185212, -625577.56, -223791.38, 0.0, 10.000175, 9.996704 
2.6751122e+3, 2.689921e+2, -446667.03, -534581.44, -15244.263, -0.05677611, -0.1565183, -444098.75, -140232.56, 0.0, 9.999972, 9.998489 
2.6747167e+3, 2.7898556e+2, -630460.7, -643027.25, -19526.73, -0.04892935, 0.0653243, -616231.25, -410289.0, 0.0, 9.998152, 9.998112 
2.674321e+3, 2.889791e+2, -236281.38, 5333.4204, -114664.14, 0.14000767, 0.13947903, 51086.2, 159090.19, 0.0, 9.998596, 10.001551 
2.6739237e+3, 2.989724e+2, -385601.3, -247961.89, -29195.174, 0.24071902, 0.07131846, -242025.27, -231960.02, 0.0, 9.997733, 9.9997015 
2.6735273e+3, 3.0896103e+2, -307776.03, -48339.875, 102172.21, 0.048490364, -0.35399538, -12933.936, -12933.936, 0.0, 9.997541, 10.000685 
2.673129e+3, 3.189564e+2, -505405.1, -133407.66, -118186.945, -0.3330157, -0.12001045, -99034.69, -99034.69, 0.0, 9.995853, 10.001015 
2.6906374e+3, 1.2949862e+2, -1640989.6, -1973859.5, 227248.06, 0.20923938, -0.14844923, -1525747.0, 145152.73, 0.043619167, 10.001819, 9.997103 
2.690244e+3, 1.3949071e+2, -1683879.6, -1867012.4, -86647.875, -0.42299327, -0.054008514, -1649381.5, -76393.61, 0.02648621, 10.00035, 9.998069 
2.6898497e+3, 1.494831e+2, -1197811.0, -1084021.9, -347928.9, -0.2316029, -0.18236278, -788366.44, 686685.0, 0.012009438, 10.00105, 10.002331 
2.6894554e+3, 1.5947543e+2, -1185831.4, -1355739.0, -273866.78, 0.1298045, -0.42790794, -984044.6, 393068.72, 0.003455713, 10.001604, 9.999655 
2.6890603e+3, 1.6946886e+2, -1055309.6, -1267537.6, -114679.21, 0.11031069, -0.27099034, -1005181.75, 273999.9, 0.00049606664, 10.002117, 9.999218 
2.6886645e+3, 1.7946237e+2, -1043172.25, -1345960.3, -90613.82, -0.040169694, -0.09862677, -1018126.44, 163125.83, 0.00001910138, 10.001907, 9.998235 
2.6882687e+3, 1.8945403e+2, -889730.8, -1011568.9, -122095.68, -0.0056062615, -0.10678001, -814200.3, 269134.84, 0.0000000002885943, 10.00159, 9.999891 
2.687873e+3, 1.994458e+2, -969995.5, -1122329.3, -108414.01, 0.039609037, -0.16473639, -913667.1, 71748.84, 0.0, 10.00071, 9.998986 
2.6874763e+3, 2.0943889e+2, -766755.06, -755926.94, -94230.39, -0.034630008, -0.11127857, -666955.2, 220527.28, 0.0, 10.000755, 10.000651 
2.6870793e+3, 2.194322e+2, -781325.0, -948591.3, -65452.906, -0.1436821, -0.06995018, -758757.5, 30789.229, 0.0, 10.000732, 9.998824 
2.6866856e+3, 2.2942348e+2, -681609.9, -785810.5, -30838.32, -0.11782188, -0.08951896, -673167.25, 18464.365, 0.0, 10.000609, 9.999251 
2.686292e+3, 2.3941463e+2, -713724.0, -922695.5, -52652.133, -0.068394646, -0.13476382, -701207.5, -107489.31, 0.0, 10.000282, 9.997913 
2.6858965e+3, 2.4940518e+2, -476904.16, -648817.25, -49445.625, -0.08358024, -0.15863445, -463697.22, 32115.12, 0.0, 10.001006, 9.998611 
2.6855004e+3, 2.5939542e+2, -323578.9, -628941.25, -23701.361, -0.12844613, -0.23608838, -321750.22, 76159.72, 0.0, 10.001598, 9.997919 
2.685104e+3, 2.693884e+2, -322161.8, -347420.94, -19680.555, -0.12256308, -0.08223185, -311406.97, -11421.183, 0.0, 10.000175, 9.999738 
2.684708e+3, 2.7938226e+2, -538219.9, -497134.8, 457.7058, -0.033689275, 0.09646739, -497129.72, -295075.6, 0.0, 9.998229, 9.999088 
2.6843122e+3, 2.893763e+2, -282336.75, -88734.2, -70945.87, 0.19841893, 0.22760774, -65519.633, 38595.46, 0.0, 9.998462, 10.000993 
2.6839158e+3, 2.9936993e+2, -197958.69, -118444.55, -26291.393, 0.37210917, 0.2538329, -110537.56, -104360.16, 0.0, 9.9987335, 10.000108 
2.6835185e+3, 3.0935794e+2, 72655.18, 236447.27, 73228.18, 0.09342484, -0.31304106, 264411.72, 264411.72, 0.0, 9.999614, 10.001669 
2.6831183e+3, 3.1935608e+2, -94634.37, -261378.45, -42182.383, -0.43643412, 0.20358732, -84570.6, -84570.6, 0.0, 9.999925, 9.998184 
2.7006364e+3, 1.2989277e+2, -1338060.6, -2106539.0, 208933.45, 0.5160347, 0.016096864, -1284929.4, 382112.3, 0.03555016, 10.005191, 9.994558 
2.700239e+3, 1.3988073e+2, -1601407.4, -1992589.3, 49343.84, -0.25892255, -0.05327638, -1595279.1, -26109.287, 0.021269776, 10.001615, 9.996628 
2.6998436e+3, 1.4987266e+2, -1205030.0, -1084043.8, -153233.83, -0.14567865, -0.18704152, -979794.5, 491446.34, 0.009415533, 10.000998, 10.002353 
2.6994497e+3, 1.5986533e+2, -1382242.6, -1402164.3, -141889.56, 0.18152128, -0.3864731, -1249964.8, 123338.23, 0.0026134893, 10.000105, 10.000047 
2.6990548e+3, 1.6986026e+2, -1105688.8, -1100709.9, -53792.348, 0.11196812, -0.21053702, -1049349.4, 226006.28, 0.0003600524, 10.001028, 10.000827 
2.698659e+3, 1.7985535e+2, -1206516.0, -1333901.8, -85784.15, -0.020295098, -0.02108927, -1163364.6, 14043.991, 0.000012952271, 10.000506, 9.998958 
2.6982623e+3, 1.8984865e+2, -976684.25, -980526.75, -119182.8, -0.02652137, 0.056299344, -859407.25, 220066.92, 0.000000000007316074, 10.000815, 10.000412 
2.6978654e+3, 1.9984166e+2, -1170790.6, -1247062.0, -92608.88, -0.019337732, 0.088136, -1108772.8, -127231.17, 0.0, 9.999533, 9.998704 
2.6974684e+3, 2.098335e+2, -840780.1, -814477.06, -81528.38, -0.08651426, 0.0257187, -745046.25, 138572.7, 0.0, 10.000412, 10.000388 
2.6970723e+3, 2.1982503e+2, -1001004.25, -1131155.9, -57363.883, -0.13923061, -0.08132384, -979330.56, -193631.34, 0.0, 9.999704, 9.998033 
2.6966783e+3, 2.2981536e+2, -770796.8, -813866.56, -35810.54, -0.12461591, -0.19514547, -750544.75, -62751.938, 0.0, 10.00013, 9.999177 
2.696284e+3, 2.3980632e+2, -933666.56, -1042299.7, -37135.816, -0.09485914, -0.26736227, -922185.25, -332303.78, 0.0, 9.998965, 9.997697 
2.69589e+3, 2.4980044e+2, -498374.78, -528805.44, -19545.586, -0.044607382, -0.023959912, -488820.44, 3124.0222, 0.0, 10.000393, 9.9996805 
2.6954955e+3, 2.5979453e+2, -535365.9, -652881.0, -48344.152, -0.018297875, 0.16010998, -518033.94, -124026.11, 0.0, 9.999973, 9.998497 
2.6950958e+3, 2.6978582e+2, -351450.72, -214050.48, -94931.836, -0.17551155, 0.024351746, -165568.0, 130524.23, 0.0, 9.999478, 10.000912 
2.694696e+3, 2.797774e+2, -735866.4, -601321.7, -16211.596, -0.31656325, -0.13707355, -599395.9, -401221.25, 0.0, 9.997079, 9.998894 
2.6942998e+3, 2.8977135e+2, -432273.5, -250785.13, -44930.98, -0.13388193, 0.058360387, -240270.73, -140032.02, 0.0, 9.997996, 10.00004 
2.693904e+3, 2.9976556e+2, -389969.88, -280057.44, 26193.938, 0.037047237, 0.2254244, -274134.22, -271834.06, 0.0, 9.997857, 9.999404 
2.693512e+3, 3.0975762e+2, 102130.84, 325265.88, 124733.62, 0.21075551, 0.018947385, 381047.66, 381047.66, 0.0, 9.999611, 10.002247 
2.6931167e+3, 3.1975296e+2, -47392.81, -134350.83, 54022.766, -0.009346447, 0.1843435, -21525.705, -21525.705, 0.0, 10.000006, 9.998995 
2.7106327e+3, 1.3029093e+2, -718922.1, -1276543.1, 21993.168, 0.022125792, 0.37532052, -718056.0, 945098.0, 0.028415078, 10.00723, 9.999369 
2.7102378e+3, 1.4027739e+2, -1296531.1, -1663654.1, 142451.64, 0.02509169, -0.21387966, -1247740.9, 317535.75, 0.016713178, 10.002946, 9.998253 
2.7098384e+3, 1.5027043e+2, -1303974.1, -1310125.0, 5835.733, -0.04327264, -0.14267601, -1300453.0, 166888.44, 0.0071980846, 10.001039, 10.000787 
2.7094397e+3, 1.6026388e+2, -1577721.6, -1592228.9, 43481.723, -0.07592281, -0.09069547, -1540892.6, -171489.52, 0.0019202423, 9.999125, 9.999226 
2.7090454e+3, 1.7025657e+2, -1307751.9, -1252636.4, 113690.96, -0.094663076, -0.05667749, -1163211.0, 108265.45, 0.00025324232, 9.999887, 10.000347 
2.708651e+3, 1.8024942e+2, -1208667.4, -1259806.4, -3917.6692, -0.14015408, -0.03846496, -1208369.0, -34821.344, 0.000008369746, 10.000111, 9.9996605 
2.7082554e+3, 1.9024158e+2, -1052582.9, -915737.8, -50352.875, 0.003688416, -0.15257025, -899207.1, 176410.66, 0.0, 9.999846, 10.001333 
2.707859e+3, 2.0023401e+2, -1134007.1, -1173758.9, 29919.762, 0.080947116, -0.23059477, -1117963.1, -140277.28, 0.0, 9.999453, 9.999269 
2.7074617e+3, 2.1022616e+2, -757895.3, -863989.6, 54324.926, -0.11299435, -0.2024556, -735013.56, 144749.73, 0.0, 10.001216, 9.999745 
2.707065e+3, 2.2021814e+2, -562812.8, -888128.56, 20316.389, -0.29789406, -0.1970251, -561548.94, 220294.11, 0.0, 10.002434, 9.9984255 
2.7066714e+3, 2.3020874e+2, -547620.25, -717823.6, 4671.0425, -0.14795494, -0.27056673, -547492.2, 136443.36, 0.0, 10.00161, 9.99919 
2.706278e+3, 2.4019986e+2, -618948.8, -746736.56, 8012.5737, -0.007691701, -0.32255492, -618448.4, -32425.121, 0.0, 10.000369, 9.999064 
2.7058825e+3, 2.5019488e+2, -608313.0, -418632.28, 51990.547, -0.023160452, -0.121121354, -405316.7, 82759.05, 0.0, 9.998864, 10.001207 
2.7054867e+3, 2.6019013e+2, -775481.06, -627920.8, 49329.258, -0.05773051, 0.078291796, -612949.1, -222823.11, 0.0, 9.997632, 9.999788 
2.705087e+3, 2.7018163e+2, -282142.13, -208033.3, -71418.664, -0.23191187, -0.049477257, -164628.69, 127578.99, 0.0, 9.999971, 10.000745 
2.7046874e+3, 2.8017268e+2, -12679.802, -253988.94, -117768.81, -0.3583492, -0.2372341, 35268.766, 229563.17, 0.0, 10.001913, 9.998966 
2.704291e+3, 2.9016548e+2, -34875.26, -143731.45, -151876.84, -0.17631663, -0.1054157, 72031.67, 168402.22, 0.0, 10.001031, 9.99936 
2.7038947e+3, 3.0015913e+2, -140971.63, -170371.58, -52297.3, -0.01206354, 0.071284786, -101347.6, -101347.6, 0.0, 9.999488, 9.999406 
2.7035043e+3, 3.1015366e+2, 15275.299, 243655.23, -10934.837, 0.22716914, 0.13423032, 244177.6, 244177.6, 0.0, 9.999079, 10.002008 
2.7031136e+3, 3.2014626e+2, -152753.9, 11180.645, -121179.914, 0.47035626, 0.016985107, 75511.71, 75511.71, 0.0, 9.998299, 10.000857 
2.7206284e+3, 1.3068837e+2, -1219973.3, -1026370.3, 37016.117, -0.22942808, 0.5001414, -1019534.3, 639732.56, 0.022191238, 10.001536, 10.003841 
2.7202365e+3, 1.4067543e+2, -1353429.4, -1609009.5, -18873.063, 0.3900758, -0.37123674, -1352043.3, 209325.52, 0.01278431, 10.002177, 9.999013 
2.719833e+3, 1.5066972e+2, -1228771.5, -1462854.9, -95605.51, 0.07874949, -0.074062034, -1194686.8, 268739.44, 0.00532732, 10.002439, 9.999047 
2.7194303e+3, 1.606639e+2, -1394781.0, -1669184.5, 13338.2705, -0.20658904, 0.22137667, -1394134.1, -28647.08, 0.0013580795, 10.001192, 9.997693 
2.7190366e+3, 1.7065404e+2, -1269973.8, -1343214.9, 121358.78, -0.20828435, 0.089746185, -1179830.6, 87753.234, 0.00016970174, 10.000691, 9.999314 
2.7186435e+3, 1.8064407e+2, -1359202.0, -1372258.0, -14918.767, -0.14288166, -0.09079291, -1349445.5, -179766.61, 0.0000049540654, 9.999317, 9.999274 
2.7182484e+3, 1.9063433e+2, -963578.7, -786464.06, -99209.53, 0.10210024, -0.46991217, -742036.7, 329723.13, 0.0, 10.000103, 10.002065 
2.717853e+3, 2.0062529e+2, -1213744.9, -1281748.6, 19914.297, 0.29583025, -0.7401434, -1208342.4, -234506.14, 0.0, 9.999339, 9.998538 
2.7174553e+3, 2.1061876e+2, -897035.3, -990038.5, 91423.586, -0.101240925, -0.5304482, -840966.56, 34938.293, 0.0, 10.000709, 9.999029 
2.7170584e+3, 2.2061217e+2, -938408.25, -1176786.0, 20197.715, -0.4243763, -0.3094881, -936709.0, -158733.6, 0.0, 10.000452, 9.997384 
2.7166656e+3, 2.3060323e+2, -697964.5, -799998.56, -21894.111, -0.111999124, -0.3221651, -693465.0, -13399.602, 0.0, 10.000715, 9.999014 
2.716272e+3, 2.4059473e+2, -854268.5, -806527.75, -23367.4, 0.16235618, -0.3434401, -796994.1, -214844.42, 0.0, 9.998703, 9.999409 
2.7158734e+3, 2.5058872e+2, -589781.44, -208214.89, -4448.204, -0.050598282, -0.41453043, -208163.05, 276042.44, 0.0, 9.998249, 10.002879 
2.7154747e+3, 2.6058307e+2, -1010944.2, -836247.3, 68289.695, -0.26206446, -0.41412902, -812720.9, -426461.84, 0.0, 9.996528, 9.998903 
2.7150792e+3, 2.7057636e+2, -468560.3, -473242.16, 30655.775, -0.27815345, -0.23481521, -440156.22, -151827.53, 0.0, 9.999572, 9.9990835 
2.7146834e+3, 2.8056863e+2, -285251.13, -581509.4, -112977.31, -0.2251254, -0.12705284, -247084.48, -56676.26, 0.0, 10.000989, 9.997163 
2.7142864e+3, 2.9055816e+2, -137747.75, -282827.06, -229760.27, 0.020520562, -0.25352272, 30651.969, 123166.72, 0.0, 10.000756, 9.998505 
2.7138883e+3, 3.0054855e+2, -391046.25, -474235.88, -114560.94, 0.07339417, -0.3081334, -310762.7, -310762.7, 0.0, 9.998671, 9.997688 
2.713493e+3, 3.1054172e+2, -205248.48, -41632.37, -85394.086, -0.02828577, -0.24266052, -5183.4727, -5183.4727, 0.0, 9.998439, 10.000281 
2.7131024e+3, 3.205357e+2, -214675.11, 194008.22, -111115.37, 0.2326714, -0.17364459, 222265.22, 222265.22, 0.0, 9.997138, 10.002597 
2.7306208e+3, 1.310816e+2, -1972935.0, -1614909.6, 182042.06, -0.1887216, -0.088555634, -1538609.0, 116785.734, 0.016854309, 9.99735, 10.001698 
2.7302277e+3, 1.410743e+2, -1460235.5, -1783904.4, -1676.4811, -0.011927707, -0.21575809, -1460226.8, 97230.65, 0.009467287, 10.001939, 9.997929 
2.729828e+3, 1.5106644e+2, -1024597.5, -1414787.1, -91074.484, -0.0060174414, -0.07621824, -1004386.6, 455150.66, 0.0037924994, 10.004076, 9.998575 
2.7294293e+3, 1.6105829e+2, -921512.94, -1461109.3, -23234.57, -0.016481282, 0.031354874, -920514.4, 441106.53, 0.0009170214, 10.004498, 9.997515 
2.7290335e+3, 1.7104855e+2, -1069853.0, -1285763.4, 49988.004, 0.018133141, -0.04674856, -1058841.3, 204875.75, 0.0001065257, 10.00218, 9.999007 
2.728638e+3, 1.810393e+2, -1263535.5, -1335977.5, -8891.547, 0.018480316, -0.1217782, -1262460.1, -96653.99, 0.0000025959862, 9.999928, 9.999244 
2.7282417e+3, 1.91031e+2, -796026.0, -793969.25, -79797.18, 0.080040105, -0.28812784, -715193.8, 352683.9, 0.0, 10.001506, 10.001424 
2.7278453e+3, 2.0102298e+2, -723550.9, -971576.7, -43054.047, 0.10463838, -0.41394922, -716289.8, 253657.72, 0.0, 10.002274, 9.999275 
2.727449e+3, 2.1101606e+2, -769004.4, -861799.1, 53303.6, -0.1002564, -0.3101178, -744733.56, 127284.75, 0.0, 10.001209, 9.999721 
2.727053e+3, 2.2100915e+2, -876211.6, -974859.5, 35343.215, -0.27979746, -0.18576701, -864856.1, -90767.125, 0.0, 10.000023, 9.998982 
2.7266586e+3, 2.3100062e+2, -792043.44, -704095.44, 52951.3, -0.046168115, -0.2801628, -679239.56, -3068.62, 0.0, 9.999392, 10.000324 
2.7262637e+3, 2.4099256e+2, -775708.6, -726314.4, 92492.39, 0.14924987, -0.33194208, -655278.56, -77030.305, 0.0, 9.998943, 9.999854 
2.725864e+3, 2.509859e+2, -392549.22, -262049.45, -14809.672, -0.12689169, -0.35031357, -260389.89, 219922.34, 0.0, 10.000121, 10.001678 
2.7254656e+3, 2.6097918e+2, -380922.56, -564865.6, -69389.516, -0.34225008, -0.3522277, -357682.7, 24694.404, 0.0, 10.000844, 9.998711 
2.7250725e+3, 2.7097088e+2, -450963.1, -542841.5, -43346.832, -0.16626191, -0.2771978, -433740.94, -149280.14, 0.0, 9.99992, 9.998498 
2.7246788e+3, 2.809624e+2, -536027.8, -691540.06, -133424.94, 0.039643068, -0.1891631, -459355.25, -272808.0, 0.0, 9.999087, 9.997348 
2.7242792e+3, 2.9095227e+2, -189391.63, -332055.84, -219464.63, 0.040726554, -0.2659471, -29957.648, 58691.348, 0.0, 10.000375, 9.998395 
2.7238792e+3, 3.0094224e+2, -70010.34, -311993.16, -63845.742, -0.053972013, -0.33960342, -54198.242, -54198.242, 0.0, 10.0007105, 9.997834 
2.7234837e+3, 3.1093252e+2, -143615.5, -116892.8, 16818.967, -0.10217101, -0.49176225, -108773.85, -108773.85, 0.0, 9.999128, 9.999534 
2.7230918e+3, 3.209291e+2, -67344.68, 440953.88, 4148.5557, 0.19053033, -0.09797037, 440987.72, 440987.72, 0.0, 9.997118, 10.004406 
2.740614e+3, 1.3147575e+2, -1935418.9, -1860685.4, 220194.44, 0.07880479, -0.4654237, -1674709.6, -23191.992, 0.012358647, 9.998798, 9.999258 
2.740219e+3, 1.4147198e+2, -1640362.6, -1997322.4, -54819.355, -0.30047122, -0.033431694, -1632133.5, -78573.38, 0.0067449408, 10.001291, 9.99673 
2.739824e+3, 1.5146214e+2, -1239267.5, -1521339.5, -137380.36, -0.02907895, -0.109177, -1183416.5, 272242.8, 0.0025850076, 10.002587, 9.998536 
2.739429e+3, 1.61452e+2, -1243762.3, -1634362.5, -113040.914, 0.31797212, -0.20278265, -1213406.9, 144353.95, 0.0005889778, 10.002381, 9.9973345 
2.739031e+3, 1.7144296e+2, -1136784.3, -1338164.4, -66281.875, 0.3354133, -0.22472344, -1116926.5, 142924.44, 0.00006228534, 10.001795, 9.998839 
2.7386332e+3, 1.8143491e+2, -1317814.6, -1475085.8, 2251.355, 0.2784715, -0.12506351, -1317782.5, -155852.03, 0.0000011486238, 10.000137, 9.998166 
2.738235e+3, 1.9142921e+2, -900501.44, -945952.5, 1045.1755, 0.057376657, 0.04260983, -900477.4, 163507.42, 0.0, 10.00136, 10.000366 
2.7378377e+3, 2.014233e+2, -918200.8, -1074352.6, -15114.831, -0.095382564, 0.20251612, -916751.2, 49289.574, 0.0, 10.001109, 9.999095 
2.737443e+3, 2.1141534e+2, -824910.2, -778237.8, 13037.711, -0.03976016, 0.09920185, -774842.75, 93275.75, 0.0, 10.000376, 10.0006695 
2.737048e+3, 2.214074e+2, -1070763.5, -952942.4, -6863.827, 0.012919793, 0.02099755, -952543.9, -182349.73, 0.0, 9.998289, 9.9999485 
2.736651e+3, 2.3139952e+2, -765211.75, -472415.2, -12072.57, 0.032191306, -0.21158771, -471918.25, 200345.1, 0.0, 9.998739, 10.002177 
2.7362534e+3, 2.4139209e+2, -1090307.5, -1107670.1, 73782.51, 0.012946909, -0.2693537, -1024697.25, -450366.03, 0.0, 9.997873, 9.997741 
2.7358556e+3, 2.5138554e+2, -706533.4, -782461.8, 10199.878, -0.23532104, -0.0049428274, -705187.06, -228784.17, 0.0, 9.999642, 9.998283 
2.7354586e+3, 2.6137796e+2, -708670.8, -911569.06, -83747.9, -0.3763786, 0.18632954, -678569.06, -300086.7, 0.0, 9.999548, 9.996917 
2.7350667e+3, 2.71365e+2, -519223.9, -538140.06, -88770.555, 0.04082629, -0.23001446, -439408.97, -158803.31, 0.0, 9.999355, 9.998755 
2.7346727e+3, 2.813537e+2, -715413.2, -780554.25, -123001.79, 0.28526703, -0.44416395, -620742.7, -438028.56, 0.0, 9.998022, 9.997211 
2.7342695e+3, 2.9134881e+2, -196909.3, -247897.58, -154223.66, -0.2234168, -0.07894609, -66086.82, 18678.53, 0.0, 10.000079, 9.999061 
2.7338672e+3, 3.0134243e+2, -147006.78, -305618.6, -81492.33, -0.6236483, 0.15722191, -112600.65, -112600.65, 0.0, 10.000133, 9.998134 
2.7334753e+3, 3.1132865e+2, -154751.02, -15684.997, -32824.426, -0.06971884, -0.51767826, -8326.64, -8326.64, 0.0, 9.998736, 10.000332 
2.733082e+3, 3.2132688e+2, -290567.22, 219128.19, 30867.348, 0.17716342, -0.00077675073, 220990.72, 220990.72, 0.0, 9.996262, 10.003224 
2.75061e+3, 1.3187149e+2, -1747209.9, -1745011.9, 98393.38, 0.28683457, -0.01906799, -1647711.4, -58.806725, 0.008685479, 9.999895, 9.999589 
2.750215e+3, 1.4186229e+2, -1585300.0, -1826280.8, -124789.57, -0.199493, -0.19814286, -1532324.6, 17417.883, 0.0045926278, 10.001005, 9.998049 
2.7498186e+3, 1.518556e+2, -1369373.8, -1431596.6, -178667.7, 0.023632014, -0.10627207, -1219129.0, 232680.83, 0.0016782226, 10.000981, 9.999967 
2.7494225e+3, 1.6184828e+2, -1394706.3, -1534687.6, -119245.68, 0.23345177, -0.05133436, -1326428.3, 27454.422, 0.0003582281, 10.000581, 9.998881 
2.7490228e+3, 1.7184006e+2, -1071903.9, -1173999.5, -34464.215, 0.09032996, -0.11260529, -1061359.0, 194602.94, 0.000033741435, 10.001659, 10.000034 
2.7486244e+3, 1.8183208e+2, -989404.06, -1243296.8, 55694.77, -0.045012847, -0.09586433, -977724.0, 180314.5, 0.00000040337267, 10.0020275, 9.9988365 
2.7482292e+3, 1.9182442e+2, -813184.3, -942994.5, 86627.59, 0.037423417, -0.095337965, -769844.25, 290266.5, 0.0, 10.002064, 10.000065 
2.7478334e+3, 2.0181736e+2, -842654.94, -1019926.94, 19165.19, 0.051333386, -0.015160414, -840606.6, 121571.41, 0.0, 10.001427, 9.999335 
2.7474353e+3, 2.1181014e+2, -924187.94, -835256.56, -4686.796, -0.04160518, -0.026199464, -835010.2, 29238.818, 0.0, 9.999605, 10.000708 
2.747038e+3, 2.2180292e+2, -1033886.4, -918134.7, -18065.3, -0.08724397, -0.035142448, -915380.75, -149062.39, 0.0, 9.998317, 10.000219 
2.7466422e+3, 2.3179537e+2, -605883.0, -477991.28, -93168.58, -0.000045415705, -0.1687093, -428935.1, 239450.81, 0.0, 9.999998, 10.001639 
2.746246e+3, 2.4178782e+2, -594641.94, -862280.3, -103898.336, 0.008580672, -0.20222503, -559043.2, 11412.695, 0.0, 10.001115, 9.997889 
2.7458486e+3, 2.5177974e+2, -627009.06, -831449.3, -65677.71, -0.17980774, -0.029428203, -607728.1, -135186.55, 0.0, 10.000485, 9.997597 
2.7454525e+3, 2.6177117e+2, -567832.2, -757538.6, -32491.236, -0.24978407, 0.11381396, -562421.7, -187791.17, 0.0, 10.00002, 9.997768 
2.7450603e+3, 2.7175933e+2, -226473.63, -333887.88, -30420.686, 0.13040371, -0.23785388, -218456.58, 58286.1, 0.0, 10.000979, 9.99942 
2.7446654e+3, 2.8174886e+2, -164456.66, -393332.8, -55086.664, 0.32231098, -0.42603585, -151888.38, 26953.518, 0.0, 10.001174, 9.998366 
2.744261e+3, 2.9174492e+2, -124454.73, -149720.44, -99853.57, -0.32220554, -0.0051491577, -36438.066, 44444.973, 0.0, 10.000274, 9.99968 
2.743858e+3, 3.017391e+2, -214601.83, -253561.66, -86604.84, -0.75901854, 0.24494305, -145313.14, -145313.14, 0.0, 9.999214, 9.99896 
2.7434674e+3, 3.117241e+2, -65342.277, 51379.36, -135200.94, 0.01826408, -0.5671899, 140277.77, 140277.77, 0.0, 9.999147, 10.000651 
2.743073e+3, 3.2172465e+2, 66734.15, 190675.44, -37560.28, 0.30155316, 0.22912511, 201169.52, 201169.52, 0.0, 9.999437, 10.001512 
2.7606058e+3, 1.3226707e+2, -1457864.3, -1489292.5, 305804.6, 0.5184915, 0.35381764, -1167370.4, 476419.53, 0.0058229333, 10.001481, 10.000519 
2.760211e+3, 1.4225414e+2, -1569472.6, -1688846.6, -39853.254, 0.07534378, -0.2860545, -1557390.4, -11480.598, 0.0029696852, 10.000636, 9.999148 
2.7598125e+3, 1.5225014e+2, -1349421.4, -1232054.3, -93121.47, 0.12571006, -0.07676689, -1180668.0, 267282.13, 0.0010279784, 10.000415, 10.001559 
2.759414e+3, 1.6224559e+2, -1459990.5, -1449444.3, -6231.287, 0.1518777, 0.13235143, -1446554.4, -96559.625, 0.0002033788, 9.9996605, 9.999916 
2.7590135e+3, 1.722383e+2, -1073032.1, -1040149.94, 44647.87, -0.21309406, 0.039907128, -1009012.2, 243049.77, 0.000016580547, 10.001084, 10.001225 
2.7586156e+3, 1.8223004e+2, -1133931.8, -1311456.8, 82841.51, -0.3572953, -0.047350693, -1101279.6, 52858.414, 0.00000009587778, 10.001124, 9.99879 
2.7582243e+3, 1.9221893e+2, -973999.25, -1039117.5, 70773.086, 0.13190602, -0.38788146, -928655.06, 127585.49, 0.0, 10.001106, 9.999855 
2.7578303e+3, 2.0220944e+2, -1106638.5, -1227153.4, -21328.506, 0.38914743, -0.50264406, -1102975.1, -144645.94, 0.0, 10.00006, 9.998562 
2.757427e+3, 2.1220343e+2, -944052.0, -879766.5, -84460.8, -0.04329255, -0.37201586, -821539.0, 38850.594, 0.0, 9.999735, 10.000291 
2.7570266e+3, 2.2219734e+2, -1201843.4, -1187866.8, 11583.362, -0.28380165, -0.17911164, -1181327.0, -418876.84, 0.0, 9.998184, 9.998374 
2.756634e+3, 2.321899e+2, -774658.7, -760191.25, -14409.414, -0.05151081, -0.1450725, -751301.75, -86779.55, 0.0, 9.999862, 9.999699 
2.7562404e+3, 2.4218157e+2, -842149.94, -1039773.44, -94389.54, 0.09438393, -0.100945175, -804311.94, -237709.52, 0.0, 9.999844, 9.997232 
2.7558428e+3, 2.521699e+2, -662175.3, -743439.8, -86979.65, -0.008026099, -0.3873384, -606805.25, -138089.84, 0.0, 9.999869, 9.998446 
2.7554464e+3, 2.6216e+2, -735385.2, -804671.0, -10115.307, -0.077005096, -0.45245084, -733938.6, -363126.47, 0.0, 9.998856, 9.997993 
2.7550527e+3, 2.721546e+2, -285740.66, -274882.72, -2436.9282, 0.04231512, -0.24239112, -274360.88, -1494.9996, 0.0, 10.000365, 10.0000725 
2.7546567e+3, 2.8214818e+2, -341976.66, -490516.13, -101218.73, 0.08314729, -0.059443157, -290702.7, -115774.64, 0.0, 10.000133, 9.998185 
2.754254e+3, 2.9213932e+2, -210621.98, -183340.08, -151047.38, -0.25623792, -0.15956062, -45318.96, 31693.21, 0.0, 9.999699, 9.999707 
2.7538526e+3, 3.0213022e+2, -443397.44, -461531.38, -122187.016, -0.46971062, -0.20615463, -329941.44, -329941.44, 0.0, 9.998177, 9.998014 
2.7534604e+3, 3.1211886e+2, -202982.88, -105956.4, -151635.28, 0.15616861, -0.5904452, 4737.122, 4737.122, 0.0, 9.998679, 9.999771 
2.7530655e+3, 3.2211834e+2, -170214.78, -261998.8, 207371.45, 0.17296329, 0.24457689, -3718.0034, -3718.0034, 0.0, 9.9994955, 9.998302 
2.7705982e+3, 1.3266176e+2, -1315251.3, -1366080.1, 257654.77, 0.11354418, 0.12690218, -1081760.6, 558166.25, 0.0036893368, 10.002252, 10.000964 
2.7702042e+3, 1.426555e+2, -1535777.4, -1527386.6, 29500.55, 0.059637208, 0.09167123, -1501784.6, 40195.266, 0.001804221, 10.000273, 10.000405 
2.769803e+3, 1.5264963e+2, -1357501.1, -1101307.5, 13003.763, -0.049931794, 0.0034894315, -1100649.1, 343386.13, 0.00058557204, 9.999786, 10.002751 
2.7694044e+3, 1.6264382e+2, -1456199.8, -1413591.9, 127319.26, -0.10667776, 0.019520497, -1305806.5, 40283.883, 0.00010501939, 9.999472, 10.000265 
2.7690077e+3, 1.7263737e+2, -1111280.4, -1079144.8, 170335.36, -0.15740442, 0.036232706, -924121.06, 324029.75, 0.0000068884756, 10.000818, 10.0011425 
2.7686116e+3, 1.8263003e+2, -1142954.6, -1324019.9, 102596.01, -0.14007254, 0.07017029, -1096658.5, 53561.547, 0.00000000965895, 10.001025, 9.998772 
2.768218e+3, 1.9261974e+2, -1171676.8, -1190738.0, 93878.88, 0.18768443, -0.13489033, -1086845.9, -34527.16, 0.0, 9.999902, 9.999452 
2.767822e+3, 2.026099e+2, -1169037.1, -1254753.6, 42000.18, 0.29659232, -0.24623516, -1151888.4, -197475.75, 0.0, 9.999549, 9.998632 
2.7674198e+3, 2.1260138e+2, -594712.0, -783399.3, 4167.756, -0.12015412, -0.29001898, -594620.0, 261874.06, 0.0, 10.002363, 9.9997425 
2.7670205e+3, 2.2259353e+2, -369179.1, -805154.7, 38119.88, -0.3547868, -0.21422592, -365871.16, 392698.53, 0.0, 10.003872, 9.998286 
2.7666277e+3, 2.3258588e+2, -450260.13, -692380.5, 59387.926, -0.069864795, -0.10787369, -436477.84, 224166.67, 0.0, 10.002379, 9.999009 
2.766234e+3, 2.4257718e+2, -587811.44, -830602.5, 22143.068, 0.12535514, -0.060515426, -585808.5, -23079.969, 0.0, 10.001082, 9.9981 
2.765837e+3, 2.5256512e+2, -465519.66, -596750.5, 14260.844, 0.08891384, -0.40413454, -463987.8, 854.87885, 0.0, 10.000879, 9.999022 
2.76544e+3, 2.6255506e+2, -454686.6, -583609.2, 62272.875, 0.030692345, -0.53023404, -429519.94, -62580.777, 0.0, 10.000327, 9.998803 
2.765044e+3, 2.7255028e+2, -404070.6, -345468.66, 27422.408, -0.06843561, -0.2317277, -334638.16, -65650.77, 0.0, 9.999506, 10.000066 
2.7646473e+3, 2.825445e+2, -437944.44, -468403.6, -93514.47, -0.11414872, 0.0046611503, -358427.53, -187383.69, 0.0, 9.999032, 9.99889 
2.764247e+3, 2.925343e+2, -143960.55, -162359.1, -158064.67, -0.16478136, -0.24040097, 5172.3306, 78310.06, 0.0, 9.999959, 9.99982 
2.763847e+3, 3.0252388e+2, -142974.2, -382787.16, -105013.26, -0.19531019, -0.3952213, -103490.13, -103490.13, 0.0, 10.000387, 9.997493 
2.7634525e+3, 3.1251368e+2, 89217.375, -100308.58, -181245.56, 0.13890682, -0.5520359, 198978.17, 198978.17, 0.0, 10.001204, 9.998591 
2.7630562e+3, 3.2251084e+2, -237872.3, -297677.44, 247657.05, -0.022862393, 0.13778308, -18319.121, -18319.121, 0.0, 9.998935, 9.998315 
2.7805912e+3, 1.3305853e+2, -1265162.1, -1288285.6, 277226.8, -0.084065594, -0.044430222, -999256.06, 636784.3, 0.0021714193, 10.002405, 10.001393 
2.780197e+3, 1.4305755e+2, -1657064.6, -1550512.6, 52749.777, 0.090392806, 0.40619147, -1528816.1, 9224.91, 0.0010072395, 9.9992075, 10.000814 
2.7797943e+3, 1.5304965e+2, -1217685.4, -971587.6, -19077.602, -0.17445673, 0.043395113, -970117.5, 469995.78, 0.00030058212, 10.000377, 10.003426 
2.7793953e+3, 1.6304237e+2, -1361194.3, -1405812.5, 119524.46, -0.20189276, -0.1079881, -1261914.8, 80266.484, 0.000046417692, 10.000336, 9.999904 
2.779003e+3, 1.7303658e+2, -1113337.1, -1124661.5, 145331.66, 0.082953796, -0.009152455, -973557.4, 270680.03, 0.0000020738605, 10.001058, 10.000698 
2.7786088e+3, 1.8303046e+2, -1266819.0, -1469231.5, 43091.855, 0.25066394, 0.21237811, -1258027.0, -111728.586, 0.00000000000031198744, 10.000632, 9.997934 
2.7782103e+3, 1.9302255e+2, -1144938.5, -1216777.6, -5370.8555, 0.23464344, 0.2596326, -1144539.3, -96159.21, 0.0, 10.000355, 9.998996 
2.7778125e+3, 2.0301332e+2, -1233263.3, -1414622.3, 84120.57, 0.14949395, 0.28124088, -1200253.5, -249782.42, 0.0, 9.999786, 9.997388 
2.777414e+3, 2.1300106e+2, -723829.1, -935292.56, 70200.516, -0.17153887, -0.07602805, -702646.25, 149938.86, 0.0, 10.001967, 9.998851 
2.7770168e+3, 2.2299059e+2, -682927.94, -1041068.44, -350.51816, -0.29791918, -0.17453949, -682927.56, 71755.41, 0.0, 10.00217, 9.997459 
2.7766222e+3, 2.3298264e+2, -604052.56, -778647.5, -15349.768, -0.04202401, -0.10822126, -602713.3, 54045.875, 0.0, 10.001453, 9.998814 
2.7762273e+3, 2.4297449e+2, -807870.06, -957051.5, -3169.543, 0.14747499, 0.011574558, -807802.75, -248965.8, 0.0, 9.999814, 9.997812 
2.7758303e+3, 2.5296468e+2, -565246.44, -613457.75, -4797.773, 0.14875768, -0.14525862, -564773.6, -103843.59, 0.0, 10.000198, 9.999201 
2.7754328e+3, 2.6295495e+2, -728286.56, -810386.0, 29008.348, 0.048289984, -0.20030555, -719071.3, -356048.13, 0.0, 9.999031, 9.997811 
2.775034e+3, 2.7294552e+2, -570844.3, -503087.88, -3286.2463, -0.25394467, -0.32345206, -502928.88, -237813.2, 0.0, 9.998806, 9.999263 
2.774636e+3, 2.829374e+2, -623774.25, -570501.56, -88083.945, -0.37374023, -0.26200712, -505114.66, -337921.3, 0.0, 9.997964, 9.998669 
2.7742398e+3, 2.9293045e+2, -222688.05, -147859.31, -112289.016, -0.121357486, -0.23821841, -66915.5, 2339.43, 0.0, 9.99936, 10.0001335 
2.7738407e+3, 3.0292135e+2, -383395.78, -705365.4, -73634.73, -0.16765447, -0.19174701, -367354.66, -367354.66, 0.0, 9.9998045, 9.995519 
2.7734408e+3, 3.1290734e+2, -101519.87, -408159.16, -155739.78, -0.40833184, -0.5511771, -36294.793, -36294.793, 0.0, 10.000953, 9.996566 
2.7730447e+3, 3.2290336e+2, -129255.63, 386310.97, -67070.52, -0.34686565, -0.054601554, 394893.38, 394893.38, 0.0, 9.997151, 10.00386 
2.7905875e+3, 1.3346167e+2, -1293790.1, -1321025.3, 91869.79, -0.07255642, -0.01547118, -1214534.1, 417549.47, 0.0011689386, 10.002223, 10.001301 
2.790187e+3, 1.4345697e+2, -1825400.3, -1816464.3, 139307.52, -0.121435404, 0.17722541, -1681553.0, -147433.47, 0.0005049565, 9.99882, 9.999187 
2.789789e+3, 1.5344845e+2, -1244405.9, -1197360.4, 79770.96, -0.02715019, -0.052488457, -1137716.3, 298484.06, 0.00013439951, 10.001096, 10.001536 
2.7893925e+3, 1.6344032e+2, -1151649.0, -1388026.5, 87159.05, 0.054693576, -0.13565332, -1122986.5, 215290.94, 0.000016423304, 10.002083, 9.999195 
2.7889967e+3, 1.734329e+2, -1056961.9, -1169226.9, 100525.99, 0.023944747, -0.12892684, -997958.2, 242390.83, 0.0000003300107, 10.001698, 10.000105 
2.7886006e+3, 1.8342577e+2, -1134676.6, -1406312.5, -20772.479, 0.0128106065, 0.019706108, -1133097.3, 9322.716, 0.0, 10.001452, 9.998005 
2.7882037e+3, 1.9341782e+2, -828180.4, -1103843.8, -37261.066, 0.11816456, 0.109270796, -823232.6, 221270.28, 0.0, 10.002581, 9.998777 
2.7878064e+3, 2.0340906e+2, -779026.8, -1158765.5, 30531.906, 0.084964715, 0.18588996, -776587.7, 170003.08, 0.0, 10.0027075, 9.997724 
2.7874085e+3, 2.1339808e+2, -743694.7, -980809.25, 57084.777, -0.17990115, -0.006326068, -730667.44, 118027.21, 0.0, 10.001952, 9.998563 
2.7870116e+3, 2.2338797e+2, -713915.56, -968850.0, -17870.396, -0.27996072, -0.079201534, -712668.94, 38121.145, 0.0, 10.0014515, 9.998325 
2.786616e+3, 2.3337941e+2, -545393.8, -723870.5, -9449.57, -0.07469246, -0.10093212, -544894.94, 107976.6, 0.0, 10.001558, 9.99922 
2.7862203e+3, 2.4337098e+2, -546764.9, -816342.06, 8356.851, 0.07572542, -0.024639953, -546506.06, 8446.688, 0.0, 10.001456, 9.997995 
2.7858233e+3, 2.5336188e+2, -392119.78, -585482.6, -43518.785, 0.10875159, -0.042700615, -382776.75, 74265.805, 0.0, 10.001545, 9.998783 
2.7854258e+3, 2.6335266e+2, -338910.03, -571928.44, -38104.36, 0.03239161, -0.047750887, -332837.28, 26295.248, 0.0, 10.001344, 9.998376 
2.785026e+3, 2.7334252e+2, -246341.78, -368207.63, -30465.744, -0.26773185, -0.22363311, -239149.94, 22079.348, 0.0, 10.000951, 9.999239 
2.7846277e+3, 2.833336e+2, -267942.44, -379440.3, -65615.69, -0.35791308, -0.24135895, -237590.48, -74276.6, 0.0, 10.000256, 9.998864 
2.7842322e+3, 2.9332674e+2, -121073.7, -131523.75, -150278.5, -0.082748815, -0.15614933, 24070.584, 89446.45, 0.0, 10.000153, 9.999864 
2.7838334e+3, 3.0331773e+2, -367553.06, -659439.4, -75124.77, -0.11726745, -0.10517983, -349352.6, -349352.6, 0.0, 9.999601, 9.99597 
2.783432e+3, 3.133038e+2, -401176.6, -573099.0, 2021.2914, -0.51964796, -0.43728462, -401152.8, -401152.8, 0.0, 9.998779, 9.996581 
2.783036e+3, 3.2329747e+2, 258040.61, 797234.3, -196651.47, -0.25213283, -0.21227401, 861335.3, 861335.3, 0.0, 9.998644, 10.006035 
2.8005818e+3, 1.3386455e+2, -1700884.5, -1539456.0, -152663.78, 0.000173885, 0.02959871, -1447482.6, 180646.38, 0.0005684972, 9.9995165, 10.00108 
2.800179e+3, 1.4385608e+2, -1426809.4, -1873510.0, 66688.414, -0.116221, -0.07562487, -1417066.0, 113135.09, 0.00022583413, 10.002715, 9.996859 
2.7997854e+3, 1.5384695e+2, -1235923.6, -1466411.6, 45378.34, 0.22560813, -0.1472188, -1227311.4, 204978.95, 0.00005282333, 10.002385, 9.999021 
2.7993903e+3, 1.6383786e+2, -1305841.6, -1567184.8, 33170.43, 0.37273785, -0.14677988, -1301697.3, 32681.234, 0.000004777361, 10.001596, 9.998119 
2.79899e+3, 1.7382854e+2, -1121277.8, -1273987.4, 24921.338, -0.057040635, -0.29019356, -1117313.6, 119153.5, 0.00000002399446, 10.001632, 9.999358 
2.7985922e+3, 1.838198e+2, -1203111.6, -1504695.5, -16327.228, -0.22432439, -0.22730054, -1202230.3, -63677.523, 0.0, 10.001386, 9.997316 
2.798198e+3, 1.9381098e+2, -898851.1, -1148679.5, -26768.588, 0.054619618, -0.22614138, -896015.1, 144627.44, 0.0, 10.002249, 9.998583 
2.7978018e+3, 2.038027e+2, -946397.94, -1283784.1, 21530.342, 0.1438111, -0.06927997, -945029.5, -2303.2527, 0.0, 10.00182, 9.997278 
2.797403e+3, 2.1379419e+2, -849564.94, -1043377.1, 34220.41, -0.110409096, -0.027679682, -843700.25, 1109.8179, 0.0, 10.00131, 9.99842 
2.7970055e+3, 2.237856e+2, -880843.06, -1001639.3, 3637.1343, -0.21981315, 0.048531104, -880733.6, -133840.25, 0.0, 10.000296, 9.998595 
2.7966094e+3, 2.3377626e+2, -618042.56, -668379.5, -15798.24, -0.10669904, -0.1392873, -613495.06, 35486.637, 0.0, 10.000833, 9.9999 
2.7962127e+3, 2.4376711e+2, -821751.7, -1101456.6, 6336.2134, -0.02350784, -0.101129666, -821608.25, -270536.0, 0.0, 10.000363, 9.996528 
2.795816e+3, 2.537573e+2, -603550.1, -814357.06, -32522.867, -0.004023161, -0.09992867, -598646.6, -145471.5, 0.0, 10.000747, 9.997548 
2.7954185e+3, 2.63749e+2, -531773.94, -643796.25, -46960.27, -0.03604309, 0.055130705, -514692.6, -159434.31, 0.0, 10.000066, 9.998465 
2.7950206e+3, 2.737418e+2, -326621.28, -326404.25, -38248.918, -0.1344193, 0.08403214, -288263.7, -30940.916, 0.0, 10.000171, 9.999858 
2.7946222e+3, 2.837333e+2, -510405.3, -669552.94, -90651.04, -0.20137823, 0.1490807, -469357.38, -309954.22, 0.0, 9.999465, 9.997219 
2.7942237e+3, 2.93722e+2, -308224.56, -379668.8, -169601.64, -0.20152798, -0.0814229, -170623.9, -109110.14, 0.0, 9.999653, 9.998373 
2.793825e+3, 3.0371282e+2, -330704.22, -311991.94, -150897.7, -0.18992688, -0.087958254, -170160.6, -170160.6, 0.0, 9.998602, 9.998768 
2.7934286e+3, 3.1370583e+2, -358986.2, -117783.2, -8839.343, 0.077633455, -0.12134827, -117459.7, -117459.7, 0.0, 9.997347, 10.000314 
2.7930278e+3, 3.236929e+2, -381933.4, -393951.22, 63568.836, -0.28699484, -0.44746324, -324090.13, -324090.13, 0.0, 9.998358, 9.9978485 
2.8105697e+3, 1.3426131e+2, -1836286.1, -1523212.8, 201390.39, -0.40850997, 0.03556264, -1424677.3, 199560.81, 0.00025074874, 9.998154, 10.001905 
2.8101826e+3, 1.442528e+2, -910202.3, -1643442.1, -105717.36, 0.3634464, -0.105318934, -895264.5, 631046.94, 0.00009142473, 10.006343, 9.996701 
2.80978e+3, 1.5424421e+2, -1148307.9, -1509232.9, -94544.586, 0.09125549, -0.06596781, -1125041.6, 303357.34, 0.000018191195, 10.003309, 9.998324 
2.8093812e+3, 1.64235e+2, -1309462.4, -1577891.4, -11800.222, -0.016321314, -0.028266316, -1308944.6, 21544.672, 0.000001253609, 10.001561, 9.998072 
2.8089842e+3, 1.7422523e+2, -1072578.4, -1292338.5, 16105.593, -0.10804639, -0.17533, -1071404.3, 161177.08, 0.0000000065346386, 10.002089, 9.999042 
2.8085878e+3, 1.842161e+2, -1015743.56, -1307847.9, -44587.28, -0.119599275, -0.16793206, -1009089.25, 125579.695, 0.0, 10.002195, 9.998264 
2.808193e+3, 1.9420695e+2, -818774.6, -1054795.4, 1235.0463, 0.08320601, -0.24179131, -818768.2, 217991.48, 0.0, 10.002519, 9.999119 
2.8077966e+3, 2.041986e+2, -752596.5, -1022222.9, 23597.008, 0.12462748, -0.184464, -750546.94, 188293.88, 0.0, 10.002344, 9.998823 
2.8073975e+3, 2.1419062e+2, -694432.9, -857568.06, 96491.914, -0.114312604, -0.17999268, -649651.9, 191263.84, 0.0, 10.001775, 9.999522 
2.8069997e+3, 2.2418238e+2, -706121.9, -965736.3, 86266.2, -0.19791682, -0.09409124, -680070.9, 62925.945, 0.0, 10.001619, 9.998223 
2.806604e+3, 2.3417301e+2, -463436.7, -707662.7, 9172.243, -0.03981921, -0.15802741, -463092.72, 182000.08, 0.0, 10.002286, 9.998961 
2.8062072e+3, 2.4416398e+2, -432700.94, -797143.2, 304.42316, 0.021631287, -0.110321395, -432700.7, 114483.7, 0.0, 10.0023985, 9.997648 
2.8058094e+3, 2.5415492e+2, -370088.88, -631804.06, 69259.805, -0.041700024, -0.0871928, -352890.3, 96385.445, 0.0, 10.001897, 9.9983015 
2.8054115e+3, 2.6414654e+2, -321371.88, -560003.4, 89977.0, -0.08304851, 0.044059508, -291248.28, 60110.082, 0.0, 10.001456, 9.998414 
2.8050143e+3, 2.7413848e+2, -210749.92, -350996.7, -7439.8755, -0.08333214, 0.08155128, -210356.34, 43077.496, 0.0, 10.001149, 9.99929 
2.804616e+3, 2.84129e+2, -318536.8, -622557.8, -69201.38, -0.091072276, 0.099402376, -303526.28, -148000.47, 0.0, 10.000794, 9.996973 
2.8042164e+3, 2.9411644e+2, -194261.4, -439256.84, -101014.98, -0.15683858, -0.15488382, -157983.44, -100331.27, 0.0, 10.000723, 9.99756 
2.803818e+3, 3.0410796e+2, 83999.06, 138705.16, -136439.48, -0.085830905, -0.12341064, 250506.42, 250506.42, 0.0, 10.000309, 10.001033 
2.803423e+3, 3.141053e+2, 206176.38, 391312.8, -183723.23, 0.4339877, 0.07404057, 504470.38, 504470.38, 0.0, 10.000104, 10.002526 
2.803019e+3, 3.2408917e+2, -565844.8, -985713.5, 117071.06, -0.30493802, -0.5033632, -535408.5, -535408.5, 0.0, 9.999062, 9.993527 
2.8205615e+3, 1.346564e+2, -1280090.3, -1214683.1, 685673.94, -0.45328298, -0.06462249, -560933.3, 1059427.9, 0.00010744943, 10.001921, 10.002157 
2.820185e+3, 1.446491e+2, -1479499.4, -1909546.8, -210075.0, 0.8629528, -0.07483797, -1393912.5, 128514.06, 0.00003510944, 10.002498, 9.996686 
2.819774e+3, 1.5464121e+2, -1099510.8, -1466000.9, -174456.9, -0.044602785, 0.0014219487, -1029745.94, 394764.03, 0.0000055355054, 10.003667, 9.998412 
2.8193724e+3, 1.6463251e+2, -1120010.9, -1513088.4, 70532.07, -0.32026485, 0.11032064, -1107738.1, 218858.19, 0.0000002527922, 10.003065, 9.997789 
2.8189796e+3, 1.7462263e+2, -1082420.0, -1320163.4, 75298.305, -0.023328973, -0.027338395, -1060578.1, 168110.64, 0.0, 10.002215, 9.998797 
2.818585e+3, 1.846135e+2, -1101871.0, -1284503.9, 35573.418, 0.13864347, -0.020975735, -1095186.6, 35588.605, 0.0, 10.001388, 9.998807 
2.8181887e+3, 1.9460413e+2, -942859.75, -1054126.9, 45402.082, 0.20284036, -0.19059749, -926684.94, 106180.914, 0.0, 10.001426, 9.99966 
2.8177914e+3, 2.0459552e+2, -889502.1, -958559.4, 26234.777, 0.15209678, -0.22330427, -880666.2, 54278.953, 0.0, 10.001007, 9.999835 
2.8173915e+3, 2.1458715e+2, -713777.9, -704145.56, 43030.867, -0.08687345, -0.42694226, -665662.2, 171355.22, 0.0, 10.001085, 10.00084 
2.8169942e+3, 2.2457892e+2, -959217.25, -1307094.5, 92290.11, -0.13378349, -0.30680832, -936249.5, -197149.6, 0.0, 10.000961, 9.996152 
2.8166002e+3, 2.3456974e+2, -709402.4, -1017908.8, 36331.22, 0.10769097, -0.19971362, -705181.56, -63976.84, 0.0, 10.001574, 9.997109 
2.8162032e+3, 2.4456185e+2, -487427.94, -633143.3, -7112.2915, 0.1379025, -0.008591882, -487081.63, 56204.16, 0.0, 10.00135, 9.999239 
2.8158033e+3, 2.5455427e+2, -352624.7, -385721.84, 42268.938, -0.055912834, -0.07530413, -323780.3, 121570.984, 0.0, 10.001101, 10.000337 
2.8154045e+3, 2.6454467e+2, -629671.9, -938734.7, 64049.652, -0.16937412, -0.06174077, -616924.1, -269482.34, 0.0, 10.000508, 9.996203 
2.8150067e+3, 2.7453196e+2, -462665.38, -686335.06, -12475.4, -0.18720463, -0.32323432, -461971.7, -212403.08, 0.0, 10.000489, 9.997237 
2.8146085e+3, 2.8452083e+2, -480952.53, -724472.7, -89198.83, -0.14228319, -0.32986763, -451775.72, -300096.7, 0.0, 9.999975, 9.996599 
2.8142115e+3, 2.9451036e+2, -293555.53, -448776.7, -91944.2, 0.021683976, -0.42090273, -250845.14, -197061.94, 0.0, 10.000046, 9.997746 
2.813812e+3, 3.0450284e+2, -89648.35, -91977.44, -149722.06, -0.0037835133, -0.24249984, 58913.69, 58913.69, 0.0, 9.999844, 9.999659 
2.8134122e+3, 3.1449857e+2, 30976.59, 168607.9, -209598.03, 0.02669604, -0.10120889, 320398.1, 320398.1, 0.0, 9.999573, 10.00123 
2.813011e+3, 3.2449088e+2, -304182.4, -135316.3, 115172.52, -0.34114197, -0.068792515, -76943.016, -76943.016, 0.0, 9.99798, 9.999797 
2.8305623e+3, 1.3505024e+2, -1338111.3, -1701080.0, 220162.45, -0.16502403, -0.30879754, -1234274.6, 382211.22, 0.00005064086, 10.003434, 9.998113 
2.8301752e+3, 1.4504416e+2, -1723148.4, -1699065.3, -114311.98, 0.5309558, -0.102712855, -1596162.4, -77610.73, 0.00001538915, 9.999422, 9.999598 
2.829771e+3, 1.5503733e+2, -842986.56, -1084213.0, 37360.57, -0.022477647, -0.16161416, -837332.75, 583286.6, 0.0000020566958, 10.0043, 10.000735 
2.829371e+3, 1.6502957e+2, -726759.8, -1227931.3, 76068.04, -0.1994531, -0.10508818, -715468.56, 607225.56, 0.00000005936716, 10.005312, 9.998671 
2.8289747e+3, 1.7502026e+2, -967502.1, -1233119.4, 130767.125, -0.04946586, -0.20840971, -913928.94, 310852.84, 0.0, 10.002801, 9.999137 
2.8285784e+3, 1.8501152e+2, -1127271.1, -1285176.8, 117006.59, 0.08102189, -0.1745215, -1065071.3, 61794.438, 0.0, 10.001091, 9.998981 
2.828182e+3, 1.9500257e+2, -1129286.9, -1181457.1, 128483.43, 0.2002906, -0.2564433, -1024267.4, 4685.791, 0.0, 10.000225, 9.999409 
2.827785e+3, 2.0499417e+2, -978605.7, -1031395.8, 98818.66, 0.18519965, -0.23923187, -902717.7, 28315.51, 0.0, 10.000438, 9.999649 
2.827387e+3, 2.1498561e+2, -615592.25, -744237.0, 59526.15, 0.0054468308, -0.35961503, -592274.8, 240837.56, 0.0, 10.002048, 10.000139 
2.8269896e+3, 2.2497706e+2, -571351.44, -985257.75, 72368.52, -0.07358519, -0.29840463, -559063.1, 176134.95, 0.0, 10.002941, 9.997438 
2.8265935e+3, 2.349678e+2, -466009.34, -849180.94, 143562.58, -0.019448891, -0.24904159, -418188.94, 219109.88, 0.0, 10.002861, 9.997725 
2.826196e+3, 2.4495956e+2, -293722.25, -513132.47, 64973.23, -0.023785204, -0.124117896, -275925.47, 263455.9, 0.0, 10.002492, 9.999545 
2.825797e+3, 2.5495157e+2, -226635.11, -382755.0, -23722.18, -0.106292315, -0.16426842, -223110.16, 218341.77, 0.0, 10.002084, 9.999954 
2.8253984e+3, 2.6494172e+2, -382412.4, -816678.3, -843.4397, -0.16456954, -0.16846688, -382410.78, -38863.652, 0.0, 10.00212, 9.996277 
2.8250003e+3, 2.7492908e+2, -175934.23, -622636.44, 3795.119, -0.21852013, -0.35514277, -175902.0, 69774.48, 0.0, 10.002732, 9.996614 
2.8246024e+3, 2.849182e+2, -77581.23, -368218.4, -8396.832, -0.106637254, -0.37793234, -77338.836, 70445.58, 0.0, 10.001961, 9.9981 
2.8242052e+3, 2.9490846e+2, -227492.8, -359443.34, 24874.54, 0.14853565, -0.44369844, -222959.36, -173082.73, 0.0, 10.0001, 9.998378 
2.823804e+3, 3.0490056e+2, -244107.17, -212760.95, 43464.074, 0.05449654, -0.30894557, -182230.47, -182230.47, 0.0, 9.998856, 9.999335 
2.8234017e+3, 3.1489453e+2, -212157.19, -111462.195, -23688.238, -0.16653521, -0.20144589, -106167.95, -106167.95, 0.0, 9.998433, 9.9999075 
2.8230038e+3, 3.248915e+2, 131362.38, 506237.63, 134347.66, -0.14636101, 0.18317637, 549412.56, 549412.56, 0.0, 9.998903, 10.003847 
2.8405607e+3, 1.3544585e+2, -1472434.9, -2106758.8, -124097.72, 0.10363941, -0.44382247, -1449020.9, 163576.06, 0.00002671971, 10.003898, 9.995157 
2.8401646e+3, 1.4544003e+2, -1479173.3, -1323278.4, 191411.55, 0.2998482, -0.15416193, -1194551.8, 320115.38, 0.000008259606, 9.99997, 10.001907 
2.8397688e+3, 1.5543395e+2, -979550.0, -926313.5, 191503.05, 0.14256386, -0.35666916, -759587.6, 657134.75, 0.0000013335809, 10.002363, 10.002759 
2.8393707e+3, 1.6542692e+2, -1032277.6, -1312672.3, -30057.031, 0.058291826, -0.34969738, -1029091.8, 289696.16, 0.000000073245815, 10.003048, 9.999133 
2.8389698e+3, 1.7541811e+2, -1007989.4, -1227254.6, -23773.637, -0.029504482, -0.45903707, -1005441.4, 215430.69, 0.0, 10.002479, 9.99931 
2.8385714e+3, 1.8540983e+2, -1119512.1, -1336714.9, 39899.35, 0.03823381, -0.35716224, -1112414.6, 10537.376, 0.0, 10.001486, 9.998376 
2.8381747e+3, 1.954012e+2, -1114503.3, -1255180.9, 37459.71, 0.23035032, -0.3873325, -1105150.3, -80113.18, 0.0, 10.000751, 9.998595 
2.837779e+3, 2.0539317e+2, -1062803.3, -1226542.4, 129980.945, 0.2664888, -0.22390899, -991057.5, -63938.51, 0.0, 10.000616, 9.998193 
2.8373826e+3, 2.1538478e+2, -868630.44, -1041867.25, 87547.04, 0.17795247, -0.2151684, -832093.5, -2887.2961, 0.0, 10.001169, 9.998483 
2.836985e+3, 2.2537626e+2, -661974.2, -808480.1, 62076.844, -0.019305242, -0.15640791, -639208.75, 92081.2, 0.0, 10.001493, 9.999318 
2.8365856e+3, 2.3536679e+2, -529528.75, -682985.5, 112001.875, -0.29844984, -0.3598547, -470493.84, 162886.5, 0.0, 10.001678, 9.9994135 
2.8361875e+3, 2.4535738e+2, -602961.8, -921214.5, 36596.285, -0.352281, -0.3056837, -598807.75, -63335.063, 0.0, 10.001601, 9.997153 
2.8357902e+3, 2.5534722e+2, -524129.88, -793098.0, -45104.367, -0.17481138, -0.36841244, -516767.66, -79194.086, 0.0, 10.001314, 9.997484 
2.835393e+3, 2.653386e+2, -470844.06, -756235.6, 14467.786, -0.13447988, -0.15570556, -470112.5, -130449.305, 0.0, 10.001228, 9.997059 
2.8349954e+3, 2.7533007e+2, -244398.11, -558891.94, 25336.348, -0.20470476, -0.055731785, -242370.03, -614.98816, 0.0, 10.001977, 9.997362 
2.8345963e+3, 2.8532144e+2, -73934.4, -167640.88, -79533.09, -0.12684307, 0.026841046, -28479.787, 115358.33, 0.0, 10.001259, 9.999773 
2.8341967e+3, 2.9531184e+2, -244989.38, -192654.8, -21525.115, 0.06793303, -0.23136671, -184939.1, -139016.44, 0.0, 9.999338, 9.999867 
2.8337944e+3, 3.0530313e+2, -415067.75, -323382.84, 41127.516, -0.02167239, -0.22088629, -307637.94, -307637.94, 0.0, 9.997984, 9.998933 
2.833393e+3, 3.1529495e+2, -475415.2, -308093.63, 21354.59, -0.06676158, -0.30659172, -305411.25, -305411.25, 0.0, 9.997102, 9.999141 
2.832994e+3, 3.252862e+2, -132847.44, 171209.97, 325249.72, -0.3681986, -0.40470535, 378207.88, 378207.88, 0.0, 9.998236, 10.001742 
2.8505546e+3, 1.358482e+2, -1094474.9, -1435622.0, -420905.7, -0.26626986, -0.26171523, -810893.25, 797763.2, 0.0000133144695, 10.004289, 9.999641 
2.8501588e+3, 1.4583907e+2, -1494020.1, -1482790.1, 306650.22, 0.36552685, -0.4044172, -1181703.5, 329044.38, 0.0000038169696, 10.000465, 10.000596 
2.8497624e+3, 1.5583354e+2, -1424307.5, -1357343.9, 255409.31, 0.13668437, -0.37293842, -1133231.1, 279572.16, 0.0000005153316, 10.000164, 10.000892 
2.849365e+3, 1.6582641e+2, -1335256.3, -1511190.8, -27965.32, 0.054557323, -0.25766096, -1330918.1, -16043.232, 0.00000002542409, 10.001144, 9.9986925 
2.8489652e+3, 1.7581758e+2, -979108.9, -1285028.3, -32617.82, -0.025659746, -0.2988548, -975669.75, 241293.8, 0.0, 10.002932, 9.998713 
2.8485668e+3, 1.8580875e+2, -768082.7, -1130150.8, -46266.24, 0.011821708, -0.25274765, -762264.1, 356783.78, 0.0, 10.003667, 9.998753 
2.8481695e+3, 1.9579926e+2, -692995.5, -1044473.25, -1026.1669, 0.16950749, -0.36943707, -692992.56, 328143.56, 0.0, 10.003506, 9.998734 
2.8477722e+3, 2.0579058e+2, -799373.9, -1126686.5, 60781.547, 0.15310502, -0.27485815, -788451.3, 134772.8, 0.0, 10.00247, 9.998011 
2.8473744e+3, 2.1578176e+2, -943365.0, -1121735.1, 72233.664, 0.007465401, -0.23752002, -917782.1, -92463.625, 0.0, 10.000715, 9.998205 
2.8469777e+3, 2.2577398e+2, -741715.44, -756575.4, 65795.3, -0.08897117, -0.14273018, -682931.94, 44464.01, 0.0, 10.00051, 10.000148 
2.8465804e+3, 2.3576602e+2, -512473.78, -615857.44, 46515.234, -0.2201309, -0.22461289, -494626.3, 134842.98, 0.0, 10.001445, 10.000007 
2.8461823e+3, 2.4575663e+2, -473482.4, -839400.56, -24689.371, -0.29031834, -0.22951578, -471824.06, 59736.75, 0.0, 10.002269, 9.997444 
2.8457838e+3, 2.557457e+2, -294302.38, -689390.25, 18959.36, -0.2685721, -0.328747, -293394.66, 140275.86, 0.0, 10.002777, 9.997548 
2.8453863e+3, 2.657371e+2, -318180.34, -550608.8, 98204.945, -0.2048437, -0.17784129, -282243.47, 53516.2, 0.0, 10.001615, 9.998327 
2.844989e+3, 2.757298e+2, -494736.56, -560513.06, 96561.805, -0.15730953, 0.0018185067, -425615.9, -187778.1, 0.0, 9.999613, 9.998557 
2.84459e+3, 2.8572223e+2, -292436.3, -197121.14, -61940.195, -0.054841507, 0.09532776, -166626.11, -26716.31, 0.0, 9.999332, 10.000542 
2.8441888e+3, 2.9571366e+2, -106124.445, -56672.98, -129184.67, 0.08120505, -0.08803833, 50130.91, 92115.38, 0.0, 9.99994, 10.000533 
2.8437865e+3, 3.057044e+2, 29467.014, -95746.32, -42170.383, 0.03986925, -0.19086131, 42345.023, 42345.023, 0.0, 10.000841, 9.999179 
2.8433865e+3, 3.156947e+2, 213531.28, -9988.0205, -45002.57, 0.11597597, -0.40319738, 222251.72, 222251.72, 0.0, 10.001845, 9.998979 
2.8429845e+3, 3.25684e+2, -216532.25, -135726.11, 183531.72, -0.44306472, -0.5747943, 11797.1455, 11797.1455, 0.0, 9.998529, 9.999621 
2.8605497e+3, 1.3625014e+2, -1288417.4, -1148686.5, -599772.44, -0.31151557, -0.17614117, -614724.0, 989994.75, 0.0000059672334, 10.001411, 10.002969 
2.8601527e+3, 1.4623858e+2, -1444012.9, -1645010.0, 207598.89, 0.4469317, -0.61061823, -1313866.1, 192960.44, 0.0000015122073, 10.001695, 9.998857 
2.8597558e+3, 1.5623389e+2, -1488422.1, -1615499.8, 190808.88, 0.1696809, -0.32201794, -1350851.0, 58028.465, 0.0000000966577, 10.000752, 9.998816 
2.8593588e+3, 1.6622649e+2, -1363645.6, -1599159.9, 68708.55, 0.096360244, -0.09716688, -1345066.4, -34107.55, 0.00000000026919006, 10.001316, 9.998006 
2.858961e+3, 1.7621733e+2, -1075970.8, -1419372.9, 60330.434, 0.052450314, -0.10950331, -1065680.0, 147375.52, 0.0, 10.002681, 9.997908 
2.8585628e+3, 1.8620797e+2, -881757.4, -1132447.4, 3749.2214, 0.051023886, -0.08891933, -881701.3, 233442.2, 0.0, 10.002794, 9.999129 
2.858165e+3, 1.9619769e+2, -926929.9, -1146207.3, -7629.5776, 0.15865657, -0.32607946, -926664.75, 90569.34, 0.0, 10.001982, 9.998745 
2.8577656e+3, 2.0618816e+2, -977981.1, -1231693.5, 32643.746, 0.053304426, -0.29307, -973848.4, -54519.652, 0.0, 10.001389, 9.997794 
2.8573653e+3, 2.1617822e+2, -1065769.5, -1236510.0, 37317.773, -0.20786786, -0.36630818, -1057969.5, -236535.06, 0.0, 10.000151, 9.997703 
2.8569698e+3, 2.2617127e+2, -853546.3, -854703.2, 134009.45, -0.14026682, -0.13460772, -720114.06, 3391.7495, 0.0, 10.000046, 9.999628 
2.856578e+3, 2.361654e+2, -682225.6, -760405.6, 81576.19, 0.12931815, 0.0031882308, -630857.3, -5294.8237, 0.0, 10.000699, 9.999303 
2.8561795e+3, 2.4615712e+2, -537939.75, -697610.44, 6696.676, -0.028076453, 0.07417503, -537659.4, -10016.4, 0.0, 10.001288, 9.998765 
2.855777e+3, 2.561464e+2, -419173.0, -633733.6, 33169.527, -0.4253975, -0.1845269, -414162.25, 15585.042, 0.0, 10.001572, 9.998421 
2.8553784e+3, 2.6613697e+2, -399215.78, -521110.28, 17894.92, -0.3777383, -0.17942044, -396643.0, -64804.063, 0.0, 10.000849, 9.998856 
2.8549817e+3, 2.7612776e+2, -610517.4, -596813.5, 29965.313, -0.07671265, -0.2920526, -572926.7, -338997.97, 0.0, 9.99878, 9.998698 
2.8545827e+3, 2.8612015e+2, -516966.2, -433401.25, -46492.523, 0.074692994, -0.13362762, -412675.1, -276672.1, 0.0, 9.998528, 9.999232 
2.8541815e+3, 2.961126e+2, -330796.97, -323618.25, -97239.234, 0.12232652, -0.11231742, -229902.14, -191825.86, 0.0, 9.999214, 9.9990015 
2.8537804e+3, 3.0610302e+2, -1517.6376, -56238.527, -20132.252, 0.05947235, -0.19195168, 5091.043, 5091.043, 0.0, 10.000565, 9.999504 
2.853381e+3, 3.1609255e+2, 109672.76, -77067.27, -22027.316, 0.095296845, -0.55470717, 112235.85, 112235.85, 0.0, 10.001376, 9.998674 
2.852977e+3, 3.260878e+2, -463186.1, -284642.88, -46764.83, -0.3205519, -0.113392174, -273135.66, -273135.66, 0.0, 9.997199, 9.999157 
2.8705463e+3, 1.3664962e+2, -1774868.0, -1768303.3, -377871.84, 0.08006619, -0.1699056, -1393699.5, 207103.48, 0.0000021514043, 9.999634, 9.999623 
2.8701425e+3, 1.4663717e+2, -1189103.0, -1418363.3, 84985.15, -0.14895463, -0.59701836, -1161035.8, 341892.56, 0.00000043033984, 10.002942, 9.999829 
2.8697488e+3, 1.5663521e+2, -1341224.5, -1485342.1, 168016.17, 0.03410985, -0.0963716, -1230466.8, 174484.9, 0.000000019645139, 10.001446, 9.999402 
2.8693536e+3, 1.6662773e+2, -1201573.9, -1391280.8, 144228.69, 0.102103606, 0.031118773, -1123803.3, 183223.84, 0.0, 10.001863, 9.999169 
2.8689557e+3, 1.7661718e+2, -1003028.94, -1304394.4, 198781.02, -0.035118505, -0.18293089, -904273.94, 304857.9, 0.0, 10.002803, 9.998654 
2.8685576e+3, 1.8660758e+2, -981021.4, -1235871.0, 36961.48, 0.042417515, -0.18897188, -975769.0, 135454.52, 0.0, 10.0022135, 9.99876 
2.8681594e+3, 1.9659768e+2, -1187104.1, -1328781.8, 62263.496, 0.26364872, -0.29964983, -1163630.3, -150314.58, 0.0, 10.000272, 9.998398 
2.8677598e+3, 2.0658839e+2, -996830.3, -1129557.5, 150290.86, 0.11435551, -0.2791428, -898903.1, 16503.514, 0.0, 10.000755, 9.998796 
2.867359e+3, 2.1657881e+2, -683264.7, -969639.7, 206413.63, -0.2707113, -0.35483032, -575236.6, 242267.14, 0.0, 10.002337, 9.9985 
2.8669637e+3, 2.2657055e+2, -471561.78, -704170.56, 285349.7, -0.22331774, -0.26873133, -279724.72, 439861.28, 0.0, 10.002672, 9.999454 
2.8665715e+3, 2.3656301e+2, -464735.94, -677258.56, 252746.72, 0.081153825, -0.21288188, -296821.47, 324838.06, 0.0, 10.002127, 9.999251 
2.8661737e+3, 2.4655563e+2, -447755.25, -573976.25, 134716.2, 0.002507125, -0.08395702, -362099.53, 161633.48, 0.0, 10.001436, 9.999579 
2.865772e+3, 2.5654727e+2, -467197.06, -576121.2, 106012.99, -0.33117878, -0.12531818, -402474.94, 23341.35, 0.0, 10.00076, 9.999248 
2.8653726e+3, 2.6653764e+2, -286552.75, -410114.22, 64958.344, -0.30213127, -0.21284097, -258687.25, 69220.67, 0.0, 10.001235, 9.999486 
2.864975e+3, 2.7652693e+2, -71694.875, -300161.63, 40434.906, -0.035453584, -0.47944698, -64749.684, 165258.34, 0.0, 10.002156, 9.999158 
2.864575e+3, 2.8651902e+2, 551.9821, -197340.72, 42094.652, 0.089172564, -0.36961132, 9133.954, 141219.38, 0.0, 10.002072, 9.999162 
2.864174e+3, 2.965122e+2, 30544.096, -182117.38, 53047.063, 0.08995234, -0.21177012, 43041.875, 77197.41, 0.0, 10.001713, 9.998814 
2.863773e+3, 3.0650306e+2, 119002.91, 20534.195, 140136.64, 0.02677938, -0.23716041, 218302.38, 218302.38, 0.0, 10.001217, 9.999761 
2.8633747e+3, 3.1649294e+2, 60137.145, -72688.625, 36333.35, 0.054729637, -0.5217184, 69426.195, 69426.195, 0.0, 10.000766, 9.999059 
2.8629687e+3, 3.2649037e+2, -73489.04, -90733.16, -187572.63, -0.18025449, 0.13232656, 105659.586, 105659.586, 0.0, 9.99969, 9.999328 
2.8805408e+3, 1.370475e+2, -1852690.8, -2108802.8, -76647.51, 0.31140223, -0.2627422, -1831504.8, -234600.56, 0.00000033823923, 10.000436, 9.996864 
2.8801337e+3, 1.4703645e+2, -1126542.3, -1285427.5, 31868.387, -0.5449587, -0.47631267, -1120388.6, 378634.6, 0.000000039050374, 10.002979, 10.000694 
2.8797424e+3, 1.5703608e+2, -1254311.1, -1382792.6, 57671.516, 0.008995337, 0.10360861, -1232221.9, 168806.13, 0.0000000006124831, 10.001799, 9.999942 
2.8793478e+3, 1.670285e+2, -1186312.8, -1241375.8, 119981.08, 0.1334788, 0.12177817, -1090744.9, 212353.44, 0.0, 10.001422, 10.00035 
2.8789505e+3, 1.770168e+2, -1203175.6, -1342659.8, 124480.695, -0.05928176, -0.3541848, -1130231.3, 74975.86, 0.0, 10.00121, 9.999129 
2.878552e+3, 1.8700738e+2, -1174225.9, -1383920.9, -53776.15, 0.090367734, -0.33164024, -1161239.3, -53939.695, 0.0, 10.001285, 9.998124 
2.878154e+3, 1.9699848e+2, -1192586.1, -1402214.0, -4249.2227, 0.4708576, -0.30848223, -1192500.0, -183110.69, 0.0, 10.000667, 9.997672 
2.8777543e+3, 2.0699017e+2, -932156.6, -994646.75, 207722.06, 0.2714279, -0.2051272, -753342.9, 158125.66, 0.0, 10.000895, 9.999613 
2.877354e+3, 2.1698138e+2, -822718.25, -1003134.6, 217554.7, -0.19871643, -0.30344257, -677410.9, 136139.69, 0.0, 10.001381, 9.9986925 
2.8769577e+3, 2.2697084e+2, -664625.4, -805212.3, 238889.02, -0.29155758, -0.43979064, -485902.5, 229748.73, 0.0, 10.001542, 9.999251 
2.8765634e+3, 2.3695962e+2, -744117.7, -889107.06, 193620.25, -0.15763994, -0.75573784, -609865.44, 7893.5513, 0.0, 10.000702, 9.998445 
2.8761664e+3, 2.4695346e+2, -587596.0, -650146.25, 93902.375, -0.055327706, -0.45461982, -519897.44, -74.38057, 0.0, 10.000604, 9.999454 
2.875768e+3, 2.5694868e+2, -657885.3, -727000.5, 81604.26, -0.012872007, -0.14624129, -603823.06, -181947.03, 0.0, 9.999811, 9.998672 
2.8753683e+3, 2.6693943e+2, -402769.0, -437260.28, 95545.83, -0.068981364, -0.1769812, -322924.9, 1039.1516, 0.0, 10.000454, 9.999625 
2.8749686e+3, 2.769275e+2, -275626.3, -424380.13, 74515.47, -0.12410083, -0.60288566, -244720.36, -18645.582, 0.0, 10.001001, 9.99883 
2.8745675e+3, 2.8691924e+2, -23065.723, -111500.54, 31428.201, -0.12934868, -0.55921793, -13034.526, 115117.94, 0.0, 10.001565, 9.999962 
2.8741658e+3, 2.9691216e+2, -82870.35, -251097.31, 69264.016, -0.13461517, -0.520423, -58022.457, -27801.8, 0.0, 10.001073, 9.99864 
2.8737655e+3, 3.069045e+2, -46313.86, -147957.08, 99418.45, -0.12276804, -0.3391197, 14519.644, 14519.644, 0.0, 10.000618, 9.998858 
2.873367e+3, 3.1689623e+2, -323581.03, -408730.22, 22982.477, 0.0031024434, -0.34978092, -317773.9, -317773.9, 0.0, 9.998916, 9.997631 
2.8729585e+3, 3.2688835e+2, -165921.7, 30867.465, -89254.06, -0.4757913, -0.34026217, 65317.836, 65317.836, 0.0, 9.998664, 10.000512 
2.8905338e+3, 1.3744283e+2, -1705905.1, -1879948.8, 66399.68, 0.16799966, -0.47138107, -1683465.9, -90439.4, 0.0000000032251708, 10.000693, 9.998349 
2.890134e+3, 1.4743578e+2, -1210372.6, -1443554.4, -20573.982, -0.11975555, -0.28391108, -1208571.3, 286535.3, 0.0, 10.002883, 9.999661 
2.8897357e+3, 1.5742958e+2, -1236342.8, -1431551.5, -10986.048, -0.14829938, -0.1783055, -1235726.4, 161443.9, 0.0, 10.002083, 9.999506 
2.88934e+3, 1.6742298e+2, -1118194.8, -1055076.1, 350.1986, -0.0722316, -0.15038726, -1055074.1, 244157.1, 0.0, 10.001141, 10.001803 
2.8889433e+3, 1.7741537e+2, -1306122.8, -1255610.8, 41098.004, -0.09717962, -0.33882692, -1232628.6, -31329.332, 0.0, 9.999803, 10.000448 
2.8885448e+3, 1.8740706e+2, -1088744.1, -1249629.0, -55828.848, -0.010983788, -0.32338712, -1071269.0, 32111.586, 0.0, 10.0013485, 9.999058 
2.888146e+3, 1.9739844e+2, -704878.2, -1078407.4, 40524.023, 0.1531342, -0.32715604, -700532.3, 304935.13, 0.0, 10.003506, 9.998572 
2.8877485e+3, 2.073903e+2, -608524.75, -851894.56, 149063.4, 0.20364964, -0.25098443, -537785.4, 369760.47, 0.0, 10.003058, 9.999588 
2.8873512e+3, 2.1738186e+2, -785443.44, -972567.5, 162871.25, 0.11470056, -0.29162347, -691173.4, 118451.8, 0.0, 10.001445, 9.998908 
2.8869534e+3, 2.2737214e+2, -728477.1, -894464.3, 149583.48, -0.11240995, -0.34624225, -640405.94, 71314.26, 0.0, 10.001205, 9.99886 
2.8865552e+3, 2.3736157e+2, -650282.7, -853077.0, 103968.19, -0.35495564, -0.5337913, -606453.25, 7371.426, 0.0, 10.001185, 9.998532 
2.8861588e+3, 2.4735396e+2, -439520.03, -585618.9, 13224.503, -0.16218172, -0.40524206, -438332.63, 77568.695, 0.0, 10.001588, 9.999455 
2.885763e+3, 2.573474e+2, -279477.53, -502411.88, -13009.619, 0.1471004, -0.24256843, -278720.9, 139247.58, 0.0, 10.002092, 9.999172 
2.885363e+3, 2.6733944e+2, -214524.1, -233876.23, 15391.366, 0.06225909, -0.24586672, -206019.94, 114022.805, 0.0, 10.001215, 10.000658 
2.8849608e+3, 2.773301e+2, -360569.38, -375673.56, 39693.195, -0.19550301, -0.4720406, -327716.22, -105588.4, 0.0, 9.999938, 9.999691 
2.88456e+3, 2.873216e+2, -105710.53, -224870.13, -9404.471, -0.22595376, -0.4691867, -104972.87, 19236.268, 0.0, 10.00112, 9.999461 
2.88416e+3, 2.9731348e+2, 173674.69, -133557.42, -88290.51, -0.1500051, -0.48440328, 197239.63, 223527.98, 0.0, 10.0027, 9.998713 
2.8837594e+3, 3.073051e+2, 36500.313, -130132.11, -71369.984, -0.020664874, -0.3942905, 62889.457, 62889.457, 0.0, 10.001229, 9.99875 
2.883361e+3, 3.1729645e+2, -331148.1, -392321.53, -57987.77, 0.25221497, -0.37767744, -296174.7, -296174.7, 0.0, 9.998665, 9.997966 
2.8829512e+3, 3.272897e+2, 564755.1, 426750.03, -178855.56, -0.5357446, -0.2179057, 687457.2, 687457.2, 0.0, 10.003241, 10.001261 
2.9005286e+3, 1.3784005e+2, -1511175.8, -1663449.9, 267677.75, 0.27267253, -0.53351593, -1309017.6, 280114.63, 0.000000008553674, 10.001506, 9.999467 
2.900133e+3, 1.4783461e+2, -1432524.5, -1645443.4, 34593.363, 0.3449233, -0.17314224, -1427045.0, 64149.766, 0.0, 10.001816, 9.998787 
2.8997293e+3, 1.5782268e+2, -1401536.4, -1559972.8, 76540.31, -0.2279155, -0.55491716, -1370600.4, 22714.785, 0.0, 10.0012245, 9.999022 
2.8993323e+3, 1.6781765e+2, -1074629.9, -906096.75, 61650.668, -0.18454404, -0.40786904, -885952.25, 409409.5, 0.0, 10.001002, 10.002842 
2.8989363e+3, 1.7781428e+2, -1241845.3, -1151077.1, 61606.598, -0.0067436225, -0.28605756, -1119942.6, 77447.52, 0.0, 10.000002, 10.001056 
2.8985372e+3, 1.8780704e+2, -1042405.1, -1111342.3, 44719.883, -0.103767596, -0.23974565, -1020411.8, 79048.055, 0.0, 10.001229, 10.000017 
2.898138e+3, 1.9779828e+2, -827797.75, -1084193.4, 56793.15, -0.20249894, -0.38175815, -815780.94, 185765.0, 0.0, 10.002504, 9.9989605 
2.8977433e+3, 2.0779e+2, -765323.44, -965175.56, 78707.984, 0.14609861, -0.31860113, -738048.25, 165579.14, 0.0, 10.002227, 9.999148 
2.89735e+3, 2.177815e+2, -1018075.9, -1178256.6, 119153.85, 0.60615116, -0.3447786, -954597.06, -148885.67, 0.0, 10.000355, 9.997978 
2.8969494e+3, 2.2777441e+2, -873199.9, -1000684.0, 174128.27, 0.17516308, -0.07544759, -751513.5, -43726.824, 0.0, 10.000544, 9.998359 
2.896547e+3, 2.3776707e+2, -874696.5, -1063457.9, 118062.17, -0.51021737, 0.086296774, -817926.94, -208061.22, 0.0, 10.000206, 9.997516 
2.8961512e+3, 2.4775611e+2, -575350.0, -656127.5, 44830.3, -0.30989656, -0.06976326, -555398.0, -43425.91, 0.0, 10.000845, 9.999224 
2.8957576e+3, 2.5774392e+2, -530549.1, -640533.3, -5166.764, 0.18229088, -0.48634207, -530306.94, -116219.375, 0.0, 10.000604, 9.998865 
2.895356e+3, 2.6773834e+2, -237906.55, -84472.06, -26205.49, 0.055309672, -0.32738045, -80119.81, 236017.89, 0.0, 10.000475, 10.001987 
2.8949523e+3, 2.7773428e+2, -504470.28, -453933.47, 35201.25, -0.28397357, -0.17177609, -435870.34, -217697.56, 0.0, 9.999083, 9.999552 
2.8945532e+3, 2.877258e+2, -312512.78, -518204.53, 36395.57, -0.25455153, -0.042260315, -306262.75, -186001.44, 0.0, 10.000687, 9.99761 
2.8941557e+3, 2.9771549e+2, -51000.734, -404566.47, -84114.93, -0.08113125, -0.10906854, -32009.486, -9639.005, 0.0, 10.002005, 9.997143 
2.8937533e+3, 3.0770594e+2, 169260.28, 124979.95, -200065.94, 0.028817048, -0.20354125, 348407.4, 348407.4, 0.0, 10.001548, 10.000141 
2.8933504e+3, 3.1769723e+2, -531184.0, -738246.1, -3236.21, 0.09463532, -0.30601794, -531133.44, -531133.44, 0.0, 9.998608, 9.995477 
2.8929484e+3, 3.276903e+2, -28073.084, -259730.61, 104712.34, -0.53578776, 0.06307812, 12242.243, 12242.243, 0.0, 10.001344, 9.997105 
2.9105216e+3, 1.3824297e+2, -1506028.3, -1666239.3, 100708.62, 0.047487974, -0.15327534, -1457451.6, 127743.5, 0.00000000038720277, 10.001451, 9.999539 
2.9101247e+3, 1.482351e+2, -1439770.9, -1414349.5, 103462.94, 0.112478934, -0.1710999, -1322819.4, 164453.7, 0.0, 10.000666, 10.000976 
2.9097232e+3, 1.5822566e+2, -1375003.6, -1418502.5, 236074.98, -0.25333494, -0.47914943, -1159678.4, 229682.38, 0.0, 10.000766, 10.000257 
2.9093266e+3, 1.6822009e+2, -1137051.1, -1080128.4, 173382.7, -0.10441186, -0.34282506, -932886.6, 358527.6, 0.0, 10.001147, 10.001595 
2.9089308e+3, 1.7821527e+2, -1132386.5, -1217369.8, 137851.73, 0.07193902, -0.21399708, -1030626.1, 162834.84, 0.0, 10.00116, 10.000077 
2.9085326e+3, 1.8820645e+2, -987627.44, -1172273.0, 72518.15, 0.006753808, -0.24667437, -962551.9, 132995.9, 0.0, 10.001888, 9.999323 
2.9081342e+3, 1.981966e+2, -869477.8, -1108099.5, 28967.346, -0.12088816, -0.41577026, -866011.7, 131633.02, 0.0, 10.002114, 9.999024 
2.907737e+3, 2.0818937e+2, -717927.3, -852285.9, -6949.247, 0.053068046, -0.32654607, -717568.9, 182147.0, 0.0, 10.002007, 10.000089 
2.9073402e+3, 2.1818241e+2, -780097.1, -946537.3, 110985.45, 0.28004998, -0.26425636, -724596.8, 77187.26, 0.0, 10.001339, 9.99914 
2.9069418e+3, 2.2817524e+2, -664576.44, -845488.75, 236332.08, 0.042168103, -0.08224323, -501980.88, 201877.73, 0.0, 10.00166, 9.998928 
2.906542e+3, 2.3816754e+2, -527968.44, -819035.2, 224144.0, -0.38957736, 0.03102518, -406255.7, 199683.53, 0.0, 10.00209, 9.998342 
2.9061455e+3, 2.481569e+2, -488216.97, -630670.3, 146264.72, -0.23340769, -0.112016104, -396758.0, 111284.04, 0.0, 10.00134, 9.999223 
2.90575e+3, 2.5814518e+2, -535293.56, -599896.9, 113413.914, 0.11096142, -0.44999105, -449671.03, -39517.766, 0.0, 10.000185, 9.99939 
2.9053488e+3, 2.6813915e+2, -175392.22, -112560.5, 49517.723, 0.027210888, -0.3292835, -85333.7, 226875.92, 0.0, 10.000946, 10.00166 
2.904946e+3, 2.7813506e+2, -41007.203, -205592.27, 2489.0637, -0.21950468, -0.12749161, -40969.566, 173278.19, 0.0, 10.00198, 9.999923 
2.9045472e+3, 2.8812695e+2, -128296.99, -389301.38, 144752.14, -0.22111772, -0.008635916, -63904.33, 52430.395, 0.0, 10.001741, 9.997997 
2.9041505e+3, 2.9811764e+2, -182824.05, -378768.94, 126345.2, -0.0122324405, 0.03887214, -120916.19, -102479.99, 0.0, 10.0005045, 9.998066 
2.9205137e+3, 1.3864487e+2, -1549798.5, -1663299.6, 12848.483, -0.121273845, 0.07277966, -1548362.1, 32904.402, 0.0, 10.001135, 9.999644 
2.9201156e+3, 1.4863686e+2, -1257918.5, -1096409.4, 118378.234, -0.059805118, -0.11364486, -1033864.6, 449473.38, 0.0, 10.000984, 10.002948 
2.9197174e+3, 1.5863004e+2, -1346216.5, -1340857.5, 156467.84, -0.12974858, -0.34449875, -1187046.3, 198346.1, 0.0, 10.000732, 10.000786 
2.9193217e+3, 1.6862342e+2, -1265604.0, -1339276.9, 126816.38, 0.052526917, -0.22914144, -1170382.5, 117075.766, 0.0, 10.001109, 9.999844 
2.918926e+3, 1.7861612e+2, -1327138.0, -1509254.0, 121156.695, 0.23818174, -0.1844654, -1266635.8, -77102.125, 0.0, 10.000736, 9.99828 
2.918529e+3, 1.8860579e+2, -1128449.0, -1335297.4, 125989.46, 0.21213147, -0.25693008, -1068870.5, 22766.621, 0.0, 10.001458, 9.998339 
2.9181314e+3, 1.9859466e+2, -1051718.8, -1284206.4, 85840.21, 0.19127575, -0.4756942, -1023459.44, -29711.787, 0.0, 10.001291, 9.998214 
2.91773e+3, 2.0858885e+2, -717490.06, -709089.9, 20417.367, -0.050599925, -0.28964877, -692445.06, 203358.55, 0.0, 10.001529, 10.001257 
2.917328e+3, 2.1858387e+2, -887386.7, -929242.7, 102531.03, -0.31790188, -0.16151069, -803669.6, -5818.7935, 0.0, 10.000416, 9.999695 
2.916933e+3, 2.2857483e+2, -696510.75, -755182.1, 245636.28, -0.22653705, -0.24535617, -478464.63, 221472.84, 0.0, 10.001071, 9.999791 
2.9165396e+3, 2.3856471e+2, -723437.0, -895392.5, 190848.19, -0.065841526, -0.48028705, -600093.94, 1941.2515, 0.0, 10.000808, 9.998401 
2.916141e+3, 2.4855721e+2, -600267.4, -667344.44, 87806.2, -0.052974477, -0.3274336, -539812.5, -35703.96, 0.0, 10.000626, 9.999249 
2.9157406e+3, 2.5854987e+2, -782636.44, -825402.44, 97839.83, -0.06166237, -0.25146165, -703870.2, -297689.72, 0.0, 9.999069, 9.998351 
2.9153413e+3, 2.6854125e+2, -393938.75, -374829.75, 88306.09, -0.03797334, -0.25875935, -295562.78, 12702.938, 0.0, 10.000334, 10.0000305 
2.9149413e+3, 2.7853253e+2, -254744.7, -367617.97, 38813.89, -0.08386794, -0.4132544, -242686.0, -32333.895, 0.0, 10.000913, 9.999277 
2.9145405e+3, 2.8852513e+2, -24932.934, -36881.77, 128936.01, -0.27999762, -0.38101107, 98167.0, 210592.6, 0.0, 10.001288, 10.000561 
2.9141432e+3, 2.9852062e+2, -285961.13, -245036.47, 117846.06, -0.0430784, -0.16381545, -145889.42, -131415.83, 0.0, 9.999173, 9.999589 
2.930506e+3, 1.3904232e+2, -1609309.3, -1665181.3, -37936.875, -0.33397457, -0.28115374, -1590132.4, -12765.185, 0.0, 10.000551, 9.999944 
2.9301107e+3, 1.4903867e+2, -1298303.0, -1236896.4, 77220.52, 0.040788762, 0.02555852, -1184499.1, 294897.2, 0.0, 10.001129, 10.001961 
2.929711e+3, 1.5902798e+2, -1357582.0, -1401286.4, 61189.5, -0.156706, -0.4922867, -1314459.9, 67030.73, 0.0, 10.000786, 10.000386 
2.9293156e+3, 1.6902167e+2, -1209810.4, -1274762.8, 54264.97, 0.029329998, -0.37221003, -1179045.9, 104509.09, 0.0, 10.00125, 10.000257 
2.928919e+3, 1.7901559e+2, -1172559.3, -1322684.3, 133151.44, 0.124453865, -0.23782744, -1094769.9, 90849.52, 0.0, 10.001198, 9.999377 
2.9285213e+3, 1.8900721e+2, -987811.3, -1107844.8, 192279.95, 0.03718676, -0.25398222, -846399.2, 241302.22, 0.0, 10.001654, 9.999843 
2.9281235e+3, 1.98998e+2, -930128.25, -1117147.0, 230227.7, -0.042709354, -0.37860847, -775144.56, 214645.89, 0.0, 10.001563, 9.999249 
2.927724e+3, 2.089906e+2, -713683.1, -820555.44, 106606.0, -0.06246587, -0.3095117, -647870.5, 243992.4, 0.0, 10.001991, 10.000299 
2.9273236e+3, 2.1898356e+2, -654426.7, -854212.9, 132371.27, -0.17356113, -0.26757422, -588486.2, 205445.47, 0.0, 10.001987, 9.999517 
2.926928e+3, 2.2897474e+2, -497456.1, -663917.4, 227473.53, -0.1723279, -0.3311302, -338464.63, 357551.75, 0.0, 10.002226, 9.99999 
2.9265332e+3, 2.389654e+2, -428808.03, -651353.0, 133328.6, -0.12887749, -0.49068156, -366419.7, 231686.11, 0.0, 10.002158, 9.999523 
2.9261345e+3, 2.4895826e+2, -285625.94, -438756.9, 33758.49, -0.053250052, -0.40847299, -278514.0, 221659.61, 0.0, 10.002288, 10.000103 
2.9257345e+3, 2.5895146e+2, -237525.69, -492920.16, 72966.9, -0.01380163, -0.3209322, -218148.95, 184090.14, 0.0, 10.002292, 9.999168 
2.9253346e+3, 2.6894286e+2, -284716.47, -409162.9, 140778.05, -0.060141392, -0.31160337, -193023.53, 111301.56, 0.0, 10.001315, 9.999382 
2.9249343e+3, 2.7893358e+2, -248397.8, -304054.16, 134645.34, -0.1423615, -0.44587845, -138734.97, 67683.33, 0.0, 10.000475, 9.9999895 
2.924535e+3, 2.8892562e+2, 98376.305, 152812.95, 154018.97, -0.21359935, -0.5874721, 282000.13, 390494.9, 0.0, 10.001316, 10.001994 
2.9241377e+3, 2.9892346e+2, 143924.81, -16095.402, -33117.113, 0.13516311, -0.21380392, 150507.78, 161024.17, 0.0, 10.001682, 10.000073 
2.9404998e+3, 1.3944095e+2, -1514974.9, -1625939.5, -118630.72, -0.26822293, -0.4282559, -1439493.3, 133961.77, 0.0, 10.00123, 9.999895 
2.940106e+3, 1.4943908e+2, -1409494.1, -1412063.1, 7107.939, 0.23438323, 0.117809966, -1403555.5, 71913.305, 0.0, 10.000987, 10.000795 
2.939705e+3, 1.5942474e+2, -1539456.3, -1544585.8, 8353.454, -0.09067925, -0.6699811, -1533282.6, -155680.38, 0.0, 9.999865, 9.999831 
2.9393086e+3, 1.694194e+2, -1238739.3, -1181979.3, 39562.58, 0.013600429, -0.5026101, -1161670.3, 117987.93, 0.0, 10.000697, 10.001104 
2.938912e+3, 1.7941515e+2, -1181782.8, -1218649.5, 96837.62, 0.06605933, -0.29360074, -1101639.6, 80064.69, 0.0, 10.000761, 10.000251 
2.938513e+3, 1.8940935e+2, -948542.56, -884518.5, 131588.39, -0.17248966, -0.21312614, -781104.25, 302652.94, 0.0, 10.001125, 10.001594 
2.9381147e+3, 1.9940263e+2, -1093256.1, -1186393.8, 126782.65, -0.29051903, -0.25351745, -1004760.2, -18941.848, 0.0, 10.000525, 9.999246 
2.9377192e+3, 2.0939268e+2, -908722.44, -1095814.1, 53046.047, 0.051988047, -0.34925374, -894729.0, -6811.938, 0.0, 10.001537, 9.998568 
2.937323e+3, 2.1938232e+2, -939546.8, -1195121.0, 121585.336, 0.3742201, -0.48317963, -890946.5, -100925.32, 0.0, 10.001008, 9.997637 
2.9369244e+3, 2.293752e+2, -640284.1, -732376.9, 238029.42, 0.019149123, -0.31946328, -443888.2, 248203.95, 0.0, 10.001424, 9.999786 
2.936525e+3, 2.3936826e+2, -697041.4, -793252.4, 139613.53, -0.36658543, -0.25949308, -597478.06, -3317.52, 0.0, 10.000555, 9.999244 
2.936128e+3, 2.4935943e+2, -357054.1, -335426.1, 35800.34, -0.12857954, -0.41769066, -308842.13, 187399.03, 0.0, 10.001405, 10.001142 
2.9357305e+3, 2.5935078e+2, -442540.72, -554147.3, 55297.81, 0.17521454, -0.63251984, -419782.88, -21462.354, 0.0, 10.000931, 9.999354 
2.9353273e+3, 2.6934463e+2, -362784.47, -430409.78, 94533.74, -0.11694197, -0.3976532, -296198.3, 4183.4204, 0.0, 10.000792, 9.999476 
2.9349238e+3, 2.7933824e+2, -474063.34, -446115.53, 144113.77, -0.45562828, -0.27068728, -315299.75, -112852.65, 0.0, 9.999225, 9.999589 
2.9345304e+3, 2.8932795e+2, 16751.477, 123763.54, 192142.86, -0.03560352, -0.63242704, 269711.2, 374258.16, 0.0, 10.000906, 10.001909 
2.9341298e+3, 2.993247e+2, -63350.54, -152168.81, -36509.52, -0.11198008, -0.34858456, -50269.535, -43689.37, 0.0, 10.0007515, 9.999474 
2.9504958e+3, 1.3983913e+2, -1407776.1, -1528155.4, -258555.38, -0.1887335, -0.21599494, -1202497.0, 367055.6, 0.0, 10.001686, 10.000399 
2.9500985e+3, 1.4983447e+2, -1426558.3, -1415402.8, -162559.03, 0.12679508, 0.010346499, -1258325.8, 213272.05, 0.0, 10.000826, 10.00088 
2.949696e+3, 1.5982191e+2, -1635505.9, -1538956.8, -64825.207, -0.21455057, -0.60237926, -1506405.9, -132688.28, 0.0, 9.998889, 10.000391 
2.9493007e+3, 1.6981833e+2, -1268305.9, -1130698.5, 5900.909, -0.057027377, -0.3334771, -1130445.9, 145308.14, 0.0, 10.000091, 10.001815 
2.948905e+3, 1.7981541e+2, -1108162.4, -1143149.9, 26997.342, -0.03037757, -0.03788566, -1093486.4, 84297.58, 0.0, 10.000966, 10.000715 
2.9485074e+3, 1.8980724e+2, -987230.5, -974208.1, -34500.895, -0.09856755, -0.18843853, -945609.4, 134250.11, 0.0, 10.001038, 10.001068 
2.9481098e+3, 1.9979857e+2, -1018660.3, -1081491.6, -76145.18, -0.13606104, -0.39574453, -967704.7, 14234.371, 0.0, 10.000589, 9.999977 
2.9477137e+3, 2.0979144e+2, -703844.1, -830274.3, -47236.254, 0.07020472, -0.36023074, -688145.3, 195862.63, 0.0, 10.002074, 10.000212 
2.9473168e+3, 2.1978387e+2, -521624.72, -828571.8, 92682.164, 0.23158348, -0.3463675, -495810.47, 290272.1, 0.0, 10.002994, 9.999246 
2.9469183e+3, 2.2977664e+2, -613975.2, -694657.3, 192530.89, 0.028507646, -0.2667152, -457604.4, 230551.56, 0.0, 10.001426, 10.000085 
2.9465196e+3, 2.3976943e+2, -759507.4, -773251.8, 129351.53, -0.22771828, -0.23389286, -636845.6, -46616.902, 0.0, 9.99976, 9.999801 
2.9461226e+3, 2.497607e+2, -433602.44, -451186.47, 32529.432, -0.033560492, -0.36236402, -408697.8, 83613.42, 0.0, 10.001026, 10.000646 
2.9457253e+3, 2.5975174e+2, -128429.5, -370013.8, -56102.965, 0.20815517, -0.5482279, -116036.49, 278358.6, 0.0, 10.002725, 9.999842 
2.9453224e+3, 2.6974595e+2, 18078.932, -207978.05, -57688.2, -0.0491776, -0.34879637, 31949.488, 328401.94, 0.0, 10.003085, 9.99997 
2.944918e+3, 2.7974012e+2, 90179.51, -138165.45, -1905.6292, -0.40302134, -0.18937011, 90195.41, 288705.97, 0.0, 10.002782, 10.00004 
2.9445234e+3, 2.8972825e+2, -5911.8296, 7226.6675, 36175.277, -0.033054397, -0.69208944, 37424.33, 138049.97, 0.0, 10.001021, 10.001159 
2.9441205e+3, 2.997258e+2, 140593.16, -11810.502, -97512.75, -0.41951942, -0.23979802, 188146.95, 190796.38, 0.0, 10.001631, 10.000118 
2.9604906e+3, 1.4023568e+2, -1838107.8, -1682500.3, -104348.836, -0.011881783, -0.20189711, -1630142.1, -64475.113, 0.00000000001490612, 9.99859, 10.000817 
2.9600906e+3, 1.502296e+2, -1487732.8, -1418357.1, -73231.2, 0.07566406, -0.1298584, -1372013.8, 95715.9, 0.0, 10.000363, 10.001063 
2.959687e+3, 1.6021957e+2, -1349240.5, -1389748.5, 34147.08, -0.25311235, -0.48897445, -1329792.5, 40035.637, 0.0, 10.000857, 10.00045 
2.9592928e+3, 1.7021711e+2, -1139260.8, -1022310.94, 98576.93, -0.08805328, -0.13353518, -966170.25, 305680.8, 0.0, 10.000839, 10.0021715 
2.9588985e+3, 1.8021451e+2, -1277549.5, -1268610.0, 61974.55, 0.01545442, 0.16993022, -1210944.3, -37069.168, 0.0, 10.000075, 10.000271 
2.9585025e+3, 1.9020325e+2, -1172536.9, -1159421.1, -11570.344, 0.105412744, -0.22041279, -1152679.5, -76698.31, 0.0, 10.000312, 10.000082 
2.9581067e+3, 2.001919e+2, -1195739.3, -1151536.8, -3384.4946, 0.2621981, -0.6246739, -1151279.1, -173191.53, 0.0, 9.999427, 10.000036 
2.9577076e+3, 2.101893e+2, -681145.75, -512265.75, 35206.504, 0.0728548, -0.33370328, -505220.2, 374888.66, 0.0, 10.001075, 10.002796 
2.957308e+3, 2.2018656e+2, -727278.75, -802587.75, 70719.86, -0.113858625, -0.08488027, -684813.6, 97319.28, 0.0, 10.001235, 10.000207 
2.9569116e+3, 2.3017797e+2, -720834.25, -699671.06, 95053.58, 0.01597101, -0.20195992, -614611.94, 69607.95, 0.0, 10.000587, 10.000405 
2.9565153e+3, 2.401692e+2, -1039931.2, -1015389.56, 103908.52, 0.17319266, -0.35073283, -923029.8, -336720.44, 0.0, 9.998418, 9.998776 
2.9561174e+3, 2.5016183e+2, -595894.44, -666320.56, 98979.52, 0.13470876, -0.23658282, -526050.8, -37665.44, 0.0, 10.000617, 9.999303 
2.9557192e+3, 2.6015422e+2, -397134.97, -610272.7, -840.7181, 0.11597872, -0.18545847, -397131.66, -6668.8755, 0.0, 10.001517, 9.998721 
2.955319e+3, 2.7014697e+2, -59894.336, -175224.44, -52539.07, 0.099360146, -0.14750329, -39549.055, 252984.8, 0.0, 10.002383, 10.000447 
2.954916e+3, 2.8013936e+2, -174739.52, -361001.94, -52340.324, -0.1070256, -0.2030361, -161039.4, 33568.98, 0.0, 10.001539, 9.999059 
2.9545125e+3, 2.901272e+2, -186141.13, -211565.63, -58133.723, -0.4764405, -0.64599633, -139345.97, -42621.164, 0.0, 10.000522, 9.999803 
2.9541177e+3, 3.001231e+2, 101731.16, 95087.625, 315843.72, -0.19158319, -0.31273752, 414270.56, 414270.56, 0.0, 10.001025, 10.001096 
2.9704788e+3, 1.4063412e+2, -2223220.0, -1892897.9, -143471.3, -0.22174267, -0.5422475, -1839284.6, -277522.47, 0.00000010737005, 9.9960165, 10.0006275 
2.9700845e+3, 1.5063022e+2, -1555032.4, -1483943.8, 207171.8, 0.19784154, -0.21681538, -1309289.3, 154511.42, 0.0, 10.000009, 10.000794 
2.9696798e+3, 1.606235e+2, -983524.6, -1317932.1, 174527.14, -0.5628466, -0.16788824, -909032.6, 456833.03, 0.0, 10.003754, 9.999563 
2.9692858e+3, 1.7061546e+2, -1034857.44, -1162737.1, 105978.984, -0.23828132, -0.22206536, -975023.94, 292919.63, 0.0, 10.002318, 10.000526 
2.968892e+3, 1.8060756e+2, -1252067.0, -1289032.4, 36785.133, 0.0052774195, -0.29588535, -1229382.3, -59362.79, 0.0, 10.000283, 10.000058 
2.9684958e+3, 1.905997e+2, -1141610.3, -1077916.8, 13923.232, 0.17981322, -0.38645044, -1075006.3, -2913.0474, 0.0, 10.000094, 10.000817 
2.9680997e+3, 2.0059155e+2, -1118023.0, -1038069.25, 85768.95, 0.31129432, -0.5208359, -983418.1, -9249.003, 0.0, 9.999452, 10.000858 
2.9677007e+3, 2.1058601e+2, -851444.6, -638440.5, 71275.984, 0.07731704, -0.50912446, -616790.5, 259428.06, 0.0, 9.999989, 10.002503 
2.967301e+3, 2.2058126e+2, -794334.44, -770483.7, -23303.508, -0.19375847, -0.43705574, -756231.44, 22029.99, 0.0, 10.000327, 10.000919 
2.9669037e+3, 2.3057523e+2, -704534.8, -667481.75, -35756.16, -0.056011584, -0.34860042, -645737.5, 34587.113, 0.0, 10.000409, 10.000812 
2.966507e+3, 2.4056846e+2, -645101.75, -693804.4, 32416.98, 0.10118994, -0.33799636, -628908.7, -46513.395, 0.0, 10.000385, 10.000079 
2.9661107e+3, 2.505612e+2, -407800.9, -463961.44, 174938.38, 0.092155926, -0.32260972, -258703.47, 225764.27, 0.0, 10.001304, 10.000409 
2.965713e+3, 2.6055422e+2, -232131.05, -415068.7, 120593.36, 0.05635871, -0.2733192, -172241.67, 214296.31, 0.0, 10.001969, 9.999875 
2.9653126e+3, 2.7054802e+2, -201956.19, -245057.16, 62092.28, 0.062685855, -0.15853319, -157780.92, 130820.65, 0.0, 10.001222, 10.000634 
2.9649103e+3, 2.805407e+2, -241107.77, -378588.66, 84311.23, -0.06417084, -0.14248039, -201065.72, -10391.298, 0.0, 10.000788, 9.999384 
2.964507e+3, 2.9052973e+2, 239318.05, -63294.617, 112878.98, -0.42813918, -0.42507237, 276784.78, 369563.97, 0.0, 10.00356, 9.999445 
2.9641163e+3, 3.005234e+2, 184185.08, 143999.03, 454440.03, 0.23498619, -0.22355832, 618976.06, 618976.06, 0.0, 10.001394, 10.001315 
2.9804698e+3, 1.4103542e+2, -1821584.8, -1642041.9, -349690.66, -0.046790022, -0.52077305, -1370783.6, 187046.42, 0.00000019973128, 9.998544, 10.001158 
2.9800788e+3, 1.5103126e+2, -1407867.1, -1431140.0, 213250.13, 0.3366985, -0.22273773, -1205936.3, 253930.66, 0.000000000008976791, 10.001146, 10.000624 
2.9796752e+3, 1.6102722e+2, -1355340.9, -1637238.4, 78204.64, -0.6279022, 0.11374944, -1335098.6, 26805.352, 0.0, 10.001851, 9.998322 
2.97928e+3, 1.7101371e+2, -1178905.1, -1422261.1, -5778.6777, -0.2835723, -0.33710188, -1178768.0, 85267.6, 0.0, 10.002228, 9.998782 
2.9788855e+3, 1.8100081e+2, -1207693.4, -1356971.8, 25518.86, 0.08592645, -0.77007425, -1203451.5, -37290.2, 0.0, 10.001054, 9.999236 
2.978489e+3, 1.9099742e+2, -1019050.56, -906849.06, -8407.267, 0.25913244, -0.46421736, -906222.56, 161968.92, 0.0, 10.000545, 10.001763 
2.978092e+3, 2.0099358e+2, -1213645.3, -1120717.1, 60192.516, 0.3722133, -0.25250626, -1091141.4, -120915.65, 0.0, 9.999064, 10.000467 
2.9776937e+3, 2.1098207e+2, -982145.75, -871411.94, 78291.805, 0.1304596, -0.73767275, -830887.75, 41446.04, 0.0, 9.999822, 10.000993 
2.9772946e+3, 2.209728e+2, -1056354.1, -975859.9, -13175.815, -0.047978837, -1.0131241, -973758.06, -199336.34, 0.0, 9.998983, 10.0001545 
2.9768956e+3, 2.3097138e+2, -793404.25, -632400.0, -31557.771, -0.12640995, -0.51125854, -626435.44, 50005.867, 0.0, 9.99964, 10.001358 
2.9764968e+3, 2.4096812e+2, -819188.0, -667100.4, 68606.19, -0.17200084, -0.2123047, -640726.06, -62248.94, 0.0, 9.998886, 10.000958 
2.9761025e+3, 2.5095984e+2, -416021.25, -168112.22, 200824.27, -0.056184936, -0.52555573, -56068.62, 424482.75, 0.0, 10.000155, 10.0029335 
2.975707e+3, 2.609524e+2, -505914.63, -519941.88, 101439.8, 0.024587588, -0.7001629, -411246.28, -28627.27, 0.0, 10.000138, 10.000018 
2.9753035e+3, 2.709489e+2, -300970.16, -271797.03, 10769.591, -0.17810306, -0.33513823, -268252.06, 16406.943, 0.0, 10.000623, 10.000681 
2.974901e+3, 2.8094426e+2, -482536.9, -554458.2, 141670.05, -0.31668845, -0.06487213, -372334.75, -185626.11, 0.0, 9.999586, 9.998731 
2.9745102e+3, 2.9093555e+2, 139584.92, -95235.42, 225798.97, 0.2926122, -0.10951175, 276674.9, 365464.56, 0.0, 10.002994, 9.999457 
2.9741073e+3, 3.009258e+2, -299285.9, -366805.38, -99233.59, -0.117621854, -0.19550277, -228226.64, -228226.64, 0.0, 9.999584, 9.998606 
2.9904646e+3, 1.4144059e+2, -1225666.3, -852516.56, -43273.227, 0.015561755, 0.62333035, -847564.06, 706300.3, 0.000000019519112, 10.000468, 10.005724 
2.9900712e+3, 1.5142348e+2, -1333612.9, -1312441.9, -16674.234, 0.1460907, -0.5327539, -1303276.9, 152746.34, 0.0, 10.001317, 10.00142 
2.9896784e+3, 1.6141778e+2, -1632694.8, -1670372.0, -29401.145, 0.31730235, -0.4381692, -1616614.6, -258538.39, 0.0, 9.999458, 9.999281 
2.9892784e+3, 1.7141192e+2, -1160802.1, -1287672.3, -24965.281, 0.07703759, -0.23861377, -1156066.3, 104068.22, 0.0, 10.001773, 9.999954 
2.9888785e+3, 1.8140577e+2, -836779.8, -1058707.1, -4979.217, -0.21237247, -0.0962128, -836668.1, 325526.1, 0.0, 10.003063, 10.00032 
2.9884812e+3, 1.9139937e+2, -791906.75, -811621.75, -67189.43, 0.04890312, -0.094488665, -733855.56, 330395.66, 0.0, 10.002162, 10.001673 
2.9880846e+3, 2.0139351e+2, -1042791.0, -1014306.56, -18191.684, 0.2869834, -0.047631443, -1005445.1, -39141.56, 0.0, 10.000062, 10.000741 
2.987685e+3, 2.1138693e+2, -897895.7, -790505.44, 65954.74, -0.035225723, -0.058694016, -759152.4, 109213.836, 0.0, 10.000205, 10.0014 
2.987285e+3, 2.2137858e+2, -772447.3, -763365.06, 16541.467, -0.3307191, -0.2499114, -750752.7, 19694.117, 0.0, 10.000433, 10.00097 
2.9868895e+3, 2.3137078e+2, -566545.2, -485711.38, 3057.4282, -0.008634199, -0.41442442, -485595.9, 186929.55, 0.0, 10.000879, 10.00187 
2.9864946e+3, 2.4136515e+2, -432427.78, -373467.44, 52058.2, 0.29741433, -0.40325975, -343121.72, 231459.02, 0.0, 10.000908, 10.002076 
2.9860997e+3, 2.5135878e+2, -566746.75, -246220.03, 53671.438, 0.43487415, -0.5417755, -237471.66, 239162.0, 0.0, 9.99903, 10.003026 
2.9857025e+3, 2.6135126e+2, -794019.94, -629355.7, -89431.31, 0.38359225, -0.73241657, -590129.0, -211427.66, 0.0, 9.997841, 10.000461 
2.9852965e+3, 2.713443e+2, -112216.29, -236616.23, -167511.84, -0.21385565, -0.6736039, 4270.7715, 285050.44, 0.0, 10.002088, 10.000332 
2.984894e+3, 2.8133863e+2, 435355.16, -8716.427, -116496.79, -0.55342644, -0.49692997, 464061.03, 646904.1, 0.0, 10.005272, 9.999881 
2.9845065e+3, 2.913294e+2, 15637.273, -58427.48, 3547.9792, 0.4746078, -0.71099603, 15806.847, 100735.85, 0.0, 10.0015745, 10.000622 
2.9840964e+3, 3.0131927e+2, -42117.45, -377092.25, -303589.3, -0.44484234, -0.8318212, 137120.55, 137120.55, 0.0, 10.001602, 9.997843 
3.0004612e+3, 1.4182517e+2, -1718618.5, -1259723.4, 352568.13, 0.34971714, -0.40358496, -1068516.1, 481576.16, 0.0, 9.997597, 10.004371 
3.0000517e+3, 1.5181632e+2, -1996933.9, -1742086.4, -223278.1, -1.0003186, -0.6334697, -1612430.5, -160256.4, 0.0, 9.997257, 10.000334 
2.9996634e+3, 1.6181773e+2, -2006374.6, -1768690.3, -250979.73, -0.33859646, 0.15604888, -1609837.8, -255676.75, 0.0, 9.996431, 10.000016 
2.9992756e+3, 1.7180759e+2, -1363214.8, -1159162.5, -54900.766, 0.44770405, -0.32272977, -1145329.1, 110932.09, 0.0, 9.999368, 10.001862 
2.9988804e+3, 1.818009e+2, -1092020.5, -1162906.9, -17148.371, 0.44085637, -0.4233658, -1088090.0, 70234.664, 0.0, 10.001118, 10.000528 
2.998475e+3, 1.917962e+2, -1327026.9, -1070678.3, -25346.38, 0.06075466, -0.32405996, -1068196.1, -7835.8086, 0.0, 9.998421, 10.001605 
2.9980752e+3, 2.0178498e+2, -1539525.3, -1449814.5, 175310.38, 0.116120964, -0.7185757, -1313712.0, -351248.97, 0.0, 9.997431, 9.998981 
2.997683e+3, 2.1177821e+2, -865937.7, -718421.0, 172889.56, 0.5431367, -0.7629278, -604213.7, 260318.17, 0.0, 10.000245, 10.001711 
2.9972816e+3, 2.2177662e+2, -723415.6, -822857.0, 14352.338, 0.010112653, -0.28063914, -721385.6, 45162.613, 0.0, 10.001138, 10.000159 
2.9968783e+3, 2.3176892e+2, -721251.7, -530815.6, 53890.45, -0.3965678, -0.48051894, -516623.2, 151996.11, 0.0, 9.999766, 10.001922 
2.9964852e+3, 2.4176326e+2, -751618.94, -626456.8, 256704.4, 0.050878458, -0.49872825, -424815.38, 145854.11, 0.0, 9.999188, 10.001075 
2.996088e+3, 2.5175604e+2, 38828.77, -103224.82, 584245.8, 0.13665715, -0.63325804, 556349.3, 1029081.4, 0.0, 10.003913, 10.00147 
2.9956937e+3, 2.6175022e+2, -644296.44, -811519.4, 195163.16, 0.44183004, -0.47491875, -515588.5, -140800.78, 0.0, 10.000036, 9.998047 
2.99529e+3, 2.7174267e+2, -365816.22, -466303.34, -72544.516, -0.32222727, -0.39175934, -327815.1, -50935.223, 0.0, 10.001039, 9.9990015 
2.9948884e+3, 2.817317e+2, -300379.6, -365678.34, -120813.44, -0.8517494, -0.6990335, -207881.58, -28879.99, 0.0, 10.00033, 9.999698 
2.9944956e+3, 2.9173777e+2, -106706.516, 91851.78, -7180.214, 0.07320249, 0.42958745, 92111.09, 173052.05, 0.0, 10.000131, 10.002103 
2.994097e+3, 3.01723e+2, 187429.88, -127906.19, -60511.617, 0.17364533, -0.31957263, 198643.06, 198643.06, 0.0, 10.002913, 9.998696 
