coord_x,coord_y,stress_xx,stress_yy,tau_xy,velocity_x,velocity_y,stress_1,eps,damage,lx,ly
5.000034e+0, 1.2507883e+2, -1735579.0, -1626779.8, -4531.7456, 0.031612936, -0.26284233, -1626591.3, 87607.7, 0.0013801174, 9.999424, 10.000878 
4.9998793e+0, 1.3507713e+2, -1657042.5, -1694764.8, -14814.522, -0.010939652, -0.3824797, -1651920.0, -35706.652, 0.0008364695, 9.99997, 9.999474 
4.9999666e+0, 1.4507823e+2, -1528598.6, -1588505.8, -20726.658, -0.014116019, -0.2189684, -1522126.8, -3924.3904, 0.00038681776, 10.000209, 9.99941 
5.000295e+0, 1.5507673e+2, -1447658.4, -1510269.6, -4086.758, 0.022142591, -0.31042573, -1447392.8, -27174.201, 0.00011816065, 10.000142, 9.999306 
5.000289e+0, 1.650763e+2, -1308552.6, -1297653.1, -3933.227, 0.027890965, -0.3253807, -1296382.0, 25840.334, 0.000016018055, 10.000015, 10.000155 
4.9999633e+0, 1.7507656e+2, -1238536.3, -1215918.8, -18957.287, 0.0043102955, -0.3220349, -1205153.4, 19064.14, 0.00000013955699, 9.999836, 10.000131 
4.999927e+0, 1.850765e+2, -1182537.6, -1223678.1, -7363.0854, -0.0033633206, -0.30011928, -1181259.5, -55041.023, 0.0, 9.999917, 9.999368 
5.0001717e+0, 1.9507629e+2, -1039404.7, -1108356.5, 8974.426, 0.00472361, -0.26298285, -1038255.75, -10032.038, 0.0, 10.000246, 9.999328 
5.000195e+0, 2.0507573e+2, -916278.7, -969138.3, 6082.9785, 0.0046917005, -0.2636562, -915587.7, 14642.59, 0.0, 10.000294, 9.999586 
5.0e+0, 2.1507479e+2, -853796.8, -892458.9, 1824.6624, -0.0035191232, -0.32272524, -853710.94, -21472.488, 0.0, 10.000068, 9.999548 
4.9999827e+0, 2.2507413e+2, -771346.0, -827310.75, 5174.575, -0.0053796456, -0.33100134, -770871.56, -36627.08, 0.0, 10.00007, 9.999322 
5.000136e+0, 2.3507373e+2, -642922.4, -717527.6, -4867.204, -0.001114273, -0.3108252, -642606.2, -6357.6113, 0.0, 10.000292, 9.999295 
5.0002056e+0, 2.4507305e+2, -565449.8, -689184.44, -8468.445, 0.000035619723, -0.2813448, -564872.94, -26617.098, 0.0, 10.000408, 9.998763 
5.000199e+0, 2.550721e+2, -467841.44, -596671.56, -668.45703, -0.0016379842, -0.25817806, -467837.97, -27571.988, 0.0, 10.000428, 9.998714 
5.0002307e+0, 2.650706e+2, -374080.06, -509406.63, -3304.9717, 0.001107749, -0.27278852, -373999.38, -31719.877, 0.0, 10.000436, 9.998636 
5.000303e+0, 2.7506864e+2, -278845.38, -415214.2, -19540.408, 0.008717231, -0.34023023, -276100.66, -31804.916, 0.0, 10.000428, 9.998614 
5.00032e+0, 2.8506675e+2, -220052.72, -435154.97, -10968.029, 0.002632008, -0.3467955, -219494.9, -73180.91, 0.000000010220777, 10.000585, 9.997728 
5.000278e+0, 2.9506478e+2, -74289.33, -313600.97, 7948.0225, -0.01784417, -0.32158867, -74025.65, -25690.342, 0.000007764773, 10.00091, 9.997733 
5.0003713e+0, 3.0506435e+2, -1947.1257, -228319.44, 5866.179, -0.011057097, -0.14952137, -1795.2124, -1795.2124, 0.00008416529, 10.000961, 9.997965 
5.0007033e+0, 3.150595e+2, 92086.12, 25013.303, -534.4426, 0.0345222, -0.43210688, 92090.38, 92090.38, 0.00029797413, 10.000708, 9.999827 
1.5000093e+1, 1.2507875e+2, -1754808.4, -1664045.0, 12400.31, 0.09422908, -0.22940156, -1662381.4, 51818.11, 0.00135349, 9.999414, 10.0006275 
1.4999638e+1, 1.3507633e+2, -1674194.8, -1728813.5, 5922.6743, -0.032959666, -0.3968425, -1673560.0, -57337.453, 0.0008181531, 9.999967, 9.999243 
1.49999e+1, 1.450773e+2, -1496371.6, -1519533.1, -24299.79, -0.042195804, -0.2580956, -1481034.1, 37178.29, 0.00037595516, 10.0002, 9.999887 
1.5000884e+1, 1.550764e+2, -1415892.1, -1442649.6, -6157.489, 0.066383004, -0.33531412, -1414543.3, 5677.8555, 0.00011312574, 10.000135, 9.999774 
1.500087e+1, 1.6507609e+2, -1335319.1, -1351935.1, -11792.156, 0.08387012, -0.34271204, -1329202.3, -6978.618, 0.000014709239, 10.0000105, 9.999787 
1.4999892e+1, 1.7507607e+2, -1265084.1, -1270027.5, -25300.229, 0.012951725, -0.3285896, -1242135.1, -17911.934, 0.00000010097208, 9.999832, 9.999763 
1.499978e+1, 1.8507585e+2, -1151724.5, -1157701.6, 4538.573, -0.010084028, -0.3294827, -1149278.9, -23053.395, 0.0, 9.999909, 9.999825 
1.5000515e+1, 1.9507554e+2, -1008035.56, -1041804.6, 21945.395, 0.014174089, -0.3458154, -997230.94, 30998.082, 0.0, 10.00024, 9.999787 
1.5000583e+1, 2.0507555e+2, -923575.3, -982087.4, -3252.7996, 0.013925556, -0.30959338, -923395.06, 6835.0635, 0.0, 10.000285, 9.999502 
1.5e+1, 2.1507579e+2, -861066.5, -905552.9, -5697.777, -0.010509108, -0.23883325, -860348.4, -28119.39, 0.0, 10.00006, 9.999463 
1.4999947e+1, 2.2507511e+2, -788112.6, -860127.4, 12546.211, -0.016230585, -0.2340556, -785989.44, -51753.07, 0.0, 10.000062, 9.999101 
1.5000407e+1, 2.3507358e+2, -660503.56, -752189.94, 4179.198, -0.003428042, -0.30322966, -660313.5, -24061.979, 0.0, 10.000285, 9.999062 
1.5000618e+1, 2.4507253e+2, -550701.4, -657111.2, -8711.42, 0.00010236777, -0.30840448, -549992.94, -11731.317, 0.0, 10.0004015, 9.998987 
1.5000595e+1, 2.5507197e+2, -451922.53, -561462.9, 724.5514, -0.005160943, -0.26703483, -451917.75, -11651.05, 0.0, 10.00042, 9.998961 
1.5000694e+1, 2.6507074e+2, -402677.75, -566909.9, -4278.2485, 0.0034722479, -0.2489398, -402566.4, -60288.223, 0.0, 10.000429, 9.998246 
1.5000907e+1, 2.750689e+2, -309334.5, -476029.5, -19159.906, 0.02596305, -0.2607494, -307160.63, -62865.277, 0.0, 10.000419, 9.998201 
1.5000962e+1, 2.8506646e+2, -184918.78, -360027.06, 299.6969, 0.0082148155, -0.3263342, -184918.27, -38600.324, 0.000000009053116, 10.000576, 9.998249 
1.5000832e+1, 2.9506344e+2, -37878.363, -235789.52, 21477.746, -0.053808317, -0.46127436, -35574.375, 12771.477, 0.0000075983085, 10.000901, 9.998272 
1.5001117e+1, 3.0506337e+2, -10950.958, -244663.03, -3870.1177, -0.032734577, -0.27558526, -10886.889, -10886.889, 0.000082482155, 10.000953, 9.997857 
1.5002099e+1, 3.1506044e+2, 82669.71, 9308.306, -9455.251, 0.1025914, -0.35365516, 83868.766, 83868.766, 0.00029308064, 10.000693, 9.999727 
2.499985e+1, 1.2507841e+2, -1666307.9, -1625359.3, 16223.127, 0.096608296, -0.22919358, -1619711.0, 94491.73, 0.0013145427, 10.000045, 10.000589 
2.4999732e+1, 1.3507585e+2, -1744498.4, -1769566.1, 23138.373, 0.0021459414, -0.40304604, -1730717.1, -114489.26, 0.0007913486, 9.999516, 9.999183 
2.4999993e+1, 1.4507695e+2, -1583902.0, -1521700.5, 2511.1763, -0.014204714, -0.26670662, -1521599.3, -3382.8665, 0.00036019128, 9.999427, 10.000247 
2.5000697e+1, 1.5507652e+2, -1443532.8, -1416703.8, 10952.305, 0.051991854, -0.3323762, -1412800.6, 7418.539, 0.00010584406, 9.999777, 10.000126 
2.5000745e+1, 1.6507629e+2, -1333355.6, -1378887.9, 6412.8306, 0.06371978, -0.33877233, -1332469.6, -10248.54, 0.000012859098, 10.000146, 9.9995365 
2.5000176e+1, 1.7507592e+2, -1180133.4, -1257178.9, 881.7452, 0.022895359, -0.3336655, -1180123.3, 44102.086, 0.00000006033416, 10.000538, 9.999511 
2.5000113e+1, 1.8507558e+2, -1071834.3, -1107709.8, 13801.161, 0.007606979, -0.33809826, -1067139.4, 59089.46, 0.0, 10.000408, 9.9999275 
2.500055e+1, 1.9507541e+2, -1069096.4, -1059680.0, 3634.4116, 0.017118193, -0.35230082, -1058440.5, -30210.332, 0.0, 9.999772, 9.999891 
2.5000602e+1, 2.0507547e+2, -1005075.3, -1021091.6, -18561.182, 0.015367022, -0.31442225, -992868.4, -62638.207, 0.0, 9.999724, 9.999505 
2.5000274e+1, 2.1507572e+2, -834209.2, -892024.1, -15130.315, 0.0017342245, -0.2447176, -830488.94, 1740.4248, 0.0, 10.000242, 9.999469 
2.5000307e+1, 2.2507507e+2, -737391.1, -838599.8, 12185.169, -0.0043618325, -0.23483214, -735944.75, -1708.3068, 0.0, 10.000423, 9.999075 
2.5000697e+1, 2.3507364e+2, -662864.7, -756696.44, 18121.762, -0.0028379194, -0.29151708, -659486.44, -23235.906, 0.0, 10.000283, 9.999032 
2.5000915e+1, 2.450725e+2, -568712.0, -667234.6, 7768.7485, -0.0045994823, -0.3044511, -568103.1, -29841.78, 0.0, 10.000285, 9.998973 
2.500097e+1, 2.550716e+2, -452145.6, -562687.06, -2035.9877, -0.009952998, -0.2945395, -452108.13, -11839.003, 0.0, 10.0004225, 9.998952 
2.500113e+1, 2.6507044e+2, -384901.53, -570284.94, -3159.555, -0.0044197273, -0.26804912, -384847.7, -42566.97, 0.0, 10.000604, 9.998139 
2.500141e+1, 2.7506894e+2, -255015.36, -462752.47, 3524.1877, 0.013234519, -0.23268044, -254955.6, -10660.025, 0.0, 10.000847, 9.998087 
2.5001594e+1, 2.8506646e+2, -143252.97, -327067.2, 16853.637, 0.002607635, -0.30185935, -141720.45, 4598.0347, 0.000000009457464, 10.000808, 9.9983635 
2.5001627e+1, 2.9506302e+2, -93757.52, -250205.14, 5892.3623, -0.042477038, -0.4899008, -93535.914, -45186.742, 0.0000073463098, 10.000464, 9.9983835 
2.5002027e+1, 3.0506283e+2, -54631.32, -281076.84, -23010.469, -0.025532985, -0.31235754, -52316.75, -52316.75, 0.00008001909, 10.000722, 9.997719 
2.500326e+1, 3.1506038e+2, 204363.19, 60263.055, -34945.875, 0.105809376, -0.33237672, 212390.75, 212390.75, 0.0002860611, 10.001567, 9.999656 
3.4999293e+1, 1.2507772e+2, -1655467.4, -1602032.3, -8409.629, 0.033287443, -0.26769495, -1600740.0, 113469.2, 0.0012623775, 10.000043, 10.000751 
3.5000145e+1, 1.3507569e+2, -1735963.1, -1751847.6, 4352.204, 0.090793066, -0.40140998, -1734848.9, -118619.05, 0.000755357, 9.9995165, 9.999303 
3.5000238e+1, 1.4507717e+2, -1565264.1, -1483509.1, 14111.719, 0.065514304, -0.24512272, -1481141.9, 37072.45, 0.00033918672, 9.999429, 10.000509 
3.4999728e+1, 1.550771e+2, -1425513.4, -1378874.4, 24515.707, -0.023922015, -0.2990927, -1368358.6, 51853.875, 0.00009620481, 9.999776, 10.000386 
3.4999913e+1, 1.6507684e+2, -1343072.5, -1397730.6, 20658.367, -0.03570897, -0.31414342, -1336143.0, -13928.267, 0.000010539653, 10.000141, 9.99941 
3.50008e+1, 1.7507607e+2, -1189294.5, -1275610.5, 16258.302, 0.030367997, -0.3375495, -1186333.6, 37890.355, 0.000000028001644, 10.000536, 9.999385 
3.500092e+1, 1.8507569e+2, -1089388.1, -1143158.0, -10922.623, 0.046033073, -0.3271959, -1087254.0, 38974.477, 0.0, 10.000403, 9.999687 
3.5000274e+1, 1.9507587e+2, -1087061.3, -1095779.0, -19311.924, 0.011337799, -0.28156224, -1071622.4, -43395.434, 0.0, 9.999767, 9.999646 
3.500024e+1, 2.050755e+2, -999108.06, -1006335.75, 397.66708, 0.0061143725, -0.27888006, -999086.25, -68855.74, 0.0, 9.999715, 9.999611 
3.500081e+1, 2.1507457e+2, -827994.3, -877155.4, 5028.0703, 0.03026785, -0.33858293, -827485.3, 4754.19, 0.0, 10.000235, 9.999575 
3.500105e+1, 2.2507401e+2, -725126.1, -811449.1, 6087.045, 0.026793696, -0.3349959, -724699.0, 9545.778, 0.0, 10.000417, 9.999266 
3.5000995e+1, 2.3507391e+2, -650710.44, -729752.1, 13776.913, -0.0020761297, -0.27481225, -648377.94, -12132.389, 0.0, 10.000276, 9.999221 
3.5001084e+1, 2.450729e+2, -586616.4, -702435.94, 12337.635, -0.016997319, -0.27111858, -585316.7, -47061.57, 0.0, 10.0002775, 9.998734 
3.5001308e+1, 2.5507104e+2, -471419.9, -599798.44, 3737.0437, -0.01934452, -0.33885738, -471311.22, -31038.043, 0.0, 10.000411, 9.998702 
3.5001525e+1, 2.650696e+2, -372571.53, -543563.1, 5077.6904, -0.02586698, -0.33035848, -372420.88, -30133.736, 0.0, 10.000599, 9.998325 
3.50018e+1, 2.7506873e+2, -242024.86, -433483.66, 13545.346, -0.03365094, -0.25469792, -241071.31, 3225.0525, 0.0, 10.000837, 9.998293 
3.5002214e+1, 2.8506672e+2, -164269.05, -368825.34, 3489.4756, -0.017484521, -0.27502525, -164209.53, -17893.861, 0.000000011907709, 10.0008, 9.998081 
3.500265e+1, 2.950635e+2, -116155.3, -294015.34, -5714.144, 0.012003589, -0.40803215, -115971.91, -67626.484, 0.000006964684, 10.000455, 9.998088 
3.500309e+1, 3.050628e+2, -67202.41, -304947.28, 7837.561, 0.008264118, -0.26108718, -66944.31, -66944.31, 0.00007659062, 10.000713, 9.997559 
3.5004178e+1, 3.1505933e+2, 200957.47, 55740.203, -4560.0635, 0.03800854, -0.36336595, 201100.52, 201100.52, 0.00027653438, 10.001558, 9.999629 
4.499899e+1, 1.2507732e+2, -1767930.5, -1632301.8, -13066.834, 0.04415148, -0.2719568, -1631054.3, 83159.89, 0.0011988538, 9.999165, 10.000971 
4.499987e+1, 1.3507567e+2, -1699879.0, -1715707.5, 3200.6719, 0.10358421, -0.38392693, -1699256.3, -83025.95, 0.0007112032, 9.999683, 9.999473 
4.499999e+1, 1.4507717e+2, -1502025.1, -1465286.0, 9585.666, 0.07356296, -0.22922526, -1462935.4, 55279.242, 0.00031351, 9.999917, 10.000401 
4.499953e+1, 1.5507689e+2, -1415859.8, -1386821.6, -10420.763, -0.027033428, -0.2932865, -1383469.0, 36746.285, 0.000084590996, 9.999895, 10.000277 
4.49998e+1, 1.6507666e+2, -1380615.4, -1400391.1, -17117.195, -0.044607546, -0.3059388, -1370735.4, -48518.18, 0.000007991499, 9.999817, 9.999548 
4.500081e+1, 1.7507617e+2, -1302997.9, -1314638.6, -2505.1343, 0.020352993, -0.31468174, -1302481.6, -78258.29, 0.000000008983813, 9.999688, 9.999526 
4.5001045e+1, 1.8507582e+2, -1178996.4, -1196573.0, -22047.848, 0.04743478, -0.3049796, -1164049.9, -37822.37, 0.0, 9.999833, 9.999596 
4.5000508e+1, 1.9507577e+2, -1024185.1, -1075765.5, -19937.91, 0.03457296, -0.2742639, -1017376.94, 10851.358, 0.0, 10.000243, 9.999555 
4.5000526e+1, 2.0507517e+2, -893299.8, -968516.1, 14924.763, 0.02443009, -0.28346968, -890446.6, 39787.35, 0.0, 10.000498, 9.999495 
4.5001096e+1, 2.1507403e+2, -783777.0, -868358.7, 1447.0225, 0.018172856, -0.3518235, -783752.25, 48492.484, 0.0, 10.000591, 9.999464 
4.500136e+1, 2.2507346e+2, -702197.5, -795886.8, -26725.006, 0.009656064, -0.34727025, -695110.3, 39139.85, 0.0, 10.000554, 9.999307 
4.5001346e+1, 2.3507349e+2, -629898.94, -714592.6, -31138.383, -0.00015854534, -0.2784335, -619682.9, 16566.635, 0.0, 10.000397, 9.999268 
4.500148e+1, 2.4507248e+2, -571473.94, -698353.5, -17274.068, -0.010368734, -0.27608776, -569164.2, -30905.396, 0.0, 10.000395, 9.998707 
4.500175e+1, 2.5507045e+2, -452857.53, -594348.4, -10816.423, -0.022709774, -0.35495597, -452035.44, -11757.675, 0.0, 10.000553, 9.998672 
4.500201e+1, 2.6506898e+2, -363682.03, -529233.25, -4704.2305, -0.03783146, -0.35596108, -363548.47, -21256.26, 0.0, 10.000616, 9.998416 
4.5002326e+1, 2.7506807e+2, -273514.6, -438193.56, -5124.395, -0.050984696, -0.28969967, -273355.28, -29053.775, 0.0, 10.000576, 9.998387 
4.5002913e+1, 2.850663e+2, -172746.1, -373440.56, -10012.305, -0.02389676, -0.29087663, -172247.83, -25929.012, 0.000000014300223, 10.000746, 9.998076 
4.500364e+1, 2.9506356e+2, -14890.778, -247207.92, 852.1132, 0.031176023, -0.37789437, -14887.653, 33457.1, 0.000006428048, 10.001159, 9.998072 
4.5004177e+1, 3.0506265e+2, 6764.806, -271120.7, 41480.113, 0.020731686, -0.24711628, 12824.427, 12824.427, 0.00007216027, 10.001229, 9.997544 
4.5005324e+1, 3.150589e+2, 109902.02, 24054.697, 34099.71, 0.032290477, -0.37581348, 121798.34, 121798.34, 0.00026447666, 10.000876, 9.9997425 
5.4998904e+1, 1.2507722e+2, -1745011.4, -1588198.9, 3513.9966, 0.11572857, -0.23769036, -1588120.3, 126097.37, 0.0011275938, 9.999179, 10.001267 
5.49989e+1, 1.3507584e+2, -1681840.6, -1678938.1, 22308.72, 0.036854643, -0.34635037, -1658033.5, -41804.34, 0.00066134764, 9.999686, 9.999724 
5.499923e+1, 1.4507695e+2, -1536287.9, -1535386.8, 8461.318, 0.0048747915, -0.22006539, -1527364.0, -9146.852, 0.00028458898, 9.999913, 9.999921 
5.500006e+1, 1.5507586e+2, -1449263.6, -1456704.8, -10097.283, 0.034992263, -0.31633627, -1442223.3, -21995.777, 0.00007188515, 9.999898, 9.999795 
5.5000377e+1, 1.6507575e+2, -1351381.0, -1340436.4, -22890.201, 0.029640326, -0.3148688, -1322373.5, -144.99579, 0.0000055425044, 9.99982, 9.999959 
5.5000204e+1, 1.7507625e+2, -1274385.8, -1255111.8, -6927.027, -0.010253148, -0.2639259, -1252880.5, -28657.232, 0.00000000116644, 9.999687, 9.999935 
5.500049e+1, 1.8507597e+2, -1175419.9, -1187487.1, -7122.809, 0.007130318, -0.270673, -1172118.8, -45892.914, 0.0, 9.999826, 9.9996605 
5.500123e+1, 1.9507508e+2, -1020159.75, -1066668.9, -3785.8755, 0.08108808, -0.33061722, -1019853.56, 8380.626, 0.0, 10.000241, 9.999618 
5.500144e+1, 2.0507444e+2, -916478.1, -1015689.7, 18039.064, 0.06475229, -0.32966346, -913300.0, 16940.578, 0.0, 10.000494, 9.999173 
5.500113e+1, 2.150741e+2, -807771.7, -916517.44, 5653.8613, -0.03890355, -0.28443015, -807478.5, 24766.637, 0.0, 10.000584, 9.999138 
5.500123e+1, 2.250734e+2, -710427.4, -810724.4, -33210.49, -0.060273763, -0.2724856, -700427.7, 33824.93, 0.0, 10.0005455, 9.999208 
5.500174e+1, 2.3507236e+2, -637646.06, -729446.4, -36384.813, -0.0012741131, -0.30081528, -624974.2, 11288.143, 0.0, 10.000391, 9.999168 
5.5002093e+1, 2.4507119e+2, -558178.25, -669916.7, -11976.216, 0.010093869, -0.32002822, -556909.06, -18636.504, 0.0, 10.000391, 9.998905 
5.5002284e+1, 2.550699e+2, -440257.75, -566481.6, -4134.7656, -0.025921617, -0.34287634, -440122.47, 160.4999, 0.0, 10.0005455, 9.998868 
5.5002564e+1, 2.650685e+2, -364269.56, -529463.1, -6626.564, -0.0451392, -0.3462764, -364004.2, -21708.129, 0.0, 10.000612, 9.998416 
5.500298e+1, 2.7506706e+2, -275199.6, -439752.63, -6223.727, -0.044344097, -0.33760703, -274964.53, -30653.553, 0.0, 10.000568, 9.99838 
5.5003685e+1, 2.8506526e+2, -154500.89, -334752.13, 4548.753, -0.022516616, -0.34851265, -154386.17, -8058.352, 0.00000001499631, 10.000742, 9.998343 
5.500459e+1, 2.950632e+2, 3756.6301, -206983.97, 18142.168, 0.008945236, -0.397245, 5307.041, 53654.008, 0.000005758176, 10.001152, 9.998351 
5.500527e+1, 3.0506247e+2, 15301.495, -252158.67, 28344.559, 0.00574801, -0.27177757, 18272.36, 18272.36, 0.00006691841, 10.0012245, 9.997678 
5.5006665e+1, 3.1505907e+2, 127160.05, 61492.563, 22057.459, 0.075814106, -0.37641, 133881.16, 133881.16, 0.00025031384, 10.00087, 10.000003 
6.4998245e+1, 1.25077e+2, -1719052.8, -1584213.1, 24074.186, 0.12134772, -0.22519214, -1580043.9, 134176.38, 0.001052614, 9.999396, 10.001186 
6.4998376e+1, 1.3507561e+2, -1701986.6, -1701420.5, 13177.755, 0.02051478, -0.32164055, -1688522.8, -72290.766, 0.00060904585, 9.999605, 9.999607 
6.49989e+1, 1.4507645e+2, -1573613.3, -1566336.4, -11726.159, -0.008780471, -0.21141899, -1557697.1, -39474.07, 0.000254567, 9.999714, 9.999804 
6.5000015e+1, 1.5507512e+2, -1480358.0, -1484737.3, -3711.6128, 0.048312396, -0.3201554, -1478238.3, -58002.105, 0.00005931439, 9.9997425, 9.999677 
6.50004e+1, 1.6507496e+2, -1341435.6, -1314471.3, -10832.989, 0.051886756, -0.32529026, -1310658.3, 11578.745, 0.0000034805446, 9.999797, 10.000149 
6.50001e+1, 1.7507565e+2, -1232669.1, -1214212.9, -12390.654, 0.0012291196, -0.27536562, -1207991.5, 16237.357, 0.00000000000024211628, 9.999885, 10.000121 
6.5000427e+1, 1.8507548e+2, -1145471.9, -1179419.4, -10534.868, 0.006809467, -0.27944177, -1142468.4, -16238.09, 0.0, 10.000062, 9.999602 
6.500138e+1, 1.9507456e+2, -1012070.1, -1068897.6, -17827.123, 0.06852626, -0.3350612, -1006940.7, 21298.92, 0.0, 10.000323, 9.999562 
6.500174e+1, 2.0507404e+2, -938179.1, -1021479.1, -1096.7445, 0.05396182, -0.32426786, -938164.7, -7919.3843, 0.0, 10.000326, 9.999213 
6.500149e+1, 2.150739e+2, -877182.75, -945066.1, 13540.263, -0.035954997, -0.2626601, -874581.6, -42334.016, 0.0, 10.000089, 9.999178 
6.500166e+1, 2.2507313e+2, -769751.25, -858203.4, -4014.296, -0.05407325, -0.24900502, -769569.44, -35313.656, 0.0, 10.000219, 9.99904 
6.500228e+1, 2.3507178e+2, -604936.56, -732021.5, -13243.899, -0.0014363204, -0.29218733, -603571.06, 32698.293, 0.0, 10.000695, 9.999004 
6.500269e+1, 2.4507055e+2, -486804.5, -629765.1, -1262.384, 0.008317824, -0.3119759, -486793.34, 51487.105, 0.0, 10.000855, 9.998958 
6.5002924e+1, 2.5506943e+2, -412079.3, -546315.3, -4832.0073, -0.02437061, -0.3217229, -411905.6, 28383.236, 0.0, 10.0007105, 9.998927 
6.500331e+1, 2.6506808e+2, -346685.97, -511767.9, -6783.7036, -0.03563887, -0.3279865, -346407.7, -4106.735, 0.0, 10.000694, 9.998497 
6.500391e+1, 2.7506652e+2, -232467.7, -410720.6, -1166.1031, -0.021497628, -0.33804378, -232460.08, 11855.9795, 0.0, 10.000827, 9.998454 
6.500461e+1, 2.8506473e+2, -121404.09, -313762.88, 13337.294, -0.014158952, -0.35919985, -120483.75, 25849.14, 0.000000013847158, 10.000948, 9.998389 
6.500533e+1, 2.9506266e+2, -10723.998, -207346.06, 8784.844, -0.025383826, -0.41106647, -10332.281, 38019.49, 0.00000502331, 10.001025, 9.998409 
6.50061e+1, 3.0506173e+2, -8747.18, -264466.06, -7897.8896, -0.024353346, -0.30542776, -8503.485, -8503.485, 0.000061189545, 10.001061, 9.99767 
6.500795e+1, 3.1505883e+2, 164890.6, 92217.02, -29868.902, 0.10782065, -0.3584016, 175591.16, 175591.16, 0.0002346527, 10.001076, 10.0001135 
7.499697e+1, 1.2507658e+2, -1751274.5, -1652252.4, 28874.941, 0.050869294, -0.24169815, -1644447.6, 69774.984, 0.0009783517, 9.9994, 10.000716 
7.499825e+1, 1.3507496e+2, -1735160.1, -1773493.1, 22069.16, 0.044471055, -0.3137529, -1725096.4, -108857.28, 0.00055803865, 9.999618, 9.999106 
7.4998957e+1, 1.4507563e+2, -1554954.6, -1529785.5, -11579.585, 0.022441912, -0.20524853, -1525268.6, -7036.267, 0.00022607559, 9.999723, 10.0000515 
7.499939e+1, 1.5507466e+2, -1462552.3, -1448284.5, -2319.624, 0.010653082, -0.30338082, -1447916.9, -27675.646, 0.000048170983, 9.999744, 9.9999275 
7.499988e+1, 1.6507436e+2, -1343558.1, -1317666.8, -7844.1294, 0.018475696, -0.33635837, -1315475.8, 6767.106, 0.0000019773436, 9.999792, 10.000128 
7.5000465e+1, 1.7507438e+2, -1234204.9, -1218069.1, -7980.6455, 0.047730356, -0.34979397, -1214788.8, 9451.289, 0.0, 9.999888, 10.0000925 
7.500082e+1, 1.850743e+2, -1158421.4, -1206543.3, -893.9207, 0.03909232, -0.33312953, -1158404.8, -32163.645, 0.0, 10.000063, 9.999415 
7.500097e+1, 1.950742e+2, -1025192.75, -1095340.0, -7763.911, -0.005719033, -0.28680527, -1024343.75, 3900.721, 0.0, 10.0003195, 9.999383 
7.500142e+1, 2.050739e+2, -910287.7, -961946.44, -10528.316, -0.010940745, -0.2665594, -908224.4, 22023.71, 0.0, 10.0003195, 9.999624 
7.500216e+1, 2.1507338e+2, -849803.4, -886797.0, 5565.6675, 0.021743715, -0.28565985, -848984.2, -16732.096, 0.0, 10.000083, 9.99958 
7.500267e+1, 2.2507264e+2, -786364.1, -891823.56, 13444.404, 0.022935033, -0.2773745, -784677.1, -50417.316, 0.0, 10.000215, 9.998812 
7.5002944e+1, 2.3507173e+2, -621510.5, -765603.75, 5186.121, -0.0050603044, -0.25319576, -621324.06, 14946.717, 0.0, 10.00069, 9.998776 
7.500328e+1, 2.4507055e+2, -493645.75, -642509.4, -7206.2637, -0.019608077, -0.2537196, -493297.72, 44985.023, 0.0, 10.00085, 9.998873 
7.5003654e+1, 2.5506908e+2, -418965.1, -558979.9, -10013.633, -0.022965124, -0.290395, -418252.56, 22042.766, 0.0, 10.000704, 9.998843 
7.500423e+1, 2.6506773e+2, -335453.84, -487754.8, -2711.4248, -0.01355, -0.30011955, -335405.56, 6901.2856, 0.0, 10.000691, 9.998663 
7.500508e+1, 2.7506652e+2, -222565.44, -388449.66, 5057.9014, 0.012481542, -0.29140085, -222411.36, 21905.396, 0.0, 10.000819, 9.9986105 
7.500566e+1, 2.8506458e+2, -134018.03, -339075.22, 15595.754, -0.0045966264, -0.3242411, -132838.66, 13495.474, 0.000000011324871, 10.000944, 9.998217 
7.5005835e+1, 2.950619e+2, -22740.836, -231219.58, 12028.332, -0.078540735, -0.42161784, -22049.146, 26310.19, 0.0000042980337, 10.00102, 9.998248 
7.500665e+1, 3.050605e+2, -19310.57, -285733.84, -7806.7847, -0.07633677, -0.34764504, -19082.01, -19082.01, 0.00005527223, 10.00106, 9.997524 
7.500916e+1, 3.1505832e+2, 161769.42, 88113.05, -31561.268, 0.11906014, -0.31867257, 173443.08, 173443.08, 0.00021799415, 10.001066, 10.000089 
8.499626e+1, 1.2507573e+2, -1741697.6, -1637376.5, -7300.5313, 0.03930219, -0.25284645, -1636868.1, 77362.34, 0.00090933184, 9.999421, 10.00081 
8.4997773e+1, 1.3507417e+2, -1763888.4, -1781573.1, 27701.586, 0.047096338, -0.321129, -1743652.1, -127405.984, 0.0005120121, 9.999395, 9.999159 
8.499855e+1, 1.450749e+2, -1595825.5, -1540551.6, 8602.856, 0.02656578, -0.21479958, -1539243.6, -21004.463, 0.00020159004, 9.999405, 10.000131 
8.4998953e+1, 1.5507431e+2, -1494591.5, -1454994.9, 3435.1074, 0.005379747, -0.28255042, -1454699.1, -34454.273, 0.000039447743, 9.99949, 10.000003 
8.499955e+1, 1.6507402e+2, -1373993.0, -1341332.4, -6768.024, 0.015626553, -0.31298354, -1339985.4, -17739.012, 0.0000010481418, 9.999624, 10.000045 
8.5000426e+1, 1.7507374e+2, -1252832.6, -1235968.1, -12870.89, 0.05999359, -0.34929582, -1229013.3, -4766.5664, 0.0, 9.9998, 10.000011 
8.5000855e+1, 1.850736e+2, -1178606.6, -1209218.1, 2983.8335, 0.044561792, -0.33705255, -1178318.5, -52070.35, 0.0, 9.999893, 9.999479 
8.500083e+1, 1.9507371e+2, -1078830.6, -1113272.9, 14528.273, -0.03117279, -0.27640826, -1073521.0, -45271.586, 0.0, 9.99992, 9.999452 
8.500141e+1, 2.0507345e+2, -944185.5, -975941.0, 2431.0024, -0.03176496, -0.2586423, -944000.44, -13747.725, 0.0, 10.000077, 9.999645 
8.500258e+1, 2.1507274e+2, -809682.4, -865685.7, -12156.924, 0.04178955, -0.2969278, -807157.3, 25101.176, 0.0, 10.000349, 9.9995985 
8.500323e+1, 2.2507201e+2, -754944.6, -868890.7, -774.76056, 0.049517665, -0.29216695, -754939.4, -20673.38, 0.0, 10.000398, 9.99888 
8.50034e+1, 2.350713e+2, -681913.3, -786270.56, 11964.13, -0.0059283073, -0.25472793, -680559.25, -44284.598, 0.0, 10.000241, 9.99885 
8.500385e+1, 2.4507023e+2, -569915.25, -688409.5, 10756.315, -0.022688419, -0.24255663, -568946.75, -30660.996, 0.0, 10.000366, 9.99879 
8.5004586e+1, 2.550688e+2, -415253.4, -566975.75, 7232.7915, -0.0038607304, -0.26629955, -414909.38, 25389.639, 0.0, 10.0007715, 9.998755 
8.500528e+1, 2.650674e+2, -285746.6, -465451.03, 8221.242, 0.004677001, -0.2768676, -285371.25, 56940.164, 0.0, 10.001039, 9.998651 
8.5006034e+1, 2.7506605e+2, -173398.27, -365551.13, 1149.6094, 0.009758461, -0.2819818, -173391.39, 70930.945, 0.0, 10.001159, 9.998606 
8.500672e+1, 2.8506413e+2, -111798.766, -337240.44, 5098.608, -0.001996427, -0.30989856, -111683.516, 34655.957, 0.000000007967864, 10.001134, 9.998139 
8.500715e+1, 2.950616e+2, -32611.928, -244640.33, 7111.2046, -0.047027875, -0.38324296, -32373.693, 15989.633, 0.00000360919, 10.000989, 9.998172 
8.5007906e+1, 3.0505964e+2, -12132.763, -304808.5, 658.8511, -0.0636325, -0.35431662, -12131.279, -12131.279, 0.000049311082, 10.0012045, 9.997324 
8.501007e+1, 3.1505728e+2, 243528.23, 111603.69, -33303.695, 0.07240115, -0.31727418, 251458.84, 251458.84, 0.0002005974, 10.001696, 9.999948 
9.4996065e+1, 1.2507442e+2, -1693967.6, -1540816.6, -12646.541, 0.07410728, -0.2578789, -1539779.4, 174464.61, 0.0008487081, 9.999431, 10.00147 
9.4996977e+1, 1.350733e+2, -1720672.1, -1693696.1, 26742.936, 0.026708756, -0.34261698, -1677232.3, -60979.254, 0.00047347447, 9.999402, 9.99976 
9.499771e+1, 1.4507428e+2, -1601151.6, -1551977.6, 11208.412, -0.00004037059, -0.23806164, -1549543.4, -31299.992, 0.00018256163, 9.999407, 10.000051 
9.499864e+1, 1.5507405e+2, -1500267.5, -1468425.1, 8024.9443, 0.023436321, -0.25984982, -1466517.1, -46270.07, 0.00003354367, 9.9994955, 9.999908 
9.499937e+1, 1.6507396e+2, -1385368.4, -1365083.3, -331.79956, 0.03400618, -0.2574812, -1365077.9, -42829.875, 0.00000057940093, 9.999626, 9.999882 
9.499999e+1, 1.7507373e+2, -1263538.9, -1258034.0, -5901.114, 0.035885077, -0.2741771, -1254275.0, -30026.04, 0.0, 9.9998, 9.999861 
9.500051e+1, 1.8507339e+2, -1155653.9, -1161420.6, 3289.1377, 0.019969838, -0.28985018, -1154163.1, -27911.652, 0.0, 9.999893, 9.999807 
9.500094e+1, 1.9507308e+2, -1056484.3, -1067063.0, 16323.131, -0.013488577, -0.3037566, -1044614.9, -16360.59, 0.0, 9.999921, 9.999768 
9.500168e+1, 2.0507263e+2, -971267.9, -1031102.8, 12329.253, -0.013238632, -0.30060062, -968826.94, -38567.56, 0.0, 10.0000725, 9.9992695 
9.5002717e+1, 2.1507198e+2, -836095.7, -919363.2, -1363.3019, 0.020384787, -0.29624382, -836073.4, -3806.6377, 0.0, 10.000344, 9.999233 
9.5003366e+1, 2.2507124e+2, -730275.2, -816609.25, -7312.0767, 0.021769568, -0.29291585, -729660.3, 4613.9033, 0.0, 10.000393, 9.999242 
9.500364e+1, 2.3507048e+2, -657814.94, -734300.2, 6647.0005, -0.007402752, -0.29724506, -657241.6, -20960.576, 0.0, 10.000233, 9.99921 
9.5004416e+1, 2.4506962e+2, -576200.4, -700433.44, 25299.068, -0.0041633793, -0.27769548, -571246.0, -32956.387, 0.0, 10.000361, 9.998709 
9.5005685e+1, 2.5506866e+2, -422367.63, -580050.94, 23313.266, 0.027933005, -0.25041884, -418993.0, 21306.98, 0.0, 10.000764, 9.998669 
9.500643e+1, 2.650671e+2, -300580.84, -494916.5, 12195.625, 0.015015879, -0.25896013, -299818.47, 42496.25, 0.0, 10.001033, 9.998451 
9.500675e+1, 2.750651e+2, -186917.52, -392440.72, 5747.867, -0.0356858, -0.30912885, -186756.89, 57575.832, 0.0, 10.001154, 9.998424 
9.5007765e+1, 2.8506333e+2, -110660.69, -334044.63, -1651.7158, -0.012019264, -0.31409812, -110648.48, 35700.305, 0.0000000042394483, 10.00113, 9.998162 
9.500928e+1, 2.950617e+2, -33555.406, -244149.44, 3238.2058, 0.06526991, -0.2964336, -33505.625, 14858.108, 0.000002925069, 10.000978, 9.99818 
9.500986e+1, 3.0505905e+2, -31446.219, -342376.3, 19150.85, 0.010336083, -0.32635915, -30271.117, -30271.117, 0.000043225835, 10.001195, 9.99707 
9.5010626e+1, 3.1505576e+2, 223893.61, 73143.625, -15187.104, -0.043536063, -0.35977867, 225408.39, 225408.39, 0.00018228774, 10.001686, 9.999688 
1.0499526e+2, 1.2507306e+2, -1720500.6, -1544499.6, 1344.7974, 0.06154917, -0.28559092, -1544489.4, 169767.19, 0.00079770345, 9.999211, 10.001548 
1.0499629e+2, 1.3507234e+2, -1740502.3, -1696132.4, -1730.8491, 0.025420869, -0.33744112, -1696064.9, -79802.734, 0.0004431459, 9.999237, 9.999821 
1.04997076e+2, 1.450733e+2, -1614709.1, -1550236.5, -27424.797, 0.0029249934, -0.24229074, -1540149.0, -21896.1, 0.00016917764, 9.999277, 10.000125 
1.04998045e+2, 1.5507308e+2, -1519460.8, -1470154.9, -20302.547, 0.023569027, -0.2704211, -1462871.0, -42614.7, 0.000030278157, 9.9993305, 9.999976 
1.0499887e+2, 1.6507305e+2, -1413601.9, -1383830.8, -11789.505, 0.029878471, -0.2601713, -1379727.6, -57470.86, 0.0000004316036, 9.999454, 9.999836 
1.049996e+2, 1.7507301e+2, -1287343.6, -1273927.1, -9567.504, 0.024569921, -0.2539591, -1268950.5, -44693.777, 0.0, 9.999657, 9.99982 
1.0500036e+2, 1.8507265e+2, -1184152.6, -1176663.4, -16717.008, 0.024828997, -0.26992726, -1163276.8, -37016.824, 0.0, 9.999704, 9.999793 
1.05001144e+2, 1.9507211e+2, -1104124.9, -1091981.3, -30930.602, 0.031033752, -0.30732659, -1066532.1, -38267.027, 0.0, 9.9996, 9.999752 
1.0500192e+2, 2.0507164e+2, -1014454.8, -1053077.1, -17358.96, 0.019001272, -0.3021838, -1007799.56, -77529.34, 0.0, 9.999781, 9.999259 
1.0500269e+2, 2.1507126e+2, -852817.94, -927296.1, -4519.1177, -0.011362455, -0.2711745, -852544.75, -20269.418, 0.0, 10.000231, 9.999232 
1.0500346e+2, 2.2507055e+2, -706457.0, -786226.94, -18720.475, -0.011732104, -0.27245525, -702282.1, 31999.8, 0.0, 10.000476, 9.99941 
1.05004266e+2, 2.3506962e+2, -603780.8, -690498.3, -20484.256, 0.017890902, -0.31174955, -599185.56, 37103.926, 0.0, 10.000526, 9.999371 
1.050053e+2, 2.4506876e+2, -533005.4, -675683.7, 9110.025, 0.034655686, -0.30124024, -532426.06, 5871.3804, 0.0, 10.00064, 9.998746 
1.0500656e+2, 2.5506797e+2, -411961.16, -570513.25, 14214.52, 0.036748964, -0.25943282, -410696.88, 29609.127, 0.0, 10.000815, 9.99871 
1.05007276e+2, 2.6506642e+2, -337233.2, -523448.7, 2047.9576, 0.007330946, -0.2658332, -337210.66, 5110.597, 0.0, 10.000827, 9.998356 
1.0500756e+2, 2.7506423e+2, -264204.53, -441143.0, 1799.5253, -0.045988224, -0.3241574, -264186.25, -19844.26, 0.0, 10.000671, 9.9983225 
1.0500878e+2, 2.850626e+2, -146674.02, -348656.8, 6368.62, -0.009691129, -0.30981612, -146473.4, -116.18985, 0.0000000012344323, 10.00087, 9.998189 
1.0501076e+2, 2.950615e+2, 31285.227, -208893.58, 10917.106, 0.09594787, -0.24585976, 31780.434, 80148.21, 0.0000022309773, 10.001404, 9.998219 
1.05011396e+2, 3.0505854e+2, 8508.515, -308983.3, 36997.938, 0.03478157, -0.31387475, 12762.946, 12762.946, 0.00003695323, 10.001405, 9.997201 
1.0501175e+2, 3.1505552e+2, 105657.734, 21512.537, 25423.387, -0.05809738, -0.33102864, 112742.555, 112742.555, 0.00016279968, 10.000849, 9.999738 
1.149938e+2, 1.2507167e+2, -1755101.1, -1617225.3, 205.1767, -0.00809926, -0.3369652, -1617224.9, 97043.08, 0.0007564602, 9.999216, 10.001046 
1.14995636e+2, 1.3507126e+2, -1774250.5, -1766178.0, 54.76175, 0.03564946, -0.30915582, -1766177.6, -149903.64, 0.00042056636, 9.999237, 9.999341 
1.14996605e+2, 1.4507191e+2, -1600346.4, -1519683.8, -25436.963, 0.026333636, -0.23064703, -1512332.1, 5936.037, 0.00016082273, 9.999275, 10.000336 
1.1499718e+2, 1.5507136e+2, -1503501.0, -1438545.1, -17319.879, 0.0014913995, -0.31394356, -1434215.5, -13942.593, 0.000029173776, 9.999337, 10.00019 
1.1499804e+2, 1.6507135e+2, -1406237.4, -1370061.4, -5108.618, -0.00040901906, -0.31906876, -1369353.8, -47081.094, 0.0000005105562, 9.999459, 9.999928 
1.1499923e+2, 1.7507164e+2, -1281184.1, -1262120.9, -1327.5297, 0.020175697, -0.28809735, -1262028.9, -37758.996, 0.0, 9.99966, 9.9999 
1.1500035e+2, 1.8507138e+2, -1210621.6, -1230826.0, -20910.07, 0.05275513, -0.27797654, -1197501.4, -71227.914, 0.0, 9.9997015, 9.999423 
1.1500143e+2, 1.9507076e+2, -1129618.5, -1144528.8, -34004.473, 0.099032216, -0.28800705, -1102261.5, -73979.67, 0.0, 9.999599, 9.999392 
1.1500214e+2, 2.0507048e+2, -989626.2, -1000734.3, -1050.7185, 0.061682023, -0.26357982, -989527.7, -59242.26, 0.0, 9.999776, 9.99962 
1.1500246e+2, 2.1507058e+2, -828111.3, -874799.44, 12964.813, -0.057254978, -0.22200373, -824752.75, 7531.5273, 0.0, 10.000225, 9.999596 
1.1500352e+2, 2.2506994e+2, -709323.5, -790903.4, -17314.084, -0.05501504, -0.2313313, -705800.94, 28488.424, 0.0, 10.00047, 9.99938 
1.1500528e+2, 2.3506871e+2, -607051.5, -695699.6, -17828.973, 0.0656437, -0.29748827, -603600.1, 32699.832, 0.0, 10.00052, 9.999337 
1.150065e+2, 2.4506766e+2, -523785.56, -655165.1, 15088.3125, 0.08991618, -0.3123229, -522075.0, 16234.192, 0.0, 10.000634, 9.99889 
1.1500719e+2, 2.5506678e+2, -401607.38, -547544.4, 21214.494, 0.017872406, -0.2928619, -398586.03, 41731.04, 0.0, 10.00081, 9.998871 
1.1500782e+2, 2.6506537e+2, -337188.28, -522496.8, -4717.9487, -0.02197728, -0.2968294, -337068.22, 5262.81, 0.0, 10.000823, 9.998364 
1.1500845e+2, 2.7506346e+2, -265960.16, -443187.75, -3163.3074, -0.025089953, -0.32872343, -265903.72, -21553.438, 0.0, 10.000664, 9.998312 
1.1500977e+2, 2.85062e+2, -146088.78, -345068.2, 25731.361, 0.0019431077, -0.2991151, -142815.14, 3549.77, 0.00000000006210851, 10.00086, 9.998219 
1.150116e+2, 2.9506093e+2, 34842.445, -200264.08, 32026.45, 0.037919465, -0.23115855, 39127.04, 87502.39, 0.0000015849012, 10.001399, 9.998281 
1.150125e+2, 3.050581e+2, 44184.81, -232999.81, 15666.821, 0.0038023556, -0.3152445, 45067.508, 45067.508, 0.000030721083, 10.001398, 9.9977255 
1.15013406e+2, 3.1505662e+2, 129373.23, 73643.91, 3848.4724, 0.020380083, -0.23295914, 129637.734, 129637.734, 0.00014243502, 10.000837, 10.000101 
1.24992885e+2, 1.2507097e+2, -1727059.4, -1631266.0, 10549.957, -0.037119657, -0.3377078, -1630117.9, 84156.28, 0.0007247361, 9.999529, 10.0008 
1.2499484e+2, 1.350704e+2, -1761614.8, -1787234.1, 27937.51, 0.022830471, -0.29950336, -1743690.3, -127407.41, 0.00040489552, 9.999442, 9.999098 
1.2499585e+2, 1.450708e+2, -1587967.3, -1513275.1, 7226.7573, 0.020332668, -0.23494393, -1512582.3, 5697.736, 0.00015657058, 9.999357, 10.00034 
1.2499646e+2, 1.5507036e+2, -1508623.5, -1440486.6, -2089.8364, -0.001548553, -0.307878, -1440422.5, -20139.158, 0.000029665785, 9.9993, 10.000195 
1.2499745e+2, 1.6507034e+2, -1423831.6, -1372476.1, 6980.4746, 0.0026830847, -0.316279, -1371544.3, -49261.1, 0.0000007617598, 9.9993105, 9.999985 
1.2499886e+2, 1.7507054e+2, -1318376.3, -1274286.1, 6577.046, 0.0316088, -0.29992557, -1273325.9, -49044.457, 0.0, 9.999377, 9.999953 
1.2500006e+2, 1.8507046e+2, -1229446.6, -1240726.1, 593.03864, 0.059708253, -0.2752289, -1229415.6, -103131.72, 0.0, 9.999575, 9.999416 
1.2500107e+2, 1.9507025e+2, -1086468.1, -1123841.3, 14128.022, 0.08788594, -0.24228622, -1081728.5, -53439.813, 0.0, 9.999896, 9.999391 
1.2500198e+2, 2.0506996e+2, -961177.56, -980647.06, 50437.883, 0.060482416, -0.2223199, -919543.56, 10748.447, 0.0, 9.999945, 9.999678 
1.250028e+2, 2.1506959e+2, -896532.5, -901947.94, 39566.723, -0.021068452, -0.23208962, -859580.94, -27286.695, 0.0, 9.999729, 9.999649 
1.2500401e+2, 2.2506891e+2, -811462.56, -858163.06, -1417.0045, -0.020573525, -0.24164872, -811419.56, -77119.39, 0.0, 9.999845, 9.999221 
1.2500562e+2, 2.3506801e+2, -652476.3, -734718.7, -12746.689, 0.059980623, -0.25839704, -650546.06, -14236.865, 0.0, 10.000282, 9.999185 
1.2500684e+2, 2.4506702e+2, -550470.1, -651943.6, 7118.1563, 0.07269484, -0.26771128, -549973.2, -11655.241, 0.0, 10.000382, 9.999033 
1.2500766e+2, 2.5506595e+2, -488058.25, -574001.4, 11931.64, 0.01697217, -0.28376094, -486432.53, -46106.09, 0.0, 10.00015, 9.999007 
1.250086e+2, 2.6506448e+2, -395399.88, -545233.25, -703.95044, -0.0055108923, -0.29756328, -395396.56, -53056.59, 0.0, 10.0004015, 9.998411 
1.250097e+2, 2.7506274e+2, -194786.13, -404160.72, 1910.4321, 0.010651486, -0.31630582, -194768.7, 49589.215, 0.0, 10.001132, 9.998355 
1.2501098e+2, 2.850614e+2, -94602.71, -316742.94, 23107.707, 0.020365717, -0.27994314, -92224.44, 54147.36, 0.0, 10.001197, 9.998252 
1.2501225e+2, 2.9506043e+2, -82052.9, -251460.14, 27439.662, 0.004470319, -0.20846245, -77719.234, -29337.607, 0.0000010474641, 10.000575, 9.998326 
1.2501323e+2, 3.0505738e+2, -38639.98, -238507.13, 9735.411, -0.025158081, -0.33335412, -38166.895, -38166.895, 0.000024841802, 10.000681, 9.9980345 
1.2501475e+2, 3.1505644e+2, 224790.22, 123368.82, -22867.324, 0.04067093, -0.22168005, 229707.66, 229707.66, 0.00012195601, 10.001475, 10.000138 
1.3499247e+2, 1.2507096e+2, -1728430.6, -1633131.5, 2386.8384, -0.0334743, -0.28553176, -1633071.8, 81203.29, 0.0007016644, 9.999524, 10.00079 
1.3499388e+2, 1.3506979e+2, -1761548.1, -1789965.9, 25608.906, -0.018894915, -0.30563438, -1746470.4, -130181.6, 0.00039489288, 9.9994545, 9.999074 
1.349948e+2, 1.4506996e+2, -1599525.6, -1539606.1, 3437.7222, -0.021607732, -0.25284225, -1539409.5, -21121.139, 0.00015526546, 9.999368, 10.0001545 
1.3499586e+2, 1.5507005e+2, -1522017.3, -1468346.9, -3438.2808, 0.0073750173, -0.25309044, -1468127.5, -47839.777, 0.000031126172, 9.9993, 10.000004 
1.3499707e+2, 1.6507004e+2, -1423894.3, -1371834.5, 9123.792, 0.032232918, -0.2534427, -1370281.8, -47993.496, 0.0000011270397, 9.999308, 9.99999 
1.3499849e+2, 1.750697e+2, -1316703.6, -1271768.1, 9813.177, 0.055525023, -0.2908193, -1269718.6, -45426.715, 0.0, 9.999382, 9.999969 
1.3499947e+2, 1.8506986e+2, -1202880.8, -1186065.8, 11997.702, 0.04238653, -0.26182872, -1179822.9, -53531.61, 0.0, 9.999577, 9.999791 
1.3500004e+2, 1.9507061e+2, -1060844.5, -1070824.8, 26669.027, -0.0069213132, -0.16919938, -1038702.7, -10417.367, 0.0, 9.999897, 9.999755 
1.3500144e+2, 2.0507008e+2, -979703.2, -1017979.75, 41758.71, 0.010675348, -0.17846403, -952906.06, -22615.957, 0.0, 9.99994, 9.999424 
1.3500369e+2, 2.1506833e+2, -915886.56, -940161.25, 32556.334, 0.09374776, -0.3013871, -893278.7, -60973.41, 0.0, 9.999721, 9.999391 
1.3500495e+2, 2.2506747e+2, -833110.7, -901151.9, 14511.684, 0.0876983, -0.30256388, -830144.94, -95830.5, 0.0, 9.999837, 9.99893 
1.3500528e+2, 2.350675e+2, -672171.3, -775029.8, 4213.381, -0.00342331, -0.19538319, -671999.0, -35681.688, 0.0, 10.000279, 9.99891 
1.350063e+2, 2.450668e+2, -541016.5, -631246.3, -2232.475, -0.02129943, -0.16875014, -540961.25, -2637.316, 0.0, 10.000378, 9.999178 
1.3500795e+2, 2.5506538e+2, -479685.2, -555078.44, 3923.4607, 0.029801589, -0.23267774, -479481.56, -39147.41, 0.0, 10.000143, 9.999141 
1.3500959e+2, 2.6506382e+2, -391489.38, -535683.2, 26234.672, 0.05318234, -0.26874048, -386864.56, -44516.53, 0.0, 10.000395, 9.99848 
1.3501127e+2, 2.7506217e+2, -188665.7, -390687.8, 30230.068, 0.054391958, -0.2863214, -184239.14, 60125.754, 0.0, 10.001129, 9.998449 
1.3501237e+2, 2.8506085e+2, -92902.32, -311643.84, -1100.6119, 0.039838932, -0.25140682, -92896.78, 53481.047, 0.0, 10.00119, 9.99829 
1.350127e+2, 2.9505995e+2, -80576.63, -246653.58, 5381.789, -0.0099320365, -0.17948511, -80402.414, -32015.598, 0.0000006413962, 10.0005665, 9.9983635 
1.3501363e+2, 3.0505627e+2, -33648.33, -225079.84, 38853.44, -0.055332303, -0.37131783, -26063.088, -26063.088, 0.000019439243, 10.0006695, 9.998131 
1.3501576e+2, 3.1505504e+2, 204507.5, 84013.8, 5749.848, -0.0076517942, -0.2997401, 204781.25, 204781.25, 0.000102001, 10.001466, 9.999871 
1.4499167e+2, 1.2507045e+2, -1782417.9, -1640166.3, -25635.635, -0.04130896, -0.24775533, -1635687.4, 78594.37, 0.0006852014, 9.99907, 10.000959 
1.4499304e+2, 1.3506924e+2, -1796767.6, -1784388.9, 13969.737, -0.030306187, -0.29355446, -1775298.8, -159004.39, 0.00038852147, 9.999114, 9.999276 
1.4499411e+2, 1.4506917e+2, -1629365.3, -1573926.5, 5351.4854, -0.022627585, -0.265397, -1573414.8, -55118.65, 0.00015533686, 9.999247, 9.999979 
1.449955e+2, 1.5506932e+2, -1514136.6, -1484986.4, -2539.6907, 0.034134496, -0.24184315, -1484766.8, -64470.813, 0.00003278088, 9.999441, 9.999823 
1.4499669e+2, 1.6506937e+2, -1400352.9, -1358548.0, 9150.363, 0.056219835, -0.22556402, -1356632.9, -34336.8, 0.0000015078091, 9.99946, 10.000008 
1.4499775e+2, 1.7506917e+2, -1324189.1, -1273500.1, 9132.256, 0.045798026, -0.25185412, -1271905.0, -47606.746, 0.0, 9.999322, 9.999986 
1.449987e+2, 1.8506926e+2, -1218951.5, -1183379.5, 15422.497, 0.016862342, -0.2349542, -1177624.1, -51326.246, 0.0, 9.99942, 9.999886 
1.4499961e+2, 1.9506975e+2, -1076119.6, -1068111.5, 7600.751, -0.031114, -0.17835842, -1063524.6, -35231.03, 0.0, 9.999747, 9.999846 
1.450013e+2, 2.0506915e+2, -979385.44, -1030538.25, 5908.2305, 0.0016308987, -0.19339304, -978711.9, -48412.91, 0.0, 9.999996, 9.9993105 
1.4500381e+2, 2.1506754e+2, -859116.2, -925041.9, 6376.775, 0.11299854, -0.29047644, -858505.06, -26191.729, 0.0, 10.000164, 9.99928 
1.450052e+2, 2.2506669e+2, -782055.56, -882990.2, 12359.16, 0.110566705, -0.28173912, -780564.3, -46241.6, 0.0, 10.000216, 9.998873 
1.4500551e+2, 2.3506661e+2, -694654.44, -792354.1, 18257.291, -0.0014377855, -0.1818378, -691354.2, -55027.293, 0.0, 10.000153, 9.998852 
1.4500663e+2, 2.4506582e+2, -549277.94, -639756.3, 10802.994, -0.024099166, -0.15862079, -548006.0, -9671.549, 0.0, 10.00034, 9.999138 
1.4500849e+2, 2.5506437e+2, -391168.84, -517290.72, 1789.9955, 0.037434798, -0.22066619, -391143.44, 49201.58, 0.0, 10.000772, 9.999097 
1.4501019e+2, 2.650628e+2, -336953.75, -504344.9, 18860.438, 0.057420492, -0.256979, -334855.0, 7503.85, 0.0, 10.000748, 9.998525 
1.4501184e+2, 2.7506116e+2, -314531.78, -446125.44, 19682.299, 0.04267719, -0.279196, -311651.0, -67275.55, 0.0, 10.000243, 9.998495 
1.4501315e+2, 2.8505987e+2, -208348.3, -372751.3, -15185.295, 0.03746675, -0.24198383, -206957.45, -60569.383, 0.0, 10.0004225, 9.9982395 
1.4501393e+2, 2.9505903e+2, 21993.195, -203514.47, -16453.088, 0.022393271, -0.15771142, 23187.293, 71583.72, 0.0000003644557, 10.001298, 9.998308 
1.4501502e+2, 3.050551e+2, 92948.79, -157343.22, 14244.267, -0.023721002, -0.3745305, 93756.836, 93756.836, 0.000014553311, 10.001509, 9.998193 
1.4501679e+2, 3.150538e+2, 104353.05, -3098.5999, -27282.373, -0.025076225, -0.31624404, 110883.27, 110883.27, 0.0000830069, 10.000944, 9.999524 
1.5499045e+2, 1.250694e+2, -1754974.4, -1586677.0, -26840.729, -0.07565877, -0.22614191, -1582500.0, 131794.55, 0.0006719969, 9.9990835, 10.001321 
1.549923e+2, 1.3506868e+2, -1765578.3, -1720365.5, 16035.682, -0.018331392, -0.2654287, -1715255.6, -98955.5, 0.00038301162, 9.999115, 9.999715 
1.5499371e+2, 1.4506839e+2, -1641826.3, -1598913.8, 11998.238, 0.011546586, -0.27405646, -1595786.9, -77483.51, 0.00015494693, 9.999244, 9.999809 
1.5499537e+2, 1.5506813e+2, -1525202.8, -1509450.8, 5371.765, 0.07452598, -0.27365145, -1507793.3, -87485.35, 0.000033834087, 9.999447, 9.999651 
1.549963e+2, 1.6506837e+2, -1397097.1, -1353243.4, 2900.8994, 0.06921694, -0.2322049, -1353052.3, -30745.756, 0.0000017896223, 9.999467, 10.000041 
1.5499659e+2, 1.7506897e+2, -1322043.5, -1269216.1, 4590.0474, -0.0032413034, -0.18265793, -1268820.3, -44519.605, 0.0, 9.999322, 10.000014 
1.5499774e+2, 1.8506868e+2, -1232616.4, -1211173.9, 27334.117, -0.02261285, -0.19484346, -1192533.6, -66230.02, 0.0, 9.999417, 9.999697 
1.549998e+2, 1.9506766e+2, -1089364.6, -1095519.8, 20611.55, 0.011728548, -0.27094594, -1071602.1, -43288.332, 0.0, 9.999746, 9.99966 
1.550016e+2, 2.0506717e+2, -977897.4, -1026372.75, 11630.083, 0.029945087, -0.26780394, -975251.5, -44932.703, 0.0, 9.99999, 9.999342 
1.5500319e+2, 2.1506724e+2, -856974.44, -920439.75, 13219.048, 0.032431927, -0.20037073, -854331.1, -22012.559, 0.0, 10.000162, 9.999313 
1.5500475e+2, 2.2506659e+2, -770140.0, -857126.8, 9341.045, 0.043273218, -0.18048903, -769148.2, -34823.086, 0.0, 10.000211, 9.999052 
1.5500632e+2, 2.3506531e+2, -683530.8, -767919.4, 16712.098, 0.06264468, -0.21806347, -680341.7, -44003.707, 0.0, 10.000146, 9.999023 
1.5500781e+2, 2.4506406e+2, -566426.7, -673681.0, 26569.953, 0.06010645, -0.23696154, -560205.44, -21856.045, 0.0, 10.000333, 9.998908 
1.5500923e+2, 2.550629e+2, -407087.7, -549557.5, 18719.168, 0.034093622, -0.24745633, -404669.22, 35689.82, 0.0, 10.000769, 9.998878 
1.550104e+2, 2.6506147e+2, -336277.8, -501466.47, -455.8173, 0.0023830396, -0.26278627, -336276.56, 6096.0244, 0.0, 10.000742, 9.998547 
1.5501139e+2, 2.7505973e+2, -314080.72, -443629.34, 1255.1449, -0.028831339, -0.29572985, -314068.56, -69678.87, 0.0, 10.000237, 9.998514 
1.5501331e+2, 2.8505844e+2, -219488.16, -395127.63, 16927.549, 0.009632433, -0.25346556, -217871.61, -71468.95, 0.0, 10.000418, 9.998089 
1.5501598e+2, 2.9505768e+2, 12579.905, -222907.77, 18711.752, 0.094699755, -0.14322025, 14057.463, 62467.92, 0.00000019831394, 10.001296, 9.998176 
1.5501739e+2, 3.050539e+2, 92787.56, -155785.56, -6748.8037, 0.062673196, -0.34320492, 92970.66, 92970.66, 0.000010333069, 10.001501, 9.998206 
1.5501776e+2, 3.1505275e+2, 74628.72, -63115.113, -46593.65, -0.024776699, -0.2707841, 88909.125, 88909.125, 0.00006547037, 10.000937, 9.999113 
1.6498952e+2, 1.2506795e+2, -1805519.6, -1606828.6, -9537.108, -0.05765282, -0.25673515, -1606371.9, 107936.73, 0.00065754744, 9.998718, 10.001358 
1.6499147e+2, 1.3506773e+2, -1762904.3, -1707282.1, 7595.962, -0.01006711, -0.2566885, -1706263.4, -89953.875, 0.00037533476, 9.9990835, 9.999818 
1.6499291e+2, 1.4506744e+2, -1621050.4, -1579583.8, 1582.8595, 0.0030393428, -0.2733205, -1579523.4, -61210.96, 0.00015252095, 9.999347, 9.99989 
1.6499455e+2, 1.5506716e+2, -1512245.6, -1494316.8, 11709.357, 0.047058593, -0.28577438, -1488534.3, -68217.5, 0.000033788867, 9.999498, 9.99973 
1.6499563e+2, 1.6506726e+2, -1382501.4, -1370568.1, 4630.622, 0.04512959, -0.2507517, -1368982.0, -46665.36, 0.0000018950186, 9.99967, 9.999825 
1.6499618e+2, 1.7506765e+2, -1259380.5, -1263441.0, -13960.999, -0.0037250672, -0.19961113, -1247302.9, -22989.572, 0.0, 9.999857, 9.999797 
1.6499756e+2, 1.8506722e+2, -1185511.9, -1209443.1, 1808.4604, -0.0040644784, -0.20690179, -1185376.0, -59057.734, 0.0, 9.99983, 9.99951 
1.6499978e+2, 1.9506608e+2, -1123272.0, -1132343.6, -5989.6465, 0.04384247, -0.27426806, -1120294.6, -91964.66, 0.0, 9.999601, 9.999476 
1.6500154e+2, 2.0506565e+2, -1021805.4, -1038755.9, -4059.7776, 0.042213798, -0.26016942, -1020883.2, -90548.484, 0.0, 9.999651, 9.999421 
1.6500284e+2, 2.1506591e+2, -878908.7, -921976.8, 188.85657, -0.0079615945, -0.17999151, -878907.9, -46575.32, 0.0, 9.999971, 9.999395 
1.6500454e+2, 2.2506528e+2, -759214.6, -831918.2, -8429.013, 0.0013458207, -0.17394876, -758250.2, -23911.93, 0.0, 10.0002, 9.99923 
1.6500662e+2, 2.3506379e+2, -643049.06, -728667.1, -2492.2417, 0.069021985, -0.24958321, -642976.56, -6625.413, 0.0, 10.00034, 9.999198 
1.6500834e+2, 2.4506253e+2, -574692.56, -694398.5, 16061.21, 0.078198746, -0.27309182, -572575.06, -34212.223, 0.0, 10.000348, 9.998758 
1.6500966e+2, 2.550615e+2, -497870.72, -609404.06, 13572.996, 0.028541163, -0.2556697, -496242.72, -55869.816, 0.0, 10.000215, 9.9987335 
1.6501088e+2, 2.6506013e+2, -381888.44, -524057.7, -7232.403, -0.0077487836, -0.25538853, -381521.47, -39135.117, 0.0, 10.000431, 9.998541 
1.6501203e+2, 2.7505842e+2, -204983.47, -392557.9, -9529.363, -0.024964886, -0.28668705, -204500.6, 39902.62, 0.0, 10.000992, 9.998501 
1.6501412e+2, 2.85057e+2, -118704.016, -352689.66, 19830.955, 0.013168974, -0.2506687, -117035.19, 29381.846, 0.0, 10.001137, 9.998033 
1.6501693e+2, 2.9505613e+2, -57450.18, -262981.94, 27047.18, 0.085329935, -0.14859508, -53950.47, -5524.299, 0.000000103924, 10.000844, 9.998117 
1.6501872e+2, 3.0505258e+2, 29187.756, -180131.84, -1896.8531, 0.069638655, -0.3222379, 29204.943, 29204.943, 0.000006944009, 10.001038, 9.9982605 
1.6501936e+2, 3.1505162e+2, 158725.73, -62316.594, -42423.305, 0.0052836277, -0.2390257, 166588.13, 166588.13, 0.000049939055, 10.001684, 9.998758 
1.749889e+2, 1.2506613e+2, -1825897.4, -1648887.6, -1119.4685, 0.004491946, -0.33930674, -1648880.5, 65443.6, 0.0006370072, 9.998717, 10.001069 
1.7499056e+2, 1.3506639e+2, -1778181.9, -1740637.4, 22428.018, -0.010319531, -0.26662108, -1730162.3, -113839.6, 0.00036284848, 9.99909, 9.999586 
1.7499171e+2, 1.4506637e+2, -1596916.4, -1531175.8, 6211.858, -0.054701168, -0.2635362, -1530594.0, -12270.657, 0.00014707113, 9.999352, 10.00022 
1.7499304e+2, 1.5506637e+2, -1488868.9, -1446633.0, 18005.842, -0.055202287, -0.27830023, -1439998.9, -19676.152, 0.00003249045, 9.999501, 10.000055 
1.7499465e+2, 1.6506602e+2, -1415112.4, -1438456.0, 10829.727, -0.022001468, -0.28144565, -1410862.1, -88535.38, 0.0000018022155, 9.999671, 9.999359 
1.749965e+2, 1.7506522e+2, -1291930.1, -1331323.4, -6429.8057, 0.04104803, -0.3032851, -1290907.3, -66570.76, 0.0, 9.999858, 9.999331 
1.749981e+2, 1.8506485e+2, -1198317.6, -1236019.5, -7461.9478, 0.0678034, -0.27108848, -1196894.5, -70552.42, 0.0, 9.99983, 9.999327 
1.7499958e+2, 1.9506504e+2, -1135907.1, -1158493.3, -13951.557, 0.061168093, -0.18862942, -1129250.9, -100908.64, 0.0, 9.9996, 9.999297 
1.7500113e+2, 2.0506462e+2, -1013016.1, -1019615.9, 7509.0503, 0.034469105, -0.17046167, -1008113.9, -77767.19, 0.0, 9.999647, 9.999555 
1.7500278e+2, 2.1506363e+2, -870703.06, -903415.0, 13031.265, -0.0118839415, -0.2298209, -866146.56, -33791.246, 0.0, 9.999965, 9.999526 
1.7500454e+2, 2.2506276e+2, -747888.5, -806836.2, -3711.3496, -0.018961584, -0.26201478, -747655.75, -13293.704, 0.0, 10.000194, 9.999406 
1.750064e+2, 2.3506206e+2, -631137.8, -703454.25, 3410.5344, 0.01323965, -0.27747098, -630977.4, 5389.292, 0.0, 10.000338, 9.999373 
1.7500816e+2, 2.4506116e+2, -579950.3, -704471.44, 10529.113, 0.02592896, -0.2686042, -579066.3, -40691.258, 0.0, 10.000344, 9.998692 
1.7500979e+2, 2.550601e+2, -502891.25, -618721.5, 9220.891, 0.01705317, -0.246192, -502161.78, -61775.137, 0.0, 10.00021, 9.998672 
1.7501165e+2, 2.6505882e+2, -385109.47, -530079.7, 13276.523, 0.02354727, -0.23580365, -383903.63, -41503.34, 0.0, 10.000427, 9.998502 
1.7501378e+2, 2.7505717e+2, -208116.25, -398265.63, 12569.784, 0.048634853, -0.25288397, -207288.92, 37127.16, 0.0, 10.000988, 9.998465 
1.7501555e+2, 2.850556e+2, -118129.484, -350004.34, 8143.6543, 0.04167075, -0.23341274, -117843.82, 28587.432, 0.0, 10.001131, 9.998054 
1.7501684e+2, 2.9505432e+2, -57246.273, -261144.64, 17437.986, -0.010862228, -0.173358, -55765.68, -7322.0093, 0.00000004563321, 10.000838, 9.998132 
1.75019e+2, 3.050512e+2, 36326.285, -165824.16, 22117.945, -0.007888676, -0.31214738, 38717.984, 38717.984, 0.0000044345684, 10.001038, 9.998359 
1.7502159e+2, 3.1505045e+2, 139596.33, -102530.56, -16742.3, 0.055888083, -0.21501075, 140748.53, 140748.53, 0.00003672069, 10.001684, 9.998483 
1.849878e+2, 1.250649e+2, -1774842.9, -1646758.6, -3940.5256, 0.0013941666, -0.3476424, -1646637.5, 67697.516, 0.0006065531, 9.999165, 10.000867 
1.8498972e+2, 1.350651e+2, -1756203.6, -1744152.5, 28775.393, -0.01447004, -0.2704813, -1720778.5, -104443.18, 0.00034376056, 9.999301, 9.999459 
1.8499094e+2, 1.4506496e+2, -1603171.5, -1534595.1, -4051.704, -0.06574411, -0.26888174, -1534356.5, -16019.186, 0.00013809917, 9.9993105, 10.0002165 
1.8499224e+2, 1.5506524e+2, -1535849.6, -1469452.5, -18833.844, -0.06997282, -0.25823414, -1464482.3, -44147.918, 0.000029920388, 9.999179, 10.000054 
1.84994e+2, 1.6506486e+2, -1470732.3, -1470654.5, -10565.516, -0.034581035, -0.261771, -1460127.8, -137789.06, 0.0000015280342, 9.999313, 9.99931 
1.849962e+2, 1.7506376e+2, -1317277.3, -1348832.3, 2032.2583, 0.033911664, -0.30659738, -1317147.0, -92795.76, 0.0, 9.999707, 9.999283 
1.8499795e+2, 1.8506332e+2, -1170034.9, -1222933.6, 14236.7295, 0.057836164, -0.2786647, -1166446.6, -40089.555, 0.0, 10.000026, 9.999323 
1.8499929e+2, 1.9506365e+2, -1038089.8, -1111586.5, 20415.184, 0.040021796, -0.18313928, -1032799.8, -4444.325, 0.0, 10.000273, 9.999295 
1.8500096e+2, 2.0506316e+2, -927461.9, -987414.4, 42839.945, 0.021898828, -0.1676712, -905152.0, 25208.342, 0.0, 10.000273, 9.999475 
1.8500292e+2, 2.1506192e+2, -865476.44, -909669.06, 30806.016, 0.0029010668, -0.24427651, -849661.56, -17290.234, 0.0, 10.000038, 9.999448 
1.8500474e+2, 2.2506095e+2, -784359.5, -836347.8, 723.6584, -0.007485126, -0.27667123, -784349.44, -49970.145, 0.0, 9.999993, 9.9993 
1.8500642e+2, 2.3506032e+2, -668165.06, -733016.06, -14167.977, -0.00800321, -0.27491024, -665204.9, -28821.016, 0.0, 10.0001335, 9.999269 
1.8500827e+2, 2.4505945e+2, -583961.9, -707312.1, -17223.348, 0.004483503, -0.25708807, -581602.1, -43209.906, 0.0, 10.000322, 9.998682 
1.8501025e+2, 2.5505844e+2, -453120.97, -595904.1, -15890.906, 0.027480287, -0.23312297, -451373.78, -10970.007, 0.0, 10.000558, 9.99866 
1.8501236e+2, 2.650571e+2, -361040.16, -523757.25, -3274.3806, 0.043883435, -0.21901232, -360974.3, -18556.91, 0.0, 10.000617, 9.998454 
1.850146e+2, 2.7505547e+2, -283682.7, -439641.28, -5784.9146, 0.058091126, -0.23172735, -283468.4, -39034.996, 0.0, 10.000491, 9.998419 
1.8501642e+2, 2.8505373e+2, -186400.6, -369959.0, -12099.535, 0.041566376, -0.23142993, -185606.47, -39156.566, 0.0, 10.0006075, 9.998169 
1.8501768e+2, 2.9505223e+2, -31920.05, -237529.27, 2576.5479, -0.017772926, -0.20716082, -31887.768, 16576.426, 0.000000013949684, 10.000964, 9.998233 
1.8502015e+2, 3.0504975e+2, 76318.41, -126137.63, 27950.693, -0.0063843345, -0.2959086, 80106.36, 80106.36, 0.0000026902987, 10.001225, 9.998541 
1.8502307e+2, 3.1504923e+2, 86259.34, -132937.03, -6866.298, 0.053591795, -0.19576438, 86474.22, 86474.22, 0.000025863523, 10.001342, 9.998437 
1.9498624e+2, 1.2506425e+2, -1782170.8, -1664032.5, -3248.1533, -0.074658565, -0.28056008, -1663943.3, 50398.25, 0.0005643703, 9.999173, 10.000745 
1.9498892e+2, 1.350638e+2, -1757221.6, -1747074.8, 34610.14, -0.027105594, -0.26786107, -1717168.3, -100820.36, 0.00031730495, 9.999305, 9.999438 
1.9499058e+2, 1.4506327e+2, -1626450.4, -1583240.9, -9610.41, -0.035760574, -0.28930995, -1581199.8, -62845.0, 0.00012543245, 9.999312, 9.999882 
1.9499213e+2, 1.5506373e+2, -1558198.6, -1516658.4, -22861.56, -0.00047416778, -0.22543971, -1506540.8, -86188.836, 0.000026112697, 9.999183, 9.999729 
1.9499372e+2, 1.6506375e+2, -1444823.0, -1417301.6, 3641.1394, 0.003202029, -0.19185212, -1416828.1, -94475.28, 0.0000011234973, 9.999314, 9.999676 
1.9499528e+2, 1.750633e+2, -1291230.5, -1295022.9, 17432.49, -0.02873085, -0.20932491, -1275591.4, -51233.77, 0.0, 9.999708, 9.999653 
1.9499703e+2, 1.8506265e+2, -1157560.1, -1196620.4, 23053.82, -0.038285438, -0.22941902, -1146876.0, -20512.406, 0.0, 10.000025, 9.999504 
1.9499895e+2, 1.9506192e+2, -1026220.3, -1086587.0, 30052.0, -0.02269739, -0.25785652, -1013810.7, 14559.182, 0.0, 10.000271, 9.999468 
1.9500102e+2, 2.0506129e+2, -948562.0, -1030250.6, 33413.777, 0.0009326536, -0.25170898, -936635.7, -6259.96, 0.0, 10.000269, 9.999182 
1.9500327e+2, 2.1506077e+2, -886527.0, -952233.9, 22834.004, 0.032048408, -0.22487193, -879371.2, -46990.33, 0.0, 10.000033, 9.999158 
1.9500515e+2, 2.2505987e+2, -812305.06, -893116.2, 5200.8145, 0.032063592, -0.2185647, -811971.75, -77581.664, 0.0, 9.999989, 9.998913 
1.9500667e+2, 2.3505858e+2, -695608.25, -788871.5, -8321.944, 0.001977269, -0.24224037, -694871.5, -58468.52, 0.0, 10.000129, 9.998887 
1.9500867e+2, 2.4505742e+2, -581214.94, -700876.44, -8972.921, 0.01102148, -0.2384053, -580545.8, -42131.297, 0.0, 10.000319, 9.998728 
1.9501111e+2, 2.550564e+2, -451151.3, -590475.94, -6364.6895, 0.05523724, -0.2169255, -450861.16, -10436.848, 0.0, 10.000552, 9.9987 
1.9501305e+2, 2.6505506e+2, -366104.9, -533671.6, -8831.656, 0.049566127, -0.2047062, -365640.72, -23202.998, 0.0, 10.000613, 9.998388 
1.9501452e+2, 2.7505332e+2, -287828.28, -447673.2, -10281.933, -0.0003899233, -0.22318634, -287169.63, -42714.316, 0.0, 10.000488, 9.998365 
1.950167e+2, 2.8505147e+2, -172314.94, -339690.03, 732.63544, 0.008593162, -0.24481583, -172311.73, -25838.611, 0.0, 10.000603, 9.998379 
1.9501942e+2, 2.9504982e+2, -19835.213, -211100.8, 17946.209, 0.059520658, -0.25107408, -18165.912, 30322.033, 0.0000000023315327, 10.0009575, 9.998418 
1.9502212e+2, 3.050482e+2, 93585.484, -89182.13, 31023.984, 0.06888874, -0.27361855, 98708.09, 98708.09, 0.0000015022418, 10.001222, 9.998796 
1.9502379e+2, 3.15048e+2, 96847.06, -110746.55, 693.51324, -0.011351442, -0.16885617, 96849.375, 96849.375, 0.000017298122, 10.001341, 9.99859 
2.04985e+2, 1.2506245e+2, -1830000.5, -1676904.0, -76805.65, -0.09800527, -0.23500915, -1645014.5, 69347.25, 0.0005112227, 9.998802, 10.000835 
2.0498799e+2, 1.35062e+2, -1829939.9, -1761508.6, -23222.86, -0.019654177, -0.24053372, -1754372.0, -138004.88, 0.00028397882, 9.998716, 9.999624 
2.0498987e+2, 1.450613e+2, -1666704.1, -1606341.1, -36186.49, -0.023835491, -0.28668734, -1589401.8, -71026.39, 0.000109345056, 9.999051, 9.99985 
2.0499156e+2, 1.5506168e+2, -1474021.3, -1478758.3, -28209.283, -0.0041123964, -0.22710022, -1448081.3, -27707.982, 0.000021261263, 9.999771, 9.999706 
2.0499323e+2, 1.6506188e+2, -1338461.3, -1355066.8, -7531.7554, -0.010297831, -0.18032947, -1335554.0, -13181.664, 0.00000067965186, 9.999997, 9.999775 
2.0499481e+2, 1.7506184e+2, -1278107.9, -1277694.9, -15115.003, -0.049343053, -0.16513403, -1262785.0, -38412.074, 0.0, 9.99975, 9.999752 
2.0499665e+2, 1.8506114e+2, -1202362.5, -1221433.8, -20857.277, -0.06419564, -0.19456783, -1188964.5, -62585.42, 0.0, 9.999731, 9.9994755 
2.0499875e+2, 1.9505987e+2, -1077169.8, -1113982.1, -30821.514, -0.05283451, -0.2739411, -1059676.6, -31286.682, 0.0, 9.999934, 9.999442 
2.05001e+2, 2.0505911e+2, -978422.56, -1047419.8, -34648.723, -0.019299472, -0.27781337, -964026.5, -33629.71, 0.0, 10.000076, 9.999157 
2.0500338e+2, 2.1505888e+2, -870319.8, -947220.0, -26052.746, 0.034923542, -0.22035141, -862324.75, -29925.441, 0.0, 10.000157, 9.999133 
2.050054e+2, 2.2505805e+2, -791762.7, -902407.56, -17950.197, 0.04753634, -0.19594263, -788923.44, -54515.332, 0.0, 10.000213, 9.998741 
2.0500703e+2, 2.3505664e+2, -690741.3, -805608.75, -16924.762, 0.019946033, -0.21499093, -688299.5, -51876.65, 0.0, 10.000245, 9.998716 
2.0500903e+2, 2.4505521e+2, -587736.8, -710642.7, -10141.147, 0.016684942, -0.22612995, -586905.7, -48468.805, 0.0, 10.000302, 9.998669 
2.0501137e+2, 2.550538e+2, -479979.44, -611289.5, -16333.355, 0.03526866, -0.23772891, -477978.25, -37528.66, 0.0, 10.000384, 9.998638 
2.050134e+2, 2.650524e+2, -387941.84, -547785.25, -26075.664, 0.031281028, -0.22787681, -383795.6, -41332.117, 0.0, 10.000479, 9.998356 
2.0501517e+2, 2.7505088e+2, -276934.22, -446101.97, -27300.535, 0.010488806, -0.21864189, -272637.56, -28158.459, 0.0, 10.000579, 9.998333 
2.0501748e+2, 2.8504908e+2, -171200.28, -332953.1, -15244.015, 0.027552875, -0.23584613, -169776.19, -23279.557, 0.0, 10.000584, 9.998434 
2.0502022e+2, 2.9504734e+2, -85366.24, -238400.55, -10202.373, 0.06780987, -0.25732276, -84689.08, -36176.613, 0.000000000097020676, 10.00049, 9.998456 
2.0502321e+2, 3.0504614e+2, 35252.375, -110547.35, 2454.6523, 0.07601905, -0.24281445, 35293.688, 35293.688, 0.0000007350318, 10.000791, 9.998858 
2.0502508e+2, 3.1504542e+2, 124166.17, -81098.08, -42125.76, -0.022775816, -0.20132273, 132475.17, 132475.17, 0.000010898163, 10.001455, 9.998741 
2.1498404e+2, 1.2505944e+2, -1809129.9, -1634209.5, -84235.82, -0.077454, -0.21144946, -1600240.9, 114155.21, 0.00045034575, 9.998804, 10.001128 
2.1498697e+2, 1.3505964e+2, -1802101.4, -1705130.9, -25044.361, 0.004632903, -0.18866357, -1699044.8, -82651.41, 0.0002457903, 9.998722, 10.000009 
2.1498881e+2, 1.4505902e+2, -1646644.9, -1565578.1, -9687.432, -0.034864374, -0.26031858, -1564436.5, -46037.51, 0.00009091271, 9.999055, 10.000129 
2.1499056e+2, 1.5505907e+2, -1454258.8, -1437849.8, -567.19775, -0.08441489, -0.2632238, -1437830.1, -17431.832, 0.000015871614, 9.999771, 9.999988 
2.1499255e+2, 1.6505921e+2, -1350309.6, -1379356.6, -17295.682, -0.080156095, -0.2273899, -1342248.4, -19850.805, 0.00000031009594, 9.999996, 9.999608 
2.1499476e+2, 1.750594e+2, -1289573.6, -1302568.1, -23568.723, -0.03147134, -0.17448047, -1271623.0, -47225.8, 0.0, 9.999754, 9.999579 
2.1499678e+2, 1.8505877e+2, -1218788.8, -1255661.6, -13487.649, -0.02443003, -0.17429599, -1214381.8, -87978.11, 0.0, 9.999732, 9.999241 
2.1499868e+2, 1.950575e+2, -1093279.5, -1146926.0, -22350.674, -0.05335815, -0.23149736, -1085188.0, -56772.125, 0.0, 9.999932, 9.999217 
2.1500085e+2, 2.0505664e+2, -962363.4, -1012474.0, -32015.285, -0.0417601, -0.24580549, -946764.7, -16341.118, 0.0, 10.00007, 9.9994 
2.1500328e+2, 2.1505624e+2, -854091.56, -912338.2, -22301.457, 0.008146064, -0.2295342, -846533.5, -14106.9795, 0.0, 10.000153, 9.999374 
2.1500549e+2, 2.2505552e+2, -789827.9, -897141.0, -17419.17, 0.035778936, -0.2087926, -787071.2, -52637.848, 0.0, 10.000207, 9.998779 
2.1500751e+2, 2.350545e+2, -689203.5, -800783.44, -15060.216, 0.041987192, -0.19388616, -687206.56, -50762.96, 0.0, 10.000238, 9.998753 
2.1500936e+2, 2.4505284e+2, -599952.6, -735353.9, -8008.944, 0.018586524, -0.21965711, -599480.56, -61021.31, 0.0, 10.0002985, 9.998502 
2.1501105e+2, 2.5505063e+2, -491488.3, -633983.5, -12851.086, -0.03636776, -0.29522339, -490338.6, -49858.93, 0.0, 10.000379, 9.998486 
2.1501343e+2, 2.650491e+2, -389438.8, -549537.3, -22807.193, -0.014285531, -0.2881835, -386253.16, -43758.457, 0.0, 10.000474, 9.998346 
2.1501651e+2, 2.750482e+2, -279365.63, -449559.94, -22753.607, 0.0857786, -0.21886304, -276376.16, -31871.19, 0.0, 10.000573, 9.998312 
2.1501873e+2, 2.8504664e+2, -178367.7, -347322.72, -20209.191, 0.09461553, -0.20438641, -175984.06, -29463.484, 0.0, 10.000581, 9.998339 
2.1502006e+2, 2.950448e+2, -92674.6, -254061.19, -13335.137, 0.0017312537, -0.22653402, -91580.164, -43042.195, 0.0, 10.00049, 9.998349 
2.1502332e+2, 3.0504358e+2, 25899.268, -127645.57, 27148.566, 0.010220263, -0.20374691, 30558.102, 30558.102, 0.00000029764618, 10.000783, 9.998744 
2.1502687e+2, 3.1504154e+2, 131802.2, -61818.63, -12077.403, 0.009159383, -0.2825002, 132552.64, 132552.64, 0.0000064156898, 10.001442, 9.998879 
2.2498304e+2, 1.2505649e+2, -1860964.1, -1651781.0, -46009.28, -0.03845368, -0.21773718, -1642108.6, 72318.15, 0.0003861587, 9.998421, 10.001193 
2.2498576e+2, 1.350571e+2, -1713798.3, -1644806.6, -1377.2769, -0.014577714, -0.17064029, -1644779.1, -28359.545, 0.00020573656, 9.999254, 10.000166 
2.2498773e+2, 1.4505658e+2, -1566030.1, -1517254.1, -5082.8633, -0.074445635, -0.24478015, -1516730.0, 1693.8301, 0.00007189719, 9.999568, 10.000214 
2.2498997e+2, 1.550566e+2, -1505003.9, -1452084.5, -13054.6455, -0.100536756, -0.2597401, -1449039.3, -28616.307, 0.000010694928, 9.999381, 10.000078 
2.2499225e+2, 1.6505663e+2, -1431289.1, -1425505.8, -39247.902, -0.08368987, -0.23598725, -1389043.1, -66620.07, 0.000000092361944, 9.99947, 9.999546 
2.249945e+2, 1.7505662e+2, -1283651.5, -1306203.4, -38476.008, -0.035557065, -0.19435094, -1254833.1, -30408.604, 0.0, 9.999824, 9.999521 
2.2499661e+2, 1.8505609e+2, -1191543.5, -1249210.6, -16346.244, -0.024609895, -0.18113637, -1187232.3, -60801.715, 0.0, 9.999948, 9.999181 
2.2499864e+2, 1.950551e+2, -1108253.8, -1160711.6, -13080.231, -0.045841306, -0.20294006, -1105173.1, -76732.77, 0.0, 9.999858, 9.999159 
2.2500087e+2, 2.0505422e+2, -1010700.06, -1044666.25, -29160.951, -0.032121334, -0.21259438, -993937.25, -63488.773, 0.0, 9.999776, 9.999321 
2.2500327e+2, 2.150535e+2, -925052.75, -955467.2, -44866.67, 0.014110124, -0.22155222, -892886.2, -60431.355, 0.0, 9.999704, 9.999294 
2.2500555e+2, 2.2505258e+2, -823530.0, -904047.06, -38777.348, 0.03374789, -0.2194055, -807891.9, -73428.984, 0.0, 9.999936, 9.998862 
2.2500771e+2, 2.3505151e+2, -651427.3, -773796.2, -34219.88, 0.0279176, -0.21658316, -642508.0, -6035.5728, 0.0, 10.000461, 9.998832 
2.2500974e+2, 2.4504997e+2, -553178.75, -718107.56, -31081.36, 0.008113885, -0.23333569, -547515.8, -9028.888, 0.0, 10.000644, 9.998453 
2.2501157e+2, 2.55048e+2, -478399.78, -633649.4, -29365.617, -0.027560523, -0.27997535, -473030.9, -32525.174, 0.0, 10.000494, 9.998432 
2.2501402e+2, 2.6504645e+2, -394946.47, -559640.6, -31703.736, -0.0014447608, -0.26880926, -389054.28, -46533.215, 0.0, 10.000468, 9.99828 
2.2501709e+2, 2.7504528e+2, -286126.0, -460525.34, -36649.953, 0.087451346, -0.21745278, -278737.06, -34203.82, 0.0, 10.00056, 9.998243 
2.250193e+2, 2.8504354e+2, -183235.84, -360873.75, -40147.28, 0.093209065, -0.21343514, -174583.73, -28033.043, 0.0, 10.000594, 9.9982395 
2.2502065e+2, 2.9504156e+2, -93192.49, -268352.03, -36509.56, 0.008629547, -0.24168666, -85887.26, -37317.176, 0.0, 10.000546, 9.998225 
2.2502407e+2, 3.0504054e+2, -22759.545, -162601.89, 20783.488, 0.021471955, -0.18742952, -19736.055, -19736.055, 0.000000091080636, 10.000496, 9.998643 
2.2502768e+2, 3.1503826e+2, 10366.895, -92655.734, -14696.395, -0.006047153, -0.28018418, 12422.356, 12422.356, 0.000003445728, 10.000488, 9.999127 
2.3498195e+2, 1.2505364e+2, -1871963.3, -1675182.9, -21873.613, 0.009070084, -0.24905501, -1672780.8, 41672.65, 0.00032267286, 9.998425, 10.00103 
2.3498437e+2, 1.3505435e+2, -1719867.0, -1656163.9, 30523.697, -0.080639474, -0.18664533, -1643899.5, -27453.592, 0.0001666326, 9.999249, 10.000091 
2.349866e+2, 1.4505392e+2, -1574800.6, -1534368.5, -12522.604, -0.14678258, -0.2413251, -1530804.1, -12354.16, 0.00005400246, 9.999563, 10.000099 
2.3498979e+2, 1.5505421e+2, -1511642.9, -1468071.8, -19115.168, -0.057196084, -0.21680833, -1460874.5, -40427.1, 0.000006396683, 9.99939, 9.999966 
2.349923e+2, 1.6505408e+2, -1426771.4, -1417354.3, -26690.732, -0.026615793, -0.20599385, -1394959.9, -72510.77, 0.000000013163342, 9.999476, 9.9995985 
2.3499404e+2, 1.7505354e+2, -1279622.3, -1297655.5, -24756.25, -0.0647107, -0.22469255, -1262291.8, -37836.766, 0.0, 9.999823, 9.99958 
2.3499614e+2, 1.8505305e+2, -1184015.9, -1232388.3, -20195.229, -0.06823815, -0.21567822, -1176693.1, -50233.133, 0.0, 9.999943, 9.999298 
2.3499864e+2, 1.9505267e+2, -1100282.8, -1144111.4, -15933.714, -0.03361326, -0.18750785, -1095102.5, -66639.055, 0.0, 9.999858, 9.999272 
2.3500104e+2, 2.0505185e+2, -1039130.25, -1103130.0, -32323.465, 0.005910395, -0.17810105, -1025646.06, -95174.414, 0.0, 9.999774, 9.99892 
2.3500332e+2, 2.1505062e+2, -954101.6, -1013903.5, -46581.668, 0.04883062, -0.19667289, -928649.9, -96165.68, 0.0, 9.999697, 9.998896 
2.3500554e+2, 2.2504924e+2, -815767.3, -886434.6, -19724.588, 0.03825788, -0.22727965, -810634.6, -76137.805, 0.0, 9.999929, 9.998987 
2.3500764e+2, 2.3504773e+2, -642708.6, -754364.7, -13876.993, -0.025106508, -0.28164122, -641009.75, -4500.4966, 0.0, 10.000455, 9.998967 
2.3501012e+2, 2.450466e+2, -550082.25, -710748.3, -37364.95, -0.018084625, -0.26698923, -541817.7, -3297.863, 0.0, 10.00064, 9.998507 
2.3501292e+2, 2.550459e+2, -476371.47, -627645.8, -34309.21, 0.056929275, -0.19295032, -468953.8, -28425.87, 0.0, 10.000486, 9.998477 
2.3501517e+2, 2.6504442e+2, -404150.3, -577518.3, -29279.697, 0.065715596, -0.16961706, -399338.88, -56796.254, 0.0, 10.000463, 9.99816 
2.350169e+2, 2.7504218e+2, -293942.63, -475478.9, -32508.773, 0.010752559, -0.21453719, -288296.7, -43732.72, 0.0, 10.000554, 9.998143 
2.3501916e+2, 2.8503978e+2, -192067.16, -377486.16, -42130.996, 0.019183349, -0.26327518, -182943.1, -36356.137, 0.0, 10.000587, 9.998129 
2.3502196e+2, 2.950376e+2, -103886.67, -289514.63, -37919.95, 0.08308977, -0.30334353, -96439.21, -47830.273, 0.0, 10.000542, 9.998082 
2.3502544e+2, 3.0503696e+2, -29010.047, -174007.3, 18935.385, 0.106403105, -0.19460243, -26578.041, -26578.041, 0.000000018380936, 10.000489, 9.998569 
2.3502745e+2, 3.150356e+2, 33139.324, -42995.395, -7932.305, -0.079311416, -0.19207685, 33956.992, 33956.992, 0.0000016180604, 10.000478, 9.999474 
2.4498075e+2, 1.2505104e+2, -1741558.0, -1639084.4, -10951.491, -0.0022530837, -0.26187882, -1637927.1, 76550.59, 0.00026299746, 9.999433, 10.0007925 
2.4498364e+2, 1.350517e+2, -1736023.6, -1679634.4, 37747.633, -0.07515987, -0.19081353, -1660714.0, -44242.54, 0.0001305452, 9.999206, 9.99995 
2.4498607e+2, 1.4505118e+2, -1635290.0, -1576223.4, -16291.936, -0.13795765, -0.24036318, -1572027.8, -53550.793, 0.000038366878, 9.999204, 9.999986 
2.4498926e+2, 1.550515e+2, -1519387.6, -1483351.3, -23671.951, -0.048735358, -0.20233111, -1471620.3, -51145.785, 0.000003303544, 9.999387, 9.999862 
2.4499188e+2, 1.6505133e+2, -1402957.3, -1404420.8, -18669.162, -0.02412691, -0.18997048, -1385005.5, -62528.914, 0.00000000018007511, 9.999634, 9.999612 
2.449938e+2, 1.7505074e+2, -1258061.4, -1285460.0, -21683.69, -0.07709284, -0.21639657, -1246112.0, -21629.246, 0.0, 9.999964, 9.999597 
2.4499606e+2, 1.8505016e+2, -1163197.6, -1224012.1, -38076.44, -0.07691443, -0.21637708, -1144876.9, -18388.504, 0.0, 10.0000925, 9.999285 
2.4499872e+2, 1.9504966e+2, -1078016.1, -1134769.4, -44311.063, -0.019450728, -0.19950254, -1053774.3, -25281.602, 0.0, 10.000016, 9.999261 
2.4500111e+2, 2.0504881e+2, -1003746.5, -1094180.0, -47441.855, 0.022870705, -0.18694063, -983424.8, -52923.785, 0.0, 10.0000515, 9.998849 
2.4500327e+2, 2.1504769e+2, -886263.6, -989714.25, -38347.867, 0.04840514, -0.18877795, -873598.94, -41085.934, 0.0, 10.000197, 9.998823 
2.4500555e+2, 2.250463e+2, -786245.75, -876445.4, 826.3368, 0.035783656, -0.2135975, -786238.2, -51712.344, 0.0, 10.000152, 9.998948 
2.4500793e+2, 2.3504469e+2, -722450.9, -797490.3, -7617.6226, -0.014431522, -0.2738633, -721685.4, -85146.06, 0.0, 9.9999275, 9.998925 
2.4501054e+2, 2.4504353e+2, -651385.06, -760739.6, -42194.785, -0.005320948, -0.25981346, -636997.1, -98446.87, 0.0, 9.999949, 9.998495 
2.450133e+2, 2.5504288e+2, -516761.75, -648303.56, -44826.574, 0.06018727, -0.17999431, -502938.47, -62380.52, 0.0, 10.000215, 9.9984665 
2.450156e+2, 2.6504135e+2, -408876.0, -577067.0, -32636.6, 0.06622065, -0.16190654, -402765.06, -60192.203, 0.0, 10.000419, 9.998185 
2.4501747e+2, 2.7503896e+2, -293349.63, -472695.2, -27275.29, 0.015343355, -0.22227961, -289293.28, -44698.273, 0.0, 10.000547, 9.998167 
2.4501975e+2, 2.8503656e+2, -187520.69, -385035.63, -33364.992, 0.015226253, -0.27207962, -182036.8, -35418.363, 0.0, 10.000661, 9.998041 
2.4502237e+2, 2.9503435e+2, -78920.48, -288808.53, -29343.752, 0.060094573, -0.30308118, -74895.23, -26254.244, 0.0, 10.000764, 9.997979 
2.450258e+2, 3.0503362e+2, -27115.096, -178582.64, 21321.223, 0.093605496, -0.19537668, -24171.05, -24171.05, 0.000000001915935, 10.000528, 9.998517 
2.4502772e+2, 3.1503263e+2, -18655.139, -33010.344, -1143.132, -0.07393754, -0.15641819, -18564.68, -18564.68, 0.00000063402746, 9.999972, 9.999785 
2.5497943e+2, 1.250486e+2, -1764194.8, -1685210.4, -25358.924, -0.07933228, -0.26009744, -1677769.5, 36730.59, 0.000209724, 9.999428, 10.000479 
2.5498357e+2, 1.3504909e+2, -1748926.1, -1710037.3, 30285.242, -0.00543789, -0.18320021, -1693491.6, -76995.18, 0.00009902971, 9.99922, 9.999736 
2.549861e+2, 1.4504834e+2, -1640885.5, -1590075.5, -10555.908, -0.05577406, -0.2411802, -1587969.8, -69465.016, 0.000025643241, 9.999213, 9.999886 
2.5498834e+2, 1.5504843e+2, -1526088.1, -1496209.3, -16691.783, -0.07932614, -0.21664275, -1488747.8, -68243.59, 0.0000014046367, 9.999382, 9.999776 
2.5499097e+2, 1.6504838e+2, -1406061.5, -1409474.4, -6905.005, -0.07963309, -0.18865827, -1400655.3, -78149.75, 0.0, 9.999628, 9.99958 
2.5499377e+2, 1.7504819e+2, -1259625.3, -1290258.5, -8605.759, -0.0771583, -0.169683, -1257373.1, -32864.934, 0.0, 9.99997, 9.99956 
2.5499636e+2, 1.8504739e+2, -1172110.8, -1243332.3, -41435.08, -0.055937994, -0.18345612, -1153086.4, -26570.385, 0.0, 10.000096, 9.99915 
2.5499886e+2, 1.9504602e+2, -1087506.5, -1153763.4, -46528.24, -0.007242333, -0.2388662, -1063517.8, -34989.51, 0.0, 10.000014, 9.999131 
2.550011e+2, 2.0504512e+2, -987047.94, -1057736.5, -42250.05, 0.015486921, -0.23960544, -967307.9, -36771.098, 0.0, 10.000045, 9.999103 
2.550031e+2, 2.1504469e+2, -869159.56, -952517.8, -32106.842, 0.009257977, -0.19630273, -858226.9, -25685.725, 0.0, 10.000191, 9.999082 
2.5500557e+2, 2.2504377e+2, -801110.75, -906724.25, -8268.729, 0.02232875, -0.17777757, -800467.3, -65917.38, 0.0, 10.000148, 9.998743 
2.5500858e+2, 2.3504241e+2, -738032.0, -828461.5, -15189.389, 0.05562539, -0.19340673, -735548.9, -98986.17, 0.0, 9.999921, 9.998716 
2.5501096e+2, 2.4504079e+2, -657060.4, -771467.5, -32821.508, 0.041103233, -0.21127355, -648313.25, -109735.07, 0.0, 9.999945, 9.998425 
2.5501272e+2, 2.5503895e+2, -521386.88, -656872.44, -34044.85, -0.021449843, -0.24093254, -513313.2, -72717.44, 0.0, 10.000211, 9.99841 
2.5501534e+2, 2.6503727e+2, -397924.13, -553927.06, -28061.703, -0.0035240534, -0.24609105, -393029.97, -50418.13, 0.0, 10.000417, 9.998345 
2.5501883e+2, 2.750357e+2, -283750.34, -452036.34, -21598.475, 0.094982706, -0.24053071, -281022.5, -36396.113, 0.0, 10.000544, 9.998311 
2.55021e+2, 2.8503382e+2, -192900.25, -394556.13, -30584.84, 0.07503186, -0.2401341, -188363.56, -41718.32, 0.0, 10.000654, 9.997979 
2.5502187e+2, 2.9503182e+2, -83498.125, -296211.38, -25477.88, -0.06638328, -0.24258873, -80489.06, -31822.656, 0.0, 10.000755, 9.997932 
2.5502518e+2, 3.0503052e+2, -30652.953, -185059.78, 623.0775, -0.021389043, -0.1905774, -30650.44, -30650.44, 0.000000000039700524, 10.000524, 9.998476 
2.5502846e+2, 3.1502917e+2, -453.60922, 4811.6416, -11266.377, -0.00067740557, -0.1805432, 13748.89, 13748.89, 0.00000021774382, 9.99997, 10.000047 
2.6497847e+2, 1.2504558e+2, -1826075.8, -1717330.4, -85967.62, -0.101285614, -0.23893271, -1669983.8, 44547.395, 0.0001649167, 9.999012, 10.000458 
2.6498306e+2, 1.3504606e+2, -1713544.9, -1685669.4, -3923.2961, 0.012748007, -0.16900143, -1685127.6, -68600.73, 0.000073287774, 9.99943, 9.999802 
2.6498586e+2, 1.4504519e+2, -1571432.1, -1561892.5, -27710.758, -0.026607694, -0.23974647, -1538544.0, -20008.184, 0.000016155976, 9.999713, 9.999839 
2.6498812e+2, 1.550451e+2, -1456966.9, -1467066.5, -32906.785, -0.06339835, -0.22995088, -1428724.6, -8188.0327, 0.00000046134082, 9.999875, 9.999739 
2.6499084e+2, 1.6504498e+2, -1380768.1, -1407669.0, -26141.375, -0.06599069, -0.20141289, -1364819.8, -42281.2, 0.0, 9.999846, 9.999488 
2.649938e+2, 1.7504486e+2, -1316959.1, -1328243.3, -33485.363, -0.058086395, -0.16671385, -1288643.9, -64102.457, 0.0, 9.999621, 9.999469 
2.649964e+2, 1.8504415e+2, -1214681.8, -1243611.8, -51107.09, -0.04335504, -0.17481615, -1176032.1, -49483.848, 0.0, 9.999717, 9.9993305 
2.6499888e+2, 1.9504294e+2, -1056005.4, -1118645.9, -33948.836, -0.013342071, -0.23479548, -1041136.0, -12577.297, 0.0, 10.000144, 9.99931 
2.6500112e+2, 2.0504202e+2, -957705.94, -1047045.6, -34984.125, 0.005369623, -0.2442047, -945637.06, -15070.083, 0.0, 10.00026, 9.999072 
2.650032e+2, 2.1504143e+2, -889103.9, -965503.7, -47134.566, 0.0090656625, -0.2138593, -866633.4, -34060.6, 0.0, 10.000069, 9.999051 
2.6500577e+2, 2.2504054e+2, -813458.9, -913449.7, -25194.873, 0.03066487, -0.19100805, -807469.25, -72887.96, 0.0, 10.000066, 9.998736 
2.6500878e+2, 2.3503938e+2, -690626.9, -806227.25, -18031.459, 0.07041281, -0.1846149, -687879.56, -51287.402, 0.0, 10.000248, 9.998712 
2.650112e+2, 2.450377e+2, -587855.2, -732495.2, -13787.401, 0.04754853, -0.20949054, -586552.7, -47944.91, 0.0, 10.000396, 9.998475 
2.6501292e+2, 2.5503555e+2, -474187.94, -628378.3, -7149.074, -0.037121665, -0.2770289, -473857.2, -33229.445, 0.0, 10.000509, 9.998462 
2.6501563e+2, 2.6503384e+2, -394760.22, -553743.94, -11388.072, -0.018190641, -0.2861984, -393948.63, -51304.492, 0.0, 10.000444, 9.998333 
2.650193e+2, 2.750326e+2, -332882.8, -476763.72, -18189.43, 0.103739694, -0.24730004, -330618.94, -85962.31, 0.0, 10.000213, 9.9983 
2.650215e+2, 2.8503108e+2, -258639.98, -409011.6, -19137.734, 0.086259685, -0.21929649, -256242.55, -109570.21, 0.0, 10.000131, 9.998132 
2.6502228e+2, 2.950294e+2, -160010.17, -315275.22, -1527.1187, -0.071509354, -0.20745192, -159995.16, -111305.055, 0.0, 10.000154, 9.998091 
2.6502544e+2, 3.0502743e+2, -103360.78, -237659.52, 16777.0, -0.027076948, -0.2177172, -101296.67, -101296.67, 0.0, 10.000101, 9.998318 
2.6502845e+2, 3.1502587e+2, 10734.874, 7846.022, 1663.5797, -0.002343339, -0.21260849, 11493.597, 11493.597, 0.000000083141636, 10.000063, 10.000021 
2.749777e+2, 1.2504195e+2, -1804760.5, -1674464.9, -81443.89, -0.07912995, -0.19634357, -1635318.1, 79252.73, 0.00012966055, 9.999019, 10.000748 
2.7498212e+2, 1.3504261e+2, -1688877.0, -1632705.9, 11289.767, -0.02572497, -0.1481029, -1630521.6, -13958.675, 0.00005392466, 9.999423, 10.000169 
2.7498528e+2, 1.4504173e+2, -1571451.5, -1561171.5, -22496.71, -0.055911742, -0.23670144, -1543235.0, -24664.607, 0.0000098627, 9.999709, 9.999846 
2.749886e+2, 1.550415e+2, -1455312.1, -1465381.5, -26298.273, -0.006779632, -0.24199194, -1433570.9, -12998.891, 0.00000011248763, 9.999883, 9.999747 
2.7499145e+2, 1.6504115e+2, -1390413.8, -1429392.3, -35722.445, 0.010783483, -0.22816765, -1369209.9, -46633.773, 0.0, 9.999853, 9.999336 
2.7499375e+2, 1.7504075e+2, -1326662.0, -1348704.1, -41770.707, -0.023695573, -0.20708057, -1294482.9, -69900.414, 0.0, 9.999622, 9.999329 
2.7499613e+2, 1.8504049e+2, -1180883.8, -1172485.1, -35688.664, -0.043097842, -0.1903828, -1140749.6, -14164.394, 0.0, 9.999713, 9.999821 
2.7499875e+2, 1.9504037e+2, -1022284.7, -1048279.8, -17405.672, -0.041443996, -0.18668029, -1013559.1, 15024.849, 0.0, 10.000143, 9.999793 
2.7500126e+2, 2.050395e+2, -980078.6, -1092274.8, -42561.613, -0.011561431, -0.20033476, -965760.2, -35168.49, 0.0, 10.000256, 9.998764 
2.7500364e+2, 2.1503788e+2, -911357.3, -1010462.56, -53339.605, 0.044156186, -0.24150385, -888104.9, -55496.98, 0.0, 10.000063, 9.998746 
2.7500612e+2, 2.2503659e+2, -801244.06, -886314.75, -18671.88, 0.05651384, -0.2539262, -797326.25, -62706.207, 0.0, 10.000059, 9.998926 
2.7500865e+2, 2.3503563e+2, -677568.25, -777907.94, -10364.19, 0.027383279, -0.24741012, -676508.9, -39881.023, 0.0, 10.000243, 9.998909 
2.7501124e+2, 2.4503432e+2, -575917.1, -707196.25, -10152.364, 0.010934137, -0.25499305, -575136.7, -36497.39, 0.0, 10.000393, 9.99865 
2.7501386e+2, 2.5503266e+2, -463298.16, -604551.4, -2425.5063, 0.0070124106, -0.28828707, -463256.53, -22602.48, 0.0, 10.000504, 9.998629 
2.7501643e+2, 2.6503113e+2, -408346.66, -579877.0, -20888.314, 0.016267817, -0.28164843, -405839.6, -63169.86, 0.0, 10.000437, 9.998157 
2.7501887e+2, 2.750297e+2, -345519.03, -500872.53, -25730.129, 0.037925847, -0.24324425, -341368.4, -96682.71, 0.0, 10.000204, 9.998138 
2.7502126e+2, 2.850283e+2, -234347.48, -357434.44, -18205.79, 0.045426928, -0.21150494, -231711.14, -85011.195, 0.0, 10.000126, 9.998488 
2.7502352e+2, 2.95027e+2, -135274.11, -263667.44, -740.67114, 0.037826877, -0.19773996, -135269.83, -86557.62, 0.0, 10.000153, 9.998446 
2.7502653e+2, 3.0502442e+2, -123242.99, -279226.16, 13475.093, 0.06896813, -0.27554756, -122087.47, -122087.47, 0.0, 10.000102, 9.998032 
2.7502766e+2, 3.1502262e+2, -13289.375, -39798.445, 10239.787, -0.09099613, -0.2635814, -9794.703, -9794.703, 0.000000039236188, 10.000052, 9.999698 
2.849772e+2, 1.2503873e+2, -1725845.4, -1650054.6, -26137.906, -0.06262203, -0.17976782, -1641914.8, 72688.33, 0.00010364884, 9.9996195, 10.0006275 
2.8498176e+2, 1.3503915e+2, -1642479.8, -1612760.1, 42128.254, -0.020688368, -0.15295987, -1582947.8, 33649.797, 0.000040612387, 9.999751, 10.000149 
2.8498507e+2, 1.4503835e+2, -1548629.4, -1539797.5, -8801.291, -0.053573176, -0.23972058, -1534366.5, -15761.922, 0.0000062724685, 9.999823, 9.999938 
2.8498855e+2, 1.5503845e+2, -1461355.1, -1457301.5, -8059.5435, 0.007370278, -0.21979691, -1451017.9, -30415.215, 0.000000028346124, 9.999794, 9.9998455 
2.849915e+2, 1.6503817e+2, -1377917.8, -1409326.0, -4914.361, 0.030450765, -0.21170497, -1377166.8, -54561.008, 0.0, 9.999881, 9.999459 
2.8499377e+2, 1.7503753e+2, -1246803.5, -1296125.6, 8084.835, -0.0067767943, -0.22479455, -1245512.0, -20898.672, 0.0, 10.000113, 9.999452 
2.8499612e+2, 1.8503731e+2, -1142781.1, -1167320.1, 2534.465, -0.030729892, -0.20421132, -1142522.0, -15906.027, 0.0, 10.000032, 9.999702 
2.849987e+2, 1.950375e+2, -1104493.5, -1101184.6, -26347.057, -0.03567704, -0.1588951, -1076440.1, -47826.6, 0.0, 9.999636, 9.999675 
2.8500134e+2, 2.050367e+2, -1040530.06, -1104891.9, -47829.56, -0.002625508, -0.16609631, -1015063.06, -84442.39, 0.0, 9.999769, 9.998912 
2.8500408e+2, 2.1503496e+2, -848328.0, -963102.7, -25550.213, 0.06562039, -0.23572102, -842897.2, -10260.017, 0.0, 10.000423, 9.998897 
2.8500655e+2, 2.2503358e+2, -710715.3, -836747.44, 13895.883, 0.0671501, -0.26518926, -709201.4, 25447.979, 0.0, 10.000654, 9.9989805 
2.8500876e+2, 2.3503262e+2, -641011.75, -754178.9, 10932.12, 0.004573923, -0.26435068, -639965.4, -3308.4888, 0.0, 10.000468, 9.998963 
2.850114e+2, 2.4503146e+2, -585825.56, -713927.56, 738.1534, -0.0052705505, -0.25879368, -585821.3, -47154.105, 0.0, 10.000334, 9.998632 
2.8501454e+2, 2.5503013e+2, -500447.2, -624065.8, -7093.565, 0.036051825, -0.25908598, -500041.47, -59361.445, 0.0, 10.000257, 9.998613 
2.8501692e+2, 2.6502863e+2, -434281.5, -572461.9, -25222.861, 0.039421044, -0.2552208, -429821.38, -87126.26, 0.0, 10.000173, 9.998335 
2.8501868e+2, 2.75027e+2, -353644.4, -484204.0, -4780.44, 0.0068262042, -0.25601113, -353469.63, -108757.62, 0.0, 10.000059, 9.9983225 
2.8502107e+2, 2.8502566e+2, -226583.94, -358610.1, 16980.795, 0.012289986, -0.22692493, -224434.89, -77709.46, 0.0, 10.0002, 9.998445 
2.8502408e+2, 2.9502463e+2, -68938.13, -234524.42, 2751.4988, 0.05450661, -0.17954466, -68892.42, -20157.111, 0.0, 10.000623, 9.99842 
2.85027e+2, 3.0502182e+2, -65655.67, -230280.77, -3705.8013, 0.094873324, -0.28949237, -65572.29, -65572.29, 0.0, 10.000407, 9.9982195 
2.8502747e+2, 3.150204e+2, -92380.336, -81979.94, 34044.535, -0.08636832, -0.25419608, -52740.73, -52740.73, 0.000000022768178, 9.999525, 9.999664 
2.9497683e+2, 1.2503591e+2, -1762499.8, -1728095.1, -31183.906, -0.06266686, -0.19148912, -1709683.4, 4944.095, 0.000085497144, 9.999628, 10.000089 
2.9498196e+2, 1.3503574e+2, -1671193.6, -1673127.8, 47730.31, 0.023097267, -0.18343827, -1624420.6, -7790.0205, 0.000032281903, 9.999755, 9.999733 
2.949852e+2, 1.4503503e+2, -1536123.0, -1514894.6, -10201.184, -0.024279583, -0.2472043, -1510787.1, 7850.779, 0.0000046245973, 9.999826, 10.000108 
2.94988e+2, 1.5503599e+2, -1448436.9, -1430494.6, -9028.205, -0.027245084, -0.16163887, -1426738.3, -6109.9937, 0.00000001715619, 9.999795, 10.00003 
2.9499096e+2, 1.6503601e+2, -1350295.6, -1351538.9, 2743.233, -0.0136672575, -0.15045543, -1348104.5, -25477.236, 0.0, 9.999879, 9.999857 
2.9499385e+2, 1.7503522e+2, -1219639.9, -1239257.9, 17316.467, -0.011803118, -0.22094437, -1209547.3, 15086.927, 0.0, 10.000111, 9.999843 
2.9499638e+2, 1.8503463e+2, -1194782.6, -1274627.3, -12753.312, -0.010375899, -0.21769987, -1192795.1, -66154.234, 0.0, 10.00003, 9.998967 
2.9499868e+2, 1.950343e+2, -1155328.3, -1206726.8, -40559.504, 0.0008246906, -0.15160777, -1133011.5, -104364.305, 0.0, 9.999636, 9.998951 
2.9500145e+2, 2.0503362e+2, -999008.6, -1017301.7, -23602.139, 0.02866896, -0.14150484, -982842.7, -52188.742, 0.0, 9.9997635, 9.9995165 
2.9500455e+2, 2.1503262e+2, -807176.3, -876198.2, -178.41142, 0.06949328, -0.1970239, -807175.8, 25484.957, 0.0, 10.000417, 9.999497 
2.950071e+2, 2.2503152e+2, -717114.3, -848264.1, 6189.1284, 0.05816154, -0.2254789, -716822.9, 17846.521, 0.0, 10.000648, 9.998904 
2.9500917e+2, 2.3503037e+2, -647389.2, -765986.2, 4562.9155, -0.0026672052, -0.23567452, -647213.94, -10534.508, 0.0, 10.000462, 9.998886 
2.950118e+2, 2.4502915e+2, -601214.8, -744812.8, -2796.9575, -0.005575062, -0.22088072, -601160.4, -62468.69, 0.0, 10.000329, 9.998423 
2.950149e+2, 2.5502792e+2, -515777.94, -654380.8, -9079.197, 0.04665475, -0.19109565, -515185.72, -74479.85, 0.0, 10.00025, 9.998408 
2.950172e+2, 2.6502636e+2, -398114.56, -496021.84, -30016.078, 0.048958495, -0.20871916, -389645.0, -46924.402, 0.0, 10.000167, 9.998862 
2.950187e+2, 2.750245e+2, -317486.06, -408173.25, -8579.904, 0.0032793405, -0.28550148, -316681.44, -71945.805, 0.0, 10.000055, 9.998846 
2.9502097e+2, 2.8502312e+2, -257817.34, -422901.72, 31635.4, -0.020103076, -0.26379615, -251962.63, -105213.85, 0.0, 10.000198, 9.998004 
2.950239e+2, 2.9502228e+2, -99657.1, -295371.44, 19467.041, -0.026527146, -0.15255588, -97739.56, -48980.152, 0.0, 10.000609, 9.998008 
2.95027e+2, 3.0501962e+2, -21501.576, -135888.36, -37198.93, 0.048244424, -0.2604371, -10468.547, -10468.547, 0.0, 10.000396, 9.998874 
2.9502788e+2, 3.150191e+2, -72723.13, -41276.383, 12331.12, -0.0009359594, -0.20340948, -37017.742, -37017.742, 0.000000019534246, 9.999526, 9.999942 
3.0497658e+2, 1.2503271e+2, -1752119.4, -1732815.0, -46211.945, -0.05484827, -0.22987893, -1695258.0, 19400.0, 0.000073591786, 9.999746, 9.999996 
3.0498192e+2, 1.3503288e+2, -1673643.1, -1674598.6, 71603.05, 0.045312, -0.18640314, -1602516.3, 14141.421, 0.000027638554, 9.99974, 9.99973 
3.0498526e+2, 1.4503227e+2, -1532156.1, -1517850.4, 25966.387, -0.002877438, -0.23812392, -1498069.6, 20594.707, 0.000004191702, 9.999877, 10.000063 
3.0498797e+2, 1.5503302e+2, -1401331.0, -1412840.8, 7555.688, -0.026290072, -0.16790529, -1397588.3, 23068.87, 0.000000032166714, 10.00014, 9.999984 
3.0499092e+2, 1.6503312e+2, -1316321.5, -1330452.1, -8807.226, -0.017856294, -0.15170918, -1312095.9, 10560.076, 0.0, 10.000093, 9.999898 
3.0499378e+2, 1.750326e+2, -1271214.3, -1259921.4, -22610.584, -0.010735683, -0.19624773, -1242262.9, -17602.672, 0.0, 9.999738, 9.999881 
3.049964e+2, 1.85032e+2, -1210850.5, -1274261.1, -26834.16, -0.0033184516, -0.20057537, -1201019.1, -74352.2, 0.0, 9.999886, 9.99904 
3.0499893e+2, 1.9503134e+2, -1017277.7, -1131132.6, 5181.208, 0.015997775, -0.17496438, -1017042.4, 11633.174, 0.0, 10.000546, 9.99903 
3.050017e+2, 2.0503068e+2, -868898.56, -955666.7, 29079.32, 0.03515536, -0.16567525, -860054.44, 70627.66, 0.0, 10.000663, 9.999506 
3.0500466e+2, 2.1503007e+2, -834784.8, -890721.75, 4985.414, 0.049082287, -0.18081626, -834343.94, -1657.8903, 0.0, 10.000233, 9.999486 
3.0500728e+2, 2.2502919e+2, -795171.94, -870404.8, -8555.615, 0.042204067, -0.19475524, -794211.2, -59518.098, 0.0, 10.000044, 9.999044 
3.050096e+2, 2.3502804e+2, -691078.44, -771320.8, 4769.7134, 0.016948955, -0.21729584, -690795.9, -54093.0, 0.0, 10.000093, 9.999027 
3.0501217e+2, 2.450269e+2, -622669.25, -739720.75, 20646.738, 0.01223248, -0.209222, -619134.2, -80419.88, 0.0, 10.000115, 9.998561 
3.0501488e+2, 2.550258e+2, -526297.44, -643948.6, 39408.363, 0.02694503, -0.18031581, -514317.2, -73590.266, 0.0, 10.00011, 9.998548 
3.050173e+2, 2.650243e+2, -370153.47, -480654.2, 22772.59, 0.0318651, -0.20196608, -365644.38, -22903.445, 0.0, 10.000352, 9.998878 
3.050194e+2, 2.7502236e+2, -200556.94, -349864.5, 3747.049, 0.028691338, -0.28567162, -200462.95, 44293.223, 0.0, 10.000852, 9.998862 
3.0502167e+2, 2.8502095e+2, -170766.33, -375277.3, 32129.773, 0.0012543168, -0.27170867, -165837.36, -19067.768, 0.0, 10.000772, 9.9980545 
3.05024e+2, 2.950201e+2, -169555.56, -322018.9, 54670.215, -0.052539844, -0.16653799, -151978.39, -103197.99, 0.0, 10.000098, 9.998072 
3.050268e+2, 3.0501765e+2, -81699.26, -129493.266, -3833.5022, 0.022117572, -0.2737473, -81393.73, -81393.73, 0.0, 9.999829, 9.999191 
3.050281e+2, 3.1501752e+2, -16357.106, -23253.793, 25734.508, 0.047936887, -0.20604566, 6159.0625, 6159.0625, 0.000000009333619, 9.999952, 9.999862 
3.1497648e+2, 1.2502915e+2, -1727638.5, -1682717.9, -57579.164, -0.044272706, -0.2921441, -1643373.5, 71320.42, 0.00006650563, 9.999749, 10.00034 
3.1498158e+2, 1.3503063e+2, -1642203.4, -1611961.5, 72761.195, 0.035766248, -0.16005827, -1552766.6, 63911.938, 0.000025576577, 9.999751, 10.000155 
3.149852e+2, 1.4503011e+2, -1549905.3, -1556525.3, 35163.14, -0.0011517665, -0.21099363, -1517896.6, 786.90326, 0.000004447986, 9.999885, 9.999794 
3.1498846e+2, 1.5502958e+2, -1421453.8, -1452999.5, 18106.404, 0.007062622, -0.24058378, -1413213.6, 7475.4907, 0.00000006594377, 10.000134, 9.999711 
3.1499135e+2, 1.6502945e+2, -1340556.9, -1379348.3, -22730.934, 0.015447766, -0.21633038, -1330071.4, -7379.484, 0.0, 10.000087, 9.999566 
3.1499353e+2, 1.7502972e+2, -1293665.6, -1307132.0, -35464.156, -0.008961058, -0.14897531, -1264301.1, -39609.582, 0.0, 9.999741, 9.999556 
3.1499615e+2, 1.8502943e+2, -1148684.6, -1145760.5, -2838.9534, -0.016518021, -0.15045586, -1144029.3, -17335.367, 0.0, 9.9998865, 9.999921 
3.149994e+2, 1.9502859e+2, -956171.6, -1003481.75, 30535.924, 0.005898069, -0.23062015, -941200.2, 87498.43, 0.0, 10.000543, 9.999908 
3.1500214e+2, 2.050279e+2, -914255.06, -1047213.94, 12449.197, 0.012852712, -0.2397503, -913099.44, 17605.709, 0.0, 10.000651, 9.998882 
3.1500444e+2, 2.1502735e+2, -879238.1, -981683.4, -10339.411, 0.0005675646, -0.18669596, -878205.06, -45492.027, 0.0, 10.000227, 9.998864 
3.150071e+2, 2.250266e+2, -770920.56, -819200.94, -7111.9043, 0.0156149315, -0.17296901, -769894.75, -35174.24, 0.0, 10.000039, 9.999398 
3.1501016e+2, 2.3502566e+2, -666882.3, -719983.2, 7395.7134, 0.05952001, -0.20936501, -665871.5, -29144.023, 0.0, 10.000089, 9.999382 
3.150126e+2, 2.4502473e+2, -589577.7, -669980.44, 19662.996, 0.04421031, -0.22412004, -585026.56, -46291.43, 0.0, 10.000111, 9.999042 
3.1501442e+2, 2.5502378e+2, -493034.44, -573616.75, 39641.016, -0.029343124, -0.22624776, -476803.13, -36059.99, 0.0, 10.000105, 9.999033 
3.150172e+2, 2.650224e+2, -405161.66, -553129.06, 40849.355, -0.016858343, -0.23353742, -394633.47, -51877.43, 0.0, 10.000351, 9.998382 
3.1502077e+2, 2.750206e+2, -236508.56, -422239.63, 23487.947, 0.07802645, -0.25705305, -233584.27, 11189.415, 0.0, 10.000842, 9.99837 
3.1502315e+2, 2.850191e+2, -135744.6, -299509.0, 5845.1074, 0.07328574, -0.25177082, -135536.23, 11251.878, 0.0, 10.00076, 9.99858 
3.1502432e+2, 2.9501805e+2, -132175.28, -243911.0, 30230.365, -0.03142812, -0.2223458, -124520.76, -75722.305, 0.0, 10.000098, 9.998608 
3.1502652e+2, 3.0501583e+2, -82103.65, -132358.8, -606.4404, 0.009565375, -0.33025357, -82096.33, -82096.33, 0.0, 9.999836, 9.999168 
3.1502807e+2, 3.1501564e+2, -45970.48, -82957.9, 37713.492, 0.046690438, -0.26379836, -22460.324, -22460.324, 0.0000000005270663, 9.999944, 9.999456 
3.2497665e+2, 1.2502696e+2, -1683973.3, -1662353.0, -24189.63, -0.016094817, -0.26067573, -1646667.9, 68048.73, 0.00006287029, 10.000053, 10.000331 
3.2498166e+2, 1.3502815e+2, -1529318.1, -1549035.1, 89047.92, 0.03356361, -0.16586317, -1449584.6, 167117.98, 0.000025189593, 10.000489, 10.000231 
3.2498536e+2, 1.4502746e+2, -1473745.5, -1538125.5, 29300.973, -0.0035820063, -0.2282247, -1462406.9, 56301.805, 0.0000050024137, 10.000487, 9.999629 
3.2498863e+2, 1.5502678e+2, -1455955.1, -1487258.9, 17810.375, 0.019283468, -0.25783795, -1447896.4, -27180.072, 0.000000115129794, 9.999973, 9.999553 
3.2499152e+2, 1.6502656e+2, -1370039.8, -1399332.9, 529.8969, 0.033382278, -0.23058693, -1370030.1, -47309.87, 0.0, 9.999909, 9.999514 
3.2499367e+2, 1.7502688e+2, -1212391.4, -1273030.8, 7591.963, 0.0036488345, -0.15489489, -1211455.4, 13264.422, 0.0, 10.000322, 9.999509 
3.2499635e+2, 1.8502668e+2, -1067933.8, -1083160.8, 30320.566, -0.009526635, -0.15649664, -1044285.44, 82435.45, 0.0, 10.00034, 10.000132 
3.249996e+2, 1.9502597e+2, -1025290.25, -1013665.3, 11415.202, 0.0041558617, -0.24378183, -1006668.0, 22055.232, 0.0, 9.999968, 10.000116 
3.2500237e+2, 2.0502533e+2, -1008857.3, -1092816.9, -12280.417, 0.0052686785, -0.25618595, -1007098.0, -76369.164, 0.0, 10.0, 9.998884 
3.2500464e+2, 2.150248e+2, -848886.25, -966218.4, 10792.987, -0.009471095, -0.20267282, -847901.7, -15164.365, 0.0, 10.000432, 9.998872 
3.250073e+2, 2.2502407e+2, -703301.1, -789233.94, 20443.0, 0.009333668, -0.18394496, -698685.75, 36059.227, 0.0, 10.000516, 9.999373 
3.2501036e+2, 2.3502325e+2, -643643.8, -711163.2, 5345.519, 0.062462695, -0.21055466, -643223.25, -6471.6577, 0.0, 10.000259, 9.99936 
3.2501286e+2, 2.4502231e+2, -549036.5, -628851.1, 4243.056, 0.049650043, -0.23201773, -548811.56, -10052.925, 0.0, 10.000297, 9.999234 
3.250148e+2, 2.5502133e+2, -402889.13, -508902.8, 781.91895, -0.028559538, -0.25660628, -402883.34, 37882.285, 0.0, 10.000632, 9.999224 
3.2501757e+2, 2.6502004e+2, -376599.56, -545928.0, 2809.8516, -0.024950398, -0.2599139, -376552.94, -33775.42, 0.0, 10.000575, 9.998323 
3.2502106e+2, 2.7501845e+2, -344104.4, -480457.6, 17027.998, 0.05879063, -0.25467697, -342010.1, -97215.79, 0.0, 10.000129, 9.998315 
3.2502344e+2, 2.850171e+2, -227766.95, -317518.84, -2167.881, 0.06322995, -0.24865168, -227714.63, -80906.6, 0.0, 10.000015, 9.998816 
3.2502466e+2, 2.9501602e+2, -98076.55, -201698.14, -1682.5199, -0.01165441, -0.24044587, -98049.234, -49231.906, 0.0, 10.000221, 9.998838 
3.250268e+2, 3.0501422e+2, 14011.88, -92172.25, -26667.545, 0.021544741, -0.31715795, 20332.988, 20332.988, 0.0, 10.000524, 9.999114 
3.250285e+2, 3.150137e+2, 72538.766, -60986.11, 12760.618, 0.04736149, -0.28233615, 73747.32, 73747.32, 0.0, 10.000909, 9.999143 
3.3497703e+2, 1.2502618e+2, -1708406.5, -1717122.8, -20277.186, 0.011214784, -0.13440408, -1692024.4, 22701.293, 0.000061273975, 10.000072, 9.999947 
3.3498222e+2, 1.3502546e+2, -1550475.3, -1590851.4, 107433.14, 0.038514644, -0.20400833, -1461349.9, 155379.73, 0.000025556885, 10.000481, 9.9999485 
3.349858e+2, 1.4502436e+2, -1479643.5, -1548587.3, 10786.745, -0.01086809, -0.28949365, -1477995.3, 40744.395, 0.0000055599335, 10.000479, 9.999561 
3.3498845e+2, 1.5502463e+2, -1458614.5, -1494201.0, -300.71747, -0.00007145035, -0.21752582, -1458612.0, -37873.31, 0.00000016881297, 9.99998, 9.999501 
3.3499137e+2, 1.650245e+2, -1352347.5, -1365003.9, 15030.2705, 0.02377625, -0.19155711, -1342367.5, -19626.674, 0.0, 9.999919, 9.999745 
3.3499423e+2, 1.7502405e+2, -1196543.5, -1239709.0, 23820.668, 0.02472325, -0.21624643, -1185982.1, 38763.08, 0.0, 10.000319, 9.99974 
3.349969e+2, 1.850237e+2, -1101878.0, -1151640.1, 15905.133, 0.014856706, -0.21993752, -1097228.8, 29519.242, 0.0, 10.000332, 9.999665 
3.349996e+2, 1.9502345e+2, -1058556.5, -1082519.0, -1711.7483, 0.0062151183, -0.21386953, -1058434.9, -29685.656, 0.0, 9.999966, 9.999644 
3.3500242e+2, 2.0502302e+2, -965693.1, -1002143.7, 3649.126, 0.0070317867, -0.2136273, -965331.4, -34578.35, 0.0, 9.999995, 9.999509 
3.3500534e+2, 2.1502241e+2, -805529.0, -875243.56, 27874.816, 0.014620429, -0.22933257, -795754.06, 37005.035, 0.0, 10.000427, 9.999499 
3.350079e+2, 2.2502165e+2, -732631.8, -848328.75, 10034.3545, 0.019132122, -0.22799905, -731768.0, 2998.6367, 0.0, 10.000509, 9.998971 
3.3501023e+2, 2.3502074e+2, -672214.25, -769237.94, -3588.1567, 0.022443902, -0.22034654, -672081.75, -35306.39, 0.0, 10.000254, 9.998964 
3.350129e+2, 2.4501966e+2, -556378.06, -643507.3, 16373.323, 0.024804672, -0.23220658, -553402.8, -14618.0625, 0.0, 10.000294, 9.999135 
3.3501598e+2, 2.5501844e+2, -411031.1, -523954.38, 14206.552, 0.024802763, -0.27078545, -409271.22, 31523.086, 0.0, 10.000625, 9.999124 
3.3501843e+2, 2.6501724e+2, -351780.8, -492664.63, -14893.915, 0.0046560853, -0.28110877, -350223.47, -7418.069, 0.0, 10.000567, 9.9986925 
3.3502027e+2, 2.7501598e+2, -317736.4, -424839.22, 627.0355, -0.03462069, -0.27940515, -317732.72, -72914.51, 0.0, 10.000126, 9.998697 
3.3502248e+2, 2.850149e+2, -231574.53, -325689.53, 4945.485, -0.03434098, -0.26189187, -231315.38, -84486.06, 0.0, 10.000015, 9.99876 
3.35025e+2, 2.9501414e+2, -103586.34, -211714.92, 7845.5083, 0.000879546, -0.21906273, -103020.055, -54183.344, 0.0, 10.000215, 9.998774 
3.3502766e+2, 3.0501285e+2, 5565.586, -107622.41, -13807.64, 0.053857215, -0.23539224, 7225.614, 7225.614, 0.0, 10.000515, 9.999011 
3.3502936e+2, 3.1501156e+2, 56654.51, -92205.92, 33317.51, 0.038594007, -0.26490292, 63771.3, 63771.3, 0.0, 10.000902, 9.99893 
3.4497774e+2, 1.2502438e+2, -1656359.9, -1718641.3, -35150.508, 0.050352912, -0.10537552, -1640539.9, 74203.5, 0.000060228966, 10.000544, 9.999708 
3.4498256e+2, 1.3502315e+2, -1617714.4, -1640675.4, 110852.22, 0.0482083, -0.2101792, -1517749.8, 99003.0, 0.000025763518, 10.00009, 9.999796 
3.449861e+2, 1.4502206e+2, -1532327.9, -1570454.0, 25720.996, -0.0045314585, -0.28841284, -1519375.8, -612.76544, 0.000005876301, 10.000103, 9.999591 
3.4498873e+2, 1.5502268e+2, -1376054.8, -1450346.6, 18492.258, 0.006072976, -0.18638189, -1371706.4, 49052.53, 0.0000002059256, 10.000529, 9.9995365 
3.449917e+2, 1.6502254e+2, -1254884.9, -1312956.6, 33868.227, 0.033691436, -0.16476409, -1239309.8, 83450.67, 0.0, 10.0005665, 9.99979 
3.4499463e+2, 1.7502175e+2, -1204642.4, -1238533.0, 27000.113, 0.037202783, -0.22554465, -1189710.6, 35056.055, 0.0, 10.000241, 9.999785 
3.4499726e+2, 1.8502128e+2, -1147650.3, -1195183.8, 16758.955, 0.025178073, -0.23538363, -1142335.8, -15564.888, 0.0, 10.00011, 9.999474 
3.4499973e+2, 1.9502111e+2, -1041925.9, -1095114.6, 18901.346, 0.011458546, -0.20503789, -1035893.25, -7120.238, 0.0, 10.000171, 9.999457 
3.4500256e+2, 2.0502071e+2, -923501.3, -965745.3, 32409.848, 0.011148726, -0.19862282, -905938.2, 24838.434, 0.0, 10.0002165, 9.999652 
3.4500572e+2, 2.1502012e+2, -822071.9, -867294.4, 18937.178, 0.019335967, -0.22583653, -815189.3, 17592.156, 0.0, 10.000244, 9.999641 
3.4500834e+2, 2.2501935e+2, -745278.0, -859945.94, -8850.574, 0.01369198, -0.23076403, -744598.9, -9810.258, 0.0, 10.000445, 9.998922 
3.450105e+2, 2.3501837e+2, -593989.6, -737064.9, 2370.2783, -0.0034994471, -0.2244902, -593950.3, 42847.734, 0.0, 10.000814, 9.998915 
3.4501326e+2, 2.4501722e+2, -506060.84, -643503.7, 26585.348, 0.008954703, -0.23080154, -501097.7, 37711.27, 0.0, 10.000744, 9.998919 
3.4501666e+2, 2.550159e+2, -482189.06, -582303.5, 14447.724, 0.049540274, -0.2571853, -480145.78, -39324.96, 0.0, 10.000239, 9.998909 
3.4501904e+2, 2.650148e+2, -389185.3, -479046.94, -18512.45, 0.027536388, -0.26230106, -385520.97, -42689.953, 0.0, 10.0001745, 9.998976 
3.4502038e+2, 2.750138e+2, -238659.23, -355999.88, -11494.237, -0.055342644, -0.2643791, -237543.9, 7296.112, 0.0, 10.000536, 9.998974 
3.4502256e+2, 2.8501257e+2, -129381.72, -297391.4, -5766.6416, -0.06712093, -0.26138207, -129184.02, 17667.79, 0.0, 10.000807, 9.998573 
3.450255e+2, 2.950114e+2, -1722.1439, -185453.17, -14395.211, -0.012372128, -0.23989303, -601.1278, 48262.9, 0.0, 10.001012, 9.99857 
3.4502828e+2, 3.0501053e+2, 73704.414, -68559.67, -40912.53, 0.043039136, -0.20706698, 84630.9, 84630.9, 0.0, 10.000957, 9.999066 
3.4503025e+2, 3.1500906e+2, 20634.115, -92117.25, 18432.727, 0.05411751, -0.2653232, 23571.02, 23571.02, 0.0, 10.000582, 9.9990835 
3.5497874e+2, 1.2502153e+2, -1662983.5, -1731776.8, -63360.4, 0.09551071, -0.1751949, -1625285.3, 89484.6, 0.00005843651, 10.000541, 9.9996195 
3.549827e+2, 1.3502124e+2, -1617702.4, -1642745.9, 96099.28, 0.049648527, -0.18284477, -1533312.4, 83459.62, 0.000025162195, 10.000098, 9.999777 
3.549863e+2, 1.4502062e+2, -1521168.8, -1551016.4, 42089.39, 0.0008886073, -0.22258191, -1491435.6, 27342.914, 0.0000057861466, 10.000117, 9.999719 
3.549896e+2, 1.550209e+2, -1367883.8, -1432977.4, 35356.074, 0.037253156, -0.16515823, -1352374.9, 68402.05, 0.00000020730299, 10.000526, 9.999659 
3.5499257e+2, 1.6502067e+2, -1265860.5, -1334762.5, 20849.314, 0.06197636, -0.15013057, -1260042.8, 62736.22, 0.0, 10.000563, 9.999642 
3.5499483e+2, 1.7502005e+2, -1214430.0, -1259927.1, 15739.959, 0.033999413, -0.18223593, -1209515.5, 15268.487, 0.0, 10.000246, 9.999636 
3.5499725e+2, 1.8501943e+2, -1141274.4, -1182853.6, 18595.756, 0.012996055, -0.2014584, -1134171.1, -7381.7886, 0.0, 10.000113, 9.9995575 
3.5499996e+2, 1.9501886e+2, -1035497.2, -1081834.1, 21880.44, 0.016052436, -0.21877983, -1026798.25, 1996.5247, 0.0, 10.00017, 9.99955 
3.5500282e+2, 2.0501834e+2, -948323.9, -1015195.06, 32902.457, 0.014489803, -0.21249996, -934849.9, -4050.031, 0.0, 10.000208, 9.999317 
3.5500577e+2, 2.150179e+2, -846568.6, -916769.75, 21084.803, 0.0010832163, -0.19248219, -840722.6, -7918.292, 0.0, 10.000238, 9.999306 
3.5500854e+2, 2.2501715e+2, -725503.06, -817133.75, 4618.6055, -0.0114301, -0.19239308, -725270.9, 9540.211, 0.0, 10.000438, 9.99922 
3.5501114e+2, 2.3501611e+2, -573941.7, -694523.4, 16819.48, -0.01969041, -0.22231053, -571639.56, 65180.27, 0.0, 10.000811, 9.999209 
3.550139e+2, 2.4501494e+2, -530283.44, -692536.75, 6651.4243, -0.0013246563, -0.22762944, -530011.2, 8820.205, 0.0, 10.000738, 9.998585 
3.5501683e+2, 2.5501367e+2, -505679.44, -629607.2, -4074.664, 0.041932393, -0.2159657, -505545.63, -64700.313, 0.0, 10.000234, 9.998587 
3.5501933e+2, 2.6501265e+2, -375872.3, -450578.94, -5067.6006, 0.038926877, -0.20418067, -375530.13, -32675.62, 0.0, 10.000171, 9.999173 
3.550214e+2, 2.7501184e+2, -226164.03, -328997.22, 3169.55, -0.009461213, -0.20876712, -226066.44, 18793.145, 0.0, 10.000531, 9.999161 
3.5502365e+2, 2.8501016e+2, -153475.88, -346189.84, 713.7817, -0.039746333, -0.24637602, -153473.23, -6597.8423, 0.0, 10.000801, 9.99824 
3.550261e+2, 2.9500788e+2, -26976.281, -235950.58, -5642.491, -0.056705132, -0.30350298, -26824.04, 22075.285, 0.0, 10.001003, 9.998227 
3.5502866e+2, 3.0500734e+2, 87465.91, -38805.543, -55509.727, -0.01657818, -0.23192172, 108398.305, 108398.305, 0.0, 10.000951, 9.999273 
3.550311e+2, 3.1500626e+2, 55401.242, -17837.002, 8990.491, 0.07860172, -0.27219263, 56488.74, 56488.74, 0.0, 10.000572, 9.9995985 
3.6497903e+2, 1.2501864e+2, -1723340.3, -1761119.0, -93765.34, 0.09130063, -0.22127265, -1646580.5, 68217.09, 0.000055122826, 10.000128, 9.999616 
3.649831e+2, 1.3501897e+2, -1527690.0, -1591579.5, 83344.8, 0.051628727, -0.17271523, -1470377.8, 146416.98, 0.000023501116, 10.000682, 9.999846 
3.649869e+2, 1.4501865e+2, -1435099.3, -1505606.9, 24901.182, 0.022865154, -0.18855031, -1427191.8, 91606.89, 0.00000526637, 10.00069, 9.999754 
3.649901e+2, 1.5501861e+2, -1429415.9, -1457947.6, 8808.254, 0.05722419, -0.16660754, -1426915.8, -6116.259, 0.00000017249042, 10.000082, 9.9997015 
3.6499295e+2, 1.6501832e+2, -1349461.3, -1371973.1, 5105.8022, 0.076440185, -0.16273975, -1348357.4, -25555.375, 0.0, 9.999975, 9.999668 
3.6499518e+2, 1.7501783e+2, -1194027.9, -1246715.8, 11916.275, 0.03726896, -0.1818024, -1191458.1, 33347.293, 0.0, 10.000372, 9.999664 
3.649976e+2, 1.8501727e+2, -1090169.0, -1169901.5, 13568.966, 0.016951412, -0.19310087, -1087923.1, 38887.48, 0.0, 10.000513, 9.999454 
3.650004e+2, 1.9501664e+2, -1006721.44, -1079668.4, 1153.6132, 0.030219635, -0.20754799, -1006703.2, 22114.195, 0.0, 10.000416, 9.999448 
3.6500317e+2, 2.0501599e+2, -927170.5, -1013771.9, 17841.367, 0.022528537, -0.20450597, -923638.9, 7184.7783, 0.0, 10.000389, 9.99924 
3.6500594e+2, 2.1501538e+2, -825105.2, -914652.06, 23877.457, -0.012743117, -0.19309197, -819136.2, 13693.048, 0.0, 10.000422, 9.999231 
3.6500883e+2, 2.2501461e+2, -728629.0, -814375.25, 13395.397, -0.024482718, -0.1933483, -726585.06, 8251.164, 0.0, 10.000397, 9.999259 
3.650118e+2, 2.3501371e+2, -643142.9, -723569.4, 5028.475, -0.00944382, -0.21459527, -642829.75, -5985.317, 0.0, 10.000317, 9.9992485 
3.6501458e+2, 2.4501266e+2, -566272.25, -692344.9, -4361.2266, 0.008436388, -0.21736753, -566121.56, -27266.902, 0.0, 10.000416, 9.998742 
3.6501715e+2, 2.550115e+2, -428143.66, -574843.2, 20063.559, 0.02707538, -0.21026452, -425449.13, 15417.333, 0.0, 10.0006895, 9.998744 
3.6501968e+2, 2.6501045e+2, -284025.3, -431763.5, 36561.91, 0.01955515, -0.20143035, -275472.22, 67404.016, 0.0, 10.00091, 9.998947 
3.6502215e+2, 2.7500936e+2, -160124.23, -322509.7, 11617.839, -0.012780791, -0.20628273, -159297.25, 85587.14, 0.0, 10.001093, 9.998936 
3.650246e+2, 2.8500757e+2, -127256.68, -324371.53, -5159.643, -0.031343672, -0.24946515, -127121.71, 19779.828, 0.0, 10.00094, 9.998324 
3.6502695e+2, 2.9500523e+2, -109575.96, -269284.6, 17966.74, -0.040322997, -0.320049, -107579.71, -58654.383, 0.0, 10.000406, 9.998287 
3.6502936e+2, 3.050048e+2, -7749.2324, -121753.68, -21562.744, -0.017887214, -0.22211094, -3807.175, -3807.175, 0.0, 10.000455, 9.998943 
3.6503193e+2, 3.1500337e+2, 146274.25, 31920.48, 442.2127, 0.07599436, -0.26716664, 146275.97, 146275.97, 0.0, 10.001167, 9.999656 
3.749785e+2, 1.2501568e+2, -1716640.6, -1748104.4, -87048.586, 0.024329428, -0.24279876, -1643913.8, 70912.98, 0.00005010573, 10.000131, 9.999704 
3.7498382e+2, 1.3501635e+2, -1516072.0, -1568511.1, 106279.17, 0.05400589, -0.17921165, -1432825.9, 183994.94, 0.000020857056, 10.000685, 10.000005 
3.74988e+2, 1.4501615e+2, -1438708.6, -1513157.3, 1875.6631, 0.05936256, -0.18563655, -1438661.4, 80161.82, 0.000004428325, 10.000691, 9.9997015 
3.749902e+2, 1.5501581e+2, -1432005.0, -1463666.1, -13329.791, 0.05692823, -0.19034946, -1427140.4, -6313.9106, 0.00000011962439, 10.000085, 9.9996605 
3.7499285e+2, 1.6501546e+2, -1334279.9, -1341750.5, 19552.678, 0.067295, -0.20163353, -1318109.0, 4720.3438, 0.0, 9.999979, 9.999875 
3.7499565e+2, 1.7501514e+2, -1179080.9, -1216682.4, 27557.928, 0.044671554, -0.22460513, -1164521.4, 60309.695, 0.0, 10.000375, 9.99987 
3.749983e+2, 1.8501478e+2, -1110778.5, -1212718.6, 9060.483, 0.033507843, -0.2110424, -1109979.5, 16855.402, 0.0, 10.000513, 9.99916 
3.75001e+2, 1.9501437e+2, -1027462.75, -1122464.1, -1665.182, 0.04946751, -0.17174499, -1027433.56, 1407.2731, 0.0, 10.000415, 9.999154 
3.7500367e+2, 2.0501363e+2, -915564.06, -988610.56, 18691.8, 0.030932669, -0.17407005, -911058.9, 19789.205, 0.0, 10.000384, 9.999415 
3.7500626e+2, 2.1501254e+2, -813287.7, -888886.06, 25938.38, -0.02664711, -0.22797108, -805243.9, 27612.379, 0.0, 10.000416, 9.999411 
3.7500918e+2, 2.250117e+2, -744661.6, -846301.44, 9466.83, -0.0294739, -0.23364462, -743787.4, -8923.065, 0.0, 10.000391, 9.9990425 
3.7501246e+2, 2.3501112e+2, -658510.1, -754280.4, 2713.6738, 0.023960207, -0.20222574, -658433.3, -21561.309, 0.0, 10.000311, 9.99904 
3.7501526e+2, 2.4501032e+2, -522143.1, -599041.7, 5663.834, 0.03433477, -0.2014754, -521728.16, 17150.637, 0.0, 10.000408, 9.999386 
3.7501758e+2, 2.5500938e+2, -383901.97, -482405.0, 31006.77, 0.00077655766, -0.23947237, -374954.44, 65929.91, 0.0, 10.000688, 9.999379 
3.7502006e+2, 2.6500806e+2, -330528.94, -527755.1, 42414.074, -0.03368578, -0.2528012, -321794.5, 21101.678, 0.0, 10.000907, 9.998289 
3.750227e+2, 2.7500635e+2, -206865.42, -416845.66, 19294.436, -0.06889977, -0.2568516, -205107.25, 39807.29, 0.0, 10.0010805, 9.998294 
3.750254e+2, 2.8500476e+2, -92853.51, -250357.3, -25576.271, -0.047020894, -0.27126536, -88804.4, 58125.965, 0.0, 10.00093, 9.998837 
3.7502804e+2, 2.9500344e+2, -75640.09, -198749.3, -1630.6012, 0.02931602, -0.28952214, -75618.5, -26676.582, 0.0, 10.000407, 9.998771 
3.7503034e+2, 3.0500296e+2, -68667.984, -248940.88, 3708.9966, 0.033543795, -0.17645945, -68591.71, -68591.71, 0.0, 10.000459, 9.998068 
3.7503272e+2, 3.1500044e+2, 114849.63, -28664.217, 28702.72, 0.03626436, -0.24577622, 120377.266, 120377.266, 0.0, 10.001149, 9.999248 
3.8497874e+2, 1.2501334e+2, -1662282.0, -1717358.5, -69916.38, 0.01494122, -0.23496908, -1614676.0, 100174.42, 0.00004363311, 10.000488, 9.999741 
3.849843e+2, 1.3501406e+2, -1582220.0, -1590107.9, 128894.06, 0.05919035, -0.17638806, -1457209.5, 159634.53, 0.000017489165, 10.000184, 10.000098 
3.8498864e+2, 1.4501393e+2, -1498663.5, -1536276.6, 17646.83, 0.078199446, -0.18212749, -1491680.6, 27164.473, 0.0000034194288, 10.000254, 9.999754 
3.8499042e+2, 1.550134e+2, -1357723.9, -1421601.1, 6451.5503, 0.047232967, -0.21211219, -1357078.8, 63770.477, 0.00000006772674, 10.000567, 9.999717 
3.84993e+2, 1.6501297e+2, -1267165.9, -1326139.6, 37116.35, 0.05317809, -0.22486384, -1249249.1, 73603.664, 0.0, 10.000511, 9.999726 
3.849959e+2, 1.7501274e+2, -1223739.5, -1254370.6, 17448.074, 0.047384206, -0.22446916, -1215838.6, 9016.41, 0.0, 10.000136, 9.999727 
3.8499865e+2, 1.8501244e+2, -1167239.9, -1230802.0, 3565.501, 0.04207984, -0.20173882, -1167040.5, -40181.797, 0.0, 10.000086, 9.999242 
3.850014e+2, 1.9501206e+2, -1032425.4, -1115456.0, 19786.313, 0.052162915, -0.16773444, -1027951.4, 912.30176, 0.0, 10.00034, 9.999237 
3.8500407e+2, 2.050113e+2, -905466.94, -982509.0, 46730.996, 0.028032398, -0.17722015, -883426.8, 47443.926, 0.0, 10.000449, 9.999425 
3.8500655e+2, 2.1501015e+2, -812226.4, -887557.5, 39889.58, -0.03521638, -0.23924479, -795029.6, 37849.887, 0.0, 10.000419, 9.999419 
3.8500953e+2, 2.2500934e+2, -751057.44, -857937.6, 21625.11, -0.033690993, -0.23767453, -746847.8, -11960.272, 0.0, 10.000383, 9.998966 
3.8501287e+2, 2.350089e+2, -658898.25, -762778.5, 23266.195, 0.03344993, -0.18391266, -653925.4, -17030.73, 0.0, 10.000344, 9.998965 
3.8501585e+2, 2.4500805e+2, -509962.34, -594535.4, 21670.432, 0.046810407, -0.18382244, -504733.0, 34168.96, 0.0, 10.000498, 9.999374 
3.8501838e+2, 2.5500685e+2, -361820.3, -473223.6, -3446.59, 0.0053261733, -0.2450738, -361713.78, 79195.4, 0.0, 10.000846, 9.999366 
3.8502094e+2, 2.650055e+2, -350605.5, -542174.7, -9212.226, -0.029808631, -0.26185024, -350163.5, -7241.735, 0.0, 10.000789, 9.998247 
3.850235e+2, 2.750039e+2, -321445.38, -476619.94, 12650.836, -0.057437498, -0.24882759, -320420.75, -75480.875, 0.0, 10.000313, 9.998254 
3.8502622e+2, 2.850025e+2, -152487.38, -271484.34, -12503.274, -0.03338799, -0.24551275, -151187.83, -4233.8154, 0.0, 10.000485, 9.998907 
3.8502902e+2, 2.9500142e+2, 62675.91, -126905.65, -25258.738, 0.039222945, -0.25159785, 65983.53, 114946.64, 0.0, 10.001332, 9.998819 
3.850312e+2, 3.0500048e+2, 66811.586, -221282.38, -14652.049, 0.01994959, -0.1644703, 67554.85, 67554.85, 0.0, 10.00155, 9.997733 
3.850337e+2, 3.1499767e+2, 116325.55, -22210.652, 48386.1, 0.021045066, -0.23236275, 131551.73, 131551.73, 0.000000000002787424, 10.001132, 9.999301 
3.949797e+2, 1.250116e+2, -1664014.3, -1720823.5, -94719.94, 0.05628017, -0.19618773, -1593531.6, 121336.99, 0.0000362571, 10.000488, 9.999717 
3.949845e+2, 1.3501209e+2, -1580255.8, -1585877.0, 119342.24, 0.061278515, -0.16438827, -1463691.0, 153173.31, 0.000013744367, 10.000183, 10.000129 
3.9498886e+2, 1.4501196e+2, -1488619.3, -1514981.1, 30560.95, 0.07169686, -0.17762978, -1468517.9, 50346.42, 0.0000023661473, 10.000251, 9.999902 
3.9499074e+2, 1.5501134e+2, -1346540.0, -1399770.6, 18859.744, 0.023788556, -0.23193344, -1340535.3, 80332.54, 0.000000028035489, 10.000573, 9.999864 
3.9499325e+2, 1.6501087e+2, -1302025.3, -1399301.3, 21419.814, 0.029263292, -0.23198988, -1297517.6, 25354.953, 0.0, 10.000514, 9.999224 
3.94996e+2, 1.7501065e+2, -1258700.8, -1326566.5, 3895.6106, 0.041626606, -0.18057054, -1258477.9, -33600.414, 0.0, 10.000135, 9.999232 
3.9499873e+2, 1.8501027e+2, -1135295.5, -1164301.9, 12961.703, 0.037831824, -0.16422352, -1130347.5, -3465.731, 0.0, 10.000084, 9.999699 
3.950016e+2, 1.9500971e+2, -1000495.6, -1048699.0, 30160.035, 0.03453077, -0.19530296, -985990.06, 42895.785, 0.0, 10.000339, 9.999697 
3.9500433e+2, 2.0500898e+2, -917017.7, -1005467.2, 44903.85, 0.009521387, -0.21397854, -898217.2, 32674.555, 0.0, 10.000444, 9.9992695 
3.9500692e+2, 2.1500817e+2, -823780.25, -910092.4, 39767.64, -0.04251578, -0.22759221, -808251.5, 24647.531, 0.0, 10.000413, 9.999268 
3.9500982e+2, 2.250075e+2, -748225.5, -850403.25, 19720.79, -0.04110211, -0.20590608, -744551.44, -9645.477, 0.0, 10.000377, 9.999022 
3.9501306e+2, 2.3500703e+2, -655500.9, -755070.06, 22380.682, 0.015967721, -0.15983188, -650701.56, -13789.152, 0.0, 10.000341, 9.99902 
3.9501628e+2, 2.4500585e+2, -557279.5, -691945.75, 34048.434, 0.042331465, -0.16411129, -549160.4, -10236.133, 0.0, 10.000494, 9.998707 
3.9501953e+2, 2.5500396e+2, -409280.75, -569678.2, 10486.212, 0.03642882, -0.2275316, -408598.13, 32342.953, 0.0, 10.000836, 9.998709 
3.950223e+2, 2.6500273e+2, -311237.63, -458229.66, -27407.023, 0.026658535, -0.22964197, -306293.78, 36659.332, 0.0, 10.00078, 9.998828 
3.9502457e+2, 2.7500203e+2, -281175.06, -393260.0, -4440.1655, 0.015929045, -0.18164386, -280999.44, -36039.113, 0.0, 10.000314, 9.998826 
3.950271e+2, 2.8500083e+2, -178935.81, -327205.97, 18576.064, 0.00430833, -0.17181586, -176643.94, -29671.54, 0.0, 10.000489, 9.998523 
3.950298e+2, 2.9499906e+2, 33511.19, -183719.47, 7156.221, -0.015254909, -0.20545043, 33746.684, 82735.51, 0.0, 10.001316, 9.998437 
3.9503193e+2, 3.0499738e+2, 78748.01, -192331.75, -30727.422, -0.06285532, -0.18522689, 82187.38, 82187.38, 0.0, 10.0015335, 9.997939 
3.950348e+2, 3.14995e+2, 150614.55, 52366.207, 34656.973, 0.015943764, -0.23253666, 161609.34, 161609.34, 0.000000001718879, 10.0011215, 9.999817 
4.0498048e+2, 1.2501013e+2, -1702976.1, -1768854.0, -78360.13, 0.09543304, -0.16504177, -1650913.4, 63969.094, 0.000028702449, 10.000347, 9.9994545 
4.049847e+2, 1.3500999e+2, -1522826.8, -1583240.5, 127665.766, 0.03742397, -0.17316888, -1421842.9, 195041.88, 0.000010028613, 10.000685, 9.999906 
4.0498915e+2, 1.4500983e+2, -1424740.8, -1485987.0, 24196.828, 0.054986577, -0.18059054, -1416334.9, 102550.97, 0.0000013962007, 10.000696, 9.9998865 
4.0499127e+2, 1.5500933e+2, -1383086.9, -1418509.1, -3495.5244, 0.030251758, -0.2204702, -1382745.3, 38142.973, 0.000000006286357, 10.000326, 9.999854 
4.0499374e+2, 1.6500893e+2, -1331272.3, -1407825.1, 14412.857, 0.038930282, -0.21647617, -1328648.6, -5756.3813, 0.0, 10.000289, 9.999274 
4.0499628e+2, 1.7500868e+2, -1192484.4, -1289204.5, 37155.73, 0.032807276, -0.17180948, -1179858.9, 45038.035, 0.0, 10.000566, 9.999282 
4.0499884e+2, 1.8500826e+2, -1067464.6, -1129856.3, 52934.18, 0.019286364, -0.16400515, -1037217.7, 89683.75, 0.0, 10.000544, 9.999713 
4.0500167e+2, 1.9500759e+2, -1011634.4, -1052581.0, 35209.03, 0.015102841, -0.20565726, -991378.94, 37527.246, 0.0, 10.000255, 9.999711 
4.0500456e+2, 2.0500691e+2, -966172.3, -1029822.2, 39964.934, 0.004521511, -0.2206006, -946908.9, -15997.157, 0.0, 10.00011, 9.999264 
4.0500742e+2, 2.1500628e+2, -868284.4, -931515.9, 44906.727, -0.019952483, -0.21720432, -844980.44, -12062.712, 0.0, 10.000108, 9.999267 
4.050104e+2, 2.2500555e+2, -757589.4, -862641.6, 36210.848, -0.020658417, -0.1972856, -746317.25, -11392.038, 0.0, 10.000348, 9.998951 
4.0501353e+2, 2.3500483e+2, -589544.8, -731230.0, 28474.592, 0.005214605, -0.17100543, -584036.44, 52897.547, 0.0, 10.00083, 9.998948 
4.0501684e+2, 2.4500354e+2, -509233.34, -685734.7, 47876.293, 0.028517697, -0.17225212, -497083.2, 41863.875, 0.0, 10.000896, 9.998556 
4.0502036e+2, 2.5500178e+2, -460789.6, -610868.6, 61348.684, 0.047408797, -0.21106192, -438903.44, 2060.861, 0.0, 10.000553, 9.998563 
4.0502325e+2, 2.6500055e+2, -324642.4, -460907.84, 25827.912, 0.04950734, -0.2036758, -319911.22, 23065.006, 0.0, 10.000671, 9.998862 
4.0502557e+2, 2.7499992e+2, -140429.7, -321904.56, 6506.74, 0.038004022, -0.15816888, -140196.7, 104785.94, 0.0, 10.001266, 9.9988575 
4.0502822e+2, 2.8499857e+2, -67884.01, -310579.03, 19325.2, 0.024027243, -0.14403051, -66354.83, 80641.04, 0.0, 10.00141, 9.998194 
4.0503114e+2, 2.9499647e+2, -24112.367, -247056.36, 11004.247, 0.00049329543, -0.17644927, -23570.527, 25445.727, 0.0, 10.001073, 9.998119 
4.0503296e+2, 3.049942e+2, -23497.537, -219432.42, -43262.293, -0.07066324, -0.21133941, -14370.415, -14370.415, 0.0, 10.000734, 9.998138 
4.050355e+2, 3.1499243e+2, 75447.98, 51056.715, 13953.475, 0.008303594, -0.21425368, 81784.28, 81784.28, 0.00000001196501, 10.000451, 10.000133 
4.149811e+2, 1.2500891e+2, -1739223.6, -1842458.3, -78458.41, 0.123221524, -0.14609258, -1696925.8, 17966.838, 0.000021697306, 10.000342, 9.998952 
4.1498485e+2, 1.3500781e+2, -1555090.4, -1652682.1, 142087.69, -0.017529547, -0.20321925, -1453653.4, 163252.11, 0.000006740833, 10.000693, 9.999426 
4.1498953e+2, 1.450075e+2, -1437259.9, -1512713.0, 10285.453, 0.021462763, -0.19052693, -1435882.9, 83026.53, 0.0000006540361, 10.0007, 9.9997015 
4.1499195e+2, 1.5500738e+2, -1395027.1, -1442803.0, -16860.191, 0.06443753, -0.1769751, -1389676.4, 31234.125, 0.0000000002364484, 10.000324, 9.999689 
4.1499445e+2, 1.6500713e+2, -1289499.6, -1320007.4, 24240.244, 0.07888832, -0.17791107, -1276113.1, 46798.89, 0.0, 10.000284, 9.999879 
4.1499668e+2, 1.7500685e+2, -1150623.8, -1201775.5, 48158.645, 0.016234253, -0.19772531, -1121670.9, 103242.516, 0.0, 10.000564, 9.999883 
4.1499904e+2, 1.850064e+2, -1098008.9, -1193116.9, 41144.074, -0.019075608, -0.20112252, -1082680.4, 44237.285, 0.0, 10.000543, 9.99928 
4.1500172e+2, 1.9500576e+2, -1042646.4, -1115656.4, 24921.365, -0.008484084, -0.19777577, -1034950.8, -6026.1753, 0.0, 10.00025, 9.99928 
4.1500473e+2, 2.050051e+2, -956720.75, -1008816.1, 39482.49, 0.010123888, -0.19629344, -935467.8, -4537.1104, 0.0, 10.000104, 9.999411 
4.1500804e+2, 2.1500444e+2, -858863.2, -910330.75, 45495.41, 0.029090025, -0.20760994, -832327.9, 607.8952, 0.0, 10.000101, 9.999415 
4.150112e+2, 2.2500347e+2, -771668.2, -890944.4, 53964.164, 0.023757055, -0.21189043, -750877.25, -15931.807, 0.0, 10.000343, 9.998759 
4.150143e+2, 2.3500223e+2, -603506.56, -759134.1, 47573.17, -0.0027228787, -0.21714535, -590116.2, 46843.113, 0.0, 10.000825, 9.998759 
4.150175e+2, 2.4500114e+2, -484871.94, -633605.4, 34609.965, 0.0012434248, -0.20805356, -477212.7, 61757.85, 0.0, 10.00089, 9.998917 
4.150208e+2, 2.5500023e+2, -436116.16, -558993.9, 49003.414, 0.034753993, -0.19635841, -418967.06, 22011.96, 0.0, 10.000549, 9.99892 
4.1502377e+2, 2.6499897e+2, -361084.84, -535534.2, 47568.324, 0.0358236, -0.1846188, -348957.16, -5965.7954, 0.0, 10.000668, 9.998351 
4.1502652e+2, 2.7499744e+2, -178091.56, -396888.44, 30269.496, 0.005210699, -0.17738591, -173981.14, 71025.805, 0.0, 10.001252, 9.998349 
4.1502964e+2, 2.8499573e+2, -87921.234, -349261.66, 6221.6587, 0.021489967, -0.16187754, -87773.195, 59251.293, 0.0, 10.001398, 9.997934 
4.1503304e+2, 2.9499367e+2, -41871.055, -282818.16, -1507.4778, 0.08042722, -0.164138, -41861.625, 7183.7124, 0.0, 10.001069, 9.997875 
4.150343e+2, 3.0499098e+2, -10380.857, -192632.28, -54076.61, -0.009441919, -0.24103111, 4456.513, 4456.513, 0.0, 10.000736, 9.998321 
4.1503575e+2, 3.1498992e+2, 82590.69, 69036.766, 963.05585, -0.013660039, -0.18711971, 82658.77, 82658.77, 0.000000036873733, 10.000439, 10.000261 
4.2498153e+2, 1.2500647e+2, -1671052.0, -1789747.4, -163021.19, 0.11196311, -0.1508736, -1556911.8, 158005.53, 0.000015823704, 10.000728, 9.999127 
4.249853e+2, 1.3500555e+2, -1597868.5, -1651847.1, 117850.78, -0.024744282, -0.21036066, -1503956.1, 112971.68, 0.0000041887733, 10.000306, 9.9996195 
4.2499015e+2, 1.4500552e+2, -1517801.5, -1556885.4, 13181.91, 0.03914812, -0.17583935, -1513771.3, 5157.9834, 0.00000021832761, 10.000171, 9.999654 
4.249922e+2, 1.5500543e+2, -1419804.5, -1459483.4, -7098.975, 0.06476087, -0.15406638, -1418572.6, 2358.3572, 0.0, 10.000175, 9.999646 
4.2499456e+2, 1.6500522e+2, -1295297.0, -1293861.9, 38177.36, 0.07087177, -0.1627194, -1256395.3, 66536.76, 0.0, 10.000122, 10.000135 
4.249969e+2, 1.7500496e+2, -1205818.5, -1199793.9, 34123.293, 0.0077276183, -0.20681019, -1168550.1, 56381.71, 0.0, 10.000063, 10.000137 
4.2499936e+2, 1.8500459e+2, -1149863.9, -1222505.8, 26871.303, -0.022278417, -0.21153475, -1141004.3, -14069.464, 0.0, 10.000206, 9.99924 
4.2500216e+2, 1.9500414e+2, -1001964.6, -1100156.6, 39366.934, -0.0027790733, -0.18612598, -988130.7, 40809.953, 0.0, 10.000548, 9.999242 
4.250052e+2, 2.0500346e+2, -880859.6, -983949.8, 57748.926, 0.017104661, -0.1804066, -854997.8, 75949.8, 0.0, 10.000678, 9.999305 
4.2500836e+2, 2.1500255e+2, -794271.6, -891349.5, 43426.242, 0.030801719, -0.20573258, -777680.94, 55274.7, 0.0, 10.000598, 9.999307 
4.2501163e+2, 2.2500153e+2, -739851.06, -857109.44, 64906.164, 0.026032962, -0.2184009, -711014.9, 23950.525, 0.0, 10.000482, 9.998924 
4.2501494e+2, 2.3500043e+2, -662689.44, -768540.8, 83685.15, 0.0053797252, -0.22483791, -616598.25, 20378.225, 0.0, 10.000337, 9.998929 
4.2501828e+2, 2.449995e+2, -538372.8, -667135.25, 67349.42, 0.0075822864, -0.2061534, -509582.75, 29403.459, 0.0, 10.000556, 9.998847 
4.250216e+2, 2.549987e+2, -355078.84, -527974.4, 48551.49, 0.03135851, -0.17518295, -342377.9, 98616.72, 0.0, 10.001141, 9.998848 
4.250247e+2, 2.6499724e+2, -272329.97, -513252.88, 48428.434, 0.026134131, -0.17045507, -262959.7, 80049.7, 0.0, 10.001365, 9.998169 
4.250276e+2, 2.749952e+2, -195555.1, -424716.03, 54658.594, -0.0056084064, -0.19599561, -183185.8, 61843.977, 0.0, 10.001216, 9.998176 
4.250309e+2, 2.849935e+2, -125541.13, -355363.22, 42591.164, 0.023566542, -0.17718935, -117901.96, 29145.012, 0.0, 10.001087, 9.998042 
4.2503437e+2, 2.949919e+2, -43671.598, -269317.9, 59539.11, 0.10871444, -0.14416073, -28925.281, 20137.584, 0.0, 10.000994, 9.998005 
4.250353e+2, 3.0498895e+2, 21632.578, -193643.56, 15921.131, 0.0029269124, -0.24662277, 22803.684, 22803.684, 0.0, 10.001027, 9.998175 
4.250365e+2, 3.1498826e+2, 159237.16, 59452.633, 38425.465, -0.018667148, -0.14234476, 172319.13, 172319.13, 0.00000007454206, 10.001167, 9.999845 
4.3498164e+2, 1.2500282e+2, -1610684.5, -1665142.5, -191371.66, 0.049792986, -0.17914233, -1444614.4, 270342.4, 0.0000113764345, 10.000731, 9.99998 
4.34986e+2, 1.3500321e+2, -1535116.0, -1524006.1, 104740.54, 0.0134039605, -0.19490887, -1424673.4, 192278.73, 0.0000025044064, 10.000314, 10.000494 
4.3499097e+2, 1.4500389e+2, -1511451.1, -1543397.5, 14138.689, 0.10390023, -0.13729613, -1506092.5, 12852.659, 0.000000047491298, 10.00017, 9.999746 
4.3499202e+2, 1.550035e+2, -1414239.5, -1447398.0, -6542.313, 0.02505771, -0.15297233, -1412995.3, 7954.526, 0.0, 10.000174, 9.99973 
4.3499407e+2, 1.650032e+2, -1303064.3, -1309296.3, 35177.086, 0.007873728, -0.17151862, -1270865.4, 52087.05, 0.0, 10.000119, 10.0000305 
4.3499696e+2, 1.75003e+2, -1212716.8, -1213948.1, 32805.793, 0.004151948, -0.19798133, -1180520.9, 44431.504, 0.0, 10.000062, 10.000041 
4.3499985e+2, 1.8500285e+2, -1125247.3, -1170813.8, 39036.316, 0.0053781443, -0.1940492, -1102831.9, 24121.105, 0.0, 10.000204, 9.999596 
4.35003e+2, 1.9500273e+2, -977870.5, -1048879.1, 52587.055, 0.028227586, -0.17076239, -949924.4, 79029.96, 0.0, 10.000544, 9.999596 
4.350059e+2, 2.0500195e+2, -907178.75, -1036876.56, 54469.66, 0.021878744, -0.17341675, -887338.06, 43624.465, 0.0, 10.00067, 9.998944 
4.350085e+2, 2.1500057e+2, -820581.1, -944341.9, 41364.504, -0.018839026, -0.21124321, -808028.94, 24948.39, 0.0, 10.000591, 9.998946 
4.3501166e+2, 2.2499971e+2, -704481.4, -782355.3, 58793.99, -0.018079937, -0.21607918, -672900.1, 62085.08, 0.0, 10.000476, 9.99944 
4.350155e+2, 2.349994e+2, -626968.3, -693409.4, 78674.23, 0.02660914, -0.19539368, -574788.4, 62197.43, 0.0, 10.000333, 9.999447 
4.350192e+2, 2.4499856e+2, -573751.4, -739407.7, 88893.28, 0.044490065, -0.16748852, -535078.44, 3915.9314, 0.0, 10.000551, 9.998354 
4.3502274e+2, 2.5499716e+2, -390625.2, -600119.0, 71494.16, 0.03219464, -0.14623395, -368552.03, 72459.15, 0.0, 10.001134, 9.998356 
4.3502596e+2, 2.6499537e+2, -262892.3, -492027.47, 42291.15, 0.015986187, -0.16084732, -255335.89, 87694.54, 0.0, 10.001357, 9.998319 
4.3502894e+2, 2.7499318e+2, -185982.8, -403142.4, 49466.223, 0.0009269634, -0.21438098, -175245.88, 69805.41, 0.0, 10.001208, 9.998327 
4.3503198e+2, 2.8499186e+2, -93625.125, -287110.1, 38523.168, 0.025927939, -0.1897367, -86237.195, 60826.336, 0.0, 10.00108, 9.998513 
4.350351e+2, 2.9499114e+2, -10755.974, -198685.92, 57449.65, 0.080550075, -0.11558854, 5414.78, 54483.85, 0.0, 10.000985, 9.998494 
4.3503594e+2, 3.049881e+2, -11795.094, -261844.52, 20238.225, -0.038062967, -0.22807781, -10167.666, -10167.666, 0.0, 10.001022, 9.997708 
4.350377e+2, 3.1498724e+2, 92060.055, -77831.44, 39704.773, -0.019119017, -0.090572245, 100881.3, 100881.3, 0.0000001100893, 10.001158, 9.998905 
4.4498178e+2, 1.250006e+2, -1729030.8, -1711436.9, -116268.01, 0.03128671, -0.18089959, -1603633.5, 111346.12, 0.000008277144, 9.999877, 10.0000725 
4.4498622e+2, 1.350012e+2, -1569942.1, -1530004.8, 130367.7, 0.022667972, -0.1862969, -1418085.3, 198888.13, 0.0000015575915, 10.00003, 10.00059 
4.449915e+2, 1.4500219e+2, -1485648.4, -1502312.0, 25948.139, 0.1334843, -0.11629638, -1466727.1, 52236.086, 0.000000013935479, 10.000224, 10.000002 
4.4499198e+2, 1.5500182e+2, -1367274.1, -1395498.4, 14113.15, -0.0023323342, -0.15646258, -1361427.9, 59538.54, 0.0, 10.000371, 9.99999 
4.4499394e+2, 1.6500153e+2, -1282147.1, -1315855.8, 54432.78, -0.027441882, -0.17730077, -1242019.0, 80949.67, 0.0, 10.000336, 9.999882 
4.449971e+2, 1.7500138e+2, -1213464.9, -1230223.8, 48059.35, 0.010215764, -0.18339741, -1173059.9, 51909.24, 0.0, 10.000128, 9.999896 
4.4500017e+2, 1.8500127e+2, -1134655.0, -1154103.1, 60017.94, 0.024827376, -0.17994158, -1083578.4, 43391.273, 0.0, 10.00005, 9.9997835 
4.450034e+2, 1.950011e+2, -1027599.7, -1051733.3, 59792.684, 0.032477517, -0.17905669, -978668.4, 50302.324, 0.0, 10.000112, 9.999784 
4.4500637e+2, 2.0500046e+2, -955918.1, -1062890.5, 67760.09, 0.018274952, -0.1778159, -923078.2, 7899.4644, 0.0, 10.000347, 9.998921 
4.4500908e+2, 2.1499936e+2, -798377.4, -935922.8, 79014.97, -0.023264995, -0.18447393, -762397.75, 70592.6, 0.0, 10.000754, 9.998924 
4.4501236e+2, 2.2499853e+2, -637336.3, -751225.75, 80867.5, -0.020137863, -0.18263867, -595375.75, 139622.22, 0.0, 10.000944, 9.999428 
4.4501615e+2, 2.3499802e+2, -543252.4, -654966.4, 59755.48, 0.029513245, -0.18129535, -517312.53, 119687.82, 0.0, 10.000916, 9.999431 
4.4501993e+2, 2.4499707e+2, -535204.06, -727975.2, 79462.555, 0.048341405, -0.16144638, -506671.75, 32338.291, 0.0, 10.000846, 9.99829 
4.450237e+2, 2.5499567e+2, -452716.3, -636222.7, 93063.445, 0.033557784, -0.13610654, -413781.13, 27246.012, 0.0, 10.000734, 9.998301 
4.4502705e+2, 2.6499397e+2, -341017.6, -511373.97, 72667.87, 0.019271929, -0.14557865, -314231.75, 28813.586, 0.0, 10.000742, 9.998482 
4.4503006e+2, 2.7499202e+2, -222685.22, -403215.06, 79444.25, 0.011104653, -0.19193102, -192703.95, 52359.9, 0.0, 10.000878, 9.9984865 
4.4503316e+2, 2.849908e+2, -86182.68, -288872.66, 56915.184, 0.03201144, -0.16277194, -71294.516, 75780.63, 0.0, 10.001153, 9.998467 
4.4503626e+2, 2.9499006e+2, 69925.414, -161310.25, 35690.547, 0.072471306, -0.08832204, 75308.81, 124389.98, 0.0, 10.001546, 9.99848 
4.45037e+2, 3.0498698e+2, 89346.94, -194227.03, -1653.2505, -0.062413298, -0.2105564, 89356.58, 89356.58, 0.00000000000009396187, 10.001635, 9.997879 
4.4503886e+2, 3.149862e+2, 103735.484, -106873.414, 53542.69, -0.030087346, -0.07957785, 116565.9, 116565.9, 0.00000013361628, 10.001386, 9.998598 
4.5498183e+2, 1.2499981e+2, -1775058.3, -1808843.0, -121112.62, 0.047611337, -0.15982409, -1669665.6, 45320.145, 0.0000061456926, 9.9998865, 9.999399 
4.5498607e+2, 1.3499948e+2, -1619287.4, -1632500.5, 138262.11, -0.00074828014, -0.18612221, -1487474.1, 129517.97, 0.0000010596042, 10.000028, 9.999889 
4.549916e+2, 1.4500037e+2, -1457383.1, -1441780.6, 32900.484, 0.12174599, -0.11379279, -1415769.1, 103214.375, 0.000000007555667, 10.0002165, 10.000422 
4.5499215e+2, 1.5500031e+2, -1337130.0, -1333299.1, 21237.125, -0.02313287, -0.16306283, -1313891.3, 107089.64, 0.0, 10.000374, 10.000416 
4.5499417e+2, 1.6500022e+2, -1294168.6, -1341924.6, 45497.387, -0.04030043, -0.17841706, -1266664.0, 56316.645, 0.0, 10.00034, 9.999701 
4.5499733e+2, 1.750001e+2, -1227387.8, -1257969.5, 40791.875, 0.023145938, -0.16363223, -1199115.0, 25867.234, 0.0, 10.000123, 9.999708 
4.550003e+2, 1.849998e+2, -1134461.0, -1151877.8, 62169.348, 0.03238933, -0.17043456, -1080393.0, 46592.09, 0.0, 10.000042, 9.999802 
4.5500323e+2, 1.9499923e+2, -1026839.1, -1049091.5, 62826.598, 0.0054793684, -0.21060461, -974161.1, 54828.5, 0.0, 10.000108, 9.999804 
4.5500657e+2, 2.0499893e+2, -934610.06, -1017346.9, 82389.96, 0.0015956372, -0.19264627, -883786.0, 47206.9, 0.0, 10.00034, 9.999237 
4.5501027e+2, 2.1499889e+2, -776568.56, -889696.25, 95168.47, 0.014622987, -0.125734, -722423.3, 110571.51, 0.0, 10.00075, 9.999244 
4.5501366e+2, 2.24998e+2, -676731.1, -831228.94, 79401.195, 0.01710579, -0.11855178, -643201.25, 91802.664, 0.0, 10.000937, 9.998882 
4.5501688e+2, 2.349963e+2, -582150.56, -734857.7, 59254.582, 0.010983097, -0.18123277, -561855.44, 75164.73, 0.0, 10.000912, 9.998883 
4.5502046e+2, 2.4499501e+2, -510323.88, -675273.75, 74561.414, 0.01588196, -0.18689123, -481616.44, 57416.707, 0.0, 10.000841, 9.998654 
4.5502442e+2, 2.5499412e+2, -428298.6, -582879.0, 89202.54, 0.03154156, -0.14593734, -387559.7, 53483.098, 0.0, 10.000724, 9.9986725 
4.5502794e+2, 2.6499298e+2, -329778.56, -486417.53, 77397.734, 0.032683045, -0.12523365, -297987.4, 45067.063, 0.0, 10.000734, 9.998657 
4.5503104e+2, 2.7499166e+2, -211028.05, -378877.88, 85688.52, 0.020008206, -0.12834047, -175011.67, 70056.04, 0.0, 10.000877, 9.998654 
4.5503438e+2, 2.8499022e+2, -125837.43, -369962.3, 70808.46, 0.037149444, -0.09668112, -106786.164, 40295.84, 0.0, 10.001148, 9.997912 
4.5503786e+2, 2.9498854e+2, 31844.746, -237441.02, 51193.46, 0.0788722, -0.06140957, 41248.65, 90347.836, 0.0, 10.0015335, 9.997964 
4.5503855e+2, 3.0498552e+2, 143330.72, -78822.4, -11240.053, -0.07461449, -0.19518848, 143897.97, 143897.97, 0.00000000000087855477, 10.001622, 9.998676 
4.5503992e+2, 3.1498507e+2, 125406.68, -59014.285, 35154.063, -0.063041046, -0.10991562, 131880.45, 131880.45, 0.00000014519496, 10.001375, 9.99893 
4.6498185e+2, 1.2499893e+2, -1804958.8, -1816963.5, -139285.05, 0.070285924, -0.13023035, -1671546.8, 43448.11, 0.000004581255, 9.999659, 9.999451 
4.6498567e+2, 1.349984e+2, -1670757.8, -1654704.4, 181642.94, -0.024637152, -0.18084142, -1480910.9, 136091.78, 0.0000007444035, 9.999662, 9.999914 
4.6499157e+2, 1.4499919e+2, -1528369.0, -1492259.0, 88503.24, 0.120406955, -0.11026421, -1419987.9, 99007.06, 0.0000000034677494, 9.999801, 10.000276 
4.6499243e+2, 1.5499891e+2, -1401925.5, -1380030.3, 31347.12, -0.013009865, -0.168504, -1357774.1, 63221.168, 0.0, 9.999996, 10.0002775 
4.6499455e+2, 1.649988e+2, -1314971.3, -1345597.6, 37182.836, -0.029086856, -0.1824705, -1290071.8, 32923.707, 0.0, 10.000171, 9.999757 
4.6499762e+2, 1.7499885e+2, -1191085.9, -1234164.8, 49597.277, 0.027383972, -0.15611662, -1158552.9, 66442.19, 0.0, 10.000344, 9.999765 
4.650005e+2, 1.8499856e+2, -1088307.6, -1142510.5, 78233.195, 0.02991343, -0.15862049, -1032614.6, 94383.37, 0.0, 10.000415, 9.999687 
4.650034e+2, 1.9499786e+2, -992623.5, -1045507.75, 68323.89, -0.0047407285, -0.20038487, -945803.5, 83200.93, 0.0, 10.000399, 9.999688 
4.6500686e+2, 2.0499755e+2, -911263.8, -977099.5, 87779.11, -0.003651977, -0.18884158, -850433.3, 80573.87, 0.0, 10.000378, 9.9994955 
4.6501088e+2, 2.1499766e+2, -817944.0, -880817.56, 94131.48, 0.025338115, -0.13238421, -750138.6, 82867.35, 0.0, 10.000342, 9.9995 
4.6501446e+2, 2.2499679e+2, -753109.94, -900102.25, 87860.96, 0.02189032, -0.12249631, -712058.1, 22957.06, 0.0, 10.000548, 9.998598 
4.6501762e+2, 2.3499498e+2, -590895.94, -770333.44, 86734.51, -0.0119972145, -0.16854434, -555825.56, 81209.21, 0.0, 10.000987, 9.998604 
4.6502116e+2, 2.4499369e+2, -441121.6, -603436.7, 100404.336, -0.0148981055, -0.1780777, -393176.16, 145871.66, 0.0, 10.001152, 9.998998 
4.650251e+2, 2.549929e+2, -356953.84, -510934.06, 111767.83, 0.012579976, -0.161725, -298225.4, 142828.9, 0.0, 10.001051, 9.999009 
4.650287e+2, 2.6499185e+2, -278457.63, -475289.5, 101169.38, 0.017591987, -0.14141585, -235732.0, 107332.31, 0.0, 10.001146, 9.998535 
4.65032e+2, 2.7499062e+2, -139025.16, -356959.7, 85581.945, 0.0015424213, -0.12230925, -109435.1, 135642.34, 0.0, 10.00143, 9.998537 
4.650356e+2, 2.8498906e+2, -89368.93, -368397.78, 72273.71, 0.025987353, -0.09409786, -71759.95, 75334.02, 0.0, 10.001467, 9.997769 
4.6503934e+2, 2.94987e+2, -17496.527, -275440.5, 82329.73, 0.08657905, -0.082241684, 6541.149, 55656.41, 0.0, 10.001254, 9.997839 
4.6504006e+2, 3.0498436e+2, 127519.24, -49151.14, 17762.066, -0.06786064, -0.18745776, 129287.31, 129287.31, 0.00000000000042122027, 10.00135, 9.999013 
4.650414e+2, 3.1498373e+2, 168815.47, -40855.984, 16474.582, -0.06618698, -0.15195209, 170102.05, 170102.05, 0.00000014428599, 10.001682, 9.998908 
4.749817e+2, 1.2499794e+2, -1750708.8, -1703646.0, -147722.45, 0.086675756, -0.091645055, -1577592.5, 137414.7, 0.0000033199578, 9.999653, 10.000232 
4.7498497e+2, 1.3499792e+2, -1616315.1, -1544801.3, 184803.13, -0.057700727, -0.1667694, -1392327.6, 224677.45, 0.00000048107097, 9.999673, 10.000665 
4.7499138e+2, 1.4499868e+2, -1575554.6, -1594111.3, 95802.016, 0.121301204, -0.101652674, -1488582.6, 30414.637, 0.000000000765976, 9.999816, 9.99957 
4.7499284e+2, 1.5499757e+2, -1452280.1, -1483032.3, 39115.14, 0.025760734, -0.17382424, -1425627.4, -4617.5913, 0.0, 9.9999895, 9.999574 
4.7499505e+2, 1.649972e+2, -1295169.9, -1303088.4, 43545.8, 0.0032992582, -0.1902975, -1255403.8, 67609.62, 0.0, 10.000165, 10.0000515 
4.7499788e+2, 1.7499761e+2, -1169988.5, -1190329.3, 57169.53, 0.015344275, -0.15957017, -1122091.8, 102915.82, 0.0, 10.000345, 10.000066 
4.7500074e+2, 1.8499754e+2, -1104771.3, -1177360.0, 76748.0, 0.009600713, -0.14201576, -1056168.4, 70839.75, 0.0, 10.000418, 9.999447 
4.7500384e+2, 1.9499697e+2, -1009323.75, -1080417.9, 68497.11, 0.000051965126, -0.14921609, -967699.25, 61315.992, 0.0, 10.000399, 9.999449 
4.750073e+2, 2.0499633e+2, -899755.3, -951008.75, 86091.54, -0.00005821925, -0.16697177, -835557.3, 95463.266, 0.0, 10.000368, 9.999679 
4.7501105e+2, 2.1499568e+2, -805582.0, -854302.1, 93379.58, 0.0044888086, -0.2042606, -733437.4, 99586.58, 0.0, 10.000339, 9.999684 
4.750147e+2, 2.249949e+2, -755220.9, -902847.56, 103451.086, -0.010819341, -0.19403048, -701949.44, 33082.55, 0.0, 10.000541, 9.998583 
4.750183e+2, 2.3499404e+2, -592501.56, -771978.2, 103928.92, -0.042688645, -0.144741, -544929.3, 92115.16, 0.0, 10.000979, 9.998596 
4.7502196e+2, 2.4499306e+2, -420731.97, -559252.7, 95902.555, -0.047583554, -0.13636537, -371694.8, 167359.48, 0.0, 10.001143, 9.999306 
4.7502574e+2, 2.5499195e+2, -335878.66, -466874.38, 108358.23, -0.027562171, -0.18175055, -274761.06, 166300.69, 0.0, 10.001049, 9.999312 
4.7502938e+2, 2.6499057e+2, -307930.7, -535960.25, 111200.63, -0.029499823, -0.19228436, -262681.7, 80393.16, 0.0, 10.001143, 9.99812 
4.7503293e+2, 2.7498892e+2, -169097.4, -416667.9, 96694.945, -0.04881642, -0.17369962, -135807.19, 109285.984, 0.0, 10.001418, 9.998134 
4.750367e+2, 2.8498718e+2, -72280.32, -330441.9, 63708.516, -0.005558914, -0.15444338, -57414.508, 89696.71, 0.0, 10.001456, 9.998035 
4.7504064e+2, 2.9498532e+2, 1237.8308, -235943.27, 76455.664, 0.090381145, -0.1506345, 23747.201, 72876.79, 0.0, 10.001251, 9.998111 
4.7504166e+2, 3.0498344e+2, 118326.88, -66379.53, 29790.557, -0.047084384, -0.18953668, 123012.805, 123012.805, 0.0, 10.001344, 9.998897 
4.7504327e+2, 3.149822e+2, 141883.89, -93049.03, 21161.723, -0.051009685, -0.19891445, 143774.83, 143774.83, 0.00000012581201, 10.001668, 9.998556 
4.8498106e+2, 1.24996245e+2, -1833901.3, -1710800.1, -173571.22, 0.093406044, -0.083371535, -1588189.3, 126835.62, 0.0000022837717, 9.998945, 10.000522 
4.8498437e+2, 1.3499625e+2, -1633472.0, -1526438.9, 123637.266, -0.07387424, -0.18017045, -1445232.8, 171788.42, 0.0000002759338, 9.999438, 10.000904 
4.849913e+2, 1.4499724e+2, -1587886.6, -1606898.3, 35778.805, 0.13141656, -0.09996877, -1560372.4, -41361.273, 0.000000000009128432, 9.999763, 9.999508 
4.849927e+2, 1.5499637e+2, -1484008.5, -1505630.9, 24408.088, 0.024829775, -0.14222725, -1468124.4, -47101.766, 0.0, 9.999803, 9.99951 
4.84995e+2, 1.6499601e+2, -1342203.4, -1316025.6, 46594.64, 0.0015425499, -0.15862139, -1280716.4, 42309.996, 0.0, 9.999801, 10.000137 
4.8499805e+2, 1.7499623e+2, -1241579.0, -1215407.9, 42949.023, 0.02692858, -0.156011, -1183595.3, 41426.555, 0.0, 9.999813, 10.00015 
4.8500103e+2, 1.8499617e+2, -1164788.9, -1205069.4, 67570.31, 0.020888543, -0.14161068, -1114421.1, 12600.845, 0.0, 9.999998, 9.999459 
4.8500413e+2, 1.9499585e+2, -1017026.9, -1082592.1, 76982.664, -0.006864645, -0.124566495, -966137.4, 62889.453, 0.0, 10.000339, 9.999463 
4.8500758e+2, 2.0499517e+2, -871743.9, -948476.6, 91998.33, -0.017377118, -0.14329661, -810432.44, 120600.43, 0.0, 10.000606, 9.999583 
4.850114e+2, 2.1499416e+2, -745588.25, -836047.75, 77888.39, -0.014231936, -0.20686547, -700749.56, 132290.34, 0.0, 10.000796, 9.999591 
4.8501512e+2, 2.2499344e+2, -709985.8, -842376.1, 89624.195, -0.026462754, -0.20422181, -664761.5, 70285.39, 0.0, 10.000687, 9.998926 
4.850188e+2, 2.3499301e+2, -670673.3, -771477.8, 114571.1, -0.053318236, -0.14419533, -595908.0, 41145.7, 0.0, 10.0002775, 9.998937 
4.8502263e+2, 2.4499215e+2, -546491.2, -643366.9, 110645.41, -0.055911433, -0.13053472, -474145.66, 64916.69, 0.0, 10.0003805, 9.999096 
4.8502666e+2, 2.5499085e+2, -359509.16, -501275.97, 83133.52, -0.03632896, -0.17572339, -321142.22, 119930.836, 0.0, 10.000987, 9.999105 
4.8503053e+2, 2.6498938e+2, -278658.53, -512307.5, 82495.92, -0.03767954, -0.18769461, -252467.14, 90620.02, 0.0, 10.001305, 9.998205 
4.8503423e+2, 2.7498776e+2, -175919.33, -411247.28, 104210.38, -0.055476, -0.1745234, -136406.3, 108698.3, 0.0, 10.001332, 9.998213 
4.85038e+2, 2.8498596e+2, -59007.754, -301468.6, 82869.125, -0.02147952, -0.17364722, -33390.953, 113731.35, 0.0, 10.001451, 9.998238 
4.8504174e+2, 2.9498407e+2, 74761.33, -177268.31, 88912.54, 0.05508639, -0.19355002, 102970.94, 152111.14, 0.0, 10.0016575, 9.998318 
4.8504314e+2, 3.0498284e+2, 185575.58, -62133.688, 47071.85, -0.06014047, -0.16544738, 194218.98, 194218.98, 0.0, 10.001926, 9.998646 
4.8504558e+2, 3.1498107e+2, 198973.52, -93621.64, 16249.999, -0.009914793, -0.20282431, 199873.23, 199873.23, 0.00000009052117, 10.00218, 9.998307 
4.9497983e+2, 1.2499382e+2, -1848746.5, -1743219.6, -159637.05, 0.073990755, -0.10476382, -1627852.3, 87195.664, 0.0000015131136, 9.998952, 10.000296 
4.9498382e+2, 1.3499331e+2, -1654351.5, -1568426.0, 143721.63, -0.07403194, -0.22271174, -1461383.1, 155668.5, 0.00000014199817, 9.999431, 10.000621 
4.9499124e+2, 1.4499483e+2, -1547411.9, -1521969.3, 38271.242, 0.14795859, -0.105296426, -1494360.4, 24676.451, 0.0, 9.999757, 10.000093 
4.9499205e+2, 1.5499534e+2, -1442118.9, -1419345.0, 26883.367, -0.02531307, -0.06973053, -1401536.4, 19497.25, 0.0, 9.999805, 10.0001 
4.9499434e+2, 1.6499525e+2, -1349630.1, -1334106.8, 45485.47, -0.04437368, -0.08162856, -1295725.5, 27308.809, 0.0, 9.999811, 10.000009 
4.949982e+2, 1.7499468e+2, -1250627.5, -1234441.8, 44087.23, 0.06070815, -0.1461923, -1197710.8, 27327.332, 0.0, 9.999814, 10.000019 
4.9500147e+2, 1.8499441e+2, -1147264.8, -1167248.3, 80179.8, 0.061637796, -0.15764724, -1076456.5, 50583.21, 0.0, 9.999991, 9.9997225 
4.9500424e+2, 1.949945e+2, -998466.2, -1044043.0, 90371.234, -0.030562537, -0.12663199, -928054.44, 100984.91, 0.0, 10.000338, 9.999728 
4.9500775e+2, 2.0499405e+2, -898014.8, -1001648.0, 98429.43, -0.061608095, -0.118085094, -838596.06, 92448.01, 0.0, 10.0006, 9.999222 
4.9501202e+2, 2.1499307e+2, -771486.6, -888797.25, 86129.22, -0.03348559, -0.14207177, -725936.94, 107116.86, 0.0, 10.000791, 9.999231 
4.950158e+2, 2.2499235e+2, -663600.25, -744023.56, 73584.086, -0.029055538, -0.15465757, -619957.3, 115102.62, 0.0, 10.000677, 9.999606 
4.9501914e+2, 2.349919e+2, -623195.56, -672899.25, 99607.67, -0.047189362, -0.16569205, -545386.25, 91676.09, 0.0, 10.0002775, 9.999615 
4.9502316e+2, 2.4499094e+2, -597509.8, -748553.2, 132805.66, -0.04367503, -0.159319, -520254.3, 18817.58, 0.0, 10.000378, 9.998375 
4.9502787e+2, 2.549895e+2, -410710.34, -605905.1, 106653.71, -0.018047383, -0.144725, -363738.5, 77349.82, 0.0, 10.000979, 9.998391 
4.950321e+2, 2.6498824e+2, -239691.94, -429638.56, 82927.086, -0.011886154, -0.12927932, -208582.61, 134518.89, 0.0, 10.001298, 9.9987755 
4.950359e+2, 2.7498713e+2, -136840.08, -329095.4, 105964.5, -0.023727082, -0.1261721, -89897.82, 155214.03, 0.0, 10.001328, 9.998779 
4.9503943e+2, 2.8498542e+2, -51136.297, -283388.72, 89996.914, -0.025847968, -0.1521849, -20345.045, 126782.31, 0.0, 10.001443, 9.998365 
4.9504262e+2, 2.9498324e+2, 82858.33, -157767.6, 98506.75, -0.02373992, -0.20915084, 118040.67, 167187.75, 0.0, 10.001646, 9.998457 
4.9504456e+2, 3.0498257e+2, 157111.9, -118317.82, 56499.902, -0.11068316, -0.11398889, 168251.4, 168251.4, 0.0, 10.001915, 9.998264 
4.9504837e+2, 3.149804e+2, 186861.16, -115605.945, 17631.313, 0.04584632, -0.15939689, 187885.44, 187885.44, 0.000000050936965, 10.002169, 9.99816 
5.049784e+2, 1.24991395e+2, -1950182.0, -1790516.8, -142112.89, 0.06991234, -0.123358935, -1707348.4, 7722.173, 0.0000009949754, 9.998254, 10.000306 
5.049829e+2, 1.3499087e+2, -1736660.3, -1613653.6, 180744.0, -0.08342637, -0.23896086, -1484235.4, 132840.05, 0.000000065122016, 9.998888, 10.000574 
5.04991e+2, 1.4499256e+2, -1596628.0, -1509222.0, 58406.082, 0.17337301, -0.118547246, -1479978.4, 39080.754, 0.0, 9.999262, 10.00042 
5.049917e+2, 1.5499334e+2, -1483351.5, -1403005.6, 23130.137, -0.015004705, -0.08744709, -1396822.8, 24229.41, 0.0, 9.999366, 10.000425 
5.0499403e+2, 1.649934e+2, -1382869.1, -1356559.8, 39675.695, -0.049654696, -0.09741127, -1327914.9, -4863.655, 0.0, 9.999609, 9.999953 
5.049979e+2, 1.7499287e+2, -1232630.3, -1232085.9, 42865.44, 0.04191517, -0.15201876, -1189491.8, 35563.668, 0.0, 9.999963, 9.999965 
5.050013e+2, 1.8499263e+2, -1140329.6, -1151139.6, 72582.61, 0.045255736, -0.16462001, -1072951.0, 54105.99, 0.0, 9.999984, 9.999838 
5.050042e+2, 1.949927e+2, -1082980.5, -1071849.8, 70449.6, -0.030763758, -0.14538272, -1006746.06, 22309.793, 0.0, 9.9997015, 9.999845 
5.050079e+2, 2.0499235e+2, -1032186.75, -1067498.4, 93840.44, -0.059836857, -0.13198523, -954355.6, -23295.988, 0.0, 9.999681, 9.999212 
5.050122e+2, 2.1499161e+2, -900258.25, -951911.2, 105984.75, -0.045998406, -0.1336313, -816998.6, 16069.481, 0.0, 9.999909, 9.999223 
5.0501615e+2, 2.249909e+2, -717464.4, -775110.56, 77138.74, -0.04390515, -0.14144601, -663939.7, 71134.766, 0.0, 10.000328, 9.999562 
5.050197e+2, 2.3499028e+2, -530417.4, -633037.4, 47744.402, -0.051870253, -0.16578586, -511639.97, 125438.66, 0.0, 10.0009365, 9.999571 
5.0502384e+2, 2.449893e+2, -482543.13, -684007.6, 88238.35, -0.047249917, -0.16394384, -449361.25, 89726.99, 0.0, 10.001128, 9.998456 
5.0502867e+2, 2.5498798e+2, -415122.6, -599032.1, 121006.8, -0.030731687, -0.14511739, -355096.03, 86007.14, 0.0, 10.000911, 9.998472 
5.05033e+2, 2.6498684e+2, -293717.72, -451472.72, 105482.95, -0.031714365, -0.12386276, -240882.23, 102232.86, 0.0, 10.000909, 9.998813 
5.050369e+2, 2.749858e+2, -165089.13, -338749.66, 86144.27, -0.049352672, -0.11539372, -129606.97, 115517.66, 0.0, 10.001119, 9.998812 
5.050405e+2, 2.8498408e+2, -62611.09, -279668.84, 52568.582, -0.0522672, -0.14928517, -50549.863, 96590.51, 0.0, 10.001325, 9.998447 
5.05044e+2, 2.9498184e+2, 67820.664, -156682.92, 57001.92, -0.043802004, -0.22150989, 81464.4, 130625.17, 0.0, 10.001507, 9.998532 
5.050465e+2, 3.0498147e+2, 150639.83, -140258.75, 32407.84, -0.10803925, -0.090548374, 154206.52, 154206.52, 0.0, 10.001952, 9.998096 
5.0505084e+2, 3.1497878e+2, 268197.9, -52869.82, -3570.7566, 0.05616112, -0.16512442, 268237.63, 268237.63, 0.000000020855737, 10.002625, 9.998372 
5.149767e+2, 1.2498893e+2, -1933562.0, -1754104.8, -122384.73, 0.07022183, -0.14052188, -1692079.5, 23013.771, 0.00000067894854, 9.998244, 10.000561 
5.149815e+2, 1.3498895e+2, -1720679.8, -1582309.6, 206457.61, -0.11161434, -0.223278, -1433753.3, 183339.1, 0.000000029496794, 9.998894, 10.000787 
5.1499045e+2, 1.4499046e+2, -1592520.0, -1503438.3, 61062.45, 0.19485283, -0.13293752, -1472398.0, 46679.313, 0.0, 9.999272, 10.000455 
5.1499176e+2, 1.5499033e+2, -1480571.6, -1397283.4, 27375.398, 0.05312593, -0.1965386, -1389091.4, 31987.129, 0.0, 9.999365, 10.000464 
5.1499397e+2, 1.6499045e+2, -1380876.1, -1351550.1, 52246.863, -0.016734084, -0.20668831, -1311947.6, 11129.761, 0.0, 9.999605, 9.9999895 
5.149971e+2, 1.7499083e+2, -1229514.6, -1226371.4, 56745.375, -0.03563904, -0.17288813, -1171175.9, 53898.156, 0.0, 9.999966, 10.000002 
5.1500046e+2, 1.8499084e+2, -1142342.6, -1156289.4, 60832.664, -0.036477715, -0.16063975, -1088085.0, 38988.766, 0.0, 9.999988, 9.999801 
5.1500416e+2, 1.9499049e+2, -1085642.3, -1077319.5, 60457.934, -0.010106054, -0.1811917, -1020879.9, 8196.612, 0.0, 9.999701, 9.999808 
5.1500803e+2, 2.0499012e+2, -1010090.0, -1019336.5, 101798.79, -0.015309522, -0.1850978, -912809.5, 18270.098, 0.0, 9.999672, 9.999548 
5.150121e+2, 2.1498975e+2, -877050.06, -903380.3, 115228.78, -0.055544514, -0.18179695, -774236.75, 58846.234, 0.0, 9.9999075, 9.9995575 
5.150162e+2, 2.2498907e+2, -771688.1, -886289.06, 99402.06, -0.07513553, -0.16505349, -714253.6, 20837.008, 0.0, 10.000322, 9.998801 
5.1502043e+2, 2.3498811e+2, -584305.8, -743920.56, 71590.234, -0.07075952, -0.14568505, -556901.4, 80201.13, 0.0, 10.000931, 9.998813 
5.150248e+2, 2.4498716e+2, -422424.28, -557766.56, 79202.16, -0.071707726, -0.14651355, -385920.72, 153190.86, 0.0, 10.001122, 9.999326 
5.1502913e+2, 2.5498623e+2, -354862.25, -472960.84, 113273.7, -0.07805307, -0.17693035, -286170.6, 154947.13, 0.0, 10.000906, 9.99934 
5.1503325e+2, 2.6498514e+2, -329618.34, -524757.0, 112988.85, -0.099527314, -0.17025475, -277901.84, 65226.105, 0.0, 10.000903, 9.998312 
5.150371e+2, 2.7498376e+2, -200599.63, -411475.47, 95150.195, -0.13564856, -0.141019, -164013.9, 81129.0, 0.0, 10.001114, 9.998315 
5.150413e+2, 2.8498194e+2, -61296.227, -275051.44, 58991.29, -0.105922155, -0.16517414, -46096.83, 101064.625, 0.0, 10.001317, 9.998483 
5.150458e+2, 2.9497978e+2, 68035.57, -154297.45, 65504.004, -0.012443862, -0.23348694, 85899.164, 135080.73, 0.0, 10.001499, 9.998552 
5.150489e+2, 3.049795e+2, 151700.1, -135358.98, 57166.813, -0.058320303, -0.09616026, 162665.77, 162665.77, 0.0, 10.001942, 9.998136 
5.150531e+2, 3.1497642e+2, 303915.22, 25744.18, 16257.122, 0.015241683, -0.21774569, 304862.13, 304862.13, 0.0000000053166334, 10.002607, 9.998921 
5.249751e+2, 1.2498639e+2, -1861670.8, -1698220.9, -125405.22, 0.07017605, -0.14660083, -1630261.4, 84855.586, 0.0000005002885, 9.998651, 10.000746 
5.2498007e+2, 1.349866e+2, -1779295.5, -1596320.0, 192405.11, -0.12039477, -0.2257142, -1474759.1, 142355.31, 0.000000016983103, 9.998429, 10.000915 
5.2498955e+2, 1.4498813e+2, -1690575.6, -1545232.4, 48597.957, 0.21003793, -0.1395705, -1530480.3, -11381.388, 0.0, 9.998575, 10.0005045 
5.2499086e+2, 1.5498798e+2, -1531260.5, -1415995.3, 13987.377, 0.042073596, -0.21128246, -1414322.3, 6778.0703, 0.0, 9.998993, 10.000516 
5.249932e+2, 1.6498815e+2, -1442083.6, -1375841.4, 38018.457, -0.035193905, -0.22086294, -1358540.1, -35441.242, 0.0, 9.999161, 10.000038 
5.2499664e+2, 1.7498866e+2, -1348156.4, -1278739.9, 41021.113, -0.035954654, -0.17758259, -1259713.6, -34619.105, 0.0, 9.999128, 10.000048 
5.2500033e+2, 1.849887e+2, -1221995.5, -1197003.4, 48060.01, -0.026025033, -0.16379543, -1159841.5, -32747.326, 0.0, 9.99945, 9.999781 
5.2500415e+2, 1.9498828e+2, -1027893.75, -1051488.1, 47400.332, -0.0013097244, -0.18903923, -990844.6, 38252.9, 0.0, 10.000106, 9.99979 
5.250081e+2, 2.0498787e+2, -906552.2, -960031.2, 75776.664, -0.015097614, -0.20018278, -852935.56, 78165.24, 0.0, 10.000342, 9.999631 
5.2501196e+2, 2.1498749e+2, -833843.06, -872800.6, 68648.23, -0.06951182, -0.20581275, -781963.56, 51140.234, 0.0, 10.000164, 9.999642 
5.2501625e+2, 2.2498685e+2, -797009.6, -913873.7, 83813.67, -0.093497664, -0.18424357, -753270.06, -18158.658, 0.0, 10.000215, 9.998665 
5.25021e+2, 2.3498593e+2, -656917.44, -793793.56, 101531.414, -0.08552834, -0.14769945, -602912.06, 34211.77, 0.0, 10.000497, 9.99868 
5.2502555e+2, 2.44985e+2, -468394.3, -568687.06, 88871.49, -0.08509049, -0.1455286, -416497.56, 122635.305, 0.0, 10.000758, 9.999427 
5.250299e+2, 2.5498408e+2, -335103.0, -452131.78, 63535.945, -0.092107244, -0.18587509, -307241.75, 133896.52, 0.0, 10.000994, 9.99944 
5.250342e+2, 2.6498294e+2, -282982.53, -494934.22, 63224.773, -0.111129716, -0.18790391, -265555.56, 77592.47, 0.0, 10.001191, 9.998378 
5.2503824e+2, 2.7498156e+2, -162699.23, -385109.84, 87056.516, -0.1412126, -0.16853908, -132676.16, 112486.78, 0.0, 10.001341, 9.998387 
5.250428e+2, 2.8497967e+2, -44784.965, -289612.38, 65727.05, -0.1054487, -0.19008318, -28255.662, 118926.484, 0.0, 10.001528, 9.998281 
5.250475e+2, 2.9497752e+2, 88981.4, -169078.19, 51980.574, -0.0059954077, -0.23943454, 99058.28, 148261.64, 0.0, 10.001751, 9.998329 
5.250512e+2, 3.0497694e+2, 159810.3, -144843.72, 42021.684, -0.037756335, -0.11375129, 165500.19, 165500.19, 0.0, 10.002054, 9.998015 
5.250555e+2, 3.149736e+2, 299765.44, 64394.484, -18322.623, 0.008771446, -0.24971125, 301183.25, 301183.25, 0.00000000056215, 10.002402, 9.999286 
5.3497356e+2, 1.2498382e+2, -1854742.0, -1687702.5, -134106.39, 0.048594125, -0.13896742, -1613234.6, 101906.625, 0.00000041209, 9.998666, 10.000812 
5.3497857e+2, 1.349837e+2, -1777384.1, -1594246.6, 184415.89, -0.1123173, -0.24735418, -1479917.1, 137224.72, 0.000000018082496, 9.998434, 10.000928 
5.349882e+2, 1.4498554e+2, -1684959.1, -1532446.8, 63532.85, 0.21561064, -0.13934526, -1509448.5, 9675.579, 0.0, 9.99857, 10.000594 
5.349888e+2, 1.5498628e+2, -1525021.0, -1403091.4, 29991.4, -0.055755664, -0.13025323, -1396113.6, 25003.88, 0.0, 9.998994, 10.000603 
5.349915e+2, 1.6498654e+2, -1438270.5, -1369271.9, 35160.656, -0.114302486, -0.13696028, -1354511.9, -31396.607, 0.0, 9.9991665, 10.000081 
5.349965e+2, 1.7498638e+2, -1344798.8, -1271993.6, 40428.527, 0.03773649, -0.166328, -1253993.9, -28876.803, 0.0, 9.999128, 10.000094 
5.3500074e+2, 1.8498622e+2, -1222347.4, -1197029.4, 72109.63, 0.072669476, -0.17434287, -1136476.0, -9357.684, 0.0, 9.999446, 9.999783 
5.350042e+2, 1.9498609e+2, -1027973.75, -1051672.9, 72469.18, -0.009007873, -0.17044464, -966391.75, 62727.363, 0.0, 10.000105, 9.99979 
5.3500795e+2, 2.0498563e+2, -919182.1, -984779.9, 68285.18, -0.06401554, -0.17786032, -876227.25, 54896.0, 0.0, 10.000337, 9.999464 
5.350119e+2, 2.1498486e+2, -846672.1, -897855.0, 62583.26, -0.09158873, -0.20603059, -804650.06, 28480.494, 0.0, 10.000156, 9.999475 
5.3501636e+2, 2.2498423e+2, -763997.2, -843675.25, 93363.64, -0.103745826, -0.19995095, -702328.0, 32808.992, 0.0, 10.000207, 9.99915 
5.3502136e+2, 2.349837e+2, -623326.94, -723658.06, 112725.695, -0.099716544, -0.17219418, -550108.3, 87034.42, 0.0, 10.000494, 9.999164 
5.3502625e+2, 2.4498276e+2, -515610.7, -665320.6, 97318.65, -0.09080517, -0.1616185, -467688.66, 71463.49, 0.0, 10.000752, 9.998766 
5.350311e+2, 2.5498146e+2, -382280.38, -549315.1, 73294.164, -0.07769786, -0.17281112, -354679.84, 86485.04, 0.0, 10.00099, 9.9987755 
5.350358e+2, 2.649803e+2, -239867.52, -404306.2, 68371.58, -0.07204296, -0.17887431, -215153.73, 128021.8, 0.0, 10.001186, 9.999002 
5.350403e+2, 2.749791e+2, -119465.484, -293926.63, 93170.95, -0.072154656, -0.19924322, -79063.77, 166121.16, 0.0, 10.001334, 9.999017 
5.350448e+2, 2.849773e+2, -76415.266, -353574.0, 73209.3, -0.05600987, -0.22436859, -58266.074, 88936.55, 0.0, 10.001521, 9.997846 
5.350491e+2, 2.9497504e+2, 56522.59, -236027.17, 61882.918, -0.027568735, -0.23949756, 69074.15, 118300.4, 0.0, 10.001748, 9.99787 
5.350531e+2, 3.049738e+2, 139494.94, -185292.8, 55131.457, -0.050950702, -0.14244278, 148598.14, 148598.14, 0.0, 10.002048, 9.99774 
5.350581e+2, 3.1497025e+2, 310287.16, 88884.836, -6734.988, 0.026092278, -0.27518317, 310491.84, 310491.84, 0.0000000000003731001, 10.002392, 9.999458 
5.4497194e+2, 1.2498035e+2, -1982279.1, -1747682.1, -161655.05, 0.05990028, -0.16476986, -1665252.6, 49921.234, 0.00000036785775, 9.997787, 10.000822 
5.4497665e+2, 1.3498051e+2, -1785995.0, -1603058.8, 147802.4, -0.14839599, -0.24334766, -1520710.9, 96461.664, 0.000000024396927, 9.998396, 10.000886 
5.4498667e+2, 1.4498238e+2, -1664817.4, -1516928.3, 26617.512, 0.20083494, -0.13143812, -1512283.5, 6871.4346, 0.0, 9.998685, 10.000645 
5.4498774e+2, 1.549831e+2, -1565629.4, -1417429.0, -14058.44, -0.053834755, -0.12836114, -1416107.3, 5041.4272, 0.0, 9.998692, 10.00065 
5.4499066e+2, 1.6498348e+2, -1458615.8, -1356195.4, -3366.1487, -0.10508077, -0.13624902, -1356084.9, -32939.66, 0.0, 9.998929, 10.000285 
5.449959e+2, 1.7498355e+2, -1295465.5, -1224705.6, 12951.462, 0.05010288, -0.16211656, -1222409.5, 2734.2725, 0.0, 9.999369, 10.000301 
5.450003e+2, 1.8498348e+2, -1203679.4, -1186306.6, 56885.383, 0.07956315, -0.17457, -1137448.3, -10303.988, 0.0, 9.999568, 9.999797 
5.450039e+2, 1.9498323e+2, -1108474.4, -1088689.6, 56713.984, -0.018689848, -0.18291172, -1041011.75, -11865.268, 0.0, 9.999545, 9.999805 
5.4500794e+2, 2.0498282e+2, -1001547.25, -1036070.94, 52088.01, -0.07058243, -0.18048345, -963935.3, -32784.55, 0.0, 9.99982, 9.999362 
5.4501235e+2, 2.1498227e+2, -820052.7, -896538.75, 50438.797, -0.075391464, -0.1771036, -794998.0, 38158.984, 0.0, 10.000387, 9.999373 
5.450169e+2, 2.2498171e+2, -691194.8, -777622.94, 71906.87, -0.08813946, -0.17191765, -650515.75, 84646.35, 0.0, 10.000574, 9.999426 
5.450217e+2, 2.3498113e+2, -620059.75, -691037.5, 73764.79, -0.10816479, -0.17704791, -573690.8, 63475.57, 0.0, 10.000383, 9.999439 
5.450268e+2, 2.4498002e+2, -574046.5, -719541.0, 77056.44, -0.10032427, -0.18550345, -540822.75, -1645.8236, 0.0, 10.0004635, 9.998532 
5.450321e+2, 2.5497842e+2, -424352.9, -595228.25, 84378.664, -0.065210976, -0.20316303, -389709.97, 51483.53, 0.0, 10.0008135, 9.998544 
5.450371e+2, 2.6497722e+2, -258280.52, -422118.06, 66681.7, -0.0497736, -0.19835588, -234571.95, 108633.48, 0.0, 10.0011, 9.998922 
5.4504186e+2, 2.7497625e+2, -126953.16, -307166.3, 36783.215, -0.05231109, -0.18926083, -119734.5, 125479.08, 0.0, 10.001324, 9.998931 
5.4504645e+2, 2.8497455e+2, -26725.518, -313556.16, 22840.082, -0.05230039, -0.20426638, -24918.17, 122311.53, 0.0, 10.001793, 9.99799 
5.450509e+2, 2.9497233e+2, 172804.3, -163992.73, 53270.66, -0.052572392, -0.23020032, 181029.17, 230280.63, 0.0, 10.00248, 9.998012 
5.450555e+2, 3.0497053e+2, 216405.66, -202303.25, 52790.605, -0.056099508, -0.17397794, 222958.9, 222958.9, 0.0, 10.002808, 9.997257 
5.450608e+2, 3.149673e+2, 353225.16, 82573.62, -29224.857, 0.034884363, -0.22495827, 356344.88, 356344.88, 0.000000000015387011, 10.002803, 9.999217 
5.549701e+2, 1.2497599e+2, -1982804.3, -1750312.6, -137025.84, 0.09532821, -0.22630909, -1686866.6, 28348.146, 0.0000003291145, 9.997793, 10.000801 
5.549742e+2, 1.34977e+2, -1789273.9, -1611667.5, 170987.47, -0.23651765, -0.21348815, -1507798.1, 109408.1, 0.000000025104656, 9.998403, 10.000824 
5.549849e+2, 1.4497869e+2, -1665531.1, -1519857.6, 25333.914, 0.15619831, -0.11490165, -1515577.5, 3613.2896, 0.0, 9.99869, 10.000623 
5.549874e+2, 1.5497845e+2, -1566510.1, -1419599.0, -13276.165, 0.0441488, -0.20497006, -1418408.9, 2784.9248, 0.0, 9.9986925, 10.000636 
5.5499053e+2, 1.6497895e+2, -1432361.4, -1301620.9, 12184.713, -0.011374892, -0.2184364, -1300495.0, 22693.563, 0.0, 9.998928, 10.00066 
5.5499476e+2, 1.7498021e+2, -1269176.1, -1169984.9, 29720.457, -0.0037385633, -0.16480695, -1161761.5, 63413.313, 0.0, 9.999368, 10.000678 
5.5499893e+2, 1.8498045e+2, -1202253.1, -1183137.1, 55079.035, -0.010777672, -0.1642104, -1136793.0, -9621.024, 0.0, 9.999566, 9.99982 
5.550033e+2, 1.9497971e+2, -1107360.9, -1085573.4, 56385.418, -0.03362368, -0.22600435, -1039039.0, -9859.378, 0.0, 9.999541, 9.999828 
5.5500805e+2, 2.0497945e+2, -1004496.5, -1040408.44, 72752.82, -0.03892603, -0.20842347, -947516.56, -16333.198, 0.0, 9.999812, 9.999335 
5.550132e+2, 2.1497971e+2, -823310.8, -901310.8, 72544.19, -0.025806671, -0.12028268, -779947.8, 53235.207, 0.0, 10.000379, 9.999345 
5.550179e+2, 2.2497931e+2, -687714.44, -768710.44, 64061.61, -0.050996657, -0.10114413, -652423.4, 82763.41, 0.0, 10.0005665, 9.999491 
5.5502206e+2, 2.3497824e+2, -616078.6, -682081.7, 66943.19, -0.11465931, -0.16212471, -574444.44, 62750.324, 0.0, 10.0003805, 9.999503 
5.550271e+2, 2.4497677e+2, -561084.44, -692037.94, 89332.33, -0.11713012, -0.21781267, -515802.56, 23404.701, 0.0, 10.000462, 9.998722 
5.5503297e+2, 2.5497496e+2, -411112.44, -567012.44, 97856.27, -0.058302984, -0.2766866, -363954.28, 77269.88, 0.0, 10.000811, 9.998738 
5.550383e+2, 2.649737e+2, -312895.4, -535368.0, 74253.24, -0.047456563, -0.24616566, -290389.22, 52848.65, 0.0, 10.001098, 9.998146 
5.5504286e+2, 2.7497298e+2, -182570.36, -422272.34, 46265.81, -0.08588546, -0.14038587, -173950.39, 71298.57, 0.0, 10.001321, 9.998142 
5.550478e+2, 2.8497145e+2, 21091.87, -212121.97, 48330.41, -0.09808545, -0.13196686, 30710.947, 177974.45, 0.0, 10.001783, 9.99869 
5.5505306e+2, 2.9496935e+2, 220438.73, -61985.87, 79011.54, -0.08586502, -0.2124622, 241040.33, 290319.6, 0.0, 10.002467, 9.998719 
5.550583e+2, 3.0496708e+2, 167296.98, -300564.84, 50992.457, -0.057500117, -0.20615943, 172790.19, 172790.19, 0.0, 10.002791, 9.99659 
5.5506355e+2, 3.149646e+2, 309205.78, -6617.202, -27664.732, 0.025916304, -0.118067585, 311610.78, 311610.78, 0.0000000020600701, 10.002792, 9.998609 
5.64968e+2, 1.2497182e+2, -1880156.3, -1695190.0, -133445.19, 0.07457602, -0.2517011, -1625313.3, 89941.15, 0.00000027083397, 9.998475, 10.000849 
5.6497216e+2, 1.3497302e+2, -1829933.6, -1630642.3, 168789.1, -0.26026234, -0.22296295, -1534280.3, 82964.266, 0.000000017878008, 9.998118, 10.000833 
5.649835e+2, 1.449746e+2, -1745733.5, -1549067.4, 33728.85, 0.16991287, -0.13755123, -1543443.6, -24213.775, 0.0, 9.998099, 10.000708 
5.649863e+2, 1.5497434e+2, -1594765.6, -1423284.3, 2517.7502, 0.071911454, -0.2410796, -1423247.3, -2014.52, 0.0, 9.998458, 10.000723 
5.649895e+2, 1.6497488e+2, -1448493.8, -1303035.3, 28906.729, -0.0012612955, -0.25690702, -1297501.3, 25725.717, 0.0, 9.998794, 10.000713 
5.649937e+2, 1.7497627e+2, -1301608.0, -1180134.9, 19275.0, -0.036951963, -0.19398905, -1177149.8, 48062.535, 0.0, 9.999123, 10.000726 
5.649981e+2, 1.849767e+2, -1220846.8, -1193355.6, 23031.72, -0.04589776, -0.17631578, -1180279.5, -53071.586, 0.0, 9.999444, 9.999808 
5.65003e+2, 1.949762e+2, -1076111.5, -1071794.6, 20611.82, -0.032975093, -0.21256627, -1053228.5, -24014.684, 0.0, 9.999761, 9.999817 
5.650081e+2, 2.049759e+2, -988472.56, -1022765.25, 44994.703, -0.018149152, -0.20259616, -957467.9, -26250.184, 0.0, 9.99988, 9.999424 
5.650135e+2, 2.1497585e+2, -900651.9, -928198.8, 51916.06, 0.0007712834, -0.15585805, -860713.3, -27493.928, 0.0, 9.9998045, 9.999436 
5.650185e+2, 2.2497535e+2, -765683.44, -829654.1, 40523.8, -0.02147019, -0.14024653, -746042.8, -10818.567, 0.0, 10.0001335, 9.999281 
5.6502295e+2, 2.3497443e+2, -558919.5, -677785.0, 22019.72, -0.08552521, -0.16571333, -554971.5, 82260.86, 0.0, 10.000874, 9.999294 
5.6502813e+2, 2.4497314e+2, -433970.84, -616272.9, 30609.37, -0.09958344, -0.19944246, -428968.66, 110274.88, 0.0, 10.001272, 9.998851 
5.65034e+2, 2.5497153e+2, -325875.72, -512177.47, 32924.863, -0.0631613, -0.25032017, -320228.16, 121029.51, 0.0, 10.001335, 9.998863 
5.6503946e+2, 2.6497012e+2, -254596.81, -530861.9, 33436.125, -0.060990643, -0.2307312, -250607.67, 92665.0, 0.0, 10.001601, 9.997933 
5.6504446e+2, 2.7496883e+2, -89908.05, -400180.97, 46434.496, -0.0947924, -0.15578267, -83107.84, 162181.28, 0.0, 10.002058, 9.997936 
5.6504977e+2, 2.8496724e+2, 72589.03, -189434.75, 40302.17, -0.101549424, -0.14365184, 78647.85, 225952.33, 0.0, 10.002148, 9.99867 
5.650553e+2, 2.9496557e+2, 132966.97, -108293.69, 15204.769, -0.07978264, -0.1838787, 133921.42, 183237.89, 0.0, 10.001883, 9.998682 
5.6506103e+2, 3.049629e+2, 96193.98, -315193.6, 2208.7908, -0.03180869, -0.22325613, 96205.836, 96205.836, 0.0, 10.002217, 9.996767 
5.650666e+2, 3.1496078e+2, 362074.2, 21613.229, -15643.561, 0.032937035, -0.117266655, 362791.47, 362791.47, 0.000000017271022, 10.003142, 9.998636 
5.7496566e+2, 1.2496793e+2, -1872427.1, -1684515.9, -142814.48, -0.014251846, -0.23963116, -1607522.4, 107769.71, 0.00000019303324, 9.998495, 10.000915 
5.7497066e+2, 1.3496858e+2, -1824431.4, -1621339.9, 155028.03, -0.22323759, -0.26969707, -1537560.9, 79726.086, 0.000000007774616, 9.998126, 10.000893 
5.749822e+2, 1.4497016e+2, -1731278.8, -1519710.0, 45365.188, 0.2369529, -0.19761567, -1510393.0, 8878.784, 0.0, 9.998101, 10.000908 
5.749842e+2, 1.5497077e+2, -1579772.9, -1392421.5, 16553.844, 0.023032818, -0.23621832, -1390970.1, 30295.184, 0.0, 9.998459, 10.000934 
5.7498753e+2, 1.6497128e+2, -1468461.9, -1344991.4, 40558.297, -0.08071422, -0.2516292, -1332860.4, -9600.263, 0.0, 9.998795, 10.000425 
5.749926e+2, 1.7497176e+2, -1321822.9, -1222601.0, 32323.457, -0.052582633, -0.24972127, -1213000.0, 12255.901, 0.0, 9.999124, 10.000435 
5.749977e+2, 1.8497223e+2, -1224411.8, -1200450.8, 34190.38, -0.03083586, -0.21076354, -1176202.6, -48950.234, 0.0, 9.999443, 9.999761 
5.7500285e+2, 1.9497272e+2, -1079830.4, -1078576.0, 32872.82, -0.021632139, -0.14315273, -1046324.4, -17075.186, 0.0, 9.999757, 9.999773 
5.7500803e+2, 2.0497221e+2, -975190.5, -994056.4, 41299.742, -0.0119017465, -0.162882, -942260.1, -11006.507, 0.0, 9.999874, 9.999624 
5.7501334e+2, 2.149707e+2, -887157.56, -898983.06, 49499.016, 0.00066635426, -0.2816205, -843219.4, -9953.59, 0.0, 9.999799, 9.9996395 
5.750189e+2, 2.2496985e+2, -799383.3, -898840.3, 67638.12, -0.0033680156, -0.2877059, -765160.44, -29886.104, 0.0, 10.00013, 9.998809 
5.750245e+2, 2.3496968e+2, -592809.56, -746875.0, 50580.883, -0.0244311, -0.18864602, -577687.7, 59591.41, 0.0, 10.000869, 9.998823 
5.750299e+2, 2.4496911e+2, -429976.75, -607181.75, 32318.182, -0.051638305, -0.13175184, -424266.66, 115019.03, 0.0, 10.001268, 9.998916 
5.750351e+2, 2.5496817e+2, -322756.06, -504145.53, 35906.676, -0.08449793, -0.1251557, -315906.8, 125387.16, 0.0, 10.001328, 9.998921 
5.750407e+2, 2.6496646e+2, -232407.78, -483230.8, 50008.066, -0.09412607, -0.15240945, -222805.02, 120504.82, 0.0, 10.001595, 9.998264 
5.7504666e+2, 2.7496395e+2, -66616.61, -349919.6, 63759.98, -0.08315398, -0.23289393, -52928.215, 192405.8, 0.0, 10.00205, 9.998286 
5.7505226e+2, 2.8496203e+2, 21791.87, -293598.13, 29099.994, -0.06737179, -0.2362252, 24454.354, 171806.9, 0.0, 10.002141, 9.997958 
5.7505757e+2, 2.9496095e+2, 80863.91, -215888.34, 6377.9937, -0.04340517, -0.14744471, 81000.92, 130364.016, 0.0, 10.001879, 9.997945 
5.750637e+2, 3.0495796e+2, 163005.55, -175035.45, 36168.45, 0.014451214, -0.22843225, 166832.05, 166832.05, 0.00000000021282408, 10.002211, 9.997733 
5.750699e+2, 3.149557e+2, 404950.8, 115705.98, 23630.34, 0.04925027, -0.22919917, 406868.63, 406868.63, 0.0000000699572, 10.003121, 9.999291 
5.8496356e+2, 1.2496407e+2, -1990130.0, -1738153.0, -127242.164, -0.02866144, -0.22752762, -1685078.1, 30251.51, 0.00000011738098, 9.997679, 10.000938 
5.8496875e+2, 1.3496463e+2, -1825892.5, -1620272.6, 155612.42, -0.22620176, -0.2683596, -1536574.9, 80750.766, 0.0000000014227642, 9.998112, 10.000905 
5.849805e+2, 1.4496616e+2, -1693302.3, -1492479.1, 48675.89, 0.24208577, -0.20590495, -1481302.9, 38007.848, 0.0, 9.998325, 10.000985 
5.849823e+2, 1.5496707e+2, -1582028.9, -1385094.6, 7851.593, -0.010862346, -0.21961543, -1384782.0, 36518.547, 0.0, 9.998407, 10.001009 
5.84986e+2, 1.6496757e+2, -1507211.9, -1389120.8, 35308.945, -0.10989433, -0.23034191, -1379368.9, -56072.953, 0.0, 9.998637, 10.000198 
5.8499193e+2, 1.7496765e+2, -1351365.1, -1262509.8, 30737.857, -0.026395887, -0.24504688, -1252913.0, -27616.74, 0.0, 9.999032, 10.000205 
5.8499753e+2, 1.8496789e+2, -1223281.0, -1207412.1, 37148.766, 0.008176745, -0.21496928, -1177359.9, -50064.62, 0.0, 9.999485, 9.999692 
5.850027e+2, 1.9496828e+2, -1050894.3, -1071962.4, 32893.72, -0.015903976, -0.14904834, -1026889.0, 2403.7488, 0.0, 9.999989, 9.999705 
5.850081e+2, 2.049677e+2, -902063.06, -966289.2, 21392.795, -0.024703937, -0.16908428, -895589.9, 35707.637, 0.0, 10.00041, 9.999556 
5.850135e+2, 2.1496615e+2, -752527.9, -841656.75, 8025.6104, -0.015136177, -0.28623176, -751810.94, 81498.63, 0.0, 10.000756, 9.999571 
5.850193e+2, 2.2496518e+2, -691262.25, -860477.3, 39052.027, -0.010218063, -0.29476774, -682684.5, 52634.68, 0.0, 10.000931, 9.998686 
5.850255e+2, 2.3496482e+2, -591722.44, -760391.25, 46942.04, -0.011003182, -0.2032253, -579538.2, 57788.07, 0.0, 10.000936, 9.998698 
5.8503133e+2, 2.4496414e+2, -472695.66, -650538.6, 24944.488, -0.02713915, -0.14019792, -469263.16, 70071.43, 0.0, 10.001072, 9.9987135 
5.850367e+2, 2.5496316e+2, -336062.0, -532409.44, 7491.8833, -0.058999345, -0.113697186, -335776.56, 105567.41, 0.0, 10.001332, 9.998725 
5.8504254e+2, 2.6496148e+2, -230788.19, -454369.03, 14330.232, -0.06808501, -0.14370136, -229873.45, 113485.84, 0.0, 10.001485, 9.998514 
5.8504874e+2, 2.74959e+2, -121666.26, -349133.94, 20645.38, -0.05572616, -0.24785103, -119807.63, 125573.54, 0.0, 10.001553, 9.998532 
5.850545e+2, 2.84957e+2, -22600.055, -350875.16, -2764.3772, -0.04405844, -0.25499365, -22576.78, 124823.45, 0.0, 10.001989, 9.997639 
5.8506e+2, 2.949557e+2, 186584.13, -201137.06, 1025.5316, -0.03008269, -0.15352325, 186586.84, 236001.33, 0.0, 10.002762, 9.997622 
5.850663e+2, 3.049525e+2, 281233.3, -97767.164, 20391.008, 0.024159355, -0.24505359, 282327.25, 282327.25, 0.000000006848287, 10.002938, 9.997912 
5.8507246e+2, 3.1495053e+2, 311936.3, 49550.21, -47694.945, 0.023686206, -0.2411574, 320337.03, 320337.03, 0.00000018333391, 10.002574, 9.9991 
5.9496176e+2, 1.2496032e+2, -1988864.1, -1739888.5, -102041.85, 0.023032663, -0.21085535, -1703411.3, 11955.329, 0.000000058921596, 9.997694, 10.000919 
5.9496635e+2, 1.3496117e+2, -1827029.3, -1623514.1, 171180.81, -0.27444887, -0.21982564, -1526129.9, 91230.4, 0.000000000010343272, 9.998115, 10.000882 
5.949782e+2, 1.449626e+2, -1697841.5, -1502118.9, 50343.773, 0.17971194, -0.16340895, -1489928.8, 29417.924, 0.0, 9.998325, 10.00092 
5.9498054e+2, 1.549633e+2, -1586393.3, -1394862.8, 11951.266, -0.033170957, -0.19107033, -1394119.9, 27218.574, 0.0, 9.998409, 10.000941 
5.9498477e+2, 1.6496377e+2, -1519536.6, -1414831.6, 49285.332, -0.093941584, -0.192718, -1395282.6, -71948.64, 0.0, 9.998637, 10.000022 
5.949916e+2, 1.7496397e+2, -1362738.1, -1286966.0, 46146.06, 0.03700712, -0.17973977, -1265146.0, -39812.66, 0.0, 9.999035, 10.000035 
5.949977e+2, 1.8496367e+2, -1229597.6, -1220499.5, 55515.008, 0.0662854, -0.18870766, -1169347.5, -42010.71, 0.0, 9.999484, 9.999602 
5.950028e+2, 1.9496292e+2, -1057244.0, -1085036.9, 52228.023, -0.01949227, -0.22897011, -1017095.25, 12249.121, 0.0, 9.999988, 9.999617 
5.9500813e+2, 2.0496242e+2, -926668.0, -1015642.6, 33603.96, -0.060299356, -0.22092965, -915402.75, 15946.425, 0.0, 10.000402, 9.99922 
5.950139e+2, 2.1496217e+2, -777547.0, -891215.7, 21737.465, -0.050189115, -0.17170954, -773531.9, 59819.04, 0.0, 10.000747, 9.999235 
5.950199e+2, 2.2496133e+2, -676861.9, -829066.1, 38238.723, -0.045650683, -0.16313496, -667795.1, 67563.84, 0.0, 10.000923, 9.998905 
5.950261e+2, 2.3495981e+2, -577172.94, -729012.0, 47643.215, -0.048943363, -0.20823577, -563461.8, 73911.97, 0.0, 10.00093, 9.998917 
5.9503233e+2, 2.4495824e+2, -506335.8, -718995.9, 34183.29, -0.03055659, -0.22259532, -500976.22, 38413.816, 0.0, 10.001066, 9.998246 
5.950387e+2, 2.5495663e+2, -368808.72, -599253.6, 17756.613, 0.009575943, -0.21348411, -367448.53, 73958.84, 0.0, 10.0013275, 9.998268 
5.950448e+2, 2.649552e+2, -218846.55, -429381.38, 16098.545, 0.013492106, -0.20293264, -217622.69, 125798.15, 0.0, 10.001483, 9.998687 
5.950506e+2, 2.7495393e+2, -111123.234, -326080.7, 24347.992, -0.019806156, -0.2041566, -108399.87, 137030.88, 0.0, 10.001547, 9.998693 
5.950566e+2, 2.849521e+2, -21646.766, -346186.03, 25530.762, -0.03836136, -0.20308816, -19650.598, 127797.09, 0.0, 10.001978, 9.997676 
5.950626e+2, 2.949499e+2, 188125.48, -193886.36, 29535.488, -0.042253453, -0.19733106, 190395.56, 239865.88, 0.0, 10.002745, 9.997679 
5.9506905e+2, 3.0494666e+2, 239316.63, -181593.72, 5557.1973, -0.0035439203, -0.26877615, 239389.98, 239389.98, 0.000000033052434, 10.002923, 9.997345 
5.950743e+2, 3.1494525e+2, 244925.8, -88446.85, -51927.64, -0.053169295, -0.15113758, 252827.02, 252827.02, 0.00000037488923, 10.002569, 9.998155 
6.0495955e+2, 1.24955595e+2, -2019669.4, -1754144.8, -118147.2, 0.040355854, -0.23253328, -1709186.5, 6224.901, 0.000000021349177, 9.997484, 10.000922 
6.049641e+2, 1.3495676e+2, -1878952.8, -1648104.4, 140233.94, -0.30440685, -0.21167414, -1581901.8, 35500.8, 0.0, 9.997759, 10.000884 
6.049762e+2, 1.4495799e+2, -1759096.4, -1555133.8, 12338.757, 0.16225342, -0.16218905, -1554390.0, -34998.633, 0.0, 9.998009, 10.000708 
6.049791e+2, 1.5495844e+2, -1602075.8, -1425521.1, -37560.89, -0.008432857, -0.19521195, -1417862.5, 3524.2058, 0.0, 9.9984045, 10.000732 
6.0498375e+2, 1.6495885e+2, -1484265.0, -1393091.1, 11616.257, -0.070121266, -0.19354649, -1391634.5, -68251.6, 0.0, 9.998858, 10.000065 
6.049906e+2, 1.7495921e+2, -1315628.6, -1259152.1, 23187.01, 0.019161068, -0.16784066, -1250852.3, -25472.443, 0.0, 9.999337, 10.00008 
6.049969e+2, 1.8495885e+2, -1210522.3, -1223487.9, 37941.76, 0.041144107, -0.18121518, -1178513.5, -51129.86, 0.0, 9.999667, 9.999494 
6.050027e+2, 1.9495776e+2, -1081837.8, -1109340.5, 31582.248, -0.019342747, -0.24303603, -1061142.9, -31748.682, 0.0, 9.999873, 9.999505 
6.050085e+2, 2.0495719e+2, -976011.5, -1054583.0, 19399.96, -0.04735269, -0.23056865, -971482.5, -40082.438, 0.0, 10.000129, 9.999085 
6.0501456e+2, 2.149571e+2, -835161.8, -934829.5, 21394.414, -0.036859136, -0.15128453, -830763.44, 2637.5117, 0.0, 10.000418, 9.999096 
6.0502076e+2, 2.2495621e+2, -725795.8, -859391.94, 26744.316, -0.035729405, -0.13735376, -720640.9, 14768.635, 0.0, 10.000617, 9.998845 
6.0502684e+2, 2.3495443e+2, -610759.0, -751802.3, 13271.754, -0.047085226, -0.20205837, -609521.0, 27905.04, 0.0, 10.00073, 9.998856 
6.050334e+2, 2.4495263e+2, -521539.03, -723657.4, 17870.549, -0.026921583, -0.23841731, -519971.16, 19472.727, 0.0, 10.000951, 9.998269 
6.0504013e+2, 2.549508e+2, -373023.16, -599529.75, 36289.348, 0.025672693, -0.25235957, -367351.16, 74111.39, 0.0, 10.00129, 9.998286 
6.050466e+2, 2.6494935e+2, -214761.39, -454977.88, 33779.96, 0.035293736, -0.23296267, -210101.55, 133375.08, 0.0, 10.001628, 9.998443 
6.0505253e+2, 2.7494824e+2, -70637.266, -333807.16, 9090.949, 0.0002657747, -0.19404802, -70323.6, 175162.9, 0.0, 10.001941, 9.998451 
6.050587e+2, 2.8494638e+2, -5324.337, -332717.1, 4579.0786, -0.023716766, -0.18715891, -5260.304, 142244.11, 0.0, 10.002067, 9.9977255 
6.0506505e+2, 2.9494393e+2, 87765.46, -237729.8, 7547.4175, -0.03645202, -0.20926698, 87940.375, 137469.2, 0.00000000003092486, 10.002034, 9.997721 
6.0507166e+2, 3.0494103e+2, 180365.56, -199292.28, 5233.3843, -0.007145655, -0.25295794, 180437.69, 180437.69, 0.00000008707832, 10.002472, 9.997441 
6.0507685e+2, 3.1493968e+2, 347683.06, -59106.35, 10.561949, -0.090784, -0.14264911, 347683.06, 347683.06, 0.0000006525611, 10.003363, 9.997975 
6.1495686e+2, 1.2494997e+2, -2018857.4, -1753636.1, -98599.695, 0.020559534, -0.28989658, -1720997.0, -5533.2334, 0.0000000039655865, 9.997488, 10.000925 
6.149616e+2, 1.349514e+2, -1878102.4, -1646080.8, 149410.98, -0.32037443, -0.24250297, -1572929.9, 44522.39, 0.0, 9.997759, 10.000897 
6.1497444e+2, 1.4495237e+2, -1784635.6, -1609316.5, 24451.182, 0.18289992, -0.20135109, -1605970.3, -86525.45, 0.0, 9.998013, 10.000335 
6.1497825e+2, 1.5495247e+2, -1627098.0, -1478992.6, -21825.264, 0.059418514, -0.23294522, -1475843.4, -54397.875, 0.0, 9.998409, 10.000363 
6.1498284e+2, 1.649528e+2, -1465175.0, -1354035.0, 28949.576, -0.043821428, -0.23287347, -1346946.4, -23503.793, 0.0, 9.998861, 10.000332 
6.149889e+2, 1.7495342e+2, -1296418.6, -1220049.4, 41467.766, -0.08353728, -0.20995404, -1201863.4, 23572.36, 0.0, 9.999339, 10.000348 
6.1499554e+2, 1.8495342e+2, -1220780.8, -1244277.9, 44514.87, -0.071915075, -0.19338018, -1186490.3, -59054.477, 0.0, 9.999665, 9.999352 
6.150026e+2, 1.9495282e+2, -1091784.4, -1129869.6, 40002.266, -0.01929048, -0.19241181, -1066523.5, -37081.082, 0.0, 9.999872, 9.999365 
6.150092e+2, 2.0495202e+2, -972559.3, -1045631.75, 29425.959, 0.0099299215, -0.19887684, -962183.0, -30732.695, 0.0, 10.000121, 9.99915 
6.150156e+2, 2.1495096e+2, -831040.3, -924937.8, 32592.164, 0.020016989, -0.22298606, -820836.3, 12623.223, 0.0, 10.000412, 9.999166 
6.150218e+2, 2.2494987e+2, -751529.94, -911049.0, 30020.963, 0.014449516, -0.21506774, -746067.1, -10596.704, 0.0, 10.000609, 9.998494 
6.15028e+2, 2.349487e+2, -635243.2, -801884.4, 18004.988, -0.008606789, -0.18540631, -633320.0, 4163.0264, 0.0, 10.000726, 9.998513 
6.150344e+2, 2.449473e+2, -486951.0, -651443.06, 29591.467, -0.018754117, -0.18868786, -481789.56, 57706.67, 0.0, 10.000949, 9.998767 
6.150411e+2, 2.5494567e+2, -339301.44, -528289.9, 49668.39, -0.014963086, -0.23218282, -327043.1, 114466.586, 0.0, 10.001284, 9.998778 
6.150478e+2, 2.649439e+2, -262157.94, -551785.44, 45010.24, -0.0075644753, -0.23496896, -255324.27, 88202.48, 0.0, 10.00162, 9.997783 
6.150545e+2, 2.7494195e+2, -117446.266, -428950.88, 21131.283, 0.001850936, -0.21399054, -116019.336, 129528.75, 0.0, 10.001932, 9.997802 
6.1506104e+2, 2.8493986e+2, -1356.9291, -323211.75, 2667.013, -0.0026698664, -0.20318551, -1334.8307, 146235.06, 0.0, 10.00206, 9.997795 
6.1506724e+2, 2.9493782e+2, 90794.29, -230255.7, 7968.4507, -0.0202833, -0.19252013, 90991.94, 140582.08, 0.0000000010306047, 10.002028, 9.997776 
6.150743e+2, 3.049356e+2, 227365.39, -97908.97, 37772.637, 0.004630612, -0.20357765, 231694.16, 231694.16, 0.00000016756015, 10.002457, 9.998143 
6.150801e+2, 3.1493393e+2, 380700.47, 18582.791, 41577.69, -0.09959662, -0.19656578, 385413.03, 385413.03, 0.000001002472, 10.003326, 9.998525 
6.2495434e+2, 1.2494397e+2, -1996759.0, -1740000.8, -141418.6, 0.014958478, -0.30698, -1677381.4, 38141.043, 0.00000000008306351, 9.9976225, 10.000954 
6.2495923e+2, 1.3494551e+2, -1925268.4, -1662082.8, 92579.41, -0.32026628, -0.25462452, -1632779.3, -15269.584, 0.0, 9.997405, 10.0009575 
6.249722e+2, 1.449464e+2, -1846691.1, -1640596.0, 5826.3096, 0.18373556, -0.22464228, -1640431.5, -120928.6, 0.0, 9.997592, 10.000323 
6.249765e+2, 1.5494657e+2, -1638560.6, -1485313.3, -13053.849, 0.0465512, -0.24767439, -1484209.4, -62706.547, 0.0, 9.998334, 10.000357 
6.249815e+2, 1.6494688e+2, -1484331.5, -1378259.5, 29010.48, -0.062048957, -0.24209538, -1370843.6, -47343.37, 0.0, 9.9987955, 10.000197 
6.2498796e+2, 1.7494737e+2, -1356333.3, -1263866.1, 9204.332, -0.09436391, -0.21724339, -1262958.9, -37463.586, 0.0, 9.998994, 10.000214 
6.2499493e+2, 1.849474e+2, -1270404.3, -1263527.5, 3821.4944, -0.07655826, -0.19411542, -1261825.1, -134330.2, 0.0, 9.999303, 9.999395 
6.2500226e+2, 1.9494696e+2, -1113337.8, -1135866.5, 11795.239, -0.023069993, -0.1826748, -1108292.3, -78792.69, 0.0, 9.999703, 9.999406 
6.250093e+2, 2.0494603e+2, -990085.44, -1070119.6, 2231.0386, 0.008680726, -0.19420749, -990023.3, -58514.957, 0.0, 10.000069, 9.999008 
6.2501603e+2, 2.1494463e+2, -841560.44, -945912.56, -12011.144, 0.022634273, -0.23941706, -840195.8, -6674.1934, 0.0, 10.000409, 9.999023 
6.250226e+2, 2.2494335e+2, -730832.56, -904834.9, -12285.94, 0.0209489, -0.24049081, -729969.4, 5564.8896, 0.0, 10.000768, 9.99846 
6.25029e+2, 2.349422e+2, -577922.3, -778746.5, -2291.3381, 0.0011908651, -0.20685308, -577896.1, 59650.23, 0.0, 10.001138, 9.998474 
6.250356e+2, 2.4494092e+2, -426203.6, -621026.8, 2440.661, -0.015810672, -0.19638297, -426173.03, 113385.08, 0.0, 10.001361, 9.998777 
6.250423e+2, 2.5493953e+2, -317514.8, -516420.53, -15752.431, -0.02997983, -0.21819787, -316275.0, 125294.33, 0.0, 10.001429, 9.998789 
6.250492e+2, 2.6493776e+2, -288438.22, -576679.6, -16889.465, -0.020872595, -0.21902613, -287451.97, 56134.98, 0.0, 10.001493, 9.997672 
6.250563e+2, 2.7493548e+2, -177988.13, -470639.53, -1107.4514, 0.010777591, -0.21470661, -177983.94, 67627.6, 0.0, 10.00157, 9.99769 
6.2506306e+2, 2.849333e+2, -29983.375, -330852.53, 1580.5591, 0.0040479153, -0.21204162, -29975.072, 117659.49, 0.0, 10.001837, 9.99785 
6.250692e+2, 2.9493126e+2, 131530.75, -204942.03, 3596.6184, -0.040668502, -0.20276943, 131569.2, 181223.4, 0.000000004235602, 10.002284, 9.997827 
6.2507653e+2, 3.0492952e+2, 226059.23, -84547.92, 18548.16, -0.008067784, -0.17624508, 227162.92, 227162.92, 0.000000262113, 10.002387, 9.998269 
6.2508315e+2, 3.1492737e+2, 224044.14, -38258.9, -15040.104, -0.07785384, -0.22988418, 224903.7, 224903.7, 0.0000013873902, 10.002167, 9.998693 
6.34952e+2, 1.24937594e+2, -1990186.5, -1729397.6, -139150.06, 0.017103083, -0.28408423, -1669094.8, 46492.875, 0.0, 9.997632, 10.001023 
6.349567e+2, 1.3493907e+2, -1917732.0, -1646741.5, 82411.02, -0.3083141, -0.24871048, -1623647.5, -6072.7876, 0.0, 9.997406, 10.001062 
6.349696e+2, 1.4494005e+2, -1821618.1, -1588923.9, 30437.59, 0.15937474, -0.23160371, -1585008.4, -65442.73, 0.0, 9.997593, 10.000677 
6.349738e+2, 1.5494074e+2, -1613461.8, -1433633.5, 15156.811, -0.051837023, -0.23934315, -1432365.0, -10806.528, 0.0, 9.998334, 10.000711 
6.349796e+2, 1.649411e+2, -1522209.5, -1456961.1, 35277.555, -0.13144115, -0.22149853, -1441534.9, -117978.97, 0.0, 9.998795, 9.999658 
6.349877e+2, 1.7494111e+2, -1394150.3, -1343357.1, 17226.273, -0.017250922, -0.1897363, -1338066.0, -112507.836, 0.0, 9.998997, 9.999667 
6.349952e+2, 1.849408e+2, -1255148.4, -1231337.1, 18052.705, 0.022194693, -0.18344882, -1221617.6, -94056.3, 0.0, 9.999301, 9.999617 
6.350019e+2, 1.9494016e+2, -1097301.6, -1102525.0, 27102.287, -0.034558605, -0.21260725, -1072685.5, -43120.094, 0.0, 9.999703, 9.999635 
6.3500875e+2, 2.0493928e+2, -1015828.2, -1122493.9, 13873.345, -0.05593552, -0.21562964, -1014053.3, -82479.375, 0.0, 10.000064, 9.9986515 
6.3501585e+2, 2.1493809e+2, -866997.9, -998217.7, 1473.0579, -0.032435797, -0.20270117, -866981.4, -33394.19, 0.0, 10.000406, 9.998666 
6.3502294e+2, 2.2493665e+2, -712978.1, -865958.8, 861.45465, -0.02004858, -0.21619482, -712973.25, 22627.89, 0.0, 10.00076, 9.99873 
6.3503e+2, 2.3493494e+2, -559558.5, -739240.94, 12403.683, -0.021339184, -0.26607063, -558706.25, 78909.61, 0.0, 10.001131, 9.998749 
6.350369e+2, 2.449335e+2, -460823.06, -691333.5, 4345.494, -0.022988142, -0.26032197, -460741.16, 78888.04, 0.0, 10.001353, 9.998299 
6.3504374e+2, 2.5493237e+2, -351408.0, -585472.3, -12653.36, -0.023432106, -0.20828302, -350725.97, 90915.086, 0.0, 10.001423, 9.998318 
6.3505083e+2, 2.649308e+2, -258913.48, -514768.9, -14520.406, -0.008266702, -0.18345502, -258092.05, 85564.85, 0.0, 10.00149, 9.998099 
6.3505805e+2, 2.749288e+2, -149223.47, -409233.9, 2827.4456, 0.02163367, -0.19841294, -149192.72, 96484.28, 0.0, 10.001561, 9.9981165 
6.350648e+2, 2.8492662e+2, -28894.592, -326171.03, 17869.584, -0.009221154, -0.21697475, -27824.285, 119874.42, 0.0, 10.001826, 9.997887 
6.350709e+2, 2.9492438e+2, 131532.73, -200562.61, 20926.254, -0.09996481, -0.23589583, 132846.17, 182566.86, 0.000000008608103, 10.002266, 9.997865 
6.3507855e+2, 3.0492288e+2, 194915.33, -147301.73, 9706.62, -0.047522347, -0.16556437, 195190.44, 195190.44, 0.00000035003856, 10.0023775, 9.997844 
6.350857e+2, 3.1492025e+2, 209415.13, -68136.62, -13989.308, -0.035913426, -0.2229085, 210118.44, 210118.44, 0.0000017531552, 10.002164, 9.99849 
6.4494914e+2, 1.24931425e+2, -2168548.3, -1804872.9, -123589.57, 0.028628599, -0.2197055, -1766848.5, -51197.16, 0.0, 9.996364, 10.001119 
6.449542e+2, 1.3493262e+2, -1907698.6, -1626676.4, 82347.375, -0.3020747, -0.22601011, -1604324.1, 13315.754, 0.0, 9.997413, 10.001196 
6.4496726e+2, 1.4493342e+2, -1759364.8, -1556397.8, 25843.193, 0.1496252, -0.2346502, -1553159.0, -33527.355, 0.0, 9.99801, 10.0007 
6.449719e+2, 1.5493433e+2, -1610803.6, -1429602.4, -15299.209, -0.07384424, -0.22179164, -1428319.8, -6698.1724, 0.0, 9.9983425, 10.000735 
6.449782e+2, 1.6493465e+2, -1536689.6, -1485447.9, 367.771, -0.15216942, -0.20011476, -1485445.3, -161825.97, 0.0, 9.998788, 9.999466 
6.4498687e+2, 1.7493431e+2, -1360580.4, -1348921.8, 7149.985, -0.020727819, -0.18244667, -1345525.9, -119900.69, 0.0, 9.99932, 9.999474 
6.449947e+2, 1.8493381e+2, -1213182.0, -1208278.4, 8980.178, 0.02584562, -0.18780854, -1201421.3, -73791.055, 0.0, 9.9995775, 9.999641 
6.450015e+2, 1.9493313e+2, -1114645.1, -1107199.6, 1567.0853, -0.036257427, -0.2248229, -1106883.3, -77249.15, 0.0, 9.999571, 9.999665 
6.450086e+2, 2.0493229e+2, -1049100.6, -1142924.0, 3595.3652, -0.064135365, -0.22309428, -1048963.1, -117321.04, 0.0, 9.999856, 9.9986105 
6.4501613e+2, 2.1493123e+2, -866129.94, -1002993.94, 13270.343, -0.048776202, -0.19344795, -864855.1, -31200.643, 0.0, 10.000434, 9.99862 
6.4502364e+2, 2.249298e+2, -711043.4, -866331.8, 7097.693, -0.03307145, -0.20218521, -710719.7, 24948.791, 0.0, 10.000777, 9.99872 
6.450309e+2, 2.34928e+2, -596854.2, -757969.8, -4492.3203, -0.020388266, -0.25949156, -596729.0, 40954.848, 0.0, 10.000879, 9.998741 
6.4503807e+2, 2.4492642e+2, -528354.56, -744617.1, -16818.078, -0.015924012, -0.2586982, -527054.5, 12644.422, 0.0, 10.000979, 9.998112 
6.4504504e+2, 2.5492507e+2, -414883.3, -637026.9, -13414.922, -0.019628141, -0.20886868, -414076.13, 27637.488, 0.0, 10.001077, 9.998131 
6.450522e+2, 2.6492345e+2, -287329.53, -515703.25, -12765.39, -0.010772004, -0.18633677, -286618.2, 57111.8, 0.0, 10.001242, 9.998212 
6.4505947e+2, 2.7492154e+2, -153564.14, -398350.44, -20527.084, 0.010675858, -0.20507994, -151854.73, 93893.664, 0.0, 10.001477, 9.998231 
6.450664e+2, 2.8491938e+2, -44296.67, -330865.13, -9598.567, -0.017432973, -0.22590105, -43975.527, 103793.73, 0.0, 10.001709, 9.9979105 
6.4507306e+2, 2.9491714e+2, 84581.8, -220802.98, -9030.602, -0.09443024, -0.24600473, 84848.61, 134639.89, 0.000000011710588, 10.001933, 9.997886 
6.450808e+2, 3.049157e+2, 170586.47, -193460.83, -18377.85, -0.053985402, -0.15423249, 171511.88, 171511.88, 0.00000040808163, 10.0023575, 9.997536 
6.450879e+2, 3.1491265e+2, 334247.2, -7833.3745, -28736.8, -0.078103475, -0.22441274, 336644.44, 336644.44, 0.0000020409286, 10.00302, 9.998492 
6.5494573e+2, 1.2492551e+2, -2158669.0, -1785861.4, -74406.445, 0.04573966, -0.11352631, -1771559.8, -55846.406, 0.0, 9.996368, 10.001248 
6.549516e+2, 1.3492619e+2, -1897518.6, -1604630.8, 119634.695, -0.30629885, -0.18688759, -1561976.0, 55728.97, 0.0, 9.997409, 10.0013485 
6.5496534e+2, 1.449265e+2, -1781586.6, -1602356.9, 34775.465, 0.14917253, -0.23569578, -1595846.0, -76145.25, 0.0, 9.998009, 10.000385 
6.549708e+2, 1.5492737e+2, -1632693.3, -1476345.1, -2200.4631, -0.02469012, -0.19473828, -1476314.3, -54622.26, 0.0, 9.998346, 10.000413 
6.5497726e+2, 1.6492756e+2, -1525829.3, -1463303.9, 19109.553, -0.12941381, -0.17703046, -1457926.0, -134235.7, 0.0, 9.99879, 9.999618 
6.5498537e+2, 1.7492701e+2, -1349530.3, -1326446.4, 27156.043, -0.10837387, -0.19588026, -1308481.3, -82784.88, 0.0, 9.999322, 9.999627 
6.5499336e+2, 1.8492642e+2, -1224954.9, -1232455.1, 7399.185, -0.07079981, -0.2081648, -1220409.8, -92708.24, 0.0, 9.999576, 9.999476 
6.550011e+2, 1.9492583e+2, -1126566.6, -1131961.0, 1563.5023, -0.031610645, -0.22107531, -1126146.3, -96440.8, 0.0, 9.99957, 9.999496 
6.550089e+2, 2.0492503e+2, -1031787.94, -1105407.6, 24429.156, -0.019888358, -0.21822223, -1024419.2, -92706.49, 0.0, 9.999849, 9.998871 
6.550168e+2, 2.1492401e+2, -848589.8, -965344.4, 35603.066, -0.029823992, -0.2110107, -838589.56, -4866.085, 0.0, 10.000428, 9.998881 
6.5502447e+2, 2.249228e+2, -732394.5, -908894.2, 9983.075, -0.022987232, -0.19718951, -731831.7, 3904.2988, 0.0, 10.00077, 9.998432 
6.5503204e+2, 2.3492137e+2, -617561.56, -800672.5, -178.67873, 0.0005632688, -0.18808311, -617561.4, 20188.844, 0.0, 10.000877, 9.998449 
6.5503925e+2, 2.4491963e+2, -522459.75, -731383.44, -13783.284, 0.00070509297, -0.19345677, -521554.34, 18213.03, 0.0, 10.000975, 9.998205 
6.550461e+2, 2.5491762e+2, -408962.7, -623339.56, -9085.624, -0.022265362, -0.2208319, -408578.3, 33208.766, 0.0, 10.00107, 9.998228 
6.550532e+2, 2.6491565e+2, -301948.63, -545246.9, -4365.4644, -0.031092303, -0.22863442, -301870.3, 41935.926, 0.0, 10.001238, 9.998011 
6.550605e+2, 2.7491367e+2, -168873.53, -427918.53, -10628.383, -0.026246365, -0.23137775, -168438.19, 77387.12, 0.0, 10.001468, 9.998033 
6.5506804e+2, 2.849116e+2, -44238.12, -329861.5, -1359.4967, -0.026693217, -0.23444591, -44231.65, 103614.01, 0.0, 10.001704, 9.99792 
6.550756e+2, 2.9490957e+2, 84246.875, -220257.89, 189.78748, -0.031405807, -0.23494144, 84246.99, 134112.97, 0.000000011654482, 10.001926, 9.997892 
6.550834e+2, 3.0490804e+2, 156300.47, -220919.97, 5971.9766, -0.032178227, -0.14550918, 156395.0, 156395.0, 0.00000041978168, 10.002349, 9.997351 
6.550896e+2, 3.149046e+2, 341933.4, 15467.669, 4736.342, -0.20842728, -0.23466352, 342002.1, 342002.1, 0.000002202322, 10.00299, 9.998666 
6.649425e+2, 1.2491805e+2, -2068764.5, -1747975.8, -85007.34, 0.059060335, -0.094579786, -1726841.6, -11054.103, 0.0, 9.997006, 10.001201 
6.649491e+2, 1.3491878e+2, -1928886.4, -1620993.6, 78412.69, -0.28413075, -0.16042455, -1602174.1, 15604.32, 0.0, 9.997203, 10.001334 
6.6496325e+2, 1.4491893e+2, -1844709.0, -1652443.8, -4908.73, 0.15903421, -0.21653897, -1652318.5, -132542.48, 0.0, 9.997662, 10.000209 
6.649694e+2, 1.5491967e+2, -1612390.3, -1486677.1, -30518.027, -0.011087985, -0.17161839, -1479660.3, -57891.29, 0.0, 9.998572, 10.000233 
6.649762e+2, 1.649197e+2, -1484824.3, -1432076.5, -17970.982, -0.12054161, -0.16409296, -1426535.8, -102767.484, 0.0, 9.999023, 9.999717 
6.6498446e+2, 1.7491902e+2, -1389596.9, -1333729.1, -16057.07, -0.11229264, -0.20790416, -1329442.9, -103668.6, 0.0, 9.998998, 9.999731 
6.6499263e+2, 1.8491843e+2, -1269170.9, -1260377.1, -29884.838, -0.083445966, -0.22248238, -1234567.5, -106788.375, 0.0, 9.999304, 9.999415 
6.650007e+2, 1.9491795e+2, -1075098.9, -1114640.0, -29811.664, -0.049973182, -0.21555053, -1059097.9, -29315.354, 0.0, 9.999956, 9.999429 
6.650088e+2, 2.0491719e+2, -968773.3, -1061254.6, -10855.968, -0.030493334, -0.21364355, -967516.06, -35726.61, 0.0, 10.000222, 9.998995 
6.6501707e+2, 2.149161e+2, -888958.0, -969621.9, -11249.584, -0.019725475, -0.22707216, -887418.44, -53618.3, 0.0, 10.000089, 9.999014 
6.65025e+2, 2.2491497e+2, -818164.9, -952700.8, -30474.63, -0.013362257, -0.20976032, -811583.8, -75771.945, 0.0, 10.000194, 9.998408 
6.6503257e+2, 2.3491377e+2, -668342.0, -827886.44, -21854.88, -0.013325611, -0.17349207, -665402.44, -27577.605, 0.0, 10.000541, 9.998425 
6.6503996e+2, 2.4491212e+2, -527220.94, -723367.8, -24026.4, -0.022201195, -0.1733222, -524320.75, 15520.636, 0.0, 10.000897, 9.998298 
6.650471e+2, 2.5491002e+2, -373827.25, -595948.2, -21212.854, -0.0387128, -0.21862456, -371819.56, 70041.89, 0.0, 10.0012665, 9.998321 
6.650545e+2, 2.6490805e+2, -263563.44, -533282.2, -12056.707, -0.038941883, -0.22991106, -263025.56, 80855.09, 0.0, 10.00153, 9.9979515 
6.650621e+2, 2.7490613e+2, -142938.34, -421730.94, -9108.601, -0.023908004, -0.22014366, -142641.08, 103258.4, 0.0, 10.001675, 9.997974 
6.650699e+2, 2.8490403e+2, -29315.955, -336493.34, 4245.4927, -0.018983342, -0.21973689, -29257.29, 118663.41, 0.0, 10.001868, 9.997794 
6.6507775e+2, 2.9490176e+2, 106576.03, -223726.08, -6618.4717, -0.022707248, -0.22921519, 106708.6, 156652.03, 0.000000008469742, 10.002143, 9.997764 
6.6508573e+2, 3.0489993e+2, 161461.23, -218418.81, 8208.525, -0.03705997, -0.16334946, 161638.53, 161638.53, 0.00000038345433, 10.002386, 9.997349 
6.650922e+2, 3.1489673e+2, 300788.63, 28727.977, 24219.453, -0.22582366, -0.22859852, 302927.88, 302927.88, 0.0000022156387, 10.002564, 9.998961 
6.7493963e+2, 1.24909066e+2, -2083516.3, -1781411.6, -70140.516, 0.06489881, -0.16725771, -1765921.1, -50047.02, 0.0, 9.997015, 10.00097 
6.749467e+2, 1.3491046e+2, -1941435.4, -1648242.3, 83556.87, -0.24345852, -0.1463067, -1626101.5, -8241.466, 0.0, 9.997209, 10.001144 
6.7496103e+2, 1.4491077e+2, -1846460.5, -1657477.0, 25516.287, 0.17215514, -0.17642653, -1654092.5, -134235.55, 0.0, 9.997667, 10.000172 
6.749677e+2, 1.5491122e+2, -1614854.5, -1491914.6, 4091.252, -0.03738256, -0.15380897, -1491778.6, -69926.05, 0.0, 9.998572, 10.000197 
6.7497516e+2, 1.6491112e+2, -1481997.8, -1425032.5, -19815.135, -0.13030551, -0.16314101, -1418817.9, -94964.89, 0.0, 9.999018, 9.999768 
6.749842e+2, 1.7491037e+2, -1385874.6, -1326105.0, -16537.807, -0.036871232, -0.21821025, -1321834.4, -95975.63, 0.0, 9.998999, 9.9997835 
6.749926e+2, 1.8490985e+2, -1267592.4, -1256875.6, -6614.401, -0.017062413, -0.23027995, -1253721.5, -125858.875, 0.0, 9.999302, 9.99944 
6.750002e+2, 1.9490956e+2, -1073861.3, -1111636.6, -5175.4824, -0.09468185, -0.20773484, -1073165.0, -43299.965, 0.0, 9.999952, 9.999452 
6.7500836e+2, 2.0490876e+2, -970086.75, -1062399.4, -16849.21, -0.09996973, -0.20889445, -967107.5, -35235.254, 0.0, 10.000215, 9.998991 
6.7501724e+2, 2.1490744e+2, -889730.6, -970693.7, -15983.177, -0.021473465, -0.24301833, -886689.56, -52805.12, 0.0, 10.000085, 9.999009 
6.7502534e+2, 2.2490628e+2, -802263.06, -918443.7, -18456.566, -0.008038053, -0.24153179, -799401.56, -63505.414, 0.0, 10.000188, 9.998646 
6.750327e+2, 2.3490523e+2, -651993.4, -793247.94, -8203.016, -0.0639257, -0.21524353, -651518.56, -13611.089, 0.0, 10.000537, 9.998664 
6.7504025e+2, 2.4490392e+2, -521678.38, -710716.6, -10977.382, -0.08698563, -0.19841708, -521043.06, 18877.836, 0.0, 10.000893, 9.998386 
6.7504805e+2, 2.549023e+2, -368994.56, -584303.75, -6808.2256, -0.07373213, -0.20152766, -368779.5, 73156.98, 0.0, 10.001259, 9.9984045 
6.7505604e+2, 2.6490062e+2, -258991.64, -522290.44, -7171.784, -0.040407743, -0.18954647, -258796.44, 85156.734, 0.0, 10.001523, 9.99803 
6.7506415e+2, 2.748989e+2, -138556.97, -410377.75, -3283.8098, 0.0128765255, -0.17339373, -138517.3, 107453.76, 0.0, 10.001665, 9.998056 
6.7507195e+2, 2.8489658e+2, -48132.645, -374552.84, 13566.675, 0.0034178086, -0.18446401, -47569.758, 100424.83, 0.0, 10.0018635, 9.997536 
6.750794e+2, 2.948937e+2, 85663.56, -263888.5, 5072.3633, -0.07191352, -0.22679327, 85737.15, 135760.55, 0.0000000040864183, 10.002129, 9.997495 
6.7508775e+2, 3.048914e+2, 172032.98, -194021.5, 15054.939, -0.07435366, -0.20345671, 172651.11, 172651.11, 0.0000003121116, 10.002375, 9.997521 
6.7509556e+2, 3.1488892e+2, 325692.72, 85020.56, 38580.69, -0.14687487, -0.2163122, 331726.1, 331726.1, 0.0000020914758, 10.002545, 9.999356 
6.849367e+2, 1.24899454e+2, -2058471.4, -1786173.3, -98042.03, 0.05776912, -0.21917443, -1754546.3, -38579.008, 0.0, 9.99726, 10.000819 
6.849445e+2, 1.3490126e+2, -1796711.3, -1593142.6, 46445.504, -0.23592563, -0.14339632, -1583046.5, 34903.527, 0.0, 9.998266, 10.001012 
6.8495905e+2, 1.4490156e+2, -1709917.0, -1588440.5, -14466.501, 0.16184624, -0.16795923, -1586741.5, -66794.23, 0.0, 9.99859, 10.000199 
6.8496615e+2, 1.549018e+2, -1641520.9, -1501927.4, -31425.033, -0.04366536, -0.17033415, -1495179.3, -73234.23, 0.0, 9.99838, 10.000221 
6.84974e+2, 1.6490176e+2, -1532672.1, -1432899.3, -48536.09, -0.12812077, -0.18009438, -1413183.9, -89239.52, 0.0, 9.998602, 9.999914 
6.849835e+2, 1.749014e+2, -1335099.9, -1285334.4, -40531.75, -0.020696098, -0.21104631, -1262657.0, -36711.152, 0.0, 9.999278, 9.999928 
6.849923e+2, 1.8490092e+2, -1234467.0, -1250766.9, -32211.39, 0.008273263, -0.22247106, -1209390.5, -81440.94, 0.0, 9.999573, 9.9993515 
6.850002e+2, 1.9490032e+2, -1149729.3, -1156886.1, -39753.816, -0.0680177, -0.22297025, -1113393.1, -83437.445, 0.0, 9.999474, 9.99937 
6.850084e+2, 2.048995e+2, -1030506.9, -1078191.8, -49758.473, -0.0901273, -0.22644171, -999173.5, -67210.44, 0.0, 9.999745, 9.999107 
6.8501717e+2, 2.148985e+2, -834855.4, -931285.0, -41556.926, -0.047722194, -0.24180347, -819417.6, 14554.178, 0.0, 10.000406, 9.999125 
6.8502545e+2, 2.2489743e+2, -720124.06, -872200.25, -48674.977, -0.03926689, -0.23920271, -705879.0, 30103.44, 0.0, 10.000723, 9.998706 
6.850332e+2, 2.3489629e+2, -626183.94, -773339.8, -53732.89, -0.06798415, -0.2295946, -608652.4, 29342.719, 0.0, 10.000685, 9.998729 
6.8504107e+2, 2.44895e+2, -537059.06, -709351.8, -58205.37, -0.07986773, -0.21704222, -519238.8, 20769.477, 0.0, 10.00075, 9.998464 
6.850491e+2, 2.5489354e+2, -413025.28, -596430.9, -55553.1, -0.07378786, -0.21276362, -397510.78, 44511.35, 0.0, 10.000919, 9.998485 
6.850573e+2, 2.6489204e+2, -301094.44, -536555.94, -54533.547, -0.048413623, -0.19037247, -289077.6, 54959.934, 0.0, 10.001209, 9.998083 
6.850657e+2, 2.7489048e+2, -138355.38, -404703.94, -54391.734, -0.0018535855, -0.16092825, -127676.086, 118378.52, 0.0, 10.001641, 9.998107 
6.8507373e+2, 2.848884e+2, -25370.371, -354063.22, -27249.277, -0.015544092, -0.15473154, -23126.668, 124949.42, 0.0, 10.00198, 9.99762 
6.8508136e+2, 2.948858e+2, 101845.05, -245896.06, -11825.047, -0.09360954, -0.17872664, 102246.7, 152348.55, 0.0000000009738006, 10.002197, 9.997584 
6.8508995e+2, 3.0488306e+2, 155226.31, -207983.19, 288.67624, -0.08286112, -0.20228077, 155226.55, 155226.55, 0.00000022618863, 10.002286, 9.997469 
6.850984e+2, 3.1488058e+2, 287399.06, 67192.3, 7258.539, -0.10125721, -0.2054352, 287638.06, 287638.06, 0.0000018666766, 10.002281, 9.999361 
6.949337e+2, 1.248892e+2, -2062686.1, -1799945.8, -53183.336, 0.028669113, -0.2535696, -1789588.8, -73521.84, 0.0, 9.997278, 10.000717 
6.9494253e+2, 1.3489118e+2, -1802100.0, -1603838.0, 82337.54, -0.2661072, -0.15323187, -1574103.0, 43945.25, 0.0, 9.998265, 10.000937 
6.9495726e+2, 1.4489134e+2, -1703948.5, -1574999.1, -25048.076, 0.12392155, -0.19301942, -1570304.5, -50257.664, 0.0, 9.998587, 10.000294 
6.949646e+2, 1.5489142e+2, -1633929.1, -1487510.0, -38160.05, -0.035856485, -0.22100191, -1478161.5, -56115.594, 0.0, 9.998384, 10.000318 
6.9497263e+2, 1.6489169e+2, -1517320.1, -1401722.6, -24521.885, -0.12179001, -0.21509297, -1396735.9, -72693.914, 0.0, 9.998604, 10.000127 
6.949823e+2, 1.7489216e+2, -1320257.4, -1254318.1, -15074.698, -0.068119645, -0.18667127, -1251035.3, -24999.797, 0.0, 9.999276, 10.000142 
6.949917e+2, 1.8489166e+2, -1248146.5, -1277585.1, -36761.742, -0.012022576, -0.19920903, -1223266.8, -95227.18, 0.0, 9.999566, 9.99917 
6.950006e+2, 1.9489025e+2, -1163204.4, -1184098.5, -42972.973, 0.026889943, -0.26247385, -1129426.9, -99372.445, 0.0, 9.99947, 9.999185 
6.9500905e+2, 2.0488943e+2, -1015136.3, -1045283.1, -26111.795, -0.004827728, -0.26792547, -1000059.5, -67997.555, 0.0, 9.99974, 9.999335 
6.9501704e+2, 2.1488927e+2, -819652.4, -898343.06, -16057.323, -0.102593355, -0.22376776, -816501.94, 17560.283, 0.0, 10.000399, 9.999355 
6.9502544e+2, 2.2488844e+2, -728881.6, -888978.2, -50854.77, -0.11167374, -0.20273577, -714093.56, 21977.02, 0.0, 10.000716, 9.998594 
6.950343e+2, 2.3488693e+2, -635049.25, -791371.4, -54652.535, -0.02984377, -0.21668296, -617837.1, 20250.39, 0.0, 10.000682, 9.998607 
6.950426e+2, 2.4488536e+2, -532290.7, -698648.4, -52431.44, -0.0062020696, -0.22970249, -517144.72, 22958.7, 0.0, 10.000747, 9.998539 
6.9505036e+2, 2.5488374e+2, -408294.75, -585179.2, -48441.938, -0.042458743, -0.25224838, -395897.25, 46220.934, 0.0, 10.000913, 9.998565 
6.9505835e+2, 2.6488227e+2, -299833.63, -532854.5, -38861.61, -0.06497262, -0.23278818, -293523.44, 50610.074, 0.0, 10.001204, 9.998111 
6.950666e+2, 2.7488092e+2, -138331.63, -402896.4, -37031.46, -0.07189037, -0.18023315, -133246.05, 112903.55, 0.0, 10.001634, 9.998123 
6.9507504e+2, 2.848795e+2, 2467.4614, -294454.06, -19191.223, -0.0813074, -0.12878516, 3702.7278, 151867.55, 0.0, 10.001972, 9.998033 
6.9508356e+2, 2.9487798e+2, 129928.68, -184375.06, -3041.905, -0.094315656, -0.08702698, 129958.12, 180137.06, 0.000000000021633938, 10.002185, 9.998013 
6.950924e+2, 3.0487484e+2, 135798.7, -247295.36, -1327.7948, -0.06664315, -0.16108216, 135803.3, 135803.3, 0.00000014519733, 10.00228, 9.997202 
6.951008e+2, 3.148717e+2, 259613.92, 12334.69, 12016.309, -0.097995915, -0.20363322, 260196.47, 260196.47, 0.0000015881137, 10.002268, 9.99899 
7.049314e+2, 1.2487926e+2, -1923016.1, -1740948.9, -52828.996, 0.021518294, -0.22492307, -1726730.4, -10564.906, 0.0, 9.998273, 10.000642 
7.049409e+2, 1.3488092e+2, -1840416.4, -1629302.9, 70939.125, -0.23590477, -0.14929312, -1607680.3, 10469.257, 0.0, 9.998038, 10.000871 
7.049559e+2, 1.4488092e+2, -1760840.6, -1600092.6, -41116.074, 0.14225596, -0.20448177, -1590186.4, -70036.8, 0.0, 9.998189, 10.000312 
7.049634e+2, 1.5488113e+2, -1554641.3, -1447433.1, -60355.78, -0.01959907, -0.22000754, -1420314.1, 1833.0084, 0.0, 9.998922, 10.000332 
7.049717e+2, 1.6488145e+2, -1424070.5, -1352172.5, -55304.44, -0.110684305, -0.21123873, -1322160.1, 1982.5823, 0.0, 9.999224, 10.000169 
7.0498145e+2, 1.7488188e+2, -1349081.1, -1262971.4, -59724.617, -0.06994909, -0.19024485, -1232400.5, -6263.8286, 0.0, 9.999057, 10.000188 
7.0499104e+2, 1.8488157e+2, -1278918.4, -1267191.8, -71853.36, -0.018544415, -0.19959675, -1200962.9, -72823.93, 0.0, 9.999248, 9.999393 
7.0500016e+2, 1.948805e+2, -1096617.9, -1127691.5, -49731.508, 0.024333077, -0.24916494, -1060052.8, -29902.88, 0.0, 9.999821, 9.999403 
7.05009e+2, 2.0487979e+2, -972546.3, -1016203.44, -23021.615, 0.0022884705, -0.25907123, -962649.8, -30493.672, 0.0, 9.999994, 9.9994135 
7.050173e+2, 2.1487945e+2, -908467.9, -931907.7, -25970.629, -0.08047655, -0.23938622, -891695.1, -57537.31, 0.0, 9.999751, 9.999435 
7.050259e+2, 2.2487868e+2, -848207.56, -949793.5, -59291.38, -0.09263233, -0.21657322, -820927.5, -84761.484, 0.0, 9.999911, 9.998564 
7.050348e+2, 2.3487744e+2, -664319.7, -809096.6, -57881.62, -0.033734217, -0.20022729, -644023.9, -5842.821, 0.0, 10.000496, 9.998575 
7.050433e+2, 2.4487594e+2, -515026.66, -687841.56, -57472.12, -0.012591615, -0.20630896, -497658.9, 42537.715, 0.0, 10.0008545, 9.998562 
7.0505136e+2, 2.5487414e+2, -395485.47, -576460.44, -59658.707, -0.029583104, -0.24689777, -377588.7, 64624.1, 0.0, 10.000989, 9.998589 
7.050597e+2, 2.6487252e+2, -290451.56, -529385.4, -42265.215, -0.056312487, -0.24145493, -283195.6, 61033.797, 0.0, 10.001273, 9.998102 
7.0506805e+2, 2.7487108e+2, -128129.21, -398278.56, -43568.168, -0.09284125, -0.19860002, -121276.6, 124969.97, 0.0, 10.001706, 9.998119 
7.050767e+2, 2.8486982e+2, 4912.8516, -277981.1, -46783.504, -0.10381386, -0.14132199, 12448.905, 160709.52, 0.0, 10.001924, 9.998169 
7.0508564e+2, 2.9486865e+2, 103996.56, -180834.06, -53247.37, -0.08784354, -0.07839007, 113625.336, 163896.67, 0.0, 10.001936, 9.9981575 
7.050947e+2, 3.048655e+2, 125509.03, -250584.63, -45016.28, -0.06489216, -0.159217, 130822.164, 130822.164, 0.00000008201181, 10.002202, 9.997217 
7.051031e+2, 3.148629e+2, 311065.3, 14224.309, -10968.983, -0.109614365, -0.14538129, 311470.1, 311470.1, 0.0000012936833, 10.002719, 9.998788 
7.1492976e+2, 1.2486968e+2, -1926973.5, -1750692.9, -56278.426, 0.029953398, -0.13304333, -1734258.0, -17995.566, 0.0, 9.998278, 10.000574 
7.1493983e+2, 1.3487054e+2, -1843267.8, -1636750.0, 61286.38, -0.15198976, -0.13088244, -1619932.1, -1679.0591, 0.0, 9.998046, 10.000814 
7.1495473e+2, 1.448703e+2, -1766059.4, -1611962.9, -16890.225, 0.20801911, -0.20339492, -1610133.3, -89878.23, 0.0, 9.998193, 10.000229 
7.1496254e+2, 1.5487093e+2, -1560617.4, -1459973.5, -32166.725, 0.0015103163, -0.16815971, -1450571.1, -28322.596, 0.0, 9.998921, 10.000247 
7.14971e+2, 1.6487107e+2, -1432856.4, -1369106.5, -61741.496, -0.09889809, -0.16922522, -1331497.5, -7251.2163, 0.0, 9.999219, 10.000054 
7.149809e+2, 1.7487063e+2, -1356728.5, -1279325.5, -65125.805, -0.029951343, -0.2223089, -1242269.6, -16020.732, 0.0, 9.99906, 10.000074 
7.149903e+2, 1.8487062e+2, -1236537.3, -1179305.9, -51527.48, -0.016819088, -0.22499602, -1148981.5, -20733.91, 0.0, 9.999248, 9.999998 
7.1499896e+2, 1.9487108e+2, -1054467.4, -1039371.6, -27803.45, -0.07979609, -0.18261631, -1018109.75, 12132.106, 0.0, 9.999816, 10.000012 
7.150082e+2, 2.048706e+2, -978223.06, -1026268.1, -33002.75, -0.07314819, -0.19889863, -961425.7, -29180.354, 0.0, 9.999987, 9.999349 
7.1501803e+2, 2.1486908e+2, -914478.8, -943409.06, -34829.59, 0.01472404, -0.28837976, -891230.0, -56971.37, 0.0, 9.999746, 9.99936 
7.150269e+2, 2.2486813e+2, -844302.94, -941124.9, -38697.082, 0.014034421, -0.28105393, -830737.44, -94468.62, 0.0, 9.999908, 9.998625 
7.1503484e+2, 2.3486781e+2, -661269.1, -800908.94, -35126.76, -0.08230035, -0.18052979, -652930.8, -14655.176, 0.0, 10.000487, 9.998635 
7.1504325e+2, 2.4486671e+2, -518679.97, -693634.3, -53033.023, -0.10220901, -0.14731863, -503859.75, 36428.074, 0.0, 10.000847, 9.998526 
7.150523e+2, 2.5486478e+2, -399240.44, -583488.8, -54014.02, -0.03892282, -0.19636361, -384573.34, 57732.496, 0.0, 10.000986, 9.998542 
7.150613e+2, 2.648629e+2, -293027.6, -534554.3, -26507.553, -0.026804026, -0.21659636, -290152.6, 54172.48, 0.0, 10.001272, 9.998068 
7.1507e+2, 2.7486098e+2, -132103.19, -403300.03, -26457.977, -0.070170455, -0.21654643, -129546.05, 116799.48, 0.0, 10.001693, 9.998093 
7.1507883e+2, 2.8485927e+2, -5666.49, -297317.6, -46667.805, -0.08834689, -0.19127983, 1618.9484, 149982.23, 0.0, 10.001912, 9.998042 
7.1508765e+2, 2.9485783e+2, 93700.71, -200428.23, -51501.727, -0.07942363, -0.14800347, 102457.88, 152836.17, 0.0, 10.001929, 9.998026 
7.150967e+2, 3.0485508e+2, 144707.1, -209624.28, -25898.848, -0.081406415, -0.19449042, 146590.1, 146590.1, 0.00000004119849, 10.002196, 9.997501 
7.151055e+2, 3.1485423e+2, 305000.8, 7604.6245, 12438.019, -0.14636073, -0.035716478, 305520.1, 305520.1, 0.0000010048329, 10.002693, 9.9987545 
7.2492844e+2, 1.248593e+2, -1931261.0, -1758071.6, -68413.85, 0.07618349, -0.085260116, -1734307.4, -17940.836, 0.0, 9.998266, 10.000531 
7.249383e+2, 1.3485983e+2, -1730167.5, -1587113.3, 39364.605, -0.1461366, -0.11150607, -1576996.6, 41363.01, 0.0, 9.998845, 10.00077 
7.24953e+2, 1.4485951e+2, -1639956.0, -1543064.1, -24737.592, 0.1789856, -0.1923198, -1537113.8, -16751.91, 0.0, 9.999023, 10.0003 
7.2496146e+2, 1.5486044e+2, -1555658.1, -1449638.1, -27946.195, 0.010599184, -0.1353983, -1442722.8, -20370.373, 0.0, 9.998923, 10.000316 
7.2497046e+2, 1.6486058e+2, -1463505.9, -1386495.8, -55913.05, -0.06711498, -0.13844341, -1357111.9, -32761.807, 0.0, 9.99902, 10.0000305 
7.249805e+2, 1.7485984e+2, -1319722.4, -1264589.0, -54966.293, 0.006652681, -0.21885815, -1230664.1, -4308.3823, 0.0, 9.999326, 10.000047 
7.249899e+2, 1.8485977e+2, -1203702.0, -1152959.6, -49852.87, 0.010588292, -0.23055422, -1122393.3, 5961.484, 0.0, 9.999426, 10.0000925 
7.249986e+2, 1.9486043e+2, -1120372.8, -1059401.0, -65423.613, -0.077540405, -0.17868835, -1017709.06, 12637.785, 0.0, 9.999315, 10.000114 
7.2500795e+2, 2.0486009e+2, -1032121.8, -1059912.0, -86579.516, -0.081925556, -0.18141752, -958329.44, -25980.088, 0.0, 9.999651, 9.999279 
7.250181e+2, 2.1485868e+2, -817243.4, -904694.8, -89612.96, 0.008904184, -0.25259936, -761257.4, 73105.67, 0.0, 10.000448, 9.999288 
7.250272e+2, 2.2485776e+2, -712674.06, -847441.06, -90377.27, 0.014868412, -0.2536128, -667325.2, 69047.86, 0.0, 10.000682, 9.998896 
7.250353e+2, 2.3485732e+2, -663932.1, -771066.56, -73030.09, -0.07011897, -0.19114962, -626929.8, 11449.378, 0.0, 10.000335, 9.998914 
7.250441e+2, 2.4485645e+2, -564507.3, -703838.8, -65233.4, -0.092356324, -0.15494485, -538733.5, 1655.3165, 0.0, 10.00048, 9.998633 
7.250533e+2, 2.548551e+2, -368440.75, -556287.75, -55627.605, -0.047074378, -0.15777254, -353203.56, 89198.78, 0.0, 10.001144, 9.998652 
7.2506243e+2, 2.6485333e+2, -271494.13, -519274.13, -28518.287, -0.04174904, -0.17236133, -268254.2, 76166.234, 0.0, 10.001399, 9.998112 
7.250714e+2, 2.748511e+2, -195732.88, -429510.2, -25187.436, -0.07945393, -0.20886068, -193049.94, 53393.26, 0.0, 10.001235, 9.998134 
7.2508043e+2, 2.848493e+2, -75974.16, -345405.97, -32665.908, -0.09373363, -0.19422546, -72070.305, 76392.07, 0.0, 10.001489, 9.997916 
7.2508967e+2, 2.9484782e+2, 123372.83, -200241.78, -38048.055, -0.08390748, -0.13497125, 127786.04, 178263.94, 0.0, 10.002192, 9.997902 
7.2509885e+2, 3.0484518e+2, 190361.84, -165683.34, -23611.156, -0.094409846, -0.17489627, 191920.8, 191920.8, 0.000000018939705, 10.002417, 9.997698 
7.2510785e+2, 3.1484446e+2, 213770.81, -51632.13, 5985.951, -0.14893839, -0.023697326, 213905.75, 213905.75, 0.0000007295325, 10.002131, 9.998618 
7.349275e+2, 1.2484808e+2, -1932695.9, -1762118.5, -40918.2, 0.14699794, -0.08707442, -1752810.9, -36332.906, 0.0, 9.998269, 10.000503 
7.3493636e+2, 1.3484879e+2, -1732579.0, -1591919.8, 59778.516, -0.22263175, -0.09292766, -1569947.0, 48522.047, 0.0, 9.998845, 10.000735 
7.349507e+2, 1.4484857e+2, -1622845.3, -1508105.6, -30263.42, 0.048873484, -0.17209084, -1500612.8, 19857.03, 0.0, 9.999026, 10.000539 
7.349603e+2, 1.5484966e+2, -1538326.8, -1415578.3, -30454.893, 0.001435115, -0.122051686, -1408437.5, 14020.913, 0.0, 9.99893, 10.000546 
7.349699e+2, 1.6485001e+2, -1459731.0, -1379248.0, -45433.547, -0.02209398, -0.12014294, -1358797.0, -34342.992, 0.0, 9.9990225, 10.000079 
7.349801e+2, 1.7484953e+2, -1316363.1, -1257903.8, -43058.17, 0.03662317, -0.1795706, -1235091.4, -8634.43, 0.0, 9.999327, 10.000093 
7.349898e+2, 1.8484902e+2, -1232288.1, -1211468.4, -54899.773, 0.05946398, -0.21579483, -1166000.3, -37539.875, 0.0, 9.999422, 9.999693 
7.3499894e+2, 1.9484854e+2, -1149116.4, -1118981.5, -69267.51, 0.026857235, -0.23752807, -1063161.5, -32696.994, 0.0, 9.999314, 9.999706 
7.350081e+2, 2.048483e+2, -1037525.8, -1070143.8, -57892.76, -0.028219832, -0.20769775, -993688.6, -61220.563, 0.0, 9.999646, 9.999211 
7.350174e+2, 2.148483e+2, -823416.2, -915262.6, -58785.574, -0.10067062, -0.13243864, -794742.56, 39728.4, 0.0, 10.000438, 9.999221 
7.350268e+2, 2.2484756e+2, -681137.5, -779656.94, -103932.25, -0.093461975, -0.13421893, -615382.3, 121096.29, 0.0, 10.000671, 9.999367 
7.350364e+2, 2.3484601e+2, -630990.1, -702093.8, -85641.125, -0.0019672501, -0.2301044, -573814.75, 64676.656, 0.0, 10.000332, 9.99939 
7.3504555e+2, 2.4484517e+2, -545522.25, -664692.4, -41459.35, 0.011623591, -0.22798668, -532517.7, 7981.742, 0.0, 10.000481, 9.998902 
7.350543e+2, 2.5484508e+2, -351284.53, -517797.25, -30022.693, -0.058412075, -0.13140832, -346036.75, 96465.414, 0.0, 10.001131, 9.998923 
7.3506325e+2, 2.6484388e+2, -265474.84, -504008.84, -34774.477, -0.10464269, -0.10891598, -260508.67, 84006.586, 0.0, 10.001388, 9.998222 
7.3507214e+2, 2.7484146e+2, -189708.78, -415755.25, -30590.287, -0.123716086, -0.1740107, -185642.23, 60897.168, 0.0, 10.00123, 9.99823 
7.350817e+2, 2.8483972e+2, -83866.0, -361127.53, -7029.67, -0.12325, -0.15058298, -83687.88, 64869.97, 0.0, 10.001486, 9.99781 
7.350917e+2, 2.9483864e+2, 113802.39, -215684.08, -9789.71, -0.10592853, -0.043958873, 114093.01, 164663.42, 0.0, 10.002172, 9.997806 
7.3510116e+2, 3.048358e+2, 193722.05, -155218.63, -33610.953, -0.10948992, -0.10286777, 196930.06, 196930.06, 0.0000000073965225, 10.002401, 9.997777 
7.3511016e+2, 3.1483376e+2, 193701.3, -89034.04, -2189.6929, -0.13058704, -0.08852703, 193718.25, 193718.25, 0.0000004773962, 10.002113, 9.99837 
7.449262e+2, 1.2483666e+2, -1733632.9, -1671040.5, -24851.13, 0.12715852, -0.12145728, -1662373.8, 54215.62, 0.0, 9.999656, 10.000459 
7.449355e+2, 1.3483763e+2, -1731312.5, -1597921.1, 62266.324, -0.19558491, -0.09526914, -1573373.1, 45205.016, 0.0, 9.998884, 10.000674 
7.449497e+2, 1.4483745e+2, -1690976.4, -1541254.8, -28905.377, 0.06645965, -0.16970019, -1535868.0, -15289.168, 0.0, 9.998557, 10.000539 
7.4495935e+2, 1.5483838e+2, -1548442.1, -1420240.0, -46765.066, 0.012063454, -0.1354801, -1404994.3, 17575.2, 0.0, 9.998859, 10.000549 
7.4496907e+2, 1.648388e+2, -1442098.5, -1359292.3, -61462.766, -0.01577659, -0.12787692, -1326588.0, -2023.8644, 0.0, 9.999094, 10.000181 
7.449794e+2, 1.7483872e+2, -1318898.6, -1247530.9, -55984.555, 0.03858629, -0.15940654, -1216824.9, 9738.755, 0.0, 9.999261, 10.0001955 
7.449894e+2, 1.8483827e+2, -1216781.0, -1218844.0, -55536.926, 0.069248855, -0.19044882, -1162266.0, -33698.93, 0.0, 9.999592, 9.999561 
7.449989e+2, 1.9483745e+2, -1044612.9, -1083990.9, -51034.918, 0.056474376, -0.23138402, -1009600.7, 20974.314, 0.0, 10.000096, 9.999571 
7.4500823e+2, 2.0483722e+2, -970350.1, -1027691.8, -26031.396, 0.00009123772, -0.197355, -960295.6, -27716.688, 0.0, 10.000063, 9.999302 
7.450174e+2, 2.148376e+2, -958439.56, -969072.1, -16741.988, -0.096040994, -0.093873374, -946190.06, -111611.23, 0.0, 9.999464, 9.999319 
7.4502695e+2, 2.2483703e+2, -818809.06, -818725.06, -54660.227, -0.09680702, -0.09466624, -764106.8, -27522.531, 0.0, 9.999608, 9.999611 
7.4503684e+2, 2.3483546e+2, -584504.8, -651720.8, -54516.676, 0.0027138223, -0.2184198, -554069.4, 84526.58, 0.0, 10.00053, 9.99964 
7.450463e+2, 2.4483463e+2, -491271.1, -647041.44, -33548.777, 0.01720977, -0.2249955, -484352.84, 56250.87, 0.0, 10.000891, 9.998824 
7.450552e+2, 2.5483456e+2, -425080.38, -563052.44, -50428.44, -0.0591752, -0.116638966, -408614.06, 33993.324, 0.0, 10.000667, 9.9988365 
7.450642e+2, 2.6483357e+2, -338869.47, -518729.97, -66137.125, -0.109039225, -0.08003868, -317168.3, 27450.604, 0.0, 10.000793, 9.998407 
7.450734e+2, 2.7483147e+2, -165086.83, -383068.66, -56595.105, -0.12865669, -0.12945314, -151268.84, 95370.125, 0.0, 10.001308, 9.998418 
7.4508315e+2, 2.8482977e+2, -69311.94, -351119.1, -17737.959, -0.13138112, -0.11186228, -68199.836, 80456.59, 0.0, 10.001573, 9.997837 
7.450934e+2, 2.9482847e+2, 26973.254, -254409.13, -13067.196, -0.11970058, -0.03245518, 27578.783, 78249.92, 0.0, 10.001562, 9.997833 
7.451031e+2, 3.048258e+2, 127981.336, -161860.44, -31041.188, -0.12374268, -0.08580537, 131268.47, 131268.47, 0.0000000015345106, 10.001843, 9.998 
7.451126e+2, 3.1482342e+2, 244499.84, -64572.375, 6641.6196, -0.11792594, -0.13052633, 244642.5, 244642.5, 0.00000026410652, 10.002463, 9.998368 
7.549246e+2, 1.2482509e+2, -1737861.9, -1683712.5, -49899.91, -0.0032170487, -0.18948086, -1654015.4, 62685.105, 0.0, 9.999671, 10.000365 
7.549357e+2, 1.3482639e+2, -1739163.4, -1613537.4, 31710.918, -0.0682884, -0.119120516, -1605986.6, 12700.053, 0.0, 9.998882, 10.000567 
7.5494987e+2, 1.4482611e+2, -1707759.9, -1575523.9, -20660.59, 0.22950754, -0.18565379, -1572371.0, -51681.895, 0.0, 9.998555, 10.000304 
7.549585e+2, 1.5482657e+2, -1564154.8, -1453435.1, -34710.348, 0.03987005, -0.17544061, -1443453.4, -20768.14, 0.0, 9.998861, 10.000321 
7.5496775e+2, 1.6482702e+2, -1430203.1, -1335514.3, -56095.06, -0.053910583, -0.16245618, -1309454.6, 15225.951, 0.0, 9.999097, 10.000343 
7.5497836e+2, 1.7482743e+2, -1307027.3, -1224263.3, -49317.137, 0.0071423724, -0.15961747, -1201266.3, 25409.547, 0.0, 9.999265, 10.000354 
7.549887e+2, 1.8482748e+2, -1207451.6, -1199009.5, -37790.477, 0.033919595, -0.15612747, -1165205.1, -36530.223, 0.0, 9.999589, 9.999699 
7.5499856e+2, 1.9482717e+2, -1035662.9, -1064860.1, -31746.09, 0.008374264, -0.16024996, -1015319.6, 15358.401, 0.0, 10.000093, 9.999704 
7.550083e+2, 2.0482689e+2, -953895.44, -992443.75, -49287.848, 0.0000097377015, -0.15000652, -920247.2, 12434.696, 0.0, 10.000058, 9.999547 
7.55018e+2, 2.1482661e+2, -941332.5, -932976.8, -39204.035, 0.016610187, -0.13567212, -897728.6, -63042.11, 0.0, 9.99946, 9.99957 
7.550275e+2, 2.2482623e+2, -816979.0, -813448.44, -21805.055, -0.0011065367, -0.13460672, -793337.3, -56647.176, 0.0, 9.999601, 9.99965 
7.550368e+2, 2.348257e+2, -583794.25, -647768.2, -19322.549, -0.057961658, -0.1570866, -578411.1, 60281.56, 0.0, 10.00052, 9.999672 
7.5504625e+2, 2.4482483e+2, -522352.38, -709793.06, -41930.355, -0.07680614, -0.14667271, -513400.16, 27301.53, 0.0, 10.000883, 9.998398 
7.550559e+2, 2.548236e+2, -456540.88, -627621.5, -58004.223, -0.054147705, -0.1114687, -438729.2, 3988.5325, 0.0, 10.000663, 9.998395 
7.550655e+2, 2.648224e+2, -320401.53, -480353.28, -47329.54, -0.060848136, -0.08430327, -307446.1, 37285.023, 0.0, 10.0007925, 9.998672 
7.55075e+2, 2.7482116e+2, -146308.66, -342066.53, -35605.355, -0.0999155, -0.07829339, -140033.73, 106708.19, 0.0, 10.0013, 9.998704 
7.5508475e+2, 2.8481948e+2, -61257.184, -332259.94, -17677.146, -0.12324677, -0.07848253, -60108.992, 88648.945, 0.0, 10.001563, 9.997972 
7.550948e+2, 2.948174e+2, 34454.465, -236906.17, -12076.74, -0.13098139, -0.09100398, 34990.87, 85770.125, 0.0, 10.001554, 9.997958 
7.551048e+2, 3.0481526e+2, 153378.16, -106463.836, -9056.466, -0.14330722, -0.11715716, 153693.44, 153693.44, 0.00000000001992495, 10.001832, 9.998384 
7.5511503e+2, 3.148135e+2, 257715.61, -29821.002, 31255.23, -0.119989865, -0.13705178, 261073.83, 261073.83, 0.000000109993245, 10.002432, 9.998623 
7.649243e+2, 1.2481442e+2, -1795466.8, -1727745.0, -45604.85, 0.019602727, -0.18257584, -1704804.8, 12000.8, 0.0, 9.999344, 10.000222 
7.64935e+2, 1.3481551e+2, -1677964.5, -1601919.8, 22672.57, -0.043442585, -0.115726516, -1595673.0, 23121.451, 0.0, 9.999381, 10.000405 
7.649488e+2, 1.4481516e+2, -1605568.3, -1526803.6, -3363.4937, 0.23104304, -0.18229683, -1526660.3, -5862.411, 0.0, 9.999259, 10.000299 
7.649576e+2, 1.5481566e+2, -1529134.3, -1436813.8, 112.08057, 0.04944245, -0.16751759, -1436813.6, -14020.552, 0.0, 9.999102, 10.0003195 
7.649669e+2, 1.6481607e+2, -1439263.6, -1353563.5, -18431.125, -0.043534003, -0.15359853, -1349767.8, -24978.693, 0.0, 9.99909, 10.000225 
7.649775e+2, 1.7481631e+2, -1319048.1, -1243159.0, -34347.832, 0.0054053986, -0.1538461, -1229921.9, -3135.3857, 0.0, 9.999237, 10.000238 
7.64988e+2, 1.8481655e+2, -1228369.4, -1178877.4, -23312.906, 0.024199855, -0.13970555, -1169625.5, -40841.4, 0.0, 9.999317, 9.999968 
7.649981e+2, 1.9481675e+2, -1127373.9, -1078235.4, -7719.1465, -0.0043723118, -0.11916079, -1077051.4, -46269.59, 0.0, 9.999332, 9.999978 
7.6500803e+2, 2.0481656e+2, -1014732.0, -1011392.8, -34746.645, -0.0047560697, -0.12019108, -978275.6, -45491.49, 0.0, 9.999595, 9.9996395 
7.6501787e+2, 2.1481587e+2, -840596.06, -874880.25, -38347.59, 0.03013369, -0.1561229, -815733.5, 19058.273, 0.0, 10.000111, 9.999656 
7.650275e+2, 2.2481553e+2, -721845.25, -782025.75, -16143.649, 0.009069225, -0.1475921, -717788.2, 19006.97, 0.0, 10.00032, 9.999518 
7.65037e+2, 2.3481555e+2, -638959.44, -689777.8, -28452.23, -0.074058995, -0.1010398, -626222.1, 12571.907, 0.0, 10.00021, 9.999533 
7.650468e+2, 2.4481462e+2, -587454.4, -739487.94, -48744.1, -0.09287296, -0.09054152, -573168.7, -32364.945, 0.0, 10.000428, 9.998413 
7.650569e+2, 2.5481266e+2, -405462.6, -601208.75, -32432.41, -0.042522665, -0.12949345, -400228.9, 42596.23, 0.0, 10.001006, 9.998411 
7.6506674e+2, 2.6481125e+2, -249644.33, -455350.13, -12810.031, -0.041613895, -0.12024252, -248849.67, 95990.42, 0.0, 10.001319, 9.998589 
7.6507634e+2, 2.7481037e+2, -146461.78, -351371.66, -30461.422, -0.09357885, -0.07192372, -142029.34, 104819.02, 0.0, 10.001339, 9.99862 
7.650862e+2, 2.848087e+2, -74325.734, -328372.2, -32591.266, -0.12998787, -0.07465047, -70211.28, 78653.39, 0.0, 10.00143, 9.998063 
7.650962e+2, 2.9480615e+2, 51584.707, -218508.98, -31114.969, -0.15122339, -0.13550182, 55122.824, 106011.98, 0.0, 10.001627, 9.998049 
7.651063e+2, 3.0480462e+2, 137346.39, -100103.66, -33473.598, -0.16331558, -0.11592986, 141974.97, 141974.97, 0.0, 10.001658, 9.998513 
7.651171e+2, 3.1480315e+2, 127326.2, -75721.19, -16242.229, -0.105052985, -0.11865343, 128617.24, 128617.24, 0.000000028836135, 10.001461, 9.998775 
7.749254e+2, 1.2480475e+2, -1809272.8, -1755568.3, -40653.805, 0.18871918, -0.09337139, -1733699.1, -16795.045, 0.00000000003061157, 9.99934, 10.000033 
7.749335e+2, 1.3480505e+2, -1692938.1, -1633199.6, 23521.232, -0.12863812, -0.08387808, -1625050.3, -6149.0176, 0.0, 9.999383, 10.000189 
7.7494633e+2, 1.4480461e+2, -1587510.9, -1491769.4, -11681.864, 0.05913015, -0.16008638, -1490364.6, 30540.209, 0.0, 9.999269, 10.000536 
7.749565e+2, 1.5480566e+2, -1512181.1, -1403509.1, -5308.6787, 0.035477318, -0.11279398, -1403250.5, 19642.24, 0.0, 9.999107, 10.000546 
7.749666e+2, 1.6480596e+2, -1467127.8, -1411034.5, -14170.306, 0.011706347, -0.10163016, -1407658.0, -82768.75, 0.0, 9.999089, 9.99983 
7.74977e+2, 1.7480543e+2, -1347104.9, -1301331.6, -28391.41, 0.030338343, -0.14082631, -1287750.9, -60855.547, 0.0, 9.999237, 9.999839 
7.749874e+2, 1.8480551e+2, -1200309.0, -1120563.5, -23680.752, 0.035319515, -0.14095424, -1114061.5, 14832.879, 0.0, 9.999315, 10.00037 
7.749976e+2, 1.9480626e+2, -1098422.4, -1018040.0, -6907.0874, 0.013755237, -0.108150564, -1017450.8, 13435.193, 0.0, 9.99933, 10.000394 
7.750075e+2, 2.0480624e+2, -1019918.25, -1020083.44, -16738.377, -0.0189947, -0.10846094, -1003262.25, -70376.586, 0.0, 9.999586, 9.999584 
7.7501714e+2, 2.148054e+2, -846808.75, -885801.56, -18707.076, -0.05801571, -0.15500538, -839285.44, -4391.119, 0.0, 10.000102, 9.999584 
7.750271e+2, 2.2480498e+2, -744871.0, -828801.8, -21134.387, -0.0688177, -0.13372752, -739849.6, -2950.532, 0.0, 10.000315, 9.999201 
7.750374e+2, 2.3480506e+2, -661916.56, -736517.6, -32088.121, -0.051342834, -0.049522873, -650013.6, -11113.904, 0.0, 10.000205, 9.999214 
7.750477e+2, 2.4480401e+2, -556989.56, -674701.9, -28175.393, -0.037306707, -0.056265526, -550593.1, -9683.401, 0.0, 10.000422, 9.998861 
7.7505803e+2, 2.5480175e+2, -373936.72, -533608.7, -9812.189, -0.027335709, -0.17199297, -373336.0, 69593.836, 0.0, 10.000998, 9.998879 
7.75068e+2, 2.6480013e+2, -280980.7, -519200.94, -11803.773, -0.052636262, -0.18706858, -280397.25, 64548.637, 0.0, 10.001312, 9.998154 
7.7507746e+2, 2.7479914e+2, -179971.89, -419017.44, -28464.545, -0.11541817, -0.10443913, -176629.19, 70328.63, 0.0, 10.001329, 9.99816 
7.7508736e+2, 2.8479737e+2, -70127.99, -317429.6, -25716.027, -0.1589323, -0.09648525, -67482.18, 81494.01, 0.0, 10.00142, 9.998142 
7.7509755e+2, 2.9479474e+2, 56016.383, -207347.44, -20808.639, -0.18383335, -0.17488633, 57650.355, 108651.664, 0.0, 10.001617, 9.998131 
7.7510774e+2, 3.0479383e+2, 125534.6, -122489.25, -38915.797, -0.18659426, -0.08876125, 131497.28, 131497.28, 0.0, 10.001649, 9.998364 
7.7511877e+2, 3.1479263e+2, 124982.77, -77828.195, -22063.227, -0.088411324, -0.050984684, 127355.22, 127355.22, 0.0000000029769756, 10.001448, 9.998768 
7.849252e+2, 1.2479507e+2, -1736690.6, -1730403.5, -3484.8, 0.2141042, -0.052492037, -1728853.9, -11852.472, 0.0000000009851104, 9.999877, 9.9999485 
7.849329e+2, 1.3479525e+2, -1688441.5, -1644316.8, 59135.043, -0.1300929, -0.044534616, -1603262.6, 15737.339, 0.0, 9.999473, 10.00007 
7.8494537e+2, 1.4479469e+2, -1595777.8, -1511481.3, 22167.33, 0.030902702, -0.11959388, -1506007.4, 14997.351, 0.0, 9.999277, 10.000399 
7.8495574e+2, 1.5479562e+2, -1478284.6, -1402348.4, 145.70567, 0.03240562, -0.070709795, -1402348.1, 20646.07, 0.0, 9.999406, 10.000411 
7.84966e+2, 1.647958e+2, -1412119.6, -1374956.6, -1304.2726, 0.024761632, -0.06778259, -1374910.9, -49919.707, 0.0, 9.999428, 9.999914 
7.849765e+2, 1.747952e+2, -1324584.3, -1280876.4, 19605.94, 0.04707734, -0.12422477, -1273370.6, -46374.09, 0.0, 9.999351, 9.999925 
7.849869e+2, 1.8479508e+2, -1211788.3, -1155972.1, 20993.064, 0.051824115, -0.1352675, -1148957.9, -19960.492, 0.0, 9.999364, 10.000104 
7.849971e+2, 1.947955e+2, -1096605.6, -1047416.2, -15444.753, 0.024028765, -0.10708403, -1042968.8, -11975.539, 0.0, 9.999474, 10.000123 
7.850071e+2, 2.0479544e+2, -1005211.94, -1006511.25, -34142.844, -0.017940117, -0.10125912, -971712.56, -38718.813, 0.0, 9.999661, 9.99964 
7.85017e+2, 2.1479483e+2, -866150.4, -888631.7, -27591.125, -0.069501236, -0.1297275, -847598.06, -12598.799, 0.0, 9.999943, 9.999641 
7.8502727e+2, 2.2479431e+2, -775187.8, -864429.6, -31303.828, -0.075075954, -0.11276079, -765302.25, -28297.22, 0.0, 10.000197, 9.999012 
7.850379e+2, 2.347939e+2, -642578.3, -748805.6, -35116.613, -0.034596253, -0.057969272, -632019.06, 6992.0767, 0.0, 10.000432, 9.99902 
7.8504837e+2, 2.4479283e+2, -514492.84, -628531.0, -22965.945, -0.023289619, -0.068855435, -510041.53, 30979.666, 0.0, 10.000606, 9.999088 
7.8505874e+2, 2.5479105e+2, -399592.06, -520050.03, -23485.393, -0.04391618, -0.16074, -395175.13, 47860.332, 0.0, 10.0007105, 9.99911 
7.8506887e+2, 2.6478955e+2, -350241.75, -558925.56, -27691.324, -0.07395066, -0.17048132, -346629.78, -1580.1418, 0.0, 10.000864, 9.998097 
7.8507864e+2, 2.7478832e+2, -218773.48, -445152.28, -17197.813, -0.11360846, -0.1026634, -217474.44, 29589.572, 0.0, 10.001096, 9.998094 
7.850887e+2, 2.847865e+2, -86847.125, -322132.13, 908.2945, -0.15262267, -0.09909472, -86843.62, 62239.594, 0.0, 10.00129, 9.998173 
7.850989e+2, 2.9478404e+2, 27879.17, -216918.22, -727.71484, -0.19144672, -0.16917862, 27881.332, 78988.63, 0.0, 10.00141, 9.998164 
7.851091e+2, 3.047833e+2, 100398.34, -139904.0, -22269.64, -0.20011345, -0.060257606, 102444.72, 102444.72, 0.0, 10.0015, 9.998316 
7.851203e+2, 3.147816e+2, 160084.84, -38115.594, -4242.518, -0.08522887, -0.06815705, 160175.61, 160175.61, 0.0, 10.001594, 9.998969 
7.949237e+2, 1.2478543e+2, -1732995.5, -1726456.9, -15983.539, 0.07076495, -0.060772818, -1713411.6, 3685.5002, 0.0000000034592607, 9.999891, 9.99997 
7.949332e+2, 1.3478611e+2, -1688982.1, -1647371.0, 43312.03, -0.04913979, 0.0008316457, -1620126.5, -1036.1779, 0.0, 9.99948, 10.000046 
7.949458e+2, 1.4478543e+2, -1631159.1, -1585194.1, 24419.191, 0.14603208, -0.060497668, -1574643.3, -53545.777, 0.0, 9.999279, 9.99989 
7.9495513e+2, 1.5478557e+2, -1513535.0, -1475453.6, 5699.1685, 0.033878196, -0.040253747, -1474619.0, -51522.12, 0.0, 9.999406, 9.999909 
7.94965e+2, 1.6478564e+2, -1372985.1, -1294112.8, -5136.4473, -0.012204348, -0.05182884, -1293779.6, 31314.766, 0.0, 9.999428, 10.00047 
7.949759e+2, 1.7478563e+2, -1284142.6, -1198017.9, 17273.738, 0.05260164, -0.10459926, -1194682.5, 32407.357, 0.0, 9.999353, 10.000493 
7.949864e+2, 1.8478526e+2, -1277550.4, -1291755.6, 23887.342, 0.069441855, -0.12352046, -1259732.1, -130639.5, 0.0, 9.999362, 9.999172 
7.9499656e+2, 1.9478454e+2, -1164993.5, -1188200.0, -11242.604, 0.02215144, -0.116195776, -1160440.3, -129336.87, 0.0, 9.999469, 9.999159 
7.9500693e+2, 2.0478417e+2, -994663.44, -983500.44, -24896.383, -0.0060760537, -0.09871641, -963567.56, -30459.498, 0.0, 9.999656, 9.999801 
7.950176e+2, 2.1478419e+2, -854064.56, -861838.94, -16609.006, -0.008602061, -0.08025368, -840893.94, -5787.6323, 0.0, 9.999934, 9.999829 
7.950281e+2, 2.2478354e+2, -781183.0, -874782.25, -23495.195, -0.0146925915, -0.0846845, -775616.3, -38503.668, 0.0, 10.000188, 9.998945 
7.950384e+2, 2.347821e+2, -648390.94, -759902.1, -25671.76, -0.02591153, -0.12508427, -642764.7, -3636.7317, 0.0, 10.000427, 9.998946 
7.9504865e+2, 2.4478108e+2, -514639.5, -628540.3, -19184.217, -0.053438008, -0.12696652, -511495.13, 29642.764, 0.0, 10.000603, 9.99909 
7.950589e+2, 2.5478056e+2, -400426.5, -520368.94, -18599.53, -0.09852349, -0.09472459, -397608.47, 45533.242, 0.0, 10.000703, 9.999111 
7.9506934e+2, 2.6477954e+2, -329053.4, -513637.16, -19684.047, -0.11205297, -0.07200301, -326977.63, 18173.588, 0.0, 10.000858, 9.998412 
7.9508e+2, 2.7477795e+2, -196676.47, -398704.94, -7020.223, -0.09130567, -0.07357991, -196432.81, 50734.605, 0.0, 10.001092, 9.998415 
7.950904e+2, 2.847761e+2, -90785.69, -329237.25, 6355.402, -0.11431843, -0.08563847, -90616.42, 58569.637, 0.0, 10.001285, 9.998127 
7.951004e+2, 2.94774e+2, 22627.066, -225282.9, 5734.923, -0.18635723, -0.11182685, 22759.662, 73966.39, 0.0, 10.001397, 9.998114 
7.951105e+2, 3.047731e+2, 104860.0, -128223.28, -19713.69, -0.21597137, -0.022890083, 106515.58, 106515.58, 0.0, 10.001491, 9.998401 
7.951217e+2, 3.1477007e+2, 187157.56, 18579.008, -374.9559, -0.10304452, -0.1713763, 187158.39, 187158.39, 0.0, 10.001591, 9.999361 
8.0492324e+2, 1.2477578e+2, -1752851.4, -1730399.1, -50157.805, 0.038236637, -0.03465817, -1690226.5, 26967.498, 0.0000000057252847, 9.99973, 10.000022 
8.049331e+2, 1.3477641e+2, -1703196.8, -1651542.9, 5066.601, -0.006701763, 0.02022832, -1651050.6, -31863.637, 0.0, 9.9993725, 10.000069 
8.049454e+2, 1.4477564e+2, -1665807.6, -1612449.3, 19835.955, 0.19468045, -0.045029126, -1605883.3, -84688.65, 0.0, 9.999089, 9.999794 
8.049546e+2, 1.5477562e+2, -1580077.4, -1519361.3, 30950.44, 0.05548832, -0.03204193, -1506365.6, -83169.57, 0.0, 9.9990015, 9.999803 
8.0496436e+2, 1.6477562e+2, -1413925.1, -1319709.5, 21134.47, -0.009443801, -0.041912995, -1315185.9, 10008.605, 0.0, 9.999171, 10.000419 
8.049753e+2, 1.7477566e+2, -1248738.1, -1186416.4, -4955.2954, 0.040397096, -0.084329486, -1186024.9, 41164.57, 0.0, 9.99962, 10.000443 
8.0498594e+2, 1.8477525e+2, -1201178.4, -1265232.4, 8042.839, 0.055328857, -0.10231371, -1200183.9, -70991.33, 0.0, 9.999932, 9.999079 
8.049963e+2, 1.947743e+2, -1078804.4, -1157616.6, 37256.938, 0.021820797, -0.104123436, -1063980.3, -32775.453, 0.0, 10.000109, 9.99906 
8.050069e+2, 2.0477386e+2, -951136.1, -982486.5, 39748.813, 0.008874531, -0.08113855, -924083.3, 9127.173, 0.0, 10.000041, 9.999622 
8.050177e+2, 2.1477394e+2, -900426.3, -903725.25, 18496.842, 0.02129391, -0.042004667, -883505.56, -48296.066, 0.0, 9.999702, 9.999653 
8.0502826e+2, 2.247732e+2, -832331.4, -886699.9, 20830.777, 0.009099939, -0.051735625, -825267.94, -88051.45, 0.0, 9.9997835, 9.999058 
8.050387e+2, 2.3477155e+2, -654882.56, -749995.94, 32015.97, -0.030277902, -0.12458406, -645109.9, -5877.5684, 0.0, 10.000326, 9.999063 
8.050492e+2, 2.4477051e+2, -521113.66, -660123.6, 27683.248, -0.06524143, -0.12253985, -515803.5, 25439.021, 0.0, 10.000681, 9.998836 
8.050596e+2, 2.5477013e+2, -398715.22, -548992.3, 6515.611, -0.09650062, -0.0481045, -398433.25, 44813.5, 0.0, 10.000842, 9.998848 
8.050703e+2, 2.6476914e+2, -294242.22, -479501.34, -6526.955, -0.10973712, -0.018502394, -294012.56, 51243.984, 0.0, 10.001023, 9.998566 
8.0508107e+2, 2.747674e+2, -168067.95, -366666.28, -7362.835, -0.10255851, -0.051442027, -167795.36, 79477.6, 0.0, 10.001211, 9.998577 
8.050916e+2, 2.847655e+2, -87070.4, -314775.72, -32.24139, -0.11787234, -0.07888949, -87070.39, 62220.25, 0.0, 10.001257, 9.998239 
8.0510193e+2, 2.9476354e+2, -3062.4146, -225312.58, 8990.322, -0.15955375, -0.10274126, -2699.337, 48609.703, 0.0, 10.001167, 9.998223 
8.051122e+2, 3.0476254e+2, 75651.06, -184469.83, -11118.993, -0.19843343, -0.014001906, 76125.484, 76125.484, 0.0, 10.0014715, 9.998024 
8.051233e+2, 3.147591e+2, 264918.47, 49412.9, -31009.06, -0.1272421, -0.16449475, 269291.6, 269291.6, 0.0, 10.002154, 9.999301 
8.149236e+2, 1.24766216e+2, -1746651.3, -1718390.3, -62380.258, 0.10179578, 0.03195795, -1668560.1, 48730.734, 0.000000004999778, 9.999735, 10.000102 
8.1493235e+2, 1.3476619e+2, -1699566.1, -1641702.0, -9212.063, -0.010924989, 0.014061058, -1640270.9, -20981.598, 0.0, 9.999366, 10.000138 
8.1494427e+2, 1.447654e+2, -1644550.1, -1568300.8, 14293.624, 0.16740091, -0.07223977, -1565709.4, -44413.67, 0.0, 9.999087, 10.000099 
8.14954e+2, 1.5476581e+2, -1557356.6, -1474876.5, 28964.69, 0.094809264, -0.046742767, -1465721.1, -42429.746, 0.0, 9.99901, 10.000105 
8.1496394e+2, 1.6476579e+2, -1460309.6, -1416834.4, 36753.86, 0.029736318, -0.040266283, -1395871.1, -70580.09, 0.0, 9.999175, 9.999749 
8.1497455e+2, 1.7476533e+2, -1297382.5, -1286054.4, 12170.473, 0.00468165, -0.06465806, -1278294.5, -50999.625, 0.0, 9.999616, 9.999762 
8.149854e+2, 1.8476504e+2, -1149777.9, -1157641.1, 13721.021, 0.0037507291, -0.07145408, -1139436.4, -10139.445, 0.0, 9.999927, 9.999821 
8.149965e+2, 1.9476493e+2, -1024546.0, -1045104.0, 44150.617, 0.020141559, -0.06960033, -989493.6, 41803.414, 0.0, 10.000108, 9.999833 
8.150071e+2, 2.047646e+2, -988152.06, -1058322.1, 26296.717, 0.02379852, -0.048324972, -979391.06, -46090.266, 0.0, 10.000037, 9.999104 
8.1501734e+2, 2.1476406e+2, -939609.56, -984169.4, 5883.678, 0.01661061, -0.014715571, -938845.75, -103537.2, 0.0, 9.999698, 9.999103 
8.150279e+2, 2.2476327e+2, -812023.4, -844255.06, 39432.438, -0.008220212, -0.013553731, -785540.6, -48224.336, 0.0, 9.999782, 9.999351 
8.150388e+2, 2.3476224e+2, -633692.1, -704941.2, 52851.613, -0.052103903, -0.057378557, -605579.7, 33744.28, 0.0, 10.000321, 9.999374 
8.150499e+2, 2.447611e+2, -557983.9, -735484.1, 33105.96, -0.063645735, -0.057465144, -552010.25, -10675.029, 0.0, 10.000675, 9.998322 
8.1506103e+2, 2.547598e+2, -436608.06, -626801.8, 13236.649, -0.040607028, -0.021563657, -435691.28, 7659.2266, 0.0, 10.000837, 9.998317 
8.150717e+2, 2.6475835e+2, -296149.47, -482119.44, 776.4014, -0.07013161, -0.008084795, -296146.25, 49219.13, 0.0, 10.001018, 9.998551 
8.150817e+2, 2.747567e+2, -169798.92, -367798.03, 1228.208, -0.15583658, -0.030684482, -169791.3, 77588.8, 0.0, 10.0012, 9.998575 
8.150923e+2, 2.8475478e+2, -68050.234, -274090.7, -4028.1785, -0.1712883, -0.075963415, -67971.516, 81425.15, 0.0, 10.00125, 9.998522 
8.151036e+2, 2.9475263e+2, 16663.082, -185274.89, 7154.5146, -0.113494515, -0.14860283, 16916.242, 68331.14, 0.0, 10.00117, 9.998497 
8.1511414e+2, 3.0475155e+2, 16928.525, -306312.1, 15170.52, -0.14952664, -0.039002888, 17638.957, 17638.957, 0.0, 10.001471, 9.997188 
8.1512505e+2, 3.1474864e+2, 224477.6, -30345.184, -4280.4033, -0.17604713, -0.050854612, 224549.48, 224549.48, 0.0000000016901937, 10.002135, 9.998763 
8.249232e+2, 1.2475596e+2, -1946741.6, -1774144.8, -60550.484, 0.16892901, 0.04654114, -1755021.3, -37628.066, 0.0000000017683296, 9.998189, 10.000463 
8.249316e+2, 1.3475603e+2, -1731163.9, -1620343.6, 6363.41, -0.0054950537, 0.0044942256, -1619979.5, -589.9455, 0.0, 9.998991, 10.000465 
8.2494324e+2, 1.4475542e+2, -1585542.9, -1534624.9, 26762.508, 0.13551149, -0.083882205, -1523146.3, -1752.66, 0.0, 9.999469, 10.000147 
8.2495326e+2, 1.5475594e+2, -1460336.6, -1423344.3, 19774.346, 0.089701146, -0.051334705, -1414764.0, 8623.901, 0.0, 9.999657, 10.000147 
8.249635e+2, 1.6475594e+2, -1389322.4, -1410713.0, 41533.75, 0.03955657, -0.03291053, -1357129.0, -31741.012, 0.0, 9.999786, 9.9994955 
8.2497436e+2, 1.747554e+2, -1279214.8, -1307302.1, 47979.15, 0.013962786, -0.03839723, -1243266.3, -15871.842, 0.0, 9.99987, 9.999493 
8.249853e+2, 1.8475512e+2, -1155668.3, -1146311.6, 35192.883, 0.013029232, -0.037064146, -1115487.5, 13909.162, 0.0, 9.999826, 9.999946 
8.249964e+2, 1.9475508e+2, -1083534.1, -1058400.4, 15478.422, 0.02838006, -0.040498577, -1051029.6, -19635.084, 0.0, 9.999639, 9.999967 
8.250071e+2, 2.0475459e+2, -1024700.94, -1095533.6, -6855.2544, 0.026044305, -0.032902826, -1024043.6, -90644.34, 0.0, 9.999872, 9.998927 
8.250174e+2, 2.1475366e+2, -825045.56, -949665.44, -561.7192, 0.0077751903, -0.02082582, -825043.06, 10368.158, 0.0, 10.000574, 9.998918 
8.250281e+2, 2.2475284e+2, -667889.2, -787243.1, 31781.748, -0.01607552, -0.009197223, -659953.9, 77465.89, 0.0, 10.000825, 9.99924 
8.250393e+2, 2.3475213e+2, -604716.4, -702960.9, 11916.058, -0.046922736, -0.008504314, -603291.75, 36133.1, 0.0, 10.000573, 9.999267 
8.2505065e+2, 2.4475093e+2, -577455.6, -738855.8, -1524.2921, -0.04742865, -0.009989663, -577441.25, -36004.83, 0.0, 10.000517, 9.998374 
8.250621e+2, 2.5474918e+2, -455319.72, -629023.1, 21003.936, -0.015266602, -0.024638316, -452816.03, -9360.855, 0.0, 10.000681, 9.998376 
8.250728e+2, 2.647476e+2, -327507.8, -510631.88, 28865.518, -0.04903756, -0.024425, -323065.56, 22405.871, 0.0, 10.00086, 9.998429 
8.250829e+2, 2.747461e+2, -199572.28, -396150.34, 18554.014, -0.15329002, -0.018630134, -197836.39, 49648.844, 0.0, 10.001057, 9.998448 
8.250936e+2, 2.847442e+2, -53508.645, -276572.38, -3184.6506, -0.17328496, -0.052990228, -53463.188, 96038.89, 0.0, 10.001391, 9.998437 
8.251052e+2, 2.947418e+2, 113043.44, -147993.02, -20769.299, -0.10490444, -0.13617685, 114685.61, 166207.75, 0.0, 10.001873, 9.998415 
8.25116e+2, 3.047404e+2, 87553.25, -286909.34, 1663.5183, -0.13700022, -0.053150557, 87560.64, 87560.64, 0.0, 10.002019, 9.997057 
8.251271e+2, 3.1473777e+2, 180460.4, -37244.383, 28887.89, -0.16113336, -0.02411521, 184228.4, 184228.4, 0.000000023716037, 10.001773, 9.998889 
8.3492196e+2, 1.2474507e+2, -1903281.3, -1682494.3, -28270.715, 0.22044742, 0.0073631858, -1678931.9, 38568.79, 0.000000000051048894, 9.9981785, 10.001099 
8.349307e+2, 1.3474599e+2, -1686409.0, -1531403.3, 38329.055, 0.0056234947, -0.010778603, -1522443.4, 97043.99, 0.0, 9.999004, 10.00107 
8.349423e+2, 1.4474572e+2, -1601254.1, -1569012.6, 32690.295, 0.09322191, -0.08307264, -1548684.4, -27196.428, 0.0, 9.999478, 9.999906 
8.349524e+2, 1.5474603e+2, -1477978.3, -1458768.4, 27049.139, 0.035142712, -0.04615891, -1439669.5, -16184.16, 0.0, 9.999653, 9.999905 
8.349631e+2, 1.6474609e+2, -1377715.4, -1386319.0, 44030.676, 0.014196253, -0.017703678, -1337776.9, -12291.833, 0.0, 9.999783, 9.999665 
8.349747e+2, 1.7474593e+2, -1265797.3, -1281950.0, 52212.297, 0.064692765, -0.0034391477, -1221040.4, 6446.8965, 0.0, 9.999879, 9.999663 
8.3498585e+2, 1.8474552e+2, -1191176.3, -1220023.3, 27471.895, 0.07847969, 0.0005124666, -1174571.6, -45080.48, 0.0, 9.999827, 9.999439 
8.349962e+2, 1.947448e+2, -1120980.8, -1134485.1, 8405.341, 0.042543437, -0.018192202, -1116951.4, -85454.125, 0.0, 9.999632, 9.999448 
8.3500683e+2, 2.0474389e+2, -1014297.75, -1072451.8, 17497.266, 0.011566216, -0.03475673, -1009439.1, -75933.36, 0.0, 9.999864, 9.999089 
8.3501774e+2, 2.1474276e+2, -812674.3, -923390.9, 25857.41, -0.0092376135, -0.059783656, -806933.1, 28583.959, 0.0, 10.00057, 9.9991 
8.3502895e+2, 2.2474188e+2, -704966.25, -863209.6, 21869.965, -0.01837133, -0.038790554, -701999.3, 35527.332, 0.0, 10.000819, 9.998722 
8.3504015e+2, 2.3474126e+2, -642472.6, -780967.0, 2578.7537, -0.016860513, 0.022632632, -642424.6, -2890.179, 0.0, 10.00057, 9.998733 
8.350515e+2, 2.4474008e+2, -535320.1, -650830.6, 3546.649, -0.019341238, 0.022278411, -535211.3, 6334.282, 0.0, 10.000513, 9.9989805 
8.350626e+2, 2.5473833e+2, -411690.38, -537503.3, 27928.424, -0.026449664, -0.05618649, -405769.38, 37791.207, 0.0, 10.000676, 9.999007 
8.3507365e+2, 2.6473683e+2, -343644.78, -543990.2, 35398.33, -0.052663665, -0.068281315, -337574.3, 8000.5195, 0.0, 10.000858, 9.998202 
8.350845e+2, 2.7473554e+2, -217629.34, -433020.94, 26680.285, -0.098721884, -0.018692777, -214373.7, 33215.0, 0.0, 10.001052, 9.9981985 
8.3509547e+2, 2.847337e+2, -86534.38, -343041.66, 15091.496, -0.12779054, -0.011693237, -85649.53, 63957.426, 0.0, 10.001383, 9.997985 
8.351067e+2, 2.947312e+2, 79217.72, -214520.86, -426.30176, -0.1415113, -0.06237581, 79218.336, 130848.63, 0.0, 10.001858, 9.997965 
8.351177e+2, 3.0472907e+2, 125349.91, -206707.25, -6374.3193, -0.16825579, -0.051940538, 125472.23, 125472.23, 0.0, 10.00201, 9.997612 
8.3512956e+2, 3.1472626e+2, 232457.64, 71355.13, 20170.584, -0.0950729, -0.099370636, 234944.67, 234944.67, 0.00000010288848, 10.001769, 9.999638 
8.4492004e+2, 1.2473463e+2, -1825934.3, -1663878.0, 33519.46, 0.18437979, -0.037584387, -1657218.5, 60382.637, 0.0, 9.998787, 10.000934 
8.449298e+2, 1.3473596e+2, -1711048.9, -1562857.8, 35304.6, 0.02054218, 0.0031307223, -1554876.8, 64709.367, 0.0, 9.998924, 10.00089 
8.4494185e+2, 1.4473581e+2, -1655863.1, -1603982.1, -1554.0817, 0.11572339, -0.04390538, -1603935.6, -82349.19, 0.0, 9.999143, 9.9998255 
8.4495205e+2, 1.5473579e+2, -1504157.4, -1479951.4, 5757.4355, 0.045312844, -0.03145629, -1478651.8, -55065.082, 0.0, 9.999511, 9.999826 
8.449629e+2, 1.647357e+2, -1383057.9, -1390127.5, 17836.193, 0.025077496, -0.015021675, -1368409.6, -42821.984, 0.0, 9.999751, 9.999655 
8.449748e+2, 1.7473552e+2, -1271301.6, -1285622.0, 9781.68, 0.08602889, -0.00024373029, -1266339.6, -38750.137, 0.0, 9.999846, 9.999653 
8.4498596e+2, 1.8473496e+2, -1171332.6, -1239557.3, -11817.052, 0.096842825, 0.0017087705, -1169343.8, -39748.734, 0.0, 10.000087, 9.999181 
8.449962e+2, 1.9473395e+2, -1015822.1, -1113418.1, -12045.307, 0.0429942, -0.020942003, -1014357.5, 17247.348, 0.0, 10.00048, 9.999185 
8.45007e+2, 2.0473291e+2, -902844.7, -1012919.1, 10739.64, 0.009930858, -0.0391987, -901806.7, 31807.842, 0.0, 10.000603, 9.999143 
8.450184e+2, 2.1473183e+2, -831773.8, -925939.1, 8534.772, 0.0036548022, -0.065456815, -831006.56, 4617.788, 0.0, 10.00041, 9.99916 
8.450297e+2, 2.2473088e+2, -778221.3, -914278.9, 3519.1443, 0.004472676, -0.047214344, -778130.4, -40495.87, 0.0, 10.000385, 9.998579 
8.4504104e+2, 2.3473006e+2, -655764.44, -804066.0, 11044.384, 0.010458517, 0.011270516, -654946.44, -15301.475, 0.0, 10.000551, 9.998583 
8.450521e+2, 2.4472891e+2, -502153.56, -632379.94, 14271.718, -0.008132208, 0.017722495, -500607.84, 41048.605, 0.0, 10.000731, 9.999002 
8.4506315e+2, 2.5472733e+2, -374188.97, -516457.6, -7975.7627, -0.053719465, -0.04430904, -373743.22, 69926.1, 0.0, 10.000922, 9.999033 
8.450744e+2, 2.647259e+2, -306637.6, -514258.0, -11630.613, -0.07298024, -0.055423845, -305988.1, 39694.613, 0.0, 10.001062, 9.998307 
8.450859e+2, 2.7472457e+2, -193923.36, -409106.72, 4262.2173, -0.062038414, -0.02071843, -193838.97, 53857.965, 0.0, 10.0011635, 9.998307 
8.4509736e+2, 2.847229e+2, -98196.36, -351198.16, 29252.162, -0.07803866, -0.0015918087, -94858.26, 54855.6, 0.0, 10.001316, 9.997959 
8.451085e+2, 2.9472077e+2, 24690.223, -243516.42, 42926.734, -0.12496123, -0.012593406, 31393.172, 83127.43, 0.0, 10.001495, 9.997939 
8.451196e+2, 3.0471823e+2, 95133.2, -203969.05, 29051.22, -0.16298999, -0.049032465, 97928.766, 97928.766, 0.00000000024035085, 10.001729, 9.997765 
8.451316e+2, 3.1471536e+2, 285140.97, 121417.72, 19796.26, -0.08011648, -0.11824159, 287500.6, 287500.6, 0.00000026211356, 10.002025, 9.999858 
8.5491735e+2, 1.2472471e+2, -1895222.8, -1810556.8, 36221.656, 0.036655974, -0.09013167, -1797175.4, -79481.2, 0.0, 9.9988, 9.99992 
8.54929e+2, 1.3472599e+2, -1783935.5, -1712903.5, 39500.87, 0.03822408, 0.04838191, -1695299.8, -75614.46, 0.0, 9.9989195, 9.999863 
8.5494184e+2, 1.4472574e+2, -1648372.3, -1587837.1, 10742.808, 0.20040649, 0.037051503, -1585987.3, -64298.41, 0.0, 9.999138, 9.99994 
8.549523e+2, 1.5472528e+2, -1493401.9, -1461076.1, 21229.55, 0.11449402, -0.0073205424, -1450556.9, -26865.387, 0.0, 9.999523, 9.999951 
8.5496306e+2, 1.6472477e+2, -1398407.9, -1422747.6, 20906.55, 0.06561599, -0.0275531, -1386387.1, -60691.594, 0.0, 9.999755, 9.999429 
8.5497457e+2, 1.7472418e+2, -1287016.3, -1317542.8, 13431.991, 0.07570397, -0.030745732, -1281947.6, -54246.703, 0.0, 9.999844, 9.999435 
8.549857e+2, 1.8472347e+2, -1171768.4, -1239312.4, 1784.0795, 0.06435694, -0.034034256, -1171721.4, -42013.35, 0.0, 10.00008, 9.9991865 
8.549965e+2, 1.9472253e+2, -1014491.9, -1111889.8, 3091.9175, 0.025707047, -0.048469797, -1014393.8, 17323.158, 0.0, 10.000484, 9.999193 
8.550077e+2, 2.0472167e+2, -907614.56, -1022015.6, 2843.4736, 0.01681521, -0.047167115, -907543.94, 26181.252, 0.0, 10.000599, 9.999083 
8.550192e+2, 2.1472089e+2, -836886.8, -935429.44, 1331.0189, 0.043023985, -0.038193416, -836868.8, -1136.2904, 0.0, 10.000404, 9.999098 
8.550306e+2, 2.2471987e+2, -763976.0, -883105.8, 7995.263, 0.048622392, -0.033396807, -763441.8, -25699.018, 0.0, 10.000378, 9.998796 
8.5504174e+2, 2.347186e+2, -639868.4, -770864.0, 17770.947, 0.030789936, -0.04327897, -637500.4, 2255.7808, 0.0, 10.000549, 9.998812 
8.5505277e+2, 2.447174e+2, -541680.06, -714308.06, 20880.326, -0.017865216, -0.025518013, -539190.4, 2578.5251, 0.0, 10.00073, 9.998442 
8.550636e+2, 2.5471622e+2, -415530.22, -601300.56, -70.386086, -0.09917992, 0.010212927, -415530.22, 28250.938, 0.0, 10.0009165, 9.998453 
8.5507506e+2, 2.6471487e+2, -277703.9, -452780.88, -8287.995, -0.11136926, 0.015247697, -277312.44, 68482.16, 0.0, 10.001057, 9.998733 
8.550872e+2, 2.7471325e+2, -163477.98, -344116.34, 9158.172, -0.048586987, -0.022404937, -163014.88, 84794.64, 0.0, 10.001157, 9.998757 
8.5509914e+2, 2.847118e+2, -72103.59, -296407.5, 35989.285, -0.030792415, -0.0208418, -66470.62, 83352.07, 0.0, 10.001312, 9.998338 
8.5511065e+2, 2.9471052e+2, 50181.125, -189436.5, 50706.22, -0.06266358, 0.01166263, 60469.477, 112303.945, 0.0, 10.00149, 9.998314 
8.5512173e+2, 3.0470783e+2, 78022.23, -238517.02, 39440.59, -0.12617159, -0.046862002, 82862.484, 82862.484, 0.0000000059514194, 10.001725, 9.99753 
8.5513324e+2, 3.147049e+2, 264073.84, 80434.77, 30880.602, -0.12349877, -0.09918205, 269127.63, 269127.63, 0.0000005093443, 10.002013, 9.999581 
8.6491597e+2, 1.247142e+2, -1986450.4, -1865321.3, -65401.637, 0.046743322, -0.03984675, -1836748.6, -118950.31, 0.00000000000000000000885557, 9.998224, 9.999821 
8.649279e+2, 1.3471492e+2, -1769095.5, -1716834.9, 6549.5947, 0.03887604, 0.05247314, -1716026.5, -96231.305, 0.0, 9.99907, 9.9997635 
8.6494106e+2, 1.4471455e+2, -1588391.4, -1557639.8, 2741.9478, 0.19409432, 0.03411356, -1557397.3, -35597.473, 0.0, 9.999543, 9.999952 
8.6495197e+2, 1.547143e+2, -1475811.4, -1451323.1, 1222.3987, 0.12948015, 0.0082950555, -1451262.3, -27462.023, 0.0, 9.999639, 9.999963 
8.64963e+2, 1.6471374e+2, -1390079.6, -1421700.1, 3145.8794, 0.07876507, -0.014918574, -1389769.6, -63965.348, 0.0, 9.999823, 9.999405 
8.649744e+2, 1.747129e+2, -1250392.3, -1301789.4, 10867.113, 0.05788909, -0.04388673, -1248189.0, -20376.883, 0.0, 10.000103, 9.999418 
8.6498564e+2, 1.8471213e+2, -1145437.3, -1221566.3, 10476.309, 0.042942826, -0.051117092, -1144021.9, -14202.628, 0.0, 10.00024, 9.99923 
8.6499697e+2, 1.9471145e+2, -1051395.9, -1124912.5, 12763.029, 0.03186141, -0.04599176, -1049243.1, -17416.898, 0.0, 10.000211, 9.999236 
8.650083e+2, 2.0471075e+2, -961255.0, -1054177.3, 6907.339, 0.037600666, -0.027465101, -960744.4, -26911.258, 0.0, 10.0002575, 9.999026 
8.650198e+2, 2.1471007e+2, -843932.6, -945226.1, 4354.8975, 0.061789, -0.0023750514, -843745.75, -7905.9263, 0.0, 10.000384, 9.999041 
8.6503106e+2, 2.2470896e+2, -745129.4, -877923.06, 10431.779, 0.056651566, -0.0031533465, -744314.9, -6463.841, 0.0, 10.000524, 9.998762 
8.650422e+2, 2.3470734e+2, -624564.06, -766870.9, -1384.3641, 0.019076787, -0.04546055, -624550.56, 15316.893, 0.0, 10.00067, 9.99878 
8.650535e+2, 2.44706e+2, -533537.6, -712964.3, 11938.43, -0.02406117, -0.036002427, -532746.75, 9134.335, 0.0, 10.000797, 9.998417 
8.6506474e+2, 2.54705e+2, -417375.38, -604677.06, 30946.137, -0.0734762, 0.019426337, -412394.88, 31497.012, 0.0, 10.000916, 9.998429 
8.650764e+2, 2.6470366e+2, -281570.7, -467014.4, 25541.568, -0.08602494, 0.03441256, -278117.1, 67788.27, 0.0, 10.001085, 9.99862 
8.650884e+2, 2.7470195e+2, -151833.47, -351799.13, -540.5648, -0.05768517, -0.003968871, -151832.02, 96090.016, 0.0, 10.001293, 9.998638 
8.651003e+2, 2.8470054e+2, -46478.793, -271670.1, -4305.6934, -0.043915834, -0.000052414307, -46396.496, 103538.625, 0.0, 10.001435, 9.998447 
8.651123e+2, 2.9469937e+2, 64573.375, -168786.31, -10724.1045, -0.0474346, 0.036298312, 65065.168, 117010.11, 0.0, 10.001532, 9.998434 
8.651237e+2, 3.0469647e+2, 95345.24, -243317.81, -13644.648, -0.102829374, -0.04331164, 95894.09, 95894.09, 0.000000027135602, 10.001902, 9.997411 
8.6513555e+2, 3.14694e+2, 319279.72, 80179.42, -17324.064, -0.116463356, -0.03543846, 320528.4, 320528.4, 0.00000083365, 10.002507, 9.999342 
8.7491584e+2, 1.2470313e+2, -1926254.0, -1739398.8, -35283.69, 0.20454487, 0.11640126, -1732958.3, -15044.451, 0.0000000055054987, 9.998218, 10.000689 
8.7492675e+2, 1.3470276e+2, -1705844.3, -1587493.4, 39260.957, 0.014268521, 0.011530152, -1575653.6, 44262.066, 0.0, 9.999076, 10.0006485 
8.749395e+2, 1.4470227e+2, -1597422.4, -1578102.5, 6061.8003, 0.08567999, -0.057763107, -1576358.0, -54438.715, 0.0, 9.999551, 9.999808 
8.749512e+2, 1.5470286e+2, -1486029.8, -1472904.1, 5018.213, 0.0880836, 0.016061664, -1471205.4, -47292.547, 0.0, 9.9996395, 9.999815 
8.749626e+2, 1.6470267e+2, -1375046.3, -1390772.0, 12251.361, 0.062563084, 0.025455972, -1368351.6, -42437.813, 0.0, 9.999823, 9.999618 
8.7497413e+2, 1.7470166e+2, -1234596.1, -1270904.4, 21951.42, 0.027056297, -0.03983196, -1224264.5, 3658.0078, 0.0, 10.000111, 9.999628 
8.749857e+2, 1.8470101e+2, -1140661.6, -1211417.1, 8614.834, 0.02618012, -0.05095266, -1139627.9, -9699.202, 0.0, 10.000239, 9.999301 
8.7499744e+2, 1.947007e+2, -1046818.06, -1114878.8, 11606.435, 0.0583503, -0.013870058, -1044893.25, -12960.987, 0.0, 10.000208, 9.999307 
8.750088e+2, 2.0470019e+2, -965696.7, -1061724.0, 10305.349, 0.06871997, 0.019897087, -964603.2, -30665.209, 0.0, 10.00025, 9.998979 
8.750201e+2, 2.146994e+2, -847413.7, -952418.0, 9161.586, 0.05633518, 0.040850483, -846620.3, -10674.36, 0.0, 10.000382, 9.998992 
8.750313e+2, 2.2469813e+2, -766294.2, -921213.6, 14461.067, 0.024998492, 0.040901095, -764955.9, -26996.682, 0.0, 10.000521, 9.998467 
8.750425e+2, 2.3469625e+2, -646692.1, -811540.4, 4330.9775, -0.02627763, 0.0052335975, -646578.44, -6599.9478, 0.0, 10.000665, 9.998477 
8.750542e+2, 2.4469478e+2, -498654.8, -639472.94, 15154.144, -0.030215703, -0.011405695, -497042.47, 44950.277, 0.0, 10.000792, 9.998924 
8.750666e+2, 2.5469372e+2, -380840.0, -528243.3, 35790.25, 0.01659204, -0.016195508, -372609.53, 71391.89, 0.0, 10.000913, 9.998957 
8.750783e+2, 2.6469237e+2, -327181.13, -561242.75, 33207.945, -0.0030046478, 0.00096351845, -322560.88, 23454.195, 0.0, 10.001082, 9.997974 
8.750893e+2, 2.7469066e+2, -200065.13, -450522.97, 8613.483, -0.09305088, 0.03305818, -199769.25, 48265.223, 0.0, 10.0012865, 9.997964 
8.7510103e+2, 2.8468904e+2, -58100.85, -295048.4, -1392.2742, -0.11972299, 0.060218737, -58092.67, 91958.24, 0.0, 10.001431, 9.998289 
8.751135e+2, 2.9468742e+2, 54395.98, -188774.28, -5607.7783, -0.08112292, 0.06283584, 54525.234, 106590.32, 0.0, 10.001527, 9.9983 
8.7512565e+2, 3.0468422e+2, 94092.516, -244311.13, 10165.195, -0.09577873, -0.03732027, 94397.586, 94397.586, 0.00000006425192, 10.001895, 9.997407 
8.7513846e+2, 3.146826e+2, 302546.1, 51612.277, 8018.0864, -0.07491991, 0.05472198, 302802.03, 302802.03, 0.0000011924308, 10.002481, 9.999157 
8.8491464e+2, 1.2469077e+2, -1899123.6, -1704421.0, -11888.401, 0.2603025, 0.14279854, -1703697.8, 14339.986, 0.00000006865043, 9.998309, 10.000886 
8.849256e+2, 1.3469057e+2, -1765364.0, -1592521.3, 8599.062, 0.020737117, 0.03235992, -1592094.5, 27942.977, 0.0, 9.998568, 10.000859 
8.8493854e+2, 1.4469022e+2, -1678354.3, -1597479.4, -46914.387, 0.061068, -0.04019903, -1575980.3, -53941.395, 0.0, 9.998911, 9.999984 
8.849506e+2, 1.5469083e+2, -1508565.0, -1463043.0, -23100.137, 0.07315688, 0.017406162, -1453374.4, -29342.832, 0.0, 9.999397, 9.999998 
8.8496226e+2, 1.6469081e+2, -1393759.6, -1388447.3, -10969.446, 0.056180455, 0.030396702, -1379817.0, -53786.313, 0.0, 9.999648, 9.999717 
8.84974e+2, 1.7469016e+2, -1299037.8, -1292668.3, -12926.901, 0.02777515, -0.009096218, -1282539.5, -54502.992, 0.0, 9.999627, 9.999712 
8.8498574e+2, 1.8468964e+2, -1216723.6, -1246690.5, -33675.305, 0.030048527, -0.01109362, -1194848.9, -64807.23, 0.0, 9.999709, 9.999315 
8.849974e+2, 1.9468926e+2, -1088908.8, -1132850.6, -36028.297, 0.05715775, 0.01690955, -1068680.6, -36634.64, 0.0, 9.999909, 9.999327 
8.85009e+2, 2.0468858e+2, -979898.75, -1075462.5, -32533.352, 0.058088493, 0.037533753, -969874.7, -35821.543, 0.0, 10.000183, 9.998916 
8.850203e+2, 2.1468754e+2, -830359.9, -951443.4, -36115.043, 0.032779858, 0.03956376, -820406.25, 15657.345, 0.0, 10.000532, 9.998926 
8.850317e+2, 2.2468626e+2, -738809.0, -905896.94, -25479.535, 0.0028137693, 0.042080797, -735009.94, 3066.8486, 0.0, 10.000701, 9.998486 
8.85043e+2, 2.346847e+2, -644733.25, -808394.75, -13590.228, -0.0329589, 0.03502341, -643612.44, -3519.3271, 0.0, 10.000669, 9.998497 
8.85055e+2, 2.4468333e+2, -500883.63, -650347.94, -4092.2375, -0.030719945, 0.03066228, -500771.7, 41335.03, 0.0, 10.00082, 9.998836 
8.850676e+2, 2.546821e+2, -347773.4, -522284.06, -31155.223, 0.012562035, 0.017932301, -342378.1, 101739.46, 0.0, 10.0011835, 9.998867 
8.850795e+2, 2.6468053e+2, -287559.94, -544094.44, -38962.902, -0.002140236, 0.02225905, -281772.75, 64360.215, 0.0, 10.001362, 9.997958 
8.8509077e+2, 2.7467865e+2, -192653.58, -447867.72, -16406.025, -0.078285046, 0.036227934, -191603.27, 56550.29, 0.0, 10.001343, 9.997954 
8.8510275e+2, 2.8467688e+2, -48574.68, -312033.78, 7036.9917, -0.10043457, 0.059730817, -48386.855, 101784.33, 0.0, 10.001592, 9.998095 
8.851155e+2, 2.946752e+2, 126370.11, -176694.1, -3121.6768, -0.066674076, 0.075894296, 126402.26, 178588.8, 0.0, 10.002116, 9.998099 
8.851278e+2, 3.0467194e+2, 150635.47, -195097.48, 10041.194, -0.0858769, -0.033674326, 150926.84, 150926.84, 0.00000010587227, 10.002188, 9.997604 
8.8514054e+2, 3.1467074e+2, 196330.78, -930.4597, 17743.787, -0.07749807, 0.08311063, 197914.14, 197914.14, 0.0000015115112, 10.001759, 9.999144 
8.949122e+2, 1.2467709e+2, -1935584.3, -1780894.1, -7795.242, 0.18502434, 0.030691803, -1780502.3, -62331.934, 0.00000033567557, 9.998312, 10.00036 
8.949246e+2, 1.3467836e+2, -1802922.9, -1669878.8, 17816.797, 0.05863744, 0.12052466, -1667534.1, -47374.227, 0.00000000007521531, 9.998565, 10.000329 
8.9493805e+2, 1.4467849e+2, -1639195.0, -1517741.9, -31491.852, 0.122213475, 0.09406902, -1510062.0, 12095.78, 0.0, 9.998915, 10.000531 
8.9495003e+2, 1.5467823e+2, -1468797.1, -1381412.6, -4356.8794, 0.07797374, 0.011140414, -1381195.9, 42960.195, 0.0, 9.9994, 10.000559 
8.949619e+2, 1.646782e+2, -1397021.0, -1395032.6, -11916.536, 0.05115413, -0.003487996, -1384068.9, -57914.09, 0.0, 9.999647, 9.999672 
8.9497393e+2, 1.746784e+2, -1303065.9, -1300607.1, -13631.419, 0.05748314, 0.048643384, -1288149.8, -59995.824, 0.0, 9.999624, 9.999659 
8.949857e+2, 1.846781e+2, -1219537.1, -1252128.1, -27700.902, 0.050774463, 0.06996362, -1203694.1, -73536.33, 0.0, 9.999706, 9.99928 
8.9499706e+2, 1.9467716e+2, -1091024.6, -1137919.3, -28641.701, 0.025211085, 0.045781735, -1077456.8, -45289.83, 0.0, 9.999911, 9.999291 
8.950086e+2, 2.04676e+2, -986182.0, -1087506.8, -21222.168, 0.002726653, 0.02410593, -981916.6, -47738.34, 0.0, 10.000178, 9.998836 
8.9502037e+2, 2.1467456e+2, -837407.0, -964109.56, -23085.844, -0.0130144805, -0.005204603, -833331.7, 2860.5574, 0.0, 10.000524, 9.998844 
8.9503217e+2, 2.2467345e+2, -716775.6, -858638.4, -27614.26, -0.015463348, 0.0023208787, -711589.94, 26613.41, 0.0, 10.000693, 9.998814 
8.95044e+2, 2.3467271e+2, -621272.2, -759270.1, -14620.109, -0.005519857, 0.0431071, -619740.3, 20470.756, 0.0, 10.000666, 9.998836 
8.9505583e+2, 2.4467164e+2, -549243.6, -750178.75, 8469.9375, -0.028677816, 0.08720387, -548887.25, -6664.291, 0.0, 10.000816, 9.998153 
8.9506775e+2, 2.5467014e+2, -398811.6, -626264.4, -16249.891, -0.087156005, 0.120788515, -397656.5, 46583.465, 0.0, 10.001174, 9.9981575 
8.950801e+2, 2.646683e+2, -246511.67, -457461.84, -39990.02, -0.08647213, 0.09953087, -239185.19, 107073.33, 0.0, 10.001355, 9.998557 
8.950927e+2, 2.7466598e+2, -149287.56, -356033.66, -16178.825, -0.019745538, 0.008326501, -148029.16, 100249.61, 0.0, 10.001335, 9.9985895 
8.951054e+2, 2.8466412e+2, -66001.414, -346330.25, 26891.629, 0.006413067, 0.0014450458, -63445.043, 86850.53, 0.0, 10.001582, 9.997864 
8.951181e+2, 2.9466274e+2, 106506.49, -215015.83, 19227.229, -0.012989129, 0.0753526, 107652.21, 159961.42, 0.0, 10.002103, 9.997843 
8.9513004e+2, 3.0465955e+2, 175426.72, -142383.83, -5371.072, -0.080333725, -0.032278348, 175517.47, 175517.47, 0.00000013409642, 10.002181, 9.99797 
8.951418e+2, 3.1465834e+2, 205120.1, 19654.355, 3038.5154, -0.13242796, 0.043933652, 205169.88, 205169.88, 0.0000016978646, 10.001749, 9.9992895 
9.0490997e+2, 1.246637e+2, -1914652.6, -1778680.6, -25388.75, 0.1287225, -0.008185855, -1774094.8, -55793.285, 0.0000010657902, 9.998486, 10.000293 
9.0492344e+2, 1.3466547e+2, -1735981.6, -1641597.4, 38295.434, 0.06704734, 0.13753322, -1628014.3, -7727.545, 0.000000007369457, 9.999041, 10.000294 
9.049373e+2, 1.4466582e+2, -1592773.9, -1500939.6, -20146.297, 0.14124106, 0.13613307, -1496714.4, 25568.842, 0.0, 9.999261, 10.000478 
9.049491e+2, 1.5466529e+2, -1515106.4, -1411032.6, -42989.73, 0.072431214, 0.03219909, -1395571.6, 28713.617, 0.0, 9.999112, 10.000495 
9.0496117e+2, 1.6466524e+2, -1469581.6, -1416886.0, -71154.414, 0.04251696, 0.011274344, -1367357.9, -41073.305, 0.0, 9.99909, 9.999791 
9.0497345e+2, 1.7466566e+2, -1350838.0, -1308078.0, -60518.46, 0.06484586, 0.07292214, -1265274.0, -36993.055, 0.0, 9.999231, 9.999796 
9.049853e+2, 1.846654e+2, -1245873.8, -1261713.8, -53505.668, 0.051161703, 0.09121171, -1199705.1, -69421.26, 0.0, 9.999516, 9.999305 
9.0499663e+2, 1.946643e+2, -1081952.6, -1132029.3, -51126.516, -0.005817889, 0.051116616, -1050062.6, -17768.398, 0.0, 9.999968, 9.999305 
9.0500844e+2, 2.0466314e+2, -979105.4, -1078325.1, -42012.332, -0.034243204, 0.026908873, -963706.25, -29400.717, 0.0, 10.000202, 9.998888 
9.050206e+2, 2.1466191e+2, -882483.56, -979830.3, -36062.137, -0.02962413, 0.01053028, -870579.94, -34262.035, 0.0, 10.000189, 9.998898 
9.0503263e+2, 2.2466086e+2, -765553.25, -877826.9, -45223.438, -0.018132303, 0.01998178, -749603.3, -11274.977, 0.0, 10.00034, 9.998852 
9.050447e+2, 2.3466003e+2, -614888.6, -752037.7, -56263.125, -0.0008127869, 0.04897883, -594761.4, 45575.3, 0.0, 10.000692, 9.998873 
9.050567e+2, 2.4465896e+2, -544088.75, -748691.06, -19747.535, -0.028138274, 0.091155656, -542200.25, 148.41896, 0.0, 10.000857, 9.998142 
9.050686e+2, 2.5465757e+2, -452469.84, -653170.1, 5804.2627, -0.10449512, 0.13494018, -452302.13, -7936.9985, 0.0, 10.000812, 9.998147 
9.050811e+2, 2.646558e+2, -294141.34, -471780.16, -6722.9946, -0.09926107, 0.120069526, -293887.25, 52495.574, 0.0, 10.000992, 9.998632 
9.0509427e+2, 2.7465358e+2, -129346.016, -337782.88, -25810.611, -0.0028427308, 0.03186378, -126197.46, 122204.37, 0.0, 10.001433, 9.998667 
9.0510726e+2, 2.8465185e+2, -52989.426, -326282.44, 9628.033, 0.030658025, 0.0267904, -52650.652, 97766.53, 0.0, 10.001611, 9.997989 
9.0511996e+2, 2.946506e+2, 26163.395, -238370.72, 27834.07, -0.006552458, 0.099050276, 29060.348, 81489.61, 0.0, 10.001487, 9.997978 
9.0513206e+2, 3.0464736e+2, 115423.445, -172656.28, 5838.3174, -0.07863449, -0.018825104, 115541.72, 115541.72, 0.0000001316986, 10.001778, 9.997954 
9.051439e+2, 3.1464607e+2, 297913.03, 33280.88, -19401.63, -0.13078924, 0.050136674, 299327.9, 299327.9, 0.0000016698094, 10.002518, 9.999014 
9.14908e+2, 1.2465066e+2, -1878513.4, -1709564.6, -8368.53, 0.0771955, 0.02959484, -1709151.1, 9279.357, 0.000002613721, 9.998508, 10.000757 
9.149222e+2, 1.3465199e+2, -1700149.6, -1567688.9, 59015.79, 0.03761849, 0.080051675, -1545210.0, 75207.125, 0.00000007607973, 9.999042, 10.000802 
9.1493624e+2, 1.4465226e+2, -1641174.5, -1601394.1, -25119.03, 0.10730428, 0.08015039, -1589244.0, -66828.85, 0.0, 9.99926, 9.999789 
9.149481e+2, 1.546521e+2, -1565550.5, -1515903.6, -48120.32, 0.052208558, 0.08218766, -1486581.3, -62162.76, 0.0, 9.999113, 9.999775 
9.1496015e+2, 1.6465198e+2, -1448218.6, -1374047.4, -68010.93, 0.026632912, 0.07908524, -1333667.9, -7248.432, 0.0, 9.999095, 10.000085 
9.149725e+2, 1.7465195e+2, -1327711.4, -1260581.3, -55391.51, 0.045454927, 0.06418037, -1229378.8, -961.62115, 0.0, 9.999232, 10.000122 
9.149846e+2, 1.8465158e+2, -1240166.3, -1249609.8, -38302.164, 0.026050946, 0.051952876, -1206295.9, -75876.39, 0.0, 9.999514, 9.999389 
9.1499627e+2, 1.9465078e+2, -1077506.0, -1121931.6, -34205.945, -0.040287364, 0.032784678, -1058933.4, -26505.93, 0.0, 9.999964, 9.999376 
9.1500837e+2, 2.0465013e+2, -968367.06, -1054939.4, -43181.37, -0.05857442, 0.046357438, -950511.44, -16077.09, 0.0, 10.000196, 9.999052 
9.150208e+2, 2.1464962e+2, -870934.94, -955001.94, -36754.4, -0.020805664, 0.08601578, -857132.06, -20691.88, 0.0, 10.000184, 9.99907 
9.1503316e+2, 2.2464852e+2, -783841.25, -914983.25, -34011.863, -0.007526287, 0.09400575, -775545.06, -37093.457, 0.0, 10.000336, 9.998599 
9.1504514e+2, 2.3464674e+2, -634411.3, -790921.25, -42504.35, -0.021816354, 0.054098096, -623613.2, 16856.24, 0.0, 10.000684, 9.9986105 
9.150575e+2, 2.4464534e+2, -499403.72, -654969.94, -21690.477, -0.03510181, 0.04591205, -496436.06, 46047.19, 0.0, 10.000853, 9.998789 
9.1506994e+2, 2.5464433e+2, -406332.28, -556123.75, 4516.0986, -0.04684797, 0.063155994, -406196.25, 38296.484, 0.0, 10.000805, 9.9988165 
9.1508263e+2, 2.6464307e+2, -324882.2, -534791.1, 8998.791, -0.045883708, 0.08440081, -324497.1, 22008.713, 0.0, 10.000988, 9.998202 
9.150954e+2, 2.7464148e+2, -162574.6, -405666.4, -7476.57, -0.030595925, 0.10317718, -162344.88, 86177.92, 0.0, 10.001428, 9.998204 
9.151082e+2, 2.8464007e+2, -22453.701, -261133.31, 4600.771, -0.031361233, 0.13227138, -22365.05, 128171.01, 0.0, 10.001604, 9.99844 
9.15121e+2, 2.9463872e+2, 58682.566, -168172.06, 23817.408, -0.05083702, 0.14920335, 61156.18, 113702.64, 0.0, 10.001475, 9.998466 
9.151338e+2, 3.0463538e+2, 89627.01, -225247.2, 32615.861, -0.084699914, 0.008834327, 92969.99, 92969.99, 0.00000009563079, 10.001771, 9.997598 
9.151469e+2, 3.1463373e+2, 251682.66, -60333.48, 12061.603, -0.08656523, 0.08640054, 252148.23, 252148.23, 0.0000014046396, 10.002506, 9.998377 
9.249069e+2, 1.2463768e+2, -1817879.3, -1686516.9, 955.2466, 0.09594853, 0.069432326, -1686509.9, 32049.107, 0.0000053718704, 9.998958, 10.000695 
9.2492086e+2, 1.346385e+2, -1770053.0, -1605758.5, 26013.504, 0.022601146, 0.072435446, -1601738.0, 18812.44, 0.00000033393198, 9.998582, 10.000762 
9.2493474e+2, 1.4463869e+2, -1744021.9, -1657837.1, -51425.504, 0.06806332, 0.06830271, -1633836.1, -111286.484, 0.0, 9.998585, 9.999727 
9.2494696e+2, 1.5463887e+2, -1577452.8, -1526957.5, -26168.496, 0.033585094, 0.11265852, -1515842.6, -91292.57, 0.0, 9.999058, 9.999723 
9.2495924e+2, 1.6463877e+2, -1393886.3, -1346806.4, -25756.822, 0.011160604, 0.11462421, -1335453.0, -8902.285, 0.0, 9.999469, 10.000088 
9.2497164e+2, 1.746384e+2, -1242045.5, -1219612.8, -38488.67, 0.012665922, 0.06409911, -1190739.4, 37811.824, 0.0, 9.999824, 10.000118 
9.249839e+2, 1.8463793e+2, -1183503.9, -1216901.9, -40531.36, -0.0006010892, 0.03933928, -1156366.3, -25812.025, 0.0, 9.99988, 9.999437 
9.249961e+2, 1.9463733e+2, -1127225.9, -1139381.9, -40374.1, -0.03639927, 0.034226, -1092474.9, -59914.344, 0.0, 9.999597, 9.999433 
9.2500836e+2, 2.046369e+2, -1043844.06, -1074971.8, -45950.35, -0.04875677, 0.0606234, -1010893.3, -76328.14, 0.0, 9.99961, 9.999196 
9.2502075e+2, 2.1463664e+2, -892066.06, -948969.6, -42561.543, -0.033450488, 0.112247266, -869322.25, -32754.053, 0.0, 9.9999695, 9.999214 
9.2503315e+2, 2.246356e+2, -798664.25, -925879.56, -28277.736, -0.030287983, 0.12036138, -792661.8, -54082.855, 0.0, 10.000252, 9.998565 
9.2504555e+2, 2.3463367e+2, -673152.3, -814062.44, -22661.195, -0.040580258, 0.06704043, -669597.56, -28998.78, 0.0, 10.000439, 9.9985695 
9.250581e+2, 2.4463217e+2, -529995.9, -661234.9, -20798.625, -0.040237166, 0.048229974, -526778.6, 15834.836, 0.0, 10.000606, 9.998865 
9.2507094e+2, 2.546312e+2, -406082.03, -547274.5, -40289.36, -0.028679848, 0.059783597, -395394.44, 49227.785, 0.0, 10.000769, 9.998896 
9.250838e+2, 2.6462996e+2, -327957.44, -535241.3, -31054.967, -0.025799535, 0.08179295, -323404.8, 23229.84, 0.0, 10.000962, 9.998212 
9.250967e+2, 2.7462846e+2, -197067.9, -421075.63, -14506.271, -0.031650744, 0.10728571, -196132.42, 52518.68, 0.0, 10.001186, 9.998215 
9.251096e+2, 2.8462708e+2, -41007.336, -271279.97, -6469.8115, -0.042755768, 0.13923678, -40825.703, 109838.695, 0.0, 10.001483, 9.998428 
9.2512256e+2, 2.9462573e+2, 114639.23, -142239.83, -26051.037, -0.060419563, 0.1581734, 117254.53, 169929.64, 0.0, 10.001864, 9.998458 
9.2513573e+2, 3.0462256e+2, 150721.77, -171470.8, -4411.386, -0.07943108, 0.027758205, 150782.16, 150782.16, 0.00000004550982, 10.002086, 9.997817 
9.251495e+2, 3.1462103e+2, 197511.22, -83355.086, 17161.004, -0.05870619, 0.09365424, 198555.88, 198555.88, 0.0000009683944, 10.002121, 9.9984045 
9.3490654e+2, 1.24624774e+2, -1861852.4, -1778377.8, -17261.1, 0.16556142, 0.10071869, -1774949.4, -56262.395, 0.000009857008, 9.9989605, 10.000064 
9.3491936e+2, 1.3462512e+2, -1813865.1, -1697778.8, 12188.942, 0.019296467, 0.11954797, -1696512.6, -75826.99, 0.0000009955157, 9.998588, 10.000127 
9.349329e+2, 1.4462519e+2, -1700442.8, -1571266.1, -36501.977, 0.019154504, 0.10748728, -1561665.3, -38979.523, 0.00000000002439963, 9.998599, 10.000316 
9.349458e+2, 1.5462573e+2, -1533223.5, -1435305.8, -7984.633, 0.011790784, 0.124678046, -1434658.9, -9979.831, 0.0, 9.999057, 10.000355 
9.349585e+2, 1.6462572e+2, -1414966.1, -1389918.8, -12924.302, -0.009278457, 0.11705342, -1384445.9, -57768.133, 0.0, 9.999467, 9.999793 
9.34971e+2, 1.7462507e+2, -1265657.0, -1268232.0, -24819.682, -0.037899073, 0.07240781, -1242091.5, -13408.952, 0.0, 9.999823, 9.999785 
9.349835e+2, 1.846245e+2, -1183487.3, -1217383.8, -51606.02, -0.034742672, 0.05452238, -1146117.8, -15430.106, 0.0, 9.99988, 9.999434 
9.3499607e+2, 1.9462398e+2, -1125552.1, -1136362.1, -51416.582, 0.0031062937, 0.055893134, -1079257.3, -46564.227, 0.0, 9.999598, 9.999454 
9.350084e+2, 2.046235e+2, -1035257.4, -1057021.3, -35073.668, -0.0068036006, 0.07037169, -1009416.3, -74718.67, 0.0, 9.999608, 9.99932 
9.350204e+2, 2.1462305e+2, -883883.7, -931275.6, -28963.746, -0.07118667, 0.09024063, -870157.75, -33456.445, 0.0, 9.999966, 9.999338 
9.350328e+2, 2.2462218e+2, -787862.5, -902294.94, -22375.053, -0.091593646, 0.10017613, -783643.06, -44933.027, 0.0, 10.000247, 9.998729 
9.350458e+2, 2.3462081e+2, -662555.44, -790619.6, -15609.929, -0.06056123, 0.08730299, -660680.2, -19955.479, 0.0, 10.000432, 9.9987335 
9.3505865e+2, 2.4461944e+2, -564351.0, -731685.75, -15733.708, -0.046349104, 0.097295366, -562884.44, -20145.348, 0.0, 10.000601, 9.9983835 
9.3507147e+2, 2.546181e+2, -441347.3, -620055.3, -32970.71, -0.052618902, 0.122338526, -435458.44, 9294.923, 0.0, 10.000765, 9.998399 
9.350846e+2, 2.646165e+2, -298473.03, -473235.1, -23023.305, -0.042886443, 0.111150675, -295490.8, 51278.137, 0.0, 10.000958, 9.99864 
9.3509805e+2, 2.7461457e+2, -166523.22, -355611.7, -5072.075, -0.012818185, 0.048504196, -166387.27, 82398.94, 0.0, 10.001178, 9.998669 
9.3511146e+2, 2.8461295e+2, -72515.836, -335825.16, 7371.033, -0.010803229, 0.05364587, -72309.65, 78491.77, 0.0, 10.001477, 9.997989 
9.3512464e+2, 2.9461166e+2, 80951.95, -211806.94, -9267.946, -0.042552024, 0.12524325, 81245.06, 134059.64, 0.0, 10.00186, 9.997983 
9.351379e+2, 3.04609e+2, 200587.06, -64581.086, -3051.4126, -0.06982804, 0.03561229, 200622.17, 200622.17, 0.000000010385675, 10.002072, 9.998557 
9.3515164e+2, 3.1460795e+2, 237052.11, 7537.956, 20938.441, -0.060276005, 0.069815926, 238946.67, 238946.67, 0.00000050425, 10.002084, 9.999046 
9.449053e+2, 1.24611385e+2, -1918444.0, -1817791.1, -72718.27, 0.15826195, 0.16118957, -1779682.9, -60861.324, 0.000016753027, 9.998625, 9.999957 
9.4491816e+2, 1.3461152e+2, -1751838.5, -1677077.6, -2355.6025, 0.01998527, 0.16690491, -1677003.5, -56180.95, 0.000002343361, 9.999055, 10.000043 
9.449316e+2, 1.4461142e+2, -1590342.3, -1493913.3, -35280.504, 0.008430105, 0.13492519, -1482383.8, 40439.266, 0.0000000053592455, 9.999255, 10.000527 
9.449449e+2, 1.5461197e+2, -1495287.6, -1392382.1, -38988.902, 0.011166963, 0.12962078, -1379278.5, 45535.992, 0.0, 9.999212, 10.000573 
9.4495785e+2, 1.6461201e+2, -1464239.3, -1426906.0, -53826.23, -0.006787897, 0.12180839, -1388601.5, -61789.133, 0.0, 9.999186, 9.999675 
9.4497037e+2, 1.746115e+2, -1368119.8, -1331480.9, -52505.66, -0.0430546, 0.10206729, -1294190.6, -65372.906, 0.0, 9.999181, 9.999659 
9.44983e+2, 1.8461098e+2, -1259398.5, -1252688.8, -73147.375, -0.043148138, 0.09686514, -1182819.4, -51996.633, 0.0, 9.999358, 9.999442 
9.4499564e+2, 1.9461046e+2, -1100472.5, -1123383.8, -74595.586, -0.003974271, 0.09827264, -1036458.06, -3630.521, 0.0, 9.999766, 9.99946 
9.4500816e+2, 2.0460977e+2, -960964.0, -1028213.25, -54172.766, -0.012968864, 0.093919106, -930828.9, 4004.8872, 0.0, 10.00015, 9.999257 
9.450205e+2, 2.1460885e+2, -810999.0, -903445.06, -64403.723, -0.077537894, 0.073532976, -777947.75, 58893.902, 0.0, 10.0005, 9.999271 
9.450332e+2, 2.2460799e+2, -731463.6, -864390.0, -80048.164, -0.09518884, 0.08397944, -693883.25, 44967.1, 0.0, 10.000587, 9.998825 
9.450462e+2, 2.3460719e+2, -663676.9, -779716.94, -79781.45, -0.058851954, 0.120395415, -623049.0, 17810.787, 0.0, 10.000376, 9.998836 
9.450592e+2, 2.446061e+2, -584342.8, -733459.7, -51185.527, -0.04420054, 0.14626718, -568463.9, -25591.932, 0.0, 10.000431, 9.998454 
9.4507223e+2, 2.5460458e+2, -433121.34, -607940.25, -28054.635, -0.054918524, 0.14608134, -428729.5, 16157.866, 0.0, 10.000787, 9.998471 
9.450855e+2, 2.6460287e+2, -274605.25, -449322.38, -8571.271, -0.047683317, 0.11572009, -274185.78, 72717.56, 0.0, 10.001069, 9.998752 
9.450992e+2, 2.7460092e+2, -143723.45, -331575.22, -16846.785, -0.018138204, 0.0429629, -142224.58, 106695.22, 0.0, 10.001278, 9.998786 
9.4511294e+2, 2.845993e+2, -76157.336, -342233.75, 830.7034, -0.008837478, 0.045233145, -76154.74, 74780.125, 0.0, 10.001472, 9.997947 
9.4512653e+2, 2.9459804e+2, 44424.16, -234159.33, 13126.107, -0.022990718, 0.122665, 45041.26, 97989.82, 0.0, 10.00163, 9.99794 
9.4514e+2, 3.0459565e+2, 146161.34, -77857.69, 3839.1753, -0.044818897, 0.0535344, 146227.11, 146227.11, 0.00000000032400083, 10.001643, 9.9986725 
9.451535e+2, 3.1459463e+2, 151921.98, -33463.875, -24619.47, -0.04863566, 0.08092996, 155135.77, 155135.77, 0.00000016973306, 10.0015, 9.999045 
9.549028e+2, 1.245976e+2, -1884102.0, -1752188.3, -61100.652, 0.04721795, 0.25458834, -1728236.3, -9274.1875, 0.00002677623, 9.998646, 10.000398 
9.5491725e+2, 1.3459776e+2, -1718263.8, -1608097.4, 14133.609, 0.020142525, 0.21595007, -1606313.0, 14646.985, 0.0000047533053, 9.999055, 10.000517 
9.5493114e+2, 1.4459749e+2, -1603521.8, -1520896.8, -36838.61, 0.031425342, 0.14984997, -1506857.5, 16103.223, 0.000000046136613, 9.999253, 10.000343 
9.549443e+2, 1.5459765e+2, -1509914.8, -1423171.0, -40040.953, 0.028021418, 0.12704575, -1407514.1, 17441.893, 0.0, 9.999215, 10.0003605 
9.549572e+2, 1.6459772e+2, -1459814.8, -1419136.8, -55055.297, 0.013310752, 0.13034877, -1380783.8, -53829.402, 0.0, 9.999189, 9.999727 
9.5496994e+2, 1.745977e+2, -1362952.9, -1321083.6, -52505.785, -0.0054866164, 0.15428014, -1285492.9, -56536.85, 0.0, 9.999181, 9.999731 
9.549825e+2, 1.8459743e+2, -1258448.5, -1250913.8, -59740.14, -0.02942515, 0.16828069, -1194822.3, -63863.254, 0.0, 9.999358, 9.9994545 
9.5499486e+2, 1.9459683e+2, -1100627.0, -1123369.1, -59200.52, -0.06112325, 0.1618396, -1051715.4, -18751.95, 0.0, 9.999764, 9.999462 
9.5500773e+2, 2.0459574e+2, -980476.5, -1067872.1, -42308.758, -0.072002314, 0.13141677, -963350.56, -28377.46, 0.0, 10.000145, 9.998987 
9.5502126e+2, 2.1459407e+2, -831117.7, -943749.06, -51253.055, -0.056275837, 0.061611805, -811286.56, 25702.31, 0.0, 10.000492, 9.998999 
9.5503426e+2, 2.2459307e+2, -730479.44, -860463.56, -88744.58, -0.045055356, 0.07193668, -685473.44, 53525.934, 0.0, 10.000579, 9.998857 
9.550468e+2, 2.3459291e+2, -660732.4, -773309.06, -87121.22, -0.039723113, 0.16551831, -613297.6, 27706.049, 0.0, 10.000373, 9.998881 
9.550597e+2, 2.4459213e+2, -542979.56, -647027.7, -38965.773, -0.038536023, 0.19380686, -530004.9, 13006.691, 0.0, 10.000428, 9.999049 
9.550731e+2, 2.5459063e+2, -391592.97, -519598.4, -13889.643, -0.041027214, 0.133751, -390103.2, 54920.72, 0.0, 10.000778, 9.999083 
9.550866e+2, 2.645891e+2, -287963.53, -475967.5, -1263.1127, -0.044863056, 0.0988644, -287955.03, 59082.34, 0.0, 10.001062, 9.998572 
9.551002e+2, 2.7458757e+2, -158625.2, -361755.72, -7890.5947, -0.05133303, 0.08666438, -158319.16, 90732.75, 0.0, 10.001273, 9.998582 
9.5511407e+2, 2.8458622e+2, -54360.01, -294624.03, 6576.876, -0.040383115, 0.10760152, -54180.117, 96884.87, 0.0, 10.001462, 9.99828 
9.551283e+2, 2.9458493e+2, 66300.266, -184331.2, 20371.82, -0.008872361, 0.15034163, 67945.33, 121022.42, 0.0, 10.001612, 9.998292 
9.55142e+2, 3.045825e+2, 112711.37, -145799.36, -1715.1783, -0.011296985, 0.08374509, 112722.74, 112722.74, 0.0, 10.001634, 9.998211 
9.5515513e+2, 3.1458113e+2, 110368.89, -120404.77, -25773.488, -0.036528017, 0.1220648, 113212.32, 113212.32, 0.000000027453995, 10.001501, 9.998448 
9.649013e+2, 1.2458279e+2, -1842403.8, -1709770.4, -36254.805, 0.023293545, 0.22872338, -1700507.3, 18600.682, 0.000040530904, 9.99884, 10.000592 
9.649163e+2, 1.3458349e+2, -1722895.5, -1587454.9, 17101.676, 0.02280198, 0.22339773, -1585328.9, 35771.34, 0.000008656152, 9.998927, 10.000718 
9.649302e+2, 1.4458334e+2, -1642176.5, -1557027.3, -48051.246, 0.021628255, 0.16663092, -1535402.9, -12302.831, 0.00000019058375, 9.999065, 10.000185 
9.6494347e+2, 1.5458328e+2, -1517977.3, -1445976.5, -51689.66, 0.020417701, 0.13929945, -1418986.0, 6112.211, 0.0, 9.999243, 10.000189 
9.649565e+2, 1.6458324e+2, -1431221.4, -1410825.6, -66738.28, 0.014914506, 0.14338262, -1353510.6, -26412.523, 0.0, 9.999413, 9.999675 
9.6496946e+2, 1.7458326e+2, -1305503.1, -1298230.8, -74007.49, 0.010871006, 0.17446493, -1227770.1, 1329.5759, 0.0, 9.9995985, 9.999685 
9.649822e+2, 1.8458298e+2, -1186294.9, -1209556.8, -73898.164, -0.016689116, 0.18874519, -1123118.0, 7984.5884, 0.0, 9.9998255, 9.999513 
9.6499467e+2, 1.9458239e+2, -1047108.94, -1089737.9, -69945.06, -0.0748614, 0.1747637, -995302.8, 37803.688, 0.0, 10.0001, 9.99953 
9.6500766e+2, 2.0458136e+2, -992060.2, -1071531.8, -51999.863, -0.08515166, 0.14706968, -966351.94, -31236.57, 0.0, 10.000059, 9.999002 
9.650215e+2, 2.1457984e+2, -953274.8, -1001050.9, -41035.008, -0.038047437, 0.09206348, -929681.1, -92551.17, 0.0, 9.999648, 9.999012 
9.6503466e+2, 2.2457887e+2, -846673.8, -903746.75, -53472.863, -0.019135254, 0.09811424, -814599.4, -75459.3, 0.0, 9.999727, 9.99897 
9.650472e+2, 2.3457853e+2, -651574.7, -755511.75, -48693.363, -0.034747437, 0.16330908, -632326.9, 8818.282, 0.0, 10.000379, 9.999001 
9.6506023e+2, 2.4457777e+2, -499367.25, -605697.25, -17347.81, -0.037619293, 0.17590113, -496608.53, 46543.723, 0.0, 10.00064, 9.99923 
9.6507394e+2, 2.5457644e+2, -426432.1, -515294.47, -25046.162, -0.024201766, 0.11742533, -419858.97, 25302.826, 0.0, 10.00045, 9.9992695 
9.6508765e+2, 2.6457506e+2, -365639.6, -530164.9, -15475.66, -0.02416878, 0.096453674, -364196.56, -17022.604, 0.0, 10.000604, 9.998421 
9.651014e+2, 2.7457362e+2, -189828.48, -395263.2, -20891.916, -0.04072798, 0.11066079, -187725.39, 61463.754, 0.0, 10.00114, 9.998416 
9.651155e+2, 2.845723e+2, -61148.734, -281088.25, -24267.693, -0.034976058, 0.13572952, -58502.914, 92699.56, 0.0, 10.001343, 9.998429 
9.6512973e+2, 2.94571e+2, 16549.076, -189881.97, -26786.596, -0.0023587476, 0.15775819, 19968.285, 73182.516, 0.0, 10.001191, 9.998456 
9.6514356e+2, 3.0456868e+2, 103066.2, -151869.64, -22987.486, -0.012435984, 0.09135992, 105122.39, 105122.39, 0.0, 10.001576, 9.998197 
9.651569e+2, 3.145672e+2, 258146.56, -58792.477, -15142.992, -0.05822274, 0.12416736, 258868.42, 258868.42, 0.00000000015790982, 10.00256, 9.9983635 
9.7490066e+2, 1.24566935e+2, -1846068.5, -1716596.9, -31904.334, 0.07027236, 0.07222783, -1709162.0, 10097.122, 0.000058506626, 9.9988365, 10.000547 
9.7491515e+2, 1.3456874e+2, -1728122.4, -1599279.1, 21848.416, 0.023555966, 0.18723048, -1595675.0, 25567.473, 0.00001444443, 9.998931, 10.000635 
9.749288e+2, 1.4456904e+2, -1651872.4, -1578281.3, -41651.715, -0.028709244, 0.18618031, -1559500.0, -36260.08, 0.0000005546723, 9.999069, 10.000038 
9.749423e+2, 1.5456893e+2, -1528213.0, -1467456.5, -44168.723, -0.016175294, 0.16774894, -1444227.8, -18987.281, 0.0, 9.999243, 10.000042 
9.7495574e+2, 1.6456865e+2, -1442544.8, -1434610.3, -61023.21, -0.007588799, 0.16279759, -1377425.5, -50182.395, 0.0, 9.9994135, 9.999513 
9.7496897e+2, 1.7456818e+2, -1317228.1, -1322815.6, -66908.65, 0.0026822248, 0.16330786, -1253055.0, -23806.72, 0.0, 9.9995985, 9.999517 
9.7498214e+2, 1.8456767e+2, -1178856.4, -1194030.5, -64951.664, -0.009748472, 0.15813307, -1121050.1, 10202.518, 0.0, 9.999824, 9.99962 
9.749951e+2, 1.9456713e+2, -1038694.3, -1071972.3, -59701.027, -0.048706137, 0.13638112, -993356.94, 39899.43, 0.0, 10.000097, 9.999654 
9.750081e+2, 2.0456663e+2, -971328.6, -1027689.4, -68106.086, -0.05668072, 0.14030454, -925803.0, 9457.293, 0.0, 10.000054, 9.999307 
9.7502124e+2, 2.145662e+2, -931768.6, -956362.5, -56653.938, -0.026289182, 0.16433093, -886092.44, -48827.87, 0.0, 9.999646, 9.99932 
9.7503436e+2, 2.245654e+2, -834321.8, -877324.9, -31962.484, -0.021281593, 0.16144003, -817301.75, -78029.52, 0.0, 9.999723, 9.999153 
9.750474e+2, 2.3456413e+2, -640564.75, -730586.9, -23953.256, -0.046665143, 0.11604228, -634588.06, 6695.8105, 0.0, 10.000369, 9.999176 
9.750608e+2, 2.44563e+2, -515369.44, -637534.5, -24482.318, -0.04454111, 0.09625261, -510645.75, 32647.78, 0.0, 10.000633, 9.999016 
9.7507447e+2, 2.5456205e+2, -442335.88, -548201.5, -31729.287, -0.009064257, 0.09531068, -433554.56, 11746.321, 0.0, 10.000448, 9.999044 
9.7508854e+2, 2.6456082e+2, -375624.78, -550071.94, 3680.2278, 0.00919241, 0.104217626, -375547.2, -28234.043, 0.0, 10.000599, 9.998286 
9.751031e+2, 2.7455923e+2, -200756.34, -415923.97, 1045.1267, 0.006677946, 0.116094284, -200751.27, 48579.793, 0.0, 10.00113, 9.998279 
9.751172e+2, 2.845577e+2, -63822.734, -285950.03, -29188.158, 0.00043264191, 0.13479812, -60051.36, 91295.17, 0.0, 10.001339, 9.9984 
9.7513086e+2, 2.9455632e+2, 14637.226, -192988.84, -30545.486, -0.0101514775, 0.14797208, 19037.742, 72397.05, 0.0, 10.001185, 9.998438 
9.751448e+2, 3.045541e+2, 128035.766, -96911.625, 12683.75, -0.052157473, 0.077761374, 128748.68, 128748.68, 0.0, 10.001561, 9.998583 
9.751588e+2, 3.145527e+2, 277592.13, -7624.399, 25680.361, -0.12340337, 0.07818667, 279885.9, 279885.9, 0.0, 10.002512, 9.998738 
9.8489934e+2, 1.24552235e+2, -1850629.8, -1730534.0, -19022.9, 0.058352355, 0.027289405, -1727592.9, -8192.207, 0.00008108169, 9.998857, 10.000441 
9.8491406e+2, 1.345542e+2, -1759647.8, -1631253.8, 22766.164, 0.026895288, 0.17291594, -1627336.4, -5953.0186, 0.000022462764, 9.998786, 10.000486 
9.8492765e+2, 1.4455451e+2, -1671973.5, -1599934.0, -28073.287, -0.03918225, 0.18444192, -1590286.1, -66904.445, 0.0000013019285, 9.998982, 9.999931 
9.849418e+2, 1.5455435e+2, -1497986.0, -1463286.9, -27920.996, -0.007426415, 0.17114171, -1447764.1, -22380.773, 0.0, 9.999497, 9.999947 
9.8495543e+2, 1.6455394e+2, -1379398.8, -1407761.5, -41782.285, 0.002671288, 0.15980811, -1349456.8, -22069.672, 0.0, 9.999863, 9.999479 
9.849687e+2, 1.7455325e+2, -1253149.6, -1295127.3, -39247.113, -0.0066348636, 0.1393199, -1229631.5, -237.9443, 0.0, 10.000052, 9.999488 
9.8498195e+2, 1.8455262e+2, -1159691.8, -1191427.3, -44266.758, -0.015379351, 0.12900107, -1128534.8, 2864.088, 0.0, 9.999984, 9.999561 
9.849951e+2, 1.9455217e+2, -1112555.4, -1113948.0, -54387.37, -0.025535185, 0.12137729, -1058859.9, -25457.305, 0.0, 9.999618, 9.999597 
9.850081e+2, 2.0455183e+2, -1014345.6, -1034861.25, -69444.27, -0.038460854, 0.13833025, -954405.6, -19000.39, 0.0, 9.999701, 9.999429 
9.8502094e+2, 2.1455164e+2, -824284.56, -889680.25, -72763.24, -0.05426939, 0.17280991, -777210.0, 60196.96, 0.0, 10.000321, 9.999453 
9.850341e+2, 2.2455084e+2, -709874.5, -814889.2, -55429.965, -0.056810062, 0.16341901, -686030.7, 53383.29, 0.0, 10.000568, 9.999174 
9.850479e+2, 2.3454934e+2, -640171.94, -728314.25, -60622.773, -0.042985294, 0.09346678, -609293.9, 32133.217, 0.0, 10.000365, 9.999193 
9.850615e+2, 2.4454814e+2, -549692.0, -665649.44, -65557.62, -0.02222924, 0.0697953, -520153.1, 23284.486, 0.0, 10.000449, 9.998911 
9.8507524e+2, 2.5454727e+2, -389808.63, -535563.2, -67018.81, 0.0054672393, 0.08651709, -363677.72, 81767.61, 0.0, 10.000863, 9.998932 
9.850895e+2, 2.6454604e+2, -307288.28, -496685.25, -14306.138, 0.01928892, 0.09757281, -306213.75, 41243.45, 0.0, 10.000981, 9.998468 
9.8510414e+2, 2.7454454e+2, -239304.92, -412007.16, 5601.2163, 0.016983205, 0.0939561, -239123.45, 10350.317, 0.0, 10.000771, 9.998477 
9.851184e+2, 2.84543e+2, -124537.9, -326533.7, -9725.96, 0.0044919727, 0.104561165, -124070.68, 27418.71, 0.0, 10.000973, 9.998296 
9.851322e+2, 2.9454148e+2, 69685.65, -179371.27, -19529.77, -0.018892271, 0.11951481, 71207.77, 124711.82, 0.0, 10.001621, 9.998322 
9.8514634e+2, 3.0453953e+2, 156471.03, -58265.563, 12781.979, -0.052083302, 0.06997516, 157229.19, 157229.19, 0.0, 10.001653, 9.998802 
9.851609e+2, 3.145385e+2, 71770.38, -84006.77, 8678.294, -0.0906937, 0.08459509, 72252.35, 72252.35, 0.0, 10.001, 9.9989395 
9.948973e+2, 1.2453882e+2, -1864119.3, -1760055.0, -17700.01, -0.034338187, 0.09375391, -1757126.9, -37594.93, 0.000108580556, 9.998863, 10.000235 
9.9491286e+2, 1.3453999e+2, -1776279.6, -1665977.4, 21205.62, 0.02885832, 0.18253975, -1662041.1, -40518.87, 0.000033028722, 9.998787, 10.000249 
9.949269e+2, 1.445398e+2, -1676217.1, -1609033.0, -10392.895, -0.014140703, 0.16281903, -1607462.0, -83937.32, 0.0000026281716, 9.998982, 9.999869 
9.949418e+2, 1.545396e+2, -1500825.6, -1469811.3, -7659.0044, 0.043193158, 0.14882216, -1468023.0, -42496.797, 0.00000000019976186, 9.999498, 9.999902 
9.9495566e+2, 1.6453917e+2, -1372241.4, -1393034.5, -35051.01, 0.04072796, 0.13234636, -1346077.5, -18547.877, 0.0, 9.999863, 9.99958 
9.9496865e+2, 1.7453846e+2, -1245400.4, -1279720.8, -31832.605, -0.02141565, 0.10173263, -1226397.3, 3138.0564, 0.0, 10.000054, 9.999594 
9.949817e+2, 1.8453792e+2, -1175232.5, -1224272.6, -58596.17, -0.039571874, 0.101944976, -1136232.9, -4692.561, 0.0, 9.999986, 9.999336 
9.949949e+2, 1.9453757e+2, -1129476.9, -1149151.1, -68584.05, -0.008442518, 0.130893, -1070028.0, -36483.625, 0.0, 9.999618, 9.999356 
9.950079e+2, 2.0453702e+2, -1019284.6, -1043922.3, -49459.414, -0.033775143, 0.14179495, -980633.0, -45083.297, 0.0, 9.999695, 9.999369 
9.9502057e+2, 2.145362e+2, -829197.75, -897514.8, -49610.43, -0.12504481, 0.11839848, -803123.4, 34433.26, 0.0, 10.000311, 9.999403 
9.95034e+2, 2.2453527e+2, -720699.6, -835301.25, -63301.242, -0.12939322, 0.10491136, -692616.44, 46948.41, 0.0, 10.000558, 9.99904 
9.9504834e+2, 2.3453422e+2, -650042.06, -748413.1, -68071.44, -0.028541064, 0.0935431, -615245.8, 26328.648, 0.0, 10.000362, 9.999057 
9.950624e+2, 2.4453318e+2, -551203.44, -667488.8, -51479.688, 0.023340484, 0.092800364, -531688.4, 11895.916, 0.0, 10.000443, 9.998901 
9.9507624e+2, 2.5453213e+2, -391468.25, -537167.9, -50217.145, 0.015724227, 0.09274284, -375837.22, 69757.21, 0.0, 10.0008545, 9.998924 
9.9509025e+2, 2.6453093e+2, -274534.6, -428602.63, -21941.035, 0.0038474712, 0.08177101, -271470.88, 76134.47, 0.0, 10.000978, 9.998938 
9.9510455e+2, 2.7452958e+2, -205419.83, -340220.94, -1701.6375, -0.014295515, 0.04750263, -205398.36, 44218.664, 0.0, 10.000763, 9.998975 
9.9511904e+2, 2.8452808e+2, -138204.64, -351063.13, 13244.733, -0.028323917, 0.04491659, -137383.67, 14247.641, 0.0, 10.000957, 9.998135 
9.9513364e+2, 2.945265e+2, 54186.715, -207795.97, 7241.5386, -0.034360267, 0.07017619, 54386.727, 108035.33, 0.0, 10.001605, 9.998133 
9.951483e+2, 3.045249e+2, 158259.88, -53757.242, -9869.259, -0.019621614, 0.065990694, 158718.28, 158718.28, 0.0, 10.001647, 9.998837 
9.95163e+2, 3.1452453e+2, 70860.555, -82740.5, -12127.654, 0.021243628, 0.14113258, 71812.2, 71812.2, 0.0, 10.000986, 9.998957 
1.004896e+3, 1.2452442e+2, -1842576.8, -1760384.6, -75265.95, -0.061132435, 0.15934959, -1715726.1, 3947.8616, 0.00014134821, 9.999055, 10.000144 
1.004912e+3, 1.345248e+2, -1683946.3, -1636012.9, -36716.21, 0.03599238, 0.1833839, -1616133.5, 5537.209, 0.000046426092, 9.999483, 10.000119 
1.0049262e+3, 1.4452422e+2, -1570338.9, -1565119.5, -57323.6, -0.018526994, 0.13324724, -1510346.3, 13330.254, 0.00000474816, 9.999742, 9.999804 
1.0049414e+3, 1.5452404e+2, -1465708.1, -1460622.9, -59275.71, 0.040871225, 0.12943755, -1403835.4, 21842.434, 0.000000004412824, 9.999772, 9.999834 
1.0049555e+3, 1.645238e+2, -1382427.5, -1382143.8, -93313.97, 0.0416542, 0.1274339, -1288971.5, 38707.938, 0.0, 9.999723, 9.999723 
1.0049685e+3, 1.7452344e+2, -1300983.5, -1288302.0, -87929.945, -0.016544, 0.1168414, -1206484.5, 23197.162, 0.0, 9.999595, 9.999756 
1.0049816e+3, 1.8452293e+2, -1219809.1, -1257353.3, -106161.266, -0.03478823, 0.11834951, -1130773.0, 913.24, 0.0, 9.999731, 9.999231 
1.0049947e+3, 1.9452225e+2, -1053865.6, -1125700.6, -108056.31, -0.010188263, 0.12486032, -975913.75, 57779.797, 0.0, 10.000194, 9.999239 
1.00500785e+3, 2.0452146e+2, -943655.9, -1013377.1, -81016.85, -0.030416243, 0.12166766, -890317.9, 45383.137, 0.0, 10.000241, 9.999314 
1.0050208e+3, 2.1452059e+2, -908858.8, -941643.44, -82670.67, -0.102264196, 0.096222475, -840970.94, -3262.3977, 0.0, 9.999789, 9.9993515 
1.0050344e+3, 2.2451966e+2, -834809.06, -891813.1, -87430.09, -0.10426233, 0.08631046, -771352.5, -31635.605, 0.0, 9.9997835, 9.999023 
1.0050487e+3, 2.3451866e+2, -657318.9, -753489.25, -85398.305, -0.023730263, 0.08224131, -607398.7, 34327.68, 0.0, 10.00032, 9.999042 
1.0050628e+3, 2.445177e+2, -533275.9, -655954.6, -63375.477, 0.020301815, 0.08883, -506416.8, 37318.996, 0.0, 10.000555, 9.998924 
1.0050769e+3, 2.5451678e+2, -451747.88, -562384.44, -61308.594, 0.02058832, 0.099667184, -424489.78, 21255.174, 0.0, 10.000429, 9.998954 
1.005091e+3, 2.6451564e+2, -332008.2, -451513.06, -46892.773, 0.0022503913, 0.09044368, -315804.8, 31950.533, 0.0, 10.000567, 9.998977 
1.00510515e+3, 2.745142e+2, -168573.42, -318112.16, -61765.36, -0.03974202, 0.045247417, -146361.25, 103406.06, 0.0, 10.000999, 9.999012 
1.0051198e+3, 2.8451282e+2, -108084.21, -314445.0, -48834.7, -0.04989473, 0.042116106, -97111.1, 54669.277, 0.0, 10.001069, 9.998331 
1.00513496e+3, 2.9451153e+2, -59130.8, -239328.94, -30082.715, -0.019057207, 0.07924243, -54241.387, -446.78488, 0.0, 10.000729, 9.998337 
1.00514986e+3, 3.045101e+2, 46427.44, -121491.016, -39628.996, 0.0065554017, 0.084276505, 55310.063, 55310.063, 0.0, 10.000938, 9.998713 
1.00516446e+3, 3.1450942e+2, 170854.23, -51710.008, -56031.625, 0.027338702, 0.14200905, 184164.45, 184164.45, 0.0, 10.001747, 9.998802 
1.0148953e+3, 1.2450903e+2, -1838270.3, -1750770.0, -50486.996, -0.041477907, 0.22152945, -1727714.4, -7887.3887, 0.0001798155, 9.999053, 10.00021 
1.0149116e+3, 1.345087e+2, -1683091.8, -1635532.9, -19767.947, 0.042566653, 0.17406094, -1628389.3, -6560.669, 0.000062927356, 9.999489, 10.00012 
1.01492554e+3, 1.4450778e+2, -1574860.9, -1576803.1, -56638.57, -0.059991114, 0.09384279, -1519185.1, 4651.6353, 0.000007860604, 9.999749, 9.999721 
1.0149405e+3, 1.5450774e+2, -1472136.0, -1475263.5, -58169.535, -0.021192493, 0.1134148, -1415509.3, 10328.214, 0.000000028517778, 9.999776, 9.999733 
1.01495475e+3, 1.6450785e+2, -1369009.6, -1355281.4, -99276.445, -0.0021660214, 0.14745134, -1262632.0, 65204.08, 0.0, 9.999726, 9.999907 
1.0149683e+3, 1.7450823e+2, -1286305.3, -1257716.1, -93029.29, 0.004221916, 0.18599427, -1177889.5, 51942.58, 0.0, 9.999594, 9.999967 
1.01498164e+3, 1.8450774e+2, -1218643.5, -1254725.1, -91542.87, -0.0047907108, 0.17797557, -1143380.6, -11544.583, 0.0, 9.999728, 9.99925 
1.0149947e+3, 1.9450626e+2, -1053628.9, -1124768.5, -90898.055, -0.03548202, 0.10261582, -991588.9, 42260.754, 0.0, 10.000191, 9.999248 
1.0150081e+3, 2.0450523e+2, -947577.8, -1021061.9, -98128.29, -0.03413318, 0.077749185, -879538.5, 56320.234, 0.0, 10.000237, 9.999264 
1.01502165e+3, 2.1450482e+2, -912775.3, -949602.8, -99933.61, 0.008448341, 0.10589135, -829573.1, 8289.012, 0.0, 9.999787, 9.999299 
1.01503536e+3, 2.2450402e+2, -829500.2, -879302.25, -70574.03, 0.01234849, 0.10714661, -779563.0, -39693.445, 0.0, 9.999777, 9.999113 
1.0150489e+3, 2.3450272e+2, -651396.75, -739860.4, -64871.234, -0.030842446, 0.061066996, -617112.75, 24769.383, 0.0, 10.000314, 9.999138 
1.0150629e+3, 2.4450175e+2, -530668.9, -649211.1, -68079.984, -0.03325517, 0.061133407, -499674.0, 44217.457, 0.0, 10.000548, 9.998975 
1.0150772e+3, 2.5450122e+2, -448772.6, -555510.94, -65551.305, 0.014306282, 0.107127875, -417612.22, 28284.438, 0.0, 10.000424, 9.999004 
1.0150916e+3, 2.6450014e+2, -359095.22, -505603.94, -31363.066, 0.0073459893, 0.119655386, -352663.7, -4756.3926, 0.0, 10.000557, 9.9986105 
1.0151059e+3, 2.744984e+2, -196517.61, -374648.78, -43016.76, -0.06507344, 0.08288455, -186673.53, 63250.703, 0.0, 10.000992, 9.998628 
1.01512074e+3, 2.8449723e+2, -73801.12, -242858.33, -59874.758, -0.06611029, 0.09413547, -54743.664, 97192.28, 0.0, 10.001065, 9.998826 
1.015136e+3, 2.944967e+2, -24400.213, -163260.94, -41242.543, 0.018360034, 0.15071793, -13074.629, 40866.867, 0.0, 10.00071, 9.99887 
1.01515085e+3, 3.0449513e+2, 25138.004, -159906.14, -10521.012, 0.019147553, 0.12914284, 25734.273, 25734.273, 0.0, 10.000914, 9.99846 
1.0151651e+3, 3.144931e+2, 148336.45, -94548.28, -21054.361, -0.07971473, 0.08183135, 150148.03, 150148.03, 0.0, 10.001732, 9.998514 
1.02489464e+3, 1.2449229e+2, -1785355.1, -1718370.9, -52473.125, -0.020870343, 0.1918555, -1689612.3, 30378.46, 0.00022439056, 9.99939, 10.000268 
1.0249114e+3, 1.3449202e+2, -1667453.0, -1628918.5, -39068.133, 0.063626185, 0.15076911, -1604625.0, 17366.254, 0.0000828242, 9.9995985, 10.000113 
1.0249252e+3, 1.4449123e+2, -1579092.4, -1568149.4, -80894.06, -0.066576116, 0.078926586, -1492542.0, 31455.814, 0.000012107546, 9.999673, 9.999818 
1.0249401e+3, 1.5449138e+2, -1496086.6, -1474611.9, -69843.086, -0.03680561, 0.10745533, -1414685.6, 11310.916, 0.00000009714164, 9.999559, 9.999841 
1.0249543e+3, 1.6449153e+2, -1393931.3, -1381809.6, -107527.38, -0.012850118, 0.1447532, -1280172.4, 47822.977, 0.0, 9.99962, 9.999775 
1.0249681e+3, 1.7449169e+2, -1251204.0, -1257717.0, -129557.484, 0.01671263, 0.17832607, -1124862.0, 105132.375, 0.0, 9.9999075, 9.999816 
1.02498166e+3, 1.8449119e+2, -1159731.3, -1201113.6, -129055.125, 0.017084034, 0.16525802, -1049719.1, 82279.42, 0.0, 10.000025, 9.9994755 
1.02499485e+3, 1.944899e+2, -1070413.1, -1105082.3, -111949.43, -0.0227917, 0.08602998, -974464.2, 59544.445, 0.0, 9.999956, 9.999495 
1.0250083e+3, 2.04489e+2, -979565.0, -1040540.4, -118569.34, -0.026947873, 0.06230133, -887626.44, 48389.78, 0.0, 10.000037, 9.999226 
1.02502175e+3, 2.144886e+2, -840470.1, -920485.7, -122454.45, 0.012526793, 0.09618794, -751653.56, 86367.18, 0.0, 10.00031, 9.999246 
1.0250354e+3, 2.2448789e+2, -749307.75, -830226.94, -85954.56, 0.015632417, 0.10550082, -694766.5, 45261.14, 0.0, 10.000283, 9.999205 
1.0250491e+3, 2.3448683e+2, -705819.9, -754482.25, -81054.53, -0.025261322, 0.07432452, -645523.4, -3486.1326, 0.0, 9.999892, 9.999239 
1.02506325e+3, 2.4448587e+2, -615972.1, -695524.75, -79192.01, -0.029639581, 0.07215695, -567128.3, -23082.002, 0.0, 9.999988, 9.998925 
1.0250778e+3, 2.5448504e+2, -417837.2, -547342.06, -86507.48, 0.009344243, 0.09206876, -374532.13, 71522.74, 0.0, 10.000667, 9.998943 
1.0250923e+3, 2.6448387e+2, -327929.38, -488378.1, -55609.453, 0.0065502445, 0.09914269, -310540.4, 37526.086, 0.0, 10.000763, 9.998629 
1.0251067e+3, 2.7448237e+2, -317971.53, -429581.56, -40701.813, -0.04601094, 0.08251194, -304705.28, -54623.83, 0.0, 10.000146, 9.998655 
1.0251214e+3, 2.8448126e+2, -216730.72, -310534.22, -50524.59, -0.04634592, 0.09944097, -194694.03, -42601.543, 0.0, 10.000081, 9.998833 
1.0251367e+3, 2.944806e+2, -28281.594, -164226.55, -70113.29, 0.016150674, 0.14344038, 1399.0459, 55498.117, 0.0, 10.00068, 9.998877 
1.0251518e+3, 3.0447903e+2, 70581.664, -124232.42, -26555.64, 0.007898138, 0.1185431, 74136.664, 74136.664, 0.0, 10.001167, 9.998582 
1.02516666e+3, 3.144771e+2, 121666.58, -95229.27, -12095.738, -0.08432413, 0.060549922, 122339.04, 122339.04, 0.0, 10.001494, 9.998624 
1.03489414e+3, 1.2447422e+2, -1783620.3, -1715599.4, -31692.676, -0.015174631, 0.06438545, -1703121.9, 17043.014, 0.00027553758, 9.9993925, 10.000284 
1.0349113e+3, 1.3447484e+2, -1669414.1, -1633260.1, -30750.27, 0.09372465, 0.11359405, -1615667.0, 6490.883, 0.000106410545, 9.999599, 10.000082 
1.03492506e+3, 1.4447464e+2, -1559385.6, -1527465.1, -85225.46, -0.04411505, 0.091515794, -1456718.4, 67440.484, 0.000017580353, 9.999673, 10.000097 
1.0349398e+3, 1.5447502e+2, -1474074.3, -1428669.1, -73599.27, -0.008438449, 0.11152095, -1374350.5, 51803.82, 0.00000023822265, 9.999558, 10.000156 
1.0349542e+3, 1.6447483e+2, -1425424.0, -1448447.5, -98836.51, 0.0066020917, 0.117635995, -1337431.0, -9274.259, 0.0, 9.999624, 9.999316 
1.03496805e+3, 1.744739e+2, -1286647.5, -1331919.1, -118721.055, 0.016120147, 0.09298004, -1188423.6, 41744.375, 0.0, 9.999908, 9.999307 
1.0349818e+3, 1.8447332e+2, -1130141.3, -1140191.1, -132592.1, 0.02409225, 0.08104345, -1002478.9, 129694.03, 0.0, 10.000026, 9.999893 
1.0349954e+3, 1.9447325e+2, -1037488.56, -1036237.6, -115053.305, 0.02459652, 0.07605756, -921808.1, 112361.78, 0.0, 9.999953, 9.999969 
1.0350084e+3, 2.0447282e+2, -982450.56, -1045298.44, -110697.06, -0.012013097, 0.07566708, -898803.6, 37369.348, 0.0, 10.000031, 9.999196 
1.035021e+3, 2.1447194e+2, -845085.25, -929116.1, -112411.734, -0.09198969, 0.06655489, -767093.6, 71090.305, 0.0, 10.000304, 9.999189 
1.0350346e+3, 2.2447132e+2, -743032.56, -816474.9, -101063.734, -0.09756175, 0.082289115, -672225.5, 67965.01, 0.0, 10.000278, 9.999302 
1.035049e+3, 2.3447105e+2, -698115.25, -739324.75, -95488.07, -0.011671158, 0.120435126, -621034.1, 21157.229, 0.0, 9.999894, 9.999344 
1.0350637e+3, 2.4447007e+2, -627189.06, -718036.75, -56038.06, 0.02481852, 0.11844549, -600477.0, -56276.785, 0.0, 9.999984, 9.998774 
1.0350784e+3, 2.5446823e+2, -430135.03, -571944.1, -59423.004, 0.0018111549, 0.054908104, -408527.16, 37691.793, 0.0, 10.000661, 9.998777 
1.0350929e+3, 2.6446685e+2, -303542.34, -436456.72, -76296.19, -0.0037411202, 0.033141904, -268818.16, 79413.98, 0.0, 10.000755, 9.998989 
1.03510745e+3, 2.744661e+2, -291442.56, -373546.63, -62989.668, 0.010867883, 0.05045309, -257308.38, -7069.8667, 0.0, 10.000139, 9.999044 
1.03512205e+3, 2.8446493e+2, -247342.2, -372550.22, -30024.422, 0.0026094036, 0.06176069, -240514.75, -88264.91, 0.0, 10.000074, 9.99841 
1.03513695e+3, 2.944633e+2, -59425.86, -229949.78, -44139.023, -0.030860998, 0.056162443, -48678.156, 5588.829, 0.0, 10.000685, 9.998423 
1.0351526e+3, 3.0446196e+2, 101157.27, -61439.707, -12087.695, -0.033145018, 0.050462544, 102050.98, 102050.98, 0.0, 10.001168, 9.999014 
1.0351691e+3, 3.144613e+2, 146612.69, -32619.15, 4003.9104, -0.0018825443, 0.07969678, 146702.1, 146702.1, 0.0, 10.001447, 9.999078 
1.04489416e+3, 1.244577e+2, -1626202.6, -1657210.0, 29277.701, -0.00590951, 0.031326782, -1608577.0, 111747.586, 0.0003338259, 10.000545, 10.000131 
1.044911e+3, 1.3445826e+2, -1620182.3, -1631931.4, -1879.0453, 0.089347266, 0.093881704, -1619889.1, 2429.7693, 0.00013404706, 10.000031, 9.999883 
1.0449247e+3, 1.4445807e+2, -1537066.8, -1521956.5, -64621.773, -0.052869588, 0.0856662, -1464449.8, 59870.33, 0.000024406929, 9.99985, 10.000049 
1.0449398e+3, 1.5445836e+2, -1406845.5, -1401549.1, -82897.05, 0.009070063, 0.101725414, -1321258.0, 105058.5, 0.0000004785213, 10.000041, 10.000111 
1.0449542e+3, 1.6445805e+2, -1358026.5, -1418764.4, -103441.89, 0.02653066, 0.1002649, -1280587.8, 47732.234, 0.0, 10.000098, 9.999292 
1.0449679e+3, 1.74457e+2, -1272168.6, -1326847.5, -87971.36, 0.010398381, 0.06569283, -1207386.4, 22945.625, 0.0, 10.000017, 9.999289 
1.0449817e+3, 1.8445644e+2, -1138641.5, -1143483.8, -100653.52, 0.0150788035, 0.05478445, -1040380.0, 91957.04, 0.0, 9.999968, 9.999897 
1.04499534e+3, 1.9445652e+2, -1034818.9, -1034216.5, -119614.83, 0.03694535, 0.063959785, -914902.5, 119430.62, 0.0, 9.99997, 9.999973 
1.0450085e+3, 2.0445623e+2, -989473.4, -1042659.75, -123842.24, 0.0022273646, 0.07440168, -889401.25, 46934.03, 0.0, 9.999959, 9.9992485 
1.0450211e+3, 2.1445549e+2, -895380.75, -946976.56, -118320.68, -0.099742234, 0.07486263, -800078.25, 38266.832, 0.0, 9.999934, 9.999244 
1.0450347e+3, 2.2445488e+2, -754567.1, -814322.5, -104019.47, -0.10997752, 0.08554497, -676219.44, 64131.887, 0.0, 10.000167, 9.99937 
1.0450494e+3, 2.3445442e+2, -572990.56, -671326.4, -103504.76, -0.008674396, 0.09850807, -507569.1, 134784.11, 0.0, 10.000721, 9.999412 
1.0450641e+3, 2.4445343e+2, -527522.9, -671412.2, -65080.066, 0.033609, 0.09186132, -502454.94, 41907.13, 0.0, 10.000673, 9.99876 
1.0450786e+3, 2.544518e+2, -545532.5, -628662.94, -59356.363, 0.0038477122, 0.05140462, -514635.0, -68255.74, 0.0, 9.999875, 9.998765 
1.0450932e+3, 2.6445052e+2, -440521.88, -495797.84, -74461.05, -0.0053026816, 0.037202273, -388735.0, -40343.316, 0.0, 9.999788, 9.999046 
1.0451077e+3, 2.7444968e+2, -222144.81, -333388.47, -85845.17, 0.009297188, 0.040249653, -175476.95, 74921.53, 0.0, 10.0005865, 9.999104 
1.04512244e+3, 2.8444842e+2, -121528.17, -322733.1, -47589.22, -0.0051785577, 0.043236677, -110840.07, 41570.83, 0.0, 10.000984, 9.998314 
1.0451374e+3, 2.9444668e+2, -42109.273, -232771.4, -39553.313, -0.050785508, 0.038426828, -34229.504, 20200.152, 0.0, 10.000853, 9.998322 
1.0451533e+3, 3.0444553e+2, 17241.445, -79638.43, -16600.068, -0.04208234, 0.047326494, 20006.877, 20006.877, 0.0, 10.000498, 9.999211 
1.0451699e+3, 3.1444535e+2, -66671.26, -112215.48, -20461.795, 0.027433243, 0.10137319, -58828.766, -58828.766, 0.0, 9.999883, 9.999284 
1.0548946e+3, 1.2444283e+2, -1647285.3, -1703225.4, 29496.168, -0.009163711, 0.09345688, -1634606.3, 85862.7, 0.00039971265, 10.000554, 9.999811 
1.05491064e+3, 1.3444239e+2, -1644685.6, -1685055.1, -19898.018, 0.047055747, 0.0929093, -1636526.9, -14053.924, 0.00016604259, 10.00004, 9.999516 
1.0549242e+3, 1.4444159e+2, -1563831.0, -1579616.4, -58951.04, -0.09806621, 0.06085316, -1512246.6, 12233.978, 0.000032768716, 9.999859, 9.999649 
1.05493985e+3, 1.5444148e+2, -1436344.1, -1462473.9, -75239.19, 0.009658649, 0.07822446, -1373043.9, 53438.188, 0.0000008393984, 10.000039, 9.999694 
1.05495445e+3, 1.6444132e+2, -1329344.6, -1359797.5, -107182.75, 0.03979909, 0.09525504, -1236312.1, 92171.71, 0.0, 10.000099, 9.999697 
1.0549678e+3, 1.744411e+2, -1239504.1, -1259341.5, -90990.76, -0.0035780896, 0.0979972, -1157893.0, 72592.75, 0.0, 10.000017, 9.999752 
1.0549814e+3, 1.844406e+2, -1167156.3, -1203122.9, -102141.69, -0.013887091, 0.08685482, -1081426.9, 51063.36, 0.0, 9.999968, 9.999489 
1.0549951e+3, 1.9443972e+2, -1067330.0, -1101821.5, -119736.914, 0.010454478, 0.048023123, -963603.3, 70894.53, 0.0, 9.9999695, 9.99951 
1.05500855e+3, 2.0443925e+2, -980935.44, -1024453.6, -126205.56, 0.010603332, 0.05875323, -874627.0, 61875.617, 0.0, 9.999956, 9.999375 
1.0550219e+3, 2.1443929e+2, -884661.6, -923933.25, -119220.05, -0.016026333, 0.12082384, -783471.2, 55032.492, 0.0, 9.999929, 9.999405 
1.0550357e+3, 2.244386e+2, -753539.56, -810705.9, -85671.8, -0.027344035, 0.11424674, -691808.5, 48701.27, 0.0, 10.000159, 9.999398 
1.05505005e+3, 2.3443702e+2, -571858.9, -668212.6, -82337.305, -0.019033901, 0.0093317535, -524639.5, 117882.8, 0.0, 10.000715, 9.999436 
1.0550644e+3, 2.4443601e+2, -519819.97, -654416.25, -93071.46, -0.006506823, -0.005255305, -472264.56, 72266.65, 0.0, 10.000668, 9.998881 
1.0550786e+3, 2.5443578e+2, -536244.75, -610245.6, -88779.555, 0.011203384, 0.08105277, -477063.88, -30528.273, 0.0, 9.999877, 9.998892 
1.055093e+3, 2.6443487e+2, -456374.2, -528728.75, -47830.055, -0.0020717178, 0.1068488, -432580.56, -84035.29, 0.0, 9.999788, 9.998821 
1.05510764e+3, 2.7443314e+2, -239481.92, -368999.03, -53638.816, -0.05474787, 0.047075484, -220152.47, 30408.803, 0.0, 10.000584, 9.998861 
1.05512284e+3, 2.8443173e+2, -110893.32, -297826.28, -49831.387, -0.07411315, 0.041069068, -98439.31, 54136.08, 0.0, 10.000971, 9.998491 
1.0551383e+3, 2.9443076e+2, -32772.09, -206659.27, -42720.527, -0.04886458, 0.09147954, -22843.438, 31743.47, 0.0, 10.000822, 9.998516 
1.0551539e+3, 3.0442977e+2, 14167.828, -81220.305, -38878.04, -0.023123939, 0.110630885, 28006.078, 28006.078, 0.0, 10.000476, 9.999211 
1.05516955e+3, 3.144292e+2, -62816.992, -109645.03, -39595.402, -0.005566456, 0.12445225, -40230.88, -40230.88, 0.0, 9.999906, 9.99929 
1.0648956e+3, 1.244272e+2, -1592030.5, -1698890.4, -2777.7952, 0.008754205, 0.13492294, -1591958.4, 128664.305, 0.00047318285, 10.001035, 9.999607 
1.0649109e+3, 1.3442619e+2, -1556186.5, -1669009.4, -65500.875, 0.04492505, 0.10289686, -1526153.8, 96478.38, 0.00020250746, 10.000762, 9.999278 
1.0649243e+3, 1.4442514e+2, -1472355.4, -1549100.1, -73410.56, -0.10522923, 0.062394656, -1427893.3, 96749.125, 0.000042863663, 10.0005455, 9.999527 
1.0649398e+3, 1.5442488e+2, -1398964.4, -1456568.4, -68721.2, -0.012107903, 0.076187104, -1353253.6, 73391.77, 0.0000013547858, 10.000351, 9.999582 
1.0649543e+3, 1.6442473e+2, -1304160.6, -1329458.5, -97666.83, 0.020201705, 0.09228015, -1218327.0, 110319.59, 0.0, 10.000198, 9.999855 
1.0649679e+3, 1.7442468e+2, -1211893.5, -1226266.0, -104522.05, 0.00035198694, 0.09581666, -1114311.0, 116334.79, 0.0, 10.000123, 9.999927 
1.0649816e+3, 1.8442428e+2, -1147440.0, -1207743.5, -109215.83, -0.006430059, 0.0911328, -1064290.3, 68358.99, 0.0, 10.000164, 9.999361 
1.0649951e+3, 1.9442344e+2, -1018518.5, -1094331.3, -103838.8, -0.0060462393, 0.06834148, -945883.5, 88774.37, 0.0, 10.000375, 9.999366 
1.06500864e+3, 2.0442282e+2, -920574.25, -997056.94, -110547.6, 0.00020604198, 0.074031875, -841840.5, 94823.55, 0.0, 10.000378, 9.99936 
1.0650222e+3, 2.1442252e+2, -856476.2, -911099.75, -118465.0, 0.01670089, 0.10393513, -762215.4, 76451.66, 0.0, 10.000126, 9.999398 
1.0650361e+3, 2.2442174e+2, -792421.0, -836089.56, -80958.73, 0.016437497, 0.09042982, -730403.9, 10270.026, 0.0, 9.999922, 9.999338 
1.06505044e+3, 2.3442034e+2, -712073.3, -742121.3, -84670.195, -0.004694541, 0.01232548, -641104.5, 1581.0454, 0.0, 9.999783, 9.999377 
1.0650647e+3, 2.444194e+2, -618031.44, -695562.25, -110826.92, -0.0107936505, 0.0039229607, -539385.75, 5308.492, 0.0, 9.999969, 9.998935 
1.06507875e+3, 2.54419e+2, -431505.25, -553058.44, -113910.24, 0.0006444277, 0.06815802, -363172.06, 83527.44, 0.0, 10.000568, 9.998951 
1.0650931e+3, 2.6441813e+2, -321067.3, -470206.9, -58637.19, -0.016315725, 0.09605898, -300774.2, 47934.8, 0.0, 10.000744, 9.998762 
1.065108e+3, 2.744167e+2, -277138.8, -393816.88, -52632.516, -0.06778593, 0.07138388, -256905.44, -6182.266, 0.0, 10.000355, 9.9988 
1.06512316e+3, 2.8441542e+2, -253127.84, -356049.38, -60650.836, -0.075967625, 0.079873964, -225047.84, -72311.62, 0.0, 9.999951, 9.998582 
1.06513865e+3, 2.9441443e+2, -209126.78, -280435.5, -62915.973, -0.029680656, 0.11592505, -172464.8, -117716.77, 0.0, 9.999564, 9.998614 
1.06515415e+3, 3.0441332e+2, -66887.16, -121505.086, -38989.824, -0.022203084, 0.11977987, -46593.75, -46593.75, 0.0, 9.999926, 9.999199 
1.0651694e+3, 3.1441274e+2, 115310.42, -25710.537, -45148.88, -0.066347994, 0.1365932, 128526.58, 128526.58, 0.0, 10.00114, 9.999272 
1.074897e+3, 1.24410875e+2, -1598265.0, -1713438.9, 4571.2373, 0.03454425, 0.15566665, -1598083.9, 122701.16, 0.00055371417, 10.001042, 9.999503 
1.0749121e+3, 1.3440976e+2, -1564313.8, -1685626.6, -74959.914, 0.07922321, 0.12421969, -1528543.0, 94252.59, 0.00024334127, 10.000761, 9.999165 
1.0749251e+3, 1.4440879e+2, -1460420.6, -1525152.9, -81109.6, -0.07984543, 0.09218327, -1405457.9, 119346.69, 0.00005483326, 10.000547, 9.999691 
1.0749397e+3, 1.5440865e+2, -1384814.4, -1428572.5, -75619.29, -0.059745383, 0.09752436, -1327972.6, 98832.75, 0.000002073113, 10.000356, 9.999772 
1.074954e+3, 1.6440833e+2, -1309107.1, -1341680.8, -102079.766, -0.037262686, 0.091193475, -1222023.1, 106784.5, 0.0000000000166348, 10.000205, 9.999768 
1.0749683e+3, 1.7440782e+2, -1219760.0, -1242813.5, -107220.72, 0.018386845, 0.057583906, -1123448.3, 107363.24, 0.0, 10.000123, 9.999814 
1.07498206e+3, 1.8440756e+2, -1137284.6, -1186438.5, -103489.516, 0.031882364, 0.06823963, -1055493.8, 77319.69, 0.0, 10.000162, 9.999509 
1.0749954e+3, 1.9440769e+2, -1007545.5, -1070832.8, -96177.25, -0.016126776, 0.1258702, -937940.06, 96872.65, 0.0, 10.000371, 9.99953 
1.07500866e+3, 2.0440698e+2, -932320.5, -1020983.1, -120734.93, -0.032540314, 0.1207057, -848035.4, 88783.76, 0.0, 10.000374, 9.999198 
1.0750221e+3, 2.1440524e+2, -869083.0, -937653.6, -128286.625, -0.0047474047, 0.024135558, -770579.2, 68255.54, 0.0, 10.000126, 9.999216 
1.075036e+3, 2.2440432e+2, -802143.44, -856982.56, -88002.51, 0.017475482, 0.014902967, -737387.8, 3455.4888, 0.0, 9.999924, 9.999195 
1.0750505e+3, 2.3440447e+2, -721774.56, -762958.7, -89377.734, 0.030786041, 0.10541929, -650647.44, -7804.7905, 0.0, 9.9997835, 9.999235 
1.0750649e+3, 2.4440365e+2, -619574.4, -698427.44, -90272.29, 0.016420797, 0.116075814, -560494.4, -15643.434, 0.0, 9.999966, 9.998917 
1.075079e+3, 2.5440156e+2, -432699.5, -555143.2, -89975.07, -0.032210812, 0.013173163, -385092.9, 61777.547, 0.0, 10.000565, 9.998939 
1.0750935e+3, 2.644004e+2, -315546.7, -457032.72, -70370.85, -0.05222212, 0.0071786665, -286506.78, 62375.46, 0.0, 10.000735, 9.9988575 
1.07510865e+3, 2.7440035e+2, -271496.1, -379517.0, -65563.17, -0.035350088, 0.11326242, -240561.52, 10322.387, 0.0, 10.000342, 9.998905 
1.0751236e+3, 2.8439954e+2, -253519.4, -354796.1, -75487.63, -0.017459601, 0.15789999, -213258.77, -60365.402, 0.0, 9.999942, 9.998596 
1.0751385e+3, 2.943977e+2, -205779.84, -277172.0, -74690.56, -0.0012278691, 0.110482976, -158693.73, -103780.97, 0.0, 9.999578, 9.998631 
1.07515395e+3, 3.043962e+2, -70269.83, -129238.31, 5461.304, -0.043770805, 0.075168684, -69768.305, -69768.305, 0.0, 9.9999275, 9.9991455 
1.0751697e+3, 3.1439608e+2, 102924.37, -38292.145, 5040.768, -0.1614172, 0.14353807, 103104.07, 103104.07, 0.0, 10.001081, 9.999214 
1.08489834e+3, 1.2439467e+2, -1514941.4, -1684047.6, 48875.82, 0.035213172, 0.13933721, -1501831.5, 219113.6, 0.00064071716, 10.001664, 9.999405 
1.08491294e+3, 1.3439363e+2, -1522251.9, -1675550.5, -49836.395, 0.07733971, 0.12474633, -1507474.9, 115480.56, 0.00028839763, 10.001096, 9.999072 
1.0849259e+3, 1.4439288e+2, -1439980.8, -1503713.8, -48360.7, -0.060071476, 0.114045605, -1413931.5, 111030.71, 0.00006873226, 10.000642, 9.999791 
1.08494006e+3, 1.5439287e+2, -1387847.1, -1417829.9, -52045.348, -0.06020319, 0.122262955, -1348677.1, 78283.93, 0.0000030594845, 10.000284, 9.99988 
1.0849541e+3, 1.643925e+2, -1327234.5, -1365974.8, -71192.555, -0.047751967, 0.111112945, -1272824.0, 56139.383, 0.000000000186287, 10.000148, 9.999628 
1.0849684e+3, 1.743917e+2, -1204050.0, -1252184.8, -80525.72, 0.012672594, 0.06481348, -1144072.0, 86898.01, 0.0, 10.000307, 9.99966 
1.0849823e+3, 1.8439125e+2, -1115658.1, -1175221.6, -83185.86, 0.031651195, 0.063048005, -1057083.6, 75890.04, 0.0, 10.00031, 9.999515 
1.08499564e+3, 1.9439125e+2, -1042413.94, -1085677.8, -88182.27, -0.013244616, 0.10673745, -973249.1, 61724.305, 0.0, 10.000124, 9.999546 
1.08500905e+3, 2.043905e+2, -937503.06, -1018899.75, -102431.09, -0.033539608, 0.09522836, -867981.25, 68998.43, 0.0, 10.00032, 9.999237 
1.0850225e+3, 2.1438886e+2, -737696.94, -869596.4, -94151.52, -0.019304555, 0.003645344, -688695.06, 150298.9, 0.0, 10.001009, 9.999258 
1.0850364e+3, 2.2438799e+2, -635472.0, -803706.25, -66212.945, -0.00001132968, 0.006427346, -612538.5, 128464.11, 0.0, 10.001184, 9.998953 
1.0850508e+3, 2.3438807e+2, -604070.3, -735518.2, -80039.945, 0.022902027, 0.11686826, -566227.7, 76776.33, 0.0, 10.000718, 9.998974 
1.0850651e+3, 2.4438718e+2, -544166.94, -652803.9, -60535.27, 0.0109660765, 0.13207473, -517152.7, 27860.514, 0.0, 10.000443, 9.999001 
1.08507924e+3, 2.5438508e+2, -448578.63, -550253.0, -51390.855, -0.043439336, 0.016084198, -427128.6, 19903.264, 0.0, 10.000402, 9.99905 
1.08509384e+3, 2.6438385e+2, -395716.56, -495332.7, -53720.516, -0.061018158, -0.0013394784, -372266.6, -23222.75, 0.0, 10.000185, 9.998858 
1.08510874e+3, 2.743837e+2, -356120.22, -421314.88, -60210.688, -0.033096157, 0.09418342, -320249.22, -69201.94, 0.0, 9.999766, 9.998896 
1.0851236e+3, 2.843829e+2, -264655.94, -360129.0, -53049.004, -0.018036352, 0.1410389, -241027.4, -87970.586, 0.0, 9.999865, 9.998596 
1.0851384e+3, 2.9438126e+2, -61975.426, -208185.44, -54410.52, -0.018403376, 0.11409387, -43949.5, 11124.489, 0.0, 10.000568, 9.998628 
1.0851538e+3, 3.0437976e+2, -15147.273, -84434.05, 18189.81, -0.06132848, 0.07134323, -10662.237, -10662.237, 0.0, 10.000228, 9.999308 
1.0851695e+3, 3.143797e+2, -243685.66, -183421.17, 30106.457, -0.15989739, 0.12827154, -170958.22, -170958.22, 0.0, 9.998609, 9.999407 
1.0948996e+3, 1.2437864e+2, -1520958.4, -1696008.3, 45332.574, 0.00024793, 0.08085137, -1509915.3, 211186.88, 0.000734217, 10.001662, 9.999323 
1.09491356e+3, 1.3437791e+2, -1526356.3, -1686043.6, -69360.36, 0.03312827, 0.10562998, -1500436.6, 122673.66, 0.00033773432, 10.001102, 9.998998 
1.0949265e+3, 1.443775e+2, -1436612.8, -1498217.5, -62320.465, -0.052893218, 0.12930334, -1397898.0, 127216.3, 0.0000845864, 10.000648, 9.999826 
1.0949407e+3, 1.5437762e+2, -1386736.0, -1415021.3, -64686.016, -0.017427444, 0.14984226, -1334664.6, 92446.96, 0.0000043925156, 10.000281, 9.999901 
1.0949546e+3, 1.6437732e+2, -1341351.5, -1395175.9, -67290.37, -0.015913056, 0.15272456, -1295791.3, 33321.965, 0.0000000006358386, 10.000147, 9.99943 
1.0949684e+3, 1.7437643e+2, -1218738.5, -1283319.4, -74290.66, -0.020549811, 0.11916831, -1170024.1, 61096.242, 0.0, 10.000309, 9.999445 
1.0949822e+3, 1.8437538e+2, -1125181.8, -1195134.9, -90995.734, -0.0135082025, 0.075875275, -1062672.0, 70457.13, 0.0, 10.00031, 9.999378 
1.0949959e+3, 1.9437416e+2, -1051872.5, -1104751.3, -95595.84, -0.0014340531, 0.010242183, -979127.1, 56012.504, 0.0, 10.000121, 9.999416 
1.0950097e+3, 2.0437346e+2, -921309.5, -984580.56, -80150.28, -0.006776967, -0.002495301, -866777.3, 70367.86, 0.0, 10.000316, 9.999476 
1.09502345e+3, 2.1437342e+2, -720652.0, -832401.75, -68080.39, -0.030851865, 0.042064484, -688453.4, 150690.8, 0.0, 10.001, 9.999518 
1.0950371e+3, 2.2437273e+2, -661150.56, -855159.4, -82849.086, -0.03999982, 0.06537781, -630586.06, 110565.35, 0.0, 10.001176, 9.998605 
1.0950509e+3, 2.3437116e+2, -631557.9, -792240.4, -97366.805, -0.03123341, 0.04825986, -585665.2, 57504.027, 0.0, 10.000715, 9.998586 
1.095065e+3, 2.4437004e+2, -531373.06, -626240.56, -63272.906, -0.030042887, 0.05330648, -499728.25, 45452.438, 0.0, 10.000442, 9.999185 
1.0950797e+3, 2.5436953e+2, -433962.78, -517544.13, -51771.055, -0.037640795, 0.07420141, -409219.97, 37963.8, 0.0, 10.000392, 9.999281 
1.0950941e+3, 2.643685e+2, -403987.5, -509960.06, -68829.05, -0.047736354, 0.06806896, -370111.94, -20918.01, 0.0, 10.000174, 9.998765 
1.0951082e+3, 2.7436677e+2, -363466.38, -438041.13, -73915.54, -0.06424102, 0.017295763, -317965.75, -66752.945, 0.0, 9.999771, 9.998778 
1.0951228e+3, 2.843656e+2, -266469.53, -364337.88, -27595.785, -0.07862057, 0.03400109, -259224.69, -105998.67, 0.0, 9.999866, 9.998567 
1.0951384e+3, 2.943651e+2, -67750.2, -213584.92, -24726.564, -0.084796, 0.12461681, -63671.816, -8439.972, 0.0, 10.000539, 9.998605 
1.09515384e+3, 3.04364e+2, 5320.1514, -35816.066, -37654.21, -0.082628116, 0.10436601, 27657.6, 27657.6, 0.0, 10.0002, 9.999656 
1.0951688e+3, 3.1436366e+2, -212202.45, -121123.44, -26983.398, -0.07897941, 0.095434904, -113729.49, -113729.49, 0.0, 9.99862, 9.99983 
1.1049016e+3, 1.2436452e+2, -1458668.9, -1675849.1, 114115.695, 0.010344348, 0.11108362, -1409733.8, 311507.44, 0.00083503575, 10.002134, 9.999233 
1.1049142e+3, 1.3436358e+2, -1530592.9, -1696002.8, -18965.96, -0.016146028, 0.12041554, -1528446.1, 94805.15, 0.0003918232, 10.001104, 9.99893 
1.10492714e+3, 1.4436294e+2, -1441485.4, -1531463.4, 8084.525, -0.06541776, 0.13855435, -1440764.8, 84492.47, 0.000102570426, 10.000747, 9.999551 
1.1049417e+3, 1.5436262e+2, -1282974.3, -1396981.8, -19174.941, 0.0051292316, 0.14349456, -1279835.6, 147423.03, 0.0000061708192, 10.001134, 9.999613 
1.10495545e+3, 1.6436201e+2, -1208329.5, -1353912.6, -36979.61, 0.008862731, 0.14225169, -1199474.9, 129788.3, 0.0000000015512864, 10.001162, 9.999222 
1.1049688e+3, 1.7436104e+2, -1166234.3, -1280517.1, -44918.15, -0.036988217, 0.11847, -1150692.9, 80578.52, 0.0, 10.000768, 9.999243 
1.1049824e+3, 1.8435983e+2, -1089160.5, -1193048.4, -55155.508, -0.038127195, 0.07659008, -1065339.6, 67942.08, 0.0, 10.000623, 9.999242 
1.1049964e+3, 1.943584e+2, -960439.8, -1075371.0, -60771.5, 0.006263156, 0.0029838854, -934266.5, 101027.555, 0.0, 10.000813, 9.999285 
1.1050103e+3, 2.0435765e+2, -881710.56, -979830.1, -56005.758, 0.013694346, -0.00054502813, -856315.6, 80984.6, 0.0, 10.00065, 9.999347 
1.1050239e+3, 2.1435781e+2, -869370.1, -918490.44, -75382.12, -0.023842553, 0.07393295, -814648.06, 24650.432, 0.0, 10.000042, 9.999389 
1.1050377e+3, 2.2435701e+2, -825582.56, -924845.4, -86297.8, -0.045474883, 0.09212349, -775662.06, -34355.547, 0.0, 10.000007, 9.998689 
1.1050514e+3, 2.3435506e+2, -625929.56, -778631.25, -65821.03, -0.04797485, 0.02607805, -601474.4, 41852.44, 0.0, 10.000708, 9.998682 
1.1050656e+3, 2.4435389e+2, -495235.22, -610979.2, -39925.086, -0.043323994, 0.022032093, -482799.44, 62539.055, 0.0, 10.000701, 9.999164 
1.1050798e+3, 2.5435376e+2, -522399.56, -564028.44, -51217.73, -0.031000957, 0.08468631, -487928.4, -40589.387, 0.0, 9.999801, 9.999247 
1.1050941e+3, 2.6435292e+2, -481904.4, -546258.2, -51109.504, -0.036331393, 0.097910106, -453686.47, -104338.44, 0.0, 9.999633, 9.9987755 
1.10510826e+3, 2.7435115e+2, -273839.2, -393345.34, -46738.1, -0.06488115, 0.04042273, -257731.34, -6363.943, 0.0, 10.000381, 9.998792 
1.1051228e+3, 2.8434995e+2, -189946.86, -312334.75, -2283.6245, -0.087620735, 0.048518606, -189904.27, -36523.8, 0.0, 10.000327, 9.998701 
1.1051381e+3, 2.9434946e+2, -242832.28, -282160.94, 9333.982, -0.100115895, 0.124720596, -240729.45, -185343.77, 0.0, 9.9992695, 9.998744 
1.1051532e+3, 3.0434832e+2, -173547.95, -111655.94, -14184.188, -0.09764358, 0.09194869, -108560.11, -108560.11, 0.0, 9.998928, 9.999747 
1.1051679e+3, 3.1434843e+2, -78141.58, -41791.68, -30064.266, -0.08041981, 0.11777711, -24835.605, -24835.605, 0.0, 9.999477, 9.999962 
1.1149042e+3, 1.2435242e+2, -1464669.4, -1689934.3, 87564.89, 0.05742869, 0.22943169, -1434635.5, 286725.63, 0.000944546, 10.002142, 9.999131 
1.11491464e+3, 1.343507e+2, -1535599.5, -1706800.3, -55038.85, -0.075448155, 0.16951902, -1519432.0, 103945.18, 0.00045159098, 10.001104, 9.998857 
1.11492746e+3, 1.443493e+2, -1482432.1, -1616295.6, 20072.322, -0.103439614, 0.14109246, -1479487.3, 45902.62, 0.00012308804, 10.000746, 9.998969 
1.1149427e+3, 1.5434794e+2, -1325213.0, -1486168.3, -3803.473, 0.0015611635, 0.103971586, -1325123.3, 102278.234, 0.000008505592, 10.00114, 9.998999 
1.11495666e+3, 1.6434668e+2, -1222457.8, -1385141.1, -51597.523, 0.01921441, 0.07953448, -1207473.0, 121939.51, 0.0000000033697685, 10.001169, 9.999004 
1.1149695e+3, 1.7434557e+2, -1179092.8, -1308032.0, -59791.055, -0.04021463, 0.061545618, -1155634.5, 75788.15, 0.0, 10.000771, 9.999053 
1.1149829e+3, 1.8434465e+2, -1098916.5, -1213296.6, -51040.152, -0.04670096, 0.06506749, -1079452.8, 53977.93, 0.0, 10.000621, 9.999104 
1.1149972e+3, 1.9434403e+2, -970374.44, -1095894.4, -53776.637, 0.005819828, 0.08560227, -950486.1, 84949.85, 0.0, 10.000811, 9.9991455 
1.115011e+3, 2.0434316e+2, -917540.7, -1053673.5, -78910.73, 0.02260521, 0.101771824, -881396.06, 56048.18, 0.0, 10.000648, 9.998842 
1.1150242e+3, 2.1434201e+2, -906562.1, -995109.1, -98668.78, -0.0024460622, 0.09956366, -842689.1, -3232.6287, 0.0, 10.00004, 9.998864 
1.11503795e+3, 2.2434089e+2, -790580.7, -851388.75, -64374.297, -0.021130431, 0.08655821, -749791.6, -8324.165, 0.0, 10.000003, 9.999196 
1.1150524e+3, 2.3433979e+2, -586809.5, -694831.25, -38731.734, -0.03147502, 0.049608197, -574357.44, 69119.12, 0.0, 10.000696, 9.999264 
1.11506626e+3, 2.4433877e+2, -513146.38, -645605.6, -70620.19, -0.034119707, 0.03929315, -482558.78, 62927.52, 0.0, 10.000689, 9.998933 
1.11507975e+3, 2.5433782e+2, -542282.06, -606666.56, -83827.0, -0.027482983, 0.049761716, -484678.38, -37181.29, 0.0, 9.999805, 9.998951 
1.1150939e+3, 2.643371e+2, -474283.44, -531390.1, -26245.719, -0.030391127, 0.088414684, -464053.66, -114547.7, 0.0, 9.999638, 9.998876 
1.1151089e+3, 2.743367e+2, -268122.38, -375873.16, -16402.045, -0.042952754, 0.15634349, -265680.94, -14169.31, 0.0, 10.000357, 9.998923 
1.11512356e+3, 2.8433585e+2, -173410.11, -272195.78, -37636.832, -0.05529477, 0.17817742, -160704.77, -7184.0195, 0.0, 10.000301, 9.998991 
1.1151377e+3, 2.9433432e+2, -220538.88, -237760.56, -27489.53, -0.071264625, 0.11838126, -200343.11, -144807.98, 0.0, 9.999276, 9.999047 
1.11515194e+3, 3.0433282e+2, -184087.05, -135935.86, 3972.3176, -0.10920968, 0.039864298, -135610.34, -135610.34, 0.0, 9.998937, 9.999577 
1.1151665e+3, 3.14334e+2, -91594.56, -63739.152, -4723.8184, -0.17124929, 0.1965705, -62959.87, -62959.87, 0.0, 9.99945, 9.9998255 
1.1249059e+3, 1.2433843e+2, -1619938.8, -1756393.4, 30387.928, 0.0632661, 0.23746705, -1613477.5, 108021.12, 0.0010643419, 10.00104, 9.999207 
1.1249159e+3, 1.3433684e+2, -1449901.5, -1651266.6, -106410.71, -0.09738482, 0.17783688, -1404091.0, 219421.86, 0.00051804923, 10.001634, 9.998981 
1.12492904e+3, 1.4433539e+2, -1350285.9, -1578126.4, -3222.9053, -0.07506596, 0.14985426, -1350240.3, 175285.4, 0.00014661087, 10.001765, 9.998739 
1.12494394e+3, 1.5433365e+2, -1337504.1, -1521124.1, -3566.992, 0.008217304, 0.099114686, -1337434.8, 90106.7, 0.00001150662, 10.00118, 9.99874 
1.1249578e+3, 1.6433212e+2, -1275469.3, -1428280.9, -35248.67, 0.02113381, 0.070362836, -1267730.4, 61825.008, 0.0000000061074554, 10.000879, 9.998848 
1.1249705e+3, 1.7433095e+2, -1161025.5, -1315795.8, -41769.336, -0.020278161, 0.061173156, -1150472.4, 81093.98, 0.0, 10.000966, 9.998905 
1.1249839e+3, 1.8433002e+2, -1055513.3, -1211500.4, -22348.17, -0.030186467, 0.07862919, -1052374.6, 81200.23, 0.0, 10.001002, 9.998932 
1.12499796e+3, 1.9432941e+2, -957128.1, -1108660.0, -29069.26, -0.012251123, 0.11837555, -951742.94, 83837.5, 0.0, 10.000986, 9.998973 
1.1250116e+3, 2.0432833e+2, -883526.56, -1061502.8, -57088.617, -0.0034487038, 0.13160186, -866788.6, 70802.63, 0.0, 10.000986, 9.998625 
1.1250248e+3, 2.1432665e+2, -780544.4, -958961.6, -55862.01, -0.0029806653, 0.09806393, -764497.4, 75111.414, 0.0, 10.001011, 9.998644 
1.1250384e+3, 2.243254e+2, -683117.4, -782616.9, -12197.006, -0.0067038015, 0.079197265, -681644.0, 59976.684, 0.0, 10.000668, 9.999348 
1.1250527e+3, 2.3432477e+2, -695934.0, -727071.6, -18955.932, -0.017830404, 0.07050261, -686972.94, -43348.027, 0.0, 9.999861, 9.999444 
1.1250665e+3, 2.4432395e+2, -659860.7, -719985.06, -60918.145, -0.0253972, 0.07350209, -621990.9, -76358.21, 0.0, 9.999699, 9.998898 
1.12507984e+3, 2.5432292e+2, -465239.75, -574719.9, -57464.676, -0.02918085, 0.07730933, -440615.7, 7029.5747, 0.0, 10.00036, 9.998903 
1.1250938e+3, 2.6432213e+2, -365405.06, -464087.84, 11423.597, -0.035505503, 0.108876206, -364099.94, -14445.545, 0.0, 10.000322, 9.999007 
1.1251087e+3, 2.7432182e+2, -399365.38, -423492.13, 19929.055, -0.04370107, 0.16942272, -388133.0, -136474.67, 0.0, 9.999389, 9.999063 
1.1251232e+3, 2.843211e+2, -354500.13, -348027.84, -13717.411, -0.05072263, 0.19198658, -337170.03, -183504.19, 0.0, 9.999009, 9.999092 
1.12513706e+3, 2.943198e+2, -203879.7, -218938.5, -22176.176, -0.05819752, 0.1443496, -187989.56, -132310.84, 0.0, 9.999346, 9.999143 
1.12515114e+3, 3.0431822e+2, -126251.55, -100840.36, 21358.8, -0.10047486, 0.04834432, -88693.78, -88693.78, 0.0, 9.999305, 9.9996395 
1.1251655e+3, 3.1431937e+2, -180121.83, -88312.58, 30467.885, -0.18050161, 0.19628993, -79121.59, -79121.59, 0.0, 9.998767, 9.999985 
1.1349065e+3, 1.2432254e+2, -1601970.4, -1716018.6, 53799.332, 0.020311812, 0.13193715, -1580597.3, 141056.44, 0.0011953667, 10.001028, 9.99949 
1.1349176e+3, 1.34322e+2, -1425397.1, -1601996.9, -81740.34, -0.08774097, 0.14531381, -1393370.9, 230286.97, 0.00059164723, 10.001638, 9.999319 
1.1349317e+3, 1.4432131e+2, -1340046.5, -1558718.4, -22579.264, 0.01352633, 0.1662439, -1337739.4, 187924.56, 0.00017336896, 10.001772, 9.998869 
1.1349453e+3, 1.543198e+2, -1329898.0, -1506067.0, -25422.684, 0.021027474, 0.12865391, -1326302.8, 101375.52, 0.000015247707, 10.001183, 9.998842 
1.1349585e+3, 1.6431844e+2, -1282217.3, -1442610.8, -34866.664, 0.008980023, 0.11510153, -1274965.8, 54725.188, 0.000000009421829, 10.00088, 9.998751 
1.1349718e+3, 1.7431726e+2, -1168261.9, -1331686.5, -38379.61, 0.017960077, 0.11817851, -1159697.4, 72004.1, 0.0, 10.000968, 9.9987955 
1.13498524e+3, 1.84316e+2, -1070385.4, -1242310.0, -24674.686, 0.0050657885, 0.117555045, -1066914.1, 66799.305, 0.0, 10.001002, 9.998721 
1.1349985e+3, 1.943146e+2, -972537.3, -1140057.9, -30187.96, -0.050906833, 0.10197159, -967263.3, 68463.59, 0.0, 10.000982, 9.998759 
1.135012e+3, 2.043132e+2, -879399.1, -1051401.0, -57814.98, -0.068383135, 0.08956115, -861772.2, 75968.555, 0.0, 10.000978, 9.998698 
1.13502555e+3, 2.1431175e+2, -775107.75, -946477.4, -54791.523, -0.029255187, 0.07048252, -759087.1, 80667.836, 0.0, 10.001005, 9.998733 
1.135039e+3, 2.2431065e+2, -698348.44, -813517.2, -42024.742, -0.0075804293, 0.07151231, -684644.4, 57121.258, 0.0, 10.000664, 9.999138 
1.1350526e+3, 2.3431005e+2, -712157.56, -760935.75, -48972.3, -0.010551264, 0.08812151, -681837.25, -38065.684, 0.0, 9.999861, 9.999212 
1.1350663e+3, 2.443095e+2, -649697.75, -697460.44, -40072.72, -0.02166837, 0.12200505, -626929.94, -81152.375, 0.0, 9.999693, 9.999055 
1.1350801e+3, 2.5430903e+2, -454188.78, -548012.6, -31086.688, -0.04043443, 0.16437969, -444823.63, 2960.0515, 0.0, 10.000343, 9.999095 
1.1350939e+3, 2.6430807e+2, -355978.9, -441351.53, -19449.27, -0.056358136, 0.16021758, -351756.84, -1963.7013, 0.0, 10.000307, 9.999171 
1.1351078e+3, 2.7430657e+2, -386813.94, -399838.84, -12810.78, -0.07097652, 0.087246, -378955.3, -127148.65, 0.0, 9.999397, 9.999222 
1.13512196e+3, 2.8430575e+2, -361362.9, -364018.56, -3879.4858, -0.07750438, 0.09648176, -358590.3, -204775.25, 0.0, 9.999017, 9.998979 
1.1351363e+3, 2.9430577e+2, -215570.75, -239362.83, -7106.7456, -0.067921594, 0.19584756, -213609.6, -157792.36, 0.0, 9.999329, 9.99901 
1.13515064e+3, 3.043044e+2, -108138.516, -58521.617, 3611.95, -0.08076124, 0.1109057, -58260.06, -58260.06, 0.0, 9.999284, 9.999942 
1.1351648e+3, 3.1430462e+2, -146298.73, -19456.666, 14665.31, -0.12413647, 0.1335348, -17783.162, -17783.162, 0.0, 9.998771, 10.000457 
1.14490725e+3, 1.2430757e+2, -1535255.0, -1674683.1, 104644.5, -0.020952363, 0.05758855, -1479229.1, 242568.77, 0.0013373722, 10.00145, 9.99957 
1.1449188e+3, 1.3430758e+2, -1519943.1, -1632638.8, -45290.37, -0.08620783, 0.11184193, -1503997.8, 119799.86, 0.000672049, 10.000923, 9.999455 
1.1449337e+3, 1.4430724e+2, -1462395.9, -1617061.3, 199.88684, 0.08825584, 0.16137056, -1462395.6, 63405.406, 0.0002032588, 10.000928, 9.998877 
1.14494644e+3, 1.5430589e+2, -1288621.6, -1486285.3, -14026.359, 0.010557638, 0.13976675, -1287631.4, 140183.25, 0.000019742625, 10.001467, 9.99884 
1.1449593e+3, 1.6430455e+2, -1179294.8, -1403726.9, -28056.854, -0.029786881, 0.13377924, -1175840.5, 153987.08, 0.000000013934886, 10.001634, 9.998653 
1.14497304e+3, 1.7430325e+2, -1121488.1, -1321208.6, -32910.883, 0.022356544, 0.13324964, -1116204.6, 115635.195, 0.0, 10.001341, 9.998689 
1.14498645e+3, 1.8430187e+2, -1067669.4, -1241392.5, -12753.381, 0.028994942, 0.12643087, -1066738.1, 67114.914, 0.0, 10.001023, 9.998716 
1.1449995e+3, 1.943004e+2, -1014876.6, -1160005.5, -3383.5496, -0.038829394, 0.102005534, -1014797.75, 21069.313, 0.0, 10.00069, 9.998763 
1.1450127e+3, 2.0429905e+2, -935885.94, -1066047.5, -11552.206, -0.06245306, 0.0898059, -934868.6, 3011.5352, 0.0, 10.000537, 9.99881 
1.1450264e+3, 2.1429783e+2, -822244.9, -955203.3, -7961.714, -0.024084087, 0.083213136, -821769.8, 18121.938, 0.0, 10.000623, 9.998856 
1.14503965e+3, 2.242968e+2, -726613.4, -852020.56, -13323.471, -0.0026624643, 0.0928847, -725213.5, 16688.705, 0.0, 10.000579, 9.998913 
1.14505276e+3, 2.3429596e+2, -656408.9, -761992.44, -23990.342, -0.0067351363, 0.11204885, -651213.5, -7302.3643, 0.0, 10.000365, 9.998961 
1.1450662e+3, 2.4429527e+2, -581235.1, -654408.94, 7432.9907, -0.01753343, 0.14197119, -580487.75, -34569.297, 0.0, 10.00012, 9.999145 
1.1450802e+3, 2.542948e+2, -519559.47, -566708.9, 9699.204, -0.034526046, 0.17331347, -517642.2, -69718.67, 0.0, 9.99984, 9.999208 
1.1450939e+3, 2.642938e+2, -445229.72, -480462.47, -8043.8223, -0.050444458, 0.15162158, -443480.16, -93546.836, 0.0, 9.999678, 9.999207 
1.1451073e+3, 2.7429205e+2, -345105.25, -375793.94, -14100.299, -0.06848864, 0.052361857, -339610.5, -87661.57, 0.0, 9.99967, 9.999254 
1.1451212e+3, 2.8429133e+2, -281315.97, -327140.56, 11700.094, -0.07832488, 0.07094405, -278501.53, -124545.16, 0.0, 9.999576, 9.998961 
1.1451356e+3, 2.9429188e+2, -215757.25, -242759.88, 16570.234, -0.0710101, 0.22393137, -207884.33, -151930.53, 0.0, 9.999342, 9.998981 
1.1451499e+3, 3.0429035e+2, -147004.06, -84925.22, 4535.083, -0.07542235, 0.13422754, -84595.664, -84595.664, 0.0, 9.99905, 9.999872 
1.1451639e+3, 3.1429014e+2, -151488.77, -12672.62, -21866.85, -0.09139939, 0.11692664, -9309.547, -9309.547, 0.0, 9.998698, 10.000538 
1.15490824e+3, 1.2429365e+2, -1545309.8, -1694685.1, 73907.234, -0.0706088, 0.016021354, -1514923.5, 207006.47, 0.001489488, 10.001447, 9.9994335 
1.1549197e+3, 1.3429363e+2, -1526492.4, -1645786.1, -62503.05, -0.09818999, 0.0761727, -1499742.6, 124188.836, 0.00075867696, 10.00092, 9.999367 
1.1549353e+3, 1.4429328e+2, -1469855.5, -1632591.0, 18505.924, 0.14343143, 0.13379243, -1467777.6, 58158.547, 0.0002361324, 10.000927, 9.998772 
1.1549475e+3, 1.5429202e+2, -1295350.1, -1500844.1, 7125.1655, -0.028285999, 0.13322139, -1295103.4, 132846.23, 0.000024990082, 10.001468, 9.998741 
1.1549603e+3, 1.642906e+2, -1185991.6, -1418199.8, -38537.938, -0.10220745, 0.12746835, -1179762.8, 150201.64, 0.000000023716384, 10.001636, 9.998553 
1.154974e+3, 1.7428899e+2, -1128692.0, -1336422.6, -44098.414, -0.011360931, 0.10655155, -1119718.1, 112262.305, 0.0, 10.001342, 9.998584 
1.1549875e+3, 1.8428768e+2, -1054118.8, -1212823.5, -26667.969, 0.036423348, 0.10512376, -1049757.4, 84235.39, 0.0, 10.00102, 9.998915 
1.1550007e+3, 1.9428681e+2, -999631.2, -1128379.1, -16055.8125, 0.01955103, 0.11793112, -997659.1, 38341.215, 0.0, 10.0006895, 9.998981 
1.1550139e+3, 2.0428589e+2, -926351.6, -1045884.25, -11284.587, 0.008315099, 0.1316265, -925295.6, 12713.377, 0.0, 10.000535, 9.998949 
1.1550272e+3, 2.1428493e+2, -813523.0, -935585.75, -5280.8823, 0.00893601, 0.135464, -813294.94, 26723.936, 0.0, 10.000615, 9.998995 
1.1550404e+3, 2.2428383e+2, -744695.25, -886322.6, -22391.459, 0.0040317765, 0.14262627, -741239.5, 790.67633, 0.0, 10.000566, 9.998684 
1.1550531e+3, 2.3428255e+2, -675518.6, -800268.0, -31570.684, -0.009435214, 0.1426147, -667984.0, -23940.875, 0.0, 10.000359, 9.998702 
1.1550663e+3, 2.4428135e+2, -581011.5, -652697.44, -3307.6165, -0.017919134, 0.13550061, -580859.25, -34804.51, 0.0, 10.0001135, 9.99916 
1.1550802e+3, 2.5428033e+2, -517244.34, -562350.0, 339.53934, -0.017839309, 0.10661942, -517241.78, -69177.445, 0.0, 9.99984, 9.99924 
1.1550939e+3, 2.6427925e+2, -453312.13, -496004.1, -9400.004, -0.024712713, 0.08277714, -451334.06, -101259.26, 0.0, 9.999674, 9.999102 
1.1551073e+3, 2.7427816e+2, -354403.78, -392355.7, -13316.401, -0.041492727, 0.059790175, -350197.56, -98111.92, 0.0, 9.999659, 9.9991455 
1.15512095e+3, 2.8427777e+2, -275121.63, -311519.63, 4199.913, -0.058610093, 0.11121358, -274643.3, -120553.266, 0.0, 9.999561, 9.999077 
1.1551349e+3, 2.9427812e+2, -206237.67, -224428.97, 11564.767, -0.07675216, 0.23312327, -200620.25, -144532.67, 0.0, 9.999346, 9.999106 
1.1551488e+3, 3.0427623e+2, -182436.38, -158658.64, -7875.722, -0.09185714, 0.12165272, -156286.64, -156286.64, 0.0, 9.99905, 9.999367 
1.1551626e+3, 3.1427586e+2, -178577.2, -66605.19, -31620.895, -0.08927006, 0.14414307, -58292.566, -58292.566, 0.0, 9.998687, 10.000173 
1.1649098e+3, 1.2428025e+2, -1641152.1, -1757361.5, 55564.527, -0.032428723, 0.035344094, -1618860.5, 103199.22, 0.0016512593, 10.000861, 9.999285 
1.16492026e+3, 1.3427982e+2, -1471026.9, -1632623.6, -67462.38, -0.15359674, 0.06635244, -1446565.8, 177499.66, 0.0008513687, 10.001358, 9.999247 
1.1649363e+3, 1.4427923e+2, -1379512.3, -1581820.0, 22576.324, 0.12991011, 0.10324075, -1377023.5, 149048.92, 0.00027198074, 10.001516, 9.998836 
1.16494894e+3, 1.5427808e+2, -1347590.5, -1517366.8, 20748.756, -0.012550576, 0.10684735, -1345091.5, 82992.84, 0.00003101119, 10.001072, 9.998818 
1.16496176e+3, 1.6427678e+2, -1290078.8, -1471075.3, -15181.251, -0.08398153, 0.109782636, -1288814.3, 41284.082, 0.00000004774233, 10.000933, 9.99853 
1.1649751e+3, 1.7427528e+2, -1146892.1, -1348507.8, -16777.547, -0.030167598, 0.10393893, -1145505.6, 86608.72, 0.0, 10.001231, 9.998554 
1.1649885e+3, 1.8427403e+2, -1011629.94, -1198296.6, -11940.11, 0.011629745, 0.11010174, -1010869.25, 123257.72, 0.0, 10.001337, 9.998862 
1.1650017e+3, 1.9427307e+2, -930093.56, -1100121.6, -23468.123, 0.02754682, 0.12064507, -926913.8, 109221.42, 0.0, 10.00119, 9.998933 
1.1650149e+3, 2.0427217e+2, -882732.75, -1036210.0, -35499.08, 0.030543271, 0.14357619, -874919.6, 63224.58, 0.0, 10.000886, 9.998846 
1.16502784e+3, 2.1427135e+2, -854879.6, -967970.2, -49067.215, 0.020477856, 0.17117696, -836558.6, 3595.3235, 0.0, 10.000384, 9.998883 
1.1650408e+3, 2.2427021e+2, -789201.25, -883247.75, -53310.72, 0.013499342, 0.16997682, -765138.5, -22973.043, 0.0, 10.0001545, 9.998903 
1.1650536e+3, 2.3426868e+2, -669735.44, -769551.56, -27709.537, 0.009404233, 0.12085916, -662559.06, -18380.06, 0.0, 10.00028, 9.99895 
1.1650668e+3, 2.4426745e+2, -572292.5, -651621.1, 9641.077, 0.007600295, 0.09883584, -571137.6, -24947.543, 0.0, 10.000188, 9.999132 
1.1650802e+3, 2.5426668e+2, -525518.4, -571354.06, 6078.608, 0.007892868, 0.099784724, -524725.94, -76527.945, 0.0, 9.999806, 9.999193 
1.1650938e+3, 2.6426575e+2, -465086.5, -518132.03, 6947.839, -0.003494188, 0.10231049, -464191.6, -113984.05, 0.0, 9.999665, 9.998953 
1.1651072e+3, 2.7426475e+2, -343089.5, -405818.47, -1233.5858, -0.028203698, 0.101866186, -343065.25, -90846.766, 0.0, 9.999817, 9.998979 
1.1651206e+3, 2.842642e+2, -251225.42, -284710.6, -94.499916, -0.049585294, 0.14182577, -251225.16, -97001.21, 0.0, 9.99966, 9.999214 
1.1651343e+3, 2.9426414e+2, -228942.33, -217156.1, 4201.7095, -0.06895134, 0.20493141, -215811.6, -159587.6, 0.0, 9.999115, 9.999267 
1.1651478e+3, 3.04262e+2, -230711.73, -205593.1, 4527.5767, -0.082944736, 0.07662279, -204801.94, -204801.94, 0.0, 9.998823, 9.999153 
1.1651615e+3, 3.1426206e+2, -166173.38, -65967.5, 4279.1084, -0.068733715, 0.15855847, -65785.1, -65785.1, 0.0, 9.9987955, 10.000126 
1.17491186e+3, 1.2426752e+2, -1652694.6, -1781227.9, 48060.76, 0.08937777, 0.12184741, -1636711.5, 85474.32, 0.0018234614, 10.00086, 9.999122 
1.1749205e+3, 1.3426626e+2, -1481158.4, -1654371.1, -45167.6, -0.25861606, 0.08481314, -1470087.9, 154110.86, 0.0009506097, 10.001359, 9.999098 
1.1749369e+3, 1.4426519e+2, -1363426.5, -1548683.4, 8068.453, 0.03846487, 0.07148738, -1363075.8, 163133.16, 0.00031097958, 10.001517, 9.999063 
1.1749507e+3, 1.5426415e+2, -1329756.8, -1480698.3, 3917.5444, 0.0529244, 0.05938672, -1329655.1, 98563.04, 0.00003785508, 10.001073, 9.999069 
1.1749637e+3, 1.6426316e+2, -1286359.6, -1463815.4, -7177.448, 0.02013832, 0.07820435, -1286069.8, 44158.855, 0.00000010132158, 10.000934, 9.99858 
1.1749763e+3, 1.7426223e+2, -1144065.9, -1342991.9, -5189.2505, -0.03733916, 0.12463713, -1143930.6, 88310.19, 0.0, 10.001231, 9.998593 
1.1749893e+3, 1.8426095e+2, -1032940.56, -1242101.5, -17888.787, -0.051483035, 0.14209376, -1031421.6, 102833.195, 0.0, 10.001334, 9.998563 
1.17500246e+3, 1.9425926e+2, -953369.5, -1147756.0, -29326.309, -0.018455993, 0.110908814, -949041.5, 87229.586, 0.0, 10.001186, 9.998609 
1.1750155e+3, 2.0425795e+2, -907621.0, -1086654.8, -54938.2, 0.00047355503, 0.12594858, -892107.06, 46178.145, 0.0, 10.000879, 9.998503 
1.1750281e+3, 2.1425714e+2, -879497.4, -1018938.3, -67718.16, 0.0059656636, 0.18958949, -852023.75, -11727.38, 0.0, 10.000383, 9.998534 
1.17504105e+3, 2.2425596e+2, -744986.9, -790901.44, -51456.734, 0.01934145, 0.17540383, -711598.5, 30709.035, 0.0, 10.000151, 9.999538 
1.17505416e+3, 2.3425436e+2, -619549.0, -664970.9, -22845.365, 0.044470754, 0.04652907, -610046.6, 34271.785, 0.0, 10.000277, 9.99967 
1.17506735e+3, 2.4425359e+2, -577691.8, -660881.56, -4698.3545, 0.0536257, 0.03098315, -577427.3, -31102.848, 0.0, 10.000179, 9.999072 
1.1750803e+3, 2.5425386e+2, -534000.25, -588721.44, -7579.9873, 0.039919302, 0.15046553, -532969.7, -84645.336, 0.0, 9.999805, 9.999075 
1.1750935e+3, 2.6425335e+2, -477964.4, -545002.3, 11782.722, 0.010547173, 0.20761624, -475953.75, -125622.43, 0.0, 9.999664, 9.99877 
1.17510684e+3, 2.7425182e+2, -356952.47, -434332.03, 7167.6206, -0.03842728, 0.17739528, -356294.16, -103947.234, 0.0, 9.999813, 9.998786 
1.17512025e+3, 2.842507e+2, -246298.92, -272099.13, -18619.523, -0.061566275, 0.16187732, -236547.33, -82189.64, 0.0, 9.999649, 9.999306 
1.1751335e+3, 2.942499e+2, -221155.34, -199225.83, -15032.926, -0.050598852, 0.13908398, -191583.75, -135220.42, 0.0, 9.999106, 9.999393 
1.175147e+3, 3.042478e+2, -220958.94, -184566.9, 3507.2847, -0.05181019, -0.0009653101, -184231.97, -184231.97, 0.0, 9.998818, 9.999301 
1.17516056e+3, 3.142488e+2, -140341.36, -13390.984, 9378.724, -0.048800107, 0.16600914, -12701.853, -12701.853, 0.0, 9.998798, 10.000486 
1.1849126e+3, 1.2425336e+2, -1715540.4, -1797244.9, -7881.183, 0.106374525, 0.14352477, -1714787.1, 7537.8833, 0.0020081834, 10.000368, 9.999248 
1.18492186e+3, 1.3425194e+2, -1473088.0, -1634240.8, -49875.855, -0.2627637, 0.07789251, -1458900.6, 165437.75, 0.0010574218, 10.001348, 9.999241 
1.18493885e+3, 1.4425081e+2, -1325506.6, -1521653.0, -32177.457, 0.07065903, 0.0466161, -1320362.8, 205985.9, 0.00035351914, 10.001741, 9.99914 
1.1849518e+3, 1.5424998e+2, -1302637.8, -1459110.0, -56351.33, 0.044791277, 0.048466925, -1284456.3, 143899.67, 0.00004562391, 10.001224, 9.999144 
1.1849645e+3, 1.642492e+2, -1273738.3, -1435294.0, -45584.773, 0.004442323, 0.07403076, -1261763.6, 68600.82, 0.00000019883093, 10.000923, 9.99878 
1.1849775e+3, 1.7424846e+2, -1173245.3, -1332832.0, -30135.059, -0.020918123, 0.11848487, -1167744.4, 64630.2, 0.0, 10.000928, 9.998808 
1.1849906e+3, 1.8424733e+2, -1091262.5, -1269604.8, -31343.336, -0.028858606, 0.13894357, -1085914.4, 48473.18, 0.0, 10.000934, 9.998567 
1.18500344e+3, 1.9424573e+2, -987745.9, -1166005.6, -21749.043, -0.025001453, 0.116724275, -985130.7, 51273.285, 0.0, 10.0009575, 9.998593 
1.1850161e+3, 2.0424436e+2, -900459.75, -1080782.1, -29646.613, -0.017594738, 0.1257127, -895710.7, 42708.25, 0.0, 10.0009165, 9.998527 
1.18502855e+3, 2.1424332e+2, -818625.75, -985316.3, -16464.928, -0.0019412911, 0.16439897, -817015.0, 23416.846, 0.0, 10.000785, 9.998571 
1.1850414e+3, 2.2424227e+2, -678278.94, -750226.25, 4621.445, 0.019498372, 0.15645564, -677983.3, 64458.63, 0.0, 10.000573, 9.999615 
1.18505456e+3, 2.3424123e+2, -616477.9, -654549.5, -14710.952, 0.047806405, 0.07551951, -611455.94, 32992.11, 0.0, 10.000259, 9.999749 
1.1850676e+3, 2.4424061e+2, -589883.5, -681987.06, -23637.633, 0.057497233, 0.08018058, -584171.4, -37718.508, 0.0, 10.000161, 9.998936 
1.1850804e+3, 2.5424057e+2, -466927.97, -574174.7, -31963.197, 0.042497005, 0.1835838, -458124.5, -9668.319, 0.0, 10.000342, 9.998916 
1.1850935e+3, 2.6423985e+2, -391549.06, -481531.5, -6776.3447, 0.017037204, 0.21865763, -391041.63, -40576.863, 0.0, 10.000163, 9.998966 
1.1851067e+3, 2.7423826e+2, -384079.88, -421435.97, 16356.049, -0.023022916, 0.15700568, -377930.72, -125451.08, 0.0, 9.999517, 9.999015 
1.18511975e+3, 2.8423718e+2, -312002.56, -306830.22, 6613.998, -0.041702077, 0.13928676, -302314.75, -147825.77, 0.0, 9.999213, 9.999275 
1.1851329e+3, 2.9423672e+2, -192442.31, -191834.42, -2261.021, -0.029218795, 0.15542603, -189857.0, -133364.84, 0.0, 9.999331, 9.999336 
1.1851461e+3, 3.0423465e+2, -154556.55, -143191.58, 8495.464, -0.029342651, 0.014648087, -138653.33, -138653.33, 0.0, 9.999235, 9.999384 
1.1851597e+3, 3.14235e+2, -106534.47, 38824.676, 3364.9226, -0.020407563, 0.10774487, 38902.527, 38902.527, 0.0, 9.9988785, 10.000805 
1.1949119e+3, 1.2423784e+2, -1688016.0, -1738729.0, -10664.585, -0.0033909208, 0.09936146, -1685864.6, 36612.473, 0.0022081332, 10.000361, 9.999653 
1.19492404e+3, 1.3423693e+2, -1442899.6, -1572292.0, -10003.586, -0.16893898, 0.043335993, -1442130.8, 182353.31, 0.0011730703, 10.0013485, 9.999667 
1.19494215e+3, 1.4423616e+2, -1329468.8, -1532054.3, -48025.426, 0.22429349, 0.027240986, -1318660.4, 207830.88, 0.00040013902, 10.001749, 9.999065 
1.1949521e+3, 1.5423569e+2, -1310050.0, -1475086.0, -76111.95, -0.040972285, 0.075312786, -1280308.3, 148188.67, 0.00005450229, 10.001225, 9.999034 
1.194964e+3, 1.6423498e+2, -1249376.1, -1384820.6, -48242.023, -0.13867092, 0.10014595, -1233950.3, 96554.6, 0.00000035173326, 10.000923, 9.999127 
1.1949787e+3, 1.7423403e+2, -1146207.8, -1276834.4, -29967.09, 0.014626374, 0.085664414, -1139661.1, 92854.164, 0.0, 10.000928, 9.999193 
1.1949926e+3, 1.842332e+2, -1070331.5, -1226242.0, -32073.074, 0.074454114, 0.09870004, -1063991.4, 70533.445, 0.0, 10.000933, 9.998865 
1.1950047e+3, 1.9423246e+2, -967817.5, -1124259.4, -21226.404, 0.0036615124, 0.13667351, -964988.6, 71544.83, 0.0, 10.000955, 9.998882 
1.19501695e+3, 2.0423141e+2, -874144.6, -1024869.06, -35887.22, -0.028886221, 0.14369446, -866036.2, 72508.71, 0.0, 10.00091, 9.998914 
1.1950293e+3, 2.1422993e+2, -791280.06, -927781.7, -21930.008, -0.006246481, 0.09562268, -787843.4, 52716.63, 0.0, 10.00078, 9.998969 
1.1950418e+3, 2.2422911e+2, -711715.25, -818429.75, -8455.217, 0.010456112, 0.11244179, -711049.5, 31518.92, 0.0, 10.000567, 9.999149 
1.1950544e+3, 2.3422927e+2, -653805.4, -732660.25, -26248.994, 0.017806802, 0.204775, -645866.9, -1299.2584, 0.0, 10.00026, 9.999213 
1.1950674e+3, 2.4422862e+2, -606464.94, -715916.75, -18731.191, 0.01705934, 0.2442894, -603348.1, -56773.27, 0.0, 10.000158, 9.998704 
1.1950804e+3, 2.542269e+2, -482890.25, -605048.8, -23775.633, 0.008445206, 0.19896533, -478425.94, -29833.049, 0.0, 10.000331, 9.99871 
1.19509354e+3, 2.642253e+2, -355800.13, -405057.7, -28777.445, 0.008623377, 0.13690612, -342551.22, 8056.143, 0.0, 10.000153, 9.999496 
1.1951066e+3, 2.7422404e+2, -341627.6, -333787.16, -7018.968, 0.016592855, 0.045042638, -329667.84, -77051.445, 0.0, 9.999518, 9.999617 
1.1951195e+3, 2.8422374e+2, -317752.66, -320284.22, 9348.42, 0.007980628, 0.076099455, -309584.72, -154966.9, 0.0, 9.999218, 9.999182 
1.19513236e+3, 2.9422465e+2, -205452.6, -217095.61, 5189.5205, -0.019779144, 0.24779958, -203475.31, -146864.88, 0.0, 9.999322, 9.999167 
1.1951454e+3, 3.0422252e+2, -163284.2, -158103.3, -3806.1829, -0.02991121, 0.11766056, -156089.69, -156089.69, 0.0, 9.999221, 9.999289 
1.19515896e+3, 3.142207e+2, -97206.6, 60370.96, -7482.511, 0.012932795, -0.0034301395, 60725.47, 60725.47, 0.0, 9.99887, 10.000957 
1.2049128e+3, 1.2422295e+2, -1493337.9, -1641952.1, 15567.49, -0.012974275, 0.047355082, -1491724.8, 230897.08, 0.0024257244, 10.001692, 9.999675 
1.2049254e+3, 1.3422251e+2, -1506594.8, -1603257.9, 20077.082, -0.15253949, 0.037743706, -1502590.5, 122034.4, 0.0012988481, 10.000912, 9.999664 
1.2049437e+3, 1.4422184e+2, -1478504.1, -1592719.1, -34490.066, 0.2624269, 0.02990393, -1468897.1, 57733.93, 0.00045139206, 10.000679, 9.999164 
1.2049533e+3, 1.5422134e+2, -1323331.9, -1468950.0, -50091.695, -0.036885004, 0.063192904, -1307764.9, 120872.05, 0.00006471426, 10.001081, 9.999145 
1.204965e+3, 1.6422066e+2, -1203846.6, -1356192.3, -23307.564, -0.14833729, 0.0813397, -1200360.6, 130283.98, 0.00000057087306, 10.001209, 9.999185 
1.2049797e+3, 1.7421983e+2, -1131444.1, -1264373.6, -31912.494, 0.009560111, 0.07243539, -1124179.8, 108474.16, 0.0, 10.001006, 9.99924 
1.2049933e+3, 1.8421918e+2, -1076477.5, -1199518.5, -48797.418, 0.073494315, 0.09104798, -1059474.4, 75187.23, 0.0, 10.000762, 9.99913 
1.2050055e+3, 1.942188e+2, -1019977.1, -1116594.6, -39367.496, 0.0070531736, 0.13464116, -1005967.9, 30698.926, 0.0, 10.000458, 9.999172 
1.2050177e+3, 2.0421803e+2, -925402.1, -1017368.8, -47557.863, -0.022840058, 0.14126958, -905232.5, 33442.49, 0.0, 10.000422, 9.999199 
1.20503016e+3, 2.1421674e+2, -775177.5, -888573.06, -43031.31, -0.0021211144, 0.08499027, -760697.1, 79990.16, 0.0, 10.000754, 9.99925 
1.2050426e+3, 2.24216e+2, -695241.75, -847369.94, -41797.016, 0.011361652, 0.1099452, -684514.5, 58180.926, 0.0, 10.000838, 9.99882 
1.2050548e+3, 2.342161e+2, -633106.44, -764743.6, -51366.215, 0.014099218, 0.23337363, -615435.06, 29262.752, 0.0, 10.000586, 9.9988365 
1.2050674e+3, 2.4421528e+2, -572669.8, -671378.94, -14523.621, 0.0070927655, 0.26577264, -570577.25, -23870.225, 0.0, 10.00027, 9.998956 
1.2050803e+3, 2.5421327e+2, -527917.3, -591670.44, 16855.09, -0.012075889, 0.16076742, -523735.47, -75010.02, 0.0, 9.999873, 9.999021 
1.2050934e+3, 2.6421174e+2, -412799.5, -425318.47, 14345.581, -0.00754802, 0.08218262, -403407.25, -52668.824, 0.0, 9.999733, 9.9995575 
1.20510645e+3, 2.7421087e+2, -277955.84, -298990.28, -5795.528, 0.028149314, 0.031861138, -276464.75, -23721.133, 0.0, 9.999939, 9.999654 
1.2051193e+3, 2.8421074e+2, -239488.69, -292670.66, -12807.819, 0.03247875, 0.082465895, -236564.9, -81821.086, 0.0, 9.9998, 9.999091 
1.2051317e+3, 2.9421148e+2, -230153.8, -240778.61, -17416.914, -0.004588844, 0.24375992, -217257.13, -160518.22, 0.0, 9.999205, 9.999061 
1.2051447e+3, 3.042093e+2, -220084.38, -211268.98, -20395.727, -0.009999362, 0.12496376, -194810.11, -194810.11, 0.0, 9.998941, 9.999057 
1.20515846e+3, 3.1420714e+2, -68394.96, 68929.71, -33757.727, 0.06727223, -0.0097843595, 76779.47, 76779.47, 0.0, 9.999086, 10.000913 
1.2149153e+3, 1.24208815e+2, -1518787.5, -1698300.4, -54030.316, 0.06582495, -0.009423455, -1503780.0, 218977.89, 0.0026624324, 10.001705, 9.999282 
1.21492565e+3, 1.3420874e+2, -1538035.4, -1668790.5, -7385.544, -0.21982674, 0.06214844, -1537619.5, 87140.414, 0.0014356553, 10.000911, 9.999216 
1.21494345e+3, 1.44208e+2, -1460101.3, -1553968.0, -22826.234, 0.17427464, 0.05615059, -1454844.8, 71922.49, 0.0005075534, 10.000675, 9.999432 
1.2149553e+3, 1.5420702e+2, -1300413.1, -1420941.9, -34079.516, 0.05354965, 0.010585029, -1291444.5, 137330.56, 0.000076397075, 10.001079, 9.9994755 
1.2149673e+3, 1.6420627e+2, -1221199.3, -1392835.8, -31175.2, -0.027905148, 0.015032678, -1215712.1, 115070.75, 0.0000008702971, 10.00121, 9.998934 
1.21498026e+3, 1.7420585e+2, -1152638.4, -1308828.8, -39859.66, -0.039826963, 0.07900955, -1143054.3, 89735.87, 0.0, 10.001007, 9.998935 
1.2149931e+3, 1.8420537e+2, -1059805.5, -1164436.5, -61367.523, -0.037908863, 0.119005285, -1031480.56, 103316.43, 0.0, 10.000759, 9.9993725 
1.2150056e+3, 1.9420478e+2, -999657.7, -1074603.3, -51066.88, -0.01849063, 0.11110299, -973789.9, 63013.402, 0.0, 10.000458, 9.999461 
1.2150183e+3, 2.0420422e+2, -912563.44, -991120.4, -38500.758, -0.0040537645, 0.11690131, -896840.94, 41967.918, 0.0, 10.000422, 9.99938 
1.215031e+3, 2.1420379e+2, -763981.6, -864130.1, -30517.371, 0.0055918214, 0.13095321, -755415.1, 85398.0, 0.0, 10.000748, 9.999422 
1.21504344e+3, 2.2420302e+2, -711745.0, -879113.2, -51267.215, 0.017175203, 0.14984213, -697289.6, 45532.773, 0.0, 10.000827, 9.998609 
1.21505566e+3, 2.3420176e+2, -651166.6, -800645.1, -60596.92, 0.03184493, 0.162865, -629687.7, 15150.401, 0.0, 10.000577, 9.998594 
1.2150679e+3, 2.4420065e+2, -522924.1, -567003.2, -29828.984, 0.022516452, 0.14618331, -507875.78, 38973.203, 0.0, 10.000264, 9.999676 
1.2150801e+3, 2.5419974e+2, -470994.1, -474201.53, 2674.337, -0.021507641, 0.07150029, -469479.47, -20625.953, 0.0, 9.999874, 9.999828 
1.2150928e+3, 2.641991e+2, -439808.88, -481580.72, 19973.889, -0.033107605, 0.05482093, -431795.38, -80937.49, 0.0, 9.999732, 9.999172 
1.2151061e+3, 2.7419886e+2, -314139.4, -370984.6, 3720.7864, 0.0016511278, 0.11193926, -313896.9, -61035.633, 0.0, 9.999925, 9.9991665 
1.215119e+3, 2.841983e+2, -251170.39, -314772.03, -32733.715, 0.021009818, 0.15428837, -237333.63, -82466.695, 0.0, 9.999788, 9.998945 
1.2151312e+3, 2.9419726e+2, -237047.1, -256171.75, -38336.938, 0.015434038, 0.15065087, -207097.92, -150220.94, 0.0, 9.999209, 9.998953 
1.215144e+3, 3.0419502e+2, -238625.39, -252452.45, -16155.523, 0.030037804, 0.04381446, -227966.27, -227966.27, 0.0, 9.998953, 9.998769 
1.2151581e+3, 3.141943e+2, -79467.75, 49306.77, -22108.748, 0.121925265, 0.086135596, 52996.79, 52996.79, 0.0, 9.999073, 10.000784 
1.2249171e+3, 1.2419559e+2, -1639289.8, -1771836.9, -72886.24, 0.10955624, 0.010532101, -1607051.4, 115836.31, 0.0029179724, 10.000944, 9.999144 
1.224927e+3, 1.341953e+2, -1405381.9, -1627779.6, 27802.975, -0.2284123, 0.08267136, -1401958.8, 222933.34, 0.0015834377, 10.0019245, 9.999007 
1.2249446e+3, 1.4419429e+2, -1247779.1, -1458270.1, 1516.4506, 0.1389975, 0.06491039, -1247768.1, 279133.66, 0.00056846405, 10.002165, 9.99937 
1.2249568e+3, 1.5419316e+2, -1261655.0, -1407767.6, -42178.164, 0.080056496, 0.007936443, -1250353.5, 178557.05, 0.00008951281, 10.00137, 9.999424 
1.2249689e+3, 1.6419232e+2, -1259015.5, -1406603.0, -38993.29, 0.013527807, 0.0051947013, -1249346.8, 81571.99, 0.0000012652538, 10.000932, 9.998972 
1.2249811e+3, 1.7419197e+2, -1153808.6, -1303356.3, -22511.467, -0.050951943, 0.06981757, -1150493.5, 82431.58, 0.0, 10.000975, 9.998987 
1.22499354e+3, 1.8419145e+2, -1039735.7, -1153995.5, -42750.01, -0.067313656, 0.103592165, -1025511.6, 109420.375, 0.0, 10.0008955, 9.999378 
1.2250061e+3, 1.941907e+2, -967617.2, -1059144.1, -56124.023, -0.022906652, 0.07869916, -940963.8, 95976.21, 0.0, 10.000677, 9.999462 
1.2250188e+3, 2.0419021e+2, -913474.44, -983603.9, -50265.49, 0.0021291147, 0.08854507, -887251.7, 51693.43, 0.0, 10.000381, 9.999451 
1.22503124e+3, 2.1419021e+2, -869822.5, -905674.3, -50006.906, 0.0029844774, 0.13692248, -834625.6, 6320.1177, 0.0, 9.999983, 9.999505 
1.2250437e+3, 2.2418955e+2, -829360.8, -903628.56, -53600.566, 0.011883762, 0.1505457, -801287.75, -58334.22, 0.0, 9.999883, 9.998894 
1.22505605e+3, 2.34188e+2, -687543.6, -784338.5, -24659.617, 0.031347413, 0.10454327, -681623.4, -36652.67, 0.0, 10.000182, 9.998896 
1.2250681e+3, 2.4418698e+2, -525557.06, -561126.2, -6678.7915, 0.027490279, 0.077286206, -524344.4, 22635.928, 0.0, 10.000215, 9.99974 
1.22508004e+3, 2.541867e+2, -464069.2, -465841.75, -33231.25, -0.010054601, 0.059858635, -431712.38, 17267.2, 0.0, 9.999901, 9.999872 
1.2250926e+3, 2.6418635e+2, -447743.2, -502205.4, -21376.754, -0.026199227, 0.079881765, -440354.94, -89373.336, 0.0, 9.99975, 9.999022 
1.2251058e+3, 2.7418602e+2, -344442.56, -404269.56, -16062.974, -0.011203907, 0.14303805, -340402.63, -87415.695, 0.0, 9.999798, 9.998998 
1.22511856e+3, 2.8418508e+2, -249909.08, -308410.34, -47618.88, 0.004328411, 0.15364468, -223274.5, -68278.25, 0.0, 9.999775, 9.998994 
1.2251306e+3, 2.941833e+2, -167133.89, -215475.73, -42679.36, 0.017245544, 0.07134911, -142256.25, -85244.34, 0.0, 9.999659, 9.999015 
1.2251433e+3, 3.0418134e+2, -162781.66, -245186.92, 2665.2024, 0.03736397, 0.0010798204, -162695.55, -162695.55, 0.0, 9.9996, 9.998506 
1.22515745e+3, 3.141813e+2, -11699.107, 63507.863, -6013.02, 0.12573367, 0.14104602, 63985.59, 63985.59, 0.0, 9.999618, 10.000619 
1.23491794e+3, 1.2418342e+2, -1632899.3, -1756497.9, -75149.29, 0.09780606, 0.113706596, -1597402.3, 125607.61, 0.0031899144, 10.000935, 9.999253 
1.23492934e+3, 1.3418227e+2, -1403475.4, -1624030.0, 67605.49, -0.17999244, 0.09965735, -1384402.0, 240618.38, 0.0017411282, 10.0019245, 9.999034 
1.2349469e+3, 1.4418085e+2, -1275360.6, -1517481.0, -25097.584, 0.15170911, 0.055570513, -1272786.4, 254247.3, 0.0006337289, 10.0021715, 9.9989605 
1.23495765e+3, 1.5417984e+2, -1292067.9, -1473474.9, -72397.875, 0.0369233, 0.056236308, -1266717.1, 162325.48, 0.00010392506, 10.001379, 9.998971 
1.2349693e+3, 1.6417892e+2, -1235266.1, -1357567.5, -41018.766, -0.03198638, 0.053863794, -1222783.0, 108268.15, 0.0000017603737, 10.000932, 9.999309 
1.2349823e+3, 1.7417823e+2, -1125442.8, -1244704.9, -20734.701, -0.027312938, 0.044505462, -1121940.6, 111117.414, 0.0, 10.000975, 9.999391 
1.2349949e+3, 1.8417746e+2, -1056553.5, -1188721.1, -52217.313, -0.019486634, 0.04239189, -1038413.1, 96653.28, 0.0, 10.000894, 9.999141 
1.235007e+3, 1.9417658e+2, -988828.06, -1102269.5, -64818.53, -0.009650299, 0.037686706, -959417.0, 77659.445, 0.0, 10.000672, 9.999168 
1.23501904e+3, 2.0417605e+2, -916898.8, -990030.6, -66274.37, -0.00758063, 0.058813855, -877772.2, 61310.89, 0.0, 10.000378, 9.999409 
1.2350311e+3, 2.1417601e+2, -871100.1, -908406.8, -65085.523, -0.013104783, 0.10284688, -822047.7, 19037.057, 0.0, 9.999982, 9.999487 
1.2350435e+3, 2.2417565e+2, -775020.56, -791170.2, -45560.89, -0.008739326, 0.11158292, -736824.44, 6264.1406, 0.0, 9.999882, 9.999667 
1.2350559e+3, 2.3417485e+2, -629004.3, -662555.0, -12904.186, 0.0092178695, 0.058383428, -624615.25, 20480.117, 0.0, 10.000179, 9.999734 
1.2350682e+3, 2.441743e+2, -567179.1, -647015.25, -17990.285, 0.018330963, 0.059350982, -563312.44, -16211.806, 0.0, 10.000212, 9.999152 
1.2350802e+3, 2.541741e+2, -514632.6, -569619.56, -44090.47, 0.015223641, 0.12227917, -490165.9, -41062.445, 0.0, 9.999894, 9.999163 
1.23509265e+3, 2.6417354e+2, -445242.16, -494844.4, -20349.713, 0.0059980345, 0.15424806, -437962.03, -86852.59, 0.0, 9.99974, 9.999078 
1.2351056e+3, 2.7417243e+2, -336230.66, -386770.25, -12374.827, -0.013082075, 0.12941976, -333363.28, -80243.32, 0.0, 9.999795, 9.99912 
1.23511806e+3, 2.841711e+2, -233828.1, -273672.0, -51469.563, -0.020057013, 0.08518255, -198559.47, -43428.125, 0.0, 9.999768, 9.999236 
1.23513e+3, 2.941696e+2, -152108.84, -180187.58, -44900.953, -0.009135377, 0.002381965, -119103.555, -61959.668, 0.0, 9.99964, 9.999267 
1.2351426e+3, 3.0416825e+2, -185707.7, -289100.8, 3341.094, 0.0018738398, -0.0066360016, -185599.86, -185599.86, 0.0, 9.999583, 9.998213 
1.2351565e+3, 3.1416827e+2, -32877.625, 23224.396, 469.32153, 0.07396316, 0.1721941, 23228.322, 23228.322, 0.0, 9.9996, 10.00035 
1.2449193e+3, 1.2417045e+2, -1449820.0, -1665680.5, -99472.87, 0.08889986, 0.14894462, -1410972.3, 312166.38, 0.003475539, 10.002188, 9.999272 
1.2449315e+3, 1.341689e+2, -1444772.5, -1651656.3, 65335.617, -0.14074548, 0.09855607, -1425866.6, 199285.8, 0.0019075654, 10.001676, 9.998962 
1.2449487e+3, 1.4416732e+2, -1390867.5, -1577000.1, -38936.676, 0.15540493, 0.044544082, -1383050.8, 144116.08, 0.0007030745, 10.001394, 9.998925 
1.244959e+3, 1.541665e+2, -1287306.1, -1473189.5, -58354.023, 0.03255644, 0.06766915, -1270505.6, 158668.23, 0.00011956255, 10.001423, 9.99895 
1.2449705e+3, 1.6416563e+2, -1192708.6, -1324292.5, -12260.7705, -0.021688925, 0.067021415, -1191575.9, 139605.45, 0.0000023468863, 10.001171, 9.999421 
1.2449835e+3, 1.741648e+2, -1178284.3, -1256123.8, -14069.333, 0.019761361, 0.029548915, -1175819.4, 57369.406, 0.0, 10.000552, 9.999515 
1.244996e+3, 1.84164e+2, -1143178.8, -1231353.5, -37107.61, 0.030528603, 0.018412102, -1129640.9, 5555.943, 0.0, 10.000303, 9.999132 
1.2450077e+3, 1.9416328e+2, -1008559.75, -1113538.5, -29465.639, -0.0011193869, 0.031177785, -1000854.75, 36350.79, 0.0, 10.0005455, 9.999151 
1.2450194e+3, 2.0416272e+2, -882280.1, -977144.1, -27478.324, -0.016027385, 0.051178116, -874895.6, 64316.938, 0.0, 10.000632, 9.999373 
1.24503136e+3, 2.1416235e+2, -795644.1, -876077.5, -30663.83, -0.008057092, 0.06738224, -785287.56, 55929.38, 0.0, 10.000517, 9.99945 
1.2450436e+3, 2.2416201e+2, -699067.5, -746042.8, -24073.627, -0.009059927, 0.077738754, -688921.7, 54298.742, 0.0, 10.000367, 9.999743 
1.2450558e+3, 2.3416175e+2, -620990.8, -648160.4, -47734.34, -0.022832895, 0.06676708, -584945.8, 60276.65, 0.0, 10.000191, 9.999826 
1.245068e+3, 2.4416138e+2, -597325.44, -679886.75, -75303.336, -0.01601996, 0.08870288, -552730.1, -5503.594, 0.0, 10.000085, 9.998986 
1.2450803e+3, 2.541609e+2, -504086.75, -585703.75, -66342.28, 0.019344702, 0.14420478, -467006.66, -17773.652, 0.0, 10.000059, 9.998972 
1.2450927e+3, 2.6416007e+2, -424069.2, -468776.25, -20086.408, 0.0225504, 0.15293907, -416370.38, -65128.758, 0.0, 9.999817, 9.999219 
1.2451051e+3, 2.7415866e+2, -396353.16, -396356.13, -9795.985, -0.020202989, 0.08135382, -386558.66, -133305.2, 0.0, 9.999298, 9.999292 
1.24511756e+3, 2.8415745e+2, -327325.06, -329649.28, -44926.848, -0.024253972, 0.038189165, -283545.28, -128281.25, 0.0, 9.999173, 9.999138 
1.24513e+3, 2.941565e+2, -175045.78, -204987.8, -68325.03, 0.026449678, 0.026688369, -120070.805, -62798.2, 0.0, 9.999543, 9.999142 
1.2451424e+3, 3.0415553e+2, -177837.03, -255097.19, -27476.959, 0.024609383, 0.050929673, -169061.77, -169061.77, 0.0, 9.999508, 9.998482 
1.24515526e+3, 3.141545e+2, -105607.375, 24012.762, 15178.043, 0.019633913, 0.0928103, 25766.332, 25766.332, 0.0, 9.998947, 10.0006695 
1.2549214e+3, 1.2415681e+2, -1453442.3, -1677968.3, -147910.2, 0.067257985, 0.11576093, -1380016.3, 343256.78, 0.0037739007, 10.002204, 9.999183 
1.2549335e+3, 1.3415518e+2, -1456626.3, -1678080.6, 46431.016, -0.11615895, 0.07760647, -1447285.4, 178002.27, 0.0020822603, 10.00168, 9.99878 
1.25495e+3, 1.4415371e+2, -1366412.5, -1525571.9, -40958.164, 0.14314006, 0.029501839, -1356490.9, 170809.63, 0.0007764397, 10.001391, 9.99928 
1.2549607e+3, 1.541532e+2, -1258371.8, -1413146.4, -56688.973, 0.063791715, 0.040909905, -1239829.8, 189473.94, 0.00013646827, 10.001422, 9.999363 
1.2549722e+3, 1.6415253e+2, -1201414.5, -1341810.5, -35654.11, 0.03987295, 0.04233419, -1192878.9, 138430.06, 0.0000030208696, 10.001167, 9.999304 
1.2549847e+3, 1.7415173e+2, -1189463.5, -1280047.6, -37592.766, 0.08619998, 0.026201695, -1175894.8, 57421.574, 0.0, 10.000554, 9.99935 
1.2549967e+3, 1.8415114e+2, -1127727.3, -1199185.9, -31887.6, 0.077853434, 0.03326025, -1115567.1, 19755.41, 0.0, 10.000301, 9.999354 
1.2550081e+3, 1.941508e+2, -991067.4, -1076685.0, -20481.824, -0.00080733316, 0.058396593, -986419.9, 50907.023, 0.0, 10.000542, 9.999407 
1.2550199e+3, 2.0415021e+2, -885208.56, -982498.7, -32587.975, -0.028267097, 0.06393928, -875301.8, 64031.465, 0.0, 10.000628, 9.999339 
1.2550321e+3, 2.141493e+2, -800978.94, -885872.5, -35224.215, 0.014399572, 0.031473696, -788267.06, 53074.97, 0.0, 10.000511, 9.999386 
1.255044e+3, 2.2414872e+2, -742000.9, -834667.2, -32297.184, 0.0069883736, 0.050344832, -731855.1, 11493.454, 0.0, 10.000363, 9.999137 
1.2550555e+3, 2.3414868e+2, -667515.4, -743586.25, -54036.5, -0.06793826, 0.12757353, -639470.3, 5881.3633, 0.0, 10.000184, 9.999175 
1.2550674e+3, 2.4414822e+2, -581535.8, -645015.25, -76922.55, -0.079311445, 0.16336952, -530062.0, 17295.656, 0.0, 10.000075, 9.999231 
1.2550801e+3, 2.5414717e+2, -482179.38, -539724.06, -65846.12, -0.0016310371, 0.12764785, -439093.8, 10273.984, 0.0, 10.000055, 9.99929 
1.2550925e+3, 2.64146e+2, -409113.28, -437513.6, -38191.29, 0.019476807, 0.07894119, -382567.66, -31189.936, 0.0, 9.999815, 9.999435 
1.2551041e+3, 2.741447e+2, -382313.8, -365586.97, -27715.762, -0.0388115, -0.0010253433, -345000.25, -91612.95, 0.0, 9.9992895, 9.999509 
1.2551168e+3, 2.8414395e+2, -360030.13, -394840.28, -32673.729, -0.016286422, 0.00954501, -340414.8, -185020.19, 0.0, 9.999161, 9.998696 
1.2551303e+3, 2.9414394e+2, -211338.98, -278830.13, -51299.07, 0.1151384, 0.14138827, -183681.31, -126283.16, 0.0, 9.9995365, 9.998638 
1.2551425e+3, 3.0414316e+2, -121531.43, -137062.13, -45667.84, 0.09735962, 0.1733386, -82973.43, -82973.43, 0.0, 9.999502, 9.999296 
1.2551536e+3, 3.1414005e+2, -47074.49, 150246.45, -491.48184, -0.04935112, -0.08560238, 150247.67, 150247.67, 0.0, 9.998927, 10.001547 
1.2649235e+3, 1.24144e+2, -1462463.3, -1670688.3, -106488.67, 0.058939025, 0.07821565, -1417648.8, 305749.3, 0.004085261, 10.002092, 9.999287 
1.2649356e+3, 1.3414268e+2, -1409383.0, -1654922.3, 119104.54, -0.0860569, 0.07099421, -1361102.1, 264307.53, 0.0022650692, 10.0020075, 9.99878 
1.2649514e+3, 1.441414e+2, -1305890.0, -1503216.0, 33655.254, 0.1251016, 0.043016415, -1300307.9, 227113.02, 0.00085386867, 10.00184, 9.999216 
1.2649626e+3, 1.5414064e+2, -1238093.8, -1412259.6, -19653.82, 0.091148734, 0.037749067, -1235903.4, 193523.06, 0.00015477135, 10.001601, 9.999281 
1.2649739e+3, 1.6413976e+2, -1194476.0, -1364964.9, -34064.066, 0.076339774, 0.033103094, -1187921.9, 143512.13, 0.0000038088367, 10.00133, 9.999064 
1.2649855e+3, 1.741388e+2, -1141467.4, -1284986.3, -45706.266, 0.07933882, 0.026027452, -1128147.6, 105295.65, 0.0, 10.001006, 9.999097 
1.2649971e+3, 1.8413815e+2, -1062242.5, -1160456.4, -31207.508, 0.062577195, 0.038466904, -1053165.3, 82284.65, 0.0, 10.000722, 9.999417 
1.2650089e+3, 1.941379e+2, -989393.25, -1065158.8, -32448.916, 0.020814173, 0.061674893, -977395.8, 60057.38, 0.0, 10.000509, 9.9995 
1.2650208e+3, 2.0413731e+2, -914489.7, -1001442.25, -50094.24, 0.0013847662, 0.06591661, -891636.4, 47822.617, 0.0, 10.00045, 9.999294 
1.2650327e+3, 2.1413633e+2, -792924.75, -887818.2, -53849.22, 0.0112854075, 0.03348753, -768601.5, 72866.42, 0.0, 10.000593, 9.999332 
1.2650444e+3, 2.2413556e+2, -746826.7, -866925.3, -50024.754, -0.0017658826, 0.046694104, -728719.75, 14756.723, 0.0, 10.000462, 9.998867 
1.2650558e+3, 2.341351e+2, -722109.6, -801999.8, -48013.063, -0.045450676, 0.11073269, -699597.8, -54113.574, 0.0, 9.9999485, 9.998887 
1.2650676e+3, 2.4413443e+2, -629031.6, -650399.56, -45456.203, -0.050320577, 0.1341372, -593020.7, -45528.402, 0.0, 9.999674, 9.999387 
1.26508e+3, 2.5413346e+2, -513186.78, -532147.94, -43929.06, -0.002769716, 0.08757802, -477726.9, -28226.027, 0.0, 9.999746, 9.999491 
1.265092e+3, 2.641326e+2, -423085.7, -445827.28, -41199.688, 0.010077013, 0.05805804, -391716.47, -40208.37, 0.0, 9.999726, 9.99942 
1.2651038e+3, 2.7413186e+2, -348877.78, -353270.63, -52097.938, -0.024192015, 0.037236262, -298930.0, -45416.383, 0.0, 9.9995365, 9.999474 
1.2651162e+3, 2.8413117e+2, -321542.94, -352410.84, -28277.193, 0.004643088, 0.04701994, -304761.9, -149241.55, 0.0, 9.999322, 9.998909 
1.2651297e+3, 2.9413062e+2, -258399.44, -275337.22, 6081.31, 0.116932675, 0.09946438, -256442.19, -198914.53, 0.0, 9.999101, 9.998872 
1.2651417e+3, 3.041301e+2, -194173.19, -170509.95, 3947.2322, 0.092111975, 0.14619943, -169868.89, -169868.89, 0.0, 9.998998, 9.999308 
1.2651525e+3, 3.1412733e+2, -41673.457, 135104.4, -21749.94, -0.038264822, -0.08089575, 137741.1, 137741.1, 0.0, 9.999039, 10.001389 
1.2749255e+3, 1.24132186e+2, -1442345.9, -1628363.3, -125474.8, 0.050318193, 0.0386928, -1379167.0, 344345.28, 0.0044096503, 10.002089, 9.999581 
1.2749378e+3, 1.3413154e+2, -1396005.0, -1627469.9, 116817.16, -0.05358553, 0.078937456, -1347298.3, 278219.1, 0.0024558255, 10.00201, 9.998967 
1.274953e+3, 1.4413048e+2, -1339910.6, -1575599.5, 23708.543, 0.095196046, 0.085578375, -1337549.4, 189977.44, 0.00093550276, 10.001845, 9.998718 
1.2749644e+3, 1.5412892e+2, -1277996.8, -1496849.9, -28121.434, 0.108402, 0.058447607, -1274441.0, 155100.45, 0.00017466526, 10.001606, 9.998699 
1.2749752e+3, 1.6412738e+2, -1220819.9, -1419724.5, -47296.336, 0.0819803, 0.03892598, -1210146.4, 121409.625, 0.0000047674703, 10.001329, 9.99869 
1.2749855e+3, 1.7412606e+2, -1165860.3, -1335700.0, -58097.625, -0.004548362, 0.028920898, -1147888.4, 85680.47, 0.0, 10.001005, 9.99875 
1.274997e+3, 1.841251e+2, -1069614.9, -1175178.4, -41540.36, -0.021336816, 0.033011526, -1055228.8, 80349.664, 0.0, 10.000718, 9.999318 
1.27501e+3, 1.9412462e+2, -994835.3, -1076385.3, -40532.23, 0.060081176, 0.04270226, -978117.1, 59466.54, 0.0, 10.000508, 9.999425 
1.275022e+3, 2.041241e+2, -918435.06, -1009440.5, -47151.02, 0.069353044, 0.0589929, -898411.3, 41177.68, 0.0, 10.000448, 9.999241 
1.2750329e+3, 2.1412352e+2, -797579.8, -896167.06, -48433.227, -0.020574225, 0.072698586, -777767.44, 63826.75, 0.0, 10.0005865, 9.999279 
1.2750444e+3, 2.2412255e+2, -743657.56, -858158.7, -68645.266, -0.04064406, 0.0665804, -711522.44, 32081.393, 0.0, 10.000451, 9.998933 
1.2750566e+3, 2.3412107e+2, -717414.4, -792015.5, -66720.54, 0.039290633, 0.019071091, -678275.7, -32656.006, 0.0, 9.999947, 9.998957 
1.2750685e+3, 2.4412008e+2, -624715.8, -641491.94, -44945.21, 0.064573355, 0.0041761827, -587382.6, -39752.656, 0.0, 9.999673, 9.999449 
1.2750798e+3, 2.5411984e+2, -509223.25, -522387.75, -39694.45, 0.0113992505, 0.024282796, -475569.0, -25936.828, 0.0, 9.999738, 9.999562 
1.2750916e+3, 2.6411983e+2, -441698.34, -481438.63, -46973.063, -0.009818951, 0.08758998, -410565.63, -58932.684, 0.0, 9.999712, 9.999184 
1.2751037e+3, 2.741201e+2, -368418.66, -392876.1, -56958.473, 0.015941784, 0.19212817, -322390.97, -68758.5, 0.0, 9.999532, 9.999205 
1.2751159e+3, 2.841191e+2, -263388.38, -231901.08, -36629.066, 0.03179654, 0.14954102, -207775.56, -52134.37, 0.0, 9.999321, 9.999738 
1.275128e+3, 2.9411656e+2, -194450.55, -139327.55, -840.1438, 0.030375643, -0.09133167, -139314.75, -81653.89, 0.0, 9.999085, 9.999814 
1.2751399e+3, 3.041164e+2, -249184.98, -282083.38, 5510.212, 0.006957473, -0.025467724, -248286.61, -248286.61, 0.0, 9.998984, 9.9985485 
1.2751524e+3, 3.1411627e+2, -123811.15, -32881.84, -12208.263, 0.03366989, 0.10809948, -31271.273, -31271.273, 0.0, 9.999028, 10.000239 
1.2849279e+3, 1.2412114e+2, -1374951.0, -1628788.9, -123460.65, 0.053342428, 0.05777264, -1324808.0, 398811.88, 0.0047468157, 10.002698, 9.999284 
1.2849407e+3, 1.3411993e+2, -1400772.8, -1674412.6, 78324.26, 0.009397715, 0.08385533, -1379939.9, 245691.22, 0.0026545508, 10.0021715, 9.998566 
1.2849547e+3, 1.4411877e+2, -1335341.8, -1587791.1, -14772.334, 0.08872299, 0.10592929, -1334480.3, 193161.86, 0.0010215283, 10.001939, 9.998589 
1.284966e+3, 1.5411699e+2, -1196025.4, -1469230.6, -31553.736, 0.09031675, 0.06747441, -1192428.4, 237230.2, 0.00019628371, 10.002221, 9.998592 
1.2849768e+3, 1.6411531e+2, -1097702.1, -1356026.5, -30868.82, 0.061973788, 0.03742942, -1094064.6, 237609.44, 0.0000059623408, 10.002158, 9.998727 
1.2849869e+3, 1.7411394e+2, -1075454.9, -1286244.3, -14454.778, -0.018013664, 0.018890344, -1074468.3, 159218.16, 0.0, 10.001603, 9.9988 
1.2849979e+3, 1.841128e+2, -1025320.2, -1191617.5, 19415.328, -0.026800863, 0.01851584, -1023083.5, 112613.984, 0.0, 10.001187, 9.998978 
1.2850106e+3, 1.9411197e+2, -953858.6, -1098634.1, -3015.4578, 0.06467187, 0.029212907, -953795.8, 83911.2, 0.0, 10.000972, 9.999047 
1.2850226e+3, 2.0411126e+2, -890597.7, -1000517.5, -18432.99, 0.07842261, 0.04961486, -887588.94, 52125.633, 0.0, 10.000659, 9.9992 
1.2850334e+3, 2.1411078e+2, -851281.3, -921955.25, -17799.438, -0.017529871, 0.07107948, -847051.6, -5332.5493, 0.0, 10.000219, 9.999278 
1.2850447e+3, 2.2410986e+2, -791903.7, -861936.2, -31576.078, -0.035776366, 0.06255131, -779769.25, -36041.574, 0.0, 10.000036, 9.999106 
1.2850569e+3, 2.3410839e+2, -665548.2, -745270.8, -22824.67, 0.055975493, -0.001514162, -659475.94, -13733.997, 0.0, 10.00021, 9.99915 
1.2850685e+3, 2.4410738e+2, -580612.8, -642483.2, -7347.492, 0.0858562, -0.020094022, -579752.25, -32000.105, 0.0, 10.000072, 9.99925 
1.2850796e+3, 2.5410706e+2, -562299.7, -574372.4, -26610.924, 0.027367434, 0.015432917, -541049.06, -91292.945, 0.0, 9.999488, 9.999326 
1.2850912e+3, 2.6410702e+2, -530035.1, -533639.5, -33821.363, 0.009898016, 0.08961409, -497967.97, -146209.6, 0.0, 9.999146, 9.999097 
1.2851034e+3, 2.7410722e+2, -427961.3, -429753.06, -30932.732, 0.05140459, 0.1957831, -397911.47, -144152.31, 0.0, 9.999157, 9.999132 
1.2851152e+3, 2.8410617e+2, -274747.16, -220930.44, -25566.74, 0.0531357, 0.14750037, -210721.17, -54953.008, 0.0, 9.999173, 9.999886 
1.2851267e+3, 2.9410368e+2, -170957.84, -109114.61, -48525.61, -0.0029168543, -0.105910465, -82495.97, -24709.57, 0.0, 9.999164, 9.999985 
1.2851387e+3, 3.0410388e+2, -229216.19, -275471.1, -40697.695, -0.024151402, -0.012295775, -205533.6, -205533.6, 0.0, 9.999137, 9.998519 
1.285152e+3, 3.1410384e+2, -128496.51, -72376.11, 3672.9395, 0.08313454, 0.13662189, -72136.75, -72136.75, 0.0, 9.999157, 9.999906 
1.2949306e+3, 1.24111004e+2, -1438920.0, -1764787.5, -144750.58, 0.053465102, 0.13886082, -1383908.5, 339810.53, 0.0050962004, 10.002708, 9.998345 
1.2949437e+3, 1.34108e+2, -1472214.5, -1821475.9, 57577.777, 0.09905592, 0.08515069, -1462967.4, 162782.75, 0.0028611089, 10.002167, 9.997559 
1.2949568e+3, 1.4410634e+2, -1319893.1, -1554739.1, -9131.558, 0.099601954, 0.102556966, -1319538.6, 208227.64, 0.00111182, 10.001934, 9.998818 
1.2949677e+3, 1.5410492e+2, -1168657.3, -1414125.1, -20420.018, 0.03261709, 0.06524338, -1166970.3, 262807.0, 0.000219555, 10.002227, 9.998968 
1.2949784e+3, 1.6410361e+2, -1065169.8, -1290092.3, -50367.85, 0.0098479, 0.028321404, -1054405.9, 277381.56, 0.0000074533, 10.002164, 9.999178 
1.2949888e+3, 1.7410254e+2, -1043631.44, -1221156.8, -35579.465, 0.034526918, -0.0044272523, -1036766.1, 197028.98, 0.0, 10.001606, 9.999247 
1.2949997e+3, 1.8410136e+2, -1066970.5, -1277800.8, 8535.131, 0.041767944, -0.0056339554, -1066625.5, 69180.85, 0.0, 10.001185, 9.998388 
1.2950112e+3, 1.941e+2, -1002622.75, -1199251.5, -11385.12, 0.03130091, 0.0207875, -1001965.75, 35857.016, 0.0, 10.000968, 9.99836 
1.2950227e+3, 2.0409888e+2, -892800.25, -1004417.25, -35981.094, 0.023176774, 0.037326176, -882206.75, 57628.668, 0.0, 10.000655, 9.999176 
1.295034e+3, 2.1409811e+2, -848251.94, -916162.2, -34570.742, 0.01640148, 0.028319832, -833750.0, 8092.3013, 0.0, 10.000219, 9.999318 
1.2950452e+3, 2.240975e+2, -772667.0, -821518.56, -28320.25, 0.009182347, 0.03429179, -759694.2, -15846.459, 0.0, 10.000034, 9.999385 
1.2950565e+3, 2.340971e+2, -644920.44, -701447.3, -15850.877, 0.0028802243, 0.04686055, -640779.06, 5072.078, 0.0, 10.000204, 9.999455 
1.2950678e+3, 2.4409634e+2, -613415.75, -709044.4, -27663.979, 0.010581426, 0.058815435, -605989.6, -58130.688, 0.0, 10.000064, 9.998798 
1.2950793e+3, 2.5409517e+2, -598856.8, -651375.75, -47459.105, 0.03962732, 0.059709657, -570876.75, -121004.11, 0.0, 9.999491, 9.998796 
1.2950909e+3, 2.6409414e+2, -525478.7, -526207.56, -35083.05, 0.063087255, 0.06484366, -490758.2, -138874.02, 0.0, 9.999153, 9.9991455 
1.2951028e+3, 2.740933e+2, -420993.03, -413676.53, -28207.926, 0.077672176, 0.05481495, -388890.63, -134997.48, 0.0, 9.999148, 9.999248 
1.2951145e+3, 2.8409246e+2, -312476.66, -296803.13, -24498.33, 0.06359142, 0.044713993, -278918.63, -123017.695, 0.0, 9.999161, 9.999371 
1.295126e+3, 2.9409197e+2, -212061.95, -192745.9, -45564.42, 0.0069317836, 0.050005972, -155827.17, -97922.836, 0.0, 9.999156, 9.9994135 
1.295138e+3, 3.0409256e+2, -183670.36, -181221.06, -40203.313, -0.011534803, 0.18048288, -142223.75, -142223.75, 0.0, 9.999135, 9.999168 
1.2951514e+3, 3.1409025e+2, -104819.9, -13198.144, 11241.156, 0.10084364, 0.024082355, -11839.114, -11839.114, 0.0, 9.999113, 10.000335 
1.3049333e+3, 1.2409963e+2, -1464984.1, -1770772.9, -184289.31, 0.06542176, 0.1616462, -1378422.4, 345409.0, 0.0054552136, 10.002502, 9.9984045 
1.3049467e+3, 1.3409606e+2, -1331749.6, -1742830.0, 90554.49, 0.13713282, 0.04386253, -1312686.0, 313180.0, 0.003073975, 10.003089, 9.997653 
1.304959e+3, 1.440945e+2, -1184133.4, -1494549.0, 47484.387, 0.07139276, 0.06835491, -1177032.1, 350848.3, 0.0012055306, 10.0028925, 9.99877 
1.3049696e+3, 1.5409309e+2, -1253273.0, -1461963.8, 1197.2462, 0.030502183, 0.03765495, -1253266.1, 176626.08, 0.000244213, 10.001678, 9.998903 
1.3049802e+3, 1.6409181e+2, -1231533.3, -1374688.1, -53512.727, 0.029677788, 0.011902448, -1213741.0, 118161.47, 0.000009295233, 10.001042, 9.999137 
1.3049906e+3, 1.7409089e+2, -1098203.1, -1251811.9, -76059.83, 0.06809076, -0.0021027226, -1066914.9, 166994.17, 0.0, 10.001251, 9.999207 
1.3050012e+3, 1.8408978e+2, -1040887.94, -1258017.8, -27844.502, 0.06351332, 0.0013033005, -1037374.06, 98545.48, 0.0, 10.001334, 9.998452 
1.3050121e+3, 1.9408834e+2, -959987.8, -1169752.3, 7773.281, 0.0022550512, 0.011844067, -959700.2, 78235.36, 0.0, 10.001224, 9.998438 
1.3050231e+3, 2.04087e+2, -851833.9, -1013799.2, 1977.5315, -0.016804852, 0.01600699, -851809.7, 88140.07, 0.0, 10.001064, 9.998914 
1.3050346e+3, 2.140859e+2, -779815.94, -916153.75, -23906.72, 0.021387199, 0.0014349465, -775745.5, 66215.56, 0.0, 10.0008335, 9.9990225 
1.3050456e+3, 2.2408521e+2, -706747.5, -797149.25, -35120.547, 0.030104104, 0.019005315, -694707.06, 49260.906, 0.0, 10.000518, 9.99932 
1.3050567e+3, 2.3408511e+2, -664923.2, -715497.2, -49659.125, -0.00277047, 0.066861, -634483.56, 11485.204, 0.0, 10.000087, 9.999414 
1.3050677e+3, 2.4408448e+2, -634810.8, -716616.56, -60733.844, -0.0038472472, 0.09083372, -602490.44, -54514.836, 0.0, 9.999906, 9.998823 
1.3050792e+3, 2.5408313e+2, -512332.44, -606311.7, -41372.37, 0.041124497, 0.07062061, -496714.56, -46723.918, 0.0, 10.000071, 9.998827 
1.3050905e+3, 2.6408187e+2, -407793.88, -467114.25, -9049.876, 0.070153855, 0.05269957, -406443.94, -54440.445, 0.0, 9.999952, 9.9991665 
1.3051021e+3, 2.740808e+2, -378917.13, -391412.16, -11417.67, 0.07645782, 0.016198816, -372149.47, -118135.555, 0.0, 9.999429, 9.999265 
1.3051137e+3, 2.8407997e+2, -341352.97, -338479.56, 6972.7505, 0.072936304, 0.0131503, -332797.03, -176774.75, 0.0, 9.999083, 9.999122 
1.3051257e+3, 2.9407972e+2, -253554.19, -242918.36, 5910.9683, 0.053365223, 0.071077175, -240285.19, -182259.92, 0.0, 9.9990015, 9.999144 
1.3051373e+3, 3.0408043e+2, -223742.22, -157853.2, 5300.7207, 0.023032991, 0.21019156, -157429.5, -157429.5, 0.0, 9.998678, 9.999549 
1.3051493e+3, 3.1407815e+2, -256160.16, -74440.914, 31494.375, 0.04567608, 0.018698854, -69137.31, -69137.31, 0.0, 9.99802, 10.000442 
1.314936e+3, 1.2408703e+2, -1392317.8, -1618091.4, -152765.11, 0.076577775, 0.1253583, -1315255.5, 408700.72, 0.005819013, 10.002493, 9.99946 
1.3149495e+3, 1.3408418e+2, -1245074.6, -1564874.6, 111967.18, 0.11901552, -0.040945705, -1209770.5, 416207.53, 0.0032902497, 10.003099, 9.998871 
1.314961e+3, 1.4408335e+2, -1205745.0, -1542458.6, 5895.358, -0.0044626244, 0.0024761148, -1205641.8, 322341.8, 0.0013013786, 10.002905, 9.998435 
1.3149717e+3, 1.5408154e+2, -1290295.4, -1537793.6, -44959.26, 0.07927996, -0.016313862, -1282381.4, 147621.5, 0.00026992275, 10.001674, 9.998385 
1.3149822e+3, 1.6408004e+2, -1271066.8, -1455453.6, -52069.863, 0.117429726, -0.012441466, -1257378.6, 74640.055, 0.00001153221, 10.001035, 9.998587 
1.314992e+3, 1.7407912e+2, -1135225.5, -1329404.5, -67960.86, 0.079015434, 0.026472075, -1113803.3, 120224.5, 0.0, 10.001253, 9.998674 
1.3150021e+3, 1.8407813e+2, -990804.4, -1154080.1, -32465.566, 0.031453766, 0.04018778, -984585.8, 151450.53, 0.0, 10.001332, 9.9991665 
1.3150129e+3, 1.9407703e+2, -901239.75, -1048155.5, 3199.001, -0.026048707, 0.0016828926, -901170.2, 136874.66, 0.0, 10.001224, 9.999273 
1.3150239e+3, 2.0407571e+2, -887549.94, -1087219.0, -7874.043, -0.044587683, -0.014770772, -887239.94, 52817.324, 0.0, 10.00106, 9.998412 
1.3150351e+3, 2.1407418e+2, -825296.9, -1009597.4, -32435.434, -0.006123051, -0.010025097, -819755.1, 22319.732, 0.0, 10.000827, 9.998384 
1.3150461e+3, 2.2407304e+2, -736424.5, -856809.44, -51946.07, 0.021233745, 0.016645731, -717108.94, 26979.016, 0.0, 10.000508, 9.998916 
1.315057e+3, 2.3407249e+2, -692342.1, -771920.75, -65248.086, 0.034282092, 0.05838919, -655708.25, -9613.85, 0.0, 10.000083, 9.99903 
1.315068e+3, 2.440718e+2, -601465.75, -646217.4, -56472.387, 0.03790294, 0.075790614, -563097.75, -14995.993, 0.0, 9.9999, 9.999309 
1.315079e+3, 2.5407097e+2, -473652.5, -523280.63, -33467.793, 0.028480846, 0.04937306, -456803.28, -6693.482, 0.0, 10.000058, 9.999404 
1.31509e+3, 2.6407024e+2, -411168.13, -471368.03, -26071.613, 0.028437188, 0.05255478, -401446.78, -49330.37, 0.0, 9.999939, 9.999144 
1.3151012e+3, 2.7406967e+2, -385182.75, -404292.38, -28969.334, 0.04316042, 0.07763983, -364233.2, -110111.445, 0.0, 9.999427, 9.999178 
1.3151129e+3, 2.8406858e+2, -340204.38, -337322.03, 2351.9316, 0.0742571, 0.05220251, -336004.84, -179872.3, 0.0, 9.999086, 9.999129 
1.3151252e+3, 2.940669e+2, -254947.16, -241525.53, 5497.2573, 0.12764856, -0.03570695, -239561.39, -181412.47, 0.0, 9.998981, 9.999165 
1.3151364e+3, 3.0406743e+2, -218020.81, -141612.42, -15873.034, 0.071844175, 0.082599625, -138446.17, -138446.17, 0.0, 9.998659, 9.999671 
1.315146e+3, 3.140676e+2, -271319.25, -102448.195, 14870.541, -0.088770784, 0.12107719, -101148.72, -101148.72, 0.0, 9.998006, 10.000257 
1.3249387e+3, 1.2407533e+2, -1286091.5, -1560720.4, -55858.28, 0.06928107, 0.07166674, -1275164.9, 448904.2, 0.006183249, 10.003199, 9.999518 
1.3249527e+3, 1.3407287e+2, -1341407.0, -1583179.5, 115339.82, 0.1565199, -0.08002051, -1295210.1, 330877.06, 0.0035072896, 10.002318, 9.99912 
1.3249634e+3, 1.4407264e+2, -1348769.5, -1619088.3, -27855.348, -0.012389246, 0.014111496, -1345929.0, 182158.39, 0.0013982238, 10.001957, 9.998365 
1.3249739e+3, 1.5407087e+2, -1178684.9, -1496632.1, -49886.945, 0.07577683, 0.008518499, -1171041.1, 259066.5, 0.00029637254, 10.002495, 9.998273 
1.3249838e+3, 1.640692e+2, -1052870.9, -1368373.1, -17351.584, 0.10664422, 0.011548226, -1051919.5, 280206.03, 0.000014169166, 10.002611, 9.998425 
1.3249934e+3, 1.7406794e+2, -1023515.8, -1293971.8, -7069.129, 0.044810258, 0.032820217, -1023331.2, 210806.27, 0.0, 10.0021, 9.998508 
1.3250034e+3, 1.840667e+2, -967987.75, -1157541.4, 8978.857, 0.0040861242, 0.03576169, -967563.4, 168585.02, 0.0, 10.001554, 9.999037 
1.3250142e+3, 1.9406547e+2, -945565.9, -1083655.4, -29238.568, -0.0072215376, -0.0036675127, -939630.2, 98528.22, 0.0, 10.000981, 9.999146 
1.325025e+3, 2.040642e+2, -941082.56, -1100556.4, -50686.035, -0.016214399, -0.013423997, -926336.4, 13833.9, 0.0, 10.000639, 9.998524 
1.3250357e+3, 2.1406297e+2, -846931.1, -1004019.4, -19231.809, -0.022869285, 0.009566087, -844610.9, -2426.6025, 0.0, 10.000612, 9.998526 
1.3250463e+3, 2.2406177e+2, -762871.8, -888972.56, -8754.676, -0.0087057045, 0.028852383, -762266.94, -18069.154, 0.0, 10.000412, 9.99874 
1.3250571e+3, 2.3406059e+2, -725475.0, -810288.06, -11359.638, 0.03638789, 0.027000926, -723979.9, -77769.375, 0.0, 9.999953, 9.998829 
1.325068e+3, 2.4405965e+2, -641797.4, -663334.44, 5014.443, 0.054172505, 0.030150134, -640687.1, -92466.805, 0.0, 9.999614, 9.999329 
1.3250788e+3, 2.540591e+2, -558454.7, -558731.56, -11860.936, 0.032281745, 0.030308105, -546731.4, -96505.96, 0.0, 9.9994545, 9.99945 
1.3250896e+3, 2.6405862e+2, -495623.38, -515181.06, -33616.625, 0.025511563, 0.055125616, -470392.16, -118162.15, 0.0, 9.999374, 9.999115 
1.3251007e+3, 2.740582e+2, -392877.88, -411623.94, -35703.176, 0.042617306, 0.095607676, -365337.9, -111103.414, 0.0, 9.9993925, 9.999144 
1.325112e+3, 2.840571e+2, -314411.03, -311925.56, 1079.4385, 0.07338629, 0.069136426, -311522.22, -155277.23, 0.0, 9.99921, 9.999243 
1.3251242e+3, 2.9405525e+2, -279605.03, -237197.66, 9493.144, 0.12335218, -0.04845568, -235169.55, -176907.33, 0.0, 9.998744, 9.999308 
1.325135e+3, 3.0405557e+2, -245909.56, -129594.05, -7240.49, 0.07446077, 0.026941799, -129145.06, -129145.06, 0.0, 9.99836, 9.999897 
1.325144e+3, 3.1405643e+2, -259891.11, -96832.79, 29635.365, -0.08177681, 0.11403812, -91613.7, -91613.7, 0.0, 9.998088, 10.000254 
1.3349415e+3, 1.2406464e+2, -1351901.6, -1700681.0, -69889.36, 0.028542273, 0.0010582571, -1338418.3, 385750.47, 0.0065457188, 10.003211, 9.998548 
1.334956e+3, 1.3406222e+2, -1395938.9, -1692896.1, 79599.3, 0.24804191, -0.071488805, -1375948.1, 250244.6, 0.0037237175, 10.002304, 9.998373 
1.334966e+3, 1.4406246e+2, -1336833.6, -1591623.8, -14733.567, 0.043722752, 0.10478513, -1335984.5, 192206.56, 0.0014951822, 10.001944, 9.998561 
1.3349757e+3, 1.5406112e+2, -1155813.8, -1450796.6, -28351.736, 0.014073699, 0.11288327, -1153113.5, 277092.3, 0.00032323142, 10.0025015, 9.998585 
1.3349852e+3, 1.6405943e+2, -1037072.8, -1337764.6, -34285.03, -0.01190401, 0.08561872, -1033213.2, 299008.78, 0.000017128494, 10.002619, 9.998632 
1.3349946e+3, 1.7405747e+2, -1010060.7, -1266916.9, -26911.8, -0.038480937, 0.016914824, -1007271.3, 226966.42, 0.00000000003443261, 10.002103, 9.998693 
1.3350047e+3, 1.8405555e+2, -1036543.5, -1299509.1, -14281.558, -0.02328498, -0.012734083, -1035770.1, 100485.15, 0.0, 10.001551, 9.998064 
1.3350159e+3, 1.9405371e+2, -1021863.3, -1242229.0, -50906.434, 0.054539997, -0.00492097, -1010671.9, 27603.914, 0.0, 10.000981, 9.998059 
1.3350265e+3, 2.0405252e+2, -892377.56, -997879.3, -54968.273, 0.061604157, 0.020046664, -868943.3, 71345.01, 0.0, 10.000631, 9.999232 
1.3350362e+3, 2.1405233e+2, -784874.2, -874566.6, -20490.658, -0.03244969, 0.058672395, -780414.75, 61874.33, 0.0, 10.0006075, 9.999417 
1.3350461e+3, 2.240514e+2, -759009.5, -880203.56, -25924.035, -0.06256111, 0.053864095, -753697.06, -9399.549, 0.0, 10.000408, 9.998803 
1.3350566e+3, 2.3404941e+2, -727626.06, -814396.4, -28110.357, 0.0012854863, -0.026485855, -719315.4, -72998.45, 0.0, 9.99995, 9.998803 
1.3350675e+3, 2.4404804e+2, -673291.4, -728211.0, -2393.768, 0.041041274, -0.045210548, -673187.25, -124856.086, 0.0, 9.999611, 9.998885 
1.3350783e+3, 2.540476e+2, -592985.75, -630565.4, -16456.133, 0.046241805, 0.013722024, -586798.4, -136460.88, 0.0, 9.999454, 9.998958 
1.3350894e+3, 2.6404706e+2, -497713.34, -519616.72, -32871.633, 0.054661933, 0.060453374, -474017.03, -121672.766, 0.0, 9.999373, 9.999085 
1.3351002e+3, 2.7404633e+2, -392983.6, -409659.9, -32441.38, 0.06786647, 0.070300914, -367825.97, -113473.9, 0.0, 9.999381, 9.999164 
1.3351111e+3, 2.8404552e+2, -302045.5, -283343.25, -13579.429, 0.06473823, 0.062487025, -276206.7, -119846.99, 0.0, 9.999196, 9.999447 
1.3351221e+3, 2.940448e+2, -264990.72, -205090.05, -4957.9756, 0.03900706, 0.03318214, -204682.45, -146317.08, 0.0, 9.998734, 9.999533 
1.3351327e+3, 3.0404475e+2, -223909.63, -82189.59, -17171.053, 0.025313845, 0.045116212, -80138.8, -80138.8, 0.0, 9.998351, 10.000226 
1.3351434e+3, 3.1404462e+2, -251432.0, -72609.18, 25054.523, 0.043838825, 0.00058392086, -69165.17, -69165.17, 0.0, 9.998058, 10.000435 
1.3449447e+3, 1.24054484e+2, -1382977.0, -1785687.0, -91860.68, 0.01990821, 0.01717938, -1363012.8, 361254.0, 0.0069055543, 10.003304, 9.997918 
1.3449585e+3, 1.3405176e+2, -1337844.5, -1707498.4, 58401.004, 0.2557998, -0.045471974, -1328837.3, 297459.1, 0.0039389143, 10.002891, 9.997989 
1.344968e+3, 1.440519e+2, -1260565.5, -1546291.4, 4207.2974, 0.021183217, 0.13728142, -1260503.5, 267792.94, 0.0015916337, 10.002433, 9.998635 
1.3449779e+3, 1.540503e+2, -1220282.4, -1468457.4, -23478.447, 0.004848918, 0.10796559, -1218080.8, 212231.2, 0.0003501717, 10.002003, 9.998703 
1.3449876e+3, 1.6404852e+2, -1157258.5, -1398691.9, -52692.555, -0.008949007, 0.065717876, -1146259.5, 186068.61, 0.000020254476, 10.001808, 9.998604 
1.3449968e+3, 1.740467e+2, -1029695.44, -1280966.0, -64246.14, -0.027440691, 0.015635254, -1014221.56, 220121.39, 0.0000000014653116, 10.001987, 9.998652 
1.3450065e+3, 1.8404475e+2, -994124.25, -1294996.6, -43029.043, -0.01417147, -0.007323479, -988091.44, 148269.6, 0.0, 10.00191, 9.997922 
1.345017e+3, 1.9404268e+2, -965995.0, -1231553.1, -12996.683, 0.04471516, -0.008330459, -965360.44, 73023.37, 0.0, 10.001436, 9.997912 
1.3450271e+3, 2.0404135e+2, -844589.75, -979700.94, 7895.286, 0.048800364, 0.012420689, -844129.94, 96267.92, 0.0, 10.00098, 9.999189 
1.3450368e+3, 2.1404116e+2, -794076.2, -882359.2, -26281.459, -0.026820175, 0.05276597, -786844.7, 55554.324, 0.0, 10.000559, 9.999388 
1.3450466e+3, 2.2404036e+2, -760999.06, -864611.4, -65108.6, -0.053945303, 0.05753976, -729600.56, 14805.578, 0.0, 10.000325, 9.99895 
1.3450567e+3, 2.3403876e+2, -654635.25, -759325.3, -56031.18, -0.010576535, -0.0018013116, -630302.4, 16119.291, 0.0, 10.00037, 9.998977 
1.3450672e+3, 2.440375e+2, -596984.44, -705101.8, -14964.365, 0.018819662, -0.012641016, -594951.44, -46516.676, 0.0, 10.000196, 9.99876 
1.3450778e+3, 2.5403678e+2, -568234.6, -635352.2, -6213.5273, 0.028200824, 0.033836678, -567664.25, -117220.22, 0.0, 9.9997, 9.998805 
1.3450886e+3, 2.6403597e+2, -499850.53, -518392.56, 2686.6365, 0.04535735, 0.06293194, -499469.1, -147015.73, 0.0, 9.999353, 9.999103 
1.3450997e+3, 2.7403507e+2, -411116.44, -413627.94, 2981.3486, 0.07337648, 0.050316196, -409137.2, -154674.23, 0.0, 9.999241, 9.999203 
1.3451102e+3, 2.840345e+2, -340715.4, -297623.34, 941.639, 0.070953675, 0.05986586, -297602.78, -141134.16, 0.0, 9.998915, 9.999483 
1.3451204e+3, 2.9403445e+2, -327945.28, -229909.31, -7849.942, 0.02629109, 0.09840298, -229284.73, -170817.0, 0.0, 9.998284, 9.9995775 
1.3451308e+3, 3.0403402e+2, -292822.34, -99708.66, -23713.994, 0.027302139, 0.061147876, -96839.26, -96839.26, 0.0, 9.997813, 10.000366 
1.3451417e+3, 3.140335e+2, -321963.0, -91473.74, 4064.423, 0.088514306, -0.0353914, -91402.09, -91402.09, 0.0, 9.997511, 10.000568 
1.3549483e+3, 1.2404497e+2, -1406092.3, -1831297.4, -85578.74, 0.03717856, 0.12157878, -1389514.6, 334847.8, 0.0072628423, 10.003291, 9.997612 
1.3549605e+3, 1.3404159e+2, -1337811.3, -1707764.0, 41745.08, 0.17270677, -0.0021432417, -1333159.3, 293238.13, 0.004152666, 10.002894, 9.997984 
1.3549693e+3, 1.4404102e+2, -1264286.8, -1557033.0, -13587.563, -0.09247279, 0.109780066, -1263657.5, 264745.5, 0.0016872559, 10.002443, 9.998558 
1.3549802e+3, 1.5403847e+2, -1227070.9, -1483074.4, -40049.727, 0.044752147, -0.005858514, -1220951.6, 209473.69, 0.0003769789, 10.002003, 9.998604 
1.3549906e+3, 1.640365e+2, -1175739.5, -1436237.5, -50105.707, 0.11297111, -0.048148766, -1166434.3, 166009.16, 0.000023370363, 10.001803, 9.998349 
1.3549997e+3, 1.7403565e+2, -1047875.7, -1319124.9, -57211.547, 0.07381232, 0.027136903, -1036302.5, 198150.27, 0.0000000068048798, 10.001988, 9.998391 
1.3550088e+3, 1.8403438e+2, -947268.2, -1196713.5, -60185.773, 0.023121383, 0.05242711, -933505.94, 202959.14, 0.0, 10.001905, 9.998599 
1.3550176e+3, 1.9403242e+2, -911579.1, -1118730.9, -31362.89, -0.039332766, -0.014552627, -906934.9, 131547.27, 0.0, 10.001435, 9.998688 
1.355027e+3, 2.0403072e+2, -899526.44, -1093328.5, -9939.845, -0.05715927, -0.03731039, -899017.94, 41480.594, 0.0, 10.000978, 9.998411 
1.3550375e+3, 2.1402948e+2, -860721.7, -1019734.4, -42185.414, -0.010712064, -0.0064327973, -850223.2, -7709.7373, 0.0, 10.000554, 9.998448 
1.3550477e+3, 2.240287e+2, -746979.7, -833563.3, -66301.35, 0.01086068, 0.040555425, -711087.9, 33435.31, 0.0, 10.000315, 9.999168 
1.355057e+3, 2.340286e+2, -632042.0, -710887.8, -53935.03, -0.0039749467, 0.09864696, -604658.1, 41866.668, 0.0, 10.000361, 9.999314 
1.3550669e+3, 2.4402799e+2, -584231.9, -676877.5, -32396.172, -0.01682506, 0.12458707, -574027.56, -25496.203, 0.0, 10.000189, 9.998958 
1.3550769e+3, 2.5402665e+2, -556992.44, -609807.2, -23723.729, -0.025232242, 0.089094736, -547901.0, -97355.92, 0.0, 9.999689, 9.998986 
1.3550875e+3, 2.640254e+2, -498326.72, -513321.22, -2225.6133, -0.0053078695, 0.06164042, -498003.34, -145445.81, 0.0, 9.999344, 9.999143 
1.3550986e+3, 2.740244e+2, -410173.88, -410429.13, 1317.0616, 0.05454849, 0.038329758, -408978.28, -154411.05, 0.0, 9.999233, 9.9992285 
1.3551092e+3, 2.8402394e+2, -350146.84, -316218.9, -19979.137, 0.084560685, 0.0644262, -306973.28, -150401.27, 0.0, 9.99891, 9.999358 
1.3551192e+3, 2.9402417e+2, -339021.13, -251686.95, -28521.813, 0.07296057, 0.14291757, -243197.47, -184627.22, 0.0, 9.998277, 9.999433 
1.3551292e+3, 3.0402327e+2, -296585.25, -106365.414, -34172.402, 0.070922114, 0.06875276, -100412.734, -100412.734, 0.0, 9.9978075, 10.000323 
1.3551389e+3, 3.1402293e+2, -315946.6, -75628.25, -1677.2349, 0.04794641, -0.009464384, -75616.55, -75616.55, 0.0, 9.997497, 10.000686 
1.3649513e+3, 1.240343e+2, -1418990.4, -1835112.9, -90437.484, 0.028498659, 0.13933267, -1400185.1, 324283.56, 0.0076198755, 10.003188, 9.997637 
1.3649634e+3, 1.3403103e+2, -1298811.5, -1654693.0, 32598.035, 0.15678354, -0.0047030365, -1295850.3, 330651.25, 0.004366158, 10.003016, 9.998289 
1.3649715e+3, 1.4403035e+2, -1239938.3, -1550965.0, -13290.887, -0.11160976, 0.08545602, -1239371.3, 289135.56, 0.0017823466, 10.002637, 9.998507 
1.3649827e+3, 1.5402766e+2, -1216274.4, -1488616.8, -39851.293, 0.07455934, -0.036336433, -1210562.9, 219967.7, 0.0004035849, 10.002122, 9.998508 
1.3649929e+3, 1.6402563e+2, -1192651.9, -1453837.9, -26483.37, 0.16031057, -0.074502274, -1189993.6, 142555.9, 0.000026350568, 10.001728, 9.998264 
1.3650016e+3, 1.7402495e+2, -1127664.1, -1366928.1, -20908.854, 0.09624608, 0.023252899, -1125850.6, 108707.84, 0.000000016360648, 10.001482, 9.998307 
1.3650104e+3, 1.8402383e+2, -1013679.7, -1210091.3, -37735.58, 0.02386585, 0.06304848, -1006679.25, 129890.22, 0.0, 10.0013685, 9.998767 
1.3650188e+3, 1.9402206e+2, -893050.0, -1088046.1, -53953.098, -0.059988324, -0.0037804008, -879117.3, 159466.55, 0.0, 10.001468, 9.998883 
1.365028e+3, 2.0402035e+2, -869632.3, -1093950.5, -46221.047, -0.08041837, -0.03298499, -860481.7, 80118.47, 0.0, 10.001249, 9.998275 
1.3650382e+3, 2.140188e+2, -870298.44, -1042599.1, -24347.258, -0.009547044, -0.016727975, -866924.1, -24305.666, 0.0, 10.000569, 9.9982815 
1.3650478e+3, 2.2401789e+2, -787878.8, -865466.1, -10156.889, 0.021758005, 0.03018638, -786571.2, -41941.133, 0.0, 10.000091, 9.999056 
1.3650572e+3, 2.3401788e+2, -707377.56, -759469.4, -30695.193, -0.006357539, 0.10868644, -693166.94, -46535.223, 0.0, 9.999899, 9.999203 
1.3650668e+3, 2.4401742e+2, -642954.56, -679016.44, -36173.215, -0.023170454, 0.14512365, -620567.5, -71930.5, 0.0, 9.999676, 9.999189 
1.3650766e+3, 2.5401628e+2, -577848.4, -588938.5, -24867.068, -0.021847479, 0.10355772, -557915.6, -107268.13, 0.0, 9.999415, 9.999259 
1.3650867e+3, 2.6401517e+2, -516469.97, -503131.25, 10904.193, -0.004939239, 0.06658192, -497018.53, -144360.78, 0.0, 9.999142, 9.999307 
1.3650975e+3, 2.7401423e+2, -457394.88, -415314.06, 21886.506, 0.032876927, 0.03345569, -405994.7, -151328.27, 0.0, 9.998838, 9.999382 
1.3651077e+3, 2.840138e+2, -396038.0, -342928.34, 3569.5496, 0.059998404, 0.05726833, -342689.5, -186018.72, 0.0, 9.998618, 9.999314 
1.3651176e+3, 2.9401395e+2, -310361.34, -244617.47, -1499.0746, 0.07716292, 0.13427684, -244583.3, -185912.86, 0.0, 9.998505, 9.999371 
1.3651273e+3, 3.0401278e+2, -248806.88, -93841.15, -7330.92, 0.09339258, 0.044704996, -93495.12, -93495.12, 0.0, 9.998181, 10.000229 
1.3651362e+3, 3.1401336e+2, -299999.75, -50238.934, 14683.975, 0.04418955, 0.06507997, -49378.598, -49378.598, 0.0, 9.997529, 10.000845 
1.3749541e+3, 1.2402244e+2, -1393534.0, -1783281.8, -78299.73, -0.018119648, 0.060733326, -1378392.0, 346193.9, 0.0079810945, 10.003192, 9.9979925 
1.374967e+3, 1.3402008e+2, -1256652.0, -1565928.9, 23660.695, 0.2062853, -0.05076504, -1254852.4, 371755.56, 0.0045821774, 10.003013, 9.998902 
1.374975e+3, 1.4402002e+2, -1240961.9, -1552793.0, -34170.684, -0.038628675, 0.067245126, -1237261.4, 291345.97, 0.0018779465, 10.002635, 9.998496 
1.3749848e+3, 1.5401794e+2, -1221093.8, -1499083.8, -58576.164, 0.088565156, 0.015251218, -1209255.3, 221371.77, 0.00043006244, 10.002124, 9.998437 
1.374994e+3, 1.6401602e+2, -1187423.6, -1443781.5, -37768.457, 0.123464316, -0.013332843, -1181975.1, 150670.47, 0.000029160963, 10.00173, 9.998334 
1.3750026e+3, 1.740146e+2, -1121177.0, -1354821.8, -30384.93, 0.03673482, 0.0048136804, -1117290.3, 117369.42, 0.000000027808229, 10.001486, 9.998389 
1.3750115e+3, 1.8401319e+2, -1037503.1, -1259458.6, -37228.67, -0.015550069, 0.023623453, -1031425.2, 105248.67, 0.0, 10.001367, 9.998429 
1.3750206e+3, 1.9401169e+2, -920238.94, -1143767.0, -50418.305, -0.022437453, 0.023490597, -909393.0, 129295.48, 0.0, 10.001464, 9.998503 
1.3750297e+3, 2.0401031e+2, -836197.25, -1022508.2, -70608.336, -0.02750255, 0.025577163, -812461.9, 128240.29, 0.0, 10.00124, 9.998771 
1.3750385e+3, 2.1400914e+2, -829591.8, -956974.2, -50078.01, -0.026859013, 0.02088856, -812262.2, 30451.465, 0.0, 10.000564, 9.998873 
1.3750474e+3, 2.2400793e+2, -819467.25, -929715.75, -20247.092, -0.024686726, 0.025443647, -815866.5, -71139.664, 0.0, 10.000084, 9.998618 
1.375057e+3, 2.3400666e+2, -746704.9, -839936.75, -36993.41, -0.020687008, 0.031413306, -733809.8, -87067.75, 0.0, 9.999893, 9.998654 
1.3750666e+3, 2.4400584e+2, -626334.56, -643290.6, -45598.426, -0.004327986, 0.051918726, -588432.7, -39681.535, 0.0, 9.999669, 9.999438 
1.3750765e+3, 2.5400573e+2, -555104.4, -540467.75, -32935.957, 0.031472467, 0.07956718, -514046.84, -63295.9, 0.0, 9.999409, 9.999596 
1.3750863e+3, 2.6400527e+2, -497684.1, -463532.3, 14.370677, 0.039623756, 0.07890735, -463532.3, -110778.22, 0.0, 9.999138, 9.999581 
1.375096e+3, 2.7400446e+2, -439565.78, -377259.7, 12512.775, 0.0020096006, 0.031474855, -374840.7, -120079.414, 0.0, 9.998832, 9.999648 
1.3751057e+3, 2.84004e+2, -395380.38, -339221.75, -467.7189, -0.008500396, 0.03482764, -339217.88, -182452.0, 0.0, 9.998608, 9.999345 
1.3751157e+3, 2.9400384e+2, -311953.63, -244084.52, -2177.0098, 0.03366732, 0.08149032, -244014.75, -185246.7, 0.0, 9.998488, 9.999382 
1.3751255e+3, 3.0400267e+2, -261736.9, -119565.39, -28039.773, 0.08875772, -0.002226581, -114235.09, -114235.09, 0.0, 9.998174, 10.000057 
1.375134e+3, 3.1400448e+2, -288949.1, -25754.205, -6448.356, 0.06092703, 0.16148871, -25596.313, -25596.313, 0.0, 9.99752, 10.001019 
1.3849576e+3, 1.2401198e+2, -1359998.6, -1755708.1, -26356.281, 0.0077015855, 0.057601362, -1358250.9, 366439.2, 0.008351057, 10.003379, 9.99809 
1.38497e+3, 1.340101e+2, -1325187.5, -1566728.4, 28108.896, 0.23666328, -0.03349995, -1321959.5, 304747.63, 0.004803759, 10.002401, 9.99919 
1.3849774e+3, 1.4401025e+2, -1337460.0, -1601706.3, -22024.33, -0.016857594, 0.08973762, -1335636.9, 193067.98, 0.0019753822, 10.001981, 9.998475 
1.3849871e+3, 1.540085e+2, -1178932.6, -1485417.6, -45438.793, 0.07276201, 0.075979725, -1172337.9, 258384.61, 0.00045665295, 10.002442, 9.998378 
1.3849959e+3, 1.6400662e+2, -1068902.4, -1381167.8, -34118.395, 0.08697649, 0.053992633, -1065218.0, 267522.72, 0.00003186285, 10.002521, 9.998383 
1.385004e+3, 1.7400487e+2, -1030540.6, -1304119.9, -30583.516, 0.0045415857, 0.031929582, -1027163.4, 207593.58, 0.000000039188958, 10.002079, 9.998451 
1.3850127e+3, 1.8400325e+2, -1024289.06, -1262692.0, -28075.94, -0.02692423, 0.032039855, -1021027.25, 115745.64, 0.0, 10.001501, 9.998341 
1.3850221e+3, 1.9400181e+2, -1034968.6, -1210497.6, -22157.05, 0.0082086, 0.047589738, -1032214.94, 6573.4487, 0.0, 10.000727, 9.998399 
1.3850309e+3, 2.0400065e+2, -950698.06, -1049601.3, -35167.402, 0.009823335, 0.06539716, -939468.44, 1331.8925, 0.0, 10.000334, 9.999021 
1.3850388e+3, 2.1399993e+2, -818963.94, -920194.7, -38579.047, -0.036737487, 0.07525284, -805937.7, 36868.94, 0.0, 10.0005, 9.999156 
1.3850474e+3, 2.2399874e+2, -770710.94, -907832.6, -8014.631, -0.05346256, 0.06875456, -770244.06, -25425.66, 0.0, 10.000425, 9.998604 
1.3850568e+3, 2.3399693e+2, -733938.4, -837830.8, 10074.587, -0.02755428, 0.025743505, -732970.5, -86132.57, 0.0, 10.000001, 9.998615 
1.3850664e+3, 2.4399588e+2, -627619.6, -634325.0, 18044.014, 0.006357818, 0.020497624, -612619.5, -63770.813, 0.0, 9.999623, 9.999519 
1.385076e+3, 2.5399595e+2, -561911.2, -532541.8, 11833.707, 0.0516108, 0.057455804, -528367.1, -77520.79, 0.0, 9.999318, 9.999692 
1.3850854e+3, 2.639957e+2, -508890.06, -470134.63, 27759.176, 0.05108265, 0.069673285, -455658.72, -102810.87, 0.0, 9.999068, 9.999569 
1.3850947e+3, 2.7399498e+2, -431558.56, -376158.44, 16821.201, -0.020302428, 0.0383061, -371451.0, -116596.63, 0.0, 9.998899, 9.999622 
1.385104e+3, 2.8399462e+2, -380715.75, -308540.25, -2549.524, -0.041700922, 0.04444179, -308450.3, -151592.36, 0.0, 9.998609, 9.999554 
1.3851139e+3, 2.9399458e+2, -344882.56, -232358.4, 8131.2153, 0.023167178, 0.07272975, -231773.86, -172915.19, 0.0, 9.998148, 9.999624 
1.3851234e+3, 3.0399328e+2, -336500.6, -186291.72, -15804.648, 0.093709566, -0.02225927, -184646.8, -184646.8, 0.0, 9.997796, 9.999779 
1.3851315e+3, 3.1399503e+2, -277159.34, -10152.911, -7646.893, 0.049901765, 0.16459635, -9934.089, -9934.089, 0.0, 9.997562, 10.001102 
1.3949619e+3, 1.24003015e+2, -1371873.3, -1779741.0, -46775.277, 0.100209355, 0.13017602, -1366577.6, 358202.47, 0.008733579, 10.003375, 9.997928 
1.3949724e+3, 1.3400117e+2, -1328461.9, -1572481.8, -9529.939, 0.24224608, 0.04560913, -1328090.3, 298708.13, 0.005033633, 10.002398, 9.999153 
1.394979e+3, 1.4400107e+2, -1341302.6, -1609878.8, -11444.568, -0.05705315, 0.15023188, -1340815.8, 187983.36, 0.002076125, 10.001981, 9.998419 
1.3949889e+3, 1.5399937e+2, -1182902.4, -1493966.9, -27909.219, 0.023138631, 0.14749011, -1180418.1, 250398.17, 0.00048381835, 10.002443, 9.998319 
1.394998e+3, 1.6399752e+2, -1066232.6, -1377077.9, -49656.81, 0.04643515, 0.12986726, -1058492.9, 274341.34, 0.000034571214, 10.002525, 9.99841 
1.395006e+3, 1.7399578e+2, -1027254.44, -1297663.8, -47523.527, -0.0054639704, 0.104219824, -1019145.5, 215704.39, 0.00000005013657, 10.002079, 9.998497 
1.3950142e+3, 1.839941e+2, -1013701.4, -1239972.6, -57476.133, -0.017862206, 0.08856645, -999938.7, 136927.36, 0.0, 10.001496, 9.9985 
1.395023e+3, 1.9399248e+2, -1022939.75, -1186115.8, -51433.395, 0.028251812, 0.068383105, -1008080.9, 30802.242, 0.0, 10.000729, 9.998567 
1.3950314e+3, 2.039914e+2, -951076.5, -1050309.8, -33518.68, 0.026815241, 0.08518248, -940815.6, 78.85993, 0.0, 10.000332, 9.999018 
1.3950393e+3, 2.1399115e+2, -820803.5, -923583.44, -31971.885, -0.04290043, 0.14596005, -811669.6, 31227.334, 0.0, 10.000496, 9.999135 
1.3950478e+3, 2.2399032e+2, -743960.9, -851039.94, -23123.988, -0.06926621, 0.15953374, -739180.56, 5724.01, 0.0, 10.000419, 9.998998 
1.3950568e+3, 2.339887e+2, -703772.44, -774409.5, -5681.937, -0.03158232, 0.09068295, -703318.3, -56399.01, 0.0, 9.999995, 9.999054 
1.3950661e+3, 2.439875e+2, -633512.5, -645835.25, 5447.463, 0.0036882476, 0.0495443, -631449.7, -82519.875, 0.0, 9.999619, 9.999444 
1.3950752e+3, 2.5398692e+2, -571680.4, -552433.44, 1317.1655, 0.034842286, 0.035978306, -552343.75, -101409.91, 0.0, 9.999315, 9.9995575 
1.3950843e+3, 2.6398635e+2, -530413.7, -514124.78, 21338.66, 0.025753573, 0.038027044, -499429.13, -146489.97, 0.0, 9.9990635, 9.9992695 
1.3950932e+3, 2.7398586e+2, -455303.13, -422828.97, 13042.8545, -0.04140145, 0.058439534, -418239.2, -163293.92, 0.0, 9.998887, 9.999308 
1.3951026e+3, 2.8398573e+2, -356831.84, -258155.3, -17964.393, -0.048710633, 0.08895347, -254986.58, -98039.65, 0.0, 9.998603, 9.999904 
1.3951121e+3, 2.939859e+2, -317007.25, -173531.88, -6928.893, 0.035752933, 0.0989072, -173198.03, -114254.14, 0.0, 9.998141, 10.000033 
1.3951214e+3, 3.039844e+2, -361554.5, -237520.47, -25015.91, 0.098799035, -0.021530505, -232665.17, -232665.17, 0.0, 9.997793, 9.999429 
1.3951285e+3, 3.1398484e+2, -278546.4, -9783.361, -14363.945, -0.00069412263, 0.073246576, -9017.865, -9017.865, 0.0, 9.997549, 10.001111 
1.4049655e+3, 1.2399387e+2, -1447105.0, -1845823.1, -13783.58, 0.1428912, 0.14487487, -1446629.0, 278241.78, 0.009133226, 10.002982, 9.9976635 
1.4049749e+3, 1.3399222e+2, -1250307.0, -1557828.8, -8703.377, 0.21708423, 0.10205115, -1250061.0, 376827.78, 0.005275387, 10.003038, 9.998945 
1.404981e+3, 1.4399192e+2, -1211793.6, -1537077.6, 5004.4604, -0.09424792, 0.1928928, -1211716.6, 317175.4, 0.0021822979, 10.002829, 9.998509 
1.4049913e+3, 1.5398994e+2, -1189286.9, -1482736.1, 3473.6802, 0.021311946, 0.14967962, -1189245.8, 241664.94, 0.00051218417, 10.002338, 9.998445 
1.4050004e+3, 1.6398811e+2, -1159648.9, -1407382.8, -21936.033, 0.06745988, 0.12098944, -1157721.5, 175206.4, 0.000037386584, 10.001822, 9.998539 
1.405008e+3, 1.7398685e+2, -1133348.8, -1334550.8, -17254.13, 0.02112736, 0.12968314, -1131879.9, 103059.945, 0.00000006103049, 10.001288, 9.998624 
1.4050157e+3, 1.8398543e+2, -1070434.1, -1257073.1, -17035.07, 0.00030686657, 0.129906, -1068892.0, 68061.625, 0.0, 10.001063, 9.99859 
1.4050238e+3, 1.9398378e+2, -932227.5, -1132273.3, -17836.236, 0.013214308, 0.09740463, -930649.6, 108320.99, 0.0, 10.001308, 9.998655 
1.4050318e+3, 2.039826e+2, -837078.44, -1007452.9, -6146.3413, 0.006241085, 0.10672586, -836857.0, 104125.805, 0.0, 10.001168, 9.998907 
1.4050399e+3, 2.1398224e+2, -833657.25, -943754.44, -13939.193, -0.028976109, 0.16739221, -831919.9, 11067.28, 0.0, 10.000472, 9.999006 
1.4050482e+3, 2.2398148e+2, -778968.9, -835052.1, -10909.396, -0.03924517, 0.18134525, -776921.5, -31927.703, 0.0, 10.00004, 9.999288 
1.405057e+3, 2.3398022e+2, -679723.44, -725329.8, -2583.997, -0.015596039, 0.11495832, -679577.5, -32574.252, 0.0, 10.0, 9.999388 
1.4050658e+3, 2.4397914e+2, -616356.06, -668587.75, -3209.2302, 0.00723411, 0.08106363, -616159.6, -67147.45, 0.0, 9.999869, 9.9991665 
1.4050746e+3, 2.5397837e+2, -554089.06, -582600.25, -25431.768, 0.028820844, 0.078965135, -539189.94, -88169.72, 0.0, 9.999601, 9.999212 
1.4050834e+3, 2.639776e+2, -513227.7, -492152.03, -6499.159, 0.024211962, 0.07558063, -490309.03, -137281.02, 0.0, 9.999125, 9.99939 
1.405092e+3, 2.7397698e+2, -522376.6, -434472.13, 17847.01, -0.019638037, 0.06612331, -430986.88, -175952.95, 0.0, 9.998342, 9.999489 
1.405101e+3, 2.839769e+2, -445760.03, -292196.84, 11670.169, -0.03153098, 0.08736275, -291315.03, -134280.47, 0.0, 9.997956, 9.99998 
1.4051099e+3, 2.9397735e+2, -309949.1, -163673.23, -2807.2793, 0.008853316, 0.120502025, -163619.38, -104590.23, 0.0, 9.99816, 10.000092 
1.4051189e+3, 3.0397612e+2, -316972.47, -233655.8, -30435.516, 0.064582564, 0.03106944, -223722.11, -223722.11, 0.0, 9.998175, 9.999271 
1.4051262e+3, 3.139757e+2, -214064.19, 39160.66, -11750.711, -0.0061301873, 0.053604748, 39704.773, 39704.773, 0.0, 9.997916, 10.00127 
1.4149684e+3, 1.2398459e+2, -1474900.9, -1902848.6, -1978.0024, 0.12675294, 0.09601187, -1474891.8, 250070.03, 0.009556688, 10.002976, 9.997275 
1.4149773e+3, 1.3398339e+2, -1278940.6, -1616203.6, -7827.429, 0.15757735, 0.13878639, -1278759.1, 348218.13, 0.0055341963, 10.0030365, 9.998543 
1.4149836e+3, 1.439829e+2, -1192854.3, -1500291.9, -14012.465, -0.13362437, 0.22172299, -1192216.9, 336765.53, 0.0022969088, 10.002837, 9.99876 
1.414994e+3, 1.5398028e+2, -1166356.0, -1435525.6, -14767.404, 0.062540956, 0.08243305, -1165548.3, 265456.53, 0.0005425403, 10.002338, 9.998771 
1.4150031e+3, 1.6397846e+2, -1144894.1, -1376735.0, -43406.797, 0.14279965, 0.02712471, -1137033.6, 195987.6, 0.000040406845, 10.001821, 9.998751 
1.41501e+3, 1.739781e+2, -1118965.5, -1305893.4, -37435.586, 0.080677845, 0.10804918, -1111747.1, 123278.96, 0.00000007226826, 10.001292, 9.998819 
1.4150171e+3, 1.8397729e+2, -1068629.0, -1254060.4, -12058.574, 0.021665728, 0.15612973, -1067848.1, 69186.91, 0.0, 10.001065, 9.9986105 
1.4150247e+3, 1.9397575e+2, -932744.94, -1132631.0, -8527.611, -0.04013811, 0.13510549, -932381.8, 106668.74, 0.0, 10.001305, 9.998655 
1.4150324e+3, 2.0397437e+2, -853182.9, -1039527.6, -30393.814, -0.056109983, 0.13101591, -848350.75, 92714.08, 0.0, 10.001162, 9.998692 
1.4150406e+3, 2.1397324e+2, -851034.25, -979154.44, -40050.85, 0.00049978396, 0.14036931, -839544.6, 3532.1865, 0.0, 10.000467, 9.998767 
1.415049e+3, 2.2397225e+2, -766939.3, -808692.9, -15552.696, 0.03005018, 0.1354504, -761782.9, -16697.225, 0.0, 10.000032, 9.999473 
1.4150573e+3, 2.339715e+2, -663284.7, -691526.1, -3023.5388, 0.017418794, 0.09883024, -662964.6, -15875.18, 0.0, 10.0, 9.999621 
1.4150657e+3, 2.4397084e+2, -650381.94, -738981.94, -12350.478, 0.013747756, 0.11337919, -648692.5, -99596.9, 0.0, 9.9998665, 9.998685 
1.4150742e+3, 2.5397024e+2, -594776.5, -665382.0, -33720.555, 0.027671654, 0.18695807, -581259.56, -130154.336, 0.0, 9.999593, 9.99865 
1.4150827e+3, 2.639694e+2, -478150.75, -418591.4, -33189.043, 0.03850914, 0.183151, -403780.25, -50666.05, 0.0, 9.999119, 9.999898 
1.415091e+3, 2.7396825e+2, -477920.0, -342570.3, -9659.746, 0.037822817, 0.05922435, -341884.4, -86763.57, 0.0, 9.998341, 10.000121 
1.4150992e+3, 2.8396806e+2, -456276.56, -314664.4, 16435.08, 0.0035127802, 0.03876383, -312782.03, -155660.8, 0.0, 9.997958, 9.9998255 
1.4151074e+3, 2.9396898e+2, -328366.66, -201273.53, 8385.886, -0.062392414, 0.14325623, -200722.6, -141608.89, 0.0, 9.998157, 9.999836 
1.4151163e+3, 3.0396846e+2, -317422.38, -235866.61, -36847.17, -0.014851915, 0.14103845, -221684.97, -221684.97, 0.0, 9.998178, 9.999255 
1.4151244e+3, 3.1396738e+2, -202124.78, 67307.48, -22325.36, 0.018333318, 0.09836386, 69144.84, 69144.84, 0.0, 9.997899, 10.001472 
1.424971e+3, 1.2397587e+2, -1376078.8, -1855254.8, 14048.793, 0.06637333, 0.09428019, -1375667.3, 349380.16, 0.010011913, 10.003665, 9.997271 
1.4249803e+3, 1.3397461e+2, -1244931.5, -1598369.6, 27693.74, 0.1515123, 0.12854044, -1242774.8, 384288.3, 0.0058154534, 10.003264, 9.998556 
1.4249866e+3, 1.4397404e+2, -1209044.8, -1502482.5, 19233.104, -0.09859928, 0.19986904, -1207789.5, 321279.78, 0.002423067, 10.002707, 9.998806 
1.4249964e+3, 1.5397175e+2, -1208371.0, -1450289.6, -5747.223, 0.07649405, 0.08783682, -1208234.5, 222855.02, 0.00057589856, 10.0020275, 9.998818 
1.4250048e+3, 1.6397016e+2, -1163650.1, -1378913.3, -36406.406, 0.14063251, 0.051561274, -1157659.6, 175444.95, 0.00004378684, 10.001664, 9.998811 
1.4250113e+3, 1.7396992e+2, -1044747.94, -1262078.9, -40774.31, 0.071946, 0.13735259, -1037349.94, 197759.0, 0.00000008454083, 10.001772, 9.998886 
1.4250183e+3, 1.8396926e+2, -993156.5, -1194602.3, -17143.162, 0.015515097, 0.18769093, -991708.06, 145408.36, 0.0, 10.001487, 9.998815 
1.4250256e+3, 1.9396794e+2, -1012950.8, -1146323.4, 1469.2659, -0.033280972, 0.16751724, -1012934.6, 26193.908, 0.0, 10.0006485, 9.998878 
1.4250334e+3, 2.0396653e+2, -981421.75, -1095235.9, 2071.74, -0.039934002, 0.14631335, -981384.06, -40241.926, 0.0, 10.000256, 9.998744 
1.4250414e+3, 2.1396501e+2, -839674.56, -970252.06, 10885.592, 0.01804765, 0.114039965, -838773.3, 4383.7646, 0.0, 10.00053, 9.998797 
1.4250495e+3, 2.2396392e+2, -709782.7, -801083.25, 34210.06, 0.044111185, 0.103305764, -698386.7, 46780.59, 0.0, 10.000509, 9.999296 
1.4250574e+3, 2.3396344e+2, -670062.4, -716173.8, 12601.927, 0.019983456, 0.11286899, -666843.1, -19673.209, 0.0, 10.000047, 9.999428 
1.4250654e+3, 2.4396282e+2, -683528.0, -746338.94, 1359.9249, 0.010848672, 0.14192694, -683498.6, -134322.69, 0.0, 9.999602, 9.998761 
1.4250734e+3, 2.5396204e+2, -645720.7, -677424.7, 27577.203, 0.027031753, 0.1844834, -629764.06, -178577.45, 0.0, 9.999189, 9.99876 
1.4250816e+3, 2.6396123e+2, -510849.78, -429563.25, 37547.25, 0.04179188, 0.17640589, -414874.13, -61679.36, 0.0, 9.998874, 9.999941 
1.4250895e+3, 2.7396047e+2, -421601.38, -311741.06, 14948.698, 0.04637249, 0.08431032, -309743.3, -54545.28, 0.0, 9.998709, 10.000156 
1.4250976e+3, 2.8396016e+2, -389449.75, -304745.75, 31388.158, 0.011271073, 0.06389363, -294382.38, -137182.84, 0.0, 9.998512, 9.999626 
1.4251058e+3, 2.9396048e+2, -328891.66, -226732.45, 23153.188, -0.06297231, 0.12890993, -221730.02, -162531.16, 0.0, 9.998263, 9.999608 
1.4251144e+3, 3.0396035e+2, -350594.5, -240921.02, -28014.754, -0.018015519, 0.17457834, -234179.39, -234179.39, 0.0, 9.997903, 9.999352 
1.425122e+3, 3.1395933e+2, -264256.2, 55856.25, -11499.362, 0.012157365, 0.11991811, 56268.81, 56268.81, 0.0, 9.997391, 10.001639 
1.4349736e+3, 1.239678e+2, -1349171.8, -1797707.4, 3598.813, -0.04415944, 0.13721706, -1349142.9, 375984.3, 0.010506618, 10.003661, 9.997667 
1.434984e+3, 1.3396597e+2, -1214498.0, -1533517.8, 12376.379, 0.19220857, 0.07100821, -1214018.6, 413126.63, 0.006123269, 10.00326, 9.999006 
1.4349903e+3, 1.439654e+2, -1221749.6, -1529797.8, -7565.4727, 0.0017043783, 0.12617807, -1221563.9, 307587.88, 0.002563054, 10.002708, 9.998618 
1.4349984e+3, 1.5396437e+2, -1225530.0, -1487029.5, -31304.676, 0.05877748, 0.16560096, -1221834.8, 209329.6, 0.0006133788, 10.002031, 9.998565 
1.4350055e+3, 1.6396327e+2, -1169629.3, -1392340.3, -37164.496, 0.055814274, 0.19631712, -1163591.3, 169585.86, 0.000047750204, 10.001667, 9.998717 
1.4350124e+3, 1.7396232e+2, -1050251.0, -1273312.6, -36727.715, -0.008602321, 0.21819638, -1044359.25, 190828.56, 0.00000010052836, 10.001769, 9.998811 
1.4350194e+3, 1.8396136e+2, -966634.1, -1138826.5, -47000.137, -0.023827361, 0.22542852, -954640.7, 182556.48, 0.0, 10.001482, 9.999201 
1.435027e+3, 1.9396037e+2, -981641.75, -1082279.6, -30254.936, 0.02837976, 0.19336279, -973246.5, 65957.87, 0.0, 10.00065, 9.999317 
1.4350344e+3, 2.0395914e+2, -960507.4, -1051374.1, 7171.939, 0.047367327, 0.15249436, -959944.75, -18730.408, 0.0, 10.000253, 9.999047 
1.4350419e+3, 2.139576e+2, -819742.3, -928787.0, 21768.104, 0.020335177, 0.0873713, -815557.44, 27670.559, 0.0, 10.000528, 9.9990835 
1.4350495e+3, 2.2395647e+2, -748144.6, -879622.94, 18405.422, 0.00014695294, 0.08379944, -745616.7, -378.01617, 0.0, 10.000504, 9.99876 
1.435057e+3, 2.3395602e+2, -715148.9, -808960.5, -4161.5527, -0.0118497955, 0.15771405, -714964.6, -67720.15, 0.0, 10.000041, 9.998795 
1.4350648e+3, 2.4395517e+2, -640720.25, -656371.2, -14447.996, -0.007650841, 0.16871147, -632114.6, -82861.69, 0.0, 9.999596, 9.999383 
1.4350727e+3, 2.5395375e+2, -591960.56, -566191.44, 13261.365, 0.023113405, 0.07322499, -560586.1, -109321.47, 0.0, 9.999189, 9.999525 
1.4350805e+3, 2.639531e+2, -538274.25, -487137.5, 30863.027, 0.0317986, 0.05642366, -472627.6, -119357.6, 0.0, 9.998875, 9.999546 
1.4350879e+3, 2.7395362e+2, -459193.8, -389880.8, 11160.231, 0.003199369, 0.14328212, -388128.22, -132862.84, 0.0, 9.998708, 9.999622 
1.4350958e+3, 2.8395328e+2, -408914.53, -345127.06, 23625.594, -0.015088101, 0.16352753, -337329.75, -180060.39, 0.0, 9.99851, 9.999351 
1.4351045e+3, 2.939518e+2, -348974.4, -265545.53, 16691.754, -0.00419136, 0.076020814, -262329.94, -203044.78, 0.0, 9.998249, 9.99935 
1.435113e+3, 3.0395177e+2, -333556.28, -203108.63, -45433.97, 0.046136588, 0.13253944, -188844.13, -188844.13, 0.0, 9.997892, 9.999618 
1.4351189e+3, 3.1395167e+2, -254147.9, 76384.195, -30292.998, -0.03078087, 0.14036052, 79137.59, 79137.59, 0.0, 9.997393, 10.00178 
1.4449768e+3, 1.2395963e+2, -1360021.3, -1773262.4, -11205.837, -0.08051168, 0.17171903, -1359717.6, 365491.5, 0.011047917, 10.003463, 9.99793 
1.4449869e+3, 1.3395779e+2, -1329231.1, -1556608.5, -27322.768, 0.20363596, 0.0737191, -1325994.0, 301232.0, 0.00646129, 10.00233, 9.999293 
1.4449929e+3, 1.4395723e+2, -1360558.4, -1584226.9, -24397.652, 0.03230228, 0.110624045, -1357928.0, 171303.95, 0.0027186894, 10.0017, 9.998729 
1.4449999e+3, 1.5395688e+2, -1241451.4, -1483044.8, -20521.62, 0.031261016, 0.20815517, -1239720.6, 191518.33, 0.0006559602, 10.001874, 9.998666 
1.4450069e+3, 1.6395602e+2, -1147223.5, -1370206.6, -1530.8328, 0.011949911, 0.25063875, -1147213.0, 186036.81, 0.000052490832, 10.001778, 9.998813 
1.4450139e+3, 1.7395456e+2, -1110615.9, -1292155.1, 9059.0205, -0.004654689, 0.21313547, -1110165.0, 125099.36, 0.00000012546444, 10.001313, 9.9989 
1.4450209e+3, 1.8395343e+2, -1020715.06, -1154841.3, -9624.065, 0.0011856704, 0.19481114, -1020028.0, 117246.78, 0.0, 10.001068, 9.9992895 
1.4450279e+3, 1.939528e+2, -902320.3, -1033991.25, -21939.063, 0.029133692, 0.19115314, -898761.0, 140517.77, 0.0, 10.001154, 9.999405 
1.4450349e+3, 2.0395187e+2, -852200.56, -991703.44, 1142.4785, 0.038291942, 0.17113438, -852191.2, 89094.91, 0.0, 10.000965, 9.999113 
1.4450423e+3, 2.1395047e+2, -838305.2, -930339.75, -1721.9935, 0.023123452, 0.11478283, -838273.0, 5024.8853, 0.0, 10.000372, 9.999147 
1.4450498e+3, 2.2394934e+2, -825963.25, -922471.8, -453.53888, 0.0068036937, 0.10954052, -825961.1, -80652.55, 0.0, 9.999993, 9.998711 
1.445057e+3, 2.3394865e+2, -734971.44, -826039.0, 16273.818, -0.014582066, 0.166572, -732150.7, -84833.516, 0.0, 9.999938, 9.998727 
1.4450644e+3, 2.4394768e+2, -597045.5, -608225.1, 14688.054, -0.014385714, 0.15793492, -586919.56, -37593.12, 0.0, 9.999778, 9.999627 
1.445072e+3, 2.539463e+2, -532711.3, -506364.38, 4160.983, 0.018883228, 0.03913728, -505722.84, -54386.79, 0.0, 9.99946, 9.999805 
1.4450794e+3, 2.6394576e+2, -513936.75, -507957.47, 11336.188, 0.030989487, 0.032554664, -499223.3, -145883.17, 0.0, 9.999182, 9.999255 
1.4450867e+3, 2.739465e+2, -447195.44, -423357.22, 3568.603, 0.0073816213, 0.1767581, -422834.44, -167498.64, 0.0, 9.9989605, 9.9992695 
1.4450945e+3, 2.839461e+2, -395991.2, -320710.53, 29092.264, -0.005754388, 0.20066531, -310778.22, -153436.75, 0.0, 9.99852, 9.999514 
1.4451027e+3, 2.9394415e+2, -405293.16, -268091.6, 53432.313, 0.008922768, 0.043048125, -249737.9, -190377.63, 0.0, 9.997755, 9.99957 
1.4451106e+3, 3.039445e+2, -377058.0, -212540.1, 27302.752, 0.048832446, 0.11923268, -208127.39, -208127.39, 0.0, 9.997544, 9.999721 
1.4451164e+3, 3.139446e+2, -157083.77, 100103.68, 19110.404, -0.05036171, 0.13985875, 101515.93, 101515.93, 0.0, 9.99816, 10.001572 
1.4549805e+3, 1.2395148e+2, -1352251.3, -1758621.9, -47988.79, -0.051445454, 0.19725396, -1346661.1, 378631.2, 0.011640448, 10.0034685, 9.998029 
1.454989e+3, 1.339501e+2, -1322999.9, -1544119.9, -70576.96, 0.18304747, 0.13674101, -1302393.5, 324911.16, 0.0068325973, 10.002331, 9.999381 
1.4549941e+3, 1.439496e+2, -1330733.9, -1522196.1, -25613.285, -0.011588094, 0.15572737, -1327366.6, 201942.53, 0.0028915813, 10.0017, 9.999155 
1.4550014e+3, 1.5394935e+2, -1209135.9, -1415071.8, -13482.758, -0.011700397, 0.21608524, -1208256.9, 223055.81, 0.00070428615, 10.001871, 9.999134 
1.4550085e+3, 1.6394843e+2, -1128463.8, -1332361.9, -18362.928, 0.0008474469, 0.21554112, -1126823.3, 206498.73, 0.000058062662, 10.00178, 9.999073 
1.455016e+3, 1.7394663e+2, -1093079.1, -1257413.9, -8279.145, 0.07809658, 0.1208974, -1092663.1, 142675.03, 0.00000016567238, 10.001317, 9.999139 
1.4550228e+3, 1.8394548e+2, -1036438.0, -1186682.4, -9874.294, 0.08344878, 0.09605391, -1035791.8, 101557.14, 0.0, 10.001064, 9.999073 
1.4550285e+3, 1.9394529e+2, -921588.06, -1073789.0, -18474.05, -0.03286509, 0.16089144, -919377.8, 119973.71, 0.0, 10.001152, 9.999132 
1.4550349e+3, 2.0394471e+2, -865311.06, -1018094.5, -20326.848, -0.069344945, 0.20189372, -862652.94, 78704.164, 0.0, 10.000959, 9.998936 
1.4550427e+3, 2.1394365e+2, -849793.7, -954102.75, -23803.219, 0.020932755, 0.19492435, -844618.56, -1252.0568, 0.0, 10.000369, 9.998986 
1.4550503e+3, 2.2394252e+2, -798218.5, -862877.56, -5656.919, 0.056876387, 0.18007489, -797727.3, -52350.523, 0.0, 9.999984, 9.9991255 
1.4550573e+3, 2.3394135e+2, -701551.6, -755796.3, 15069.287, 0.008035898, 0.13899502, -697646.44, -50258.438, 0.0, 9.999932, 9.999212 
1.4550643e+3, 2.4394035e+2, -606985.2, -627525.6, 3326.8982, -0.0123499585, 0.10823418, -606459.8, -57063.098, 0.0, 9.99977, 9.999498 
1.4550714e+3, 2.5393972e+2, -547796.0, -536357.75, -6553.872, 0.010346382, 0.08153375, -533378.5, -81977.73, 0.0, 9.999453, 9.999604 
1.4550786e+3, 2.6393926e+2, -529093.3, -537185.8, 3044.6567, 0.033144087, 0.10410677, -528075.75, -174670.61, 0.0, 9.999171, 9.99906 
1.4550862e+3, 2.739392e+2, -462404.75, -452428.94, -2796.9473, 0.052054804, 0.184503, -451698.28, -196288.7, 0.0, 9.998948, 9.999076 
1.4550933e+3, 2.839386e+2, -353641.1, -231948.4, 3056.3933, 0.03436228, 0.1751377, -231871.69, -74455.53, 0.0, 9.998515, 10.000127 
1.4551e+3, 2.939375e+2, -356686.2, -167692.8, 26564.707, -0.026063204, 0.030979082, -164029.89, -104605.54, 0.0, 9.997755, 10.00026 
1.4551075e+3, 3.0393845e+2, -381350.66, -223274.17, 46184.074, -0.013882452, 0.13541262, -210770.0, -210770.0, 0.0, 9.997551, 9.999643 
1.4551146e+3, 3.139383e+2, -202663.17, 8253.703, 41175.68, -0.059701815, 0.14486703, 16007.096, 16007.096, 0.0, 9.998147, 10.000948 
1.464984e+3, 1.2394367e+2, -1540774.8, -1843173.3, 17479.063, 0.0049725343, 0.1689007, -1539767.8, 185600.7, 0.012283001, 10.002129, 9.998093 
1.4649913e+3, 1.3394286e+2, -1259467.8, -1510194.6, -16010.619, 0.14590658, 0.16044493, -1258449.5, 368926.16, 0.00723705, 10.002757, 9.99941 
1.4649957e+3, 1.4394218e+2, -1179362.3, -1445665.1, 11129.193, -0.07809688, 0.1607982, -1178898.0, 350483.56, 0.0030819494, 10.002732, 9.999183 
1.465003e+3, 1.5394157e+2, -1215020.0, -1414311.9, -12824.041, -0.029579787, 0.18004662, -1214198.1, 217189.8, 0.0007585455, 10.001816, 9.999165 
1.4650102e+3, 1.6394061e+2, -1193201.8, -1342708.1, -32588.525, 0.011550726, 0.16713037, -1186407.1, 146989.58, 0.00006440502, 10.0012455, 9.999259 
1.4650173e+3, 1.7393933e+2, -1093930.9, -1233814.9, -26340.514, 0.08622894, 0.1014096, -1089135.3, 146272.16, 0.00000022299002, 10.001212, 9.999349 
1.4650239e+3, 1.8393832e+2, -1048897.6, -1217754.3, -22962.299, 0.08939744, 0.091769494, -1045830.7, 91586.06, 0.0, 10.00109, 9.998846 
1.4650294e+3, 1.9393781e+2, -985876.75, -1136345.3, -32734.082, -0.03095314, 0.15186647, -979064.0, 60359.87, 0.0, 10.000849, 9.998849 
1.4650357e+3, 2.0393704e+2, -918652.4, -1040716.44, -39438.605, -0.07037274, 0.18814941, -907018.7, 34413.42, 0.0, 10.000582, 9.998961 
1.465043e+3, 2.1393599e+2, -860068.1, -952495.94, -30345.18, 0.016327502, 0.177601, -850995.94, -7554.817, 0.0, 10.000272, 9.999043 
1.4650501e+3, 2.2393496e+2, -796201.25, -836177.75, -2421.92, 0.055291094, 0.15844975, -796055.06, -50604.855, 0.0, 9.9998865, 9.999355 
1.465057e+3, 2.3393397e+2, -764775.75, -758120.3, -254.28773, 0.018251132, 0.11111372, -758110.6, -110651.65, 0.0, 9.999378, 9.999463 
1.4650637e+3, 2.4393322e+2, -718072.3, -698140.8, -17177.691, -0.006708677, 0.09756262, -688247.3, -138781.67, 0.0, 9.9990835, 9.999344 
1.4650704e+3, 2.539329e+2, -612923.6, -590300.5, -28727.854, -0.012831342, 0.12264599, -570737.5, -119268.945, 0.0, 9.9991045, 9.9994 
1.4650774e+3, 2.639324e+2, -558768.56, -537992.06, -15365.164, 0.009103979, 0.1475068, -529833.0, -176359.19, 0.0, 9.998909, 9.99918 
1.4650851e+3, 2.7393177e+2, -533503.0, -469133.25, 1691.9116, 0.06941417, 0.15577899, -469088.8, -213606.6, 0.0, 9.9983835, 9.999233 
1.4650919e+3, 2.8393117e+2, -420917.72, -261639.3, 2812.8022, 0.054814503, 0.13434774, -261589.64, -104101.14, 0.0, 9.998042, 10.00015 
1.4650977e+3, 2.9393086e+2, -320438.16, -149413.38, -26518.955, -0.06114513, 0.068757355, -145395.75, -85905.89, 0.0, 9.998003, 10.000265 
1.4651048e+3, 3.0393207e+2, -309571.75, -185746.66, -3945.5742, -0.060307104, 0.19629645, -185621.06, -185621.06, 0.0, 9.998032, 9.999668 
1.465113e+3, 3.1393147e+2, -234623.63, -51939.25, 1238.2041, -0.026533848, 0.16080391, -51930.86, -51930.86, 0.0, 9.998121, 10.000545 
1.474987e+3, 1.239363e+2, -1538510.1, -1837537.9, 39409.4, 0.084631786, 0.08979907, -1533403.5, 192033.38, 0.012969934, 10.002125, 9.998134 
1.4749934e+3, 1.3393612e+2, -1260672.4, -1512761.3, 7396.2085, 0.08376627, 0.14503002, -1260455.6, 366982.63, 0.0076708426, 10.002758, 9.999392 
1.4749974e+3, 1.4393507e+2, -1204860.9, -1502258.6, -19406.184, -0.17862442, 0.12721176, -1203599.9, 325848.44, 0.0032881629, 10.002746, 9.998788 
1.4750049e+3, 1.5393357e+2, -1244827.5, -1477082.8, -47315.59, -0.026309306, 0.099684, -1235558.1, 195905.95, 0.00081847684, 10.001818, 9.998734 
1.4750116e+3, 1.6393262e+2, -1185920.1, -1327089.9, -39478.992, 0.038458034, 0.10657981, -1175629.6, 157843.7, 0.000071419374, 10.001243, 9.999368 
1.4750178e+3, 1.7393264e+2, -1081748.9, -1209126.5, -27568.635, 0.015824411, 0.15481387, -1076038.3, 159433.56, 0.0000002932695, 10.001214, 9.999518 
1.4750242e+3, 1.8393199e+2, -1065538.0, -1253052.5, -32658.725, 0.012961126, 0.18174005, -1060012.8, 77465.266, 0.0, 10.001091, 9.998604 
1.475031e+3, 1.939304e+2, -1005745.8, -1178608.9, -41504.8, 0.028608778, 0.16307765, -996296.94, 43198.63, 0.0, 10.000851, 9.998559 
1.4750372e+3, 2.0392886e+2, -905694.4, -1011949.6, -52022.32, 0.02755825, 0.1301127, -884465.6, 57045.074, 0.0, 10.000572, 9.999165 
1.4750431e+3, 2.1392754e+2, -842139.2, -914377.7, -41598.313, 0.0059356545, 0.06394894, -823167.4, 20354.023, 0.0, 10.000268, 9.999308 
1.4750496e+3, 2.2392666e+2, -794244.06, -830942.3, -21755.994, -0.00034542236, 0.045547925, -784132.44, -38603.97, 0.0, 9.99988, 9.999396 
1.4750563e+3, 2.3392656e+2, -763756.4, -755871.44, -18471.047, 0.011940252, 0.08400641, -740926.8, -93397.086, 0.0, 9.999376, 9.99948 
1.4750628e+3, 2.4392629e+2, -732533.5, -726652.5, -18611.432, -0.0022195866, 0.12593238, -710750.7, -161217.5, 0.0, 9.999075, 9.999153 
1.4750691e+3, 2.5392583e+2, -629400.56, -622308.7, -26214.586, -0.05469962, 0.16146967, -599401.3, -147861.95, 0.0, 9.999094, 9.9991865 
1.4750758e+3, 2.639252e+2, -529757.06, -476544.7, -32172.807, -0.04432237, 0.16228142, -461401.88, -107855.734, 0.0, 9.998902, 9.999606 
1.4750832e+3, 2.7392426e+2, -498876.38, -396850.28, -16199.954, 0.056302123, 0.09335238, -394339.78, -138786.05, 0.0, 9.998381, 9.999732 
1.4750898e+3, 2.8392377e+2, -460240.34, -343164.6, -188.83345, 0.05125969, 0.08090118, -343164.28, -185605.83, 0.0, 9.998041, 9.999591 
1.4750952e+3, 2.9392418e+2, -369859.63, -250431.67, -25396.516, -0.10225098, 0.15473261, -245255.42, -185698.38, 0.0, 9.997994, 9.999577 
1.4751026e+3, 3.0392528e+2, -299638.6, -164050.02, 514.6647, -0.09550116, 0.29797307, -164048.06, -164048.06, 0.0, 9.998025, 9.999822 
1.4751118e+3, 3.1392434e+2, -248560.94, -76913.84, 6408.1777, 0.036377493, 0.20941429, -76674.93, -76674.93, 0.0, 9.998103, 10.000383 
1.4849891e+3, 1.23929314e+2, -1367572.1, -1755309.9, 24356.13, 0.038172837, 0.07062981, -1366048.3, 359455.22, 0.013700746, 10.003325, 9.998117 
1.484996e+3, 1.3392931e+2, -1330019.5, -1555679.3, -20282.451, 0.095320016, 0.15122634, -1328211.0, 299292.72, 0.00813248, 10.002321, 9.999305 
1.4850001e+3, 1.4392792e+2, -1352049.6, -1572440.9, -43285.68, -0.1342629, 0.10326656, -1343853.0, 185664.33, 0.0035089266, 10.001729, 9.998795 
1.4850071e+3, 1.5392637e+2, -1244371.3, -1472913.4, -38926.31, 0.007257922, 0.07009055, -1237923.1, 193609.61, 0.0008836724, 10.001807, 9.998767 
1.4850132e+3, 1.6392538e+2, -1123826.0, -1325652.8, -10826.181, 0.046884034, 0.08328582, -1123246.9, 210295.42, 0.00007901186, 10.001795, 9.99911 
1.4850189e+3, 1.7392533e+2, -1035380.3, -1219754.6, -34105.49, -0.022132495, 0.15187721, -1029273.75, 206269.03, 0.00000037325287, 10.001675, 9.999223 
1.485025e+3, 1.8392457e+2, -1031568.75, -1217982.0, -60685.477, -0.03461804, 0.17696181, -1013554.0, 123996.28, 0.0, 10.001245, 9.998771 
1.4850314e+3, 1.9392286e+2, -1063152.9, -1180829.9, -35559.625, 0.023225788, 0.1260956, -1053242.1, -13674.765, 0.0, 10.00035, 9.998783 
1.4850375e+3, 2.0392141e+2, -1006266.0, -1048060.25, -11995.357, 0.040570877, 0.0821461, -1003067.94, -61486.582, 0.0, 9.999831, 9.999272 
1.4850432e+3, 2.1392035e+2, -892966.3, -929303.2, -13871.635, 0.000355993, 0.03510382, -888276.2, -44686.273, 0.0, 9.999878, 9.9993925 
1.4850491e+3, 2.2391966e+2, -816133.6, -857899.44, -15046.031, -0.020211872, 0.03641427, -811277.9, -65681.836, 0.0, 9.999804, 9.999246 
1.4850554e+3, 2.3391958e+2, -753293.75, -771906.7, -30356.416, -0.016753253, 0.09566495, -730849.25, -83251.4, 0.0, 9.999541, 9.9992895 
1.4850618e+3, 2.439192e+2, -712967.0, -713930.2, -25558.94, -0.025591087, 0.13652766, -687885.1, -138282.33, 0.0, 9.999197, 9.99918 
1.485068e+3, 2.5391847e+2, -680029.06, -641178.9, -15364.98, -0.05258462, 0.13703088, -635836.7, -184225.3, 0.0, 9.998724, 9.999234 
1.4850746e+3, 2.639178e+2, -572256.4, -475869.63, -14957.3955, -0.04376111, 0.1264089, -473601.88, -119984.12, 0.0, 9.998522, 9.999793 
1.4850815e+3, 2.7391732e+2, -432628.0, -341874.16, -21823.158, 0.013752228, 0.08281208, -336899.16, -81278.9, 0.0, 9.998738, 9.999936 
1.4850877e+3, 2.8391695e+2, -394857.7, -348482.56, -13791.049, 0.0070463023, 0.08712766, -344691.3, -187067.53, 0.0, 9.998651, 9.99926 
1.4850934e+3, 2.93917e+2, -383544.3, -301854.72, -21436.398, -0.08602441, 0.15986186, -296571.25, -236943.81, 0.0, 9.998095, 9.999174 
1.4851005e+3, 3.039174e+2, -336147.94, -150820.92, 27811.922, -0.07507428, 0.24831209, -146737.19, -146737.19, 0.0, 9.997643, 10.000095 
1.4851092e+3, 3.139171e+2, -353111.16, -111068.09, 37582.348, 0.010726133, 0.18832032, -105366.92, -105366.92, 0.0, 9.997317, 10.0005245 
1.4949907e+3, 1.2392285e+2, -1374256.9, -1769619.0, -9642.136, -0.1421498, 0.11760056, -1374021.9, 351545.1, 0.014485405, 10.00333, 9.998017 
1.4949991e+3, 1.3392247e+2, -1343843.4, -1583835.3, -58529.563, 0.17878838, 0.17924136, -1330330.0, 297241.56, 0.008627366, 10.00232, 9.999111 
1.4950037e+3, 1.4392075e+2, -1321862.5, -1510961.4, -46933.586, 0.051401958, 0.09008491, -1310854.6, 218733.47, 0.0037456865, 10.001734, 9.999216 
1.4950094e+3, 1.5392002e+2, -1209533.1, -1401242.4, -35795.438, 0.06479976, 0.090754956, -1203067.6, 228525.55, 0.0009542572, 10.001809, 9.999258 
1.4950149e+3, 1.6391897e+2, -1167316.4, -1417162.0, -16161.852, 0.028626073, 0.09729082, -1166275.3, 167327.72, 0.00008722728, 10.001799, 9.998481 
1.4950205e+3, 1.7391741e+2, -1089278.3, -1332065.0, -38505.87, -0.031533185, 0.09263838, -1083317.6, 152302.45, 0.0000004647829, 10.001675, 9.998452 
1.495026e+3, 1.8391609e+2, -993157.9, -1137128.9, -92765.7, -0.058680125, 0.078629196, -947723.7, 189909.45, 0.0, 10.001239, 9.999329 
1.495031e+3, 1.9391525e+2, -1011880.8, -1075530.4, -69337.14, -0.050000463, 0.041480616, -967413.7, 72225.42, 0.0, 10.000354, 9.999504 
1.4950366e+3, 2.0391464e+2, -1005962.1, -1047803.6, -15219.141, -0.034777176, 0.04377769, -1001012.06, -59368.22, 0.0, 9.999831, 9.999275 
1.495043e+3, 2.1391445e+2, -898505.94, -940747.0, -11651.429, -0.005211674, 0.09027015, -895505.25, -51858.76, 0.0, 9.999877, 9.999315 
1.495049e+3, 2.2391394e+2, -842657.1, -911519.44, -24893.428, -0.010456569, 0.12926847, -834600.8, -88948.1, 0.0, 9.999796, 9.998882 
1.4950545e+3, 2.3391302e+2, -781486.44, -829281.5, -39553.035, -0.07115385, 0.14529309, -759172.1, -111508.67, 0.0, 9.999536, 9.998899 
1.4950605e+3, 2.4391195e+2, -698399.7, -682505.75, -42368.055, -0.08075416, 0.12988548, -647345.8, -97671.56, 0.0, 9.99919, 9.9994 
1.4950672e+3, 2.5391075e+2, -660054.25, -598758.0, -31629.959, -0.011676747, 0.051801693, -585363.44, -133678.75, 0.0, 9.998719, 9.999528 
1.4950736e+3, 2.639102e+2, -576266.9, -482524.38, -9274.316, 0.004721147, 0.041320983, -481615.63, -127926.914, 0.0, 9.998513, 9.999752 
1.4950794e+3, 2.7391088e+2, -439977.34, -354324.06, -11527.476, -0.06252482, 0.121265665, -352799.78, -97117.52, 0.0, 9.998725, 9.999857 
1.4950855e+3, 2.839107e+2, -405123.97, -367891.22, -30767.984, -0.08189271, 0.1507995, -350545.97, -192861.1, 0.0, 9.99864, 9.999132 
1.4950922e+3, 2.9390925e+2, -394875.5, -323948.7, -39584.27, -0.020709297, 0.088935204, -306265.4, -246564.4, 0.0, 9.998087, 9.999027 
1.4950989e+3, 3.039085e+2, -310162.28, -95608.95, 15774.477, -0.007858653, 0.05387406, -94455.375, -94455.375, 0.0, 9.997637, 10.000478 
1.4951053e+3, 3.1390974e+2, -323483.53, -46960.36, 29652.787, -0.11178112, 0.100313805, -43816.31, -43816.31, 0.0, 9.997306, 10.000971 
1.5049937e+3, 1.23916164e+2, -1406536.0, -1788077.6, 18017.098, -0.1596226, 0.07804204, -1405687.0, 319944.1, 0.01533617, 10.003117, 9.997994 
1.5050016e+3, 1.339161e+2, -1318534.6, -1584944.0, -32481.38, 0.17297858, 0.18064015, -1314631.6, 313001.75, 0.0091627855, 10.002554, 9.998991 
1.5050057e+3, 1.4391412e+2, -1266747.0, -1495959.0, -5906.5376, 0.045226227, 0.07832343, -1266594.9, 263057.7, 0.0040015904, 10.002166, 9.99911 
1.5050113e+3, 1.539135e+2, -1167159.9, -1392339.9, -38249.55, 0.058479615, 0.09797635, -1160840.1, 270816.5, 0.001031135, 10.002149, 9.999157 
1.5050167e+3, 1.639124e+2, -1154121.9, -1405236.4, -34297.914, 0.031463925, 0.1043203, -1149521.6, 184144.98, 0.000096309515, 10.001864, 9.998532 
1.5050222e+3, 1.7391062e+2, -1158233.0, -1356639.5, 2804.3352, -0.0036652647, 0.06957819, -1158193.4, 77492.375, 0.000000575819, 10.001165, 9.9985285 
1.5050274e+3, 1.8390927e+2, -1053063.4, -1161787.1, -30383.55, -0.028605718, 0.047948904, -1045148.7, 92550.28, 0.0, 10.000812, 9.999363 
1.5050316e+3, 1.9390872e+2, -914834.2, -1026559.1, -59926.68, -0.056491368, 0.037359744, -888770.94, 150931.36, 0.0, 10.001011, 9.999524 
1.5050367e+3, 2.0390826e+2, -874937.3, -1006199.4, -41035.8, -0.05824444, 0.061887693, -863164.44, 78541.83, 0.0, 10.000825, 9.999082 
1.5050429e+3, 2.1390799e+2, -889249.44, -961179.06, -50500.477, -0.01763617, 0.12377252, -863216.1, -19505.518, 0.0, 10.00005, 9.999091 
1.5050487e+3, 2.2390734e+2, -876549.06, -924832.25, -49057.188, -0.012536338, 0.15965392, -846015.0, -100296.4, 0.0, 9.999552, 9.998907 
1.5050541e+3, 2.3390616e+2, -786039.1, -825912.75, -31974.416, -0.06455669, 0.14509037, -768295.1, -120564.04, 0.0, 9.999481, 9.998948 
1.5050597e+3, 2.4390501e+2, -684001.75, -658546.4, -29458.88, -0.068148956, 0.11140255, -639183.25, -89441.33, 0.0, 9.999219, 9.999549 
1.5050659e+3, 2.5390393e+2, -655597.06, -578938.75, -32536.063, -0.00038587852, 0.03242554, -566991.44, -115241.63, 0.0, 9.998675, 9.999684 
1.505072e+3, 2.639035e+2, -628139.0, -518909.38, -2117.1587, 0.0061266725, 0.024159847, -518868.34, -165115.22, 0.0, 9.998209, 9.999648 
1.5050775e+3, 2.7390414e+2, -576742.75, -435632.22, -8948.403, -0.082522094, 0.11457048, -435067.03, -179318.73, 0.0, 9.997854, 9.999718 
1.5050834e+3, 2.8390405e+2, -514664.8, -384345.6, -17839.244, -0.10675266, 0.14756323, -381947.72, -224197.81, 0.0, 9.997733, 9.999456 
1.5050901e+3, 2.939028e+2, -385188.47, -275766.6, 9019.214, -0.029014781, 0.07256644, -275028.16, -215266.55, 0.0, 9.997969, 9.999414 
1.5050966e+3, 3.0390167e+2, -290364.75, -86893.93, 60429.19, -0.016124675, -0.026212044, -70300.22, -70300.22, 0.0, 9.997776, 10.000473 
1.5051025e+3, 3.1390324e+2, -373426.66, -55819.53, 35244.457, -0.1065169, 0.060069103, -51955.508, -51955.508, 0.0, 9.996897, 10.001108 
1.5149984e+3, 1.239094e+2, -1400962.3, -1775619.1, -2154.4768, -0.015677791, -0.038721476, -1400949.9, 324744.72, 0.016257105, 10.003116, 9.99808 
1.515003e+3, 1.3391024e+2, -1320364.5, -1589491.9, -54149.11, 0.07219595, 0.15588859, -1309878.1, 317810.25, 0.009740974, 10.002557, 9.998959 
1.5150057e+3, 1.4390811e+2, -1311607.4, -1590456.3, -11058.893, -0.16144666, 0.06926471, -1311169.4, 218540.66, 0.0042781597, 10.002171, 9.99846 
1.5150127e+3, 1.5390679e+2, -1217812.8, -1497572.3, -38243.58, -0.01547138, 0.092409074, -1212679.0, 219043.53, 0.0011151112, 10.002148, 9.998435 
1.5150188e+3, 1.6390571e+2, -1101820.3, -1297052.9, -59426.027, 0.049931996, 0.10582567, -1085154.5, 248578.23, 0.000106548556, 10.001864, 9.999275 
1.515024e+3, 1.7390496e+2, -1093743.8, -1223489.3, -23822.68, 0.055670366, 0.08249809, -1089507.9, 146231.53, 0.0000007145684, 10.001167, 9.999442 
1.5150289e+3, 1.8390413e+2, -1088219.9, -1234848.4, -27707.965, 0.047719713, 0.084131286, -1083158.8, 54588.832, 0.0, 10.000811, 9.998864 
1.5150332e+3, 1.9390331e+2, -962054.0, -1124507.1, -52034.96, -0.00037477998, 0.11354789, -946816.1, 92940.65, 0.0, 10.001009, 9.998853 
1.5150377e+3, 2.0390229e+2, -904130.3, -1065809.9, -67492.55, -0.034620397, 0.1362953, -879659.56, 62108.574, 0.0, 10.000819, 9.998676 
1.5150428e+3, 2.1390101e+2, -916022.9, -1015722.25, -79268.25, -0.040780425, 0.13673748, -872232.56, -28450.67, 0.0, 10.000044, 9.998719 
1.5150481e+3, 2.238999e+2, -850088.2, -868517.75, -54969.836, -0.031709086, 0.12916614, -803566.1, -57772.79, 0.0, 9.999545, 9.999298 
1.5150543e+3, 2.3389901e+2, -752316.25, -755587.2, -33229.16, -0.0014643569, 0.09624407, -720682.4, -72881.64, 0.0, 9.999479, 9.999432 
1.5150596e+3, 2.4389836e+2, -680073.75, -649481.94, -48115.39, 0.005591598, 0.08117382, -614289.7, -64483.895, 0.0, 9.999214, 9.999615 
1.5150644e+3, 2.5389805e+2, -655000.06, -576606.3, -51623.473, -0.022748958, 0.07767998, -550985.1, -99178.125, 0.0, 9.99867, 9.999704 
1.5150698e+3, 2.638976e+2, -641696.6, -546049.0, -15539.584, -0.043446623, 0.074613, -543587.7, -189776.58, 0.0, 9.998204, 9.999465 
1.5150757e+3, 2.7389702e+2, -592479.94, -467671.03, -20128.29, -0.0519533, 0.0651301, -464505.2, -208686.84, 0.0, 9.997851, 9.999499 
1.5150815e+3, 2.8389698e+2, -461289.53, -272544.56, -11457.24, -0.074427225, 0.079912625, -271851.63, -114032.66, 0.0, 9.997727, 10.000227 
1.5150873e+3, 2.9389766e+2, -323782.53, -146679.5, 19448.71, -0.114898264, 0.10681795, -144568.88, -84758.836, 0.0, 9.997959, 10.000306 
1.5150934e+3, 3.0389675e+2, -318893.78, -144202.61, 31954.275, -0.103271924, 0.0020209795, -138541.06, -138541.06, 0.0, 9.997767, 10.000084 
1.5151006e+3, 3.1389737e+2, -382151.06, -73313.37, 8520.136, 0.008108227, 0.045873046, -73078.5, -73078.5, 0.0, 9.996894, 10.000991 
1.5250015e+3, 1.23903714e+2, -1545626.9, -1845148.8, -9049.27, 0.047149986, -0.01565669, -1545353.8, 180397.0, 0.017244656, 10.002105, 9.99809 
1.5250058e+3, 1.3390435e+2, -1228271.0, -1553959.5, -70895.98, 0.055780176, 0.16547777, -1213507.5, 414238.5, 0.010359608, 10.003237, 9.9988785 
1.525008e+3, 1.4390182e+2, -1120678.9, -1500508.5, -34470.777, -0.22115956, 0.04507165, -1117575.9, 412195.4, 0.0045741852, 10.003496, 9.998441 
1.525015e+3, 1.539005e+2, -1172831.1, -1475284.8, -12268.35, -0.03447149, 0.06628303, -1172334.3, 259449.67, 0.0012060112, 10.002455, 9.99844 
1.5250206e+3, 1.6389956e+2, -1123531.0, -1302038.9, -23725.518, 0.05525105, 0.09064185, -1120431.5, 213361.39, 0.000118081814, 10.001694, 9.999322 
1.5250252e+3, 1.7389911e+2, -1054511.5, -1199253.6, -54087.492, 0.05796002, 0.0950073, -1036533.1, 199263.44, 0.0000008766353, 10.001413, 9.999491 
1.5250298e+3, 1.838984e+2, -1053205.4, -1231628.4, -66224.516, 0.054559615, 0.11158976, -1031311.6, 106492.195, 0.0, 10.001109, 9.998743 
1.5250343e+3, 1.9389741e+2, -1008129.25, -1162737.4, -50794.063, 0.020197324, 0.13858575, -992934.9, 46880.586, 0.0, 10.000762, 9.998711 
1.5250386e+3, 2.038962e+2, -943473.1, -1077897.5, -39825.668, -0.011307143, 0.14678451, -932560.0, 9268.703, 0.0, 10.000522, 9.998735 
1.525043e+3, 2.138947e+2, -850212.4, -975738.56, -21392.646, -0.03283515, 0.11586208, -846666.75, -2823.1904, 0.0, 10.000461, 9.998794 
1.525048e+3, 2.238935e+2, -759949.6, -819449.8, 12292.981, -0.028939078, 0.09338505, -757509.9, -11654.827, 0.0, 10.00014, 9.999348 
1.5250537e+3, 2.3389277e+2, -756900.6, -752722.2, -644.6121, 0.008807693, 0.0702242, -752625.0, -104764.03, 0.0, 9.999428, 9.9994755 
1.5250589e+3, 2.4389227e+2, -724600.6, -689561.56, -36925.125, 0.0108630145, 0.078708045, -666210.56, -116345.664, 0.0, 9.998989, 9.999448 
1.5250629e+3, 2.5389224e+2, -625749.2, -584191.7, -57323.96, -0.042514667, 0.12142997, -543996.75, -92131.47, 0.0, 9.998965, 9.99951 
1.5250678e+3, 2.6389173e+2, -573917.94, -519031.1, -32224.691, -0.06760254, 0.12512802, -504147.56, -150276.92, 0.0, 9.998694, 9.999414 
1.5250736e+3, 2.7389053e+2, -568424.8, -459565.0, -26386.275, -0.049555887, 0.059137184, -453506.47, -197623.73, 0.0, 9.998033, 9.999468 
1.5250793e+3, 2.8389037e+2, -489644.84, -270024.6, -14924.285, -0.05767293, 0.057157192, -269015.06, -111130.984, 0.0, 9.997464, 10.000372 
1.5250848e+3, 2.938917e+2, -447011.4, -187761.42, -38393.44, -0.10488799, 0.13233712, -182195.1, -122325.945, 0.0, 9.997037, 10.000469 
1.5250908e+3, 3.0389103e+2, -432732.25, -214610.81, -44580.953, -0.10852616, 0.0488558, -205850.89, -205850.89, 0.0, 9.997054, 9.999943 
1.5250978e+3, 3.1389153e+2, -235625.11, 25534.193, -38400.117, -0.0012061599, 0.096546695, 31063.375, 31063.375, 0.0, 9.997779, 10.001244 
1.5350035e+3, 1.2389924e+2, -1552029.4, -1859149.6, 30373.688, 0.023059918, 0.15273638, -1549054.3, 176744.2, 0.018294634, 10.002107, 9.997993 
1.5350096e+3, 1.3389847e+2, -1239291.6, -1578407.3, -28776.986, 0.11756913, 0.20775366, -1236867.0, 390938.94, 0.011016667, 10.003242, 9.998709 
1.5350123e+3, 1.438953e+2, -1076946.0, -1408887.4, -67299.56, -0.14099628, 0.005495848, -1063820.4, 466015.5, 0.0048880493, 10.003494, 9.999073 
1.5350176e+3, 1.5389463e+2, -1122250.4, -1369164.0, -51935.934, -0.0035786023, 0.020482432, -1111770.9, 320069.2, 0.0013030368, 10.002451, 9.999171 
1.5350223e+3, 1.6389395e+2, -1169102.0, -1397058.0, -38779.758, 0.040029652, 0.05945763, -1162685.4, 171161.0, 0.00013086536, 10.001694, 9.998671 
1.5350261e+3, 1.7389312e+2, -1111777.0, -1318875.0, -63915.09, 0.0001791984, 0.10759872, -1093639.8, 142216.77, 0.0000010420176, 10.001415, 9.99867 
1.5350305e+3, 1.8389216e+2, -1035924.6, -1195574.1, -80028.56, -0.012291259, 0.13170134, -1002715.9, 135151.5, 0.0, 10.001107, 9.998992 
1.5350349e+3, 1.9389108e+2, -982083.6, -1108022.6, -63461.65, 0.00072974357, 0.11283383, -955652.1, 84225.94, 0.0, 10.000758, 9.999087 
1.5350392e+3, 2.0389001e+2, -908983.56, -1005907.5, -44340.46, 0.004923332, 0.093899414, -891759.6, 50128.23, 0.0, 10.000517, 9.999232 
1.5350439e+3, 2.1388903e+2, -814361.44, -901194.75, -22933.342, 0.001659992, 0.061439484, -808676.75, 35218.875, 0.0, 10.000459, 9.999307 
1.5350483e+3, 2.2388813e+2, -781510.9, -863386.25, -12842.899, -0.009786345, 0.053177748, -779543.6, -33639.863, 0.0, 10.000135, 9.999049 
1.5350528e+3, 2.3388736e+2, -785107.4, -811027.1, -26628.934, -0.035924394, 0.06747359, -768452.06, -120540.164, 0.0, 9.999425, 9.999078 
1.5350571e+3, 2.4388677e+2, -753519.2, -748422.5, -40782.746, -0.05572301, 0.10387585, -710108.56, -160189.27, 0.0, 9.998983, 9.999047 
1.5350617e+3, 2.538865e+2, -654980.75, -644551.75, -56334.457, -0.063895985, 0.16319652, -593190.94, -141266.31, 0.0, 9.998963, 9.999097 
1.5350665e+3, 2.6388583e+2, -567530.7, -505962.22, -53948.23, -0.072390266, 0.17399344, -474633.0, -120701.09, 0.0, 9.998693, 9.999505 
1.5350714e+3, 2.7388468e+2, -556939.25, -436822.25, -49283.465, -0.080752365, 0.09316388, -419189.8, -163248.03, 0.0, 9.998035, 9.999624 
1.5350768e+3, 2.8388426e+2, -523469.47, -340964.72, -30759.45, -0.06248442, 0.07741247, -335919.97, -177974.6, 0.0, 9.997467, 9.999885 
1.5350829e+3, 2.93885e+2, -486293.2, -270647.53, -51947.824, -0.0071175303, 0.15249608, -258786.03, -198847.55, 0.0, 9.997042, 9.999898 
1.5350886e+3, 3.0388454e+2, -424665.03, -197525.75, -22136.855, -0.03775544, 0.115533456, -195388.42, -195388.42, 0.0, 9.99705, 10.000063 
1.5350942e+3, 3.138854e+2, -193839.4, 117020.805, -1333.1233, -0.14712307, 0.17566186, 117026.52, 117026.52, 0.0, 9.997757, 10.001883 
1.5450063e+3, 1.2389371e+2, -1261629.3, -1703753.5, 32694.371, -0.0023403568, 0.19717817, -1259224.6, 466630.6, 0.019406972, 10.004087, 9.998109 
1.5450127e+3, 1.3389246e+2, -1410704.5, -1653509.3, -14423.339, 0.15004443, 0.19768055, -1409850.8, 218015.39, 0.0117135905, 10.002022, 9.998776 
1.5450148e+3, 1.4388941e+2, -1412246.5, -1545364.1, -42699.195, -0.098427035, -0.0054719876, -1399727.5, 130167.08, 0.0052204016, 10.001072, 9.9993 
1.54502e+3, 1.5388969e+2, -1183792.0, -1370824.8, -63607.85, 0.023761546, 0.077123426, -1164209.9, 267681.1, 0.0014059248, 10.001906, 9.999423 
1.5450242e+3, 1.6388923e+2, -1101279.6, -1366140.5, -59786.633, 0.04497912, 0.12749687, -1088409.5, 245485.4, 0.00014487762, 10.002166, 9.998656 
1.5450273e+3, 1.7388764e+2, -1097866.6, -1317200.1, -30215.729, -0.026182385, 0.10137681, -1093780.3, 142130.84, 0.000001197513, 10.001532, 9.998625 
1.545031e+3, 1.8388627e+2, -1019336.5, -1174192.8, -7298.1123, -0.04690233, 0.08390826, -1018993.3, 118931.32, 0.0, 10.001164, 9.99911 
1.5450358e+3, 1.9388543e+2, -903929.5, -1055344.3, -8825.165, -0.011471704, 0.07447487, -903416.9, 136515.77, 0.0, 10.00123, 9.999222 
1.5450402e+3, 2.0388465e+2, -824693.75, -956572.0, -17562.992, 0.009237076, 0.072310105, -822394.9, 119544.73, 0.0, 10.00106, 9.99931 
1.5450445e+3, 2.13884e+2, -799099.06, -886244.3, -31716.244, 0.011098837, 0.06722106, -788778.3, 55166.03, 0.0, 10.000531, 9.999374 
1.5450485e+3, 2.2388317e+2, -791253.6, -888580.94, -39461.984, -0.00554734, 0.07183348, -777264.25, -31312.322, 0.0, 10.000159, 9.998864 
1.5450522e+3, 2.3388211e+2, -711497.56, -800656.75, -42434.063, -0.053472713, 0.078251705, -694530.5, -46567.52, 0.0, 10.000039, 9.998854 
1.5450564e+3, 2.4388123e+2, -658527.7, -721413.2, -37603.313, -0.06702269, 0.1057936, -640953.56, -90979.87, 0.0, 9.999718, 9.9988785 
1.5450612e+3, 2.5388068e+2, -648856.3, -659887.4, -37119.586, -0.028753974, 0.15554085, -616844.75, -164862.08, 0.0, 9.999084, 9.998933 
1.5450655e+3, 2.638801e+2, -572345.25, -500427.0, -27065.285, -0.030863442, 0.17838036, -491379.6, -137389.86, 0.0, 9.998628, 9.999575 
1.5450695e+3, 2.7387947e+2, -489346.3, -393542.47, -28789.357, -0.09488421, 0.14006184, -385556.8, -129563.164, 0.0, 9.998456, 9.999718 
1.5450743e+3, 2.838788e+2, -425942.94, -343551.44, -3770.0857, -0.09372115, 0.11766495, -343379.28, -185380.3, 0.0, 9.998352, 9.999438 
1.5450807e+3, 2.938783e+2, -339073.97, -257236.17, -22941.004, 0.0045097666, 0.11893167, -251244.03, -191239.28, 0.0, 9.998302, 9.999382 
1.5450862e+3, 3.0387777e+2, -351153.22, -173430.94, -3778.2192, -0.013420515, 0.11169106, -173350.66, -173350.66, 0.0, 9.997609, 9.999957 
1.5450908e+3, 3.1387895e+2, -436932.56, 21406.863, -2779.327, -0.16380341, 0.20843928, 21423.717, 21423.717, 0.0, 9.996, 10.00207 
1.5550101e+3, 1.2388724e+2, -1239743.6, -1655017.9, -39688.15, -0.03210268, 0.12596662, -1235984.6, 489935.34, 0.020587768, 10.00408, 9.998453 
1.5550147e+3, 1.338864e+2, -1388410.0, -1608784.3, -92474.9, 0.15016595, 0.13587207, -1354747.1, 273178.66, 0.012455585, 10.00203, 9.999083 
1.555016e+3, 1.4388423e+2, -1424279.5, -1572801.8, -24916.068, -0.099780716, 0.011803646, -1420211.0, 109735.89, 0.0055746003, 10.0010805, 9.999108 
1.5550222e+3, 1.5388565e+2, -1200586.8, -1407008.5, -30766.3, 0.040806588, 0.23413032, -1196098.8, 235837.34, 0.001515748, 10.00191, 9.999174 
1.5550265e+3, 1.6388544e+2, -1058147.8, -1276039.8, -78963.77, 0.0633755, 0.29409412, -1032540.7, 301397.38, 0.00016035176, 10.002163, 9.999276 
1.555029e+3, 1.7388265e+2, -1047900.56, -1212675.4, -54209.01, -0.026139293, 0.07682344, -1031665.94, 204294.02, 0.0000013687348, 10.001528, 9.999345 
1.5550323e+3, 1.8388078e+2, -1021467.56, -1177717.9, -8802.441, -0.05756619, -0.030485138, -1020973.25, 117002.02, 0.0, 10.001159, 9.999089 
1.5550369e+3, 1.9388048e+2, -912070.4, -1071658.9, -5590.3843, -0.019648382, 0.024729664, -911874.8, 128104.07, 0.0, 10.001226, 9.999112 
1.5550411e+3, 2.0388009e+2, -849793.6, -1007653.9, -35991.594, -0.0015077683, 0.08337678, -841974.94, 100008.766, 0.0, 10.001054, 9.998963 
1.5550448e+3, 2.138796e+2, -826565.1, -941919.44, -51033.53, -0.008303059, 0.1325207, -807228.8, 36760.883, 0.0, 10.0005245, 9.998996 
1.5550485e+3, 2.2387864e+2, -797868.6, -901194.1, -46281.28, -0.022562101, 0.14835629, -780170.0, -34170.566, 0.0, 10.000153, 9.998782 
1.5550524e+3, 2.33877e+2, -715387.56, -808479.06, -45306.48, -0.048138037, 0.10106901, -696978.06, -48963.81, 0.0, 10.000036, 9.998801 
1.5550566e+3, 2.4387565e+2, -655805.44, -714636.06, -58771.973, -0.029954113, 0.08383811, -619498.56, -69470.555, 0.0, 9.999712, 9.998929 
1.5550612e+3, 2.5387484e+2, -644591.8, -650893.6, -59094.773, 0.056353882, 0.09930606, -588564.0, -136524.64, 0.0, 9.999083, 9.998997 
1.555065e+3, 2.6387447e+2, -569560.2, -494519.5, -34746.047, 0.051132124, 0.14054254, -480902.16, -126858.07, 0.0, 9.998627, 9.999617 
1.5550679e+3, 2.7387488e+2, -486887.66, -389568.06, -32825.613, -0.09612736, 0.20234993, -379531.22, -123492.76, 0.0, 9.998459, 9.999744 
1.555072e+3, 2.8387406e+2, -453180.06, -401048.78, -5013.4077, -0.1558528, 0.17721559, -400571.03, -242525.73, 0.0, 9.998355, 9.999043 
1.5550782e+3, 2.9387158e+2, -370511.22, -322467.72, -22290.871, -0.077151574, 0.026062667, -313718.66, -253650.0, 0.0, 9.998301, 9.998936 
1.5550835e+3, 3.038708e+2, -378832.63, -228939.55, -57489.82, -0.042549033, 0.035200644, -209429.4, -209429.4, 0.0, 9.9976, 9.999582 
1.5550879e+3, 3.1387225e+2, -459466.5, -24948.848, -55127.836, -0.06616247, 0.1939252, -18063.8, -18063.8, 0.0, 9.995997, 10.001755 
1.5650135e+3, 1.2388251e+2, -1438860.9, -1734356.3, 44681.48, -0.027827429, 0.08812571, -1432252.4, 293714.06, 0.021849003, 10.002614, 9.998605 
1.5650174e+3, 1.3388233e+2, -1202229.4, -1506674.0, -27145.723, 0.15422224, 0.15142806, -1199827.9, 428138.13, 0.013250772, 10.003273, 9.999194 
1.5650178e+3, 1.4388052e+2, -1152334.3, -1477674.9, 44709.81, -0.1241181, 0.07232231, -1146301.9, 383682.22, 0.0059556314, 10.003117, 9.998782 
1.5650238e+3, 1.5388107e+2, -1238095.4, -1466588.5, 30012.225, 0.014762253, 0.24380735, -1234219.1, 197764.13, 0.0016345053, 10.001834, 9.998799 
1.5650281e+3, 1.6388057e+2, -1176905.3, -1299824.5, -29650.875, 0.04713084, 0.28288835, -1170126.6, 163861.5, 0.00017771397, 10.001206, 9.999573 
1.5650305e+3, 1.7387843e+2, -1013438.5, -1153394.9, -31945.678, -0.013936169, 0.094079755, -1006491.6, 229510.78, 0.0000016137079, 10.001584, 9.999723 
1.5650338e+3, 1.8387689e+2, -979117.94, -1163916.4, -9086.382, -0.030276718, 0.0017818658, -978672.2, 159341.39, 0.0, 10.001478, 9.99903 
1.5650381e+3, 1.9387642e+2, -1005879.75, -1130315.0, -9487.648, -0.00009471228, 0.051181823, -1005160.5, 34858.395, 0.0, 10.00064, 9.998992 
1.5650418e+3, 2.0387581e+2, -970964.56, -1084214.4, -21639.887, 0.007993468, 0.10149346, -966970.44, -24944.404, 0.0, 10.000301, 9.998799 
1.5650453e+3, 2.1387503e+2, -807506.3, -952261.4, -21684.854, -0.01305717, 0.13885093, -804327.6, 39707.633, 0.0, 10.000741, 9.99882 
1.5650488e+3, 2.2387391e+2, -699513.2, -841820.9, -11337.846, -0.029751062, 0.1445637, -698615.56, 47430.81, 0.0, 10.000778, 9.998887 
1.5650524e+3, 2.3387234e+2, -683346.0, -777383.4, -626.7699, -0.042026706, 0.089260824, -683341.8, -35282.223, 0.0, 10.000191, 9.9989395 
1.5650563e+3, 2.4387094e+2, -674522.4, -732689.44, -16953.656, -0.022379814, 0.06267852, -669941.7, -119868.586, 0.0, 9.999622, 9.998847 
1.56506e+3, 2.5386992e+2, -649572.2, -665188.3, -32412.342, 0.046574645, 0.068872094, -624040.7, -171954.83, 0.0, 9.999101, 9.998889 
1.5650637e+3, 2.638694e+2, -546448.75, -518784.78, -3112.326, 0.044004753, 0.11405158, -518438.97, -164346.58, 0.0, 9.9989395, 9.999299 
1.565067e+3, 2.7386966e+2, -387848.16, -380683.1, -27807.729, -0.070455424, 0.19471031, -356228.1, -100138.43, 0.0, 9.999308, 9.999396 
1.565071e+3, 2.838687e+2, -332950.25, -328731.34, -19139.588, -0.13354242, 0.17357011, -311585.3, -153487.4, 0.0, 9.999119, 9.999172 
1.565076e+3, 2.9386637e+2, -391201.4, -310906.1, 4493.9395, -0.11329643, 0.016640032, -310655.34, -250536.27, 0.0, 9.998067, 9.999127 
1.5650806e+3, 3.03866e+2, -444551.06, -271093.38, -10165.438, -0.06902066, 0.056736153, -270499.66, -270499.66, 0.0, 9.997193, 9.999488 
1.5650848e+3, 3.1386644e+2, -392935.16, -30712.986, 5699.94, -0.0132213915, 0.13007265, -30623.314, -30623.314, 0.0, 9.996614, 10.001418 
1.5750165e+3, 1.238796e+2, -1443175.8, -1744457.0, 61035.47, 0.005942951, 0.083489954, -1431280.5, 294713.66, 0.023204513, 10.002619, 9.998535 
1.5750207e+3, 1.3388027e+2, -1209154.6, -1521865.8, -3772.613, 0.15588522, 0.24266675, -1209109.1, 418877.38, 0.014108494, 10.003276, 9.999089 
1.5750206e+3, 1.4387831e+2, -1186248.6, -1546914.0, 1257.697, -0.17770597, 0.17592317, -1186244.1, 343761.9, 0.0063687824, 10.003112, 9.998307 
1.5750249e+3, 1.5387596e+2, -1273918.6, -1541397.0, -18166.842, -0.057361927, 0.10835735, -1272690.5, 159341.23, 0.00176415, 10.001835, 9.998286 
1.5750287e+3, 1.6387469e+2, -1177599.9, -1302438.8, -22978.844, -0.0095417965, 0.09733932, -1173504.5, 160540.1, 0.00019721544, 10.00121, 9.999555 
1.5750323e+3, 1.7387502e+2, -1010634.0, -1148237.6, -16898.896, 0.006612223, 0.15205438, -1008589.06, 227449.0, 0.0000019795527, 10.001585, 9.99976 
1.5750359e+3, 1.8387464e+2, -987402.44, -1180411.3, -36686.76, 0.030578543, 0.1780821, -980664.3, 157375.36, 0.0, 10.001474, 9.9989195 
1.575039e+3, 1.9387327e+2, -1015808.94, -1150292.8, -41031.566, 0.0415305, 0.15209574, -1004278.6, 35774.035, 0.0, 10.000636, 9.9988575 
1.5750425e+3, 2.0387183e+2, -970544.25, -1082961.9, -10838.338, 0.029766604, 0.126344, -969508.8, -27442.297, 0.0, 10.000298, 9.99881 
1.5750462e+3, 2.1387032e+2, -806332.7, -948922.0, -3624.2012, -0.0066826795, 0.087249726, -806240.6, 37840.29, 0.0, 10.000735, 9.998847 
1.5750496e+3, 2.2386903e+2, -681729.0, -802811.1, -29534.787, -0.0310921, 0.062184233, -674908.9, 71183.68, 0.0, 10.000767, 9.999162 
1.5750527e+3, 2.3386812e+2, -662434.06, -733111.6, -21999.604, -0.03923141, 0.043087516, -656145.8, -8046.4463, 0.0, 10.000185, 9.999248 
1.5750557e+3, 2.4386705e+2, -689475.5, -763050.4, -36881.938, -0.048339464, 0.042624615, -674170.75, -124061.5, 0.0, 9.999619, 9.998641 
1.5750581e+3, 2.5386593e+2, -668756.9, -706000.3, -50194.96, -0.05981795, 0.064546324, -633840.75, -181718.23, 0.0, 9.999104, 9.998608 
1.5750617e+3, 2.6386485e+2, -592287.2, -615207.8, 8398.386, -0.055640567, 0.09705169, -589539.4, -235404.27, 0.0, 9.998942, 9.998636 
1.5750667e+3, 2.7386373e+2, -438200.5, -484866.56, -10888.479, -0.025554394, 0.11414068, -435784.97, -179637.27, 0.0, 9.999304, 9.998684 
1.5750712e+3, 2.838628e+2, -291594.97, -240425.88, -51491.48, -0.035742898, 0.10621015, -208513.11, -50356.02, 0.0, 9.999107, 9.999784 
1.575074e+3, 2.9386267e+2, -336004.28, -195822.53, -32885.168, -0.109226316, 0.09349317, -188491.42, -128335.04, 0.0, 9.998063, 9.999921 
1.5750775e+3, 3.0386326e+2, -430831.94, -242128.05, -33595.746, -0.097987786, 0.17619944, -236325.3, -236325.3, 0.0, 9.99719, 9.999689 
1.5750813e+3, 3.1386158e+2, -417139.88, -81029.71, -11439.43, -0.021431863, 0.0269035, -80640.82, -80640.82, 0.0, 9.9966135, 10.001073 
1.585019e+3, 1.2387691e+2, -1393599.9, -1740162.4, 60708.24, -0.032258477, 0.10122364, -1383273.1, 342746.9, 0.024665277, 10.003065, 9.998345 
1.5850236e+3, 1.3387717e+2, -1354323.6, -1621580.5, -14785.601, 0.1668552, 0.24348235, -1353508.1, 274510.0, 0.0150364665, 10.002401, 9.998814 
1.5850231e+3, 1.438753e+2, -1340475.9, -1602234.9, -13982.43, -0.16842884, 0.19453353, -1339731.0, 190305.39, 0.0068181083, 10.001967, 9.998476 
1.5850268e+3, 1.538726e+2, -1233994.0, -1496329.3, 17179.926, -0.053140543, 0.06790814, -1232873.6, 199189.23, 0.0019058621, 10.002002, 9.998513 
1.5850303e+3, 1.6387118e+2, -1108279.1, -1314079.5, 52993.234, -0.0039363042, 0.05080213, -1095435.1, 238641.45, 0.0002187055, 10.001882, 9.999149 
1.5850341e+3, 1.7387177e+2, -1051438.4, -1222388.1, 21049.965, 0.024383832, 0.17919743, -1048884.5, 187186.25, 0.000002466339, 10.001541, 9.99927 
1.5850374e+3, 1.8387139e+2, -1008885.06, -1197371.8, -31811.621, 0.047323473, 0.23413886, -1003660.9, 134413.06, 0.0, 10.001358, 9.9988575 
1.5850401e+3, 1.9386962e+2, -901765.56, -1095940.6, -30154.084, 0.034089778, 0.16861738, -897190.6, 142899.11, 0.0, 10.001426, 9.998848 
1.5850429e+3, 2.0386787e+2, -845015.75, -1017108.0, 13853.347, 0.012539774, 0.11178266, -843907.7, 98197.72, 0.0, 10.00114, 9.998856 
1.5850466e+3, 2.1386625e+2, -863766.75, -971334.6, 20898.266, -0.0126774255, 0.055961005, -859849.3, -15729.328, 0.0, 10.0003195, 9.998893 
1.58505e+3, 2.2386506e+2, -821443.7, -870560.9, -15716.234, -0.024574574, 0.039650865, -816845.4, -70714.81, 0.0, 9.99981, 9.999156 
1.5850529e+3, 2.3386462e+2, -719574.5, -761735.0, -33341.926, -0.019302323, 0.06906003, -701207.8, -53073.477, 0.0, 9.9998, 9.999236 
1.5850556e+3, 2.4386373e+2, -637831.4, -745390.4, -45676.39, -0.036861807, 0.088452525, -621051.94, -70908.83, 0.0, 10.000007, 9.998575 
1.5850577e+3, 2.538623e+2, -466202.28, -616993.4, -45364.457, -0.09148314, 0.08572655, -453606.78, -1448.6296, 0.0, 10.000533, 9.998529 
1.585061e+3, 2.6386085e+2, -422406.6, -551167.4, 16168.73, -0.087863036, 0.0934134, -420407.28, -66233.56, 0.0, 10.000187, 9.998476 
1.585066e+3, 2.7385932e+2, -566963.25, -565150.56, 32125.326, 0.0077213743, 0.08676676, -533918.8, -277728.0, 0.0, 9.998502, 9.998518 
1.58507e+3, 2.8385842e+2, -528518.9, -346264.25, 1784.3696, 0.025993302, 0.0884256, -346246.78, -188046.2, 0.0, 9.997447, 9.999856 
1.5850721e+3, 2.93859e+2, -427733.44, -227643.06, -31009.684, -0.076670386, 0.13539332, -222947.44, -162753.3, 0.0, 9.997383, 10.000028 
1.585075e+3, 3.0385992e+2, -376208.38, -172869.44, -43803.33, -0.08489861, 0.22824459, -163834.73, -163834.73, 0.0, 9.997381, 10.0000725 
1.585078e+3, 3.1385794e+2, -307364.06, -28367.29, -5433.1763, -0.049001765, 0.012605791, -28261.523, -28261.523, 0.0, 9.997369, 10.001071 
1.5950209e+3, 1.23874635e+2, -1416643.9, -1788364.3, 27152.62, -0.1479397, 0.15078169, -1414671.0, 311371.72, 0.026239868, 10.003064, 9.998015 
1.5950263e+3, 1.3387306e+2, -1383757.4, -1686296.1, -40205.87, 0.18353754, 0.15474664, -1378505.4, 249554.77, 0.016040104, 10.002413, 9.998365 
1.5950258e+3, 1.4387155e+2, -1284054.4, -1486395.9, -18407.842, -0.10338383, 0.1296034, -1282393.4, 247681.19, 0.0073062, 10.001974, 9.999271 
1.5950295e+3, 1.5387094e+2, -1168183.3, -1359171.0, 18765.594, 0.021635052, 0.1204008, -1166356.9, 265719.84, 0.002060233, 10.001999, 9.999458 
1.5950328e+3, 1.6387008e+2, -1164535.9, -1430558.1, 40147.418, 0.057587426, 0.14118381, -1158609.0, 175475.06, 0.00024185247, 10.001879, 9.998352 
1.5950358e+3, 1.7386875e+2, -1123043.1, -1371560.3, 8548.146, 0.033822335, 0.17636602, -1122749.5, 113350.72, 0.0000030340082, 10.001541, 9.998246 
1.5950386e+3, 1.838672e+2, -1009677.3, -1198931.5, -31693.932, 0.012689712, 0.1732563, -1004510.6, 133605.34, 0.0, 10.001356, 9.998848 
1.5950409e+3, 1.938655e+2, -894113.0, -1079552.1, -26676.885, -0.024341619, 0.103336886, -890351.56, 149778.22, 0.0, 10.001422, 9.998963 
1.5950435e+3, 2.0386396e+2, -841663.75, -1009581.2, -13980.712, -0.046172094, 0.05943288, -840507.7, 101634.84, 0.0, 10.001136, 9.99891 
1.5950468e+3, 2.1386279e+2, -860817.8, -964571.0, -9335.121, -0.03644221, 0.04402937, -859984.56, -15831.857, 0.0, 10.000316, 9.998941 
1.59505e+3, 2.2386199e+2, -840963.1, -911153.3, -19917.78, -0.01731614, 0.076075666, -835704.94, -89544.234, 0.0, 9.999808, 9.998879 
1.5950531e+3, 2.3386186e+2, -741867.9, -808497.4, -31890.176, 0.013213354, 0.16568501, -729064.8, -80900.11, 0.0, 9.9998, 9.998915 
1.595056e+3, 2.4386093e+2, -634943.6, -738336.94, -27636.611, 0.0064994395, 0.19808131, -628020.06, -77845.266, 0.0, 10.0, 9.998628 
1.5950586e+3, 2.5385892e+2, -460316.66, -602737.94, -23286.115, -0.05527581, 0.13098264, -456606.03, -4412.704, 0.0, 10.000523, 9.998634 
1.5950614e+3, 2.6385733e+2, -401003.9, -504945.6, -37509.992, -0.058637254, 0.103157565, -388881.3, -34672.563, 0.0, 10.000177, 9.998798 
1.5950647e+3, 2.7385634e+2, -541955.25, -514460.13, -29852.105, 0.024768867, 0.11420847, -495342.16, -239122.64, 0.0, 9.998505, 9.998865 
1.5950677e+3, 2.838555e+2, -558765.0, -411312.88, -6593.4053, 0.04553594, 0.11939801, -411018.63, -252789.39, 0.0, 9.997456, 9.999407 
1.59507e+3, 2.938552e+2, -465937.28, -308622.25, -29909.436, -0.02589834, 0.1357584, -303127.66, -242894.03, 0.0, 9.997388, 9.999471 
1.5950727e+3, 3.0385587e+2, -340566.06, -96990.21, -42373.316, -0.040597275, 0.20883417, -89829.32, -89829.32, 0.0, 9.997373, 10.000597 
1.5950748e+3, 3.1385568e+2, -288485.34, 13892.26, -7609.96, -0.10160063, 0.108179264, 14083.658, 14083.658, 0.0, 9.997356, 10.001368 
1.6050234e+3, 1.23872235e+2, -1471498.5, -1789509.0, 26358.322, -0.17368321, 0.17102264, -1469328.6, 256738.69, 0.027939666, 10.002574, 9.99824 
1.6050287e+3, 1.3387033e+2, -1327521.5, -1648020.1, 4496.9, 0.1705963, 0.130929, -1327458.5, 300628.78, 0.01712635, 10.002762, 9.998459 
1.6050278e+3, 1.4386912e+2, -1204145.0, -1464227.9, 17622.225, -0.1230046, 0.13684832, -1202956.4, 327142.22, 0.007836914, 10.002603, 9.999121 
1.6050318e+3, 1.5386856e+2, -1172763.5, -1381778.1, -29442.363, 0.035528183, 0.15223011, -1168695.4, 263405.22, 0.0022287087, 10.002059, 9.999271 
1.6050348e+3, 1.638675e+2, -1187987.0, -1441398.3, -24423.969, 0.07629101, 0.16367923, -1185654.5, 148455.08, 0.00026665046, 10.001721, 9.998351 
1.6050372e+3, 1.738656e+2, -1096841.4, -1355852.6, 18809.729, 0.013653108, 0.14103056, -1095482.5, 140647.39, 0.0000036433328, 10.001714, 9.998268 
1.6050397e+3, 1.8386385e+2, -990625.7, -1188539.3, 20609.441, -0.013336584, 0.11482387, -988502.3, 149644.9, 0.0, 10.001485, 9.998857 
1.6050422e+3, 1.9386245e+2, -968394.6, -1115090.0, 15486.633, -0.009471876, 0.07540487, -966777.56, 73380.82, 0.0, 10.000913, 9.998964 
1.6050448e+3, 2.0386115e+2, -902451.0, -1040384.0, 23748.99, -0.013150154, 0.053709738, -898476.44, 43692.75, 0.0, 10.000726, 9.998895 
1.6050476e+3, 2.1386005e+2, -741225.06, -908901.06, 22502.709, -0.021253526, 0.047801457, -738257.6, 105921.14, 0.0, 10.001147, 9.998921 
1.6050504e+3, 2.2385912e+2, -666547.06, -868503.1, 4046.3618, -0.017732248, 0.08473648, -666466.0, 79722.734, 0.0, 10.001187, 9.9985075 
1.6050531e+3, 2.3385854e+2, -650661.0, -812097.75, -19006.215, -0.0017082277, 0.17282566, -648453.56, -255.00667, 0.0, 10.000632, 9.998488 
1.605056e+3, 2.4385744e+2, -627841.6, -711778.94, -9610.6045, 0.00090451713, 0.20195392, -626755.3, -76544.375, 0.0, 9.999949, 9.998834 
1.6050588e+3, 2.5385568e+2, -651465.6, -662125.4, 6924.02, -0.014584323, 0.12874061, -648057.7, -195831.58, 0.0, 9.999072, 9.998923 
1.6050613e+3, 2.6385432e+2, -601313.5, -583061.0, -17738.527, -0.015341446, 0.10451424, -572238.75, -218000.45, 0.0, 9.998727, 9.998959 
1.6050634e+3, 2.738537e+2, -429691.03, -445145.44, -29354.451, 0.0015448839, 0.13731624, -407063.78, -150817.97, 0.0, 9.999212, 9.998999 
1.6050655e+3, 2.838529e+2, -325181.84, -318138.7, -2124.29, -0.0026049924, 0.15095937, -317547.6, -159292.61, 0.0, 9.999144, 9.999232 
1.6050677e+3, 2.938522e+2, -361559.63, -281093.75, -2835.939, -0.032848846, 0.14664222, -280993.94, -220730.3, 0.0, 9.998205, 9.999265 
1.6050704e+3, 3.0385235e+2, -340010.56, -99473.055, -10397.228, -0.020327669, 0.17983894, -99024.47, -99024.47, 0.0, 9.99739, 10.000571 
1.605072e+3, 3.13853e+2, -390723.8, -49305.34, -34106.074, -0.08325464, 0.16513477, -45931.64, -45931.64, 0.0, 9.996717, 10.001238 
1.6150266e+3, 1.2386988e+2, -1421022.1, -1684356.8, 13764.934, -0.119404264, 0.1690659, -1420304.5, 305787.6, 0.02978273, 10.002583, 9.998968 
1.615031e+3, 1.33869e+2, -1286094.0, -1562167.3, 10280.835, 0.12489054, 0.17213668, -1285711.8, 342387.38, 0.018308382, 10.002764, 9.999058 
1.6150293e+3, 1.4386803e+2, -1280651.6, -1622637.9, -3255.213, -0.23242952, 0.21830097, -1280620.6, 249487.38, 0.008418617, 10.002598, 9.998033 
1.6150333e+3, 1.5386549e+2, -1264379.6, -1572646.0, -49279.824, -0.016343134, 0.16413213, -1256693.4, 175440.42, 0.0024150687, 10.00206, 9.997961 
1.6150361e+3, 1.6386352e+2, -1132939.5, -1328302.0, -27869.771, 0.045685813, 0.121020675, -1129041.4, 205110.92, 0.0002938315, 10.001724, 9.999127 
1.6150384e+3, 1.738624e+2, -1023644.3, -1205098.8, 19310.615, -0.038155448, 0.07378431, -1021612.0, 214547.8, 0.000004294035, 10.001716, 9.999304 
1.615041e+3, 1.8386133e+2, -989846.56, -1186643.9, 398.41895, -0.035561852, 0.05825531, -989845.75, 148322.1, 0.0, 10.001483, 9.998871 
1.6150439e+3, 1.9386046e+2, -977314.5, -1133643.0, -5647.4624, 0.071960844, 0.08355853, -977110.75, 63064.887, 0.0, 10.000912, 9.998837 
1.6150466e+3, 2.0385936e+2, -908812.7, -1053235.0, 34776.18, 0.10298094, 0.09409425, -900875.06, 41310.64, 0.0, 10.000723, 9.998808 
1.6150492e+3, 2.13858e+2, -747658.2, -921091.75, 39762.16, 0.028285535, 0.06731189, -738976.7, 105221.56, 0.0, 10.001141, 9.998841 
1.6150513e+3, 2.2385643e+2, -702543.5, -941625.4, -13189.479, -0.03072448, 0.0671451, -701818.06, 44396.566, 0.0, 10.001178, 9.998011 
1.6150531e+3, 2.3385467e+2, -689308.8, -892140.25, -38468.527, -0.067171186, 0.092309184, -682258.06, -34021.984, 0.0, 10.000629, 9.997942 
1.6150554e+3, 2.4385323e+2, -603996.7, -661038.9, -40794.14, -0.057038523, 0.10254566, -582742.1, -32490.492, 0.0, 9.999944, 9.999186 
1.6150582e+3, 2.5385243e+2, -618779.0, -594468.75, -23958.86, 0.0249495, 0.080571696, -579758.0, -127501.164, 0.0, 9.999071, 9.999389 
1.6150606e+3, 2.6385173e+2, -602504.94, -585939.56, -4248.125, 0.03546389, 0.09692989, -584913.7, -230650.72, 0.0, 9.998727, 9.9989395 
1.6150619e+3, 2.7385128e+2, -435891.0, -457950.3, -8005.561, -0.06629978, 0.15331325, -433291.94, -177021.33, 0.0, 9.999209, 9.998914 
1.6150635e+3, 2.8385064e+2, -321261.66, -308311.3, -31002.037, -0.122321695, 0.18248034, -283115.44, -124836.81, 0.0, 9.999135, 9.999305 
1.6150653e+3, 2.9384995e+2, -354431.03, -266455.7, -36211.28, -0.102585584, 0.17163692, -253468.17, -193183.23, 0.0, 9.998204, 9.999367 
1.6150676e+3, 3.038493e+2, -378014.56, -179701.38, -35401.06, -0.030986851, 0.14464417, -173571.39, -173571.39, 0.0, 9.997395, 10.000018 
1.6150695e+3, 3.1384984e+2, -425650.66, -122172.95, -62838.676, -0.005399932, 0.1778948, -109676.06, -109676.06, 0.0, 9.996718, 10.000737 
1.625029e+3, 1.2386801e+2, -1472865.0, -1708353.6, 21313.22, -0.12823375, 0.19015338, -1470951.6, 255158.61, 0.03179242, 10.002219, 9.998972 
1.6250336e+3, 1.3386679e+2, -1375482.5, -1621336.5, -20905.56, 0.13879205, 0.17339697, -1373717.5, 254403.11, 0.019603958, 10.002214, 9.998907 
1.6250318e+3, 1.4386575e+2, -1346650.9, -1652275.4, -40307.133, -0.21865156, 0.21932752, -1341424.4, 188705.8, 0.009062119, 10.002134, 9.998051 
1.6250354e+3, 1.5386303e+2, -1255163.6, -1564243.1, 9749.667, -0.008964491, 0.14288554, -1254856.4, 177301.0, 0.002624408, 10.00211, 9.9979925 
1.6250381e+3, 1.6386105e+2, -1079744.0, -1298008.6, 71571.31, 0.049791135, 0.09640647, -1058368.4, 275807.22, 0.00032476612, 10.002071, 9.9991665 
1.6250403e+3, 1.7386019e+2, -979666.06, -1179444.0, 44747.1, -0.035682663, 0.07351748, -970101.4, 266079.03, 0.000005034694, 10.002001, 9.999341 
1.6250427e+3, 1.8385926e+2, -934955.94, -1169133.4, -28665.496, -0.032540426, 0.07109164, -931498.06, 206689.5, 0.0, 10.0019, 9.998789 
1.6250452e+3, 1.9385827e+2, -860751.0, -1087639.8, -36699.34, 0.07811342, 0.09275185, -854962.56, 185234.75, 0.0, 10.001759, 9.998743 
1.6250479e+3, 2.0385717e+2, -824019.44, -1017880.7, 11577.25, 0.116040096, 0.10991792, -823330.5, 118877.54, 0.0, 10.001329, 9.998759 
1.6250503e+3, 2.1385594e+2, -852300.0, -976563.8, 17797.129, 0.05119527, 0.10432538, -849801.3, -5581.743, 0.0, 10.000444, 9.998796 
1.6250522e+3, 2.238543e+2, -860729.94, -994903.56, -7003.602, -0.013537518, 0.090432, -860365.4, -114129.16, 0.0, 9.999995, 9.998214 
1.6250533e+3, 2.3385213e+2, -730976.44, -886000.25, 23993.637, -0.080437, 0.05034697, -727347.8, -79087.93, 0.0, 10.000233, 9.998174 
1.6250551e+3, 2.4385071e+2, -561577.4, -632290.8, 28526.584, -0.08652236, 0.04536783, -551504.3, -1229.6373, 0.0, 10.000201, 9.999257 
1.6250573e+3, 2.5385058e+2, -517444.28, -540384.3, 10182.94, -0.0017009303, 0.08616936, -513576.3, -61301.82, 0.0, 9.999746, 9.9994335 
1.6250594e+3, 2.6385012e+2, -532122.25, -552280.5, 32992.563, 0.019271685, 0.12249592, -507703.56, -153424.61, 0.0, 9.999211, 9.998937 
1.6250607e+3, 2.738492e+2, -537103.94, -507033.66, 34729.402, -0.057604283, 0.13078174, -484224.53, -227933.89, 0.0, 9.998519, 9.998907 
1.6250621e+3, 2.8384838e+2, -470804.44, -364948.56, 4044.5938, -0.10821589, 0.14228085, -364794.25, -206495.03, 0.0, 9.998044, 9.999438 
1.6250631e+3, 2.9384816e+2, -386419.0, -264325.72, -1242.7036, -0.118502885, 0.15794969, -264313.1, -204012.27, 0.0, 9.997911, 9.99952 
1.6250649e+3, 3.0384725e+2, -336960.44, -189736.55, 18594.81, -0.058331143, 0.10874705, -187424.28, -187424.28, 0.0, 9.997803, 9.999753 
1.6250673e+3, 3.138475e+2, -281259.03, -56170.0, 7500.838, 0.034411326, 0.14777534, -55920.32, -55920.32, 0.0, 9.997722, 10.00071 
1.6350302e+3, 1.2386685e+2, -1520643.0, -1808727.1, -3922.5972, -0.20955247, 0.24780497, -1520589.6, 205530.0, 0.03398967, 10.002216, 9.998281 
1.6350365e+3, 1.3386375e+2, -1436121.1, -1750589.8, -20901.316, 0.20542806, 0.13260408, -1434738.0, 193413.4, 0.02102759, 10.00222, 9.998017 
1.6350353e+3, 1.4386232e+2, -1270514.0, -1493039.6, -43951.52, -0.09272359, 0.13978523, -1262147.6, 268016.75, 0.009775217, 10.002133, 9.999147 
1.6350383e+3, 1.5386118e+2, -1161825.6, -1371015.3, 9733.328, 0.053312443, 0.09000652, -1161373.8, 270797.16, 0.002860367, 10.0021105, 9.999322 
1.6350405e+3, 1.6386011e+2, -1128477.5, -1398165.0, 67835.25, 0.08384322, 0.08997168, -1112376.0, 221803.33, 0.00036087315, 10.002067, 9.998482 
1.6350427e+3, 1.7385904e+2, -1047171.2, -1318900.6, 42530.035, 0.015131217, 0.13886213, -1040670.1, 195521.58, 0.000005927034, 10.001997, 9.998386 
1.6350448e+3, 1.8385763e+2, -948152.0, -1195500.1, -34233.832, -0.0117662065, 0.15251948, -943501.3, 194705.02, 0.0, 10.001894, 9.998611 
1.6350465e+3, 1.9385587e+2, -866365.6, -1099324.0, -40806.684, 0.0064880964, 0.10337494, -859424.44, 180798.7, 0.0, 10.001757, 9.998665 
1.6350482e+3, 2.038545e+2, -825998.1, -1020948.8, -19292.635, 0.023019573, 0.10147965, -824107.25, 118128.984, 0.0, 10.001324, 9.998741 
1.6350506e+3, 2.138539e+2, -853896.4, -979716.7, -14615.526, 0.044136215, 0.15834872, -852220.94, -7978.177, 0.0, 10.0004425, 9.998776 
1.6350526e+3, 2.2385275e+2, -799664.9, -867151.5, -2905.031, 0.028151136, 0.15475085, -799540.06, -53286.348, 0.0, 9.9999895, 9.999094 
1.6350539e+3, 2.3385087e+2, -662051.4, -741833.9, 34855.777, -0.04714641, 0.04494677, -648968.7, -698.1475, 0.0, 10.000227, 9.9991665 
1.6350552e+3, 2.4384978e+2, -578246.8, -665114.06, 14327.487, -0.093913086, 0.028669406, -575944.75, -25663.994, 0.0, 10.000191, 9.999038 
1.6350561e+3, 2.5385004e+2, -543510.8, -595413.4, -5276.0938, -0.09728584, 0.1444102, -542979.94, -90700.21, 0.0, 9.999747, 9.999057 
1.6350578e+3, 2.638494e+2, -531989.25, -551819.9, 8412.924, -0.06624351, 0.18039265, -528901.06, -174614.2, 0.0, 9.999209, 9.998942 
1.6350602e+3, 2.7384728e+2, -533405.9, -499821.6, 10400.668, 0.019149303, 0.07202879, -496861.5, -240554.95, 0.0, 9.998519, 9.998958 
1.6350617e+3, 2.8384614e+2, -456840.84, -336734.8, -2946.2227, 0.028331943, 0.031284705, -336662.6, -178344.95, 0.0, 9.998045, 9.999633 
1.6350614e+3, 2.9384664e+2, -371777.63, -234838.31, -3894.7964, -0.08896092, 0.1034057, -234727.63, -174415.1, 0.0, 9.997912, 9.999723 
1.6350622e+3, 3.0384603e+2, -337822.03, -189793.45, 15013.166, -0.10714971, 0.07222292, -188286.16, -188286.16, 0.0, 9.997795, 9.999757 
1.635065e+3, 3.1384572e+2, -252627.38, 5121.5293, 5256.851, 0.02819692, 0.05767293, 5228.699, 5228.699, 0.0, 9.997714, 10.001135 
1.6450329e+3, 1.2386474e+2, -1483528.9, -1785685.4, -1098.5491, -0.18240002, 0.187396, -1483524.9, 242611.86, 0.036383986, 10.002467, 9.998318 
1.6450389e+3, 1.3386168e+2, -1368718.4, -1722141.1, 63062.727, 0.20878491, 0.08121596, -1357803.0, 270365.63, 0.022584815, 10.002719, 9.997973 
1.6450377e+3, 1.4386031e+2, -1185340.1, -1450252.6, 30703.078, -0.08998297, 0.09498094, -1181828.3, 348353.22, 0.010560797, 10.002718, 9.999163 
1.6450405e+3, 1.5385936e+2, -1113093.8, -1346442.1, -13443.523, 0.061479032, 0.0639478, -1112321.8, 319864.22, 0.0031241647, 10.002443, 9.99933 
1.6450427e+3, 1.6385832e+2, -1134653.6, -1422437.9, 4490.2856, 0.095546775, 0.07587827, -1134583.5, 199611.1, 0.0004029895, 10.002117, 9.99829 
1.6450447e+3, 1.7385711e+2, -1103763.1, -1370074.4, 30496.39, 0.022480223, 0.13039906, -1100315.5, 135894.45, 0.0000070009137, 10.001714, 9.99817 
1.6450463e+3, 1.8385565e+2, -1008199.56, -1216271.1, -1404.0521, -0.013859749, 0.14789198, -1008190.1, 130035.875, 0.0, 10.001449, 9.998682 
1.6450477e+3, 1.9385397e+2, -912392.9, -1109768.3, 4652.9233, -0.014917857, 0.09825517, -912283.25, 127958.42, 0.0, 10.001392, 9.998768 
1.6450492e+3, 2.0385261e+2, -829935.3, -1020546.7, 21551.18, -0.008280662, 0.089174576, -827529.0, 114725.664, 0.0, 10.001288, 9.99876 
1.6450511e+3, 2.1385185e+2, -757565.8, -932604.0, 23617.014, 0.015620961, 0.13027523, -754435.3, 89827.5, 0.0, 10.001103, 9.998779 
1.6450529e+3, 2.2385095e+2, -678373.25, -772867.3, 27213.156, 0.015265699, 0.13677104, -671096.56, 75174.71, 0.0, 10.000668, 9.9994135 
1.6450542e+3, 2.3384991e+2, -691534.9, -716248.3, 16678.494, -0.025414499, 0.07604848, -683134.44, -34854.965, 0.0, 9.999853, 9.999522 
1.6450553e+3, 2.4384913e+2, -708448.94, -756873.75, -25390.389, -0.06059097, 0.08053638, -697576.94, -147289.67, 0.0, 9.999422, 9.998777 
1.6450559e+3, 2.538488e+2, -594503.44, -658633.5, -43900.156, -0.088351406, 0.17275618, -572205.0, -119911.266, 0.0, 9.999563, 9.998711 
1.6450569e+3, 2.638479e+2, -488524.3, -495451.06, -36382.688, -0.07291992, 0.18848188, -455440.53, -101137.016, 0.0, 9.999356, 9.999257 
1.6450585e+3, 2.7384603e+2, -490485.53, -435436.28, -13240.83, 0.010954041, 0.06434019, -432417.1, -176098.56, 0.0, 9.998625, 9.999348 
1.6450597e+3, 2.8384504e+2, -442564.9, -320045.7, 2410.7937, 0.034075372, 0.0140229985, -319998.28, -161671.36, 0.0, 9.998102, 9.999719 
1.6450597e+3, 2.9384565e+2, -382137.28, -233749.4, -11901.618, -0.045422215, 0.09133332, -232800.89, -172479.16, 0.0, 9.997818, 9.999775 
1.6450602e+3, 3.0384532e+2, -373310.7, -206963.4, 7759.02, -0.08313578, 0.08684532, -206602.28, -206602.28, 0.0, 9.997555, 9.999752 
1.6450624e+3, 3.1384465e+2, -269399.7, 25736.49, -3330.2485, 0.017906591, 0.037308056, 25774.064, 25774.064, 0.0, 9.997477, 10.0013895 
1.6550367e+3, 1.238618e+2, -1432161.0, -1676895.0, -20605.5, -0.06591995, 0.013862616, -1430438.3, 295722.13, 0.03897044, 10.00247, 9.999078 
1.6550411e+3, 1.3386063e+2, -1316134.6, -1611514.4, 72080.99, 0.1468341, 0.02107437, -1299483.5, 328688.5, 0.024272982, 10.002723, 9.9987335 
1.6550392e+3, 1.4385971e+2, -1259397.0, -1603039.5, 19213.184, -0.21306536, 0.08536062, -1258326.1, 271855.13, 0.0114189135, 10.002712, 9.998112 
1.6550425e+3, 1.5385759e+2, -1203852.3, -1535526.6, -23377.297, 0.009752646, 0.06356374, -1202212.6, 229989.72, 0.0034161112, 10.002445, 9.99803 
1.6550447e+3, 1.6385575e+2, -1113681.4, -1379628.8, -10838.741, 0.077185735, 0.053635508, -1113240.4, 220980.63, 0.00045137366, 10.002118, 9.998585 
1.655046e+3, 1.7385441e+2, -1068566.8, -1297733.1, 16286.644, -0.017449765, 0.04971661, -1067415.1, 168819.92, 0.000008273259, 10.001714, 9.998669 
1.6550475e+3, 1.838533e+2, -987310.9, -1171667.6, -5741.8145, -0.04434134, 0.05915915, -987132.25, 151114.16, 0.0, 10.001443, 9.998992 
1.6550495e+3, 1.9385257e+2, -893371.9, -1070048.0, 3165.4646, 0.009486205, 0.07749274, -893315.2, 146937.7, 0.0, 10.0013895, 9.9990425 
1.6550508e+3, 2.0385145e+2, -827243.4, -1013750.3, 14454.427, 0.016633438, 0.072868794, -826129.8, 116133.86, 0.0, 10.001282, 9.99881 
1.6550517e+3, 2.1384978e+2, -756958.8, -930520.8, 17538.57, -0.03893504, 0.020525863, -755204.3, 89075.695, 0.0, 10.001099, 9.998797 
1.6550528e+3, 2.2384888e+2, -696154.56, -808469.44, -1625.1544, -0.057378564, 0.037075393, -696131.06, 50158.19, 0.0, 10.00066, 9.999174 
1.6550542e+3, 2.3384923e+2, -710314.6, -756048.25, -12853.456, -0.019331004, 0.14263423, -706949.7, -58662.77, 0.0, 9.999854, 9.999249 
1.6550554e+3, 2.4384868e+2, -730104.44, -801250.4, -23461.91, 0.008077759, 0.19948648, -723064.0, -172769.39, 0.0, 9.999418, 9.998476 
1.6550565e+3, 2.5384685e+2, -616559.1, -703892.6, -35960.246, 0.017457984, 0.17115656, -603658.0, -151341.36, 0.0, 9.999559, 9.998403 
1.6550569e+3, 2.6384562e+2, -446916.34, -408552.9, -59420.47, -0.007965395, 0.1471897, -365294.8, -10965.672, 0.0, 9.9993515, 9.999857 
1.6550563e+3, 2.7384534e+2, -439829.47, -331319.25, -37941.105, -0.085683644, 0.10810465, -319369.06, -63042.023, 0.0, 9.998628, 10.000063 
1.6550565e+3, 2.8384504e+2, -444405.78, -325239.13, -9227.746, -0.09214567, 0.08970437, -324528.8, -166201.0, 0.0, 9.998105, 9.999683 
1.655058e+3, 2.9384503e+2, -388934.66, -249946.22, -21672.031, 0.003867213, 0.11991125, -246645.36, -186316.05, 0.0, 9.997824, 9.999662 
1.6550586e+3, 3.03845e+2, -373536.22, -207047.11, 2654.3667, 0.0042826976, 0.15029079, -207004.8, -207004.8, 0.0, 9.997552, 9.999753 
1.6550596e+3, 3.138442e+2, -267085.9, 32706.053, 3402.7715, -0.01308489, 0.08314706, 32744.67, 32744.67, 0.0, 9.997467, 10.001441 
1.6650394e+3, 1.238599e+2, -1528152.6, -1712588.4, -49005.4, -0.00086403475, -0.015486838, -1515940.3, 210237.6, 0.04173646, 10.001745, 9.999171 
1.6650438e+3, 1.3385908e+2, -1300732.1, -1586999.5, 22595.889, 0.14420405, 0.012304215, -1298959.5, 329225.78, 0.026087236, 10.002766, 9.998883 
1.665042e+3, 1.4385822e+2, -1187338.0, -1580729.3, -54487.23, -0.22372794, 0.08063111, -1179930.6, 350263.47, 0.012349877, 10.003271, 9.997995 
1.6650449e+3, 1.5385611e+2, -1125267.0, -1515040.1, -17801.824, -0.018995302, 0.07422978, -1124455.6, 307761.03, 0.003737191, 10.003063, 9.997872 
1.6650468e+3, 1.638542e+2, -1038825.6, -1328711.5, 23779.213, 0.048391964, 0.060819123, -1036887.94, 297348.5, 0.00050616945, 10.002569, 9.998716 
1.6650476e+3, 1.7385277e+2, -1067820.6, -1279108.0, 22657.875, -0.025582097, 0.030393435, -1065418.1, 170832.16, 0.000009797576, 10.00164, 9.998832 
1.6650489e+3, 1.8385173e+2, -1028114.4, -1186951.5, 3651.7837, -0.044099987, 0.036011543, -1028030.44, 110230.17, 0.0, 10.0011425, 9.999032 
1.6650507e+3, 1.9385134e+2, -902565.1, -1070995.6, -4434.3047, -0.00031522897, 0.083646916, -902448.44, 137816.14, 0.0, 10.001312, 9.999073 
1.6650519e+3, 2.0385036e+2, -833733.5, -1011535.75, -16459.824, 0.0061949943, 0.09105279, -832222.6, 110051.64, 0.0, 10.001218, 9.998856 
1.6650526e+3, 2.1384858e+2, -812908.8, -952413.44, -15404.521, -0.036983054, 0.023798583, -811228.06, 33063.61, 0.0, 10.000694, 9.99884 
1.6650532e+3, 2.2384758e+2, -768873.25, -862236.6, -37080.33, -0.05306769, 0.03648, -755938.4, -9636.25, 0.0, 10.000243, 9.999005 
1.665054e+3, 2.3384787e+2, -718393.8, -782642.75, -46161.09, -0.030377962, 0.15563595, -694279.25, -45978.105, 0.0, 9.999897, 9.999045 
1.6650549e+3, 2.4384728e+2, -681926.9, -736257.4, -14205.159, -0.006104979, 0.20172684, -678437.0, -128127.83, 0.0, 9.99957, 9.998848 
1.6650559e+3, 2.5384542e+2, -627242.8, -659778.2, 28554.053, 0.018142143, 0.12700498, -610647.56, -158317.8, 0.0, 9.999276, 9.998841 
1.6650562e+3, 2.6384452e+2, -502731.2, -429994.97, 2198.379, -0.0027240205, 0.10779877, -429928.6, -75589.53, 0.0, 9.998946, 9.999905 
1.6650549e+3, 2.73845e+2, -456930.53, -340342.38, -33344.96, -0.08993754, 0.14765796, -331479.28, -75148.02, 0.0, 9.998515, 10.000053 
1.6650549e+3, 2.838449e+2, -434957.56, -332704.63, -21328.535, -0.086940594, 0.15168783, -328434.13, -170102.63, 0.0, 9.998224, 9.999574 
1.6650563e+3, 2.9384416e+2, -348732.53, -243106.9, -35234.613, 0.043661814, 0.12263355, -232432.16, -172092.39, 0.0, 9.998155, 9.999549 
1.6650565e+3, 3.0384427e+2, -306940.16, -166048.55, -7635.5938, 0.024125332, 0.16707715, -165635.95, -165635.95, 0.0, 9.997971, 9.999833 
1.6650568e+3, 3.1384352e+2, -251626.94, 25956.914, 4910.192, -0.049948245, 0.09918856, 26043.744, 26043.744, 0.0, 9.997634, 10.001315 
1.6750412e+3, 1.2385897e+2, -1563164.3, -1789526.6, -43662.508, 0.0010335403, 0.08901685, -1555034.3, 171155.44, 0.044670295, 10.001754, 9.99864 
1.675047e+3, 1.3385707e+2, -1332130.8, -1652725.1, 61184.645, 0.19211224, 0.053615328, -1320850.6, 307357.47, 0.028026333, 10.0027685, 9.998426 
1.6750462e+3, 1.438559e+2, -1133128.6, -1465507.8, -59055.34, -0.13217656, 0.078787185, -1122947.8, 407271.84, 0.013357116, 10.003263, 9.9987955 
1.675048e+3, 1.5385495e+2, -1059117.6, -1375777.4, -24805.8, -0.029403407, 0.095532686, -1057186.3, 375042.5, 0.004090086, 10.003056, 9.998834 
1.6750489e+3, 1.6385372e+2, -1042697.44, -1335778.4, -9338.847, 0.005031356, 0.09763689, -1042400.2, 291840.72, 0.0005678562, 10.0025625, 9.998672 
1.6750494e+3, 1.7385218e+2, -1079784.3, -1304969.9, -12319.51, -0.006592948, 0.07144353, -1079112.3, 157143.9, 0.000011659807, 10.001642, 9.998654 
1.6750503e+3, 1.8385091e+2, -1043710.6, -1218434.0, 4805.554, -0.018840278, 0.07684254, -1043578.56, 94690.27, 0.0, 10.001137, 9.998819 
1.6750515e+3, 1.9385022e+2, -918701.25, -1103892.0, 3222.038, -0.049061894, 0.11527112, -918645.2, 121631.64, 0.0, 10.001308, 9.99885 
1.6750526e+3, 2.0384932e+2, -832275.9, -1006857.2, -34081.83, -0.04571775, 0.14195855, -825858.3, 116428.3, 0.0, 10.001209, 9.998893 
1.6750538e+3, 2.1384825e+2, -808958.94, -943678.06, -34079.965, 0.017014643, 0.1379457, -800828.44, 43469.637, 0.0, 10.00069, 9.998903 
1.6750541e+3, 2.2384708e+2, -777480.5, -878635.2, -50751.395, 0.02278479, 0.13420844, -756407.5, -10097.439, 0.0, 10.000236, 9.998898 
1.6750535e+3, 2.3384586e+2, -728260.1, -802915.3, -57166.36, -0.061623465, 0.11552178, -697313.75, -48991.586, 0.0, 9.999894, 9.998909 
1.6750534e+3, 2.438449e+2, -611839.75, -589643.6, -25152.957, -0.10628678, 0.08878267, -573249.2, -22918.059, 0.0, 9.999562, 9.99986 
1.6750541e+3, 2.5384447e+2, -546073.5, -491210.3, 19633.521, -0.08976447, 0.04187388, -484908.16, -32574.422, 0.0, 9.999272, 10.000002 
1.6750546e+3, 2.6384446e+2, -538545.75, -503446.34, -12720.996, -0.06151366, 0.06963179, -499320.78, -144986.69, 0.0, 9.9989395, 9.999405 
1.6750541e+3, 2.7384496e+2, -506806.94, -444623.78, -47425.367, -0.009320061, 0.18191877, -419006.9, -162674.9, 0.0, 9.998516, 9.999338 
1.6750543e+3, 2.8384447e+2, -448338.5, -360657.8, -24696.176, 0.040096376, 0.19962436, -354180.4, -195841.75, 0.0, 9.998223, 9.999383 
1.6750549e+3, 2.9384303e+2, -355777.38, -258065.8, -34608.742, 0.067231454, 0.10513251, -247049.61, -186696.45, 0.0, 9.998155, 9.999446 
1.6750541e+3, 3.0384302e+2, -297522.5, -147019.1, -19027.947, -0.02688512, 0.1394456, -144650.69, -144650.69, 0.0, 9.997971, 9.999965 
1.6750538e+3, 3.1384286e+2, -277831.25, -28006.53, 11477.295, -0.11037464, 0.12047973, -27480.355, -27480.355, 0.0, 9.997631, 10.000946 
1.6850439e+3, 1.23858005e+2, -1262917.8, -1651662.3, -42601.027, -0.013064087, 0.15781969, -1258304.0, 467898.03, 0.04776622, 10.003969, 9.998541 
1.6850495e+3, 1.3385539e+2, -1334193.1, -1652520.9, 115797.59, 0.17374292, 0.048236717, -1296526.5, 331698.94, 0.030093629, 10.002753, 9.998439 
1.6850494e+3, 1.43854e+2, -1293921.0, -1522087.1, -2843.5667, -0.08582148, 0.04515632, -1293885.5, 236352.6, 0.0144471, 10.002054, 9.998985 
1.6850507e+3, 1.5385373e+2, -1174812.5, -1408275.6, -24680.115, 0.0017988896, 0.106714144, -1172232.0, 260009.89, 0.004479329, 10.002156, 9.999044 
1.6850515e+3, 1.6385284e+2, -1109651.9, -1370484.5, -56183.17, 0.028027356, 0.13451879, -1098064.9, 236186.11, 0.0006375465, 10.002114, 9.99865 
1.6850513e+3, 1.7385124e+2, -1053440.9, -1297484.8, -54148.03, 0.010269749, 0.10740802, -1041966.1, 194300.05, 0.00001399049, 10.001849, 9.998605 
1.6850516e+3, 1.838498e+2, -991779.3, -1194542.1, -9508.896, -0.01514517, 0.0946352, -991334.4, 146946.08, 0.0, 10.0015, 9.998808 
1.6850524e+3, 1.9384864e+2, -962614.0, -1127015.8, 4290.286, -0.06981074, 0.09029964, -962502.1, 77790.11, 0.0, 10.001016, 9.998833 
1.6850534e+3, 2.0384778e+2, -905722.4, -1032759.1, -27724.855, -0.06858557, 0.11778245, -899935.25, 42366.64, 0.0, 10.000663, 9.998978 
1.6850545e+3, 2.1384747e+2, -827372.8, -940995.7, -27901.035, 0.024561059, 0.1811829, -820891.25, 23415.896, 0.0, 10.000515, 9.999006 
1.6850546e+3, 2.2384651e+2, -762405.0, -850606.2, -34649.844, 0.034751058, 0.18423532, -750421.06, -4103.8936, 0.0, 10.000252, 9.999081 
1.6850531e+3, 2.3384464e+2, -728040.2, -781010.94, -19142.63, -0.086421974, 0.07979312, -721846.6, -73512.836, 0.0, 9.999806, 9.9991 
1.6850524e+3, 2.438436e+2, -648257.2, -587760.7, -4639.5576, -0.14393784, 0.028106863, -587406.94, -37064.527, 0.0, 9.999232, 10.0000305 
1.6850528e+3, 2.5384402e+2, -654864.6, -525052.9, -36271.516, -0.1035973, 0.048416838, -515605.56, -63268.164, 0.0, 9.998449, 10.000164 
1.6850531e+3, 2.638444e+2, -664147.75, -561301.6, -76612.42, -0.053488515, 0.10371705, -520454.47, -166119.6, 0.0, 9.998067, 9.999427 
1.6850528e+3, 2.738446e+2, -536261.25, -458612.97, -58354.195, 0.014536088, 0.18610133, -427347.7, -171010.88, 0.0, 9.998315, 9.999339 
1.6850528e+3, 2.8384402e+2, -423263.88, -347504.72, -14.493334, 0.061878882, 0.19519465, -347504.72, -189159.98, 0.0, 9.998392, 9.999392 
1.685053e+3, 2.9384264e+2, -353307.25, -254101.13, -3416.8516, 0.06515474, 0.11150667, -253983.58, -193625.97, 0.0, 9.998161, 9.99947 
1.6850519e+3, 3.038427e+2, -312152.97, -126687.305, 9994.304, -0.023720767, 0.13161512, -126150.29, -126150.29, 0.0, 9.997755, 10.000207 
1.6850515e+3, 3.1384313e+2, -366042.88, -81855.9, 59678.56, -0.082120106, 0.15242861, -69832.26, -69832.26, 0.0, 9.997074, 10.000845 
1.6950473e+3, 1.2385684e+2, -1244814.0, -1611404.3, -104983.27, -0.05714353, 0.17207552, -1216878.0, 509338.4, 0.05102808, 10.003966, 9.998837 
1.6950515e+3, 1.3385406e+2, -1303202.9, -1584529.3, 72429.97, 0.084605955, -0.0015879438, -1285650.3, 342586.75, 0.032295942, 10.002749, 9.99891 
1.6950513e+3, 1.438526e+2, -1324166.8, -1585851.0, -6062.2173, -0.08907344, -0.020485949, -1324026.4, 206223.16, 0.015627254, 10.002055, 9.9985485 
1.6950537e+3, 1.5385245e+2, -1211711.5, -1486744.1, -19989.193, 0.068106726, 0.10834716, -1210266.3, 221989.6, 0.004910431, 10.002162, 9.998503 
1.6950545e+3, 1.6385163e+2, -1109178.8, -1370001.1, -65365.375, 0.109135576, 0.17313574, -1093714.3, 240551.92, 0.0007170378, 10.002114, 9.998653 
1.6950533e+3, 1.7385001e+2, -1047789.56, -1286685.4, -62976.05, 0.02047017, 0.13672182, -1032204.94, 204075.56, 0.000016975888, 10.00185, 9.99868 
1.695053e+3, 1.8384832e+2, -980967.8, -1170708.0, -27139.797, -0.038918294, 0.088839054, -977162.1, 161133.28, 0.0, 10.001493, 9.998976 
1.6950534e+3, 1.938466e+2, -950510.2, -1101769.1, -12900.73, -0.06638401, 0.010323863, -949417.75, 90892.89, 0.0, 10.001013, 9.999008 
1.695054e+3, 2.0384574e+2, -897765.94, -1014283.7, -34898.57, -0.06641762, 0.020289958, -888113.06, 54206.98, 0.0, 10.000653, 9.999109 
1.6950546e+3, 2.1384625e+2, -819824.8, -923656.06, -32069.348, -0.018072223, 0.15368594, -810718.56, 33600.59, 0.0, 10.000506, 9.99913 
1.6950543e+3, 2.2384587e+2, -731224.06, -783302.1, -50650.613, -0.022431433, 0.18641485, -700311.25, 46012.65, 0.0, 10.000239, 9.999549 
1.6950527e+3, 2.3384415e+2, -693190.6, -708036.5, -34293.55, -0.10949606, 0.047801826, -665525.9, -17189.35, 0.0, 9.999802, 9.999604 
1.695052e+3, 2.4384332e+2, -695573.0, -685219.5, -32188.998, -0.1253364, 0.01773355, -657793.6, -107449.945, 0.0, 9.999228, 9.999364 
1.6950521e+3, 2.53844e+2, -712269.7, -645168.56, -63473.246, -0.028861577, 0.144064, -606924.3, -154583.06, 0.0, 9.998451, 9.99934 
1.695052e+3, 2.6384422e+2, -627107.44, -484954.7, -70614.74, 0.01551264, 0.20851061, -455839.78, -101497.96, 0.0, 9.998068, 9.99995 
1.6950507e+3, 2.7384385e+2, -487069.7, -357428.53, -46016.086, -0.024931086, 0.16269296, -342755.78, -86409.734, 0.0, 9.998318, 10.000032 
1.6950503e+3, 2.8384343e+2, -410121.88, -320827.66, -6080.8013, -0.027171923, 0.139988, -320415.47, -162064.97, 0.0, 9.998392, 9.999577 
1.6950507e+3, 2.9384303e+2, -344260.4, -235091.56, -9532.041, 0.03250312, 0.14137661, -234265.53, -173911.42, 0.0, 9.9981575, 9.999604 
1.6950502e+3, 3.0384305e+2, -288019.7, -76818.96, -13281.629, 0.026949009, 0.13784407, -75987.0, -75987.0, 0.0, 9.997754, 10.000551 
1.6950496e+3, 3.1384456e+2, -346682.75, -42881.82, 52654.785, 0.013674665, 0.23130322, -34014.508, -34014.508, 0.0, 9.997078, 10.001111 
1.7050517e+3, 1.2385678e+2, -1248012.0, -1624105.4, -66066.35, -0.03497456, 0.18178007, -1236744.0, 489474.75, 0.054460384, 10.004008, 9.998728 
1.7050543e+3, 1.3385426e+2, -1218423.6, -1545036.4, 86380.7, 0.059804413, 0.033017777, -1196985.3, 431251.25, 0.034638863, 10.00337, 9.998891 
1.7050543e+3, 1.4385262e+2, -1233953.5, -1585171.0, 18036.686, -0.04904326, 0.018251035, -1233029.6, 297220.84, 0.016903277, 10.002877, 9.998156 
1.7050561e+3, 1.5385166e+2, -1191839.8, -1526037.0, 12580.828, 0.081932165, 0.10811519, -1191366.8, 240898.55, 0.00538814, 10.002512, 9.998065 
1.7050566e+3, 1.6385049e+2, -1083009.4, -1337177.4, -24733.537, 0.11159336, 0.15167992, -1080624.9, 253654.38, 0.0008082668, 10.002206, 9.998836 
1.7050552e+3, 1.7384921e+2, -1005621.75, -1237791.0, -11115.657, 0.026119925, 0.12588471, -1005090.75, 231198.25, 0.000020835996, 10.002016, 9.998937 
1.7050545e+3, 1.8384773e+2, -948885.7, -1146052.5, 20526.648, -0.0330558, 0.081805386, -946771.4, 191529.73, 0.0, 10.001673, 9.999059 
1.7050545e+3, 1.9384599e+2, -934622.6, -1086453.9, 23117.96, -0.0652389, -0.0059653986, -931180.7, 109135.43, 0.0, 10.001092, 9.999074 
1.7050545e+3, 2.0384511e+2, -919999.25, -1025398.4, -1457.6569, -0.07366858, 0.0008356858, -919979.06, 22346.271, 0.0, 10.0005045, 9.9991045 
1.7050545e+3, 2.138457e+2, -909705.6, -969244.3, -10226.081, -0.041850835, 0.14287603, -907998.2, -63673.785, 0.0, 9.999901, 9.999108 
1.7050539e+3, 2.238455e+2, -834249.1, -820905.7, -42177.594, -0.038311847, 0.18949668, -784875.4, -38547.36, 0.0, 9.999482, 9.999655 
1.7050526e+3, 2.338441e+2, -749555.1, -721711.0, -57412.61, -0.08102053, 0.07219948, -676556.56, -28218.707, 0.0, 9.999359, 9.9997225 
1.7050514e+3, 2.438434e+2, -711134.7, -698799.3, -60034.395, -0.086717345, 0.050103348, -644616.6, -94272.42, 0.0, 9.999148, 9.999309 
1.7050506e+3, 2.538438e+2, -667833.75, -632256.56, -39712.594, -0.032614075, 0.16140322, -606530.5, -154186.4, 0.0, 9.998796, 9.999261 
1.7050499e+3, 2.6384386e+2, -556080.94, -451964.25, -10082.409, -0.0069484063, 0.21205048, -450996.88, -96650.24, 0.0, 9.998566, 9.999936 
1.7050491e+3, 2.738434e+2, -461983.2, -346214.3, -37485.633, -0.031549048, 0.15986635, -335136.56, -78784.85, 0.0, 9.998497, 10.000022 
1.7050485e+3, 2.8384334e+2, -418682.38, -287673.75, -38730.52, -0.03432285, 0.15954916, -277080.3, -118727.69, 0.0, 9.998177, 9.999906 
1.7050484e+3, 2.938438e+2, -412148.38, -226680.8, -27228.645, 0.0077487193, 0.20765981, -222765.98, -162418.13, 0.0, 9.997519, 9.999969 
1.7050478e+3, 3.038435e+2, -390342.47, -140402.84, -35705.0, 0.03886304, 0.1594688, -135402.28, -135402.28, 0.0, 9.997115, 10.000422 
1.7050469e+3, 3.1384483e+2, -358957.47, -43998.992, -4407.386, 0.041434713, 0.24641648, -43937.332, -43937.332, 0.0, 9.996977, 10.00115 
1.7150564e+3, 1.2385761e+2, -1289471.1, -1703261.5, -98309.66, 0.042128224, 0.1670115, -1267302.1, 458908.94, 0.05805095, 10.003986, 9.998168 
1.715058e+3, 1.3385594e+2, -1252333.4, -1614499.8, 64524.6, 0.09018771, 0.15332155, -1241180.9, 387043.06, 0.037118543, 10.003373, 9.998397 
1.7150578e+3, 1.4385413e+2, -1258217.5, -1637044.5, 3019.3914, 0.024565874, 0.16256826, -1258193.5, 272047.1, 0.018276531, 10.002882, 9.997798 
1.7150582e+3, 1.5385133e+2, -1215354.0, -1575185.6, -300.1555, 0.040223286, 0.10363527, -1215353.8, 216916.55, 0.005915651, 10.002512, 9.997728 
1.715058e+3, 1.6384935e+2, -1059949.0, -1288114.0, -33293.63, 0.031271245, 0.069951884, -1055190.1, 279099.88, 0.0009130136, 10.0022, 9.999177 
1.7150572e+3, 1.7384882e+2, -975327.25, -1175866.0, -17449.05, 0.022568334, 0.07597382, -973820.4, 262471.53, 0.000025810483, 10.002018, 9.999362 
1.7150564e+3, 1.83848e+2, -949597.2, -1146714.9, -763.5464, -0.0047887648, 0.0733342, -949594.25, 188703.39, 0.0, 10.001668, 9.999057 
1.7150556e+3, 1.9384673e+2, -939077.06, -1095147.1, 1907.6041, -0.07099956, 0.03792428, -939053.75, 101255.31, 0.0, 10.001087, 9.999018 
1.7150548e+3, 2.0384587e+2, -930883.4, -1046350.7, -24696.896, -0.09613953, 0.056507546, -925822.9, 16495.59, 0.0, 10.000497, 9.998965 
1.7150544e+3, 2.138458e+2, -921790.4, -993281.9, -31550.297, -0.05167638, 0.14865793, -909858.25, -65535.055, 0.0, 9.999894, 9.998947 
1.7150538e+3, 2.2384536e+2, -854503.56, -861146.1, -49048.58, -0.018386006, 0.19388787, -808663.94, -62334.113, 0.0, 9.999474, 9.999384 
1.7150527e+3, 2.3384446e+2, -769813.06, -763409.9, -60151.42, -0.005266197, 0.15139726, -706374.94, -58036.668, 0.0, 9.999355, 9.999439 
1.7150511e+3, 2.4384376e+2, -674318.5, -621068.5, -72012.734, -0.03311029, 0.12398424, -570916.4, -20571.963, 0.0, 9.999142, 9.9998455 
1.7150486e+3, 2.5384352e+2, -623040.6, -539277.1, -50798.277, -0.12049539, 0.102383904, -515321.6, -62975.14, 0.0, 9.998795, 9.999901 
1.7150474e+3, 2.638433e+2, -595369.2, -533456.06, -13094.368, -0.12529133, 0.11513137, -530800.56, -176450.39, 0.0, 9.998564, 9.999379 
1.7150478e+3, 2.7384326e+2, -512460.38, -450845.72, -37980.11, -0.009686201, 0.17720608, -432749.25, -176394.61, 0.0, 9.998495, 9.999306 
1.7150475e+3, 2.838438e+2, -386487.47, -219781.44, -60807.215, 0.033893354, 0.25316533, -199958.67, -41606.77, 0.0, 9.998172, 10.000375 
1.7150457e+3, 2.9384494e+2, -371177.34, -141517.77, -48330.902, -0.017869512, 0.3114598, -131761.2, -71421.586, 0.0, 9.997517, 10.000555 
1.7150445e+3, 3.0384398e+2, -435416.22, -235741.98, -42260.777, 0.004116876, 0.19590646, -227165.89, -227165.89, 0.0, 9.997119, 9.999767 
1.7150433e+3, 3.1384325e+2, -364388.22, -57947.79, -2698.3987, -0.0097795, 0.15664357, -57924.027, -57924.027, 0.0, 9.996985, 10.001052 
1.725061e+3, 1.2385819e+2, -1433045.9, -1798641.1, -147775.14, 0.14159507, 0.19132736, -1380785.0, 345423.06, 0.061773986, 10.00305, 9.9979725 
1.7250615e+3, 1.3385683e+2, -1263068.6, -1634391.5, 39098.273, 0.10782867, 0.22127366, -1258996.5, 369223.84, 0.03972162, 10.003372, 9.998258 
1.7250617e+3, 1.4385502e+2, -1177128.9, -1577610.0, -102.67855, 0.08159375, 0.23266132, -1177128.9, 353107.84, 0.019743169, 10.003369, 9.997972 
1.7250606e+3, 1.5385179e+2, -1156170.0, -1522356.1, 32487.295, 0.01175707, 0.1083497, -1153310.1, 278957.0, 0.006494274, 10.002819, 9.997943 
1.7250597e+3, 1.6384962e+2, -1056922.0, -1309319.1, 11794.328, -0.020155394, 0.053672284, -1056372.0, 277915.28, 0.001032908, 10.002319, 9.998974 
1.7250594e+3, 1.7384925e+2, -1010673.44, -1221692.1, -23273.629, 0.03975094, 0.10227748, -1008137.06, 228152.77, 0.00003215152, 10.001901, 9.999103 
1.7250586e+3, 1.8384865e+2, -978594.1, -1163983.6, -41175.543, 0.043017734, 0.13700128, -969860.4, 168434.56, 0.0, 10.001483, 9.999027 
1.7250569e+3, 1.9384772e+2, -940476.4, -1096552.6, -37660.43, -0.054425076, 0.13471554, -931864.3, 108439.18, 0.0, 10.0010805, 9.999011 
1.7250553e+3, 2.038467e+2, -912514.9, -1036866.8, -59012.184, -0.09874744, 0.13737212, -888968.7, 53344.965, 0.0, 10.000621, 9.99897 
1.7250544e+3, 2.138457e+2, -895617.56, -979479.56, -57096.13, -0.054029014, 0.13546807, -866709.5, -22384.252, 0.0, 10.0000725, 9.998955 
1.7250532e+3, 2.2384495e+2, -837339.4, -850135.06, -46386.016, -0.01997471, 0.14761487, -796912.06, -50577.957, 0.0, 9.99958, 9.999407 
1.7250519e+3, 2.338447e+2, -796203.5, -772894.2, -34926.875, -0.008679278, 0.16969982, -747728.8, -99391.27, 0.0, 9.999164, 9.999464 
1.72505e+3, 2.438444e+2, -697874.56, -617517.1, -42289.324, -0.043244362, 0.17532578, -599363.0, -49022.637, 0.0, 9.99892, 9.999974 
1.7250472e+3, 2.538441e+2, -591262.8, -508866.47, -60711.266, -0.14337495, 0.13447261, -476694.72, -24352.51, 0.0, 9.998952, 10.000031 
1.7250457e+3, 2.6384374e+2, -583944.06, -522244.38, -34296.88, -0.14146785, 0.12522182, -506964.1, -152617.84, 0.0, 9.998619, 9.999429 
1.7250462e+3, 2.7384353e+2, -623144.0, -499963.6, -6972.915, 0.007531475, 0.16356885, -499570.16, -243218.53, 0.0, 9.997719, 9.999341 
1.7250453e+3, 2.83844e+2, -530766.8, -295329.34, -7214.262, 0.055553887, 0.2336246, -295108.5, -136758.88, 0.0, 9.99721, 10.0003195 
1.7250429e+3, 2.9384527e+2, -411508.06, -172744.45, -46715.16, -0.025037343, 0.31228432, -163929.84, -103591.78, 0.0, 9.997294, 10.000446 
1.725042e+3, 3.038446e+2, -420236.44, -234184.17, -46339.19, 0.029854726, 0.23867024, -223281.56, -223281.56, 0.0, 9.9972515, 9.999714 
1.7250402e+3, 3.1384355e+2, -335359.16, 14852.032, 40371.41, -0.014562577, 0.1603068, 19445.688, 19445.688, 0.0, 9.996933, 10.001578 
1.7350651e+3, 1.2385856e+2, -1430108.6, -1787701.5, -133257.88, 0.25029033, 0.25459632, -1385912.1, 340297.25, 0.06561464, 10.003039, 9.998053 
1.735065e+3, 1.338569e+2, -1251703.0, -1607028.3, 51038.113, 0.107422784, 0.2338983, -1244517.4, 383708.5, 0.04243688, 10.003366, 9.998453 
1.7350653e+3, 1.4385533e+2, -1132200.8, -1480478.0, -16989.867, 0.11753582, 0.22821923, -1131373.9, 398864.97, 0.021297567, 10.00336, 9.9986515 
1.7350632e+3, 1.5385304e+2, -1103326.0, -1413513.0, 12413.417, -0.00954655, 0.123416156, -1102830.1, 329425.78, 0.0071235094, 10.002825, 9.99869 
1.7350617e+3, 1.638513e+2, -1108105.6, -1415894.1, -5469.365, -0.05203104, 0.10304515, -1108008.5, 226262.8, 0.0011691477, 10.002319, 9.998242 
1.7350617e+3, 1.7385052e+2, -1076043.3, -1357107.9, -38039.793, 0.07334662, 0.20149519, -1070985.9, 165297.13, 0.00004011834, 10.001898, 9.998176 
1.7350607e+3, 1.8384972e+2, -984457.3, -1174609.3, -56354.82, 0.105320595, 0.2705027, -969010.44, 169282.64, 0.0, 10.001475, 9.99896 
1.7350583e+3, 1.9384895e+2, -938506.6, -1091731.0, -51005.29, -0.020811815, 0.28376627, -923080.94, 117218.375, 0.0, 10.001076, 9.999048 
1.735056e+3, 2.038476e+2, -904038.1, -1017799.0, -79202.336, -0.08742292, 0.2427286, -863407.6, 78903.53, 0.0, 10.000612, 9.999105 
1.7350544e+3, 2.1384536e+2, -885797.2, -958968.75, -75921.875, -0.05326328, 0.10168974, -838105.75, 6225.1577, 0.0, 10.00007, 9.999098 
1.7350525e+3, 2.2384417e+2, -816011.56, -804267.25, -62294.12, -0.048558533, 0.050781287, -747569.1, -1227.7539, 0.0, 9.999574, 9.999725 
1.7350502e+3, 2.3384482e+2, -773289.56, -724917.06, -48458.32, -0.09467815, 0.12866433, -694944.44, -46608.473, 0.0, 9.999161, 9.999796 
1.7350481e+3, 2.4384528e+2, -719531.56, -661405.44, -42700.383, -0.12038476, 0.20425424, -638815.94, -88483.32, 0.0, 9.998915, 9.999677 
1.7350467e+3, 2.5384554e+2, -618574.3, -564582.9, -57229.336, -0.10664083, 0.2553213, -528301.7, -75969.57, 0.0, 9.998945, 9.999653 
1.7350452e+3, 2.6384518e+2, -540672.56, -430812.16, -63623.34, -0.06206999, 0.2407372, -401687.28, -47351.637, 0.0, 9.9986105, 10.000061 
1.735044e+3, 2.7384415e+2, -569449.94, -389062.78, -39152.56, 0.012120118, 0.12131599, -380931.34, -124587.96, 0.0, 9.997721, 10.000102 
1.7350422e+3, 2.838439e+2, -570452.8, -379875.7, -7950.7144, 0.02330047, 0.10213324, -379544.56, -221197.72, 0.0, 9.997216, 9.999737 
1.7350404e+3, 2.938447e+2, -466859.84, -290504.97, -40403.383, -0.018641585, 0.20912373, -281689.16, -221344.73, 0.0, 9.997303, 9.999636 
1.7350401e+3, 3.0384538e+2, -383341.2, -158295.05, -55939.6, 0.10977716, 0.29564318, -145157.14, -145157.14, 0.0, 9.997254, 10.000234 
1.7350376e+3, 3.138447e+2, -259921.42, 173473.53, 9987.541, 0.021655452, 0.18105493, 173703.58, 173703.58, 0.0, 9.996925, 10.002672 
1.745069e+3, 1.2385973e+2, -1258568.6, -1727168.1, -36114.44, 0.27796403, 0.26757234, -1255801.8, 470397.6, 0.06957677, 10.004442, 9.997776 
1.7450678e+3, 1.3385789e+2, -1264323.9, -1631302.8, 103378.46, 0.06464093, 0.24911506, -1237205.9, 391013.2, 0.045260757, 10.003367, 9.998286 
1.7450687e+3, 1.4385654e+2, -1192678.6, -1471057.0, 19380.283, 0.15374091, 0.25776327, -1191335.9, 338894.84, 0.022935338, 10.002771, 9.9990015 
1.7450663e+3, 1.5385497e+2, -1068611.8, -1350946.1, 21431.846, 0.02637251, 0.18367635, -1066994.1, 365245.25, 0.0078018596, 10.002869, 9.9991 
1.7450644e+3, 1.6385339e+2, -1069782.1, -1423559.6, -2293.0054, -0.031451415, 0.16737095, -1069767.3, 264485.38, 0.0013223152, 10.002697, 9.998007 
1.7450635e+3, 1.7385189e+2, -1063654.0, -1387320.8, 6497.0977, 0.055615343, 0.22563522, -1063523.6, 172748.42, 0.000049909977, 10.00214, 9.99785 
1.7450619e+3, 1.8385066e+2, -967244.9, -1170431.5, 17006.832, 0.07570025, 0.27124682, -965831.25, 172455.44, 0.0000000000000006446772, 10.001615, 9.9989195 
1.7450593e+3, 1.9384992e+2, -929671.9, -1087866.4, 17517.53, -0.022758901, 0.2865346, -927755.25, 112537.5, 0.0, 10.001142, 9.999041 
1.745057e+3, 2.0384865e+2, -879399.2, -981393.25, -10282.995, -0.075448, 0.24638215, -878372.75, 63930.21, 0.0, 10.000677, 9.999323 
1.7450546e+3, 2.1384667e+2, -845029.8, -912219.2, -1790.1924, -0.05165239, 0.10668755, -844982.2, -663.44617, 0.0, 10.000233, 9.99934 
1.7450522e+3, 2.2384563e+2, -772710.8, -795170.6, 11206.828, -0.05610455, 0.059694618, -768075.56, -21748.156, 0.0, 9.999924, 9.999619 
1.7450495e+3, 2.3384617e+2, -687037.2, -700800.94, -12668.401, -0.10922022, 0.14324051, -679502.1, -31178.22, 0.0, 9.999829, 9.999639 
1.7450473e+3, 2.4384649e+2, -678543.06, -653195.7, -33535.777, -0.12103734, 0.21887416, -630018.7, -79696.125, 0.0, 9.999247, 9.999573 
1.7450455e+3, 2.538466e+2, -780373.06, -653317.94, -31028.822, -0.06192428, 0.26473418, -646145.2, -193821.3, 0.0, 9.997884, 9.999554 
1.7450437e+3, 2.6384634e+2, -707008.9, -475333.34, -15696.06, -0.007951988, 0.25198627, -474274.78, -119948.9, 0.0, 9.99732, 10.000375 
1.7450418e+3, 2.738457e+2, -501985.8, -315814.75, -20128.863, 0.01655344, 0.13554084, -313663.28, -57335.223, 0.0, 9.998012, 10.0004635 
1.7450395e+3, 2.8384534e+2, -436174.7, -317684.1, 6310.7915, -0.006679522, 0.08800605, -317348.94, -159017.39, 0.0, 9.998152, 9.999711 
1.7450373e+3, 2.9384556e+2, -461299.06, -300930.3, 20945.799, -0.050651647, 0.14116012, -298239.72, -237904.02, 0.0, 9.997401, 9.999516 
1.7450373e+3, 3.038471e+2, -450828.03, -171753.14, 22246.44, 0.1240052, 0.31680816, -169990.9, -169990.9, 0.0, 9.996708, 10.000406 
1.7450343e+3, 3.1384662e+2, -386671.28, 124054.37, 10987.172, 0.048531573, 0.1967424, 124290.625, 124290.625, 0.0, 9.996009, 10.002773 
1.755073e+3, 1.2386182e+2, -1305041.0, -1822717.5, -51472.332, 0.21975479, 0.24302408, -1299972.8, 426203.8, 0.07366956, 10.004423, 9.997132 
1.7550702e+3, 1.3385986e+2, -1299447.3, -1707152.5, 64909.168, -0.025694037, 0.26648563, -1289362.8, 338837.28, 0.048192136, 10.003375, 9.997758 
1.7550719e+3, 1.438587e+2, -1192490.1, -1469808.0, 18263.598, 0.1815858, 0.3239925, -1191292.5, 338919.38, 0.024652572, 10.002772, 9.999011 
1.7550702e+3, 1.5385757e+2, -1065247.3, -1341662.0, 25788.594, 0.1133466, 0.2867527, -1062861.9, 369356.03, 0.008527423, 10.00286, 9.999169 
1.7550679e+3, 1.6385588e+2, -1055473.3, -1390425.6, -21688.41, 0.035227124, 0.24434808, -1054074.8, 280156.94, 0.0014925194, 10.002682, 9.998243 
1.7550649e+3, 1.738534e+2, -1046422.2, -1350662.0, -13713.566, -0.018010734, 0.17757359, -1045805.3, 190451.6, 0.00006156021, 10.002135, 9.998106 
1.7550622e+3, 1.8385148e+2, -968746.06, -1173031.3, -1271.5973, -0.051157497, 0.14291032, -968738.1, 169537.8, 0.0000000010737394, 10.00161, 9.998904 
1.7550601e+3, 1.9385056e+2, -934245.0, -1096874.8, 1175.3511, -0.06386422, 0.14481924, -934236.5, 106047.75, 0.0, 10.001138, 9.998981 
1.7550576e+3, 2.0384984e+2, -859899.44, -939222.8, -27278.451, -0.06730228, 0.15052454, -851424.2, 90865.41, 0.0, 10.000669, 9.999618 
1.7550547e+3, 2.1384957e+2, -822425.06, -863715.8, -16912.877, -0.053838134, 0.14984147, -816381.94, 27907.354, 0.0, 10.000224, 9.999679 
1.755052e+3, 2.2384918e+2, -811787.44, -874111.6, 6416.8545, -0.04854017, 0.17180124, -811133.56, -64840.64, 0.0, 9.999912, 9.999083 
1.75505e+3, 2.3384865e+2, -733983.5, -797258.7, -13652.79, -0.057735827, 0.21091503, -731163.4, -82861.31, 0.0, 9.999823, 9.9989805 
1.7550473e+3, 2.4384797e+2, -674135.25, -641508.8, -79035.85, -0.0520891, 0.21818845, -577120.25, -26809.238, 0.0, 9.999235, 9.999658 
1.7550439e+3, 2.5384724e+2, -767360.7, -627244.9, -80590.85, -0.014988698, 0.16572642, -590518.0, -138200.13, 0.0, 9.997888, 9.999732 
1.7550413e+3, 2.6384717e+2, -706321.25, -476692.63, 2347.6926, 0.015896946, 0.16066721, -476668.63, -122351.0, 0.0, 9.997329, 10.000362 
1.7550398e+3, 2.7384812e+2, -503718.88, -321083.8, 9090.798, 0.015961044, 0.20517002, -320632.44, -64325.945, 0.0, 9.998015, 10.000427 
1.7550375e+3, 2.8384826e+2, -401637.72, -244203.2, -15771.116, -0.040794216, 0.18945535, -242638.86, -84334.07, 0.0, 9.998144, 10.00022 
1.755034e+3, 2.9384765e+2, -422188.6, -220825.6, -6410.7734, -0.12769139, 0.10410572, -220621.7, -160308.13, 0.0, 9.997405, 10.000064 
1.7550333e+3, 3.0384973e+2, -460143.03, -192843.83, -2507.4631, 0.06532451, 0.30640152, -192820.3, -192820.3, 0.0, 9.996714, 10.000259 
1.7550306e+3, 3.1385e+2, -469773.63, -46786.45, -57717.293, 0.083013065, 0.28751507, -39052.246, -39052.246, 0.0, 9.996001, 10.001603 
1.7650776e+3, 1.23864286e+2, -1248666.3, -1816809.9, -22810.299, 0.20043688, 0.22556639, -1247751.9, 478399.47, 0.07790592, 10.004967, 9.996907 
1.7650737e+3, 1.3386202e+2, -1182180.0, -1660639.6, 82938.48, -0.0688323, 0.22974223, -1168210.9, 459967.0, 0.05123237, 10.004292, 9.997636 
1.7650752e+3, 1.4386092e+2, -1128080.8, -1466732.5, 57331.797, 0.20866555, 0.3115543, -1118638.1, 411551.94, 0.026445003, 10.003358, 9.99875 
1.765073e+3, 1.5385996e+2, -1183818.0, -1429882.8, 39510.063, 0.12573604, 0.32010671, -1177629.5, 254567.84, 0.009296644, 10.002179, 9.998885 
1.76507e+3, 1.6385835e+2, -1192905.9, -1416289.8, -2894.858, 0.03621321, 0.2860898, -1192868.4, 141342.69, 0.0016790463, 10.001566, 9.998601 
1.7650668e+3, 1.738558e+2, -1060839.8, -1308952.9, 17409.805, -0.021563962, 0.16869211, -1059624.0, 176609.97, 0.000074904594, 10.001828, 9.998539 
1.765064e+3, 1.8385391e+2, -957333.44, -1169792.9, 22133.96, -0.055539787, 0.115205795, -955052.06, 183199.38, 0.000000009428086, 10.001699, 9.998883 
1.7650612e+3, 1.9385323e+2, -964315.9, -1121264.3, 18467.285, -0.06510222, 0.15008193, -962172.2, 78086.695, 0.0, 10.000974, 9.998894 
1.765058e+3, 2.038527e+2, -903352.06, -961553.7, -13509.713, -0.06914705, 0.17896433, -900369.06, 41894.465, 0.0, 10.00038, 9.999603 
1.7650548e+3, 2.138525e+2, -854668.44, -879670.6, -30374.383, -0.06294589, 0.18538804, -834323.25, 9939.541, 0.0, 10.000009, 9.99967 
1.765052e+3, 2.2385214e+2, -858414.56, -885648.9, 2543.329, -0.045463804, 0.20705007, -858179.06, -111913.09, 0.0, 9.999546, 9.999179 
1.7650497e+3, 2.3385161e+2, -857768.75, -844624.3, 36684.965, -0.013615716, 0.23688251, -813927.5, -165653.05, 0.0, 9.998921, 9.999088 
1.7650466e+3, 2.4385083e+2, -737287.6, -661735.7, 3782.5645, -0.008839364, 0.2235352, -661546.75, -111263.14, 0.0, 9.998757, 9.999749 
1.7650421e+3, 2.538498e+2, -552832.1, -514649.47, -5845.411, -0.039133467, 0.13352513, -513774.63, -61482.58, 0.0, 9.99932, 9.999815 
1.7650391e+3, 2.6384974e+2, -465062.28, -395835.63, 65910.08, -0.026279436, 0.13713124, -356002.84, -1710.6533, 0.0, 9.99914, 10.000045 
1.7650379e+3, 2.7385107e+2, -563873.5, -391018.63, 45882.65, 0.035995197, 0.25895557, -379594.53, -123314.72, 0.0, 9.997783, 10.000057 
1.7650354e+3, 2.838514e+2, -578664.6, -301143.84, -6388.9614, 0.008080174, 0.2678975, -300996.84, -142719.75, 0.0, 9.996807, 10.000473 
1.765031e+3, 2.9385054e+2, -533271.6, -237264.47, -16122.402, -0.11453777, 0.1296869, -236388.92, -176104.25, 0.0, 9.996485, 10.000393 
1.7650294e+3, 3.038523e+2, -451155.3, -167351.53, 14371.037, 0.012837624, 0.26777568, -166625.67, -166625.67, 0.0, 9.996685, 10.000447 
1.7650272e+3, 3.1385246e+2, -297313.7, -27402.588, -55855.38, 0.06697541, 0.22500844, -16300.534, -16300.534, 0.0, 9.997462, 10.001029 
1.7750826e+3, 1.2386739e+2, -1245243.5, -1798116.3, -9958.434, 0.21606125, 0.23402706, -1245064.3, 481056.88, 0.08231802, 10.004941, 9.997047 
1.775078e+3, 1.3386433e+2, -1169891.0, -1628483.3, 55747.246, -0.07345213, 0.13858981, -1163211.5, 464941.03, 0.054393712, 10.004282, 9.99786 
1.7750788e+3, 1.4386314e+2, -1165413.0, -1541378.8, 14098.576, 0.22731607, 0.22097544, -1164885.0, 365280.7, 0.02831169, 10.003347, 9.998232 
1.7750743e+3, 1.5386213e+2, -1226227.9, -1520147.4, -3387.4763, 0.060374495, 0.28579083, -1226188.8, 205988.89, 0.010105246, 10.002185, 9.998263 
1.7750707e+3, 1.6386081e+2, -1159497.9, -1348966.0, 986.2089, -0.03355802, 0.29396147, -1159492.8, 174697.52, 0.0018804772, 10.001574, 9.99906 
1.7750694e+3, 1.7385904e+2, -1019664.94, -1222669.1, 28687.047, 0.038771696, 0.19747436, -1015689.0, 220514.53, 0.00008970714, 10.001823, 9.999134 
1.7750667e+3, 1.838579e+2, -962331.94, -1177223.4, -1532.5472, 0.054708697, 0.18658364, -962321.0, 175892.5, 0.000000028818846, 10.001685, 9.99884 
1.7750624e+3, 1.938579e+2, -974396.4, -1140321.8, -7737.1187, -0.032456, 0.29994795, -974036.4, 66180.75, 0.0, 10.000964, 9.998768 
1.7750584e+3, 2.0385715e+2, -926764.75, -1010006.06, -28972.584, -0.08683714, 0.32949758, -917673.56, 24551.734, 0.0, 10.000376, 9.999273 
1.7750546e+3, 2.1385534e+2, -880075.94, -932924.0, -42184.74, -0.08311297, 0.21153514, -856722.6, -12482.92, 0.0, 10.000008, 9.999307 
1.7750514e+3, 2.2385445e+2, -809014.94, -781763.0, -19545.607, -0.051782496, 0.16707532, -771562.56, -25315.707, 0.0, 9.999539, 9.999896 
1.775049e+3, 2.3385501e+2, -798657.9, -720807.9, 14896.84, 0.019417465, 0.22235636, -718054.7, -69812.984, 0.0, 9.998915, 9.999943 
1.7750455e+3, 2.4385498e+2, -730971.3, -647837.9, 20312.756, 0.0045268233, 0.23297833, -643140.1, -92898.59, 0.0, 9.998753, 9.999848 
1.7750405e+3, 2.5385422e+2, -554122.75, -517030.06, 17871.008, -0.13932605, 0.16529055, -509821.0, -57573.547, 0.0, 9.999316, 9.999802 
1.775037e+3, 2.6385394e+2, -510026.28, -488031.0, 23157.309, -0.14123842, 0.17980072, -473392.53, -119142.0, 0.0, 9.999133, 9.999414 
1.775036e+3, 2.7385455e+2, -613031.1, -494701.28, -4177.387, 0.06978343, 0.2982947, -494554.0, -238305.2, 0.0, 9.997788, 9.999343 
1.7750335e+3, 2.838546e+2, -575859.6, -297823.53, -23390.729, 0.13289891, 0.323703, -295869.44, -137620.22, 0.0, 9.996816, 10.000492 
1.7750286e+3, 2.938542e+2, -523346.44, -218628.42, -25085.785, -0.016834617, 0.21585049, -216577.06, -156327.23, 0.0, 9.99649, 10.000521 
1.7750256e+3, 3.038547e+2, -413700.6, -89007.17, 43566.207, -0.04277356, 0.1942502, -83263.23, -83263.23, 0.0, 9.996681, 10.000988 
1.7750244e+3, 3.138558e+2, -298492.34, -30558.477, -55184.324, 0.033796936, 0.19484535, -19637.7, -19637.7, 0.0, 9.997466, 10.001005 
1.7850871e+3, 1.2387119e+2, -1310992.8, -1811013.3, 48523.35, 0.20167966, 0.25465336, -1306327.5, 419757.56, 0.08696163, 10.004379, 9.997231 
1.7850819e+3, 1.338679e+2, -1245470.9, -1645962.1, 66084.32, -0.07705904, 0.11900661, -1234848.1, 393268.63, 0.057701517, 10.003656, 9.998042 
1.7850822e+3, 1.4386682e+2, -1209904.3, -1590520.1, 40762.27, 0.24534775, 0.21350686, -1205587.8, 324540.66, 0.030258754, 10.003161, 9.997982 
1.7850767e+3, 1.538654e+2, -1093328.0, -1490160.6, 44091.83, 0.015943505, 0.2690664, -1088488.0, 343657.84, 0.0109521225, 10.0032625, 9.997949 
1.7850724e+3, 1.6386403e+2, -976665.1, -1255243.8, 48001.086, -0.095469184, 0.28850758, -968626.1, 365533.97, 0.0020959692, 10.0028105, 9.999107 
1.7850709e+3, 1.738628e+2, -1059301.8, -1231404.9, 37366.926, 0.03533314, 0.23573652, -1051538.9, 184629.63, 0.000105867584, 10.00151, 9.999224 
1.7850682e+3, 1.8386194e+2, -1103275.9, -1242835.5, -4730.7646, 0.082531385, 0.24634196, -1103115.6, 35060.465, 0.0000000562377, 10.000711, 9.9988575 
1.7850633e+3, 1.9386178e+2, -1011533.94, -1157507.4, -3206.7297, -0.021484066, 0.3464658, -1011463.56, 28717.896, 0.0, 10.00071, 9.998771 
1.7850588e+3, 2.0386091e+2, -903628.8, -1001620.3, -9241.968, -0.086105846, 0.36426952, -902764.75, 39426.258, 0.0, 10.000547, 9.999247 
1.7850547e+3, 2.1385904e+2, -864956.56, -929390.1, -308.22128, -0.08277655, 0.24057719, -864955.1, -20748.975, 0.0, 10.000129, 9.999271 
1.785051e+3, 2.2385806e+2, -784100.5, -753582.5, 11503.625, -0.058401886, 0.18572615, -749732.06, -3518.7805, 0.0, 9.99964, 10.000041 
1.7850478e+3, 2.3385862e+2, -766005.5, -685805.2, -7702.0645, -0.0034401703, 0.22114818, -685072.2, -36864.82, 0.0, 9.999058, 10.0001135 
1.785044e+3, 2.438588e+2, -730058.9, -625255.1, 1954.7798, -0.010738266, 0.23449929, -625218.7, -75014.375, 0.0, 9.998662, 10.000047 
1.7850396e+3, 2.538586e+2, -652643.6, -542048.94, 16417.502, -0.1142656, 0.20421746, -539663.25, -87458.945, 0.0, 9.998543, 10.000002 
1.785036e+3, 2.6385838e+2, -617698.75, -543104.44, 19874.986, -0.11984896, 0.21263, -538139.44, -183932.77, 0.0, 9.998406, 9.999387 
1.7850336e+3, 2.738582e+2, -548098.7, -471757.56, 35954.855, 0.029681507, 0.25882474, -457490.13, -201277.81, 0.0, 9.998266, 9.999272 
1.7850307e+3, 2.83858e+2, -405403.22, -226651.36, 53324.973, 0.11106141, 0.26719707, -211952.28, -53737.355, 0.0, 9.998033, 10.000396 
1.7850266e+3, 2.9385814e+2, -369002.66, -151705.02, 32958.6, 0.077950865, 0.22537294, -146816.02, -86606.41, 0.0, 9.9975815, 10.000454 
1.7850223e+3, 3.0385804e+2, -390413.0, -78239.47, 87298.67, -0.043820847, 0.14611633, -55485.137, -55485.137, 0.0, 9.996842, 10.000984 
1.7850208e+3, 3.1385967e+2, -548300.25, -158995.45, -59238.625, 0.017257662, 0.20405222, -150180.97, -150180.97, 0.0, 9.99579, 10.000929 
1.795091e+3, 1.2387573e+2, -1300541.6, -1777105.9, 63268.285, 0.14968243, 0.29026204, -1292285.3, 433757.44, 0.091901235, 10.004357, 9.997477 
1.7950855e+3, 1.3387273e+2, -1237675.9, -1625254.4, 36730.473, -0.082311496, 0.16945486, -1234225.6, 393844.66, 0.06119029, 10.0036545, 9.998183 
1.7950855e+3, 1.4387195e+2, -1213339.0, -1595483.3, 38028.215, 0.25665057, 0.28798923, -1209591.5, 320486.47, 0.03230053, 10.003155, 9.997952 
1.7950796e+3, 1.5386976e+2, -1098997.0, -1498161.5, 48565.008, -0.014743153, 0.2708737, -1093173.3, 338929.06, 0.011841973, 10.003247, 9.997902 
1.7950746e+3, 1.6386802e+2, -1004045.2, -1308416.0, 3942.816, -0.15653642, 0.2720913, -1003994.1, 330126.44, 0.0023264778, 10.002793, 9.998751 
1.7950718e+3, 1.7386705e+2, -1087785.3, -1290405.0, -10917.795, -0.034226816, 0.28414533, -1087198.6, 148930.27, 0.00012352158, 10.001508, 9.99882 
1.7950684e+3, 1.8386598e+2, -1098728.5, -1234326.4, -10269.048, 0.023843434, 0.29484293, -1097955.1, 40184.18, 0.000000085167756, 10.000713, 9.998916 
1.7950639e+3, 1.9386491e+2, -1003572.3, -1140684.3, -1301.4767, -0.03588788, 0.2906785, -1003559.94, 36592.133, 0.0, 10.000707, 9.998889 
1.7950594e+3, 2.0386401e+2, -886334.6, -963723.6, -22937.654, -0.07218102, 0.2866829, -880046.9, 62114.09, 0.0, 10.000538, 9.999514 
1.7950551e+3, 2.1386349e+2, -846540.1, -889842.44, -13938.149, -0.06603303, 0.27236915, -842441.6, 1720.9996, 0.0, 10.000121, 9.999549 
1.7950505e+3, 2.2386292e+2, -814093.3, -815038.4, -9375.779, -0.070109986, 0.2600327, -805178.2, -59011.9, 0.0, 9.999636, 9.999622 
1.7950459e+3, 2.3386233e+2, -802331.8, -761745.75, -27630.598, -0.08758438, 0.23216443, -747756.75, -99584.56, 0.0, 9.999057, 9.999594 
1.7950423e+3, 2.438622e+2, -708712.75, -580418.5, -3785.329, -0.060834434, 0.22926424, -580306.9, -30134.363, 0.0, 9.998659, 10.000357 
1.7950396e+3, 2.5386292e+2, -623834.6, -481666.2, 13912.065, 0.030039297, 0.25322136, -480317.6, -28154.762, 0.0, 9.998539, 10.00042 
1.795036e+3, 2.6386294e+2, -576798.2, -459532.5, 15352.125, 0.032096192, 0.2346495, -457555.94, -103394.75, 0.0, 9.99841, 9.999961 
1.7950308e+3, 2.7386189e+2, -506509.8, -387675.94, 33959.266, -0.09123388, 0.13382898, -378656.03, -122484.47, 0.0, 9.998273, 9.999848 
1.795027e+3, 2.8386146e+2, -422319.13, -261179.77, 38089.863, -0.06346418, 0.097671926, -252629.8, -94454.93, 0.0, 9.99803, 10.000159 
1.795025e+3, 2.9386243e+2, -389278.28, -194747.77, 16670.62, 0.16211689, 0.16830304, -193329.5, -133165.67, 0.0, 9.997584, 10.000157 
1.7950197e+3, 3.0386218e+2, -426574.75, -154828.92, 49189.004, -0.0025539862, 0.11802366, -146199.22, -146199.22, 0.0, 9.996847, 10.000457 
1.7950165e+3, 3.138636e+2, -526558.6, -117754.04, -59578.457, 0.0036761565, 0.21186422, -109248.164, -109248.164, 0.0, 9.995804, 10.001207 
1.8050955e+3, 1.23879895e+2, -1185724.9, -1701611.3, 43469.14, 0.12172242, 0.33342806, -1182087.8, 543916.7, 0.09720023, 10.005187, 9.997606 
1.8050888e+3, 1.3387696e+2, -1198640.5, -1614944.0, -46235.73, -0.12943998, 0.2259657, -1193567.3, 434464.56, 0.06490086, 10.003995, 9.998095 
1.8050879e+3, 1.4387631e+2, -1233157.0, -1576767.1, -22698.137, 0.20288241, 0.35081196, -1231664.1, 298373.63, 0.034457777, 10.002899, 9.998202 
1.8050827e+3, 1.5387382e+2, -1225097.1, -1526587.0, 13462.911, 0.0264044, 0.2725662, -1224497.1, 207566.14, 0.0127833225, 10.002232, 9.998195 
1.8050775e+3, 1.6387199e+2, -1150691.3, -1380273.6, -17475.09, -0.094130084, 0.25013888, -1149368.6, 184713.08, 0.0025744103, 10.001794, 9.998736 
1.805073e+3, 1.7387132e+2, -1059057.0, -1282891.3, -11461.46, -0.065480664, 0.30012107, -1058471.6, 177616.92, 0.00014305822, 10.001736, 9.99876 
1.8050687e+3, 1.8387038e+2, -982780.9, -1153292.9, 19337.184, -0.041216724, 0.3147785, -980615.4, 157482.63, 0.00000010953618, 10.001402, 9.99914 
1.8050645e+3, 1.9386908e+2, -994822.3, -1107178.6, 38406.49, -0.04366037, 0.26269144, -982948.7, 57161.926, 0.0, 10.000643, 9.999148 
1.80506e+3, 2.0386818e+2, -940383.3, -975147.2, 22081.396, -0.042738758, 0.23845655, -929663.3, 12454.797, 0.0, 10.000106, 9.999641 
1.8050553e+3, 2.1386799e+2, -867014.4, -886751.0, 16079.752, -0.033655755, 0.24645512, -858016.25, -13899.721, 0.0, 9.9999275, 9.9996605 
1.8050504e+3, 2.2386748e+2, -812173.94, -844929.94, 18677.344, -0.0515352, 0.24581937, -803710.8, -57590.945, 0.0, 9.999782, 9.999347 
1.8050452e+3, 2.3386653e+2, -734833.7, -765349.7, 13039.938, -0.10729462, 0.2153062, -730020.6, -81890.86, 0.0, 9.999677, 9.9992695 
1.805041e+3, 2.4386613e+2, -641565.8, -565549.06, 22556.324, -0.07725105, 0.2098046, -559359.9, -9226.488, 0.0, 9.999195, 10.000201 
1.8050385e+3, 2.5386667e+2, -691862.8, -529682.44, -3284.5317, 0.07831325, 0.23054042, -529615.94, -77490.06, 0.0, 9.998137, 10.000284 
1.8050346e+3, 2.638668e+2, -663193.3, -453417.88, -6355.384, 0.08736215, 0.21208894, -453225.5, -99102.6, 0.0, 9.99761, 10.000389 
1.8050286e+3, 2.7386627e+2, -527825.06, -342169.28, 6196.575, -0.1097818, 0.11354641, -341962.7, -85836.016, 0.0, 9.997888, 10.000345 
1.8050246e+3, 2.838661e+2, -443755.66, -272407.9, -855.1305, -0.09188561, 0.07798545, -272403.63, -114276.96, 0.0, 9.997886, 10.000152 
1.805023e+3, 2.9386705e+2, -418516.3, -212222.47, -6770.9673, 0.2027398, 0.15384443, -212000.48, -151883.94, 0.0, 9.997397, 10.000127 
1.8050165e+3, 3.03867e+2, -424646.16, -150517.55, 47686.145, -0.0057190745, 0.119125165, -142459.17, -142459.17, 0.0, 9.996848, 10.000484 
1.8050133e+3, 3.138685e+2, -395967.38, -2589.9575, 26802.035, 0.0642329, 0.21575531, -772.25, -772.25, 0.0, 9.996477, 10.001674 
1.8151006e+3, 1.2388379e+2, -1192124.4, -1702976.3, 38623.203, 0.103314966, 0.38760725, -1189220.8, 536749.06, 0.102914646, 10.005161, 9.997609 
1.815092e+3, 1.3388065e+2, -1222593.1, -1662705.3, -91103.555, -0.22468896, 0.2891857, -1204480.1, 423520.8, 0.06887483, 10.003985, 9.997774 
1.8150896e+3, 1.4387994e+2, -1200441.3, -1503404.5, -51512.72, 0.07582246, 0.40238088, -1191922.1, 338085.16, 0.036753505, 10.002888, 9.998718 
1.815086e+3, 1.5387753e+2, -1183335.6, -1436826.9, -9728.164, 0.13254406, 0.273728, -1182962.9, 249065.8, 0.01378539, 10.002225, 9.998815 
1.8150812e+3, 1.6387592e+2, -1130122.6, -1337247.9, -22296.93, 0.0813725, 0.22365588, -1127749.5, 206294.03, 0.002842686, 10.001791, 9.999035 
1.8150748e+3, 1.7387563e+2, -1040910.44, -1245109.0, -11887.464, -0.06473104, 0.28430864, -1040220.75, 195826.72, 0.00016504708, 10.001733, 9.9990225 
1.8150693e+3, 1.8387507e+2, -957588.94, -1099102.6, -6380.1406, -0.11895707, 0.30830172, -957301.9, 180750.39, 0.00000012908751, 10.001392, 9.9995165 
1.8150651e+3, 1.9387424e+2, -967556.25, -1050888.4, 11115.389, -0.04880601, 0.26243505, -966099.06, 73958.42, 0.0, 10.000643, 9.999536 
1.8150607e+3, 2.0387334e+2, -941667.75, -978562.3, 12634.267, -0.0035410314, 0.21844234, -937755.94, 4307.208, 0.0, 10.000108, 9.999619 
1.8150556e+3, 2.1387245e+2, -872782.1, -898411.25, 10892.509, 0.008076504, 0.1631586, -868778.25, -24709.717, 0.0, 9.999924, 9.999584 
1.8150505e+3, 2.238717e+2, -821967.3, -862873.6, 14341.634, -0.009030636, 0.14628708, -817440.25, -71365.66, 0.0, 9.99977, 9.999229 
1.8150452e+3, 2.3387116e+2, -744402.2, -784432.6, 11139.649, -0.06759493, 0.17139053, -741511.06, -93430.36, 0.0, 9.999672, 9.999143 
1.8150403e+3, 2.4387048e+2, -685469.9, -656479.7, -13096.958, -0.06497607, 0.17334928, -651439.25, -101351.41, 0.0, 9.999192, 9.999579 
1.8150361e+3, 2.5386977e+2, -740313.4, -631226.3, -41279.18, 0.024047358, 0.13522622, -617366.9, -165272.45, 0.0, 9.998139, 9.999587 
1.8150318e+3, 2.6386994e+2, -642914.75, -411989.0, -1103.7993, 0.03991948, 0.14654739, -411983.75, -57891.355, 0.0, 9.997612, 10.000673 
1.8150273e+3, 2.7387133e+2, -499522.03, -283279.34, 18700.348, -0.03290918, 0.20209035, -281674.1, -25596.13, 0.0, 9.997886, 10.000751 
1.8150237e+3, 2.8387195e+2, -424967.47, -236098.2, -14746.57, 0.018167103, 0.20857501, -234953.75, -76882.83, 0.0, 9.997893, 10.000401 
1.8150203e+3, 2.9387197e+2, -396223.47, -172981.81, -22933.848, 0.19289894, 0.17042953, -170650.16, -110580.79, 0.0, 9.997423, 10.000387 
1.8150128e+3, 3.038724e+2, -390290.53, -78348.93, 27232.965, -0.058301535, 0.14580938, -75989.3, -75989.3, 0.0, 9.996847, 10.000979 
1.8150097e+3, 3.13872e+2, -357588.63, 80053.555, 90902.53, 0.04504536, 0.007198469, 98183.81, 98183.81, 0.0, 9.99646, 10.002251 
1.8251054e+3, 1.23887934e+2, -1284323.4, -1743820.1, 120604.62, 0.1145761, 0.33984888, -1254591.9, 471335.75, 0.10907765, 10.004451, 9.997676 
1.8250963e+3, 1.3388483e+2, -1251335.9, -1698903.1, -30823.607, -0.17485203, 0.2639634, -1249223.1, 378737.28, 0.07313931, 10.003884, 9.997569 
1.8250924e+3, 1.4388414e+2, -1143843.4, -1439371.9, 18531.453, 0.051728167, 0.37742797, -1142685.9, 387281.25, 0.039204508, 10.003139, 9.999054 
1.825088e+3, 1.5388243e+2, -1126872.3, -1364942.5, 46089.594, 0.09272412, 0.2780859, -1118260.9, 313719.53, 0.014855209, 10.002429, 9.999214 
1.8250826e+3, 1.6388117e+2, -1116575.8, -1324118.8, 34113.066, 0.051844783, 0.2382206, -1111112.5, 222878.81, 0.0031336718, 10.001859, 9.999091 
1.8250765e+3, 1.7388071e+2, -1078059.5, -1261220.8, 26132.574, -0.04776299, 0.28046727, -1074404.0, 161593.2, 0.00019006866, 10.001473, 9.999035 
1.825071e+3, 1.8388005e+2, -992167.8, -1121206.5, 705.061, -0.081704795, 0.29634792, -992163.94, 145839.11, 0.00000015151502, 10.001182, 9.999465 
1.8250662e+3, 1.9387926e+2, -914451.3, -1032251.3, -18658.297, -0.03550709, 0.2609555, -911566.7, 128441.08, 0.0, 10.00104, 9.999471 
1.825061e+3, 2.0387836e+2, -868589.8, -955520.0, -37709.24, -0.0026598289, 0.2247853, -854511.9, 87501.67, 0.0, 10.000663, 9.999508 
1.8250556e+3, 2.138774e+2, -881951.06, -915154.6, -44421.406, 0.014337456, 0.17363235, -851130.5, -7110.5576, 0.0, 9.999916, 9.999472 
1.8250504e+3, 2.2387652e+2, -874259.94, -888073.44, -25200.563, 0.009961374, 0.15316942, -855036.75, -109009.89, 0.0, 9.999413, 9.999229 
1.825045e+3, 2.3387586e+2, -801166.25, -809594.1, -19097.496, -0.02631819, 0.1629382, -785823.3, -137789.44, 0.0, 9.999275, 9.999161 
1.8250398e+3, 2.4387503e+2, -683958.06, -664829.1, -30193.916, -0.03493771, 0.15208718, -642721.06, -92678.85, 0.0, 9.999243, 9.999497 
1.8250346e+3, 2.5387412e+2, -570963.9, -560475.9, -16688.533, -0.007573041, 0.103640854, -548226.8, -96176.21, 0.0, 9.999349, 9.99949 
1.8250296e+3, 2.6387426e+2, -472445.9, -357034.72, 30884.494, 0.004037743, 0.12937365, -349289.66, 4759.772, 0.0, 9.998901, 10.000427 
1.8250255e+3, 2.7387595e+2, -561246.06, -343228.8, -1516.0803, 0.0124840615, 0.23939341, -343218.25, -87184.305, 0.0, 9.997594, 10.00048 
1.8250217e+3, 2.8387654e+2, -555703.25, -293110.28, -51365.59, 0.073176995, 0.25631404, -283420.28, -125392.266, 0.0, 9.99697, 10.000453 
1.8250173e+3, 2.93876e+2, -395917.53, -159816.31, -72573.26, 0.15821375, 0.15522598, -139292.66, -79261.45, 0.0, 9.997371, 10.000503 
1.8250097e+3, 3.0387676e+2, -348722.06, -29723.572, -64762.234, -0.052399833, 0.1439993, -17077.076, -17077.076, 0.0, 9.997013, 10.001231 
1.8250062e+3, 3.138767e+2, -456129.4, 50980.547, 28987.72, 0.095123366, 0.012721339, 52632.18, 52632.18, 0.0, 9.995701, 10.002419 
1.83511e+3, 1.2389234e+2, -1284405.9, -1729841.5, 110022.09, 0.13059004, 0.1933555, -1258712.6, 467165.4, 0.1156902, 10.004423, 9.997784 
1.835102e+3, 1.3388951e+2, -1262099.1, -1715588.9, -53313.492, 0.009645269, 0.15512961, -1255915.8, 371994.3, 0.07769921, 10.00387, 9.997463 
1.8350962e+3, 1.4388897e+2, -1137143.6, -1421727.8, -9899.498, 0.11675373, 0.2826912, -1136799.8, 393117.3, 0.04181763, 10.003127, 9.999189 
1.8350884e+3, 1.5388848e+2, -1115239.4, -1340364.0, 20985.738, -0.09594562, 0.28691062, -1113299.9, 318619.25, 0.015997248, 10.002427, 9.999389 
1.8350822e+3, 1.6388768e+2, -1130297.3, -1351932.0, 17593.508, -0.1840047, 0.29281947, -1128909.4, 205016.3, 0.0034491862, 10.001854, 9.998903 
1.8350783e+3, 1.738865e+2, -1094929.8, -1296945.9, 12516.926, -0.018878046, 0.28674632, -1094157.1, 141781.08, 0.00021871291, 10.001474, 9.998791 
1.8350737e+3, 1.8388525e+2, -1026786.8, -1192246.1, -5870.418, 0.060507182, 0.27843285, -1026578.8, 111372.07, 0.00000018976193, 10.001177, 9.9989805 
1.8350674e+3, 1.9388409e+2, -951121.1, -1108073.0, -22223.963, -0.009679774, 0.25778243, -948035.0, 91926.84, 0.0, 10.001037, 9.998953 
1.8350613e+3, 2.0388319e+2, -883059.7, -984081.3, -63099.85, -0.044893786, 0.25808188, -852743.94, 89225.55, 0.0, 10.000655, 9.999317 
1.8350554e+3, 2.1388274e+2, -892190.9, -937205.56, -70457.98, -0.018618612, 0.27534997, -840732.6, 3238.5493, 0.0, 9.999918, 9.999321 
1.8350497e+3, 2.2388192e+2, -867123.25, -873271.7, -32285.541, 0.00078536617, 0.26260847, -837765.9, -91788.39, 0.0, 9.999412, 9.999331 
1.8350446e+3, 2.3388056e+2, -792172.44, -790974.4, -21974.8, 0.010194069, 0.18988283, -769590.44, -121600.54, 0.0, 9.999273, 9.99929 
1.8350394e+3, 2.438797e+2, -652950.6, -598338.6, -26703.068, 0.0063370396, 0.1472108, -587452.06, -37455.004, 0.0, 9.999233, 9.999959 
1.8350337e+3, 2.5387967e+2, -535861.7, -487176.6, -10306.581, -0.02180214, 0.13620283, -485084.6, -33089.324, 0.0, 9.999347, 9.999994 
1.8350282e+3, 2.638797e+2, -527123.4, -472034.13, -12095.949, -0.024625055, 0.15926427, -469495.25, -115500.25, 0.0, 9.998905, 9.999638 
1.8350232e+3, 2.7387998e+2, -626749.75, -481902.44, -48960.254, 0.02068471, 0.22211379, -466905.88, -210910.08, 0.0, 9.9976015, 9.999526 
1.8350185e+3, 2.8387976e+2, -566445.2, -316338.0, -43068.984, 0.066480115, 0.21888277, -309129.22, -151130.16, 0.0, 9.996974, 10.000292 
1.835014e+3, 2.9387912e+2, -399231.03, -168123.02, -56903.273, 0.08686621, 0.110873275, -154872.1, -94869.12, 0.0, 9.997376, 10.0004425 
1.8350075e+3, 3.038801e+2, -346760.5, -26547.94, -110999.78, 0.011462552, 0.12601836, 8166.1416, 8166.1416, 0.0, 9.997015, 10.001254 
1.8350019e+3, 3.138834e+2, -497635.38, -42601.6, 3084.9097, 0.08060391, 0.33090892, -42580.688, -42580.688, 0.0, 9.995722, 10.001772 
1.845114e+3, 1.23897925e+2, -1332688.6, -1715365.6, 79765.36, 0.09367689, 0.18802269, -1316728.0, 409095.7, 0.12272748, 10.003907, 9.998124 
1.8451062e+3, 1.3389587e+2, -1308106.3, -1703797.0, -62023.14, 0.059811946, 0.19518359, -1298612.1, 329235.2, 0.08254443, 10.00339, 9.997775 
1.8450992e+3, 1.4389503e+2, -1180810.4, -1473791.1, -9616.431, 0.10575823, 0.2894889, -1180495.0, 349362.03, 0.04459436, 10.002964, 9.998895 
1.8450911e+3, 1.5389414e+2, -1087332.5, -1368068.0, -19161.975, -0.10580187, 0.2895766, -1086030.6, 345833.72, 0.017215712, 10.002807, 9.999013 
1.8450843e+3, 1.6389315e+2, -1040698.3, -1298773.3, -39052.938, -0.18101081, 0.29215735, -1034918.1, 298954.9, 0.0037916328, 10.002431, 9.99899 
1.8450803e+3, 1.738921e+2, -1047065.6, -1257821.8, -18981.387, 0.0051586414, 0.2854916, -1045369.75, 190513.34, 0.00025177147, 10.001736, 9.998933 
1.845075e+3, 1.838908e+2, -1040817.3, -1225716.4, -1194.0259, 0.09213586, 0.275974, -1040809.6, 97085.94, 0.00000025167606, 10.001196, 9.998741 
1.8450686e+3, 1.9388933e+2, -992295.56, -1159756.4, -1532.5798, 0.0084128985, 0.25160626, -992281.5, 47628.773, 0.0, 10.000892, 9.998667 
1.8450621e+3, 2.0388813e+2, -882514.4, -1006391.9, -34984.703, -0.04433696, 0.24984147, -873317.06, 68604.11, 0.0, 10.000758, 9.999113 
1.8450554e+3, 2.1388754e+2, -765814.25, -897760.8, -48000.895, -0.04286358, 0.26924607, -750199.8, 93725.27, 0.0, 10.000881, 9.999126 
1.8450493e+3, 2.238867e+2, -695467.4, -769935.5, -18846.27, -0.02831365, 0.25953513, -690969.5, 54961.98, 0.0, 10.000503, 9.999515 
1.8450439e+3, 2.3388563e+2, -765182.9, -752907.25, -4802.9023, 0.0059980466, 0.1922216, -751251.44, -103310.8, 0.0, 9.999352, 9.999513 
1.8450385e+3, 2.4388503e+2, -730369.9, -643004.56, 5166.0723, 0.020991052, 0.1670132, -642700.2, -92754.86, 0.0, 9.998735, 9.999891 
1.845033e+3, 2.538852e+2, -604782.0, -531134.6, -22566.71, 0.0038159678, 0.18828532, -524769.94, -72827.63, 0.0, 9.998923, 9.999895 
1.8450272e+3, 2.6388508e+2, -560900.5, -506601.56, -66909.39, -0.0021810434, 0.20535551, -461543.25, -107599.04, 0.0, 9.998754, 9.999474 
1.8450208e+3, 2.738846e+2, -577306.8, -477641.03, -52458.44, 0.012248158, 0.21048236, -455119.2, -199167.28, 0.0, 9.998028, 9.999349 
1.8450154e+3, 2.8388423e+2, -491714.94, -275014.25, 29700.746, 0.030698469, 0.19890451, -271017.25, -113060.85, 0.0, 9.997466, 10.000338 
1.8450108e+3, 2.9388413e+2, -433905.03, -178430.38, 25394.246, 0.05008913, 0.14085108, -175930.64, -115976.15, 0.0, 9.997113, 10.000497 
1.8450049e+3, 3.038846e+2, -422370.16, -127963.35, -69877.266, 0.064879574, 0.12715557, -112219.91, -112219.91, 0.0, 9.996781, 10.000668 
1.8449974e+3, 3.138874e+2, -407005.66, -64691.133, -13761.366, 0.028063584, 0.3439682, -64138.805, -64138.805, 0.0, 9.996627, 10.0011835 
1.8551166e+3, 1.2390471e+2, -1302016.0, -1641793.5, 49465.723, -0.024872486, 0.3229402, -1294961.1, 430803.1, 0.13014445, 10.003893, 9.998707 
1.8551087e+3, 1.3390385e+2, -1263184.0, -1600320.8, -78147.68, -0.025263883, 0.3753819, -1245950.4, 381822.16, 0.08765746, 10.003389, 9.9985 
1.8551011e+3, 1.4390229e+2, -1232764.9, -1579493.4, -19750.668, 0.012176095, 0.38899907, -1231643.5, 298144.53, 0.04753598, 10.002952, 9.998158 
1.8550955e+3, 1.5389942e+2, -1153065.6, -1503369.6, -23645.166, 0.051005393, 0.2853985, -1151476.9, 280339.2, 0.01851746, 10.002799, 9.998081 
1.8550889e+3, 1.6389759e+2, -1016449.2, -1247485.0, -62483.234, 0.04560698, 0.24104646, -1000633.4, 333199.56, 0.0041650403, 10.002426, 9.999347 
1.855082e+3, 1.7389748e+2, -1009911.4, -1182678.8, -43381.2, 0.019156845, 0.27776295, -999630.3, 236201.28, 0.00029041685, 10.00174, 9.999447 
1.8550755e+3, 1.8389668e+2, -1040987.9, -1226720.0, -14261.406, 0.009734513, 0.2871696, -1039899.2, 97938.36, 0.0000003514084, 10.001197, 9.998734 
1.8550694e+3, 1.938949e+2, -997163.2, -1171058.3, -11098.7295, 0.014690788, 0.24051441, -996457.7, 43396.11, 0.0, 10.0008955, 9.998589 
1.8550631e+3, 2.0389318e+2, -898446.06, -1039038.8, -31906.295, -0.007300372, 0.20003003, -891544.06, 50325.25, 0.0, 10.000755, 9.998891 
1.855056e+3, 2.1389173e+2, -784512.94, -934342.56, -41003.246, -0.06481498, 0.15733337, -774025.75, 69856.375, 0.0, 10.00087, 9.998881 
1.8550493e+3, 2.2389086e+2, -679499.94, -733178.7, -56797.82, -0.0830843, 0.14633943, -643519.4, 102369.92, 0.0, 10.000486, 9.999776 
1.8550429e+3, 2.33891e+2, -743375.44, -707330.75, -46289.668, -0.042133126, 0.16908224, -675678.75, -27791.86, 0.0, 9.99935, 9.999827 
1.8550372e+3, 2.4389094e+2, -773348.5, -732363.8, 7298.651, 0.004583578, 0.20894203, -731102.8, -181215.02, 0.0, 9.998734, 9.999278 
1.8550326e+3, 2.5389072e+2, -655442.94, -636210.25, -13386.495, 0.06197296, 0.2594648, -629344.1, -177451.6, 0.0, 9.99892, 9.999175 
1.8550268e+3, 2.638903e+2, -530203.6, -442664.75, -90859.41, 0.0661624, 0.2685045, -385581.84, -31683.787, 0.0, 9.998752, 9.999914 
1.8550187e+3, 2.738897e+2, -536131.9, -392651.0, -77727.16, -0.016618008, 0.20629866, -358617.13, -102713.81, 0.0, 9.998029, 9.999932 
1.8550122e+3, 2.8388977e+2, -473850.47, -239374.9, 14200.83, -0.041259576, 0.19720979, -238517.97, -80616.766, 0.0, 9.997469, 10.000583 
1.8550079e+3, 2.9389092e+2, -421360.78, -154563.94, 10830.97, 0.036989864, 0.24139404, -154124.95, -94237.445, 0.0, 9.99712, 10.00066 
1.855002e+3, 3.0389e+2, -505069.06, -301310.63, -77380.49, 0.1073225, 0.1379806, -275255.8, -275255.8, 0.0, 9.996789, 9.999473 
1.854994e+3, 3.1389055e+2, -434929.0, -126928.92, -68004.6, 0.021610457, 0.25706887, -112582.18, -112582.18, 0.0, 9.996645, 10.000748 
1.8651204e+3, 1.2391113e+2, -1289916.5, -1639467.6, 64431.27, -0.049088642, 0.35230824, -1278418.4, 447286.13, 0.13787986, 10.004041, 9.998661 
1.8651125e+3, 1.3391054e+2, -1194876.0, -1547390.9, -82320.26, -0.013031793, 0.41620788, -1176599.9, 451109.25, 0.09301597, 10.003833, 9.998688 
1.865104e+3, 1.4390881e+2, -1160080.8, -1519773.3, -18709.168, -0.01856362, 0.39383435, -1159110.3, 370614.78, 0.050644647, 10.003387, 9.998361 
1.8650983e+3, 1.5390587e+2, -1163449.9, -1485955.0, 57469.31, 0.076243415, 0.2614859, -1153515.1, 278237.22, 0.01991141, 10.002634, 9.998281 
1.8650918e+3, 1.63904e+2, -1067686.6, -1307552.0, 50717.547, 0.08744128, 0.21642126, -1057403.6, 276365.84, 0.0045744055, 10.002229, 9.999027 
1.865084e+3, 1.7390391e+2, -951055.5, -1197273.4, 2065.2087, 0.0034599104, 0.2945688, -951038.2, 284731.25, 0.0003360051, 10.002333, 9.999061 
1.8650767e+3, 1.8390296e+2, -898425.7, -1157490.6, -9135.382, -0.03280617, 0.3116957, -898104.0, 239673.13, 0.00000050835786, 10.002175, 9.998737 
1.8650706e+3, 1.9390084e+2, -887668.7, -1111854.4, 756.5201, -0.006028085, 0.22320548, -887666.1, 152129.11, 0.0, 10.001622, 9.998644 
1.8650639e+3, 2.0389901e+2, -872411.0, -1018944.1, -3339.305, 0.0016674552, 0.16765438, -872334.94, 69475.85, 0.0, 10.000901, 9.998959 
1.865057e+3, 2.1389787e+2, -916530.6, -990917.0, 8339.665, -0.016342647, 0.14997526, -915607.1, -71786.04, 0.0, 9.999932, 9.998944 
1.8650497e+3, 2.2389708e+2, -876962.75, -869970.25, -20335.033, -0.03322297, 0.1591508, -852833.1, -107004.64, 0.0, 9.9993105, 9.999402 
1.8650422e+3, 2.3389693e+2, -792334.06, -777840.44, -67692.12, -0.050555974, 0.19461904, -717008.3, -69177.97, 0.0, 9.999218, 9.999405 
1.8650356e+3, 2.4389663e+2, -737421.7, -712193.25, -6215.803, -0.031163529, 0.23378374, -710744.94, -160910.86, 0.0, 9.998973, 9.9993 
1.8650311e+3, 2.5389627e+2, -714882.0, -657427.9, 31801.348, 0.048199184, 0.26414496, -643299.75, -191460.27, 0.0, 9.998484, 9.999239 
1.8650252e+3, 2.638958e+2, -618424.94, -470952.56, -33636.67, 0.070577025, 0.26308295, -463642.78, -109798.11, 0.0, 9.998089, 10.000036 
1.8650167e+3, 2.7389538e+2, -555485.44, -386187.3, -57178.277, -0.0045596613, 0.20187181, -368685.4, -112837.01, 0.0, 9.997831, 10.00007 
1.8650097e+3, 2.838957e+2, -480427.56, -242055.69, 8735.654, -0.030330034, 0.20574689, -241735.98, -83891.33, 0.0, 9.997424, 10.000585 
1.8650047e+3, 2.9389724e+2, -475896.1, -183182.14, -14279.622, 0.04025496, 0.2921424, -182487.19, -122658.664, 0.0, 9.996759, 10.000635 
1.8649983e+3, 3.038967e+2, -573237.7, -317032.66, -51225.934, 0.07448059, 0.22369446, -307170.13, -307170.13, 0.0, 9.996245, 9.999626 
1.8649897e+3, 3.1389666e+2, -488998.38, -99790.516, 35833.023, -0.03785393, 0.26716527, -96518.99, -96518.99, 0.0, 9.996048, 10.00122 
1.8751247e+3, 1.2391702e+2, -1338864.3, -1728784.6, 24377.418, -0.019855078, 0.26276737, -1337346.1, 388299.94, 0.14587538, 10.004012, 9.997971 
1.8751173e+3, 1.339161e+2, -1222623.0, -1597304.8, -87506.805, 0.08450982, 0.3279503, -1203193.4, 424462.38, 0.09860432, 10.003819, 9.998318 
1.8751076e+3, 1.4391473e+2, -1089567.9, -1367615.4, -44800.695, 0.00050739275, 0.31409794, -1082527.6, 447139.4, 0.05392732, 10.00337, 9.999475 
1.8751e+3, 1.5391344e+2, -1074960.3, -1299989.8, 30548.688, -0.03078131, 0.21765621, -1070886.9, 360786.9, 0.021407956, 10.00263, 9.999578 
1.8750925e+3, 1.6391224e+2, -1138700.4, -1454287.3, 49838.543, -0.05545526, 0.21268006, -1131016.9, 202666.95, 0.0050250688, 10.002222, 9.998024 
1.8750858e+3, 1.7391132e+2, -1042445.4, -1385950.1, 7054.4014, -0.045632917, 0.33316663, -1042300.56, 193396.83, 0.00038988978, 10.002326, 9.99777 
1.8750788e+3, 1.8390967e+2, -898453.2, -1155032.0, -27311.941, -0.0433252, 0.3506019, -895578.2, 242136.27, 0.000000733184, 10.002163, 9.998761 
1.8750717e+3, 1.9390708e+2, -876687.06, -1086781.6, -18537.396, -0.05836992, 0.2012492, -875064.0, 164670.9, 0.0, 10.001611, 9.998823 
1.8750647e+3, 2.039056e+2, -849090.7, -968743.1, -38398.895, -0.021556403, 0.15216896, -837827.9, 103918.43, 0.0, 10.000893, 9.999309 
1.875058e+3, 2.1390592e+2, -891805.0, -939215.2, -26636.324, 0.09678216, 0.24429135, -879853.06, -36110.22, 0.0, 9.999929, 9.999302 
1.8750505e+3, 2.239053e+2, -947110.56, -1015526.1, -27241.568, 0.1135731, 0.2958426, -937588.75, -191838.97, 0.0, 9.99931, 9.9984045 
1.8750416e+3, 2.3390335e+2, -874178.1, -947430.44, -68707.8, -0.025792103, 0.26897717, -832943.94, -185172.33, 0.0, 9.999215, 9.998243 
1.8750341e+3, 2.4390206e+2, -692942.7, -619341.94, -22393.717, -0.092013806, 0.24117512, -613063.94, -63279.082, 0.0, 9.998969, 9.99994 
1.8750288e+3, 2.5390184e+2, -655414.25, -535084.5, 15266.328, -0.042170662, 0.20240244, -533177.9, -81393.89, 0.0, 9.9984865, 10.000078 
1.8750226e+3, 2.6390165e+2, -632101.1, -500482.1, -44318.24, 0.0054528024, 0.18942359, -486950.6, -133165.63, 0.0, 9.998093, 9.999833 
1.875015e+3, 2.7390155e+2, -577147.8, -432874.97, -64907.645, 0.04180246, 0.19624858, -407971.88, -152183.63, 0.0, 9.997837, 9.999747 
1.875008e+3, 2.839018e+2, -497600.22, -277784.28, -15275.388, 0.056730893, 0.2259873, -276727.84, -118940.16, 0.0, 9.997424, 10.0003395 
1.8750016e+3, 2.93903e+2, -492468.0, -217378.28, -38420.383, 0.05521936, 0.29841402, -212113.08, -152334.9, 0.0, 9.996757, 10.0004015 
1.8749933e+3, 3.039045e+2, -465556.38, -97887.94, -62084.76, -0.04349866, 0.3804818, -87687.266, -87687.266, 0.0, 9.996259, 10.001127 
1.8749864e+3, 3.1390405e+2, -372096.0, 135956.58, 13404.235, 0.020799723, 0.21745722, 136309.98, 136309.98, 0.0, 9.9960785, 10.002824 
1.8851289e+3, 1.2392546e+2, -1411977.3, -1785950.9, 45077.383, 0.027695034, 0.3400584, -1406620.5, 318944.78, 0.15410204, 10.003526, 9.997814 
1.8851212e+3, 1.3392323e+2, -1280442.5, -1621158.8, -8811.868, 0.12504305, 0.2734773, -1280214.8, 347371.22, 0.10442688, 10.003384, 9.998346 
1.885111e+3, 1.4392184e+2, -1113162.6, -1391414.8, 6129.053, 0.003674193, 0.2609867, -1113027.8, 416569.5, 0.057399128, 10.003269, 9.999353 
1.8851025e+3, 1.5392166e+2, -1026017.6, -1292444.8, -25072.195, -0.050277207, 0.28956628, -1023678.75, 407916.13, 0.023018045, 10.00305, 9.999431 
1.8850948e+3, 1.639206e+2, -1096992.1, -1459865.6, -33422.8, -0.06469852, 0.31679755, -1093939.4, 239664.8, 0.005521801, 10.002621, 9.997793 
1.8850882e+3, 1.7391834e+2, -1123224.0, -1451617.8, -1738.5065, -0.012504873, 0.32684404, -1123214.9, 112414.84, 0.0004532519, 10.001887, 9.997531 
1.885081e+3, 1.839162e+2, -1021698.4, -1197842.1, 5515.0747, -0.003011108, 0.30219766, -1021525.9, 116124.78, 0.0000010252129, 10.001246, 9.998909 
1.8850727e+3, 1.939144e+2, -986918.0, -1118898.1, 12882.808, -0.062223762, 0.21323268, -985672.25, 53990.863, 0.0, 10.000762, 9.999011 
1.8850651e+3, 2.0391332e+2, -922047.1, -1025503.2, -21040.063, -0.040641017, 0.20190583, -917931.9, 23739.271, 0.0, 10.000485, 9.999114 
1.8850583e+3, 2.1391343e+2, -823217.3, -932964.06, -56465.613, 0.10446191, 0.29725778, -799354.1, 44317.086, 0.0, 10.000518, 9.999061 
1.8850505e+3, 2.2391245e+2, -786057.1, -944548.3, -38779.04, 0.13027593, 0.3294497, -777077.56, -31395.71, 0.0, 10.000448, 9.998341 
1.8850413e+3, 2.3390995e+2, -729697.0, -882783.25, 1781.6763, -0.027063264, 0.24970151, -729676.25, -81968.73, 0.0, 10.000232, 9.998197 
1.8850332e+3, 2.4390845e+2, -599281.75, -568395.8, 51441.426, -0.1098047, 0.20372905, -530129.3, 19592.549, 0.0, 9.999587, 9.999993 
1.8850268e+3, 2.539086e+2, -678038.4, -538858.3, 26146.545, -0.0731031, 0.19865379, -534108.5, -82390.836, 0.0, 9.9983015, 10.000141 
1.8850203e+3, 2.6390868e+2, -711101.44, -544802.9, -31565.564, -0.019303875, 0.2126197, -539012.9, -185296.39, 0.0, 9.997578, 9.999777 
1.8850128e+3, 2.7390876e+2, -605177.5, -453521.5, -31749.797, 0.04857601, 0.24053672, -447142.84, -191423.67, 0.0, 9.997678, 9.999681 
1.8850057e+3, 2.8390887e+2, -506088.72, -294456.4, 13194.869, 0.07257323, 0.26481557, -293636.9, -135916.23, 0.0, 9.997424, 10.000223 
1.8849985e+3, 2.939094e+2, -511599.88, -241854.1, -3603.4604, 0.05876113, 0.28392926, -241805.97, -182087.8, 0.0, 9.996694, 10.000263 
1.8849888e+3, 3.0391145e+2, -454745.5, -48770.332, -50804.98, -0.10709255, 0.4092389, -42509.008, -42509.008, 0.0, 9.996145, 10.001519 
1.8849826e+3, 3.1391183e+2, -440904.78, 110402.016, -57273.34, 0.04217748, 0.28837195, 116289.08, 116289.08, 0.0, 9.995584, 10.002881 
1.8951328e+3, 1.2393623e+2, -1399382.4, -1742366.9, 3649.9036, 0.05655103, 0.56576866, -1399343.6, 326120.56, 0.16257021, 10.003506, 9.998118 
1.8951243e+3, 1.3393186e+2, -1257054.1, -1568073.3, -9439.897, 0.103402324, 0.24432804, -1256767.9, 370733.03, 0.11050941, 10.003384, 9.998756 
1.895114e+3, 1.4393002e+2, -1204386.0, -1579120.8, -1803.341, -0.01744258, 0.22409695, -1204377.3, 325139.3, 0.061081447, 10.003259, 9.998013 
1.8951061e+3, 1.5393052e+2, -1134218.8, -1517673.3, -31919.965, 0.008207264, 0.47398734, -1131579.9, 299935.7, 0.024752133, 10.003047, 9.997865 
1.8950987e+3, 1.639291e+2, -1061644.9, -1384668.5, -58737.68, 0.04664706, 0.53069586, -1051295.8, 282234.03, 0.0060684755, 10.002614, 9.998314 
1.8950912e+3, 1.7392497e+2, -1069501.5, -1340026.0, -27837.66, 0.0950181, 0.27834347, -1066666.6, 168899.45, 0.0005270964, 10.001884, 9.998299 
1.895083e+3, 1.839225e+2, -1003594.56, -1159436.5, -13831.025, 0.08115074, 0.16610655, -1002376.56, 135209.73, 0.0000013718216, 10.001241, 9.999175 
1.895074e+3, 1.9392271e+2, -973133.56, -1090193.5, -3651.5532, -0.023620749, 0.25680953, -973019.75, 66560.86, 0.0, 10.000761, 9.999209 
1.8950655e+3, 2.0392212e+2, -973707.1, -1132976.5, -21649.598, -0.0615321, 0.31569672, -970816.7, -29230.906, 0.0, 10.000484, 9.998378 
1.8950579e+3, 2.1392037e+2, -884123.1, -1057943.9, -52615.02, 0.0031020804, 0.3101824, -869437.44, -25831.0, 0.0, 10.000509, 9.998208 
1.8950498e+3, 2.2391848e+2, -727292.06, -820697.7, -45484.406, 0.014486255, 0.26096645, -708802.94, 36822.145, 0.0, 10.000438, 9.999197 
1.8950412e+3, 2.339166e+2, -657215.9, -731404.44, -4276.28, -0.05889739, 0.13770697, -656970.2, -9331.145, 0.0, 10.000225, 9.999239 
1.895033e+3, 2.4391575e+2, -636988.25, -646199.0, 7286.315, -0.090804964, 0.12351306, -632973.9, -83328.03, 0.0, 9.999582, 9.999461 
1.8950254e+3, 2.5391656e+2, -728244.25, -644074.44, -20489.525, -0.050302148, 0.25219005, -639351.7, -187710.28, 0.0, 9.998302, 9.99942 
1.8950179e+3, 2.6391694e+2, -704133.94, -531261.7, -32737.447, -0.00972624, 0.33007613, -525269.75, -171629.38, 0.0, 9.997581, 9.999869 
1.8950102e+3, 2.739169e+2, -591662.4, -428170.78, -27085.148, 0.0063530314, 0.3327493, -423800.47, -168158.22, 0.0, 9.997686, 9.999853 
1.8950024e+3, 2.8391677e+2, -504936.38, -291711.84, -11869.016, 0.009857446, 0.32132566, -291053.22, -133408.6, 0.0, 9.997422, 10.000243 
1.8949951e+3, 2.9391634e+2, -514994.0, -249430.55, -24648.883, 0.049727906, 0.24709037, -247162.08, -187512.39, 0.0, 9.996694, 10.000213 
1.8949848e+3, 3.039174e+2, -505389.9, -157373.13, -72217.914, -0.1294589, 0.31093353, -142982.08, -142982.08, 0.0, 9.996157, 10.00077 
1.8949778e+3, 3.1392008e+2, -576201.2, -170735.81, -9774.939, 0.026678601, 0.50107163, -170500.3, -170500.3, 0.0, 9.995588, 10.000946 
1.9051363e+3, 1.2394506e+2, -1327732.4, -1686987.6, 21650.422, 0.02932066, 0.529312, -1326432.4, 398944.78, 0.17131919, 10.004041, 9.998297 
1.905128e+3, 1.3394137e+2, -1150012.0, -1509488.1, 15006.1455, 0.08433397, 0.26665875, -1149386.8, 478020.44, 0.116884336, 10.004209, 9.998817 
1.905118e+3, 1.4393963e+2, -1136391.6, -1625095.9, 15851.672, 0.0072932676, 0.28718108, -1135878.0, 393544.56, 0.06499245, 10.00412, 9.997283 
1.9051097e+3, 1.5393867e+2, -1135521.6, -1610808.8, 33097.063, 0.03772195, 0.4740228, -1133228.0, 298209.84, 0.026617203, 10.003443, 9.997035 
1.9051015e+3, 1.6393656e+2, -1023719.2, -1338683.5, 21875.504, 0.072162196, 0.49625346, -1022207.06, 311251.84, 0.0066676727, 10.002761, 9.998558 
1.9050932e+3, 1.7393285e+2, -1009595.44, -1269959.0, 20252.654, 0.09282051, 0.24922004, -1008029.5, 227458.64, 0.0006122247, 10.00212, 9.998666 
1.9050844e+3, 1.8393059e+2, -944527.4, -1143105.4, 20143.176, 0.06618844, 0.14346342, -942504.7, 195000.19, 0.0000017786746, 10.001699, 9.999066 
1.905075e+3, 1.9393076e+2, -862202.56, -1055978.5, 2192.1196, -0.029385835, 0.2457164, -862177.75, 177323.36, 0.0, 10.001607, 9.999036 
1.9050662e+3, 2.0392999e+2, -872903.5, -1101757.9, -13347.5205, -0.069871455, 0.3057153, -872127.6, 69381.05, 0.0, 10.001255, 9.9982195 
1.9050582e+3, 2.1392788e+2, -893431.1, -1080009.3, 4059.0432, -0.025345828, 0.28039792, -893342.9, -49810.063, 0.0, 10.000523, 9.998049 
1.9050497e+3, 2.239261e+2, -804537.25, -820469.75, 18289.627, -0.006254188, 0.23449542, -792554.3, -47003.992, 0.0, 9.999746, 9.999532 
1.905041e+3, 2.33925e+2, -821330.7, -766771.3, 8318.084, -0.03262688, 0.15270755, -765531.3, -117975.56, 0.0, 9.998912, 9.999629 
1.9050322e+3, 2.4392447e+2, -836649.25, -778125.7, -4255.79, -0.060348816, 0.16149656, -777817.8, -228257.9, 0.0, 9.998371, 9.999138 
1.9050235e+3, 2.539248e+2, -763300.94, -706738.56, -11713.821, -0.07322676, 0.28161684, -704408.7, -252846.58, 0.0, 9.998264, 9.999005 
1.9050154e+3, 2.6392472e+2, -638702.06, -497941.13, 5089.8315, -0.040631462, 0.3401396, -497757.3, -144191.52, 0.0, 9.998024, 9.999883 
1.905008e+3, 2.7392447e+2, -605029.2, -425854.25, 1960.7596, 0.022896165, 0.3140536, -425832.78, -170264.28, 0.0, 9.9975605, 9.9999275 
1.9049998e+3, 2.8392458e+2, -549673.3, -305875.53, 3641.2766, 0.02037115, 0.3177278, -305821.16, -148253.19, 0.0, 9.997085, 10.000309 
1.9049913e+3, 2.939248e+2, -526789.75, -258964.56, -4285.6523, 0.011664916, 0.3046083, -258896.0, -199329.17, 0.0, 9.996633, 10.0001745 
1.9049811e+3, 3.0392492e+2, -496292.34, -196001.53, -37875.313, -0.11746611, 0.29476643, -191298.03, -191298.03, 0.0, 9.996402, 10.000388 
1.904974e+3, 3.1392646e+2, -544892.7, -195325.05, 104018.445, 0.056000017, 0.40527654, -166714.63, -166714.63, 0.0, 9.995977, 10.000588 
1.9151393e+3, 1.2395205e+2, -1336918.0, -1689448.3, 344.4741, -0.08273464, 0.23991843, -1336917.8, 388386.0, 0.1803973, 10.004, 9.9983 
1.915132e+3, 1.3395172e+2, -1174632.1, -1549504.1, 24148.098, 0.060681462, 0.34279326, -1173083.0, 454221.84, 0.12357411, 10.004189, 9.998519 
1.9151227e+3, 1.4395069e+2, -1149294.0, -1646639.3, -5298.15, 0.06734257, 0.45315042, -1149237.5, 380077.25, 0.069139734, 10.004103, 9.997146 
1.9151132e+3, 1.5394613e+2, -1144650.3, -1628894.5, 8833.868, 0.031656258, 0.29547814, -1144489.1, 286872.47, 0.028615339, 10.003439, 9.996914 
1.9151038e+3, 1.6394295e+2, -1027078.8, -1345141.0, -2841.5503, 0.007578524, 0.21775764, -1027053.44, 306338.47, 0.0073205116, 10.002758, 9.998516 
1.9150941e+3, 1.7394187e+2, -1011750.1, -1275354.4, -2200.5894, -0.020181872, 0.23807916, -1011731.75, 223664.69, 0.00070924795, 10.002123, 9.998629 
1.9150849e+3, 1.8394038e+2, -979187.5, -1214725.6, 14520.977, -0.051590618, 0.23312667, -978295.6, 159111.36, 0.0000023137907, 10.001696, 9.998578 
1.9150762e+3, 1.939385e+2, -902766.1, -1137150.5, 273.50256, -0.08411512, 0.18381904, -902765.8, 136658.88, 0.0, 10.001593, 9.998487 
1.9150674e+3, 2.039369e+2, -847202.7, -1045012.44, -38122.664, -0.0707596, 0.17496912, -840109.9, 101330.164, 0.0, 10.001238, 9.998618 
1.915059e+3, 2.1393591e+2, -858713.3, -1006674.94, -21547.355, 0.012486668, 0.20917417, -855639.25, -12188.293, 0.0, 10.000516, 9.998556 
1.9150501e+3, 2.2393522e+2, -817053.94, -846693.2, -12460.145, 0.06073174, 0.25074723, -812511.8, -67053.61, 0.0, 9.999745, 9.999353 
1.9150406e+3, 2.3393507e+2, -839693.56, -805085.8, -21125.236, 0.04546307, 0.2924878, -795082.2, -147623.63, 0.0, 9.99891, 9.999369 
1.9150311e+3, 2.4393447e+2, -845525.06, -796519.6, -10490.165, -0.023628322, 0.31349123, -794368.5, -244903.27, 0.0, 9.998369, 9.999013 
1.915021e+3, 2.539332e+2, -771113.0, -724609.7, -13671.86, -0.14951168, 0.28606668, -720888.0, -269407.28, 0.0, 9.99827, 9.998881 
1.9150127e+3, 2.6393205e+2, -642506.56, -505890.53, -11128.158, -0.117721006, 0.24454564, -504990.0, -151496.6, 0.0, 9.998023, 9.999829 
1.915006e+3, 2.7393138e+2, -606297.56, -429720.6, -14331.52, 0.092246056, 0.18456893, -428564.97, -173066.11, 0.0, 9.997563, 9.999902 
1.9149975e+3, 2.8393218e+2, -540662.9, -288807.13, -13988.728, 0.09694543, 0.2518518, -288032.53, -130540.71, 0.0, 9.99709, 10.000423 
1.9149873e+3, 2.9393467e+2, -528530.2, -267333.88, -15204.169, -0.06524298, 0.45401016, -266451.84, -206980.88, 0.0, 9.996651, 10.00011 
1.914978e+3, 3.0393383e+2, -493134.28, -194139.16, -48120.48, -0.0811268, 0.36264426, -186585.45, -186585.45, 0.0, 9.996419, 10.000394 
1.914969e+3, 3.1393325e+2, -448614.16, 2666.9612, 137096.67, -0.05283905, 0.23918028, 41051.33, 41051.33, 0.0, 9.995979, 10.001951 
1.9251436e+3, 1.23962134e+2, -1313382.5, -1717005.8, 25684.686, -0.07114592, 0.18874191, -1311754.6, 413446.7, 0.18983784, 10.004452, 9.997851 
1.9251357e+3, 1.3396175e+2, -1261896.5, -1663983.3, 37689.133, 0.026796302, 0.3562137, -1258394.3, 368812.25, 0.13058688, 10.003867, 9.997817 
1.9251266e+3, 1.4396034e+2, -1198787.1, -1645724.4, 5805.173, 0.07725314, 0.4580787, -1198711.6, 330509.2, 0.073522724, 10.003641, 9.997373 
1.9251168e+3, 1.5395547e+2, -1072053.6, -1557738.1, 45676.363, 0.030641302, 0.23841746, -1067795.4, 363472.5, 0.030745383, 10.003809, 9.997224 
1.9251068e+3, 1.6395232e+2, -922413.7, -1336587.5, 29653.752, -0.004427793, 0.1623053, -920301.4, 412996.1, 0.008026891, 10.003669, 9.998135 
1.9250964e+3, 1.7395173e+2, -908037.5, -1277648.6, -5048.8525, -0.0579378, 0.27875102, -907968.5, 327331.9, 0.0008187495, 10.003064, 9.9981575 
1.9250864e+3, 1.839503e+2, -937504.2, -1222234.0, -2328.1956, -0.08191408, 0.31633422, -937485.2, 199827.17, 0.0000031359323, 10.002104, 9.998328 
1.9250776e+3, 1.9394776e+2, -1056542.9, -1237151.6, 4129.5654, -0.054280493, 0.22588193, -1056448.5, -17112.342, 0.0, 10.0006485, 9.998255 
1.9250685e+3, 2.0394576e+2, -1016121.1, -1090445.5, -1280.7305, -0.023950329, 0.17163096, -1016099.06, -74744.63, 0.0, 9.999926, 9.998937 
1.9250593e+3, 2.1394467e+2, -863251.6, -966578.94, 5666.2046, 0.00898694, 0.16016825, -862941.9, -19579.082, 0.0, 10.000305, 9.998932 
1.9250499e+3, 2.23944e+2, -754297.3, -864570.7, -12786.062, 0.032982912, 0.20465015, -752834.2, -7464.984, 0.0, 10.000386, 9.99892 
1.92504e+3, 2.3394403e+2, -716754.75, -805272.7, -45203.56, 0.032758735, 0.3148496, -697750.6, -50378.652, 0.0, 10.000011, 9.998836 
1.9250298e+3, 2.4394341e+2, -668391.56, -681378.06, -26012.205, -0.03384611, 0.3513557, -648074.44, -98694.16, 0.0, 9.999455, 9.999281 
1.9250192e+3, 2.5394192e+2, -694647.6, -647910.94, 5094.937, -0.17294908, 0.2686946, -647362.0, -195966.81, 0.0, 9.998623, 9.999238 
1.9250105e+3, 2.6394087e+2, -636005.8, -488628.84, 38902.15, -0.1360887, 0.20994535, -478990.44, -125584.93, 0.0, 9.998008, 9.999956 
1.925004e+3, 2.7394056e+2, -576992.0, -403857.88, 44612.895, 0.09798255, 0.17444883, -393038.25, -137630.94, 0.0, 9.997715, 10.000006 
1.9249946e+3, 2.8394133e+2, -541496.5, -306630.38, 31191.66, 0.08440727, 0.23892334, -302558.53, -145157.53, 0.0, 9.997163, 10.000265 
1.924983e+3, 2.9394355e+2, -600826.1, -329005.78, 9442.395, -0.1290654, 0.4358123, -328678.2, -269294.66, 0.0, 9.996273, 9.999868 
1.924975e+3, 3.0394274e+2, -567069.1, -222979.25, -5722.309, 0.007809212, 0.36055577, -222884.11, -222884.11, 0.0, 9.995888, 10.00045 
1.9249652e+3, 3.1394222e+2, -479880.6, 40572.703, 141825.14, -0.00826681, 0.2285587, 76711.164, 76711.164, 0.0, 9.995541, 10.00242 
1.9351491e+3, 1.239753e+2, -1371234.5, -1845953.3, -2022.8906, 0.040329523, 0.37715736, -1371225.9, 353843.94, 0.19966628, 10.004421, 9.99697 
1.935139e+3, 1.3397144e+2, -1330662.3, -1821513.4, 21112.313, -0.029333873, 0.30525312, -1329755.9, 297356.25, 0.1379299, 10.003865, 9.996735 
1.9351298e+3, 1.4396867e+2, -1166402.9, -1567191.3, 9655.368, 0.028098697, 0.30716422, -1166170.4, 362969.88, 0.0781422, 10.003632, 9.997916 
1.9351207e+3, 1.5396665e+2, -1027195.8, -1455448.1, 52853.652, 0.028472546, 0.2994451, -1020769.2, 410387.75, 0.033006925, 10.003789, 9.997936 
1.9351108e+3, 1.6396457e+2, -976306.7, -1444724.1, 8775.889, 0.025642766, 0.32480407, -976142.3, 357034.16, 0.008786739, 10.003648, 9.997404 
1.9350997e+3, 1.7396238e+2, -972767.75, -1410024.4, -26658.53, -0.02919076, 0.37116066, -971148.44, 264051.84, 0.00094156526, 10.003053, 9.997256 
1.9350891e+3, 1.839603e+2, -940380.1, -1226649.8, -53354.32, -0.033138454, 0.39239, -930759.4, 206461.95, 0.0000044945964, 10.002095, 9.998303 
1.9350792e+3, 1.9395848e+2, -1049868.4, -1224232.8, -48532.2, 0.052589517, 0.3668823, -1037270.3, 1966.2582, 0.0, 10.000651, 9.9983425 
1.9350693e+3, 2.0395641e+2, -999727.44, -1058232.4, 6595.6367, 0.063212544, 0.29183397, -998993.1, -57740.395, 0.0, 9.999931, 9.999156 
1.9350591e+3, 2.1395409e+2, -848075.8, -934034.7, 22879.604, -0.039646745, 0.134413, -842365.3, 903.4616, 0.0, 10.0002985, 9.999159 
1.9350491e+3, 2.2395243e+2, -804290.9, -966295.7, -23367.307, -0.09176198, 0.09790334, -800987.75, -55703.94, 0.0, 10.000375, 9.998228 
1.935039e+3, 2.339518e+2, -773800.2, -922648.3, -56853.66, -0.07589134, 0.2219612, -754569.1, -107272.49, 0.0, 10.000005, 9.998033 
1.9350286e+3, 2.4395122e+2, -622933.5, -586732.2, -55081.47, -0.096903056, 0.2780149, -546853.5, 2452.06, 0.0, 9.999452, 9.999934 
1.935018e+3, 2.539509e+2, -635472.4, -526856.25, -24700.73, -0.15010136, 0.228128, -521502.84, -70196.4, 0.0, 9.998628, 10.00007 
1.9350088e+3, 2.6395106e+2, -614579.2, -444365.9, 26079.15, -0.10202442, 0.23323913, -440459.84, -87156.61, 0.0, 9.998008, 10.00026 
1.9350009e+3, 2.739519e+2, -562045.44, -373443.03, 35281.402, 0.030480955, 0.28497446, -367059.1, -111764.13, 0.0, 9.997716, 10.000216 
1.9349907e+3, 2.8395185e+2, -570676.4, -369681.8, -1645.2249, -0.026225436, 0.27984244, -369668.34, -212371.67, 0.0, 9.99717, 9.99983 
1.9349788e+3, 2.9395127e+2, -627071.06, -389330.7, -19073.701, -0.18822977, 0.24647364, -387810.16, -328503.9, 0.0, 9.996293, 9.999447 
1.9349724e+3, 3.0395153e+2, -556415.3, -203113.73, -8643.5, 0.14903547, 0.29257092, -202902.39, -202902.39, 0.0, 9.995897, 10.000582 
1.9349612e+3, 3.1395182e+2, -484542.56, 27621.273, 30071.914, 0.04036338, 0.23020872, 29380.912, 29380.912, 0.0, 9.995549, 10.002331 
1.9451539e+3, 1.239852e+2, -1378358.5, -1833680.3, -87381.805, 0.07528633, 0.38834408, -1362164.9, 362808.97, 0.20992014, 10.004338, 9.997114 
1.9451429e+3, 1.3398151e+2, -1234570.0, -1743297.0, 2291.1167, -0.06898412, 0.31472036, -1234559.6, 392454.25, 0.14561725, 10.004561, 9.996934 
1.9451337e+3, 1.4397869e+2, -1069437.6, -1493504.8, 17632.172, 0.021511259, 0.28850684, -1068705.8, 460336.84, 0.08300042, 10.004266, 9.998137 
1.9451237e+3, 1.5397748e+2, -1118557.4, -1476463.5, 20647.06, -0.0033375488, 0.3419978, -1117370.3, 313681.1, 0.035399728, 10.003046, 9.998147 
1.9451134e+3, 1.6397564e+2, -1179764.6, -1541403.5, -12771.835, 0.00019183647, 0.38067964, -1179314.1, 153754.2, 0.009600047, 10.002237, 9.9974165 
1.9451025e+3, 1.739729e+2, -1113499.0, -1479526.1, 14091.386, -0.0058769365, 0.37055248, -1112957.3, 122140.195, 0.0010784023, 10.002096, 9.997238 
1.9450915e+3, 1.8397044e+2, -957707.75, -1252875.3, 9833.596, 0.004980935, 0.36530194, -957380.5, 179741.45, 0.0000066792873, 10.002056, 9.99814 
1.9450808e+3, 1.9396864e+2, -843844.2, -1145151.0, -7709.152, 0.052598935, 0.35977268, -843647.06, 195490.39, 0.0, 10.002156, 9.998158 
1.9450699e+3, 2.0396665e+2, -736261.44, -942533.7, 37210.53, 0.036643364, 0.30650163, -729754.1, 211399.14, 0.0, 10.001792, 9.999053 
1.9450593e+3, 2.1396445e+2, -790421.1, -917162.94, 27768.135, -0.07707236, 0.17133799, -784604.3, 58564.035, 0.0, 10.000745, 9.999059 
1.9450489e+3, 2.2396275e+2, -862772.0, -969703.56, -5051.892, -0.12396271, 0.127302, -862533.9, -117350.56, 0.0, 9.999868, 9.998447 
1.9450386e+3, 2.3396188e+2, -867064.8, -939479.8, 37766.36, -0.07655974, 0.20094566, -850953.25, -203755.98, 0.0, 9.999246, 9.998283 
1.945028e+3, 2.439612e+2, -740907.1, -638378.6, 57051.03, -0.067895524, 0.23144895, -612943.2, -63736.92, 0.0, 9.998626, 9.999974 
1.9450168e+3, 2.53961e+2, -723760.94, -567844.75, 24147.586, -0.10214913, 0.19407655, -564190.5, -112984.97, 0.0, 9.99802, 10.000078 
1.9450068e+3, 2.6396143e+2, -672143.6, -478498.94, 47477.152, -0.07700971, 0.22757424, -467485.06, -114284.766, 0.0, 9.997642, 10.0002 
1.944998e+3, 2.7396262e+2, -594750.3, -398319.7, 32947.598, -0.011097213, 0.32447472, -392940.66, -137750.48, 0.0, 9.997534, 10.00013 
1.9449875e+3, 2.8396246e+2, -565811.1, -335437.3, -12828.998, -0.06770493, 0.30105883, -334725.1, -177532.13, 0.0, 9.9970665, 10.000114 
1.9449753e+3, 2.9396135e+2, -612041.7, -327809.56, 32690.94, -0.1707509, 0.17604846, -324098.06, -264892.88, 0.0, 9.996166, 9.9999275 
1.9449683e+3, 3.0396214e+2, -559659.5, -190844.89, 114620.31, 0.15453312, 0.23575306, -158125.81, -158125.81, 0.0, 9.995818, 10.000704 
1.9449568e+3, 3.1396338e+2, -449069.97, 34125.633, 53589.21, 0.03172867, 0.2754794, 39997.63, 39997.63, 0.0, 9.995837, 10.002237 
1.9551575e+3, 1.2399224e+2, -1323861.4, -1685835.5, -60672.973, 0.009351859, 0.24783072, -1313962.4, 410946.78, 0.22060919, 10.004334, 9.998184 
1.9551471e+3, 1.33992e+2, -1158518.9, -1557104.0, 13277.509, -0.09902425, 0.38397217, -1158077.0, 468834.72, 0.15365028, 10.004546, 9.998306 
1.9551381e+3, 1.439903e+2, -1081462.1, -1509095.5, -18974.021, 0.046884548, 0.3984026, -1080621.9, 448306.66, 0.088094756, 10.004243, 9.998034 
1.955126e+3, 1.5398799e+2, -1137717.1, -1516099.9, -23003.635, -0.07161999, 0.36813924, -1136323.8, 294626.94, 0.037922595, 10.003045, 9.997875 
1.9551149e+3, 1.6398561e+2, -1129708.9, -1438001.4, -21790.824, -0.08644058, 0.33503732, -1128176.3, 204796.11, 0.010466628, 10.002243, 9.998125 
1.9551048e+3, 1.7398323e+2, -1055416.9, -1359834.8, 10892.331, 0.008383138, 0.279554, -1055027.6, 179964.88, 0.0012294218, 10.002098, 9.998059 
1.9550937e+3, 1.8398075e+2, -980728.4, -1299384.5, 13562.373, 0.025425242, 0.23899007, -980152.2, 156862.67, 0.000009908067, 10.0020485, 9.997827 
1.9550818e+3, 1.9397826e+2, -877009.75, -1212549.5, -1450.643, -0.057192218, 0.21110088, -877003.44, 162035.66, 0.0, 10.002148, 9.997702 
1.9550703e+3, 2.0397644e+2, -769178.5, -1008055.75, 2769.0417, -0.10613495, 0.22013707, -769146.44, 171910.03, 0.0, 10.001778, 9.9986105 
1.9550598e+3, 2.1397565e+2, -821783.6, -981156.56, -9373.441, -0.10895509, 0.26915783, -821234.25, 21828.223, 0.0, 10.000737, 9.998624 
1.9550492e+3, 2.2397485e+2, -784958.5, -807361.6, -29498.13, -0.071491264, 0.28854692, -764606.7, -19537.77, 0.0, 9.999863, 9.999567 
1.9550388e+3, 2.3397413e+2, -776390.5, -750891.2, 16481.813, 0.02417222, 0.24979094, -742803.25, -95728.13, 0.0, 9.999241, 9.999582 
1.9550277e+3, 2.4397321e+2, -783237.9, -725378.7, 34443.28, 0.046266202, 0.2104764, -709327.6, -160244.0, 0.0, 9.998621, 9.99938 
1.9550155e+3, 2.539721e+2, -780666.25, -687583.75, 3560.2144, -0.035710197, 0.16622855, -687447.8, -236354.2, 0.0, 9.998025, 9.999254 
1.9550046e+3, 2.6397187e+2, -701484.7, -540346.5, 41852.2, -0.0663431, 0.19294645, -530124.75, -177026.89, 0.0, 9.997643, 9.999777 
1.9549954e+3, 2.7397266e+2, -620341.1, -455465.8, 29491.732, -0.0352271, 0.290342, -450349.3, -195254.78, 0.0, 9.997548, 9.999733 
1.9549847e+3, 2.8397313e+2, -492794.3, -186401.28, -46445.355, -0.04720782, 0.30287266, -179515.48, -22424.28, 0.0, 9.997077, 10.001134 
1.9549723e+3, 2.939737e+2, -516287.6, -130097.85, 2195.4443, -0.08437348, 0.23290703, -130085.375, -71004.375, 0.0, 9.996168, 10.0012865 
1.9549626e+3, 3.0397424e+2, -549247.9, -170797.14, 117735.66, 0.014043292, 0.17730632, -137159.5, -137159.5, 0.0, 9.995824, 10.000838 
1.9549534e+3, 3.1397575e+2, -475974.53, -32924.08, -33521.535, 0.09616838, 0.2597423, -30402.168, -30402.168, 0.0, 9.995881, 10.001758 
1.9651625e+3, 1.24003455e+2, -1161854.8, -1633853.8, 119600.61, -0.01830712, 0.19756001, -1133279.0, 591517.44, 0.23164469, 10.005991, 9.997854 
1.9651513e+3, 1.3400325e+2, -1216285.1, -1589443.0, 97170.34, -0.11723218, 0.346032, -1192498.3, 434300.56, 0.16198872, 10.004145, 9.998239 
1.965142e+3, 1.440015e+2, -1226956.4, -1603642.0, 36506.125, 0.059671115, 0.36721838, -1223451.0, 305365.88, 0.093413375, 10.003257, 9.997845 
1.9651291e+3, 1.539992e+2, -1058136.3, -1498625.1, 35137.555, -0.11165308, 0.35794878, -1055351.0, 375489.72, 0.04057412, 10.003722, 9.997668 
1.9651172e+3, 1.6399688e+2, -910795.94, -1287291.8, 23691.91, -0.13972904, 0.32400095, -909310.94, 423550.9, 0.011385711, 10.003573, 9.998522 
1.9651069e+3, 1.7399465e+2, -959584.06, -1260662.6, 27422.832, -0.00617877, 0.24004263, -957106.75, 277770.97, 0.0013940044, 10.002534, 9.9985285 
1.9650958e+3, 1.8399225e+2, -1022633.7, -1328724.9, 40970.66, 0.031871136, 0.18637112, -1017244.6, 119653.516, 0.000014255441, 10.001802, 9.997742 
1.9650836e+3, 1.9398974e+2, -977664.5, -1277386.9, 48226.71, -0.05671504, 0.16918519, -970095.7, 68828.0, 0.0, 10.001531, 9.997553 
1.9650719e+3, 2.0398785e+2, -901694.2, -1112276.5, 40870.08, -0.08784972, 0.19746484, -894040.25, 46902.973, 0.0, 10.001042, 9.998249 
1.965061e+3, 2.1398698e+2, -923972.44, -1074025.0, 27158.764, -0.039022934, 0.27767316, -919208.1, -76255.42, 0.0, 10.000225, 9.998232 
1.9650495e+3, 2.239862e+2, -805760.44, -808186.2, -5209.4854, -0.01394179, 0.31556135, -801624.5, -56664.234, 0.0, 9.999683, 9.999646 
1.9650377e+3, 2.339856e+2, -721561.75, -709416.8, -46724.066, -0.021660455, 0.27562752, -668372.25, -21407.984, 0.0, 9.999557, 9.999712 
1.965026e+3, 2.4398476e+2, -667139.9, -656480.3, -54463.125, -0.017930273, 0.23359768, -607086.8, -58115.996, 0.0, 9.99936, 9.999496 
1.9650143e+3, 2.5398374e+2, -627028.4, -600197.5, -17579.549, -0.0039546173, 0.18307498, -591499.25, -140519.81, 0.0, 9.999024, 9.999372 
1.9650029e+3, 2.6398334e+2, -599435.9, -487713.44, 70610.86, -0.031525843, 0.19046491, -453539.28, -100554.94, 0.0, 9.998333, 9.999804 
1.9649921e+3, 2.7398387e+2, -682475.25, -484420.72, 85539.32, -0.10207009, 0.25664636, -452591.66, -197607.75, 0.0, 9.997122, 9.999737 
1.9649811e+3, 2.839844e+2, -569936.0, -214373.9, 5542.1006, -0.08144714, 0.27691248, -214287.53, -57308.063, 0.0, 9.9965105, 10.001213 
1.9649698e+3, 2.9398552e+2, -428438.6, -65490.117, -28395.852, 0.02777752, 0.24589147, -63281.957, -4317.5063, 0.0, 9.996678, 10.001482 
1.9649579e+3, 3.0398637e+2, -494514.13, -123281.95, 29398.453, -0.06049773, 0.19745797, -120968.266, -120968.266, 0.0, 9.996111, 10.001025 
1.9649482e+3, 3.139881e+2, -596391.75, -78791.78, -92490.0, 0.026012959, 0.29399738, -62761.215, -62761.215, 0.0, 9.9950075, 10.001862 
1.9751684e+3, 1.24018505e+2, -1259875.4, -1843498.6, 90640.61, -0.023212338, 0.22520284, -1246122.4, 478517.06, 0.242845, 10.005945, 9.996274 
1.9751553e+3, 1.3401525e+2, -1304855.9, -1789250.4, 40523.734, -0.1334561, 0.20906553, -1301489.1, 325186.34, 0.17054687, 10.0041275, 9.996829 
1.9751452e+3, 1.4401233e+2, -1247672.8, -1646766.6, 46236.19, 0.04869785, 0.20512168, -1242386.1, 286320.8, 0.098933056, 10.003253, 9.997553 
1.9751325e+3, 1.5401103e+2, -1072827.8, -1525725.8, 54421.41, -0.13096392, 0.3135642, -1066380.1, 364341.7, 0.043353163, 10.003709, 9.997491 
1.9751205e+3, 1.640093e+2, -908385.5, -1277332.9, -10344.524, -0.17037283, 0.34635285, -908095.7, 424642.03, 0.012356995, 10.003553, 9.998602 
1.975109e+3, 1.7400707e+2, -953297.8, -1246591.0, -10944.06, -0.053861428, 0.25001892, -952890.0, 281864.03, 0.0015709848, 10.002527, 9.99863 
1.9750974e+3, 1.8400489e+2, -1014003.0, -1309728.8, 27848.09, 0.01937903, 0.20568798, -1011403.44, 125369.08, 0.000019593592, 10.001797, 9.997875 
1.9750862e+3, 1.9400291e+2, -967495.1, -1256824.6, 39717.66, 0.04497488, 0.22811356, -962141.94, 76650.72, 0.0, 10.001531, 9.997694 
1.9750746e+3, 2.0400074e+2, -922518.56, -1155642.0, 12409.067, 0.08046471, 0.23328279, -921859.9, 18955.174, 0.0, 10.00104, 9.997953 
1.9750628e+3, 2.1399839e+2, -948871.7, -1125316.3, -1315.852, 0.12436203, 0.19952573, -948861.9, -106022.17, 0.0, 10.000221, 9.997884 
1.9750498e+3, 2.2399671e+2, -874353.56, -950397.75, -11649.47, 0.041983206, 0.21220751, -872608.94, -127751.11, 0.0, 9.99968, 9.9986725 
1.9750354e+3, 2.3399614e+2, -794565.0, -862353.4, -48691.258, -0.21838173, 0.2782322, -769132.5, -122266.82, 0.0, 9.999559, 9.998661 
1.975023e+3, 2.4399574e+2, -608767.1, -535653.6, -65992.09, -0.264668, 0.30010605, -496769.3, 52099.49, 0.0, 9.999359, 10.000328 
1.9750133e+3, 2.539957e+2, -552637.5, -447746.53, -29130.361, -0.015153762, 0.24464934, -440199.47, 10664.7705, 0.0, 9.999029, 10.000418 
1.9750018e+3, 2.6399577e+2, -565780.2, -419294.66, 27610.117, 0.018617325, 0.21834503, -414263.4, -61402.258, 0.0, 9.998337, 10.000273 
1.974988e+3, 2.7399603e+2, -654038.2, -427498.22, 41492.973, -0.21977009, 0.22207658, -420137.53, -165277.88, 0.0, 9.9971285, 10.000126 
1.9749767e+3, 2.8399625e+2, -629838.5, -340813.03, 6804.2725, -0.17678784, 0.22270547, -340652.94, -183793.81, 0.0, 9.996517, 10.000342 
1.9749677e+3, 2.9399654e+2, -495396.44, -210994.89, -22682.234, 0.15752311, 0.21384898, -209197.25, -150339.94, 0.0, 9.996704, 10.000473 
1.9749539e+3, 3.039983e+2, -477529.63, -93659.125, -22893.441, -0.07917211, 0.30221358, -92298.62, -92298.62, 0.0, 9.996134, 10.001219 
1.9749434e+3, 3.140003e+2, -540994.0, 30239.852, -17908.152, 0.063198924, 0.3932077, 30800.72, 30800.72, 0.0, 9.9950285, 10.002602 
1.9851743e+3, 1.2403171e+2, -1407256.9, -1943614.5, -38413.32, 0.031798348, 0.28890145, -1404519.6, 319989.88, 0.25402522, 10.004704, 9.996165 
1.9851594e+3, 1.3402775e+2, -1241655.1, -1750931.8, -40377.04, -0.15549779, 0.20158122, -1238473.8, 388077.97, 0.1792183, 10.0046835, 9.996827 
1.9851485e+3, 1.4402474e+2, -1113779.0, -1561249.4, 43217.586, -0.0040911897, 0.18442069, -1109643.1, 418939.97, 0.10461321, 10.004239, 9.997665 
1.985136e+3, 1.5402319e+2, -1150643.1, -1548107.8, 72269.05, -0.11909512, 0.25354582, -1137910.8, 292688.16, 0.046252493, 10.003092, 9.997634 
1.9851238e+3, 1.6402139e+2, -1098183.3, -1399677.4, 3622.0835, -0.1348095, 0.28498262, -1098139.8, 234475.69, 0.01338027, 10.002375, 9.998322 
1.9851114e+3, 1.7401941e+2, -1009267.3, -1309938.9, -31338.08, -0.056824278, 0.2463497, -1006035.75, 228596.6, 0.0017591557, 10.002304, 9.9983 
1.9850993e+3, 1.8401742e+2, -945306.5, -1262487.8, 3036.8906, -0.0010786366, 0.23547633, -945277.44, 191372.92, 0.0000256483, 10.00221, 9.998 
1.9850878e+3, 1.9401559e+2, -875497.94, -1193090.5, 16481.715, 0.036878455, 0.25439665, -874644.9, 164023.86, 0.0, 10.002081, 9.997867 
1.985076e+3, 2.0401345e+2, -825303.8, -1104928.3, -18637.605, 0.08382234, 0.25237182, -824067.0, 116623.53, 0.0, 10.001696, 9.997984 
1.9850634e+3, 2.14011e+2, -843219.44, -1073050.9, -11303.539, 0.13619053, 0.20676376, -842664.8, 51.400257, 0.0, 10.000944, 9.997892 
1.98505e+3, 2.2400911e+2, -791248.5, -933932.9, 38610.78, 0.06030936, 0.20613189, -781470.4, -36733.855, 0.0, 10.000355, 9.998458 
1.9850354e+3, 2.3400816e+2, -748698.75, -866925.1, 62386.906, -0.1933163, 0.25970325, -721867.25, -75119.36, 0.0, 9.999993, 9.998419 
1.9850226e+3, 2.4400763e+2, -632828.0, -572526.9, 26701.984, -0.23462021, 0.29244164, -562402.75, -13649.822, 0.0, 9.999309, 10.000096 
1.9850121e+3, 2.5400773e+2, -694947.2, -541718.94, -34650.21, 0.015759857, 0.27578726, -534247.6, -83499.28, 0.0, 9.998166, 10.000186 
1.9849999e+3, 2.6400772e+2, -671963.6, -443628.3, -33869.043, 0.038110267, 0.2437755, -438710.44, -85964.85, 0.0, 9.997495, 10.00051 
1.9849852e+3, 2.7400768e+2, -585549.25, -362638.13, -29913.615, -0.22480431, 0.18799904, -358693.66, -103949.77, 0.0, 9.997465, 10.000407 
1.9849734e+3, 2.8400782e+2, -521507.1, -317047.16, -26714.658, -0.19430506, 0.17991294, -313614.28, -156871.6, 0.0, 9.997387, 10.000085 
1.9849645e+3, 2.9400823e+2, -459403.03, -233350.66, -6165.3335, 0.14144441, 0.21399496, -233182.63, -174440.89, 0.0, 9.997127, 10.0001135 
1.9849499e+3, 3.0400977e+2, -462098.22, -108253.27, -36541.75, -0.10560627, 0.31053326, -104519.0, -104519.0, 0.0, 9.996334, 10.001021 
1.9849385e+3, 3.1401104e+2, -517485.22, 23854.639, 29343.9, 0.054842193, 0.3408826, 25440.61, 25440.61, 0.0, 9.995268, 10.002441 
1.99518e+3, 1.240431e+2, -1354874.4, -1770732.6, -18351.143, 0.12392394, 0.37383246, -1354066.1, 370339.4, 0.265093, 10.004652, 9.997374 
1.9951637e+3, 1.3404077e+2, -1177152.5, -1578738.8, -36959.613, -0.1916624, 0.31963116, -1173779.3, 452648.1, 0.18792476, 10.004652, 9.9980955 
1.9951518e+3, 1.4403863e+2, -1087983.3, -1494653.6, 7036.6567, -0.1052009, 0.2999639, -1087861.5, 440584.5, 0.1104104, 10.004219, 9.998158 
1.9951396e+3, 1.540356e+2, -1124565.9, -1485506.1, 30084.338, -0.0841562, 0.17757359, -1122075.5, 308396.6, 0.04926067, 10.003074, 9.998071 
1.995127e+3, 1.6403314e+2, -1145251.5, -1494423.5, -3689.6697, -0.044729237, 0.14567125, -1145212.5, 187282.66, 0.014456307, 10.0023575, 9.997681 
1.9951141e+3, 1.7403163e+2, -1062574.4, -1421061.9, -32042.139, -0.022871671, 0.23046553, -1059732.9, 174779.9, 0.0019582892, 10.002304, 9.997538 
1.9951011e+3, 1.8402985e+2, -937831.3, -1246592.6, -969.8949, -0.035952985, 0.27495942, -937828.25, 198703.66, 0.000032105352, 10.002206, 9.998113 
1.9950888e+3, 1.9402775e+2, -864116.25, -1165687.5, 14382.523, -0.083362795, 0.2507724, -863431.8, 175120.27, 0.0, 10.002064, 9.998064 
1.9950761e+3, 2.0402597e+2, -805422.7, -1060190.5, -44066.895, -0.078735046, 0.2576984, -798015.8, 142554.11, 0.0, 10.0016775, 9.998301 
1.995063e+3, 2.140247e+2, -819988.2, -1025014.4, -37099.49, -0.005734157, 0.2964342, -813481.56, 29101.855, 0.0, 10.000942, 9.998224 
1.9950502e+3, 2.240232e+2, -753789.4, -856396.9, 24143.807, 0.038245343, 0.29344088, -748392.2, -3794.446, 0.0, 10.000354, 9.998993 
1.9950378e+3, 2.3402151e+2, -710642.6, -787445.3, 50997.957, 0.045933053, 0.21963465, -685204.7, -38592.62, 0.0, 9.999989, 9.998969 
1.9950248e+3, 2.4402028e+2, -725686.75, -764456.94, -14087.144, 0.062359232, 0.2101773, -721108.75, -172484.44, 0.0, 9.999304, 9.998782 
1.995011e+3, 2.540197e+2, -800787.25, -763456.25, -76229.97, 0.08230514, 0.27543563, -703639.9, -253006.7, 0.0, 9.998173, 9.998661 
1.9949973e+3, 2.6401907e+2, -671642.2, -444790.63, -39646.477, 0.024623925, 0.26768243, -438061.28, -85422.43, 0.0, 9.9975, 10.000502 
1.9949837e+3, 2.7401865e+2, -573919.25, -342565.1, -29907.969, -0.12486295, 0.15698381, -338761.34, -84123.414, 0.0, 9.997479, 10.00054 
1.9949713e+3, 2.8401902e+2, -493623.63, -263467.3, -37061.656, -0.14404885, 0.14893235, -257646.56, -101014.62, 0.0, 9.997404, 10.000445 
1.99496e+3, 2.9402035e+2, -437077.53, -191231.72, -19618.396, -0.032368284, 0.23865405, -189676.03, -131055.8, 0.0, 9.997143, 10.000396 
1.9949459e+3, 3.0402067e+2, -501910.7, -195552.73, -84460.27, -0.13657647, 0.22569105, -173810.77, -173810.77, 0.0, 9.99635, 10.000417 
1.9949327e+3, 3.140205e+2, -615091.3, -186243.03, 77189.15, -0.05819793, 0.17861384, -172772.73, -172772.73, 0.0, 9.995297, 10.000986 
2.0051841e+3, 1.2405433e+2, -1346095.9, -1717413.4, 51101.05, 0.08068324, 0.3078174, -1339191.8, 385103.0, 0.27610415, 10.004581, 9.997791 
2.0051685e+3, 1.3405277e+2, -1273036.9, -1593028.0, -28111.484, -0.13104615, 0.29664508, -1270586.1, 355721.94, 0.19667415, 10.003712, 9.998428 
2.0051558e+3, 1.4405133e+2, -1227545.4, -1545725.4, -30674.902, -0.05414135, 0.32097644, -1224615.1, 303704.38, 0.11631784, 10.003078, 9.998328 
2.0051424e+3, 1.5404823e+2, -1161990.4, -1486676.0, -36643.6, -0.07203277, 0.1771851, -1157906.3, 272440.3, 0.05237687, 10.002733, 9.998227 
2.0051295e+3, 1.6404575e+2, -1108622.8, -1473255.8, -32775.332, -0.058042087, 0.13190287, -1105700.1, 226670.27, 0.015589352, 10.0026, 9.997711 
2.0051163e+3, 1.7404419e+2, -990475.2, -1384932.9, -4621.4556, -0.04062692, 0.21076648, -990421.06, 243967.84, 0.0021699998, 10.002796, 9.997549 
2.0051032e+3, 1.8404248e+2, -892651.2, -1200289.3, 35441.48, -0.048039585, 0.25364017, -888620.94, 247786.52, 0.00003871999, 10.002415, 9.998328 
2.0050903e+3, 1.9404072e+2, -974767.4, -1192909.8, 48216.79, -0.07860656, 0.23678708, -964585.1, 73839.56, 0.0, 10.001193, 9.998295 
2.0050772e+3, 2.0403916e+2, -951202.7, -1114965.0, 4397.205, -0.07904998, 0.24962501, -951084.75, -10644.73, 0.0, 10.000615, 9.998434 
2.0050636e+3, 2.1403803e+2, -804536.3, -1004400.44, -4648.517, -0.042573545, 0.29185924, -804428.25, 38023.402, 0.0, 10.000997, 9.998338 
2.0050505e+3, 2.2403663e+2, -705875.0, -839474.2, 7460.013, 0.020951672, 0.29618126, -705459.7, 39005.277, 0.0, 10.000712, 9.998935 
2.0050383e+3, 2.34035e+2, -793306.3, -836080.6, -17583.857, 0.12460873, 0.2336173, -787005.9, -140526.39, 0.0, 9.999462, 9.998888 
2.0050249e+3, 2.4403358e+2, -794973.06, -818384.94, -51976.56, 0.15012613, 0.21858998, -753400.56, -204906.67, 0.0, 9.998917, 9.998598 
2.0050095e+3, 2.5403252e+2, -641737.3, -709017.0, -15122.417, 0.06095549, 0.25714076, -638494.56, -187987.05, 0.0, 9.999363, 9.998461 
2.0049952e+3, 2.6403177e+2, -474420.25, -355931.9, 55944.594, 0.00027417016, 0.24818519, -333691.9, 18822.783, 0.0, 9.998886, 10.000441 
2.0049821e+3, 2.7403158e+2, -634176.3, -375816.97, 48656.273, -0.015164042, 0.16758192, -366957.44, -112446.68, 0.0, 9.997088, 10.000497 
2.0049691e+3, 2.8403187e+2, -677297.44, -371737.56, 52123.535, -0.04741647, 0.16049911, -363090.8, -206585.27, 0.0, 9.996232, 10.000265 
2.004956e+3, 2.940327e+2, -533123.56, -271689.1, 22252.188, -0.111227944, 0.21997316, -269808.63, -211309.31, 0.0, 9.9966345, 10.000085 
2.0049424e+3, 3.0403247e+2, -467704.66, -151621.14, -75309.22, -0.110931486, 0.17001815, -134595.27, -134595.27, 0.0, 9.9964695, 10.000659 
2.0049281e+3, 3.1403154e+2, -575670.7, -124413.05, 171724.77, -0.057954725, 0.0032695078, -66496.875, -66496.875, 0.0, 9.995396, 10.001357 
2.0151868e+3, 1.24065265e+2, -1368133.1, -1757386.6, 29733.314, -0.099558994, 0.09107135, -1365875.0, 358303.84, 0.28734893, 10.004563, 9.997512 
2.0151736e+3, 1.3406378e+2, -1309646.3, -1663409.1, -52831.305, 0.010579933, 0.1393513, -1301924.9, 324268.47, 0.2056303, 10.003679, 9.997917 
2.0151608e+3, 1.440629e+2, -1242567.1, -1570991.0, -42195.43, 0.12676357, 0.25408083, -1237232.5, 290970.1, 0.12240797, 10.003052, 9.998171 
2.015145e+3, 1.540611e+2, -1172480.8, -1507206.4, -46597.773, -0.09084398, 0.25125477, -1166114.9, 264107.16, 0.055628605, 10.002729, 9.99809 
2.0151308e+3, 1.6405918e+2, -1064254.0, -1377278.6, -27145.648, -0.17818424, 0.24058247, -1061917.3, 270324.03, 0.016791344, 10.00259, 9.998375 
2.0151184e+3, 1.7405704e+2, -942501.5, -1279877.5, 4892.6597, -0.113387235, 0.187702, -942430.56, 291830.56, 0.0023981123, 10.002771, 9.998283 
2.0151058e+3, 1.840553e+2, -875676.94, -1158169.9, -5502.81, -0.04505325, 0.17378218, -875569.8, 260707.8, 0.000045425786, 10.002384, 9.9986315 
2.0150928e+3, 1.9405434e+2, -958638.7, -1157088.3, 3939.8882, 0.040447064, 0.21282597, -958560.5, 79726.84, 0.0, 10.001183, 9.998547 
2.0150794e+3, 2.0405294e+2, -955306.5, -1123950.6, 13528.648, 0.06968503, 0.22834934, -954228.1, -13926.4375, 0.0, 10.000615, 9.998375 
2.0150653e+3, 2.1405095e+2, -812583.4, -1020080.3, 12375.4, 0.016814897, 0.19601497, -811847.9, 30473.715, 0.0, 10.000989, 9.998235 
2.0150511e+3, 2.2404937e+2, -753939.44, -937189.7, -33433.117, 0.0011120077, 0.2169008, -748030.25, -3691.4094, 0.0, 10.000701, 9.998271 
2.0150368e+3, 2.3404849e+2, -843339.9, -941478.7, -62684.203, 0.037435673, 0.3016315, -812803.3, -166452.27, 0.0, 9.999466, 9.998164 
2.0150225e+3, 2.4404739e+2, -727464.94, -680215.2, -40627.246, 0.025042064, 0.31637752, -656843.1, -108480.42, 0.0, 9.998922, 9.999545 
2.0150079e+3, 2.540461e+2, -563370.75, -547792.3, 3098.2607, -0.055612743, 0.22043414, -547198.7, -96826.16, 0.0, 9.999367, 9.999567 
2.0149936e+3, 2.6404563e+2, -482557.63, -375041.97, -4901.013, -0.0423536, 0.18439026, -374819.03, -22444.682, 0.0, 9.998892, 10.000308 
2.0149803e+3, 2.7404633e+2, -647341.1, -407067.47, -17579.854, 0.09702642, 0.21844369, -405788.06, -151424.23, 0.0, 9.997103, 10.000277 
2.0149666e+3, 2.840462e+2, -728195.6, -480499.4, 58296.65, 0.09101359, 0.21604085, -467464.9, -311100.22, 0.0, 9.9962435, 9.999515 
2.0149527e+3, 2.940451e+2, -596556.94, -408494.03, 35472.953, -0.102323055, 0.16248417, -402025.53, -343645.47, 0.0, 9.996653, 9.999139 
2.0149396e+3, 3.0404508e+2, -386537.6, 12655.647, -106437.13, -0.037493113, 0.13938676, 39261.754, 39261.754, 0.0, 9.996486, 10.0017805 
2.0149234e+3, 3.140465e+2, -409409.53, 217645.75, 55746.258, -0.06381312, 0.062480494, 222563.13, 222563.13, 0.0, 9.995412, 10.003697 
2.0251912e+3, 1.2407904e+2, -1286206.4, -1695748.8, 24291.574, -0.16986728, 0.10624026, -1284770.6, 439270.44, 0.29941586, 10.005366, 9.997626 
2.0251772e+3, 1.340765e+2, -1287504.6, -1648682.6, -31149.824, -0.007502321, 0.05154397, -1284837.8, 341226.22, 0.21514155, 10.003909, 9.997902 
2.0251635e+3, 1.4407523e+2, -1260436.3, -1609495.1, 28784.605, 0.09842383, 0.13813025, -1258078.5, 269998.88, 0.12884195, 10.003057, 9.997902 
2.0251478e+3, 1.5407404e+2, -1157003.4, -1532525.5, 17078.186, -0.093974195, 0.22857259, -1156228.3, 273865.4, 0.059074648, 10.002999, 9.997783 
2.0251335e+3, 1.6407245e+2, -1055352.8, -1348845.5, 10661.436, -0.15608342, 0.25852466, -1054965.9, 277145.06, 0.01808255, 10.002555, 9.998584 
2.0251212e+3, 1.7407021e+2, -1100473.5, -1326201.5, 5601.3926, -0.06294555, 0.16999327, -1100334.6, 133795.89, 0.0026487417, 10.001558, 9.998548 
2.0251077e+3, 1.8406855e+2, -1051537.5, -1226260.0, -27152.373, -0.008516513, 0.14213753, -1047415.1, 88730.51, 0.000052423693, 10.001106, 9.998779 
2.0250936e+3, 1.9406788e+2, -909753.44, -1118496.8, -29474.371, 0.0002403068, 0.19684435, -905671.5, 132481.4, 0.0, 10.001454, 9.998679 
2.0250797e+3, 2.0406666e+2, -831208.94, -1041051.4, -6123.388, 0.017654762, 0.21500354, -831030.4, 109134.93, 0.0, 10.001368, 9.998581 
2.0250663e+3, 2.1406475e+2, -846832.94, -1012634.25, 14425.648, 0.04438983, 0.16646886, -845587.2, -3402.9824, 0.0, 10.00065, 9.99845 
2.0250519e+3, 2.2406317e+2, -834280.75, -988102.9, -14051.819, 0.047430355, 0.18121567, -833007.6, -88806.12, 0.0, 10.000202, 9.998161 
2.0250364e+3, 2.3406221e+2, -754930.94, -915522.8, -3649.8606, 0.0153546715, 0.27444762, -754848.0, -108632.445, 0.0, 10.000146, 9.9980135 
2.0250213e+3, 2.4406122e+2, -602558.0, -596097.75, 30087.97, -0.011950404, 0.29757175, -569067.0, -20840.346, 0.0, 9.999681, 9.999755 
2.025007e+3, 2.5406027e+2, -652518.1, -563656.3, 8112.9165, -0.031407073, 0.2113918, -562921.7, -112689.51, 0.0, 9.998641, 9.999806 
2.0249926e+3, 2.6405996e+2, -634790.6, -503456.4, -64354.242, 0.003119343, 0.20344888, -477179.84, -124946.805, 0.0, 9.998086, 9.999813 
2.0249781e+3, 2.7406055e+2, -528710.7, -414155.9, -104511.61, 0.1117994, 0.28338754, -352255.38, -98028.016, 0.0, 9.998196, 9.999701 
2.0249638e+3, 2.8406012e+2, -494939.25, -335167.7, 5557.302, 0.09522992, 0.26801446, -334974.63, -178742.61, 0.0, 9.9977045, 9.999806 
2.0249493e+3, 2.9405868e+2, -606910.8, -363381.44, 72337.35, -0.087245464, 0.14386097, -343515.16, -285268.16, 0.0, 9.996371, 9.999582 
2.0249362e+3, 3.0405915e+2, -479358.25, -41786.84, -30396.682, -0.00400018, 0.14314234, -39685.37, -39685.37, 0.0, 9.995884, 10.001699 
2.0249192e+3, 3.1406227e+2, -285291.38, 226509.44, -41039.523, -0.08254126, 0.25503057, 229779.36, 229779.36, 0.0, 9.996484, 10.003242 
2.0351967e+3, 1.24095544e+2, -1287029.9, -1660239.3, -25056.969, -0.16367933, 0.33999988, -1285355.0, 438527.03, 0.3130503, 10.00524, 9.998046 
2.0351793e+3, 1.3409086e+2, -1271867.1, -1598687.5, -71179.94, -0.18744591, 0.032743294, -1257037.4, 368882.94, 0.22565511, 10.003896, 9.9983015 
2.0351642e+3, 1.4408827e+2, -1283054.5, -1662180.0, 21830.621, -0.13735113, -0.016377358, -1281801.6, 246142.0, 0.1358341, 10.00307, 9.997534 
2.0351508e+3, 1.5408699e+2, -1191907.8, -1603225.3, 16109.177, -0.08951664, 0.11102272, -1191277.8, 238684.25, 0.06279894, 10.002979, 9.997307 
2.0351376e+3, 1.6408549e+2, -1074462.0, -1383038.0, -23011.645, -0.00731555, 0.18665765, -1072755.4, 259224.55, 0.019492527, 10.00253, 9.998363 
2.0351243e+3, 1.7408367e+2, -1113105.8, -1354479.0, -29648.033, 0.09860957, 0.15808046, -1109517.4, 124480.12, 0.0029308582, 10.001564, 9.998352 
2.0351095e+3, 1.8408217e+2, -1050790.8, -1227202.0, -18075.252, 0.051869597, 0.15789343, -1048957.8, 87054.4, 0.00006041413, 10.001115, 9.99877 
2.0350932e+3, 1.9408129e+2, -911578.1, -1119966.8, -13603.782, -0.20134032, 0.19149508, -910693.8, 127327.71, 0.0, 10.001442, 9.998677 
2.0350786e+3, 2.0408031e+2, -801229.5, -974726.3, -28811.246, -0.23658185, 0.21151875, -796570.2, 143461.11, 0.0, 10.0013485, 9.999046 
2.0350668e+3, 2.1407928e+2, -811642.3, -938355.7, -10441.645, 0.03568442, 0.20063849, -810787.7, 31252.695, 0.0, 10.000644, 9.998963 
2.035053e+3, 2.2407788e+2, -805379.5, -927214.75, -18311.277, 0.15276958, 0.1864832, -802686.94, -58632.72, 0.0, 10.000196, 9.998583 
2.0350368e+3, 2.3407608e+2, -727092.2, -856654.6, -3461.2114, 0.05079057, 0.1530354, -726999.75, -80925.77, 0.0, 10.000139, 9.998421 
2.0350215e+3, 2.4407494e+2, -640807.06, -676173.2, -6188.456, 0.032060824, 0.16428114, -639755.44, -91668.836, 0.0, 9.999681, 9.9992075 
2.0350072e+3, 2.540749e+2, -695557.56, -655781.44, -29827.154, 0.12667325, 0.23217067, -639819.94, -189732.61, 0.0, 9.99865, 9.999171 
2.034992e+3, 2.6407468e+2, -694218.25, -629363.6, -64687.65, 0.12986873, 0.3062718, -589430.56, -237338.69, 0.0, 9.998095, 9.998946 
2.0349753e+3, 2.7407414e+2, -591904.94, -549436.44, -99580.805, 0.018083252, 0.3607039, -468851.1, -214748.27, 0.0, 9.99821, 9.998766 
2.0349601e+3, 2.8407344e+2, -399239.0, -140027.28, -41847.85, -0.042379994, 0.31600922, -133438.72, 22670.113, 0.0, 9.997718, 10.001142 
2.0349461e+3, 2.940733e+2, -474223.66, -93277.64, 22156.047, -0.06647085, 0.1608739, -91993.36, -33891.813, 0.0, 9.996389, 10.0014305 
2.0349318e+3, 3.0407456e+2, -567430.56, -225761.08, -13839.682, -0.031446353, 0.1811848, -225201.4, -225201.4, 0.0, 9.995889, 10.000434 
2.0349161e+3, 3.1407663e+2, -486472.25, -200886.78, -20331.871, -0.038811117, 0.3773835, -199446.55, -199446.55, 0.0, 9.99652, 10.000291 
2.045201e+3, 1.2410929e+2, -1530008.3, -1762020.8, -43883.746, -0.11068842, 0.31708002, -1521985.3, 201762.38, 0.32884508, 10.002692, 9.998397 
2.0451832e+3, 1.341055e+2, -1241155.0, -1560034.3, -85952.016, -0.19449666, 0.074267134, -1219462.8, 406314.53, 0.2375444, 10.004098, 9.998553 
2.0451675e+3, 1.4410314e+2, -1124924.1, -1566317.6, -12797.504, -0.1763509, 0.030571157, -1124553.4, 403244.6, 0.14358087, 10.004333, 9.9975815 
2.0451541e+3, 1.5410112e+2, -1196063.5, -1603805.5, 6112.439, -0.07457377, 0.082498245, -1195971.9, 233850.72, 0.066891246, 10.002951, 9.997318 
2.0451403e+3, 1.6409937e+2, -1104896.5, -1401585.8, 11738.925, 0.016152019, 0.13311757, -1104432.8, 227409.61, 0.021058364, 10.0023365, 9.998327 
2.0451263e+3, 1.7409793e+2, -933492.3, -1273073.5, 14745.507, 0.07081824, 0.15057413, -932853.2, 301002.56, 0.0032562527, 10.002828, 9.9983015 
2.0451109e+3, 1.8409649e+2, -857317.06, -1152124.8, 16384.346, 0.013887156, 0.16495314, -856409.3, 279460.84, 0.00007088071, 10.002522, 9.998607 
2.0450944e+3, 1.9409513e+2, -976696.4, -1169105.3, 5180.8467, -0.19569378, 0.1682511, -976557.0, 61327.387, 0.0, 10.001074, 9.998515 
2.0450796e+3, 2.04094e+2, -966795.2, -1049479.5, -22981.824, -0.2093403, 0.18013164, -960836.8, -20940.775, 0.0, 10.000195, 9.999087 
2.0450674e+3, 2.1409325e+2, -879708.25, -964171.8, -39480.8, 0.05284007, 0.19272985, -864127.75, -22224.832, 0.0, 10.000152, 9.999022 
2.0450532e+3, 2.2409211e+2, -800162.2, -890686.56, -58903.574, 0.14963701, 0.18824014, -771139.1, -27225.186, 0.0, 10.00009, 9.998883 
2.0450366e+3, 2.3409055e+2, -726493.1, -820173.3, -52397.082, 0.01237885, 0.1445088, -703052.0, -57121.855, 0.0, 9.999989, 9.998743 
2.0450208e+3, 2.4408942e+2, -659487.2, -713130.2, -72098.39, -0.007955759, 0.15362334, -609382.94, -61440.844, 0.0, 9.999674, 9.998956 
2.0450062e+3, 2.5408915e+2, -656153.8, -670898.06, -74658.31, 0.1294111, 0.22833928, -588504.56, -138557.97, 0.0, 9.999068, 9.998864 
2.0449905e+3, 2.640887e+2, -627540.94, -593702.7, -41495.914, 0.15082376, 0.2943098, -565809.25, -213854.84, 0.0, 9.99854, 9.998975 
2.0449737e+3, 2.74088e+2, -602670.6, -547982.1, -3693.1936, 0.027137514, 0.3278227, -547733.8, -293766.72, 0.0, 9.998113, 9.998821 
2.0449577e+3, 2.8408757e+2, -391829.53, -119569.6, 32859.484, -0.04129271, 0.29655567, -115659.88, 40310.824, 0.0, 9.997697, 10.00129 
2.0449427e+3, 2.94088e+2, -332482.03, -324.1448, -16880.84, -0.07839271, 0.18623236, 531.56415, 58488.188, 0.0, 9.997259, 10.001648 
2.044928e+3, 3.040895e+2, -481002.25, -221613.23, -66801.58, -0.030835986, 0.23018263, -205420.4, -205420.4, 0.0, 9.996651, 10.000091 
2.0449132e+3, 3.1409046e+2, -593232.0, -293672.63, 43813.637, 0.039549306, 0.36044228, -287395.94, -287395.94, 0.0, 9.995971, 9.999914 
2.0552047e+3, 1.24120705e+2, -1519937.4, -1717930.6, -22042.89, -0.04424741, 0.07685472, -1517513.0, 206121.05, 0.34696108, 10.002703, 9.998694 
2.0551887e+3, 1.3412037e+2, -1246947.4, -1550073.4, -42846.516, -0.050823394, 0.16722932, -1241007.4, 384627.66, 0.25095117, 10.004044, 9.998682 
2.055173e+3, 1.4411965e+2, -1111329.3, -1511389.5, -49871.926, -0.04151106, 0.26068968, -1105205.9, 422435.63, 0.15219346, 10.004268, 9.998011 
2.055157e+3, 1.5411633e+2, -1167467.1, -1537430.5, -41642.31, -0.06094574, 0.13900417, -1162837.9, 266837.56, 0.07142609, 10.002949, 9.997777 
2.0551416e+3, 1.64114e+2, -1095418.9, -1384103.8, 23939.463, -0.090507135, 0.10054542, -1093447.1, 238251.11, 0.022820981, 10.002349, 9.998444 
2.055127e+3, 1.7411296e+2, -930570.6, -1265222.0, 34815.445, -0.14480013, 0.1482716, -926987.0, 306719.1, 0.0036400377, 10.002817, 9.998363 
2.0551121e+3, 1.8411139e+2, -881468.1, -1197387.6, -31806.545, -0.12420181, 0.16221863, -878297.7, 257422.95, 0.00008593674, 10.002501, 9.998308 
2.0550974e+3, 1.9410932e+2, -1001614.06, -1219186.9, -47680.508, 0.003940527, 0.1264201, -991623.75, 46118.68, 0.0, 10.001066, 9.998177 
2.0550828e+3, 2.0410766e+2, -993689.94, -1106001.5, -29147.98, 0.0813598, 0.12166463, -986575.8, -46815.43, 0.0, 10.0001955, 9.998699 
2.0550679e+3, 2.1410662e+2, -908219.3, -1022882.7, -38108.336, 0.08764985, 0.14414963, -896709.4, -54937.07, 0.0, 10.000147, 9.998621 
2.0550522e+3, 2.2410582e+2, -789752.4, -868384.6, -61376.81, 0.03290393, 0.1872696, -756179.06, -12397.768, 0.0, 10.000084, 9.999041 
2.0550354e+3, 2.341055e+2, -711480.4, -788976.8, -53917.676, -0.104392484, 0.24824543, -683831.75, -38046.883, 0.0, 9.999987, 9.9989605 
2.055019e+3, 2.4410458e+2, -657166.44, -708057.1, -93401.92, -0.1377461, 0.26341194, -585805.9, -38011.645, 0.0, 9.999673, 9.998991 
2.0550036e+3, 2.5410292e+2, -655786.9, -670008.2, -96372.414, -0.029674903, 0.19787827, -566263.2, -116451.96, 0.0, 9.999067, 9.998871 
2.054988e+3, 2.6410192e+2, -562142.8, -459457.66, -59137.824, 0.06025654, 0.16743737, -432484.56, -80662.88, 0.0, 9.998545, 9.999896 
2.054973e+3, 2.7410206e+2, -527131.3, -394417.84, -19036.17, 0.1317518, 0.18260854, -391741.3, -137919.89, 0.0, 9.998123, 9.999871 
2.0549569e+3, 2.8410232e+2, -464511.63, -273900.6, 15572.043, 0.09154099, 0.21035565, -272636.8, -116818.22, 0.0, 9.99771, 10.000226 
2.0549394e+3, 2.941027e+2, -429384.06, -209102.64, -32976.953, -0.1309481, 0.22293885, -204271.81, -146458.48, 0.0, 9.99729, 10.000201 
2.0549251e+3, 3.0410364e+2, -443665.8, -144511.6, -102339.13, 0.00024764184, 0.27801389, -112852.36, -112852.36, 0.0, 9.996654, 10.000619 
2.0549102e+3, 3.1410286e+2, -468509.1, -45359.676, 60550.164, 0.14534783, 0.14238738, -36865.8, -36865.8, 0.0, 9.996, 10.001614 
2.0652083e+3, 1.24135844e+2, -1370967.9, -1653281.9, 24692.049, -0.03513547, 0.07563802, -1368824.5, 354660.53, 0.36701697, 10.004458, 9.998548 
2.0651926e+3, 1.3413511e+2, -1436576.4, -1695723.3, -13421.63, 0.019273845, 0.17351416, -1435883.1, 189609.13, 0.26572064, 10.002563, 9.998223 
2.0651773e+3, 1.4413431e+2, -1366928.6, -1622546.4, -26157.94, 0.041984074, 0.26944306, -1364279.3, 163221.25, 0.16166711, 10.002082, 9.998283 
2.0651604e+3, 1.5413164e+2, -1052188.5, -1439154.8, -23066.55, -0.060106363, 0.17941621, -1050818.4, 378708.25, 0.07645148, 10.003655, 9.99811 
2.0651443e+3, 1.641294e+2, -871883.75, -1290797.1, 9545.242, -0.12257311, 0.14101903, -871666.4, 459881.0, 0.024820644, 10.003997, 9.998297 
2.0651296e+3, 1.7412782e+2, -975548.3, -1307073.5, -2084.6843, -0.14089987, 0.15183474, -975535.2, 258025.31, 0.004100168, 10.002598, 9.9981785 
2.0651145e+3, 1.8412592e+2, -998968.3, -1270687.8, -80208.11, -0.09217594, 0.14853917, -977058.56, 158519.67, 0.000108260756, 10.001768, 9.998157 
2.0650993e+3, 1.9412376e+2, -912254.8, -1192920.1, -86285.0, 0.053580582, 0.12011842, -887850.25, 149750.4, 0.0, 10.001753, 9.998026 
2.0650837e+3, 2.04122e+2, -816053.0, -1026236.0, -35948.613, 0.11391412, 0.11748918, -810074.56, 129544.555, 0.0, 10.001438, 9.99865 
2.0650679e+3, 2.1412088e+2, -829524.7, -989181.44, -21388.828, 0.051805466, 0.13559969, -826708.94, 14922.364, 0.0, 10.000705, 9.998585 
2.0650518e+3, 2.2412002e+2, -771788.1, -855842.9, -23535.916, -0.018025512, 0.17286694, -765646.6, -22006.043, 0.0, 10.000194, 9.999073 
2.0650354e+3, 2.3411965e+2, -703599.56, -780042.0, -30129.371, -0.09635126, 0.22578157, -693152.1, -47507.484, 0.0, 10.000023, 9.999002 
2.065019e+3, 2.4411878e+2, -657313.06, -680564.75, -88850.21, -0.11353228, 0.2305032, -579331.3, -31677.664, 0.0, 9.999556, 9.999236 
2.0650022e+3, 2.5411725e+2, -695081.06, -659876.3, -76626.125, -0.04576028, 0.1538415, -598856.75, -149187.7, 0.0, 9.998673, 9.99913 
2.0649861e+3, 2.6411656e+2, -613302.1, -452735.22, -35132.11, 0.039930496, 0.12523709, -445384.78, -93708.87, 0.0, 9.99806, 10.0001745 
2.0649709e+3, 2.7411705e+2, -550136.06, -373994.22, -50983.027, 0.15118498, 0.15422174, -360301.9, -106632.195, 0.0, 9.99783, 10.0001545 
2.0649546e+3, 2.8411722e+2, -537701.25, -352752.22, -32187.168, 0.12078617, 0.16906711, -347310.7, -191641.97, 0.0, 9.9974, 9.999832 
2.0649365e+3, 2.941168e+2, -555566.25, -331092.75, -22554.525, -0.109187484, 0.15015845, -328848.97, -271174.2, 0.0, 9.996695, 9.999647 
2.0649223e+3, 3.0411825e+2, -420021.47, -98891.836, -38428.023, 0.059942704, 0.27740932, -94357.375, -94357.375, 0.0, 9.996674, 10.00092 
2.0649062e+3, 3.1411654e+2, -261104.39, 83532.04, 66712.44, 0.089843005, 0.003269615, 95995.09, 95995.09, 0.0, 9.997302, 10.001873 
2.0752119e+3, 1.2415456e+2, -1412867.1, -1709669.8, -26783.22, -0.106158674, 0.30759665, -1410469.5, 312832.1, 0.3881435, 10.0043955, 9.9979725 
2.075195e+3, 1.341498e+2, -1493531.8, -1848106.1, -75202.08, 0.003327939, 0.10317421, -1478241.5, 147106.83, 0.28142843, 10.002584, 9.997183 
2.0751795e+3, 1.4414726e+2, -1356858.0, -1604195.6, 16596.715, 0.06217869, 0.07830263, -1355749.3, 171624.11, 0.17189108, 10.002128, 9.998389 
2.0751639e+3, 1.5414695e+2, -1042398.5, -1412318.3, 33783.566, -0.07820006, 0.20384708, -1039338.44, 390038.25, 0.08199122, 10.003649, 9.998309 
2.0751487e+3, 1.6414548e+2, -902543.56, -1347456.9, -32547.111, -0.09010164, 0.2473166, -900175.2, 431215.7, 0.027096357, 10.00397, 9.997916 
2.0751342e+3, 1.7414246e+2, -1004932.3, -1369143.1, -52854.793, 0.0652619, 0.15979779, -997417.06, 236002.28, 0.0046563502, 10.002599, 9.997754 
2.0751181e+3, 1.8414001e+2, -998633.56, -1272755.8, -84326.195, 0.0933658, 0.124111444, -974770.25, 160672.84, 0.00014131474, 10.001778, 9.998138 
2.0751001e+3, 1.9413841e+2, -911623.9, -1191919.3, -84005.08, -0.0497992, 0.1492199, -888375.6, 149083.81, 0.0000000002137382, 10.001751, 9.998035 
2.075083e+3, 2.04137e+2, -798208.4, -988076.1, -60431.06, -0.110094644, 0.1672394, -780606.25, 158866.64, 0.0, 10.001431, 9.998916 
2.0750676e+3, 2.1413596e+2, -810602.1, -948582.6, -47007.813, -0.056965664, 0.1656407, -796109.5, 45371.46, 0.0, 10.000697, 9.998868 
2.075052e+3, 2.2413462e+2, -779108.9, -870655.4, -31587.29, -0.009809251, 0.14488855, -769267.9, -25774.814, 0.0, 10.000191, 9.998973 
2.0750366e+3, 2.3413293e+2, -716039.7, -803190.56, -34120.47, 0.026847117, 0.07957001, -704270.5, -58760.24, 0.0, 10.00001, 9.99885 
2.0750202e+3, 2.4413192e+2, -626261.7, -615519.8, -120472.64, 0.05401191, 0.058766235, -500298.44, 47222.63, 0.0, 9.999551, 9.999686 
2.0750022e+3, 2.5413206e+2, -658868.56, -586182.06, -109437.06, 0.07174244, 0.09774659, -507211.38, -57690.254, 0.0, 9.998678, 9.999636 
2.0749846e+3, 2.6413244e+2, -640391.6, -511143.6, -46840.484, 0.08481127, 0.1700321, -495953.5, -144435.33, 0.0, 9.998068, 9.999771 
2.074968e+3, 2.7413297e+2, -583402.75, -446337.72, -58634.027, 0.07935578, 0.24574003, -424677.94, -171164.64, 0.0, 9.997843, 9.999652 
2.0749512e+3, 2.8413203e+2, -517539.53, -315118.0, -61010.832, 0.034938864, 0.16886066, -298151.2, -142627.98, 0.0, 9.997415, 10.000085 
2.0749341e+3, 2.9412994e+2, -529499.1, -283488.06, -51001.563, -0.035335604, -0.04849165, -273333.8, -215789.47, 0.0, 9.996717, 9.999965 
2.07492e+3, 3.0413336e+2, -413224.78, -86947.27, -15124.854, 0.15572347, 0.250299, -86247.65, -86247.65, 0.0, 9.996687, 10.000995 
2.0749006e+3, 3.1413415e+2, -333584.16, -73651.484, -7536.4175, -0.20303707, 0.22817078, -73433.16, -73433.16, 0.0, 9.997331, 10.00078 
2.0852163e+3, 1.2417e+2, -1440631.4, -1693868.8, -64742.836, -0.0863592, 0.28544256, -1425039.3, 298112.34, 0.40921208, 10.004017, 9.998343 
2.0851983e+3, 1.3416593e+2, -1232842.9, -1637572.8, -46001.992, -0.07526166, 0.119771786, -1227680.0, 397510.1, 0.29750305, 10.005001, 9.997461 
2.085182e+3, 1.4416297e+2, -1027763.3, -1446214.5, 82109.65, -0.019205542, 0.047385678, -1012228.25, 514990.3, 0.18269227, 10.004998, 9.99821 
2.0851678e+3, 1.5416259e+2, -1057200.0, -1443507.0, 81269.2, -0.056489635, 0.18678264, -1040799.3, 388423.56, 0.088053845, 10.003666, 9.998085 
2.0851529e+3, 1.64161e+2, -1053056.6, -1443915.4, -9659.161, -0.02136391, 0.24141714, -1052818.1, 278420.53, 0.029688003, 10.00301, 9.997716 
2.0851375e+3, 1.7415792e+2, -915462.6, -1348183.5, -18497.469, 0.10068546, 0.16635783, -914673.4, 318595.53, 0.005331034, 10.003314, 9.997554 
2.0851207e+3, 1.8415533e+2, -798284.44, -1189141.0, -36957.65, 0.10206811, 0.13641545, -794820.6, 340473.44, 0.00018959571, 10.003209, 9.998024 
2.085102e+3, 1.9415359e+2, -802450.06, -1149793.4, -47313.457, -0.060401186, 0.15712738, -796120.56, 241190.48, 0.000000020895914, 10.002548, 9.997939 
2.0850845e+3, 2.0415197e+2, -730094.56, -974938.56, -48794.445, -0.12914358, 0.16882609, -720728.7, 218597.2, 0.0, 10.001991, 9.9987335 
2.0850687e+3, 2.1415065e+2, -691689.5, -912015.1, -73063.59, -0.06731255, 0.15831642, -669662.56, 171673.95, 0.0, 10.001608, 9.998677 
2.0850524e+3, 2.2414923e+2, -712143.9, -829848.1, -84621.664, -0.007121124, 0.13402297, -667921.25, 75428.22, 0.0, 10.000615, 9.999047 
2.0850363e+3, 2.3414765e+2, -887307.6, -875110.06, -74121.914, 0.049792122, 0.07250906, -806836.44, -161470.84, 0.0, 9.998789, 9.998944 
2.0850194e+3, 2.4414684e+2, -832152.5, -705159.44, -125632.336, 0.079221666, 0.059775736, -627889.1, -80514.21, 0.0, 9.998096, 9.999771 
2.085001e+3, 2.541472e+2, -607021.5, -550892.5, -143983.25, 0.07670914, 0.11473612, -432264.16, 17108.596, 0.0, 9.99899, 9.999727 
2.0849831e+3, 2.6414773e+2, -486676.28, -445421.56, -103553.195, 0.07244512, 0.19916806, -360461.28, -9092.378, 0.0, 9.999163, 9.999692 
2.0849659e+3, 2.741482e+2, -519685.75, -427378.13, -90070.94, 0.05481631, 0.28051338, -372324.47, -118959.1, 0.0, 9.998335, 9.999542 
2.0849484e+3, 2.8414732e+2, -491620.6, -273501.84, -84481.78, 0.01780026, 0.20269974, -244607.9, -89232.76, 0.0, 9.997465, 10.000348 
2.0849308e+3, 2.941455e+2, -545779.2, -259051.61, -80961.97, -0.01700748, -0.015517705, -237770.28, -180377.16, 0.0, 9.996464, 10.0002575 
2.0849161e+3, 3.0414888e+2, -537027.75, -179219.58, -10271.911, 0.1366502, 0.2791204, -178924.94, -178924.94, 0.0, 9.995975, 10.000707 
2.0848972e+3, 3.141504e+2, -466532.03, -99091.984, -67520.44, -0.21877412, 0.35865763, -87077.35, -87077.35, 0.0, 9.996251, 10.001125 
2.0952211e+3, 1.24182574e+2, -1404883.6, -1593274.0, -40120.863, -0.011223581, 0.04596011, -1396695.1, 326335.38, 0.42923403, 10.003957, 9.999595 
2.0952016e+3, 1.3418336e+2, -1176013.9, -1486803.4, -18373.354, -0.22312407, 0.21937397, -1174931.4, 450087.4, 0.3134743, 10.004946, 9.9989395 
2.0951854e+3, 1.4418116e+2, -1063962.3, -1501825.5, 45314.12, -0.20407692, 0.16398452, -1059321.9, 467716.5, 0.19395456, 10.004958, 9.997767 
2.0951718e+3, 1.5417844e+2, -1097045.3, -1529411.0, 36893.777, -0.0071429955, 0.12903589, -1093919.8, 335145.94, 0.09467412, 10.00367, 9.997486 
2.0951568e+3, 1.64176e+2, -1056257.8, -1451576.1, -2834.8218, 0.07019913, 0.13106431, -1056237.4, 274852.88, 0.032649204, 10.003018, 9.997661 
2.0951395e+3, 1.7417406e+2, -916965.25, -1350609.8, -5038.187, -0.032378003, 0.17314923, -916906.7, 316203.22, 0.0061546327, 10.003311, 9.99754 
2.0951223e+3, 1.841718e+2, -813928.9, -1220379.9, -58225.87, -0.062197283, 0.18483147, -805752.25, 329379.84, 0.0002604527, 10.003201, 9.997815 
2.0951055e+3, 1.9416922e+2, -819639.0, -1184068.8, -70064.71, 0.011444508, 0.1444685, -806632.7, 230523.75, 0.00000016154512, 10.00254, 9.997709 
2.095088e+3, 2.0416687e+2, -773361.1, -1064251.0, -63911.45, 0.042109407, 0.12331992, -759938.5, 179240.53, 0.0, 10.001986, 9.998124 
2.0950711e+3, 2.1416491e+2, -738751.7, -1007789.8, -84045.07, 0.011419054, 0.115324266, -714655.0, 126543.445, 0.0, 10.001597, 9.998027 
2.095053e+3, 2.2416376e+2, -697032.75, -797405.25, -147808.56, -0.015064888, 0.14152086, -591122.75, 152087.75, 0.0, 10.000608, 9.999274 
2.0950341e+3, 2.3416373e+2, -866457.25, -832031.56, -140931.9, -0.033844084, 0.20282853, -707265.25, -62053.39, 0.0, 9.998788, 9.999242 
2.0950161e+3, 2.4416333e+2, -851265.0, -745379.9, -100994.41, -0.04254943, 0.23195216, -684292.7, -137076.1, 0.0, 9.998099, 9.999494 
2.0949988e+3, 2.5416258e+2, -629414.4, -598780.0, -108805.53, -0.03961891, 0.2051141, -504218.78, -54993.62, 0.0, 9.998997, 9.999395 
2.0949814e+3, 2.6416227e+2, -469056.78, -412200.28, -131205.48, -0.00771045, 0.21269305, -306378.6, 44850.906, 0.0, 9.999175, 9.999915 
2.0949644e+3, 2.741626e+2, -497662.84, -386892.44, -121049.71, 0.06788686, 0.25279513, -309159.06, -55931.074, 0.0, 9.998356, 9.99981 
2.0949464e+3, 2.84163e+2, -471966.9, -235303.25, -124434.04, 0.06622157, 0.27796203, -181919.47, -26694.059, 0.0, 9.997477, 10.000605 
2.094927e+3, 2.941636e+2, -526675.4, -219562.77, -119895.42, -0.05603841, 0.27549952, -178300.05, -121080.086, 0.0, 9.996465, 10.000528 
2.0949104e+3, 3.0416438e+2, -579579.3, -271637.4, -5967.278, -0.018086324, 0.32672557, -271521.84, -271521.84, 0.0, 9.995988, 10.000067 
2.0948964e+3, 3.1416267e+2, -316563.97, 198415.58, -42671.684, 0.07218222, 0.14740399, 201927.45, 201927.45, 0.0, 9.99631, 10.00314 
2.1052249e+3, 1.24199584e+2, -1433544.5, -1612440.6, 40634.973, -0.019436106, 0.05129899, -1424747.1, 298118.44, 0.44784284, 10.003786, 9.999484 
2.1052061e+3, 1.3420093e+2, -1311786.3, -1541140.3, 22875.03, -0.21297915, 0.26648718, -1309527.0, 315320.66, 0.3292487, 10.0036, 9.999064 
2.1051897e+3, 1.441986e+2, -1218611.6, -1610037.5, 40829.773, -0.20039913, 0.20046699, -1214398.0, 312469.94, 0.20574199, 10.003788, 9.997551 
2.1051763e+3, 1.5419504e+2, -1029610.3, -1519231.0, 44670.047, 0.03172809, 0.10681131, -1025568.25, 403334.47, 0.10195297, 10.004327, 9.99724 
2.105161e+3, 1.6419224e+2, -879602.5, -1366561.6, 25071.46, 0.10274676, 0.090768754, -878315.06, 452615.2, 0.03605696, 10.004301, 9.997625 
2.1051426e+3, 1.741907e+2, -880511.94, -1332617.1, 23083.33, -0.0697315, 0.17271128, -879336.44, 353609.56, 0.007169058, 10.003568, 9.997539 
2.1051247e+3, 1.8418846e+2, -852933.7, -1257417.1, -34136.086, -0.11561015, 0.1943256, -850073.06, 284894.78, 0.0003659927, 10.0030155, 9.997647 
2.1051082e+3, 1.9418538e+2, -802284.9, -1196999.6, -45501.145, 0.016762596, 0.12246577, -797107.56, 239889.42, 0.00000091193453, 10.002752, 9.997517 
2.1050908e+3, 2.0418279e+2, -747084.75, -1071299.8, -26374.387, 0.08216304, 0.09619233, -744953.25, 194069.03, 0.0, 10.002252, 9.997947 
2.1050727e+3, 2.1418096e+2, -774426.94, -1044882.2, -16244.971, 0.052869774, 0.11718683, -773454.7, 67586.88, 0.0, 10.001439, 9.997847 
2.105054e+3, 2.2417971e+2, -677368.4, -820846.44, -91319.45, -0.0015612785, 0.15973496, -632979.3, 110075.875, 0.0, 10.000888, 9.998978 
2.1050334e+3, 2.3417938e+2, -610118.2, -741652.3, -131614.9, -0.08483815, 0.22169018, -528753.4, 116306.516, 0.0, 10.000694, 9.998942 
2.1050146e+3, 2.4417879e+2, -561577.2, -615867.94, -74800.48, -0.112909, 0.2510916, -509148.8, 37917.535, 0.0, 10.000133, 9.999402 
2.1049975e+3, 2.541779e+2, -625675.44, -606270.0, -63002.254, -0.06709786, 0.2187767, -552227.75, -103152.67, 0.0, 9.999063, 9.999311 
2.10498e+3, 2.6417726e+2, -652682.5, -495538.8, -113895.05, -0.013945319, 0.20014983, -435742.97, -84661.05, 0.0, 9.99789, 9.999964 
2.1049617e+3, 2.7417728e+2, -748558.4, -501029.8, -123625.25, 0.054776683, 0.20205952, -449863.25, -196778.75, 0.0, 9.996601, 9.999876 
2.1049431e+3, 2.8417826e+2, -665502.3, -323344.78, -111347.85, 0.048959084, 0.2780379, -290300.34, -135223.42, 0.0, 9.996126, 10.00065 
2.1049233e+3, 2.941802e+2, -487665.5, -198653.81, -123574.81, -0.066953234, 0.40552124, -153021.1, -95962.54, 0.0, 9.996723, 10.000547 
2.1049063e+3, 3.0417895e+2, -532281.06, -232843.55, -10245.224, -0.038527265, 0.24923098, -232493.42, -232493.42, 0.0, 9.996245, 10.000209 
2.1048923e+3, 3.1417745e+2, -566393.4, 122986.1, 34319.465, 0.12386308, 0.07492393, 124690.414, 124690.414, 0.0, 9.99441, 10.003536 
2.1152276e+3, 1.24220476e+2, -1497264.9, -1731130.0, 13590.399, -0.12749773, 0.258304, -1496477.8, 226184.73, 0.46564224, 10.003767, 9.998074 
2.1152109e+3, 1.3421863e+2, -1370283.3, -1663683.9, 21557.225, -0.06967808, 0.26393792, -1368707.9, 255968.8, 0.34530962, 10.003607, 9.997943 
2.1151952e+3, 1.4421533e+2, -1226373.9, -1619820.8, 56291.766, -0.033556346, 0.16748534, -1218478.4, 308227.56, 0.21837954, 10.003791, 9.997491 
2.115181e+3, 1.5421228e+2, -1031129.9, -1513690.4, 63369.754, 0.052097514, 0.12000241, -1022946.94, 405787.53, 0.11008135, 10.004319, 9.997286 
2.1151648e+3, 1.6420962e+2, -884185.3, -1369183.6, 1618.6404, 0.07067496, 0.116924465, -884179.9, 446579.7, 0.040019434, 10.004285, 9.997617 
2.1151465e+3, 1.7420776e+2, -881043.7, -1332225.0, -3074.9136, -0.024036422, 0.16519868, -881022.75, 351755.13, 0.008431502, 10.003563, 9.997544 
2.1151285e+3, 1.8420526e+2, -861829.0, -1276607.3, -45453.57, -0.0710886, 0.16581233, -856906.4, 277895.66, 0.00052564405, 10.003016, 9.997517 
2.1151102e+3, 1.9420199e+2, -812367.7, -1218873.5, -52833.668, -0.048276782, 0.09143447, -805613.1, 231220.39, 0.0000034897541, 10.002755, 9.997367 
2.115092e+3, 2.0419964e+2, -731412.0, -1039732.6, -54307.195, -0.008955468, 0.08692246, -722126.06, 216730.42, 0.0, 10.002253, 9.998165 
2.1150742e+3, 2.1419862e+2, -758866.4, -1010711.7, -44438.023, 0.049609616, 0.16413115, -751255.3, 89611.98, 0.0, 10.001429, 9.998088 
2.1150549e+3, 2.2419696e+2, -734704.75, -939135.6, -100370.28, 0.025580896, 0.18875687, -693664.5, 49220.383, 0.0, 10.000882, 9.99817 
2.1150339e+3, 2.3419452e+2, -672755.75, -872218.94, -137026.4, -0.11154588, 0.13020098, -603009.8, 41901.13, 0.0, 10.000695, 9.998046 
2.1150143e+3, 2.4419309e+2, -555002.6, -603102.5, -113056.13, -0.13917889, 0.118244246, -463466.72, 83458.586, 0.0, 10.000134, 9.99949 
2.114997e+3, 2.5419304e+2, -614267.5, -584595.0, -102980.64, -0.012175348, 0.15483816, -495387.38, -46463.684, 0.0, 9.99907, 9.999457 
2.1149786e+3, 2.6419273e+2, -661090.56, -514937.97, -163906.92, 0.049363248, 0.16471106, -408555.0, -57627.992, 0.0, 9.997898, 9.999828 
2.1149577e+3, 2.7419227e+2, -756993.8, -519874.3, -171888.02, 0.0040445575, 0.13570133, -429623.38, -176688.19, 0.0, 9.996605, 9.999745 
2.1149382e+3, 2.8419292e+2, -675622.44, -347842.5, -95148.164, -0.04667203, 0.19781998, -322224.94, -167293.92, 0.0, 9.996138, 10.000479 
2.1149202e+3, 2.941949e+2, -499704.1, -233569.89, -99166.89, -0.056616075, 0.34248543, -200682.4, -143769.63, 0.0, 9.996762, 10.00029 
2.1149038e+3, 3.041929e+2, -471216.53, -108036.75, -80992.47, 0.07276707, 0.08682819, -90793.375, -90793.375, 0.0, 9.996257, 10.001059 
2.1148853e+3, 3.141961e+2, -668909.0, -91698.93, 22041.752, -0.027829925, 0.29026464, -90858.45, -90858.45, 0.0, 9.9944105, 10.002064 
2.1252322e+3, 1.2423929e+2, -1406135.4, -1701395.1, -47564.1, -0.12765124, 0.38565323, -1398662.3, 323820.7, 0.48421368, 10.005268, 9.9976845 
2.1252163e+3, 1.3423614e+2, -1238510.6, -1586914.8, 4258.472, 0.016948795, 0.2676278, -1238458.6, 386048.94, 0.36272782, 10.005127, 9.99788 
2.1251999e+3, 1.4423284e+2, -1123871.9, -1543968.1, 73062.03, 0.015012929, 0.17049082, -1111527.9, 415007.53, 0.23245484, 10.004716, 9.997575 
2.1251848e+3, 1.5422998e+2, -1064446.1, -1514074.6, 88437.36, 0.04706931, 0.13055037, -1047676.8, 380883.9, 0.119342275, 10.004027, 9.997428 
2.1251684e+3, 1.6422728e+2, -988930.75, -1426413.4, 25086.344, 0.039511114, 0.11612681, -987496.94, 343088.66, 0.04468294, 10.003576, 9.997563 
2.12515e+3, 1.7422497e+2, -881554.8, -1342591.8, 12227.468, -0.04824911, 0.13152128, -881230.75, 351377.28, 0.010021834, 10.00361, 9.99745 
2.1251313e+3, 1.8422246e+2, -784743.5, -1237520.6, -24981.545, -0.089002304, 0.13401867, -783369.3, 351263.28, 0.0007713348, 10.003542, 9.99753 
2.125113e+3, 1.9421966e+2, -727376.4, -1175893.6, -22983.645, -0.06136149, 0.10586147, -726201.7, 310458.25, 0.000010944595, 10.003334, 9.997381 
2.1250945e+3, 2.0421748e+2, -673166.1, -1028859.7, -55293.33, -0.022793455, 0.12332322, -664768.9, 273912.97, 0.0, 10.002731, 9.998007 
2.1250755e+3, 2.142162e+2, -745874.3, -1024030.56, -80250.78, 0.0278591, 0.19276053, -724381.9, 116313.66, 0.0, 10.001605, 9.9979105 
2.1250556e+3, 2.242142e+2, -763734.6, -975383.94, -105928.87, 0.011340721, 0.20325315, -719826.9, 22889.354, 0.0, 10.000784, 9.997966 
2.1250346e+3, 2.342113e+2, -733082.94, -924901.25, -91822.69, -0.09908201, 0.11865525, -696214.2, -51468.06, 0.0, 10.000385, 9.997831 
2.1250144e+3, 2.4420951e+2, -627748.9, -639219.94, -71457.625, -0.118911095, 0.08616825, -561797.0, -15033.954, 0.0, 9.999641, 9.999478 
2.124996e+3, 2.542094e+2, -708350.06, -629072.5, -77751.766, -0.002682228, 0.11755535, -581438.3, -132677.1, 0.0, 9.998424, 9.999462 
2.1249764e+3, 2.642092e+2, -696067.7, -540679.8, -124831.05, 0.043694515, 0.14056543, -471339.28, -120576.07, 0.0, 9.997699, 9.999745 
2.1249546e+3, 2.7420884e+2, -622645.56, -463314.16, -130005.2, -0.03519031, 0.13099435, -390507.0, -137736.77, 0.0, 9.997568, 9.999666 
2.124934e+3, 2.842091e+2, -584930.94, -309231.1, -34325.07, -0.0917089, 0.15834494, -305021.84, -150251.56, 0.0, 9.996785, 10.000429 
2.1249165e+3, 2.9421046e+2, -719101.6, -347367.84, -26920.01, -0.038645826, 0.24685967, -345428.5, -288669.84, 0.0, 9.995297, 10.000212 
2.1248999e+3, 3.0420968e+2, -670194.1, -190497.9, -42624.38, 0.13066004, 0.11413568, -186739.88, -186739.88, 0.0, 9.994831, 10.001182 
2.12488e+3, 3.142141e+2, -646374.2, -95349.3, -16146.49, -0.026470449, 0.42523333, -94876.56, -94876.56, 0.0, 9.994624, 10.001935 
2.1352217e+3, 1.3425353e+2, -1214900.1, -1508284.3, 1870.3042, 0.038585853, 0.2808151, -1214888.1, 409451.8, 0.38280323, 10.005088, 9.998784 
2.135204e+3, 1.4425102e+2, -1120589.0, -1513349.9, 52384.902, -0.057292536, 0.20842455, -1113722.3, 412634.5, 0.24860959, 10.004714, 9.997792 
2.1351884e+3, 1.5424807e+2, -1051488.0, -1476814.5, 63835.24, 0.01127892, 0.13667454, -1042113.9, 386268.16, 0.13004157, 10.004043, 9.997674 
2.1351716e+3, 1.6424514e+2, -997331.94, -1444344.1, 22671.072, 0.00048042915, 0.08975041, -996185.1, 334223.72, 0.0502257, 10.00359, 9.997434 
2.1351525e+3, 1.7424235e+2, -896179.2, -1372241.5, 15278.002, -0.14513992, 0.073407225, -895689.4, 336747.47, 0.012049542, 10.00361, 9.997247 
2.135134e+3, 1.8424e+2, -777943.25, -1221108.3, -31420.979, -0.17180462, 0.09994587, -775726.56, 358733.63, 0.0011537857, 10.0035305, 9.99765 
2.1351168e+3, 1.9423829e+2, -719543.6, -1155650.1, -28817.035, -0.030949494, 0.16543761, -717647.7, 318829.63, 0.000030850606, 10.003314, 9.997531 
2.1350977e+3, 2.0423618e+2, -712341.0, -1107071.8, -94743.336, 0.030776368, 0.20481059, -690778.56, 247720.9, 0.0, 10.002715, 9.997479 
2.1350767e+3, 2.1423358e+2, -786441.9, -1109002.9, -119876.23, -0.01693761, 0.20230861, -746770.3, 93756.87, 0.0, 10.001607, 9.997328 
2.135056e+3, 2.2423135e+2, -736593.2, -920482.4, -121912.36, -0.046991043, 0.20245937, -675840.6, 66709.484, 0.0, 10.000788, 9.998342 
2.1350354e+3, 2.3422958e+2, -702752.44, -861089.94, -104811.77, -0.05423777, 0.18682894, -650569.75, -6003.129, 0.0, 10.00038, 9.998274 
2.1350147e+3, 2.44228e+2, -636381.75, -657493.0, -115895.195, -0.058750004, 0.15633161, -530562.5, 16018.04, 0.0, 9.999641, 9.999354 
2.134994e+3, 2.5422695e+2, -717512.8, -651505.75, -122710.23, -0.04750503, 0.10854419, -557438.3, -108849.62, 0.0, 9.998435, 9.999305 
2.1349731e+3, 2.6422656e+2, -696292.06, -543780.4, -134186.16, -0.04021853, 0.12562393, -465696.13, -115104.2, 0.0, 9.997708, 9.99972 
2.1349517e+3, 2.7422684e+2, -621957.1, -467663.88, -136766.83, -0.06941241, 0.18103057, -387785.75, -135194.22, 0.0, 9.997591, 9.999626 
2.134931e+3, 2.8422666e+2, -579438.6, -302571.16, -91473.42, -0.090410315, 0.16209656, -275079.38, -120483.52, 0.0, 9.996806, 10.000464 
2.1349119e+3, 2.9422686e+2, -712413.75, -333852.47, -77316.85, -0.022101196, 0.13422707, -318670.28, -262074.06, 0.0, 9.995298, 10.000305 
2.1348946e+3, 3.04229e+2, -702869.7, -258358.31, -34325.29, 0.12561701, 0.30841804, -255723.31, -255723.31, 0.0, 9.994828, 10.000717 
2.1348745e+3, 3.142284e+2, -554255.44, 91636.55, -96079.76, -0.018919917, 0.1690145, 105625.914, 105625.914, 0.0, 9.994647, 10.003206 
2.1452267e+3, 1.3427195e+2, -1244614.0, -1512226.1, 89435.96, 0.07705265, 0.22803639, -1217476.4, 406680.75, 0.4060431, 10.004869, 9.99889 
2.1452083e+3, 1.442695e+2, -1108526.9, -1531047.0, 96848.96, -0.10530175, 0.17053224, -1087385.3, 438788.28, 0.26700962, 10.005053, 9.997527 
2.145193e+3, 1.5426663e+2, -932008.94, -1438575.8, 86719.22, 0.0013164682, 0.13394667, -917574.75, 510624.8, 0.14232802, 10.005175, 9.997398 
2.1451758e+3, 1.6426371e+2, -830541.94, -1372204.4, 20455.777, 0.00005249285, 0.10882676, -829770.5, 500456.66, 0.056823775, 10.004889, 9.997301 
2.145156e+3, 1.742608e+2, -869816.9, -1373897.5, 14373.438, -0.17334612, 0.0936098, -869407.4, 362849.22, 0.0146566685, 10.003869, 9.9971075 
2.1451372e+3, 1.8425837e+2, -843289.06, -1232816.4, -24631.691, -0.19469897, 0.1128454, -841737.6, 292542.75, 0.0017501052, 10.003002, 9.997822 
2.1451196e+3, 1.9425671e+2, -842278.2, -1193087.5, -19809.44, -0.006318484, 0.16405125, -841163.1, 195133.06, 0.00008036173, 10.00238, 9.997723 
2.1451004e+3, 2.0425442e+2, -809920.7, -1173865.1, -70713.47, 0.05484664, 0.18518622, -796664.06, 141655.34, 0.000000018813253, 10.002134, 9.997298 
2.1450783e+3, 2.1425137e+2, -686092.94, -1084895.3, -72502.93, -0.057854895, 0.15815575, -673320.8, 167030.67, 0.0, 10.002403, 9.9971075 
2.1450569e+3, 2.2424899e+2, -567443.94, -856220.4, -91667.484, -0.09319249, 0.16230702, -540803.25, 201572.77, 0.0, 10.002023, 9.998189 
2.1450362e+3, 2.3424749e+2, -656472.8, -854603.75, -121119.164, -0.023283983, 0.19066554, -599065.25, 45325.152, 0.0, 10.000766, 9.998132 
2.1450149e+3, 2.4424607e+2, -645203.9, -673378.7, -160798.17, -0.007040548, 0.18580894, -497877.2, 48526.254, 0.0, 9.999633, 9.9992485 
2.1449925e+3, 2.5424486e+2, -690093.25, -648634.94, -165023.75, -0.059011787, 0.13577098, -503043.5, -54630.25, 0.0, 9.99867, 9.99921 
2.1449704e+3, 2.642443e+2, -706079.6, -564828.25, -156951.11, -0.07987895, 0.14473236, -463344.56, -112925.92, 0.0, 9.997712, 9.999574 
2.144949e+3, 2.7424437e+2, -754475.8, -549620.3, -169680.06, -0.06953217, 0.19349225, -453849.25, -201428.9, 0.0, 9.9967575, 9.999466 
2.1449275e+3, 2.8424412e+2, -714925.06, -347857.94, -146811.84, -0.059663974, 0.16949056, -296363.25, -141938.5, 0.0, 9.9957905, 10.000644 
2.144907e+3, 2.9424432e+2, -764366.6, -328496.3, -118616.71, -0.015479057, 0.12007696, -298307.2, -241883.0, 0.0, 9.994809, 10.000578 
2.1448886e+3, 3.0424705e+2, -792089.7, -290140.75, -3012.9248, 0.08994751, 0.32862723, -290122.66, -290122.66, 0.0, 9.9941635, 10.00082 
2.1448694e+3, 3.142449e+2, -636813.7, 89498.81, -45738.055, 0.027259383, 0.034322474, 92367.74, 92367.74, 0.0, 9.993936, 10.003525 
2.1552321e+3, 1.3429138e+2, -1292215.6, -1577404.6, 112567.484, 0.1197098, 0.114400156, -1253138.4, 370821.22, 0.43114096, 10.004822, 9.998187 
2.1552132e+3, 1.4428832e+2, -1159275.4, -1639864.9, 92111.766, -0.14772017, 0.06692072, -1142225.8, 383759.72, 0.28697306, 10.005045, 9.996771 
2.1551983e+3, 1.5428562e+2, -988535.06, -1555153.0, 96112.086, 0.008949849, 0.12503885, -972676.0, 455337.38, 0.15608467, 10.005166, 9.996603 
2.1551809e+3, 1.642829e+2, -847909.5, -1396474.3, -10322.306, 0.029501637, 0.17133059, -847715.3, 482325.9, 0.06463168, 10.004865, 9.997147 
2.1551602e+3, 1.7428021e+2, -878947.25, -1388044.0, -20756.203, -0.1426475, 0.18809286, -878102.44, 353965.72, 0.018026173, 10.003857, 9.997018 
2.1551403e+3, 1.8427747e+2, -829746.6, -1204114.8, -47414.45, -0.16767098, 0.17120881, -823834.9, 310259.25, 0.0026760222, 10.002999, 9.998021 
2.1551223e+3, 1.9427486e+2, -823818.75, -1158512.5, -39839.742, 0.006822332, 0.10171678, -819141.9, 216975.39, 0.00019722809, 10.002394, 9.997954 
2.1551023e+3, 2.0427217e+2, -799417.5, -1155773.1, -62011.516, 0.044601157, 0.06670831, -788934.9, 149207.44, 0.0000007869328, 10.002148, 9.997418 
2.1550803e+3, 2.1426947e+2, -679147.94, -1069755.6, -59710.652, -0.10165211, 0.063262075, -670224.06, 169945.33, 0.0, 10.002398, 9.997215 
2.1550584e+3, 2.2426702e+2, -616506.75, -956431.94, -134000.03, -0.13410732, 0.08553258, -570036.2, 172159.03, 0.0, 10.002013, 9.997507 
2.1550371e+3, 2.3426495e+2, -707624.25, -962324.4, -167064.98, -0.013351154, 0.13035205, -624905.9, 19312.613, 0.0, 10.000771, 9.997393 
2.1550149e+3, 2.4426356e+2, -650726.25, -685589.75, -199178.89, 0.028611679, 0.17290519, -468217.75, 78015.35, 0.0, 9.999636, 9.999164 
2.1549912e+3, 2.5426307e+2, -691716.9, -653354.1, -201256.5, -0.04327383, 0.1969823, -470367.03, -22130.662, 0.0, 9.998673, 9.999177 
2.1549681e+3, 2.642623e+2, -722975.2, -602374.7, -194604.39, -0.080018975, 0.19776309, -458942.3, -108697.75, 0.0, 9.997722, 9.999312 
2.1549457e+3, 2.742613e+2, -772370.6, -589065.3, -206074.08, -0.0464901, 0.17005867, -455181.44, -202923.67, 0.0, 9.996767, 9.999192 
2.1549238e+3, 2.842614e+2, -690287.56, -298193.53, -186039.02, -0.006919477, 0.18116409, -223972.25, -69714.164, 0.0, 9.995795, 10.000983 
2.1549019e+3, 2.9426268e+2, -729373.06, -260889.16, -153213.14, -0.020662695, 0.19827414, -215231.92, -158987.9, 0.0, 9.994827, 10.001035 
2.1548818e+3, 3.0426365e+2, -749828.1, -205138.89, -19407.154, 0.0006749499, 0.17615706, -204448.28, -204448.28, 0.0, 9.994174, 10.001401 
2.1548627e+3, 3.14266e+2, -693465.9, -40496.87, -8325.013, -0.032250814, 0.27430624, -40390.746, -40390.746, 0.0, 9.993979, 10.002616 
2.1652353e+3, 1.343109e+2, -1474881.3, -1677244.5, 139226.36, 0.051734887, 0.12042953, -1403953.4, 219810.9, 0.45588937, 10.0026655, 9.998559 
2.1652192e+3, 1.4430766e+2, -1120290.5, -1598537.8, 83240.836, -0.056977194, 0.028132427, -1106216.4, 419576.8, 0.30743718, 10.005501, 9.996834 
2.1652038e+3, 1.5430525e+2, -1033800.3, -1583976.4, 123979.086, 0.051837537, 0.11592334, -1007152.94, 420666.44, 0.17105475, 10.00489, 9.996548 
2.1651858e+3, 1.643026e+2, -915041.94, -1404264.1, 44238.598, 0.05010424, 0.16434036, -911073.8, 418772.94, 0.07379587, 10.004294, 9.99737 
2.1651644e+3, 1.7429975e+2, -863928.7, -1350684.1, 57610.2, -0.110138826, 0.13888396, -857203.2, 374671.28, 0.022390002, 10.003846, 9.997281 
2.1651438e+3, 1.8429697e+2, -740813.6, -1172364.3, 55689.227, -0.15420105, 0.10864808, -733743.06, 400157.66, 0.0041004247, 10.003665, 9.997919 
2.1651247e+3, 1.9429447e+2, -618656.8, -1075204.6, 35351.68, -0.042277593, 0.06616226, -615935.7, 419987.6, 0.00045283977, 10.003873, 9.997813 
2.1651044e+3, 2.042919e+2, -587413.9, -1063140.6, -9424.436, -0.015665676, 0.055285476, -587227.25, 350720.16, 0.000007502901, 10.003645, 9.997332 
2.1650827e+3, 2.142893e+2, -618052.0, -1049112.3, -23719.643, -0.10522571, 0.070344746, -616750.75, 223222.78, 0.0, 10.002856, 9.997136 
2.1650605e+3, 2.242865e+2, -635410.4, -1007460.1, -118285.164, -0.11778346, 0.080459274, -600988.8, 141013.95, 0.0, 10.002069, 9.997127 
2.1650381e+3, 2.3428354e+2, -659861.94, -984703.1, -130399.48, -0.021356372, 0.077128574, -613993.1, 30042.084, 0.0, 10.001297, 9.996983 
2.1650146e+3, 2.4428183e+2, -562780.8, -672459.94, -154588.73, 0.01932741, 0.12277983, -453592.78, 92460.91, 0.0, 10.000364, 9.998903 
2.1649903e+3, 2.5428173e+2, -632787.8, -650786.1, -174637.52, -0.028609386, 0.21265575, -466917.75, -18863.707, 0.0, 9.999191, 9.998943 
2.164966e+3, 2.6428095e+2, -695027.3, -592794.94, -170362.1, -0.053147424, 0.22499673, -466045.7, -115983.03, 0.0, 9.997932, 9.999275 
2.1649429e+3, 2.7427942e+2, -803764.44, -606052.0, -164431.6, -0.008225484, 0.14437795, -513048.13, -260967.92, 0.0, 9.996564, 9.999171 
2.16492e+3, 2.842796e+2, -710728.2, -299633.66, -126841.72, 0.032384153, 0.16433538, -263647.25, -109568.09, 0.0, 9.995622, 10.001054 
2.1648964e+3, 2.942816e+2, -683357.5, -227340.61, -122112.586, -0.030776154, 0.24638626, -196700.0, -140641.66, 0.0, 9.995101, 10.001129 
2.1648754e+3, 3.0428192e+2, -777662.4, -143291.81, -18262.512, -0.039559063, 0.120519675, -142766.5, -142766.5, 0.0, 9.993669, 10.002064 
2.164855e+3, 3.142851e+2, -1014975.44, -167058.61, 5222.0337, -0.09003799, 0.2280355, -167026.45, -167026.45, 0.0, 9.99166, 10.002861 
2.1752363e+3, 1.3433051e+2, -1418860.4, -1541711.6, 209674.98, -0.120866105, 0.24283716, -1261798.8, 361771.88, 0.47904873, 10.002843, 9.999958 
2.1752268e+3, 1.4432749e+2, -1096255.5, -1495453.0, 84063.32, 0.14598781, 0.048604812, -1079275.6, 446321.56, 0.32779226, 10.005482, 9.997616 
2.1752092e+3, 1.5432541e+2, -1007474.75, -1496387.3, 101917.625, 0.1179129, 0.1046861, -987080.0, 440538.44, 0.1871387, 10.004875, 9.997157 
2.17519e+3, 1.643227e+2, -886632.5, -1325314.5, 28886.523, 0.05277943, 0.09273316, -884738.56, 444906.06, 0.08453503, 10.004276, 9.997923 
2.1751684e+3, 1.743193e+2, -826532.9, -1266714.9, 43404.742, -0.08281027, -0.047412682, -822293.75, 409382.7, 0.028060794, 10.003845, 9.997859 
2.1751475e+3, 1.8431672e+2, -770479.25, -1232428.3, 62108.945, -0.16065668, -0.06940091, -762274.44, 371426.84, 0.0062729204, 10.003663, 9.997508 
2.1751277e+3, 1.9431543e+2, -656167.94, -1151053.3, 45624.082, -0.15605418, 0.05836252, -651997.0, 383718.5, 0.00097549375, 10.003863, 9.997297 
2.1751072e+3, 2.0431346e+2, -609240.9, -1106499.9, -35540.09, -0.12861316, 0.14808485, -606713.56, 331022.66, 0.000047493053, 10.003635, 9.99704 
2.175086e+3, 2.1431069e+2, -638277.3, -1090110.3, -50863.055, -0.07752969, 0.17373668, -632622.4, 207142.8, 0.00000000032497088, 10.002851, 9.996859 
2.1750632e+3, 2.243073e+2, -642718.06, -1022214.44, -146961.77, -0.05185911, 0.1436665, -592461.8, 149338.13, 0.0, 10.002065, 9.997028 
2.175039e+3, 2.3430315e+2, -666356.2, -998001.94, -157790.66, -0.053305462, 0.030491771, -603279.25, 40562.508, 0.0, 10.001294, 9.996894 
2.1750145e+3, 2.443008e+2, -593730.3, -736881.0, -198157.69, -0.04092883, 0.035899702, -454617.47, 91248.62, 0.0, 10.000364, 9.998462 
2.1749894e+3, 2.543008e+2, -663662.25, -718507.3, -218812.0, -0.024185374, 0.1834954, -470561.13, -22693.898, 0.0, 9.999205, 9.998474 
2.1749645e+3, 2.6430014e+2, -681389.94, -566064.06, -223462.9, -0.0062514893, 0.22508697, -392944.22, -43070.055, 0.0, 9.997938, 9.999456 
2.17494e+3, 2.7429855e+2, -785375.44, -571277.6, -213799.27, 0.040842704, 0.11593473, -439224.9, -187336.0, 0.0, 9.996575, 9.999405 
2.1749158e+3, 2.842986e+2, -722687.06, -331225.4, -150922.9, 0.04550695, 0.11693132, -279795.78, -125906.43, 0.0, 9.995648, 10.000826 
2.1748914e+3, 2.943009e+2, -701422.25, -272883.56, -149426.23, -0.07026411, 0.25865933, -225925.9, -170056.52, 0.0, 9.995133, 10.000802 
2.1748693e+3, 3.0430165e+2, -730854.7, -41388.637, -106592.52, -0.00055483676, 0.16287039, -25285.379, -25285.379, 0.0, 9.993651, 10.00277 
2.1748479e+3, 3.1430325e+2, -886390.75, 92357.15, -128275.53, 0.042299718, 0.028225154, 108889.79, 108889.79, 0.0, 9.991672, 10.004649 
2.1852325e+3, 1.4434765e+2, -981649.1, -1370157.9, 127622.27, 0.1254337, -0.029617792, -943476.75, 581921.4, 0.34819338, 10.006397, 9.998504 
2.1852142e+3, 1.5434664e+2, -942574.8, -1380946.8, 140346.48, 0.088196106, 0.062091865, -901492.4, 525916.2, 0.20458116, 10.005167, 9.997865 
2.1851943e+3, 1.6434465e+2, -890914.6, -1330780.1, 87664.79, 0.05074898, 0.08461026, -874086.94, 455341.06, 0.09722603, 10.004312, 9.997879 
2.1851726e+3, 1.743413e+2, -798919.9, -1261714.0, 60163.633, -0.06732136, -0.036582332, -791226.5, 440233.25, 0.0354895, 10.004112, 9.997766 
2.1851514e+3, 1.8433873e+2, -744187.7, -1230390.5, 77142.586, -0.14913741, -0.050630726, -732241.5, 401243.53, 0.009580226, 10.0039015, 9.997409 
2.1851312e+3, 1.9433726e+2, -688540.8, -1179133.1, 88247.57, -0.1737649, 0.07214068, -673149.7, 362351.2, 0.0020003777, 10.003697, 9.997187 
2.1851106e+3, 2.0433497e+2, -647111.3, -1159270.3, 9445.738, -0.13856061, 0.15000619, -646937.1, 290588.13, 0.00020531415, 10.003526, 9.996731 
2.1850896e+3, 2.1433167e+2, -578983.8, -1098755.0, -14442.402, -0.029989425, 0.15597121, -578582.8, 260977.77, 0.0000008582186, 10.003419, 9.996526 
2.1850662e+3, 2.2432831e+2, -505912.72, -948908.4, -117769.92, -0.0034080863, 0.1444662, -476549.94, 265045.25, 0.0, 10.002973, 9.997094 
2.1850403e+3, 2.3432489e+2, -546242.1, -929788.8, -118946.36, -0.07806809, 0.09480831, -512349.22, 131279.92, 0.0, 10.002074, 9.996986 
2.1850146e+3, 2.4432229e+2, -522882.8, -770180.5, -162984.67, -0.086234644, 0.09881071, -441951.5, 103704.266, 0.0, 10.0011425, 9.997858 
2.1849893e+3, 2.5432086e+2, -572892.0, -747766.56, -200739.36, -0.014940597, 0.16718043, -441373.66, 6298.2197, 0.0, 10.000146, 9.997819 
2.1849631e+3, 2.6431966e+2, -532190.0, -470332.72, -225638.06, 0.010708862, 0.18312085, -273513.44, 76169.79, 0.0, 9.998859, 9.99967 
2.1849363e+3, 2.743187e+2, -677766.3, -487874.8, -213574.36, -0.001210859, 0.10911724, -349092.72, -97403.3, 0.0, 9.99718, 9.999686 
2.1849109e+3, 2.8431883e+2, -781433.25, -351632.2, -134316.03, 0.015148463, 0.10341994, -313110.06, -159421.94, 0.0, 9.9952135, 10.0008955 
2.184886e+3, 2.9432085e+2, -1036150.56, -430588.88, -115328.71, 0.01583289, 0.208564, -409368.25, -353695.16, 0.0, 9.9928255, 10.000832 
2.1848623e+3, 3.04322e+2, -1052479.8, -188422.78, -67314.65, 0.02610774, 0.1537626, -183210.06, -183210.06, 0.0, 9.9914055, 10.002848 
2.1848388e+3, 3.143249e+2, -891048.1, 204112.84, -130116.68, -0.009908473, 0.13543226, 219359.81, 219359.81, 0.0, 9.991152, 10.005667 
2.1952364e+3, 1.4436804e+2, -975081.9, -1296498.8, 96342.39, -0.12196944, -0.19809124, -948416.2, 576780.8, 0.36948434, 10.006204, 9.999453 
2.195218e+3, 1.5436879e+2, -914211.8, -1295835.5, 102338.44, -0.034374967, -0.008488847, -888500.44, 538690.8, 0.2239616, 10.00515, 9.998635 
2.1951985e+3, 1.6436818e+2, -930522.06, -1414365.6, 76427.05, 0.038090467, 0.13578112, -918736.8, 410461.94, 0.11243769, 10.004349, 9.997286 
2.1951765e+3, 1.7436555e+2, -851142.75, -1367914.4, 56059.848, -0.069021896, 0.15936518, -845131.25, 386094.97, 0.045324244, 10.004119, 9.997035 
2.1951555e+3, 1.8436278e+2, -732868.25, -1201009.3, 71567.445, -0.1265478, 0.15294711, -722171.75, 411081.94, 0.014626961, 10.003895, 9.997615 
2.1951355e+3, 1.9435984e+2, -670414.94, -1140596.6, 83374.125, -0.10782858, 0.1030045, -656068.5, 379212.25, 0.0039541395, 10.003698, 9.997452 
2.195115e+3, 2.0435636e+2, -670254.6, -1209291.4, 6087.7075, -0.05735035, 0.0627226, -670185.9, 267129.63, 0.00068570423, 10.003533, 9.996385 
2.1950935e+3, 2.1435219e+2, -606269.25, -1156115.8, -15312.687, 0.029873103, 0.022942223, -605843.1, 233516.98, 0.000020275347, 10.00342, 9.996132 
2.1950696e+3, 2.2434947e+2, -490971.47, -918603.94, -148551.47, 0.022169795, 0.08646811, -444432.34, 296956.88, 0.0, 10.002974, 9.997303 
2.1950422e+3, 2.3434862e+2, -527541.5, -893205.06, -151497.08, -0.10547879, 0.2675016, -472931.03, 170467.6, 0.0, 10.002082, 9.997235 
2.1950154e+3, 2.4434614e+2, -576762.5, -883257.0, -201612.38, -0.124659576, 0.3088365, -476766.28, 68657.78, 0.0, 10.001147, 9.997081 
2.1949895e+3, 2.5434172e+2, -631932.4, -872439.7, -238403.86, -0.010348311, 0.16119863, -485170.44, -37701.043, 0.0, 10.000153, 9.996961 
2.1949616e+3, 2.643394e+2, -514309.8, -434493.03, -289484.7, -0.011986482, 0.09686012, -182178.8, 167312.44, 0.0, 9.998865, 9.999915 
2.1949321e+3, 2.7433974e+2, -650929.5, -437568.34, -276741.84, -0.14454907, 0.12247526, -247656.97, 3825.9858, 0.0, 9.997202, 10.000023 
2.1949053e+3, 2.8434023e+2, -755310.94, -299316.44, -225476.67, -0.06532835, 0.11930824, -206654.25, -53177.453, 0.0, 9.99522, 10.001253 
2.1948811e+3, 2.943413e+2, -1010119.44, -373566.0, -205665.86, 0.2259067, 0.0927076, -312898.78, -257428.22, 0.0, 9.992808, 10.001233 
2.1948536e+3, 3.0434296e+2, -1088784.9, -263754.16, -77792.52, 0.013093899, 0.09001362, -256483.16, -256483.16, 0.0, 9.991406, 10.00233 
2.1948281e+3, 3.1434768e+2, -915500.75, 150047.36, -54770.195, -0.19796093, 0.32182533, 152855.19, 152855.19, 0.0, 9.991179, 10.005274 
2.2052415e+3, 1.4439279e+2, -1377449.1, -1598596.9, 100989.516, -0.031021759, -0.06875132, -1338271.6, 186683.67, 0.39304128, 10.00247, 9.99837 
2.205222e+3, 1.5439288e+2, -915011.56, -1282997.9, 162961.13, -0.1538309, 0.05020584, -853220.6, 573736.56, 0.24621937, 10.0052185, 9.9987545 
2.2052029e+3, 1.6439238e+2, -677212.7, -1265524.5, 87258.32, -0.065498225, 0.1908102, -664543.4, 664420.5, 0.13100643, 10.006365, 9.997391 
2.2051814e+3, 1.7438942e+2, -741662.7, -1306454.4, 115558.28, -0.04055151, 0.17730221, -718933.75, 512059.53, 0.05848483, 10.004941, 9.9970665 
2.2051601e+3, 1.8438622e+2, -705884.3, -1215420.8, 178567.48, -0.05141475, 0.1416014, -649536.5, 483487.63, 0.02233383, 10.00423, 9.997361 
2.2051398e+3, 1.9438282e+2, -571693.3, -1120481.6, 154027.14, -0.089467905, 0.071274444, -531418.6, 503637.34, 0.007570695, 10.004513, 9.997198 
2.2051187e+3, 2.043793e+2, -510429.78, -1124941.5, 68533.12, -0.07577699, 0.03742141, -502879.4, 434211.63, 0.0019227195, 10.004606, 9.996447 
2.2050972e+3, 2.143756e+2, -447909.84, -1070211.0, 78346.9, 0.00010766856, 0.036925748, -438197.66, 400933.34, 0.00018514412, 10.004469, 9.996216 
2.2050728e+3, 2.2437285e+2, -367401.28, -908566.6, -81928.266, -0.0052455403, 0.112816945, -355269.9, 385890.8, 0.00000043093667, 10.004041, 9.996857 
2.2050446e+3, 2.3437129e+2, -396869.9, -882707.75, -142662.34, -0.11020468, 0.2746107, -358075.94, 285101.53, 0.0, 10.003211, 9.996761 
2.205017e+3, 2.4436848e+2, -433140.4, -796370.75, -201044.97, -0.11831018, 0.29924637, -343825.44, 201380.5, 0.0, 10.00206, 9.997235 
2.2049898e+3, 2.5436413e+2, -574827.56, -823960.1, -162627.39, -0.008934626, 0.13970356, -494541.63, -47292.613, 0.0, 10.000456, 9.997148 
2.2049604e+3, 2.6436195e+2, -576504.7, -491695.44, -212486.4, -0.009771834, 0.09557756, -317423.75, 31845.188, 0.0, 9.998558, 9.999668 
2.204929e+3, 2.743625e+2, -816017.0, -546951.7, -250420.52, -0.13172288, 0.1728089, -397214.28, -145954.42, 0.0, 9.996201, 9.999752 
2.2049e+3, 2.8436264e+2, -880319.3, -366179.25, -225763.58, -0.07092677, 0.14440097, -281117.44, -127858.984, 0.0, 9.994391, 10.001193 
2.2048736e+3, 2.9436266e+2, -923935.8, -329870.25, -236312.06, 0.1757503, 0.019049147, -247335.05, -192073.6, 0.0, 9.993392, 10.001252 
2.204845e+3, 3.0436632e+2, -1019204.56, -191019.77, -78081.586, -0.00006931833, 0.1974115, -183722.5, -183722.5, 0.0, 9.99171, 10.002686 
2.204819e+3, 3.1437004e+2, -1246091.3, -19062.412, 55267.58, -0.11332521, 0.2941081, -16578.092, -16578.092, 0.0, 9.988962, 10.005179 
2.2152478e+3, 1.4442147e+2, -1484008.8, -1980339.3, -19158.844, 0.35343993, 0.3370138, -1483270.4, 41406.66, 0.4211078, 10.002561, 9.995599 
2.2152258e+3, 1.5441874e+2, -967298.44, -1351316.0, 249678.94, -0.28263438, 0.22662859, -844335.9, 582372.25, 0.27309316, 10.00514, 9.998297 
2.2152072e+3, 1.6441712e+2, -670281.25, -1188444.5, 51489.164, -0.26427022, 0.24597351, -665214.4, 663509.94, 0.15439098, 10.00622, 9.9981 
2.2151868e+3, 1.7441285e+2, -707517.0, -1205177.0, 63602.598, 0.009929448, 0.02706477, -699517.0, 531244.75, 0.076396756, 10.004917, 9.997781 
2.2151655e+3, 1.8440907e+2, -754675.44, -1313994.8, 183934.1, 0.06542659, -0.070808835, -699609.4, 433187.56, 0.0341234, 10.0042515, 9.996676 
2.215144e+3, 1.9440615e+2, -624728.94, -1229152.8, 166395.53, -0.124451116, -0.015728302, -581948.8, 452878.28, 0.014075964, 10.004527, 9.996448 
2.2151221e+3, 2.044037e+2, -479164.1, -1058424.8, 65500.016, -0.19643922, 0.07410285, -471850.0, 465003.03, 0.00475021, 10.00461, 9.9969015 
2.2151004e+3, 2.1440172e+2, -410380.34, -992004.75, 75317.67, -0.12706499, 0.19181931, -400785.34, 438089.66, 0.00090777123, 10.00447, 9.996752 
2.2150756e+3, 2.2439824e+2, -445017.7, -1070672.5, -110914.5, -0.09319613, 0.21952501, -425936.97, 314974.38, 0.000035243098, 10.004043, 9.995745 
2.2150481e+3, 2.3439284e+2, -481455.53, -1058818.1, -171909.66, -0.098929435, 0.11726755, -434146.0, 208820.52, 0.0, 10.00321, 9.995555 
2.2150195e+3, 2.4438922e+2, -358603.03, -639722.9, -260380.17, -0.07438033, 0.073674425, -203266.13, 341735.88, 0.0, 10.002052, 9.998315 
2.21499e+3, 2.5438797e+2, -486768.44, -643542.56, -221752.52, -0.018971449, 0.10370127, -329956.2, 117055.16, 0.0, 10.000465, 9.998381 
2.214959e+3, 2.643873e+2, -630225.25, -603389.5, -301049.06, 0.011058845, 0.17723522, -315459.44, 33557.758, 0.0, 9.998558, 9.998902 
2.2149265e+3, 2.7438703e+2, -878596.2, -678689.44, -340935.75, 0.023707602, 0.2585566, -423357.22, -172336.14, 0.0, 9.996207, 9.998845 
2.2148947e+3, 2.843859e+2, -915387.06, -439373.56, -269497.28, -0.0107390275, 0.181631, -317830.6, -164796.81, 0.0, 9.994394, 10.0006895 
2.2148637e+3, 2.9438487e+2, -946395.0, -381731.8, -270026.72, -0.13598345, -0.0066703823, -273390.2, -218343.81, 0.0, 9.993414, 10.000886 
2.2148362e+3, 3.0439207e+2, -921166.3, 10951.624, -180237.9, -0.034073554, 0.4730625, 44589.23, 44589.23, 0.0, 9.991713, 10.004074 
2.214809e+3, 3.143914e+2, -1235592.6, -4180.5796, -25650.188, 0.005170243, 0.00076972874, -3646.5203, -3646.5203, 0.0, 9.988984, 10.005274 
2.225247e+3, 1.4444052e+2, -1004025.9, -1307429.6, -265085.63, -0.20552766, -0.006676999, -850303.7, 674195.06, 0.45747888, 10.006809, 9.999425 
2.2252297e+3, 1.5444236e+2, -1209465.0, -1344403.9, 227331.58, -0.2643331, 0.17400153, -1039802.06, 386677.72, 0.30785933, 10.002265, 9.999862 
2.2252117e+3, 1.64442e+2, -1250732.5, -1481030.0, 137987.33, -0.1856914, 0.23447818, -1186160.0, 142321.25, 0.18539205, 10.001529, 9.9982195 
2.2251919e+3, 1.7443791e+2, -754342.1, -1210887.5, 98288.93, 0.049668293, 0.025939163, -734080.8, 496436.97, 0.10158202, 10.004616, 9.997889 
2.2251709e+3, 1.8443444e+2, -506123.97, -1159557.1, 194590.52, 0.08683713, -0.0597205, -452565.4, 679984.94, 0.052360047, 10.005989, 9.996912 
2.2251491e+3, 1.944319e+2, -484009.38, -1132371.8, 244703.73, -0.105401315, 0.011187877, -402021.44, 632554.9, 0.025531195, 10.005444, 9.996681 
2.2251269e+3, 2.0442963e+2, -393034.9, -1040283.75, 173323.4, -0.20124368, 0.116153784, -349543.88, 587056.7, 0.010672905, 10.005336, 9.996679 
2.2251047e+3, 2.144275e+2, -246560.02, -940615.9, 123080.695, -0.18333854, 0.24854524, -225379.8, 613244.44, 0.003060658, 10.005727, 9.9965 
2.2250798e+3, 2.2442368e+2, -279297.5, -974959.94, -100038.53, -0.13746193, 0.24664128, -265197.44, 475465.53, 0.00038452426, 10.005116, 9.995883 
2.2250518e+3, 2.3441759e+2, -473105.13, -1035664.4, -66032.39, -0.05223563, 0.060401585, -465458.28, 177263.34, 0.0000042267657, 10.00319, 9.995721 
2.225022e+3, 2.4441373e+2, -418092.38, -704259.75, -139151.75, -0.007946817, -0.00003395172, -361586.1, 183172.5, 0.0, 10.001799, 9.997993 
2.2249907e+3, 2.544128e+2, -428871.34, -650474.1, -221228.98, -0.02033663, 0.097158946, -292247.56, 154519.11, 0.0, 10.001019, 9.998065 
2.2249578e+3, 2.644122e+2, -478943.9, -546831.75, -375103.25, -0.022647223, 0.20404856, -136251.88, 212521.3, 0.0, 9.999667, 9.998757 
2.224923e+3, 2.744118e+2, -695569.4, -604357.44, -364222.4, 0.0042233285, 0.2848248, -282896.84, -32116.969, 0.0, 9.997526, 9.998721 
2.2248894e+3, 2.8441077e+2, -817379.9, -347859.6, -220141.72, -0.0075255516, 0.20547687, -260789.5, -107998.266, 0.0, 9.994878, 10.001084 
2.2248565e+3, 2.944098e+2, -1183486.5, -456026.5, -154589.95, -0.11114743, -0.012276097, -424538.13, -369738.22, 0.0, 9.991617, 10.001243 
2.224827e+3, 3.0441698e+2, -1289176.6, -88857.21, -81712.734, 0.0017420955, 0.41659465, -83320.09, -83320.09, 0.0, 9.988857, 10.004765 
2.2247961e+3, 3.1441617e+2, -1584872.1, -158927.23, -26075.578, -0.07880928, -0.15018992, -158450.56, -158450.56, 0.0, 9.986546, 10.005384 
2.2352333e+3, 1.5446386e+2, -1076034.9, -1017464.06, 103232.65, -0.11326056, -0.087112844, -939443.3, 486827.88, 0.3560755, 10.002097, 10.003309 
2.2352165e+3, 1.6446699e+2, -1290146.5, -1550183.3, 226672.75, 0.13613226, 0.16705212, -1158850.4, 169384.86, 0.2291687, 10.001544, 9.997785 
2.2351968e+3, 1.7446448e+2, -812703.06, -1291607.5, 199769.22, 0.06288861, 0.1642344, -740313.8, 489948.88, 0.13871491, 10.00455, 9.997415 
2.235176e+3, 1.8446214e+2, -465709.34, -1014265.9, 176425.88, 0.0071588997, 0.16024686, -413867.0, 718418.94, 0.081220955, 10.005904, 9.998003 
2.2351553e+3, 1.9445984e+2, -417328.84, -967921.9, 221289.95, -0.040317904, 0.14145462, -339415.22, 694890.4, 0.045443233, 10.005451, 9.997821 
2.2351333e+3, 2.0445688e+2, -456322.5, -1169171.1, 186671.38, -0.1031135, 0.16003704, -410398.1, 525937.25, 0.0222348, 10.005372, 9.995779 
2.2351106e+3, 2.144529e+2, -318204.2, -1088626.9, 140729.63, -0.17884792, 0.2100689, -293302.6, 545076.6, 0.008148586, 10.005744, 9.995477 
2.2350849e+3, 2.244491e+2, -186033.92, -779335.9, -165946.06, -0.14702219, 0.19911559, -142773.3, 597642.6, 0.0017301891, 10.0051155, 9.997227 
2.2350557e+3, 2.3444536e+2, -366100.3, -817460.56, -137800.06, 0.019401522, 0.09990383, -327355.8, 315088.6, 0.0001105588, 10.003206, 9.9972105 
2.2350247e+3, 2.4444179e+2, -539886.3, -958581.06, -172315.55, 0.070857875, 0.072054006, -478089.9, 66387.75, 0.00000027766953, 10.001803, 9.996246 
2.2349916e+3, 2.5443843e+2, -562331.56, -928660.8, -250750.08, -0.02678222, 0.11684361, -434972.63, 11543.906, 0.0, 10.001022, 9.996154 
2.2349565e+3, 2.6443657e+2, -444383.66, -476093.5, -455637.88, -0.12232619, 0.17619108, -4324.9253, 344213.28, 0.0, 9.999671, 9.999243 
2.2349188e+3, 2.7443674e+2, -644574.3, -504553.47, -444675.9, -0.198365, 0.25034598, -124410.46, 126126.945, 0.0, 9.99755, 9.999397 
2.2348836e+3, 2.844371e+2, -720309.75, -152930.5, -343741.2, -0.07498655, 0.20794739, 9067.887, 161599.9, 0.0, 9.994904, 10.002413 
2.2348516e+3, 2.9443747e+2, -1107689.8, -299754.13, -278296.25, 0.23357007, -0.010371892, -213172.45, -158649.73, 0.0, 9.991618, 10.002316 
2.2348168e+3, 3.0444098e+2, -1317391.5, -134030.84, -169697.23, 0.12518044, 0.018620841, -110176.63, -110176.63, 0.0, 9.988803, 10.004479 
2.2347812e+3, 3.144478e+2, -1586944.9, -158881.23, -224041.47, -0.21984811, 0.22018331, -124557.51, -124557.51, 0.0, 9.986514, 10.005406 
2.2452337e+3, 1.5449367e+2, -1504506.1, -1594805.6, 275182.34, -0.21349862, 0.35518822, -1270794.3, 155180.4, 0.42663234, 10.000367, 9.998967 
2.2452192e+3, 1.644902e+2, -992320.4, -1194205.8, 111995.29, 0.15790512, 0.08235206, -942490.5, 385517.5, 0.2944928, 10.003394, 9.999636 
2.2451997e+3, 1.7449065e+2, -1050131.9, -1206066.0, 266704.1, 0.038802423, 0.173073, -850232.2, 379776.94, 0.1960482, 10.001862, 9.999464 
2.2451802e+3, 1.8449011e+2, -874699.1, -1174685.8, 358640.0, -0.020055495, 0.21795723, -635950.06, 496065.75, 0.12799753, 10.0028105, 9.998475 
2.2451614e+3, 1.9448805e+2, -238939.66, -838366.25, 342316.56, -0.031525306, 0.19099464, -83670.9, 950361.56, 0.079648376, 10.006785, 9.998159 
2.2451407e+3, 2.0448484e+2, -41514.59, -983502.06, 241670.02, -0.07809541, 0.17502442, 16868.188, 952931.94, 0.043426175, 10.008544, 9.99554 
2.2451174e+3, 2.1447994e+2, -94013.516, -1006367.1, 242971.84, -0.15587766, 0.16172503, -33341.605, 804773.9, 0.018392744, 10.00749, 9.995204 
2.2450908e+3, 2.2447604e+2, 74778.49, -650165.25, -97778.016, -0.14531146, 0.15854357, 87734.91, 827887.0, 0.0050831432, 10.00692, 9.997249 
2.24506e+3, 2.3447333e+2, 157413.39, -558874.9, -178962.14, -0.024691274, 0.15742566, 199637.42, 841808.3, 0.00064539287, 10.006783, 9.997267 
2.2450276e+3, 2.4447007e+2, -52659.152, -687454.44, -240008.75, 0.031699073, 0.14326644, 27869.662, 572069.56, 0.000013271653, 10.004998, 9.996567 
2.2449929e+3, 2.544661e+2, -522830.97, -873178.06, -153906.05, -0.005700839, 0.0938163, -464824.66, -18582.598, 0.0, 10.001135, 9.996482 
2.2449556e+3, 2.6446393e+2, -677424.7, -545464.1, -271247.28, -0.08368356, 0.08814637, -332287.66, 15978.074, 0.0, 9.9978895, 9.99962 
2.2449152e+3, 2.7446425e+2, -922084.06, -594857.44, -281394.53, -0.17781681, 0.14220577, -432967.75, -182703.64, 0.0, 9.99546, 9.99978 
2.244878e+3, 2.844655e+2, -951539.8, -224132.05, -250022.02, -0.03771814, 0.15291536, -146484.0, 5766.8735, 0.0, 9.993147, 10.002768 
2.2448432e+3, 2.944674e+2, -1214678.3, -313816.06, -271041.4, 0.3002254, 0.050656322, -238555.6, -184327.73, 0.0, 9.990732, 10.002643 
2.2448042e+3, 3.044696e+2, -1475278.9, -177859.77, -152671.22, 0.05560621, -0.07881484, -160136.6, -160136.6, 0.0, 9.987589, 10.004761 
2.2447675e+3, 3.1447947e+2, -1840933.3, -189386.7, -119442.81, -0.10959832, 0.39560634, -180793.1, -180793.1, 0.0, 9.984372, 10.006234 
2.2552197e+3, 1.6451174e+2, -872737.8, -871876.06, 77743.86, -0.12231799, -0.017479133, -794561.9, 533236.5, 0.39518175, 10.003435, 10.003488 
2.2552009e+3, 1.7451642e+2, -845344.06, -742509.06, 182847.4, -0.024518875, 0.05866343, -603987.25, 625769.9, 0.28696483, 10.001844, 10.00377 
2.2551832e+3, 1.8451829e+2, -938525.94, -1232623.0, 461167.94, -0.0059809545, 0.12573925, -601529.94, 530210.94, 0.20449889, 10.002724, 9.998293 
2.2551677e+3, 1.9451648e+2, -321389.06, -920936.5, 459822.13, -0.0876046, 0.16476399, -72254.18, 961503.3, 0.13721669, 10.006764, 9.997728 
2.2551484e+3, 2.0451337e+2, -50479.72, -930260.7, 210556.94, -0.13211122, 0.16368337, -2683.967, 933102.75, 0.07996021, 10.008548, 9.9959135 
2.2551252e+3, 2.1450835e+2, -74510.33, -946646.4, 205208.38, -0.12497014, 0.10016184, -28638.732, 809196.0, 0.03656729, 10.007534, 9.995598 
2.2550976e+3, 2.2450434e+2, -13570.63, -831512.25, -101041.1, -0.14468323, 0.12178054, -1273.7963, 738599.7, 0.011503362, 10.006949, 9.995987 
2.2550651e+3, 2.345014e+2, 63851.26, -752814.75, -181288.39, -0.19050813, 0.23303668, 102285.9, 744187.8, 0.0019770383, 10.006786, 9.995934 
2.255031e+3, 2.4449854e+2, 109734.984, -344676.22, -378456.78, -0.13071364, 0.21540858, 323949.72, 867875.44, 0.00009519052, 10.004977, 9.998933 
2.2549944e+3, 2.5449574e+2, -342998.1, -498836.3, -299065.47, 0.035330784, 0.026911443, -111867.8, 334076.16, 0.000000089437044, 10.00113, 9.999055 
2.254955e+3, 2.6449418e+2, -660615.06, -512487.1, -368597.66, 0.08682513, -0.064907044, -210586.05, 137370.44, 0.0, 9.997893, 9.999848 
2.2549132e+3, 2.7449426e+2, -919588.8, -588762.4, -369702.4, 0.056496847, -0.045432214, -349155.3, -99194.586, 0.0, 9.995452, 9.999828 
2.2548726e+3, 2.8449595e+2, -1003202.06, -329382.13, -341888.97, 0.09873014, 0.044246122, -186295.84, -34347.707, 0.0, 9.993136, 10.002052 
2.2548318e+3, 2.9449958e+2, -1247329.4, -382622.75, -371232.22, 0.07670811, 0.19051029, -245114.02, -191198.75, 0.0, 9.990736, 10.0021715 
2.2547889e+3, 3.045028e+2, -1396370.0, -12552.263, -284102.72, -0.24676752, 0.12075043, 43504.273, 43504.273, 0.0, 9.98758, 10.005902 
2.2547542e+3, 3.1450874e+2, -1698064.1, 115155.55, 3990.3042, 0.10163925, 0.11024761, 115164.33, 115164.33, 0.0, 9.98434, 10.008339 
2.265204e+3, 1.7455152e+2, -953674.06, -1809629.3, 90373.47, -0.1437412, 0.5696758, -944236.3, 285182.9, 0.43148938, 10.006808, 9.99274 
2.2651829e+3, 1.845457e+2, -1088088.8, -991392.5, 349286.66, -0.15379967, 0.266155, -687123.7, 444360.84, 0.32812357, 10.000039, 10.001773 
2.2651741e+3, 1.9454749e+2, -359803.06, -558115.44, 611540.0, -0.044249002, 0.26315922, 160567.31, 1194024.4, 0.23081726, 10.00516, 10.001793 
2.2651584e+3, 2.0454599e+2, -19989.76, -890395.8, 453133.38, -0.033130527, 0.20348045, 173083.84, 1108548.4, 0.13891102, 10.009209, 9.996034 
2.2651345e+3, 2.1454002e+2, 424658.38, -697987.7, 421449.2, -0.13311698, 0.055904675, 565263.4, 1402782.5, 0.06535507, 10.011421, 9.995496 
2.2651067e+3, 2.2453497e+2, 506109.9, -675952.25, 45955.73, -0.15593226, 0.02687997, 507893.84, 1247461.1, 0.021567367, 10.011097, 9.995069 
2.2650735e+3, 2.3453099e+2, 112373.03, -831935.5, -10056.163, -0.08086196, 0.12874669, 112480.11, 754087.9, 0.004193024, 10.007581, 9.995006 
2.2650366e+3, 2.4452832e+2, 68790.336, -262797.28, -298648.13, -0.020837486, 0.1387142, 244578.56, 788209.9, 0.00029902614, 10.004253, 9.9998455 
2.2649951e+3, 2.5452727e+2, -264815.4, -346848.94, -340594.38, 0.0029696026, 0.02475665, 37223.063, 482856.7, 0.000001829517, 10.001177, 10.000075 
2.2649524e+3, 2.6452705e+2, -562456.1, -353032.38, -417755.8, 0.026106143, -0.034797348, -27065.129, 320568.16, 0.0, 9.998088, 10.000848 
2.2649087e+3, 2.7452782e+2, -929422.7, -484839.72, -350060.7, 0.10350759, -0.042055015, -292455.44, -42825.855, 0.0, 9.994921, 10.000796 
2.2648655e+3, 2.8452995e+2, -1116439.6, -328069.3, -221303.4, 0.14360769, 0.01829536, -270195.7, -118583.29, 0.0, 9.992121, 10.002549 
2.2648211e+3, 2.9453397e+2, -1334178.3, -358459.94, -164657.39, -0.017771691, 0.15821794, -331422.4, -277846.38, 0.0, 9.989851, 10.002764 
2.2647756e+3, 3.0453813e+2, -1526096.1, -31149.373, -126371.18, -0.26771182, 0.12844211, -20542.197, -20542.197, 0.0, 9.986505, 10.0062895 
2.2647375e+3, 3.1454343e+2, -2040762.8, -27644.137, 180335.88, 0.13820511, 0.033815604, -11617.182, -11617.182, 0.0, 9.98191, 10.008525 
2.2751807e+3, 1.9458117e+2, -141548.08, 93611.78, 618246.44, 0.100911565, 0.5069665, 605359.8, 1638490.3, 0.37458515, 10.004955, 10.009978 
2.27517e+3, 2.0458233e+2, -117002.055, -936832.44, 493415.03, 0.19814055, 0.2895216, 114556.72, 1049657.8, 0.22595826, 10.009305, 9.99586 
2.2751455e+3, 2.1457466e+2, 348802.06, -783077.56, 482247.25, -0.19249606, 0.026227405, 526401.25, 1363572.6, 0.105575874, 10.01154, 9.99492 
2.2751175e+3, 2.245678e+2, 456536.6, -757412.44, -74388.25, -0.18702678, -0.12400852, 461077.97, 1200313.1, 0.03471153, 10.011148, 9.994474 
2.2750847e+3, 2.3456192e+2, 69314.45, -914991.56, -140493.28, 0.28931642, -0.15629409, 88974.83, 730265.44, 0.006910275, 10.007568, 9.994442 
2.2750445e+3, 2.445593e+2, 27911.48, -341368.97, -418221.53, 0.34299773, -0.08777457, 300437.8, 843756.2, 0.00056962395, 10.004225, 9.999322 
2.2749949e+3, 2.5456062e+2, -304066.13, -427088.84, -455350.9, -0.115339704, 0.08930266, 93909.305, 539221.5, 0.0000070837887, 10.001169, 9.99953 
2.2749473e+3, 2.6456252e+2, -435037.16, -90286.84, -539809.7, -0.27607575, 0.1858429, 304001.66, 651298.25, 0.0, 9.998095, 10.002652 
2.2749019e+3, 2.745651e+2, -792674.4, -203856.61, -470780.34, -0.05264202, 0.16624239, 56991.87, 306262.03, 0.0, 9.994932, 10.002724 
2.2748569e+3, 2.8456756e+2, -988545.06, -64475.566, -309452.84, 0.080782, 0.07326233, 29580.654, 180824.19, 0.0, 9.992125, 10.00436 
2.274811e+3, 2.9457045e+2, -1213644.0, -105710.836, -246075.78, 0.009859802, -0.081456274, -53515.508, -304.0005, 0.0, 9.989835, 10.00451 
2.2747649e+3, 3.04576e+2, -1573333.0, -122116.47, -296788.9, 0.028632049, -0.026489599, -63766.184, -63766.184, 0.0, 9.98647, 10.005685 
2.2747178e+3, 3.1458393e+2, -2221757.3, -412270.22, -95020.65, -0.027313173, 0.20558862, -407294.13, -407294.13, 0.0, 9.981929, 10.005888 
2.2851802e+3, 2.0461458e+2, 43678.684, -790704.6, 413435.38, 0.1527787, 0.22695608, 213835.05, 1148620.5, 0.33763143, 10.012181, 9.995703 
2.2851612e+3, 2.1460746e+2, 1108949.5, -404703.13, 438214.0, -0.114589125, 0.04599097, 1226661.8, 2063513.3, 0.15315996, 10.018334, 9.994667 
2.2851326e+3, 2.2460197e+2, 1427882.1, -93460.05, -356855.06, -0.10210798, -0.035565127, 1507428.9, 2246330.8, 0.048824318, 10.017463, 9.996228 
2.2850916e+3, 2.3459715e+2, 369135.5, -558706.8, -268641.6, 0.18278024, -0.15305413, 441303.1, 1082248.8, 0.009424917, 10.008754, 9.996325 
2.2850464e+3, 2.4459572e+2, -167841.69, -291337.7, -291021.53, 0.22666162, -0.12326206, 67910.46, 610871.56, 0.0007725975, 10.002256, 10.000611 
2.2849953e+3, 2.5459844e+2, -626206.56, -444899.8, -190369.64, -0.0353505, 0.072632894, -324701.03, 120240.71, 0.00001059215, 9.998361, 10.000759 
2.2849452e+3, 2.6460165e+2, -747338.75, -103716.33, -192203.64, -0.14183037, 0.1822357, -50687.984, 296225.6, 0.0, 9.995358, 10.003875 
2.2848962e+3, 2.7460548e+2, -918831.1, -126431.805, -178441.25, -0.03539358, 0.16753784, -88102.47, 160772.5, 0.0, 9.993468, 10.003958 
2.2848476e+3, 2.84609e+2, -1122958.3, -39231.96, -94087.24, 0.016977653, 0.0796327, -31124.129, 119714.03, 0.0, 9.990817, 10.005162 
2.2847988e+3, 2.946126e+2, -1544100.6, -187120.66, -115280.7, -0.054154478, -0.07502234, -177396.78, -124597.266, 0.0, 9.987245, 10.005196 
2.284751e+3, 3.0461928e+2, -1853408.5, -211627.03, -189247.22, 0.108668074, 0.04278122, -190095.0, -190095.0, 0.0, 9.984367, 10.00608 
2.284699e+3, 3.1462687e+2, -2211304.5, -435280.75, 32177.613, -0.09132007, 0.19848278, -434697.97, -434697.97, 0.0, 9.982122, 10.005632 
2.2951889e+3, 2.0464215e+2, -13400.212, -802879.7, 536885.8, -0.19482999, -0.042272404, 258242.69, 1192765.5, 0.4514589, 10.013708, 9.995687 
2.2951816e+3, 2.146385e+2, 1045970.75, -404929.3, 614383.9, 0.08671839, 0.115777984, 1271175.9, 2107734.5, 0.1976946, 10.018641, 9.994719 
2.2951517e+3, 2.246374e+2, 1633741.8, 432854.03, -637638.56, 0.07524317, 0.28222114, 1909149.4, 2647717.5, 0.06079041, 10.017232, 10.0002575 
2.2950944e+3, 2.3463652e+2, 653992.3, 50522.54, -582465.25, -0.40376157, 0.12967493, 1008237.4, 1648811.4, 0.011146916, 10.008691, 10.000595 
2.2950424e+3, 2.4463746e+2, 43066.813, 150977.27, -444347.13, -0.3677906, 0.029255264, 544632.94, 1087193.4, 0.00083037437, 10.002235, 10.003668 
2.2949964e+3, 2.5464067e+2, -416718.4, -8164.1387, -336106.44, 0.23903978, -0.02751356, 180873.73, 625396.7, 0.0000084946, 9.99835, 10.003769 
2.2949463e+3, 2.6464438e+2, -704297.7, -16333.998, -267752.78, 0.4239299, -0.053797163, 75591.33, 422076.2, 0.0, 9.995362, 10.004477 
2.2948913e+3, 2.7464885e+2, -881440.5, -51204.098, -245507.78, 0.14810914, -0.05326784, 15961.014, 264405.5, 0.0, 9.993474, 10.004475 
2.2948374e+3, 2.8465435e+2, -1146318.5, -86188.85, -227471.17, -0.059727423, 0.044706278, -39441.875, 110952.914, 0.0, 9.990806, 10.0048485 
2.2947842e+3, 2.94661e+2, -1587633.3, -267677.72, -251951.13, -0.23299241, 0.22937071, -221220.77, -168885.19, 0.0, 9.987197, 10.00467 
2.2947337e+3, 3.0466768e+2, -1747383.3, 13356.806, -266217.34, -0.055703048, 0.30921033, 52727.535, 52727.535, 0.0, 9.984341, 10.007641 
2.2946826e+3, 3.1467324e+2, -2027113.5, -49962.75, -85019.17, 0.06822078, 0.0842619, -46313.59, -46313.59, 0.0, 9.982119, 10.008275 
2.305208e+3, 2.1468279e+2, 2502840.8, 181900.19, 700835.8, 0.13325775, 0.08317766, 2698048.0, 3534177.3, 0.22605345, 10.032978, 9.99316 
2.3051633e+3, 2.2468323e+2, 294396.03, 61212.76, 46821.28, 0.104645625, 0.37144238, 303446.13, 1041572.25, 0.06770436, 10.006201, 10.002874 
2.3051023e+3, 2.3468553e+2, 562403.56, 316732.7, 66371.52, -0.37737024, 0.26886725, 579188.0, 1219286.6, 0.011842726, 10.006707, 10.003399 
2.3050459e+3, 2.4468794e+2, 455487.34, 462467.94, 71198.98, -0.36237282, 0.13176647, 530262.1, 1072329.9, 0.00077499094, 10.004589, 10.004675 
2.304995e+3, 2.5469068e+2, -162090.28, 222515.06, 26423.621, 0.21942481, -0.061034456, 224321.97, 668353.3, 0.00000470942, 9.999638, 10.00473 
2.3049414e+3, 2.6469436e+2, -674373.94, -10379.684, 63622.42, 0.4039621, -0.12827218, -4338.492, 341654.66, 0.0, 9.995609, 10.004395 
2.3048843e+3, 2.7469936e+2, -1009584.4, -124073.2, 38291.125, 0.1459151, -0.055228494, -122420.51, 125530.49, 0.0, 9.99265, 10.004366 
2.3048276e+3, 2.8470564e+2, -1308138.8, -115377.05, 20112.607, -0.05636695, 0.10625376, -115038.0, 34858.0, 0.0, 9.989491, 10.005278 
2.3047708e+3, 2.9471308e+2, -1704475.8, -268663.7, 53752.67, -0.23261409, 0.3332084, -266654.16, -214825.36, 0.0, 9.98616, 10.005161 
2.3047173e+3, 3.0471897e+2, -1849670.4, 64587.79, 102326.14, -0.054798804, 0.2670849, 70042.06, 70042.06, 0.0, 9.983204, 10.008543 
2.3046646e+3, 3.1472537e+2, -2246387.3, -58466.656, 110402.3, 0.14118947, 0.043733954, -52909.875, -52909.875, 0.0, 9.98021, 10.009132 
2.3152395e+3, 2.1473932e+2, 2256893.5, -207728.81, -744964.25, 0.010431583, -0.046873935, 2464569.5, 3300142.5, 0.22904342, 10.032392, 9.990019 
2.3151682e+3, 2.2473885e+2, 399431.6, 241883.77, 20880.154, -0.015392284, 0.24906796, 402151.9, 1139733.9, 0.06783108, 10.00637, 10.004128 
2.315115e+3, 2.3474373e+2, 659964.5, 514534.84, 94600.56, 0.23411871, 0.26837528, 706567.4, 1346091.5, 0.011526088, 10.0067215, 10.00477 
2.3150559e+3, 2.4474688e+2, 377347.44, 309298.75, -114537.086, 0.20748323, 0.18387772, 462806.97, 1004293.3, 0.0006780652, 10.004543, 10.003646 
2.3149912e+3, 2.5474834e+2, -241324.39, 61208.395, -159412.89, -0.11862689, -0.025841502, 129700.945, 573169.0, 0.0000030256037, 9.999619, 10.003634 
2.3149307e+3, 2.647517e+2, -725775.75, -121587.34, -51095.684, -0.21984881, -0.031137379, -117296.695, 228140.83, 0.0, 9.995622, 10.003628 
2.3148748e+3, 2.7475733e+2, -1063070.4, -237406.9, -71805.71, -0.061503336, 0.1789791, -231208.69, 16183.623, 0.0, 9.992654, 10.003591 
2.3148176e+3, 2.84763e+2, -1219787.1, 68926.69, -102311.375, 0.024947075, 0.2608424, 76998.66, 226338.66, 0.0, 9.989482, 10.006552 
2.3147587e+3, 2.947688e+2, -1590620.6, -32812.734, -60046.53, -0.027952917, 0.19010085, -30501.639, 20777.416, 0.0, 9.986154, 10.006788 
2.3147017e+3, 3.0477378e+2, -1842779.4, 82748.53, 5616.403, 0.09467086, -0.07433672, 82764.914, 82764.914, 0.0, 9.983179, 10.008683 
2.3146431e+3, 3.1478557e+2, -2309439.8, -180790.05, -115409.484, -0.01165306, 0.26583645, -174551.14, -174551.14, 0.0, 9.980167, 10.008318 
2.3253717e+3, 2.0481911e+2, -216821.17, -1171432.6, -736495.56, 0.16137643, -0.046288785, 183509.95, 1116287.3, 0.47913182, 10.013402, 9.993548 
2.3252651e+3, 2.1481061e+2, 1062797.4, -728960.3, -655854.56, -0.0023101529, 0.00599655, 1277208.8, 2112079.3, 0.20547703, 10.02066, 9.99117 
2.3251809e+3, 2.2480804e+2, 1940510.3, 693009.0, 697866.0, -0.011713494, 0.185393, 2252752.0, 2989649.8, 0.0611372, 10.018986, 10.001321 
2.3251231e+3, 2.3480907e+2, 653096.1, 182763.48, 509566.16, 0.32995084, 0.13145606, 979143.56, 1618024.3, 0.0103492085, 10.008106, 10.001786 
2.3250596e+3, 2.448106e+2, -155986.81, -55686.992, 208593.69, 0.28646612, 0.09397469, 108700.6, 649562.7, 0.00058294163, 10.001355, 10.002661 
2.3249894e+3, 2.5481275e+2, -381336.66, -110116.69, 176781.08, -0.19417672, 0.056748964, -22922.68, 419918.34, 0.0000031568961, 9.999116, 10.002692 
2.3249254e+3, 2.6481602e+2, -605856.4, -78197.98, 339249.88, -0.34089935, 0.10036437, 87735.92, 432548.13, 0.0, 9.996519, 10.0034895 
2.3248672e+3, 2.748205e+2, -933711.9, -188163.83, 359194.2, -0.09353159, 0.21842593, -43269.094, 203505.08, 0.0, 9.993607, 10.003467 
2.3248076e+3, 2.848251e+2, -1091667.3, 114219.805, 283651.44, 0.04840764, 0.2149609, 177608.8, 326339.16, 0.0, 9.99044, 10.006397 
2.3247457e+3, 2.948302e+2, -1468832.9, 16741.578, 205591.84, 0.011723294, 0.0969982, 44668.867, 95344.67, 0.0, 9.9870405, 10.006695 
2.3246849e+3, 3.0483586e+2, -1807536.8, 75728.914, 183740.77, 0.09442275, -0.08183478, 93488.11, 93488.11, 0.0, 9.983532, 10.008461 
2.3246223e+3, 3.1484815e+2, -2309209.5, -158932.75, 41104.53, -0.062874414, 0.3415392, -158147.28, -158147.28, 0.0, 9.980088, 10.0085 
2.3353817e+3, 2.0489812e+2, 160331.33, -621639.5, -513107.75, -0.13007513, 0.08740273, 414442.16, 1346461.0, 0.3712427, 10.013339, 9.996987 
2.3352861e+3, 2.1489534e+2, 1431601.1, -105465.51, -460966.16, 0.07321532, 0.2141967, 1559244.9, 2393278.8, 0.16308703, 10.020439, 9.996163 
2.3352008e+3, 2.2488979e+2, 1485062.4, -250812.39, 322247.47, 0.07421392, 0.170643, 1542953.6, 2279037.5, 0.04946228, 10.018724, 9.994487 
2.3351267e+3, 2.3488113e+2, 147217.45, -856057.3, 106118.32, -0.09099634, -0.13398324, 158318.95, 796491.06, 0.008545415, 10.00802, 9.994632 
2.3350567e+3, 2.4487902e+2, -218584.34, -186721.72, 116893.96, -0.114451304, -0.12888782, -84678.445, 455517.28, 0.0004857673, 10.001351, 10.001765 
2.3349905e+3, 2.5488394e+2, -438263.94, -228898.78, 93819.29, -0.0065537095, 0.19132408, -193009.31, 249141.0, 0.0000034610243, 9.999111, 10.001882 
2.3349255e+3, 2.6488727e+2, -567545.75, -7252.6553, 230884.22, 0.0381072, 0.26056412, 75629.19, 419745.88, 0.0, 9.996547, 10.003967 
2.334862e+3, 2.748889e+2, -890641.94, -109401.25, 253905.17, 0.041479897, 0.042517096, -34133.098, 211962.64, 0.0, 9.993643, 10.003994 
2.3347974e+3, 2.8489214e+2, -1212675.3, -145268.58, 159456.84, -0.0063540246, -0.035593126, -121956.89, 26107.346, 0.0, 9.99047, 10.004602 
2.3347308e+3, 2.948978e+2, -1609137.3, -281318.53, 84806.25, -0.15738665, 0.088059165, -275923.97, -225910.06, 0.0, 9.987063, 10.00464 
2.3346667e+3, 3.049054e+2, -1842792.0, -4371.1523, 46359.457, -0.05710778, 0.24839772, -3202.8481, -3202.8481, 0.0, 9.983553, 10.007905 
2.3346038e+3, 3.1491074e+2, -2268843.5, -92147.19, 63613.313, 0.088313036, 0.0034409657, -90289.695, -90289.695, 0.0, 9.980146, 10.008939 
2.3454939e+3, 1.9498533e+2, -526422.2, -924467.94, -699063.7, -0.29090378, 0.72374445, 1397.4982, 1030564.7, 0.43373883, 10.007267, 9.999208 
2.3453924e+3, 2.0497839e+2, 127982.055, -632265.5, -390839.97, -0.22534244, 0.20858482, 293064.63, 1224301.9, 0.25541392, 10.010991, 9.997458 
2.345302e+3, 2.1497557e+2, 532545.2, -445837.3, -509163.34, 0.09615123, 0.22534193, 749438.5, 1582688.6, 0.11517619, 10.0119295, 9.997259 
2.3452154e+3, 2.249694e+2, 317531.28, -1007506.5, -35100.69, 0.11536104, 0.13698672, 318460.44, 1053765.6, 0.035805564, 10.010959, 9.992841 
2.3451336e+3, 2.3495983e+2, 16559.121, -1117831.6, 108846.016, -0.17511527, -0.083012335, 26908.592, 664312.4, 0.006342078, 10.007972, 9.992851 
2.3450588e+3, 2.4495624e+2, 197757.77, -138509.03, 451836.9, -0.19718842, -0.06267771, 511729.56, 1051172.1, 0.00035192654, 10.0048895, 10.000387 
2.3449913e+3, 2.5495917e+2, -161401.38, -251687.67, 381520.47, 0.057800617, 0.20847064, 177637.44, 619053.75, 0.0000021481599, 10.001702, 10.000472 
2.3449236e+3, 2.6496118e+2, -392038.06, 11351.04, 424617.47, 0.13973962, 0.25465474, 279742.3, 623136.56, 0.0, 9.998052, 10.003365 
2.3448557e+3, 2.7496216e+2, -885787.9, -168102.47, 358491.47, 0.054102603, 0.034809373, -19713.264, 225664.13, 0.0, 9.993955, 10.003433 
2.3447876e+3, 2.8496468e+2, -1230229.4, -246021.02, 282728.34, -0.019258965, -0.039060097, -170585.03, -23232.6, 0.0, 9.990762, 10.003764 
2.3447187e+3, 2.9496953e+2, -1477736.0, -329351.56, 283458.94, -0.109821625, 0.09044137, -263195.72, -213883.23, 0.0, 9.988454, 10.003635 
2.3446509e+3, 3.049767e+2, -1569836.4, 50124.34, 256760.84, -0.08693391, 0.30573377, 89846.46, 89846.46, 0.0, 9.9857645, 10.007208 
2.3445845e+3, 3.1498042e+2, -2017000.4, 24969.873, 276344.72, 0.06734623, -0.042627778, 61707.313, 61707.313, 0.0, 9.981905, 10.008885 
2.355707e+3, 1.7505711e+2, -801566.9, -1300491.0, -464390.88, 0.3517905, 0.16239052, -523876.03, 700590.5, 0.492561, 10.007727, 9.997038 
2.3556079e+3, 1.85061e+2, -925377.8, -846517.75, -703354.75, 0.12900926, 0.53977156, -181488.67, 944944.1, 0.3813063, 10.001686, 10.003259 
2.3555027e+3, 1.9506182e+2, -106978.76, -359818.9, -626021.3, -0.08086627, 0.3711035, 405259.72, 1433678.8, 0.26862273, 10.007301, 10.002792 
2.355404e+3, 2.0505881e+2, 104274.02, -927414.25, -407310.47, -0.10588931, 0.20680417, 245694.67, 1176140.4, 0.15974683, 10.010921, 9.994935 
2.355313e+3, 2.1505186e+2, 422576.8, -774271.06, -496908.06, 0.05364356, 0.061281104, 601988.9, 1434501.6, 0.073155425, 10.011818, 9.994809 
2.3552261e+3, 2.2504729e+2, 540629.75, -544394.75, -135971.08, 0.108162574, 0.08927644, 557409.6, 1291965.6, 0.023044867, 10.010855, 9.996107 
2.3551436e+3, 2.3504496e+2, 239856.17, -647321.2, -327.15036, 0.054128505, 0.2698716, 239856.3, 876433.2, 0.004049128, 10.007928, 9.996107 
2.3550655e+3, 2.450418e+2, 52347.73, -438358.5, 330638.53, 0.008091628, 0.2728096, 218722.66, 757328.9, 0.00018626207, 10.0048685, 9.99834 
2.3549919e+3, 2.5503823e+2, -303663.28, -550948.94, 261976.89, -0.02586565, 0.10163395, -137617.58, 303022.84, 0.0000003437801, 10.001709, 9.998417 
2.3549195e+3, 2.6503778e+2, -514040.88, -245997.6, 268765.5, -0.051517237, 0.0892112, -79691.6, 262952.78, 0.0, 9.998062, 10.001594 
2.3548484e+3, 2.7504045e+2, -1008535.2, -423823.7, 204854.97, -0.06896258, 0.21573678, -359195.63, -114577.88, 0.0, 9.993953, 10.001679 
2.3547785e+3, 2.8504297e+2, -1209674.0, -209203.53, 198058.48, 0.0075573907, 0.21584278, -171421.61, -24828.31, 0.0, 9.990778, 10.004012 
2.3547097e+3, 2.9504547e+2, -1457128.1, -304534.22, 207718.25, 0.16040021, 0.08761993, -268242.34, -219672.14, 0.0, 9.988523, 10.003777 
2.3546374e+3, 3.050499e+2, -1625482.4, -87607.76, 140686.03, 0.015311029, 0.073502146, -74843.625, -74843.625, 0.0, 9.985851, 10.006224 
2.3545627e+3, 3.1505874e+2, -2046296.5, -49062.01, 24679.668, -0.28330123, 0.32972392, -48757.094, -48757.094, 0.0, 9.981953, 10.008357 
2.3658048e+3, 1.6513948e+2, -1067362.0, -1063261.8, -172673.78, -0.25151497, 0.4460238, -892625.94, 429041.97, 0.40507978, 10.001923, 10.002071 
2.3657082e+3, 1.7513856e+2, -911995.44, -937117.1, -217665.77, 0.03435607, 0.20697322, -706528.4, 517154.13, 0.30837822, 10.002223, 10.00179 
2.3656102e+3, 1.8513976e+2, -575427.5, -652081.2, -321787.06, 0.11999405, 0.14502403, -289692.8, 835975.5, 0.22862728, 10.003733, 10.002429 
2.36551e+3, 1.9514257e+2, -92923.16, -366937.63, -465348.4, 0.017782664, 0.23183781, 255167.66, 1282797.5, 0.15707566, 10.006546, 10.002245 
2.365414e+3, 2.0514086e+2, -200844.19, -1137371.3, -326672.4, -0.0071982434, 0.2413279, -98156.24, 831487.6, 0.09234035, 10.008086, 9.994736 
2.3653226e+3, 2.1513434e+2, -48429.094, -1036254.2, -255936.34, 0.047584847, 0.15756296, 13943.376, 845655.94, 0.041983765, 10.008208, 9.994659 
2.3652346e+3, 2.2513047e+2, 157838.77, -599798.06, 36298.516, 0.08255301, 0.20788296, 159573.86, 893323.94, 0.012961075, 10.007523, 9.997306 
2.3651506e+3, 2.351292e+2, 32482.314, -612282.7, 24756.113, 0.10499122, 0.3827015, 33431.44, 669187.94, 0.002085108, 10.005914, 9.997311 
2.3650701e+3, 2.4512585e+2, -147337.86, -628542.6, 309601.16, 0.061498124, 0.34536847, 4159.7314, 541945.2, 0.00005613068, 10.003913, 9.997486 
2.364993e+3, 2.551205e+2, -398104.5, -692113.5, 325643.7, -0.050079796, 0.086087756, -187821.81, 252013.48, 0.0, 10.001487, 9.997547 
2.364917e+3, 2.6511884e+2, -509574.0, -372255.78, 366980.03, -0.098601975, 0.060988855, -67567.305, 274284.0, 0.0, 9.998662, 10.00043 
2.3648427e+3, 2.7512097e+2, -873522.56, -488416.34, 344280.28, -0.071611375, 0.25921738, -286500.7, -42668.32, 0.0, 9.995453, 10.000507 
2.36477e+3, 2.85123e+2, -970001.2, -138402.16, 377001.84, 0.01554209, 0.29254144, 7064.4316, 152878.45, 0.0, 9.992628, 10.003601 
2.3646985e+3, 2.9512486e+2, -1262782.5, -246965.88, 328575.1, 0.13900429, 0.14268912, -149950.69, -102154.21, 0.0, 9.9900255, 10.003439 
2.3646238e+3, 3.0512813e+2, -1562454.5, -152843.4, 217730.39, 0.0447007, 0.07663125, -119978.71, -119978.71, 0.0, 9.98671, 10.005355 
2.3645449e+3, 3.1513643e+2, -1857162.3, -31467.984, 50193.094, -0.29620698, 0.37470967, -30089.088, -30089.088, 0.0, 9.983571, 10.007693 
2.3759162e+3, 1.5522902e+2, -1174179.8, -694353.6, -43853.555, 0.59091514, 0.67545915, -690378.6, 728418.56, 0.38885477, 9.998462, 10.0089 
2.3758084e+3, 1.652288e+2, -1036988.1, -1117343.5, -208629.95, -0.051713623, 0.22387812, -864702.4, 456086.5, 0.2763204, 10.002273, 10.00086 
2.3757085e+3, 1.7523037e+2, -895955.6, -1006071.1, -248708.95, -0.11579156, 0.3418467, -696283.1, 526491.06, 0.19336897, 10.002447, 10.000692 
2.3756114e+3, 1.8522972e+2, -731849.0, -1090898.4, -280152.94, -0.08788223, 0.35194996, -578635.4, 546144.8, 0.13393395, 10.003866, 9.998523 
2.3755161e+3, 1.9522682e+2, -261478.39, -820816.7, -401251.06, 0.017742269, 0.25549504, -52049.133, 974758.0, 0.08765783, 10.006535, 9.9984255 
2.3754226e+3, 2.0522453e+2, -55650.258, -884389.2, -318333.94, 0.06710961, 0.3107505, 52511.176, 981341.8, 0.049575523, 10.008018, 9.996494 
2.3753306e+3, 2.1522243e+2, 78972.5, -786223.0, -249376.56, 0.061006088, 0.4891832, 145703.78, 976558.56, 0.02155362, 10.008132, 9.996415 
2.3752412e+3, 2.2521836e+2, 104741.16, -709828.6, -19894.305, 0.025769975, 0.47008273, 105226.74, 838119.7, 0.0061260806, 10.007461, 9.996573 
2.3751548e+3, 2.3521256e+2, -21627.334, -720922.9, -33187.203, -0.027695192, 0.26414907, -20055.865, 614887.2, 0.00077479426, 10.005879, 9.996586 
2.3750727e+3, 2.4520844e+2, -129012.42, -587986.6, 217991.94, -0.0367524, 0.17177589, -41979.668, 494999.13, 0.000005637148, 10.003893, 9.997778 
2.3749945e+3, 2.5520593e+2, -378250.22, -653176.3, 234239.33, -0.020397613, 0.17054601, -244117.7, 194882.7, 0.0, 10.001488, 9.997818 
2.3749162e+3, 2.652043e+2, -549203.5, -460321.4, 246238.39, -0.00994582, 0.16491212, -254545.84, 86469.45, 0.0, 9.998676, 9.999822 
2.3748389e+3, 2.7520365e+2, -911691.6, -581277.56, 229984.14, 0.024978874, 0.14292826, -463313.13, -220290.7, 0.0, 9.9955015, 9.999849 
2.3747621e+3, 2.852048e+2, -1045300.4, -309584.53, 279014.25, -0.013495083, 0.1833554, -215740.81, -70726.43, 0.0, 9.992684, 10.002401 
2.3746851e+3, 2.95208e+2, -1318281.4, -375593.84, 223820.75, -0.19474022, 0.28936538, -325151.56, -278163.4, 0.0, 9.990075, 10.002536 
2.3746094e+3, 3.052116e+2, -1604986.5, -248874.98, 79993.375, -0.04449777, 0.32054752, -244172.7, -244172.7, 0.0, 9.9867325, 10.004689 
2.3745325e+3, 3.152149e+2, -1804096.3, 40359.76, -17764.77, 0.106394105, 0.21186823, 40530.848, 40530.848, 0.0, 9.983712, 10.00813 
2.3860122e+3, 1.4532234e+2, -1435631.8, -1599009.9, -185921.28, 0.007003915, 0.17263375, -1314244.9, 201633.06, 0.42758954, 10.001825, 9.9988785 
2.3859128e+3, 1.5532106e+2, -950544.8, -1297262.0, -187038.28, 0.10006126, 0.17692052, -868880.8, 549007.3, 0.29940274, 10.005225, 9.998687 
2.3858133e+3, 1.6532037e+2, -639712.94, -1043799.7, -246770.11, 0.05529883, 0.25319695, -522825.25, 797067.8, 0.19503194, 10.0060835, 9.999449 
2.385712e+3, 1.7532086e+2, -597513.25, -992389.44, -305693.66, -0.1153758, 0.40070373, -431041.44, 790845.44, 0.12312186, 10.005241, 9.9993 
2.385615e+3, 1.8531865e+2, -642058.8, -1213931.0, -198591.33, -0.13281618, 0.40397435, -579859.9, 544047.8, 0.077533364, 10.005065, 9.996989 
2.3855215e+3, 1.9531377e+2, -451454.1, -1082589.6, -179751.1, -0.010125592, 0.26054406, -403850.47, 622104.8, 0.04696965, 10.00564, 9.99693 
2.385429e+3, 2.0531075e+2, -318822.13, -977346.75, -106172.25, 0.058295526, 0.30509216, -302127.47, 625858.94, 0.02463397, 10.005825, 9.99687 
2.3853369e+3, 2.1530926e+2, -245779.42, -902444.44, -128474.91, 0.07140626, 0.51001894, -221538.48, 608465.3, 0.00965095, 10.005612, 9.996814 
2.385247e+3, 2.2530514e+2, -270357.97, -924876.4, 33443.605, 0.025404422, 0.48421022, -268653.53, 463389.44, 0.0022650862, 10.005001, 9.996277 
2.3851591e+3, 2.3529862e+2, -324546.44, -898831.94, 47661.14, -0.06177158, 0.23605557, -320617.8, 313484.3, 0.0001639823, 10.00394, 9.996294 
2.3850752e+3, 2.4529456e+2, -316430.94, -678177.75, 279087.66, -0.06943307, 0.16882429, -164730.86, 371407.7, 0.000000061496635, 10.002616, 9.997769 
2.3849954e+3, 2.5529295e+2, -452000.9, -689602.94, 266365.38, -0.013795332, 0.26008347, -279144.25, 159008.5, 0.0, 10.000998, 9.997798 
2.3849154e+3, 2.652911e+2, -511234.1, -471376.66, 257068.4, 0.01667783, 0.24972545, -233465.66, 106703.87, 0.0, 9.999073, 9.999551 
2.384835e+3, 2.7528918e+2, -744813.44, -531533.5, 261208.73, 0.05305147, 0.13310838, -356035.06, -113847.58, 0.0, 9.996789, 9.999566 
2.3847552e+3, 2.852901e+2, -925728.7, -302391.6, 341092.72, 0.00094519503, 0.19219622, -152019.53, -7838.5415, 0.0, 9.993734, 10.001939 
2.3846745e+3, 2.95294e+2, -1346573.5, -436984.0, 336321.56, -0.20782971, 0.41688445, -326137.1, -279988.47, 0.0, 9.9901, 10.002097 
2.3845957e+3, 3.0529612e+2, -1450301.1, -196915.42, 237635.23, -0.09960692, 0.33535647, -153373.66, -153373.66, 0.0, 9.987905, 10.004473 
2.3845169e+3, 3.1529886e+2, -1409081.1, 322449.06, 123963.234, 0.105636604, 0.20640425, 331278.78, 331278.78, 0.0, 9.986046, 10.00893 
2.3961122e+3, 1.3541645e+2, -1966877.0, -1245673.6, 59030.234, -0.013350041, 0.55089104, -1240873.9, 372086.1, 0.49028847, 9.993773, 10.007984 
2.3960139e+3, 1.4541675e+2, -1398438.0, -1603994.4, -110206.79, 0.021160204, 0.32932037, -1350521.5, 164429.42, 0.36320338, 10.00206, 9.998529 
2.3959178e+3, 1.5541613e+2, -957166.25, -1353059.0, -118482.16, 0.10010686, 0.45119113, -924416.3, 492543.16, 0.24011165, 10.005046, 9.99818 
2.3958191e+3, 1.6541375e+2, -721615.06, -1250981.5, -292748.94, 0.0894413, 0.4675125, -591634.94, 727348.5, 0.14320676, 10.00588, 9.997805 
2.3957178e+3, 1.7541046e+2, -667969.06, -1204694.9, -347496.6, -0.005136952, 0.39974248, -497273.3, 723741.44, 0.0803469, 10.005283, 9.997687 
2.3956203e+3, 1.8540692e+2, -582769.0, -1149260.1, -179003.69, -0.059673596, 0.33369613, -530946.9, 592098.9, 0.044712503, 10.005177, 9.99737 
2.3955262e+3, 1.9540307e+2, -409822.25, -1030093.25, -160751.55, -0.07539507, 0.25301617, -370636.84, 654440.8, 0.02423752, 10.005668, 9.997272 
2.3954333e+3, 2.0539913e+2, -367113.22, -1099032.0, -114142.3, -0.02680401, 0.23247567, -349725.84, 577389.7, 0.011225778, 10.005829, 9.996037 
2.3953423e+3, 2.1539502e+2, -299911.56, -1020184.56, -133135.16, 0.07173878, 0.25575513, -276090.7, 553068.25, 0.0036106636, 10.005595, 9.996017 
2.395252e+3, 2.2539106e+2, -264107.84, -914486.44, -2900.225, 0.07105721, 0.28285584, -264094.9, 467103.47, 0.0005705874, 10.004995, 9.996356 
2.395163e+3, 2.3538727e+2, -319914.84, -891341.6, 10620.235, -0.014683063, 0.30042186, -319717.53, 313517.1, 0.00001067274, 10.003939, 9.996351 
2.395078e+3, 2.4538401e+2, -339555.7, -729171.2, 217410.86, -0.051107004, 0.32672077, -242443.02, 292823.56, 0.0, 10.002618, 9.997423 
2.3949958e+3, 2.5538138e+2, -473040.8, -739523.56, 204993.72, -0.045886826, 0.3516481, -361791.5, 75502.016, 0.0, 10.001014, 9.997452 
2.3949136e+3, 2.653792e+2, -504625.63, -465224.4, 169618.8, -0.028898532, 0.321774, -314165.97, 25148.09, 0.0, 9.999097, 9.999586 
2.394831e+3, 2.753777e+2, -729710.0, -513628.2, 173205.0, 0.002818219, 0.24629681, -417529.9, -176203.69, 0.0, 9.996838, 9.99967 
2.3947492e+3, 2.8537902e+2, -899323.6, -256266.36, 202719.38, 0.058296636, 0.3224987, -197695.25, -54382.664, 0.0, 9.993762, 10.002245 
2.3946674e+3, 2.9538262e+2, -1341587.9, -432330.22, 213511.13, 0.10605086, 0.48919785, -384689.8, -339411.16, 0.0, 9.990115, 10.002125 
2.3945832e+3, 3.0538177e+2, -1439185.5, -189785.47, 194260.7, -0.11099719, 0.118782215, -160278.08, -160278.08, 0.0, 9.987962, 10.004499 
2.3945002e+3, 3.153866e+2, -1569784.5, -60261.117, -56772.453, -0.13710067, 0.17422877, -58128.94, -58128.94, 0.0, 9.98623, 10.006226 
2.4061164e+3, 1.3551165e+2, -1243059.8, -1703120.5, -120582.5, 0.39443812, 0.3216256, -1213370.9, 398649.5, 0.44496095, 10.006334, 9.996482 
2.4060163e+3, 1.4551008e+2, -1209607.1, -1450929.8, -91577.305, 0.028788112, 0.4382003, -1178790.5, 335248.2, 0.3191544, 10.003612, 9.998927 
2.4059214e+3, 1.5550871e+2, -1122212.3, -1416242.6, -84213.94, 0.100257725, 0.45575958, -1099800.5, 316250.56, 0.20016609, 10.003282, 9.998488 
2.4058238e+3, 1.6550577e+2, -984262.25, -1492122.6, -224156.4, 0.09647244, 0.4477258, -899479.2, 418600.97, 0.10953611, 10.0041275, 9.996894 
2.4057232e+3, 1.755019e+2, -614874.44, -1276047.1, -226644.73, 0.019378766, 0.41287896, -544642.7, 675476.44, 0.05404146, 10.005974, 9.996796 
2.405626e+3, 1.854977e+2, -427468.25, -1122311.8, -79699.34, -0.036223993, 0.35064098, -418443.84, 703713.75, 0.025819352, 10.006403, 9.996946 
2.4055316e+3, 1.9549333e+2, -417210.53, -1080301.8, -113548.15, -0.07156699, 0.25971112, -398305.47, 625889.4, 0.012049256, 10.005761, 9.996872 
2.4054384e+3, 2.0548896e+2, -437732.16, -1138793.8, -61815.26, -0.037537064, 0.22339301, -432323.4, 493912.5, 0.0046146032, 10.005337, 9.9959955 
2.405347e+3, 2.1548451e+2, -375960.16, -1062770.3, -31603.38, 0.058009863, 0.21713457, -374509.0, 453772.25, 0.0010432606, 10.005089, 9.995965 
2.4052563e+3, 2.2548062e+2, -330281.56, -942346.2, 98148.33, 0.07417652, 0.25396302, -314928.03, 415392.4, 0.000069836184, 10.004534, 9.99638 
2.4051669e+3, 2.3547731e+2, -356715.16, -905156.9, 105251.31, 0.024850596, 0.32357997, -337210.1, 295143.25, 0.000000001041257, 10.00368, 9.996375 
2.40508e+3, 2.4547426e+2, -425417.13, -753961.25, 291486.78, -0.016340444, 0.36494097, -255100.1, 279284.06, 0.0, 10.001966, 9.997562 
2.4049956e+3, 2.5547147e+2, -689257.56, -828774.94, 312834.84, -0.04980865, 0.36633462, -438498.06, -2085.3384, 0.0, 9.999474, 9.997578 
2.4049114e+3, 2.6546934e+2, -697767.44, -549680.7, 308832.53, -0.051266387, 0.3357583, -306139.5, 32293.037, 0.0, 9.997747, 9.999651 
2.4048272e+3, 2.7546814e+2, -758326.94, -521259.66, 305614.16, -0.01562111, 0.28768432, -311997.25, -71556.016, 0.0, 9.996629, 9.999713 
2.4047431e+3, 2.854691e+2, -800684.75, -278975.94, 239773.55, 0.058550034, 0.361677, -185519.22, -43087.984, 0.0, 9.994753, 10.001608 
2.4046586e+3, 2.9547152e+2, -1091607.5, -380422.22, 179754.72, 0.14365248, 0.47930947, -337570.53, -293161.4, 0.0, 9.992133, 10.001505 
2.4045728e+3, 3.054699e+2, -1191691.6, -57007.45, 199385.56, -0.008762366, 0.055811178, -22991.371, -22991.371, 0.0, 9.989605, 10.004617 
2.4044888e+3, 3.154764e+2, -1506599.1, -250676.8, -34071.137, 0.054786284, 0.26657417, -249753.19, -249753.19, 0.0, 9.987621, 10.004244 
2.4161191e+3, 1.3560311e+2, -1335888.0, -2015702.9, -290480.7, 0.05932982, 0.22939952, -1228675.6, 382447.4, 0.41393486, 10.006203, 9.994507 
2.4160196e+3, 1.456028e+2, -1124064.0, -1346532.3, -99417.484, 0.018803922, 0.5210949, -1086110.8, 427023.84, 0.2885812, 10.003896, 9.99977 
2.415924e+3, 1.5559956e+2, -1029653.4, -1289744.8, -93183.41, 0.09132665, 0.26169693, -999714.6, 415442.03, 0.1726262, 10.0035305, 9.999382 
2.4158272e+3, 1.6559689e+2, -977407.3, -1529286.9, -166479.3, 0.07110335, 0.25578222, -931076.8, 386103.72, 0.08708851, 10.004264, 9.99655 
2.4157283e+3, 1.7559484e+2, -635975.9, -1334726.3, -168381.34, -0.032625236, 0.43737617, -597516.94, 621687.5, 0.03756544, 10.005932, 9.996401 
2.4156319e+3, 1.8559049e+2, -507120.7, -1284949.6, -102892.78, -0.056123104, 0.4353735, -493740.0, 627508.3, 0.014973565, 10.006307, 9.995878 
2.4155374e+3, 1.9558442e+2, -491268.47, -1230327.9, -131767.92, -0.01782602, 0.2801625, -468478.16, 554828.9, 0.005756831, 10.005703, 9.9958725 
2.4154438e+3, 2.0558019e+2, -398550.2, -1052337.3, -65791.33, 0.0048387945, 0.27298096, -391995.25, 533352.25, 0.0016557109, 10.005296, 9.9966135 
2.4153513e+3, 2.155774e+2, -344487.5, -985193.75, -36246.57, 0.016205367, 0.372267, -342443.44, 484930.38, 0.00019679709, 10.005026, 9.996532 
2.4152602e+3, 2.2557344e+2, -339525.25, -954698.5, 68452.305, 0.030896446, 0.37868547, -332000.38, 397411.97, 0.0000011910677, 10.004496, 9.996319 
2.4151704e+3, 2.3556863e+2, -360528.66, -911241.2, 73172.164, 0.049309853, 0.3053996, -350972.22, 280487.38, 0.0, 10.003663, 9.996346 
2.415082e+3, 2.4556533e+2, -384769.5, -669204.94, 196263.94, 0.028419051, 0.28920543, -284612.7, 248878.89, 0.0, 10.001955, 9.998155 
2.4149948e+3, 2.5556326e+2, -648132.9, -745866.44, 221616.36, -0.03713275, 0.3060355, -470059.63, -34549.09, 0.0, 9.9994755, 9.998151 
2.4149087e+3, 2.6556155e+2, -691946.2, -544744.6, 266442.03, -0.060661923, 0.2892684, -341924.7, -4399.7837, 0.0, 9.9977665, 9.999681 
2.4148235e+3, 2.755605e+2, -761435.56, -538352.8, 263699.28, -0.022773754, 0.24975595, -363574.78, -124042.2, 0.0, 9.996664, 9.999584 
2.4147367e+3, 2.8556025e+2, -914049.06, -524258.6, 141808.97, -0.016741952, 0.30132443, -478127.0, -336589.3, 0.0, 9.994787, 9.999911 
2.414648e+3, 2.9556057e+2, -1170672.0, -567377.7, 81705.97, -0.11843399, 0.3819463, -556507.8, -512966.2, 0.0, 9.99222, 10.000185 
2.4145642e+3, 3.0556077e+2, -1160463.1, -14806.139, 109097.22, 0.1986579, 0.17040028, -4509.7, -4509.7, 0.0, 9.989692, 10.0048685 
2.4144763e+3, 3.155687e+2, -1436580.9, -114755.734, 23034.9, 0.089250214, 0.53063065, -114354.44, -114354.44, 0.0, 9.987677, 10.005141 
2.4261238e+3, 1.3569766e+2, -1334892.3, -1908800.6, -173783.69, 0.00961981, 0.2533637, -1286371.4, 323824.94, 0.39246324, 10.005442, 9.995484 
2.426025e+3, 1.4569691e+2, -828971.56, -1282337.9, -14490.658, 0.042030312, 0.51210654, -828508.9, 683702.75, 0.26683483, 10.0070095, 9.9988165 
2.4259283e+3, 1.5569304e+2, -750474.75, -1234197.5, -85735.25, 0.063914225, 0.28418, -735728.56, 678512.75, 0.15302327, 10.006124, 9.998553 
2.4258313e+3, 1.656897e+2, -793479.7, -1409524.4, -140582.52, 0.048025787, 0.23841585, -762914.94, 553355.4, 0.071624644, 10.005467, 9.996782 
2.4257334e+3, 1.7568697e+2, -733990.75, -1363734.6, -114949.66, -0.007833786, 0.32992536, -713664.56, 504633.03, 0.026989903, 10.005109, 9.996588 
2.4256372e+3, 1.856829e+2, -735338.1, -1427452.4, -35536.867, -0.025393866, 0.3638616, -733518.25, 386821.66, 0.008732521, 10.004834, 9.995604 
2.425542e+3, 1.956778e+2, -660316.6, -1340467.1, -17743.273, -0.007541881, 0.33650428, -659854.06, 362539.56, 0.0026288403, 10.00465, 9.995619 
2.425448e+3, 2.056738e+2, -554614.7, -1089862.1, 56692.176, -0.0011478153, 0.3503035, -548675.9, 375756.66, 0.00048657545, 10.004063, 9.996945 
2.4253547e+3, 2.1567076e+2, -592229.2, -1069659.5, 65090.082, -0.005978616, 0.395294, -583514.3, 242944.5, 0.000016404598, 10.003182, 9.996837 
2.425263e+3, 2.2566666e+2, -598743.44, -1079361.1, 168795.66, 0.002189902, 0.37754944, -545385.3, 183112.69, 0.0, 10.002716, 9.99632 
2.4251729e+3, 2.3566177e+2, -525203.7, -990329.56, 173018.83, 0.02920846, 0.29774013, -467902.8, 162644.0, 0.0, 10.002534, 9.996346 
2.4250835e+3, 2.456584e+2, -487275.9, -727133.44, 209520.97, 0.029756576, 0.28411147, -365788.16, 166791.64, 0.0, 10.001298, 9.998069 
2.4249941e+3, 2.5565636e+2, -690448.0, -772671.44, 184522.42, -0.0026785105, 0.31381008, -542512.94, -107913.93, 0.0, 9.99922, 9.998086 
2.4249065e+3, 2.6565468e+2, -702038.9, -541113.5, 248576.78, -0.018741915, 0.29717657, -360301.13, -23687.77, 0.0, 9.997668, 9.999748 
2.42482e+3, 2.7565345e+2, -790697.2, -549596.06, 243677.95, 0.014504924, 0.23962317, -398280.16, -159657.89, 0.0, 9.996455, 9.999604 
2.4247313e+3, 2.85653e+2, -885197.0, -530952.3, 160946.28, -0.025341218, 0.27682588, -468750.53, -328120.47, 0.0, 9.995079, 9.999721 
2.4246395e+3, 2.9565328e+2, -984296.5, -493522.6, 210869.72, -0.21605505, 0.37694588, -415365.44, -372730.47, 0.0, 9.993581, 10.000029 
2.424555e+3, 3.0565456e+2, -922780.2, 30032.678, 224538.42, 0.25150856, 0.3143834, 80295.58, 80295.58, 0.0, 9.991626, 10.004243 
2.4244621e+3, 3.1565866e+2, -1216614.8, 16116.806, 102790.58, -0.13035828, 0.36376846, 24629.156, 24629.156, 0.0, 9.989089, 10.005354 
2.436227e+3, 1.2579413e+2, -1723983.3, -1856730.9, -120852.25, 0.09694194, 0.12500852, -1652477.6, 54763.758, 0.49415544, 10.000824, 9.998727 
2.4361299e+3, 1.357943e+2, -1206892.3, -1549264.3, -39188.906, 0.12677217, 0.3299938, -1202463.8, 406784.9, 0.37716618, 10.005395, 9.998115 
2.4360317e+3, 1.457921e+2, -958410.75, -1542332.1, -49429.188, 0.071383215, 0.43927786, -954256.06, 557018.3, 0.25075638, 10.006752, 9.996595 
2.4359336e+3, 1.5578854e+2, -881416.8, -1512152.3, -117223.305, 0.015006668, 0.46530107, -860335.3, 552974.25, 0.13848422, 10.005969, 9.996519 
2.4358359e+3, 1.6578385e+2, -756289.6, -1323926.1, -149948.25, 0.021907106, 0.34471983, -719113.7, 596237.56, 0.06055668, 10.005385, 9.997414 
2.4357387e+3, 1.7577855e+2, -694183.1, -1279925.0, -126501.47, 0.065679625, 0.11659931, -668030.5, 549365.4, 0.020008162, 10.0050745, 9.997183 
2.435642e+3, 1.8577515e+2, -711771.94, -1380974.0, -44174.438, 0.036054097, 0.17357738, -708868.5, 410562.22, 0.005126818, 10.004829, 9.995927 
2.4355459e+3, 1.9577317e+2, -639810.6, -1298463.9, -26791.01, -0.04278988, 0.42522392, -638722.7, 382735.5, 0.0011382384, 10.004643, 9.995913 
2.4354511e+3, 2.057694e+2, -546331.9, -1079693.4, 20763.172, -0.052425068, 0.44707298, -545524.8, 377970.28, 0.000105525156, 10.004084, 9.997009 
2.4353571e+3, 2.157645e+2, -586055.1, -1064431.8, 34533.934, -0.017795764, 0.2973595, -583574.94, 241962.56, 0.00000018406139, 10.003208, 9.996864 
2.4352652e+3, 2.2576028e+2, -592614.5, -1072723.5, 160332.94, -0.02060204, 0.26612696, -543994.75, 183582.84, 0.0, 10.002735, 9.996359 
2.4351743e+3, 2.3575665e+2, -527837.06, -994852.25, 160947.83, -0.04714108, 0.30812526, -477742.8, 151872.77, 0.0, 10.002523, 9.996324 
2.4350837e+3, 2.4575342e+2, -542851.1, -842438.4, 128594.81, -0.016874172, 0.3506825, -495224.47, 36425.258, 0.0, 10.0012865, 9.997288 
2.4349934e+3, 2.5575072e+2, -739777.8, -878144.6, 109609.66, 0.04418738, 0.39191866, -679344.0, -245665.05, 0.0, 9.999225, 9.997364 
2.4349046e+3, 2.6574862e+2, -692073.56, -526862.9, 200589.45, 0.07147796, 0.36160654, -392535.6, -56836.758, 0.0, 9.997686, 9.999843 
2.434817e+3, 2.75747e+2, -771918.5, -519202.78, 195571.83, 0.094358206, 0.2571004, -412720.25, -175008.83, 0.0, 9.996483, 9.999804 
2.4347265e+3, 2.8574738e+2, -780902.0, -324992.1, 103714.2, 0.02770285, 0.29397282, -302507.25, -162799.5, 0.0, 9.995112, 10.001124 
2.4346331e+3, 2.9574993e+2, -899257.1, -335295.88, 159236.81, -0.16918077, 0.48074377, -293441.0, -251755.92, 0.0, 9.993649, 10.001087 
2.4345452e+3, 3.0575147e+2, -1023145.94, -194302.19, 137472.42, 0.15936358, 0.48923102, -172095.9, -172095.9, 0.0, 9.991687, 10.002677 
2.4344522e+3, 3.157497e+2, -1281795.1, -159025.52, -6055.3857, -0.02048725, 0.086706355, -158992.86, -158992.86, 0.0, 9.989235, 10.004094 
2.446231e+3, 1.2589128e+2, -1266740.4, -1558211.0, 9815.891, 0.14899972, 0.3628295, -1266410.3, 439886.6, 0.48480254, 10.006435, 9.998923 
2.4461342e+3, 1.3588943e+2, -1185340.5, -1520095.1, -32755.709, 0.06961568, 0.33664173, -1182165.5, 426150.06, 0.36540157, 10.005401, 9.998411 
2.4460363e+3, 1.4588669e+2, -1176716.4, -1726180.6, -98969.34, 0.024372227, 0.393711, -1159433.6, 350911.1, 0.23809302, 10.004898, 9.996231 
2.4459384e+3, 1.5588346e+2, -1054668.6, -1652085.8, -79597.92, 0.027393581, 0.4936858, -1044245.1, 368134.84, 0.12712838, 10.004742, 9.996132 
2.4458408e+3, 1.6587871e+2, -859515.25, -1387497.1, -74488.86, 0.049915556, 0.39140427, -849207.44, 465215.88, 0.052291006, 10.004647, 9.997318 
2.4457434e+3, 1.7587304e+2, -758776.9, -1320804.6, -93281.52, 0.0828936, 0.13809446, -743699.2, 472771.38, 0.015256665, 10.004646, 9.997104 
2.4456465e+3, 1.8586954e+2, -733253.5, -1367377.6, -31372.783, 0.0458507, 0.17727335, -731705.1, 386800.97, 0.0030366825, 10.004577, 9.99614 
2.4455501e+3, 1.9586769e+2, -649554.8, -1281560.0, -25256.646, -0.03824865, 0.4222315, -648547.1, 371984.94, 0.0004633784, 10.004493, 9.996097 
2.445455e+3, 2.058639e+2, -533379.5, -1093954.6, -5163.871, -0.023249125, 0.44157958, -533331.94, 389237.66, 0.000014369926, 10.0042715, 9.996816 
2.4453613e+3, 2.1585871e+2, -491740.5, -1037878.6, -12126.261, 0.06188079, 0.28588432, -491471.38, 333143.47, 0.0, 10.0039425, 9.996689 
2.445268e+3, 2.258547e+2, -526810.1, -1012067.3, 108942.15, 0.031791124, 0.26714963, -503474.4, 223179.23, 0.0, 10.003071, 9.996609 
2.4451758e+3, 2.3585159e+2, -616528.44, -1009035.1, 118938.24, -0.07287192, 0.33811715, -583300.5, 45386.33, 0.0, 10.001801, 9.99657 
2.445084e+3, 2.4584867e+2, -644956.3, -859941.2, 104993.59, -0.041666683, 0.38387787, -602188.06, -71470.13, 0.0, 10.000455, 9.997566 
2.4449927e+3, 2.5584605e+2, -754586.06, -857496.9, 163217.72, 0.07986448, 0.40962085, -634905.06, -202159.33, 0.0, 9.999007, 9.997609 
2.444902e+3, 2.6584405e+2, -717668.75, -546169.9, 294207.88, 0.093379654, 0.38698676, -325469.9, 9294.615, 0.0, 9.997546, 9.999775 
2.4448125e+3, 2.7584255e+2, -833033.6, -549751.2, 273350.16, 0.053568646, 0.304212, -383524.66, -146748.03, 0.0, 9.996077, 9.999786 
2.4447207e+3, 2.8584287e+2, -765404.8, -264341.1, 140801.03, 0.0021595878, 0.30986512, -227486.19, -88713.92, 0.0, 9.994997, 10.001594 
2.444627e+3, 2.958452e+2, -812643.4, -260377.7, 119295.46, -0.12065412, 0.42938042, -235710.36, -194961.72, 0.0, 9.994097, 10.001386 
2.4445371e+3, 3.0584705e+2, -920496.25, -245159.14, 76330.875, 0.17151497, 0.50721675, -236639.23, -236639.23, 0.0, 9.99283, 10.001771 
2.4444434e+3, 3.158453e+2, -1007015.9, -94306.41, 2793.745, 0.12718278, 0.19171926, -94297.86, -94297.86, 0.0, 9.9914255, 10.003473 
2.4562356e+3, 1.2598608e+2, -1332117.8, -1671931.3, -15883.996, 0.0016608414, 0.23538049, -1331376.9, 373990.75, 0.47633553, 10.006149, 9.997534 
2.4561374e+3, 1.3598387e+2, -1228014.9, -1637364.0, -55560.25, -0.11638717, 0.30816996, -1220607.8, 386781.22, 0.35497856, 10.005418, 9.997277 
2.4560398e+3, 1.459811e+2, -1114594.1, -1601891.3, -101812.53, -0.0842214, 0.3680713, -1094177.6, 415240.4, 0.22715375, 10.005003, 9.997048 
2.4559431e+3, 1.5597811e+2, -1001761.8, -1549661.6, -88431.234, 0.07521113, 0.40911648, -987842.56, 423608.1, 0.11767902, 10.004789, 9.996818 
2.4558455e+3, 1.6597423e+2, -893624.9, -1477948.8, -80000.23, 0.107662454, 0.39876142, -882869.94, 430617.75, 0.04582177, 10.004685, 9.996681 
2.4557473e+3, 1.759699e+2, -794438.94, -1407100.1, -93090.305, 0.04782901, 0.34153435, -780606.7, 434919.47, 0.011913225, 10.004678, 9.996498 
2.4556504e+3, 1.8596561e+2, -721513.9, -1350010.3, -34569.832, 0.010943308, 0.3264049, -719618.1, 397950.94, 0.0018199167, 10.004596, 9.996254 
2.4555545e+3, 1.9596156e+2, -649293.56, -1276574.9, -28108.736, -0.011327906, 0.339943, -648036.56, 371576.6, 0.00017680592, 10.004466, 9.996148 
2.45546e+3, 2.059575e+2, -568616.5, -1160503.9, -17220.195, 0.066816755, 0.35529593, -568115.94, 353537.25, 0.00000076879473, 10.004237, 9.996378 
2.4553663e+3, 2.1595347e+2, -524146.1, -1095829.8, -22018.47, 0.21002437, 0.3581064, -523299.28, 300390.63, 0.0, 10.003899, 9.996315 
2.455272e+3, 2.259498e+2, -502376.1, -956810.8, 63184.94, 0.1454207, 0.36957717, -493754.4, 231971.98, 0.0, 10.003043, 9.997006 
2.4551773e+3, 2.3594652e+2, -585869.5, -941391.94, 72194.97, -0.060523365, 0.3828801, -571768.4, 55992.68, 0.0, 10.001777, 9.997049 
2.455084e+3, 2.4594407e+2, -554982.5, -673850.1, 48279.676, -0.051883947, 0.38409534, -537844.06, -8059.412, 0.0, 10.000448, 9.998851 
2.4549912e+3, 2.559423e+2, -672804.0, -690638.25, 109663.17, 0.091210835, 0.3703034, -571696.0, -139896.78, 0.0, 9.999012, 9.998756 
2.4548987e+3, 2.6594102e+2, -734064.4, -584263.44, 236451.88, 0.032868184, 0.37548697, -411132.53, -77322.12, 0.0, 9.997556, 9.999513 
2.4548061e+3, 2.7594018e+2, -851348.1, -590842.3, 220424.13, -0.1337925, 0.38531756, -465062.78, -229245.4, 0.0, 9.996082, 9.999505 
2.4547143e+3, 2.8593937e+2, -801889.0, -344734.25, 106697.54, -0.109529816, 0.32249504, -321057.84, -183233.73, 0.0, 9.995006, 10.001043 
2.4546213e+3, 2.959388e+2, -842346.0, -331781.53, 81616.47, -0.054939527, 0.20722036, -319052.06, -279223.84, 0.0, 9.994129, 10.000885 
2.4545304e+3, 3.0594066e+2, -931988.8, -289295.66, 20029.762, 0.25651148, 0.3237321, -288672.03, -288672.03, 0.0, 9.992907, 10.001436 
2.4544346e+3, 3.1594244e+2, -1014921.75, -136574.08, -14043.386, 0.13992062, 0.40112466, -136349.61, -136349.61, 0.0, 9.991543, 10.003122 
2.4662407e+3, 1.260829e+2, -1417931.3, -1797662.8, -7999.605, 0.013610939, 0.32560787, -1417762.9, 286657.9, 0.46653104, 10.00525, 9.996898 
2.466143e+3, 1.3607894e+2, -1162095.3, -1650931.0, -25536.094, -0.08869753, 0.28646883, -1160764.9, 445692.88, 0.34417346, 10.006299, 9.996733 
2.4660452e+3, 1.4607558e+2, -964808.9, -1498860.0, -88342.016, -0.0713572, 0.3063535, -950574.8, 557916.94, 0.21669917, 10.006203, 9.99717 
2.4659476e+3, 1.5607275e+2, -914923.75, -1490198.4, -112078.336, 0.057501964, 0.35259554, -893859.3, 516663.22, 0.10926821, 10.005366, 9.996952 
2.4658501e+3, 1.6606945e+2, -830153.44, -1433205.5, -74979.25, 0.11583505, 0.38597897, -820970.8, 491583.8, 0.040505268, 10.005074, 9.996796 
2.4657525e+3, 1.7606594e+2, -725101.56, -1365487.1, -48141.22, 0.11503322, 0.40170544, -721502.75, 493083.72, 0.009474525, 10.005127, 9.996561 
2.4656548e+3, 1.8606156e+2, -722832.75, -1372453.9, 2451.3105, 0.046813745, 0.38857323, -722823.5, 393807.28, 0.0011061408, 10.004686, 9.996051 
2.4655576e+3, 1.9605678e+2, -735786.2, -1335208.1, -13829.455, -0.057504494, 0.3499159, -735467.3, 283214.53, 0.00006228563, 10.003947, 9.995994 
2.4654627e+3, 2.0605268e+2, -663196.44, -1162228.6, 24643.385, 0.011624228, 0.34827837, -661982.44, 258739.22, 0.0000000031066179, 10.003407, 9.996763 
2.4653691e+3, 2.1604915e+2, -630031.75, -1105776.4, 67356.016, 0.19326092, 0.36439592, -620679.3, 202073.66, 0.0, 10.003003, 9.996675 
2.4652742e+3, 2.2604574e+2, -649807.9, -993190.75, 136327.14, 0.161253, 0.37452728, -602266.44, 122520.02, 0.0, 10.001892, 9.997306 
2.4651785e+3, 2.3604257e+2, -780778.2, -1002431.6, 139767.86, -0.010371259, 0.3730526, -713229.94, -86410.1, 0.0, 10.000302, 9.997338 
2.4650837e+3, 2.4604031e+2, -675813.3, -712958.75, 87558.7, -0.024270888, 0.37358192, -604879.2, -76037.91, 0.0, 9.999543, 9.999015 
2.4649897e+3, 2.5603878e+2, -616920.1, -644890.06, 61518.563, 0.058595993, 0.3638094, -567816.94, -136963.6, 0.0, 9.99932, 9.998918 
2.4648957e+3, 2.6603737e+2, -638731.6, -540998.3, 140441.48, 0.009556535, 0.3545487, -441164.75, -108299.83, 0.0, 9.998225, 9.999485 
2.4648026e+3, 2.760364e+2, -790571.75, -565238.8, 142913.44, -0.09133926, 0.35115066, -495921.8, -261048.44, 0.0, 9.996515, 9.999473 
2.4647097e+3, 2.860356e+2, -763508.8, -332498.22, 83850.81, -0.04749055, 0.29336214, -316760.16, -179880.33, 0.0, 9.995305, 10.000978 
2.4646154e+3, 2.9603472e+2, -806131.2, -313814.84, 90056.766, -0.023492115, 0.15404086, -297858.4, -258971.63, 0.0, 9.994387, 10.000877 
2.464523e+3, 3.0603662e+2, -816584.2, -219702.7, 68148.01, 0.22133033, 0.26786664, -212020.88, -212020.88, 0.0, 9.993649, 10.001552 
2.4644256e+3, 3.1603742e+2, -811951.2, -79615.98, 72256.61, 0.05651421, 0.24398841, -72554.79, -72554.79, 0.0, 9.993113, 10.002756 
2.4762467e+3, 1.2618104e+2, -1406177.9, -1813867.9, 11699.384, 0.10518831, 0.54224664, -1405842.5, 297619.4, 0.45382634, 10.005402, 9.996712 
2.4761504e+3, 1.3617449e+2, -1173681.3, -1686837.4, -3442.9922, 0.062716655, 0.26147705, -1173658.1, 431864.4, 0.3318142, 10.006189, 9.996533 
2.4760514e+3, 1.4617026e+2, -992550.0, -1561139.0, -115452.195, 0.008680411, 0.22211374, -970001.6, 537562.75, 0.20591706, 10.006063, 9.996823 
2.4759516e+3, 1.5616761e+2, -931689.1, -1528308.9, -133108.61, -0.017262094, 0.32010582, -903339.06, 506254.0, 0.101342835, 10.005314, 9.996721 
2.4758543e+3, 1.661646e+2, -786147.94, -1342060.5, -70257.97, 0.084531255, 0.35887423, -777406.0, 534215.8, 0.035938986, 10.005062, 9.99743 
2.4757583e+3, 1.761615e+2, -691153.06, -1293104.5, -49527.133, 0.25165394, 0.35308185, -687105.3, 526543.6, 0.0076347953, 10.005108, 9.997069 
2.4756598e+3, 1.8615755e+2, -756949.3, -1443590.3, -25498.53, 0.12957497, 0.38625348, -756003.7, 359686.7, 0.00068441057, 10.004681, 9.995569 
2.47556e+3, 1.961532e+2, -759418.75, -1384085.3, -35415.85, -0.1728599, 0.4377248, -757417.25, 260322.33, 0.000019873376, 10.003942, 9.995665 
2.4754639e+3, 2.061492e+2, -592103.06, -1012863.75, 11241.495, -0.17113872, 0.40524697, -591802.94, 327974.03, 0.0, 10.003391, 9.997799 
2.4753699e+3, 2.1614562e+2, -572006.2, -973121.94, 48690.42, 0.022337072, 0.31243685, -566180.4, 255624.94, 0.0, 10.002944, 9.997616 
2.475275e+3, 2.2614245e+2, -639794.8, -968050.56, 74674.805, 0.08623756, 0.29432386, -623605.5, 100229.43, 0.0, 10.001865, 9.997496 
2.475179e+3, 2.3613973e+2, -774743.9, -992259.06, 85401.54, 0.06655664, 0.31761557, -745220.5, -119356.555, 0.0, 10.000305, 9.99741 
2.4750835e+3, 2.4613734e+2, -740379.6, -852215.6, 77132.47, 0.03048139, 0.35519898, -701028.3, -173139.64, 0.0, 9.999558, 9.998055 
2.4749878e+3, 2.5613528e+2, -671179.44, -764069.3, 47826.41, -0.028814957, 0.3903893, -650957.3, -221047.98, 0.0, 9.999342, 9.998093 
2.4748938e+3, 2.6613307e+2, -620689.0, -509442.3, 72171.26, 0.026943672, 0.32114038, -473946.78, -142017.02, 0.0, 9.998241, 9.999699 
2.4748015e+3, 2.7613106e+2, -770202.0, -529040.06, 79698.23, 0.1944395, 0.19571275, -505081.84, -271135.25, 0.0, 9.996533, 9.999716 
2.4747068e+3, 2.8613144e+2, -733633.75, -277075.44, 45439.016, 0.1913595, 0.22465147, -272597.03, -136655.97, 0.0, 9.995325, 10.001353 
2.4746092e+3, 2.9613313e+2, -763486.75, -235443.23, 53493.92, -0.05911031, 0.30211848, -230078.48, -192155.1, 0.0, 9.994426, 10.0014 
2.4745147e+3, 3.061354e+2, -754144.5, -101937.734, 43861.215, 0.06084456, 0.3785551, -99001.266, -99001.266, 0.0, 9.99369, 10.002345 
2.4744165e+3, 3.1613526e+2, -761128.3, -20378.57, 75657.33, -0.13961485, 0.19921891, -12730.193, -12730.193, 0.0, 9.993276, 10.003104 
2.4862522e+3, 1.2627685e+2, -1228994.8, -1658375.5, 20251.797, 0.08841335, 0.49089286, -1228041.8, 474481.53, 0.43742794, 10.00726, 9.997115 
2.4861565e+3, 1.3627155e+2, -1189729.3, -1669642.6, 26233.887, 0.11873132, 0.2987906, -1188299.5, 416271.5, 0.31729084, 10.005775, 9.996859 
2.4860568e+3, 1.4626741e+2, -1105434.0, -1635945.6, -62720.824, 0.045526043, 0.26061675, -1098119.6, 408491.63, 0.19436905, 10.00507, 9.9967575 
2.4859561e+3, 1.5626416e+2, -987205.8, -1565005.4, -58338.035, -0.05554777, 0.30798554, -981374.56, 427270.66, 0.093584746, 10.00489, 9.996656 
2.4858582e+3, 1.6626094e+2, -815896.94, -1363551.6, 7266.5146, 0.024214268, 0.33314097, -815800.56, 494876.03, 0.031877182, 10.004864, 9.997374 
2.4857624e+3, 1.762579e+2, -717410.6, -1309107.4, -16834.531, 0.20635864, 0.33941016, -716932.06, 495772.6, 0.0062052915, 10.004936, 9.997042 
2.485664e+3, 1.8625411e+2, -752812.25, -1406981.0, -3975.8176, 0.1262308, 0.3775162, -752788.06, 361956.2, 0.00043350272, 10.004568, 9.995871 
2.4855639e+3, 1.9625005e+2, -744744.7, -1342839.3, 31311.264, -0.1175622, 0.4295259, -743110.0, 273679.72, 0.00000583165, 10.003907, 9.995956 
2.4854667e+3, 2.0624632e+2, -659872.3, -1029092.1, 57785.51, -0.1376305, 0.40447804, -651039.75, 267784.75, 0.0, 10.002862, 9.997938 
2.4853714e+3, 2.1624297e+2, -758353.5, -1043832.5, 35466.93, -0.011824575, 0.3217947, -754013.2, 66838.01, 0.0, 10.001587, 9.997781 
2.4852756e+3, 2.2624004e+2, -727029.2, -973872.2, 47586.59, 0.054901797, 0.3016561, -718173.1, 4705.2637, 0.0, 10.001115, 9.997814 
2.4851795e+3, 2.3623754e+2, -637953.5, -896258.44, 63896.816, 0.089202665, 0.31620383, -623011.7, 1892.8424, 0.0, 10.001121, 9.997673 
2.4850832e+3, 2.4623509e+2, -628878.7, -809701.25, 101123.63, 0.055870175, 0.34492183, -583642.7, -56712.934, 0.0, 10.000378, 9.99795 
2.4849866e+3, 2.5623286e+2, -706612.75, -790172.44, 130081.91, -0.030385735, 0.37289292, -611765.9, -182812.78, 0.0, 9.999143, 9.998008 
2.4848914e+3, 2.6623073e+2, -646611.6, -511436.75, 149891.56, 0.023564195, 0.31641158, -414599.3, -83626.125, 0.0, 9.998026, 9.999784 
2.4847978e+3, 2.7622893e+2, -708001.9, -488202.0, 145091.86, 0.20551117, 0.2063267, -416086.44, -183097.77, 0.0, 9.996921, 9.999805 
2.4847023e+3, 2.8622958e+2, -643429.44, -227487.23, 110563.055, 0.21792288, 0.2549161, -199924.55, -64943.785, 0.0, 9.995923, 10.001403 
2.484604e+3, 2.9623166e+2, -674322.2, -183814.88, 89150.75, 0.0053374646, 0.36993656, -168114.11, -131155.45, 0.0, 9.994998, 10.001481 
2.4845073e+3, 3.0623296e+2, -731072.1, -71081.42, 26482.994, 0.025882328, 0.34042844, -70020.47, -70020.47, 0.0, 9.993781, 10.002506 
2.484408e+3, 3.1623334e+2, -899338.2, -53014.125, 41506.168, -0.2090111, 0.19180752, -50983.418, -50983.418, 0.0, 9.992194, 10.003395 
2.496258e+3, 1.2637162e+2, -1207435.1, -1606619.0, -14484.922, -0.010851203, 0.2902463, -1206910.3, 494683.16, 0.4173259, 10.006958, 9.997848 
2.4961616e+3, 1.3636991e+2, -1145309.0, -1584774.3, -13426.611, 0.102855034, 0.38576025, -1144899.3, 458706.28, 0.30054626, 10.005808, 9.9974785 
2.4960615e+3, 1.463664e+2, -1082210.4, -1619615.6, -76269.05, 0.044353787, 0.3804811, -1071595.9, 434043.06, 0.18195818, 10.005178, 9.996823 
2.4959601e+3, 1.5636201e+2, -974708.7, -1561241.5, -68901.1, -0.07705185, 0.30522734, -966723.44, 440959.72, 0.08586412, 10.004957, 9.996653 
2.4958618e+3, 1.6635823e+2, -852901.1, -1449164.3, 5595.574, -0.06530877, 0.30785406, -852848.6, 456872.7, 0.02817794, 10.0048685, 9.996787 
2.495765e+3, 1.76355e+2, -757066.5, -1377096.0, -17257.17, 0.015056176, 0.35360056, -756586.56, 455167.44, 0.0050630616, 10.004862, 9.9966135 
2.4956675e+3, 1.8635127e+2, -700376.1, -1283821.8, -28957.277, 0.05612397, 0.36417872, -698942.5, 414849.8, 0.00028110025, 10.004499, 9.996753 
2.4955693e+3, 1.9634737e+2, -700278.3, -1241868.8, 3788.3584, 0.070345126, 0.34577152, -700251.8, 315580.9, 0.0000014559189, 10.003863, 9.996675 
2.4954712e+3, 2.06344e+2, -701932.56, -1118997.8, 8978.699, 0.06922049, 0.35901606, -701739.4, 216125.78, 0.0, 10.002866, 9.997324 
2.4953733e+3, 2.1634111e+2, -789212.94, -1115335.0, -2305.939, 0.059703078, 0.38426298, -789196.6, 30694.543, 0.0, 10.001613, 9.997282 
2.4952762e+3, 2.2633837e+2, -697431.94, -917000.6, 50113.844, 0.053863857, 0.38489848, -686534.9, 35382.582, 0.0, 10.001128, 9.998201 
2.4951799e+3, 2.363359e+2, -610699.0, -836547.7, 59935.527, 0.04996348, 0.36489177, -595779.0, 28163.234, 0.0, 10.0011015, 9.9980955 
2.495083e+3, 2.4633355e+2, -579366.5, -706950.0, 52188.99, 0.049560767, 0.34244215, -560738.1, -34773.113, 0.0, 10.00037, 9.998664 
2.4949859e+3, 2.5633147e+2, -659918.4, -697978.44, 84892.13, 0.042379215, 0.3148544, -591949.44, -163964.8, 0.0, 9.999155, 9.998639 
2.4948886e+3, 2.6633048e+2, -650649.2, -524306.0, 107760.56, -0.018725267, 0.347728, -462565.66, -132570.89, 0.0, 9.998037, 9.999695 
2.4947914e+3, 2.7633026e+2, -709676.7, -501105.4, 104755.55, -0.09384962, 0.40484372, -457576.25, -225578.45, 0.0, 9.996955, 9.999703 
2.4946958e+3, 2.8633004e+2, -658868.25, -269867.5, 74573.664, 0.010070841, 0.38982412, -256061.3, -122062.72, 0.0, 9.995958, 10.0011 
2.4946004e+3, 2.9633015e+2, -699993.6, -247017.38, 54835.836, 0.16686068, 0.33698457, -240473.66, -204478.86, 0.0, 9.995035, 10.001032 
2.4945019e+3, 3.0632895e+2, -791624.06, -203426.45, -39200.76, 0.14669749, 0.13550808, -200825.4, -200825.4, 0.0, 9.9938, 10.001593 
2.4944013e+3, 3.1633157e+2, -919791.0, -85916.5, -14796.465, -0.050852302, 0.28958708, -85654.03, -85654.03, 0.0, 9.9921465, 10.003194 
2.5062642e+3, 1.2646838e+2, -1314271.5, -1652869.9, 665.745, 0.03219752, 0.26186064, -1314270.3, 386375.16, 0.39413947, 10.005432, 9.998015 
2.5061673e+3, 1.3646686e+2, -1071970.4, -1539678.1, -22587.012, 0.100880094, 0.36106646, -1070882.1, 531773.2, 0.28197122, 10.006309, 9.997657 
2.506067e+3, 1.4646357e+2, -939563.6, -1530764.1, -101545.53, 0.036339324, 0.36493582, -922608.3, 582078.1, 0.168856, 10.006254, 9.996921 
2.5059652e+3, 1.5645938e+2, -870866.1, -1497803.3, -98721.88, -0.06927554, 0.29993385, -855688.1, 551040.6, 0.07818956, 10.005661, 9.996748 
2.505866e+3, 1.664557e+2, -850860.1, -1440639.0, -6149.3774, -0.07174469, 0.30487004, -850796.06, 457970.34, 0.02476905, 10.004845, 9.996851 
2.5057685e+3, 1.764525e+2, -886745.56, -1425772.3, 7589.8423, -0.024230547, 0.3469227, -886638.75, 324160.94, 0.0041271346, 10.003911, 9.996733 
2.5056708e+3, 1.8644919e+2, -810149.6, -1275060.1, 3584.5845, 0.025201118, 0.36633128, -810122.0, 302711.06, 0.00018420437, 10.003486, 9.997295 
2.5055724e+3, 1.9644597e+2, -738883.75, -1205090.1, 9383.142, 0.08195019, 0.36303762, -738694.94, 276170.28, 0.00000026313862, 10.003364, 9.997165 
2.5054738e+3, 2.0644261e+2, -672648.06, -1090719.8, 20252.277, 0.09071908, 0.3490267, -671669.25, 245227.97, 0.0, 10.003014, 9.997443 
2.5053748e+3, 2.1643937e+2, -648851.3, -1033811.94, 53730.26, 0.06971303, 0.3286578, -641492.6, 177434.63, 0.0, 10.002524, 9.997399 
2.5052768e+3, 2.2643696e+2, -657134.5, -880361.7, 116196.625, 0.041005712, 0.35035238, -607629.3, 113321.484, 0.0, 10.001338, 9.998348 
2.5051793e+3, 2.3643515e+2, -796779.4, -905901.1, 110331.31, 0.012738214, 0.38526568, -728255.4, -105286.12, 0.0, 9.999743, 9.998269 
2.505082e+3, 2.4643305e+2, -760898.56, -758490.44, 82217.72, 0.02822866, 0.3629605, -677467.94, -152478.27, 0.0, 9.998976, 9.998977 
2.5049847e+3, 2.5643098e+2, -712031.94, -686871.5, 79469.63, 0.06606639, 0.305167, -618992.5, -191983.39, 0.0, 9.998649, 9.998955 
2.504886e+3, 2.6643023e+2, -707148.0, -526929.1, 88850.086, -0.0050007054, 0.33919218, -490491.97, -161475.53, 0.0, 9.997552, 9.999907 
2.504787e+3, 2.7643043e+2, -836842.0, -546917.94, 111835.08, -0.12743749, 0.4174081, -508792.38, -277776.88, 0.0, 9.996022, 9.999835 
2.5046906e+3, 2.8643018e+2, -719702.8, -347793.44, 117500.5, -0.020451462, 0.41895783, -313781.03, -180763.44, 0.0, 9.995756, 10.000659 
2.5045958e+3, 2.964299e+2, -582558.2, -249230.45, 78267.69, 0.19494854, 0.3754254, -231767.53, -196748.67, 0.0, 9.996099, 10.0005 
2.504496e+3, 3.0642745e+2, -564337.2, -161486.16, -27633.809, 0.12346714, 0.107628964, -159599.42, -159599.42, 0.0, 9.995657, 10.000981 
2.5043958e+3, 3.164312e+2, -584686.1, 22426.414, -3818.643, 0.110356316, 0.428669, 22450.434, 22450.434, 0.0, 9.994674, 10.002721 
2.5162703e+3, 1.2656642e+2, -1266322.6, -1647365.5, 22491.7, 0.13517557, 0.3319525, -1264999.6, 434685.78, 0.3687841, 10.005858, 9.997842 
2.5161728e+3, 1.3656305e+2, -1068183.5, -1556096.5, -2793.3545, 0.09595461, 0.25865325, -1068167.5, 533546.0, 0.26217812, 10.006276, 9.997502 
2.5160724e+3, 1.4655979e+2, -941645.1, -1527688.5, -120386.89, 0.017714383, 0.2648266, -917878.7, 585866.2, 0.15536855, 10.00611, 9.997021 
2.5159705e+3, 1.5655668e+2, -865580.4, -1482099.4, -116068.39, -0.04829726, 0.29853925, -844452.9, 561324.25, 0.07064183, 10.005594, 9.996893 
2.515871e+3, 1.665535e+2, -818305.94, -1369871.9, -36586.79, -0.023248179, 0.31843433, -815889.6, 491920.13, 0.02162124, 10.004819, 9.997352 
2.5157726e+3, 1.7655043e+2, -853943.3, -1357030.1, -19195.762, 0.042492386, 0.3243196, -853211.94, 356629.1, 0.0033472532, 10.0039015, 9.9972105 
2.5156736e+3, 1.8654785e+2, -794598.94, -1241265.6, 1041.4618, 0.015481647, 0.3812631, -794596.5, 317270.53, 0.00011957305, 10.003472, 9.997539 
2.515574e+3, 1.965457e+2, -728061.7, -1168600.0, 5773.07, -0.06092257, 0.46017978, -727986.06, 285902.53, 0.00000002568285, 10.003298, 9.99745 
2.5154752e+3, 2.0654204e+2, -633668.1, -995251.8, 2283.6218, -0.04444279, 0.3658256, -633653.7, 282267.97, 0.0, 10.002945, 9.998134 
2.5153765e+3, 2.1653774e+2, -618887.2, -956009.3, 30333.266, 0.020206297, 0.17192236, -616179.6, 201779.75, 0.0, 10.002451, 9.997972 
2.5152773e+3, 2.2653575e+2, -665846.4, -894114.6, 54944.168, 0.012529283, 0.21549074, -653309.8, 66668.84, 0.0, 10.001312, 9.99827 
2.5151783e+3, 2.3653519e+2, -800246.8, -916984.8, 57975.527, -0.033834934, 0.38158265, -776347.4, -154361.16, 0.0, 9.999753, 9.998193 
2.51508e+3, 2.4653345e+2, -765821.7, -773178.7, 69100.69, -0.015188293, 0.40589747, -700301.6, -176296.98, 0.0, 9.998988, 9.998874 
2.5149825e+3, 2.5653124e+2, -709691.75, -688170.75, 59834.883, 0.032159023, 0.34504563, -638136.5, -212109.25, 0.0, 9.998669, 9.9989395 
2.514884e+3, 2.6652986e+2, -670307.3, -453039.0, 27373.314, 0.06872225, 0.28397894, -449643.34, -121603.695, 0.0, 9.997555, 10.000417 
2.5147852e+3, 2.7652916e+2, -811499.2, -495057.56, 65939.305, 0.11317937, 0.2243966, -481867.13, -251823.1, 0.0, 9.996017, 10.000197 
2.5146878e+3, 2.8652984e+2, -761433.56, -440094.5, 131248.61, 0.13475631, 0.33964404, -393301.03, -261262.34, 0.0, 9.995772, 10.000022 
2.51459e+3, 2.9653132e+2, -610562.5, -325208.94, 82852.266, 0.077477366, 0.53450066, -302897.34, -268870.0, 0.0, 9.99617, 9.999948 
2.5144887e+3, 3.0652854e+2, -549194.9, -159775.34, -55869.383, -0.12690857, 0.2577856, -151918.38, -151918.38, 0.0, 9.995775, 10.00094 
2.5143886e+3, 3.1652987e+2, -644367.5, -131018.29, -129139.84, -0.055507753, 0.3500115, -100362.16, -100362.16, 0.0, 9.994808, 10.001598 
2.526278e+3, 1.2666625e+2, -951696.94, -1549017.6, 49698.242, 0.16689393, 0.41618967, -947590.2, 751119.0, 0.34213126, 10.009249, 9.997213 
2.5261784e+3, 1.3666183e+2, -1104395.0, -1624539.3, 12722.59, 0.07157727, 0.3057631, -1104084.0, 496665.34, 0.2417564, 10.006027, 9.997047 
2.5260773e+3, 1.4665852e+2, -1053275.8, -1543350.9, -59236.707, 0.026427632, 0.3034778, -1046217.4, 456563.72, 0.14179826, 10.004942, 9.997448 
2.525976e+3, 1.5665592e+2, -910234.5, -1460142.4, -37580.273, 0.040096458, 0.34846374, -907678.2, 497129.06, 0.06331164, 10.005044, 9.997295 
2.525876e+3, 1.6665305e+2, -825094.25, -1338077.5, 25686.97, 0.043674055, 0.36646393, -823811.25, 483024.38, 0.018722996, 10.004612, 9.997666 
2.5257757e+3, 1.7665018e+2, -831872.7, -1310791.0, 32380.857, 0.037812427, 0.36363333, -829693.25, 379170.34, 0.002692471, 10.003905, 9.997523 
2.525676e+3, 1.8664747e+2, -832454.4, -1233059.3, 56473.945, -0.00128002, 0.38312793, -824645.4, 286244.78, 0.000075747565, 10.003105, 9.997767 
2.5255764e+3, 1.9664502e+2, -865227.0, -1209742.8, 57353.36, -0.058587182, 0.41225526, -855929.94, 156984.2, 0.00000000011876218, 10.0022545, 9.997666 
2.5254768e+3, 2.066418e+2, -829371.94, -1072839.8, 31296.193, -0.04143543, 0.34499177, -825413.4, 89530.61, 0.0, 10.001536, 9.998276 
2.5253776e+3, 2.1663828e+2, -829010.06, -1029978.8, 20499.172, 0.018425396, 0.21481903, -826940.4, -9964.82, 0.0, 10.000898, 9.998207 
2.5252777e+3, 2.2663638e+2, -714668.25, -848753.44, 57874.1, 0.012520366, 0.22192456, -693143.8, 25848.352, 0.0, 10.000687, 9.99888 
2.525178e+3, 2.3663557e+2, -629436.7, -776810.4, 105251.24, -0.024254296, 0.30464503, -574641.75, 46356.95, 0.0, 10.000682, 9.998705 
2.525079e+3, 2.466341e+2, -661295.5, -716867.8, 136512.72, -0.02399235, 0.33479425, -549769.8, -26755.563, 0.0, 9.999689, 9.998918 
2.52498e+3, 2.5663242e+2, -787242.7, -731772.06, 137421.45, -0.008262998, 0.32497284, -619315.0, -194281.61, 0.0, 9.99817, 9.998877 
2.524881e+3, 2.666308e+2, -632063.3, -501169.38, 68676.84, 0.04680881, 0.28075415, -471749.0, -144699.05, 0.0, 9.998112, 9.999814 
2.524782e+3, 2.7662948e+2, -452021.5, -372647.28, 17136.414, 0.14974836, 0.2165458, -369105.66, -140043.22, 0.0, 9.99871, 9.999738 
2.5246838e+3, 2.8663012e+2, -568668.25, -318192.0, 73574.625, 0.16331398, 0.33270708, -298179.28, -167121.53, 0.0, 9.996979, 10.000272 
2.5245845e+3, 2.9663184e+2, -900409.6, -441584.66, 98432.266, 0.037555754, 0.5287856, -421359.4, -388315.63, 0.0, 9.994088, 10.000148 
2.5244823e+3, 3.0662996e+2, -814268.3, -286055.44, 32122.451, -0.20983553, 0.33447272, -284109.16, -284109.16, 0.0, 9.993961, 10.000942 
2.524385e+3, 3.1663242e+2, -603004.2, -140334.92, -142288.86, 0.12702812, 0.54533446, -100078.266, -100078.266, 0.0, 9.995228, 10.0013275 
2.5362864e+3, 1.2676741e+2, -1004201.2, -1651184.4, -31560.309, 0.136806, 0.5167746, -1002665.3, 695055.1, 0.3149101, 10.008845, 9.996319 
2.5361833e+3, 1.3676254e+2, -1137253.6, -1726889.4, -58495.453, 0.028917922, 0.44793233, -1131506.6, 468261.75, 0.22119138, 10.005932, 9.996401 
2.536082e+3, 1.4675915e+2, -1003659.6, -1460037.0, -48557.895, 0.047527935, 0.43012282, -998550.3, 503250.2, 0.1284018, 10.004989, 9.9980345 
2.5359818e+3, 1.5675668e+2, -866361.56, -1384616.6, -35375.563, 0.16673051, 0.42930803, -863958.0, 539865.0, 0.0562847, 10.005088, 9.997802 
2.5358805e+3, 1.6675402e+2, -812709.94, -1317084.4, -586.2512, 0.115027346, 0.43967095, -812709.25, 493138.03, 0.016073184, 10.004616, 9.997812 
2.535779e+3, 1.7675145e+2, -830669.9, -1295280.6, 5440.915, -0.029643362, 0.44986385, -830606.2, 377264.6, 0.0021441015, 10.00384, 9.997664 
2.5356784e+3, 1.8674794e+2, -825796.3, -1209077.6, 24263.055, -0.02488072, 0.37333053, -824266.44, 285637.53, 0.000046550977, 10.003057, 9.997957 
2.5355792e+3, 1.9674416e+2, -859769.7, -1195869.3, 28778.031, 0.055141494, 0.24914432, -857323.4, 154617.05, 0.0, 10.002238, 9.997772 
2.535479e+3, 2.0674196e+2, -849893.25, -1120891.6, 8888.834, 0.06857571, 0.3004477, -849602.0, 64361.26, 0.0, 10.001554, 9.997941 
2.535378e+3, 2.1674073e+2, -830527.44, -1039769.9, 5619.4126, 0.046194144, 0.4306808, -830376.6, -14399.152, 0.0, 10.000921, 9.998133 
2.5352782e+3, 2.267386e+2, -629480.2, -673966.3, 59978.246, 0.03453364, 0.34734178, -587753.4, 130239.56, 0.0, 10.0006895, 10.000082 
2.5351787e+3, 2.3673622e+2, -562034.94, -632184.0, 95588.59, 0.03023587, 0.1557425, -495289.03, 124718.03, 0.0, 10.000655, 9.999714 
2.5350782e+3, 2.4673498e+2, -651986.25, -696625.6, 75485.38, -0.0066407262, 0.15677129, -595589.9, -73571.31, 0.0, 9.999679, 9.999065 
2.5349772e+3, 2.5673443e+2, -797296.94, -757493.5, 93755.945, -0.07103088, 0.24989405, -681550.25, -257522.64, 0.0, 9.998184, 9.998696 
2.5348774e+3, 2.66733e+2, -752954.2, -762081.75, 93237.72, -0.08357052, 0.33835682, -664168.6, -338121.0, 0.0, 9.998146, 9.998011 
2.5347784e+3, 2.7673134e+2, -529291.25, -556328.4, 16749.922, -0.039791282, 0.4181093, -521285.13, -293214.28, 0.0, 9.998803, 9.998435 
2.5346792e+3, 2.867308e+2, -479615.13, -141811.27, -47295.47, 0.042699516, 0.3956303, -135314.44, -5237.383, 0.0, 9.997008, 10.001473 
2.534578e+3, 2.967309e+2, -840707.0, -297865.97, 11659.122, 0.04532132, 0.30945188, -297615.66, -265542.28, 0.0, 9.993998, 10.001181 
2.5344774e+3, 3.0673197e+2, -824906.3, -292166.9, 82678.93, -0.021091828, 0.3708565, -279630.47, -279630.47, 0.0, 9.993881, 10.000943 
2.5343806e+3, 3.1673482e+2, -502032.53, 26798.26, -77513.234, 0.23008159, 0.6194808, 37925.61, 37925.61, 0.0, 9.995375, 10.002421 
2.5462925e+3, 1.2686872e+2, -1196561.0, -1766383.3, -26311.543, 0.039950863, 0.50677216, -1195348.6, 501377.38, 0.2877657, 10.006676, 9.996428 
2.5461888e+3, 1.3686381e+2, -1164383.9, -1740857.5, 1468.1593, 0.071082026, 0.42604238, -1164380.1, 434394.3, 0.20090213, 10.0055685, 9.996463 
2.5460872e+3, 1.4686021e+2, -972252.9, -1477756.1, 62390.586, 0.080382556, 0.40668085, -964666.3, 536142.6, 0.11539879, 10.005325, 9.997728 
2.5459865e+3, 1.5685745e+2, -819203.7, -1385571.4, 27246.576, 0.123350896, 0.40775487, -817895.94, 584938.75, 0.04963613, 10.005509, 9.997587 
2.5458845e+3, 1.6685452e+2, -809721.25, -1309486.6, 4922.1606, 0.09242035, 0.39820808, -809672.8, 495188.63, 0.013673605, 10.004605, 9.997867 
2.545782e+3, 1.768517e+2, -921035.94, -1325633.3, 7838.278, 0.0117831165, 0.3814946, -920884.1, 286002.7, 0.0016890472, 10.003165, 9.997779 
2.5456813e+3, 1.8684874e+2, -882363.6, -1193050.3, 51576.51, 0.015388949, 0.33283174, -874025.3, 234889.44, 0.000027889511, 10.002486, 9.99834 
2.5455812e+3, 1.9684584e+2, -839960.3, -1144292.1, 65238.207, 0.069348656, 0.2603847, -826565.1, 184377.73, 0.0, 10.002199, 9.998142 
2.5454798e+3, 2.0684409e+2, -778978.5, -1052776.4, 80216.875, 0.05357777, 0.3248046, -757207.75, 155753.69, 0.0, 10.001901, 9.9982395 
2.5453788e+3, 2.1684311e+2, -720924.06, -962592.06, 113211.3, 0.002084653, 0.4549009, -676175.3, 138797.95, 0.0, 10.001575, 9.998344 
2.545278e+3, 2.2684082e+2, -670727.94, -717090.3, 109055.98, -0.008395801, 0.36331797, -582416.6, 134574.56, 0.0, 10.000515, 9.999865 
2.545178e+3, 2.3683806e+2, -801112.44, -762809.1, 46157.207, 0.0068454226, 0.15290588, -731988.0, -112977.65, 0.0, 9.99909, 9.999565 
2.545077e+3, 2.4683686e+2, -776419.0, -744138.75, -5224.282, -0.000944949, 0.1568373, -743314.3, -222292.98, 0.0, 9.998777, 9.999169 
2.5449756e+3, 2.568366e+2, -675541.3, -682807.0, 9392.344, -0.030255008, 0.2665427, -669103.7, -246077.08, 0.0, 9.998959, 9.998833 
2.5448748e+3, 2.6683545e+2, -784137.2, -741727.2, 119343.48, -0.077628836, 0.35723838, -641719.5, -316676.47, 0.0, 9.997788, 9.998319 
2.544775e+3, 2.7683398e+2, -929982.25, -728811.75, 190090.66, -0.10099647, 0.4317213, -614334.56, -387271.1, 0.0, 9.995972, 9.998612 
2.5446743e+3, 2.8683293e+2, -682132.94, -275610.1, 77837.85, -0.022699498, 0.37637067, -261215.97, -132140.83, 0.0, 9.995781, 10.001142 
2.5445727e+3, 2.9683223e+2, -517552.88, -162125.33, 27536.879, 0.026732055, 0.24649222, -160004.56, -128924.586, 0.0, 9.9963045, 10.000999 
2.544473e+3, 3.0683437e+2, -527862.9, -89646.23, 120954.12, 0.12226663, 0.39099932, -58477.992, -58477.992, 0.0, 9.995677, 10.001462 
2.544372e+3, 3.168348e+2, -657136.94, 23934.648, 26466.469, -0.040421255, 0.34409627, 24961.588, 24961.588, 0.0, 9.9940195, 10.003045 
2.5562972e+3, 1.2697035e+2, -1184484.1, -1692628.5, -70865.95, -0.11056662, 0.43064013, -1174786.3, 520939.72, 0.26122722, 10.006267, 9.9971485 
2.556195e+3, 1.3696565e+2, -1126086.6, -1679691.3, -36241.367, 0.15582258, 0.30125543, -1123724.3, 474045.9, 0.18122897, 10.005597, 9.996874 
2.556092e+3, 1.4696176e+2, -1017003.25, -1604529.3, 62252.906, 0.10638668, 0.2876266, -1010479.5, 489328.66, 0.10295904, 10.005355, 9.996832 
2.5559896e+3, 1.569584e+2, -885189.2, -1503171.0, 22704.484, -0.046852004, 0.31735706, -884356.2, 517485.56, 0.04341734, 10.005359, 9.996851 
2.5558877e+3, 1.6695482e+2, -826823.4, -1322978.4, -47642.355, 0.0028374128, 0.27438867, -822290.0, 481585.84, 0.011520834, 10.004495, 9.997829 
2.5557858e+3, 1.7695138e+2, -915319.2, -1316790.4, -34900.074, 0.13005804, 0.19850525, -912307.94, 293599.97, 0.0013157257, 10.003173, 9.997838 
2.555684e+3, 1.8694998e+2, -844116.06, -1120706.6, 40900.62, 0.09655985, 0.27401304, -838194.7, 269726.75, 0.000016496271, 10.002509, 9.998829 
2.555582e+3, 1.9694968e+2, -806104.06, -1067947.3, 53070.49, -0.008532213, 0.4127327, -795756.6, 214168.3, 0.0, 10.002167, 9.998686 
2.5554803e+3, 2.0694785e+2, -732073.3, -941132.56, 65273.652, -0.06913225, 0.39929923, -713367.0, 198574.78, 0.0, 10.001833, 9.999041 
2.5553784e+3, 2.1694545e+2, -709046.44, -915529.56, 91731.82, -0.11041841, 0.31070268, -674181.0, 139782.48, 0.0, 10.001473, 9.998719 
2.5552768e+3, 2.2694314e+2, -782226.0, -940599.9, 52771.88, -0.11457558, 0.29021662, -766252.9, -50266.17, 0.0, 10.000476, 9.998352 
2.5551754e+3, 2.3694101e+2, -883321.8, -939563.44, 4523.1284, -0.09971056, 0.29319116, -882960.4, -264951.44, 0.0, 9.99911, 9.998346 
2.5550753e+3, 2.4693961e+2, -769624.56, -736664.06, 2547.8086, -0.007331882, 0.3260003, -736468.3, -216445.16, 0.0, 9.998799, 9.999214 
2.5549755e+3, 2.569388e+2, -635689.06, -607858.8, 3314.1045, 0.10989246, 0.37107792, -607469.6, -185438.23, 0.0, 9.998986, 9.999337 
2.5548735e+3, 2.6693803e+2, -609276.75, -380069.4, 46204.266, 0.06413453, 0.3302619, -371105.94, -47069.5, 0.0, 9.9977865, 10.000806 
2.554771e+3, 2.7693737e+2, -819490.56, -490767.56, 139544.47, -0.044026513, 0.2432807, -439519.78, -213480.64, 0.0, 9.995927, 10.000272 
2.5546694e+3, 2.8693658e+2, -829117.7, -580242.75, 106074.0, -0.028005587, 0.27324408, -541167.56, -413117.3, 0.0, 9.9957695, 9.999061 
2.554568e+3, 2.9693612e+2, -607528.0, -379727.97, 44217.43, -0.0029749395, 0.36940983, -371446.16, -341384.9, 0.0, 9.996431, 9.999448 
2.5544685e+3, 3.0693674e+2, -453329.9, 38236.813, 60649.96, 0.13894118, 0.37421158, 45609.29, 45609.29, 0.0, 9.995785, 10.002294 
2.554365e+3, 3.169368e+2, -659634.44, 35027.355, -13568.891, -0.0912105, 0.20958091, 35292.297, 35292.297, 0.0, 9.993948, 10.003158 
2.5663027e+3, 1.270707e+2, -1389099.5, -1762769.8, -97500.266, 0.0059846155, 0.36012438, -1365189.1, 329553.03, 0.2356672, 10.00395, 9.997809 
2.5662e+3, 1.3706699e+2, -1032870.5, -1570892.8, -72842.99, 0.13092604, 0.26339895, -1023182.7, 573592.7, 0.1624104, 10.005986, 9.997465 
2.5660968e+3, 1.4706385e+2, -969553.3, -1555601.6, 11055.035, 0.058735352, 0.2872977, -969344.9, 529461.6, 0.091198675, 10.005555, 9.997064 
2.5659934e+3, 1.570611e+2, -1059176.0, -1569537.1, 27084.076, -0.067898385, 0.35551694, -1057742.8, 343092.8, 0.037659068, 10.004002, 9.997047 
2.5658908e+3, 1.6705763e+2, -968191.75, -1380139.0, -9633.149, -0.021889212, 0.3116779, -967966.56, 334901.97, 0.009606167, 10.003462, 9.9979315 
2.5657883e+3, 1.7705408e+2, -878760.56, -1290655.8, 9581.607, 0.09622243, 0.21560988, -878537.75, 326363.34, 0.0010123135, 10.003394, 9.997908 
2.565686e+3, 1.8705243e+2, -826214.25, -1125107.5, 61063.277, 0.08934697, 0.27304107, -814220.44, 292696.88, 0.000009793076, 10.002698, 9.998704 
2.565584e+3, 1.9705188e+2, -874491.0, -1100002.0, 31546.299, 0.0233836, 0.39947203, -870161.2, 138762.5, 0.0, 10.0017, 9.998687 
2.565481e+3, 2.0705014e+2, -894807.44, -967660.5, 11270.12, -0.05184832, 0.36770102, -893103.8, 17834.555, 0.0, 10.000501, 9.999496 
2.5653782e+3, 2.1704796e+2, -1011113.06, -1025837.1, 18240.729, -0.12672743, 0.25502637, -998804.7, -185848.64, 0.0, 9.999254, 9.999028 
2.565276e+3, 2.2704594e+2, -939346.4, -1043192.25, 51114.13, -0.13172966, 0.26718548, -918408.8, -203431.17, 0.0, 9.999517, 9.998108 
2.5651747e+3, 2.370442e+2, -701365.25, -868779.2, 85048.44, -0.0996234, 0.3343984, -665740.3, -48741.094, 0.0, 10.000439, 9.998189 
2.5650737e+3, 2.470428e+2, -609217.6, -633328.44, 110783.46, -0.023723332, 0.36035568, -509835.56, 9177.793, 0.0, 9.999798, 9.999439 
2.5649732e+3, 2.5704172e+2, -706693.25, -621985.94, 116470.48, 0.07170438, 0.36100852, -540407.4, -119385.22, 0.0, 9.998419, 9.999511 
2.5648707e+3, 2.670408e+2, -578717.0, -366521.47, 21616.34, 0.066516355, 0.30313993, -364341.78, -41313.508, 0.0, 9.998011, 10.000787 
2.5647682e+3, 2.770401e+2, -520245.03, -339088.16, -66164.95, 0.02423649, 0.2077663, -317495.94, -92464.21, 0.0, 9.997956, 10.000331 
2.5646657e+3, 2.8703955e+2, -626141.75, -456174.6, -14587.598, 0.003410077, 0.24174364, -454931.7, -327892.38, 0.0, 9.99706, 9.999286 
2.5645632e+3, 2.9703948e+2, -701430.6, -409900.84, 88828.39, -0.036839683, 0.3565087, -384967.5, -355922.4, 0.0, 9.995731, 9.999574 
2.564463e+3, 3.070403e+2, -681298.8, -97142.67, 74810.81, 0.11289312, 0.39396808, -87714.09, -87714.09, 0.0, 9.994336, 10.002059 
2.5643593e+3, 3.170415e+2, -737561.94, -563.47784, -40029.727, 0.016411124, 0.35869414, 1604.3417, 1604.3417, 0.0, 9.993415, 10.003167 
2.5763085e+3, 1.2717046e+2, -1301254.0, -1646950.6, -24542.094, 0.26204598, 0.2957712, -1299520.4, 394246.06, 0.21139164, 10.004302, 9.998476 
2.5762042e+3, 1.3716824e+2, -1004265.56, -1497418.8, -24946.14, 0.021343164, 0.2822913, -1003006.9, 592777.4, 0.14463711, 10.005791, 9.998144 
2.5761005e+3, 1.4716655e+2, -933542.7, -1441328.8, -43563.29, -0.040009614, 0.36690763, -929832.5, 567969.5, 0.0802116, 10.005323, 9.997996 
2.5759977e+3, 1.5716517e+2, -1013999.2, -1462211.1, -22722.297, 0.008645102, 0.48302993, -1012850.25, 386968.22, 0.032388233, 10.003934, 9.99782 
2.5758937e+3, 1.6716239e+2, -956292.94, -1354558.9, -14799.433, -0.009683968, 0.4638732, -955743.75, 346100.47, 0.007922063, 10.003448, 9.9981165 
2.5757897e+3, 1.7715912e+2, -882436.94, -1290186.1, 229.6717, -0.061596304, 0.37916547, -882436.8, 321435.72, 0.0007675284, 10.003353, 9.997933 
2.5756875e+3, 1.8715586e+2, -873149.2, -1217440.6, 24044.967, 0.014831611, 0.31110144, -871478.06, 234426.23, 0.000005913737, 10.00267, 9.998086 
2.575586e+3, 1.9715285e+2, -908927.1, -1167676.0, -4956.69, 0.1399808, 0.25210804, -908832.2, 99102.77, 0.0, 10.001679, 9.998235 
2.575482e+3, 2.0715137e+2, -879790.7, -946324.7, -35725.793, 0.07621122, 0.2550537, -864241.44, 45705.69, 0.0, 10.000537, 9.999629 
2.5753775e+3, 2.1715066e+2, -981179.9, -982004.2, -9489.272, -0.07081265, 0.27757782, -972093.8, -160143.84, 0.0, 9.999327, 9.999297 
2.575276e+3, 2.2714923e+2, -872873.06, -915042.5, 87864.33, -0.071802676, 0.28429875, -803599.0, -89634.74, 0.0, 9.999554, 9.998974 
2.5751755e+3, 2.3714763e+2, -650748.2, -758173.3, 102152.445, -0.009414415, 0.27929494, -589047.75, 26934.262, 0.0, 10.000409, 9.998966 
2.5750726e+3, 2.4714635e+2, -585765.3, -581148.56, 55576.684, -0.061246797, 0.26437333, -527832.3, -9839.739, 0.0, 9.999778, 9.999809 
2.5749686e+3, 2.5714535e+2, -722000.2, -659006.8, 75157.42, -0.16486229, 0.24331269, -609013.1, -189014.36, 0.0, 9.998436, 9.999252 
2.574867e+3, 2.6714367e+2, -761921.4, -755779.56, 19713.926, -0.076941505, 0.28189597, -738898.8, -416878.97, 0.0, 9.998039, 9.998106 
2.5747663e+3, 2.771419e+2, -617393.25, -559394.56, -80821.79, 0.101111166, 0.33767322, -502527.0, -278482.16, 0.0, 9.99803, 9.998787 
2.574663e+3, 2.871416e+2, -422450.34, -47279.797, -73212.63, 0.06324116, 0.28479293, -33498.926, 92546.3, 0.0, 9.997112, 10.002073 
2.574558e+3, 2.971422e+2, -560996.25, -118341.48, 34769.445, -0.108130075, 0.19860645, -115627.07, -87595.266, 0.0, 9.995724, 10.001584 
2.574456e+3, 3.071453e+2, -780584.56, -290193.5, 23554.611, 0.061550565, 0.45625648, -289064.72, -289064.72, 0.0, 9.994271, 10.00077 
2.574352e+3, 3.171445e+2, -798615.56, -124944.59, -46267.406, -0.00076675846, 0.35618103, -121781.82, -121781.82, 0.0, 9.993396, 10.002326 
2.5863135e+3, 1.2727377e+2, -987542.3, -1537972.8, 68792.805, 0.20640734, 0.33681667, -979074.8, 713679.8, 0.18864788, 10.007058, 9.998061 
2.586209e+3, 1.3727129e+2, -1184854.8, -1613986.0, 23283.385, 0.027427804, 0.33931136, -1183595.1, 411181.8, 0.12805949, 10.004394, 9.997905 
2.586105e+3, 1.4726935e+2, -1155198.1, -1522701.9, -24609.262, -0.010406577, 0.39347652, -1153557.5, 343239.66, 0.070064984, 10.003508, 9.998278 
2.5860012e+3, 1.5726778e+2, -1059051.1, -1444983.4, -34964.64, 0.048904005, 0.46088767, -1055909.0, 342906.0, 0.02761908, 10.003434, 9.998176 
2.5858968e+3, 1.6726537e+2, -950692.4, -1293331.0, -8815.934, 0.0047072256, 0.43413964, -950465.7, 350369.84, 0.00645997, 10.003236, 9.998636 
2.585792e+3, 1.7726271e+2, -912565.75, -1264846.6, 18005.564, -0.088460386, 0.36306274, -911647.9, 291208.28, 0.000572236, 10.002977, 9.998286 
2.5856888e+3, 1.8725969e+2, -934810.9, -1266846.4, 44000.473, -0.022645576, 0.3167992, -929079.0, 175807.58, 0.0000035552432, 10.0023365, 9.997906 
2.585587e+3, 1.9725667e+2, -937976.94, -1197458.4, 40942.3, 0.11350558, 0.27570722, -931670.1, 75249.164, 0.0, 10.001553, 9.998089 
2.585483e+3, 2.0725495e+2, -761306.0, -895806.56, 21861.775, 0.08940028, 0.26705506, -757841.75, 151092.02, 0.0, 10.001386, 9.999564 
2.585378e+3, 2.1725401e+2, -673870.9, -833027.44, 34231.84, -0.0062183333, 0.27270877, -666820.5, 144117.92, 0.0, 10.001441, 9.999297 
2.5852758e+3, 2.2725275e+2, -746450.25, -826905.44, 101209.09, -0.033415377, 0.28460422, -677767.1, 35183.22, 0.0, 10.000316, 9.999207 
2.5851744e+3, 2.3725148e+2, -887178.44, -852621.94, 68125.625, -0.024331555, 0.29082006, -799617.6, -184653.53, 0.0, 9.99871, 9.999133 
2.585071e+3, 2.4724999e+2, -801650.25, -694626.9, -21034.945, -0.09020625, 0.25189924, -690641.0, -173664.56, 0.0, 9.998342, 9.99972 
2.5849664e+3, 2.5724852e+2, -725224.94, -671203.3, -32449.363, -0.19300376, 0.19392407, -655993.94, -237007.19, 0.0, 9.998467, 9.999149 
2.584864e+3, 2.6724714e+2, -799685.75, -792778.5, 40945.348, -0.11274686, 0.27296072, -755141.4, -434135.25, 0.0, 9.997871, 9.997928 
2.584763e+3, 2.7724588e+2, -782046.9, -647813.4, 115759.06, 0.071135014, 0.4005183, -581121.25, -358093.38, 0.0, 9.996946, 9.998699 
2.5846592e+3, 2.872453e+2, -487733.97, -41344.09, 34965.41, 0.061857123, 0.31235415, -38621.87, 86407.34, 0.0, 9.99651, 10.002401 
2.5845534e+3, 2.9724535e+2, -473363.1, -53051.266, -47482.008, -0.09426154, 0.1363274, -47754.055, -20735.416, 0.0, 9.99623, 10.001786 
2.5844508e+3, 3.0724853e+2, -585137.2, -241254.8, -72556.3, 0.09169201, 0.41786358, -226572.86, -226572.86, 0.0, 9.995814, 10.000358 
2.5843456e+3, 3.1724623e+2, -608634.0, -85284.22, -72232.766, 0.012350189, 0.20568357, -75497.65, -75497.65, 0.0, 9.99493, 10.001855 
2.5963175e+3, 1.2737949e+2, -1070713.6, -1682648.9, -19802.648, -0.048545282, 0.4474568, -1070073.5, 621645.1, 0.16754311, 10.006745, 9.996981 
2.5962135e+3, 1.3737564e+2, -1227550.8, -1738821.3, -41852.973, 0.10113203, 0.41788083, -1224147.3, 369610.4, 0.11275246, 10.004428, 9.997033 
2.596109e+3, 1.4737236e+2, -1144374.1, -1537598.0, -19551.486, 0.09432769, 0.38141567, -1143404.4, 352386.38, 0.06079198, 10.003635, 9.998117 
2.596004e+3, 1.5736952e+2, -1042423.25, -1431598.5, -29848.496, 0.052007962, 0.3342593, -1040147.25, 357671.84, 0.023352563, 10.00351, 9.998234 
2.5958997e+3, 1.6736726e+2, -896741.4, -1187741.9, -14605.787, 0.017793711, 0.27673706, -896010.1, 403825.97, 0.0052088066, 10.003254, 9.999359 
2.595795e+3, 1.7736545e+2, -882267.94, -1188425.8, 2137.6138, -0.023628563, 0.2187294, -882253.0, 319593.78, 0.00041930727, 10.002914, 9.998844 
2.5956908e+3, 1.8736403e+2, -937023.1, -1255717.3, 10836.472, -0.039804883, 0.30479628, -936655.06, 167208.25, 0.0000020172258, 10.002263, 9.998021 
2.5955865e+3, 1.9736286e+2, -946016.9, -1196593.6, 19157.12, -0.040946696, 0.43684307, -944560.7, 61320.47, 0.0, 10.001472, 9.9981365 
2.5954828e+3, 2.073605e+2, -784065.44, -934468.44, 25724.314, 0.005345997, 0.37691438, -779787.4, 128114.7, 0.0, 10.001343, 9.999322 
2.5953797e+3, 2.1735789e+2, -698516.94, -875744.8, 25301.35, 0.060321048, 0.24047488, -694975.6, 114946.43, 0.0, 10.0014, 9.999027 
2.5952756e+3, 2.2735652e+2, -774147.75, -881647.0, 39583.496, -0.021552674, 0.2741064, -761145.0, -49209.418, 0.0, 10.0002985, 9.998841 
2.5951713e+3, 2.3735575e+2, -914644.3, -912747.06, 22189.484, -0.15095094, 0.36807004, -891485.94, -277540.47, 0.0, 9.998717, 9.99872 
2.5950685e+3, 2.4735366e+2, -838000.2, -776523.56, -16020.785, -0.109537795, 0.31899142, -772599.06, -256633.69, 0.0, 9.998362, 9.999152 
2.594966e+3, 2.5735122e+2, -713427.25, -653627.9, -36302.18, -0.015345195, 0.21241036, -636497.4, -218510.42, 0.0, 9.99849, 9.999263 
2.594862e+3, 2.673512e+2, -628663.6, -439345.88, 3906.266, -0.0485148, 0.27398762, -439265.3, -119278.29, 0.0, 9.997872, 10.000357 
2.5947577e+3, 2.7735218e+2, -688881.9, -454487.5, 89694.64, -0.096687436, 0.39629197, -424103.16, -202125.33, 0.0, 9.99694, 10.000032 
2.5946546e+3, 2.873508e+2, -661228.6, -403534.13, 27424.904, -0.0053272196, 0.32566804, -400647.78, -276657.4, 0.0, 9.99651, 9.999919 
2.5945503e+3, 2.973487e+2, -592789.56, -312318.13, -61252.125, 0.0307388, 0.17820626, -299524.84, -273516.0, 0.0, 9.996273, 9.999989 
2.594447e+3, 3.0734947e+2, -531251.6, -149559.58, -98807.82, 0.17867295, 0.2516283, -125498.2, -125498.2, 0.0, 9.995894, 10.000954 
2.5943404e+3, 3.1734952e+2, -559362.6, -12899.832, -96578.27, 0.016713714, 0.21673258, 3666.5593, 3666.5593, 0.0, 9.995053, 10.0022955 
2.6063228e+3, 1.2748414e+2, -1203705.9, -1727779.9, -32725.055, -0.05337493, 0.41989905, -1201670.3, 489023.75, 0.14805084, 10.005386, 9.997319 
2.606217e+3, 1.3748106e+2, -1128058.5, -1662085.5, 19351.963, 0.045706548, 0.43851063, -1127358.1, 465367.03, 0.09871724, 10.005028, 9.99727 
2.606112e+3, 1.4747788e+2, -1008658.0, -1484046.5, 94749.26, 0.051314734, 0.41335225, -990469.5, 504287.66, 0.05239623, 10.004662, 9.997992 
2.6060075e+3, 1.5747482e+2, -940489.4, -1403820.4, 79429.734, 0.04732703, 0.36276832, -927250.9, 469536.84, 0.019580513, 10.0043125, 9.998037 
2.6059023e+3, 1.674723e+2, -907402.8, -1240285.9, 32907.152, 0.020491706, 0.3149567, -904181.0, 394628.2, 0.004154602, 10.003386, 9.998932 
2.605797e+3, 1.7747022e+2, -994769.75, -1262114.3, -18197.512, -0.021612009, 0.2710541, -993536.75, 207288.14, 0.00030227532, 10.002229, 9.998667 
2.6056916e+3, 1.8746898e+2, -1041241.3, -1240925.4, -9667.587, -0.043736286, 0.3465318, -1040774.4, 62064.14, 0.0000010444409, 10.001276, 9.998593 
2.6055866e+3, 1.9746818e+2, -1067030.5, -1210317.6, 34201.605, -0.053752717, 0.46194544, -1059285.5, -54435.28, 0.0, 10.000455, 9.998529 
2.605483e+3, 2.074659e+2, -934361.75, -1027997.25, 80103.84, -0.007803261, 0.40874213, -888397.3, 18472.92, 0.0, 10.000409, 9.999126 
2.6053798e+3, 2.1746323e+2, -820363.0, -958339.5, 66944.055, 0.05800761, 0.28623986, -793221.75, 15670.228, 0.0, 10.000671, 9.998809 
2.6052755e+3, 2.2746153e+2, -794622.06, -917983.56, 50432.223, -0.009781385, 0.31331494, -776628.94, -65719.85, 0.0, 10.000277, 9.9986 
2.6051703e+3, 2.374604e+2, -795899.0, -871706.6, 52528.06, -0.12498372, 0.39491656, -769027.06, -156104.3, 0.0, 9.99961, 9.998567 
2.6050672e+3, 2.4745825e+2, -688565.94, -698277.94, 85280.8, -0.09331348, 0.3464922, -608003.0, -93060.086, 0.0, 9.999368, 9.999201 
2.6049647e+3, 2.5745595e+2, -591054.6, -572890.3, 94181.05, -0.00785104, 0.24496213, -487354.53, -70391.15, 0.0, 9.999243, 9.999452 
2.6048598e+3, 2.6745608e+2, -491397.34, -295878.4, 22229.39, -0.04181703, 0.28067294, -293382.9, 25576.412, 0.0, 9.998488, 10.001041 
2.6047543e+3, 2.7745736e+2, -588915.75, -366462.8, -12697.212, -0.09347297, 0.3645503, -365740.4, -144796.02, 0.0, 9.997463, 10.0003805 
2.6046506e+3, 2.8745583e+2, -661013.4, -491005.4, 208.9674, 0.00038891466, 0.31604266, -491005.16, -368045.4, 0.0, 9.9969, 9.999125 
2.6045462e+3, 2.974534e+2, -612411.2, -381818.66, 28685.188, 0.05521852, 0.21286869, -378303.84, -353318.63, 0.0, 9.9964075, 9.999442 
2.6044413e+3, 3.074536e+2, -627714.8, -147710.55, -3805.4985, 0.12029779, 0.22747049, -147680.38, -147680.38, 0.0, 9.995037, 10.001373 
2.6043338e+3, 3.174553e+2, -626726.44, 25355.41, 46631.133, -0.053173147, 0.31616637, 28673.176, 28673.176, 0.0, 9.994301, 10.002915 
2.616329e+3, 1.275884e+2, -1118326.3, -1565429.9, -46723.664, 0.0727299, 0.3118445, -1113495.6, 576178.3, 0.13009857, 10.005388, 9.998553 
2.61622e+3, 1.3758746e+2, -1070166.9, -1541496.5, 331.98328, -0.11140032, 0.42339778, -1070166.6, 521514.5, 0.08591544, 10.004991, 9.998146 
2.6161146e+3, 1.475853e+2, -1025963.56, -1513959.0, 74080.73, -0.09400288, 0.4773102, -1014965.5, 478737.78, 0.04485605, 10.004585, 9.997825 
2.6160112e+3, 1.5758277e+2, -993317.9, -1482309.1, 55349.1, 0.032161754, 0.5002754, -987131.2, 408598.78, 0.016283108, 10.004152, 9.997578 
2.6159054e+3, 1.6757968e+2, -1006795.9, -1430737.8, -9563.046, 0.010417089, 0.49295062, -1006580.3, 291181.2, 0.0032795111, 10.003307, 9.9976635 
2.615798e+3, 1.7757659e+2, -1040243.1, -1363915.5, -51869.83, -0.07708983, 0.46683797, -1032133.94, 167658.63, 0.00021471149, 10.002256, 9.997957 
2.6156926e+3, 1.8757446e+2, -959893.94, -1101778.3, -37529.242, -0.04000269, 0.42330867, -950578.8, 151232.69, 0.00000047553752, 10.001398, 9.999494 
2.6155874e+3, 1.9757287e+2, -1001903.4, -1110596.0, 13670.454, 0.04219795, 0.3755603, -1000210.4, 3613.6602, 0.0, 10.000603, 9.9991455 
2.615483e+3, 2.0757131e+2, -936448.4, -1052357.6, 89322.31, 0.030242579, 0.38269803, -887926.7, 17910.385, 0.0, 10.000491, 9.998922 
2.6153794e+3, 2.1756986e+2, -837202.06, -989895.5, 69318.04, -0.016873378, 0.40202123, -810428.44, -2578.8987, 0.0, 10.000651, 9.998604 
2.615275e+3, 2.2756764e+2, -805723.75, -940976.25, 25106.154, 0.0015382264, 0.39323473, -801213.8, -91341.484, 0.0, 10.00027, 9.998448 
2.6151708e+3, 2.3756534e+2, -790325.06, -863204.9, 33508.645, 0.03797666, 0.3699501, -777260.44, -165363.55, 0.0, 9.999617, 9.998626 
2.6150665e+3, 2.4756376e+2, -643562.56, -606241.75, 80810.484, -0.054042965, 0.33658677, -541965.2, -28055.787, 0.0, 9.999371, 9.999833 
2.6149616e+3, 2.5756258e+2, -574469.3, -545724.56, 81501.03, -0.18987067, 0.29610145, -477338.38, -61422.38, 0.0, 9.999269, 9.999628 
2.6148573e+3, 2.675617e+2, -571860.56, -469667.9, -18565.402, -0.09271243, 0.29280716, -466399.66, -148475.4, 0.0, 9.998509, 9.999842 
2.6147532e+3, 2.775611e+2, -629162.9, -457951.63, -48435.207, 0.09712299, 0.30280802, -445199.25, -225268.23, 0.0, 9.99749, 9.9997425 
2.6146477e+3, 2.8756028e+2, -581716.0, -332338.2, -20397.775, 0.072015986, 0.27976683, -330680.75, -208741.28, 0.0, 9.996919, 10.000208 
2.614541e+3, 2.975596e+2, -550596.8, -261178.58, -2156.125, -0.07821423, 0.24434082, -261162.52, -237216.13, 0.0, 9.996432, 10.000261 
2.6144338e+3, 3.075614e+2, -627620.56, -139381.56, -67154.22, -0.07705241, 0.38987827, -130313.35, -130313.35, 0.0, 9.994993, 10.001457 
2.6143277e+3, 3.175613e+2, -603081.75, 54930.58, 161316.66, -0.049244784, 0.2864361, 92350.555, 92350.555, 0.0, 9.994348, 10.003116 
2.6263338e+3, 1.2769511e+2, -1083302.9, -1581443.9, -10447.914, 0.06304274, 0.3630123, -1083083.8, 605544.75, 0.11363326, 10.005713, 9.99826 
2.626225e+3, 1.376932e+2, -1047970.44, -1543684.8, -41661.92, -0.044227816, 0.40438008, -1044493.4, 546153.5, 0.07429587, 10.005151, 9.998048 
2.626119e+3, 1.4769126e+2, -1076164.0, -1496225.8, 19459.729, -0.05718258, 0.46217373, -1075264.5, 417400.97, 0.038128417, 10.004025, 9.998208 
2.626014e+3, 1.5768941e+2, -1174009.1, -1542223.1, 32627.133, 0.010682907, 0.5157217, -1171140.4, 223543.34, 0.013428071, 10.00277, 9.997827 
2.6259074e+3, 1.676863e+2, -1117369.5, -1494832.4, 41525.754, 0.016509295, 0.50296146, -1112855.1, 183860.8, 0.0025630337, 10.002603, 9.997557 
2.6258007e+3, 1.7768289e+2, -962207.25, -1341416.8, 62035.793, -0.015164842, 0.46096852, -952316.6, 246434.7, 0.00015052193, 10.002869, 9.997811 
2.625695e+3, 1.8768056e+2, -740237.94, -1025652.7, 43489.418, 0.013558271, 0.42310417, -733758.44, 367014.25, 0.0000001940375, 10.003043, 9.999219 
2.625589e+3, 1.9767882e+2, -647662.94, -958648.7, 17047.162, 0.06951052, 0.38622057, -646731.25, 356055.53, 0.0, 10.003124, 9.99897 
2.6254842e+3, 2.076772e+2, -710876.2, -937328.8, 72794.96, 0.033723075, 0.39126977, -689494.56, 215305.67, 0.0, 10.002018, 9.998974 
2.6253793e+3, 2.1767576e+2, -854052.56, -989749.6, 73215.6, -0.034776647, 0.4096806, -822081.5, -15269.15, 0.0, 10.000507, 9.998671 
2.6252747e+3, 2.276737e+2, -817736.06, -934141.9, 59360.176, -0.015716327, 0.4061347, -792805.25, -83971.07, 0.0, 10.00014, 9.998554 
2.6251704e+3, 2.3767152e+2, -702754.7, -805227.44, 78052.2, 0.037959076, 0.3874217, -660624.56, -49766.766, 0.0, 10.000156, 9.99876 
2.625065e+3, 2.4767005e+2, -665896.56, -593346.56, 94218.914, -0.040398784, 0.3482658, -528660.75, -15791.792, 0.0, 9.99912, 10.000039 
2.6249593e+3, 2.5766903e+2, -797722.56, -642094.8, 66907.086, -0.16662192, 0.30181682, -617285.3, -202411.42, 0.0, 9.997695, 9.999721 
2.6248547e+3, 2.676681e+2, -775190.2, -597728.8, 15527.013, -0.08026823, 0.30925506, -596380.5, -279497.5, 0.0, 9.9972515, 9.999565 
2.62475e+3, 2.7766728e+2, -694839.8, -497904.2, 48945.598, 0.102593355, 0.32920864, -486410.28, -267517.78, 0.0, 9.997083, 9.999661 
2.6246437e+3, 2.8766656e+2, -616955.25, -289457.0, 63249.805, 0.077055015, 0.28876767, -277666.06, -156766.56, 0.0, 9.996425, 10.000737 
2.6245365e+3, 2.9766622e+2, -640622.44, -262459.25, 35227.113, -0.07467791, 0.23645966, -259205.72, -236303.66, 0.0, 9.99564, 10.000631 
2.6244283e+3, 3.0766883e+2, -511946.84, -92325.555, -52700.137, -0.11831725, 0.4535933, -85808.18, -85808.18, 0.0, 9.995833, 10.00137 
2.6243225e+3, 3.1766734e+2, -495052.3, 77953.77, 210127.77, 0.018834228, 0.21958445, 146750.14, 146750.14, 0.0, 9.995228, 10.002843 
2.636338e+3, 1.2780347e+2, -1177445.4, -1759647.4, -31671.521, -0.039307572, 0.5097329, -1175727.5, 511838.75, 0.09862073, 10.005509, 9.997038 
2.6362318e+3, 1.3779877e+2, -1098066.1, -1648645.3, -59501.277, 0.15712734, 0.38641974, -1091709.1, 497906.88, 0.06380611, 10.005081, 9.997338 
2.636124e+3, 1.4779659e+2, -1012408.7, -1391656.1, -23562.129, 0.08817036, 0.3988011, -1010950.44, 480684.9, 0.03216125, 10.004118, 9.998908 
2.6360157e+3, 1.5779538e+2, -1097690.3, -1428408.5, -719.32294, -0.026152471, 0.44766667, -1097688.6, 295954.5, 0.010976853, 10.002959, 9.99852 
2.6359096e+3, 1.677925e+2, -1049085.5, -1386482.0, 47538.824, 0.030680666, 0.3912979, -1042515.25, 253155.06, 0.0019851995, 10.002741, 9.998237 
2.6358047e+3, 1.7778924e+2, -947394.7, -1316522.0, 66318.53, 0.12731238, 0.30323413, -935841.3, 261861.05, 0.000104982326, 10.002889, 9.997976 
2.635698e+3, 1.8778725e+2, -829863.75, -1204731.3, 47094.094, 0.09767023, 0.36934242, -824037.9, 275685.84, 0.00000008640195, 10.003008, 9.99801 
2.6355913e+3, 1.977858e+2, -716170.44, -1083112.9, 9260.517, 0.028474212, 0.47651932, -715936.9, 285803.1, 0.0, 10.003042, 9.998158 
2.6354852e+3, 2.0778348e+2, -700012.94, -903709.75, 16577.58, 0.004960994, 0.42359236, -698672.56, 205087.48, 0.0, 10.0019655, 9.999231 
2.6353794e+3, 2.1778105e+2, -838353.8, -952925.44, 33569.684, -0.009103185, 0.31760767, -829242.44, -23462.75, 0.0, 10.000483, 9.998939 
2.635274e+3, 2.2777976e+2, -798005.3, -890819.8, 63123.336, -0.06593373, 0.36317077, -766065.94, -58271.75, 0.0, 10.000126, 9.998861 
2.635168e+3, 2.3777893e+2, -694414.7, -783205.2, 66096.71, -0.12742978, 0.44927812, -659187.6, -49381.67, 0.0, 10.000131, 9.998927 
2.6350638e+3, 2.4777707e+2, -683125.1, -628196.3, 37735.03, -0.04814717, 0.3795241, -608989.25, -97166.766, 0.0, 9.99911, 9.999807 
2.634959e+3, 2.5777516e+2, -794452.25, -639180.9, 24534.154, 0.058889672, 0.2622275, -635396.5, -221558.7, 0.0, 9.997705, 9.999739 
2.634852e+3, 2.6777527e+2, -727601.25, -500183.1, 9664.679, -0.015343238, 0.33287945, -499773.1, -183937.45, 0.0, 9.997251, 10.000238 
2.6347443e+3, 2.7777612e+2, -659777.56, -430587.7, 37887.816, -0.114350356, 0.45301244, -424486.78, -206659.55, 0.0, 9.9971, 10.000118 
2.634639e+3, 2.8777483e+2, -625694.8, -306935.22, 31179.012, 0.013061214, 0.34679937, -303914.13, -184075.45, 0.0, 9.996415, 10.000625 
2.6345333e+3, 2.9777324e+2, -657071.5, -288112.56, 20854.324, 0.10728242, 0.18612614, -286937.56, -265085.16, 0.0, 9.995598, 10.000479 
2.6344246e+3, 3.077754e+2, -523950.6, -136886.27, -31049.533, -0.01226966, 0.38256854, -134411.36, -134411.36, 0.0, 9.995908, 10.001034 
2.634317e+3, 3.1777513e+2, -526961.6, 7428.9644, 58301.883, -0.009056377, 0.30706266, 13715.726, 13715.726, 0.0, 9.99526, 10.002334 
2.646342e+3, 1.2791018e+2, -1303393.5, -1846466.4, 18049.162, -0.08877787, 0.41684666, -1302794.3, 383722.06, 0.08499938, 10.004574, 9.996892 
2.6462364e+3, 1.3790637e+2, -1131103.1, -1683701.0, 33574.58, 0.177051, 0.40287283, -1129070.8, 459488.38, 0.054388173, 10.004876, 9.997193 
2.6461282e+3, 1.4790374e+2, -910143.94, -1359814.6, 39462.402, 0.13168609, 0.38947195, -906707.0, 583876.1, 0.026903585, 10.004906, 9.998743 
2.6460195e+3, 1.579017e+2, -827615.7, -1300384.3, 13907.168, 0.021981575, 0.37124875, -827206.94, 565392.06, 0.008891578, 10.004845, 9.998492 
2.6459128e+3, 1.678991e+2, -837565.75, -1252255.5, 34226.926, 0.03850473, 0.32552585, -834759.8, 459863.16, 0.0015266923, 10.004064, 9.998518 
2.6458067e+3, 1.778965e+2, -912222.4, -1279739.0, 33604.047, 0.087924, 0.27562794, -909175.06, 287472.84, 0.00007381441, 10.003051, 9.998147 
2.6456997e+3, 1.8789464e+2, -914856.3, -1261300.3, 64597.297, 0.035230186, 0.3590877, -903203.56, 195464.89, 0.000000036839044, 10.002499, 9.997863 
2.6455924e+3, 1.9789314e+2, -863578.7, -1166571.9, 76301.09, -0.04571314, 0.47680202, -845449.0, 155237.48, 0.0, 10.002092, 9.998039 
2.645486e+3, 2.0789054e+2, -811219.5, -964248.1, 56094.117, -0.018308029, 0.40782842, -792860.25, 109849.445, 0.0, 10.001239, 9.999164 
2.6453796e+3, 2.1788782e+2, -871242.7, -962700.94, 61154.457, 0.039401073, 0.27914068, -840610.7, -35878.203, 0.0, 10.0002365, 9.998987 
2.6452732e+3, 2.278868e+2, -856212.1, -881588.7, 114589.22, -0.04956501, 0.3305227, -753610.9, -46866.37, 0.0, 9.99957, 9.99919 
2.6451668e+3, 2.3788646e+2, -837199.6, -824515.75, 115679.35, -0.16939805, 0.435988, -715004.6, -106253.01, 0.0, 9.999039, 9.9991665 
2.6450622e+3, 2.4788508e+2, -698472.25, -639373.3, 89524.7, -0.04271699, 0.40816584, -574647.44, -63882.074, 0.0, 9.999027, 9.999768 
2.644958e+3, 2.5788352e+2, -582917.06, -523744.75, 86483.71, 0.14955992, 0.3333437, -461926.47, -49147.285, 0.0, 9.999105, 9.999854 
2.6448497e+3, 2.678836e+2, -551688.44, -358242.34, 65405.965, 0.043754384, 0.36559626, -338203.72, -23427.965, 0.0, 9.9982195, 10.000743 
2.644741e+3, 2.778843e+2, -654449.7, -402270.94, 81415.59, -0.120288484, 0.42543724, -378270.25, -161504.22, 0.0, 9.99703, 10.000344 
2.644635e+3, 2.8788304e+2, -601850.56, -348512.28, 56944.977, 0.019110698, 0.34799588, -336300.9, -217523.08, 0.0, 9.996816, 10.000143 
2.6445293e+3, 2.978815e+2, -502000.88, -242304.92, 18660.564, 0.13863604, 0.23486257, -240970.9, -220177.67, 0.0, 9.996794, 10.000214 
2.6444197e+3, 3.0788228e+2, -550901.44, -129888.625, -6932.263, -0.021770487, 0.29198435, -129774.516, -129774.516, 0.0, 9.995643, 10.001206 
2.6443106e+3, 3.1788364e+2, -650715.44, -58358.508, 6295.5474, -0.07176, 0.37389475, -58291.605, -58291.605, 0.0, 9.994458, 10.00226 
2.6563454e+3, 1.2801619e+2, -1251281.8, -1763930.9, 20191.467, -0.122362904, 0.19182155, -1250487.6, 434983.16, 0.07267203, 10.004681, 9.997402 
2.6562396e+3, 1.380155e+2, -1125795.6, -1667163.1, 34298.813, 0.07024364, 0.44119418, -1123631.3, 463852.38, 0.045970753, 10.004817, 9.9973345 
2.656132e+3, 1.4801225e+2, -976563.44, -1477119.8, 31763.068, 0.10456685, 0.4112271, -974555.94, 514959.47, 0.022301449, 10.004784, 9.997978 
2.656025e+3, 1.5800844e+2, -890773.8, -1392471.6, 17.88694, 0.116808474, 0.28710324, -890773.8, 500777.4, 0.0071342266, 10.004661, 9.997946 
2.6559162e+3, 1.6800618e+2, -858136.7, -1265266.8, -4820.013, 0.030847711, 0.29661182, -858079.6, 435492.75, 0.0011674124, 10.003929, 9.998495 
2.6558074e+3, 1.7800458e+2, -912098.9, -1263297.5, 4500.1973, -0.09424893, 0.346979, -912041.25, 283546.3, 0.000052712003, 10.002977, 9.998297 
2.6556998e+3, 1.8800268e+2, -872128.8, -1170414.4, 50404.914, -0.14039887, 0.3788734, -863841.5, 233765.8, 0.000000014947995, 10.002484, 9.998496 
2.6555932e+3, 1.9800077e+2, -838775.75, -1115955.8, 53544.22, -0.1524813, 0.3984655, -828791.94, 170835.44, 0.0, 10.00209, 9.99839 
2.6554865e+3, 2.0799834e+2, -835707.8, -1016794.9, 16889.783, -0.040636897, 0.35498905, -834146.0, 67504.21, 0.0, 10.001241, 9.998804 
2.6553798e+3, 2.1799591e+2, -882917.6, -986178.4, 30815.668, 0.096753456, 0.28869808, -874420.6, -70748.37, 0.0, 10.000228, 9.998833 
2.655273e+3, 2.2799468e+2, -830777.25, -832282.3, 94912.195, 0.024082508, 0.30346107, -736614.6, -30928.412, 0.0, 9.999581, 9.999525 
2.655166e+3, 2.3799406e+2, -815475.94, -783109.1, 103143.24, -0.10685742, 0.34850642, -694887.4, -87192.06, 0.0, 9.999048, 9.999449 
2.655061e+3, 2.4799404e+2, -687230.5, -619029.44, 94287.13, -0.034749348, 0.4368039, -552865.75, -43167.832, 0.0, 9.999035, 9.9999075 
2.6549557e+3, 2.579942e+2, -563909.0, -493121.56, 76567.74, 0.090034746, 0.52010095, -444162.84, -32465.188, 0.0, 9.999138, 10.000052 
2.6548478e+3, 2.6799306e+2, -527935.25, -313697.44, 18298.387, 0.10249589, 0.40284118, -312145.78, 1557.8402, 0.0, 9.998234, 10.001045 
2.6547396e+3, 2.7799174e+2, -656138.6, -408241.7, 51590.508, 0.09989316, 0.23408407, -397933.66, -182223.77, 0.0, 9.997036, 10.000303 
2.654632e+3, 2.8799123e+2, -662315.1, -482311.7, 60380.367, 0.08869871, 0.2901137, -463933.97, -346216.53, 0.0, 9.996845, 9.999213 
2.6545236e+3, 2.9799104e+2, -515990.22, -293279.06, 176.3964, -0.03421996, 0.39994097, -293278.9, -273554.63, 0.0, 9.9968815, 9.9998255 
2.6544133e+3, 3.079895e+2, -488414.72, 1182.9451, -68544.586, -0.15835297, 0.18075553, 10598.252, 10598.252, 0.0, 9.995627, 10.002119 
2.6543045e+3, 3.179926e+2, -646779.44, -46520.793, -37817.934, -0.0664112, 0.35374865, -44147.543, -44147.543, 0.0, 9.994417, 10.002375 
2.6663512e+3, 1.2812477e+2, -1098289.8, -1666331.8, 3333.5198, -0.00011086129, 0.24179563, -1098270.1, 586136.8, 0.06153642, 10.005659, 9.997612 
2.6662433e+3, 1.3812286e+2, -1158077.6, -1677987.0, 288.10788, 0.045923755, 0.3537615, -1158077.5, 428350.25, 0.03847137, 10.004527, 9.9974 
2.666135e+3, 1.4811967e+2, -1150499.9, -1601592.5, 16504.758, 0.041658524, 0.34751529, -1149896.9, 338563.53, 0.018293448, 10.003724, 9.997629 
2.6660272e+3, 1.5811624e+2, -1126984.4, -1520995.9, 1269.956, 0.060723532, 0.2940224, -1126980.3, 263514.75, 0.0056640357, 10.003087, 9.997819 
2.6659185e+3, 1.681143e+2, -1012998.4, -1299873.3, 12474.083, -0.008997377, 0.3179834, -1012457.0, 280055.84, 0.00088699936, 10.0027, 9.998845 
2.665809e+3, 1.7811297e+2, -975039.3, -1261771.6, 44548.266, -0.11746673, 0.362485, -968277.56, 226246.88, 0.00003796397, 10.002414, 9.998575 
2.6657018e+3, 1.8811072e+2, -893776.44, -1164404.8, 84274.11, -0.13040319, 0.34364912, -869679.06, 226867.17, 0.0000000057994387, 10.002274, 9.998635 
2.665595e+3, 1.9810839e+2, -819117.4, -1088173.3, 48989.355, -0.10120492, 0.30619577, -810475.06, 188094.23, 0.0, 10.002155, 9.998546 
2.6654875e+3, 2.081065e+2, -782847.9, -976788.3, 10991.799, -0.0032430233, 0.3049851, -782226.94, 118360.82, 0.0, 10.001548, 9.998926 
2.6653802e+3, 2.181049e+2, -791293.2, -925123.75, 56994.68, 0.108579755, 0.3101585, -770310.5, 32292.959, 0.0, 10.0007925, 9.998975 
2.6652724e+3, 2.2810379e+2, -732934.8, -765642.0, 128392.195, 0.04880987, 0.32209027, -619858.9, 84757.305, 0.0, 10.000175, 9.999693 
2.6651654e+3, 2.3810306e+2, -729450.94, -719581.44, 123840.9, -0.056044057, 0.33915555, -600577.0, 6048.87, 0.0, 9.99955, 9.99964 
2.6650587e+3, 2.481032e+2, -784049.7, -640205.75, 114341.77, -0.054654807, 0.42358953, -577047.0, -68420.26, 0.0, 9.998265, 10.00013 
2.6649523e+3, 2.5810364e+2, -884726.25, -627873.1, 105804.13, -0.016716916, 0.5132941, -589902.9, -179278.83, 0.0, 9.996855, 10.000224 
2.6648447e+3, 2.6810238e+2, -675439.56, -383557.0, 44728.973, 0.06788033, 0.3788048, -376856.4, -64224.953, 0.0, 9.997222, 10.00105 
2.6647374e+3, 2.781008e+2, -519772.1, -340275.88, 52790.47, 0.18250741, 0.18417759, -325901.2, -111260.62, 0.0, 9.997969, 10.000317 
2.6646286e+3, 2.88101e+2, -617632.75, -453572.63, 104386.195, 0.10744828, 0.30831763, -402841.97, -286199.53, 0.0, 9.997128, 9.99927 
2.6645187e+3, 2.981017e+2, -665270.25, -368923.56, 112481.484, -0.109907314, 0.50457865, -331066.2, -312424.06, 0.0, 9.995879, 9.999785 
2.6644093e+3, 3.0809894e+2, -420528.72, 6487.105, -8539.713, -0.102931075, 0.18476535, 6657.819, 6657.819, 0.0, 9.9962225, 10.0018635 
2.6643e+3, 3.1810147e+2, -335986.16, 88664.66, -69242.69, 0.0005012077, 0.32390365, 99670.01, 99670.01, 0.0, 9.996622, 10.002234 
2.6763585e+3, 1.2823497e+2, -1096281.0, -1661945.6, -37794.863, 0.19667338, 0.4478688, -1093766.9, 589564.1, 0.051514916, 10.005605, 9.997665 
2.6762477e+3, 1.382294e+2, -1137227.6, -1669907.1, -29253.873, 0.0601128, 0.18756041, -1135625.9, 449756.16, 0.031813074, 10.004657, 9.997394 
2.6761374e+3, 1.482267e+2, -1141848.6, -1611504.9, -1860.8427, -0.052997306, 0.23683597, -1141841.3, 345569.53, 0.014818191, 10.003827, 9.997515 
2.6760283e+3, 1.58225e+2, -1120903.3, -1506992.6, -10700.599, -0.10381787, 0.36730114, -1120607.0, 268823.9, 0.0044402415, 10.003075, 9.997925 
2.6759198e+3, 1.6822328e+2, -968692.5, -1215406.5, 4626.9185, -0.07033452, 0.37024388, -968605.75, 322840.16, 0.00066738925, 10.002727, 9.999415 
2.6758116e+3, 1.7822161e+2, -945043.1, -1212285.1, 35089.305, -0.029983211, 0.3294934, -940512.7, 252946.03, 0.000027206008, 10.002464, 9.998894 
2.675705e+3, 1.8821889e+2, -910943.4, -1200900.4, 80415.48, 0.016369509, 0.266397, -890134.6, 205349.52, 0.000000001728097, 10.002271, 9.998388 
2.6755983e+3, 1.9821608e+2, -832325.4, -1097499.5, 39100.145, 0.06560168, 0.20351966, -826680.25, 170830.78, 0.0, 10.002071, 9.998525 
2.6754895e+3, 2.0821507e+2, -756066.94, -910128.06, -16417.361, 0.07618412, 0.25733712, -754336.9, 145185.13, 0.0, 10.001496, 9.999411 
2.6753798e+3, 2.182147e+2, -772179.2, -878721.8, 33304.324, 0.068682864, 0.3396856, -762625.25, 38901.863, 0.0, 10.000757, 9.999313 
2.675272e+3, 2.2821403e+2, -734317.0, -765796.9, 106758.32, 0.02724451, 0.3821922, -642144.5, 61391.105, 0.0, 10.000159, 9.999702 
2.6751646e+3, 2.3821336e+2, -725083.44, -706571.06, 90904.484, -0.025964543, 0.4042907, -624452.75, -18908.74, 0.0, 9.999528, 9.999743 
2.6750556e+3, 2.4821246e+2, -765460.94, -599977.94, 56472.535, -0.10620492, 0.36401984, -582543.06, -74990.56, 0.0, 9.998255, 10.000413 
2.6749468e+3, 2.5821173e+2, -875655.94, -612963.4, 77531.22, -0.18818955, 0.3096583, -591787.75, -182228.75, 0.0, 9.996867, 10.000322 
2.67484e+3, 2.682115e+2, -697173.06, -433042.22, 77464.09, -0.075365156, 0.2968971, -411999.94, -100440.266, 0.0, 9.997232, 10.000709 
2.674734e+3, 2.7821156e+2, -503637.1, -321046.03, 58046.414, 0.10284293, 0.29630786, -304155.3, -90597.78, 0.0, 9.998024, 10.000426 
2.674625e+3, 2.8821248e+2, -531494.2, -278694.44, 50694.3, 0.06986338, 0.4079574, -268907.53, -153355.63, 0.0, 9.997137, 10.00047 
2.6745144e+3, 2.982136e+2, -651481.4, -331373.5, 92659.45, -0.07638167, 0.54038566, -306486.8, -288941.72, 0.0, 9.995834, 10.000069 
2.674408e+3, 3.0821097e+2, -541797.4, -258674.34, 26286.025, 0.19244878, 0.3447301, -256254.56, -256254.56, 0.0, 9.996272, 10.000022 
2.6742968e+3, 3.1820887e+2, -339986.44, 36739.406, -51685.63, 0.066842236, 0.18754357, 43701.84, 43701.84, 0.0, 9.996804, 10.001793 
2.6863626e+3, 1.2834361e+2, -1075410.3, -1611617.8, 9513.703, 0.12103474, 0.41422454, -1075241.5, 607027.1, 0.04254469, 10.005509, 9.9980755 
2.6862523e+3, 1.3833967e+2, -943222.06, -1535078.8, 20122.637, 0.07761805, 0.27859166, -942538.7, 641764.2, 0.025929106, 10.005828, 9.997762 
2.6861414e+3, 1.4833693e+2, -1008178.6, -1517365.6, 44281.848, -0.025588633, 0.29724863, -1004356.3, 481974.38, 0.0118174, 10.00463, 9.99777 
2.686031e+3, 1.5833476e+2, -1113842.3, -1495746.5, 67692.85, -0.089070275, 0.35936472, -1102198.6, 286155.66, 0.0034243166, 10.003092, 9.99799 
2.6859224e+3, 1.6833279e+2, -972391.94, -1258923.9, 78786.61, -0.039503984, 0.36344188, -952157.25, 338215.22, 0.0004946017, 10.002888, 9.999035 
2.6858148e+3, 1.7833096e+2, -873862.56, -1196782.8, 47789.664, 0.027268823, 0.34228742, -866938.56, 325449.6, 0.00001910125, 10.00304, 9.998719 
2.685707e+3, 1.8832827e+2, -906311.7, -1174351.0, 81770.85, 0.029948333, 0.27568594, -883335.3, 211077.27, 0.0000000002885943, 10.002206, 9.998597 
2.6855987e+3, 1.9832556e+2, -952193.3, -1122793.3, 65857.586, 0.021049693, 0.20230995, -929728.2, 66709.16, 0.0, 10.001115, 9.998807 
2.685489e+3, 2.0832485e+2, -859983.06, -913634.1, 19347.133, 0.009612957, 0.25060502, -853734.1, 44710.645, 0.0, 10.000588, 9.999821 
2.6853788e+3, 2.1832484e+2, -832679.8, -878862.8, 64644.375, -0.0040585822, 0.33190432, -787126.5, 13319.421, 0.0, 10.000226, 9.999564 
2.685271e+3, 2.2832412e+2, -796244.25, -807407.2, 129889.55, -0.014069603, 0.3687143, -671816.3, 30638.588, 0.0, 9.999789, 9.999593 
2.6851633e+3, 2.3832326e+2, -762471.75, -729200.75, 97475.97, -0.017735682, 0.38331148, -646950.94, -42486.01, 0.0, 9.999298, 9.999694 
2.6850542e+3, 2.4832222e+2, -689700.1, -561830.7, 34582.605, -0.05922915, 0.32935977, -553077.0, -46602.48, 0.0, 9.9987755, 10.000421 
2.6849443e+3, 2.5832132e+2, -691032.8, -530939.9, 46888.79, -0.11455611, 0.2583673, -518217.8, -109735.586, 0.0, 9.998173, 10.000253 
2.6848367e+3, 2.6832128e+2, -714655.0, -467613.03, 73027.836, -0.072654545, 0.2839791, -447640.1, -137156.73, 0.0, 9.997232, 10.000467 
2.6847297e+3, 2.783217e+2, -757973.06, -439579.38, 52697.96, 0.02550395, 0.33735034, -431083.9, -218602.94, 0.0, 9.996266, 10.000456 
2.684621e+3, 2.8832278e+2, -595426.2, -238975.53, 543.9345, 0.046015646, 0.4272413, -238974.7, -124502.78, 0.0, 9.996404, 10.001092 
2.6845106e+3, 2.9832408e+2, -503304.22, -242966.98, 18734.234, -0.012358186, 0.5170013, -241625.75, -225164.56, 0.0, 9.996786, 10.000212 
2.6844046e+3, 3.0832162e+2, -437050.03, -303245.13, 38965.418, 0.24198836, 0.38767233, -292725.1, -292725.1, 0.0, 9.997406, 9.999165 
2.6842934e+3, 3.1831837e+2, -137902.9, 101295.83, 12942.723, 0.030885635, 0.1938844, 101994.1, 101994.1, 0.0, 9.9983425, 10.001489 
2.696365e+3, 1.2845166e+2, -1055046.4, -1534430.4, 21088.854, -0.12294086, 0.25452906, -1054120.5, 627090.4, 0.03455843, 10.005315, 9.998711 
2.6962578e+3, 1.3845253e+2, -962025.7, -1483987.0, 6167.6406, 0.09355816, 0.5374104, -961952.8, 621247.8, 0.020757047, 10.0054, 9.998325 
2.6961464e+3, 1.4844936e+2, -999622.3, -1461117.3, -21211.479, 0.07549303, 0.46124113, -998649.44, 486580.47, 0.0092377765, 10.004447, 9.998248 
2.6960346e+3, 1.5844527e+2, -1102414.8, -1493481.6, 27710.758, 0.034744866, 0.29185423, -1100461.0, 286807.3, 0.002583295, 10.003179, 9.997965 
2.6959255e+3, 1.6844282e+2, -1039476.9, -1409920.8, 87938.98, 0.047982655, 0.3181416, -1019661.2, 269631.9, 0.00035840768, 10.002932, 9.99798 
2.6958174e+3, 1.7844096e+2, -926266.9, -1283300.6, 44165.953, 0.053416885, 0.39131024, -920884.56, 270427.88, 0.000012945244, 10.00294, 9.998176 
2.6957074e+3, 1.8843868e+2, -881943.9, -1106925.5, 44184.55, -0.064294375, 0.352112, -873577.5, 219755.05, 0.000000000007316074, 10.002129, 9.999101 
2.695597e+3, 1.9843651e+2, -924621.44, -1056899.3, 36863.348, -0.20222388, 0.28046617, -915042.06, 80308.94, 0.0, 10.001072, 9.999283 
2.6954874e+3, 2.0843567e+2, -833554.44, -861735.6, 6644.0264, -0.17793356, 0.27539033, -832066.56, 65291.086, 0.0, 10.000596, 10.000176 
2.6953778e+3, 2.1843529e+2, -820954.4, -858110.1, 50410.594, -0.112959154, 0.28827623, -785807.4, 13553.038, 0.0, 10.000235, 9.999705 
2.6952696e+3, 2.2843407e+2, -812128.5, -842418.75, 110803.125, -0.07790622, 0.2877071, -715440.25, -14066.3125, 0.0, 9.999795, 9.99935 
2.695162e+3, 2.384328e+2, -779179.1, -764376.44, 77274.76, -0.042638816, 0.28448, -694149.4, -90760.94, 0.0, 9.999295, 9.999455 
2.6950538e+3, 2.4843244e+2, -707213.56, -600313.94, 12064.507, 0.084832296, 0.32355067, -598969.25, -93576.484, 0.0, 9.998778, 10.000157 
2.694945e+3, 2.5843242e+2, -703467.5, -563351.94, 19580.623, 0.20404115, 0.36596185, -560667.06, -153273.28, 0.0, 9.998196, 10.000022 
2.6948348e+3, 2.6843166e+2, -725663.8, -490864.44, 30805.209, 0.077388704, 0.33929834, -486890.13, -177486.94, 0.0, 9.997231, 10.000311 
2.6947245e+3, 2.7843103e+2, -769802.94, -457600.94, 31272.36, -0.07071269, 0.3007256, -454499.28, -243086.98, 0.0, 9.996234, 10.000351 
2.6946163e+3, 2.8843167e+2, -602860.75, -253178.14, 13897.066, 0.03522493, 0.35438785, -252626.7, -139221.11, 0.0, 9.996391, 10.001003 
2.694508e+3, 2.9843262e+2, -489405.38, -233943.28, 32467.367, 0.0901275, 0.4193556, -229881.5, -214486.05, 0.0, 9.996865, 10.000238 
2.6943985e+3, 3.084303e+2, -396791.5, -246406.45, 61524.965, -0.071217604, 0.28209504, -224443.23, -224443.23, 0.0, 9.997515, 9.999506 
2.6942906e+3, 3.1843162e+2, -134769.92, 67174.26, 18840.107, -0.04973692, 0.5172237, 68916.88, 68916.88, 0.0, 9.998496, 10.001192 
2.7063695e+3, 1.2856214e+2, -1209931.8, -1615407.9, 21614.033, -0.101178385, 0.28316954, -1208782.9, 471346.38, 0.027497632, 10.00421, 9.998665 
2.706261e+3, 1.3856246e+2, -1361941.6, -1656389.6, -15416.572, 0.10981371, 0.5128005, -1361136.6, 220988.48, 0.016245285, 10.002487, 9.998532 
2.7061492e+3, 1.4855981e+2, -1162349.6, -1470314.8, -15864.972, 0.053911403, 0.44146958, -1161534.4, 322613.28, 0.007038469, 10.003018, 9.998868 
2.7060372e+3, 1.5855643e+2, -950996.06, -1385073.3, 29866.203, -0.021949954, 0.28669482, -948950.8, 437226.53, 0.0018931088, 10.004071, 9.998277 
2.705928e+3, 1.6855375e+2, -1010802.2, -1424031.6, 108193.73, 0.018894376, 0.29871437, -984188.44, 304015.44, 0.00025138617, 10.003252, 9.997726 
2.7058193e+3, 1.7855148e+2, -1067108.6, -1345520.3, 106930.85, 0.06732309, 0.35285592, -1030779.6, 159447.75, 0.000008335715, 10.001951, 9.998222 
2.7057087e+3, 1.8854962e+2, -979015.3, -1090413.8, 119012.88, -0.02478097, 0.31691077, -903312.6, 188930.05, 0.0, 10.001193, 9.999662 
2.705598e+3, 1.9854802e+2, -977287.7, -1067069.1, 121847.2, -0.1443393, 0.25734764, -892325.0, 101929.59, 0.0, 10.000651, 9.9994135 
2.7054876e+3, 2.0854674e+2, -846360.06, -945001.6, 59832.242, -0.16011098, 0.25429174, -818140.94, 78125.93, 0.0, 10.000846, 9.999481 
2.7053773e+3, 2.1854569e+2, -717828.4, -856219.06, 25602.51, -0.14037701, 0.26416114, -713243.75, 85034.336, 0.0, 10.001156, 9.99927 
2.705269e+3, 2.2854428e+2, -737565.7, -805867.0, 62618.57, -0.10395587, 0.25898674, -700390.7, -97.36921, 0.0, 10.00031, 9.99935 
2.7051604e+3, 2.3854299e+2, -793369.2, -765232.06, 50950.313, -0.049926776, 0.2504303, -726443.6, -124135.875, 0.0, 9.999179, 9.999503 
2.705052e+3, 2.485428e+2, -713200.94, -590137.06, 20919.17, 0.079087, 0.29811168, -586678.3, -82368.42, 0.0, 9.998688, 10.000268 
2.7049428e+3, 2.5854295e+2, -681461.7, -553580.5, 51118.684, 0.20716937, 0.3551306, -535658.3, -129349.85, 0.0, 9.998355, 10.000009 
2.7048317e+3, 2.6854235e+2, -604422.06, -458957.72, 57515.31, 0.07908865, 0.3557598, -438964.6, -130646.38, 0.0, 9.998183, 10.000067 
2.704721e+3, 2.7854165e+2, -527603.2, -362297.13, 60907.035, -0.07514886, 0.33854526, -342279.88, -131950.88, 0.0, 9.997997, 10.000151 
2.7046132e+3, 2.8854176e+2, -393575.75, -167768.28, 58954.75, 0.04815316, 0.35473767, -153302.81, -40976.36, 0.0, 9.997902, 10.000859 
2.704505e+3, 2.9854205e+2, -367014.9, -183309.78, 68397.836, 0.1272793, 0.36875555, -160640.92, -146319.84, 0.0, 9.997746, 10.000159 
2.7043942e+3, 3.0853996e+2, -455755.2, -261768.94, 76900.27, -0.15161209, 0.24661417, -234982.75, -234982.75, 0.0, 9.997064, 9.999615 
2.7042875e+3, 3.185428e+2, -599978.44, -164043.48, -49875.582, 0.0039711404, 0.6286064, -158409.98, -158409.98, 0.0, 9.995344, 10.001117 
2.7163744e+3, 1.2867415e+2, -1219255.6, -1668285.4, -35027.4, 0.057550706, 0.41790086, -1216539.8, 462492.63, 0.021333952, 10.004337, 9.998227 
2.716263e+3, 1.3867073e+2, -1326817.1, -1643751.6, -27028.246, 0.11092743, 0.30928442, -1324528.6, 256535.69, 0.0123631945, 10.002743, 9.998496 
2.7161506e+3, 1.4866926e+2, -1094101.5, -1364382.1, 34736.08, -0.052694123, 0.31032982, -1089708.6, 393366.47, 0.0051936377, 10.0031595, 9.999536 
2.7160388e+3, 1.5866823e+2, -923212.6, -1314938.9, 37097.348, -0.20639199, 0.32821193, -919730.4, 465350.66, 0.0013372692, 10.004011, 9.998791 
2.7159294e+3, 1.6866547e+2, -999180.0, -1386784.9, 54481.4, -0.09374628, 0.2950468, -991667.75, 295438.78, 0.00016832622, 10.003191, 9.9980135 
2.7158207e+3, 1.786625e+2, -1039498.0, -1284321.3, 66300.96, 0.06512567, 0.24718782, -1022696.06, 166438.36, 0.0000049507566, 10.001931, 9.998654 
2.7157107e+3, 1.8866104e+2, -929868.75, -999962.25, 92720.73, 0.1167772, 0.19578922, -865792.3, 225351.97, 0.0, 10.00124, 10.000263 
2.7156007e+3, 1.9866002e+2, -982220.6, -1093735.8, 106260.164, 0.12878595, 0.15034133, -917977.7, 75172.02, 0.0, 10.000717, 9.999201 
2.7154896e+3, 2.086581e+2, -953911.3, -1176545.4, 72539.11, 0.018461844, 0.19717005, -932362.25, -37189.65, 0.0, 10.000879, 9.997877 
2.715378e+3, 2.186561e+2, -787708.0, -994818.6, 22419.877, -0.11305444, 0.26198795, -785308.8, 11889.077, 0.0, 10.001123, 9.998338 
2.7152684e+3, 2.2865479e+2, -724274.25, -774532.8, 19942.955, -0.09934858, 0.27935258, -717322.4, -18109.818, 0.0, 10.00029, 9.999577 
2.715159e+3, 2.386538e+2, -773420.06, -721552.9, 19262.652, -0.053600743, 0.27806637, -715181.6, -113958.91, 0.0, 9.999164, 9.999813 
2.7150482e+3, 2.4865325e+2, -681820.94, -526575.1, 8847.08, -0.08490772, 0.24886623, -526072.56, -22846.404, 0.0, 9.998691, 10.000705 
2.7149373e+3, 2.58653e+2, -665363.9, -528001.75, 42022.23, -0.13221537, 0.22632334, -516166.03, -110939.56, 0.0, 9.998384, 10.000173 
2.714828e+3, 2.686533e+2, -623883.94, -507732.8, 50748.973, -0.073527396, 0.3359931, -488683.63, -181455.25, 0.0, 9.998214, 9.99972 
2.7147192e+3, 2.7865368e+2, -536644.06, -400342.8, 56394.12, 0.023355957, 0.46191046, -380035.53, -170805.31, 0.0, 9.998075, 9.999855 
2.7146107e+3, 2.8865317e+2, -398309.25, -195590.84, 54046.867, 0.07570226, 0.43890765, -182081.64, -70847.93, 0.0, 9.997973, 10.000637 
2.7145016e+3, 2.9865253e+2, -371936.44, -208549.61, 53286.21, 0.052159894, 0.38443643, -192707.22, -179470.48, 0.0, 9.997807, 9.99996 
2.7143934e+3, 3.086506e+2, -470111.53, -285090.66, 39373.707, 0.12178847, 0.29592407, -277060.22, -277060.22, 0.0, 9.997027, 9.999475 
2.7142826e+3, 3.1865036e+2, -628386.5, -160164.73, -225680.72, 0.059424065, 0.37611032, -69099.21, -69099.21, 0.0, 9.995072, 10.001274 
2.726379e+3, 1.2878773e+2, -1072209.5, -1614121.6, 60521.86, 0.08325501, 0.45417687, -1065532.5, 612385.25, 0.016055375, 10.005409, 9.998091 
2.726266e+3, 1.3878314e+2, -1097352.1, -1582183.6, 95804.69, 0.10995179, 0.25659847, -1079107.3, 500853.22, 0.009094103, 10.004544, 9.998049 
2.7261534e+3, 1.4878109e+2, -1052973.0, -1456921.0, 122231.84, -0.043757766, 0.2880868, -1018866.25, 463113.06, 0.0036862856, 10.003931, 9.998521 
2.7260423e+3, 1.5877976e+2, -1032122.56, -1399116.3, 21961.154, -0.17870562, 0.3623379, -1030813.06, 353178.16, 0.000903587, 10.003403, 9.998502 
2.7259317e+3, 1.6877717e+2, -1019105.0, -1298037.3, 19830.623, -0.08529607, 0.2939799, -1017702.2, 268310.56, 0.00010594795, 10.002638, 9.998885 
2.7258217e+3, 1.7877445e+2, -1020406.2, -1233528.6, 70495.77, 0.05088411, 0.19504417, -999198.3, 188836.6, 0.0000025953589, 10.00189, 9.99902 
2.7257118e+3, 1.8877302e+2, -872553.06, -1030528.7, 67400.45, 0.11262235, 0.17217644, -847705.0, 242340.56, 0.0, 10.001889, 9.999736 
2.7256018e+3, 1.9877198e+2, -813216.06, -1044659.8, 18331.479, 0.1470408, 0.1702976, -811773.1, 180280.19, 0.0, 10.002024, 9.998904 
2.7254903e+3, 2.0876995e+2, -869005.3, -1128223.5, 56345.984, 0.023786906, 0.20906182, -857287.2, 36790.01, 0.0, 10.001434, 9.997939 
2.7253783e+3, 2.1876782e+2, -849753.2, -1012489.2, 99031.164, -0.12613006, 0.25706634, -802949.75, -6846.63, 0.0, 10.00065, 9.998443 
2.7252677e+3, 2.2876678e+2, -762970.25, -773436.3, 99303.97, -0.10814421, 0.28961748, -668761.5, 29352.705, 0.0, 9.999944, 9.999749 
2.7251577e+3, 2.3876607e+2, -761276.25, -726581.25, 100960.38, -0.04725268, 0.3069154, -641488.9, -41367.895, 0.0, 9.9993, 9.999709 
2.725047e+3, 2.4876477e+2, -639860.2, -572423.9, 49218.016, -0.073426165, 0.24853408, -546481.94, -44349.813, 0.0, 9.9992695, 10.000108 
2.7249354e+3, 2.587636e+2, -566380.56, -525969.4, 3551.9211, -0.12245588, 0.18744616, -525659.56, -121517.42, 0.0, 9.9992695, 9.999757 
2.7248254e+3, 2.6876372e+2, -602571.6, -510243.8, -1175.0265, -0.08733016, 0.30329144, -510228.88, -204084.25, 0.0, 9.998424, 9.9995985 
2.7247164e+3, 2.7876413e+2, -646070.06, -471601.7, 30625.316, -0.0004922929, 0.4424481, -466382.03, -258236.7, 0.0, 9.997409, 9.999683 
2.7246076e+3, 2.887632e+2, -495874.53, -272131.56, 44411.652, 0.04209946, 0.39859384, -263638.5, -153485.31, 0.0, 9.997438, 10.000365 
2.7244982e+3, 2.9876214e+2, -405215.34, -227878.13, 27461.563, 0.008890831, 0.3280838, -223722.92, -211562.5, 0.0, 9.9976015, 9.999922 
2.7243903e+3, 3.0876148e+2, -455972.97, -231846.56, 23017.871, 0.18140237, 0.33824223, -229507.03, -229507.03, 0.0, 9.996938, 9.999877 
2.7242783e+3, 3.187602e+2, -203249.4, 70238.52, -157607.61, 0.060227346, 0.27832377, 142154.73, 142154.73, 0.0, 9.997896, 10.00149 
2.7363834e+3, 1.2890238e+2, -1119224.5, -1630511.9, 8583.122, 0.020575725, 0.4377929, -1119080.5, 557710.44, 0.01164343, 10.005038, 9.99815 
2.73627e+3, 1.3889833e+2, -1142857.6, -1692397.0, 54615.91, 0.10237699, 0.30037025, -1137482.3, 441345.9, 0.0064216196, 10.004597, 9.997267 
2.7361578e+3, 1.4889461e+2, -1192634.1, -1761315.4, 100966.77, 0.037298623, 0.33346367, -1175240.0, 305627.88, 0.0024995767, 10.003981, 9.99641 
2.7360466e+3, 1.5889122e+2, -1096037.0, -1519855.1, 9577.237, -0.01603344, 0.38855886, -1095820.6, 287083.97, 0.00058026734, 10.003346, 9.997703 
2.7359346e+3, 1.68889e+2, -924438.56, -1112419.5, -5861.2524, 0.0008997977, 0.29567048, -924256.0, 360663.94, 0.00006205859, 10.002682, 10.000141 
2.7358228e+3, 1.788872e+2, -986134.94, -1191200.3, 50453.914, 0.018323423, 0.1821333, -974393.6, 212535.8, 0.0000011486238, 10.00201, 9.999254 
2.735712e+3, 1.8888554e+2, -966803.6, -1234433.4, 73742.734, -0.00867268, 0.22518614, -947829.7, 141116.03, 0.0, 10.001922, 9.9983225 
2.7356014e+3, 1.98884e+2, -848226.44, -1098274.5, 15679.701, -0.046939626, 0.29458204, -847247.06, 143715.61, 0.0, 10.001937, 9.99858 
2.7354896e+3, 2.0888229e+2, -773765.94, -921413.4, 27943.252, -0.11369631, 0.27659976, -768654.44, 124325.375, 0.0, 10.001392, 9.999381 
2.7353778e+3, 2.1888073e+2, -786185.5, -877337.56, 69571.97, -0.18188807, 0.24430098, -748590.44, 46404.793, 0.0, 10.000632, 9.999381 
2.735267e+3, 2.2888015e+2, -754815.94, -760141.4, 71412.234, -0.1323545, 0.28827128, -686016.8, 10983.197, 0.0, 9.999957, 9.999835 
2.7351564e+3, 2.3887974e+2, -797225.2, -807036.56, 85124.96, -0.04364575, 0.34066597, -716864.7, -117861.44, 0.0, 9.99932, 9.999149 
2.7350473e+3, 2.4887735e+2, -750197.25, -806617.2, 51486.57, 0.11234578, 0.2999652, -719698.9, -218670.66, 0.0, 9.999287, 9.998494 
2.7349377e+3, 2.5887468e+2, -629587.6, -665584.2, -10509.715, 0.23624071, 0.24180861, -626743.8, -223688.0, 0.0, 9.999301, 9.998785 
2.7348244e+3, 2.6887354e+2, -595930.06, -496824.38, -44355.62, 0.031542838, 0.25015616, -479872.3, -174804.05, 0.0, 9.998423, 9.999693 
2.7347112e+3, 2.788728e+2, -649972.44, -480607.6, 8619.601, -0.18646276, 0.26735252, -480170.06, -273093.84, 0.0, 9.997409, 9.999624 
2.7346036e+3, 2.888715e+2, -520932.84, -324881.72, 51608.258, -0.05965535, 0.21575494, -312126.3, -203038.55, 0.0, 9.997435, 10.000009 
2.7344954e+3, 2.988705e+2, -392180.63, -204995.86, 17203.336, 0.010741561, 0.17825279, -203427.9, -192332.0, 0.0, 9.997615, 10.000074 
2.734384e+3, 3.0887246e+2, -387647.53, -88532.59, -12843.615, -0.09779134, 0.3773684, -87982.12, -87982.12, 0.0, 9.996926, 10.000869 
2.7342764e+3, 3.1887308e+2, -140845.72, 100466.586, 171627.47, 0.11994083, 0.42693534, 189605.31, 189605.31, 0.0, 9.99829, 10.001524 
2.746386e+3, 1.2901478e+2, -1429940.5, -1781517.1, -15769.162, -0.028559446, 0.35313132, -1429234.6, 246454.75, 0.008071561, 10.002867, 9.998159 
2.7462742e+3, 1.3901243e+2, -1071814.6, -1649255.5, -3967.093, 0.09206837, 0.3827522, -1071787.4, 505923.94, 0.004318924, 10.005043, 9.997348 
2.7461615e+3, 1.4900842e+2, -1143440.6, -1718686.5, 89980.38, 0.055343587, 0.37399223, -1129694.4, 350058.4, 0.0016074111, 10.004246, 9.9965725 
2.7460495e+3, 1.5900435e+2, -1165117.4, -1563764.3, 121902.18, 0.032129496, 0.35272178, -1130795.9, 250999.39, 0.00035148254, 10.002921, 9.997605 
2.745937e+3, 1.6900226e+2, -904994.1, -1162986.0, 70806.43, 0.04768906, 0.3170409, -886838.75, 396972.9, 0.000033573295, 10.003075, 9.999603 
2.745825e+3, 1.7900074e+2, -805064.94, -1144508.9, 23032.715, 0.05183211, 0.28034067, -803509.2, 382312.3, 0.00000040337267, 10.003432, 9.998887 
2.745713e+3, 1.8899862e+2, -931143.5, -1234232.8, 71139.65, -0.016560994, 0.30059665, -915276.6, 172565.77, 0.0, 10.002246, 9.998165 
2.7456015e+3, 1.9899656e+2, -1008900.06, -1172446.5, 87723.336, -0.09209946, 0.3313445, -970747.3, 19116.832, 0.0, 10.000826, 9.998605 
2.74549e+3, 2.0899488e+2, -850094.75, -921744.3, 67728.266, -0.12236281, 0.296621, -809300.1, 82578.984, 0.0, 10.000718, 9.999701 
2.7453783e+3, 2.1899343e+2, -737616.7, -839742.8, 34241.96, -0.13477106, 0.24840571, -727198.44, 66692.6, 0.0, 10.000912, 9.9995 
2.7452672e+3, 2.2899249e+2, -642718.1, -735358.44, -891.5553, -0.09459952, 0.2678196, -642709.5, 53189.098, 0.0, 10.000858, 9.999569 
2.745156e+3, 2.3899166e+2, -612604.2, -742522.0, -321.68497, -0.02644951, 0.3024423, -612603.4, -14697.845, 0.0, 10.000701, 9.998924 
2.7450463e+3, 2.4898948e+2, -617238.06, -760957.1, 51382.863, 0.1148482, 0.30016434, -600757.4, -100828.2, 0.0, 10.000287, 9.9983225 
2.7449366e+3, 2.5898704e+2, -579914.56, -678426.25, 77616.11, 0.2394301, 0.28409404, -537244.3, -135288.34, 0.0, 9.999806, 9.99845 
2.744823e+3, 2.6898506e+2, -453371.0, -491240.2, 12030.709, 0.0585128, 0.26834354, -449872.22, -145896.33, 0.0, 9.99968, 9.999122 
2.7447096e+3, 2.7898338e+2, -379299.56, -393790.97, 20531.023, -0.13719644, 0.24626839, -364773.2, -158780.67, 0.0, 9.999465, 9.999225 
2.744601e+3, 2.889817e+2, -392024.38, -281624.0, 68775.484, -0.021573313, 0.18211927, -248636.16, -140629.31, 0.0, 9.99841, 9.999831 
2.7444923e+3, 2.9898053e+2, -455652.3, -241411.89, 38297.547, 0.020676073, 0.13800028, -234771.64, -224755.28, 0.0, 9.99721, 10.000017 
2.744379e+3, 3.089827e+2, -409455.25, -83206.9, -51933.145, -0.22209056, 0.35124522, -75139.52, -75139.52, 0.0, 9.99671, 10.00101 
2.744273e+3, 3.1898355e+2, -580963.4, -85301.08, 254349.94, 0.14109418, 0.41054866, 21993.34, 21993.34, 0.0, 9.995165, 10.00175 
2.7563876e+3, 1.2912601e+2, -1408551.3, -1772153.8, 62323.29, -0.075979136, 0.23663688, -1398165.4, 276435.63, 0.005299412, 10.0030155, 9.998151 
2.7562782e+3, 1.3912605e+2, -1059890.8, -1574744.9, 23102.926, 0.06945814, 0.49202585, -1058856.1, 517745.9, 0.0027405035, 10.00482, 9.997968 
2.7561647e+3, 1.4912264e+2, -1047548.8, -1495647.6, 24885.447, 0.02622447, 0.41138405, -1046171.0, 432462.28, 0.0009705126, 10.004135, 9.998159 
2.7560514e+3, 1.5911874e+2, -1142696.3, -1526476.8, 83906.086, -0.0035398111, 0.27673215, -1125153.8, 255515.39, 0.00019793083, 10.002958, 9.997845 
2.75594e+3, 1.6911662e+2, -1038832.4, -1429147.5, 83903.93, 0.06633697, 0.35418606, -1021560.4, 261131.45, 0.000016382455, 10.003022, 9.997802 
2.7558288e+3, 1.7911488e+2, -885382.06, -1269011.4, 12858.879, 0.12782964, 0.45701492, -884951.5, 299759.47, 0.00000009587778, 10.003247, 9.998123 
2.7557155e+3, 1.8911223e+2, -884729.56, -1125526.5, 15330.906, 0.057858083, 0.38938707, -883757.4, 202977.83, 0.0, 10.002191, 9.9989395 
2.7556023e+3, 1.9910955e+2, -984085.8, -1136368.1, 57870.82, -0.029632628, 0.2948855, -964589.56, 24169.174, 0.0, 10.00089, 9.998824 
2.7554908e+3, 2.0910768e+2, -881258.75, -1008331.2, 77089.4, -0.028158367, 0.2781198, -844896.9, 45878.313, 0.0, 10.000808, 9.999065 
2.7553803e+3, 2.1910603e+2, -772911.4, -925193.2, 38911.74, -0.011176383, 0.271883, -763544.6, 29245.006, 0.0, 10.00096, 9.998893 
2.7552682e+3, 2.291039e+2, -682576.75, -820577.75, -4846.6763, -0.006378946, 0.23152496, -682406.7, 12401.918, 0.0, 10.000865, 9.998981 
2.7551562e+3, 2.3910193e+2, -606788.2, -725223.06, -9368.226, -0.010283836, 0.19531484, -606051.75, -9225.251, 0.0, 10.000673, 9.999059 
2.755044e+3, 2.4910118e+2, -532961.06, -585195.06, 33436.53, -0.07438843, 0.24825078, -516650.5, -17815.818, 0.0, 10.000279, 9.999535 
2.7549323e+3, 2.591006e+2, -559344.8, -644348.9, 66179.93, -0.13561052, 0.3176617, -523194.44, -122352.33, 0.0, 9.99984, 9.998672 
2.7548218e+3, 2.690985e+2, -538123.3, -676578.8, 9395.74, -0.0037512076, 0.36734825, -537488.6, -234621.8, 0.0, 9.999716, 9.997835 
2.7547115e+3, 2.7909613e+2, -418506.6, -496386.66, -412.73813, 0.16904448, 0.3978853, -418504.4, -213611.08, 0.0, 9.999552, 9.998481 
2.754601e+3, 2.8909412e+2, -387293.84, -278197.53, 18155.992, 0.1662242, 0.3201384, -275255.3, -168346.67, 0.0, 9.998434, 9.9998455 
2.754489e+3, 2.9909247e+2, -485758.22, -295063.7, 5051.0586, 0.023166798, 0.2338003, -294930.0, -286010.78, 0.0, 9.997168, 9.999672 
2.754376e+3, 3.090918e+2, -470599.25, -215054.73, -67125.44, -0.12354248, 0.2363301, -198495.52, -198495.52, 0.0, 9.996721, 10.000104 
2.7542657e+3, 3.1909102e+2, -587719.1, -8340.92, 69355.22, -0.03728453, 0.18931168, -154.3399, -154.3399, 0.0, 9.994806, 10.002433 
2.7663907e+3, 1.292384e+2, -1249477.4, -1618093.0, 48145.625, -0.074963585, 0.32323, -1243292.8, 430212.72, 0.0032565626, 10.003771, 9.998847 
2.7662814e+3, 1.392382e+2, -1234935.5, -1580297.6, 15853.201, 0.054410584, 0.48653942, -1234209.3, 341296.44, 0.0016194168, 10.003272, 9.998675 
2.766168e+3, 1.4923565e+2, -1126008.0, -1452709.8, -38580.47, 0.035229973, 0.4203507, -1121513.8, 356013.6, 0.00054123916, 10.003251, 9.998878 
2.7660546e+3, 1.592327e+2, -1081599.3, -1465218.9, -19388.662, 0.03660487, 0.31546015, -1080621.9, 298931.53, 0.000100763005, 10.003243, 9.998125 
2.7659422e+3, 1.6923036e+2, -1163705.6, -1528000.9, 42889.734, 0.07487376, 0.38509935, -1158724.3, 122855.39, 0.000006741736, 10.00234, 9.997449 
2.7658302e+3, 1.7922823e+2, -1149607.3, -1387081.8, 50320.164, 0.0991074, 0.47565198, -1139384.6, 44219.47, 0.00000000965895, 10.001404, 9.998197 
2.7657166e+3, 1.8922587e+2, -913612.2, -1070087.0, 61841.13, 0.034729645, 0.39183205, -892122.9, 193500.92, 0.0, 10.001698, 9.999556 
2.7656034e+3, 1.9922355e+2, -775641.56, -1015594.3, 104490.766, -0.029733617, 0.2818894, -736518.44, 251123.36, 0.0, 10.002235, 9.999002 
2.7654925e+3, 2.0922183e+2, -671702.3, -958619.4, 142639.36, 0.0025659257, 0.30977237, -612858.25, 276799.56, 0.0, 10.002472, 9.998603 
2.7653816e+3, 2.1922019e+2, -590653.06, -893558.75, 94785.47, 0.046466544, 0.35422, -563437.94, 228235.94, 0.0, 10.0024605, 9.998384 
2.7652687e+3, 2.2921711e+2, -705245.6, -894188.56, 28282.057, 0.01904598, 0.27623025, -701103.06, -7400.025, 0.0, 10.000987, 9.998414 
2.7651554e+3, 2.3921412e+2, -807440.1, -829702.94, 34649.24, -0.023137232, 0.1872762, -782178.2, -186447.05, 0.0, 9.999336, 9.998982 
2.7650428e+3, 2.4921383e+2, -671159.8, -587816.9, 54783.656, -0.119727075, 0.2501397, -560656.94, -62923.934, 0.0, 9.999062, 10.0001 
2.7649304e+3, 2.5921398e+2, -649814.25, -670823.4, 58298.855, -0.20434771, 0.3448851, -601081.1, -201349.8, 0.0, 9.999153, 9.998816 
2.7648208e+3, 2.692117e+2, -529430.9, -722891.6, 60544.234, -0.022622662, 0.40415972, -512045.63, -210287.03, 0.0, 9.999997, 9.997379 
2.7647114e+3, 2.7920896e+2, -266399.66, -450746.25, 79457.984, 0.22194013, 0.43742377, -236878.72, -33088.555, 0.0, 10.00072, 9.99823 
2.7646e+3, 2.8920668e+2, -205838.6, -191738.27, 63914.85, 0.22285898, 0.34754726, -134485.92, -28679.121, 0.0, 9.999693, 9.999827 
2.7644867e+3, 2.9920486e+2, -336667.38, -242121.7, 63486.62, 0.08413258, 0.25221848, -210241.08, -202423.33, 0.0, 9.998283, 9.999492 
2.7643737e+3, 3.0920398e+2, -394186.9, -229402.53, 44403.59, 0.008568629, 0.2719284, -218199.03, -218199.03, 0.0, 9.997478, 9.999636 
2.7642593e+3, 3.1920168e+2, -354290.53, 57429.637, -9047.276, -0.1711758, 0.12145167, 57628.35, 57628.35, 0.0, 9.996621, 10.002005 
2.776394e+3, 1.2935163e+2, -1161793.4, -1456891.6, 41914.457, -0.057562202, 0.52813345, -1155955.5, 516448.28, 0.0018420875, 10.003859, 9.999911 
2.776284e+3, 1.3934961e+2, -1215333.9, -1495865.3, 11970.011, 0.03391524, 0.40986687, -1214824.0, 359591.78, 0.0008742156, 10.00308, 9.999347 
2.776171e+3, 1.4934804e+2, -1139527.3, -1445159.1, -31466.432, 0.06638047, 0.4130048, -1136321.3, 340107.84, 0.0002715374, 10.003092, 9.999008 
2.7760577e+3, 1.5934646e+2, -1074064.4, -1423832.1, -33095.734, 0.12128258, 0.42917228, -1070960.4, 307483.34, 0.000044146676, 10.00313, 9.998466 
2.775944e+3, 1.693438e+2, -1112914.9, -1431558.5, 3445.7974, 0.068569735, 0.40975913, -1112877.5, 167593.7, 0.0000020107127, 10.002377, 9.9980955 
2.7758297e+3, 1.7934112e+2, -1087607.6, -1289367.1, 36462.848, -0.017350528, 0.38260764, -1081220.1, 101278.21, 0.00000000000031198744, 10.001534, 9.998807 
2.7757168e+3, 1.8933961e+2, -874199.4, -997156.6, 80031.945, -0.06389619, 0.33168733, -834758.56, 249749.52, 0.0, 10.001731, 10.000044 
2.775604e+3, 1.9933839e+2, -781316.06, -1004848.94, 114737.27, -0.08720306, 0.29001507, -732906.4, 253608.28, 0.0, 10.002134, 9.999126 
2.775494e+3, 2.0933715e+2, -712473.56, -1016078.3, 145085.77, -0.024110124, 0.3841806, -654290.6, 234238.02, 0.0, 10.002354, 9.998266 
2.7753836e+3, 2.1933569e+2, -640811.4, -967467.75, 66849.414, 0.037650436, 0.48379794, -627660.25, 162885.52, 0.0, 10.002327, 9.997944 
2.775269e+3, 2.2933194e+2, -748978.8, -979413.4, -38397.445, -0.014378853, 0.39139363, -742749.06, -50165.746, 0.0, 10.000959, 9.997846 
2.7751538e+3, 2.3932816e+2, -825764.44, -875417.9, -1416.3138, -0.074285336, 0.27489686, -825724.06, -231103.8, 0.0, 9.999366, 9.998656 
2.7750424e+3, 2.4932742e+2, -673931.0, -598796.44, 54932.457, -0.020562174, 0.3057415, -569813.94, -73189.375, 0.0, 9.99908, 10.000019 
2.7749315e+3, 2.5932714e+2, -639646.56, -656090.44, 74568.69, 0.031202493, 0.36418837, -572847.94, -174223.63, 0.0, 9.999177, 9.998908 
2.7748203e+3, 2.6932466e+2, -497564.53, -661458.5, 97566.74, -0.011349262, 0.37030435, -452096.53, -151444.83, 0.0, 10.000016, 9.997793 
2.7747092e+3, 2.793218e+2, -241917.11, -411230.9, 79710.664, -0.023407564, 0.3528149, -210295.98, -7613.101, 0.0, 10.000766, 9.998481 
2.774598e+3, 2.8931937e+2, -204613.02, -203143.92, 10961.958, 0.13035232, 0.24545887, -192891.92, -88190.0, 0.0, 9.999745, 9.999728 
2.7744853e+3, 2.993177e+2, -318401.78, -229130.8, 22083.078, 0.2027758, 0.1747094, -223966.8, -217253.95, 0.0, 9.998384, 9.999536 
2.7743724e+3, 3.0932006e+2, -384660.03, -215607.52, 23616.664, 0.16924633, 0.5101654, -212370.27, -212370.27, 0.0, 9.997502, 9.99972 
2.7742553e+3, 3.1931594e+2, -481286.38, -254095.4, -136787.11, -0.17636673, 0.22395511, -189885.81, -189885.81, 0.0, 9.996775, 9.999818 
2.786398e+3, 1.2946562e+2, -1099632.1, -1446823.8, 100272.03, -0.017134732, 0.56380975, -1072753.5, 598532.8, 0.00093761436, 10.004361, 9.99974 
2.7862853e+3, 1.3946323e+2, -1417588.9, -1607199.5, 48565.387, 0.010302705, 0.4264583, -1405873.5, 167429.0, 0.00041989313, 10.001748, 9.999225 
2.7861723e+3, 1.4946157e+2, -1342424.5, -1550875.9, 39222.81, 0.045516282, 0.43079275, -1335288.5, 140029.8, 0.00011788039, 10.001741, 9.99893 
2.7860597e+3, 1.5946004e+2, -1180726.9, -1451895.6, 16985.205, 0.12133773, 0.4545422, -1179667.1, 197667.0, 0.000015297022, 10.002304, 9.998668 
2.7859458e+3, 1.6945769e+2, -1020120.7, -1328337.0, 33830.176, 0.08506363, 0.4262644, -1016451.2, 262906.22, 0.00000031509992, 10.002761, 9.998619 
2.7858317e+3, 1.7945535e+2, -859158.7, -1162228.9, 48367.85, 0.012331981, 0.38845038, -851626.7, 329753.22, 0.0, 10.003025, 9.998963 
2.785718e+3, 1.8945402e+2, -860400.44, -1027567.7, 40852.7, -0.04642633, 0.3755068, -850950.94, 232438.25, 0.0, 10.001993, 9.999705 
2.7856052e+3, 1.9945294e+2, -983583.75, -1106159.8, 37074.566, -0.08272092, 0.373715, -973242.56, 12153.339, 0.0, 10.000775, 9.999081 
2.7854946e+3, 2.0945139e+2, -1021721.44, -1133359.3, 97063.664, -0.021648528, 0.4167969, -965571.1, -78158.57, 0.0, 10.000099, 9.998545 
2.7853838e+3, 2.1944967e+2, -992808.4, -1090554.5, 62328.266, 0.04630116, 0.45971215, -962476.7, -173045.03, 0.0, 9.999712, 9.998357 
2.785269e+3, 2.2944695e+2, -751311.9, -917624.6, 31064.611, -0.010325153, 0.4175881, -745698.94, -54240.39, 0.0, 10.000677, 9.998404 
2.7851537e+3, 2.3944414e+2, -476821.47, -707447.6, 136039.28, -0.06829702, 0.35937172, -413798.38, 179686.95, 0.0, 10.001769, 9.99865 
2.7850425e+3, 2.4944234e+2, -340411.53, -520715.3, 164446.98, 0.02806939, 0.3421864, -243026.28, 252473.16, 0.0, 10.001731, 9.999275 
2.784932e+3, 2.594408e+2, -346902.53, -536302.06, 138395.36, 0.12237388, 0.3372697, -273908.16, 123603.09, 0.0, 10.001282, 9.998715 
2.7848196e+3, 2.6943856e+2, -479507.13, -592282.44, 157242.33, -0.0070221317, 0.3406392, -368847.72, -69313.016, 0.0, 9.999888, 9.998324 
2.7847072e+3, 2.7943623e+2, -558004.4, -542249.3, 139709.38, -0.11261755, 0.33191556, -410195.56, -208635.92, 0.0, 9.998516, 9.998659 
2.784596e+3, 2.894337e+2, -367062.16, -316312.63, 52720.816, 0.07607065, 0.2317505, -283177.88, -179596.22, 0.0, 9.998788, 9.999409 
2.7844834e+3, 2.9943186e+2, -211098.63, -191909.0, 41165.316, 0.1936839, 0.17518404, -159235.11, -153638.77, 0.0, 9.999188, 9.999401 
2.784369e+3, 3.0943495e+2, -225136.61, -124383.07, 25907.082, 0.11163803, 0.57691693, -118111.84, -118111.84, 0.0, 9.998544, 9.99984 
2.784253e+3, 3.194305e+2, -332596.7, -257182.8, -76946.26, -0.08543209, 0.2665506, -209201.13, -209201.13, 0.0, 9.998124, 9.999144 
2.796402e+3, 1.2958021e+2, -1179152.5, -1583754.1, -12750.434, 0.026141033, 0.50363016, -1178751.1, 491407.5, 0.000417627, 10.004244, 9.998853 
2.796286e+3, 1.3957837e+2, -1415282.5, -1672155.3, -277.16486, -0.022557577, 0.5052739, -1415282.3, 156890.98, 0.00017327635, 10.0020485, 9.998635 
2.7961728e+3, 1.4957595e+2, -1330455.3, -1570656.9, 63099.254, -0.016207416, 0.4646967, -1314888.4, 159309.86, 0.000041783936, 10.001929, 9.998706 
2.7960607e+3, 1.5957361e+2, -1180603.3, -1443868.6, 40206.098, 0.053103708, 0.4220025, -1174599.9, 201623.31, 0.00000369064, 10.002269, 9.998741 
2.7959484e+3, 1.6957204e+2, -1002351.8, -1273583.5, 52862.832, 0.117420524, 0.4378625, -992413.06, 285825.44, 0.000000010797318, 10.002681, 9.999035 
2.7958354e+3, 1.7957062e+2, -889768.56, -1201811.3, 36197.54, 0.14566013, 0.4647568, -885624.6, 294627.25, 0.0, 10.002919, 9.998744 
2.7957204e+3, 1.8956897e+2, -932450.8, -1172304.0, -3726.358, 0.052626614, 0.49816385, -932392.94, 149874.4, 0.0, 10.001971, 9.998722 
2.7956057e+3, 1.9956727e+2, -993746.56, -1131587.1, 7993.859, -0.042017654, 0.5149684, -993284.5, -9001.203, 0.0, 10.000792, 9.9989 
2.7954942e+3, 2.0956478e+2, -961496.4, -1016179.25, 80989.07, 0.0016095678, 0.40992525, -903358.06, -17051.158, 0.0, 10.000129, 9.999336 
2.795383e+3, 2.1956247e+2, -912027.25, -924489.4, 74058.25, 0.057508968, 0.30665064, -843938.4, -55610.082, 0.0, 9.999717, 9.9994955 
2.7952692e+3, 2.2956221e+2, -640791.9, -692349.5, 78075.48, 0.024615815, 0.3692529, -584349.5, 105978.43, 0.0, 10.00069, 9.999946 
2.7951556e+3, 2.3956193e+2, -463540.66, -678797.6, 156617.08, -0.017014232, 0.43962073, -381135.47, 211192.17, 0.0, 10.0017605, 9.998853 
2.7950436e+3, 2.4955851e+2, -440206.66, -726831.8, 152672.19, 0.018658428, 0.35438952, -374121.78, 120237.21, 0.0, 10.001724, 9.997865 
2.7949318e+3, 2.5955486e+2, -375491.53, -603182.9, 104974.02, 0.04949748, 0.2628271, -334481.2, 61911.367, 0.0, 10.001311, 9.998242 
2.794819e+3, 2.6955348e+2, -436009.2, -501511.34, 95175.31, -0.0065759746, 0.31959224, -368107.53, -69700.53, 0.0, 9.999881, 9.998955 
2.794706e+3, 2.795524e+2, -559636.2, -535519.4, 116270.25, -0.037944764, 0.38553232, -430683.9, -230264.75, 0.0, 9.998468, 9.99873 
2.794594e+3, 2.8954986e+2, -414310.97, -406633.78, 75882.54, 0.053955052, 0.32489187, -334492.8, -232048.55, 0.0, 9.998753, 9.998807 
2.7944803e+3, 2.9954755e+2, -234355.94, -244760.89, 40179.098, 0.023609452, 0.27188936, -199043.9, -194576.92, 0.0, 9.999206, 9.999031 
2.7943635e+3, 3.0954778e+2, -210992.06, -114013.55, -8342.986, -0.23881377, 0.40394923, -113301.04, -113301.04, 0.0, 9.998616, 9.999881 
2.7942526e+3, 3.195463e+2, -224073.06, -60872.92, 32019.89, 0.12162499, 0.35200885, -54815.45, -54815.45, 0.0, 9.998267, 10.000414 
2.806405e+3, 1.2969467e+2, -1263713.9, -1689700.4, -15809.864, 0.0050567556, 0.39179724, -1263127.9, 405902.0, 0.00015748714, 10.003943, 9.998272 
2.806289e+3, 1.3969268e+2, -1154056.0, -1585909.6, 13121.015, -0.0037794122, 0.43370843, -1153657.6, 417391.53, 0.000058490557, 10.004015, 9.998281 
2.806175e+3, 1.4969034e+2, -1188375.8, -1514688.6, 90945.98, 0.014058424, 0.42161927, -1164740.4, 308334.1, 0.0000110807, 10.00296, 9.998592 
2.8060624e+3, 1.5968816e+2, -1233357.8, -1461960.4, 85125.41, 0.08429254, 0.40339866, -1205142.0, 169956.61, 0.00000051063967, 10.001875, 9.998808 
2.8059497e+3, 1.6968699e+2, -1107779.9, -1295308.8, 109573.98, 0.08838763, 0.4402798, -1057328.4, 219782.69, 0.000000000000026948692, 10.001841, 9.999288 
2.8058365e+3, 1.7968595e+2, -1020910.75, -1252446.0, 73760.29, 0.067076415, 0.48473373, -999409.56, 179712.3, 0.0, 10.00198, 9.998841 
2.8057218e+3, 1.896841e+2, -966818.8, -1208711.9, 55514.11, 0.043103017, 0.5079012, -954686.9, 126453.9, 0.0, 10.001823, 9.998543 
2.805607e+3, 1.9968212e+2, -874396.6, -1058663.0, 110810.414, 0.029184926, 0.5110167, -822420.56, 160740.06, 0.0, 10.001541, 9.999041 
2.8054944e+3, 2.0967995e+2, -828825.6, -894711.4, 174303.58, 0.04213299, 0.40247634, -684379.2, 200800.13, 0.0, 10.000797, 9.999846 
2.8053823e+3, 2.1967804e+2, -827835.7, -848030.56, 168116.8, 0.052023377, 0.29650515, -669513.4, 117681.516, 0.0, 10.000147, 9.99981 
2.8052694e+3, 2.2967803e+2, -631764.6, -678610.3, 117920.17, 0.0006630788, 0.37072086, -534963.56, 154228.69, 0.0, 10.000717, 10.000024 
2.805156e+3, 2.3967794e+2, -532593.1, -730333.44, 89362.55, -0.044160515, 0.45472974, -498193.0, 92997.73, 0.0, 10.0013685, 9.998685 
2.805044e+3, 2.4967398e+2, -560885.44, -836381.9, 100608.28, -0.013754401, 0.35476813, -528056.4, -34828.367, 0.0, 10.0011215, 9.9974 
2.804932e+3, 2.596698e+2, -476243.94, -662849.06, 100143.83, 0.019070113, 0.2463361, -432673.75, -37405.875, 0.0, 10.000674, 9.9981365 
2.8048187e+3, 2.6966882e+2, -351081.56, -429544.97, 64435.62, 0.015248979, 0.3219545, -314874.06, -17595.758, 0.0, 10.000332, 9.999231 
2.8047052e+3, 2.7966818e+2, -335651.94, -414544.3, 85905.79, 0.03261159, 0.4117403, -280568.75, -81283.555, 0.0, 9.999946, 9.99885 
2.8045925e+3, 2.896659e+2, -304308.06, -360231.53, 100935.47, 0.049169697, 0.37694278, -227532.84, -126224.7, 0.0, 9.999539, 9.998744 
2.804478e+3, 2.996636e+2, -247688.31, -241598.02, 89517.36, -0.06609368, 0.33116305, -155074.03, -151743.08, 0.0, 9.999079, 9.999112 
2.8043604e+3, 3.0966252e+2, -203715.25, -81101.73, 50113.18, -0.34141043, 0.3091783, -63226.105, -63226.105, 0.0, 9.998544, 10.000139 
2.8042507e+3, 3.196629e+2, -317018.47, -77039.4, 101494.96, 0.19568947, 0.4175908, -39870.68, -39870.68, 0.0, 9.997514, 10.00066 
2.8164077e+3, 1.2980919e+2, -1302633.9, -1754707.6, -21291.713, -0.06676693, 0.2532934, -1301633.3, 366266.22, 0.00004827476, 10.003885, 9.997848 
2.8162923e+3, 1.3980654e+2, -1186211.8, -1629770.8, -8431.11, 0.037169337, 0.26732773, -1186051.5, 383876.1, 0.00001524104, 10.003919, 9.998024 
2.8161782e+3, 1.4980488e+2, -1191995.5, -1525738.6, 41389.01, 0.10002701, 0.33211088, -1186939.3, 285007.78, 0.000001982676, 10.002971, 9.998514 
2.8160647e+3, 1.5980347e+2, -1218701.4, -1450342.4, 63139.004, 0.1763655, 0.39674997, -1202609.4, 171354.64, 0.00000003306773, 10.001953, 9.998852 
2.81595e+3, 1.6980246e+2, -1103044.9, -1275386.8, 115960.02, 0.0054881573, 0.43668178, -1044743.8, 231232.98, 0.0, 10.001796, 9.999447 
2.8158352e+3, 1.7980142e+2, -1027608.75, -1224100.3, 72991.54, -0.17934544, 0.4633842, -1003461.75, 174527.58, 0.0, 10.001795, 9.999128 
2.815722e+3, 1.8979943e+2, -951336.94, -1154276.9, 48746.03, -0.0471777, 0.43137446, -940235.44, 139774.2, 0.0, 10.001723, 9.998966 
2.8156087e+3, 1.9979745e+2, -855789.06, -1011059.8, 93296.49, 0.11587439, 0.39575386, -812051.1, 169977.53, 0.0, 10.0015, 9.999389 
2.815495e+3, 2.097967e+2, -809630.75, -859339.9, 141460.47, 0.09174694, 0.3998012, -690858.0, 193174.6, 0.0, 10.000814, 10.000083 
2.8153816e+3, 2.1979599e+2, -858676.0, -915322.7, 163014.98, 0.021730619, 0.4072014, -721542.06, 64493.65, 0.0, 10.000159, 9.999344 
2.8152686e+3, 2.2979425e+2, -716551.7, -858258.1, 146528.56, -0.080776595, 0.41138184, -624644.94, 63407.93, 0.0, 10.000731, 9.998786 
2.8151557e+3, 2.3979224e+2, -564397.4, -795659.0, 97809.02, -0.1599709, 0.4088887, -528578.25, 61495.035, 0.0, 10.001363, 9.998241 
2.815044e+3, 2.497889e+2, -529074.1, -770294.75, 84136.21, -0.070465155, 0.3493846, -502627.5, -10522.104, 0.0, 10.001118, 9.997858 
2.8149322e+3, 2.5978568e+2, -460590.63, -632564.1, 84872.77, 0.025550088, 0.29420277, -425758.88, -31622.3, 0.0, 10.000682, 9.9983425 
2.8148186e+3, 2.6978442e+2, -357900.56, -446168.5, 51468.664, 0.05506907, 0.34765103, -334234.6, -38085.31, 0.0, 10.000341, 9.999113 
2.814705e+3, 2.797835e+2, -311252.56, -377302.03, 71116.72, 0.088984795, 0.40783408, -265866.72, -67707.9, 0.0, 10.000001, 9.999081 
2.8145915e+3, 2.8978172e+2, -259565.05, -277396.7, 83377.63, 0.06346776, 0.37771735, -184627.89, -84453.9, 0.0, 9.999577, 9.999298 
2.8144762e+3, 2.9978004e+2, -199315.0, -147369.78, 71647.54, -0.072993174, 0.33937377, -97132.5, -94944.84, 0.0, 9.999102, 9.99975 
2.8143603e+3, 3.0977982e+2, -164255.36, 2383.6938, 32970.105, -0.12294488, 0.341255, 8669.811, 8669.811, 0.0, 9.998534, 10.000719 
2.8142455e+3, 3.1977922e+2, -406058.4, -247804.19, -2253.873, 0.010646326, 0.3373748, -247772.1, -247772.1, 0.0, 9.997433, 9.9995365 
2.826411e+3, 1.2992437e+2, -1351732.9, -1743542.6, -64873.66, -0.02476914, 0.29206657, -1341270.9, 325500.53, 0.000012242897, 10.003383, 9.998173 
2.8262955e+3, 1.3992117e+2, -1222133.0, -1610882.6, -35349.13, 0.023579637, 0.21646002, -1218944.9, 349859.2, 0.000003158613, 10.003514, 9.998348 
2.8261802e+3, 1.4991991e+2, -1153214.5, -1477100.4, 20644.371, 0.050522268, 0.29441053, -1151904.0, 318914.78, 0.00000021516627, 10.003117, 9.998775 
2.8260657e+3, 1.5991902e+2, -1116988.0, -1374896.4, 55270.727, 0.108781986, 0.3859914, -1105642.4, 267187.72, 0.0, 10.002543, 9.999082 
2.8259507e+3, 1.6991822e+2, -1196732.4, -1306428.5, 104479.914, 0.00042220784, 0.4316667, -1133578.9, 141262.2, 0.0, 10.001092, 9.999575 
2.825836e+3, 1.799174e+2, -1293188.8, -1314480.6, 83982.4, -0.12748495, 0.46018383, -1219180.3, -42327.945, 0.0, 9.999804, 9.999471 
2.825722e+3, 1.8991587e+2, -1097187.0, -1159398.9, 94232.91, -0.063816205, 0.4264159, -1029058.8, 49808.363, 0.0, 10.000448, 9.999542 
2.8256086e+3, 1.9991434e+2, -880531.1, -1015332.44, 125395.31, 0.034729667, 0.38927293, -805570.2, 175311.22, 0.0, 10.001309, 9.999445 
2.825495e+3, 2.099133e+2, -768930.44, -899332.25, 112534.57, 0.05611055, 0.40467012, -704072.94, 178815.92, 0.0, 10.001357, 9.999542 
2.8253818e+3, 2.1991223e+2, -733571.6, -904790.94, 108157.81, 0.044896413, 0.42584285, -681242.44, 103654.375, 0.0, 10.001234, 9.998898 
2.8252688e+3, 2.2990994e+2, -715866.44, -898698.7, 148028.73, -0.06376047, 0.41352183, -633301.5, 53618.72, 0.0, 10.000915, 9.998418 
2.8251562e+3, 2.3990752e+2, -667321.3, -828211.7, 146509.69, -0.15255576, 0.3948383, -580624.3, 8321.231, 0.0, 10.000587, 9.998388 
2.8250444e+3, 2.4990508e+2, -559887.06, -707445.6, 148779.02, -0.051259577, 0.37010917, -467598.38, 23370.629, 0.0, 10.000573, 9.99855 
2.8249323e+3, 2.5990275e+2, -464036.5, -608769.06, 160213.73, 0.054698505, 0.34998217, -360603.7, 32387.54, 0.0, 10.000547, 9.998571 
2.8248182e+3, 2.6990107e+2, -393299.75, -493016.72, 114620.07, 0.028560206, 0.3762687, -318163.72, -23155.578, 0.0, 10.000232, 9.998843 
2.8247038e+3, 2.7989954e+2, -337715.0, -389530.8, 120521.055, 0.023636132, 0.40175003, -240348.66, -43325.652, 0.0, 9.999827, 9.999077 
2.8245902e+3, 2.898978e+2, -230822.6, -239440.25, 110048.98, 0.052332435, 0.3591697, -124998.125, -25961.516, 0.0, 9.999674, 9.999512 
2.8244755e+3, 2.9989627e+2, -144377.22, -105170.945, 57344.266, -0.023740234, 0.3150715, -64171.71, -63123.92, 0.0, 9.99941, 9.999892 
2.8243592e+3, 3.0989617e+2, -195913.5, -14202.922, -41605.6, -0.021488711, 0.32548222, -5129.689, -5129.689, 0.0, 9.998324, 10.000706 
2.8242412e+3, 3.1989527e+2, -336047.44, -221535.38, -56798.273, -0.117399305, 0.29340494, -198142.17, -198142.17, 0.0, 9.997956, 9.99946 
2.836415e+3, 1.300401e+2, -1305205.4, -1628143.9, -37245.844, 0.07345936, 0.4379395, -1300965.3, 364677.94, 0.0000031045788, 10.003309, 9.998997 
2.8362978e+3, 1.4003648e+2, -1208845.1, -1531412.9, -25082.922, -0.041110147, 0.24252288, -1206906.3, 360770.9, 0.0000006424714, 10.003291, 9.999002 
2.8361812e+3, 1.5003543e+2, -1142644.1, -1420110.3, 16165.09, -0.09923108, 0.28939474, -1141705.5, 327982.84, 0.000000014730344, 10.002962, 9.999242 
2.8360656e+3, 1.6003485e+2, -1110761.5, -1339852.1, 27663.387, -0.07291091, 0.3694415, -1107468.4, 264227.2, 0.0, 10.002447, 9.99937 
2.8359517e+3, 1.7003429e+2, -1181914.0, -1292344.3, 51126.22, 0.055884507, 0.4263102, -1161878.9, 111824.71, 0.0, 10.001163, 9.999637 
2.8358376e+3, 1.8003377e+2, -1240916.6, -1247845.5, 75007.65, 0.13574645, 0.47291222, -1169293.4, 6417.5522, 0.0, 9.999984, 9.999841 
2.8357223e+3, 1.9003323e+2, -1035424.5, -1053154.5, 129514.2, -0.03830287, 0.47596252, -914472.25, 163243.02, 0.0, 10.00054, 10.000229 
2.8356072e+3, 2.0003241e+2, -903098.9, -1053201.1, 137185.73, -0.1948215, 0.46363115, -821776.75, 157945.34, 0.0, 10.001268, 9.999207 
2.835495e+3, 2.1002974e+2, -852871.56, -1071521.4, 106468.29, -0.04922762, 0.41108394, -809594.3, 72153.734, 0.0, 10.001346, 9.998367 
2.835383e+3, 2.2002703e+2, -761996.25, -961561.8, 101133.195, 0.10251714, 0.36378604, -719706.75, 64068.08, 0.0, 10.001224, 9.998514 
2.8352702e+3, 2.3002528e+2, -690672.9, -842520.1, 135303.89, 0.038874704, 0.38506085, -611446.44, 74345.9, 0.0, 10.000896, 9.998814 
2.8351572e+3, 2.4002376e+2, -626213.06, -736042.7, 140474.0, -0.036461674, 0.4126029, -530301.56, 57506.01, 0.0, 10.000556, 9.999038 
2.8350452e+3, 2.5002244e+2, -496052.16, -576375.56, 150213.2, 0.037029523, 0.4153286, -380724.4, 109094.945, 0.0, 10.000578, 9.99945 
2.8349325e+3, 2.6002103e+2, -441462.94, -569805.56, 152936.31, 0.08678974, 0.41437516, -339780.47, 52051.383, 0.0, 10.000579, 9.998825 
2.8348163e+3, 2.7001876e+2, -422555.2, -556007.1, 99410.07, -0.07682247, 0.40814403, -369553.47, -75699.195, 0.0, 10.0002365, 9.998411 
2.8347006e+3, 2.8001642e+2, -354299.63, -429212.25, 111349.4, -0.19122739, 0.3903193, -274275.47, -78398.234, 0.0, 9.999847, 9.998796 
2.834589e+3, 2.9001418e+2, -244199.14, -267289.1, 105911.2, 0.011460281, 0.3203721, -149205.53, -51309.6, 0.0, 9.999675, 9.999321 
2.8344753e+3, 3.0001226e+2, -176539.48, -170959.45, 30508.594, 0.09250659, 0.26056096, -143113.56, -143113.56, 0.0, 9.999402, 9.999446 
2.8343558e+3, 3.1001118e+2, -253204.27, -129526.945, -93615.13, -0.095752, 0.2372857, -79170.19, -79170.19, 0.0, 9.9983015, 9.9999275 
2.8342387e+3, 3.200119e+2, -239520.44, -27308.12, 59348.695, -0.10116547, 0.3953634, -11838.028, -11838.028, 0.0, 9.997998, 10.000765 
2.8464168e+3, 1.3015726e+2, -1366667.6, -1661677.3, 84191.52, 0.032604203, 0.44440085, -1344331.8, 320164.0, 0.00000093358625, 10.0029, 9.998966 
2.8462994e+3, 1.4015421e+2, -1434814.5, -1617059.8, 66347.54, -0.041528024, 0.30678755, -1413219.3, 153304.83, 0.00000015352475, 10.001638, 9.999211 
2.8461826e+3, 1.5015317e+2, -1328810.8, -1470048.6, 112212.53, -0.10369882, 0.32642013, -1266845.0, 201688.94, 0.0000000003731763, 10.001514, 9.999597 
2.846067e+3, 1.6015244e+2, -1224213.5, -1387232.5, 110535.37, -0.080737144, 0.36571473, -1168384.5, 202157.06, 0.0, 10.0016365, 9.999436 
2.8459525e+3, 1.7015125e+2, -1085120.4, -1270066.5, 114587.15, 0.06164599, 0.3784664, -1030347.1, 242207.47, 0.0, 10.001935, 9.999414 
2.8458384e+3, 1.8015015e+2, -951460.06, -1140969.3, 125580.08, 0.15914908, 0.39297262, -888897.1, 285669.84, 0.0, 10.00212, 9.99954 
2.8457227e+3, 1.9014965e+2, -934499.56, -1052984.0, 124508.18, -0.022022797, 0.43989912, -855858.06, 220714.55, 0.0, 10.001444, 9.999794 
2.8456074e+3, 2.0014891e+2, -993207.56, -1136102.1, 84219.08, -0.19102998, 0.47793242, -954212.25, 24368.074, 0.0, 10.000816, 9.9988575 
2.8454953e+3, 2.10146e+2, -896568.44, -1123010.1, 100033.87, -0.073003225, 0.4274558, -858707.44, 21902.703, 0.0, 10.001175, 9.998097 
2.8453833e+3, 2.2014305e+2, -711885.5, -918058.06, 130171.97, 0.067949384, 0.3738592, -648925.0, 133715.25, 0.0, 10.001487, 9.998684 
2.8452706e+3, 2.301417e+2, -681025.1, -773726.1, 163459.19, 0.06699401, 0.38773507, -557471.9, 127181.055, 0.0, 10.000691, 9.999382 
2.8451577e+3, 2.4014068e+2, -694956.3, -717555.0, 191343.44, 0.052928302, 0.41241342, -514578.88, 72083.33, 0.0, 9.999864, 9.999497 
2.845045e+3, 2.5013983e+2, -562173.3, -568159.25, 182160.89, 0.06574011, 0.42931864, -382980.8, 105688.01, 0.0, 9.999956, 9.999803 
2.8449318e+3, 2.601389e+2, -490457.63, -559578.5, 148526.44, 0.056318216, 0.4391696, -372523.72, 18153.104, 0.0, 10.000104, 9.999121 
2.8448159e+3, 2.701366e+2, -410001.9, -523731.9, 129851.21, -0.0955517, 0.40492985, -325110.2, -32411.344, 0.0, 10.000214, 9.998642 
2.8447002e+3, 2.8013414e+2, -309556.66, -409058.44, 177830.72, -0.19281678, 0.3641191, -174648.64, 20073.56, 0.0, 10.000156, 9.998789 
2.844588e+3, 2.9013222e+2, -298229.16, -319795.75, 166110.55, 0.004160597, 0.34139013, -142552.27, -45812.418, 0.0, 9.99942, 9.999083 
2.8444737e+3, 3.0013034e+2, -313700.1, -289511.8, 85211.2, 0.08366789, 0.31916463, -215540.78, -215540.78, 0.0, 9.9987, 9.998965 
2.8443533e+3, 3.101277e+2, -192367.69, -183960.27, -34957.598, -0.15956303, 0.21301544, -152954.53, -152954.53, 0.0, 9.999092, 9.999169 
2.8442365e+3, 3.20129e+2, -93378.71, 132748.48, 90323.57, -0.07814274, 0.4623475, 164397.44, 164397.44, 0.0, 9.998619, 10.001566 
2.8564176e+3, 1.302753e+2, -1400886.8, -1738372.8, 18719.188, -0.109154165, 0.37097195, -1399851.6, 263484.88, 0.0000002687319, 10.00293, 9.998423 
2.8563008e+3, 1.4027345e+2, -1412188.9, -1618184.1, 42815.72, 0.0011274643, 0.3946676, -1403644.1, 161710.16, 0.000000029966262, 10.001846, 9.999104 
2.8561842e+3, 1.502724e+2, -1290572.6, -1422138.3, 110057.4, -0.010850977, 0.39291573, -1228136.8, 239226.69, 0.0, 10.001649, 9.999862 
2.856069e+3, 1.6027126e+2, -1228636.4, -1398780.0, 109182.73, 0.018218627, 0.3739306, -1175295.5, 194078.23, 0.0, 10.001646, 9.999352 
2.8559536e+3, 1.7026886e+2, -1117077.1, -1329478.3, 120503.29, 0.017672054, 0.297197, -1062655.1, 208742.13, 0.0, 10.001904, 9.999023 
2.8558382e+3, 1.8026654e+2, -1020926.7, -1269846.5, 112664.16, -0.003316841, 0.2407364, -977507.2, 195913.77, 0.0, 10.002052, 9.99869 
2.8557235e+3, 1.9026539e+2, -1020913.25, -1240564.5, 95059.39, -0.007006411, 0.3403578, -985487.5, 89949.03, 0.0, 10.001476, 9.998493 
2.8556094e+3, 2.0026425e+2, -1008854.94, -1186715.6, 84286.945, -0.0105365, 0.4456741, -975258.2, 2193.5168, 0.0, 10.000895, 9.998473 
2.855496e+3, 2.102622e+2, -860543.9, -1053512.1, 124570.945, -0.039309997, 0.45459145, -799461.8, 80011.82, 0.0, 10.001198, 9.998564 
2.8553832e+3, 2.2026017e+2, -678277.6, -833494.6, 124618.664, -0.056557585, 0.44437313, -609077.1, 172417.23, 0.0, 10.001422, 9.999296 
2.8552702e+3, 2.3025909e+2, -635988.2, -674314.1, 127917.31, 0.025288919, 0.41602078, -525806.44, 157696.81, 0.0, 10.000662, 10.000081 
2.8551573e+3, 2.4025817e+2, -676683.44, -679633.1, 177744.33, 0.094907135, 0.39396405, -500407.84, 85102.336, 0.0, 9.999862, 9.99976 
2.855044e+3, 2.502573e+2, -574040.56, -593782.1, 188991.81, 0.029358374, 0.41154057, -394661.97, 92855.69, 0.0, 9.999958, 9.999628 
2.8549305e+3, 2.6025632e+2, -460111.84, -503108.4, 152478.34, -0.04454637, 0.4215414, -327623.7, 61902.55, 0.0, 10.00013, 9.999497 
2.854816e+3, 2.7025458e+2, -344391.25, -391466.16, 133934.84, -0.016314516, 0.36474642, -231941.38, 59600.277, 0.0, 10.000226, 9.999547 
2.854702e+3, 2.802529e+2, -286679.7, -367160.03, 163642.17, 0.03361768, 0.32618463, -158402.72, 35153.96, 0.0, 10.000177, 9.999068 
2.8545865e+3, 2.902521e+2, -323818.16, -368758.34, 134257.25, 0.020094194, 0.4340107, -210163.63, -114597.34, 0.0, 9.999399, 9.998757 
2.8544697e+3, 3.002508e+2, -350007.03, -366781.72, 80324.51, -0.1080489, 0.507834, -277633.16, -277633.16, 0.0, 9.998707, 9.998431 
2.8543514e+3, 3.1024608e+2, -239442.7, -293193.47, -8204.007, -0.19760595, 0.26443645, -238218.4, -238218.4, 0.0, 9.999143, 9.998396 
2.8542343e+3, 3.202457e+2, -86644.68, 132560.06, -73579.57, -0.10353556, 0.40790978, 154967.66, 154967.66, 0.0, 9.998647, 10.001569 
2.8664204e+3, 1.3039285e+2, -1306676.3, -1603994.9, -26137.465, -0.071114495, 0.3099945, -1304396.0, 357787.22, 0.00000003603988, 10.003185, 9.999224 
2.8663027e+3, 1.4039192e+2, -1228710.9, -1526803.1, 49766.324, 0.019269329, 0.36701068, -1220622.0, 343568.03, 0.00000000029145006, 10.003091, 9.999129 
2.866186e+3, 1.5039022e+2, -1232938.0, -1469825.5, 79543.89, -0.0018531687, 0.35335106, -1208706.8, 257499.94, 0.0, 10.002373, 9.999182 
2.86607e+3, 1.6038844e+2, -1248545.8, -1442842.8, 45017.27, 0.020221038, 0.3269365, -1238622.4, 129602.234, 0.0, 10.00166, 9.99904 
2.865954e+3, 1.7038654e+2, -1197631.0, -1372302.3, 74741.78, -0.0079644555, 0.30611172, -1170015.1, 100228.83, 0.0, 10.001369, 9.998986 
2.8658387e+3, 1.8038458e+2, -1146808.1, -1354004.0, 92952.76, -0.050569884, 0.29409677, -1111220.0, 61044.215, 0.0, 10.001287, 9.998483 
2.8657243e+3, 1.9038244e+2, -982349.6, -1261647.0, 129486.35, -0.026603477, 0.3276711, -931555.5, 142733.5, 0.0, 10.001916, 9.998135 
2.8656107e+3, 2.0038047e+2, -770831.6, -1040037.9, 165999.53, 0.0051128403, 0.37197268, -691720.4, 284591.28, 0.0, 10.002397, 9.998753 
2.8654972e+3, 2.1037953e+2, -752644.06, -911604.3, 224467.1, -0.023591839, 0.42565286, -594001.2, 284320.72, 0.0, 10.001558, 9.999361 
2.8653833e+3, 2.2037865e+2, -787465.8, -868249.8, 224849.89, -0.051409643, 0.4699057, -599408.75, 180922.44, 0.0, 10.0006, 9.999453 
2.8652692e+3, 2.3037736e+2, -766883.75, -784586.9, 154743.81, -0.019604634, 0.45323157, -620738.56, 61605.28, 0.0, 9.9999695, 9.999656 
2.8651556e+3, 2.4037609e+2, -740094.25, -719331.75, 159968.1, 0.02191793, 0.4275111, -569408.4, 14947.65, 0.0, 9.999473, 9.999672 
2.865043e+3, 2.5037488e+2, -628710.8, -603003.4, 197532.31, 0.0172822, 0.4034539, -417907.0, 68459.03, 0.0, 9.999513, 9.999778 
2.86493e+3, 2.6037374e+2, -529111.25, -502504.5, 168991.3, 0.0019794859, 0.37875184, -346293.75, 42081.844, 0.0, 9.999508, 9.999803 
2.8648156e+3, 2.7037263e+2, -473985.7, -403600.72, 115757.734, 0.0179047, 0.34493822, -317804.13, -27419.43, 0.0, 9.999122, 9.999994 
2.864701e+3, 2.803717e+2, -468945.56, -406582.66, 121133.68, 0.05807747, 0.33663028, -312681.53, -120289.1, 0.0, 9.998728, 9.999492 
2.864585e+3, 2.9037148e+2, -335165.4, -330255.78, 141495.17, -0.00504864, 0.4627821, -191194.13, -96797.67, 0.0, 9.999141, 9.999144 
2.8644675e+3, 3.0037057e+2, -227795.83, -309698.66, 144421.83, -0.16312288, 0.5497115, -118631.67, -118631.67, 0.0, 9.999555, 9.998419 
2.864351e+3, 3.1036556e+2, -237905.58, -333018.16, 96786.28, -0.087386966, 0.30766097, -177623.17, -177623.17, 0.0, 9.999333, 9.998031 
2.8642324e+3, 3.203638e+2, -35846.727, 123366.805, -14512.265, -0.10506144, 0.3431703, 124678.78, 124678.78, 0.0, 9.999154, 10.001256 
2.8764242e+3, 1.3051029e+2, -1258489.1, -1399590.5, -31827.266, 0.06489368, 0.26683295, -1251642.3, 409389.28, 0.0, 10.002741, 10.000837 
2.876305e+3, 1.4050996e+2, -1263349.6, -1541132.3, 19811.305, 0.002937961, 0.26701692, -1261943.9, 301084.63, 0.0, 10.002845, 9.999148 
2.876187e+3, 1.5050718e+2, -1333627.3, -1662017.5, 42883.473, -0.057879224, 0.24204022, -1328119.6, 136938.92, 0.0, 10.002297, 9.997901 
2.8760704e+3, 1.605046e+2, -1278389.3, -1510986.0, 30219.424, -0.049045905, 0.24095619, -1274527.3, 92560.5, 0.0, 10.001686, 9.998561 
2.8759548e+3, 1.7050438e+2, -1172769.9, -1340064.6, 69998.77, -0.017932368, 0.38479227, -1147345.1, 121747.016, 0.0, 10.001451, 9.999169 
2.8758395e+3, 1.805039e+2, -1118458.1, -1310496.3, 107151.44, -0.018574458, 0.50027245, -1070598.4, 100500.28, 0.0, 10.001353, 9.99875 
2.875725e+3, 1.905005e+2, -963554.44, -1211655.3, 160305.81, -0.08154825, 0.37558585, -884906.9, 188225.36, 0.0, 10.001868, 9.998501 
2.8756112e+3, 2.0049745e+2, -741871.9, -941107.8, 159995.63, -0.12015085, 0.2608413, -653016.1, 322146.06, 0.0, 10.002228, 9.999514 
2.875498e+3, 2.1049787e+2, -692198.9, -765629.56, 183956.28, -0.02178734, 0.35089543, -541329.75, 335827.5, 0.0, 10.001466, 10.00041 
2.8753844e+3, 2.2049828e+2, -815182.8, -914625.4, 189762.02, 0.048172522, 0.4568055, -668736.25, 110416.89, 0.0, 10.00055, 9.999159 
2.8752682e+3, 2.3049644e+2, -865815.4, -991089.6, 131059.914, -0.07512781, 0.4994331, -783193.75, -102017.94, 0.0, 9.999975, 9.998236 
2.8751525e+3, 2.4049434e+2, -765751.0, -774851.56, 154517.11, -0.16326348, 0.5079556, -615717.2, -32517.268, 0.0, 9.999481, 9.999287 
2.875042e+3, 2.504926e+2, -596416.7, -539927.94, 201742.98, 0.030694924, 0.40360633, -364461.78, 120752.06, 0.0, 9.999526, 10.000206 
2.8749308e+3, 2.604912e+2, -512284.06, -474249.3, 159432.95, 0.1763318, 0.31427646, -332703.53, 54521.113, 0.0, 9.999535, 9.999985 
2.8748137e+3, 2.7049077e+2, -480476.44, -412771.6, 95099.87, -0.011631308, 0.3492427, -345678.63, -56450.35, 0.0, 9.999102, 9.999941 
2.8746969e+3, 2.8049052e+2, -423391.97, -313118.84, 119523.445, -0.16261646, 0.39428625, -236627.53, -45397.13, 0.0, 9.998729, 10.0001335 
2.8745827e+3, 2.9049027e+2, -248685.08, -153842.44, 165003.98, -0.07496566, 0.41018057, -29580.629, 63650.992, 0.0, 9.999151, 10.000353 
2.8744677e+3, 3.0048966e+2, -178172.16, -213978.45, 148636.89, -0.04401944, 0.41933724, -46364.09, -46364.09, 0.0, 9.999588, 9.99906 
2.8743526e+3, 3.1048682e+2, -229260.61, -316063.2, 90805.96, 0.18814251, 0.36963603, -172017.0, -172017.0, 0.0, 9.999344, 9.99814 
2.8742313e+3, 3.2048398e+2, -88328.57, 17030.13, 41482.84, -0.083225176, 0.30549574, 31402.553, 31402.553, 0.0, 9.999162, 10.000511 
2.8864247e+3, 1.3062854e+2, -1701603.4, -1667410.0, -11642.66, 0.090320185, 0.33756256, -1663822.3, -3948.1985, 0.0, 9.999923, 10.000361 
2.886306e+3, 1.4062734e+2, -1513584.1, -1666151.6, -64263.88, -0.013994695, 0.28364542, -1490122.9, 71759.24, 0.0, 10.0011425, 9.999111 
2.886188e+3, 1.5062481e+2, -1427546.3, -1678583.0, 5493.737, -0.0685821, 0.26197532, -1427426.1, 36482.14, 0.0, 10.00153, 9.998157 
2.8860712e+3, 1.6062249e+2, -1245354.0, -1473883.3, 68698.07, -0.054198444, 0.26595703, -1226292.5, 139640.56, 0.0, 10.0018215, 9.998751 
2.8859556e+3, 1.7062213e+2, -1068833.0, -1276770.5, 116867.484, -0.04724731, 0.38296124, -1016380.8, 251557.9, 0.0, 10.002109, 9.999286 
2.8858402e+3, 1.806216e+2, -976739.3, -1200945.0, 143822.06, -0.06187268, 0.4761422, -906491.3, 263454.0, 0.0, 10.002149, 9.999116 
2.8857258e+3, 1.906189e+2, -1046289.94, -1189690.5, 197653.81, -0.09044275, 0.36965916, -907733.3, 164237.17, 0.0, 10.001034, 9.999053 
2.885612e+3, 2.0061639e+2, -1065120.8, -1090593.0, 193162.84, -0.098601654, 0.2706526, -884274.6, 89719.016, 0.0, 9.999979, 9.999573 
2.8854978e+3, 2.1061634e+2, -945682.8, -926451.25, 135077.75, -0.036106504, 0.3406098, -800647.44, 75346.92, 0.0, 9.99989, 10.000066 
2.8853837e+3, 2.2061624e+2, -900496.2, -970966.6, 88796.08, 0.010509001, 0.42252332, -840199.94, -62203.71, 0.0, 10.00003, 9.9990225 
2.8852677e+3, 2.3061417e+2, -771051.25, -943078.94, 115593.53, -0.07463815, 0.44131973, -712980.94, -32960.203, 0.0, 10.000617, 9.998256 
2.8851527e+3, 2.4061204e+2, -553900.75, -668387.44, 205826.61, -0.12766753, 0.44447058, -397505.63, 184539.42, 0.0, 10.0009165, 9.999327 
2.885041e+3, 2.5061098e+2, -572230.94, -525796.5, 222279.45, 0.044769052, 0.40429437, -325525.0, 158528.95, 0.0, 9.999685, 10.000224 
2.884929e+3, 2.6061013e+2, -647952.44, -519742.47, 170688.19, 0.17608857, 0.36924103, -401518.3, -15458.185, 0.0, 9.998531, 10.000148 
2.8848118e+3, 2.7060977e+2, -517002.03, -404977.94, 129888.695, -0.03367286, 0.38961944, -319538.84, -31475.982, 0.0, 9.998754, 10.0001545 
2.8846946e+3, 2.8060937e+2, -402195.78, -295669.72, 157294.55, -0.19599214, 0.40533075, -182864.92, 7201.2505, 0.0, 9.998847, 10.000194 
2.8845814e+3, 2.9060853e+2, -318677.47, -210549.61, 126990.055, -0.05115759, 0.36784273, -126594.04, -34520.332, 0.0, 9.9987755, 10.00014 
2.884467e+3, 3.0060762e+2, -228494.58, -202390.8, 22793.22, 0.012445408, 0.35677236, -189177.06, -189177.06, 0.0, 9.999097, 9.999375 
2.88435e+3, 3.1060678e+2, -60074.5, -173132.97, -5590.3945, 0.05162999, 0.4447839, -59798.742, -59798.742, 0.0, 10.000257, 9.9986925 
2.8842312e+3, 3.2060397e+2, 199544.48, 71693.086, -34592.305, -0.05047781, 0.3718899, 208303.88, 208303.88, 0.0, 10.001494, 9.999786 
2.8964236e+3, 1.3074721e+2, -1788456.6, -1896939.9, 31990.361, 0.04268986, 0.47025982, -1779725.8, -121011.96, 0.0, 10.000147, 9.998675 
2.8963065e+3, 1.407444e+2, -1497046.6, -1660288.0, -29020.127, -0.034772065, 0.37634954, -1492041.0, 68702.97, 0.0, 10.001268, 9.99909 
2.896189e+3, 1.5074301e+2, -1341003.4, -1499772.9, 19116.45, -0.050699733, 0.37223056, -1338734.1, 124020.85, 0.0, 10.001532, 9.999382 
2.896073e+3, 1.6074166e+2, -1222636.6, -1398764.0, 78807.17, -0.02135936, 0.36731094, -1192523.5, 172242.4, 0.0, 10.001701, 9.999324 
2.8959566e+3, 1.7073977e+2, -1089533.1, -1279292.6, 124740.26, -0.09799404, 0.31608242, -1027689.2, 239095.19, 0.0, 10.001935, 9.999352 
2.8958407e+3, 1.8073812e+2, -977850.8, -1155876.4, 118005.18, -0.16978146, 0.28050622, -919051.2, 249749.5, 0.0, 10.001945, 9.999524 
2.8957266e+3, 1.9073759e+2, -1002197.4, -1092828.6, 146282.25, -0.06325227, 0.3290398, -894372.56, 176431.5, 0.0, 10.001008, 9.999731 
2.8956124e+3, 2.0073691e+2, -1093228.9, -1166763.1, 168938.88, 0.026895575, 0.3771323, -957102.5, 15707.32, 0.0, 10.000056, 9.999013 
2.8954965e+3, 2.1073489e+2, -1039764.75, -1137836.6, 136142.8, -0.07229704, 0.3809798, -944096.2, -69262.91, 0.0, 9.99996, 9.998582 
2.8953815e+3, 2.207328e+2, -894479.6, -960630.8, 105366.44, -0.1515146, 0.36622524, -817119.4, -40262.055, 0.0, 10.000038, 9.99909 
2.8952682e+3, 2.3073077e+2, -682084.2, -756302.5, 140735.28, -0.021935549, 0.2892851, -573647.8, 105228.65, 0.0, 10.000606, 9.999544 
2.895155e+3, 2.4072927e+2, -532417.06, -617396.8, 184454.81, 0.092878304, 0.2512158, -385621.53, 195269.2, 0.0, 10.000888, 9.999691 
2.8950402e+3, 2.5072998e+2, -601477.3, -582147.94, 167554.52, 0.04827246, 0.41075706, -423979.6, 58906.688, 0.0, 9.999667, 9.999847 
2.8949252e+3, 2.607306e+2, -632844.5, -493765.06, 157096.2, -0.01328752, 0.54543895, -391505.5, -6623.552, 0.0, 9.998553, 10.000316 
2.8948098e+3, 2.7072972e+2, -482128.53, -335662.9, 141445.73, -0.043038744, 0.46633112, -249616.28, 37271.707, 0.0, 9.998763, 10.000627 
2.8946945e+3, 2.8072834e+2, -443605.6, -391229.66, 149900.28, -0.028558172, 0.36737466, -265246.97, -76347.51, 0.0, 9.998883, 9.999522 
2.8945807e+3, 2.90726e+2, -455581.63, -485214.63, 129575.2, 0.07192264, 0.3363537, -339978.56, -249053.44, 0.0, 9.998744, 9.998262 
2.8944647e+3, 3.0072412e+2, -225432.92, -193365.98, 44825.137, -0.05417899, 0.35818207, -161793.11, -161793.11, 0.0, 9.999092, 9.999434 
2.8943428e+3, 3.1072447e+2, 28717.305, 3576.2332, 35674.516, -0.6259839, 0.4562239, 53971.223, 53971.223, 0.0, 10.000301, 9.999882 
2.8942338e+3, 3.207232e+2, 160508.86, -54309.4, 24804.432, 0.1050159, 0.5059752, 163335.75, 163335.75, 0.0, 10.001678, 9.998839 
2.9064238e+3, 1.3086382e+2, -1609250.6, -1801825.3, 47860.914, 0.036446773, 0.45067346, -1598011.6, 59560.668, 0.0, 10.001331, 9.998762 
2.906307e+3, 1.408617e+2, -1372535.9, -1556325.4, 25212.033, -0.04263589, 0.4128096, -1369140.1, 190455.22, 0.0, 10.001931, 9.999487 
2.90619e+3, 1.508608e+2, -1329399.8, -1426098.6, 28210.025, -0.035123494, 0.3990924, -1321771.8, 139829.27, 0.0, 10.001316, 9.999991 
2.9060736e+3, 1.6085978e+2, -1371935.9, -1452298.3, 61748.246, 0.02135637, 0.37996984, -1338446.4, 25161.686, 0.0, 10.000593, 9.999491 
2.9059574e+3, 1.7085785e+2, -1365572.0, -1427642.6, 95449.3, -0.035477318, 0.33102465, -1296239.3, -30610.92, 0.0, 10.000103, 9.999218 
2.9058415e+3, 1.8085615e+2, -1263346.8, -1272551.3, 81754.92, -0.10021978, 0.29376125, -1186064.6, -18418.79, 0.0, 9.999892, 9.999713 
2.9057267e+3, 1.9085588e+2, -1005685.56, -1051078.5, 94530.22, -0.051424228, 0.33257297, -931165.3, 138479.95, 0.0, 10.000795, 10.000121 
2.905612e+3, 2.008554e+2, -876482.3, -1069280.5, 106836.3, -0.008967636, 0.37562773, -828982.94, 142664.97, 0.0, 10.001571, 9.998953 
2.905496e+3, 2.1085308e+2, -885528.0, -1105067.6, 131658.56, -0.115799025, 0.37780258, -823881.94, 49793.742, 0.0, 10.001197, 9.998211 
2.9053807e+3, 2.2085078e+2, -795106.94, -899478.75, 158929.33, -0.1876917, 0.36703846, -680014.94, 95687.875, 0.0, 10.000663, 9.999209 
2.905268e+3, 2.3084947e+2, -735953.75, -726117.75, 154223.83, -0.011761742, 0.32152244, -576733.56, 100980.66, 0.0, 9.999994, 10.000046 
2.905155e+3, 2.4084859e+2, -739392.75, -691132.1, 140088.28, 0.14285798, 0.30085018, -573111.1, 6610.537, 0.0, 9.999358, 9.999921 
2.9050386e+3, 2.5084895e+2, -687791.7, -613618.44, 131962.4, 0.028106943, 0.41667357, -513630.3, -31909.863, 0.0, 9.999033, 9.999935 
2.9049224e+3, 2.6084936e+2, -604569.6, -478689.78, 168137.97, -0.08816786, 0.52426994, -362097.5, 21620.975, 0.0, 9.998741, 10.000328 
2.9048082e+3, 2.7084884e+2, -465862.22, -324220.28, 131891.39, -0.022146134, 0.48250258, -245338.4, 40383.617, 0.0, 9.998859, 10.000656 
2.9046938e+3, 2.808478e+2, -414695.16, -352774.8, 124848.336, 0.08773316, 0.4040876, -255105.13, -67373.91, 0.0, 9.998994, 9.999723 
2.9045781e+3, 2.908453e+2, -552289.8, -454750.28, 212251.42, 0.06201763, 0.31878108, -285737.7, -195981.42, 0.0, 9.997762, 9.9989395 
2.9164246e+3, 1.3097937e+2, -1538744.9, -1639384.9, 77097.445, 0.042918883, 0.35470966, -1496999.1, 159440.94, 0.0, 10.001272, 9.9999 
2.9163083e+3, 1.4097922e+2, -1372797.9, -1490616.9, 19488.936, -0.050301433, 0.4131427, -1369657.9, 188782.16, 0.0, 10.001649, 10.000072 
2.9161906e+3, 1.5097825e+2, -1335318.8, -1406919.5, -5888.2, -0.02656101, 0.36671868, -1334837.8, 125609.48, 0.0, 10.00118, 10.000191 
2.916074e+3, 1.6097718e+2, -1382187.6, -1469600.8, 34237.582, 0.06266947, 0.33301207, -1370374.1, -7917.2637, 0.0, 10.000576, 9.99938 
2.9159582e+3, 1.7097628e+2, -1374251.0, -1461937.9, 77473.54, 0.10548707, 0.4088631, -1329075.4, -64604.97, 0.0, 10.000172, 9.998949 
2.9158428e+3, 1.809753e+2, -1251606.5, -1267204.6, 99741.07, 0.086336166, 0.46084127, -1159360.0, 7123.187, 0.0, 9.999975, 9.99971 
2.915727e+3, 1.909738e+2, -995234.06, -1028006.7, 134682.64, -0.06227763, 0.36355197, -875944.56, 192548.23, 0.0, 10.000788, 10.000283 
2.9156113e+3, 2.0097233e+2, -867582.94, -1026060.9, 111404.74, -0.18157126, 0.28584635, -810111.1, 160392.05, 0.0, 10.001463, 9.999302 
2.9154962e+3, 2.1097106e+2, -857018.5, -1031065.1, 111798.695, -0.16554417, 0.3430209, -802366.06, 70154.06, 0.0, 10.001132, 9.998751 
2.9153815e+3, 2.2097003e+2, -795280.75, -889032.94, 134919.34, -0.1321635, 0.419794, -699326.2, 75208.5, 0.0, 10.000615, 9.999305 
2.915267e+3, 2.3097004e+2, -751975.0, -755495.7, 127668.61, -0.04730057, 0.52113587, -626054.56, 50481.406, 0.0, 9.999975, 9.999855 
2.9151526e+3, 2.4096979e+2, -731016.06, -670760.44, 122952.68, 0.02324978, 0.57314837, -574298.1, 4241.0073, 0.0, 9.999346, 10.000066 
2.9150367e+3, 2.5096783e+2, -652929.1, -538835.9, 120751.51, -0.017092565, 0.41538224, -462333.84, 18222.764, 0.0, 9.999024, 10.00045 
2.9149207e+3, 2.6096633e+2, -614307.44, -509868.5, 163310.77, -0.063062996, 0.3025313, -390631.63, -8061.285, 0.0, 9.998783, 10.000096 
2.9148066e+3, 2.709671e+2, -497495.06, -397980.63, 135057.36, 0.020283552, 0.43969038, -303806.34, -19240.043, 0.0, 9.998886, 10.000142 
2.9146928e+3, 2.8096768e+2, -329098.5, -179686.8, 121062.31, 0.10969174, 0.52920187, -112135.67, 74426.54, 0.0, 9.9990225, 10.000897 
2.9145736e+3, 2.909666e+2, -308901.28, 46084.0, 122504.41, -0.109308176, 0.31729296, 84255.375, 172820.4, 0.0, 9.99779, 10.002367 
2.9264244e+3, 1.310963e+2, -1543353.3, -1566827.1, 53263.098, -0.013677373, 0.39074174, -1500549.3, 154745.31, 0.0, 10.000913, 10.000572 
2.9263085e+3, 1.4109546e+2, -1639979.1, -1600505.0, -15251.325, -0.007401762, 0.32964653, -1595299.0, -37999.957, 0.0, 9.999727, 10.000247 
2.9261908e+3, 1.5109496e+2, -1510574.9, -1505656.8, -51414.12, 0.012814892, 0.3354931, -1456642.9, 2661.4229, 0.0, 10.000035, 10.000067 
2.926074e+3, 1.6109446e+2, -1387420.4, -1446378.9, -17249.156, 0.0879801, 0.35914293, -1382744.6, -21433.996, 0.0, 10.000423, 9.999617 
2.9259583e+3, 1.7109399e+2, -1261124.3, -1355119.3, 61993.266, 0.103240736, 0.43538216, -1230327.5, 32991.582, 0.0, 10.000719, 9.999421 
2.9258424e+3, 1.8109334e+2, -1110708.1, -1181109.5, 121431.29, 0.06624166, 0.48336625, -1019478.4, 145849.47, 0.0, 10.0008545, 9.999881 
2.9257265e+3, 1.9109176e+2, -1050561.9, -1058830.0, 151457.94, -0.08465183, 0.37930766, -903181.6, 164156.8, 0.0, 10.0004225, 10.00025 
2.9256114e+3, 2.0109026e+2, -1062159.9, -1102295.0, 109452.21, -0.19969763, 0.29569513, -970950.75, -1601.387, 0.0, 10.00005, 9.999461 
2.9254964e+3, 2.110893e+2, -990748.4, -1062748.0, 88352.8, -0.14592834, 0.35860676, -931342.75, -59980.06, 0.0, 10.000067, 9.999048 
2.9253814e+3, 2.2108862e+2, -869985.0, -906338.0, 95467.13, -0.07993484, 0.44178134, -790979.44, -17605.988, 0.0, 10.000017, 9.9994755 
2.925266e+3, 2.3108868e+2, -808372.75, -769946.0, 96688.93, -0.039151188, 0.5354916, -690579.94, -15205.455, 0.0, 9.99953, 9.999972 
2.9251507e+3, 2.4108848e+2, -751484.6, -659105.25, 120419.914, -0.008820016, 0.5806839, -576320.3, 1056.7306, 0.0, 9.9991045, 10.000266 
2.925035e+3, 2.5108665e+2, -602508.44, -475967.94, 115975.98, -0.02996087, 0.4041404, -407126.28, 72266.25, 0.0, 9.999197, 10.000803 
2.924919e+3, 2.6108524e+2, -551421.4, -481510.94, 159707.02, -0.04844913, 0.27628228, -352978.53, 28426.334, 0.0, 9.999211, 10.000092 
2.9248053e+3, 2.7108625e+2, -478117.22, -396064.94, 164627.61, 0.024791298, 0.4484043, -267428.47, 15972.39, 0.0, 9.999042, 10.000084 
2.9246905e+3, 2.810873e+2, -337253.16, -114454.89, 150280.94, 0.107405074, 0.57061225, -38786.848, 146606.63, 0.0, 9.998647, 10.001545 
2.9245704e+3, 2.9108718e+2, -177031.27, 227311.73, -26630.637, -0.13627993, 0.3523741, 229058.13, 316441.9, 0.0, 9.9981575, 10.003462 
2.9364237e+3, 1.3121387e+2, -1557617.1, -1528778.8, -132.88182, -0.11343426, 0.4917223, -1528778.1, 125364.76, 0.0, 10.000632, 10.000962 
2.9363084e+3, 1.412109e+2, -1646021.9, -1615412.5, -22524.4, 0.060100585, 0.19449893, -1603485.1, -47317.91, 0.0, 9.999742, 10.000134 
2.9361907e+3, 1.5121122e+2, -1523572.4, -1549187.9, -28256.709, 0.06692401, 0.31065202, -1505356.3, -47188.297, 0.0, 10.000106, 9.999733 
2.9360738e+3, 1.6121161e+2, -1350241.5, -1377726.8, 4412.441, 0.091062695, 0.43503436, -1349550.5, 10617.156, 0.0, 10.000461, 10.00007 
2.935957e+3, 1.7121111e+2, -1200990.0, -1218860.4, 75960.984, -0.0067243828, 0.42153156, -1133440.5, 128732.37, 0.0, 10.000669, 10.0003805 
2.9358408e+3, 1.8121053e+2, -1110376.5, -1152211.3, 113084.24, -0.10606827, 0.40045837, -1016291.3, 147886.7, 0.0, 10.000732, 10.000138 
2.935726e+3, 1.912098e+2, -1066190.6, -1085449.5, 132733.38, -0.11377951, 0.38863, -942737.9, 123444.43, 0.0, 10.000396, 10.00008 
2.9356116e+3, 2.0120893e+2, -1061064.0, -1101890.5, 104655.98, -0.10781165, 0.38106284, -974849.06, -6660.287, 0.0, 10.000058, 9.999459 
2.9354963e+3, 2.1120773e+2, -983349.2, -1046073.6, 92035.28, -0.07386608, 0.41095373, -917479.3, -47275.215, 0.0, 10.000061, 9.9991665 
2.9353812e+3, 2.2120659e+2, -857900.4, -872658.8, 86634.32, -0.037229706, 0.43206754, -778331.56, -6113.1914, 0.0, 9.99998, 9.999724 
2.9352653e+3, 2.3120554e+2, -784332.4, -717382.0, 76546.23, 0.0033078196, 0.38152373, -667311.3, 6916.8276, 0.0, 9.999518, 10.000338 
2.9351494e+3, 2.4120486e+2, -733440.2, -625442.8, 115821.305, 0.028087502, 0.34659642, -551650.94, 24583.012, 0.0, 9.999118, 10.000493 
2.9350337e+3, 2.512054e+2, -584961.0, -446204.72, 120781.42, -0.015447942, 0.3925222, -376293.66, 101934.12, 0.0, 9.99922, 10.001001 
2.9349178e+3, 2.6120612e+2, -522462.8, -432025.6, 156731.69, -0.06257855, 0.45101053, -314119.88, 66101.56, 0.0, 9.999257, 10.000408 
2.934803e+3, 2.7120635e+2, -444500.16, -332143.28, 157924.8, -0.022148298, 0.5076194, -220702.34, 61522.234, 0.0, 9.999069, 10.000505 
2.9346883e+3, 2.8120658e+2, -323898.25, -118109.39, 119165.65, 0.05594521, 0.5178948, -63562.668, 120663.12, 0.0, 9.998766, 10.00147 
2.934569e+3, 2.9120755e+2, -246083.98, 76296.25, -30902.127, -0.02170072, 0.48409462, 79231.68, 165439.55, 0.0, 9.998187, 10.002409 
2.9464236e+3, 1.3133106e+2, -1783783.3, -1673841.5, 23528.45, -0.024075637, 0.48935065, -1669017.9, -16023.146, 0.0, 9.999217, 10.00066 
2.9463074e+3, 1.413282e+2, -1623218.8, -1590810.5, -82.62739, 0.044779133, 0.22082399, -1590810.3, -35790.25, 0.0, 9.999834, 10.000262 
2.94619e+3, 1.5132906e+2, -1449721.4, -1477937.4, 34227.87, 0.02657863, 0.36231607, -1426808.0, 30206.926, 0.0, 10.000454, 10.000057 
2.946073e+3, 1.6132973e+2, -1301682.9, -1341166.1, 63563.906, 0.04425517, 0.49108186, -1254865.5, 104145.78, 0.0, 10.000733, 10.000192 
2.9459563e+3, 1.7132904e+2, -1285176.4, -1250298.1, 79500.445, -0.042084973, 0.4528004, -1186346.5, 74671.125, 0.0, 10.000046, 10.000468 
2.94584e+3, 1.8132836e+2, -1283360.5, -1225042.3, 91631.14, -0.1293916, 0.41052675, -1158042.5, 4980.9756, 0.0, 9.9994955, 10.0002365 
2.945726e+3, 1.9132772e+2, -1114824.1, -1104078.0, 127658.31, -0.096395895, 0.40368095, -981679.75, 83347.914, 0.0, 10.000033, 10.000132 
2.9456118e+3, 2.0132709e+2, -977904.2, -1031819.8, 105091.11, -0.050278485, 0.40526938, -896368.4, 70664.44, 0.0, 10.000487, 9.99974 
2.945496e+3, 2.1132609e+2, -968589.9, -994389.94, 101455.03, -0.04402765, 0.4183372, -879218.0, -10173.048, 0.0, 9.99996, 9.999575 
2.9453805e+3, 2.2132505e+2, -905265.5, -883708.2, 116396.87, -0.03745182, 0.41989323, -777591.94, -6534.7363, 0.0, 9.999592, 9.999843 
2.9452643e+3, 2.313239e+2, -712643.9, -683865.1, 86996.0, 0.0014861049, 0.35796377, -610076.5, 62991.32, 0.0, 10.000001, 10.000341 
2.9451483e+3, 2.4132314e+2, -592173.1, -570367.4, 97561.18, 0.035532963, 0.31768888, -483101.72, 91972.82, 0.0, 10.000136, 10.000383 
2.9450324e+3, 2.5132406e+2, -559959.6, -452389.56, 74650.97, -0.00025004527, 0.41190362, -414165.9, 62900.004, 0.0, 9.999462, 10.000845 
2.9449162e+3, 2.6132515e+2, -557821.8, -421793.63, 96485.12, -0.048507422, 0.51112634, -371759.84, 7296.1416, 0.0, 9.998893, 10.000659 
2.9448012e+3, 2.7132523e+2, -422740.25, -282249.28, 102451.37, -0.044724863, 0.5101878, -228274.36, 52784.457, 0.0, 9.999033, 10.000878 
2.9446864e+3, 2.8132486e+2, -257204.48, -126198.45, 56632.625, 0.017396167, 0.4529483, -105111.06, 77953.38, 0.0, 9.999392, 10.001108 
2.9445684e+3, 2.913266e+2, 53907.76, 141603.58, -78997.17, 0.051249776, 0.5634202, 188106.06, 273149.13, 0.0, 10.000569, 10.001705 
2.956424e+3, 1.3144806e+2, -1842395.3, -1772916.4, 35378.527, 0.15510516, 0.44098338, -1758072.9, -106224.21, 0.0, 9.999131, 10.000017 
2.9563057e+3, 1.4144666e+2, -1614307.9, -1552948.3, 26242.361, -0.035436273, 0.35041016, -1543255.9, 10607.355, 0.0, 9.999755, 10.000559 
2.9561886e+3, 1.5144786e+2, -1408941.8, -1376907.5, 52614.75, -0.078437954, 0.45929006, -1337925.9, 117925.945, 0.0, 10.000383, 10.000786 
2.9560724e+3, 1.6144837e+2, -1322926.9, -1367497.1, 45091.49, -0.036994968, 0.5310676, -1294914.3, 62932.863, 0.0, 10.000656, 10.000049 
2.955956e+3, 1.7144747e+2, -1315490.9, -1319699.3, 49238.13, -0.026443038, 0.5127255, -1268312.0, -8454.959, 0.0, 10.000073, 9.999979 
2.9558396e+3, 1.8144657e+2, -1274881.1, -1223257.4, 93900.29, -0.058035877, 0.48394665, -1151685.9, 10180.349, 0.0, 9.999565, 10.000216 
2.9557255e+3, 1.9144556e+2, -1100488.6, -1073362.3, 151986.42, -0.049750853, 0.42007223, -934335.06, 129539.57, 0.0, 10.00003, 10.000344 
2.955612e+3, 2.0144486e+2, -954205.2, -965228.56, 98223.52, -0.024427967, 0.38559645, -861338.8, 104541.29, 0.0, 10.000411, 10.000234 
2.9554954e+3, 2.1144444e+2, -925004.3, -902816.6, 73058.305, -0.054722216, 0.39506638, -840014.7, 27870.465, 0.0, 9.999954, 10.000207 
2.9553786e+3, 2.2144395e+2, -903967.25, -883197.94, 118046.31, -0.08995697, 0.40991384, -775080.4, -5189.33, 0.0, 9.999601, 9.999841 
2.9552636e+3, 2.3144361e+2, -733453.75, -726494.6, 101901.76, -0.042612668, 0.4541807, -628013.06, 43882.14, 0.0, 9.999999, 10.00005 
2.9551476e+3, 2.4144319e+2, -618935.25, -625984.5, 81986.336, 0.009680715, 0.4794051, -540397.8, 33502.285, 0.0, 10.0001335, 10.000004 
2.9550314e+3, 2.5144246e+2, -593936.56, -522899.06, 46312.53, 0.010524729, 0.45725077, -500053.16, -24145.863, 0.0, 9.999459, 10.000364 
2.954915e+3, 2.6144233e+2, -540765.8, -391389.34, 90626.19, -0.015794193, 0.45681578, -348640.63, 29268.053, 0.0, 9.998913, 10.000859 
2.9547995e+3, 2.7144277e+2, -390858.8, -223037.47, 117122.914, -0.04731675, 0.45485327, -162869.06, 117034.16, 0.0, 9.999064, 10.00127 
2.9546845e+3, 2.8144222e+2, -284487.44, -208095.69, 81637.05, -0.035451278, 0.37525707, -156160.92, 25747.135, 0.0, 9.999491, 10.000503 
2.954568e+3, 2.9144296e+2, 45072.15, 81479.21, -16989.957, 0.018508215, 0.47180986, 88176.02, 172077.6, 0.0, 10.000745, 10.001209 
2.9664212e+3, 1.3156474e+2, -1812899.3, -1685101.1, 15469.876, 0.060875736, 0.42884272, -1683255.3, -32547.225, 0.0, 9.999018, 10.000673 
2.9663038e+3, 1.4156476e+2, -1667749.3, -1568056.1, 47724.523, -0.11820076, 0.43668476, -1548893.1, 3814.152, 0.0, 9.999337, 10.000661 
2.9661882e+3, 1.5156467e+2, -1498266.0, -1426426.3, 31601.867, -0.0656108, 0.42104524, -1414503.5, 40203.785, 0.0, 9.999795, 10.000732 
2.966073e+3, 1.6156454e+2, -1395000.9, -1388967.5, -12568.748, 0.03571493, 0.4219228, -1379058.5, -22350.676, 0.0, 10.000098, 10.0001745 
2.9659557e+3, 1.7156406e+2, -1273749.5, -1299619.5, 12865.319, 0.0067324974, 0.43998832, -1268440.9, -9727.712, 0.0, 10.000351, 9.999988 
2.9658392e+3, 1.815635e+2, -1156761.4, -1181367.9, 73784.51, -0.0341661, 0.45116496, -1094261.4, 66457.734, 0.0, 10.000425, 10.000096 
2.9657254e+3, 1.9156289e+2, -1110174.1, -1082166.6, 118917.11, -0.019556664, 0.43387768, -976431.56, 86293.47, 0.0, 9.9999695, 10.000319 
2.9656112e+3, 2.0156232e+2, -1056221.4, -1017888.44, 42518.6, -0.016190551, 0.4177822, -990416.06, -25685.451, 0.0, 9.999719, 10.000209 
2.965494e+3, 2.1156208e+2, -881502.94, -859155.44, -15376.121, -0.09093621, 0.42944276, -851321.9, 15411.408, 0.0, 10.000149, 10.000416 
2.9653776e+3, 2.2156198e+2, -756773.4, -783028.75, 24959.686, -0.12971519, 0.45581862, -741699.6, 27035.12, 0.0, 10.000483, 10.000106 
2.9652628e+3, 2.3156188e+2, -698818.56, -694770.25, 34387.387, -0.033950005, 0.5024016, -662347.5, 8388.53, 0.0, 10.000163, 10.000193 
2.9651475e+3, 2.415615e+2, -659114.0, -656272.6, 38678.93, 0.047449566, 0.51954377, -618988.3, -46247.984, 0.0, 9.999891, 9.999922 
2.9650307e+3, 2.5155994e+2, -477757.56, -513280.97, 15999.819, 0.041043065, 0.44535786, -471613.78, 3141.8386, 0.0, 10.000442, 9.999966 
2.9649144e+3, 2.6155907e+2, -271237.06, -272447.2, 53048.688, 0.0144396415, 0.40093517, -218789.98, 157973.75, 0.0, 10.000799, 10.000774 
2.9647985e+3, 2.7155977e+2, -237883.38, -151507.67, 48975.81, -0.03613782, 0.4211011, -129397.58, 149356.1, 0.0, 10.000122, 10.001255 
2.9646832e+3, 2.8155923e+2, -308756.97, -275709.38, 21351.549, -0.057826225, 0.35383576, -265234.56, -84476.96, 0.0, 9.999572, 10.000008 
2.9645672e+3, 2.9155856e+2, -131317.8, -75826.78, -47821.938, -0.050034888, 0.39191598, -48284.4, 34483.4, 0.0, 9.999884, 10.000543 
2.9764172e+3, 1.3168116e+2, -1746697.3, -1509757.9, 27574.307, -0.19585824, 0.42633447, -1506591.3, 142979.7, 0.0, 9.9988575, 10.001952 
2.9763016e+3, 1.4168246e+2, -1633823.8, -1564437.0, 61369.66, -0.19499397, 0.4873385, -1528633.1, 22920.213, 0.0, 9.999629, 10.000545 
2.9761884e+3, 1.5168011e+2, -1493609.3, -1485790.5, 39171.426, 0.023047343, 0.29527733, -1450333.9, 3241.618, 0.0, 10.000094, 10.000181 
2.976074e+3, 1.616791e+2, -1346507.8, -1329773.9, -13405.89, 0.19370568, 0.22564809, -1322338.1, 33246.355, 0.0, 10.000279, 10.000492 
2.975956e+3, 1.716794e+2, -1246448.3, -1248342.0, 13518.895, 0.042748965, 0.28441572, -1233843.1, 23737.438, 0.0, 10.000377, 10.000326 
2.9758388e+3, 1.816795e+2, -1183568.1, -1222176.0, 53939.137, -0.04138662, 0.34981856, -1145582.8, 13996.65, 0.0, 10.000363, 9.999844 
2.975725e+3, 1.9167979e+2, -1122020.5, -1109032.1, 94424.03, -0.0032156978, 0.44582826, -1020879.25, 40699.594, 0.0, 9.999981, 10.000127 
2.9756102e+3, 2.0167929e+2, -1083106.0, -1081080.3, 47441.754, -0.0399455, 0.4760303, -1034640.56, -71054.89, 0.0, 9.999752, 9.999759 
2.975493e+3, 2.1167901e+2, -886772.7, -872695.94, 4179.8247, -0.14937933, 0.5017248, -871548.4, -5959.028, 0.0, 10.000161, 10.000317 
2.975377e+3, 2.2167924e+2, -726697.8, -710172.1, 25791.355, -0.15648977, 0.54562896, -691352.4, 76234.8, 0.0, 10.000437, 10.000628 
2.975263e+3, 2.3167892e+2, -661498.6, -616881.75, 19432.139, 0.020774374, 0.51027215, -609605.2, 59983.258, 0.0, 10.000159, 10.000731 
2.9751474e+3, 2.4167828e+2, -647893.25, -632339.56, 43858.152, 0.12958382, 0.4575093, -595574.1, -23981.023, 0.0, 9.999887, 10.000088 
2.975031e+3, 2.5167656e+2, -499307.5, -561158.3, 42817.89, 0.0847365, 0.3831127, -477414.8, -3804.7024, 0.0, 10.000456, 9.999628 
2.9749146e+3, 2.616754e+2, -289693.9, -322006.06, 41863.934, 0.032488093, 0.34687465, -260976.75, 114644.33, 0.0, 10.000847, 10.000411 
2.9747984e+3, 2.716762e+2, -260545.5, -205981.39, 20920.977, -0.017831527, 0.4108753, -198883.25, 78727.19, 0.0, 10.000153, 10.000868 
2.974682e+3, 2.816759e+2, -325775.72, -320311.94, 14148.205, -0.070728205, 0.4040333, -308634.28, -129021.945, 0.0, 9.999626, 9.999672 
2.9745653e+3, 2.9167363e+2, -204330.98, -228826.08, -22939.262, -0.14916478, 0.33563733, -190574.45, -108934.65, 0.0, 9.999919, 9.999462 
2.9864177e+3, 1.3179949e+2, -1681951.3, -1541620.0, 205130.48, 0.016596865, 0.49089128, -1394986.8, 253421.95, 0.0, 9.999553, 10.001421 
2.9863027e+3, 1.4179927e+2, -1434775.4, -1517145.9, 79217.266, -0.06987952, 0.45205474, -1386676.8, 163728.72, 0.0, 10.001208, 10.00011 
2.9861867e+3, 1.5179965e+2, -1420440.8, -1513691.0, 53147.055, -0.1321707, 0.5863494, -1396365.8, 56035.477, 0.0, 10.000887, 9.9996 
2.986071e+3, 1.6179848e+2, -1421607.0, -1418621.1, -57978.49, -0.06457093, 0.5598333, -1362116.4, -7703.7256, 0.0, 10.000021, 9.999993 
2.985954e+3, 1.7179675e+2, -1389569.1, -1326269.3, -57295.094, -0.077920936, 0.43789646, -1292463.5, -36033.758, 0.0, 9.999467, 10.000215 
2.985837e+3, 1.8179551e+2, -1274007.9, -1222598.9, 2551.8044, -0.17428862, 0.35714674, -1222472.5, -64030.066, 0.0, 9.999592, 10.000196 
2.985723e+3, 1.9179498e+2, -1143142.8, -1098674.6, 56301.55, -0.12645231, 0.34783876, -1060375.9, 72.60676, 0.0, 9.99977, 10.00029 
2.9856095e+3, 2.0179524e+2, -997688.0, -975594.75, 74292.83, -0.017307375, 0.41263726, -911531.75, 50915.074, 0.0, 10.000072, 10.000327 
2.9854938e+3, 2.1179502e+2, -850659.56, -831793.06, 59908.66, -0.023368122, 0.4125212, -780579.5, 83869.664, 0.0, 10.000305, 10.000533 
2.9853776e+3, 2.2179447e+2, -812010.5, -785088.25, 47469.1, -0.058988523, 0.38282079, -749208.56, 17246.006, 0.0, 9.999988, 10.000338 
2.9852626e+3, 2.3179445e+2, -673097.7, -646058.1, -5875.4624, 0.057991933, 0.4062348, -644836.6, 23617.584, 0.0, 10.000186, 10.000518 
2.9851475e+3, 2.4179424e+2, -533189.56, -591232.56, -25283.89, 0.16101532, 0.41699368, -523720.53, 46735.14, 0.0, 10.000735, 9.999963 
2.9850307e+3, 2.5179285e+2, -512892.4, -566765.75, -18311.201, 0.07112941, 0.3730732, -507257.84, -34788.242, 0.0, 10.000356, 9.999641 
2.984914e+3, 2.6179177e+2, -425527.63, -411858.56, 2354.969, -0.016395247, 0.35210255, -411464.22, -36984.473, 0.0, 10.000008, 10.000208 
2.984798e+3, 2.7179205e+2, -230587.52, -234925.28, -18546.957, -0.03145616, 0.3941568, -214083.06, 62392.01, 0.0, 10.000523, 10.000507 
2.9846817e+3, 2.8179187e+2, -118932.41, -190215.19, -7478.1533, -0.055036776, 0.4115513, -118156.336, 60319.684, 0.0, 10.000911, 9.999978 
2.9845658e+3, 2.917897e+2, -90290.51, -202896.47, 32380.111, -0.08607085, 0.32987687, -81643.53, -1142.6321, 0.0, 10.000758, 9.999329 
2.996417e+3, 1.3191666e+2, -1831273.4, -1705823.1, -44933.137, 0.0356765, 0.4651702, -1691389.9, -44135.063, 0.0, 9.998969, 10.000551 
2.9963022e+3, 1.4191431e+2, -1495773.1, -1546811.9, -85935.59, -0.16047949, 0.2479099, -1431647.9, 117625.836, 0.0, 10.000791, 10.000106 
2.9961893e+3, 1.5191269e+2, -1451722.0, -1552693.1, 109501.72, 0.123025574, 0.18608133, -1381628.0, 69660.89, 0.0, 10.00072, 9.999438 
2.99607e+3, 1.6191202e+2, -1394627.5, -1538329.8, 129984.37, -0.056356426, 0.28522572, -1317957.5, 35338.95, 0.0, 10.000694, 9.998888 
2.9959536e+3, 1.7191078e+2, -1132561.4, -1279872.1, 76138.56, 0.022967942, 0.2940694, -1100281.9, 155030.28, 0.0, 10.00148, 9.999603 
2.9958376e+3, 1.8191266e+2, -1034961.3, -1054112.9, 18508.766, 0.0047558947, 0.5296134, -1023698.0, 133598.03, 0.0, 10.000908, 10.000767 
2.9957217e+3, 1.9191103e+2, -1130038.6, -1066818.4, 43806.668, -0.14032067, 0.36136848, -1044407.9, 14901.293, 0.0, 9.999672, 10.000591 
2.9956067e+3, 2.0191102e+2, -1123821.6, -915559.6, 31343.973, -0.23444256, 0.3045947, -910944.56, 50361.883, 0.0, 9.998631, 10.001459 
2.9954922e+3, 2.119116e+2, -883129.5, -807597.8, 9555.675, -0.15080775, 0.320999, -806407.6, 56891.25, 0.0, 9.999883, 10.000913 
2.9953775e+3, 2.219101e+2, -690729.94, -853531.06, -18667.023, -0.03532847, 0.22785719, -688617.0, 76696.21, 0.0, 10.001357, 9.99921 
2.995263e+3, 2.319098e+2, -735576.0, -775563.5, -31617.672, 0.12237652, 0.32216096, -718160.9, -50840.305, 0.0, 10.000185, 9.999626 
2.9951474e+3, 2.4190938e+2, -579226.25, -654787.75, -26410.031, 0.15486339, 0.39466688, -570910.6, -1582.7281, 0.0, 10.000601, 9.999587 
2.9950297e+3, 2.519089e+2, -479087.44, -503770.5, -40019.715, -0.005932748, 0.41512367, -449549.5, 21783.666, 0.0, 10.00039, 10.00005 
2.994912e+3, 2.619083e+2, -435586.3, -432662.3, 9955.997, -0.14188044, 0.41823086, -424061.53, -50722.7, 0.0, 10.0, 10.000072 
2.9947972e+3, 2.7190727e+2, -251946.22, -294467.63, 9693.384, -0.09291475, 0.3648222, -249840.72, 25507.773, 0.0, 10.000575, 10.000078 
2.9946822e+3, 2.8190696e+2, -55825.23, -44711.504, -11437.11, -0.033983063, 0.35893685, -37552.777, 139797.64, 0.0, 10.000899, 10.0009575 
2.9945678e+3, 2.9190838e+2, -2979.7712, 22870.406, 61713.43, 0.13060737, 0.4775995, 72997.72, 152332.22, 0.0, 10.000641, 10.000905 
