coord_x,coord_y,stress_xx,stress_yy,tau_xy,velocity_x,velocity_y,stress_1,eps,damage,lx,ly
5.000128e+0, 1.24831505e+2, -1625503.8, -1615640.0, 9048.679, -0.005790045, -0.038874082, -1610266.4, 106378.29, 0.0013801174, 10.000361, 10.000504 
5.000017e+0, 1.3482949e+2, -1632703.5, -1712274.5, -301.72302, -0.011809512, -0.1630291, -1632702.4, -14037.045, 0.0008364695, 10.000263, 9.999212 
5.000036e+0, 1.4483088e+2, -1484710.4, -1518202.5, 4092.4922, -0.011668188, 0.021009376, -1484217.5, 36434.6, 0.00038681776, 10.000298, 9.999849 
5.000198e+0, 1.5482989e+2, -1370026.6, -1424551.4, 8558.896, -0.0038304213, -0.0641209, -1368714.8, 53946.71, 0.00011816065, 10.000466, 9.999738 
5.0002676e+0, 1.6482931e+2, -1274477.6, -1354447.9, 14398.31, -0.0017068243, -0.08169048, -1271964.3, 52702.547, 0.000016018055, 10.000565, 9.999501 
5.0002444e+0, 1.748288e+2, -1174016.6, -1257866.3, 23481.3, -0.005493262, -0.09115617, -1167888.8, 58783.355, 0.00000013955699, 10.000593, 9.999477 
5.00027e+0, 1.8482842e+2, -1063011.0, -1135136.0, 19783.836, -0.0034164793, -0.0844999, -1057940.8, 70735.03, 0.0, 10.000604, 9.999644 
5.0003505e+0, 1.9482832e+2, -969934.3, -1043908.2, 1606.3374, 0.0054109157, -0.062669545, -969899.44, 60776.69, 0.0, 10.000589, 9.999605 
5.0003546e+0, 2.0482777e+2, -904418.5, -1009109.44, -5110.32, 0.0067246594, -0.056203548, -904169.6, 28510.908, 0.0, 10.000572, 9.999178 
5.0002724e+0, 2.1482667e+2, -812400.56, -918752.94, -2888.8948, -0.00047207376, -0.08926097, -812322.1, 22367.41, 0.0, 10.000551, 9.999135 
5.0002444e+0, 2.248254e+2, -761064.9, -922430.1, 6589.0156, -0.0043271007, -0.09461699, -760796.25, -24093.795, 0.0, 10.000571, 9.998427 
5.000273e+0, 2.3482391e+2, -656495.4, -825123.56, 16326.386, -0.004548979, -0.09255138, -654929.25, -16209.727, 0.0, 10.000634, 9.998392 
5.0003237e+0, 2.4482267e+2, -493127.56, -612077.25, 10273.178, -0.003873373, -0.091535404, -492246.8, 48484.55, 0.0, 10.000723, 9.999141 
5.000404e+0, 2.5482172e+2, -379329.72, -510197.1, -17561.281, -0.0020940357, -0.10773175, -377014.13, 65723.195, 0.0, 10.000847, 9.999106 
5.0004023e+0, 2.648207e+2, -322113.5, -494337.2, -30912.416, -0.0017279377, -0.08828052, -316733.13, 28012.945, 0.0, 10.000836, 9.998548 
5.0003165e+0, 2.7481973e+2, -249423.39, -411305.94, -22591.361, -0.002215939, -0.04938908, -246329.8, 427.5012, 0.0, 10.000674, 9.998522 
5.0003254e+0, 2.8481817e+2, -148352.64, -307850.3, -9967.91, -0.0015222142, -0.057370063, -147732.11, 1040.9346, 0.000000010220777, 10.000678, 9.998557 
5.000428e+0, 2.94816e+2, -22334.611, -196167.97, -7772.4624, -0.0007795431, -0.13903864, -21987.78, 28806.375, 0.000007764773, 10.000869, 9.99856 
5.00055e+0, 3.0481577e+2, 16781.146, -225531.72, -3452.3901, -0.00094869884, 0.013894317, 16830.324, 16830.324, 0.00008416529, 10.001117, 9.997909 
5.0008e+0, 3.1481144e+2, 184881.08, 61711.86, -5063.72, 0.010605335, -0.20947063, 185088.9, 185088.9, 0.00029797413, 10.00138, 9.999756 
1.5000378e+1, 1.24831714e+2, -1642938.0, -1649109.3, 1719.9119, -0.017995656, -0.04663287, -1642491.0, 74150.71, 0.00135349, 10.000351, 10.000278 
1.5000053e+1, 1.3482983e+2, -1648676.9, -1743857.0, -3643.7449, -0.035503983, -0.13477823, -1648537.6, -29875.617, 0.0008181531, 10.000259, 9.998999 
1.5000108e+1, 1.4483114e+2, -1475753.5, -1497427.0, 9252.544, -0.034878653, 0.043956988, -1472340.9, 48308.81, 0.00037595516, 10.00029, 9.999996 
1.500059e+1, 1.5482993e+2, -1360663.8, -1403315.3, 15412.601, -0.011520424, -0.07265971, -1355677.3, 66982.98, 0.00011312574, 10.00046, 9.999887 
1.5000805e+1, 1.6482955e+2, -1256364.1, -1315538.9, 14487.815, -0.0049304604, -0.09366219, -1253007.5, 71655.81, 0.000014709239, 10.000559, 9.999772 
1.5000734e+1, 1.7482965e+2, -1156011.3, -1219522.0, 24875.848, -0.016443875, -0.06616018, -1147427.9, 79234.266, 0.00000010097208, 10.00059, 9.999743 
1.5000808e+1, 1.8482922e+2, -1095581.6, -1200707.0, 18729.928, -0.010237063, -0.05549553, -1092344.3, 36322.086, 0.0, 10.000596, 9.999198 
1.5001051e+1, 1.9482839e+2, -1002461.44, -1109945.9, 1782.6318, 0.016240189, -0.062640525, -1002431.9, 28242.9, 0.0, 10.000584, 9.999154 
1.5001062e+1, 2.0482758e+2, -900146.25, -998033.8, -6686.9834, 0.020019079, -0.0631454, -899691.56, 32990.723, 0.0, 10.000564, 9.999258 
1.5000816e+1, 2.1482676e+2, -807508.9, -906565.8, -2753.844, -0.0013559108, -0.07418204, -807432.4, 27256.52, 0.0, 10.000544, 9.999224 
1.5000731e+1, 2.2482574e+2, -741463.06, -879715.7, 7904.6616, -0.01307984, -0.07328284, -741012.56, -4313.8506, 0.0, 10.000564, 9.998725 
1.5000817e+1, 2.3482454e+2, -637625.0, -784091.44, 19423.822, -0.013736999, -0.070414886, -635092.9, 3618.4534, 0.0, 10.000627, 9.998678 
1.5000972e+1, 2.4482304e+2, -543372.3, -714919.1, 13937.12, -0.011632052, -0.07466856, -542247.4, -1521.0369, 0.0, 10.000716, 9.998438 
1.500121e+1, 2.5482124e+2, -429360.88, -611870.75, -12189.084, -0.006535782, -0.10223029, -428550.4, 14193.209, 0.0, 10.000838, 9.998413 
1.5001208e+1, 2.6481983e+2, -305989.3, -458955.53, -37451.457, -0.005035126, -0.10324144, -297312.13, 47445.082, 0.0, 10.000829, 9.998795 
1.5000947e+1, 2.7481884e+2, -234508.64, -377816.7, -28061.46, -0.006849405, -0.08587836, -229209.8, 17556.611, 0.0, 10.000665, 9.998757 
1.5000977e+1, 2.848172e+2, -144474.44, -297587.75, -4000.767, -0.0042428263, -0.119710326, -144369.98, 4412.0205, 0.000000009053116, 10.0006695, 9.998632 
1.5001282e+1, 2.9481488e+2, -16906.033, -182731.83, 941.22217, -0.0026067952, -0.22040953, -16900.691, 33903.133, 0.0000075983085, 10.00086, 9.998656 
1.5001653e+1, 3.048152e+2, 16784.99, -223023.0, 6323.574, -0.0023886305, -0.0167029, 16951.623, 16951.623, 0.000082482155, 10.001108, 9.997931 
1.5002392e+1, 3.148124e+2, 184264.1, 64595.035, 5571.7183, 0.030873861, -0.09195349, 184522.95, 184522.95, 0.00029308064, 10.001364, 9.999784 
2.5000575e+1, 1.2483144e+2, -1679661.0, -1658614.3, -34565.477, -0.019606499, -0.044278793, -1633005.8, 83638.305, 0.0013145427, 10.000069, 10.000349 
2.5000462e+1, 1.3482954e+2, -1605094.1, -1717987.0, -20250.088, -0.034632698, -0.13939452, -1601571.6, 17092.354, 0.0007913486, 10.000539, 9.9990425 
2.5000528e+1, 1.4483078e+2, -1430184.4, -1478471.1, -11017.092, -0.037963636, 0.033278067, -1427789.5, 92862.53, 0.00036019128, 10.000615, 9.999971 
2.500086e+1, 1.5482962e+2, -1388290.0, -1419977.4, -19302.03, -0.022049597, -0.07817689, -1379161.9, 43500.633, 0.00010584406, 10.000285, 9.999858 
2.5001097e+1, 1.6482933e+2, -1295176.9, -1334338.6, -24395.186, -0.01860693, -0.08816419, -1283476.3, 41188.84, 0.000012859098, 10.000296, 9.99977 
2.5001246e+1, 1.7482959e+2, -1144610.0, -1214551.0, -35402.71, -0.028241118, -0.043479923, -1129818.3, 96844.58, 0.00000006033416, 10.000672, 9.999739 
2.5001347e+1, 1.8482912e+2, -1065947.0, -1182111.3, -43097.977, -0.025017742, -0.038930457, -1051703.6, 76963.55, 0.0, 10.000781, 9.999237 
2.5001407e+1, 1.9482802e+2, -996439.25, -1102549.5, -23705.902, -0.007750202, -0.07645696, -991384.0, 39293.184, 0.0, 10.000607, 9.999195 
2.500144e+1, 2.0482706e+2, -914788.2, -1019057.4, -15835.94, 0.003389553, -0.08802023, -912436.1, 20250.025, 0.0, 10.000523, 9.999134 
2.5001433e+1, 2.148262e+2, -818131.2, -925559.0, -28887.906, 0.0066321227, -0.092099704, -810855.8, 23838.629, 0.0, 10.00053, 9.9991 
2.5001428e+1, 2.2482534e+2, -732080.94, -851225.2, -26016.602, 0.0023366173, -0.07857079, -726647.7, 10055.015, 0.0, 10.000525, 9.9989395 
2.500143e+1, 2.3482455e+2, -639023.1, -760603.6, -21056.12, -0.009373183, -0.05541288, -635479.75, 3230.3252, 0.0, 10.000513, 9.998894 
2.5001583e+1, 2.4482308e+2, -585144.9, -752316.56, -5218.6304, -0.011714279, -0.06038321, -584982.1, -44257.313, 0.0, 10.0005045, 9.998283 
2.5001895e+1, 2.5482085e+2, -490174.78, -658712.3, 9534.465, -0.004666536, -0.115389824, -489637.1, -46889.77, 0.0, 10.000496, 9.998257 
2.5001958e+1, 2.6481935e+2, -335047.03, -471098.28, -2129.5771, -0.0022575418, -0.11820694, -335013.7, 9748.617, 0.0, 10.000622, 9.998812 
2.5001776e+1, 2.7481866e+2, -197321.56, -358891.84, -11075.253, -0.0028632106, -0.07511291, -196565.92, 50202.918, 0.0, 10.000916, 9.998768 
2.5001898e+1, 2.8481698e+2, -87757.52, -273030.34, 4206.6357, 0.0013343649, -0.10766155, -87662.06, 61122.223, 0.000000009457464, 10.001071, 9.998608 
2.500229e+1, 2.948144e+2, 8222.2, -173649.06, 174.93185, 0.002779636, -0.23361908, 8222.368, 59030.92, 0.0000073463098, 10.001047, 9.99863 
2.5002617e+1, 3.0481476e+2, -9965.148, -232277.47, 524.7631, -0.006867959, -0.02984379, -9963.91, -9963.91, 0.00008001909, 10.000911, 9.997963 
2.500337e+1, 3.1481248e+2, 88304.23, 30044.906, -3434.4104, 0.027957784, -0.054397263, 88505.984, 88505.984, 0.0002860611, 10.000659, 9.999886 
3.5000706e+1, 1.2483065e+2, -1655313.0, -1607390.8, -21684.941, -0.016292252, -0.03717765, -1599035.1, 117616.734, 0.0012623775, 10.000067, 10.000702 
3.5001233e+1, 1.348286e+2, -1583231.4, -1672447.0, -1597.7328, -0.01284464, -0.17714907, -1583202.8, 35468.78, 0.000755357, 10.00054, 9.999354 
3.500129e+1, 1.4482985e+2, -1442440.8, -1504171.4, -24677.467, -0.025355909, -0.011285997, -1433788.4, 86870.7, 0.00033918672, 10.000616, 9.999795 
3.5000995e+1, 1.5482895e+2, -1401414.0, -1446853.6, -31379.271, -0.038456485, -0.07799871, -1385393.0, 37275.03, 0.00009620481, 10.000284, 9.999675 
3.5001132e+1, 1.6482864e+2, -1314733.0, -1373659.8, -11186.036, -0.04600227, -0.06588175, -1312681.0, 11990.947, 0.000010539653, 10.000291, 9.999502 
3.5001767e+1, 1.7482862e+2, -1163788.8, -1253600.8, -20298.123, -0.04462692, -0.023507094, -1159414.3, 67259.7, 0.000000028001644, 10.0006695, 9.999472 
3.5001877e+1, 1.8482809e+2, -1029314.9, -1105006.6, -50058.773, -0.051492523, -0.03599854, -1004405.75, 124272.58, 0.0, 10.000776, 9.999769 
3.5001412e+1, 1.9482724e+2, -959456.75, -1024562.25, -29548.459, -0.068838224, -0.10308449, -948045.94, 82637.266, 0.0, 10.000601, 9.999733 
3.5001478e+1, 2.0482622e+2, -938237.1, -1065296.1, -16284.645, -0.046117038, -0.13163932, -936183.2, -3490.9282, 0.0, 10.000513, 9.998821 
3.500211e+1, 2.1482497e+2, -842355.8, -973792.9, -27813.033, 0.020491395, -0.14127764, -836712.6, -2006.5022, 0.0, 10.000522, 9.998773 
3.5002324e+1, 2.2482419e+2, -722474.75, -829591.1, -27293.508, 0.03840713, -0.11212936, -715921.25, 20793.172, 0.0, 10.000518, 9.999091 
3.50021e+1, 2.3482397e+2, -628779.75, -737622.4, -20643.969, 0.0057053776, -0.046699677, -624995.8, 13719.904, 0.0, 10.000505, 9.999056 
3.500214e+1, 2.448228e+2, -557926.06, -693802.3, -6165.281, -0.007151626, -0.050373394, -557646.9, -16920.08, 0.0, 10.000497, 9.998689 
3.500245e+1, 2.548206e+2, -464188.0, -601800.06, 9750.639, 0.00003819127, -0.14532974, -463500.53, -20752.217, 0.0, 10.000484, 9.998652 
3.500265e+1, 2.6481932e+2, -350144.34, -501401.56, 7780.3394, 0.0032034807, -0.13338685, -349745.2, -4983.86, 0.0, 10.000617, 9.998606 
3.500279e+1, 2.7481917e+2, -212261.19, -387690.56, 1035.5333, 0.005454858, -0.015877659, -212255.08, 34509.445, 0.0, 10.000906, 9.998574 
3.5003087e+1, 2.848176e+2, -97208.266, -290620.78, 3063.5254, 0.011881177, -0.023016252, -97159.75, 51620.168, 0.000000011907709, 10.001063, 9.998491 
3.5003433e+1, 2.948146e+2, -2704.519, -193407.47, 274.2768, 0.011315985, -0.17922637, -2704.1245, 48104.367, 0.000006964684, 10.001036, 9.998499 
3.5003433e+1, 3.0481437e+2, -7850.5845, -225532.72, -9843.416, -0.016702462, -0.026907336, -7406.3794, -7406.3794, 0.00007659062, 10.000902, 9.9980135 
3.500373e+1, 3.148117e+2, 100151.91, 56914.02, -14304.317, -0.004908407, -0.09211563, 104455.77, 104455.77, 0.00027653438, 10.00065, 10.000073 
4.5000666e+1, 1.24829575e+2, -1623662.8, -1592247.3, -9695.229, -0.03672163, -0.06084047, -1589496.1, 127165.04, 0.0011988538, 10.000282, 10.000707 
4.5001593e+1, 1.3482755e+2, -1611426.1, -1691676.3, -17103.719, -0.021560151, -0.19329247, -1607932.9, 10747.768, 0.0007112032, 10.000371, 9.999306 
4.500187e+1, 1.4482877e+2, -1452850.9, -1508043.8, -55653.344, -0.024863783, -0.029057471, -1418327.6, 102341.08, 0.00031351, 10.000541, 9.999805 
4.500161e+1, 1.548279e+2, -1322986.9, -1408435.0, -50254.29, -0.031701155, -0.093131915, -1299750.1, 122927.29, 0.000084590996, 10.000819, 9.999682 
4.5001706e+1, 1.6482756e+2, -1250506.8, -1336511.0, -10406.315, -0.038056873, -0.0872982, -1249265.5, 75415.85, 0.000007991499, 10.000705, 9.999558 
4.500222e+1, 1.7482744e+2, -1231019.3, -1279232.6, 4029.13, -0.041422084, -0.060257267, -1230684.9, -4000.9297, 0.000000008983813, 10.000179, 9.999533 
4.500233e+1, 1.8482704e+2, -1132262.0, -1150513.6, -25198.668, -0.047268376, -0.06599012, -1114587.5, 14099.81, 0.0, 10.000052, 9.999806 
4.5001975e+1, 1.9482653e+2, -993175.44, -1036671.7, -43868.465, -0.05945665, -0.10243298, -965960.06, 64729.797, 0.0, 10.000353, 9.99977 
4.5001984e+1, 2.0482565e+2, -941853.4, -1066299.1, -38908.16, -0.044508412, -0.11815464, -930690.06, 2007.8022, 0.0, 10.000484, 9.99883 
4.500239e+1, 2.1482438e+2, -854912.75, -978684.2, -26504.783, 0.0010799584, -0.13345651, -849475.8, -14763.772, 0.0, 10.00043, 9.998784 
4.5002636e+1, 2.2482345e+2, -730582.06, -832788.06, -13841.282, 0.02105236, -0.11828816, -728740.8, 7980.6504, 0.0, 10.000459, 9.999099 
4.5002732e+1, 2.34823e+2, -616719.06, -730423.1, -19661.7, 0.014406104, -0.07746237, -613415.2, 25309.75, 0.0, 10.000583, 9.999069 
4.500285e+1, 2.4482198e+2, -533875.4, -661122.56, -22269.832, 0.010947632, -0.0760107, -530090.44, 10643.94, 0.0, 10.00057, 9.9988785 
4.5002988e+1, 2.5482032e+2, -459580.75, -578549.0, -23696.023, 0.008888926, -0.13414958, -455034.7, -12284.395, 0.0, 10.000424, 9.998842 
4.5003188e+1, 2.648192e+2, -377856.34, -515078.16, -13033.89, 0.005677488, -0.11636176, -376629.3, -31867.48, 0.0, 10.000428, 9.998604 
4.5003536e+1, 2.7481875e+2, -259742.45, -410767.22, -5334.8926, 0.006653158, -0.027375214, -259554.23, -12786.32, 0.0, 10.000581, 9.998573 
4.5003977e+1, 2.8481728e+2, -157517.52, -313382.63, 2421.74, 0.017187081, -0.029063737, -157479.9, -8697.127, 0.000000014300223, 10.000623, 9.998548 
4.5004377e+1, 2.9481474e+2, -64641.71, -218369.48, 11434.34, 0.02515083, -0.14491123, -63795.87, -12988.483, 0.000006428048, 10.000589, 9.998544 
4.5004246e+1, 3.0481428e+2, -40339.105, -242784.13, 8023.144, -0.014123441, -0.01452259, -40021.637, -40021.637, 0.00007216027, 10.000686, 9.998 
4.5004368e+1, 3.1481126e+2, 134167.02, 85691.52, -7454.7183, -0.013992232, -0.11619198, 135287.53, 135287.53, 0.00026447666, 10.000828, 10.00019 
5.5000407e+1, 1.2482824e+2, -1644617.5, -1638754.6, -9428.432, -0.09459083, -0.11120813, -1631812.5, 84859.17, 0.0011275938, 10.000296, 10.000381 
5.500155e+1, 1.3482642e+2, -1637051.6, -1745908.5, -13947.03, -0.064840235, -0.18381916, -1635293.1, -16602.092, 0.00066134764, 10.000376, 9.998933 
5.500226e+1, 1.4482753e+2, -1439391.6, -1479377.3, -45582.88, -0.04182967, -0.021141922, -1409609.9, 111070.87, 0.00028458898, 10.000538, 10.000004 
5.500267e+1, 1.5482646e+2, -1308759.0, -1379244.5, -38604.605, -0.009336692, -0.12489379, -1291729.8, 130960.89, 0.00007188515, 10.000821, 9.999882 
5.5002785e+1, 1.6482608e+2, -1223276.4, -1280448.4, -30664.621, -0.0021874476, -0.15297616, -1209940.1, 114753.42, 0.0000055425044, 10.000707, 9.999943 
5.5002606e+1, 1.7482609e+2, -1203834.0, -1222674.0, -15509.975, -0.022002313, -0.15225926, -1195107.5, 31584.996, 0.00000000116644, 10.000178, 9.999922 
5.5002695e+1, 1.8482596e+2, -1164680.8, -1216172.0, -14996.13, -0.017265547, -0.12813322, -1160631.8, -31937.506, 0.0, 10.000047, 9.999358 
5.500308e+1, 1.9482587e+2, -1026055.56, -1104018.6, -31765.756, 0.014586719, -0.07494192, -1014751.7, 15945.55, 0.0, 10.00035, 9.99931 
5.500295e+1, 2.0482534e+2, -918258.5, -1016414.1, -41144.797, 0.0024935282, -0.049045548, -903293.1, 29409.94, 0.0, 10.000481, 9.999174 
5.5002254e+1, 2.1482438e+2, -831342.1, -928172.3, -27776.3, -0.0560573, -0.06852321, -823940.2, 10771.981, 0.0, 10.000423, 9.999135 
5.5002356e+1, 2.2482312e+2, -740891.7, -851913.7, -9816.468, -0.054279722, -0.097854175, -740030.44, -3306.643, 0.0, 10.00045, 9.998972 
5.5003303e+1, 2.3482165e+2, -627348.5, -751114.4, -14372.283, 0.012515031, -0.14611818, -625701.44, 13036.083, 0.0, 10.000577, 9.99893 
5.5003697e+1, 2.4482061e+2, -535322.7, -663192.1, -28294.799, 0.03726732, -0.13787934, -529341.44, 11406.171, 0.0, 10.0005665, 9.998866 
5.5003494e+1, 2.5482008e+2, -461426.38, -580683.8, -28419.287, 0.01598562, -0.08198703, -455000.28, -12246.918, 0.0, 10.000417, 9.998832 
5.500357e+1, 2.64819e+2, -364107.6, -485458.56, -7903.289, 0.00032978167, -0.06859157, -363595.03, -18831.086, 0.0, 10.000424, 9.998809 
5.500401e+1, 2.7481744e+2, -246957.39, -382088.13, 691.9167, -0.0049728323, -0.10948643, -246953.84, -174.82991, 0.0, 10.000572, 9.998774 
5.500455e+1, 2.8481606e+2, -142354.44, -281108.28, 247.45236, 0.011118225, -0.12487576, -142354.0, 6438.7407, 0.00000001499631, 10.00062, 9.998771 
5.500511e+1, 2.9481485e+2, -48877.67, -184325.31, 12121.901, 0.03781466, -0.12855603, -47801.375, 3003.675, 0.000005758176, 10.000584, 9.99878 
5.500503e+1, 3.0481455e+2, -46283.945, -253901.58, 13374.015, -0.0053290394, 0.0059308833, -45425.984, -45425.984, 0.00006691841, 10.000681, 9.997927 
5.500524e+1, 3.1481102e+2, 136714.42, 92727.414, -822.1932, -0.012017627, -0.13333014, 136729.78, 136729.78, 0.00025031384, 10.000821, 10.000242 
6.500077e+1, 1.2482744e+2, -1590160.9, -1611440.0, 9755.366, -0.10496655, -0.13437182, -1586365.5, 130311.836, 0.001052614, 10.000667, 10.000386 
6.5002e+1, 1.3482563e+2, -1624794.1, -1743942.9, 29017.582, -0.06155682, -0.20222822, -1618102.9, 593.4058, 0.00060904585, 10.000478, 9.998895 
6.5002704e+1, 1.4482667e+2, -1467327.3, -1491815.5, 11400.314, -0.040973414, -0.046394724, -1462841.5, 57845.508, 0.000254567, 10.000343, 10.000012 
6.500304e+1, 1.5482573e+2, -1386630.8, -1416013.9, 2819.9216, -0.027711164, -0.1371429, -1386362.5, 36333.867, 0.00005931439, 10.000284, 9.999887 
6.500318e+1, 1.648254e+2, -1269123.3, -1291151.5, -15759.378, -0.014563601, -0.16530572, -1260910.5, 63788.254, 0.0000034805446, 10.000343, 10.000045 
6.500313e+1, 1.7482537e+2, -1144769.6, -1182673.5, -23141.602, -0.0038162956, -0.17862953, -1133809.9, 92887.37, 0.00000000000024211628, 10.000535, 10.000025 
6.500323e+1, 1.8482524e+2, -1099749.5, -1196610.3, -10895.255, 0.007076383, -0.15296626, -1098539.0, 30159.875, 0.0, 10.000545, 9.999251 
6.5003484e+1, 1.9482522e+2, -1032263.06, -1119041.5, -2211.0767, 0.019733986, -0.08375735, -1032206.75, -1504.2643, 0.0, 10.000359, 9.999201 
6.500337e+1, 2.0482478e+2, -939986.1, -1012424.0, -7737.6646, 0.0073245997, -0.052200787, -939168.8, -6460.817, 0.0, 10.000271, 9.999302 
6.500284e+1, 2.1482387e+2, -840176.06, -916964.8, -11798.542, -0.03312781, -0.07588352, -838404.1, -3688.6177, 0.0, 10.0002985, 9.9992695 
6.5002924e+1, 2.2482266e+2, -776110.7, -877568.0, 1311.7974, -0.031633656, -0.10427097, -776093.75, -39366.96, 0.0, 10.000246, 9.998894 
6.500367e+1, 2.3482116e+2, -702925.3, -796198.3, 216.11, 0.015823903, -0.14848082, -702924.8, -64183.14, 0.0, 10.000095, 9.998853 
6.5004003e+1, 2.4482009e+2, -596279.25, -694992.25, -7159.283, 0.03266501, -0.13842224, -595762.75, -55010.363, 0.0, 10.000157, 9.998846 
6.500392e+1, 2.548195e+2, -457745.97, -580352.75, -8453.321, 0.01598502, -0.08329696, -457165.88, -14407.6455, 0.0, 10.000448, 9.998819 
6.5004075e+1, 2.648184e+2, -350536.22, -470995.72, 4209.563, 0.00524523, -0.07915177, -350389.28, -5620.117, 0.0, 10.000484, 9.9988785 
6.500454e+1, 2.7481675e+2, -286548.34, -393830.5, 1305.016, 0.006021032, -0.13859342, -286532.5, -39747.594, 0.0, 10.00027, 9.998838 
6.500508e+1, 2.8481543e+2, -190670.25, -299683.72, -5316.5977, 0.020743828, -0.15024233, -190411.56, -41613.88, 0.000000013847158, 10.000267, 9.998813 
6.500561e+1, 2.9481453e+2, -63110.78, -184956.02, -8387.256, 0.03699817, -0.12813403, -62536.152, -11728.832, 0.00000502331, 10.00046, 9.998836 
6.5005636e+1, 3.0481404e+2, -65300.418, -261854.81, -9433.604, -0.0049291886, -0.015578463, -64848.69, -64848.69, 0.000061189545, 10.000545, 9.997937 
6.500617e+1, 3.1481072e+2, 103241.81, 91270.22, -22263.264, 0.014685714, -0.13656262, 120309.93, 120309.93, 0.0002346527, 10.000528, 10.000371 
7.5001746e+1, 1.2482713e+2, -1566668.4, -1564329.3, -399.2931, -0.078427665, -0.13763525, -1564262.9, 152415.55, 0.0009783517, 10.000673, 10.000707 
7.5002897e+1, 1.3482516e+2, -1603358.1, -1702402.9, 22856.754, -0.021737367, -0.25222778, -1598337.9, 20358.982, 0.00055803865, 10.000489, 9.999174 
7.5003153e+1, 1.4482613e+2, -1478793.3, -1517347.1, 8149.4277, -0.03259373, -0.10660109, -1477141.4, 43546.625, 0.00022607559, 10.00035, 9.999834 
7.500272e+1, 1.548257e+2, -1398944.1, -1442307.3, 980.4354, -0.08937549, -0.12867324, -1398922.0, 23772.844, 0.000048170983, 10.000287, 9.999706 
7.500289e+1, 1.6482553e+2, -1281470.5, -1315672.1, -9023.077, -0.078950435, -0.12377286, -1279236.0, 45461.277, 0.0000019773436, 10.0003395, 9.999878 
7.5003785e+1, 1.7482528e+2, -1156635.8, -1207719.9, -14853.057, 0.0061754836, -0.14022326, -1152631.0, 74067.125, 0.0, 10.000537, 9.999851 
7.5003904e+1, 1.8482491e+2, -1083545.6, -1163205.1, -17893.271, 0.018421283, -0.14227846, -1079711.0, 48990.508, 0.0, 10.0005455, 9.99948 
7.500319e+1, 1.9482459e+2, -1016033.56, -1084581.5, -8884.046, -0.04675319, -0.12775569, -1014900.9, 15804.769, 0.0, 10.000356, 9.999439 
7.500324e+1, 2.0482391e+2, -946404.44, -1024073.5, -7344.1353, -0.03308077, -0.12668204, -945716.1, -13003.633, 0.0, 10.000264, 9.999225 
7.5004125e+1, 2.1482289e+2, -847204.5, -929976.2, -9934.96, 0.06446927, -0.15470183, -846028.7, -11306.641, 0.0, 10.000293, 9.999184 
7.5004333e+1, 2.2482209e+2, -777767.7, -880203.06, -4781.496, 0.08345137, -0.13810278, -777544.94, -40814.38, 0.0, 10.000241, 9.9988785 
7.5003815e+1, 2.3482151e+2, -704521.1, -798823.8, -4821.601, 0.019783989, -0.08534241, -704275.25, -65537.88, 0.0, 10.000092, 9.9988365 
7.500378e+1, 2.4482039e+2, -598612.0, -698364.6, 3083.184, -0.006859833, -0.07958661, -598516.75, -57767.895, 0.0, 10.000152, 9.998825 
7.500427e+1, 2.548187e+2, -460418.1, -584118.0, 2771.7495, 0.0039676107, -0.13683417, -460356.03, -17591.125, 0.0, 10.000442, 9.998796 
7.500468e+1, 2.648174e+2, -355286.38, -480132.1, -4443.5034, 0.016044974, -0.14691594, -355128.4, -10350.979, 0.0, 10.000482, 9.9988165 
7.50051e+1, 2.7481657e+2, -292491.13, -404517.38, -5498.9307, 0.03444721, -0.11522671, -292221.84, -45436.242, 0.0, 10.000262, 9.998769 
7.500556e+1, 2.8481534e+2, -200783.06, -319727.53, 965.9704, 0.040234976, -0.10665167, -200775.22, -51977.473, 0.000000011324871, 10.000263, 9.998677 
7.5005877e+1, 2.948137e+2, -72729.59, -203734.7, -775.7082, 0.015847905, -0.1461025, -72725.0, -21910.605, 0.0000042980337, 10.000455, 9.998709 
7.5006044e+1, 3.0481273e+2, -59112.246, -248199.16, -10272.455, -0.019891148, -0.078719474, -58555.816, -58555.816, 0.00005527223, 10.000542, 9.998031 
7.500714e+1, 3.148103e+2, 117299.82, 122939.03, -25022.473, 0.056228142, -0.122526735, 145300.25, 145300.25, 0.00021799415, 10.000519, 10.000592 
8.500265e+1, 1.24826804e+2, -1570561.1, -1554115.6, -18075.738, -0.05065566, -0.13392913, -1542480.3, 174200.69, 0.00090933184, 10.000593, 10.000817 
8.500325e+1, 1.348247e+2, -1621746.8, -1704468.3, -11648.214, -0.027027331, -0.2663198, -1620137.9, -1438.1642, 0.0005120121, 10.000334, 9.999235 
8.5003316e+1, 1.4482553e+2, -1502775.5, -1529443.5, -18857.072, -0.041865993, -0.13836125, -1493014.4, 27677.55, 0.00020159004, 10.00019, 9.999828 
8.500315e+1, 1.5482531e+2, -1410722.3, -1448777.1, -14329.798, -0.07024749, -0.1383802, -1405929.9, 16767.186, 0.000039447743, 10.000213, 9.999698 
8.500336e+1, 1.6482526e+2, -1300497.6, -1333334.3, -8319.159, -0.0613151, -0.11803911, -1298510.3, 26188.465, 0.0000010481418, 10.000247, 9.9998 
8.500405e+1, 1.7482504e+2, -1199391.3, -1236995.8, -8640.764, -0.008166364, -0.124117166, -1197500.9, 29199.252, 0.0, 10.000282, 9.999772 
8.500412e+1, 1.8482454e+2, -1115205.6, -1161125.5, -19098.889, 0.0008372514, -0.14269036, -1108300.5, 20403.734, 0.0, 10.000254, 9.999636 
8.500352e+1, 1.9482392e+2, -1031707.9, -1073402.1, -16474.16, -0.03993959, -0.17280033, -1025984.4, 4725.2676, 0.0, 10.00017, 9.999605 
8.500364e+1, 2.0482323e+2, -955714.75, -1032259.06, -6370.1616, -0.017666759, -0.18028058, -955188.2, -22472.076, 0.0, 10.0002165, 9.999191 
8.5004556e+1, 2.1482247e+2, -835612.06, -929082.8, -6647.2603, 0.07330489, -0.17854947, -835141.7, -417.76352, 0.0, 10.00039, 9.999144 
8.5004693e+1, 2.2482175e+2, -759659.06, -874624.2, -8980.253, 0.08851304, -0.1483831, -758961.8, -22229.932, 0.0, 10.0003805, 9.99885 
8.500399e+1, 2.3482116e+2, -692354.94, -795280.2, -11737.455, 0.023664985, -0.09773914, -691033.44, -52294.03, 0.0, 10.000187, 9.998815 
8.5003966e+1, 2.4482e+2, -597142.4, -688608.75, 13832.912, -0.0014308661, -0.0976015, -595096.1, -54345.094, 0.0, 10.000123, 9.998905 
8.5004675e+1, 2.548183e+2, -489138.66, -589326.9, 20720.256, 0.013533926, -0.16354987, -485022.53, -42255.66, 0.0, 10.000207, 9.998874 
8.500516e+1, 2.6481706e+2, -384520.6, -499862.16, 9584.842, 0.025023019, -0.16840708, -383729.53, -38950.727, 0.0, 10.000303, 9.998768 
8.500549e+1, 2.7481636e+2, -275102.94, -401152.13, 7898.811, 0.040476546, -0.11560386, -274609.9, -27824.068, 0.0, 10.000402, 9.998725 
8.50059e+1, 2.8481513e+2, -179478.1, -308931.78, 26796.014, 0.04128018, -0.10876456, -174150.75, -25352.63, 0.000000007967864, 10.000406, 9.998684 
8.500618e+1, 2.9481322e+2, -90172.1, -211208.38, 34388.023, 0.007327364, -0.17503075, -81084.336, -30267.768, 0.00000360919, 10.00033, 9.998718 
8.5006505e+1, 3.0481184e+2, -91588.1, -263198.22, 25557.406, -0.016009832, -0.15113842, -87862.78, -87862.78, 0.000049311082, 10.000315, 9.998038 
8.5008013e+1, 3.1481007e+2, 89287.03, 116890.04, -2342.7546, 0.10269668, -0.12996176, 117087.46, 117087.46, 0.0002005974, 10.000293, 10.00066 
9.500344e+1, 1.2482644e+2, -1575957.9, -1567449.1, -32101.73, -0.034402605, -0.12249662, -1539321.1, 177363.8, 0.0008487081, 10.000602, 10.000722 
9.500308e+1, 1.3482428e+2, -1631563.1, -1726957.3, -21320.377, -0.07923213, -0.24374726, -1627014.9, -8310.051, 0.00047347447, 10.000341, 9.999079 
9.500322e+1, 1.4482488e+2, -1490267.6, -1504070.9, -18757.322, -0.07260294, -0.14012599, -1477182.5, 43516.3, 0.00018256163, 10.000192, 10.000001 
9.500429e+1, 1.5482454e+2, -1398342.9, -1424675.1, -12086.239, 0.020412069, -0.16843028, -1393636.5, 29066.451, 0.00003354367, 10.000218, 9.999861 
9.500452e+1, 1.6482455e+2, -1300854.4, -1334088.8, -7148.3496, 0.028783968, -0.15032439, -1299382.0, 25321.467, 0.00000057940093, 10.000248, 9.999794 
9.500394e+1, 1.7482458e+2, -1199456.0, -1237031.4, -6872.3384, -0.049143635, -0.1304241, -1198238.5, 28464.59, 0.0, 10.000281, 9.999772 
9.500389e+1, 1.848241e+2, -1108507.4, -1147084.6, -22904.117, -0.04906263, -0.15276565, -1097851.9, 30855.217, 0.0, 10.000253, 9.999732 
9.500444e+1, 1.948232e+2, -1025153.6, -1059905.8, -18869.451, 0.034406804, -0.21889348, -1016878.5, 13835.87, 0.0, 10.00017, 9.999697 
9.500452e+1, 2.0482269e+2, -956144.9, -1032081.3, -326.3027, 0.048717394, -0.21326324, -956143.44, -23424.424, 0.0, 10.000212, 9.999195 
9.500411e+1, 2.1482259e+2, -835900.44, -928488.9, 547.76886, -0.010546164, -0.14727132, -835897.2, -1176.1777, 0.0, 10.000385, 9.99915 
9.500399e+1, 2.2482167e+2, -763717.25, -881794.06, -16688.857, -0.020381125, -0.13466634, -761403.8, -24673.094, 0.0, 10.000375, 9.998803 
9.5004183e+1, 2.3482001e+2, -696806.9, -802399.94, -18556.61, 0.02390104, -0.18606466, -693640.75, -54893.05, 0.0, 10.000177, 9.99877 
9.500457e+1, 2.4481887e+2, -585058.44, -662508.44, 16029.731, 0.045531068, -0.1915369, -581871.9, -41112.875, 0.0, 10.000119, 9.999086 
9.5005155e+1, 2.5481826e+2, -477484.3, -563388.7, 24704.361, 0.039549317, -0.1645012, -470886.56, -28122.27, 0.0, 10.000199, 9.999055 
9.50055e+1, 2.6481736e+2, -388393.47, -506589.56, 12744.36, 0.028098026, -0.14455402, -387034.94, -42261.523, 0.0, 10.000298, 9.998725 
9.5005685e+1, 2.7481616e+2, -278048.0, -406166.75, 11801.162, 0.017960941, -0.13913955, -276970.06, -30184.533, 0.0, 10.000398, 9.998693 
9.500608e+1, 2.8481475e+2, -168973.72, -286402.22, 22723.75, 0.018054496, -0.15433443, -164729.8, -15931.111, 0.0000000042394483, 10.000404, 9.998839 
9.5006526e+1, 2.9481304e+2, -81493.64, -190725.86, 32881.46, 0.007681387, -0.21488546, -72359.38, -21545.584, 0.000002925069, 10.0003195, 9.998864 
9.500702e+1, 3.0481127e+2, -98870.1, -275752.88, 24546.848, 0.0033370801, -0.23348163, -95526.81, -95526.81, 0.000043225835, 10.000305, 9.997955 
9.500872e+1, 3.148099e+2, 81787.945, 103315.766, -3489.3372, 0.14233574, -0.16515326, 103867.2, 103867.2, 0.00018228774, 10.000284, 10.00057 
1.05003476e+2, 1.2482609e+2, -1680242.1, -1622201.3, 13523.87, -0.055171855, -0.16246453, -1619204.8, 97481.1, 0.00079770345, 9.999907, 10.000679 
1.050034e+2, 1.3482432e+2, -1621028.5, -1729499.4, 29336.412, -0.08633915, -0.23740904, -1613602.6, 5100.3105, 0.0004431459, 10.000449, 9.999007 
1.0500366e+2, 1.4482473e+2, -1422762.4, -1476628.5, 21755.904, -0.07164006, -0.14820668, -1415073.0, 105626.06, 0.00016917764, 10.000676, 9.999956 
1.05004705e+2, 1.5482402e+2, -1351289.4, -1407655.9, 10396.704, 0.023496393, -0.20918329, -1349432.9, 73273.12, 0.000030278157, 10.000566, 9.99981 
1.0500486e+2, 1.6482392e+2, -1289248.8, -1320744.1, 6196.6895, 0.03620666, -0.20091198, -1288073.5, 36633.49, 0.0000004316036, 10.000294, 9.999865 
1.05004124e+2, 1.7482421e+2, -1254921.6, -1255095.9, 11239.228, -0.036887776, -0.1647912, -1243769.1, -17065.049, 0.0, 9.999865, 9.999848 
1.0500415e+2, 1.8482381e+2, -1180595.9, -1194679.3, 3583.3994, -0.025744753, -0.17689677, -1179736.5, -51028.973, 0.0, 9.999814, 9.999617 
1.0500502e+2, 1.9482282e+2, -1034545.25, -1078150.6, -10052.913, 0.07637196, -0.23996751, -1032339.2, -1623.0585, 0.0, 10.000163, 9.999576 
1.0500502e+2, 2.048223e+2, -935241.8, -1012806.9, 1494.3726, 0.071838304, -0.23413455, -935213.06, -2492.0103, 0.0, 10.000315, 9.999278 
1.0500406e+2, 2.1482223e+2, -848896.94, -923917.56, 7700.28, -0.0477956, -0.17119938, -848114.75, -13392.801, 0.0, 10.000252, 9.999246 
1.0500388e+2, 2.2482134e+2, -775806.1, -873682.06, -3957.6821, -0.0619986, -0.1680355, -775646.3, -38915.47, 0.0, 10.000233, 9.998926 
1.0500455e+2, 2.3481962e+2, -675767.5, -779306.9, 5791.656, 0.03793582, -0.23557961, -675444.5, -36696.88, 0.0, 10.000265, 9.998886 
1.0500505e+2, 2.4481851e+2, -578560.2, -672261.9, 38986.28, 0.076524794, -0.23784582, -564460.8, -23702.176, 0.0, 10.000218, 9.998972 
1.0500536e+2, 2.5481805e+2, -501694.13, -587798.1, 22991.824, 0.046616666, -0.18887429, -495939.38, -53175.813, 0.0, 10.000088, 9.998942 
1.05005674e+2, 2.6481706e+2, -402753.84, -504591.03, 14060.101, 0.023016695, -0.17402922, -400848.28, -56074.824, 0.0, 10.000159, 9.998807 
1.05006054e+2, 2.7481562e+2, -265895.63, -391658.28, 21604.139, 0.013989223, -0.2004045, -262287.84, -15500.401, 0.0, 10.0004425, 9.998773 
1.05006516e+2, 2.848144e+2, -153548.64, -277953.3, 20297.469, 0.01665961, -0.20199096, -150320.72, -1521.869, 0.0000000012344323, 10.000504, 9.998851 
1.0500687e+2, 2.9481333e+2, -80480.086, -188116.78, 18416.639, 0.011483697, -0.20095918, -77416.21, -26607.959, 0.0000022309773, 10.000315, 9.998886 
1.0500739e+2, 3.0481112e+2, -98300.195, -275479.72, 18893.195, 0.0096760355, -0.2632546, -96307.95, -96307.95, 0.00003695323, 10.000305, 9.99796 
1.0500915e+2, 3.148096e+2, 101639.984, 104374.48, -8470.002, 0.14933231, -0.2088391, 111586.875, 111586.875, 0.00016279968, 10.000457, 10.000496 
1.1500275e+2, 1.24825776e+2, -1679137.1, -1621044.8, 31549.12, -0.12247524, -0.25489715, -1607207.1, 109476.7, 0.0007564602, 9.999911, 10.000685 
1.1500417e+2, 1.348248e+2, -1620214.8, -1727986.6, 50471.71, -0.056193978, -0.25068066, -1600269.3, 18425.262, 0.00042056636, 10.000449, 9.999019 
1.15004584e+2, 1.4482503e+2, -1442570.5, -1516849.6, 17880.668, -0.04848673, -0.16558959, -1438490.4, 82202.734, 0.00016082273, 10.000673, 9.999681 
1.15004405e+2, 1.5482372e+2, -1369645.6, -1447346.5, 7161.772, -0.06519116, -0.2602477, -1368991.0, 53715.23, 0.000029173776, 10.000572, 9.999535 
1.1500439e+2, 1.648234e+2, -1276938.0, -1296753.5, -10759.456, -0.042704362, -0.2678307, -1272219.4, 52489.58, 0.0000005105562, 10.000299, 10.000027 
1.1500459e+2, 1.748239e+2, -1243026.9, -1231347.3, -4285.458, 0.022351336, -0.2266088, -1229943.5, -3240.4922, 0.0, 9.999867, 10.0000105 
1.15004875e+2, 1.8482363e+2, -1204968.3, -1244521.5, 16007.395, 0.064077966, -0.21576747, -1199301.8, -70596.305, 0.0, 9.999811, 9.999276 
1.15005255e+2, 1.9482273e+2, -1059053.4, -1128549.5, 3847.137, 0.082564555, -0.23690681, -1058841.0, -28125.9, 0.0, 10.000161, 9.99923 
1.15005106e+2, 2.0482199e+2, -924034.0, -988642.5, -1390.1704, 0.048424397, -0.24306524, -924004.1, 8718.128, 0.0, 10.000311, 9.999447 
1.1500437e+2, 2.1482141e+2, -836973.25, -897896.4, 5904.1694, -0.042407144, -0.25048167, -836406.3, -1679.651, 0.0, 10.000246, 9.999427 
1.1500433e+2, 2.2482073e+2, -756370.6, -832013.06, -3294.2263, -0.04060137, -0.24890107, -756227.44, -19494.934, 0.0, 10.000227, 9.999215 
1.1500505e+2, 2.3482002e+2, -656603.06, -737939.56, 7696.0117, 0.061440587, -0.24549264, -655881.25, -17142.068, 0.0, 10.000258, 9.999173 
1.1500539e+2, 2.4481897e+2, -608788.2, -733656.2, 33516.387, 0.08769042, -0.23576798, -600360.7, -59610.81, 0.0, 10.000213, 9.998554 
1.1500529e+2, 2.5481758e+2, -531678.25, -648621.06, 18623.818, 0.029814448, -0.23616648, -528783.94, -86019.25, 0.0, 10.000081, 9.998528 
1.1500567e+2, 2.6481614e+2, -388747.25, -474904.8, 23509.045, 0.005995934, -0.2558807, -382750.0, -37970.984, 0.0, 10.000156, 9.999012 
1.15006626e+2, 2.7481472e+2, -253180.58, -363386.78, 32951.863, 0.02458755, -0.30080125, -244079.5, 2712.306, 0.0, 10.000435, 9.998971 
1.150072e+2, 2.8481403e+2, -164565.2, -298038.75, 12738.6, 0.03401556, -0.25369552, -163360.33, -14561.566, 0.00000000006210851, 10.000493, 9.998718 
1.150072e+2, 2.94814e+2, -88681.61, -204146.86, 12601.715, 0.01139854, -0.1335279, -87322.28, -36522.37, 0.0000015849012, 10.000311, 9.998777 
1.1500757e+2, 3.0481136e+2, -92031.39, -261019.25, 23811.715, -0.0030929823, -0.23932335, -88740.234, -88740.234, 0.000030721083, 10.0003, 9.998061 
1.150093e+2, 3.1480914e+2, 95846.555, 95442.516, -3389.7766, 0.11575634, -0.26228073, 99040.32, 99040.32, 0.00014243502, 10.000443, 10.000442 
1.2500264e+2, 1.2482569e+2, -1667737.0, -1615364.8, 17233.62, -0.12911189, -0.293306, -1610202.8, 106478.58, 0.0007247361, 9.99999, 10.000687 
1.2500443e+2, 1.348248e+2, -1690586.6, -1762585.9, 34149.355, -0.049938586, -0.28005835, -1676966.1, -58274.34, 0.00040489552, 9.999971, 9.999012 
1.2500492e+2, 1.44825e+2, -1541030.1, -1555035.6, 5461.0605, -0.045769464, -0.20211326, -1539152.4, -18461.508, 0.00015657058, 9.999957, 9.999765 
1.2500454e+2, 1.5482402e+2, -1450176.0, -1476631.3, 20017.871, -0.07784327, -0.26992056, -1439410.1, -16709.809, 0.000029665785, 9.999978, 9.9996195 
1.2500457e+2, 1.6482364e+2, -1301162.5, -1332456.6, 5912.462, -0.05076518, -0.27777877, -1300082.8, 24621.074, 0.0000007617598, 10.000236, 9.999814 
1.2500507e+2, 1.7482366e+2, -1132388.0, -1202947.3, -18252.78, 0.039645314, -0.26329175, -1127945.9, 98757.22, 0.0, 10.000733, 9.99979 
1.250053e+2, 1.8482329e+2, -1056282.8, -1178328.1, -134.31055, 0.07391492, -0.24974516, -1056282.5, 72424.35, 0.0, 10.000854, 9.9992285 
1.2500528e+2, 1.9482268e+2, -1002282.06, -1105629.5, 9763.242, 0.048451312, -0.23680088, -1001367.8, 29346.14, 0.0, 10.000571, 9.99919 
1.2500507e+2, 2.0482191e+2, -932438.3, -989267.5, 2849.2925, 0.017163163, -0.24412593, -932295.8, 425.25604, 0.0, 10.000238, 9.999477 
1.2500463e+2, 2.1482098e+2, -891497.8, -921028.44, -2971.1934, -0.020157399, -0.29128528, -891201.9, -56473.492, 0.0, 9.999856, 9.999456 
1.2500465e+2, 2.2482023e+2, -811065.2, -866773.1, -12520.582, -0.013744615, -0.29514563, -808380.5, -71645.586, 0.0, 9.999886, 9.999143 
1.2500514e+2, 2.3481977e+2, -646850.4, -741155.06, -29807.637, 0.039843533, -0.26046327, -638218.8, 521.19727, 0.0, 10.00036, 9.999103 
1.2500544e+2, 2.4481876e+2, -553261.6, -700319.25, -11897.565, 0.053356547, -0.24483392, -552305.3, -11555.032, 0.0, 10.000566, 9.998612 
1.2500548e+2, 2.5481722e+2, -470463.03, -613053.0, 8788.336, 0.021177538, -0.2646336, -469923.4, -27157.578, 0.0, 10.000476, 9.998583 
1.250059e+2, 2.6481575e+2, -374403.5, -467445.5, 27967.777, 0.0093833245, -0.29134926, -366643.75, -21863.66, 0.0, 10.000255, 9.999016 
1.250068e+2, 2.748144e+2, -330930.97, -401014.38, 19493.682, 0.026232578, -0.3318031, -325873.72, -79081.51, 0.0, 9.999901, 9.99897 
1.2500745e+2, 2.8481367e+2, -242074.67, -346438.5, 3925.7615, 0.034323353, -0.28127939, -241927.2, -93127.8, 0.0, 10.000006, 9.998621 
1.2500764e+2, 2.948136e+2, -57703.26, -199005.08, 4546.9175, 0.012244551, -0.15675126, -57557.098, -6755.621, 0.0000010474641, 10.0005665, 9.998691 
1.2500809e+2, 3.048107e+2, -23925.943, -195375.13, 11364.1455, 0.00400093, -0.30067056, -23175.977, -23175.977, 0.000024841802, 10.000627, 9.998357 
1.2500966e+2, 3.148091e+2, 51171.832, 77211.664, -5839.788, 0.12449278, -0.28787795, 78461.34, 78461.34, 0.00012195601, 10.000121, 10.000473 
1.350031e+2, 1.2482587e+2, -1669905.4, -1619023.3, 11671.194, -0.084389456, -0.27527305, -1616473.9, 100204.33, 0.0007016644, 9.999987, 10.000664 
1.3500418e+2, 1.3482432e+2, -1691864.1, -1768156.8, 34362.793, -0.07342678, -0.32269776, -1678669.0, -59974.09, 0.00039489288, 9.999983, 9.998968 
1.3500465e+2, 1.4482461e+2, -1507623.4, -1488105.0, 4617.8184, -0.069896065, -0.2555778, -1487067.6, 33624.926, 0.00015526546, 9.999968, 10.000219 
1.350051e+2, 1.5482496e+2, -1417981.5, -1410109.9, 21590.479, -0.02180398, -0.23931429, -1392099.4, 30588.996, 0.000031126172, 9.999979, 10.000076 
1.3500537e+2, 1.6482465e+2, -1343834.5, -1420267.1, 23996.926, 0.0048507997, -0.23265643, -1336925.0, -12233.475, 0.0000011270397, 10.000232, 9.999212 
1.3500553e+2, 1.7482346e+2, -1174950.4, -1292051.8, 1213.7399, 0.011632794, -0.27627552, -1174937.8, 51766.71, 0.0, 10.000736, 9.999177 
1.3500543e+2, 1.8482274e+2, -1037768.2, -1140344.1, -11064.991, 0.00051635935, -0.27884784, -1036588.2, 92123.92, 0.0, 10.000855, 9.999489 
1.3500507e+2, 1.948227e+2, -983363.7, -1066349.6, -338.72403, -0.03086486, -0.23845917, -983362.3, 47350.355, 0.0, 10.00057, 9.999461 
1.3500486e+2, 2.048221e+2, -941117.7, -1006198.3, -12037.198, -0.026972707, -0.23722832, -938962.7, -6245.105, 0.0, 10.000234, 9.999363 
1.3500486e+2, 2.1482094e+2, -901474.9, -939691.0, -16432.283, 0.015457773, -0.2937389, -895381.0, -60653.95, 0.0, 9.999846, 9.999333 
1.3500483e+2, 2.2481982e+2, -842839.44, -930898.3, 4247.498, 0.014565067, -0.306051, -842635.06, -105896.92, 0.0, 9.999878, 9.998706 
1.350048e+2, 2.3481882e+2, -677441.06, -804136.25, -11142.34, -0.031241916, -0.28143188, -676468.6, -37718.3, 0.0, 10.000357, 9.9986725 
1.3500516e+2, 2.4481785e+2, -516383.0, -622514.6, -15520.796, -0.031001264, -0.26613733, -514159.78, 26600.268, 0.0, 10.000561, 9.999149 
1.3500592e+2, 2.5481698e+2, -433359.53, -534261.94, 5864.766, 0.016298465, -0.27451846, -433019.78, 9747.152, 0.0, 10.000468, 9.999127 
1.3500638e+2, 2.6481587e+2, -390188.94, -498839.03, 14249.891, 0.029601274, -0.28116158, -388351.1, -43574.355, 0.0, 10.000248, 9.998804 
1.3500658e+2, 2.7481458e+2, -345249.4, -430338.2, 7373.345, 0.012050177, -0.29327095, -344615.2, -97826.46, 0.0, 9.9999, 9.998769 
1.3500723e+2, 2.848133e+2, -247036.58, -355758.28, 23632.219, 0.011881685, -0.2839586, -242121.94, -93321.17, 0.0, 10.000001, 9.99856 
1.3500819e+2, 2.9481205e+2, -63303.934, -208642.38, 26827.453, 0.008091411, -0.27192476, -58510.082, -7696.935, 0.0000006413962, 10.000557, 9.99863 
1.3500896e+2, 3.0480903e+2, 8163.027, -124641.27, -7681.578, 0.027033525, -0.44995326, 8605.863, 8605.863, 0.000019439243, 10.000611, 9.998849 
1.3501021e+2, 3.148094e+2, 59300.7, 96664.81, -26016.47, 0.16470909, -0.2891135, 110012.055, 110012.055, 0.000102001, 10.000113, 10.000609 
1.4500317e+2, 1.2482589e+2, -1640555.5, -1597373.4, -4868.382, -0.08172894, -0.25992316, -1596831.4, 119846.516, 0.0006852014, 10.0001545, 10.000731 
1.4500402e+2, 1.3482419e+2, -1709020.4, -1765920.4, 27213.506, -0.08036336, -0.33286124, -1698100.6, -79405.53, 0.00038852147, 9.999819, 9.999063 
1.4500451e+2, 1.4482425e+2, -1519489.3, -1490019.6, 3686.1116, -0.075532794, -0.29542267, -1489565.6, 31128.758, 0.00015533686, 9.999867, 10.000256 
1.4500536e+2, 1.5482478e+2, -1368738.6, -1383238.5, -13044.362, -0.010075271, -0.26205838, -1361064.9, 61623.168, 0.00003278088, 10.000302, 10.000105 
1.4500576e+2, 1.6482456e+2, -1321351.0, -1412997.9, -7544.6733, 0.01250817, -0.24695174, -1320734.1, 3956.246, 0.0000015078091, 10.0004015, 9.999181 
1.4500576e+2, 1.7482334e+2, -1262376.3, -1337985.6, 12142.166, -0.009149493, -0.28951773, -1260474.1, -33770.625, 0.0, 10.000153, 9.999143 
1.4500555e+2, 1.8482262e+2, -1159805.0, -1190232.8, 4981.0073, -0.028491208, -0.29686275, -1159010.4, -30298.889, 0.0, 9.999978, 9.99957 
1.4500514e+2, 1.948225e+2, -1077403.1, -1102724.4, -386.23544, -0.046411663, -0.2693147, -1077397.3, -46684.938, 0.0, 9.999885, 9.999542 
1.4500499e+2, 2.0482199e+2, -961425.56, -1029273.6, -6345.5303, -0.033629652, -0.25935426, -960837.2, -28120.246, 0.0, 10.000151, 9.999245 
1.4500514e+2, 2.1482104e+2, -771047.5, -890085.2, -11784.689, 0.012270144, -0.2814541, -769892.0, 64833.156, 0.0, 10.000801, 9.999213 
1.4500512e+2, 2.2481987e+2, -716169.06, -878208.9, 14397.154, 0.0113527225, -0.29004318, -714899.8, 21837.313, 0.0, 10.000784, 9.9986315 
1.4500493e+2, 2.3481849e+2, -727360.06, -836421.5, 25210.668, -0.038734373, -0.296241, -721814.4, -83061.73, 0.0, 10.00005, 9.998599 
1.4500533e+2, 2.4481748e+2, -607213.06, -655298.0, 31119.24, -0.0376037, -0.28825507, -591930.6, -51167.957, 0.0, 9.999889, 9.9992485 
1.4500631e+2, 2.548169e+2, -444281.88, -528540.56, 17337.254, 0.015415839, -0.27733657, -440853.97, 1912.5667, 0.0, 10.000346, 9.999226 
1.450068e+2, 2.648158e+2, -331837.84, -484152.63, 4655.8604, 0.026548574, -0.2787409, -331695.66, 13080.192, 0.0, 10.000707, 9.998683 
1.4500685e+2, 2.7481428e+2, -204245.63, -376152.7, 3854.8193, -0.000384473, -0.30285215, -204159.23, 42631.02, 0.0, 10.000928, 9.998646 
1.450075e+2, 2.8481287e+2, -134450.64, -291546.9, 30993.748, 0.002985801, -0.3071101, -128556.945, 20246.266, 0.0, 10.000733, 9.998648 
1.450086e+2, 2.9481158e+2, -120828.586, -226521.2, 44392.965, 0.017263291, -0.30720186, -104657.016, -53842.33, 0.0000003644557, 10.000119, 9.998717 
1.4500949e+2, 3.0480847e+2, -54038.105, -148006.42, 5360.5044, 0.04284531, -0.50004977, -53733.3, -53733.3, 0.000014553311, 10.000154, 9.998909 
1.4501059e+2, 3.1480926e+2, 127770.63, 90342.22, -52292.215, 0.1608927, -0.30520236, 164596.47, 164596.47, 0.0000830069, 10.0007515, 10.000258 
1.5500283e+2, 1.2482572e+2, -1626785.0, -1572001.0, -20298.951, -0.13573906, -0.24873938, -1565299.4, 151381.2, 0.0006719969, 10.000167, 10.000899 
1.5500386e+2, 1.3482434e+2, -1691545.5, -1730591.6, 14861.775, -0.07790906, -0.31291494, -1686532.4, -67839.66, 0.00038301162, 9.999821, 9.999305 
1.5500447e+2, 1.4482385e+2, -1546845.0, -1546197.8, 18882.15, -0.06887251, -0.3232196, -1527636.4, -6939.8467, 0.00015494693, 9.999866, 9.999871 
1.550053e+2, 1.5482351e+2, -1395616.6, -1440585.0, 4053.603, -0.046866108, -0.33754006, -1395254.1, 27445.162, 0.000033834087, 10.000309, 9.999708 
1.5500572e+2, 1.648234e+2, -1282535.3, -1333782.5, -17476.719, -0.033179928, -0.32007962, -1277142.6, 47557.58, 0.0000017896223, 10.000407, 9.999722 
1.5500574e+2, 1.7482334e+2, -1223363.4, -1257145.5, 3341.2793, -0.028515646, -0.30232108, -1223036.0, 3664.3054, 0.0, 10.000153, 9.999698 
1.5500565e+2, 1.8482289e+2, -1167407.9, -1205461.0, 869.3171, -0.019025171, -0.30389434, -1167388.0, -38683.063, 0.0, 9.999975, 9.999467 
1.5500548e+2, 1.9482213e+2, -1085536.1, -1119449.4, -3156.9758, -0.0020113052, -0.3305761, -1085244.8, -54531.54, 0.0, 9.999884, 9.999429 
1.5500543e+2, 2.0482157e+2, -970512.4, -1047121.1, 17042.217, -0.006464422, -0.3110436, -966892.25, -34172.875, 0.0, 10.000146, 9.999125 
1.550055e+2, 2.1482131e+2, -779749.56, -907930.3, 13350.01, -0.034164537, -0.25535205, -778373.94, 56348.953, 0.0, 10.000798, 9.999093 
1.5500553e+2, 2.2482038e+2, -696437.6, -836064.4, -13016.647, -0.028457107, -0.24833888, -695234.56, 41497.586, 0.0, 10.000779, 9.998923 
1.5500551e+2, 2.3481877e+2, -707555.3, -794065.8, -1806.8501, 0.013946921, -0.30536416, -707517.6, -68770.48, 0.0, 10.000044, 9.998893 
1.5500589e+2, 2.448176e+2, -632232.9, -705698.44, 47041.74, 0.029242562, -0.311163, -609281.3, -68523.09, 0.0, 9.999883, 9.998905 
1.5500665e+2, 2.5481692e+2, -469131.2, -579353.1, 35502.523, 0.012572354, -0.27295968, -458685.72, -15921.035, 0.0, 10.000342, 9.9988785 
1.5500721e+2, 2.6481554e+2, -334742.5, -488593.28, 12824.265, -0.0048364107, -0.28456107, -333680.84, 11096.7295, 0.0, 10.0007, 9.998655 
1.5500763e+2, 2.748135e+2, -207139.17, -380166.88, 12500.594, -0.016159497, -0.36125067, -206240.72, 40556.168, 0.0, 10.00092, 9.998621 
1.5500826e+2, 2.8481233e+2, -119436.71, -259330.92, 7585.208, 0.003397026, -0.3524251, -119026.63, 29780.262, 0.0, 10.000728, 9.998872 
1.550089e+2, 2.9481214e+2, -103233.85, -190231.53, 23801.416, 0.03309449, -0.26362106, -97147.85, -46341.6, 0.00000019831394, 10.000119, 9.998967 
1.5500967e+2, 3.0480903e+2, -81529.02, -203661.48, 27175.861, 0.044927604, -0.45192978, -75755.055, -75755.055, 0.000010333069, 10.000148, 9.9985285 
1.5501074e+2, 3.1480864e+2, 69105.625, -29818.621, -27835.428, 0.09940261, -0.33539134, 76400.11, 76400.11, 0.00006547037, 10.000744, 9.999435 
1.6500242e+2, 1.2482535e+2, -1778940.8, -1645847.9, 17558.02, -0.14077352, -0.2894012, -1643570.5, 73111.93, 0.00065754744, 9.999124, 10.000895 
1.65004e+2, 1.3482451e+2, -1625952.3, -1692821.4, 38433.977, -0.068127126, -0.30544853, -1608445.3, 10244.183, 0.00037533476, 10.000245, 9.999357 
1.6500477e+2, 1.4482383e+2, -1455357.9, -1528685.6, 27741.129, -0.060686916, -0.32505566, -1446045.5, 74649.71, 0.00015252095, 10.000608, 9.999631 
1.6500548e+2, 1.54823e+2, -1435615.9, -1487180.0, 21763.271, -0.05227659, -0.3642934, -1427658.5, -4955.184, 0.000033788867, 10.000153, 9.999463 
1.6500573e+2, 1.6482279e+2, -1336273.8, -1326788.6, -7127.653, -0.048662424, -0.3576202, -1322970.0, 1734.7161, 0.0000018950186, 9.999895, 10.000016 
1.6500549e+2, 1.748231e+2, -1247045.4, -1234626.3, -6908.1533, -0.051748626, -0.3334799, -1231547.1, -4846.9736, 0.0, 9.999844, 10.000001 
1.6500548e+2, 1.848228e+2, -1171993.9, -1217860.4, -6706.738, -0.03354568, -0.33090836, -1171033.4, -42330.33, 0.0, 9.999988, 9.999375 
1.650057e+2, 1.9482195e+2, -1024428.1, -1100625.6, -10631.79, 0.008541416, -0.35524106, -1022972.5, 7740.0537, 0.0, 10.000348, 9.999334 
1.6500585e+2, 2.0482135e+2, -941384.8, -1040789.94, 14888.093, 0.009873707, -0.335377, -939202.9, -6482.9233, 0.0, 10.000379, 9.999057 
1.6500594e+2, 2.1482098e+2, -892662.4, -969678.5, 14363.844, -0.032990336, -0.28193912, -890070.7, -55345.87, 0.0, 10.000054, 9.999028 
1.6500603e+2, 2.2482012e+2, -770031.56, -857327.7, -21733.32, -0.027793959, -0.2696446, -764920.1, -28186.975, 0.0, 10.000213, 9.99905 
1.6500613e+2, 2.348188e+2, -575100.75, -715579.8, -24710.217, 0.029952196, -0.31166372, -570880.94, 67863.76, 0.0, 10.000892, 9.9990225 
1.6500643e+2, 2.4481757e+2, -505971.44, -675720.06, 17060.44, 0.04590514, -0.3166314, -504273.78, 36482.633, 0.0, 10.000882, 9.99863 
1.6500689e+2, 2.5481647e+2, -520970.2, -635531.25, 10169.291, 0.014568463, -0.29265934, -520074.5, -77306.734, 0.0, 10.000121, 9.998599 
1.6500752e+2, 2.6481494e+2, -451152.03, -541557.8, 9287.308, -0.0037205478, -0.30835313, -450207.84, -105425.29, 0.0, 9.9998865, 9.998683 
1.6500835e+2, 2.7481297e+2, -306455.6, -425034.13, 11483.894, -0.0016180186, -0.3807055, -305353.7, -58552.76, 0.0, 10.000224, 9.998648 
1.65009e+2, 2.848118e+2, -163598.0, -293765.53, -21603.145, 0.018669989, -0.36309254, -160106.31, -11295.703, 0.0, 10.000482, 9.998754 
1.650093e+2, 2.948117e+2, -39051.23, -172916.78, -33867.27, 0.038144104, -0.25414944, -30970.75, 19838.852, 0.000000103924, 10.00062, 9.998843 
1.6501011e+2, 3.0480868e+2, 10370.718, -169822.1, -8412.617, 0.042188507, -0.4216026, 10762.623, 10762.623, 0.000006944009, 10.000825, 9.998433 
1.6501133e+2, 3.1480792e+2, 80969.29, -80856.58, -44381.91, 0.06830208, -0.3338351, 92342.09, 92342.09, 0.000049939055, 10.001069, 9.998927 
1.7500192e+2, 1.2482476e+2, -1791363.1, -1671657.6, 54059.266, -0.10573066, -0.38152772, -1650858.3, 65825.08, 0.0006370072, 9.999125, 10.000717 
1.7500438e+2, 1.3482466e+2, -1634433.6, -1711976.0, 81802.98, -0.055789154, -0.30967015, -1582678.9, 36006.066, 0.00036284848, 10.000252, 9.999223 
1.7500545e+2, 1.4482416e+2, -1461582.5, -1542937.4, 10353.255, -0.05740812, -0.30143815, -1460285.6, 60404.844, 0.00014707113, 10.000613, 9.999532 
1.7500584e+2, 1.5482321e+2, -1442062.9, -1501265.6, 5141.761, -0.03348495, -0.34258297, -1441619.6, -18919.572, 0.00003249045, 10.0001545, 9.999366 
1.7500572e+2, 1.6482273e+2, -1332581.4, -1319372.9, -10198.939, -0.04022454, -0.35993633, -1313826.6, 10877.366, 0.0000018022155, 9.999896, 10.000068 
1.7500505e+2, 1.7482261e+2, -1243173.3, -1226997.4, -8291.222, -0.082281955, -0.38352495, -1223502.6, 3200.3862, 0.0, 9.999845, 10.000053 
1.7500505e+2, 1.8482234e+2, -1177309.5, -1228908.1, 5992.993, -0.076882295, -0.3778913, -1176622.6, -47917.035, 0.0, 9.999988, 9.9993 
1.7500578e+2, 1.9482201e+2, -1029930.75, -1112019.6, 3535.1743, -0.018878816, -0.34354833, -1029778.75, 931.5804, 0.0, 10.000348, 9.999256 
1.7500626e+2, 2.0482126e+2, -942555.0, -1042301.56, 2519.4546, 0.011307799, -0.33235392, -942491.44, -9772.608, 0.0, 10.000375, 9.999048 
1.7500643e+2, 2.1482006e+2, -894290.7, -971460.6, 2908.6409, 0.011717178, -0.36166832, -894181.25, -59450.227, 0.0, 10.000047, 9.99902 
1.7500661e+2, 2.2481914e+2, -773814.75, -863490.5, 2624.3162, 0.009249052, -0.35375276, -773738.0, -36997.82, 0.0, 10.000205, 9.999011 
1.7500679e+2, 2.3481858e+2, -578297.94, -721558.2, 1612.7211, 0.0045016888, -0.31618607, -578279.75, 60465.883, 0.0, 10.000888, 9.998983 
1.7500694e+2, 2.4481735e+2, -520981.47, -705896.3, -11217.437, 0.00787876, -0.3062708, -520303.47, 20454.072, 0.0, 10.000878, 9.998425 
1.7500705e+2, 2.5481552e+2, -535859.3, -665394.75, -18023.371, 0.0175054, -0.33711323, -533398.3, -90622.47, 0.0, 10.000116, 9.998396 
1.750077e+2, 2.6481393e+2, -446099.75, -530607.0, 20629.979, 0.026477711, -0.35100383, -441332.5, -96541.62, 0.0, 9.999885, 9.99876 
1.7500898e+2, 2.748126e+2, -300982.47, -412919.84, 25354.145, 0.037793636, -0.36211628, -295507.47, -48705.004, 0.0, 10.00022, 9.9987335 
1.7500974e+2, 2.8481135e+2, -197985.5, -363681.06, -16871.258, 0.04250851, -0.3390173, -196285.11, -47470.688, 0.0, 10.000476, 9.998276 
1.7500983e+2, 2.948103e+2, -74634.47, -245311.19, -27277.889, 0.025888626, -0.2783513, -70380.87, -19556.037, 0.00000004563321, 10.000614, 9.998348 
1.7501082e+2, 3.0480748e+2, 24279.3, -141565.0, 479.0146, 0.028490335, -0.4095482, 24280.684, 24280.684, 0.0000044345684, 10.000826, 9.998628 
1.7501234e+2, 3.1480718e+2, 69185.0, -106022.35, -33675.68, 0.058113467, -0.29517084, 75434.695, 75434.695, 0.00003672069, 10.001069, 9.998755 
1.8500204e+2, 1.2482399e+2, -1616878.3, -1601569.8, -14927.059, -0.06983134, -0.39180484, -1592448.9, 124240.83, 0.0006065531, 10.000382, 10.00059 
1.8500434e+2, 1.3482395e+2, -1723776.5, -1761577.8, 19340.938, -0.056706075, -0.31029674, -1715634.4, -96942.77, 0.00034376056, 9.999666, 9.999164 
1.8500529e+2, 1.4482348e+2, -1612324.5, -1575475.3, -43161.03, -0.073768646, -0.31269234, -1546970.8, -26274.117, 0.00013809917, 9.999405, 9.99989 
1.8500574e+2, 1.5482293e+2, -1494681.9, -1485330.8, -15014.916, -0.032499503, -0.34961635, -1474280.3, -51579.055, 0.000029920388, 9.999616, 9.999735 
1.8500574e+2, 1.6482255e+2, -1349897.0, -1350326.3, -10979.342, -0.026379554, -0.36473915, -1339130.1, -14426.049, 0.0000015280342, 9.999875, 9.999865 
1.8500526e+2, 1.7482227e+2, -1207571.1, -1233491.1, -30493.588, -0.062847435, -0.38509214, -1187397.8, 39308.56, 0.0, 10.000191, 9.999842 
1.850053e+2, 1.8482193e+2, -1129140.6, -1206932.9, -22036.32, -0.06549414, -0.3739876, -1123332.0, 5377.8076, 0.0, 10.000322, 9.9992895 
1.8500596e+2, 1.9482167e+2, -1043504.2, -1118969.3, -19903.385, -0.03068166, -0.33274454, -1038576.56, -7862.851, 0.0, 10.000257, 9.999252 
1.8500644e+2, 2.0482089e+2, -963259.0, -1043021.6, -25961.684, 0.002019029, -0.32824418, -955553.25, -22831.332, 0.0, 10.000193, 9.999131 
1.8500672e+2, 2.1481957e+2, -874956.94, -952500.8, -20415.334, 0.032386314, -0.3781365, -869910.5, -35175.973, 0.0, 10.000138, 9.999105 
1.8500699e+2, 2.2481856e+2, -810014.8, -898580.44, -3260.7466, 0.035054218, -0.37648562, -809894.94, -73150.23, 0.0, 10.000032, 9.998854 
1.850072e+2, 2.3481792e+2, -737580.3, -816318.1, -13988.786, 0.009126082, -0.3288976, -735168.9, -96417.2, 0.0, 9.999871, 9.998823 
1.8500748e+2, 2.4481665e+2, -622437.8, -756555.5, -31362.617, 0.0077613336, -0.3161293, -615466.25, -74701.84, 0.0, 10.00019, 9.998407 
1.8500775e+2, 2.5481474e+2, -405222.3, -604200.6, -25463.227, 0.030816125, -0.35100004, -402015.47, 40767.21, 0.0, 10.001021, 9.99838 
1.8500835e+2, 2.6481318e+2, -286401.84, -468591.22, 2408.0825, 0.04335178, -0.3568138, -286370.0, 58427.508, 0.0, 10.001046, 9.998626 
1.8500929e+2, 2.7481192e+2, -314847.2, -434585.53, -10818.805, 0.048521932, -0.34887177, -313877.53, -67068.71, 0.0, 10.000191, 9.998598 
1.8501009e+2, 2.848104e+2, -264506.75, -407167.8, -21090.645, 0.050115407, -0.34107152, -261454.1, -112630.336, 0.0, 10.000069, 9.998173 
1.8501058e+2, 2.9480878e+2, -63915.215, -253087.94, -3704.1523, 0.034851596, -0.32467028, -63842.71, -13002.698, 0.000000013949684, 10.000745, 9.998232 
1.8501176e+2, 3.0480653e+2, 57877.617, -86307.33, 25800.234, 0.037294164, -0.4107171, 62355.223, 62355.223, 0.0000026902987, 10.000889, 9.998976 
1.8501286e+2, 3.1480664e+2, -19870.6, -134329.7, 198.71367, 0.03775646, -0.2916798, -19870.254, -19870.254, 0.000025863523, 10.000399, 9.998881 
1.9500275e+2, 1.2482305e+2, -1621605.6, -1613266.3, -46012.758, -0.041102856, -0.31940857, -1571234.6, 145466.69, 0.0005643703, 10.00039, 10.000507 
1.9500384e+2, 1.3482232e+2, -1722243.8, -1759224.5, -6903.571, -0.07571756, -0.30687997, -1720997.0, -102287.55, 0.00031730495, 9.999669, 9.999179 
1.950043e+2, 1.4482178e+2, -1554667.5, -1456232.4, -36401.47, -0.11576128, -0.35856396, -1444233.8, 76480.17, 0.00012543245, 9.999407, 10.000709 
1.9500516e+2, 1.5482217e+2, -1435215.3, -1362868.0, -6243.6514, -0.052796297, -0.38505372, -1362333.1, 60373.527, 0.000026112697, 9.9996195, 10.000574 
1.9500579e+2, 1.6482228e+2, -1381885.5, -1417110.5, 170.59029, -0.011557971, -0.37216544, -1381884.6, -57179.477, 0.0000011234973, 9.999876, 9.999406 
1.9500612e+2, 1.7482205e+2, -1240945.4, -1302961.9, -17968.404, 0.0027745473, -0.3382294, -1236115.5, -9405.609, 0.0, 10.000192, 9.999365 
1.9500627e+2, 1.8482158e+2, -1124980.6, -1197852.0, -24742.057, -0.003918805, -0.31918675, -1117374.0, 11342.056, 0.0, 10.000321, 9.999352 
1.9500622e+2, 1.9482094e+2, -1039033.94, -1109252.8, -21909.514, -0.030248389, -0.32284808, -1032758.6, -2035.8909, 0.0, 10.000255, 9.99932 
1.9500642e+2, 2.0482023e+2, -951641.8, -1017870.2, -28607.283, -0.021546373, -0.3228933, -940996.1, -8266.751, 0.0, 10.000188, 9.999306 
1.950068e+2, 2.1481949e+2, -863129.94, -926765.75, -21659.674, 0.024706023, -0.33276746, -856457.3, -21721.668, 0.0, 10.000133, 9.999285 
1.9500715e+2, 2.2481836e+2, -830052.6, -938980.75, -10041.886, 0.045864474, -0.3384304, -829134.6, -92387.76, 0.0, 10.000028, 9.998579 
1.950074e+2, 2.3481686e+2, -757856.5, -857334.56, -19444.375, 0.040322945, -0.35005444, -754190.94, -115428.06, 0.0, 9.999867, 9.998544 
1.9500801e+2, 2.4481544e+2, -611270.8, -732498.5, -1300.422, 0.042721506, -0.3459941, -611256.9, -70479.88, 0.0, 10.000186, 9.998574 
1.9500898e+2, 2.5481418e+2, -394265.75, -579736.4, 6654.491, 0.04982322, -0.33483508, -394027.3, 48761.11, 0.0, 10.001015, 9.99855 
1.950094e+2, 2.6481265e+2, -311747.7, -520594.5, -29462.02, 0.04283261, -0.325621, -307671.06, 37131.508, 0.0, 10.001043, 9.998271 
1.9500926e+2, 2.7481082e+2, -339922.72, -486281.3, -42855.543, 0.026131973, -0.34098625, -328297.5, -81477.43, 0.0, 10.000189, 9.998245 
1.9501002e+2, 2.8480887e+2, -246163.16, -368008.84, 2634.8452, 0.037137836, -0.3693025, -246106.2, -97267.44, 0.0, 10.000065, 9.998443 
1.950116e+2, 2.9480714e+2, -47021.87, -216108.88, 23861.846, 0.060639028, -0.39404956, -43718.965, 7136.4087, 0.0000000023315327, 10.000736, 9.998489 
1.9501293e+2, 3.048058e+2, 91520.445, -15098.505, 7062.721, 0.0637949, -0.4250088, 91986.26, 91986.26, 0.0000015022418, 10.000884, 9.999468 
1.9501288e+2, 3.148064e+2, 7708.25, -77378.37, -15033.981, -0.0035850608, -0.310811, 10286.484, 10286.484, 0.000017298122, 10.0004, 9.999273 
2.0500258e+2, 1.2482183e+2, -1720730.0, -1630462.8, -35534.027, -0.056496363, -0.3083478, -1618153.3, 98561.695, 0.0005112227, 9.999578, 10.00078 
2.050036e+2, 1.348212e+2, -1707468.4, -1711137.5, 29846.254, -0.061622787, -0.321577, -1679400.4, -60680.207, 0.00028397882, 9.999595, 9.999546 
2.0500398e+2, 1.448207e+2, -1526528.8, -1443748.6, 1722.3892, -0.097484216, -0.385485, -1443712.8, 77010.82, 0.000109345056, 9.999603, 10.0007 
2.0500478e+2, 1.5482144e+2, -1440818.4, -1366252.5, -33201.047, -0.05057016, -0.37929577, -1353612.3, 69102.12, 0.000021261263, 9.999583, 10.000568 
2.0500562e+2, 1.648217e+2, -1411802.3, -1425869.4, -33744.34, -0.0047906055, -0.35287166, -1384366.3, -59654.547, 0.00000067965186, 9.999646, 9.999458 
2.0500642e+2, 1.7482148e+2, -1293396.1, -1322374.6, -12918.4795, 0.032949798, -0.32296208, -1288473.4, -61757.293, 0.0, 9.999806, 9.999418 
2.0500669e+2, 1.84821e+2, -1184021.8, -1211968.1, -7201.548, 0.029961757, -0.31435013, -1182275.1, -53553.023, 0.0, 9.999854, 9.999481 
2.050064e+2, 1.9482031e+2, -1098182.1, -1122852.8, -1232.4554, -0.01426731, -0.3362536, -1098120.8, -67391.984, 0.0, 9.999784, 9.999454 
2.0500651e+2, 2.0481971e+2, -1002087.4, -1046664.0, -6070.439, -0.012944603, -0.331511, -1001275.5, -68540.99, 0.0, 9.999861, 9.999266 
2.0500703e+2, 2.1481921e+2, -871898.2, -935738.44, -16679.605, 0.03631569, -0.31093386, -867803.0, -33064.137, 0.0, 10.000093, 9.999243 
2.0500752e+2, 2.2481807e+2, -785135.6, -925361.7, -4708.628, 0.065122366, -0.31221724, -784977.7, -48227.434, 0.0, 10.000371, 9.9985075 
2.05008e+2, 2.3481624e+2, -642010.0, -809603.25, 94.647316, 0.072575316, -0.34898186, -642009.94, -3241.0786, 0.0, 10.000698, 9.998471 
2.0500869e+2, 2.4481471e+2, -551168.6, -706649.9, 22297.371, 0.06984291, -0.35118404, -548034.2, -7250.309, 0.0, 10.000612, 9.998547 
2.0500956e+2, 2.5481358e+2, -532144.0, -649479.25, 14077.592, 0.05357472, -0.3247236, -530478.7, -87684.39, 0.0, 10.000082, 9.998522 
2.0501004e+2, 2.64812e+2, -451253.34, -609611.2, -29325.29, 0.046830345, -0.3133703, -445997.25, -101187.56, 0.0, 10.000179, 9.998076 
2.0501013e+2, 2.748098e+2, -243848.42, -462371.34, -32706.602, 0.056573544, -0.34116483, -239058.19, 7772.805, 0.0, 10.000945, 9.998045 
2.0501074e+2, 2.848078e+2, -133649.52, -298277.72, 6407.7705, 0.06758539, -0.37184483, -133400.48, 15449.816, 0.0, 10.000771, 9.998583 
2.050118e+2, 2.9480633e+2, -207653.1, -279041.66, 16378.813, 0.065054856, -0.38325682, -204074.64, -153211.02, 0.000000000097020676, 9.999572, 9.998618 
2.0501311e+2, 3.0480546e+2, -99917.34, -108286.35, 3204.9717, 0.059823748, -0.37543267, -98830.99, -98830.99, 0.0000007350318, 9.999572, 9.999461 
2.0501328e+2, 3.1480512e+2, 77397.51, -35437.613, -56149.508, -0.025617376, -0.3534252, 100577.11, 100577.11, 0.000010898163, 10.00084, 9.9993515 
2.150015e+2, 1.2482031e+2, -1677233.0, -1540903.4, -38917.492, -0.12511338, -0.35903132, -1530576.1, 186154.48, 0.00045034575, 9.99958, 10.001394 
2.1500364e+2, 1.3482057e+2, -1656661.6, -1607451.8, 31725.08, -0.017903026, -0.35473174, -1591908.5, 26815.414, 0.0002457903, 9.999601, 10.000256 
2.1500435e+2, 1.4482029e+2, -1583936.8, -1563787.9, 237.94385, -0.024181424, -0.39297295, -1563785.0, -43059.168, 0.00009091271, 9.999608, 9.999874 
2.150046e+2, 1.5482071e+2, -1500281.0, -1489643.4, -33220.465, -0.029328227, -0.33244237, -1461318.6, -38594.43, 0.000015871614, 9.999583, 9.9997225 
2.150052e+2, 1.6482082e+2, -1372620.9, -1344136.0, -28241.143, -0.011049653, -0.30689475, -1326749.1, -2025.3114, 0.00000031009594, 9.999644, 10.000019 
2.1500614e+2, 1.7482056e+2, -1251990.3, -1237459.3, -6099.919, 0.024137355, -0.33951095, -1235238.1, -8512.981, 0.0, 9.99981, 10.0 
2.1500657e+2, 1.8482018e+2, -1170115.1, -1183184.8, -9990.0, 0.031522997, -0.35946062, -1164712.4, -35984.332, 0.0, 9.999854, 9.999679 
2.1500649e+2, 1.9481976e+2, -1084569.0, -1094175.4, -3018.2964, 0.014137248, -0.37291363, -1083699.4, -52967.62, 0.0, 9.999783, 9.999652 
2.1500675e+2, 2.0481928e+2, -1020821.9, -1083973.8, 2068.0088, 0.024594694, -0.35392934, -1020754.25, -88016.99, 0.0, 9.999855, 9.999013 
2.150074e+2, 2.1481875e+2, -890944.5, -974073.5, -7173.2637, 0.06359295, -0.31152487, -890330.06, -55585.94, 0.0, 10.000089, 9.998981 
2.1500815e+2, 2.2481768e+2, -777171.94, -907441.06, 6868.038, 0.08969086, -0.29791972, -776810.8, -40055.79, 0.0, 10.000365, 9.998632 
2.15009e+2, 2.3481607e+2, -633938.1, -790904.9, 13065.826, 0.1019337, -0.32643187, -632858.0, 5911.886, 0.0, 10.00069, 9.998602 
2.1500948e+2, 2.4481447e+2, -567523.44, -739913.9, 1996.6595, 0.08602229, -0.33115482, -567500.3, -26715.148, 0.0, 10.000608, 9.998322 
2.150095e+2, 2.5481296e+2, -548233.6, -681773.44, -5431.1533, 0.037648372, -0.32045034, -548013.1, -105212.81, 0.0, 10.000077, 9.998302 
2.1501029e+2, 2.648111e+2, -455550.5, -616947.06, -1978.2733, 0.051827215, -0.31973958, -455526.25, -110707.35, 0.0, 10.000173, 9.998029 
2.1501186e+2, 2.7480885e+2, -249024.38, -470963.13, -2980.8796, 0.13504654, -0.35020447, -248984.34, -2142.6174, 0.0, 10.0009365, 9.99799 
2.1501222e+2, 2.8480712e+2, -133388.23, -297378.56, -38628.227, 0.13730703, -0.3485567, -124744.85, 24113.705, 0.0, 10.000768, 9.998591 
2.1501115e+2, 2.9480636e+2, -207132.73, -279136.47, -28376.992, 0.041732397, -0.29325202, -197293.7, -146428.63, 0.0, 9.999575, 9.998618 
2.1501228e+2, 3.0480546e+2, -135307.69, -179300.33, 48835.25, 0.019641345, -0.2625495, -103743.57, -103743.57, 0.00000029764618, 9.999564, 9.998976 
2.1501403e+2, 3.1480297e+2, 57953.12, -72028.6, -2995.8887, -0.037934665, -0.4093198, 58022.137, 58022.137, 0.0000064156898, 10.000825, 9.999106 
2.2500102e+2, 1.2481992e+2, -1690767.4, -1563391.8, -5772.701, -0.12992798, -0.34824455, -1563130.6, 153604.52, 0.0003861587, 9.99956, 10.00125 
2.2500335e+2, 1.3482031e+2, -1689715.3, -1629640.9, 9516.674, 0.0020871072, -0.3262696, -1628169.4, -9441.797, 0.00020573656, 9.999405, 10.000197 
2.250042e+2, 1.4481987e+2, -1621490.8, -1602249.6, -19949.203, 0.008243889, -0.36724207, -1589722.4, -68991.11, 0.00007189719, 9.999438, 9.999693 
2.2500461e+2, 1.5482007e+2, -1498327.5, -1508394.5, -5341.4355, 0.010241431, -0.3110262, -1496021.5, -73289.336, 0.000010694928, 9.999682, 9.999546 
2.2500509e+2, 1.6482005e+2, -1347733.4, -1308111.6, 9280.612, 0.010065761, -0.29977754, -1306045.5, 18687.14, 0.000000092361944, 9.999711, 10.000235 
2.2500554e+2, 1.7481978e+2, -1280744.3, -1225837.1, 3183.7122, -0.0029393807, -0.3566399, -1225653.1, 1079.535, 0.0, 9.999503, 10.000227 
2.2500601e+2, 1.8481952e+2, -1208499.8, -1201441.4, -13212.798, 0.0028733602, -0.37647742, -1191294.5, -62560.598, 0.0, 9.99959, 9.9996805 
2.2500657e+2, 1.9481935e+2, -1052346.3, -1078768.3, -21848.754, 0.03289043, -0.3649534, -1040025.0, -9289.336, 0.0, 10.000004, 9.999651 
2.2500719e+2, 2.0481883e+2, -978336.75, -1077173.8, -20607.201, 0.06448646, -0.34247914, -974212.4, -41470.613, 0.0, 10.000206, 9.998891 
2.2500786e+2, 2.1481797e+2, -886688.94, -986065.6, -20661.645, 0.09620672, -0.31958947, -882564.3, -47812.176, 0.0, 10.000179, 9.998856 
2.2500859e+2, 2.2481686e+2, -787623.75, -901536.06, 4089.6816, 0.1045041, -0.3093887, -787477.06, -50713.633, 0.0, 10.000246, 9.998731 
2.250094e+2, 2.348155e+2, -668195.3, -796462.6, 6891.841, 0.087869436, -0.32388467, -667826.1, -29050.781, 0.0, 10.000408, 9.998701 
2.2500992e+2, 2.4481389e+2, -593223.75, -771125.44, -19542.139, 0.07499567, -0.32505202, -591102.44, -50311.637, 0.0, 10.000514, 9.998152 
2.2501008e+2, 2.548121e+2, -490145.5, -673883.5, -25396.008, 0.06450934, -0.32275227, -486699.9, -43890.465, 0.0, 10.000563, 9.998123 
2.2501086e+2, 2.6481026e+2, -416570.1, -589443.1, 1167.3193, 0.081475794, -0.31532106, -416562.2, -71733.805, 0.0, 10.000403, 9.998106 
2.2501229e+2, 2.7480838e+2, -378163.34, -524032.94, 9354.706, 0.12904982, -0.32070118, -377565.88, -130717.945, 0.0, 10.0000105, 9.998072 
2.2501257e+2, 2.8480664e+2, -234594.47, -356464.25, -39966.133, 0.1285072, -0.31987402, -222657.19, -73792.27, 0.0, 10.000116, 9.9985 
2.2501159e+2, 2.9480544e+2, -46061.78, -215161.69, -41221.477, 0.06985175, -0.29539618, -36548.434, 14327.074, 0.0, 10.000739, 9.998497 
2.2501266e+2, 3.0480465e+2, -6145.814, -146154.02, 57632.074, 0.05194924, -0.23363684, 14525.494, 14525.494, 0.000000091080636, 10.000574, 9.998718 
2.2501394e+2, 3.1480205e+2, -114653.516, -144645.13, 26380.395, -0.06513223, -0.36892545, -99304.65, -99304.65, 0.000003445728, 9.999595, 9.9992 
2.350011e+2, 1.24820694e+2, -1753445.0, -1694457.1, -18954.379, -0.08165817, -0.27117324, -1688891.6, 27836.838, 0.00032267286, 9.999566, 10.000347 
2.350027e+2, 1.348204e+2, -1748691.3, -1750598.4, 4247.1924, -0.004779435, -0.23634575, -1745291.9, -126560.75, 0.0001666326, 9.999398, 9.999371 
2.3500353e+2, 1.4481944e+2, -1590448.4, -1536343.5, -11395.458, -0.004178106, -0.3094983, -1534041.4, -13301.336, 0.00005400246, 9.999433, 10.000149 
2.3500484e+2, 1.5481949e+2, -1463275.0, -1437917.8, 4855.996, 0.06290055, -0.3152834, -1437019.6, -14281.094, 0.000006396683, 9.999692, 10.000027 
2.3500524e+2, 1.6481936e+2, -1355059.3, -1324727.4, 958.119, 0.052198585, -0.3315996, -1324697.3, 41.080334, 0.000000013163342, 9.999718, 10.000117 
2.3500456e+2, 1.7481913e+2, -1289360.0, -1243649.3, -4138.0156, -0.051443346, -0.37431046, -1243277.6, -16538.666, 0.0, 9.999502, 10.000105 
2.3500498e+2, 1.8481898e+2, -1222719.1, -1229740.1, 1548.2952, -0.05953933, -0.36594972, -1222392.9, -93652.96, 0.0, 9.999586, 9.999489 
2.3500663e+2, 1.9481905e+2, -1066025.8, -1107053.0, -5656.381, 0.038578548, -0.31170186, -1065260.1, -34519.87, 0.0, 10.000005, 9.999456 
2.3500778e+2, 2.0481835e+2, -978026.75, -1075912.0, -21766.77, 0.10295632, -0.29717565, -973404.75, -40656.688, 0.0, 10.000203, 9.9989 
2.3500839e+2, 2.1481693e+2, -886956.56, -984604.6, -20774.027, 0.12994461, -0.33536097, -882720.75, -47957.746, 0.0, 10.000172, 9.998869 
2.3500887e+2, 2.2481562e+2, -783903.56, -892332.1, 9346.537, 0.10618734, -0.3460205, -783103.8, -46328.27, 0.0, 10.000239, 9.998797 
2.3500922e+2, 2.3481452e+2, -663314.3, -785137.6, 13760.639, 0.02735612, -0.33994853, -661779.3, -22994.207, 0.0, 10.000403, 9.998781 
2.3501003e+2, 2.4481301e+2, -602993.6, -790463.2, -18346.008, 0.0333587, -0.3326443, -601215.1, -60414.5, 0.0, 10.000509, 9.998022 
2.3501131e+2, 2.5481108e+2, -501304.03, -695139.25, -22914.945, 0.12963338, -0.33230498, -498631.9, -55810.04, 0.0, 10.000554, 9.997981 
2.3501179e+2, 2.6480952e+2, -402802.4, -559698.5, -14142.63, 0.13170485, -0.29972064, -401537.78, -56699.535, 0.0, 10.000398, 9.998314 
2.3501135e+2, 2.7480835e+2, -362397.44, -490193.78, -4620.95, 0.033226494, -0.2530794, -362230.6, -115380.91, 0.0, 10.000006, 9.998307 
2.3501179e+2, 2.848063e+2, -249864.17, -386175.75, -17643.826, 0.036657535, -0.28636178, -247617.44, -98748.016, 0.0, 10.000108, 9.9983 
2.3501308e+2, 2.9480362e+2, -64118.016, -251174.6, -17331.049, 0.14423251, -0.39071512, -62525.824, -11630.709, 0.0, 10.000732, 9.998254 
2.3501426e+2, 3.0480304e+2, -8383.9795, -149162.78, 20487.307, 0.15340745, -0.28958207, -5463.0986, -5463.0986, 0.000000018380936, 10.000567, 9.998701 
2.3501302e+2, 3.1480244e+2, -86921.41, -85125.9, -3496.939, -0.119534865, -0.22996151, -82413.31, -82413.31, 0.0000016180604, 9.999585, 9.999614 
2.45001e+2, 1.2482057e+2, -1782676.6, -1720132.9, -62143.74, -0.03926073, -0.22964512, -1681836.3, 34894.914, 0.00026299746, 9.9994135, 10.000245 
2.4500254e+2, 1.3482009e+2, -1711540.6, -1733525.1, 23981.227, 0.026859552, -0.21428807, -1696152.4, -77416.484, 0.0001305452, 9.999658, 9.999363 
2.4500316e+2, 1.4481899e+2, -1548675.1, -1494271.0, 29416.332, 0.0076718605, -0.30925378, -1481407.3, 39338.27, 0.000038366878, 9.999624, 10.000345 
2.4500425e+2, 1.5481915e+2, -1510818.4, -1437294.1, 23570.42, 0.056022663, -0.32463214, -1430386.8, -7645.143, 0.000003303544, 9.999265, 10.0002365 
2.4500477e+2, 1.6481908e+2, -1425479.1, -1383358.1, 15108.415, 0.052091993, -0.336175, -1378499.4, -53758.414, 0.00000000018007511, 9.999341, 9.999897 
2.4500456e+2, 1.7481883e+2, -1246110.9, -1247993.5, 638.64386, -0.021164108, -0.3559298, -1245914.8, -19171.797, 0.0, 9.999909, 9.99988 
2.4500515e+2, 1.8481866e+2, -1144981.8, -1198467.4, 7729.6963, -0.029853132, -0.3391173, -1143887.1, -15142.133, 0.0, 10.000145, 9.999434 
2.450066e+2, 1.9481857e+2, -1067695.6, -1113298.9, 10733.603, 0.03535416, -0.2932811, -1065295.5, -34548.96, 0.0, 10.000016, 9.999408 
2.4500774e+2, 2.0481779e+2, -994142.9, -1074493.1, 2282.048, 0.086829185, -0.29047436, -994078.1, -61323.33, 0.0, 10.000052, 9.998983 
2.4500851e+2, 2.1481626e+2, -866482.5, -965845.3, 7045.0513, 0.12184301, -0.34447253, -865985.5, -31215.773, 0.0, 10.000271, 9.998951 
2.4500914e+2, 2.2481504e+2, -771260.4, -884323.25, 37164.668, 0.10510536, -0.352076, -760138.1, -23356.691, 0.0, 10.0003195, 9.998814 
2.4500957e+2, 2.348142e+2, -692882.94, -798112.9, 35486.156, 0.032477863, -0.32361454, -682034.5, -43244.992, 0.0, 10.000195, 9.998793 
2.4501045e+2, 2.4481274e+2, -633815.9, -801308.56, 14350.96, 0.0367752, -0.31086186, -632595.2, -91790.625, 0.0, 10.000281, 9.998057 
2.4501179e+2, 2.5481072e+2, -492792.72, -686973.8, 21824.553, 0.12190985, -0.32207975, -490370.03, -47543.777, 0.0, 10.000595, 9.998017 
2.450122e+2, 2.6480916e+2, -363363.88, -538031.5, 14610.923, 0.12188523, -0.2932566, -362150.1, -17307.598, 0.0, 10.000657, 9.998338 
2.4501155e+2, 2.7480808e+2, -298042.3, -456677.5, 7020.7627, 0.031631477, -0.24098484, -297732.22, -50879.133, 0.0, 10.000437, 9.99833 
2.4501188e+2, 2.8480607e+2, -234343.34, -389219.9, 11279.761, 0.029948667, -0.267191, -233526.14, -84653.31, 0.0, 10.00026, 9.998206 
2.4501327e+2, 2.9480332e+2, -160443.69, -309863.7, 18697.729, 0.119878985, -0.3675841, -158139.47, -107239.54, 0.0, 10.000126, 9.998142 
2.4501449e+2, 3.048025e+2, -115387.125, -202485.36, 30113.951, 0.15746473, -0.2821593, -105989.33, -105989.33, 0.000000001915935, 9.999843, 9.998683 
2.4501313e+2, 3.1480202e+2, -84227.234, -44517.844, 7462.115, -0.05816004, -0.2106291, -43161.88, -43161.88, 0.00000063402746, 9.999435, 9.999965 
2.5500074e+2, 1.24819495e+2, -1734531.0, -1618949.9, -58687.01, -0.009393535, -0.22739023, -1594375.9, 122367.85, 0.000209724, 9.999407, 10.000943 
2.5500283e+2, 1.3481931e+2, -1652814.0, -1615482.1, 34226.82, 0.08888766, -0.2603175, -1595162.3, 23579.775, 0.00009902971, 9.999672, 10.000167 
2.550031e+2, 1.4481851e+2, -1550781.9, -1501147.6, 15026.108, 0.034943644, -0.36590967, -1496953.1, 23794.703, 0.000025643241, 9.999636, 10.000293 
2.5500283e+2, 1.5481903e+2, -1515125.0, -1445265.1, 10063.561, -0.014311912, -0.3391335, -1443844.4, -21102.678, 0.0000014046367, 9.999261, 10.000184 
2.550037e+2, 1.6481915e+2, -1449539.6, -1431796.8, 35159.438, 0.0066720652, -0.3141087, -1404406.8, -79666.04, 0.0, 9.999335, 9.999568 
2.5500554e+2, 1.7481887e+2, -1268946.4, -1296909.3, 22773.021, 0.08316694, -0.30179936, -1256205.4, -29460.494, 0.0, 9.999916, 9.999541 
2.5500646e+2, 1.8481845e+2, -1137700.1, -1184154.0, 2879.8108, 0.08617107, -0.29644462, -1137522.3, -8772.666, 0.0, 10.000149, 9.999531 
2.5500646e+2, 1.9481789e+2, -1060601.0, -1097802.5, 6510.9424, 0.019268394, -0.30963078, -1059494.4, -28739.89, 0.0, 10.000013, 9.999516 
2.5500706e+2, 2.0481707e+2, -984601.8, -1052989.8, 9957.227, 0.012851921, -0.32265916, -983181.56, -50419.473, 0.0, 10.000046, 9.999134 
2.5500825e+2, 2.14816e+2, -856346.94, -943122.6, 16162.643, 0.068237215, -0.34532544, -853434.25, -18662.156, 0.0, 10.000265, 9.99911 
2.5500938e+2, 2.2481513e+2, -774485.6, -890450.8, 32021.172, 0.09718143, -0.32689598, -766231.25, -29450.113, 0.0, 10.000316, 9.998774 
2.5501043e+2, 2.3481447e+2, -697113.1, -805469.8, 31509.209, 0.09884571, -0.27490675, -688616.75, -49828.023, 0.0, 10.000188, 9.998745 
2.5501117e+2, 2.4481311e+2, -620182.5, -771867.94, 25298.375, 0.07969635, -0.25922403, -616074.44, -75271.82, 0.0, 10.000276, 9.998261 
2.5501156e+2, 2.5481108e+2, -477814.63, -654748.1, 34516.65, 0.037106264, -0.29242706, -471319.47, -28496.805, 0.0, 10.00059, 9.998241 
2.5501212e+2, 2.6480922e+2, -375331.97, -562496.1, 6102.1387, 0.04816909, -0.29662934, -375133.25, -30292.004, 0.0, 10.000655, 9.998172 
2.5501287e+2, 2.7480754e+2, -311836.56, -484722.94, -611.10284, 0.11814234, -0.2842428, -311834.4, -64976.176, 0.0, 10.000433, 9.99814 
2.5501287e+2, 2.8480595e+2, -234239.1, -387540.53, 5237.108, 0.10208814, -0.26245925, -234060.39, -85185.14, 0.0, 10.000255, 9.99822 
2.550121e+2, 2.9480457e+2, -159144.02, -305212.6, 13747.037, -0.010261484, -0.22755142, -157861.5, -106971.336, 0.0, 10.000117, 9.9981785 
2.5501338e+2, 3.048031e+2, -118080.75, -207576.28, 14656.499, 0.059028864, -0.21221438, -115741.62, -115741.62, 0.000000000039700524, 9.999839, 9.9986515 
2.5501427e+2, 3.1480074e+2, -65402.97, -5560.105, 2906.9204, 0.10808414, -0.31848016, -5419.2305, -5419.2305, 0.00000021774382, 9.999434, 10.000234 
2.650006e+2, 1.2481856e+2, -1706036.8, -1587343.4, -7383.498, 0.031189179, -0.2877282, -1586885.9, 129866.016, 0.0001649167, 9.999524, 10.001103 
2.650023e+2, 1.3481903e+2, -1709260.1, -1615187.4, 48242.094, 0.09546477, -0.28287038, -1594846.3, 23897.525, 0.000073287774, 9.999165, 10.000413 
2.650024e+2, 1.448185e+2, -1628432.4, -1556063.4, 8809.1045, 0.027288659, -0.36510006, -1555006.6, -34259.184, 0.000016155976, 9.999178, 10.000137 
2.6500228e+2, 1.5481901e+2, -1474895.3, -1442903.4, -6298.4067, -0.009339822, -0.32347104, -1441708.0, -18965.459, 0.00000046134082, 9.999611, 10.000032 
2.6500335e+2, 1.6481909e+2, -1377446.0, -1394608.5, 38378.586, 0.016655868, -0.2949322, -1346701.0, -21958.543, 0.0, 9.99982, 9.999591 
2.650054e+2, 1.7481875e+2, -1287397.4, -1303056.0, 52263.863, 0.08683165, -0.2912416, -1242379.6, -15632.887, 0.0, 9.999777, 9.999567 
2.6500648e+2, 1.8481828e+2, -1178992.6, -1199417.5, 36809.234, 0.087604105, -0.2947081, -1151005.5, -22253.719, 0.0, 9.9998455, 9.999572 
2.6500654e+2, 1.9481768e+2, -1051930.4, -1089275.5, 33876.71, 0.022340763, -0.3171728, -1031920.94, -1163.9283, 0.0, 10.000053, 9.999555 
2.6500717e+2, 2.0481694e+2, -954060.06, -1033032.56, 37497.36, 0.010534151, -0.32530856, -939092.5, -6328.9443, 0.0, 10.000233, 9.999182 
2.6500842e+2, 2.1481614e+2, -836995.1, -928370.56, 35140.086, 0.052315276, -0.3283031, -825044.4, 9726.668, 0.0, 10.000375, 9.999159 
2.6500964e+2, 2.2481526e+2, -758898.9, -901612.56, 36531.938, 0.08407897, -0.30313337, -750091.0, -13310.534, 0.0, 10.000503, 9.998608 
2.650109e+2, 2.3481436e+2, -646430.44, -800105.06, 25324.607, 0.1054379, -0.25735104, -642364.7, -3573.1907, 0.0, 10.000617, 9.998577 
2.6501164e+2, 2.4481301e+2, -565402.06, -722118.75, 17625.96, 0.084101886, -0.24406332, -563444.1, -22638.688, 0.0, 10.000551, 9.998471 
2.650118e+2, 2.5481117e+2, -505789.56, -643817.4, 26089.764, 0.016763955, -0.27819446, -501022.72, -58200.62, 0.0, 10.000293, 9.99846 
2.6501238e+2, 2.648093e+2, -446346.88, -605831.94, -1270.1998, 0.03267545, -0.29347575, -446336.75, -101496.08, 0.0, 10.000207, 9.998089 
2.6501343e+2, 2.7480736e+2, -335183.22, -505546.1, -1717.6295, 0.13890329, -0.2985708, -335165.9, -88305.06, 0.0, 10.000316, 9.998053 
2.6501343e+2, 2.8480586e+2, -220058.22, -378058.63, 7662.0596, 0.12610412, -0.2600403, -219687.52, -70810.5, 0.0, 10.000342, 9.998242 
2.650122e+2, 2.9480496e+2, -139438.94, -292060.3, 12624.214, -0.016235912, -0.18048291, -138401.77, -87514.16, 0.0, 10.000238, 9.99821 
2.6501316e+2, 3.0480304e+2, -87972.2, -191119.28, 10595.719, 0.045277737, -0.21397279, -86895.016, -86895.016, 0.0, 10.000038, 9.998667 
2.6501378e+2, 3.148006e+2, 2980.995, 44670.3, 8331.924, 0.09886331, -0.33171058, 46273.824, 46273.824, 0.000000083141636, 9.999835, 10.000383 
2.7500057e+2, 1.2481777e+2, -1730647.9, -1640196.6, -31863.875, 0.07061561, -0.40891844, -1630099.0, 86656.47, 0.00012966055, 9.999534, 10.000735 
2.7500096e+2, 1.3481916e+2, -1731232.3, -1658732.9, 34179.098, 0.042200193, -0.28171778, -1645160.4, -26419.03, 0.00005392466, 9.999157, 10.000118 
2.7500114e+2, 1.4481892e+2, -1647328.5, -1594036.6, 23571.719, -0.020197293, -0.30736783, -1585106.8, -64362.42, 0.0000098627, 9.999172, 9.99988 
2.7500266e+2, 1.5481907e+2, -1491799.8, -1479652.0, 10624.574, 0.06450296, -0.27749255, -1473487.6, -50743.18, 0.00000011248763, 9.999618, 9.999777 
2.7500376e+2, 1.6481891e+2, -1349896.4, -1339210.6, 36069.535, 0.07523986, -0.27879915, -1308090.4, 16655.691, 0.0, 9.999826, 9.999968 
2.7500418e+2, 1.7481849e+2, -1259303.5, -1245135.9, 50789.492, -0.013862645, -0.32380012, -1200938.5, 25810.13, 0.0, 9.999778, 9.999964 
2.7500516e+2, 1.8481813e+2, -1181098.3, -1202876.3, 43709.69, -0.029179048, -0.33352247, -1146941.6, -18190.078, 0.0, 9.999842, 9.99955 
2.7500677e+2, 1.948179e+2, -1054475.0, -1094150.1, 42266.453, 0.04083837, -0.31506282, -1027622.25, 3131.9702, 0.0, 10.000052, 9.999522 
2.7500805e+2, 2.0481738e+2, -958308.44, -1040470.75, 42550.33, 0.07554612, -0.29805106, -940244.06, -7484.7334, 0.0, 10.000227, 9.999133 
2.7500898e+2, 2.1481659e+2, -841282.0, -935864.4, 41446.0, 0.07036599, -0.29363698, -825690.5, 9076.088, 0.0, 10.000368, 9.99911 
2.7500996e+2, 2.2481541e+2, -780837.1, -945154.44, 40412.406, 0.061358232, -0.2815826, -771435.94, -34656.473, 0.0, 10.000495, 9.998313 
2.7501094e+2, 2.3481387e+2, -667823.7, -843149.25, 30426.941, 0.049531553, -0.27101782, -662693.4, -23895.523, 0.0, 10.000611, 9.998283 
2.750118e+2, 2.448124e+2, -550521.8, -690674.75, 7440.3584, 0.04693942, -0.26586822, -550127.94, -9314.821, 0.0, 10.000549, 9.998689 
2.750125e+2, 2.5481102e+2, -491154.7, -612203.3, 16766.676, 0.054771584, -0.2791371, -488875.22, -46050.55, 0.0, 10.000287, 9.99868 
2.7501297e+2, 2.6480934e+2, -446830.0, -604775.9, 1841.4308, 0.069379434, -0.28305012, -446808.53, -101967.75, 0.0, 10.000199, 9.9981 
2.7501327e+2, 2.7480745e+2, -335092.1, -503146.9, 3612.5334, 0.08956004, -0.28452986, -335014.47, -88153.555, 0.0, 10.000307, 9.998073 
2.7501348e+2, 2.848058e+2, -219275.9, -375415.94, 3772.85, 0.098258674, -0.26176572, -219184.8, -70306.51, 0.0, 10.000338, 9.998263 
2.7501357e+2, 2.948045e+2, -138343.84, -289399.8, 8529.028, 0.095572904, -0.22656314, -137863.8, -86971.38, 0.0, 10.000236, 9.99823 
2.7501386e+2, 3.0480233e+2, -84161.81, -183202.47, 1134.1833, 0.10918, -0.2864487, -84148.83, -84148.83, 0.0, 10.000038, 9.998721 
2.750117e+2, 3.148014e+2, 2884.952, 46919.125, 10695.373, -0.09842783, -0.26156074, 49379.438, 49379.438, 0.000000039236188, 9.999825, 10.000404 
2.8499967e+2, 1.2481791e+2, -1877686.5, -1736349.5, -62812.977, 0.0732922, -0.38301522, -1712469.0, 4285.846, 0.00010364884, 9.998633, 10.00051 
2.8500044e+2, 1.3481914e+2, -1645705.3, -1631904.0, 20792.39, 0.044313468, -0.26133025, -1616897.0, 1846.303, 0.000040612387, 9.9998045, 9.999991 
2.850009e+2, 1.4481872e+2, -1489758.4, -1527660.3, 12890.143, -0.018263457, -0.29183644, -1485790.0, 34958.23, 0.0000062724685, 10.000297, 9.999793 
2.8500256e+2, 1.5481877e+2, -1439117.4, -1463036.5, 10956.678, 0.07461455, -0.2636064, -1434857.1, -12107.988, 0.000000028346124, 10.000018, 9.999699 
2.850037e+2, 1.6481858e+2, -1332587.0, -1317149.8, 32393.783, 0.08213775, -0.26917365, -1291567.6, 33182.95, 0.0, 9.999889, 10.000089 
2.8500393e+2, 1.7481823e+2, -1224783.8, -1214227.8, 25287.031, -0.024547037, -0.31936318, -1193673.8, 33077.97, 0.0, 9.999956, 10.00009 
2.8500494e+2, 1.8481797e+2, -1146273.8, -1187813.5, 16053.81, -0.04494949, -0.32738554, -1140792.6, -12039.001, 0.0, 10.00009, 9.999534 
2.8500688e+2, 1.948178e+2, -1022489.75, -1080811.3, 14410.699, 0.03291854, -0.29949737, -1019123.3, 11632.546, 0.0, 10.000281, 9.999503 
2.8500837e+2, 2.0481728e+2, -940164.75, -1039367.9, 10914.755, 0.075514786, -0.27866235, -938978.06, -6216.647, 0.0, 10.000383, 9.999065 
2.8500944e+2, 2.148164e+2, -842547.3, -943721.75, 6838.2305, 0.078012496, -0.27671328, -842087.25, -7317.154, 0.0, 10.000391, 9.999045 
2.8501037e+2, 2.2481515e+2, -798369.06, -941994.94, 18112.922, 0.06464605, -0.2749533, -796120.0, -59336.387, 0.0, 10.000323, 9.998417 
2.850112e+2, 2.3481353e+2, -724075.75, -857950.8, 37789.242, 0.035987254, -0.28302133, -714145.44, -75343.51, 0.0, 10.000172, 9.998394 
2.8501207e+2, 2.4481215e+2, -592895.44, -705431.6, 26895.654, 0.03320406, -0.27450615, -586797.9, -45981.78, 0.0, 10.000234, 9.998739 
2.850129e+2, 2.548111e+2, -452050.6, -587708.2, 21808.166, 0.057811577, -0.2596992, -448630.94, -5805.479, 0.0, 10.000532, 9.998731 
2.8501338e+2, 2.648096e+2, -378248.1, -554457.94, 4119.475, 0.068162195, -0.2575876, -378151.84, -33311.664, 0.0, 10.000596, 9.998255 
2.8501338e+2, 2.748077e+2, -312195.1, -473813.16, 15533.518, 0.06358389, -0.27731034, -310715.66, -63855.707, 0.0, 10.000385, 9.998237 
2.850136e+2, 2.8480616e+2, -219662.27, -365888.94, 26246.432, 0.07559951, -0.25845417, -215093.97, -66218.13, 0.0, 10.000294, 9.998349 
2.8501397e+2, 2.94805e+2, -113546.27, -265857.28, 34464.37, 0.10689823, -0.21276468, -106110.79, -55223.246, 0.0, 10.000358, 9.998332 
2.8501415e+2, 3.048025e+2, -73322.88, -186213.5, 14314.809, 0.13236351, -0.30594435, -71536.016, -71536.016, 0.0, 10.000149, 9.998647 
2.850116e+2, 3.1480193e+2, -47683.215, -11339.244, 18739.318, -0.07763433, -0.23573172, -3407.9133, -3407.9133, 0.000000022768178, 9.99962, 10.000103 
2.949979e+2, 1.2481899e+2, -1882645.8, -1748147.1, -29043.818, 0.028132187, -0.21215828, -1742143.4, -25393.396, 0.000085497144, 9.99864, 10.000427 
2.950008e+2, 1.3481893e+2, -1642522.0, -1626376.1, 65707.14, 0.0961183, -0.22169171, -1568247.9, 50501.645, 0.000032281903, 9.99981, 10.000027 
2.9500166e+2, 1.4481793e+2, -1483483.0, -1515880.3, 2934.1797, 0.02753808, -0.31734172, -1483219.5, 37539.277, 0.0000046245973, 10.000301, 9.999872 
2.95002e+2, 1.5481816e+2, -1432479.0, -1449280.6, 455.95996, 0.015099962, -0.28012216, -1432466.6, -9710.183, 0.00000001715619, 10.000018, 9.999793 
2.950031e+2, 1.6481817e+2, -1342713.1, -1337626.9, 33523.215, 0.031119471, -0.26448452, -1306550.4, 18205.441, 0.0, 9.9998865, 9.9999485 
2.9500467e+2, 1.7481801e+2, -1235347.0, -1235545.0, 28393.814, 0.049932014, -0.27903843, -1207052.0, 19704.104, 0.0, 9.999954, 9.999944 
2.9500586e+2, 1.8481775e+2, -1147737.0, -1190049.9, 22869.553, 0.035584826, -0.2778642, -1137738.8, -8980.565, 0.0, 10.000086, 9.999521 
2.9500678e+2, 1.9481736e+2, -1022915.4, -1081722.8, 22269.926, -0.004608226, -0.27096564, -1015433.75, 15328.285, 0.0, 10.00028, 9.999498 
2.9500806e+2, 2.0481664e+2, -947092.9, -1052290.4, 10799.63, 0.00691889, -0.26738432, -945995.6, -13225.754, 0.0, 10.000378, 9.99898 
2.9500976e+2, 2.1481554e+2, -849752.7, -957266.2, 7935.2554, 0.07112408, -0.27791727, -849170.1, -14388.547, 0.0, 10.000384, 9.998956 
2.9501095e+2, 2.248144e+2, -763685.25, -868145.7, 11903.682, 0.089327015, -0.2836915, -762345.94, -25552.81, 0.0, 10.000317, 9.998928 
2.9501164e+2, 2.3481329e+2, -688539.8, -782653.94, 32753.125, 0.05990867, -0.2933538, -678263.4, -39459.49, 0.0, 10.000166, 9.998915 
2.9501235e+2, 2.4481227e+2, -601789.6, -722802.75, 37143.855, 0.03801856, -0.26988944, -591298.2, -50483.703, 0.0, 10.000229, 9.998622 
2.950131e+2, 2.5481144e+2, -462012.78, -606573.8, 33970.445, 0.022164144, -0.22119977, -454428.0, -11603.419, 0.0, 10.0005245, 9.998605 
2.9501355e+2, 2.6481003e+2, -358597.44, -512166.84, -4082.5378, 0.026710557, -0.21856369, -358488.97, -13649.831, 0.0, 10.00059, 9.998548 
2.9501367e+2, 2.7480802e+2, -292007.7, -430492.88, 7985.7573, 0.054054048, -0.27708897, -291548.7, -44690.67, 0.0, 10.00038, 9.998537 
2.9501364e+2, 2.8480682e+2, -209360.23, -343506.38, 27250.502, 0.051063202, -0.24860662, -204035.88, -55166.23, 0.0, 10.00029, 9.998506 
2.950134e+2, 2.9480648e+2, -102676.055, -240442.4, 37767.043, 0.011723802, -0.1385652, -93001.984, -42128.953, 0.0, 10.000345, 9.998512 
2.9501414e+2, 3.0480358e+2, -89283.63, -217375.14, -5742.64, 0.111716986, -0.27285585, -89026.69, -89026.69, 0.0, 10.00014, 9.998437 
2.9501352e+2, 3.1480202e+2, -89363.484, -98034.78, 10387.865, 0.14899519, -0.2728441, -82442.78, -82442.78, 0.000000019534246, 9.999622, 9.999507 
3.049973e+2, 1.2481914e+2, -1688153.0, -1664432.3, -13045.859, 0.036481004, -0.15113954, -1658661.3, 58090.113, 0.000073591786, 10.000024, 10.000333 
3.050007e+2, 1.3481873e+2, -1708382.9, -1658689.6, 85882.68, 0.13115422, -0.19554581, -1594131.6, 24622.299, 0.000027638554, 9.999361, 10.000022 
3.0500174e+2, 1.4481759e+2, -1616674.3, -1567085.3, 22851.18, 0.056173004, -0.30947173, -1558161.3, -37397.566, 0.000004191702, 9.999333, 9.999987 
3.0500185e+2, 1.5481792e+2, -1430288.4, -1435009.0, 19872.26, -0.0005993525, -0.27531323, -1412636.8, 10122.542, 0.000000032166714, 9.999977, 9.99991 
3.0500293e+2, 1.6481794e+2, -1305827.0, -1344267.1, 43752.414, 0.010365995, -0.25296724, -1277259.1, 47499.313, 0.0, 10.000246, 9.999729 
3.050048e+2, 1.7481776e+2, -1228329.9, -1257752.9, 30821.186, 0.06128356, -0.24918202, -1208889.1, 17871.283, 0.0, 10.000112, 9.999716 
3.0500615e+2, 1.8481734e+2, -1151694.4, -1190654.9, 30038.219, 0.056951873, -0.25120115, -1135372.8, -6608.4956, 0.0, 10.000053, 9.999532 
3.0500704e+2, 1.9481671e+2, -1048262.56, -1091146.3, 30387.406, 0.0044204406, -0.27051565, -1032513.75, -1744.039, 0.0, 10.000097, 9.999521 
3.0500835e+2, 2.04816e+2, -966197.1, -1049921.9, 26381.895, 0.008934731, -0.27120343, -958577.5, -25800.3, 0.0, 10.000198, 9.999083 
3.0501014e+2, 2.1481523e+2, -847122.0, -944353.06, 36860.14, 0.07026294, -0.26026985, -834728.2, 58.33153, 0.0, 10.000353, 9.99906 
3.0501133e+2, 2.2481436e+2, -722583.6, -817438.4, 36759.605, 0.0880609, -0.25852257, -710005.75, 26789.475, 0.0, 10.000464, 9.999206 
3.05012e+2, 2.3481344e+2, -615785.0, -716215.56, 38043.242, 0.06107558, -0.27717033, -603001.4, 35801.527, 0.0, 10.000529, 9.999196 
3.0501264e+2, 2.4481253e+2, -580696.44, -717941.1, 37557.406, 0.036272954, -0.25480607, -571091.0, -30278.535, 0.0, 10.000397, 9.998575 
3.0501327e+2, 2.548117e+2, -534130.94, -647163.94, 38831.56, 0.012950657, -0.19855109, -522076.28, -79252.55, 0.0, 10.000053, 9.998553 
3.050138e+2, 2.6481035e+2, -422303.34, -513078.4, 7365.1943, 0.021278042, -0.19705094, -421709.66, -76872.14, 0.0, 10.000026, 9.998813 
3.0501413e+2, 2.7480856e+2, -277364.06, -393014.8, 15257.726, 0.06485083, -0.26609948, -275385.0, -28531.363, 0.0, 10.000351, 9.998807 
3.0501404e+2, 2.8480747e+2, -173379.38, -323016.47, 28594.309, 0.051953156, -0.2415797, -168101.42, -19237.691, 0.0, 10.000524, 9.998533 
3.0501348e+2, 2.948072e+2, -75309.45, -223273.94, 26941.332, -0.022885313, -0.12574056, -70556.66, -19689.938, 0.0, 10.000516, 9.9985485 
3.0501416e+2, 3.048044e+2, -30017.771, -172104.33, -18984.322, 0.08708103, -0.2590164, -27524.992, -27524.992, 0.0, 10.000475, 9.998588 
3.0501416e+2, 3.14803e+2, 4635.465, -80668.64, 30185.352, 0.21307212, -0.25960013, 14236.192, 14236.192, 0.000000009333619, 10.000388, 9.999258 
3.1499788e+2, 1.24818414e+2, -1695907.0, -1681889.0, -48913.69, 0.09242615, -0.19731925, -1639484.6, 77273.805, 0.00006650563, 10.000029, 10.000212 
3.1500018e+2, 1.3481857e+2, -1709410.3, -1663397.8, 62155.945, 0.13972604, -0.18111126, -1620126.9, -1370.5962, 0.000025576577, 9.9993725, 9.999985 
3.150011e+2, 1.4481778e+2, -1605498.6, -1545671.0, 45326.29, 0.056312155, -0.26682848, -1521277.3, -514.6119, 0.000004447986, 9.99934, 10.000131 
3.1500208e+2, 1.5481806e+2, -1421056.3, -1414339.4, 44803.65, 0.023524495, -0.25092787, -1372768.5, 49989.152, 0.00000006594377, 9.999971, 10.000055 
3.1500328e+2, 1.6481793e+2, -1328651.3, -1390221.6, 38666.125, 0.016640913, -0.2351731, -1310011.8, 14746.611, 0.0, 10.00024, 9.999417 
3.1500438e+2, 1.7481746e+2, -1250259.1, -1303963.9, 26220.072, 0.0043338146, -0.2282802, -1239581.0, -12816.323, 0.0, 10.000115, 9.999397 
3.1500578e+2, 1.8481675e+2, -1148706.4, -1185084.6, 30539.314, 0.012390715, -0.24529946, -1131349.9, -2578.2373, 0.0, 10.000056, 9.99957 
3.1500766e+2, 1.9481583e+2, -1045605.0, -1084808.3, 32528.408, 0.055787306, -0.2997556, -1027228.75, 3550.349, 0.0, 10.0000925, 9.999567 
3.1500924e+2, 2.0481537e+2, -947425.4, -1008084.56, 31757.498, 0.07724307, -0.29116616, -933841.1, -1057.3973, 0.0, 10.000186, 9.999375 
3.150105e+2, 2.1481547e+2, -827269.44, -901592.7, 43590.1, 0.07126359, -0.22349134, -807150.3, 27634.67, 0.0, 10.000346, 9.999357 
3.1501147e+2, 2.2481498e+2, -720183.94, -811287.2, 38701.35, 0.05698961, -0.19969398, -705963.1, 30827.031, 0.0, 10.000459, 9.99925 
3.1501228e+2, 2.3481393e+2, -613827.4, -710804.9, 41150.082, 0.03565414, -0.23455304, -598719.8, 40079.336, 0.0, 10.000524, 9.999236 
3.1501293e+2, 2.4481288e+2, -580254.06, -715730.2, 24127.389, 0.02409323, -0.22968209, -576085.4, -35275.16, 0.0, 10.000391, 9.998593 
3.1501347e+2, 2.5481188e+2, -533434.3, -644020.7, 26393.607, 0.02355756, -0.19149104, -527457.94, -84635.02, 0.0, 10.000048, 9.998578 
3.150141e+2, 2.6481068e+2, -406118.47, -479261.16, 18363.23, 0.046212513, -0.1917379, -401767.06, -56931.875, 0.0, 10.000024, 9.999046 
3.1501475e+2, 2.7480927e+2, -261785.08, -358633.44, 28478.225, 0.09051568, -0.24439795, -254031.77, -7184.9355, 0.0, 10.000341, 9.999047 
3.150148e+2, 2.8480804e+2, -183079.08, -340412.75, 27612.686, 0.075310096, -0.2379799, -178373.66, -29515.385, 0.0, 10.000513, 9.998419 
3.1501418e+2, 2.9480714e+2, -83411.49, -239282.77, 27609.904, -0.004380851, -0.17532705, -78665.39, -27796.62, 0.0, 10.000514, 9.998439 
3.150143e+2, 3.0480498e+2, 6194.569, -98525.45, -23640.883, 0.05185131, -0.26572686, 11284.206, 11284.206, 0.0, 10.00048, 9.999091 
3.1501347e+2, 3.1480476e+2, 12270.74, -62636.438, 34324.773, 0.100410484, -0.19805221, 25620.314, 25620.314, 0.0000000005270663, 10.000378, 9.999387 
3.2499802e+2, 1.2481763e+2, -1778595.5, -1729341.9, -63770.49, 0.1306245, -0.24202745, -1685608.1, 31157.357, 0.00006287029, 9.999496, 10.00014 
3.2499975e+2, 1.3481836e+2, -1612342.8, -1614716.8, 60653.637, 0.12843163, -0.17123175, -1552864.5, 65894.0, 0.000025189593, 10.0000305, 10.000001 
3.250007e+2, 1.448177e+2, -1488756.6, -1502875.5, 44662.41, 0.0410201, -0.23845662, -1450599.1, 70164.695, 0.0000050024137, 10.000201, 10.000009 
3.2500216e+2, 1.5481754e+2, -1438965.0, -1436084.4, 21548.838, 0.039280377, -0.2546934, -1415927.8, 6835.215, 0.000000115129794, 9.999905, 9.999937 
3.2500347e+2, 1.648172e+2, -1386122.8, -1422950.4, 14217.747, 0.03439548, -0.25174856, -1381272.5, -56506.695, 0.0, 9.999867, 9.999372 
3.2500434e+2, 1.7481679e+2, -1249593.3, -1307839.4, 21162.076, -0.009312551, -0.23449616, -1242716.5, -15944.674, 0.0, 10.000139, 9.999358 
3.250057e+2, 1.8481618e+2, -1113160.9, -1157409.9, 36230.535, -0.007726789, -0.244024, -1092833.8, 35944.207, 0.0, 10.000256, 9.999663 
3.250078e+2, 1.9481541e+2, -1022663.4, -1063316.4, 40508.38, 0.053054567, -0.29246804, -997667.75, 33115.973, 0.0, 10.000204, 9.999661 
3.2500947e+2, 2.0481504e+2, -940834.4, -999964.5, 38031.125, 0.07877021, -0.2810049, -922228.3, 10559.049, 0.0, 10.000209, 9.999421 
3.2501072e+2, 2.1481518e+2, -835285.4, -899797.9, 29554.893, 0.063276626, -0.21398762, -823792.8, 10995.441, 0.0, 10.000267, 9.999407 
3.2501176e+2, 2.2481476e+2, -760929.6, -837157.9, 6292.5503, 0.050737184, -0.18469979, -760413.7, -23620.387, 0.0, 10.000207, 9.999193 
3.250126e+2, 2.3481376e+2, -690822.0, -754051.2, 76.1158, 0.04273158, -0.20717524, -690821.9, -52019.39, 0.0, 10.000022, 9.999181 
3.2501325e+2, 2.4481274e+2, -615180.94, -698911.1, -9554.196, 0.036416147, -0.21234928, -614104.56, -73291.52, 0.0, 10.000008, 9.998893 
3.2501364e+2, 2.5481173e+2, -492662.72, -590321.44, 12662.208, 0.031880073, -0.20779553, -491047.66, -48223.12, 0.0, 10.00018, 9.998882 
3.250142e+2, 2.648107e+2, -381768.25, -465962.03, 13908.9795, 0.04705616, -0.20503822, -379529.97, -34695.4, 0.0, 10.000184, 9.999061 
3.2501483e+2, 2.748097e+2, -308976.28, -380343.2, 5416.081, 0.082158394, -0.21723492, -308567.6, -61724.645, 0.0, 10.000012, 9.999059 
3.2501513e+2, 2.848084e+2, -249603.34, -368077.9, 5404.236, 0.08255502, -0.2209924, -249357.34, -100501.81, 0.0, 10.000037, 9.998457 
3.2501507e+2, 2.9480696e+2, -117043.65, -251653.6, 15405.105, 0.045252085, -0.21579789, -115303.16, -64431.867, 0.0, 10.000267, 9.998474 
3.2501498e+2, 3.048054e+2, 45544.523, -52232.543, -36118.16, 0.064458884, -0.2617177, 57439.297, 57439.297, 0.0, 10.000633, 9.999335 
3.2501346e+2, 3.1480575e+2, 120939.336, -11825.67, 5311.9375, 0.02546345, -0.15937011, 121151.53, 121151.53, 0.0, 10.00113, 9.999373 
3.349976e+2, 1.2481684e+2, -1778927.4, -1734021.8, -56303.906, 0.13262056, -0.28515625, -1695858.9, 20913.213, 0.000061273975, 9.999514, 10.000099 
3.3499947e+2, 1.3481812e+2, -1609238.8, -1606099.9, 82904.266, 0.09620087, -0.1659735, -1524750.3, 94009.99, 0.000025556885, 10.000021, 10.000065 
3.350006e+2, 1.4481738e+2, -1517707.8, -1561161.9, 34856.4, 0.008805227, -0.2237802, -1498361.3, 22405.746, 0.0000055599335, 10.000193, 9.999613 
3.3500203e+2, 1.5481637e+2, -1465234.8, -1492094.5, 11614.156, 0.03662984, -0.28485584, -1460909.4, -38134.21, 0.00000016881297, 9.999912, 9.999549 
3.3500355e+2, 1.6481578e+2, -1368944.8, -1389777.1, 22987.283, 0.05187454, -0.30015236, -1354123.9, -29343.258, 0.0, 9.999877, 9.999596 
3.3500475e+2, 1.7481573e+2, -1233374.3, -1273711.1, 32116.404, 0.017491177, -0.27003947, -1215618.6, 11163.491, 0.0, 10.000135, 9.999595 
3.3500597e+2, 1.8481563e+2, -1104293.3, -1136829.8, 34141.113, -0.006726517, -0.24837384, -1082742.6, 46040.582, 0.0, 10.000246, 9.999808 
3.350074e+2, 1.9481549e+2, -1013427.25, -1043845.75, 39468.953, -0.0083238, -0.24809119, -986338.5, 44445.03, 0.0, 10.000203, 9.999796 
3.3500898e+2, 2.0481506e+2, -955748.75, -1029805.56, 39750.598, 0.008199694, -0.23959333, -938452.1, -5664.07, 0.0, 10.000203, 9.999219 
3.3501077e+2, 2.148144e+2, -850262.9, -929951.2, 32595.746, 0.041909777, -0.23245604, -838628.5, -3832.028, 0.0, 10.000262, 9.999203 
3.350121e+2, 2.2481368e+2, -773178.4, -860648.9, -1221.1171, 0.06498905, -0.21385843, -773161.4, -36356.5, 0.0, 10.000199, 9.999036 
3.35013e+2, 2.3481296e+2, -702332.0, -776468.75, -6106.673, 0.078437425, -0.19449154, -701832.3, -63019.477, 0.0, 10.000015, 9.999029 
3.3501357e+2, 2.4481212e+2, -575215.7, -615191.94, -3861.9963, 0.068911985, -0.20210056, -574846.0, -34025.01, 0.0, 10.000004, 9.99947 
3.3501387e+2, 2.548112e+2, -452457.28, -505044.72, 19899.4, 0.03346623, -0.24626358, -445776.06, -2947.447, 0.0, 10.000173, 9.999471 
3.3501413e+2, 2.6481044e+2, -397923.16, -497872.03, 6697.8545, 0.021000024, -0.23652701, -397476.3, -52640.664, 0.0, 10.000177, 9.998845 
3.3501437e+2, 2.7480984e+2, -324656.4, -411871.03, -652.9306, 0.03384347, -0.18583634, -324651.53, -77809.36, 0.0, 10.000009, 9.998843 
3.3501506e+2, 2.8480855e+2, -236256.95, -340475.84, 13069.273, 0.06746591, -0.19042823, -234643.03, -85787.57, 0.0, 10.000036, 9.998648 
3.350161e+2, 2.9480666e+2, -104971.766, -224925.9, 25874.637, 0.119637445, -0.24486198, -99628.5, -48754.54, 0.0, 10.000258, 9.998661 
3.3501616e+2, 3.0480564e+2, 41941.844, -57349.88, -19094.324, 0.12037612, -0.24712509, 45487.19, 45487.19, 0.0, 10.000624, 9.999305 
3.3501413e+2, 3.1480595e+2, 109694.88, -33344.957, 30104.146, -0.023350071, -0.1461647, 115772.38, 115772.38, 0.0, 10.001123, 9.999228 
3.4499708e+2, 1.2481622e+2, -1794727.0, -1755178.0, -72099.44, 0.13185418, -0.2771501, -1700190.5, 16587.996, 0.000060228966, 9.999463, 9.999978 
3.4499934e+2, 1.3481726e+2, -1606282.1, -1608873.6, 68440.73, 0.08074343, -0.17766586, -1539124.9, 79644.266, 0.000025763518, 10.000055, 10.0000305 
3.4500077e+2, 1.4481659e+2, -1495890.5, -1562664.6, 5450.91, -0.003346449, -0.22150408, -1495448.4, 25327.543, 0.000005876301, 10.000395, 9.999504 
3.450021e+2, 1.5481581e+2, -1399007.3, -1471686.1, 468.55212, 0.026934454, -0.24993216, -1399004.1, 23778.992, 0.0000002059256, 10.000416, 9.999445 
3.450036e+2, 1.6481525e+2, -1308655.9, -1342811.8, 23411.945, 0.05383825, -0.26377502, -1296754.9, 28033.281, 0.0, 10.000215, 9.999755 
3.450049e+2, 1.7481506e+2, -1270980.3, -1273245.9, 25700.387, 0.035295825, -0.2635541, -1246387.8, -19598.014, 0.0, 9.999798, 9.999762 
3.4500614e+2, 1.8481499e+2, -1187989.6, -1184738.5, 25429.004, 0.012557392, -0.24417822, -1160883.1, -32093.014, 0.0, 9.999704, 9.999741 
3.4500754e+2, 1.9481507e+2, -1054025.8, -1070732.8, 13581.33, -0.0011567196, -0.21566518, -1046434.56, -15645.15, 0.0, 9.999958, 9.999727 
3.4500906e+2, 2.0481458e+2, -969194.25, -1037840.75, 12585.1045, 0.0011491319, -0.20763004, -966959.75, -34165.203, 0.0, 10.000118, 9.999205 
3.4501073e+2, 2.148136e+2, -863542.4, -937818.06, 18772.805, 0.016249118, -0.23141533, -859067.3, -24261.768, 0.0, 10.000177, 9.999189 
3.45012e+2, 2.2481282e+2, -765519.25, -841123.3, -1787.5964, 0.03773737, -0.22602208, -765477.0, -28662.893, 0.0, 10.000183, 9.999178 
3.4501293e+2, 2.348123e+2, -675861.6, -747549.9, 14108.885, 0.06800011, -0.20123415, -673184.8, -34364.918, 0.0, 10.000128, 9.999174 
3.4501365e+2, 2.4481155e+2, -569350.0, -614434.75, 12616.96, 0.07019675, -0.20458095, -566059.3, -25232.396, 0.0, 10.000052, 9.999451 
3.45014e+2, 2.5481066e+2, -484582.4, -522847.8, -10742.481, 0.0412827, -0.24588329, -481772.9, -38938.258, 0.0, 9.999962, 9.999451 
3.4501433e+2, 2.6480994e+2, -401405.47, -492881.94, -31915.28, 0.02864467, -0.23257235, -391371.22, -46530.008, 0.0, 10.000125, 9.998904 
3.4501466e+2, 2.7480942e+2, -242440.95, -366313.28, -19382.584, 0.034323867, -0.17979418, -239478.94, 7368.0557, 0.0, 10.000546, 9.9988985 
3.450153e+2, 2.8480813e+2, -140283.08, -285197.94, -2430.6912, 0.058397785, -0.18908952, -140242.31, 8617.538, 0.0, 10.000656, 9.998729 
3.4501624e+2, 2.9480627e+2, -71105.695, -201404.14, -219.2555, 0.09855162, -0.25077763, -71105.33, -20227.576, 0.0, 10.00046, 9.998726 
3.450166e+2, 3.0480552e+2, 24568.594, -97918.734, -39068.145, 0.10160375, -0.21307501, 35968.62, 35968.62, 0.0, 10.000644, 9.999015 
3.4501565e+2, 3.1480497e+2, 102210.93, -58703.125, -8627.307, 0.017777305, -0.17447762, 102672.16, 102672.16, 0.0, 10.001168, 9.999031 
3.5499647e+2, 1.2481573e+2, -1809221.0, -1784426.0, -61130.477, 0.12156468, -0.21850024, -1734448.5, -17663.713, 0.00005843651, 9.99946, 9.999779 
3.549993e+2, 1.348158e+2, -1613860.5, -1626907.8, 93183.266, 0.0695846, -0.20494732, -1526972.8, 91812.35, 0.000025162195, 10.000065, 9.999902 
3.5500112e+2, 1.4481534e+2, -1481048.3, -1535839.5, 6731.7705, -0.009590128, -0.2297443, -1480233.3, 40557.258, 0.0000057861466, 10.00041, 9.999681 
3.5500237e+2, 1.5481581e+2, -1386788.6, -1445959.8, 2022.1742, 0.009040398, -0.15076305, -1386719.5, 36067.652, 0.00000020730299, 10.000413, 9.999624 
3.5500365e+2, 1.6481562e+2, -1302830.1, -1329725.0, 7275.9287, 0.038452774, -0.14242806, -1300988.0, 23800.686, 0.0, 10.00021, 9.999846 
3.5500473e+2, 1.7481479e+2, -1264051.6, -1260105.9, 11059.433, 0.037020583, -0.21462089, -1250844.8, -24050.363, 0.0, 9.999803, 9.999848 
3.5500616e+2, 1.8481427e+2, -1207198.9, -1225514.1, 34012.605, 0.04170341, -0.23036526, -1181132.6, -52333.91, 0.0, 9.999707, 9.99946 
3.550082e+2, 1.948141e+2, -1073598.8, -1111383.0, 23786.482, 0.070353426, -0.19691195, -1062114.8, -31313.197, 0.0, 9.999956, 9.99945 
3.550097e+2, 2.0481361e+2, -958187.2, -1012715.2, 14373.575, 0.054150756, -0.18648298, -954630.3, -21823.193, 0.0, 10.000109, 9.999381 
3.550106e+2, 2.1481279e+2, -851762.1, -911722.0, 22115.236, -0.01740305, -0.21111245, -844487.75, -9672.334, 0.0, 10.00017, 9.9993725 
3.5501146e+2, 2.2481216e+2, -736361.0, -778525.8, -4313.5713, -0.035493307, -0.2212951, -735924.25, 896.91174, 0.0, 10.0001745, 9.999612 
3.5501248e+2, 2.3481178e+2, -645903.94, -684341.7, 12545.333, 0.0072320458, -0.22657846, -642171.8, -3348.0645, 0.0, 10.000123, 9.99961 
3.5501337e+2, 2.4481107e+2, -613114.4, -704015.7, 8279.639, 0.03690843, -0.21951956, -612366.44, -71535.4, 0.0, 10.000048, 9.998838 
3.5501406e+2, 2.5481007e+2, -529119.7, -613677.7, -13700.854, 0.051226385, -0.20700318, -526955.1, -84112.46, 0.0, 9.999955, 9.99883 
3.5501483e+2, 2.648092e+2, -378783.75, -444688.25, -16579.252, 0.064849585, -0.19382566, -374848.03, -29996.705, 0.0, 10.000119, 9.999238 
3.5501564e+2, 2.7480847e+2, -219407.13, -316984.28, -2384.981, 0.07796885, -0.19777073, -219348.86, 27508.371, 0.0, 10.00054, 9.99924 
3.5501587e+2, 2.8480724e+2, -144449.14, -292328.25, -10754.412, 0.051048864, -0.21597306, -143671.13, 5197.424, 0.0, 10.00065, 9.998683 
3.5501552e+2, 2.948058e+2, -76498.89, -211030.8, -6711.5596, -0.02335107, -0.23459414, -76164.89, -25282.11, 0.0, 10.000453, 9.998663 
3.5501626e+2, 3.0480504e+2, -14347.094, -177927.81, -20238.201, 0.0022271825, -0.15985343, -11880.42, -11880.42, 0.0, 10.000639, 9.998468 
3.5501802e+2, 3.1480286e+2, 83211.91, -95536.58, 16014.872, 0.13325763, -0.23303424, 84635.414, 84635.414, 0.0, 10.001156, 9.998784 
3.649961e+2, 1.2481525e+2, -1643953.9, -1725615.5, -39542.684, 0.07957876, -0.19707796, -1627944.8, 88845.3, 0.000055122826, 10.000684, 9.999592 
3.6499935e+2, 1.3481492e+2, -1579468.5, -1622728.5, 127072.875, 0.05588419, -0.21139875, -1472197.9, 146596.47, 0.000023501116, 10.000354, 9.999791 
3.650015e+2, 1.4481457e+2, -1525604.9, -1553341.4, 27534.791, 0.0012650319, -0.22365917, -1508643.0, 12156.17, 0.00000526637, 10.000087, 9.999718 
3.6500245e+2, 1.5481538e+2, -1469925.8, -1480817.5, 9416.69, 0.006415844, -0.11526575, -1464493.6, -41700.45, 0.00000017249042, 9.999819, 9.999671 
3.6500362e+2, 1.6481523e+2, -1359628.3, -1367255.1, 9353.209, 0.028174784, -0.09795823, -1353341.0, -28546.676, 0.0, 9.999865, 9.999754 
3.650046e+2, 1.7481418e+2, -1205107.6, -1241855.4, -2064.2585, 0.023030158, -0.18317515, -1204992.1, 21810.104, 0.0, 10.000253, 9.999756 
3.6500606e+2, 1.8481347e+2, -1133150.4, -1201604.1, 19973.625, 0.034793984, -0.20813964, -1127748.6, 1059.9044, 0.0, 10.000265, 9.999355 
3.6500823e+2, 1.9481316e+2, -1090215.5, -1131102.6, 21986.32, 0.07964422, -0.17965053, -1080636.8, -49823.785, 0.0, 9.999891, 9.999347 
3.6500973e+2, 2.0481266e+2, -1007423.3, -1015742.9, 23559.78, 0.06831173, -0.17240316, -987658.9, -54840.695, 0.0, 9.99968, 9.999568 
3.6501056e+2, 2.1481204e+2, -916254.6, -920971.1, 30145.28, -0.010165121, -0.19768944, -888375.5, -53551.594, 0.0, 9.999634, 9.999568 
3.6501142e+2, 2.2481155e+2, -800800.06, -808811.5, -6720.2524, -0.03884784, -0.20323208, -796982.25, -60154.22, 0.0, 9.999728, 9.9996195 
3.6501235e+2, 2.3481128e+2, -667587.0, -694338.75, -23605.777, -0.010395871, -0.19739363, -653830.9, -15000.763, 0.0, 9.999972, 9.999615 
3.6501333e+2, 2.4481061e+2, -600675.7, -697756.9, -24016.697, 0.02644641, -0.1875063, -595059.2, -54222.086, 0.0, 10.000131, 9.998841 
3.650143e+2, 2.5480953e+2, -493906.0, -596622.7, -125.86173, 0.07017626, -0.18187922, -493905.84, -51056.926, 0.0, 10.0001955, 9.998833 
3.6501518e+2, 2.6480854e+2, -372329.4, -452950.22, 13687.529, 0.08237871, -0.17918198, -370068.97, -25210.092, 0.0, 10.000212, 9.999137 
3.6501583e+2, 2.7480754e+2, -276662.8, -356091.63, -7723.498, 0.061882958, -0.19678152, -275918.78, -29051.514, 0.0, 10.0001955, 9.999137 
3.650162e+2, 2.8480628e+2, -180514.08, -315390.4, -33995.926, 0.0294029, -0.2107223, -172429.88, -23550.738, 0.0, 10.000425, 9.998634 
3.6501616e+2, 2.94805e+2, -21097.545, -192567.97, -31320.154, -0.020453269, -0.20755182, -15555.823, 35336.203, 0.0, 10.000867, 9.998591 
3.6501706e+2, 3.048043e+2, 30334.082, -169748.78, -23482.967, -0.0010124779, -0.12071394, 33053.234, 33053.234, 0.0, 10.001002, 9.99835 
3.6501905e+2, 3.1480128e+2, 64437.402, -74556.72, 43311.49, 0.13461539, -0.26602593, 76828.84, 76828.84, 0.0, 10.000895, 9.999056 
3.7499598e+2, 1.2481474e+2, -1655028.3, -1750002.3, -66191.68, -0.0069273547, -0.21265148, -1621051.4, 95742.805, 0.00005010573, 10.000689, 9.999422 
3.7499958e+2, 1.3481463e+2, -1585746.5, -1636576.3, 116652.03, 0.039089203, -0.19632421, -1491772.9, 127023.79, 0.000020857056, 10.000355, 9.999697 
3.7500182e+2, 1.4481424e+2, -1532643.1, -1567853.5, 17318.219, 0.026558826, -0.20220606, -1525552.9, -4750.927, 0.000004428325, 10.000087, 9.999618 
3.7500232e+2, 1.5481447e+2, -1475647.0, -1493335.6, 228.62733, 0.0100875655, -0.14279112, -1475644.0, -52842.91, 0.00000011962439, 9.999822, 9.999583 
3.7500337e+2, 1.6481411e+2, -1377994.9, -1406903.0, 22983.82, 0.013378457, -0.12931216, -1365298.0, -40492.957, 0.0, 9.999869, 9.99948 
3.7500456e+2, 1.7481323e+2, -1224013.4, -1282132.3, 13252.617, -0.009307827, -0.16976936, -1221134.1, 5679.113, 0.0, 10.000256, 9.999478 
3.750059e+2, 1.8481259e+2, -1128205.6, -1191321.0, 5547.409, -0.012090032, -0.17833102, -1127721.8, 1097.878, 0.0, 10.000264, 9.999426 
3.7500757e+2, 1.9481221e+2, -1084962.6, -1119988.4, 8713.364, 0.022337532, -0.16418976, -1082914.8, -52090.97, 0.0, 9.999889, 9.999424 
3.7500915e+2, 2.0481177e+2, -994811.4, -988536.7, 21174.459, 0.03937154, -0.16477154, -970268.44, -37440.62, 0.0, 9.999675, 9.999757 
3.750106e+2, 2.1481133e+2, -903205.6, -892741.9, 29237.047, 0.03295479, -0.19161105, -868272.3, -33441.19, 0.0, 9.999628, 9.9997635 
3.7501174e+2, 2.2481099e+2, -830661.56, -869478.5, 1373.923, 0.02307922, -0.17215265, -830613.0, -93778.07, 0.0, 9.999722, 9.999206 
3.7501255e+2, 2.348108e+2, -697714.9, -755590.44, -13694.236, 0.011497469, -0.11478898, -694638.2, -55799.066, 0.0, 9.999966, 9.999197 
3.7501356e+2, 2.4481016e+2, -558795.8, -608938.2, -21792.74, 0.034624156, -0.11010887, -550648.2, -9802.836, 0.0, 10.000123, 9.999455 
3.7501478e+2, 2.5480908e+2, -450523.28, -505726.7, 3010.464, 0.093736626, -0.17007592, -450359.6, -7506.1943, 0.0, 10.000192, 9.999457 
3.7501535e+2, 2.648079e+2, -410978.47, -532704.8, 12073.176, 0.07782704, -0.18778762, -409792.56, -64928.72, 0.0, 10.000209, 9.998591 
3.7501526e+2, 2.7480665e+2, -316979.56, -437474.9, -7563.197, -0.018076692, -0.17738202, -316506.7, -69629.44, 0.0, 10.000185, 9.998584 
3.750162e+2, 2.8480527e+2, -184430.19, -320909.06, -17882.4, -0.012091966, -0.17420776, -182126.0, -33234.26, 0.0, 10.000414, 9.998601 
3.7501824e+2, 2.9480395e+2, -25378.61, -200419.64, -13924.742, 0.09984506, -0.16929205, -24277.8, 26627.455, 0.0, 10.000864, 9.998539 
3.7501895e+2, 3.0480325e+2, 51045.91, -126814.414, -28727.48, 0.08646714, -0.0942274, 55570.773, 55570.773, 0.0, 10.001003, 9.998645 
3.7501875e+2, 3.1480026e+2, 115854.59, 36679.04, 40604.28, 0.011695162, -0.26915476, 132975.72, 132975.72, 0.0, 10.000876, 9.999828 
3.8499624e+2, 1.24814026e+2, -1769241.6, -1797905.8, -117461.79, -0.0066920654, -0.19764547, -1665240.8, 51561.496, 0.00004363311, 9.999879, 9.999482 
3.849996e+2, 1.34814e+2, -1605310.8, -1632220.9, 92451.88, 0.017365709, -0.18718392, -1525340.0, 93463.46, 0.000017489165, 10.000159, 9.999821 
3.85002e+2, 1.4481355e+2, -1480620.3, -1543725.9, 5880.75, 0.015792098, -0.20262659, -1480077.0, 40731.49, 0.0000034194288, 10.000447, 9.999609 
3.850025e+2, 1.5481332e+2, -1361049.6, -1438690.9, -8340.812, 0.0067324694, -0.18738037, -1360163.8, 62647.43, 0.00000006772674, 10.000611, 9.9995775 
3.8500357e+2, 1.6481291e+2, -1297207.4, -1383119.1, 26337.96, 0.018283352, -0.17396903, -1289775.8, 35040.3, 0.0, 10.000488, 9.999347 
3.8500482e+2, 1.7481238e+2, -1254836.0, -1311762.9, 26337.23, 0.0015108513, -0.16619112, -1244520.4, -17697.967, 0.0, 10.000106, 9.999348 
3.85006e+2, 1.8481183e+2, -1157915.9, -1199553.3, 22287.537, -0.0132771125, -0.16178396, -1148236.3, -19407.938, 0.0, 10.000034, 9.99948 
3.850073e+2, 1.9481125e+2, -1023938.6, -1083959.5, 22491.146, -0.0108284755, -0.17294319, -1016446.0, 14387.768, 0.0, 10.00028, 9.999482 
3.8500875e+2, 2.0481081e+2, -908192.2, -956177.75, 23583.707, 0.000675262, -0.17179494, -898542.06, 34295.54, 0.0, 10.000312, 9.999672 
3.850103e+2, 2.148106e+2, -838211.9, -871440.9, 8921.351, 0.016877087, -0.16683069, -835968.1, -1128.9495, 0.0, 10.000117, 9.999675 
3.8501164e+2, 2.2481021e+2, -802783.2, -862081.44, -8810.224, 0.031538535, -0.14417617, -801501.9, -64658.23, 0.0, 9.999939, 9.999152 
3.8501275e+2, 2.3480971e+2, -728394.2, -776090.75, 2019.0682, 0.045928728, -0.114543796, -728308.9, -89457.9, 0.0, 9.999781, 9.9991455 
3.8501376e+2, 2.44809e+2, -593975.06, -618051.1, -5629.737, 0.058046643, -0.11644412, -592723.7, -51866.08, 0.0, 9.999847, 9.999525 
3.8501465e+2, 2.5480816e+2, -450149.72, -497443.84, -24120.49, 0.066088535, -0.16007203, -440018.34, 2844.709, 0.0, 10.00016, 9.99953 
3.8501528e+2, 2.6480705e+2, -395111.22, -533712.8, -23795.033, 0.043542046, -0.17340073, -391139.9, -46267.06, 0.0, 10.000354, 9.998515 
3.8501564e+2, 2.748056e+2, -290168.84, -433387.34, -7899.302, -0.010037876, -0.1703821, -289734.47, -42847.04, 0.0, 10.000405, 9.998507 
3.850169e+2, 2.848041e+2, -177767.11, -317409.25, 12628.035, 0.0126347635, -0.17604563, -176634.33, -27731.336, 0.0, 10.000458, 9.998605 
3.850191e+2, 2.9480264e+2, -73992.97, -225760.08, 15255.674, 0.11310834, -0.1886079, -72474.65, -21556.494, 0.0, 10.000536, 9.998524 
3.8501975e+2, 3.0480182e+2, 13662.569, -158979.53, -14401.576, 0.07543204, -0.11694647, 14855.685, 14855.685, 0.0, 10.000806, 9.998519 
3.8501975e+2, 3.147995e+2, 193720.9, 103590.8, 20277.17, 0.005651716, -0.21263663, 198072.67, 198072.67, 0.000000000002787424, 10.001283, 10.000093 
3.9499694e+2, 1.24813095e+2, -1749668.5, -1756981.8, -120531.664, 0.0725229, -0.1506747, -1632738.0, 84076.03, 0.0000362571, 9.999878, 9.999763 
3.9499944e+2, 1.3481295e+2, -1580965.6, -1581876.0, 105066.69, -0.015225771, -0.18428764, -1476353.1, 142461.61, 0.000013744367, 10.000159, 10.000167 
3.9500192e+2, 1.448125e+2, -1475681.8, -1533209.4, 13070.877, -0.038402453, -0.22464217, -1472851.1, 47967.65, 0.0000023661473, 10.000444, 9.999683 
3.95003e+2, 1.5481195e+2, -1355384.3, -1428293.5, -1582.6575, -0.008179645, -0.24918316, -1355350.0, 67473.57, 0.000000028035489, 10.000616, 9.999647 
3.9500427e+2, 1.648116e+2, -1296227.4, -1381830.6, 10791.663, 0.037733987, -0.23166834, -1294887.9, 29939.568, 0.0, 10.000491, 9.999354 
3.9500546e+2, 1.7481162e+2, -1253997.6, -1309783.5, 12559.34, 0.051555116, -0.1715133, -1251300.5, -24470.951, 0.0, 10.000105, 9.999362 
3.9500648e+2, 1.8481117e+2, -1155490.0, -1194372.6, 30884.393, 0.026317913, -0.15740901, -1138437.4, -9602.825, 0.0, 10.000033, 9.999517 
3.950075e+2, 1.9481026e+2, -1021503.44, -1078365.6, 32545.615, -0.023873698, -0.20581082, -1006719.44, 24123.434, 0.0, 10.000278, 9.999522 
3.9500853e+2, 2.0480978e+2, -934033.7, -1008828.56, 15874.84, -0.05218946, -0.193607, -930803.8, 2043.9131, 0.0, 10.000307, 9.999313 
3.9500967e+2, 2.1480985e+2, -864569.3, -924723.6, 2622.2346, -0.06227157, -0.12400341, -864455.2, -29606.96, 0.0, 10.000111, 9.999312 
3.9501113e+2, 2.2480924e+2, -783027.25, -819379.2, -15263.495, -0.017272202, -0.11945543, -777468.44, -40614.29, 0.0, 9.999932, 9.999449 
3.9501297e+2, 2.3480798e+2, -707254.94, -731489.75, -3333.156, 0.08955705, -0.1964506, -706804.9, -67939.14, 0.0, 9.999777, 9.999454 
3.95014e+2, 2.4480712e+2, -627692.5, -687340.25, 5045.4746, 0.092984065, -0.2059683, -627268.75, -86394.82, 0.0, 9.999845, 9.999051 
3.9501402e+2, 2.5480676e+2, -485038.94, -567942.3, -11579.537, -0.01675459, -0.152127, -483451.97, -40573.875, 0.0, 10.000152, 9.99905 
3.9501494e+2, 2.6480588e+2, -368095.22, -475381.06, -22011.604, -0.024810294, -0.13670276, -363754.75, -18868.814, 0.0, 10.000345, 9.9989195 
3.9501694e+2, 2.7480447e+2, -261371.72, -373308.66, -5095.712, 0.08010854, -0.17458339, -261140.22, -14242.545, 0.0, 10.000405, 9.998919 
3.9501822e+2, 2.8480282e+2, -175648.45, -313614.22, 14631.996, 0.09822062, -0.21537602, -174113.73, -25200.982, 0.0, 10.00046, 9.99863 
3.9501864e+2, 2.9480103e+2, -74748.125, -223955.66, 18631.766, 0.014392154, -0.2641745, -72456.734, -21526.027, 0.0, 10.000522, 9.998543 
3.950194e+2, 3.0479997e+2, -26056.502, -237767.25, 2792.2366, -0.038860414, -0.18778786, -26019.684, -26019.684, 0.0, 10.000792, 9.997985 
3.95022e+2, 3.1479895e+2, 175474.9, 69180.03, 40392.87, 0.100953154, -0.10236339, 189082.5, 189082.5, 0.000000001718879, 10.001271, 9.99986 
4.0499678e+2, 1.2481184e+2, -1732530.5, -1728562.5, -109045.05, 0.06956992, -0.16011146, -1621483.4, 95343.9, 0.000028702449, 9.999909, 9.999943 
4.049993e+2, 1.3481207e+2, -1606454.4, -1568600.9, 119177.484, -0.031438112, -0.1815056, -1466856.6, 151967.81, 0.000010028613, 9.999874, 10.000397 
4.0500218e+2, 1.4481197e+2, -1537740.4, -1556309.3, 27330.26, -0.035498608, -0.19972554, -1518160.5, 2664.1572, 0.0000013962007, 9.9999895, 9.999744 
4.0500346e+2, 1.5481143e+2, -1410033.9, -1447539.3, 8359.061, -0.0032414151, -0.22795525, -1408255.3, 14573.931, 0.000000006286357, 10.00021, 9.999711 
4.0500474e+2, 1.6481109e+2, -1313061.5, -1390088.1, 8838.787, 0.041159127, -0.21458635, -1312060.3, 12772.968, 0.0, 10.000375, 9.999353 
4.0500566e+2, 1.7481104e+2, -1202402.0, -1285369.8, 8104.5854, 0.047557905, -0.15985492, -1201617.8, 25218.266, 0.0, 10.00046, 9.999359 
4.0500668e+2, 1.8481061e+2, -1107547.9, -1177279.8, 30273.775, 0.029167904, -0.14349398, -1096238.8, 32602.348, 0.0, 10.000389, 9.999462 
4.0500793e+2, 1.9480973e+2, -1039274.75, -1093213.9, 23599.857, 0.0013750492, -0.18156305, -1030407.06, 441.89127, 0.0, 10.000183, 9.999466 
4.0500894e+2, 2.0480913e+2, -967883.75, -1029102.56, 12707.649, -0.031157142, -0.17707534, -965350.75, -32495.945, 0.0, 10.000092, 9.999278 
4.0500966e+2, 2.1480887e+2, -864833.94, -928078.94, 23042.28, -0.07643877, -0.1358584, -857329.3, -22471.197, 0.0, 10.000124, 9.999283 
4.050109e+2, 2.2480816e+2, -735255.5, -794910.7, 13304.619, -0.04929491, -0.14300178, -732422.75, 4441.952, 0.0, 10.000256, 9.99946 
4.0501282e+2, 2.3480697e+2, -601988.56, -679376.75, 2087.2441, 0.05894145, -0.21277334, -601932.3, 36942.285, 0.0, 10.000495, 9.999465 
4.0501398e+2, 2.448061e+2, -538068.44, -670890.25, 11930.603, 0.073735856, -0.21398027, -537005.3, 3877.8418, 0.0, 10.000575, 9.998813 
4.0501434e+2, 2.5480556e+2, -452798.16, -579108.56, 12046.596, -0.014068374, -0.15211597, -451659.5, -8769.596, 0.0, 10.000487, 9.998812 
4.050155e+2, 2.6480457e+2, -332775.1, -455309.06, 553.6153, -0.014964377, -0.14004678, -332772.6, 12126.882, 0.0, 10.000574, 9.998947 
4.0501758e+2, 2.7480304e+2, -192554.7, -336638.97, -13085.36, 0.0816118, -0.18979159, -191375.97, 55535.68, 0.0, 10.000863, 9.99895 
4.050189e+2, 2.8480145e+2, -98599.59, -288403.13, -16356.485, 0.0925107, -0.22233303, -97200.375, 51725.516, 0.0, 10.0010395, 9.998525 
4.050193e+2, 2.9479972e+2, -2591.986, -200035.61, -22948.041, 0.0022756075, -0.25283122, 40.08069, 50982.813, 0.0, 10.001063, 9.998447 
4.0502003e+2, 3.0479813e+2, -19522.86, -251714.2, -23339.174, -0.060666148, -0.22003819, -17200.111, -17200.111, 0.0, 10.000909, 9.997832 
4.0502304e+2, 3.1479746e+2, 79850.914, 18737.637, 35825.508, 0.11086766, -0.083362415, 96381.164, 96381.164, 0.00000001196501, 10.000629, 9.999824 
4.149958e+2, 1.2481022e+2, -1727949.5, -1717681.1, -123628.29, -0.024854813, -0.23072469, -1599080.5, 117762.01, 0.000021697306, 9.999905, 10.000019 
4.1499916e+2, 1.348113e+2, -1597386.5, -1552177.5, 119567.17, -0.03648015, -0.17926401, -1453096.9, 165735.47, 0.000006740833, 9.999883, 10.000506 
4.150027e+2, 1.4481196e+2, -1534294.0, -1549818.5, 35532.773, 0.01759478, -0.12741545, -1505685.5, 15140.687, 0.0000006540361, 9.999992, 9.999788 
4.1500387e+2, 1.5481181e+2, -1406017.3, -1438738.0, 17383.246, 0.019135969, -0.123097695, -1398506.3, 24321.686, 0.0000000002364484, 10.000208, 9.999773 
4.1500497e+2, 1.6481137e+2, -1314470.4, -1391931.3, 11539.338, 0.025356345, -0.1224296, -1312787.9, 12045.447, 0.0, 10.000371, 9.999343 
4.1500553e+2, 1.7481066e+2, -1203785.5, -1287710.3, 11892.156, -0.015222497, -0.13087507, -1202133.0, 24708.842, 0.0, 10.000459, 9.999344 
4.1500673e+2, 1.8481009e+2, -1118230.4, -1199298.0, 21783.383, -0.010504963, -0.12029572, -1112747.9, 16100.269, 0.0, 10.000388, 9.999311 
4.1500875e+2, 1.9480966e+2, -1050594.3, -1115429.1, 16416.967, 0.062288433, -0.09909023, -1046674.25, -15822.362, 0.0, 10.000177, 9.999316 
4.1500995e+2, 2.0480886e+2, -948362.44, -987232.94, 13303.975, 0.06055564, -0.12119665, -944245.06, -11386.31, 0.0, 10.000086, 9.999568 
4.150102e+2, 2.1480767e+2, -844830.94, -884907.9, 24930.12, -0.02931262, -0.20185626, -832884.25, 1984.6842, 0.0, 10.000117, 9.999581 
4.1501096e+2, 2.2480693e+2, -754752.9, -834371.7, 21705.18, -0.068465956, -0.21503173, -749220.2, -12344.72, 0.0, 10.000251, 9.999191 
4.1501224e+2, 2.3480667e+2, -621950.94, -719861.44, 12004.436, -0.04960558, -0.1637002, -620500.6, 18377.014, 0.0, 10.000491, 9.999189 
4.150138e+2, 2.4480589e+2, -539213.56, -671869.44, 8480.993, -0.003904459, -0.14057636, -538673.56, 2211.6536, 0.0, 10.000568, 9.998809 
4.150157e+2, 2.5480455e+2, -453583.16, -579858.4, 9386.745, 0.0696565, -0.1605564, -452889.2, -9990.564, 0.0, 10.0004835, 9.998809 
4.1501695e+2, 2.6480302e+2, -358091.5, -506712.63, 10489.907, 0.06943219, -0.18402794, -357354.75, -12441.173, 0.0, 10.00057, 9.998596 
4.1501755e+2, 2.7480134e+2, -219393.52, -389255.16, -874.6546, -0.009071305, -0.21541736, -219389.02, 27540.414, 0.0, 10.00085, 9.998595 
4.1501892e+2, 2.8479996e+2, -115772.734, -321260.25, -15808.049, -0.008760291, -0.19731356, -114563.74, 34378.793, 0.0, 10.001028, 9.998304 
4.1502106e+2, 2.9479873e+2, -17293.479, -229574.81, -22042.752, 0.0704599, -0.15468465, -15028.775, 35925.395, 0.0, 10.00106, 9.998245 
4.1502157e+2, 3.0479628e+2, -3905.9429, -220110.84, -34076.273, 0.004251871, -0.21198124, 1337.6799, 1337.6799, 0.0, 10.000913, 9.998047 
4.1502282e+2, 3.147949e+2, 89703.97, 42511.79, 22889.988, 0.02402585, -0.16435228, 98982.29, 98982.29, 0.000000036873733, 10.000616, 9.999993 
4.2499545e+2, 1.2480959e+2, -1781856.1, -1762771.6, -110438.484, -0.033953603, -0.22414847, -1661463.9, 55384.426, 0.000015823704, 9.9996195, 9.999846 
4.2499897e+2, 1.348105e+2, -1592892.8, -1566520.9, 123423.66, -0.047110423, -0.17568068, -1455580.8, 163260.17, 0.0000041887733, 9.999984, 10.0003605 
4.250029e+2, 1.4481124e+2, -1500208.8, -1528236.5, 27929.516, 0.027870502, -0.10968678, -1482974.5, 37859.855, 0.00000021832761, 10.000204, 9.999834 
4.25004e+2, 1.548111e+2, -1414756.9, -1436785.9, 6849.8784, 0.013800615, -0.11057614, -1412800.6, 10035.058, 0.0, 10.000123, 9.999827 
4.2500517e+2, 1.6481066e+2, -1335839.0, -1398703.0, 8967.924, 0.015721219, -0.114683, -1334584.6, -9744.035, 0.0, 10.000212, 9.9993725 
4.2500597e+2, 1.7480993e+2, -1190463.6, -1278124.8, 10750.377, -0.018644862, -0.12829588, -1189164.5, 37684.656, 0.0, 10.000538, 9.999372 
4.250072e+2, 1.8480937e+2, -1079927.9, -1173831.8, 16457.107, -0.012198541, -0.12032664, -1077127.3, 51727.82, 0.0, 10.000622, 9.999373 
4.2500898e+2, 1.94809e+2, -1008072.2, -1087582.5, 26058.092, 0.055375136, -0.09848271, -1000293.2, 30564.742, 0.0, 10.00044, 9.99938 
4.2501017e+2, 2.0480822e+2, -921285.0, -987166.1, 24562.395, 0.06012881, -0.11707059, -913135.5, 19729.29, 0.0, 10.00033, 9.99945 
4.2501065e+2, 2.1480699e+2, -826319.4, -889843.7, 3356.8628, -0.009546403, -0.1913966, -826142.5, 8733.38, 0.0, 10.000304, 9.999457 
4.2501143e+2, 2.2480616e+2, -743298.0, -838295.9, -447.26138, -0.05420263, -0.20146373, -743295.94, -6412.579, 0.0, 10.00037, 9.999107 
4.2501253e+2, 2.3480584e+2, -620657.56, -727913.6, 2956.0469, -0.06913219, -0.1489896, -620576.1, 18310.135, 0.0, 10.000538, 9.999111 
4.2501426e+2, 2.4480493e+2, -518582.4, -661616.3, 2380.0613, -0.021879878, -0.13416074, -518542.8, 22351.81, 0.0, 10.00071, 9.998811 
4.2501658e+2, 2.548034e+2, -394704.0, -551226.25, 2577.294, 0.09098285, -0.17384124, -394661.56, 48247.35, 0.0, 10.000887, 9.998811 
4.2501786e+2, 2.6480174e+2, -316441.13, -513332.34, 12618.404, 0.08389966, -0.19698933, -315635.72, 29289.55, 0.0, 10.00097, 9.998359 
4.2501804e+2, 2.7480006e+2, -222297.86, -416826.84, 8745.86, -0.04927482, -0.2055565, -221905.44, 25037.395, 0.0, 10.000942, 9.998361 
4.2501962e+2, 2.8479874e+2, -112204.21, -325501.84, 8421.533, -0.04549634, -0.16554564, -111872.23, 37083.51, 0.0, 10.001079, 9.998251 
4.2502257e+2, 2.9479763e+2, 30942.145, -209647.84, 11966.45, 0.09899067, -0.10729476, 31535.867, 82501.58, 0.0, 10.001404, 9.998217 
4.2502302e+2, 3.047945e+2, 69410.41, -185109.58, -17634.334, 0.029483875, -0.23132178, 70626.38, 70626.38, 0.0, 10.001418, 9.998045 
4.2502356e+2, 3.1479296e+2, 136664.34, 34502.996, 14013.376, 0.013959441, -0.19766411, 138551.69, 138551.69, 0.00000007454206, 10.001073, 9.999719 
4.3499577e+2, 1.2480997e+2, -1811378.4, -1824395.5, -109662.305, 0.030398604, -0.13921852, -1708031.8, 8813.034, 0.0000113764345, 9.999622, 9.999422 
4.3499878e+2, 1.3480966e+2, -1619391.6, -1624054.1, 140080.9, -0.065967165, -0.17110117, -1481622.5, 137227.72, 0.0000025044064, 9.999992, 9.999963 
4.3500274e+2, 1.4480983e+2, -1496587.5, -1520652.1, 25826.982, -0.008969521, -0.14751002, -1480127.6, 40721.5, 0.000000047491298, 10.000205, 9.999886 
4.3500376e+2, 1.5480931e+2, -1411354.9, -1429362.6, 4150.497, -0.025452295, -0.19149728, -1410444.4, 12407.779, 0.0, 10.000121, 9.999879 
4.3500528e+2, 1.6480894e+2, -1332206.0, -1390627.1, 20255.998, 0.005161988, -0.19176383, -1325869.9, -1014.5827, 0.0, 10.00021, 9.999429 
4.3500707e+2, 1.7480883e+2, -1186052.6, -1268820.9, 24013.58, 0.03401552, -0.15094979, -1179590.1, 47267.82, 0.0, 10.000537, 9.999435 
4.3500814e+2, 1.8480845e+2, -1060974.4, -1133706.3, 9183.012, 0.019747179, -0.1422464, -1059832.9, 69029.05, 0.0, 10.000619, 9.99965 
4.3500865e+2, 1.9480777e+2, -989207.44, -1047177.6, 19454.46, -0.023090336, -0.17961396, -983283.94, 47583.32, 0.0, 10.000435, 9.99966 
4.3500954e+2, 2.048072e+2, -959258.7, -1064393.8, 23159.164, -0.035760332, -0.16518003, -954383.3, -21510.223, 0.0, 10.000323, 9.998922 
4.3501082e+2, 2.1480677e+2, -865404.0, -969426.2, 3356.366, -0.02141896, -0.10459382, -865295.8, -30416.742, 0.0, 10.0002985, 9.998915 
4.3501222e+2, 2.2480583e+2, -737520.44, -824841.1, 5097.3237, -0.011279131, -0.10186056, -737223.9, -335.51895, 0.0, 10.000363, 9.999203 
4.3501374e+2, 2.348044e+2, -613802.8, -712487.56, 9778.095, -0.003047869, -0.16949081, -612843.3, 26057.469, 0.0, 10.000533, 9.99922 
4.3501535e+2, 2.4480318e+2, -518488.4, -660204.94, 8537.207, 0.016782027, -0.19517954, -517975.97, 22935.588, 0.0, 10.000704, 9.998823 
4.35017e+2, 2.548021e+2, -394691.56, -549701.9, 10105.916, 0.04527969, -0.19057536, -394035.47, 48885.355, 0.0, 10.00088, 9.998824 
4.350182e+2, 2.6480073e+2, -325673.88, -531275.2, 11042.344, 0.0243639, -0.17856808, -325082.53, 19852.045, 0.0, 10.000965, 9.998239 
4.3501905e+2, 2.747992e+2, -231584.94, -434816.22, 8057.6377, -0.043967728, -0.16057658, -231265.97, 15686.052, 0.0, 10.0009365, 9.99824 
4.3502092e+2, 2.8479782e+2, -105358.68, -309389.94, 19905.043, -0.022450645, -0.12664942, -103434.91, 45530.754, 0.0, 10.001071, 9.998364 
4.3502384e+2, 2.947964e+2, 38666.74, -190765.75, 25811.434, 0.082821436, -0.109127164, 41534.703, 92512.125, 0.0, 10.001392, 9.998352 
4.3502423e+2, 3.047928e+2, 53266.324, -216965.81, -31031.861, 0.010046733, -0.2776148, 56784.047, 56784.047, 0.0, 10.001411, 9.997829 
4.3502522e+2, 3.147915e+2, 86577.57, -67589.94, -2970.6619, 0.06743269, -0.19440663, 86634.79, 86634.79, 0.0000001100893, 10.001065, 9.999021 
4.4499496e+2, 1.2480923e+2, -1925383.9, -1869408.3, -128634.88, 0.030067967, -0.123122804, -1765751.6, -48900.188, 0.000008277144, 9.998803, 9.999506 
4.449986e+2, 1.3480863e+2, -1660711.5, -1632937.1, 168728.63, -0.06482501, -0.19510019, -1477525.1, 141333.84, 0.0000015575915, 9.999661, 10.000061 
4.450032e+2, 1.4480874e+2, -1497344.9, -1539733.5, 47626.008, 0.011668383, -0.17169988, -1466410.1, 54447.754, 0.000000013935479, 10.000281, 9.999719 
4.45004e+2, 1.5480809e+2, -1360378.4, -1423426.1, 4639.666, -0.03373439, -0.2129442, -1360038.8, 62824.348, 0.0, 10.000553, 9.999711 
4.4500554e+2, 1.6480763e+2, -1283763.1, -1356061.9, 10452.949, -0.005582365, -0.21864992, -1282282.1, 42584.836, 0.0, 10.000494, 9.999529 
4.4500753e+2, 1.7480747e+2, -1243915.8, -1284171.8, 17115.531, 0.049241625, -0.19213557, -1237622.6, -10753.899, 0.0, 10.000088, 9.999545 
4.450086e+2, 1.8480712e+2, -1145257.0, -1187843.4, -2523.507, 0.031488232, -0.17929457, -1145108.0, -16235.61, 0.0, 10.0001, 9.999528 
4.450089e+2, 1.9480656e+2, -977544.25, -1055709.4, -23974.684, -0.04713339, -0.19343986, -970776.7, 60101.414, 0.0, 10.000576, 9.999533 
4.4500977e+2, 2.0480599e+2, -892670.75, -1034200.06, -23274.465, -0.06729413, -0.17288166, -888941.56, 43942.855, 0.0, 10.000789, 9.998905 
4.4501123e+2, 2.1480542e+2, -805859.44, -942109.75, -4539.8296, -0.03030599, -0.123908944, -805708.4, 29182.518, 0.0, 10.000714, 9.9989 
4.450128e+2, 2.2480445e+2, -693136.1, -817902.5, 17346.055, -0.0049752872, -0.11902566, -690769.44, 46131.336, 0.0, 10.000732, 9.999072 
4.4501457e+2, 2.3480304e+2, -576954.75, -710113.1, 2839.2168, 0.009901453, -0.17101286, -576894.25, 62019.832, 0.0, 10.000852, 9.999083 
4.4501612e+2, 2.4480179e+2, -485294.78, -642605.0, -7993.2075, 0.012095873, -0.19164936, -484889.7, 56035.715, 0.0, 10.000925, 9.998838 
4.4501743e+2, 2.5480065e+2, -383268.4, -541353.5, -7349.7925, -0.002585202, -0.19279222, -382927.4, 60007.29, 0.0, 10.000947, 9.998849 
4.4501886e+2, 2.6479933e+2, -305782.34, -511490.63, 2653.941, -0.012818676, -0.1873005, -305748.13, 39199.945, 0.0, 10.001057, 9.998329 
4.4502044e+2, 2.747978e+2, -176188.42, -398537.16, 14368.623, -0.011554567, -0.17543599, -175263.75, 71700.95, 0.0, 10.001274, 9.998328 
4.4502252e+2, 2.8479648e+2, -73530.72, -303197.16, 28491.402, 0.018416028, -0.13573185, -70048.984, 78928.97, 0.0, 10.0013275, 9.998284 
4.4502497e+2, 2.9479516e+2, 4641.0767, -212727.94, 17860.879, 0.06654773, -0.10113245, 6098.9004, 57088.71, 0.0, 10.0011835, 9.9983015 
4.4502532e+2, 3.0479163e+2, 65419.773, -189807.22, -27327.074, -0.021169934, -0.26943564, 68312.88, 68312.88, 0.00000000000009396187, 10.001402, 9.998021 
4.4502705e+2, 3.1479046e+2, 198996.78, -45588.4, 20207.36, 0.10012492, -0.19089368, 200655.05, 200655.05, 0.00000013361628, 10.001973, 9.998735 
4.5499304e+2, 1.24807335e+2, -1882350.0, -1782404.3, -108175.664, -0.04435961, -0.18018274, -1713216.5, 3652.3835, 0.0000061456926, 9.998814, 10.000098 
4.5499843e+2, 1.3480735e+2, -1619974.9, -1548824.5, 203221.27, -0.047522698, -0.24932568, -1378088.1, 240779.11, 0.0000010596042, 9.9996605, 10.000641 
4.5500422e+2, 1.4480798e+2, -1525739.5, -1596693.5, 59588.434, 0.08346703, -0.18315649, -1491866.6, 28994.326, 0.000000007555667, 10.000273, 9.9993305 
4.5500472e+2, 1.5480743e+2, -1388204.0, -1481368.6, 16461.184, -0.01693169, -0.17361833, -1385381.0, 37487.51, 0.0, 10.000555, 9.999312 
4.5500585e+2, 1.6480672e+2, -1272172.3, -1332996.6, -5487.5835, -0.021826494, -0.19392683, -1271681.1, 53194.465, 0.0, 10.000499, 9.999685 
4.5500737e+2, 1.7480588e+2, -1233401.4, -1261189.0, 2352.0984, 0.02417835, -0.25234345, -1233203.6, -6322.172, 0.0, 10.000083, 9.999705 
4.550086e+2, 1.8480542e+2, -1183060.5, -1264503.1, 14567.705, 0.019155601, -0.23257957, -1180533.3, -51646.68, 0.0, 10.000093, 9.999004 
4.5500973e+2, 1.9480538e+2, -1015859.44, -1133976.9, -5336.2134, -0.021586562, -0.13987015, -1015618.9, 15271.733, 0.0, 10.000571, 9.998998 
4.5501086e+2, 2.0480458e+2, -859063.25, -962832.4, -26456.25, -0.039482303, -0.13940907, -852707.44, 80191.37, 0.0, 10.000781, 9.999399 
4.5501187e+2, 2.1480295e+2, -770172.4, -867042.5, -6609.435, -0.039086238, -0.24894044, -769723.5, 65187.875, 0.0, 10.00071, 9.999418 
4.5501325e+2, 2.2480196e+2, -719606.6, -871256.6, 21242.629, -0.037707955, -0.25274825, -716687.25, 20233.371, 0.0, 10.000726, 9.99871 
4.5501497e+2, 2.3480171e+2, -604224.06, -765760.75, 7897.578, -0.033363637, -0.15234166, -603838.8, 35087.285, 0.0, 10.000848, 9.998702 
4.5501655e+2, 2.4480076e+2, -484891.75, -640532.8, -7822.802, -0.039247066, -0.12285623, -484499.56, 56436.547, 0.0, 10.000919, 9.998856 
4.5501786e+2, 2.547991e+2, -382811.22, -537565.3, -6188.965, -0.056765977, -0.1819274, -382564.1, 60386.688, 0.0, 10.000936, 9.998881 
4.5501974e+2, 2.6479742e+2, -286126.8, -468685.1, 10165.464, -0.031161452, -0.22363336, -285562.5, 59403.465, 0.0, 10.001048, 9.998628 
4.5502228e+2, 2.7479583e+2, -155899.72, -355658.22, 23623.19, 0.042801637, -0.24894948, -153144.08, 93836.89, 0.0, 10.00127, 9.998625 
4.5502442e+2, 2.8479472e+2, -93418.79, -342828.88, 22368.33, 0.0721439, -0.19229959, -91428.57, 57564.14, 0.0, 10.001321, 9.998015 
4.5502594e+2, 2.9479387e+2, -13939.755, -248701.7, 13020.764, 0.044813775, -0.08240289, -13219.783, 37783.207, 0.0, 10.001172, 9.99806 
4.5502624e+2, 3.0479094e+2, 105567.62, -103646.22, -6535.09, -0.06831115, -0.20849967, 105771.55, 105771.55, 0.00000000000087855477, 10.001391, 9.998617 
4.5502904e+2, 3.147898e+2, 207127.0, -25582.225, 32781.64, 0.10028859, -0.18815017, 211656.77, 211656.77, 0.00000014519496, 10.001962, 9.998878 
4.6499202e+2, 1.2480521e+2, -1762769.0, -1710579.3, -133773.83, -0.06904286, -0.21686909, -1600378.9, 116508.95, 0.000004581255, 9.9995775, 10.000219 
4.64998e+2, 1.3480544e+2, -1625480.4, -1539912.4, 149467.03, -0.052906696, -0.2751866, -1427226.5, 191656.98, 0.0000007444035, 9.999572, 10.000746 
4.6500447e+2, 1.4480633e+2, -1628236.3, -1650408.4, -8311.139, 0.11767766, -0.18810952, -1625466.8, -104591.69, 0.0000000034677494, 9.999589, 9.999292 
4.6500495e+2, 1.5480573e+2, -1536426.3, -1556712.9, -27091.146, 0.0006715488, -0.17795512, -1517641.8, -94757.9, 0.0, 9.999555, 9.999277 
4.6500602e+2, 1.6480505e+2, -1374311.9, -1378122.4, -40611.723, -0.019924276, -0.19557223, -1335560.8, -10669.676, 0.0, 9.999781, 9.999722 
4.6500745e+2, 1.7480429e+2, -1198130.1, -1239989.1, -43399.22, 0.0130380355, -0.24934153, -1170877.4, 56018.574, 0.0, 10.000306, 9.999743 
4.6500883e+2, 1.848038e+2, -1133700.6, -1246079.3, -14653.268, 0.015217935, -0.23283342, -1131821.4, -2920.2563, 0.0, 10.000455, 9.998957 
4.6501037e+2, 1.9480363e+2, -1071440.8, -1166286.8, 1716.8582, 0.002510733, -0.1505974, -1071409.6, -40502.938, 0.0, 10.000215, 9.998947 
4.650117e+2, 2.0480275e+2, -933761.6, -988284.6, -15135.16, -0.0041127075, -0.1580109, -929842.0, 3073.3997, 0.0, 10.000224, 9.999492 
4.6501276e+2, 2.1480116e+2, -794537.2, -868242.7, -28915.29, -0.0124104945, -0.27158126, -784547.44, 50379.715, 0.0, 10.000498, 9.999512 
4.65014e+2, 2.2480017e+2, -737243.4, -884400.56, -6385.956, -0.029216334, -0.2788179, -736966.75, -30.423845, 0.0, 10.000623, 9.99867 
4.650155e+2, 2.3479986e+2, -646050.4, -790003.5, 4927.7217, -0.053313684, -0.18077575, -645881.9, -6939.371, 0.0, 10.000579, 9.998666 
4.6501708e+2, 2.4479899e+2, -522216.7, -659156.0, 5867.1, -0.061592314, -0.14217068, -521965.75, 18986.502, 0.0, 10.000667, 9.998848 
4.650188e+2, 2.5479752e+2, -387639.1, -541500.8, 3557.9585, -0.053789347, -0.17948769, -387556.84, 55409.004, 0.0, 10.000908, 9.998868 
4.650208e+2, 2.6479593e+2, -284320.94, -465178.56, 9353.401, -0.02828652, -0.21465704, -283838.5, 61142.12, 0.0, 10.00105, 9.998651 
4.6502322e+2, 2.7479425e+2, -182681.53, -364907.94, 181.9135, 0.018737925, -0.25216302, -182681.34, 64314.746, 0.0, 10.001074, 9.998654 
4.650254e+2, 2.847929e+2, -114074.984, -353868.1, -3538.7864, 0.04637703, -0.216659, -114022.77, 34986.875, 0.0, 10.0011835, 9.998006 
4.650272e+2, 2.9479185e+2, 18194.137, -232626.13, 6129.55, 0.045516938, -0.13074212, 18343.84, 69366.44, 0.0, 10.001389, 9.998068 
4.6502784e+2, 3.0478963e+2, 167291.73, -56427.973, -656.5336, -0.066971265, -0.19371252, 167293.66, 167293.66, 0.00000000000042122027, 10.001737, 9.998776 
4.6503094e+2, 3.1478882e+2, 220456.17, -41532.39, -7939.1055, 0.085492335, -0.15069869, 220696.53, 220696.53, 0.00000014428599, 10.002147, 9.99868 
4.7499174e+2, 1.2480284e+2, -1787441.9, -1761437.4, -143544.7, -0.057054404, -0.23298202, -1630307.3, 86601.47, 0.0000033199578, 9.999574, 9.999873 
4.7499722e+2, 1.3480292e+2, -1649606.4, -1593371.1, 152227.72, -0.08957984, -0.269145, -1466686.0, 152221.83, 0.00000048107097, 9.999584, 10.000374 
4.7500396e+2, 1.4480378e+2, -1603681.6, -1603653.6, -9705.484, 0.10617573, -0.18281288, -1593962.1, -73061.95, 0.000000000765976, 9.999605, 9.999606 
4.7500467e+2, 1.5480296e+2, -1514210.5, -1509336.5, -27987.033, 0.01656719, -0.22680773, -1483680.5, -60771.11, 0.0, 9.99955, 9.999605 
4.7500598e+2, 1.648026e+2, -1381017.1, -1390628.5, -21390.162, -0.0030449457, -0.2242658, -1363899.5, -38985.883, 0.0, 9.999774, 9.999639 
4.750077e+2, 1.7480272e+2, -1204190.1, -1252343.6, -22552.902, 0.007980388, -0.18212193, -1195277.1, 31634.799, 0.0, 10.000306, 9.999659 
4.7500926e+2, 1.8480228e+2, -1102797.6, -1182525.9, -24078.906, 0.011663626, -0.17778668, -1096089.9, 32826.24, 0.0, 10.000457, 9.9993925 
4.750108e+2, 1.9480124e+2, -1040009.4, -1101305.3, -6620.111, 0.023249289, -0.22604254, -1039302.5, -8375.875, 0.0, 10.000215, 9.999393 
4.7501233e+2, 2.0480047e+2, -957909.8, -1036145.3, -5627.6396, 0.0361043, -0.22901775, -957507.06, -24572.848, 0.0, 10.000215, 9.999168 
4.7501382e+2, 2.1480004e+2, -818965.9, -917850.56, -18033.168, 0.04495135, -0.19247916, -815779.9, 19158.486, 0.0, 10.000493, 9.999173 
4.7501507e+2, 2.2479905e+2, -717984.4, -842609.3, -8778.782, 0.014939096, -0.197702, -717369.0, 19579.016, 0.0, 10.000614, 9.9989605 
4.750161e+2, 2.3479746e+2, -625190.25, -745242.0, 3871.0562, -0.053409263, -0.25733656, -625065.56, 13897.724, 0.0, 10.000571, 9.998976 
4.750178e+2, 2.4479643e+2, -526369.2, -666296.1, 13970.238, -0.058737952, -0.2501368, -524988.06, 15985.969, 0.0, 10.00066, 9.998803 
4.7502026e+2, 2.5479594e+2, -391882.13, -549853.7, 13120.52, 0.0014058801, -0.18377426, -390799.78, 52180.113, 0.0, 10.000905, 9.998812 
4.7502208e+2, 2.647948e+2, -302262.56, -501593.78, 9849.04, -0.0083625475, -0.15932973, -301777.1, 43214.918, 0.0, 10.001046, 9.998403 
4.750232e+2, 2.7479297e+2, -201236.94, -400810.2, 1511.1382, -0.08787421, -0.1864886, -201225.48, 45784.836, 0.0, 10.001062, 9.998414 
4.7502548e+2, 2.8479105e+2, -97951.94, -318184.28, 3351.9063, -0.062585875, -0.20953898, -97900.94, 51128.066, 0.0, 10.001174, 9.998256 
4.7502878e+2, 2.9478902e+2, 36312.12, -194261.98, 15934.054, 0.06301533, -0.24581707, 37408.05, 88456.77, 0.0, 10.001386, 9.998333 
4.7503003e+2, 3.0478764e+2, 147141.03, -95996.73, 14303.881, -0.022526262, -0.22669563, 147979.64, 147979.64, 0.0, 10.001728, 9.998508 
4.7503272e+2, 3.1478766e+2, 181570.1, -117899.53, -274.3601, 0.044668615, -0.07249066, 181570.34, 181570.34, 0.00000012581201, 10.00213, 9.998163 
4.849912e+2, 1.2479979e+2, -1935422.6, -1832684.9, -198327.1, -0.015999317, -0.23087756, -1679182.1, 37756.215, 0.0000022837717, 9.998564, 9.999869 
4.8499656e+2, 1.3479975e+2, -1678853.3, -1612641.5, 126505.164, -0.10679669, -0.2748532, -1514982.1, 103957.09, 0.0000002759338, 9.999403, 10.00033 
4.8500365e+2, 1.448007e+2, -1538115.1, -1540879.0, -38066.133, 0.09973591, -0.19087872, -1501405.8, 19524.365, 0.000000000009128432, 9.999923, 9.999883 
4.8500437e+2, 1.5479997e+2, -1431470.6, -1438092.9, -63113.78, 0.010188451, -0.25494233, -1371581.1, 51355.8, 0.0, 9.999981, 9.999887 
4.8500577e+2, 1.6479968e+2, -1359600.6, -1385695.0, -46807.348, -0.008949177, -0.25541896, -1324056.1, 883.9351, 0.0, 9.999946, 9.99959 
4.850078e+2, 1.747999e+2, -1272810.9, -1291877.8, -46730.242, 0.00656979, -0.19643843, -1234651.5, -7712.858, 0.0, 9.999863, 9.999601 
4.8500943e+2, 1.8479961e+2, -1162998.3, -1173198.5, -60285.47, 0.012650752, -0.19272536, -1107597.6, 21343.883, 0.0, 9.999877, 9.999737 
4.8501086e+2, 1.9479875e+2, -1049531.0, -1066401.9, -51509.36, 0.0202027, -0.25779504, -1005770.94, 25177.604, 0.0, 9.999978, 9.999748 
4.8501247e+2, 2.0479819e+2, -977990.8, -1057602.5, -33143.227, 0.03456618, -0.25397924, -965999.2, -33044.883, 0.0, 10.000126, 9.999065 
4.850143e+2, 2.1479797e+2, -851831.7, -946042.56, -28616.797, 0.052007012, -0.18524802, -843820.5, -8862.205, 0.0, 10.0003195, 9.999064 
4.8501572e+2, 2.2479708e+2, -722206.44, -816641.9, -18711.363, 0.027616749, -0.18588866, -718634.1, 18333.04, 0.0, 10.000466, 9.999209 
4.8501676e+2, 2.347955e+2, -608713.0, -709212.44, -12380.968, -0.040889993, -0.27109227, -607210.2, 31770.896, 0.0, 10.000564, 9.999227 
4.8501858e+2, 2.4479444e+2, -537515.4, -676716.44, -232.77563, -0.043555804, -0.27576506, -537515.0, 3476.4727, 0.0, 10.000604, 9.998759 
4.850212e+2, 2.5479394e+2, -443517.06, -579732.06, -2080.529, 0.022242723, -0.20615143, -443485.3, -487.19455, 0.0, 10.000573, 9.998766 
4.8502308e+2, 2.647929e+2, -348516.8, -533600.44, 6487.6094, 0.0016216267, -0.16586433, -348289.7, -3279.5852, 0.0, 10.0007715, 9.998315 
4.8502418e+2, 2.7479124e+2, -184927.97, -403649.9, 9212.997, -0.10665049, -0.16635253, -184540.58, 62487.09, 0.0, 10.001219, 9.99832 
4.850265e+2, 2.8478923e+2, -43349.176, -286241.53, 9049.36, -0.09320726, -0.19534323, -43012.492, 106034.91, 0.0, 10.001525, 9.998306 
4.8503008e+2, 2.9478693e+2, 82452.664, -165306.94, 4397.845, 0.03954644, -0.2631383, 82530.7, 133599.84, 0.0, 10.001675, 9.998392 
4.8503166e+2, 3.047861e+2, 155962.6, -106734.03, 4495.864, -0.036154613, -0.18722318, 156039.52, 156039.52, 0.0, 10.001854, 9.998374 
4.8503464e+2, 3.1478554e+2, 149244.42, -148745.47, -11967.23, 0.033343803, -0.07345495, 149724.25, 149724.25, 0.00000009052117, 10.001972, 9.998028 
4.9499032e+2, 1.24796055e+2, -1912207.3, -1786192.5, -172840.66, 0.03807056, -0.20915993, -1665233.0, 51743.863, 0.0000015131136, 9.99857, 10.000185 
4.9499598e+2, 1.3479587e+2, -1660876.8, -1574033.1, 159699.4, -0.10559882, -0.29374787, -1451957.6, 167020.42, 0.00000014199817, 9.999396, 10.000599 
4.9500358e+2, 1.4479703e+2, -1521537.0, -1505537.3, -34291.133, 0.095371306, -0.21251099, -1478325.1, 42640.31, 0.0, 9.999917, 10.000129 
4.9500397e+2, 1.5479675e+2, -1413400.6, -1401470.1, -59876.24, -0.028016299, -0.25871316, -1347262.8, 75703.65, 0.0, 9.999986, 10.000135 
4.9500534e+2, 1.6479634e+2, -1359403.0, -1388115.5, -51343.08, -0.047690507, -0.2833967, -1320446.9, 4523.2627, 0.0, 9.999957, 9.999568 
4.9500766e+2, 1.7479587e+2, -1274688.5, -1296021.8, -49126.16, 0.007186736, -0.2926665, -1235084.3, -8108.023, 0.0, 9.999864, 9.999572 
4.9500936e+2, 1.8479578e+2, -1146446.6, -1137368.5, -56860.11, 0.015959967, -0.27747285, -1084866.6, 44110.73, 0.0, 9.99987, 9.999986 
4.9501052e+2, 1.9479614e+2, -1031482.94, -1028892.1, -47154.883, -0.011702182, -0.24636832, -983014.9, 47957.83, 0.0, 9.999977, 10.000006 
4.950121e+2, 2.0479587e+2, -969706.3, -1039100.3, -26648.738, -0.014686128, -0.23342654, -960653.6, -27677.867, 0.0, 10.00012, 9.999195 
4.9501416e+2, 2.1479492e+2, -843315.0, -927499.2, -20226.027, 0.0063284836, -0.2509463, -838707.7, -3720.7883, 0.0, 10.000315, 9.999194 
4.9501595e+2, 2.2479427e+2, -710544.0, -790432.25, -15656.032, 0.005041663, -0.24422908, -707585.4, 29408.365, 0.0, 10.000458, 9.999393 
4.9501756e+2, 2.3479395e+2, -596192.7, -682750.5, -8206.469, -0.019065632, -0.22146592, -595421.56, 43574.246, 0.0, 10.000561, 9.999411 
4.9501944e+2, 2.4479303e+2, -541175.7, -683119.5, -1943.3602, -0.019859852, -0.21863453, -541149.06, -144.45953, 0.0, 10.000599, 9.998717 
4.950216e+2, 2.547915e+2, -447238.56, -585979.25, -2687.9167, 0.0049366234, -0.2473428, -447186.5, -4165.9336, 0.0, 10.0005665, 9.998726 
4.9502382e+2, 2.6479018e+2, -344838.3, -524738.25, 22184.998, -0.0027791604, -0.23480666, -342142.88, 2892.146, 0.0, 10.000767, 9.998379 
4.9502602e+2, 2.7478904e+2, -181428.98, -395338.72, 26839.502, -0.043367967, -0.1919302, -178112.81, 68935.44, 0.0, 10.001215, 9.998379 
4.9502847e+2, 2.8478748e+2, -55554.758, -309455.97, 14301.534, -0.05051952, -0.17359938, -54751.734, 94313.125, 0.0, 10.001515, 9.998152 
4.9503106e+2, 2.947856e+2, 70436.766, -187549.6, 12001.257, -0.029441267, -0.1818425, 70993.85, 122077.69, 0.0, 10.001663, 9.998244 
4.950328e+2, 3.0478498e+2, 154336.58, -107371.42, 9178.876, -0.11137878, -0.074844435, 154658.13, 154658.13, 0.0, 10.001843, 9.998374 
4.9503672e+2, 3.147826e+2, 164009.47, -114799.766, -15570.803, 0.039937813, -0.1474952, 164876.36, 164876.36, 0.000000050936965, 10.00196, 9.998266 
5.049893e+2, 1.2479256e+2, -1789060.6, -1711806.5, -127775.23, 0.04345664, -0.20672569, -1616947.4, 100063.82, 0.0000009949754, 9.999355, 10.000315 
5.049952e+2, 1.3479231e+2, -1663294.1, -1566569.0, 193363.72, -0.115694545, -0.3061736, -1415611.5, 203400.81, 0.000000065122016, 9.99934, 10.000679 
5.050034e+2, 1.4479358e+2, -1597373.9, -1536035.8, -25280.365, 0.114807434, -0.2208071, -1526959.5, -5961.0093, 0.0, 9.999371, 10.000183 
5.0500375e+2, 1.5479349e+2, -1488986.8, -1432288.9, -69880.99, -0.01972262, -0.25285012, -1385225.5, 37772.4, 0.0, 9.999441, 10.000188 
5.050051e+2, 1.6479313e+2, -1416601.1, -1397283.9, -65307.55, -0.042783592, -0.28352082, -1340924.6, -15923.472, 0.0, 9.999483, 9.999735 
5.0500745e+2, 1.7479256e+2, -1320943.1, -1299531.1, -49438.43, 0.019065628, -0.31893483, -1259652.8, -32645.178, 0.0, 9.999464, 9.9997425 
5.050091e+2, 1.8479256e+2, -1195664.4, -1158532.5, -48735.75, 0.023956066, -0.30441824, -1124946.1, 4061.6787, 0.0, 9.99952, 10.00001 
5.0501025e+2, 1.9479321e+2, -1071776.4, -1045842.0, -57696.813, -0.021476867, -0.24589673, -999673.2, 31327.885, 0.0, 9.99969, 10.000029 
5.05012e+2, 2.0479307e+2, -991193.56, -1021948.1, -39872.996, -0.02592058, -0.23377171, -963835.44, -30832.613, 0.0, 9.999852, 9.999443 
5.0501436e+2, 2.1479207e+2, -872345.56, -913437.0, -26234.234, 0.009176842, -0.28176603, -859569.2, -24555.65, 0.0, 9.999993, 9.999447 
5.0501645e+2, 2.2479157e+2, -765321.06, -821617.25, -26637.094, 0.02084067, -0.27014512, -754715.44, -17696.44, 0.0, 10.000101, 9.999352 
5.050182e+2, 2.3479162e+2, -656862.0, -716932.6, -37718.625, 0.008901461, -0.20479481, -638680.94, 337.56546, 0.0, 10.000167, 9.999366 
5.050201e+2, 2.4479076e+2, -561018.06, -687334.6, -30168.762, -0.00425937, -0.19779278, -554182.6, -13155.355, 0.0, 10.000441, 9.998764 
5.050221e+2, 2.547889e+2, -388279.16, -552407.6, -25003.068, -0.01951859, -0.26373646, -384554.72, 58490.984, 0.0, 10.00095, 9.998773 
5.050245e+2, 2.6478755e+2, -291194.38, -491107.1, -593.82117, -0.027002238, -0.25714773, -291192.63, 53867.184, 0.0, 10.0011015, 9.998447 
5.0502723e+2, 2.7478674e+2, -228238.13, -410098.4, 1903.1025, -0.02452226, -0.18860866, -228218.2, 18851.57, 0.0, 10.000861, 9.9984455 
5.050299e+2, 2.847852e+2, -149437.81, -361786.88, -683.5755, -0.024140544, -0.16833231, -149435.61, -349.14923, 0.0, 10.000901, 9.998088 
5.050325e+2, 2.947831e+2, 1815.2777, -228858.86, 3223.1653, -0.03160335, -0.193482, 1860.3055, 52968.67, 0.0, 10.001226, 9.998171 
5.0503445e+2, 3.0478263e+2, 128676.234, -134551.6, 5595.4883, -0.12442116, -0.062460557, 128795.125, 128795.125, 0.0, 10.001731, 9.998242 
5.050385e+2, 3.147796e+2, 243059.36, -48783.25, -42269.258, 0.002709693, -0.186998, 249058.16, 249058.16, 0.000000020855737, 10.002382, 9.998517 
5.149882e+2, 1.2478925e+2, -1793425.4, -1719607.4, -133866.63, -0.011694362, -0.22570385, -1617654.8, 99387.37, 0.00000067894854, 9.999349, 10.000265 
5.1499426e+2, 1.3478911e+2, -1668244.5, -1579025.5, 194503.83, -0.14698444, -0.3066572, -1424081.1, 194960.5, 0.000000029496794, 9.999349, 10.00059 
5.150031e+2, 1.4479038e+2, -1607307.8, -1559693.1, -23993.547, 0.14514132, -0.20891531, -1549699.9, -28671.19, 0.0, 9.999382, 10.000016 
5.1500374e+2, 1.5479013e+2, -1500551.0, -1456302.4, -66935.53, 0.03220564, -0.23844194, -1407929.5, 15102.54, 0.0, 9.999441, 10.000023 
5.1500505e+2, 1.6479e+2, -1391053.4, -1343457.6, -66757.67, 0.0031198042, -0.25650504, -1296382.9, 28650.557, 0.0, 9.999479, 10.000106 
5.150071e+2, 1.7479e+2, -1293437.3, -1243344.1, -49596.945, 0.035793312, -0.27487543, -1212828.3, 14204.474, 0.0, 9.999467, 10.000126 
5.1500875e+2, 1.8478999e+2, -1209308.3, -1187890.5, -43586.66, 0.028125646, -0.2719027, -1153716.5, -24683.686, 0.0, 9.999525, 9.999806 
5.1501006e+2, 1.9478998e+2, -1087128.0, -1077422.3, -50624.496, -0.011897024, -0.25673673, -1031418.5, -384.9062, 0.0, 9.999687, 9.999813 
5.150121e+2, 2.0478977e+2, -967874.94, -970961.94, -35133.57, -0.0026047355, -0.2550845, -934251.0, -1215.4081, 0.0, 9.999841, 9.999798 
5.150148e+2, 2.1478942e+2, -847010.44, -860265.8, -20221.842, 0.05632304, -0.27845398, -832357.9, 2680.565, 0.0, 9.99999, 9.999813 
5.1501703e+2, 2.24789e+2, -784512.25, -859997.1, -24711.098, 0.07042454, -0.2645052, -777142.3, -40099.29, 0.0, 10.000094, 9.999092 
5.150187e+2, 2.3478854e+2, -676375.44, -756705.25, -34298.758, 0.039352518, -0.22176404, -663723.44, -24674.092, 0.0, 10.000163, 9.999095 
5.1502055e+2, 2.447876e+2, -552752.0, -669075.6, -12184.098, -0.0020638444, -0.21486619, -551489.5, -10430.006, 0.0, 10.000436, 9.998892 
5.150227e+2, 2.5478613e+2, -379830.75, -533558.3, -5117.079, -0.055189308, -0.2558804, -379660.63, 63412.95, 0.0, 10.000943, 9.998906 
5.1502514e+2, 2.6478505e+2, -287733.97, -482137.84, -9309.376, -0.07400852, -0.23240967, -287289.2, 57795.195, 0.0, 10.001094, 9.998512 
5.150278e+2, 2.747844e+2, -224064.42, -400409.4, -6035.9526, -0.05392719, -0.15621717, -223858.06, 23234.297, 0.0, 10.000856, 9.998515 
5.1503086e+2, 2.8478244e+2, -148777.06, -358719.56, 10661.708, -0.019462157, -0.18026699, -148237.0, 875.4, 0.0, 10.000895, 9.998112 
5.150343e+2, 2.9477942e+2, 939.9593, -228586.75, 17252.07, 0.025721425, -0.2995684, 2229.4438, 53372.426, 0.0, 10.001218, 9.998178 
5.150366e+2, 3.04779e+2, 108096.13, -173983.86, 29557.328, -0.08138525, -0.14984271, 111159.98, 111159.98, 0.0, 10.001718, 9.997978 
5.1504004e+2, 3.1477654e+2, 257268.53, -14359.418, -22808.266, -0.08463529, -0.191398, 259170.39, 259170.39, 0.0000000053166334, 10.002362, 9.998763 
5.2498823e+2, 1.2478605e+2, -1668255.4, -1679807.0, -153393.88, 0.010625692, -0.22559647, -1520528.6, 196543.89, 0.0000005002885, 10.000299, 10.000077 
5.2499354e+2, 1.3478576e+2, -1658531.3, -1601983.0, 159496.25, -0.16083367, -0.29719245, -1468274.1, 150800.28, 0.000000016983103, 9.999533, 10.000344 
5.2500236e+2, 1.4478688e+2, -1637444.0, -1568297.4, -40050.844, 0.1486238, -0.20276944, -1549961.5, -28897.941, 0.0, 9.99915, 10.000069 
5.2500296e+2, 1.5478656e+2, -1547624.5, -1472236.9, -67525.27, 0.027965479, -0.24743207, -1432597.1, -9529.153, 0.0, 9.999088, 10.000083 
5.250043e+2, 1.6478664e+2, -1414814.0, -1329412.9, -55711.207, -0.006467029, -0.25873822, -1301920.4, 23146.887, 0.0, 9.999205, 10.000336 
5.2500653e+2, 1.7478715e+2, -1263317.6, -1203290.4, -52044.74, 0.029681953, -0.24636988, -1173225.1, 53835.71, 0.0, 9.999561, 10.000358 
5.250084e+2, 1.8478729e+2, -1185710.8, -1173730.8, -48826.797, 0.03194196, -0.2414868, -1130527.9, -1468.4679, 0.0, 9.999674, 9.999832 
5.250098e+2, 1.9478706e+2, -1112790.9, -1087210.5, -39782.457, 0.0039881924, -0.25374952, -1058212.8, -27149.568, 0.0, 9.9995, 9.999837 
5.250119e+2, 2.0478685e+2, -1010463.7, -978816.94, -15991.575, 0.01338729, -0.25840956, -972143.44, -39078.52, 0.0, 9.999495, 9.999911 
5.250147e+2, 2.1478675e+2, -884869.94, -865243.3, -21523.045, 0.06057432, -0.26430297, -851402.0, -16337.878, 0.0, 9.999675, 9.99993 
5.2501696e+2, 2.2478633e+2, -805830.9, -874724.75, -23374.94, 0.06543239, -0.2564221, -798648.75, -61580.18, 0.0, 9.999967, 9.999053 
5.250188e+2, 2.3478551e+2, -647263.4, -747122.25, -17071.26, 0.02612117, -0.24679723, -644425.6, -5346.8867, 0.0, 10.000381, 9.999055 
5.25021e+2, 2.4478458e+2, -525424.9, -645331.94, 13689.576, -0.008210207, -0.24215147, -523881.84, 17207.12, 0.0, 10.000578, 9.998987 
5.2502364e+2, 2.547835e+2, -432883.25, -547935.1, 16188.015, -0.037479237, -0.25049078, -430648.97, 12449.779, 0.0, 10.000532, 9.999004 
5.2502626e+2, 2.647826e+2, -342681.47, -506066.16, 4940.2886, -0.05081648, -0.22186227, -342532.22, 2576.0676, 0.0, 10.000706, 9.998535 
5.2502894e+2, 2.7478164e+2, -186184.86, -379189.03, 4060.3218, -0.04485546, -0.17296009, -186099.48, 61018.973, 0.0, 10.001105, 9.998541 
5.25032e+2, 2.847796e+2, -93650.1, -338399.28, 20095.164, -0.020285985, -0.20617771, -92011.16, 57128.445, 0.0, 10.001301, 9.998055 
5.2503544e+2, 2.9477668e+2, 3235.2798, -236103.83, 18144.951, 0.019868925, -0.31083557, 4603.081, 55772.863, 0.0, 10.001272, 9.998098 
5.250382e+2, 3.0477613e+2, 53849.883, -204195.9, 47382.14, -0.07335133, -0.16599753, 62275.066, 62275.066, 0.0, 10.001362, 9.997941 
5.250419e+2, 3.1477368e+2, 169499.56, -6052.744, 4681.9863, -0.093214124, -0.20495617, 169624.34, 169624.34, 0.00000000056215, 10.00154, 9.999216 
5.349893e+2, 1.2478299e+2, -1691916.0, -1733210.3, -183649.75, 0.08957325, -0.20350805, -1527756.4, 189345.67, 0.00000041209, 10.000318, 9.999703 
5.349931e+2, 1.347822e+2, -1687810.9, -1664656.1, 130913.99, -0.15981919, -0.2789563, -1544808.6, 74302.69, 0.000000018082496, 9.999538, 9.999912 
5.350013e+2, 1.4478306e+2, -1617145.0, -1525350.5, -43717.02, 0.12176688, -0.20335801, -1507862.3, 13241.039, 0.0, 9.999146, 10.000365 
5.350014e+2, 1.5478276e+2, -1525630.1, -1427013.5, -69529.61, -0.039914932, -0.27817583, -1391082.9, 32022.707, 0.0, 9.999091, 10.000392 
5.350028e+2, 1.6478305e+2, -1408686.8, -1318351.3, -44238.453, -0.0807902, -0.2871827, -1300295.9, 24806.313, 0.0, 9.99921, 10.000409 
5.350058e+2, 1.7478405e+2, -1258163.1, -1192666.1, -37922.633, -0.0025887168, -0.23394379, -1175308.8, 51783.207, 0.0, 9.999561, 10.00043 
5.35008e+2, 1.847845e+2, -1168210.4, -1136586.8, -55615.97, 0.031292915, -0.21346168, -1094578.6, 34509.18, 0.0, 9.99967, 10.00009 
5.3500944e+2, 1.9478439e+2, -1094675.6, -1049655.8, -46002.887, 0.02125598, -0.2382661, -1020950.8, 10139.025, 0.0, 9.999499, 10.000095 
5.350115e+2, 2.0478426e+2, -1020177.2, -997680.5, -10259.007, 0.017021522, -0.24418896, -993704.8, -60613.902, 0.0, 9.999489, 9.999784 
5.350139e+2, 2.1478413e+2, -895448.6, -885598.8, -14008.547, 0.018382622, -0.23958817, -875674.6, -40584.023, 0.0, 9.999667, 9.999794 
5.350163e+2, 2.2478357e+2, -794253.9, -848894.8, -8981.91, 0.0014756772, -0.24670729, -792815.3, -55719.547, 0.0, 9.999959, 9.999234 
5.350186e+2, 2.3478252e+2, -634720.75, -720510.56, -804.5852, -0.034078892, -0.28024682, -634713.2, 4393.6577, 0.0, 10.000379, 9.999241 
5.350214e+2, 2.4478164e+2, -521945.34, -636630.8, 11837.198, -0.025972635, -0.28023794, -520736.34, 20379.357, 0.0, 10.000571, 9.99905 
5.350248e+2, 2.5478107e+2, -429244.63, -539805.1, 15259.371, 0.028482882, -0.24828844, -427177.22, 15944.256, 0.0, 10.000529, 9.999063 
5.3502786e+2, 2.6478007e+2, -344656.34, -509062.56, 19127.443, 0.036821388, -0.22727948, -342460.3, 2671.5466, 0.0, 10.000701, 9.998517 
5.350305e+2, 2.7477852e+2, -188529.38, -382361.97, 19815.463, -0.0027889647, -0.23946165, -186524.38, 60623.883, 0.0, 10.001097, 9.998524 
5.350332e+2, 2.8477663e+2, -104762.85, -359173.53, 18603.553, -0.030938953, -0.24609149, -103409.68, 45758.49, 0.0, 10.001291, 9.997917 
5.35036e+2, 2.9477477e+2, -8675.852, -259799.75, 18619.152, -0.052060753, -0.22918826, -7302.8726, 43886.176, 0.0, 10.0012665, 9.997939 
5.3503925e+2, 3.0477396e+2, 65396.28, -177515.88, 53884.895, -0.105115496, -0.11198518, 76812.93, 76812.93, 0.0, 10.001351, 9.998128 
5.35044e+2, 3.1477085e+2, 212139.13, 86681.336, 9904.931, -0.034512993, -0.24113457, 212916.31, 212916.31, 0.0000000000003731001, 10.001523, 9.999861 
5.449894e+2, 1.247794e+2, -1832418.6, -1789865.5, -217263.47, 0.112200476, -0.20170407, -1592839.3, 124299.25, 0.00000036785775, 9.999309, 9.9998 
5.4499245e+2, 1.3477874e+2, -1723606.3, -1676814.4, 129273.32, -0.16427384, -0.26870027, -1568836.9, 50309.95, 0.000000024396927, 9.999271, 9.999957 
5.450006e+2, 1.4477971e+2, -1577798.9, -1487937.3, -11361.522, 0.1314717, -0.19336684, -1486523.1, 34614.668, 0.0, 9.999337, 10.000529 
5.450006e+2, 1.5477961e+2, -1446991.1, -1370999.6, -51941.758, -0.045790266, -0.26326063, -1344639.9, 78497.484, 0.0, 9.999552, 10.000555 
5.450019e+2, 1.6478e+2, -1369048.3, -1294925.4, -36645.043, -0.098192155, -0.27267358, -1279867.6, 45265.28, 0.0, 9.999466, 10.000447 
5.450049e+2, 1.7478098e+2, -1334029.0, -1224688.5, -34219.74, -0.022083104, -0.22561286, -1214862.0, 12261.261, 0.0, 9.999023, 10.000468 
5.450072e+2, 1.8478146e+2, -1270915.9, -1186570.3, -55931.3, 0.018146768, -0.2036869, -1158694.1, -29575.156, 0.0, 9.998968, 10.000085 
5.450089e+2, 1.9478145e+2, -1116343.4, -1060563.4, -67786.39, 0.021231558, -0.21857953, -1015153.6, 15966.625, 0.0, 9.999353, 10.000091 
5.4501104e+2, 2.0478132e+2, -989819.2, -982169.6, -31443.436, 0.018387208, -0.22372481, -954319.2, -21197.887, 0.0, 9.999693, 9.999793 
5.4501367e+2, 2.147811e+2, -849869.0, -862674.75, -25085.262, 0.0082890885, -0.22884828, -830382.4, 4739.389, 0.0, 9.999975, 9.9998045 
5.450162e+2, 2.2478056e+2, -767493.94, -818026.8, -16494.797, -0.007762877, -0.24258852, -762586.4, -25460.143, 0.0, 10.000066, 9.999393 
5.450188e+2, 2.3477964e+2, -684713.6, -726233.75, -11980.554, -0.029135538, -0.27831703, -681504.7, -42369.563, 0.0, 9.999957, 9.999403 
5.4502183e+2, 2.4477887e+2, -588134.06, -664648.06, 1216.5876, -0.014672995, -0.2789422, -588114.7, -46972.1, 0.0, 10.000101, 9.9990835 
5.4502547e+2, 2.5477833e+2, -429111.63, -535790.94, 1687.3472, 0.03757172, -0.24764246, -429084.94, 14063.177, 0.0, 10.000515, 9.999096 
5.450287e+2, 2.6477724e+2, -346879.5, -525129.06, 3001.0652, 0.045756325, -0.22677462, -346829.0, -1669.6364, 0.0, 10.000751, 9.998383 
5.450315e+2, 2.7477556e+2, -242234.98, -424206.1, -7097.1226, 0.008345796, -0.23681173, -241958.61, 5219.0215, 0.0, 10.000797, 9.998381 
5.4503435e+2, 2.8477383e+2, -137244.48, -366281.44, -5269.65, -0.02807875, -0.22766891, -137123.31, 12073.354, 0.0, 10.001031, 9.997993 
5.450372e+2, 2.9477233e+2, 21397.705, -236437.23, 9570.972, -0.06724167, -0.18301065, 21752.496, 72966.305, 0.0, 10.001437, 9.998016 
5.450406e+2, 3.0477113e+2, 62464.62, -190613.44, 32059.896, -0.10530758, -0.106035195, 66462.8, 66462.8, 0.0, 10.00138, 9.998025 
5.4504514e+2, 3.1476834e+2, 124870.766, 59902.086, -39447.19, -0.040696174, -0.19087705, 143487.44, 143487.44, 0.000000000015387011, 10.000857, 9.999997 
5.5498827e+2, 1.24775276e+2, -1789559.5, -1703283.9, -218297.63, 0.06896198, -0.22225602, -1523902.6, 193279.58, 0.0000003291145, 9.999317, 10.00039 
5.549916e+2, 1.347754e+2, -1683388.0, -1595704.1, 128148.06, -0.18185209, -0.26589122, -1504105.9, 115074.97, 0.000000025104656, 9.999281, 10.00051 
5.550003e+2, 1.4477684e+2, -1576490.5, -1486977.6, -5052.952, 0.16809142, -0.17166127, -1486693.3, 34473.35, 0.0, 9.999344, 10.000534 
5.550007e+2, 1.5477712e+2, -1447008.9, -1371294.4, -43286.99, 0.0060457718, -0.20213549, -1351645.8, 71517.64, 0.0, 9.999552, 10.000553 
5.550018e+2, 1.647775e+2, -1368417.8, -1293602.8, -53808.0, -0.0631231, -0.21474293, -1265476.9, 59682.44, 0.0, 9.999465, 10.000457 
5.5500376e+2, 1.7477795e+2, -1333400.1, -1223356.4, -50713.344, -0.033720057, -0.2208979, -1203550.1, 23604.332, 0.0, 9.999023, 10.000478 
5.5500585e+2, 1.8477818e+2, -1289965.5, -1226061.8, -43033.273, -0.012913315, -0.21166341, -1204415.3, -75262.34, 0.0, 9.998967, 9.999814 
5.5500805e+2, 1.947782e+2, -1136132.0, -1100797.3, -52641.5, 0.0004887166, -0.194371, -1062937.5, -31782.895, 0.0, 9.99935, 9.999817 
5.550107e+2, 2.0477805e+2, -980083.75, -960136.8, -21408.428, 0.013367647, -0.19739743, -946492.7, -13336.561, 0.0, 9.999685, 9.999948 
5.550138e+2, 2.147777e+2, -839851.0, -839717.5, -13691.432, 0.025305351, -0.23306116, -826092.6, 9064.86, 0.0, 9.999966, 9.999967 
5.550167e+2, 2.2477731e+2, -759061.5, -798846.7, -20979.42, 0.03301366, -0.2447748, -750043.0, -12883.0, 0.0, 10.000058, 9.999529 
5.5501944e+2, 2.3477691e+2, -675796.06, -706987.4, -15607.342, 0.036540803, -0.24127217, -669327.9, -30164.254, 0.0, 9.999953, 9.999537 
5.5502236e+2, 2.4477625e+2, -588393.56, -664066.0, 15662.623, 0.021832103, -0.2395033, -585279.9, -44109.953, 0.0, 10.000096, 9.99909 
5.5502546e+2, 2.547753e+2, -429363.7, -535004.75, 17755.0, -0.013429096, -0.24881269, -426459.47, 16719.354, 0.0, 10.000509, 9.999104 
5.550287e+2, 2.6477417e+2, -364989.53, -562005.44, 4200.6, -0.026693113, -0.22061022, -364900.0, -19709.182, 0.0, 10.000747, 9.998132 
5.55032e+2, 2.7477288e+2, -261660.44, -463585.5, -4305.4873, -0.016527403, -0.16726843, -261568.67, -14361.887, 0.0, 10.000792, 9.998114 
5.5503553e+2, 2.8477117e+2, -119545.24, -326829.1, 9471.061, -0.01695725, -0.15314391, -119113.4, 30111.945, 0.0, 10.00102, 9.99827 
5.5503905e+2, 2.9476935e+2, 39848.02, -195053.89, 25084.346, -0.031439196, -0.17207773, 42496.816, 93741.12, 0.0, 10.001424, 9.998306 
5.550422e+2, 3.0476758e+2, 33989.457, -246206.3, 11640.638, -0.07835578, -0.14475659, 34472.23, 34472.23, 0.0, 10.001365, 9.99765 
5.5504525e+2, 3.14766e+2, 100778.73, 11938.118, -57201.867, -0.1206778, -0.0737816, 128782.3, 128782.3, 0.0000000020600701, 10.000848, 9.999672 
5.649876e+2, 1.2477241e+2, -1745339.4, -1657855.4, -150811.13, 0.06196675, -0.20424443, -1544570.8, 172641.77, 0.00000027083397, 9.999517, 10.000604 
5.649906e+2, 1.3477276e+2, -1692445.4, -1581211.6, 156968.16, -0.19808939, -0.2435632, -1470298.5, 148909.86, 0.000000017878008, 9.999134, 10.000681 
5.649995e+2, 1.447742e+2, -1646618.6, -1520209.3, 20265.867, 0.17794988, -0.15747243, -1517039.6, 4154.0864, 0.0, 9.99886, 10.000539 
5.6499994e+2, 1.5477456e+2, -1565538.1, -1427905.5, -17806.982, 0.015522378, -0.18132558, -1425639.0, -2449.1257, 0.0, 9.998738, 10.000556 
5.65001e+2, 1.6477486e+2, -1463291.1, -1351691.0, -32950.594, -0.054655336, -0.19374219, -1342688.4, -17501.688, 0.0, 9.998871, 10.000342 
5.6500304e+2, 1.7477515e+2, -1302087.1, -1221731.8, -42234.0, -0.020864394, -0.20597436, -1203617.4, 23566.764, 0.0, 9.999297, 10.000356 
5.650052e+2, 1.8477528e+2, -1198974.8, -1182347.9, -18369.793, -0.008954681, -0.19950879, -1170497.9, -41314.527, 0.0, 9.999592, 9.999813 
5.650074e+2, 1.9477533e+2, -1078317.0, -1072899.8, -8156.1196, -0.023137728, -0.18090214, -1067014.3, -35830.12, 0.0, 9.999745, 9.999817 
5.650101e+2, 2.0477512e+2, -983743.56, -970548.56, 16834.967, -0.015030974, -0.183766, -959064.5, -25878.557, 0.0, 9.999697, 9.999871 
5.650134e+2, 2.1477468e+2, -922669.06, -887993.3, 4530.7515, 0.01853111, -0.22056, -887411.1, -52222.125, 0.0, 9.9994335, 9.999891 
5.650167e+2, 2.2477438e+2, -824767.25, -831312.1, -5474.631, 0.042736486, -0.22192903, -821661.56, -84470.33, 0.0, 9.999612, 9.999521 
5.650197e+2, 2.347742e+2, -629447.94, -685130.2, -11392.019, 0.056636453, -0.19493511, -627207.44, 11985.103, 0.0, 10.000275, 9.999533 
5.650228e+2, 2.4477342e+2, -531563.4, -661475.94, 4024.589, 0.03396527, -0.19276696, -531438.8, 9761.1875, 0.0, 10.000594, 9.998867 
5.650258e+2, 2.5477198e+2, -439554.5, -566110.56, -13030.7295, -0.028628012, -0.22696635, -438226.72, 4987.3433, 0.0, 10.000551, 9.99887 
5.650292e+2, 2.6477072e+2, -365734.16, -547318.06, -21552.451, -0.052247558, -0.20924173, -363211.13, -17983.697, 0.0, 10.000678, 9.998264 
5.650327e+2, 2.747696e+2, -224820.0, -428758.34, -1469.5319, -0.034767542, -0.15122226, -224809.4, 22431.152, 0.0, 10.000975, 9.998262 
5.650364e+2, 2.8476802e+2, -130167.21, -329056.7, 14804.107, -0.023128653, -0.13598089, -129071.32, 20186.182, 0.0, 10.000936, 9.998295 
5.650402e+2, 2.947662e+2, -87275.266, -255721.61, 8260.963, -0.016418057, -0.15700795, -86871.1, -35594.863, 0.0, 10.000547, 9.998312 
5.6504345e+2, 3.0476394e+2, -60682.07, -270733.6, 7042.141, -0.053977598, -0.18300545, -60446.242, -60446.242, 0.0, 10.000622, 9.997841 
5.6504595e+2, 3.1476304e+2, 153529.73, 41713.656, -20572.316, -0.15012708, -0.06521713, 157194.6, 157194.6, 0.000000017271022, 10.001189, 9.999714 
5.7498735e+2, 1.24770865e+2, -1756990.6, -1687462.9, -162173.1, 0.07988601, -0.14637683, -1556369.5, 160859.34, 0.00000019303324, 9.999538, 10.000392 
5.7498956e+2, 1.3477084e+2, -1707226.9, -1614023.6, 142344.73, -0.21726263, -0.19922613, -1510846.3, 108382.59, 0.000000007774616, 9.999143, 10.000453 
5.7499814e+2, 1.447718e+2, -1645313.8, -1518283.6, 13644.4795, 0.1554803, -0.14885361, -1516834.6, 4384.193, 0.0, 9.998863, 10.00055 
5.749983e+2, 1.5477192e+2, -1563253.8, -1423725.0, -21932.945, -0.023504026, -0.200474, -1420358.5, 2858.1714, 0.0, 9.99874, 10.000584 
5.749997e+2, 1.6477217e+2, -1480520.4, -1388349.8, -18145.47, -0.07848207, -0.20974742, -1384906.1, -59691.566, 0.0, 9.998873, 10.000091 
5.7500273e+2, 1.7477259e+2, -1320001.5, -1259646.5, -25428.537, 0.013164973, -0.18083091, -1250361.5, -23149.309, 0.0, 9.999299, 10.000096 
5.750051e+2, 1.8477277e+2, -1180813.6, -1144305.6, -13147.127, 0.024542324, -0.16698071, -1140064.0, -10853.664, 0.0, 9.999591, 10.000074 
5.7500684e+2, 1.947728e+2, -1059621.6, -1032930.2, -2051.158, -0.05461156, -0.17866822, -1032773.44, -1564.4775, 0.0, 9.999741, 10.000093 
5.750092e+2, 2.0477258e+2, -1006379.0, -1016161.94, 6390.311, -0.07044484, -0.18278067, -1003222.94, -70012.16, 0.0, 9.99969, 9.99956 
5.750125e+2, 2.147721e+2, -945969.5, -934970.5, -4847.295, -0.015862172, -0.18977992, -933139.2, -97923.15, 0.0, 9.999428, 9.999571 
5.7501596e+2, 2.2477174e+2, -835473.9, -852501.2, 18020.957, 0.01765376, -0.17314595, -824056.75, -86836.9, 0.0, 9.999607, 9.999378 
5.750197e+2, 2.347715e+2, -639916.56, -705430.7, 14269.594, 0.02801094, -0.14037566, -636943.44, 2278.4717, 0.0, 10.000269, 9.999396 
5.7502323e+2, 2.4477041e+2, -564016.7, -728006.5, 2274.307, 0.0179715, -0.13973878, -563985.1, -22752.107, 0.0, 10.000589, 9.998413 
5.750266e+2, 2.5476843e+2, -473506.22, -634922.0, -13830.9375, -0.01372556, -0.1820686, -472329.7, -29075.9, 0.0, 10.000544, 9.998402 
5.7503e+2, 2.6476687e+2, -331699.88, -475004.28, -10961.705, -0.035468798, -0.19205758, -330866.25, 14402.82, 0.0, 10.00067, 9.998765 
5.7503355e+2, 2.747658e+2, -187806.64, -350264.3, 10135.288, -0.049934022, -0.18648854, -187176.77, 60102.12, 0.0, 10.000967, 9.998805 
5.750371e+2, 2.8476435e+2, -145844.0, -360250.75, -337.90512, -0.050102707, -0.17377241, -145843.47, 3449.6514, 0.0, 10.000928, 9.998084 
5.750406e+2, 2.947628e+2, -105690.78, -292732.25, -4993.0444, -0.03060676, -0.14119229, -105557.586, -54247.656, 0.0, 10.000542, 9.998061 
5.750443e+2, 3.0476022e+2, -12313.235, -167956.03, 27009.674, -0.03849947, -0.22431259, -7759.3193, -7759.3193, 0.00000000021282408, 10.000612, 9.998551 
5.750473e+2, 3.147594e+2, 179287.08, 100567.02, 5887.3193, -0.13590074, -0.17218603, 179724.95, 179724.95, 0.0000000699572, 10.001167, 10.000129 
5.849868e+2, 1.2476889e+2, -1822839.3, -1729308.4, -157698.89, 0.094267525, -0.1378234, -1611586.9, 105661.98, 0.00000011738098, 9.999135, 10.000298 
5.8498853e+2, 1.3476898e+2, -1744141.6, -1644592.4, 144721.9, -0.2254033, -0.16706304, -1541324.8, 77923.664, 0.0000000014227642, 9.998948, 10.000335 
5.84997e+2, 1.4476976e+2, -1648335.1, -1524769.4, 31014.533, 0.15539253, -0.12728465, -1517421.8, 3818.785, 0.0, 9.998866, 10.000504 
5.849971e+2, 1.5476969e+2, -1530834.3, -1413467.5, -11875.292, -0.02826431, -0.19271468, -1412278.0, 10962.122, 0.0, 9.998986, 10.000536 
5.8499855e+2, 1.6476986e+2, -1448248.0, -1389149.4, 6549.49, -0.09223363, -0.20007363, -1388432.3, -63193.336, 0.0, 9.999165, 9.999944 
5.850019e+2, 1.747703e+2, -1313053.5, -1273066.4, 6769.341, -0.007904621, -0.15294497, -1271951.5, -44714.992, 0.0, 9.999419, 9.999946 
5.8500457e+2, 1.8477044e+2, -1192355.6, -1152465.9, 2934.5317, 0.01590044, -0.13768029, -1152251.1, -23015.664, 0.0, 9.999524, 10.000051 
5.8500665e+2, 1.9477025e+2, -1102619.3, -1055630.4, -9743.47, -0.032292202, -0.1668018, -1053690.1, -22454.691, 0.0, 9.999455, 10.000074 
5.8500916e+2, 2.0476994e+2, -1014274.3, -1037702.1, -689.2238, -0.049580026, -0.17042129, -1014254.06, -81015.94, 0.0, 9.999714, 9.9994 
5.8501226e+2, 2.1476951e+2, -824954.94, -894923.25, -1274.0299, -0.03135677, -0.15711683, -824931.75, 10311.768, 0.0, 10.000338, 9.999407 
5.850157e+2, 2.2476898e+2, -723149.2, -822930.25, 24611.71, -0.017677313, -0.13818708, -717408.75, 19840.654, 0.0, 10.0004835, 9.999159 
5.850195e+2, 2.3476835e+2, -678398.06, -748987.94, 13208.938, -0.009664012, -0.1234027, -676007.3, -36751.582, 0.0, 10.000112, 9.999173 
5.850234e+2, 2.4476716e+2, -632003.4, -750480.3, 18969.123, -0.00029289827, -0.12441128, -629040.4, -87772.81, 0.0, 10.000078, 9.998506 
5.850272e+2, 2.5476545e+2, -486327.75, -629041.75, 44061.137, 0.01019099, -0.15090914, -473820.53, -30535.367, 0.0, 10.000404, 9.998508 
5.85031e+2, 2.6476392e+2, -348087.28, -481554.94, 52549.79, -0.002859525, -0.16449931, -329880.63, 15419.245, 0.0, 10.000554, 9.9987755 
5.850344e+2, 2.747626e+2, -250752.33, -380530.25, 33281.473, -0.043637685, -0.18118006, -242715.06, 4596.761, 0.0, 10.000533, 9.998807 
5.8503777e+2, 2.8476122e+2, -168766.06, -358242.56, 9203.141, -0.06510936, -0.16726618, -168320.1, -18994.91, 0.0, 10.000714, 9.998202 
5.850411e+2, 2.9476005e+2, -20748.299, -238595.58, 27764.45, -0.06169573, -0.11182656, -17265.428, 34072.773, 0.0, 10.001068, 9.998179 
5.850449e+2, 3.0475742e+2, 37488.754, -120249.03, 54827.6, -0.043977078, -0.21620543, 54673.848, 54673.848, 0.000000006848287, 10.0008545, 9.998761 
5.8504814e+2, 3.147565e+2, 10808.002, 1283.8682, -2534.1099, -0.10947063, -0.19357285, 11440.283, 11440.283, 0.00000018333391, 10.000088, 9.999965 
5.94986e+2, 1.2476655e+2, -1818418.5, -1725314.4, -156915.98, 0.09593767, -0.17470679, -1608190.9, 109080.94, 0.000000058921596, 9.999154, 10.000317 
5.949875e+2, 1.3476719e+2, -1743313.5, -1644085.1, 136930.75, -0.22744861, -0.14886563, -1548057.3, 71209.414, 0.000000000010343272, 9.998952, 10.000337 
5.949961e+2, 1.4476806e+2, -1656788.5, -1542679.4, 33885.42, 0.17248152, -0.094235465, -1533375.5, -12116.864, 0.0, 9.998867, 10.000381 
5.949964e+2, 1.5476789e+2, -1539384.9, -1431998.5, -6275.7896, -0.0024670633, -0.15747231, -1431633.0, -8373.114, 0.0, 9.998989, 10.000407 
5.9499764e+2, 1.6476797e+2, -1451802.9, -1396787.6, 15210.089, -0.10140096, -0.16431026, -1392862.5, -67603.0, 0.0, 9.999165, 9.999891 
5.950005e+2, 1.7476831e+2, -1315530.9, -1279146.4, 16919.586, -0.08869408, -0.12259195, -1272494.5, -45237.06, 0.0, 9.999422, 9.999903 
5.9500355e+2, 1.8476823e+2, -1213885.3, -1197204.3, -11.740636, -0.039972395, -0.11181209, -1197204.3, -67945.53, 0.0, 9.999524, 9.999743 
5.950068e+2, 1.947677e+2, -1124565.9, -1101253.8, -11962.671, 0.039748278, -0.14414535, -1096207.5, -64944.066, 0.0, 9.999455, 9.999762 
5.950098e+2, 2.0476724e+2, -1016218.6, -1040048.4, 21396.117, 0.04350974, -0.14627281, -1003643.56, -70375.77, 0.0, 9.999707, 9.999388 
5.9501255e+2, 2.147669e+2, -826800.4, -896362.56, 22968.096, -0.032118224, -0.124006465, -819901.06, 15370.478, 0.0, 10.000328, 9.999402 
5.950157e+2, 2.2476608e+2, -745224.75, -867200.1, 10400.336, -0.06754884, -0.118019514, -744344.3, -7064.305, 0.0, 10.000476, 9.998859 
5.9501916e+2, 2.3476474e+2, -700692.25, -794309.56, -179.89873, -0.060532983, -0.14241539, -700691.9, -61398.07, 0.0, 10.000107, 9.998864 
5.950232e+2, 2.447637e+2, -588336.2, -658544.4, 30188.43, -0.025406562, -0.14504023, -577140.9, -35837.355, 0.0, 10.0000725, 9.99914 
5.95028e+2, 2.5476304e+2, -439984.6, -531743.1, 56751.53, 0.03971366, -0.1328063, -412886.84, 30421.379, 0.0, 10.000401, 9.999179 
5.950319e+2, 2.6476184e+2, -381640.97, -550855.06, 51064.74, 0.04245917, -0.12608208, -367425.13, -22105.174, 0.0, 10.00055, 9.9983015 
5.950351e+2, 2.7476004e+2, -288001.63, -456294.38, 33781.87, -0.023586262, -0.1383562, -281473.72, -34134.082, 0.0, 10.000525, 9.998291 
5.950384e+2, 2.8475866e+2, -141629.05, -298583.16, 21682.832, -0.07566229, -0.1191004, -138688.7, 10665.232, 0.0, 10.0007, 9.998618 
5.9504163e+2, 2.947579e+2, 9292.712, -172579.4, 40595.406, -0.11202877, -0.06519723, 17942.564, 69303.42, 0.0, 10.001054, 9.99864 
5.950455e+2, 3.0475557e+2, 17123.59, -160053.7, 25407.69, -0.071570605, -0.15539694, 20695.125, 20695.125, 0.000000033052434, 10.000843, 9.998494 
5.9504855e+2, 3.147544e+2, -36341.895, -95679.805, -22297.799, -0.08294104, -0.12696438, -28896.988, -28896.988, 0.00000037488923, 10.000084, 9.999302 
6.0498464e+2, 1.2476424e+2, -1952992.5, -1771925.9, -171686.42, 0.09221559, -0.1630865, -1668365.1, 48929.91, 0.000000021349177, 9.998156, 10.000478 
6.0498613e+2, 1.347648e+2, -1779040.4, -1644388.3, 117689.414, -0.23932955, -0.16249342, -1576128.1, 43162.19, 0.0, 9.998637, 10.000485 
6.049951e+2, 1.4476562e+2, -1663611.1, -1565414.4, 20858.477, 0.1789833, -0.11162814, -1561167.4, -39884.17, 0.0, 9.998907, 10.000204 
6.049956e+2, 1.5476584e+2, -1534565.6, -1449571.3, -24167.3, 0.017302666, -0.11492585, -1443180.1, -19898.3, 0.0, 9.999111, 10.000227 
6.0499704e+2, 1.6476594e+2, -1440147.9, -1386729.5, -1364.7069, -0.0851691, -0.11103008, -1386694.8, -61413.316, 0.0, 9.999226, 9.999931 
6.049998e+2, 1.7476593e+2, -1343884.0, -1287406.1, 5627.0737, -0.09126233, -0.11133401, -1286850.9, -59568.867, 0.0, 9.999206, 9.999949 
6.0500294e+2, 1.847657e+2, -1238640.9, -1226141.4, 2787.1335, -0.05203219, -0.10986629, -1225548.1, -96263.5, 0.0, 9.999428, 9.999591 
6.0500634e+2, 1.9476527e+2, -1065672.5, -1090726.9, 1090.594, 0.025874974, -0.11581632, -1065625.1, -34336.03, 0.0, 9.999937, 9.999602 
6.050096e+2, 2.0476478e+2, -964060.7, -1027112.8, 37677.06, 0.037066665, -0.10816177, -946459.9, -13165.689, 0.0, 10.000117, 9.99928 
6.0501283e+2, 2.1476425e+2, -894410.56, -941707.7, 30328.674, -0.020617565, -0.094576195, -879600.3, -44300.465, 0.0, 9.999917, 9.9992895 
6.0501605e+2, 2.2476327e+2, -813091.0, -901219.44, 19240.787, -0.054708026, -0.097221315, -809073.4, -71763.805, 0.0, 10.000016, 9.998847 
6.0501933e+2, 2.3476183e+2, -652095.0, -771849.06, 29011.701, -0.06557589, -0.13055837, -645436.75, -6112.796, 0.0, 10.000445, 9.998855 
6.050234e+2, 2.4476078e+2, -508570.4, -618620.2, 52275.887, -0.040852465, -0.1338613, -487697.28, 53636.184, 0.0, 10.000615, 9.999152 
6.050282e+2, 2.5476024e+2, -424746.8, -523987.63, 28476.396, 0.022996882, -0.11136894, -417156.28, 26180.844, 0.0, 10.000502, 9.999184 
6.050323e+2, 2.647591e+2, -398488.88, -567289.9, 9163.391, 0.031265944, -0.09631514, -397992.88, -52644.34, 0.0, 10.000468, 9.99823 
6.0503566e+2, 2.7475727e+2, -297372.75, -468813.3, 22212.137, -0.022733398, -0.104028836, -294541.66, -47172.836, 0.0, 10.000494, 9.99822 
6.05039e+2, 2.8475586e+2, -169023.33, -307783.78, 22367.871, -0.06999355, -0.08750452, -165506.8, -16122.928, 0.0, 10.000495, 9.998653 
6.050424e+2, 2.9475504e+2, -68556.69, -206940.61, 9363.29, -0.10875445, -0.042613015, -67926.02, -16534.506, 0.00000000003092486, 10.000504, 9.99867 
6.050464e+2, 3.0475312e+2, 14574.969, -151565.69, -18512.84, -0.062473435, -0.09296536, 16612.834, 16612.834, 0.00000008707832, 10.000783, 9.998582 
6.0504925e+2, 3.1475204e+2, 131776.14, -36117.25, -35540.117, -0.08372936, -0.06565747, 138989.47, 138989.47, 0.0000006525611, 10.001331, 9.99911 
6.1498266e+2, 1.2476205e+2, -1932266.6, -1730433.5, -145553.89, 0.080354944, -0.09955889, -1654234.0, 63084.027, 0.0000000039655865, 9.99816, 10.000761 
6.149845e+2, 1.3476181e+2, -1759085.4, -1603164.0, 134861.13, -0.26566863, -0.20559266, -1525351.3, 93967.61, 0.0, 9.998638, 10.000768 
6.149938e+2, 1.4476243e+2, -1679953.5, -1600720.6, 26195.896, 0.16762021, -0.17790507, -1592843.0, -71529.234, 0.0, 9.998911, 9.999961 
6.149948e+2, 1.5476356e+2, -1551247.5, -1485829.9, -15547.528, 0.026507314, -0.06590213, -1482322.9, -59016.906, 0.0, 9.999116, 9.999976 
6.1499655e+2, 1.6476382e+2, -1430140.4, -1366568.8, -2560.7366, -0.049251568, -0.040202875, -1366465.8, -41161.04, 0.0, 9.999228, 10.000069 
6.149997e+2, 1.7476316e+2, -1333279.8, -1266223.4, 5160.5967, -0.01919389, -0.1193664, -1265828.5, -38518.098, 0.0, 9.999208, 10.000094 
6.1500263e+2, 1.8476285e+2, -1239714.9, -1227939.8, 20388.889, -0.02480608, -0.13260908, -1212605.4, -83292.18, 0.0, 9.999426, 9.99958 
6.1500525e+2, 1.9476297e+2, -1066585.5, -1092511.3, 21039.557, -0.0776304, -0.08312366, -1054836.0, -23523.479, 0.0, 9.999936, 9.99959 
6.1500865e+2, 2.0476256e+2, -979470.0, -1057297.5, 29882.012, -0.07294082, -0.057150085, -969320.4, -36003.016, 0.0, 10.00011, 9.999076 
6.1501294e+2, 2.1476158e+2, -909442.3, -971640.5, 23167.95, -0.0014178976, -0.06733892, -901761.2, -66433.04, 0.0, 9.999912, 9.999086 
6.1501676e+2, 2.2476059e+2, -795977.0, -863768.6, 33973.844, 0.015728245, -0.07407813, -781881.7, -44543.863, 0.0, 10.000008, 9.999108 
6.150202e+2, 2.3475961e+2, -632910.25, -730930.2, 45762.2, -0.02834045, -0.08891488, -614866.8, 24479.404, 0.0, 10.000442, 9.999138 
6.150239e+2, 2.4475843e+2, -552123.1, -708182.0, 47557.54, -0.049557682, -0.09158668, -538772.5, 2585.1174, 0.0, 10.00061, 9.99854 
6.150281e+2, 2.5475705e+2, -470665.5, -618130.2, 25182.61, -0.04464111, -0.08736465, -466483.63, -23111.785, 0.0, 10.000496, 9.998541 
6.150321e+2, 2.6475567e+2, -377085.78, -521569.78, 9808.601, -0.041820895, -0.07586802, -376422.97, -31037.432, 0.0, 10.000463, 9.998548 
6.1503595e+2, 2.7475432e+2, -272968.03, -416869.16, 23599.492, -0.043749027, -0.07542199, -269196.6, -21797.467, 0.0, 10.000489, 9.99858 
6.150397e+2, 2.8475282e+2, -192665.78, -356243.75, 21933.4, -0.050770916, -0.06903565, -189775.89, -40361.24, 0.0, 10.000491, 9.998323 
6.1504346e+2, 2.947514e+2, -95078.625, -260797.89, 11420.531, -0.060626257, -0.046012927, -94295.28, -42865.094, 0.0000000010306047, 10.000498, 9.998302 
6.150476e+2, 3.047501e+2, 40296.883, -94496.484, 1070.1875, -0.025786025, -0.034177665, 40305.38, 40305.38, 0.00000016756015, 10.000769, 9.99898 
6.1505026e+2, 3.147496e+2, 145247.48, -262.6396, -6346.2544, -0.12052731, 0.007231835, 145523.75, 145523.75, 0.000001002472, 10.0013, 9.999371 
6.249808e+2, 1.24759085e+2, -1860522.4, -1689308.1, -125830.68, 0.056121755, -0.11316083, -1622724.9, 94622.7, 0.00000000008306351, 9.99862, 10.000821 
6.24983e+2, 1.3475925e+2, -1783779.3, -1606330.5, 122523.586, -0.26906773, -0.18787038, -1543780.3, 75564.19, 0.0, 9.998431, 10.000845 
6.249926e+2, 1.4475974e+2, -1738151.8, -1616324.0, 27471.43, 0.17534536, -0.17936802, -1610415.9, -89076.12, 0.0, 9.998457, 10.0000725 
6.249938e+2, 1.5476064e+2, -1580335.0, -1486742.1, 13447.431, 0.021633193, -0.10263801, -1484848.3, -61514.914, 0.0, 9.998859, 10.000093 
6.2499577e+2, 1.6476092e+2, -1444778.0, -1388972.3, 25510.143, -0.047711994, -0.07775954, -1379068.5, -53736.36, 0.0, 9.999195, 9.999931 
6.249994e+2, 1.7476045e+2, -1304058.1, -1268080.6, 9449.364, 0.013765502, -0.12043543, -1265749.8, -38413.184, 0.0, 9.999479, 9.99995 
6.250025e+2, 1.847602e+2, -1206449.4, -1216542.5, 19601.553, 0.010948465, -0.1206654, -1191255.1, -61915.816, 0.0, 9.999672, 9.99954 
6.250051e+2, 1.9476013e+2, -1097408.8, -1112062.4, 17042.205, -0.074264765, -0.08461502, -1086185.1, -54844.992, 0.0, 9.999743, 9.99955 
6.250085e+2, 2.0475957e+2, -1009578.56, -1079970.3, 22955.646, -0.08557846, -0.06818698, -1002754.06, -69407.6, 0.0, 9.999937, 9.999004 
6.2501293e+2, 2.1475846e+2, -861746.4, -956667.94, 24544.877, -0.012842289, -0.084206715, -855775.2, -20416.566, 0.0, 10.000275, 9.999015 
6.2501705e+2, 2.2475754e+2, -734074.1, -832499.75, 36830.496, 0.015497236, -0.08138358, -721818.3, 15549.362, 0.0, 10.000427, 9.99912 
6.250208e+2, 2.3475684e+2, -642850.3, -734953.7, 27335.244, -0.0067297514, -0.06866675, -635348.5, 4024.7573, 0.0, 10.000368, 9.9991455 
6.250247e+2, 2.4475558e+2, -589268.8, -751913.44, 29843.654, -0.033620063, -0.06664688, -583965.7, -42579.973, 0.0, 10.000465, 9.998309 
6.2502843e+2, 2.5475374e+2, -453109.28, -635917.75, 35520.84, -0.0655507, -0.08536265, -446449.94, -3044.492, 0.0, 10.0007305, 9.998305 
6.250325e+2, 2.6475227e+2, -311381.03, -475303.28, 27796.232, -0.069554776, -0.08210315, -306795.88, 38624.53, 0.0, 10.000852, 9.998676 
6.2503654e+2, 2.747511e+2, -213428.73, -372804.4, 24595.434, -0.044841237, -0.07246574, -209719.4, 37711.13, 0.0, 10.000832, 9.998717 
6.250405e+2, 2.847495e+2, -151793.23, -354984.78, 22309.65, -0.042147297, -0.07234096, -149372.56, 73.77328, 0.0, 10.000851, 9.998158 
6.250441e+2, 2.947477e+2, -49257.477, -258653.56, 22925.15, -0.060813583, -0.073308595, -46776.965, 4689.382, 0.000000004235602, 10.000897, 9.998125 
6.2504834e+2, 3.047467e+2, 47482.53, -95125.74, 12195.697, -0.029080762, -0.025614096, 48517.977, 48517.977, 0.000000262113, 10.000835, 9.998943 
6.250511e+2, 3.1474572e+2, 56109.59, -42158.46, -23206.992, -0.13000278, -0.025654439, 61314.473, 61314.473, 0.0000013873902, 10.000681, 9.999381 
6.3497907e+2, 1.2475536e+2, -1869211.8, -1710517.3, -122850.54, 0.012926337, -0.20522225, -1643617.3, 73766.14, 0.0, 9.998631, 10.000672 
6.349816e+2, 1.3475709e+2, -1792518.1, -1625217.5, 113758.984, -0.25400263, -0.11040435, -1567664.1, 51702.902, 0.0, 9.998433, 10.000714 
6.349913e+2, 1.447576e+2, -1704979.3, -1548192.9, 39124.234, 0.19663878, -0.11602023, -1538972.1, -17610.785, 0.0, 9.998461, 10.000539 
6.349924e+2, 1.5475713e+2, -1546202.1, -1416532.3, 28871.479, -0.001652679, -0.22531922, -1410394.4, 12969.673, 0.0, 9.998861, 10.000575 
6.349946e+2, 1.6475719e+2, -1473826.5, -1449531.0, 35040.37, -0.08670324, -0.22415449, -1424592.4, -99228.625, 0.0, 9.999195, 9.999516 
6.349988e+2, 1.7475782e+2, -1334182.4, -1331836.0, 20772.65, 0.0032862271, -0.11482858, -1312203.4, -84843.05, 0.0, 9.999483, 9.999512 
6.350026e+2, 1.8475771e+2, -1212051.0, -1227651.3, 21587.55, 0.049561016, -0.074222006, -1196897.6, -67534.695, 0.0, 9.999671, 9.999464 
6.35006e+2, 1.9475678e+2, -1101910.1, -1121272.9, 19886.896, 0.031652495, -0.11893554, -1089473.3, -58101.516, 0.0, 9.9997425, 9.999487 
6.350093e+2, 2.0475583e+2, -1006576.6, -1072783.5, 34273.71, -0.006237445, -0.14013575, -992030.06, -58648.78, 0.0, 9.999932, 9.999056 
6.3501275e+2, 2.1475486e+2, -858039.4, -948545.44, 37922.41, -0.058854323, -0.14701264, -844250.5, -8859.119, 0.0, 10.000272, 9.999072 
6.350167e+2, 2.247541e+2, -752426.2, -868700.6, 34075.61, -0.059527095, -0.12146824, -743175.9, -5776.4595, 0.0, 10.00042, 9.998876 
6.3502115e+2, 2.3475352e+2, -661191.0, -771908.5, 25868.57, -0.004628115, -0.06978003, -655445.1, -16040.149, 0.0, 10.000363, 9.998895 
6.3502544e+2, 2.447523e+2, -580492.25, -732407.06, 38787.04, 0.0016735732, -0.058445815, -571162.1, -29744.59, 0.0, 10.00046, 9.998446 
6.3502944e+2, 2.5475034e+2, -442748.75, -613119.25, 45972.18, -0.044116836, -0.10311579, -431135.4, 12302.324, 0.0, 10.000725, 9.998465 
6.350334e+2, 2.6474878e+2, -315837.66, -483979.66, 26676.826, -0.055925783, -0.11278055, -311706.7, 33746.387, 0.0, 10.000848, 9.998619 
6.3503754e+2, 2.747476e+2, -219460.28, -383617.88, 24941.797, -0.031784564, -0.09674575, -215754.34, 31708.883, 0.0, 10.000823, 9.998648 
6.3504124e+2, 2.8474596e+2, -153693.34, -356490.2, 23699.14, -0.0503691, -0.10035098, -150960.64, -1481.5079, 0.0, 10.00084, 9.998154 
6.350445e+2, 2.9474398e+2, -51562.098, -259677.84, 25473.154, -0.111882515, -0.12085108, -48489.57, 3010.1936, 0.000000008608103, 10.000883, 9.998125 
6.350487e+2, 3.0474284e+2, 14448.532, -162084.16, 6244.6475, -0.074552126, -0.06156588, 14669.154, 14669.154, 0.00000035003856, 10.000827, 9.998488 
6.350519e+2, 3.1474063e+2, 38093.207, -77633.18, -19305.578, -0.12285106, -0.14159784, 41228.82, 41228.82, 0.0000017531552, 10.000672, 9.999143 
6.4497733e+2, 1.2475237e+2, -2031600.5, -1790550.6, -103851.945, 0.034521967, -0.20837286, -1751979.8, -34567.184, 0.0, 9.997523, 10.000658 
6.4498025e+2, 1.3475436e+2, -1779099.6, -1617854.5, 125931.55, -0.24121565, -0.087257855, -1548948.6, 70445.53, 0.0, 9.998525, 10.00072 
6.4499e+2, 1.4475477e+2, -1632906.9, -1522738.1, 32616.924, 0.1987017, -0.10095693, -1513805.6, 7584.061, 0.0, 9.998996, 10.000456 
6.449914e+2, 1.5475409e+2, -1520656.3, -1413354.9, -21360.217, -0.0016316108, -0.2220421, -1409259.0, 14135.003, 0.0, 9.999078, 10.000492 
6.4499384e+2, 1.64754e+2, -1448433.1, -1433651.3, -14103.814, -0.09429203, -0.23301601, -1425119.1, -99724.57, 0.0, 9.999353, 9.999549 
6.4499825e+2, 1.7475453e+2, -1283499.1, -1303573.8, 5658.8667, -0.015170956, -0.13670747, -1282013.9, -54622.754, 0.0, 9.999814, 9.999547 
6.4500237e+2, 1.847543e+2, -1168012.8, -1228994.9, 9910.67, 0.042300668, -0.09890108, -1166442.5, -37047.867, 0.0, 10.000071, 9.999262 
6.450062e+2, 1.9475326e+2, -1061483.0, -1124276.1, -4046.7288, 0.0570056, -0.13383152, -1061223.3, -29817.695, 0.0, 10.000119, 9.999283 
6.4500964e+2, 2.0475231e+2, -972135.5, -1056500.5, 8953.73, 0.024669606, -0.1459422, -971195.7, -37780.24, 0.0, 10.000172, 9.999051 
6.4501303e+2, 2.1475142e+2, -865703.6, -952797.44, 6591.0825, -0.052203078, -0.1452849, -865207.6, -29783.213, 0.0, 10.000221, 9.999067 
6.45017e+2, 2.2475049e+2, -774814.0, -893474.06, 1095.8483, -0.06232191, -0.12722805, -774803.9, -37370.223, 0.0, 10.000324, 9.998753 
6.450217e+2, 2.3474957e+2, -652609.0, -781488.06, 412.40225, -0.0019715691, -0.09972317, -652607.7, -13164.597, 0.0, 10.000482, 9.998771 
6.450261e+2, 2.4474834e+2, -560643.44, -706311.8, 21273.094, 0.011478099, -0.08986483, -557600.4, -16144.727, 0.0, 10.000525, 9.998593 
6.4503014e+2, 2.547468e+2, -473153.06, -610655.44, 27309.926, -0.026718708, -0.11045248, -467927.5, -24455.992, 0.0, 10.000442, 9.998618 
6.4503425e+2, 2.6474535e+2, -379197.72, -522848.63, 6324.5264, -0.038868997, -0.10944945, -378919.8, -33434.195, 0.0, 10.00045, 9.998544 
6.450383e+2, 2.747441e+2, -263044.72, -413550.22, 1595.5703, -0.022788856, -0.099108286, -263027.8, -15529.765, 0.0, 10.000563, 9.998567 
6.45042e+2, 2.847424e+2, -152863.03, -327598.28, 13704.376, -0.05378854, -0.11524174, -151794.73, -2280.747, 0.0, 10.000724, 9.998408 
6.450452e+2, 2.947404e+2, -26045.754, -218083.28, 33769.844, -0.13328795, -0.15625052, -20280.406, 31251.775, 0.000000011710588, 10.000932, 9.998386 
6.450496e+2, 3.0473936e+2, 31224.771, -186170.66, 27442.918, -0.08324238, -0.09091055, 34635.516, 34635.516, 0.00000040808163, 10.00108, 9.998201 
6.450532e+2, 3.147366e+2, 115667.94, -38896.58, 18723.342, -0.081469454, -0.19486019, 117903.67, 117903.67, 0.0000020409286, 10.001198, 9.999156 
6.549757e+2, 1.2475015e+2, -2021340.3, -1772155.0, -57276.516, 0.11666039, -0.12327174, -1759620.3, -42185.59, 0.0, 9.997535, 10.00078 
6.549788e+2, 1.347511e+2, -1770410.6, -1599219.3, 161334.33, -0.23535715, -0.11932001, -1502180.4, 117244.95, 0.0, 9.998523, 10.000849 
6.549888e+2, 1.4475122e+2, -1677826.3, -1615455.3, 32946.64, 0.17630982, -0.13613428, -1601275.5, -79850.68, 0.0, 9.998993, 9.999821 
6.549907e+2, 1.5475154e+2, -1566047.9, -1508935.6, -17543.55, 0.015675353, -0.0923378, -1503977.3, -80554.18, 0.0, 9.999083, 9.999834 
6.5499336e+2, 1.6475134e+2, -1414923.8, -1364693.6, 1633.0457, -0.07644553, -0.10317612, -1364640.5, -39216.313, 0.0, 9.999356, 10.000021 
6.5499777e+2, 1.747506e+2, -1248132.5, -1230632.0, 22967.709, -0.045149244, -0.18644714, -1214804.1, 12624.564, 0.0, 9.999815, 10.000048 
6.550019e+2, 1.8474999e+2, -1190762.8, -1275840.6, 10705.679, -0.01564327, -0.19551772, -1189436.3, -60001.754, 0.0, 10.000068, 9.998941 
6.550057e+2, 1.9474961e+2, -1085628.0, -1174396.3, -1929.2897, -0.0013996392, -0.13099492, -1085586.0, -54144.62, 0.0, 10.000118, 9.99894 
6.550096e+2, 2.0474899e+2, -978325.75, -1067781.4, 9995.649, 0.0032926712, -0.08741531, -977222.44, -43773.363, 0.0, 10.000165, 9.998977 
6.550138e+2, 2.1474811e+2, -871196.2, -963193.75, 9087.926, 0.0035725976, -0.07899027, -870307.0, -34849.395, 0.0, 10.0002165, 9.998998 
6.5501803e+2, 2.247468e+2, -775973.6, -894361.1, 5964.049, 0.0019944764, -0.09748839, -775673.94, -38203.684, 0.0, 10.000318, 9.99875 
6.5502214e+2, 2.3474498e+2, -652771.06, -781831.0, 6947.5693, -0.0019344493, -0.15827164, -652398.1, -12910.677, 0.0, 10.000481, 9.99877 
6.550264e+2, 2.4474369e+2, -550872.1, -685131.1, 17710.008, -0.008645538, -0.16172037, -548575.3, -7075.295, 0.0, 10.000522, 9.998741 
6.550307e+2, 2.5474304e+2, -463467.3, -588886.06, 24842.285, -0.017181793, -0.10867294, -458725.9, -15219.054, 0.0, 10.000434, 9.998771 
6.550349e+2, 2.64742e+2, -387024.1, -537785.56, 9948.36, -0.0215941, -0.074214004, -386370.47, -40852.375, 0.0, 10.000444, 9.998444 
6.550389e+2, 2.7474043e+2, -271840.88, -429242.28, 6876.624, -0.02263927, -0.07704969, -271541.0, -24006.354, 0.0, 10.000553, 9.998464 
6.5504265e+2, 2.8473875e+2, -118055.78, -253952.05, 21184.584, -0.05854226, -0.11293756, -114829.94, 34720.523, 0.0, 10.000716, 9.998917 
6.5504616e+2, 2.9473707e+2, 9004.495, -142904.64, 42217.62, -0.131049, -0.18081445, 19948.855, 71512.61, 0.000000011654482, 10.00092, 9.998908 
6.550509e+2, 3.0473617e+2, 21682.861, -203174.9, 31140.72, -0.05989362, -0.11678692, 25915.875, 25915.875, 0.00000041978168, 10.001068, 9.998089 
6.550551e+2, 3.1473362e+2, 128171.25, -6465.838, 31384.752, -0.014239843, -0.18722361, 135127.8, 135127.8, 0.000002202322, 10.001172, 9.999391 
6.649738e+2, 1.24746494e+2, -1855337.1, -1708059.0, -86196.47, 0.11251726, -0.10776425, -1668329.0, 49141.348, 0.0, 9.99874, 10.00064 
6.6497743e+2, 1.3474706e+2, -1794661.4, -1624408.0, 95520.16, -0.22035539, -0.12824821, -1581586.9, 37878.37, 0.0, 9.998418, 10.000725 
6.649877e+2, 1.4474708e+2, -1744715.6, -1643181.9, -12036.235, 0.1848203, -0.15009066, -1641774.6, -120308.7, 0.0, 9.998515, 9.99986 
6.649899e+2, 1.547479e+2, -1537451.6, -1490512.6, -9188.816, 0.024483988, -0.059933312, -1488777.9, -65318.406, 0.0, 9.999259, 9.999875 
6.64993e+2, 1.647478e+2, -1384578.6, -1350620.8, 10929.832, -0.0633954, -0.064058326, -1347407.0, -21947.297, 0.0, 9.999568, 10.000013 
6.649976e+2, 1.7474668e+2, -1309728.4, -1260649.4, -8436.839, -0.023156043, -0.18424106, -1259239.5, -31772.277, 0.0, 9.999397, 10.00004 
6.650018e+2, 1.8474592e+2, -1250104.9, -1302489.9, -17294.662, -0.004836243, -0.20873317, -1244910.3, -115436.055, 0.0, 9.999656, 9.998957 
6.650057e+2, 1.9474562e+2, -1044936.9, -1153634.5, -4912.146, -0.024795486, -0.13741922, -1044715.4, -13235.269, 0.0, 10.000394, 9.99895 
6.6500986e+2, 2.0474505e+2, -909443.8, -1036180.94, 5108.8193, -0.017342739, -0.08872058, -909238.2, 24248.824, 0.0, 10.000644, 9.998963 
6.650143e+2, 2.147442e+2, -851692.3, -954122.7, 6642.013, 0.025226673, -0.075188324, -851263.4, -15768.472, 0.0, 10.000355, 9.998992 
6.650186e+2, 2.2474283e+2, -775999.4, -903968.44, 17488.719, 0.033359993, -0.09578042, -773652.3, -36144.094, 0.0, 10.0003605, 9.998662 
6.650228e+2, 2.3474081e+2, -628882.9, -780334.44, 10875.423, 0.0020183758, -0.16782032, -628105.94, 11421.909, 0.0, 10.0006895, 9.998679 
6.650269e+2, 2.4473947e+2, -514521.5, -658012.6, 1525.1936, -0.018664675, -0.17590255, -514505.28, 27035.602, 0.0, 10.00073, 9.998827 
6.650311e+2, 2.547389e+2, -454279.56, -574179.5, 1960.207, -0.025909983, -0.12153482, -454247.53, -10701.217, 0.0, 10.000453, 9.998862 
6.650352e+2, 2.6473796e+2, -389809.6, -532125.44, 3576.1582, -0.028695967, -0.08341885, -389719.8, -44163.438, 0.0, 10.000396, 9.998506 
6.6503936e+2, 2.7473658e+2, -264728.6, -418551.56, 12013.408, -0.028350651, -0.07877409, -263796.03, -16224.054, 0.0, 10.000571, 9.998528 
6.6504335e+2, 2.84735e+2, -139719.6, -261243.39, 11624.293, -0.056967713, -0.107328445, -138617.66, 10969.338, 0.0, 10.000557, 9.998943 
6.6504693e+2, 2.9473338e+2, -71050.13, -178853.84, -7095.4688, -0.11476374, -0.17155781, -70585.13, -18984.977, 0.000000008469742, 10.0003605, 9.99893 
6.650519e+2, 3.0473244e+2, -43526.727, -229132.84, -15466.333, -0.04208926, -0.1123917, -42246.76, -42246.76, 0.00000038345433, 10.000598, 9.998136 
6.650565e+2, 3.1473047e+2, 170145.3, 52395.65, 1688.6047, 0.0070485156, -0.13281319, 170169.52, 170169.52, 0.0000022156387, 10.001293, 9.999736 
6.7497164e+2, 1.2474139e+2, -1882301.1, -1766724.1, -90533.73, 0.017273454, -0.16397887, -1717107.5, 412.17142, 0.0, 9.998748, 10.000236 
6.74976e+2, 1.3474227e+2, -1820391.9, -1679351.6, 81341.98, -0.20484203, -0.11322116, -1642216.8, -22703.61, 0.0, 9.9984255, 10.000343 
6.749865e+2, 1.4474238e+2, -1693346.1, -1538669.6, 11461.971, 0.21674708, -0.14234915, -1537824.9, -16312.322, 0.0, 9.998524, 10.000574 
6.7498916e+2, 1.5474321e+2, -1485166.6, -1382291.9, 19195.57, 0.02050266, -0.12658851, -1378826.9, 44676.258, 0.0, 9.999259, 10.000619 
6.7499256e+2, 1.6474338e+2, -1419618.8, -1421798.6, 4278.145, -0.059764978, -0.11789076, -1416293.9, -90793.1, 0.0, 9.999562, 9.999528 
6.749977e+2, 1.7474282e+2, -1345823.4, -1335602.1, -14300.89, 0.046073332, -0.12972763, -1325526.1, -98019.7, 0.0, 9.999397, 9.999526 
6.750023e+2, 1.8474212e+2, -1226894.8, -1254305.9, 8575.453, 0.069167376, -0.13797073, -1224433.0, -94919.805, 0.0, 9.999655, 9.999288 
6.7500615e+2, 1.9474132e+2, -1020629.06, -1102876.9, 22982.912, -0.017008448, -0.15265866, -1014642.56, 16878.797, 0.0, 10.000391, 9.999301 
6.750102e+2, 2.047405e+2, -906697.56, -1028625.7, -6059.3203, -0.041429088, -0.14928858, -906397.2, 27131.945, 0.0, 10.000636, 9.99902 
6.7501456e+2, 2.1473971e+2, -848930.9, -947533.3, -3969.7834, 0.009945309, -0.13489433, -848771.3, -13235.042, 0.0, 10.00035, 9.99904 
6.7501897e+2, 2.2473858e+2, -788985.8, -929410.44, 28349.848, 0.02777081, -0.12388276, -783478.4, -45930.586, 0.0, 10.000354, 9.99849 
6.750235e+2, 2.3473705e+2, -641991.2, -806572.9, 23970.361, 0.0071920697, -0.12916985, -638571.1, 993.0883, 0.0, 10.000684, 9.998502 
6.750276e+2, 2.4473569e+2, -513756.9, -654987.6, -8965.82, -0.021856287, -0.13361685, -513190.0, 28388.275, 0.0, 10.000723, 9.998851 
6.750312e+2, 2.5473446e+2, -453368.0, -571098.6, -7691.27, -0.057820026, -0.14777426, -452867.66, -9278.093, 0.0, 10.000448, 9.998886 
6.750353e+2, 2.6473337e+2, -374830.63, -500217.53, 9372.739, -0.065661944, -0.13503101, -374133.88, -28533.672, 0.0, 10.000392, 9.998726 
6.7503977e+2, 2.7473244e+2, -249987.4, -385591.28, 19275.37, -0.04370014, -0.10499441, -247300.75, 309.31137, 0.0, 10.000562, 9.998758 
6.7504394e+2, 2.8473112e+2, -172100.16, -327223.28, 3776.6624, -0.05116727, -0.1006995, -172008.25, -22384.467, 0.0, 10.000551, 9.998492 
6.7504764e+2, 2.947294e+2, -105769.78, -248738.42, -13080.859, -0.09046796, -0.12745178, -104582.81, -52941.72, 0.0000000040864183, 10.000351, 9.998454 
6.750525e+2, 3.0472827e+2, -30277.223, -200682.14, 9854.644, -0.03626462, -0.07478113, -29709.215, -29709.215, 0.0000003121116, 10.000594, 9.998333 
6.750575e+2, 3.1472704e+2, 198075.81, 114741.695, 35646.313, -0.02927787, -0.042073082, 211243.08, 211243.08, 0.0000020914758, 10.001275, 10.000173 
6.849702e+2, 1.2473646e+2, -1913018.1, -1774582.4, -92206.77, 0.013931275, -0.1818707, -1728504.1, -10935.066, 0.0, 9.998509, 10.000297 
6.8497455e+2, 1.3473766e+2, -1748481.5, -1637102.8, 99421.91, -0.2154791, -0.10754236, -1578835.9, 40722.945, 0.0, 9.998888, 10.00041 
6.84985e+2, 1.4473772e+2, -1624742.0, -1489939.4, 37263.836, 0.1911199, -0.15057811, -1480324.3, 41233.563, 0.0, 9.998928, 10.000713 
6.8498814e+2, 1.5473837e+2, -1547603.8, -1397043.3, -554.8531, 0.024229744, -0.1661361, -1397041.3, 26507.951, 0.0, 9.998766, 10.000754 
6.849921e+2, 1.647386e+2, -1490453.1, -1466030.9, -19147.111, -0.04521524, -0.1532404, -1455532.5, -129986.195, 0.0, 9.999122, 9.999435 
6.8499744e+2, 1.7473836e+2, -1257637.1, -1304406.9, -8732.815, 0.0527616, -0.12247269, -1256059.8, -28509.75, 0.0, 10.000052, 9.999424 
6.850023e+2, 1.8473776e+2, -1139177.0, -1204298.1, 8746.451, 0.07876277, -0.120892994, -1138022.8, -8466.589, 0.0, 10.000224, 9.999356 
6.850063e+2, 1.9473676e+2, -1136379.0, -1148965.4, 1595.5509, 0.003959966, -0.16124684, -1136179.9, -104614.96, 0.0, 9.999558, 9.999383 
6.850105e+2, 2.047358e+2, -1050845.3, -1098905.4, -27909.81, -0.026407676, -0.17762257, -1038046.0, -104472.34, 0.0, 9.999652, 9.999009 
6.850149e+2, 2.1473485e+2, -814992.94, -932910.1, -32172.514, -0.00030408395, -0.17697969, -806786.2, 28796.088, 0.0, 10.00059, 9.999025 
6.850194e+2, 2.2473383e+2, -717602.5, -886694.9, -8347.445, 0.010500017, -0.15823288, -717191.4, 20401.467, 0.0, 10.000808, 9.998565 
6.850239e+2, 2.3473272e+2, -702539.56, -826100.0, 4193.765, 0.0026839855, -0.13131072, -702397.4, -62791.75, 0.0, 10.000229, 9.998586 
6.85028e+2, 2.447315e+2, -598151.4, -691529.06, -9756.972, -0.020937687, -0.123912156, -597142.8, -55524.79, 0.0, 10.000127, 9.998886 
6.8503165e+2, 2.547302e+2, -436087.88, -558499.6, -8607.546, -0.061261453, -0.15026852, -435485.6, 8144.4126, 0.0, 10.000549, 9.998923 
6.8503577e+2, 2.6472896e+2, -334269.34, -487616.13, -1659.1584, -0.07036992, -0.15013641, -334251.38, 11390.455, 0.0, 10.000701, 9.998663 
6.8504035e+2, 2.7472788e+2, -253334.83, -394865.7, -15655.168, -0.044035785, -0.13322322, -251623.84, -3970.335, 0.0, 10.00057, 9.99869 
6.8504477e+2, 2.8472647e+2, -148058.56, -341507.22, -26023.166, -0.041543745, -0.118742, -144619.03, 5049.0557, 0.0, 10.000829, 9.9982605 
6.8504876e+2, 2.9472485e+2, 44160.082, -202238.97, -27041.656, -0.06614601, -0.11329155, 47092.92, 98778.4, 0.0000000009738006, 10.001493, 9.998223 
6.8505365e+2, 3.0472317e+2, 102270.97, -159619.72, -11167.2705, -0.03372501, -0.09335006, 102746.29, 102746.29, 0.00000022618863, 10.001603, 9.99813 
6.8505836e+2, 3.1472197e+2, 168558.11, 84572.12, -16168.343, -0.06385449, -0.03687248, 171563.19, 171563.19, 0.0000018666766, 10.0011425, 10.000028 
6.949696e+2, 1.2473172e+2, -1875209.3, -1701328.8, -70210.58, 0.09500127, -0.16469099, -1676518.6, 41099.605, 0.0, 9.998528, 10.0007925 
6.9497305e+2, 1.347332e+2, -1712975.6, -1562060.8, 111910.35, -0.2561367, -0.11259643, -1502545.0, 117056.72, 0.0, 9.998883, 10.000927 
6.94983e+2, 1.4473313e+2, -1656773.0, -1554206.4, 29080.723, 0.10368695, -0.1763963, -1546534.9, -24933.926, 0.0, 9.9989195, 10.000277 
6.94987e+2, 1.5473345e+2, -1579127.8, -1463684.3, -5027.079, 0.0293676, -0.17781058, -1463465.8, -39868.844, 0.0, 9.998773, 10.000295 
6.949914e+2, 1.6473351e+2, -1470733.9, -1426379.5, 13787.069, -0.02781469, -0.16960904, -1422443.3, -96847.58, 0.0, 9.999126, 9.999705 
6.949969e+2, 1.7473334e+2, -1237467.4, -1262533.1, 26389.953, -0.007465733, -0.16285725, -1220785.5, 6812.3115, 0.0, 10.0000515, 9.999712 
6.9500196e+2, 1.8473282e+2, -1152408.5, -1229985.0, -15935.611, 0.01936335, -0.15808126, -1149262.6, -19659.934, 0.0, 10.0002165, 9.999184 
6.9500625e+2, 1.9473198e+2, -1149746.5, -1175921.6, -22991.516, 0.03505038, -0.16456296, -1136378.6, -104768.04, 0.0, 9.999556, 9.9992 
6.9501066e+2, 2.0473093e+2, -1057281.1, -1111398.9, 4911.0327, 0.02366253, -0.17530869, -1056839.1, -123218.664, 0.0, 9.999648, 9.998926 
6.950154e+2, 2.1472965e+2, -821739.2, -945753.5, 3841.5, -0.010287798, -0.20171717, -821620.3, 14012.467, 0.0, 10.000585, 9.99894 
6.9501984e+2, 2.2472857e+2, -695789.56, -840038.25, -29769.139, -0.023406561, -0.19853546, -689887.5, 47755.85, 0.0, 10.000802, 9.998889 
6.95024e+2, 2.3472777e+2, -679666.06, -778419.06, -17193.555, -0.01500578, -0.17385477, -676758.2, -37106.17, 0.0, 10.000227, 9.998915 
6.950282e+2, 2.4472694e+2, -594466.44, -683071.94, 4519.6685, -0.020261306, -0.14733516, -594236.5, -52576.355, 0.0, 10.000123, 9.998946 
6.950324e+2, 2.5472614e+2, -433450.88, -551087.8, 7945.238, -0.039740693, -0.12980819, -432916.7, 10750.921, 0.0, 10.000541, 9.998978 
6.9503677e+2, 2.6472476e+2, -359257.1, -538053.1, -6750.6777, -0.045691486, -0.13024674, -359002.6, -13321.291, 0.0, 10.000694, 9.998321 
6.95041e+2, 2.747228e+2, -279968.06, -448655.3, -19566.69, -0.03515702, -0.16173917, -277728.2, -30026.188, 0.0, 10.000564, 9.998324 
6.9504565e+2, 2.847211e+2, -150402.73, -344948.9, -1822.5692, -0.03505475, -0.15926403, -150385.67, -666.1313, 0.0, 10.000822, 9.9982395 
6.950504e+2, 2.947197e+2, 42056.387, -203151.19, -1015.03766, -0.047433358, -0.12901543, 42060.586, 93793.94, 0.000000000021633938, 10.001479, 9.998223 
6.9505525e+2, 3.0471715e+2, 59437.277, -246912.94, -28543.773, -0.037700962, -0.1668531, 62074.11, 62074.11, 0.00000014519733, 10.0015955, 9.997535 
6.9505906e+2, 3.1471524e+2, 117135.22, -19286.873, -27961.406, -0.10766463, -0.122989774, 122643.82, 122643.82, 0.0000015881137, 10.001129, 9.999321 
7.0496833e+2, 1.2472774e+2, -1854855.5, -1698425.6, -10266.237, 0.10633703, -0.1235051, -1697754.8, 19903.072, 0.0, 9.998697, 10.00073 
7.049721e+2, 1.3472885e+2, -1728857.3, -1577059.4, 114634.77, -0.22833502, -0.10149928, -1515474.6, 104169.56, 0.0, 9.998811, 10.000856 
7.0498204e+2, 1.4472836e+2, -1667851.8, -1600168.0, 11674.544, 0.109718, -0.18424591, -1598210.9, -76563.54, 0.0, 9.99902, 9.99991 
7.0498616e+2, 1.5472846e+2, -1498039.3, -1466665.5, -16285.546, 0.030346284, -0.1722611, -1459740.5, -36094.098, 0.0, 9.999512, 9.999916 
7.049907e+2, 1.6472837e+2, -1396045.0, -1380691.3, 4122.052, -0.034894366, -0.16350411, -1379654.6, -54007.977, 0.0, 9.999597, 9.999793 
7.049963e+2, 1.7472816e+2, -1351337.6, -1305755.5, 1787.9519, -0.03081289, -0.170458, -1305685.5, -78037.28, 0.0, 9.999221, 9.999815 
7.050016e+2, 1.8472761e+2, -1255498.6, -1291948.3, -44999.11, -0.0042236657, -0.16751002, -1225173.9, -95520.64, 0.0, 9.999563, 9.999072 
7.050063e+2, 1.9472678e+2, -989998.7, -1113039.8, -49833.285, 0.029145813, -0.16326365, -972347.7, 59314.03, 0.0, 10.000711, 9.999075 
7.0501095e+2, 2.0472573e+2, -875474.3, -1027521.3, -23981.426, 0.023848036, -0.16601183, -871781.56, 61890.43, 0.0, 10.000911, 9.998894 
7.050156e+2, 2.1472444e+2, -899854.4, -985899.1, -22574.35, -0.017897207, -0.18836436, -894291.5, -58607.16, 0.0, 10.000061, 9.998916 
7.0502007e+2, 2.2472341e+2, -807526.44, -870768.9, -56092.77, -0.036120523, -0.1900335, -774755.9, -37061.758, 0.0, 9.999935, 9.999095 
7.0502424e+2, 2.3472267e+2, -608352.5, -720396.25, -53745.64, -0.030379988, -0.1793846, -586740.4, 52960.543, 0.0, 10.000614, 9.999127 
7.050285e+2, 2.447218e+2, -515772.25, -657918.75, -45257.473, -0.03056368, -0.16360801, -502586.13, 39123.08, 0.0, 10.000719, 9.998833 
7.050328e+2, 2.547208e+2, -492107.28, -593111.06, -57147.58, -0.036466975, -0.15354177, -466344.6, -22625.443, 0.0, 10.000196, 9.998856 
7.0503724e+2, 2.647194e+2, -428797.84, -571896.7, -54388.637, -0.038002238, -0.15316464, -410472.7, -64739.047, 0.0, 10.000218, 9.998318 
7.0504177e+2, 2.7471754e+2, -239323.22, -428222.75, -40872.418, -0.033757843, -0.1745268, -230858.88, 16894.336, 0.0, 10.000841, 9.998331 
7.050466e+2, 2.847159e+2, -115976.11, -331543.5, -7818.8413, -0.037397176, -0.16312253, -115692.88, 34077.004, 0.0, 10.001073, 9.998211 
7.050516e+2, 2.947145e+2, -44923.47, -247849.39, -10417.621, -0.04976434, -0.12676492, -44390.063, 7393.336, 0.0, 10.000893, 9.998199 
7.050566e+2, 3.0471158e+2, -942.23615, -271301.0, -17559.895, -0.039605025, -0.20743418, 193.5138, 193.5138, 0.00000008201181, 10.00116, 9.997577 
7.0506084e+2, 3.1470963e+2, 219102.4, 10236.854, 30840.31, -0.080973715, -0.16590157, 223561.0, 223561.0, 0.0000012936833, 10.001913, 9.999147 
7.1496636e+2, 1.24724574e+2, -1900597.6, -1793014.0, 748.1517, 0.03866181, -0.059610832, -1793008.8, -75321.66, 0.0, 9.998694, 10.000083 
7.149718e+2, 1.3472468e+2, -1773839.0, -1672192.8, 118706.71, -0.13987784, -0.07351599, -1593887.0, 25798.41, 0.0, 9.998819, 10.000198 
7.14982e+2, 1.447235e+2, -1689023.1, -1646244.6, 26737.697, 0.20001979, -0.17480265, -1633393.5, -111696.99, 0.0, 9.999029, 9.999591 
7.149856e+2, 1.5472339e+2, -1519930.0, -1512263.6, 2672.8953, 0.023446636, -0.1506745, -1511423.8, -87725.95, 0.0, 9.999511, 9.999604 
7.149899e+2, 1.6472319e+2, -1402691.4, -1392700.1, -9689.921, -0.07121715, -0.13631344, -1386793.9, -61094.684, 0.0, 9.99959, 9.999714 
7.149956e+2, 1.7472285e+2, -1355988.5, -1315870.0, -11329.7705, -0.02167853, -0.14591634, -1312891.5, -85190.43, 0.0, 9.999224, 9.999744 
7.150012e+2, 1.8472219e+2, -1260689.4, -1302954.4, -4143.486, 0.0020879977, -0.14998643, -1260287.0, -130579.71, 0.0, 9.999564, 9.998997 
7.1500653e+2, 1.9472115e+2, -996323.8, -1125141.6, -6185.2236, -0.018103758, -0.15662092, -996027.5, 35690.668, 0.0, 10.000706, 9.998995 
7.1501136e+2, 2.0472017e+2, -875151.8, -1024726.44, -55177.938, -0.030222276, -0.14917633, -856999.6, 76728.47, 0.0, 10.000902, 9.998918 
7.1501565e+2, 2.1471925e+2, -898974.56, -982716.44, -54246.21, -0.026424095, -0.13771524, -872319.4, -36582.414, 0.0, 10.000054, 9.998941 
7.1502006e+2, 2.2471833e+2, -801050.4, -856272.0, -33025.527, -0.031226322, -0.13380203, -785614.2, -47869.117, 0.0, 9.99993, 9.999197 
7.1502465e+2, 2.3471746e+2, -602505.7, -706235.4, -27304.96, -0.047259346, -0.14811546, -595757.2, 43994.98, 0.0, 10.000605, 9.9992285 
7.1502894e+2, 2.447161e+2, -537266.2, -700868.3, -64530.71, -0.05637251, -0.17238358, -514876.88, 26888.13, 0.0, 10.000711, 9.998541 
7.150328e+2, 2.547142e+2, -514329.34, -638691.56, -76195.91, -0.05539413, -0.21938747, -478162.56, -34378.273, 0.0, 10.000195, 9.998544 
7.1503735e+2, 2.647128e+2, -404660.13, -521942.8, -32529.314, -0.050877012, -0.21799009, -396242.1, -50443.465, 0.0, 10.000219, 9.998661 
7.150425e+2, 2.7471197e+2, -214980.28, -375153.9, -16674.783, -0.044002898, -0.17259325, -213262.78, 34544.36, 0.0, 10.000831, 9.998701 
7.150475e+2, 2.8471085e+2, -119598.12, -336966.03, -14475.185, -0.05264723, -0.13110651, -118638.41, 31180.756, 0.0, 10.001063, 9.9981785 
7.150522e+2, 2.9470932e+2, -49518.977, -255364.77, -16030.181, -0.07787422, -0.104883716, -48278.11, 3557.207, 0.0, 10.000884, 9.998152 
7.1505773e+2, 3.0470636e+2, 44466.836, -175546.39, 9578.555, -0.04404768, -0.21494496, 44883.066, 44883.066, 0.00000004119849, 10.001153, 9.998238 
7.150636e+2, 3.1470513e+2, 240751.53, 60646.55, 63013.93, 0.0032016009, -0.169411, 260609.03, 260609.03, 0.0000010048329, 10.00189, 9.999505 
7.249654e+2, 1.24719314e+2, -1791261.4, -1771229.0, -85757.695, 0.03252434, -0.08270282, -1694904.6, 22833.139, 0.0, 9.999574, 9.99981 
7.2497094e+2, 1.3471948e+2, -1725786.1, -1681366.8, 48263.645, -0.13174818, -0.05910006, -1650447.9, -30710.965, 0.0, 9.999291, 9.9999075 
7.24981e+2, 1.4471827e+2, -1672022.0, -1637787.0, -565.8727, 0.19347842, -0.14972457, -1637777.6, -116028.805, 0.0, 9.999145, 9.999592 
7.249851e+2, 1.547181e+2, -1550453.9, -1526211.1, -4.400006, 0.035385102, -0.13394076, -1526211.1, -102460.96, 0.0, 9.999299, 9.99961 
7.2498965e+2, 1.6471773e+2, -1423101.5, -1427626.9, -15529.601, -0.05445616, -0.12523858, -1409670.6, -83917.48, 0.0, 9.999558, 9.999489 
7.2499526e+2, 1.7471713e+2, -1269082.9, -1300152.8, -31846.742, -0.016614225, -0.13786277, -1249184.1, -21425.91, 0.0, 9.999932, 9.999511 
7.2500086e+2, 1.8471643e+2, -1213393.5, -1267299.0, -13201.5, -0.0022184418, -0.13861069, -1210334.0, -80569.33, 0.0, 9.999832, 9.999112 
7.2500634e+2, 1.947156e+2, -1204555.9, -1210528.5, -200.56163, -0.03066036, -0.13568358, -1204549.1, -172776.23, 0.0, 9.999214, 9.999126 
7.250114e+2, 2.0471463e+2, -1104056.1, -1135702.8, -48257.07, -0.032975893, -0.1358122, -1069094.4, -135311.72, 0.0, 9.999333, 9.998912 
7.2501606e+2, 2.1471344e+2, -868597.5, -969367.25, -51865.69, 0.00039192056, -0.15086088, -846672.75, -10878.744, 0.0, 10.000267, 9.998932 
7.250206e+2, 2.2471243e+2, -717533.3, -828651.56, -35358.625, -0.0017361024, -0.15021934, -707236.2, 30567.047, 0.0, 10.000557, 9.999085 
7.2502506e+2, 2.3471166e+2, -677410.1, -754886.5, -48117.996, -0.045139857, -0.14286983, -654374.6, -14564.5625, 0.0, 10.000145, 9.999117 
7.250293e+2, 2.4471037e+2, -607046.75, -727681.1, -82845.74, -0.065757655, -0.15581602, -564886.7, -23064.328, 0.0, 10.000202, 9.998604 
7.250333e+2, 2.5470853e+2, -423340.63, -586835.8, -67114.734, -0.059060864, -0.20357747, -399319.34, 44521.656, 0.0, 10.000784, 9.998616 
7.2503793e+2, 2.6470718e+2, -285216.97, -456946.94, -10605.274, -0.05556992, -0.2064445, -284564.5, 61290.324, 0.0, 10.001008, 9.998728 
7.2504324e+2, 2.7470633e+2, -208269.6, -364831.0, -18966.553, -0.057045575, -0.16837797, -206004.66, 41858.46, 0.0, 10.000845, 9.998766 
7.250484e+2, 2.8470528e+2, -142059.27, -340628.63, -30229.537, -0.057787556, -0.122335, -137559.22, 12314.922, 0.0, 10.000877, 9.998244 
7.250534e+2, 2.9470402e+2, -7585.92, -227636.47, -24462.773, -0.05804062, -0.07913761, -4899.2236, 46989.277, 0.0, 10.001138, 9.998221 
7.2505903e+2, 3.0470136e+2, 86148.41, -118929.27, 7112.2075, -0.034014456, -0.18126757, 86394.766, 86394.766, 0.000000018939705, 10.001283, 9.998565 
7.250651e+2, 3.1470037e+2, 153121.48, 17731.67, 33047.21, -0.006143834, -0.14184509, 160757.3, 160757.3, 0.0000007295325, 10.00129, 9.999499 
7.3496544e+2, 1.2471189e+2, -1783065.1, -1756647.6, -89792.016, 0.0744965, -0.19891545, -1679098.0, 38712.285, 0.0, 9.999582, 9.9999075 
7.349695e+2, 1.3471329e+2, -1720397.5, -1669454.5, 35874.996, -0.2073854, -0.06051718, -1650928.1, -31129.451, 0.0, 9.999289, 9.9999895 
7.349791e+2, 1.447127e+2, -1648941.1, -1589300.3, 2797.4185, 0.08417353, -0.11007583, -1589169.4, -67365.01, 0.0, 9.999143, 9.999926 
7.349847e+2, 1.5471257e+2, -1526247.6, -1477797.3, 7290.817, 0.059871778, -0.12215038, -1476723.9, -52920.434, 0.0, 9.999306, 9.999938 
7.349899e+2, 1.6471201e+2, -1449733.3, -1483974.1, -2591.9946, 0.00879686, -0.13113768, -1449538.3, -123729.9, 0.0, 9.999562, 9.999101 
7.349952e+2, 1.7471099e+2, -1297665.9, -1359781.3, -17439.756, -0.018501652, -0.14609785, -1293104.4, -65285.004, 0.0, 9.999932, 9.999103 
7.350005e+2, 1.8471035e+2, -1191546.9, -1221116.9, -36669.215, -0.021523722, -0.1334407, -1166794.3, -36968.887, 0.0, 9.999828, 9.999431 
7.3500574e+2, 1.9471018e+2, -1180750.9, -1161247.1, -23185.172, -0.01322609, -0.10082121, -1145846.4, -114020.555, 0.0, 9.999213, 9.999465 
7.3501116e+2, 2.0470911e+2, -1106561.3, -1140127.4, -15637.19, 0.01066982, -0.12620723, -1100405.4, -166570.02, 0.0, 9.99933, 9.998883 
7.350169e+2, 2.1470702e+2, -872934.9, -976407.1, -15933.843, 0.05830966, -0.22650556, -870536.75, -34681.645, 0.0, 10.0002575, 9.998888 
7.3502165e+2, 2.2470571e+2, -742158.5, -877735.3, -50712.793, 0.048062596, -0.23807888, -725288.44, 12579.899, 0.0, 10.000548, 9.998753 
7.350254e+2, 2.3470525e+2, -702032.4, -805140.5, -63216.895, -0.027833592, -0.1623713, -672013.2, -32138.836, 0.0, 10.00014, 9.998775 
7.350295e+2, 2.4470463e+2, -576889.2, -664974.94, -62667.023, -0.06290805, -0.11408272, -544336.2, -2454.903, 0.0, 10.000201, 9.999035 
7.350341e+2, 2.547038e+2, -392708.53, -520707.5, -44527.973, -0.052430853, -0.107609615, -378742.16, 65147.094, 0.0, 10.000773, 9.999076 
7.3503894e+2, 2.647025e+2, -301694.63, -488939.25, -16434.19, -0.056948535, -0.11917827, -300263.16, 45639.113, 0.0, 10.0009985, 9.998512 
7.350438e+2, 2.747006e+2, -226525.81, -401145.1, -24234.898, -0.07681465, -0.1594664, -223224.73, 24696.125, 0.0, 10.000838, 9.998519 
7.3504925e+2, 2.8469932e+2, -130049.53, -314854.88, -21229.055, -0.057078026, -0.13516322, -127642.26, 22292.266, 0.0, 10.000873, 9.998423 
7.3505515e+2, 2.9469863e+2, 4778.5537, -198744.48, -12980.216, 0.0033784404, -0.051362164, 5603.0605, 57545.93, 0.0, 10.001124, 9.998426 
7.350605e+2, 3.0469653e+2, 82413.42, -124340.086, 7679.846, -0.015245183, -0.10835483, 82698.3, 82698.3, 0.0000000073965225, 10.001272, 9.998533 
7.350653e+2, 3.1469554e+2, 123923.11, -37772.24, 35676.598, -0.11841467, -0.06735886, 131444.92, 131444.92, 0.0000004773962, 10.001268, 9.999128 
7.4496466e+2, 1.2470554e+2, -1903390.5, -1794076.3, -75523.36, 0.08521349, -0.20508564, -1755506.9, -37633.688, 0.0, 9.998668, 10.000092 
7.4496895e+2, 1.3470694e+2, -1705567.6, -1643886.5, 43738.957, -0.19198339, -0.08185081, -1621208.5, -1348.2456, 0.0, 9.999313, 10.000152 
7.4497825e+2, 1.4470644e+2, -1584921.0, -1563382.3, -1129.1729, 0.06760731, -0.13096295, -1563323.3, -41458.125, 0.0, 9.9996, 9.999884 
7.4498385e+2, 1.5470651e+2, -1481393.0, -1461300.6, -25623.502, 0.030931763, -0.116376325, -1443824.3, -19961.47, 0.0, 9.999636, 9.999893 
7.449892e+2, 1.6470596e+2, -1451214.9, -1486946.0, -34713.164, -0.0088283345, -0.120714374, -1430039.6, -104171.79, 0.0, 9.999563, 9.999079 
7.44995e+2, 1.7470472e+2, -1380070.3, -1401892.8, -21615.953, -0.0012140411, -0.15665613, -1366767.8, -138886.64, 0.0, 9.999379, 9.999079 
7.450005e+2, 1.8470404e+2, -1233134.5, -1229758.9, -38556.086, 0.0075757834, -0.1519982, -1192853.8, -62966.42, 0.0, 9.999492, 9.999535 
7.450055e+2, 1.9470403e+2, -1068091.8, -1095079.9, -44483.258, 0.00065854535, -0.11297337, -1035100.9, -3215.263, 0.0, 9.999934, 9.999573 
7.450109e+2, 2.0470311e+2, -993618.8, -1086984.9, -26141.727, 0.011203476, -0.12817274, -986797.7, -52903.98, 0.0, 10.000111, 9.998872 
7.4501693e+2, 2.1470115e+2, -911766.6, -996135.2, -25722.031, 0.047170587, -0.21485852, -904543.06, -68630.2, 0.0, 9.999998, 9.998877 
7.450219e+2, 2.2469985e+2, -812038.3, -911163.5, -62661.965, 0.03906567, -0.22360568, -781707.4, -43781.063, 0.0, 10.000067, 9.998755 
7.450257e+2, 2.3469932e+2, -674679.9, -791160.06, -50792.543, -0.019195195, -0.15740556, -655642.6, -15709.045, 0.0, 10.000324, 9.998782 
7.4503005e+2, 2.4469875e+2, -537894.1, -648494.7, -37752.426, -0.04766975, -0.10389309, -526236.44, 15703.886, 0.0, 10.000481, 9.999012 
7.450349e+2, 2.546981e+2, -429152.16, -541254.8, -57281.613, -0.043587193, -0.07534318, -405060.28, 38886.285, 0.0, 10.000536, 9.999049 
7.450398e+2, 2.646968e+2, -359733.7, -523763.13, -53095.688, -0.048710052, -0.08040784, -344047.0, 1912.5431, 0.0, 10.000628, 9.998452 
7.450448e+2, 2.7469477e+2, -239837.55, -414844.94, -49008.164, -0.06190662, -0.13282806, -227048.19, 20931.967, 0.0, 10.000777, 9.998456 
7.450503e+2, 2.8469333e+2, -121492.625, -305787.88, -35594.25, -0.041472733, -0.12179058, -114856.98, 35138.117, 0.0, 10.000911, 9.998467 
7.4505633e+2, 2.9469258e+2, -6691.2646, -198606.95, -40351.184, 0.01277336, -0.05025542, 1447.6052, 53451.266, 0.0, 10.001021, 9.998477 
7.4506164e+2, 3.046908e+2, 74002.21, -115861.04, -21198.941, -0.021252947, -0.08105307, 76340.36, 76340.36, 0.0000000015345106, 10.001162, 9.998644 
7.450665e+2, 3.1468958e+2, 129759.26, -47776.676, 13809.723, -0.12746474, -0.07300639, 130827.03, 130827.03, 0.00000026410652, 10.001365, 9.999013 
7.54963e+2, 1.247003e+2, -1886375.1, -1758787.1, -46559.766, 0.04657954, -0.09816635, -1743603.4, -25677.627, 0.0, 9.998667, 10.000335 
7.549693e+2, 1.3470048e+2, -1690259.3, -1611195.5, 67162.14, -0.09004852, -0.123088226, -1572794.5, 47127.08, 0.0, 9.99931, 10.000377 
7.5497866e+2, 1.4469945e+2, -1613256.1, -1622771.6, -1773.1409, 0.13936026, -0.21338543, -1612936.5, -91005.445, 0.0, 9.999604, 9.999475 
7.549826e+2, 1.5469994e+2, -1510434.6, -1522500.4, -23783.268, -0.054811623, -0.11603028, -1491931.0, -68002.945, 0.0, 9.999639, 9.999473 
7.549877e+2, 1.646996e+2, -1425908.9, -1435451.8, -42504.234, -0.11374761, -0.09428237, -1387909.1, -61977.32, 0.0, 9.999566, 9.999432 
7.549947e+2, 1.7469832e+2, -1353632.9, -1348523.5, -28113.54, 0.029364023, -0.17049634, -1322848.8, -94905.42, 0.0, 9.999383, 9.999444 
7.5500065e+2, 1.8469748e+2, -1241085.0, -1245963.3, -23638.658, 0.078819446, -0.19549401, -1219760.0, -89809.59, 0.0, 9.999491, 9.999424 
7.550055e+2, 1.9469719e+2, -1077443.0, -1113943.5, -27567.346, 0.008222985, -0.17181084, -1062632.3, -30680.188, 0.0, 9.999931, 9.999445 
7.5501055e+2, 2.0469666e+2, -994505.1, -1087510.9, -31171.248, -0.03394465, -0.14197335, -985024.4, -51066.84, 0.0, 10.000104, 9.998872 
7.55016e+2, 2.1469581e+2, -912063.2, -995617.0, -29797.832, -0.037961803, -0.116421916, -902525.2, -66557.99, 0.0, 9.999991, 9.998883 
7.550212e+2, 2.2469488e+2, -788246.44, -860016.6, -54373.18, -0.03392814, -0.107633784, -758984.1, -21006.938, 0.0, 10.000059, 9.99911 
7.55026e+2, 2.3469386e+2, -650728.25, -739228.9, -40641.4, -0.022497855, -0.12797408, -634896.8, 5090.7915, 0.0, 10.000316, 9.999143 
7.5503075e+2, 2.4469271e+2, -572478.9, -718803.44, -36064.3, -0.023036584, -0.124313585, -564073.06, -22073.695, 0.0, 10.000474, 9.998533 
7.5503546e+2, 2.5469148e+2, -465775.56, -616147.4, -54345.773, -0.036900178, -0.1042152, -448190.88, -4178.258, 0.0, 10.000531, 9.998537 
7.550406e+2, 2.646902e+2, -353242.5, -509739.72, -47908.12, -0.03567439, -0.08871927, -339741.28, 6285.147, 0.0, 10.000626, 9.998549 
7.55046e+2, 2.7468875e+2, -232103.05, -396959.8, -41809.223, -0.017764714, -0.09169728, -222106.05, 25935.035, 0.0, 10.000769, 9.998583 
7.550515e+2, 2.8468728e+2, -130153.836, -322030.53, -31063.43, -0.015938092, -0.08346605, -125250.21, 24805.576, 0.0, 10.000903, 9.99836 
7.5505686e+2, 2.9468584e+2, -16547.736, -216968.81, -34520.285, -0.034078836, -0.06841142, -10768.644, 41301.484, 0.0, 10.001011, 9.998356 
7.5506246e+2, 3.046842e+2, 91825.81, -76471.64, -14315.35, -0.05780145, -0.093382634, 93034.79, 93034.79, 0.00000000001992495, 10.001152, 9.998919 
7.550687e+2, 3.1468272e+2, 136893.48, -27480.99, 23131.885, -0.045830257, -0.14274658, 140086.72, 140086.72, 0.000000109993245, 10.001341, 9.999164 
7.649617e+2, 1.2469397e+2, -1749308.4, -1684960.6, -51895.074, 0.010546713, -0.0768622, -1656075.0, 61912.68, 0.0, 9.999572, 10.000406 
7.649688e+2, 1.3469394e+2, -1697632.8, -1608999.1, 38398.348, -0.061157234, -0.12614673, -1594677.9, 25306.518, 0.0, 9.999236, 10.000426 
7.649783e+2, 1.4469282e+2, -1694950.9, -1669538.6, -23472.941, 0.17013942, -0.22641103, -1655553.5, -133558.61, 0.0, 9.999075, 9.999409 
7.649822e+2, 1.5469328e+2, -1571032.9, -1559531.0, -19042.889, -0.038035925, -0.1239815, -1545389.6, -121396.34, 0.0, 9.999256, 9.999403 
7.6498735e+2, 1.646931e+2, -1429063.3, -1421586.6, -32864.906, -0.105904385, -0.09117024, -1392248.1, -66252.28, 0.0, 9.999475, 9.999573 
7.6499426e+2, 1.7469212e+2, -1291714.9, -1301574.6, -36583.83, 0.029180119, -0.14943922, -1259730.3, -31726.898, 0.0, 9.999734, 9.999598 
7.6500034e+2, 1.8469124e+2, -1194261.9, -1247447.4, -34073.73, 0.076842144, -0.17825992, -1177632.0, -47620.867, 0.0, 9.999917, 9.9992075 
7.6500547e+2, 1.9469044e+2, -1079409.0, -1140516.1, -46659.11, 0.011922505, -0.18395114, -1054189.9, -22170.547, 0.0, 10.00003, 9.999215 
7.6501065e+2, 2.046899e+2, -983755.56, -1049939.6, -56153.94, -0.028255224, -0.15369022, -951668.25, -17643.357, 0.0, 10.000038, 9.999162 
7.65016e+2, 2.1468972e+2, -901962.75, -956872.06, -34098.7, -0.035762418, -0.09471075, -885639.8, -49612.3, 0.0, 9.999915, 9.999187 
7.6502126e+2, 2.2468904e+2, -805943.0, -871008.5, -46852.504, -0.03356006, -0.0739275, -781435.94, -43401.207, 0.0, 9.999951, 9.999085 
7.650263e+2, 2.3468785e+2, -673792.56, -754658.3, -65174.895, -0.02253736, -0.106619105, -637527.44, 2519.902, 0.0, 10.000177, 9.999103 
7.650313e+2, 2.4468653e+2, -579437.6, -720965.06, -60301.313, -0.01878739, -0.12072989, -557229.56, -15168.649, 0.0, 10.000421, 9.998545 
7.650362e+2, 2.5468504e+2, -442255.47, -603417.06, -40952.207, -0.023088716, -0.124784715, -432446.28, 11629.45, 0.0, 10.000687, 9.998549 
7.6504153e+2, 2.6468378e+2, -320426.7, -499101.56, -19919.512, -0.018033417, -0.10576804, -318232.88, 27856.38, 0.0, 10.000874, 9.998503 
7.650471e+2, 2.7468264e+2, -207296.42, -390361.0, -29054.121, -0.0019784165, -0.074236125, -202795.89, 45305.707, 0.0, 10.000962, 9.998533 
7.650525e+2, 2.846811e+2, -111460.08, -314776.1, -20658.873, -0.0087406095, -0.06978684, -109382.17, 40734.613, 0.0, 10.001039, 9.998344 
7.6505786e+2, 2.9467922e+2, 316.5382, -210797.17, -17952.123, -0.043191392, -0.098868296, 1832.2212, 53966.84, 0.0, 10.001135, 9.998339 
7.650635e+2, 3.046778e+2, 82188.664, -79979.19, -7342.203, -0.06072475, -0.09767514, 82520.41, 82520.41, 0.0, 10.001079, 9.998931 
7.6507026e+2, 3.1467608e+2, 59490.816, -60884.016, 5622.9805, 0.0027377023, -0.17389138, 59752.906, 59752.906, 0.000000028836135, 10.000791, 9.9992 
7.749609e+2, 1.2468657e+2, -1755607.3, -1698954.0, -60425.438, -0.03534089, -0.13902941, -1660545.0, 57513.63, 0.00000000003061157, 9.999575, 10.000309 
7.749676e+2, 1.3468738e+2, -1706879.6, -1627521.9, 24584.996, -0.112070054, -0.09043961, -1620522.9, -474.34164, 0.0, 9.999234, 10.000299 
7.7497715e+2, 1.4468655e+2, -1674130.0, -1627444.1, -19838.828, 0.15066798, -0.16979423, -1620152.6, -98096.25, 0.0, 9.999079, 9.999696 
7.749827e+2, 1.5468656e+2, -1550428.0, -1518281.1, -11701.163, 0.07709437, -0.14195055, -1514473.0, -90414.63, 0.0, 9.999261, 9.999684 
7.74988e+2, 1.6468644e+2, -1433595.0, -1430597.9, -24371.719, 0.011369349, -0.11284071, -1407678.8, -81618.79, 0.0, 9.999474, 9.999511 
7.7499366e+2, 1.7468621e+2, -1296321.3, -1311103.6, -26436.129, -0.0048855986, -0.092388876, -1276262.5, -48201.836, 0.0, 9.999734, 9.999533 
7.7499944e+2, 1.8468533e+2, -1216790.8, -1294306.1, -30831.508, -0.0036350596, -0.099911936, -1206023.3, -75953.95, 0.0, 9.999916, 9.998887 
7.750055e+2, 1.9468376e+2, -1102954.0, -1189175.4, -42154.574, 0.0068957424, -0.1494101, -1085769.3, -53682.152, 0.0, 10.000027, 9.998882 
7.7501124e+2, 2.046829e+2, -944353.2, -965994.9, -61579.906, 0.022568429, -0.16353603, -892650.6, 41444.94, 0.0, 10.00003, 9.999742 
7.750168e+2, 2.1468288e+2, -860763.2, -869374.94, -38541.605, 0.049589384, -0.14844021, -826287.7, 9805.735, 0.0, 9.999907, 9.999791 
7.7502185e+2, 2.2468238e+2, -836050.75, -932560.56, -39985.07, 0.036537398, -0.12171268, -821637.2, -83538.43, 0.0, 9.999947, 9.998666 
7.7502644e+2, 2.3468135e+2, -706035.0, -820438.4, -56037.6, -0.024199191, -0.0926193, -683160.2, -43047.715, 0.0, 10.000172, 9.998653 
7.750315e+2, 2.4468017e+2, -545583.56, -648995.6, -50993.125, -0.04016582, -0.09337909, -524668.6, 17456.393, 0.0, 10.000413, 9.9990425 
7.750371e+2, 2.5467882e+2, -405792.63, -525976.7, -29946.96, -0.0055302703, -0.1390575, -398743.97, 45392.113, 0.0, 10.00068, 9.999084 
7.7504253e+2, 2.6467758e+2, -335327.4, -529440.75, -16456.102, 0.002073211, -0.13139267, -333942.22, 12205.849, 0.0, 10.00087, 9.998297 
7.7504784e+2, 2.7467647e+2, -224976.72, -425577.47, -24566.174, -0.020437997, -0.07524353, -222012.08, 26149.19, 0.0, 10.000955, 9.998296 
7.750534e+2, 2.846748e+2, -105164.62, -299921.47, -17752.162, -0.027527427, -0.0772262, -103559.73, 46618.074, 0.0, 10.001031, 9.99845 
7.750593e+2, 2.9467258e+2, 7105.4946, -195516.5, -11684.804, -0.019516125, -0.15001321, 7777.108, 59974.848, 0.0, 10.001129, 9.998447 
7.750649e+2, 3.046716e+2, 62289.117, -119947.92, -16231.669, -0.03384391, -0.09982988, 63723.563, 63723.563, 0.0, 10.001073, 9.998659 
7.75071e+2, 3.146699e+2, 48434.438, -81726.87, -4070.76, 0.0047769193, -0.14187953, 48561.625, 48561.625, 0.0000000029769756, 10.00078, 9.999063 
7.849607e+2, 1.2467916e+2, -1753381.6, -1724333.3, -72437.3, -0.012227666, -0.18344505, -1664978.4, 53150.723, 0.0000000009851104, 9.9997015, 10.000075 
7.8496695e+2, 1.346802e+2, -1665753.9, -1638320.3, -8687.112, -0.122015215, -0.08569992, -1635800.8, -15681.962, 0.0, 9.99965, 10.000026 
7.849762e+2, 1.4467938e+2, -1583819.9, -1575768.8, -50428.875, 0.11873923, -0.15304309, -1529205.0, -7077.7666, 0.0, 9.9996605, 9.999772 
7.849823e+2, 1.5467915e+2, -1460112.8, -1464803.1, -57681.074, 0.08579777, -0.15726954, -1404729.3, 19401.469, 0.0, 9.999837, 9.999775 
7.8498787e+2, 1.646791e+2, -1357376.5, -1369433.0, -68835.82, 0.030403625, -0.13747202, -1294305.5, 31825.697, 0.0, 9.999893, 9.999728 
7.8499335e+2, 1.7467925e+2, -1266376.8, -1272258.1, -51243.45, -0.012368824, -0.09932153, -1217989.6, 10138.247, 0.0, 9.999834, 9.99975 
7.849991e+2, 1.8467863e+2, -1251440.0, -1305999.6, -36929.99, -0.018244052, -0.09509971, -1232806.8, -102672.23, 0.0, 9.999656, 9.998933 
7.8500515e+2, 1.9467714e+2, -1200018.3, -1231030.8, -21845.113, 0.0051352065, -0.14005354, -1188735.5, -156583.3, 0.0, 9.99934, 9.998927 
7.85011e+2, 2.046763e+2, -1033463.5, -1000025.44, -34085.535, 0.027846413, -0.15899532, -978779.4, -44618.57, 0.0, 9.999381, 9.99982 
7.850167e+2, 2.1467619e+2, -866005.25, -863562.0, -51935.344, 0.055129547, -0.1589999, -812833.94, 23325.256, 0.0, 9.999836, 9.999865 
7.85022e+2, 2.246757e+2, -801561.1, -903734.7, -53001.05, 0.051685724, -0.13979626, -779034.25, -40870.285, 0.0, 10.000132, 9.998774 
7.8502697e+2, 2.346748e+2, -686571.94, -798769.94, -29163.768, 0.009986432, -0.11056081, -679444.2, -39268.13, 0.0, 10.000254, 9.998762 
7.850322e+2, 2.4467379e+2, -540604.94, -641633.25, -14972.841, -0.0075852834, -0.1023602, -538432.6, 3754.2444, 0.0, 10.000428, 9.9990835 
7.850378e+2, 2.5467268e+2, -406472.8, -522367.66, -32773.176, 0.0015696224, -0.12826312, -397847.06, 46349.035, 0.0, 10.000659, 9.999119 
7.850434e+2, 2.6467144e+2, -335199.44, -531581.1, -34027.008, -0.0018911645, -0.120913886, -329470.72, 16737.36, 0.0, 10.000881, 9.998277 
7.850489e+2, 2.7467006e+2, -202955.66, -417808.75, -28163.291, -0.018934462, -0.08830382, -199325.31, 48898.09, 0.0, 10.00112, 9.99827 
7.850545e+2, 2.846683e+2, -69847.086, -277894.88, -18769.465, -0.025489321, -0.10186835, -68167.32, 82073.484, 0.0, 10.001252, 9.998494 
7.8506035e+2, 2.9466617e+2, 24364.926, -181521.08, -20276.88, -0.021010322, -0.17045707, 26342.91, 78602.9, 0.0, 10.001225, 9.998495 
7.8506607e+2, 3.046655e+2, 73322.15, -158373.52, -29889.816, -0.036146674, -0.07211648, 77115.95, 77115.95, 0.0, 10.001337, 9.998267 
7.850724e+2, 3.1466353e+2, 162529.06, -43694.184, -33009.527, 0.01922798, -0.10241793, 167683.94, 167683.94, 0.0, 10.001639, 9.998909 
7.9496115e+2, 1.246718e+2, -1777918.0, -1777879.1, -70978.68, 0.060781416, -0.20923674, -1706919.9, 11278.831, 0.0000000034592607, 9.999711, 9.999704 
7.949669e+2, 1.3467237e+2, -1694275.6, -1699864.9, -11318.05, -0.093273476, -0.11437841, -1685412.3, -65216.64, 0.0, 9.999659, 9.999599 
7.949754e+2, 1.4467132e+2, -1592437.3, -1594165.5, -46627.402, 0.070579365, -0.17698066, -1546666.0, -24458.643, 0.0, 9.999664, 9.999643 
7.9498106e+2, 1.5467112e+2, -1467502.6, -1479944.5, -50557.47, -0.01974314, -0.16877371, -1422784.9, 1424.9043, 0.0, 9.999837, 9.99967 
7.949869e+2, 1.646711e+2, -1323225.6, -1298773.5, -72013.95, -0.056969985, -0.164441, -1237955.1, 88253.96, 0.0, 9.999893, 10.000214 
7.9499334e+2, 1.7467129e+2, -1230982.9, -1199905.3, -52976.52, 0.0035995613, -0.17083836, -1160235.8, 67969.266, 0.0, 9.999837, 10.000247 
7.9499924e+2, 1.8467116e+2, -1222650.6, -1245610.4, -49733.21, 0.028662356, -0.16495709, -1183089.5, -52883.12, 0.0, 9.999654, 9.999349 
7.950044e+2, 1.946706e+2, -1171865.0, -1171476.9, -33736.31, 0.002246356, -0.15604216, -1137934.0, -105719.78, 0.0, 9.999335, 9.999337 
7.9501e+2, 2.0467013e+2, -1064000.1, -1062202.1, -19150.559, -0.016589753, -0.13993756, -1043929.44, -109709.14, 0.0, 9.999375, 9.999395 
7.950158e+2, 2.146697e+2, -898572.5, -929536.9, -34417.402, -0.022266883, -0.1262478, -876315.4, -40090.97, 0.0, 9.999828, 9.999415 
7.950217e+2, 2.2466908e+2, -758758.3, -813203.8, -49164.8, 0.0075451853, -0.12841311, -729782.7, 8447.487, 0.0, 10.000124, 9.999399 
7.950279e+2, 2.3466821e+2, -640784.4, -702909.5, -24174.715, 0.07689341, -0.15995955, -632485.8, 7752.0625, 0.0, 10.00025, 9.999423 
7.9503345e+2, 2.446674e+2, -570255.9, -702800.75, -6978.3027, 0.07490361, -0.14664175, -569889.5, -27643.178, 0.0, 10.000425, 9.998666 
7.950384e+2, 2.5466663e+2, -439700.16, -589607.9, -23310.227, -0.0085258605, -0.0903115, -436159.13, 8096.3677, 0.0, 10.00065, 9.998661 
7.9504395e+2, 2.6466534e+2, -324536.94, -507698.03, -25766.492, -0.03639653, -0.07435348, -320981.22, 25287.906, 0.0, 10.000873, 9.9984455 
7.9505014e+2, 2.746634e+2, -190337.88, -390602.13, -17716.203, -0.00063025777, -0.11930133, -188782.7, 59505.645, 0.0, 10.001114, 9.99846 
7.95056e+2, 2.8466156e+2, -73724.4, -284589.84, -18557.174, -0.00529519, -0.14590275, -72103.734, 78202.18, 0.0, 10.0012455, 9.998452 
7.950613e+2, 2.9466e+2, 19532.28, -189263.2, -19385.328, -0.05824248, -0.15258399, 21316.832, 73637.55, 0.0, 10.001214, 9.998448 
7.9506695e+2, 3.0465958e+2, 38642.13, -227709.7, -19748.133, -0.07881049, -0.007659113, 40098.35, 40098.35, 0.0, 10.001327, 9.997796 
7.950742e+2, 3.1465685e+2, 147822.86, -71122.234, -20376.527, 0.03667361, -0.061044153, 149703.1, 149703.1, 0.0, 10.001625, 9.998728 
8.049612e+2, 1.24664724e+2, -1766470.4, -1790196.8, -50632.723, 0.08365096, -0.21457383, -1726329.6, -8062.9604, 0.0000000057252847, 9.999866, 9.999547 
8.04967e+2, 1.346649e+2, -1622602.5, -1685931.4, 18855.686, -0.07427461, -0.14258859, -1617413.5, 2855.1338, 0.0, 10.000242, 9.9994135 
8.049752e+2, 1.4466386e+2, -1510745.0, -1537624.9, -6927.846, 0.0603242, -0.20197375, -1509064.5, 13215.791, 0.0, 10.000154, 9.999794 
8.049805e+2, 1.5466402e+2, -1484082.8, -1470356.6, 7895.8975, -0.048596684, -0.17040282, -1466758.0, -42479.96, 0.0, 9.999648, 9.999826 
8.0498624e+2, 1.6466404e+2, -1405389.4, -1353059.9, -18389.998, -0.08118347, -0.16304155, -1347243.5, -20966.174, 0.0, 9.999391, 10.000084 
8.04993e+2, 1.7466392e+2, -1302589.1, -1249908.1, -49108.598, 0.0055701504, -0.19057961, -1220521.9, 7756.658, 0.0, 9.999413, 10.000108 
8.0499893e+2, 1.8466392e+2, -1202648.0, -1190839.9, -68053.5, 0.038141698, -0.18165436, -1128434.8, 1843.8629, 0.0, 9.9995985, 9.99975 
8.0500406e+2, 1.9466409e+2, -1047494.9, -1064930.6, -52579.46, -0.0006230081, -0.14237824, -1002915.44, 29362.504, 0.0, 9.9999895, 9.999753 
8.050096e+2, 2.0466384e+2, -953116.94, -1023934.44, -18721.018, -0.029910965, -0.116894946, -948472.56, -14191.1455, 0.0, 10.000202, 9.99926 
8.0501556e+2, 2.1466313e+2, -854463.7, -924976.4, -13244.469, -0.04577426, -0.11845996, -852058.06, -15768.463, 0.0, 10.000205, 9.999265 
8.050217e+2, 2.2466242e+2, -727505.3, -779412.8, -35802.336, -0.016282864, -0.12826493, -709239.1, 29057.08, 0.0, 10.000258, 9.999565 
8.050281e+2, 2.3466176e+2, -610405.5, -668699.8, -48523.902, 0.064747766, -0.15768747, -582947.7, 57353.36, 0.0, 10.000374, 9.999598 
8.050339e+2, 2.4466099e+2, -564519.2, -709926.06, -34522.297, 0.07686858, -0.14353317, -556739.2, -14430.457, 0.0, 10.000507, 9.998577 
8.050392e+2, 2.5466013e+2, -443108.78, -602224.2, -25732.938, 0.009137086, -0.08924474, -439050.6, 5269.069, 0.0, 10.000674, 9.998563 
8.0504495e+2, 2.646588e+2, -329887.72, -498832.72, -17805.201, -0.02135231, -0.07569799, -328031.6, 18302.008, 0.0, 10.000788, 9.998547 
8.050511e+2, 2.7465692e+2, -225252.7, -395304.16, -17742.912, -0.008154511, -0.12308389, -223421.16, 24930.342, 0.0, 10.000823, 9.998568 
8.05057e+2, 2.8465518e+2, -121909.77, -314246.6, -21921.37, -0.010950497, -0.14414535, -119442.945, 30925.307, 0.0, 10.000942, 9.998394 
8.050627e+2, 2.946537e+2, 10251.7, -201008.2, -26276.361, -0.034722194, -0.13611485, 13470.882, 65853.7, 0.0, 10.001183, 9.998383 
8.0506843e+2, 3.0465317e+2, 27040.03, -231193.61, -10346.586, -0.059240725, 0.001495611, 27453.92, 27453.92, 0.0, 10.001238, 9.997816 
8.0507547e+2, 3.1465018e+2, 85863.84, -61220.234, 21571.61, 0.025362015, -0.08357499, 88962.305, 88962.305, 0.0, 10.001029, 9.999083 
8.1496066e+2, 1.2465804e+2, -1761862.5, -1781711.1, -34731.49, 0.03675657, -0.1939247, -1735665.3, -17332.99, 0.000000004999778, 9.999871, 9.999602 
8.149672e+2, 1.3465777e+2, -1619924.6, -1678480.4, 32409.027, -0.07313701, -0.16907978, -1605527.1, 14810.242, 0.0, 10.0002365, 9.999466 
8.1497556e+2, 1.44657e+2, -1480872.5, -1476163.4, -26723.328, 0.080342144, -0.22648539, -1451691.1, 70654.61, 0.0, 10.000154, 10.000217 
8.149806e+2, 1.5465793e+2, -1452212.8, -1407475.6, -9801.977, -0.0028481267, -0.16268331, -1405422.3, 18913.076, 0.0, 9.99966, 10.000255 
8.149861e+2, 1.6465801e+2, -1457627.1, -1462450.6, -19209.648, -0.045719292, -0.13544121, -1440678.4, -114342.74, 0.0, 9.999396, 9.9993305 
8.1499225e+2, 1.746571e+2, -1358619.6, -1364729.6, -48130.96, -0.012201661, -0.15943895, -1313446.9, -85098.65, 0.0, 9.999407, 9.999322 
8.149982e+2, 1.8465695e+2, -1176363.8, -1135086.1, -54950.125, 0.0045647384, -0.1449569, -1097026.8, 33324.23, 0.0, 9.999592, 10.000136 
8.1500405e+2, 1.9465764e+2, -1017639.3, -1002938.56, -37530.11, -0.006500864, -0.098079585, -972045.8, 60297.125, 0.0, 9.999989, 10.00018 
8.1500995e+2, 2.0465751e+2, -943580.0, -1002896.75, -19259.404, -0.015658585, -0.0899343, -937875.4, -3531.687, 0.0, 10.000197, 9.999407 
8.1501603e+2, 2.1465647e+2, -845998.7, -905798.7, -12925.876, -0.019850329, -0.1352932, -843324.4, -6969.93, 0.0, 10.000197, 9.9994 
8.1502193e+2, 2.2465578e+2, -748215.9, -821177.0, -32587.436, -0.024737086, -0.13879013, -735780.44, 2581.3394, 0.0, 10.000253, 9.999282 
8.1502753e+2, 2.3465545e+2, -632266.7, -712658.0, -43583.074, -0.029960662, -0.103979826, -613173.44, 27191.807, 0.0, 10.000368, 9.999299 
8.150336e+2, 2.446546e+2, -549226.5, -677178.56, -29094.25, -0.0053665196, -0.094295114, -542921.6, -547.7862, 0.0, 10.000503, 9.998805 
8.1504035e+2, 2.5465313e+2, -426085.25, -566351.56, -18774.906, 0.05232167, -0.1257414, -423615.66, 20772.865, 0.0, 10.000671, 9.998812 
8.150463e+2, 2.6465183e+2, -328772.88, -495564.53, -16156.285, 0.04005996, -0.12354996, -327222.3, 19179.072, 0.0, 10.000783, 9.998571 
8.1505144e+2, 2.7465072e+2, -225385.47, -393514.94, -14931.646, -0.050635517, -0.0948762, -224069.69, 24342.744, 0.0, 10.0008135, 9.998585 
8.150576e+2, 2.846492e+2, -126801.01, -323109.97, -13941.795, -0.051480375, -0.095075324, -125815.81, 24611.818, 0.0, 10.0009365, 9.998337 
8.1506467e+2, 2.9464722e+2, 4273.8345, -212513.1, -15270.185, 0.046125058, -0.1297364, 5344.1616, 57791.207, 0.0, 10.001177, 9.998307 
8.150705e+2, 3.0464628e+2, 59563.207, -162051.77, -16227.807, 0.020019237, -0.049246535, 60745.188, 60745.188, 0.0, 10.001231, 9.998293 
8.1507593e+2, 3.146435e+2, 141858.06, 57950.89, 13891.525, -0.032640472, -0.165849, 144098.11, 144098.11, 0.0000000016901937, 10.001017, 9.999908 
8.2496053e+2, 1.2465094e+2, -1697100.4, -1705248.9, -57526.203, 0.029015975, -0.17692679, -1643504.3, 74900.164, 0.0000000017683296, 10.000123, 10.000003 
8.2496727e+2, 1.3465111e+2, -1672582.8, -1661889.3, 27143.154, -0.06282878, -0.14694151, -1639571.3, -19168.102, 0.0, 9.999694, 9.999841 
8.2497543e+2, 1.4465058e+2, -1572553.1, -1523787.0, -37200.027, 0.08188744, -0.19782048, -1503691.1, 18717.42, 0.0, 9.999538, 10.000188 
8.249803e+2, 1.5465137e+2, -1439648.1, -1406245.8, -57959.14, -0.004188461, -0.14325754, -1362629.5, 61771.32, 0.0, 9.999768, 10.000211 
8.249857e+2, 1.6465148e+2, -1375712.4, -1411013.0, -47269.387, -0.05120643, -0.113944985, -1342905.5, -16504.352, 0.0, 9.999909, 9.999434 
8.2499176e+2, 1.7465086e+2, -1269586.5, -1310324.9, -9364.907, -0.025548737, -0.121467635, -1267536.9, -39126.336, 0.0, 9.9999695, 9.999424 
8.2499784e+2, 1.8465067e+2, -1134749.1, -1125364.5, 5991.5225, -0.007066745, -0.11115689, -1122446.6, 7966.768, 0.0, 9.999924, 10.000043 
8.250039e+2, 1.9465098e+2, -1059347.3, -1034313.8, -17980.527, -0.0070166867, -0.09353145, -1024922.4, 7486.9, 0.0, 9.999751, 10.000078 
8.250099e+2, 2.0465079e+2, -1008789.2, -1009712.6, -21330.787, -0.011812988, -0.09690531, -987915.1, -53504.793, 0.0, 9.999644, 9.999625 
8.250159e+2, 2.1465008e+2, -914269.25, -912989.25, -9103.206, -0.019031195, -0.13211292, -904503.56, -68086.5, 0.0, 9.999619, 9.999629 
8.250219e+2, 2.246495e+2, -818221.4, -872237.75, -7480.7627, -0.02714741, -0.12847385, -817204.5, -78781.19, 0.0, 9.999846, 9.999127 
8.2502776e+2, 2.3464903e+2, -645003.25, -737472.4, -10123.368, -0.036893215, -0.09116271, -643907.94, -3478.8596, 0.0, 10.000361, 9.999131 
8.2503414e+2, 2.4464813e+2, -511239.06, -636311.6, 2387.9397, -0.013455292, -0.08706777, -511193.5, 31244.52, 0.0, 10.000668, 9.999005 
8.2504094e+2, 2.5464672e+2, -401373.44, -530092.25, 8609.215, 0.04700693, -0.13189681, -400800.2, 43650.402, 0.0, 10.000737, 9.999028 
8.250472e+2, 2.6464552e+2, -318845.03, -499341.16, 7703.1475, 0.040966477, -0.1307264, -318516.88, 27945.533, 0.0, 10.000889, 9.998493 
8.2505256e+2, 2.7464443e+2, -184914.95, -383920.16, -708.8997, -0.038938686, -0.08829496, -184912.44, 63561.223, 0.0, 10.001135, 9.998495 
8.250587e+2, 2.8464285e+2, -83389.71, -296088.97, -1940.5687, -0.041417364, -0.091254175, -83372.01, 67117.27, 0.0, 10.001208, 9.998391 
8.2506573e+2, 2.9464072e+2, -6183.874, -210517.28, 4203.1196, 0.039944146, -0.15006438, -6097.453, 46412.17, 0.0, 10.001076, 9.998369 
8.250716e+2, 3.0463943e+2, 37155.016, -181616.94, -10318.025, 0.014367141, -0.101049565, 37640.57, 37640.57, 0.0, 10.001114, 9.998215 
8.250773e+2, 3.1463706e+2, 200345.16, 105838.54, -29949.586, -0.012557353, -0.17065336, 209036.94, 209036.94, 0.000000023716037, 10.001334, 10.000083 
8.349608e+2, 1.2464346e+2, -1644203.0, -1597420.1, -70594.695, 0.04174712, -0.16416691, -1546442.4, 172040.69, 0.000000000051048894, 10.000127, 10.000743 
8.3496714e+2, 1.3464491e+2, -1619585.8, -1556256.3, 12024.457, -0.047296338, -0.07789479, -1554050.0, 66415.71, 0.0, 9.999709, 10.00056 
8.349747e+2, 1.446446e+2, -1608047.9, -1598357.3, -31179.957, 0.059036456, -0.11888684, -1571648.4, -49179.656, 0.0, 9.999544, 9.999673 
8.3497953e+2, 1.5464438e+2, -1478565.0, -1485133.3, -49143.96, -0.0575055, -0.11234059, -1432595.5, -8121.283, 0.0, 9.999762, 9.999672 
8.34985e+2, 1.6464457e+2, -1308000.5, -1269908.0, -45590.75, -0.10344318, -0.09665358, -1239545.0, 86928.43, 0.0, 9.999905, 10.000406 
8.3499163e+2, 1.7464523e+2, -1196705.3, -1161627.8, -6015.435, -0.03875467, -0.07494449, -1160624.8, 67840.07, 0.0, 9.999979, 10.000441 
8.349979e+2, 1.8464515e+2, -1175918.4, -1210948.4, -1201.6309, -0.002085924, -0.0806733, -1175877.3, -45411.766, 0.0, 9.999925, 9.9994545 
8.350037e+2, 1.9464412e+2, -1105408.5, -1128219.4, -24466.879, -0.0064034658, -0.1297718, -1089819.3, -57342.426, 0.0, 9.999744, 9.999436 
8.3500946e+2, 2.046437e+2, -989417.7, -968062.1, -23795.73, -0.022356417, -0.13756895, -952658.25, -18177.174, 0.0, 9.999637, 9.999915 
8.3501524e+2, 2.1464397e+2, -891530.6, -865518.75, -10115.164, -0.047185343, -0.10887044, -862048.3, -25571.08, 0.0, 9.999617, 9.999956 
8.3502173e+2, 2.246436e+2, -821307.3, -878003.5, 9909.367, -0.027479744, -0.0977894, -819625.25, -81144.66, 0.0, 9.999843, 9.99909 
8.3502895e+2, 2.346425e+2, -648788.3, -744781.75, 9425.356, 0.040904325, -0.11830649, -647871.6, -7379.229, 0.0, 10.000358, 9.9990835 
8.350354e+2, 2.4464162e+2, -499659.4, -611167.5, 4858.9604, 0.048964947, -0.11949642, -499448.1, 43052.83, 0.0, 10.000662, 9.999182 
8.3504117e+2, 2.5464097e+2, -389802.84, -504480.03, 12193.008, -0.012631734, -0.10807372, -388520.78, 55984.945, 0.0, 10.00073, 9.9992075 
8.350474e+2, 2.6463982e+2, -332367.16, -526637.94, 16173.035, -0.024167731, -0.099251404, -331029.97, 15486.8125, 0.0, 10.000885, 9.998308 
8.3505434e+2, 2.7463806e+2, -199671.72, -413428.2, 9446.894, 0.023650855, -0.10612954, -199255.03, 49280.363, 0.0, 10.001128, 9.998296 
8.3506054e+2, 2.8463623e+2, -73882.14, -274379.3, -6157.0913, 0.01572566, -0.13239323, -73693.24, 76859.96, 0.0, 10.001201, 9.998544 
8.350658e+2, 2.9463425e+2, 4563.349, -185796.97, 854.8272, -0.060523756, -0.19105363, 4567.1875, 57137.363, 0.0, 10.001066, 9.998544 
8.3507174e+2, 3.0463272e+2, -5517.693, -269891.2, -2576.169, -0.0829164, -0.14932218, -5492.592, -5492.592, 0.0, 10.001111, 9.997611 
8.3507955e+2, 3.146307e+2, 166540.38, 37271.03, -21040.86, 0.07344535, -0.11995003, 169878.92, 169878.92, 0.00000010288848, 10.001326, 9.999617 
8.449614e+2, 1.2463721e+2, -1658114.8, -1609071.5, 4047.5251, 0.09306588, -0.13556498, -1608739.8, 109806.82, 0.0, 10.000051, 10.0007 
8.4496695e+2, 1.346385e+2, -1599009.5, -1551017.9, 22069.025, -0.052008834, -0.059860703, -1542412.5, 78118.23, 0.0, 9.999875, 10.000513 
8.4497404e+2, 1.446381e+2, -1577649.4, -1580044.5, -15655.975, 0.025495896, -0.10847421, -1563145.3, -40610.895, 0.0, 9.999739, 9.999702 
8.449792e+2, 1.5463772e+2, -1483487.6, -1483490.1, 10997.207, -0.060874447, -0.12059179, -1472491.6, -47950.844, 0.0, 9.999711, 9.999706 
8.4498495e+2, 1.6463798e+2, -1331216.4, -1261114.5, 6466.6587, -0.09339254, -0.107882656, -1260523.0, 66015.68, 0.0, 9.999659, 10.000585 
8.449914e+2, 1.7463899e+2, -1243034.8, -1163562.0, -19493.484, -0.0391335, -0.0724941, -1159038.1, 69488.375, 0.0, 9.999574, 10.000623 
8.449975e+2, 1.8463899e+2, -1227730.0, -1234122.0, -26235.326, -0.009873656, -0.07794153, -1204496.6, -73971.08, 0.0, 9.999558, 9.999473 
8.4500325e+2, 1.9463784e+2, -1122362.6, -1135065.3, -677.441, -0.018579178, -0.14129525, -1122326.6, -89788.88, 0.0, 9.99962, 9.99945 
8.45009e+2, 2.0463733e+2, -968660.4, -975083.56, 20852.012, -0.03793805, -0.15124105, -950774.06, -16231.183, 0.0, 9.999852, 9.999764 
8.45015e+2, 2.1463755e+2, -808489.4, -843452.5, -3221.7085, -0.06591913, -0.1130247, -808195.0, 28345.168, 0.0, 10.000263, 9.999796 
8.450217e+2, 2.246372e+2, -723687.06, -804823.9, 7609.016, -0.03930542, -0.103195, -722979.7, 15563.385, 0.0, 10.0004015, 9.999323 
8.450293e+2, 2.3463623e+2, -650674.75, -718326.06, 27422.34, 0.047239684, -0.1355039, -640955.44, -403.19812, 0.0, 10.000227, 9.999328 
8.4503603e+2, 2.4463534e+2, -560972.8, -656124.75, 25422.701, 0.060403462, -0.14135322, -554606.3, -12046.001, 0.0, 10.000307, 9.999043 
8.450419e+2, 2.5463456e+2, -408397.88, -530421.3, 5905.7607, -0.0106079215, -0.12780637, -408112.72, 36454.48, 0.0, 10.000676, 9.999055 
8.4504837e+2, 2.6463336e+2, -329817.06, -521811.94, 3187.8567, -0.021656562, -0.11967324, -329764.16, 16815.107, 0.0, 10.000888, 9.99834 
8.4505546e+2, 2.7463162e+2, -225273.25, -421040.28, 12302.787, 0.037269916, -0.12868758, -224503.13, 24094.379, 0.0, 10.000935, 9.998335 
8.450617e+2, 2.8462988e+2, -94335.69, -293174.34, -4016.0835, 0.022947427, -0.14241569, -94254.61, 56359.87, 0.0, 10.001101, 9.998462 
8.450669e+2, 2.9462805e+2, 43474.496, -176382.84, -18364.115, -0.076983914, -0.17484939, 44997.85, 97628.266, 0.0, 10.001374, 9.998458 
8.4507287e+2, 3.0462614e+2, 23304.504, -284872.6, -20295.121, -0.09883035, -0.1578825, 24635.299, 24635.299, 0.00000000024035085, 10.001435, 9.997351 
8.4508085e+2, 3.1462422e+2, 141538.2, 2546.112, -16439.643, 0.08248673, -0.08849882, 143456.17, 143456.17, 0.00000026211356, 10.001251, 9.9994135 
8.5496217e+2, 1.24632224e+2, -1717416.3, -1734118.6, -3876.5286, 0.16238798, -0.091726966, -1716560.4, 2033.8611, 0.0, 10.000059, 9.999838 
8.549665e+2, 1.346319e+2, -1660163.6, -1677148.5, 14762.004, -0.078010894, -0.091910966, -1651625.5, -31027.67, 0.0, 9.999871, 9.999649 
8.549733e+2, 1.4463112e+2, -1534663.6, -1490967.4, -18252.262, -0.02311228, -0.16481987, -1484346.5, 38258.68, 0.0, 9.999737, 10.000317 
8.549794e+2, 1.5463147e+2, -1435713.5, -1388104.0, 11667.768, -0.021091256, -0.16861911, -1385398.3, 39201.82, 0.0, 9.999724, 10.000356 
8.5498524e+2, 1.646318e+2, -1376307.3, -1355367.8, 2655.0195, -0.028003842, -0.15019414, -1355036.4, -28439.576, 0.0, 9.999662, 9.999936 
8.549911e+2, 1.7463212e+2, -1291235.8, -1262745.5, -22575.666, -0.028712792, -0.11583543, -1250296.4, -21701.027, 0.0, 9.99957, 9.999944 
8.549968e+2, 1.8463224e+2, -1183703.4, -1141648.4, -25050.063, -0.034042913, -0.10343324, -1129970.3, 623.37317, 0.0, 9.999553, 10.000111 
8.550026e+2, 1.9463217e+2, -1073583.4, -1035033.25, 1957.7139, -0.04760061, -0.12798359, -1034934.1, -2342.2998, 0.0, 9.999624, 10.000134 
8.550086e+2, 2.0463173e+2, -1011011.75, -1062175.8, 34645.29, -0.062883355, -0.13879995, -993527.06, -58931.637, 0.0, 9.999848, 9.999168 
8.5501516e+2, 2.1463086e+2, -854605.5, -937719.3, 12443.054, -0.07872415, -0.14416684, -852782.6, -16177.156, 0.0, 10.000257, 9.999153 
8.550219e+2, 2.2463033e+2, -690687.25, -734327.06, 460.72192, -0.066268824, -0.14306134, -690682.4, 47927.824, 0.0, 10.000392, 9.999811 
8.550288e+2, 2.346302e+2, -613341.4, -640475.94, 21349.396, -0.021236788, -0.14462619, -601613.06, 38995.574, 0.0, 10.000225, 9.999864 
8.550359e+2, 2.4462934e+2, -593519.1, -723555.5, 37940.043, 0.01698677, -0.15517576, -583259.06, -40642.855, 0.0, 10.000305, 9.998582 
8.550432e+2, 2.546276e+2, -443864.78, -603136.75, 20336.01, 0.049167193, -0.1897043, -441309.28, 3325.4236, 0.0, 10.00067, 9.998559 
8.5504985e+2, 2.6462615e+2, -313609.56, -486661.34, 4672.091, 0.04517894, -0.18844835, -313483.53, 33165.855, 0.0, 10.000881, 9.998585 
8.5505605e+2, 2.7462512e+2, -207861.02, -382585.9, 15336.04, -0.0030432264, -0.15402664, -206525.14, 42134.563, 0.0, 10.000925, 9.998604 
8.5506237e+2, 2.846238e+2, -117738.71, -340360.22, 6568.015, -0.025355881, -0.12147281, -117545.1, 33127.98, 0.0, 10.001093, 9.998141 
8.5506886e+2, 2.9462215e+2, 17947.889, -227278.52, -6150.398, -0.01696992, -0.10512724, 18102.047, 70792.62, 0.0, 10.001365, 9.998115 
8.550749e+2, 3.0461967e+2, 26811.695, -275598.0, -26115.98, -0.039118625, -0.12958029, 29050.486, 29050.486, 0.0000000059514194, 10.001427, 9.997418 
8.550814e+2, 3.146175e+2, 143110.47, 10034.523, -22108.266, 0.0067878817, -0.09121846, 146687.23, 146687.23, 0.0000005093443, 10.001234, 9.999473 
8.649622e+2, 1.2462691e+2, -1734532.5, -1765741.9, 14751.193, 0.16036396, -0.10358333, -1728663.8, -10018.139, 0.00000000000000000000885557, 10.000047, 9.999625 
8.649665e+2, 1.3462652e+2, -1641769.9, -1691119.9, 80158.55, -0.07722908, -0.09018499, -1582574.4, 38076.934, 0.0, 10.000098, 9.999443 
8.6497307e+2, 1.4462584e+2, -1501918.0, -1475561.6, 48447.117, -0.026356969, -0.14248091, -1438532.4, 84125.82, 0.0, 9.999963, 10.000314 
8.649792e+2, 1.546263e+2, -1447498.8, -1393833.3, 26077.498, -0.010147562, -0.13613531, -1383249.0, 41402.65, 0.0, 9.999643, 10.000356 
8.64985e+2, 1.6462637e+2, -1415618.9, -1412493.5, 11800.344, -0.013082189, -0.1268721, -1402152.8, -75501.984, 0.0, 9.999554, 9.999598 
8.649908e+2, 1.7462604e+2, -1291974.9, -1301305.3, 12356.222, -0.02498118, -0.12246604, -1283432.5, -54776.188, 0.0, 9.999729, 9.999602 
8.649967e+2, 1.8462603e+2, -1115348.3, -1098138.6, 11045.806, -0.03138644, -0.11301793, -1092741.6, 37914.492, 0.0, 9.999977, 10.000204 
8.6500263e+2, 1.9462632e+2, -967169.1, -971954.6, -6915.5195, -0.033630323, -0.11065635, -962244.1, 70405.58, 0.0, 10.000304, 10.00024 
8.650089e+2, 2.046259e+2, -950720.25, -1035204.8, 16965.795, -0.04155909, -0.123155326, -947440.56, -12788.263, 0.0, 10.00027, 9.999151 
8.650154e+2, 2.1462467e+2, -921258.7, -972249.4, 40047.137, -0.056827176, -0.16142283, -899280.0, -62614.926, 0.0, 9.999808, 9.999132 
8.6502206e+2, 2.2462395e+2, -795401.7, -810140.7, 34404.82, -0.056752432, -0.16874872, -767585.94, -28914.033, 0.0, 9.999783, 9.999584 
8.6502886e+2, 2.3462375e+2, -625599.6, -672125.7, -4406.519, -0.038281687, -0.15300499, -625185.94, 15486.104, 0.0, 10.000254, 9.999632 
8.6503613e+2, 2.4462292e+2, -546994.2, -690606.3, 7727.201, -0.0007674464, -0.153765, -546579.6, -3899.7979, 0.0, 10.000581, 9.998674 
8.6504394e+2, 2.5462127e+2, -424292.84, -581740.8, 34000.03, 0.05828062, -0.18610433, -417264.44, 27432.17, 0.0, 10.000755, 9.998665 
8.650508e+2, 2.6461995e+2, -307316.7, -466808.0, 29921.662, 0.05116895, -0.19089906, -301887.97, 44822.13, 0.0, 10.000854, 9.998733 
8.6505663e+2, 2.746189e+2, -209068.3, -366647.44, 29493.996, -0.032281734, -0.1720752, -203728.84, 44990.93, 0.0, 10.000845, 9.998752 
8.650632e+2, 2.846177e+2, -163807.55, -381200.9, 28125.488, -0.041928302, -0.12677138, -160227.73, -9495.339, 0.0, 10.000857, 9.997973 
8.650705e+2, 2.946163e+2, -58645.086, -283633.6, 25486.865, 0.03239096, -0.066742726, -55794.043, -3044.8687, 0.0, 10.000924, 9.997938 
8.6507654e+2, 3.0461353e+2, -6803.7534, -260032.03, 14965.319, 0.00045423053, -0.122444175, -5922.3984, -5922.3984, 0.000000027135602, 10.00106, 9.997702 
8.65082e+2, 3.1461164e+2, 151674.73, 35149.926, 29717.793, -0.05301335, -0.091458246, 158816.13, 158816.13, 0.00000083365, 10.001201, 9.9996605 
8.749614e+2, 1.24621294e+2, -1701197.1, -1697428.1, 17052.617, 0.0689807, -0.17359106, -1682156.3, 36544.523, 0.0000000055054987, 10.000048, 10.000094 
8.749668e+2, 1.3462242e+2, -1606035.1, -1619303.3, 83183.96, -0.058133256, -0.057512756, -1529221.1, 91469.72, 0.0, 10.000106, 9.999933 
8.749735e+2, 1.4462231e+2, -1548730.4, -1573768.8, 36174.285, 0.0073454897, -0.04353863, -1522970.3, -277.20233, 0.0, 9.999968, 9.999638 
8.7497866e+2, 1.5462224e+2, -1496385.4, -1495352.5, 14461.245, -0.029085802, -0.021537658, -1481398.5, -56703.434, 0.0, 9.999643, 9.999659 
8.749842e+2, 1.6462174e+2, -1415102.3, -1411664.8, 16438.389, -0.05049855, -0.035312768, -1396855.5, -70155.055, 0.0, 9.999554, 9.999604 
8.749904e+2, 1.746208e+2, -1289469.8, -1297988.4, 19499.807, -0.033474814, -0.09224319, -1273769.5, -45060.38, 0.0, 9.999736, 9.999622 
8.7499684e+2, 1.8462032e+2, -1147989.3, -1165658.3, 22050.342, -0.008466494, -0.108038865, -1133069.5, -2356.6047, 0.0, 9.999976, 9.999742 
8.7500346e+2, 1.946203e+2, -1001046.6, -1041609.2, 5461.4424, 0.019992309, -0.08948638, -1000324.2, 32387.01, 0.0, 10.0003, 9.999764 
8.7500983e+2, 2.0461988e+2, -912561.1, -954145.9, -516.25354, 0.022165505, -0.10405703, -912554.75, 22158.262, 0.0, 10.000261, 9.999712 
8.7501574e+2, 2.1461903e+2, -879010.2, -884455.06, 22731.768, -0.0043321336, -0.16625124, -858838.44, -22119.672, 0.0, 9.999807, 9.999736 
8.750223e+2, 2.2461806e+2, -862328.7, -948450.44, 49420.68, -0.015245313, -0.18286826, -839840.75, -101112.586, 0.0, 9.999779, 9.998637 
8.750295e+2, 2.3461695e+2, -697233.44, -819524.25, 13777.104, -0.0068105375, -0.15902999, -695700.56, -54958.48, 0.0, 10.000247, 9.998624 
8.750368e+2, 2.4461614e+2, -502430.4, -596579.3, 13773.198, 0.003450731, -0.13439433, -500456.88, 42293.656, 0.0, 10.000573, 9.999324 
8.750442e+2, 2.546157e+2, -375663.4, -479212.28, 41502.64, 0.012909818, -0.11914902, -361082.25, 83670.63, 0.0, 10.000748, 9.9993725 
8.750511e+2, 2.6461464e+2, -305436.47, -461369.88, 30241.44, -0.0069935974, -0.13074097, -299776.9, 46984.703, 0.0, 10.000847, 9.998774 
8.750573e+2, 2.746129e+2, -208650.67, -363990.5, 30516.807, -0.05563145, -0.18344133, -202870.66, 45907.066, 0.0, 10.000837, 9.998775 
8.7506413e+2, 2.8461155e+2, -166444.08, -385627.84, 29516.693, -0.032320186, -0.1567571, -162538.75, -11746.466, 0.0, 10.000853, 9.997946 
8.7507176e+2, 2.946105e+2, -61808.805, -287773.03, 29494.93, 0.06742905, -0.057573467, -58022.305, -5216.16, 0.0, 10.000914, 9.997914 
8.750778e+2, 3.0460775e+2, 26490.045, -188685.33, 21700.158, 0.017066736, -0.1349222, 28656.662, 28656.662, 0.00000006425192, 10.001051, 9.998195 
8.750826e+2, 3.146063e+2, 172343.19, 82202.12, 37077.85, -0.11069748, -0.10556591, 185634.63, 185634.63, 0.0000011924308, 10.001185, 9.999991 
8.8496095e+2, 1.246162e+2, -1761702.8, -1702202.5, -37888.44, 0.04984356, -0.116693266, -1683780.0, 34973.34, 0.00000006865043, 9.999527, 10.000314 
8.8496673e+2, 1.3461715e+2, -1695497.5, -1635173.8, 5393.5938, -0.035053518, -0.04238995, -1634695.3, -13951.34, 0.0, 9.999375, 10.000176 
8.849734e+2, 1.4461704e+2, -1626228.1, -1628770.4, -24893.766, 0.029322524, -0.03499221, -1602573.0, -79827.0, 0.0, 9.999512, 9.99948 
8.849784e+2, 1.5461701e+2, -1452040.6, -1492097.9, -6165.638, -0.03399128, 0.009269579, -1451113.0, -26364.9, 0.0, 10.000028, 9.999495 
8.84984e+2, 1.6461647e+2, -1309650.0, -1365170.3, 16283.921, -0.061463233, 0.0031858978, -1305226.4, 21527.43, 0.0, 10.000299, 9.999562 
8.8499045e+2, 1.746154e+2, -1213717.9, -1267127.4, 12133.752, -0.02626526, -0.064059965, -1211090.5, 17672.709, 0.0, 10.000279, 9.999573 
8.8499707e+2, 1.8461467e+2, -1148630.6, -1192217.1, 17418.277, 0.012499752, -0.08948137, -1142525.0, -11755.892, 0.0, 10.000083, 9.99951 
8.8500375e+2, 1.9461435e+2, -1107476.6, -1118696.0, 17676.535, 0.04573649, -0.07865341, -1094541.0, -61769.777, 0.0, 9.999682, 9.999534 
8.8500994e+2, 2.046139e+2, -992667.0, -986882.2, 6180.3096, 0.042643674, -0.08702371, -982950.94, -48177.31, 0.0, 9.999687, 9.999763 
8.850157e+2, 2.1461332e+2, -823938.44, -850885.5, -12571.329, 0.00046839044, -0.12839836, -818984.44, 17791.977, 0.0, 10.000156, 9.999798 
8.8502234e+2, 2.2461233e+2, -779102.94, -914438.25, 33683.66, -0.012837151, -0.14655028, -771182.9, -32397.291, 0.0, 10.000377, 9.998583 
8.8502985e+2, 2.346109e+2, -691883.75, -823707.94, 67392.414, 0.0067789024, -0.14826712, -663529.5, -22727.42, 0.0, 10.000312, 9.998564 
8.850373e+2, 2.4461004e+2, -537070.0, -604000.06, 81415.99, 0.010000272, -0.12978368, -482509.63, 60301.195, 0.0, 10.000297, 9.999407 
8.850446e+2, 2.5460982e+2, -428615.03, -494530.22, 60656.86, -0.0076209926, -0.09983963, -392540.3, 52270.43, 0.0, 10.00034, 9.999463 
8.8505155e+2, 2.6460886e+2, -366623.16, -499626.94, 22691.66, -0.021173995, -0.10640968, -362858.3, -16039.267, 0.0, 10.0004635, 9.998696 
8.850583e+2, 2.74607e+2, -235730.19, -386003.47, 13695.396, -0.025863651, -0.16466983, -234492.22, 14344.827, 0.0, 10.000691, 9.9986925 
8.8506526e+2, 2.8460553e+2, -141124.77, -355280.44, 18821.887, -0.0076482873, -0.1507283, -139483.13, 11369.096, 0.0, 10.00095, 9.998107 
8.8507247e+2, 2.9460442e+2, -5843.261, -241925.69, 31686.871, 0.031641718, -0.072509386, -1664.2396, 51200.965, 0.0, 10.001214, 9.998085 
8.850785e+2, 3.0460164e+2, 67440.1, -146443.95, 14618.175, -0.021703932, -0.1705458, 68434.57, 68434.57, 0.00000010587227, 10.001234, 9.998398 
8.850839e+2, 3.1460086e+2, 141840.67, 65185.094, 1663.1412, -0.09367889, -0.100188725, 141876.73, 141876.73, 0.0000015115112, 10.000986, 9.9999695 
8.949608e+2, 1.2461165e+2, -1765908.6, -1711186.4, -48195.4, 0.07933662, 0.06645697, -1683127.0, 35676.277, 0.00000033567557, 9.999528, 10.000252 
8.949664e+2, 1.3461076e+2, -1699033.9, -1642398.1, -652.2009, -0.007913053, -0.040532403, -1642390.6, -21580.184, 0.00000000007521531, 9.999375, 10.000127 
8.9497304e+2, 1.4461002e+2, -1595986.3, -1568428.4, -8925.187, 0.039015245, -0.11370273, -1565790.3, -42973.54, 0.0, 9.999519, 9.999891 
8.9497846e+2, 1.5461062e+2, -1422377.4, -1432104.1, 13830.019, -0.03240402, -0.045683615, -1412580.5, 12230.055, 0.0, 10.000033, 9.999906 
8.9498436e+2, 1.6461061e+2, -1317712.5, -1382132.8, 15605.75, -0.054416742, -0.014522456, -1314131.1, 12679.481, 0.0, 10.0003, 9.999446 
8.94991e+2, 1.7460985e+2, -1222721.0, -1285787.8, 11543.692, -0.0062052323, -0.037849717, -1220674.5, 8143.636, 0.0, 10.000278, 9.999445 
8.949973e+2, 1.8460914e+2, -1148591.4, -1191884.1, 1447.838, 0.027540674, -0.056094974, -1148543.0, -17718.451, 0.0, 10.000081, 9.999513 
8.950034e+2, 1.9460848e+2, -1106436.9, -1117196.5, 2344.1218, 0.040470917, -0.078973085, -1105948.4, -73118.61, 0.0, 9.999684, 9.999543 
8.950094e+2, 2.0460795e+2, -1025324.25, -1053719.8, 20951.51, 0.016830675, -0.074008, -1014213.06, -79378.95, 0.0, 9.999682, 9.999307 
8.950154e+2, 2.1460757e+2, -858484.56, -920734.2, 5140.1924, -0.046584025, -0.047420733, -858063.0, -21225.281, 0.0, 10.000148, 9.999323 
8.9502233e+2, 2.2460681e+2, -721784.5, -793884.44, 30733.627, -0.054882277, -0.058320504, -710461.94, 28381.684, 0.0, 10.000369, 9.999414 
8.950301e+2, 2.3460564e+2, -630624.94, -695819.8, 65274.023, -0.0013458354, -0.12211074, -590261.5, 50590.605, 0.0, 10.000309, 9.999444 
8.9503765e+2, 2.4460462e+2, -571808.75, -675385.5, 82266.59, 0.015393538, -0.14237978, -526386.9, 16473.834, 0.0, 10.000293, 9.998919 
8.950449e+2, 2.5460374e+2, -466965.7, -572874.56, 63305.613, -0.0083602555, -0.12637769, -437386.66, 7483.2563, 0.0, 10.000334, 9.998929 
8.950523e+2, 2.6460257e+2, -380034.06, -526820.5, 30015.236, 0.0023044006, -0.11468705, -374133.66, -27251.65, 0.0, 10.00046, 9.998511 
8.9505976e+2, 2.746011e+2, -249763.81, -412838.53, 23534.135, 0.051545724, -0.115267165, -246435.4, 2462.018, 0.0, 10.000681, 9.998514 
8.950666e+2, 2.8459963e+2, -118746.836, -306537.97, 29900.307, 0.02796648, -0.10889356, -114101.016, 36810.934, 0.0, 10.000939, 9.998446 
8.950726e+2, 2.945981e+2, 18843.518, -189233.72, 44160.535, -0.07970832, -0.11139091, 27827.848, 80754.06, 0.0, 10.001208, 9.99845 
8.950787e+2, 3.0459526e+2, 60312.496, -161228.75, 5390.1157, -0.121863, -0.2289524, 60443.56, 60443.56, 0.00000013409642, 10.001233, 9.998297 
8.950857e+2, 3.145951e+2, 113517.71, 11040.961, -5899.453, -0.016118502, -0.08514869, 113856.22, 113856.22, 0.0000016978646, 10.000966, 9.999607 
9.0496004e+2, 1.24605455e+2, -1829678.0, -1747959.6, -14360.025, 0.07191156, 0.051197257, -1745509.6, -26645.273, 0.0000010657902, 9.999112, 10.000202 
9.04966e+2, 1.3460478e+2, -1658206.1, -1624487.9, 34970.875, -0.0018152979, -0.031149087, -1602524.4, 18345.297, 0.000000007369457, 9.999662, 10.000112 
9.049728e+2, 1.4460403e+2, -1539461.8, -1532056.8, 16773.262, 0.04878017, -0.10743311, -1518582.3, 4293.667, 0.0, 9.99987, 9.99997 
9.0497863e+2, 1.546043e+2, -1466725.9, -1445560.1, 11623.407, -0.00025071175, -0.08298627, -1440423.5, -15551.097, 0.0, 9.999692, 9.999979 
9.049847e+2, 1.646043e+2, -1415226.4, -1428515.8, 1586.8685, -0.01552927, -0.053423356, -1415039.5, -88167.46, 0.0, 9.999626, 9.999454 
9.0499115e+2, 1.7460403e+2, -1304879.5, -1323290.8, 6397.8057, 0.01578862, -0.029837254, -1302874.6, -73999.19, 0.0, 9.999708, 9.999462 
9.049973e+2, 1.8460345e+2, -1182590.6, -1211542.5, -1292.6945, 0.030119933, -0.033553485, -1182533.0, -51652.3, 0.0, 9.999865, 9.999481 
9.0500313e+2, 1.9460253e+2, -1046784.1, -1093157.5, -5029.173, 0.02253411, -0.078637876, -1046245.0, -13356.485, 0.0, 10.000114, 9.9995 
9.050092e+2, 2.0460185e+2, -950748.0, -1031002.75, 36012.137, 0.0033729728, -0.08015103, -936958.0, -2063.4028, 0.0, 10.000252, 9.999188 
9.050158e+2, 2.1460147e+2, -850594.5, -930417.25, 45006.42, -0.029195251, -0.041502398, -830351.94, 6546.8115, 0.0, 10.00026, 9.999202 
9.050228e+2, 2.246008e+2, -720536.44, -763083.25, 54748.453, -0.033584274, -0.05135796, -683073.56, 55829.816, 0.0, 10.000248, 9.999684 
9.050303e+2, 2.3459978e+2, -623581.3, -660534.9, 42834.777, -0.006972171, -0.12789923, -595408.25, 45500.24, 0.0, 10.000219, 9.999728 
9.050378e+2, 2.4459873e+2, -585647.9, -706312.5, 54017.863, 0.005024921, -0.15647706, -564999.25, -22082.068, 0.0, 10.000303, 9.998701 
9.050454e+2, 2.5459757e+2, -456953.84, -594604.3, 55915.305, 0.0016292894, -0.14280775, -437103.1, 7827.167, 0.0, 10.000519, 9.998691 
9.0505296e+2, 2.645963e+2, -348387.75, -507659.56, 43248.914, 0.014799974, -0.12938176, -337401.66, 9542.266, 0.0, 10.000662, 9.998546 
9.050604e+2, 2.7459496e+2, -240887.5, -403525.66, 51287.957, 0.045562074, -0.12294593, -226064.77, 22893.39, 0.0, 10.000719, 9.99856 
9.050674e+2, 2.8459367e+2, -125562.484, -296470.25, 63472.97, 0.020709457, -0.10892793, -104568.33, 46402.547, 0.0, 10.0008335, 9.998568 
9.0507376e+2, 2.9459232e+2, 550.28754, -183030.52, 57990.32, -0.06785961, -0.104662016, 17334.078, 70316.88, 0.0, 10.0010195, 9.998583 
9.0508e+2, 3.0458957e+2, 46073.066, -182359.73, 1141.4867, -0.11386046, -0.21804391, 46078.77, 46078.77, 0.0000001316986, 10.001199, 9.998166 
9.0508646e+2, 3.1458932e+2, 140340.4, -20611.773, -16338.16, -0.049712006, -0.06036725, 141982.13, 141982.13, 0.0000016698094, 10.00134, 9.99921 
9.1495854e+2, 1.245976e+2, -1825262.0, -1744216.1, 4227.2817, 0.011873942, -0.16577773, -1743996.1, -25059.756, 0.000002613721, 9.999133, 10.000219 
9.149654e+2, 1.3459928e+2, -1654420.0, -1616694.0, 55571.203, -0.024681142, -0.016083123, -1576871.6, 44049.53, 0.00000007607973, 9.999661, 10.000167 
9.1497266e+2, 1.4459917e+2, -1559699.9, -1573752.9, 10786.01, 0.048761442, -0.018492425, -1553853.5, -30930.67, 0.0, 9.999868, 9.999685 
9.149789e+2, 1.5459809e+2, -1486677.6, -1487281.5, 5572.5254, 0.058556702, -0.10099949, -1481398.9, -56465.895, 0.0, 9.999694, 9.999691 
9.1498506e+2, 1.6459763e+2, -1404143.3, -1407311.4, 2619.257, 0.051608983, -0.11038196, -1402666.4, -75728.914, 0.0, 9.999632, 9.999598 
9.149911e+2, 1.7459798e+2, -1293351.9, -1299994.3, 9404.148, 0.035250016, -0.03967434, -1286699.6, -57765.07, 0.0, 9.999709, 9.999622 
9.14997e+2, 1.8459766e+2, -1187446.4, -1221530.4, 6463.837, 0.015036357, -0.022259971, -1186261.6, -55324.227, 0.0, 9.999864, 9.9994135 
9.150029e+2, 1.9459656e+2, -1053021.6, -1105316.9, 4283.174, -0.012621711, -0.07764767, -1052673.3, -19725.955, 0.0, 10.000111, 9.999419 
9.150094e+2, 2.0459567e+2, -937744.2, -1002697.2, 35358.23, -0.003753146, -0.10460469, -922211.0, 12743.634, 0.0, 10.000245, 9.999387 
9.1501683e+2, 2.1459506e+2, -836087.44, -899279.7, 45195.81, 0.0485823, -0.110247746, -812538.5, 24420.79, 0.0, 10.000256, 9.999418 
9.150239e+2, 2.245943e+2, -741372.6, -805455.94, 52127.58, 0.048050538, -0.12577637, -712226.44, 26738.168, 0.0, 10.000244, 9.999395 
9.150305e+2, 2.3459336e+2, -645758.75, -705345.94, 42188.535, -0.013787067, -0.16421734, -623904.2, 17066.621, 0.0, 10.000214, 9.999425 
9.150379e+2, 2.4459241e+2, -582710.5, -699547.7, 61053.19, -0.027059417, -0.16991955, -556629.25, -13649.7, 0.0, 10.000299, 9.99875 
9.150461e+2, 2.5459138e+2, -454232.5, -587449.94, 64903.285, 0.016990492, -0.14897011, -427840.38, 17151.076, 0.0, 10.000512, 9.998743 
9.150536e+2, 2.645901e+2, -331750.3, -472272.4, 45788.59, 0.013172336, -0.15127976, -318147.13, 28857.559, 0.0, 10.000657, 9.998791 
9.1506016e+2, 2.7458858e+2, -222735.89, -365715.3, 55200.69, -0.046709236, -0.18780905, -203904.53, 45114.64, 0.0, 10.000717, 9.99882 
9.150677e+2, 2.8458762e+2, -133389.08, -311682.88, 69150.95, -0.035968125, -0.15003897, -109713.0, 41315.953, 0.0, 10.00083, 9.998466 
9.1507614e+2, 2.945871e+2, -10442.628, -201169.52, 66186.516, 0.057271503, -0.05024827, 10275.113, 63309.82, 0.0, 10.000999, 9.998468 
9.1508234e+2, 3.045845e+2, 34234.063, -204275.36, 7197.4067, -0.0047883643, -0.13687165, 34451.06, 34451.06, 0.00000009563079, 10.001185, 9.998024 
9.150864e+2, 3.145835e+2, 112204.26, -78195.375, -7187.173, -0.20089236, -0.039406694, 112475.17, 112475.17, 0.0000014046396, 10.001335, 9.998818 
9.2495733e+2, 1.24591194e+2, -1874272.9, -1764667.5, -292.8517, -0.009452201, -0.19963723, -1764666.8, -45669.313, 0.0000053718704, 9.998791, 10.000239 
9.249649e+2, 1.3459311e+2, -1701171.0, -1634529.0, 47962.125, -0.022213092, -0.031788953, -1609449.1, 11531.437, 0.00000033393198, 9.999322, 10.000207 
9.249725e+2, 1.445932e+2, -1598625.1, -1596515.0, -7284.364, 0.053623337, -0.013502236, -1590209.6, -67228.76, 0.0, 9.99962, 9.999649 
9.249788e+2, 1.5459235e+2, -1491870.6, -1492595.4, 3625.502, 0.07934162, -0.0687921, -1488589.5, -63599.92, 0.0, 9.999675, 9.999661 
9.2498493e+2, 1.6459185e+2, -1388439.1, -1386648.4, 14377.478, 0.07537762, -0.0868395, -1373138.5, -46144.184, 0.0, 9.999689, 9.999708 
9.249909e+2, 1.7459181e+2, -1291449.8, -1286991.0, 16786.473, 0.046624932, -0.06528826, -1272286.5, -43292.44, 0.0, 9.999671, 9.999729 
9.24997e+2, 1.8459144e+2, -1205338.1, -1232911.9, 21459.908, 0.022976786, -0.05767031, -1193618.0, -62620.82, 0.0, 9.999753, 9.999389 
9.25003e+2, 1.9459069e+2, -1077239.8, -1119427.3, 21373.871, -0.00035285362, -0.07625338, -1068303.8, -35299.355, 0.0, 9.999957, 9.999395 
9.2500967e+2, 2.0458989e+2, -963118.2, -1009832.6, 42047.25, 0.006667235, -0.09523938, -938376.25, -3365.1355, 0.0, 10.000051, 9.999431 
9.25017e+2, 2.1458906e+2, -868322.4, -909897.7, 37551.78, 0.050070062, -0.1261044, -846188.44, -9171.149, 0.0, 10.000013, 9.999462 
9.2502403e+2, 2.245882e+2, -774959.4, -845241.25, 46668.305, 0.045571856, -0.14535724, -751681.0, -12656.881, 0.0, 10.000116, 9.999184 
9.2503077e+2, 2.3458725e+2, -637194.4, -726036.7, 40461.023, -0.01469168, -0.1625235, -621529.5, 19502.23, 0.0, 10.0003805, 9.999202 
9.2503816e+2, 2.4458635e+2, -537451.5, -659874.1, 67268.56, -0.032030087, -0.15748681, -507712.9, 35327.285, 0.0, 10.000533, 9.99891 
9.2504644e+2, 2.545855e+2, -433403.5, -557756.06, 78454.38, 0.000043435197, -0.13653195, -395474.94, 49574.895, 0.0, 10.000569, 9.99892 
9.250541e+2, 2.645844e+2, -316213.4, -456217.84, 62097.023, -0.011326485, -0.13719876, -292640.25, 54421.1, 0.0, 10.000727, 9.998868 
9.250608e+2, 2.7458295e+2, -173073.69, -333313.03, 55871.41, -0.07230124, -0.17124952, -155516.47, 93558.414, 0.0, 10.001023, 9.998896 
9.250684e+2, 2.8458196e+2, -105942.01, -313097.75, 55724.15, -0.063101806, -0.1317048, -91903.74, 59181.266, 0.0, 10.001081, 9.998334 
9.250767e+2, 2.9458135e+2, -40140.703, -230764.08, 48221.402, 0.027998038, -0.027941247, -28636.563, 24455.768, 0.0, 10.00086, 9.998333 
9.2508334e+2, 3.0457887e+2, 12808.118, -187767.22, 15542.041, -0.012561356, -0.10965729, 14005.283, 14005.283, 0.00000004550982, 10.000922, 9.998265 
9.25088e+2, 3.1457785e+2, 114444.195, -70840.875, 28141.719, -0.16628228, -0.03698482, 118624.16, 118624.16, 0.0000009683944, 10.001325, 9.998875 
9.3495613e+2, 1.2458628e+2, -1874953.6, -1765783.6, 16872.78, -0.014380785, -0.05775778, -1763235.3, -44188.293, 0.000009857008, 9.998788, 10.000234 
9.349645e+2, 1.3458633e+2, -1700496.1, -1634967.6, 68874.2, 0.0024366076, -0.07505487, -1591461.6, 29585.4, 0.0000009955157, 9.9993305, 10.000199 
9.3497217e+2, 1.445862e+2, -1579988.0, -1562561.3, -6288.9194, 0.05910408, -0.08815765, -1560528.8, -37479.543, 0.00000000002439963, 9.999638, 9.999875 
9.3497825e+2, 1.5458718e+2, -1475630.0, -1459158.1, 5748.8325, 0.057113364, 0.015315171, -1457350.3, -32309.035, 0.0, 9.999674, 9.999893 
9.349844e+2, 1.6458704e+2, -1383969.0, -1376631.5, 12933.859, 0.04994482, 0.017760899, -1366856.1, -39814.145, 0.0, 9.999686, 9.999779 
9.349905e+2, 1.745856e+2, -1287584.3, -1278412.5, 16388.213, 0.0453861, -0.10689476, -1265980.6, -36927.46, 0.0, 9.99967, 9.999789 
9.3499696e+2, 1.8458487e+2, -1204976.8, -1232383.1, 27552.678, 0.04785767, -0.1389838, -1187907.8, -56848.395, 0.0, 9.999752, 9.999393 
9.350035e+2, 1.9458495e+2, -1075991.3, -1117254.4, 28814.191, 0.056342162, -0.07434126, -1061183.9, -28124.266, 0.0, 9.999958, 9.999411 
9.3501e+2, 2.0458454e+2, -970973.4, -1025808.94, 39200.18, 0.03245666, -0.05187157, -950554.06, -15490.349, 0.0, 10.000049, 9.999323 
9.350162e+2, 2.1458353e+2, -877292.44, -927589.9, 36206.637, -0.028447635, -0.08895366, -858357.44, -21285.047, 0.0, 10.000009, 9.999344 
9.3502325e+2, 2.2458251e+2, -786651.0, -867981.8, 54859.547, -0.046291653, -0.10978167, -759028.44, -19947.102, 0.0, 10.00011, 9.999031 
9.350311e+2, 2.3458144e+2, -649083.44, -749114.1, 50758.91, -0.013203256, -0.12326159, -627838.7, 13252.212, 0.0, 10.000373, 9.999047 
9.3503886e+2, 2.4458057e+2, -519249.66, -621099.9, 68079.87, -0.013055029, -0.11936983, -485155.72, 57943.188, 0.0, 10.000528, 9.999179 
9.350465e+2, 2.5457993e+2, -413211.44, -515202.4, 80802.695, -0.052583545, -0.106563605, -368657.9, 76447.375, 0.0, 10.000566, 9.999215 
9.3505424e+2, 2.6457912e+2, -323226.1, -469481.03, 72119.6, -0.06356946, -0.0884788, -293645.9, 53467.92, 0.0, 10.000722, 9.998779 
9.3506217e+2, 2.7457806e+2, -182972.47, -350972.06, 67893.195, -0.039122127, -0.073770575, -158965.55, 90159.5, 0.0, 10.001011, 9.998781 
9.350694e+2, 2.8457674e+2, -117357.62, -335531.44, 47790.566, -0.06656112, -0.053335585, -107348.38, 43790.297, 0.0, 10.001075, 9.998184 
9.3507576e+2, 2.945751e+2, -50367.47, -252773.28, 42042.813, -0.156327, -0.039135188, -41981.934, 11173.465, 0.0, 10.000861, 9.998182 
9.35083e+2, 3.0457264e+2, 53366.02, -102194.484, 28976.463, -0.14070337, -0.13763286, 58588.195, 58588.195, 0.000000010385675, 10.000917, 9.998855 
9.350914e+2, 3.1457236e+2, 142720.95, -4041.0532, 46099.19, 0.031718634, -0.056122106, 155999.67, 155999.67, 0.00000050425, 10.001289, 9.99935 
9.449551e+2, 1.2458004e+2, -1763022.5, -1718595.8, 2586.6772, -0.024244128, -0.01821591, -1718445.6, 662.46344, 0.000016753027, 9.999585, 10.0001745 
9.44964e+2, 1.345796e+2, -1726902.3, -1652806.5, 48224.098, 0.02932709, -0.081172846, -1629042.4, -7929.49, 0.000002343361, 9.999174, 10.000152 
9.449716e+2, 1.4457929e+2, -1656169.4, -1586943.9, -28432.105, 0.071075186, -0.115635216, -1576763.4, -53646.836, 0.0000000053592455, 9.999067, 9.99998 
9.4497764e+2, 1.545805e+2, -1515857.0, -1466380.8, -26877.82, 0.043574907, 0.0035609067, -1454589.5, -29483.777, 0.0, 9.999348, 10.0 
9.449838e+2, 1.6458055e+2, -1398958.9, -1381082.6, -28136.758, 0.029093307, 0.018204067, -1360498.5, -33393.668, 0.0, 9.999572, 9.999804 
9.4499016e+2, 1.7457922e+2, -1276675.3, -1269879.8, -29661.145, 0.035996728, -0.09901755, -1243422.4, -14306.878, 0.0, 9.999733, 9.999816 
9.449967e+2, 1.8457852e+2, -1201113.4, -1223059.9, -17212.953, 0.050643265, -0.13191558, -1191673.4, -60552.043, 0.0, 9.999751, 9.999456 
9.4500345e+2, 1.9457857e+2, -1121669.8, -1132636.5, -13199.045, 0.07171623, -0.076466106, -1112860.4, -79738.664, 0.0, 9.999617, 9.999469 
9.4501e+2, 2.0457825e+2, -1016141.94, -1048230.8, 9282.5625, 0.045124546, -0.047178272, -1013650.2, -78524.91, 0.0, 9.9997425, 9.999316 
9.4501626e+2, 2.145775e+2, -854071.4, -917388.1, 12253.401, -0.03746556, -0.057933465, -851782.75, -14650.194, 0.0, 10.000174, 9.999332 
9.450233e+2, 2.245765e+2, -745183.8, -842272.1, 39728.445, -0.061513063, -0.07668698, -730999.3, 8142.108, 0.0, 10.000369, 9.999083 
9.450314e+2, 2.3457524e+2, -657768.56, -747090.4, 49768.465, -0.017073944, -0.11549886, -635560.2, 5592.029, 0.0, 10.000288, 9.999102 
9.450393e+2, 2.4457434e+2, -551521.9, -637115.4, 66867.62, -0.02231641, -0.11888451, -514928.2, 28232.18, 0.0, 10.000309, 9.999174 
9.4504666e+2, 2.5457382e+2, -431459.13, -524545.8, 55192.44, -0.08632995, -0.093961306, -405804.9, 39360.68, 0.0, 10.0004425, 9.999209 
9.4505465e+2, 2.64573e+2, -348207.44, -498814.75, 39809.977, -0.094092906, -0.069544286, -338332.0, 8842.686, 0.0, 10.000623, 9.998627 
9.450632e+2, 2.7457178e+2, -214027.6, -383490.78, 31221.184, -0.03367813, -0.05385882, -208458.55, 40729.77, 0.0, 10.000873, 9.998625 
9.4507056e+2, 2.8457043e+2, -98688.55, -291306.9, 16205.416, -0.056852262, -0.044764735, -97334.664, 53867.547, 0.0, 10.001051, 9.9985 
9.450765e+2, 2.9456887e+2, 12735.197, -184152.58, 43717.027, -0.1789176, -0.055625856, 22005.643, 75222.26, 0.0, 10.001131, 9.998524 
9.450837e+2, 3.0456668e+2, 82290.234, -70649.234, 40306.74, -0.16232416, -0.15050682, 92262.7, 92262.7, 0.00000000032400083, 10.00104, 9.999012 
9.4509244e+2, 3.145665e+2, 66941.83, -37337.41, 19039.361, 0.045769308, -0.07630477, 70309.3, 70309.3, 0.00000016973306, 10.000756, 9.999377 
9.549544e+2, 1.24572575e+2, -1765885.9, -1732030.5, -14030.479, -0.06295788, -0.08075975, -1726971.9, -7792.034, 0.00002677623, 9.999616, 10.000069 
9.5496345e+2, 1.34573e+2, -1734121.4, -1667762.5, 32500.967, 0.054238215, -0.04858334, -1654496.4, -33319.35, 0.0000047533053, 9.999171, 10.0000515 
9.5497084e+2, 1.445725e+2, -1659265.6, -1591515.5, -19477.828, 0.083960295, -0.09556586, -1586314.9, -63132.54, 0.000000046136613, 9.99906, 9.999952 
9.549769e+2, 1.545724e+2, -1517684.5, -1470227.5, -15428.904, 0.03428754, -0.10494921, -1465652.4, -40469.637, 0.0, 9.999348, 9.999973 
9.549832e+2, 1.6457246e+2, -1399961.9, -1384830.4, -22783.281, 0.0070047476, -0.08516153, -1368389.5, -41207.3, 0.0, 9.999577, 9.999777 
9.549897e+2, 1.7457274e+2, -1277421.5, -1272264.8, -23326.39, 0.015318981, -0.0407746, -1251374.6, -22194.459, 0.0, 9.999735, 9.999799 
9.549962e+2, 1.8457247e+2, -1192777.9, -1206359.0, -23304.678, 0.027295772, -0.034396537, -1175294.6, -44112.008, 0.0, 9.999752, 9.999571 
9.550028e+2, 1.9457161e+2, -1114110.4, -1116675.6, -18358.25, 0.042034723, -0.082039565, -1096990.0, -63799.816, 0.0, 9.999615, 9.99958 
9.550097e+2, 2.045711e+2, -1011461.44, -1037622.25, 23214.908, 0.039862644, -0.08098671, -997895.5, -62700.137, 0.0, 9.999737, 9.999392 
9.55017e+2, 2.14571e+2, -849082.8, -905789.9, 28510.709, 0.019226866, -0.03371829, -837227.1, -29.525028, 0.0, 10.000168, 9.999416 
9.550243e+2, 2.2457024e+2, -728215.56, -805321.1, 35737.55, -0.0040915, -0.0458535, -714199.44, 25004.621, 0.0, 10.000361, 9.99934 
9.550316e+2, 2.3456872e+2, -639337.9, -708453.8, 47057.625, -0.030445201, -0.1394983, -615512.0, 25703.512, 0.0, 10.000285, 9.99937 
9.5503914e+2, 2.4456766e+2, -571654.75, -678227.56, 70928.484, -0.06441324, -0.15726262, -536226.5, 6997.857, 0.0, 10.000306, 9.998894 
9.5504695e+2, 2.5456718e+2, -454349.13, -570500.7, 61006.313, -0.10659597, -0.09702417, -428195.66, 17034.662, 0.0, 10.000436, 9.998898 
9.550551e+2, 2.6456603e+2, -363246.34, -529242.1, 48469.367, -0.10748713, -0.07682965, -350130.1, -2886.7776, 0.0, 10.000618, 9.99842 
9.5506376e+2, 2.7456415e+2, -228589.94, -412314.53, 42116.367, -0.060109142, -0.11110307, -219395.47, 29868.768, 0.0, 10.000865, 9.998431 
9.550718e+2, 2.84563e+2, -47165.348, -181166.0, 19567.703, -0.039934002, -0.1073393, -44366.4, 106909.01, 0.0, 10.001038, 9.999263 
9.550789e+2, 2.945627e+2, 66329.78, -68455.695, 48075.44, -0.052482102, -0.0760461, 81720.06, 134995.81, 0.0, 10.001113, 9.999328 
9.550855e+2, 3.0456105e+2, 63540.05, -107512.984, 29220.957, -0.086781524, -0.1456799, 68394.12, 68394.12, 0.0, 10.001029, 9.998765 
9.5509154e+2, 3.1456023e+2, 38120.246, -95680.91, 11935.132, -0.12917349, -0.10069148, 39176.527, 39176.527, 0.000000027453995, 10.000749, 9.9989805 
9.649539e+2, 1.24565005e+2, -1814623.1, -1755955.8, -40251.75, -0.05836338, -0.12348738, -1735483.1, -16229.862, 0.000040530904, 9.999287, 10.00006 
9.6496254e+2, 1.3456598e+2, -1723153.1, -1664840.5, 7366.5903, 0.04528874, -0.033513885, -1663924.3, -42679.086, 0.000008656152, 9.999259, 10.000028 
9.6496975e+2, 1.4456545e+2, -1619721.1, -1568070.3, -20769.246, 0.056961793, -0.08399429, -1560754.9, -37504.383, 0.00000019058375, 9.999313, 9.9999895 
9.6497643e+2, 1.5456477e+2, -1500956.1, -1457201.0, -14009.745, 0.0472246, -0.15500994, -1453099.6, -27844.092, 0.0, 9.999443, 10.000015 
9.649829e+2, 1.6456476e+2, -1424441.8, -1404508.9, -25759.24, 0.030892653, -0.14311308, -1386855.3, -59599.06, 0.0, 9.999446, 9.999702 
9.649892e+2, 1.745655e+2, -1343304.0, -1312339.9, -32108.475, 0.013244527, -0.04316668, -1292175.8, -62924.46, 0.0, 9.999321, 9.9997225 
9.649957e+2, 1.8456544e+2, -1220881.5, -1200958.4, -25415.334, 0.008068556, -0.020460537, -1183622.1, -52370.055, 0.0, 9.999478, 9.99974 
9.650023e+2, 1.9456445e+2, -1049131.9, -1064527.3, -16587.266, 0.014592906, -0.0980572, -1038543.2, -5283.786, 0.0, 9.999973, 9.999764 
9.6500945e+2, 2.0456387e+2, -968093.25, -1030027.7, 18064.762, 0.024029257, -0.10798903, -963209.3, -27944.174, 0.0, 10.000093, 9.999271 
9.6501714e+2, 2.1456377e+2, -916222.94, -953112.06, 5712.772, 0.037645083, -0.049234524, -915358.5, -78089.55, 0.0, 9.999772, 9.999282 
9.650246e+2, 2.2456321e+2, -786917.1, -805808.94, 11935.27, 0.020364666, -0.045598604, -781142.1, -41868.258, 0.0, 9.999839, 9.999589 
9.6503186e+2, 2.3456211e+2, -609508.4, -664158.7, 20970.344, -0.034431066, -0.12001348, -602389.06, 38891.2, 0.0, 10.0003605, 9.999637 
9.650395e+2, 2.445611e+2, -538376.8, -679230.6, 42845.92, -0.07455962, -0.14182766, -526367.56, 16921.227, 0.0, 10.0006075, 9.998741 
9.650475e+2, 2.5456017e+2, -451937.53, -587858.56, 42040.18, -0.09609961, -0.11111745, -439985.53, 5314.191, 0.0, 10.000534, 9.998731 
9.650557e+2, 2.645589e+2, -366604.7, -506744.72, 54685.797, -0.09963544, -0.10531776, -347790.84, -477.1541, 0.0, 10.000493, 9.998635 
9.650642e+2, 2.7455726e+2, -269950.38, -406082.63, 78127.94, -0.082693905, -0.13785188, -234397.16, 14933.782, 0.0, 10.000468, 9.998665 
9.650724e+2, 2.8455627e+2, -141490.13, -242006.7, 39151.85, -0.052521363, -0.121728666, -128040.0, 23300.498, 0.0, 10.000456, 9.9991255 
9.650802e+2, 2.9455605e+2, -34804.55, -134571.56, -5226.86, -0.0061267414, -0.06427086, -34531.46, 18810.143, 0.0, 10.000493, 9.999172 
9.650869e+2, 3.0455458e+2, 43609.17, -122129.2, -43819.85, -0.050048836, -0.106874, 54481.555, 54481.555, 0.0, 10.0009165, 9.998719 
9.6509224e+2, 3.1455374e+2, 177879.63, -40184.242, -45248.344, -0.18597828, -0.0638963, 186895.88, 186895.88, 0.00000000015790982, 10.0017605, 9.998876 
9.749535e+2, 1.2455735e+2, -1808191.6, -1740799.0, -36970.21, -0.028996574, -0.15078685, -1724473.0, -5144.9346, 0.000058506626, 9.999279, 10.000168 
9.7496134e+2, 1.345586e+2, -1718768.1, -1656954.6, 7870.722, -0.0028463053, -0.036474407, -1655968.1, -34651.613, 0.00001444443, 9.999264, 10.000079 
9.749683e+2, 1.445582e+2, -1612376.8, -1554527.3, -16384.47, -0.017529668, -0.08049934, -1550209.1, -26888.969, 0.0000005546723, 9.99932, 10.00008 
9.749762e+2, 1.545577e+2, -1494037.9, -1443276.3, -8321.0625, 0.078329146, -0.14506288, -1441947.0, -16623.668, 0.0, 9.999444, 10.000112 
9.7498304e+2, 1.6455749e+2, -1433233.1, -1422859.3, -31336.906, 0.09585315, -0.15329592, -1396282.9, -68956.81, 0.0, 9.999446, 9.9995775 
9.7498864e+2, 1.7455755e+2, -1353279.3, -1332951.0, -36706.76, 0.0267574, -0.10512051, -1305027.1, -75698.88, 0.0, 9.99932, 9.999582 
9.7499496e+2, 1.8455747e+2, -1205077.5, -1167925.1, -9013.048, -0.011957913, -0.090291806, -1165854.1, -34524.832, 0.0, 9.999476, 9.999968 
9.75002e+2, 1.9455715e+2, -1031898.4, -1028450.4, 2040.3763, -0.014334344, -0.12529652, -1027503.2, 5825.846, 0.0, 9.99997, 10.000014 
9.750092e+2, 2.0455661e+2, -990732.9, -1076036.3, 5576.429, -0.006872975, -0.1283957, -990369.9, -55035.57, 0.0, 10.000089, 9.998959 
9.7501665e+2, 2.1455581e+2, -940515.5, -1003199.44, -6448.8164, 0.014122485, -0.10403848, -939858.9, -102512.805, 0.0, 9.99977, 9.9989395 
9.7502434e+2, 2.2455543e+2, -771528.1, -772677.56, 28940.783, 0.007645148, -0.07682483, -743156.4, -3805.8496, 0.0, 9.999833, 9.999819 
9.750322e+2, 2.3455556e+2, -593173.06, -627886.5, 40965.016, -0.03227916, -0.05675418, -566039.44, 75306.67, 0.0, 10.00035, 9.99989 
9.7504026e+2, 2.4455473e+2, -541138.56, -682938.6, 39911.305, -0.056434788, -0.07085718, -530676.9, 12676.216, 0.0, 10.000598, 9.998721 
9.750484e+2, 2.5455278e+2, -454672.3, -592273.0, 39974.69, -0.060635556, -0.13771662, -443902.16, 1471.4976, 0.0, 10.000527, 9.998704 
9.7505647e+2, 2.6455152e+2, -324026.84, -416874.56, 53812.777, -0.0763406, -0.15900823, -299380.38, 48005.598, 0.0, 10.000486, 9.999255 
9.7506446e+2, 2.7455112e+2, -225154.84, -312383.4, 78408.234, -0.10669535, -0.13462622, -179047.02, 70341.37, 0.0, 10.000465, 9.99931 
9.750724e+2, 2.845503e+2, -212282.4, -390030.7, 39589.598, -0.098855, -0.085114375, -203863.44, -52466.33, 0.0, 10.000459, 9.998109 
9.7508025e+2, 2.945491e+2, -111908.06, -293483.22, -1783.3132, -0.044881888, -0.019483479, -111890.555, -58476.875, 0.0, 10.000486, 9.998085 
9.750877e+2, 3.0454737e+2, 50180.125, -105156.34, -12441.997, -0.057404194, -0.035728794, 51170.38, 51170.38, 0.0, 10.0009, 9.998844 
9.7509444e+2, 3.1454685e+2, 183824.39, -20327.625, -9042.434, -0.14174813, 0.02035396, 184224.13, 184224.13, 0.0, 10.001727, 9.999028 
9.84953e+2, 1.2454999e+2, -1780803.3, -1711600.8, -27541.207, -0.0101717, -0.1394878, -1701977.9, 17422.256, 0.00008108169, 9.999399, 10.000309 
9.849607e+2, 1.345509e+2, -1660361.5, -1618663.4, 9783.594, -0.013454554, -0.07029974, -1616482.0, 4909.357, 0.000022462764, 9.9996195, 10.000171 
9.849673e+2, 1.445506e+2, -1585669.5, -1542769.4, -25141.799, -0.059346467, -0.107982635, -1531170.8, -7776.6206, 0.0000013019285, 9.999507, 10.000071 
9.849753e+2, 1.5455082e+2, -1559050.1, -1474788.4, -26839.404, 0.067331836, -0.10042761, -1466965.6, -41573.87, 0.0, 9.999001, 10.000108 
9.8498225e+2, 1.6455072e+2, -1496455.6, -1441522.5, -29562.445, 0.09853435, -0.100065686, -1428636.3, -101242.92, 0.0, 9.998961, 9.999682 
9.84988e+2, 1.7455024e+2, -1321817.3, -1305354.3, -17208.57, 0.022688197, -0.12020127, -1294509.8, -65110.168, 0.0, 9.999482, 9.999693 
9.8499453e+2, 1.8454997e+2, -1171918.1, -1161712.9, 12133.414, -0.017711245, -0.12410697, -1153652.9, -22250.74, 0.0, 9.999746, 9.999881 
9.8500174e+2, 1.9454998e+2, -1075847.0, -1060054.5, -3905.9148, -0.018225292, -0.118280455, -1059141.4, -25741.314, 0.0, 9.999713, 9.999921 
9.8500913e+2, 2.0454954e+2, -1007678.06, -1067858.1, -1693.872, -0.0137601895, -0.11363483, -1007630.44, -72226.22, 0.0, 9.999901, 9.999105 
9.850165e+2, 2.1454857e+2, -843935.56, -938622.56, 21945.908, -0.0026587355, -0.122186534, -839096.44, -1680.4932, 0.0, 10.000356, 9.9991 
9.850243e+2, 2.245481e+2, -712728.4, -777397.3, 57490.2, -0.005080835, -0.09826648, -679103.44, 60317.977, 0.0, 10.0003805, 9.999522 
9.850325e+2, 2.3454823e+2, -682689.9, -706348.1, 25063.72, -0.023739329, -0.044394936, -666804.06, -25384.727, 0.0, 9.999889, 9.999574 
9.8504066e+2, 2.4454753e+2, -629915.56, -696494.06, 20963.729, -0.03770639, -0.04201386, -623864.6, -80438.67, 0.0, 9.999865, 9.9989805 
9.8504895e+2, 2.545458e+2, -455944.44, -561127.06, 42179.375, -0.046863023, -0.11565873, -441119.53, 4323.669, 0.0, 10.000381, 9.998988 
9.850571e+2, 2.6454476e+2, -287207.16, -391756.56, 42744.113, -0.06667624, -0.13349228, -271956.28, 75496.53, 0.0, 10.000708, 9.999321 
9.8506516e+2, 2.7454457e+2, -168185.84, -278373.97, 21425.453, -0.09883254, -0.092786424, -164166.4, 85286.73, 0.0, 10.000831, 9.999367 
9.85073e+2, 2.8454363e+2, -146178.25, -380072.1, -7804.5396, -0.10930862, -0.049784765, -145918.11, 5545.1685, 0.0, 10.00101, 9.9979105 
9.850806e+2, 2.9454187e+2, -21180.373, -272930.88, 14125.724, -0.09284301, -0.016972028, -20390.258, 33095.047, 0.0, 10.00121, 9.997876 
9.850884e+2, 3.0454e+2, 85810.305, -80814.625, 41396.906, -0.0857445, -0.037667383, 95528.32, 95528.32, 0.0, 10.001118, 9.998905 
9.850962e+2, 3.1453958e+2, 40784.746, -84525.766, 32380.283, -0.08389902, 0.018717233, 48657.242, 48657.242, 0.0, 10.000725, 9.999069 
9.949523e+2, 1.2454299e+2, -1769472.3, -1690100.6, -11902.8545, -0.021195153, -0.09477016, -1688354.1, 31115.316, 0.000108580556, 9.999408, 10.000453 
9.949605e+2, 1.3454293e+2, -1651824.4, -1601865.8, 19092.682, 0.010155195, -0.1344771, -1595404.8, 26064.303, 0.000033028722, 9.999622, 10.000285 
9.949667e+2, 1.4454271e+2, -1592692.0, -1558068.5, -44086.395, -0.07335261, -0.1647398, -1528016.8, -4544.8486, 0.0000026281716, 9.999509, 9.999966 
9.949737e+2, 1.5454419e+2, -1566307.6, -1490173.1, -45388.1, 0.009344969, -0.02099711, -1469002.0, -43541.766, 0.00000000019976186, 9.999001, 10.000003 
9.949805e+2, 1.6454454e+2, -1472937.5, -1392252.5, -12665.377, 0.032488618, 0.015180083, -1390311.0, -62853.797, 0.0, 9.998959, 10.000022 
9.9498725e+2, 1.7454357e+2, -1296527.6, -1253312.5, 2741.184, -0.0037081367, -0.088778965, -1253139.4, -23674.496, 0.0, 9.999483, 10.000051 
9.949943e+2, 1.8454301e+2, -1200022.1, -1220441.3, 10278.214, -0.015080347, -0.121139206, -1195744.6, -64274.613, 0.0, 9.999747, 9.999477 
9.9500173e+2, 1.9454297e+2, -1106661.9, -1123989.3, -5526.8955, -0.00015292327, -0.07577729, -1105049.1, -71577.28, 0.0, 9.999713, 9.999483 
9.9500924e+2, 2.0454268e+2, -966016.4, -980144.44, 12838.194, -0.00022269737, -0.06354569, -958427.06, -22952.645, 0.0, 9.999895, 9.99971 
9.950168e+2, 2.1454205e+2, -799239.94, -843701.94, 38779.047, -0.01653121, -0.10414089, -776771.6, 60706.504, 0.0, 10.000346, 9.999756 
9.9502456e+2, 2.2454123e+2, -770913.06, -896524.6, 38918.48, -0.021944486, -0.109639555, -759832.4, -20346.168, 0.0, 10.000372, 9.998709 
9.950324e+2, 2.3454022e+2, -744457.25, -834633.94, 6933.197, -0.013438899, -0.08323674, -743927.3, -102427.8, 0.0, 9.999888, 9.998693 
9.9504066e+2, 2.4453953e+2, -593635.94, -620425.8, 38422.31, -0.024017608, -0.05733805, -566340.6, -22833.473, 0.0, 9.999861, 9.999505 
9.9504924e+2, 2.5453928e+2, -415502.38, -475863.44, 62847.105, -0.058071226, -0.0441763, -375964.72, 69543.24, 0.0, 10.000376, 9.999577 
9.950578e+2, 2.6453868e+2, -322050.03, -463682.9, 47367.508, -0.07328931, -0.02573989, -307668.75, 39844.766, 0.0, 10.000705, 9.99883 
9.9506634e+2, 2.7453765e+2, -208057.64, -357920.75, 27267.836, -0.0667991, -0.011264924, -203250.42, 46274.29, 0.0, 10.000815, 9.998829 
9.950742e+2, 2.8453624e+2, -106934.484, -293493.25, 241.4314, -0.09272476, -0.017297272, -106934.17, 44604.758, 0.0, 10.000988, 9.998515 
9.9508125e+2, 2.9453442e+2, 24127.639, -176643.02, 24178.033, -0.1552113, -0.05815372, 26998.262, 80554.85, 0.0, 10.001202, 9.998541 
9.95089e+2, 3.045326e+2, 84291.15, -84725.36, 27325.436, -0.13866557, -0.11114317, 88599.14, 88599.14, 0.0, 10.001119, 9.998879 
9.950975e+2, 3.1453195e+2, 30789.746, -99329.0, 21909.063, -0.026121045, -0.06464952, 34379.69, 34379.69, 0.0, 10.000699, 9.9989805 
1.0049518e+3, 1.2453599e+2, -1755190.5, -1689255.0, 13048.009, -0.015887981, -0.080781095, -1686766.8, 32771.375, 0.00014134821, 9.999529, 10.000403 
1.00496e+3, 1.3453586e+2, -1806760.9, -1686460.6, 15972.214, 0.05135929, -0.11848289, -1684376.1, -62837.137, 0.000046426092, 9.998603, 10.000197 
1.0049659e+3, 1.4453556e+2, -1722173.6, -1621097.6, -24290.254, -0.05917706, -0.15368736, -1615563.3, -92020.17, 0.00000474816, 9.998625, 9.999958 
1.00497276e+3, 1.5453677e+2, -1456189.3, -1438207.8, -20146.926, -0.023141239, -0.033054207, -1425136.5, 397.35883, 0.000000004412824, 9.99976, 9.999994 
1.0049796e+3, 1.645372e+2, -1298991.5, -1306019.1, -4489.0537, -0.016933655, 0.0077474057, -1296804.6, 30725.754, 0.0, 10.00014, 10.000045 
1.0049865e+3, 1.7453663e+2, -1272775.8, -1238044.6, -15603.482, -0.035571802, -0.05773886, -1232064.3, -2530.3823, 0.0, 9.99963, 10.000084 
1.0049937e+3, 1.8453617e+2, -1250707.0, -1258777.5, -5784.705, -0.03034448, -0.076589316, -1247689.1, -116150.74, 0.0, 9.99946, 9.999352 
1.00500144e+3, 1.9453582e+2, -1116958.6, -1143581.0, 417.60434, -0.0011827792, -0.048935525, -1116952.0, -83408.06, 0.0, 9.999705, 9.9993515 
1.0050091e+3, 2.0453544e+2, -964563.94, -966570.3, 19616.457, 0.0054697585, -0.043107774, -945925.0, -10377.817, 0.0, 9.999851, 9.999824 
1.00501694e+3, 2.1453503e+2, -858853.44, -858591.9, 4505.35, -0.0131538045, -0.07461186, -854215.44, -16667.842, 0.0, 9.999877, 9.99988 
1.0050248e+3, 2.2453412e+2, -816075.1, -934512.6, 1423.7675, -0.017802292, -0.08994855, -816058.0, -76501.836, 0.0, 10.000134, 9.998562 
1.0050328e+3, 2.3453258e+2, -642031.6, -803163.4, 20265.096, -0.006928442, -0.09884227, -639522.0, 2052.7292, 0.0, 10.00067, 9.998532 
1.005041e+3, 2.4453174e+2, -472869.7, -565055.8, 59002.273, -0.013728797, -0.080996476, -444090.6, 99493.36, 0.0, 10.000703, 9.999478 
1.00504965e+3, 2.545317e+2, -451952.84, -494883.72, 36525.184, -0.041673932, -0.040047627, -431052.56, 14529.239, 0.0, 10.000135, 9.999559 
1.0050583e+3, 2.6453105e+2, -441463.84, -546185.4, 17003.943, -0.05890143, -0.018338399, -438772.03, -91183.66, 0.0, 9.999995, 9.998602 
1.0050669e+3, 2.7452952e+2, -293734.56, -425733.28, 17993.209, -0.06446468, -0.031459164, -291325.8, -41720.184, 0.0, 10.000342, 9.9985895 
1.005075e+3, 2.8452808e+2, -140884.16, -265394.8, -5396.7207, -0.088358, -0.045423057, -140650.67, 10969.273, 0.0, 10.000564, 9.998911 
1.0050824e+3, 2.9452682e+2, -24485.72, -152314.94, -2847.2842, -0.13185951, -0.07068523, -24422.332, 29208.281, 0.0, 10.000664, 9.998966 
1.0050902e+3, 3.045254e+2, 54084.336, -81459.43, -11599.942, -0.121371984, -0.1153408, 55069.902, 55069.902, 0.0, 10.000834, 9.999038 
1.0050982e+3, 3.1452468e+2, 87831.836, -56979.363, -3454.164, -0.044628777, -0.09244525, 87914.18, 87914.18, 0.0, 10.001027, 9.999112 
1.0149514e+3, 1.2452903e+2, -1770047.4, -1719431.9, -8062.5522, -0.015666703, -0.10080136, -1718178.6, 1427.6144, 0.0001798155, 9.999527, 10.000196 
1.01495914e+3, 1.3452978e+2, -1826336.4, -1726721.9, -18013.262, 0.10410378, -0.022704562, -1723564.6, -101963.95, 0.000062927356, 9.998601, 9.999923 
1.0149649e+3, 1.445292e+2, -1716659.4, -1609826.1, 14503.291, -0.02353389, -0.07547298, -1607892.3, -84284.95, 0.000007860604, 9.998624, 10.000037 
1.0149724e+3, 1.5452869e+2, -1449896.9, -1426340.3, 23423.121, -0.035559423, -0.13681069, -1411900.8, 13711.25, 0.000000028517778, 9.9997635, 10.000074 
1.0149794e+3, 1.6452874e+2, -1318792.8, -1348804.1, -22158.564, -0.056338012, -0.12143201, -1307037.0, 20574.95, 0.0, 10.000147, 9.999748 
1.0149857e+3, 1.745295e+2, -1293715.9, -1281790.3, -35068.633, -0.0766738, -0.026486551, -1252181.1, -22575.115, 0.0, 9.999631, 9.9997835 
1.0149928e+3, 1.8452948e+2, -1239867.0, -1236270.0, 377.87146, -0.06776331, 0.008787528, -1236230.8, -104623.85, 0.0, 9.999458, 9.999508 
1.0150009e+3, 1.9452856e+2, -1104922.6, -1118170.4, 9364.621, -0.026450135, -0.038901456, -1100076.0, -66459.92, 0.0, 9.999702, 9.999528 
1.0150089e+3, 2.045279e+2, -991464.6, -1021687.44, 19249.041, -0.0022773067, -0.052434314, -982104.0, -46481.953, 0.0, 9.999847, 9.999448 
1.01501696e+3, 2.1452759e+2, -887527.94, -917520.0, 5396.3516, 0.0030770907, -0.03343298, -886586.5, -48962.766, 0.0, 9.999874, 9.999477 
1.01502515e+3, 2.245268e+2, -782504.4, -862884.8, 19189.14, 0.0016669746, -0.039486956, -778158.4, -38527.523, 0.0, 10.000125, 9.999058 
1.0150334e+3, 2.3452538e+2, -604744.6, -724675.3, 40717.29, -0.007442875, -0.09087075, -592227.3, 49417.336, 0.0, 10.000665, 9.999074 
1.01504184e+3, 2.4452417e+2, -513630.72, -648863.75, 38295.523, -0.00995031, -0.110272616, -503539.2, 40116.773, 0.0, 10.000698, 9.998905 
1.0150502e+3, 2.5452322e+2, -496271.38, -586336.9, 15804.785, -0.0042995443, -0.101709194, -493578.44, -47914.2, 0.0, 10.000132, 9.998934 
1.0150586e+3, 2.6452187e+2, -439958.16, -541228.0, 28956.508, -0.03111471, -0.111770704, -432263.2, -84585.99, 0.0, 9.999987, 9.998641 
1.01506695e+3, 2.7452013e+2, -288463.53, -414926.66, 33541.258, -0.096263066, -0.15271142, -280118.25, -30422.75, 0.0, 10.000342, 9.998664 
1.01507545e+3, 2.845192e+2, -129388.56, -242607.88, -835.09784, -0.100891314, -0.13163823, -129382.4, 22323.402, 0.0, 10.0005665, 9.999067 
1.015084e+3, 2.9451916e+2, -16796.932, -131546.7, 2973.167, -0.033666782, -0.04888172, -16719.95, 36986.793, 0.0, 10.000641, 9.999121 
1.01509176e+3, 3.0451843e+2, 74323.26, -32204.201, -3705.3135, -0.045464247, -0.047682926, 74451.984, 74451.984, 0.0, 10.000804, 9.999391 
1.0150982e+3, 3.1451762e+2, 111404.33, -4161.499, 7703.46, -0.15054491, -0.075913474, 111915.57, 111915.57, 0.0, 10.001012, 9.999481 
1.02495104e+3, 1.24521844e+2, -1833507.8, -1754276.9, -28387.426, 0.023485092, -0.10372873, -1745156.0, -25478.023, 0.00022439056, 9.999113, 10.0001545 
1.0249579e+3, 1.3452283e+2, -1716924.8, -1685226.1, -45287.48, 0.075601585, 0.0075280187, -1653094.8, -31423.74, 0.0000828242, 9.999399, 9.999823 
1.0249634e+3, 1.4452232e+2, -1612433.8, -1556713.0, 17035.367, -0.07303485, -0.033574283, -1551917.5, -28240.88, 0.000012107546, 9.999325, 10.000064 
1.0249718e+3, 1.5452155e+2, -1588140.3, -1488449.0, 21467.666, -0.018940309, -0.12405295, -1484022.6, -58339.99, 0.00000009714164, 9.998796, 10.0001135 
1.0249791e+3, 1.6452144e+2, -1530847.8, -1470424.6, -28693.703, -0.01966329, -0.120682985, -1458970.0, -131285.81, 0.0, 9.998777, 9.999573 
1.02498524e+3, 1.7452206e+2, -1342495.0, -1326862.4, -35049.656, -0.07431648, -0.018839289, -1298768.0, -69087.57, 0.0, 9.999389, 9.999592 
1.0249923e+3, 1.8452196e+2, -1179393.5, -1204037.1, 10468.31, -0.0834343, 0.015991144, -1175547.1, -43864.707, 0.0, 9.999861, 9.999535 
1.0250006e+3, 1.94521e+2, -1031690.25, -1078363.1, 7998.6074, -0.042460658, -0.039654598, -1030357.56, 3333.3755, 0.0, 10.000186, 9.999567 
1.0250088e+3, 2.0452024e+2, -941983.5, -1027363.94, 5922.339, -0.016629478, -0.052884568, -941574.7, -5876.754, 0.0, 10.000316, 9.999182 
1.0250168e+3, 2.1451972e+2, -857374.1, -934268.94, -1256.9337, -0.008826303, -0.02485801, -857353.56, -19650.602, 0.0, 10.0002165, 9.999196 
1.02502525e+3, 2.2451897e+2, -759584.44, -828388.6, 20288.564, -0.00490046, -0.022335382, -754047.44, -14337.5625, 0.0, 10.000182, 9.999267 
1.025034e+3, 2.3451792e+2, -652501.3, -721239.75, 18035.35, -0.0056478926, -0.06147188, -648056.6, -6337.589, 0.0, 10.000225, 9.999308 
1.02504246e+3, 2.4451673e+2, -571267.94, -703338.94, 2272.947, 0.0000035482103, -0.07916095, -571228.8, -27498.814, 0.0, 10.000421, 9.998664 
1.0250508e+3, 2.5451535e+2, -419779.66, -579433.0, 3457.6028, 0.012411744, -0.084412284, -419704.8, 26038.525, 0.0, 10.000786, 9.998666 
1.0250591e+3, 2.6451385e+2, -320620.66, -461073.47, 36333.5, -0.015890881, -0.10616741, -311778.28, 35979.395, 0.0, 10.00071, 9.998842 
1.0250671e+3, 2.7451226e+2, -308088.94, -398191.3, 49519.39, -0.092154376, -0.15618151, -286194.03, -36421.145, 0.0, 10.000098, 9.998894 
1.02507584e+3, 2.8451145e+2, -231986.58, -313239.03, 22402.018, -0.093915306, -0.12888058, -226219.48, -74437.414, 0.0, 9.999955, 9.998876 
1.02508485e+3, 2.945114e+2, -71481.81, -181628.44, -806.24194, -0.006730009, -0.022032106, -71475.914, -17691.613, 0.0, 10.000368, 9.998907 
1.0250927e+3, 3.045107e+2, 54094.79, -42929.348, -32383.625, -0.029115725, -0.0038338746, 63910.418, 63910.418, 0.0, 10.0006695, 9.99938 
1.0250988e+3, 3.145098e+2, 81367.78, -20732.498, -53856.957, -0.18172234, -0.042376015, 104524.7, 104524.7, 0.0, 10.0008135, 9.999464 
1.03495084e+3, 1.2451451e+2, -1827084.3, -1740578.4, -2110.6338, 0.08684846, -0.09014771, -1740526.9, -20774.271, 0.00027553758, 9.999112, 10.000249 
1.0349562e+3, 1.3451508e+2, -1711758.0, -1675449.9, -33732.145, -0.04108966, -0.027639326, -1655297.0, -33547.93, 0.000106410545, 9.999402, 9.999888 
1.0349613e+3, 1.44515e+2, -1613569.5, -1560085.9, -2356.383, -0.2157661, -0.026506444, -1559982.3, -36231.94, 0.000017580353, 9.999329, 10.00004 
1.0349711e+3, 1.5451548e+2, -1588931.8, -1489690.6, 1878.9213, 0.02308921, 0.0058173197, -1489655.0, -63910.05, 0.00000023822265, 9.998795, 10.000106 
1.034979e+3, 1.6451532e+2, -1534876.6, -1479576.8, -9116.1045, 0.089799, 0.009715187, -1478112.8, -150366.28, 0.0, 9.998779, 9.999511 
1.03498496e+3, 1.745144e+2, -1347720.4, -1337922.8, -11887.199, -0.033110436, -0.034727298, -1329964.5, -100207.99, 0.0, 9.999389, 9.9995165 
1.0349922e+3, 1.8451367e+2, -1186876.4, -1219940.4, 21698.947, -0.08375808, -0.05344965, -1176129.3, -44365.285, 0.0, 9.999862, 9.999426 
1.03500076e+3, 1.945132e+2, -1039501.4, -1093979.9, 19879.918, -0.052332148, -0.049925108, -1033018.4, 749.3097, 0.0, 10.000183, 9.999462 
1.0350089e+3, 2.0451248e+2, -954420.56, -1051850.0, 1201.4379, -0.041291825, -0.044257615, -954405.75, -18631.39, 0.0, 10.000309, 9.999018 
1.0350167e+3, 2.1451147e+2, -869484.75, -958795.7, -5174.897, -0.052360926, -0.05027354, -869185.9, -31401.018, 0.0, 10.000213, 9.99903 
1.03502505e+3, 2.245107e+2, -765250.44, -839195.3, 20003.348, -0.04173899, -0.03766773, -760186.0, -20393.203, 0.0, 10.000177, 9.999195 
1.0350342e+3, 2.3451023e+2, -657737.2, -731697.56, 20129.363, -0.005310826, -0.011406758, -652613.6, -10816.107, 0.0, 10.000221, 9.999239 
1.035043e+3, 2.4450941e+2, -567289.75, -692862.1, 15177.519, 0.010884589, 0.008668865, -565481.4, -21675.47, 0.0, 10.00041, 9.998741 
1.0350515e+3, 2.545082e+2, -413940.8, -567160.8, 18701.535, 0.004575652, 0.0095146205, -411691.2, 34127.555, 0.0, 10.000784, 9.998752 
1.03505984e+3, 2.6450703e+2, -297172.7, -412349.1, 15041.6045, -0.01679678, -0.0018085749, -295240.72, 52588.746, 0.0, 10.000709, 9.999178 
1.03506766e+3, 2.7450588e+2, -284837.28, -348317.25, 27507.18, -0.05797923, -0.040560417, -274576.4, -24738.764, 0.0, 10.00009, 9.999242 
1.0350759e+3, 2.8450474e+2, -268871.9, -386955.7, 36397.305, -0.07385958, -0.03835759, -258554.52, -106705.625, 0.0, 9.999943, 9.998375 
1.0350847e+3, 2.9450357e+2, -108103.79, -258548.67, 18105.863, -0.05581938, 0.0043588886, -105955.45, -52091.992, 0.0, 10.000372, 9.998378 
1.0350928e+3, 3.0450228e+2, 27835.637, -100031.19, -24543.59, -0.07689172, 0.012106106, 32384.842, 32384.842, 0.0, 10.000678, 9.998985 
1.0351e+3, 3.1450135e+2, 48883.688, -82928.805, -43783.77, -0.15085883, 0.01171468, 62101.723, 62101.723, 0.0, 10.00079, 9.999049 
1.0449498e+3, 1.245075e+2, -1886765.0, -1759591.9, 10157.518, 0.0903434, -0.019726872, -1758785.6, -38961.145, 0.0003338259, 9.998657, 10.000338 
1.0449555e+3, 1.3450737e+2, -1784187.0, -1701650.4, -40643.773, -0.017052745, -0.034276932, -1684996.5, -63169.918, 0.00013404706, 9.998866, 9.999967 
1.0449607e+3, 1.4450729e+2, -1643056.0, -1574242.6, -17887.29, -0.19093037, -0.03848265, -1569870.8, -46043.227, 0.000024406929, 9.999127, 10.000038 
1.0449701e+3, 1.545082e+2, -1498980.1, -1447723.6, -17277.955, 0.011288204, 0.041841973, -1442443.4, -16625.49, 0.0000004785213, 9.999415, 10.000095 
1.04497805e+3, 1.6450812e+2, -1422386.5, -1427440.8, -10010.703, 0.06958728, 0.0527223, -1414588.9, -86770.164, 0.0, 9.999559, 9.999493 
1.04498446e+3, 1.7450678e+2, -1324117.9, -1328041.0, -9203.171, -0.026029926, -0.032186083, -1316669.5, -86837.32, 0.0, 9.999557, 9.999502 
1.04499206e+3, 1.8450591e+2, -1243608.0, -1260852.0, 21646.883, -0.06359793, -0.059854828, -1228929.3, -97088.35, 0.0, 9.999534, 9.999301 
1.0450007e+3, 1.9450559e+2, -1148222.9, -1160749.4, 16704.383, -0.039096918, -0.027225908, -1136646.1, -102802.586, 0.0, 9.999501, 9.999331 
1.0450089e+3, 2.0450486e+2, -1037022.5, -1086157.8, 8822.123, -0.040079646, -0.018811997, -1035486.5, -99636.07, 0.0, 9.99972, 9.999065 
1.0450167e+3, 2.1450365e+2, -860360.2, -947521.4, 18135.242, -0.069582306, -0.051514547, -856737.44, -18874.883, 0.0, 10.000249, 9.999089 
1.04502514e+3, 2.2450282e+2, -739743.1, -845314.0, 38581.402, -0.063217685, -0.038150106, -727146.4, 12724.755, 0.0, 10.000432, 9.99903 
1.04503416e+3, 2.345025e+2, -673930.06, -759363.56, 27481.266, -0.014825894, 0.020392777, -665853.7, -23978.32, 0.0, 10.000196, 9.999061 
1.04504324e+3, 2.445017e+2, -608743.94, -705631.3, 29965.938, 0.011244905, 0.04835502, -600224.94, -56340.918, 0.0, 10.0000925, 9.998806 
1.045052e+3, 2.5450036e+2, -501668.84, -599839.94, 31983.117, 0.011389793, 0.02891479, -492168.47, -46270.574, 0.0, 10.000142, 9.998835 
1.04506046e+3, 2.6449934e+2, -355061.5, -442938.7, 3524.3967, -0.004382928, 0.027747065, -354920.4, -7012.9204, 0.0, 10.000324, 9.999151 
1.0450682e+3, 2.7449858e+2, -202544.08, -312396.0, -13891.62, -0.041334536, 0.03402681, -200814.61, 49097.535, 0.0, 10.00067, 9.9992075 
1.0450763e+3, 2.8449732e+2, -146407.17, -330892.66, 8143.6694, -0.06960255, 0.026155073, -146048.39, 5875.789, 0.0, 10.000796, 9.998349 
1.045085e+3, 2.9449537e+2, -73045.62, -243842.23, 24150.453, -0.0825821, -0.007082433, -69696.44, -15751.826, 0.0, 10.000624, 9.998356 
1.0450932e+3, 3.0449387e+2, 4874.271, -118066.49, 11560.42, -0.10054494, -0.017246934, 5951.8804, 5951.8804, 0.0, 10.000552, 9.99892 
1.04510084e+3, 3.1449333e+2, 19365.686, -105469.305, 15846.444, -0.13116457, 0.02884824, 21345.81, 21345.81, 0.0, 10.000623, 9.998974 
1.05494775e+3, 1.2450084e+2, -1880654.8, -1746058.5, 36129.24, 0.015790401, 0.104091264, -1736973.6, -17080.477, 0.00039971265, 9.998652, 10.000433 
1.054956e+3, 1.344998e+2, -1776639.3, -1687168.8, -31534.596, 0.14677899, -0.011648387, -1677171.3, -55268.617, 0.00016604259, 9.99887, 10.000066 
1.05496176e+3, 1.4449924e+2, -1641585.8, -1572801.1, -7666.295, -0.00014142484, -0.069925636, -1571957.1, -48049.527, 0.000032768716, 9.999134, 10.000046 
1.05496876e+3, 1.5449987e+2, -1500430.0, -1449939.3, -6015.4624, -0.060127053, -0.01639458, -1449232.5, -23331.799, 0.0000008393984, 9.999412, 10.000082 
1.054976e+3, 1.6449994e+2, -1420692.3, -1424453.4, -10812.35, -0.08876766, 0.010069587, -1411598.1, -83698.12, 0.0, 9.99956, 9.999513 
1.0549837e+3, 1.7449929e+2, -1321670.5, -1323230.1, -9322.986, -0.05679278, -0.010282441, -1313094.8, -83188.164, 0.0, 9.9995575, 9.999536 
1.0549919e+3, 1.844987e+2, -1253419.0, -1281611.4, 18836.797, -0.026988303, -0.0033936177, -1243988.0, -112075.4, 0.0, 9.999534, 9.999159 
1.0550005e+3, 1.944982e+2, -1159192.5, -1183532.9, 15182.676, -0.006644785, 0.02641361, -1151904.4, -117986.34, 0.0, 9.9995, 9.999176 
1.0550089e+3, 2.0449741e+2, -1019317.56, -1048780.3, 26143.756, -0.01797163, 0.024027608, -1004040.44, -68114.97, 0.0, 9.999716, 9.999324 
1.055017e+3, 2.1449627e+2, -841518.0, -907268.7, 38060.67, -0.06471847, -0.02839811, -824100.2, 13835.314, 0.0, 10.000242, 9.999369 
1.0550254e+3, 2.2449538e+2, -759496.25, -884881.1, 29702.42, -0.07437457, -0.02525007, -752815.94, -12871.431, 0.0, 10.000424, 9.998762 
1.0550342e+3, 2.3449475e+2, -694080.6, -802157.3, 18849.037, -0.037875667, 0.03290191, -690887.6, -48935.305, 0.0, 10.000198, 9.998766 
1.0550432e+3, 2.4449362e+2, -605300.8, -698302.4, 30704.895, -0.003310863, 0.041261826, -596078.06, -52114.047, 0.0, 10.000092, 9.9988575 
1.05505235e+3, 2.544919e+2, -497408.88, -590013.25, 34794.48, 0.028551487, -0.023608502, -485792.6, -39812.28, 0.0, 10.000136, 9.998906 
1.0550609e+3, 2.6449078e+2, -382691.63, -497838.0, 16002.077, 0.016807184, -0.017956996, -380509.16, -32517.662, 0.0, 10.000313, 9.99878 
1.0550688e+3, 2.7449045e+2, -230191.05, -369573.53, 1331.3094, -0.048642874, 0.0646546, -230178.34, 19817.746, 0.0, 10.000669, 9.9988165 
1.0550769e+3, 2.8448918e+2, -118902.56, -273039.2, 3455.419, -0.08763362, 0.06392879, -118825.14, 33182.38, 0.0, 10.0007925, 9.998748 
1.0550854e+3, 2.9448688e+2, -44737.598, -181751.86, 19461.15, -0.09162651, -0.049918517, -42027.01, 12000.18, 0.0, 10.0006075, 9.998791 
1.0550938e+3, 3.044855e+2, 22128.285, -78865.64, 13586.381, -0.103984796, -0.0852629, 23924.086, 23924.086, 0.0, 10.000537, 9.999198 
1.05510145e+3, 3.1448573e+2, 39378.51, -63825.65, 22355.887, -0.13517396, 0.009319843, 44013.08, 44013.08, 0.0, 10.000622, 9.999261 
1.0649464e+3, 1.2449256e+2, -1919012.3, -1734125.1, 34019.53, 0.041390445, 0.10421479, -1728064.3, -8088.216, 0.00047318285, 9.998263, 10.000701 
1.06495485e+3, 1.3449205e+2, -1851844.8, -1691333.0, -40439.39, 0.1699083, 0.012918062, -1681720.4, -59741.11, 0.00020250746, 9.998214, 10.000354 
1.06496096e+3, 1.4449167e+2, -1731057.0, -1623454.4, 5977.868, 0.032987062, -0.039957434, -1623123.4, -99141.24, 0.000042863663, 9.998552, 9.999978 
1.064968e+3, 1.544918e+2, -1519877.9, -1468419.0, 232.62056, -0.06694694, -0.029729176, -1468417.9, -42436.97, 0.0000013547858, 9.99932, 9.999998 
1.06497556e+3, 1.6449177e+2, -1392038.0, -1414031.8, -24343.623, -0.10250616, -0.004810573, -1376322.6, -48341.383, 0.0, 9.999776, 9.999478 
1.06498376e+3, 1.7449158e+2, -1277362.5, -1305218.1, -29859.713, -0.037459973, 0.022679666, -1258342.1, -28358.52, 0.0, 9.999877, 9.999504 
1.06499195e+3, 1.8449104e+2, -1180966.9, -1243749.9, 4753.8413, -0.0058090915, 0.03613776, -1180608.9, -48620.188, 0.0, 10.000019, 9.999185 
1.0650002e+3, 1.9449016e+2, -1050174.8, -1127739.3, 13595.559, -0.023846276, 0.024578396, -1047860.75, -13863.535, 0.0, 10.000235, 9.999205 
1.06500864e+3, 2.0448928e+2, -951573.2, -1026980.75, 21407.83, -0.03903513, 0.016496029, -945919.5, -9913.89, 0.0, 10.000229, 9.999227 
1.06501736e+3, 2.1448842e+2, -889862.9, -942106.06, 2697.5894, -0.047732558, 0.0016126052, -889724.0, -51710.016, 0.0, 9.999961, 9.999265 
1.06502585e+3, 2.2448754e+2, -807728.56, -900417.8, -5976.075, -0.053171247, 0.010508528, -807344.9, -67321.97, 0.0, 10.000061, 9.998831 
1.0650344e+3, 2.344867e+2, -627871.5, -760674.3, 9777.927, -0.054623805, 0.03736329, -627155.44, 14876.928, 0.0, 10.000614, 9.99885 
1.0650432e+3, 2.4448548e+2, -512561.2, -646407.1, 23850.236, -0.03300676, 0.031263717, -508438.28, 35605.848, 0.0, 10.000699, 9.99892 
1.0650524e+3, 2.5448388e+2, -481786.22, -575582.75, 24597.898, 0.015810136, -0.029239392, -475726.9, -29668.176, 0.0, 10.000215, 9.998967 
1.0650612e+3, 2.644827e+2, -433751.06, -546718.44, 30314.752, 0.018416757, -0.023101276, -426130.22, -78059.336, 0.0, 10.000065, 9.998565 
1.0650694e+3, 2.7448213e+2, -300932.47, -428817.63, 26691.344, -0.034594014, 0.0569404, -295585.22, -45505.75, 0.0, 10.000292, 9.998591 
1.0650778e+3, 2.844809e+2, -161798.0, -273324.4, 14926.93, -0.07284928, 0.06246872, -159834.7, -7743.8364, 0.0, 10.000411, 9.998929 
1.0650859e+3, 2.9447892e+2, -56346.1, -164735.52, 11739.72, -0.09275369, -0.036526766, -55089.14, -983.3299, 0.0, 10.000431, 9.998991 
1.06509425e+3, 3.0447757e+2, 22245.355, -79715.76, -3450.4314, -0.10700467, -0.077948906, 22361.986, 22361.986, 0.0, 10.000543, 9.999188 
1.0651023e+3, 3.1447762e+2, 46227.87, -62531.13, -21926.0, -0.1171808, 0.0034527543, 50481.805, 50481.805, 0.0, 10.00068, 9.999241 
1.0749458e+3, 1.2448274e+2, -1888980.4, -1672179.8, 46381.746, 0.15523176, -0.02163618, -1662673.8, 57398.535, 0.00055371417, 9.998266, 10.001124 
1.0749518e+3, 1.3448422e+2, -1820298.4, -1623571.1, -41401.285, 0.045454428, 0.039400164, -1615213.3, 6842.1733, 0.00024334127, 9.998204, 10.000824 
1.07495815e+3, 1.4448468e+2, -1741627.1, -1644534.1, 33354.332, -0.101343594, 0.05337603, -1634180.1, -110129.91, 0.00005483326, 9.998548, 9.999836 
1.0749679e+3, 1.5448405e+2, -1531106.4, -1492543.3, 29790.74, -0.012399361, 0.003923862, -1476338.6, -50281.043, 0.000002073113, 9.999323, 9.999831 
1.07497655e+3, 1.644837e+2, -1397036.6, -1426349.9, -20775.537, 0.025427336, 0.008071502, -1386268.1, -58206.07, 0.0000000000166348, 9.9997835, 9.999391 
1.0749842e+3, 1.744837e+2, -1283770.1, -1318807.6, -25924.914, 0.02846499, 0.06558275, -1269999.8, -39937.094, 0.0, 9.999878, 9.999411 
1.074992e+3, 1.8448302e+2, -1167806.6, -1216581.3, 10983.288, -0.0062685786, 0.06005802, -1165447.5, -33379.063, 0.0, 10.000018, 9.999372 
1.0749997e+3, 1.9448154e+2, -1036425.75, -1098461.5, 21416.404, -0.09461962, -0.031583898, -1029750.5, 4329.974, 0.0, 10.000231, 9.999408 
1.0750082e+3, 2.0448053e+2, -984504.75, -1094482.9, 10329.263, -0.10701901, -0.041293353, -983543.0, -47452.65, 0.0, 10.000223, 9.998766 
1.07501745e+3, 2.144801e+2, -924770.7, -1014376.4, -7798.9697, -0.022845581, 0.03722449, -924097.0, -85999.38, 0.0, 9.999958, 9.998771 
1.0750265e+3, 2.244794e+2, -779725.4, -841648.44, 11726.049, -0.004246117, 0.06972333, -777579.25, -37473.48, 0.0, 10.000057, 9.999237 
1.0750349e+3, 2.3447838e+2, -596939.94, -695213.94, 31061.15, -0.06825036, 0.03424878, -587945.75, 54169.313, 0.0, 10.0006075, 9.999304 
1.07504345e+3, 2.4447735e+2, -508738.94, -637016.75, 6797.258, -0.08146666, 0.016720798, -508379.78, 35744.363, 0.0, 10.000691, 9.998989 
1.0750521e+3, 2.544763e+2, -478035.63, -568763.8, 7125.551, -0.031508047, 0.009362964, -477479.4, -31346.396, 0.0, 10.000217, 9.999013 
1.07506104e+3, 2.6447508e+2, -438545.88, -557106.1, 37809.285, -0.0037130541, 0.011356366, -427514.72, -79369.29, 0.0, 10.000066, 9.998493 
1.07507005e+3, 2.7447364e+2, -307001.3, -440095.38, 36721.285, -0.0031126656, 0.0132797295, -297542.03, -47380.04, 0.0, 10.000284, 9.998518 
1.0750785e+3, 2.844724e+2, -165201.7, -277850.5, 15509.305, -0.030280897, 0.022496684, -163105.42, -10931.375, 0.0, 10.0004, 9.998904 
1.07508644e+3, 2.9447144e+2, -57357.113, -166912.5, 14935.371, -0.09384954, 0.027814016, -55357.516, -1176.9397, 0.0, 10.00043, 9.998978 
1.0750947e+3, 3.044701e+2, 52.911743, -125763.5, 3217.4358, -0.11544371, -0.0004166554, 135.13579, 135.13579, 0.0, 10.000541, 9.998874 
1.0751033e+3, 3.1446916e+2, 21063.787, -111879.195, -12947.132, -0.08676634, 0.015700538, 22312.953, 22312.953, 0.0, 10.000666, 9.998909 
1.0849442e+3, 1.24473915e+2, -1826456.1, -1657747.3, 74624.94, 0.14092445, -0.051992703, -1629476.0, 90682.23, 0.00064071716, 9.998765, 10.000982 
1.08495e+3, 1.3447551e+2, -1677408.4, -1566240.0, -72104.87, -0.00587296, 0.031079892, -1530781.9, 91359.17, 0.00028839763, 9.999235, 10.00072 
1.08495705e+3, 1.4447618e+2, -1628930.8, -1594162.6, -13461.889, -0.10430895, 0.07352441, -1589559.6, -65425.375, 0.00006873226, 9.999342, 9.999797 
1.08496755e+3, 1.5447566e+2, -1588180.5, -1524507.0, -10991.903, 0.029748967, 0.04000142, -1522662.9, -96521.93, 0.0000030594845, 9.998952, 9.99979 
1.0849764e+3, 1.6447519e+2, -1499614.1, -1475797.3, -43496.67, 0.06756513, 0.034421843, -1442608.3, -114461.87, 0.000000000186287, 9.99908, 9.99939 
1.084984e+3, 1.744748e+2, -1286968.4, -1319758.8, -42728.98, 0.018195812, 0.05261009, -1257597.1, -27446.86, 0.0, 9.999856, 9.9994135 
1.0849919e+3, 1.8447407e+2, -1139024.1, -1198941.9, -21260.95, -0.023629954, 0.03957267, -1132246.6, -90.1266, 0.0, 10.000202, 9.999404 
1.0850001e+3, 1.9447291e+2, -1063481.8, -1107556.1, -25577.0, -0.06670511, -0.022043727, -1051757.6, -17591.816, 0.0, 10.00003, 9.999441 
1.0850087e+3, 2.0447206e+2, -1003890.5, -1092954.8, -22575.287, -0.069790386, -0.02261706, -998495.1, -62321.016, 0.0, 10.000045, 9.998861 
1.08501755e+3, 2.1447158e+2, -867996.44, -976042.6, 2293.953, -0.021532925, 0.040377896, -867947.75, -29766.627, 0.0, 10.000301, 9.998868 
1.0850265e+3, 2.2447082e+2, -747865.3, -826680.4, 35224.95, -0.013843402, 0.06262237, -734416.9, 5772.666, 0.0, 10.0002775, 9.999233 
1.0850353e+3, 2.3446974e+2, -698260.0, -745327.7, 17492.668, -0.058492273, 0.023360163, -692470.9, -50271.105, 0.0, 9.999917, 9.999292 
1.0850439e+3, 2.4446884e+2, -600690.06, -678426.3, -24395.072, -0.07427953, 0.018289374, -593668.6, -49460.527, 0.0, 10.000047, 9.999016 
1.08505234e+3, 2.5446817e+2, -395279.84, -525086.8, -26472.195, -0.053218763, 0.04449275, -390088.8, 56125.008, 0.0, 10.000771, 9.999046 
1.0850611e+3, 2.64467e+2, -302084.13, -477813.4, 2037.9384, -0.032589626, 0.04756498, -302060.5, 46164.7, 0.0, 10.000947, 9.998612 
1.0850703e+3, 2.744653e+2, -271250.22, -409426.47, 13356.729, -0.013834264, 0.009950881, -269970.97, -19727.492, 0.0, 10.000473, 9.998637 
1.0850789e+3, 2.8446406e+2, -189245.78, -301005.2, 5498.198, -0.028863749, 0.016918493, -188975.94, -36720.086, 0.0, 10.000283, 9.9988 
1.0850869e+3, 2.9446343e+2, -71016.96, -186740.98, -4548.824, -0.0844059, 0.067355685, -70838.43, -16577.605, 0.0, 10.000395, 9.998858 
1.0850953e+3, 3.04462e+2, 5721.8394, -115955.05, -1475.305, -0.10791778, 0.03153232, 5739.7246, 5739.7246, 0.0, 10.00055, 9.998936 
1.0851039e+3, 3.144607e+2, 48537.84, -88318.54, 8847.036, -0.0943791, 0.0068077263, 49107.383, 49107.383, 0.0, 10.000812, 9.999 
1.0949414e+3, 1.2446616e+2, -1876933.4, -1761044.8, 102671.305, -0.014914917, 0.012248696, -1701095.4, 19137.531, 0.000734217, 9.998759, 10.000276 
1.0949493e+3, 1.3446599e+2, -1724751.1, -1666830.0, -52619.95, 0.01182893, -0.010428842, -1635727.4, -13492.365, 0.00033773432, 9.999245, 10.000026 
1.0949577e+3, 1.4446624e+2, -1623077.6, -1584263.0, -27331.291, 0.019781549, 0.02088603, -1570149.5, -45915.918, 0.0000845864, 9.9993515, 9.999861 
1.0949667e+3, 1.544667e+2, -1582857.6, -1512797.5, -25405.402, 0.05474447, 0.07776347, -1504554.8, -78324.4, 0.0000043925156, 9.998949, 9.999872 
1.09497495e+3, 1.6446634e+2, -1494187.8, -1464103.1, -17595.04, 0.017222848, 0.07491186, -1455996.9, -127763.1, 0.0000000006358386, 9.999077, 9.999472 
1.0949829e+3, 1.7446496e+2, -1280989.0, -1307776.4, -13260.466, -0.072905, -0.015306828, -1275535.1, -45289.547, 0.0, 9.999857, 9.9994955 
1.0949917e+3, 1.8446422e+2, -1147716.6, -1216975.9, -27611.139, -0.06445589, -0.02594648, -1138056.5, -5804.0337, 0.0, 10.000201, 9.99928 
1.0950013e+3, 1.9446433e+2, -1073121.3, -1126909.5, -32442.045, 0.05530137, 0.051959477, -1057875.4, -23622.535, 0.0, 10.000027, 9.9993105 
1.0950101e+3, 2.0446393e+2, -959215.75, -999723.3, -15567.987, 0.068198614, 0.07290364, -953923.94, -17667.537, 0.0, 10.000041, 9.999505 
1.0950177e+3, 2.1446289e+2, -820686.5, -876772.5, 11951.384, -0.0476555, 0.012393879, -818246.0, 20017.88, 0.0, 10.000296, 9.999553 
1.0950261e+3, 2.2446187e+2, -778019.06, -888421.75, 20962.354, -0.086032666, -0.00944865, -774172.9, -33899.215, 0.0, 10.000273, 9.998812 
1.0950355e+3, 2.3446083e+2, -732057.44, -815458.75, 3915.0093, -0.029746383, 0.003943351, -731874.06, -89587.77, 0.0, 9.999916, 9.998811 
1.09504454e+3, 2.4446002e+2, -601982.56, -680770.0, 147.09776, -0.015665945, 0.03546988, -601982.3, -57686.645, 0.0, 10.000045, 9.9990015 
1.09505326e+3, 2.5445953e+2, -395525.84, -522914.25, 1755.0703, -0.053876434, 0.07607889, -395501.7, 50799.016, 0.0, 10.000758, 9.999068 
1.09506175e+3, 2.644586e+2, -283132.78, -435559.22, -13908.69, -0.07283478, 0.08526521, -281874.0, 66435.77, 0.0, 10.000933, 9.99891 
1.0950702e+3, 2.7445716e+2, -249672.1, -364342.4, -2906.2302, -0.070456825, 0.04592116, -249598.48, 725.1353, 0.0, 10.000471, 9.998948 
1.0950787e+3, 2.8445593e+2, -203189.53, -329687.47, 9333.206, -0.07104534, 0.04568457, -202504.63, -50168.67, 0.0, 10.000281, 9.998605 
1.0950874e+3, 2.9445493e+2, -88682.01, -220153.4, 2023.3748, -0.070621856, 0.08154703, -88650.875, -34304.586, 0.0, 10.00038, 9.998636 
1.09509595e+3, 3.0445325e+2, 32234.697, -57692.145, 7243.032, -0.09208155, 0.017473543, 32814.34, 32814.34, 0.0, 10.000535, 9.999344 
1.0951042e+3, 3.1445232e+2, 82421.836, -17177.873, 22219.125, -0.1498504, -0.01931243, 87153.76, 87153.76, 0.0, 10.000806, 9.999491 
1.1049398e+3, 1.244573e+2, -1932204.1, -1793290.6, 53495.75, -0.03709043, 0.06188112, -1775077.3, -54756.684, 0.00083503575, 9.998406, 10.000223 
1.1049484e+3, 1.3445671e+2, -1830117.4, -1717650.3, -58972.125, 0.025589606, -0.0026755794, -1692398.1, -70071.28, 0.0003918232, 9.998519, 10.000028 
1.1049574e+3, 1.4445676e+2, -1684916.0, -1614599.9, -12472.696, 0.08171411, 0.008567076, -1612453.0, -88126.125, 0.000102570426, 9.998929, 9.999857 
1.1049657e+3, 1.5445715e+2, -1490312.5, -1468532.1, -20828.098, 0.031627838, 0.059574265, -1455919.0, -29595.525, 0.0000061708192, 9.999588, 9.999867 
1.104974e+3, 1.6445681e+2, -1366336.0, -1383426.4, -4411.974, -0.026952378, 0.05120337, -1365264.3, -36938.332, 0.0000000015512864, 9.999875, 9.9996395 
1.10498294e+3, 1.7445555e+2, -1285650.9, -1290074.1, 5905.123, -0.05985313, -0.04436844, -1281556.8, -51220.855, 0.0, 9.999741, 9.999672 
1.104992e+3, 1.8445495e+2, -1216020.4, -1264171.9, -12229.311, -0.031048851, -0.046205103, -1213092.5, -80750.586, 0.0, 9.999794, 9.999153 
1.1050015e+3, 1.9445518e+2, -1072911.3, -1143200.1, -19888.037, 0.06120682, 0.058410626, -1067674.1, -33331.594, 0.0, 10.000098, 9.999164 
1.1050103e+3, 2.0445476e+2, -912987.1, -968720.56, -17952.738, 0.061550457, 0.08189087, -907704.9, 28641.799, 0.0, 10.000321, 9.999582 
1.105018e+3, 2.1445353e+2, -791949.06, -852914.9, -37206.06, -0.048813045, -0.00636666, -774333.1, 64021.86, 0.0, 10.000451, 9.999642 
1.10502645e+3, 2.2445248e+2, -744191.56, -880230.2, -50539.742, -0.086623706, -0.03028887, -727470.7, 12893.851, 0.0, 10.000542, 9.998737 
1.1050356e+3, 2.3445168e+2, -640197.7, -780864.8, -40028.48, -0.03671959, 0.0131720025, -629604.8, 12770.913, 0.0, 10.000589, 9.998724 
1.1050447e+3, 2.4445087e+2, -537188.6, -639473.9, -11669.265, -0.026795713, 0.044985034, -535874.2, 8511.09, 0.0, 10.000447, 9.99909 
1.1050535e+3, 2.5445008e+2, -486087.38, -556220.7, -6044.95, -0.068197235, 0.049114686, -485570.16, -39177.332, 0.0, 10.000092, 9.999161 
1.10506214e+3, 2.644492e+2, -402588.88, -479210.66, -32738.24, -0.08785297, 0.053241502, -390506.16, -42104.754, 0.0, 10.000053, 9.999034 
1.10507056e+3, 2.7444828e+2, -253633.13, -352250.9, -37540.1, -0.080960035, 0.05006292, -240969.23, 9441.52, 0.0, 10.000384, 9.999073 
1.105079e+3, 2.8444728e+2, -177525.31, -308887.88, -23266.12, -0.08157235, 0.06511927, -173526.31, -21105.533, 0.0, 10.000423, 9.998679 
1.10508755e+3, 2.9444623e+2, -120212.96, -227689.2, -11496.203, -0.08954213, 0.087567724, -118997.02, -64565.18, 0.0, 10.000131, 9.998704 
1.10509634e+3, 3.0444443e+2, 1638.5746, -67264.73, 16089.54, -0.098235264, 0.005877987, 5210.4634, 5210.4634, 0.0, 10.000303, 9.99939 
1.1051055e+3, 3.1444377e+2, 120003.44, 10886.547, -2211.7568, -0.11144568, -0.010204922, 120048.25, 120048.25, 0.0, 10.001022, 9.99958 
1.1149392e+3, 1.2444736e+2, -1888845.4, -1703557.4, 57666.375, 0.06685134, 0.09191749, -1687076.1, 33345.227, 0.000944546, 9.998407, 10.000838 
1.1149469e+3, 1.3444774e+2, -1781702.3, -1616596.1, -52346.242, 0.03045675, 0.05443144, -1601398.9, 21016.887, 0.00045159098, 9.998515, 10.000724 
1.1149563e+3, 1.4444782e+2, -1689341.3, -1623404.1, 11386.743, 0.07496955, 0.03697877, -1621493.1, -97079.78, 0.00012308804, 9.998926, 9.999798 
1.1149645e+3, 1.5444711e+2, -1496946.6, -1483257.1, 4427.939, -0.045766883, -0.013646452, -1481949.8, -55530.18, 0.000008505592, 9.999591, 9.999764 
1.1149735e+3, 1.6444668e+2, -1347954.9, -1346377.0, -9613.004, -0.07231309, -0.036787894, -1337520.6, -9098.246, 0.0000000033697685, 9.99988, 9.999892 
1.1149838e+3, 1.7444667e+2, -1266235.1, -1250103.3, 800.6347, 0.053852297, -0.035011698, -1250063.6, -19642.982, 0.0, 9.999742, 9.999947 
1.11499295e+3, 1.844463e+2, -1225591.0, -1284094.1, -3368.197, 0.07232531, -0.020402426, -1225397.8, -92973.59, 0.0, 9.999793, 9.999018 
1.1150005e+3, 1.9444552e+2, -1084684.4, -1167437.6, -8538.551, -0.052722927, -0.0011314367, -1083812.5, -49378.164, 0.0, 10.000096, 9.998999 
1.11500904e+3, 2.0444462e+2, -948603.7, -1041732.75, -14699.73, -0.09499406, 0.005164011, -946338.56, -9894.193, 0.0, 10.000318, 9.9990835 
1.11501865e+3, 2.1444355e+2, -828899.9, -927790.3, -32776.6, -0.029607717, -0.016595565, -819022.8, 19431.164, 0.0, 10.000443, 9.999131 
1.11502774e+3, 2.2444275e+2, -726584.7, -842150.94, -50244.32, -0.020584663, -0.0005948432, -707795.1, 32666.771, 0.0, 10.000534, 9.999003 
1.1150358e+3, 2.3444232e+2, -619435.7, -735908.5, -37835.99, -0.08252943, 0.051481888, -608223.94, 34243.473, 0.0, 10.000581, 9.999038 
1.1150443e+3, 2.4444143e+2, -526208.44, -614922.56, -25129.086, -0.11179861, 0.049065255, -519584.94, 24891.47, 0.0, 10.000439, 9.999264 
1.1150532e+3, 2.5443992e+2, -475175.9, -533334.56, -18497.457, -0.10015471, -0.034492407, -469791.28, -23301.537, 0.0, 10.00009, 9.999318 
1.1150622e+3, 2.6443893e+2, -406796.25, -487300.56, -21676.637, -0.0817317, -0.04724971, -401330.66, -52830.984, 0.0, 10.00005, 9.99898 
1.1150712e+3, 2.7443865e+2, -260578.67, -362468.13, -23715.771, -0.053293392, 0.02064088, -255329.06, -4824.3843, 0.0, 10.000366, 9.999011 
1.1150796e+3, 2.8443816e+2, -156416.55, -261745.03, -33587.004, -0.0694919, 0.07411532, -146617.92, 5892.231, 0.0, 10.000407, 9.999011 
1.1150871e+3, 2.944374e+2, -94033.984, -175379.83, -20079.275, -0.14454557, 0.08905152, -89347.63, -34830.74, 0.0, 10.000138, 9.999061 
1.1150963e+3, 3.0443558e+2, -19824.07, -113829.99, 41426.37, -0.1287978, 0.0007890264, -4173.8394, -4173.8394, 0.0, 10.000311, 9.999067 
1.1151077e+3, 3.1443506e+2, 95329.33, -34206.004, 28316.563, 0.003985955, 0.03771497, 101248.84, 101248.84, 0.0, 10.000995, 9.999285 
1.1249381e+3, 1.2443693e+2, -1914030.4, -1706564.6, 76937.58, 0.123055205, 0.067919455, -1681146.8, 39376.84, 0.0010643419, 9.998197, 10.00092 
1.12494506e+3, 1.3443781e+2, -1721012.6, -1570704.3, -72041.45, -0.023398167, 0.06734578, -1541752.1, 80760.8, 0.00051804923, 9.998861, 10.000872 
1.1249552e+3, 1.4443803e+2, -1623855.1, -1575824.8, -21367.352, 0.05774633, 0.048804592, -1567695.0, -43186.28, 0.00014661087, 9.999309, 9.999939 
1.1249642e+3, 1.5443699e+2, -1520958.1, -1479697.4, -14305.262, -0.022080164, -0.047564127, -1475223.0, -48705.797, 0.00001150662, 9.99936, 9.999901 
1.1249735e+3, 1.6443667e+2, -1416947.0, -1388221.1, -41641.03, -0.03771178, -0.06581982, -1358535.6, -30016.36, 0.0000000061074554, 9.999441, 9.999817 
1.1249835e+3, 1.7443724e+2, -1296505.6, -1274435.8, -60814.836, 0.063041024, 0.004601033, -1223662.9, 6850.324, 0.0, 9.999576, 9.99986 
1.1249927e+3, 1.844369e+2, -1219632.8, -1276437.5, -59264.246, 0.06989729, 0.025051244, -1182316.4, -49799.8, 0.0, 9.999814, 9.999059 
1.12500064e+3, 1.9443545e+2, -1067120.6, -1153225.8, -49867.387, -0.052633606, -0.028869174, -1044292.3, -9760.253, 0.0, 10.000194, 9.999049 
1.1250094e+3, 2.044343e+2, -960051.5, -1071707.8, -47890.957, -0.090102665, -0.03605367, -942324.75, -5780.489, 0.0, 10.000345, 9.998863 
1.1250192e+3, 2.1443361e+2, -877700.1, -977723.06, -46879.824, -0.018893506, 0.002715556, -859163.4, -20611.07, 0.0, 10.000222, 9.998895 
1.12502806e+3, 2.2443289e+2, -770551.9, -843948.3, -54287.563, -0.013541319, 0.029441936, -741722.25, -1162.2632, 0.0, 10.00015, 9.999176 
1.125036e+3, 2.3443216e+2, -667956.56, -736690.06, -53694.656, -0.09271102, 0.03128153, -638572.3, 3994.7678, 0.0, 10.000152, 9.999238 
1.12504445e+3, 2.4443133e+2, -572621.0, -632192.0, -58744.61, -0.12485176, 0.022684544, -536542.2, 8032.6743, 0.0, 10.0001, 9.999308 
1.12505324e+3, 2.5443035e+2, -490521.56, -536521.56, -62928.406, -0.09881693, -0.012150964, -446521.7, 62.01652, 0.0, 9.999969, 9.999354 
1.12506226e+3, 2.6442948e+2, -429789.22, -494797.66, -53068.223, -0.07604014, -0.017986696, -400061.94, -51469.13, 0.0, 9.999879, 9.99901 
1.1250713e+3, 2.7442876e+2, -333321.66, -394664.94, -49867.516, -0.05707723, 0.0047563985, -305448.28, -54846.555, 0.0, 9.999855, 9.999037 
1.1250797e+3, 2.8442815e+2, -196792.38, -270481.84, -63379.027, -0.07575429, 0.042005144, -160326.56, -7718.673, 0.0, 10.000085, 9.999106 
1.1250875e+3, 2.944277e+2, -16532.549, -127191.32, -71938.2, -0.14255622, 0.07794071, 18892.936, 73504.21, 0.0, 10.000626, 9.999157 
1.1250968e+3, 3.0442595e+2, 23402.76, -104842.91, -15486.13, -0.1274761, -0.0008284421, 25246.266, 25246.266, 0.0, 10.000661, 9.99896 
1.12510815e+3, 3.1442574e+2, -42412.668, -102981.88, -13119.373, -0.0041431044, 0.07737931, -39693.1, -39693.1, 0.0, 10.000061, 9.999261 
1.1349363e+3, 1.2442608e+2, -1944721.1, -1769831.9, 91037.17, 0.12203589, -0.009978208, -1731045.3, -10418.492, 0.0011953667, 9.998196, 10.000485 
1.1349428e+3, 1.3442703e+2, -1748898.5, -1629625.1, -44661.484, -0.1440229, 0.036650725, -1614755.5, 7862.17, 0.00059164723, 9.998863, 10.000467 
1.13495424e+3, 1.4442748e+2, -1599667.8, -1525787.4, -18067.375, 0.021375095, 0.044680145, -1521605.6, 3006.6672, 0.00017336896, 9.999309, 10.000282 
1.1349648e+3, 1.5442692e+2, -1494660.9, -1425192.0, -11964.836, 0.09911706, -0.04257281, -1423189.0, 3426.4485, 0.000015247707, 9.999361, 10.000275 
1.134974e+3, 1.6442682e+2, -1445298.4, -1448025.4, -38285.15, 0.07238774, -0.03542354, -1408352.5, -79736.54, 0.000000009421829, 9.999444, 9.999406 
1.134982e+3, 1.7442736e+2, -1327848.4, -1340596.0, -55849.79, -0.03774563, 0.07498482, -1278009.9, -47396.926, 0.0, 9.999579, 9.999405 
1.13499135e+3, 1.8442681e+2, -1204965.8, -1245651.3, -47524.12, -0.04620695, 0.08993837, -1173613.5, -40994.727, 0.0, 9.999813, 9.999271 
1.1350019e+3, 1.94425e+2, -1049874.3, -1116228.8, -35987.336, 0.057601225, -0.024278058, -1034104.44, 530.7923, 0.0, 10.000188, 9.999306 
1.1350113e+3, 2.0442393e+2, -956697.06, -1063202.9, -53252.83, 0.07162968, -0.041202445, -934639.06, 2006.8173, 0.0, 10.000338, 9.998926 
1.1350193e+3, 2.1442385e+2, -875237.5, -971568.0, -51544.402, -0.02053407, 0.052891046, -852856.9, -14207.76, 0.0, 10.0002165, 9.99894 
1.1350277e+3, 2.2442299e+2, -766629.5, -834791.44, -56142.594, -0.07115878, 0.061844386, -735033.2, 5624.939, 0.0, 10.000144, 9.999243 
1.13503635e+3, 2.3442124e+2, -664025.3, -727383.9, -53382.574, -0.071329944, -0.047146734, -633629.8, 9044.431, 0.0, 10.000146, 9.999306 
1.1350451e+3, 2.4442059e+2, -579567.5, -644319.3, -64265.652, -0.07160929, -0.035880826, -539983.2, 4697.343, 0.0, 10.000091, 9.9992285 
1.13505356e+3, 2.5442138e+2, -497937.78, -549201.75, -66936.34, -0.06956398, 0.11278092, -451893.63, -5219.1167, 0.0, 9.999957, 9.999273 
1.1350621e+3, 2.644208e+2, -423145.7, -479128.56, -54196.555, -0.0763548, 0.13975735, -390138.88, -41458.434, 0.0, 9.999869, 9.999124 
1.1350707e+3, 2.7441865e+2, -323952.25, -376783.75, -48491.582, -0.09631271, 0.005180946, -295148.22, -44447.16, 0.0, 9.99986, 9.999158 
1.1350795e+3, 2.8441736e+2, -208720.81, -295285.56, -44312.19, -0.1048945, -0.028148249, -190060.2, -37346.977, 0.0, 10.000085, 9.998936 
1.13508865e+3, 2.944171e+2, -32995.7, -155883.17, -49678.09, -0.093890764, 0.05012868, -15425.227, 39289.82, 0.0, 10.000602, 9.998971 
1.13509774e+3, 3.044156e+2, 28429.62, -89299.52, -35686.094, -0.103584886, -0.002754008, 38402.066, 38402.066, 0.0, 10.000637, 9.999078 
1.1351068e+3, 3.1441596e+2, -21121.977, -62376.633, -31265.105, -0.14093947, 0.120569125, -4292.7505, -4292.7505, 0.0, 10.000074, 9.999534 
1.1449347e+3, 1.24415636e+2, -1807752.6, -1720795.4, 72872.38, 0.09367063, -0.025941353, -1679416.6, 41310.992, 0.0013373722, 9.99921, 10.000333 
1.1449415e+3, 1.3441624e+2, -1736657.0, -1636513.3, -27150.922, -0.15678626, -0.0005252843, -1629625.8, -6903.777, 0.000672049, 9.999001, 10.000356 
1.144954e+3, 1.444167e+2, -1634312.9, -1550085.9, -3916.6165, 0.08150733, 0.016572863, -1549904.3, -25186.936, 0.0002032588, 9.999103, 10.0002165 
1.1449645e+3, 1.5441665e+2, -1490886.6, -1430526.9, -34536.08, 0.13067082, -0.0117210075, -1414842.1, 11874.353, 0.000019742625, 9.999418, 10.000211 
1.1449736e+3, 1.6441654e+2, -1417432.6, -1446832.6, -65161.906, 0.07901775, 0.00055588456, -1365333.3, -36615.42, 0.000000013934886, 9.99969, 9.999294 
1.1449817e+3, 1.7441632e+2, -1283628.3, -1332504.1, -58703.75, -0.053120658, 0.048404954, -1244478.9, -13756.907, 0.0, 9.999939, 9.999287 
1.1449911e+3, 1.8441568e+2, -1175440.3, -1217916.1, -43117.793, -0.05645032, 0.053353865, -1148613.8, -15884.963, 0.0, 9.999959, 9.999391 
1.1450021e+3, 1.9441457e+2, -1111400.5, -1130888.6, -42500.92, 0.08524253, -0.004229027, -1077541.0, -42802.438, 0.0, 9.9997015, 9.999439 
1.1450116e+3, 2.044138e+2, -1045010.2, -1091064.6, -60670.07, 0.106140256, -0.005005999, -1003144.3, -66398.08, 0.0, 9.999669, 9.999057 
1.1450194e+3, 2.1441348e+2, -909198.8, -972866.25, -55021.1, -0.019789578, 0.054597057, -877465.94, -38714.613, 0.0, 9.999921, 9.999074 
1.1450277e+3, 2.2441268e+2, -787814.1, -841422.3, -61624.74, -0.07734436, 0.059342694, -747416.5, -6656.5366, 0.0, 9.999986, 9.999271 
1.1450366e+3, 2.3441127e+2, -710027.25, -746937.56, -63388.87, -0.05265612, -0.0158937, -662461.6, -19688.713, 0.0, 9.999821, 9.999327 
1.14504516e+3, 2.4441063e+2, -629141.2, -679287.25, -71835.086, -0.05137266, -0.0015904971, -578129.1, -33349.78, 0.0, 9.999798, 9.999129 
1.14505336e+3, 2.5441095e+2, -505121.9, -564617.75, -79146.15, -0.07770718, 0.1125264, -450317.75, -3540.2246, 0.0, 9.999959, 9.999166 
1.1450619e+3, 2.6441026e+2, -391381.03, -463116.97, -69946.04, -0.09584323, 0.1279787, -348642.63, 142.14943, 0.0, 10.000085, 9.999129 
1.14507064e+3, 2.7440822e+2, -279149.97, -353157.25, -73654.81, -0.10660887, 0.010698798, -233726.06, 17077.105, 0.0, 10.000162, 9.999173 
1.1450797e+3, 2.8440705e+2, -201272.61, -289673.13, -61235.867, -0.09921789, -0.013762836, -169951.39, -17137.393, 0.0, 10.00013, 9.998952 
1.1450893e+3, 2.944068e+2, -129532.414, -201510.9, -52798.207, -0.06350834, 0.060633373, -101624.27, -46808.4, 0.0, 9.999935, 9.998979 
1.1450983e+3, 3.0440494e+2, -43945.71, -141424.48, -38060.445, -0.087960504, -0.018951304, -30845.586, -30845.586, 0.0, 10.000215, 9.998923 
1.1451071e+3, 3.14405e+2, 128612.734, 8500.209, -62597.99, -0.18401502, 0.089526154, 155304.75, 155304.75, 0.0, 10.001112, 9.99952 
1.1549332e+3, 1.24405675e+2, -1798835.6, -1702021.1, 40873.098, 0.025618298, 0.02235581, -1687073.3, 33752.215, 0.001489488, 9.99921, 10.000462 
1.15494154e+3, 1.3440552e+2, -1724262.1, -1611923.8, -32052.637, -0.06500172, -0.04550705, -1603421.8, 19403.607, 0.00075867696, 9.999005, 10.000523 
1.1549546e+3, 1.4440577e+2, -1666144.5, -1617835.8, 7340.0454, 0.23440182, -0.03702592, -1616745.1, -91922.0, 0.0002361324, 9.999108, 9.999749 
1.1549632e+3, 1.5440632e+2, -1525626.9, -1503276.3, -22238.076, 0.067031465, 0.04629676, -1489563.5, -62744.24, 0.000024990082, 9.999419, 9.999712 
1.1549723e+3, 1.6440588e+2, -1404639.0, -1420026.1, -57279.63, -0.026180571, 0.04387396, -1354538.5, -25714.51, 0.000000023716384, 9.999688, 9.999479 
1.1549823e+3, 1.7440422e+2, -1268112.8, -1300322.1, -49263.44, 0.012803123, -0.07495041, -1232388.5, -1549.0857, 0.0, 9.999939, 9.999508 
1.1549919e+3, 1.8440357e+2, -1173859.5, -1214518.9, -53213.742, 0.034696817, -0.08503391, -1137224.3, -4378.4033, 0.0, 9.999957, 9.999415 
1.1550012e+3, 1.9440418e+2, -1110725.9, -1129586.9, -52278.547, 0.026132634, 0.03091212, -1067034.1, -32192.746, 0.0, 9.999701, 9.99945 
1.1550104e+3, 2.0440394e+2, -1032413.7, -1064280.4, -54160.574, 0.0070376643, 0.07228146, -991891.44, -55046.555, 0.0, 9.999665, 9.999243 
1.15501925e+3, 2.1440259e+2, -896174.0, -944002.75, -45957.91, -0.020434964, 0.008036122, -868280.8, -29422.318, 0.0, 9.999911, 9.999276 
1.15502805e+3, 2.2440198e+2, -789594.3, -842042.06, -68752.07, -0.03659326, 0.021846188, -742234.6, -1369.5552, 0.0, 9.999973, 9.999274 
1.1550365e+3, 2.3440233e+2, -711711.06, -749169.56, -69249.88, -0.040089242, 0.12321431, -658702.4, -15839.579, 0.0, 9.999815, 9.999315 
1.1550448e+3, 2.444015e+2, -639177.8, -698609.44, -67054.76, -0.06896826, 0.12565741, -595549.44, -50678.6, 0.0, 9.999791, 9.999001 
1.15505286e+3, 2.5439918e+2, -515022.63, -585483.44, -72005.18, -0.12814026, -0.009713232, -470091.16, -23199.074, 0.0, 9.999959, 9.999023 
1.1550615e+3, 2.6439777e+2, -400286.88, -480183.6, -67480.3, -0.1401489, -0.051603768, -361816.72, -12911.284, 0.0, 10.000079, 9.999015 
1.1550709e+3, 2.7439755e+2, -288745.06, -369430.03, -69826.37, -0.093285844, 0.018358009, -248444.89, 2463.2654, 0.0, 10.000147, 9.999068 
1.1550802e+3, 2.843973e+2, -187098.58, -256621.27, -67440.16, -0.06442691, 0.08168779, -145988.16, 6922.0586, 0.0, 10.000112, 9.999188 
1.1550892e+3, 2.9439685e+2, -111087.945, -164705.1, -56856.934, -0.059455685, 0.11103033, -75036.27, -20123.344, 0.0, 9.999939, 9.99923 
1.1550985e+3, 3.043941e+2, -79661.445, -215361.42, -7005.366, -0.088361084, -0.047382373, -79300.76, -79300.76, 0.0, 10.000214, 9.998417 
1.1551085e+3, 3.143929e+2, 98592.58, -47064.242, -25869.041, -0.1470725, -0.0109162005, 103050.555, 103050.555, 0.0, 10.001081, 9.999154 
1.16493285e+3, 1.2439534e+2, -1782965.0, -1711464.8, 13155.82, 0.06282977, 0.042315774, -1709121.0, 11806.743, 0.0016512593, 9.999393, 10.000307 
1.16494104e+3, 1.3439512e+2, -1629236.4, -1583125.8, -56160.016, -0.048227806, -0.016643936, -1545472.8, 77455.98, 0.0008513687, 9.999729, 10.000372 
1.16495445e+3, 1.4439516e+2, -1567717.0, -1583496.0, -17936.293, 0.2701486, -0.015024797, -1556011.8, -31083.055, 0.00027198074, 9.999841, 9.999632 
1.1649625e+3, 1.5439554e+2, -1521558.5, -1514196.6, -23128.814, 0.0441014, 0.061374042, -1494457.6, -67530.91, 0.00003101119, 9.999503, 9.999597 
1.1649716e+3, 1.6439506e+2, -1433350.4, -1403585.9, -30793.414, -0.049915638, 0.049387652, -1384267.0, -55335.574, 0.00000004774233, 9.999361, 9.999751 
1.1649824e+3, 1.7439358e+2, -1311455.5, -1287723.9, -17976.975, 0.057695307, -0.08173356, -1278049.8, -47105.836, 0.0, 9.999497, 9.999806 
1.1649923e+3, 1.8439312e+2, -1210260.4, -1240044.3, -25168.158, 0.08540299, -0.08482623, -1195908.4, -62959.918, 0.0, 9.99974, 9.999346 
1.1650009e+3, 1.9439396e+2, -1055711.6, -1112847.6, -33452.12, 0.0011606459, 0.062193654, -1040289.0, -5345.9194, 0.0, 10.000121, 9.999362 
1.1650097e+3, 2.0439371e+2, -960939.75, -1026386.9, -48630.76, -0.034862433, 0.10650691, -935047.75, 1899.2703, 0.0, 10.000143, 9.99927 
1.1650193e+3, 2.1439207e+2, -921160.25, -952463.06, -54447.82, -0.0058216974, 0.009194427, -880158.94, -41196.145, 0.0, 9.999725, 9.999308 
1.1650281e+3, 2.2439137e+2, -851130.8, -880964.56, -81250.62, -0.0064871167, 0.01582537, -783439.1, -42469.13, 0.0, 9.99959, 9.99919 
1.16503626e+3, 2.343919e+2, -718207.94, -762078.25, -90594.18, -0.046451177, 0.14450306, -646931.2, -3964.9722, 0.0, 9.999814, 9.999226 
1.1650445e+3, 2.4439104e+2, -611683.06, -687742.94, -83307.836, -0.0793269, 0.1502609, -558135.3, -13160.799, 0.0, 9.99999, 9.99898 
1.1650531e+3, 2.5438842e+2, -494750.16, -577240.44, -79475.62, -0.103890456, -0.0130060585, -446454.6, 543.67426, 0.0, 10.000107, 9.999008 
1.1650619e+3, 2.643869e+2, -400549.34, -483818.6, -73067.81, -0.107836105, -0.06383094, -358086.72, -9074.243, 0.0, 10.000094, 9.998981 
1.16507106e+3, 2.7438682e+2, -328614.22, -393625.25, -72440.39, -0.0841366, 0.022201132, -281720.63, -30706.682, 0.0, 9.999893, 9.999025 
1.1650801e+3, 2.843866e+2, -234954.42, -293977.63, -76876.49, -0.06373066, 0.097447194, -182119.63, -29103.66, 0.0, 9.999845, 9.999062 
1.1650892e+3, 2.9438606e+2, -109924.086, -179097.27, -98798.23, -0.049666088, 0.13097608, -39833.45, 15186.951, 0.0, 10.000014, 9.999094 
1.16509885e+3, 3.0438313e+2, -102508.484, -219882.16, -31803.752, -0.07121158, -0.03995685, -94444.87, -94444.87, 0.0, 10.000031, 9.998473 
1.1651093e+3, 3.1438184e+2, -73027.055, -100660.57, -3946.7134, -0.11758336, -0.01692286, -72474.42, -72474.42, 0.0, 9.999778, 9.999415 
1.1749337e+3, 1.24384716e+2, -1813018.0, -1775666.3, -10866.13, 0.19910993, 0.036170486, -1772735.3, -51701.617, 0.0018234614, 9.999401, 9.999864 
1.1749401e+3, 1.3438517e+2, -1661604.4, -1651505.6, -40036.113, -0.112868965, 0.088893056, -1616201.8, 6829.359, 0.0009506097, 9.999732, 9.999903 
1.17495336e+3, 1.4438501e+2, -1551585.9, -1550418.3, -29314.715, 0.17910996, 0.086242825, -1521681.5, 3351.52, 0.00031097958, 9.999842, 9.999859 
1.17496215e+3, 1.5438436e+2, -1502456.3, -1475512.0, -35880.94, 0.0563952, 0.032430083, -1450657.4, -23618.92, 0.00003785508, 9.999506, 9.999861 
1.17497146e+3, 1.6438413e+2, -1407561.1, -1351254.9, -28185.887, 0.0022828898, 0.013928043, -1339570.3, -10530.721, 0.00000010132158, 9.999364, 10.00011 
1.1749822e+3, 1.7438444e+2, -1285223.3, -1233799.0, -12666.062, 0.07772413, 0.027431192, -1230848.6, 186.37872, 0.0, 9.999498, 10.000177 
1.1749921e+3, 1.8438444e+2, -1222057.0, -1263724.8, -13008.329, 0.08902817, 0.055216968, -1218329.4, -85293.61, 0.0, 9.999736, 9.999185 
1.1750011e+3, 1.9438398e+2, -1070206.3, -1141815.5, -19297.695, 0.006249249, 0.090905495, -1065336.9, -30293.871, 0.0, 10.000115, 9.999166 
1.1750101e+3, 2.0438318e+2, -970646.5, -1045182.56, -64194.59, -0.024046846, 0.09808298, -933686.1, 3366.0083, 0.0, 10.000136, 9.9991455 
1.1750193e+3, 2.1438196e+2, -930244.9, -970881.5, -70223.48, 0.01902774, 0.056543067, -877459.4, -38395.633, 0.0, 9.9997225, 9.999184 
1.17502786e+3, 2.243809e+2, -864952.75, -908948.25, -75681.09, 0.006455798, 0.041490592, -808137.25, -67063.11, 0.0, 9.999586, 9.999001 
1.17503576e+3, 2.3438002e+2, -731600.5, -789806.7, -82000.14, -0.07633844, 0.048847437, -673692.0, -30609.223, 0.0, 9.999811, 9.999037 
1.17504455e+3, 2.4437928e+2, -606764.0, -675276.94, -79846.336, -0.08776106, 0.07206664, -554135.8, -9045.757, 0.0, 9.999981, 9.999069 
1.17505416e+3, 2.543787e+2, -488168.53, -561390.7, -74140.93, -0.0096725, 0.09953452, -442091.97, 5003.9507, 0.0, 10.000096, 9.999122 
1.1750631e+3, 2.6437765e+2, -397951.66, -476505.8, -79413.31, -0.003731631, 0.088125266, -348633.22, 472.45682, 0.0, 10.000084, 9.999039 
1.1750709e+3, 2.7437606e+2, -325585.97, -387179.6, -77710.37, -0.08937823, 0.02262558, -272792.44, -21672.613, 0.0, 9.99989, 9.999072 
1.1750796e+3, 2.84375e+2, -274088.13, -374012.75, -71651.35, -0.106875844, 0.03418981, -236699.73, -83569.12, 0.0, 9.999839, 9.998515 
1.1750893e+3, 2.9437438e+2, -151311.05, -263198.63, -90892.11, -0.03747686, 0.119834416, -100525.82, -45387.613, 0.0, 10.000007, 9.998521 
1.1750991e+3, 3.04372e+2, -55642.348, -121459.15, -38933.367, -0.0396158, 0.0007809709, -37572.62, -37572.62, 0.0, 10.000025, 9.999154 
1.175109e+3, 3.1437194e+2, -4394.268, 41243.273, -7877.407, -0.11343786, 0.07180578, 42564.715, 42564.715, 0.0, 9.999779, 10.00039 
1.18493356e+3, 1.2437426e+2, -1813699.6, -1785491.3, -32316.719, 0.24293229, 0.048816323, -1764335.0, -43197.23, 0.0020081834, 9.99944, 9.999775 
1.1849397e+3, 1.3437475e+2, -1659942.6, -1662855.0, 1904.5913, -0.12774524, 0.11985456, -1659001.3, -35865.938, 0.0010574218, 9.999799, 9.999791 
1.1849532e+3, 1.4437449e+2, -1510571.9, -1518328.1, 5598.7886, 0.16999345, 0.10662389, -1507639.3, 17499.004, 0.00035351914, 10.000072, 9.999967 
1.1849622e+3, 1.5437366e+2, -1408111.4, -1415760.0, -16000.1, 0.08091557, 0.021531677, -1395484.9, 31659.441, 0.00004562391, 10.000093, 9.999987 
1.1849714e+3, 1.6437359e+2, -1320174.9, -1322279.4, -24160.242, 0.02956743, 0.019298283, -1297044.0, 32099.873, 0.00000019883093, 10.000021, 9.999991 
1.1849817e+3, 1.7437457e+2, -1244674.5, -1228606.4, -47736.363, 0.06407279, 0.11055725, -1188232.8, 42902.086, 0.0, 9.99984, 10.000048 
1.1849916e+3, 1.8437454e+2, -1226169.6, -1257118.9, -53418.152, 0.071178906, 0.14138108, -1186029.8, -52893.86, 0.0, 9.999673, 9.99926 
1.1850011e+3, 1.9437325e+2, -1147651.3, -1169453.9, -39945.934, 0.030773468, 0.084095635, -1117145.9, -81995.96, 0.0, 9.999542, 9.999252 
1.1850102e+3, 2.043723e+2, -1043487.3, -1086831.4, -73710.59, 0.009286525, 0.07457519, -988328.8, -51168.7, 0.0, 9.999662, 9.999089 
1.1850192e+3, 2.1437185e+2, -879104.7, -952423.3, -76956.86, 0.016094584, 0.11478692, -830521.6, 8643.753, 0.0, 10.000102, 9.999127 
1.1850277e+3, 2.2437078e+2, -763042.9, -864141.4, -71401.586, -0.0040196422, 0.10471152, -726108.3, 15067.439, 0.0, 10.000305, 9.998961 
1.185036e+3, 2.3436894e+2, -675576.06, -766937.4, -67458.88, -0.05968548, 0.018730875, -639786.3, 3406.1902, 0.0, 10.000215, 9.999 
1.18504465e+3, 2.4436805e+2, -610403.3, -683025.06, -70878.47, -0.06207229, 0.029893836, -567076.06, -21874.867, 0.0, 9.999982, 9.999016 
1.1850541e+3, 2.543683e+2, -570731.9, -607774.1, -80780.39, 0.0034566808, 0.15074724, -506376.56, -59176.91, 0.0, 9.999558, 9.9990635 
1.185063e+3, 2.6436752e+2, -488950.16, -517120.53, -86253.45, 0.009250755, 0.165434, -415639.4, -66431.98, 0.0, 9.999445, 9.999067 
1.18507095e+3, 2.7436537e+2, -344599.0, -391783.6, -87425.805, -0.062444612, 0.037792053, -277638.16, -26411.533, 0.0, 9.9997425, 9.999111 
1.1850798e+3, 2.8436399e+2, -245286.36, -369954.34, -56488.38, -0.0805056, 0.021870516, -223498.64, -70258.516, 0.0, 10.000081, 9.998425 
1.1850897e+3, 2.9436347e+2, -96456.164, -248631.73, -40109.164, -0.027330393, 0.1261314, -86531.766, -31284.451, 0.0, 10.000434, 9.998416 
1.1850993e+3, 3.0436128e+2, 1405.7773, -100991.164, -14899.589, -0.047446646, 0.03852112, 3529.733, 3529.733, 0.0, 10.000448, 9.999089 
1.1851088e+3, 3.1436148e+2, 48077.043, 84720.84, -52627.547, -0.13655888, 0.13842638, 122124.62, 122124.62, 0.0, 10.000063, 10.00055 
1.19493224e+3, 1.243641e+2, -1795658.5, -1748721.0, -61906.37, 0.1728555, 0.08455174, -1705984.1, 15254.874, 0.0022081332, 9.999441, 10.000029 
1.1949398e+3, 1.34364e+2, -1643035.5, -1628882.5, 18771.41, -0.09747991, 0.07336798, -1615898.0, 7342.7993, 0.0011730703, 9.999802, 10.000024 
1.194954e+3, 1.4436367e+2, -1509953.6, -1519132.4, 7320.798, 0.23828758, 0.04251811, -1505902.6, 19341.078, 0.00040013902, 10.000079, 9.999959 
1.1949626e+3, 1.5436354e+2, -1408733.8, -1418100.9, -14836.1045, 0.114631176, 0.029128315, -1397859.5, 29383.984, 0.00005450229, 10.000096, 9.9999695 
1.1949714e+3, 1.6436362e+2, -1362184.4, -1410049.8, -31737.465, 0.026396975, 0.068667844, -1346367.4, -17124.055, 0.00000035173326, 10.000023, 9.999388 
1.194981e+3, 1.7436403e+2, -1289554.6, -1322283.9, -54580.99, 0.012281515, 0.16791989, -1248937.8, -17695.156, 0.0, 9.999842, 9.999405 
1.1949909e+3, 1.8436353e+2, -1204872.3, -1213265.6, -60148.098, 0.025878057, 0.17156494, -1148774.6, -15525.866, 0.0, 9.999673, 9.999561 
1.1950011e+3, 1.9436185e+2, -1122494.0, -1116889.1, -45241.977, 0.07016215, 0.04055966, -1074362.9, -39099.363, 0.0, 9.999539, 9.999615 
1.1950105e+3, 2.0436116e+2, -1043516.06, -1085292.3, -60104.4, 0.059766456, 0.036606256, -1000773.56, -63503.16, 0.0, 9.999656, 9.999104 
1.1950189e+3, 2.1436176e+2, -880587.06, -954124.94, -60666.414, -0.017398369, 0.18315114, -846416.8, -7149.5176, 0.0, 10.000094, 9.999119 
1.1950276e+3, 2.2436105e+2, -756272.7, -848094.3, -75147.5, -0.042031597, 0.20462932, -714121.3, 27153.213, 0.0, 10.000296, 9.999077 
1.1950368e+3, 2.3435867e+2, -667248.1, -749308.75, -70449.54, -0.00012722341, 0.052782405, -626751.6, 16543.39, 0.0, 10.000211, 9.999124 
1.19504526e+3, 2.4435735e+2, -625779.6, -714097.0, -86620.96, -0.0059836973, 0.023883455, -572710.9, -27403.543, 0.0, 9.999977, 9.998804 
1.195053e+3, 2.5435737e+2, -587542.7, -642148.0, -95641.69, -0.070693985, 0.14088385, -515382.97, -68073.945, 0.0, 9.999555, 9.998829 
1.1950615e+3, 2.6435652e+2, -491174.25, -521333.28, -76940.016, -0.07488652, 0.1674584, -427849.97, -78532.516, 0.0, 9.999442, 9.999041 
1.1950713e+3, 2.7435467e+2, -344608.84, -392125.63, -74948.984, -0.005199203, 0.068102136, -289742.75, -38408.594, 0.0, 9.9997425, 9.999108 
1.1950808e+3, 2.8435355e+2, -217410.28, -311873.5, -42812.723, 0.012403966, 0.059983663, -200894.31, -47549.92, 0.0, 10.000078, 9.998826 
1.1950901e+3, 2.9435328e+2, -70090.805, -189902.36, -23923.861, -0.034113728, 0.14705682, -65490.35, -10142.866, 0.0, 10.000416, 9.998828 
1.1950991e+3, 3.04351e+2, -64493.133, -232915.0, -27778.04, -0.10821068, 0.0717423, -60029.94, -60029.94, 0.0, 10.000426, 9.998194 
1.1951083e+3, 3.143505e+2, -6155.3604, -24696.514, -63427.2, -0.18941335, 0.19334121, 48675.18, 48675.18, 0.0, 10.00005, 9.9998045 
1.20493166e+3, 1.2435388e+2, -1740405.9, -1707661.5, -81578.45, 0.1531153, 0.108179376, -1640828.6, 80512.375, 0.0024257244, 9.999762, 10.0001545 
1.2049399e+3, 1.3435361e+2, -1642956.5, -1620062.4, 24588.578, -0.059790812, 0.071790285, -1604386.9, 18956.506, 0.0012988481, 9.9997635, 10.000102 
1.2049542e+3, 1.4435333e+2, -1550178.6, -1542367.6, 1257.312, 0.2657942, 0.042302568, -1542170.3, -16824.762, 0.00045139206, 9.99982, 9.999923 
1.2049625e+3, 1.5435356e+2, -1450260.6, -1442338.8, -26993.635, 0.10969175, 0.07059189, -1419017.0, 8325.314, 0.00006471426, 9.999832, 9.999929 
1.2049713e+3, 1.6435346e+2, -1393858.6, -1447805.1, -29612.156, 0.013560916, 0.103215925, -1380776.5, -51432.07, 0.00000057087306, 9.999905, 9.999185 
1.204981e+3, 1.7435297e+2, -1266588.9, -1335603.5, -21821.643, 0.014621777, 0.1336225, -1260268.0, -28915.486, 0.0, 10.000105, 9.999186 
1.2049908e+3, 1.8435234e+2, -1124429.0, -1162541.4, -19910.393, 0.029054483, 0.131376, -1115925.0, 17434.877, 0.0, 10.000173, 9.999668 
1.2050007e+3, 1.9435155e+2, -1036495.9, -1059768.5, -23689.938, 0.055623535, 0.07625299, -1021738.7, 13627.265, 0.0, 10.000064, 9.999752 
1.20501004e+3, 2.043511e+2, -1003352.4, -1062874.9, -36983.625, 0.040920522, 0.08797803, -985642.4, -48271.934, 0.0, 9.99992, 9.999128 
1.2050187e+3, 2.143511e+2, -931271.06, -977011.9, -36878.117, -0.025114631, 0.17194504, -910747.3, -71374.35, 0.0, 9.99974, 9.999132 
1.2050276e+3, 2.2435044e+2, -841277.0, -884327.75, -55629.0, -0.039518867, 0.19403294, -803154.0, -61773.91, 0.0, 9.999691, 9.99912 
1.2050369e+3, 2.3434894e+2, -721837.5, -770159.3, -59328.805, 0.011275938, 0.12627506, -681938.6, -38545.8, 0.0, 9.999814, 9.999171 
1.2050454e+3, 2.4434763e+2, -622304.8, -715057.9, -74227.22, 0.0038063675, 0.09760605, -581157.25, -35752.316, 0.0, 10.000013, 9.99878 
1.2050529e+3, 2.5434652e+2, -479886.34, -592749.94, -70190.83, -0.077856064, 0.10496855, -446255.38, 1161.0192, 0.0, 10.000306, 9.998805 
1.2050614e+3, 2.6434544e+2, -353770.2, -470270.13, -38992.57, -0.08215505, 0.11317255, -341923.94, 7503.3604, 0.0, 10.000454, 9.998902 
1.2050715e+3, 2.7434438e+2, -257920.89, -367113.16, -47838.816, 0.012072342, 0.1133152, -239927.16, 11510.016, 0.0, 10.00041, 9.998959 
1.20508105e+3, 2.8434354e+2, -207055.36, -295641.53, -41626.668, 0.031642623, 0.13429156, -190564.77, -37119.434, 0.0, 10.000102, 9.998925 
1.20508984e+3, 2.943428e+2, -200512.73, -240031.86, -50295.04, -0.044321448, 0.15922585, -166234.98, -110782.41, 0.0, 9.999467, 9.9989395 
1.20509885e+3, 3.043404e+2, -221952.16, -327748.34, -27129.43, -0.12280166, 0.07617226, -215400.98, -215400.98, 0.0, 9.999427, 9.998023 
1.2051086e+3, 3.143398e+2, 3487.836, -19663.703, -3458.4448, -0.16542575, 0.20711714, 3993.4275, 3993.4275, 0.0, 10.000111, 9.999811 
1.2149316e+3, 1.2434374e+2, -1741280.8, -1711093.6, -119834.59, 0.16939677, 0.12222857, -1605405.8, 116036.75, 0.0026624324, 9.999766, 10.000131 
1.21494e+3, 1.3434368e+2, -1648194.4, -1632071.5, 26828.5, -0.019029344, 0.116111465, -1612119.5, 11322.53, 0.0014356553, 9.999766, 10.000019 
1.2149539e+3, 1.4434355e+2, -1554705.0, -1552481.1, 1395.7656, 0.24413489, 0.10799396, -1551808.6, -26365.783, 0.0005075534, 9.999823, 9.999852 
1.2149619e+3, 1.5434381e+2, -1455322.0, -1452450.0, -26287.309, 0.06086878, 0.14549814, -1427559.5, -119.24317, 0.000076397075, 9.999829, 9.999862 
1.21497095e+3, 1.6434316e+2, -1380654.8, -1420898.4, -24567.031, -0.015572409, 0.12093134, -1369020.9, -39574.227, 0.0000008702971, 9.999905, 9.999371 
1.2149816e+3, 1.7434144e+2, -1252183.4, -1306551.9, -14346.537, 0.06716835, 0.0072825914, -1248629.9, -17165.918, 0.0, 10.000106, 9.999385 
1.2149914e+3, 1.8434106e+2, -1129892.1, -1173333.9, -24650.414, 0.07552378, 0.022702435, -1118758.1, 14710.36, 0.0, 10.000171, 9.999596 
1.21500015e+3, 1.9434242e+2, -1043339.94, -1073639.9, -27969.475, -0.016352719, 0.19116575, -1026680.9, 8775.889, 0.0, 10.000062, 9.999659 
1.215009e+3, 2.0434219e+2, -1000853.8, -1058238.6, -45353.066, -0.052375823, 0.22765216, -975879.2, -38419.367, 0.0, 9.999921, 9.999161 
1.21501856e+3, 2.1433994e+2, -928750.9, -971308.1, -43795.723, -0.012400559, 0.081818335, -901338.1, -61856.32, 0.0, 9.999736, 9.999174 
1.2150277e+3, 2.2433898e+2, -845510.7, -891347.7, -53342.13, -0.0016216137, 0.07481131, -810372.0, -68880.164, 0.0, 9.999682, 9.999076 
1.2150363e+3, 2.3433973e+2, -725985.1, -777561.3, -54435.83, -0.028990833, 0.23659979, -691537.94, -48052.13, 0.0, 9.999808, 9.999123 
1.2150449e+3, 2.4433886e+2, -612306.75, -692868.56, -64517.188, -0.03716543, 0.2476948, -576528.3, -31034.205, 0.0, 10.000006, 9.998937 
1.2150537e+3, 2.5433582e+2, -467745.47, -567458.1, -58179.11, -0.022189042, 0.04503711, -440982.84, 6538.4893, 0.0, 10.000304, 9.9989805 
1.2150625e+3, 2.6433423e+2, -371533.44, -506329.2, -40039.688, -0.0162836, 0.005272519, -360537.13, -11000.598, 0.0, 10.000448, 9.998658 
1.2150717e+3, 2.743346e+2, -279529.06, -408179.88, -47552.746, -0.020631982, 0.17130192, -263860.6, -12325.126, 0.0, 10.000393, 9.998685 
1.21508054e+3, 2.8433397e+2, -226094.69, -332885.47, -63840.813, -0.032900997, 0.24215119, -196263.19, -42720.38, 0.0, 10.000091, 9.998676 
1.21508926e+3, 2.9433194e+2, -216305.97, -274328.47, -72503.17, -0.05856477, 0.16581336, -167225.2, -111662.945, 0.0, 9.999473, 9.998702 
1.21509865e+3, 3.0432945e+2, -179332.45, -241065.28, -3674.034, -0.09231835, 0.05616336, -179114.56, -179114.56, 0.0, 9.9994335, 9.998616 
1.2151095e+3, 3.1432948e+2, 56373.57, 98240.86, 28079.422, -0.08799577, 0.18496196, 112331.086, 112331.086, 0.0, 10.000077, 10.000637 
1.2249314e+3, 1.2433336e+2, -1771998.8, -1723357.4, -132944.0, 0.17703176, 0.118428364, -1612527.8, 109017.37, 0.0029179724, 9.999545, 10.000152 
1.2249404e+3, 1.3433342e+2, -1555670.9, -1592012.3, 45883.516, 0.0067882203, 0.12889703, -1524491.0, 99052.234, 0.0015834377, 10.000424, 9.999976 
1.22495376e+3, 1.4433326e+2, -1464034.8, -1535349.9, -13188.337, 0.21897125, 0.13052298, -1461674.0, 63870.75, 0.00056846405, 10.000563, 9.999612 
1.2249616e+3, 1.5433316e+2, -1489406.6, -1497151.9, -60195.02, 0.05971678, 0.15886724, -1432959.8, -5413.0645, 0.00008951281, 9.999719, 9.999607 
1.2249707e+3, 1.643325e+2, -1424035.1, -1401781.1, -31876.74, -0.003401432, 0.12753338, -1379145.1, -49592.1, 0.0000012652538, 9.999435, 9.999726 
1.2249817e+3, 1.7433114e+2, -1258017.1, -1263660.6, -6328.0327, 0.07395883, 0.012679252, -1253910.3, -22345.855, 0.0, 9.999871, 9.999791 
1.22499146e+3, 1.8433096e+2, -1172371.9, -1221854.4, -30952.549, 0.07221416, 0.035247013, -1157487.5, -23920.5, 0.0, 10.000001, 9.999344 
1.2249997e+3, 1.9433215e+2, -1108211.5, -1138448.6, -52633.305, -0.03843161, 0.21913707, -1068568.5, -33009.66, 0.0, 9.999761, 9.999359 
1.2250087e+3, 2.0433177e+2, -1028659.3, -1060935.4, -69415.71, -0.07217606, 0.25163665, -973530.4, -35966.47, 0.0, 9.999684, 9.999256 
1.2250184e+3, 2.1432938e+2, -907016.7, -946111.0, -62727.066, -0.0026563844, 0.079334594, -860861.6, -21275.78, 0.0, 9.999824, 9.999305 
1.2250276e+3, 2.2432837e+2, -813289.75, -873443.8, -62475.5, 0.010616269, 0.060840007, -774028.4, -32432.63, 0.0, 9.999895, 9.999095 
1.22503586e+3, 2.3432921e+2, -715985.6, -771581.3, -61396.96, -0.050428614, 0.23009694, -676386.8, -32796.984, 0.0, 9.999872, 9.999133 
1.22504465e+3, 2.443286e+2, -632063.25, -699258.25, -68952.52, -0.056817804, 0.2644208, -588958.5, -43361.953, 0.0, 9.999857, 9.998964 
1.22505404e+3, 2.5432605e+2, -528953.4, -593529.44, -75172.86, 0.0061565773, 0.10778594, -479427.75, -31808.104, 0.0, 9.99987, 9.99901 
1.225063e+3, 2.643245e+2, -453232.4, -548099.56, -60625.17, 0.016982986, 0.07063915, -423689.63, -74054.76, 0.0, 9.999898, 9.998635 
1.22507155e+3, 2.7432427e+2, -350626.2, -445325.56, -53576.3, -0.038903613, 0.18053894, -326474.72, -74835.29, 0.0, 9.999919, 9.998657 
1.22508034e+3, 2.843235e+2, -222539.34, -325864.44, -51496.863, -0.06514551, 0.23941177, -201257.08, -47609.14, 0.0, 10.000094, 9.99872 
1.2250892e+3, 2.9432204e+2, -67092.414, -197522.86, -39902.953, -0.055391014, 0.21213026, -55853.266, -190.90685, 0.0, 10.000475, 9.998746 
1.2250987e+3, 3.043199e+2, -60152.797, -185397.38, 18108.71, -0.0755186, 0.13198297, -57587.074, -57587.074, 0.0, 10.00026, 9.998599 
1.22510925e+3, 3.1431895e+2, -54726.76, 56386.184, -4441.9443, -0.07832071, 0.17075917, 56563.477, 56563.477, 0.0, 9.999263, 10.000741 
1.23493075e+3, 1.2432288e+2, -1768781.8, -1716107.0, -128757.43, 0.1582182, 0.09996905, -1611020.9, 110626.375, 0.0031899144, 9.999542, 10.000203 
1.2349409e+3, 1.3432291e+2, -1557082.1, -1594658.4, 80931.945, 0.013991633, 0.10939461, -1492786.1, 130860.14, 0.0017411282, 10.0004225, 9.999959 
1.234954e+3, 1.4432253e+2, -1493197.9, -1596905.8, -42597.965, 0.18334717, 0.10881512, -1477944.4, 47706.402, 0.0006337289, 10.000565, 9.999189 
1.2349618e+3, 1.543217e+2, -1520217.0, -1563459.0, -92177.37, 0.10162063, 0.11008974, -1447158.9, -19497.756, 0.00010392506, 9.999726, 9.99915 
1.2349706e+3, 1.6432147e+2, -1386392.1, -1323732.4, -19879.598, 0.044173624, 0.123288274, -1317957.5, 11705.61, 0.0000017603737, 9.999434, 10.000263 
1.23498105e+3, 1.7432216e+2, -1215677.3, -1175804.8, 10245.102, 0.031136729, 0.14988501, -1173326.4, 58326.9, 0.0, 9.99987, 10.000396 
1.2349909e+3, 1.8432201e+2, -1203002.0, -1285487.8, -40447.266, 0.013057008, 0.16790545, -1186478.5, -52823.68, 0.0, 10.0, 9.998908 
1.23499975e+3, 1.9432081e+2, -1144657.3, -1213158.8, -62194.504, -0.014754885, 0.16115467, -1107906.1, -72234.64, 0.0, 9.999756, 9.998849 
1.23500876e+3, 2.0431991e+2, -1018490.1, -1038812.4, -66698.12, -0.022038702, 0.16224837, -961183.56, -23501.443, 0.0, 9.999679, 9.999411 
1.2350183e+3, 2.1431944e+2, -893305.1, -916864.94, -57554.83, 0.0007211494, 0.16245908, -846337.06, -6652.3047, 0.0, 9.999819, 9.999507 
1.2350273e+3, 2.2431867e+2, -807882.94, -861975.25, -64276.086, -0.0077987853, 0.15089136, -765194.5, -23502.9, 0.0, 9.999892, 9.999176 
1.2350357e+3, 2.3431748e+2, -711319.06, -761796.6, -61700.563, -0.05741455, 0.10972917, -669894.9, -26190.715, 0.0, 9.99987, 9.999202 
1.2350445e+3, 2.443169e+2, -640547.7, -716506.1, -69540.41, -0.05917079, 0.15120967, -599291.25, -53579.88, 0.0, 9.999854, 9.998848 
1.23505384e+3, 2.543172e+2, -538985.0, -612668.94, -73403.695, 0.0014929321, 0.28862286, -493696.4, -45985.05, 0.0, 9.999861, 9.998883 
1.23506285e+3, 2.6431617e+2, -442697.1, -523615.5, -59506.145, 0.01180456, 0.303888, -411198.47, -61475.938, 0.0, 9.999886, 9.99881 
1.2350714e+3, 2.7431345e+2, -336644.44, -416763.22, -50925.67, -0.045434214, 0.1452123, -311910.47, -60161.82, 0.0, 9.999919, 9.998854 
1.2350803e+3, 2.8431222e+2, -199130.8, -276783.38, -37986.824, -0.06912409, 0.13045159, -183638.77, -29878.363, 0.0, 10.000092, 9.999059 
1.2350898e+3, 2.9431298e+2, -46289.746, -148738.39, -23101.31, -0.04687876, 0.29302388, -41321.527, 14431.803, 0.0, 10.000451, 9.999092 
1.2350989e+3, 3.0431154e+2, -109034.914, -282335.84, -15268.211, -0.08435041, 0.29822263, -107700.03, -107700.03, 0.0, 10.000239, 9.997944 
1.2351079e+3, 3.1430835e+2, -100533.92, -39015.88, -36142.793, -0.14142555, 0.18004332, -22315.248, -22315.248, 0.0, 9.999263, 10.000086 
1.24493055e+3, 1.243126e+2, -1663273.0, -1698525.3, -118134.82, 0.14543478, 0.08627501, -1561456.6, 160290.06, 0.003475539, 10.000414, 9.999903 
1.2449414e+3, 1.3431251e+2, -1629422.9, -1669856.1, 81176.83, 0.03272164, 0.12037629, -1565983.1, 57765.816, 0.0019075654, 10.000101, 9.999597 
1.24495395e+3, 1.4431205e+2, -1544292.4, -1618153.4, -52530.54, 0.1455915, 0.13012037, -1517009.8, 8744.948, 0.0007030745, 10.000199, 9.99922 
1.24496214e+3, 1.5431088e+2, -1354227.6, -1475261.9, -66348.11, 0.11946402, 0.08971872, -1324942.8, 102824.266, 0.00011956255, 10.000833, 9.99922 
1.2449711e+3, 1.643106e+2, -1198739.5, -1260960.1, -1460.483, 0.07358483, 0.10577436, -1198705.3, 131064.2, 0.0000023468863, 10.000843, 10.000014 
1.24498084e+3, 1.7431161e+2, -1207523.0, -1202490.4, -39182.25, 0.00481989, 0.19182354, -1165743.8, 66014.54, 0.0, 10.000059, 10.00012 
1.2449904e+3, 1.8431145e+2, -1247014.0, -1293588.6, -101642.195, -0.017888997, 0.21590559, -1166025.5, -32264.814, 0.0, 9.999642, 9.999023 
1.2449998e+3, 1.9430976e+2, -1143571.1, -1195925.3, -75372.35, 0.018721182, 0.14641039, -1089959.5, -54178.617, 0.0, 9.999693, 9.998997 
1.2450089e+3, 2.0430882e+2, -1017879.5, -1034591.7, -52415.477, 0.023347842, 0.13465273, -973158.25, -35366.83, 0.0, 9.999667, 9.999444 
1.2450178e+3, 2.1430889e+2, -929812.4, -931556.75, -58342.777, -0.014385324, 0.18553787, -872335.25, -32545.943, 0.0, 9.999557, 9.999533 
1.24502674e+3, 2.2430822e+2, -847731.1, -874807.1, -68811.86, -0.04036717, 0.1820937, -791138.2, -49343.105, 0.0, 9.999592, 9.999233 
1.2450357e+3, 2.3430662e+2, -711661.7, -754395.2, -68466.234, -0.050998192, 0.09415703, -661305.6, -17494.572, 0.0, 9.999837, 9.999269 
1.24504454e+3, 2.4430604e+2, -626549.94, -705100.0, -75773.85, -0.050281342, 0.12916447, -580477.44, -34658.848, 0.0, 9.999931, 9.998887 
1.2450533e+3, 2.5430682e+2, -543458.94, -610595.56, -70236.24, -0.0351862, 0.31334522, -499181.47, -51366.75, 0.0, 9.999813, 9.9989195 
1.2450623e+3, 2.6430613e+2, -445830.25, -501491.06, -43807.71, -0.035529897, 0.34714794, -421760.3, -71937.03, 0.0, 9.999763, 9.999021 
1.24507114e+3, 2.7430344e+2, -335305.0, -390843.28, -34085.08, -0.05720599, 0.1683758, -319109.2, -67260.805, 0.0, 9.99982, 9.999079 
1.24508046e+3, 2.8430218e+2, -237786.72, -295988.78, -28167.537, -0.060033638, 0.14063089, -226387.38, -72527.16, 0.0, 9.999828, 9.999053 
1.24509e+3, 2.9430294e+2, -153125.92, -202555.25, -44251.484, -0.03674843, 0.30278623, -127155.195, -71300.805, 0.0, 9.999728, 9.999069 
1.24509886e+3, 3.0430192e+2, -173725.92, -305785.75, -40858.566, -0.079849675, 0.34735036, -162106.8, -162106.8, 0.0, 9.999763, 9.998011 
1.2451076e+3, 3.1429857e+2, 13315.602, 25734.225, -4265.735, -0.14225625, 0.2076303, 27058.309, 27058.309, 0.0, 10.000003, 10.000173 
1.2549308e+3, 1.2430266e+2, -1708746.1, -1797156.0, -143589.55, 0.12490044, 0.079887584, -1602711.1, 119130.7, 0.0037739007, 10.000427, 9.999222 
1.2549418e+3, 1.3430232e+2, -1679709.0, -1776238.6, 69405.55, 0.057938404, 0.16134982, -1643436.1, -19585.584, 0.0020822603, 10.000106, 9.998865 
1.2549537e+3, 1.443019e+2, -1509564.1, -1545850.4, -32344.912, 0.09898489, 0.19289146, -1490621.3, 35234.766, 0.0007764397, 10.000197, 9.999717 
1.2549628e+3, 1.5430078e+2, -1311623.8, -1387811.8, -41765.492, 0.10912023, 0.09741276, -1293188.9, 134674.72, 0.00013646827, 10.000835, 9.99982 
1.2549719e+3, 1.6429994e+2, -1272036.0, -1413377.9, -29636.057, 0.079059884, 0.07321672, -1266073.5, 63797.94, 0.0000030208696, 10.000844, 9.998968 
1.2549807e+3, 1.7429958e+2, -1288879.6, -1372269.6, -69174.195, -0.009350606, 0.1393686, -1249806.3, -17927.324, 0.0, 10.000062, 9.998954 
1.25499e+3, 1.8429928e+2, -1200267.9, -1196524.8, -103222.83, -0.025465958, 0.18018052, -1095156.5, 38727.65, 0.0, 9.999641, 9.999691 
1.255e+3, 1.9429903e+2, -1087765.9, -1079507.9, -73615.914, 0.058267083, 0.17408362, -1009905.25, 25981.455, 0.0, 9.999689, 9.999799 
1.255009e+3, 2.0429853e+2, -1024739.44, -1048121.4, -58060.086, 0.058847878, 0.16769814, -977204.94, -39313.496, 0.0, 9.999663, 9.999353 
1.255017e+3, 2.1429774e+2, -941778.75, -955231.6, -62625.973, -0.05111116, 0.15010352, -885519.0, -45620.055, 0.0, 9.999551, 9.9993725 
1.2550259e+3, 2.242971e+2, -846100.4, -870757.56, -62173.574, -0.09066456, 0.1560069, -795044.8, -53139.33, 0.0, 9.999588, 9.999263 
1.2550357e+3, 2.3429668e+2, -709340.8, -748058.2, -58927.445, -0.034965813, 0.18047525, -666673.7, -22763.215, 0.0, 9.999828, 9.999316 
1.2550445e+3, 2.4429603e+2, -614263.25, -677231.5, -79748.33, -0.034792785, 0.19632347, -560009.2, -14091.111, 0.0, 9.999921, 9.999085 
1.2550524e+3, 2.5429505e+2, -529717.44, -581596.1, -73421.875, -0.10778062, 0.18654604, -477787.5, -29858.309, 0.0, 9.99981, 9.999121 
1.255061e+3, 2.6429442e+2, -429512.38, -467049.2, -42222.492, -0.12864882, 0.20460285, -402074.8, -52138.227, 0.0, 9.999759, 9.99926 
1.2550709e+3, 2.7429417e+2, -320069.25, -355816.97, -30157.426, -0.080887, 0.24631293, -302886.8, -50947.855, 0.0, 9.999804, 9.999329 
1.2550803e+3, 2.8429335e+2, -265813.6, -349797.9, -30638.922, -0.04561747, 0.26498252, -255824.17, -101876.28, 0.0, 9.999808, 9.998693 
1.2550898e+3, 2.942919e+2, -182173.61, -261897.94, -45508.24, -0.03072871, 0.24712604, -161537.9, -105572.875, 0.0, 9.999723, 9.998664 
1.2550987e+3, 3.0429098e+2, -119695.83, -193082.72, -32954.31, -0.067945294, 0.28649133, -107069.95, -107069.95, 0.0, 9.999759, 9.998787 
1.255108e+3, 3.1428957e+2, 65210.9, 140996.33, 10663.318, -0.097156145, 0.25527528, 142468.11, 142468.11, 0.0, 9.99997, 10.00098 
1.2649311e+3, 1.2429216e+2, -1683426.3, -1791759.3, -223035.47, 0.10028225, 0.12186059, -1508074.0, 213872.06, 0.004085261, 10.000632, 9.999161 
1.2649426e+3, 1.3429116e+2, -1578068.3, -1735084.0, 38989.63, 0.105380856, 0.14444318, -1568919.5, 55041.254, 0.0022650692, 10.000842, 9.998792 
1.264954e+3, 1.4429086e+2, -1415143.9, -1481150.8, -38389.492, 0.08541593, 0.18445598, -1397521.4, 128443.164, 0.00085386867, 10.000767, 9.999885 
1.2649636e+3, 1.5429036e+2, -1365207.8, -1393652.9, -80353.055, 0.11560306, 0.1331659, -1297828.3, 130137.54, 0.00015477135, 10.000383, 9.999996 
1.2649727e+3, 1.642895e+2, -1377321.4, -1490110.0, -70938.69, 0.09687383, 0.108854905, -1343092.3, -13118.128, 0.0000038088367, 10.000235, 9.998734 
1.264981e+3, 1.742883e+2, -1260314.9, -1387699.4, -45370.477, 0.0048231203, 0.11680452, -1245807.5, -13816.862, 0.0, 10.000385, 9.998692 
1.26499e+3, 1.8428783e+2, -1082918.5, -1122115.6, -51256.035, -0.019083064, 0.14775589, -1047641.9, 86355.92, 0.0, 10.000372, 9.999849 
1.2649998e+3, 1.9428827e+2, -1006725.8, -1018757.44, -68896.1, 0.04840938, 0.19310094, -943583.4, 92409.414, 0.0, 10.000154, 9.99999 
1.2650086e+3, 2.0428811e+2, -970514.5, -1015842.8, -71423.9, 0.040543366, 0.20787703, -918245.06, 19749.033, 0.0, 10.0000105, 9.999408 
1.2650166e+3, 2.142872e+2, -879990.0, -919986.6, -62364.313, -0.06773124, 0.17202806, -834496.0, 5507.441, 0.0, 9.999952, 9.99942 
1.2650254e+3, 2.2428657e+2, -829207.7, -868116.44, -55352.902, -0.100418426, 0.17868733, -789989.94, -47979.6, 0.0, 9.999729, 9.999212 
1.2650351e+3, 2.3428635e+2, -791382.0, -793886.6, -62038.44, -0.032393407, 0.22933011, -730583.2, -86569.5, 0.0, 9.999294, 9.999258 
1.2650442e+3, 2.4428558e+2, -709074.56, -699789.1, -79110.555, -0.028483601, 0.22718094, -625185.2, -79163.26, 0.0, 9.99917, 9.99929 
1.265052e+3, 2.5428408e+2, -563439.1, -572202.4, -72502.83, -0.110494025, 0.14157742, -495185.66, -47149.098, 0.0, 9.999469, 9.99935 
1.2650606e+3, 2.6428357e+2, -453108.78, -466917.5, -50986.043, -0.138717, 0.15688051, -408561.72, -58519.664, 0.0, 9.999548, 9.999362 
1.2650701e+3, 2.7428436e+2, -386665.1, -377296.25, -52918.12, -0.09481836, 0.2907039, -328855.63, -76819.91, 0.0, 9.999301, 9.999422 
1.2650797e+3, 2.8428373e+2, -341851.78, -371302.78, -35613.848, -0.061194256, 0.314292, -318039.16, -163995.89, 0.0, 9.999222, 9.998827 
1.2650892e+3, 2.9428133e+2, -222283.48, -266280.84, -12141.62, -0.045352474, 0.19127302, -219155.27, -163087.03, 0.0, 9.999384, 9.998798 
1.2650985e+3, 3.042807e+2, -153326.14, -183728.97, 3912.5586, -0.06886218, 0.24364054, -152830.7, -152830.7, 0.0, 9.999419, 9.999014 
1.2651078e+3, 3.1428012e+2, -31186.154, 103893.445, -978.61536, -0.061313123, 0.26900464, 103900.53, 103900.53, 0.0, 9.999267, 10.001064 
1.2749314e+3, 1.2428119e+2, -1643993.9, -1709886.0, -213147.53, 0.059077565, 0.2157951, -1461261.3, 260797.33, 0.0044096503, 10.00063, 9.999725 
1.2749442e+3, 1.3427907e+2, -1535304.1, -1647226.6, 46309.49, 0.1720828, 0.06826641, -1518627.8, 105451.0, 0.0024558255, 10.000847, 9.999392 
1.274955e+3, 1.4427897e+2, -1426354.4, -1506299.9, -53298.043, 0.09960147, 0.10282019, -1399705.1, 126374.29, 0.00093550276, 10.000772, 9.99971 
1.2749642e+3, 1.5427968e+2, -1382274.1, -1430289.3, -94770.7, 0.13305207, 0.1969269, -1308517.4, 119555.445, 0.00017466526, 10.000386, 9.999744 
1.2749732e+3, 1.6427934e+2, -1337722.4, -1407317.1, -68041.3, 0.12136168, 0.21296087, -1296096.8, 33979.996, 0.0000047674703, 10.000231, 9.999305 
1.2749818e+3, 1.7427781e+2, -1215416.1, -1294418.5, -39649.645, 0.044019908, 0.12444995, -1198949.1, 33143.79, 0.0, 10.000384, 9.999332 
1.2749906e+3, 1.8427715e+2, -1107843.9, -1173405.4, -60380.52, -0.0042970716, 0.11748607, -1071919.6, 62181.438, 0.0, 10.000368, 9.999499 
1.2749992e+3, 1.9427758e+2, -1036791.0, -1081158.9, -77243.4, -0.013994998, 0.20466815, -978609.06, 57489.426, 0.0, 10.000153, 9.999563 
1.2750079e+3, 2.0427768e+2, -956828.94, -987116.5, -75442.1, -0.035184626, 0.25684255, -895025.7, 43073.11, 0.0, 10.000008, 9.999606 
1.2750167e+3, 2.142773e+2, -863639.75, -884801.5, -64620.473, -0.06847702, 0.25080943, -808739.6, 31362.867, 0.0, 9.999946, 9.999666 
1.2750255e+3, 2.2427666e+2, -839447.44, -887289.9, -72302.71, -0.07545735, 0.24986452, -787211.5, -45102.16, 0.0, 9.99972, 9.999085 
1.2750344e+3, 2.342757e+2, -802976.6, -817490.2, -77875.54, -0.046580914, 0.2422289, -732020.5, -87900.17, 0.0, 9.999291, 9.999098 
1.2750433e+3, 2.4427477e+2, -695037.75, -670372.06, -70276.57, -0.035700947, 0.22260611, -611354.44, -65224.645, 0.0, 9.999167, 9.999495 
1.2750521e+3, 2.5427392e+2, -547344.6, -537652.7, -59871.742, -0.049403418, 0.17615059, -482431.13, -34294.34, 0.0, 9.999462, 9.999591 
1.2750608e+3, 2.642736e+2, -456747.1, -472320.3, -58524.266, -0.07204447, 0.20162009, -405493.72, -55353.867, 0.0, 9.999537, 9.9993305 
1.2750693e+3, 2.7427402e+2, -390954.06, -385519.47, -60275.52, -0.10541481, 0.3041933, -327900.03, -75761.77, 0.0, 9.999298, 9.999368 
1.2750785e+3, 2.842733e+2, -299627.72, -283439.06, -30985.16, -0.112389736, 0.29192987, -259508.42, -105362.42, 0.0, 9.999219, 9.9994335 
1.2750882e+3, 2.942712e+2, -178123.6, -170668.45, -4398.1294, -0.08650228, 0.13322586, -168630.77, -112466.375, 0.0, 9.999366, 9.999464 
1.2750976e+3, 3.042711e+2, -178204.03, -232378.05, -102.34117, -0.0882017, 0.21570583, -178203.83, -178203.83, 0.0, 9.999405, 9.998688 
1.2751074e+3, 3.1427032e+2, -76604.91, 12020.155, 709.8355, -0.048894707, 0.26434952, 12025.84, 12025.84, 0.0, 9.999256, 10.000438 
1.284932e+3, 1.2426976e+2, -1621806.9, -1666418.9, -134415.23, 0.062785365, 0.19500759, -1507859.4, 214311.88, 0.0047468157, 10.000643, 10.000016 
1.2849455e+3, 1.3426784e+2, -1504422.0, -1589481.6, 93456.195, 0.2153243, 0.030004608, -1444273.5, 179913.58, 0.0026545508, 10.000876, 9.999773 
1.2849556e+3, 1.4426804e+2, -1410644.8, -1533255.5, -30043.416, 0.07126629, 0.0861297, -1403679.0, 122505.875, 0.0010215283, 10.00103, 9.9994 
1.2849648e+3, 1.5426843e+2, -1289200.9, -1426365.3, -82747.39, 0.11721757, 0.18740053, -1250309.1, 177875.27, 0.00019628371, 10.001203, 9.999377 
1.2849738e+3, 1.6426829e+2, -1191702.5, -1287748.0, -68194.8, 0.11920055, 0.21990907, -1156318.4, 173869.11, 0.0000059623408, 10.001023, 9.9997425 
1.2849823e+3, 1.7426755e+2, -1182638.4, -1222510.9, -52404.168, 0.050229657, 0.16204496, -1146506.4, 85687.49, 0.0, 10.00037, 9.999832 
1.2849908e+3, 1.8426703e+2, -1167212.8, -1219474.0, -64220.387, -0.0030625577, 0.15074213, -1124010.4, 10189.164, 0.0, 10.000038, 9.999341 
1.2849991e+3, 1.9426675e+2, -1054201.0, -1112638.5, -65827.38, -0.034244705, 0.18648176, -1011399.0, 24805.34, 0.0, 10.000134, 9.999355 
1.2850077e+3, 2.0426664e+2, -953658.9, -981705.0, -65883.78, -0.045937657, 0.22688723, -900322.3, 37884.895, 0.0, 10.000014, 9.99964 
1.2850167e+3, 2.1426672e+2, -908226.8, -899276.44, -71665.91, -0.032285564, 0.26154652, -831946.1, 8260.997, 0.0, 9.999612, 9.999726 
1.2850253e+3, 2.242663e+2, -870359.1, -880060.0, -72733.0, -0.038217437, 0.27025694, -802315.0, -60103.176, 0.0, 9.999413, 9.999283 
1.2850335e+3, 2.3426522e+2, -761346.06, -773724.7, -52694.33, -0.06979747, 0.23074038, -714478.8, -70255.97, 0.0, 9.9994755, 9.99931 
1.2850422e+3, 2.4426435e+2, -651990.8, -661400.44, -28286.395, -0.07555026, 0.20874077, -628020.6, -81789.04, 0.0, 9.999514, 9.99939 
1.2850517e+3, 2.5426373e+2, -548716.4, -552768.2, -46054.266, -0.04774848, 0.20019746, -504643.5, -56406.707, 0.0, 9.999516, 9.999461 
1.2850605e+3, 2.6426336e+2, -490849.72, -498098.84, -76394.5, -0.05365853, 0.23047489, -417993.84, -67753.0, 0.0, 9.999344, 9.999247 
1.2850685e+3, 2.7426326e+2, -447384.66, -421948.63, -83482.71, -0.10385388, 0.29164785, -350220.72, -97976.52, 0.0, 9.998949, 9.999286 
1.2850773e+3, 2.8426248e+2, -330674.56, -276581.5, -47068.13, -0.12046857, 0.26954007, -249342.47, -95090.33, 0.0, 9.998912, 9.999629 
1.2850875e+3, 2.9426095e+2, -168885.83, -141840.3, -54574.98, -0.09330644, 0.1449675, -99137.68, -42873.523, 0.0, 9.999323, 9.999683 
1.285097e+3, 3.0426127e+2, -157731.28, -220116.72, -65657.46, -0.0914955, 0.25461853, -116233.65, -116233.65, 0.0, 9.999538, 9.998706 
1.2851068e+3, 3.1426e+2, -52704.387, -7749.6577, -37452.355, -0.047495797, 0.25568193, 13452.615, 13452.615, 0.0, 9.999556, 10.000157 
1.2949331e+3, 1.24257974e+2, -1622779.3, -1670433.3, -109531.19, 0.09948894, 0.055919793, -1534513.4, 187769.83, 0.0050962004, 10.0006485, 9.999987 
1.2949465e+3, 1.3425758e+2, -1494900.4, -1567933.4, 100952.945, 0.23018935, 0.02966552, -1424062.6, 200221.83, 0.0028611089, 10.00087, 9.999925 
1.2949558e+3, 1.4425813e+2, -1443281.9, -1600351.3, -25473.4, -0.0070799273, 0.13514781, -1439253.9, 87026.18, 0.00111182, 10.001026, 9.998943 
1.2949654e+3, 1.5425673e+2, -1321779.0, -1496046.3, -75694.63, 0.06316151, 0.104413934, -1293491.9, 134807.61, 0.000219555, 10.00121, 9.998896 
1.2949744e+3, 1.6425636e+2, -1169594.3, -1243746.0, -92060.18, 0.08379366, 0.12771846, -1107424.5, 222881.27, 0.0000074533, 10.00103, 10.000043 
1.2949823e+3, 1.7425756e+2, -1157575.6, -1171466.1, -77355.8, 0.018721363, 0.22865619, -1086853.9, 145439.02, 0.0, 10.000373, 10.000181 
1.2949906e+3, 1.8425755e+2, -1165905.1, -1216344.4, -64253.105, -0.02056725, 0.24742599, -1122099.4, 12193.277, 0.0, 10.000035, 9.999365 
1.2949996e+3, 1.9425583e+2, -1054758.5, -1112947.4, -62401.13, -0.01641374, 0.13862017, -1015002.5, 21307.377, 0.0, 10.00013, 9.999356 
1.2950084e+3, 2.0425503e+2, -963267.7, -1000511.44, -81437.984, 0.0023690227, 0.117644385, -898349.6, 39969.406, 0.0, 10.000009, 9.999515 
1.295017e+3, 2.142555e+2, -917917.5, -919448.25, -87008.5, 0.037389774, 0.20349544, -831671.0, 8646.052, 0.0, 9.999611, 9.99959 
1.2950252e+3, 2.2425552e+2, -834688.4, -805241.25, -72920.055, 0.007865774, 0.23986988, -745573.2, -3255.6802, 0.0, 9.999409, 9.999799 
1.2950327e+3, 2.3425497e+2, -721868.2, -691105.0, -49780.832, -0.10569233, 0.19508712, -654383.56, -10062.437, 0.0, 9.999471, 9.99988 
1.295041e+3, 2.4425432e+2, -681656.44, -721526.8, -28713.557, -0.15270701, 0.18583277, -666636.2, -120308.95, 0.0, 9.999507, 9.998981 
1.2950505e+3, 2.542536e+2, -583526.9, -624350.94, -44682.87, -0.109337986, 0.21402416, -554814.5, -106478.2, 0.0, 9.999512, 9.998972 
1.2950595e+3, 2.642529e+2, -501132.6, -519510.97, -89919.06, -0.08747662, 0.24318364, -419934.4, -69589.54, 0.0, 9.999342, 9.999101 
1.2950675e+3, 2.742522e+2, -455782.28, -438225.84, -96082.13, -0.095681384, 0.25369826, -350521.78, -98168.45, 0.0, 9.998942, 9.999178 
1.2950766e+3, 2.8425136e+2, -346878.88, -309001.8, -32554.621, -0.092082664, 0.24693373, -290277.75, -135916.25, 0.0, 9.998905, 9.99941 
1.2950869e+3, 2.942507e+2, -186257.34, -175179.19, -36014.09, -0.07417672, 0.22856338, -144280.7, -87913.71, 0.0, 9.9993105, 9.99946 
1.2950967e+3, 3.0425128e+2, -134777.78, -171130.88, -64351.0, -0.08714791, 0.3624508, -86085.516, -86085.516, 0.0, 9.999529, 9.999048 
1.2951063e+3, 3.1424928e+2, -54747.977, -3343.7263, -29747.041, -0.06759735, 0.25110048, 10266.813, 10266.813, 0.0, 9.999517, 10.000207 
1.3049346e+3, 1.242477e+2, -1389470.4, -1617291.5, -71505.78, 0.09631404, 0.03610662, -1368886.6, 353496.3, 0.0054552136, 10.002517, 9.999453 
1.3049477e+3, 1.3424747e+2, -1434462.5, -1578018.8, 71770.41, 0.2355511, 0.06197884, -1404736.5, 219648.39, 0.003073975, 10.001456, 9.999572 
1.3049562e+3, 1.4424816e+2, -1471967.5, -1590004.3, -32038.67, -0.055567384, 0.19040376, -1463832.0, 62547.65, 0.0012055306, 10.000727, 9.999158 
1.3049662e+3, 1.5424643e+2, -1398017.3, -1503831.9, -25898.553, 0.04856706, 0.102372274, -1392018.6, 36381.86, 0.000244213, 10.000565, 9.999153 
1.3049752e+3, 1.6424589e+2, -1256142.9, -1306553.6, -38069.117, 0.08301468, 0.102781676, -1235691.3, 94716.83, 0.000009295233, 10.000528, 9.999852 
1.3049826e+3, 1.7424713e+2, -1129213.9, -1183012.6, -68956.43, 0.0017463466, 0.22827938, -1082095.9, 150300.25, 0.0, 10.000677, 9.999956 
1.3049908e+3, 1.842472e+2, -1070973.5, -1145418.0, -67609.53, -0.035822883, 0.25834462, -1031017.06, 103378.15, 0.0, 10.00058, 9.999589 
1.3049997e+3, 1.9424568e+2, -1033832.0, -1072969.8, -47913.824, -0.008633079, 0.14275855, -1001644.94, 34764.227, 0.0, 10.000147, 9.999621 
1.3050082e+3, 2.0424482e+2, -993162.25, -1022384.1, -56477.664, 0.008287003, 0.10668553, -949436.2, -11018.019, 0.0, 9.999837, 9.999447 
1.3050164e+3, 2.1424496e+2, -913029.5, -927637.75, -60904.453, 0.0077336305, 0.16793548, -858992.75, -18572.865, 0.0, 9.999691, 9.999495 
1.3050245e+3, 2.2424506e+2, -788657.6, -768454.2, -44661.09, -0.025646111, 0.20999111, -732766.6, 9653.309, 0.0, 9.999661, 9.999929 
1.3050324e+3, 2.342451e+2, -665178.5, -646786.4, -53982.313, -0.1015999, 0.2110739, -601222.44, 43195.258, 0.0, 9.999788, 10.0000305 
1.3050407e+3, 2.4424466e+2, -660816.9, -715241.8, -47169.605, -0.13455358, 0.21475507, -633573.0, -87151.195, 0.0, 9.999666, 9.998947 
1.30505e+3, 2.5424355e+2, -631250.94, -652938.94, -33329.992, -0.109550275, 0.21127217, -607045.25, -158611.19, 0.0, 9.9992075, 9.998922 
1.3050586e+3, 2.6424262e+2, -534041.9, -545177.1, -48537.49, -0.09327346, 0.2226004, -490753.72, -140309.1, 0.0, 9.999159, 9.999013 
1.305067e+3, 2.7424183e+2, -358159.72, -401529.8, -54856.313, -0.089106604, 0.23312563, -320857.88, -68404.28, 0.0, 9.999658, 9.999085 
1.3050759e+3, 2.842409e+2, -263666.5, -294992.6, 1539.9503, -0.08003045, 0.2321378, -263591.0, -109128.2, 0.0, 9.99959, 9.999176 
1.305086e+3, 2.9424012e+2, -281290.6, -247935.58, -6391.836, -0.066318154, 0.22605991, -246752.66, -190282.52, 0.0, 9.998775, 9.999219 
1.3050957e+3, 3.0424058e+2, -279977.34, -202702.8, -23978.635, -0.07535489, 0.34504184, -195866.84, -195866.84, 0.0, 9.998368, 9.999391 
1.3051054e+3, 3.1423858e+2, -195648.22, -65062.613, 10256.499, -0.048711617, 0.19918104, -64261.953, -64261.953, 0.0, 9.998521, 10.000265 
1.3149366e+3, 1.2423908e+2, -1463437.9, -1773357.5, -83929.22, 0.039473563, 0.13867801, -1442168.6, 280300.6, 0.005819013, 10.002523, 9.998377 
1.3149491e+3, 1.3423759e+2, -1493479.9, -1703343.0, 29917.285, 0.2268992, 0.12777594, -1489298.4, 135189.25, 0.0032902497, 10.001468, 9.998706 
1.3149567e+3, 1.4423819e+2, -1408930.6, -1460904.3, -42972.92, -0.08181247, 0.25114664, -1384698.1, 141784.94, 0.0013013786, 10.000733, 10.000042 
1.314967e+3, 1.5423764e+2, -1328864.0, -1358762.1, -31944.865, 0.0690026, 0.18142249, -1308543.4, 119943.11, 0.00026992275, 10.000557, 10.000153 
1.3149759e+3, 1.6423696e+2, -1305306.3, -1407658.3, -34921.934, 0.11248192, 0.14610179, -1294526.4, 35966.99, 0.00001153221, 10.000523, 9.999162 
1.3149832e+3, 1.7423628e+2, -1185558.8, -1300817.8, -63220.652, -0.004676441, 0.1619469, -1157642.9, 74860.0, 0.0, 10.000679, 9.999146 
1.3149913e+3, 1.8423603e+2, -1041185.56, -1083804.3, -83899.25, -0.055944707, 0.18373774, -975931.8, 158574.63, 0.0, 10.000579, 10.000012 
1.3149998e+3, 1.9423632e+2, -997162.56, -997258.2, -64671.152, -0.014428371, 0.19727863, -932539.25, 103962.74, 0.0, 10.000147, 10.000142 
1.3150077e+3, 2.0423609e+2, -994559.56, -1024838.5, -64342.76, -0.030917902, 0.19338602, -943599.2, -5094.9146, 0.0, 9.999834, 9.999432 
1.3150148e+3, 2.1423516e+2, -917905.2, -936887.5, -66191.484, -0.12473834, 0.15500385, -860527.9, -20012.662, 0.0, 9.999685, 9.999434 
1.3150229e+3, 2.2423492e+2, -807808.7, -806078.25, -42070.055, -0.1444655, 0.1805721, -764864.5, -22345.732, 0.0, 9.999651, 9.999677 
1.3150325e+3, 2.3423567e+2, -684926.9, -686876.7, -48809.89, -0.061980776, 0.27700847, -637082.1, 7430.259, 0.0, 9.999783, 9.999759 
1.3150415e+3, 2.4423535e+2, -637998.0, -667177.4, -63300.637, -0.026116313, 0.2935465, -587627.44, -41112.242, 0.0, 9.999662, 9.99928 
1.3150497e+3, 2.5423366e+2, -605043.25, -597545.25, -49288.836, -0.05374017, 0.19271229, -551863.06, -103333.195, 0.0, 9.999202, 9.999307 
1.315058e+3, 2.6423255e+2, -538633.25, -553101.4, -31933.47, -0.076077014, 0.16940534, -513124.7, -162584.56, 0.0, 9.999151, 9.998962 
1.3150665e+3, 2.7423218e+2, -365452.22, -415295.16, -33641.066, -0.089822784, 0.23145308, -348507.22, -95962.23, 0.0, 9.999651, 9.998995 
1.3150755e+3, 2.8423107e+2, -281112.4, -330747.44, -25667.826, -0.09115242, 0.22678374, -270226.34, -115670.22, 0.0, 9.999586, 9.998934 
1.3150847e+3, 2.942292e+2, -300593.75, -285441.97, -34584.96, -0.07645589, 0.13951904, -257612.86, -201039.25, 0.0, 9.998762, 9.998969 
1.3150941e+3, 3.0422917e+2, -258200.8, -155332.06, -19236.613, -0.06345138, 0.20438397, -151852.48, -151852.48, 0.0, 9.998359, 9.999722 
1.3151044e+3, 3.1422806e+2, -194374.38, -57207.82, 24087.547, -0.003837416, 0.11020195, -53100.824, -53100.824, 0.0, 9.9985, 10.00033 
1.3249387e+3, 1.2423012e+2, -1487944.1, -1827479.9, -77816.28, 0.00009352359, 0.2058603, -1470959.5, 251600.7, 0.006183249, 10.002535, 9.998001 
1.3249508e+3, 1.3422789e+2, -1424640.4, -1681524.0, 58006.734, 0.23252432, 0.13441436, -1412149.3, 212436.39, 0.0035072896, 10.001996, 9.998599 
1.3249576e+3, 1.4422831e+2, -1304607.0, -1410706.0, 5457.8623, -0.09146421, 0.24436142, -1304327.0, 222255.69, 0.0013982238, 10.001452, 10.000039 
1.3249676e+3, 1.5422837e+2, -1253291.0, -1323073.6, -57963.93, 0.056185246, 0.2360779, -1220527.1, 208052.52, 0.00029637254, 10.001079, 10.000147 
1.3249764e+3, 1.642277e+2, -1282146.8, -1396189.4, -70754.086, 0.10061673, 0.20194066, -1248296.9, 82288.984, 0.000014169166, 10.000681, 9.999165 
1.3249838e+3, 1.7422624e+2, -1250516.9, -1331509.5, -40058.316, -0.0107209785, 0.14029004, -1234051.6, -1449.4758, 0.0, 10.000232, 9.999151 
1.3249913e+3, 1.8422587e+2, -1130464.1, -1122245.6, -43016.793, -0.06253481, 0.14749415, -1083142.3, 51464.418, 0.0, 9.999948, 10.000052 
1.3249996e+3, 1.9422689e+2, -1029227.94, -1007918.06, -60871.93, -0.033474244, 0.23116796, -956775.6, 79820.17, 0.0, 9.999907, 10.000184 
1.3250074e+3, 2.04227e+2, -973223.3, -995193.25, -66201.92, -0.051620074, 0.25242937, -917101.2, 21493.205, 0.0, 9.999897, 9.999604 
1.3250144e+3, 2.1422592e+2, -870867.2, -892854.5, -51714.734, -0.13462637, 0.17921375, -828990.5, 11614.767, 0.0, 9.999919, 9.999622 
1.3250226e+3, 2.242254e+2, -813240.3, -852173.1, -21944.51, -0.13829985, 0.1825337, -803372.4, -60760.844, 0.0, 9.999803, 9.999287 
1.3250324e+3, 2.3422566e+2, -757403.1, -770213.8, -42631.543, -0.033980533, 0.27415466, -720698.44, -76086.945, 0.0, 9.9994955, 9.999325 
1.3250412e+3, 2.4422519e+2, -655933.6, -641824.4, -65432.51, -0.00070221093, 0.2858021, -583067.3, -36451.563, 0.0, 9.999394, 9.999582 
1.325049e+3, 2.542238e+2, -523922.88, -516965.06, -55321.11, -0.06414584, 0.178812, -465013.6, -16388.236, 0.0, 9.999583, 9.999675 
1.3250571e+3, 2.6422283e+2, -490020.22, -535596.94, -32029.215, -0.08813145, 0.15144615, -473499.8, -122866.59, 0.0, 9.999513, 9.998908 
1.3250662e+3, 2.7422237e+2, -454959.28, -468146.1, -35211.145, -0.05651537, 0.21362513, -425729.53, -173090.39, 0.0, 9.999081, 9.998906 
1.3250752e+3, 2.8422123e+2, -378241.28, -383303.1, -30034.098, -0.047860593, 0.2098236, -350631.63, -195980.47, 0.0, 9.998946, 9.99888 
1.3250837e+3, 2.9421926e+2, -236907.7, -258503.34, -27828.922, -0.07034413, 0.1195317, -217855.2, -161185.44, 0.0, 9.999217, 9.998933 
1.3250928e+3, 3.0421907e+2, -144438.94, -68948.75, -6710.771, -0.07104434, 0.15743147, -68356.83, -68356.83, 0.0, 9.999006, 10.000002 
1.3251026e+3, 3.1421876e+2, -242148.9, -72287.63, 30667.635, -0.010173651, 0.111721225, -66920.336, -66920.336, 0.0, 9.99814, 10.000397 
1.334941e+3, 1.2422087e+2, -1463526.9, -1779084.1, -69694.234, -0.035739582, 0.23673935, -1448819.6, 273835.53, 0.0065457188, 10.002544, 9.99833 
1.334953e+3, 1.3421845e+2, -1380168.9, -1586689.3, 35104.98, 0.25061798, 0.08240449, -1374364.8, 250313.58, 0.0037237175, 10.001987, 9.999254 
1.3349593e+3, 1.4421856e+2, -1367907.9, -1541180.6, -11613.163, -0.089208975, 0.16965377, -1367133.0, 159544.78, 0.0014951822, 10.001448, 9.9991455 
1.3349682e+3, 1.5421869e+2, -1322788.6, -1469227.5, -71299.62, 0.0035296709, 0.26619706, -1293808.8, 134870.67, 0.00032323142, 10.001086, 9.999141 
1.3349766e+3, 1.6421817e+2, -1233786.4, -1297673.1, -88881.26, 0.037781347, 0.2715093, -1171282.6, 159402.16, 0.000017128494, 10.000687, 9.999839 
1.3349839e+3, 1.7421708e+2, -1193681.1, -1214127.6, -57408.984, -0.020276472, 0.16311601, -1145592.3, 87100.95, 0.00000000003443261, 10.000233, 9.999958 
1.3349913e+3, 1.8421675e+2, -1154935.1, -1172430.4, -47617.47, -0.06010544, 0.1493549, -1115268.5, 19427.031, 0.0, 9.999945, 9.99971 
1.3349992e+3, 1.9421747e+2, -1059934.8, -1071389.4, -62536.926, -0.069716886, 0.24442072, -1002863.44, 33826.66, 0.0, 9.999905, 9.999751 
1.3350073e+3, 2.0421769e+2, -949746.44, -944532.75, -67119.38, -0.060721688, 0.28431347, -879969.6, 58718.44, 0.0, 9.999887, 9.999957 
1.3350154e+3, 2.1421729e+2, -842319.5, -832781.3, -51206.258, -0.026701618, 0.23908843, -786122.56, 54567.35, 0.0, 9.999914, 10.000039 
1.3350236e+3, 2.2421648e+2, -849804.56, -927361.9, -33949.965, -0.011318054, 0.21430162, -837043.06, -94345.02, 0.0, 9.999799, 9.998773 
1.335032e+3, 2.3421513e+2, -799806.2, -857327.75, -53358.44, -0.020241234, 0.2040679, -767950.94, -123236.47, 0.0, 9.99949, 9.998731 
1.33504e+3, 2.4421424e+2, -638556.06, -604429.9, -59830.06, -0.061588492, 0.19299223, -559277.4, -12554.362, 0.0, 9.999388, 9.999843 
1.3350478e+3, 2.5421402e+2, -501329.34, -469540.5, -46913.617, -0.14540984, 0.16963674, -435901.9, 12818.557, 0.0, 9.999579, 10.000003 
1.3350563e+3, 2.6421344e+2, -493640.88, -543199.06, -46282.63, -0.13458692, 0.16812265, -465921.53, -115197.57, 0.0, 9.999512, 9.9988575 
1.335066e+3, 2.742124e+2, -461978.13, -481037.66, -49203.88, 0.004047453, 0.17832814, -421389.66, -168653.61, 0.0, 9.999072, 9.998823 
1.335075e+3, 2.8421128e+2, -372351.3, -368030.8, -20708.902, 0.0423795, 0.17916372, -349369.78, -194621.67, 0.0, 9.998932, 9.998993 
1.3350832e+3, 2.9421026e+2, -229205.48, -240125.42, -14381.066, -0.054307755, 0.1690178, -219282.8, -162524.19, 0.0, 9.999206, 9.999065 
1.3350914e+3, 3.0421025e+2, -128259.47, -34002.49, -35234.27, -0.10539668, 0.20604035, -22287.557, -22287.557, 0.0, 9.999, 10.000245 
1.3351001e+3, 3.142105e+2, -237540.98, -59564.973, 3652.9036, -0.080415614, 0.19570427, -59490.03, -59490.03, 0.0, 9.998125, 10.000492 
1.3449435e+3, 1.2421218e+2, -1454919.5, -1764576.3, -8699.053, -0.0291349, 0.25732282, -1454675.4, 268068.63, 0.0069055543, 10.002564, 9.998418 
1.3449548e+3, 1.3421045e+2, -1375561.4, -1548049.0, 37683.574, 0.24351847, 0.13898745, -1367688.0, 257070.88, 0.0039389143, 10.0018635, 9.99958 
1.3449603e+3, 1.4421025e+2, -1416785.9, -1607081.4, 10427.745, -0.105387874, 0.19502567, -1416216.3, 110544.8, 0.0015916337, 10.001294, 9.998767 
1.3449691e+3, 1.5420957e+2, -1364645.4, -1538982.1, -7968.823, -0.008011342, 0.25677234, -1364281.9, 64489.61, 0.0003501717, 10.001015, 9.998695 
1.3449772e+3, 1.6420896e+2, -1215619.1, -1271687.1, -20536.693, 0.028603563, 0.26937792, -1208901.8, 121876.38, 0.000020254476, 10.000738, 9.999991 
1.3449842e+3, 1.7420872e+2, -1140512.9, -1165443.1, -35092.715, -0.032640364, 0.22624579, -1115737.3, 117039.9, 0.0000000014653116, 10.000499, 10.000164 
1.3449913e+3, 1.8420844e+2, -1129651.8, -1173568.5, -36823.203, -0.07288254, 0.21020012, -1108736.8, 26041.361, 0.0, 10.0001745, 9.999592 
1.344999e+3, 1.9420809e+2, -1097749.5, -1105106.0, -32103.379, -0.08152478, 0.21306676, -1069114.4, -32332.055, 0.0, 9.999713, 9.999611 
1.345007e+3, 2.042079e+2, -1017506.06, -996259.5, -29687.742, -0.055210453, 0.22789052, -975351.56, -36567.625, 0.0, 9.999505, 9.999786 
1.3450156e+3, 2.1420799e+2, -893314.94, -876706.25, -58126.38, 0.016184252, 0.24827847, -826294.0, 14487.801, 0.0, 9.999646, 9.9998665 
1.3450238e+3, 2.242073e+2, -851613.94, -908581.75, -49218.27, 0.027582388, 0.23599523, -823231.56, -80443.164, 0.0, 9.999703, 9.998947 
1.3450314e+3, 2.3420554e+2, -761005.6, -814393.3, -12723.624, -0.042203303, 0.16597407, -758128.3, -113321.85, 0.0, 9.999656, 9.998943 
1.3450392e+3, 2.4420455e+2, -628151.25, -635299.6, 3145.6062, -0.09581229, 0.14703059, -626964.2, -80148.13, 0.0, 9.999618, 9.999518 
1.3450475e+3, 2.5420457e+2, -526458.1, -522382.03, -36391.445, -0.12621307, 0.18569411, -487971.6, -39157.883, 0.0, 9.999586, 9.999636 
1.345056e+3, 2.642041e+2, -494475.16, -523180.88, -71512.69, -0.10198175, 0.20327781, -435889.22, -85071.68, 0.0, 9.999422, 9.999037 
1.345065e+3, 2.7420288e+2, -443347.4, -445640.7, -55661.08, -0.0050446107, 0.17585754, -388821.16, -135991.39, 0.0, 9.999091, 9.999054 
1.3450737e+3, 2.8420186e+2, -396213.6, -370500.4, -3592.048, 0.028580137, 0.17120387, -370008.03, -215167.88, 0.0, 9.998733, 9.99907 
1.3450822e+3, 2.9420125e+2, -350434.5, -290011.4, -2868.5723, -0.021837423, 0.19421048, -289875.53, -233028.55, 0.0, 9.998342, 9.999137 
1.3450904e+3, 3.0420098e+2, -246801.13, -125023.63, -48612.586, -0.071263984, 0.21591906, -107998.18, -107998.18, 0.0, 9.998333, 9.999942 
1.345098e+3, 3.142017e+2, -166450.92, -64247.676, -55564.68, -0.12513828, 0.28471345, -39858.84, -39858.84, 0.0, 9.998785, 10.000142 
1.3549465e+3, 1.24204166e+2, -1469208.6, -1791826.4, -8370.679, 0.013162487, 0.26703212, -1468991.6, 253833.98, 0.0072628423, 10.002552, 9.998238 
1.3549563e+3, 1.3420397e+2, -1375443.9, -1547703.0, 10100.603, 0.20465454, 0.3048864, -1374853.6, 249972.84, 0.004152666, 10.001864, 9.999581 
1.3549612e+3, 1.4420342e+2, -1407707.0, -1590879.5, -3190.3848, -0.15197176, 0.32091555, -1407651.5, 119179.95, 0.0016872559, 10.001304, 9.998876 
1.3549705e+3, 1.542011e+2, -1357190.5, -1524194.3, -18549.918, 0.018342938, 0.20899394, -1355154.9, 73700.305, 0.0003769789, 10.001016, 9.998797 
1.3549782e+3, 1.6420013e+2, -1241142.3, -1324256.1, -31594.273, 0.07036592, 0.195706, -1230496.0, 100369.19, 0.000023370363, 10.000735, 9.999633 
1.3549843e+3, 1.7420126e+2, -1167401.0, -1222106.3, -43916.92, -0.05218641, 0.3283911, -1143015.3, 89838.27, 0.0000000068048798, 10.000501, 9.999774 
1.354991e+3, 1.8420099e+2, -1123356.6, -1159772.4, -55198.914, -0.10994435, 0.3309472, -1083440.1, 51413.996, 0.0, 10.000171, 9.999689 
1.3549986e+3, 1.9419882e+2, -1088030.4, -1084919.1, -49866.45, -0.07260609, 0.13650122, -1036584.06, 287.84277, 0.0, 9.999711, 9.999751 
1.3550065e+3, 2.041977e+2, -1066051.6, -1096492.4, -27850.576, -0.03816625, 0.08198415, -1049533.9, -110652.0, 0.0, 9.999502, 9.999101 
1.355015e+3, 2.1419808e+2, -947070.2, -987258.4, -52747.945, -0.009735993, 0.20819193, -910718.56, -69838.2, 0.0, 9.999641, 9.999111 
1.355023e+3, 2.241979e+2, -793586.1, -786496.5, -51916.977, -0.026450502, 0.2485585, -738003.44, 4878.6064, 0.0, 9.999695, 9.99979 
1.3550304e+3, 2.3419693e+2, -693220.6, -672615.6, -14373.428, -0.10405585, 0.15906629, -665233.75, -20346.201, 0.0, 9.999649, 9.999921 
1.3550387e+3, 2.441961e+2, -691063.6, -764371.6, 1320.1735, -0.10878851, 0.14667273, -691039.8, -144144.8, 0.0, 9.99961, 9.998636 
1.3550483e+3, 2.541955e+2, -601874.7, -675762.06, -35924.836, -0.0132237505, 0.22588888, -587287.5, -138382.42, 0.0, 9.999572, 9.99859 
1.3550565e+3, 2.6419476e+2, -469811.63, -469303.53, -82133.96, 0.004009235, 0.2555008, -387423.22, -36509.32, 0.0, 9.999409, 9.9994135 
1.3550632e+3, 2.7419385e+2, -408068.8, -372687.1, -65719.15, -0.08720762, 0.20810561, -322319.34, -69399.01, 0.0, 9.99909, 9.999557 
1.3550712e+3, 2.8419298e+2, -392289.63, -363386.94, -17438.783, -0.093723774, 0.18864204, -355189.8, -200262.36, 0.0, 9.998736, 9.999118 
1.355081e+3, 2.9419217e+2, -351406.3, -290532.03, -14721.424, 0.017761808, 0.1909867, -287158.8, -230222.97, 0.0, 9.998334, 9.999139 
1.3550897e+3, 3.041912e+2, -307831.16, -248631.38, -32099.979, 0.02179443, 0.18197009, -234567.08, -234567.08, 0.0, 9.998319, 9.999101 
1.3550965e+3, 3.1419218e+2, -224041.36, -178027.69, -32223.486, -0.15473965, 0.3665902, -161440.75, -161440.75, 0.0, 9.998758, 9.999375 
1.364949e+3, 1.2419626e+2, -1471298.6, -1814246.3, -1093.4817, 0.016942581, 0.28135756, -1471295.1, 251610.5, 0.0076198755, 10.002626, 9.99805 
1.364958e+3, 1.3419662e+2, -1395975.6, -1567659.1, -19766.223, 0.18867838, 0.3860214, -1393729.3, 231173.73, 0.004366158, 10.001768, 9.99949 
1.3649625e+3, 1.4419593e+2, -1426454.3, -1563840.3, -12657.251, -0.1542414, 0.37446496, -1425297.9, 101611.52, 0.0017823466, 10.00102, 9.999197 
1.3649713e+3, 1.5419364e+2, -1392307.0, -1502008.6, -7614.394, 0.023870697, 0.22961017, -1391781.0, 37148.824, 0.0004035849, 10.000605, 9.999148 
1.364979e+3, 1.641925e+2, -1318121.0, -1393162.3, 892.88983, 0.079318106, 0.19559108, -1318110.4, 12829.478, 0.000026350568, 10.000344, 9.999348 
1.3649848e+3, 1.7419326e+2, -1225939.8, -1288099.9, -9454.16, -0.042904172, 0.32654658, -1224533.6, 8399.3545, 0.000000016360648, 10.000263, 9.999435 
1.3649915e+3, 1.8419288e+2, -1122014.4, -1183998.3, -27379.13, -0.091805786, 0.3450187, -1111652.8, 23282.959, 0.0, 10.000286, 9.999467 
1.3649991e+3, 1.9419087e+2, -991516.94, -1062208.0, -49449.08, -0.038659915, 0.18819271, -966079.94, 70872.266, 0.0, 10.000475, 9.999539 
1.3650067e+3, 2.0418951e+2, -945272.75, -1050638.8, -21769.098, -0.01931069, 0.12632559, -940952.3, -1988.1561, 0.0, 10.000386, 9.998988 
1.3650145e+3, 2.1418911e+2, -913261.7, -981691.44, 344.11206, -0.047945824, 0.18441033, -913260.0, -72290.82, 0.0, 9.999923, 9.999011 
1.3650222e+3, 2.2418877e+2, -788626.56, -772580.0, 9389.229, -0.07544627, 0.21204183, -768252.94, -25281.506, 0.0, 9.999683, 9.999889 
1.3650301e+3, 2.3418857e+2, -671756.75, -649666.9, -18810.506, -0.10215004, 0.18583187, -638898.4, 6071.187, 0.0, 9.999744, 10.000031 
1.3650385e+3, 2.4418797e+2, -723146.94, -786756.25, -24790.047, -0.08004302, 0.19168156, -714626.9, -167651.75, 0.0, 9.999423, 9.998571 
1.3650475e+3, 2.5418684e+2, -750187.25, -755181.9, 5484.3564, 0.009009359, 0.22453645, -746658.4, -297667.63, 0.0, 9.998591, 9.998515 
1.3650556e+3, 2.6418576e+2, -610606.2, -546999.2, 8251.637, 0.017470628, 0.23225304, -545946.1, -194943.34, 0.0, 9.998489, 9.99932 
1.3650624e+3, 2.7418494e+2, -372712.84, -365635.3, -19484.193, -0.08493622, 0.2016404, -349371.13, -96362.414, 0.0, 9.999382, 9.999462 
1.3650702e+3, 2.841843e+2, -268734.16, -313262.56, -27597.074, -0.11307448, 0.21197318, -255540.03, -100525.77, 0.0, 9.999629, 9.999031 
1.3650791e+3, 2.941838e+2, -264085.06, -257292.44, -36103.73, -0.034807324, 0.25251368, -224425.63, -167405.11, 0.0, 9.998974, 9.999058 
1.3650878e+3, 3.041823e+2, -299774.28, -233098.36, -7664.3784, -0.0060412157, 0.19350195, -232228.69, -232228.69, 0.0, 9.998325, 9.999204 
1.3650952e+3, 3.14183e+2, -354081.3, -198489.03, 64264.723, -0.10616194, 0.33719322, -175378.31, -175378.31, 0.0, 9.997684, 9.999752 
1.3749513e+3, 1.2418849e+2, -1483954.8, -1843129.9, -14323.911, -0.030622588, 0.29452592, -1483384.4, 239599.5, 0.0079810945, 10.002635, 9.997849 
1.3749598e+3, 1.341885e+2, -1410082.5, -1595885.8, -54546.195, 0.19325113, 0.38457108, -1395253.0, 229734.7, 0.0045821774, 10.001763, 9.999298 
1.3749637e+3, 1.4418781e+2, -1388217.1, -1483782.3, -32740.264, -0.11566016, 0.35776266, -1378076.5, 148917.75, 0.0018779465, 10.001017, 9.999749 
1.3749717e+3, 1.5418717e+2, -1348865.4, -1411773.4, -22427.63, 0.0023713454, 0.31740662, -1341688.4, 87306.195, 0.00043006244, 10.000604, 9.999768 
1.374979e+3, 1.6418613e+2, -1333628.6, -1426243.5, -4118.438, 0.045539528, 0.26953465, -1333445.9, -2444.2327, 0.000029160963, 10.000346, 9.999122 
1.3749854e+3, 1.7418481e+2, -1246370.8, -1331861.4, -12719.254, -0.008024672, 0.22114706, -1244518.5, -11503.3955, 0.000000027808229, 10.000267, 9.999134 
1.3749926e+3, 1.8418413e+2, -1159883.4, -1262456.1, -23124.33, -0.021853426, 0.2506091, -1154911.3, -19888.475, 0.0, 10.000285, 9.99893 
1.3750002e+3, 1.9418429e+2, -1031095.6, -1143855.4, -42522.137, 0.01569223, 0.3677896, -1016858.06, 20164.598, 0.0, 10.000472, 9.9989805 
1.3750073e+3, 2.041834e+2, -914488.4, -985165.8, -38952.504, -0.0049186675, 0.36180186, -897233.2, 41797.133, 0.0, 10.000378, 9.999442 
1.3750137e+3, 2.1418113e+2, -875847.5, -902586.75, -17193.588, -0.1026036, 0.17671596, -867437.2, -26389.316, 0.0, 9.999915, 9.999558 
1.3750213e+3, 2.2418e+2, -834678.8, -866259.9, 8938.163, -0.12398066, 0.12538016, -832324.6, -89268.25, 0.0, 9.999674, 9.999251 
1.3750306e+3, 2.3418051e+2, -725255.56, -758717.3, -15707.801, -0.040673267, 0.24644332, -719037.44, -73985.31, 0.0, 9.999735, 9.999288 
1.3750386e+3, 2.4418013e+2, -673748.6, -682263.75, -53702.25, -0.013269998, 0.28164014, -624135.44, -77079.46, 0.0, 9.9994135, 9.999294 
1.3750455e+3, 2.5417855e+2, -690892.06, -631302.9, -24647.477, -0.062827975, 0.18412891, -622429.5, -173358.73, 0.0, 9.998587, 9.999368 
1.3750532e+3, 2.641771e+2, -649625.8, -628550.5, 36828.99, -0.06552062, 0.1369821, -600781.3, -249696.89, 0.0, 9.998489, 9.99876 
1.3750626e+3, 2.741761e+2, -422799.8, -466998.2, 16679.396, -0.007612022, 0.15353519, -417211.88, -164116.33, 0.0, 9.999369, 9.998774 
1.3750705e+3, 2.841757e+2, -287238.6, -347006.47, -46343.53, -0.03943529, 0.23660517, -261979.33, -106877.98, 0.0, 9.999608, 9.998809 
1.3750766e+3, 2.9417604e+2, -278458.66, -283545.22, -57031.23, -0.18353441, 0.3828955, -223914.03, -166813.19, 0.0, 9.998958, 9.998885 
1.3750847e+3, 3.0417424e+2, -230067.34, -89006.59, -30108.406, -0.15853003, 0.25675228, -82848.96, -82848.96, 0.0, 9.998325, 10.000195 
1.375094e+3, 3.1417382e+2, -252316.0, 12890.027, 43074.145, 0.002443324, 0.17811705, 19710.617, 19710.617, 0.0, 9.997681, 10.001206 
1.3849536e+3, 1.24181405e+2, -1650943.8, -1926902.8, 50612.605, -0.0020608674, 0.2999208, -1641954.0, 81099.92, 0.008351057, 10.001493, 9.997824 
1.3849615e+3, 1.3418142e+2, -1443993.4, -1618364.0, -129.82654, 0.19273704, 0.39537638, -1443993.3, 181065.63, 0.004803759, 10.001557, 9.999242 
1.384965e+3, 1.4418046e+2, -1326168.1, -1455483.8, 12330.315, -0.10525697, 0.34803042, -1325002.9, 202065.47, 0.0019753822, 10.001451, 9.999735 
1.3849725e+3, 1.541803e+2, -1265935.1, -1373548.6, -26817.252, -0.012265101, 0.35417914, -1259622.5, 169441.39, 0.00045665295, 10.001181, 9.999753 
1.3849793e+3, 1.6417927e+2, -1262792.8, -1410949.5, -23784.66, 0.021534553, 0.31450173, -1259068.1, 72002.64, 0.00003186285, 10.000915, 9.998952 
1.3849859e+3, 1.7417729e+2, -1194529.8, -1327113.5, -24088.176, -0.019171815, 0.22117625, -1190289.0, 42801.348, 0.000000039188958, 10.0007105, 9.998953 
1.3849929e+3, 1.8417631e+2, -1159497.6, -1292704.4, -18190.635, -0.01777109, 0.24315652, -1157058.3, -21956.738, 0.0, 10.000421, 9.998655 
1.3850006e+3, 1.9417666e+2, -1119108.6, -1217598.4, -18402.436, 0.035587076, 0.40673453, -1115782.5, -78681.49, 0.0, 10.000005, 9.998698 
1.3850075e+3, 2.0417587e+2, -1002612.94, -1017859.1, -20308.23, 0.021282747, 0.42281464, -988544.2, -49436.438, 0.0, 9.999732, 9.999528 
1.3850138e+3, 2.141736e+2, -905028.25, -903894.7, -32704.365, -0.08540893, 0.22558671, -871752.2, -30628.24, 0.0, 9.99966, 9.999673 
1.385021e+3, 2.2417234e+2, -892709.4, -908031.94, -6416.288, -0.108525954, 0.15951052, -890377.44, -147243.98, 0.0, 9.999335, 9.999127 
1.3850299e+3, 2.3417252e+2, -889351.44, -852874.2, 11264.47, -0.017707018, 0.2613092, -849676.0, -204542.67, 0.0, 9.998676, 9.99915 
1.3850378e+3, 2.4417213e+2, -781816.4, -709412.06, -11377.016, 0.0034506756, 0.2922691, -707666.44, -160529.23, 0.0, 9.998568, 9.999513 
1.3850442e+3, 2.5417095e+2, -581590.06, -550290.94, -27613.988, -0.07238527, 0.2129758, -534200.3, -85054.07, 0.0, 9.999218, 9.999619 
1.385052e+3, 2.641696e+2, -528580.94, -581689.6, 34678.047, -0.07562334, 0.16392182, -511458.06, -160299.63, 0.0, 9.9993725, 9.998655 
1.385062e+3, 2.7416813e+2, -508584.0, -523448.3, 53347.047, 0.018314915, 0.14810704, -462153.88, -208979.48, 0.0, 9.998845, 9.998636 
1.38507e+3, 2.8416756e+2, -449144.25, -421747.66, 3290.3547, -0.0018901322, 0.22312565, -421358.03, -266176.25, 0.0, 9.998486, 9.998836 
1.3850754e+3, 2.9416823e+2, -360421.78, -316878.38, 3216.4207, -0.16867533, 0.39459297, -316642.1, -259463.73, 0.0, 9.998374, 9.998935 
1.3850829e+3, 3.0416635e+2, -229006.06, -103664.54, 7113.8345, -0.1569551, 0.2637382, -103262.086, -103262.086, 0.0, 9.998402, 10.000055 
1.385092e+3, 3.141656e+2, -105330.8, 113194.5, -13285.469, -0.016754398, 0.16293508, 113999.24, 113999.24, 0.0, 9.998568, 10.001466 
1.3949561e+3, 1.241751e+2, -1641340.3, -1904947.8, 63645.688, 0.09418082, 0.29750347, -1626778.0, 96336.56, 0.008733579, 10.001484, 9.99798 
1.3949628e+3, 1.3417545e+2, -1438906.9, -1606826.6, 2046.0167, 0.18124928, 0.4164013, -1438882.0, 186233.81, 0.005033633, 10.001554, 9.999323 
1.3949662e+3, 1.44174e+2, -1367853.4, -1543632.8, 1382.0579, -0.13378145, 0.3425592, -1367842.5, 159288.52, 0.002076125, 10.001456, 9.999126 
1.3949735e+3, 1.5417306e+2, -1312464.8, -1470833.4, -37295.105, -0.024061063, 0.34110397, -1304121.5, 125015.555, 0.00048381835, 10.0011835, 9.999084 
1.3949801e+3, 1.6417192e+2, -1269911.6, -1427419.0, -34021.605, 0.0027507066, 0.33291343, -1262877.1, 68269.47, 0.000034571214, 10.00092, 9.998838 
1.3949859e+3, 1.7417079e+2, -1198482.1, -1335753.6, -31895.572, -0.08179012, 0.32677802, -1191433.0, 41725.36, 0.00000005013657, 10.0007105, 9.998895 
1.3949926e+3, 1.8416952e+2, -1161080.1, -1295218.3, -34732.902, -0.087601185, 0.32379088, -1152620.1, -17448.7, 0.0, 10.000416, 9.998641 
1.3950004e+3, 1.9416803e+2, -1119924.0, -1219346.8, -34229.75, 0.017012568, 0.30526152, -1109279.0, -72092.27, 0.0, 10.000004, 9.998688 
1.3950077e+3, 2.0416698e+2, -1023125.06, -1060022.9, -25347.389, 0.054108713, 0.30782464, -1010223.5, -71027.29, 0.0, 9.999729, 9.999241 
1.3950142e+3, 2.1416657e+2, -927228.06, -949812.25, -35167.043, -0.00089298154, 0.33038566, -901584.6, -60387.5, 0.0, 9.999657, 9.99936 
1.3950211e+3, 2.2416581e+2, -866975.94, -853864.56, -30823.77, -0.034212526, 0.3144971, -828907.06, -85704.7, 0.0, 9.9993305, 9.999502 
1.3950284e+3, 2.341646e+2, -859047.56, -789243.8, -13301.72, -0.037385494, 0.23199193, -786794.94, -141581.88, 0.0, 9.998671, 9.99959 
1.3950358e+3, 2.4416393e+2, -801518.4, -749350.8, 8532.108, -0.035326116, 0.22466779, -747990.8, -200771.97, 0.0, 9.998562, 9.999242 
1.3950439e+3, 2.5416407e+2, -606250.4, -600033.4, -1709.8352, -0.026264682, 0.3085426, -599594.1, -150376.81, 0.0, 9.99921, 9.999281 
1.3950521e+3, 2.6416317e+2, -506633.25, -534854.44, 18868.389, -0.018860487, 0.30948427, -497182.75, -145957.52, 0.0, 9.999366, 9.998981 
1.3950606e+3, 2.7416104e+2, -482182.2, -467016.5, 35588.574, -0.012867955, 0.18923372, -438211.9, -184966.9, 0.0, 9.9988365, 9.999029 
1.3950685e+3, 2.8415993e+2, -431908.5, -386860.0, -1834.6117, -0.008616051, 0.17738274, -386785.4, -231529.95, 0.0, 9.998486, 9.999076 
1.3950755e+3, 2.941602e+2, -346271.13, -286994.3, 1134.1919, -0.004475979, 0.28482202, -286972.6, -229718.25, 0.0, 9.998368, 9.999145 
1.3950828e+3, 3.0415842e+2, -314287.84, -278445.7, 12955.85, -0.015126118, 0.21100938, -274253.0, -274253.0, 0.0, 9.998391, 9.998859 
1.395089e+3, 3.1415805e+2, -170955.9, -17237.998, -4274.669, -0.17212687, 0.27856722, -17119.217, -17119.217, 0.0, 9.998543, 10.000581 
1.4049578e+3, 1.2416868e+2, -1566201.1, -1852752.8, 49661.547, 0.09198538, 0.30874583, -1557838.4, 165339.53, 0.009133226, 10.001937, 9.99812 
1.4049642e+3, 1.3416886e+2, -1466796.4, -1615900.0, -30109.441, 0.15929501, 0.408628, -1460945.8, 164233.53, 0.005275387, 10.001344, 9.999361 
1.4049675e+3, 1.4416711e+2, -1445505.1, -1606030.0, -9356.978, -0.12804304, 0.31261182, -1444961.6, 82236.12, 0.0021822979, 10.001032, 9.998902 
1.4049748e+3, 1.5416627e+2, -1322165.1, -1502830.0, -15992.592, -0.015168912, 0.34312606, -1320760.4, 108444.79, 0.00051218417, 10.001236, 9.998838 
1.4049812e+3, 1.6416527e+2, -1257278.6, -1440808.3, -9285.851, 0.015545994, 0.37116387, -1256810.0, 74405.06, 0.000037386584, 10.001093, 9.998661 
1.4049867e+3, 1.7416438e+2, -1244728.9, -1377434.1, -18790.076, -0.061981034, 0.4077017, -1242119.6, -8894.49, 0.00000006103049, 10.000478, 9.99872 
1.4049931e+3, 1.8416296e+2, -1178594.5, -1281081.3, -6570.8584, -0.07907038, 0.39010453, -1178175.0, -42936.04, 0.0, 10.000199, 9.998842 
1.4050002e+3, 1.9416079e+2, -1043295.2, -1155674.3, 11836.361, -0.015610509, 0.27870956, -1042062.06, -4804.1294, 0.0, 10.000416, 9.998925 
1.4050074e+3, 2.0415953e+2, -946879.7, -1052014.1, 28263.389, 0.017004766, 0.26004088, -939763.3, -494.47433, 0.0, 10.000379, 9.998981 
1.4050141e+3, 2.141596e+2, -898627.8, -969433.06, 17440.076, 0.007505744, 0.35979283, -894565.2, -53297.313, 0.0, 10.000002, 9.999057 
1.4050208e+3, 2.2415896e+2, -835140.25, -847823.6, -4285.5537, -0.007719179, 0.3757428, -833827.94, -90554.76, 0.0, 9.999593, 9.999415 
1.4050274e+3, 2.3415738e+2, -795945.44, -766715.6, -27355.31, -0.033896662, 0.26412, -750315.9, -105029.28, 0.0, 9.999139, 9.999518 
1.4050347e+3, 2.4415644e+2, -758044.2, -744067.44, 12041.086, -0.034907084, 0.23952743, -737133.75, -189839.1, 0.0, 9.998928, 9.999102 
1.4050432e+3, 2.5415638e+2, -639251.7, -632454.06, 16324.785, -0.0008750527, 0.31919006, -619178.0, -169882.9, 0.0, 9.999055, 9.999133 
1.4050514e+3, 2.6415566e+2, -550163.1, -536292.44, 11220.858, 0.00556951, 0.33694628, -530036.6, -178735.22, 0.0, 9.998984, 9.999154 
1.4050591e+3, 2.7415422e+2, -496284.44, -450035.7, 9099.691, -0.027473412, 0.26485896, -448309.7, -194995.3, 0.0, 9.998642, 9.999237 
1.4050667e+3, 2.841531e+2, -426035.06, -379340.66, -25069.87, -0.0216493, 0.23965509, -368430.16, -213105.83, 0.0, 9.9985075, 9.999116 
1.4050744e+3, 2.941524e+2, -302114.16, -263908.56, -36414.04, 0.041952353, 0.24885176, -241890.81, -184559.36, 0.0, 9.998662, 9.999162 
1.4050817e+3, 3.0415064e+2, -316586.25, -310945.47, -6776.1426, 0.043905087, 0.18876489, -306426.2, -306426.2, 0.0, 9.998511, 9.998578 
1.4050871e+3, 3.1415057e+2, -255349.23, -54189.42, 39461.215, -0.18282543, 0.31501365, -46725.332, -46725.332, 0.0, 9.997949, 10.000613 
1.4149587e+3, 1.2416217e+2, -1558694.6, -1837476.3, 33149.63, -0.019348899, 0.33044517, -1554807.0, 168436.45, 0.009556688, 10.001938, 9.998224 
1.4149651e+3, 1.3416179e+2, -1469689.1, -1620330.1, -53819.047, 0.12293862, 0.37525484, -1452437.1, 172811.25, 0.0055341963, 10.001338, 9.999333 
1.414969e+3, 1.4415993e+2, -1432195.8, -1580517.3, -6926.473, -0.09373907, 0.2622148, -1431873.0, 95394.28, 0.0022969088, 10.001039, 9.999076 
1.4149763e+3, 1.5415995e+2, -1308585.6, -1474946.4, -7633.5938, 0.009434681, 0.36039814, -1308236.0, 121031.58, 0.0005425403, 10.001236, 9.999031 
1.4149827e+3, 1.6415934e+2, -1275431.9, -1478791.1, -31437.32, 0.052478816, 0.42959744, -1270682.9, 60592.258, 0.000040406845, 10.001093, 9.998401 
1.4149882e+3, 1.7415813e+2, -1265319.0, -1421335.1, -42182.18, 0.0368828, 0.46354753, -1254644.5, -21354.398, 0.00000007226826, 10.000481, 9.998418 
1.414994e+3, 1.8415669e+2, -1149370.9, -1220954.1, -2428.2957, 0.0020117646, 0.44215658, -1149288.5, -13985.111, 0.0, 10.0002, 9.999255 
1.4150001e+3, 1.9415496e+2, -1010156.2, -1086362.4, 20057.553, -0.06618445, 0.32766563, -1005199.4, 32114.885, 0.0, 10.000412, 9.999403 
1.4150065e+3, 2.0415358e+2, -964117.25, -1086809.4, 14320.647, -0.094782956, 0.280526, -962467.94, -23142.678, 0.0, 10.000373, 9.998747 
1.4150134e+3, 2.141527e+2, -920351.8, -1013512.6, 3299.0479, -0.063895814, 0.31419808, -920235.1, -78899.22, 0.0, 9.999995, 9.998758 
1.4150201e+3, 2.2415178e+2, -874866.6, -928280.3, -22026.969, -0.034837116, 0.3436215, -866954.94, -123609.164, 0.0, 9.999582, 9.998869 
1.4150268e+3, 2.3415086e+2, -835793.9, -850124.1, -43409.41, -0.010405294, 0.35625073, -798962.25, -153608.44, 0.0, 9.99914, 9.998946 
1.415034e+3, 2.4414963e+2, -759522.8, -747949.25, 15169.138, 0.0009403776, 0.33472782, -737500.56, -190136.0, 0.0, 9.998929, 9.999075 
1.4150423e+3, 2.5414795e+2, -637933.6, -628974.4, 22771.49, -0.0014322635, 0.24940236, -610246.06, -160867.1, 0.0, 9.999049, 9.999161 
1.4150503e+3, 2.6414713e+2, -549905.94, -535711.1, 247.33508, -0.009450395, 0.25182936, -535706.8, -184320.3, 0.0, 9.998981, 9.999161 
1.4150578e+3, 2.7414754e+2, -496378.03, -450031.8, -1885.3767, -0.031691816, 0.3711085, -449955.25, -196572.13, 0.0, 9.998638, 9.99924 
1.4150651e+3, 2.84147e+2, -435340.1, -397948.97, -20000.512, -0.04595051, 0.40445405, -389266.72, -233877.69, 0.0, 9.998504, 9.99899 
1.4150724e+3, 2.9414493e+2, -313241.78, -285705.44, -27075.87, -0.032879975, 0.28974754, -269098.22, -211689.33, 0.0, 9.998655, 9.999016 
1.41508e+3, 3.0414307e+2, -276903.9, -230184.13, -24089.32, 0.014287117, 0.20357907, -219988.39, -219988.39, 0.0, 9.998515, 9.999132 
1.4150862e+3, 3.1414306e+2, -200184.08, 62580.707, 17238.537, -0.06768666, 0.27245757, 63706.805, 63706.805, 0.0, 9.997937, 10.001422 
1.4249605e+3, 1.2415571e+2, -1563863.3, -1827264.0, 41448.824, -0.035276882, 0.34371504, -1557494.8, 165813.44, 0.010011913, 10.001847, 9.998339 
1.4249665e+3, 1.3415517e+2, -1394152.8, -1584265.6, -50925.887, 0.09402462, 0.3721448, -1381370.5, 243942.77, 0.0058154534, 10.001861, 9.9993305 
1.4249702e+3, 1.4415322e+2, -1364670.9, -1555137.8, -8452.127, -0.093706064, 0.25614408, -1364296.5, 163036.34, 0.002423067, 10.001538, 9.999007 
1.4249775e+3, 1.5415359e+2, -1370063.5, -1513123.5, -31371.55, 0.018082257, 0.3938933, -1363486.4, 65845.195, 0.00057589856, 10.000851, 9.998954 
1.4249836e+3, 1.6415298e+2, -1348532.4, -1500428.4, -49831.766, 0.06675311, 0.4613345, -1333643.6, -2304.2065, 0.00004378684, 10.000534, 9.998521 
1.424989e+3, 1.741513e+2, -1216116.6, -1380680.6, -28860.193, 0.053713918, 0.43507892, -1211202.1, 22155.21, 0.00000008454083, 10.000751, 9.998565 
1.4249946e+3, 1.8414983e+2, -1070605.4, -1186362.5, 20432.576, 0.017419446, 0.40295267, -1067104.6, 68265.82, 0.0, 10.000759, 9.999222 
1.4250007e+3, 1.9414864e+2, -1001184.8, -1087266.0, 2931.7048, -0.060171872, 0.3485614, -1001085.06, 36291.805, 0.0, 10.000499, 9.999354 
1.4250068e+3, 2.0414749e+2, -1010902.5, -1117775.1, -33962.285, -0.08976313, 0.3304723, -1001023.1, -61636.67, 0.0, 10.000089, 9.99867 
1.4250132e+3, 2.1414639e+2, -1001240.0, -1061690.0, -32423.838, -0.050805047, 0.35186806, -987138.3, -145738.4, 0.0, 9.999479, 9.998676 
1.4250198e+3, 2.2414523e+2, -919388.75, -967827.44, -15432.968, -0.018949786, 0.36887243, -914889.56, -171477.42, 0.0, 9.999353, 9.998709 
1.4250264e+3, 2.3414403e+2, -736108.2, -819696.4, -6960.414, 0.00004050314, 0.36759236, -735532.56, -90110.31, 0.0, 9.999902, 9.998787 
1.4250335e+3, 2.4414256e+2, -606408.3, -682295.3, 58712.56, 0.003583587, 0.33550715, -574445.6, -27011.053, 0.0, 10.000015, 9.999002 
1.4250416e+3, 2.541408e+2, -573474.7, -604525.75, 57866.66, -0.011426365, 0.24680889, -529087.0, -79637.33, 0.0, 9.999521, 9.999101 
1.4250493e+3, 2.6413983e+2, -539621.25, -546821.44, 24576.926, -0.011935694, 0.24733874, -518382.13, -166923.66, 0.0, 9.999122, 9.999017 
1.4250568e+3, 2.741401e+2, -473511.7, -456258.7, 8360.262, 0.0007877301, 0.36203304, -452872.25, -199414.66, 0.0, 9.998866, 9.999088 
1.4250639e+3, 2.8413948e+2, -404793.84, -379444.3, 2503.9478, -0.017523218, 0.39977562, -379199.34, -223734.97, 0.0, 9.998697, 9.999024 
1.4250706e+3, 2.9413772e+2, -311322.34, -278924.0, 7130.0015, -0.062135015, 0.30966452, -277424.28, -219942.36, 0.0, 9.998646, 9.999065 
1.4250782e+3, 3.041366e+2, -275847.22, -201994.77, -10770.713, -0.008379899, 0.283823, -200456.02, -200456.02, 0.0, 9.998404, 9.999378 
1.4250848e+3, 3.1413615e+2, -183773.5, 103407.17, -2803.7705, -0.002514748, 0.2787783, 103434.54, 103434.54, 0.0, 9.997906, 10.001718 
1.434963e+3, 1.24149315e+2, -1555084.6, -1807348.8, 41295.883, 0.038866844, 0.34516293, -1548496.5, 174875.1, 0.010506618, 10.001842, 9.998478 
1.434968e+3, 1.3414909e+2, -1392216.1, -1578613.0, -50338.383, 0.06584658, 0.39961347, -1379490.6, 245882.5, 0.006123269, 10.001855, 9.999372 
1.4349712e+3, 1.4414713e+2, -1387877.6, -1605190.8, -34650.21, -0.13816276, 0.29465577, -1382486.5, 144906.92, 0.002563054, 10.001543, 9.998662 
1.4349781e+3, 1.5414722e+2, -1395764.6, -1567317.8, -57553.918, 0.0060831476, 0.44357544, -1378245.1, 51151.492, 0.0006133788, 10.000854, 9.998581 
1.434984e+3, 1.6414623e+2, -1313075.5, -1427528.8, -46605.0, 0.052584425, 0.46859318, -1296498.9, 34908.457, 0.000047750204, 10.000535, 9.999022 
1.434989e+3, 1.7414393e+2, -1175452.3, -1296299.5, -20746.693, -0.015754117, 0.32271332, -1171989.8, 61436.453, 0.00000010052836, 10.000749, 9.9991455 
1.434995e+3, 1.8414237e+2, -1104541.3, -1256416.6, 10289.691, -0.038960397, 0.27294675, -1103847.3, 31592.336, 0.0, 10.000755, 9.998744 
1.4350016e+3, 1.9414183e+2, -1041498.2, -1171415.6, -6823.1133, -0.0026245746, 0.33983207, -1041140.9, -3695.4446, 0.0, 10.000499, 9.998777 
1.4350082e+3, 2.0414126e+2, -1006884.44, -1108736.8, -56881.813, 0.024916444, 0.40971017, -981462.6, -42010.5, 0.0, 10.000085, 9.998734 
1.4350137e+3, 2.141407e+2, -992367.2, -1043770.75, -54940.598, 0.042468574, 0.47136062, -957413.8, -115954.16, 0.0, 9.999479, 9.998799 
1.4350197e+3, 2.2413933e+2, -904593.56, -936861.4, 634.7433, 0.035481863, 0.45036778, -904581.06, -161108.75, 0.0, 9.9993515, 9.998922 
1.4350261e+3, 2.3413685e+2, -721199.44, -787810.4, 14637.097, -0.0071975533, 0.300667, -718125.0, -72633.3, 0.0, 9.999896, 9.99901 
1.4350331e+3, 2.4413523e+2, -615327.25, -698882.56, 43003.492, -0.03361353, 0.244744, -597149.3, -49644.797, 0.0, 10.000006, 9.998894 
1.4350408e+3, 2.5413483e+2, -584110.4, -626095.1, 40382.363, -0.034660757, 0.30837983, -559589.94, -110082.38, 0.0, 9.9995165, 9.998956 
1.4350484e+3, 2.6413378e+2, -559471.3, -587984.25, 14848.475, -0.00493593, 0.3199602, -553143.25, -201625.6, 0.0, 9.99912, 9.998736 
1.4350563e+3, 2.7413183e+2, -494700.25, -499890.0, 1412.4938, 0.06386399, 0.24391408, -494340.72, -240803.48, 0.0, 9.998863, 9.998792 
1.4350633e+3, 2.8413066e+2, -394059.3, -357179.63, 1246.3156, 0.05374065, 0.23328838, -357137.53, -201587.8, 0.0, 9.998695, 9.999179 
1.4350694e+3, 2.9413074e+2, -300354.88, -253443.58, 7787.0874, -0.055295423, 0.30635092, -252184.73, -194633.45, 0.0, 9.998632, 9.999248 
1.4350764e+3, 3.0413115e+2, -276752.53, -201375.14, -27844.848, -0.029621454, 0.4254993, -192204.75, -192204.75, 0.0, 9.998392, 9.999389 
1.4350829e+3, 3.1413e+2, -198033.33, 75445.73, -21523.594, 0.005828251, 0.35289094, 77129.33, 77129.33, 0.0, 9.997899, 10.00153 
1.4449649e+3, 1.2414253e+2, -1556034.8, -1775845.9, -619.6208, 0.047337282, 0.36180925, -1556033.0, 167407.6, 0.011047917, 10.0017, 9.998761 
1.4449696e+3, 1.341427e+2, -1470865.1, -1596576.0, -89944.35, 0.07417837, 0.43774974, -1423990.0, 201447.25, 0.00646129, 10.001227, 9.99955 
1.4449729e+3, 1.4414077e+2, -1458018.1, -1635765.4, -52678.78, -0.11917795, 0.32483494, -1443578.8, 83878.22, 0.0027186894, 10.001049, 9.99869 
1.4449792e+3, 1.5414053e+2, -1321697.1, -1528340.4, -46356.22, -0.009592187, 0.4399221, -1311774.5, 117688.68, 0.0006559602, 10.001351, 9.998607 
1.4449847e+3, 1.6413948e+2, -1171524.5, -1341468.1, -22342.693, 0.024114447, 0.450137, -1168636.3, 162837.69, 0.000052490832, 10.001436, 9.999174 
1.44499e+3, 1.7413744e+2, -1091550.9, -1238147.4, -30122.234, -0.024082858, 0.31387788, -1085602.8, 147886.31, 0.00000012546444, 10.00125, 9.999302 
1.4449957e+3, 1.8413608e+2, -1096333.3, -1264797.3, -18861.283, -0.030243807, 0.28049302, -1094247.4, 41253.465, 0.0, 10.000866, 9.9986315 
1.4450023e+3, 1.9413568e+2, -1092312.0, -1211039.8, -6861.5, 0.013245157, 0.37583655, -1091916.8, -54409.383, 0.0, 10.000217, 9.99864 
1.4450084e+3, 2.0413503e+2, -1012470.9, -1108029.5, -25937.758, 0.03825211, 0.4419483, -1005884.5, -66368.945, 0.0, 10.000033, 9.998764 
1.4450137e+3, 2.1413402e+2, -840772.25, -965297.5, -30276.193, 0.039693892, 0.45498547, -833801.3, 7724.159, 0.0, 10.0005, 9.998845 
1.4450195e+3, 2.2413246e+2, -726184.06, -851029.75, 19296.14, 0.027479338, 0.41462147, -723269.7, 20269.107, 0.0, 10.000578, 9.9989195 
1.4450261e+3, 2.3413022e+2, -691431.75, -774806.75, 13996.655, -0.0062767975, 0.28748047, -689144.75, -43588.504, 0.0, 10.000106, 9.998997 
1.4450331e+3, 2.4412876e+2, -669636.2, -733925.2, 19108.813, -0.018384932, 0.25412393, -664385.3, -116817.375, 0.0, 9.999669, 9.998816 
1.4450406e+3, 2.5412852e+2, -623240.06, -654266.6, 16936.633, 0.0002418852, 0.33910748, -615785.75, -166214.92, 0.0, 9.999288, 9.998873 
1.445048e+3, 2.641274e+2, -558140.8, -589997.1, 16773.844, 0.026405029, 0.35251403, -550937.44, -199355.89, 0.0, 9.99914, 9.998713 
1.4450553e+3, 2.741252e+2, -429781.34, -469739.06, 23772.729, 0.059247162, 0.24962604, -418707.06, -165104.23, 0.0, 9.999315, 9.998779 
1.4450622e+3, 2.841238e+2, -339816.47, -329049.34, 17943.465, 0.04184996, 0.216384, -315699.22, -160082.2, 0.0, 9.999058, 9.999197 
1.445068e+3, 2.9412374e+2, -362986.44, -281902.63, 8503.213, -0.035033915, 0.27703905, -281020.5, -223400.69, 0.0, 9.998193, 9.999265 
1.4450747e+3, 3.0412468e+2, -359070.78, -240626.64, -18017.32, -0.006636161, 0.44550917, -237946.55, -237946.55, 0.0, 9.997827, 9.999392 
1.4450808e+3, 3.1412354e+2, -179628.55, 51752.332, -18499.494, -0.001643274, 0.37282395, 53222.08, 53222.08, 0.0, 9.998166, 10.001237 
1.4549659e+3, 1.24135405e+2, -1526899.0, -1716643.4, -17225.398, -0.020786425, 0.39445555, -1525348.0, 198166.22, 0.011640448, 10.001706, 9.9991665 
1.4549713e+3, 1.3413605e+2, -1451569.0, -1556265.6, -108312.89, 0.11617137, 0.48694855, -1383617.5, 241887.72, 0.0068325973, 10.001225, 9.999829 
1.4549747e+3, 1.441342e+2, -1428403.8, -1574489.8, -46852.47, -0.041327868, 0.34940818, -1414668.8, 112853.85, 0.0028915813, 10.00105, 9.999109 
1.4549802e+3, 1.541336e+2, -1291153.6, -1464556.5, -34471.703, -0.035002723, 0.38329142, -1284552.1, 144978.22, 0.00070428615, 10.00135, 9.999045 
1.4549857e+3, 1.6413282e+2, -1186143.3, -1373480.9, -29533.975, -0.027293669, 0.40658906, -1181597.4, 149940.92, 0.000058062662, 10.00144, 9.998954 
1.4549917e+3, 1.7413187e+2, -1110626.0, -1279260.9, -36877.824, 0.02346449, 0.40722513, -1102914.1, 130631.54, 0.00000016567238, 10.001254, 9.999019 
1.4549974e+3, 1.8413098e+2, -1080035.4, -1230298.1, -43293.47, 0.03662897, 0.42616442, -1068454.3, 67099.42, 0.0, 10.000862, 9.998871 
1.4550021e+3, 1.9413023e+2, -1072054.9, -1169135.5, -31129.824, -0.015388044, 0.45668477, -1062930.4, -25367.912, 0.0, 10.000217, 9.998928 
1.4550075e+3, 2.0412877e+2, -1014169.6, -1110979.8, -13436.291, -0.052969445, 0.42753905, -1012339.44, -72762.914, 0.0, 10.000029, 9.998747 
1.4550132e+3, 2.1412635e+2, -843788.06, -971381.75, -12017.974, -0.064215295, 0.303191, -842665.94, -1068.7246, 0.0, 10.000497, 9.998806 
1.4550194e+3, 2.2412467e+2, -743454.2, -884872.9, 3441.2712, -0.049495023, 0.26260832, -743370.5, 240.94176, 0.0, 10.000568, 9.9986925 
1.4550264e+3, 2.3412408e+2, -708772.7, -810720.8, -2942.9724, -0.0008242502, 0.32571796, -708687.8, -63071.7, 0.0, 10.000104, 9.998752 
1.4550334e+3, 2.4412316e+2, -673574.94, -741946.8, 4194.663, 0.04563398, 0.36030555, -673318.56, -125693.57, 0.0, 9.999667, 9.998763 
1.4550407e+3, 2.5412184e+2, -626029.0, -659696.44, 4039.4712, 0.088107, 0.34145227, -625551.1, -175911.92, 0.0, 9.999284, 9.998838 
1.4550476e+3, 2.6412073e+2, -543453.94, -557783.1, 22086.797, 0.07551568, 0.34735438, -527398.75, -175748.8, 0.0, 9.999131, 9.998938 
1.4550538e+3, 2.7412006e+2, -413590.7, -434035.8, 32277.666, -0.016977329, 0.37498742, -389955.47, -136300.39, 0.0, 9.999306, 9.99903 
1.4550602e+3, 2.841188e+2, -346104.3, -341795.6, -10787.022, -0.055202495, 0.34349298, -332949.9, -177282.89, 0.0, 9.999055, 9.999112 
1.4550665e+3, 2.9411682e+2, -371849.97, -301154.94, -21806.766, -0.0065918597, 0.22451071, -294969.56, -237282.33, 0.0, 9.998194, 9.999133 
1.4550732e+3, 3.0411726e+2, -359881.16, -244449.34, -7458.5654, 0.0521783, 0.34949493, -243969.4, -243969.4, 0.0, 9.997834, 9.999362 
1.4550786e+3, 3.1411695e+2, -214884.4, -18205.705, -6085.092, -0.036603935, 0.36628133, -18017.615, -18017.615, 0.0, 9.998151, 10.000764 
1.4649674e+3, 1.24129005e+2, -1425728.3, -1660953.8, 63591.344, -0.07615407, 0.36592945, -1409637.5, 313938.88, 0.012283002, 10.002381, 9.999227 
1.4649725e+3, 1.3412985e+2, -1425046.8, -1557594.6, -63247.957, 0.10602839, 0.4901447, -1399710.0, 225856.34, 0.00723705, 10.001471, 9.9997015 
1.4649759e+3, 1.44128e+2, -1437330.5, -1568988.1, 2973.8665, -0.0150761055, 0.35445192, -1437263.4, 90320.25, 0.0030819494, 10.00095, 9.999193 
1.4649816e+3, 1.541272e+2, -1325274.9, -1468867.3, -9374.248, -0.020514987, 0.35812238, -1324665.5, 104926.14, 0.0007585455, 10.001063, 9.999153 
1.4649871e+3, 1.6412646e+2, -1246385.6, -1409205.0, -24335.82, -0.014623695, 0.3821572, -1242826.0, 88772.92, 0.00006440502, 10.001057, 9.998894 
1.464993e+3, 1.7412584e+2, -1168770.5, -1314384.0, -19323.188, 0.047846284, 0.42508686, -1166249.9, 67354.36, 0.00000022299002, 10.00089, 9.998951 
1.4649983e+3, 1.8412498e+2, -1098031.5, -1242793.3, -31666.29, 0.05582451, 0.44973353, -1091407.6, 44205.133, 0.0, 10.000758, 9.998834 
1.4650026e+3, 1.9412374e+2, -1005185.4, -1141201.3, -45631.87, -0.027825063, 0.43626276, -991294.94, 46330.45, 0.0, 10.000696, 9.998889 
1.4650075e+3, 2.041221e+2, -907874.4, -1045626.25, -13109.639, -0.07708717, 0.38604444, -906637.9, 33002.453, 0.0, 10.000699, 9.998871 
1.4650136e+3, 2.1411994e+2, -792273.3, -931371.0, 1116.5105, -0.07385669, 0.27421352, -792264.4, 49393.37, 0.0, 10.000788, 9.99894 
1.46502e+3, 2.2411844e+2, -738685.25, -904340.0, 1989.505, -0.04505227, 0.25350395, -738661.4, 5009.172, 0.0, 10.000694, 9.998499 
1.4650267e+3, 2.3411791e+2, -690453.94, -827074.6, -7318.2485, 0.015557826, 0.3446474, -690063.0, -44386.504, 0.0, 10.0003395, 9.998527 
1.4650334e+3, 2.4411686e+2, -633985.3, -744404.6, 178.40405, 0.05945505, 0.38793498, -633985.06, -86296.97, 0.0, 10.000034, 9.998569 
1.4650401e+3, 2.5411516e+2, -565101.9, -651587.1, -13283.443, 0.07946657, 0.3514298, -563107.6, -113400.94, 0.0, 9.999796, 9.998647 
1.4650467e+3, 2.6411405e+2, -485793.78, -510767.03, 2579.46, 0.05629456, 0.35645294, -485530.13, -133812.22, 0.0, 9.999444, 9.999109 
1.4650528e+3, 2.741138e+2, -454116.72, -430774.03, 8042.079, -0.029466176, 0.40611878, -428271.63, -174553.47, 0.0, 9.998928, 9.999234 
1.4650589e+3, 2.8411272e+2, -396002.47, -369030.28, -38021.594, -0.06213125, 0.3852277, -342173.88, -186446.02, 0.0, 9.998727, 9.999082 
1.465065e+3, 2.9411066e+2, -258861.48, -252394.53, -46865.95, -0.011169073, 0.26138365, -208650.64, -150901.1, 0.0, 9.998997, 9.99908 
1.4650714e+3, 3.0411094e+2, -211583.66, -157770.47, -21908.117, 0.042058155, 0.3682253, -149979.36, -149979.36, 0.0, 9.998787, 9.999496 
1.4650767e+3, 3.1411058e+2, -274989.28, -77133.77, -14609.459, -0.03968148, 0.36337334, -76060.84, -76060.84, 0.0, 9.997869, 10.000493 
1.4749694e+3, 1.241234e+2, -1444648.9, -1700885.3, 29857.277, -0.12446488, 0.2787242, -1441215.9, 282410.22, 0.012969953, 10.002384, 9.998948 
1.4749733e+3, 1.341242e+2, -1461505.5, -1633975.1, -97748.336, 0.034346357, 0.44725585, -1417390.1, 208229.28, 0.0076708426, 10.001472, 9.999175 
1.4749765e+3, 1.4412221e+2, -1454912.9, -1609507.9, 1827.5184, -0.052315567, 0.3415928, -1454891.3, 72747.85, 0.0032881629, 10.000964, 9.99891 
1.4749831e+3, 1.5412137e+2, -1342744.9, -1505375.1, -4740.848, 0.030339183, 0.36396095, -1342606.8, 87039.875, 0.00081847684, 10.001063, 9.998903 
1.4749889e+3, 1.6412042e+2, -1240111.8, -1395090.3, -32032.459, 0.056562863, 0.3785728, -1233752.0, 97903.28, 0.000071419374, 10.001051, 9.998993 
1.4749938e+3, 1.7411943e+2, -1159584.0, -1295316.1, -25625.686, 0.044115175, 0.36861044, -1154907.1, 78757.42, 0.0000002932695, 10.00089, 9.999083 
1.4749987e+3, 1.8411808e+2, -1120008.1, -1289260.9, -35668.527, 0.020284638, 0.35206175, -1112798.4, 22879.428, 0.0, 10.000759, 9.998515 
1.4750032e+3, 1.9411623e+2, -1029808.94, -1193752.4, -47564.355, -0.029782906, 0.31365815, -1017008.7, 20687.191, 0.0, 10.0007, 9.998528 
1.4750087e+3, 2.0411503e+2, -891913.25, -1011312.94, -11534.131, -0.041335735, 0.31681168, -890809.25, 48897.574, 0.0, 10.000692, 9.99911 
1.4750153e+3, 2.1411479e+2, -771772.44, -888153.06, 4852.7427, 0.006069216, 0.366412, -771570.44, 70136.58, 0.0, 10.000784, 9.999239 
1.4750215e+3, 2.2411379e+2, -751936.75, -930358.0, -11034.814, 0.036729503, 0.3857092, -751256.9, -7540.768, 0.0, 10.000686, 9.998325 
1.4750274e+3, 2.3411173e+2, -705792.7, -858366.0, -19703.865, 0.038183108, 0.3460698, -703289.1, -57551.797, 0.0, 10.000336, 9.998314 
1.475033e+3, 2.441099e+2, -659119.0, -794912.75, -9304.99, 0.018505454, 0.33888593, -658484.4, -110727.39, 0.0, 10.000026, 9.998226 
1.4750388e+3, 2.5410852e+2, -591057.5, -703894.25, -20562.24, -0.029006219, 0.36757684, -587427.25, -137653.81, 0.0, 9.999788, 9.998292 
1.4750452e+3, 2.641073e+2, -477915.66, -493700.6, -14945.231, -0.034376998, 0.37829527, -468906.9, -117121.26, 0.0, 9.99944, 9.999229 
1.4750522e+3, 2.7410638e+2, -443675.53, -407460.75, -9067.613, 0.01580627, 0.34680623, -405317.22, -151525.55, 0.0, 9.9989195, 9.999399 
1.4750585e+3, 2.8410563e+2, -397122.47, -369116.22, -29700.818, 0.013485531, 0.3455083, -350282.97, -194483.77, 0.0, 9.998716, 9.999086 
1.4750637e+3, 2.9410517e+2, -262288.84, -255949.36, -33831.52, -0.05368676, 0.38521412, -225139.4, -167332.16, 0.0, 9.9989805, 9.9990635 
1.4750694e+3, 3.0410564e+2, -189727.1, -111088.5, -51177.465, -0.03949985, 0.49682832, -85869.9, -85869.9, 0.0, 9.99878, 9.999822 
1.4750747e+3, 3.1410456e+2, -279141.16, -84958.33, -47940.97, -0.023215415, 0.38612264, -73767.34, -73767.34, 0.0, 9.997864, 10.0004425 
1.4849715e+3, 1.2411819e+2, -1637453.5, -1814520.9, -1763.0874, -0.091554806, 0.28067467, -1637435.9, 86240.32, 0.013700781, 10.001133, 9.998769 
1.4849748e+3, 1.3411868e+2, -1407864.1, -1656754.6, -129407.17, 0.0059568747, 0.46118298, -1352774.3, 272900.16, 0.00813248, 10.002056, 9.998737 
1.4849776e+3, 1.4411637e+2, -1270068.1, -1522232.4, -27594.887, -0.09543027, 0.3494972, -1267083.6, 260613.52, 0.0035089266, 10.002249, 9.998889 
1.4849842e+3, 1.5411529e+2, -1280918.1, -1471391.8, -15382.17, 0.009968144, 0.34562546, -1279683.9, 150020.58, 0.0008836724, 10.001473, 9.998938 
1.4849898e+3, 1.6411418e+2, -1255090.0, -1414815.0, -27966.28, 0.052016985, 0.34726438, -1250334.9, 81378.8, 0.00007901186, 10.001005, 9.9988785 
1.4849949e+3, 1.7411308e+2, -1150990.4, -1306332.3, -42874.875, 0.045263, 0.3399154, -1139942.5, 93782.81, 0.00000037325287, 10.001013, 9.998947 
1.4849998e+3, 1.8411161e+2, -1069699.9, -1261668.3, -46309.316, 0.030099286, 0.3180535, -1059112.4, 76627.42, 0.0, 10.001092, 9.998544 
1.4850044e+3, 1.941097e+2, -943978.9, -1146624.9, -29269.828, -0.010825899, 0.26638466, -939835.94, 97921.375, 0.0, 10.001268, 9.998575 
1.4850098e+3, 2.0410849e+2, -853010.9, -1023631.9, -5450.548, -0.020943789, 0.27928913, -852836.94, 86931.47, 0.0, 10.001096, 9.998831 
1.485016e+3, 2.1410832e+2, -845682.8, -959708.8, -37691.055, 0.01607993, 0.3688323, -834350.4, 7419.693, 0.0, 10.000432, 9.998917 
1.485022e+3, 2.2410737e+2, -825317.1, -941168.94, -58537.402, 0.03747366, 0.40159285, -800889.94, -57110.3, 0.0, 10.00008, 9.998541 
1.4850275e+3, 2.3410535e+2, -711965.3, -832410.2, -33987.91, 0.030318195, 0.3398213, -703036.3, -57236.54, 0.0, 10.000171, 9.998571 
1.4850329e+3, 2.4410358e+2, -646130.4, -789880.7, 3502.3682, 0.001816012, 0.32413176, -646045.06, -98226.586, 0.0, 10.000121, 9.998214 
1.4850384e+3, 2.5410223e+2, -583570.7, -705255.94, 12946.591, -0.055927794, 0.36206618, -582208.5, -132374.17, 0.0, 9.999863, 9.998246 
1.4850444e+3, 2.6410097e+2, -477036.7, -487201.0, 17590.176, -0.053754553, 0.3693574, -463809.22, -111962.13, 0.0, 9.999421, 9.999282 
1.4850512e+3, 2.7409995e+2, -465609.78, -410775.8, 12906.961, 0.027778693, 0.31710866, -407889.66, -154034.55, 0.0, 9.99874, 9.999461 
1.4850573e+3, 2.840994e+2, -465674.38, -394469.0, 12072.719, 0.03581806, 0.33429435, -392477.78, -236617.06, 0.0, 9.998215, 9.999153 
1.4850621e+3, 2.9409972e+2, -414452.94, -322414.4, 12735.093, -0.0506471, 0.44482857, -320684.8, -262823.16, 0.0, 9.997907, 9.999124 
1.4850676e+3, 3.0409983e+2, -308582.63, -162340.83, -15494.05, -0.051282752, 0.51244205, -160717.28, -160717.28, 0.0, 9.997939, 9.999874 
1.485073e+3, 3.1409833e+2, -209934.98, -69119.24, -39994.313, -0.009861996, 0.3529025, -58552.96, -58552.96, 0.0, 9.998417, 10.000283 
1.4949736e+3, 1.2411347e+2, -1644827.8, -1829532.0, 32201.828, 0.016917527, 0.3789263, -1639374.5, 84351.125, 0.014485426, 10.001132, 9.998666 
1.4949769e+3, 1.3411334e+2, -1434959.5, -1712508.0, -95248.586, 0.01987119, 0.5326535, -1405416.8, 220313.95, 0.008627366, 10.002054, 9.998355 
1.4949796e+3, 1.4411053e+2, -1251161.8, -1484952.3, -53937.363, -0.14912027, 0.3801555, -1239318.0, 288439.25, 0.0037456865, 10.002256, 9.999143 
1.4949846e+3, 1.5410905e+2, -1258347.4, -1425203.0, -44893.746, -0.089337945, 0.3033302, -1247035.4, 182729.25, 0.0009542572, 10.001475, 9.999254 
1.49499e+3, 1.6410778e+2, -1278477.5, -1464758.6, -31805.313, -0.037341762, 0.288758, -1273196.8, 58577.055, 0.00008722728, 10.001009, 9.998534 
1.4949958e+3, 1.7410685e+2, -1180017.8, -1366905.1, -42297.73, 0.04764427, 0.33843473, -1170890.4, 62895.797, 0.0000004647829, 10.001013, 9.998532 
1.4950013e+3, 1.8410563e+2, -1044927.3, -1208976.3, -41653.516, 0.079754956, 0.34854206, -1034957.0, 100841.47, 0.0, 10.001085, 9.998909 
1.495006e+3, 1.9410414e+2, -912768.06, -1082080.9, -22423.117, 0.02497914, 0.29462466, -909848.75, 127960.66, 0.0, 10.001268, 9.999019 
1.4950109e+3, 2.0410246e+2, -910396.4, -1142280.4, -29071.047, -0.020476438, 0.27358997, -906807.4, 33017.51, 0.0, 10.001092, 9.998019 
1.4950158e+3, 2.1410057e+2, -910698.5, -1094584.0, -62312.117, -0.04809511, 0.2826664, -891572.5, -49726.02, 0.0, 10.000431, 9.9979925 
1.4950213e+3, 2.2409925e+2, -786029.94, -858475.2, -58420.56, -0.048180334, 0.30199212, -753513.6, -9652.847, 0.0, 10.000073, 9.999113 
1.4950272e+3, 2.3409879e+2, -662032.4, -727448.44, -29628.363, -0.011969817, 0.32579225, -650608.2, -4744.381, 0.0, 10.000164, 9.999295 
1.495033e+3, 2.4409787e+2, -626831.25, -748129.7, -5075.054, 0.0044934102, 0.34338537, -626619.3, -78746.67, 0.0, 10.000113, 9.998506 
1.4950387e+3, 2.5409633e+2, -567231.0, -669435.75, 4735.118, -0.006512543, 0.3359145, -567012.06, -117122.59, 0.0, 9.999853, 9.998496 
1.4950444e+3, 2.640951e+2, -479320.44, -489844.25, -6482.6035, -0.0077840886, 0.33026287, -476232.97, -124330.55, 0.0, 9.999412, 9.9992695 
1.4950497e+3, 2.740944e+2, -469118.72, -416524.47, -10861.548, 0.001810413, 0.31552404, -414369.7, -160460.77, 0.0, 9.998733, 9.999426 
1.4950551e+3, 2.8409407e+2, -457872.63, -378428.9, 74.763374, 0.00053547457, 0.3509299, -378428.84, -222515.97, 0.0, 9.998214, 9.999265 
1.4950605e+3, 2.9409432e+2, -406945.63, -306292.4, 3753.4248, -0.009517084, 0.44367835, -306152.63, -248239.7, 0.0, 9.997903, 9.999237 
1.495066e+3, 3.0409348e+2, -324978.38, -194733.56, 761.8977, -0.002307297, 0.41901892, -194729.1, -194729.1, 0.0, 9.9979315, 9.999656 
1.4950714e+3, 3.1409177e+2, -230150.72, -107167.72, -17191.184, -0.011994848, 0.265122, -104809.86, -104809.86, 0.0, 9.998399, 10.0000305 
1.504975e+3, 1.241084e+2, -1485650.9, -1740965.0, 72635.195, -0.0177529, 0.4091475, -1466433.3, 257342.89, 0.015336173, 10.002194, 9.998763 
1.504979e+3, 1.3410775e+2, -1484101.5, -1752813.8, -42747.14, 0.038407754, 0.5238362, -1477465.1, 148320.53, 0.0091627855, 10.001784, 9.998207 
1.5049818e+3, 1.4410473e+2, -1341447.3, -1530997.3, -15576.117, -0.10459158, 0.35933334, -1340175.9, 187638.1, 0.0040015904, 10.001646, 9.99912 
1.5049866e+3, 1.5410344e+2, -1181806.4, -1389232.0, -34671.113, -0.067977525, 0.3035937, -1176164.5, 253654.75, 0.001031135, 10.002004, 9.9992485 
1.5049915e+3, 1.6410214e+2, -1156063.6, -1440657.5, -33795.62, -0.03857983, 0.2993029, -1152105.4, 179723.88, 0.000096309515, 10.002, 9.998223 
1.504997e+3, 1.7410082e+2, -1135357.9, -1382506.5, -40391.703, 0.026820574, 0.34298992, -1128924.1, 104922.05, 0.000000575819, 10.001481, 9.9981985 
1.5050022e+3, 1.8409948e+2, -1048269.25, -1212809.3, -40642.184, 0.059945635, 0.36265874, -1038777.94, 97081.77, 0.0, 10.001074, 9.998887 
1.5050071e+3, 1.9409831e+2, -973563.2, -1111618.9, -55228.543, 0.03103861, 0.340879, -954188.4, 83679.086, 0.0, 10.000852, 9.999017 
1.5050118e+3, 2.0409659e+2, -953815.9, -1152552.8, -57227.457, -0.0062934095, 0.31008965, -938514.9, 1368.1018, 0.0, 10.00075, 9.998113 
1.5050164e+3, 2.1409412e+2, -847142.9, -1052653.0, -16716.432, -0.053011995, 0.2507815, -845792.0, -3882.8455, 0.0, 10.000819, 9.998092 
1.5050213e+3, 2.2409268e+2, -704622.25, -822667.0, 12526.361, -0.0723594, 0.2563044, -703307.7, 40616.6, 0.0, 10.000649, 9.999081 
1.5050268e+3, 2.3409282e+2, -669926.4, -737020.25, -17591.998, -0.055964217, 0.34362558, -665593.56, -19670.832, 0.0, 10.000136, 9.999243 
1.5050326e+3, 2.440922e+2, -680923.1, -729722.44, -28779.078, -0.027572367, 0.37558743, -667592.44, -119663.836, 0.0, 9.999553, 9.998899 
1.5050383e+3, 2.5409052e+2, -678180.25, -674127.9, -8994.955, 0.015108567, 0.31112653, -666933.75, -216988.94, 0.0, 9.998883, 9.998931 
1.5050435e+3, 2.6408938e+2, -613775.56, -559607.6, -7562.434, 0.022539213, 0.2939857, -558571.6, -206615.1, 0.0, 9.998512, 9.999223 
1.5050481e+3, 2.7408913e+2, -501053.94, -442799.75, -17823.863, -0.021931095, 0.33606943, -437778.97, -183818.31, 0.0, 9.998562, 9.999328 
1.505053e+3, 2.84089e+2, -406166.84, -341757.47, -6258.924, -0.036640014, 0.387785, -341154.88, -185191.0, 0.0, 9.998519, 9.99937 
1.5050586e+3, 2.9408893e+2, -333338.8, -255917.52, -4280.371, -0.0052719167, 0.43441883, -255681.6, -197715.67, 0.0, 9.998346, 9.999369 
1.5050642e+3, 3.0408764e+2, -309523.2, -158717.08, 13717.612, 0.018274037, 0.34965917, -157479.45, -157479.45, 0.0, 9.997914, 9.999913 
1.5050694e+3, 3.1408715e+2, -389220.75, -132652.08, 33222.47, 0.026026448, 0.2901376, -128419.984, -128419.984, 0.0, 9.997087, 10.000489 
1.5149753e+3, 1.24103114e+2, -1462649.0, -1693308.9, 58628.84, -0.20145848, 0.3807624, -1448602.3, 275223.97, 0.016257107, 10.002198, 9.99909 
1.514981e+3, 1.3410197e+2, -1476957.1, -1738415.0, -58938.875, 0.054801438, 0.43514872, -1464285.0, 161553.23, 0.009740974, 10.001786, 9.998306 
1.5149848e+3, 1.4409903e+2, -1363560.9, -1577923.8, -7156.1606, 0.029827189, 0.28838077, -1363322.3, 164544.28, 0.0042781597, 10.001649, 9.998796 
1.51499e+3, 1.5409854e+2, -1207052.0, -1441342.9, -20563.045, 0.07098348, 0.34696126, -1205260.9, 224607.28, 0.0011151112, 10.002002, 9.998892 
1.5149942e+3, 1.6409732e+2, -1173980.9, -1478605.0, -52099.996, 0.04317578, 0.3810255, -1165316.6, 166562.83, 0.000106548556, 10.002001, 9.997963 
1.514998e+3, 1.7409502e+2, -1153343.6, -1420410.1, -60058.063, -0.022901975, 0.3541549, -1140459.4, 93445.19, 0.0000007145684, 10.001483, 9.997939 
1.5150023e+3, 1.8409324e+2, -1078324.4, -1275043.9, -51153.914, -0.037250035, 0.36076692, -1065817.6, 70105.36, 0.0, 10.001072, 9.998462 
1.5150078e+3, 1.9409229e+2, -1004524.8, -1175769.3, -63284.445, 0.0036509344, 0.40598693, -983675.94, 54255.043, 0.0, 10.000851, 9.998578 
1.5150128e+3, 2.040909e+2, -886219.0, -1011362.7, -56677.773, 0.016897874, 0.38937297, -864365.7, 75576.72, 0.0, 10.000744, 9.999085 
1.5150177e+3, 2.1408898e+2, -770136.94, -891037.2, -13595.063, -0.003324604, 0.27344823, -768627.06, 73330.94, 0.0, 10.000812, 9.999206 
1.5150224e+3, 2.240877e+2, -751173.0, -916816.0, -5750.795, -0.041052803, 0.26447526, -750973.6, -7003.6357, 0.0, 10.000637, 9.998441 
1.5150265e+3, 2.3408747e+2, -727623.2, -856040.4, -35808.316, -0.10481648, 0.3932379, -718313.2, -72336.71, 0.0, 10.000133, 9.998427 
1.5150315e+3, 2.4408656e+2, -648302.94, -660923.25, -53445.895, -0.09954825, 0.42060924, -600795.94, -52809.676, 0.0, 9.999547, 9.999376 
1.5150371e+3, 2.540848e+2, -636321.3, -585718.6, -32697.607, 0.0040739966, 0.28848442, -569676.4, -119676.15, 0.0, 9.998876, 9.999542 
1.5150422e+3, 2.6408386e+2, -621474.25, -574315.1, -7406.9897, 0.03220175, 0.2620603, -573179.1, -221169.78, 0.0, 9.998507, 9.999125 
1.5150464e+3, 2.740842e+2, -514308.5, -469211.06, -13675.598, -0.04782312, 0.37910023, -465388.1, -211377.6, 0.0, 9.998557, 9.999149 
1.5150511e+3, 2.8408414e+2, -399459.88, -326682.9, -12010.1875, -0.08132119, 0.4451107, -324752.13, -168738.17, 0.0, 9.998512, 9.999477 
1.5150566e+3, 2.9408348e+2, -324616.0, -236783.52, -8707.105, -0.043910936, 0.4157188, -235928.67, -177907.8, 0.0, 9.99834, 9.999505 
1.515062e+3, 3.0408227e+2, -260907.1, -56489.184, -14427.879, 0.0053345147, 0.30191904, -55475.883, -55475.883, 0.0, 9.997908, 10.000618 
1.5150672e+3, 3.1408417e+2, -306751.66, 39737.367, 8737.435, 0.08923095, 0.40452167, 39957.56, 39957.56, 0.0, 9.99708, 10.0016775 
1.5249775e+3, 1.2409806e+2, -1385530.9, -1654347.6, 98030.78, -0.23233718, 0.32147813, -1353579.3, 370293.56, 0.017244658, 10.002733, 9.9991045 
1.524983e+3, 1.3409701e+2, -1380165.4, -1708222.5, -47975.875, 0.03923401, 0.39734095, -1373293.3, 252590.83, 0.010359608, 10.002531, 9.998156 
1.5249868e+3, 1.4409417e+2, -1312482.8, -1584727.6, 2983.8381, 0.041439157, 0.2822574, -1312450.0, 215462.28, 0.0045741852, 10.002136, 9.998517 
1.5249923e+3, 1.5409373e+2, -1298810.4, -1516522.8, -5364.039, 0.12515762, 0.375083, -1298678.3, 131237.63, 0.0012060112, 10.001505, 9.998614 
1.5249965e+3, 1.640924e+2, -1258085.1, -1510468.8, -13874.656, 0.09621247, 0.41032907, -1257324.6, 74603.94, 0.000118081814, 10.001389, 9.998038 
1.5249994e+3, 1.7408973e+2, -1063747.6, -1365450.9, 4361.686, -0.034140702, 0.33606693, -1063684.5, 170270.48, 0.0000008766353, 10.002047, 9.998044 
1.5250036e+3, 1.8408768e+2, -938357.75, -1234703.4, 17775.814, -0.071796566, 0.3191436, -937295.3, 198680.3, 0.0, 10.002149, 9.998221 
1.525009e+3, 1.9408658e+2, -934883.44, -1173199.8, 15210.732, 0.0012546527, 0.37754038, -933916.5, 104069.984, 0.0, 10.001461, 9.9983015 
1.5250137e+3, 2.0408528e+2, -872656.56, -1007668.3, 3702.3647, 0.034831602, 0.38585383, -872555.1, 67442.86, 0.0, 10.000852, 9.999058 
1.5250184e+3, 2.1408378e+2, -834419.3, -923656.8, -38372.535, 0.01599146, 0.31251922, -820188.4, 21821.063, 0.0, 10.000378, 9.999191 
1.5250227e+3, 2.240825e+2, -859464.2, -968769.44, -63763.574, -0.021588735, 0.30394322, -830136.44, -86114.945, 0.0, 9.999893, 9.998442 
1.5250266e+3, 2.3408166e+2, -834740.0, -907265.06, -36850.207, -0.0896611, 0.37273237, -819302.3, -173268.67, 0.0, 9.999397, 9.998429 
1.5250307e+3, 2.4408065e+2, -699957.0, -670492.25, -25249.574, -0.09673548, 0.38288897, -655991.4, -107946.836, 0.0, 9.999127, 9.999513 
1.525036e+3, 2.540795e+2, -582754.06, -543241.1, -39373.047, -0.018025538, 0.2969518, -518945.88, -68893.21, 0.0, 9.999173, 9.999691 
1.5250407e+3, 2.640789e+2, -555763.3, -542933.6, -27410.318, 0.0052693724, 0.29549745, -521197.53, -169138.61, 0.0, 9.99896, 9.999123 
1.5250447e+3, 2.7407914e+2, -544156.94, -485425.75, -24028.902, -0.051496122, 0.40351123, -476847.63, -222785.94, 0.0, 9.998361, 9.999132 
1.5250495e+3, 2.84079e+2, -486284.72, -342923.16, -11776.658, -0.073600404, 0.45281675, -341962.2, -185896.48, 0.0, 9.9978075, 9.999705 
1.5250544e+3, 2.9407832e+2, -455583.44, -271784.97, -2993.9507, -0.044307873, 0.40012088, -271736.2, -213664.95, 0.0, 9.997321, 9.999755 
1.5250595e+3, 3.040773e+2, -356684.25, -130574.5, -22484.69, -0.0056926142, 0.30392078, -128360.27, -128360.27, 0.0, 9.997373, 10.000366 
1.5250649e+3, 3.1407994e+2, -134417.88, 136645.92, -74396.59, 0.087731086, 0.50611824, 155722.39, 155722.39, 0.0, 9.998206, 10.001801 
1.5349814e+3, 1.2409337e+2, -1407841.5, -1700993.9, 93623.33, -0.115034536, 0.23521365, -1380492.6, 343422.2, 0.018294634, 10.002736, 9.998778 
1.534985e+3, 1.3409288e+2, -1409664.4, -1772291.4, -56085.99, -0.014266752, 0.40902665, -1401187.9, 224734.81, 0.011016667, 10.002538, 9.997714 
1.5349878e+3, 1.4409016e+2, -1327344.1, -1615998.4, -21809.477, -0.078473054, 0.34151477, -1325705.5, 202245.61, 0.0048880493, 10.002138, 9.9983015 
1.5349934e+3, 1.540891e+2, -1312955.6, -1544900.4, -29156.938, 0.088600375, 0.38967976, -1309346.6, 120615.02, 0.0013030368, 10.001501, 9.998423 
1.5349981e+3, 1.6408747e+2, -1230150.3, -1452632.0, 5217.0513, 0.11241811, 0.3884382, -1230027.9, 101948.25, 0.00013086536, 10.001388, 9.998437 
1.5350018e+3, 1.7408502e+2, -1031376.3, -1298596.6, 29912.447, -0.01106108, 0.28894344, -1028068.9, 205928.27, 0.0000010420176, 10.002047, 9.998504 
1.535006e+3, 1.8408284e+2, -942997.0, -1243630.9, -4957.6367, -0.04908085, 0.23910281, -942915.3, 193101.69, 0.0, 10.002145, 9.998162 
1.5350105e+3, 1.9408122e+2, -943783.25, -1190488.4, -10657.652, 0.01884115, 0.2554362, -943323.7, 94710.02, 0.0, 10.001456, 9.998185 
1.5350148e+3, 2.0407975e+2, -946321.6, -1159876.3, -16027.402, 0.040380128, 0.2994178, -945125.5, -5076.0044, 0.0, 10.000847, 9.998017 
1.5350187e+3, 2.140785e+2, -914131.5, -1089034.0, -55227.035, 0.001026903, 0.36737984, -898152.9, -56089.4, 0.0, 10.000376, 9.998057 
1.5350227e+3, 2.2407708e+2, -816805.94, -879308.94, -82833.91, -0.019595487, 0.37545982, -759524.3, -15445.8955, 0.0, 9.999888, 9.99906 
1.5350266e+3, 2.3407541e+2, -779444.5, -791636.56, -54302.688, -0.014947882, 0.28411376, -730896.75, -84802.59, 0.0, 9.999392, 9.999227 
1.5350306e+3, 2.4407445e+2, -715394.1, -700712.6, -25548.98, -0.025157837, 0.26375067, -681470.75, -133367.42, 0.0, 9.999119, 9.99931 
1.5350346e+3, 2.5407457e+2, -605313.1, -589622.2, -35817.195, -0.055146363, 0.33528274, -560801.25, -110698.96, 0.0, 9.99917, 9.999374 
1.535039e+3, 2.6407441e+2, -548706.6, -528410.44, -47082.344, -0.06338122, 0.3917137, -490394.94, -138289.44, 0.0, 9.998959, 9.999223 
1.5350433e+3, 2.7407387e+2, -534084.7, -464309.97, -44534.035, -0.039897587, 0.4076185, -442625.2, -188510.84, 0.0, 9.998358, 9.99928 
1.5350477e+3, 2.8407347e+2, -464774.8, -296892.1, -29449.97, -0.021101184, 0.41117626, -291875.88, -135756.67, 0.0, 9.997802, 10.000026 
1.535052e+3, 2.940735e+2, -432279.13, -223357.72, -18901.055, -0.012281533, 0.39036363, -221661.52, -163544.4, 0.0, 9.99732, 10.000089 
1.5350568e+3, 3.0407277e+2, -438730.78, -300521.5, 4478.659, -0.01840248, 0.35590446, -300376.53, -300376.53, 0.0, 9.997368, 9.999203 
1.5350622e+3, 3.140741e+2, -198448.5, 6186.9272, -32488.486, 0.0049985074, 0.5603867, 11221.048, 11221.048, 0.0, 9.998193, 10.000912 
1.5449843e+3, 1.2408895e+2, -1500187.1, -1739991.1, 48748.41, -0.07056979, 0.25554916, -1490656.3, 233302.38, 0.019406972, 10.0020685, 9.998831 
1.5449876e+3, 1.3408811e+2, -1406803.4, -1763938.6, -73536.78, -0.017716384, 0.38931632, -1392254.3, 233713.94, 0.0117135905, 10.002534, 9.997773 
1.5449898e+3, 1.4408527e+2, -1226204.1, -1587130.6, -24901.428, -0.11913706, 0.3136201, -1224494.3, 303503.28, 0.0052204016, 10.002925, 9.99812 
1.5449953e+3, 1.5408407e+2, -1064175.6, -1447173.6, -35630.73, 0.041481175, 0.37028316, -1060889.0, 369121.34, 0.0014059248, 10.003307, 9.998223 
1.545e+3, 1.640825e+2, -999676.7, -1331767.1, -19749.838, 0.084011, 0.38044026, -998506.25, 333518.66, 0.00014487762, 10.002926, 9.998527 
1.545004e+3, 1.7408034e+2, -1106898.0, -1321567.4, -23034.615, 0.015842665, 0.2974806, -1104454.3, 129588.336, 0.000001197513, 10.00147, 9.998625 
1.545008e+3, 1.8407829e+2, -1124193.3, -1324816.8, -54456.402, -0.0049939114, 0.25237724, -1110365.0, 25695.707, 0.0, 10.000875, 9.998216 
1.5450121e+3, 1.940766e+2, -930305.06, -1179239.0, -48691.402, 0.021480296, 0.25635412, -921119.94, 116958.38, 0.0, 10.001528, 9.998228 
1.5450157e+3, 2.0407501e+2, -839784.3, -1116398.3, -32908.22, 0.020953013, 0.2905383, -835923.2, 104172.23, 0.0, 10.001613, 9.997946 
1.5450191e+3, 2.1407364e+2, -844636.4, -1064824.5, 2436.7424, -0.014079829, 0.3526936, -844609.4, -2498.2205, 0.0, 10.000894, 9.997973 
1.5450227e+3, 2.240722e+2, -754885.44, -835242.6, 5494.4517, -0.02713375, 0.3599442, -754511.5, -10385.351, 0.0, 10.000255, 9.999185 
1.5450263e+3, 2.3407076e+2, -717701.1, -746292.56, -15615.842, -0.011735851, 0.27695948, -710825.56, -64686.5, 0.0, 9.999749, 9.999367 
1.5450299e+3, 2.4406992e+2, -693489.44, -714425.44, 1738.0747, -0.023731017, 0.271063, -693346.1, -145198.81, 0.0, 9.999375, 9.999091 
1.5450338e+3, 2.5407e+2, -621394.56, -626241.06, -5747.5244, -0.07571544, 0.3653069, -617580.3, -167432.42, 0.0, 9.999186, 9.999116 
1.5450376e+3, 2.640697e+2, -569660.3, -529739.3, -34505.824, -0.084653124, 0.41815656, -509836.66, -157683.83, 0.0, 9.998778, 9.999301 
1.5450417e+3, 2.7406886e+2, -567928.3, -468479.3, -38736.457, -0.031817254, 0.39167517, -455171.75, -201008.11, 0.0, 9.9980755, 9.999386 
1.5450457e+3, 2.8406847e+2, -451352.47, -259600.25, -7440.3657, -0.0009954985, 0.3745821, -259311.98, -103144.48, 0.0, 9.997764, 10.0002985 
1.5450498e+3, 2.940689e+2, -318749.56, -136262.95, -1190.7157, -0.0049795606, 0.37156314, -136255.19, -78095.72, 0.0, 9.997963, 10.000377 
1.5450545e+3, 3.0406845e+2, -398174.25, -325493.06, 57686.81, -0.012516386, 0.36822698, -293654.44, -293654.44, 0.0, 9.997843, 9.9988 
1.5450601e+3, 3.1406835e+2, -343440.34, -89229.125, 83907.11, 0.019727081, 0.47512624, -64031.617, -64031.617, 0.0, 9.997312, 10.000679 
1.554986e+3, 1.2408493e+2, -1470549.6, -1675726.0, 68298.336, -0.103657104, 0.39226916, -1449894.1, 274108.53, 0.020587768, 10.002062, 9.999281 
1.5549904e+3, 1.340828e+2, -1367253.9, -1682399.0, -57146.375, 0.025470296, 0.33920386, -1357211.4, 268808.5, 0.012455585, 10.00254, 9.99833 
1.5549931e+3, 1.440795e+2, -1236395.8, -1610034.6, -12632.131, -0.08665452, 0.1980819, -1235969.1, 292081.9, 0.0055746003, 10.002931, 9.997961 
1.554998e+3, 1.5407872e+2, -1079564.1, -1480194.6, -20654.215, -0.023132093, 0.31516498, -1078502.1, 351559.7, 0.001515748, 10.00331, 9.997996 
1.555002e+3, 1.6407754e+2, -1014858.7, -1363242.0, -69878.62, 0.0037671432, 0.38639957, -1001365.1, 330709.44, 0.00016035176, 10.002926, 9.998311 
1.5550056e+3, 1.7407572e+2, -1122929.6, -1354448.5, -77977.65, 0.04161072, 0.36175796, -1099115.6, 134975.23, 0.0000013687348, 10.001468, 9.998401 
1.5550093e+3, 1.8407404e+2, -1114119.1, -1302763.0, -38060.418, 0.05230722, 0.3592632, -1106729.6, 29376.967, 0.0, 10.00087, 9.99837 
1.5550134e+3, 1.9407274e+2, -916876.5, -1150606.1, -23068.307, 0.0058902893, 0.3811076, -914621.5, 123498.59, 0.0, 10.001524, 9.998426 
1.555017e+3, 2.0407112e+2, -778575.8, -988733.25, -56360.3, -0.026852304, 0.3613224, -764415.2, 175720.23, 0.0, 10.001609, 9.998826 
1.5550199e+3, 2.1406916e+2, -779205.4, -927300.94, -24319.152, -0.03393143, 0.26961908, -775314.1, 66838.41, 0.0, 10.000885, 9.998923 
1.5550227e+3, 2.2406788e+2, -781616.75, -888905.94, -15190.098, -0.05095963, 0.25792062, -779507.56, -35342.984, 0.0, 10.000244, 9.998821 
1.5550253e+3, 2.340677e+2, -753350.56, -820230.06, -33210.836, -0.082880065, 0.34876204, -739660.94, -93492.2, 0.0, 9.999747, 9.99886 
1.5550286e+3, 2.4406704e+2, -711433.1, -750755.3, -6031.27, -0.09763243, 0.4022458, -710528.8, -162352.06, 0.0, 9.999371, 9.998845 
1.5550329e+3, 2.540658e+2, -637291.9, -658412.56, -10771.592, -0.08557757, 0.3871779, -632767.56, -182578.02, 0.0, 9.99918, 9.9988985 
1.5550366e+3, 2.640648e+2, -567286.2, -523860.94, -58436.586, -0.06418348, 0.37748185, -483233.6, -131032.76, 0.0, 9.998774, 9.999344 
1.5550397e+3, 2.740641e+2, -563704.56, -460161.13, -62615.066, -0.03120969, 0.3587177, -430686.56, -176476.97, 0.0, 9.998076, 9.999444 
1.5550433e+3, 2.8406385e+2, -434673.0, -225114.19, -1676.887, -0.018500881, 0.34253082, -225100.78, -68889.84, 0.0, 9.997763, 10.000537 
1.5550475e+3, 2.9406452e+2, -300913.66, -98843.99, 8768.432, -0.03202843, 0.33666557, -98464.22, -40265.15, 0.0, 9.99796, 10.000636 
1.5550524e+3, 3.0406436e+2, -379615.5, -284652.84, 40445.55, 0.0026670988, 0.33718997, -269761.75, -269761.75, 0.0, 9.997832, 9.999087 
1.5550585e+3, 3.1406265e+2, -320834.88, -40500.05, 71915.1, 0.11825491, 0.25086948, -23127.99, -23127.99, 0.0, 9.997303, 10.001019 
1.564988e+3, 1.2407997e+2, -1348913.4, -1591466.9, 97474.4, -0.14298867, 0.41584045, -1314596.8, 409456.56, 0.021849003, 10.002808, 9.999512 
1.5649933e+3, 1.3407813e+2, -1326127.8, -1615244.1, -47284.277, 0.04183036, 0.35125995, -1318591.0, 307474.47, 0.013250772, 10.0026245, 9.998751 
1.5649961e+3, 1.4407516e+2, -1324521.5, -1639221.9, -4784.632, -0.059281785, 0.2112402, -1324448.9, 203644.0, 0.0059556314, 10.002265, 9.998081 
1.5650007e+3, 1.5407418e+2, -1296303.9, -1574138.9, 8930.399, -0.0059125735, 0.3006233, -1296017.1, 134088.4, 0.0016345053, 10.001776, 9.99809 
1.5650044e+3, 1.6407292e+2, -1183168.9, -1442441.6, -29701.246, -0.00024733323, 0.35983276, -1179809.9, 152309.23, 0.00017771397, 10.001765, 9.998324 
1.5650073e+3, 1.7407124e+2, -982612.8, -1286137.9, -23998.225, 0.0013938628, 0.34824887, -980727.1, 253407.39, 0.0000016137079, 10.002432, 9.998404 
1.5650105e+3, 1.8406972e+2, -891573.7, -1183562.8, 30386.396, 0.0061823404, 0.3545221, -888445.0, 247704.03, 0.0, 10.002346, 9.998477 
1.5650147e+3, 1.9406854e+2, -956827.9, -1157452.0, 37800.305, -0.0046648714, 0.37974137, -949942.1, 88218.86, 0.0, 10.001195, 9.998538 
1.565018e+3, 2.040671e+2, -934068.3, -1036102.3, -27162.541, -0.0183836, 0.35965434, -927287.94, 12886.461, 0.0, 10.000423, 9.99907 
1.5650204e+3, 2.1406533e+2, -859691.1, -937776.7, -49552.6, -0.032377988, 0.26253226, -835648.25, 6540.8516, 0.0, 10.000212, 9.999175 
1.5650228e+3, 2.2406417e+2, -806283.75, -927468.2, -51581.816, -0.051893555, 0.25945023, -787301.5, -43101.164, 0.0, 10.000192, 9.998582 
1.5650254e+3, 2.3406398e+2, -673316.2, -814196.3, -55971.824, -0.0816215, 0.37823915, -653786.0, -7580.307, 0.0, 10.000438, 9.998568 
1.5650283e+3, 2.4406321e+2, -592879.3, -671115.6, -23471.521, -0.09081523, 0.42801985, -586377.94, -38163.13, 0.0, 10.000087, 9.999046 
1.565032e+3, 2.540618e+2, -662163.3, -641389.06, 3398.9585, -0.06952373, 0.3658339, -640847.1, -190618.97, 0.0, 9.998886, 9.999155 
1.5650353e+3, 2.6406074e+2, -640125.7, -555098.3, -8928.107, -0.045277365, 0.3358064, -554171.0, -201932.34, 0.0, 9.998258, 9.999378 
1.5650381e+3, 2.7406016e+2, -510881.47, -433948.97, -17018.977, -0.019100653, 0.33066636, -430352.2, -176107.03, 0.0, 9.998436, 9.999451 
1.5650414e+3, 2.8405982e+2, -369892.9, -220888.67, 29938.742, -0.015054272, 0.3168345, -215098.25, -58850.684, 0.0, 9.998324, 10.000296 
1.5650453e+3, 2.940602e+2, -345071.56, -149420.44, -1188.9014, -0.03962929, 0.30800825, -149413.2, -91172.92, 0.0, 9.997784, 10.000373 
1.56505e+3, 3.0406052e+2, -404963.4, -242777.89, 14292.716, 0.011171819, 0.34499016, -241527.95, -241527.95, 0.0, 9.997425, 9.999571 
1.5650561e+3, 3.140586e+2, -290179.44, 13997.388, 63184.594, 0.14809337, 0.1866137, 26600.135, 26600.135, 0.0, 9.997341, 10.001375 
1.5749903e+3, 1.2407413e+2, -1350021.0, -1594064.5, 90805.34, -0.19309472, 0.32543334, -1319941.0, 404168.66, 0.023204513, 10.0028105, 9.999495 
1.5749957e+3, 1.3407418e+2, -1307565.9, -1577611.0, -55622.254, 0.024318973, 0.42401657, -1296557.9, 329546.97, 0.014108494, 10.002627, 9.999013 
1.5749985e+3, 1.440722e+2, -1298457.5, -1583937.8, -25164.854, -0.044369183, 0.35347405, -1296256.3, 231866.31, 0.0063687824, 10.002261, 9.998464 
1.5750036e+3, 1.5407048e+2, -1268104.4, -1515771.6, -9000.764, 0.0894233, 0.32794228, -1267777.6, 162363.45, 0.00176415, 10.001776, 9.99849 
1.5750068e+3, 1.6406873e+2, -1165758.1, -1406781.6, -9620.792, 0.06582078, 0.30320144, -1165374.6, 166783.53, 0.00019721544, 10.001766, 9.99857 
1.5750085e+3, 1.7406693e+2, -966954.94, -1253736.3, 1754.304, -0.10819384, 0.25656933, -966944.2, 267229.1, 0.0000019795527, 10.002431, 9.998628 
1.5750113e+3, 1.840653e+2, -889235.6, -1177477.1, -7735.2275, -0.14746691, 0.23773602, -889028.2, 247159.84, 0.0, 10.002339, 9.998523 
1.5750158e+3, 1.9406404e+2, -956304.56, -1154982.4, -5520.232, -0.015791807, 0.2524289, -956151.3, 82049.586, 0.0, 10.001188, 9.998559 
1.575019e+3, 2.0406295e+2, -962195.6, -1093535.0, -38969.066, 0.037990488, 0.28567535, -951503.7, -11291.425, 0.0, 10.000418, 9.998679 
1.5750208e+3, 2.1406218e+2, -890530.75, -1001685.25, -56146.86, -0.012961047, 0.3304262, -867106.06, -24885.178, 0.0, 10.00021, 9.998737 
1.5750234e+3, 2.2406109e+2, -816625.0, -947755.0, -43907.676, -0.034189165, 0.36385447, -803280.9, -59047.66, 0.0, 10.000185, 9.998447 
1.5750265e+3, 2.340596e+2, -681341.6, -829689.6, -45180.22, -0.013357238, 0.3657509, -668665.0, -22414.955, 0.0, 10.000431, 9.998466 
1.5750293e+3, 2.4405845e+2, -548525.3, -577153.6, -63570.31, -0.009774844, 0.35000637, -497677.5, 50584.055, 0.0, 10.000078, 9.999696 
1.5750313e+3, 2.5405788e+2, -612111.0, -537064.7, -40257.945, -0.031977713, 0.30259272, -519554.3, -69290.36, 0.0, 9.998882, 9.999874 
1.5750337e+3, 2.640574e+2, -637899.8, -550577.9, -5841.173, -0.03344095, 0.29092273, -550188.9, -197922.06, 0.0, 9.998257, 9.999411 
1.5750368e+3, 2.7405694e+2, -513493.13, -440108.8, -7580.4204, -0.0030658434, 0.3021784, -439333.94, -185062.66, 0.0, 9.998438, 9.999409 
1.5750399e+3, 2.8405634e+2, -421597.2, -328215.9, 13179.097, 0.0014473336, 0.29536563, -326391.56, -170113.56, 0.0, 9.9983225, 9.999559 
1.5750432e+3, 2.9405597e+2, -400630.63, -265566.13, -18954.55, -0.03227796, 0.29069546, -262956.53, -204673.47, 0.0, 9.997786, 9.999576 
1.5750475e+3, 3.0405682e+2, -356647.78, -141944.17, 9855.61, 0.007889445, 0.3937097, -141492.7, -141492.7, 0.0, 9.997422, 10.000265 
1.5750529e+3, 3.1405622e+2, -265230.34, 68578.164, 64464.938, 0.09122754, 0.2875282, 80595.01, 80595.01, 0.0, 9.997328, 10.001757 
1.5849936e+3, 1.240698e+2, -1283190.6, -1628086.5, 180313.42, -0.20291165, 0.24873945, -1206136.6, 518010.4, 0.024665277, 10.003585, 9.998879 
1.5849982e+3, 1.3406989e+2, -1322380.6, -1628012.9, -21572.088, 0.016433055, 0.389715, -1320865.5, 305279.9, 0.0150364665, 10.00272, 9.998615 
1.5850003e+3, 1.4406827e+2, -1299371.9, -1556217.1, -10781.713, -0.07858603, 0.36564332, -1298920.1, 229241.16, 0.0068181083, 10.002139, 9.99871 
1.5850051e+3, 1.5406674e+2, -1199274.1, -1447397.9, -2402.8794, 0.05084839, 0.3297845, -1199250.9, 230925.92, 0.0019058621, 10.002101, 9.998801 
1.5850084e+3, 1.640652e+2, -1130376.1, -1362697.5, 6981.4937, 0.04084312, 0.29852688, -1130166.5, 202024.63, 0.0002187055, 10.001894, 9.99881 
1.5850106e+3, 1.7406362e+2, -1094049.5, -1289341.3, 17778.95, -0.09338039, 0.25070465, -1092444.1, 141759.73, 0.000002466339, 10.001448, 9.998856 
1.5850133e+3, 1.8406206e+2, -1052453.9, -1245958.1, -12866.698, -0.12945534, 0.22272874, -1051602.1, 84615.58, 0.0, 10.001178, 9.9986105 
1.5850165e+3, 1.9406067e+2, -953944.4, -1145277.6, -10652.1875, -0.050946888, 0.2172642, -953353.1, 84878.33, 0.0, 10.001171, 9.998632 
1.5850192e+3, 2.040596e+2, -865929.2, -1069934.4, -17778.672, -0.010589824, 0.25641087, -864391.44, 75851.77, 0.0, 10.00118, 9.998473 
1.5850215e+3, 2.1405903e+2, -761689.0, -966446.56, -21196.617, -0.018109612, 0.34491047, -759517.75, 82733.52, 0.0, 10.001211, 9.998496 
1.585024e+3, 2.2405781e+2, -723266.56, -892056.44, -3248.2078, -0.012381796, 0.3751241, -723204.06, 21060.87, 0.0, 10.000781, 9.998541 
1.5850268e+3, 2.3405577e+2, -777922.44, -861426.5, 10421.898, 0.0101395985, 0.30754253, -776641.4, -130355.63, 0.0, 9.999707, 9.998596 
1.585029e+3, 2.4405456e+2, -686358.1, -637249.94, -22222.56, 0.014747609, 0.27711537, -628686.9, -80389.57, 0.0, 9.999106, 9.999751 
1.5850306e+3, 2.5405467e+2, -565298.56, -509527.03, -52120.688, -0.00826431, 0.29415712, -478301.2, -28007.078, 0.0, 9.999184, 9.999918 
1.5850326e+3, 2.6405448e+2, -500750.25, -482143.53, -24447.795, -0.01456706, 0.30768135, -465288.78, -112994.54, 0.0, 9.999189, 9.99943 
1.5850355e+3, 2.7405375e+2, -417456.78, -390932.13, -21903.152, 0.005867764, 0.28745633, -378589.03, -124289.14, 0.0, 9.999088, 9.999432 
1.5850386e+3, 2.8405276e+2, -385766.44, -362873.44, -8330.434, 0.011280204, 0.26545775, -360163.03, -203853.0, 0.0, 9.998795, 9.999093 
1.5850414e+3, 2.9405195e+2, -372262.0, -308937.56, -23211.45, -0.006490715, 0.2687083, -301340.8, -243018.86, 0.0, 9.998229, 9.999063 
1.5850453e+3, 3.040529e+2, -303576.7, -76307.195, 11944.268, 0.030594703, 0.38984305, -75681.18, -75681.18, 0.0, 9.997614, 10.000624 
1.5850496e+3, 3.1405303e+2, -331834.88, 40082.883, 31467.35, 0.047542308, 0.31595996, 42726.492, 42726.492, 0.0, 9.996855, 10.001789 
1.5949973e+3, 1.2406716e+2, -1369090.0, -1807864.8, 148772.84, -0.1794841, 0.19513674, -1323403.4, 400760.2, 0.026239868, 10.003583, 9.997638 
1.5950009e+3, 1.3406529e+2, -1394112.5, -1781639.6, -55142.03, 0.014973043, 0.24878974, -1386419.0, 239767.64, 0.016040104, 10.002729, 9.997559 
1.5950015e+3, 1.4406338e+2, -1292152.5, -1542329.4, -18156.578, -0.16834441, 0.24873513, -1290841.8, 237366.52, 0.0073062, 10.002144, 9.998803 
1.5950054e+3, 1.5406299e+2, -1185246.6, -1417560.0, -3230.8, -0.1269774, 0.304678, -1185201.6, 245010.72, 0.002060233, 10.002098, 9.999009 
1.595009e+3, 1.6406238e+2, -1115228.6, -1330854.6, -9533.732, -0.08167619, 0.3448438, -1114807.9, 217409.88, 0.00024185247, 10.00189, 9.999031 
1.5950133e+3, 1.7406134e+2, -1078700.5, -1257885.3, 1386.7097, 0.039269708, 0.3306482, -1078689.8, 155536.34, 0.0000030340082, 10.001448, 9.999072 
1.5950163e+3, 1.8406004e+2, -1043362.8, -1226575.9, -15793.578, 0.051127728, 0.3104698, -1042011.3, 94226.35, 0.0, 10.001174, 9.998746 
1.595017e+3, 1.940585e+2, -945557.8, -1127512.9, -10172.798, -0.11278982, 0.2748116, -944990.8, 93261.72, 0.0, 10.001168, 9.998756 
1.595019e+3, 2.0405704e+2, -869628.7, -1077300.0, -17373.854, -0.16686761, 0.2727074, -868185.2, 72081.96, 0.0, 10.001177, 9.9984255 
1.5950224e+3, 2.1405585e+2, -767571.2, -976637.25, -19202.674, -0.054086715, 0.30608362, -765822.06, 76458.38, 0.0, 10.001201, 9.998432 
1.5950249e+3, 2.2405432e+2, -701845.9, -845697.06, -40620.164, 0.0057377247, 0.29440817, -691168.25, 53127.5, 0.0, 10.000771, 9.998865 
1.5950263e+3, 2.3405243e+2, -752784.3, -808822.7, -28658.32, -0.015007181, 0.20376994, -740723.94, -94410.82, 0.0, 9.999703, 9.99896 
1.5950279e+3, 2.4405152e+2, -725132.6, -717032.2, -22979.332, -0.021415481, 0.2084745, -697748.9, -149426.47, 0.0, 9.999103, 9.999207 
1.5950298e+3, 2.5405213e+2, -610182.75, -602883.3, -46936.01, -0.004006746, 0.3392018, -559455.3, -109136.195, 0.0, 9.999183, 9.999278 
1.5950319e+3, 2.640519e+2, -500792.66, -482631.38, -26863.584, 0.005985898, 0.3859717, -463355.2, -111033.95, 0.0, 9.999189, 9.999427 
1.5950346e+3, 2.7405047e+2, -413160.38, -382155.7, -23531.584, 0.0023259176, 0.2898389, -369479.0, -115147.87, 0.0, 9.999086, 9.999493 
1.5950373e+3, 2.8404906e+2, -399761.97, -391505.16, -27382.262, 0.0068848287, 0.22804603, -367941.84, -211597.55, 0.0, 9.998791, 9.998899 
1.5950401e+3, 2.9404807e+2, -388465.63, -342331.6, -41522.62, 0.02713438, 0.23460744, -317898.97, -259540.6, 0.0, 9.998226, 9.998836 
1.5950432e+3, 3.040486e+2, -305077.1, -77117.695, -14063.867, 0.06840505, 0.3288459, -76253.305, -76253.305, 0.0, 9.997604, 10.000623 
1.595046e+3, 3.1404915e+2, -356656.1, -10021.88, 1417.5797, 0.010150565, 0.29735476, -10016.082, -10016.082, 0.0, 9.996849, 10.001448 
1.6050006e+3, 1.240644e+2, -1479061.5, -1873865.6, 72543.35, -0.16841689, 0.22005591, -1466154.0, 258034.98, 0.027939666, 10.002868, 9.997522 
1.6050039e+3, 1.340618e+2, -1359400.9, -1756146.8, -51400.586, 0.017870553, 0.19184552, -1352849.9, 273368.75, 0.01712635, 10.002938, 9.997633 
1.6050036e+3, 1.4405984e+2, -1215661.6, -1520765.1, 30572.273, -0.21036486, 0.18895766, -1212628.4, 315612.03, 0.007836914, 10.002744, 9.998661 
1.605007e+3, 1.5405945e+2, -1165186.4, -1426575.0, 17610.781, -0.17635767, 0.26358542, -1164005.3, 266239.63, 0.0022287087, 10.00232, 9.998837 
1.6050106e+3, 1.6405898e+2, -1117051.9, -1328105.6, -17136.383, -0.11919351, 0.3269621, -1115669.6, 216579.8, 0.00026665046, 10.001867, 9.999058 
1.6050148e+3, 1.7405833e+2, -1084521.0, -1254849.3, -22545.346, 0.040116366, 0.34566158, -1081587.4, 152667.72, 0.0000036433328, 10.001389, 9.999119 
1.6050176e+3, 1.8405712e+2, -1061727.3, -1235795.5, -37215.156, 0.0648516, 0.33121616, -1054104.6, 82161.695, 0.0, 10.001052, 9.998741 
1.6050181e+3, 1.940552e+2, -983821.2, -1147821.5, -42515.74, -0.12618913, 0.26191804, -973454.56, 64829.703, 0.0, 10.000915, 9.998738 
1.6050197e+3, 2.0405374e+2, -914683.3, -1057604.4, -43597.684, -0.19133928, 0.2430018, -902433.9, 37864.664, 0.0, 10.000691, 9.998794 
1.6050231e+3, 2.1405303e+2, -862312.9, -976525.8, -11776.554, -0.06734827, 0.28520888, -861111.25, -18804.893, 0.0, 10.000356, 9.998838 
1.6050254e+3, 2.240519e+2, -775419.0, -860753.0, -29694.26, -0.0006037684, 0.28031418, -766103.1, -21785.734, 0.0, 10.00018, 9.999045 
1.6050261e+3, 2.3405018e+2, -665220.9, -750001.6, -37859.387, -0.023530135, 0.19333982, -650775.7, -4443.3857, 0.0, 10.000235, 9.999106 
1.6050273e+3, 2.4404918e+2, -590502.3, -693704.25, -18165.13, -0.031219248, 0.19772407, -587398.4, -39055.57, 0.0, 10.000206, 9.998834 
1.6050293e+3, 2.5404933e+2, -514015.88, -603688.9, -26636.97, -0.013714391, 0.32264778, -506700.3, -56354.63, 0.0, 10.00005, 9.998854 
1.6050315e+3, 2.6404887e+2, -425924.78, -449362.8, -8083.8345, 0.007982195, 0.37189755, -423407.1, -71056.266, 0.0, 9.999719, 9.999398 
1.605034e+3, 2.7404764e+2, -404540.9, -377349.0, -11910.048, 0.031290386, 0.29266778, -372870.13, -118510.92, 0.0, 9.999145, 9.999497 
1.6050364e+3, 2.8404632e+2, -422916.2, -383335.38, -13485.029, 0.044951644, 0.23658247, -379177.8, -222807.36, 0.0, 9.99855, 9.99907 
1.6050383e+3, 2.9404536e+2, -418593.38, -334460.5, -800.037, 0.049268108, 0.2258961, -334452.88, -276070.22, 0.0, 9.997925, 9.999034 
1.6050409e+3, 3.0404532e+2, -331062.88, -121153.09, 44613.43, 0.07577261, 0.2639704, -112064.625, -112064.625, 0.0, 9.997563, 10.000339 
1.6050431e+3, 3.1404594e+2, -289601.03, -28629.176, 24240.535, -0.0012588415, 0.26952484, -26396.676, -26396.676, 0.0, 9.997533, 10.000988 
1.6150033e+3, 1.2406171e+2, -1412564.1, -1733601.1, 63173.7, -0.17958109, 0.331242, -1400580.3, 323641.25, 0.02978273, 10.002875, 9.998483 
1.6150068e+3, 1.3405943e+2, -1277960.8, -1585622.0, -49822.785, 0.02112619, 0.21909516, -1270093.6, 356147.28, 0.018308382, 10.002941, 9.998808 
1.6150063e+3, 1.4405765e+2, -1243101.4, -1576980.6, 13115.263, -0.21162519, 0.18821426, -1242587.0, 285670.28, 0.008418617, 10.002739, 9.998278 
1.6150102e+3, 1.5405616e+2, -1204286.5, -1507721.9, 2164.0679, -0.103355974, 0.20732418, -1204271.0, 226002.66, 0.0024150687, 10.002318, 9.9982815 
1.6150129e+3, 1.640551e+2, -1128989.3, -1353501.9, -36407.313, -0.079010874, 0.24749722, -1123233.0, 209052.42, 0.0002938315, 10.001867, 9.998885 
1.6150148e+3, 1.7405461e+2, -1093906.0, -1275144.8, -39891.742, -0.09284578, 0.2961903, -1085514.1, 148776.39, 0.000004294035, 10.001389, 9.998981 
1.6150169e+3, 1.8405327e+2, -1073381.0, -1259097.5, -44171.047, -0.092592284, 0.284766, -1063410.6, 72892.91, 0.0, 10.001047, 9.998584 
1.6150193e+3, 1.9405083e+2, -996494.8, -1173033.6, -46645.844, -0.09738377, 0.17868935, -984927.7, 53398.99, 0.0, 10.000909, 9.998569 
1.6150214e+3, 2.040497e+2, -861060.56, -944977.94, -56022.37, -0.09258119, 0.16811395, -833026.1, 107311.2, 0.0, 10.000684, 9.99957 
1.6150235e+3, 2.1405062e+2, -801238.7, -849017.8, -23083.729, -0.062373362, 0.28223765, -791908.25, 50420.695, 0.0, 10.000352, 9.999716 
1.6150251e+3, 2.240505e+2, -775427.75, -860449.44, -29338.977, -0.036613926, 0.33306104, -766286.4, -21956.51, 0.0, 10.000176, 9.99905 
1.6150263e+3, 2.3404899e+2, -671226.5, -762422.0, -34206.703, -0.020303175, 0.2753305, -659822.0, -13478.249, 0.0, 10.000232, 9.999023 
1.6150276e+3, 2.4404751e+2, -606438.94, -724770.75, -23078.025, -0.020298371, 0.24513738, -602097.4, -53738.61, 0.0, 10.000196, 9.998626 
1.6150291e+3, 2.540462e+2, -530461.94, -636589.44, -30328.838, -0.043267205, 0.24605736, -522406.13, -72032.125, 0.0, 10.000043, 9.9986315 
1.615031e+3, 2.6404533e+2, -431636.03, -460424.13, -27497.146, -0.014943762, 0.2655725, -414993.3, -62609.65, 0.0, 9.999714, 9.999327 
1.6150337e+3, 2.7404505e+2, -408847.28, -386525.78, -30973.754, 0.08647705, 0.29275998, -364763.34, -110378.29, 0.0, 9.999144, 9.999435 
1.6150357e+3, 2.840445e+2, -387623.72, -309697.34, -36320.51, 0.118810736, 0.28982514, -295394.16, -139004.77, 0.0, 9.998548, 9.999578 
1.6150363e+3, 2.9404372e+2, -377556.72, -250282.05, -22207.982, 0.05335601, 0.24607223, -246518.31, -188122.73, 0.0, 9.997928, 9.999611 
1.6150382e+3, 3.040429e+2, -368934.03, -201029.52, 42413.664, 0.04567813, 0.19864589, -190923.81, -190923.81, 0.0, 9.997568, 9.999787 
1.6150407e+3, 3.140431e+2, -328304.1, -107043.33, 19518.816, 0.0028774515, 0.22660916, -105334.65, -105334.65, 0.0, 9.997523, 10.000453 
1.6250062e+3, 1.240585e+2, -1359336.9, -1662740.0, 81884.86, -0.19277582, 0.3458506, -1338647.9, 385607.94, 0.03179242, 10.003064, 9.998888 
1.6250098e+3, 1.34057e+2, -1274511.5, -1527675.0, -71268.99, 0.02926382, 0.26262164, -1255827.3, 370438.5, 0.019603958, 10.002725, 9.999316 
1.6250087e+3, 1.440557e+2, -1311560.1, -1600820.9, -30225.107, -0.2157246, 0.24749602, -1308435.6, 219840.4, 0.009062119, 10.002229, 9.998358 
1.6250125e+3, 1.5405355e+2, -1295245.8, -1548565.5, -684.32904, -0.07692385, 0.19737105, -1295243.9, 135054.14, 0.002624408, 10.001682, 9.998307 
1.6250147e+3, 1.6405211e+2, -1209078.8, -1391798.1, -1863.8516, -0.05487967, 0.19896583, -1209059.8, 123253.23, 0.00032476612, 10.001318, 9.998885 
1.6250159e+3, 1.7405169e+2, -1120598.1, -1288377.1, 3417.0852, -0.12164773, 0.253628, -1120528.6, 113789.46, 0.000005034694, 10.001209, 9.998975 
1.6250177e+3, 1.8405057e+2, -1048046.06, -1203362.4, 27055.86, -0.12694567, 0.24775444, -1043467.9, 92860.51, 0.0, 10.001036, 9.99897 
1.6250204e+3, 1.9404861e+2, -986325.94, -1119336.8, 67286.91, -0.06996137, 0.1469687, -958224.25, 80120.92, 0.0, 10.000772, 9.999001 
1.6250224e+3, 2.0404766e+2, -899098.3, -980683.25, 48237.992, -0.043427527, 0.13736431, -876717.0, 63636.848, 0.0, 10.000498, 9.999414 
1.6250238e+3, 2.140483e+2, -839161.7, -891890.5, -2829.5962, -0.052310888, 0.24475296, -839010.3, 3339.6606, 0.0, 10.000196, 9.999496 
1.6250251e+3, 2.2404823e+2, -795917.3, -852635.5, -38575.082, -0.0513855, 0.30646634, -776398.7, -32047.389, 0.0, 9.999962, 9.999207 
1.6250263e+3, 2.3404731e+2, -716708.2, -762665.1, -24259.563, -0.03945293, 0.2876056, -706272.06, -59912.52, 0.0, 9.999829, 9.999214 
1.6250277e+3, 2.4404599e+2, -667452.75, -729599.75, 9065.728, -0.02825433, 0.25399387, -666157.25, -117785.11, 0.0, 9.999673, 9.998843 
1.625029e+3, 2.5404426e+2, -596860.56, -644358.6, 31716.6, -0.021181805, 0.19113399, -580986.9, -130597.13, 0.0, 9.999483, 9.998846 
1.6250306e+3, 2.6404324e+2, -518531.0, -519201.47, 39068.465, 0.015779864, 0.19312644, -479796.34, -127395.79, 0.0, 9.99919, 9.999174 
1.6250327e+3, 2.7404326e+2, -484602.3, -443828.66, 22247.518, 0.09740852, 0.26849845, -434039.75, -179638.4, 0.0, 9.998715, 9.999246 
1.625034e+3, 2.8404292e+2, -391504.9, -306022.25, 7463.8403, 0.11413124, 0.2950359, -305375.44, -148970.88, 0.0, 9.9985, 9.999623 
1.6250344e+3, 2.9404223e+2, -266111.34, -188477.92, -17269.389, 0.034840614, 0.25049466, -184809.7, -126400.5, 0.0, 9.99866, 9.9996805 
1.6250357e+3, 3.0404118e+2, -255665.3, -149912.34, 36747.484, 0.01268686, 0.17457715, -138397.06, -138397.06, 0.0, 9.998359, 9.99976 
1.6250382e+3, 3.140416e+2, -330801.88, -80638.81, 51656.324, 0.0017054393, 0.23444086, -70391.984, -70391.984, 0.0, 9.997384, 10.000704 
1.6350092e+3, 1.2405495e+2, -1369637.9, -1681610.0, 50483.086, -0.21806297, 0.27755007, -1361672.1, 362618.1, 0.03398967, 10.003058, 9.998758 
1.6350126e+3, 1.3405456e+2, -1285240.6, -1550003.6, -83871.086, 0.03635316, 0.32037336, -1260908.3, 365384.4, 0.02102759, 10.0027275, 9.999161 
1.6350108e+3, 1.4405401e+2, -1275010.6, -1523906.3, -52866.945, -0.23227687, 0.36669782, -1264246.9, 264049.2, 0.009775217, 10.002226, 9.998889 
1.635014e+3, 1.5405163e+2, -1254142.9, -1463819.8, -19935.95, -0.1008026, 0.23457047, -1252264.1, 178053.03, 0.002860367, 10.001682, 9.99889 
1.635016e+3, 1.6405004e+2, -1198015.8, -1367893.9, -8321.368, -0.051559813, 0.18136194, -1197609.1, 134722.73, 0.00036087315, 10.001313, 9.999052 
1.6350178e+3, 1.7404954e+2, -1113001.4, -1272341.8, 5.3851795, -0.0521157, 0.21743082, -1113001.4, 121336.15, 0.000005927034, 10.001207, 9.999086 
1.6350195e+3, 1.84049e+2, -983306.8, -1068351.8, 16961.799, -0.04636267, 0.2202918, -980048.7, 156292.25, 0.0, 10.001031, 9.9999 
1.6350214e+3, 1.9404852e+2, -915275.44, -971936.4, 58214.56, -0.04792779, 0.1665705, -878863.75, 159476.2, 0.0, 10.00077, 10.000015 
1.6350228e+3, 2.0404759e+2, -976138.75, -1139250.1, 36026.04, -0.048728548, 0.15036665, -968536.1, -28187.746, 0.0, 10.000491, 9.99833 
1.6350241e+3, 2.1404605e+2, -932237.3, -1083962.4, -13156.319, -0.041504405, 0.17327175, -931105.0, -88735.44, 0.0, 10.000191, 9.998182 
1.635025e+3, 2.2404508e+2, -776687.56, -810847.75, -44420.625, -0.05073616, 0.20278798, -746176.44, -1794.6771, 0.0, 9.999952, 9.999499 
1.6350256e+3, 2.3404507e+2, -685059.94, -696242.3, -27396.893, -0.08531679, 0.22958587, -662689.5, -16309.579, 0.0, 9.999825, 9.999674 
1.6350268e+3, 2.4404457e+2, -624592.44, -639428.9, 2529.4736, -0.06081447, 0.22381622, -624173.06, -75789.72, 0.0, 9.999666, 9.999467 
1.6350292e+3, 2.5404343e+2, -551767.7, -551531.4, 26718.14, 0.047396593, 0.15796371, -524931.1, -74537.73, 0.0, 9.999484, 9.999485 
1.6350307e+3, 2.6404262e+2, -535745.2, -554534.8, 22774.21, 0.09541033, 0.15445293, -520504.1, -168101.97, 0.0, 9.999187, 9.998934 
1.6350311e+3, 2.7404225e+2, -507967.38, -492965.75, 6271.2476, 0.057802983, 0.22189015, -490689.5, -236280.78, 0.0, 9.998716, 9.998909 
1.6350317e+3, 2.8404155e+2, -419740.13, -365992.38, 11754.592, 0.023267187, 0.25252175, -363534.1, -207117.17, 0.0, 9.998503, 9.999211 
1.6350326e+3, 2.9404074e+2, -295900.0, -251300.23, -8626.914, -0.013356113, 0.23649122, -249689.7, -191264.98, 0.0, 9.998661, 9.999249 
1.6350338e+3, 3.0403993e+2, -223715.19, -81580.19, 3764.0386, -0.028606268, 0.19096409, -81480.58, -81480.58, 0.0, 9.998349, 10.000233 
1.6350354e+3, 3.140412e+2, -261160.88, 66002.71, 15578.379, -0.014444331, 0.27371946, 66742.82, 66742.82, 0.0, 9.9973755, 10.001716 
1.6450119e+3, 1.2405261e+2, -1459038.6, -1734411.3, 115494.31, -0.20506442, 0.20876925, -1417012.8, 307296.75, 0.036383986, 10.002469, 9.998677 
1.6450153e+3, 1.3405235e+2, -1345625.0, -1592790.8, -1117.8412, 0.059957333, 0.2808235, -1345619.9, 280692.9, 0.022584815, 10.002369, 9.999033 
1.645013e+3, 1.4405216e+2, -1258138.1, -1479260.6, 20242.74, -0.23961066, 0.35328388, -1256300.3, 272013.47, 0.010560797, 10.002186, 9.999218 
1.6450155e+3, 1.5405023e+2, -1185816.3, -1389812.1, 36323.133, -0.12402771, 0.22815613, -1179541.6, 250787.73, 0.0031241647, 10.001979, 9.999254 
1.6450174e+3, 1.6404875e+2, -1133772.0, -1344587.3, 40697.24, -0.06289849, 0.16951096, -1126188.4, 206153.84, 0.0004029895, 10.001789, 9.998982 
1.6450195e+3, 1.7404795e+2, -1060914.3, -1259494.6, 30778.197, -0.017216576, 0.18605904, -1056253.4, 178097.86, 0.0000070009137, 10.00162, 9.998974 
1.6450211e+3, 1.8404752e+2, -954477.9, -1049977.0, -3180.897, -0.0072371555, 0.20535006, -954372.0, 181982.2, 0.0, 10.001212, 9.999938 
1.6450217e+3, 1.9404776e+2, -957677.3, -986835.7, -37150.79, -0.06749944, 0.21814409, -932347.44, 106000.234, 0.0, 10.000457, 10.000063 
1.6450228e+3, 2.0404695e+2, -1032679.06, -1150898.8, -42782.953, -0.08518796, 0.20704767, -1018820.7, -78466.15, 0.0, 10.000037, 9.998468 
1.6450243e+3, 2.1404475e+2, -936218.2, -1069497.0, 15317.89, -0.035979398, 0.1482493, -934480.3, -92100.29, 0.0, 10.000095, 9.998325 
1.6450253e+3, 2.2404344e+2, -764425.25, -804872.5, 33304.93, -0.031044772, 0.13475853, -745684.6, -1289.9445, 0.0, 10.000036, 9.999498 
1.6450255e+3, 2.3404354e+2, -688395.7, -700048.1, 12487.128, -0.09284325, 0.17391542, -680442.44, -34049.81, 0.0, 9.999811, 9.999654 
1.6450264e+3, 2.440434e+2, -627805.44, -621218.25, 6658.2656, -0.07503117, 0.19807456, -617083.5, -68690.18, 0.0, 9.999558, 9.999643 
1.6450287e+3, 2.54043e+2, -573081.5, -540350.6, -4538.871, 0.05620425, 0.18663606, -539732.9, -89335.72, 0.0, 9.999246, 9.999676 
1.64503e+3, 2.6404244e+2, -530538.25, -545635.5, -9140.714, 0.09559451, 0.1967663, -526232.1, -173828.61, 0.0, 9.999196, 9.99899 
1.6450296e+3, 2.7404165e+2, -385359.72, -430338.72, 943.36273, 0.0036980764, 0.21793067, -385339.94, -130926.39, 0.0, 9.999543, 9.998941 
1.6450301e+3, 2.8404072e+2, -296868.72, -325703.22, 21270.994, -0.03277769, 0.22717488, -285589.4, -129165.02, 0.0, 9.999429, 9.999042 
1.6450314e+3, 2.9403988e+2, -322401.7, -284563.03, 13532.328, 0.0048375265, 0.2307546, -280221.56, -221788.47, 0.0, 9.9985695, 9.9990635 
1.645032e+3, 3.040393e+2, -331557.34, -163090.7, -1524.334, -0.0038279817, 0.23110805, -163076.9, -163076.9, 0.0, 9.997739, 9.999966 
1.6450328e+3, 3.140402e+2, -303493.4, 44466.62, -56808.547, -0.010156023, 0.3061036, 53506.434, 53506.434, 0.0, 9.99709, 10.001704 
1.6550148e+3, 1.24051556e+2, -1460910.4, -1738979.3, 83922.3, -0.17309296, 0.14478235, -1437545.5, 286767.2, 0.03897044, 10.002475, 9.998642 
1.655018e+3, 1.3405049e+2, -1353878.4, -1610732.1, -4153.2915, 0.096666865, 0.14604647, -1353811.3, 272514.44, 0.024272982, 10.002373, 9.998907 
1.6550152e+3, 1.4405018e+2, -1250923.9, -1462129.4, 9993.33, -0.24248089, 0.20828688, -1250452.1, 277876.78, 0.0114189135, 10.002177, 9.999342 
1.6550171e+3, 1.5404934e+2, -1176558.1, -1370480.9, 28938.842, -0.15327081, 0.17746665, -1172331.8, 258002.67, 0.0034161112, 10.001978, 9.999389 
1.655019e+3, 1.6404822e+2, -1154733.8, -1388166.8, 33261.793, -0.09738775, 0.16287391, -1150086.9, 182257.39, 0.00045137366, 10.001787, 9.998686 
1.6550212e+3, 1.7404687e+2, -1085043.5, -1309998.9, 25414.12, -0.02180624, 0.16020508, -1082208.1, 152150.9, 0.000008273259, 10.001619, 9.99863 
1.6550222e+3, 1.8404613e+2, -1014915.5, -1174369.4, -30326.352, -0.015732585, 0.20363338, -1009342.56, 127025.586, 0.0, 10.001206, 9.999087 
1.6550216e+3, 1.940463e+2, -1021963.06, -1120357.3, -64792.895, -0.13195966, 0.30133352, -989806.1, 48562.06, 0.0, 10.000456, 9.999147 
1.655022e+3, 2.0404577e+2, -939086.1, -955541.3, -43608.445, -0.15724725, 0.30696052, -902935.9, 37436.598, 0.0, 10.000031, 9.999812 
1.6550244e+3, 2.1404435e+2, -825768.7, -839808.1, 18826.477, -0.041023046, 0.16799673, -812695.8, 29685.951, 0.0, 10.000092, 9.999905 
1.6550256e+3, 2.2404324e+2, -786293.94, -849232.2, 25117.088, 0.0008578766, 0.10076136, -777499.25, -33108.645, 0.0, 10.00003, 9.999198 
1.6550253e+3, 2.3404263e+2, -723379.5, -773019.75, 5472.7266, -0.066983595, 0.120496556, -722783.25, -76385.195, 0.0, 9.99981, 9.999154 
1.655026e+3, 2.4404243e+2, -647432.75, -660732.94, -4340.9424, -0.075955026, 0.17676169, -646141.3, -97738.78, 0.0, 9.999552, 9.999376 
1.6550273e+3, 2.540429e+2, -590622.94, -576409.4, -14304.108, 0.00015865869, 0.27567092, -567543.9, -117142.41, 0.0, 9.999243, 9.99943 
1.6550282e+3, 2.6404268e+2, -507520.66, -497623.78, 2189.5845, 0.011555927, 0.31839645, -497161.0, -144755.75, 0.0, 9.999193, 9.999322 
1.6550285e+3, 2.7404144e+2, -357856.38, -373671.94, 17127.654, -0.070305474, 0.25773093, -346899.13, -92482.87, 0.0, 9.999542, 9.999331 
1.6550294e+3, 2.8404027e+2, -293086.94, -318190.88, -5988.25, -0.05888455, 0.22032538, -291731.66, -135304.11, 0.0, 9.999428, 9.999095 
1.6550307e+3, 2.9403955e+2, -319031.56, -278916.28, -18003.898, 0.08044503, 0.23274174, -272021.2, -213585.86, 0.0, 9.998573, 9.999102 
1.6550307e+3, 3.0403918e+2, -401055.03, -306693.25, -27546.164, 0.07814728, 0.2939635, -299240.56, -299240.56, 0.0, 9.997735, 9.9989805 
1.65503e+3, 3.140386e+2, -379087.88, -110268.2, -70987.984, -0.0030468986, 0.32999453, -92673.77, -92673.77, 0.0, 9.997082, 10.000645 
1.665018e+3, 1.2405164e+2, -1346939.1, -1714669.1, 90810.19, -0.14869407, 0.12892444, -1325736.3, 398571.7, 0.041736465, 10.003444, 9.998341 
1.6650204e+3, 1.340499e+2, -1326922.8, -1635948.1, 11240.53, 0.08939532, 0.100778244, -1326514.5, 299814.28, 0.026087236, 10.002741, 9.998551 
1.6650172e+3, 1.4404932e+2, -1251248.6, -1479559.1, 15241.562, -0.27109995, 0.15916415, -1250235.6, 278100.47, 0.012349877, 10.002254, 9.999184 
1.6650191e+3, 1.5404895e+2, -1165745.4, -1381558.4, 13395.908, -0.15625523, 0.19299918, -1164917.1, 265420.4, 0.003737191, 10.002123, 9.999243 
1.6650209e+3, 1.6404796e+2, -1144527.6, -1376489.6, 13180.877, -0.08486183, 0.19477157, -1143781.0, 188564.97, 0.00050616945, 10.001828, 9.998745 
1.6650225e+3, 1.7404622e+2, -1127481.1, -1322049.0, 33526.746, -0.015397237, 0.14445588, -1121866.0, 112497.164, 0.000009797576, 10.001291, 9.998705 
1.6650233e+3, 1.8404505e+2, -1075853.5, -1240156.6, 12171.6455, -0.016872324, 0.15712567, -1074956.8, 61419.473, 0.0, 10.000944, 9.998762 
1.6650222e+3, 1.9404478e+2, -986518.2, -1143311.3, 16948.441, -0.14191042, 0.24684072, -984707.06, 53675.26, 0.0, 10.000874, 9.998788 
1.6650222e+3, 2.0404439e+2, -829375.1, -860692.56, 34626.7, -0.17580363, 0.2669807, -807031.1, 133354.75, 0.0, 10.000607, 10.000186 
1.6650242e+3, 2.1404387e+2, -801212.44, -777613.3, 11480.931, -0.06958163, 0.17493904, -772949.56, 69435.24, 0.0, 10.000047, 10.000353 
1.6650252e+3, 2.240431e+2, -854546.25, -884340.8, -19226.479, -0.011169896, 0.12090367, -845120.94, -100731.58, 0.0, 9.999572, 9.999177 
1.6650254e+3, 2.3404208e+2, -816449.5, -826489.2, -10003.529, -0.026391359, 0.1047263, -810276.94, -163875.42, 0.0, 9.999209, 9.999076 
1.6650257e+3, 2.4404164e+2, -732576.8, -724612.3, 8209.851, -0.038334347, 0.15109895, -719469.9, -171060.7, 0.0, 9.999066, 9.99917 
1.6650261e+3, 2.5404218e+2, -605965.94, -609139.2, -1447.6078, -0.04634051, 0.27979872, -605404.8, -154996.08, 0.0, 9.999248, 9.999203 
1.6650267e+3, 2.6404202e+2, -504856.47, -479077.56, 9338.502, -0.050918765, 0.33340514, -476050.2, -123637.6, 0.0, 9.999138, 9.9994755 
1.6650277e+3, 2.7404076e+2, -487497.8, -414822.16, 7052.3994, -0.048189815, 0.25135493, -414144.1, -159720.92, 0.0, 9.998563, 9.999519 
1.6650286e+3, 2.8403977e+2, -435074.75, -348513.56, -20422.55, -0.008313133, 0.20487665, -343937.16, -187504.86, 0.0, 9.998291, 9.999433 
1.6650292e+3, 2.9403952e+2, -308583.38, -233237.17, -12089.487, 0.073868394, 0.2318672, -231344.9, -172910.08, 0.0, 9.998471, 9.999464 
1.6650282e+3, 3.040395e+2, -313535.66, -277043.5, 15863.15, 0.036260467, 0.31336057, -271111.9, -271111.9, 0.0, 9.998389, 9.998869 
1.6650274e+3, 3.1403777e+2, -281391.84, -106528.055, 46199.668, -0.0018018357, 0.25356066, -95072.41, -95072.41, 0.0, 9.997938, 10.0002575 
1.6750215e+3, 1.24052756e+2, -1384078.5, -1792023.8, 31168.016, -0.14490004, 0.15132554, -1381710.9, 342584.84, 0.044670317, 10.003439, 9.997809 
1.6750227e+3, 1.3405065e+2, -1367555.6, -1722500.3, -13717.866, 0.030727834, 0.14385982, -1367026.3, 259295.47, 0.028026333, 10.002744, 9.997957 
1.6750187e+3, 1.4404954e+2, -1281875.9, -1542936.8, 6612.1904, -0.33412802, 0.20382495, -1281708.5, 246626.64, 0.013357116, 10.002252, 9.998746 
1.6750215e+3, 1.5404913e+2, -1196069.9, -1443725.8, 9949.198, -0.1380885, 0.2740309, -1195670.8, 234667.31, 0.004090086, 10.002118, 9.998817 
1.6750233e+3, 1.6404799e+2, -1117693.8, -1319855.4, -6464.5757, -0.030516451, 0.26562026, -1117487.3, 214859.89, 0.0005678562, 10.001822, 9.999138 
1.675024e+3, 1.7404595e+2, -1093713.9, -1252547.8, 13622.8125, -0.0021961636, 0.13884373, -1092553.9, 141809.75, 0.000011659807, 10.001291, 9.999183 
1.6750243e+3, 1.8404429e+2, -1062192.3, -1210376.5, 7267.4023, -0.01596628, 0.06565395, -1061836.6, 74541.77, 0.0, 10.0009365, 9.998971 
1.6750234e+3, 1.940432e+2, -974717.2, -1118301.6, 15342.565, -0.10356429, 0.05474518, -973096.06, 65294.133, 0.0, 10.00087, 9.998962 
1.6750231e+3, 2.0404273e+2, -871555.1, -946944.94, 14309.967, -0.14852354, 0.08732669, -868930.25, 71464.84, 0.0, 10.0006, 9.999598 
1.6750237e+3, 2.1404329e+2, -849240.06, -876748.75, -8525.302, -0.12498672, 0.16967304, -846812.25, -4423.017, 0.0, 10.000042, 9.999676 
1.6750243e+3, 2.2404309e+2, -838380.7, -849119.56, -33500.58, -0.07074062, 0.19581845, -809822.0, -65430.91, 0.0, 9.999563, 9.999424 
1.6750251e+3, 2.3404185e+2, -792771.06, -777413.2, -21830.697, 0.02509819, 0.12526561, -761950.3, -115546.92, 0.0, 9.9992075, 9.999414 
1.6750254e+3, 2.44041e+2, -744593.8, -748986.7, 13411.918, 0.032289192, 0.1199213, -733199.6, -184786.03, 0.0, 9.999062, 9.999007 
1.675025e+3, 2.5404084e+2, -620818.44, -640844.0, 8091.529, -0.089484036, 0.20077398, -617957.6, -167538.34, 0.0, 9.9992485, 9.998986 
1.6750255e+3, 2.6404044e+2, -507323.56, -484173.22, -8417.981, -0.09803815, 0.2425264, -481435.9, -129009.87, 0.0, 9.999136, 9.999443 
1.6750275e+3, 2.7403954e+2, -488019.3, -416611.8, -12225.951, 0.06322526, 0.19817081, -414576.56, -160141.6, 0.0, 9.998563, 9.999508 
1.6750282e+3, 2.8403908e+2, -392974.94, -260569.6, -15472.67, 0.11108394, 0.18020089, -258785.52, -102346.16, 0.0, 9.998287, 10.000039 
1.6750267e+3, 2.940398e+2, -260279.11, -132757.92, -2044.0319, -0.021329304, 0.23280187, -132725.16, -74293.266, 0.0, 9.998469, 10.000155 
1.6750251e+3, 3.0404028e+2, -262508.5, -171750.55, 1215.8904, -0.13306433, 0.29097012, -171734.27, -171734.27, 0.0, 9.998389, 9.999594 
1.6750251e+3, 3.1403804e+2, -266886.94, -76913.234, 48246.945, -0.024687199, 0.11213322, -65362.44, -65362.44, 0.0, 9.997939, 10.000462 
1.6850245e+3, 1.2405306e+2, -1538557.9, -1847277.8, -74251.48, -0.123690896, 0.193069, -1521627.8, 202668.02, 0.04776628, 10.002238, 9.998011 
1.6850254e+3, 1.3405138e+2, -1343416.9, -1685842.5, -28503.955, 0.019998357, 0.20449752, -1341060.4, 285255.28, 0.030093629, 10.002814, 9.998174 
1.6850212e+3, 1.4404996e+2, -1202954.5, -1522379.1, 20528.236, -0.33867612, 0.22887592, -1201640.6, 326690.2, 0.0144471, 10.002881, 9.998585 
1.6850238e+3, 1.5404862e+2, -1203676.1, -1470161.1, 37161.348, -0.121849656, 0.22682717, -1198591.0, 231751.31, 0.004479329, 10.002164, 9.998615 
1.6850251e+3, 1.640472e+2, -1142943.4, -1320158.8, 21992.078, -0.018350223, 0.19882065, -1140255.0, 192098.66, 0.0006375465, 10.001599, 9.999243 
1.6850251e+3, 1.7404592e+2, -1086601.8, -1232937.1, 15423.806, -0.038869154, 0.13197078, -1084993.8, 149368.92, 0.00001399049, 10.001274, 9.999325 
1.6850248e+3, 1.8404458e+2, -1047453.56, -1180948.5, 3270.972, -0.052875895, 0.07617344, -1047373.5, 88999.76, 0.0, 10.000943, 9.999169 
1.6850245e+3, 1.9404326e+2, -1001948.4, -1109932.8, 11693.343, -0.07125566, 0.022131937, -1000696.7, 37689.004, 0.0, 10.000589, 9.999155 
1.685024e+3, 2.0404252e+2, -961031.2, -1037946.9, 7724.182, -0.09178444, 0.03487579, -960263.1, -19869.549, 0.0, 10.000191, 9.99917 
1.6850238e+3, 2.1404272e+2, -929297.5, -970080.44, -4746.8374, -0.11075016, 0.13055651, -928752.3, -86358.36, 0.0, 9.999728, 9.999185 
1.6850238e+3, 2.2404256e+2, -827023.56, -816985.8, -7157.9116, -0.08690223, 0.17874588, -813262.56, -68866.05, 0.0, 9.999529, 9.99966 
1.6850244e+3, 2.34042e+2, -698916.6, -697246.1, 1799.6343, -0.0038703182, 0.14444485, -696097.4, -49695.98, 0.0, 9.999706, 9.999723 
1.6850245e+3, 2.4404125e+2, -659074.4, -706553.5, 42013.938, 0.011622921, 0.1308834, -634556.94, -86147.1, 0.0, 9.999647, 9.999015 
1.6850244e+3, 2.540403e+2, -625757.44, -646037.2, 48151.695, -0.07285665, 0.13651212, -586689.56, -136267.42, 0.0, 9.99923, 9.998958 
1.6850246e+3, 2.6403975e+2, -548069.44, -479466.06, 33516.19, -0.07331968, 0.15595904, -465810.06, -113380.01, 0.0, 9.998753, 9.999659 
1.6850257e+3, 2.7403972e+2, -524182.78, -407270.97, 45410.617, 0.05188577, 0.1709513, -391705.13, -137273.38, 0.0, 9.998201, 9.999745 
1.685026e+3, 2.8403983e+2, -439745.72, -273899.84, 60159.656, 0.07944416, 0.1931143, -254375.72, -97944.24, 0.0, 9.997928, 10.00012 
1.6850248e+3, 2.9404056e+2, -321245.4, -153299.03, 27682.344, -0.045147117, 0.24413739, -148853.84, -90429.375, 0.0, 9.9980135, 10.000234 
1.6850232e+3, 3.0404103e+2, -284828.44, -117311.45, -14595.802, -0.12862451, 0.26682615, -116049.23, -116049.23, 0.0, 9.997959, 10.000173 
1.6850233e+3, 3.140394e+2, -284069.84, -55821.594, 35546.527, 0.013101541, 0.09346266, -50413.836, -50413.836, 0.0, 9.997694, 10.000725 
1.695027e+3, 1.24052405e+2, -1478866.6, -1717733.3, -90560.44, -0.1001316, 0.23567063, -1448414.9, 275894.34, 0.051028147, 10.002237, 9.998909 
1.6950285e+3, 1.3405213e+2, -1276306.5, -1540986.1, -4460.5044, 0.050695512, 0.28405285, -1276231.4, 350078.63, 0.032295942, 10.002804, 9.999191 
1.6950247e+3, 1.4405054e+2, -1198617.4, -1511157.8, -3184.954, -0.29083857, 0.23326047, -1198584.9, 329738.03, 0.015627254, 10.0028715, 9.998669 
1.695026e+3, 1.5404741e+2, -1203176.8, -1470013.0, 10437.194, -0.11344527, 0.052483097, -1202769.1, 227580.98, 0.004910431, 10.002167, 9.998615 
1.6950263e+3, 1.6404566e+2, -1154775.3, -1345106.5, 7470.7, -0.055448715, -0.0027618997, -1154482.5, 177882.6, 0.0007170378, 10.001599, 9.999073 
1.6950254e+3, 1.740461e+2, -1099801.4, -1261056.6, 4365.4834, -0.12998107, 0.122553, -1099683.3, 134676.88, 0.000016975888, 10.001274, 9.999133 
1.695025e+3, 1.8404594e+2, -1036685.7, -1156925.5, -10413.904, -0.13411155, 0.18714762, -1035790.4, 100570.32, 0.0, 10.000936, 9.999339 
1.6950253e+3, 1.9404498e+2, -987969.75, -1080541.8, -711.9676, -0.048372753, 0.14821628, -987964.25, 50404.547, 0.0, 10.0005865, 9.999359 
1.6950251e+3, 2.040437e+2, -981202.0, -1078176.9, -9740.316, -0.009448668, 0.10877485, -980233.3, -39851.875, 0.0, 10.000182, 9.9988985 
1.6950242e+3, 2.140421e+2, -952466.6, -1017570.06, -20861.36, -0.032542244, 0.05655614, -946355.56, -103956.23, 0.0, 9.999724, 9.998862 
1.6950235e+3, 2.2404152e+2, -812219.25, -784948.94, -3072.225, -0.06698205, 0.06938611, -784607.1, -40201.008, 0.0, 9.999522, 9.999884 
1.6950229e+3, 2.3404251e+2, -679914.4, -657851.25, 10481.26, -0.11744626, 0.16189519, -653666.0, -7270.065, 0.0, 9.999703, 9.999996 
1.695023e+3, 2.440423e+2, -648502.1, -683704.25, 28980.691, -0.10485311, 0.18270712, -632196.25, -83797.93, 0.0, 9.999641, 9.999175 
1.6950242e+3, 2.540405e+2, -615813.1, -625251.9, 34535.35, -0.0008527793, 0.08586501, -585676.2, -135258.25, 0.0, 9.9992285, 9.999102 
1.6950242e+3, 2.640399e+2, -516716.84, -413754.94, 13684.165, 0.018053168, 0.07349191, -411967.28, -59541.93, 0.0, 9.998748, 10.000113 
1.6950226e+3, 2.7404118e+2, -490220.03, -337457.75, 27265.902, -0.08918866, 0.17160852, -332737.06, -78322.92, 0.0, 9.998203, 10.000225 
1.695022e+3, 2.8404185e+2, -471276.63, -340700.84, 61961.438, -0.110175066, 0.24406348, -315979.13, -159569.58, 0.0, 9.997931, 9.999662 
1.6950232e+3, 2.9404175e+2, -359076.03, -232187.13, 33828.477, -0.0036676805, 0.2658765, -223731.9, -165318.4, 0.0, 9.998013, 9.999694 
1.6950229e+3, 3.0404156e+2, -254549.63, -54978.133, -22718.219, 0.04246535, 0.23599398, -52424.676, -52424.676, 0.0, 9.997959, 10.000602 
1.6950218e+3, 3.1404218e+2, -253754.08, 6267.3296, 44690.125, 0.09037468, 0.23267755, 13733.861, 13733.861, 0.0, 9.997697, 10.00115 
1.7050296e+3, 1.24052964e+2, -1294833.0, -1608615.3, -30350.586, -0.12678319, 0.25118488, -1291924.3, 432380.44, 0.054460447, 10.003492, 9.999088 
1.7050312e+3, 1.3405263e+2, -1370753.6, -1562325.9, 30385.518, 0.07805245, 0.27184546, -1366049.6, 260254.72, 0.034638863, 10.002035, 9.999411 
1.7050277e+3, 1.4405105e+2, -1393132.6, -1581508.5, 16168.17, -0.20175478, 0.19848196, -1391755.0, 136561.3, 0.016903277, 10.001413, 9.998886 
1.7050283e+3, 1.5404834e+2, -1236198.8, -1461489.5, 43969.727, -0.085814506, 0.038335707, -1227921.4, 202417.34, 0.00538814, 10.001835, 9.998834 
1.7050281e+3, 1.6404667e+2, -1112033.6, -1348533.0, 45778.113, -0.065606765, -0.010352439, -1103481.8, 228871.06, 0.0008082668, 10.001995, 9.998859 
1.7050268e+3, 1.7404674e+2, -1041766.94, -1262907.0, 34812.055, -0.15049762, 0.10427998, -1036416.25, 197936.36, 0.000020835996, 10.001801, 9.998868 
1.7050259e+3, 1.8404643e+2, -986021.6, -1155827.9, -4350.5273, -0.15186237, 0.17719594, -985910.2, 150445.61, 0.0, 10.001383, 9.999131 
1.705026e+3, 1.940456e+2, -993310.6, -1104744.4, -27916.441, -0.045407634, 0.17203614, -986708.2, 51655.332, 0.0, 10.000646, 9.999163 
1.7050254e+3, 2.0404434e+2, -964132.6, -1042375.44, -25064.2, 0.0016741354, 0.13414772, -956792.25, -16416.482, 0.0, 10.000183, 9.999143 
1.7050241e+3, 2.140426e+2, -876834.7, -949212.94, 8525.328, -0.034267478, 0.03942523, -875844.06, -33450.832, 0.0, 10.000108, 9.9991455 
1.705023e+3, 2.2404195e+2, -764117.9, -793304.0, 44597.77, -0.07682381, 0.041803677, -731786.3, 12614.428, 0.0, 9.99999, 9.9996 
1.7050225e+3, 2.3404294e+2, -688193.7, -700430.44, 9596.684, -0.12953438, 0.16970342, -682930.9, -36537.855, 0.0, 9.999816, 9.999648 
1.7050225e+3, 2.4404295e+2, -665958.56, -653188.7, -12396.489, -0.10731254, 0.21407819, -645629.44, -97235.2, 0.0, 9.999356, 9.999521 
1.7050235e+3, 2.5404158e+2, -695079.4, -616410.44, 8979.704, 0.023995917, 0.12143043, -615398.5, -164990.9, 0.0, 9.998485, 9.99952 
1.705023e+3, 2.6404116e+2, -609371.94, -461920.9, 3554.6199, 0.04232545, 0.10313309, -461835.25, -109422.6, 0.0, 9.998132, 10.000077 
1.7050207e+3, 2.740422e+2, -453093.53, -329164.34, -26470.895, -0.10843015, 0.18539958, -323747.03, -69342.68, 0.0, 9.998503, 10.000136 
1.7050199e+3, 2.8404278e+2, -395328.06, -309566.16, -4893.414, -0.14539586, 0.2585576, -309287.84, -152887.05, 0.0, 9.99848, 9.999609 
1.7050211e+3, 2.940427e+2, -374662.44, -245844.45, 2671.1772, -0.0068546245, 0.28725892, -245789.08, -187384.33, 0.0, 9.997935, 9.999636 
1.7050211e+3, 3.040421e+2, -315790.1, -86460.53, -50724.234, 0.09241836, 0.21968514, -75742.06, -75742.06, 0.0, 9.99755, 10.000583 
1.7050196e+3, 3.1404343e+2, -300842.22, 7887.2827, -17642.666, 0.12237734, 0.28788537, 8892.22, 8892.22, 0.0, 9.997273, 10.001364 
1.7150323e+3, 1.24054536e+2, -1338009.4, -1691615.1, -113471.35, -0.21319586, 0.21994174, -1304728.9, 419555.38, 0.058051143, 10.003469, 9.998503 
1.7150335e+3, 1.3405296e+2, -1408545.3, -1642230.5, -19588.367, 0.09438694, 0.17194174, -1406914.6, 219383.67, 0.037118543, 10.002043, 9.998845 
1.7150302e+3, 1.4405149e+2, -1368752.3, -1531581.9, 25364.084, -0.08096089, 0.12843902, -1364892.8, 163417.66, 0.018276531, 10.00142, 9.999227 
1.7150305e+3, 1.5405136e+2, -1205986.8, -1398335.8, 60593.934, -0.04369219, 0.18033476, -1188490.0, 241818.2, 0.005915651, 10.001833, 9.99927 
1.7150302e+3, 1.6405022e+2, -1132592.8, -1389141.9, 39382.133, -0.055440765, 0.17267632, -1126683.5, 205633.73, 0.0009130136, 10.001986, 9.998586 
1.7150289e+3, 1.7404786e+2, -1066068.8, -1314169.4, 28198.252, -0.10629232, 0.07744191, -1062904.3, 171435.88, 0.000025810483, 10.001802, 9.998516 
1.7150277e+3, 1.8404603e+2, -1027573.3, -1241271.9, -31072.64, -0.11385454, 0.0471717, -1023146.9, 113211.66, 0.0, 10.001378, 9.998548 
1.7150263e+3, 1.9404513e+2, -1036411.7, -1193686.3, -54654.06, -0.06697935, 0.09262746, -1019284.2, 19085.67, 0.0, 10.000642, 9.998555 
1.7150249e+3, 2.0404443e+2, -912130.06, -932891.0, -30468.193, -0.064002864, 0.11059533, -890322.56, 50054.137, 0.0, 10.000175, 9.999899 
1.7150234e+3, 2.140442e+2, -815279.6, -820387.1, 7326.6714, -0.11973984, 0.0787157, -810074.4, 32301.473, 0.0, 10.000102, 10.000034 
1.7150226e+3, 2.240438e+2, -822343.0, -912065.94, 38001.082, -0.12089351, 0.0953692, -808411.3, -64030.51, 0.0, 9.99998, 9.998791 
1.7150232e+3, 2.3404327e+2, -757933.75, -844521.0, 4762.642, -0.044405617, 0.16739598, -757672.56, -111279.5, 0.0, 9.999811, 9.998662 
1.7150229e+3, 2.4404311e+2, -629865.94, -577105.2, -42475.883, -0.0016948142, 0.22484942, -553484.3, -5086.312, 0.0, 9.99935, 10.000047 
1.7150216e+3, 2.5404355e+2, -647308.5, -517559.38, -21568.285, -0.005482285, 0.24306251, -514068.0, -63676.402, 0.0, 9.998484, 10.000199 
1.7150207e+3, 2.6404342e+2, -647242.7, -540666.2, 14045.458, -0.0066252137, 0.2429238, -538846.25, -186453.45, 0.0, 9.998131, 9.999538 
1.7150201e+3, 2.7404264e+2, -499853.5, -426501.38, -10291.883, -0.010666948, 0.21197356, -425084.7, -170681.5, 0.0, 9.998503, 9.99947 
1.7150195e+3, 2.8404254e+2, -371383.56, -259466.48, -22039.588, -0.032481406, 0.23753375, -255282.69, -98876.67, 0.0, 9.998477, 9.999955 
1.7150186e+3, 2.9404336e+2, -345807.6, -185728.25, -13976.795, -0.063630834, 0.31039715, -184517.08, -126118.086, 0.0, 9.997933, 10.000051 
1.715018e+3, 3.0404246e+2, -351893.9, -163207.58, -61226.914, 0.012462064, 0.21775907, -145081.33, -145081.33, 0.0, 9.997554, 10.000056 
1.7150167e+3, 3.140425e+2, -293195.2, 20383.184, -21235.021, 0.09701245, 0.2162418, 21814.65, 21814.65, 0.0, 9.997285, 10.001446 
1.7250355e+3, 1.2405605e+2, -1573047.8, -1831576.4, -129679.6, -0.15444095, 0.16140416, -1519210.8, 205054.81, 0.06177432, 10.0018635, 9.998314 
1.7250356e+3, 1.3405445e+2, -1293806.5, -1607708.3, 18199.027, 0.06428695, 0.13173246, -1292754.9, 333526.3, 0.039721623, 10.002969, 9.998638 
1.7250328e+3, 1.440528e+2, -1132044.3, -1457132.5, 50515.754, -0.06729695, 0.096742086, -1124375.5, 403920.84, 0.019743169, 10.003255, 9.998864 
1.7250328e+3, 1.5405267e+2, -1172263.6, -1423998.9, 21631.748, -0.026138457, 0.18737455, -1170418.4, 259876.97, 0.006494274, 10.00225, 9.998893 
1.725032e+3, 1.6405149e+2, -1189439.3, -1416252.6, -17093.264, -0.03912756, 0.19643946, -1188158.4, 144147.13, 0.001032908, 10.001594, 9.9985895 
1.7250307e+3, 1.7404896e+2, -1115039.5, -1332435.8, -2.414727, -0.10238387, 0.0806112, -1115039.5, 119290.57, 0.00003215152, 10.001444, 9.998562 
1.7250289e+3, 1.840471e+2, -1026704.6, -1221741.4, -25460.467, -0.12029405, 0.03420799, -1023435.75, 112913.1, 0.0, 10.001302, 9.998718 
1.7250271e+3, 1.940463e+2, -946657.75, -1130624.6, 6998.382, -0.08324648, 0.07503585, -946391.94, 91966.36, 0.0, 10.001172, 9.9987335 
1.7250253e+3, 2.0404577e+2, -822219.56, -913161.44, 37113.758, -0.08017057, 0.1090444, -808996.06, 131367.55, 0.0, 10.0008955, 9.999687 
1.7250235e+3, 2.1404573e+2, -788068.25, -835225.2, -12847.227, -0.1218194, 0.119817056, -784795.4, 57566.785, 0.0, 10.000413, 9.999781 
1.7250226e+3, 2.2404528e+2, -834398.5, -912972.8, -2972.8618, -0.104217686, 0.1431438, -834286.2, -89918.21, 0.0, 9.999878, 9.998832 
1.7250231e+3, 2.3404439e+2, -834017.3, -872719.75, 40208.844, -0.0055809366, 0.17250763, -808745.44, -162362.39, 0.0, 9.999255, 9.998735 
1.7250223e+3, 2.4404407e+2, -677936.0, -600903.3, 24452.516, 0.024849262, 0.21222635, -593796.9, -45407.973, 0.0, 9.999027, 10.000037 
1.7250201e+3, 2.5404465e+2, -519806.66, -459088.1, -9666.267, -0.039388195, 0.24730697, -457586.38, -7205.2925, 0.0, 9.999375, 10.00017 
1.725019e+3, 2.6404452e+2, -501343.84, -481775.2, 10995.455, -0.038723107, 0.25267547, -476841.06, -124458.875, 0.0, 9.999184, 9.999434 
1.725019e+3, 2.7404353e+2, -551596.56, -463997.8, 25878.814, 0.046178833, 0.21209943, -456923.84, -202529.61, 0.0, 9.998204, 9.999354 
1.7250182e+3, 2.8404325e+2, -492875.84, -305892.53, 30289.697, 0.033765275, 0.21697587, -301108.25, -144709.64, 0.0, 9.997594, 10.000062 
1.725016e+3, 2.9404375e+2, -401113.22, -201911.63, 12331.571, -0.093893476, 0.2515174, -201151.14, -142757.88, 0.0, 9.997513, 10.000141 
1.7250152e+3, 3.0404302e+2, -345165.38, -210792.14, -24568.387, -0.013689906, 0.19147077, -206441.03, -206441.03, 0.0, 9.997822, 9.999599 
1.7250144e+3, 3.1404287e+2, -96079.945, 120889.9, 16382.282, 0.068361714, 0.21588026, 122119.87, 122119.87, 0.0, 9.998614, 10.001497 
1.7350394e+3, 1.2405754e+2, -1568157.9, -1815798.3, -117243.93, 0.03324433, 0.07631972, -1521456.5, 202791.89, 0.06561491, 10.001844, 9.998432 
1.7350377e+3, 1.340571e+2, -1286430.4, -1589195.1, 59617.6, -0.017970493, 0.1460211, -1275114.0, 351139.38, 0.042436883, 10.002963, 9.998774 
1.735035e+3, 1.4405492e+2, -1207159.4, -1612654.3, 20278.973, -0.16500202, 0.10033249, -1206147.8, 322126.9, 0.021297567, 10.003247, 9.997791 
1.7350349e+3, 1.5405232e+2, -1254361.5, -1597272.9, -15514.274, -0.03889823, 0.06227281, -1253661.0, 176638.72, 0.0071235094, 10.002256, 9.997702 
1.7350338e+3, 1.6405053e+2, -1169059.0, -1374056.1, -26311.443, -0.025493026, 0.064643204, -1165735.8, 166581.28, 0.0011691477, 10.001593, 9.998879 
1.7350316e+3, 1.7405008e+2, -1085043.5, -1269103.5, -4496.3667, -0.14241649, 0.11188641, -1084933.8, 149388.63, 0.00004011834, 10.001438, 9.999001 
1.7350298e+3, 1.8404958e+2, -964852.5, -1090590.8, -30735.262, -0.17574565, 0.13621505, -957741.75, 178585.1, 0.0, 10.001288, 9.999626 
1.7350282e+3, 1.9404915e+2, -880765.8, -992966.06, 3416.0938, -0.09924458, 0.1189969, -880661.9, 157666.97, 0.0, 10.001166, 9.999682 
1.7350265e+3, 2.0404837e+2, -906029.0, -1086068.8, 19435.373, -0.05329223, 0.12891123, -903954.9, 36381.9, 0.0, 10.000889, 9.998504 
1.7350248e+3, 2.1404713e+2, -887540.3, -1041499.0, -29366.785, -0.04572547, 0.1607487, -882129.0, -39776.516, 0.0, 10.000409, 9.998367 
1.7350233e+3, 2.2404632e+2, -773358.94, -784069.25, -25694.12, -0.033763908, 0.1847221, -752467.9, -8105.27, 0.0, 9.999868, 9.999722 
1.7350222e+3, 2.3404625e+2, -755680.56, -709335.5, 18765.373, -0.017875852, 0.1854337, -702690.2, -56326.97, 0.0, 9.99925, 9.99986 
1.7350209e+3, 2.4404581e+2, -718743.0, -684513.94, 34298.56, -0.031736452, 0.17603327, -663297.06, -114929.48, 0.0, 9.999021, 9.999467 
1.7350192e+3, 2.540449e+2, -572399.0, -568176.94, 5745.1187, -0.082004376, 0.13420373, -564167.25, -113790.555, 0.0, 9.999373, 9.999422 
1.7350179e+3, 2.640444e+2, -479469.0, -435905.66, -20697.77, -0.059299737, 0.13348764, -427640.06, -75258.52, 0.0, 9.99918, 9.999751 
1.7350174e+3, 2.740448e+2, -521902.5, -402459.3, -9271.886, 0.053940646, 0.18814796, -401743.84, -147365.63, 0.0, 9.998204, 9.999778 
1.7350158e+3, 2.840447e+2, -502286.9, -326610.72, 24142.717, 0.04482785, 0.19670668, -323353.25, -166973.55, 0.0, 9.997596, 9.99992 
1.7350134e+3, 2.940438e+2, -417255.56, -238278.92, 12056.559, -0.10219139, 0.1085553, -237470.39, -179081.42, 0.0, 9.997521, 9.999888 
1.7350134e+3, 3.040437e+2, -372203.53, -268333.06, 2889.3818, 0.008711904, 0.14842024, -268252.75, -268252.75, 0.0, 9.997827, 9.999203 
1.7350127e+3, 3.1404364e+2, -98614.61, 117448.08, 28598.924, 0.030970812, 0.21170206, 121169.45, 121169.45, 0.0, 9.998607, 10.001477 
1.7450415e+3, 1.24059804e+2, -1473397.4, -1793547.8, -80369.41, 0.030422604, 0.039193466, -1454354.4, 269869.7, 0.06957688, 10.002661, 9.998186 
1.7450401e+3, 1.3405988e+2, -1298481.4, -1616041.3, 84266.49, -0.06925456, 0.18110798, -1277506.1, 348719.7, 0.045260757, 10.00298, 9.998575 
1.7450386e+3, 1.4405751e+2, -1240035.6, -1642859.0, 19079.88, -0.1320379, 0.13300845, -1239134.0, 289115.94, 0.022935338, 10.003084, 9.997662 
1.7450374e+3, 1.5405437e+2, -1188070.0, -1579410.4, 52662.71, -0.028845398, 0.053005144, -1181107.1, 249172.97, 0.0078018596, 10.002779, 9.997571 
1.7450356e+3, 1.6405235e+2, -1089301.9, -1346096.0, 76478.64, -0.029736346, 0.043079443, -1068250.8, 264049.1, 0.0013223152, 10.002189, 9.998784 
1.745033e+3, 1.7405206e+2, -1122225.0, -1298104.8, 56978.332, -0.14631803, 0.11819321, -1105379.6, 128924.18, 0.000049909977, 10.001232, 9.9989 
1.7450307e+3, 1.8405172e+2, -1028739.8, -1119380.1, 4122.7583, -0.18029445, 0.16332884, -1028552.7, 107754.34, 0.0000000000000006446772, 10.000844, 9.999641 
1.7450292e+3, 1.9405141e+2, -863896.2, -981769.75, -30371.803, -0.10835636, 0.15516764, -856530.7, 181777.48, 0.0, 10.001272, 9.999706 
1.7450276e+3, 2.0405057e+2, -850836.5, -1060394.1, -35254.31, -0.05372054, 0.15797745, -845064.56, 95252.06, 0.0, 10.001273, 9.998494 
1.7450255e+3, 2.1404904e+2, -852508.94, -1026402.7, 14957.573, -0.020583874, 0.16204765, -851231.7, -8896.979, 0.0, 10.000658, 9.998351 
1.7450236e+3, 2.2404806e+2, -721119.06, -747455.75, 54276.383, -0.01026772, 0.16646057, -678436.44, 65908.9, 0.0, 10.000179, 9.999824 
1.7450216e+3, 2.3404802e+2, -651476.5, -646509.56, 21258.861, -0.0358669, 0.1579843, -627589.6, 18754.291, 0.0, 9.999914, 9.99997 
1.7450199e+3, 2.4404752e+2, -644758.1, -665436.1, 24936.146, -0.055932496, 0.14349061, -628102.56, -79754.336, 0.0, 9.999601, 9.999317 
1.7450187e+3, 2.5404644e+2, -611326.56, -606620.6, 38517.805, -0.0623281, 0.10459396, -570384.0, -120024.08, 0.0, 9.999194, 9.999244 
1.7450173e+3, 2.64046e+2, -536456.75, -457222.97, 4261.827, -0.027490372, 0.113892354, -456994.4, -104629.47, 0.0, 9.998766, 9.999803 
1.7450157e+3, 2.740466e+2, -499249.47, -383422.47, -15367.598, 0.048655257, 0.18055443, -381418.22, -127059.055, 0.0, 9.998327, 9.999847 
1.7450134e+3, 2.8404635e+2, -448733.9, -314531.66, 26601.309, 0.022832746, 0.17866954, -309451.16, -153089.56, 0.0, 9.998026, 9.999794 
1.745011e+3, 2.940451e+2, -376256.4, -239345.34, 18667.205, -0.10398348, 0.06703163, -236845.78, -178471.02, 0.0, 9.997896, 9.9997 
1.7450115e+3, 3.0404568e+2, -394293.94, -264135.28, 41824.28, 0.051494393, 0.18142103, -251854.47, -251854.47, 0.0, 9.997611, 9.999336 
1.7450106e+3, 3.1404492e+2, -326882.2, 15119.63, 70655.66, 0.049758084, 0.1571846, 29141.781, 29141.781, 0.0, 9.997012, 10.00154 
1.7550422e+3, 1.2406301e+2, -1518345.8, -1886879.8, -78786.59, -0.16762286, 0.061917275, -1502209.0, 221982.31, 0.07366958, 10.00264, 9.997556 
1.755043e+3, 1.3406287e+2, -1335286.1, -1693916.8, 97879.36, -0.096243374, 0.23646024, -1310311.6, 315886.56, 0.048192136, 10.002979, 9.998044 
1.7550433e+3, 1.4406066e+2, -1188936.9, -1530731.5, 9300.454, 0.020536741, 0.19844191, -1188684.0, 339537.4, 0.024652572, 10.003074, 9.998436 
1.7550406e+3, 1.540588e+2, -1126613.3, -1448691.5, 40990.273, -0.001426119, 0.1566732, -1121478.4, 308758.38, 0.008527423, 10.002771, 9.998472 
1.7550376e+3, 1.6405687e+2, -1125258.5, -1418920.9, 41193.117, -0.05711692, 0.12839216, -1119589.6, 212664.52, 0.0014925194, 10.002179, 9.998289 
1.7550345e+3, 1.7405492e+2, -1167193.3, -1392009.0, 21594.271, -0.120743096, 0.10055566, -1165137.9, 69136.42, 0.00006156021, 10.001233, 9.998257 
1.755032e+3, 1.8405353e+2, -1089624.1, -1245612.6, 15304.149, -0.14259322, 0.116592325, -1088136.8, 48152.55, 0.0000000010737394, 10.000842, 9.998776 
1.7550305e+3, 1.9405308e+2, -927807.0, -1113074.0, -12396.629, -0.11543654, 0.18251903, -926981.2, 111315.17, 0.0, 10.001265, 9.998809 
1.7550285e+3, 2.0405237e+2, -772215.2, -894639.0, -54870.664, -0.086112104, 0.19641383, -751221.94, 189081.48, 0.0, 10.001261, 9.999639 
1.7550258e+3, 2.1405143e+2, -758364.8, -829313.2, -6841.0854, -0.05081327, 0.12373974, -757711.25, 84598.18, 0.0, 10.000649, 9.99971 
1.7550234e+3, 2.2405048e+2, -770540.6, -848267.56, 42977.824, -0.03940662, 0.088126644, -751460.44, -7143.5737, 0.0, 10.00017, 9.999136 
1.7550212e+3, 2.3404963e+2, -715872.44, -780083.0, 13570.997, -0.06367352, 0.08924632, -713122.0, -66796.23, 0.0, 9.99991, 9.999056 
1.7550196e+3, 2.4404913e+2, -627247.56, -626913.06, 10442.478, -0.05372527, 0.11349657, -616636.5, -68304.97, 0.0, 9.999592, 9.999586 
1.7550185e+3, 2.540493e+2, -584607.6, -550323.0, 25000.78, 0.0132617215, 0.15938784, -537152.0, -86820.766, 0.0, 9.99919, 9.999632 
1.7550169e+3, 2.6404923e+2, -552129.25, -490650.22, -12163.794, 0.050547007, 0.19345106, -488331.06, -135997.94, 0.0, 9.998768, 9.999574 
1.7550136e+3, 2.740488e+2, -518678.38, -425772.6, -29537.705, 0.025549714, 0.18880858, -417176.9, -162838.95, 0.0, 9.998333, 9.999556 
1.755011e+3, 2.8404814e+2, -457582.47, -332302.13, 20887.941, -0.038418803, 0.16256943, -328911.25, -172566.11, 0.0, 9.998023, 9.999673 
1.7550088e+3, 2.9404745e+2, -384826.78, -258614.56, 15281.34, -0.107252434, 0.122661695, -256790.7, -198438.58, 0.0, 9.997902, 9.999565 
1.7550096e+3, 3.0404887e+2, -345970.22, -165433.77, 22644.863, 0.10558758, 0.29408634, -162636.72, -162636.72, 0.0, 9.997617, 10.000012 
1.7550085e+3, 3.1404746e+2, -339840.53, -8978.863, 5725.308, 0.14063284, 0.1324936, -8879.821, -8879.821, 0.0, 9.997001, 10.001381 
1.7650452e+3, 1.24065384e+2, -1456892.3, -1856418.3, -150723.97, -0.16700949, 0.10958658, -1406409.4, 317760.38, 0.07790593, 10.0031185, 9.997544 
1.7650455e+3, 1.3406487e+2, -1408653.8, -1711501.4, 63393.38, -0.1034614, 0.2323419, -1395919.5, 230259.56, 0.05123237, 10.002375, 9.998209 
1.7650466e+3, 1.4406264e+2, -1331117.0, -1578587.6, -10679.591, 0.102573164, 0.17377454, -1330657.0, 197545.28, 0.026445003, 10.001981, 9.998634 
1.7650431e+3, 1.5406159e+2, -1196613.4, -1460360.8, -32607.063, -0.0031173269, 0.19449286, -1192642.0, 237568.89, 0.009296644, 10.002194, 9.998669 
1.7650393e+3, 1.6406007e+2, -1103829.8, -1388708.4, -55124.11, -0.10259539, 0.18818149, -1093535.3, 238689.25, 0.0016790463, 10.002245, 9.998464 
1.7650358e+3, 1.7405792e+2, -1035651.7, -1309782.4, -19173.674, -0.149039, 0.123087056, -1034317.06, 199927.7, 0.000074904594, 10.002058, 9.998423 
1.765033e+3, 1.8405625e+2, -1005523.75, -1234268.9, 38830.926, -0.15073171, 0.1132508, -999111.7, 137150.4, 0.000000009428086, 10.001546, 9.998515 
1.7650315e+3, 1.9405542e+2, -1049108.1, -1206702.0, 53724.27, -0.10204152, 0.17210609, -1032536.06, 5737.9443, 0.0, 10.000583, 9.998495 
1.7650294e+3, 2.0405464e+2, -931522.56, -951503.1, 5924.519, -0.06622078, 0.1886094, -929897.94, 10384.093, 0.0, 10.000084, 9.999814 
1.7650263e+3, 2.1405408e+2, -797824.56, -822766.75, -32657.96, -0.047030896, 0.131773, -775337.5, 66945.82, 0.0, 10.000272, 9.999934 
1.7650236e+3, 2.2405319e+2, -764530.75, -863156.25, -11503.351, -0.05015117, 0.097769596, -763206.8, -18917.193, 0.0, 10.000288, 9.998976 
1.765021e+3, 2.3405199e+2, -712024.2, -800816.6, 8958.442, -0.087834865, 0.082243554, -711129.4, -64827.176, 0.0, 10.000036, 9.998852 
1.7650189e+3, 2.4405134e+2, -627787.75, -633272.25, 16451.318, -0.07150044, 0.104217626, -613851.7, -65541.97, 0.0, 9.999614, 9.999533 
1.7650178e+3, 2.5405163e+2, -620179.6, -572337.56, -3505.2688, 0.029221378, 0.16911714, -572082.1, -121773.71, 0.0, 9.998966, 9.999589 
1.7650157e+3, 2.6405162e+2, -585684.5, -514990.53, -42155.305, 0.0723403, 0.21312854, -495324.06, -143013.81, 0.0, 9.998574, 9.999498 
1.7650121e+3, 2.74051e+2, -495246.28, -422955.94, -44839.24, 0.015473282, 0.20201346, -401507.44, -147190.84, 0.0, 9.998533, 9.999476 
1.765009e+3, 2.840503e+2, -413738.9, -313901.25, 18491.781, -0.04364319, 0.17321068, -310586.3, -154261.89, 0.0, 9.998336, 9.999649 
1.7650074e+3, 2.9404968e+2, -380005.84, -258929.88, 18808.574, -0.06524179, 0.14217785, -256075.34, -197745.36, 0.0, 9.997948, 9.999539 
1.7650074e+3, 3.040509e+2, -318074.8, -111969.29, 16717.51, 0.10425584, 0.2802583, -110622.11, -110622.11, 0.0, 9.997635, 10.00037 
1.7650054e+3, 3.1404945e+2, -326627.44, -39997.53, -75587.8, 0.10610312, 0.07639365, -21285.666, -21285.666, 0.0, 9.997253, 10.001043 
1.7750502e+3, 1.2406721e+2, -1426349.5, -1779958.0, -160915.23, 0.0242037, 0.2009117, -1364085.9, 360070.9, 0.08231803, 10.003089, 9.998094 
1.775048e+3, 1.3406591e+2, -1356361.9, -1595957.9, 34335.508, -0.09905954, 0.1679772, -1351538.5, 274629.56, 0.054393712, 10.00237, 9.999014 
1.7750485e+3, 1.4406346e+2, -1356865.8, -1632407.5, -8344.112, 0.10696243, 0.059263706, -1356613.4, 171579.05, 0.02831169, 10.001976, 9.998268 
1.775045e+3, 1.5406281e+2, -1231380.4, -1532776.1, -23394.664, -0.038955756, 0.16747898, -1229575.3, 200626.89, 0.010105246, 10.0021925, 9.998174 
1.7750409e+3, 1.6406201e+2, -1047064.8, -1269870.3, -61065.97, -0.17330515, 0.2234912, -1031425.75, 300784.5, 0.0018804772, 10.002239, 9.999283 
1.775037e+3, 1.7406106e+2, -969826.06, -1171810.1, -25384.746, -0.23521614, 0.18484221, -966684.6, 267530.84, 0.00008970714, 10.00205, 9.999373 
1.775034e+3, 1.8405986e+2, -984881.2, -1188858.5, 4675.746, -0.2090487, 0.15369807, -984774.06, 151451.5, 0.000000028818846, 10.001533, 9.998834 
1.7750323e+3, 1.940584e+2, -1032347.6, -1170421.1, 18471.453, -0.07372193, 0.12569624, -1029919.25, 8322.084, 0.0, 10.000576, 9.998749 
1.7750302e+3, 2.0405735e+2, -987010.56, -1067160.4, 8714.94, -0.0015641863, 0.1359179, -986073.94, -45821.188, 0.0, 10.000083, 9.999022 
1.7750269e+3, 2.1405692e+2, -861658.9, -955913.4, -23405.783, -0.014018846, 0.18396084, -856166.7, -13909.523, 0.0, 10.000271, 9.999022 
1.775024e+3, 2.2405617e+2, -740392.75, -811231.4, -19156.785, -0.047888685, 0.19491975, -735544.1, 8720.003, 0.0, 10.000279, 9.999337 
1.7750208e+3, 2.3405503e+2, -678480.0, -729587.0, 1293.0354, -0.11277633, 0.13702397, -678447.3, -32173.58, 0.0, 10.000027, 9.999347 
1.7750181e+3, 2.4405402e+2, -654634.75, -687999.94, -6297.2354, -0.1141586, 0.11348938, -653485.8, -105202.13, 0.0, 9.999608, 9.999161 
1.7750163e+3, 2.5405338e+2, -653702.0, -642023.25, -25675.684, -0.020717809, 0.13202962, -621531.3, -171239.05, 0.0, 9.998964, 9.999113 
1.775014e+3, 2.640531e+2, -581438.8, -505633.44, -45275.887, 0.029954378, 0.17264417, -484489.34, -132192.4, 0.0, 9.99857, 9.999565 
1.7750105e+3, 2.7405325e+2, -486173.7, -405335.16, -44605.754, 0.011563751, 0.22176795, -385559.8, -131264.03, 0.0, 9.998538, 9.999596 
1.7750078e+3, 2.8405276e+2, -407153.9, -301383.53, 4459.052, 0.0005238749, 0.21099564, -301195.88, -144895.8, 0.0, 9.99834, 9.999734 
1.775006e+3, 2.940517e+2, -373040.56, -245464.69, 6908.1064, 0.017156485, 0.12412849, -245091.72, -186782.53, 0.0, 9.997948, 9.999634 
1.7750043e+3, 3.0405176e+2, -314482.25, -103370.49, 6103.1655, 0.03850826, 0.13352017, -103194.195, -103194.195, 0.0, 9.997629, 10.000432 
1.7750013e+3, 3.1405273e+2, -364239.2, -119509.3, -118859.25, -0.02149333, 0.17319103, -71284.97, -71284.97, 0.0, 9.997261, 10.000494 
1.7850535e+3, 1.2406918e+2, -1545320.4, -1828345.4, -56236.96, 0.08958906, 0.19192423, -1534555.6, 189582.3, 0.08696164, 10.002158, 9.998183 
1.7850499e+3, 1.3406768e+2, -1291807.0, -1532298.3, 75912.336, -0.15292546, 0.11069323, -1269849.6, 356299.2, 0.057701517, 10.002702, 9.999317 
1.7850508e+3, 1.4406547e+2, -1253515.1, -1568569.3, 29254.215, 0.091858715, 0.0040267683, -1250821.8, 277348.28, 0.030258754, 10.002665, 9.998371 
1.7850469e+3, 1.5406504e+2, -1247195.1, -1531741.1, 53736.727, -0.0576344, 0.12770523, -1237385.1, 192793.64, 0.0109521225, 10.00205, 9.998246 
1.7850427e+3, 1.6406451e+2, -1137922.4, -1303503.0, 14060.142, -0.17874666, 0.2016116, -1136737.0, 195448.31, 0.0020959692, 10.001574, 9.999371 
1.785039e+3, 1.7406388e+2, -1073981.8, -1212321.1, -16070.769, -0.19625217, 0.18577194, -1072139.4, 162048.89, 0.000105867584, 10.001296, 9.999456 
1.7850359e+3, 1.8406284e+2, -1043266.4, -1206641.8, -37640.734, -0.1630015, 0.16271865, -1035011.3, 101185.36, 0.0000000562377, 10.001092, 9.998922 
1.785033e+3, 1.9406134e+2, -963814.0, -1127483.4, -39958.21, -0.079878055, 0.121322714, -954579.6, 83632.05, 0.0, 10.001007, 9.998834 
1.7850302e+3, 2.040601e+2, -899567.9, -1054798.5, -22695.03, -0.03293561, 0.120210804, -896317.9, 43906.73, 0.0, 10.0008135, 9.998754 
1.7850272e+3, 2.1405932e+2, -855651.9, -987330.9, -10767.243, -0.032249298, 0.16323371, -854777.25, -12543.808, 0.0, 10.000462, 9.9987135 
1.7850241e+3, 2.2405858e+2, -757344.1, -804708.1, 4108.1006, -0.04641606, 0.18655013, -756990.44, -12749.528, 0.0, 10.0001, 9.999469 
1.785021e+3, 2.3405795e+2, -708867.56, -723611.56, -1553.9541, -0.08211193, 0.16357397, -708705.56, -62460.152, 0.0, 9.999731, 9.99953 
1.785018e+3, 2.4405707e+2, -682628.5, -708029.06, -13097.146, -0.08737214, 0.14549553, -677085.1, -128831.164, 0.0, 9.999443, 9.999103 
1.7850152e+3, 2.54056e+2, -616344.3, -633711.94, -5898.3716, -0.048802093, 0.12697843, -614530.56, -164263.97, 0.0, 9.999262, 9.999026 
1.785012e+3, 2.6405546e+2, -522741.34, -479344.38, -3693.68, -0.022249546, 0.14833798, -479032.22, -126758.77, 0.0, 9.9989805, 9.999548 
1.7850089e+3, 2.7405566e+2, -481816.34, -406261.9, -13466.851, -0.011316275, 0.20477593, -403933.34, -149661.64, 0.0, 9.998576, 9.999573 
1.7850062e+3, 2.8405532e+2, -447236.38, -308295.6, 18342.197, 0.022891374, 0.20431557, -305914.97, -149640.42, 0.0, 9.99801, 9.9998455 
1.7850043e+3, 2.940545e+2, -478433.75, -278110.75, 18032.11, 0.085943975, 0.13116737, -276500.53, -218219.86, 0.0, 9.9971485, 9.999794 
1.785001e+3, 3.04054e+2, -428693.25, -144020.61, 49055.063, -0.010158834, 0.06645036, -135804.53, -135804.53, 0.0, 9.996783, 10.000561 
1.7849985e+3, 3.14056e+2, -364568.94, -114072.53, -73604.42, -0.030461624, 0.20073214, -94046.086, -94046.086, 0.0, 9.997238, 10.00054 
1.795055e+3, 1.2407138e+2, -1570174.4, -1878946.8, -7193.563, 0.021483043, 0.0885716, -1570006.9, 154105.36, 0.09190124, 10.00214, 9.997841 
1.7950515e+3, 1.3407023e+2, -1305963.5, -1558588.3, 92500.3, -0.26704985, 0.061978836, -1275715.6, 350405.06, 0.06119029, 10.002697, 9.99913 
1.795053e+3, 1.4406869e+2, -1219931.9, -1494459.8, 6960.4063, 0.05102784, 0.0096608875, -1219755.5, 308379.2, 0.03230053, 10.002653, 9.998894 
1.7950489e+3, 1.5406832e+2, -1207207.3, -1445002.3, 30914.438, -0.066471845, 0.07725144, -1203254.0, 226886.56, 0.011841973, 10.002039, 9.998848 
1.7950448e+3, 1.6406757e+2, -1184055.4, -1397144.6, 1449.1874, -0.12738991, 0.12573823, -1184045.5, 148104.13, 0.0023264778, 10.001562, 9.998734 
1.795042e+3, 1.7406635e+2, -1128605.4, -1325033.6, -25608.29, -0.03894652, 0.12777688, -1125321.6, 108841.37, 0.00012352158, 10.001292, 9.998686 
1.7950383e+3, 1.8406516e+2, -1054466.4, -1229558.0, -41968.7, -0.021340897, 0.14083283, -1044926.44, 91249.03, 0.000000085167756, 10.001088, 9.998768 
1.7950337e+3, 1.9406417e+2, -970737.56, -1141144.9, -41706.977, -0.12467438, 0.15737192, -961077.44, 77108.0, 0.0, 10.001002, 9.998743 
1.7950298e+3, 2.0406283e+2, -883675.9, -1019958.1, -34866.24, -0.16398177, 0.14189103, -875273.75, 64924.17, 0.0, 10.000803, 9.999 
1.795027e+3, 2.1406119e+2, -837461.9, -948355.75, -21942.455, -0.10512694, 0.07016134, -833278.0, 8934.739, 0.0, 10.000454, 9.998986 
1.7950241e+3, 2.2406033e+2, -764671.9, -818663.1, -9472.592, -0.051068727, 0.07214513, -763058.1, -18837.484, 0.0, 10.000093, 9.999376 
1.7950214e+3, 2.340607e+2, -719392.7, -745047.94, -13438.353, -0.0028005936, 0.16147366, -713642.44, -67424.54, 0.0, 9.999726, 9.999386 
1.7950183e+3, 2.4406044e+2, -664877.6, -669803.25, -20042.033, 0.0013268825, 0.20107186, -647147.6, -98926.46, 0.0, 9.999436, 9.999369 
1.7950143e+3, 2.5405943e+2, -594984.94, -588826.25, -10638.199, -0.059862174, 0.15734345, -580830.7, -130598.94, 0.0, 9.999258, 9.999337 
1.7950106e+3, 2.640586e+2, -528804.06, -493663.44, -17373.398, -0.08860959, 0.13967192, -486524.4, -134284.02, 0.0, 9.998985, 9.99945 
1.795007e+3, 2.7405816e+2, -491717.72, -428924.6, -25367.598, -0.06170645, 0.14325823, -419957.06, -165711.45, 0.0, 9.998583, 9.999415 
1.7950042e+3, 2.8405786e+2, -439325.97, -291309.06, -12312.095, 0.014726325, 0.15089962, -290291.9, -134043.5, 0.0, 9.998007, 9.999964 
1.7950019e+3, 2.9405814e+2, -464309.78, -250169.0, -13744.349, 0.13299865, 0.17238602, -249290.44, -191046.16, 0.0, 9.997152, 9.999985 
1.7949973e+3, 3.040575e+2, -413060.66, -112656.15, 61050.676, -0.053519525, 0.07375975, -100722.96, -100722.96, 0.0, 9.996787, 10.000775 
1.7949969e+3, 3.140588e+2, -289912.16, 38509.83, -16656.904, 0.06505688, 0.11952611, 39352.473, 39352.473, 0.0, 9.997247, 10.001585 
1.8050578e+3, 1.24074005e+2, -1328158.1, -1750274.6, -21598.07, 0.0025257128, 0.09199838, -1327056.0, 397031.03, 0.097200245, 10.003995, 9.997829 
1.8050542e+3, 1.3407308e+2, -1305039.6, -1559756.1, 43103.97, -0.27352008, 0.08749824, -1297943.1, 328150.88, 0.06490086, 10.002721, 9.999113 
1.8050556e+3, 1.4407206e+2, -1346497.5, -1534793.5, -49502.27, 0.08558793, 0.07989735, -1334276.6, 193826.19, 0.034457777, 10.001666, 9.999087 
1.8050504e+3, 1.5407147e+2, -1308788.9, -1470629.6, -55871.066, -0.066845074, 0.10615337, -1291374.8, 138734.77, 0.0127833225, 10.001231, 9.999062 
1.805046e+3, 1.6407052e+2, -1279699.3, -1457267.8, -69542.98, -0.13334435, 0.12738536, -1255705.5, 76414.805, 0.0025744103, 10.000969, 9.998606 
1.8050434e+3, 1.740691e+2, -1187798.1, -1372072.5, -53852.89, -0.0092948545, 0.1275044, -1173214.3, 60922.203, 0.00014305822, 10.000968, 9.998518 
1.8050398e+3, 1.8406789e+2, -1074168.8, -1225801.3, -35414.082, 0.017321538, 0.13944958, -1066305.5, 69844.0, 0.00000010953618, 10.000897, 9.998884 
1.8050347e+3, 1.9406702e+2, -1001106.44, -1139371.6, -19185.613, -0.117295355, 0.15660019, -998493.6, 39663.69, 0.0, 10.000725, 9.998888 
1.8050304e+3, 2.0406584e+2, -904897.8, -1007110.4, -6762.93, -0.17262317, 0.13785139, -904452.3, 35715.258, 0.0, 10.000561, 9.999203 
1.8050273e+3, 2.140643e+2, -827226.1, -919433.9, -2160.902, -0.10940574, 0.05676028, -827175.5, 15004.672, 0.0, 10.000424, 9.999197 
1.8050243e+3, 2.2406338e+2, -775576.5, -847330.0, -1935.0009, -0.047007136, 0.049931053, -775524.4, -31335.66, 0.0, 10.000119, 9.999167 
1.8050213e+3, 2.3406345e+2, -760059.9, -792612.0, -16756.47, 0.015076313, 0.13408071, -752975.94, -106785.61, 0.0, 9.999569, 9.999134 
1.8050177e+3, 2.4406315e+2, -701844.75, -669835.06, -23283.52, 0.017115625, 0.17703581, -657586.1, -109391.85, 0.0, 9.9991045, 9.999529 
1.8050131e+3, 2.5406247e+2, -652899.25, -594188.44, -22849.656, -0.070722595, 0.14749658, -586343.75, -136143.4, 0.0, 9.998763, 9.999539 
1.8050091e+3, 2.6406184e+2, -591085.3, -516024.8, -27024.629, -0.11206584, 0.1329035, -507307.34, -155100.56, 0.0, 9.998524, 9.999518 
1.8050054e+3, 2.740613e+2, -512127.25, -432858.8, -21915.98, -0.07050448, 0.12095089, -427203.06, -172989.64, 0.0, 9.998418, 9.999467 
1.8050024e+3, 2.84061e+2, -394345.53, -269457.84, -9498.882, 0.022451004, 0.12825066, -268739.5, -112523.03, 0.0, 9.998315, 9.999966 
1.8049996e+3, 2.9406157e+2, -311729.7, -172581.27, -25221.158, 0.14166883, 0.17777401, -168150.89, -109940.7, 0.0, 9.998181, 10.000022 
1.804994e+3, 3.0406123e+2, -312747.13, -80811.07, 36656.43, -0.102095164, 0.114765644, -75155.586, -75155.586, 0.0, 9.997548, 10.0006275 
1.8049943e+3, 3.140626e+2, -393218.2, 17943.904, -24991.713, 0.14844738, 0.18102524, 19457.406, 19457.406, 0.0, 9.996412, 10.001846 
1.815062e+3, 1.240771e+2, -1315643.9, -1711368.4, -21686.105, 0.016501974, 0.20240892, -1314459.0, 409602.6, 0.102914676, 10.003969, 9.998118 
1.8150578e+3, 1.3407622e+2, -1298783.4, -1541774.4, -5081.1323, -0.18274917, 0.18630491, -1298677.3, 327391.4, 0.06887483, 10.0027075, 9.999255 
1.8150581e+3, 1.4407556e+2, -1358454.0, -1556400.6, -71913.82, 0.18273996, 0.21368712, -1335086.4, 192987.97, 0.036753505, 10.001651, 9.998949 
1.8150517e+3, 1.5407452e+2, -1321317.4, -1495555.1, -70592.836, -0.06393184, 0.21249388, -1296306.6, 133778.7, 0.01378539, 10.001226, 9.998894 
1.8150464e+3, 1.6407336e+2, -1255026.0, -1406613.3, -71074.48, -0.20276012, 0.20650396, -1226914.6, 105182.48, 0.002842686, 10.000969, 9.998954 
1.8150434e+3, 1.7407215e+2, -1158689.6, -1312521.0, -52216.348, -0.110471286, 0.18397748, -1142640.0, 91468.51, 0.00016504708, 10.00097, 9.998927 
1.81504e+3, 1.8407096e+2, -1048726.1, -1171787.0, -41297.14, -0.051832348, 0.15961514, -1036152.2, 99966.836, 0.00000012908751, 10.000891, 9.999259 
1.815036e+3, 1.9406989e+2, -975775.1, -1086253.6, -24057.197, -0.06297086, 0.11988246, -970763.9, 67363.625, 0.0, 10.000722, 9.999255 
1.8150319e+3, 2.0406903e+2, -895109.75, -986329.0, -12229.071, -0.066763036, 0.10795436, -893498.75, 46635.215, 0.0, 10.000557, 9.999348 
1.8150283e+3, 2.1406858e+2, -819240.75, -902231.8, -5651.446, -0.052033797, 0.1209022, -818857.7, 23278.93, 0.0, 10.000419, 9.999319 
1.8150245e+3, 2.2406764e+2, -798911.2, -893364.1, -21200.963, -0.04030327, 0.11987691, -794370.7, -50224.965, 0.0, 10.000108, 9.9988575 
1.8150204e+3, 2.3406611e+2, -785643.2, -845413.1, -35311.523, -0.032442316, 0.08203899, -769267.8, -123104.69, 0.0, 9.999566, 9.998775 
1.8150163e+3, 2.4406512e+2, -698724.5, -663191.2, -36396.98, -0.04418879, 0.07147366, -640456.06, -92282.086, 0.0, 9.999103, 9.999577 
1.8150118e+3, 2.5406507e+2, -647600.5, -583133.56, -33617.734, -0.08935885, 0.09573274, -568792.9, -118619.61, 0.0, 9.998761, 9.999618 
1.8150076e+3, 2.6406503e+2, -574541.4, -481334.3, -31735.066, -0.10068128, 0.12843867, -471555.2, -119381.76, 0.0, 9.998522, 9.999759 
1.815004e+3, 2.74065e+2, -494549.66, -396148.03, -24039.04, -0.04387, 0.14261802, -390589.4, -136414.03, 0.0, 9.998417, 9.999721 
1.8150009e+3, 2.8406474e+2, -399029.94, -281941.25, -12975.117, 0.039711587, 0.13852626, -280520.66, -124341.49, 0.0, 9.9983225, 9.999878 
1.8149975e+3, 2.9406464e+2, -314374.25, -184778.03, -27468.924, 0.104283564, 0.13688213, -179196.2, -121016.27, 0.0, 9.998205, 9.999929 
1.814991e+3, 3.0406514e+2, -355269.13, -167463.75, -7958.8184, -0.16246699, 0.18568468, -167127.08, -167127.08, 0.0, 9.997544, 10.000031 
1.81499e+3, 3.1406504e+2, -437209.6, -70324.37, 10350.471, 0.06513289, 0.17518532, -70032.59, -70032.59, 0.0, 9.996396, 10.001248 
1.8250662e+3, 1.2408048e+2, -1407757.3, -1754452.6, 58323.195, 0.0753434, 0.22007656, -1398208.8, 325820.6, 0.10907768, 10.0032625, 9.99816 
1.8250604e+3, 1.3407913e+2, -1412741.1, -1620526.0, 3935.2188, -0.15902175, 0.17959681, -1412666.6, 213374.72, 0.07313931, 10.001986, 9.999023 
1.8250595e+3, 1.4407846e+2, -1393889.8, -1563094.9, -19710.0, 0.16658638, 0.21418095, -1391624.1, 136422.92, 0.039204508, 10.001359, 9.999037 
1.8250534e+3, 1.5407734e+2, -1202361.0, -1423087.8, 7808.3564, -0.057894092, 0.19075167, -1202085.1, 227972.73, 0.014855209, 10.001998, 9.999017 
1.825048e+3, 1.6407613e+2, -1076434.3, -1311102.9, -1396.2875, -0.19617724, 0.17262793, -1076426.0, 255642.81, 0.0031336718, 10.002162, 9.999035 
1.8250443e+3, 1.7407502e+2, -1059267.9, -1256070.0, -10706.185, -0.13785557, 0.15358512, -1058687.1, 175391.27, 0.00019006866, 10.001618, 9.999001 
1.8250406e+3, 1.8407395e+2, -1017289.3, -1156901.3, -26332.404, -0.08328865, 0.13794719, -1012487.8, 123599.77, 0.00000015151502, 10.001111, 9.999254 
1.8250366e+3, 1.9407308e+2, -985048.7, -1092404.9, -40577.85, -0.05928675, 0.116508394, -971437.1, 66658.08, 0.0, 10.000668, 9.999237 
1.8250327e+3, 2.0407228e+2, -944556.4, -1009546.5, -47622.664, -0.032529775, 0.11154724, -919398.6, 20702.984, 0.0, 10.0002165, 9.999352 
1.825029e+3, 2.1407175e+2, -916784.8, -947864.5, -51820.848, 0.00481227, 0.11647903, -878223.94, -36118.664, 0.0, 9.999745, 9.999329 
1.8250248e+3, 2.2407088e+2, -858760.25, -899481.2, -46427.07, 0.001173422, 0.11301092, -828425.3, -84311.7, 0.0, 9.999599, 9.999061 
1.8250199e+3, 2.3406965e+2, -720701.0, -788585.44, -18993.682, -0.061205454, 0.0803784, -715748.06, -69620.28, 0.0, 9.999905, 9.9990015 
1.8250151e+3, 2.4406871e+2, -587064.75, -609110.8, -7262.3535, -0.09500547, 0.06523735, -584887.44, -36749.99, 0.0, 9.999869, 9.9995775 
1.8250108e+3, 2.5406843e+2, -566201.3, -546557.0, -14489.458, -0.09273944, 0.06966539, -538874.3, -88735.42, 0.0, 9.999331, 9.999593 
1.8250065e+3, 2.6406837e+2, -542200.8, -464769.3, -21428.238, -0.082099065, 0.098098986, -459234.88, -107095.266, 0.0, 9.998742, 9.999764 
1.8250023e+3, 2.7406853e+2, -544808.2, -420147.2, -34608.445, -0.042203274, 0.13254432, -411183.66, -157043.95, 0.0, 9.998072, 9.999722 
1.8249987e+3, 2.840683e+2, -495811.84, -342003.78, -20788.016, 0.021639315, 0.13820994, -339243.7, -183100.25, 0.0, 9.997716, 9.999759 
1.8249953e+3, 2.9406795e+2, -384666.5, -230886.23, -39451.992, 0.072073504, 0.12511127, -221355.58, -163208.53, 0.0, 9.997777, 9.999819 
1.8249887e+3, 3.040686e+2, -365616.28, -166858.98, -29090.176, -0.13307697, 0.19090648, -162688.83, -162688.83, 0.0, 9.997452, 10.000078 
1.8249866e+3, 3.140679e+2, -384060.16, -49213.09, 91981.72, 0.076086745, 0.11905946, -25609.727, -25609.727, 0.0, 9.996775, 10.001214 
1.8350703e+3, 1.2408417e+2, -1426800.9, -1788044.4, 45720.94, 0.15368587, 0.14628495, -1421104.0, 302886.5, 0.11569022, 10.003241, 9.997936 
1.8350619e+3, 1.340819e+2, -1453745.8, -1709309.1, -45256.883, -0.20631976, 0.071569264, -1445968.0, 180043.86, 0.07769921, 10.001984, 9.998415 
1.8350594e+3, 1.4408085e+2, -1374553.1, -1521609.3, -6029.5557, 0.029773364, 0.08929885, -1374306.4, 153714.2, 0.04181763, 10.00136, 9.999325 
1.8350554e+3, 1.540799e+2, -1176449.9, -1367707.0, 33269.22, -0.056802552, 0.04504888, -1170827.9, 259199.14, 0.015997248, 10.00199, 9.999408 
1.8350509e+3, 1.6407886e+2, -1092583.0, -1341011.1, -18637.146, -0.12405454, 0.028301286, -1091192.6, 240843.1, 0.0034491862, 10.002146, 9.998837 
1.8350464e+3, 1.7407776e+2, -1078802.9, -1295893.3, -30418.553, -0.097406596, 0.036450125, -1074621.3, 159425.28, 0.00021871291, 10.001614, 9.998731 
1.8350418e+3, 1.8407689e+2, -1045874.25, -1215000.9, -43552.086, -0.08508448, 0.074758336, -1035318.0, 100737.6, 0.00000018976193, 10.001103, 9.998859 
1.8350367e+3, 1.9407652e+2, -1013986.9, -1152413.8, -55490.06, -0.11123363, 0.14577225, -994489.3, 43571.508, 0.0, 10.000666, 9.998828 
1.8350324e+3, 2.0407553e+2, -954992.06, -1030130.9, -64993.027, -0.07511992, 0.14992502, -917491.1, 22579.707, 0.0, 10.000211, 9.999215 
1.8350291e+3, 2.1407378e+2, -924396.7, -964015.0, -67254.73, 0.05628323, 0.044040564, -874094.5, -32007.898, 0.0, 9.999745, 9.99922 
1.835025e+3, 2.2407305e+2, -810210.3, -797680.5, -37038.598, 0.07152566, 0.028680976, -766380.7, -22287.707, 0.0, 9.999595, 9.999763 
1.8350196e+3, 2.3407392e+2, -666397.2, -675482.1, -5253.71, -0.078074805, 0.12913568, -663994.5, -17909.61, 0.0, 9.9999, 9.999781 
1.8350147e+3, 2.4407385e+2, -590883.56, -614739.44, -24358.7, -0.141898, 0.15841222, -575689.2, -27603.668, 0.0, 9.999859, 9.999545 
1.8350102e+3, 2.5407255e+2, -574729.25, -563596.2, -32461.863, -0.08616266, 0.07044995, -536227.06, -86129.414, 0.0, 9.999329, 9.999478 
1.8350054e+3, 2.640717e+2, -559250.06, -501359.0, -45560.805, -0.060959645, 0.04185896, -476326.47, -124220.43, 0.0, 9.998744, 9.999514 
1.835e+3, 2.7407175e+2, -562310.8, -458646.75, -57662.527, -0.07213029, 0.08767178, -432944.75, -178837.13, 0.0, 9.998077, 9.999455 
1.8349959e+3, 2.840716e+2, -507297.84, -366674.56, -20918.576, -0.039411727, 0.12481425, -363628.75, -207518.2, 0.0, 9.997719, 9.999588 
1.8349926e+3, 2.9407144e+2, -394934.38, -253727.25, -36903.027, 0.03333585, 0.1446588, -244664.66, -186552.03, 0.0, 9.997783, 9.999659 
1.8349874e+3, 3.0407164e+2, -315357.7, -63292.754, -55724.81, -0.01400111, 0.14304331, -51523.055, -51523.055, 0.0, 9.997454, 10.00079 
1.8349832e+3, 3.1407213e+2, -371405.06, -30341.607, 90669.76, 0.046731014, 0.11296418, -7735.885, -7735.885, 0.0, 9.996797, 10.001339 
1.8450738e+3, 1.2408885e+2, -1381756.6, -1742336.8, 43785.56, 0.17483339, 0.18147004, -1376515.9, 347430.38, 0.12272748, 10.003527, 9.998112 
1.8450648e+3, 1.3408619e+2, -1247815.5, -1614412.9, -41625.645, -0.19575213, 0.07895587, -1243148.5, 382821.75, 0.08254443, 10.003588, 9.998296 
1.8450612e+3, 1.4408475e+2, -1165462.4, -1452317.9, 9135.862, -0.029822081, 0.07674805, -1165171.8, 362810.9, 0.04459436, 10.003011, 9.999025 
1.8450573e+3, 1.540839e+2, -1238802.0, -1433418.5, -3797.8413, -0.04910149, 0.07439827, -1238727.9, 191261.6, 0.017215712, 10.001714, 9.9990835 
1.8450528e+3, 1.6408281e+2, -1263213.9, -1408853.3, -71984.62, -0.07550307, 0.065752, -1233639.8, 98358.68, 0.0037916328, 10.000908, 9.998967 
1.8450479e+3, 1.7408152e+2, -1182598.1, -1326044.3, -53635.816, -0.058275294, 0.03572712, -1164761.1, 69248.25, 0.00025177147, 10.000817, 9.998906 
1.845043e+3, 1.8408047e+2, -1081739.8, -1232705.3, -26941.162, -0.056483664, 0.045269717, -1077076.0, 58943.316, 0.00000025167606, 10.00086, 9.998855 
1.8450378e+3, 1.9407989e+2, -954974.7, -1126327.1, -11737.286, -0.09363426, 0.09992655, -954174.44, 83851.914, 0.0, 10.001081, 9.998805 
1.845033e+3, 2.0407897e+2, -831599.9, -963236.06, -9229.566, -0.07537367, 0.11015094, -830955.94, 109079.91, 0.0, 10.001027, 9.999279 
1.845029e+3, 2.140777e+2, -797721.8, -894741.75, -1362.4304, 0.026687698, 0.04372931, -797702.7, 44344.816, 0.0, 10.000583, 9.99929 
1.8450245e+3, 2.2407712e+2, -748930.9, -771559.1, 21692.404, 0.039281677, 0.041122325, -735779.3, 8273.435, 0.0, 10.000031, 9.99973 
1.8450193e+3, 2.340777e+2, -753668.2, -722959.9, -9605.426, -0.07595031, 0.11737419, -720202.9, -74155.23, 0.0, 9.999327, 9.99973 
1.8450141e+3, 2.4407774e+2, -744983.5, -669899.9, -64974.867, -0.12424699, 0.15178874, -632400.9, -84353.22, 0.0, 9.99872, 9.999713 
1.845009e+3, 2.5407705e+2, -719175.3, -610818.6, -53816.992, -0.07842216, 0.1073404, -588632.3, -138578.05, 0.0, 9.998243, 9.999675 
1.845004e+3, 2.6407638e+2, -640780.56, -526972.7, -27429.0, -0.05635337, 0.07832208, -520706.94, -168646.13, 0.0, 9.998127, 9.999635 
1.8449984e+3, 2.7407596e+2, -490389.7, -411602.97, -11233.795, -0.0663618, 0.067078836, -410032.5, -155967.19, 0.0, 9.998521, 9.999564 
1.8449938e+3, 2.8407562e+2, -382374.9, -319327.6, 44383.617, -0.05319664, 0.08837086, -296411.88, -140342.98, 0.0, 9.998635, 9.99947 
1.8449903e+3, 2.940756e+2, -331301.03, -240717.5, 24491.463, -0.012119891, 0.13632779, -234519.7, -176450.02, 0.0, 9.9983, 9.999497 
1.8449855e+3, 3.0407512e+2, -282242.47, -71879.92, -43212.78, 0.023310928, 0.08595778, -63349.082, -63349.082, 0.0, 9.997792, 10.000566 
1.8449798e+3, 3.1407538e+2, -323657.8, -24551.133, 20725.66, 0.0069090743, 0.04992382, -23121.842, -23121.842, 0.0, 9.997199, 10.0011835 
1.8550768e+3, 1.2409457e+2, -1350988.9, -1666087.9, 55098.273, 0.10942576, 0.32939664, -1341632.3, 382263.8, 0.13014445, 10.003508, 9.998699 
1.855069e+3, 1.34092e+2, -1227544.9, -1565358.9, -40006.68, -0.1360136, 0.1958279, -1222871.6, 403045.13, 0.08765746, 10.003572, 9.9986725 
1.8550642e+3, 1.4409012e+2, -1230169.0, -1582590.8, -36411.305, -0.024894018, 0.16948694, -1226446.4, 301487.66, 0.04753598, 10.002988, 9.99812 
1.8550591e+3, 1.540893e+2, -1311800.3, -1586964.4, -51257.29, -0.041802965, 0.27403674, -1302562.3, 127383.055, 0.01851746, 10.001713, 9.998031 
1.8550539e+3, 1.6408803e+2, -1230508.9, -1342684.8, -79081.82, -0.05777301, 0.28454795, -1189644.3, 142312.52, 0.0041650403, 10.000915, 9.99942 
1.8550491e+3, 1.7408627e+2, -1138921.5, -1237558.3, -55010.11, -0.025537873, 0.15028928, -1114358.9, 119608.35, 0.00029041685, 10.000823, 9.999513 
1.8550444e+3, 1.8408461e+2, -1055992.6, -1178552.8, -19699.988, -0.0048041698, 0.04758445, -1052904.0, 83075.234, 0.0000003514084, 10.000855, 9.999229 
1.8550397e+3, 1.9408314e+2, -931464.5, -1076611.1, -1565.4731, -0.0128237745, -0.02243477, -931447.56, 106544.78, 0.0, 10.001076, 9.99915 
1.8550345e+3, 2.0408258e+2, -814888.3, -926582.44, -23928.803, -0.040266514, -0.00772069, -809977.8, 130019.37, 0.0, 10.001018, 9.9995365 
1.8550286e+3, 2.1408342e+2, -781797.7, -860165.7, -16255.086, -0.08943899, 0.11416894, -778559.8, 63429.016, 0.0, 10.000574, 9.999533 
1.8550232e+3, 2.24083e+2, -804575.44, -884406.9, -4026.3882, -0.100734584, 0.14870937, -804372.9, -60379.004, 0.0, 10.00002, 9.998961 
1.8550187e+3, 2.340809e+2, -815587.2, -851201.7, -33904.45, -0.059301414, 0.044064634, -795098.06, -149081.22, 0.0, 9.999324, 9.998852 
1.8550135e+3, 2.4408028e+2, -720411.5, -618980.6, -83220.66, -0.047875777, 0.04424785, -572239.75, -24214.996, 0.0, 9.998719, 10.000064 
1.8550073e+3, 2.5408188e+2, -685298.75, -540563.94, -70028.96, -0.07679141, 0.18015851, -512228.3, -62218.67, 0.0, 9.998242, 10.000158 
1.8550019e+3, 2.6408225e+2, -607200.7, -457512.66, -15775.466, -0.07328696, 0.20818718, -455868.16, -103863.25, 0.0, 9.998127, 10.0001135 
1.8549974e+3, 2.7408105e+2, -456812.7, -342422.38, 6110.214, -0.028987035, 0.072566174, -342096.94, -88083.14, 0.0, 9.998522, 10.00004 
1.8549928e+3, 2.8408033e+2, -386999.2, -330291.84, 33546.55, -0.027553853, 0.029774865, -314721.7, -158702.17, 0.0, 9.998637, 9.999395 
1.8549879e+3, 2.9408038e+2, -341758.53, -264833.4, 10445.66, -0.07580066, 0.09628594, -263440.22, -205420.3, 0.0, 9.998306, 9.9993305 
1.8549828e+3, 3.0407885e+2, -363067.1, -241458.33, -65706.38, -0.022057801, 0.010412726, -212738.95, -212738.95, 0.0, 9.997801, 9.999396 
1.8549775e+3, 3.1407952e+2, -345623.22, -74860.266, -50228.78, 0.040756274, 0.13569555, -65842.73, -65842.73, 0.0, 9.997219, 10.000829 
1.8650801e+3, 1.2409901e+2, -1368855.5, -1659865.6, 84110.29, 0.09540405, 0.29142222, -1346294.4, 377558.3, 0.13787986, 10.003322, 9.998842 
1.8650727e+3, 1.3409755e+2, -1354879.6, -1611443.6, -32861.1, -0.07449102, 0.25487995, -1350737.6, 275125.9, 0.09301597, 10.002559, 9.998816 
1.8650667e+3, 1.4409566e+2, -1337452.9, -1645933.8, -12193.382, -0.028791023, 0.22356817, -1336971.6, 190909.92, 0.050644647, 10.00226, 9.9980345 
1.8650612e+3, 1.5409435e+2, -1180363.1, -1534949.3, 41538.348, -0.046167564, 0.29259133, -1175562.0, 254335.34, 0.01991141, 10.00269, 9.997916 
1.8650559e+3, 1.6409284e+2, -993077.0, -1248438.9, 32706.121, -0.046074253, 0.2914943, -988954.6, 342957.0, 0.0045744055, 10.002643, 9.999235 
1.865051e+3, 1.7409112e+2, -995391.44, -1190042.0, -5232.0024, 0.011044825, 0.17897275, -995250.9, 238671.4, 0.0003360051, 10.0019045, 9.999316 
1.8650457e+3, 1.840895e+2, -1004573.4, -1141699.0, -5232.1025, 0.030116286, 0.089079656, -1004374.0, 131559.58, 0.00000050835786, 10.001158, 9.999336 
1.8650404e+3, 1.9408819e+2, -1018524.75, -1102691.6, -4131.8423, -0.015794624, 0.021345295, -1018322.4, 19621.975, 0.0, 10.000413, 9.9992895 
1.8650348e+3, 2.0408759e+2, -966311.06, -1004561.4, -40846.52, -0.0645828, 0.025585297, -940334.0, -384.90533, 0.0, 10.0, 9.999492 
1.8650286e+3, 2.1408807e+2, -862214.9, -906490.7, -58545.4, -0.11316896, 0.118451886, -821761.6, 20182.451, 0.0, 10.000054, 9.999465 
1.865023e+3, 2.2408761e+2, -799152.44, -851062.2, -33719.734, -0.11979195, 0.1396904, -782555.3, -38606.22, 0.0, 9.999926, 9.999236 
1.865018e+3, 2.340859e+2, -763490.75, -790652.25, 21540.238, -0.069710165, 0.043508813, -751607.44, -105640.23, 0.0, 9.999532, 9.999166 
1.8650125e+3, 2.4408534e+2, -655426.56, -600087.25, 14261.37, -0.051417902, 0.0384856, -596628.2, -48654.082, 0.0, 9.999224, 9.9999485 
1.865006e+3, 2.5408652e+2, -581654.4, -509571.2, -21769.28, -0.07476351, 0.15103248, -503506.97, -53543.35, 0.0, 9.999039, 9.999987 
1.8650004e+3, 2.640869e+2, -526795.7, -408725.03, -224.71976, -0.06575882, 0.18435155, -408724.6, -56765.305, 0.0, 9.99864, 10.000198 
1.8649957e+3, 2.7408624e+2, -534435.25, -366059.94, -7276.8037, -0.01987267, 0.09070408, -365746.03, -111783.164, 0.0, 9.997933, 10.000158 
1.864991e+3, 2.8408575e+2, -538600.75, -372128.4, 15798.589, -0.009034977, 0.05139914, -370642.34, -214676.38, 0.0, 9.997464, 9.999672 
1.8649861e+3, 2.9408565e+2, -467341.63, -293227.97, 20899.889, -0.030346192, 0.076662324, -290754.38, -232787.48, 0.0, 9.99731, 9.999614 
1.8649805e+3, 3.0408436e+2, -446531.16, -303749.8, 2830.5784, -0.011003675, 0.004415222, -303693.72, -303693.72, 0.0, 9.99732, 9.9992 
1.8649742e+3, 3.1408477e+2, -281632.53, -38443.45, 57362.254, -0.02102663, 0.12866572, -25592.236, -25592.236, 0.0, 9.997637, 10.000875 
1.8750834e+3, 1.2410206e+2, -1393693.9, -1702996.3, 43097.598, 0.093746915, 0.05710172, -1387801.0, 336016.13, 0.14587538, 10.003308, 9.998508 
1.8750758e+3, 1.3410291e+2, -1365307.1, -1631094.6, -59027.92, -0.0194305, 0.262957, -1352787.5, 273022.53, 0.09860432, 10.002556, 9.99868 
1.8750688e+3, 1.4410141e+2, -1291614.8, -1541738.8, -1989.0173, -0.05196358, 0.24679464, -1291598.9, 236225.97, 0.05392732, 10.002249, 9.998756 
1.8750638e+3, 1.540991e+2, -1126272.4, -1417809.9, 59030.28, -0.06793957, 0.1329046, -1114773.5, 315072.38, 0.021407956, 10.00268, 9.998728 
1.8750584e+3, 1.6409719e+2, -1054007.5, -1371451.6, 7914.2793, -0.04804539, 0.086334154, -1053810.4, 278053.25, 0.0050250688, 10.002626, 9.998397 
1.875053e+3, 1.7409593e+2, -1066855.6, -1337763.9, -32020.994, 0.045662493, 0.1214593, -1063122.3, 170753.08, 0.00038988978, 10.0019, 9.998306 
1.875047e+3, 1.8409511e+2, -1015205.06, -1163479.8, -33203.203, 0.041477423, 0.1708645, -1008109.4, 127773.336, 0.000000733184, 10.001155, 9.999189 
1.87504e+3, 1.94095e+2, -1023479.0, -1112809.3, -30529.232, -0.10692636, 0.23023954, -1014042.3, 23840.426, 0.0, 10.00041, 9.999223 
1.875034e+3, 2.0409393e+2, -991023.1, -1055214.5, -41593.457, -0.15289177, 0.20768954, -970581.7, -30689.543, 0.0, 9.999995, 9.999147 
1.8750294e+3, 2.140916e+2, -890021.1, -962988.2, -54310.945, -0.050272755, 0.05684019, -861077.44, -19163.756, 0.0, 10.000048, 9.999082 
1.8750238e+3, 2.2409092e+2, -708089.0, -660315.2, -46784.81, -0.025207993, 0.015956832, -631672.06, 112246.66, 0.0, 9.999916, 10.00055 
1.8750173e+3, 2.3409264e+2, -660765.5, -575266.6, 8727.179, -0.11340102, 0.116475016, -574384.9, 71514.516, 0.0, 9.99952, 10.000651 
1.8750109e+3, 2.4409284e+2, -698278.56, -687562.7, 6782.596, -0.14079487, 0.13338257, -684277.06, -136380.19, 0.0, 9.999215, 9.999353 
1.875005e+3, 2.5409096e+2, -638881.75, -629704.25, -26760.953, -0.07808135, 0.019586178, -607141.5, -157224.44, 0.0, 9.999042, 9.999161 
1.8749993e+3, 2.640903e+2, -548318.4, -454761.97, -25223.527, -0.040752802, 0.00698315, -448394.84, -96470.125, 0.0, 9.998645, 9.999881 
1.8749934e+3, 2.740914e+2, -551426.1, -402943.4, -32115.287, -0.046083406, 0.12027259, -396294.9, -142381.2, 0.0, 9.997938, 9.999904 
1.8749885e+3, 2.840918e+2, -494912.38, -281561.66, 7452.82, -0.0044957725, 0.15477276, -281301.63, -125392.414, 0.0, 9.997464, 10.000294 
1.874985e+3, 2.9409146e+2, -417405.22, -189402.14, 16189.408, 0.120099775, 0.08300959, -188258.34, -130347.12, 0.0, 9.997307, 10.000329 
1.8749784e+3, 3.0409142e+2, -389544.5, -189431.64, 11830.683, 0.046761338, 0.063948415, -188734.64, -188734.64, 0.0, 9.997333, 9.999981 
1.874972e+3, 3.1408942e+2, -229143.4, 62994.246, 54752.76, -0.008402125, -0.13023138, 72918.91, 72918.91, 0.0, 9.99767, 10.001555 
1.8850869e+3, 1.2410777e+2, -1247720.0, -1657938.0, 45683.277, 0.049996585, 0.005244488, -1242694.1, 481064.6, 0.15410204, 10.004658, 9.998223 
1.885079e+3, 1.3410887e+2, -1262401.4, -1586989.9, -34360.336, -0.0012575567, 0.24521345, -1258803.9, 366947.1, 0.10442688, 10.003398, 9.998599 
1.8850711e+3, 1.4410749e+2, -1238773.9, -1492579.0, 43852.082, -0.061304756, 0.2371367, -1231410.8, 296354.34, 0.057399128, 10.002539, 9.998967 
1.8850665e+3, 1.5410528e+2, -1192197.5, -1424534.1, 63005.527, -0.04425648, 0.10687677, -1176211.4, 253573.02, 0.023018045, 10.00211, 9.998957 
1.885061e+3, 1.6410343e+2, -1169187.3, -1439806.5, 3079.9224, -0.019368012, 0.0629669, -1169152.1, 162648.67, 0.005521801, 10.0018835, 9.998286 
1.8850549e+3, 1.7410234e+2, -1069584.6, -1355159.3, 24009.553, 0.021672877, 0.12697467, -1067580.1, 166231.77, 0.0004532519, 10.00195, 9.998162 
1.8850482e+3, 1.8410137e+2, -950408.6, -1181102.3, 40993.043, 0.0026961097, 0.19120711, -943340.9, 192480.66, 0.0000010252129, 10.001812, 9.998751 
1.8850408e+3, 1.9410074e+2, -913336.06, -1112852.1, 10901.374, -0.10433617, 0.24283227, -912742.2, 125085.875, 0.0, 10.001394, 9.998748 
1.8850346e+3, 2.0409937e+2, -859606.5, -977006.7, 9279.876, -0.12805943, 0.2106875, -858877.5, 80963.24, 0.0, 10.000835, 9.999278 
1.8850295e+3, 2.1409711e+2, -871275.1, -932625.0, 36807.402, -0.032429505, 0.048532326, -854036.25, -12175.304, 0.0, 10.000087, 9.99927 
1.8850236e+3, 2.240966e+2, -797387.7, -696912.4, 16432.975, -0.011012212, 0.013500074, -694293.0, 49570.88, 0.0, 9.99928, 10.000604 
1.8850163e+3, 2.3409867e+2, -820691.3, -648028.56, -39289.016, -0.09773814, 0.14517324, -639508.8, 6332.4414, 0.0, 9.998407, 10.000686 
1.8850097e+3, 2.4409904e+2, -852269.1, -735730.7, -45455.832, -0.11978134, 0.16410546, -720097.7, -172261.06, 0.0, 9.998046, 9.999586 
1.885004e+3, 2.54097e+2, -714225.4, -637743.6, 1232.4482, -0.045404937, 0.0096422555, -637723.8, -187867.28, 0.0, 9.998404, 9.999413 
1.8849982e+3, 2.6409608e+2, -574084.2, -501418.4, 33226.98, -0.012566205, -0.029041624, -488516.03, -136649.8, 0.0, 9.998616, 9.999575 
1.8849915e+3, 2.7409685e+2, -482363.78, -409227.9, 15615.814, -0.049888976, 0.084835626, -406033.2, -152173.14, 0.0, 9.998585, 9.999548 
1.8849863e+3, 2.8409722e+2, -380440.8, -226640.14, 29235.035, -0.01489557, 0.13898833, -221270.5, -65413.45, 0.0, 9.998255, 10.000289 
1.8849827e+3, 2.940973e+2, -378065.13, -168534.38, -13327.783, 0.1539151, 0.10462616, -167690.02, -109833.15, 0.0, 9.997572, 10.000343 
1.8849753e+3, 3.0409822e+2, -380053.47, -114558.48, -40965.46, 0.026375879, 0.15254177, -108381.3, -108381.3, 0.0, 9.997096, 10.000609 
1.8849692e+3, 3.1409654e+2, -361536.47, 33495.7, 6598.518, 0.0025414913, -0.07438564, 33605.89, 33605.89, 0.0, 9.996624, 10.001851 
1.8950905e+3, 1.2411596e+2, -1274749.6, -1695945.3, -22742.438, -0.07098318, 0.11966502, -1273525.3, 450153.78, 0.16257021, 10.00461, 9.997942 
1.895082e+3, 1.3411538e+2, -1268143.8, -1591150.4, -72604.05, -0.026859012, 0.19518544, -1252574.5, 373112.3, 0.11050941, 10.003383, 9.998577 
1.8950737e+3, 1.4411384e+2, -1263819.6, -1539595.5, 25758.072, -0.067030326, 0.18551555, -1261434.4, 266268.78, 0.061081447, 10.002521, 9.998641 
1.895069e+3, 1.541128e+2, -1219153.6, -1479379.3, 48285.16, 0.01689595, 0.21261284, -1210483.1, 219230.0, 0.024752133, 10.002102, 9.998583 
1.8950635e+3, 1.641116e+2, -1127659.8, -1351724.6, 3127.5864, 0.030532798, 0.22384225, -1127616.1, 204107.16, 0.0060684755, 10.001877, 9.998896 
1.8950559e+3, 1.741103e+2, -1020658.25, -1253453.1, 27517.736, -0.06520508, 0.19576554, -1017449.7, 216282.73, 0.0005270964, 10.001948, 9.998862 
1.8950489e+3, 1.8410824e+2, -1002853.6, -1288065.8, 26311.174, -0.09110789, 0.14760053, -1000446.7, 135304.11, 0.0000013718216, 10.0018015, 9.998022 
1.8950433e+3, 1.9410536e+2, -976352.3, -1241033.5, -3006.7256, -0.014704577, 0.060302116, -976318.2, 61462.44, 0.0, 10.001382, 9.997874 
1.8950367e+3, 2.0410389e+2, -819414.1, -891469.25, -17572.422, 0.0017128667, 0.037767008, -815357.06, 124437.97, 0.0, 10.000825, 9.999871 
1.8950292e+3, 2.1410452e+2, -821120.0, -826745.44, 10788.082, -0.0658114, 0.09325264, -812784.0, 29002.615, 0.0, 10.000077, 10.000003 
1.8950222e+3, 2.2410458e+2, -882511.06, -872814.2, -16073.788, -0.082013436, 0.12981762, -860873.5, -117087.984, 0.0, 9.999274, 9.999399 
1.8950154e+3, 2.3410396e+2, -919739.25, -854328.5, -70003.695, -0.028690081, 0.12929787, -809767.06, -163973.55, 0.0, 9.998407, 9.99927 
1.895009e+3, 2.4410385e+2, -777432.3, -580867.44, -35716.273, 0.0044532064, 0.13280536, -574578.94, -26785.037, 0.0, 9.998046, 10.000649 
1.895003e+3, 2.5410452e+2, -621717.3, -446749.6, 17041.12, 0.017719647, 0.12052656, -445105.3, 4677.534, 0.0, 9.998405, 10.000725 
1.894997e+3, 2.6410413e+2, -594813.7, -544814.56, 33670.023, 0.012970523, 0.074042104, -527877.9, -176092.92, 0.0, 9.998615, 9.999277 
1.8949904e+3, 2.7410236e+2, -514271.6, -477954.06, 14987.738, -0.041282997, -0.017624168, -472567.72, -218764.67, 0.0, 9.998593, 9.999073 
1.8949842e+3, 2.841019e+2, -424543.28, -318301.1, 4740.0073, -0.04849197, 0.003178128, -318090.03, -162279.53, 0.0, 9.998256, 9.99966 
1.8949795e+3, 2.94103e+2, -426670.66, -270394.5, -32550.959, 0.0689407, 0.13985477, -263885.53, -206080.48, 0.0, 9.997574, 9.999645 
1.8949713e+3, 3.041046e+2, -347089.5, -49551.945, -59073.234, -0.086298615, 0.2717626, -38252.625, -38252.625, 0.0, 9.9971075, 10.001052 
1.894966e+3, 3.1410617e+2, -398476.44, -43383.9, 57304.434, 0.011932166, 0.31985304, -34365.23, -34365.23, 0.0, 9.996628, 10.001319 
1.9050941e+3, 1.24124154e+2, -1509144.4, -1831809.0, -37166.785, -0.064146556, 0.18827829, -1504918.6, 218680.34, 0.17131919, 10.002738, 9.997881 
1.9050853e+3, 1.341228e+2, -1341680.0, -1629347.1, -59175.54, -0.008927633, 0.18750247, -1329982.8, 295631.63, 0.116884336, 10.002843, 9.998555 
1.9050762e+3, 1.441211e+2, -1241218.1, -1560523.0, 47467.652, -0.070984885, 0.1754657, -1234311.0, 293321.03, 0.06499245, 10.002835, 9.998348 
1.905071e+3, 1.5411976e+2, -1193362.8, -1503207.0, 70791.375, -0.011143654, 0.20667784, -1177954.9, 251689.44, 0.026617203, 10.002445, 9.998256 
1.9050652e+3, 1.6411848e+2, -1072091.0, -1314528.1, 28563.469, 0.0013060431, 0.22261328, -1068771.3, 262883.97, 0.0066676727, 10.002221, 9.998984 
1.9050579e+3, 1.741173e+2, -965003.3, -1212337.5, 8877.255, -0.07407573, 0.19606069, -964685.1, 268978.16, 0.0006122247, 10.002272, 9.998988 
1.9050509e+3, 1.8411523e+2, -994487.25, -1261808.1, -14814.561, -0.08355255, 0.12985747, -993668.75, 142012.64, 0.0000017786746, 10.001763, 9.99822 
1.9050443e+3, 1.9411214e+2, -1094129.9, -1275226.3, 29944.293, 0.0025187673, 0.00081042986, -1089307.0, -51595.195, 0.0, 10.000478, 9.9980755 
1.9050372e+3, 2.041108e+2, -980200.0, -1009816.2, 51516.52, 0.018904937, -0.0018473662, -941405.56, -1680.3394, 0.0, 9.999899, 9.999504 
1.9050296e+3, 2.1411203e+2, -814389.44, -870999.6, -6258.816, -0.062446717, 0.15567103, -813705.7, 28007.922, 0.0, 10.000329, 9.999577 
1.905022e+3, 2.2411191e+2, -743149.3, -833112.3, -64916.8, -0.07732094, 0.20795509, -709152.8, 34562.707, 0.0, 10.00035, 9.999154 
1.9050148e+3, 2.3411001e+2, -734152.25, -790619.9, -35038.715, -0.004073581, 0.1039088, -717387.6, -71652.74, 0.0, 9.999794, 9.99904 
1.9050078e+3, 2.4410947e+2, -612329.44, -526584.94, 28444.354, 0.021136908, 0.08739235, -518007.13, 29732.402, 0.0, 9.999292, 10.000422 
1.9050014e+3, 2.541109e+2, -572276.5, -448164.78, -33600.785, -0.005930857, 0.17147575, -439651.94, 10070.983, 0.0, 9.998858, 10.000495 
1.9049953e+3, 2.6411077e+2, -611985.4, -521919.0, -68467.05, -0.0024626737, 0.15715075, -485002.66, -133280.63, 0.0, 9.998366, 9.999553 
1.904989e+3, 2.7410883e+2, -610257.0, -486832.13, -31671.941, 0.007605106, 0.01161202, -479179.3, -225439.08, 0.0, 9.997776, 9.999405 
1.9049825e+3, 2.8410825e+2, -553462.0, -411801.56, 8907.162, -0.022314372, 0.014850216, -411243.7, -255495.33, 0.0, 9.997506, 9.999377 
1.9049762e+3, 2.9410917e+2, -435379.1, -323678.97, -3121.8943, -0.015983256, 0.16871502, -323591.78, -265845.66, 0.0, 9.997729, 9.999202 
1.9049683e+3, 3.0410975e+2, -269826.38, -35686.54, -57105.15, -0.11820554, 0.23848687, -22501.459, -22501.459, 0.0, 9.997736, 10.000846 
1.9049636e+3, 3.1411138e+2, -361501.75, -38789.582, 49405.227, 0.09141784, 0.29827446, -31395.371, -31395.371, 0.0, 9.996942, 10.0012 
1.9150978e+3, 1.241323e+2, -1513654.6, -1824478.5, -68383.055, 0.031260476, 0.20453487, -1499275.1, 224244.11, 0.1803973, 10.002684, 9.997968 
1.9150887e+3, 1.3413113e+2, -1348456.1, -1636802.9, -51892.332, 0.043491993, 0.22547106, -1339401.6, 286131.9, 0.12357411, 10.002831, 9.998507 
1.9150789e+3, 1.4412929e+2, -1259299.8, -1597292.5, 34966.59, -0.08212524, 0.21385922, -1255720.3, 271831.06, 0.069139734, 10.0028305, 9.998098 
1.9150722e+3, 1.5412614e+2, -1213057.8, -1543283.8, 56839.277, -0.13477074, 0.0909148, -1203548.3, 226029.77, 0.028615339, 10.002439, 9.997984 
1.9150662e+3, 1.6412403e+2, -1104843.8, -1379428.8, 28030.766, -0.113314226, 0.05755643, -1102011.4, 229585.61, 0.0073205116, 10.002205, 9.998548 
1.9150607e+3, 1.7412335e+2, -998917.7, -1279875.6, 12583.594, -0.011615781, 0.12785767, -998355.25, 235249.23, 0.00070924795, 10.002257, 9.998532 
1.9150536e+3, 1.8412232e+2, -919147.2, -1102937.4, -59265.96, 0.015515527, 0.1403393, -901693.44, 233919.83, 0.0000023137907, 10.001751, 9.999319 
1.9150442e+3, 1.94121e+2, -1007488.4, -1095105.8, -17752.441, -0.058320586, 0.06505439, -1004028.2, 33594.11, 0.0, 10.000475, 9.999314 
1.9150361e+3, 2.0412e+2, -1073719.0, -1203815.5, 61979.824, -0.08061349, 0.08950971, -1048918.6, -109286.42, 0.0, 9.999897, 9.998175 
1.9150302e+3, 2.1411957e+2, -926316.25, -1101917.0, 12148.483, -0.028127084, 0.23621133, -925479.75, -83837.19, 0.0, 10.000321, 9.997995 
1.915023e+3, 2.2411853e+2, -693987.25, -730166.1, -82466.016, -0.0037889923, 0.25039342, -627649.94, 116004.27, 0.0, 10.000343, 9.999866 
1.9150142e+3, 2.3411676e+2, -669454.4, -655039.4, -54065.266, -0.029982448, 0.06787123, -607703.3, 37962.883, 0.0, 9.999786, 9.999975 
1.915006e+3, 2.4411578e+2, -720326.1, -749443.44, 12200.447, -0.074998505, 0.025137253, -715889.94, -168215.2, 0.0, 9.999286, 9.998895 
1.9149992e+3, 2.5411597e+2, -696817.5, -707961.4, -48147.332, -0.12473163, 0.16187245, -653920.75, -204243.13, 0.0, 9.998862, 9.99871 
1.9149931e+3, 2.6411602e+2, -551832.5, -396757.53, -90432.77, -0.06586738, 0.22167481, -355172.6, -3494.4475, 0.0, 9.9983635, 10.000415 
1.9149876e+3, 2.7411613e+2, -529725.44, -320885.44, -52533.86, 0.090178125, 0.172749, -308415.16, -54742.55, 0.0, 9.997779, 10.000545 
1.9149807e+3, 2.8411615e+2, -547489.3, -401428.34, 14191.8, 0.05546633, 0.17158638, -400062.2, -244390.45, 0.0, 9.997514, 9.999445 
1.914973e+3, 2.9411566e+2, -448196.0, -355400.2, 11512.783, -0.11069881, 0.18762934, -353993.16, -296311.63, 0.0, 9.997748, 9.998976 
1.9149666e+3, 3.041136e+2, -325924.5, -157190.1, -78136.49, -0.07921406, 0.05239113, -126565.41, -126565.41, 0.0, 9.997755, 10.000004 
1.9149601e+3, 3.1411436e+2, -330843.06, 23136.28, 68236.8, 0.057282146, 0.09690125, 35834.785, 35834.785, 0.0, 9.996943, 10.001628 
1.9251005e+3, 1.2413949e+2, -1574845.3, -1861451.6, -96347.0, 0.055770032, 0.1627172, -1545468.0, 177979.89, 0.18983784, 10.002207, 9.997953 
1.925092e+3, 1.3413858e+2, -1302093.5, -1639274.0, -66892.16, 0.07176393, 0.23665178, -1289307.9, 336152.97, 0.13058688, 10.003339, 9.99825 
1.9250827e+3, 1.4413689e+2, -1142798.1, -1519844.5, -19089.197, -0.03468668, 0.24675304, -1141834.1, 385642.78, 0.073522724, 10.003635, 9.998243 
1.9250748e+3, 1.541334e+2, -1178323.1, -1507489.4, 21581.598, -0.141563, 0.07032447, -1176914.1, 252591.02, 0.030745383, 10.002611, 9.998145 
1.925068e+3, 1.6413099e+2, -1184321.0, -1436767.0, 34366.74, -0.13205604, 0.0091232825, -1179726.1, 151800.11, 0.008026891, 10.001739, 9.998377 
1.9250627e+3, 1.7413019e+2, -1184544.6, -1392706.0, 36031.54, 0.0036154985, 0.08670622, -1178484.3, 55052.387, 0.0008187495, 10.001084, 9.9983225 
1.9250552e+3, 1.8412948e+2, -1016758.8, -1146894.4, -56925.836, 0.026972324, 0.13985439, -995372.1, 140171.58, 0.0000031359323, 10.001071, 9.999343 
1.925045e+3, 1.9412903e+2, -786851.56, -984334.75, -105966.31, -0.10048239, 0.14920998, -740752.7, 296791.9, 0.0, 10.001971, 9.999352 
1.9250365e+3, 2.0412788e+2, -811322.4, -1089946.0, -48817.96, -0.13056985, 0.16150537, -803016.56, 136539.2, 0.0, 10.001755, 9.998058 
1.9250304e+3, 2.1412587e+2, -986211.0, -1146144.4, 4275.4746, -0.024316443, 0.16463836, -986096.75, -144516.83, 0.0, 9.999979, 9.997856 
1.9250232e+3, 2.2412445e+2, -892373.0, -844821.4, -41452.08, 0.031656906, 0.15633422, -820810.56, -77215.414, 0.0, 9.999067, 9.999691 
1.9250141e+3, 2.3412393e+2, -740700.44, -709961.4, -96481.48, 0.005188807, 0.11566002, -627632.94, 17963.658, 0.0, 9.999387, 9.99979 
1.9250058e+3, 2.4412303e+2, -738197.25, -779537.8, -44841.867, -0.04657896, 0.09970995, -709490.9, -161886.14, 0.0, 9.999254, 9.998704 
1.924998e+3, 2.5412175e+2, -768333.44, -764716.94, 9656.679, -0.10917864, 0.11082856, -756700.7, -307079.97, 0.0, 9.998467, 9.998511 
1.9249913e+3, 2.641214e+2, -584548.25, -404363.34, 22123.354, -0.062804446, 0.13733883, -401686.75, -50061.86, 0.0, 9.998105, 10.000487 
1.9249855e+3, 2.7412245e+2, -442284.53, -266858.6, -17518.982, 0.07507031, 0.16999403, -265126.16, -11514.965, 0.0, 9.998329, 10.000649 
1.924978e+3, 2.8412285e+2, -444019.34, -313317.78, 10959.085, 0.015414239, 0.18776634, -312405.25, -156799.14, 0.0, 9.998062, 9.999785 
1.92497e+3, 2.9412237e+2, -512775.4, -351392.4, 41934.65, -0.16022891, 0.17064393, -341146.38, -283532.63, 0.0, 9.997156, 9.9992895 
1.924965e+3, 3.041202e+2, -458369.13, -275604.97, 5171.8174, 0.023515288, 0.03362089, -275458.72, -275458.72, 0.0, 9.997085, 9.999512 
1.9249575e+3, 3.1412035e+2, -262575.03, 34167.05, 133397.27, 0.05674597, 0.06776392, 85317.43, 85317.43, 0.0, 9.997509, 10.001429 
1.9351022e+3, 1.241459e+2, -1585134.9, -1880171.5, -84400.07, -0.005620595, 0.080940194, -1562697.3, 160685.66, 0.1996663, 10.00219, 9.9978285 
1.9350953e+3, 1.3414519e+2, -1333851.4, -1704364.9, -26092.406, 0.064304695, 0.21756022, -1332023.0, 293373.13, 0.1379299, 10.003324, 9.9978 
1.9350873e+3, 1.4414391e+2, -1116740.9, -1455780.9, -47471.555, 0.056968324, 0.2714633, -1110219.4, 417189.4, 0.0781422, 10.003607, 9.998734 
1.9350784e+3, 1.5414147e+2, -1142381.9, -1425910.3, -14794.349, -0.04165875, 0.14357086, -1141612.0, 287813.72, 0.033006925, 10.002597, 9.998713 
1.9350705e+3, 1.6413938e+2, -1179794.8, -1427001.5, 7394.2837, -0.06684734, 0.078249514, -1179573.8, 151868.95, 0.008786739, 10.001735, 9.998447 
1.9350633e+3, 1.7413777e+2, -1182345.9, -1389805.0, 12093.168, -0.034576204, 0.07416797, -1181643.4, 51816.63, 0.00094156526, 10.001089, 9.998341 
1.9350554e+3, 1.841366e+2, -1089936.4, -1298645.9, -28019.371, -0.053358033, 0.12771249, -1086240.1, 49233.07, 0.0000044945964, 10.001068, 9.998303 
1.9350466e+3, 1.9413616e+2, -868392.8, -1149999.4, -69439.914, -0.1298786, 0.25082177, -852200.94, 185278.38, 0.0, 10.001954, 9.998224 
1.9350381e+3, 2.0413439e+2, -739570.94, -936432.2, -106832.445, -0.13877569, 0.21373136, -692737.1, 246758.88, 0.0, 10.001734, 9.999124 
1.93503e+3, 2.1413092e+2, -898664.9, -962181.56, -60515.848, -0.055761337, -0.055926345, -862080.25, -20554.258, 0.0, 9.999969, 9.999125 
1.9350222e+3, 2.2412962e+2, -968180.5, -1001710.2, -35612.113, 0.024735695, -0.07169541, -945584.44, -202045.61, 0.0, 9.999063, 9.998617 
1.9350146e+3, 2.3413141e+2, -832118.56, -899605.25, -81498.05, 0.09401923, 0.24755318, -777654.5, -132127.67, 0.0, 9.999385, 9.998489 
1.9350064e+3, 2.4413113e+2, -658655.9, -614036.25, -70628.31, 0.098421775, 0.3121853, -562277.94, -14747.67, 0.0, 9.99925, 9.999843 
1.9349979e+3, 2.5412816e+2, -670654.25, -563550.94, -18552.96, 0.033790104, 0.0158244, -560428.2, -110875.06, 0.0, 9.998471, 9.999892 
1.9349901e+3, 2.641268e+2, -635407.94, -510015.84, 27644.303, 0.00035916283, -0.100018665, -504191.8, -152628.3, 0.0, 9.998104, 9.999763 
1.9349825e+3, 2.7412763e+2, -509387.1, -406537.94, -7308.0786, -0.04881784, 0.0037304203, -406021.25, -152464.06, 0.0, 9.99833, 9.999691 
1.9349745e+3, 2.8412822e+2, -398559.16, -222332.13, -21296.205, -0.15324114, 0.0644269, -219795.1, -64242.418, 0.0, 9.998074, 10.000407 
1.934967e+3, 2.941292e+2, -449123.63, -225401.3, 12753.266, -0.17287397, 0.116260886, -224676.66, -167132.42, 0.0, 9.997177, 10.000147 
1.9349638e+3, 3.0412957e+2, -464869.63, -291554.1, 29235.639, 0.18951659, 0.18879625, -286755.34, -286755.34, 0.0, 9.997096, 9.999397 
1.934954e+3, 3.141279e+2, -294403.56, -36301.895, 51335.395, -0.06308865, 0.06907922, -26466.297, -26466.297, 0.0, 9.997523, 10.000941 
1.9451046e+3, 1.2415354e+2, -1432423.6, -1778495.3, -52003.332, -0.036766257, 0.087043814, -1424778.1, 298528.78, 0.20992021, 10.003484, 9.997893 
1.9450979e+3, 1.3415208e+2, -1386213.4, -1744348.4, 29575.443, 0.0087433625, 0.15968911, -1383787.5, 241538.13, 0.14561725, 10.002975, 9.997694 
1.9450906e+3, 1.4415036e+2, -1250965.3, -1523748.4, -22960.229, 0.08008072, 0.17678857, -1249046.3, 278296.47, 0.08300042, 10.002635, 9.998696 
1.9450814e+3, 1.5414886e+2, -1181990.1, -1450096.1, -40112.934, 0.007144508, 0.14852609, -1176117.1, 253235.44, 0.035399728, 10.002342, 9.998669 
1.9450727e+3, 1.641472e+2, -1115099.1, -1395857.0, -30731.441, -0.033329964, 0.12925518, -1111774.8, 219591.78, 0.009600047, 10.002194, 9.998436 
1.9450645e+3, 1.7414533e+2, -1007068.5, -1306503.5, -30458.268, -0.07637871, 0.09771059, -1004001.7, 229383.98, 0.0010784023, 10.002304, 9.998325 
1.9450565e+3, 1.8414366e+2, -1018677.6, -1283528.5, -47020.9, -0.089985654, 0.11215695, -1010577.4, 124825.88, 0.0000066792873, 10.001643, 9.998129 
1.9450483e+3, 1.941425e+2, -1179787.5, -1321294.5, -21608.729, -0.051799998, 0.18206428, -1176561.3, -139144.58, 0.0, 9.999911, 9.998031 
1.9450396e+3, 2.0414081e+2, -1054126.1, -1051819.3, -39996.855, -0.03829954, 0.1490753, -1012959.2, -73526.63, 0.0, 9.99942, 9.999445 
1.9450302e+3, 2.1413852e+2, -772789.44, -860637.75, -62949.855, -0.0631536, -0.038755883, -739954.1, 101496.414, 0.0, 10.000658, 9.999488 
1.9450217e+3, 2.2413751e+2, -685502.94, -893576.9, -40788.223, -0.023193764, -0.03333245, -677793.0, 65667.625, 0.0, 10.001125, 9.998364 
1.9450146e+3, 2.3413838e+2, -691336.56, -866823.0, -14569.68, 0.10147607, 0.22397287, -690135.1, -44676.316, 0.0, 10.000504, 9.998176 
1.9450063e+3, 2.441379e+2, -556938.44, -531524.44, -11968.449, 0.12658288, 0.27240297, -526775.44, 20688.89, 0.0, 9.999809, 10.000138 
1.9449966e+3, 2.5413576e+2, -564042.7, -472718.0, -40553.16, 0.026616856, 0.02429921, -457309.8, -7831.949, 0.0, 9.999038, 10.000241 
1.944988e+3, 2.6413468e+2, -615244.8, -533063.75, 981.26, -0.02853491, -0.06940392, -533052.06, -181566.56, 0.0, 9.998385, 9.999468 
1.9449805e+3, 2.7413493e+2, -607363.7, -495692.3, 8279.041, -0.06345936, 0.0144593585, -495081.84, -241595.73, 0.0, 9.99784, 9.999314 
1.9449723e+3, 2.8413513e+2, -500498.88, -271118.44, -15182.708, -0.14219166, 0.05615581, -270117.84, -114631.516, 0.0, 9.997375, 10.000407 
1.9449644e+3, 2.941362e+2, -444932.22, -201795.23, -35376.875, -0.15836486, 0.11010228, -196752.42, -139275.84, 0.0, 9.997118, 10.000334 
1.9449605e+3, 3.041373e+2, -438656.88, -240516.7, 4876.389, 0.1620422, 0.22317068, -240396.75, -240396.75, 0.0, 9.997112, 9.999739 
1.9449507e+3, 3.1413618e+2, -351553.5, -43013.69, -21884.885, -0.0974017, 0.13249251, -41469.117, -41469.117, 0.0, 9.997041, 10.001127 
1.9551077e+3, 1.24162555e+2, -1428809.6, -1752624.6, -65800.26, -0.0725054, 0.19359243, -1415949.6, 307268.75, 0.22060935, 10.003451, 9.998098 
1.9550999e+3, 1.3415927e+2, -1377879.9, -1717557.4, 15128.843, -0.10043419, 0.06606822, -1377207.4, 248041.92, 0.1536503, 10.00297, 9.997879 
1.9550928e+3, 1.4415628e+2, -1288636.3, -1606066.0, -34378.62, 0.028137248, -0.028884362, -1284955.6, 242322.61, 0.088094756, 10.002634, 9.998133 
1.9550836e+3, 1.5415563e+2, -1225993.6, -1542924.0, -50519.59, -0.00210666, 0.08931154, -1218135.5, 211150.2, 0.037922595, 10.002339, 9.998033 
1.955075e+3, 1.641545e+2, -1124125.3, -1412990.5, -28153.766, -0.03955315, 0.16335085, -1121406.9, 209890.44, 0.010466628, 10.002185, 9.998324 
1.9550665e+3, 1.7415279e+2, -1012328.94, -1315992.5, -24385.826, -0.12595859, 0.15543593, -1010383.1, 222930.95, 0.0012294218, 10.0022955, 9.998265 
1.955058e+3, 1.8415064e+2, -973860.06, -1188961.1, -105822.97, -0.09108542, 0.09320291, -930527.75, 204806.33, 0.000009908067, 10.001635, 9.998783 
1.9550501e+3, 1.9414802e+2, -1128932.5, -1217644.9, -84966.96, 0.124771275, -0.052649237, -1077440.6, -40083.582, 0.0, 9.999917, 9.998741 
1.9550411e+3, 2.0414709e+2, -1084634.4, -1115501.0, -2398.5085, 0.16167751, -0.029172357, -1084449.1, -145083.14, 0.0, 9.99942, 9.999009 
1.955031e+3, 2.1414858e+2, -811218.44, -939521.94, -13525.323, -0.053293347, 0.2138133, -809808.1, 31546.496, 0.0, 10.000652, 9.99895 
1.9550219e+3, 2.24148e+2, -647178.6, -812513.5, -57991.387, -0.11899212, 0.26742262, -628866.3, 114495.45, 0.0, 10.001116, 9.998927 
1.9550142e+3, 2.3414473e+2, -645766.0, -770355.3, -36007.777, 0.022097776, 0.043390095, -636108.0, 9285.482, 0.0, 10.000493, 9.998844 
1.955005e+3, 2.4414323e+2, -597874.0, -614621.0, -40325.645, 0.03173116, -0.01910696, -565061.6, -17653.865, 0.0, 9.999801, 9.999572 
1.954994e+3, 2.5414446e+2, -612229.44, -573849.2, -67336.71, -0.13751018, 0.13733377, -523021.5, -73625.57, 0.0, 9.99904, 9.999546 
1.9549851e+3, 2.6414493e+2, -605484.2, -513530.34, -20010.516, -0.15535241, 0.23032722, -509364.5, -157972.66, 0.0, 9.998385, 9.999603 
1.9549793e+3, 2.7414426e+2, -591373.3, -466441.53, -11530.371, 0.023343215, 0.20137815, -465386.25, -211986.84, 0.0, 9.997853, 9.999511 
1.9549716e+3, 2.841435e+2, -542649.8, -361646.28, -28184.777, 0.04167613, 0.16436258, -357359.06, -201950.84, 0.0, 9.997387, 9.999781 
1.9549619e+3, 2.941433e+2, -481528.4, -278933.63, -41627.59, -0.12597367, 0.15920812, -270713.8, -213302.0, 0.0, 9.997121, 9.9998045 
1.9549555e+3, 3.0414307e+2, -379238.06, -118881.26, 6481.2275, -0.07067303, 0.12244598, -118720.016, -118720.016, 0.0, 9.997119, 10.000571 
1.9549496e+3, 3.1414393e+2, -310540.1, 31714.555, -112958.016, 0.08575927, 0.15421835, 65633.75, 65633.75, 0.0, 9.997083, 10.001622 
1.965111e+3, 1.2417042e+2, -1429275.5, -1744511.3, -46004.41, -0.09151074, 0.17056203, -1422698.9, 300440.6, 0.23164499, 10.003461, 9.998139 
1.9651029e+3, 1.3416745e+2, -1285961.4, -1639387.1, 20915.19, -0.13884157, 0.053570546, -1284728.0, 340438.0, 0.16198874, 10.003643, 9.998089 
1.965096e+3, 1.441642e+2, -1192971.8, -1593933.3, -25279.043, 0.046965957, -0.06289748, -1191384.3, 335813.47, 0.093413375, 10.00355, 9.997768 
1.9650865e+3, 1.5416338e+2, -1157624.4, -1555249.9, -33141.594, 0.0092776595, 0.08100828, -1154881.0, 274328.22, 0.04057412, 10.003038, 9.997609 
1.9650772e+3, 1.641621e+2, -1105436.4, -1411676.0, 1033.4243, -0.026157754, 0.16661736, -1105432.9, 225790.81, 0.011385711, 10.002351, 9.998254 
1.9650684e+3, 1.7416029e+2, -1139325.5, -1380772.6, 3903.434, -0.10274546, 0.15347531, -1139262.4, 93979.1, 0.0013940044, 10.001442, 9.99823 
1.9650596e+3, 1.8415822e+2, -995389.8, -1155491.8, -84978.6, -0.08439127, 0.083950244, -958695.25, 176564.67, 0.000014255441, 10.001301, 9.999172 
1.9650507e+3, 1.9415596e+2, -764648.7, -994209.06, -87307.125, 0.078309104, -0.07008968, -735217.1, 302060.38, 0.0, 10.002215, 9.999166 
1.9650413e+3, 2.0415522e+2, -729645.6, -985555.6, -6638.057, 0.11338253, -0.0324398, -729473.56, 209810.9, 0.0, 10.002035, 9.998641 
1.9650318e+3, 2.141567e+2, -890325.75, -1027349.8, -12537.648, -0.034744564, 0.2551186, -889188.0, -47912.21, 0.0, 10.000325, 9.998505 
1.9650225e+3, 2.2415604e+2, -889327.06, -892136.4, -62980.87, -0.08232231, 0.30712268, -827735.2, -84450.664, 0.0, 9.999299, 9.999254 
1.9650139e+3, 2.3415247e+2, -800912.44, -800884.94, -64925.977, 0.01199308, 0.016473452, -735972.7, -90656.21, 0.0, 9.999241, 9.999236 
1.9650044e+3, 2.4415106e+2, -700400.6, -708165.4, -71196.13, 0.006145928, -0.042995803, -632981.06, -85650.56, 0.0, 9.999285, 9.999178 
1.9649932e+3, 2.541528e+2, -587061.6, -613261.25, -83115.66, -0.14423622, 0.2134889, -516019.75, -66702.01, 0.0, 9.999437, 9.999083 
1.9649838e+3, 2.6415342e+2, -486855.47, -443310.78, -39433.26, -0.17428973, 0.3378266, -420038.5, -68724.46, 0.0, 9.999148, 9.999716 
1.9649768e+3, 2.741523e+2, -523429.88, -415433.7, -37671.676, -0.02204888, 0.2506569, -403591.44, -150268.1, 0.0, 9.998247, 9.999668 
1.9649692e+3, 2.841513e+2, -508971.47, -348663.0, -18201.102, 0.052571226, 0.17980145, -346622.47, -191289.14, 0.0, 9.997634, 9.99975 
1.9649601e+3, 2.9415077e+2, -446315.1, -255136.27, 17815.717, -0.021490445, 0.15019163, -253490.2, -196150.84, 0.0, 9.997335, 9.999864 
1.9649515e+3, 3.041507e+2, -385917.13, -65816.95, 76883.87, -0.17075795, 0.096571445, -48308.15, -48308.15, 0.0, 9.996834, 10.001073 
1.964946e+3, 3.1415248e+2, -355619.2, 61871.56, -58197.836, 0.025985356, 0.17464507, 69832.484, 69832.484, 0.0, 9.996553, 10.002083 
1.9751143e+3, 1.2417718e+2, -1438659.8, -1751362.4, -24984.85, -0.110096596, 0.02035275, -1436676.1, 286394.34, 0.24284539, 10.003436, 9.9980955 
1.9751066e+3, 1.3417664e+2, -1278796.4, -1607814.6, 27023.852, -0.11906669, 0.12239167, -1276591.5, 348483.75, 0.17054692, 10.00361, 9.998343 
1.9751003e+3, 1.4417405e+2, -1211736.6, -1626474.9, -41031.766, 0.121023774, 0.070317, -1207716.1, 319385.06, 0.098933056, 10.003521, 9.997562 
1.9750898e+3, 1.5417208e+2, -1176384.9, -1592809.0, -50380.984, 0.03361549, 0.121430434, -1170376.3, 258747.38, 0.043353163, 10.00303, 9.997357 
1.9750798e+3, 1.6416997e+2, -1109674.6, -1419759.0, -32578.281, -0.0035754673, 0.14015754, -1106288.9, 224857.45, 0.012356995, 10.002348, 9.9982 
1.9750708e+3, 1.7416778e+2, -1142334.6, -1387229.1, -29099.805, -0.014713039, 0.09320201, -1138924.3, 94244.26, 0.0015709848, 10.00144, 9.998187 
1.9750609e+3, 1.8416639e+2, -987972.2, -1138021.4, -55920.234, -0.077231474, 0.0859358, -969424.56, 165756.69, 0.000019593592, 10.00129, 9.999297 
1.9750501e+3, 1.9416617e+2, -756127.06, -974374.8, -50855.887, -0.19438708, 0.12353241, -744858.5, 292320.84, 0.0, 10.002205, 9.999308 
1.9750404e+3, 2.0416507e+2, -753404.94, -1032336.2, -62801.26, -0.18623255, 0.13234372, -739917.44, 199271.81, 0.0, 10.002022, 9.998327 
1.9750322e+3, 2.141629e+2, -916530.0, -1079988.3, -74848.734, -0.012935879, 0.08825165, -887435.0, -46220.65, 0.0, 10.000316, 9.998149 
1.9750234e+3, 2.2416158e+2, -885366.3, -883712.1, -69650.586, 0.07932682, 0.09078491, -814883.75, -71654.56, 0.0, 9.999294, 9.999315 
1.9750138e+3, 2.3416151e+2, -793908.4, -787530.6, -64260.473, 0.06423456, 0.14191057, -726379.94, -81151.04, 0.0, 9.999243, 9.999328 
1.9750041e+3, 2.4416122e+2, -716348.5, -740758.3, -66147.6, 0.04235888, 0.19942841, -661289.25, -114055.52, 0.0, 9.999281, 9.998957 
1.974994e+3, 2.541607e+2, -603423.75, -649185.44, -76207.32, -0.0028354584, 0.25234744, -546736.44, -97491.92, 0.0, 9.999443, 9.998835 
1.9749837e+3, 2.6415992e+2, -480051.22, -431172.13, -70887.93, -0.09511869, 0.25072482, -380629.06, -29375.459, 0.0, 9.999155, 9.999797 
1.9749732e+3, 2.741589e+2, -514993.22, -400521.44, -70187.05, -0.20991196, 0.1602619, -367191.5, -113932.01, 0.0, 9.998256, 9.999767 
1.974965e+3, 2.841583e+2, -466440.9, -263252.03, -31803.033, -0.117789805, 0.10126215, -258390.56, -103127.58, 0.0, 9.997643, 10.000333 
1.9749591e+3, 2.9415855e+2, -398164.8, -161886.05, 5950.9365, 0.14725131, 0.08215688, -161736.27, -104475.66, 0.0, 9.997361, 10.000494 
1.9749485e+3, 3.041601e+2, -375027.72, -48337.477, 52020.71, -0.14802969, 0.15170713, -40253.94, -40253.94, 0.0, 9.996855, 10.001183 
1.974942e+3, 3.1416172e+2, -318979.06, 132253.66, 48551.914, -0.037893068, 0.20706248, 137418.64, 137418.64, 0.0, 9.996575, 10.002558 
1.9851184e+3, 1.24184944e+2, -1446748.4, -1788014.4, -11327.913, -0.056811254, -0.021539357, -1446372.8, 276619.84, 0.25402585, 10.003553, 9.997784 
1.9851096e+3, 1.3418493e+2, -1372217.3, -1668155.5, -6703.578, -0.14104271, 0.14225036, -1372065.5, 252929.28, 0.17921835, 10.002901, 9.99825 
1.985103e+3, 1.4418267e+2, -1320147.3, -1668185.4, -74728.664, 0.091306955, 0.11912145, -1304780.4, 222238.13, 0.10461321, 10.00264, 9.997705 
1.9850925e+3, 1.5418029e+2, -1191296.6, -1579473.0, -58921.434, 0.030472971, 0.11471936, -1182550.0, 246493.1, 0.046252493, 10.002845, 9.997536 
1.9850825e+3, 1.6417804e+2, -1060050.3, -1387851.0, -41252.28, 0.0065724803, 0.10828268, -1054938.5, 276127.72, 0.01338027, 10.002668, 9.998261 
1.9850726e+3, 1.7417614e+2, -1059577.0, -1341335.4, -36228.223, -0.011690918, 0.08368662, -1054993.4, 178092.84, 0.0017591557, 10.001988, 9.998236 
1.9850622e+3, 1.8417495e+2, -986488.1, -1170902.6, -35131.563, -0.08093359, 0.110632345, -980022.1, 155075.67, 0.0000256483, 10.001447, 9.998997 
1.9850516e+3, 1.941749e+2, -940000.75, -1100483.6, -63621.008, -0.20671296, 0.19692513, -917839.44, 119257.06, 0.0, 10.001104, 9.998972 
1.9850418e+3, 2.0417358e+2, -905108.8, -1073249.8, -115743.695, -0.19893943, 0.18849987, -846125.25, 92983.22, 0.0, 10.000846, 9.9986105 
1.9850327e+3, 2.1417066e+2, -836225.7, -1004171.3, -83988.445, -0.013968038, 0.037029628, -801431.94, 39705.73, 0.0, 10.00071, 9.998478 
1.9850232e+3, 2.2416922e+2, -699396.4, -794566.75, -22528.05, 0.061817233, 0.009735023, -694333.06, 48819.266, 0.0, 10.000577, 9.999308 
1.9850129e+3, 2.3416993e+2, -621742.75, -707918.06, -26168.93, -0.0065715597, 0.14159372, -614418.56, 30727.281, 0.0, 10.000445, 9.999292 
1.985003e+3, 2.4416994e+2, -618346.44, -673982.06, -32605.18, -0.013967578, 0.22320884, -603304.9, -56156.844, 0.0, 9.999875, 9.999127 
1.9849935e+3, 2.54169e+2, -697512.56, -672705.5, -12140.9375, 0.04594974, 0.21569788, -667752.44, -218590.6, 0.0, 9.998708, 9.999025 
1.9849831e+3, 2.6416805e+2, -617091.56, -485215.94, 19282.477, -0.014613189, 0.18228923, -482454.34, -131282.44, 0.0, 9.998164, 9.999902 
1.9849716e+3, 2.7416733e+2, -482725.78, -374967.6, 17747.959, -0.19543554, 0.11066222, -372119.75, -118944.79, 0.0, 9.998437, 9.999854 
1.9849628e+3, 2.841669e+2, -387445.13, -255873.61, 20198.756, -0.1289854, 0.08009919, -252842.53, -97665.84, 0.0, 9.998322, 10.000055 
1.9849569e+3, 2.94167e+2, -391655.13, -197336.2, -17953.252, 0.16368932, 0.07964553, -195691.42, -138515.3, 0.0, 9.997577, 10.000143 
1.9849452e+3, 3.0416837e+2, -428814.13, -95926.31, -32120.135, -0.14342575, 0.15650882, -92855.39, -92855.39, 0.0, 9.99658, 10.000987 
1.9849378e+3, 3.141696e+2, -456916.75, 47132.81, 47888.42, -0.05522871, 0.18568687, 51642.22, 51642.22, 0.0, 9.9957075, 10.00239 
1.995123e+3, 1.2419356e+2, -1488174.6, -1883043.6, -9694.244, 0.042822376, 0.024432544, -1487936.8, 234970.69, 0.26509434, 10.0035095, 9.997151 
1.9951119e+3, 1.341924e+2, -1402514.9, -1737401.3, -26426.05, -0.21316338, 0.11858795, -1400442.4, 224481.44, 0.18792488, 10.002897, 9.997778 
1.9951044e+3, 1.4419003e+2, -1289898.0, -1598368.5, -68515.77, -0.0480673, 0.090603575, -1275364.4, 251584.72, 0.1104104, 10.002649, 9.998183 
1.9950952e+3, 1.54188e+2, -1154083.9, -1494491.6, -49674.734, -0.0063606966, 0.06260512, -1146983.0, 281984.56, 0.04926067, 10.002834, 9.998125 
1.995085e+3, 1.6418634e+2, -1052671.4, -1366834.6, -64265.563, -0.0051860274, 0.0740104, -1040033.56, 290950.06, 0.014456307, 10.002647, 9.998418 
1.9950737e+3, 1.741853e+2, -1052520.0, -1325297.0, -60326.035, -0.09782655, 0.124613404, -1039774.1, 193220.98, 0.0019582892, 10.001982, 9.99835 
1.9950634e+3, 1.8418391e+2, -1037809.9, -1276238.1, -48852.188, -0.10142811, 0.15698183, -1028188.6, 106821.56, 0.000032105352, 10.00144, 9.998278 
1.9950552e+3, 1.9418216e+2, -998142.56, -1218368.6, -73579.56, 0.030340966, 0.15431885, -975821.3, 61207.64, 0.0, 10.001092, 9.99817 
1.9950451e+3, 2.0418076e+2, -847984.1, -952842.4, -120782.95, 0.0632392, 0.14094684, -768741.94, 170300.27, 0.0, 10.000835, 9.999444 
1.9950332e+3, 2.141799e+2, -767810.4, -861444.25, -86366.19, -0.044645153, 0.09921533, -716388.1, 124658.65, 0.0, 10.000704, 9.999461 
1.9950217e+3, 2.2417885e+2, -705154.6, -806038.44, -27123.61, -0.13852839, 0.060679983, -698324.56, 44730.746, 0.0, 10.000571, 9.999233 
1.9950114e+3, 2.3417762e+2, -634850.2, -734451.44, -28670.205, -0.20658928, 0.014800584, -627187.06, 17881.154, 0.0, 10.000439, 9.999116 
1.9950013e+3, 2.4417707e+2, -580460.0, -594027.7, -73772.78, -0.17096016, 0.027829712, -513159.8, 33914.563, 0.0, 9.999867, 9.9996805 
1.9949917e+3, 2.5417757e+2, -653682.06, -583621.25, -54491.49, -0.0031594785, 0.10236363, -553871.6, -104800.72, 0.0, 9.9987135, 9.999636 
1.994982e+3, 2.6417765e+2, -608349.7, -469088.8, 24697.877, 0.06481647, 0.13280201, -464838.38, -113768.29, 0.0, 9.99817, 10.000012 
1.9949722e+3, 2.7417743e+2, -477346.47, -368401.25, 29746.31, 0.01402616, 0.10518265, -360808.5, -107737.74, 0.0, 9.998453, 9.999893 
1.9949627e+3, 2.8417692e+2, -465969.34, -423094.6, -6035.3306, 0.009417366, 0.11787518, -422261.22, -267185.3, 0.0, 9.998339, 9.9988985 
1.9949529e+3, 2.9417592e+2, -485316.88, -395478.6, -49747.918, 0.015774917, 0.1358094, -373370.97, -316282.56, 0.0, 9.997592, 9.998776 
1.9949417e+3, 3.041753e+2, -462171.72, -169450.14, -75383.09, -0.15394539, 0.11551421, -151177.72, -151177.72, 0.0, 9.996594, 10.000477 
1.9949332e+3, 3.1417626e+2, -536352.44, -123618.305, 103000.29, -0.0846738, 0.1570378, -99341.87, -99341.87, 0.0, 9.995729, 10.001208 
2.0051269e+3, 1.242022e+2, -1403688.5, -1831311.5, 3929.4822, 0.045837007, 0.058982532, -1403652.4, 319171.97, 0.27610677, 10.004366, 9.997096 
2.0051149e+3, 1.3420063e+2, -1261744.8, -1652700.1, -4641.5454, -0.25336736, 0.11420366, -1261689.6, 363154.66, 0.19667453, 10.004127, 9.997764 
2.0051067e+3, 1.441985e+2, -1133621.5, -1486317.5, -23594.273, -0.13785274, 0.09842333, -1132050.1, 394816.8, 0.11631784, 10.00375, 9.9984455 
2.0050973e+3, 1.5419672e+2, -1089872.0, -1429125.4, -28762.404, -0.080058664, 0.066921555, -1087450.8, 341431.56, 0.05237687, 10.003165, 9.998413 
2.0050871e+3, 1.6419536e+2, -1065250.6, -1369321.9, -72634.766, -0.055760734, 0.0896779, -1048791.0, 282104.34, 0.015589352, 10.002544, 9.998452 
2.0050754e+3, 1.7419459e+2, -1062517.5, -1329427.6, -80486.81, -0.11555035, 0.16737668, -1040125.3, 192779.42, 0.0021699998, 10.001911, 9.998357 
2.0050651e+3, 1.8419304e+2, -1044634.7, -1271434.3, -36725.316, -0.09158862, 0.18053928, -1038836.06, 96085.03, 0.00003871999, 10.001362, 9.998346 
2.0050564e+3, 1.9419056e+2, -1018584.06, -1220712.1, 874.4556, 0.058266982, 0.098744966, -1018580.3, 18365.236, 0.0, 10.00092, 9.998236 
2.0050462e+3, 2.041891e+2, -881559.4, -960451.06, -27521.807, 0.09437292, 0.07418144, -872907.1, 66051.68, 0.0, 10.000573, 9.999516 
2.0050338e+3, 2.1418913e+2, -810931.2, -874538.06, -62747.28, -0.033091146, 0.1134611, -772387.75, 68568.0, 0.0, 10.0003805, 9.999525 
2.005022e+3, 2.2418849e+2, -803572.9, -849656.4, -47951.4, -0.1379195, 0.11122165, -773414.44, -30453.38, 0.0, 9.999884, 9.999264 
2.005011e+3, 2.34187e+2, -846924.75, -833980.4, -38719.254, -0.20795694, 0.039460614, -801196.1, -156219.47, 0.0, 9.998974, 9.999137 
2.0050004e+3, 2.4418631e+2, -725811.56, -625273.56, -72392.23, -0.19052398, 0.018342385, -587408.56, -40425.03, 0.0, 9.998703, 10.000027 
2.0049903e+3, 2.5418678e+2, -546129.6, -489606.72, -72187.18, -0.054853864, 0.05161561, -440345.94, 8631.63, 0.0, 9.999273, 10.00001 
2.0049806e+3, 2.6418695e+2, -485599.8, -439538.44, -17925.924, 0.0463783, 0.085970595, -433384.34, -82409.375, 0.0, 9.999146, 9.99974 
2.0049715e+3, 2.74187e+2, -553628.8, -440523.0, -42723.22, 0.10179939, 0.11791535, -426199.22, -173223.95, 0.0, 9.998088, 9.99957 
2.0049614e+3, 2.8418642e+2, -548361.6, -480041.13, -41600.67, 0.07332713, 0.14731163, -460372.6, -305390.25, 0.0, 9.99785, 9.998742 
2.00495e+3, 2.9418495e+2, -353429.4, -360449.78, -6277.915, -0.07624585, 0.13340451, -349747.0, -292747.66, 0.0, 9.998622, 9.998519 
2.0049395e+3, 3.0418378e+2, -246135.5, -93720.164, -27428.283, -0.11989431, 0.08756321, -88934.5, -88934.5, 0.0, 9.998201, 10.000222 
2.0049295e+3, 3.1418368e+2, -497499.13, -124326.04, 173074.83, -0.05692685, 0.03839, -56414.18, -56414.18, 0.0, 9.996092, 10.001023 
2.0151304e+3, 1.2421071e+2, -1385873.9, -1755595.5, 6128.221, -0.054274138, 0.07119783, -1385772.4, 336972.1, 0.28735358, 10.00433, 9.997631 
2.0151189e+3, 1.342096e+2, -1245933.4, -1596053.5, -10103.528, -0.27403805, 0.12657203, -1245642.0, 379114.44, 0.20563129, 10.004078, 9.998225 
2.0151098e+3, 1.4420806e+2, -1139687.0, -1485887.4, -41072.73, -0.19426498, 0.14205042, -1134880.9, 391891.28, 0.122408, 10.003709, 9.998472 
2.0150992e+3, 1.5420642e+2, -1095101.8, -1434754.0, -47585.84, -0.19899638, 0.12797423, -1088560.9, 340226.66, 0.055628605, 10.003148, 9.998386 
2.0150888e+3, 1.6420504e+2, -1074280.5, -1384303.9, -96423.37, -0.15319057, 0.15705036, -1046737.8, 284064.0, 0.016791344, 10.002528, 9.998359 
2.0150778e+3, 1.7420396e+2, -1072230.9, -1347198.9, -102008.516, -0.0727103, 0.21267633, -1038520.3, 194295.11, 0.0023981123, 10.001899, 9.998241 
2.0150666e+3, 1.8420228e+2, -988677.3, -1151732.9, -53250.668, -0.060342662, 0.18176183, -972827.4, 162003.55, 0.000045425786, 10.001347, 9.999176 
2.0150554e+3, 1.9420002e+2, -956913.2, -1089879.0, -13427.222, -0.12606722, 0.030598195, -955570.8, 81276.29, 0.0, 10.000908, 9.99914 
2.0150447e+3, 2.0419858e+2, -930934.4, -1062132.5, -35311.145, -0.110178225, -0.011122252, -922034.3, 16825.02, 0.0, 10.0005665, 9.998821 
2.0150347e+3, 2.141983e+2, -870982.9, -998523.4, -67452.46, 0.014125641, 0.08190239, -841928.1, -1062.8127, 0.0, 10.000375, 9.998679 
2.0150238e+3, 2.2419807e+2, -796573.06, -833795.75, -79631.26, 0.054586858, 0.16334003, -733407.1, 9462.966, 0.0, 9.999875, 9.999378 
2.0150119e+3, 2.3419803e+2, -832413.7, -805099.25, -70746.97, -0.01922577, 0.21491201, -746703.3, -101831.164, 0.0, 9.998977, 9.999335 
2.0150003e+3, 2.441975e+2, -715234.6, -604080.3, -55071.47, -0.07963732, 0.19344842, -581416.25, -34539.62, 0.0, 9.998705, 10.000172 
2.014989e+3, 2.5419647e+2, -536993.94, -471787.66, -49396.96, -0.11845782, 0.063564844, -445204.44, 3678.496, 0.0, 9.999276, 10.000132 
2.0149785e+3, 2.6419583e+2, -531001.25, -536644.6, -54074.797, -0.07898115, 0.040614083, -479674.56, -128786.65, 0.0, 9.999156, 9.99907 
2.0149691e+3, 2.7419588e+2, -599710.56, -540765.4, -81278.62, 0.0586419, 0.14669162, -483780.78, -230890.53, 0.0, 9.998105, 9.998875 
2.0149592e+3, 2.8419527e+2, -486617.56, -355739.53, -19499.537, 0.055590745, 0.16881832, -352896.06, -197998.45, 0.0, 9.997865, 9.999589 
2.0149483e+3, 2.9419404e+2, -290153.44, -235661.94, 21032.605, -0.12125588, 0.077620186, -228488.2, -171578.36, 0.0, 9.998647, 9.999365 
2.0149383e+3, 3.041936e+2, -241866.2, -91331.63, -94506.78, -0.05143466, 0.06860591, -45782.133, -45782.133, 0.0, 9.998227, 10.000227 
2.0149252e+3, 3.1419408e+2, -430420.2, 11747.364, 17599.848, -0.09292657, 0.07469654, 12446.795, 12446.795, 0.0, 9.99611, 10.001946 
2.0251347e+3, 1.2422035e+2, -1349991.9, -1698129.8, 31777.393, -0.058247097, 0.122268766, -1347115.0, 375537.0, 0.29942352, 10.004562, 9.997986 
2.0251228e+3, 1.3421868e+2, -1310867.5, -1598978.5, -38.92772, -0.24498467, 0.09076687, -1310867.5, 313798.9, 0.21514359, 10.003398, 9.998532 
2.0251131e+3, 1.4421721e+2, -1269893.0, -1537860.0, -19020.959, -0.19124064, 0.09139705, -1268549.5, 258130.27, 0.12884212, 10.002648, 9.9985895 
2.0251022e+3, 1.5421614e+2, -1191422.0, -1472925.0, -18973.637, -0.1837863, 0.1259934, -1190148.9, 238541.61, 0.059074648, 10.002414, 9.998473 
2.0250912e+3, 1.6421486e+2, -1142014.4, -1428593.8, -64889.242, -0.13032508, 0.16451131, -1128006.4, 202698.3, 0.01808255, 10.00211, 9.998252 
2.0250799e+3, 1.7421323e+2, -1107972.9, -1377520.8, -73559.39, -0.046264634, 0.17666584, -1089205.3, 143518.92, 0.0026487417, 10.001712, 9.998121 
2.0250681e+3, 1.8421152e+2, -962900.4, -1103062.9, -34513.273, -0.054112017, 0.13326798, -954862.9, 179876.64, 0.000052423693, 10.0013685, 9.999499 
2.025056e+3, 1.9420989e+2, -901710.6, -1022652.94, -37277.33, -0.17611328, 0.009390048, -891144.06, 145603.14, 0.0, 10.001113, 9.999501 
2.0250449e+3, 2.0420863e+2, -906637.75, -1089154.5, -61712.188, -0.1732809, -0.0151105765, -887730.4, 51026.99, 0.0, 10.0009, 9.998475 
2.025035e+3, 2.1420799e+2, -845691.6, -1031832.8, -63515.51, -0.0027401727, 0.0812622, -826084.1, 14685.95, 0.0, 10.000744, 9.998273 
2.025024e+3, 2.2420754e+2, -738106.2, -791628.75, -82772.15, 0.07892953, 0.1562999, -677876.7, 64901.176, 0.0, 10.0002165, 9.999503 
2.0250115e+3, 2.3420748e+2, -790338.3, -765675.06, -80074.836, 0.037409544, 0.18872584, -696987.9, -52209.86, 0.0, 9.999185, 9.999504 
2.0249996e+3, 2.4420696e+2, -722526.75, -638684.06, -26880.146, -0.021083795, 0.1738341, -630806.4, -84024.51, 0.0, 9.998793, 9.999891 
2.0249884e+3, 2.5420603e+2, -560660.2, -519598.84, -52774.29, -0.10051192, 0.08592957, -483502.34, -34712.902, 0.0, 9.999272, 9.9998045 
2.0249777e+3, 2.6420528e+2, -487988.6, -513537.94, -91106.18, -0.09479922, 0.06999447, -408765.84, -57969.6, 0.0, 9.999442, 9.99909 
2.0249674e+3, 2.742049e+2, -443211.06, -460280.0, -64683.17, 0.024442757, 0.1277959, -386501.75, -133699.84, 0.0, 9.999159, 9.99892 
2.024957e+3, 2.8420433e+2, -399865.1, -253494.27, 21394.102, 0.03539099, 0.12639713, -250431.33, -95623.234, 0.0, 9.998203, 10.000127 
2.024946e+3, 2.94204e+2, -578377.44, -301686.78, 30237.783, -0.09101482, 0.07068825, -298420.84, -241610.44, 0.0, 9.996362, 10.00001 
2.024936e+3, 3.042043e+2, -589641.44, -235821.8, -73910.04, 0.0063337325, 0.086178444, -221003.22, -221003.22, 0.0, 9.995734, 10.000439 
2.0249213e+3, 3.1420538e+2, -364622.03, 27128.139, -5629.171, -0.11917392, 0.13586774, 27209.01, 27209.01, 0.0, 9.996633, 10.0018 
2.03514e+3, 1.24231145e+2, -1359344.0, -1690529.8, -3633.3464, 0.0015631323, 0.21345834, -1359304.1, 363243.03, 0.3130617, 10.004485, 9.998103 
2.0351268e+3, 1.3422789e+2, -1309884.5, -1586604.0, -31607.982, -0.18196674, 0.013994719, -1306320.0, 318253.8, 0.22565867, 10.003388, 9.99865 
2.0351163e+3, 1.4422601e+2, -1259407.0, -1509912.3, -29252.064, -0.1442056, -0.041213315, -1256036.5, 270552.94, 0.13583452, 10.002645, 9.9988 
2.035106e+3, 1.5422583e+2, -1182975.1, -1446754.1, -26141.705, -0.04853372, 0.06010087, -1180409.3, 248182.78, 0.06279894, 10.002389, 9.998666 
2.0350946e+3, 1.6422471e+2, -1153721.4, -1447216.5, -79474.9, -0.0015770948, 0.110382214, -1133582.4, 197022.55, 0.019492527, 10.002084, 9.998138 
2.0350817e+3, 1.7422234e+2, -1117644.0, -1397996.6, -86390.95, -0.042868383, 0.062462404, -1093160.6, 139471.03, 0.0029308582, 10.001711, 9.997983 
2.0350692e+3, 1.8422066e+2, -974811.25, -1128312.3, -44288.824, -0.07974659, 0.038033932, -962949.44, 171697.81, 0.00006041413, 10.0013685, 9.999326 
2.0350578e+3, 1.942201e+2, -916064.8, -1051033.3, -44406.832, -0.102062106, 0.03779609, -902764.8, 133881.31, 0.0, 10.001105, 9.999311 
2.0350464e+3, 2.0421922e+2, -908286.75, -1090391.3, -67252.91, -0.10715568, 0.062722586, -886142.44, 52511.05, 0.0, 10.00089, 9.998472 
2.0350349e+3, 2.1421811e+2, -844890.4, -1029900.0, -66694.305, -0.0897517, 0.109428786, -823354.5, 17316.375, 0.0, 10.000741, 9.998288 
2.0350228e+3, 2.2421676e+2, -730014.5, -773214.7, -118755.24, -0.06995504, 0.08857564, -630910.94, 111774.46, 0.0, 10.000208, 9.999634 
2.0350099e+3, 2.3421526e+2, -782277.4, -747382.6, -116609.84, -0.044607826, -0.03804883, -646922.1, -2227.1755, 0.0, 9.999177, 9.999634 
2.0349982e+3, 2.4421461e+2, -773136.1, -744576.9, -13282.741, -0.021617837, -0.03958283, -739354.25, -192654.05, 0.0, 9.998793, 9.999166 
2.0349886e+3, 2.5421536e+2, -613923.1, -633687.0, -32892.797, -0.007407029, 0.120799415, -589459.94, -140761.94, 0.0, 9.999284, 9.999018 
2.034978e+3, 2.6421523e+2, -436502.22, -409648.06, -100156.66, -0.0073329797, 0.17516604, -322022.47, 28678.516, 0.0, 9.999454, 9.9998 
2.0349662e+3, 2.7421397e+2, -384867.6, -343454.3, -74392.445, -0.011071767, 0.05904914, -286940.5, -34228.97, 0.0, 9.999174, 9.999716 
2.0349549e+3, 2.842135e+2, -384579.1, -224386.48, -45650.668, 0.0063141664, 0.018804455, -212290.6, -57575.66, 0.0, 9.998213, 10.000323 
2.0349436e+3, 2.942148e+2, -547294.06, -240292.61, -39395.887, 0.015499334, 0.10965916, -235317.75, -178615.16, 0.0, 9.996371, 10.000429 
2.034932e+3, 3.0421582e+2, -555959.2, -164405.0, -47393.69, 0.032371767, 0.13993928, -158750.14, -158750.14, 0.0, 9.9957285, 10.000932 
2.0349185e+3, 3.1421536e+2, -419802.03, -95545.9, 27646.96, -0.06159667, 0.015654663, -93205.53, -93205.53, 0.0, 9.996663, 10.000945 
2.0451446e+3, 1.2424177e+2, -1354924.5, -1682327.5, 16688.48, 0.025358515, 0.18987378, -1354076.0, 368366.6, 0.32886097, 10.004598, 9.9981365 
2.0451312e+3, 1.3423866e+2, -1258304.5, -1562994.9, -11215.933, -0.122593515, 0.009477583, -1257892.3, 366575.38, 0.23755002, 10.003911, 9.998613 
2.0451194e+3, 1.442369e+2, -1215779.0, -1496596.0, -11546.897, -0.101489015, -0.027898978, -1215305.0, 311176.88, 0.14358163, 10.003059, 9.998707 
2.0451085e+3, 1.5423626e+2, -1241336.1, -1489636.6, -31274.979, -0.019410694, 0.038195737, -1237457.4, 191031.6, 0.066891246, 10.002024, 9.998549 
2.0450966e+3, 1.6423489e+2, -1192851.1, -1460202.0, -57734.914, 0.015551518, 0.06764036, -1180916.0, 149587.5, 0.021058364, 10.001785, 9.998192 
2.0450838e+3, 1.7423256e+2, -980818.7, -1324956.8, -50768.836, -0.03146893, 0.018150691, -973485.3, 259043.0, 0.0032562527, 10.002626, 9.998042 
2.0450714e+3, 1.8423091e+2, -808648.7, -1082825.5, -36004.586, -0.064752035, 0.0076115755, -803999.44, 330544.13, 0.00007088071, 10.00266, 9.999017 
2.0450595e+3, 1.9423036e+2, -868535.8, -1064707.8, -52380.99, -0.07425043, 0.042354386, -855425.44, 181119.02, 0.0, 10.001592, 9.998981 
2.0450474e+3, 2.0422935e+2, -909731.44, -1087927.4, -61968.867, -0.08054817, 0.06972448, -890300.2, 48253.863, 0.0, 10.000871, 9.998498 
2.0450357e+3, 2.1422786e+2, -856711.25, -1028709.75, -59216.75, -0.08570568, 0.074639365, -838295.5, 2278.881, 0.0, 10.000636, 9.998345 
2.0450231e+3, 2.2422649e+2, -690465.06, -754991.56, -125638.68, -0.08141273, 0.0474362, -593013.25, 149575.38, 0.0, 10.000486, 9.999623 
2.0450096e+3, 2.3422536e+2, -599405.06, -661613.1, -138403.13, -0.061303396, -0.038382214, -488653.94, 155940.16, 0.0, 10.0004425, 9.999614 
2.0449977e+3, 2.4422458e+2, -654141.44, -724665.7, -24182.168, -0.020104585, -0.036687065, -646646.2, -100045.45, 0.0, 9.999773, 9.998828 
2.0449878e+3, 2.5422445e+2, -786595.06, -756594.2, -12672.924, 0.040449586, 0.07391336, -751957.56, -303349.88, 0.0, 9.998273, 9.998658 
2.0449768e+3, 2.6422426e+2, -702711.06, -477608.06, -57174.29, 0.042370718, 0.115354724, -463918.78, -113307.29, 0.0, 9.997369, 10.000336 
2.0449643e+3, 2.7422404e+2, -622813.25, -389509.84, -49115.668, -0.014577979, 0.043539155, -379591.53, -126980.55, 0.0, 9.997251, 10.000323 
2.0449522e+3, 2.842241e+2, -542318.1, -291797.44, -57702.34, -0.013379839, 0.019767236, -279145.8, -124536.87, 0.0, 9.997093, 10.000399 
2.04494e+3, 2.9422504e+2, -472733.5, -194036.36, -67043.46, 0.018004993, 0.072402634, -178747.13, -122146.77, 0.0, 9.99684, 10.00052 
2.044928e+3, 3.042264e+2, -401300.8, -54928.133, -48778.81, 0.042665686, 0.11523872, -48189.82, -48189.82, 0.0, 9.996646, 10.001238 
2.0449156e+3, 3.1422645e+2, -388980.53, -40771.566, 41223.715, -0.03367789, 0.014381665, -35957.73, -35957.73, 0.0, 9.996707, 10.001297 
2.055149e+3, 1.242524e+2, -1368361.5, -1688397.4, -13611.805, -0.016405568, 0.075705804, -1367783.6, 354553.06, 0.34698305, 10.0045805, 9.998095 
2.0551355e+3, 1.3425085e+2, -1274773.6, -1582369.8, -28706.238, -0.07832539, 0.06807695, -1272117.6, 352231.4, 0.2509598, 10.003896, 9.998454 
2.0551229e+3, 1.4424972e+2, -1243157.0, -1551496.3, -45073.383, -0.074182294, 0.1192306, -1236703.1, 289655.4, 0.15219483, 10.003055, 9.998307 
2.0551096e+3, 1.5424739e+2, -1266761.9, -1549692.8, -66486.72, -0.10369121, 0.059754398, -1251916.9, 176464.56, 0.0714261, 10.002047, 9.998131 
2.0550974e+3, 1.6424541e+2, -1177484.9, -1431249.5, -31043.303, -0.08702195, 0.040000368, -1173742.5, 156657.81, 0.022820981, 10.001801, 9.9983835 
2.0550866e+3, 1.7424382e+2, -965402.56, -1292778.9, -17167.523, -0.020077048, 0.042622797, -964504.75, 267909.9, 0.0036400377, 10.002624, 9.998266 
2.0550744e+3, 1.8424216e+2, -841296.56, -1147171.4, -70530.945, -0.018218854, 0.038284723, -825816.44, 308613.06, 0.00008593674, 10.002644, 9.998584 
2.0550609e+3, 1.9424058e+2, -904778.75, -1137405.3, -90442.125, -0.09940994, 0.021914594, -873753.75, 162689.19, 0.0, 10.00158, 9.998489 
2.055048e+3, 2.0423892e+2, -907878.75, -1082394.6, -72959.305, -0.10149764, 0.0073355986, -881395.7, 57064.25, 0.0, 10.000861, 9.99854 
2.0550372e+3, 2.1423718e+2, -852352.9, -1018078.44, -65187.367, 0.0015505586, -0.021592295, -829784.94, 10696.127, 0.0, 10.000627, 9.998423 
2.0550247e+3, 2.242366e+2, -703407.3, -780417.3, -126942.41, 0.035420768, 0.032883156, -609258.56, 133229.95, 0.0, 10.000478, 9.999454 
2.0550105e+3, 2.3423767e+2, -612896.06, -689299.44, -137635.69, -0.019311702, 0.1873882, -508258.88, 136217.48, 0.0, 10.000439, 9.999427 
2.0549974e+3, 2.4423674e+2, -651587.8, -718375.5, -76590.07, -0.02347364, 0.1808186, -601428.1, -54943.473, 0.0, 9.999769, 9.998873 
2.054986e+3, 2.542332e+2, -783398.44, -749091.0, -68133.92, 0.03590391, -0.05725141, -695984.6, -247464.81, 0.0, 9.998269, 9.998712 
2.0549744e+3, 2.6423228e+2, -678252.2, -427149.38, -66572.96, 0.047514673, -0.11008203, -410591.25, -60062.254, 0.0, 9.997369, 10.000684 
2.0549619e+3, 2.74235e+2, -593063.56, -329833.84, -52934.68, 0.0046624644, 0.08171056, -319587.7, -67086.164, 0.0, 9.997257, 10.000731 
2.0549493e+3, 2.8423604e+2, -543482.56, -296650.3, -68170.586, -0.033327438, 0.13199146, -279074.34, -124583.195, 0.0, 9.997102, 10.000362 
2.0549358e+3, 2.9423466e+2, -485469.2, -227215.05, -75956.63, -0.0931059, -0.04083683, -206531.53, -150026.63, 0.0, 9.996866, 10.00028 
2.0549248e+3, 3.0423582e+2, -399222.28, -51118.277, -57730.52, 0.0380088, -0.0011793398, -41793.855, -41793.855, 0.0, 9.996649, 10.001263 
2.0549121e+3, 3.142379e+2, -311532.66, 107326.695, 85783.15, -0.045671836, 0.080584034, 124214.35, 124214.35, 0.0, 9.996745, 10.002304 
2.0651543e+3, 1.24264546e+2, -1287499.5, -1646342.6, 14076.854, 0.0066276435, 0.008323639, -1286948.1, 435266.97, 0.3670476, 10.005587, 9.998074 
2.0651402e+3, 1.3426341e+2, -1176498.6, -1563537.1, -1736.196, -0.071109585, 0.07941539, -1176490.9, 447735.2, 0.26573452, 10.005062, 9.998075 
2.0651267e+3, 1.4426233e+2, -1052841.4, -1497331.9, -13588.688, -0.08640756, 0.17809874, -1052426.4, 473810.03, 0.16167022, 10.004868, 9.997835 
2.0651127e+3, 1.5425915e+2, -875303.1, -1401568.1, -37604.152, -0.15191065, 0.081204556, -872629.75, 555637.4, 0.076451674, 10.005198, 9.99764 
2.0651004e+3, 1.6425651e+2, -775191.94, -1252085.3, -17146.762, -0.1316498, 0.03180378, -774576.25, 555715.0, 0.024820644, 10.004713, 9.998223 
2.0650896e+3, 1.7425469e+2, -899730.1, -1274609.9, -31547.326, -0.009394493, 0.02314943, -897093.9, 335212.63, 0.004100168, 10.0031395, 9.99814 
2.0650771e+3, 1.8425293e+2, -929885.0, -1212608.0, -98485.44, 0.01997774, 0.025434116, -898960.5, 235361.92, 0.000108260756, 10.002136, 9.998378 
2.0650627e+3, 1.9425142e+2, -873380.0, -1146283.6, -101794.195, -0.07158497, 0.036466826, -839593.3, 196744.38, 0.0, 10.0019, 9.998275 
2.0650496e+3, 2.0424968e+2, -829923.7, -1048515.75, -69949.164, -0.08311331, 0.027334692, -809456.44, 128899.53, 0.0, 10.0014105, 9.998509 
2.0650378e+3, 2.1424769e+2, -859097.75, -1022456.94, -72988.14, 0.011189007, -0.024038116, -831238.2, 9139.323, 0.0, 10.000585, 9.998413 
2.0650251e+3, 2.2424698e+2, -805248.6, -863652.4, -130365.125, 0.05294512, 0.032720614, -700854.75, 41531.543, 0.0, 9.9999275, 9.999147 
2.0650108e+3, 2.3424807e+2, -770964.6, -801405.2, -152865.78, 0.025458002, 0.22239588, -632563.3, 11813.519, 0.0, 9.999512, 9.999102 
2.0649971e+3, 2.4424721e+2, -692724.8, -673112.6, -97845.875, 0.008027534, 0.21160176, -584582.7, -38198.1, 0.0, 9.9992075, 9.9994545 
2.0649844e+3, 2.5424376e+2, -624149.06, -599498.56, -47987.28, 0.0041111424, -0.08177447, -562279.0, -113864.125, 0.0, 9.999049, 9.999364 
2.0649719e+3, 2.6424304e+2, -521124.8, -378702.53, -29778.613, 0.0091902865, -0.13520113, -372726.9, -22306.135, 0.0, 9.998566, 10.00044 
2.0649594e+3, 2.7424616e+2, -556515.3, -347789.16, -69392.72, 0.028282847, 0.12461728, -326824.66, -74431.89, 0.0, 9.997662, 10.000416 
2.0649463e+3, 2.8424707e+2, -567769.5, -283089.25, -103330.914, -0.018454107, 0.16920526, -249537.39, -95152.71, 0.0, 9.996831, 10.000585 
2.0649317e+3, 2.9424506e+2, -584870.0, -254708.45, -88283.195, -0.15762998, -0.092370555, -232584.56, -176181.42, 0.0, 9.996104, 10.000456 
2.064921e+3, 3.042468e+2, -542799.5, -129272.04, -37023.81, 0.032596916, 0.009205133, -125983.39, -125983.39, 0.0, 9.995708, 10.001176 
2.0649084e+3, 3.1424803e+2, -513038.44, -15573.265, 63274.85, -0.018960549, 0.0065344623, -7651.2065, -7651.2065, 0.0, 9.995477, 10.002071 
2.0751604e+3, 1.2427828e+2, -1307850.0, -1653963.8, -7086.369, 0.060584463, -0.0022836924, -1307705.0, 414372.3, 0.38818592, 10.005533, 9.998044 
2.0751445e+3, 1.3427636e+2, -1219166.6, -1632786.3, -14802.004, -0.11807147, 0.051385444, -1218637.6, 405460.72, 0.28145108, 10.005042, 9.997461 
2.0751308e+3, 1.442748e+2, -1092833.4, -1576451.9, -6649.901, -0.1534614, 0.16013461, -1092742.0, 433372.7, 0.1718986, 10.004857, 9.997263 
2.0751177e+3, 1.5427141e+2, -919239.1, -1485303.5, -24565.846, -0.17419362, 0.1007308, -918175.0, 509971.88, 0.08199244, 10.005169, 9.997066 
2.075105e+3, 1.6426812e+2, -813478.5, -1323402.4, -69447.46, -0.12899385, 0.039503064, -804189.56, 525987.7, 0.027096406, 10.004685, 9.997738 
2.0750928e+3, 1.7426512e+2, -933362.5, -1343954.5, -88341.6, -0.00688152, -0.03944887, -915162.0, 317042.06, 0.0046563502, 10.003134, 9.997669 
2.0750795e+3, 1.842632e+2, -928963.6, -1211475.6, -109873.414, 0.042398263, -0.029365135, -891263.1, 242959.47, 0.00014131474, 10.002137, 9.998386 
2.0750654e+3, 1.9426279e+2, -871186.1, -1141542.0, -107726.44, -0.00023223653, 0.086080454, -833511.3, 202717.88, 0.0000000002137382, 10.001896, 9.998311 
2.0750515e+3, 2.0426153e+2, -839099.25, -1066070.4, -98512.45, -0.03554039, 0.12906618, -802306.2, 135936.78, 0.0, 10.001403, 9.998393 
2.0750377e+3, 2.1425928e+2, -869605.1, -1042645.0, -101490.11, -0.06185806, 0.065230235, -822761.1, 17503.65, 0.0, 10.000576, 9.998281 
2.0750241e+3, 2.2425754e+2, -836952.0, -928598.6, -146474.66, -0.033600766, 0.04581399, -729300.25, 12982.889, 0.0, 9.999924, 9.998704 
2.0750107e+3, 2.3425649e+2, -806522.5, -873187.5, -165736.31, 0.06493037, 0.06825628, -670800.06, -26503.734, 0.0, 9.999503, 9.998613 
2.0749968e+3, 2.4425589e+2, -614694.7, -510746.13, -104973.35, 0.063985996, 0.05896541, -445584.88, 100716.39, 0.0, 9.999205, 10.000571 
2.0749827e+3, 2.5425604e+2, -535475.6, -417744.72, -53163.18, -0.0652508, 0.002669732, -397291.4, 51002.215, 0.0, 9.999057, 10.000608 
2.0749694e+3, 2.6425654e+2, -580641.4, -505546.97, -63099.613, -0.07847219, 0.042782355, -469668.34, -119380.51, 0.0, 9.998578, 9.999563 
2.0749575e+3, 2.7425733e+2, -628536.25, -500958.2, -102732.9, 0.051908474, 0.17269677, -443821.25, -191535.03, 0.0, 9.997676, 9.999357 
2.0749436e+3, 2.8425694e+2, -534256.44, -217380.27, -134982.02, 0.021341166, 0.12576483, -167677.13, -13385.398, 0.0, 9.996844, 10.001031 
2.0749275e+3, 2.942559e+2, -542327.9, -172537.0, -117675.35, -0.19959114, -0.0929945, -138266.27, -81968.15, 0.0, 9.996125, 10.001011 
2.0749165e+3, 3.0425954e+2, -555153.56, -155103.75, -44440.715, 0.033262115, 0.17225908, -150226.38, -150226.38, 0.0, 9.995713, 10.000995 
2.074904e+3, 3.1425947e+2, -609138.44, -215541.8, -44349.324, -0.02198572, 0.0673756, -210606.53, -210606.53, 0.0, 9.99548, 10.000696 
2.0851655e+3, 1.2429244e+2, -1332460.9, -1707169.1, 7376.3477, 0.020702634, -0.017661113, -1332315.8, 389619.84, 0.4092679, 10.005749, 9.997348 
2.0851499e+3, 1.3429001e+2, -1232764.1, -1757258.4, -28014.72, -0.11016728, 0.08930127, -1231272.0, 392693.66, 0.29753777, 10.005521, 9.996378 
2.0851362e+3, 1.442874e+2, -1103476.3, -1595039.6, -23312.76, -0.096672654, 0.15976821, -1102373.1, 423620.38, 0.18270744, 10.004885, 9.997122 
2.085123e+3, 1.542838e+2, -1116911.6, -1595977.8, -10916.803, -0.096712954, 0.08671244, -1116663.0, 311363.13, 0.08805767, 10.003741, 9.996993 
2.0851097e+3, 1.6428044e+2, -1026686.06, -1431467.9, -24788.326, -0.0642484, 0.021237493, -1025173.7, 304882.7, 0.029688412, 10.003199, 9.99771 
2.0850962e+3, 1.7427754e+2, -887220.56, -1324789.1, -14112.803, -0.0019657663, -0.044252012, -886765.9, 345316.06, 0.005331034, 10.003467, 9.997641 
2.0850821e+3, 1.8427545e+2, -779253.4, -1177448.6, -22109.516, 0.017128557, -0.03164177, -778029.5, 356072.8, 0.00018959571, 10.003329, 9.998046 
2.0850676e+3, 1.9427454e+2, -783952.3, -1138701.4, -51955.56, -0.017149502, 0.07171683, -776499.6, 259615.39, 0.000000020895914, 10.002666, 9.997957 
2.085053e+3, 2.0427322e+2, -720511.56, -992203.3, -51337.094, -0.052414462, 0.11973404, -711134.9, 226994.58, 0.0, 10.0021515, 9.998537 
2.0850386e+3, 2.1427144e+2, -671341.06, -926497.9, -33480.758, -0.0904765, 0.083740085, -667021.0, 173124.14, 0.0, 10.001853, 9.998459 
2.0850244e+3, 2.2426954e+2, -648333.2, -862208.8, -58497.08, -0.06729509, 0.050783575, -633379.25, 108784.875, 0.0, 10.001326, 9.998483 
2.0850106e+3, 2.3426755e+2, -679555.0, -840629.44, -64433.33, 0.03747972, 0.0044419817, -656952.06, -12765.001, 0.0, 10.000499, 9.998357 
2.0849961e+3, 2.4426691e+2, -597275.8, -527969.3, -43444.273, 0.04881765, 0.014970052, -507050.5, 39143.438, 0.0, 9.9994335, 10.000342 
2.0849815e+3, 2.5426823e+2, -695162.44, -518557.3, -103949.98, -0.0584828, 0.09814875, -470467.28, -22289.72, 0.0, 9.998064, 10.000395 
2.0849673e+3, 2.6426882e+2, -795601.9, -598951.1, -135340.75, -0.07675985, 0.15746145, -529989.3, -179818.33, 0.0, 9.997063, 9.999649 
2.0849541e+3, 2.7426827e+2, -786285.25, -565862.44, -90395.23, 0.014163114, 0.14447719, -533533.1, -281353.3, 0.0, 9.996549, 9.999452 
2.0849396e+3, 2.8426766e+2, -626127.44, -248684.34, -77822.47, -0.004148644, 0.06199605, -233268.28, -79081.15, 0.0, 9.996157, 10.001149 
2.0849238e+3, 2.9426792e+2, -574637.1, -175650.1, -97062.81, -0.14428578, -0.03947114, -153290.39, -97107.72, 0.0, 9.995847, 10.001127 
2.0849124e+3, 3.0427194e+2, -597800.75, -191100.28, -29391.389, 0.05045944, 0.26517412, -188987.22, -188987.22, 0.0, 9.9954815, 10.000863 
2.084899e+3, 3.1427217e+2, -626780.4, -164510.72, -62086.824, -0.060108744, 0.20382762, -156317.16, -156317.16, 0.0, 9.9951, 10.00123 
2.0951699e+3, 1.2430721e+2, -1404521.9, -1896257.4, 4224.412, -0.13838142, -0.018960655, -1404485.6, 317302.84, 0.42930388, 10.005681, 9.996017 
2.095156e+3, 1.3430426e+2, -1320027.8, -1985029.3, -36570.1, -0.06254795, 0.19062462, -1318022.8, 305805.8, 0.3135241, 10.0054865, 9.994832 
2.0951428e+3, 1.443001e+2, -1094315.5, -1556533.3, -55109.043, 0.06634186, 0.17641427, -1087835.9, 438037.22, 0.19398102, 10.004875, 9.997401 
2.0951284e+3, 1.5429631e+2, -1089775.4, -1532941.9, -47855.355, 0.065343305, 0.0401513, -1084666.6, 343238.47, 0.09468271, 10.003756, 9.997421 
2.095114e+3, 1.642934e+2, -1000077.75, -1375098.9, -17389.09, 0.048703354, -0.020505318, -999273.2, 330655.8, 0.03265055, 10.003207, 9.998095 
2.0950995e+3, 1.742918e+2, -861451.1, -1270617.1, -2141.708, -0.002316667, 0.0073383907, -861439.9, 370501.25, 0.0061546443, 10.003466, 9.998014 
2.0950848e+3, 1.8428957e+2, -828093.3, -1277824.5, -44229.016, -0.061558966, 0.01766243, -823784.9, 310178.03, 0.0002604527, 10.003322, 9.997362 
2.0950691e+3, 1.9428664e+2, -838807.9, -1251234.0, -74503.31, -0.12826326, -0.0055706133, -825761.8, 210234.14, 0.00000016154512, 10.002658, 9.99719 
2.0950542e+3, 2.042847e+2, -692838.75, -933592.94, -63290.23, -0.13982445, 0.0012946089, -677214.75, 260801.63, 0.0, 10.002144, 9.998944 
2.0950405e+3, 2.1428408e+2, -638700.0, -856284.56, -41643.348, -0.08207876, 0.03348216, -631002.2, 209017.25, 0.0, 10.00184, 9.998949 
2.095026e+3, 2.2428292e+2, -651062.5, -866113.3, -87473.04, -0.05470139, 0.04871617, -619976.06, 122054.19, 0.0, 10.001316, 9.998462 
2.0950098e+3, 2.3428112e+2, -684914.5, -851067.7, -93343.4, -0.0653445, 0.02951111, -643032.25, 1018.08185, 0.0, 10.000492, 9.99829 
2.0949946e+3, 2.442801e+2, -708367.6, -757027.9, -94337.484, -0.04419238, 0.078350864, -635273.3, -89209.37, 0.0, 9.999428, 9.998773 
2.0949802e+3, 2.5428018e+2, -813942.4, -765285.3, -154669.53, 0.016043724, 0.20475808, -633042.6, -184974.7, 0.0, 9.998065, 9.9987 
2.0949653e+3, 2.642798e+2, -721620.8, -447066.63, -158953.88, 0.004098955, 0.20817833, -374316.75, -24244.96, 0.0, 9.997068, 10.00069 
2.0949495e+3, 2.742789e+2, -696159.25, -382597.28, -109007.445, -0.09788281, 0.034406744, -348425.66, -96350.17, 0.0, 9.996564, 10.000703 
2.094935e+3, 2.8427914e+2, -641248.94, -282156.88, -92355.33, -0.10067964, -0.016111758, -259796.3, -105724.71, 0.0, 9.996165, 10.000915 
2.0949213e+3, 2.9428113e+2, -597783.0, -224070.05, -109423.9, 0.01166323, 0.08863508, -194388.0, -138331.89, 0.0, 9.995849, 10.000793 
2.0949079e+3, 3.0428344e+2, -598879.8, -197849.03, -45556.266, 0.06589878, 0.24757048, -192739.05, -192739.05, 0.0, 9.995498, 10.00081 
2.0948936e+3, 3.1428364e+2, -428360.97, 232158.13, -61151.83, -0.12012685, 0.17827712, 237771.94, 237771.94, 0.0, 9.995166, 10.003923 
2.1051753e+3, 1.24322124e+2, -1430459.8, -1877769.8, -28867.564, -0.13675895, 0.052154038, -1428604.5, 293040.2, 0.4479354, 10.005358, 9.996301 
2.1051614e+3, 1.3431843e+2, -1323736.5, -1936046.4, 42829.582, -0.05479109, 0.1417028, -1320755.3, 302933.56, 0.32932222, 10.005319, 9.995251 
2.1051477e+3, 1.4431387e+2, -1046030.06, -1529267.1, 65697.19, 0.04890612, 0.067621335, -1037257.6, 488478.5, 0.20578645, 10.005374, 9.99735 
2.1051326e+3, 1.5431106e+2, -884628.5, -1431756.6, 47477.582, 0.03731531, 0.0414494, -880539.1, 547220.6, 0.101969786, 10.005392, 9.997328 
2.1051179e+3, 1.6430849e+2, -778038.06, -1303067.9, 47689.617, 0.023684759, 0.03587715, -773741.5, 556040.4, 0.03605995, 10.004966, 9.997747 
2.1051033e+3, 1.7430638e+2, -806104.75, -1282415.9, 10485.741, -0.013464962, 0.048343334, -805874.0, 425926.1, 0.0071691447, 10.004022, 9.997664 
2.105088e+3, 1.843038e+2, -833550.0, -1284624.6, -41795.547, -0.06203154, 0.044089418, -829710.06, 304115.38, 0.0003659927, 10.003306, 9.99732 
2.105072e+3, 1.9430073e+2, -802009.4, -1236973.3, -20136.162, -0.12185355, 0.0074134357, -801079.2, 234779.78, 0.00000091193453, 10.002928, 9.997158 
2.1050563e+3, 2.0429856e+2, -707965.56, -974674.25, -10702.054, -0.14010364, 0.010113978, -707536.8, 230344.44, 0.0, 10.002186, 9.998642 
2.1050417e+3, 2.1429767e+2, -786840.3, -963687.56, -54318.9, -0.105166934, 0.048762474, -771488.8, 68399.32, 0.0, 10.000979, 9.998625 
2.1050264e+3, 2.242965e+2, -800978.4, -936372.44, -118033.51, -0.079528965, 0.07765264, -732606.3, 9292.972, 0.0, 10.000281, 9.998477 
2.1050103e+3, 2.3429498e+2, -718023.6, -861132.6, -116523.69, -0.0622955, 0.082640834, -652838.1, -8922.888, 0.0, 10.000245, 9.998338 
2.1049944e+3, 2.4429367e+2, -684014.3, -794934.9, -96382.625, -0.026538454, 0.12045187, -628274.5, -82343.2, 0.0, 9.999809, 9.998328 
2.1049787e+3, 2.5429264e+2, -735244.2, -782812.75, -70132.086, 0.03284459, 0.18558565, -684973.06, -237026.05, 0.0, 9.998844, 9.998204 
2.1049629e+3, 2.6429185e+2, -552766.4, -329700.2, -26298.326, 0.004911853, 0.15942943, -326641.7, 23313.277, 0.0, 9.99807, 10.001016 
2.1049462e+3, 2.7429157e+2, -521850.25, -254962.39, -40874.21, -0.13265398, 0.011642885, -248842.78, 3108.3577, 0.0, 9.997568, 10.0011 
2.1049312e+3, 2.8429255e+2, -584687.75, -286717.7, -71097.63, -0.13300976, 0.02336075, -270622.72, -116682.484, 0.0, 9.996691, 10.00063 
2.1049172e+3, 2.942949e+2, -704239.56, -315632.97, -91438.96, 0.040330306, 0.19889185, -295192.56, -239269.8, 0.0, 9.995292, 10.000433 
2.1049029e+3, 3.0429485e+2, -789292.5, -252250.8, -7371.2554, 0.07085402, 0.12975429, -252149.64, -252149.64, 0.0, 9.994034, 10.001141 
2.1048872e+3, 3.1429583e+2, -692407.94, 175850.97, 26314.951, -0.1515341, 0.09910837, 176647.78, 176647.78, 0.0, 9.993056, 10.004551 
2.1151818e+3, 1.24337085e+2, -1376981.1, -1669314.6, -40002.766, -0.013362106, 0.17426519, -1371606.0, 349899.1, 0.465783, 10.005313, 9.998056 
2.1151662e+3, 1.3433254e+2, -1229055.5, -1612662.0, 37370.508, -0.10057891, -0.048792418, -1225448.8, 398097.4, 0.34542653, 10.005292, 9.997514 
2.1151511e+3, 1.4432864e+2, -1080450.6, -1594928.6, 67055.89, -0.15138473, -0.15502769, -1071854.4, 453728.66, 0.21845415, 10.005348, 9.996914 
2.115136e+3, 1.5432794e+2, -929465.5, -1523716.5, 48811.234, -0.18073839, 0.09044762, -925482.9, 502108.78, 0.11011201, 10.005384, 9.996701 
2.115121e+3, 1.6432555e+2, -851231.8, -1454589.0, 15860.959, -0.14385906, 0.18670093, -850815.1, 478801.03, 0.040025495, 10.004959, 9.996705 
2.1151069e+3, 1.743212e+2, -880055.44, -1435644.0, -22518.938, -0.042945888, 0.079208136, -879144.2, 352515.13, 0.0084317485, 10.004018, 9.996615 
2.115092e+3, 1.8431807e+2, -793290.9, -1200723.3, -56654.434, 0.0063966084, 0.048678745, -785559.7, 348130.72, 0.00052564405, 10.003303, 9.9979 
2.1150759e+3, 1.9431664e+2, -753748.1, -1136603.8, -31681.877, -0.007388119, 0.108399, -751144.1, 284560.9, 0.0000034897541, 10.002925, 9.997849 
2.1150593e+3, 2.0431468e+2, -780188.3, -1124819.3, -53089.406, -0.06134093, 0.14254513, -772195.44, 165529.89, 0.0, 10.002183, 9.997614 
2.115042e+3, 2.1431214e+2, -869156.4, -1133730.9, -96776.93, -0.16916603, 0.12933467, -837536.06, 2216.1445, 0.0, 10.000973, 9.997463 
2.1150258e+3, 2.2431014e+2, -796939.94, -927940.5, -121700.92, -0.14857657, 0.13806553, -724232.44, 17539.941, 0.0, 10.000279, 9.998536 
2.1150115e+3, 2.3430899e+2, -706851.5, -838698.7, -115847.266, 0.03814084, 0.16394882, -639484.0, 4298.9165, 0.0, 10.000247, 9.998491 
2.1149954e+3, 2.4430746e+2, -635623.06, -695549.75, -131151.25, 0.093978, 0.14047426, -531055.9, 14741.294, 0.0, 9.999812, 9.99901 
2.1149771e+3, 2.5430545e+2, -684831.6, -680672.44, -105824.914, -0.016523534, 0.037860233, -576906.7, -129090.58, 0.0, 9.998854, 9.998901 
2.11496e+3, 2.643049e+2, -579098.2, -388045.13, -47585.105, -0.08036932, 0.013456154, -376849.28, -27028.004, 0.0, 9.998084, 10.000608 
2.1149442e+3, 2.7430633e+2, -551911.94, -321469.0, -58793.984, -0.09937193, 0.086209066, -307335.47, -55528.742, 0.0, 9.997584, 10.000635 
2.1149279e+3, 2.8430775e+2, -604704.1, -334069.78, -123035.77, -0.11189395, 0.18000919, -286497.53, -132703.53, 0.0, 9.996712, 10.000297 
2.1149114e+3, 2.9430884e+2, -727732.44, -372409.75, -143006.05, -0.07157632, 0.26422873, -322004.7, -266218.88, 0.0, 9.995322, 10.0000305 
2.1148968e+3, 3.0430645e+2, -746251.6, -161098.6, -53032.633, 0.058693867, -0.04762816, -156331.06, -156331.06, 0.0, 9.994029, 10.001767 
2.1148808e+3, 3.143099e+2, -811311.1, -72854.83, 47575.14, -0.10557185, 0.10485182, -69802.41, -69802.41, 0.0, 9.993058, 10.002845 
2.125188e+3, 1.2435275e+2, -1309504.5, -1625844.9, 31426.031, 0.0153664695, 0.14509328, -1306412.8, 414941.75, 0.4844464, 10.006307, 9.99818 
2.1251716e+3, 1.3434923e+2, -1209616.4, -1560607.0, 44025.516, -0.09215602, -0.030210499, -1204178.4, 419204.0, 0.3629191, 10.005349, 9.998053 
2.1251558e+3, 1.4434595e+2, -1148047.3, -1645114.9, 54536.22, -0.20169823, -0.09565603, -1142134.1, 383277.84, 0.23257789, 10.004877, 9.996789 
2.1251412e+3, 1.5434451e+2, -974107.8, -1559190.8, 63296.813, -0.18965325, 0.090004206, -967338.44, 460090.28, 0.119395986, 10.005139, 9.996575 
2.125126e+3, 1.6434166e+2, -875503.4, -1489716.1, 46633.547, -0.14442281, 0.1561758, -871982.94, 457475.3, 0.044695307, 10.004911, 9.996486 
2.1251106e+3, 1.7433718e+2, -869993.94, -1458964.5, 63563.32, -0.08341853, 0.06148552, -863212.1, 368290.6, 0.010022557, 10.004217, 9.996359 
2.125095e+3, 1.8433397e+2, -783013.06, -1231770.6, 40881.684, -0.025349524, 0.051194858, -779319.1, 354215.78, 0.0007713348, 10.003532, 9.997574 
2.1250793e+3, 1.9433247e+2, -786815.94, -1190082.3, -12158.828, 0.03244546, 0.13847454, -786449.7, 249101.2, 0.000010944595, 10.002863, 9.99751 
2.1250622e+3, 2.0433027e+2, -750561.06, -1130630.4, -46437.418, -0.006195122, 0.17539039, -744969.56, 192604.02, 0.0, 10.002478, 9.997431 
2.1250437e+3, 2.1432728e+2, -665505.44, -1055599.4, -19450.242, -0.17247243, 0.13601089, -664538.06, 175066.25, 0.0, 10.0024605, 9.997281 
2.1250269e+3, 2.24325e+2, -570499.44, -839003.1, -11397.243, -0.17873508, 0.13400541, -570016.5, 171610.78, 0.0, 10.0019245, 9.998352 
2.1250117e+3, 2.3432371e+2, -651572.06, -832958.5, -33050.645, 0.021437356, 0.16630368, -645737.56, -2098.0093, 0.0, 10.000719, 9.9983015 
2.1249948e+3, 2.4432203e+2, -634164.94, -656934.0, -82752.22, 0.08121187, 0.12322839, -562017.8, -16363.744, 0.0, 9.999661, 9.999347 
2.1249758e+3, 2.5431994e+2, -668769.0, -630609.1, -85943.055, -0.03217663, -0.027292294, -561653.5, -113982.836, 0.0, 9.998783, 9.999278 
2.1249577e+3, 2.6431957e+2, -688410.2, -496299.38, -47158.105, -0.077180706, -0.025902508, -485347.66, -135673.94, 0.0, 9.997577, 10.000108 
2.1249413e+3, 2.743215e+2, -839607.56, -521781.78, -68389.8, -0.059248373, 0.15242134, -507690.44, -256031.75, 0.0, 9.995882, 10.000076 
2.124924e+3, 2.8432256e+2, -811229.94, -385492.5, -83651.87, -0.09616057, 0.22136305, -369645.84, -215995.55, 0.0, 9.995092, 10.00072 
2.1249062e+3, 2.943227e+2, -649900.5, -282340.1, -39148.547, -0.13200264, 0.16019587, -278216.7, -222568.64, 0.0, 9.995636, 10.000495 
2.1248911e+3, 3.0432147e+2, -556955.4, -86140.39, 22161.45, 0.030264385, -0.054777376, -85099.55, -85099.55, 0.0, 9.995393, 10.001627 
2.1248747e+3, 3.1432635e+2, -844015.0, -139506.9, 38097.344, -0.021459302, 0.2589352, -137452.72, -137452.72, 0.0, 9.993049, 10.002392 
2.1351776e+3, 1.3436833e+2, -1269178.6, -1680454.4, 20590.465, -0.046284728, 0.18938485, -1268150.4, 355048.38, 0.383099, 10.005344, 9.996992 
2.1351613e+3, 1.4436561e+2, -1148294.6, -1621043.3, 58595.46, -0.12461263, 0.2306037, -1141140.1, 384083.84, 0.24880104, 10.00486, 9.996967 
2.1351479e+3, 1.5436074e+2, -961151.4, -1509818.3, 71186.53, -0.008706225, 0.040429708, -952065.8, 475205.22, 0.13013157, 10.005113, 9.996931 
2.1351323e+3, 1.6435684e+2, -845396.94, -1414092.4, 21561.645, 0.004353705, -0.045874964, -844580.6, 484727.25, 0.050250873, 10.00489, 9.997015 
2.1351142e+3, 1.7435423e+2, -836043.06, -1386822.6, 38826.37, -0.14259098, -0.002357946, -833319.5, 398011.7, 0.012052114, 10.004218, 9.996854 
2.1350972e+3, 1.8435135e+2, -868990.25, -1412805.0, 16080.503, -0.16108088, 0.05158924, -868515.2, 264845.22, 0.0011537962, 10.00354, 9.996329 
2.1350817e+3, 1.9434811e+2, -881403.5, -1388196.5, -34922.363, -0.007204568, 0.101176344, -879008.4, 156388.81, 0.000030850606, 10.002868, 9.99615 
2.1350649e+3, 2.0434524e+2, -705238.3, -1036896.0, -47724.41, 0.019412056, 0.113082014, -698507.5, 238919.16, 0.0, 10.002477, 9.9980755 
2.1350466e+3, 2.1434298e+2, -610877.7, -941500.94, -17330.81, -0.121398516, 0.068928175, -609971.7, 229474.02, 0.0, 10.002456, 9.998068 
2.1350285e+3, 2.243409e+2, -602595.9, -904626.0, -53351.27, -0.17603277, 0.06404561, -593448.8, 148016.66, 0.0, 10.001918, 9.997906 
2.1350113e+3, 2.3433901e+2, -690893.8, -913289.94, -76661.07, -0.11974421, 0.09044826, -667029.2, -23542.879, 0.0, 10.000711, 9.997755 
2.1349932e+3, 2.4433728e+2, -635533.8, -659824.56, -117293.22, -0.07080893, 0.071117006, -529758.8, 15743.946, 0.0, 9.99966, 9.999329 
2.1349746e+3, 2.5433594e+2, -664373.7, -625001.5, -117732.73, -0.022069892, -0.0064197355, -525320.4, -77808.74, 0.0, 9.998796, 9.999311 
2.1349563e+3, 2.6433578e+2, -729027.8, -582403.8, -111057.195, 0.0059597553, 0.040567115, -522643.1, -173129.53, 0.0, 9.997583, 9.999514 
2.1349375e+3, 2.7433687e+2, -884957.06, -618134.1, -135000.0, -0.020017106, 0.20144317, -561746.7, -310237.5, 0.0, 9.99589, 9.999413 
2.1349192e+3, 2.843369e+2, -728322.25, -215392.98, -72506.95, -0.091710724, 0.14569442, -205340.52, -51829.86, 0.0, 9.995101, 10.0018835 
2.1349016e+3, 2.9433644e+2, -552229.3, -84533.07, -10799.95, -0.14839853, -0.10304479, -84283.81, -28774.104, 0.0, 9.995656, 10.001843 
2.134886e+3, 3.043396e+2, -606836.1, -195903.97, -39989.53, -0.023191288, 0.085372746, -192048.6, -192048.6, 0.0, 9.995417, 10.000863 
2.1348675e+3, 3.1434223e+2, -781587.75, -13049.952, -123436.305, -0.053065542, 0.26403517, 6288.764, 6288.764, 0.0, 9.993067, 10.003248 
2.1451828e+3, 1.3438535e+2, -1191938.4, -1648231.4, -1156.2821, -0.097785026, 0.16371055, -1191935.5, 431095.25, 0.4064379, 10.006576, 9.996611 
2.1451662e+3, 1.4438297e+2, -1198630.0, -1641923.1, 83908.75, -0.102220625, 0.25773105, -1183279.0, 341774.63, 0.26727614, 10.004452, 9.997034 
2.1451531e+3, 1.5437786e+2, -1106068.0, -1575132.9, 96198.97, 0.04649391, 0.03430733, -1087105.4, 339997.4, 0.1424672, 10.003955, 9.997047 
2.1451375e+3, 1.6437404e+2, -955617.4, -1451881.3, 28142.623, 0.055319414, -0.058158167, -954026.5, 375112.28, 0.056871496, 10.004045, 9.997161 
2.1451187e+3, 1.7437184e+2, -763205.75, -1335907.9, 16243.524, -0.14256993, 0.012278843, -762745.44, 468412.13, 0.014664361, 10.004673, 9.996982 
2.1451011e+3, 1.8436874e+2, -696667.1, -1356986.8, -3519.1858, -0.19054444, 0.05057031, -696648.4, 436539.6, 0.001750314, 10.004851, 9.9960785 
2.1450849e+3, 1.9436455e+2, -665148.4, -1315454.3, 22166.771, -0.03980776, 0.033173792, -664393.7, 370839.28, 0.00008036173, 10.004492, 9.995866 
2.1450676e+3, 2.0436135e+2, -560514.44, -989161.75, 12674.109, -0.0069776885, 0.034394857, -560140.06, 377125.63, 0.000000018813253, 10.003571, 9.997874 
2.1450488e+3, 2.1435948e+2, -699690.75, -1007186.4, -34483.188, -0.12991409, 0.051340513, -695871.2, 143410.4, 0.0, 10.001947, 9.99786 
2.14503e+3, 2.243574e+2, -765341.8, -990240.75, -95615.23, -0.1822725, 0.06120799, -730186.56, 11115.063, 0.0, 10.000831, 9.997842 
2.1450114e+3, 2.3435505e+2, -746435.94, -945907.9, -84488.69, -0.14339049, 0.04451285, -715460.0, -72133.086, 0.0, 10.000356, 9.997702 
2.1449926e+3, 2.4435328e+2, -611810.0, -672279.56, -101457.33, -0.08654902, 0.037467837, -536178.2, 9165.67, 0.0, 9.999927, 9.999114 
2.1449742e+3, 2.543525e+2, -570833.25, -603864.0, -121700.26, -0.002992714, 0.041095532, -464532.88, -17184.54, 0.0, 9.999543, 9.999096 
2.1449544e+3, 2.643521e+2, -584368.06, -532791.0, -143206.9, 0.011761565, 0.082904056, -413069.16, -63716.08, 0.0, 9.998662, 9.999336 
2.1449336e+3, 2.7435195e+2, -717116.25, -558002.3, -136031.77, -0.072022535, 0.13541515, -479971.38, -228611.22, 0.0, 9.997128, 9.999229 
2.1449141e+3, 2.8435192e+2, -675761.5, -158065.17, -53223.813, -0.10836438, 0.07358884, -152649.92, 711.81055, 0.0, 9.995323, 10.0021715 
2.1448973e+3, 2.9435283e+2, -883806.5, -200708.1, -59731.652, -0.051249743, -0.0690746, -195524.38, -140176.38, 0.0, 9.993193, 10.0022335 
2.1448806e+3, 3.0435684e+2, -1037309.1, -422739.22, -92132.516, 0.034068245, 0.18475257, -409224.47, -409224.47, 0.0, 9.992545, 10.0006895 
2.1448606e+3, 3.1435674e+2, -680607.4, 40204.47, -150343.4, -0.0870539, 0.11701828, 70305.36, 70305.36, 0.0, 9.993757, 10.003272 
2.155188e+3, 1.3440046e+2, -1210059.6, -1635247.0, -50605.605, -0.2518176, -0.09131426, -1204119.5, 418757.28, 0.43158707, 10.0064945, 9.996774 
2.1551701e+3, 1.4439821e+2, -1208831.6, -1650391.1, 51110.58, -0.14937821, 0.009784208, -1202992.8, 321906.4, 0.28730226, 10.004472, 9.996951 
2.1551563e+3, 1.5439588e+2, -1116915.4, -1594024.1, 83290.85, -0.024671186, 0.072682664, -1102793.0, 324131.47, 0.15628117, 10.003976, 9.996905 
2.155141e+3, 1.6439311e+2, -974632.5, -1487608.4, 50430.582, 0.0068304706, 0.11016312, -969721.7, 359230.56, 0.06471412, 10.004045, 9.996918 
2.1551238e+3, 1.7438993e+2, -782648.8, -1370749.5, 41763.344, -0.09140433, 0.10227531, -779697.9, 451284.4, 0.018044924, 10.004659, 9.99675 
2.1551067e+3, 1.843861e+2, -651715.44, -1258433.5, -13997.989, -0.12542093, 0.049967848, -651392.6, 481625.28, 0.0026773151, 10.004831, 9.996766 
2.1550894e+3, 1.9438168e+2, -612672.4, -1205334.0, 11258.786, -0.07233844, -0.06733385, -612458.56, 422600.7, 0.00019722813, 10.004485, 9.996626 
2.1550706e+3, 2.043784e+2, -635993.1, -1145822.3, -45120.383, -0.091032475, -0.062331006, -632030.75, 305061.1, 0.0000007869328, 10.003567, 9.996802 
2.15505e+3, 2.1437663e+2, -784366.25, -1182573.6, -93045.21, -0.20391075, 0.08346166, -763698.06, 75414.92, 0.0, 10.001943, 9.99666 
2.1550305e+3, 2.2437438e+2, -744172.4, -945933.0, -114898.35, -0.20355463, 0.12649742, -692152.5, 48984.074, 0.0, 10.000828, 9.998149 
2.1550126e+3, 2.3437162e+2, -716378.0, -885396.4, -100572.0, -0.057014488, 0.027539708, -669523.06, -26360.49, 0.0, 10.000361, 9.998116 
2.1549939e+3, 2.4436991e+2, -640870.6, -733217.56, -117307.164, 0.02532217, 0.019730167, -560976.8, -15798.016, 0.0, 9.999929, 9.998694 
2.1549739e+3, 2.5436953e+2, -602921.8, -672755.56, -136074.08, 0.017597133, 0.11226304, -497356.13, -50173.74, 0.0, 9.999552, 9.998619 
2.1549524e+3, 2.6436847e+2, -563648.3, -493290.47, -199817.6, -0.06763589, 0.0994771, -325578.7, 23614.826, 0.0, 9.998676, 9.999601 
2.1549292e+3, 2.7436668e+2, -691615.1, -509881.63, -193708.67, -0.2299373, -0.046058092, -386786.2, -135573.69, 0.0, 9.997148, 9.999551 
2.1549089e+3, 2.8436765e+2, -716350.75, -245757.72, -135158.25, -0.15459217, 0.006237808, -209701.69, -56497.406, 0.0, 9.995337, 10.001564 
2.1548924e+3, 2.943719e+2, -926830.25, -289762.53, -139244.58, 0.16334307, 0.2650252, -260657.39, -205493.67, 0.0, 9.993189, 10.001625 
2.1548745e+3, 3.043731e+2, -1015703.7, -375506.28, -59297.73, 0.18398945, 0.24908856, -370060.22, -370060.22, 0.0, 9.992534, 10.001021 
2.1548526e+3, 3.1437206e+2, -745934.4, -114052.7, -57208.758, -0.27238277, 0.05335319, -108914.96, -108914.96, 0.0, 9.993827, 10.002184 
2.165192e+3, 1.344179e+2, -1430857.5, -1659795.5, -20861.678, -0.32277542, -0.10988481, -1428972.0, 193731.34, 0.45635384, 10.003276, 9.998133 
2.1651763e+3, 1.4441562e+2, -1008963.4, -1514212.6, 64252.746, -0.094100595, -0.08761852, -1000920.4, 523803.94, 0.30782005, 10.006567, 9.996894 
2.1651609e+3, 1.5441379e+2, -958029.4, -1526695.1, 85175.46, -0.048098367, 0.048390664, -945545.75, 481200.47, 0.17131725, 10.005457, 9.996655 
2.165145e+3, 1.644111e+2, -900584.9, -1449020.8, 92222.54, -0.022130277, 0.10813608, -885492.44, 443281.63, 0.07392932, 10.004626, 9.996908 
2.1651289e+3, 1.7440742e+2, -837358.2, -1394032.9, 103480.0, -0.033678, 0.049376395, -818744.75, 412063.84, 0.02243172, 10.004276, 9.9967785 
2.1651116e+3, 1.8440364e+2, -748253.25, -1284271.0, 32769.707, -0.060021304, -0.00998595, -746257.25, 386586.53, 0.0041057793, 10.00408, 9.996951 
2.1650933e+3, 1.9439991e+2, -653863.25, -1204575.0, 12436.732, -0.10134147, -0.07555231, -653582.5, 381295.56, 0.0004529262, 10.004114, 9.996809 
2.1650738e+3, 2.0439668e+2, -626088.3, -1186861.6, -76673.25, -0.13871051, -0.056662064, -615793.94, 321116.5, 0.000007502901, 10.003831, 9.996393 
2.1650527e+3, 2.143941e+2, -639607.3, -1163103.8, -74191.77, -0.17394969, 0.053423338, -629295.7, 209644.53, 0.0, 10.003154, 9.99621 
2.1650325e+3, 2.2439143e+2, -538197.7, -864859.2, -65910.81, -0.15928279, 0.08590566, -525400.2, 215568.05, 0.0, 10.002326, 9.997981 
2.1650133e+3, 2.3438875e+2, -588722.2, -840674.44, -94842.0, -0.074147925, 0.011541643, -557012.0, 85980.984, 0.0, 10.001315, 9.997962 
2.1649934e+3, 2.4438693e+2, -641037.06, -753066.9, -133187.4, -0.019041065, 0.012212257, -552564.75, -7554.593, 0.0, 10.000013, 9.998518 
2.1649724e+3, 2.5438625e+2, -795321.9, -783294.94, -131829.19, -0.01686175, 0.08930183, -657342.1, -210324.19, 0.0, 9.99831, 9.998458 
2.1649499e+3, 2.643851e+2, -799577.2, -572592.25, -188944.61, -0.07937525, 0.06264774, -465674.63, -116645.125, 0.0, 9.996912, 9.999905 
2.1649261e+3, 2.7438354e+2, -851543.5, -549116.9, -183857.73, -0.18743968, -0.08948502, -462277.38, -211233.48, 0.0, 9.995893, 9.999885 
2.1649045e+3, 2.843847e+2, -798446.44, -362389.0, -129560.016, -0.11674031, -0.004665042, -326799.28, -173764.78, 0.0, 9.99511, 10.00087 
2.1648856e+3, 2.9438883e+2, -790715.3, -306808.56, -146529.0, 0.08672555, 0.31460503, -265897.7, -210898.72, 0.0, 9.994485, 10.00088 
2.1648665e+3, 3.043889e+2, -862132.94, -199064.38, -12229.126, 0.10439429, 0.1871762, -198838.92, -198838.92, 0.0, 9.993154, 10.00193 
2.1648458e+3, 3.1438893e+2, -1039858.06, -191844.98, 43955.484, -0.22916597, -0.012219692, -189572.7, -189572.7, 0.0, 9.991545, 10.002747 
2.1751955e+3, 1.3443758e+2, -1341498.4, -1448096.1, 86404.05, -0.3175526, 0.101049945, -1293276.6, 329234.97, 0.47954044, 10.003362, 10.0006275 
2.1751843e+3, 1.4443502e+2, -1035900.9, -1529841.8, 59723.45, 0.046290755, -0.04639354, -1028782.2, 495748.9, 0.3282359, 10.00648, 9.996822 
2.1751663e+3, 1.544316e+2, -989719.6, -1580788.0, 51237.01, -0.036235224, -0.03744838, -985311.0, 441257.56, 0.18747902, 10.005444, 9.996282 
2.1751495e+3, 1.6442801e+2, -892009.4, -1420792.9, 79317.86, -0.043037053, -0.054274827, -880367.94, 448236.38, 0.084739104, 10.004635, 9.997098 
2.1751338e+3, 1.744243e+2, -820373.06, -1356013.4, 93752.08, 0.02260442, -0.14193814, -804437.9, 426199.34, 0.028145531, 10.004287, 9.997035 
2.1751162e+3, 1.8442124e+2, -771279.1, -1331572.0, 34206.19, -0.0022365781, -0.12797758, -769198.56, 363468.1, 0.006291765, 10.004082, 9.996626 
2.1750969e+3, 1.9441915e+2, -681480.8, -1262056.8, 16542.635, -0.13247728, 0.007692688, -681009.8, 353680.5, 0.0009766875, 10.004114, 9.996415 
2.1750773e+3, 2.0441604e+2, -610389.6, -1153520.8, -99547.086, -0.15618747, 0.049173385, -592719.2, 344003.22, 0.00004749353, 10.003827, 9.996626 
2.1750571e+3, 2.1441172e+2, -622164.5, -1125027.4, -97070.375, -0.050766125, -0.040432185, -604077.06, 234687.47, 0.00000000032497088, 10.003144, 9.996477 
2.1750359e+3, 2.2440839e+2, -585488.6, -961450.4, -102770.31, -0.058207057, -0.059600037, -559230.06, 181567.63, 0.0, 10.002316, 9.997324 
2.1750131e+3, 2.3440628e+2, -640101.7, -946531.6, -131305.78, -0.20173468, -0.0033457696, -591534.56, 51284.598, 0.0, 10.001308, 9.997239 
2.1749912e+3, 2.4440432e+2, -636838.06, -743271.06, -196367.66, -0.22662762, 0.014481095, -486603.72, 58235.17, 0.0, 10.000009, 9.998589 
2.1749698e+3, 2.5440252e+2, -785221.1, -764847.7, -195985.39, -0.11590242, -0.028434498, -578784.44, -131928.52, 0.0, 9.998319, 9.998582 
2.1749473e+3, 2.6440185e+2, -776859.6, -525063.0, -230903.72, -0.028727688, -0.029334776, -387965.28, -39102.973, 0.0, 9.99691, 10.000233 
2.1749243e+3, 2.7440256e+2, -826266.7, -498816.22, -219862.38, 0.056107786, 0.009314603, -388414.8, -137559.56, 0.0, 9.995899, 10.000228 
2.1749009e+3, 2.84403e+2, -851171.44, -478448.6, -156031.94, -0.007745123, 0.04020418, -421753.34, -268899.56, 0.0, 9.995135, 10.000062 
2.174876e+3, 2.9440325e+2, -849699.3, -440454.8, -177343.19, -0.32205036, 0.060602535, -374298.78, -319441.63, 0.0, 9.994532, 9.999941 
2.1748567e+3, 3.0440408e+2, -758595.6, 16640.672, -87863.79, -0.18733212, -0.008196015, 26474.25, 26474.25, 0.0, 9.993154, 10.00341 
2.174842e+3, 3.1440857e+2, -852154.06, 190195.25, -73744.92, 0.24662682, 0.071919784, 195386.75, 195386.75, 0.0, 9.991557, 10.005375 
2.1851899e+3, 1.4445405e+2, -1257659.1, -1653803.4, 127996.06, 0.0806948, -0.12162012, -1219901.8, 304439.1, 0.34868982, 10.004191, 9.997142 
2.1851721e+3, 1.544508e+2, -920189.4, -1520614.6, 131602.25, -0.02646615, -0.11058226, -892611.25, 533765.9, 0.20499566, 10.006058, 9.996435 
2.185155e+3, 1.6444762e+2, -649222.2, -1291665.0, 146024.73, -0.028250221, -0.09536729, -617588.9, 710820.7, 0.09751378, 10.006528, 9.997096 
2.1851382e+3, 1.7444433e+2, -660812.1, -1276589.5, 144727.2, -0.030082831, -0.13769995, -628492.9, 601946.2, 0.035643473, 10.005455, 9.997023 
2.1851201e+3, 1.8444125e+2, -708090.3, -1350733.4, 97032.45, -0.056422636, -0.10465838, -693759.0, 438710.78, 0.009635143, 10.0047455, 9.996177 
2.1851015e+3, 1.9443853e+2, -657362.7, -1304606.3, 71639.41, -0.10431697, 0.018629506, -649528.2, 384973.06, 0.0020091478, 10.004518, 9.99593 
2.1850818e+3, 2.0443511e+2, -575086.0, -1123222.4, -72804.03, -0.10323871, 0.047069807, -565580.9, 370955.56, 0.00020549886, 10.004015, 9.996742 
2.1850602e+3, 2.1443078e+2, -606460.75, -1101736.1, -84555.87, -0.04359894, -0.05631878, -592422.9, 246153.45, 0.0000008582186, 10.003185, 9.996617 
2.185038e+3, 2.2442733e+2, -601668.7, -1013937.6, -87043.625, -0.07176293, -0.07672395, -584044.3, 156565.53, 0.0, 10.002397, 9.996924 
2.1850146e+3, 2.3442489e+2, -623113.9, -987353.2, -97823.62, -0.2061572, -0.007825734, -598504.2, 44131.5, 0.0, 10.001636, 9.996801 
2.1849914e+3, 2.4442263e+2, -553785.5, -689326.5, -172971.4, -0.22840257, -0.0016407281, -435782.06, 108876.35, 0.0, 10.000519, 9.998713 
2.1849683e+3, 2.5442064e+2, -686330.94, -699221.06, -174384.17, -0.11543333, -0.082718715, -518272.75, -71596.2, 0.0, 9.998922, 9.99874 
2.1849446e+3, 2.644202e+2, -700041.5, -488421.3, -202135.83, -0.023900218, -0.064754814, -366076.5, -17396.326, 0.0, 9.9974375, 10.000231 
2.1849205e+3, 2.7442175e+2, -804810.5, -488582.8, -216685.8, 0.062390305, 0.056898735, -378456.6, -127790.48, 0.0, 9.996049, 10.000226 
2.184896e+3, 2.8442198e+2, -882111.06, -468179.44, -115303.46, 0.005469228, 0.06045769, -438228.1, -285561.94, 0.0, 9.994817, 10.000286 
2.1848704e+3, 2.9442105e+2, -951359.75, -465086.13, -57838.676, -0.28465563, -0.06294811, -458301.3, -403621.75, 0.0, 9.9937315, 10.000157 
2.184849e+3, 3.0442214e+2, -933581.8, -81350.3, -22277.645, -0.22315158, -0.10609237, -80768.34, -80768.34, 0.0, 9.992006, 10.003293 
2.1848322e+3, 3.1442872e+2, -1113768.8, 153405.84, -134778.14, 0.22503355, 0.19131783, 167582.4, 167582.4, 0.0, 9.989381, 10.006171 
2.1951932e+3, 1.4447266e+2, -1249795.0, -1583460.9, 165651.34, -0.015551207, -0.30418804, -1181524.5, 342629.5, 0.36998203, 10.0040865, 9.9977865 
2.1951783e+3, 1.5447125e+2, -905824.44, -1443677.9, 182967.6, -0.024137983, -0.17064881, -849484.0, 576689.75, 0.22441484, 10.006001, 9.99705 
2.1951622e+3, 1.6446967e+2, -676677.94, -1319663.5, 109682.22, 0.01244259, -0.021761702, -658482.94, 669709.56, 0.11280566, 10.006492, 9.996912 
2.1951419e+3, 1.7446727e+2, -685628.4, -1317060.1, 106058.24, -0.1933189, 0.05227755, -668290.44, 561925.94, 0.04557731, 10.005449, 9.996747 
2.1951233e+3, 1.8446347e+2, -748639.25, -1432457.0, 87235.71, -0.22377065, 0.052590277, -737685.94, 394569.22, 0.01476265, 10.004749, 9.995614 
2.1951069e+3, 1.9445796e+2, -698555.6, -1389812.6, 66018.67, -0.026381906, -0.04349844, -692307.0, 342005.0, 0.00400128, 10.004519, 9.995345 
2.195087e+3, 2.0445377e+2, -575038.94, -1124893.6, -101660.555, 0.00907579, -0.060868043, -556845.3, 379508.22, 0.00069158024, 10.004022, 9.996729 
2.1950625e+3, 2.1445116e+2, -605219.6, -1100277.8, -112938.516, -0.157808, 0.005807825, -580671.94, 257704.52, 0.000020278492, 10.003189, 9.996627 
2.1950391e+3, 2.2444808e+2, -612393.06, -1037340.4, -114441.91, -0.20302, 0.03225647, -583532.94, 156873.06, 0.0, 10.002399, 9.996763 
2.1950173e+3, 2.3444444e+2, -633600.5, -1011884.0, -124857.22, -0.096794695, -0.0051989537, -596106.1, 46337.742, 0.0, 10.001645, 9.99663 
2.194994e+3, 2.4444179e+2, -541737.25, -665284.25, -232615.31, -0.03292995, -0.03680811, -362832.84, 181637.11, 0.0, 10.000522, 9.998877 
2.194968e+3, 2.5444043e+2, -672920.6, -673935.6, -234416.64, -0.025870945, -0.0735545, -439010.94, 7469.97, 0.0, 9.998931, 9.998911 
2.1949413e+3, 2.6444003e+2, -723610.56, -537622.2, -257136.7, -0.07782881, -0.044551477, -357180.44, -8696.143, 0.0, 9.997439, 9.999892 
2.1949138e+3, 2.744409e+2, -826443.5, -538521.6, -268821.4, -0.18484864, 0.04892627, -377540.44, -127062.305, 0.0, 9.996069, 9.999874 
2.19489e+3, 2.8444156e+2, -789509.56, -279509.3, -159068.94, -0.084739946, 0.05015231, -233963.28, -81490.4, 0.0, 9.99483, 10.001575 
2.194869e+3, 2.9444227e+2, -849744.3, -256396.89, -96936.7, 0.21523406, -0.04968801, -240961.63, -186496.05, 0.0, 9.993736, 10.00159 
2.194843e+3, 3.044432e+2, -1055234.5, -335139.44, -114267.3, -0.019583263, -0.10414348, -317442.03, -317442.03, 0.0, 9.992014, 10.001546 
2.1948166e+3, 3.1444678e+2, -1235880.9, -98600.47, -150153.47, -0.27531928, 0.09682732, -79109.95, -79109.95, 0.0, 9.989389, 10.004429 
2.205198e+3, 1.444934e+2, -1264283.5, -1565187.9, 30748.322, 0.057181932, -0.16063678, -1261173.6, 262781.75, 0.39348304, 10.003968, 9.997781 
2.205183e+3, 1.5449247e+2, -1081391.1, -1414040.5, 179345.34, -0.022191336, -0.100119315, -1003116.8, 422851.6, 0.24666728, 10.003943, 9.9983015 
2.2051677e+3, 1.644912e+2, -938406.75, -1478505.4, 97964.945, 0.01647241, 0.02168418, -921186.56, 406796.84, 0.1314405, 10.004633, 9.996711 
2.2051479e+3, 1.7448853e+2, -687129.0, -1354292.9, 79514.94, -0.13319083, 0.10261555, -677783.06, 552228.4, 0.058869634, 10.005668, 9.996384 
2.2051291e+3, 1.8448454e+2, -558219.6, -1311052.8, 72094.57, -0.16045053, 0.09310626, -551377.7, 580674.1, 0.022627676, 10.005995, 9.995849 
2.2051121e+3, 1.9447902e+2, -532069.7, -1276843.0, 110674.91, -0.019517582, -0.032548502, -515971.13, 518135.78, 0.007746029, 10.005544, 9.995628 
2.2050913e+3, 2.0447467e+2, -427214.4, -1090315.1, -36724.94, -0.007851319, -0.06417063, -425186.63, 510962.28, 0.0019888526, 10.005203, 9.996397 
2.2050664e+3, 2.1447173e+2, -366003.16, -1025560.5, -79623.92, -0.15936941, 0.006166414, -356526.84, 481648.72, 0.00019340088, 10.005009, 9.996262 
2.2050427e+3, 2.2446838e+2, -355873.03, -936821.7, -115303.805, -0.18656926, 0.03517162, -333824.88, 406383.0, 0.0000004394194, 10.004267, 9.996552 
2.20502e+3, 2.3446456e+2, -478392.7, -958275.1, -131647.94, -0.05429168, 0.00011054573, -444649.84, 197597.61, 0.0, 10.002809, 9.996435 
2.2049952e+3, 2.444618e+2, -479871.72, -660423.5, -278749.88, 0.012400895, -0.018971588, -277143.8, 267131.0, 0.0, 10.001058, 9.998651 
2.204967e+3, 2.5446048e+2, -696916.5, -711099.7, -315502.38, -0.008955545, -0.0257328, -388426.03, 57860.08, 0.0, 9.998881, 9.998679 
2.2049387e+3, 2.6446003e+2, -763029.8, -543572.25, -316390.22, -0.077357545, 0.0020349068, -318423.16, 29867.117, 0.0, 9.997116, 10.000006 
2.2049099e+3, 2.7446058e+2, -862163.3, -539590.06, -293008.75, -0.18400978, 0.045611195, -366410.66, -116124.56, 0.0, 9.995759, 10.000014 
2.2048843e+3, 2.8446123e+2, -900468.44, -273811.88, -204888.42, -0.07051052, 0.01783602, -212768.83, -60488.9, 0.0, 9.993815, 10.002104 
2.2048621e+3, 2.9446268e+2, -1167252.6, -339107.03, -207858.88, 0.27137917, -0.06307739, -289863.97, -235598.39, 0.0, 9.991262, 10.0022135 
2.2048345e+3, 3.0446613e+2, -1339949.5, -418656.88, -158136.28, 0.03420268, 0.07240332, -392269.22, -392269.22, 0.0, 9.989827, 10.002031 
2.2048055e+3, 3.144675e+2, -1217198.4, -87587.08, 26889.375, -0.3241235, 0.012298504, -86947.37, -86947.37, 0.0, 9.989516, 10.004439 
2.2152044e+3, 1.4451632e+2, -1312854.4, -1657455.6, -145161.47, 0.3081912, 0.31232157, -1259856.6, 263887.28, 0.42148003, 10.003854, 9.997343 
2.215187e+3, 1.5451436e+2, -996575.25, -1202988.1, 179540.8, -0.034182977, 0.09113682, -892691.2, 533070.1, 0.27351645, 10.003931, 10.000179 
2.2151719e+3, 1.6451219e+2, -968603.44, -1523390.8, 134159.45, -0.025463266, 0.036152307, -937864.0, 389918.2, 0.15488192, 10.004618, 9.996423 
2.2151563e+3, 1.7450808e+2, -734043.44, -1427367.1, 118864.914, 0.13224642, 0.01981571, -714231.1, 515592.94, 0.0769518, 10.005627, 9.995909 
2.215138e+3, 1.8450445e+2, -503376.16, -1168026.9, 58473.07, 0.11309154, 0.023689795, -498271.16, 633589.0, 0.034699146, 10.005951, 9.996852 
2.2151168e+3, 1.9450158e+2, -458140.84, -1115846.8, 95573.57, -0.09063314, 0.05253103, -444534.22, 589352.9, 0.014578402, 10.00555, 9.996731 
2.215095e+3, 2.0449765e+2, -470814.97, -1183139.0, -43532.684, -0.15619606, 0.03486825, -468164.38, 467759.8, 0.005073765, 10.005223, 9.99575 
2.2150725e+3, 2.1449235e+2, -417272.63, -1132977.3, -84088.586, -0.062029656, -0.055370636, -407525.75, 430448.94, 0.0010297977, 10.005016, 9.995521 
2.2150484e+3, 2.2448812e+2, -374002.75, -976664.8, -166098.06, -0.03664949, -0.06412697, -331256.8, 408759.34, 0.000049177605, 10.004273, 9.996278 
2.2150224e+3, 2.3448512e+2, -494431.34, -993017.9, -184604.78, -0.08728798, 0.008426064, -433521.38, 208526.02, 0.00000000960994, 10.002812, 9.996197 
2.2149952e+3, 2.4448259e+2, -525434.5, -752849.3, -360097.8, -0.09953314, 0.05226665, -261518.03, 282555.97, 0.0, 10.001049, 9.998021 
2.2149654e+3, 2.5448078e+2, -740313.1, -804403.5, -396355.53, -0.07346247, 0.05929737, -374709.47, 71383.96, 0.0, 9.998894, 9.998034 
2.2149363e+3, 2.6448008e+2, -722838.44, -460433.66, -370895.5, -0.028415423, 0.07099414, -198218.28, 149881.23, 0.0, 9.997118, 10.000576 
2.214908e+3, 2.7448055e+2, -815597.4, -446986.44, -345704.3, 0.054564364, 0.043630764, -239526.69, 10564.634, 0.0, 9.995775, 10.000643 
2.2148791e+3, 2.8448087e+2, -921609.2, -316518.34, -303945.72, 0.03762121, -0.036184072, -190208.64, -38120.09, 0.0, 9.993813, 10.001812 
2.2148493e+3, 2.9448214e+2, -1185753.4, -374371.7, -302847.44, -0.13237306, -0.102014326, -273800.1, -219718.52, 0.0, 9.991248, 10.001979 
2.214823e+3, 3.044908e+2, -1134667.9, 14183.978, -175046.05, -0.093993306, 0.4220574, 40263.06, 40263.06, 0.0, 9.989797, 10.005019 
2.2147968e+3, 3.1449062e+2, -1082597.6, 173244.2, 43155.168, -0.1441155, -0.09801235, 174725.42, 174725.42, 0.0, 9.98959, 10.006199 
2.2252029e+3, 1.4453386e+2, -1543049.8, -1621720.1, -129340.44, -0.05418651, -0.03936243, -1447195.4, 76380.266, 0.45779788, 10.000476, 9.999223 
2.2251914e+3, 1.5453485e+2, -958710.25, -1235766.8, 259966.39, -0.039272115, 0.08802042, -802666.6, 622899.5, 0.30826306, 10.004809, 9.999542 
2.2251765e+3, 1.6453339e+2, -702329.2, -1239838.6, 95872.28, -0.1113469, 0.0823549, -685741.0, 641838.7, 0.1859454, 10.0063715, 9.997642 
2.2251612e+3, 1.745299e+2, -897041.25, -1356121.8, 197285.63, 0.13429548, -0.010402126, -823909.5, 405703.28, 0.10236639, 10.00383, 9.997294 
2.225143e+3, 1.8452689e+2, -826978.6, -1289327.6, 261067.3, 0.15124224, -0.03291728, -709444.4, 422196.34, 0.05342353, 10.003534, 9.997212 
2.2251226e+3, 1.9452463e+2, -357976.34, -1030060.75, 242623.88, -0.08958998, 0.030994793, -279542.13, 754119.0, 0.026763532, 10.006165, 9.997038 
2.2251013e+3, 2.0452102e+2, -178146.17, -1078473.3, 39648.234, -0.15126824, 0.044274922, -176403.53, 759292.44, 0.011756485, 10.007455, 9.995394 
2.2250791e+3, 2.1451557e+2, -149863.98, -1047683.56, 17856.867, -0.003300642, -0.020383561, -149508.97, 688241.3, 0.0036995935, 10.007061, 9.995122 
2.2250542e+3, 2.2451103e+2, -135337.8, -899479.0, -95889.234, 0.03471109, -0.021551466, -123488.76, 616306.6, 0.0005854799, 10.006082, 9.995936 
2.2250263e+3, 2.3450758e+2, -298424.34, -935532.5, -128328.78, -0.055872202, 0.03914771, -273547.25, 368282.8, 0.000019397194, 10.004321, 9.995863 
2.2249968e+3, 2.4450454e+2, -340141.44, -713397.4, -311755.28, -0.089734435, 0.07491596, -163421.97, 380439.1, 0.0, 10.002536, 9.997577 
2.2249651e+3, 2.5450224e+2, -517210.72, -743522.6, -336498.38, -0.05970172, 0.07797489, -275351.97, 170534.22, 0.0, 10.000631, 9.997612 
2.2249341e+3, 2.6450142e+2, -544938.44, -353804.56, -318571.7, 0.00033469344, 0.09235996, -116774.2, 231119.4, 0.0, 9.998248, 10.000765 
2.224904e+3, 2.745023e+2, -882217.3, -451998.84, -330422.63, 0.11356757, 0.084754385, -272835.22, -22954.39, 0.0, 9.995207, 10.000882 
2.2248726e+3, 2.845029e+2, -1071084.8, -356368.56, -282452.56, 0.073634006, 0.0043735104, -258222.25, -106347.05, 0.0, 9.99265, 10.002099 
2.2248396e+3, 2.9450396e+2, -1256501.0, -383408.6, -236794.61, -0.19554262, -0.10923553, -323321.84, -269451.8, 0.0, 9.990655, 10.002204 
2.2248115e+3, 3.045131e+2, -1266357.9, 67674.05, -136850.13, -0.1493857, 0.40247148, 81567.95, 81567.95, 0.0, 9.988385, 10.006068 
2.2247842e+3, 3.145142e+2, -1625833.4, -31253.682, -112850.58, -0.17779772, -0.10618711, -23306.7, -23306.7, 0.0, 9.98563, 10.006703 
2.2351961e+3, 1.5455392e+2, -1184070.9, -1659402.4, 432189.28, -0.041181974, -0.09189126, -928509.94, 496873.06, 0.3564812, 10.004653, 9.996618 
2.2351813e+3, 1.6455474e+2, -616681.75, -958459.0, 25830.096, -0.25036666, 0.16158211, -614740.6, 712635.75, 0.22981998, 10.006155, 10.000295 
2.2351624e+3, 1.745537e+2, -724410.94, -945388.5, 98022.586, -0.12803526, 0.0065316735, -687196.6, 542182.9, 0.13985662, 10.003798, 10.000409 
2.2351445e+3, 1.8455164e+2, -854593.1, -1332027.6, 341578.28, -0.045461863, -0.07790508, -676583.06, 454812.75, 0.08316904, 10.003563, 9.99694 
2.2351293e+3, 1.9454809e+2, -406203.8, -1104358.8, 337098.03, -0.024123799, -0.09595637, -270008.0, 763422.06, 0.04823318, 10.0061655, 9.996552 
2.2351101e+3, 2.0454468e+2, -196393.14, -1092912.5, 31938.482, -0.007931, -0.033078153, -195256.78, 740208.44, 0.025222173, 10.007444, 9.995298 
2.2350861e+3, 2.1454121e+2, -158022.84, -1058693.9, 6538.6143, 0.009689573, 0.109288335, -157975.38, 679528.25, 0.010364733, 10.007075, 9.995041 
2.2350603e+3, 2.2453694e+2, -166538.31, -963401.5, -157027.02, 0.021463702, 0.1594461, -136711.55, 602835.6, 0.0027585654, 10.006088, 9.995494 
2.2350314e+3, 2.3453169e+2, -328787.28, -1000730.3, -193025.14, 0.02943819, 0.0867957, -277285.47, 364311.72, 0.0003335788, 10.00433, 9.995411 
2.2350004e+3, 2.4452755e+2, -360094.03, -753426.0, -384320.66, 0.03044197, 0.04570383, -125042.67, 418594.84, 0.000006149916, 10.00253, 9.997305 
2.2349666e+3, 2.5452477e+2, -532298.8, -777154.56, -407814.38, 0.01715121, 0.02538539, -228931.94, 216733.9, 0.0, 10.00064, 9.997378 
2.2349323e+3, 2.6452398e+2, -560391.5, -385748.0, -433853.5, -0.003789989, 0.064917505, -30515.861, 317157.94, 0.0, 9.998248, 10.000546 
2.2348979e+3, 2.745258e+2, -893100.94, -476989.22, -445270.22, -0.017671159, 0.170984, -193564.84, 56090.727, 0.0, 9.995215, 10.000709 
2.2348647e+3, 2.8452715e+2, -1006599.2, -224533.39, -361694.34, 0.022150157, 0.13511227, -82903.625, 68737.46, 0.0, 9.992658, 10.003001 
2.2348328e+3, 2.9452795e+2, -1206014.4, -284999.03, -311394.25, 0.06694394, -0.10083699, -189598.7, -135966.47, 0.0, 9.99068, 10.002869 
2.2348e+3, 3.045326e+2, -1359863.0, -117594.63, -242329.47, -0.11253707, -0.002253221, -71997.05, -71997.05, 0.0, 9.988354, 10.004808 
2.2347686e+3, 3.1454137e+2, -1701467.6, -176229.33, -333320.6, -0.28684637, 0.3614135, -106568.125, -106568.125, 0.0, 9.98557, 10.005743 
2.2452042e+3, 1.5457767e+2, -1067108.3, -1281638.9, 115802.445, 0.28733996, 0.3101183, -1016525.4, 408627.9, 0.42708495, 10.004472, 9.99953 
2.2451824e+3, 1.6457668e+2, -1630104.3, -1295112.3, 188166.84, -0.2964996, 0.1467502, -1210692.3, 116472.484, 0.29534465, 9.997012, 10.001914 
2.2451665e+3, 1.745787e+2, -689588.1, -804599.8, 144855.14, -0.080505885, 0.15632571, -591241.7, 637897.94, 0.19786435, 10.003705, 10.001822 
2.2451508e+3, 1.845782e+2, -360659.56, -970951.25, 311403.6, 0.053294465, 0.1125708, -229816.66, 901324.4, 0.13171135, 10.007115, 9.997815 
2.2451366e+3, 1.9457439e+2, -315447.75, -964906.5, 403409.38, 0.06235619, -0.010101186, -122308.15, 910869.25, 0.08578967, 10.006652, 9.997352 
2.2451182e+3, 2.04571e+2, -250139.33, -1098515.5, 157624.28, 0.05396658, 0.004978945, -221800.13, 713412.1, 0.050821908, 10.007139, 9.995418 
2.2450942e+3, 2.1456781e+2, 59180.926, -936271.3, 138269.77, 0.037388973, 0.17041792, 78029.89, 915277.8, 0.024574641, 10.0086355, 9.99513 
2.2450677e+3, 2.2456361e+2, 197925.77, -794034.75, -83591.84, 0.029664392, 0.22795253, 204920.66, 944211.25, 0.008500167, 10.00868, 9.99541 
2.2450371e+3, 2.3455817e+2, 24605.293, -838657.75, -98212.42, 0.034282632, 0.1459311, 35637.81, 676980.1, 0.0017347315, 10.006807, 9.995332 
2.2450043e+3, 2.4455377e+2, -76917.43, -605637.1, -282151.63, 0.06328207, 0.08087562, 45369.42, 588752.94, 0.00013416773, 10.004428, 9.997404 
2.2449686e+3, 2.5455064e+2, -418610.84, -710807.9, -283257.03, 0.10752587, 0.017755479, -245994.27, 199417.94, 0.00000019885712, 10.001368, 9.997484 
2.2449315e+3, 2.645496e+2, -532692.0, -395719.56, -304171.34, 0.058539115, 0.038464207, -152419.7, 195002.8, 0.0, 9.998539, 10.000335 
2.2448929e+3, 2.745514e+2, -790675.25, -452276.84, -320077.9, -0.068745874, 0.16330428, -259428.77, -10020.63, 0.0, 9.996024, 10.000485 
2.2448573e+3, 2.8455347e+2, -885945.2, -116297.13, -250465.45, -0.018416064, 0.18942982, -41967.074, 109420.71, 0.0, 9.993269, 10.003448 
2.244824e+3, 2.9455557e+2, -1272676.6, -265543.72, -244679.53, 0.15542975, 0.03929908, -209246.56, -155882.33, 0.0, 9.990009, 10.003322 
2.2447869e+3, 3.045584e+2, -1699532.9, -268320.7, -149276.34, -0.14087464, -0.06830178, -252916.84, -252916.84, 0.0, 9.985976, 10.004917 
2.2447532e+3, 3.145694e+2, -2209957.5, -350362.56, -93903.61, -0.20923957, 0.50166225, -345632.78, -345632.78, 0.0, 9.981775, 10.006381 
2.2551797e+3, 1.6459914e+2, -1620117.3, -1298900.9, 333990.4, -0.28627804, 0.049484883, -1088908.9, 238036.73, 0.39648333, 9.997131, 10.00232 
2.2551736e+3, 1.7460471e+2, -773566.75, -884382.1, 308429.34, 0.25135723, 0.4309113, -515607.75, 713285.9, 0.29024982, 10.003613, 10.001567 
2.2551619e+3, 1.8460643e+2, -350263.22, -776672.6, 277614.5, 0.42167294, 0.52696174, -213430.7, 917446.5, 0.21208577, 10.006899, 9.999741 
2.2551443e+3, 1.9460335e+2, -245402.36, -714901.56, 359893.4, 0.15530176, 0.27683324, -50465.29, 982439.5, 0.15076359, 10.006652, 9.999347 
2.255125e+3, 2.0459977e+2, -255043.28, -1052993.0, 206875.19, 0.026036607, 0.15364957, -204598.2, 730340.7, 0.09713344, 10.0072155, 9.995716 
2.2551033e+3, 2.145952e+2, 55025.773, -906541.0, 194655.06, 0.06916047, 0.16110007, 92936.19, 929920.8, 0.05158948, 10.008692, 9.995319 
2.2550765e+3, 2.2459091e+2, 206966.95, -753727.25, -142375.33, 0.04541512, 0.18542357, 227622.9, 966650.06, 0.02036652, 10.008693, 9.995683 
2.255043e+3, 2.3458686e+2, 43504.29, -795346.2, -165558.64, -0.04977336, 0.21572752, 74997.22, 716063.7, 0.0052535688, 10.00681, 9.995628 
2.255008e+3, 2.4458313e+2, -48848.234, -542497.7, -395375.78, 0.001012735, 0.18001822, 170421.92, 713521.94, 0.00068040716, 10.004411, 9.997848 
2.2549707e+3, 2.5457984e+2, -386276.16, -644354.6, -397481.22, 0.20243457, 0.05235388, -97412.94, 347713.13, 0.00001593548, 10.00137, 9.99794 
2.2549309e+3, 2.6457828e+2, -546601.94, -429021.53, -401643.34, 0.17851883, 0.0070630037, -81888.5, 265252.06, 0.0, 9.998554, 10.000101 
2.2548889e+3, 2.7457896e+2, -808870.8, -496881.22, -410849.53, -0.056118138, 0.05148129, -213408.47, 35731.33, 0.0, 9.99605, 10.000169 
2.2548501e+3, 2.8458172e+2, -888601.75, -126825.6, -374265.4, -0.05858311, 0.16732779, 26281.006, 177397.02, 0.0, 9.99329, 10.003368 
2.254813e+3, 2.9458696e+2, -1256616.6, -234202.64, -377136.0, 0.062397975, 0.33681577, -110142.64, -57077.527, 0.0, 9.990016, 10.003536 
2.2547714e+3, 3.0459067e+2, -1573880.0, 780.82684, -316614.63, -0.26831344, 0.20423628, 62057.51, 62057.51, 0.0, 9.985939, 10.006785 
2.2547358e+3, 3.1459588e+2, -2022289.1, 54490.4, -3949.7686, -0.103888996, 0.033706255, 54497.91, 54497.91, 0.0, 9.9817095, 10.0091915 
2.2651765e+3, 1.7462586e+2, -665852.75, -813696.5, 133361.52, 0.092394315, 0.03755042, -587296.0, 641389.9, 0.43829063, 10.005713, 10.002308 
2.2651562e+3, 1.8462977e+2, -1360069.5, -1076693.8, 585941.94, -0.36487854, 0.16968703, -615552.2, 515094.25, 0.34479478, 9.997885, 10.002525 
2.2651494e+3, 1.9463257e+2, -108950.0, -411312.16, 631192.56, -0.043539982, 0.23432851, 388914.2, 1421534.0, 0.26097748, 10.007537, 10.002128 
2.2651358e+3, 2.0463201e+2, 416344.53, -628035.4, 459378.66, 0.09842956, 0.24215639, 589648.0, 1524273.5, 0.1768408, 10.0130625, 9.9962435 
2.265114e+3, 2.14627e+2, 624062.7, -562679.06, 484289.16, 0.0409116, 0.16643831, 796606.3, 1633280.6, 0.09810339, 10.013171, 9.99572 
2.2650862e+3, 2.2462256e+2, 613886.4, -560778.75, 62936.47, -0.0032232536, 0.16524537, 617248.75, 1355967.0, 0.04075556, 10.011805, 9.9955635 
2.2650507e+3, 2.346188e+2, 274208.6, -692348.9, 6329.768, -0.024301155, 0.23821996, 274250.03, 915006.8, 0.011470923, 10.008493, 9.995526 
2.2650132e+3, 2.4461563e+2, 161657.56, -344928.03, -230660.8, 0.037913572, 0.22453865, 250945.63, 793730.25, 0.0018148163, 10.005445, 9.99871 
2.2649725e+3, 2.5461322e+2, -128545.16, -418892.25, -201109.56, 0.1765872, 0.09780468, -25685.615, 419113.56, 0.00009003899, 10.002703, 9.998845 
2.2649297e+3, 2.646119e+2, -403187.25, -373604.84, -187174.7, 0.15485653, 0.03953178, -200637.83, 146172.58, 0.00000007768343, 9.9995985, 9.999976 
2.2648855e+3, 2.74612e+2, -825234.9, -526847.56, -190823.14, -0.0012962453, 0.04409685, -433817.72, -185000.69, 0.0, 9.996032, 9.99997 
2.2648433e+3, 2.8461462e+2, -1028946.25, -182298.27, -159603.25, -0.0025915469, 0.15484194, -153210.5, -2414.4204, 0.0, 9.992274, 10.003474 
2.2648017e+3, 2.9462057e+2, -1478401.4, -314198.7, -158213.0, 0.027324552, 0.38729307, -293080.9, -240341.17, 0.0, 9.988376, 10.0037775 
2.264757e+3, 3.0462536e+2, -1750492.9, 26196.22, -161922.89, -0.22466262, 0.29916677, 40832.88, 40832.88, 0.0, 9.984257, 10.007768 
2.264717e+3, 3.1462985e+2, -2228829.0, 48506.563, 164454.27, -0.05600961, -0.027933951, 60321.08, 60321.08, 0.0, 9.979906, 10.0100155 
2.2751527e+3, 1.9466254e+2, -197237.16, -284897.5, 693025.2, -0.48004964, -0.060986135, 453342.47, 1485660.6, 0.4413974, 10.007572, 10.005531 
2.2751504e+3, 2.0466742e+2, 255180.5, -595253.6, 413658.94, 0.2524346, 0.27193058, 423194.66, 1357470.0, 0.30473864, 10.013173, 9.996978 
2.2751263e+3, 2.1466288e+2, 558194.25, -507030.38, 457984.34, -0.06062857, 0.18225977, 728024.5, 1564344.6, 0.16945626, 10.013291, 9.996299 
2.2750966e+3, 2.2465831e+2, 546241.1, -631389.1, -45634.805, -0.12455081, 0.16419162, 548006.94, 1286373.6, 0.070021816, 10.011852, 9.995056 
2.2750606e+3, 2.3465376e+2, 229394.02, -768823.94, -112128.81, 0.09922529, 0.20917517, 241834.3, 882249.75, 0.019668013, 10.008483, 9.995007 
2.2750197e+3, 2.446511e+2, 246745.55, -160084.6, -336132.8, 0.15836847, 0.2103612, 436221.0, 978660.1, 0.0032224357, 10.005415, 10.000002 
2.2749734e+3, 2.546507e+2, -34881.64, -223279.38, -302590.72, 0.016418366, 0.15413927, 187833.64, 632266.06, 0.00019927301, 10.002698, 10.000194 
2.2749275e+3, 2.6465058e+2, -401013.1, -373611.72, -322285.06, -0.02222314, 0.14131495, -64736.27, 281695.56, 0.00000055521167, 9.999615, 9.999971 
2.2748823e+3, 2.7465066e+2, -825462.06, -532309.56, -324899.13, 0.088289395, 0.15335104, -322453.47, -74015.234, 0.0, 9.996051, 9.999927 
2.2748369e+3, 2.8465232e+2, -1003541.25, -130900.625, -306146.53, 0.14161612, 0.14830507, -34209.574, 116217.25, 0.0, 9.992275, 10.003831 
2.2747903e+3, 2.9465625e+2, -1461136.5, -273088.6, -300298.47, 0.035727926, 0.14681739, -201497.33, -149107.63, 0.0, 9.988348, 10.004078 
2.2747436e+3, 3.0466297e+2, -1768029.5, -144.32011, -324846.53, 0.017226528, 0.24404384, 57656.04, 57656.04, 0.0, 9.984212, 10.007612 
2.2746968e+3, 3.1467196e+2, -2369019.5, -256135.22, -100137.22, -0.082477525, 0.38179067, -251399.95, -251399.95, 0.0, 9.979945, 10.007917 
2.2851677e+3, 2.0471005e+2, 164662.02, -616313.06, 649269.75, 0.49553066, 0.27826706, 531823.3, 1465683.9, 0.48699567, 10.016357, 9.996613 
2.2851425e+3, 2.1470499e+2, 1160452.1, -207209.1, 804888.94, -0.10137705, 0.18032415, 1532779.9, 2368686.0, 0.26253295, 10.02053, 9.99596 
2.2851115e+3, 2.2470038e+2, 1404106.3, -251518.06, 157687.17, -0.17989907, 0.20977744, 1418991.0, 2156942.0, 0.10409327, 10.01905, 9.994535 
2.285071e+3, 2.3469421e+2, 602711.4, -629592.6, 107605.68, 0.1654029, 0.1378962, 612037.0, 1252052.0, 0.027705496, 10.011381, 9.994569 
2.2850262e+3, 2.4469112e+2, 318949.84, -126923.51, -54796.42, 0.23796368, 0.1255346, 325585.4, 867630.0, 0.0042652385, 10.005926, 9.999984 
2.2849758e+3, 2.5469172e+2, 16556.168, -199845.98, -119506.51, -0.009868452, 0.16961461, 69567.0, 513599.97, 0.00025474865, 10.003054, 10.000183 
2.2849265e+3, 2.6469252e+2, -344187.75, -234336.02, -191917.16, -0.06612221, 0.20414989, -89639.625, 256384.83, 0.0000007398718, 9.999525, 10.00097 
2.2848782e+3, 2.746935e+2, -850795.06, -428581.22, -116819.35, 0.11385176, 0.20677143, -398414.66, -150395.33, 0.0, 9.995377, 10.000962 
2.2848289e+3, 2.8469548e+2, -1112280.1, -129276.414, -55041.598, 0.16383535, 0.16403721, -126204.055, 23799.264, 0.0, 9.991301, 10.00431 
2.2847776e+3, 2.9469907e+2, -1598489.4, -300230.06, -49411.38, 0.007026444, 0.08683822, -298352.2, -246381.47, 0.0, 9.987247, 10.004416 
2.2847283e+3, 3.0470672e+2, -1873081.5, -33300.84, -61825.14, 0.11168434, 0.2640587, -31225.568, -31225.568, 0.0, 9.983424, 10.007759 
2.284676e+3, 3.147164e+2, -2441969.3, -346339.75, 121350.8, -0.11165676, 0.4503187, -339336.16, -339336.16, 0.0, 9.979687, 10.007419 
2.2951633e+3, 2.1475291e+2, 878183.56, -389195.88, 805951.94, -0.09723328, 0.1633535, 1269735.9, 2105172.5, 0.3584029, 10.020847, 9.994727 
2.2951303e+3, 2.247484e+2, 1291498.3, -338507.28, -92028.695, -0.18668148, 0.29709524, 1296677.6, 2034152.0, 0.13471831, 10.01897, 9.994019 
2.2950822e+3, 2.3473988e+2, 570835.6, -679759.7, -167533.83, 0.15848117, 0.025706, 592890.06, 1232448.0, 0.033430565, 10.011359, 9.994242 
2.2950323e+3, 2.4473558e+2, 221571.55, -323047.53, -170977.27, 0.26213238, -0.025762433, 270798.5, 812400.9, 0.004637566, 10.0058975, 9.998647 
2.2949797e+3, 2.547361e+2, -80886.09, -400531.66, -227411.25, 0.08831816, 0.14641781, 37246.504, 480848.38, 0.00023497068, 10.003045, 9.99881 
2.2949268e+3, 2.647376e+2, -197122.86, 66522.734, -350160.3, 0.010961554, 0.22472341, 308851.63, 654440.5, 0.00000038868882, 9.999538, 10.003035 
2.294873e+3, 2.747404e+2, -697257.94, -112937.164, -269565.6, 0.057160202, 0.19350974, -7576.091, 239984.44, 0.0, 9.995383, 10.003131 
2.2948189e+3, 2.847444e+2, -1074391.8, -50372.184, -207129.53, 0.044488765, 0.21067862, -10062.623, 139460.45, 0.0, 9.991294, 10.004858 
2.2947639e+3, 2.9474968e+2, -1578210.4, -256272.52, -199792.47, -0.07748322, 0.25475934, -226736.6, -175260.3, 0.0, 9.987232, 10.004731 
2.2947107e+3, 3.0475655e+2, -1834355.9, 45113.758, -191056.72, 0.03461279, 0.31986248, 64338.9, 64338.9, 0.0, 9.983426, 10.008301 
2.2946565e+3, 3.147641e+2, -2336358.5, -122482.55, -50225.277, -0.03869496, 0.22404043, -121343.695, -121343.695, 0.0, 9.979674, 10.008957 
2.30519e+3, 2.148059e+2, 1836205.4, -235610.38, 650868.7, -0.3361088, 0.107051335, 2023708.8, 2858620.3, 0.4248767, 10.036945, 9.989357 
2.3051533e+3, 2.2479884e+2, 1215389.3, -340713.6, -76904.36, 0.24280986, 0.25812483, 1219180.8, 1956160.9, 0.15349944, 10.018598, 9.994239 
2.305094e+3, 2.3479092e+2, 955188.4, -443960.28, -80479.7, 0.07801353, 0.005668337, 959802.4, 1598857.3, 0.03615497, 10.013925, 9.994669 
2.3050371e+3, 2.4478686e+2, 604416.9, -120396.7, 63478.094, 0.035785306, -0.04692989, 609934.2, 1151030.8, 0.0046005296, 10.008471, 9.998806 
2.3049824e+3, 2.547872e+2, -176988.92, -433226.56, 123275.11, 0.10490044, 0.100346014, -127312.4, 315787.44, 0.00019833684, 10.002329, 9.998927 
2.304926e+3, 2.647891e+2, -443109.78, 45274.723, 35975.32, 0.11698413, 0.17467389, 47910.508, 392994.78, 0.00000011759851, 9.997437, 10.003896 
2.3048677e+3, 2.747929e+2, -846728.5, -86672.81, 15396.977, 0.08597045, 0.16628234, -86361.03, 160684.7, 0.0, 9.993943, 10.004 
2.3048094e+3, 2.84798e+2, -1201237.9, -62169.434, 17079.836, 0.02664771, 0.23326421, -61913.387, 87083.914, 0.0, 9.990217, 10.005293 
2.3047502e+3, 2.9480433e+2, -1681277.8, -253229.92, 17043.074, -0.105029896, 0.34655944, -253026.55, -202086.53, 0.0, 9.9863, 10.005199 
2.3046936e+3, 3.048101e+2, -1902368.4, 47120.664, 53312.01, 0.026044514, 0.26440904, 48577.48, 48577.48, 0.0, 9.98281, 10.008612 
2.304637e+3, 3.1481758e+2, -2372510.0, -111374.75, 57571.56, 0.06741302, 0.14087217, -109909.85, -109909.85, 0.0, 9.979316, 10.0092 
2.3152222e+3, 2.1486346e+2, 1409026.1, -1160742.9, 2524.0144, -0.78764343, 0.0070869992, 1409028.5, 2243365.0, 0.4331433, 10.036648, 9.980142 
2.31518e+3, 2.2485158e+2, 1254987.5, -232193.88, -252806.13, 1.0517141, 0.10181218, 1296787.1, 2033255.9, 0.15543284, 10.018502, 9.995177 
2.315106e+3, 2.3484708e+2, 1024717.56, -288803.34, -241566.86, -0.09996421, 0.076699674, 1067734.9, 1706242.9, 0.03622218, 10.013873, 9.995802 
2.3150405e+3, 2.4484472e+2, 710971.1, 111824.48, -169720.7, -0.45242456, 0.055314317, 755707.6, 1296236.6, 0.004530112, 10.008418, 10.000439 
2.3149839e+3, 2.5484493e+2, -67312.21, -200234.48, -106541.3, 0.029551981, 0.030610364, -8202.13, 434325.25, 0.00019201046, 10.002302, 10.000545 
2.3149246e+3, 2.64847e+2, -472209.5, -17498.135, -99666.09, 0.24026595, 0.05975112, 3387.872, 347897.47, 0.000000044573795, 9.997439, 10.003468 
2.3148626e+3, 2.7485114e+2, -882868.1, -161860.23, -114116.34, 0.18704268, 0.13214104, -144229.78, 102243.42, 0.0, 9.993937, 10.00349 
2.3148e+3, 2.8485638e+2, -1176858.6, -10979.463, -127616.26, 0.1062414, 0.22472608, 2825.846, 151250.55, 0.0, 9.990209, 10.005652 
2.3147368e+3, 2.9486302e+2, -1634038.6, -156393.42, -120446.22, -0.06644853, 0.32675603, -146639.95, -96277.836, 0.0, 9.986298, 10.00587 
2.3146768e+3, 3.0486807e+2, -1900617.0, 51119.43, -63183.598, 0.06006577, 0.12314106, 53162.734, 53162.734, 0.0, 9.9828, 10.008649 
2.3146161e+3, 3.1487924e+2, -2431496.3, -240336.34, -187030.55, 0.08681366, 0.39972058, -224486.66, -224486.66, 0.0, 9.979335, 10.008311 
2.325257e+3, 2.1492425e+2, 1288380.8, -1361743.6, -502581.56, -0.7346814, -0.03827167, 1380491.1, 2214230.5, 0.37813038, 10.032641, 9.980987 
2.325198e+3, 2.2491306e+2, 1416613.4, -39356.16, 41692.723, 1.0131488, 0.022108637, 1417806.3, 2153674.5, 0.1394872, 10.0188875, 9.996449 
2.3251185e+3, 2.349108e+2, 903538.9, -229054.14, 108246.01, -0.14052635, 0.11970268, 913791.5, 1551675.3, 0.033646736, 10.012456, 9.996896 
2.3250476e+3, 2.449094e+2, 481708.6, 43463.13, 144551.6, -0.47533602, 0.13069293, 525092.9, 1064987.1, 0.004479695, 10.006666, 10.0008 
2.3249859e+3, 2.5490922e+2, -134676.36, -193577.92, 112011.9, 0.045896977, 0.039397158, -48308.26, 393588.16, 0.00022050577, 10.001682, 10.000882 
2.3249221e+3, 2.6491106e+2, -470396.03, -38201.125, 162218.02, 0.2553672, 0.04298271, 15910.215, 359791.2, 0.00000005839305, 9.997559, 10.003262 
2.3248562e+3, 2.7491498e+2, -831964.3, -162117.11, 161998.11, 0.16113785, 0.12479569, -124996.08, 120850.72, 0.0, 9.994403, 10.003261 
2.3247902e+3, 2.8491974e+2, -1060950.0, 58445.406, 132735.81, 0.08403373, 0.18093942, 73969.67, 221772.42, 0.0, 9.990954, 10.005765 
2.3247236e+3, 2.949259e+2, -1485917.1, -64629.918, 113495.04, -0.041014463, 0.23326597, -55623.984, -5880.7603, 0.0, 9.987238, 10.006039 
2.3246597e+3, 3.0493194e+2, -1875309.3, 64526.484, 129689.59, 0.08199442, 0.11970993, 73158.59, 73158.59, 0.0, 9.982977, 10.008653 
2.324595e+3, 3.1494388e+2, -2554497.0, -253427.66, 5965.056, 0.10561296, 0.4858794, -253412.19, -253412.19, 0.0, 9.978311, 10.008711 
2.3352934e+3, 2.1498826e+2, 2043543.0, -189135.55, -1062495.4, -0.31148285, -0.037276205, 2468342.8, 3301462.3, 0.28446433, 10.032065, 9.990793 
2.3352082e+3, 2.249827e+2, 1556444.0, 150348.63, -164828.88, 0.17651793, 0.011256419, 1575507.5, 2310691.8, 0.10979227, 10.018756, 9.997797 
2.3351316e+3, 2.3498176e+2, 970658.2, -85979.234, -119204.27, -0.046779577, 0.13923708, 983939.25, 1621124.6, 0.02815198, 10.012365, 9.997938 
2.3350582e+3, 2.4498074e+2, 406187.94, -101335.45, -46344.67, -0.06488048, 0.18189847, 410385.2, 949579.5, 0.004140881, 10.006604, 9.999832 
2.3349883e+3, 2.5497997e+2, -205740.22, -336807.78, -74394.74, 0.13200377, 0.13031617, -172131.39, 269076.16, 0.00024322345, 10.0016575, 9.999912 
2.3349185e+3, 2.649812e+2, -466096.25, -37337.734, 42249.3, 0.14532383, 0.12447078, -33214.203, 309983.9, 0.00000011182218, 9.997584, 10.00326 
2.3348486e+3, 2.7498445e+2, -824172.94, -156149.14, 45699.258, -0.011903417, 0.13617285, -153037.38, 92128.664, 0.0, 9.994437, 10.003289 
2.3347795e+3, 2.8498825e+2, -1072642.5, 26466.986, -5143.9736, -0.06125187, 0.10373764, 26491.06, 173620.23, 0.0, 9.99098, 10.005536 
2.3347105e+3, 2.9499343e+2, -1513686.5, -130248.19, -18991.906, -0.052415606, 0.083395556, -129987.516, -80907.984, 0.0, 9.987264, 10.00558 
2.3346426e+3, 3.0500183e+2, -1872199.1, 68023.69, -53345.824, 0.103236966, 0.23730461, 69489.305, 69489.305, 0.0, 9.98298, 10.008679 
2.334574e+3, 3.1500918e+2, -2481035.0, -108851.625, -15590.182, 0.19865099, 0.12434827, -108749.17, -108749.17, 0.0, 9.978329, 10.009703 
2.3454331e+3, 2.0506993e+2, 73826.914, -777826.1, -658756.56, 0.10660608, 0.027569324, 432403.63, 1362709.4, 0.34695348, 10.01258, 9.996136 
2.3453201e+3, 2.1506564e+2, 932803.7, -356449.8, -719011.25, -0.017380472, 0.03881092, 1253848.1, 2086210.5, 0.18780766, 10.016909, 9.995897 
2.3452227e+3, 2.25062e+2, 1212204.5, -91849.54, 206332.13, -0.07147632, 0.06533378, 1244072.4, 1978475.0, 0.07534069, 10.015869, 9.997126 
2.3451424e+3, 2.3505917e+2, 520209.94, -386135.8, 147905.3, -0.039397474, 0.094414264, 543735.75, 1180160.8, 0.02039592, 10.009485, 9.997181 
2.3450644e+3, 2.4505728e+2, 129743.83, -287015.03, 278998.88, 0.03180271, 0.120116316, 269591.84, 808035.94, 0.0032181256, 10.004937, 9.999344 
2.3449898e+3, 2.5505653e+2, -170452.48, -374368.47, 282535.06, 0.13162419, 0.13149501, 27958.463, 468416.47, 0.00019945843, 10.002155, 9.999407 
2.3449157e+3, 2.650574e+2, -334645.44, -19839.338, 407428.66, 0.09671509, 0.14685026, 259534.25, 601986.2, 0.000000055687597, 9.998704, 10.002833 
2.3448426e+3, 2.7505994e+2, -825132.25, -198456.95, 370883.28, -0.05686303, 0.13876827, -26269.234, 218156.63, 0.0, 9.994633, 10.002895 
2.34477e+3, 2.8506318e+2, -1124792.6, -24313.86, 296612.56, -0.07946253, 0.08978263, 50540.664, 196934.31, 0.0, 9.990752, 10.005289 
2.344698e+3, 2.950678e+2, -1577857.3, -205210.48, 278403.72, -0.001253595, 0.045584958, -150893.31, -102544.31, 0.0, 9.98703, 10.005172 
2.3446254e+3, 3.0507582e+2, -1835744.5, 35936.734, 203155.22, 0.10525094, 0.22414361, 57733.68, 57733.68, 0.0, 9.983457, 10.008223 
2.344553e+3, 3.1508163e+2, -2339853.3, -17779.035, 216746.64, 0.23026735, -0.00935398, 2279.2244, 2279.2244, 0.0, 9.979215, 10.009889 
2.3556785e+3, 1.8514852e+2, -1507099.5, -1043688.56, -819708.4, 0.19959982, -0.43716598, -423567.1, 701963.7, 0.40417725, 9.996416, 10.00443 
2.3555556e+3, 1.9515443e+2, -295130.2, -378757.94, -801763.75, -0.20280771, -0.21086183, 465909.28, 1493390.5, 0.30613428, 10.00546, 10.0040245 
2.3554422e+3, 2.0515676e+2, 342595.5, -593071.2, -616997.0, -0.19656909, 0.0029503522, 649070.44, 1578534.0, 0.20465426, 10.012475, 9.996918 
2.3553383e+3, 2.1515493e+2, 1124885.6, -218183.13, -633907.3, 0.1834618, 0.17831215, 1376821.3, 2208304.5, 0.11113343, 10.016719, 9.996716 
2.355241e+3, 2.251501e+2, 1084039.4, -427935.47, -10337.038, 0.18972225, 0.1699216, 1084110.0, 1817642.0, 0.04507025, 10.0156765, 9.994656 
2.3551504e+3, 2.3514257e+2, 352495.75, -742976.3, -82379.2, -0.14304559, -0.021805817, 358656.0, 994262.7, 0.012340056, 10.009428, 9.994729 
2.3550671e+3, 2.4513882e+2, 122085.2, -304368.9, 175941.2, -0.18754064, -0.056634177, 185301.78, 722947.06, 0.0019096618, 10.004926, 9.999233 
2.3549907e+3, 2.5513884e+2, -175614.95, -391139.0, 179039.5, 0.034435716, 0.04518258, -74408.57, 365239.25, 0.0000988862, 10.00217, 9.9992895 
2.3549142e+3, 2.6513973e+2, -397505.38, -154404.97, 253800.5, 0.101681, 0.11264993, 5450.4907, 347091.78, 0.000000014814531, 9.9987135, 10.001906 
2.354838e+3, 2.7514163e+2, -888010.75, -329864.16, 221837.13, 0.025834596, 0.13723925, -252435.55, -8811.594, 0.0, 9.994629, 10.001997 
2.3547617e+3, 2.8514484e+2, -1143988.1, -64637.188, 161796.36, 0.028084937, 0.14182024, -40905.457, 104687.195, 0.0, 9.990745, 10.005019 
2.3546855e+3, 2.951494e+2, -1602214.0, -261822.58, 151957.1, 0.0926275, 0.11760582, -244811.44, -197264.17, 0.0, 9.987046, 10.00478 
2.3546083e+3, 3.051544e+2, -1910511.0, -126536.65, 76025.52, 0.08295968, 0.076713204, -123302.625, -123302.625, 0.0, 9.9834795, 10.0071 
2.3545302e+3, 3.151628e+2, -2379826.5, -107444.305, -41856.926, 0.076106675, 0.20070936, -106673.57, -106673.57, 0.0, 9.979231, 10.009271 
2.365902e+3, 1.6524476e+2, -1602227.6, -1213136.5, -299020.75, 0.10621755, 0.068712905, -1050944.9, 269672.63, 0.40703258, 9.996748, 10.003317 
2.3657891e+3, 1.7525184e+2, -957558.94, -868588.4, -262599.9, 0.022403965, 0.51525056, -646732.4, 575816.8, 0.3131734, 10.001202, 10.002989 
2.3656753e+3, 1.8525371e+2, -575382.8, -743319.9, -392912.66, -0.113235876, 0.52581257, -257566.48, 866961.25, 0.23874, 10.004285, 10.001401 
2.3655601e+3, 1.9525017e+2, -196346.17, -516145.1, -507445.84, -0.29498932, 0.09080533, 175796.78, 1202351.9, 0.17379697, 10.006318, 10.001228 
2.3654519e+3, 2.0524724e+2, -52967.367, -848807.8, -336340.4, -0.19776285, -0.053928863, 70135.805, 998713.8, 0.1127057, 10.008436, 9.996603 
2.365351e+3, 2.1524452e+2, 355485.88, -633367.5, -377910.56, 0.16618372, 0.06299515, 483372.72, 1313972.9, 0.059594423, 10.010396, 9.996449 
2.3652531e+3, 2.2523919e+2, 299046.88, -925180.5, 56968.86, 0.1767768, 0.06935345, 301692.2, 1034345.4, 0.023382865, 10.010315, 9.993714 
2.3651586e+3, 2.3523135e+2, 113486.7, -964447.56, 90255.89, -0.1398755, -0.047998838, 120991.62, 755726.9, 0.0059912936, 10.00819, 9.993794 
2.3650718e+3, 2.4522701e+2, 108857.04, -404903.9, 410186.03, -0.18190551, -0.046954148, 335960.22, 872741.94, 0.00078494434, 10.005255, 9.998374 
2.3649922e+3, 2.552261e+2, -331323.5, -558416.8, 354298.8, 0.031366725, 0.055821598, -72821.11, 365971.97, 0.000022337585, 10.001514, 9.998448 
2.3649123e+3, 2.652263e+2, -537254.44, -261298.69, 403610.88, 0.100612655, 0.122174755, 27267.262, 368060.1, 0.0, 9.997944, 10.001534 
2.3648323e+3, 2.752278e+2, -936489.7, -394074.2, 406585.8, 0.050432865, 0.146791, -176543.08, 66236.76, 0.0, 9.994493, 10.001614 
2.3647529e+3, 2.8523055e+2, -1053951.9, -53429.11, 383339.88, 0.0685743, 0.15011893, 76556.21, 221308.52, 0.0, 9.99152, 10.004715 
2.3646736e+3, 2.952346e+2, -1359384.8, -170324.94, 362762.7, 0.124283865, 0.11408609, -68390.51, -21679.793, 0.0, 9.988842, 10.004533 
2.3645933e+3, 3.0523852e+2, -1686044.6, -142126.86, 286559.9, 0.14157422, 0.03720065, -90655.664, -90655.664, 0.0, 9.985566, 10.005979 
2.3645103e+3, 3.152461e+2, -1952095.5, 2415.1643, 107398.766, 0.023802368, 0.20304295, 8298.927, 8298.927, 0.0, 9.98258, 10.008404 
2.3760141e+3, 1.5534186e+2, -1082256.0, -547855.25, 189912.05, 0.9467047, 0.16781646, -487240.72, 930433.4, 0.38920346, 9.99876, 10.010407 
2.3758994e+3, 1.6534856e+2, -1509695.0, -1181768.6, -186768.9, 0.21076128, 0.2529897, -1097203.0, 222397.52, 0.27721334, 9.997507, 10.00267 
2.3757893e+3, 1.7534962e+2, -919095.6, -861823.0, -185225.28, -0.026153997, 0.15157266, -703033.5, 518550.8, 0.19552487, 10.001415, 10.002426 
2.3756795e+3, 1.8534872e+2, -686872.4, -1085209.4, -401042.03, -0.07331333, 0.06749479, -438265.47, 685322.75, 0.13836852, 10.004315, 9.998429 
2.375569e+3, 1.9534563e+2, -300073.47, -860461.5, -489019.5, 0.039126646, -0.028380165, -16664.123, 1008949.75, 0.09481242, 10.006369, 9.998286 
2.3754622e+3, 2.0534085e+2, -76376.77, -1018326.56, -282962.53, 0.0341035, -0.14391927, 2089.0967, 929744.7, 0.0581054, 10.0084715, 9.995353 
2.3753586e+3, 2.153344e+2, 308629.5, -800203.06, -315138.0, -0.06867785, -0.2798434, 391935.22, 1221648.6, 0.028769767, 10.010361, 9.995256 
2.3752604e+3, 2.2532932e+2, 333205.3, -870367.5, -16083.372, -0.0890099, -0.20913073, 333420.22, 1065185.1, 0.010237287, 10.010253, 9.994125 
2.3751675e+3, 2.353254e+2, 137970.16, -914272.56, 13768.577, -0.039913822, 0.022081118, 138150.3, 771962.2, 0.0021650328, 10.008155, 9.994162 
2.3750788e+3, 2.453216e+2, -7963.678, -644531.2, 269411.03, 0.028211594, 0.14219257, 90749.99, 626606.0, 0.0001896524, 10.005227, 9.996745 
2.3749942e+3, 2.553182e+2, -440883.6, -787457.6, 214551.42, 0.10639054, 0.16201088, -338379.56, 99515.12, 0.0000016843369, 10.001511, 9.996882 
2.3749097e+3, 2.653172e+2, -527721.4, -245315.64, 273853.72, 0.07758316, 0.17331976, -78404.72, 261501.72, 0.0, 9.997947, 10.001647 
2.3748259e+3, 2.7531838e+2, -927748.5, -384943.5, 283612.63, -0.017810548, 0.15893967, -263796.1, -21902.863, 0.0, 9.994518, 10.001668 
2.3747437e+3, 2.8532043e+2, -1076400.4, -111169.07, 285414.38, 0.024409972, 0.11111014, -33089.414, 110781.734, 0.0, 9.991559, 10.004303 
2.3746619e+3, 2.9532376e+2, -1359423.1, -187662.11, 260550.5, 0.10776471, 0.045266435, -132338.64, -86502.43, 0.0, 9.988904, 10.004388 
2.3745796e+3, 3.0532855e+2, -1749027.5, -291805.22, 161700.78, 0.2482844, 0.09873153, -274077.75, -274077.75, 0.0, 9.985637, 10.004922 
2.3744929e+3, 3.153331e+2, -1903624.0, 42826.918, 42121.82, 0.03567067, 0.09782765, 43738.02, 43738.02, 0.0, 9.982814, 10.00858 
2.386115e+3, 1.4544998e+2, -1741714.0, -1866129.6, -277840.72, -0.023525836, -0.11602979, -1519202.3, -4612.045, 0.4276731, 9.999486, 9.997867 
2.386008e+3, 1.5545112e+2, -1138564.3, -1493416.0, -184493.53, 0.24068648, 0.24150155, -1060025.6, 356567.16, 0.29958373, 10.003871, 9.997803 
2.3859006e+3, 1.6545027e+2, -687283.3, -914220.44, -151986.34, 0.23823418, 0.26378965, -611081.2, 707522.06, 0.19547041, 10.004857, 10.001147 
2.3857915e+3, 1.7544825e+2, -717009.75, -891914.56, -230707.56, 0.0050086905, 0.0002865092, -557735.75, 662879.2, 0.12412511, 10.003526, 10.000918 
2.3856837e+3, 1.8544585e+2, -762980.2, -1285308.9, -389525.9, -0.01085866, -0.08118589, -555169.9, 567463.5, 0.07946863, 10.004222, 9.996958 
2.3855762e+3, 1.9544289e+2, -303325.66, -1024681.2, -385950.94, 0.1602229, -0.02334484, -135754.84, 888904.9, 0.0498869, 10.00678, 9.996821 
2.3854704e+3, 2.0543744e+2, -138635.83, -1134314.8, -137912.25, 0.09216314, -0.0940853, -119886.56, 806823.0, 0.027881209, 10.008178, 9.994661 
2.3853664e+3, 2.1542971e+2, 21359.303, -1017823.6, -138182.9, -0.1830255, -0.285805, 39419.96, 868200.8, 0.012186708, 10.008543, 9.994612 
2.385268e+3, 2.2542441e+2, 36787.41, -970398.8, 83058.85, -0.201806, -0.22364919, 43591.0, 774425.56, 0.0035372584, 10.007966, 9.9945345 
2.3851751e+3, 2.3542123e+2, -76213.45, -972405.94, 109585.38, 0.007857549, 0.046197295, -63008.063, 569865.0, 0.0004883259, 10.006485, 9.994561 
2.3850842e+3, 2.4541745e+2, -153098.05, -742503.7, 369455.13, 0.12603284, 0.16565108, 24794.984, 559710.75, 0.000018303572, 10.004364, 9.996483 
2.3849958e+3, 2.5541332e+2, -446866.9, -820557.8, 410390.97, 0.15738514, 0.14661445, -182788.89, 254171.58, 0.00000001217136, 10.001617, 9.996597 
2.3849078e+3, 2.654115e+2, -484831.7, -317152.3, 472938.3, 0.07622457, 0.141056, 79320.15, 418300.63, 0.0, 9.998656, 10.000807 
2.3848198e+3, 2.754118e+2, -851583.75, -438610.13, 404055.6, -0.07005564, 0.13128717, -191337.39, 49639.855, 0.0, 9.995445, 10.000848 
2.384735e+3, 2.8541338e+2, -997427.8, -147275.38, 386574.16, -0.0034489548, 0.11664222, 2217.2603, 145178.02, 0.0, 9.992434, 10.003629 
2.3846516e+3, 2.9541653e+2, -1294293.6, -227308.88, 333817.63, 0.1687419, 0.105208255, -131477.55, -86549.02, 0.0, 9.98967, 10.00374 
2.3845655e+3, 3.0541998e+2, -1523147.9, -233564.94, 223881.45, 0.22659732, 0.07924142, -195803.16, -195803.16, 0.0, 9.987415, 10.004455 
2.3844746e+3, 3.1542426e+2, -1565598.9, 313915.28, 99409.08, -0.13563775, 0.108399875, 319158.5, 319158.5, 0.0, 9.984689, 10.009524 
2.3962227e+3, 1.3555206e+2, -1817551.4, -1599169.6, -352339.4, 0.28383693, -0.09490757, -1339489.6, 272101.06, 0.4903315, 9.998233, 10.002132 
2.396116e+3, 1.4555296e+2, -1636307.6, -1718052.1, -130358.14, 0.18678991, 0.020437725, -1540564.4, -26978.342, 0.36326256, 9.999783, 9.998743 
2.3960115e+3, 1.555528e+2, -1093207.0, -1397428.4, -77183.21, 0.24241441, 0.17658046, -1074745.4, 340851.66, 0.24022289, 10.003689, 9.998434 
2.3959045e+3, 1.6555078e+2, -806145.2, -1178073.5, -211678.4, 0.2066047, 0.16714323, -710346.3, 607271.0, 0.14344834, 10.004648, 9.998923 
2.3957954e+3, 1.7554773e+2, -826081.75, -1171602.8, -288600.0, 0.08787847, 0.021868777, -662485.06, 557155.06, 0.08084058, 10.003598, 9.998726 
2.395688e+3, 1.8554474e+2, -743528.94, -1306423.3, -304935.16, 0.05453132, 0.0038456027, -610008.7, 511656.88, 0.045552526, 10.004355, 9.996702 
2.3955818e+3, 1.9554168e+2, -303241.44, -1059746.5, -299382.38, 0.093825825, 0.07634447, -199099.13, 824595.0, 0.02534973, 10.006771, 9.9965515 
2.3954773e+3, 2.0553665e+2, -153970.28, -1178958.0, -122987.64, 0.0032840418, 0.07718738, -139419.64, 786322.56, 0.01230459, 10.00811, 9.99439 
2.3953743e+3, 2.1552989e+2, -936.4633, -1058919.5, -122108.23, -0.19612244, 0.007720304, 12973.894, 840781.2, 0.0043173633, 10.008453, 9.994377 
2.3952757e+3, 2.255239e+2, 56884.38, -919141.75, 31269.068, -0.18817763, -0.0070064617, 57885.125, 787751.7, 0.0008333381, 10.007895, 9.994926 
2.3951809e+3, 2.3551868e+2, -51681.227, -913938.94, 56183.125, -0.010877088, 0.019199692, -48035.848, 583884.44, 0.00004416352, 10.00644, 9.99499 
2.3950881e+3, 2.4551454e+2, -84407.54, -598346.6, 265220.5, 0.10729879, 0.028889934, 27913.137, 561874.3, 0.000000359281, 10.004344, 9.997487 
2.3949973e+3, 2.5551143e+2, -383902.13, -693959.44, 308215.44, 0.17313926, 0.011616556, -193922.61, 242067.81, 0.0, 10.001624, 9.997468 
2.394906e+3, 2.6550925e+2, -613297.1, -591615.0, 351367.16, 0.08887772, 0.02729866, -250921.72, 87092.84, 0.0, 9.998678, 9.998917 
2.3948146e+3, 2.7550817e+2, -970340.3, -696015.94, 284742.16, -0.11175272, 0.069461904, -517121.88, -277091.13, 0.0, 9.9954815, 9.999068 
2.3947269e+3, 2.855096e+2, -1062520.0, -293140.53, 282578.97, -0.025284566, 0.17051566, -200507.45, -58487.49, 0.0, 9.992469, 10.002614 
2.3946418e+3, 2.9551294e+2, -1373855.9, -407895.47, 240886.25, 0.27241647, 0.28178093, -351157.2, -307169.0, 0.0, 9.989726, 10.002478 
2.394551e+3, 3.0551296e+2, -1516113.5, -240037.56, 141306.48, 0.06878364, -0.0060058557, -224577.28, -224577.28, 0.0, 9.9874935, 10.004378 
2.394458e+3, 3.1551972e+2, -1675728.9, 38886.168, -90209.67, -0.22241746, 0.25397664, 43619.234, 43619.234, 0.0, 9.984857, 10.007569 
2.4062192e+3, 1.3565391e+2, -1351229.3, -1251981.4, -45236.344, 0.003646869, 0.1060448, -1234457.3, 376142.22, 0.44500384, 10.001421, 10.003791 
2.4061167e+3, 1.4565447e+2, -1372764.8, -1501299.1, -67610.195, 0.22276452, 0.07762452, -1343750.6, 168845.16, 0.31920597, 10.001758, 9.99936 
2.4060136e+3, 1.5565391e+2, -1227040.5, -1430782.0, -70268.086, 0.24987449, 0.1409586, -1205156.5, 209447.36, 0.20024735, 10.00217, 9.998922 
2.4059075e+3, 1.6565143e+2, -1073427.5, -1480396.5, -237461.44, 0.19141309, 0.13771056, -964191.9, 352436.25, 0.10968462, 10.003189, 9.997436 
2.4057986e+3, 1.7564783e+2, -753099.8, -1290629.5, -265817.16, 0.057818133, 0.08295779, -643852.3, 574808.6, 0.05429549, 10.004727, 9.997307 
2.4056922e+3, 1.856442e+2, -563352.7, -1220300.4, -206754.63, 0.030275006, 0.0728439, -503699.56, 616994.1, 0.026174221, 10.005572, 9.996683 
2.4055876e+3, 1.9564055e+2, -412359.0, -1117679.6, -191370.72, 0.08517338, 0.08989207, -363781.2, 658945.06, 0.012428092, 10.005964, 9.996522 
2.4054842e+3, 2.056356e+2, -428753.06, -1292520.0, -29931.771, 0.022867054, 0.09420134, -427717.06, 497056.78, 0.004899936, 10.006081, 9.994583 
2.4053818e+3, 2.1562952e+2, -345032.7, -1201911.6, -3143.9248, -0.12634152, 0.0753168, -345021.16, 481812.88, 0.0011721578, 10.005966, 9.994588 
2.4052823e+3, 2.2562389e+2, -291552.16, -1018526.0, 122434.35, -0.12952152, 0.056151196, -271486.06, 457403.22, 0.00009316394, 10.005213, 9.995529 
2.4051856e+3, 2.3561865e+2, -383007.34, -1009840.75, 159845.61, -0.014272265, 0.027786536, -344599.3, 286340.9, 0.00000050371114, 10.0039, 9.995549 
2.4050906e+3, 2.4561433e+2, -367112.9, -753828.94, 301730.78, 0.057720758, 0.0067590433, -202101.28, 330880.53, 0.0, 10.002496, 9.997304 
2.4049973e+3, 2.556109e+2, -497743.06, -769712.8, 252646.94, 0.09508001, -0.0208427, -346809.2, 88205.28, 0.0, 10.000939, 9.9972725 
2.4049044e+3, 2.6560834e+2, -566162.25, -628230.1, 303011.06, 0.054442815, -0.0066096387, -292600.03, 44442.57, 0.0, 9.9992695, 9.998375 
2.4048112e+3, 2.756068e+2, -719524.9, -636384.44, 332121.7, -0.041899614, 0.046674214, -343241.5, -104177.805, 0.0, 9.9974785, 9.998509 
2.4047205e+3, 2.856079e+2, -751594.75, -243458.84, 361635.6, 0.012055385, 0.1929583, -55564.33, 85492.695, 0.0, 9.995047, 10.001707 
2.4046314e+3, 2.9561085e+2, -1105139.0, -379476.03, 328234.78, 0.17153102, 0.36002564, -253037.9, -210007.0, 0.0, 9.992017, 10.001564 
2.4045388e+3, 3.0560917e+2, -1258192.4, -152170.0, 264148.1, 0.059373345, -0.031953488, -92322.66, -92322.66, 0.0, 9.989425, 10.004049 
2.4044472e+3, 3.15617e+2, -1421968.5, -62668.445, 16273.21, 0.116969384, 0.3770529, -62473.652, -62473.652, 0.0, 9.987566, 10.005563 
2.416222e+3, 1.3575809e+2, -1654479.4, -2128413.5, -87131.86, 0.1844349, 0.115668826, -1638968.0, -29389.9, 0.4139802, 10.00185, 9.995605 
2.4161172e+3, 1.4575513e+2, -1309581.4, -1436205.5, -60892.24, 0.13213675, 0.09468005, -1285051.1, 226561.8, 0.28863224, 10.0021, 9.999768 
2.4160154e+3, 1.5575469e+2, -1173974.1, -1362965.1, -65079.73, 0.25348505, 0.123404376, -1153731.8, 259879.94, 0.17269371, 10.002347, 9.999344 
2.4159102e+3, 1.6575222e+2, -1112907.1, -1604662.5, -198809.55, 0.1721427, 0.15000518, -1042587.0, 273049.3, 0.08718646, 10.003274, 9.996513 
2.4158016e+3, 1.7574841e+2, -800087.7, -1412464.1, -220011.36, -0.06805054, 0.16710022, -729239.75, 488438.25, 0.03769673, 10.004741, 9.996448 
2.4156962e+3, 1.8574415e+2, -550903.75, -1200672.9, -195355.61, -0.06540909, 0.12762204, -496692.25, 623025.4, 0.015112899, 10.005542, 9.996831 
2.4155933e+3, 1.957396e+2, -406077.88, -1102064.5, -179342.83, 0.11647371, 0.037222214, -362582.75, 659172.7, 0.005862545, 10.005914, 9.996654 
2.4154907e+3, 2.057344e+2, -395184.34, -1213526.8, -35537.563, 0.12380891, -0.015738042, -393643.97, 530159.9, 0.0017048118, 10.00602, 9.995159 
2.4153884e+3, 2.1572874e+2, -315458.78, -1123362.3, -7852.6465, -0.00031772352, -0.051203173, -315382.47, 510477.9, 0.00020648577, 10.00588, 9.9951725 
2.4152878e+3, 2.2572438e+2, -245684.53, -913582.6, 72917.12, -0.04078531, -0.010581156, -237816.56, 490086.22, 0.0000014111121, 10.005161, 9.996279 
2.415189e+3, 2.3572105e+2, -342254.28, -923840.06, 111380.9, -0.014811655, 0.07731329, -321653.2, 308280.88, 0.0, 10.003884, 9.996151 
2.4150918e+3, 2.457167e+2, -461056.72, -952108.0, 240613.63, -0.03059495, 0.09592212, -362812.44, 169166.94, 0.0, 10.002498, 9.995949 
2.414996e+3, 2.5571176e+2, -579128.4, -944155.1, 193681.58, -0.09142696, 0.051961448, -495514.56, -61481.14, 0.0, 10.000952, 9.996076 
2.4149022e+3, 2.6570883e+2, -503976.06, -511250.66, 234807.86, -0.03659048, 0.042454083, -272777.3, 63287.375, 0.0, 9.999308, 9.999166 
2.4148104e+3, 2.7570772e+2, -663144.25, -539783.3, 265513.78, 0.1283785, 0.06215751, -328879.75, -90803.97, 0.0, 9.997555, 9.999142 
2.414716e+3, 2.8570837e+2, -796496.75, -357414.03, 247932.77, 0.101148255, 0.17879388, -245792.19, -105720.734, 0.0, 9.995125, 10.000891 
2.4146199e+3, 2.957103e+2, -1127645.0, -452107.3, 219035.4, -0.15010321, 0.32910016, -387304.06, -345248.44, 0.0, 9.992114, 10.001024 
2.4145293e+3, 3.0570891e+2, -1283378.0, -232284.34, 187828.44, 0.19460453, 0.0063260435, -199728.14, -199728.14, 0.0, 9.9895315, 10.003452 
2.414435e+3, 3.1571484e+2, -1441143.3, -124638.17, 14795.931, 0.1826677, 0.30769244, -124471.91, -124471.91, 0.0, 9.987679, 10.005073 
2.4262251e+3, 1.3585998e+2, -1400620.5, -2024981.3, -86112.54, 0.20587632, 0.10251236, -1388961.4, 219616.47, 0.39251408, 10.004922, 9.994849 
2.42612e+3, 1.4585593e+2, -1007155.75, -1388692.6, -49081.11, 0.092248306, 0.074596435, -1000943.06, 509679.38, 0.26688904, 10.005455, 9.998568 
2.4260175e+3, 1.558542e+2, -1013854.06, -1386234.0, -131426.23, 0.19286178, 0.092717625, -972141.5, 440493.7, 0.15308398, 10.004102, 9.998313 
2.425913e+3, 1.6585144e+2, -1003717.7, -1513393.8, -211998.86, 0.15824537, 0.117690615, -927065.2, 387597.4, 0.07169197, 10.003896, 9.996838 
2.4258064e+3, 1.7584799e+2, -793460.5, -1380789.8, -170452.56, 0.014077643, 0.13922338, -747576.94, 469123.22, 0.02705587, 10.004634, 9.996704 
2.4257019e+3, 1.8584388e+2, -658662.44, -1287425.3, -158432.39, 0.030800002, 0.12101469, -620997.7, 497742.28, 0.008780662, 10.004922, 9.996524 
2.4255987e+3, 1.9583935e+2, -566256.4, -1204043.5, -175145.25, 0.17217645, 0.061186824, -521324.47, 499456.5, 0.0026498972, 10.004905, 9.996434 
2.4254955e+3, 2.0583464e+2, -557824.0, -1176737.0, -47797.887, 0.15308048, 0.012643928, -554154.4, 368670.25, 0.0004904075, 10.004408, 9.996182 
2.4253929e+3, 2.1582988e+2, -584731.25, -1145605.0, 5063.159, 0.0156192705, -0.032680288, -584685.56, 240184.44, 0.000016501712, 10.003576, 9.996125 
2.4252917e+3, 2.2582592e+2, -509404.9, -1011290.3, 75215.305, -0.01722518, -0.007344412, -498375.13, 228532.92, 0.0, 10.003224, 9.99654 
2.4251924e+3, 2.3582266e+2, -429907.88, -939450.25, 75718.13, 0.03011448, 0.06159815, -418894.2, 210045.45, 0.0, 10.00317, 9.996387 
2.4250938e+3, 2.4581864e+2, -507310.56, -972073.4, 214550.33, -0.024453416, 0.10129098, -423412.1, 107570.74, 0.0, 10.002179, 9.99596 
2.4249956e+3, 2.5581416e+2, -647309.25, -973894.0, 264818.34, -0.16127698, 0.106194824, -499485.66, -66452.04, 0.0, 10.000478, 9.996097 
2.4249004e+3, 2.658115e+2, -565267.44, -516871.13, 317268.88, -0.082421035, 0.11486786, -222878.95, 112182.68, 0.0, 9.998795, 9.999369 
2.4248075e+3, 2.7581045e+2, -728700.9, -554410.6, 297827.16, 0.18897611, 0.12097549, -331240.9, -94170.53, 0.0, 9.997038, 9.999287 
2.4247114e+3, 2.8581026e+2, -805662.7, -410414.84, 257969.77, 0.15220003, 0.1738461, -283071.7, -143998.23, 0.0, 9.995275, 10.000452 
2.4246116e+3, 2.9581103e+2, -951214.3, -408029.78, 253376.84, -0.21066429, 0.2559728, -308189.44, -267120.25, 0.0, 9.99351, 10.000648 
2.4245198e+3, 3.0581066e+2, -1012956.2, -148741.11, 241065.89, 0.23956735, 0.07443657, -86045.97, -86045.97, 0.0, 9.991595, 10.003026 
2.42442e+3, 3.1581333e+2, -1207184.0, -33966.723, 69085.01, -0.13367863, 0.104960114, -29912.656, -29912.656, 0.0, 9.98939, 10.004863 
2.43633e+3, 1.2596363e+2, -1607678.3, -1732502.0, -58532.984, 0.19200626, 0.19410588, -1584525.3, 121036.35, 0.49422434, 10.001884, 9.999078 
2.4362287e+3, 1.3596068e+2, -1233390.3, -1543663.8, -1431.2861, 0.12659556, 0.05895779, -1233383.6, 374204.47, 0.37723058, 10.004974, 9.99837 
2.4361247e+3, 1.459569e+2, -1128479.6, -1689677.1, -107248.66, 0.068421535, 0.022592673, -1108682.1, 400944.22, 0.25081816, 10.005356, 9.99628 
2.4360201e+3, 1.5595305e+2, -1130148.4, -1674405.0, -178454.31, 0.078282356, 0.053962238, -1076854.3, 334813.56, 0.13854189, 10.004106, 9.996316 
2.4359162e+3, 1.6594976e+2, -919784.6, -1341129.5, -175969.13, 0.14567608, 0.055017013, -855961.1, 457738.6, 0.0606047, 10.003898, 9.998021 
2.435813e+3, 1.7594703e+2, -731387.25, -1240775.8, -143542.31, 0.24122563, 0.028320193, -693722.9, 522001.38, 0.020040406, 10.004562, 9.997701 
2.4357085e+3, 1.8594359e+2, -717785.56, -1392133.0, -158109.52, 0.26144055, 0.07003455, -682555.3, 435204.66, 0.005141141, 10.004823, 9.995855 
2.4356037e+3, 1.9593975e+2, -616993.7, -1285978.9, -170444.47, 0.23510014, 0.14732043, -576071.0, 443731.72, 0.0011409032, 10.004793, 9.995928 
2.4354993e+3, 2.059361e+2, -472310.9, -984309.5, -74374.26, 0.11605169, 0.15466551, -461725.94, 460111.13, 0.00010556742, 10.004334, 9.997543 
2.435395e+3, 2.1593268e+2, -507447.5, -976083.8, -18650.771, -0.072814144, 0.10754643, -506706.4, 317158.6, 0.00000018406139, 10.0035305, 9.997315 
2.4352942e+3, 2.2592838e+2, -524802.8, -1040756.4, 74135.81, -0.054975554, 0.05443697, -514361.72, 211544.69, 0.0, 10.003206, 9.996349 
2.4351957e+3, 2.3592357e+2, -437603.3, -952269.44, 71039.27, 0.106299266, -0.012159413, -427977.78, 199978.25, 0.0, 10.00315, 9.996312 
2.4350962e+3, 2.4592026e+2, -417541.13, -786561.06, 148969.78, 0.06515336, 0.03134874, -364909.94, 165081.38, 0.0, 10.0021715, 9.997243 
2.4349959e+3, 2.5591815e+2, -565293.4, -807175.8, 202326.64, -0.12592764, 0.14679253, -450516.84, -18501.936, 0.0, 10.000484, 9.997241 
2.4348986e+3, 2.6591638e+2, -592829.5, -579748.1, 249500.86, -0.09076189, 0.21372965, -336702.25, -2668.6982, 0.0, 9.998807, 9.998937 
2.4348034e+3, 2.759149e+2, -751914.0, -609405.5, 231959.55, 0.12220412, 0.22510017, -438002.78, -201955.13, 0.0, 9.997057, 9.998905 
2.4347062e+3, 2.8591356e+2, -806358.7, -421866.28, 190750.98, 0.1546114, 0.17865409, -343290.5, -205227.34, 0.0, 9.995305, 10.000364 
2.4346067e+3, 2.9591298e+2, -955278.4, -435627.88, 190160.44, -0.009556461, 0.13683887, -373474.63, -333402.56, 0.0, 9.993582, 10.00043 
2.4345107e+3, 3.0591467e+2, -1010697.1, -165417.72, 163749.98, 0.20767556, 0.18568113, -134804.31, -134804.31, 0.0, 9.991675, 10.002879 
2.4344078e+3, 3.1591696e+2, -1202602.3, -73215.93, -11262.508, -0.25826856, 0.17722677, -73103.63, -73103.63, 0.0, 9.989571, 10.004521 
2.4463338e+3, 1.2606265e+2, -1223180.0, -1528720.1, 51931.06, 0.1336413, 0.075277634, -1214594.9, 489995.34, 0.48489738, 10.006934, 9.999065 
2.4462341e+3, 1.3606031e+2, -1136859.1, -1486738.8, -12799.277, 0.18145543, -0.007859479, -1136391.6, 470217.8, 0.36548707, 10.005852, 9.9985485 
2.44613e+3, 1.4605722e+2, -1139964.9, -1668577.1, -165885.42, 0.1419753, -0.0061112354, -1092220.1, 416420.4, 0.23816596, 10.005073, 9.996588 
2.4460237e+3, 1.5605372e+2, -1067163.1, -1614184.5, -112071.39, 0.07409689, 0.03607589, -1045092.94, 365585.8, 0.12718424, 10.004448, 9.99654 
2.4459192e+3, 1.6605051e+2, -903492.94, -1330517.0, -53622.516, 0.10643557, 0.03589107, -896862.4, 415848.25, 0.05232592, 10.0039835, 9.998029 
2.445816e+3, 1.7604767e+2, -853035.25, -1295172.6, -89249.42, 0.20199773, 0.001634095, -835699.2, 379037.0, 0.015272178, 10.003677, 9.997746 
2.4457116e+3, 1.8604453e+2, -901436.3, -1425241.4, -98133.93, 0.23418662, 0.04554261, -883654.75, 233114.7, 0.0030403016, 10.003316, 9.99635 
2.4456069e+3, 1.9604126e+2, -851783.1, -1343696.0, -40505.66, 0.22282161, 0.13483857, -848470.1, 170337.05, 0.00046349305, 10.002949, 9.996414 
2.4455021e+3, 2.0603807e+2, -684205.44, -1030619.1, 42968.0, 0.12754099, 0.14228444, -678955.44, 241881.84, 0.000014369926, 10.002649, 9.998031 
2.445398e+3, 2.1603501e+2, -642593.6, -990380.56, 40972.395, -0.023458444, 0.085038416, -637831.94, 185029.44, 0.0, 10.00239, 9.997762 
2.445297e+3, 2.2603135e+2, -659017.1, -1076291.3, 142366.28, -0.0022457049, 0.06634096, -615072.4, 109825.59, 0.0, 10.00217, 9.9966 
2.4451983e+3, 2.3602735e+2, -592068.2, -994353.75, 163720.27, 0.14268033, 0.058162514, -533860.4, 93082.17, 0.0, 10.00196, 9.996592 
2.4450977e+3, 2.4602437e+2, -506962.75, -754892.06, 186339.84, 0.08304753, 0.08954273, -407119.94, 121854.055, 0.0, 10.001241, 9.997907 
2.4449958e+3, 2.5602236e+2, -576042.4, -744439.94, 190627.39, -0.12184954, 0.15092482, -451846.72, -20852.842, 0.0, 10.000119, 9.9978485 
2.444897e+3, 2.660206e+2, -589230.4, -577910.94, 233254.69, -0.09278946, 0.19309449, -350247.34, -17236.344, 0.0, 9.998839, 9.998929 
2.4448003e+3, 2.7601904e+2, -697913.75, -585770.06, 245001.14, 0.11440873, 0.19718167, -390506.28, -155480.22, 0.0, 9.997445, 9.998876 
2.4447012e+3, 2.8601766e+2, -697656.44, -388984.16, 215060.61, 0.12502328, 0.1614207, -278611.56, -141568.7, 0.0, 9.996143, 10.000183 
2.4445999e+3, 2.9601705e+2, -790057.56, -378728.06, 201183.52, -0.055060286, 0.13678397, -296690.2, -257636.22, 0.0, 9.994813, 10.000225 
2.444502e+3, 3.0601957e+2, -837509.6, -69320.52, 164348.23, 0.15164772, 0.27379432, -35636.465, -35636.465, 0.0, 9.992816, 10.002985 
2.444399e+3, 3.1602272e+2, -1079127.8, -28541.088, 35347.168, -0.083297096, 0.340345, -27353.17, -27353.17, 0.0, 9.990498, 10.004372 
2.4563403e+3, 1.2616247e+2, -1325769.0, -1720387.4, 24590.473, 0.15235999, -0.15912217, -1324242.6, 379358.0, 0.47646874, 10.006577, 9.996799 
2.4562407e+3, 1.3615955e+2, -1229796.6, -1688729.8, -32221.623, 0.30155, -0.08020868, -1227545.4, 378089.88, 0.35509235, 10.005617, 9.99681 
2.456136e+3, 1.461574e+2, -1041067.9, -1415392.9, -165327.47, 0.26455277, -0.015466232, -978504.56, 529153.8, 0.2272401, 10.004937, 9.998513 
2.4560283e+3, 1.5615584e+2, -971364.25, -1386772.9, -125091.56, 0.13429198, 0.029716443, -936604.1, 473069.03, 0.11773341, 10.004375, 9.9981575 
2.4559219e+3, 1.6615303e+2, -963579.8, -1455925.6, -64560.992, 0.036135778, 0.046655774, -955254.75, 356447.38, 0.045847297, 10.003932, 9.997194 
2.4558167e+3, 1.761496e+2, -905631.7, -1391887.6, -95025.05, -0.044417553, 0.036791157, -887721.44, 326016.8, 0.011920521, 10.003604, 9.99712 
2.4557124e+3, 1.8614653e+2, -804511.8, -1225915.4, -108068.32, 0.008774263, 0.0384298, -778414.06, 337355.47, 0.0018205881, 10.003316, 9.997723 
2.4556084e+3, 1.9614376e+2, -757972.56, -1167087.3, -52240.074, 0.14319445, 0.042608112, -751407.4, 266389.38, 0.00017680592, 10.00302, 9.997596 
2.4555048e+3, 2.0614049e+2, -694443.25, -1065672.8, 30348.113, 0.17364587, 0.0035458908, -691978.6, 227848.38, 0.00000076879473, 10.002704, 9.9977665 
2.4554014e+3, 2.1613698e+2, -658635.06, -1020039.94, 33145.855, 0.13378663, -0.07168134, -655620.25, 166238.0, 0.0, 10.00237, 9.99757 
2.4552998e+3, 2.2613488e+2, -618419.2, -991084.6, 133527.61, 0.1215718, 0.041884705, -575515.1, 148367.39, 0.0, 10.002156, 9.997197 
2.4551995e+3, 2.361338e+2, -556152.7, -918168.25, 152740.75, 0.12928133, 0.26600683, -500319.7, 125581.64, 0.0, 10.0019455, 9.997126 
2.4550979e+3, 2.4613078e+2, -504092.13, -749468.6, 141187.3, 0.026651775, 0.26623422, -439734.22, 88198.94, 0.0, 10.001232, 9.997952 
2.454995e+3, 2.561267e+2, -568058.25, -732460.4, 147565.56, -0.16052805, 0.11825054, -481343.34, -51372.055, 0.0, 10.00013, 9.997931 
2.4548952e+3, 2.6612413e+2, -558231.06, -519730.22, 178257.17, -0.09814927, 0.050401773, -359687.03, -27692.215, 0.0, 9.998856, 9.999326 
2.4547976e+3, 2.7612272e+2, -669804.1, -535647.0, 193535.63, 0.15414922, 0.028519902, -397894.97, -163888.13, 0.0, 9.997472, 9.999212 
2.454696e+3, 2.8612265e+2, -710091.5, -426070.47, 165046.28, 0.049569655, 0.12779309, -350348.9, -214336.86, 0.0, 9.99618, 9.999918 
2.4545911e+3, 2.9612368e+2, -792300.2, -400196.9, 147758.03, -0.38098085, 0.2932899, -350751.75, -312740.75, 0.0, 9.994875, 10.000054 
2.4544932e+3, 3.06125e+2, -812697.56, -37471.75, 73704.445, 0.028352225, 0.30463997, -30526.535, -30526.535, 0.0, 9.992888, 10.003174 
2.4543926e+3, 3.1612727e+2, -1101166.6, -80724.336, -20754.955, 0.28121972, 0.2694095, -80302.37, -80302.37, 0.0, 9.990532, 10.003994 
2.4663459e+3, 1.2626345e+2, -1395119.6, -1785422.3, 6192.492, 0.16371162, -0.24001545, -1395021.4, 307587.5, 0.4667274, 10.0055685, 9.996825 
2.4662451e+3, 1.3626187e+2, -1302451.3, -1731149.1, 22258.254, 0.28942606, -0.029560396, -1301298.8, 303335.28, 0.34432682, 10.004725, 9.996938 
2.46614e+3, 1.4626028e+2, -1074640.0, -1363568.3, -85092.055, 0.2545846, 0.043991685, -1051442.3, 455208.84, 0.21680146, 10.004205, 9.999306 
2.4660319e+3, 1.5625884e+2, -984298.0, -1322159.4, -88894.86, 0.1464707, 0.024002848, -962336.4, 446325.25, 0.10932148, 10.0039015, 9.998869 
2.4659254e+3, 1.6625614e+2, -1025825.2, -1477967.5, -16256.002, 0.05691308, 0.019814296, -1025241.44, 285447.22, 0.040524162, 10.003441, 9.997273 
2.4658196e+3, 1.7625284e+2, -1004620.6, -1430027.0, 8179.1396, -0.027651504, 0.015447881, -1004463.44, 208261.19, 0.009477852, 10.002879, 9.9972 
2.4657151e+3, 1.8624987e+2, -807757.9, -1205033.8, 2445.7173, 0.016147954, 0.018893028, -807742.8, 307012.2, 0.001106214, 10.003204, 9.997913 
2.4656115e+3, 1.9624725e+2, -591392.25, -1069065.1, -23770.848, 0.14515303, 0.020504445, -590212.25, 426568.06, 0.00006228563, 10.004092, 9.99775 
2.4655074e+3, 2.0624404e+2, -579881.25, -1019221.2, -5121.8926, 0.17037189, -0.013859693, -579821.56, 338989.3, 0.0000000031066179, 10.003536, 9.997682 
2.4654031e+3, 2.1624056e+2, -701257.1, -1041054.2, 8940.145, 0.13071944, -0.07857611, -701022.06, 119821.625, 0.0, 10.002088, 9.997559 
2.4653007e+3, 2.2623883e+2, -709333.2, -958758.56, 135336.98, 0.11170559, 0.036793146, -650009.56, 72854.79, 0.0, 10.001214, 9.997868 
2.4652001e+3, 2.362384e+2, -696648.94, -917317.25, 155069.5, 0.10743025, 0.26079622, -616667.1, 8208.773, 0.0, 10.00069, 9.997734 
2.4650976e+3, 2.4623577e+2, -687246.4, -811695.0, 131803.83, 0.01635236, 0.26182505, -603717.06, -76813.65, 0.0, 9.999869, 9.998177 
2.4649942e+3, 2.5623187e+2, -739546.2, -786726.94, 148576.42, -0.13893789, 0.10657685, -612699.0, -183759.02, 0.0, 9.998839, 9.998174 
2.4648933e+3, 2.662294e+2, -655019.4, -533458.8, 182585.06, -0.07578585, 0.024243167, -401803.25, -70840.65, 0.0, 9.998051, 9.999619 
2.4647947e+3, 2.762282e+2, -665418.8, -500204.72, 185660.56, 0.16539082, -0.005605749, -379603.1, -146629.97, 0.0, 9.997357, 9.999511 
2.4646917e+3, 2.8622866e+2, -711467.94, -389545.56, 165455.73, 0.03608003, 0.11706986, -319673.25, -184701.11, 0.0, 9.996017, 10.000241 
2.4645844e+3, 2.9623014e+2, -866396.94, -404504.06, 189791.95, -0.44772422, 0.29418543, -336523.7, -299558.3, 0.0, 9.994242, 10.000324 
2.4644856e+3, 3.0623093e+2, -695598.5, -49323.945, 122741.16, -0.010423474, 0.2770926, -26797.959, -26797.959, 0.0, 9.994, 10.002549 
2.464385e+3, 3.1623086e+2, -560598.0, 53841.297, -34079.098, 0.33133608, 0.07854669, 55725.67, 55725.67, 0.0, 9.994785, 10.002865 
2.4763508e+3, 1.263654e+2, -1341298.9, -1641915.4, -3380.4326, 0.14837915, -0.23073737, -1341260.9, 360352.6, 0.45410547, 10.0055, 9.9981785 
2.4762483e+3, 1.363663e+2, -1261945.9, -1582340.5, 6514.311, 0.17584603, 0.09315187, -1261813.5, 341800.3, 0.33201295, 10.004504, 9.998132 
2.4761423e+3, 1.4636502e+2, -1080187.0, -1363448.0, -93265.11, 0.14856565, 0.14490794, -1052236.9, 453389.3, 0.20603374, 10.004075, 9.999356 
2.4760349e+3, 1.5636258e+2, -967922.06, -1303256.8, -98304.81, 0.119144, 0.01968541, -941228.5, 466415.97, 0.101393476, 10.003933, 9.998995 
2.475929e+3, 1.6635987e+2, -966769.75, -1371894.4, -39893.15, 0.13795035, -0.031718668, -962878.8, 346790.94, 0.035952613, 10.003513, 9.997971 
2.4758239e+3, 1.7635715e+2, -961624.7, -1352119.4, -11447.607, 0.17346731, -0.04622618, -961289.4, 250408.5, 0.007636163, 10.002923, 9.997717 
2.4757195e+3, 1.8635434e+2, -859102.44, -1312989.4, 32393.848, 0.19124866, -0.007926097, -856802.1, 256926.11, 0.000684411, 10.003203, 9.997177 
2.4756157e+3, 1.9635162e+2, -650985.3, -1172961.8, 763.69714, 0.19991031, 0.056283627, -650984.2, 364774.25, 0.000019873376, 10.004002, 9.997085 
2.4755098e+3, 2.0634858e+2, -589008.75, -1021834.2, -58367.15, 0.11683663, 0.07024134, -581276.0, 336513.1, 0.0, 10.003459, 9.9977045 
2.4754031e+3, 2.1634552e+2, -698557.06, -1027897.1, -36025.33, -0.023102446, 0.044377178, -694662.44, 125156.29, 0.0, 10.0020485, 9.997671 
2.4753003e+3, 2.2634311e+2, -658915.75, -855782.4, 116610.4, -0.02036592, 0.044069886, -604747.94, 117096.24, 0.0, 10.001213, 9.998579 
2.4752e+3, 2.3634128e+2, -650127.94, -821000.7, 133655.48, 0.06875394, 0.057382055, -576935.3, 46929.883, 0.0, 10.000684, 9.998403 
2.4750975e+3, 2.4633946e+2, -661699.9, -760337.3, 90620.33, 0.043313585, 0.09078346, -607847.0, -81962.984, 0.0, 9.999868, 9.998534 
2.4749935e+3, 2.5633776e+2, -712004.06, -735168.2, 111801.125, -0.06646038, 0.12123993, -611186.7, -183286.19, 0.0, 9.998856, 9.998524 
2.4748914e+3, 2.6633635e+2, -638983.94, -505618.88, 153828.47, -0.03144992, 0.1210399, -404641.75, -74726.84, 0.0, 9.998064, 9.999809 
2.4747913e+3, 2.7633554e+2, -642497.4, -458861.5, 153996.63, 0.13411053, 0.111491896, -371387.78, -139463.31, 0.0, 9.9973755, 9.999791 
2.4746875e+3, 2.8633556e+2, -649158.4, -261316.22, 94918.06, 0.08896614, 0.12493821, -239332.64, -105408.37, 0.0, 9.996015, 10.001128 
2.4745803e+3, 2.9633597e+2, -817387.06, -303333.97, 133705.34, -0.22816193, 0.10899277, -270636.9, -234717.02, 0.0, 9.994238, 10.001024 
2.4744797e+3, 3.0633748e+2, -786298.94, -260664.05, 152910.53, 0.05444849, 0.21021567, -219417.94, -219417.94, 0.0, 9.994087, 10.001063 
2.474376e+3, 3.163386e+2, -585748.1, -92643.66, 17286.297, -0.032973975, 0.28857338, -92038.414, -92038.414, 0.0, 9.995152, 10.001703 
2.4863565e+3, 1.2647156e+2, -1284424.3, -1605267.8, 58404.49, 0.1939159, -0.10636572, -1274123.4, 426454.3, 0.43778276, 10.005965, 9.998376 
2.486251e+3, 1.3647157e+2, -1346547.9, -1625039.5, 46369.72, 0.1031878, 0.115137346, -1339030.1, 263553.78, 0.31752694, 10.003511, 9.998272 
2.4861448e+3, 1.4646964e+2, -1188858.0, -1442386.6, -13667.031, 0.071883224, 0.112871565, -1188123.4, 316478.1, 0.1944942, 10.003243, 9.999059 
2.4860384e+3, 1.5646665e+2, -938634.6, -1316864.9, -36190.844, 0.10647578, -0.035311513, -935202.9, 471421.84, 0.09363095, 10.004259, 9.998723 
2.4859324e+3, 1.6646394e+2, -873028.75, -1327553.3, -41809.77, 0.14539784, -0.07143685, -869214.9, 439435.06, 0.03188649, 10.00418, 9.997951 
2.4858266e+3, 1.7646159e+2, -880542.4, -1312054.5, -53587.406, 0.17855386, -0.04685769, -873987.2, 336687.44, 0.0062057334, 10.00348, 9.997724 
2.4857219e+3, 1.8645908e+2, -883847.56, -1300672.3, 35076.633, 0.17193145, 0.008300784, -880916.4, 231785.94, 0.00043350272, 10.002936, 9.997386 
2.4856177e+3, 1.9645658e+2, -860473.2, -1249750.0, 52484.86, 0.14401807, 0.07565107, -853521.0, 161209.58, 0.00000583165, 10.002471, 9.997287 
2.4855117e+3, 2.0645377e+2, -790093.75, -1094538.6, -8303.195, 0.090435155, 0.09176045, -789867.44, 126891.984, 0.0, 10.001982, 9.997911 
2.4854048e+3, 2.1645091e+2, -769372.9, -1040427.0, 27703.299, 0.02038154, 0.07066569, -766570.44, 52216.652, 0.0, 10.001476, 9.997856 
2.485301e+3, 2.2644852e+2, -688640.6, -860467.4, 170167.4, -0.00504262, 0.061783366, -583928.6, 136883.67, 0.0, 10.000971, 9.998661 
2.4851994e+3, 2.3644653e+2, -673262.25, -811615.06, 138567.67, 0.007333542, 0.05132, -587563.3, 35271.137, 0.0, 10.000443, 9.998579 
2.4850965e+3, 2.4644493e+2, -619010.44, -660615.3, 88025.44, 0.0075831977, 0.059445873, -549362.75, -24512.988, 0.0, 9.999826, 9.999237 
2.4849921e+3, 2.5644377e+2, -630350.0, -627977.0, 131397.94, -0.012592558, 0.07486551, -497760.22, -70900.84, 0.0, 9.999128, 9.999126 
2.4848892e+3, 2.664432e+2, -646525.5, -511084.4, 167175.92, -0.005906016, 0.13272205, -398433.5, -69566.33, 0.0, 9.998027, 9.999785 
2.4847868e+3, 2.764432e+2, -744854.5, -504264.2, 148295.27, 0.055576608, 0.20912842, -433608.0, -202736.47, 0.0, 9.996663, 9.999818 
2.4846828e+3, 2.8644276e+2, -580116.7, -196498.77, 65186.246, 0.06265477, 0.15674491, -185724.6, -52850.22, 0.0, 9.996357, 10.001405 
2.4845767e+3, 2.96442e+2, -457705.53, -109182.87, 56371.82, -0.07549715, -0.00012797867, -100291.82, -65415.344, 0.0, 9.9966135, 10.001213 
2.4844743e+3, 3.0644354e+2, -639037.75, -240991.63, 107284.305, 0.10717984, 0.122464105, -213917.14, -213917.14, 0.0, 9.995337, 10.000589 
2.4843682e+3, 3.164452e+2, -853754.3, -173168.84, 105928.96, -0.19200034, 0.29732427, -157062.8, -157062.8, 0.0, 9.993118, 10.002124 
2.4963625e+3, 1.2658054e+2, -1308109.9, -1653615.6, 1729.8567, 0.25426736, 0.09081085, -1308101.3, 391414.0, 0.41772687, 10.0057535, 9.997866 
2.4962534e+3, 1.3657768e+2, -1340552.8, -1682906.6, -6811.5347, 0.04492663, 0.07492432, -1340417.4, 261127.73, 0.3008034, 10.003758, 9.997738 
2.4961467e+3, 1.4657444e+2, -1189463.4, -1498214.0, 16507.201, 0.005331659, -0.0009908676, -1188583.4, 314990.75, 0.18208593, 10.003477, 9.998471 
2.496042e+3, 1.5657112e+2, -971449.25, -1394210.3, -8367.64, 0.09418691, -0.12396598, -971283.7, 434317.6, 0.085906014, 10.004263, 9.9981365 
2.4959356e+3, 1.6656843e+2, -911574.94, -1410868.6, -64040.594, 0.09301504, -0.10152629, -903491.75, 404136.22, 0.02818441, 10.004163, 9.997391 
2.4958281e+3, 1.7656629e+2, -898325.5, -1362166.0, -69535.59, 0.030033933, -0.0010804712, -888125.5, 321526.94, 0.005063186, 10.003528, 9.997359 
2.4957225e+3, 1.8656415e+2, -817044.06, -1168851.5, 22313.281, 0.0007781531, 0.057676323, -815634.5, 296041.03, 0.00028110025, 10.002958, 9.998283 
2.4956182e+3, 1.9656216e+2, -809229.06, -1132689.4, 36606.63, -0.006573689, 0.0835544, -805137.94, 208558.7, 0.0000014559189, 10.0024185, 9.998119 
2.4955131e+3, 2.0655951e+2, -766073.6, -1045183.94, -27569.354, 0.08604185, 0.061832167, -763376.5, 152346.03, 0.0, 10.001976, 9.998258 
2.4954078e+3, 2.1655668e+2, -748427.0, -1008560.94, 12313.972, 0.22431847, 0.011294267, -747845.4, 69903.89, 0.0, 10.001519, 9.998059 
2.4953027e+3, 2.2655496e+2, -721854.5, -935905.75, 150430.92, 0.12899677, 0.091765806, -644261.7, 75508.12, 0.0, 10.000993, 9.9981365 
2.4951982e+3, 2.3655398e+2, -695049.3, -854852.06, 118727.53, -0.089215286, 0.23235314, -631840.75, -10055.363, 0.0, 10.000428, 9.998293 
2.4950945e+3, 2.4655204e+2, -545930.2, -510878.3, 60001.79, -0.09442664, 0.15775669, -465895.25, 57906.883, 0.0, 9.9998255, 10.000271 
2.4949913e+3, 2.565498e+2, -568112.0, -505120.34, 102497.63, 0.008739675, -0.033350833, -429388.6, -3571.2905, 0.0, 9.999146, 9.999967 
2.4948867e+3, 2.6654977e+2, -664721.1, -553199.1, 112776.72, -0.010625674, 0.059191395, -483151.25, -155331.14, 0.0, 9.998037, 9.9994955 
2.4947818e+3, 2.7655107e+2, -762819.8, -545776.25, 103551.82, -0.083101295, 0.2928811, -504298.2, -274483.28, 0.0, 9.996674, 9.999532 
2.4946775e+3, 2.8655005e+2, -600949.2, -252430.5, 74625.72, -0.060674798, 0.21766222, -237123.7, -105299.61, 0.0, 9.996402, 10.001005 
2.4945733e+3, 2.9654813e+2, -461895.1, -149673.81, 53559.363, -0.031800203, -0.018538818, -140741.61, -106904.195, 0.0, 9.996745, 10.000876 
2.4944697e+3, 3.0654883e+2, -595041.1, -169419.45, 7490.6196, 0.15862279, 0.014548327, -169287.67, -169287.67, 0.0, 9.99541, 10.00105 
2.4943623e+3, 3.165497e+2, -733191.25, 101689.984, 76199.39, -0.015311249, 0.046249107, 108587.695, 108587.695, 0.0, 9.993006, 10.004069 
2.5063667e+3, 1.2668823e+2, -1363401.8, -1706106.3, 1121.1692, 0.18515208, 0.15523687, -1363398.0, 335065.34, 0.3945527, 10.005062, 9.997616 
2.5062582e+3, 1.3668446e+2, -1136326.8, -1581842.3, 31.121607, 0.074966766, 0.0768537, -1136326.8, 464173.44, 0.2822323, 10.005758, 9.997513 
2.5061515e+3, 1.466812e+2, -974069.3, -1418534.9, 48464.973, 0.06509991, 0.023415223, -968846.0, 533683.7, 0.16898169, 10.005334, 9.998228 
2.506046e+3, 1.5667835e+2, -972039.6, -1417783.1, 42209.063, 0.14565589, -0.028232837, -968077.94, 436476.2, 0.078228086, 10.0043335, 9.997931 
2.5059393e+3, 1.6667546e+2, -926643.25, -1410222.0, 18396.238, 0.12719445, -0.017213665, -925944.44, 380637.84, 0.024774043, 10.004018, 9.9974575 
2.5058314e+3, 1.7667277e+2, -817427.94, -1313941.3, 44585.14, 0.044267792, 0.026207386, -813456.1, 395154.56, 0.004127169, 10.004051, 9.997432 
2.505725e+3, 1.8667045e+2, -780447.6, -1133642.4, 97506.66, -0.0026667144, 0.05779908, -755317.0, 355317.28, 0.00018420437, 10.003143, 9.998431 
2.5056195e+3, 1.9666848e+2, -893832.9, -1155679.0, 69628.336, -0.022035908, 0.07300744, -876469.2, 136184.78, 0.00000026313862, 10.001765, 9.998274 
2.505514e+3, 2.0666592e+2, -780059.1, -1033706.75, 19562.094, 0.062878974, 0.04757509, -778559.25, 136119.6, 0.0, 10.001808, 9.998414 
2.5054088e+3, 2.1666327e+2, -581940.3, -909718.1, 35516.844, 0.20354223, -0.0018422211, -578136.0, 238568.86, 0.0, 10.002589, 9.998219 
2.5053033e+3, 2.2666177e+2, -624453.7, -868726.2, 152549.08, 0.12209495, 0.08554127, -551171.2, 167551.7, 0.0, 10.001581, 9.998311 
2.505198e+3, 2.3666105e+2, -804298.8, -889738.25, 173200.22, -0.0784738, 0.23773926, -668627.7, -47892.617, 0.0, 9.999608, 9.998445 
2.5050935e+3, 2.4665926e+2, -699994.5, -583578.94, 112239.82, -0.0814579, 0.17444856, -515351.28, 7399.37, 0.0, 9.998769, 10.000276 
2.5049895e+3, 2.5665712e+2, -657745.94, -540446.2, 73061.83, 0.023509663, -0.009981241, -505405.94, -80639.98, 0.0, 9.998506, 10.000028 
2.5048843e+3, 2.666569e+2, -673120.25, -525382.75, 65149.285, 0.00600861, 0.04228753, -500757.72, -173987.92, 0.0, 9.997851, 9.999772 
2.5047782e+3, 2.7665782e+2, -705286.0, -494118.22, 102883.88, -0.06877143, 0.21401516, -452280.78, -223514.58, 0.0, 9.996972, 9.99974 
2.5046733e+3, 2.8665712e+2, -622285.2, -286097.5, 133478.3, -0.06069749, 0.177302, -239547.47, -108774.336, 0.0, 9.996362, 10.000791 
2.504569e+3, 2.9665592e+2, -620209.0, -260073.61, 112139.76, -0.028019626, 0.03439678, -228009.97, -195227.64, 0.0, 9.9958105, 10.000565 
2.5044638e+3, 3.066561e+2, -672563.8, -247934.61, -17241.701, 0.1001691, 0.05248032, -247235.67, -247235.67, 0.0, 9.995063, 10.000673 
2.5043568e+3, 3.1665564e+2, -498887.7, 289549.6, 34664.516, 0.1344324, -0.022338154, 291070.72, 291070.72, 0.0, 9.99429, 10.004741 
2.5163695e+3, 1.2679529e+2, -1345130.9, -1713052.5, 11660.517, 0.01926635, 0.13829531, -1344761.6, 352654.72, 0.36918002, 10.005146, 9.997527 
2.516264e+3, 1.367919e+2, -1145786.1, -1599840.9, 9608.9795, 0.15373702, 0.103992365, -1145582.9, 453866.5, 0.2624271, 10.005587, 9.997424 
2.5161573e+3, 1.4678948e+2, -986893.4, -1431932.3, 13791.087, 0.19669761, 0.13988318, -986466.44, 515005.72, 0.15548676, 10.005174, 9.998188 
2.5160506e+3, 1.5678765e+2, -968409.6, -1415135.3, 12488.35, 0.22763701, 0.19389303, -968060.75, 435427.8, 0.070676796, 10.004316, 9.997958 
2.5159436e+3, 1.6678445e+2, -892779.5, -1341886.3, 17891.957, 0.21541841, 0.14424746, -892067.8, 413450.47, 0.021625293, 10.004016, 9.99793 
2.515836e+3, 1.7678073e+2, -802119.3, -1270693.9, 34140.426, 0.16935998, 0.037143882, -799644.94, 407908.16, 0.00334726, 10.003994, 9.997759 
2.5157288e+3, 1.8677779e+2, -813129.2, -1201889.4, 41380.824, 0.11518394, 0.02034817, -808773.3, 300807.78, 0.00011957305, 10.003137, 9.99797 
2.5156215e+3, 1.9677545e+2, -913986.06, -1212322.6, 32328.666, 0.056826364, 0.046146207, -910523.06, 101080.664, 0.00000002568285, 10.001823, 9.99786 
2.5155148e+3, 2.06773e+2, -779670.9, -1038654.44, 50268.805, 0.012206419, 0.048012365, -770256.0, 143372.97, 0.0, 10.001826, 9.998374 
2.5154087e+3, 2.1677062e+2, -587741.94, -902792.3, 50211.277, -0.022098735, 0.028747858, -579933.06, 235721.02, 0.0, 10.002501, 9.998312 
2.5153032e+3, 2.2676891e+2, -576962.56, -759017.4, 76439.76, -0.008345479, 0.046142276, -549124.44, 168547.34, 0.0, 10.001527, 9.999094 
2.515198e+3, 2.3676774e+2, -768639.06, -818934.6, 108584.875, 0.024822548, 0.078565896, -682327.94, -62644.17, 0.0, 9.999615, 9.998932 
2.5150928e+3, 2.4676661e+2, -768192.7, -730732.1, 100389.375, 0.031031165, 0.118834294, -647340.6, -125644.914, 0.0, 9.998786, 9.999261 
2.5149876e+3, 2.5676566e+2, -703290.06, -641828.06, 58300.957, 0.02048828, 0.15093105, -606654.6, -182948.67, 0.0, 9.9985285, 9.999324 
2.5148818e+3, 2.6676434e+2, -610404.7, -400826.97, 29392.398, 0.043985434, 0.07684052, -396782.84, -71065.19, 0.0, 9.997867, 10.000625 
2.514776e+3, 2.7676317e+2, -649556.25, -386991.2, 73644.6, 0.095548764, -0.04674042, -367745.88, -140018.22, 0.0, 9.997001, 10.000465 
2.5146705e+3, 2.8676394e+2, -622838.5, -291661.63, 110180.16, 0.06880204, 0.034021083, -258355.11, -128633.26, 0.0, 9.996372, 10.0007515 
2.514564e+3, 2.9676583e+2, -641840.0, -300477.25, 86435.4, -0.05822292, 0.20931618, -279838.97, -248132.2, 0.0, 9.995785, 10.000302 
2.514456e+3, 3.0676523e+2, -756972.56, -426139.94, -44683.348, -0.15296806, 0.23002978, -420211.1, -420211.1, 0.0, 9.995065, 9.999454 
2.5143492e+3, 3.167626e+2, -577596.94, 107220.914, 6601.6704, -0.022971557, 0.054985, 107284.555, 107284.555, 0.0, 9.994378, 10.003443 
2.526375e+3, 1.2690264e+2, -1235139.0, -1662181.5, 6290.7607, 0.04551361, 0.13925175, -1235046.4, 461317.66, 0.34248856, 10.006129, 9.997527 
2.5262687e+3, 1.3689877e+2, -1258454.0, -1676080.3, 7193.1826, 0.19161509, 0.059111506, -1258330.3, 340072.06, 0.24197927, 10.004426, 9.997464 
2.5261614e+3, 1.4689651e+2, -1113933.9, -1478864.5, 33718.754, 0.20927365, 0.100583896, -1110844.5, 389578.97, 0.14190209, 10.004016, 9.998353 
2.526054e+3, 1.5689515e+2, -962357.0, -1398467.3, 38919.793, 0.19596331, 0.18720877, -958910.94, 443524.63, 0.06334102, 10.004277, 9.998088 
2.5259468e+3, 1.6689217e+2, -895881.7, -1338629.1, 30844.566, 0.17340079, 0.15341443, -893743.2, 410720.38, 0.01872598, 10.00397, 9.997972 
2.525839e+3, 1.7688856e+2, -883413.8, -1300612.8, 16934.658, 0.13940942, 0.052759316, -882727.5, 323770.3, 0.0026924715, 10.0034, 9.997836 
2.5257313e+3, 1.8688549e+2, -812208.4, -1183488.6, 26879.254, 0.109869756, 0.011691739, -810272.5, 298253.47, 0.000075747565, 10.003074, 9.998122 
2.5256234e+3, 1.9688292e+2, -761157.7, -1130232.9, 54153.336, 0.08205276, 0.0005135822, -753376.0, 257173.34, 0.00000000011876218, 10.002844, 9.997928 
2.5255165e+3, 2.0688063e+2, -794140.4, -1071877.1, 88193.21, 0.032674477, 0.033974934, -768502.0, 144071.61, 0.0, 10.001848, 9.998131 
2.5254098e+3, 2.1687867e+2, -888001.06, -1057846.8, 70236.09, -0.025493206, 0.078957476, -862719.56, -48122.94, 0.0, 10.000492, 9.998211 
2.5253034e+3, 2.2687681e+2, -737933.6, -788519.25, 63681.164, -0.0058540297, 0.06263608, -694706.25, 21908.531, 0.0, 10.000219, 9.999517 
2.525198e+3, 2.3687527e+2, -619731.4, -705877.75, 70003.61, 0.05999678, 0.014141463, -580610.9, 38017.64, 0.0, 10.000464, 9.999296 
2.5250918e+3, 2.4687439e+2, -619963.75, -652480.3, 109044.56, 0.061321437, 0.06189261, -525972.1, -5334.406, 0.0, 9.999783, 9.999314 
2.5249857e+3, 2.56874e+2, -687767.25, -631070.6, 140819.86, 0.02315283, 0.14914063, -515774.03, -93130.74, 0.0, 9.998627, 9.999347 
2.5248793e+3, 2.6687267e+2, -593801.75, -394239.47, 95461.57, 0.029476801, 0.07593539, -355929.38, -31274.064, 0.0, 9.997994, 10.000604 
2.5247726e+3, 2.7687111e+2, -569019.94, -345411.6, 69899.586, 0.085035495, -0.08154145, -325359.3, -98691.11, 0.0, 9.997548, 10.0004835 
2.5246668e+3, 2.868721e+2, -585432.44, -255933.13, 85896.95, 0.10494871, 0.009657864, -234885.2, -106223.86, 0.0, 9.996563, 10.000899 
2.5245598e+3, 2.9687446e+2, -697919.0, -311793.28, 78401.89, 0.019320466, 0.21686968, -296481.2, -265837.53, 0.0, 9.995339, 10.000436 
2.5244495e+3, 3.068744e+2, -731689.56, -394336.9, 49084.31, -0.2402585, 0.27839422, -387340.3, -387340.3, 0.0, 9.995165, 9.999618 
2.524345e+3, 3.1687415e+2, -484357.38, 82918.96, 137278.28, 0.13887794, 0.33564195, 114393.37, 114393.37, 0.0, 9.995326, 10.002813 
2.5363815e+3, 1.270104e+2, -1234464.1, -1665095.0, -36454.246, 0.1655921, 0.15407187, -1231400.0, 463906.1, 0.31521782, 10.00592, 9.997581 
2.5362724e+3, 1.3700554e+2, -1231755.4, -1656508.3, -30665.473, 0.19205737, -0.032004096, -1229552.9, 367801.94, 0.22137864, 10.004539, 9.99755 
2.5361642e+3, 1.4700297e+2, -1083045.9, -1443253.1, 40627.86, 0.13639756, -0.040466413, -1078520.4, 420858.16, 0.128485, 10.004088, 9.998598 
2.536057e+3, 1.5700161e+2, -969690.7, -1391085.1, 40469.953, 0.07946611, 0.0240705, -965839.2, 435549.9, 0.05630596, 10.004136, 9.998213 
2.5359488e+3, 1.669992e+2, -930801.25, -1390515.4, 8437.56, 0.034660526, 0.060362473, -930646.44, 372767.03, 0.01607484, 10.003859, 9.997672 
2.5358403e+3, 1.7699647e+2, -894972.06, -1322206.1, 137.57822, -0.011795, 0.07517561, -894972.06, 310470.47, 0.0021441015, 10.00338, 9.997701 
2.5357327e+3, 1.8699363e+2, -772261.06, -1099683.9, 18321.834, 0.007923851, 0.025320716, -771239.0, 336229.0, 0.000046550977, 10.003065, 9.998704 
2.5356257e+3, 1.9699089e+2, -739882.25, -1078078.0, 36643.836, 0.059270762, -0.05805857, -735957.4, 273533.06, 0.0, 10.002804, 9.998308 
2.5355184e+3, 2.0698884e+2, -823634.0, -1134658.4, 34714.273, 0.10953749, 0.010433179, -819806.56, 91706.23, 0.0, 10.001849, 9.997704 
2.5354114e+3, 2.1698733e+2, -903857.7, -1102352.0, 34095.613, 0.15213668, 0.14253117, -898164.3, -84631.06, 0.0, 10.000536, 9.997888 
2.535304e+3, 2.2698542e+2, -728821.94, -775781.94, 75280.95, 0.10398667, 0.12790784, -673444.25, 42108.36, 0.0, 10.000239, 9.9995985 
2.535197e+3, 2.3698357e+2, -605527.3, -671136.44, 70706.15, 0.020018945, 0.038492832, -560386.4, 57182.98, 0.0, 10.000434, 9.999553 
2.5350904e+3, 2.4698256e+2, -548434.3, -502203.8, 63376.0, 0.008900169, 0.00048311727, -457859.22, 61717.598, 0.0, 9.999767, 10.000358 
2.5349838e+3, 2.5698215e+2, -638455.56, -534581.1, 102792.586, 0.017537214, -0.015150917, -471349.8, -49771.65, 0.0, 9.998645, 10.000005 
2.534876e+3, 2.6698187e+2, -658356.4, -534634.7, 78405.08, -0.050121363, 0.04923462, -496625.03, -173042.4, 0.0, 9.9980135, 9.999635 
2.5347677e+3, 2.7698186e+2, -614603.5, -450857.06, 46625.1, -0.121091895, 0.14181161, -438511.78, -212925.17, 0.0, 9.997587, 9.999744 
2.5346622e+3, 2.8698146e+2, -561107.6, -211263.61, 33303.316, 0.029449137, 0.106092624, -208121.53, -80528.1, 0.0, 9.996579, 10.001203 
2.534556e+3, 2.9698107e+2, -655054.9, -222828.3, 40953.69, 0.1805428, 0.004508297, -218982.14, -189382.6, 0.0, 9.995333, 10.001053 
2.5344458e+3, 3.0698383e+2, -600062.94, -127517.09, 62593.14, -0.05748681, 0.21457303, -119366.625, -119366.625, 0.0, 9.995181, 10.001448 
2.53434e+3, 3.1698635e+2, -446213.97, 116814.8, 120782.75, 0.14438522, 0.3914073, 141631.64, 141631.64, 0.0, 9.995484, 10.002987 
2.546388e+3, 1.2711862e+2, -1331124.6, -1795776.1, 16654.543, 0.30231518, 0.08008344, -1330528.5, 363714.72, 0.28802416, 10.005105, 9.996981 
2.5462773e+3, 1.3711484e+2, -1127730.6, -1643261.6, -5306.109, 0.22781216, 0.061059378, -1127676.0, 468609.56, 0.20105201, 10.005552, 9.99714 
2.5461683e+3, 1.4711203e+2, -1013654.0, -1403274.6, 40153.207, 0.15571451, 0.04207738, -1009558.94, 488752.97, 0.115459636, 10.004542, 9.998681 
2.54606e+3, 1.5710987e+2, -1128787.4, -1460525.0, 37305.176, 0.12270504, 0.01889914, -1124644.0, 275685.06, 0.049649008, 10.002919, 9.998316 
2.545952e+3, 1.6710743e+2, -1079932.1, -1448020.8, 48112.48, 0.078976184, 0.04003252, -1073747.3, 228606.4, 0.013674214, 10.00275, 9.997809 
2.545843e+3, 1.7710504e+2, -910249.06, -1319593.6, 57521.668, 0.023493033, 0.07817985, -902319.6, 302060.25, 0.0016890472, 10.003236, 9.997786 
2.5457352e+3, 1.8710256e+2, -793328.9, -1120467.3, 40876.37, 0.03428104, 0.068563335, -788298.6, 318104.9, 0.000027889511, 10.00297, 9.998604 
2.545628e+3, 1.9710016e+2, -800799.9, -1100977.1, 12901.58, 0.08247257, 0.028750874, -800246.4, 208178.27, 0.0, 10.002363, 9.998361 
2.54552e+3, 2.0709799e+2, -755724.3, -1035331.94, 34235.48, 0.1266085, 0.047035076, -751593.5, 158852.63, 0.0, 10.002033, 9.998294 
2.5454122e+3, 2.1709616e+2, -693862.6, -957724.2, 95636.695, 0.16697612, 0.093013614, -662845.25, 149620.73, 0.0, 10.001798, 9.99827 
2.5453043e+3, 2.2709453e+2, -718209.2, -817595.25, 133108.73, 0.110782824, 0.118054084, -625820.1, 88663.77, 0.0, 10.0005245, 9.999169 
2.5451964e+3, 2.3709315e+2, -864698.06, -824597.7, 93681.62, 0.014957884, 0.119844034, -748844.7, -132345.53, 0.0, 9.998789, 9.999286 
2.545089e+3, 2.4709193e+2, -744255.4, -564406.1, 47110.945, 0.015251892, 0.055224083, -552812.9, -34304.414, 0.0, 9.998292, 10.000637 
2.5449818e+3, 2.5709105e+2, -666717.6, -515415.47, 29016.162, 0.05128831, -0.038751695, -510041.72, -89528.92, 0.0, 9.998318, 10.00029 
2.544873e+3, 2.670912e+2, -672826.4, -511548.84, 51761.203, -0.04355178, 0.042016573, -496365.72, -173853.67, 0.0, 9.997793, 9.999896 
2.544764e+3, 2.7709204e+2, -694709.1, -475518.38, 105974.89, -0.16461237, 0.19542664, -432661.06, -208153.33, 0.0, 9.996984, 9.999863 
2.5446576e+3, 2.8709134e+2, -592875.4, -265498.3, 82965.9, -0.0068442123, 0.14887552, -245673.14, -119155.46, 0.0, 9.996535, 10.000847 
2.5445515e+3, 2.970901e+2, -537027.25, -184492.69, 43442.617, 0.19383134, 0.00029267283, -179218.2, -150686.3, 0.0, 9.996227, 10.000882 
2.5444418e+3, 3.070928e+2, -415399.2, 36770.934, 5045.5054, 0.034384362, 0.16790974, 36827.227, 36827.227, 0.0, 9.99614, 10.002107 
2.544332e+3, 3.1709364e+2, -460337.75, 81440.57, -42163.457, -0.15112518, 0.11237099, 84702.266, 84702.266, 0.0, 9.995529, 10.002712 
2.5563934e+3, 1.272274e+2, -1361350.3, -1932749.1, 11457.679, 0.42273667, -0.034704644, -1361120.5, 332054.3, 0.2614436, 10.005168, 9.996006 
2.5562826e+3, 1.3722596e+2, -1168915.0, -1759735.6, -7630.4043, 0.27161196, 0.27335924, -1168816.5, 426384.1, 0.1813467, 10.005471, 9.996382 
2.556173e+3, 1.4722298e+2, -1010474.56, -1408529.1, -17324.955, 0.22585566, 0.26747254, -1009721.94, 487507.6, 0.10300135, 10.00453, 9.99864 
2.5560638e+3, 1.5721953e+2, -1105422.8, -1445658.1, -7494.0737, 0.2643279, 0.11746416, -1105257.8, 294000.53, 0.043424163, 10.003049, 9.998359 
2.5559556e+3, 1.6721664e+2, -1042521.25, -1383462.9, 63836.79, 0.24391283, 0.06823342, -1030960.7, 270324.97, 0.011520955, 10.002803, 9.998229 
2.5558478e+3, 1.7721422e+2, -913570.5, -1301796.1, 65708.805, 0.18534957, 0.06434422, -902750.56, 300559.97, 0.0013157257, 10.003124, 9.997965 
2.555739e+3, 1.8721221e+2, -850868.9, -1222188.1, 17921.914, 0.15062673, 0.13674536, -850005.9, 255327.05, 0.000016496271, 10.002887, 9.997951 
2.5556302e+3, 1.9721055e+2, -817302.06, -1132879.5, -2240.057, 0.12934734, 0.22957025, -817286.1, 190066.39, 0.0, 10.002346, 9.998153 
2.555521e+3, 2.0720796e+2, -661502.7, -833604.94, 27521.281, 0.08626246, 0.12751853, -657208.8, 252165.25, 0.0, 10.002002, 9.999698 
2.5554118e+3, 2.172052e+2, -642215.2, -832038.9, 74834.445, 0.033254445, -0.053957812, -616261.6, 195132.95, 0.0, 10.001713, 9.999177 
2.5553033e+3, 2.2720414e+2, -785247.7, -952051.5, 64629.266, 0.025033262, 0.048165064, -763137.4, -49728.76, 0.0, 10.000499, 9.998262 
2.5551948e+3, 2.3720396e+2, -915823.44, -939217.1, 42927.51, 0.033949323, 0.2582453, -883027.7, -267609.25, 0.0, 9.998818, 9.998488 
2.5550875e+3, 2.4720243e+2, -772982.25, -631517.6, 48009.28, 0.07280022, 0.22164519, -616763.4, -99329.81, 0.0, 9.998318, 10.000168 
2.5549802e+3, 2.572006e+2, -665291.3, -520317.2, 23940.926, 0.11530171, 0.07728487, -516465.94, -97017.76, 0.0, 9.998345, 10.000247 
2.5548714e+3, 2.672006e+2, -564072.56, -290513.56, 18740.139, 0.048117887, 0.04822394, -289235.72, 32208.936, 0.0, 9.997806, 10.001411 
2.5547615e+3, 2.772015e+2, -623710.94, -333387.75, 80354.35, -0.051725283, 0.06599791, -312631.56, -89199.25, 0.0, 9.996999, 10.000835 
2.5546536e+3, 2.8720173e+2, -667128.3, -427085.78, 71607.95, -0.0053430125, 0.1409983, -407347.25, -281913.47, 0.0, 9.996557, 9.999733 
2.5545457e+3, 2.9720193e+2, -607562.44, -346695.0, 37535.438, 0.04810571, 0.24534291, -341401.53, -313963.44, 0.0, 9.996289, 9.9997425 
2.5544366e+3, 3.0720055e+2, -481665.94, -121378.04, -11846.728, -0.051269274, 0.12715822, -120988.93, -120988.93, 0.0, 9.996219, 10.000987 
2.554327e+3, 3.1719935e+2, -480220.88, 33743.14, -98918.97, -0.16512859, -0.04054602, 52124.01, 52124.01, 0.0, 9.995555, 10.002375 
2.566397e+3, 1.2733524e+2, -1204148.1, -1705850.1, -71792.27, 0.26679134, -0.035738718, -1194077.0, 498045.63, 0.2358457, 10.005861, 9.997259 
2.5662878e+3, 1.3733484e+2, -1154173.9, -1656868.9, -8279.644, 0.30587232, 0.2580652, -1154037.5, 440096.25, 0.16250217, 10.005077, 9.997278 
2.566177e+3, 1.4733227e+2, -1018106.5, -1449562.5, -10897.554, 0.2455142, 0.27898088, -1017831.44, 478328.75, 0.091227956, 10.004598, 9.998283 
2.566066e+3, 1.5732889e+2, -947579.94, -1386492.9, -18098.73, 0.18895851, 0.17091629, -946834.9, 451356.53, 0.03766252, 10.004248, 9.998188 
2.565958e+3, 1.6732614e+2, -956485.94, -1290520.9, 56272.797, 0.20501749, 0.11522254, -947260.75, 352956.03, 0.009606171, 10.0031805, 9.998683 
2.56585e+3, 1.7732388e+2, -1070394.1, -1332973.4, 64767.535, 0.23554769, 0.08403317, -1055287.8, 146950.1, 0.0010123135, 10.001861, 9.998356 
2.565741e+3, 1.8732215e+2, -999296.8, -1275218.9, 70716.125, 0.17324673, 0.1597481, -982228.75, 122029.36, 0.000009793076, 10.001798, 9.998106 
2.5656313e+3, 1.9732082e+2, -822360.44, -1116526.4, 87954.06, 0.08061411, 0.27257356, -798068.6, 208207.63, 0.0, 10.002239, 9.998313 
2.565522e+3, 2.073186e+2, -732001.56, -846823.5, 53897.504, 0.060408037, 0.19291958, -710666.4, 197628.06, 0.0, 10.001436, 9.999875 
2.5654125e+3, 2.1731618e+2, -858937.5, -916522.2, 24182.805, 0.06708682, 0.027732627, -850129.2, -39818.066, 0.0, 10.000143, 9.99935 
2.565303e+3, 2.2731486e+2, -821544.25, -950741.8, 50051.523, 0.058049228, 0.08632357, -804423.0, -92096.77, 0.0, 10.000173, 9.998426 
2.565194e+3, 2.3731421e+2, -636431.5, -796374.2, 97324.49, 0.049805857, 0.23797803, -590436.7, 23902.104, 0.0, 10.000708, 9.998556 
2.5650856e+3, 2.47313e+2, -576318.44, -568205.1, 129694.47, 0.06284386, 0.24862985, -442503.88, 73848.55, 0.0, 9.999813, 9.999878 
2.5649774e+3, 2.5731164e+2, -689621.56, -562467.06, 117227.09, 0.08210014, 0.18808174, -492686.66, -74321.87, 0.0, 9.998316, 9.999969 
2.5648686e+3, 2.6731104e+2, -542227.7, -305446.4, 35469.477, 0.055258382, 0.124719515, -300247.28, 20120.172, 0.0, 9.998075, 10.001175 
2.5647593e+3, 2.773109e+2, -451089.5, -269873.28, -36818.36, 0.02257785, 0.057370234, -262678.4, -40314.242, 0.0, 9.998277, 10.000651 
2.5646505e+3, 2.8731135e+2, -519743.25, -362855.28, -37082.55, 0.012509164, 0.16230558, -354531.9, -230169.53, 0.0, 9.99761, 9.9996605 
2.5645408e+3, 2.9731226e+2, -587430.9, -360596.03, 11996.457, -0.02741585, 0.3457606, -359963.34, -333604.5, 0.0, 9.996538, 9.999523 
2.564432e+3, 3.0730936e+2, -566823.56, -241052.8, 29925.463, -0.082381025, 0.12528306, -238326.64, -238326.64, 0.0, 9.995979, 10.000278 
2.5643238e+3, 3.173094e+2, -425304.2, 37218.14, -39579.523, 0.0411023, 0.15422969, 40580.645, 40580.645, 0.0, 9.99604, 10.002162 
2.576399e+3, 1.274427e+2, -1086572.3, -1421261.8, -74954.414, -0.053301208, 0.024483928, -1070552.8, 620524.94, 0.21153095, 10.005501, 9.999858 
2.5762925e+3, 1.3744262e+2, -1076577.9, -1442778.9, -23229.902, 0.32650015, 0.098818876, -1075110.3, 517965.66, 0.14470623, 10.004755, 9.999079 
2.5761807e+3, 1.4744073e+2, -1079715.0, -1546714.0, -20736.258, 0.21801841, 0.15881906, -1078796.0, 416300.72, 0.080231845, 10.0043745, 9.997697 
2.5760677e+3, 1.5743826e+2, -987917.9, -1446392.0, -31858.84, -0.040620532, 0.19816652, -985714.6, 411410.53, 0.032390118, 10.004106, 9.997846 
2.5759584e+3, 1.6743602e+2, -926060.4, -1226646.5, 9739.778, 0.023675598, 0.17579836, -925745.1, 373400.56, 0.007922063, 10.003166, 9.999135 
2.5758508e+3, 1.7743406e+2, -1019954.56, -1250687.4, 31487.592, 0.19767416, 0.12759347, -1015734.7, 185426.47, 0.0007675284, 10.001952, 9.998879 
2.5757417e+3, 1.8743242e+2, -942686.06, -1165361.8, 87205.08, 0.119732395, 0.1467112, -912599.56, 190579.17, 0.000005913737, 10.001824, 9.998851 
2.5756317e+3, 1.974311e+2, -812242.1, -1070889.3, 87511.86, -0.049718447, 0.19220205, -785415.44, 219779.94, 0.0, 10.002128, 9.998683 
2.5755224e+3, 2.0742992e+2, -796149.0, -974892.0, 1298.6041, 0.0460648, 0.25411674, -796139.56, 111068.016, 0.0, 10.001408, 9.999013 
2.575414e+3, 2.1742885e+2, -876424.06, -971511.6, -6793.3765, 0.23562926, 0.30630147, -875941.2, -66724.195, 0.0, 10.000217, 9.9989395 
2.5753042e+3, 2.2742651e+2, -738906.8, -789845.25, 72631.37, 0.1890326, 0.2114298, -687408.5, 23829.027, 0.0, 10.000213, 9.999516 
2.5751942e+3, 2.3742396e+2, -584182.25, -681148.25, 100171.18, 0.049653932, 0.065183125, -521377.94, 91882.18, 0.0, 10.000673, 9.999368 
2.5750843e+3, 2.4742365e+2, -588976.2, -591285.5, 69170.05, -0.019840317, 0.14624813, -520951.16, -5686.101, 0.0, 9.999793, 9.999732 
2.574974e+3, 2.5742432e+2, -728102.5, -648636.44, 75717.26, -0.06505063, 0.30480528, -602860.3, -185598.03, 0.0, 9.998337, 9.999371 
2.5748652e+3, 2.6742253e+2, -683854.5, -609430.3, 43257.223, -0.029477667, 0.2773172, -589581.7, -270300.38, 0.0, 9.998108, 9.999077 
2.5747573e+3, 2.7742007e+2, -537849.94, -465046.16, -41718.266, 0.04716979, 0.17742112, -446081.0, -224775.02, 0.0, 9.998336, 9.999287 
2.5746477e+3, 2.8741992e+2, -438065.66, -207164.84, -84985.875, 0.038244996, 0.21130714, -179257.69, -55950.875, 0.0, 9.997661, 10.0007105 
2.5745365e+3, 2.974208e+2, -518939.0, -230004.45, -26778.398, -0.04984231, 0.29163748, -227543.6, -202246.63, 0.0, 9.99658, 10.000404 
2.5744277e+3, 3.074193e+2, -558444.5, -230167.25, 19647.31, -0.018542828, 0.16917467, -228995.55, -228995.55, 0.0, 9.995997, 10.000351 
2.574321e+3, 3.1742e+2, -489263.88, -111132.625, -36621.64, 0.18978216, 0.27500132, -107618.51, -107618.51, 0.0, 9.996098, 10.001121 
2.5864044e+3, 1.2755507e+2, -1276524.5, -1552574.5, 83902.09, 0.07274391, 0.14826928, -1253024.0, 436955.66, 0.18875033, 10.003944, 9.9994335 
2.586295e+3, 1.3755359e+2, -1337348.5, -1597332.1, 21086.914, 0.2696547, 0.12829864, -1335649.4, 256341.61, 0.12810932, 10.002753, 9.998809 
2.5861832e+3, 1.475514e+2, -1303025.5, -1655568.0, 43135.49, 0.1733492, 0.16454163, -1297824.4, 196190.25, 0.07007886, 10.002658, 9.997776 
2.586071e+3, 1.5754908e+2, -1138440.9, -1516080.6, 61095.477, -0.0032262192, 0.2144308, -1128802.8, 267238.72, 0.027620291, 10.003011, 9.997892 
2.5859612e+3, 1.6754703e+2, -939833.9, -1245244.4, 75247.81, 0.036679942, 0.2192121, -922300.7, 375760.0, 0.0064599705, 10.003125, 9.999022 
2.5858524e+3, 1.7754526e+2, -853443.7, -1172337.4, 60955.62, 0.15275656, 0.20172514, -842189.4, 357885.75, 0.000572236, 10.003109, 9.998858 
2.5857428e+3, 1.8754348e+2, -902809.75, -1116858.8, 80835.13, 0.09221443, 0.1942706, -875712.8, 226380.38, 0.0000035552432, 10.001978, 9.999107 
2.5856325e+3, 1.9754195e+2, -1039011.1, -1160806.6, 57072.64, -0.02955859, 0.19138874, -1016447.4, -12336.662, 0.0, 10.000492, 9.998851 
2.5855234e+3, 2.0754081e+2, -860758.9, -1021289.2, 20104.146, 0.070503116, 0.26132864, -858279.44, 47843.348, 0.0, 10.001037, 9.998871 
2.5854146e+3, 2.1753997e+2, -577554.25, -829160.06, 45048.035, 0.25354856, 0.34918576, -569731.94, 238399.47, 0.0, 10.002287, 9.998917 
2.5853044e+3, 2.2753763e+2, -574862.0, -671077.3, 75227.84, 0.18864392, 0.23569775, -533674.8, 176476.22, 0.0, 10.001181, 9.999858 
2.5851932e+3, 2.3753494e+2, -787303.5, -758567.6, 52734.035, 0.030266339, 0.046100583, -718279.25, -106106.44, 0.0, 9.999198, 9.999542 
2.5850827e+3, 2.4753472e+2, -740426.1, -699598.8, 4863.4434, -0.03380217, 0.14785855, -699027.44, -184849.58, 0.0, 9.99891, 9.999412 
2.584972e+3, 2.5753558e+2, -618079.7, -627186.25, 2288.891, -0.063819975, 0.35412562, -617536.75, -201361.38, 0.0, 9.999236, 9.99908 
2.584863e+3, 2.675337e+2, -609480.5, -599683.7, 77156.67, -0.03813202, 0.34114665, -527270.06, -209074.25, 0.0, 9.998741, 9.998833 
2.5847545e+3, 2.775309e+2, -616974.06, -529185.56, 118892.664, 0.033503857, 0.2392742, -446343.22, -226119.81, 0.0, 9.9979105, 9.999048 
2.5846446e+3, 2.8753012e+2, -474886.47, -236104.88, 37337.64, 0.045014087, 0.23133828, -230402.66, -108173.07, 0.0, 9.997463, 10.000603 
2.584533e+3, 2.9753026e+2, -441445.38, -195609.67, 9341.808, -0.033334415, 0.24633965, -195255.19, -171029.13, 0.0, 9.997129, 10.000373 
2.584424e+3, 3.0752942e+2, -402348.75, -140852.13, 45672.902, 0.0279922, 0.18343447, -133104.47, -133104.47, 0.0, 9.997018, 10.000466 
2.584317e+3, 3.175299e+2, -451228.06, -109601.59, -39435.176, 0.2043356, 0.25935245, -105108.55, -105108.55, 0.0, 9.996443, 10.000959 
2.596411e+3, 1.2767054e+2, -1393537.0, -1841338.1, 22755.703, 0.42267898, 0.31847084, -1392383.6, 296464.84, 0.16761872, 10.0039625, 9.997221 
2.5962958e+3, 1.376667e+2, -1393878.9, -1801164.9, -13321.806, 0.1455976, 0.27237338, -1393443.6, 197444.45, 0.11278839, 10.003016, 9.997283 
2.5961846e+3, 1.4766362e+2, -1235836.6, -1567517.5, 50755.24, 0.118912816, 0.24544384, -1228243.8, 264675.13, 0.06080151, 10.002892, 9.998272 
2.5960755e+3, 1.5766104e+2, -1108036.0, -1475055.0, 68062.3, 0.2042682, 0.22091532, -1095820.6, 299123.72, 0.023353353, 10.003096, 9.9981365 
2.595965e+3, 1.6765901e+2, -980000.4, -1324261.4, 74331.73, 0.17268212, 0.25259143, -964636.56, 332327.78, 0.0052088066, 10.003096, 9.998494 
2.5958544e+3, 1.7765737e+2, -904962.56, -1247723.6, 47764.156, 0.093551226, 0.30009317, -898431.0, 300549.66, 0.00041930727, 10.002967, 9.998411 
2.5957438e+3, 1.876553e+2, -914933.5, -1140654.1, 21253.79, 0.08417136, 0.28865626, -912949.7, 188051.89, 0.0000020172258, 10.0019655, 9.998954 
2.595634e+3, 1.9765328e+2, -1019561.5, -1152074.5, 26574.178, 0.097896315, 0.2501712, -1014430.94, -11408.462, 0.0, 10.000624, 9.998851 
2.5955245e+3, 2.0765139e+2, -823916.2, -955734.75, 70462.61, 0.1150111, 0.21841851, -793342.25, 111696.98, 0.0, 10.001079, 9.999304 
2.595415e+3, 2.1764976e+2, -579006.4, -803875.75, 63896.023, 0.13095029, 0.18776189, -562118.75, 244933.92, 0.0, 10.002159, 9.999154 
2.5953037e+3, 2.2764836e+2, -608855.3, -727979.9, -2724.4705, 0.07009429, 0.17975909, -608793.06, 100272.56, 0.0, 10.001116, 9.999502 
2.5951913e+3, 2.3764716e+2, -812483.8, -817096.2, -506.7095, -0.016965527, 0.17539299, -812428.8, -201351.6, 0.0, 9.999219, 9.999134 
2.5950816e+3, 2.4764612e+2, -772946.75, -774169.6, 17708.918, 0.01611097, 0.24259827, -755838.75, -242747.0, 0.0, 9.998933, 9.998892 
2.5949723e+3, 2.5764537e+2, -610301.3, -618960.44, 4785.8335, 0.078090526, 0.3314961, -608177.25, -193072.2, 0.0, 9.999263, 9.999127 
2.5948617e+3, 2.6764446e+2, -489142.0, -354890.72, 43765.832, 0.022069829, 0.31263998, -341883.34, -24772.262, 0.0, 9.998756, 10.00051 
2.594751e+3, 2.7764365e+2, -552377.94, -399722.2, 94162.125, -0.041870136, 0.24775931, -354837.66, -135723.73, 0.0, 9.997924, 9.999934 
2.5946414e+3, 2.876421e+2, -572667.56, -444382.5, 27616.75, 0.030972632, 0.2184052, -438689.88, -317560.4, 0.0, 9.997477, 9.999172 
2.5945303e+3, 2.976405e+2, -507398.25, -345121.34, 3566.4473, 0.035340253, 0.20253707, -345043.0, -321895.88, 0.0, 9.997178, 9.999327 
2.5944203e+3, 3.0763963e+2, -387148.9, -125380.33, 39986.688, 0.005330252, 0.16865376, -119408.37, -119408.37, 0.0, 9.997078, 10.000549 
2.5943106e+3, 3.1764105e+2, -328955.4, 133433.16, -98603.54, -0.01614732, 0.3112316, 153582.17, 153582.17, 0.0, 9.996481, 10.002614 
2.6064146e+3, 1.2778246e+2, -1302106.6, -1796336.3, -79909.38, 0.39337653, 0.381056, -1289507.6, 398247.5, 0.14811066, 10.004644, 9.997214 
2.606299e+3, 1.3777766e+2, -1111269.4, -1639457.3, -23145.219, 0.101762496, 0.23844446, -1110257.1, 479545.7, 0.09874473, 10.0050955, 9.997391 
2.6061878e+3, 1.4777495e+2, -967017.5, -1393117.8, 60980.117, 0.0953969, 0.21995182, -958462.3, 533366.1, 0.052402925, 10.004642, 9.998656 
2.6060784e+3, 1.5777315e+2, -977782.2, -1382975.1, 64514.02, 0.22248179, 0.23781933, -967758.4, 426086.38, 0.019580964, 10.003881, 9.998387 
2.6059672e+3, 1.6777098e+2, -1041123.5, -1365914.5, 73071.4, 0.17934182, 0.25423118, -1025441.1, 270425.22, 0.004154602, 10.002727, 9.998385 
2.6058558e+3, 1.7776887e+2, -1130239.8, -1376786.6, 74618.76, 0.0700209, 0.26992592, -1109414.9, 88473.24, 0.00030227532, 10.001511, 9.998226 
2.6057455e+3, 1.8776676e+2, -943181.8, -1196293.3, 64576.867, 0.10102592, 0.2856876, -927658.25, 172252.55, 0.0000010444409, 10.001961, 9.9985695 
2.6056358e+3, 1.9776478e+2, -696017.5, -1012070.25, 47023.305, 0.1805372, 0.29000658, -689169.6, 312762.5, 0.0, 10.00292, 9.998702 
2.6055253e+3, 2.0776278e+2, -732147.2, -861691.06, 71537.85, 0.12536445, 0.22316039, -700414.9, 203534.17, 0.0, 10.001502, 9.999741 
2.6054144e+3, 2.1776097e+2, -974389.94, -970509.9, 65373.094, 0.02652034, 0.13544089, -907048.0, -101085.47, 0.0, 9.999347, 9.999362 
2.605303e+3, 2.2775999e+2, -842815.2, -883850.4, 6869.9814, 0.015516774, 0.18773194, -841695.56, -133722.45, 0.0, 9.9997, 9.999112 
2.6051915e+3, 2.3775941e+2, -589761.4, -735051.44, 3263.7292, 0.038941707, 0.28303924, -589688.06, 20293.428, 0.0, 10.000866, 9.998899 
2.6050812e+3, 2.4775793e+2, -599861.0, -673937.75, 49982.426, 0.06763244, 0.3042089, -574689.4, -62689.93, 0.0, 10.000057, 9.999034 
2.6049706e+3, 2.577563e+2, -701030.2, -640809.9, 83079.6, 0.09110189, 0.29510805, -582552.4, -168533.8, 0.0, 9.998552, 9.999316 
2.6048598e+3, 2.6775566e+2, -514375.97, -327826.13, 68537.81, 0.021857312, 0.2732169, -305352.88, 10668.519, 0.0, 9.998421, 10.0008545 
2.604749e+3, 2.7775547e+2, -428088.78, -323341.7, 20555.73, -0.04717258, 0.24088094, -319452.22, -101434.836, 0.0, 9.998715, 10.000073 
2.6046386e+3, 2.8775394e+2, -450255.13, -431478.1, -15982.719, 0.020806601, 0.23460561, -422330.4, -302296.75, 0.0, 9.998527, 9.998749 
2.6045272e+3, 2.9775208e+2, -407803.94, -334708.44, 27887.45, 0.036439642, 0.23318204, -325283.94, -303228.5, 0.0, 9.998033, 9.998982 
2.6044172e+3, 3.077509e+2, -471350.9, -164988.98, 61650.832, 0.07231909, 0.18568519, -153048.08, -153048.08, 0.0, 9.99651, 10.000545 
2.6043046e+3, 3.1775284e+2, -440383.94, 160285.11, -93608.375, -0.15117492, 0.36822754, 174535.0, 174535.0, 0.0, 9.995383, 10.003321 
2.616416e+3, 1.278925e+2, -1225308.4, -1618082.8, -53093.816, 0.13697931, 0.37519413, -1218257.9, 468423.88, 0.1301493, 10.004546, 9.99854 
2.6163036e+3, 1.3788761e+2, -1063426.8, -1510266.6, -11878.107, 0.0963853, 0.09564862, -1063111.3, 525613.7, 0.085937954, 10.004908, 9.998418 
2.6161915e+3, 1.4788601e+2, -980444.06, -1375673.1, 34440.22, 0.07713693, 0.13241942, -977465.4, 513273.1, 0.044860907, 10.004393, 9.998899 
2.6160806e+3, 1.5788558e+2, -1008353.06, -1377694.4, 30590.365, 0.105091356, 0.264779, -1005836.6, 386904.7, 0.016283311, 10.003563, 9.99858 
2.615969e+3, 1.6788308e+2, -1043682.0, -1351208.0, 22347.916, 0.09592944, 0.2328321, -1042066.44, 252699.11, 0.0032795111, 10.002633, 9.998534 
2.6158565e+3, 1.778801e+2, -1112672.4, -1374380.4, 49867.016, 0.062476672, 0.14712253, -1103492.5, 93303.016, 0.00021471149, 10.001653, 9.998177 
2.6157472e+3, 1.8787809e+2, -975447.5, -1277142.8, 105934.64, 0.12833233, 0.21152838, -941966.2, 156853.11, 0.00000047553752, 10.002014, 9.9979925 
2.6156384e+3, 1.9787657e+2, -738585.25, -1066464.4, 56003.492, 0.2203638, 0.3159343, -729283.44, 271555.6, 0.0, 10.0027685, 9.998405 
2.615526e+3, 2.0787494e+2, -711984.6, -808303.3, -12517.445, 0.10459637, 0.2706205, -710384.44, 192468.0, 0.0, 10.001448, 10.000136 
2.615412e+3, 2.1787342e+2, -953016.0, -944837.25, 19201.584, -0.07373471, 0.1767158, -929294.4, -124432.09, 0.0, 9.999422, 9.999505 
2.615302e+3, 2.278724e+2, -864838.75, -944669.8, 55936.066, 0.013478353, 0.24898471, -836036.75, -129162.23, 0.0, 9.999758, 9.99867 
2.615193e+3, 2.3787166e+2, -598798.75, -751225.8, 22658.18, 0.18156345, 0.36645162, -595501.94, 13384.348, 0.0, 10.000847, 9.998801 
2.6150808e+3, 2.4787007e+2, -548415.4, -563923.1, -10227.2705, 0.11083925, 0.33381316, -543334.94, -32433.58, 0.0, 10.000041, 9.9998 
2.6149672e+3, 2.5786838e+2, -680680.3, -603567.0, 45022.625, -0.042766485, 0.24888998, -582847.56, -169931.48, 0.0, 9.998569, 9.999567 
2.614857e+3, 2.6786706e+2, -587145.75, -486829.72, 79826.984, -0.042913955, 0.22233143, -442710.63, -127782.664, 0.0, 9.998446, 9.999754 
2.614748e+3, 2.7786615e+2, -464057.97, -410580.84, 22711.871, 0.020692173, 0.2187358, -402236.94, -185300.27, 0.0, 9.998762, 9.9994545 
2.614636e+3, 2.8786558e+2, -395589.34, -329807.13, -36565.715, 0.00039636402, 0.2856899, -313516.16, -194572.31, 0.0, 9.998571, 9.999429 
2.6145235e+3, 2.9786512e+2, -369792.9, -271722.22, -7357.248, -0.07791759, 0.35858357, -271173.34, -250223.14, 0.0, 9.998094, 9.99939 
2.6144156e+3, 3.0786318e+2, -491027.3, -201685.11, -15027.244, 0.30063164, 0.2402619, -200906.75, -200906.75, 0.0, 9.996481, 10.000312 
2.6143e+3, 3.1786358e+2, -536578.06, -47408.965, -60243.566, -0.0668502, 0.30679953, -40098.918, -40098.918, 0.0, 9.995382, 10.001913 
2.626419e+3, 1.2800342e+2, -1246976.8, -1607418.5, 72480.305, 0.05706802, 0.22055264, -1232948.0, 452645.16, 0.11367691, 10.004185, 9.998792 
2.6263082e+3, 1.3800125e+2, -1166538.9, -1544971.4, 49784.69, 0.19759008, 0.19212697, -1160099.0, 427512.9, 0.07431433, 10.004009, 9.998587 
2.626195e+3, 1.4799944e+2, -1229428.6, -1504562.3, 36936.33, 0.14470078, 0.21034949, -1224556.3, 265071.66, 0.03813188, 10.002634, 9.998821 
2.6260817e+3, 1.5799789e+2, -1373974.0, -1558921.8, 33907.61, 0.07411201, 0.24065754, -1367953.5, 23688.045, 0.013428133, 10.00103, 9.99855 
2.62597e+3, 1.6799533e+2, -1150064.3, -1392746.0, 65497.1, 0.066569164, 0.19748063, -1133515.8, 160150.23, 0.0025630337, 10.00187, 9.99861 
2.6258588e+3, 1.7799257e+2, -850399.2, -1236075.3, 75689.81, 0.068162106, 0.12930718, -836076.8, 359616.06, 0.00015052193, 10.003415, 9.99827 
2.6257485e+3, 1.8799065e+2, -913432.1, -1232368.6, 132648.77, 0.09934549, 0.19063859, -865473.75, 232242.19, 0.0000001940375, 10.002385, 9.9981165 
2.6256385e+3, 1.979892e+2, -1048713.6, -1205495.0, 121933.59, 0.14317484, 0.29248235, -982146.06, 17589.15, 0.0, 10.000601, 9.998491 
2.6255262e+3, 2.0798807e+2, -787753.4, -850290.5, 49599.063, 0.0789087, 0.30042934, -760389.25, 141355.44, 0.0, 10.000957, 10.000081 
2.6254126e+3, 2.1798712e+2, -589933.8, -772354.25, 55484.848, -0.018850142, 0.27071598, -574383.2, 229366.92, 0.0, 10.001934, 9.999475 
2.625302e+3, 2.2798547e+2, -676434.25, -849569.56, 116015.22, 0.043232992, 0.2804758, -618248.75, 87518.54, 0.0, 10.00104, 9.998701 
2.6251927e+3, 2.3798378e+2, -783804.8, -839552.75, 107357.2, 0.16065258, 0.3026082, -700762.0, -92975.71, 0.0, 9.99958, 9.998802 
2.6250795e+3, 2.4798225e+2, -631091.0, -610794.75, 28725.262, 0.075167045, 0.2832438, -590477.7, -80677.08, 0.0, 9.999508, 9.999732 
2.6249656e+3, 2.579809e+2, -513548.5, -540709.9, 26689.045, -0.076220006, 0.24308221, -497183.56, -85371.45, 0.0, 9.999799, 9.999402 
2.6248553e+3, 2.6797953e+2, -558915.3, -524357.3, 84331.8, -0.025813857, 0.24125385, -455552.53, -141725.69, 0.0, 9.998868, 9.99929 
2.624746e+3, 2.779783e+2, -651352.7, -521514.56, 75778.414, 0.1035129, 0.25387603, -486649.6, -270809.1, 0.0, 9.997573, 9.999264 
2.624634e+3, 2.879779e+2, -509556.4, -325475.47, 32927.16, 0.028266286, 0.315436, -319762.94, -201917.98, 0.0, 9.99754, 9.999952 
2.6245204e+3, 2.9797783e+2, -377891.8, -238384.06, 35223.113, -0.12853819, 0.3778615, -229995.31, -210149.67, 0.0, 9.997885, 9.999715 
2.6244125e+3, 3.0797595e+2, -314841.7, -131349.63, -1013.9043, 0.36205772, 0.26286957, -131344.02, -131344.02, 0.0, 9.997763, 10.000173 
2.6242962e+3, 3.1797507e+2, -398166.6, -80726.48, 30072.482, -0.005409592, 0.22380203, -77902.7, -77902.7, 0.0, 9.996778, 10.001005 
2.6364225e+3, 1.2811527e+2, -1280302.5, -1663499.3, 56600.875, 0.0650547, 0.0007482675, -1272117.0, 412374.7, 0.09865765, 10.004061, 9.998411 
2.6363128e+3, 1.3811745e+2, -1220158.3, -1615750.6, 24580.133, 0.34964958, 0.4442974, -1218636.8, 367837.8, 0.0638207, 10.003771, 9.998193 
2.636198e+3, 1.4811456e+2, -1236702.9, -1544966.6, -28993.635, 0.25814295, 0.39044407, -1233999.5, 254503.05, 0.032163613, 10.002718, 9.9985075 
2.6360822e+3, 1.5811034e+2, -1331109.9, -1563339.1, 8994.083, 0.0902027, 0.18138118, -1330762.0, 59780.29, 0.010976864, 10.00143, 9.998331 
2.6359713e+3, 1.6810785e+2, -1122822.9, -1382299.6, 127393.414, 0.06791457, 0.15504324, -1070734.0, 221831.4, 0.0019851995, 10.002063, 9.998592 
2.6358616e+3, 1.7810608e+2, -861087.9, -1223547.0, 95353.86, 0.07549032, 0.18437667, -837533.4, 357048.5, 0.000104982326, 10.003261, 9.998435 
2.6357496e+3, 1.8810423e+2, -885848.94, -1151199.9, 58059.79, 0.02216645, 0.20756994, -873701.4, 222901.13, 0.00000008640195, 10.002276, 9.998729 
2.635637e+3, 1.9810255e+2, -1023863.44, -1159814.4, 83569.055, -0.038401883, 0.23018065, -984114.94, 14507.237, 0.0, 10.000621, 9.998798 
2.635526e+3, 2.0810205e+2, -816658.44, -912912.8, 88846.57, 0.047269333, 0.31790638, -763741.4, 136885.83, 0.0, 10.000963, 9.99965 
2.6354158e+3, 2.181019e+2, -614197.44, -805830.7, 65923.14, 0.16192447, 0.40580532, -593709.8, 208917.86, 0.0, 10.001855, 9.999287 
2.6353028e+3, 2.2809912e+2, -653579.4, -791433.94, 56609.563, 0.091589876, 0.28219253, -633312.44, 71339.65, 0.0, 10.00099, 9.999126 
2.6351896e+3, 2.3809578e+2, -782540.94, -836437.94, 70795.92, -0.027500259, 0.10358699, -733738.0, -127056.04, 0.0, 9.999573, 9.99883 
2.6350775e+3, 2.4809445e+2, -691378.1, -740804.3, 41597.035, -0.035972245, 0.15996113, -667706.8, -159009.25, 0.0, 9.999522, 9.998836 
2.6349655e+3, 2.580939e+2, -548328.6, -621879.0, 21163.342, -0.016025154, 0.28370234, -542673.8, -131966.75, 0.0, 9.999831, 9.998833 
2.6348546e+3, 2.6809293e+2, -544588.25, -497929.2, 29527.0, 0.06928496, 0.3334002, -483627.47, -170909.22, 0.0, 9.998877, 9.999471 
2.6347438e+3, 2.7809194e+2, -636084.1, -489140.0, 42962.957, 0.1871186, 0.35039905, -477500.6, -262772.0, 0.0, 9.997563, 9.999493 
2.6346317e+3, 2.880909e+2, -487125.4, -277630.44, 47557.043, 0.11192081, 0.3173353, -267340.06, -150602.81, 0.0, 9.997526, 10.000291 
2.634518e+3, 2.9809013e+2, -360558.8, -203406.67, 45293.746, -0.09777234, 0.2764089, -191286.97, -172544.13, 0.0, 9.997882, 9.99996 
2.6344076e+3, 3.080891e+2, -304355.6, -133564.7, -10326.232, 0.15395041, 0.24236389, -132942.63, -132942.63, 0.0, 9.997857, 10.000117 
2.6342928e+3, 3.1808856e+2, -364803.38, -32987.32, -23350.977, 0.025530092, 0.24151164, -31352.096, -31352.096, 0.0, 9.996883, 10.001274 
2.6464266e+3, 1.2822986e+2, -1319670.4, -1662911.9, 12106.503, 0.14221969, 0.11665041, -1319244.0, 364127.5, 0.085031204, 10.003614, 9.998626 
2.6463142e+3, 1.3823076e+2, -1387148.1, -1685765.4, 16750.656, 0.23200135, 0.41463938, -1386211.5, 199154.06, 0.054399967, 10.002461, 9.998341 
2.6462e+3, 1.4822799e+2, -1133276.6, -1492371.9, 14452.85, 0.1981765, 0.36790878, -1132695.9, 354696.1, 0.026905201, 10.00344, 9.998514 
2.6460856e+3, 1.5822424e+2, -834990.94, -1336501.0, 54291.246, 0.15746695, 0.20869309, -829180.9, 560246.1, 0.008891579, 10.004935, 9.998198 
2.645974e+3, 1.6822168e+2, -926291.9, -1333759.0, 134774.25, 0.102861926, 0.20796524, -885748.0, 405704.72, 0.0015266923, 10.00362, 9.998172 
2.6458627e+3, 1.7821975e+2, -1115097.3, -1348680.8, 77388.51, 0.04105013, 0.25749606, -1091784.5, 101688.336, 0.00007381441, 10.0015335, 9.998404 
2.6457503e+3, 1.882183e+2, -988817.75, -1116637.4, 38088.887, 0.023138832, 0.27169988, -978328.44, 117159.07, 0.000000036839044, 10.001215, 9.999474 
2.645638e+3, 1.9821706e+2, -887972.8, -1058946.3, 76025.195, 0.0234954, 0.27244195, -859057.56, 138442.11, 0.0, 10.001411, 9.9991045 
2.6455268e+3, 2.0821574e+2, -882552.4, -1019097.4, 90376.69, 0.095094696, 0.31174734, -837559.4, 61953.65, 0.0, 10.000836, 9.9989805 
2.6454163e+3, 2.1821454e+2, -895452.0, -971326.25, 42272.742, 0.18439567, 0.35421985, -876589.4, -75064.39, 0.0, 10.000057, 9.999014 
2.6453027e+3, 2.2821216e+2, -761908.2, -779855.94, 19466.955, 0.08700666, 0.24221963, -749446.25, -45902.164, 0.0, 9.999976, 9.999692 
2.6451886e+3, 2.3820956e+2, -688863.06, -760759.25, 52392.32, -0.057475798, 0.08695257, -661272.06, -55707.594, 0.0, 10.000091, 9.999097 
2.6450765e+3, 2.4820822e+2, -644899.4, -759863.1, 76051.83, -0.036096606, 0.15765828, -607050.0, -99468.73, 0.0, 10.000026, 9.99846 
2.644965e+3, 2.5820747e+2, -559831.2, -649091.44, 78463.99, 0.0344987, 0.29515362, -514192.56, -104597.61, 0.0, 9.999851, 9.998633 
2.6448533e+3, 2.6820645e+2, -443267.72, -428790.25, 68000.37, 0.08758886, 0.3404211, -367644.4, -56038.848, 0.0, 9.999493, 9.999644 
2.6447415e+3, 2.7820548e+2, -422158.6, -376869.2, 86079.36, 0.16168058, 0.34337232, -310505.8, -96891.39, 0.0, 9.998998, 9.999571 
2.6446292e+3, 2.8820404e+2, -384304.6, -243528.8, 81826.91, 0.1343098, 0.27949005, -205981.08, -90354.27, 0.0, 9.998307, 10.000146 
2.644516e+3, 2.982028e+2, -421634.22, -246172.64, 38422.42, -0.02781338, 0.2100724, -238127.78, -220490.97, 0.0, 9.997528, 9.999833 
2.6444033e+3, 3.0820236e+2, -451024.22, -223941.47, -36693.145, 0.046154626, 0.24398133, -218159.63, -218159.63, 0.0, 9.996941, 9.999935 
2.644289e+3, 3.182021e+2, -323398.22, 38602.516, -75215.734, 0.036799867, 0.28721732, 53608.63, 53608.63, 0.0, 9.996965, 10.0017185 
2.6564303e+3, 1.2834613e+2, -1279366.4, -1587654.0, -31440.62, 0.23481643, 0.41526476, -1276192.6, 406046.53, 0.07270054, 10.003616, 9.999174 
2.656313e+3, 1.383425e+2, -1328919.9, -1608907.5, 2596.569, -0.06459183, 0.20541365, -1328895.9, 255376.22, 0.04598078, 10.002661, 9.998772 
2.656201e+3, 1.4834066e+2, -1115697.6, -1466985.4, 68098.39, 0.027087338, 0.2234576, -1102958.5, 383329.4, 0.02230258, 10.003466, 9.998684 
2.6560912e+3, 1.583393e+2, -880961.0, -1375076.8, 62727.234, 0.24917187, 0.29425082, -873122.2, 515177.06, 0.0071342266, 10.004674, 9.99806 
2.6559773e+3, 1.6833654e+2, -999883.94, -1449989.9, 49694.375, 0.15235841, 0.32576007, -994462.7, 295867.56, 0.0011674124, 10.003456, 9.997455 
2.6558632e+3, 1.783337e+2, -1128430.3, -1379091.4, 29350.389, -0.031372696, 0.34459364, -1125039.5, 67323.945, 0.000052712003, 10.001541, 9.998194 
2.6557517e+3, 1.8833284e+2, -925392.4, -996426.6, 47919.15, 0.082720585, 0.37302694, -901262.94, 193106.98, 0.000000014947995, 10.001259, 10.00028 
2.655641e+3, 1.983325e+2, -870765.06, -1024807.56, 68702.82, 0.26600063, 0.39009348, -844576.06, 151793.52, 0.0, 10.001411, 9.999343 
2.6555282e+3, 2.0832917e+2, -943823.44, -1147399.1, 57567.344, 0.19505624, 0.28028592, -928672.1, -30270.6, 0.0, 10.000837, 9.998101 
2.6554143e+3, 2.1832538e+2, -920021.25, -1023393.25, 26441.725, 0.05684113, 0.14274351, -913650.3, -113211.35, 0.0, 10.000057, 9.998659 
2.6553014e+3, 2.2832474e+2, -711062.9, -680798.0, 25865.086, 0.0375189, 0.17143242, -665963.9, 36477.82, 0.0, 10.0, 10.000363 
2.6551893e+3, 2.3832503e+2, -653384.1, -692022.0, 53881.043, 0.05103218, 0.24091579, -615463.3, -11028.552, 0.0, 10.000106, 9.999564 
2.655077e+3, 2.4832346e+2, -634918.44, -741841.75, 68949.56, 0.061930824, 0.266326, -601132.2, -94679.5, 0.0, 10.000032, 9.998583 
2.6549646e+3, 2.5832152e+2, -544681.2, -625755.94, 69575.04, 0.05978053, 0.27523842, -504695.47, -96219.516, 0.0, 9.999881, 9.998783 
2.6548514e+3, 2.6832005e+2, -429419.8, -406515.72, 51480.75, 0.020213604, 0.25704733, -365228.63, -54739.555, 0.0, 9.999514, 9.999791 
2.6547384e+3, 2.7831888e+2, -422164.75, -390092.03, 67156.375, 0.0039547216, 0.22824477, -337083.88, -124585.76, 0.0, 9.999049, 9.999458 
2.6546264e+3, 2.8831726e+2, -430330.9, -347941.9, 49883.266, 0.08165726, 0.19902901, -324442.3, -209928.33, 0.0, 9.99834, 9.999415 
2.6545137e+3, 2.9831585e+2, -461192.7, -331358.34, 7235.922, 0.07421979, 0.18345109, -330956.3, -314427.53, 0.0, 9.997535, 9.999249 
2.6544e+3, 3.083157e+2, -473046.13, -262595.94, -60254.82, 0.08036259, 0.28212664, -246565.25, -246565.25, 0.0, 9.9969, 9.999695 
2.6542857e+3, 3.1831506e+2, -292025.28, 84954.02, -33716.242, 0.06130921, 0.297975, 87945.79, 87945.79, 0.0, 9.99702, 10.002025 
2.6664343e+3, 1.2846051e+2, -1244090.6, -1620037.3, 20796.105, 0.3037657, 0.4167443, -1242943.8, 438175.5, 0.061561543, 10.004054, 9.998722 
2.6663154e+3, 1.3845657e+2, -1142984.3, -1555890.1, 9048.951, -0.104226165, 0.22259241, -1142786.1, 440369.16, 0.0384797, 10.004135, 9.998434 
2.6662037e+3, 1.4845444e+2, -1135206.6, -1495087.9, 61596.445, -0.008772034, 0.2340572, -1124955.9, 360218.9, 0.018294185, 10.003404, 9.998515 
2.666094e+3, 1.5845293e+2, -1186552.4, -1513853.3, 24741.363, 0.2556055, 0.30041727, -1184692.6, 202496.19, 0.0056640357, 10.002521, 9.998141 
2.66598e+3, 1.6845058e+2, -1150877.0, -1460578.6, 34948.78, 0.18765211, 0.33415636, -1146982.1, 142232.58, 0.00088699936, 10.00216, 9.998001 
2.6658648e+3, 1.784482e+2, -1053576.4, -1318877.4, 89640.65, 0.023128893, 0.35460725, -1026128.2, 165113.55, 0.00003796397, 10.001959, 9.998402 
2.6657525e+3, 1.8844709e+2, -893272.56, -1032863.75, 90066.8, 0.079305686, 0.38280526, -849123.2, 244128.19, 0.0000000057994387, 10.001711, 9.999808 
2.6656413e+3, 1.9844635e+2, -876856.7, -1044578.4, 32336.555, 0.19870391, 0.40270373, -870838.25, 124417.46, 0.0, 10.001451, 9.999185 
2.6655278e+3, 2.0844316e+2, -874935.0, -1066275.9, 55084.652, 0.1462861, 0.2830445, -860210.0, 37075.383, 0.0, 10.001112, 9.998522 
2.665414e+3, 2.1843958e+2, -807027.7, -952706.5, 105013.68, 0.04384911, 0.13175778, -752064.7, 47254.965, 0.0, 10.0007715, 9.9987955 
2.6653013e+3, 2.2843899e+2, -641652.2, -695044.44, 80883.67, 0.024931615, 0.19360033, -583172.9, 118150.5, 0.0, 10.000689, 9.999929 
2.6651886e+3, 2.3843937e+2, -589383.5, -679296.8, 30109.275, 0.043922655, 0.3100215, -580232.25, 23085.611, 0.0, 10.000628, 9.999396 
2.6650766e+3, 2.4843769e+2, -621496.9, -695499.8, 26903.352, 0.093253836, 0.30485076, -612750.1, -107414.625, 0.0, 9.999958, 9.998934 
2.6649642e+3, 2.5843555e+2, -638576.6, -645569.25, 46162.434, 0.13362324, 0.25927112, -595778.3, -188419.92, 0.0, 9.999131, 9.999005 
2.6648504e+3, 2.6843405e+2, -481759.84, -438439.78, 29873.018, 0.046972815, 0.23591495, -423200.6, -113829.37, 0.0, 9.999189, 9.999725 
2.6647362e+3, 2.784329e+2, -383526.25, -384083.38, 20956.025, -0.035308875, 0.21541312, -362846.94, -151466.69, 0.0, 9.999376, 9.999338 
2.6646242e+3, 2.8843126e+2, -384784.2, -352066.25, 11967.151, 0.04098836, 0.19977675, -348156.3, -234759.33, 0.0, 9.998773, 9.999174 
2.6645106e+3, 2.9842976e+2, -398602.78, -302123.7, 16172.831, 0.0735234, 0.19454381, -299484.78, -284071.56, 0.0, 9.997974, 9.999235 
2.664397e+3, 3.0842972e+2, -275816.56, -115512.586, 16356.484, 0.10337489, 0.2808625, -113860.69, -113860.69, 0.0, 9.99804, 10.00015 
2.6642826e+3, 3.184295e+2, -239975.89, 70108.91, 58924.605, 0.09854774, 0.30770764, 80928.664, 80928.664, 0.0, 9.9975605, 10.001655 
2.676438e+3, 1.2857409e+2, -1283389.8, -1749391.1, 11407.704, 0.3474659, 0.2606959, -1283110.6, 396893.3, 0.05153524, 10.004221, 9.997724 
2.67632e+3, 1.3857235e+2, -1204745.9, -1678522.8, 2144.6228, 0.003812242, 0.38398042, -1204736.1, 377285.38, 0.031819247, 10.00407, 9.997617 
2.6762068e+3, 1.485691e+2, -1170396.3, -1560816.8, 30961.363, 0.02936259, 0.33948252, -1167956.1, 316098.2, 0.014818571, 10.003348, 9.998093 
2.676095e+3, 1.5856577e+2, -1175628.3, -1486493.1, 5702.8823, 0.19476773, 0.2545557, -1175523.8, 210564.2, 0.0044402415, 10.002495, 9.998344 
2.6759818e+3, 1.6856422e+2, -1046702.75, -1258261.8, 25907.596, 0.21156518, 0.26702937, -1043576.25, 244525.72, 0.00066738925, 10.002214, 9.999368 
2.6758674e+3, 1.7856318e+2, -1013667.6, -1255720.4, 73006.445, 0.15748636, 0.30223617, -993352.9, 196757.69, 0.000027206008, 10.002039, 9.998799 
2.675753e+3, 1.8856114e+2, -994069.06, -1242576.5, 76250.2, 0.015676837, 0.32202044, -972538.44, 119593.16, 0.000000001728097, 10.001707, 9.998374 
2.6756388e+3, 1.9855906e+2, -923050.1, -1117169.9, 24908.344, -0.12154298, 0.3339788, -919905.0, 74248.34, 0.0, 10.001345, 9.99874 
2.6755267e+3, 2.0855775e+2, -780244.8, -860597.44, 40917.14, -0.019853795, 0.3184187, -763077.0, 133086.86, 0.0, 10.001069, 9.999956 
2.675415e+3, 2.1855666e+2, -776941.8, -890535.94, 92208.49, 0.119908266, 0.29031575, -725441.5, 72730.13, 0.0, 10.000767, 9.999228 
2.675301e+3, 2.2855467e+2, -740011.56, -901735.6, 77939.22, 0.03576261, 0.29221448, -708565.2, -8373.426, 0.0, 10.000694, 9.99851 
2.6751876e+3, 2.3855264e+2, -642014.8, -786498.7, 19188.281, -0.08336256, 0.2989469, -639509.94, -37296.926, 0.0, 10.000614, 9.998671 
2.6750755e+3, 2.4855094e+2, -583739.0, -616423.75, -6142.802, 0.05983548, 0.2774694, -582622.6, -78393.516, 0.0, 9.999951, 9.999481 
2.6749638e+3, 2.5854948e+2, -617243.9, -608145.2, 28630.895, 0.24269365, 0.25165093, -583704.44, -177462.14, 0.0, 9.999157, 9.999252 
2.6748502e+3, 2.685484e+2, -501531.44, -485271.1, 37850.332, 0.16697365, 0.28218082, -454687.6, -146434.81, 0.0, 9.999206, 9.999399 
2.674736e+3, 2.7854753e+2, -385805.5, -399211.94, 13630.949, 0.045130208, 0.3183084, -377318.72, -167056.89, 0.0, 9.9994135, 9.99922 
2.674622e+3, 2.8854594e+2, -357504.56, -302971.2, -23509.512, 0.005030024, 0.29247877, -294235.5, -181959.1, 0.0, 9.998797, 9.999504 
2.674507e+3, 2.9854447e+2, -346783.25, -203840.89, 19.196045, -0.06654791, 0.25324994, -203840.89, -189551.23, 0.0, 9.998008, 9.999898 
2.6743945e+3, 3.0854434e+2, -179142.75, 65116.3, 29576.584, 0.11389656, 0.22470509, 68646.62, 68646.62, 0.0, 9.998119, 10.001356 
2.6742792e+3, 3.18546e+2, -342070.9, -149202.03, -38404.51, 0.07915894, 0.36759663, -141836.14, -141836.14, 0.0, 9.997584, 10.00014 
2.6864412e+3, 1.2868838e+2, -1090321.0, -1619397.1, -50588.23, 0.22895826, 0.25899598, -1085527.4, 593358.25, 0.04255977, 10.005403, 9.99807 
2.686324e+3, 1.386872e+2, -1215528.6, -1658707.0, 3227.872, 0.09284091, 0.4035533, -1215505.1, 365392.03, 0.025933124, 10.003862, 9.997852 
2.6862094e+3, 1.4868428e+2, -1218602.9, -1581252.9, 72805.62, 0.06340992, 0.38482752, -1204532.4, 278394.56, 0.0118175605, 10.003, 9.998117 
2.686096e+3, 1.5868111e+2, -1189628.6, -1497107.9, 75928.04, 0.11304925, 0.31705758, -1171901.1, 213058.17, 0.0034243166, 10.002418, 9.998304 
2.6859826e+3, 1.6867912e+2, -1002872.06, -1255874.1, 54864.1, 0.14675272, 0.30273962, -991487.0, 295490.03, 0.0004946017, 10.002603, 9.999192 
2.685869e+3, 1.786776e+2, -896780.44, -1207105.6, 4897.839, 0.15091304, 0.30374125, -896703.1, 292286.38, 0.00001910125, 10.00288, 9.998725 
2.6857543e+3, 1.8867542e+2, -1001326.5, -1240774.1, 28748.207, 0.037743244, 0.307239, -997923.4, 93087.97, 0.0000000002885943, 10.001643, 9.998411 
2.6856393e+3, 1.9867326e+2, -1099046.4, -1204509.6, 70352.445, -0.086123735, 0.30987737, -1063857.0, -70823.38, 0.0, 10.0001545, 9.998709 
2.6855272e+3, 2.0867214e+2, -894135.06, -930329.8, 55970.5, 0.008461857, 0.32424945, -853408.9, 41634.926, 0.0, 10.000356, 9.999818 
2.6854154e+3, 2.1867135e+2, -753512.9, -883729.0, 11051.785, 0.14890939, 0.33910537, -752581.56, 44468.375, 0.0, 10.000955, 9.99918 
2.685302e+3, 2.286694e+2, -712160.56, -884173.06, 45581.27, 0.06978257, 0.3409886, -700828.56, -1758.3778, 0.0, 10.000871, 9.998545 
2.6851878e+3, 2.3866723e+2, -644033.0, -777399.06, 71887.66, -0.044995707, 0.33117417, -612662.7, -11569.698, 0.0, 10.000565, 9.998753 
2.6850748e+3, 2.4866547e+2, -527743.75, -571573.1, 36044.027, 0.06115651, 0.2922481, -507475.22, -4366.804, 0.0, 10.000266, 9.999634 
2.6849625e+3, 2.58664e+2, -499354.8, -539631.8, 50344.64, 0.20850456, 0.2517223, -465270.25, -60150.066, 0.0, 9.999924, 9.999349 
2.6848486e+3, 2.6866296e+2, -462636.9, -466862.56, 84203.73, 0.14397836, 0.28353265, -380519.5, -73389.12, 0.0, 9.999483, 9.999388 
2.6847348e+3, 2.786621e+2, -445084.94, -429384.3, 75239.39, 0.048958115, 0.32578808, -361586.8, -152447.14, 0.0, 9.99902, 9.9992 
2.6846197e+3, 2.886607e+2, -326385.7, -286424.7, 15326.786, -0.004027033, 0.32111058, -281223.22, -170070.39, 0.0, 9.999013, 9.999509 
2.684504e+3, 2.9865938e+2, -208367.11, -126657.47, 2702.8079, -0.09651167, 0.29508898, -126568.164, -113403.46, 0.0, 9.998922, 9.999981 
2.6843917e+3, 3.0865857e+2, -268211.13, 42494.27, -45419.277, 0.13040885, 0.18227208, 48997.594, 48997.594, 0.0, 9.997427, 10.00153 
2.6842755e+3, 3.186606e+2, -452027.5, -244078.94, -113063.07, 0.042966247, 0.3540624, -194450.13, -194450.13, 0.0, 9.99702, 9.999754 
2.6964438e+3, 1.2880327e+2, -1091537.0, -1498062.4, -108017.84, 0.0069979443, 0.3434033, -1064618.1, 613145.94, 0.03456908, 10.004812, 9.99921 
2.6963282e+3, 1.3880168e+2, -1182449.9, -1553038.9, -42452.176, 0.1626144, 0.33906785, -1177649.0, 402127.1, 0.020759499, 10.003688, 9.998665 
2.6962122e+3, 1.4879997e+2, -1187819.0, -1536105.9, 40330.523, 0.08715571, 0.39600638, -1183209.9, 298583.1, 0.009237862, 10.003071, 9.998395 
2.696097e+3, 1.587982e+2, -1183933.8, -1526102.5, 55494.21, 0.0052459803, 0.44976032, -1175158.5, 208652.7, 0.002583295, 10.002589, 9.998025 
2.6959834e+3, 1.68795e+2, -1086513.4, -1435112.0, 65254.617, 0.014981754, 0.40691847, -1074698.8, 211144.05, 0.00035840768, 10.00262, 9.997956 
2.6958704e+3, 1.7879176e+2, -948924.3, -1275697.5, -6525.2905, 0.039403766, 0.34437954, -948794.06, 239080.23, 0.000012945244, 10.002705, 9.998341 
2.695756e+3, 1.8879001e+2, -924136.7, -1083830.1, -32697.807, 0.12790367, 0.327514, -917701.06, 172188.08, 0.000000000007316074, 10.001652, 9.999487 
2.6956418e+3, 1.9878863e+2, -1061275.9, -1168764.4, 39848.07, 0.2174782, 0.31819278, -1048114.94, -56214.85, 0.0, 10.000333, 9.998871 
2.6955286e+3, 2.087863e+2, -977705.56, -1128249.4, 80862.555, 0.18285872, 0.30298284, -942503.0, -48577.797, 0.0, 10.000456, 9.998414 
2.6954156e+3, 2.1878405e+2, -786656.2, -945395.5, 27817.012, 0.123490125, 0.29095605, -781922.75, 14027.68, 0.0, 10.000918, 9.998777 
2.6953027e+3, 2.287834e+2, -625831.2, -697623.25, 36990.355, 0.124446414, 0.34762663, -610183.0, 87773.59, 0.0, 10.000837, 9.999842 
2.6951897e+3, 2.3878312e+2, -595280.9, -673052.8, 60126.355, 0.13266441, 0.40709677, -562561.7, 37396.535, 0.0, 10.000546, 9.99948 
2.695075e+3, 2.487812e+2, -543535.56, -605738.2, 22464.014, 0.08388299, 0.3468017, -536271.2, -34296.848, 0.0, 10.000266, 9.999403 
2.6949596e+3, 2.5877908e+2, -497549.13, -543091.75, 36858.215, 0.01626558, 0.26038805, -476995.38, -73003.08, 0.0, 9.999949, 9.999315 
2.6948458e+3, 2.6877767e+2, -439819.1, -423070.53, 65063.438, -0.032549582, 0.23534295, -365844.7, -59840.37, 0.0, 9.999495, 9.999685 
2.694732e+3, 2.787766e+2, -440146.97, -422651.72, 65863.625, -0.048364244, 0.23134165, -364957.34, -156943.53, 0.0, 9.999029, 9.999244 
2.6946184e+3, 2.887754e+2, -352045.5, -346210.72, 18024.707, 0.017540097, 0.27743378, -330868.84, -220841.8, 0.0, 9.999035, 9.999091 
2.6945037e+3, 2.987743e+2, -245281.45, -220094.81, -25741.22, 0.012402896, 0.3166615, -204031.52, -191991.16, 0.0, 9.998988, 9.9993105 
2.6943883e+3, 3.087721e+2, -354445.38, -129838.29, -128432.39, 0.10921247, 0.16309957, -71534.195, -71534.195, 0.0, 9.997392, 10.000365 
2.6942715e+3, 3.187724e+2, -347517.0, -43730.11, 79933.37, -0.014230382, 0.23490728, -23981.6, -23981.6, 0.0, 9.997072, 10.001115 
2.7064455e+3, 1.2891842e+2, -1507626.8, -1659854.6, -41341.57, -0.055247534, 0.35003683, -1497124.0, 179510.13, 0.027504602, 10.001669, 9.999574 
2.706331e+3, 1.3891706e+2, -1315480.9, -1612347.6, -16821.03, 0.21287471, 0.34106022, -1314530.9, 264112.84, 0.016246779, 10.002719, 9.998722 
2.706215e+3, 1.4891475e+2, -1157314.6, -1568604.0, 29878.35, 0.11155938, 0.36578214, -1155155.4, 325511.53, 0.007038538, 10.003488, 9.997967 
2.7060995e+3, 1.5891227e+2, -991956.56, -1461348.8, -6390.286, -0.018787825, 0.38961565, -991869.6, 390823.06, 0.0018931088, 10.004032, 9.997772 
2.7059856e+3, 1.6890915e+2, -1082861.1, -1434372.6, 25699.842, 0.029512994, 0.361041, -1080992.0, 203731.2, 0.00025138617, 10.002652, 9.997944 
2.705872e+3, 1.7890613e+2, -1178604.0, -1367756.8, 31511.453, 0.10523706, 0.31906134, -1173492.6, 13259.774, 0.000008335715, 10.00105, 9.998504 
2.7057576e+3, 1.8890467e+2, -853849.7, -1002703.0, 13489.195, 0.15411858, 0.3009498, -852637.2, 236126.88, 0.0, 10.001935, 9.999906 
2.705643e+3, 1.9890365e+2, -632255.06, -942914.2, 40995.27, 0.1980456, 0.2895321, -626936.3, 363835.44, 0.0, 10.003203, 9.999036 
2.7055287e+3, 2.0890144e+2, -757515.7, -1051657.8, 113586.0, 0.14008762, 0.29909626, -718759.75, 174037.36, 0.0, 10.002102, 9.998143 
2.705415e+3, 2.1889918e+2, -847337.7, -977123.56, 128211.195, 0.06465977, 0.31282264, -768532.3, 26291.404, 0.0, 10.000519, 9.998747 
2.705302e+3, 2.2889856e+2, -721608.2, -705223.9, 108941.695, 0.09207551, 0.35347962, -604166.75, 92661.68, 0.0, 10.00002, 10.00018 
2.7051893e+3, 2.3889837e+2, -695938.9, -706285.6, 70610.766, 0.14530502, 0.3916681, -630312.25, -31484.266, 0.0, 9.999797, 9.999609 
2.7050745e+3, 2.4889648e+2, -644650.5, -678218.06, 22163.234, 0.11273359, 0.34651113, -633633.1, -132788.27, 0.0, 9.9996805, 9.999184 
2.704959e+3, 2.5889432e+2, -561851.7, -581622.1, 33688.48, 0.046926953, 0.27621853, -536628.06, -133763.44, 0.0, 9.999545, 9.999243 
2.7048442e+3, 2.6889277e+2, -448397.28, -411352.56, 48072.547, -0.056808233, 0.22973782, -378357.47, -73480.36, 0.0, 9.999373, 9.99982 
2.7047297e+3, 2.7889156e+2, -420695.8, -396806.1, 40227.246, -0.11981953, 0.19908322, -366787.75, -159901.23, 0.0, 9.999103, 9.999381 
2.7046165e+3, 2.888908e+2, -423053.34, -364887.88, 27569.406, 0.017298115, 0.271078, -353897.22, -245000.67, 0.0, 9.998487, 9.999223 
2.7045023e+3, 2.9889008e+2, -420961.03, -329002.97, 21613.605, 0.09982715, 0.34501442, -324176.28, -313269.25, 0.0, 9.997891, 9.999089 
2.7043846e+3, 3.088873e+2, -197346.25, -142279.02, -52061.027, 0.029052872, 0.19833578, -110919.086, -110919.086, 0.0, 9.998859, 9.999569 
2.704269e+3, 3.188863e+2, -53006.26, 183977.36, 219715.14, 0.012048795, 0.19238141, 315115.38, 315115.38, 0.0, 9.998735, 10.001874 
2.7164465e+3, 1.2903394e+2, -1465835.5, -1649979.6, -16215.072, -0.043504238, 0.32050484, -1464418.5, 211078.78, 0.021337857, 10.002002, 9.999479 
2.7163336e+3, 1.3903314e+2, -1333140.5, -1671180.4, 7599.61, 0.23688817, 0.38399008, -1332969.8, 244532.92, 0.012364092, 10.002803, 9.998279 
2.716218e+3, 1.4902903e+2, -1218397.8, -1699161.3, 53088.56, 0.13230407, 0.3062436, -1212605.3, 266939.78, 0.0051936917, 10.003488, 9.997076 
2.716103e+3, 1.5902457e+2, -1016771.6, -1497634.9, -12438.813, 0.006718204, 0.20385723, -1016450.1, 365141.66, 0.0013372692, 10.003961, 9.9975605 
2.7159885e+3, 1.6902234e+2, -1019128.1, -1315120.0, -38347.37, 0.14035477, 0.2154658, -1014240.7, 269370.97, 0.00016832622, 10.002707, 9.998737 
2.7158743e+3, 1.7902078e+2, -1121940.8, -1287867.1, 16588.418, 0.2841045, 0.2469912, -1120298.6, 65325.58, 0.0000049507566, 10.001209, 9.998978 
2.7157587e+3, 1.8901953e+2, -865629.75, -1017273.0, 72242.46, 0.11999398, 0.23893084, -836723.7, 250912.38, 0.0, 10.001889, 9.99983 
2.7156425e+3, 1.990185e+2, -661057.1, -937833.2, 51674.78, -0.08607323, 0.23038408, -651724.0, 337922.56, 0.0, 10.00292, 9.999209 
2.715528e+3, 2.0901747e+2, -732125.3, -972063.56, 49271.402, -0.07963155, 0.31183633, -722401.5, 169258.33, 0.0, 10.001983, 9.998748 
2.7154142e+3, 2.1901645e+2, -830010.25, -948767.3, 85603.75, -0.034328118, 0.39796627, -785207.1, 8465.797, 0.0, 10.000547, 9.998931 
2.7153003e+3, 2.2901474e+2, -751031.44, -776239.44, 98626.7, -0.02418117, 0.35686216, -664206.6, 31481.01, 0.0, 10.000059, 9.999676 
2.7151868e+3, 2.3901302e+2, -724345.4, -766341.8, 63245.14, -0.0062716957, 0.29177397, -678703.75, -81001.94, 0.0, 9.999796, 9.9992 
2.715074e+3, 2.4901132e+2, -661310.56, -714083.75, 17949.885, 0.14984524, 0.2939024, -655784.0, -156064.2, 0.0, 9.999681, 9.9989395 
2.7149606e+3, 2.5900978e+2, -567727.44, -601762.7, 28259.922, 0.28801167, 0.30537358, -551756.8, -150019.77, 0.0, 9.999575, 9.999093 
2.7148443e+3, 2.6900825e+2, -449694.88, -418048.03, 37767.574, 0.07005598, 0.27156177, -392923.06, -89173.664, 0.0, 9.999386, 9.999771 
2.7147278e+3, 2.79007e+2, -397033.88, -355628.47, 22265.78, -0.17091256, 0.23602015, -345927.78, -140168.98, 0.0, 9.999131, 9.999653 
2.714614e+3, 2.8900683e+2, -371497.16, -255544.03, -3098.671, -0.01739419, 0.30597433, -255461.28, -147699.61, 0.0, 9.998471, 9.999985 
2.7144998e+3, 2.990069e+2, -401658.94, -282447.2, 27132.842, 0.12101059, 0.39235023, -276562.22, -266799.2, 0.0, 9.997858, 9.999428 
2.714382e+3, 3.0900455e+2, -199051.31, -176156.16, 10097.879, -0.08725585, 0.29989594, -172338.92, -172338.92, 0.0, 9.998981, 9.999282 
2.7142683e+3, 3.1900287e+2, -62932.57, 141277.0, 16942.705, 0.12605949, 0.25159135, 142673.14, 142673.14, 0.0, 9.998826, 10.001537 
2.7264497e+3, 1.291485e+2, -1213299.9, -1584779.9, -46184.94, 0.027797323, 0.26840398, -1207643.9, 466727.56, 0.01605722, 10.003998, 9.998975 
2.7263355e+3, 1.391467e+2, -1275989.9, -1657171.5, -31150.965, 0.19919766, 0.2744309, -1273460.9, 302927.44, 0.009094571, 10.003255, 9.998155 
2.7262202e+3, 1.4914364e+2, -1226692.5, -1657336.5, 78999.53, 0.08157364, 0.27440295, -1212657.8, 265763.72, 0.0036863086, 10.003236, 9.997479 
2.7261057e+3, 1.5914045e+2, -1060817.3, -1457922.0, 56990.438, -0.028835503, 0.26057547, -1052800.1, 327655.78, 0.000903587, 10.0034, 9.998098 
2.7259907e+3, 1.6913845e+2, -877027.3, -1168276.4, 14225.213, 0.12097213, 0.23041019, -876334.1, 406138.44, 0.00010594795, 10.00335, 9.999432 
2.7258757e+3, 1.7913693e+2, -834907.3, -1119684.6, 63423.74, 0.28200775, 0.20782346, -821420.7, 363062.84, 0.0000025953589, 10.003059, 9.999237 
2.725759e+3, 1.8913597e+2, -1014411.4, -1134059.0, 102725.47, 0.11694235, 0.252413, -955359.56, 131135.19, 0.0, 10.001069, 9.999419 
2.7256426e+3, 1.991352e+2, -1229607.5, -1221302.3, 76989.94, -0.09576077, 0.30536518, -1148353.0, -159847.66, 0.0, 9.999062, 9.999119 
2.7255282e+3, 2.0913398e+2, -959720.06, -1039931.94, 81159.41, -0.09441339, 0.34708023, -909297.94, -18779.307, 0.0, 10.000245, 9.999117 
2.7254143e+3, 2.1913272e+2, -630468.75, -848129.1, 86792.234, -0.043799777, 0.37901977, -600098.0, 192433.88, 0.0, 10.001904, 9.998967 
2.7253002e+3, 2.2913058e+2, -598447.06, -755363.25, 76417.75, -0.022544421, 0.32575363, -567381.9, 127169.55, 0.0, 10.001339, 9.999199 
2.7251866e+3, 2.3912841e+2, -663612.1, -757510.8, 50361.777, 0.008226111, 0.2593184, -641709.8, -45138.832, 0.0, 10.000307, 9.999011 
2.7250728e+3, 2.4912722e+2, -626168.06, -673151.5, 43906.336, 0.13853967, 0.30314952, -599863.94, -101278.82, 0.0, 9.999826, 9.999146 
2.724959e+3, 2.591263e+2, -575949.75, -591144.1, 86708.29, 0.26268443, 0.3622089, -496506.47, -95909.45, 0.0, 9.999466, 9.999213 
2.7248433e+3, 2.691248e+2, -443068.9, -414441.4, 106418.23, 0.10544489, 0.32633302, -321378.63, -18769.11, 0.0, 9.999438, 9.999766 
2.7247274e+3, 2.7912337e+2, -360573.75, -329120.38, 78343.625, -0.07048562, 0.27209213, -264940.53, -60319.805, 0.0, 9.999348, 9.999728 
2.7246124e+3, 2.8912312e+2, -317347.1, -206132.69, 2679.4033, 0.0061961506, 0.31919542, -206068.17, -99444.414, 0.0, 9.998751, 10.000187 
2.7244964e+3, 2.991232e+2, -360482.28, -245327.3, 18716.264, 0.052176427, 0.38809627, -242361.69, -233737.45, 0.0, 9.998076, 9.999572 
2.7243805e+3, 3.0912113e+2, -325371.94, -222326.33, 55726.863, -0.046466526, 0.31067064, -197953.92, -197953.92, 0.0, 9.998065, 9.999398 
2.7242664e+3, 3.191199e+2, -114112.24, 111492.836, -62054.38, 0.13308944, 0.30055505, 127434.84, 127434.84, 0.0, 9.998514, 10.001475 
2.736454e+3, 1.2926267e+2, -1279652.4, -1697619.4, -76104.65, 0.11573643, 0.20419712, -1266226.3, 407024.4, 0.011644256, 10.003879, 9.998244 
2.7363372e+3, 1.3925895e+2, -1262658.8, -1642959.3, -39391.25, 0.114945136, 0.07509033, -1258621.5, 316666.6, 0.0064217853, 10.003305, 9.998228 
2.7362218e+3, 1.4925869e+2, -1154437.3, -1490425.6, 88771.85, -0.018274939, 0.2656475, -1132424.9, 344869.53, 0.0024995783, 10.003156, 9.998666 
2.7361077e+3, 1.5925889e+2, -1033174.25, -1337118.6, 59252.95, -0.112879455, 0.47574967, -1022031.56, 357264.06, 0.00058026734, 10.003121, 9.999065 
2.7359924e+3, 1.6925666e+2, -878177.94, -1100363.0, 6983.5923, 0.0069171493, 0.35123724, -877958.6, 403355.13, 0.00006205859, 10.003043, 10.00005 
2.7358767e+3, 1.7925426e+2, -872487.4, -1130761.8, 16763.81, 0.1435359, 0.19162737, -871403.8, 311929.06, 0.0000011486238, 10.002767, 9.999304 
2.73576e+3, 1.8925373e+2, -1057695.6, -1233212.9, 9792.901, 0.13951977, 0.32563412, -1057150.9, 28191.484, 0.0, 10.001105, 9.998723 
2.735643e+3, 1.9925345e+2, -1211321.6, -1249737.9, 56468.086, 0.09959349, 0.48845205, -1170884.1, -183533.48, 0.0, 9.999343, 9.99879 
2.7355292e+3, 2.0925093e+2, -928947.6, -1005768.44, 152103.45, 0.049522467, 0.39671364, -810479.7, 78894.35, 0.0, 10.00037, 9.999294 
2.7354163e+3, 2.1924816e+2, -650752.44, -869657.8, 110088.5, 0.009869042, 0.26612684, -604965.44, 186433.5, 0.0, 10.001811, 9.998866 
2.7353022e+3, 2.2924615e+2, -642011.4, -831804.25, 35800.85, 0.08262154, 0.26468652, -635482.8, 57936.027, 0.0, 10.001275, 9.998707 
2.7351874e+3, 2.3924457e+2, -665721.3, -759106.25, 21455.805, 0.15917279, 0.2944072, -661027.6, -65592.266, 0.0, 10.00029, 9.999011 
2.7350712e+3, 2.492442e+2, -579076.0, -577891.2, 29107.453, 0.06527002, 0.37347215, -549370.1, -51929.273, 0.0, 9.999833, 9.9998 
2.734955e+3, 2.5924402e+2, -544256.2, -534035.6, 80187.734, -0.047241155, 0.44817838, -458795.47, -59351.28, 0.0, 9.999498, 9.999593 
2.7348414e+3, 2.6924247e+2, -439932.8, -411449.5, 107086.94, 0.046798848, 0.39354172, -317661.34, -16204.124, 0.0, 9.99945, 9.999783 
2.7347285e+3, 2.7924076e+2, -368523.13, -353280.84, 66333.664, 0.18005137, 0.3145162, -294131.97, -90660.68, 0.0, 9.999376, 9.999551 
2.734611e+3, 2.8923956e+2, -348528.16, -276166.78, -26352.742, 0.08842656, 0.30682805, -267586.88, -162103.28, 0.0, 9.998767, 9.999701 
2.734492e+3, 2.992386e+2, -360263.5, -255034.08, 2464.6724, -0.11705146, 0.31264573, -254976.39, -247481.94, 0.0, 9.998116, 9.99949 
2.7343798e+3, 3.0923662e+2, -294587.3, -148461.19, 53081.56, 0.15448809, 0.20796193, -131214.44, -131214.44, 0.0, 9.998016, 9.999932 
2.7342618e+3, 3.192375e+2, -93876.35, 129605.734, -4746.0044, -0.11764003, 0.36405236, 129706.48, 129706.48, 0.0, 9.998586, 10.00158 
2.7464566e+3, 1.2937945e+2, -1384691.4, -1801678.3, -16236.657, 0.06758493, 0.3142509, -1384060.1, 288049.4, 0.008071958, 10.003361, 9.997782 
2.7463403e+3, 1.3937514e+2, -1194156.6, -1589913.6, 13130.353, 0.13258594, 0.15775779, -1193721.5, 380432.6, 0.0043189623, 10.003687, 9.998408 
2.7462247e+3, 1.4937486e+2, -1198642.9, -1403329.6, 113407.28, 0.04257972, 0.2776958, -1148227.0, 327929.63, 0.0016074111, 10.002391, 9.999631 
2.7461097e+3, 1.593753e+2, -1325924.4, -1425747.4, 74523.09, -0.020231904, 0.42695048, -1286142.8, 92009.13, 0.00035148254, 10.000887, 9.999533 
2.7459934e+3, 1.693734e+2, -1313044.1, -1335610.1, -6878.1777, 0.02638561, 0.33894193, -1311113.0, -30944.193, 0.000033573295, 10.000169, 9.999818 
2.7458766e+3, 1.7937125e+2, -1293867.3, -1342514.4, -26482.553, 0.08609325, 0.22276992, -1282233.0, -100044.85, 0.00000040337267, 9.999914, 9.999222 
2.7457607e+3, 1.8937042e+2, -940391.8, -1166381.4, 11275.523, 0.14254479, 0.3211924, -939830.6, 144369.02, 0.0, 10.001872, 9.99881 
2.745645e+3, 1.9936979e+2, -563187.2, -945214.75, 83223.586, 0.18589507, 0.4459137, -545844.44, 440365.4, 0.0, 10.003834, 9.998715 
2.7455306e+3, 2.0936728e+2, -687781.6, -920057.94, 144004.39, 0.09808224, 0.3765377, -618918.9, 269314.66, 0.0, 10.002163, 9.999016 
2.7454165e+3, 2.1936454e+2, -918660.1, -999009.25, 79214.914, 0.00566375, 0.27045992, -870014.7, -79756.05, 0.0, 9.999979, 9.998856 
2.7453017e+3, 2.2936273e+2, -841565.25, -896556.94, 47123.336, 0.06793303, 0.26980045, -814502.56, -122225.9, 0.0, 9.999775, 9.998983 
2.745187e+3, 2.3936139e+2, -701717.4, -755955.3, 80974.78, 0.14733575, 0.3002019, -643441.06, -49150.156, 0.0, 9.999963, 9.999187 
2.7450705e+3, 2.4936102e+2, -545671.9, -555478.6, 64716.656, 0.043730594, 0.37270322, -485673.13, 10622.542, 0.0, 10.000043, 9.999849 
2.7449536e+3, 2.5936082e+2, -475260.16, -497489.72, 69507.02, -0.07890823, 0.43799108, -415984.84, -17686.143, 0.0, 9.999964, 9.999618 
2.74484e+3, 2.6935932e+2, -479826.66, -435521.97, 79306.3, 0.045551386, 0.3928612, -375332.25, -75020.39, 0.0, 9.999204, 9.999734 
2.7447274e+3, 2.7935767e+2, -520638.75, -437879.4, 38444.74, 0.22742783, 0.32774246, -422776.56, -220450.25, 0.0, 9.998391, 9.999438 
2.7446094e+3, 2.8935623e+2, -386926.63, -316012.0, -28817.965, 0.10969675, 0.31062648, -305778.0, -201435.8, 0.0, 9.998604, 9.9995 
2.7444896e+3, 2.9935494e+2, -247145.78, -210291.89, 24804.465, -0.13607937, 0.3052053, -197818.78, -191462.03, 0.0, 9.9989395, 9.999397 
2.744378e+3, 3.0935386e+2, -102962.95, -50555.707, 51639.695, 0.197237, 0.2870143, -18851.748, -18851.748, 0.0, 9.99931, 9.999982 
2.744259e+3, 3.1935444e+2, -88990.414, 69158.52, -22065.248, -0.20076986, 0.42227176, 72179.41, 72179.41, 0.0, 9.998899, 10.00101 
2.7564576e+3, 1.2949795e+2, -1401077.3, -1840764.0, -1867.4926, -0.06072562, 0.5262515, -1401069.3, 269885.9, 0.0052996418, 10.00338, 9.997502 
2.756344e+3, 1.3949387e+2, -1192725.5, -1567075.3, 3475.2678, 0.20369226, 0.41109145, -1192693.3, 380304.34, 0.0027405156, 10.003594, 9.9986105 
2.756228e+3, 1.4949189e+2, -1139053.4, -1288698.3, 52438.25, 0.1982014, 0.29810014, -1122507.5, 352503.4, 0.0009705126, 10.002422, 10.000406 
2.756112e+3, 1.5949053e+2, -1299650.4, -1405226.9, 24614.893, 0.17831647, 0.2054465, -1294193.5, 82824.25, 0.00019793083, 10.001031, 9.999605 
2.755994e+3, 1.694893e+2, -1338566.3, -1440786.6, -31894.344, 0.13120332, 0.24042213, -1329431.1, -50399.344, 0.000016382455, 10.000392, 9.998989 
2.755876e+3, 1.7948808e+2, -1274550.9, -1354576.0, 1899.9576, 0.07691166, 0.28574845, -1274505.8, -93459.086, 0.00000009587778, 10.000135, 9.999035 
2.7557617e+3, 1.8948635e+2, -894397.75, -1072569.3, 99411.46, 0.12398303, 0.2539883, -849996.0, 233067.36, 0.0, 10.001876, 9.9994545 
2.755648e+3, 1.994847e+2, -591074.25, -951084.56, 89860.914, 0.17348659, 0.22607854, -569890.8, 415188.4, 0.0, 10.003607, 9.998787 
2.7555317e+3, 2.0948324e+2, -751834.7, -1025817.6, 51580.207, 0.06607608, 0.30451998, -742445.9, 144649.66, 0.0, 10.002041, 9.998351 
2.755415e+3, 2.194818e+2, -914952.7, -990113.06, 33837.098, -0.059992377, 0.38063207, -901963.9, -112852.72, 0.0, 9.9999695, 9.998924 
2.7552995e+3, 2.2948027e+2, -771185.56, -755612.9, 55242.832, -0.06077819, 0.33411282, -707610.3, -16484.936, 0.0, 9.999794, 9.999944 
2.7551845e+3, 2.3947884e+2, -682108.56, -715898.2, 85331.34, -0.025326494, 0.2760798, -612015.56, -18877.285, 0.0, 9.999961, 9.999466 
2.75507e+3, 2.4947764e+2, -585516.44, -639902.2, 65664.766, 0.07679891, 0.29886436, -541636.7, -46486.555, 0.0, 10.000046, 9.99927 
2.7549553e+3, 2.594766e+2, -494687.6, -546430.06, 54417.43, 0.15780719, 0.33192742, -460304.56, -63143.54, 0.0, 9.999996, 9.999268 
2.754839e+3, 2.6947525e+2, -487936.66, -453348.3, 41925.016, 0.089371175, 0.3222013, -425290.56, -126116.37, 0.0, 9.999204, 9.999614 
2.7547228e+3, 2.7947402e+2, -520779.72, -440812.28, 23839.852, 0.031995475, 0.30755684, -434244.56, -233057.5, 0.0, 9.998398, 9.999417 
2.7546066e+3, 2.894731e+2, -378268.1, -299234.63, -14811.179, 0.062315416, 0.33366895, -296550.13, -193350.2, 0.0, 9.998605, 9.999618 
2.7544895e+3, 2.9947254e+2, -249226.69, -225094.58, 41630.94, 0.0063884086, 0.3921727, -193816.38, -188607.17, 0.0, 9.9989805, 9.999279 
2.7543753e+3, 3.0947334e+2, -122609.3, -121336.12, 65351.63, 0.03238934, 0.6050191, -56617.977, -56617.977, 0.0, 9.999429, 9.999443 
2.75426e+3, 3.1946987e+2, -193979.45, -133744.52, -88694.39, 0.061682925, 0.40933144, -70193.65, -70193.65, 0.0, 9.998864, 9.999617 
2.7664617e+3, 1.2961343e+2, -1332879.5, -1727292.5, 22112.625, 0.038885705, 0.4124817, -1331643.6, 338180.72, 0.0032567177, 10.003494, 9.998229 
2.7663466e+3, 1.3961138e+2, -1240904.3, -1554267.8, 49688.586, 0.20238164, 0.43758076, -1233214.1, 338632.7, 0.0016194192, 10.003105, 9.998934 
2.7662298e+3, 1.496095e+2, -1125650.3, -1305856.4, 43606.16, 0.19089402, 0.34340757, -1115653.0, 358206.94, 0.00054123916, 10.002623, 10.000188 
2.766113e+3, 1.5960777e+2, -1147266.0, -1363600.9, -20121.43, 0.18815224, 0.23682025, -1145410.5, 230461.1, 0.000100763005, 10.002218, 9.999316 
2.7659947e+3, 1.6960606e+2, -1074085.9, -1353306.9, -44018.41, 0.13162959, 0.26043242, -1067311.0, 210579.25, 0.000006741736, 10.00239, 9.998624 
2.7658764e+3, 1.7960455e+2, -933671.8, -1200742.1, 18572.918, 0.061033033, 0.304167, -932386.4, 247522.02, 0.00000000965895, 10.002533, 9.998932 
2.7657625e+3, 1.8960305e+2, -929923.7, -1070778.4, 102929.35, 0.08090782, 0.28503796, -875633.5, 206289.05, 0.0, 10.001556, 9.999618 
2.7656487e+3, 1.996016e+2, -1020621.7, -1122617.6, 48968.75, 0.118530184, 0.25903136, -1000918.0, -16982.49, 0.0, 10.000506, 9.9991 
2.765532e+3, 2.0960031e+2, -957535.6, -1073948.3, 37610.105, 0.070318565, 0.31307697, -946441.94, -60493.152, 0.0, 10.000414, 9.998801 
2.7654153e+3, 2.1959913e+2, -830583.3, -928211.2, 93961.555, 0.0049141175, 0.3754404, -773512.5, 14448.593, 0.0, 10.000464, 9.999107 
2.7652994e+3, 2.2959766e+2, -713756.56, -742094.94, 82865.63, -0.026406372, 0.34230122, -643857.44, 46117.32, 0.0, 10.000256, 9.999811 
2.7651837e+3, 2.3959616e+2, -681761.75, -732556.7, 50725.805, -0.027805204, 0.2914751, -650430.56, -58442.16, 0.0, 10.000042, 9.99931 
2.7650696e+3, 2.4959442e+2, -566824.2, -655948.9, 45477.813, 0.08020159, 0.27925637, -547715.25, -53709.914, 0.0, 10.000288, 9.999041 
2.7649552e+3, 2.5959283e+2, -438724.22, -526534.5, 35127.035, 0.18220647, 0.27932748, -426401.53, -30380.422, 0.0, 10.000421, 9.999196 
2.7648377e+3, 2.6959187e+2, -454640.9, -427262.53, 12584.387, 0.08371456, 0.29983097, -422357.06, -124325.15, 0.0, 9.999393, 9.999699 
2.7647203e+3, 2.7959105e+2, -533670.75, -443546.28, 36649.004, -0.0101052895, 0.32421377, -430524.47, -230482.83, 0.0, 9.9983, 9.999444 
2.7646047e+3, 2.895904e+2, -350978.25, -291132.66, 22774.418, 0.061562546, 0.3772362, -283451.63, -181398.56, 0.0, 9.998823, 9.999563 
2.7644885e+3, 2.9959002e+2, -187559.28, -196085.13, 55422.3, 0.054100342, 0.45785165, -136236.2, -132175.02, 0.0, 9.999418, 9.999262 
2.764372e+3, 3.0959067e+2, -220263.2, -170411.11, 98693.26, -0.1317661, 0.65950185, -93544.88, -93544.88, 0.0, 9.998777, 9.999415 
2.7642593e+3, 3.195862e+2, -213337.05, -151618.84, -61475.84, 0.19607095, 0.36678377, -113691.586, -113691.586, 0.0, 9.998779, 9.99953 
2.7764666e+3, 1.2972754e+2, -1275421.8, -1558236.3, 7984.602, 0.248615, 0.1264589, -1275196.5, 393507.28, 0.0018421564, 10.003279, 9.999493 
2.7763483e+3, 1.3972837e+2, -1252262.1, -1527584.6, 28632.643, 0.1407351, 0.33503675, -1249315.9, 321381.22, 0.0008742156, 10.002887, 9.999222 
2.7762306e+3, 1.4972761e+2, -1204758.4, -1442224.8, 20754.668, 0.07714292, 0.4075762, -1202958.0, 269746.7, 0.0002715374, 10.002497, 9.999314 
2.7761132e+3, 1.597264e+2, -1192875.9, -1442614.5, -26805.557, 0.07039605, 0.43265635, -1190031.1, 184685.55, 0.000044146676, 10.002149, 9.998809 
2.7759957e+3, 1.6972356e+2, -1083078.5, -1364315.0, -31763.762, 0.05794949, 0.35921654, -1079535.6, 197208.7, 0.0000020107127, 10.002355, 9.998567 
2.7758783e+3, 1.797209e+2, -949222.7, -1220807.0, 7168.638, 0.028300835, 0.29530367, -949033.56, 229737.25, 0.00000000000031198744, 10.002477, 9.998823 
2.7757627e+3, 1.8972039e+2, -951686.06, -1104787.1, 60803.63, 0.014699232, 0.3937772, -930476.3, 150300.77, 0.0, 10.001503, 9.999413 
2.7756476e+3, 1.9972013e+2, -993228.5, -1052504.4, 28706.49, 0.021344215, 0.48767334, -981605.44, 1175.2559, 0.0, 10.000445, 9.999612 
2.7755323e+3, 2.0971833e+2, -862483.8, -878213.6, 38790.188, 0.101216614, 0.3812702, -830769.25, 54025.094, 0.0, 10.000419, 10.000143 
2.7754167e+3, 2.1971644e+2, -815036.6, -899357.3, 86197.61, 0.17224498, 0.26557153, -761241.1, 25567.82, 0.0, 10.000475, 9.999303 
2.7753007e+3, 2.297149e+2, -789257.0, -904741.0, 70680.445, 0.15086052, 0.30072114, -755730.9, -66906.055, 0.0, 10.000277, 9.998687 
2.7751845e+3, 2.397134e+2, -717858.7, -811456.75, 51227.902, 0.10947614, 0.3478733, -695271.5, -104430.59, 0.0, 10.000054, 9.998764 
2.775069e+3, 2.497114e+2, -558504.4, -640920.0, 57158.066, 0.041135088, 0.31518042, -529248.5, -36387.59, 0.0, 10.000294, 9.999144 
2.774953e+3, 2.597096e+2, -421897.03, -498232.13, 18334.725, -0.02117195, 0.28177816, -417721.66, -22842.633, 0.0, 10.000444, 9.999381 
2.7748358e+3, 2.697091e+2, -436208.06, -387576.16, -36744.27, 0.030689286, 0.327004, -367830.72, -70945.46, 0.0, 9.999385, 9.999977 
2.774719e+3, 2.797089e+2, -529043.44, -436421.72, 25903.203, 0.10805715, 0.3842678, -429669.7, -230779.92, 0.0, 9.998306, 9.999491 
2.7746034e+3, 2.8970808e+2, -366603.2, -333199.06, 51762.1, 0.10257666, 0.44368586, -295511.13, -194609.11, 0.0, 9.998858, 9.999262 
2.7744862e+3, 2.9970706e+2, -166015.1, -171561.61, 51729.414, -0.032630622, 0.4847399, -116984.65, -114069.3, 0.0, 9.999498, 9.999394 
2.7743685e+3, 3.0970505e+2, -187246.98, -85404.945, 61407.703, -0.2958924, 0.36461633, -56552.184, -56552.184, 0.0, 9.998706, 10.000033 
2.7742565e+3, 3.1970465e+2, -87402.414, 83608.93, -14256.917, 0.10955321, 0.40197313, 84789.35, 84789.35, 0.0, 9.998838, 10.001144 
2.786469e+3, 1.2984644e+2, -1446448.9, -1625535.8, 25496.797, 0.2816943, 0.25879607, -1442889.6, 224651.9, 0.0009376261, 10.002026, 9.999637 
2.786349e+3, 1.3984656e+2, -1463513.8, -1642177.4, 1586.8365, 0.057043176, 0.38898084, -1463499.6, 106042.13, 0.00041989313, 10.001487, 9.999111 
2.7862316e+3, 1.498453e+2, -1379221.9, -1572907.1, 16899.168, 0.06904629, 0.4441222, -1377758.5, 93796.88, 0.00011788039, 10.001506, 9.998892 
2.7861154e+3, 1.5984368e+2, -1270575.3, -1494564.0, -1306.6052, 0.15334778, 0.46683422, -1270567.6, 103004.39, 0.000015297022, 10.001683, 9.998674 
2.7859977e+3, 1.6984084e+2, -1134731.0, -1373477.3, 14647.192, 0.11160396, 0.38504493, -1133835.8, 141762.67, 0.00000031509992, 10.001929, 9.99871 
2.78588e+3, 1.7983818e+2, -1009103.56, -1238548.1, 37832.215, 0.046121325, 0.31204605, -1003026.56, 174596.36, 0.0, 10.002011, 9.998928 
2.7857634e+3, 1.8983796e+2, -1028986.6, -1137521.3, 75181.34, 0.040971108, 0.43319905, -990532.94, 89093.64, 0.0, 10.000958, 9.999449 
2.7856475e+3, 1.9983792e+2, -1067531.8, -1091793.9, 76416.47, 0.055192463, 0.5501232, -1002289.44, -20661.059, 0.0, 9.999963, 9.999571 
2.7855322e+3, 2.0983559e+2, -851303.2, -890061.6, 40313.105, 0.10167479, 0.4023287, -825953.2, 57694.445, 0.0, 10.000577, 9.999984 
2.7854168e+3, 2.1983312e+2, -689418.3, -836473.44, -6094.2163, 0.1517143, 0.23884735, -689166.2, 96501.73, 0.0, 10.001331, 9.99932 
2.7853006e+3, 2.29832e+2, -655837.56, -821371.0, 22613.219, 0.14154956, 0.30204275, -652804.0, 34875.19, 0.0, 10.001118, 9.998851 
2.7851844e+3, 2.3983105e+2, -619874.0, -745886.2, 80608.49, 0.11588952, 0.38818496, -580569.3, 9120.38, 0.0, 10.000655, 9.998921 
2.7850682e+3, 2.4982919e+2, -635942.7, -661348.0, 100341.36, 0.036501013, 0.35736865, -547503.2, -55794.77, 0.0, 9.999693, 9.99929 
2.7849513e+3, 2.5982744e+2, -664289.2, -607772.7, 56886.297, -0.040640485, 0.31654125, -572512.6, -178786.25, 0.0, 9.998752, 9.999442 
2.784834e+3, 2.698268e+2, -537446.3, -439856.88, -24464.006, 0.011557009, 0.35112226, -434067.6, -138333.89, 0.0, 9.998714, 9.999936 
2.7847168e+3, 2.7982646e+2, -463321.53, -410355.75, 39848.43, 0.10440477, 0.40321967, -388992.63, -191253.66, 0.0, 9.998794, 9.99943 
2.7846014e+3, 2.898257e+2, -325156.78, -322551.56, 100591.195, 0.08354193, 0.47593516, -223254.55, -123504.55, 0.0, 9.99919, 9.999171 
2.784485e+3, 2.9982457e+2, -176812.95, -194254.0, 81865.08, -0.06587121, 0.5136254, -103205.24, -101441.03, 0.0, 9.999506, 9.999231 
2.7843675e+3, 3.098211e+2, -147000.08, -84276.375, 992.4336, -0.2204682, 0.26837307, -84260.68, -84260.68, 0.0, 9.999069, 9.999862 
2.7842543e+3, 3.1982234e+2, -69926.586, 146449.08, -25183.049, 0.06166674, 0.46445858, 149341.38, 149341.38, 0.0, 9.998734, 10.001622 
2.7964693e+3, 1.2996803e+2, -1478329.1, -1694515.8, -9861.071, 0.20413224, 0.6208857, -1477880.3, 188475.48, 0.00041762725, 10.002043, 9.999153 
2.796349e+3, 1.3996555e+2, -1466959.1, -1679355.9, -14764.016, -0.04388847, 0.5352596, -1465937.9, 102444.25, 0.00017327635, 10.0016165, 9.998794 
2.7962333e+3, 1.4996286e+2, -1370270.4, -1583958.0, 20405.707, 0.12267922, 0.4643713, -1368339.3, 102068.875, 0.000041783936, 10.001631, 9.998757 
2.7961183e+3, 1.5996028e+2, -1258301.4, -1481503.0, 8753.631, 0.35311326, 0.39841413, -1257958.6, 114473.69, 0.00000369064, 10.001736, 9.998739 
2.7960002e+3, 1.6995811e+2, -1117654.3, -1336683.8, 25269.346, 0.2452957, 0.36292672, -1114776.8, 159674.33, 0.000000010797318, 10.001922, 9.998966 
2.7958816e+3, 1.7995627e+2, -1002294.7, -1210517.6, 18480.732, 0.09556672, 0.34589753, -1000667.1, 175799.5, 0.0, 10.001949, 9.999152 
2.7957645e+3, 1.8995577e+2, -1011731.06, -1108600.3, 24999.725, 0.13257463, 0.4190333, -1005659.75, 72811.78, 0.0, 10.000986, 9.999635 
2.795648e+3, 1.999552e+2, -1099176.6, -1171661.9, 65242.79, 0.17677097, 0.48359853, -1060785.8, -80308.34, 0.0, 10.000021, 9.998996 
2.7955317e+3, 2.0995222e+2, -946485.8, -1090369.6, 75849.555, 0.068601936, 0.38842383, -913886.9, -31380.008, 0.0, 10.000585, 9.998607 
2.7954155e+3, 2.1994932e+2, -705979.75, -853039.6, 9940.183, -0.045086175, 0.28795302, -705310.94, 79224.195, 0.0, 10.001251, 9.999247 
2.7952993e+3, 2.2994906e+2, -575084.1, -639905.06, 10635.271, -0.03739908, 0.3418885, -573383.75, 113152.64, 0.0, 10.001054, 10.00013 
2.795183e+3, 2.3994908e+2, -575358.94, -642293.4, 53907.43, -0.004959866, 0.41083324, -545374.9, 43160.133, 0.0, 10.000603, 9.9996605 
2.7950674e+3, 2.4994777e+2, -626041.9, -637528.56, 59719.91, 0.06644668, 0.40270323, -571789.75, -81241.39, 0.0, 9.999678, 9.999462 
2.7949512e+3, 2.5994632e+2, -668398.1, -619786.75, 37119.465, 0.10986921, 0.3832521, -599723.3, -207159.95, 0.0, 9.998765, 9.999354 
2.794832e+3, 2.6994494e+2, -564881.2, -499706.5, -22165.59, 0.016719038, 0.37141323, -492882.56, -198304.84, 0.0, 9.99872, 9.999526 
2.7947134e+3, 2.7994376e+2, -467184.47, -431845.2, 49853.047, -0.052558754, 0.37566498, -396623.03, -200032.72, 0.0, 9.998848, 9.999259 
2.7945992e+3, 2.8994328e+2, -313218.5, -302324.66, 114239.69, -0.008109241, 0.47104457, -193402.13, -94804.5, 0.0, 9.999208, 9.999303 
2.7944842e+3, 2.9994255e+2, -221918.69, -283024.28, 79284.625, -0.029038671, 0.5552899, -167503.7, -166896.63, 0.0, 9.999481, 9.998635 
2.7943698e+3, 3.0993915e+2, -232960.16, -272287.9, -26960.336, 0.15620019, 0.43200904, -219254.47, -219254.47, 0.0, 9.999102, 9.99856 
2.7942508e+3, 3.1993794e+2, -162562.9, -45256.863, 44044.78, -0.079794586, 0.513179, -30560.586, -30560.586, 0.0, 9.998749, 10.000289 
2.80647e+3, 1.300843e+2, -1452928.9, -1727177.0, -40871.027, 0.14212145, 0.5159598, -1446967.5, 218246.83, 0.00015748714, 10.002415, 9.99875 
2.80635e+3, 1.4008252e+2, -1364459.0, -1624474.5, -39122.59, -0.06485597, 0.52990544, -1358700.0, 208535.64, 0.000058490557, 10.002298, 9.998842 
2.8062344e+3, 1.5008047e+2, -1252582.5, -1474813.9, 29172.236, 0.11383643, 0.48564243, -1248816.9, 220439.11, 0.0000110807, 10.0022135, 9.999227 
2.8061196e+3, 1.6007845e+2, -1184000.6, -1416882.6, 40397.957, 0.3564383, 0.43423563, -1177191.9, 194083.25, 0.00000051063967, 10.002122, 9.998998 
2.8060016e+3, 1.7007656e+2, -1128534.6, -1336190.5, 50701.21, 0.2604687, 0.41969782, -1116816.6, 156475.3, 0.000000000000026948692, 10.001831, 9.99901 
2.8058827e+3, 1.800748e+2, -1068885.5, -1252254.3, 20651.666, 0.11910215, 0.41051653, -1066588.4, 108719.08, 0.0, 10.00155, 9.99905 
2.8057653e+3, 1.9007316e+2, -970674.5, -1125496.5, -12591.99, 0.14639734, 0.39624935, -969657.06, 107665.55, 0.0, 10.001431, 9.999301 
2.805648e+3, 2.0007162e+2, -917314.3, -1080465.0, 23580.057, 0.18703617, 0.38554966, -913974.7, 65362.586, 0.0, 10.00125, 9.999031 
2.8055316e+3, 2.1006991e+2, -931431.44, -1041430.6, 137487.53, 0.068427145, 0.3892467, -838350.75, 43003.613, 0.0, 10.000511, 9.998977 
2.805415e+3, 2.200683e+2, -919799.5, -939284.6, 150485.2, -0.05956464, 0.39048225, -778741.8, 4628.826, 0.0, 9.999719, 9.99939 
2.8052983e+3, 2.3006739e+2, -856376.2, -783543.8, 77849.39, -0.06939653, 0.38496786, -734014.3, -48635.285, 0.0, 9.999161, 10.000053 
2.8051817e+3, 2.4006669e+2, -828142.75, -748788.6, 49656.48, -0.040397488, 0.3860694, -724904.44, -137519.45, 0.0, 9.998806, 9.999792 
2.805066e+3, 2.50066e+2, -625595.8, -602623.4, 58113.543, 0.059813358, 0.41484216, -554871.8, -65480.133, 0.0, 9.999537, 9.999766 
2.8049502e+3, 2.600652e+2, -452221.9, -523036.44, 43113.742, 0.13363753, 0.4370965, -431839.66, -40439.586, 0.0, 10.000287, 9.999283 
2.8048307e+3, 2.700632e+2, -346906.47, -445724.13, -14349.978, 0.000592014, 0.3980747, -344864.78, -51444.53, 0.0, 10.00044, 9.999067 
2.804712e+3, 2.8006127e+2, -262397.75, -354260.34, 51132.19, -0.106594674, 0.36748514, -239596.33, -44156.688, 0.0, 10.000342, 9.999073 
2.804598e+3, 2.900608e+2, -255627.7, -262986.34, 105311.51, -0.012169251, 0.46312153, -153931.27, -56486.176, 0.0, 9.999557, 9.999403 
2.8044832e+3, 3.0006018e+2, -337617.66, -361648.38, 78746.64, 0.02692428, 0.5534117, -269974.97, -269974.97, 0.0, 9.998792, 9.9984255 
2.8043684e+3, 3.100564e+2, -259361.94, -342898.38, 36335.08, 0.20295386, 0.43648157, -245769.31, -245769.31, 0.0, 9.999174, 9.998037 
2.8042477e+3, 3.2005492e+2, -198866.3, -91922.97, 128086.445, -0.18875104, 0.53639287, -6594.933, -6594.933, 0.0, 9.998634, 10.000017 
2.8164712e+3, 1.3019782e+2, -1502923.9, -1793630.1, -53032.04, 0.07251115, 0.15989363, -1493551.8, 170543.97, 0.00004827476, 10.002262, 9.998362 
2.816352e+3, 1.4019842e+2, -1379210.0, -1605188.8, -36744.652, -0.047675252, 0.43405318, -1373385.4, 192710.47, 0.00001524104, 10.002086, 9.999076 
2.8162354e+3, 1.5019824e+2, -1229839.4, -1374382.0, 27433.959, 0.060185466, 0.5083744, -1224807.6, 243291.86, 0.000001982676, 10.001979, 10.000031 
2.8161198e+3, 1.6019772e+2, -1195110.1, -1384275.0, 29555.924, 0.22760278, 0.53902966, -1190599.8, 179505.86, 0.00000003306773, 10.00188, 9.99934 
2.816002e+3, 1.7019592e+2, -1146740.5, -1354306.5, 36295.98, 0.1903651, 0.530132, -1140576.6, 131547.22, 0.0, 10.001744, 9.998929 
2.8158838e+3, 1.8019377e+2, -1096761.8, -1310942.4, 11782.439, 0.10914305, 0.49749044, -1096115.5, 78029.79, 0.0, 10.00155, 9.99865 
2.8157657e+3, 1.9019033e+2, -1023553.9, -1232590.4, -11288.051, 0.096876964, 0.3663583, -1022946.06, 53231.68, 0.0, 10.001416, 9.998576 
2.815648e+3, 2.0018749e+2, -887383.2, -1003709.56, 14709.187, 0.10148519, 0.26527232, -885552.1, 92651.97, 0.0, 10.001186, 9.999591 
2.8155318e+3, 2.1018861e+2, -807465.25, -785966.8, 107352.01, 0.09584002, 0.4049835, -688827.2, 191363.66, 0.0, 10.000517, 10.00073 
2.8154156e+3, 2.2018963e+2, -903719.1, -910050.7, 120334.44, 0.072651334, 0.53566957, -786508.8, -4329.6387, 0.0, 9.999734, 9.999584 
2.8152978e+3, 2.3018676e+2, -941040.5, -967459.75, 56089.645, 0.023279533, 0.42711356, -896626.0, -212416.67, 0.0, 9.999194, 9.9987755 
2.81518e+3, 2.4018393e+2, -851281.7, -803532.5, 57943.395, -0.015839882, 0.31784087, -764737.9, -178498.69, 0.0, 9.998832, 9.999406 
2.8150648e+3, 2.50184e+2, -593943.7, -540718.2, 91637.91, 0.008107181, 0.39811906, -471906.94, 16330.812, 0.0, 9.999551, 10.000188 
2.814949e+3, 2.6018408e+2, -452696.8, -532000.56, 59512.28, 0.01989322, 0.48236537, -420836.56, -30600.46, 0.0, 10.0003195, 9.9992075 
2.8148302e+3, 2.7018154e+2, -378663.38, -520525.94, -12941.938, -0.037041042, 0.43304566, -377492.34, -85230.85, 0.0, 10.000476, 9.998537 
2.8147122e+3, 2.80179e+2, -266568.66, -377482.84, 34941.08, -0.055108327, 0.3829233, -256479.06, -62192.066, 0.0, 10.0004015, 9.998886 
2.8145978e+3, 2.901782e+2, -249190.97, -254708.05, 67268.82, 0.08038641, 0.44800672, -184624.14, -88330.87, 0.0, 9.999572, 9.999456 
2.8144816e+3, 3.0017722e+2, -314324.88, -313853.47, 69981.234, 0.07505108, 0.48711476, -244107.55, -244107.55, 0.0, 9.99879, 9.998756 
2.814363e+3, 3.101727e+2, -220476.6, -266634.2, 62627.168, -0.1956459, 0.2485, -176811.14, -176811.14, 0.0, 9.99919, 9.998555 
2.8142467e+3, 3.2017362e+2, -112015.766, 91923.06, -34428.164, -0.08158003, 0.517259, 97578.27, 97578.27, 0.0, 9.998597, 10.001309 
2.8264713e+3, 1.30316e+2, -1575452.6, -1714365.6, -66164.8, -0.035015017, 0.29085222, -1548982.1, 113959.31, 0.000012242897, 10.001257, 9.999397 
2.826354e+3, 1.4031486e+2, -1504543.6, -1598995.4, 2818.5269, 0.07852891, 0.29983112, -1504459.6, 60492.207, 0.000003158613, 10.000938, 9.999671 
2.826236e+3, 1.5031512e+2, -1467174.4, -1471795.9, 44079.05, 0.09290977, 0.39577568, -1425345.5, 41604.46, 0.00000021516627, 10.000287, 10.000174 
2.826119e+3, 1.6031532e+2, -1479494.6, -1512446.4, 32760.234, 0.14243892, 0.48548877, -1459300.5, -90350.93, 0.0, 9.999894, 9.999415 
2.8260016e+3, 1.703139e+2, -1285859.5, -1423935.1, 52776.348, 0.119260535, 0.51277566, -1267997.6, 2969.4353, 0.0, 10.000801, 9.998907 
2.8258842e+3, 1.8031208e+2, -1061977.6, -1264971.6, 20279.967, 0.07685369, 0.5114399, -1059971.4, 113016.0, 0.0, 10.001658, 9.998916 
2.825766e+3, 1.9030935e+2, -1019843.4, -1173417.4, 48767.48, 0.077613465, 0.40577623, -1005666.06, 69346.38, 0.0, 10.001201, 9.999083 
2.825648e+3, 2.0030703e+2, -946652.4, -1009067.8, 129732.625, 0.090164945, 0.31815508, -844426.7, 132606.14, 0.0, 10.000691, 9.999785 
2.8255317e+3, 2.1030775e+2, -763918.9, -777467.44, 126321.08, 0.09696861, 0.42499372, -644190.56, 234833.28, 0.0, 10.000878, 10.000609 
2.8254154e+3, 2.2030841e+2, -725420.1, -845281.25, 36558.78, 0.0991966, 0.5312979, -715149.44, 65866.97, 0.0, 10.001051, 9.999393 
2.8252974e+3, 2.303056e+2, -758036.3, -910031.94, 13314.173, 0.067902274, 0.45258218, -756878.9, -73831.78, 0.0, 10.000587, 9.998497 
2.8251794e+3, 2.4030285e+2, -678380.6, -713464.9, 85545.234, 0.034712702, 0.36940974, -608597.44, -23520.355, 0.0, 9.999995, 9.99946 
2.8250632e+3, 2.503029e+2, -601602.56, -508740.06, 131410.13, -0.00076398975, 0.4251234, -415799.56, 71273.93, 0.0, 9.999346, 10.000505 
2.824947e+3, 2.603029e+2, -669798.5, -651312.5, 99750.984, -0.039523866, 0.4805335, -560377.2, -171306.28, 0.0, 9.998892, 9.999076 
2.8248292e+3, 2.7029976e+2, -539365.9, -652790.8, 34374.23, -0.06840459, 0.41337943, -529761.75, -238658.97, 0.0, 9.999614, 9.998043 
2.8247118e+3, 2.8029665e+2, -300432.78, -410393.13, 62598.65, -0.041487277, 0.34967476, -272097.84, -78963.65, 0.0, 10.000251, 9.99873 
2.824597e+3, 2.9029578e+2, -176046.97, -212259.44, 76520.93, 0.09384162, 0.3997121, -115519.305, -20378.77, 0.0, 10.000047, 9.999519 
2.8244802e+3, 3.0029476e+2, -165872.83, -195006.06, 91172.6, 0.06265473, 0.4268685, -88110.53, -88110.53, 0.0, 9.999604, 9.999182 
2.82436e+3, 3.1029117e+2, -252283.05, -200665.56, 102776.45, -0.30288196, 0.21597543, -120506.9, -120506.9, 0.0, 9.998624, 9.99928 
2.824246e+3, 3.2029262e+2, -172383.78, 72811.33, -58456.49, 0.03517915, 0.48217458, 86034.69, 86034.69, 0.0, 9.998151, 10.001389 
2.8364706e+3, 1.3043685e+2, -1446780.1, -1439478.5, -50433.477, -0.1594848, 0.68675864, -1392563.9, 269202.4, 0.0000031045788, 10.00123, 10.001292 
2.8363556e+3, 1.4043179e+2, -1438178.0, -1486248.9, -6684.081, 0.25402337, 0.1453195, -1437265.9, 126537.28, 0.0000006424714, 10.001045, 10.000394 
2.8362364e+3, 1.504316e+2, -1449557.3, -1496562.9, 24457.707, 0.16266845, 0.20112026, -1439140.1, 26663.229, 0.000000014730344, 10.000548, 9.99988 
2.8361177e+3, 1.6043192e+2, -1447579.9, -1513626.0, 48075.56, 0.0721325, 0.32734418, -1422278.1, -54476.61, 0.0, 10.000183, 9.999269 
2.8360012e+3, 1.7043099e+2, -1283982.4, -1425431.4, 98809.53, 0.04592729, 0.40957215, -1233194.5, 36622.43, 0.0, 10.000822, 9.998887 
2.8358847e+3, 1.8043007e+2, -1039229.0, -1169062.6, 30049.916, 0.024765702, 0.47723344, -1032611.25, 139219.95, 0.0, 10.001449, 9.999676 
2.8357664e+3, 1.9042987e+2, -932208.5, -972547.6, 24851.318, 0.07671178, 0.49928254, -920371.8, 153458.69, 0.0, 10.001117, 10.000504 
2.835648e+3, 2.0042942e+2, -963405.6, -1040945.5, 121701.42, 0.120455064, 0.5001944, -874447.94, 101384.06, 0.0, 10.000677, 9.999575 
2.8355318e+3, 2.1042718e+2, -883397.8, -1018400.06, 136295.56, 0.069020905, 0.44053608, -798804.0, 79051.016, 0.0, 10.000845, 9.998973 
2.835415e+3, 2.2042505e+2, -767431.75, -914334.5, 31766.473, 0.020933585, 0.39794096, -760856.8, 19021.002, 0.0, 10.000972, 9.998959 
2.8352973e+3, 2.304241e+2, -721362.8, -826568.6, -6340.2266, 0.06829579, 0.47059244, -720982.1, -39092.04, 0.0, 10.000554, 9.999087 
2.8351796e+3, 2.4042334e+2, -653312.0, -657014.5, 63862.305, 0.10355857, 0.53424335, -591274.1, -7374.8438, 0.0, 9.999974, 9.99986 
2.835062e+3, 2.5042266e+2, -587044.5, -480115.34, 105966.26, 0.028575778, 0.4904603, -414889.97, 71009.9, 0.0, 9.99935, 10.000701 
2.834945e+3, 2.6042157e+2, -677108.06, -674055.75, 104394.6, -0.06247975, 0.42976314, -571176.1, -183271.05, 0.0, 9.99892, 9.998907 
2.834828e+3, 2.7041778e+2, -569765.5, -718965.06, 65647.44, -0.09986148, 0.3355348, -544993.7, -255049.36, 0.0, 9.999621, 9.997587 
2.834711e+3, 2.8041422e+2, -304845.63, -426602.84, 70766.445, -0.0862456, 0.25999522, -272374.9, -80393.28, 0.0, 10.000278, 9.998607 
2.8345954e+3, 2.904134e+2, -169039.52, -200901.95, 64806.77, 0.007721898, 0.31628397, -118234.53, -24247.682, 0.0, 10.000061, 9.999591 
2.8344783e+3, 3.0041304e+2, -122220.19, -109894.5, 65433.094, -0.014965448, 0.38758355, -50334.664, -50334.664, 0.0, 9.999625, 9.999759 
2.834361e+3, 3.104124e+2, -189494.11, -61407.027, 61032.89, -0.031697962, 0.38079938, -36982.56, -36982.56, 0.0, 9.998577, 10.000263 
2.834243e+3, 3.2041207e+2, -309599.97, -198240.58, 26391.135, 0.018296417, 0.44428012, -192302.75, -192302.75, 0.0, 9.998108, 9.999537 
2.8464723e+3, 1.3055664e+2, -1492766.6, -1520435.1, 127564.09, -0.011103844, 0.65297484, -1378288.8, 282300.44, 0.00000093358625, 10.001163, 10.000773 
2.8463566e+3, 1.4055207e+2, -1377863.0, -1503708.8, 56599.598, 0.2876428, 0.21532649, -1356152.5, 206472.34, 0.00000015352475, 10.001659, 9.999979 
2.8462368e+3, 1.5055113e+2, -1243811.6, -1441403.5, 69397.61, 0.14924505, 0.23609127, -1221873.6, 242759.31, 0.0000000003731763, 10.002152, 9.999485 
2.846118e+3, 1.6055062e+2, -1133514.3, -1358658.4, 77831.96, 0.038665246, 0.31168908, -1109227.8, 257410.88, 0.0, 10.002325, 9.9993 
2.846001e+3, 1.705496e+2, -1265147.1, -1374465.9, 138622.52, 0.047275253, 0.35626367, -1170797.0, 97855.9, 0.0, 10.000775, 9.999257 
2.8458846e+3, 1.8054882e+2, -1307482.8, -1253106.4, 99536.01, 0.053859748, 0.40119228, -1177112.1, -6447.968, 0.0, 9.99942, 10.000071 
2.8457662e+3, 1.905494e+2, -1056889.9, -993367.0, 53143.336, 0.06832183, 0.46656585, -963217.2, 109439.03, 0.0, 10.000094, 10.000854 
2.845648e+3, 2.0054959e+2, -959798.5, -1060910.5, 92774.875, 0.08888051, 0.51181686, -904699.0, 69953.52, 0.0, 10.0007925, 9.999385 
2.8455314e+3, 2.105466e+2, -1017522.7, -1154039.5, 147345.67, 0.071428664, 0.4282926, -923392.8, -46707.863, 0.0, 10.00023, 9.998339 
2.8454152e+3, 2.205437e+2, -957842.2, -1008537.56, 101509.97, 0.049139652, 0.35915357, -878563.0, -99846.32, 0.0, 9.999679, 9.998933 
2.8452966e+3, 2.3054333e+2, -765793.6, -795938.6, 66119.555, 0.05097714, 0.45547003, -713050.4, -32328.357, 0.0, 10.00003, 9.999547 
2.8451785e+3, 2.4054313e+2, -593438.9, -639140.1, 118067.29, 0.060848944, 0.5453743, -496031.3, 86693.3, 0.0, 10.000435, 9.99976 
2.8450617e+3, 2.5054178e+2, -444369.6, -475204.16, 102808.555, 0.03942849, 0.48221952, -355828.75, 128903.945, 0.0, 10.00061, 10.000126 
2.844945e+3, 2.6054007e+2, -444314.9, -586261.6, 71049.04, -0.0001799381, 0.40754074, -414863.25, -28118.19, 0.0, 10.000631, 9.998683 
2.8448278e+3, 2.7053687e+2, -426962.22, -639837.75, 76215.35, -0.06937947, 0.37078544, -402488.63, -113709.77, 0.0, 10.000562, 9.997677 
2.8447106e+3, 2.8053376e+2, -288435.16, -428218.66, 95823.37, -0.09251351, 0.33773458, -239722.63, -48910.664, 0.0, 10.000427, 9.998527 
2.8445944e+3, 2.905321e+2, -182893.06, -233827.38, 56332.73, -0.024141459, 0.328288, -146538.28, -53712.453, 0.0, 10.000081, 9.999353 
2.844477e+3, 3.0053124e+2, -114224.695, -85589.44, 19503.389, -0.040278416, 0.36244828, -75712.51, -75712.51, 0.0, 9.999605, 9.999929 
2.8443596e+3, 3.105326e+2, -81363.26, 41933.656, -32042.518, 0.04673923, 0.5114827, 49763.652, 49763.652, 0.0, 9.999112, 10.000712 
2.8442404e+3, 3.205307e+2, -124498.734, -205699.64, 28871.338, -0.046442833, 0.40883005, -115280.01, -115280.01, 0.0, 9.999797, 9.998673 
2.8564757e+3, 1.3067591e+2, -1616899.9, -1794612.0, 123985.4, 0.25279817, 0.3880163, -1553218.1, 106192.25, 0.0000002687319, 10.001242, 9.998849 
2.856357e+3, 1.4067443e+2, -1465142.1, -1668904.1, 69785.3, 0.23039, 0.4246192, -1443533.3, 117894.98, 0.000000029966262, 10.001592, 9.998878 
2.856238e+3, 1.5067261e+2, -1302308.9, -1520542.0, 88092.82, 0.08926643, 0.41642702, -1271187.1, 192259.97, 0.0, 10.001968, 9.999031 
2.8561193e+3, 1.6067082e+2, -1159319.0, -1351853.4, 52338.97, 0.0251772, 0.3924742, -1146010.9, 219454.05, 0.0, 10.002064, 9.999474 
2.856002e+3, 1.7066932e+2, -1217490.1, -1277981.3, 73403.79, 0.090980574, 0.33230302, -1168344.9, 99133.87, 0.0, 10.000784, 9.999916 
2.855884e+3, 1.8066813e+2, -1275152.0, -1232001.1, 87759.875, 0.12407482, 0.2886039, -1163203.5, 6285.6797, 0.0, 9.999617, 10.000123 
2.8557655e+3, 1.9066823e+2, -1073232.8, -1054264.6, 86496.086, 0.048795193, 0.33860815, -976734.2, 94753.31, 0.0, 10.000207, 10.000382 
2.8556472e+3, 2.0066811e+2, -969893.7, -1080181.5, 91814.12, 0.0008695469, 0.39174777, -917936.3, 55552.44, 0.0, 10.000785, 9.999257 
2.8555313e+3, 2.1066612e+2, -998543.9, -1125900.0, 118899.88, 0.09810268, 0.39879063, -927343.94, -51831.344, 0.0, 10.0002775, 9.998508 
2.855415e+3, 2.2066411e+2, -931196.9, -964703.75, 97695.484, 0.15736711, 0.3985938, -848828.75, -71292.68, 0.0, 9.999726, 9.999211 
2.8552955e+3, 2.3066317e+2, -736434.9, -746315.3, 82465.914, 0.008003304, 0.4050741, -658761.3, 20783.258, 0.0, 10.000075, 9.999868 
2.8551766e+3, 2.4066219e+2, -631646.94, -722905.3, 127890.625, -0.10894524, 0.41213834, -541489.4, 40063.7, 0.0, 10.000451, 9.999178 
2.8550616e+3, 2.5066027e+2, -536177.2, -667233.75, 105657.49, 0.030834055, 0.40528047, -477377.4, 6194.4766, 0.0, 10.000614, 9.998807 
2.854946e+3, 2.6065838e+2, -455149.75, -618671.7, 69806.73, 0.14083384, 0.41652372, -429403.38, -43812.684, 0.0, 10.000671, 9.998443 
2.8548282e+3, 2.7065712e+2, -378098.13, -546079.0, 72567.93, 0.023705868, 0.53052473, -351090.84, -63485.336, 0.0, 10.00059, 9.998309 
2.8547108e+3, 2.8065556e+2, -289716.72, -435721.5, 85630.38, -0.06680902, 0.60521865, -250193.97, -60570.676, 0.0, 10.000444, 9.998468 
2.8545943e+3, 2.9065192e+2, -226984.84, -325651.88, 39914.37, 0.0016715958, 0.44750988, -212860.1, -121202.68, 0.0, 10.000079, 9.998725 
2.854476e+3, 3.0064914e+2, -132774.86, -134815.1, -3484.7297, -0.03753063, 0.34341806, -130164.01, -130164.01, 0.0, 9.99965, 9.999571 
2.8543562e+3, 3.1065118e+2, -97960.75, 2853.8132, -56944.36, -0.13553211, 0.5897197, 28496.213, 28496.213, 0.0, 9.999133, 10.000434 
2.854239e+3, 3.2064784e+2, -49943.727, -107486.41, 152390.77, -0.11889036, 0.35021624, 76367.94, 76367.94, 0.0, 10.000008, 9.999264 
2.8664768e+3, 1.3079435e+2, -1577524.6, -1818567.9, 28265.531, 0.2852045, 0.21596706, -1574254.5, 83991.21, 0.00000003603988, 10.001687, 9.998473 
2.866357e+3, 1.407949e+2, -1562787.8, -1722644.5, 46869.44, 0.16089329, 0.48756203, -1550059.4, 10189.262, 0.00000000029145006, 10.000946, 9.998819 
2.8662378e+3, 1.5079322e+2, -1527053.8, -1612876.5, 104405.53, 0.046347026, 0.4821638, -1457085.1, 5182.0264, 0.0, 10.000359, 9.999171 
2.8661197e+3, 1.6079134e+2, -1438776.8, -1465642.0, 91826.516, 0.018668337, 0.43379858, -1359405.5, 4880.5605, 0.0, 10.000058, 9.999655 
2.8660017e+3, 1.7078985e+2, -1187270.8, -1243453.5, 89866.5, 0.07256163, 0.35871965, -1121207.4, 145090.44, 0.0, 10.000907, 10.0000925 
2.8658837e+3, 1.8078858e+2, -994375.94, -1124744.3, 83283.875, 0.10016912, 0.30085817, -953800.06, 214507.66, 0.0, 10.001662, 9.999876 
2.8657654e+3, 1.907879e+2, -952267.94, -1059708.0, 78166.64, 0.049970616, 0.32423833, -911141.44, 159173.6, 0.0, 10.001315, 9.999809 
2.8656477e+3, 2.0078722e+2, -938798.1, -1065303.9, 78130.13, 0.023522504, 0.3605422, -901526.1, 70797.2, 0.0, 10.001003, 9.999249 
2.8655317e+3, 2.1078601e+2, -807938.75, -988999.4, 112239.87, 0.115370326, 0.41379187, -754269.5, 120069.82, 0.0, 10.001396, 9.998907 
2.8654152e+3, 2.2078474e+2, -631810.3, -806365.7, 99560.94, 0.17453063, 0.45593852, -586687.94, 189667.11, 0.0, 10.001724, 9.999335 
2.8652957e+3, 2.3078343e+2, -555886.4, -672247.0, 60434.65, 0.0035113262, 0.4317508, -530178.1, 148188.52, 0.0, 10.001373, 9.999751 
2.8651765e+3, 2.4078198e+2, -575756.94, -728737.3, 91549.06, -0.12750566, 0.40774134, -532949.25, 47430.313, 0.0, 10.000982, 9.9988785 
2.8650615e+3, 2.507798e+2, -530893.6, -716666.56, 120628.805, 0.030662255, 0.4186695, -471532.94, 10869.411, 0.0, 10.000878, 9.998339 
2.8649464e+3, 2.6077777e+2, -446632.66, -618150.5, 129557.04, 0.16398707, 0.44871125, -377022.28, 7401.9194, 0.0, 10.000744, 9.998412 
2.8648284e+3, 2.7077663e+2, -363300.6, -503785.2, 111067.17, 0.03105339, 0.55317336, -302127.94, -15691.764, 0.0, 10.000544, 9.998621 
2.8647104e+3, 2.8077528e+2, -317786.2, -436840.78, 103977.57, -0.0610123, 0.6258937, -257501.83, -69051.56, 0.0, 10.00021, 9.9985695 
2.864594e+3, 2.907717e+2, -261886.89, -351187.66, 95929.46, 0.03704118, 0.47965646, -200725.56, -110241.44, 0.0, 9.9998865, 9.99864 
2.8644753e+3, 3.0076864e+2, -145501.69, -183913.08, 86612.12, -0.0051557203, 0.36986122, -75991.445, -75991.445, 0.0, 9.999748, 9.999189 
2.864354e+3, 3.1076956e+2, 28000.695, -7382.4023, 13530.612, -0.24577002, 0.5601508, 32581.738, 32581.738, 0.0, 10.000309, 9.999797 
2.8642383e+3, 3.2076573e+2, -101897.62, -75680.65, 230425.95, -0.121636994, 0.30592483, 142009.38, 142009.38, 0.0, 9.99942, 9.999761 
2.876477e+3, 1.3091242e+2, -1564865.9, -1746320.9, -12926.6875, 0.1840099, 0.10968447, -1563949.6, 93138.125, 0.0, 10.001495, 9.999057 
2.8763562e+3, 1.4091438e+2, -1529504.4, -1646470.5, 18049.73, 0.07101574, 0.46037558, -1526782.4, 32295.697, 0.0, 10.000918, 9.999353 
2.876237e+3, 1.5091337e+2, -1475971.8, -1532914.8, 75822.65, 0.004404153, 0.47153902, -1423451.3, 37639.066, 0.0, 10.000467, 9.999668 
2.876119e+3, 1.609121e+2, -1410296.3, -1439868.1, 96277.61, 0.0067376606, 0.4450429, -1327675.8, 35427.855, 0.0, 10.0002, 9.999764 
2.8760016e+3, 1.7091104e+2, -1200080.6, -1270057.0, 120189.58, 0.010140456, 0.42426595, -1109890.1, 155221.66, 0.0, 10.000904, 9.999912 
2.8758842e+3, 1.8090993e+2, -1046151.06, -1201364.6, 82342.83, 0.007777818, 0.40718722, -1010606.8, 156514.22, 0.0, 10.001529, 9.999414 
2.8757665e+3, 1.9090827e+2, -1000724.4, -1155248.0, 57867.66, 0.06530926, 0.39356616, -981456.1, 87683.266, 0.0, 10.001293, 9.999164 
2.875649e+3, 2.009068e+2, -932526.3, -1054836.5, 81013.19, 0.116895474, 0.39485028, -892177.3, 78979.16, 0.0, 10.001013, 9.999317 
2.8755325e+3, 2.1090622e+2, -774327.9, -908966.6, 128963.76, 0.114898406, 0.46424618, -696170.3, 176994.61, 0.0, 10.0013485, 9.999482 
2.8754154e+3, 2.2090556e+2, -650179.4, -819489.3, 94438.36, 0.09582382, 0.5278, -608007.44, 167166.19, 0.0, 10.001616, 9.999298 
2.8752968e+3, 2.3090412e+2, -594557.0, -745948.5, 42924.38, 0.035749234, 0.52876097, -583233.5, 93954.42, 0.0, 10.001346, 9.999258 
2.875178e+3, 2.4090248e+2, -576769.56, -730343.44, 84217.46, -0.012514993, 0.52206886, -539588.0, 39615.754, 0.0, 10.000979, 9.99887 
2.8750616e+3, 2.5090045e+2, -506700.22, -669728.5, 117396.85, 0.027728122, 0.5191953, -445292.78, 35931.03, 0.0, 10.000889, 9.998657 
2.8749454e+3, 2.6089823e+2, -432902.38, -598061.4, 123009.79, 0.04119507, 0.50381094, -367323.9, 15921.524, 0.0, 10.000777, 9.998535 
2.8748274e+3, 2.7089524e+2, -365036.13, -509060.3, 100785.78, -0.058350038, 0.42273742, -313179.28, -27907.145, 0.0, 10.000548, 9.998583 
2.8747094e+3, 2.8089264e+2, -289047.25, -387022.06, 89636.9, -0.095487565, 0.3657071, -235885.06, -48589.824, 0.0, 10.000249, 9.998894 
2.874593e+3, 2.9089153e+2, -223919.34, -273763.0, 87773.79, 0.07799753, 0.4168304, -157597.89, -68293.33, 0.0, 9.999889, 9.999173 
2.874475e+3, 3.0089027e+2, -176338.4, -245826.4, 100492.0, 0.0668148, 0.4582311, -104753.73, -104753.73, 0.0, 9.999741, 9.998768 
2.8743535e+3, 3.1088775e+2, -38749.438, -166591.58, 46342.895, -0.2807035, 0.40692404, -23717.566, -23717.566, 0.0, 10.000402, 9.998657 
2.8742376e+3, 3.208856e+2, -97979.39, -26194.99, 59201.977, -0.053732798, 0.37975413, 7145.2, 7145.2, 0.0, 9.999261, 10.000167 
2.8864756e+3, 1.3103223e+2, -1660351.0, -1686235.4, -53548.75, 0.065402694, 0.25590461, -1618202.6, 37717.664, 0.0, 10.000373, 10.000015 
2.886357e+3, 1.4103393e+2, -1525615.1, -1585400.4, -11339.954, 0.11709685, 0.49842677, -1523536.5, 34373.59, 0.0, 10.000687, 9.999886 
2.8862375e+3, 1.5103284e+2, -1382429.3, -1465767.6, 33682.09, 0.051796492, 0.47254568, -1370518.6, 89403.05, 0.0, 10.001016, 9.999864 
2.8861195e+3, 1.6103154e+2, -1262409.5, -1362877.5, 40942.9, 0.050096553, 0.42767724, -1247837.8, 114096.35, 0.0, 10.00119, 9.999816 
2.886002e+3, 1.7103061e+2, -1244560.8, -1299315.3, 68996.23, 0.08606906, 0.42291176, -1197708.8, 66232.61, 0.0, 10.000634, 9.999841 
2.885885e+3, 1.8102965e+2, -1237175.3, -1305310.3, 47956.176, 0.09302306, 0.42800057, -1212417.8, -46467.797, 0.0, 10.000269, 9.999305 
2.8857666e+3, 1.9102825e+2, -1050145.3, -1195447.1, 53596.074, 0.060542792, 0.4544261, -1032514.94, 35452.137, 0.0, 10.001024, 9.999018 
2.8856486e+3, 2.0102698e+2, -854024.5, -1007989.94, 80467.2, 0.04003447, 0.48310536, -819646.06, 150337.16, 0.0, 10.00151, 9.999402 
2.8855318e+3, 2.1102624e+2, -898184.2, -941976.9, 98448.77, 0.020012615, 0.51436406, -819226.1, 52765.82, 0.0, 10.000382, 9.999722 
2.8854147e+3, 2.2102544e+2, -946942.2, -962816.56, 73681.84, 0.016520152, 0.54565996, -880771.25, -106770.35, 0.0, 9.99958, 9.999294 
2.8852972e+3, 2.31024e+2, -687636.25, -810342.4, 52553.12, 0.08994866, 0.5618812, -668205.44, 7810.16, 0.0, 10.0007925, 9.999082 
2.88518e+3, 2.4102241e+2, -459919.56, -676220.2, 86605.38, 0.13859278, 0.572689, -429516.7, 148515.03, 0.0, 10.00179, 9.998852 
2.8850624e+3, 2.5102046e+2, -467383.53, -641085.06, 88530.57, 0.037314743, 0.57073116, -430215.28, 49835.56, 0.0, 10.00112, 9.998741 
2.8849444e+3, 2.6101825e+2, -451856.63, -576803.44, 101981.6, -0.059144452, 0.54447836, -394734.16, -12662.627, 0.0, 10.00053, 9.998793 
2.8848273e+3, 2.7101505e+2, -263061.06, -424100.75, 110456.82, -0.07042248, 0.4076882, -206890.92, 77207.82, 0.0, 10.001108, 9.998889 
2.88471e+3, 2.810122e+2, -124242.586, -276508.1, 90112.836, -0.030442001, 0.3018495, -82407.05, 103715.09, 0.0, 10.001251, 9.999167 
2.8845927e+3, 2.9101172e+2, -160946.27, -235170.63, 62315.953, 0.07104068, 0.39428768, -125528.5, -37403.6, 0.0, 10.000293, 9.99924 
2.8844735e+3, 3.0101073e+2, -207488.55, -313092.97, 78091.81, 0.01912217, 0.47444433, -166023.03, -166023.03, 0.0, 9.999762, 9.998295 
2.8843537e+3, 3.110066e+2, -112608.19, -315106.6, 56715.34, -0.22199027, 0.34446043, -97805.55, -97805.55, 0.0, 10.000399, 9.997648 
2.8842366e+3, 3.2100585e+2, 149384.8, 147437.39, -97137.14, -0.086361594, 0.52413285, 245553.11, 245553.11, 0.0, 10.000718, 10.000681 
2.896474e+3, 1.3115294e+2, -1607446.8, -1531098.5, -39873.082, -0.06813216, 0.53514826, -1514071.9, 140675.98, 0.0, 10.000189, 10.001164 
2.896358e+3, 1.4115357e+2, -1506939.0, -1523857.1, -4357.631, 0.24007247, 0.57680357, -1505882.5, 50860.19, 0.0, 10.000591, 10.000353 
2.896239e+3, 1.5115194e+2, -1392153.6, -1470573.5, 42130.207, 0.15149592, 0.48661062, -1373810.3, 84946.734, 0.0, 10.00095, 9.999863 
2.8961205e+3, 1.6115022e+2, -1271318.6, -1367188.4, 29494.781, 0.1254573, 0.39755464, -1262971.3, 97800.88, 0.0, 10.001129, 9.999816 
2.896004e+3, 1.7114909e+2, -1236353.1, -1294865.6, 44131.426, 0.25064185, 0.37176585, -1212661.1, 50120.387, 0.0, 10.0006895, 9.999845 
2.8958866e+3, 1.811482e+2, -1215944.6, -1282177.8, 57826.184, 0.28782082, 0.38290128, -1182423.5, -17633.63, 0.0, 10.00036, 9.99942 
2.8957665e+3, 1.9114806e+2, -1034993.0, -1164226.0, 86293.02, 0.031309817, 0.5113492, -991805.1, 74991.42, 0.0, 10.001022, 9.999233 
2.8956476e+3, 2.0114768e+2, -863032.1, -1005278.1, 62725.61, -0.18088078, 0.6126813, -839323.75, 129480.96, 0.0, 10.001418, 9.999465 
2.8955296e+3, 2.1114609e+2, -895825.9, -943848.06, 48768.16, -0.1517978, 0.56224287, -865478.3, 5341.721, 0.0, 10.000411, 9.999696 
2.8954127e+3, 2.211445e+2, -935785.7, -955675.8, 86254.89, -0.07032077, 0.5159183, -858904.44, -86069.16, 0.0, 9.999648, 9.9993105 
2.8952983e+3, 2.3114322e+2, -678481.56, -797568.25, 106095.14, 0.15854083, 0.54033023, -616363.1, 58485.43, 0.0, 10.000817, 9.999158 
2.895183e+3, 2.4114181e+2, -466454.25, -685574.06, 86955.03, 0.30023837, 0.5670478, -436140.8, 140722.16, 0.0, 10.001772, 9.998797 
2.895063e+3, 2.5113982e+2, -478294.53, -661592.4, 55980.234, 0.05549282, 0.5746356, -462550.2, 16333.242, 0.0, 10.001111, 9.998606 
2.8949434e+3, 2.6113787e+2, -417546.94, -514343.53, 107857.89, -0.14674705, 0.57178897, -347726.28, 33176.227, 0.0, 10.000567, 9.999204 
2.8948283e+3, 2.711362e+2, -212932.72, -328186.06, 133243.08, -0.0023850207, 0.5235366, -125388.62, 157526.13, 0.0, 10.00114, 9.999533 
2.8947124e+3, 2.811343e+2, -102758.9, -246681.84, 62148.695, 0.13005447, 0.458866, -79636.66, 105292.18, 0.0, 10.001309, 9.999345 
2.8945917e+3, 2.9113212e+2, -195198.81, -302337.28, 31382.064, -0.00531001, 0.40554494, -186683.45, -99736.555, 0.0, 10.000285, 9.998775 
2.8944704e+3, 3.0112964e+2, -235570.06, -374646.03, 82887.14, -0.20871861, 0.38248873, -196914.66, -196914.66, 0.0, 9.999782, 9.997857 
2.8943554e+3, 3.1112573e+2, -171979.39, -429330.22, 80188.42, -0.030887468, 0.33166558, -149038.38, -149038.38, 0.0, 10.000371, 9.996875 
2.894234e+3, 3.2112545e+2, 193603.33, 213573.83, -79380.805, -0.30989948, 0.6230948, 283594.94, 283594.94, 0.0, 10.000821, 10.001092 
2.906473e+3, 1.3127096e+2, -1802963.1, -1675656.0, 16546.195, -0.07393966, 0.48881394, -1673540.6, -19949.72, 0.0, 9.999055, 10.000726 
2.9063576e+3, 1.4127165e+2, -1606930.8, -1567226.5, -21354.604, 0.25583875, 0.56578165, -1557921.8, -2334.5295, 0.0, 9.999883, 10.000399 
2.9062387e+3, 1.5127066e+2, -1467352.0, -1472435.3, 27354.584, 0.1567685, 0.5118996, -1442421.1, 15173.931, 0.0, 10.000283, 10.000172 
2.9061207e+3, 1.6126946e+2, -1327440.6, -1372634.6, 21925.81, 0.118465416, 0.4486807, -1318551.8, 41053.043, 0.0, 10.000647, 10.000011 
2.9060036e+3, 1.712684e+2, -1162860.8, -1243552.6, 39454.406, 0.21723768, 0.41569966, -1146775.8, 114838.14, 0.0, 10.001122, 9.9999895 
2.9058862e+3, 1.8126756e+2, -1056624.5, -1189416.1, 58724.34, 0.24737853, 0.4157485, -1034380.9, 129241.4, 0.0, 10.001383, 9.999565 
2.905767e+3, 1.9126734e+2, -1057766.5, -1159813.4, 82531.766, 0.03445175, 0.5242577, -1011759.6, 53869.254, 0.0, 10.000799, 9.999372 
2.905648e+3, 2.012669e+2, -1007159.1, -1075435.3, 52326.555, -0.13723652, 0.6105756, -978819.4, -11182.609, 0.0, 10.000428, 9.99946 
2.9055303e+3, 2.1126527e+2, -794805.06, -905168.6, 30135.959, -0.09247904, 0.56107724, -787112.3, 82539.74, 0.0, 10.001147, 9.999607 
2.9054132e+3, 2.212636e+2, -633831.94, -802613.44, 77174.64, -0.01111773, 0.51184535, -603864.8, 167802.53, 0.0, 10.001686, 9.999381 
2.9052985e+3, 2.3126225e+2, -616594.1, -745995.0, 110168.43, 0.13886979, 0.51335526, -553532.2, 120148.57, 0.0, 10.001146, 9.999353 
2.9051828e+3, 2.4126092e+2, -602782.7, -721068.2, 93476.79, 0.23403908, 0.5225848, -551310.0, 24384.41, 0.0, 10.000708, 9.999064 
2.905063e+3, 2.5125927e+2, -449593.47, -603913.06, 87717.4, 0.03951755, 0.533828, -409928.72, 67782.38, 0.0, 10.0011215, 9.998995 
2.9049438e+3, 2.6125786e+2, -308829.34, -426842.34, 161795.86, -0.118028164, 0.5479085, -195616.02, 184109.48, 0.0, 10.0011635, 9.9995165 
2.9048285e+3, 2.7125704e+2, -364314.2, -363162.06, 154459.13, 0.027711175, 0.5581534, -209277.92, 72453.83, 0.0, 9.999935, 9.99987 
2.9047123e+3, 2.81256e+2, -383465.56, -340005.53, 78912.49, 0.17179537, 0.5399711, -279885.84, -96145.71, 0.0, 9.999218, 9.999702 
2.9045904e+3, 2.9125407e+2, -257916.61, -249532.9, 73895.805, -0.025134914, 0.4657912, -179710.16, -93954.78, 0.0, 9.999511, 9.999505 
2.9164717e+3, 1.3138753e+2, -1888085.8, -1864151.9, 32878.06, -0.020823818, 0.27286807, -1841130.6, -188688.45, 0.0, 9.999119, 9.999395 
2.9163563e+3, 1.4138879e+2, -1617589.5, -1591920.8, -357.5816, 0.19667467, 0.50317204, -1591915.8, -37477.184, 0.0, 9.999898, 10.00022 
2.9162377e+3, 1.5138908e+2, -1430706.0, -1399887.9, 36644.234, 0.09714763, 0.5404954, -1375544.8, 80890.32, 0.0, 10.000298, 10.000664 
2.91612e+3, 1.6138904e+2, -1312622.3, -1331819.1, 32119.422, 0.04563174, 0.54877996, -1288697.8, 69736.555, 0.0, 10.000604, 10.000313 
2.9160026e+3, 1.7138834e+2, -1166961.3, -1218581.5, 52863.953, 0.043269835, 0.5254315, -1133943.1, 126497.44, 0.0, 10.000977, 10.000231 
2.915885e+3, 1.813875e+2, -1077166.4, -1185374.4, 44977.08, 0.034657244, 0.50552803, -1060912.9, 101536.016, 0.0, 10.001183, 9.999689 
2.9157674e+3, 1.9138624e+2, -1053867.9, -1149592.5, 55211.582, 0.06506156, 0.500308, -1028660.9, 35802.57, 0.0, 10.000789, 9.999447 
2.91565e+3, 2.0138499e+2, -1001016.44, -1081679.6, 61159.402, 0.10214666, 0.5036637, -968087.44, -1610.2716, 0.0, 10.000509, 9.999378 
2.9155332e+3, 2.113839e+2, -798966.75, -923988.1, 60164.363, 0.14631318, 0.5235105, -774717.2, 93769.805, 0.0, 10.001189, 9.999457 
2.915416e+3, 2.2138272e+2, -629249.94, -787956.3, 73381.3, 0.15033734, 0.527983, -600521.0, 169976.6, 0.0, 10.001662, 9.999495 
2.9152977e+3, 2.313811e+2, -595904.9, -700423.1, 85147.87, 0.031357177, 0.4777343, -548258.2, 124254.46, 0.0, 10.001133, 9.999676 
2.91518e+3, 2.4137968e+2, -563413.8, -636155.5, 95610.5, -0.053933997, 0.4399742, -497489.97, 77035.97, 0.0, 10.000694, 9.999653 
2.915063e+3, 2.5137886e+2, -389338.47, -476932.25, 105838.8, -0.01053877, 0.45223635, -318592.72, 157940.55, 0.0, 10.001115, 9.999867 
2.9149455e+3, 2.6137814e+2, -293644.0, -405516.28, 132108.23, 0.008971349, 0.47294843, -206117.83, 172422.83, 0.0, 10.001202, 9.999648 
2.9148278e+3, 2.7137747e+2, -370152.03, -373812.63, 100561.195, 0.0025447565, 0.50385815, -271404.47, 9146.762, 0.0, 9.999921, 9.999809 
2.9147097e+3, 2.8137705e+2, -354112.22, -270446.56, 97099.32, 0.048487213, 0.5417888, -206552.08, -23994.248, 0.0, 9.99919, 10.000194 
2.91459e+3, 2.913777e+2, -118249.79, 27545.633, 50732.074, 0.02844545, 0.5929458, 43461.32, 128010.64, 0.0, 9.999575, 10.001379 
2.9264712e+3, 1.3150556e+2, -1805539.8, -1787065.3, -25671.576, 0.055412754, 0.3663396, -1769019.6, -117731.2, 0.0, 9.999518, 9.999731 
2.9263553e+3, 1.4150594e+2, -1598962.8, -1559196.3, -4137.3384, 0.16544826, 0.4766716, -1558770.4, -5479.655, 0.0, 9.999916, 10.000439 
2.926237e+3, 1.5150619e+2, -1435383.6, -1382768.9, 14850.788, 0.07312153, 0.49001366, -1378866.6, 76420.71, 0.0, 10.000178, 10.000841 
2.9261196e+3, 1.6150633e+2, -1363565.0, -1339228.0, -17571.428, 0.044488054, 0.5017026, -1330023.0, 27261.66, 0.0, 10.0001745, 10.000471 
2.9260018e+3, 1.7150626e+2, -1373799.5, -1301893.8, -10578.473, 0.058039263, 0.52377254, -1300369.9, -41083.82, 0.0, 9.999481, 10.000382 
2.9258844e+3, 1.8150589e+2, -1339362.4, -1277132.3, 3233.6914, 0.063798964, 0.5284915, -1276964.6, -115674.805, 0.0, 9.999223, 10.000008 
2.925768e+3, 1.9150446e+2, -1039213.6, -1096537.6, 42995.395, 0.11212246, 0.469403, -1016202.5, 47100.06, 0.0, 10.000687, 9.999863 
2.9256514e+3, 2.0150308e+2, -786182.1, -966841.9, 58851.816, 0.16058634, 0.4253885, -768701.9, 196613.28, 0.0, 10.001934, 9.999482 
2.9255342e+3, 2.1150196e+2, -706301.44, -888508.8, 58211.19, 0.15707524, 0.44518423, -689292.1, 178033.73, 0.0, 10.00186, 9.99938 
2.9254165e+3, 2.2150089e+2, -637849.44, -782960.3, 53867.883, 0.122374415, 0.46351853, -620038.75, 149297.27, 0.0, 10.001562, 9.999578 
2.9252976e+3, 2.3149979e+2, -618335.44, -685868.06, 42881.195, -0.015043587, 0.4455257, -597521.9, 73824.695, 0.0, 10.000868, 9.999905 
2.9251793e+3, 2.4149884e+2, -603455.8, -617964.1, 64081.57, -0.101936564, 0.42852047, -546219.1, 27136.326, 0.0, 10.000251, 9.999996 
2.9250634e+3, 2.5149834e+2, -500576.38, -474387.53, 59279.027, 0.015836062, 0.4265352, -426773.9, 48585.41, 0.0, 10.000102, 10.000378 
2.9249462e+3, 2.614979e+2, -481742.4, -492574.56, 41906.043, 0.090161934, 0.43986645, -444903.9, -67539.95, 0.0, 9.999883, 9.999691 
2.9248264e+3, 2.714974e+2, -429203.22, -406440.25, -1451.7943, -0.0042768656, 0.4914908, -406348.03, -126972.36, 0.0, 9.999524, 9.99978 
2.9247078e+3, 2.8149727e+2, -310537.72, -228948.28, 48360.15, -0.016708601, 0.5491937, -206474.42, -25092.678, 0.0, 9.999379, 10.000405 
2.9245892e+3, 2.914984e+2, 89928.39, 158787.25, -82603.6, 0.020559683, 0.61427635, 213849.38, 297218.38, 0.0, 10.00084, 10.0016985 
2.9364708e+3, 1.3162433e+2, -1704698.9, -1593244.9, 3464.6301, 0.12671089, 0.62192017, -1593137.3, 56995.6, 0.0, 9.999595, 10.0010195 
2.9363543e+3, 1.4162304e+2, -1567728.5, -1501517.5, 16129.601, 0.14279805, 0.4674352, -1497797.3, 54346.31, 0.0, 9.999951, 10.000815 
2.9362366e+3, 1.5162241e+2, -1433492.3, -1385553.8, 25126.875, 0.068762675, 0.39060017, -1374797.1, 79350.22, 0.0, 10.000207, 10.000808 
2.9361197e+3, 1.6162217e+2, -1359698.5, -1334329.1, -35235.266, 0.08342067, 0.36181495, -1309564.9, 46583.848, 0.0, 10.000189, 10.000499 
2.9360023e+3, 1.7162277e+2, -1350571.6, -1282745.0, -39056.363, 0.1990139, 0.44690323, -1264933.0, -6788.5405, 0.0, 9.999606, 10.000453 
2.935885e+3, 1.8162312e+2, -1287148.4, -1201403.3, 31983.887, 0.2559351, 0.50339824, -1190787.3, -30645.846, 0.0, 9.999364, 10.00046 
2.9357684e+3, 1.9162227e+2, -992417.44, -998048.1, 99742.625, 0.16015875, 0.4358852, -895450.44, 166694.33, 0.0, 10.00068, 10.000542 
2.9356515e+3, 2.0162116e+2, -790841.8, -943262.1, 70410.88, 0.061187565, 0.36518368, -763294.2, 200857.5, 0.0, 10.001791, 9.999713 
2.9355335e+3, 2.1161951e+2, -719819.4, -894647.8, 47764.766, -0.021304542, 0.32942128, -707620.75, 158547.55, 0.0, 10.001765, 9.999384 
2.9354155e+3, 2.2161828e+2, -644696.5, -780782.9, 32308.406, -0.06958849, 0.33127338, -637415.7, 130765.45, 0.0, 10.001491, 9.999627 
2.9352978e+3, 2.3161837e+2, -614807.2, -671419.44, 13034.474, -0.006110887, 0.4230626, -611950.3, 58231.547, 0.0, 10.000837, 10.000017 
2.9351804e+3, 2.4161837e+2, -596281.5, -604045.7, 50664.633, 0.058610592, 0.4878038, -549350.44, 22832.807, 0.0, 10.000252, 10.000093 
2.9350635e+3, 2.5161767e+2, -486649.0, -450553.66, 54203.324, 0.10760194, 0.4539938, -411472.38, 62717.344, 0.0, 10.000118, 10.000538 
2.9349455e+3, 2.6161718e+2, -474313.7, -484861.2, 29218.014, 0.106884554, 0.44872338, -449897.28, -73701.766, 0.0, 9.999916, 9.999727 
2.9348254e+3, 2.716169e+2, -427214.75, -405591.72, -17036.703, 0.0023132372, 0.52609915, -396225.56, -118020.984, 0.0, 9.99954, 9.999774 
2.9347062e+3, 2.8161645e+2, -299195.5, -244863.05, 64246.39, -0.045043435, 0.5589697, -202275.4, -22061.934, 0.0, 9.999533, 10.000229 
2.9345882e+3, 2.916162e+2, 40565.188, 33629.543, -8766.038, -0.10353079, 0.5531482, 46524.414, 128737.34, 0.0, 10.000935, 10.0007925 
2.9464692e+3, 1.3174155e+2, -1608428.4, -1530432.0, 83657.02, 0.04579977, 0.563544, -1477129.8, 171854.86, 0.0, 10.000166, 10.001186 
2.9463527e+3, 1.417411e+2, -1558506.4, -1522804.0, 52625.3, 0.057791106, 0.4926687, -1485084.6, 65901.734, 0.0, 10.000119, 10.000592 
2.9462364e+3, 1.5174045e+2, -1458897.8, -1450133.1, 35428.92, 0.09599214, 0.45642525, -1418816.5, 34175.332, 0.0, 10.000252, 10.000346 
2.9461205e+3, 1.6173998e+2, -1339715.4, -1339988.1, -52516.61, 0.19455682, 0.4419281, -1287335.0, 67661.3, 0.0, 10.000386, 10.000367 
2.9460025e+3, 1.717405e+2, -1179648.9, -1190280.1, -57992.363, 0.2625056, 0.51417893, -1126729.1, 130263.016, 0.0, 10.00073, 10.000551 
2.9458845e+3, 1.8174072e+2, -1068602.5, -1086538.0, 18353.666, 0.25879803, 0.54726744, -1057142.9, 101846.57, 0.0, 10.000819, 10.000549 
2.9457676e+3, 1.917394e+2, -1046383.6, -1019101.56, 56202.07, 0.09817817, 0.4238325, -974908.75, 86087.52, 0.0, 10.000279, 10.000595 
2.9456508e+3, 2.0173815e+2, -1041802.44, -1040090.44, -4651.2993, -0.023852548, 0.32600388, -1036217.06, -73213.26, 0.0, 9.99995, 9.999941 
2.9455337e+3, 2.1173725e+2, -929197.44, -962834.06, -19544.666, -0.0330136, 0.33456808, -920231.06, -55216.91, 0.0, 10.000176, 9.999686 
2.945416e+3, 2.2173655e+2, -788695.06, -846230.1, -27415.37, -0.030784655, 0.36606956, -777723.75, -10700.848, 0.0, 10.000472, 9.999676 
2.945298e+3, 2.3173651e+2, -628091.4, -681340.25, -59693.043, 0.015382238, 0.4431482, -589354.3, 79670.98, 0.0, 10.000747, 9.999999 
2.9451802e+3, 2.4173635e+2, -533432.7, -565841.94, -34276.316, 0.070387796, 0.49161363, -511723.5, 59304.555, 0.0, 10.000642, 10.000171 
2.9450625e+3, 2.5173572e+2, -531172.0, -457048.56, -34607.86, 0.09409859, 0.44829157, -443402.53, 29630.934, 0.0, 9.99974, 10.00068 
2.9449442e+3, 2.6173547e+2, -553652.2, -503788.03, -34212.74, 0.07905461, 0.4467066, -486386.7, -111350.14, 0.0, 9.999283, 9.9999075 
2.9448247e+3, 2.717356e+2, -284789.78, -329167.56, -54862.727, 0.008259436, 0.54949766, -247798.72, 29241.496, 0.0, 10.000468, 9.999864 
2.944706e+3, 2.817347e+2, -74576.42, -164727.86, 23849.12, -0.027773473, 0.54623586, -68656.055, 110395.83, 0.0, 10.00119, 9.999977 
2.9445878e+3, 2.9173356e+2, -50723.9, -47502.434, -22521.367, -0.1271681, 0.486643, -26534.271, 54525.41, 0.0, 10.000447, 10.0004635 
2.9564667e+3, 1.3185793e+2, -1640482.3, -1594830.4, 62664.543, -0.12919292, 0.34541276, -1550964.0, 96876.21, 0.0, 10.000169, 10.000739 
2.9563507e+3, 1.4185974e+2, -1594134.0, -1604726.0, 43702.8, -0.0705375, 0.5464829, -1555407.5, -5584.0957, 0.0, 10.000158, 10.000009 
2.9562366e+3, 1.5185957e+2, -1510549.9, -1556142.3, 35186.44, 0.14041735, 0.6268164, -1491420.5, -39593.37, 0.0, 10.000247, 9.999621 
2.9561216e+3, 1.6185899e+2, -1364806.8, -1377354.0, -42521.02, 0.3440431, 0.6612395, -1328099.0, 25735.08, 0.0, 10.000323, 10.000142 
2.9560024e+3, 1.71859e+2, -1175843.1, -1172868.1, -42910.875, 0.26281285, 0.6722844, -1131419.0, 124414.36, 0.0, 10.000689, 10.00069 
2.9558834e+3, 1.8185852e+2, -1090611.8, -1121449.9, 4381.935, 0.11239264, 0.6341392, -1090001.1, 67834.79, 0.0, 10.000773, 10.000331 
2.9557657e+3, 1.9185595e+2, -1076562.6, -1080096.3, 36209.97, -0.04630099, 0.42593643, -1042076.4, 17779.11, 0.0, 10.000272, 10.00018 
2.9556495e+3, 2.0185433e+2, -1026257.44, -1005958.5, -1470.987, -0.09771137, 0.3099578, -1005852.44, -43984.85, 0.0, 9.999943, 10.000179 
2.9555345e+3, 2.118552e+2, -892718.06, -885958.9, -9352.655, 0.08964842, 0.44681764, -879393.94, -15531.584, 0.0, 10.000171, 10.000217 
2.955418e+3, 2.218555e+2, -790044.3, -840990.44, -14273.717, 0.18527609, 0.54259366, -786317.8, -20455.348, 0.0, 10.000437, 9.999728 
2.9552984e+3, 2.3185413e+2, -638347.94, -697723.44, -49852.566, 0.037826538, 0.49428576, -610012.94, 57864.06, 0.0, 10.000725, 9.999897 
2.955179e+3, 2.4185295e+2, -526842.3, -550971.2, -58375.566, -0.06469373, 0.44253623, -479297.53, 90591.125, 0.0, 10.000634, 10.0002775 
2.9550603e+3, 2.518526e+2, -521263.53, -436183.38, -70322.45, -0.026644945, 0.4135072, -396535.22, 75354.63, 0.0, 9.999736, 10.000827 
2.954942e+3, 2.618528e+2, -525654.06, -452699.63, -12959.117, -0.0032372184, 0.43891212, -450466.03, -76579.49, 0.0, 9.999311, 10.000246 
2.9548246e+3, 2.7185348e+2, -257311.66, -286493.63, 2179.1072, 0.008587414, 0.5611623, -257149.84, 18732.352, 0.0, 10.000532, 10.000127 
2.954707e+3, 2.818522e+2, -74811.15, -194479.75, 7578.858, 0.01482918, 0.51008326, -74333.07, 103562.38, 0.0, 10.0013075, 9.999721 
2.9545882e+3, 2.9184932e+2, -36965.168, -24899.385, -44288.285, -0.0841287, 0.31042868, 13765.016, 93684.27, 0.0, 10.000469, 10.00061 
2.9664668e+3, 1.319767e+2, -1647080.9, -1720051.5, -8382.184, -0.102678016, 0.5024085, -1646130.4, 545.26953, 0.0, 10.00065, 9.999646 
2.9663512e+3, 1.4197662e+2, -1544707.5, -1596064.8, -49078.63, -0.012794326, 0.5931325, -1514995.6, 33684.004, 0.0, 10.000559, 9.999879 
2.9662365e+3, 1.5197533e+2, -1491934.5, -1503735.5, -11911.206, 0.20241572, 0.52697533, -1484542.4, -33850.81, 0.0, 10.000186, 10.000012 
2.966121e+3, 1.619744e+2, -1429494.4, -1407380.8, -26426.133, 0.3759657, 0.4965927, -1389791.5, -37091.453, 0.0, 9.999868, 10.000158 
2.9660013e+3, 1.7197464e+2, -1268039.6, -1256541.8, -36534.395, 0.18312441, 0.558488, -1225306.8, 29391.621, 0.0, 10.0002165, 10.000347 
2.965882e+3, 1.8197437e+2, -1145999.9, -1170595.4, -29549.79, 0.0042106686, 0.57168734, -1126291.0, 30409.355, 0.0, 10.000474, 10.000146 
2.965766e+3, 1.9197239e+2, -1059556.5, -1070005.4, 14888.971, -0.00780395, 0.42537427, -1049002.0, 9713.489, 0.0, 10.00037, 10.000209 
2.96565e+3, 2.0197123e+2, -952109.3, -934445.7, 6605.689, 0.01686624, 0.3462806, -932248.6, 28475.414, 0.0, 10.00029, 10.000506 
2.965534e+3, 2.1197297e+2, -837396.06, -785885.4, 8478.384, 0.11163122, 0.51021075, -784525.75, 78183.36, 0.0, 10.000227, 10.000881 
2.9654175e+3, 2.2197387e+2, -809237.4, -834702.8, 21315.336, 0.15633239, 0.61815065, -797141.4, -32438.738, 0.0, 10.0002365, 9.999869 
2.965298e+3, 2.3197158e+2, -711337.6, -757006.9, -20131.563, 0.013948647, 0.4926786, -703730.5, -37003.14, 0.0, 10.00032, 9.999689 
2.9651785e+3, 2.4196991e+2, -543280.94, -534237.56, -40669.38, -0.089882776, 0.39497748, -497839.28, 70905.31, 0.0, 10.000401, 10.000514 
2.96506e+3, 2.5197053e+2, -336329.88, -324092.9, -44883.73, -0.041924413, 0.43561348, -284912.56, 185822.77, 0.0, 10.000892, 10.001048 
2.9649413e+3, 2.619711e+2, -276125.94, -352549.9, 15083.599, -0.0040038647, 0.49270734, -273256.66, 99470.48, 0.0, 10.001101, 10.000078 
2.964824e+3, 2.7197057e+2, -320081.78, -361475.25, -11394.683, -0.0030876116, 0.53063226, -317152.4, -42419.367, 0.0, 10.000291, 9.999731 
2.9647067e+3, 2.8196862e+2, -323091.28, -301321.63, -53813.227, 0.014597265, 0.43076047, -257303.42, -80551.42, 0.0, 9.999554, 9.999841 
2.964588e+3, 2.9196653e+2, -190956.45, -52270.836, -71530.87, 0.008327329, 0.28440967, -21988.896, 56779.65, 0.0, 9.9992485, 10.00101 
2.9764682e+3, 1.3209648e+2, -1802234.9, -1966197.6, -16839.723, 0.024106823, 0.842076, -1800523.3, -155019.8, 0.0, 10.000327, 9.998111 
2.976353e+3, 1.4209227e+2, -1515819.9, -1565024.3, -44350.49, 0.15266183, 0.61788553, -1489704.9, 57844.44, 0.0, 10.000688, 10.00003 
2.976237e+3, 1.5208891e+2, -1387613.3, -1331751.1, -27706.117, 0.26901275, 0.2527873, -1320340.5, 129234.586, 0.0, 10.0003805, 10.0011 
2.9761198e+3, 1.6208754e+2, -1400299.0, -1379396.0, -29676.934, 0.3160883, 0.09425757, -1358384.0, -6800.231, 0.0, 10.000012, 10.000279 
2.9759994e+3, 1.7208841e+2, -1308554.1, -1352207.0, -21146.19, 0.046156798, 0.27136722, -1299990.5, -46411.492, 0.0, 10.000269, 9.999664 
2.975881e+3, 1.8208888e+2, -1159942.6, -1197119.6, -27124.084, -0.067221224, 0.41276947, -1145648.8, 9928.293, 0.0, 10.000466, 9.999967 
2.9757673e+3, 1.9208872e+2, -1027412.4, -1012609.5, 11436.108, 0.16909716, 0.42460725, -1006388.7, 51187.703, 0.0, 10.000411, 10.000581 
2.9756522e+3, 2.0208846e+2, -920838.56, -877034.5, 5337.178, 0.2532991, 0.40649495, -876393.56, 83183.24, 0.0, 10.000323, 10.000884 
2.975533e+3, 2.120904e+2, -781872.6, -668258.7, 5157.8677, 0.04042139, 0.5211535, -668025.0, 193531.08, 0.0, 10.000217, 10.001694 
2.9754147e+3, 2.2209173e+2, -805543.7, -810387.25, 23051.201, -0.07958048, 0.6067077, -784787.4, -21244.018, 0.0, 10.000164, 10.000072 
2.975297e+3, 2.3208897e+2, -737467.2, -803502.0, -16135.296, -0.047371335, 0.4520882, -733735.5, -68159.55, 0.0, 10.000285, 9.999389 
2.9751787e+3, 2.4208735e+2, -523148.1, -486174.63, -28785.145, -0.026422143, 0.36239612, -470451.06, 97143.79, 0.0, 10.000373, 10.000857 
2.975061e+3, 2.5208947e+2, -315573.0, -283393.84, -21311.023, 0.03983311, 0.51862884, -272780.72, 196788.84, 0.0, 10.000902, 10.001321 
2.9749426e+3, 2.620903e+2, -317581.78, -448610.1, -2903.5103, 0.06468249, 0.6087455, -317517.47, 54040.875, 0.0, 10.0011425, 9.999398 
2.9748234e+3, 2.720869e+2, -391857.13, -511840.22, -44084.24, -0.04023994, 0.45043772, -377401.34, -103807.59, 0.0, 10.000296, 9.998698 
2.974705e+3, 2.8208417e+2, -283388.34, -214497.92, -75532.17, -0.05609101, 0.31696832, -165927.58, 9693.363, 0.0, 9.99955, 10.000436 
2.9745886e+3, 2.920858e+2, -157126.64, 19939.027, -66164.305, 0.17468064, 0.45395827, 41931.207, 119532.73, 0.0, 9.999269, 10.001484 
2.9864672e+3, 1.322089e+2, -1760869.4, -1828856.6, 94994.58, -0.011604941, 0.42085227, -1693969.3, -49569.25, 0.0, 10.000085, 9.999193 
2.986353e+3, 1.42207e+2, -1408692.4, -1472256.5, 60818.96, 0.15414065, 0.3499382, -1371851.9, 174569.2, 0.0, 10.001247, 10.000399 
2.9862353e+3, 1.5220946e+2, -1385009.9, -1343947.0, 21449.432, 0.13891895, 0.5729432, -1334786.4, 113605.375, 0.0, 10.000472, 10.000965 
2.986118e+3, 1.622099e+2, -1501029.1, -1453812.9, -41966.66, 0.21022744, 0.62070566, -1429269.8, -78885.55, 0.0, 9.999461, 10.000022 
2.986e+3, 1.7220804e+2, -1408620.1, -1392629.1, 13573.749, 0.15928046, 0.53039515, -1384871.0, -132465.08, 0.0, 9.999581, 9.999704 
2.9858822e+3, 1.8220651e+2, -1182023.5, -1182284.3, 58518.406, 0.048004277, 0.45978844, -1123635.4, 30788.117, 0.0, 10.000239, 10.000161 
2.9857668e+3, 1.9220558e+2, -1020204.0, -1020962.7, 64191.41, 0.13996862, 0.3980225, -956390.8, 100040.234, 0.0, 10.000534, 10.000455 
2.9856518e+3, 2.0220578e+2, -843354.8, -806716.56, 41273.043, 0.24699, 0.41803682, -779879.75, 178547.36, 0.0, 10.000724, 10.001172 
2.985533e+3, 2.1220657e+2, -794871.56, -681343.25, -17797.072, 0.09148787, 0.41337466, -678618.75, 181798.58, 0.0, 10.000155, 10.001637 
2.9854137e+3, 2.222069e+2, -913483.3, -799837.2, -34763.94, -0.08424236, 0.39033374, -790046.5, -27632.824, 0.0, 9.999144, 10.000643 
2.9852957e+3, 2.322071e+2, -832217.6, -725568.56, 27848.068, -0.07426697, 0.4326356, -718734.75, -54318.297, 0.0, 9.999106, 10.000492 
2.9851782e+3, 2.4220733e+2, -629918.4, -589362.6, 72587.54, -0.012031689, 0.47852787, -534273.75, 32143.549, 0.0, 9.999862, 10.000397 
2.9850614e+3, 2.5220755e+2, -392017.84, -430309.9, -12063.503, 0.062083654, 0.53405136, -388534.28, 79878.74, 0.0, 10.000849, 10.000341 
2.9849434e+3, 2.6220694e+2, -299846.25, -459314.88, -71187.68, 0.0830033, 0.5502095, -272691.63, 97725.62, 0.0, 10.001336, 9.999242 
2.9848236e+3, 2.7220386e+2, -273908.9, -443863.8, -45006.586, -0.019900585, 0.41302285, -262726.28, 9722.931, 0.0, 10.001035, 9.998825 
2.9847044e+3, 2.822021e+2, -94076.24, -101739.65, -25983.408, -0.05063164, 0.35904965, -71643.53, 102824.02, 0.0, 10.0007515, 10.000662 
2.9845876e+3, 2.9220435e+2, 7845.3022, 31410.596, -78240.88, 0.17252947, 0.57056046, 98751.06, 175195.47, 0.0, 10.000627, 10.001001 
2.996468e+3, 1.3232419e+2, -1749854.5, -1455353.3, -128714.375, 0.12415582, 0.35585508, -1407027.5, 236239.69, 0.0, 9.998616, 10.00244 
2.9963508e+3, 1.4232594e+2, -1473341.6, -1407869.6, -137005.95, -0.12227818, 0.38836646, -1299743.0, 245505.5, 0.0, 10.000392, 10.001253 
2.9962352e+3, 1.5232591e+2, -1337207.5, -1395126.0, -32060.809, 0.1489544, 0.39098817, -1322963.4, 124286.92, 0.0, 10.001065, 10.000353 
2.996115e+3, 1.6232698e+2, -1234491.4, -1392147.1, 31487.102, 0.064496785, 0.5821316, -1228435.4, 120805.664, 0.0, 10.001496, 9.999505 
2.9959992e+3, 1.7232484e+2, -969306.8, -1145552.1, 88591.664, 0.20854405, 0.4446729, -932473.1, 318789.78, 0.0, 10.002361, 10.000101 
2.995884e+3, 1.8232593e+2, -923085.7, -1042779.06, 37833.66, 0.2806288, 0.5863966, -912129.75, 241122.38, 0.0, 10.001859, 10.000386 
2.9957664e+3, 1.9232422e+2, -1050395.0, -1111210.8, 40759.855, 0.12504761, 0.47981274, -1029950.1, 25316.967, 0.0, 10.000575, 9.99985 
2.995648e+3, 2.0232376e+2, -1056524.9, -917424.9, -17752.244, -0.12106025, 0.4381005, -915195.0, 42075.152, 0.0, 9.99924, 10.001151 
2.9955298e+3, 2.123234e+2, -955800.06, -856493.4, -88183.516, -0.14757709, 0.37521008, -804945.0, 54328.973, 0.0, 9.999443, 10.000788 
2.9954118e+3, 2.2232242e+2, -697812.8, -601951.0, -103251.37, -0.09491849, 0.2592856, -536047.75, 225235.92, 0.0, 10.00021, 10.001492 
2.9952943e+3, 2.3232724e+2, -674291.44, -386505.75, -4018.805, -0.035416815, 0.5605965, -386449.66, 276786.97, 0.0, 9.999057, 10.002841 
2.9951772e+3, 2.4232955e+2, -736843.7, -788381.7, 105482.06, -0.037850667, 0.7250971, -654028.56, -88813.49, 0.0, 9.999766, 9.99907 
2.995061e+3, 2.5232464e+2, -537680.44, -739753.75, 20168.441, 0.017522741, 0.47539133, -535687.1, -68420.98, 0.0, 10.000883, 9.998191 
2.9949436e+3, 2.623211e+2, -272759.34, -405034.8, -73496.375, 0.043710157, 0.318314, -240023.84, 129278.945, 0.0, 10.001336, 9.999618 
2.9948246e+3, 2.723216e+2, -176606.78, -256162.48, -49666.195, 0.051344503, 0.42643395, -152752.81, 118545.06, 0.0, 10.001084, 10.000095 
2.9947048e+3, 2.8232244e+2, -125627.26, -151038.33, -36229.03, 0.0016201391, 0.5575146, -99940.44, 73350.516, 0.0, 10.000733, 10.000306 
2.9945847e+3, 2.9232326e+2, -82464.125, -117377.73, -48450.527, -0.083479404, 0.70540434, -48421.473, 26865.143, 0.0, 10.000533, 9.999992 
