coord_x,coord_y,stress_xx,stress_yy,tau_xy,velocity_x,velocity_y,stress_1,eps,damage,lx,ly
4.9982372e+0, 1.2526625e+2, -2077053.5, -1640724.3, -7192.189, 0.0014751, -0.06134624, -1640605.8, 71779.12, 0.0013801174, 9.996437, 10.002223 
4.998541e+0, 1.3526756e+2, -1990870.9, -1703819.4, -8127.883, 0.0024122214, -0.014833623, -1703589.4, -89218.664, 0.0008364695, 9.997028, 10.000831 
4.9987793e+0, 1.4526752e+2, -1822363.0, -1581554.5, -11315.822, -0.00009965008, -0.09999454, -1581024.0, -64652.926, 0.00038681776, 9.997555, 10.000738 
4.9989724e+0, 1.5526879e+2, -1663579.9, -1467095.8, -15314.394, -0.004307583, -0.045762915, -1465909.3, -47549.98, 0.00011816065, 9.998027, 10.000623 
4.999153e+0, 1.6526924e+2, -1559516.6, -1455152.8, -12453.315, -0.007477844, -0.02063905, -1453687.4, -133332.0, 0.000016018055, 9.998452, 9.999829 
4.9993253e+0, 1.7526855e+2, -1405874.3, -1331976.1, -2948.8752, -0.009706808, -0.07909865, -1331858.6, -109495.94, 0.00000013955699, 9.998842, 9.999814 
4.9995685e+0, 1.8526828e+2, -1259569.4, -1229435.8, -5489.3896, -0.006038954, -0.07894057, -1228467.0, -104101.375, 0.0, 9.999254, 9.999648 
4.999875e+0, 1.9526851e+2, -1102951.3, -1109604.5, -21685.846, 0.0031959985, -0.023243675, -1084338.4, -57975.26, 0.0, 9.999684, 9.999591 
5.000087e+0, 2.0526764e+2, -1012103.94, -1116751.3, -22596.195, 0.004958763, -0.022988718, -1007433.25, -79062.15, 0.0, 10.000073, 9.99868 
5.000211e+0, 2.1526569e+2, -864249.44, -997405.9, -9266.895, -0.00038950387, -0.090170056, -863607.6, -33218.438, 0.0, 10.000427, 9.998655 
5.0003517e+0, 2.2526418e+2, -717845.0, -885257.9, -6977.089, -0.0049234997, -0.10247466, -717554.7, 14848.203, 0.0, 10.000799, 9.998573 
5.000504e+0, 2.3526303e+2, -566350.75, -765809.1, -18064.65, -0.008862662, -0.079891294, -564727.8, 69685.16, 0.0, 10.001185, 9.998535 
5.000747e+0, 2.452612e+2, -458950.8, -744814.06, -17592.281, -0.005434256, -0.07948485, -457872.22, 78558.07, 0.0, 10.001601, 9.9978075 
5.001071e+0, 2.552587e+2, -298253.28, -620897.75, -10304.65, 0.004521362, -0.11161365, -297924.5, 140529.83, 0.0, 10.00205, 9.997768 
5.0012755e+0, 2.6525632e+2, -159085.2, -524338.44, -5302.9053, 0.0062193307, -0.11861224, -159008.23, 181469.66, 0.0, 10.002424, 9.997578 
5.001372e+0, 2.75254e+2, -17906.912, -407038.47, -359.32718, 0.0007196479, -0.11222342, -17906.58, 224594.06, 0.0, 10.0027275, 9.997563 
5.0016105e+0, 2.8525168e+2, 130070.6, -302137.8, 470.09848, 0.0037059765, -0.094771035, 130071.12, 274593.7, 0.000000004221918, 10.003145, 9.99741 
5.001975e+0, 2.9524913e+2, 305612.47, -165242.48, -10450.149, 0.013886972, -0.09236866, 305844.28, 352389.63, 0.0000065845143, 10.003672, 9.997423 
5.002128e+0, 3.052447e+2, 301278.84, -316229.56, -13986.558, 0.009997588, -0.20270436, 301595.47, 301595.47, 0.00007542163, 10.004054, 9.9958725 
5.002097e+0, 3.152413e+2, 525506.3, 95395.29, -2054.3994, -0.004919327, -0.12814407, 525516.1, 525516.1, 0.00027006015, 10.004288, 9.998589 
1.4994706e+1, 1.252654e+2, -2077849.8, -1640663.3, 14723.039, 0.003999661, -0.094071805, -1640168.0, 72223.67, 0.00135349, 9.99643, 10.002228 
1.4995627e+1, 1.3526666e+2, -1990686.8, -1702559.4, 13968.2, 0.0074815373, -0.05374777, -1701883.8, -87505.875, 0.0008181531, 9.9970255, 10.000842 
1.4996335e+1, 1.4526658e+2, -1829090.8, -1594004.1, 5770.52, -0.00043148993, -0.13965671, -1593862.6, -77483.56, 0.00037595516, 9.997549, 10.000655 
1.4996918e+1, 1.5526772e+2, -1669174.3, -1477723.3, 2706.6042, -0.012845467, -0.08744013, -1477685.0, -59315.68, 0.00011312574, 9.998024, 10.000552 
1.4997458e+1, 1.6526845e+2, -1540958.9, -1415569.0, 1417.2896, -0.022484472, -0.047962658, -1415552.9, -95190.13, 0.000014709239, 9.998448, 10.000103 
1.4997977e+1, 1.7526835e+2, -1389235.5, -1296498.8, 11910.272, -0.029099444, -0.070569746, -1294993.6, -72630.34, 0.00000010097208, 9.998838, 10.00006 
1.4998703e+1, 1.85268e+2, -1289432.3, -1290081.0, 10467.854, -0.0181894, -0.06871777, -1279283.8, -154916.53, 0.0, 9.999249, 9.999234 
1.4999627e+1, 1.9526756e+2, -1130512.3, -1166234.3, -5126.501, 0.009633823, -0.03968276, -1129791.1, -103417.92, 0.0, 9.999682, 9.999204 
1.5000261e+1, 2.0526668e+2, -986468.56, -1062494.8, -9799.087, 0.014797196, -0.04052455, -985225.8, -56844.586, 0.0, 10.00007, 9.999055 
1.5000634e+1, 2.1526532e+2, -840196.7, -946437.0, 4668.213, -0.0009820901, -0.084532835, -839991.94, -9600.016, 0.0, 10.000423, 9.999008 
1.5001051e+1, 2.2526382e+2, -737346.56, -924398.3, 7135.347, -0.014992691, -0.09889542, -737074.75, -4669.368, 0.0, 10.000794, 9.998307 
1.5001516e+1, 2.3526222e+2, -585310.8, -804579.6, -2939.485, -0.026452998, -0.09365186, -585271.44, 49149.734, 0.0, 10.001183, 9.998271 
1.5002239e+1, 2.4526039e+2, -445161.22, -715333.0, -1205.9594, -0.016549679, -0.09097504, -445155.84, 91282.945, 0.0, 10.001597, 9.998012 
1.5003213e+1, 2.552583e+2, -283371.66, -589090.6, 6889.7495, 0.013463594, -0.10365883, -283216.47, 155241.92, 0.0, 10.002047, 9.997989 
1.5003826e+1, 2.65256e+2, -148579.39, -501386.25, 5718.1436, 0.018670507, -0.12066354, -148486.73, 191993.42, 0.0, 10.00242, 9.997738 
1.5004115e+1, 2.752535e+2, -10101.489, -389689.6, 11599.735, 0.0019299849, -0.1458487, -9747.347, 232756.31, 0.0, 10.002724, 9.997685 
1.5004832e+1, 2.8525117e+2, 109574.96, -343545.25, 19717.855, 0.011352912, -0.120035455, 110431.375, 254957.81, 0.0000000059189293, 10.00314, 9.9971285 
1.5005924e+1, 2.9524887e+2, 287839.63, -200828.67, 10028.2295, 0.041193902, -0.06675038, 288045.3, 334594.63, 0.0000065077284, 10.003667, 9.997182 
1.5006387e+1, 3.052445e+2, 321175.06, -273585.34, -5521.1377, 0.030520976, -0.17341566, 321226.3, 321226.3, 0.000074265045, 10.00405, 9.996168 
1.5006284e+1, 3.1524104e+2, 543661.94, 135307.17, 11616.034, -0.015551584, -0.13274561, 543992.06, 543992.06, 0.00026651216, 10.00428, 9.998867 
2.499131e+1, 1.2526426e+2, -2061432.6, -1632125.9, -1984.602, 0.015439735, -0.10687034, -1632116.8, 80285.56, 0.0013145427, 9.996544, 10.002232 
2.4992666e+1, 1.3526554e+2, -1996301.8, -1704182.0, -5664.717, 0.010839922, -0.064655155, -1704072.3, -89683.96, 0.0007913486, 9.9969845, 10.000852 
2.4993779e+1, 1.4526542e+2, -1847728.8, -1606959.4, -11421.525, -0.005405106, -0.15296918, -1606418.9, -90028.9, 0.00036019128, 9.9974375, 10.000622 
2.4994777e+1, 1.5526651e+2, -1686011.3, -1489189.4, -11217.25, -0.02444598, -0.102509744, -1488552.3, -70171.04, 0.00010584406, 9.997923, 10.000523 
2.4995796e+1, 1.6526733e+2, -1538753.6, -1404333.3, -18041.578, -0.03229683, -0.055982474, -1401953.9, -81580.305, 0.000012859098, 9.99842, 10.000195 
2.4996853e+1, 1.7526749e+2, -1370643.9, -1278258.0, -21682.217, -0.02961522, -0.06363243, -1273422.5, -51051.16, 0.00000006033416, 9.998926, 10.000143 
2.4997978e+1, 1.8526708e+2, -1284089.8, -1302670.4, -18981.682, -0.020663574, -0.06494146, -1272246.9, -147870.86, 0.0, 9.9993515, 9.9991 
2.4999167e+1, 1.952663e+2, -1135661.1, -1182746.5, -14022.126, -0.005835102, -0.05463136, -1131801.8, -105416.24, 0.0, 9.999708, 9.999078 
2.500017e+1, 2.0526543e+2, -982552.3, -1049929.9, -21121.225, -0.00036137082, -0.05424453, -976478.75, -48085.24, 0.0, 10.000051, 9.99915 
2.5000998e+1, 2.1526435e+2, -841107.3, -936694.4, -28168.959, -0.0042771692, -0.08034719, -833423.7, -3022.4473, 0.0, 10.000374, 9.9991 
2.500187e+1, 2.2526288e+2, -745253.9, -933232.2, -22333.342, -0.010907275, -0.09377699, -742636.94, -10222.614, 0.0, 10.000761, 9.998264 
2.5002784e+1, 2.3526113e+2, -584154.0, -808483.7, -15909.209, -0.019389827, -0.10031511, -583031.4, 51400.418, 0.0, 10.001211, 9.99823 
2.5003874e+1, 2.4525927e+2, -445677.5, -710711.4, -12807.659, -0.011386786, -0.09798461, -445060.0, 91389.56, 0.0, 10.001573, 9.998055 
2.500514e+1, 2.5525734e+2, -308493.16, -595402.1, -17347.383, 0.011668311, -0.10290147, -307448.1, 131020.04, 0.0, 10.001849, 9.998041 
2.5006157e+1, 2.652551e+2, -165579.19, -495825.16, -23912.566, 0.018655233, -0.12118119, -163856.7, 176632.16, 0.0, 10.002245, 9.997861 
2.500696e+1, 2.752526e+2, 3039.2651, -371158.47, -20161.31, 0.012145435, -0.15596785, 4122.3965, 246633.81, 0.0, 10.002762, 9.997795 
2.5008067e+1, 2.852503e+2, 108168.6, -354724.44, -3324.6978, 0.019209495, -0.12869363, 108192.48, 252726.63, 0.0000000086392555, 10.003177, 9.997034 
2.500942e+1, 2.9524806e+2, 253100.05, -227706.44, -509.18826, 0.03401205, -0.06356389, 253100.58, 299658.28, 0.0000063841276, 10.003471, 9.997092 
2.5010312e+1, 3.052437e+2, 308418.47, -267146.13, -16369.479, 0.025140405, -0.16746244, 308883.66, 308883.66, 0.00007245626, 10.00391, 9.99628 
2.5010803e+1, 3.1524044e+2, 581794.4, 163181.36, -9654.151, -0.0027979924, -0.11795033, 582016.9, 582016.9, 0.0002610093, 10.004503, 9.998951 
3.498804e+1, 1.2526277e+2, -2061111.5, -1631220.9, 13906.784, 0.032051273, -0.10256181, -1630771.5, 81645.31, 0.0012623775, 9.996544, 10.002238 
3.4989652e+1, 1.3526419e+2, -1994709.6, -1701620.1, 11693.368, 0.009886408, -0.048629902, -1701154.4, -86752.52, 0.000755357, 9.996987, 10.000868 
3.4991103e+1, 1.4526404e+2, -1845911.6, -1603164.1, 5646.5947, -0.017889218, -0.14103524, -1603032.9, -86628.984, 0.00033918672, 9.997438, 10.0006485 
3.499255e+1, 1.5526517e+2, -1685439.8, -1487256.9, 7165.5137, -0.040182926, -0.08920676, -1486998.1, -68603.44, 0.00009620481, 9.99792, 10.000538 
3.4994164e+1, 1.6526593e+2, -1545332.6, -1416723.8, 853.08215, -0.038664296, -0.04502685, -1416718.0, -96330.28, 0.000010539653, 9.998415, 10.000112 
3.499595e+1, 1.7526592e+2, -1376009.9, -1289041.4, -2217.8384, -0.0133134015, -0.058915034, -1288984.9, -66597.7, 0.000000028001644, 9.998925, 10.00007 
3.4997386e+1, 1.8526548e+2, -1273605.4, -1280295.6, -6069.394, -0.015691057, -0.068728864, -1270020.4, -145628.58, 0.0, 9.999349, 9.999254 
3.4998497e+1, 1.9526477e+2, -1126480.3, -1162704.0, -105.9187, -0.044076648, -0.06760576, -1126480.0, -100080.195, 0.0, 9.999704, 9.999217 
3.4999806e+1, 2.0526388e+2, -996213.75, -1076544.8, -9063.902, -0.04203801, -0.06445167, -995203.75, -66795.75, 0.0, 10.000045, 9.998971 
3.5001302e+1, 2.1526276e+2, -853400.8, -961583.8, -15352.164, -0.0116508845, -0.07759756, -851264.4, -20847.08, 0.0, 10.000371, 9.99893 
3.5002795e+1, 2.2526133e+2, -732255.56, -905259.3, -5852.292, 0.005274651, -0.088368386, -732057.8, 372.01898, 0.0, 10.000757, 9.998458 
3.5004306e+1, 2.3525971e+2, -571471.25, -781884.6, 1458.002, 0.011290714, -0.10002424, -571461.1, 62983.777, 0.0, 10.001209, 9.998415 
3.5005653e+1, 2.4525785e+2, -453601.0, -725746.25, -2724.6943, 0.008626482, -0.1018648, -453573.72, 82889.02, 0.0, 10.001568, 9.997954 
3.500686e+1, 2.552558e+2, -316711.28, -611354.44, -6427.9937, -0.0023480074, -0.108722135, -316571.1, 121912.39, 0.0, 10.001844, 9.997933 
3.5008258e+1, 2.652536e+2, -159762.61, -482652.22, -4857.5728, 0.00410335, -0.12110856, -159689.55, 180814.47, 0.0, 10.002241, 9.997953 
3.5009897e+1, 2.7525136e+2, 10072.977, -355170.66, -135.02307, 0.029125951, -0.14169872, 10073.026, 252596.86, 0.0, 10.002756, 9.997908 
3.5011318e+1, 2.8524908e+2, 114078.38, -341162.16, 7520.614, 0.026020952, -0.121602066, 114202.586, 258748.33, 0.000000011844628, 10.003172, 9.99713 
3.501246e+1, 2.9524663e+2, 257595.4, -216737.19, 11137.648, -0.009927736, -0.082360566, 257856.78, 304427.34, 0.0000061783935, 10.003466, 9.9971695 
3.5013902e+1, 3.0524233e+2, 302897.72, -277383.28, 5090.9014, -0.007326986, -0.18548684, 302942.38, 302942.38, 0.00006980898, 10.003906, 9.996212 
3.501564e+1, 3.1523952e+2, 574653.06, 150074.44, 17627.852, 0.029124426, -0.08156186, 575383.7, 575383.7, 0.00025310565, 10.004498, 9.998863 
4.498483e+1, 1.2526083e+2, -2025977.8, -1626246.0, -3166.1614, 0.04246642, -0.10273537, -1626220.9, 86215.02, 0.0011988538, 9.996836, 10.002134 
4.498653e+1, 1.3526237e+2, -1991039.5, -1708599.4, -14935.8125, -0.0040662843, -0.02622035, -1707811.8, -93391.15, 0.0007112032, 9.997052, 10.00079 
4.4988415e+1, 1.4526223e+2, -1837529.6, -1591272.5, -13908.618, -0.03189644, -0.11923927, -1590489.4, -74066.68, 0.00031351, 9.997463, 10.000719 
4.4990632e+1, 1.5526335e+2, -1660290.3, -1468105.0, -9965.831, -0.03106726, -0.07382417, -1467589.5, -49176.855, 0.000084590996, 9.998063, 10.000602 
4.4992715e+1, 1.6526406e+2, -1540077.6, -1423603.3, -18200.102, -0.028411001, -0.034080148, -1420825.6, -100419.266, 0.000007991499, 9.998492, 10.000029 
4.4994712e+1, 1.7526394e+2, -1402497.5, -1310007.1, -21722.797, -0.021967651, -0.050643455, -1305159.4, -82751.98, 0.000000008983813, 9.998779, 9.999996 
4.4996494e+1, 1.852635e+2, -1297196.0, -1277481.8, -27005.957, -0.028383547, -0.06334008, -1258590.3, -134178.47, 0.0, 9.999126, 9.999381 
4.4998062e+1, 1.952629e+2, -1143915.9, -1157910.4, -23781.049, -0.049043797, -0.065425985, -1126124.0, -99705.95, 0.0, 9.999528, 9.999335 
4.4999775e+1, 2.05262e+2, -1014135.75, -1096751.4, -28248.94, -0.045755506, -0.06315499, -1005400.2, -76974.01, 0.0, 9.99997, 9.998869 
4.5001632e+1, 2.152608e+2, -848862.44, -969457.1, -29197.572, -0.019440306, -0.073811926, -842165.25, -11728.395, 0.0, 10.000446, 9.998839 
4.500354e+1, 2.2525933e+2, -714517.2, -887470.7, -20880.404, -0.00022701769, -0.08854989, -712032.06, 20417.729, 0.0, 10.000839, 9.998541 
4.5005503e+1, 2.3525767e+2, -573555.5, -773392.1, -22323.99, 0.013359241, -0.11101791, -571092.0, 63372.44, 0.0, 10.001155, 9.998499 
4.500723e+1, 2.4525592e+2, -457725.2, -723574.94, -25243.246, 0.01182812, -0.11052028, -455349.5, 81131.766, 0.0, 10.001521, 9.9979925 
4.5008725e+1, 2.5525403e+2, -301106.13, -600124.6, -18774.715, -0.0043880055, -0.10290635, -299931.9, 138568.52, 0.0, 10.001936, 9.997967 
4.5010516e+1, 2.6525187e+2, -148887.14, -486024.56, -13213.109, 0.0005001126, -0.11229977, -148370.08, 192151.1, 0.0, 10.002352, 9.997877 
4.501264e+1, 2.7524945e+2, 5471.2817, -364780.28, -21982.432, 0.028252454, -0.14217542, 6771.8457, 249314.77, 0.0, 10.002756, 9.997842 
4.5014492e+1, 2.8524715e+2, 119750.46, -322621.7, -22636.896, 0.028068693, -0.12671642, 120905.81, 265470.38, 0.000000014278152, 10.003143, 9.997272 
4.5016006e+1, 2.9524484e+2, 277448.84, -193598.31, -15716.043, -0.005371407, -0.088411525, 277972.6, 324559.9, 0.0000058442592, 10.003544, 9.9972925 
4.5017833e+1, 3.0524045e+2, 295110.47, -291736.38, -16605.896, -0.0037412234, -0.19962174, 295579.97, 295579.97, 0.00006621042, 10.003898, 9.996119 
4.5019993e+1, 3.152377e+2, 514011.66, 104791.85, -5108.788, 0.03269234, -0.08075675, 514075.4, 514075.4, 0.0002425997, 10.004147, 9.998723 
5.498164e+1, 1.2525843e+2, -2039560.5, -1656628.1, 4848.073, 0.038923215, -0.1061267, -1656566.8, 55892.82, 0.0011275938, 9.996845, 10.001921 
5.498331e+1, 1.3526013e+2, -2003433.0, -1734319.4, -6877.201, -0.031740412, 0.005511085, -1734143.8, -119699.46, 0.00066134764, 9.997052, 10.000614 
5.498571e+1, 1.4525995e+2, -1828991.1, -1572627.9, 8752.064, -0.04961374, -0.08807524, -1572329.4, -55882.793, 0.00028458898, 9.997458, 10.000849 
5.4988986e+1, 1.5526107e+2, -1651367.6, -1450609.3, 13209.432, -0.002781609, -0.057608362, -1449743.8, -31308.287, 0.00007188515, 9.998067, 10.00072 
5.4991436e+1, 1.6526172e+2, -1545149.4, -1434510.9, -8062.2686, -0.00648387, -0.024139453, -1433926.5, -113497.11, 0.0000055425044, 9.998495, 9.999952 
5.499316e+1, 1.7526157e+2, -1408339.3, -1320959.3, -10644.617, -0.05599809, -0.037611417, -1319681.1, -97249.35, 0.00000000116644, 9.998775, 9.999924 
5.4995304e+1, 1.8526116e+2, -1291283.0, -1263664.6, -11812.756, -0.060825266, -0.0482817, -1259301.5, -134865.5, 0.0, 9.999121, 9.999478 
5.4997844e+1, 1.9526064e+2, -1137277.1, -1143929.6, -8072.394, -0.024104543, -0.048952773, -1131872.5, -105432.17, 0.0, 9.999527, 9.999432 
5.500006e+1, 2.0525977e+2, -1014845.8, -1097849.4, -10558.935, -0.014616201, -0.05151682, -1013523.6, -85075.39, 0.0, 9.9999695, 9.998862 
5.500198e+1, 2.1525846e+2, -850161.94, -971497.25, -10843.82, -0.029688919, -0.06955024, -849200.44, -18740.49, 0.0, 10.000443, 9.998828 
5.500409e+1, 2.2525688e+2, -716756.2, -890589.1, -9155.297, -0.02956892, -0.09523326, -716275.4, 16198.758, 0.0, 10.0008335, 9.998522 
5.500638e+1, 2.3525505e+2, -574827.75, -775777.6, -9892.938, -0.015389345, -0.13275339, -574341.9, 60148.45, 0.0, 10.001153, 9.998484 
5.5008584e+1, 2.4525344e+2, -445022.66, -696668.8, -9870.871, -0.0047556893, -0.12494976, -444636.06, 91869.15, 0.0, 10.001519, 9.9981785 
5.5010736e+1, 2.5525203e+2, -289510.13, -575248.94, -2640.5615, 0.0028773716, -0.08576056, -289485.72, 149033.34, 0.0, 10.001932, 9.99814 
5.501293e+1, 2.6524982e+2, -165986.81, -520375.88, 1840.737, 0.006085148, -0.09627692, -165977.27, 174563.28, 0.0, 10.002348, 9.997643 
5.501519e+1, 2.752469e+2, -11237.74, -398394.84, -6776.023, 0.0068359203, -0.15688239, -11119.183, 231449.45, 0.0, 10.002752, 9.997613 
5.501757e+1, 2.8524452e+2, 132299.92, -296152.44, -8138.724, 0.0215727, -0.14432663, 132454.47, 277045.1, 0.000000014996283, 10.003141, 9.997455 
5.502005e+1, 2.9524267e+2, 289849.13, -166474.05, 471.7256, 0.043978386, -0.0802375, 289849.63, 336457.4, 0.0000053587105, 10.003538, 9.997481 
5.5022097e+1, 3.0523813e+2, 285504.56, -310929.1, -7092.035, 0.032556843, -0.21076779, 285588.88, 285588.88, 0.000061679886, 10.003895, 9.995989 
5.5023855e+1, 3.15235e+2, 500250.34, 76714.25, 9075.423, 0.002388826, -0.11779658, 500444.72, 500444.72, 0.00022953504, 10.004146, 9.998531 
6.4978147e+1, 1.2525553e+2, -2088741.0, -1684464.8, -8822.405, 0.020801364, -0.11610416, -1684272.3, 28215.479, 0.001052614, 9.996526, 10.001883 
6.4980584e+1, 1.3525736e+2, -1964735.4, -1715623.1, -8720.065, -0.02244494, 0.0087456005, -1715318.3, -100846.79, 0.00060904585, 9.997318, 10.000613 
6.49834e+1, 1.4525712e+2, -1788699.4, -1558409.3, 3918.6697, -0.040784582, -0.08973852, -1558342.6, -41868.063, 0.000254567, 9.997758, 10.000802 
6.498685e+1, 1.552581e+2, -1676870.8, -1467783.3, -5125.548, -0.015438628, -0.06507945, -1467657.6, -49193.49, 0.00005931439, 9.997914, 10.000676 
6.498969e+1, 1.6525877e+2, -1581673.1, -1453793.9, -29182.127, -0.01788064, -0.030349331, -1447449.4, -126990.945, 0.0000034805446, 9.998252, 9.999937 
6.4992005e+1, 1.7525867e+2, -1412456.3, -1324397.1, -27334.156, -0.047598545, -0.036393095, -1316602.4, -94141.62, 0.00000000000024211628, 9.998754, 9.99991 
6.4994574e+1, 1.8525831e+2, -1279073.8, -1251254.0, -27107.291, -0.04799055, -0.042703085, -1234696.0, -110231.76, 0.0, 9.999177, 9.9995365 
6.499742e+1, 1.9525787e+2, -1132081.3, -1134548.0, -26491.434, -0.019645713, -0.042879, -1106794.5, -80326.95, 0.0, 9.999535, 9.999493 
6.500004e+1, 2.0525698e+2, -1015764.75, -1097626.8, -25675.748, -0.013264271, -0.04776967, -1008378.2, -79902.87, 0.0, 9.999961, 9.998867 
6.500244e+1, 2.1525566e+2, -848783.75, -970139.94, -25398.914, -0.027911631, -0.07016089, -843682.4, -13194.747, 0.0, 10.000451, 9.998833 
6.5004903e+1, 2.2525409e+2, -714398.0, -888205.56, -27382.97, -0.031867407, -0.094415545, -710185.94, 22315.764, 0.0, 10.000844, 9.998533 
6.5007424e+1, 2.3525234e+2, -575007.9, -773853.6, -25839.236, -0.025318805, -0.12696345, -571705.0, 62812.113, 0.0, 10.001144, 9.998501 
6.5010035e+1, 2.4525073e+2, -444219.34, -693504.5, -25987.336, -0.011399329, -0.12069265, -441539.03, 94992.74, 0.0, 10.001513, 9.998204 
6.501275e+1, 2.552493e+2, -285806.2, -570127.0, -30728.822, 0.009958654, -0.08883631, -282522.97, 156022.8, 0.0, 10.001944, 9.99817 
6.501533e+1, 2.6524705e+2, -169765.8, -524251.78, -24144.951, 0.0121706175, -0.102878965, -168128.78, 172438.75, 0.0, 10.002331, 9.997625 
6.501782e+1, 2.752441e+2, -22714.209, -406812.56, -16767.701, -0.0010969056, -0.164996, -21983.61, 220612.61, 0.0, 10.0026865, 9.997587 
6.502066e+1, 2.8524175e+2, 123244.17, -309212.06, -17869.586, 0.017884888, -0.14415796, 123981.305, 268599.53, 0.000000013847158, 10.003118, 9.997376 
6.502377e+1, 2.9523998e+2, 293260.25, -172109.2, -29894.242, 0.059720334, -0.06168466, 295172.75, 341807.28, 0.0000047556837, 10.003593, 9.9974165 
6.502614e+1, 3.0523527e+2, 305511.28, -288299.2, -41615.047, 0.043095488, -0.21350335, 308413.53, 308413.53, 0.000056396846, 10.003977, 9.996103 
6.502795e+1, 3.1523207e+2, 523998.34, 90462.44, -4755.9927, -0.0094903605, -0.1367891, 524050.53, 524050.53, 0.00021421611, 10.0043, 9.99855 
7.497432e+1, 1.2525207e+2, -2077637.1, -1662355.9, 20847.543, -0.016747545, -0.136619, -1661312.0, 51208.836, 0.0009783517, 9.996529, 10.002032 
7.497829e+1, 1.3525403e+2, -1950474.6, -1688825.0, 21244.336, 0.015592825, -0.019322135, -1687111.4, -72608.74, 0.00055803865, 9.997328, 10.0007925 
7.498145e+1, 1.4525366e+2, -1803613.4, -1590485.5, 9246.783, -0.012539783, -0.12604704, -1590085.1, -73578.32, 0.00022607559, 9.997764, 10.00058 
7.498424e+1, 1.5525448e+2, -1692613.5, -1499653.4, 1234.729, -0.06815941, -0.095477015, -1499645.5, -81146.69, 0.000048170983, 9.9979105, 10.00046 
7.4987495e+1, 1.6525514e+2, -1578551.1, -1445893.3, -10139.466, -0.06309838, -0.052706603, -1445122.8, -124629.34, 0.0000019773436, 9.998246, 9.999993 
7.499122e+1, 1.7525522e+2, -1408393.8, -1316699.4, -7876.9854, -0.001799183, -0.047583733, -1316027.6, -93533.36, 0.0, 9.998757, 9.999961 
7.4994296e+1, 1.8525498e+2, -1277191.0, -1247762.9, -13812.98, 0.0052429526, -0.04758829, -1242295.1, -117798.34, 0.0, 9.99918, 9.999559 
7.499679e+1, 1.9525456e+2, -1130848.8, -1131130.9, -12666.515, -0.036409777, -0.04655299, -1118322.5, -91822.89, 0.0, 9.999531, 9.999517 
7.499971e+1, 2.0525369e+2, -1015148.56, -1095068.0, -7215.567, -0.042451188, -0.051815554, -1014502.3, -85995.03, 0.0, 9.999956, 9.998887 
7.5003004e+1, 2.1525238e+2, -847823.94, -967595.7, -6667.99, -0.016993681, -0.07536723, -847453.9, -16933.896, 0.0, 10.000449, 9.998851 
7.500597e+1, 2.2525097e+2, -710954.25, -880645.0, -16291.426, -0.009876118, -0.08662651, -709404.3, 23128.236, 0.0, 10.000842, 9.998587 
7.500864e+1, 2.352495e+2, -572037.1, -767324.6, -14147.435, -0.018370306, -0.094441175, -571017.56, 63527.508, 0.0, 10.0011425, 9.998548 
7.5011575e+1, 2.4524775e+2, -453535.6, -711950.5, -10003.748, -0.009381427, -0.09965772, -453148.9, 83412.26, 0.0, 10.001509, 9.998078 
7.5014734e+1, 2.5524575e+2, -294195.84, -587234.44, -14534.934, 0.014027304, -0.111484975, -293476.7, 145103.89, 0.0, 10.001943, 9.998053 
7.50177e+1, 2.652435e+2, -155859.16, -494974.78, -11278.24, 0.01584318, -0.13149443, -155484.47, 185117.66, 0.0, 10.00233, 9.997826 
7.502055e+1, 2.75241e+2, -10909.343, -380935.4, -2586.4854, 0.0024740244, -0.16666016, -10891.264, 231734.45, 0.0, 10.002681, 9.997767 
7.502376e+1, 2.8523877e+2, 98859.95, -359056.25, -188.27463, 0.01489301, -0.12701187, 98860.03, 243507.44, 0.000000011324871, 10.003114, 9.997036 
7.502716e+1, 2.952368e+2, 271021.28, -218242.98, -11998.23, 0.03921666, -0.033589594, 271315.34, 317982.97, 0.000004098041, 10.0035925, 9.9971 
7.5029916e+1, 3.0523187e+2, 330892.72, -235443.28, -30073.973, 0.023131175, -0.20756008, 332485.25, 332485.25, 0.000050636394, 10.003977, 9.996466 
7.5032264e+1, 3.1522897e+2, 540444.2, 126225.805, 11715.193, -0.0093375705, -0.13649763, 540775.25, 540775.25, 0.00019719645, 10.004293, 9.998798 
8.4971106e+1, 1.2524842e+2, -2018063.6, -1648889.8, 9169.649, -0.014229182, -0.13585839, -1648662.1, 63893.918, 0.00090933184, 9.997003, 10.001898 
8.4975505e+1, 1.3525024e+2, -1974873.8, -1709625.5, -14435.622, 0.010325435, -0.021039465, -1708842.3, -94302.43, 0.0005120121, 9.997201, 10.000711 
8.4979063e+1, 1.4524981e+2, -1835375.6, -1596876.9, -31068.574, -0.014659025, -0.13524513, -1592896.1, -76351.38, 0.00020159004, 9.997507, 10.000659 
8.498228e+1, 1.5525083e+2, -1682979.5, -1486620.0, -16188.336, -0.056132644, -0.09282291, -1485294.4, -66759.87, 0.000039447743, 9.997942, 10.000533 
8.49859e+1, 1.652515e+2, -1563635.1, -1441995.9, -12967.356, -0.05262118, -0.05104352, -1440628.8, -120100.06, 0.0000010481418, 9.9983635, 9.999963 
8.4989953e+1, 1.7525144e+2, -1407521.0, -1319322.1, -18183.209, -0.0055430178, -0.057746954, -1315720.5, -93189.44, 0.0, 9.998776, 9.999933 
8.499344e+1, 1.8525113e+2, -1270514.5, -1242924.6, -28831.678, 0.00037868365, -0.06167446, -1224757.6, -100223.51, 0.0, 9.999218, 9.999575 
8.499643e+1, 1.9525078e+2, -1106962.8, -1117631.5, -28320.635, -0.032907106, -0.05704562, -1083478.5, -56942.016, 0.0, 9.999687, 9.999535 
8.499976e+1, 2.0525e+2, -996293.25, -1084630.4, -23147.887, -0.039403986, -0.055876713, -990595.1, -62051.656, 0.0, 10.00008, 9.9988985 
8.500339e+1, 2.1524878e+2, -854240.3, -969629.25, -23846.475, -0.020861378, -0.070145756, -849506.4, -18951.057, 0.0, 10.0004, 9.998861 
8.500675e+1, 2.2524743e+2, -720270.7, -886674.06, -36964.25, -0.013064823, -0.07671491, -712429.1, 20138.518, 0.0, 10.000785, 9.998573 
8.500987e+1, 2.3524596e+2, -559666.9, -762649.9, -40548.715, -0.014238742, -0.08297664, -551866.44, 82713.75, 0.0, 10.001233, 9.998535 
8.501319e+1, 2.4524413e+2, -443285.66, -712995.44, -35378.734, -0.00313706, -0.09354959, -438722.13, 97875.12, 0.0, 10.001604, 9.998026 
8.501669e+1, 2.5524193e+2, -303049.06, -597474.7, -34819.777, 0.01702435, -0.116053954, -298987.22, 139631.13, 0.0, 10.001907, 9.998 
8.502005e+1, 2.6523972e+2, -157583.84, -491458.34, -33944.523, 0.019515287, -0.13178498, -154167.7, 186471.92, 0.0, 10.002298, 9.997866 
8.502337e+1, 2.7523744e+2, 4549.6006, -368462.88, -38088.195, 0.012253616, -0.14883286, 8399.05, 251060.17, 0.0, 10.002765, 9.997813 
8.502695e+1, 2.8523526e+2, 110200.805, -351310.75, -24561.668, 0.0195547, -0.10969422, 111504.3, 256186.75, 0.000000007967864, 10.0031805, 9.997058 
8.503061e+1, 2.9523313e+2, 268180.75, -217265.17, -10117.54, 0.026348058, -0.03110236, 268391.53, 315095.25, 0.0000034232567, 10.003564, 9.997121 
8.503372e+1, 3.052281e+2, 328181.3, -229781.16, -31679.11, 0.00894985, -0.21755628, 329974.2, 329974.2, 0.00004462947, 10.003927, 9.996529 
8.503658e+1, 3.1522563e+2, 524112.72, 109055.164, -10518.292, -0.0025268896, -0.1129053, 524379.1, 524379.1, 0.00017905688, 10.00422, 9.998716 
9.496846e+1, 1.2524454e+2, -2048092.0, -1711759.9, 16809.297, 0.019654933, -0.11316217, -1710921.8, 1671.8828, 0.0008487081, 9.997005, 10.001465 
9.4972247e+1, 1.3524602e+2, -1999819.0, -1762432.8, -6923.069, -0.03698073, 0.0030550219, -1762231.0, -147647.61, 0.00047347447, 9.997205, 10.000347 
9.497626e+1, 1.4524554e+2, -1806985.5, -1538100.0, -15136.255, -0.047460094, -0.11718031, -1537250.6, -20661.715, 0.00018256163, 9.997508, 10.001062 
9.4980925e+1, 1.5524715e+2, -1655588.0, -1431095.3, 1019.13574, 0.013315851, -0.05770166, -1431090.6, -12519.308, 0.00003354367, 9.997947, 10.000912 
9.498487e+1, 1.6524781e+2, -1572564.1, -1460770.8, 2666.9226, 0.006614341, -0.026067642, -1460707.3, -140142.6, 0.00000057940093, 9.998364, 9.999833 
9.49882e+1, 1.7524728e+2, -1416202.6, -1336892.0, -2251.233, -0.058830388, -0.06708427, -1336828.3, -114256.85, 0.0, 9.998775, 9.999814 
9.499203e+1, 1.852468e+2, -1269738.8, -1240904.4, -11353.151, -0.06304909, -0.084394924, -1236970.9, -112394.66, 0.0, 9.999216, 9.999589 
9.4996333e+1, 1.9524652e+2, -1106018.9, -1115801.1, -10349.787, -0.012252847, -0.07441363, -1099462.6, -72884.58, 0.0, 9.999687, 9.999547 
9.5000166e+1, 2.0524587e+2, -996493.5, -1084762.6, -11280.618, -0.0065822774, -0.059792627, -995074.7, -66490.836, 0.0, 10.000078, 9.998899 
9.5003587e+1, 2.1524484e+2, -854311.25, -969438.9, -11332.528, -0.04142563, -0.05478237, -853206.4, -22612.564, 0.0, 10.000398, 9.998864 
9.500724e+1, 2.252434e+2, -726647.5, -899233.4, -20317.781, -0.04320574, -0.0648029, -724287.9, 8319.062, 0.0, 10.000782, 9.998488 
9.5011103e+1, 2.3524165e+2, -565490.4, -774232.9, -23586.766, -0.014561197, -0.09290564, -562858.4, 71764.21, 0.0, 10.00123, 9.998457 
9.501488e+1, 2.4523981e+2, -442192.13, -710235.06, -24441.15, 0.005720851, -0.10140354, -439981.72, 96658.2, 0.0, 10.001602, 9.998045 
9.50186e+1, 2.5523785e+2, -302985.47, -596456.1, -22895.674, 0.017138459, -0.103939205, -301209.94, 137449.2, 0.0, 10.001904, 9.998009 
9.5022374e+1, 2.6523572e+2, -167251.72, -510666.16, -16654.846, 0.02217814, -0.10490314, -166445.89, 174234.27, 0.0, 10.002295, 9.997736 
9.5026267e+1, 2.752334e+2, -2595.2854, -383474.3, -20567.34, 0.025066724, -0.11157789, -1487.8756, 241214.61, 0.0, 10.002765, 9.99771 
9.503021e+1, 2.852312e+2, 137681.02, -294261.22, -11098.395, 0.028180653, -0.09076445, 137966.0, 282689.25, 0.0000000042394483, 10.003181, 9.997449 
9.5034105e+1, 2.9522905e+2, 292166.44, -165832.34, 4901.466, 0.01905035, -0.0549035, 292218.88, 338961.78, 0.000002739973, 10.003556, 9.997478 
9.503755e+1, 3.0522403e+2, 310277.34, -265020.06, -20530.678, -0.0012766784, -0.24426974, 311009.06, 311009.06, 0.000038513957, 10.00392, 9.99629 
9.50409e+1, 3.1522202e+2, 494943.7, 48652.086, 4602.8906, 0.005535947, -0.06917888, 494991.16, 494991.16, 0.00016021931, 10.004218, 9.9983015 
1.0496543e+2, 1.2523991e+2, -2069333.5, -1722575.3, -16875.754, 0.023835067, -0.11009023, -1721755.9, -9115.985, 0.00079770345, 9.996863, 10.001457 
1.0496943e+2, 1.3524163e+2, -2003628.5, -1756729.6, -8813.278, -0.035714675, 0.024616603, -1756415.4, -141788.11, 0.0004431459, 9.997148, 10.000413 
1.0497377e+2, 1.4524119e+2, -1797813.0, -1531521.0, -5935.496, -0.04924644, -0.0987184, -1531388.8, -14756.003, 0.00016917764, 9.9975605, 10.001082 
1.0497893e+2, 1.5524274e+2, -1631164.1, -1417533.8, -20224.059, 0.010833136, -0.044696644, -1415636.0, 2979.561, 0.000030278157, 9.998106, 10.000929 
1.0498331e+2, 1.652434e+2, -1547901.9, -1436679.9, -28019.85, 0.009131936, -0.018378641, -1430019.6, -109411.375, 0.0000004316036, 9.99848, 9.999945 
1.0498704e+2, 1.7524295e+2, -1419181.9, -1326112.1, -14782.566, -0.047965232, -0.06258888, -1323820.5, -101207.016, 0.0, 9.998702, 9.999923 
1.0499124e+2, 1.852425e+2, -1298194.5, -1258723.3, -11561.827, -0.054241914, -0.080337554, -1255585.9, -130968.02, 0.0, 9.999039, 9.999552 
1.049959e+2, 1.9524218e+2, -1138366.9, -1135851.6, -15590.345, -0.0138418395, -0.06911538, -1121468.3, -94847.88, 0.0, 9.999484, 9.999508 
1.0500015e+2, 2.0524147e+2, -1012437.5, -1090736.6, -18878.477, -0.009670157, -0.060721617, -1008123.44, -79496.73, 0.0, 9.99996, 9.998916 
1.05004035e+2, 2.1524033e+2, -843952.7, -962305.94, -18185.814, -0.039119292, -0.06870229, -841221.3, -10584.135, 0.0, 10.000461, 9.998882 
1.0500811e+2, 2.2523884e+2, -714388.56, -898893.5, -24948.623, -0.039216172, -0.08295875, -711074.56, 21576.307, 0.0, 10.000891, 9.998438 
1.05012365e+2, 2.3523708e+2, -565791.9, -780502.4, -26386.063, -0.01242538, -0.106674366, -562596.75, 72070.375, 0.0, 10.001255, 9.998403 
1.05016485e+2, 2.452353e+2, -445741.9, -713391.7, -31231.32, 0.0066092834, -0.10522105, -442145.94, 94538.305, 0.0, 10.001584, 9.998033 
1.050205e+2, 2.5523347e+2, -306895.3, -599410.1, -33010.37, 0.01778989, -0.093780026, -303216.34, 135486.06, 0.0, 10.001881, 9.997999 
1.05024666e+2, 2.6523128e+2, -162970.63, -508037.5, -12929.324, 0.020764168, -0.096993946, -162486.84, 178236.81, 0.0, 10.00232, 9.997744 
1.0502903e+2, 2.7522886e+2, 14297.797, -374966.0, -7639.122, 0.019678237, -0.120177634, 14447.653, 257195.03, 0.0, 10.002879, 9.997715 
1.0503339e+2, 2.8522664e+2, 150912.78, -287057.88, -16832.018, 0.023733957, -0.096971855, 151558.72, 296326.63, 0.0000000012344323, 10.003268, 9.997458 
1.05037645e+2, 2.9522473e+2, 284052.6, -168869.19, -29550.35, 0.021292988, -0.03922712, 285972.44, 332757.94, 0.0000020653147, 10.003494, 9.997489 
1.0504144e+2, 3.0521968e+2, 303635.53, -254538.7, -50309.82, 0.0009412704, -0.24084468, 308133.84, 308133.84, 0.00003243676, 10.003811, 9.996417 
1.0504521e+2, 3.1521764e+2, 484889.8, 34320.598, 2659.9026, 0.01587969, -0.0773854, 484905.5, 484905.5, 0.00014106146, 10.0041895, 9.998218 
1.14962034e+2, 1.2523445e+2, -2038417.0, -1659925.9, -5897.8877, -0.004757769, -0.12971996, -1659834.0, 52861.273, 0.0007564602, 9.996869, 10.001885 
1.14967e+2, 1.3523708e+2, -1968171.0, -1682986.8, 2423.1938, 0.0065307165, 0.04342097, -1682966.1, -68294.73, 0.00042056636, 9.997146, 10.00092 
1.1497154e+2, 1.4523667e+2, -1825645.4, -1588195.5, 14834.689, -0.028074803, -0.08025728, -1587272.4, -70596.14, 0.00016082273, 9.997557, 10.000695 
1.1497629e+2, 1.5523756e+2, -1656257.5, -1470758.0, 745.8661, -0.064272456, -0.055003814, -1470755.0, -52087.574, 0.000029173776, 9.998111, 10.000562 
1.1498126e+2, 1.6523825e+2, -1521248.4, -1382509.4, -20341.533, -0.045409884, -0.028020553, -1379588.5, -58928.355, 0.0000005105562, 9.998485, 10.000315 
1.1498646e+2, 1.7523845e+2, -1394154.4, -1274604.8, -5855.682, 0.02310652, -0.043653697, -1274318.6, -51661.02, 0.0, 9.998703, 10.000277 
1.1499106e+2, 1.8523824e+2, -1305545.8, -1273513.9, 5165.288, 0.022772549, -0.049470197, -1272701.6, -148042.38, 0.0, 9.999037, 9.999452 
1.1499513e+2, 1.9523779e+2, -1144771.3, -1149113.3, 1669.3402, -0.038775887, -0.041647762, -1144203.6, -117540.25, 0.0, 9.999483, 9.999417 
1.1499971e+2, 2.0523681e+2, -1010635.1, -1086349.9, -221.54565, -0.049985893, -0.058486238, -1010634.5, -81962.36, 0.0, 9.999957, 9.998947 
1.1500474e+2, 2.1523523e+2, -841775.56, -957419.44, 893.5329, -0.015539258, -0.11219437, -841768.6, -11083.106, 0.0, 10.000459, 9.998917 
1.1500937e+2, 2.252337e+2, -716265.56, -901981.4, -11475.291, -0.0026418574, -0.13140969, -715559.2, 17140.379, 0.0, 10.000887, 9.998419 
1.1501366e+2, 2.3523222e+2, -567771.5, -784128.44, -12307.836, -0.009113632, -0.12432583, -567073.6, 67640.29, 0.0, 10.001252, 9.998379 
1.1501799e+2, 2.4523057e+2, -450284.25, -721970.3, -20364.19, -0.0019381603, -0.1049098, -448766.3, 87963.79, 0.0, 10.00158, 9.997975 
1.1502237e+2, 2.552288e+2, -309605.94, -604803.0, -21381.754, 0.01639725, -0.08536341, -308065.25, 130682.9, 0.0, 10.00188, 9.997963 
1.1502691e+2, 2.652265e+2, -152786.67, -486555.84, 7489.5625, 0.013443598, -0.10743266, -152618.7, 188151.47, 0.0, 10.002318, 9.997891 
1.1503167e+2, 2.7522373e+2, 21789.344, -358096.6, 13389.352, -0.0050877673, -0.17559905, 22260.676, 265056.6, 0.0, 10.002873, 9.997833 
1.1503648e+2, 2.852216e+2, 123406.75, -342140.53, -8727.663, 0.005971924, -0.1295911, 123570.305, 268386.72, 0.00000000006210851, 10.00326, 9.997084 
1.1504122e+2, 2.952202e+2, 260480.52, -217826.56, -20002.62, 0.029103767, 0.015834045, 261315.56, 308146.97, 0.0000014487281, 10.003494, 9.997152 
1.1504536e+2, 3.0521503e+2, 338176.88, -182449.94, -36545.35, 0.012647398, -0.20633167, 340729.66, 340729.66, 0.000026628812, 10.003811, 9.996912 
1.1504948e+2, 3.1521255e+2, 500006.8, 68075.1, 19774.623, 0.023996767, -0.1383364, 500910.25, 500910.25, 0.00012208533, 10.00418, 9.998454 
1.2495869e+2, 1.2522928e+2, -2046581.4, -1665982.5, 16155.299, -0.023935838, -0.12594941, -1665298.0, 47448.195, 0.0007247361, 9.996823, 10.001866 
1.249644e+2, 1.3523184e+2, -1920088.9, -1652302.3, -13990.847, 0.017975431, 0.03456439, -1651573.3, -36850.793, 0.00040489552, 9.997445, 10.000987 
1.2496937e+2, 1.4523135e+2, -1797450.6, -1580448.9, -8025.5684, -0.011283037, -0.09718555, -1580152.5, -63424.605, 0.00015657058, 9.997774, 10.000645 
1.2497428e+2, 1.552323e+2, -1696254.0, -1495760.4, 2971.268, -0.06356508, -0.060327478, -1495716.4, -76997.6, 0.000029665785, 9.997861, 10.00051 
1.24979585e+2, 1.6523305e+2, -1561672.9, -1400671.3, -17049.207, -0.046884026, -0.028139452, -1398885.6, -78174.484, 0.0000007617598, 9.9982, 10.000327 
1.2498527e+2, 1.7523324e+2, -1384294.5, -1268985.8, -30912.783, 0.031579442, -0.043590054, -1261221.4, -38512.945, 0.0, 9.998765, 10.000286 
1.2499029e+2, 1.85233e+2, -1274333.5, -1259403.6, -26443.758, 0.032437295, -0.052941084, -1239391.4, -114681.06, 0.0, 9.999253, 9.999445 
1.24994725e+2, 1.9523248e+2, -1117919.4, -1136532.5, -23272.797, -0.0370306, -0.05113748, -1102161.3, -75446.33, 0.0, 9.999669, 9.9994135 
1.2499973e+2, 2.0523149e+2, -991968.7, -1072029.5, -20541.803, -0.048789527, -0.06941864, -987005.75, -58282.258, 0.0, 10.000063, 9.998994 
1.2500526e+2, 2.1523002e+2, -841995.9, -952664.2, -19486.316, -0.008434242, -0.12026199, -838665.0, -7928.9634, 0.0, 10.000436, 9.998961 
1.2501025e+2, 2.2522858e+2, -732249.1, -908850.7, -33612.473, 0.0024398998, -0.13275458, -726068.06, 6681.303, 0.0, 10.000772, 9.998427 
1.2501477e+2, 2.352272e+2, -592861.0, -794966.5, -32892.152, -0.013592697, -0.11550423, -587642.6, 47120.438, 0.0, 10.001075, 9.99839 
1.2501948e+2, 2.4522555e+2, -458858.53, -722115.5, -31902.238, -0.0070147864, -0.09931454, -455047.7, 81731.68, 0.0, 10.001504, 9.998012 
1.2502435e+2, 2.5522366e+2, -283988.1, -589036.3, -26671.932, 0.018242318, -0.093767166, -281673.6, 157124.44, 0.0, 10.002041, 9.997994 
1.250293e+2, 2.6522136e+2, -140731.75, -482973.6, -2607.9429, 0.01574178, -0.11780387, -140711.88, 200108.22, 0.0, 10.002412, 9.997871 
1.250344e+2, 2.7521864e+2, -15140.537, -378907.0, -10279.348, -0.006637474, -0.17876379, -14850.294, 227995.33, 0.0, 10.00263, 9.997808 
1.2503964e+2, 2.8521648e+2, 98285.7, -359990.6, -20512.176, 0.004471144, -0.1305435, 99201.984, 244068.55, 0.0, 10.00311, 9.997034 
1.2504488e+2, 2.9521504e+2, 301323.9, -203457.2, -9360.257, 0.030313252, 0.015288166, 301497.4, 348379.72, 0.00000094519226, 10.003799, 9.997105 
1.2504932e+2, 3.052099e+2, 402103.6, -138669.23, -37571.38, 0.008221301, -0.20634687, 404701.47, 404701.47, 0.000021325412, 10.004196, 9.997027 
1.2505372e+2, 3.152076e+2, 508250.63, 53867.844, -8147.6104, 0.023404788, -0.13189527, 508396.7, 508396.7, 0.000103857135, 10.004314, 9.998294 
1.3495535e+2, 1.2522444e+2, -2083029.8, -1739094.6, 40303.234, -0.0408933, -0.09382872, -1734434.9, -21642.346, 0.0007016644, 9.996813, 10.00137 
1.3496165e+2, 1.3522588e+2, -1946624.5, -1710251.6, 9592.257, -0.0031784654, -0.0032463311, -1709863.0, -95081.95, 0.00039489288, 9.997457, 10.000584 
1.3496727e+2, 1.4522518e+2, -1774630.6, -1535391.3, -6285.9087, -0.00074051647, -0.1512448, -1535226.1, -18437.89, 0.00015526546, 9.997785, 10.000949 
1.3497286e+2, 1.5522699e+2, -1676938.4, -1454671.5, 6935.67, 0.008084453, -0.059543736, -1454455.4, -35685.887, 0.000031126172, 9.997857, 10.000794 
1.3497825e+2, 1.6522777e+2, -1587687.8, -1453481.6, 4187.922, -0.00050306704, -0.017940134, -1453351.1, -132589.73, 0.0000011270397, 9.998196, 9.999968 
1.349835e+2, 1.7522731e+2, -1408022.9, -1318853.3, -9250.161, -0.024069946, -0.06371844, -1317903.8, -95137.65, 0.0, 9.998768, 9.999943 
1.3498896e+2, 1.8522678e+2, -1267342.9, -1245313.9, -11182.907, -0.02675766, -0.091264226, -1240631.9, -115860.78, 0.0, 9.999254, 9.999541 
1.3499466e+2, 1.9522627e+2, -1111652.6, -1123500.4, -7291.011, -0.010509826, -0.09789155, -1108182.3, -81407.21, 0.0, 9.999669, 9.999504 
1.350002e+2, 2.0522557e+2, -988319.1, -1063804.5, -6771.3784, -0.008248709, -0.09377181, -987716.5, -58935.645, 0.0, 10.00006, 9.999052 
1.3500558e+2, 2.1522465e+2, -838355.4, -944502.44, -4956.8145, -0.019100977, -0.09318768, -838124.44, -7335.669, 0.0, 10.000432, 9.999019 
1.3501075e+2, 2.2522345e+2, -730934.5, -904928.9, -22412.697, -0.026089683, -0.0863246, -728093.8, 4706.4097, 0.0, 10.000768, 9.998457 
1.350157e+2, 2.35222e+2, -589957.4, -788876.3, -20891.363, -0.028184254, -0.08119171, -587786.94, 47027.95, 0.0, 10.001075, 9.998432 
1.3502096e+2, 2.4522018e+2, -449863.25, -702929.44, -12029.052, -0.010891512, -0.08991732, -449292.75, 87539.484, 0.0, 10.001502, 9.998145 
1.3502643e+2, 2.5521806e+2, -276415.4, -572550.9, -6460.5767, 0.022020467, -0.11933617, -276274.5, 162577.52, 0.0, 10.002037, 9.99811 
1.3503182e+2, 2.6521584e+2, -155542.11, -512339.38, 5315.9653, 0.026765563, -0.12844777, -155462.92, 185410.48, 0.0, 10.002406, 9.997673 
1.3503721e+2, 2.7521354e+2, -26813.945, -403106.78, -858.5799, 0.010763809, -0.1294254, -26811.986, 216084.44, 0.0, 10.002631, 9.997642 
1.3504286e+2, 2.852113e+2, 117003.6, -320717.9, 4995.776, 0.015484525, -0.09979875, 117060.61, 261978.95, 0.0, 10.003108, 9.997305 
1.350486e+2, 2.9520923e+2, 317162.2, -168644.84, 16649.605, 0.022046482, -0.04162315, 317732.13, 364670.47, 0.0000005800232, 10.00379, 9.997348 
1.3505329e+2, 3.0520427e+2, 382509.63, -176441.34, -33770.883, -0.013417387, -0.24311289, 384542.6, 384542.6, 0.000016654767, 10.004185, 9.996774 
1.350579e+2, 3.1520283e+2, 470724.2, -23085.338, -1029.5071, 0.008761316, -0.059793245, 470726.34, 470726.34, 0.000086807595, 10.004312, 9.997766 
1.4495248e+2, 1.2521878e+2, -2051562.1, -1740092.6, 10959.148, -0.023364523, -0.0829583, -1739707.5, -26859.318, 0.0006852014, 9.997098, 10.001225 
1.4495894e+2, 1.3522004e+2, -1980616.4, -1731949.0, 5441.466, -0.008990022, -0.0055335346, -1731830.0, -116991.82, 0.00038852147, 9.997247, 10.000536 
1.4496493e+2, 1.4521928e+2, -1791684.4, -1541947.0, -9120.812, -0.00635588, -0.15821563, -1541614.4, -24768.451, 0.00015533686, 9.99766, 10.000964 
1.4497109e+2, 1.552212e+2, -1611522.3, -1422424.8, -19177.195, 0.024161283, -0.0570908, -1420499.5, -1673.4573, 0.00003278088, 9.9983015, 10.000801 
1.4497682e+2, 1.6522184e+2, -1521913.0, -1437669.3, -21028.16, 0.012450606, -0.019869868, -1432712.0, -111892.98, 0.0000015078091, 9.998714, 9.9998255 
1.4498219e+2, 1.7522112e+2, -1394191.3, -1327700.8, -18842.414, -0.037815116, -0.08014378, -1322732.4, -99905.7, 0.0, 9.998929, 9.9998045 
1.4498807e+2, 1.8522052e+2, -1268919.1, -1246657.8, -15660.067, -0.04113016, -0.105554804, -1238575.8, -113743.484, 0.0, 9.999247, 9.9995365 
1.449944e+2, 1.9522016e+2, -1114052.6, -1125587.5, -20332.516, -0.0021202136, -0.09673942, -1098685.4, -71850.51, 0.0, 9.999656, 9.999496 
1.4500032e+2, 2.0521952e+2, -1004172.6, -1071294.0, -29548.463, 0.003962516, -0.08653883, -993018.3, -64177.934, 0.0, 9.99995, 9.999054 
1.4500585e+2, 2.1521862e+2, -880460.25, -964172.6, -32600.645, -0.020695569, -0.08610063, -869262.25, -38413.816, 0.0, 10.000141, 9.999023 
1.4501137e+2, 2.2521743e+2, -757795.6, -908116.9, -42881.727, -0.029043697, -0.081456125, -746423.25, -13563.58, 0.0, 10.000541, 9.998544 
1.4501688e+2, 2.35216e+2, -575961.0, -772463.0, -37648.008, -0.021587986, -0.08150548, -568994.94, 65878.8, 0.0, 10.001129, 9.998519 
1.4502254e+2, 2.4521425e+2, -442369.25, -696003.1, -32553.156, -0.0037960517, -0.09165436, -438257.78, 98632.7, 0.0, 10.001539, 9.998175 
1.4502834e+2, 2.552122e+2, -311034.2, -586531.1, -35479.348, 0.0212717, -0.11786199, -306538.44, 132371.3, 0.0, 10.001788, 9.998134 
1.4503406e+2, 2.6521003e+2, -185044.02, -526567.94, -18504.693, 0.021316055, -0.12301339, -184044.31, 156886.33, 0.0, 10.002202, 9.997673 
1.4503983e+2, 2.7520773e+2, -10374.912, -394532.9, -10481.565, 0.003598349, -0.120817915, -10089.14, 232864.2, 0.0, 10.002742, 9.997646 
1.4504594e+2, 2.8520548e+2, 127156.32, -308520.53, -1734.6974, 0.009188824, -0.096034795, 127163.23, 272138.56, 0.0, 10.003147, 9.997369 
1.4505218e+2, 2.9520336e+2, 270583.06, -185839.36, -6085.1865, 0.019490037, -0.04903845, 270664.16, 317659.94, 0.00000034163278, 10.003446, 9.9973955 
1.4505734e+2, 3.0519864e+2, 363887.78, -180987.47, -51810.605, -0.019122327, -0.23267718, 368770.56, 368770.56, 0.000012640429, 10.004035, 9.996815 
1.4506249e+2, 3.1519732e+2, 526210.56, -24029.906, 790.07025, 0.012622263, -0.038854342, 526211.7, 526211.7, 0.00007115875, 10.004812, 9.997519 
1.5495004e+2, 1.2521219e+2, -2033809.4, -1706149.6, 16968.586, 0.02250235, -0.09842324, -1705273.3, 7640.5273, 0.0006719969, 9.997109, 10.001452 
1.5495622e+2, 1.352143e+2, -1958296.1, -1684893.6, 11422.31, -0.005524438, 0.02947796, -1684417.3, -69523.24, 0.00038301162, 9.997242, 10.000861 
1.5496232e+2, 1.4521363e+2, -1812540.8, -1583654.0, 14805.413, -0.034197945, -0.11586169, -1582700.3, -65799.53, 0.00015494693, 9.997653, 10.000681 
1.5496898e+2, 1.5521486e+2, -1630138.1, -1462372.1, 5100.8105, -0.017805558, -0.053667434, -1462217.1, -43328.445, 0.000033834087, 9.998307, 10.0005245 
1.5497532e+2, 1.6521525e+2, -1515096.8, -1425255.5, -13771.415, -0.010640844, -0.035145186, -1423192.0, -102307.48, 0.0000017896223, 9.998721, 9.9999075 
1.5498139e+2, 1.7521463e+2, -1388975.9, -1316628.9, -10344.475, -0.012794375, -0.091911085, -1315178.8, -92289.04, 0.0, 9.998928, 9.999881 
1.5498757e+2, 1.8521424e+2, -1276667.6, -1262465.4, -522.3642, -0.014174829, -0.09494227, -1262446.1, -137552.78, 0.0, 9.999245, 9.999429 
1.5499394e+2, 1.9521415e+2, -1121333.8, -1140636.6, -4748.819, -0.0137763005, -0.048121803, -1120228.8, -93334.18, 0.0, 9.999655, 9.999394 
1.5500009e+2, 2.0521335e+2, -1008526.3, -1079905.4, -22627.146, -0.014138909, -0.04746492, -1001957.94, -73055.945, 0.0, 9.999948, 9.998997 
1.5500604e+2, 2.1521184e+2, -884247.2, -971995.7, -24553.482, -0.015443032, -0.10004089, -877843.94, -46928.652, 0.0, 10.00014, 9.998971 
1.5501212e+2, 2.2521047e+2, -747519.5, -886319.7, -20992.736, -0.008894059, -0.11930388, -744414.0, -11486.176, 0.0, 10.000539, 9.998694 
1.5501827e+2, 2.3520923e+2, -566486.44, -752199.0, -15433.626, 0.005242188, -0.11619187, -565212.56, 69727.01, 0.0, 10.001126, 9.99866 
1.5502425e+2, 2.4520771e+2, -448563.56, -707925.6, -23428.424, 0.01257861, -0.10365614, -446464.25, 90489.86, 0.0, 10.001535, 9.998095 
1.5503003e+2, 2.55206e+2, -315482.38, -596042.9, -25306.02, 0.012266642, -0.089726105, -313218.1, 125753.08, 0.0, 10.001789, 9.998068 
1.5503603e+2, 2.652038e+2, -171019.97, -497435.84, 1709.1154, -0.0038510775, -0.10297183, -171011.02, 169980.94, 0.0, 10.002202, 9.997872 
1.5504223e+2, 2.752012e+2, 2405.1956, -367218.16, 9691.063, -0.02982448, -0.15319319, 2659.1086, 245675.58, 0.0, 10.002739, 9.997835 
1.5504883e+2, 2.8519908e+2, 116591.63, -329877.4, 8879.975, -0.015261132, -0.12026189, 116768.18, 261805.88, 0.0, 10.003144, 9.997225 
1.5505563e+2, 2.9519746e+2, 262013.31, -204530.44, 7094.26, 0.018986652, -0.007067958, 262121.16, 309175.7, 0.00000019535571, 10.003449, 9.997267 
1.5506142e+2, 3.0519298e+2, 385842.2, -134765.9, -22331.5, -0.014304649, -0.17471899, 386798.34, 386798.34, 0.000009261703, 10.004033, 9.997132 
1.5506743e+2, 3.1519112e+2, 526681.2, -20786.893, 31831.092, 0.024588764, -0.06744899, 528525.7, 528525.7, 0.000057003803, 10.004803, 9.997544 
1.6494724e+2, 1.252052e+2, -2030815.0, -1689915.9, -21578.898, 0.03338814, -0.08539271, -1688555.4, 24428.729, 0.00065754744, 9.997064, 10.001586 
1.6495363e+2, 1.3520749e+2, -1900799.6, -1631093.3, -38575.53, -0.0028872187, 0.038130965, -1625684.4, -10723.553, 0.00037533476, 9.997523, 10.001094 
1.6496006e+2, 1.4520688e+2, -1796690.3, -1592188.6, -27658.787, -0.03444442, -0.10672993, -1588513.8, -71546.84, 0.00015252095, 9.99783, 10.000536 
1.6496718e+2, 1.5520798e+2, -1683335.1, -1503553.6, -27856.896, -0.014723744, -0.043534596, -1499336.1, -80378.91, 0.000033788867, 9.998009, 10.000385 
1.6497397e+2, 1.6520835e+2, -1545337.6, -1423356.4, -37692.484, -0.0037455815, -0.025615735, -1412649.1, -91696.1, 0.0000018950186, 9.998444, 10.000054 
1.6498049e+2, 1.7520787e+2, -1352866.4, -1283634.3, -30661.922, -0.0035608097, -0.08321957, -1272007.3, -49051.2, 0.0, 9.999108, 10.00002 
1.6498698e+2, 1.8520752e+2, -1247556.8, -1252325.5, -22251.547, -0.009739116, -0.08741298, -1227562.3, -102603.2, 0.0, 9.999461, 9.999393 
1.6499346e+2, 1.952074e+2, -1140991.1, -1153813.8, -21836.906, -0.02141206, -0.041162796, -1124643.9, -97682.82, 0.0, 9.999536, 9.999361 
1.6499993e+2, 2.0520656e+2, -1018504.3, -1079351.9, -27665.025, -0.019298807, -0.044507977, -1007806.8, -78838.18, 0.0, 9.999856, 9.999044 
1.6500643e+2, 2.1520501e+2, -842647.8, -946721.75, -22116.258, -0.0051130764, -0.1047232, -838142.94, -7161.246, 0.0, 10.000403, 9.999018 
1.6501291e+2, 2.2520362e+2, -721909.0, -882607.5, -22557.553, 0.0069209677, -0.12753521, -718802.56, 14192.053, 0.0, 10.000752, 9.998617 
1.6501941e+2, 2.352023e+2, -601489.06, -777461.4, -34717.87, 0.017196173, -0.12224688, -594887.2, 40120.082, 0.0, 10.000922, 9.998584 
1.6502573e+2, 2.4520078e+2, -467575.13, -711169.0, -40956.258, 0.015503611, -0.10807645, -460873.4, 76148.47, 0.0, 10.001379, 9.998148 
1.6503187e+2, 2.551991e+2, -267715.75, -566537.0, -33101.29, 0.0008888985, -0.09333169, -264092.94, 174945.22, 0.0, 10.0020895, 9.998125 
1.6503827e+2, 2.6519695e+2, -116625.35, -469667.1, -11110.705, -0.016946213, -0.10721485, -116276.03, 224782.48, 0.0, 10.00257, 9.997886 
1.65045e+2, 2.7519438e+2, 17984.686, -358895.2, -18206.813, -0.03209284, -0.16017056, 18862.201, 261945.3, 0.0, 10.002842, 9.997842 
1.6505198e+2, 2.8519216e+2, 118203.49, -331902.28, -23101.75, -0.014836672, -0.12905116, 119386.086, 264490.8, 0.0, 10.003168, 9.997199 
1.6505906e+2, 2.9519054e+2, 269390.38, -203607.55, -16866.072, 0.014141711, -0.0141737135, 269991.03, 317112.97, 0.00000010392393, 10.003513, 9.997241 
1.6506529e+2, 3.051864e+2, 393809.84, -104743.414, -32244.658, -0.026451616, -0.16027622, 395886.66, 395886.66, 0.0000064948904, 10.003975, 9.997364 
1.650721e+2, 3.1518438e+2, 487634.06, -41501.49, 13572.158, 0.024837462, -0.09543737, 487981.94, 487981.94, 0.000044405246, 10.00454, 9.997527 
1.74944e+2, 1.2519781e+2, -2028465.9, -1684591.6, -2459.0679, 0.0018364693, -0.040995326, -1684574.1, 28484.865, 0.0006370072, 9.997061, 10.001624 
1.7495115e+2, 1.351996e+2, -1890198.8, -1610958.8, -21101.652, -0.0032645257, 0.018717298, -1609373.1, 5665.944, 0.00036284848, 9.99753, 10.001228 
1.7495814e+2, 1.4519897e+2, -1796057.9, -1592364.0, -22149.086, -0.00924737, -0.13327716, -1589983.4, -72938.39, 0.00014707113, 9.997837, 10.000532 
1.7496563e+2, 1.5520051e+2, -1683448.3, -1503574.6, -20602.742, 0.029840183, -0.02520456, -1501245.0, -82213.164, 0.00003249045, 9.998008, 10.000386 
1.7497274e+2, 1.6520119e+2, -1530678.5, -1392705.4, -13037.882, 0.02940699, 0.010485251, -1391484.1, -70459.39, 0.0000018022155, 9.998442, 10.000266 
1.7497951e+2, 1.7520083e+2, -1338428.0, -1253615.6, -5718.784, -0.011833769, -0.05424009, -1253231.8, -30206.15, 0.0, 9.999108, 10.000226 
1.7498624e+2, 1.8520036e+2, -1245141.4, -1247723.9, -19756.047, -0.030660335, -0.0829878, -1226634.5, -101605.21, 0.0, 9.999463, 9.999425 
1.7499295e+2, 1.9519988e+2, -1138682.0, -1148806.3, -18318.398, -0.026479846, -0.07608261, -1124739.1, -97704.8, 0.0, 9.999535, 9.999396 
1.7499986e+2, 2.0519914e+2, -1007766.2, -1056680.3, -7281.636, -0.013241899, -0.0776452, -1006705.2, -77664.77, 0.0, 9.999854, 9.999201 
1.7500696e+2, 2.1519814e+2, -832927.4, -925780.4, -1393.8531, 0.0081959115, -0.10032275, -832906.5, -1858.7251, 0.0, 10.0004, 9.999164 
1.7501377e+2, 2.2519682e+2, -743745.5, -927209.6, -16581.775, 0.016125001, -0.10555507, -742258.8, -9198.68, 0.0, 10.000749, 9.998313 
1.7502029e+2, 2.351952e+2, -621897.06, -820289.1, -27494.885, 0.01225297, -0.10113165, -618157.06, 16920.063, 0.0, 10.000924, 9.99829 
1.7502698e+2, 2.4519345e+2, -454520.1, -683967.7, -14473.951, 0.0028118293, -0.10639617, -453610.66, 83483.375, 0.0, 10.001379, 9.998335 
1.750338e+2, 2.551916e+2, -255478.4, -540250.8, -6631.4546, -0.014225272, -0.1283099, -255324.06, 183786.66, 0.0, 10.002086, 9.998307 
1.7504081e+2, 2.6518953e+2, -129283.92, -495412.1, -1313.5222, -0.018780187, -0.13545391, -129279.21, 211851.14, 0.0, 10.002567, 9.99771 
1.750481e+2, 2.751872e+2, 6364.3594, -383197.8, -7207.1514, -0.0064710374, -0.14234485, 6497.651, 249650.9, 0.0, 10.002843, 9.997676 
1.7505535e+2, 2.8518483e+2, 123552.234, -320442.3, -10397.438, 0.005900575, -0.122420065, 123795.586, 268972.03, 0.0, 10.003166, 9.997278 
1.7506245e+2, 2.951827e+2, 273583.25, -193760.61, -3262.7493, 0.0014522192, -0.06977056, 273606.03, 320804.16, 0.00000004563321, 10.003509, 9.997311 
1.7506896e+2, 3.051789e+2, 404832.3, -81817.06, -11256.8, -0.058365587, -0.18887301, 405092.56, 405092.56, 0.000004309572, 10.003974, 9.997522 
1.7507651e+2, 3.151771e+2, 485374.16, -47362.285, 34954.605, 0.009656292, -0.1171193, 487657.88, 487657.88, 0.00003339721, 10.004544, 9.997485 
1.8494098e+2, 1.2518995e+2, -2020986.3, -1693353.4, 8657.435, -0.010902323, -0.033499915, -1693124.8, 20011.893, 0.0006065531, 9.997167, 10.001512 
1.8494876e+2, 1.3519168e+2, -1901135.6, -1617776.9, -25683.367, 0.007895797, 0.021750245, -1615467.8, -350.06284, 0.00034376056, 9.997462, 10.001214 
1.849562e+2, 1.451911e+2, -1788947.6, -1581487.5, -31381.07, 0.010051145, -0.12944853, -1576844.6, -59721.586, 0.00013809917, 9.997854, 10.000598 
1.849639e+2, 1.5519264e+2, -1631632.0, -1471192.0, -25292.129, 0.039565876, -0.026118472, -1467299.3, -48190.133, 0.000029920388, 9.998332, 10.000451 
1.8497135e+2, 1.6519335e+2, -1502718.5, -1378275.5, -19578.918, 0.035375018, 0.009026772, -1375267.8, -54165.965, 0.0000015280342, 9.99863, 10.000274 
1.8497851e+2, 1.7519307e+2, -1387704.9, -1276023.4, -28476.592, -0.005722963, -0.0491985, -1269181.5, -46079.207, 0.0, 9.998764, 10.000238 
1.8498561e+2, 1.8519261e+2, -1288553.5, -1259858.9, -50182.47, -0.022286488, -0.079671495, -1222013.0, -96907.55, 0.0, 9.999126, 9.999503 
1.8499269e+2, 1.9519211e+2, -1108546.3, -1125543.4, -45639.566, -0.014386353, -0.08310741, -1070620.8, -43510.605, 0.0, 9.999704, 9.999474 
1.8499996e+2, 2.0519136e+2, -979239.4, -1051130.1, -39238.715, -0.0010154233, -0.087316856, -961970.56, -32854.305, 0.0, 10.000086, 9.999127 
1.8500738e+2, 2.1519034e+2, -853528.7, -943647.25, -51521.72, 0.01643643, -0.104455136, -830142.1, 982.0604, 0.0, 10.000293, 9.999092 
1.850145e+2, 2.2518905e+2, -746817.2, -925512.3, -60381.484, 0.017129328, -0.10553734, -728327.3, 4809.158, 0.0, 10.000714, 9.998341 
1.8502133e+2, 2.3518747e+2, -560245.3, -787373.5, -46686.1, 0.0033369127, -0.097649135, -551023.44, 84129.18, 0.0, 10.001334, 9.998318 
1.8502843e+2, 2.4518569e+2, -412142.06, -670790.75, -29797.45, -0.0064370735, -0.10465634, -408753.66, 128416.266, 0.0, 10.001702, 9.998269 
1.8503575e+2, 2.551837e+2, -296243.03, -567181.9, -41904.184, -0.014893547, -0.1329929, -289910.03, 149278.22, 0.0, 10.001838, 9.998241 
1.8504322e+2, 2.6518166e+2, -187160.03, -516540.25, -38571.266, -0.015303929, -0.13640338, -182703.53, 158504.11, 0.0, 10.002141, 9.99777 
1.8505085e+2, 2.751795e+2, -26277.83, -391779.78, -27437.916, -0.0030560764, -0.13038711, -24229.566, 218998.95, 0.0, 10.002588, 9.997738 
1.8505847e+2, 2.851771e+2, 109860.36, -320575.47, -20743.732, 0.0064385654, -0.123728134, 110857.734, 256109.77, 0.0, 10.003045, 9.9973345 
1.8506593e+2, 2.9517466e+2, 277741.13, -186365.02, -16148.352, -0.0028893652, -0.10688731, 278302.3, 325578.44, 0.000000013949684, 10.003514, 9.997357 
1.8507278e+2, 3.0517125e+2, 409887.78, -73329.39, -24209.88, -0.07364658, -0.1905756, 411097.7, 411097.7, 0.0000026617806, 10.003983, 9.997577 
1.8508089e+2, 3.1516936e+2, 462883.1, -63963.273, 10911.72, -0.00015035423, -0.13649991, 463109.0, 463109.0, 0.000023992492, 10.004416, 9.997432 
1.9493821e+2, 1.2518162e+2, -2039589.0, -1732842.1, 21272.098, -0.0069896756, -0.06430675, -1731374.0, -18156.62, 0.0005643703, 9.99717, 10.00124 
1.9494642e+2, 1.3518375e+2, -1913015.4, -1642379.4, -13998.096, 0.027801406, 0.048771307, -1641657.3, -26460.783, 0.00031730495, 9.997462, 10.001045 
1.9495414e+2, 1.4518322e+2, -1779332.0, -1561954.4, -13706.065, 0.019296682, -0.09340403, -1561093.5, -43892.395, 0.00012543245, 9.997855, 10.000731 
1.9496197e+2, 1.5518436e+2, -1621980.4, -1452050.8, -6960.4717, 0.012454941, -0.046916243, -1451766.1, -32576.617, 0.000026112697, 9.998335, 10.000582 
1.9496974e+2, 1.6518483e+2, -1516437.1, -1406989.6, -14911.4, 0.01171747, -0.031057458, -1404994.4, -83810.11, 0.0000011234973, 9.998631, 10.000076 
1.9497746e+2, 1.7518458e+2, -1401144.9, -1303564.3, -22720.74, 0.013515497, -0.0677929, -1298533.3, -75347.016, 0.0, 9.998763, 10.000051 
1.9498509e+2, 1.8518431e+2, -1279589.5, -1240954.0, -28647.016, 0.013235262, -0.07682041, -1225719.9, -100532.055, 0.0, 9.9991255, 9.999634 
1.9499268e+2, 1.9518411e+2, -1100488.6, -1108401.9, -23934.363, 0.013357592, -0.061931446, -1080186.0, -52997.754, 0.0, 9.9997015, 9.999593 
1.950002e+2, 2.051832e+2, -1000674.5, -1095312.0, -31712.525, 0.015138195, -0.07268566, -991030.56, -61834.305, 0.0, 10.000084, 9.998825 
1.950077e+2, 2.1518159e+2, -873902.06, -985727.25, -42801.29, 0.017930562, -0.11810412, -859400.4, -28189.178, 0.0, 10.000292, 9.998804 
1.9501512e+2, 2.2518024e+2, -722230.2, -873876.06, -37429.934, 0.008451929, -0.12787811, -713494.75, 19728.945, 0.0, 10.000712, 9.998696 
1.9502251e+2, 2.3517913e+2, -536389.4, -737151.4, -23434.61, -0.011209178, -0.11163939, -533690.2, 101543.52, 0.0, 10.001331, 9.998664 
1.9503006e+2, 2.451775e+2, -434675.22, -717301.06, -25189.285, -0.013799739, -0.10262888, -432447.78, 104801.78, 0.0, 10.0017, 9.997951 
1.9503771e+2, 2.5517544e+2, -317845.9, -612304.44, -36234.496, -0.0032743257, -0.10837978, -313452.63, 125818.195, 0.0, 10.001839, 9.9979315 
1.9504541e+2, 2.651734e+2, -167337.08, -475468.25, -22163.26, -0.0085511245, -0.11057867, -165751.1, 175539.36, 0.0, 10.002142, 9.998053 
1.9505322e+2, 2.7517134e+2, -6700.4478, -350682.13, -10744.755, -0.023425907, -0.12426511, -6365.147, 236943.84, 0.0, 10.002586, 9.998022 
1.9506131e+2, 2.8516895e+2, 111922.94, -315395.38, -3594.9731, -0.014549212, -0.13279106, 111953.18, 257284.8, 0.0, 10.003041, 9.997373 
1.9506946e+2, 2.951664e+2, 279431.78, -182887.14, 2436.117, -0.0007051068, -0.12623304, 279444.63, 326800.75, 0.0000000023315327, 10.003514, 9.997382 
1.9507675e+2, 3.0516344e+2, 406051.03, -81207.805, -8866.842, -0.07488968, -0.16565523, 406212.3, 406212.3, 0.0000014940416, 10.003983, 9.997522 
1.9508518e+2, 3.1516114e+2, 456614.16, -76628.0, 25466.51, -0.011465611, -0.14731705, 457827.63, 457827.63, 0.00001627015, 10.004415, 9.997345 
2.0493565e+2, 1.2517314e+2, -2025500.4, -1743487.5, 12398.868, 0.012133955, -0.07501609, -1742943.5, -29644.006, 0.0005112227, 9.997345, 10.001081 
2.0494404e+2, 1.3517535e+2, -1889333.8, -1639387.3, -20662.166, 0.033514068, 0.05395098, -1637690.8, -22411.95, 0.00028397882, 9.997663, 10.00097 
2.0495206e+2, 1.451749e+2, -1759826.9, -1551916.5, -17213.02, 0.019477837, -0.07870768, -1550501.0, -33217.992, 0.000109345056, 9.997986, 10.000738 
2.0496032e+2, 1.5517588e+2, -1623740.5, -1451756.3, -21019.809, 0.014807966, -0.049546134, -1449224.4, -29952.08, 0.000021261263, 9.998318, 10.000592 
2.0496848e+2, 1.6517624e+2, -1517192.5, -1425895.9, -35850.055, 0.017952826, -0.0360126, -1413501.1, -92232.8, 0.00000067965186, 9.998706, 9.999911 
2.0497651e+2, 1.7517595e+2, -1355725.6, -1299823.4, -42037.63, 0.022607543, -0.058505014, -1277292.5, -54020.953, 0.0, 9.999153, 9.999888 
2.0498452e+2, 1.8517566e+2, -1221137.3, -1213193.4, -45812.61, 0.022492087, -0.06294767, -1171180.9, -45907.145, 0.0, 9.999528, 9.99963 
2.049925e+2, 1.951754e+2, -1080654.3, -1098890.1, -51714.805, 0.019929836, -0.05333694, -1037259.75, -9985.56, 0.0, 9.999839, 9.999592 
2.0500036e+2, 2.0517443e+2, -997501.94, -1101503.8, -61338.023, 0.019285548, -0.06496683, -969088.6, -39806.05, 0.0, 10.000139, 9.998756 
2.0500807e+2, 2.1517281e+2, -857654.2, -985273.2, -55455.15, 0.019478146, -0.106346495, -836924.2, -5625.847, 0.0, 10.000435, 9.998738 
2.0501582e+2, 2.251714e+2, -717483.5, -868990.4, -45869.605, 0.007146648, -0.11957932, -704678.44, 28632.92, 0.0, 10.000733, 9.99872 
2.0502365e+2, 2.351702e+2, -577683.75, -754232.1, -57798.758, -0.015927076, -0.11457263, -560444.75, 74877.01, 0.0, 10.001036, 9.998689 
2.050316e+2, 2.4516863e+2, -465689.7, -728083.25, -61549.895, -0.01655455, -0.10388422, -451969.3, 85367.664, 0.0, 10.001471, 9.997987 
2.0503968e+2, 2.5516674e+2, -288226.22, -594110.6, -46656.7, 0.0012598457, -0.09473434, -281267.94, 158088.6, 0.0, 10.002026, 9.997967 
2.0504767e+2, 2.6516476e+2, -132169.23, -459812.03, -31777.36, -0.009121196, -0.091875024, -129115.67, 212259.95, 0.0, 10.002388, 9.998041 
2.0505564e+2, 2.7516267e+2, -11103.488, -354213.94, -43652.203, -0.040116012, -0.10893642, -5636.9346, 237757.8, 0.0, 10.0025625, 9.99801 
2.0506413e+2, 2.8516015e+2, 86102.51, -323460.2, -42483.125, -0.02610788, -0.12821664, 90462.77, 235881.03, 0.0, 10.002845, 9.997412 
2.0507295e+2, 2.951575e+2, 239068.11, -198681.31, -36393.438, 0.012827138, -0.13831916, 242073.16, 289517.0, 0.000000000097020676, 10.0032215, 9.997414 
2.0508067e+2, 3.05155e+2, 374895.38, -103568.945, -40619.87, -0.07214145, -0.13181032, 378319.34, 378319.34, 0.00000072960836, 10.0038, 9.997458 
2.0508946e+2, 3.151524e+2, 473656.44, -69140.46, -11895.853, -0.031045236, -0.13463235, 473917.03, 473917.03, 0.00001031642, 10.004534, 9.997342 
2.1493332e+2, 1.2516457e+2, -2028958.9, -1751784.3, 28150.607, 0.041317806, -0.06391794, -1748954.1, -35571.22, 0.00045034575, 9.997349, 10.001023 
2.1494162e+2, 1.3516651e+2, -1887971.4, -1637738.9, -7982.3433, 0.023180313, 0.036636055, -1637484.5, -22119.783, 0.0002457903, 9.997666, 10.000979 
2.1494994e+2, 1.4516611e+2, -1767929.8, -1569284.9, -5335.6187, 0.007687129, -0.085664846, -1569141.8, -51772.87, 0.00009091271, 9.997989, 10.000618 
2.1495894e+2, 1.5516719e+2, -1631742.9, -1468062.0, -7934.618, 0.045380354, -0.03340457, -1467678.3, -48320.492, 0.000015871614, 9.998317, 10.000482 
2.1496753e+2, 1.6516759e+2, -1526708.3, -1445729.3, -19193.027, 0.051835794, -0.0048774527, -1441410.6, -120056.58, 0.00000031009594, 9.998706, 9.999775 
2.1497564e+2, 1.7516722e+2, -1365123.8, -1320270.9, -24932.871, 0.01990696, -0.020986332, -1309162.4, -85803.984, 0.0, 9.999156, 9.999746 
2.1498384e+2, 1.8516666e+2, -1230062.6, -1232019.4, -34277.97, 0.0024741155, -0.03796556, -1196749.1, -71385.84, 0.0, 9.99953, 9.9995 
2.1499218e+2, 1.9516599e+2, -1089281.5, -1116635.8, -39543.586, 0.0038496205, -0.057725877, -1061116.6, -33748.723, 0.0, 9.999838, 9.999471 
2.1500039e+2, 2.051651e+2, -986438.94, -1078038.8, -50384.496, 0.009984076, -0.064424545, -964149.0, -34773.625, 0.0, 10.000137, 9.998919 
2.150085e+2, 2.15164e+2, -847085.8, -963045.9, -43813.32, 0.019221775, -0.0687245, -832393.3, -1007.6825, 0.0, 10.000434, 9.998892 
2.150166e+2, 2.2516252e+2, -739300.0, -913732.7, -34911.445, 0.011098776, -0.0806055, -732572.2, 827.3491, 0.0, 10.000731, 9.998414 
2.1502472e+2, 2.3516071e+2, -598701.3, -797494.94, -45874.867, -0.012485696, -0.10713688, -588625.6, 46791.223, 0.0, 10.001035, 9.998392 
2.1503308e+2, 2.4515906e+2, -439089.25, -672760.94, -41162.098, -0.015960991, -0.10802911, -432050.44, 105381.73, 0.0, 10.00147, 9.998367 
2.1504165e+2, 2.5515762e+2, -261930.77, -539051.2, -25811.37, -0.003165414, -0.092332795, -259547.17, 179898.28, 0.0, 10.002024, 9.998345 
2.1504997e+2, 2.6515576e+2, -154426.48, -505153.1, -25646.51, -0.018527007, -0.08026431, -152561.03, 188902.19, 0.0, 10.002384, 9.997732 
2.1505804e+2, 2.7515346e+2, -32885.8, -399324.34, -36635.313, -0.05515791, -0.08526663, -29259.018, 214226.77, 0.0, 10.002562, 9.997701 
2.1506692e+2, 2.851508e+2, 88599.234, -317971.44, -29335.438, -0.030056205, -0.11031489, 90704.98, 236216.94, 0.0, 10.002843, 9.997451 
2.1507639e+2, 2.9514793e+2, 241843.16, -193322.19, -21923.24, 0.03399527, -0.14397481, 242944.84, 290484.22, 0.0, 10.003222, 9.997452 
2.1508451e+2, 3.0514586e+2, 369045.8, -113691.8, -12891.931, -0.06799741, -0.08960979, 369389.88, 369389.88, 0.0000002906552, 10.003793, 9.997392 
2.1509369e+2, 3.1514323e+2, 478570.94, -58050.414, 12957.727, -0.06351694, -0.0936655, 478883.66, 478883.66, 0.0000060416633, 10.00453, 9.997419 
2.2493075e+2, 1.2515524e+2, -2006261.9, -1745216.4, -13915.087, 0.043268804, -0.054124497, -1744476.8, -31002.398, 0.0003861587, 9.997525, 10.000983 
2.2493944e+2, 1.3515696e+2, -1879430.3, -1630751.9, -54159.91, 0.03730894, 0.0206839, -1619468.4, -4010.2449, 0.00020573656, 9.997716, 10.001003 
2.249481e+2, 1.4515662e+2, -1769885.9, -1577973.3, -43949.965, 0.023160137, -0.092647046, -1568387.1, -50925.406, 0.00007189719, 9.99801, 10.000548 
2.2495736e+2, 1.551578e+2, -1619506.3, -1468986.5, -44123.13, 0.0516228, -0.02243296, -1457006.0, -37555.953, 0.000010694928, 9.998431, 10.000421 
2.249663e+2, 1.6515817e+2, -1506370.6, -1442678.9, -46873.684, 0.051584765, 0.009723614, -1417856.4, -96409.625, 0.000000092361944, 9.998875, 9.999716 
2.2497483e+2, 1.7515767e+2, -1343467.8, -1315856.5, -47240.34, 0.01342653, -0.01466045, -1280445.8, -56993.348, 0.0, 9.999331, 9.999692 
2.2498335e+2, 1.8515706e+2, -1226422.4, -1235195.6, -59565.33, -0.002077055, -0.031888917, -1171082.4, -45624.402, 0.0, 9.999577, 9.999456 
2.2499196e+2, 1.951564e+2, -1122584.6, -1137509.8, -59065.23, 0.0085222395, -0.04533325, -1070512.4, -43049.598, 0.0, 9.99963, 9.999429 
2.2500049e+2, 2.0515554e+2, -1013159.2, -1090537.8, -62822.64, 0.015353566, -0.048396505, -978068.06, -48597.79, 0.0, 9.999952, 9.998922 
2.2500895e+2, 2.1515445e+2, -833460.3, -955993.1, -68750.14, 0.016734546, -0.05144415, -802638.94, 28841.52, 0.0, 10.000526, 9.998896 
2.2501741e+2, 2.2515297e+2, -705531.2, -901502.0, -58573.184, 0.007216663, -0.061467387, -689359.0, 44135.3, 0.0, 10.000981, 9.998377 
2.2502589e+2, 2.3515114e+2, -559537.4, -783167.6, -49808.582, -0.011587145, -0.08504409, -548945.3, 86566.18, 0.0, 10.001323, 9.998353 
2.2503458e+2, 2.4514939e+2, -417249.2, -661588.8, -45882.63, -0.020367702, -0.09565111, -408917.34, 128610.24, 0.0, 10.0016165, 9.998374 
2.2504342e+2, 2.551477e+2, -285471.4, -550219.56, -60274.887, -0.022324279, -0.10247089, -272394.63, 167147.89, 0.0, 10.001862, 9.998347 
2.2505209e+2, 2.651458e+2, -195129.17, -532166.7, -70280.44, -0.03193058, -0.09109478, -181061.2, 160499.52, 0.0, 10.002138, 9.997665 
2.2506066e+2, 2.7514368e+2, -55769.902, -417777.9, -63288.914, -0.043298315, -0.07499062, -45024.234, 198558.22, 0.0, 10.002438, 9.997633 
2.2506988e+2, 2.85141e+2, 80954.234, -320839.6, -41985.207, -0.016057415, -0.09568218, 85294.57, 230903.47, 0.0, 10.002788, 9.997458 
2.2507952e+2, 2.9513803e+2, 233039.64, -198288.88, -38703.77, 0.029736357, -0.14163786, 236485.08, 284122.8, 0.0, 10.003165, 9.997446 
2.2508805e+2, 3.0513623e+2, 343809.75, -126832.74, -18567.594, -0.08419233, -0.061583493, 344541.13, 344541.13, 0.000000085825576, 10.003622, 9.997385 
2.2509798e+2, 3.1513327e+2, 439760.28, -49925.547, 6174.9097, -0.06767889, -0.095717706, 439838.13, 439838.13, 0.0000031779714, 10.004149, 9.997659 
2.3492798e+2, 1.2514517e+2, -2007415.8, -1748217.0, -4412.5137, 0.010369035, -0.04239678, -1748142.0, -34568.09, 0.00032267286, 9.997529, 10.000961 
2.3493753e+2, 1.3514666e+2, -1877549.5, -1625844.5, -47004.457, 0.07452913, 0.0066350205, -1617353.1, -1794.0049, 0.0001666326, 9.997711, 10.0010395 
2.3494652e+2, 1.451464e+2, -1771918.6, -1581556.3, -28647.623, 0.06418863, -0.099817246, -1577338.5, -59776.72, 0.00005400246, 9.998007, 10.000525 
2.349556e+2, 1.5514769e+2, -1620352.9, -1472309.4, -27862.156, 0.030809665, -0.016760627, -1467239.3, -47689.855, 0.000006396683, 9.998437, 10.000396 
2.349648e+2, 1.6514798e+2, -1503610.6, -1437926.1, -30090.643, 0.012904374, 0.0075117815, -1426225.6, -104678.68, 0.000000013163342, 9.9988785, 9.999745 
2.3497403e+2, 1.7514728e+2, -1340791.6, -1310529.0, -29887.197, 0.0011669758, -0.04011225, -1292161.0, -68606.98, 0.0, 9.999331, 9.999729 
2.3498301e+2, 1.8514684e+2, -1224082.3, -1229911.4, -57804.06, 0.006910262, -0.04517067, -1169119.3, -43561.113, 0.0, 9.999575, 9.999494 
2.3499182e+2, 1.9514664e+2, -1120047.0, -1132630.0, -56486.145, 0.032468956, -0.0153117655, -1069503.0, -41943.98, 0.0, 9.999632, 9.999461 
2.3500063e+2, 2.0514573e+2, -1024020.9, -1112452.6, -41418.508, 0.033346955, -0.016546883, -1007651.8, -78084.336, 0.0, 9.999949, 9.998773 
2.350094e+2, 2.1514414e+2, -844143.75, -977323.1, -46719.68, 0.00976094, -0.054944877, -829389.06, 2193.881, 0.0, 10.000523, 9.998751 
2.3501827e+2, 2.2514273e+2, -690033.6, -868641.7, -46007.633, -0.0063342317, -0.06227263, -678879.1, 54716.543, 0.0, 10.000978, 9.998605 
2.350272e+2, 2.3514152e+2, -543629.8, -749958.94, -36559.836, -0.014403468, -0.048075546, -537343.25, 98262.56, 0.0, 10.001322, 9.998581 
2.3503609e+2, 2.4513958e+2, -443923.9, -716856.1, -37053.477, -0.031117344, -0.06719737, -438982.94, 98640.375, 0.0, 10.001616, 9.997995 
2.3504491e+2, 2.5513703e+2, -312374.38, -605476.3, -50743.293, -0.058431428, -0.1250114, -303838.03, 135809.69, 0.0, 10.001859, 9.99797 
2.3505403e+2, 2.6513496e+2, -183329.88, -507133.4, -59684.066, -0.051428746, -0.12338674, -172679.13, 168988.92, 0.0, 10.002135, 9.997839 
2.3506345e+2, 2.7513328e+2, -42650.492, -390373.75, -51722.258, -0.007782437, -0.07829226, -35120.12, 208564.61, 0.0, 10.002437, 9.997822 
2.3507297e+2, 2.851308e+2, 77851.09, -326597.5, -27695.715, 0.013850226, -0.084784314, 79738.82, 225447.9, 0.0, 10.002784, 9.997421 
2.350824e+2, 2.9512778e+2, 229399.48, -205935.53, -23849.05, -0.001628436, -0.1321847, 230702.11, 278441.16, 0.0, 10.003164, 9.997394 
2.3509128e+2, 3.05126e+2, 346030.75, -120192.234, 197.09023, -0.12172259, -0.04893625, 346030.8, 346030.8, 0.000000016806371, 10.003613, 9.997435 
2.351023e+2, 3.1512254e+2, 465455.4, 6030.0073, 21820.69, -0.05188999, -0.13683234, 466489.47, 466489.47, 0.0000014346882, 10.004139, 9.998048 
2.4492551e+2, 1.2513481e+2, -2003613.5, -1758113.8, -666.28094, 0.008135791, -0.04327819, -1758112.0, -44436.758, 0.00026299746, 9.997603, 10.000858 
2.4493542e+2, 1.3513616e+2, -1841636.5, -1614669.1, -56951.96, 0.07994382, -0.0045239725, -1601180.1, 14481.78, 0.0001305452, 9.997984, 10.000985 
2.4494475e+2, 1.4513591e+2, -1726276.5, -1567113.3, -38267.12, 0.07060445, -0.102697834, -1558390.8, -40726.31, 0.000038366878, 9.998352, 10.00046 
2.449542e+2, 1.551371e+2, -1585725.1, -1461850.9, -40886.883, 0.03353764, -0.02332636, -1449572.5, -29919.139, 0.000003303544, 9.998702, 10.0003395 
2.4496377e+2, 1.651374e+2, -1490607.3, -1423450.3, -45399.797, 0.018597582, -0.00067695515, -1400560.5, -78909.8, 0.00000000018007511, 9.998933, 9.99982 
2.4497335e+2, 1.7513679e+2, -1374157.0, -1318445.8, -43337.94, 0.013343332, -0.044949137, -1294783.3, -71126.71, 0.0, 9.999069, 9.999802 
2.449826e+2, 1.8513636e+2, -1253413.6, -1256671.9, -74499.12, 0.01568974, -0.045651905, -1180525.8, -54865.152, 0.0, 9.999428, 9.999381 
2.449916e+2, 1.9513611e+2, -1075021.1, -1122854.8, -84676.44, 0.02927109, -0.011746923, -1010948.7, 16714.32, 0.0, 9.999993, 9.999353 
2.4500069e+2, 2.0513517e+2, -970777.7, -1082172.6, -66792.35, 0.02875859, -0.011948916, -939507.2, -9835.449, 0.0, 10.000297, 9.998814 
2.4500987e+2, 2.151336e+2, -866473.9, -983904.56, -58611.27, 0.013308037, -0.051916007, -842226.75, -10540.204, 0.0, 10.000351, 9.998789 
2.4501911e+2, 2.251322e+2, -734680.7, -890505.8, -53276.055, -0.004429533, -0.060582593, -718207.3, 15491.773, 0.0, 10.000672, 9.998602 
2.4502838e+2, 2.3513094e+2, -554900.75, -755845.6, -62329.91, -0.023320047, -0.04918889, -537137.25, 98572.28, 0.0, 10.001246, 9.998577 
2.450376e+2, 2.4512899e+2, -453498.72, -730094.25, -69612.82, -0.039763436, -0.06792588, -436966.84, 100760.766, 0.0, 10.001588, 9.997917 
2.450467e+2, 2.551264e+2, -339712.25, -627454.3, -60837.38, -0.056570303, -0.12102508, -327378.1, 112374.484, 0.0, 10.001709, 9.997891 
2.4505612e+2, 2.6512426e+2, -197071.45, -507738.8, -54582.133, -0.04928237, -0.11991763, -187760.78, 154012.28, 0.0, 10.002016, 9.997892 
2.4506584e+2, 2.7512258e+2, -31420.602, -379601.38, -57714.582, -0.014950022, -0.080857955, -22103.148, 221686.39, 0.0, 10.00249, 9.99787 
2.4507569e+2, 2.851202e+2, 79751.016, -325579.6, -41436.117, 0.007013261, -0.08568147, 83943.58, 229757.08, 0.0, 10.002797, 9.997422 
2.4508548e+2, 2.9511723e+2, 197362.4, -222451.13, -35101.18, 0.002392595, -0.12463552, 200277.03, 248120.0, 0.0, 10.002951, 9.997383 
2.4509472e+2, 3.051155e+2, 285561.22, -153206.58, -5092.5005, -0.11874333, -0.036410995, 285620.3, 285620.3, 0.0000000018495133, 10.003217, 9.997397 
2.4510613e+2, 3.1511185e+2, 400901.28, 8383.33, 2265.4849, -0.051885694, -0.14224997, 400914.34, 400914.34, 0.00000052479436, 10.00355, 9.998347 
2.5492337e+2, 1.2512413e+2, -2017427.3, -1785596.0, 17902.926, 0.034531586, -0.05976656, -1784221.6, -70442.71, 0.000209724, 9.997597, 10.000672 
2.549331e+2, 1.351254e+2, -1851042.3, -1636972.4, -42291.574, 0.04814077, -0.013658028, -1628920.1, -13153.454, 0.00009902971, 9.997994, 10.000828 
2.5494277e+2, 1.4512512e+2, -1732052.4, -1581086.6, -26190.209, 0.035966836, -0.10114886, -1576672.1, -58902.313, 0.000025643241, 9.998361, 10.000359 
2.5495312e+2, 1.5512602e+2, -1591740.3, -1473995.3, -27972.04, 0.057717834, -0.042194095, -1467688.0, -47926.254, 0.0000014046367, 9.9987, 10.0002575 
2.549632e+2, 1.6512637e+2, -1483567.0, -1408035.0, -40847.652, 0.067781426, -0.014585188, -1390170.1, -68411.66, 0.0, 9.99893, 9.999927 
2.5497276e+2, 1.751262e+2, -1366594.1, -1303805.5, -37735.34, 0.048028275, -0.028909493, -1286112.6, -62352.605, 0.0, 9.999073, 9.999901 
2.5498208e+2, 1.8512563e+2, -1271030.8, -1293471.4, -53364.836, 0.021548698, -0.03353584, -1227719.4, -101953.87, 0.0, 9.999429, 9.999127 
2.5499126e+2, 1.9512478e+2, -1092220.9, -1158380.9, -63259.008, -0.00312296, -0.035415854, -1053914.8, -26139.98, 0.0, 9.999992, 9.99911 
2.550007e+2, 2.0512383e+2, -955461.0, -1049631.9, -64833.33, -0.00018679771, -0.03550625, -922419.06, 7364.264, 0.0, 10.000294, 9.999039 
2.5501034e+2, 2.1512283e+2, -850966.06, -951347.4, -55830.008, 0.02606258, -0.041280054, -826082.8, 5708.526, 0.0, 10.00035, 9.999013 
2.5501993e+2, 2.2512135e+2, -751369.25, -924771.56, -32032.05, 0.011511207, -0.05619217, -745641.25, -11836.707, 0.0, 10.00067, 9.998368 
2.5502944e+2, 2.3511943e+2, -571944.1, -790106.6, -40517.08, -0.04059664, -0.087735094, -564662.3, 71160.43, 0.0, 10.001242, 9.998344 
2.550391e+2, 2.4511757e+2, -438241.22, -697840.1, -65452.426, -0.049394388, -0.09703958, -422672.44, 115167.94, 0.0, 10.001585, 9.99814 
2.550488e+2, 2.5511578e+2, -323309.72, -593351.06, -55716.91, -0.018753104, -0.09124863, -312265.47, 127591.67, 0.0, 10.001709, 9.998125 
2.5505838e+2, 2.6511383e+2, -202686.7, -520053.75, -36729.16, -0.026588375, -0.08220279, -198491.45, 143384.42, 0.0, 10.002018, 9.9978075 
2.550678e+2, 2.7511168e+2, -38216.434, -393564.28, -39669.742, -0.06676724, -0.082802966, -33841.707, 210055.27, 0.0, 10.002489, 9.997776 
2.5507802e+2, 2.851091e+2, 81740.54, -320157.53, -36591.33, -0.039602086, -0.097872384, 85044.875, 230967.06, 0.0, 10.002791, 9.997462 
2.5508878e+2, 2.9510638e+2, 200269.36, -215403.11, -28803.758, 0.037246857, -0.11908006, 202255.81, 250205.34, 0.0, 10.002947, 9.997433 
2.550983e+2, 3.0510464e+2, 275797.94, -173242.84, 8043.7666, -0.078352414, -0.024928827, 275942.0, 275942.0, 0.000000000039700524, 10.003214, 9.997262 
2.551095e+2, 3.1510103e+2, 416030.3, 39169.664, 10893.757, -0.071953356, -0.11705845, 416344.97, 416344.97, 0.00000015406697, 10.0035515, 9.998559 
2.6492137e+2, 1.251132e+2, -1974903.6, -1773979.1, 1215.7977, 0.05579102, -0.0532009, -1773971.9, -60085.7, 0.0001649167, 9.997926, 10.000594 
2.6493117e+2, 1.3511437e+2, -1815190.9, -1624867.0, -57098.406, 0.044557996, -0.013137812, -1609051.4, 6823.5356, 0.000073287774, 9.998261, 10.000782 
2.649411e+2, 1.4511411e+2, -1715869.6, -1579060.4, -37675.086, 0.02541062, -0.0941204, -1569371.5, -51493.566, 0.000016155976, 9.998497, 10.000307 
2.6495185e+2, 1.5511487e+2, -1598672.1, -1481870.3, -37756.42, 0.0625394, -0.045227867, -1470728.3, -50857.105, 0.00000046134082, 9.998673, 10.0002165 
2.6496223e+2, 1.6511524e+2, -1479954.3, -1405823.4, -52555.99, 0.07606289, -0.014413988, -1378577.3, -56709.523, 0.0, 9.998954, 9.99993 
2.649719e+2, 1.751152e+2, -1330144.3, -1285873.0, -57852.676, 0.045405127, -0.012194371, -1246065.8, -22197.998, 0.0, 9.999323, 9.999903 
2.6498157e+2, 1.8511458e+2, -1243135.8, -1283292.1, -62009.453, 0.017166495, -0.023590358, -1198034.9, -72160.85, 0.0, 9.999635, 9.999098 
2.6499125e+2, 1.9511338e+2, -1107380.9, -1169018.1, -56070.547, -0.00030878052, -0.054602236, -1074217.5, -46331.426, 0.0, 9.999904, 9.999081 
2.65001e+2, 2.0511243e+2, -961534.56, -1052585.4, -64262.953, 0.003930263, -0.054828975, -928305.4, 1589.467, 0.0, 10.000252, 9.999039 
2.6501083e+2, 2.1511169e+2, -804001.4, -928802.3, -72555.29, 0.025253436, -0.033464074, -770703.94, 61196.426, 0.0, 10.000672, 9.999012 
2.650207e+2, 2.2511023e+2, -724523.56, -918501.0, -47800.04, 0.010715267, -0.04397744, -713384.4, 20529.39, 0.0, 10.000884, 9.998308 
2.6503056e+2, 2.3510808e+2, -626267.3, -822900.2, -43731.52, -0.03721463, -0.09232126, -616980.0, 18954.557, 0.0, 10.000897, 9.998285 
2.6504055e+2, 2.4510626e+2, -483302.1, -713273.8, -63556.477, -0.044779904, -0.097284265, -466906.16, 71045.94, 0.0, 10.001249, 9.998196 
2.6505062e+2, 2.5510478e+2, -287731.53, -569765.44, -67526.02, -0.01546653, -0.068612486, -272397.78, 167568.55, 0.0, 10.001926, 9.998182 
2.650605e+2, 2.6510283e+2, -169840.11, -504658.72, -58077.938, -0.024714103, -0.059013102, -160052.0, 181932.66, 0.0, 10.002245, 9.997804 
2.6507017e+2, 2.7510047e+2, -76983.19, -412507.06, -54902.46, -0.0668965, -0.07865789, -68227.85, 175779.4, 0.0, 10.002225, 9.997773 
2.6508063e+2, 2.850979e+2, 41887.26, -332752.2, -42690.95, -0.040423047, -0.09675097, 46690.406, 192722.66, 0.0, 10.002491, 9.9975195 
2.6509175e+2, 2.9509532e+2, 212147.48, -204014.47, -35747.055, 0.037465062, -0.10779939, 215195.72, 263253.6, 0.0, 10.003004, 9.997483 
2.6510158e+2, 3.0509338e+2, 266601.2, -204498.77, -6898.1714, -0.07396886, -0.025904048, 266702.16, 266702.16, 0.0, 10.003266, 9.997023 
2.6511303e+2, 3.1508985e+2, 385535.06, 31208.078, -18702.047, -0.057784908, -0.086669706, 386519.47, 386519.47, 0.000000038019415, 10.003316, 9.998616 
2.7491936e+2, 1.25102e+2, -1970987.3, -1766907.1, 17888.984, 0.06520968, -0.021668065, -1765350.9, -51353.754, 0.00012966055, 9.9979315, 10.00064 
2.7492964e+2, 1.3510306e+2, -1810161.6, -1613355.4, -45505.355, 0.06710657, -0.0017441812, -1603343.0, 12643.46, 0.00005392466, 9.998258, 10.000863 
2.749397e+2, 1.4510286e+2, -1716872.4, -1580421.3, -31980.463, 0.036970764, -0.080866076, -1573297.8, -55309.273, 0.0000098627, 9.998494, 10.0003 
2.7495036e+2, 1.551036e+2, -1598382.5, -1482297.9, -30778.18, 0.044295065, -0.033062626, -1474642.4, -54660.64, 0.00000011248763, 9.998677, 10.000212 
2.749608e+2, 1.6510393e+2, -1486672.9, -1420612.9, -39210.02, 0.039498538, -0.0009142183, -1402374.9, -80395.984, 0.0, 9.998957, 9.999828 
2.7497083e+2, 1.7510384e+2, -1336591.3, -1299422.6, -44005.137, 0.002928099, 0.0054291855, -1270238.5, -46258.492, 0.0, 9.999323, 9.99981 
2.7498105e+2, 1.8510316e+2, -1230229.5, -1256082.9, -52341.082, 0.00001085006, -0.015355969, -1189242.5, -63256.24, 0.0, 9.999634, 9.999286 
2.749915e+2, 1.9510193e+2, -1094730.4, -1142773.6, -45648.363, 0.03614931, -0.06869883, -1067169.0, -39171.754, 0.0, 9.999903, 9.999261 
2.7500162e+2, 2.0510095e+2, -977375.25, -1084715.3, -48495.832, 0.03956672, -0.069871016, -958710.56, -28704.205, 0.0, 10.000248, 9.998819 
2.7501136e+2, 2.1510018e+2, -819422.56, -960379.06, -56282.867, 0.009084121, -0.029003266, -799706.9, 32306.795, 0.0, 10.00067, 9.998797 
2.7502137e+2, 2.2509883e+2, -717509.7, -903047.56, -47464.38, -0.009480903, -0.024952246, -706072.4, 27954.31, 0.0, 10.000881, 9.998416 
2.750317e+2, 2.3509687e+2, -618405.6, -806554.4, -42585.715, -0.014023434, -0.06342466, -609215.6, 26829.469, 0.0, 10.000897, 9.998398 
2.7504197e+2, 2.4509504e+2, -491178.28, -729838.9, -38417.4, -0.02696977, -0.06966882, -485146.63, 52916.277, 0.0, 10.00125, 9.998082 
2.7505222e+2, 2.5509334e+2, -296814.47, -587624.25, -41990.766, -0.049587175, -0.05259048, -290872.72, 149207.36, 0.0, 10.001921, 9.998062 
2.7506253e+2, 2.650913e+2, -164848.08, -492868.4, -59409.047, -0.047712576, -0.04914886, -154419.8, 187679.47, 0.0, 10.002239, 9.997887 
2.7507287e+2, 2.7508903e+2, -70773.97, -398777.16, -54811.87, -0.017980065, -0.06885868, -61856.902, 182263.52, 0.0, 10.002222, 9.997869 
2.7508357e+2, 2.8508657e+2, 46223.047, -324052.94, -23118.123, 0.0028174901, -0.08395989, 47660.84, 193804.64, 0.0, 10.002492, 9.99758 
2.750944e+2, 2.9508412e+2, 215569.28, -197386.72, -16331.286, 0.00087016256, -0.09151641, 216214.13, 264382.25, 0.0, 10.003005, 9.997529 
2.7510452e+2, 3.050817e+2, 242091.3, -254944.45, -5887.124, -0.110022, -0.039073452, 242161.03, 242161.03, 0.0, 10.003264, 9.996676 
2.7511677e+2, 3.1507826e+2, 377661.16, 16385.938, -21528.67, -0.01829565, -0.057576474, 378939.53, 378939.53, 0.00000000643165, 10.003309, 9.998517 
2.8491738e+2, 1.2509035e+2, -1925493.6, -1750054.4, 22283.508, 0.057903074, -0.021323325, -1747268.3, -33156.74, 0.00010364884, 9.998266, 10.000594 
2.8492814e+2, 1.3509138e+2, -1799550.9, -1610199.1, -57524.367, 0.08597371, -0.0009169146, -1594093.4, 22007.785, 0.000040612387, 9.99834, 10.000845 
2.8493837e+2, 1.4509131e+2, -1703820.0, -1568783.9, -42335.316, 0.050462846, -0.0698369, -1556609.0, -38507.082, 0.0000062724685, 9.998562, 10.000347 
2.84949e+2, 1.55092e+2, -1559569.6, -1457796.8, -37744.445, 0.031469744, -0.03147844, -1445326.5, -25231.404, 0.000000028346124, 9.9989195, 10.000264 
2.849597e+2, 1.6509221e+2, -1462891.8, -1422840.9, -43772.426, 0.024998147, -0.0075381678, -1394730.6, -72637.2, 0.0, 9.999181, 9.999705 
2.8497022e+2, 1.7509195e+2, -1338402.1, -1313541.3, -51314.703, 0.008966052, -0.006107687, -1273172.9, -49076.098, 0.0, 9.99937, 9.999691 
2.8498077e+2, 1.8509135e+2, -1224753.5, -1240788.0, -62923.375, 0.01332983, -0.020438269, -1169338.6, -43236.27, 0.0, 9.999618, 9.999397 
2.8499147e+2, 1.950904e+2, -1084465.3, -1125714.1, -62761.867, 0.043505114, -0.055919416, -1039026.0, -10915.894, 0.0, 9.999922, 9.999369 
2.8500184e+2, 2.050894e+2, -985214.9, -1099210.9, -59836.42, 0.03879905, -0.057909727, -959574.06, -29454.791, 0.0, 10.00024, 9.998725 
2.8501186e+2, 2.1508837e+2, -840325.0, -980372.3, -59124.723, -0.0020580965, -0.035830237, -818702.3, 13427.586, 0.0, 10.00057, 9.998708 
2.8502217e+2, 2.25087e+2, -714926.4, -896595.6, -55786.414, -0.017772615, -0.028740238, -699163.4, 34979.707, 0.0, 10.000876, 9.998463 
2.8503278e+2, 2.3508534e+2, -577709.4, -781761.44, -55852.57, -0.0067065433, -0.043186046, -563421.94, 72736.59, 0.0, 10.001154, 9.998445 
2.8504336e+2, 2.4508354e+2, -477388.66, -724684.9, -40249.094, -0.017349606, -0.047603983, -471002.75, 67173.27, 0.0, 10.00135, 9.998069 
2.850539e+2, 2.5508162e+2, -363202.16, -620873.44, -36785.766, -0.05130295, -0.04941719, -358053.44, 82141.86, 0.0, 10.001471, 9.998051 
2.850645e+2, 2.650796e+2, -223163.25, -511997.66, -55221.664, -0.05172332, -0.051909298, -212965.58, 129249.05, 0.0, 10.0018015, 9.997966 
2.8507516e+2, 2.7507743e+2, -50309.85, -379531.6, -52053.7, -0.014583029, -0.065635495, -42275.633, 201958.52, 0.0, 10.002323, 9.9979515 
2.8508618e+2, 2.8507504e+2, 62415.36, -326343.03, -22736.78, 0.008529826, -0.07444305, 63740.617, 209997.55, 0.0, 10.002647, 9.997488 
2.8509733e+2, 2.9507253e+2, 180135.1, -224315.6, -27777.191, 0.004400215, -0.0757106, 182033.88, 230315.72, 0.0, 10.002808, 9.997438 
2.8510767e+2, 3.0506977e+2, 204609.31, -259146.25, -14323.152, -0.10383468, -0.06416661, 205051.27, 205051.27, 0.0, 10.002949, 9.9967985 
2.8511998e+2, 3.1506675e+2, 351349.94, 28154.986, -3445.2856, -0.011291551, -0.047979977, 351386.66, 351386.66, 0.00000000043435586, 10.003023, 9.998736 
2.9491538e+2, 1.2507823e+2, -1935188.3, -1771839.1, 30298.092, 0.027027495, -0.05397577, -1766400.5, -52171.402, 0.000085497144, 9.998273, 10.0004425 
2.949266e+2, 1.3507935e+2, -1808403.3, -1629020.4, -54636.92, 0.09819012, -0.012098062, -1613689.3, 2529.6182, 0.000032281903, 9.998342, 10.000715 
2.9493704e+2, 1.4507943e+2, -1696927.4, -1554668.4, -29509.346, 0.063759305, -0.06134838, -1548790.0, -30571.996, 0.0000046245973, 9.998562, 10.000444 
2.949478e+2, 1.550801e+2, -1552241.9, -1442431.4, -24391.547, 0.020614004, -0.038595, -1437257.3, -17046.227, 0.00000001715619, 9.9989195, 10.000369 
2.9495892e+2, 1.650801e+2, -1473114.5, -1444066.5, -37353.5, 0.028878897, -0.032205835, -1418512.6, -96301.44, 0.0, 9.99918, 9.999559 
2.9497012e+2, 1.7507952e+2, -1349008.0, -1334940.3, -43795.844, 0.06210687, -0.048206862, -1297617.0, -73398.74, 0.0, 9.999367, 9.999545 
2.9498082e+2, 1.8507907e+2, -1223643.5, -1237508.4, -51537.93, 0.055993218, -0.040136743, -1178573.9, -52351.086, 0.0, 9.999614, 9.999423 
2.949912e+2, 1.9507875e+2, -1082486.3, -1121633.3, -50951.05, 0.02057021, -0.01687569, -1047478.3, -19253.496, 0.0, 9.999922, 9.999397 
2.950017e+2, 2.0507777e+2, -983721.6, -1095418.0, -47523.863, -0.00034792346, -0.019154103, -966238.1, -36004.38, 0.0, 10.000237, 9.998752 
2.9501235e+2, 2.1507621e+2, -838666.06, -976625.56, -46192.7, -0.009767256, -0.053969245, -824627.9, 7621.335, 0.0, 10.000568, 9.998734 
2.9502305e+2, 2.2507477e+2, -716116.56, -898343.5, -45636.3, -0.016234979, -0.05550101, -705326.44, 28936.533, 0.0, 10.000874, 9.998452 
2.950338e+2, 2.3507349e+2, -578831.4, -783708.2, -45044.55, -0.017434552, -0.031602018, -569365.2, 66909.86, 0.0, 10.001152, 9.998432 
2.9504472e+2, 2.4507177e+2, -471742.28, -712206.7, -36072.605, -0.018624913, -0.03091687, -466447.53, 71843.94, 0.0, 10.001348, 9.998157 
2.9505566e+2, 2.5506964e+2, -357318.56, -608093.6, -31652.625, -0.02206801, -0.059500035, -353385.1, 86926.89, 0.0, 10.001469, 9.998139 
2.9506645e+2, 2.6506767e+2, -218794.4, -502474.9, -35990.516, -0.037169598, -0.06824879, -214299.52, 128031.46, 0.0, 10.0018, 9.998033 
2.9507706e+2, 2.750657e+2, -45993.01, -370154.94, -32629.605, -0.059457056, -0.069078185, -42741.188, 201607.4, 0.0, 10.00232, 9.998017 
2.9508847e+2, 2.8506333e+2, 45279.15, -361195.88, -17668.822, -0.027256956, -0.067172684, 46045.74, 192417.42, 0.0, 10.002645, 9.997251 
2.951005e+2, 2.9506066e+2, 162767.66, -258205.02, -20838.758, 0.044592634, -0.06015131, 163796.69, 212195.7, 0.0, 10.002798, 9.9972105 
2.951111e+2, 3.0505753e+2, 243552.97, -176805.28, -11098.898, -0.05723072, -0.1003845, 243845.81, 243845.81, 0.0, 10.002942, 9.997368 
2.951227e+2, 3.1505525e+2, 389616.3, 106157.87, -4871.518, -0.040946726, -0.07048351, 389700.0, 389700.0, 0.0, 10.003029, 9.9992695 
3.0491373e+2, 1.25066e+2, -1917588.0, -1761497.6, 16126.523, 0.03205218, -0.06323352, -1759848.9, -45499.99, 0.000073591786, 9.998389, 10.000456 
3.0492488e+2, 1.3506715e+2, -1782863.5, -1614018.0, -65178.93, 0.08384306, -0.021626707, -1591784.8, 24553.451, 0.000027638554, 9.998506, 10.000739 
3.0493546e+2, 1.4506736e+2, -1686331.4, -1552353.5, -30683.152, 0.044825763, -0.05846469, -1545660.9, -27324.717, 0.000004191702, 9.998649, 10.000418 
3.0494678e+2, 1.5506794e+2, -1567844.8, -1452569.1, -37105.637, 0.030319814, -0.040034983, -1441658.1, -21327.992, 0.000000032166714, 9.998824, 10.000345 
3.0495828e+2, 1.6506794e+2, -1476891.1, -1439175.3, -45431.72, 0.04863364, -0.03608789, -1408843.1, -86512.72, 0.0, 9.999126, 9.999619 
3.0496964e+2, 1.7506742e+2, -1316803.3, -1313157.1, -37512.438, 0.06789734, -0.051720437, -1277423.5, -53086.926, 0.0, 9.999561, 9.999601 
3.0498052e+2, 1.8506695e+2, -1189924.9, -1235518.9, -43574.54, 0.05153991, -0.041818146, -1163544.3, -37202.89, 0.0, 9.999907, 9.999295 
3.0499113e+2, 1.9506654e+2, -1054096.0, -1120903.4, -54986.83, 0.0114486, -0.014902158, -1023161.9, 5182.9536, 0.0, 10.0001745, 9.999279 
3.050019e+2, 2.0506555e+2, -956281.25, -1079094.4, -57493.574, -0.009571861, -0.014518213, -933567.2, -3213.1545, 0.0, 10.000414, 9.998778 
3.0501288e+2, 2.1506403e+2, -829041.1, -969285.9, -56934.816, -0.016206862, -0.04599783, -808837.9, 23530.84, 0.0, 10.000624, 9.998759 
3.0502388e+2, 2.2506255e+2, -720766.3, -902422.6, -56128.594, -0.020555245, -0.05278004, -704822.9, 29559.934, 0.0, 10.000848, 9.998438 
3.0503488e+2, 2.3506111e+2, -589323.6, -789868.7, -56754.688, -0.020353673, -0.043314733, -574376.06, 62020.215, 0.0, 10.001085, 9.998422 
3.0504602e+2, 2.4505942e+2, -475419.63, -699183.94, -50945.5, -0.015192985, -0.045628507, -464366.6, 74045.45, 0.0, 10.001259, 9.998288 
3.0505723e+2, 2.550575e+2, -362648.3, -595848.8, -43397.895, -0.0065663476, -0.06598138, -354833.97, 85596.0, 0.0, 10.0013685, 9.998272 
3.0506825e+2, 2.6505554e+2, -241713.42, -519010.75, -34742.805, -0.025282675, -0.074723564, -237426.73, 105021.875, 0.0, 10.001667, 9.997982 
3.050792e+2, 2.7505347e+2, -73439.14, -388885.56, -41336.41, -0.066808, -0.083067626, -68112.33, 176355.86, 0.0, 10.002157, 9.997967 
3.0509084e+2, 2.8505123e+2, 23439.2, -351970.25, -31211.006, -0.041028757, -0.07515804, 26016.346, 172506.42, 0.0, 10.00241, 9.997426 
3.0510306e+2, 2.9504895e+2, 118752.016, -259467.38, -4791.733, 0.03927485, -0.049591664, 118812.71, 167325.9, 0.0, 10.00241, 9.997389 
3.0511397e+2, 3.0504555e+2, 202331.17, -191485.75, 9350.578, -0.044956703, -0.12818009, 202553.06, 202553.06, 0.0, 10.002637, 9.997414 
3.0512607e+2, 3.1504345e+2, 390537.28, 94753.79, -29810.81, -0.01310773, -0.07859785, 393511.88, 393511.88, 0.0, 10.003088, 9.999163 
3.1491253e+2, 1.2505369e+2, -1904844.9, -1735616.9, 28432.773, 0.07222049, -0.047030278, -1730967.5, -16496.822, 0.00006650563, 9.998391, 10.000633 
3.1492287e+2, 1.3505481e+2, -1767971.5, -1584967.0, -60083.82, 0.03463567, -0.027012082, -1567003.6, 49455.17, 0.000025576577, 9.998514, 10.000935 
3.149335e+2, 1.4505509e+2, -1696800.6, -1575790.9, -24792.855, -0.015525965, -0.058985386, -1570908.3, -52452.242, 0.000004447986, 9.998655, 10.000255 
3.149459e+2, 1.5505552e+2, -1579880.1, -1476182.3, -30080.896, 0.059616927, -0.037380774, -1468088.1, -47635.49, 0.00000006594377, 9.998818, 10.000187 
3.1495777e+2, 1.6505572e+2, -1460248.8, -1403086.3, -29408.623, 0.0839381, -0.019995369, -1390658.3, -68207.15, 0.0, 9.99912, 9.999869 
3.1496876e+2, 1.7505567e+2, -1299221.3, -1276960.5, -20865.363, 0.022995073, -0.015270072, -1264442.5, -39990.895, 0.0, 9.999562, 9.999849 
3.1497988e+2, 1.8505499e+2, -1209035.6, -1275757.1, -33851.777, -0.0048420266, -0.023003547, -1194868.6, -68410.695, 0.0, 9.999908, 9.999019 
3.1499133e+2, 1.9505376e+2, -1073486.5, -1160887.9, -44429.8, 0.014334484, -0.051071763, -1054867.4, -26397.227, 0.0, 10.000173, 9.999006 
3.150025e+2, 2.050527e+2, -955579.25, -1076156.6, -49706.41, 0.009517464, -0.045213107, -937730.5, -7250.1035, 0.0, 10.000407, 9.998801 
3.1501344e+2, 2.1505184e+2, -827890.0, -966474.2, -48468.62, -0.023205804, -0.0128040435, -812620.9, 19867.697, 0.0, 10.000621, 9.998779 
3.1502458e+2, 2.2505035e+2, -722561.1, -905574.9, -47269.617, -0.032677155, -0.021125928, -711073.2, 23429.387, 0.0, 10.000845, 9.998417 
3.15036e+2, 2.3504822e+2, -590762.9, -792738.9, -47360.39, -0.016850146, -0.0782291, -580209.06, 56313.324, 0.0, 10.001084, 9.998404 
3.1504735e+2, 2.450465e+2, -463275.63, -673570.4, -47334.93, -0.008419947, -0.09207917, -453112.25, 85425.75, 0.0, 10.001257, 9.998466 
3.1505856e+2, 2.550452e+2, -349750.28, -569142.1, -39165.125, -0.008361107, -0.06932972, -342968.28, 97580.98, 0.0, 10.0013685, 9.998456 
3.1507e+2, 2.6504332e+2, -253659.38, -543621.8, -16805.264, -0.019241853, -0.07114204, -252688.66, 89878.85, 0.0, 10.001666, 9.997814 
3.1508163e+2, 2.750408e+2, -86532.48, -413910.72, -22230.021, -0.039249174, -0.10718502, -85029.88, 159562.94, 0.0, 10.002148, 9.997799 
3.150933e+2, 2.8503877e+2, 61642.77, -270022.25, -31774.314, -0.0334943, -0.09829615, 64659.387, 211271.58, 0.0, 10.002399, 9.997994 
3.1510496e+2, 2.950373e+2, 159690.77, -175548.25, -4932.2134, -0.01385603, -0.045395132, 159763.31, 208388.08, 0.0, 10.002415, 9.997963 
3.1511638e+2, 3.0503368e+2, 171104.69, -258304.05, 25403.916, -0.07005989, -0.14878586, 172602.36, 172602.36, 0.0, 10.002645, 9.996952 
3.151299e+2, 3.1503138e+2, 339483.47, -9001.578, -17231.938, 0.0627661, -0.08142089, 340333.47, 340333.47, 0.0, 10.003077, 9.998456 
3.249109e+2, 1.2504119e+2, -1889267.4, -1719793.3, 32726.771, 0.07104097, -0.036086995, -1713693.0, 900.9697, 0.00006287029, 9.998465, 10.000705 
3.2492155e+2, 1.350423e+2, -1760515.1, -1572147.4, -74132.586, 0.048232652, -0.02649765, -1546472.0, 70109.625, 0.000025189593, 9.998527, 10.001017 
3.2493222e+2, 1.4504266e+2, -1685621.3, -1576906.9, -32411.83, -0.015155911, -0.050247964, -1567977.1, -49399.277, 0.0000050024137, 9.998761, 10.0001955 
3.249447e+2, 1.55043e+2, -1535968.6, -1461000.4, -31057.668, 0.044451766, -0.03431717, -1449805.5, -29229.75, 0.000000115129794, 9.9991455, 10.000133 
3.249568e+2, 1.6504316e+2, -1423817.6, -1387083.4, -35319.777, 0.067856096, -0.015775502, -1365640.4, -43065.773, 0.0, 9.999377, 9.999854 
3.249682e+2, 1.7504318e+2, -1313347.3, -1284717.5, -47577.45, 0.017775381, -0.0008552585, -1249348.1, -24773.896, 0.0, 9.999472, 9.999839 
3.2497966e+2, 1.8504252e+2, -1233306.1, -1285132.0, -55620.008, -0.0072862282, -0.010522476, -1197859.0, -71278.375, 0.0, 9.999733, 9.999038 
3.249914e+2, 1.9504115e+2, -1072539.1, -1158714.4, -45233.195, 0.004574728, -0.051530056, -1053156.1, -24562.484, 0.0, 10.000171, 9.9990225 
3.2500285e+2, 2.0504004e+2, -953495.75, -1082142.4, -49119.68, -0.00003936106, -0.049723547, -936885.56, -6281.1445, 0.0, 10.00045, 9.998741 
3.2501397e+2, 2.1503916e+2, -839631.2, -977877.3, -54760.383, -0.024733841, -0.0124066025, -820568.7, 12044.321, 0.0, 10.0005665, 9.998727 
3.2502535e+2, 2.2503768e+2, -734237.56, -898987.25, -49226.234, -0.030896546, -0.02272929, -720649.75, 13976.919, 0.0, 10.000713, 9.998526 
3.2503697e+2, 2.3503557e+2, -611169.06, -790614.3, -40073.813, -0.016791211, -0.08803687, -602626.44, 34019.0, 0.0, 10.000893, 9.99851 
3.250486e+2, 2.4503385e+2, -477394.25, -692431.2, -42230.527, -0.007694828, -0.10262175, -469398.03, 69263.1, 0.0, 10.001212, 9.998358 
3.2506013e+2, 2.550325e+2, -313549.9, -563905.44, -56634.266, -0.004870857, -0.07329663, -301334.38, 139339.22, 0.0, 10.00167, 9.998346 
3.2507178e+2, 2.6503068e+2, -226120.7, -514381.94, -39230.266, -0.0123246955, -0.072333634, -220877.13, 121814.47, 0.0, 10.001785, 9.997957 
3.2508358e+2, 2.7502826e+2, -161585.22, -433866.84, -21958.568, -0.027348666, -0.10891864, -159825.7, 84889.55, 0.0, 10.001562, 9.997945 
3.2509547e+2, 2.8502637e+2, -16367.444, -299488.44, -27193.605, -0.026275143, -0.099604666, -13779.176, 132954.11, 0.0, 10.001828, 9.998067 
3.2510737e+2, 2.95025e+2, 186679.1, -154758.52, -38429.227, -0.019586232, -0.045004975, 190950.9, 239695.9, 0.0, 10.002567, 9.998033 
3.2511914e+2, 3.050214e+2, 220791.67, -209841.9, -9435.643, -0.066460036, -0.16120653, 220998.33, 220998.33, 0.0, 10.00288, 9.99717 
3.25133e+2, 3.150194e+2, 287358.03, -45392.95, -7988.7974, 0.08160269, -0.07996431, 287549.72, 287549.72, 0.0, 10.002766, 9.998356 
3.3490884e+2, 1.2502857e+2, -1891581.9, -1727812.9, 42328.42, 0.01414552, -0.028134514, -1717519.5, -2801.158, 0.000061273975, 9.998478, 10.000645 
3.3492082e+2, 1.3502961e+2, -1764778.9, -1579289.8, -70710.18, 0.12713921, -0.020032486, -1555408.9, 61297.863, 0.000025556885, 9.998519, 10.000972 
3.349316e+2, 1.450301e+2, -1683594.8, -1571224.8, -17699.473, 0.048630316, -0.03195997, -1568502.9, -49801.29, 0.0000055599335, 9.998754, 10.000237 
3.3494318e+2, 1.5503035e+2, -1531754.1, -1453145.8, -15740.103, -0.02314022, -0.02912835, -1450111.3, -29411.697, 0.00000016881297, 9.99915, 10.000184 
3.3495545e+2, 1.6503029e+2, -1442642.9, -1427962.9, -32210.213, -0.009080018, -0.020959193, -1402267.0, -79566.22, 0.0, 9.999384, 9.999572 
3.3496803e+2, 1.7502998e+2, -1333187.1, -1325443.3, -43525.008, 0.05221306, -0.010385999, -1285618.3, -60913.547, 0.0, 9.999468, 9.999561 
3.3497992e+2, 1.8502946e+2, -1212795.1, -1240896.0, -39389.91, 0.04410969, -0.0059274724, -1185024.8, -58315.31, 0.0, 9.999725, 9.999345 
3.349913e+2, 1.9502872e+2, -1051877.6, -1115625.3, -28253.55, -0.020015543, -0.016510854, -1041158.0, -12442.818, 0.0, 10.000169, 9.999319 
3.3500287e+2, 2.0502755e+2, -963790.8, -1102863.6, -44809.063, -0.041209083, -0.026992047, -950603.75, -19877.643, 0.0, 10.000447, 9.9986 
3.3501458e+2, 2.15026e+2, -849230.06, -997832.44, -49792.03, -0.022737479, -0.04512434, -834089.0, -1346.9297, 0.0, 10.000566, 9.99859 
3.350262e+2, 2.2502454e+2, -717995.2, -864685.8, -42887.59, -0.017228665, -0.058111206, -706376.5, 28378.76, 0.0, 10.0007105, 9.998762 
3.350378e+2, 2.3502316e+2, -594261.6, -755628.9, -32985.87, -0.022217287, -0.07355609, -587779.25, 48986.406, 0.0, 10.000893, 9.998751 
3.3504972e+2, 2.4502145e+2, -505496.0, -750278.44, -25334.666, -0.01509892, -0.07776285, -502901.4, 35880.188, 0.0, 10.00121, 9.997961 
3.3506185e+2, 2.5501946e+2, -342449.9, -622293.7, -38948.047, 0.002061146, -0.077502824, -337130.3, 103672.555, 0.0, 10.001663, 9.997949 
3.3507365e+2, 2.650176e+2, -195972.58, -450333.56, -48247.48, -0.005189977, -0.07852642, -187128.45, 155692.47, 0.0, 10.00178, 9.998401 
3.350851e+2, 2.750159e+2, -128785.42, -366812.1, -30432.926, -0.03414081, -0.09031216, -124956.02, 119879.73, 0.0, 10.001567, 9.998403 
3.3509734e+2, 2.85014e+2, -44892.016, -359419.03, -50.371178, -0.023016663, -0.08044775, -44892.008, 101961.516, 0.0, 10.001831, 9.997654 
3.3511028e+2, 2.9501203e+2, 156142.66, -215281.06, -9725.1875, 0.017183041, -0.0477403, 156397.13, 205270.67, 0.0, 10.002554, 9.9976225 
3.3512232e+2, 3.0500865e+2, 278978.47, -85865.555, -14844.385, -0.036480572, -0.16533887, 279581.47, 279581.47, 0.0, 10.002867, 9.99803 
3.3513534e+2, 3.1500757e+2, 323347.13, 27995.06, -15605.258, 0.04005792, -0.08046054, 324169.38, 324169.38, 0.0, 10.002772, 9.998857 
3.449071e+2, 1.2501581e+2, -1910384.3, -1752123.8, 55260.29, -0.0039579463, -0.026794367, -1734738.3, -19895.613, 0.000060228966, 9.998415, 10.000506 
3.4491965e+2, 1.3501664e+2, -1727615.8, -1577353.8, -74195.32, 0.14019938, -0.02828789, -1546893.0, 69941.17, 0.000025763518, 9.998839, 10.000831 
3.4493056e+2, 1.4501718e+2, -1634892.3, -1546010.3, -24814.031, 0.054888375, -0.027319165, -1539551.9, -20723.375, 0.000005876301, 9.999082, 10.000252 
3.4494233e+2, 1.5501744e+2, -1536528.8, -1453345.1, -26739.943, -0.021881843, -0.025027279, -1445491.0, -24665.186, 0.0000002059256, 9.999108, 10.000202 
3.449548e+2, 1.6501728e+2, -1457334.1, -1448272.5, -35274.07, -0.009417768, -0.023348892, -1417239.5, -94411.41, 0.0, 9.999341, 9.999453 
3.449676e+2, 1.7501675e+2, -1291818.1, -1318707.4, -35447.043, 0.04726635, -0.023303164, -1267351.6, -42517.227, 0.0, 9.999808, 9.999444 
3.449797e+2, 1.8501619e+2, -1169906.4, -1217753.3, -38487.566, 0.03979983, -0.017862776, -1148512.9, -21673.246, 0.0, 10.000009, 9.999368 
3.449914e+2, 1.950156e+2, -1084261.5, -1127653.4, -48773.16, -0.016274828, -0.015381394, -1052576.4, -23732.498, 0.0, 9.999934, 9.999349 
3.4500322e+2, 2.0501448e+2, -1006072.56, -1119903.8, -63655.543, -0.03669975, -0.023419596, -977598.4, -46744.152, 0.0, 10.000143, 9.998629 
3.4501514e+2, 2.1501288e+2, -835870.4, -988405.2, -56862.08, -0.026993848, -0.049486313, -817006.25, 15864.368, 0.0, 10.000644, 9.998618 
3.4502697e+2, 2.2501142e+2, -686197.2, -856234.3, -60136.805, -0.023707727, -0.0578169, -667078.4, 67805.29, 0.0, 10.000958, 9.998701 
3.450388e+2, 2.3501018e+2, -570888.06, -750986.8, -73491.96, -0.023878848, -0.056450963, -544705.1, 92188.43, 0.0, 10.001082, 9.998691 
3.450509e+2, 2.4500847e+2, -514835.75, -746726.0, -57538.137, -0.012676791, -0.061071545, -501344.0, 37565.49, 0.0, 10.001111, 9.998034 
3.4506327e+2, 2.5500634e+2, -426908.2, -654841.9, -36699.047, 0.007853866, -0.078294404, -421145.1, 19786.262, 0.0, 10.001048, 9.998022 
3.4507522e+2, 2.6500452e+2, -257581.0, -479556.13, -42079.355, -0.0011783447, -0.08210243, -249871.84, 93077.305, 0.0, 10.001354, 9.9984045 
3.4508684e+2, 2.7500293e+2, -62838.305, -335578.9, -58135.945, -0.037060525, -0.0827039, -50963.38, 193999.67, 0.0, 10.002021, 9.9984 
3.450994e+2, 2.8500104e+2, 14360.851, -325927.4, -27509.352, -0.019982357, -0.07564129, 16570.396, 163551.3, 0.0, 10.002216, 9.997699 
3.4511277e+2, 2.9499894e+2, 72883.2, -250778.28, -4452.436, 0.040475298, -0.059145488, 72944.445, 121946.336, 0.0, 10.001961, 9.997664 
3.4512508e+2, 3.0499583e+2, 204722.77, -105206.41, -11776.075, -0.016544731, -0.15565076, 205169.56, 205169.56, 0.0, 10.002287, 9.998174 
3.4513804e+2, 3.149949e+2, 363754.3, 28109.445, -71334.47, 0.012349362, -0.07201465, 378285.88, 378285.88, 0.0, 10.003136, 9.998681 
3.549057e+2, 1.2500294e+2, -1926064.4, -1783840.3, 79832.375, 0.015669229, -0.03270527, -1748040.5, -33073.563, 0.00005843651, 9.998409, 10.000293 
3.5491785e+2, 1.3500336e+2, -1742431.6, -1610075.0, -56387.87, 0.07606046, -0.050652783, -1589309.9, 27654.045, 0.000025162195, 9.998847, 10.000603 
3.5492906e+2, 1.4500393e+2, -1634707.9, -1548324.4, -23630.871, -0.008677864, -0.034800284, -1542282.5, -23323.979, 0.0000057861466, 9.999091, 10.000232 
3.5494214e+2, 1.5500428e+2, -1538170.0, -1456076.3, -25289.268, 0.05053029, -0.022465978, -1448911.1, -27956.287, 0.00000020730299, 9.9991045, 10.000186 
3.5495493e+2, 1.6500409e+2, -1455170.8, -1442932.4, -18043.822, 0.068872005, -0.022895426, -1429998.4, -107041.71, 0.0, 9.999336, 9.999491 
3.5496688e+2, 1.7500344e+2, -1288919.6, -1313462.1, -17095.102, -0.0021758024, -0.03931204, -1280147.4, -55183.926, 0.0, 9.999811, 9.999478 
3.5497907e+2, 1.8500265e+2, -1187477.9, -1254545.3, -41365.555, -0.02688354, -0.045389745, -1167761.1, -40789.895, 0.0, 10.00001, 9.999115 
3.5499164e+2, 1.9500175e+2, -1101446.5, -1163363.3, -51060.273, 0.014474356, -0.04941967, -1072692.5, -43712.645, 0.0, 9.999932, 9.999105 
3.5500383e+2, 2.0500079e+2, -992950.44, -1091675.3, -45054.465, 0.012673854, -0.04022696, -975480.56, -44491.594, 0.0, 10.000139, 9.998825 
3.5501567e+2, 2.1499978e+2, -822924.44, -960767.8, -37378.035, -0.039629336, -0.02561341, -813441.3, 19557.346, 0.0, 10.000641, 9.99881 
3.5502765e+2, 2.2499838e+2, -711945.4, -908805.25, -55732.98, -0.05290582, -0.02206656, -697262.0, 37750.066, 0.0, 10.000955, 9.9983425 
3.550399e+2, 2.349966e+2, -596461.2, -803692.44, -68431.88, -0.023359094, -0.036599632, -575903.06, 61125.996, 0.0, 10.0010805, 9.99833 
3.550521e+2, 2.4499488e+2, -477603.4, -669242.1, -60385.313, -0.0018140217, -0.052582514, -460163.16, 78881.695, 0.0, 10.00111, 9.998567 
3.5506433e+2, 2.5499323e+2, -388554.5, -575505.94, -39127.14, 0.009996203, -0.07638093, -380695.9, 60363.31, 0.0, 10.001049, 9.998566 
3.5507658e+2, 2.649914e+2, -287667.47, -541677.5, -17297.543, -0.0030368888, -0.08371193, -286494.94, 56581.457, 0.0, 10.001352, 9.997979 
3.5508883e+2, 2.7498937e+2, -94173.25, -399123.47, -32414.266, -0.038809713, -0.08478429, -90765.89, 154330.92, 0.0, 10.002014, 9.997966 
3.5510162e+2, 2.8498745e+2, 46618.617, -257707.52, -38071.637, -0.0190833, -0.08400368, 51309.14, 198424.22, 0.0, 10.002211, 9.998171 
3.5511482e+2, 2.9498568e+2, 107098.336, -180129.1, -13906.069, 0.04772937, -0.07973474, 107770.02, 156900.2, 0.0, 10.001963, 9.998149 
3.5512745e+2, 3.04983e+2, 166453.8, -185099.61, 19956.549, -0.010307443, -0.13357422, 167583.05, 167583.05, 0.0, 10.002288, 9.997625 
3.5514092e+2, 3.1498152e+2, 306337.66, -89456.53, -41601.996, -0.011555996, -0.051909123, 310663.16, 310663.16, 0.0, 10.003127, 9.997877 
3.6490437e+2, 1.2498951e+2, -1872888.0, -1763841.6, 57903.707, 0.024882302, -0.0467744, -1738831.0, -23733.293, 0.000055122826, 9.9988, 10.00024 
3.649165e+2, 1.349899e+2, -1782003.1, -1636723.5, -75127.11, 0.06926252, -0.061062563, -1604861.5, 12233.964, 0.000023501116, 9.998609, 10.000534 
3.6492777e+2, 1.4499058e+2, -1671848.4, -1572420.5, -29103.494, -0.031155763, -0.0279723, -1564528.1, -45438.8, 0.00000526637, 9.998863, 10.000176 
3.6494157e+2, 1.5499079e+2, -1479751.5, -1433625.3, -35122.496, 0.060432564, -0.023228308, -1414670.5, 6416.436, 0.00000017249042, 9.999529, 10.000134 
3.6495462e+2, 1.6499059e+2, -1390061.8, -1407276.5, -35492.02, 0.086160965, -0.02647678, -1362148.4, -39059.324, 0.0, 9.999764, 9.999529 
3.649665e+2, 1.7498998e+2, -1321826.1, -1324689.9, -34981.746, -0.006748811, -0.040728506, -1288247.0, -63152.027, 0.0, 9.999566, 9.999518 
3.6497882e+2, 1.8498921e+2, -1236057.1, -1290528.1, -49348.176, -0.036957566, -0.043625414, -1206927.6, -79824.74, 0.0, 9.999729, 9.999003 
3.649917e+2, 1.9498824e+2, -1059471.3, -1155588.4, -49629.563, 0.0139888115, -0.04315887, -1038445.0, -9332.245, 0.0, 10.000273, 9.998995 
3.650042e+2, 2.049872e+2, -939049.1, -1069419.4, -46647.406, 0.01760175, -0.03390722, -924077.6, 7045.0435, 0.0, 10.000524, 9.998794 
3.6501622e+2, 2.1498612e+2, -849708.9, -976766.7, -56456.08, -0.03340234, -0.02380653, -828248.3, 4884.44, 0.0, 10.00047, 9.998782 
3.6502847e+2, 2.2498466e+2, -762677.2, -932912.4, -68408.98, -0.047846526, -0.023527531, -738594.06, -3447.4458, 0.0, 10.000605, 9.998345 
3.650409e+2, 2.3498286e+2, -617468.8, -813413.2, -54851.004, -0.022257842, -0.039511, -603159.25, 34004.875, 0.0, 10.000935, 9.998334 
3.6505327e+2, 2.449812e+2, -456441.88, -650065.9, -54326.2, -0.0027718148, -0.05364413, -442240.8, 96938.48, 0.0, 10.001217, 9.998646 
3.6506554e+2, 2.5497967e+2, -324421.88, -536015.1, -67753.234, 0.008522349, -0.07304443, -304586.38, 136605.48, 0.0, 10.0014515, 9.998644 
3.6507806e+2, 2.6497787e+2, -258277.14, -534988.06, -39512.273, -0.00067479437, -0.07938776, -252745.66, 90463.24, 0.0, 10.001585, 9.997913 
3.6509076e+2, 2.7497578e+2, -154058.81, -435245.88, -28803.713, -0.028699959, -0.08237013, -151138.61, 94092.03, 0.0, 10.001634, 9.997901 
3.6510366e+2, 2.849738e+2, -1030.2644, -278337.1, -46500.117, -0.016678082, -0.084230326, 6559.372, 153808.89, 0.0, 10.001873, 9.998192 
3.6511672e+2, 2.94972e+2, 152582.48, -156371.56, -56291.555, 0.028567724, -0.08406567, 162519.23, 211783.86, 0.0, 10.002266, 9.998167 
3.651298e+2, 3.049697e+2, 208639.8, -163047.73, 213.52505, -0.01447931, -0.10336212, 208639.92, 208639.92, 0.0, 10.002569, 9.9976425 
3.6514413e+2, 3.1496766e+2, 255373.23, -126985.86, -25241.098, 0.012430499, -0.073878504, 257032.31, 257032.31, 0.0, 10.0028305, 9.997764 
3.749031e+2, 1.2497551e+2, -1865495.6, -1748934.3, 58735.76, 0.015749818, -0.06912828, -1724471.1, -9235.923, 0.00005010573, 9.998801, 10.000342 
3.7491566e+2, 1.3497625e+2, -1776013.4, -1623827.1, -81283.58, 0.1223693, -0.05822962, -1588577.6, 28651.523, 0.000020857056, 9.998605, 10.000625 
3.749268e+2, 1.4497714e+2, -1678792.6, -1585951.6, -4121.764, -0.011803689, -0.0057677757, -1585769.0, -66547.95, 0.000004428325, 9.998859, 10.000086 
3.7494048e+2, 1.54977e+2, -1485280.8, -1445944.6, -9426.449, 0.0006503242, -0.02747313, -1443802.4, -22579.965, 0.00000011962439, 9.999533, 10.000049 
3.749539e+2, 1.6497673e+2, -1386557.1, -1400875.4, -43225.336, 0.034194138, -0.033569645, -1349902.1, -26676.87, 0.0, 9.999767, 9.999572 
3.749665e+2, 1.7497638e+2, -1318634.9, -1318191.5, -42088.848, 0.033460815, -0.027941462, -1276323.8, -51094.766, 0.0, 9.999566, 9.999564 
3.74979e+2, 1.8497582e+2, -1234594.1, -1287073.0, -29331.016, 0.00903164, -0.012546866, -1221478.5, -94243.73, 0.0, 9.999727, 9.999028 
3.7499163e+2, 1.9497502e+2, -1058142.9, -1152523.3, -28610.875, -0.02025492, 0.0040903897, -1050147.1, -20904.406, 0.0, 10.000271, 9.999018 
3.750043e+2, 2.0497371e+2, -957086.75, -1106222.5, -48735.363, -0.024980014, -0.00411275, -942573.2, -11317.774, 0.0, 10.000521, 9.998543 
3.7501693e+2, 2.1497187e+2, -867453.75, -1013081.6, -57907.504, -0.010307341, -0.04445851, -847234.6, -13961.725, 0.0, 10.000467, 9.998534 
3.7502944e+2, 2.249703e+2, -737821.9, -880952.6, -56444.875, -0.01031413, -0.062194988, -718241.06, 17046.35, 0.0, 10.000603, 9.998703 
3.750418e+2, 2.3496898e+2, -592318.1, -760646.2, -42277.93, -0.02240189, -0.06491914, -582296.1, 55002.76, 0.0, 10.000932, 9.998697 
3.7505433e+2, 2.4496748e+2, -482420.1, -703107.7, -45836.473, -0.017922254, -0.064627394, -473278.6, 66034.27, 0.0, 10.001213, 9.998284 
3.7506694e+2, 2.5496572e+2, -350315.53, -589596.06, -58621.977, 0.0019873264, -0.068151996, -336725.44, 104603.805, 0.0, 10.001451, 9.998276 
3.750797e+2, 2.6496392e+2, -239070.52, -495323.0, -38399.613, 0.0045275814, -0.06882573, -233440.03, 109906.45, 0.0, 10.001586, 9.998185 
3.750926e+2, 2.7496207e+2, -134643.78, -393967.5, -26917.129, -0.009357829, -0.07591089, -131879.33, 113485.32, 0.0, 10.001629, 9.998187 
3.7510553e+2, 2.8496006e+2, -30130.436, -337051.75, -31837.008, -0.016044363, -0.077131286, -26862.766, 120521.555, 0.0, 10.001865, 9.997792 
3.751185e+2, 2.949579e+2, 123354.945, -216469.75, -40735.598, -0.019560786, -0.07222442, 128169.8, 177574.63, 0.0, 10.002264, 9.997755 
3.751322e+2, 3.0495593e+2, 246751.14, -83967.875, 8923.512, -0.032340217, -0.064736925, 246991.73, 246991.73, 0.0, 10.002569, 9.998186 
3.751476e+2, 3.1495354e+2, 291552.22, -48294.19, -17521.55, 0.07589805, -0.1285043, 292453.2, 292453.2, 0.0, 10.002816, 9.998311 
3.849017e+2, 1.2496161e+2, -1890631.4, -1755724.8, 55543.31, 0.0066276826, -0.056382466, -1735799.5, -20427.184, 0.00004363311, 9.998607, 10.000388 
3.8491473e+2, 1.3496225e+2, -1684110.9, -1578344.8, -99321.17, 0.14171772, -0.057184547, -1518705.3, 98661.42, 0.000017489165, 9.999229, 10.000636 
3.8492596e+2, 1.449632e+2, -1595545.3, -1544888.6, -21840.959, -0.012101227, 0.0031306543, -1536772.1, -17414.68, 0.0000034194288, 9.999426, 10.000094 
3.8493967e+2, 1.5496299e+2, -1548218.8, -1475197.9, -21898.232, -0.012107433, -0.027755482, -1469134.4, -47774.65, 0.00000006772674, 9.999096, 10.000058 
3.849533e+2, 1.6496271e+2, -1468664.0, -1444673.4, -52831.27, 0.026300246, -0.034346644, -1402492.8, -79129.95, 0.0, 9.999221, 9.999536 
3.8496628e+2, 1.749624e+2, -1279916.6, -1303358.9, -58340.996, 0.04316526, -0.019470373, -1232131.0, -6764.61, 0.0, 9.999846, 9.999531 
3.8497907e+2, 1.8496187e+2, -1174640.5, -1260567.8, -47969.676, 0.021362396, 0.00044988957, -1153207.3, -25835.135, 0.0, 10.000149, 9.999007 
3.8499182e+2, 1.9496104e+2, -1082911.4, -1166508.5, -51238.85, -0.020053415, 0.016455224, -1058584.8, -29204.51, 0.0, 10.000111, 9.998999 
3.8500467e+2, 2.0495966e+2, -997318.94, -1126645.8, -67374.33, -0.026345357, 0.0021417325, -968597.9, -37204.28, 0.0, 10.00025, 9.998532 
3.850175e+2, 2.1495768e+2, -851805.2, -1006381.3, -59387.81, -0.0030537173, -0.049123615, -831623.5, 1788.475, 0.0, 10.000579, 9.998527 
3.8503018e+2, 2.2495611e+2, -709132.4, -864934.4, -57859.23, -0.0035982274, -0.067363195, -689996.0, 45430.395, 0.0, 10.000791, 9.998722 
3.8504267e+2, 2.3495492e+2, -597682.75, -761018.0, -69821.945, -0.026184522, -0.060957164, -571904.1, 65532.727, 0.0, 10.000885, 9.998717 
3.8505542e+2, 2.4495341e+2, -504939.53, -723136.7, -72347.67, -0.022370785, -0.056936823, -483130.94, 56320.145, 0.0, 10.001098, 9.998202 
3.8506842e+2, 2.549516e+2, -358207.1, -602398.8, -65019.867, 0.0067214365, -0.0614213, -341973.72, 99495.24, 0.0, 10.001436, 9.998195 
3.8508135e+2, 2.6494983e+2, -231800.47, -490049.66, -52266.836, 0.011181214, -0.056204073, -221623.3, 121862.76, 0.0, 10.001629, 9.998201 
3.8509423e+2, 2.749481e+2, -128673.96, -389047.8, -60361.2, -0.008114604, -0.050825246, -115361.375, 130141.16, 0.0, 10.001661, 9.998206 
3.8510737e+2, 2.8494596e+2, -43246.67, -341904.3, -48700.34, -0.014477842, -0.064063, -35506.02, 112017.1, 0.0, 10.001767, 9.997807 
3.851207e+2, 2.9494345e+2, 82443.17, -235655.7, -28937.84, -0.011091873, -0.0966768, 85054.25, 134601.56, 0.0, 10.001979, 9.997761 
3.8513467e+2, 3.0494195e+2, 209686.6, -85369.016, 20801.88, -0.024060706, -0.049620423, 211145.94, 211145.94, 0.0, 10.002243, 9.998333 
3.8515002e+2, 3.149396e+2, 268077.34, -28523.115, -37726.402, 0.051359516, -0.124442115, 272800.78, 272800.78, 0.000000000002787424, 10.002519, 9.99859 
3.9490017e+2, 1.249478e+2, -1892964.3, -1758668.3, 86204.58, -0.006611379, -0.0068438393, -1716545.6, -1036.6764, 0.0000362571, 9.998599, 10.000371 
3.949138e+2, 1.3494787e+2, -1687576.3, -1587207.9, -74288.92, 0.12253073, -0.05839905, -1547741.1, 69767.23, 0.000013744367, 9.999236, 10.000573 
3.9492515e+2, 1.4494883e+2, -1588570.9, -1530785.1, -33829.78, -0.037768226, -0.0013671789, -1515189.1, 4309.651, 0.0000023661473, 9.999427, 10.000191 
3.949391e+2, 1.5494877e+2, -1541269.9, -1460504.1, -34271.805, 0.020964067, -0.024227468, -1447921.6, -26422.766, 0.000000028035489, 9.999095, 10.00016 
3.9495286e+2, 1.6494852e+2, -1477374.6, -1461917.0, -30186.83, 0.060991842, -0.028437933, -1438485.3, -114983.52, 0.0, 9.999217, 9.999419 
3.9496592e+2, 1.749481e+2, -1287952.5, -1319767.4, -34226.31, 0.020183854, -0.014999374, -1266117.6, -40610.54, 0.0, 9.999845, 9.99942 
3.9497897e+2, 1.8494736e+2, -1179347.6, -1270182.6, -49424.445, -0.0033599231, -0.0045818808, -1157641.9, -30127.074, 0.0, 10.000148, 9.998941 
3.9499226e+2, 1.9494629e+2, -1087741.4, -1176011.0, -52335.355, 0.012644276, -0.0065479595, -1063415.5, -33889.906, 0.0, 10.000108, 9.998935 
3.950053e+2, 2.0494504e+2, -981523.6, -1093358.3, -55363.992, 0.011707039, -0.015275496, -958752.25, -27214.912, 0.0, 10.000247, 9.998762 
3.95018e+2, 2.149436e+2, -836059.6, -972958.44, -46458.766, -0.013673563, -0.037391547, -821782.1, 11767.873, 0.0, 10.000575, 9.998757 
3.950307e+2, 2.2494215e+2, -731427.75, -910462.5, -54471.17, -0.030090865, -0.039266896, -716157.44, 19406.139, 0.0, 10.000788, 9.998411 
3.9504346e+2, 2.349407e+2, -619688.44, -806632.4, -65838.04, -0.034609333, -0.02845764, -598829.06, 38748.94, 0.0, 10.000885, 9.9984045 
3.9505655e+2, 2.4493904e+2, -492115.53, -696332.6, -60055.234, -0.017670445, -0.030878743, -475764.0, 63829.88, 0.0, 10.001097, 9.998386 
3.9507e+2, 2.5493723e+2, -345801.06, -574963.9, -52000.254, 0.019774698, -0.052903734, -334553.53, 107057.51, 0.0, 10.001429, 9.998387 
3.95083e+2, 2.6493552e+2, -248480.52, -523007.97, -51209.156, 0.016414952, -0.04194624, -239239.27, 104388.46, 0.0, 10.001621, 9.997978 
3.950957e+2, 2.7493387e+2, -144393.66, -422372.03, -58691.04, -0.026528155, -0.007414646, -132509.94, 113134.21, 0.0, 10.001664, 9.997976 
3.9510912e+2, 2.8493154e+2, -14674.6455, -283173.9, -41480.508, -0.0145313265, -0.044805128, -8412.37, 139253.39, 0.0, 10.00177, 9.998208 
3.9512327e+2, 2.9492867e+2, 108703.22, -177872.7, -20549.182, 0.048203122, -0.15493616, 110169.22, 159861.19, 0.0, 10.001965, 9.998165 
3.9513722e+2, 3.0492777e+2, 191743.0, -119212.484, 30822.09, 0.0065179225, -0.056758054, 194768.67, 194768.67, 0.0, 10.002229, 9.998108 
3.951514e+2, 3.149259e+2, 268689.84, -25875.15, -27580.984, -0.06388999, -0.059195466, 271250.06, 271250.06, 0.000000001718879, 10.002515, 9.99861 
4.0489903e+2, 1.2493338e+2, -1799606.4, -1710971.1, 88209.57, -0.013594533, -0.006531388, -1656572.1, 59078.418, 0.000028702449, 9.999229, 10.000395 
4.0491286e+2, 1.3493341e+2, -1758034.6, -1623670.5, -76812.91, 0.1302213, -0.059323877, -1588805.3, 28844.832, 0.000010028613, 9.998763, 10.000552 
4.0492418e+2, 1.4493445e+2, -1670969.6, -1574499.8, -35735.867, -0.046592075, 0.008389564, -1562704.3, -43064.484, 0.0000013962007, 9.998878, 10.000156 
4.0493846e+2, 1.5493421e+2, -1479200.5, -1434026.8, -48827.523, 0.027712613, -0.029264687, -1402815.0, 18826.53, 0.000000006286357, 9.999535, 10.00013 
4.0495247e+2, 1.6493389e+2, -1389461.4, -1423293.9, -41531.73, 0.06984169, -0.036312643, -1361533.0, -37887.77, 0.0, 9.999837, 9.999386 
4.0496564e+2, 1.7493352e+2, -1302441.1, -1330687.3, -40273.914, 0.013356413, -0.014248813, -1273885.8, -48235.676, 0.0, 9.999763, 9.999385 
4.0497887e+2, 1.8493277e+2, -1216364.3, -1287526.3, -53361.938, -0.013742132, -0.003564534, -1187808.6, -60150.566, 0.0, 9.999892, 9.998945 
4.0499243e+2, 1.9493164e+2, -1065973.1, -1164728.3, -51803.977, 0.012241157, -0.013665812, -1043784.0, -14114.495, 0.0, 10.000255, 9.99894 
4.0500566e+2, 2.0493045e+2, -941395.0, -1071163.4, -56384.746, 0.01448507, -0.017188786, -920318.75, 11361.945, 0.0, 10.000511, 9.998787 
4.050186e+2, 2.1492921e+2, -821995.1, -963097.94, -63613.473, -0.016349046, -0.021388566, -797550.9, 36140.793, 0.0, 10.000659, 9.998784 
4.050315e+2, 2.249278e+2, -729957.8, -917673.75, -72966.73, -0.0331437, -0.018095113, -704931.56, 30773.605, 0.0, 10.000833, 9.998341 
4.0504444e+2, 2.349262e+2, -603219.06, -806231.2, -66943.02, -0.03228713, -0.014578301, -583132.1, 54589.074, 0.0, 10.001032, 9.998337 
4.0505767e+2, 2.4492452e+2, -479761.56, -688723.06, -55164.16, -0.01826622, -0.01689348, -466092.78, 73644.79, 0.0, 10.001175, 9.998402 
4.050712e+2, 2.5492278e+2, -368768.06, -583945.1, -60432.816, 0.007883218, -0.03177904, -352957.2, 88796.79, 0.0, 10.001261, 9.998406 
4.050844e+2, 2.6492107e+2, -272481.94, -525001.5, -56279.72, 0.00606613, -0.02606747, -260506.63, 83263.75, 0.0, 10.001414, 9.998064 
4.050974e+2, 2.7491933e+2, -139659.95, -410819.8, -41946.99, -0.022394633, -0.008623417, -133319.25, 112467.734, 0.0, 10.001657, 9.998059 
4.0511096e+2, 2.849171e+2, -6988.555, -278913.5, -27863.73, -0.0077488357, -0.04696365, -4162.7666, 143645.34, 0.0, 10.001821, 9.998214 
4.0512514e+2, 2.9491434e+2, 95833.09, -183100.58, -36516.723, 0.046958204, -0.1442212, 100534.45, 150367.81, 0.0, 10.001872, 9.998174 
4.0513927e+2, 3.0491355e+2, 144499.92, -157628.3, 10390.673, 0.0075365193, -0.024806267, 144856.86, 144856.86, 0.0, 10.001971, 9.997968 
4.0515357e+2, 3.1491125e+2, 230458.23, -24385.736, -45818.79, -0.07928591, -0.05884482, 238445.72, 238445.72, 0.00000001196501, 10.002166, 9.998788 
4.148982e+2, 1.24918275e+2, -1794607.3, -1701044.0, 77345.61, -0.02009931, -0.061265204, -1657432.8, 58364.887, 0.000021697306, 9.999232, 10.000461 
4.1491196e+2, 1.3491887e+2, -1756209.6, -1620278.0, -93375.56, 0.16280375, -0.06161076, -1572752.1, 45039.85, 0.000006740833, 9.998763, 10.000576 
4.1492313e+2, 1.4492008e+2, -1684492.9, -1600841.0, -10616.877, -0.041710082, 0.03230882, -1599514.5, -79734.445, 0.0000006540361, 9.998871, 9.999979 
4.1493776e+2, 1.5491931e+2, -1490880.3, -1458496.9, -23397.957, 0.006920014, -0.04264953, -1446234.5, -24446.586, 0.0000000002364484, 9.999536, 9.999962 
4.149521e+2, 1.6491884e+2, -1386349.3, -1416915.9, -44777.94, 0.050539453, -0.057979804, -1354318.3, -30525.148, 0.0, 9.999838, 9.99943 
4.1496545e+2, 1.7491868e+2, -1299653.1, -1324405.4, -42880.344, 0.019865595, -0.017148942, -1267398.6, -41603.082, 0.0, 9.999761, 9.999429 
4.1497877e+2, 1.849181e+2, -1211508.6, -1276919.9, -40198.555, -0.01275823, 0.0034973293, -1192391.8, -64589.883, 0.0, 9.99989, 9.999019 
4.149923e+2, 1.9491707e+2, -1061232.9, -1154117.6, -37646.375, -0.022453789, -0.00422809, -1047891.1, -18079.041, 0.0, 10.000251, 9.999016 
4.1500586e+2, 2.0491588e+2, -954272.4, -1097178.0, -50950.566, -0.019580012, -0.0033792711, -937967.2, -6143.3926, 0.0, 10.000508, 9.99861 
4.1501924e+2, 2.1491452e+2, -834916.3, -989042.75, -57576.395, -0.013093745, -0.0014491866, -815783.0, 18054.033, 0.0, 10.000656, 9.998609 
4.150325e+2, 2.2491305e+2, -718746.94, -893869.06, -65707.914, -0.014855335, -0.004116805, -696834.4, 39016.92, 0.0, 10.00083, 9.998505 
4.1504556e+2, 2.3491143e+2, -591954.25, -781969.3, -59018.004, -0.021743339, -0.018587176, -575115.6, 62750.965, 0.0, 10.001027, 9.998505 
4.150588e+2, 2.4490982e+2, -490247.16, -709802.3, -52105.13, -0.026402911, -0.014550856, -478509.06, 61373.11, 0.0, 10.001171, 9.998259 
4.1507205e+2, 2.5490826e+2, -378866.88, -605196.25, -56830.816, -0.029689975, 0.0010797374, -365398.28, 76499.555, 0.0, 10.001262, 9.9982605 
4.1508558e+2, 2.649065e+2, -246132.56, -469931.88, -47705.83, -0.020866718, -0.008727166, -236387.73, 107526.4, 0.0, 10.001413, 9.998443 
4.1509926e+2, 2.7490452e+2, -114367.17, -355864.56, -32228.521, 0.00046912115, -0.052849155, -110140.17, 135790.97, 0.0, 10.001646, 9.998442 
4.1511288e+2, 2.8490245e+2, -34155.668, -333104.38, -26354.9, 0.0029053793, -0.07015523, -31850.041, 116100.27, 0.0, 10.00181, 9.997847 
4.151264e+2, 2.949004e+2, 70335.48, -236240.86, -34741.633, -0.014740188, -0.06696778, 74223.15, 124194.74, 0.0, 10.001873, 9.997808 
4.1514096e+2, 3.0489933e+2, 140124.1, -166836.17, 16958.516, -0.022972863, 0.045211148, 141058.16, 141058.16, 0.0, 10.001972, 9.997904 
4.1515642e+2, 3.148956e+2, 250404.0, 20724.484, -38836.156, -0.008356563, -0.12211831, 256793.02, 256793.02, 0.000000036873733, 10.0021515, 9.9991045 
4.2489752e+2, 1.249038e+2, -1814741.4, -1724342.5, 83698.91, -0.0040480155, -0.053667214, -1674418.4, 41520.97, 0.000015823704, 9.999156, 10.000338 
4.2491117e+2, 1.3490394e+2, -1659538.0, -1594276.3, -111065.05, 0.1717753, -0.08105076, -1511147.9, 106790.414, 0.0000041887733, 9.999516, 10.000391 
4.2492214e+2, 1.4490516e+2, -1573249.0, -1549837.8, -19144.293, -0.06271775, 0.024711614, -1539104.0, -19177.373, 0.00000021832761, 9.999646, 9.999955 
4.2493722e+2, 1.5490457e+2, -1509749.8, -1469888.0, -22199.238, 0.0042033843, -0.030406604, -1459985.3, -38052.402, 0.0, 9.999417, 9.999941 
4.249518e+2, 1.6490412e+2, -1434119.0, -1441075.3, -39671.188, 0.05388255, -0.042779546, -1397773.8, -73835.84, 0.0, 9.9995165, 9.999417 
4.2496523e+2, 1.7490381e+2, -1266416.3, -1309626.5, -43340.793, 0.012576764, -0.01685831, -1239594.0, -13652.135, 0.0, 9.999995, 9.999416 
4.2497867e+2, 1.8490322e+2, -1161111.3, -1249798.8, -45732.1, -0.025699165, 0.002479669, -1141754.1, -13806.016, 0.0, 10.000225, 9.999043 
4.249924e+2, 1.9490233e+2, -1068988.1, -1155110.4, -47418.31, -0.036154162, 0.007880636, -1047996.5, -18039.602, 0.0, 10.000187, 9.999039 
4.2500612e+2, 2.0490114e+2, -995179.06, -1118710.4, -56535.54, -0.028466797, 0.008518669, -973211.44, -41242.855, 0.0, 10.0002365, 9.998592 
4.2501977e+2, 2.1489961e+2, -876375.7, -1010810.06, -51704.7, -0.0109852785, -0.0043434203, -858790.0, -24806.568, 0.0, 10.000379, 9.998592 
4.2503327e+2, 2.2489813e+2, -743506.3, -893745.6, -50932.176, -0.00966919, -0.011597563, -727867.8, 8129.7764, 0.0, 10.000608, 9.998611 
4.2504653e+2, 2.348967e+2, -598434.9, -772755.7, -49544.434, -0.02190288, -0.018574458, -585337.7, 52673.13, 0.0, 10.000931, 9.998614 
4.250599e+2, 2.4489515e+2, -490530.6, -712769.2, -44487.805, -0.03005668, -0.01483973, -481955.84, 58069.945, 0.0, 10.001182, 9.998233 
4.250733e+2, 2.5489345e+2, -365727.63, -602111.06, -41431.04, -0.034831963, -0.008728433, -358676.3, 83366.336, 0.0, 10.001367, 9.998231 
4.2508698e+2, 2.6489168e+2, -236360.52, -469118.5, -42045.734, -0.024208656, -0.014565092, -228998.19, 115061.0, 0.0, 10.001496, 9.998409 
4.251009e+2, 2.748899e+2, -129360.34, -366186.94, -57524.01, 0.0028403385, -0.040166132, -116127.445, 129947.9, 0.0, 10.001556, 9.998414 
4.251146e+2, 2.8488788e+2, -58015.53, -343983.53, -53565.082, 0.0008881402, -0.05093571, -48311.477, 99782.65, 0.0, 10.001644, 9.997852 
4.2512804e+2, 2.9488572e+2, 56964.402, -241845.89, -36469.1, -0.030503295, -0.056834023, 61350.977, 111466.81, 0.0, 10.001778, 9.997816 
4.2514285e+2, 3.0488443e+2, 109042.984, -202029.83, 25303.037, -0.021181276, 0.042463485, 111087.73, 111087.73, 0.0, 10.001845, 9.997723 
4.251586e+2, 3.1488064e+2, 216735.77, 25157.592, -39694.168, 0.0109446505, -0.11479883, 224634.55, 224634.55, 0.00000007454206, 10.00183, 9.99929 
4.3489704e+2, 1.2489001e+2, -1839091.3, -1774045.8, 103810.58, 0.030535862, 0.020879192, -1697782.6, 18292.219, 0.0000113764345, 9.999153, 9.999998 
4.3491054e+2, 1.3488862e+2, -1686786.9, -1653812.1, -94962.34, 0.15512478, -0.11718601, -1573916.5, 44172.72, 0.0000025044064, 9.999527, 9.999978 
4.349213e+2, 1.4488968e+2, -1562462.9, -1529143.5, -27268.701, -0.11322906, -0.015299708, -1513848.1, 6231.215, 0.000000047491298, 9.999654, 10.000093 
4.3493673e+2, 1.5488999e+2, -1500334.9, -1449705.6, -30682.559, 0.016198972, 0.0063565513, -1435242.8, -13166.365, 0.0, 9.999414, 10.00008 
4.3495154e+2, 1.6488971e+2, -1440691.1, -1453225.6, -21974.172, 0.0765022, 0.009072696, -1424107.9, -100028.336, 0.0, 9.99951, 9.999337 
4.3496498e+2, 1.7488883e+2, -1272019.6, -1321061.1, -24462.066, -0.009924269, -0.012869591, -1261904.3, -35815.3, 0.0, 9.999994, 9.999338 
4.349786e+2, 1.8488808e+2, -1163392.9, -1253956.8, -47317.0, -0.054900516, -0.005857597, -1143181.6, -15084.554, 0.0, 10.000222, 9.999016 
4.349926e+2, 1.948874e+2, -1071214.0, -1159045.1, -48586.074, -0.031138845, 0.023030892, -1049637.8, -19533.771, 0.0, 10.000184, 9.999013 
4.350065e+2, 2.0488621e+2, -985685.3, -1098258.4, -51296.04, -0.014045996, 0.0183395, -965817.7, -33702.46, 0.0, 10.000233, 9.998734 
4.3502015e+2, 2.1488449e+2, -866714.75, -990117.1, -45759.28, -0.012109152, -0.029499244, -851598.3, -17467.402, 0.0, 10.000377, 9.998735 
4.3503374e+2, 2.2488306e+2, -740419.75, -886809.5, -39174.516, -0.019690104, -0.039668113, -730595.75, 5548.215, 0.0, 10.000606, 9.998661 
4.3504733e+2, 2.34882e+2, -595138.8, -765599.5, -37169.086, -0.03399601, -0.015502977, -587386.6, 50767.363, 0.0, 10.000929, 9.998665 
4.3506107e+2, 2.4488045e+2, -485008.22, -700607.5, -37872.88, -0.030814812, -0.018310092, -478548.84, 61619.844, 0.0, 10.001179, 9.998318 
4.3507493e+2, 2.5487837e+2, -360516.8, -590170.56, -34074.06, -0.011536001, -0.059363917, -355567.84, 86620.64, 0.0, 10.001361, 9.998316 
4.3508863e+2, 2.6487666e+2, -267097.47, -531698.44, -40069.715, -0.00723248, -0.042863704, -261162.66, 83042.95, 0.0, 10.001492, 9.997982 
4.3510222e+2, 2.748754e+2, -159735.06, -428661.34, -55080.305, -0.016650131, 0.027368594, -148891.03, 97328.664, 0.0, 10.001553, 9.997987 
4.3511605e+2, 2.8487328e+2, -33400.63, -291465.25, -48860.332, -0.015808232, 0.00959802, -24459.5, 123780.09, 0.0, 10.001638, 9.998216 
4.351301e+2, 2.9487032e+2, 81904.484, -188740.45, -30568.986, -0.006289494, -0.11062848, 85314.25, 135580.22, 0.0, 10.001772, 9.998183 
4.35145e+2, 3.048689e+2, 87917.31, -244102.28, 24312.477, 0.008263954, -0.030818406, 89688.17, 89688.17, 0.0, 10.001839, 9.9974375 
4.351601e+2, 3.1486621e+2, 219522.1, 33355.75, -37446.254, -0.024660515, -0.047786053, 226771.86, 226771.86, 0.0000001100893, 10.00182, 9.9993515 
4.4489646e+2, 1.2487529e+2, -1777692.8, -1747153.9, 88121.78, 0.037514817, 0.035300452, -1672988.4, 43231.31, 0.000008277144, 9.999588, 9.999971 
4.4491002e+2, 1.3487379e+2, -1714351.4, -1677410.5, -91489.164, 0.16159248, -0.10439657, -1602546.0, 15689.227, 0.0000015575915, 9.999382, 9.999887 
4.4492063e+2, 1.448748e+2, -1600015.4, -1558881.6, -22442.936, -0.13254654, 0.0034051072, -1549007.0, -28781.21, 0.000000013935479, 9.999447, 9.9999895 
4.4493634e+2, 1.548749e+2, -1464771.8, -1444076.0, -47898.176, 0.01952507, 0.013628356, -1405420.6, 16804.635, 0.0, 9.99971, 9.999977 
4.4495127e+2, 1.6487457e+2, -1387029.0, -1420166.8, -33592.273, 0.08367556, 0.012970138, -1366141.6, -41912.715, 0.0, 9.999848, 9.999401 
4.4496483e+2, 1.7487383e+2, -1286314.0, -1320257.5, -24727.705, -0.020732466, -0.0034747343, -1273294.1, -47057.62, 0.0, 9.999865, 9.999406 
4.4497856e+2, 1.8487309e+2, -1201952.9, -1276129.5, -47392.645, -0.06648631, 0.0048330915, -1178861.5, -50617.363, 0.0, 9.999974, 9.998983 
4.4499287e+2, 1.9487235e+2, -1073474.8, -1163907.1, -50174.71, -0.02531006, 0.03007969, -1051148.3, -20896.21, 0.0, 10.000186, 9.998979 
4.450069e+2, 2.048711e+2, -955497.0, -1073153.9, -51240.027, -0.003828261, 0.017683456, -936310.56, -4047.0078, 0.0, 10.000395, 9.998828 
4.4502062e+2, 2.1486937e+2, -827326.25, -960453.2, -49847.355, -0.011590978, -0.04169846, -810730.5, 23548.078, 0.0, 10.000602, 9.99883 
4.4503438e+2, 2.2486798e+2, -718550.5, -878889.25, -45572.863, -0.02392507, -0.05223805, -706502.6, 29788.545, 0.0, 10.000769, 9.998636 
4.4504818e+2, 2.3486698e+2, -602411.5, -772232.3, -49945.438, -0.038378496, -0.018344626, -588811.4, 49489.73, 0.0, 10.000893, 9.998636 
4.4506207e+2, 2.4486549e+2, -500754.16, -698117.4, -55035.473, -0.03823014, -0.017290173, -486444.78, 53870.438, 0.0, 10.001027, 9.998408 
4.4507602e+2, 2.548635e+2, -381672.28, -589184.7, -51215.043, -0.024462024, -0.059678573, -369720.53, 72613.24, 0.0, 10.001168, 9.998414 
4.4508994e+2, 2.648618e+2, -302983.1, -556656.1, -46163.17, -0.0132513195, -0.04711169, -294843.53, 49507.566, 0.0, 10.001279, 9.997912 
4.4510382e+2, 2.7486035e+2, -192520.64, -452867.5, -35832.184, -0.0022750457, 0.017986413, -187679.02, 58687.906, 0.0, 10.001364, 9.997911 
4.4511777e+2, 2.8485832e+2, -43430.258, -283959.8, -21521.475, -0.0011811669, 0.0038822559, -41519.79, 106866.52, 0.0, 10.001514, 9.998327 
4.4513178e+2, 2.9485556e+2, 80857.25, -175405.8, -22967.234, -0.010965137, -0.10621648, 82899.38, 133309.42, 0.0, 10.001705, 9.998307 
4.4514677e+2, 3.0485386e+2, 61125.633, -264793.94, 22383.088, 0.0100866845, -0.05918542, 62655.65, 62655.65, 0.00000000000009396187, 10.001687, 9.997369 
4.451617e+2, 3.148514e+2, 180220.6, 34380.27, -24374.225, -0.02415436, -0.043646254, 184186.4, 184186.4, 0.00000013361628, 10.001465, 9.999529 
4.5489576e+2, 1.2485955e+2, -1753880.8, -1700028.0, 84627.22, 0.008597832, -0.017043099, -1638146.8, 78228.14, 0.0000061456926, 9.9995985, 10.00029 
4.549097e+2, 1.3485946e+2, -1696865.1, -1640633.6, -97319.75, 0.18995263, -0.043375615, -1567449.6, 50926.547, 0.0000010596042, 9.999377, 10.000143 
4.549202e+2, 1.4486058e+2, -1626870.1, -1612955.3, -10986.391, -0.12247063, 0.08242831, -1606908.5, -86542.72, 0.000000007555667, 9.999439, 9.999622 
4.5493594e+2, 1.5485932e+2, -1490544.5, -1498166.8, -36872.867, 0.010882244, -0.0071494393, -1457286.4, -34906.625, 0.0, 9.999712, 9.999604 
4.54951e+2, 1.6485867e+2, -1370905.6, -1387649.9, -33560.086, 0.07167762, -0.030305924, -1344689.1, -20303.04, 0.0, 9.999852, 9.999622 
4.5496467e+2, 1.7485873e+2, -1270844.9, -1287567.9, -23589.023, -0.020987535, 0.010672903, -1254179.3, -27794.795, 0.0, 9.999862, 9.999632 
4.5497862e+2, 1.8485823e+2, -1205943.0, -1282756.8, -39303.18, -0.062092103, 0.033538256, -1189396.9, -61007.613, 0.0, 9.999968, 9.99894 
4.5499307e+2, 1.9485715e+2, -1077009.8, -1170599.1, -41717.688, -0.02094822, 0.02884755, -1061113.9, -30712.736, 0.0, 10.000183, 9.998934 
4.550073e+2, 2.048558e+2, -952985.6, -1067020.9, -43821.656, -0.00040177873, 0.00667206, -938091.2, -5677.574, 0.0, 10.000391, 9.998873 
4.5502123e+2, 2.1485423e+2, -824031.9, -953389.06, -41600.47, -0.010734998, -0.04086261, -811808.44, 22618.021, 0.0, 10.000601, 9.9988785 
4.5503515e+2, 2.2485283e+2, -726287.4, -894495.5, -41094.83, -0.023620471, -0.04986396, -716784.4, 19654.918, 0.0, 10.000767, 9.998531 
4.550491e+2, 2.3485161e+2, -610178.2, -788091.75, -45011.195, -0.036720663, -0.026412018, -599438.9, 39013.258, 0.0, 10.000891, 9.9985285 
4.5506293e+2, 2.4485026e+2, -494523.25, -684352.4, -50104.18, -0.05378952, -0.01112833, -482110.25, 58355.03, 0.0, 10.001023, 9.998505 
4.550767e+2, 2.5484878e+2, -375173.16, -573966.0, -45839.008, -0.0746425, -0.011992185, -365112.47, 77366.234, 0.0, 10.001162, 9.998523 
4.550909e+2, 2.6484698e+2, -284529.9, -517231.97, -43303.523, -0.04318259, -0.028261637, -276732.8, 67763.13, 0.0, 10.001273, 9.998186 
4.5510563e+2, 2.748448e+2, -173568.11, -413797.06, -31855.256, 0.041385837, -0.06596973, -169415.77, 77101.41, 0.0, 10.001365, 9.99818 
4.551197e+2, 2.8484297e+2, -53414.82, -303305.66, -14948.558, 0.040639322, -0.06673577, -52523.77, 96010.73, 0.0, 10.00151, 9.998197 
4.551331e+2, 2.948414e+2, 71295.1, -192461.73, -16320.029, -0.046322607, -0.046094075, 72301.07, 122849.53, 0.0, 10.001693, 9.998196 
4.5514816e+2, 3.0483922e+2, 68663.43, -246206.16, 13617.526, -0.017090835, -0.04403975, 69251.266, 69251.266, 0.00000000000087855477, 10.001675, 9.997502 
4.5516345e+2, 3.148361e+2, 200487.55, 76108.26, -29275.71, 0.003819815, -0.108674675, 207033.77, 207033.77, 0.00000014519496, 10.001467, 9.999815 
4.648951e+2, 1.2484437e+2, -1737785.1, -1685464.0, 94915.586, -0.018213648, -0.028757596, -1613169.8, 103354.164, 0.000004581255, 9.999684, 10.000345 
4.6490937e+2, 1.3484442e+2, -1671349.1, -1630171.4, -112590.8, 0.21126842, -0.039809395, -1536302.5, 82221.33, 0.0000007444035, 9.99956, 10.000127 
4.6491975e+2, 1.4484559e+2, -1599408.6, -1614064.1, -10026.931, -0.12066623, 0.09747885, -1594317.3, -73804.11, 0.0000000034677494, 9.99969, 9.999494 
4.6493566e+2, 1.5484409e+2, -1458354.3, -1496724.4, -18354.791, -0.000014328423, -0.0031542338, -1450988.1, -28458.473, 0.0, 9.999994, 9.999477 
4.6495086e+2, 1.6484334e+2, -1336069.9, -1370485.5, -25414.285, 0.06393911, -0.030703945, -1322585.8, 1951.2719, 0.0, 10.00009, 9.999626 
4.649647e+2, 1.7484343e+2, -1254836.6, -1279320.4, -33206.113, -0.010089947, 0.012728182, -1231687.8, -5153.3164, 0.0, 9.999969, 9.999637 
4.649787e+2, 1.8484288e+2, -1194048.4, -1279084.9, -43789.516, -0.052164014, 0.030409854, -1175531.3, -46991.72, 0.0, 10.000057, 9.998922 
4.6499324e+2, 1.9484164e+2, -1049461.9, -1159423.4, -43777.05, -0.03306686, 0.013590334, -1034162.4, -3609.5806, 0.0, 10.000381, 9.998916 
4.6500763e+2, 2.0484036e+2, -933283.9, -1056622.1, -53046.72, -0.013165477, -0.002082657, -913607.9, 18957.02, 0.0, 10.000523, 9.99888 
4.6502182e+2, 2.1483906e+2, -843920.8, -962287.44, -55137.33, -0.0031330069, -0.023533111, -822216.6, 12359.077, 0.0, 10.000462, 9.998884 
4.6503592e+2, 2.248377e+2, -756355.56, -904769.6, -46553.008, -0.009795707, -0.029655045, -742962.0, -6373.8843, 0.0, 10.000541, 9.998569 
4.6504995e+2, 2.3483633e+2, -624834.9, -790189.0, -39704.43, -0.031730693, -0.027236186, -615795.3, 22806.758, 0.0, 10.000771, 9.998572 
4.6506387e+2, 2.4483496e+2, -510284.4, -688073.75, -44322.15, -0.054193508, -0.016810747, -499847.72, 40767.473, 0.0, 10.000899, 9.998538 
4.650777e+2, 2.5483364e+2, -407569.88, -586548.25, -46272.15, -0.07659293, -0.006211094, -396314.7, 46312.758, 0.0, 10.000925, 9.99855 
4.6509203e+2, 2.6483187e+2, -303502.1, -503561.5, -46097.17, -0.043883346, -0.028395567, -293391.47, 51252.31, 0.0, 10.001044, 9.998391 
4.6510696e+2, 2.748297e+2, -174678.08, -390786.06, -40497.527, 0.04508841, -0.089122616, -167338.33, 79325.836, 0.0, 10.001257, 9.998389 
4.6512115e+2, 2.8482798e+2, -81396.24, -326075.8, -25885.998, 0.04635442, -0.08308506, -78687.61, 69992.5, 0.0, 10.001358, 9.998113 
4.6513468e+2, 2.9482666e+2, 12263.943, -229547.92, -25642.373, -0.039171826, -0.026196059, 14953.221, 65645.586, 0.0, 10.001325, 9.998118 
4.6514982e+2, 3.0482408e+2, 35735.496, -249541.13, 3505.523, -0.0041486975, -0.06836958, 35778.566, 35778.566, 0.00000000000042122027, 10.001393, 9.997615 
4.651649e+2, 3.148213e+2, 224940.31, 102092.41, -38687.742, -0.004248532, -0.11087243, 236108.67, 236108.67, 0.00000014428599, 10.001571, 9.999945 
4.7489446e+2, 1.248298e+2, -1755380.3, -1720772.4, 92806.85, -0.05076481, 0.0014991943, -1643670.1, 72996.73, 0.0000033199578, 9.999678, 10.000107 
4.74909e+2, 1.348287e+2, -1692446.8, -1676141.5, -114670.164, 0.21986054, -0.09188493, -1569334.6, 49343.477, 0.00000048107097, 9.999567, 9.999808 
4.7491932e+2, 1.4482984e+2, -1588711.4, -1594289.8, 1563.5176, -0.1333061, 0.04985147, -1588303.0, -67635.086, 0.000000000765976, 9.9997, 9.999625 
4.749355e+2, 1.5482919e+2, -1449153.4, -1476953.8, -6185.3354, -0.013939391, 0.024349779, -1447839.3, -25163.844, 0.0, 9.999991, 9.999615 
4.7495094e+2, 1.6482857e+2, -1352273.4, -1403058.6, -29444.117, 0.059041828, 0.011857335, -1338784.9, -14103.186, 0.0, 10.000085, 9.999405 
4.7496483e+2, 1.7482792e+2, -1270210.9, -1311646.9, -37017.34, 0.007502103, 0.0032145632, -1248508.1, -21821.604, 0.0, 9.99997, 9.999414 
4.7497886e+2, 1.8482701e+2, -1193086.1, -1277138.9, -32222.55, -0.041695945, -0.0034686734, -1182154.9, -53460.082, 0.0, 10.000057, 9.998936 
4.7499332e+2, 1.9482584e+2, -1048277.7, -1157140.5, -30956.73, -0.061977327, -0.01591636, -1040090.44, -9383.587, 0.0, 10.000381, 9.998931 
4.7500783e+2, 2.0482478e+2, -937178.06, -1063319.6, -55183.184, -0.043246917, -0.0092269, -916444.9, 16272.568, 0.0, 10.000517, 9.9988365 
4.750224e+2, 2.1482383e+2, -846952.8, -968542.4, -57243.457, 0.00896498, 0.009985149, -824244.2, 10482.172, 0.0, 10.000461, 9.998842 
4.750367e+2, 2.2482258e+2, -743944.1, -878537.44, -38675.09, 0.014811439, 0.008439937, -733622.5, 3115.1353, 0.0, 10.000539, 9.998751 
4.7505078e+2, 2.3482107e+2, -611590.06, -762123.0, -30757.227, -0.02528349, -0.021869447, -605548.2, 33202.93, 0.0, 10.000767, 9.998766 
4.750649e+2, 2.4481955e+2, -513301.47, -693936.5, -43569.99, -0.041823976, -0.035196725, -503341.38, 37423.75, 0.0, 10.000897, 9.9985 
4.7507903e+2, 2.5481802e+2, -410717.25, -593641.06, -45006.86, -0.034085687, -0.040779427, -400243.4, 42536.598, 0.0, 10.000927, 9.998501 
4.7509336e+2, 2.6481646e+2, -294603.28, -484625.84, -38556.676, -0.017840438, -0.046369463, -287077.9, 57716.664, 0.0, 10.001042, 9.998522 
4.7510785e+2, 2.748149e+2, -166162.61, -370341.7, -32419.531, 0.007866802, -0.053640384, -161138.66, 85669.555, 0.0, 10.001245, 9.998535 
4.7512218e+2, 2.8481328e+2, -85209.516, -332138.75, -27288.096, 0.015222969, -0.04657186, -82229.87, 66593.55, 0.0, 10.001349, 9.9980755 
4.751364e+2, 2.948114e+2, 10932.973, -233839.77, -26205.953, 0.004427543, -0.045978583, 13707.202, 64548.94, 0.0, 10.00133, 9.998087 
4.7515166e+2, 3.048084e+2, 42014.574, -236231.66, 9323.086, 0.04373862, -0.13284734, 42326.61, 42326.61, 0.0, 10.001393, 9.997706 
4.75166e+2, 3.1480682e+2, 222729.95, 101255.805, -25515.506, -0.0529655, -0.06399957, 227871.81, 227871.81, 0.00000012581201, 10.001555, 9.999946 
4.848939e+2, 1.2481492e+2, -1796018.8, -1743149.4, 87667.1, -0.05975154, 0.021140689, -1678018.1, 38795.12, 0.0000022837717, 9.999414, 10.000079 
4.849088e+2, 1.3481349e+2, -1641184.5, -1663111.6, -104661.84, 0.22171606, -0.09421704, -1546913.5, 71914.0, 0.0000002759338, 9.999969, 9.999705 
4.84919e+2, 1.4481454e+2, -1522168.4, -1563927.5, 6289.839, -0.15366204, 0.04362989, -1521241.5, -423.45374, 0.000000000009128432, 10.000164, 9.999609 
4.849355e+2, 1.5481398e+2, -1475449.5, -1491693.3, -16224.718, -0.008577615, 0.027334487, -1465427.4, -42602.94, 0.0, 9.999819, 9.999598 
4.84951e+2, 1.648133e+2, -1386744.0, -1433831.8, -30948.682, 0.06840477, 0.01626908, -1371401.8, -46570.61, 0.0, 9.999909, 9.999278 
4.8496494e+2, 1.7481245e+2, -1200214.3, -1291898.5, -31479.72, -0.0024322616, 0.0022356047, -1190446.4, 36391.73, 0.0, 10.000512, 9.999289 
4.849791e+2, 1.8481144e+2, -1112792.6, -1239083.0, -34622.22, -0.050384223, -0.008297963, -1103923.9, 24923.563, 0.0, 10.000609, 9.998932 
4.849937e+2, 1.9481026e+2, -1083224.3, -1174101.0, -35767.02, -0.04990826, -0.021588784, -1070835.9, -39976.832, 0.0, 10.000141, 9.998931 
4.850083e+2, 2.0480922e+2, -991744.4, -1091689.5, -47327.387, -0.029387303, -0.011418432, -972890.06, -40020.605, 0.0, 10.00015, 9.99882 
4.8502293e+2, 2.1480833e+2, -816882.0, -955674.0, -47227.582, 0.0046117976, 0.01614493, -802336.06, 32542.287, 0.0, 10.000674, 9.998828 
4.8503736e+2, 2.2480711e+2, -687939.8, -840444.56, -37380.086, 0.010273205, 0.012693956, -679270.5, 57618.81, 0.0, 10.000875, 9.998849 
4.8505163e+2, 2.3480555e+2, -610223.5, -750613.7, -37659.305, -0.012535898, -0.030814026, -600759.44, 38142.84, 0.0, 10.00073, 9.998863 
4.8506588e+2, 2.4480408e+2, -533584.75, -699176.1, -48454.945, -0.024575427, -0.048775632, -520448.16, 20467.61, 0.0, 10.000738, 9.99854 
4.8508e+2, 2.548026e+2, -410191.06, -588441.5, -44261.574, -0.026551595, -0.050480347, -399805.53, 43124.484, 0.0, 10.000911, 9.998544 
4.8509437e+2, 2.648011e+2, -304133.06, -486760.3, -39253.06, -0.015206078, -0.053662635, -296053.63, 48890.586, 0.0, 10.000968, 9.998543 
4.851089e+2, 2.7479962e+2, -216776.39, -392878.22, -42132.156, 0.011649968, -0.060375948, -207215.4, 39742.36, 0.0, 10.00089, 9.998552 
4.8512343e+2, 2.8479806e+2, -120503.414, -339741.0, -30741.959, 0.017372757, -0.049359318, -116274.29, 32697.787, 0.0, 10.001066, 9.998159 
4.8513782e+2, 2.9479632e+2, 45493.516, -206585.66, -22256.102, 0.0015937444, -0.04032668, 47443.426, 98431.95, 0.0, 10.001522, 9.998182 
4.8515323e+2, 3.0479306e+2, 76956.82, -215881.61, 5497.9595, 0.048877988, -0.16070186, 77060.01, 77060.01, 0.0, 10.001617, 9.997738 
4.851674e+2, 3.1479192e+2, 171017.4, 55642.457, -30474.1, -0.048975118, -0.049487554, 178571.9, 178571.9, 0.00000009052117, 10.00129, 9.999761 
4.9489334e+2, 1.2479972e+2, -1783451.0, -1716081.9, 107492.08, -0.055098746, 0.029457418, -1637120.1, 79843.68, 0.0000015131136, 9.999411, 10.000266 
4.949087e+2, 1.3479878e+2, -1633019.6, -1645905.8, -81138.63, 0.21581207, -0.04732904, -1558068.6, 60903.855, 0.00000014199817, 9.999967, 9.9998255 
4.9491888e+2, 1.447997e+2, -1534285.5, -1589055.0, -4807.7354, -0.18453963, 0.07984786, -1533866.8, -12903.084, 0.0, 10.000163, 9.999438 
4.9493548e+2, 1.5479842e+2, -1487567.6, -1517452.0, -28903.453, 0.010442927, 0.007932604, -1469972.5, -46995.95, 0.0, 9.999822, 9.999419 
4.9495107e+2, 1.647975e+2, -1387987.5, -1437619.6, -9886.735, 0.085883774, -0.014463987, -1386090.6, -61105.277, 0.0, 9.999914, 9.99925 
4.9496508e+2, 1.7479701e+2, -1201904.3, -1295859.5, -8002.151, -0.04040585, 0.009234914, -1201227.6, 25761.822, 0.0, 10.000513, 9.999262 
4.949794e+2, 1.8479615e+2, -1114932.8, -1242534.0, -51472.344, -0.07988208, 0.01590684, -1096758.3, 32239.115, 0.0, 10.000606, 9.99891 
4.949943e+2, 1.947949e+2, -1084367.0, -1176848.6, -53059.14, 0.00025075907, -0.0038892643, -1060226.8, -29217.256, 0.0, 10.000142, 9.998912 
4.95009e+2, 2.047937e+2, -991042.1, -1089574.9, -28754.693, 0.025046185, -0.00883837, -983264.56, -50243.586, 0.0, 10.000147, 9.9988365 
4.9502337e+2, 2.147926e+2, -815786.44, -953058.3, -26794.838, -0.017052045, -0.0059240307, -810741.6, 24290.063, 0.0, 10.000671, 9.998848 
4.9503788e+2, 2.2479129e+2, -688599.44, -840765.06, -42693.313, -0.025561394, -0.018118626, -677439.44, 59603.848, 0.0, 10.000871, 9.998849 
4.9505255e+2, 2.3478982e+2, -610324.5, -751152.9, -43032.53, 0.005439313, -0.05285495, -598216.25, 40839.33, 0.0, 10.0007305, 9.998859 
4.9506682e+2, 2.4478853e+2, -525728.0, -682401.0, -42650.605, -0.0033647257, -0.056384068, -514869.88, 26197.174, 0.0, 10.000735, 9.998656 
4.9508065e+2, 2.5478742e+2, -401875.88, -570116.4, -37529.645, -0.055025667, -0.03623389, -393883.72, 49193.977, 0.0, 10.000906, 9.9986725 
4.950951e+2, 2.6478583e+2, -310621.06, -499741.2, -42433.13, -0.037927, -0.051330023, -301536.66, 43556.285, 0.0, 10.000965, 9.998455 
4.951102e+2, 2.7478373e+2, -223073.9, -406817.94, -44711.613, 0.05208376, -0.10833705, -212771.58, 34341.21, 0.0, 10.000894, 9.998455 
4.951248e+2, 2.847823e+2, -107812.81, -312987.3, -14523.736, 0.049782693, -0.09023198, -106789.82, 42336.184, 0.0, 10.001064, 9.998344 
4.9513885e+2, 2.9478148e+2, 58400.81, -176342.89, -4459.4077, -0.047125764, -0.009160421, 58485.496, 109618.4, 0.0, 10.001508, 9.998397 
4.9515444e+2, 3.0477807e+2, 72464.89, -221229.77, -6226.853, 0.0114860535, -0.15156947, 72596.85, 72596.85, 0.0, 10.001601, 9.997709 
4.951692e+2, 3.1477657e+2, 146318.03, 5594.1084, -35658.08, -0.0029063905, -0.07194712, 154837.66, 154837.66, 0.000000050936965, 10.001286, 9.999418 
5.0489295e+2, 1.2478461e+2, -1655340.5, -1664408.9, 118559.164, -0.07963271, 0.034660734, -1541228.9, 175882.6, 0.0000009949754, 10.000337, 10.000174 
5.049087e+2, 1.3478358e+2, -1658273.8, -1676084.0, -89733.78, 0.22734708, -0.035889678, -1577004.4, 42117.13, 0.000000065122016, 9.999868, 9.999666 
5.049189e+2, 1.4478429e+2, -1569848.0, -1614526.3, -16541.695, -0.18804373, 0.08299708, -1564390.3, -43275.75, 0.0, 9.999955, 9.999364 
5.049357e+2, 1.5478277e+2, -1381872.8, -1474726.6, -35651.266, 0.010580533, -0.0048346356, -1369763.6, 53365.582, 0.0, 10.000583, 9.999347 
5.0495136e+2, 1.6478178e+2, -1285178.1, -1398420.4, -18108.855, 0.08650925, -0.027654594, -1282352.8, 42786.066, 0.0, 10.000663, 9.999159 
5.0496536e+2, 1.7478138e+2, -1266404.1, -1337235.0, -22037.33, -0.041351, 0.013826511, -1260107.5, -32964.848, 0.0, 10.000114, 9.99917 
5.049797e+2, 1.8478054e+2, -1185051.6, -1270098.3, -62637.527, -0.07904458, 0.024058098, -1151867.0, -22716.469, 0.0, 10.000097, 9.998966 
5.0499475e+2, 1.9477922e+2, -1000866.0, -1129823.3, -58849.418, 0.0045194356, -0.0066288644, -978047.7, 53114.836, 0.0, 10.000687, 9.998973 
5.0500953e+2, 2.0477796e+2, -889550.6, -1043142.6, -30594.096, 0.032095734, -0.019956542, -883680.9, 49493.473, 0.0, 10.000854, 9.998816 
5.050241e+2, 2.1477677e+2, -835099.7, -964648.06, -32837.1, -0.0096105365, -0.023050081, -827251.8, 7934.0137, 0.0, 10.000549, 9.998827 
5.0503856e+2, 2.2477548e+2, -746745.4, -867461.6, -52531.31, -0.021609353, -0.03447702, -727087.0, 10110.497, 0.0, 10.000465, 9.998862 
5.0505316e+2, 2.347741e+2, -625281.2, -756728.06, -52258.055, 0.0012488674, -0.061723158, -607037.5, 32171.703, 0.0, 10.000622, 9.998874 
5.0506747e+2, 2.4477284e+2, -525128.44, -678992.9, -50084.957, -0.008574822, -0.06266772, -510261.6, 30958.672, 0.0, 10.000727, 9.998684 
5.050815e+2, 2.5477174e+2, -418128.34, -575119.56, -52418.133, -0.053625952, -0.04536686, -402235.28, 40995.43, 0.0, 10.000782, 9.998698 
5.050961e+2, 2.6477015e+2, -319395.5, -503666.1, -59318.9, -0.03293827, -0.061938506, -301951.4, 43294.63, 0.0, 10.000905, 9.998457 
5.051112e+2, 2.74768e+2, -192838.14, -392424.13, -56334.523, 0.05600968, -0.120265335, -178035.23, 69231.21, 0.0, 10.001102, 9.998452 
5.051259e+2, 2.8476667e+2, -90955.38, -288602.75, -21988.576, 0.05104478, -0.099262536, -88538.67, 60740.027, 0.0, 10.001111, 9.998489 
5.0514e+2, 2.9476613e+2, -20959.37, -196496.36, -15646.597, -0.04782603, -0.0074198013, -19575.607, 31706.973, 0.0, 10.000886, 9.998557 
5.0515574e+2, 3.0476278e+2, -4825.1606, -233132.06, -11191.332, 0.017352575, -0.1642827, -4277.8867, -4277.8867, 0.0, 10.000962, 9.997934 
5.051705e+2, 3.1476158e+2, 148796.14, -9599.922, -18958.654, 0.0015459264, -0.07715072, 151033.72, 151033.72, 0.000000020855737, 10.001373, 9.999271 
5.1489264e+2, 1.2476955e+2, -1681875.3, -1720150.0, 96643.586, -0.14385192, 0.033632193, -1602492.5, 114764.32, 0.00000067894854, 10.000339, 9.99979 
5.149088e+2, 1.3476792e+2, -1688495.1, -1740018.9, -106035.06, 0.25112358, -0.057011493, -1605137.4, 14137.092, 0.000000029496794, 9.999872, 9.999227 
5.14919e+2, 1.4476834e+2, -1568646.1, -1613109.6, 5859.4966, -0.17130472, 0.05748346, -1567886.9, -46616.26, 0.0, 9.999959, 9.999372 
5.1493603e+2, 1.5476702e+2, -1379683.1, -1470995.0, -11381.844, -0.010704616, -0.011615236, -1378285.9, 44996.84, 0.0, 10.000586, 9.999371 
5.149518e+2, 1.6476609e+2, -1295096.0, -1419291.6, -38486.344, 0.06782133, -0.023362389, -1284136.8, 41155.086, 0.0, 10.000664, 9.999015 
5.1496583e+2, 1.7476551e+2, -1276363.5, -1358518.9, -42612.465, -0.008536053, 0.015598687, -1258253.4, -30955.436, 0.0, 10.000116, 9.999023 
5.149801e+2, 1.8476458e+2, -1175849.9, -1251149.8, -41976.984, -0.052428342, 0.016842162, -1157112.0, -27805.258, 0.0, 10.000097, 9.999097 
5.14995e+2, 1.9476323e+2, -991359.94, -1110031.5, -36166.906, -0.038037587, -0.03014117, -981206.25, 50111.953, 0.0, 10.000685, 9.99911 
5.1500994e+2, 2.04762e+2, -894761.7, -1052402.1, -41699.668, -0.010408391, -0.045482367, -884410.8, 48918.793, 0.0, 10.000847, 9.9987545 
5.150249e+2, 2.1476088e+2, -839631.3, -974318.75, -43979.434, 0.024957424, -0.03500622, -826542.6, 8798.079, 0.0, 10.000549, 9.998761 
5.1503944e+2, 2.2475965e+2, -745060.5, -863473.2, -47426.688, 0.01980336, -0.036682405, -728407.25, 8944.825, 0.0, 10.0004635, 9.99889 
5.150535e+2, 2.3475836e+2, -622911.56, -751895.4, -45898.04, -0.026305774, -0.058851738, -608246.44, 31116.959, 0.0, 10.000621, 9.998908 
5.150679e+2, 2.44757e+2, -530087.7, -688984.0, -48498.227, -0.042678032, -0.06971532, -516454.75, 24920.92, 0.0, 10.000726, 9.998616 
5.150826e+2, 2.5475556e+2, -423480.4, -585859.5, -50128.91, -0.024985451, -0.0770181, -409251.66, 34137.277, 0.0, 10.00078, 9.998625 
5.1509726e+2, 2.6475406e+2, -314471.84, -492594.63, -52080.016, -0.0018840675, -0.084271625, -300362.22, 45041.13, 0.0, 10.0009, 9.998535 
5.15112e+2, 2.7475247e+2, -187504.66, -380375.38, -48108.74, 0.023541635, -0.096836716, -176170.69, 71248.164, 0.0, 10.001098, 9.998538 
5.1512665e+2, 2.847512e+2, -84966.164, -274360.06, -30244.922, 0.019633597, -0.07760111, -80253.516, 69176.836, 0.0, 10.001103, 9.99859 
5.151413e+2, 2.9475027e+2, -13981.311, -180625.19, -23607.715, -0.007483887, -0.03555368, -10701.461, 40736.2, 0.0, 10.00088, 9.998669 
5.1515716e+2, 3.0474716e+2, 26520.814, -166624.03, 2570.4978, 0.060895193, -0.19934982, 26555.018, 26555.018, 0.0, 10.000956, 9.998395 
5.151715e+2, 3.1474686e+2, 150913.9, -2366.9417, 3553.1956, -0.035740525, -0.06632345, 150996.23, 150996.23, 0.0000000053166334, 10.001361, 9.999328 
5.2489257e+2, 1.2475375e+2, -1737639.6, -1752175.9, 54524.168, -0.16794233, 0.011536765, -1689901.3, 27509.16, 0.0000005002885, 9.999982, 9.999741 
5.249091e+2, 1.3475202e+2, -1598791.6, -1707728.5, -120056.805, 0.25807247, -0.07863423, -1521425.3, 98003.92, 0.000000016983103, 10.000535, 9.999129 
5.249193e+2, 1.4475237e+2, -1463151.9, -1567516.6, 7051.712, -0.17906503, 0.036451925, -1462677.6, 58748.53, 0.0, 10.000706, 9.999325 
5.249364e+2, 1.5475124e+2, -1425947.5, -1498401.0, -17287.7, -0.018286388, -0.010740112, -1422033.9, 1402.7487, 0.0, 10.000291, 9.999324 
5.249523e+2, 1.6475026e+2, -1359719.9, -1452516.1, -48892.203, 0.06633144, -0.023127193, -1338714.5, -13268.311, 0.0, 10.000229, 9.998998 
5.249663e+2, 1.7474942e+2, -1206964.8, -1327453.9, -45059.508, 0.0057480694, -0.008961681, -1191977.9, 35476.777, 0.0, 10.000602, 9.999003 
5.249806e+2, 1.8474841e+2, -1090009.3, -1217962.1, -35414.043, -0.042115096, -0.009358012, -1080861.5, 48602.79, 0.0, 10.000721, 9.999024 
5.2499545e+2, 1.9474724e+2, -1017437.5, -1130354.9, -46176.367, -0.056541327, -0.031781036, -1000958.94, 30515.916, 0.0, 10.000541, 9.999039 
5.2501035e+2, 2.047461e+2, -947909.5, -1068010.1, -66332.68, -0.030379966, -0.03809952, -918483.25, 15002.265, 0.0, 10.000439, 9.998844 
5.250255e+2, 2.14745e+2, -850703.4, -969019.75, -57852.414, 0.033836126, -0.03456308, -827117.44, 8378.63, 0.0, 10.000428, 9.998856 
5.250401e+2, 2.2474386e+2, -740347.6, -867556.56, -45226.57, 0.03897487, -0.031826954, -725907.44, 11599.494, 0.0, 10.000524, 9.998835 
5.250543e+2, 2.3474264e+2, -610159.44, -752082.8, -50963.586, -0.018244935, -0.03894546, -593755.0, 45763.188, 0.0, 10.000736, 9.998851 
5.2506864e+2, 2.4474126e+2, -517189.72, -678872.25, -60435.902, -0.039398447, -0.051479675, -497096.3, 44434.6, 0.0, 10.000798, 9.998651 
5.250833e+2, 2.5473967e+2, -434851.44, -587077.5, -55456.37, -0.020613657, -0.07798346, -416791.22, 26754.045, 0.0, 10.000685, 9.998662 
5.250981e+2, 2.647382e+2, -340380.03, -496122.66, -45911.676, 0.00055308535, -0.08720224, -327853.22, 17705.78, 0.0, 10.000684, 9.998614 
5.251129e+2, 2.7473685e+2, -225094.31, -388686.7, -41976.426, 0.02208122, -0.08536572, -214952.28, 32619.828, 0.0, 10.000798, 9.998624 
5.251277e+2, 2.847356e+2, -118180.9, -294055.28, -36265.457, 0.02150772, -0.066534005, -110996.414, 38587.18, 0.0, 10.000892, 9.998557 
5.251423e+2, 2.947345e+2, -4909.9897, -180920.5, -41569.25, 0.0039263936, -0.035878237, 4413.721, 56006.777, 0.0, 10.000962, 9.998627 
5.251582e+2, 3.0473167e+2, 52404.887, -111355.555, -15811.83, 0.07334574, -0.1914367, 53917.617, 53917.617, 0.0, 10.000949, 9.998778 
5.251726e+2, 3.1473157e+2, 73265.72, -36041.227, -13913.024, -0.03623082, -0.07322244, 75008.83, 75008.83, 0.00000000056215, 10.00081, 9.999362 
5.3489256e+2, 1.2473721e+2, -1718720.9, -1713659.1, 67718.555, -0.16367449, -0.029188683, -1648424.3, 69148.2, 0.00000041209, 9.999984, 10.000004 
5.349095e+2, 1.3473585e+2, -1581005.5, -1673173.5, -97390.75, 0.24476717, -0.10208275, -1519345.9, 100240.06, 0.000000018082496, 10.000543, 9.999364 
5.349196e+2, 1.4473636e+2, -1469059.4, -1580487.0, -7907.6875, -0.21535955, 0.019004956, -1468501.0, 53080.26, 0.0, 10.000709, 9.999234 
5.349367e+2, 1.547354e+2, -1433189.3, -1513414.9, -33375.96, -0.015672786, -0.0016301573, -1421119.8, 2471.4019, 0.0, 10.000291, 9.999221 
5.349526e+2, 1.647343e+2, -1353063.1, -1438849.4, -36500.56, 0.07713351, -0.024751594, -1339634.8, -14033.01, 0.0, 10.000229, 9.999091 
5.349668e+2, 1.7473306e+2, -1199416.5, -1312446.9, -30365.746, -0.0007959461, -0.059939157, -1191775.3, 35837.7, 0.0, 10.000604, 9.999106 
5.349812e+2, 1.8473202e+2, -1109343.0, -1257658.0, -42158.65, -0.051177856, -0.055147402, -1098197.0, 31426.39, 0.0, 10.000719, 9.998753 
5.34996e+2, 1.9473124e+2, -1037253.9, -1171684.6, -52937.156, -0.053128727, -0.012919915, -1018910.8, 12721.819, 0.0, 10.000541, 9.998756 
5.350109e+2, 2.0473026e+2, -931661.44, -1033514.4, -67235.77, -0.03015601, 0.0014807418, -898242.44, 35399.73, 0.0, 10.000436, 9.999083 
5.350257e+2, 2.1472915e+2, -833391.3, -932780.7, -57850.39, 0.015476118, -0.022538612, -806821.8, 28830.086, 0.0, 10.000426, 9.999105 
5.350406e+2, 2.2472803e+2, -750623.9, -888206.94, -37981.875, 0.033363722, -0.0216743, -740834.94, -3172.6157, 0.0, 10.00052, 9.998693 
5.350554e+2, 2.3472695e+2, -620945.94, -774391.44, -42537.67, 0.02309766, -0.0022637679, -609942.8, 29730.734, 0.0, 10.000735, 9.998699 
5.350698e+2, 2.447256e+2, -508374.38, -659676.4, -64372.367, -0.0012897886, -0.008739059, -484693.22, 56992.85, 0.0, 10.000793, 9.998785 
5.3508383e+2, 2.54724e+2, -425028.25, -567047.1, -59212.035, -0.041610934, -0.049784865, -403580.13, 40119.785, 0.0, 10.000686, 9.9988 
5.350985e+2, 2.647225e+2, -335134.75, -484816.6, -42140.906, -0.02715873, -0.072806224, -324086.1, 21627.238, 0.0, 10.000683, 9.9986925 
5.3511393e+2, 2.7472106e+2, -220408.28, -377206.3, -37430.555, 0.04699111, -0.08615811, -211931.22, 35795.24, 0.0, 10.000791, 9.998707 
5.3512883e+2, 2.8471982e+2, -130495.84, -317553.16, -33944.883, 0.05235356, -0.06592358, -124526.44, 25212.1, 0.0, 10.000882, 9.998401 
5.3514314e+2, 2.947188e+2, -17545.766, -206613.34, -37569.16, -0.012597618, -0.0088384515, -10354.047, 41394.684, 0.0, 10.000959, 9.998453 
5.35159e+2, 3.0471626e+2, 72439.44, -67940.31, -20786.232, 0.05453834, -0.14237607, 75452.61, 75452.61, 0.0, 10.000942, 9.99908 
5.3517365e+2, 3.1471574e+2, 72119.29, -34318.8, -11301.419, -0.0108448295, -0.096873544, 73306.02, 73306.02, 0.0000000000003731001, 10.000793, 9.999381 
5.4489285e+2, 1.2472106e+2, -1636741.4, -1664772.4, 79349.516, -0.16039242, -0.038391076, -1570179.1, 147551.97, 0.00000036785775, 10.000506, 10.000087 
5.449099e+2, 1.347199e+2, -1583769.1, -1667637.8, -91507.87, 0.23870079, -0.098774485, -1525044.8, 94697.12, 0.000000024396927, 10.000494, 9.999426 
5.449199e+2, 1.4472032e+2, -1501933.1, -1596324.6, -23336.494, -0.23851526, 0.012798834, -1496478.8, 25258.81, 0.0, 10.000484, 9.999233 
5.449371e+2, 1.5471932e+2, -1410676.6, -1503071.0, -45460.617, -0.011589504, -0.01107565, -1392059.9, 31688.238, 0.0, 10.000447, 9.999216 
5.44953e+2, 1.6471821e+2, -1317078.9, -1426640.0, -31562.475, 0.08431671, -0.033367723, -1308636.8, 17122.209, 0.0, 10.000499, 9.999044 
5.449673e+2, 1.74717e+2, -1201087.8, -1317805.3, -36725.902, -0.012450221, -0.062651195, -1190493.4, 37276.78, 0.0, 10.000615, 9.999063 
5.449818e+2, 1.8471596e+2, -1124006.5, -1265890.6, -58135.023, -0.06252928, -0.054239925, -1103229.1, 26551.422, 0.0, 10.000625, 9.998741 
5.4499656e+2, 1.9471516e+2, -1039508.25, -1173935.0, -49857.773, -0.045306653, -0.010823187, -1023035.06, 8754.953, 0.0, 10.00053, 9.998746 
5.450114e+2, 2.0471422e+2, -912268.1, -1022912.8, -53249.0, -0.021981979, 0.0060090097, -890804.94, 42994.57, 0.0, 10.000563, 9.999094 
5.450262e+2, 2.1471316e+2, -787448.06, -908882.9, -62133.9, 0.0034521956, -0.014987849, -761290.7, 74518.16, 0.0, 10.000734, 9.999121 
5.45041e+2, 2.2471201e+2, -727470.56, -874085.94, -49739.95, 0.01779771, -0.017814398, -712188.9, 25630.486, 0.0, 10.000667, 9.998719 
5.450559e+2, 2.3471084e+2, -677789.4, -798528.75, -42194.09, 0.021816557, -0.00959359, -664505.56, -24674.365, 0.0, 10.000332, 9.998727 
5.450704e+2, 2.4470957e+2, -573400.25, -687249.8, -53034.47, 0.004195868, -0.012786695, -552523.44, -10680.211, 0.0, 10.000332, 9.998817 
5.4508454e+2, 2.547082e+2, -419765.2, -560561.3, -55781.953, -0.037243024, -0.034273237, -400343.94, 43511.39, 0.0, 10.000707, 9.998834 
5.4509926e+2, 2.6470676e+2, -317529.3, -471294.1, -50841.58, -0.023571204, -0.055082172, -302239.22, 43628.945, 0.0, 10.000782, 9.998737 
5.4511464e+2, 2.747052e+2, -257248.38, -390114.03, -50247.332, 0.049458984, -0.08759232, -240385.86, 7496.3477, 0.0, 10.000517, 9.99875 
5.451296e+2, 2.8470388e+2, -184231.44, -339274.75, -32245.568, 0.0546814, -0.0769146, -177792.48, -27897.578, 0.0, 10.000495, 9.998438 
5.4514396e+2, 2.9470298e+2, -47229.01, -216298.95, -21249.242, -0.0086943945, -0.012999162, -44599.242, 7305.5283, 0.0, 10.000737, 9.998491 
5.451599e+2, 3.0470097e+2, 55074.12, -63684.047, -14622.382, 0.06089477, -0.099202424, 56848.04, 56848.04, 0.0, 10.000768, 9.999192 
5.451744e+2, 3.147003e+2, 31195.313, -64352.03, -14771.418, 0.001964456, -0.08012966, 33426.824, 33426.824, 0.000000000015387011, 10.000556, 9.9992895 
5.548933e+2, 1.2470528e+2, -1641298.9, -1675317.5, 69667.95, -0.16343595, -0.017096827, -1586593.9, 131292.66, 0.0000003291145, 10.000512, 10.000012 
5.549104e+2, 1.3470414e+2, -1589318.5, -1680174.6, -91349.39, 0.23708458, -0.06656399, -1532724.9, 87171.734, 0.000000025104656, 10.000498, 9.999337 
5.549203e+2, 1.4470431e+2, -1497075.0, -1586973.6, -25030.527, -0.2535139, 0.019969115, -1490575.6, 31318.941, 0.0, 10.000486, 9.999297 
5.5493754e+2, 1.5470304e+2, -1404798.8, -1491695.5, -46224.32, -0.008990561, -0.03922151, -1384808.6, 39098.824, 0.0, 10.000449, 9.999294 
5.549535e+2, 1.6470198e+2, -1330340.1, -1453184.3, -28038.32, 0.08503655, -0.049862243, -1324243.3, 1674.7391, 0.0, 10.000495, 9.998864 
5.549677e+2, 1.747012e+2, -1214739.4, -1345748.1, -32384.672, -0.031198675, -0.01713959, -1207171.3, 20754.797, 0.0, 10.000613, 9.998871 
5.5498224e+2, 1.847002e+2, -1107044.6, -1230395.5, -61932.684, -0.07877197, -0.0062486473, -1081315.6, 48620.195, 0.0, 10.000623, 9.998986 
5.549972e+2, 1.9469903e+2, -1021586.0, -1136507.5, -53057.617, -0.03469846, -0.025468044, -1000836.44, 31110.676, 0.0, 10.000528, 9.999003 
5.550121e+2, 2.0469797e+2, -927394.75, -1053319.3, -47425.21, -0.007894889, -0.025480155, -911531.94, 22425.635, 0.0, 10.000559, 9.998887 
5.5502677e+2, 2.14697e+2, -803608.6, -941495.2, -55310.098, -0.004422546, -0.0122813415, -784164.25, 51802.707, 0.0, 10.00073, 9.998899 
5.550414e+2, 2.2469582e+2, -714863.25, -846904.56, -62163.85, -0.009335847, -0.020297738, -690202.75, 47775.36, 0.0, 10.000662, 9.998908 
5.550558e+2, 2.3469435e+2, -663765.9, -769673.0, -54644.69, -0.022518352, -0.060136225, -640626.6, -635.451, 0.0, 10.000333, 9.998924 
5.550705e+2, 2.4469313e+2, -578003.25, -696643.75, -40128.8, -0.0236915, -0.06350874, -565704.94, -23702.457, 0.0, 10.000331, 9.998753 
5.5508554e+2, 2.5469223e+2, -425167.72, -570727.56, -41282.21, -0.010567825, -0.03169887, -414274.84, 29736.824, 0.0, 10.000701, 9.998766 
5.551003e+2, 2.6469094e+2, -317409.3, -469903.72, -60345.633, 0.007947943, -0.034434326, -296418.5, 49605.09, 0.0, 10.000776, 9.99875 
5.551149e+2, 2.7468914e+2, -256577.11, -389698.34, -59739.555, 0.02920878, -0.090038255, -233699.88, 14339.506, 0.0, 10.00052, 9.998752 
5.5512977e+2, 2.8468776e+2, -169657.28, -308642.78, -24063.953, 0.028308561, -0.09952364, -165608.77, -15555.943, 0.0, 10.000494, 9.998649 
5.551449e+2, 2.9468694e+2, -33810.164, -184748.9, -11984.828, 0.010082426, -0.04682546, -32864.473, 19197.012, 0.0, 10.000721, 9.998716 
5.551609e+2, 3.0468577e+2, 49735.203, -71234.22, -23139.516, 0.08656602, -0.060892858, 54010.336, 54010.336, 0.0, 10.000752, 9.999147 
5.55175e+2, 3.1468529e+2, 20184.943, -88207.1, -16085.616, -0.00081152, -0.020244587, 22521.707, 22521.707, 0.0000000020600701, 10.00056, 9.999124 
5.648939e+2, 1.2468972e+2, -1598415.5, -1658587.4, 64904.297, -0.16644694, 0.018294448, -1556963.1, 161076.83, 0.00000027083397, 10.000827, 9.999972 
5.6491095e+2, 1.3468827e+2, -1588847.0, -1684355.8, -86990.45, 0.24353585, -0.060310017, -1537365.3, 82687.19, 0.000000017878008, 10.000519, 9.999299 
5.649208e+2, 1.4468813e+2, -1494365.6, -1594962.0, -11838.59, -0.2540772, 0.0022983963, -1492991.3, 29061.932, 0.0, 10.000545, 9.999214 
5.649383e+2, 1.5468696e+2, -1345138.4, -1471773.4, -45045.3, -0.0012537458, -0.03794805, -1330750.1, 93315.06, 0.0, 10.000899, 9.999213 
5.649542e+2, 1.6468598e+2, -1269459.8, -1423803.4, -36230.33, 0.0888267, -0.038523033, -1261378.3, 64697.063, 0.0, 10.000916, 9.998862 
5.649682e+2, 1.7468518e+2, -1224019.3, -1350561.5, -28430.363, -0.040781423, -0.0055902735, -1217925.3, 10158.223, 0.0, 10.000551, 9.998868 
5.6498265e+2, 1.8468416e+2, -1126618.9, -1229973.8, -49521.047, -0.08826961, -0.0024215828, -1106722.0, 23371.264, 0.0, 10.000446, 9.999074 
5.649978e+2, 1.9468291e+2, -999754.56, -1115331.0, -53614.75, -0.03145039, -0.038236186, -978713.75, 53390.527, 0.0, 10.000633, 9.999098 
5.650127e+2, 2.046818e+2, -932457.06, -1068118.1, -54845.895, -0.0025721435, -0.04250775, -913057.7, 21057.305, 0.0, 10.000578, 9.998776 
5.650273e+2, 2.1468082e+2, -881678.5, -991944.2, -55804.324, -0.008522919, -0.019709084, -858365.5, -22240.129, 0.0, 10.00025, 9.998784 
5.650417e+2, 2.246796e+2, -774250.4, -866179.25, -59150.637, -0.016030343, -0.026129961, -745304.7, -7168.0396, 0.0, 10.000215, 9.998991 
5.650562e+2, 2.3467816e+2, -630801.6, -743720.3, -60192.254, -0.024064671, -0.07320868, -604733.6, 35415.285, 0.0, 10.000516, 9.999015 
5.650709e+2, 2.4467696e+2, -546450.94, -685809.5, -45271.43, -0.023319459, -0.07882318, -533035.7, 9124.46, 0.0, 10.000566, 9.998714 
5.6508595e+2, 2.5467604e+2, -481623.0, -602597.25, -45366.273, -0.012415572, -0.043349657, -466500.66, -22330.652, 0.0, 10.000334, 9.998725 
5.651009e+2, 2.6467487e+2, -370660.5, -488920.47, -61957.258, 0.005712964, -0.035237547, -344145.53, 2035.6985, 0.0, 10.000383, 9.998808 
5.651156e+2, 2.7467334e+2, -219123.27, -363761.44, -57924.895, 0.029706376, -0.07419762, -198785.22, 49409.63, 0.0, 10.000746, 9.998819 
5.6513035e+2, 2.8467187e+2, -129490.31, -279152.3, -29122.75, 0.026950186, -0.09366963, -124023.04, 26185.432, 0.0, 10.000727, 9.998738 
5.6514525e+2, 2.9467088e+2, -93499.375, -205212.69, -27721.541, 0.0011896361, -0.07429888, -86998.59, -34779.273, 0.0, 10.000276, 9.998791 
5.651613e+2, 3.0467016e+2, -15555.726, -105902.38, -31590.15, 0.07583439, -0.039402988, -5605.855, -5605.855, 0.0, 10.000318, 9.999119 
5.651758e+2, 3.1466967e+2, 72494.516, -63201.223, -18533.635, 0.0067941933, 0.0017320352, 74980.34, 74980.34, 0.000000017271022, 10.000919, 9.999123 
5.7489467e+2, 1.24674454e+2, -1599218.9, -1664932.0, 41339.363, -0.17647102, 0.0689184, -1579269.3, 138921.31, 0.00000019303324, 10.000844, 9.999922 
5.749116e+2, 1.3467227e+2, -1588525.6, -1685577.0, -97728.2, 0.25543767, -0.08077041, -1527938.8, 92270.4, 0.000000007774616, 10.000524, 9.9992895 
5.7492137e+2, 1.4467178e+2, -1511415.8, -1628886.0, 291.785, -0.24311508, -0.041405328, -1511415.1, 10798.121, 0.0, 10.000539, 9.998983 
5.7493925e+2, 1.5467113e+2, -1361280.4, -1505675.3, -31253.799, 0.009139862, -0.0068203853, -1354806.0, 69415.16, 0.0, 10.000901, 9.99898 
5.749552e+2, 1.6467018e+2, -1257294.6, -1399361.3, -49521.24, 0.092718355, 0.001229015, -1241736.5, 84494.34, 0.0, 10.000917, 9.99903 
5.749687e+2, 1.7466894e+2, -1211118.9, -1324449.9, -41701.445, -0.043148946, -0.028348865, -1197428.1, 30814.123, 0.0, 10.000553, 9.999047 
5.7498306e+2, 1.846678e+2, -1132181.8, -1240557.9, -43513.676, -0.094014354, -0.043690886, -1116873.1, 13379.531, 0.0, 10.0004425, 9.999003 
5.749984e+2, 1.9466677e+2, -1005629.9, -1126755.1, -46416.84, -0.03780125, -0.049468827, -989888.1, 42373.324, 0.0, 10.00063, 9.999021 
5.750132e+2, 2.0466569e+2, -933838.8, -1070397.9, -67103.18, -0.007821788, -0.045030087, -906384.7, 27887.215, 0.0, 10.000574, 9.998763 
5.7502747e+2, 2.1466455e+2, -882467.6, -993557.3, -67884.22, -0.011125513, -0.036832914, -850299.9, -14015.752, 0.0, 10.000249, 9.998774 
5.7504207e+2, 2.2466342e+2, -775623.3, -868905.94, -48874.035, -0.004715738, -0.0356679, -754706.6, -16411.553, 0.0, 10.000215, 9.998973 
5.750571e+2, 2.3466228e+2, -632355.9, -746269.56, -48384.84, 0.01454812, -0.050446447, -614578.7, 25725.785, 0.0, 10.000513, 9.998999 
5.750717e+2, 2.44661e+2, -548013.7, -688380.6, -53766.652, 0.0028796345, -0.06020637, -529785.8, 12530.477, 0.0, 10.000563, 9.998698 
5.75086e+2, 2.5465965e+2, -483373.28, -606183.06, -53861.69, -0.043685783, -0.068743415, -463098.03, -18767.678, 0.0, 10.000333, 9.9987 
5.751009e+2, 2.6465854e+2, -363833.38, -474233.8, -49158.766, -0.030560497, -0.056645278, -345117.1, 1223.9711, 0.0, 10.0003805, 9.998911 
5.7511646e+2, 2.7465767e+2, -212297.0, -346823.2, -43830.39, 0.04727365, -0.040528927, -199276.69, 49072.14, 0.0, 10.000733, 9.998942 
5.751313e+2, 2.846563e+2, -132247.89, -282090.16, -45555.023, 0.04651644, -0.06031622, -119485.305, 30876.744, 0.0, 10.000714, 9.998724 
5.751452e+2, 2.9465467e+2, -96381.37, -212718.67, -43996.9, -0.03608906, -0.09708909, -81616.36, -29237.979, 0.0, 10.000281, 9.998736 
5.7516116e+2, 3.0465418e+2, -17729.12, -111160.26, -10703.8125, 0.028696695, -0.034837116, -16518.537, -16518.537, 0.00000000021282408, 10.00032, 9.999082 
5.7517684e+2, 3.1465355e+2, 77636.42, -46144.52, 10503.128, 0.017841095, -0.008068174, 78521.31, 78521.31, 0.0000000699572, 10.000892, 9.999253 
5.848955e+2, 1.24658436e+2, -1667630.9, -1713067.5, 30551.625, -0.15369855, 0.057018187, -1652276.5, 66071.07, 0.00000011738098, 10.000442, 9.999784 
5.8491254e+2, 1.3465638e+2, -1494660.5, -1651804.4, -104764.59, 0.26309747, -0.068331674, -1442277.6, 178087.97, 0.0000000014227642, 10.001222, 9.999184 
5.8492225e+2, 1.4465576e+2, -1402199.6, -1576592.5, -16678.879, -0.25045556, -0.03575901, -1400618.8, 121752.266, 0.0, 10.001291, 9.998979 
5.8493996e+2, 1.5465513e+2, -1413623.6, -1530633.0, -32891.156, 0.0047675027, 0.0014738512, -1405011.8, 19366.473, 0.0, 10.000542, 9.998981 
5.849558e+2, 1.646542e+2, -1337437.9, -1432056.0, -37380.0, 0.091400355, 0.0062129344, -1324452.5, 1935.1515, 0.0, 10.000341, 9.999083 
5.849694e+2, 1.746529e+2, -1174366.9, -1300415.6, -39145.695, -0.034814455, -0.034055226, -1163199.3, 65200.24, 0.0, 10.000779, 9.999103 
5.8498377e+2, 1.8465173e+2, -1072128.9, -1219464.1, -47992.645, -0.0860184, -0.051087093, -1057874.9, 72535.164, 0.0, 10.000889, 9.998933 
5.849989e+2, 1.9465071e+2, -1013216.9, -1138680.5, -51511.902, -0.044600807, -0.049204417, -994777.5, 37641.555, 0.0, 10.000614, 9.998946 
5.850137e+2, 2.0464963e+2, -936211.1, -1066231.3, -70708.18, -0.015605537, -0.042833757, -905169.4, 29260.088, 0.0, 10.000536, 9.998809 
5.85028e+2, 2.146485e+2, -814839.1, -955262.3, -67793.08, -0.0033243091, -0.03873885, -787451.7, 48989.51, 0.0, 10.0006895, 9.998824 
5.850426e+2, 2.2464737e+2, -721419.0, -854741.0, -45758.484, 0.006864565, -0.034713354, -707225.0, 31227.195, 0.0, 10.000637, 9.998868 
5.850575e+2, 2.3464622e+2, -664009.44, -773841.94, -52782.094, 0.015844984, -0.039820056, -642756.5, -2294.0613, 0.0, 10.000348, 9.998889 
5.850721e+2, 2.4464492e+2, -581788.25, -688927.5, -57184.734, -0.0014322049, -0.05294603, -557001.0, -14526.611, 0.0, 10.000264, 9.998838 
5.850863e+2, 2.5464353e+2, -461676.34, -578770.0, -45314.83, -0.048612576, -0.07939892, -446188.28, -1700.3759, 0.0, 10.000409, 9.998852 
5.851011e+2, 2.646425e+2, -365981.1, -467873.8, -32372.836, -0.036701825, -0.07010081, -356565.78, -10068.328, 0.0, 10.000334, 9.998977 
5.8511674e+2, 2.7464184e+2, -312325.13, -388191.28, -31514.553, 0.040052064, -0.03920344, -300942.03, -52438.684, 0.0, 10.000016, 9.999004 
5.8513165e+2, 2.846405e+2, -219887.38, -328363.3, -33453.195, 0.04197634, -0.057186794, -210400.36, -59883.887, 0.0, 10.00013, 9.998688 
5.851457e+2, 2.946387e+2, -36320.742, -189805.06, -34332.664, -0.034420993, -0.106605634, -28990.965, 23543.752, 0.0, 10.000721, 9.998682 
5.851616e+2, 3.046383e+2, 38741.094, -86459.016, -4163.9087, 0.024942346, -0.029944187, 38879.426, 38879.426, 0.000000006848287, 10.000719, 9.99906 
5.8517724e+2, 3.1463718e+2, -26383.232, -71511.24, 21819.332, 0.015285587, -0.052033316, -17559.063, -17559.063, 0.00000018333391, 10.000071, 9.999474 
5.9489655e+2, 1.24641664e+2, -1683070.0, -1745485.6, 46510.695, -0.09866649, -0.017447304, -1658267.4, 60243.625, 0.000000058921596, 10.0004425, 9.999562 
5.949138e+2, 1.346406e+2, -1507398.3, -1680707.9, -74586.33, 0.26397157, -0.023703074, -1479719.4, 140802.13, 0.000000000010343272, 10.00123, 9.998981 
5.949232e+2, 1.4464009e+2, -1385830.4, -1544285.6, -43767.746, -0.27991974, 0.019483821, -1374544.8, 147981.6, 0.0, 10.001298, 9.999198 
5.9494025e+2, 1.54639e+2, -1397071.9, -1496514.0, -60770.41, -0.01687553, -0.013688906, -1368274.0, 56262.438, 0.0, 10.000542, 9.999216 
5.94956e+2, 1.6463798e+2, -1343065.6, -1442307.8, -22779.813, 0.08170377, -0.02523108, -1338086.6, -11540.621, 0.0, 10.000335, 9.999016 
5.949704e+2, 1.7463705e+2, -1179249.9, -1310941.5, -22184.28, -0.018026255, -0.022850584, -1175613.3, 52941.84, 0.0, 10.00078, 9.99903 
5.949849e+2, 1.8463595e+2, -1076809.3, -1229404.1, -57692.594, -0.06677712, -0.024602214, -1057452.4, 73113.02, 0.0, 10.00089, 9.998864 
5.9499943e+2, 1.9463472e+2, -1017877.3, -1148711.3, -61632.094, -0.053608768, -0.037119757, -993417.1, 39159.863, 0.0, 10.000615, 9.998878 
5.950141e+2, 2.0463361e+2, -929645.6, -1051893.3, -65909.88, -0.02775885, -0.035957806, -900879.3, 33708.246, 0.0, 10.000533, 9.998909 
5.950289e+2, 2.1463265e+2, -807827.7, -939747.75, -61665.832, 0.0130172, -0.026243417, -783491.5, 53105.184, 0.0, 10.000686, 9.998933 
5.9504336e+2, 2.2463146e+2, -735293.2, -882736.8, -56596.902, 0.017149363, -0.024018608, -716073.5, 22534.697, 0.0, 10.000633, 9.998677 
5.950575e+2, 2.3462999e+2, -678309.2, -803511.6, -63273.67, -0.021445367, -0.04021352, -651902.1, -11279.493, 0.0, 10.000348, 9.998685 
5.95072e+2, 2.4462871e+2, -561383.7, -646566.56, -52261.313, -0.038048223, -0.05587543, -536556.44, 6077.958, 0.0, 10.000264, 9.99913 
5.950869e+2, 2.546277e+2, -439818.8, -532408.2, -39424.555, -0.029428788, -0.07546778, -425306.47, 19336.186, 0.0, 10.000404, 9.999172 
5.951017e+2, 2.6462677e+2, -364309.88, -463781.66, -44086.176, -0.014581132, -0.07575431, -347583.34, -932.89514, 0.0, 10.000331, 9.999006 
5.9511644e+2, 2.7462587e+2, -311026.4, -386931.34, -43029.652, 0.0059626848, -0.07011173, -291603.44, -42944.88, 0.0, 10.000022, 9.99901 
5.9513146e+2, 2.8462452e+2, -224564.58, -338443.3, -12807.565, 0.01059799, -0.08397399, -223141.94, -72469.99, 0.0, 10.000131, 9.998619 
5.951468e+2, 2.94623e+2, -44000.79, -201408.03, -12215.472, 0.0013129105, -0.10156367, -43058.457, 9629.969, 0.0, 10.000701, 9.998611 
5.9516263e+2, 3.046226e+2, 35857.664, -87275.36, -27675.803, 0.06082086, -0.021668578, 41792.156, 41792.156, 0.000000033052434, 10.000697, 9.999064 
5.951771e+2, 3.1462064e+2, -3545.6704, -24683.053, 2781.6494, -0.004847687, -0.12751351, -3185.7383, -3185.7383, 0.00000037488923, 10.000074, 9.999794 
6.0489726e+2, 1.2462554e+2, -1600470.1, -1703075.8, 45648.215, -0.094148375, -0.027977152, -1583101.6, 135567.67, 0.000000021349177, 10.000999, 9.999585 
6.049147e+2, 1.346249e+2, -1580577.0, -1706352.9, -44184.8, 0.2689469, -0.002863423, -1566606.8, 54069.406, 0.0, 10.000689, 9.999066 
6.0492426e+2, 1.4462431e+2, -1469482.5, -1578494.3, -22134.275, -0.27467093, 0.028290108, -1465159.6, 57521.785, 0.0, 10.000698, 9.999251 
6.049411e+2, 1.5462308e+2, -1303931.8, -1444711.9, -53608.383, -0.015027014, -0.025702521, -1285842.4, 138850.02, 0.0, 10.001153, 9.999276 
6.0495675e+2, 1.6462207e+2, -1227118.0, -1393653.9, -17539.81, 0.080587775, -0.036467403, -1225290.8, 101411.0, 0.0, 10.001162, 9.998951 
6.0497105e+2, 1.7462133e+2, -1207042.5, -1331939.6, -17237.602, -0.017434012, -0.008020641, -1204707.1, 24002.283, 0.0, 10.000622, 9.998961 
6.0498554e+2, 1.8462028e+2, -1143333.9, -1260199.1, -48374.242, -0.06311607, -0.0030622622, -1125908.5, 4811.236, 0.0, 10.000427, 9.998876 
6.0500014e+2, 1.9461888e+2, -1011490.25, -1144259.8, -47055.652, -0.047470294, -0.03136404, -996504.44, 36228.207, 0.0, 10.000653, 9.99889 
6.0501474e+2, 2.046177e+2, -900467.9, -1039012.2, -49391.934, -0.02242369, -0.03778393, -884662.44, 50081.37, 0.0, 10.000739, 9.9988985 
6.050295e+2, 2.1461675e+2, -813814.1, -944141.6, -54562.94, 0.014174729, -0.0264009, -793987.1, 42765.56, 0.0, 10.000651, 9.9989195 
6.050439e+2, 2.246156e+2, -742784.5, -881032.6, -53016.715, 0.012024005, -0.02101578, -724794.2, 13969.434, 0.0, 10.00056, 9.998724 
6.050577e+2, 2.3461422e+2, -657873.4, -788461.56, -42488.754, -0.0362338, -0.032441977, -645266.1, -4488.9946, 0.0, 10.000466, 9.998732 
6.0507214e+2, 2.4461296e+2, -553756.94, -641505.9, -25878.545, -0.048458047, -0.04979315, -546693.5, -3904.7715, 0.0, 10.00031, 9.999143 
6.050872e+2, 2.5461188e+2, -485824.97, -553633.8, -36308.8, -0.018843591, -0.077433564, -470052.06, -25254.543, 0.0, 10.000085, 9.999181 
6.0510206e+2, 2.646109e+2, -386458.47, -472805.66, -49099.79, -0.003968372, -0.0820544, -364250.5, -17445.064, 0.0, 10.000171, 9.9990225 
6.051166e+2, 2.7461e+2, -225452.23, -343866.97, -48447.785, -0.007710429, -0.076539285, -208156.66, 40656.543, 0.0, 10.000601, 9.999027 
6.0513157e+2, 2.8460866e+2, -160691.92, -305795.47, -16154.6455, -0.0058125337, -0.090709396, -158915.16, -8088.8154, 0.0, 10.000561, 9.998636 
6.051472e+2, 2.9460713e+2, -147874.77, -251373.25, -10823.937, 0.006454411, -0.109446414, -146754.9, -93912.13, 0.00000000003092486, 9.999987, 9.998613 
6.0516304e+2, 3.0460674e+2, -79423.625, -154476.73, -25994.246, 0.06698892, -0.025338849, -71299.95, -71299.95, 0.00000008707832, 9.999956, 9.99896 
6.0517746e+2, 3.146047e+2, 83571.49, 40191.23, -2820.2756, 0.002730136, -0.13049978, 83754.08, 83754.08, 0.0000006525611, 10.000575, 9.999999 
6.148978e+2, 1.2461014e+2, -1580219.3, -1663177.9, 19188.225, -0.14214306, 0.030846125, -1575996.0, 142826.05, 0.0000000039655865, 10.001007, 9.999855 
6.1491555e+2, 1.3460924e+2, -1555854.8, -1653476.9, -56135.418, 0.27526584, -0.005465533, -1530276.9, 90552.13, 0.0, 10.000682, 9.999432 
6.149253e+2, 1.4460842e+2, -1478411.1, -1596013.8, -6907.2397, -0.23682426, -0.010843402, -1478006.9, 44828.996, 0.0, 10.000693, 9.999134 
6.149425e+2, 1.5460734e+2, -1312105.8, -1463425.4, -35430.227, 0.008717544, -0.035651084, -1304220.9, 120625.15, 0.0, 10.001159, 9.9991455 
6.149579e+2, 1.6460645e+2, -1230405.6, -1401684.9, -36811.344, 0.0852024, -0.027445845, -1222829.3, 104025.766, 0.0, 10.001166, 9.998894 
6.149715e+2, 1.7460573e+2, -1210929.0, -1340430.0, -37479.37, -0.03483677, 0.010447049, -1200864.3, 27998.256, 0.0, 10.000624, 9.998903 
6.1498576e+2, 1.8460466e+2, -1138469.9, -1249359.3, -41655.32, -0.07762311, 0.013234252, -1124565.6, 6307.111, 0.0, 10.000424, 9.998952 
6.1500096e+2, 1.9460319e+2, -1005550.5, -1131781.1, -38251.273, -0.028064901, -0.032491602, -994864.0, 38022.06, 0.0, 10.000652, 9.998976 
6.150157e+2, 2.046019e+2, -909357.3, -1056490.4, -52814.176, -0.0015638276, -0.04875725, -892362.44, 42535.793, 0.0, 10.000734, 9.99878 
6.1503e+2, 2.146008e+2, -822733.4, -962317.4, -57658.77, -0.002088914, -0.03824059, -801996.56, 34912.348, 0.0, 10.000649, 9.998795 
6.150442e+2, 2.2459981e+2, -724612.44, -842702.1, -57069.41, -0.011038583, -0.024472924, -701540.2, 37378.082, 0.0, 10.000557, 9.998988 
6.1505824e+2, 2.345989e+2, -637640.94, -746270.06, -45804.566, -0.029609889, -0.017021785, -620905.3, 20020.822, 0.0, 10.000465, 9.999022 
6.1507255e+2, 2.4459767e+2, -572470.06, -680375.7, -34858.363, -0.033546887, -0.03512265, -562188.8, -19251.254, 0.0, 10.00031, 9.998876 
6.150873e+2, 2.5459605e+2, -506232.56, -596498.94, -44438.66, -0.019763183, -0.08592883, -488027.0, -43074.426, 0.0, 10.000087, 9.998886 
6.151022e+2, 2.6459494e+2, -386531.06, -472845.0, -33784.152, -0.008529756, -0.08956467, -374880.25, -27917.84, 0.0, 10.00017, 9.9990225 
6.1511725e+2, 2.7459434e+2, -225068.06, -340802.28, -31844.26, -0.0027592657, -0.057561003, -216884.73, 32082.379, 0.0, 10.000591, 9.999053 
6.1513215e+2, 2.8459302e+2, -154878.2, -291696.66, -36616.508, -0.0075584715, -0.07564198, -145694.97, 5284.553, 0.0, 10.000552, 9.998737 
6.151469e+2, 2.9459125e+2, -141147.14, -239100.38, -31884.46, -0.021223595, -0.13099338, -131682.95, -78685.055, 0.0000000010306047, 9.999993, 9.998694 
6.1516273e+2, 3.0459076e+2, -95627.766, -188127.77, -4950.836, 0.039610345, -0.04436582, -95363.54, -95363.54, 0.00000016756015, 9.999956, 9.998728 
6.1517835e+2, 3.1458932e+2, 84283.766, 48887.414, 24075.627, 0.030791348, -0.06947398, 96466.375, 96466.375, 0.000001002472, 10.000545, 10.0000725 
6.248985e+2, 1.2459463e+2, -1635822.8, -1686824.8, 28667.172, -0.15166311, 0.05189519, -1622955.6, 96018.984, 0.00000000008306351, 10.00061, 9.999885 
6.249163e+2, 1.3459358e+2, -1502257.4, -1615928.4, -55478.15, 0.27564946, -0.010399463, -1479669.4, 141312.8, 0.0, 10.000999, 9.9995365 
6.249264e+2, 1.4459258e+2, -1422735.0, -1579644.1, -9399.445, -0.2233812, -0.03425385, -1422174.0, 100816.516, 0.0, 10.00112, 9.999042 
6.249436e+2, 1.545917e+2, -1342934.9, -1488655.6, -35181.734, 0.0121383555, -0.030816149, -1334885.5, 90113.98, 0.0, 10.000992, 9.999053 
6.24959e+2, 1.645908e+2, -1263547.1, -1416613.0, -47426.727, 0.083429396, -0.015608178, -1250043.5, 76964.836, 0.0, 10.000936, 9.998902 
6.2497234e+2, 1.7458993e+2, -1158360.1, -1313510.0, -44541.113, -0.031140381, 0.0044652736, -1146482.4, 82534.63, 0.0, 10.000978, 9.998917 
6.249865e+2, 1.8458879e+2, -1074877.3, -1227641.3, -41629.773, -0.06942727, 0.003318588, -1064269.3, 66758.68, 0.0, 10.000898, 9.998873 
6.250017e+2, 1.9458735e+2, -1009872.3, -1143336.8, -51308.78, -0.019770162, -0.030522596, -992427.44, 40613.81, 0.0, 10.000663, 9.998892 
6.2501633e+2, 2.0458607e+2, -934848.94, -1061980.8, -66928.29, -0.0014389888, -0.043419186, -906110.94, 28942.352, 0.0, 10.00053, 9.998842 
6.250304e+2, 2.1458499e+2, -836272.56, -961555.7, -58527.41, -0.020281494, -0.039689805, -813185.4, 23878.324, 0.0, 10.000525, 9.99886 
6.250446e+2, 2.2458397e+2, -730391.4, -841375.25, -59178.18, -0.023596374, -0.033783294, -704757.4, 34315.637, 0.0, 10.0005, 9.999024 
6.250589e+2, 2.3458302e+2, -638631.4, -743056.9, -67340.29, -0.008924479, -0.034469802, -605633.3, 35447.895, 0.0, 10.000443, 9.999054 
6.250732e+2, 2.4458185e+2, -557146.2, -677616.06, -58223.207, -0.009910319, -0.04470236, -533606.5, 9485.528, 0.0, 10.000435, 9.998834 
6.2508744e+2, 2.5458044e+2, -452637.44, -575906.44, -50789.88, -0.0299622, -0.07120686, -434406.9, 10698.726, 0.0, 10.000478, 9.998838 
6.251022e+2, 2.645793e+2, -364293.7, -464127.75, -26397.734, -0.025295056, -0.07644337, -357743.47, -10627.41, 0.0, 10.000331, 9.999004 
6.251176e+2, 2.7457836e+2, -316417.56, -386527.5, -27484.846, 0.0072769937, -0.07361035, -306927.4, -57804.008, 0.0, 9.99997, 9.999038 
6.2513256e+2, 2.8457707e+2, -224406.77, -318033.03, -35283.316, 0.007814318, -0.09448828, -212599.23, -61463.77, 0.0, 10.000044, 9.998801 
6.251471e+2, 2.9457557e+2, -47169.8, -187310.39, -34758.355, -0.027106637, -0.12678854, -39022.52, 14128.046, 0.000000004235602, 10.000611, 9.998753 
6.251627e+2, 3.0457485e+2, -30695.814, -183179.83, -12618.703, 0.02073244, -0.053742047, -29658.617, -29658.617, 0.000000262113, 10.000515, 9.998493 
6.2517846e+2, 3.1457332e+2, -41706.81, -11406.805, 17271.959, 0.03473251, -0.06480039, -3581.9702, -3581.9702, 0.0000013873902, 9.999676, 10.000076 
6.3489944e+2, 1.2457902e+2, -1650762.9, -1718330.5, 27317.941, -0.120739624, 0.03334835, -1641100.0, 78026.875, 0.0, 10.00061, 9.999669 
6.3491726e+2, 1.345779e+2, -1513857.9, -1640855.3, -40991.934, 0.26729465, -0.018954312, -1501776.0, 119359.41, 0.0, 10.001002, 9.999364 
6.349274e+2, 1.445768e+2, -1426761.1, -1589107.3, -15705.08, -0.2382721, -0.041532524, -1425255.8, 97889.36, 0.0, 10.001124, 9.998974 
6.349444e+2, 1.5457612e+2, -1347336.8, -1497704.3, -40157.28, -0.007638077, -0.010802266, -1337284.3, 87868.164, 0.0, 10.000991, 9.998992 
6.3495976e+2, 1.6457517e+2, -1258571.5, -1406015.0, -46914.875, 0.07157896, -0.00092117296, -1244909.5, 82252.13, 0.0, 10.000934, 9.998977 
6.349736e+2, 1.7457393e+2, -1152091.1, -1301508.9, -42682.137, -0.00849799, -0.026571393, -1140758.3, 88414.914, 0.0, 10.000981, 9.998998 
6.349877e+2, 1.8457267e+2, -1091487.4, -1262038.4, -50617.555, -0.041340996, -0.033446245, -1077596.0, 53589.234, 0.0, 10.000898, 9.998636 
6.350023e+2, 1.945714e+2, -1027156.1, -1179648.3, -60098.152, -0.024308164, -0.025034929, -1006318.5, 26879.545, 0.0, 10.000665, 9.998642 
6.350166e+2, 2.0457026e+2, -919538.1, -1029613.75, -68211.26, -0.024595978, -0.02127337, -886929.3, 48279.445, 0.0, 10.000527, 9.999065 
6.350307e+2, 2.1456927e+2, -818754.6, -925294.1, -58421.477, -0.041861966, -0.032272346, -792962.8, 44254.164, 0.0, 10.0005245, 9.999109 
6.3504505e+2, 2.2456805e+2, -744531.8, -869610.56, -61769.19, -0.027691282, -0.050389603, -719170.06, 20057.898, 0.0, 10.000495, 9.998834 
6.3505965e+2, 2.3456657e+2, -653448.3, -773642.4, -68907.51, 0.022981865, -0.08413682, -622112.9, 19129.254, 0.0, 10.000442, 9.998845 
6.350739e+2, 2.4456552e+2, -546150.4, -654098.1, -56933.688, 0.018972833, -0.077842124, -521672.8, 21579.137, 0.0, 10.000432, 9.998998 
6.350877e+2, 2.5456503e+2, -439768.94, -548532.56, -48843.387, -0.049888786, -0.03273811, -421054.53, 24202.082, 0.0, 10.000474, 9.999028 
6.351023e+2, 2.6456392e+2, -367239.28, -470063.75, -39624.71, -0.05403305, -0.04138432, -353741.3, -6474.989, 0.0, 10.00033, 9.998965 
6.3511765e+2, 2.7456206e+2, -319729.25, -394057.56, -40396.48, 0.018165916, -0.124675386, -302002.16, -52720.02, 0.0, 9.999972, 9.998986 
6.3513285e+2, 2.8456074e+2, -223037.23, -314606.4, -15292.584, 0.034612067, -0.1490626, -220550.8, -69256.39, 0.0, 10.000041, 9.998826 
6.351478e+2, 2.9456007e+2, -47495.28, -184131.61, -13085.81, -0.013388986, -0.09712199, -46253.33, 7047.5464, 0.000000008608103, 10.000595, 9.998782 
6.351631e+2, 3.0455902e+2, -48844.53, -217714.22, -42532.82, 0.009764935, -0.05016894, -38736.875, -38736.875, 0.00000035003856, 10.000501, 9.998263 
6.3517785e+2, 3.1455678e+2, -44493.613, -18211.252, -11016.09, 0.009865252, -0.112045065, -14204.697, -14204.697, 0.0000017531552, 9.99968, 10.000029 
6.449003e+2, 1.24563135e+2, -1634660.3, -1724273.5, 17221.035, -0.09900626, 0.0068370807, -1631464.9, 87816.89, 0.0, 10.000779, 9.999548 
6.449182e+2, 1.345623e+2, -1478492.5, -1627912.0, -29583.896, 0.25459543, -0.012189942, -1472848.3, 148439.75, 0.0, 10.001266, 9.999325 
6.4492846e+2, 1.4456117e+2, -1402055.6, -1582491.5, -21871.037, -0.2464578, -0.032949224, -1399442.4, 123856.0, 0.0, 10.001318, 9.998926 
6.449453e+2, 1.5456039e+2, -1354559.9, -1506417.8, -47209.105, -0.0132565955, -0.008456698, -1341080.1, 84226.6, 0.0, 10.000964, 9.998944 
6.4496064e+2, 1.6455938e+2, -1276572.9, -1421275.3, -45244.313, 0.070889436, -0.0017052373, -1263591.0, 63725.938, 0.0, 10.000838, 9.998918 
6.449746e+2, 1.7455806e+2, -1158240.1, -1311122.3, -52207.42, 0.0019705454, -0.02702567, -1142113.1, 87216.04, 0.0, 10.000968, 9.998939 
6.449887e+2, 1.8455678e+2, -1080637.1, -1247994.9, -65243.13, -0.029319754, -0.035872422, -1058208.4, 73132.836, 0.0, 10.000936, 9.998714 
6.4500296e+2, 1.9455557e+2, -1013348.8, -1163149.0, -50898.047, -0.02467848, -0.031169692, -997691.56, 35661.477, 0.0, 10.000719, 9.998728 
6.4501715e+2, 2.0455445e+2, -909435.4, -1023565.9, -45133.258, -0.024790555, -0.028931087, -893744.5, 41618.527, 0.0, 10.000592, 9.999075 
6.450314e+2, 2.1455348e+2, -813011.75, -922255.2, -54046.59, -0.02690064, -0.03946553, -790792.3, 46578.813, 0.0, 10.000564, 9.999112 
6.450456e+2, 2.2455224e+2, -744908.8, -872714.5, -62470.844, -0.016777448, -0.057456754, -719446.25, 19936.076, 0.0, 10.0005045, 9.998807 
6.450599e+2, 2.3455073e+2, -660390.75, -780163.4, -57588.566, 0.00587648, -0.09161765, -637193.9, 4203.1235, 0.0, 10.000408, 9.998816 
6.4507407e+2, 2.4454968e+2, -564456.1, -660437.6, -42006.453, 0.0024904385, -0.08640981, -548668.7, -5261.74, 0.0, 10.000296, 9.999019 
6.450882e+2, 2.5454918e+2, -483665.97, -566997.7, -46319.324, -0.03177792, -0.04342918, -463029.94, -17618.654, 0.0, 10.000161, 9.999052 
6.451028e+2, 2.6454806e+2, -389858.97, -487478.13, -44025.645, -0.031655405, -0.050138835, -372937.03, -25515.988, 0.0, 10.000204, 9.998905 
6.451178e+2, 2.7454624e+2, -254897.6, -369758.38, -46899.33, 0.008627003, -0.12532277, -238180.86, 11256.321, 0.0, 10.000449, 9.998922 
6.4513296e+2, 2.845449e+2, -176572.27, -292049.78, -19712.072, 0.020969367, -0.14499006, -173300.13, -21850.719, 0.0, 10.00036, 9.998827 
6.451482e+2, 2.9454422e+2, -153371.45, -234536.53, -20022.686, 0.0020875328, -0.098186255, -148700.81, -95244.85, 0.000000011710588, 9.999865, 9.998787 
6.451633e+2, 3.045428e+2, -152737.45, -267997.66, -48472.746, 0.013057917, -0.08499211, -135062.6, -135062.6, 0.00000040808163, 9.999787, 9.998261 
6.451775e+2, 3.1454104e+2, 40839.125, 28875.645, -927.9982, -0.023544483, -0.098785676, 40910.68, 40910.68, 0.0000020409286, 10.000238, 10.000084 
6.5490127e+2, 1.24547e+2, -1634750.9, -1727319.6, 20541.107, -0.08422466, -0.028411567, -1630397.5, 89041.484, 0.0, 10.00079, 9.999523 
6.549193e+2, 1.3454683e+2, -1472339.0, -1614943.3, -12526.453, 0.233389, 0.010077262, -1471247.0, 150192.84, 0.0, 10.001264, 9.999414 
6.5492976e+2, 1.4454575e+2, -1404344.1, -1586788.4, -36219.19, -0.25166208, -0.009061489, -1397416.9, 126033.125, 0.0, 10.001315, 9.9988985 
6.549463e+2, 1.5454453e+2, -1356824.4, -1511884.5, -60212.11, -0.007144778, -0.024161946, -1336189.3, 89272.9, 0.0, 10.000967, 9.998906 
6.549615e+2, 1.6454338e+2, -1290458.9, -1450391.6, -41954.266, 0.07864839, -0.018088942, -1280121.4, 47352.383, 0.0, 10.000839, 9.998717 
6.5497553e+2, 1.7454234e+2, -1172693.6, -1341466.9, -47424.14, -0.0016589061, 0.0029188946, -1160280.6, 69204.15, 0.0, 10.000969, 9.99873 
6.5498954e+2, 1.8454115e+2, -1053781.3, -1191513.1, -73784.414, -0.036598247, -0.0039078426, -1021718.25, 109777.51, 0.0, 10.000933, 9.999104 
6.550037e+2, 1.9453984e+2, -984015.3, -1102272.0, -58953.105, -0.022493238, -0.05026902, -959647.4, 73858.83, 0.0, 10.000719, 9.999146 
6.55018e+2, 2.0453867e+2, -924576.06, -1054098.6, -46974.332, -0.004016389, -0.06807902, -909333.56, 26182.736, 0.0, 10.000588, 9.998867 
6.550324e+2, 2.145376e+2, -829886.9, -957128.7, -54753.984, 0.022435041, -0.06105313, -809569.56, 27956.365, 0.0, 10.000563, 9.998873 
6.5504634e+2, 2.2453655e+2, -736618.1, -854602.2, -66544.766, 0.006603146, -0.05463206, -706681.75, 32854.082, 0.0, 10.000501, 9.998934 
6.5505964e+2, 2.3453549e+2, -649972.94, -758970.94, -60946.9, -0.059977543, -0.058395073, -622712.1, 18833.805, 0.0, 10.000409, 9.9989605 
6.550737e+2, 2.4453427e+2, -573252.6, -678551.06, -47476.74, -0.0602647, -0.07139043, -555007.7, -11450.5, 0.0, 10.000295, 9.998896 
6.5508884e+2, 2.545329e+2, -493213.2, -586294.75, -50918.34, 0.020043483, -0.102570206, -470770.5, -25200.887, 0.0, 10.000159, 9.99892 
6.551036e+2, 2.6453173e+2, -396509.63, -500379.97, -35459.617, 0.03781458, -0.10317363, -385558.8, -37978.66, 0.0, 10.0002, 9.998818 
6.551179e+2, 2.7453086e+2, -261620.84, -382127.0, -36887.49, -0.021405283, -0.07685856, -251226.06, -1637.479, 0.0, 10.0004425, 9.99884 
6.551328e+2, 2.845296e+2, -179025.03, -296048.72, -37045.758, -0.03286678, -0.081233375, -168283.55, -16683.232, 0.0, 10.000355, 9.998802 
6.551482e+2, 2.9452798e+2, -154649.5, -237027.92, -38013.934, 0.015369703, -0.12786068, -139788.64, -86173.11, 0.000000011654482, 9.999864, 9.998771 
6.551632e+2, 3.0452624e+2, -138475.08, -237017.73, -33169.297, 0.026325727, -0.15913825, -128350.555, -128350.555, 0.00000041978168, 9.999782, 9.998476 
6.5517724e+2, 3.1452605e+2, 48676.61, 50067.742, 17798.465, -0.06833799, -0.033289425, 67184.23, 67184.23, 0.000002202322, 10.000218, 10.000238 
6.649022e+2, 1.245314e+2, -1554666.9, -1705109.4, 36535.457, -0.09428159, -0.041566037, -1546263.5, 173326.84, 0.0, 10.001409, 9.999378 
6.649204e+2, 1.345313e+2, -1519395.1, -1644400.5, 1220.5386, 0.23349583, 0.011056049, -1519383.3, 102208.03, 0.0, 10.000973, 9.9993515 
6.649311e+2, 1.4453018e+2, -1459968.1, -1611272.4, -22941.67, -0.22554137, -0.010426287, -1456566.0, 67036.28, 0.0, 10.000924, 9.998919 
6.6494757e+2, 1.5452899e+2, -1283594.6, -1473636.8, -41751.137, -0.004064647, -0.025718328, -1274826.6, 150787.5, 0.0, 10.001457, 9.998932 
6.649626e+2, 1.6452786e+2, -1205860.8, -1410237.1, -27067.195, 0.067187496, -0.01957119, -1202336.8, 125288.83, 0.0, 10.001425, 9.998711 
6.649762e+2, 1.7452681e+2, -1212206.0, -1361111.4, -19392.836, -0.015061319, 0.0014137942, -1209721.9, 19914.875, 0.0, 10.000703, 9.998722 
6.6499025e+2, 1.8452567e+2, -1122175.0, -1220569.0, -37149.0, -0.04211081, -0.0021486338, -1109724.8, 21922.564, 0.0, 10.000447, 9.999137 
6.6500455e+2, 1.9452447e+2, -975735.9, -1094885.0, -52057.17, -0.010400036, -0.04191008, -956196.1, 77460.85, 0.0, 10.000761, 9.999177 
6.650188e+2, 2.0452322e+2, -901291.25, -1048562.6, -57783.582, 0.013210272, -0.06407653, -881325.9, 54341.645, 0.0, 10.000772, 9.9988165 
6.65033e+2, 2.1452196e+2, -853464.9, -973766.3, -53058.977, 0.029222844, -0.073605195, -833407.3, 4271.7725, 0.0, 10.000425, 9.998823 
6.6504675e+2, 2.245209e+2, -767658.06, -872312.56, -54432.68, 0.0113041485, -0.06393729, -744480.0, -4790.9185, 0.0, 10.0003, 9.998908 
6.6506016e+2, 2.3452008e+2, -647311.4, -760610.1, -61571.383, -0.048084352, -0.041163713, -620293.6, 21403.576, 0.0, 10.000441, 9.998935 
6.650742e+2, 2.4451883e+2, -556248.56, -678291.1, -58337.04, -0.051554203, -0.052581776, -532849.44, 10859.404, 0.0, 10.000445, 9.998824 
6.65089e+2, 2.5451708e+2, -480069.06, -588217.7, -58998.15, 0.012298797, -0.11315963, -454113.3, -8388.848, 0.0, 10.000285, 9.998847 
6.651037e+2, 2.6451582e+2, -403939.16, -504293.88, -30292.176, 0.025486007, -0.12219199, -395504.38, -47768.094, 0.0, 10.000151, 9.998815 
6.6511816e+2, 2.745151e+2, -319530.34, -409882.9, -25876.92, -0.023112474, -0.07757207, -312644.03, -62900.64, 0.0, 10.000045, 9.99884 
6.6513294e+2, 2.8451404e+2, -227678.16, -319873.5, -30772.57, -0.03237011, -0.06177426, -218350.69, -66597.13, 0.0, 10.000024, 9.998797 
6.651481e+2, 2.945126e+2, -118280.914, -219417.75, -32863.84, 0.0057588164, -0.090056725, -108540.16, -54772.9, 0.000000008469742, 10.000115, 9.99877 
6.651629e+2, 3.0451053e+2, -93779.375, -198058.44, -20358.541, 0.011490633, -0.16091964, -89945.695, -89945.695, 0.00000038345433, 10.000015, 9.998631 
6.651773e+2, 3.1451035e+2, -31750.742, 11633.691, 25711.963, -0.055861633, -0.05217228, 23581.59, 23581.59, 0.0000022156387, 9.999664, 10.00024 
6.749033e+2, 1.2451642e+2, -1572516.3, -1744154.4, 5361.1797, -0.1304645, -0.033170708, -1572348.9, 147386.44, 0.0, 10.001415, 9.999107 
6.749216e+2, 1.345158e+2, -1534435.5, -1676316.0, -16082.551, 0.25125635, -0.009564759, -1532635.4, 89106.55, 0.0, 10.000977, 9.99913 
6.7493254e+2, 1.4451453e+2, -1454819.6, -1601453.9, -6855.8813, -0.17032044, -0.03764264, -1454499.8, 69255.15, 0.0, 10.000927, 9.998985 
6.74949e+2, 1.545138e+2, -1277391.0, -1461397.4, -21301.184, -0.007192829, -0.014078362, -1274957.3, 150805.2, 0.0, 10.001458, 9.999016 
6.749636e+2, 1.6451281e+2, -1192926.0, -1382579.5, -52819.32, 0.03228862, -0.007027606, -1179207.9, 148564.22, 0.0, 10.001421, 9.998901 
6.749767e+2, 1.745115e+2, -1198455.1, -1332484.5, -46269.855, -0.040099014, -0.03213964, -1184033.6, 45750.875, 0.0, 10.000703, 9.9989195 
6.749906e+2, 1.8451035e+2, -1146062.8, -1269742.3, -27758.719, -0.04817428, -0.031423, -1140118.3, -8322.695, 0.0, 10.000445, 9.998801 
6.750055e+2, 1.9450943e+2, -1001779.7, -1148441.6, -40215.26, 0.009745323, -0.006013614, -991476.4, 42328.668, 0.0, 10.000758, 9.998811 
6.750197e+2, 2.0450817e+2, -894492.25, -1033402.8, -70439.914, 0.024554906, -0.016530287, -865024.25, 70792.42, 0.0, 10.000768, 9.998923 
6.7503303e+2, 2.1450652e+2, -844205.2, -954655.6, -66025.06, -0.007277783, -0.07825025, -813354.06, 24476.545, 0.0, 10.000425, 9.998955 
6.750469e+2, 2.2450526e+2, -779866.1, -897529.7, -50509.527, -0.005028138, -0.08672271, -761158.3, -21316.2, 0.0, 10.000299, 9.998735 
6.7506146e+2, 2.3450449e+2, -660743.5, -788107.25, -55690.375, 0.038290676, -0.03998654, -639827.5, 2023.1362, 0.0, 10.000439, 9.998747 
6.750754e+2, 2.4450332e+2, -558413.56, -682386.8, -64052.56, 0.025604788, -0.030707717, -531265.06, 12596.633, 0.0, 10.000443, 9.998797 
6.7508864e+2, 2.545017e+2, -481439.1, -591412.8, -64502.992, -0.054657277, -0.07625673, -451666.34, -5790.533, 0.0, 10.000286, 9.998824 
6.751029e+2, 2.6450023e+2, -399026.44, -493887.72, -34397.977, -0.06866844, -0.10664369, -387866.25, -39976.973, 0.0, 10.00015, 9.998886 
6.751184e+2, 2.7449897e+2, -314854.94, -398304.25, -29173.396, -0.00048489711, -0.12575851, -305667.56, -55766.035, 0.0, 10.000037, 9.998924 
6.751334e+2, 2.8449824e+2, -228400.67, -319270.4, -27730.945, 0.018313231, -0.086928956, -220606.48, -68697.27, 0.0, 10.000014, 9.998806 
6.7514783e+2, 2.9449803e+2, -119298.96, -219636.7, -28370.895, -0.02723342, 0.01094146, -111832.57, -57920.945, 0.0000000040864183, 10.000107, 9.998772 
6.751625e+2, 3.044957e+2, -87297.15, -183313.39, -32405.467, -0.032249127, -0.09277591, -77383.82, -77383.82, 0.0000003121116, 10.00001, 9.998734 
6.751776e+2, 3.1449398e+2, -41919.844, -7600.0806, 14017.595, 0.0038776055, -0.14327402, -2602.4695, -2602.4695, 0.0000020914758, 9.999657, 10.000112 
6.849045e+2, 1.2450088e+2, -1631885.3, -1771886.0, -30175.684, -0.12321772, -0.041926336, -1625658.3, 94228.59, 0.0, 10.001005, 9.999115 
6.849227e+2, 1.3450025e+2, -1443017.3, -1623567.4, -19957.719, 0.23691697, -0.026851054, -1440837.5, 181055.53, 0.0, 10.00157, 9.999206 
6.8493384e+2, 1.4449894e+2, -1372150.4, -1568268.9, -7240.235, -0.16592775, -0.05924757, -1371883.5, 152022.89, 0.0, 10.001525, 9.998923 
6.8495e+2, 1.5449828e+2, -1370008.5, -1513571.4, -33443.688, -0.014645732, -0.02353422, -1362600.0, 63314.2, 0.0, 10.000857, 9.998946 
6.849646e+2, 1.6449738e+2, -1286226.5, -1407803.4, -72836.89, 0.02694653, -0.012341643, -1252144.3, 75778.82, 0.0, 10.000697, 9.999077 
6.849777e+2, 1.7449617e+2, -1119343.3, -1273475.5, -68879.96, -0.023850307, -0.043398622, -1093047.6, 136885.78, 0.0, 10.001156, 9.999105 
6.849916e+2, 1.8449506e+2, -1057532.0, -1247284.6, -45035.02, -0.028445316, -0.040462833, -1047386.06, 84558.32, 0.0, 10.001141, 9.99862 
6.8500614e+2, 1.9449407e+2, -1044640.2, -1189991.9, -44809.684, 0.008400548, -0.0030476074, -1031936.4, 2019.3582, 0.0, 10.000557, 9.998621 
6.8502015e+2, 2.0449279e+2, -951480.25, -1060626.9, -66334.96, 0.015068075, -0.004885292, -920154.94, 15813.094, 0.0, 10.000378, 9.998923 
6.8503356e+2, 2.1449119e+2, -803914.94, -934463.06, -71924.19, -0.009855561, -0.06200108, -772061.3, 65920.164, 0.0, 10.000698, 9.998962 
6.8504745e+2, 2.2448987e+2, -722704.3, -873421.6, -59313.13, -0.0029296724, -0.07688934, -702162.1, 37831.44, 0.0, 10.000706, 9.998706 
6.850619e+2, 2.3448886e+2, -677434.3, -798826.44, -54168.016, 0.041634332, -0.049884573, -656778.2, -14774.233, 0.0, 10.000337, 9.998722 
6.8507576e+2, 2.4448772e+2, -591825.5, -694233.56, -49174.89, 0.026970789, -0.04046296, -572036.4, -28021.627, 0.0, 10.000196, 9.998835 
6.850889e+2, 2.5448638e+2, -470807.06, -581359.6, -45165.6, -0.059572317, -0.06236142, -454701.28, -8675.063, 0.0, 10.000339, 9.998868 
6.85103e+2, 2.6448494e+2, -386414.03, -488050.38, -23061.139, -0.07270136, -0.089151226, -381426.28, -33387.125, 0.0, 10.000238, 9.998883 
6.8511844e+2, 2.744835e+2, -342609.3, -412340.66, -25880.006, 0.0052716057, -0.12912704, -334053.9, -84000.35, 0.0, 9.999849, 9.998918 
6.8513334e+2, 2.844827e+2, -269211.56, -335296.78, -12869.591, 0.02641891, -0.09373212, -266793.78, -114732.31, 0.0, 9.999719, 9.998837 
6.851478e+2, 2.944827e+2, -147232.75, -228284.11, -10901.354, -0.02611237, 0.019758794, -145792.13, -91730.164, 0.0000000009738006, 9.999895, 9.998815 
6.851624e+2, 3.0448043e+2, -91201.266, -163925.13, -23949.475, -0.037419137, -0.089866765, -84022.79, -84022.79, 0.00000022618863, 9.999891, 9.998924 
6.851774e+2, 3.1447887e+2, -44639.54, -16860.887, 24817.531, 0.0164023, -0.14608572, -2310.3936, -2310.3936, 0.0000018666766, 9.999673, 10.000039 
6.9490606e+2, 1.2448478e+2, -1611779.5, -1732487.6, -20176.393, -0.07032502, -0.0718256, -1608496.3, 111548.516, 0.0, 10.001013, 9.999383 
6.949237e+2, 1.3448466e+2, -1417018.8, -1569320.4, 294.78394, 0.18583968, -0.042155247, -1417018.3, 205026.08, 0.0, 10.001569, 9.999578 
6.949348e+2, 1.4448345e+2, -1385481.8, -1595212.4, -32180.777, -0.21764414, -0.07699795, -1380655.1, 143401.42, 0.0, 10.001523, 9.99874 
6.9495076e+2, 1.5448242e+2, -1384800.4, -1544708.8, -57728.258, -0.02913866, -0.054527804, -1366138.0, 59930.92, 0.0, 10.000859, 9.998733 
6.9496554e+2, 1.6448155e+2, -1277035.5, -1388516.3, -58391.83, 0.048028197, -0.035931863, -1252050.5, 76027.73, 0.0, 10.000696, 9.999209 
6.949794e+2, 1.7448086e+2, -1109133.6, -1251528.0, -51715.48, 0.030683273, -0.03220275, -1092333.5, 137750.17, 0.0, 10.001152, 9.999258 
6.949931e+2, 1.8447982e+2, -1058539.6, -1248224.5, -65921.016, 0.013677348, -0.029092941, -1037880.2, 94213.37, 0.0, 10.001136, 9.998615 
6.950065e+2, 1.9447838e+2, -1045803.44, -1192035.9, -66551.12, -0.015039206, -0.03386674, -1020050.9, 14057.973, 0.0, 10.000555, 9.998608 
6.950202e+2, 2.0447712e+2, -959396.3, -1076912.0, -56602.78, -0.01684329, -0.03020992, -936567.6, -446.01242, 0.0, 10.000376, 9.998812 
6.9503456e+2, 2.1447602e+2, -813005.9, -952332.0, -59548.004, 0.018835926, -0.024723804, -791023.4, 47108.047, 0.0, 10.000693, 9.998842 
6.950483e+2, 2.2447473e+2, -715092.8, -856978.75, -72443.695, 0.015143793, -0.03404427, -684640.56, 55502.58, 0.0, 10.000703, 9.99882 
6.950614e+2, 2.3447321e+2, -668589.4, -780931.8, -67860.625, -0.037368614, -0.07005689, -636668.2, 5488.8525, 0.0, 10.000338, 9.998845 
6.950752e+2, 2.4447198e+2, -583966.3, -678058.6, -45174.8, -0.04812314, -0.08112343, -565789.0, -21620.89, 0.0, 10.000196, 9.998945 
6.950897e+2, 2.5447106e+2, -463900.7, -565433.2, -39382.824, -0.0065112044, -0.07149435, -450415.72, -4240.0586, 0.0, 10.000332, 9.9989805 
6.9510406e+2, 2.6446998e+2, -392718.88, -499795.94, -36949.863, 0.008912934, -0.0713382, -381206.16, -33020.098, 0.0, 10.000233, 9.998806 
6.951181e+2, 2.744686e+2, -349282.72, -426537.3, -40057.36, -0.007146687, -0.089202575, -332262.38, -82062.766, 0.0, 9.999851, 9.998819 
6.9513273e+2, 2.8446752e+2, -264896.22, -326684.03, -7506.5327, -0.009160487, -0.08186181, -263997.34, -111787.04, 0.0, 9.999721, 9.998896 
6.95148e+2, 2.9446667e+2, -142953.9, -217067.06, -3644.8584, 0.004180866, -0.05861867, -142775.1, -88557.164, 0.000000000021633938, 9.999885, 9.998897 
6.9516253e+2, 3.044648e+2, -74227.92, -125652.79, -32130.203, -0.007902657, -0.1492093, -58788.453, -58788.453, 0.00000014519733, 9.999879, 9.999193 
6.9517666e+2, 3.1446493e+2, -48289.992, -21631.9, 15870.699, -0.020672705, -0.058791704, -14235.537, -14235.537, 0.0000015881137, 9.999661, 10.000011 
7.049075e+2, 1.2446921e+2, -1539169.6, -1705253.5, 8985.834, -0.057402227, -0.08772778, -1538684.9, 181512.08, 0.0, 10.001545, 9.999313 
7.0492494e+2, 1.3446932e+2, -1459129.9, -1589661.5, 7483.2285, 0.16747814, -0.037313085, -1458702.3, 163492.58, 0.0, 10.001283, 9.999575 
7.049362e+2, 1.4446813e+2, -1432891.9, -1611270.4, -43651.426, -0.21166284, -0.07179647, -1422782.8, 101423.89, 0.0, 10.001168, 9.9988 
7.049519e+2, 1.5446697e+2, -1305562.4, -1499787.1, -48997.207, -0.023893032, -0.06849727, -1293901.9, 132318.03, 0.0, 10.001375, 9.998792 
7.0496655e+2, 1.6446608e+2, -1197199.0, -1364379.3, -38223.27, 0.050704774, -0.048570696, -1188874.4, 139355.13, 0.0, 10.001307, 9.999081 
7.0498043e+2, 1.744655e+2, -1156796.5, -1288975.6, -53230.746, 0.026768235, -0.01902528, -1138025.4, 92209.47, 0.0, 10.000891, 9.9991255 
7.0499396e+2, 1.8446448e+2, -1109593.4, -1254690.9, -80922.27, 0.008172275, -0.015271014, -1073460.4, 58784.367, 0.0, 10.000709, 9.9987755 
7.0500714e+2, 1.9446291e+2, -994303.2, -1148302.6, -69694.17, -0.016269853, -0.05078176, -967446.06, 66813.98, 0.0, 10.000826, 9.998778 
7.050207e+2, 2.0446165e+2, -906280.4, -1057230.8, -40576.547, -0.016631106, -0.05194143, -896064.44, 40207.832, 0.0, 10.000765, 9.99876 
7.050351e+2, 2.1446078e+2, -846188.4, -974510.8, -39446.984, 0.01674149, -0.020446312, -835032.06, 3248.7217, 0.0, 10.000493, 9.998786 
7.0504874e+2, 2.2445954e+2, -763101.94, -878454.7, -58591.7, 0.009184871, -0.021538291, -738561.9, 1730.2972, 0.0, 10.000367, 9.998834 
7.050617e+2, 2.3445792e+2, -654665.44, -772159.1, -62908.6, -0.04978268, -0.069958515, -627338.56, 14968.248, 0.0, 10.000424, 9.998863 
7.050754e+2, 2.4445663e+2, -565572.75, -666714.9, -44416.4, -0.054160096, -0.08843968, -548836.7, -4518.485, 0.0, 10.000313, 9.998967 
7.0509005e+2, 2.5445575e+2, -510195.38, -585169.1, -46362.53, 0.009072536, -0.08019787, -488060.53, -41734.848, 0.0, 10.000003, 9.999003 
7.051043e+2, 2.644547e+2, -440508.94, -531899.94, -46224.094, 0.026750913, -0.071682215, -421206.38, -72870.734, 0.0, 9.999943, 9.998725 
7.051181e+2, 2.7445343e+2, -305915.8, -414776.4, -49029.46, -0.010323747, -0.06957247, -287089.4, -36740.875, 0.0, 10.000189, 9.998737 
7.0513254e+2, 2.844522e+2, -209346.1, -297747.53, -20019.791, -0.016171794, -0.07177609, -205023.67, -52663.16, 0.0, 10.000093, 9.998916 
7.051478e+2, 2.94451e+2, -183076.89, -233091.28, -20413.17, 0.014226778, -0.09236962, -175803.17, -121431.4, 0.0, 9.999595, 9.998926 
7.051623e+2, 3.0444938e+2, -122420.46, -128846.96, -45787.027, 0.00036908538, -0.1640059, -79734.07, -79734.07, 0.00000008201181, 9.999461, 9.9993725 
7.051764e+2, 3.1445011e+2, -41276.152, -25347.723, -7573.525, -0.017250013, -0.03277006, -22321.623, -22321.623, 0.0000012936833, 9.999739, 9.99995 
7.149087e+2, 1.2445423e+2, -1567533.5, -1766197.5, -10300.007, -0.088161826, -0.092294596, -1567000.9, 153341.77, 0.0, 10.001552, 9.998894 
7.149263e+2, 1.3445424e+2, -1484928.9, -1644694.1, -2532.1511, 0.17823787, -0.0118501885, -1484888.8, 137455.11, 0.0, 10.001289, 9.999194 
7.14938e+2, 1.44453e+2, -1413067.4, -1569985.6, -39031.24, -0.15145777, -0.04320601, -1403895.0, 120461.34, 0.0, 10.001169, 9.999083 
7.149535e+2, 1.5445192e+2, -1283326.4, -1453286.8, -40753.32, -0.001866312, -0.06541574, -1274059.8, 152306.97, 0.0, 10.001373, 9.999111 
7.1496767e+2, 1.6445097e+2, -1223341.4, -1418195.4, -52889.066, 0.031448327, -0.0513268, -1209911.4, 118465.445, 0.0, 10.001305, 9.998713 
7.1498066e+2, 1.7445014e+2, -1185244.4, -1348449.5, -68306.46, -0.037278786, -0.0045180675, -1160429.1, 69957.67, 0.0, 10.000892, 9.998717 
7.1499413e+2, 1.8444908e+2, -1088565.3, -1210655.5, -78199.04, -0.047903154, 0.00036876198, -1050405.6, 81992.02, 0.0, 10.000707, 9.99908 
7.1500814e+2, 1.9444768e+2, -971046.75, -1098816.6, -65189.445, 0.0014082809, -0.0527489, -943657.6, 90751.555, 0.0, 10.00082, 9.999121 
7.150218e+2, 2.0444645e+2, -905639.3, -1055139.9, -50853.777, 0.013114564, -0.068949565, -889981.0, 46438.883, 0.0, 10.000762, 9.998777 
7.150352e+2, 2.1444546e+2, -846669.75, -975279.56, -49610.145, -0.016674206, -0.048997633, -829757.1, 8672.373, 0.0, 10.000491, 9.998782 
7.1504885e+2, 2.2444429e+2, -767950.0, -888659.4, -57788.44, -0.022318847, -0.039508738, -744745.2, -4304.674, 0.0, 10.000367, 9.998764 
7.1506256e+2, 2.3444298e+2, -660699.1, -783791.44, -60307.316, 0.0009182279, -0.050351147, -636077.44, 6375.759, 0.0, 10.000421, 9.998786 
7.150762e+2, 2.4444169e+2, -570858.5, -677149.3, -55772.17, 0.0053018043, -0.06299672, -546965.1, -2500.0781, 0.0, 10.000311, 9.998898 
7.1508986e+2, 2.5444037e+2, -514946.88, -596007.2, -57689.89, -0.013109031, -0.08727055, -484973.0, -38496.973, 0.0, 10.000007, 9.998927 
7.151038e+2, 2.644391e+2, -444915.2, -542117.06, -38198.6, -0.018787917, -0.08910266, -431700.4, -83212.63, 0.0, 9.999948, 9.998653 
7.151183e+2, 2.74438e+2, -311564.5, -424953.88, -39183.3, -0.0070997956, -0.070283145, -299341.72, -48841.547, 0.0, 10.000182, 9.998672 
7.1513283e+2, 2.844368e+2, -211841.5, -300953.16, -37518.66, 0.0018613065, -0.064258166, -198148.95, -45636.92, 0.0, 10.000085, 9.998898 
7.151473e+2, 2.944356e+2, -184682.4, -235725.23, -37997.664, 0.0027857174, -0.08312593, -164430.84, -109907.4, 0.0, 9.999592, 9.998909 
7.151616e+2, 3.0443418e+2, -116075.875, -115255.414, -36548.133, -0.0137528945, -0.13604547, -79115.21, -79115.21, 0.00000004119849, 9.999458, 9.999468 
7.1517646e+2, 3.1443453e+2, -51138.074, -41783.965, 2201.399, 0.017572042, -0.054426495, -41291.78, -41291.78, 0.0000010048329, 9.999722, 9.9998455 
7.249104e+2, 1.24439724e+2, -1540069.4, -1778165.5, -6084.108, -0.086564384, -0.07384131, -1539914.0, 180570.2, 0.0, 10.001846, 9.99867 
7.249277e+2, 1.3443929e+2, -1439065.6, -1643107.0, 22127.271, 0.17288305, -0.019190695, -1436693.6, 185797.05, 0.0, 10.001695, 9.999008 
7.249395e+2, 1.4443795e+2, -1361941.1, -1540304.9, -4818.32, -0.12772015, -0.0532549, -1361811.1, 162693.17, 0.0, 10.001498, 9.999126 
7.249549e+2, 1.5443717e+2, -1281727.0, -1446172.4, -25512.027, 0.0001743054, -0.05074102, -1277860.0, 148651.05, 0.0, 10.001358, 9.9991665 
7.249688e+2, 1.6443627e+2, -1244151.5, -1436795.8, -48624.477, 0.020324497, -0.031941425, -1232574.1, 95946.52, 0.0, 10.001199, 9.998636 
7.249814e+2, 1.7443515e+2, -1171893.3, -1352133.1, -41827.523, -0.051154267, -0.00578924, -1162659.5, 67874.52, 0.0, 10.001025, 9.998628 
7.2499484e+2, 1.8443398e+2, -1064233.5, -1202737.3, -39105.516, -0.05817208, -0.00457701, -1053955.0, 78590.945, 0.0, 10.00089, 9.999045 
7.250089e+2, 1.944327e+2, -975676.94, -1103599.9, -53504.215, 0.0011880887, -0.04130191, -956249.2, 78306.86, 0.0, 10.000801, 9.999096 
7.250225e+2, 2.0443149e+2, -911638.25, -1053058.6, -58993.582, 0.013539413, -0.05919938, -890260.56, 46305.797, 0.0, 10.0007, 9.99882 
7.2503567e+2, 2.144303e+2, -829843.5, -962024.1, -55385.895, -0.027716925, -0.06256758, -809704.3, 28872.818, 0.0, 10.000584, 9.998829 
7.2504914e+2, 2.2442904e+2, -762339.06, -898011.94, -56748.492, -0.031283934, -0.059650853, -741732.44, -1143.5208, 0.0, 10.000458, 9.998657 
7.25063e+2, 2.3442775e+2, -682000.25, -806750.94, -63054.582, 0.010981755, -0.05762103, -655681.94, -13079.896, 0.0, 10.000329, 9.9986725 
7.250767e+2, 2.4442644e+2, -573170.2, -680935.4, -59669.023, 0.018217891, -0.06370062, -546655.5, -2041.3026, 0.0, 10.000306, 9.998874 
7.2508997e+2, 2.544251e+2, -456978.6, -569477.3, -57712.53, -0.017581064, -0.08844884, -432638.1, 13987.033, 0.0, 10.000411, 9.998915 
7.251038e+2, 2.644238e+2, -392101.5, -517312.13, -31380.549, -0.029488042, -0.095826566, -384677.06, -36039.68, 0.0, 10.000314, 9.998648 
7.2511834e+2, 2.7442256e+2, -341998.9, -440503.9, -28715.215, -0.010230453, -0.089877695, -334239.38, -83588.15, 0.0, 9.999976, 9.998665 
7.2513276e+2, 2.844214e+2, -257383.58, -327758.38, -31655.365, 0.0011558678, -0.075660475, -245240.08, -92577.19, 0.0, 9.999792, 9.998855 
7.2514695e+2, 2.944205e+2, -157279.16, -227230.11, -34862.664, -0.0024500955, -0.057059977, -142871.55, -88199.85, 0.0, 9.9998, 9.998868 
7.251612e+2, 3.044194e+2, -87638.79, -102009.0, -29768.746, -0.012457357, -0.07981172, -64200.313, -64200.313, 0.000000018939705, 9.999657, 9.999464 
7.2517633e+2, 3.1441885e+2, -118598.57, -86958.87, -1729.1814, 0.055320296, -0.08658253, -86864.64, -86864.64, 0.0000007295325, 9.999312, 9.999733 
7.349125e+2, 1.24425724e+2, -1542371.4, -1783425.4, -19005.781, -0.05746537, -0.03230382, -1540882.1, 179739.2, 0.0, 10.001847, 9.998634 
7.349292e+2, 1.3442445e+2, -1438228.5, -1641466.0, 15714.004, 0.1481759, -0.060398817, -1437020.6, 185614.23, 0.0, 10.001696, 9.999019 
7.349409e+2, 1.4442296e+2, -1374187.5, -1566317.9, -11345.536, -0.14478207, -0.10452231, -1373519.8, 151130.45, 0.0, 10.0015, 9.998947 
7.3495597e+2, 1.5442275e+2, -1294982.0, -1475200.5, -29729.592, -0.021323686, -0.025161892, -1290204.4, 136448.28, 0.0, 10.001364, 9.998965 
7.349699e+2, 1.6442198e+2, -1230531.0, -1408518.1, -55718.953, 0.013395814, 0.009394836, -1214527.1, 114133.76, 0.0, 10.001199, 9.99883 
7.3498285e+2, 1.7442052e+2, -1156554.1, -1320018.4, -48219.246, -0.016886918, -0.021776276, -1143390.4, 87286.02, 0.0, 10.001024, 9.998849 
7.34996e+2, 1.8441918e+2, -1089321.1, -1254333.0, -43237.152, -0.024594614, -0.030036991, -1078678.4, 54011.383, 0.0, 10.000887, 9.998693 
7.3500955e+2, 1.9441804e+2, -1003019.1, -1160265.9, -56730.492, -0.018214222, -0.0172951, -984689.0, 50011.465, 0.0, 10.0008, 9.998708 
7.3502296e+2, 2.0441677e+2, -906955.06, -1042956.0, -64014.785, -0.017685056, -0.023316378, -881564.06, 55147.555, 0.0, 10.000698, 9.998891 
7.350363e+2, 2.1441531e+2, -823737.25, -948426.4, -59562.574, -0.019112295, -0.06087981, -799858.0, 38865.45, 0.0, 10.00058, 9.998924 
7.3504966e+2, 2.2441381e+2, -772793.5, -919184.7, -62350.695, -0.019634191, -0.08141927, -749837.1, -9099.974, 0.0, 10.000455, 9.998513 
7.350631e+2, 2.3441225e+2, -693051.5, -830072.0, -67632.74, -0.019931994, -0.09036922, -665292.1, -22538.928, 0.0, 10.00033, 9.998512 
7.3507667e+2, 2.4441093e+2, -570540.94, -675657.4, -56429.746, -0.016168958, -0.089783765, -545984.44, -1218.9391, 0.0, 10.000306, 9.99891 
7.3509043e+2, 2.5440997e+2, -454437.22, -562366.0, -53270.2, -0.007550671, -0.084900275, -432573.72, 14199.225, 0.0, 10.000403, 9.998968 
7.351043e+2, 2.6440868e+2, -389508.88, -510103.38, -43319.203, -0.008916631, -0.09272389, -375561.2, -26776.637, 0.0, 10.000306, 9.998701 
7.3511815e+2, 2.7440712e+2, -339276.56, -434387.25, -40739.027, -0.020905424, -0.12545644, -324212.6, -73411.08, 0.0, 9.999974, 9.998708 
7.3513234e+2, 2.8440604e+2, -261191.56, -335681.5, -31917.451, -0.019044407, -0.10401757, -249386.44, -96573.52, 0.0, 9.999792, 9.9988 
7.351467e+2, 2.9440576e+2, -162259.36, -235549.55, -33205.29, -0.0049868254, -0.017337913, -149452.92, -94636.16, 0.0, 9.999791, 9.998816 
7.3516095e+2, 3.04405e+2, -96650.41, -118869.88, -41459.426, -0.00033847414, 0.0016394703, -64838.0, -64838.0, 0.0000000073965225, 9.999649, 9.9993515 
7.3517597e+2, 3.1440324e+2, -130772.33, -108792.77, -15392.725, 0.08948576, -0.11429792, -100869.3, -100869.3, 0.0000004773962, 9.999299, 9.99959 
7.449145e+2, 1.24411054e+2, -1541942.8, -1782566.9, -36604.98, -0.04762135, -0.042931482, -1536497.5, 184267.33, 0.0, 10.001849, 9.998638 
7.449307e+2, 1.3440996e+2, -1415478.5, -1626473.9, 2396.5342, 0.12137618, -0.058495007, -1415451.3, 207325.45, 0.0, 10.001837, 9.999052 
7.4494237e+2, 1.444085e+2, -1357167.6, -1562746.6, -23415.576, -0.1488725, -0.0990558, -1354534.4, 170257.4, 0.0, 10.001636, 9.998907 
7.449573e+2, 1.544081e+2, -1303136.5, -1484379.1, -30038.621, -0.020906758, -0.032147765, -1298287.8, 128508.0, 0.0, 10.001329, 9.998919 
7.449712e+2, 1.6440724e+2, -1237450.9, -1415527.4, -51211.098, 0.021921517, -0.0026962215, -1223774.1, 105030.72, 0.0, 10.001166, 9.998797 
7.4498415e+2, 1.744058e+2, -1136564.4, -1314208.3, -63195.66, 0.0025779027, -0.030262878, -1116377.0, 114443.21, 0.0, 10.001179, 9.998815 
7.449972e+2, 1.8440446e+2, -1054936.5, -1243803.8, -56971.805, -0.012007117, -0.03440885, -1039081.94, 93751.74, 0.0, 10.001148, 9.99864 
7.4501026e+2, 1.9440329e+2, -967028.2, -1149392.3, -46436.203, -0.035979915, -0.017352773, -955884.8, 78959.766, 0.0, 10.001074, 9.9986515 
7.450235e+2, 2.0440196e+2, -878438.9, -1040398.44, -48591.203, -0.0399785, -0.021417387, -864979.06, 71877.445, 0.0, 10.000941, 9.998792 
7.4503696e+2, 2.1440041e+2, -807569.8, -951627.9, -60041.31, -0.013704491, -0.060382623, -785827.1, 53042.668, 0.0, 10.000739, 9.998825 
7.450503e+2, 2.2439884e+2, -751834.06, -906637.75, -61866.26, -0.008517804, -0.08341054, -730147.6, 10736.269, 0.0, 10.000587, 9.998535 
7.4506336e+2, 2.3439726e+2, -666671.4, -813667.0, -53657.57, -0.031043055, -0.09574484, -649168.9, -6269.661, 0.0, 10.000496, 9.998545 
7.450768e+2, 2.4439588e+2, -570168.9, -680993.06, -36185.598, -0.031020323, -0.10112352, -559400.2, -14488.295, 0.0, 10.000334, 9.99886 
7.450908e+2, 2.5439477e+2, -503986.38, -592720.75, -41896.223, -0.0030422402, -0.10493749, -487331.1, -40409.938, 0.0, 10.000091, 9.99891 
7.4510455e+2, 2.643936e+2, -437972.63, -529188.9, -39517.95, 0.0005525411, -0.10531537, -423233.7, -74301.36, 0.0, 9.999953, 9.99874 
7.451181e+2, 2.7439228e+2, -338805.72, -429152.5, -38006.133, -0.02421659, -0.11167637, -324944.34, -73998.3, 0.0, 9.999955, 9.998753 
7.451321e+2, 2.8439116e+2, -252308.06, -331044.44, -24708.379, -0.022132521, -0.0987471, -245196.61, -92238.555, 0.0, 9.999851, 9.998804 
7.451466e+2, 2.9439038e+2, -186891.02, -247475.39, -22633.139, 0.008930225, -0.06128752, -179369.52, -124402.59, 0.0, 9.999621, 9.998816 
7.451606e+2, 3.0438998e+2, -128649.51, -137685.05, -28794.904, 0.01319109, -0.0039055343, -104020.125, -104020.125, 0.0000000015345106, 9.999444, 9.999321 
7.451753e+2, 3.1438854e+2, -121347.664, -99020.586, -1959.1373, 0.09039498, -0.08588541, -98849.98, -98849.98, 0.00000026410652, 9.999341, 9.999636 
7.5491613e+2, 1.2439573e+2, -1540836.4, -1781097.4, -43327.195, -0.0671694, -0.10875987, -1533261.9, 187652.77, 0.0, 10.001851, 9.998648 
7.5493217e+2, 1.3439578e+2, -1412367.1, -1619944.1, 1086.0944, 0.089065425, -0.013600063, -1412361.5, 210554.56, 0.0, 10.001837, 9.999097 
7.549441e+2, 1.4439456e+2, -1350351.4, -1548183.3, -36268.395, -0.14282726, -0.035588857, -1343911.9, 181016.56, 0.0, 10.001635, 9.999007 
7.5495887e+2, 1.5439327e+2, -1294835.5, -1467623.5, -41151.625, 0.000059863516, -0.070615314, -1285535.3, 141404.92, 0.0, 10.001331, 9.999033 
7.549725e+2, 1.6439207e+2, -1254991.8, -1452438.6, -51935.668, 0.04309617, -0.06928237, -1242164.1, 86788.195, 0.0, 10.001168, 9.998544 
7.549853e+2, 1.7439097e+2, -1156298.3, -1355944.4, -62564.85, 0.0048432434, -0.03247751, -1138312.1, 92653.26, 0.0, 10.001181, 9.998528 
7.5499815e+2, 1.843898e+2, -1038737.1, -1209238.4, -60330.16, -0.023875825, -0.018506633, -1019549.25, 113428.26, 0.0, 10.001144, 9.998879 
7.5501114e+2, 1.9438851e+2, -948410.5, -1110122.4, -49100.027, -0.05335211, -0.040952716, -934670.0, 100318.24, 0.0, 10.001071, 9.998922 
7.550243e+2, 2.043871e+2, -897494.06, -1079391.1, -56748.12, -0.054275338, -0.05318196, -881241.94, 55758.934, 0.0, 10.000938, 9.998526 
7.550377e+2, 2.1438555e+2, -828773.94, -995338.25, -67691.07, -0.013864457, -0.061134778, -804734.1, 34281.734, 0.0, 10.000737, 9.998527 
7.5505096e+2, 2.2438411e+2, -738765.4, -878801.3, -66101.72, -0.0010885841, -0.06582554, -712492.3, 28536.785, 0.0, 10.000585, 9.998728 
7.550639e+2, 2.343828e+2, -651818.1, -781717.25, -56877.625, -0.024520498, -0.074923135, -630433.94, 12606.115, 0.0, 10.000491, 9.998766 
7.550771e+2, 2.443813e+2, -580427.5, -701367.5, -45375.223, -0.027838353, -0.09817583, -565296.4, -20242.98, 0.0, 10.000329, 9.998722 
7.5509083e+2, 2.5437957e+2, -515714.22, -617134.9, -50581.605, -0.0055994187, -0.14639126, -494800.28, -47730.703, 0.0, 10.000091, 9.998742 
7.551044e+2, 2.6437846e+2, -435668.72, -524522.25, -39982.66, -0.0027040136, -0.13231865, -420326.34, -71245.836, 0.0, 9.999953, 9.998772 
7.55118e+2, 2.7437806e+2, -336131.84, -421906.75, -36839.508, -0.023287194, -0.05326466, -322481.84, -71396.61, 0.0, 9.999948, 9.998806 
7.551321e+2, 2.8437677e+2, -250349.11, -325108.9, -32665.373, -0.011804904, -0.062434345, -238087.47, -84988.96, 0.0, 9.999843, 9.998849 
7.5514644e+2, 2.943745e+2, -185560.44, -242599.7, -30161.063, 0.035478313, -0.1786467, -172570.33, -117449.05, 0.0, 9.999612, 9.998854 
7.5516015e+2, 3.043745e+2, -125103.79, -128954.49, -32858.582, 0.025279438, -0.08683928, -94114.195, -94114.195, 0.00000000001992495, 9.999438, 9.999384 
7.551743e+2, 3.1437477e+2, -107764.875, -67653.76, -6336.4785, 0.054897223, -0.00088689686, -66676.57, -66676.57, 0.000000109993245, 9.999328, 9.999858 
7.6491797e+2, 1.2438117e+2, -1527015.9, -1770482.5, -34184.99, -0.07513175, -0.12041318, -1522307.0, 198750.13, 0.0, 10.001925, 9.998687 
7.6493394e+2, 1.3438131e+2, -1424259.0, -1619531.3, 13480.82, 0.09012633, -0.022037536, -1423332.8, 199724.69, 0.0, 10.001729, 9.999151 
7.64946e+2, 1.4438017e+2, -1360999.9, -1551144.0, -26469.47, -0.112354524, -0.04037309, -1357383.9, 167685.13, 0.0, 10.001552, 9.999027 
7.649603e+2, 1.5437889e+2, -1265235.3, -1451827.3, -38500.297, -0.0038319353, -0.074918516, -1257603.5, 169477.27, 0.0, 10.001527, 9.999048 
7.649737e+2, 1.6437767e+2, -1214423.5, -1437569.6, -40702.33, 0.023757432, -0.07441541, -1207231.1, 121861.83, 0.0, 10.001465, 9.998504 
7.649864e+2, 1.7437652e+2, -1132740.0, -1349188.1, -33858.297, -0.010022497, -0.040645674, -1127567.3, 103539.23, 0.0, 10.001363, 9.9984865 
7.649993e+2, 1.8437524e+2, -1034400.94, -1209756.8, -34792.26, -0.030807467, -0.03155543, -1027750.06, 105369.05, 0.0, 10.001185, 9.998856 
7.650122e+2, 1.9437386e+2, -973134.4, -1124530.5, -46415.582, -0.047476713, -0.06169113, -960037.1, 75093.664, 0.0, 10.000912, 9.998899 
7.650252e+2, 2.0437248e+2, -922783.44, -1094396.4, -52847.258, -0.047210194, -0.06852944, -907815.0, 29328.336, 0.0, 10.000776, 9.998501 
7.6503843e+2, 2.1437113e+2, -819432.75, -993755.94, -43973.953, -0.021704355, -0.055020172, -808968.25, 30188.646, 0.0, 10.0008135, 9.998501 
7.650515e+2, 2.243697e+2, -720206.0, -869356.0, -41489.555, -0.008928327, -0.056427866, -709441.56, 31728.352, 0.0, 10.000711, 9.998731 
7.650645e+2, 2.3436819e+2, -660421.75, -785757.25, -50023.32, -0.013564936, -0.08569416, -642904.8, 277.4528, 0.0, 10.000432, 9.998767 
7.650776e+2, 2.443666e+2, -595639.3, -718607.75, -42700.137, -0.013712644, -0.11284203, -582266.25, -37069.87, 0.0, 10.000267, 9.998633 
7.6509094e+2, 2.5436497e+2, -498371.72, -619316.6, -43484.484, -0.008791677, -0.14406997, -484360.5, -37147.957, 0.0, 10.000256, 9.998648 
7.651044e+2, 2.6436383e+2, -407386.6, -505330.94, -29708.758, -0.0075309784, -0.12599425, -399079.78, -49856.28, 0.0, 10.000125, 9.99882 
7.651181e+2, 2.7436337e+2, -347836.25, -421117.38, -27255.389, -0.008780771, -0.060523827, -338810.75, -87582.4, 0.0, 9.99984, 9.998863 
7.6513195e+2, 2.8436202e+2, -290120.3, -341222.03, -25965.887, 0.008344581, -0.07879871, -279242.16, -126000.37, 0.0, 9.999557, 9.998877 
7.6514596e+2, 2.9435977e+2, -229734.28, -261629.97, -26146.715, 0.04321069, -0.19604191, -215055.6, -159791.02, 0.0, 9.999298, 9.998875 
7.651594e+2, 3.0435997e+2, -156464.42, -144453.55, -22109.889, 0.016414141, -0.085137054, -127548.01, -127548.01, 0.0, 9.999223, 9.999381 
7.651734e+2, 3.1436005e+2, -87728.49, -32270.941, -3537.7734, 0.03297794, -0.024030905, -32046.168, -32046.168, 0.000000028836135, 9.999352, 10.000089 
7.7491987e+2, 1.2436746e+2, -1522502.4, -1759650.4, -46082.223, -0.07800344, -0.07136243, -1513862.5, 207329.14, 0.00000000003061157, 10.00192, 9.998764 
7.7493596e+2, 1.3436654e+2, -1419593.4, -1609337.9, 5413.9043, 0.12152307, -0.08420399, -1419439.0, 203761.78, 0.0, 10.001727, 9.999222 
7.74948e+2, 1.443653e+2, -1364698.8, -1559597.9, -29629.83, -0.062358595, -0.11569013, -1360293.8, 164919.53, 0.0, 10.0015545, 9.998968 
7.749615e+2, 1.5436497e+2, -1270618.5, -1464139.9, -38997.87, -0.035086475, -0.046760447, -1263055.4, 164161.89, 0.0, 10.001531, 9.998962 
7.7497447e+2, 1.6436407e+2, -1202557.3, -1412394.5, -45269.0, -0.03908411, -0.01860197, -1193207.8, 136018.84, 0.0, 10.001464, 9.998676 
7.749874e+2, 1.743624e+2, -1118853.6, -1320227.9, -37657.242, -0.04388916, -0.05411794, -1112042.1, 119200.91, 0.0, 10.001362, 9.998685 
7.7500045e+2, 1.8436083e+2, -1054310.1, -1250522.9, -45299.316, -0.03553729, -0.07372488, -1044356.9, 88901.43, 0.0, 10.001183, 9.998578 
7.750134e+2, 1.9435938e+2, -995375.5, -1170483.4, -56668.4, -0.020779671, -0.07962714, -978636.56, 56635.5, 0.0, 10.00091, 9.998586 
7.7502626e+2, 2.0435813e+2, -908583.3, -1063532.3, -53013.863, -0.021930514, -0.067820996, -892181.5, 45102.246, 0.0, 10.000771, 9.998715 
7.750391e+2, 2.1435714e+2, -802991.94, -958526.75, -42623.457, -0.03843795, -0.042237602, -792077.1, 47215.574, 0.0, 10.000809, 9.998744 
7.75052e+2, 2.2435562e+2, -733821.4, -896917.0, -52056.516, -0.032988477, -0.05543523, -718622.5, 22683.742, 0.0, 10.000709, 9.998544 
7.75065e+2, 2.3435348e+2, -675553.56, -817173.9, -60218.543, -0.00043963848, -0.12687927, -653410.25, -10084.691, 0.0, 10.000431, 9.998552 
7.7507806e+2, 2.4435185e+2, -598809.7, -724596.1, -44043.203, 0.008255904, -0.14473277, -584921.7, -39580.965, 0.0, 10.000265, 9.998594 
7.750911e+2, 2.5435093e+2, -500898.56, -623197.3, -43117.74, -0.014575867, -0.10107896, -487225.56, -39875.29, 0.0, 10.00025, 9.998624 
7.7510446e+2, 2.643498e+2, -404382.6, -497821.47, -39545.68, -0.015141501, -0.08754315, -389892.8, -40531.477, 0.0, 10.000119, 9.998876 
7.751182e+2, 2.7434832e+2, -344584.38, -413447.28, -37030.684, 0.015422268, -0.12610833, -328451.06, -77076.305, 0.0, 9.999835, 9.998919 
7.7513176e+2, 2.8434706e+2, -288158.84, -336781.78, -35901.625, 0.034123138, -0.14286274, -269111.63, -115724.24, 0.0, 9.999555, 9.998908 
7.751451e+2, 2.9434615e+2, -228889.53, -258917.72, -34091.773, 0.031107562, -0.12523091, -206652.16, -151254.4, 0.0, 9.999294, 9.998896 
7.7515835e+2, 3.043464e+2, -163658.38, -157759.2, -17022.654, -0.014023973, -0.006950656, -143432.48, -143432.48, 0.0, 9.999215, 9.999293 
7.7517253e+2, 3.1434447e+2, -76816.99, -5144.838, 554.8083, 0.014545909, -0.13793842, -5140.5435, -5140.5435, 0.0000000029769756, 9.999333, 10.000285 
7.849219e+2, 1.2435374e+2, -1494630.4, -1749265.1, -25611.18, -0.073901, -0.063988775, -1492079.9, 229245.81, 0.0000000009851104, 10.002124, 9.998737 
7.849377e+2, 1.3435261e+2, -1406993.0, -1606609.4, 18232.605, 0.11521299, -0.09442592, -1405341.3, 217995.08, 0.0, 10.001829, 9.999191 
7.849498e+2, 1.4435124e+2, -1368485.5, -1579086.0, -15697.648, -0.045487747, -0.1287111, -1367321.9, 158028.17, 0.0, 10.001603, 9.998813 
7.84963e+2, 1.5435085e+2, -1278608.8, -1486311.9, -30965.621, -0.03201748, -0.05035039, -1274090.5, 153264.95, 0.0, 10.0015545, 9.998799 
7.8497595e+2, 1.6434994e+2, -1198496.0, -1398861.6, -45327.61, -0.040572006, -0.01833897, -1188718.9, 140646.0, 0.0, 10.001441, 9.99878 
7.8498876e+2, 1.7434838e+2, -1125364.8, -1310143.5, -44618.207, -0.03965768, -0.05518759, -1115155.0, 116224.55, 0.0, 10.001259, 9.998804 
7.8500164e+2, 1.8434682e+2, -1066148.8, -1265583.3, -47981.41, -0.02766076, -0.075823076, -1055205.5, 78188.99, 0.0, 10.001141, 9.998495 
7.8501445e+2, 1.9434527e+2, -973814.5, -1170598.4, -44051.074, -0.013998529, -0.08310618, -964403.5, 71006.1, 0.0, 10.001103, 9.998491 
7.850271e+2, 2.043439e+2, -884126.56, -1048751.3, -37700.46, -0.017775333, -0.079096414, -875903.56, 61518.676, 0.0, 10.000927, 9.998741 
7.850397e+2, 2.1434279e+2, -835166.4, -970534.94, -43881.863, -0.03832105, -0.068941794, -822186.06, 17245.78, 0.0, 10.000573, 9.9987755 
7.850525e+2, 2.2434127e+2, -777911.94, -921497.6, -52795.355, -0.036170337, -0.08341024, -760589.3, -19143.908, 0.0, 10.000421, 9.998513 
7.850654e+2, 2.3433925e+2, -662786.94, -814751.4, -48843.54, -0.0072143665, -0.13890976, -648442.06, -4977.829, 0.0, 10.000536, 9.998517 
7.8507835e+2, 2.4433771e+2, -565792.44, -702200.4, -24775.809, 0.0059856847, -0.14869559, -561431.8, -15953.087, 0.0, 10.000464, 9.998651 
7.8509146e+2, 2.5433683e+2, -512100.56, -621698.0, -18528.867, -0.0014997902, -0.106686026, -509052.78, -61565.324, 0.0, 10.000143, 9.998685 
7.8510463e+2, 2.6433566e+2, -442142.38, -520782.78, -16268.865, 0.00016540675, -0.09636618, -438909.63, -89411.02, 0.0, 9.99988, 9.998833 
7.851179e+2, 2.743341e+2, -366316.94, -429835.66, -22794.564, 0.0154158175, -0.13991173, -358983.47, -107470.2, 0.0, 9.999711, 9.998865 
7.851312e+2, 2.8433284e+2, -285961.03, -339486.38, -26050.81, 0.028825076, -0.15213048, -275375.56, -121849.48, 0.0, 9.999586, 9.998875 
7.851445e+2, 2.943321e+2, -202946.94, -250112.52, -29599.637, 0.035475716, -0.11857627, -188684.16, -133148.88, 0.0, 9.999489, 9.998861 
7.851576e+2, 3.043322e+2, -176496.98, -180047.83, -15330.296, -0.005582228, -0.0033005804, -162839.64, -162839.64, 0.0, 9.999198, 9.999148 
7.851716e+2, 3.1432983e+2, -160898.63, -30863.377, -7513.873, 0.022391412, -0.1623697, -30430.64, -30430.64, 0.0, 9.9986925, 10.000418 
7.94924e+2, 1.24340035e+2, -1503643.8, -1769761.9, -39997.74, -0.075925425, -0.098665215, -1497762.0, 223696.84, 0.0000000034592607, 10.0021305, 9.998594 
7.9493904e+2, 1.3433953e+2, -1415950.0, -1626629.3, 6655.806, 0.06906979, -0.053116735, -1415740.0, 207724.05, 0.0, 10.001835, 9.999052 
7.949512e+2, 1.4433806e+2, -1385924.4, -1615088.6, -19920.883, -0.064372495, -0.078585476, -1384205.6, 141273.36, 0.0, 10.001603, 9.998565 
7.949649e+2, 1.5433656e+2, -1296192.5, -1521935.4, -32428.225, 0.0012520261, -0.085361585, -1291626.5, 135868.36, 0.0, 10.001552, 9.998555 
7.949779e+2, 1.6433534e+2, -1196479.3, -1394431.5, -52660.527, 0.015299041, -0.07410781, -1183342.0, 146165.52, 0.0, 10.001439, 9.998813 
7.949905e+2, 1.743345e+2, -1122236.8, -1304105.6, -51246.67, 0.0018931117, -0.044182252, -1108790.6, 122725.15, 0.0, 10.00126, 9.998846 
7.95003e+2, 1.8433326e+2, -1058970.9, -1249714.4, -50458.133, -0.009213704, -0.03852757, -1046445.44, 87081.84, 0.0, 10.001137, 9.998606 
7.950154e+2, 1.9433154e+2, -966184.8, -1154030.9, -45554.227, -0.02908882, -0.07339667, -955720.5, 79822.71, 0.0, 10.001101, 9.998607 
7.9502785e+2, 2.0432983e+2, -895568.44, -1071804.6, -51130.566, -0.0368111, -0.10302399, -881808.5, 55750.26, 0.0, 10.000924, 9.998585 
7.950405e+2, 2.1432813e+2, -847773.3, -996213.25, -57161.633, -0.023599662, -0.13404973, -828312.7, 11261.146, 0.0, 10.00057, 9.998601 
7.950531e+2, 2.2432667e+2, -770338.75, -905023.9, -50396.58, -0.021274647, -0.13989086, -753569.3, -11982.13, 0.0, 10.000418, 9.998628 
7.950657e+2, 2.343255e+2, -653777.0, -795270.7, -44282.363, -0.03448461, -0.12271796, -641061.0, 2537.182, 0.0, 10.000533, 9.998652 
7.9507864e+2, 2.4432419e+2, -555999.75, -680974.4, -36105.49, -0.021310389, -0.124869645, -546318.75, -708.2899, 0.0, 10.00046, 9.998799 
7.9509187e+2, 2.543227e+2, -502476.2, -600586.6, -30202.93, 0.026280388, -0.15756084, -493923.84, -46300.008, 0.0, 10.000137, 9.998833 
7.9510486e+2, 2.6432154e+2, -451888.3, -540075.5, -23509.486, 0.034200743, -0.15105507, -446012.5, -96377.375, 0.0, 9.999875, 9.998703 
7.951174e+2, 2.743207e+2, -377654.66, -452305.25, -28233.37, -0.008777037, -0.108505435, -368179.3, -116534.91, 0.0, 9.999706, 9.998714 
7.951305e+2, 2.8431937e+2, -294916.4, -356639.88, -28948.035, -0.0072378456, -0.11019281, -283464.6, -129806.48, 0.0, 9.999579, 9.99876 
7.9514414e+2, 2.9431763e+2, -211877.31, -266212.16, -31676.705, 0.048687328, -0.16428334, -197313.66, -141637.45, 0.0, 9.999477, 9.998756 
7.951572e+2, 3.0431747e+2, -189426.13, -205475.5, -33552.07, 0.03223917, -0.06398687, -162952.45, -162952.45, 0.0, 9.999191, 9.998978 
7.951706e+2, 3.14316e+2, -155752.11, -18947.344, -26221.326, 0.050867766, -0.11499367, -14093.71, -14093.71, 0.0, 9.998687, 10.000502 
8.049263e+2, 1.24326445e+2, -1521495.5, -1794125.5, -52162.65, -0.05744578, -0.10988142, -1511856.0, 209735.3, 0.0000000057252847, 10.002074, 9.998456 
8.0494094e+2, 1.3432592e+2, -1373662.6, -1623516.4, -7545.5005, 0.055017993, -0.04939177, -1373435.0, 250162.03, 0.0, 10.002201, 9.998897 
8.04953e+2, 1.4432438e+2, -1326166.8, -1590378.8, -31608.777, -0.06349225, -0.07373401, -1322437.9, 203174.95, 0.0, 10.002032, 9.998527 
8.0496657e+2, 1.5432267e+2, -1291174.8, -1523463.4, -28338.102, 0.0075156433, -0.09901275, -1287767.6, 139862.64, 0.0, 10.001603, 9.998521 
8.0497944e+2, 1.6432133e+2, -1215805.6, -1413504.9, -38193.895, 0.025949107, -0.09282197, -1208683.4, 120960.58, 0.0, 10.0013485, 9.998726 
8.0499184e+2, 1.743205e+2, -1120108.1, -1313305.3, -47766.848, 0.011605048, -0.051319983, -1108943.3, 122709.46, 0.0, 10.001319, 9.9987545 
8.050042e+2, 1.8431936e+2, -1046306.06, -1231040.3, -53711.586, -0.0036656805, -0.03742035, -1031824.6, 101839.04, 0.0, 10.00117, 9.998717 
8.0501634e+2, 1.943178e+2, -989537.25, -1151389.4, -48696.62, -0.03080936, -0.06773656, -976015.5, 59661.965, 0.0, 10.000881, 9.998731 
8.050287e+2, 2.043161e+2, -922120.25, -1090423.9, -47942.297, -0.038749535, -0.100718684, -909421.75, 28271.01, 0.0, 10.000768, 9.998531 
8.0504125e+2, 2.1431419e+2, -807728.25, -983883.5, -46832.938, -0.018756308, -0.14626224, -796051.25, 43658.727, 0.0, 10.000877, 9.998537 
8.050537e+2, 2.2431271e+2, -719361.9, -878148.06, -39424.53, -0.01380561, -0.15221028, -710112.1, 31611.57, 0.0, 10.000757, 9.998648 
8.0506617e+2, 2.3431177e+2, -680471.3, -805133.6, -42108.37, -0.028604452, -0.11508133, -667580.9, -23848.031, 0.0, 10.000337, 9.998679 
8.0507886e+2, 2.4431054e+2, -611302.3, -693876.2, -41825.91, -0.017147012, -0.114186026, -593818.4, -48074.477, 0.0, 10.000022, 9.998921 
8.0509186e+2, 2.54309e+2, -534028.9, -601563.0, -38826.555, 0.02712923, -0.16742508, -516339.97, -68582.64, 0.0, 9.99986, 9.99896 
8.051046e+2, 2.643078e+2, -472168.13, -555703.75, -24877.738, 0.032590516, -0.1664927, -465320.6, -115551.97, 0.0, 9.999762, 9.998651 
8.051171e+2, 2.7430704e+2, -378629.44, -459980.56, -24045.395, -0.0103299385, -0.1087617, -372053.72, -120275.914, 0.0, 9.999731, 9.998649 
8.0513e+2, 2.8430578e+2, -300454.16, -351629.72, -20208.37, -0.0050656796, -0.105863065, -293436.53, -139645.28, 0.0, 9.999509, 9.998828 
8.051435e+2, 2.94304e+2, -268238.78, -284681.84, -11463.123, 0.058287464, -0.17171484, -262353.7, -206544.66, 0.0, 9.999053, 9.998834 
8.0515623e+2, 3.0430362e+2, -248552.5, -243219.67, -1096.8373, 0.039580524, -0.093417875, -243002.89, -243002.89, 0.0, 9.998825, 9.998895 
8.051693e+2, 3.1430236e+2, -119960.19, 14347.807, 9054.251, 0.04557045, -0.11547286, 14955.442, 14955.442, 0.0, 9.998864, 10.000645 
8.1492865e+2, 1.2431307e+2, -1530479.4, -1812904.5, -50226.977, -0.030829212, -0.090313956, -1521812.9, 199908.98, 0.000000004999778, 10.002075, 9.998325 
8.1494325e+2, 1.3431184e+2, -1387056.3, -1649511.4, -3550.2112, 0.0683349, -0.083229356, -1387008.3, 236726.94, 0.0, 10.002195, 9.99872 
8.149552e+2, 1.443102e+2, -1313451.6, -1564932.4, -48205.36, -0.04776417, -0.11383, -1304528.0, 221223.5, 0.0, 10.002034, 9.998702 
8.1496793e+2, 1.5430917e+2, -1276655.5, -1495697.0, -43688.063, -0.014569412, -0.09116601, -1268263.5, 159497.86, 0.0, 10.001612, 9.998709 
8.149804e+2, 1.6430794e+2, -1230301.1, -1444245.0, -40842.715, -0.011160028, -0.07518897, -1222769.3, 107004.6, 0.0, 10.001351, 9.998512 
8.1499285e+2, 1.7430642e+2, -1137333.4, -1347665.0, -48862.914, -0.014474254, -0.07820821, -1126536.1, 105254.11, 0.0, 10.001314, 9.998521 
8.150052e+2, 1.8430515e+2, -1038945.06, -1214957.4, -64682.117, -0.014977744, -0.07277217, -1017731.9, 116071.3, 0.0, 10.001166, 9.99883 
8.1501734e+2, 1.9430411e+2, -980057.8, -1131687.1, -59544.137, -0.020597512, -0.06466002, -959470.4, 76341.586, 0.0, 10.00088, 9.998867 
8.1502956e+2, 2.0430274e+2, -919497.75, -1084194.1, -45577.87, -0.025265303, -0.07198289, -907725.94, 30097.98, 0.0, 10.000764, 9.998576 
8.150421e+2, 2.1430098e+2, -805745.44, -978789.44, -42713.83, -0.02591455, -0.10701306, -795776.4, 44063.758, 0.0, 10.000873, 9.998574 
8.150544e+2, 2.2429939e+2, -724155.4, -887641.0, -54641.46, -0.016355386, -0.12136332, -707574.4, 34280.57, 0.0, 10.000755, 9.998584 
8.150668e+2, 2.3429807e+2, -685757.6, -815867.7, -57627.89, 0.007273091, -0.11584426, -663903.94, -20036.12, 0.0, 10.000336, 9.998606 
8.150792e+2, 2.4429683e+2, -605214.06, -681382.1, -48998.086, 0.015368386, -0.11748501, -581240.0, -35361.043, 0.0, 10.000022, 9.999007 
8.1509143e+2, 2.542957e+2, -527148.2, -587042.0, -44456.09, 0.0013778248, -0.13848878, -503493.2, -55605.285, 0.0, 9.999859, 9.999061 
8.15104e+2, 2.6429453e+2, -471731.47, -553758.0, -25985.023, -0.0044254432, -0.1425838, -464192.6, -114293.664, 0.0, 9.999757, 9.998666 
8.1511694e+2, 2.7429327e+2, -379424.84, -459284.28, -23907.152, 0.0038745247, -0.13487968, -372814.97, -120902.04, 0.0, 9.999721, 9.998659 
8.151299e+2, 2.8429207e+2, -283393.34, -314765.94, -36625.453, 0.027352346, -0.13621779, -259236.4, -105311.21, 0.0, 9.999501, 9.999084 
8.151426e+2, 2.942911e+2, -250669.47, -247510.4, -27342.984, 0.06368101, -0.14946383, -221701.38, -165766.66, 0.0, 9.999049, 9.999092 
8.1515485e+2, 3.0429056e+2, -250541.7, -245378.73, 380.12094, 0.017877208, -0.097320504, -245350.89, -245350.89, 0.0, 9.998818, 9.998882 
8.151677e+2, 3.1428888e+2, -110326.625, 38902.637, 10299.939, -0.0024964092, -0.1618928, 39610.195, 39610.195, 0.0000000016901937, 9.998845, 10.000822 
8.24931e+2, 1.2429954e+2, -1477527.0, -1778189.5, -49705.406, -0.011341146, -0.092882425, -1469522.9, 252331.67, 0.0000000017683296, 10.0024, 9.998405 
8.2494533e+2, 1.3429826e+2, -1415346.8, -1656963.0, 14098.43, 0.07033208, -0.09751247, -1414526.9, 209341.16, 0.0, 10.001973, 9.998776 
8.2495713e+2, 1.442967e+2, -1355640.3, -1578223.9, -24998.42, -0.03894482, -0.12614197, -1352867.3, 173015.98, 0.0, 10.001715, 9.998765 
8.249695e+2, 1.5429585e+2, -1250933.6, -1476318.1, -31322.783, -0.023735784, -0.09156684, -1246661.5, 181229.53, 0.0, 10.001759, 9.99877 
8.2498175e+2, 1.6429459e+2, -1201340.3, -1441360.0, -29873.35, -0.024385426, -0.07664654, -1197678.0, 132225.7, 0.0, 10.001599, 9.998412 
8.2499415e+2, 1.7429282e+2, -1161884.1, -1372551.1, -28961.016, -0.015630228, -0.09521349, -1157975.3, 73947.66, 0.0, 10.001202, 9.998404 
8.2500637e+2, 1.8429145e+2, -1069386.5, -1229291.5, -40775.92, -0.009729672, -0.09108071, -1059588.9, 74347.99, 0.0, 10.000957, 9.998832 
8.250182e+2, 1.942906e+2, -974516.8, -1127836.5, -45984.453, -0.01749679, -0.0668652, -961782.56, 74161.67, 0.0, 10.000914, 9.998877 
8.250303e+2, 2.0428936e+2, -914294.75, -1076834.6, -33331.297, -0.02577425, -0.06301909, -907725.2, 30229.99, 0.0, 10.000778, 9.998619 
8.2504267e+2, 2.142877e+2, -852878.8, -996341.3, -29945.982, -0.03133366, -0.09185592, -846878.94, -6908.4375, 0.0, 10.000527, 9.99862 
8.25055e+2, 2.2428617e+2, -772689.2, -900724.8, -40831.52, -0.020762557, -0.1104331, -760776.1, -18791.277, 0.0, 10.000378, 9.998676 
8.250672e+2, 2.3428473e+2, -675264.2, -800132.94, -33027.62, 0.010321516, -0.1239806, -667066.56, -23068.559, 0.0, 10.000361, 9.998701 
8.250793e+2, 2.4428348e+2, -574030.2, -672497.4, -20895.84, 0.018829709, -0.13047625, -569779.4, -23770.15, 0.0, 10.000262, 9.998952 
8.2509136e+2, 2.5428241e+2, -502797.13, -582247.9, -29234.037, -0.0031155667, -0.13715018, -493199.75, -45181.816, 0.0, 10.000056, 9.998998 
8.251037e+2, 2.6428127e+2, -468615.9, -537443.9, -16038.267, -0.0064951214, -0.14046884, -465062.16, -115033.44, 0.0, 9.999716, 9.998797 
8.251165e+2, 2.7428e+2, -444423.78, -474233.38, -5312.3164, 0.017513402, -0.14852928, -443505.38, -191462.92, 0.0, 9.999205, 9.998804 
8.251292e+2, 2.8427902e+2, -355427.34, -336440.5, -14048.844, 0.041668594, -0.14623976, -328978.25, -174925.4, 0.0, 9.998951, 9.999201 
8.251416e+2, 2.9427838e+2, -245378.52, -231644.03, -16711.57, 0.059638664, -0.13396284, -220443.75, -164384.98, 0.0, 9.999029, 9.999209 
8.251536e+2, 3.0427766e+2, -248150.06, -243367.06, 4949.858, 0.008542285, -0.107453816, -240261.25, -240261.25, 0.0, 9.99883, 9.998891 
8.251663e+2, 3.1427613e+2, -188838.19, 14760.522, 11577.304, -0.00047776662, -0.15774402, 15416.731, 15416.731, 0.000000023716037, 9.998247, 10.000944 
8.3493346e+2, 1.242859e+2, -1455588.9, -1734095.0, -67233.98, -0.012666161, -0.117907315, -1440207.5, 281781.34, 0.000000000051048894, 10.002403, 9.998709 
8.349472e+2, 1.3428523e+2, -1391827.0, -1610964.5, -1419.7583, 0.05796821, -0.09255191, -1391817.9, 232177.17, 0.0, 10.001984, 9.999087 
8.3495885e+2, 1.442839e+2, -1360302.4, -1588935.0, -25802.055, -0.04047269, -0.11147511, -1357426.8, 168580.97, 0.0, 10.001719, 9.998689 
8.3497125e+2, 1.5428272e+2, -1258134.8, -1489255.3, -29575.975, -0.022444852, -0.10070723, -1254410.0, 173609.14, 0.0, 10.001751, 9.998684 
8.349834e+2, 1.6428134e+2, -1199891.8, -1438244.4, -44370.414, -0.016686486, -0.09568032, -1191900.0, 138133.33, 0.0, 10.001597, 9.998435 
8.3499557e+2, 1.7427972e+2, -1159730.3, -1369415.1, -43454.816, 0.0065195616, -0.10035485, -1151081.5, 80968.94, 0.0, 10.001206, 9.998424 
8.350074e+2, 1.8427835e+2, -1077769.1, -1246699.4, -43790.645, 0.009705196, -0.09175282, -1067092.4, 66972.016, 0.0, 10.0009575, 9.998712 
8.350191e+2, 1.9427729e+2, -984093.1, -1146596.3, -47677.035, -0.0238728, -0.075823046, -971137.94, 64936.41, 0.0, 10.000909, 9.99875 
8.35031e+2, 2.0427598e+2, -911251.9, -1070221.3, -43151.113, -0.042607427, -0.07416732, -900294.1, 37792.11, 0.0, 10.000776, 9.998666 
8.3504313e+2, 2.1427444e+2, -848850.4, -987763.4, -39678.24, -0.03675421, -0.099838905, -838315.8, 1784.893, 0.0, 10.000525, 9.998679 
8.350553e+2, 2.2427301e+2, -756330.2, -866589.3, -42916.81, -0.028492555, -0.11903943, -741594.75, 518.55505, 0.0, 10.000377, 9.998912 
8.350673e+2, 2.3427178e+2, -657881.06, -763697.94, -33692.855, -0.01936689, -0.1384618, -648063.8, -3940.5073, 0.0, 10.00036, 9.998953 
8.350794e+2, 2.442705e+2, -587807.1, -700181.56, -28646.092, -0.0071961703, -0.15096375, -580926.1, -34791.613, 0.0, 10.0002575, 9.998765 
8.3509153e+2, 2.5426918e+2, -519703.8, -615564.5, -36279.17, 0.008818872, -0.16212825, -507521.78, -59374.637, 0.0, 10.000049, 9.998774 
8.351037e+2, 2.6426807e+2, -452204.56, -503062.5, -34755.29, 0.020993663, -0.1609126, -434568.9, -84410.86, 0.0, 9.999713, 9.999035 
8.3511585e+2, 2.7426726e+2, -425305.72, -434818.16, -24090.824, 0.02991715, -0.15320326, -405506.1, -153339.3, 0.0, 9.999204, 9.999076 
8.351281e+2, 2.842665e+2, -357533.4, -340069.47, -12178.986, 0.038277905, -0.13696586, -333815.63, -179641.2, 0.0, 9.998948, 9.999177 
8.3514047e+2, 2.942659e+2, -249673.58, -237870.47, -12377.739, 0.04049097, -0.1200546, -230059.38, -173878.53, 0.0, 9.999018, 9.999172 
8.351523e+2, 3.042649e+2, -245926.53, -237452.9, -15381.398, 0.0044483957, -0.12054494, -225735.47, -225735.47, 0.0, 9.998823, 9.998935 
8.351649e+2, 3.1426388e+2, -183670.97, 25952.06, -10548.828, 0.04256301, -0.12259095, 26481.57, 26481.57, 0.00000010288848, 9.998244, 10.001022 
8.449361e+2, 1.2427316e+2, -1449092.5, -1730561.4, -28805.113, 0.011455092, -0.116322525, -1446174.9, 275939.34, 0.0, 10.002446, 9.998712 
8.449491e+2, 1.3427255e+2, -1361277.4, -1598006.3, 8236.106, 0.042848844, -0.08314777, -1360991.3, 263128.47, 0.0, 10.002203, 9.999068 
8.449606e+2, 1.4427121e+2, -1330560.3, -1579560.3, -19023.66, -0.050230455, -0.10061545, -1329115.3, 197017.33, 0.0, 10.001946, 9.998642 
8.44973e+2, 1.5426987e+2, -1261672.1, -1496088.5, -17729.885, -0.019169884, -0.10166574, -1260338.8, 167807.06, 0.0, 10.001749, 9.998637 
8.4498507e+2, 1.6426848e+2, -1198654.5, -1427207.6, -34404.305, -0.008585022, -0.09838271, -1193588.0, 136571.69, 0.0, 10.001561, 9.998528 
8.449968e+2, 1.7426707e+2, -1126067.4, -1341920.6, -29669.945, 0.0052831583, -0.09270212, -1122063.4, 110110.75, 0.0, 10.001389, 9.998524 
8.450085e+2, 1.8426567e+2, -1048828.0, -1245410.3, -20090.846, 0.005726189, -0.08749898, -1046795.7, 87392.41, 0.0, 10.001208, 9.9986 
8.4502006e+2, 1.9426426e+2, -976207.1, -1156545.8, -23359.684, -0.02213127, -0.09191638, -973230.44, 62970.97, 0.0, 10.001021, 9.998628 
8.4503174e+2, 2.0426288e+2, -899162.44, -1058844.3, -21090.354, -0.040664393, -0.0960144, -896423.8, 41790.53, 0.0, 10.000835, 9.998715 
8.4504366e+2, 2.142615e+2, -826801.6, -970160.6, -18333.82, -0.042278614, -0.10983286, -824494.1, 15732.84, 0.0, 10.000647, 9.998742 
8.450556e+2, 2.2426018e+2, -744476.0, -856407.8, -24063.996, -0.03805355, -0.1239941, -739521.8, 2716.6284, 0.0, 10.00044, 9.99895 
8.4506744e+2, 2.3425898e+2, -676036.3, -768304.2, -31693.736, -0.0282072, -0.14582571, -666198.56, -21950.3, 0.0, 10.000217, 9.998989 
8.450794e+2, 2.4425772e+2, -632591.8, -718308.1, -33424.023, -0.011528614, -0.15917885, -621099.4, -74840.125, 0.0, 9.999937, 9.998795 
8.4509134e+2, 2.542564e+2, -586539.2, -644574.5, -24033.982, 0.013950893, -0.1706685, -577878.5, -129606.586, 0.0, 9.999577, 9.998801 
8.4510326e+2, 2.6425537e+2, -494694.9, -516394.16, -15630.923, 0.024688143, -0.16889504, -486517.16, -136234.77, 0.0, 9.999392, 9.999098 
8.4511507e+2, 2.7425465e+2, -384710.84, -407585.53, -21127.465, 0.017776618, -0.15724498, -372123.56, -119833.63, 0.0, 9.999452, 9.999142 
8.45127e+2, 2.8425398e+2, -310214.7, -317762.8, -16055.705, 0.020065589, -0.13479333, -297495.44, -143198.78, 0.0, 9.999276, 9.999171 
8.451392e+2, 2.942534e+2, -287618.06, -256908.94, -15144.946, 0.031662606, -0.11383766, -250696.58, -194393.42, 0.0, 9.998761, 9.999164 
8.45151e+2, 3.0425218e+2, -300846.4, -257536.92, -19845.14, 0.00959977, -0.14153396, -249818.94, -249818.94, 0.00000000024035085, 9.998419, 9.998991 
8.451634e+2, 3.1425166e+2, -172540.58, 34027.56, -17800.258, 0.061745837, -0.10026764, 35550.207, 35550.207, 0.00000026211356, 9.998308, 10.001047 
8.549389e+2, 1.2426142e+2, -1471356.1, -1778087.5, -37286.457, 0.04665543, -0.085079156, -1466888.6, 255341.0, 0.0, 10.002452, 9.9983835 
8.549511e+2, 1.3426025e+2, -1389742.8, -1656068.0, -1468.8562, 0.025359495, -0.067914136, -1389734.6, 234507.0, 0.0, 10.002199, 9.998672 
8.549623e+2, 1.4425865e+2, -1329623.1, -1577759.6, -27843.861, -0.0700606, -0.09115451, -1326537.1, 199720.31, 0.0, 10.0019455, 9.998656 
8.549748e+2, 1.5425733e+2, -1258783.6, -1492122.8, -24109.135, -0.018063886, -0.093204, -1256318.6, 171951.5, 0.0, 10.001757, 9.998662 
8.549866e+2, 1.6425605e+2, -1188567.0, -1407070.5, -41112.117, -0.0045128553, -0.08536397, -1181087.6, 149194.72, 0.0, 10.001565, 9.998664 
8.5499793e+2, 1.7425486e+2, -1115280.5, -1318696.0, -36167.125, -0.020348817, -0.07345395, -1109041.4, 123252.516, 0.0, 10.001385, 9.998685 
8.550094e+2, 1.8425342e+2, -1055280.6, -1258525.0, -27812.318, -0.023498302, -0.07816313, -1051543.5, 82764.32, 0.0, 10.001206, 9.998512 
8.550212e+2, 1.9425158e+2, -983977.56, -1172939.1, -30532.316, -0.014295829, -0.11378508, -979166.7, 57158.44, 0.0, 10.001022, 9.998515 
8.550328e+2, 2.0425008e+2, -895459.56, -1050800.6, -29096.543, -0.02179969, -0.12794809, -890188.44, 48150.766, 0.0, 10.0008335, 9.998772 
8.5504425e+2, 2.1424896e+2, -822288.56, -960202.7, -25731.703, -0.049654584, -0.121491015, -817644.0, 22704.873, 0.0, 10.000644, 9.998813 
8.550559e+2, 2.2424771e+2, -755795.25, -879747.7, -33361.504, -0.05145751, -0.124279715, -747386.5, -5026.614, 0.0, 10.000438, 9.998791 
8.5506773e+2, 2.3424633e+2, -688487.75, -793955.44, -39750.434, -0.019313533, -0.14727731, -675184.06, -30811.506, 0.0, 10.0002165, 9.998814 
8.550795e+2, 2.4424511e+2, -616491.94, -684961.3, -46899.37, 0.002552439, -0.15749046, -592661.44, -46278.01, 0.0, 9.999936, 9.999024 
8.550909e+2, 2.5424415e+2, -568044.75, -606157.75, -37414.9, 0.011528417, -0.16274782, -545112.8, -96720.64, 0.0, 9.999576, 9.999066 
8.551025e+2, 2.6424316e+2, -502421.0, -532016.75, -14861.373, 0.0052783294, -0.16249116, -496246.56, -145844.95, 0.0, 9.99939, 9.998992 
8.5511416e+2, 2.7424222e+2, -395848.3, -428405.44, -17784.762, -0.021805638, -0.15897918, -388016.94, -135605.3, 0.0, 9.999442, 9.999003 
8.5512596e+2, 2.842415e+2, -310628.78, -316998.75, -33323.95, -0.016668675, -0.13930865, -280337.97, -125918.414, 0.0, 9.999269, 9.999181 
8.5513794e+2, 2.9424092e+2, -286659.53, -254188.31, -33198.074, 0.028964242, -0.11702082, -233468.44, -177042.58, 0.0, 9.998757, 9.999185 
8.551495e+2, 3.0423948e+2, -296719.2, -248329.11, -24566.617, 0.021676142, -0.17137319, -238043.45, -238043.45, 0.0000000059514194, 9.998416, 9.999055 
8.551616e+2, 3.1423932e+2, -176099.16, 30022.29, -21212.557, 0.05262455, -0.09914628, 32182.691, 32182.691, 0.0000005093443, 9.998295, 10.001026 
8.649415e+2, 1.2424967e+2, -1453362.9, -1778443.1, -25552.957, 0.048920408, -0.07378321, -1451366.5, 270978.75, 0.00000000000000000000885557, 10.002616, 9.9983 
8.649535e+2, 1.3424833e+2, -1347602.5, -1648968.8, 29476.164, 0.026422806, -0.06216155, -1344746.6, 279612.44, 0.0, 10.002546, 9.998553 
8.6496454e+2, 1.4424667e+2, -1280220.9, -1557814.4, 8156.658, -0.060614664, -0.08388963, -1279981.4, 246394.06, 0.0, 10.002302, 9.998621 
8.6497664e+2, 1.5424535e+2, -1245059.9, -1489448.6, 4874.766, -0.017470255, -0.08307743, -1244962.6, 183425.55, 0.0, 10.001867, 9.998628 
8.649882e+2, 1.64244e+2, -1186770.6, -1413392.5, -13174.176, -0.008500598, -0.07634873, -1186007.4, 144393.61, 0.0, 10.001606, 9.998603 
8.6499935e+2, 1.7424272e+2, -1089938.1, -1312456.3, -23226.629, -0.02717635, -0.069089845, -1087539.5, 144873.84, 0.0, 10.001585, 9.9986315 
8.650106e+2, 1.8424122e+2, -1024804.1, -1244386.9, -25754.463, -0.032066073, -0.07439443, -1021823.9, 112603.69, 0.0, 10.001419, 9.998506 
8.650221e+2, 1.9423944e+2, -979202.06, -1171424.0, -21852.686, -0.022380136, -0.10607942, -976749.06, 59695.348, 0.0, 10.001058, 9.998508 
8.6503357e+2, 2.042379e+2, -900606.4, -1058147.8, -13875.348, -0.02540153, -0.12071677, -899393.6, 39065.027, 0.0, 10.000819, 9.998729 
8.65045e+2, 2.1423669e+2, -810920.44, -959666.4, -19298.102, -0.04523051, -0.11904058, -808457.5, 32011.697, 0.0, 10.000743, 9.998769 
8.650564e+2, 2.2423543e+2, -744451.0, -874753.75, -32437.162, -0.045239042, -0.12175795, -736822.75, 5657.8096, 0.0, 10.000518, 9.998787 
8.6506796e+2, 2.3423406e+2, -706754.44, -802501.44, -27648.361, -0.018888123, -0.14017195, -699344.1, -54850.934, 0.0, 10.000091, 9.998816 
8.6507934e+2, 2.4423294e+2, -629695.8, -682385.56, -28397.205, 0.0012261345, -0.14696096, -617305.0, -70801.59, 0.0, 9.999807, 9.999104 
8.6509055e+2, 2.5423208e+2, -539250.0, -582797.9, -32732.293, 0.012825702, -0.14933063, -521711.03, -73200.3, 0.0, 9.999733, 9.99915 
8.6510193e+2, 2.642311e+2, -485834.16, -520724.84, -12491.778, 0.0061739003, -0.15629764, -481822.94, -131302.94, 0.0, 9.999491, 9.99902 
8.651133e+2, 2.7422994e+2, -457415.28, -455777.6, -4784.95, -0.023564406, -0.17287524, -451741.94, -199210.31, 0.0, 9.999009, 9.999024 
8.6512494e+2, 2.8422928e+2, -388735.25, -353516.22, -14624.52, -0.019099543, -0.14964312, -348235.3, -193696.17, 0.0, 9.998728, 9.99919 
8.651367e+2, 2.9422906e+2, -290025.8, -254395.77, -17202.459, 0.027383838, -0.09433957, -247445.9, -190903.34, 0.0, 9.99873, 9.999196 
8.6514795e+2, 3.0422744e+2, -263421.94, -215022.67, -5487.5347, 0.017423676, -0.17169622, -214408.3, -214408.3, 0.000000027135602, 9.998571, 9.999209 
8.651597e+2, 3.1422734e+2, -197749.64, 21477.791, 1360.132, 0.036528714, -0.11136523, 21486.229, 21486.229, 0.00000083365, 9.9981365, 10.001043 
8.749437e+2, 1.24237955e+2, -1439748.9, -1749943.9, -28415.53, 0.005468791, -0.08206061, -1437167.4, 285293.28, 0.0000000055054987, 10.002614, 9.998496 
8.749562e+2, 1.3423686e+2, -1333559.3, -1620368.0, 27389.563, 0.039910328, -0.06699379, -1330967.1, 293504.25, 0.0, 10.002548, 9.998748 
8.7496716e+2, 1.4423533e+2, -1288387.8, -1576110.0, -7539.694, -0.028352473, -0.08045605, -1288190.4, 238295.94, 0.0, 10.002307, 9.998493 
8.7497854e+2, 1.5423393e+2, -1254091.0, -1508499.8, -11236.965, -0.016858587, -0.070865184, -1253595.6, 174904.03, 0.0, 10.001868, 9.998496 
8.749897e+2, 1.6423239e+2, -1202870.5, -1447174.1, -16135.471, -0.02075967, -0.06906924, -1201809.4, 128705.54, 0.0, 10.001607, 9.998371 
8.75001e+2, 1.7423068e+2, -1107470.4, -1349263.4, -23930.342, -0.018259846, -0.07830671, -1105124.8, 127407.45, 0.0, 10.001587, 9.998379 
8.7501216e+2, 1.8422915e+2, -1020179.4, -1234518.9, -39050.363, -0.023583725, -0.07608194, -1013286.5, 121260.555, 0.0, 10.001417, 9.998575 
8.750229e+2, 1.9422786e+2, -972334.75, -1157183.9, -35671.543, -0.047674738, -0.069498524, -965689.9, 70869.234, 0.0, 10.001058, 9.998607 
8.7503403e+2, 2.0422637e+2, -910557.8, -1078708.5, -18471.258, -0.053369503, -0.07463344, -908552.7, 30019.805, 0.0, 10.000817, 9.998589 
8.7504584e+2, 2.1422473e+2, -822082.75, -982597.5, -22308.465, -0.031435672, -0.10310782, -819040.0, 21547.523, 0.0, 10.000741, 9.998612 
8.7505716e+2, 2.2422333e+2, -734819.06, -854398.06, -48442.547, -0.02157004, -0.11769153, -717657.5, 24942.719, 0.0, 10.000516, 9.998928 
8.7506795e+2, 2.3422226e+2, -695188.06, -778385.75, -43822.19, -0.027279204, -0.12344693, -676364.7, -31754.86, 0.0, 10.00009, 9.998981 
8.75079e+2, 2.4422124e+2, -634008.3, -691615.06, -32965.684, -0.016396519, -0.12523367, -619035.3, -72416.45, 0.0, 9.999808, 9.999041 
8.7509036e+2, 2.5422025e+2, -545721.7, -595501.4, -34937.63, 0.014422238, -0.13088946, -527714.6, -79087.34, 0.0, 9.999729, 9.999064 
8.7510157e+2, 2.6421914e+2, -476261.94, -500242.34, -29056.635, 0.023660535, -0.15190512, -456818.84, -106181.305, 0.0, 9.999487, 9.999163 
8.7511265e+2, 2.742179e+2, -445712.78, -431372.28, -22125.773, 0.0079773255, -0.19892962, -415283.94, -162634.02, 0.0, 9.999008, 9.999193 
8.751239e+2, 2.8421742e+2, -388693.6, -353326.94, -16392.18, 0.008899912, -0.16483644, -346897.97, -192242.55, 0.0, 9.998727, 9.999192 
8.7513536e+2, 2.942178e+2, -292187.16, -256055.38, -15870.988, 0.025176445, -0.046535987, -250074.13, -193420.67, 0.0, 9.998717, 9.99919 
8.751463e+2, 3.0421612e+2, -248723.2, -181186.64, -19359.918, -0.0035118822, -0.14367323, -176030.6, -176030.6, 0.00000006425192, 9.998557, 9.999448 
8.751575e+2, 3.1421563e+2, -193856.5, 31433.563, -13925.045, 0.0046329168, -0.14674664, 32290.998, 32290.998, 0.0000011924308, 9.998131, 10.001114 
8.8494647e+2, 1.2422667e+2, -1372098.4, -1721945.4, -6235.9565, 0.0027421468, -0.0852289, -1371987.3, 350584.2, 0.00000006865042, 10.003099, 9.998456 
8.849587e+2, 1.342255e+2, -1327681.3, -1625242.1, 24925.658, 0.031049984, -0.07006153, -1325607.8, 298975.2, 0.0, 10.002623, 9.99868 
8.849694e+2, 1.4422397e+2, -1290319.6, -1584680.3, -15038.64, -0.02891027, -0.07621724, -1289553.3, 237044.56, 0.0, 10.002326, 9.998426 
8.849807e+2, 1.5422258e+2, -1190555.6, -1484153.5, -12578.353, -0.01048924, -0.060678367, -1190017.8, 238593.44, 0.0, 10.002333, 9.998439 
8.8499165e+2, 1.6422093e+2, -1138761.5, -1432829.6, -12350.851, -0.0105115995, -0.06026413, -1138243.8, 192383.92, 0.0, 10.002121, 9.99822 
8.850027e+2, 1.7421895e+2, -1116111.6, -1372533.6, -15373.742, -0.008132233, -0.08085528, -1115193.3, 117454.695, 0.0, 10.001608, 9.998209 
8.8501364e+2, 1.8421733e+2, -1032151.4, -1242136.8, -24690.146, -0.015306985, -0.07747893, -1029287.4, 105376.44, 0.0, 10.001342, 9.99856 
8.850242e+2, 1.9421622e+2, -919834.0, -1131190.5, -28840.064, -0.046855316, -0.05141543, -915969.4, 120704.484, 0.0, 10.001416, 9.998612 
8.8503504e+2, 2.042148e+2, -853423.4, -1048099.4, -16042.276, -0.05758677, -0.053425375, -852110.25, 86576.37, 0.0, 10.001199, 9.998614 
8.850464e+2, 2.1421297e+2, -843258.25, -989608.56, -7498.148, -0.036611386, -0.10210602, -842875.1, -2172.1497, 0.0, 10.000584, 9.998639 
8.850575e+2, 2.242115e+2, -779911.56, -877839.7, -26579.475, -0.024499224, -0.12400263, -773162.5, -30446.344, 0.0, 10.000214, 9.998913 
8.8506806e+2, 2.3421054e+2, -683153.1, -775121.5, -36821.082, -0.02496723, -0.11730484, -670227.75, -25502.705, 0.0, 10.000182, 9.9989605 
8.8507885e+2, 2.4420954e+2, -611142.06, -682820.6, -32998.12, -0.015360155, -0.11395094, -598264.5, -51530.51, 0.0, 9.999975, 9.99902 
8.8508993e+2, 2.5420848e+2, -575762.0, -611958.8, -31541.615, 0.0059077134, -0.1260458, -557495.25, -108751.8, 0.0, 9.999532, 9.999046 
8.8510084e+2, 2.642074e+2, -513278.6, -514485.25, -27502.412, 0.016442008, -0.14524962, -486372.9, -135619.25, 0.0, 9.999217, 9.999194 
8.8511175e+2, 2.742063e+2, -432174.3, -420612.16, -31021.668, 0.015571127, -0.17777294, -394837.5, -142072.98, 0.0, 9.999084, 9.999229 
8.851228e+2, 2.8420594e+2, -367353.9, -329677.16, -23666.322, 0.019656477, -0.14251819, -318266.9, -163497.88, 0.0, 9.998817, 9.99931 
8.851339e+2, 2.9420626e+2, -337177.4, -263794.22, -14381.745, 0.025698906, -0.0424323, -261076.31, -204309.39, 0.0, 9.998347, 9.999316 
8.8514465e+2, 3.0420452e+2, -303151.7, -193918.36, -12693.069, -0.001646906, -0.15647726, -192462.8, -192462.8, 0.00000010587227, 9.998125, 9.999569 
8.8515574e+2, 3.1420442e+2, -186051.72, 25199.523, -20455.668, 0.014627374, -0.13005485, 27162.035, 27162.035, 0.0000015115112, 9.998228, 10.001023 
8.949498e+2, 1.2421585e+2, -1393289.4, -1766400.5, -22523.26, 0.022599874, -0.083537094, -1391934.6, 330742.44, 0.00000033535434, 10.003101, 9.99815 
8.94961e+2, 1.3421433e+2, -1353533.1, -1679237.3, 6749.663, 0.000924126, -0.06835533, -1353393.3, 271299.88, 0.00000000007521531, 10.002624, 9.998308 
8.9497143e+2, 1.442127e+2, -1287170.9, -1580460.9, -18310.324, -0.06153556, -0.06694233, -1286032.1, 240677.47, 0.0, 10.002335, 9.998451 
8.9498305e+2, 1.5421133e+2, -1187489.0, -1478040.8, -12257.098, -0.0032514543, -0.052267425, -1186972.9, 241749.4, 0.0, 10.002334, 9.998481 
8.94994e+2, 1.6420965e+2, -1144997.5, -1445759.0, -30429.404, 0.016289234, -0.051201705, -1141949.8, 188789.02, 0.0, 10.00212, 9.998132 
8.950044e+2, 1.7420754e+2, -1122299.5, -1385823.1, -34601.06, 0.0016936578, -0.07718949, -1117832.1, 114928.13, 0.0, 10.001609, 9.998117 
8.95015e+2, 1.842058e+2, -1038713.06, -1256198.5, -24531.664, -0.009664248, -0.07743757, -1035980.3, 98797.02, 0.0, 10.001343, 9.998463 
8.950258e+2, 1.9420458e+2, -926417.56, -1145012.9, -26338.215, -0.02169023, -0.051263303, -923288.9, 113499.516, 0.0, 10.001416, 9.998517 
8.9503646e+2, 2.0420317e+2, -840579.2, -1020998.06, -38494.258, -0.039395615, -0.056951728, -832709.4, 106091.46, 0.0, 10.001196, 9.998802 
8.950468e+2, 2.1420145e+2, -828628.1, -959063.2, -31233.588, -0.062186662, -0.11531219, -821534.75, 19280.457, 0.0, 10.000582, 9.99885 
8.950574e+2, 2.242e+2, -791778.5, -902696.2, -30475.225, -0.056679387, -0.13907069, -783956.8, -41128.79, 0.0, 10.000214, 9.998742 
8.9506835e+2, 2.3419894e+2, -697621.7, -805035.6, -37697.605, -0.014646051, -0.12190792, -685712.0, -40873.484, 0.0, 10.000181, 9.998755 
8.9507896e+2, 2.4419788e+2, -610675.25, -681753.56, -48734.52, 0.0022293814, -0.11432166, -585897.8, -39049.152, 0.0, 9.999974, 9.999028 
8.950892e+2, 2.5419676e+2, -573532.25, -607102.6, -47643.965, -0.013996012, -0.13402751, -539803.2, -90944.28, 0.0, 9.999531, 9.999081 
8.9509976e+2, 2.6419586e+2, -518102.9, -524482.4, -33889.96, -0.016916197, -0.13470331, -487252.9, -136384.86, 0.0, 9.999217, 9.999126 
8.9511067e+2, 2.7419525e+2, -439047.44, -433189.84, -35071.05, -0.0015464615, -0.110852346, -400925.5, -148050.25, 0.0, 9.999077, 9.999147 
8.951215e+2, 2.8419483e+2, -352904.8, -298208.78, -39338.92, 0.012700684, -0.08444321, -277645.78, -122765.945, 0.0, 9.99881, 9.99953 
8.9513224e+2, 2.941945e+2, -319545.66, -227250.81, -30532.652, 0.023100186, -0.079214595, -218064.45, -161181.83, 0.0, 9.998347, 9.999567 
8.9514303e+2, 3.0419275e+2, -303294.25, -194205.22, -10921.825, 0.015685141, -0.2073526, -193122.48, -193122.48, 0.00000013409642, 9.998124, 9.999567 
8.951544e+2, 3.141937e+2, -205643.89, -10798.753, -15606.354, 0.05937684, -0.074275, -9556.662, -9556.662, 0.0000016978646, 9.998208, 10.000785 
9.049529e+2, 1.24205135e+2, -1410475.0, -1774176.6, -34673.82, 0.029573279, -0.066103935, -1407198.9, 315584.53, 0.0000010631732, 10.002976, 9.998159 
9.0496373e+2, 1.3420348e+2, -1319973.1, -1664467.8, 18394.264, 0.005063121, -0.06157747, -1318993.8, 305806.13, 0.000000007369457, 10.002859, 9.998296 
9.04974e+2, 1.4420176e+2, -1250662.9, -1575167.6, 8728.609, -0.05585042, -0.06392167, -1250428.4, 276388.7, 0.0, 10.002642, 9.998339 
9.0498537e+2, 1.542002e+2, -1201739.4, -1499720.8, 502.58975, -0.0038782018, -0.057175815, -1201738.5, 227093.77, 0.0, 10.002298, 9.99835 
9.049961e+2, 1.6419849e+2, -1146351.1, -1443452.6, -22235.809, 0.012988435, -0.05320775, -1144696.1, 186152.97, 0.0, 10.002097, 9.998159 
9.0500623e+2, 1.7419659e+2, -1045859.4, -1343015.4, -17356.836, -0.005271514, -0.06129726, -1044849.0, 188018.9, 0.0, 10.002111, 9.998168 
9.0501654e+2, 1.841948e+2, -970530.7, -1230700.8, -1036.3943, -0.013497469, -0.064742625, -970526.56, 164358.34, 0.0, 10.001845, 9.998395 
9.050272e+2, 1.9419321e+2, -963833.5, -1172477.0, -2209.7903, -0.011094183, -0.06998373, -963810.1, 73089.28, 0.0, 10.0012, 9.998433 
9.050375e+2, 2.0419164e+2, -899623.0, -1056596.8, -22656.838, -0.025333725, -0.08229884, -896418.25, 42495.016, 0.0, 10.000821, 9.998739 
9.050474e+2, 2.1419014e+2, -799914.3, -952276.06, -37235.902, -0.061833207, -0.11266314, -791301.06, 49625.24, 0.0, 10.00081, 9.998787 
9.050577e+2, 2.2418875e+2, -735988.44, -873124.1, -39449.527, -0.062182277, -0.12778442, -725449.94, 17488.732, 0.0, 10.0005865, 9.998765 
9.0506846e+2, 2.3418753e+2, -710364.7, -807518.2, -30249.576, -0.015001624, -0.12953565, -701716.1, -56766.07, 0.0, 10.000079, 9.998787 
9.050788e+2, 2.4418643e+2, -648013.7, -703217.06, -32821.297, 0.004793605, -0.12634489, -632730.75, -85770.18, 0.0, 9.999733, 9.998997 
9.050888e+2, 2.5418547e+2, -564747.2, -607106.25, -37779.54, -0.011801396, -0.12991023, -542615.44, -93645.164, 0.0, 9.999609, 9.9990425 
9.05099e+2, 2.641846e+2, -501866.22, -517714.84, -25564.69, -0.01850344, -0.122060485, -483025.84, -132046.56, 0.0, 9.999333, 9.999116 
9.051095e+2, 2.7418396e+2, -472351.63, -450055.75, -22760.111, -0.011659143, -0.10043368, -435860.06, -182873.34, 0.0, 9.998851, 9.99914 
9.0512013e+2, 2.8418353e+2, -392057.97, -317922.66, -29070.361, 0.00079361233, -0.075380325, -307883.0, -152891.45, 0.0, 9.998544, 9.999523 
9.051306e+2, 2.9418316e+2, -302241.47, -218906.77, -39725.234, 0.019441683, -0.07021558, -203004.48, -146009.94, 0.0, 9.9984665, 9.999566 
9.0514123e+2, 3.0418155e+2, -273214.16, -165979.06, -19830.63, 0.021797378, -0.19247892, -162429.34, -162429.34, 0.0000001316986, 9.998273, 9.999689 
9.051525e+2, 3.141828e+2, -256797.28, -46540.406, -16084.49, 0.06643944, -0.041374184, -45317.074, -45317.074, 0.0000016698094, 9.997901, 10.0006895 
9.149557e+2, 1.2419455e+2, -1381153.5, -1717597.0, -39413.547, 0.012340929, -0.029617572, -1376598.0, 346291.75, 0.0000026057617, 10.002994, 9.99854 
9.1496694e+2, 1.3419302e+2, -1294056.9, -1609622.3, 13482.777, 0.037810314, -0.05031302, -1293481.9, 331420.6, 0.00000007607973, 10.002855, 9.998675 
9.14977e+2, 1.441912e+2, -1270158.4, -1615006.6, -3579.6433, -0.019123005, -0.06888459, -1270121.1, 256798.34, 0.0, 10.002638, 9.998067 
9.1498756e+2, 1.5418921e+2, -1224091.0, -1546475.6, -11836.821, -0.01429109, -0.07467, -1223657.0, 205283.48, 0.0, 10.0023, 9.998029 
9.149979e+2, 1.6418748e+2, -1135334.1, -1422467.4, -24037.918, -0.022032088, -0.06318083, -1133335.8, 197622.36, 0.0, 10.002104, 9.9983015 
9.1500807e+2, 1.7418614e+2, -1032819.0, -1316298.6, -17134.34, -0.030913947, -0.032306846, -1031787.1, 201183.38, 0.0, 10.002112, 9.998352 
9.1501826e+2, 1.841844e+2, -973460.6, -1236433.3, -24437.53, -0.029189246, -0.03959893, -971209.0, 163777.17, 0.0, 10.001843, 9.998357 
9.150284e+2, 1.9418211e+2, -968304.94, -1181672.6, -26937.082, -0.017401872, -0.10779073, -964956.75, 72049.79, 0.0, 10.001199, 9.99837 
9.1503847e+2, 2.0418029e+2, -922520.25, -1104138.5, -25950.533, -0.018797362, -0.12883301, -918885.06, 20138.525, 0.0, 10.00082, 9.998413 
9.1504854e+2, 2.1417908e+2, -824243.8, -1002368.7, -37842.793, -0.03749336, -0.09457887, -816537.5, 24498.393, 0.0, 10.000808, 9.998445 
9.1505855e+2, 2.2417778e+2, -721684.25, -843398.0, -58105.65, -0.042056054, -0.091157034, -698399.44, 44648.45, 0.0, 10.000586, 9.99897 
9.1506845e+2, 2.3417637e+2, -692381.0, -770130.7, -49342.156, -0.02705995, -0.13944633, -668439.44, -23380.047, 0.0, 10.000078, 9.999044 
9.150784e+2, 2.4417524e+2, -652493.1, -712844.1, -39060.605, -0.0102031715, -0.14845596, -633309.8, -86240.516, 0.0, 9.999734, 9.998931 
9.150886e+2, 2.5417453e+2, -572701.9, -622690.7, -41863.12, 0.009253789, -0.113624565, -548939.3, -99861.98, 0.0, 9.999605, 9.998939 
9.1509855e+2, 2.6417366e+2, -499366.53, -512062.97, -42377.832, 0.008878274, -0.10758868, -462864.06, -111776.96, 0.0, 9.9993305, 9.999157 
9.151083e+2, 2.7417248e+2, -467991.13, -441509.8, -39775.36, -0.018574726, -0.14417851, -412829.2, -159730.5, 0.0, 9.998852, 9.999199 
9.151184e+2, 2.8417203e+2, -407913.75, -350544.2, -33517.645, -0.020289617, -0.112711474, -335112.66, -180008.72, 0.0, 9.998543, 9.9993 
9.15129e+2, 2.9417235e+2, -321318.5, -255370.92, -41337.973, 0.013115959, -0.01739673, -235466.56, -178363.94, 0.0, 9.998454, 9.999323 
9.1513944e+2, 3.0417097e+2, -257879.8, -131394.05, -32042.746, 0.016624693, -0.11519937, -123739.83, -123739.83, 0.00000009563079, 9.99826, 9.999933 
9.151501e+2, 3.141717e+2, -252770.83, -36628.645, -27526.498, 0.029044477, -0.039593298, -33178.13, -33178.13, 0.0000014046396, 9.997894, 10.000761 
9.2495877e+2, 1.2418411e+2, -1348429.0, -1697870.4, -9564.85, 0.00423185, -0.01905427, -1348167.4, 374825.25, 0.0000053561066, 10.003206, 9.99857 
9.249699e+2, 1.3418254e+2, -1285269.0, -1604739.8, 10178.98, 0.045133147, -0.046409804, -1284945.0, 340060.75, 0.00000033393198, 10.0029125, 9.998681 
9.2497975e+2, 1.4418076e+2, -1272398.9, -1616383.6, -13854.258, -0.0061525297, -0.06138496, -1271841.8, 255180.61, 0.0, 10.002625, 9.998064 
9.249899e+2, 1.5417878e+2, -1214570.5, -1541039.1, 3.0666552, -0.010374306, -0.064941436, -1214570.5, 214472.44, 0.0, 10.002364, 9.998034 
9.2499995e+2, 1.6417699e+2, -1132222.5, -1419550.4, 4625.9414, -0.023783464, -0.058704626, -1132148.1, 198912.58, 0.0, 10.002124, 9.998309 
9.2501e+2, 1.7417553e+2, -1059757.0, -1328854.3, -1510.4877, -0.03396191, -0.04117216, -1059748.5, 173325.31, 0.0, 10.001926, 9.998355 
9.2502e+2, 1.8417375e+2, -985278.7, -1246437.5, -24685.379, -0.03548179, -0.052886873, -982965.9, 152124.11, 0.0, 10.001781, 9.998318 
9.2502964e+2, 1.9417149e+2, -896548.8, -1151310.9, -28035.346, -0.03207112, -0.11276445, -893500.2, 143609.97, 0.0, 10.001712, 9.998331 
9.2503947e+2, 2.0416966e+2, -845332.9, -1080689.4, -16935.773, -0.027750699, -0.12523939, -844120.5, 95006.96, 0.0, 10.001411, 9.998289 
9.250494e+2, 2.1416843e+2, -835183.25, -1022644.56, -13758.734, -0.021124078, -0.081883445, -834178.8, 6961.981, 0.0, 10.000797, 9.99831 
9.250592e+2, 2.2416705e+2, -750542.75, -857654.4, -31693.54, -0.020354817, -0.07850062, -741867.5, 1286.1868, 0.0, 10.00039, 9.998966 
9.250686e+2, 2.3416552e+2, -664041.06, -755520.06, -42996.64, -0.027372342, -0.13962303, -647004.7, -1838.6525, 0.0, 10.000269, 9.999053 
9.250782e+2, 2.4416438e+2, -617348.0, -694919.94, -40727.62, -0.019397132, -0.1516448, -599892.56, -52716.563, 0.0, 9.999971, 9.9989395 
9.250881e+2, 2.541638e+2, -595642.8, -632689.9, -36615.453, 0.00837698, -0.10485133, -573132.06, -123949.1, 0.0, 9.999443, 9.998948 
9.250978e+2, 2.641629e+2, -527119.56, -524580.5, -29490.246, 0.011504085, -0.098593436, -496332.44, -145139.88, 0.0, 9.999136, 9.999166 
9.251073e+2, 2.7416158e+2, -427873.6, -420874.47, -30948.686, -0.018484382, -0.1514645, -393228.13, -140022.88, 0.0, 9.999123, 9.99921 
9.251171e+2, 2.8416106e+2, -371237.28, -345575.97, -25915.582, -0.022830682, -0.123569936, -329488.75, -174277.38, 0.0, 9.99885, 9.9991865 
9.2512727e+2, 2.941614e+2, -362986.3, -289193.0, -27291.365, 0.008282771, -0.012314386, -280196.5, -222986.06, 0.0, 9.998226, 9.999201 
9.2513746e+2, 3.0416018e+2, -307336.22, -131827.22, -8944.942, 0.011486467, -0.0965439, -131372.52, -131372.52, 0.00000004550982, 9.997819, 10.000144 
9.251478e+2, 3.1416094e+2, -278307.06, -42932.758, -8586.749, 0.017865036, -0.04247411, -42619.918, -42619.918, 0.0000009683944, 9.997693, 10.000814 
9.349618e+2, 1.24173865e+2, -1373545.9, -1748853.1, -16869.324, -0.012298548, -0.041250776, -1372789.3, 350302.34, 0.000009830683, 10.003201, 9.998222 
9.349726e+2, 1.3417211e+2, -1312013.3, -1661402.5, -204.60063, 0.024856152, -0.047129102, -1312013.1, 313095.7, 0.0000009955157, 10.002919, 9.998288 
9.3498224e+2, 1.4417051e+2, -1251135.1, -1576364.0, -24943.86, -0.01904254, -0.036486797, -1249233.1, 277891.4, 0.00000000002439963, 10.002641, 9.998332 
9.3499243e+2, 1.5416898e+2, -1191798.1, -1493942.6, -9907.24, 0.0051465854, -0.02688377, -1191473.5, 237665.42, 0.0, 10.002363, 9.998358 
9.350023e+2, 1.6416712e+2, -1141317.9, -1437749.4, -3772.7952, 0.004132502, -0.0398221, -1141269.9, 189886.45, 0.0, 10.002121, 9.998186 
9.3501216e+2, 1.7416485e+2, -1072140.8, -1353986.3, -8884.771, -0.017054815, -0.08809067, -1071860.9, 161316.63, 0.0, 10.001924, 9.998183 
9.3502176e+2, 1.8416288e+2, -989320.94, -1254491.4, -28504.975, -0.035913136, -0.1037965, -986291.4, 148904.31, 0.0, 10.001779, 9.998265 
9.350311e+2, 1.9416139e+2, -898801.94, -1155897.0, -31036.479, -0.055997036, -0.084992744, -895108.25, 142101.44, 0.0, 10.001711, 9.998301 
9.3504065e+2, 2.0415984e+2, -840167.3, -1070289.9, -39828.008, -0.05259943, -0.071792714, -833469.1, 105755.445, 0.0, 10.001411, 9.998361 
9.350503e+2, 2.1415822e+2, -830070.75, -1011623.75, -37334.543, -0.014993844, -0.07368685, -822693.06, 18547.46, 0.0, 10.000795, 9.998387 
9.350598e+2, 2.2415662e+2, -765660.25, -889046.25, -38715.223, -0.0002090642, -0.08841783, -754518.56, -11262.881, 0.0, 10.000389, 9.998752 
9.3506896e+2, 2.3415501e+2, -681563.8, -791154.4, -47382.977, -0.01809204, -0.12985279, -663918.3, -18648.668, 0.0, 10.000266, 9.99881 
9.3507814e+2, 2.4415386e+2, -611826.6, -683641.25, -59816.723, -0.024401622, -0.13579722, -577967.4, -30686.926, 0.0, 9.999971, 9.999017 
9.350873e+2, 2.5415325e+2, -587395.2, -616097.9, -55805.56, -0.015650628, -0.10382959, -544125.2, -94838.16, 0.0, 9.999444, 9.999063 
9.3509674e+2, 2.6415244e+2, -528335.3, -526825.06, -31506.213, -0.012212412, -0.095426366, -496064.9, -144769.39, 0.0, 9.999135, 9.99915 
9.3510646e+2, 2.7415133e+2, -431615.03, -426633.0, -30510.05, -0.01452423, -0.12389601, -398512.44, -145206.11, 0.0, 9.999114, 9.999175 
9.351161e+2, 2.8415063e+2, -372657.0, -347542.75, -47444.188, -0.010478761, -0.10869093, -311022.06, -155708.27, 0.0, 9.998844, 9.999176 
9.351254e+2, 2.941504e+2, -362876.47, -290100.28, -49260.176, 0.000029419743, -0.052014567, -265245.75, -207928.17, 0.0, 9.998229, 9.999193 
9.351351e+2, 3.0414933e+2, -295492.5, -106798.31, -15103.67, 0.0011457547, -0.13296704, -105597.016, -105597.016, 0.000000010385675, 9.997818, 10.000316 
9.351455e+2, 3.1415048e+2, -278426.25, -38076.805, -11045.474, 0.024635984, -0.05782962, -37570.266, -37570.266, 0.00000050425, 9.997673, 10.000857 
9.4496495e+2, 1.24163635e+2, -1377973.9, -1767618.9, -16660.648, -0.0103417095, -0.06327691, -1377262.8, 345928.0, 0.000016700973, 10.003242, 9.9980755 
9.449755e+2, 1.3416189e+2, -1315269.0, -1681348.1, 9749.005, 0.021909228, -0.052286625, -1315009.6, 310199.63, 0.0000023433604, 10.002977, 9.998122 
9.449849e+2, 1.4416032e+2, -1228725.5, -1564966.8, -10122.825, -0.022693766, -0.029807042, -1228421.0, 298803.9, 0.0000000053592455, 10.002796, 9.998334 
9.44995e+2, 1.5415876e+2, -1134289.1, -1464327.3, -18689.316, 0.006531689, -0.024655133, -1133234.1, 296005.03, 0.0, 10.002752, 9.998373 
9.450047e+2, 1.6415685e+2, -1086364.0, -1413434.9, -27877.668, 0.009186363, -0.041405175, -1084004.9, 247251.73, 0.0, 10.002508, 9.998166 
9.450141e+2, 1.741545e+2, -1065175.4, -1352610.5, -23976.885, -0.013159949, -0.09335759, -1063189.0, 170089.42, 0.0, 10.001982, 9.998164 
9.450234e+2, 1.8415257e+2, -1020201.5, -1270107.9, -27329.54, -0.033683486, -0.10646677, -1017247.7, 118048.984, 0.0, 10.001573, 9.998256 
9.4503266e+2, 1.9415118e+2, -953899.1, -1183627.3, -27691.146, -0.056150176, -0.07576485, -950608.4, 86701.695, 0.0, 10.001338, 9.998289 
9.450419e+2, 2.0414966e+2, -871429.3, -1071564.6, -41391.715, -0.05643844, -0.06471491, -863206.56, 76117.945, 0.0, 10.001139, 9.998483 
9.450511e+2, 2.1414797e+2, -792760.5, -978525.1, -36737.195, -0.025026103, -0.088307686, -785759.1, 55581.19, 0.0, 10.000987, 9.998522 
9.4506025e+2, 2.2414638e+2, -723289.6, -874032.2, -26558.957, -0.01225836, -0.10617824, -718747.2, 24607.955, 0.0, 10.000704, 9.998703 
9.450691e+2, 2.3414494e+2, -689000.4, -802523.94, -22850.137, -0.026791276, -0.12403219, -684573.7, -39205.23, 0.0, 10.000248, 9.998741 
9.45078e+2, 2.4414383e+2, -624468.44, -690022.8, -33265.89, -0.030113252, -0.12075539, -610544.8, -63165.64, 0.0, 9.999886, 9.999015 
9.4508684e+2, 2.5414312e+2, -557281.6, -600893.0, -38825.75, -0.017657636, -0.09996569, -534557.25, -85170.73, 0.0, 9.999648, 9.999068 
9.4509596e+2, 2.6414225e+2, -508574.38, -523727.9, -16042.6875, -0.011565752, -0.09529069, -498409.22, -147013.7, 0.0, 9.999298, 9.999093 
9.4510543e+2, 2.7414113e+2, -480494.53, -456999.13, -17628.049, -0.013276147, -0.116561934, -447562.94, -194156.34, 0.0, 9.998808, 9.999114 
9.4511473e+2, 2.8414047e+2, -408107.56, -351356.66, -31154.504, -0.011876858, -0.10404639, -337592.22, -182178.36, 0.0, 9.998544, 9.999295 
9.451238e+2, 2.9414025e+2, -303355.6, -245808.34, -23479.205, -0.0072179087, -0.060882464, -237444.45, -180027.81, 0.0, 9.998571, 9.999333 
9.451331e+2, 3.0413926e+2, -234364.5, -83334.16, 4600.1763, -0.004407514, -0.13610922, -83194.17, -83194.17, 0.00000000032400083, 9.998264, 10.000262 
9.451431e+2, 3.141402e+2, -317178.63, -79012.77, -14136.774, 0.02532259, -0.07747536, -78176.59, -78176.59, 0.00000016973306, 9.997503, 10.000658 
9.549683e+2, 1.24153525e+2, -1370909.8, -1758029.5, -23483.05, -0.0075351275, -0.08285844, -1369490.4, 353798.97, 0.000026645826, 10.003262, 9.998132 
9.5497864e+2, 1.3415195e+2, -1311711.1, -1673585.6, -344.9353, 0.034163725, -0.061576404, -1311710.9, 313595.16, 0.00000475329, 10.002974, 9.9981785 
9.549877e+2, 1.4415024e+2, -1248423.6, -1604397.9, -12801.839, -0.020274904, -0.04233326, -1247963.9, 279359.22, 0.000000046136613, 10.0027895, 9.998066 
9.5499754e+2, 1.5414816e+2, -1155443.0, -1508182.0, -19720.781, -0.008895438, -0.058265056, -1154343.9, 274998.8, 0.0, 10.002752, 9.998072 
9.55007e+2, 1.6414627e+2, -1080300.5, -1401628.6, -46538.14, -0.012330021, -0.06264568, -1073696.1, 257664.66, 0.0, 10.00251, 9.998247 
9.55016e+2, 1.7414463e+2, -1056135.8, -1334532.8, -43728.055, -0.023712117, -0.05668709, -1049428.9, 183947.08, 0.0, 10.001984, 9.998288 
9.55025e+2, 1.8414287e+2, -1017753.5, -1265562.1, -38154.984, -0.030864501, -0.060172975, -1012011.9, 123380.62, 0.0, 10.0015745, 9.998286 
9.550342e+2, 1.9414094e+2, -953203.5, -1181622.6, -36880.152, -0.035046477, -0.083640166, -947396.5, 90014.164, 0.0, 10.001336, 9.998304 
9.5504314e+2, 2.041392e+2, -860400.44, -1048198.9, -48501.266, -0.042242307, -0.10276549, -848614.1, 90812.61, 0.0, 10.001135, 9.998646 
9.5505184e+2, 2.1413769e+2, -780604.4, -952137.06, -42835.15, -0.05254365, -0.1252393, -770502.5, 70937.2, 0.0, 10.000982, 9.998705 
9.550605e+2, 2.2413638e+2, -715916.7, -858218.2, -44012.844, -0.057200857, -0.13097577, -703404.06, 40047.613, 0.0, 10.000701, 9.998814 
9.5506907e+2, 2.3413533e+2, -681615.44, -786937.25, -39913.652, -0.05494395, -0.122452736, -668198.56, -22736.266, 0.0, 10.000246, 9.998849 
9.550778e+2, 2.4413435e+2, -630606.2, -702754.3, -43070.81, -0.038354468, -0.107016265, -610498.1, -63025.953, 0.0, 9.999886, 9.998928 
9.5508665e+2, 2.5413346e+2, -565616.06, -617223.4, -47178.313, -0.0013402489, -0.0922565, -537645.94, -88164.79, 0.0, 9.999644, 9.998959 
9.5509547e+2, 2.641324e+2, -515041.8, -537506.5, -33869.746, 0.009730053, -0.09587815, -490590.47, -139098.25, 0.0, 9.999299, 9.998999 
9.551042e+2, 2.741311e+2, -486100.7, -469600.5, -34988.1, -0.01720387, -0.12854816, -441902.97, -188397.25, 0.0, 9.998811, 9.999027 
9.551131e+2, 2.8413054e+2, -391520.8, -316109.5, -31109.867, -0.028446121, -0.11052921, -304932.22, -149420.66, 0.0, 9.998541, 9.999538 
9.5512223e+2, 2.9413086e+2, -285901.72, -206472.58, -20924.242, -0.017525075, -0.042196926, -201297.6, -143789.75, 0.0, 9.998558, 9.99961 
9.5513135e+2, 3.0413e+2, -254727.27, -123689.85, -21665.88, -0.0094322665, -0.10818391, -120200.5, -120200.5, 0.0, 9.998254, 9.99999 
9.5514053e+2, 3.1413007e+2, -347305.2, -141044.28, -39861.656, 0.012485222, -0.10089391, -133608.72, -133608.72, 0.000000027453995, 9.997499, 10.000234 
9.6497166e+2, 1.2414393e+2, -1327438.6, -1746150.6, -19729.861, -0.00847224, -0.056643143, -1326511.0, 396873.3, 0.000040247374, 10.003603, 9.998047 
9.649818e+2, 1.3414207e+2, -1259543.9, -1658256.6, -14614.854, 0.03893268, -0.053912736, -1259008.9, 366394.53, 0.0000086557575, 10.003377, 9.998088 
9.649907e+2, 1.4414024e+2, -1213008.3, -1583999.5, -22842.717, -0.016834358, -0.043628987, -1211607.1, 315814.25, 0.00000019058375, 10.003019, 9.998095 
9.650002e+2, 1.541381e+2, -1198066.1, -1523933.0, -6733.688, -0.009046667, -0.07019161, -1197927.0, 231514.03, 0.0, 10.0024395, 9.998114 
9.650093e+2, 1.641362e+2, -1141653.5, -1433653.4, -20164.48, -0.014214228, -0.07565286, -1140267.6, 191191.2, 0.0, 10.002101, 9.998223 
9.6501803e+2, 1.7413467e+2, -1037872.94, -1328344.3, -28480.586, -0.02765679, -0.056607597, -1035106.75, 198366.81, 0.0, 10.002121, 9.998263 
9.650268e+2, 1.84133e+2, -959256.1, -1227491.6, -29993.396, -0.032113105, -0.055009857, -955943.25, 179546.28, 0.0, 10.001934, 9.998374 
9.650356e+2, 1.941311e+2, -928734.7, -1158656.6, -23695.55, -0.027629972, -0.08523061, -926318.06, 111189.125, 0.0, 10.001456, 9.998404 
9.6504426e+2, 2.0412941e+2, -869763.9, -1036457.7, -28734.418, -0.03508201, -0.11212369, -864949.75, 74572.72, 0.0, 10.001003, 9.998789 
9.6505255e+2, 2.1412794e+2, -827087.1, -958297.06, -26303.492, -0.058870144, -0.14388438, -822010.5, 19523.89, 0.0, 10.000593, 9.998851 
9.6506083e+2, 2.2412679e+2, -771123.0, -877314.2, -30486.127, -0.06695799, -0.14620113, -762993.2, -19448.246, 0.0, 10.00029, 9.99888 
9.650693e+2, 2.3412599e+2, -693574.5, -785648.6, -31508.066, -0.054157645, -0.11732609, -683824.75, -38271.18, 0.0, 10.000134, 9.998911 
9.650777e+2, 2.4412508e+2, -626338.7, -701885.2, -32656.8, -0.03577381, -0.098834805, -614179.1, -66616.016, 0.0, 9.999921, 9.998916 
9.6508616e+2, 2.54124e+2, -568437.44, -620564.9, -30587.752, -0.009639826, -0.10349217, -554315.0, -104740.945, 0.0, 9.999635, 9.9989395 
9.650947e+2, 2.6412293e+2, -501123.38, -523615.2, -11347.767, -0.002648358, -0.10863516, -496392.97, -144808.02, 0.0, 9.999364, 9.999063 
9.651031e+2, 2.7412194e+2, -439329.72, -438876.75, -2222.7346, -0.022574842, -0.118190005, -436869.0, -183273.6, 0.0, 9.999097, 9.999101 
9.6511173e+2, 2.8412136e+2, -367463.4, -313847.56, 3101.2693, -0.029396655, -0.09874364, -313668.78, -158067.69, 0.0, 9.998746, 9.999455 
9.651207e+2, 2.941213e+2, -329259.13, -238267.5, -15219.542, -0.017091963, -0.058170903, -235789.31, -178188.13, 0.0, 9.998308, 9.999512 
9.6512944e+2, 3.0412048e+2, -285956.75, -132456.08, -26639.137, -0.012628861, -0.116270736, -127964.45, -127964.45, 0.0, 9.998014, 10.000045 
9.65138e+2, 3.141209e+2, -289947.72, -112962.0, -18055.826, -0.004898386, -0.08595364, -111138.75, -111138.75, 0.00000000015790982, 9.997892, 10.000237 
9.749751e+2, 1.2413488e+2, -1343660.0, -1778923.3, -20503.951, -0.031571243, 0.010620262, -1342696.3, 380778.9, 0.000057975532, 10.003599, 9.997825 
9.749851e+2, 1.3413237e+2, -1275489.8, -1692416.1, -21995.908, 0.03224516, -0.02863205, -1274332.5, 351168.22, 0.000014441633, 10.003381, 9.997851 
9.749937e+2, 1.4413041e+2, -1190401.6, -1538132.8, -43282.77, -0.017301604, -0.032868247, -1185095.1, 342423.97, 0.0000005546723, 10.003023, 9.998407 
9.7500277e+2, 1.5412863e+2, -1172146.3, -1470162.3, -28285.74, 0.004308528, -0.05990086, -1169485.4, 260047.97, 0.0, 10.0024395, 9.998483 
9.750115e+2, 1.6412674e+2, -1150274.8, -1451515.3, -22211.365, 0.001132065, -0.07931018, -1148645.9, 182904.48, 0.0, 10.0021, 9.998102 
9.750202e+2, 1.741247e+2, -1050343.5, -1353726.4, -27658.127, -0.027093451, -0.091738224, -1047842.6, 185728.05, 0.0, 10.002119, 9.998091 
9.7502863e+2, 1.84123e+2, -949318.25, -1206295.8, -47267.574, -0.040686175, -0.090916045, -940899.75, 194687.63, 0.0, 10.001931, 9.998522 
9.7503704e+2, 1.941217e+2, -916245.5, -1132292.5, -41982.4, -0.035110604, -0.08114463, -908374.25, 129224.95, 0.0, 10.001454, 9.998586 
9.7504526e+2, 2.041203e+2, -861410.4, -1019178.56, -45723.336, -0.036662284, -0.09301934, -849117.06, 90494.34, 0.0, 10.001002, 9.998908 
9.7505325e+2, 2.1411878e+2, -819334.4, -941843.6, -42225.15, -0.04669133, -0.14372583, -806190.8, 35433.227, 0.0, 10.000591, 9.998965 
9.7506136e+2, 2.2411762e+2, -770069.06, -875098.56, -38339.754, -0.044737183, -0.15167172, -757562.75, -13928.241, 0.0, 10.000289, 9.998897 
9.750697e+2, 2.3411699e+2, -693800.5, -784953.6, -37407.344, -0.02671863, -0.10759269, -680414.94, -34773.043, 0.0, 10.00013, 9.998919 
9.7507775e+2, 2.4411605e+2, -622358.5, -693064.06, -43661.523, -0.024158066, -0.09374228, -601531.7, -53880.05, 0.0, 9.999918, 9.998979 
9.750855e+2, 2.541147e+2, -563444.44, -610069.8, -40858.293, -0.044019826, -0.13400252, -539715.9, -90050.83, 0.0, 9.999633, 9.999013 
9.7509354e+2, 2.6411378e+2, -486920.88, -493359.3, -20940.945, -0.049285743, -0.13560313, -468953.16, -117279.34, 0.0, 9.99936, 9.999272 
9.7510207e+2, 2.741136e+2, -424679.8, -406984.5, -11160.4795, -0.03326127, -0.0876081, -401590.06, -147914.27, 0.0, 9.99909, 9.999323 
9.751106e+2, 2.84113e+2, -396318.3, -373144.0, -13015.006, -0.019384768, -0.06792596, -367305.53, -211623.16, 0.0, 9.998742, 9.99905 
9.75119e+2, 2.941117e+2, -361950.47, -305636.66, -30029.932, -0.010268603, -0.10323914, -292627.97, -234931.9, 0.0, 9.998305, 9.999051 
9.751274e+2, 3.0411083e+2, -262096.23, -81493.66, -31275.7, -0.016624201, -0.1566711, -76230.875, -76230.875, 0.0, 9.998008, 10.0004 
9.751356e+2, 3.1411245e+2, -264505.8, -55311.902, -19614.543, -0.035175946, -0.04741322, -53488.688, -53488.688, 0.0, 9.997872, 10.000644 
9.8497874e+2, 1.2412549e+2, -1309792.4, -1757379.5, -13931.627, -0.030532558, 0.03126144, -1309359.1, 414209.53, 0.00008015815, 10.003808, 9.997871 
9.849885e+2, 1.3412292e+2, -1292660.1, -1695326.5, -4884.1396, 0.04076524, -0.018672599, -1292601.0, 332993.06, 0.000022452736, 10.00324, 9.9979 
9.849967e+2, 1.4412099e+2, -1212144.4, -1546162.9, -21653.035, -0.009056466, -0.023594948, -1210746.5, 316865.3, 0.0000013019285, 10.002863, 9.99843 
9.850054e+2, 1.5411925e+2, -1127524.9, -1445311.4, -33092.02, 0.010991564, -0.050195944, -1124115.5, 305510.34, 0.0, 10.002732, 9.998511 
9.8501384e+2, 1.6411738e+2, -1095031.4, -1412578.8, -28825.47, 0.007820697, -0.07264028, -1092436.0, 239206.5, 0.0, 10.002427, 9.998211 
9.850222e+2, 1.7411539e+2, -1077402.9, -1353824.3, -13606.003, -0.018457374, -0.09424217, -1076734.9, 156927.48, 0.0, 10.001877, 9.998207 
9.850304e+2, 1.8411379e+2, -1013514.06, -1220846.5, -24762.094, -0.033080287, -0.095585674, -1010597.7, 125080.07, 0.0, 10.001419, 9.998669 
9.8503834e+2, 1.941127e+2, -956955.7, -1134884.8, -22882.395, -0.03521939, -0.07810968, -954060.06, 83627.03, 0.0, 10.001101, 9.998739 
9.8504615e+2, 2.0411146e+2, -882856.75, -1031034.6, -26763.387, -0.038297713, -0.0842809, -878171.0, 61527.04, 0.0, 10.000861, 9.998896 
9.8505396e+2, 2.1410991e+2, -799592.75, -935402.9, -34024.66, -0.042215217, -0.13345502, -791545.4, 50165.98, 0.0, 10.00074, 9.998937 
9.850618e+2, 2.2410874e+2, -739943.9, -854222.1, -35530.637, -0.03830952, -0.1438328, -729797.75, 13924.427, 0.0, 10.00047, 9.998951 
9.8506975e+2, 2.341081e+2, -708780.94, -785637.9, -32101.008, -0.024393959, -0.106004946, -697137.25, -51407.957, 0.0, 9.999999, 9.998977 
9.850775e+2, 2.4410722e+2, -649556.2, -693317.2, -29845.79, -0.029991124, -0.09537101, -634429.56, -86691.266, 0.0, 9.999677, 9.999093 
9.850849e+2, 2.54106e+2, -566618.9, -598328.06, -24932.586, -0.06418645, -0.13559975, -552926.9, -103176.625, 0.0, 9.999555, 9.99913 
9.850927e+2, 2.6410517e+2, -491906.47, -486704.44, -13158.033, -0.06818986, -0.13885076, -475892.8, -124134.8, 0.0, 9.999289, 9.999352 
9.851011e+2, 2.74105e+2, -457020.63, -413734.22, -15912.178, -0.029104287, -0.09449661, -408514.34, -154754.83, 0.0, 9.998833, 9.999399 
9.851093e+2, 2.8410444e+2, -425458.22, -385312.34, -5602.889, -0.009948825, -0.07598204, -384545.06, -228779.42, 0.0, 9.998536, 9.999065 
9.851173e+2, 2.9410318e+2, -343254.06, -295665.44, 11601.688, -0.019139538, -0.10767955, -292987.72, -235208.98, 0.0, 9.998429, 9.99906 
9.8512536e+2, 3.041024e+2, -234958.0, -66992.46, 19228.58, -0.030691642, -0.15562783, -64819.305, -64819.305, 0.0, 9.998189, 10.00041 
9.851334e+2, 3.1410378e+2, -277863.4, -64812.57, -3549.143, -0.03783373, -0.0690539, -64753.46, -64753.46, 0.0, 9.997792, 10.000617 
9.949827e+2, 1.2411578e+2, -1288900.8, -1714071.3, -27385.346, -0.020329522, 0.00045688776, -1287144.1, 436520.22, 0.00010704937, 10.003809, 9.998168 
9.94992e+2, 1.3411379e+2, -1270347.0, -1648903.6, -25630.607, 0.06284619, -0.023578655, -1268619.5, 357063.28, 0.000032992957, 10.003239, 9.9982195 
9.949997e+2, 1.4411205e+2, -1230223.0, -1583664.8, -28254.428, 0.00499949, -0.014647504, -1227978.5, 299720.44, 0.0000026281716, 10.002862, 9.998174 
9.9500805e+2, 1.5411e+2, -1149225.9, -1490302.8, -37409.63, 0.007864636, -0.04132271, -1145170.9, 284547.2, 0.00000000019976186, 10.002731, 9.998204 
9.950162e+2, 1.6410819e+2, -1071896.1, -1364133.8, -48842.68, 0.0020754416, -0.057190772, -1063949.0, 267785.97, 0.0, 10.002424, 9.998545 
9.950242e+2, 1.7410673e+2, -1049260.6, -1295758.6, -34414.965, -0.0038304417, -0.0645692, -1044546.0, 189202.1, 0.0, 10.001878, 9.998605 
9.9503195e+2, 1.8410538e+2, -1003270.44, -1199745.8, -38662.754, -0.012750168, -0.06843448, -995936.1, 139823.95, 0.0, 10.001419, 9.998814 
9.950394e+2, 1.9410421e+2, -948627.94, -1117347.5, -35471.668, -0.029695095, -0.07423323, -941473.75, 96296.42, 0.0, 10.001099, 9.99886 
9.95047e+2, 2.0410289e+2, -892792.44, -1051352.9, -33470.938, -0.042227477, -0.08505975, -886016.56, 53765.313, 0.0, 10.000859, 9.998756 
9.950546e+2, 2.1410139e+2, -811794.7, -959449.06, -39015.293, -0.046501577, -0.11323618, -802119.5, 39676.37, 0.0, 10.000734, 9.998775 
9.950622e+2, 2.2410019e+2, -734424.25, -842074.44, -53284.1, -0.048951503, -0.12240315, -712510.75, 31296.707, 0.0, 10.000466, 9.999037 
9.950695e+2, 2.3409937e+2, -700909.94, -769205.3, -49856.156, -0.048752017, -0.1130496, -674628.3, -28812.855, 0.0, 9.999998, 9.99909 
9.950769e+2, 2.4409862e+2, -639243.5, -671419.2, -35752.08, -0.055644304, -0.10482719, -616126.4, -68303.53, 0.0, 9.999674, 9.999245 
9.9508435e+2, 2.5409788e+2, -556450.2, -575896.06, -28626.115, -0.07270867, -0.10862281, -535940.9, -86111.44, 0.0, 9.999548, 9.999288 
9.9509203e+2, 2.6409706e+2, -496401.2, -495437.25, -29297.768, -0.062032282, -0.11576343, -466617.47, -114780.43, 0.0, 9.999285, 9.999295 
9.951e+2, 2.7409622e+2, -462601.2, -424964.47, -32105.482, -0.01388056, -0.13452485, -406568.7, -152722.77, 0.0, 9.99883, 9.999324 
9.951079e+2, 2.8409573e+2, -396514.56, -324002.1, -9765.193, -0.004403879, -0.12187646, -322710.06, -166859.36, 0.0, 9.99853, 9.99949 
9.9511546e+2, 2.9409575e+2, -310666.5, -225940.13, 9726.044, -0.047749557, -0.077478394, -224837.98, -166988.13, 0.0, 9.998422, 9.999542 
9.9512327e+2, 3.0409515e+2, -259693.0, -117506.46, 5680.995, -0.05861193, -0.11728255, -117279.84, -117279.84, 0.0, 9.998184, 10.000067 
9.9513143e+2, 3.1409496e+2, -311370.13, -131467.72, -15047.622, -0.020164283, -0.1453992, -130217.766, -130217.766, 0.0, 9.99778, 10.000165 
1.0049868e+3, 1.2410692e+2, -1259509.9, -1698824.8, 18720.898, -0.0068354486, -0.020213684, -1258713.6, 465037.16, 0.0001389771, 10.004004, 9.998181 
1.0049953e+3, 1.3410503e+2, -1244644.9, -1633615.1, -11442.984, 0.063928485, -0.036981873, -1244308.6, 381459.5, 0.000046326506, 10.003403, 9.998246 
1.00500256e+3, 1.4410335e+2, -1227257.6, -1591689.6, -6011.403, 0.0026796488, -0.01861359, -1227158.5, 300625.34, 0.00000474816, 10.002924, 9.998089 
1.0050108e+3, 1.5410127e+2, -1178335.5, -1516081.1, -1165.6653, 0.016959246, -0.039591298, -1178331.5, 251472.97, 0.000000004412824, 10.002581, 9.9981 
1.00501865e+3, 1.6409954e+2, -1097238.5, -1359905.0, -18923.244, 0.016874392, -0.047490384, -1095882.3, 235938.47, 0.0, 10.002177, 9.998693 
1.0050261e+3, 1.7409839e+2, -1062772.1, -1282044.4, -22487.354, 0.006136524, -0.042623457, -1060489.8, 173340.75, 0.0, 10.001698, 9.998786 
1.0050335e+3, 1.8409711e+2, -1007237.7, -1194097.8, -27462.975, -0.00840628, -0.05168768, -1003285.0, 132556.25, 0.0, 10.00136, 9.99888 
1.00504056e+3, 1.9409567e+2, -925610.75, -1100026.8, -28624.945, -0.03253527, -0.08822577, -921033.0, 116820.43, 0.0, 10.00123, 9.998916 
1.00504786e+3, 2.0409438e+2, -878320.56, -1040016.06, -25434.04, -0.04449414, -0.103677616, -874414.3, 65450.85, 0.0, 10.000941, 9.998794 
1.0050553e+3, 2.1409327e+2, -853304.4, -975666.1, -17786.082, -0.038110156, -0.09798924, -850771.5, -8895.335, 0.0, 10.000433, 9.998808 
1.0050625e+3, 2.2409216e+2, -789386.3, -869012.1, -25250.15, -0.040627237, -0.096709475, -782054.3, -38167.43, 0.0, 10.0000925, 9.999032 
1.0050694e+3, 2.3409109e+2, -702787.5, -771006.56, -32068.217, -0.057054102, -0.11316487, -690080.06, -44182.637, 0.0, 9.9999895, 9.999081 
1.0050765e+3, 2.4409029e+2, -627450.0, -646280.9, -25046.557, -0.06465956, -0.11613963, -610107.6, -62202.793, 0.0, 9.999673, 9.999416 
1.0050838e+3, 2.5408986e+2, -615117.6, -582529.3, -16915.393, -0.059865914, -0.10690893, -575336.6, -125428.97, 0.0, 9.999055, 9.999478 
1.0050912e+3, 2.6408923e+2, -572083.25, -530505.2, -5969.137, -0.048805967, -0.10863096, -529665.2, -177751.75, 0.0, 9.998761, 9.999305 
1.00509875e+3, 2.7408832e+2, -452188.2, -421023.1, -3846.5488, -0.03088047, -0.13445078, -420555.34, -166632.1, 0.0, 9.998907, 9.999313 
1.00510634e+3, 2.840878e+2, -353030.03, -284842.34, 6680.087, -0.028460419, -0.13305266, -284194.06, -128265.8, 0.0, 9.998752, 9.999651 
1.0051138e+3, 2.940878e+2, -332414.56, -216623.95, 308.3799, -0.045626268, -0.10494275, -216623.14, -158696.58, 0.0, 9.998188, 9.999718 
1.0051215e+3, 3.040874e+2, -296581.56, -135285.02, 3071.9673, -0.04659394, -0.13389212, -135226.53, -135226.53, 0.0, 9.9979315, 10.000067 
1.0051293e+3, 3.1408742e+2, -271122.38, -115847.23, 12952.865, -0.022833014, -0.1382003, -114774.13, -114774.13, 0.0, 9.998073, 10.000131 
1.0149907e+3, 1.2409891e+2, -1277446.0, -1734506.0, 7082.374, -0.011623211, -0.035068072, -1277336.4, 446491.38, 0.00017643356, 10.003999, 9.997939 
1.0149985e+3, 1.340967e+2, -1261960.4, -1668936.4, -33091.234, 0.039757486, -0.059938762, -1259287.4, 366561.88, 0.00006271102, 10.003401, 9.998005 
1.0150053e+3, 1.4409496e+2, -1222790.0, -1582753.5, -19867.572, -0.01985078, -0.036944516, -1221696.8, 306169.22, 0.000007860604, 10.002924, 9.998151 
1.0150136e+3, 1.5409312e+2, -1171454.5, -1502562.1, -13797.026, 0.034869906, -0.044408046, -1170880.6, 259003.66, 0.000000028517778, 10.002583, 9.998193 
1.0150212e+3, 1.6409153e+2, -1099360.8, -1364799.8, -37441.94, 0.04781394, -0.041240584, -1094180.5, 237718.8, 0.0, 10.002179, 9.99866 
1.0150278e+3, 1.7409042e+2, -1065654.0, -1287896.1, -40781.207, 0.009453788, -0.027755398, -1058407.0, 175501.89, 0.0, 10.001698, 9.998746 
1.0150347e+3, 1.8408902e+2, -1007923.2, -1195418.1, -34751.42, -0.02211082, -0.04612569, -1001689.44, 134231.52, 0.0, 10.001358, 9.998873 
1.0150417e+3, 1.940872e+2, -925938.1, -1100607.3, -33849.84, -0.045639765, -0.12055751, -919607.6, 118328.67, 0.0, 10.001229, 9.998913 
1.0150488e+3, 2.0408595e+2, -864370.25, -1010613.75, -44668.926, -0.048152775, -0.13990054, -851805.94, 88141.375, 0.0, 10.000938, 9.998998 
1.0150559e+3, 2.1408552e+2, -837878.3, -943194.25, -37518.168, -0.019619182, -0.087020606, -825879.7, 16071.999, 0.0, 10.000431, 9.999032 
1.01506285e+3, 2.2408472e+2, -796856.1, -883732.4, -31657.45, -0.016785122, -0.06670373, -786544.25, -42584.113, 0.0, 10.000088, 9.998933 
1.0150695e+3, 2.3408328e+2, -712283.8, -790136.7, -35636.555, -0.050459616, -0.10584439, -698434.94, -52460.266, 0.0, 9.999987, 9.998951 
1.0150763e+3, 2.4408232e+2, -614701.75, -619656.25, -47114.758, -0.058761436, -0.12671654, -569999.1, -22015.469, 0.0, 9.999671, 9.9996 
1.0150831e+3, 2.54082e+2, -599686.6, -550944.75, -39914.285, -0.02984888, -0.12945478, -528549.3, -78564.67, 0.0, 9.999056, 9.999696 
1.0150901e+3, 2.6408163e+2, -566999.4, -519395.13, -2751.8745, -0.032795522, -0.11932169, -519236.56, -167249.39, 0.0, 9.998758, 9.999382 
1.0150972e+3, 2.7408123e+2, -447999.13, -411273.88, 3283.5605, -0.08188081, -0.098326914, -410982.6, -156990.94, 0.0, 9.998901, 9.999383 
1.0151045e+3, 2.8408056e+2, -362165.78, -303508.0, -11919.02, -0.08389734, -0.11036408, -301178.6, -145180.38, 0.0, 9.998749, 9.999525 
1.01511225e+3, 2.9407942e+2, -343949.84, -238993.11, -19664.793, -0.01822458, -0.18061268, -235429.67, -177421.8, 0.0, 9.998179, 9.999568 
1.0151198e+3, 3.0407923e+2, -274241.13, -86310.31, 6780.8013, -0.0011444342, -0.19811516, -86065.97, -86065.97, 0.0, 9.99792, 10.000408 
1.015127e+3, 3.1408107e+2, -246242.06, -59629.46, 21315.322, -0.05449056, -0.061491232, -57225.74, -57225.74, 0.0, 9.9980545, 10.000525 
1.0249946e+3, 1.24091245e+2, -1281103.9, -1744642.9, 13677.829, -0.013754862, -0.028916616, -1280700.6, 443202.63, 0.00021988727, 10.004012, 9.997861 
1.0250019e+3, 1.3408908e+2, -1236928.3, -1665497.8, -27744.07, 0.039422773, -0.040782847, -1235139.8, 390785.0, 0.000082442966, 10.003609, 9.997928 
1.0250083e+3, 1.4408737e+2, -1186891.9, -1555430.6, -4678.459, -0.015650067, -0.016133653, -1186832.5, 341108.78, 0.000012107546, 10.003125, 9.998241 
1.0250161e+3, 1.5408541e+2, -1178630.5, -1493354.6, 1484.5955, 0.037577976, -0.04384186, -1178623.5, 251336.14, 0.00000009714164, 10.00248, 9.998305 
1.02502316e+3, 1.6408375e+2, -1126271.4, -1382238.0, -14902.821, 0.04752474, -0.052910704, -1125406.6, 206568.3, 0.0, 10.002015, 9.998618 
1.0250296e+3, 1.7408258e+2, -1051377.9, -1288170.9, -20086.006, 0.0045558214, -0.040481433, -1049686.1, 184299.23, 0.0, 10.001824, 9.998684 
1.025036e+3, 1.840812e+2, -989799.2, -1189599.4, -13978.164, -0.02354591, -0.05419371, -988826.0, 147171.64, 0.0, 10.001495, 9.998846 
1.025043e+3, 1.9407949e+2, -963164.25, -1120736.3, -15403.284, -0.03362201, -0.11525683, -961672.6, 76339.7, 0.0, 10.000983, 9.998892 
1.0250497e+3, 2.0407827e+2, -909239.8, -1024438.3, -32114.383, -0.031736962, -0.13158074, -900892.06, 39130.973, 0.0, 10.000597, 9.999067 
1.0250564e+3, 2.140778e+2, -837323.94, -934060.7, -36477.656, -0.013197739, -0.091882735, -825110.8, 16916.977, 0.0, 10.000397, 9.999111 
1.025063e+3, 2.2407708e+2, -786397.1, -863836.25, -25166.082, -0.010611726, -0.073818944, -778937.3, -34902.03, 0.0, 10.000097, 9.9990635 
1.0250694e+3, 2.3407596e+2, -750490.06, -792892.7, -10370.066, -0.030871904, -0.09586237, -748089.8, -102043.3, 0.0, 9.99966, 9.999088 
1.0250759e+3, 2.4407506e+2, -660390.94, -656674.94, -21877.139, -0.04085706, -0.11027522, -636577.0, -88522.22, 0.0, 9.999423, 9.999465 
1.02508225e+3, 2.5407445e+2, -551813.9, -546298.6, -43753.95, -0.036399093, -0.12460036, -505215.5, -55156.434, 0.0, 9.999464, 9.999531 
1.025089e+3, 2.6407394e+2, -500887.2, -482600.2, -22796.207, -0.044219747, -0.12273392, -467182.13, -115118.98, 0.0, 9.999191, 9.999425 
1.02509595e+3, 2.740736e+2, -506110.56, -431351.97, -19255.094, -0.06917255, -0.10456832, -426684.03, -172617.39, 0.0, 9.998471, 9.999451 
1.025103e+3, 2.8407297e+2, -454280.7, -353264.1, -27809.123, -0.069085605, -0.11233116, -346114.47, -190042.05, 0.0, 9.998142, 9.999474 
1.0251103e+3, 2.9407194e+2, -321418.78, -235041.5, -28520.018, -0.03345063, -0.16915442, -226474.47, -168392.63, 0.0, 9.998365, 9.999505 
1.0251177e+3, 3.0407175e+2, -223054.3, -47046.324, -7451.2266, -0.022722881, -0.18554097, -46731.44, -46731.44, 0.0, 9.99821, 10.000537 
1.0251249e+3, 3.1407335e+2, -318518.0, -80223.414, -15743.979, -0.049314972, -0.086281, -79187.73, -79187.73, 0.0, 9.997496, 10.000653 
1.0349985e+3, 1.2408397e+2, -1277988.5, -1737617.3, 7711.6846, -0.028363563, -0.004899545, -1277859.1, 446117.7, 0.00026982953, 10.004009, 9.99791 
1.03500575e+3, 1.3408227e+2, -1231648.0, -1654421.1, -42378.96, 0.058868088, 0.021337736, -1227441.8, 398552.06, 0.00010582585, 10.003608, 9.998004 
1.0350117e+3, 1.4408065e+2, -1178278.9, -1537526.0, -28345.922, 0.0106588695, 0.0460936, -1176056.0, 351952.88, 0.000017580334, 10.003125, 9.998365 
1.0350184e+3, 1.5407826e+2, -1169188.6, -1473483.0, -22592.086, 0.023412919, -0.03830831, -1167520.4, 262509.5, 0.00000023822265, 10.002479, 9.998442 
1.0350249e+3, 1.640763e+2, -1129721.5, -1390621.8, -24648.328, 0.014592599, -0.084070474, -1127413.3, 204634.13, 0.0, 10.002019, 9.99856 
1.0350312e+3, 1.7407495e+2, -1056712.9, -1299672.1, -27348.84, -0.011522068, -0.08091974, -1053672.4, 180386.94, 0.0, 10.001825, 9.998605 
1.03503756e+3, 1.8407369e+2, -993729.9, -1197696.0, -33396.957, -0.017266242, -0.074314624, -988400.75, 147669.86, 0.0, 10.001494, 9.998791 
1.0350442e+3, 1.9407257e+2, -966892.2, -1128064.1, -35322.293, 0.0018456421, -0.07183177, -959490.9, 78590.03, 0.0, 10.000981, 9.998843 
1.0350507e+3, 2.0407142e+2, -913949.9, -1033733.25, -42067.402, 0.003181335, -0.079343885, -900652.25, 39439.668, 0.0, 10.000594, 9.999004 
1.0350568e+3, 2.1407013e+2, -841724.8, -943213.3, -44342.41, -0.019683724, -0.11303635, -825080.4, 17023.674, 0.0, 10.000396, 9.999049 
1.035063e+3, 2.2406931e+2, -761645.9, -812508.3, -42090.473, -0.023875628, -0.11667667, -737900.3, 6211.381, 0.0, 10.000096, 9.999417 
1.03506945e+3, 2.3406912e+2, -722642.3, -735627.06, -27076.244, -0.0007418819, -0.08391669, -701290.94, -55178.33, 0.0, 9.9996605, 9.999482 
1.0350757e+3, 2.4406853e+2, -691933.2, -721549.06, -22364.898, -0.014340382, -0.069992505, -679918.3, -131800.13, 0.0, 9.99942, 9.999021 
1.0350813e+3, 2.540673e+2, -588803.9, -623336.1, -41096.47, -0.08002336, -0.093911804, -561493.8, -111363.27, 0.0, 9.999464, 9.9990015 
1.0350878e+3, 2.6406625e+2, -501563.38, -484350.97, -46883.137, -0.08371529, -0.1167319, -445290.66, -93150.08, 0.0, 9.999192, 9.9994135 
1.0350951e+3, 2.7406546e+2, -503600.8, -425901.78, -45549.746, 0.0015133787, -0.1471993, -404884.25, -150736.97, 0.0, 9.998468, 9.99949 
1.0351021e+3, 2.8406504e+2, -451900.6, -346937.66, -22048.588, 0.009251349, -0.13730375, -342494.22, -186343.67, 0.0, 9.998136, 9.99952 
1.0351081e+3, 2.940652e+2, -318022.1, -226804.36, -17319.744, -0.09354881, -0.07868132, -223626.52, -165477.78, 0.0, 9.99836, 9.999564 
1.035115e+3, 3.0406493e+2, -230730.63, -63252.69, -29453.988, -0.1122435, -0.10285001, -58223.69, -58223.69, 0.0, 9.998209, 10.000427 
1.03512265e+3, 3.140644e+2, -329582.7, -102114.16, -39595.426, -0.013677582, -0.20278105, -95418.85, -95418.85, 0.0, 9.99749, 10.000506 
1.0450028e+3, 1.24077305e+2, -1254818.1, -1722744.4, 35391.438, -0.013471884, 0.029100355, -1252156.5, 471886.9, 0.00032683945, 10.004149, 9.997945 
1.0450093e+3, 1.3407527e+2, -1270598.6, -1666716.6, -26811.42, 0.06222225, 0.017355014, -1268792.1, 357270.9, 0.00013321284, 10.003311, 9.998063 
1.0450148e+3, 1.4407364e+2, -1224091.5, -1554213.1, -5416.6016, 0.013242538, 0.03478385, -1224002.6, 304075.25, 0.000024406861, 10.0027895, 9.998411 
1.045021e+3, 1.540716e+2, -1135984.5, -1453363.8, -8397.711, 0.0140753845, -0.019752426, -1135762.5, 294333.2, 0.0000004785213, 10.002687, 9.998481 
1.0450271e+3, 1.6406965e+2, -1081330.5, -1376446.8, -14446.016, 0.0054394677, -0.060591973, -1080625.0, 251487.81, 0.0, 10.002391, 9.998478 
1.0450331e+3, 1.7406791e+2, -1062187.4, -1312164.6, -19126.387, -0.0043242187, -0.087056436, -1060732.5, 173395.97, 0.0, 10.001832, 9.998515 
1.0450392e+3, 1.8406655e+2, -1014276.25, -1207629.3, -25005.453, -0.002601531, -0.087491766, -1011094.8, 125046.19, 0.0, 10.001356, 9.998788 
1.04504526e+3, 1.9406569e+2, -961965.44, -1125087.4, -23441.248, 0.009576646, -0.0593097, -958663.7, 79485.38, 0.0, 10.001013, 9.998848 
1.0450513e+3, 2.0406462e+2, -900045.94, -1025792.4, -18355.018, 0.0060789795, -0.05736081, -897421.5, 42737.625, 0.0, 10.000686, 9.999014 
1.0450571e+3, 2.1406324e+2, -842243.25, -941968.8, -15574.585, -0.018719343, -0.102834776, -839867.5, 2304.5383, 0.0, 10.000387, 9.999061 
1.04506314e+3, 2.2406232e+2, -760446.3, -818157.25, -25873.656, -0.024723602, -0.11528792, -750545.06, -6364.5234, 0.0, 10.000132, 9.999361 
1.04506925e+3, 2.3406202e+2, -687232.9, -725747.25, -46153.516, -0.00430092, -0.08884987, -656480.2, -10297.524, 0.0, 9.999933, 9.999418 
1.0450752e+3, 2.4406138e+2, -658180.06, -711887.0, -40709.992, -0.015261244, -0.071410805, -636264.56, -88075.89, 0.0, 9.99968, 9.998961 
1.0450808e+3, 2.540603e+2, -610560.7, -639476.56, -25720.459, -0.07066612, -0.07562838, -595513.1, -145313.02, 0.0, 9.999341, 9.998948 
1.04508705e+3, 2.6405925e+2, -524057.66, -506461.9, -24691.238, -0.06936149, -0.09342956, -489047.97, -136837.39, 0.0, 9.999087, 9.999311 
1.045094e+3, 2.7405813e+2, -439945.9, -407325.44, -35029.43, 0.012543462, -0.14245053, -384995.22, -130775.4, 0.0, 9.998958, 9.999382 
1.0451005e+3, 2.8405762e+2, -376239.84, -302888.7, -8385.474, 0.019038765, -0.13998881, -301942.28, -145718.42, 0.0, 9.998622, 9.999588 
1.0451064e+3, 2.94058e+2, -368529.03, -241181.0, -3759.96, -0.07973178, -0.07121607, -241070.1, -182850.13, 0.0, 9.997971, 9.999652 
1.04511306e+3, 3.0405772e+2, -318724.88, -116208.81, -16139.047, -0.10470872, -0.09405525, -114930.72, -114930.72, 0.0, 9.997651, 10.000331 
1.0451202e+3, 3.140569e+2, -289652.3, -96432.766, -24883.94, -0.02880748, -0.21254142, -93279.52, -93279.52, 0.0, 9.997823, 10.000384 
1.0550072e+3, 1.2407127e+2, -1252376.8, -1716869.3, 13984.105, 0.0122815035, 0.07005003, -1251956.1, 472146.5, 0.0003913468, 10.004147, 9.997987 
1.0550124e+3, 1.3406819e+2, -1266289.4, -1658171.0, -57422.418, 0.04887817, -0.05238998, -1258048.6, 368082.75, 0.00016489324, 10.003312, 9.998121 
1.0550173e+3, 1.4406642e+2, -1226543.6, -1560904.1, -11898.976, -0.0093930615, -0.050191432, -1226120.8, 302026.88, 0.000032768054, 10.002795, 9.998363 
1.0550236e+3, 1.5406547e+2, -1140850.8, -1462757.9, -11967.262, 0.005623248, 0.0122374715, -1140406.5, 289749.56, 0.0000008393984, 10.002684, 9.998418 
1.05502956e+3, 1.6406393e+2, -1089442.9, -1392930.4, -34735.035, 0.014571685, 0.019709341, -1085518.1, 246652.16, 0.0, 10.002389, 9.998366 
1.0550353e+3, 1.7406157e+2, -1070069.4, -1328525.4, -40362.344, 0.024781482, -0.05840525, -1063912.8, 170279.38, 0.0, 10.001832, 9.998403 
1.0550408e+3, 1.840598e+2, -1010628.56, -1200738.6, -39797.258, 0.019116769, -0.09429222, -1002633.75, 133574.56, 0.0, 10.001358, 9.998836 
1.0550462e+3, 1.9405888e+2, -957309.8, -1115864.4, -36675.36, -0.012068627, -0.07900692, -949237.4, 88978.94, 0.0, 10.001015, 9.998911 
1.0550516e+3, 2.0405799e+2, -894805.6, -1014901.9, -30934.025, -0.025824567, -0.065040566, -887306.06, 52917.945, 0.0, 10.000685, 9.999089 
1.05505764e+3, 2.1405719e+2, -837009.4, -931062.8, -27221.732, -0.012425789, -0.061765604, -829698.9, 12532.365, 0.0, 10.000386, 9.999136 
1.0550634e+3, 2.2405611e+2, -792636.0, -884614.1, -34844.438, -0.015669644, -0.0716322, -780926.5, -36685.03, 0.0, 10.000129, 9.998906 
1.05506875e+3, 2.3405465e+2, -722577.7, -799851.4, -53393.1, -0.04227081, -0.11069733, -695308.3, -49052.223, 0.0, 9.999935, 9.998909 
1.05507456e+3, 2.4405369e+2, -636479.75, -667035.7, -53159.145, -0.044815473, -0.11188066, -596446.6, -48181.12, 0.0, 9.99968, 9.99927 
1.0550808e+3, 2.540535e+2, -583111.9, -582274.8, -38042.72, -0.01222205, -0.06839983, -544648.3, -94380.89, 0.0, 9.999338, 9.999344 
1.0550868e+3, 2.6405287e+2, -536964.1, -532030.75, -30419.488, -0.0051456094, -0.055696525, -503978.1, -151704.89, 0.0, 9.999082, 9.999139 
1.05509244e+3, 2.7405164e+2, -456117.8, -440854.78, -38353.184, -0.037187837, -0.09495569, -409381.22, -155096.88, 0.0, 9.998957, 9.999152 
1.0550985e+3, 2.8405073e+2, -372020.53, -294493.94, -29976.842, -0.040266156, -0.121602684, -284255.16, -127963.07, 0.0, 9.998622, 9.999646 
1.05510525e+3, 2.9405034e+2, -363679.3, -229657.75, -26966.541, 0.0019999591, -0.13876565, -224435.3, -166140.56, 0.0, 9.997963, 9.999736 
1.0551116e+3, 3.0405015e+2, -324380.56, -125961.516, -12383.05, -0.0074122488, -0.1530054, -125191.695, -125191.695, 0.0, 9.997642, 10.000269 
1.0551173e+3, 3.140508e+2, -294530.9, -106210.62, -15206.936, -0.09990818, -0.12143978, -104990.555, -104990.555, 0.0, 9.997821, 10.000319 
1.06501125e+3, 1.240651e+2, -1290285.8, -1741822.0, 47421.59, 0.010828456, 0.045416627, -1285359.1, 438802.63, 0.0004632997, 10.003919, 9.997925 
1.0650159e+3, 1.3406205e+2, -1214238.8, -1638564.0, -44390.074, 0.04133035, -0.068230584, -1209644.8, 416545.84, 0.00020096678, 10.003693, 9.998074 
1.0650204e+3, 1.4406028e+2, -1155269.9, -1534511.0, 2950.6912, -0.0029082417, -0.05918208, -1155246.9, 372960.22, 0.000042859534, 10.003319, 9.998291 
1.0650264e+3, 1.5405932e+2, -1145715.8, -1472906.6, 883.64703, 0.013567103, 0.007549299, -1145713.4, 284502.94, 0.0000013547858, 10.0026865, 9.998345 
1.0650319e+3, 1.6405784e+2, -1116892.4, -1406070.9, -18346.729, 0.021701206, 0.022806954, -1115733.1, 216497.4, 0.0, 10.002203, 9.9983635 
1.0650371e+3, 1.7405559e+2, -1051041.9, -1318987.4, -16034.763, 0.026073119, -0.042606626, -1050085.8, 184165.7, 0.0, 10.001961, 9.998405 
1.06504224e+3, 1.8405382e+2, -970029.75, -1186146.0, -11549.706, 0.017289028, -0.076914445, -969414.25, 166853.39, 0.0, 10.001658, 9.99879 
1.0650472e+3, 1.9405273e+2, -921578.94, -1104033.4, -17602.988, -0.014116351, -0.074363284, -919896.2, 118380.79, 0.0, 10.001285, 9.998861 
1.0650525e+3, 2.0405169e+2, -874528.5, -1021444.1, -23264.86, -0.024125963, -0.066978335, -870932.44, 69353.65, 0.0, 10.0008955, 9.998943 
1.0650581e+3, 2.1405074e+2, -832622.7, -946382.8, -37592.035, -0.0023526633, -0.06164475, -821322.8, 20972.123, 0.0, 10.000492, 9.99898 
1.0650636e+3, 2.2404958e+2, -794886.6, -896325.25, -36895.844, -0.0046420647, -0.06699369, -782886.3, -38580.145, 0.0, 10.000159, 9.998811 
1.0650687e+3, 2.3404813e+2, -729239.4, -812314.7, -24933.275, -0.041409325, -0.09662798, -722330.7, -76009.96, 0.0, 9.999931, 9.998824 
1.0650742e+3, 2.440471e+2, -639164.3, -673331.1, -22236.064, -0.045883723, -0.098463066, -628206.94, -79876.01, 0.0, 9.999683, 9.999226 
1.0650802e+3, 2.5404668e+2, -575627.44, -583514.6, -40343.336, -0.0039714994, -0.072636895, -539035.44, -88700.445, 0.0, 9.999411, 9.9993 
1.0650859e+3, 2.64046e+2, -522015.53, -516994.4, -37884.87, 0.0013603703, -0.062138457, -481537.0, -129196.195, 0.0, 9.999149, 9.999209 
1.0650912e+3, 2.740451e+2, -460789.44, -433316.94, -24047.234, -0.04636886, -0.079119, -419359.25, -165010.47, 0.0, 9.998883, 9.999239 
1.0650971e+3, 2.8404424e+2, -395677.78, -319449.56, -21428.303, -0.047187023, -0.09984837, -313838.88, -157482.73, 0.0, 9.99852, 9.999523 
1.0651034e+3, 2.9404348e+2, -360862.88, -244519.3, -36457.242, 0.020924142, -0.13796932, -234039.16, -175676.31, 0.0, 9.998053, 9.999589 
1.0651095e+3, 3.0404326e+2, -304851.7, -105901.0, -4802.034, 0.009510245, -0.15389359, -105785.16, -105785.16, 0.0, 9.997731, 10.000362 
1.0651149e+3, 3.1404448e+2, -325478.9, -107648.54, 3898.2214, -0.121354595, -0.07695757, -107578.8, -107578.8, 0.0, 9.997552, 10.000437 
1.0750148e+3, 1.2405889e+2, -1303917.9, -1769583.5, 48095.074, -0.030272994, -0.044273227, -1299002.4, 425217.66, 0.0005421925, 10.003918, 9.997734 
1.07501954e+3, 1.3405694e+2, -1226908.0, -1663110.1, -52136.152, 0.035737827, -0.029831821, -1220763.1, 405476.88, 0.00024133897, 10.003685, 9.997909 
1.0750241e+3, 1.4405534e+2, -1162486.6, -1548466.6, -19395.506, 0.027035067, 0.008586783, -1161514.5, 366741.28, 0.0000548195, 10.003314, 9.998198 
1.0750293e+3, 1.5405323e+2, -1151486.0, -1485341.0, -22689.607, 0.03664028, -0.0324517, -1149951.0, 280324.5, 0.000002073113, 10.002687, 9.99826 
1.0750342e+3, 1.6405138e+2, -1108885.8, -1390690.4, -29800.527, 0.025300045, -0.050811715, -1105768.9, 226523.98, 0.0000000000166348, 10.002208, 9.998467 
1.0750388e+3, 1.7405002e+2, -1042748.25, -1301524.8, -25057.209, -0.0024251651, -0.040511005, -1040344.3, 193961.52, 0.0, 10.00196, 9.998527 
1.0750436e+3, 1.8404864e+2, -980281.7, -1207204.8, -26373.941, -0.012150727, -0.034688268, -977256.75, 159061.69, 0.0, 10.001657, 9.998647 
1.0750487e+3, 1.9404726e+2, -933803.56, -1129412.8, -32215.049, 0.001459956, -0.0447566, -928634.6, 109695.81, 0.0, 10.001284, 9.998688 
1.0750537e+3, 2.040457e+2, -899872.56, -1074542.4, -39738.56, 0.008852166, -0.06312403, -891256.8, 49088.04, 0.0, 10.000896, 9.998579 
1.0750587e+3, 2.1404393e+2, -859229.9, -1002459.3, -53187.344, 0.009327035, -0.10252091, -841639.4, 723.1905, 0.0, 10.000494, 9.998594 
1.0750639e+3, 2.2404274e+2, -776409.9, -858595.5, -47064.973, 0.0057498715, -0.10035836, -755022.8, -10648.752, 0.0, 10.000161, 9.99907 
1.0750689e+3, 2.3404244e+2, -706015.94, -764829.5, -33360.074, -0.004097302, -0.04748999, -690951.94, -44575.465, 0.0, 9.999933, 9.99915 
1.0750742e+3, 2.4404156e+2, -666308.94, -729752.5, -32843.543, -0.020898823, -0.03424899, -652369.25, -103984.36, 0.0, 9.999683, 9.998838 
1.0750792e+3, 2.5403988e+2, -608104.8, -651112.9, -49835.94, -0.047435045, -0.088809095, -575331.4, -124929.12, 0.0, 9.999411, 9.9988365 
1.0750846e+3, 2.640388e+2, -501419.9, -474048.1, -47093.465, -0.050284486, -0.110643625, -438692.2, -86279.52, 0.0, 9.999147, 9.999506 
1.0750905e+3, 2.740386e+2, -435294.88, -378694.25, -33099.08, -0.018538516, -0.09237146, -363446.25, -109033.55, 0.0, 9.998875, 9.999619 
1.075096e+3, 2.8403822e+2, -417041.28, -361653.25, -38829.36, -0.005896926, -0.0753935, -341653.7, -185237.67, 0.0, 9.998509, 9.999239 
1.07510105e+3, 2.9403746e+2, -385175.25, -295348.16, -52154.75, -0.02381155, -0.073866576, -271433.34, -213009.0, 0.0, 9.9980545, 9.99924 
1.07510656e+3, 3.0403706e+2, -289060.2, -74187.57, -10434.324, -0.053373013, -0.10024636, -73682.06, -73682.06, 0.0, 9.997734, 10.000579 
1.0751125e+3, 3.1403807e+2, -307616.03, -67751.4, -370.26596, -0.100374, -0.07022507, -67750.83, -67750.83, 0.0, 9.997539, 10.000718 
1.0850189e+3, 1.2405352e+2, -1246241.4, -1754666.8, 59674.098, -0.021691894, -0.06834128, -1239331.4, 484939.94, 0.0006274994, 10.004372, 9.997617 
1.08502306e+3, 1.3405181e+2, -1225097.3, -1672568.8, -45816.152, 0.022167332, -0.020393398, -1220454.4, 405835.4, 0.00028587127, 10.003744, 9.997815 
1.0850272e+3, 1.4405021e+2, -1180693.1, -1557261.9, -8684.438, 0.025999814, 0.02243381, -1180492.9, 347813.0, 0.00006870092, 10.003192, 9.998195 
1.085032e+3, 1.5404773e+2, -1146905.8, -1483021.5, -8493.186, 0.041382704, -0.05516797, -1146691.3, 283637.38, 0.0000030594845, 10.00272, 9.99826 
1.0850364e+3, 1.6404578e+2, -1094145.3, -1390481.1, -6325.0884, 0.027311718, -0.08098835, -1094010.4, 238336.44, 0.000000000186287, 10.002338, 9.998405 
1.08504064e+3, 1.7404471e+2, -1028112.2, -1301734.4, -15555.133, -0.015513942, -0.035323687, -1027230.75, 207126.95, 0.0, 10.002094, 9.998459 
1.0850452e+3, 1.8404336e+2, -966608.7, -1215171.3, -26678.229, -0.025662096, -0.01765856, -963777.56, 172592.88, 0.0, 10.001815, 9.998515 
1.0850502e+3, 1.940416e+2, -911535.25, -1134033.8, -30921.613, 0.006383487, -0.050928894, -907317.9, 131068.17, 0.0, 10.001503, 9.99855 
1.0850548e+3, 2.0403986e+2, -859623.0, -1063137.8, -25784.793, 0.019887017, -0.076683424, -856407.0, 83995.195, 0.0, 10.001207, 9.9985075 
1.0850594e+3, 2.140382e+2, -798307.4, -980144.3, -16269.163, 0.0073959148, -0.09906281, -796863.2, 45555.766, 0.0, 10.000944, 9.99853 
1.0850642e+3, 2.2403699e+2, -715722.9, -840844.56, -7834.6963, 0.002287965, -0.091430016, -715234.2, 29196.516, 0.0, 10.0006275, 9.998967 
1.0850692e+3, 2.3403646e+2, -668814.75, -758997.25, -27432.166, 0.0069711166, -0.05071853, -661125.9, -14690.524, 0.0, 10.00024, 9.9990425 
1.0850741e+3, 2.4403547e+2, -649085.06, -731212.7, -35594.4, -0.007829619, -0.03971927, -635805.5, -87360.43, 0.0, 9.999844, 9.998752 
1.08507864e+3, 2.540338e+2, -612433.6, -662306.2, -25638.5, -0.050243285, -0.0810584, -601604.7, -151142.5, 0.0, 9.99942, 9.9987545 
1.0850836e+3, 2.6403272e+2, -529840.06, -491511.3, -18843.572, -0.05754746, -0.09763166, -483799.06, -131326.16, 0.0, 9.99897, 9.999471 
1.08508915e+3, 2.740324e+2, -491625.94, -409641.6, -35590.617, -0.014652259, -0.086895354, -396347.03, -141872.88, 0.0, 9.998504, 9.999584 
1.08509436e+3, 2.8403202e+2, -459141.63, -385217.66, -44317.023, -0.0027531902, -0.06700745, -364471.84, -207994.11, 0.0, 9.998235, 9.999209 
1.085099e+3, 2.9403147e+2, -365221.5, -289159.2, -35705.71, -0.03552824, -0.046290968, -275024.6, -216539.73, 0.0, 9.998206, 9.999209 
1.0851043e+3, 3.04031e+2, -266867.06, -54469.16, 6040.1094, -0.066417016, -0.07983721, -54297.53, -54297.53, 0.0, 9.9978485, 10.000659 
1.08511e+3, 3.14032e+2, -367189.9, -83685.51, 500.2164, -0.09612847, -0.059728075, -83684.625, -83684.625, 0.0, 9.997076, 10.000831 
1.0950238e+3, 1.2404906e+2, -1249513.1, -1759069.1, 45042.984, 0.024805935, -0.029480694, -1245562.1, 478752.97, 0.00071931677, 10.004362, 9.997591 
1.0950266e+3, 1.3404676e+2, -1226062.0, -1675371.1, -68279.94, -0.002238815, -0.03823249, -1215914.9, 410424.22, 0.00033462793, 10.003747, 9.997795 
1.09503016e+3, 1.4404498e+2, -1174649.1, -1545427.4, -27148.803, -0.008932456, -0.016394509, -1172671.9, 355684.8, 0.000084530904, 10.003195, 9.998275 
1.09503455e+3, 1.540429e+2, -1141653.0, -1471851.6, -25794.492, 0.025157712, -0.061371602, -1139650.1, 290724.94, 0.0000043925156, 10.002718, 9.998337 
1.0950387e+3, 1.6404109e+2, -1110059.6, -1423636.3, -17190.816, 0.02332887, -0.06803148, -1109120.0, 223271.89, 0.0000000006358386, 10.002338, 9.9981785 
1.0950428e+3, 1.7403972e+2, -1046358.0, -1340171.0, -24869.277, -0.015621428, -0.02623529, -1044267.9, 190138.48, 0.0, 10.002095, 9.998195 
1.095047e+3, 1.84038e+2, -974735.5, -1232464.3, -39468.438, -0.026726888, -0.025325386, -968826.8, 167596.3, 0.0, 10.001817, 9.998396 
1.09505154e+3, 1.940358e+2, -918727.25, -1148960.5, -43105.844, -0.00065256207, -0.092983186, -910921.3, 127521.91, 0.0, 10.001503, 9.998448 
1.09505594e+3, 2.0403421e+2, -844723.94, -1032068.1, -37113.285, 0.007271044, -0.10718912, -837639.6, 102817.98, 0.0, 10.001205, 9.998722 
1.0950602e+3, 2.1403356e+2, -781302.4, -944671.75, -26508.412, -0.009836985, -0.05190236, -777108.75, 65354.957, 0.0, 10.000942, 9.9987755 
1.0950646e+3, 2.2403231e+2, -748011.56, -907869.3, -23263.719, -0.016967468, -0.041061565, -744694.9, -218.97984, 0.0, 10.000627, 9.9985075 
1.09506935e+3, 2.340302e+2, -706474.56, -837107.8, -41933.44, -0.009571309, -0.10510851, -694172.44, -47675.49, 0.0, 10.000239, 9.998507 
1.0950738e+3, 2.440288e+2, -634582.8, -701311.6, -51253.03, -0.008280422, -0.11314508, -606791.2, -58280.27, 0.0, 9.999844, 9.998958 
1.0950784e+3, 2.540285e+2, -592154.1, -620065.94, -40883.39, -0.015426905, -0.049949277, -562910.25, -112395.69, 0.0, 9.999419, 9.999046 
1.0950829e+3, 2.6402783e+2, -554784.44, -543569.94, -36386.523, -0.023650354, -0.025347719, -512361.16, -159839.67, 0.0, 9.99897, 9.999114 
1.0950874e+3, 2.740266e+2, -521005.13, -471597.8, -51647.62, -0.03635951, -0.063617274, -439049.84, -184517.03, 0.0, 9.9985075, 9.999157 
1.0950923e+3, 2.840258e+2, -444832.72, -355979.78, -45463.516, -0.03806485, -0.0729308, -336840.2, -180299.4, 0.0, 9.998236, 9.99941 
1.09509744e+3, 2.9402545e+2, -348016.44, -250835.16, -34856.21, -0.019247497, -0.053976808, -239626.08, -181081.95, 0.0, 9.998195, 9.999478 
1.0951024e+3, 3.0402508e+2, -272829.53, -63655.0, -21117.88, -0.036334816, -0.092374355, -61544.277, -61544.277, 0.0, 9.997834, 10.000604 
1.0951068e+3, 3.1402627e+2, -370967.97, -90859.664, -26064.375, -0.11307332, -0.043338455, -88454.984, -88454.984, 0.0, 9.997072, 10.000783 
1.1050282e+3, 1.2404445e+2, -1262682.0, -1749067.9, 45193.52, 0.032598574, -0.019223442, -1258518.4, 465842.84, 0.000818576, 10.004202, 9.997736 
1.1050302e+3, 1.3404223e+2, -1237294.8, -1661085.9, -64921.598, -0.007289377, -0.03747472, -1227572.3, 398811.3, 0.00038811014, 10.003582, 9.997974 
1.10503346e+3, 1.440405e+2, -1181366.4, -1557638.8, -8715.714, 0.0015849824, -0.018476313, -1181164.6, 347235.8, 0.000102482416, 10.003187, 9.998195 
1.1050373e+3, 1.5403837e+2, -1101525.0, -1464370.5, -22027.303, 0.013242891, -0.05487187, -1100192.6, 330226.6, 0.0000061708192, 10.003047, 9.998229 
1.1050411e+3, 1.6403645e+2, -1052796.3, -1405779.3, -16005.028, 0.010267787, -0.063343294, -1052072.0, 280365.38, 0.0000000015512864, 10.002776, 9.998089 
1.10504515e+3, 1.7403482e+2, -1016062.3, -1335481.6, -11939.117, -0.0026892116, -0.03879635, -1015616.7, 218837.34, 0.0, 10.002347, 9.998105 
1.1050491e+3, 1.84033e+2, -954505.5, -1225327.3, -13963.004, -0.00981004, -0.042439952, -953787.5, 182684.19, 0.0, 10.001966, 9.998373 
1.105053e+3, 1.9403091e+2, -895661.5, -1139417.9, -11729.549, -0.012496841, -0.09519276, -895098.4, 143392.44, 0.0, 10.001669, 9.998433 
1.105057e+3, 2.0402941e+2, -829674.5, -1027828.3, -10857.009, -0.013225331, -0.10096126, -829081.44, 111423.27, 0.0, 10.001323, 9.998694 
1.1050612e+3, 2.140287e+2, -788137.9, -951056.7, -21798.258, -0.010342685, -0.04783786, -785271.75, 57239.51, 0.0, 10.000909, 9.998748 
1.1050652e+3, 2.240274e+2, -768958.1, -925118.4, -17128.188, -0.011636981, -0.039047882, -767101.5, -22577.45, 0.0, 10.000515, 9.998443 
1.1050694e+3, 2.340252e+2, -724568.0, -853585.4, -2330.8674, -0.019621246, -0.10454526, -724525.9, -77979.86, 0.0, 10.000149, 9.998437 
1.1050736e+3, 2.4402373e+2, -640709.25, -718255.1, -356.8141, -0.021321494, -0.11178714, -640707.6, -92146.555, 0.0, 9.999863, 9.998832 
1.10507786e+3, 2.540233e+2, -559995.44, -619898.75, -22065.123, -0.01400118, -0.045299664, -552745.3, -102179.28, 0.0, 9.999705, 9.998909 
1.1050822e+3, 2.6402253e+2, -493459.75, -528338.25, -32206.666, -0.016772844, -0.018246775, -474273.9, -121699.65, 0.0, 9.999454, 9.998985 
1.1050862e+3, 2.740212e+2, -452537.44, -452800.84, -27295.43, -0.035520036, -0.0530496, -425373.4, -170786.67, 0.0, 9.99904, 9.999029 
1.1050906e+3, 2.8402036e+2, -405695.94, -331042.22, -11750.075, -0.042918358, -0.061960436, -329236.5, -172641.45, 0.0, 9.99848, 9.999464 
1.1050952e+3, 2.9402003e+2, -409630.97, -272827.63, -16332.299, -0.03081931, -0.05033375, -270904.8, -212306.83, 0.0, 9.997739, 9.999547 
1.10509984e+3, 3.0401954e+2, -366462.84, -111840.805, -12526.766, -0.044572167, -0.10322121, -111226.01, -111226.01, 0.0, 9.997204, 10.000577 
1.105104e+3, 3.140209e+2, -390834.03, -99469.28, -18099.906, -0.099623255, -0.031638075, -98349.2, -98349.2, 0.0, 9.996931, 10.0007925 
1.115032e+3, 1.2403971e+2, -1241515.6, -1703991.9, 29946.203, -0.005825936, -0.0427259, -1239584.6, 484824.75, 0.0009268261, 10.004199, 9.998047 
1.1150339e+3, 1.3403828e+2, -1211827.0, -1608253.6, -86852.4, 0.0033796958, -0.019301662, -1193633.6, 432788.97, 0.0004473056, 10.003581, 9.998337 
1.1150371e+3, 1.4403677e+2, -1197401.6, -1590823.1, -16004.201, 0.05345815, 0.0150526315, -1196751.8, 331684.8, 0.00012295434, 10.003186, 9.997968 
1.11504026e+3, 1.5403424e+2, -1121702.8, -1506597.6, -27156.06, 0.0019574799, -0.034777075, -1119796.3, 310664.25, 0.000008505592, 10.003048, 9.997939 
1.1150437e+3, 1.6403195e+2, -1049599.0, -1399632.3, -32223.666, -0.01618621, -0.0659446, -1046657.2, 285825.03, 0.0000000033697685, 10.002778, 9.99813 
1.1150477e+3, 1.7403008e+2, -1010373.6, -1323825.9, -28206.78, 0.021741817, -0.07290675, -1007855.56, 226644.5, 0.0, 10.002347, 9.998185 
1.11505136e+3, 1.8402842e+2, -949697.7, -1215273.5, -26940.041, 0.02257307, -0.06850081, -946992.44, 189523.25, 0.0, 10.0019655, 9.998443 
1.11505456e+3, 1.9402704e+2, -891146.25, -1130294.0, -23401.205, -0.031597983, -0.05797083, -888877.94, 149650.45, 0.0, 10.001669, 9.998496 
1.115058e+3, 2.0402548e+2, -848382.44, -1066755.3, -27508.271, -0.04446006, -0.058762025, -844970.5, 95572.61, 0.0, 10.001323, 9.998427 
1.11506216e+3, 2.1402368e+2, -809410.4, -994789.3, -37976.453, 0.004167527, -0.08581942, -801932.25, 40628.777, 0.0, 10.000907, 9.998449 
1.115066e+3, 2.2402228e+2, -746509.56, -878307.75, -32083.064, 0.01619377, -0.08464766, -739114.6, 5460.2017, 0.0, 10.000513, 9.998766 
1.1150695e+3, 2.3402147e+2, -697236.9, -796823.56, -16114.705, -0.025109174, -0.049954638, -694694.2, -48111.74, 0.0, 10.000149, 9.998828 
1.1150733e+3, 2.4402022e+2, -672820.1, -784813.25, -7526.838, -0.04872757, -0.036665116, -672316.5, -123721.17, 0.0, 9.999861, 9.998376 
1.1150773e+3, 2.540183e+2, -599213.94, -700727.06, -26992.988, -0.046881564, -0.066091724, -592482.7, -141866.61, 0.0, 9.999703, 9.998356 
1.1150814e+3, 2.6401687e+2, -487870.1, -516158.7, -46059.48, -0.037570257, -0.07449706, -453832.06, -101201.36, 0.0, 9.999451, 9.999071 
1.1150855e+3, 2.7401626e+2, -442940.63, -430588.22, -41481.496, -0.016570285, -0.05594245, -394825.66, -140189.84, 0.0, 9.99903, 9.999187 
1.1150892e+3, 2.8401572e+2, -413032.34, -344067.06, -38387.105, -0.022742506, -0.035387665, -326949.13, -170308.55, 0.0, 9.998469, 9.999379 
1.1150926e+3, 2.940152e+2, -416888.56, -288839.5, -41785.94, -0.07113826, -0.03476447, -276410.06, -217764.0, 0.0, 9.997741, 9.999436 
1.1150966e+3, 3.040144e+2, -367576.34, -114824.695, -22817.65, -0.09073355, -0.11005773, -112781.305, -112781.305, 0.0, 9.997207, 10.000555 
1.11510135e+3, 3.1401598e+2, -388693.38, -91804.664, -25370.469, -0.06403772, -0.017012404, -89652.24, -89652.24, 0.0, 9.996917, 10.000853 
1.1250361e+3, 1.24036e+2, -1281139.0, -1729530.8, 71003.695, 0.006189477, -0.025379643, -1270164.0, 454282.3, 0.0010458218, 10.003956, 9.997989 
1.12503745e+3, 1.3403432e+2, -1183108.0, -1598054.5, -82293.78, -0.011140164, -0.02379129, -1167383.0, 459078.75, 0.0005132914, 10.003796, 9.998304 
1.12504065e+3, 1.4403272e+2, -1142524.5, -1568494.4, -14280.441, 0.06461146, 0.0042031915, -1142046.3, 386430.28, 0.00014641856, 10.003583, 9.99793 
1.1250435e+3, 1.5403032e+2, -1098099.1, -1500482.3, -9313.717, 0.009268361, -0.027631087, -1097883.6, 332615.66, 0.00001150662, 10.003232, 9.997893 
1.1250465e+3, 1.6402803e+2, -1038911.8, -1395280.8, -10767.814, -0.013616163, -0.054530196, -1038586.75, 293934.2, 0.0000000061074554, 10.002854, 9.998124 
1.12505004e+3, 1.74026e+2, -995407.6, -1316788.9, -14211.486, 0.016076785, -0.07725979, -994780.44, 239759.6, 0.0, 10.002452, 9.998183 
1.1250533e+3, 1.840243e+2, -936458.25, -1210435.9, -15026.03, 0.0145162605, -0.075169176, -935636.6, 200919.23, 0.0, 10.002064, 9.998428 
1.12505615e+3, 1.9402309e+2, -887386.3, -1130316.8, -18304.002, -0.03479825, -0.048001274, -886014.9, 152552.42, 0.0, 10.001703, 9.99848 
1.12505935e+3, 2.0402151e+2, -849121.8, -1070767.9, -19002.32, -0.04468234, -0.047322728, -847504.5, 93077.74, 0.0, 10.001334, 9.998394 
1.1250631e+3, 2.1401948e+2, -803922.6, -996031.5, -10780.108, 0.0027717391, -0.094698496, -803319.6, 39282.73, 0.0, 10.000961, 9.998414 
1.1250665e+3, 2.2401802e+2, -731093.0, -876047.4, -2611.998, 0.012333911, -0.0954113, -731045.94, 13570.81, 0.0, 10.000642, 9.998719 
1.1250697e+3, 2.3401742e+2, -663562.1, -785690.06, -20459.035, -0.033747073, -0.03464084, -660225.94, -13603.257, 0.0, 10.000403, 9.998781 
1.1250731e+3, 2.4401623e+2, -647143.6, -774183.7, -16544.002, -0.056110844, -0.011396, -645024.5, -96389.44, 0.0, 10.000047, 9.998359 
1.1250769e+3, 2.5401416e+2, -628663.94, -716228.9, 2733.1516, -0.044511244, -0.05491512, -628578.75, -177921.61, 0.0, 9.999508, 9.9983425 
1.12508066e+3, 2.6401263e+2, -546623.4, -537321.7, 3220.6023, -0.035591155, -0.07521399, -536315.44, -183642.94, 0.0, 9.999019, 9.999133 
1.1250841e+3, 2.7401203e+2, -498657.66, -450236.03, 3.3907614, -0.029815372, -0.0640358, -450236.03, -195558.52, 0.0, 9.998616, 9.999251 
1.1250874e+3, 2.840116e+2, -450816.0, -369476.78, -3635.491, -0.036126874, -0.03441512, -369314.63, -212633.14, 0.0, 9.99824, 9.999315 
1.1250906e+3, 2.940113e+2, -401163.7, -290157.8, -7560.4883, -0.06140201, -0.0014404588, -289645.25, -230959.9, 0.0, 9.9978895, 9.999355 
1.125094e+3, 3.040103e+2, -350937.9, -109167.75, 12041.256, -0.076973096, -0.08943867, -108569.52, -108569.52, 0.0, 9.997333, 10.000533 
1.1250979e+3, 3.1401163e+2, -446331.8, -110002.91, 8456.68, -0.071208835, -0.02351285, -109790.4, -109790.4, 0.0, 9.996482, 10.000937 
1.13504075e+3, 1.2403336e+2, -1310011.8, -1788148.3, 68121.0, 0.06319501, 0.033270236, -1300495.9, 423975.75, 0.0011765843, 10.003952, 9.997587 
1.13504075e+3, 1.3403043e+2, -1211929.6, -1657935.1, -87223.52, -0.05544528, -0.049081452, -1195478.5, 431021.7, 0.0005865674, 10.003795, 9.997894 
1.1350438e+3, 1.4402838e+2, -1133331.4, -1548898.3, -26649.19, 0.03000331, -0.049187005, -1131629.4, 396890.06, 0.00017311395, 10.00358, 9.998066 
1.13504685e+3, 1.5402664e+2, -1084602.3, -1472688.0, -22268.365, 0.032978594, -0.034011383, -1083328.6, 347206.66, 0.000015247707, 10.003233, 9.998084 
1.1350497e+3, 1.6402476e+2, -1042924.94, -1403730.0, -26993.744, 0.014892486, -0.029892342, -1040916.56, 291636.38, 0.000000009421829, 10.002853, 9.998066 
1.13505214e+3, 1.7402264e+2, -1001137.75, -1329123.1, -29572.887, -0.022299036, -0.052030094, -998492.6, 236080.67, 0.0, 10.002453, 9.998098 
1.1350549e+3, 1.8402074e+2, -943300.4, -1224904.4, -30105.809, -0.03739097, -0.0626596, -940117.8, 196473.86, 0.0, 10.002064, 9.998329 
1.13505796e+3, 1.9401912e+2, -894429.3, -1144609.5, -32431.629, -0.023489993, -0.06454922, -890293.44, 148313.53, 0.0, 10.001701, 9.9983835 
1.1350609e+3, 2.0401758e+2, -835861.5, -1042712.4, -34239.95, -0.016154835, -0.06565296, -830341.06, 110280.37, 0.0, 10.00133, 9.998589 
1.13506384e+3, 2.1401614e+2, -788127.44, -963586.0, -25158.299, -0.016932, -0.07462021, -784591.4, 58043.35, 0.0, 10.000962, 9.998636 
1.13506675e+3, 2.2401465e+2, -760167.1, -936473.44, -13374.94, -0.025772303, -0.07135642, -759158.25, -14508.797, 0.0, 10.000642, 9.998304 
1.13506995e+3, 2.340131e+2, -697942.9, -856403.94, -29334.506, -0.046554357, -0.05788953, -692686.75, -46020.57, 0.0, 10.0004, 9.998298 
1.1350732e+3, 2.4401182e+2, -618807.5, -714420.9, -35813.285, -0.04538836, -0.035784543, -606880.8, -58201.05, 0.0, 10.000042, 9.998772 
1.1350768e+3, 2.5401092e+2, -593591.7, -641763.4, -16823.97, -0.0110888975, -0.012841542, -588297.75, -137608.7, 0.0, 9.9995, 9.9988575 
1.13507986e+3, 2.6400983e+2, -544694.9, -531811.56, -12097.914, -0.01494341, -0.020696862, -524547.2, -171847.63, 0.0, 9.999011, 9.999175 
1.13508224e+3, 2.7400854e+2, -499280.84, -451925.97, -13207.482, -0.07670201, -0.07610786, -448491.44, -193780.0, 0.0, 9.998617, 9.99924 
1.1350852e+3, 2.8400797e+2, -455920.6, -380250.44, -16347.729, -0.084245235, -0.057552945, -376869.75, -220152.33, 0.0, 9.998241, 9.999242 
1.135089e+3, 2.9400828e+2, -408531.56, -302755.44, -19076.68, -0.008611762, 0.046253487, -299420.13, -240704.05, 0.0, 9.997877, 9.999275 
1.1350919e+3, 3.0400723e+2, -353067.84, -109852.77, -17737.941, -0.011227868, -0.044631936, -108565.94, -108565.94, 0.0, 9.997315, 10.000537 
1.1350939e+3, 3.140079e+2, -435215.38, -88338.266, -19734.053, -0.1261754, -0.0426401, -87219.195, -87219.195, 0.0, 9.996486, 10.001084 
1.145045e+3, 1.2403006e+2, -1271392.8, -1781397.8, 62283.707, 0.08315229, 0.029089835, -1263896.6, 460607.2, 0.0013188609, 10.00427, 9.99748 
1.1450444e+3, 1.3402714e+2, -1189413.0, -1657046.3, -72187.93, -0.07318766, -0.041568574, -1178523.0, 448009.72, 0.0006668325, 10.00399, 9.9978075 
1.1450476e+3, 1.4402509e+2, -1123044.5, -1542632.8, -8261.956, 0.03800416, -0.039881628, -1122881.9, 405670.56, 0.00020295089, 10.003645, 9.998078 
1.1450501e+3, 1.5402329e+2, -1096650.1, -1475753.1, -18693.672, 0.024546925, -0.03376565, -1095730.5, 334838.34, 0.000019742625, 10.0031395, 9.998108 
1.1450524e+3, 1.6402142e+2, -1058047.4, -1407603.3, -22297.47, 0.0015391011, -0.028599825, -1056630.8, 275955.38, 0.000000013934886, 10.002735, 9.998097 
1.14505455e+3, 1.740195e+2, -994182.1, -1322808.5, -17044.008, -0.027854988, -0.035233356, -993300.5, 241304.2, 0.0, 10.002486, 9.998127 
1.145057e+3, 1.8401761e+2, -932592.2, -1219914.0, -11918.04, -0.036530763, -0.04602423, -932098.6, 204524.19, 0.0, 10.002139, 9.998327 
1.1450597e+3, 1.9401574e+2, -899782.6, -1147728.1, -8566.53, -0.01883546, -0.07072796, -899487.0, 139153.27, 0.0, 10.001667, 9.998378 
1.1450622e+3, 2.0401418e+2, -835893.94, -1041543.7, -6638.4927, -0.015179132, -0.074885435, -835679.9, 104975.13, 0.0, 10.001327, 9.998598 
1.1450648e+3, 2.1401301e+2, -756682.75, -946854.4, -13960.427, -0.031704746, -0.05745682, -755663.4, 87002.29, 0.0, 10.001173, 9.998649 
1.1450674e+3, 2.2401154e+2, -734526.8, -926430.25, -3185.588, -0.03925926, -0.05285777, -734473.94, 10206.3, 0.0, 10.00083, 9.998282 
1.14507034e+3, 2.340096e+2, -727888.9, -873758.7, 13473.641, -0.03520624, -0.07590285, -726654.75, -79954.4, 0.0, 10.000208, 9.998271 
1.14507325e+3, 2.4400824e+2, -662486.56, -717955.25, 15965.071, -0.028917532, -0.067199096, -658219.7, -109505.305, 0.0, 9.999668, 9.998927 
1.1450761e+3, 2.5400773e+2, -617291.44, -633999.94, 8138.2407, -0.018368192, -0.022508452, -613982.75, -163263.3, 0.0, 9.999255, 9.999029 
1.1450788e+3, 2.6400685e+2, -564514.44, -539324.75, 1554.2521, -0.026168473, -0.017915504, -539229.2, -186501.39, 0.0, 9.998865, 9.999194 
1.1450809e+3, 2.7400556e+2, -515580.4, -459140.16, 742.7841, -0.06314281, -0.0751968, -459130.38, -204389.9, 0.0, 9.998505, 9.999245 
1.1450835e+3, 2.8400505e+2, -471915.28, -376117.0, 2681.434, -0.06836611, -0.05575275, -376042.0, -219295.88, 0.0, 9.998082, 9.999345 
1.1450865e+3, 2.940055e+2, -446836.3, -309120.97, 13553.03, -0.022619843, 0.051451173, -307799.84, -249056.77, 0.0, 9.997562, 9.999383 
1.145089e+3, 3.040044e+2, -390576.28, -127928.14, 16504.324, -0.028528323, -0.05088475, -126895.11, -126895.11, 0.0, 9.997059, 10.000536 
1.1450907e+3, 3.140052e+2, -410619.13, -59839.38, 6515.361, -0.1025674, -0.037827782, -59718.406, -59718.406, 0.0, 9.996588, 10.001229 
1.15504906e+3, 1.2402617e+2, -1261105.3, -1756384.6, 49950.99, 0.059976663, -0.037120517, -1256117.8, 468424.47, 0.0014716862, 10.004256, 9.997659 
1.1550486e+3, 1.3402452e+2, -1173853.3, -1624851.4, -81373.21, -0.06701715, -0.0030331414, -1159620.3, 466938.66, 0.0007534981, 10.003991, 9.998029 
1.1550517e+3, 1.4402285e+2, -1129419.6, -1556804.0, -26984.914, 0.085870564, 0.03037708, -1127722.5, 400852.7, 0.00023578793, 10.003648, 9.99798 
1.1550527e+3, 1.540203e+2, -1105782.8, -1495131.1, -37555.7, -0.018564513, -0.025905209, -1102193.4, 328406.06, 0.000024990082, 10.0031395, 9.997975 
1.1550544e+3, 1.6401812e+2, -1050252.0, -1391140.3, -33551.28, -0.057452466, -0.04932574, -1046981.2, 285638.47, 0.000000023716384, 10.002734, 9.998211 
1.15505725e+3, 1.7401662e+2, -984810.4, -1302798.8, -26633.486, -0.0029800106, -0.02681515, -982595.06, 252038.38, 0.0, 10.002484, 9.998265 
1.15505956e+3, 1.8401498e+2, -926575.94, -1207221.4, -30080.86, 0.013349967, -0.025538648, -923387.94, 213260.84, 0.0, 10.002137, 9.998416 
1.1550613e+3, 1.9401303e+2, -893660.94, -1135830.0, -26735.58, -0.023163756, -0.06697794, -890744.44, 147922.31, 0.0, 10.00167, 9.998459 
1.15506336e+3, 2.0401138e+2, -848318.7, -1067460.6, -14964.485, -0.044290982, -0.0753266, -847301.5, 93380.89, 0.0, 10.001327, 9.998421 
1.1550658e+3, 2.1401016e+2, -771697.06, -976882.2, -20303.814, -0.042388726, -0.04336319, -769707.25, 72987.51, 0.0, 10.001167, 9.998446 
1.15506835e+3, 2.2400872e+2, -710171.5, -873944.44, -26031.666, -0.03002159, -0.040363066, -706133.4, 38575.32, 0.0, 10.000821, 9.998647 
1.1550709e+3, 2.3400696e+2, -698497.56, -812055.1, -9982.235, -0.0026587548, -0.08843467, -697626.75, -50901.83, 0.0, 10.000204, 9.998696 
1.1550731e+3, 2.4400555e+2, -670093.75, -733280.4, -603.1906, -0.009983279, -0.10423349, -670087.94, -121349.555, 0.0, 9.999665, 9.998823 
1.1550748e+3, 2.5400463e+2, -628660.25, -657869.5, -6631.146, -0.06749233, -0.08239414, -627225.4, -176477.4, 0.0, 9.999255, 9.998866 
1.15507714e+3, 2.6400378e+2, -565717.9, -541869.6, -12033.209, -0.07046171, -0.0668354, -536853.2, -184096.19, 0.0, 9.998865, 9.999177 
1.1550802e+3, 2.740031e+2, -516689.0, -459455.22, -11951.394, 0.0060164696, -0.06307154, -457059.8, -202295.19, 0.0, 9.998495, 9.999247 
1.1550824e+3, 2.8400284e+2, -451855.6, -331636.56, -15560.431, 0.006199943, -0.029885361, -329655.2, -172887.72, 0.0, 9.998069, 9.999658 
1.15508325e+3, 2.9400304e+2, -422820.44, -259661.1, -3148.4355, -0.10694764, 0.016010271, -259600.38, -200834.73, 0.0, 9.997562, 9.999723 
1.155085e+3, 3.040019e+2, -396110.06, -139884.47, -878.88403, -0.13064893, -0.10643904, -139881.45, -139881.45, 0.0, 9.997061, 10.000454 
1.1550882e+3, 3.1400344e+2, -406919.78, -51190.105, -9505.058, -0.008439596, -0.0054156515, -50936.313, -50936.313, 0.0, 9.996582, 10.001292 
1.16505325e+3, 1.240233e+2, -1269515.3, -1751767.3, 65764.05, 0.054805636, -0.038332053, -1260707.9, 463863.44, 0.0016344462, 10.004164, 9.997734 
1.1650523e+3, 1.3402186e+2, -1189528.3, -1618649.8, -69085.41, -0.0846343, 0.006202864, -1178680.3, 447905.3, 0.0008463437, 10.003823, 9.998153 
1.16505556e+3, 1.4402029e+2, -1147811.0, -1567379.3, -17631.918, 0.107938446, 0.041885685, -1147071.4, 381529.53, 0.0002716118, 10.003529, 9.997966 
1.1650559e+3, 1.5401772e+2, -1093332.9, -1492466.6, -23095.154, -0.023015708, -0.012989756, -1092001.0, 338624.66, 0.000031011183, 10.003239, 9.997946 
1.1650571e+3, 1.6401553e+2, -1020492.7, -1366527.5, -12039.083, -0.06963635, -0.040421844, -1020074.4, 312571.63, 0.00000004774233, 10.002894, 9.998302 
1.1650598e+3, 1.7401402e+2, -975424.6, -1286555.5, -8243.98, -0.0009779313, -0.030162893, -975206.3, 259452.97, 0.0, 10.002499, 9.998369 
1.16506174e+3, 1.8401238e+2, -928179.06, -1209522.4, -17593.252, 0.019857785, -0.03066671, -927083.2, 209590.86, 0.0, 10.002132, 9.998403 
1.165063e+3, 1.9401057e+2, -873932.4, -1128853.8, -23136.742, -0.026711848, -0.057661667, -871849.5, 166841.7, 0.0, 10.001817, 9.998435 
1.1650647e+3, 2.0400897e+2, -838203.6, -1060211.4, -7675.112, -0.048152763, -0.06096861, -837938.6, 102768.164, 0.0, 10.001387, 9.998441 
1.1650669e+3, 2.1400769e+2, -823250.44, -999229.7, 3344.1296, -0.03332093, -0.038794383, -823186.94, 19533.145, 0.0, 10.000802, 9.998468 
1.165069e+3, 2.2400631e+2, -765316.4, -876064.2, -237.28906, -0.01977884, -0.040345505, -765315.9, -20582.764, 0.0, 10.000337, 9.998865 
1.1650709e+3, 2.3400483e+2, -705199.94, -788389.8, -32.729675, -0.008309785, -0.08374616, -705199.94, -58454.293, 0.0, 10.000043, 9.998936 
1.1650726e+3, 2.4400353e+2, -663014.7, -728382.4, 7492.2295, -0.020652916, -0.1010584, -662166.94, -113409.5, 0.0, 9.999708, 9.9988365 
1.1650741e+3, 2.540025e+2, -621184.56, -655312.9, 12403.466, -0.06900732, -0.091670595, -617152.94, -166384.47, 0.0, 9.999313, 9.998855 
1.16507605e+3, 2.6400158e+2, -566298.44, -538613.7, 12707.474, -0.067313924, -0.08242466, -533665.4, -180887.28, 0.0, 9.998848, 9.999207 
1.1650786e+3, 2.7400097e+2, -547758.8, -471634.88, 13973.262, 0.009408857, -0.07346447, -469151.0, -214366.2, 0.0, 9.998269, 9.999273 
1.1650803e+3, 2.8400078e+2, -488987.63, -334285.16, 6306.6465, 0.007988631, -0.04109367, -334028.47, -177241.75, 0.0, 9.997747, 9.999795 
1.1650807e+3, 2.9400104e+2, -447343.56, -254982.61, 1415.9164, -0.10990176, -0.0078754965, -254972.19, -196187.92, 0.0, 9.997325, 9.999869 
1.1650819e+3, 3.039998e+2, -423428.47, -172243.42, -4075.3657, -0.1369594, -0.13432035, -172177.33, -172177.33, 0.0, 9.996957, 10.000281 
1.1650847e+3, 3.140015e+2, -401960.7, -49838.266, -16654.184, -0.009539429, -0.002654457, -49052.332, -49052.332, 0.0, 9.996619, 10.0012865 
1.1750575e+3, 1.2402154e+2, -1270728.0, -1754875.4, 42680.6, 0.064667046, 0.027573025, -1266994.3, 457596.34, 0.0018077669, 10.004167, 9.997711 
1.17505565e+3, 1.3401929e+2, -1187417.6, -1614390.6, -80507.375, -0.12991789, -0.012536494, -1172742.1, 453869.56, 0.0009458145, 10.003822, 9.998183 
1.1750589e+3, 1.440175e+2, -1143868.8, -1558124.6, -29224.746, 0.09953605, -0.0033443104, -1141817.3, 386811.4, 0.00031060004, 10.003524, 9.998031 
1.17505945e+3, 1.5401562e+2, -1088812.6, -1482538.6, -34033.563, 0.008103657, 0.0044217845, -1085892.5, 344754.5, 0.000037854974, 10.003237, 9.998014 
1.1750604e+3, 1.640137e+2, -1015377.75, -1356664.8, -27614.883, -0.03900419, -0.0039044362, -1013157.75, 319507.0, 0.00000010132158, 10.002896, 9.99837 
1.1750621e+3, 1.7401174e+2, -970412.0, -1276597.3, -23231.51, -0.023242373, -0.045143787, -968659.4, 266022.22, 0.0, 10.002499, 9.998439 
1.1750636e+3, 1.8400995e+2, -936359.3, -1225875.0, -30992.855, -0.019240301, -0.059717495, -933078.7, 203619.17, 0.0, 10.00213, 9.998291 
1.1750648e+3, 1.9400845e+2, -883976.56, -1148507.8, -35332.27, -0.030629946, -0.042535987, -879338.7, 159374.33, 0.0, 10.001811, 9.998303 
1.1750663e+3, 2.04007e+2, -823883.44, -1029551.2, -29745.414, -0.029243037, -0.032399755, -819667.8, 121059.72, 0.0, 10.001382, 9.998653 
1.175068e+3, 2.1400562e+2, -805831.94, -963069.94, -18937.566, -0.007900386, -0.044192307, -803583.25, 39157.914, 0.0, 10.000801, 9.998718 
1.1750694e+3, 2.2400434e+2, -761238.1, -867196.3, -13398.296, -0.012226067, -0.05244044, -759570.2, -14817.126, 0.0, 10.000335, 9.998927 
1.17507055e+3, 2.3400323e+2, -702237.1, -781997.44, -11214.681, -0.052396525, -0.06261781, -700690.3, -53928.152, 0.0, 10.000041, 9.9989805 
1.17507204e+3, 2.4400224e+2, -654537.1, -709983.7, -7762.0493, -0.061538048, -0.05975119, -653471.0, -104699.766, 0.0, 9.999704, 9.998964 
1.1750738e+3, 2.5400132e+2, -612378.94, -635565.8, -1989.0591, -0.02622247, -0.051930632, -612209.56, -161428.75, 0.0, 9.999307, 9.998994 
1.1750753e+3, 2.640003e+2, -561163.0, -526825.0, -7843.039, -0.02011815, -0.06468013, -525118.4, -172327.61, 0.0, 9.998841, 9.999291 
1.17507614e+3, 2.7399927e+2, -542442.7, -460547.5, -6018.4565, -0.057046827, -0.10592909, -460107.56, -205307.11, 0.0, 9.998268, 9.999351 
1.17507726e+3, 2.8399894e+2, -495033.28, -347105.8, -9836.158, -0.06659078, -0.08956537, -346454.66, -189651.14, 0.0, 9.997748, 9.999707 
1.17507875e+3, 2.9399943e+2, -455096.7, -269837.0, -13613.265, -0.03591597, -0.020915136, -268842.03, -210042.86, 0.0, 9.997319, 9.99977 
1.1750797e+3, 3.0399817e+2, -437249.75, -199316.81, -15975.784, -0.051716056, -0.13541254, -198248.92, -198248.92, 0.0, 9.996948, 10.0001 
1.1750803e+3, 3.1399947e+2, -400745.5, -46571.324, -24547.525, -0.11450692, -0.024548166, -44878.05, -44878.05, 0.0, 9.996615, 10.00131 
1.18506186e+3, 1.2401976e+2, -1255413.1, -1742767.0, 47090.777, 0.082107626, 0.061207224, -1250904.6, 473705.34, 0.0019935807, 10.004254, 9.997751 
1.1850593e+3, 1.3401742e+2, -1153782.1, -1587135.9, -60866.383, -0.15651664, 0.0024811868, -1145395.5, 481235.66, 0.0010529212, 10.004007, 9.9982815 
1.1850625e+3, 1.4401557e+2, -1119236.0, -1542578.3, -10090.145, 0.09951732, -0.0016857708, -1118995.6, 409652.66, 0.00035315793, 10.003679, 9.998062 
1.18506275e+3, 1.5401375e+2, -1091741.1, -1480935.4, -19818.37, 0.011780758, 0.011579664, -1090734.5, 339931.53, 0.000045623692, 10.003204, 9.99804 
1.1850632e+3, 1.640119e+2, -1030266.94, -1356810.0, -14526.058, -0.033926748, 0.005706546, -1029622.0, 303061.2, 0.00000019883093, 10.002764, 9.998433 
1.18506454e+3, 1.7401001e+2, -982429.5, -1274319.9, -11032.965, -0.023738114, -0.036898565, -982013.06, 252686.2, 0.0, 10.002382, 9.998509 
1.1850656e+3, 1.8400826e+2, -952982.56, -1222559.4, -10905.545, -0.021149402, -0.056116633, -952542.1, 184172.77, 0.0, 10.001967, 9.998392 
1.18506655e+3, 1.9400676e+2, -919947.44, -1154334.0, 1091.35, -0.028464558, -0.049144186, -919942.3, 118787.484, 0.0, 10.001514, 9.998406 
1.1850675e+3, 2.0400542e+2, -859253.44, -1037811.75, 9969.437, -0.024165802, -0.0382843, -858698.56, 82044.79, 0.0, 10.001101, 9.9987335 
1.18506886e+3, 2.140043e+2, -808411.8, -954703.6, 7101.8984, -0.00318651, -0.032090284, -808067.8, 34686.93, 0.0, 10.000744, 9.998801 
1.1850698e+3, 2.240031e+2, -755927.4, -864394.25, 8568.974, -0.010185574, -0.034416523, -755254.56, -10488.705, 0.0, 10.000371, 9.998929 
1.1850706e+3, 2.3400187e+2, -712801.0, -787870.0, 6583.0503, -0.057711292, -0.057387356, -712228.1, -65451.66, 0.0, 9.999972, 9.998974 
1.18507154e+3, 2.4400091e+2, -676667.56, -710320.06, 2562.2146, -0.06453889, -0.05349733, -676473.6, -127688.43, 0.0, 9.999508, 9.999057 
1.1850731e+3, 2.5400034e+2, -657596.9, -646269.2, 3544.669, -0.01131678, -0.023431199, -645251.44, -194459.72, 0.0, 9.998948, 9.999093 
1.1850742e+3, 2.6399943e+2, -598226.7, -532404.3, 259.69153, -0.006126193, -0.036714684, -532403.25, -179602.77, 0.0, 9.998535, 9.999401 
1.1850744e+3, 2.7399814e+2, -522540.97, -438215.47, 3022.7979, -0.07314594, -0.11415229, -438107.25, -183295.27, 0.0, 9.998352, 9.999462 
1.185075e+3, 2.8399777e+2, -453009.0, -325704.63, 1235.886, -0.08830786, -0.10652851, -325692.63, -168877.69, 0.0, 9.9980345, 9.999715 
1.1850763e+3, 2.939986e+2, -430060.03, -258921.36, 4937.802, -0.025096474, -0.0039881025, -258779.0, -199971.4, 0.0, 9.997496, 9.999761 
1.1850769e+3, 3.039974e+2, -443873.3, -205450.44, 12318.451, -0.034345124, -0.10925913, -204815.67, -204815.67, 0.0, 9.996917, 10.0000725 
1.18507676e+3, 3.1399822e+2, -432323.2, -39852.22, 10073.894, -0.12244088, -0.04529425, -39593.813, -39593.813, 0.0, 9.9963045, 10.001505 
1.1950663e+3, 1.2401805e+2, -1249966.8, -1729610.9, 22949.996, 0.09840981, 0.06359046, -1248871.1, 475757.72, 0.0021943478, 10.004248, 9.997845 
1.1950632e+3, 1.340163e+2, -1142937.3, -1565067.5, -68844.45, -0.167041, 0.050605103, -1131993.3, 494650.1, 0.0011688805, 10.004008, 9.998433 
1.1950663e+3, 1.4401452e+2, -1118215.6, -1541848.9, -27927.184, 0.105509065, 0.045291405, -1116382.5, 412276.78, 0.00039983098, 10.003684, 9.998065 
1.1950657e+3, 1.5401222e+2, -1092657.6, -1483359.1, -37686.01, -0.013658364, 0.009065201, -1089055.8, 341626.5, 0.00005450218, 10.003205, 9.998024 
1.1950658e+3, 1.6401026e+2, -1026603.4, -1348858.1, -30101.246, -0.057671703, -0.009263599, -1023815.8, 308884.78, 0.00000035173326, 10.002762, 9.998488 
1.1950672e+3, 1.7400888e+2, -978078.3, -1264952.1, -25473.652, -0.0049103205, -0.005975048, -975833.9, 258877.84, 0.0, 10.00238, 9.998575 
1.19506784e+3, 1.8400735e+2, -931685.56, -1178606.9, -28706.688, 0.0101184705, -0.022361442, -928392.06, 208332.77, 0.0, 10.001967, 9.998693 
1.1950681e+3, 1.9400553e+2, -896722.9, -1106695.0, -16570.637, -0.022843268, -0.0782264, -895423.2, 143318.03, 0.0, 10.001515, 9.9987335 
1.1950685e+3, 2.0400426e+2, -863014.2, -1045073.2, -5231.741, -0.035668056, -0.07695081, -862864.0, 77889.695, 0.0, 10.001098, 9.998685 
1.1950693e+3, 2.1400373e+2, -815017.7, -968147.6, -6956.4937, -0.019318698, -0.0025552313, -814702.3, 28058.111, 0.0, 10.000742, 9.998711 
1.1950702e+3, 2.2400266e+2, -760084.56, -872391.75, -7484.445, -0.014846938, 0.01257203, -759587.94, -14816.74, 0.0, 10.000368, 9.998876 
1.1950708e+3, 2.3400079e+2, -716689.7, -795610.0, -8378.521, -0.027175251, -0.06801813, -715810.0, -69021.984, 0.0, 9.9999695, 9.998922 
1.1950714e+3, 2.4399965e+2, -673879.25, -703945.75, -18269.967, -0.03301544, -0.08108816, -665252.6, -116453.88, 0.0, 9.999505, 9.999103 
1.1950719e+3, 2.5399956e+2, -654019.56, -637951.0, -16871.527, -0.027903441, -0.00605509, -627298.44, -176497.72, 0.0, 9.998943, 9.999153 
1.1950725e+3, 2.6399893e+2, -591157.3, -517194.2, -7917.5264, -0.028475136, 0.00017674602, -516356.13, -163549.13, 0.0, 9.998531, 9.999508 
1.195073e+3, 2.7399755e+2, -515312.5, -421963.88, -2927.9312, -0.04035245, -0.097813286, -421872.16, -167052.97, 0.0, 9.998346, 9.999577 
1.1950733e+3, 2.8399733e+2, -443280.94, -304800.94, -17013.832, -0.0589954, -0.091542736, -302741.25, -145920.4, 0.0, 9.99803, 9.999862 
1.1950731e+3, 2.9399857e+2, -421664.94, -239467.81, -12694.6455, -0.08618644, 0.040209584, -238587.55, -179778.44, 0.0, 9.997486, 9.999899 
1.1950733e+3, 3.0399755e+2, -442931.13, -202366.33, -9772.215, -0.09328081, -0.058045585, -201970.0, -201970.0, 0.0, 9.996911, 10.000097 
1.1950739e+3, 3.1399778e+2, -415576.13, -4070.0515, -10609.688, -0.03707207, -0.054175716, -3796.688, -3796.688, 0.0, 9.996301, 10.001753 
1.2050707e+3, 1.24017075e+2, -1230422.5, -1732058.5, 55564.934, 0.1061385, 0.064625785, -1224341.4, 500297.6, 0.0024121641, 10.004436, 9.997736 
1.2050671e+3, 1.3401534e+2, -1135339.6, -1569967.0, -38233.773, -0.17359434, 0.06023107, -1132001.9, 494651.88, 0.0012948642, 10.004097, 9.998357 
1.2050702e+3, 1.4401348e+2, -1120027.5, -1543656.4, -14196.714, 0.12683153, 0.051087927, -1119552.3, 409118.63, 0.00045114974, 10.003675, 9.998056 
1.2050688e+3, 1.5401126e+2, -1104406.3, -1488627.0, -25134.338, -0.0055641555, 0.024960248, -1102769.0, 327924.13, 0.00006471426, 10.003125, 9.998026 
1.20506845e+3, 1.6400942e+2, -1033307.8, -1337730.6, -8188.9653, -0.05523441, 0.01144011, -1033087.7, 299622.75, 0.00000057087306, 10.002655, 9.998615 
1.2050694e+3, 1.7400813e+2, -976563.25, -1249066.9, 1407.4181, -0.004085658, 0.011258176, -976556.0, 258164.27, 0.0, 10.002326, 9.99871 
1.2050698e+3, 1.8400666e+2, -927720.06, -1169047.6, -8503.855, 0.012049577, -0.0077221435, -927420.75, 209311.66, 0.0, 10.001962, 9.998762 
1.2050697e+3, 1.9400491e+2, -888126.25, -1094796.4, -16706.465, -0.0148634445, -0.064203754, -886784.5, 151963.69, 0.0, 10.001543, 9.9988 
1.2050697e+3, 2.0400365e+2, -858458.94, -1040448.25, -11556.94, -0.029210053, -0.06616993, -857727.94, 83032.39, 0.0, 10.00112, 9.998705 
1.2050701e+3, 2.1400307e+2, -821784.56, -969858.56, -6396.253, -0.027062941, 0.0015417844, -821508.75, 21258.629, 0.0, 10.000689, 9.998725 
1.2050703e+3, 2.2400205e+2, -777947.0, -873551.2, -901.6161, -0.0240006, 0.017364798, -777938.5, -33160.7, 0.0, 10.000212, 9.998943 
1.2050707e+3, 2.3400038e+2, -754724.5, -805136.94, 5943.488, -0.018357852, -0.051361606, -754033.25, -107240.23, 0.0, 9.999672, 9.999 
1.2050709e+3, 2.4399932e+2, -708464.7, -708801.56, 4324.855, -0.020823188, -0.066465154, -704305.0, -155501.9, 0.0, 9.999218, 9.999207 
1.2050708e+3, 2.539991e+2, -654504.94, -625733.56, 8243.523, -0.03531368, -0.015024082, -623539.0, -172733.17, 0.0, 9.998887, 9.999263 
1.2050709e+3, 2.639986e+2, -589830.44, -502962.34, 23300.04, -0.040337604, -0.008760266, -497107.38, -144296.53, 0.0, 9.998484, 9.999627 
1.2050713e+3, 2.7399766e+2, -561743.0, -431109.2, 28847.662, -0.031685546, -0.07234973, -425022.4, -170203.69, 0.0, 9.99797, 9.999696 
1.2050713e+3, 2.8399757e+2, -506466.03, -322853.72, 11480.777, -0.04318682, -0.06383654, -322138.66, -165319.63, 0.0, 9.997543, 9.999971 
1.20507054e+3, 2.9399848e+2, -448361.66, -240657.6, 9036.895, -0.08427537, 0.023963658, -240265.16, -181454.88, 0.0, 9.997254, 10.000001 
1.2050701e+3, 3.0399752e+2, -442467.22, -214487.45, 6260.7373, -0.09900906, -0.067426585, -214315.64, -214315.64, 0.0, 9.996968, 9.999985 
1.2050705e+3, 3.1399786e+2, -357153.66, 32064.773, -3608.615, -0.032535736, -0.040149756, 32098.229, 32098.229, 0.0, 9.996667, 10.001824 
1.2150751e+3, 1.2401689e+2, -1252103.1, -1778100.6, 22522.209, 0.10264965, 0.0653377, -1251140.5, 473499.2, 0.0026482663, 10.004439, 9.997418 
1.21507116e+3, 1.3401456e+2, -1155895.5, -1614106.4, -49973.117, -0.18038282, 0.031764198, -1150508.8, 476153.03, 0.0014316448, 10.004102, 9.998052 
1.2150742e+3, 1.4401245e+2, -1121080.4, -1546069.4, -34938.367, 0.1575883, 0.016286079, -1118227.3, 410454.94, 0.00050735817, 10.003676, 9.99804 
1.2150724e+3, 1.5401094e+2, -1102978.8, -1486218.6, -45324.266, 0.033438385, 0.058225043, -1097691.4, 333006.7, 0.000076397075, 10.003126, 9.998042 
1.2150714e+3, 1.6400938e+2, -1020222.4, -1311233.5, -22345.225, -0.030184768, 0.06533651, -1018516.6, 314195.84, 0.0000008702971, 10.002657, 9.998796 
1.2150715e+3, 1.740078e+2, -962696.9, -1220706.8, -11233.516, -0.022893256, 0.015122958, -962208.7, 272515.78, 0.0, 10.002327, 9.998904 
1.2150715e+3, 1.8400632e+2, -938929.9, -1191555.6, -25067.432, -0.017320745, -0.009442528, -936466.5, 200270.38, 0.0, 10.001958, 9.99861 
1.2150713e+3, 1.9400495e+2, -901551.1, -1122890.6, -32677.613, -0.005818052, -0.0081359865, -896827.56, 141922.53, 0.0, 10.001543, 9.998608 
1.2150711e+3, 2.0400365e+2, -852311.56, -1028086.8, -28847.318, -0.0073510343, -0.008704437, -847698.4, 93064.61, 0.0, 10.001121, 9.99879 
1.2150707e+3, 2.1400239e+2, -814141.0, -953420.8, -23008.69, -0.029302243, -0.020356718, -810438.44, 32336.842, 0.0, 10.000685, 9.99884 
1.2150704e+3, 2.2400136e+2, -766379.25, -848051.25, -22003.563, -0.040021777, -0.01903045, -760828.44, -16043.335, 0.0, 10.000205, 9.999122 
1.2150702e+3, 2.3400067e+2, -741774.6, -777964.56, -14466.734, -0.0325553, -0.007922286, -736702.5, -89911.27, 0.0, 9.99967, 9.999187 
1.21507e+3, 2.4399991e+2, -697244.9, -685682.06, -9446.72, -0.029430976, -0.01115818, -680388.06, -131589.9, 0.0, 9.999217, 9.999366 
1.2150697e+3, 2.5399897e+2, -643510.25, -603166.6, -3548.368, -0.034720715, -0.049151152, -602856.9, -152050.14, 0.0, 9.998887, 9.999418 
1.2150694e+3, 2.639984e+2, -580320.06, -483354.6, 4802.3804, -0.042795938, -0.061669447, -483117.3, -130305.72, 0.0, 9.998484, 9.999763 
1.215069e+3, 2.7399847e+2, -553305.5, -411671.66, 10890.929, -0.053799182, -0.038927577, -410839.1, -156028.77, 0.0, 9.997961, 9.999833 
1.2150687e+3, 2.8399855e+2, -505581.3, -320027.13, 65.58212, -0.048172005, -0.024708265, -320027.13, -163217.72, 0.0, 9.997538, 9.999994 
1.2150683e+3, 2.9399833e+2, -447840.4, -239199.08, -1056.8201, -0.02059942, -0.04877782, -239193.72, -180382.81, 0.0, 9.9972515, 10.000012 
1.2150675e+3, 3.0399737e+2, -454951.13, -240589.17, -4517.114, -0.052277878, -0.13270247, -240494.03, -240494.03, 0.0, 9.996968, 9.999806 
1.2150663e+3, 3.139986e+2, -360684.97, 27952.807, -10341.377, -0.119715795, 0.00021933434, 28227.79, 28227.79, 0.0, 9.996654, 10.001802 
1.2250798e+3, 1.2401738e+2, -1201143.1, -1768123.6, 34558.168, 0.10473911, 0.07280263, -1199044.5, 525589.94, 0.002902366, 10.004857, 9.997285 
1.22507535e+3, 1.3401484e+2, -1144386.1, -1622080.3, -6775.0703, -0.180908, 0.032659166, -1144290.1, 482369.22, 0.0015791256, 10.004243, 9.997928 
1.2250781e+3, 1.4401257e+2, -1103501.0, -1529914.9, 20977.799, 0.17718038, 0.0025889531, -1102471.5, 426210.16, 0.0005682867, 10.003767, 9.998106 
1.2250758e+3, 1.5401131e+2, -1041027.4, -1447034.1, 14773.447, 0.03753054, 0.06298807, -1040490.56, 390203.78, 0.00008951281, 10.003513, 9.998123 
1.2250742e+3, 1.6400981e+2, -972684.25, -1304313.5, 25491.97, -0.034016795, 0.0773229, -970736.2, 361972.03, 0.0000012652538, 10.003052, 9.998653 
1.22507386e+3, 1.7400798e+2, -981171.75, -1247456.4, 8580.857, -0.023867501, 0.018576846, -980895.56, 253828.03, 0.0, 10.002278, 9.998743 
1.22507334e+3, 1.8400644e+2, -977451.9, -1212837.6, -7649.421, -0.01274734, -0.0027378916, -977203.5, 159533.72, 0.0, 10.001706, 9.998584 
1.2250729e+3, 1.9400527e+2, -917011.2, -1131670.6, -2420.4092, 0.0046492056, 0.018195901, -916983.9, 121764.97, 0.0, 10.001443, 9.998595 
1.2250723e+3, 2.0400396e+2, -859343.2, -1021192.9, 2787.0183, 0.004852465, 0.017498618, -859295.25, 81465.99, 0.0, 10.001028, 9.998882 
1.2250713e+3, 2.1400253e+2, -849860.75, -958287.75, 6575.7007, -0.020429373, -0.022757782, -849463.4, -6688.931, 0.0, 10.000388, 9.998949 
1.2250704e+3, 2.2400148e+2, -807932.8, -864967.6, 7929.305, -0.037315506, -0.031029368, -806851.0, -62066.8, 0.0, 9.9999075, 9.999147 
1.2250698e+3, 2.34001e+2, -743148.7, -776874.7, 1693.7357, -0.040905993, -0.0015800338, -743063.9, -96275.13, 0.0, 9.999653, 9.999203 
1.22506924e+3, 2.4400033e+2, -677892.94, -664090.25, -2404.033, -0.038273998, 0.0007455924, -663683.5, -114888.945, 0.0, 9.999297, 9.9994755 
1.2250686e+3, 2.5399938e+2, -646724.44, -590916.1, -243.20853, -0.028310247, -0.049705315, -590915.06, -140112.31, 0.0, 9.998807, 9.999541 
1.2250679e+3, 2.639989e+2, -595781.3, -488515.5, 1877.664, -0.03333789, -0.06396763, -488482.63, -135675.72, 0.0, 9.998368, 9.999782 
1.2250669e+3, 2.739991e+2, -548638.3, -408597.16, -4132.0244, -0.059103772, -0.029770471, -408475.34, -153670.44, 0.0, 9.997991, 9.999839 
1.22506626e+3, 2.8399915e+2, -497731.66, -314622.53, -16522.752, -0.053303983, -0.016247166, -313143.56, -156339.39, 0.0, 9.997586, 10.000006 
1.2250658e+3, 2.939988e+2, -462035.1, -244903.33, -17365.564, -0.0038870024, -0.053648986, -243523.25, -184716.47, 0.0, 9.997149, 10.000023 
1.22506455e+3, 3.0399808e+2, -477698.75, -248245.22, -10310.467, -0.035736352, -0.118067354, -247782.84, -247782.84, 0.0, 9.9967985, 9.999835 
1.22506276e+3, 3.1399903e+2, -361739.88, 45282.734, -2344.0796, -0.12714027, -0.016338114, 45296.23, 45296.23, 0.0, 9.996569, 10.001963 
1.2350847e+3, 1.240186e+2, -1199813.8, -1763155.9, -10285.253, 0.10384812, 0.08522892, -1199626.0, 524996.75, 0.0031722244, 10.0048485, 9.997323 
1.2350797e+3, 1.3401626e+2, -1141359.3, -1615915.8, -28883.771, -0.17606221, 0.06170311, -1139607.8, 487038.1, 0.0017363124, 10.004242, 9.997971 
1.2350819e+3, 1.4401385e+2, -1094412.4, -1510880.5, 8373.556, 0.18386818, 0.009505159, -1094244.0, 434424.84, 0.00063355366, 10.003765, 9.998238 
1.23507895e+3, 1.5401244e+2, -1031168.56, -1427659.0, 5218.8535, 0.00443188, 0.04008776, -1031099.9, 399581.56, 0.00010392506, 10.003516, 9.998256 
1.2350769e+3, 1.6401075e+2, -1004583.9, -1370186.3, -2562.2468, -0.070032604, 0.048857614, -1004565.94, 328131.25, 0.0000017603737, 10.00305, 9.998202 
1.2350763e+3, 1.7400871e+2, -1016659.75, -1322244.4, -20509.008, -0.008933883, 0.020557623, -1015289.44, 219427.66, 0.0, 10.002282, 9.998229 
1.23507544e+3, 1.8400702e+2, -970878.6, -1199991.4, -20578.188, 0.021841675, 0.009882571, -969045.06, 167688.23, 0.0, 10.001709, 9.998672 
1.2350745e+3, 1.9400585e+2, -906207.0, -1109079.0, -12689.27, 0.014424535, 0.01545011, -905416.4, 133327.7, 0.0, 10.001441, 9.998752 
1.2350732e+3, 2.0400469e+2, -852892.44, -1006918.0, -21060.135, 0.0063407887, 0.014636186, -850064.8, 90689.766, 0.0, 10.001023, 9.998982 
1.2350719e+3, 2.1400353e+2, -842822.75, -944488.4, -17924.59, -0.0027371177, -0.006013763, -839755.0, 3009.6726, 0.0, 10.00039, 9.9990425 
1.2350705e+3, 2.2400244e+2, -816130.1, -882984.3, -4025.2927, -0.01892944, -0.019676557, -815888.6, -71113.79, 0.0, 9.999911, 9.999023 
1.2350695e+3, 2.3400138e+2, -754092.5, -799444.2, -7567.683, -0.045017313, -0.031809025, -752863.0, -106077.9, 0.0, 9.999651, 9.999049 
1.2350684e+3, 2.4400066e+2, -674625.5, -656771.06, -20465.832, -0.048709866, -0.029980922, -643370.2, -94578.234, 0.0, 9.999293, 9.999528 
1.2350675e+3, 2.5400043e+2, -641746.0, -579633.6, -17934.848, -0.020103708, -0.017749209, -574826.94, -124033.32, 0.0, 9.998801, 9.999621 
1.2350664e+3, 2.6400006e+2, -603850.1, -504729.3, -12360.775, -0.016266044, -0.016852487, -503211.13, -150414.47, 0.0, 9.998364, 9.999673 
1.2350651e+3, 2.739995e+2, -557961.06, -428264.28, -17039.307, -0.048948336, -0.042550728, -426063.06, -171261.02, 0.0, 9.997991, 9.999704 
1.23506375e+3, 2.839994e+2, -496584.94, -312545.22, -32181.46, -0.060007922, -0.036115535, -307080.2, -150277.23, 0.0, 9.997587, 10.00002 
1.2350626e+3, 2.9399994e+2, -461244.44, -241179.1, -31535.965, -0.040124636, 0.005504673, -236749.08, -177951.25, 0.0, 9.99714, 10.000052 
1.23506114e+3, 3.039996e+2, -466076.66, -222494.23, -18717.434, -0.05656997, -0.027252847, -221064.34, -221064.34, 0.0, 9.99679, 10.000016 
1.2350601e+3, 3.1399927e+2, -343935.53, 83818.01, -6742.3193, -0.060344532, -0.07526861, 83924.25, 83924.25, 0.0, 9.99656, 10.002232 
1.24508925e+3, 1.2401972e+2, -1273611.1, -1782190.1, -9816.599, 0.11004071, 0.052566145, -1273421.8, 451190.25, 0.0034552936, 10.0042715, 9.997469 
1.2450839e+3, 1.3401812e+2, -1119636.3, -1591543.1, -2790.5854, -0.1792936, 0.09054718, -1119619.8, 507008.13, 0.001902141, 10.0043335, 9.998094 
1.2450858e+3, 1.4401574e+2, -1053228.8, -1494268.8, 24542.781, 0.18476199, 0.03641714, -1051867.3, 476783.13, 0.0007028993, 10.004062, 9.998208 
1.2450824e+3, 1.5401386e+2, -1062057.9, -1446494.8, 6834.1655, 0.005339498, 0.024220552, -1061936.4, 368730.66, 0.00011956255, 10.003324, 9.998218 
1.2450799e+3, 1.6401201e+2, -1045965.4, -1399493.6, 5747.516, -0.06491444, 0.022511961, -1045872.0, 286812.38, 0.0000023468863, 10.002809, 9.9981165 
1.2450789e+3, 1.7401022e+2, -973195.6, -1311796.9, 17789.28, 0.0012048442, 0.028850604, -972263.56, 262438.94, 0.0, 10.002627, 9.998134 
1.24507755e+3, 1.8400857e+2, -903910.5, -1169459.1, 29118.559, 0.030419739, 0.02730864, -900755.0, 235963.61, 0.0, 10.002176, 9.998655 
1.2450758e+3, 1.9400711e+2, -925633.44, -1118953.9, 24139.078, 0.013881398, 0.005356202, -922664.9, 116066.875, 0.0, 10.001311, 9.998746 
1.2450741e+3, 2.040059e+2, -895094.2, -1032858.7, 11810.438, 0.004028812, 0.00066293665, -894089.06, 46653.785, 0.0, 10.000758, 9.998931 
1.2450724e+3, 2.14005e+2, -806682.75, -933443.5, 2998.7915, 0.0010282602, 0.010323985, -806611.8, 36139.375, 0.0, 10.000667, 9.998985 
1.2450708e+3, 2.2400394e+2, -759808.06, -854914.56, 9867.497, -0.011202938, 0.005107178, -758795.06, -14034.067, 0.0, 10.000294, 9.999032 
1.24506906e+3, 2.3400265e+2, -772532.1, -805548.06, 17308.041, -0.03596726, -0.0317728, -765121.9, -118348.88, 0.0, 9.999514, 9.999073 
1.24506764e+3, 2.4400182e+2, -726598.94, -693347.1, 13581.012, -0.041737054, -0.038349565, -688505.25, -139724.33, 0.0, 9.998988, 9.999423 
1.2450663e+3, 2.5400162e+2, -647028.5, -595748.6, 558.4249, -0.019759357, -0.0095620435, -595742.5, -144959.56, 0.0, 9.998824, 9.999499 
1.2450648e+3, 2.640013e+2, -584520.3, -494083.94, -2578.725, -0.018761382, 0.0020790421, -494010.47, -141224.56, 0.0, 9.998492, 9.999684 
1.245063e+3, 2.740008e+2, -564848.4, -428330.94, 3185.5251, -0.049216934, -0.024249697, -428256.66, -173465.88, 0.0, 9.997931, 9.999732 
1.2450613e+3, 2.840006e+2, -506329.1, -318432.34, -1098.6117, -0.062257145, -0.027002823, -318425.94, -161633.58, 0.0, 9.997525, 10.00001 
1.2450597e+3, 2.9400098e+2, -437392.97, -231328.42, -6237.814, -0.050310284, -0.00072029827, -231139.78, -172350.78, 0.0, 9.997312, 10.000036 
1.24505796e+3, 3.0400097e+2, -457142.16, -220144.67, -6131.285, -0.057991568, 0.0027590834, -219986.16, -219986.16, 0.0, 9.996861, 9.999997 
1.2450568e+3, 3.1400052e+2, -411018.9, 51220.098, -9189.002, -0.020209765, -0.05448456, 51402.695, 51402.695, 0.0, 9.996102, 10.002227 
1.2550937e+3, 1.2402087e+2, -1256994.9, -1748525.1, -31196.506, 0.11785063, -0.022937981, -1255022.9, 469578.13, 0.0037506735, 10.004274, 9.9977 
1.2550882e+3, 1.3402048e+2, -1106279.5, -1564979.8, 181.47447, -0.19438094, 0.11808638, -1106279.5, 520325.28, 0.0020761373, 10.004336, 9.998276 
1.2550898e+3, 1.4401828e+2, -1066422.9, -1520630.0, -1998.0956, 0.17514293, 0.07977008, -1066414.1, 462211.7, 0.0007762512, 10.004058, 9.99803 
1.255086e+3, 1.5401565e+2, -1076259.3, -1476705.6, -20711.955, 0.038232733, 0.013666167, -1075190.9, 355459.66, 0.00013646827, 10.003325, 9.998011 
1.2550831e+3, 1.6401364e+2, -1028135.44, -1362408.0, -4378.8384, -0.021984942, -0.0032248509, -1028078.06, 304591.16, 0.0000030208696, 10.002807, 9.998372 
1.2550816e+3, 1.7401257e+2, -951430.94, -1267068.8, 10803.967, 0.0042006955, 0.044082113, -951061.56, 283617.78, 0.0, 10.002627, 9.998441 
1.2550795e+3, 1.8401112e+2, -912356.6, -1186536.5, -1989.5183, 0.011270667, 0.050436143, -912342.2, 224350.7, 0.0, 10.002173, 9.99854 
1.255077e+3, 1.940091e+2, -936221.8, -1142581.9, -8891.565, 0.0014504822, -0.012746741, -935839.4, 102872.14, 0.0, 10.001317, 9.998582 
1.2550749e+3, 2.040076e+2, -909158.6, -1063280.3, 4282.6406, -0.004880664, -0.025717108, -909039.75, 31686.063, 0.0, 10.000763, 9.99872 
1.255073e+3, 2.140069e+2, -822141.4, -964990.44, -654.22473, -0.009966418, 0.026063735, -822138.4, 20595.248, 0.0, 10.000664, 9.998771 
1.255071e+3, 2.2400601e+2, -750587.94, -834874.25, -18256.951, -0.014719279, 0.04286573, -746803.3, -2061.0144, 0.0, 10.000289, 9.999172 
1.2550688e+3, 2.3400484e+2, -759401.1, -778683.56, -12230.283, -0.016398804, -0.0019326569, -753468.9, -106716.81, 0.0, 9.999515, 9.999257 
1.2550668e+3, 2.4400382e+2, -744549.9, -731121.25, 4907.1587, -0.020740421, -0.024453891, -729519.2, -180757.7, 0.0, 9.998989, 9.999164 
1.255065e+3, 2.5400302e+2, -669148.56, -641820.8, -4546.118, -0.029007891, -0.023939896, -641084.4, -190313.95, 0.0, 9.998824, 9.999184 
1.2550631e+3, 2.6400265e+2, -575943.8, -476321.47, -21947.207, -0.042439055, -0.006370778, -471700.75, -118926.414, 0.0, 9.99849, 9.999807 
1.2550607e+3, 2.7400288e+2, -552851.25, -402483.5, -16493.475, -0.0634027, 0.023483494, -400695.63, -145924.52, 0.0, 9.997925, 9.999913 
1.2550588e+3, 2.840027e+2, -511134.34, -327033.06, -9362.165, -0.06386651, 0.009534471, -326558.2, -169785.7, 0.0, 9.997519, 9.999954 
1.2550572e+3, 2.9400188e+2, -443730.1, -243776.77, -12662.563, -0.038082924, -0.06890263, -242978.08, -184197.95, 0.0, 9.997308, 9.999953 
1.2550549e+3, 3.0400217e+2, -470941.88, -248532.47, -32723.422, -0.04398233, -0.024574079, -243817.77, -243817.77, 0.0, 9.996859, 9.999804 
1.255053e+3, 3.1400284e+2, -430866.7, 12049.367, -32701.512, -0.013856448, 0.05126872, 14450.775, 14450.775, 0.0, 9.996093, 10.001963 
1.265098e+3, 1.2402371e+2, -1216121.3, -1719874.5, 23.88819, 0.118282594, -0.0023600576, -1216121.3, 508452.2, 0.0040585394, 10.004518, 9.99778 
1.2650923e+3, 1.3402303e+2, -1142329.6, -1582019.8, 38085.44, -0.19475932, 0.10832589, -1139055.0, 487524.6, 0.0022581415, 10.004089, 9.998278 
1.2650937e+3, 1.4402065e+2, -1117482.1, -1551490.4, 23402.932, 0.17314881, 0.054058038, -1116223.9, 412378.53, 0.00085363456, 10.003736, 9.997972 
1.2650895e+3, 1.5401834e+2, -1052979.6, -1473563.5, 13401.145, 0.044953197, 0.028081581, -1052553.1, 378071.38, 0.00015477135, 10.003521, 9.997937 
1.2650862e+3, 1.6401643e+2, -984086.94, -1337106.1, 29145.908, -0.013052532, 0.02182294, -981696.8, 350945.75, 0.0000038088367, 10.003093, 9.998407 
1.2650841e+3, 1.7401506e+2, -989584.0, -1279693.8, 24249.846, 0.008048972, 0.035214715, -987570.94, 247083.95, 0.0, 10.002342, 9.99849 
1.2650816e+3, 1.8401352e+2, -954132.94, -1212680.1, 5636.066, 0.01062236, 0.031849857, -954010.1, 182658.94, 0.0, 10.001915, 9.998485 
1.2650786e+3, 1.9401166e+2, -847349.25, -1107100.4, 4741.3027, -0.0068489267, -0.006922793, -847262.75, 191423.5, 0.0, 10.001961, 9.998514 
1.265076e+3, 2.0401014e+2, -801411.94, -1024621.3, 19540.262, -0.014080451, -0.012060715, -799714.25, 140986.72, 0.0, 10.001561, 9.998601 
1.2650736e+3, 2.1400917e+2, -855525.44, -994764.94, 19697.215, -0.009033505, 0.0230887, -852792.6, -10080.658, 0.0, 10.000495, 9.998647 
1.2650712e+3, 2.2400819e+2, -815466.1, -867775.2, 7982.667, -0.008927916, 0.0395657, -814275.06, -69553.46, 0.0, 9.999851, 9.999156 
1.2650685e+3, 2.3400725e+2, -713632.0, -757309.5, -799.00653, -0.014251289, 0.018372657, -713617.44, -66888.2, 0.0, 9.999831, 9.999251 
1.265066e+3, 2.4400628e+2, -671392.2, -702916.06, 13327.475, -0.018439934, 0.0026705225, -666512.9, -117774.64, 0.0, 9.999521, 9.999102 
1.2650639e+3, 2.5400522e+2, -678912.7, -653622.44, 20491.504, -0.022495702, -0.014784371, -642188.5, -191438.84, 0.0, 9.998788, 9.999119 
1.2650615e+3, 2.6400477e+2, -610314.44, -494438.78, 10642.706, -0.03697543, -0.004613832, -493469.4, -140714.88, 0.0, 9.998261, 9.999793 
1.2650587e+3, 2.7400503e+2, -540183.1, -397400.53, 1291.8777, -0.06454733, 0.031934716, -397388.84, -142638.4, 0.0, 9.998016, 9.999904 
1.2650564e+3, 2.8400475e+2, -494966.0, -326633.94, 3189.85, -0.064046316, 0.015601432, -326573.5, -169821.11, 0.0, 9.997661, 9.999887 
1.2650545e+3, 2.940038e+2, -470679.84, -264909.16, -512.78986, -0.026887983, -0.07330796, -264907.88, -206145.61, 0.0, 9.997158, 9.99988 
1.2650518e+3, 3.040044e+2, -485151.4, -257107.83, -18566.373, -0.035356496, 0.0049926834, -255606.11, -255606.11, 0.0, 9.996769, 9.999787 
1.2650491e+3, 3.1400487e+2, -375808.63, 22718.81, -4779.3, -0.022457581, 0.06549612, 22776.12, 22776.12, 0.0, 9.996538, 10.0018215 
1.2751023e+3, 1.2402829e+2, -1221359.8, -1728939.1, -37934.832, 0.105199724, 0.110560246, -1218540.4, 505988.78, 0.0043788366, 10.00451, 9.997722 
1.2750965e+3, 1.3402583e+2, -1153773.4, -1606265.3, 22577.72, -0.18177778, 0.062102906, -1152649.5, 473902.13, 0.0024479858, 10.004092, 9.998109 
1.2750974e+3, 1.4402293e+2, -1113368.5, -1543955.1, 12838.573, 0.17606638, -0.038455393, -1112986.0, 415593.2, 0.00093519414, 10.003738, 9.998023 
1.2750928e+3, 1.5402201e+2, -1048390.8, -1465411.1, 5464.5054, 0.022498066, 0.06665521, -1048319.25, 382269.2, 0.00017466526, 10.003525, 9.997992 
1.275089e+3, 1.6402037e+2, -997451.9, -1364485.5, 1756.9761, -0.04044443, 0.095180616, -997443.5, 335160.44, 0.0000047674703, 10.00309, 9.998221 
1.2750864e+3, 1.7401774e+2, -1003535.4, -1309575.9, -4447.179, 0.011210999, 0.0022788944, -1003470.75, 231157.77, 0.0, 10.002345, 9.998284 
1.2750836e+3, 1.8401581e+2, -954281.2, -1213070.0, 3176.4478, 0.024916822, -0.028594682, -954242.25, 182404.45, 0.0, 10.001914, 9.998483 
1.2750804e+3, 1.9401486e+2, -846243.4, -1104161.5, 6261.642, -0.012319484, 0.022573428, -846091.44, 192564.02, 0.0, 10.001957, 9.998536 
1.2750775e+3, 2.040136e+2, -804267.0, -1029585.5, -17779.799, -0.024306959, 0.040897377, -802872.6, 137795.31, 0.0, 10.001556, 9.9985695 
1.2750742e+3, 2.1401182e+2, -857969.8, -1000438.06, -21066.104, 0.00093000033, 0.0017127752, -854920.1, -12234.257, 0.0, 10.000496, 9.998608 
1.275071e+3, 2.2401054e+2, -827288.56, -892863.8, 2385.7085, 0.0022161908, -0.0037263404, -827201.9, -82503.27, 0.0, 9.999853, 9.998983 
1.275068e+3, 2.3400995e+2, -727049.7, -785325.0, -1156.2622, -0.030314688, 0.029465184, -727026.75, -80322.74, 0.0, 9.999831, 9.99906 
1.2750654e+3, 2.440092e+2, -662935.6, -685123.9, -12034.344, -0.035825785, 0.042295933, -657661.94, -108950.875, 0.0, 9.999518, 9.999226 
1.2750629e+3, 2.5400826e+2, -667285.44, -629374.1, -6416.4507, -0.0030697559, 0.017126692, -628317.56, -177597.06, 0.0, 9.998786, 9.999288 
1.27506e+3, 2.640076e+2, -621184.94, -516670.88, 186.58836, -0.00507461, 0.006915305, -516670.53, -163944.0, 0.0, 9.99826, 9.999641 
1.2750569e+3, 2.7400726e+2, -553518.06, -425119.78, -6350.0986, -0.05648596, 0.0027832203, -424806.5, -170077.98, 0.0, 9.998015, 9.999715 
1.275054e+3, 2.8400692e+2, -500325.56, -338137.7, -14505.564, -0.06685889, -0.007536471, -336850.6, -180118.78, 0.0, 9.997661, 9.999809 
1.2750518e+3, 2.940067e+2, -476520.06, -274692.75, -17857.258, -0.020608887, -0.015525934, -273124.97, -214389.56, 0.0, 9.997147, 9.999819 
1.2750487e+3, 3.040076e+2, -476896.63, -237356.98, -27031.217, -0.034384135, 0.08922874, -234344.48, -234344.48, 0.0, 9.9967575, 9.999929 
1.2750454e+3, 3.1400678e+2, -380764.7, 15486.003, -7191.205, -0.052530468, 0.0016424782, 15616.467, 15616.467, 0.0, 9.996525, 10.001778 
1.2851068e+3, 1.2403206e+2, -1233963.8, -1743575.0, -35467.547, 0.09635886, 0.10558021, -1231507.1, 492984.22, 0.0047113127, 10.004463, 9.9976425 
1.285101e+3, 1.3402951e+2, -1144817.4, -1622031.5, 41401.402, -0.16135037, 0.06461323, -1141252.1, 485263.38, 0.0026456704, 10.004243, 9.997927 
1.2851015e+3, 1.4402647e+2, -1083381.9, -1528134.9, 29565.258, 0.18514417, -0.03961476, -1081425.1, 447119.38, 0.001021128, 10.00394, 9.9980345 
1.2850963e+3, 1.540255e+2, -1040892.3, -1458056.1, 19769.217, 0.009651748, 0.058226474, -1039957.56, 390596.22, 0.00019628371, 10.003562, 9.998023 
1.285092e+3, 1.6402383e+2, -996284.6, -1379871.0, 8105.9033, -0.058394875, 0.088041395, -996113.44, 336456.2, 0.0000059623408, 10.003168, 9.998077 
1.285089e+3, 1.7402118e+2, -957392.56, -1305745.5, 3171.3003, 0.01142204, 0.008677679, -957363.7, 277231.44, 0.0, 10.002743, 9.998118 
1.2850857e+3, 1.840192e+2, -916715.9, -1197795.1, 20277.395, 0.03535582, -0.015880765, -915260.56, 221353.52, 0.0, 10.002186, 9.998456 
1.2850823e+3, 1.940182e+2, -923623.8, -1142807.9, 20660.588, -0.0031752917, 0.030757418, -921693.3, 116930.34, 0.0, 10.001432, 9.998524 
1.2850787e+3, 2.0401691e+2, -885964.06, -1067549.5, -8577.757, -0.020452693, 0.046631876, -885559.75, 55076.54, 0.0, 10.00099, 9.998581 
1.2850748e+3, 2.1401516e+2, -783261.25, -962248.44, -9735.95, -0.0079650115, 0.0073896274, -782733.2, 59920.33, 0.0, 10.001001, 9.998626 
1.2850712e+3, 2.2401379e+2, -714180.5, -848585.4, 22545.219, -0.008426616, -0.0022182777, -710499.5, 34167.2, 0.0, 10.000674, 9.998892 
1.285068e+3, 2.3401299e+2, -731868.4, -798812.06, 24667.354, -0.027394483, 0.02042542, -723760.9, -77086.664, 0.0, 9.999847, 9.998959 
1.2850648e+3, 2.4401218e+2, -699571.94, -700472.6, 12284.632, -0.028941235, 0.031667575, -687729.44, -139047.56, 0.0, 9.999258, 9.999246 
1.2850618e+3, 2.540114e+2, -631835.8, -608797.06, 6705.565, -0.0054149292, 0.019152721, -606987.5, -156298.03, 0.0, 9.999014, 9.999319 
1.2850584e+3, 2.640107e+2, -576873.44, -519528.03, 10086.357, -0.008010038, 0.01553101, -517805.7, -165109.94, 0.0, 9.998667, 9.999426 
1.285055e+3, 2.740101e+2, -547266.4, -449269.16, -1304.4602, -0.04801232, 0.0060407594, -449251.78, -194550.42, 0.0, 9.998175, 9.999472 
1.2850517e+3, 2.840096e+2, -501517.34, -343169.3, -15169.477, -0.058065157, -0.004558716, -341729.2, -185022.42, 0.0, 9.997672, 9.999769 
1.2850489e+3, 2.9400948e+2, -479800.63, -278254.4, -17504.67, -0.025876367, -0.0010714673, -276745.4, -218035.63, 0.0, 9.997131, 9.999803 
1.2850453e+3, 3.0401063e+2, -472847.72, -208319.72, -10688.227, -0.041791596, 0.119873464, -207888.56, -207888.56, 0.0, 9.99667, 10.000169 
1.285042e+3, 3.1400955e+2, -401638.44, 5990.2446, 18081.291, -0.043812353, -0.017018905, 6790.7095, 6790.7095, 0.0, 9.99638, 10.001782 
1.2951112e+3, 1.2403516e+2, -1242705.8, -1762282.9, -62687.24, 0.083593294, -0.012873808, -1235249.5, 489209.53, 0.005055465, 10.004464, 9.997515 
1.2951054e+3, 1.3403407e+2, -1159743.3, -1652496.4, 33279.95, -0.13677716, 0.11343036, -1157505.8, 468965.0, 0.0028510517, 10.004241, 9.997719 
1.2951055e+3, 1.4403129e+2, -1086014.1, -1533065.6, 14140.1875, 0.19589765, 0.04628338, -1085567.4, 442930.66, 0.0011113255, 10.003937, 9.998002 
1.2950997e+3, 1.540289e+2, -1039951.9, -1456825.9, 5611.055, 0.0043310435, 0.0045956396, -1039876.4, 390643.34, 0.000219555, 10.003564, 9.998032 
1.2950951e+3, 1.6402689e+2, -1003470.6, -1394851.5, -8882.522, -0.07003339, 0.0025419197, -1003269.1, 329269.72, 0.0000074533, 10.003167, 9.997976 
1.2950917e+3, 1.740254e+2, -965717.6, -1323718.8, -13058.148, 0.006683831, 0.052691437, -965242.0, 269312.2, 0.0, 10.002745, 9.997995 
1.2950881e+3, 1.8402371e+2, -920848.6, -1206869.9, -7922.7983, 0.039822698, 0.06707185, -920629.3, 215941.67, 0.0, 10.002187, 9.998394 
1.2950839e+3, 1.9402172e+2, -927045.25, -1150699.9, -8086.4624, 0.017977636, 0.018676786, -926753.25, 111836.96, 0.0, 10.001435, 9.998469 
1.2950799e+3, 2.0402013e+2, -882124.5, -1059885.4, -12162.42, -0.0063703633, 0.0067903344, -881296.25, 59309.195, 0.0, 10.000991, 9.998634 
1.2950756e+3, 2.1401916e+2, -778587.44, -952830.4, -9607.791, -0.0363518, 0.038886122, -778059.25, 64555.453, 0.0, 10.001001, 9.998691 
1.2950717e+3, 2.2401796e+2, -715165.94, -850495.2, -6649.2456, -0.041301712, 0.04212199, -714840.0, 29785.76, 0.0, 10.000673, 9.998879 
1.2950681e+3, 2.340164e+2, -733076.6, -801655.25, -6464.036, -0.008190245, -0.008366418, -732472.7, -85833.04, 0.0, 9.999847, 9.9989395 
1.2950644e+3, 2.4401525e+2, -705721.8, -713205.7, 716.19586, -0.0011708471, -0.027822347, -705653.94, -157003.58, 0.0, 9.999257, 9.999159 
1.2950605e+3, 2.5401467e+2, -638820.1, -623397.5, -1674.434, -0.031682793, -0.007402109, -623217.8, -172561.66, 0.0, 9.999014, 9.99922 
1.2950568e+3, 2.6401415e+2, -596628.06, -561025.0, -7279.8735, -0.04768604, 0.021315413, -559594.0, -206932.06, 0.0, 9.998668, 9.999141 
1.2950532e+3, 2.7401352e+2, -569304.25, -493119.13, -18204.3, -0.042400215, 0.04140504, -488992.75, -234323.89, 0.0, 9.998165, 9.999176 
1.2950496e+3, 2.840128e+2, -503460.22, -345659.94, -33994.043, -0.040217895, 0.024119383, -338648.34, -181971.14, 0.0, 9.997664, 9.999757 
1.2950458e+3, 2.9401216e+2, -478580.78, -274740.16, -35848.77, -0.04707595, -0.0270643, -268619.34, -209934.34, 0.0, 9.997128, 9.999828 
1.2950417e+3, 3.0401352e+2, -448767.28, -160011.06, -22592.86, -0.062044077, 0.09923142, -158254.05, -158254.05, 0.0, 9.996675, 10.000501 
1.2950388e+3, 3.1401336e+2, -400961.53, 12034.562, 12592.965, -0.0047985273, 0.019282669, 12418.187, 12418.187, 0.0, 9.99636, 10.001834 
1.3051157e+3, 1.2403934e+2, -1271131.4, -1770906.4, -64238.156, 0.09247048, -0.036736283, -1263006.8, 461410.63, 0.005408878, 10.004249, 9.99756 
1.3051097e+3, 1.340384e+2, -1129785.5, -1641082.3, 58279.703, -0.13758999, 0.10710188, -1123226.6, 503201.0, 0.0030626692, 10.004463, 9.997689 
1.3051094e+3, 1.4403561e+2, -1048204.8, -1529444.9, 25051.143, 0.1745042, 0.048437223, -1046904.3, 481550.8, 0.0012049678, 10.004261, 9.99787 
1.3051035e+3, 1.5403308e+2, -1062550.8, -1483690.1, 3141.3684, 0.018867077, 0.0051170425, -1062527.3, 367951.75, 0.000244213, 10.003478, 9.997889 
1.3050982e+3, 1.6403098e+2, -1033349.0, -1404331.5, -2604.7693, -0.051044878, 0.001486015, -1033330.7, 299168.47, 0.000009295233, 10.002942, 9.998019 
1.3050942e+3, 1.7402956e+2, -956273.9, -1311780.1, 7067.086, -0.013648779, 0.05035166, -956133.44, 278380.38, 0.0, 10.002779, 9.99806 
1.30509e+3, 1.840279e+2, -885798.6, -1200584.9, 7718.9565, 0.008386209, 0.06800083, -885609.44, 250921.02, 0.0, 10.002474, 9.998298 
1.3050856e+3, 1.9402587e+2, -858917.7, -1129814.4, 1170.049, 0.013139783, 0.029037772, -858912.7, 179637.56, 0.0, 10.001956, 9.998361 
1.3050811e+3, 2.0402424e+2, -813249.25, -1022848.25, 8590.551, 0.004170633, 0.018008802, -812897.75, 127668.04, 0.0, 10.001449, 9.998668 
1.3050766e+3, 2.1402322e+2, -782245.56, -949146.4, 10356.178, -0.0272434, 0.03951589, -781605.44, 60969.645, 0.0, 10.000954, 9.998739 
1.3050723e+3, 2.2402199e+2, -741543.06, -867259.1, 108.15893, -0.032987423, 0.038044102, -741543.0, 3043.1343, 0.0, 10.000509, 9.998843 
1.3050681e+3, 2.3402041e+2, -693418.6, -787287.8, -4547.9473, -0.00033569778, -0.008951714, -693198.75, -46598.773, 0.0, 10.000141, 9.998896 
1.3050638e+3, 2.4401915e+2, -654743.56, -708252.5, 5373.549, 0.0021873661, -0.02844968, -654209.25, -105597.38, 0.0, 9.999692, 9.998983 
1.3050595e+3, 2.5401834e+2, -636712.75, -643633.1, -4034.4395, -0.03918137, -0.013617268, -634857.9, -184237.31, 0.0, 9.99912, 9.999029 
1.3050553e+3, 2.6401773e+2, -608607.94, -559895.75, -5614.407, -0.05720297, 0.016104406, -559257.0, -206629.88, 0.0, 9.998557, 9.999202 
1.3050514e+3, 2.740173e+2, -585824.7, -491587.56, 9831.543, -0.039878864, 0.046437357, -490572.78, -235941.0, 0.0, 9.998012, 9.999261 
1.3050474e+3, 2.8401658e+2, -522411.63, -371876.0, 11763.43, -0.03206715, 0.032047536, -370962.3, -214322.31, 0.0, 9.997609, 9.999602 
1.3050431e+3, 2.9401565e+2, -447186.47, -279615.4, -5937.698, -0.042838104, -0.028328678, -279405.28, -220754.33, 0.0, 9.997429, 9.99965 
1.3050386e+3, 3.04017e+2, -383589.84, -112591.336, -11141.195, -0.060065005, 0.09484945, -112134.07, -112134.07, 0.0, 9.997055, 10.000643 
1.305035e+3, 3.1401706e+2, -403765.63, -6605.673, 10054.066, -0.007748004, 0.024483038, -6351.3184, -6351.3184, 0.0, 9.996412, 10.001682 
1.3151202e+3, 1.2404468e+2, -1257466.0, -1741583.0, -71488.83, 0.11384001, 0.03515843, -1247130.1, 477235.5, 0.005767137, 10.004244, 9.997765 
1.3151139e+3, 1.3404256e+2, -1120005.9, -1620774.4, 66632.91, -0.16465715, 0.046814363, -1111291.3, 515094.22, 0.0032777207, 10.004463, 9.997829 
1.315113e+3, 1.4403957e+2, -1064773.3, -1563280.8, -2626.5566, 0.11788202, -0.031200217, -1064759.4, 463655.53, 0.0013007845, 10.004258, 9.997641 
1.3151072e+3, 1.5403806e+2, -1083724.9, -1526959.5, -26615.248, 0.049805824, 0.057308577, -1082132.5, 348298.72, 0.00026992275, 10.003475, 9.997594 
1.3151017e+3, 1.6403615e+2, -1021110.44, -1379024.5, -11999.512, -0.0054720766, 0.08133734, -1020708.6, 311741.72, 0.00001153221, 10.002941, 9.998194 
1.3150966e+3, 1.7403369e+2, -939305.5, -1276960.0, 784.7106, -0.051007472, 0.0041348683, -939303.7, 295169.7, 0.0, 10.002779, 9.9983 
1.3150918e+3, 1.840318e+2, -894882.4, -1218916.6, -11728.034, -0.061468616, -0.009644385, -894458.44, 242033.33, 0.0, 10.002471, 9.998175 
1.3150872e+3, 1.940307e+2, -870140.8, -1154014.9, -18725.727, -0.018349431, 0.059832033, -868910.94, 169592.5, 0.0, 10.001959, 9.998194 
1.3150826e+3, 2.0402928e+2, -812085.6, -1021177.25, -11186.424, 0.0097858105, 0.077481285, -811488.9, 129028.34, 0.0, 10.001451, 9.998678 
1.315078e+3, 2.1402739e+2, -780499.3, -945537.3, -8412.182, 0.016189735, 0.010420598, -780071.6, 62462.438, 0.0, 10.000952, 9.998765 
1.3150732e+3, 2.2402592e+2, -746831.5, -877400.1, -15320.64, 0.012025647, -0.012231225, -745057.94, -510.731, 0.0, 10.000505, 9.998776 
1.3150683e+3, 2.3402506e+2, -699125.25, -799205.6, -18388.467, -0.005258474, 0.017939184, -695853.56, -49298.477, 0.0, 10.000141, 9.998816 
1.3150634e+3, 2.440239e+2, -672917.44, -746072.9, -15715.447, -0.019940002, 0.027534511, -669684.25, -121117.85, 0.0, 9.999691, 9.998725 
1.3150588e+3, 2.5402242e+2, -656600.9, -683926.06, -24481.05, -0.030952739, 0.00026048292, -642227.94, -191645.53, 0.0, 9.999115, 9.998756 
1.3150541e+3, 2.6402155e+2, -582247.6, -504754.9, -25390.148, -0.03957409, 0.0004668754, -497176.97, -144585.9, 0.0, 9.998553, 9.999583 
1.3150494e+3, 2.7402148e+2, -554336.3, -426499.13, -9050.512, -0.043505166, 0.02317495, -425861.56, -171271.64, 0.0, 9.998012, 9.999707 
1.3150449e+3, 2.8402096e+2, -542179.06, -414740.28, 3843.5554, -0.036947414, 0.020904152, -414624.47, -258029.38, 0.0, 9.997615, 9.999307 
1.3150407e+3, 2.9402006e+2, -475516.63, -334847.22, -10692.726, -0.018698666, -0.003326865, -334039.06, -275431.7, 0.0, 9.997413, 9.999279 
1.3150358e+3, 3.0402103e+2, -389485.78, -122381.32, -32261.365, -0.041106176, 0.1077278, -118539.98, -118539.98, 0.0, 9.997043, 10.000582 
1.315031e+3, 3.1402078e+2, -428626.7, -55745.52, -8004.5815, -0.057964403, 0.00759528, -55573.766, -55573.766, 0.0, 9.996403, 10.0013485 
1.3251244e+3, 1.2404959e+2, -1201384.3, -1701028.6, -83254.93, 0.10081979, 0.06204107, -1187876.9, 536441.9, 0.0061262264, 10.004573, 9.997887 
1.3251182e+3, 1.3404733e+2, -1182366.8, -1639602.8, 60617.543, -0.15658166, 0.050923202, -1174467.0, 451872.3, 0.0034935442, 10.003988, 9.997929 
1.3251168e+3, 1.4404435e+2, -1159174.6, -1602119.4, -10143.072, 0.105054945, -0.033983633, -1158942.5, 369425.63, 0.0013976031, 10.003581, 9.9977 
1.3251106e+3, 1.5404294e+2, -1081558.0, -1520410.1, -10284.436, 0.044259015, 0.059270494, -1081317.1, 349066.4, 0.00029637254, 10.003467, 9.9976425 
1.3251047e+3, 1.640411e+2, -986813.9, -1364297.4, 16860.078, -0.0015587945, 0.08785787, -986062.3, 346340.0, 0.000014169166, 10.003185, 9.998178 
1.3250995e+3, 1.7403868e+2, -959471.6, -1289210.3, 9366.91, -0.031308506, 0.0168229, -959205.75, 275219.72, 0.0, 10.002652, 9.998276 
1.3250944e+3, 1.840368e+2, -917306.0, -1217395.8, -5128.359, -0.042290464, 0.0012160136, -917218.4, 219225.06, 0.0, 10.002264, 9.998284 
1.325089e+3, 1.940357e+2, -841971.4, -1126403.1, 8614.566, -0.026223999, 0.05680906, -841710.7, 196743.52, 0.0, 10.002092, 9.998319 
1.3250841e+3, 2.0403421e+2, -781550.1, -1020961.8, 15590.201, -0.0057791853, 0.068691544, -780539.2, 159928.98, 0.0, 10.001723, 9.9985485 
1.325079e+3, 2.1403225e+2, -775491.2, -959881.06, 2490.8416, 0.02058052, 0.007909365, -775457.56, 67029.16, 0.0, 10.001061, 9.998613 
1.3250738e+3, 2.2403073e+2, -751865.1, -885264.06, -4242.091, 0.023036705, -0.008146646, -751730.4, -7229.634, 0.0, 10.000495, 9.998727 
1.3250683e+3, 2.3402989e+2, -712578.7, -809654.8, -4486.7554, -0.007772003, 0.02964223, -712371.75, -65863.42, 0.0, 10.000067, 9.998779 
1.325063e+3, 2.4402875e+2, -686378.75, -754773.1, 3424.3564, -0.026057493, 0.041139647, -686207.75, -137688.06, 0.0, 9.99961, 9.998704 
1.3250579e+3, 2.5402716e+2, -657993.75, -686036.06, 11140.293, -0.026767474, 0.006310838, -654106.9, -203570.55, 0.0, 9.999113, 9.998741 
1.3250527e+3, 2.640262e+2, -564959.9, -499960.56, 10602.81, -0.031124571, -0.00059773086, -498274.75, -145729.06, 0.0, 9.99869, 9.99955 
1.3250476e+3, 2.7402604e+2, -504573.16, -406411.63, -9234.937, -0.039280463, 0.016002143, -405550.38, -151004.95, 0.0, 9.998371, 9.999673 
1.3250427e+3, 2.8402552e+2, -487938.97, -388591.56, -2339.511, -0.03669418, 0.015661037, -388536.5, -231986.13, 0.0, 9.99799, 9.999305 
1.3250382e+3, 2.9402468e+2, -458877.25, -325441.0, 9050.235, -0.02026126, 0.0012483997, -324829.97, -266268.8, 0.0, 9.997522, 9.99929 
1.325033e+3, 3.0402547e+2, -396956.47, -127432.695, -3480.1218, -0.041781, 0.09187607, -127387.766, -127387.766, 0.0, 9.997001, 10.0005665 
1.3250272e+3, 3.1402543e+2, -447667.8, -96523.09, 21520.506, -0.06959106, 0.014433691, -95209.086, -95209.086, 0.0, 9.996409, 10.001065 
1.3351284e+3, 1.24054156e+2, -1199826.4, -1696982.1, -114378.1, 0.045563538, 0.045544803, -1174774.4, 549501.5, 0.006483833, 10.004569, 9.997917 
1.3351227e+3, 1.3405278e+2, -1180090.3, -1633013.5, 38345.77, -0.115425885, 0.11778249, -1176866.8, 449421.47, 0.003708627, 10.003982, 9.997976 
1.3351206e+3, 1.4405002e+2, -1135437.5, -1552375.1, -17549.379, 0.13146077, 0.03753792, -1134700.1, 393614.2, 0.0014945039, 10.003579, 9.998042 
1.3351136e+3, 1.540478e+2, -1053491.4, -1463506.9, -14443.463, 0.0006931636, 0.012439089, -1052983.3, 377352.16, 0.00032323142, 10.003471, 9.998031 
1.3351075e+3, 1.6404592e+2, -1001747.1, -1395896.9, -2906.4688, -0.041968506, 0.023419552, -1001725.7, 330628.75, 0.000017128494, 10.003186, 9.99796 
1.3351029e+3, 1.7404453e+2, -979454.3, -1331336.3, -11247.308, 0.041505586, 0.08553358, -979095.2, 255274.53, 0.00000000003443261, 10.002654, 9.997987 
1.3350977e+3, 1.840429e+2, -893608.44, -1168341.3, -14155.501, 0.060403947, 0.09637527, -892881.0, 243504.4, 0.0, 10.002264, 9.998622 
1.3350914e+3, 1.940409e+2, -813829.06, -1067641.4, 1623.4169, -0.013011107, 0.021226913, -813818.7, 224583.33, 0.0, 10.0020895, 9.998725 
1.3350853e+3, 2.0403914e+2, -801464.1, -1061008.6, -9175.471, -0.044778213, -0.0051767854, -801140.2, 139277.8, 0.0, 10.001717, 9.998278 
1.3350797e+3, 2.1403778e+2, -799645.3, -1010334.6, -23142.389, -0.015024073, 0.030419212, -797133.3, 45299.527, 0.0, 10.0010605, 9.998268 
1.3350742e+3, 2.2403641e+2, -753277.7, -888747.7, -22236.803, -0.00078737776, 0.047256228, -749721.0, -5274.2876, 0.0, 10.000497, 9.998702 
1.3350683e+3, 2.34035e+2, -712200.56, -808700.3, -20226.709, -0.009206785, 0.026356552, -708132.5, -61673.176, 0.0, 10.000065, 9.998788 
1.3350627e+3, 2.4403371e+2, -673080.2, -726534.5, -15204.439, -0.018422704, 0.013768787, -669058.06, -120586.86, 0.0, 9.999605, 9.9989 
1.3350569e+3, 2.5403258e+2, -643371.06, -655711.7, -6915.024, -0.02889889, 0.0059130597, -640273.6, -189791.56, 0.0, 9.999112, 9.99895 
1.3350514e+3, 2.6403168e+2, -594797.7, -562668.06, -1779.8999, -0.03397183, 0.01302478, -562569.75, -210078.66, 0.0, 9.998692, 9.999119 
1.335046e+3, 2.7403098e+2, -540757.56, -479498.25, -19374.54, -0.03113842, 0.02482143, -473885.0, -219386.89, 0.0, 9.998362, 9.999176 
1.3350408e+3, 2.8403023e+2, -470251.0, -350376.47, -18161.078, -0.03523244, 0.016687697, -347685.47, -191179.89, 0.0, 9.997982, 9.999572 
1.3350354e+3, 2.9402962e+2, -434358.53, -273897.28, -6403.9194, -0.049389068, -0.010994274, -273642.1, -215130.06, 0.0, 9.997519, 9.999647 
1.3350296e+3, 3.0403033e+2, -393741.16, -121469.88, -24302.084, -0.065393366, 0.049980544, -119317.766, -119317.766, 0.0, 9.997002, 10.0006075 
1.335024e+3, 3.14031e+2, -464575.5, -127011.4, 4523.433, -0.051125396, 0.047049347, -126950.8, -126950.8, 0.0, 9.996389, 10.000866 
1.3451326e+3, 1.2405938e+2, -1263295.1, -1724079.4, -86510.71, 0.032053716, 0.041124765, -1247588.4, 476636.94, 0.0068388926, 10.004119, 9.997947 
1.3451268e+3, 1.3405818e+2, -1150263.0, -1615217.0, 69539.27, -0.099081576, 0.1276173, -1140085.4, 486150.8, 0.003922294, 10.004175, 9.998005 
1.3451244e+3, 1.4405552e+2, -1066160.9, -1511034.0, 5165.52, 0.12837, 0.05211146, -1066101.0, 462160.5, 0.0015908603, 10.004022, 9.998114 
1.3451171e+3, 1.540533e+2, -1033904.7, -1446309.1, -16794.682, -0.0034905402, 0.019464727, -1033221.9, 397060.5, 0.0003501717, 10.003573, 9.998099 
1.3451107e+3, 1.6405144e+2, -1008705.3, -1396508.9, -16390.936, -0.04395606, 0.03014031, -1008013.75, 324287.16, 0.000020254476, 10.003127, 9.997985 
1.3451058e+3, 1.740502e+2, -970896.6, -1324700.6, -3081.939, 0.047626298, 0.103325315, -970869.8, 263445.2, 0.0000000014653116, 10.002702, 9.99801 
1.3451e+3, 1.8404858e+2, -896307.5, -1165858.3, 1199.3555, 0.071702644, 0.111907914, -896302.1, 240028.4, 0.0, 10.002229, 9.998655 
1.3450934e+3, 1.940464e+2, -871692.56, -1091248.5, -11268.531, -0.00239729, 0.015846126, -871115.75, 167232.88, 0.0, 10.001675, 9.998762 
1.3450868e+3, 2.0404463e+2, -864026.75, -1093072.1, -28296.035, -0.04055777, -0.012416715, -860582.8, 79781.805, 0.0, 10.001296, 9.99826 
1.3450809e+3, 2.140435e+2, -784937.5, -1005719.56, -19487.281, -0.026120994, 0.04834985, -783230.7, 59147.01, 0.0, 10.001172, 9.998246 
1.3450746e+3, 2.2404218e+2, -704754.2, -865756.6, -9677.202, -0.015948454, 0.07131729, -704174.56, 40216.758, 0.0, 10.000833, 9.998698 
1.3450685e+3, 2.3404054e+2, -694984.25, -799664.1, -11058.995, -0.012678355, 0.029399827, -693828.7, -47422.79, 0.0, 10.000182, 9.998791 
1.3450623e+3, 2.4403921e+2, -662805.06, -709826.9, -6045.862, -0.015217059, 0.008516936, -662040.1, -113622.4, 0.0, 9.999629, 9.9990015 
1.3450561e+3, 2.540383e+2, -620335.94, -631805.25, -5588.782, -0.02555221, 0.009633175, -618063.06, -167637.39, 0.0, 9.999218, 9.999063 
1.3450502e+3, 2.6403737e+2, -589390.06, -583193.3, 7187.6436, -0.033541933, 0.018407209, -578464.7, -226029.84, 0.0, 9.998832, 9.99891 
1.3450444e+3, 2.7403638e+2, -539781.25, -505495.22, 6590.428, -0.038406745, 0.023653768, -504272.06, -249825.83, 0.0, 9.9984865, 9.998936 
1.3450386e+3, 2.8403565e+2, -463970.06, -330402.34, 4877.7134, -0.043157168, 0.021866828, -330224.47, -173770.42, 0.0, 9.997955, 9.999721 
1.3450328e+3, 2.940354e+2, -471681.8, -269599.9, 2865.4873, -0.047364008, 0.011657365, -269559.28, -211103.58, 0.0, 9.99717, 9.999843 
1.3450266e+3, 3.0403584e+2, -432500.2, -135111.36, -10706.558, -0.056120273, 0.031999554, -134726.39, -134726.39, 0.0, 9.9967165, 10.000651 
1.3450204e+3, 3.1403676e+2, -423247.28, -113994.42, 20458.988, -0.056225426, 0.052844245, -112646.805, -112646.805, 0.0, 9.996705, 10.000803 
1.355137e+3, 1.2406533e+2, -1262600.0, -1722378.9, -89868.67, 0.05393762, 0.049302693, -1245658.5, 478507.84, 0.0071917553, 10.004117, 9.997961 
1.355131e+3, 1.340636e+2, -1148786.6, -1612048.8, 71664.7, -0.11014169, 0.08102145, -1137953.6, 488229.0, 0.00413449, 10.004176, 9.998026 
1.355128e+3, 1.440609e+2, -1081430.9, -1542940.9, -11133.255, 0.09064244, 0.010196668, -1081162.4, 447046.56, 0.0016863738, 10.004022, 9.997895 
1.355121e+3, 1.5405945e+2, -1052041.6, -1483949.4, -34071.11, 0.028301185, 0.07943045, -1049370.4, 380853.56, 0.0003769789, 10.003572, 9.997843 
1.3551141e+3, 1.6405772e+2, -990214.4, -1357811.0, -33887.742, -0.010626617, 0.10594793, -987116.5, 345124.75, 0.000023370363, 10.003125, 9.998252 
1.3551077e+3, 1.7405573e+2, -947622.9, -1276748.4, -19412.537, -0.012553203, 0.07141071, -946481.8, 287778.72, 0.0000000068048798, 10.002703, 9.998339 
1.3551015e+3, 1.8405388e+2, -915236.5, -1205271.5, -20511.555, -0.00894811, 0.051099118, -913793.06, 222485.08, 0.0, 10.002229, 9.998385 
1.355095e+3, 1.940522e+2, -894361.5, -1139224.0, -32552.549, 0.0038135916, 0.03926715, -890107.8, 148185.69, 0.0, 10.001677, 9.998432 
1.3550887e+3, 2.0405069e+2, -847356.25, -1059298.8, -35526.605, 0.0038560631, 0.04343151, -841559.7, 98748.14, 0.0, 10.001298, 9.998491 
1.3550821e+3, 2.1404943e+2, -764911.1, -963491.5, -24318.129, -0.0149275, 0.061772577, -761976.5, 80344.26, 0.0, 10.001168, 9.998539 
1.3550754e+3, 2.2404806e+2, -705447.7, -865640.06, -33366.324, -0.024494145, 0.06542841, -698775.7, 45558.36, 0.0, 10.000825, 9.998703 
1.3550685e+3, 2.3404656e+2, -697510.0, -804330.7, -35682.76, -0.02076105, 0.038931396, -686687.0, -40339.117, 0.0, 10.000178, 9.998761 
1.3550618e+3, 2.440453e+2, -661446.56, -706922.06, -22797.328, -0.018824201, 0.024304194, -651986.1, -103626.95, 0.0, 9.999628, 9.9990225 
1.3550554e+3, 2.5404432e+2, -618834.1, -627896.6, -20040.543, -0.019397909, 0.016817141, -602818.94, -152452.06, 0.0, 9.999213, 9.999092 
1.355049e+3, 2.640433e+2, -591393.8, -586348.56, -5381.0645, -0.032165524, 0.01530956, -582928.2, -230551.42, 0.0, 9.998826, 9.998891 
1.3550426e+3, 2.7404222e+2, -542192.4, -509502.03, -4759.635, -0.06358266, 0.014857694, -508823.13, -254433.45, 0.0, 9.998481, 9.998912 
1.3550363e+3, 2.8404167e+2, -461256.6, -324812.75, -22505.004, -0.064048104, 0.033082996, -321196.63, -164800.8, 0.0, 9.997954, 9.99976 
1.3550302e+3, 2.9404193e+2, -470070.22, -264509.8, -24369.06, -0.019711448, 0.06754387, -261660.38, -203267.81, 0.0, 9.997161, 9.999883 
1.3550237e+3, 3.0404186e+2, -431378.38, -131264.61, -12051.48, -0.019516727, 0.036079645, -130781.45, -130781.45, 0.0, 9.996709, 10.000683 
1.3550167e+3, 3.140425e+2, -419591.16, -103332.47, 24595.49, -0.0890724, 0.026622001, -101431.11, -101431.11, 0.0, 9.996692, 10.000884 
1.3651414e+3, 1.2407153e+2, -1187595.6, -1705836.3, -71342.32, 0.060512114, 0.04788668, -1177953.9, 546151.56, 0.007545291, 10.004721, 9.997785 
1.3651352e+3, 1.340697e+2, -1162443.6, -1638659.5, 75808.836, -0.11245316, 0.08985898, -1150666.9, 475456.8, 0.004346624, 10.00417, 9.997846 
1.3651317e+3, 1.4406696e+2, -1125459.9, -1562278.5, -11043.243, 0.06453254, 0.021190787, -1125180.9, 402970.2, 0.0017813653, 10.003712, 9.997911 
1.3651246e+3, 1.5406556e+2, -1071889.0, -1490343.0, -13770.25, 0.03845344, 0.0950415, -1071436.4, 358728.53, 0.0004035849, 10.003423, 9.997871 
1.3651174e+3, 1.6406383e+2, -996439.6, -1354138.5, -11115.5625, 0.005017649, 0.11517684, -996094.56, 336087.4, 0.000026350568, 10.003054, 9.998312 
1.3651103e+3, 1.7406169e+2, -964535.94, -1278164.8, -17611.635, -0.030600062, 0.05975703, -963550.06, 270652.3, 0.000000016360648, 10.002558, 9.9984 
1.3651034e+3, 1.8405987e+2, -926619.0, -1212729.5, -18253.096, -0.03303088, 0.04174488, -925459.2, 210760.4, 0.0, 10.002159, 9.998368 
1.3650969e+3, 1.9405852e+2, -861380.3, -1126275.9, -8516.614, 0.009031138, 0.06374065, -861106.75, 177125.9, 0.0, 10.001916, 9.998405 
1.3650902e+3, 2.0405711e+2, -807106.7, -1021795.2, -1321.9545, 0.020865602, 0.07330217, -807098.56, 133147.42, 0.0, 10.001498, 9.9986515 
1.3650832e+3, 2.1405569e+2, -801874.44, -960552.5, 768.9016, -0.010501995, 0.05708708, -801870.7, 40388.73, 0.0, 10.000828, 9.998722 
1.3650759e+3, 2.240543e+2, -780408.2, -903508.9, -15023.064, -0.026475191, 0.049986668, -778601.3, -34328.773, 0.0, 10.00032, 9.998684 
1.3650686e+3, 2.3405302e+2, -720155.94, -820258.9, -19637.635, -0.02072016, 0.046605226, -716441.4, -70156.22, 0.0, 10.000046, 9.998715 
1.3650616e+3, 2.4405178e+2, -650951.8, -708327.25, -7504.359, -0.02190695, 0.043117944, -649986.5, -101690.18, 0.0, 9.999729, 9.998963 
1.3650545e+3, 2.5405067e+2, -602413.6, -626069.94, -13094.14, -0.03305912, 0.02758162, -596596.3, -146290.78, 0.0, 9.999355, 9.999034 
1.3650477e+3, 2.6404962e+2, -587864.25, -565905.6, -3394.2688, -0.04196752, 0.018408328, -565392.94, -213077.38, 0.0, 9.998774, 9.999055 
1.365041e+3, 2.740487e+2, -615776.5, -523807.38, 10693.673, -0.04879942, 0.014240706, -522580.34, -268254.0, 0.0, 9.997889, 9.999097 
1.3650343e+3, 2.8404832e+2, -534793.6, -368229.84, 10567.685, -0.04915742, 0.039624326, -367562.06, -211231.17, 0.0, 9.997486, 9.999686 
1.3650274e+3, 2.9404855e+2, -387627.97, -235174.55, -2163.2148, -0.036569938, 0.087108806, -235143.86, -176816.16, 0.0, 9.997774, 9.999788 
1.3650206e+3, 3.0404806e+2, -326399.22, -74303.84, -8077.054, -0.03260344, 0.013495349, -74045.32, -74045.32, 0.0, 9.997404, 10.000738 
1.3650133e+3, 3.14049e+2, -495847.2, -114332.336, 27865.494, -0.07326263, 0.026925925, -112307.805, -112307.805, 0.0, 9.996057, 10.001113 
1.375146e+3, 1.24078006e+2, -1214365.9, -1760206.9, -94576.445, 0.044618774, 0.03262593, -1198443.3, 525599.06, 0.007904289, 10.004713, 9.9974165 
1.3751394e+3, 1.3407658e+2, -1189102.4, -1693682.5, 54524.8, -0.10652031, 0.15396488, -1183277.6, 442780.94, 0.004561567, 10.004169, 9.997468 
1.3751352e+3, 1.4407372e+2, -1107347.8, -1526103.0, -24062.61, 0.048391476, 0.08478875, -1105969.6, 422117.44, 0.0018768708, 10.003717, 9.9981575 
1.3751279e+3, 1.5407173e+2, -1049655.0, -1444811.4, -24553.213, 0.02488339, 0.066424444, -1048135.2, 381969.34, 0.00043006244, 10.003424, 9.998183 
1.3751204e+3, 1.6406983e+2, -1007172.9, -1376534.0, -30011.49, -0.0010850261, 0.059400607, -1004750.25, 327372.13, 0.000029160963, 10.003053, 9.998158 
1.375113e+3, 1.7406812e+2, -978122.4, -1307439.0, -36649.84, -0.009436722, 0.06845963, -974092.9, 260046.92, 0.000000027808229, 10.002561, 9.998198 
1.3751058e+3, 1.8406662e+2, -910842.06, -1180730.0, -29558.053, -0.0046433937, 0.08164651, -907642.8, 228511.8, 0.0, 10.002161, 9.998588 
1.3750988e+3, 1.9406536e+2, -843098.1, -1088124.3, -18171.838, 0.011712251, 0.08873567, -841757.8, 196408.08, 0.0, 10.001914, 9.99867 
1.3750917e+3, 2.0406395e+2, -801376.4, -1008948.56, -26517.537, 0.00946575, 0.07841584, -798042.3, 142136.31, 0.0, 10.0014925, 9.998743 
1.3750839e+3, 2.1406233e+2, -796999.3, -950206.8, -25011.121, -0.015264869, 0.035200674, -793019.6, 49173.71, 0.0, 10.000826, 9.998795 
1.3750763e+3, 2.2406092e+2, -783703.2, -910353.56, -27780.361, -0.024871245, 0.024514869, -777877.6, -33671.09, 0.0, 10.0003195, 9.998638 
1.3750687e+3, 2.3405989e+2, -724343.44, -828580.4, -29732.635, -0.013992768, 0.052459072, -716458.9, -70241.45, 0.0, 10.000044, 9.99866 
1.3750613e+3, 2.4405873e+2, -662446.8, -731257.4, -21375.5, -0.025653472, 0.06466673, -656347.3, -108118.375, 0.0, 9.999724, 9.998809 
1.3750535e+3, 2.5405738e+2, -615021.25, -650850.3, -26282.377, -0.06940436, 0.043517716, -601128.7, -150887.2, 0.0, 9.999349, 9.998868 
1.3750462e+3, 2.6405632e+2, -564096.2, -516335.25, -34595.273, -0.06570707, 0.028687874, -498178.72, -145927.48, 0.0, 9.998771, 9.999397 
1.3750394e+3, 2.7405575e+2, -588149.5, -466457.97, -21099.64, 0.0016362848, 0.01962204, -462903.4, -208646.84, 0.0, 9.997887, 9.999492 
1.3750322e+3, 2.840554e+2, -549061.06, -397227.44, 18382.133, -0.0030136155, 0.039650258, -395033.66, -238774.11, 0.0, 9.997483, 9.999489 
1.3750246e+3, 2.9405534e+2, -407462.1, -272980.28, 11461.259, -0.10290269, 0.07569902, -272010.47, -213749.69, 0.0, 9.997759, 9.9995365 
1.3750173e+3, 3.0405438e+2, -321901.78, -63977.758, -51455.746, -0.100913316, -0.031083485, -54091.313, -54091.313, 0.0, 9.997397, 10.0008135 
1.3750099e+3, 3.1405604e+2, -470445.56, -60519.793, -20117.004, -0.016121462, 0.038480755, -59534.92, -59534.92, 0.0, 9.996051, 10.001487 
1.3851504e+3, 1.2408493e+2, -1251246.4, -1774651.6, -95520.14, 0.034543093, 0.057915937, -1234359.0, 489617.3, 0.008273174, 10.004447, 9.997444 
1.3851437e+3, 1.3408352e+2, -1155412.3, -1672357.6, 81167.69, -0.092806615, 0.17713138, -1142967.4, 483024.13, 0.004782323, 10.004382, 9.997512 
1.3851391e+3, 1.4408052e+2, -1054131.3, -1498486.5, 6794.658, 0.043130174, 0.0899478, -1054027.4, 473993.5, 0.0019742043, 10.004076, 9.998175 
1.385131e+3, 1.5407841e+2, -1046315.25, -1442372.1, -17695.031, 0.007350695, 0.059450034, -1045526.2, 384513.16, 0.00045665295, 10.003444, 9.998191 
1.3851233e+3, 1.640765e+2, -1020493.2, -1383904.0, -26003.344, -0.012198967, 0.052961435, -1018642.0, 313415.13, 0.00003186285, 10.002966, 9.998151 
1.3851158e+3, 1.7407498e+2, -953646.75, -1296556.1, -18960.055, 0.012580209, 0.08041276, -952601.6, 281471.2, 0.000000039188958, 10.002734, 9.998188 
1.3851082e+3, 1.840735e+2, -887543.94, -1163907.5, -13600.304, 0.022451106, 0.09324093, -886876.25, 249211.14, 0.0, 10.002298, 9.998636 
1.3851006e+3, 1.9407204e+2, -889202.94, -1104041.5, -18705.82, 0.003116571, 0.07485123, -887586.4, 150514.02, 0.0, 10.001572, 9.998724 
1.3850926e+3, 2.0407064e+2, -855812.7, -1028318.8, -32651.111, -0.011378217, 0.060937203, -849839.5, 90273.39, 0.0, 10.001091, 9.998803 
1.3850847e+3, 2.1406934e+2, -772926.9, -932216.1, -32738.652, -0.01637427, 0.043653272, -766460.6, 75664.055, 0.0, 10.000963, 9.998851 
1.3850768e+3, 2.2406808e+2, -736218.9, -880661.2, -34550.81, -0.01786071, 0.038973153, -728379.75, 15757.006, 0.0, 10.000617, 9.998698 
1.3850687e+3, 2.3406684e+2, -731761.0, -824499.44, -29568.455, -0.015922563, 0.044285882, -723135.7, -76986.71, 0.0, 9.999962, 9.998726 
1.3850608e+3, 2.4406569e+2, -705183.6, -745893.9, -6802.5596, -0.030421361, 0.05011324, -704077.0, -155916.48, 0.0, 9.999409, 9.998858 
1.3850528e+3, 2.5406456e+2, -662582.44, -668558.6, 3547.0808, -0.06839459, 0.04564718, -660932.6, -210761.31, 0.0, 9.999002, 9.998912 
1.3850449e+3, 2.640636e+2, -572886.6, -522225.06, -11417.95, -0.065135084, 0.036702543, -519770.63, -167590.14, 0.0, 9.998719, 9.99938 
1.3850375e+3, 2.7406287e+2, -483009.22, -418252.06, -31117.604, -0.006046823, 0.01815337, -405723.22, -151536.36, 0.0, 9.99862, 9.999469 
1.3850299e+3, 2.8406256e+2, -453548.84, -336762.97, 4493.0615, -0.010506077, 0.03265234, -336590.34, -180400.77, 0.0, 9.998079, 9.999616 
1.385022e+3, 2.9406255e+2, -520602.13, -310895.25, 24965.232, -0.097424634, 0.064712845, -307964.16, -249775.06, 0.0, 9.996914, 9.9996805 
1.3850144e+3, 3.0406138e+2, -477887.6, -173101.19, -31769.398, -0.087791905, -0.058390282, -169824.92, -169824.92, 0.0, 9.996475, 10.000506 
1.3850063e+3, 3.1406307e+2, -325140.25, 10046.876, -35487.637, -0.023235444, 0.05143116, 13762.9, 13762.9, 0.0, 9.997048, 10.001489 
1.3951547e+3, 1.24092355e+2, -1222074.3, -1715509.1, -95704.91, 0.027093325, 0.11995371, -1204161.9, 519744.8, 0.00865538, 10.004454, 9.9978485 
1.3951483e+3, 1.340906e+2, -1126158.1, -1608963.4, 78412.59, -0.075245485, 0.16024677, -1113742.4, 512179.44, 0.0050115306, 10.004373, 9.9979515 
1.3951431e+3, 1.4408739e+2, -1070911.1, -1531171.5, -16714.213, 0.04232316, 0.03765965, -1070304.9, 457647.28, 0.0020748265, 10.004066, 9.997955 
1.3951343e+3, 1.5408567e+2, -1066788.4, -1485116.8, -42123.71, -0.014606074, 0.07442607, -1062588.9, 367380.03, 0.00048381835, 10.003445, 9.997898 
1.3951261e+3, 1.6408393e+2, -1010499.7, -1364863.4, -37406.88, -0.029589051, 0.09538132, -1006594.06, 325391.63, 0.000034571214, 10.002972, 9.99828 
1.3951188e+3, 1.740823e+2, -941258.3, -1271096.1, -27929.922, 0.0331137, 0.09472486, -938909.94, 295091.1, 0.00000005013657, 10.002733, 9.998364 
1.3951108e+3, 1.8408054e+2, -896360.5, -1181438.8, -40340.85, 0.044837978, 0.07723132, -890761.9, 245255.61, 0.0, 10.002294, 9.998518 
1.395102e+3, 1.940786e+2, -899216.0, -1125836.5, -46316.883, -0.017966364, 0.023896893, -890115.2, 147920.38, 0.0, 10.0015745, 9.998573 
1.3950935e+3, 2.0407724e+2, -853717.5, -1024550.7, -40176.37, -0.044101506, 0.021018831, -844740.6, 95307.59, 0.0, 10.001092, 9.998828 
1.3950858e+3, 2.1407676e+2, -770362.4, -926493.25, -37443.387, -0.015241504, 0.08169069, -761847.06, 80205.984, 0.0, 10.00096, 9.998892 
1.3950776e+3, 2.2407572e+2, -725827.25, -858382.06, -58266.38, -0.0069581172, 0.09218449, -703856.9, 40205.953, 0.0, 10.000612, 9.998855 
1.3950686e+3, 2.3407394e+2, -720190.4, -800284.44, -54175.67, -0.028956028, 0.023488788, -692867.0, -46787.594, 0.0, 9.99996, 9.998894 
1.3950601e+3, 2.4407269e+2, -687485.6, -709340.94, -23274.465, -0.03935015, 0.0008993218, -672701.1, -124610.31, 0.0, 9.999408, 9.999111 
1.3950521e+3, 2.5407222e+2, -644532.44, -630734.0, -11056.989, -0.033206142, 0.033109404, -624600.3, -174505.33, 0.0, 9.999, 9.999174 
1.3950439e+3, 2.6407135e+2, -600091.4, -578527.7, -15529.809, -0.043052774, 0.0413249, -570403.94, -218300.56, 0.0, 9.998717, 9.998995 
1.3950354e+3, 2.7407014e+2, -515473.94, -483869.72, -32697.938, -0.07609198, 0.013925095, -463355.7, -209238.97, 0.0, 9.998611, 9.9990225 
1.3950273e+3, 2.8406972e+2, -423223.72, -273916.8, -34767.195, -0.07584427, 0.022575311, -266218.0, -110097.375, 0.0, 9.998077, 10.000049 
1.3950196e+3, 2.9407015e+2, -485214.9, -237437.11, -16919.93, -0.025527516, 0.05005017, -236287.03, -178173.77, 0.0, 9.996913, 10.000187 
1.3950118e+3, 3.0406898e+2, -524807.9, -270813.88, -15126.686, 0.0009809026, -0.071442276, -269916.2, -269916.2, 0.0, 9.996476, 9.999835 
1.3950028e+3, 3.1407014e+2, -353611.47, -44404.934, -11647.385, -0.1041238, 0.0576523, -43966.816, -43966.816, 0.0, 9.997029, 10.001124 
1.4051595e+3, 1.2409993e+2, -1142153.5, -1668588.3, -66380.99, 0.030586157, 0.14382474, -1133912.3, 589921.44, 0.009055145, 10.004973, 9.997923 
1.4051527e+3, 1.34098e+2, -1151604.6, -1612589.3, 75606.27, -0.05797752, 0.15869127, -1139521.1, 486328.5, 0.0052526738, 10.004162, 9.998028 
1.405147e+3, 1.4409462e+2, -1138896.8, -1568030.6, -23854.709, 0.047039542, 0.018702602, -1137574.8, 390306.38, 0.0021808434, 10.003617, 9.997918 
1.4051378e+3, 1.5409319e+2, -1064417.8, -1489434.1, -32113.436, -0.013442083, 0.089032136, -1062005.0, 367890.8, 0.00051218417, 10.003486, 9.997848 
1.4051291e+3, 1.6409156e+2, -980036.0, -1337112.3, -20513.074, -0.03202505, 0.11893254, -978861.44, 353050.16, 0.000037386584, 10.003127, 9.998393 
1.4051214e+3, 1.740898e+2, -971835.75, -1270999.9, -15827.686, 0.030696377, 0.09241973, -971000.7, 262926.75, 0.00000006103049, 10.002461, 9.998495 
1.4051129e+3, 1.84088e+2, -940585.9, -1206062.1, -25867.938, 0.043762196, 0.06465815, -938088.8, 197855.2, 0.0, 10.002006, 9.998488 
1.4051037e+3, 1.9408613e+2, -861267.8, -1112448.5, -25342.674, -0.020490436, 0.02353852, -858736.4, 179225.39, 0.0, 10.001858, 9.9985285 
1.4050947e+3, 2.040848e+2, -804627.2, -1001122.94, -17134.412, -0.046491865, 0.023937298, -803144.25, 136830.42, 0.0, 10.001431, 9.998825 
1.4050865e+3, 2.140842e+2, -820511.3, -949851.6, -17918.166, -0.014643566, 0.07494529, -818074.94, 23905.613, 0.0, 10.000615, 9.998897 
1.4050779e+3, 2.2408323e+2, -788967.2, -873805.8, -36413.773, -0.005730028, 0.08539375, -775481.56, -31491.906, 0.0, 10.000116, 9.998986 
1.4050686e+3, 2.3408173e+2, -694894.7, -772439.75, -34565.703, -0.032300256, 0.030161075, -681724.0, -35720.633, 0.0, 10.000066, 9.999034 
1.4050595e+3, 2.4408062e+2, -633906.06, -678833.06, -17942.9, -0.039383736, 0.010591579, -627619.7, -79606.27, 0.0, 9.999756, 9.999152 
1.4050512e+3, 2.5408e+2, -630758.5, -620707.2, -24884.0, -0.018735876, 0.028974457, -600346.4, -150327.9, 0.0, 9.999079, 9.999205 
1.4050427e+3, 2.6407912e+2, -625021.1, -589391.4, -14429.675, -0.026217189, 0.032030582, -584280.6, -232253.42, 0.0, 9.998543, 9.999003 
1.4050338e+3, 2.74078e+2, -573552.1, -510492.6, 1272.6239, -0.07506015, 0.013521048, -510466.9, -256427.06, 0.0, 9.99821, 9.999032 
1.4050253e+3, 2.840776e+2, -458510.7, -298678.63, -16892.193, -0.08159874, 0.030716188, -296912.84, -140869.4, 0.0, 9.9978695, 9.999978 
1.4050168e+3, 2.9407808e+2, -401576.9, -206588.86, -45918.133, -0.022453092, 0.06432145, -196316.66, -138280.1, 0.0, 9.997526, 10.000103 
1.4050087e+3, 3.0407682e+2, -439991.28, -257958.67, -23087.7, 0.008788256, -0.044689827, -255076.05, -255076.05, 0.0, 9.997179, 9.999585 
1.4049993e+3, 3.1407753e+2, -374819.53, -41669.2, 15714.203, -0.11912823, 0.062123675, -40929.625, -40929.625, 0.0, 9.996827, 10.001241 
1.4151646e+3, 1.2410769e+2, -1160665.1, -1705582.4, -94005.81, 0.038004424, 0.12812385, -1144903.8, 578853.3, 0.00947888, 10.004968, 9.99767 
1.415157e+3, 1.3410577e+2, -1171394.6, -1653713.5, 45012.85, -0.041465335, 0.1738619, -1167229.8, 458544.3, 0.005510848, 10.004163, 9.997745 
1.4151508e+3, 1.4410232e+2, -1126946.3, -1546039.1, -32134.516, 0.055233873, 0.034438796, -1124496.6, 403310.3, 0.00229525, 10.003628, 9.998065 
1.4151415e+3, 1.5410104e+2, -1051538.9, -1462608.8, -36591.188, 0.005644878, 0.1030286, -1048307.1, 381512.4, 0.0005425402, 10.003484, 9.998034 
1.4151323e+3, 1.6409948e+2, -974690.1, -1325211.1, -44951.7, -0.02508728, 0.1242768, -969017.25, 362817.13, 0.000040406845, 10.003122, 9.998478 
1.4151235e+3, 1.7409757e+2, -966146.9, -1260245.0, -41199.117, 0.005225492, 0.0740057, -960484.5, 273367.03, 0.00000007226826, 10.002464, 9.998569 
1.4151147e+3, 1.8409592e+2, -936710.6, -1198795.6, -34052.004, 0.017529739, 0.05542654, -932358.6, 203508.03, 0.0, 10.0020075, 9.998538 
1.4151056e+3, 1.9409467e+2, -858302.2, -1106250.8, -30855.424, -0.006648922, 0.072008975, -854520.1, 183358.77, 0.0, 10.001856, 9.998573 
1.4150964e+3, 2.0409329e+2, -807130.5, -1005686.75, -46569.53, -0.021327524, 0.067970395, -796750.7, 143141.47, 0.0, 10.001427, 9.998796 
1.4150871e+3, 2.1409173e+2, -822735.75, -955077.7, -48713.64, -0.016982717, 0.024973225, -806738.5, 35168.22, 0.0, 10.000616, 9.998861 
1.4150779e+3, 2.2409064e+2, -781531.3, -858687.9, -41290.984, -0.017624889, 0.020405443, -763600.94, -19684.012, 0.0, 10.000116, 9.999091 
1.4150687e+3, 2.3409022e+2, -686516.6, -755354.9, -35892.285, -0.027188398, 0.063302875, -671207.2, -25286.496, 0.0, 10.000066, 9.999152 
1.4150594e+3, 2.4408942e+2, -646014.0, -704185.6, -41287.59, -0.032007013, 0.076798566, -624595.8, -76667.65, 0.0, 9.999755, 9.99898 
1.4150503e+3, 2.54088e+2, -645307.6, -650406.5, -49474.727, -0.027627641, 0.035448164, -598316.7, -148375.39, 0.0, 9.999075, 9.999003 
1.4150414e+3, 2.6408693e+2, -597977.5, -533932.1, -27351.69, -0.018323475, 0.011808761, -523841.1, -171889.53, 0.0, 9.998544, 9.999385 
1.4150327e+3, 2.7408645e+2, -543042.2, -447138.94, -9726.909, -0.0073105483, 0.014510182, -446162.34, -192205.8, 0.0, 9.998208, 9.999469 
1.4150235e+3, 2.8408632e+2, -497133.2, -378742.1, -29157.137, -0.032090623, 0.05443753, -371950.9, -215992.45, 0.0, 9.997869, 9.99943 
1.4150137e+3, 2.9408637e+2, -448843.28, -302857.78, -56081.305, -0.093811296, 0.1122716, -283801.34, -225843.06, 0.0, 9.997518, 9.999447 
1.4150052e+3, 3.0408505e+2, -429796.63, -237437.31, -34451.68, -0.06999057, 0.028512586, -231453.16, -231453.16, 0.0, 9.99718, 9.999726 
1.4149967e+3, 3.1408522e+2, -337769.25, 36189.164, 2230.0461, -0.07441568, 0.055742357, 36202.46, 36202.46, 0.0, 9.996821, 10.001779 
1.4251697e+3, 1.24116026e+2, -1158922.6, -1724063.9, -61926.605, 0.04129878, 0.10393443, -1152216.5, 571457.8, 0.00993418, 10.005066, 9.997495 
1.4251614e+3, 1.3411416e+2, -1135199.5, -1657912.0, 77781.516, -0.040955566, 0.17528331, -1123870.9, 501820.97, 0.005791347, 10.004508, 9.997549 
1.4251544e+3, 1.4411062e+2, -1076117.5, -1511860.3, 13844.256, 0.04852461, 0.03407144, -1075678.1, 452047.8, 0.0024211428, 10.00394, 9.998148 
1.425145e+3, 1.5410942e+2, -1056191.1, -1453116.1, 3201.9756, 0.015730783, 0.098569915, -1056165.3, 373572.06, 0.00057589833, 10.003402, 9.998137 
1.4251354e+3, 1.6410787e+2, -1005159.44, -1343281.6, -17057.273, -0.015098526, 0.118844666, -1004301.1, 327450.66, 0.00004378684, 10.002929, 9.998446 
1.425126e+3, 1.7410594e+2, -956625.9, -1260236.6, -23589.074, -0.008729235, 0.07041836, -954804.06, 278965.75, 0.00000008454083, 10.002551, 9.998525 
1.4251165e+3, 1.8410441e+2, -918687.2, -1174561.1, -13461.509, 0.0015165074, 0.059811465, -917980.94, 217803.16, 0.0, 10.002067, 9.998674 
1.4251073e+3, 1.941035e+2, -906699.44, -1111703.5, -2571.0986, 0.0061452533, 0.094640814, -906667.2, 131125.77, 0.0, 10.00145, 9.99873 
1.4250977e+3, 2.0410222e+2, -859019.9, -1027400.9, -13254.416, -0.0014615117, 0.09107718, -857982.94, 81822.016, 0.0, 10.001059, 9.998824 
1.4250879e+3, 2.1410044e+2, -767989.9, -927181.94, -12896.275, -0.023084503, 0.023784671, -766951.94, 74869.375, 0.0, 10.000986, 9.998875 
1.425078e+3, 2.2409925e+2, -709664.3, -834618.56, -7260.88, -0.029958222, 0.013025705, -709243.8, 34588.688, 0.0, 10.000654, 9.998997 
1.4250687e+3, 2.3409893e+2, -709107.7, -777532.25, -19478.129, -0.017786078, 0.07439965, -703951.44, -58115.137, 0.0, 9.99996, 9.99905 
1.4250591e+3, 2.4409813e+2, -686674.75, -725562.5, -30245.207, -0.018640436, 0.09598369, -670162.6, -122318.47, 0.0, 9.999484, 9.998962 
1.4250493e+3, 2.540967e+2, -610362.06, -633943.9, -25060.148, -0.036317095, 0.049216207, -594457.56, -144599.81, 0.0, 9.999317, 9.998999 
1.4250399e+3, 2.6409563e+2, -537852.6, -500489.06, -8559.656, -0.028893374, 0.027436532, -498621.47, -146753.9, 0.0, 9.998938, 9.999425 
1.4250311e+3, 2.7409527e+2, -531131.6, -436747.13, -21692.768, 0.008580673, 0.03912716, -432000.16, -178129.11, 0.0, 9.998267, 9.999513 
1.4250216e+3, 2.84095e+2, -507375.28, -391791.84, -30825.158, -0.016310895, 0.069405265, -384084.9, -228210.95, 0.0, 9.997832, 9.999357 
1.4250112e+3, 2.9409468e+2, -424527.72, -301028.88, -17385.766, -0.1146863, 0.09777843, -298628.03, -240750.34, 0.0, 9.997728, 9.999357 
1.425002e+3, 3.0409366e+2, -419843.0, -232380.73, 8302.189, -0.089899406, 0.048700213, -232013.77, -232013.77, 0.0, 9.997248, 9.999727 
1.4249934e+3, 3.1409362e+2, -404603.06, 28362.824, 23779.975, -0.052016538, 0.055705234, 29664.984, 29664.984, 0.0, 9.996258, 10.001996 
1.4351746e+3, 1.2412497e+2, -1166065.9, -1738135.3, -78247.61, 0.039448734, 0.06936031, -1155556.3, 568028.75, 0.010428231, 10.005062, 9.997401 
1.4351657e+3, 1.3412325e+2, -1143157.6, -1673098.0, 56849.633, -0.06113389, 0.16413967, -1137127.8, 488474.7, 0.0060980637, 10.004503, 9.997446 
1.4351581e+3, 1.441196e+2, -1075834.0, -1512012.5, -7802.4585, 0.021075321, 0.018192692, -1075694.5, 451943.3, 0.0025607685, 10.003941, 9.998147 
1.4351484e+3, 1.5411834e+2, -1054755.5, -1451041.3, -17045.54, 0.015780292, 0.07642555, -1054023.6, 375625.3, 0.00061337824, 10.003405, 9.998151 
1.4351384e+3, 1.6411681e+2, -1014835.94, -1364420.1, -33055.33, -0.0039213966, 0.104714, -1011737.8, 319925.56, 0.000047750204, 10.002932, 9.998301 
1.4351285e+3, 1.7411496e+2, -967929.5, -1284053.5, -37740.637, -0.014396443, 0.081222124, -963486.25, 270195.75, 0.00000010052836, 10.002552, 9.998362 
1.4351185e+3, 1.8411352e+2, -903421.1, -1143133.8, -36858.42, -0.007954805, 0.07739307, -897881.75, 237814.38, 0.0, 10.002066, 9.998891 
1.435109e+3, 1.9411266e+2, -887907.8, -1074334.6, -25987.643, 0.015616668, 0.09152922, -884353.0, 153350.75, 0.0, 10.001454, 9.998985 
1.435099e+3, 2.041116e+2, -853286.44, -1016163.1, -18555.504, 0.009760957, 0.09380549, -851199.3, 88513.57, 0.0, 10.00106, 9.998901 
1.4350888e+3, 2.141103e+2, -763888.8, -919003.25, -15480.823, -0.034098122, 0.0696457, -762358.9, 79365.305, 0.0, 10.000986, 9.998932 
1.4350787e+3, 2.2410904e+2, -730531.6, -877796.2, -32043.627, -0.043648116, 0.060675, -723861.3, 19875.197, 0.0, 10.000652, 9.998702 
1.4350688e+3, 2.341078e+2, -732502.2, -826084.6, -45302.082, -0.006262537, 0.06489993, -714165.1, -68415.086, 0.0, 9.999958, 9.998718 
1.4350589e+3, 2.4410675e+2, -677070.4, -705604.7, -38143.06, -0.003158867, 0.070831805, -650613.5, -102852.61, 0.0, 9.999482, 9.999102 
1.4350486e+3, 2.5410593e+2, -597758.4, -607522.8, -30342.943, -0.04699718, 0.06906709, -571907.4, -122139.48, 0.0, 9.999314, 9.999182 
1.4350386e+3, 2.6410517e+2, -558017.0, -542404.0, -31461.85, -0.059127685, 0.076877445, -517794.63, -166019.33, 0.0, 9.998936, 9.999139 
1.435029e+3, 2.7410448e+2, -555047.1, -485739.88, -44886.21, -0.029601397, 0.09024383, -463686.84, -209904.06, 0.0, 9.998262, 9.999179 
1.4350192e+3, 2.8410375e+2, -481324.4, -337902.5, -35005.043, -0.0379375, 0.07887612, -329814.88, -174025.44, 0.0, 9.997831, 9.999728 
1.4350091e+3, 2.94103e+2, -395610.06, -239863.16, -19091.033, -0.09055951, 0.017815398, -237557.17, -179761.89, 0.0, 9.997722, 9.999781 
1.4349997e+3, 3.0410263e+2, -427247.84, -247112.34, -25911.17, -0.055172633, 0.01340054, -243459.3, -243459.3, 0.0, 9.997243, 9.999629 
1.4349896e+3, 3.1410298e+2, -412169.56, 13833.908, -13932.439, -0.05736895, 0.07211926, 14289.082, 14289.082, 0.0, 9.996252, 10.0019 
1.4451797e+3, 1.24134615e+2, -1174436.5, -1743474.9, -49577.37, 0.02949193, 0.0553344, -1170149.4, 553340.44, 0.010967598, 10.005016, 9.997384 
1.4451703e+3, 1.3413318e+2, -1130509.6, -1669083.1, 83582.99, -0.05583435, 0.18047036, -1117836.3, 507668.75, 0.006434428, 10.004603, 9.997425 
1.4451623e+3, 1.4412946e+2, -1057997.5, -1513122.6, 17538.969, 0.027336825, 0.031650316, -1057322.5, 470218.97, 0.0027159145, 10.004108, 9.998057 
1.4451519e+3, 1.5412788e+2, -1044684.9, -1456445.5, -361.49216, 0.014583644, 0.068139575, -1044684.56, 384871.03, 0.00065595936, 10.003521, 9.998055 
1.4451413e+3, 1.6412629e+2, -1005737.6, -1354910.3, -8882.074, -0.0073363096, 0.09325558, -1005511.8, 326058.72, 0.000052490832, 10.002976, 9.998342 
1.445131e+3, 1.741247e+2, -969853.5, -1279245.4, 679.9953, -0.011690443, 0.09166906, -969852.0, 263734.7, 0.00000012546444, 10.002516, 9.998411 
1.4451206e+3, 1.8412328e+2, -900583.44, -1147389.5, 21.022623, -0.008027891, 0.0899661, -900583.44, 235017.22, 0.0, 10.002111, 9.998839 
1.4451103e+3, 1.9412212e+2, -843926.94, -1060048.5, -13682.081, -0.0036335445, 0.08055231, -843064.25, 194546.94, 0.0, 10.001788, 9.998921 
1.4451e+3, 2.0412102e+2, -804718.8, -986416.56, -14026.934, -0.008406319, 0.07808153, -803642.3, 135978.5, 0.0, 10.001367, 9.998958 
1.4450897e+3, 2.1412e+2, -784477.25, -921125.9, -10836.6, -0.022314971, 0.07578835, -783623.25, 58006.063, 0.0, 10.000813, 9.998999 
1.4450793e+3, 2.241188e+2, -777547.25, -907616.25, -25365.355, -0.022430718, 0.07372531, -772775.7, -29134.813, 0.0, 10.000362, 9.998636 
1.4450689e+3, 2.3411736e+2, -724271.06, -831042.56, -21730.662, -0.0057978425, 0.063490406, -720017.8, -74361.14, 0.0, 10.000054, 9.998638 
1.4450583e+3, 2.4411617e+2, -652591.9, -699360.56, -3892.3774, -0.010989195, 0.06350952, -652270.1, -104601.21, 0.0, 9.999674, 9.999052 
1.4450479e+3, 2.5411534e+2, -618628.1, -623099.44, -14273.802, -0.045996442, 0.06788832, -606415.94, -156739.78, 0.0, 9.999194, 9.999134 
1.4450374e+3, 2.641146e+2, -588446.7, -563571.2, -24358.541, -0.0603935, 0.08383122, -548658.7, -196975.23, 0.0, 9.998754, 9.999081 
1.4450271e+3, 2.7411395e+2, -543831.94, -486299.75, -19343.082, -0.048203833, 0.10619072, -480401.13, -226710.47, 0.0, 9.998366, 9.999125 
1.445017e+3, 2.841132e+2, -466019.06, -314668.28, 635.0083, -0.051735044, 0.083276995, -314665.63, -158967.69, 0.0, 9.9978695, 9.999869 
1.4450069e+3, 2.9411224e+2, -457641.38, -252863.55, -4937.1597, -0.06817259, -0.012108686, -252744.58, -195039.48, 0.0, 9.997222, 9.999932 
1.4449969e+3, 3.0411237e+2, -489188.78, -263723.9, -21106.607, -0.029265534, 0.023855304, -261765.05, -261765.05, 0.0, 9.996763, 9.999745 
1.444986e+3, 3.141126e+2, -362514.66, 40389.656, 2886.4385, -0.0747274, 0.062377945, 40410.332, 40410.332, 0.0, 9.996582, 10.001922 
1.4551845e+3, 1.24145016e+2, -1171558.8, -1738871.4, -63142.793, 0.0045650764, 0.05963242, -1164615.9, 558772.5, 0.011556648, 10.005022, 9.997415 
1.4551751e+3, 1.34144e+2, -1128730.3, -1664894.5, 67749.695, -0.027234666, 0.22243315, -1120301.9, 505097.5, 0.0068035047, 10.0046015, 9.997455 
1.4551666e+3, 1.4414021e+2, -1070547.0, -1538732.1, -6214.2583, 0.06460878, 0.07457141, -1070464.6, 456972.1, 0.0028881957, 10.0041065, 9.997883 
1.4551555e+3, 1.5413807e+2, -1058503.5, -1484481.5, -22482.26, 0.008250171, 0.0731365, -1057320.1, 372136.5, 0.00070428435, 10.003518, 9.997865 
1.4551441e+3, 1.6413634e+2, -991078.6, -1325824.9, -27673.926, -0.030026434, 0.08509799, -988806.25, 342666.56, 0.000058062662, 10.002979, 9.998542 
1.4551336e+3, 1.7413516e+2, -951955.4, -1243960.3, -16753.45, -0.0032093246, 0.100842185, -950997.3, 282486.4, 0.00000016567238, 10.0025215, 9.9986515 
1.4551228e+3, 1.8413371e+2, -922610.1, -1194036.3, -13822.972, -0.0027601488, 0.09804311, -921908.0, 213589.53, 0.0, 10.002113, 9.998518 
1.4551115e+3, 1.9413191e+2, -869932.06, -1114858.9, -25652.963, -0.051839862, 0.061928984, -867274.1, 170240.89, 0.0, 10.00179, 9.998545 
1.4551009e+3, 2.0413046e+2, -802681.7, -982323.56, -34926.12, -0.056014143, 0.044252608, -796130.25, 143398.23, 0.0, 10.001366, 9.998987 
1.4550908e+3, 2.1412954e+2, -779423.5, -911065.4, -31554.096, 0.008882087, 0.04327348, -772250.9, 69285.34, 0.0, 10.000813, 9.999069 
1.4550802e+3, 2.2412856e+2, -767060.25, -885537.75, -38253.13, 0.028491776, 0.053430296, -755782.8, -12237.501, 0.0, 10.00036, 9.998791 
1.4550687e+3, 2.3412755e+2, -712445.25, -806956.94, -32674.15, -0.01754084, 0.06959527, -702249.25, -56693.11, 0.0, 10.000054, 9.998803 
1.4550577e+3, 2.4412636e+2, -669264.4, -734523.94, -21198.76, -0.04215848, 0.07244573, -662982.8, -115414.47, 0.0, 9.999674, 9.998812 
1.4550471e+3, 2.5412497e+2, -638884.0, -664697.44, -31073.193, -0.035591435, 0.047141753, -618143.6, -168561.42, 0.0, 9.99919, 9.998851 
1.4550364e+3, 2.6412404e+2, -578019.25, -541025.7, -38391.613, -0.036289804, 0.050673116, -516907.34, -165315.58, 0.0, 9.998749, 9.999238 
1.4550255e+3, 2.7412373e+2, -530444.9, -457333.25, -32286.21, -0.05107153, 0.08638261, -445116.88, -191521.98, 0.0, 9.99836, 9.999327 
1.4550148e+3, 2.841232e+2, -470746.75, -324394.25, -21955.904, -0.060119726, 0.08113234, -321171.38, -165571.67, 0.0, 9.997867, 9.9998045 
1.4550042e+3, 2.9412237e+2, -465188.94, -268505.22, -27086.852, -0.050505888, 0.009733672, -264843.06, -207236.25, 0.0, 9.99722, 9.999827 
1.454994e+3, 3.0412298e+2, -467372.47, -218732.94, -27800.84, -0.016464686, 0.082554765, -215662.4, -215662.4, 0.0, 9.996763, 10.000054 
1.4549822e+3, 3.141228e+2, -358719.13, 50414.418, -4878.3823, -0.11123063, 0.042299535, 50472.58, 50472.58, 0.0, 9.9965725, 10.001996 
1.4651896e+3, 1.2415574e+2, -1135607.4, -1717242.3, -58727.04, 0.0029477759, 0.07410989, -1129737.0, 593547.3, 0.012194069, 10.005258, 9.99745 
1.4651798e+3, 1.3415463e+2, -1127243.0, -1658056.0, 68087.695, -0.022052933, 0.22274883, -1118648.5, 506647.16, 0.0072052004, 10.004588, 9.997507 
1.4651708e+3, 1.4415088e+2, -1087359.1, -1540438.6, 2855.128, 0.07068801, 0.07289277, -1087341.1, 439991.3, 0.003077842, 10.003967, 9.997935 
1.4651588e+3, 1.5414897e+2, -1065518.3, -1481936.1, 2368.48, 0.003921962, 0.088960566, -1065504.9, 363845.7, 0.0007585391, 10.003446, 9.997916 
1.4651471e+3, 1.6414726e+2, -994375.1, -1335172.1, 3823.7034, -0.03748361, 0.103334874, -994332.25, 337034.28, 0.00006440502, 10.002993, 9.99847 
1.4651361e+3, 1.741458e+2, -940166.94, -1247065.6, -9334.371, -0.0045808526, 0.09962656, -939883.3, 293496.56, 0.00000022299002, 10.002645, 9.9985695 
1.465125e+3, 1.8414421e+2, -907606.94, -1189595.3, -9401.509, -0.0016122503, 0.08902849, -907293.8, 228100.97, 0.0, 10.002232, 9.99849 
1.4651135e+3, 1.9414248e+2, -879586.94, -1122169.3, 3311.295, -0.05441621, 0.062427253, -879541.75, 157869.88, 0.0, 10.001738, 9.998519 
1.4651021e+3, 2.0414105e+2, -822607.0, -996363.4, 2529.6577, -0.060188722, 0.049752053, -822570.2, 116854.95, 0.0, 10.001249, 9.998946 
1.4650916e+3, 2.1414006e+2, -789468.4, -920821.75, -3728.0444, 0.004275154, 0.047989707, -789362.7, 52071.195, 0.0, 10.000766, 9.999024 
1.4650805e+3, 2.241391e+2, -760769.3, -873817.25, -9441.427, 0.023138825, 0.057374395, -759986.2, -16543.271, 0.0, 10.000365, 9.998867 
1.4650688e+3, 2.3413813e+2, -703026.8, -792309.1, -10347.668, -0.024457831, 0.07140282, -701843.25, -56390.758, 0.0, 10.000077, 9.998893 
1.4650574e+3, 2.4413696e+2, -672763.3, -746088.2, -3914.376, -0.04643361, 0.074163936, -672554.94, -125090.46, 0.0, 9.999694, 9.998722 
1.4650464e+3, 2.541355e+2, -648741.0, -681088.2, -2458.4167, -0.03131275, 0.0521905, -648555.2, -199075.45, 0.0, 9.999174, 9.998745 
1.4650352e+3, 2.6413453e+2, -580157.06, -533635.2, -1133.992, -0.027954213, 0.054473177, -533607.56, -182117.69, 0.0, 9.998699, 9.999312 
1.4650239e+3, 2.741342e+2, -534694.9, -449435.63, -4613.708, -0.04452627, 0.080801226, -449186.7, -195694.22, 0.0, 9.998288, 9.999415 
1.4650126e+3, 2.8413373e+2, -478223.34, -333101.3, -3673.039, -0.058541764, 0.07882113, -333008.4, -177511.72, 0.0, 9.997837, 9.999759 
1.4650014e+3, 2.9413313e+2, -451928.38, -268873.84, -8358.882, -0.058164105, 0.03403292, -268492.94, -210990.4, 0.0, 9.997341, 9.999764 
1.4649905e+3, 3.04134e+2, -441296.34, -201011.19, -4088.2517, -0.028224375, 0.13554989, -200941.64, -200941.64, 0.0, 9.99692, 10.000099 
1.4649788e+3, 3.1413335e+2, -375402.22, 9631.655, -8876.498, -0.10817636, 0.04082973, 9836.184, 9836.184, 0.0, 9.9966, 10.0017 
1.4751951e+3, 1.2416685e+2, -1132729.4, -1710240.6, -78751.305, 0.02364903, 0.099537455, -1122183.3, 600993.7, 0.012873764, 10.005255, 9.997501 
1.4751843e+3, 1.341652e+2, -1121759.3, -1645684.3, 43144.18, -0.04393463, 0.18412596, -1118230.3, 506962.5, 0.007635545, 10.004586, 9.997593 
1.4751744e+3, 1.4416155e+2, -1069600.5, -1504937.5, -18094.766, 0.04056802, 0.030373666, -1068849.8, 458378.22, 0.0032831812, 10.003972, 9.9981785 
1.4751622e+3, 1.5416059e+2, -1046348.6, -1443080.4, -17200.314, 0.0002816274, 0.114686124, -1045604.3, 383632.47, 0.0008184578, 10.0034485, 9.998182 
1.47515e+3, 1.6415906e+2, -1017241.6, -1384222.4, -11569.763, -0.032686897, 0.14733723, -1016877.25, 314374.16, 0.000071419374, 10.002997, 9.998132 
1.4751387e+3, 1.7415665e+2, -967120.0, -1304648.8, -22353.924, -0.017521668, 0.08861963, -965646.0, 267628.63, 0.0000002932695, 10.002649, 9.998172 
1.4751272e+3, 1.8415481e+2, -889778.94, -1153703.1, -28011.324, -0.0076370495, 0.0639447, -886838.75, 248453.25, 0.0, 10.002234, 9.998736 
1.4751154e+3, 1.9415383e+2, -857453.75, -1077685.0, -15259.368, -0.015512261, 0.08082137, -856401.5, 180899.39, 0.0, 10.001741, 9.998823 
1.4751038e+3, 2.0415276e+2, -830930.9, -1013726.94, -16505.256, -0.02636999, 0.09282041, -829452.5, 109858.375, 0.0, 10.001248, 9.998828 
1.4750919e+3, 2.1415159e+2, -800353.7, -944099.1, -21641.39, -0.036618326, 0.088489, -797166.2, 44156.11, 0.0, 10.000768, 9.998864 
1.4750803e+3, 2.2415039e+2, -761320.5, -875217.25, -21360.504, -0.037643414, 0.0839648, -757446.3, -14112.463, 0.0, 10.000365, 9.998859 
1.4750688e+3, 2.3414916e+2, -702797.4, -791950.94, -20541.547, -0.028506689, 0.069506235, -698292.1, -52946.676, 0.0, 10.000076, 9.998897 
1.4750573e+3, 2.4414799e+2, -669360.5, -738421.9, -22611.145, -0.02731668, 0.06948617, -662616.1, -115258.81, 0.0, 9.99969, 9.998777 
1.4750454e+3, 2.5414693e+2, -644823.56, -672213.3, -20907.531, -0.035803277, 0.0823164, -633524.94, -184156.06, 0.0, 9.99917, 9.998809 
1.4750338e+3, 2.6414606e+2, -580709.75, -535203.44, -15991.538, -0.036768872, 0.09394117, -530145.9, -178768.02, 0.0, 9.998699, 9.999303 
1.4750223e+3, 2.7414542e+2, -536816.0, -453160.25, -18153.482, -0.030959487, 0.08990672, -449390.78, -196007.5, 0.0, 9.998283, 9.999393 
1.4750105e+3, 2.8414485e+2, -481837.88, -339624.5, -21168.42, -0.050220978, 0.07797675, -336540.44, -181151.77, 0.0, 9.997832, 9.999717 
1.4749984e+3, 2.9414445e+2, -456317.78, -276351.4, -24888.463, -0.09521274, 0.06044999, -272972.9, -215580.44, 0.0, 9.997334, 9.999718 
1.4749871e+3, 3.0414543e+2, -455461.3, -230607.39, -15590.518, -0.06708338, 0.18118715, -229531.55, -229531.55, 0.0, 9.996919, 9.999899 
1.4749756e+3, 3.1414443e+2, -422189.1, -87605.44, -21575.271, -0.07174245, 0.08153837, -86219.914, -86219.914, 0.0, 9.996598, 10.001035 
1.4852004e+3, 1.2417862e+2, -1135651.8, -1704713.9, -42069.316, 0.030140359, 0.11535956, -1132558.5, 590504.1, 0.013594162, 10.005211, 9.997559 
1.4851886e+3, 1.341768e+2, -1139258.4, -1644444.1, 72809.1, -0.05685169, 0.17541839, -1128974.3, 496105.1, 0.008092636, 10.004426, 9.997679 
1.4851782e+3, 1.4417322e+2, -1085856.5, -1516422.6, 15616.303, 0.030358614, 0.023965003, -1085290.8, 441823.22, 0.0035028574, 10.003878, 9.998144 
1.4851658e+3, 1.5417238e+2, -1017180.4, -1432354.0, -4425.81, 0.0030139768, 0.12509926, -1017133.2, 411988.84, 0.00088362955, 10.003666, 9.99815 
1.4851533e+3, 1.6417088e+2, -971628.75, -1359934.1, -860.7261, -0.02399282, 0.16241981, -971626.9, 359509.6, 0.00007901186, 10.0033045, 9.998149 
1.4851414e+3, 1.7416838e+2, -951202.44, -1294939.6, 16505.9, -0.014468845, 0.09188444, -950411.7, 282748.6, 0.00000037325287, 10.002751, 9.998189 
1.4851294e+3, 1.8416652e+2, -891588.4, -1153235.8, 18039.652, -0.0031642525, 0.06271174, -890350.44, 244827.34, 0.0, 10.002217, 9.998747 
1.4851174e+3, 1.941656e+2, -860935.3, -1077599.1, 8370.027, -0.0012446586, 0.0870359, -860612.44, 176573.4, 0.0, 10.001713, 9.9988365 
1.4851052e+3, 2.0416458e+2, -831927.2, -1018642.94, 874.7783, -0.017095275, 0.10548167, -831923.1, 107272.28, 0.0, 10.001263, 9.998786 
1.4850925e+3, 2.1416341e+2, -787087.5, -943044.8, 2876.0486, -0.0536452, 0.10438635, -787034.44, 54172.645, 0.0, 10.000883, 9.998815 
1.4850804e+3, 2.2416215e+2, -747509.4, -873879.5, 9195.048, -0.06032196, 0.098369166, -746843.8, -3624.2666, 0.0, 10.000484, 9.99881 
1.4850688e+3, 2.3416077e+2, -709886.9, -801302.94, 4862.228, -0.028601045, 0.075785935, -709629.0, -64396.227, 0.0, 10.000054, 9.998842 
1.4850569e+3, 2.4415964e+2, -677775.0, -732135.2, -3374.0078, -0.018687505, 0.079093784, -677566.4, -130322.1, 0.0, 9.99959, 9.998867 
1.4850445e+3, 2.5415888e+2, -651881.44, -664254.9, -1008.9719, -0.03813775, 0.1105191, -651799.75, -202546.7, 0.0, 9.999074, 9.998909 
1.4850323e+3, 2.6415804e+2, -600687.3, -549689.0, 7251.984, -0.04538195, 0.12411468, -548677.8, -197416.6, 0.0, 9.998585, 9.999257 
1.4850204e+3, 2.7415714e+2, -561382.75, -471566.88, 1521.7677, -0.0392475, 0.09789087, -471541.1, -218272.11, 0.0, 9.998145, 9.999332 
1.4850082e+3, 2.8415638e+2, -493777.13, -351831.72, -1023.166, -0.057734333, 0.07606817, -351824.34, -196548.45, 0.0, 9.997781, 9.999657 
1.4849958e+3, 2.9415604e+2, -434904.1, -273320.22, -8428.75, -0.10127302, 0.06690381, -272881.75, -215601.88, 0.0, 9.997514, 9.999651 
1.484984e+3, 3.0415693e+2, -419399.0, -196733.58, 10202.651, -0.0726021, 0.17865473, -196267.06, -196267.06, 0.0, 9.997097, 10.000044 
1.4849724e+3, 3.1415635e+2, -456644.28, -128022.27, 28643.674, -0.054128084, 0.101596415, -125544.29, -125544.29, 0.0, 9.996467, 10.000819 
1.4952055e+3, 1.241911e+2, -1135429.1, -1701320.8, -68631.6, 0.019597253, 0.122672245, -1127224.5, 595716.44, 0.014364138, 10.005202, 9.997586 
1.495193e+3, 1.3418949e+2, -1135761.1, -1636466.1, 43216.89, -0.061444283, 0.19524878, -1132058.4, 492897.3, 0.008581448, 10.004426, 9.997733 
1.4951822e+3, 1.4418587e+2, -1104095.3, -1556918.8, 4065.1858, 0.03789186, 0.052736815, -1104058.8, 422932.0, 0.0037383062, 10.003887, 9.997863 
1.4951694e+3, 1.5418442e+2, -1038188.8, -1477290.3, -12335.316, 0.007990535, 0.1210887, -1037842.56, 391163.13, 0.0009541824, 10.00367, 9.997841 
1.4951567e+3, 1.6418283e+2, -947376.06, -1310108.8, -21420.463, -0.016404318, 0.15081148, -946115.5, 384905.3, 0.00008722728, 10.0033045, 9.998491 
1.4951442e+3, 1.74181e+2, -922830.5, -1236901.8, -4734.9146, 0.002508403, 0.108313516, -922759.1, 310277.7, 0.0000004647829, 10.002753, 9.998588 
1.4951317e+3, 1.841793e+2, -906713.3, -1185322.5, -2518.3816, 0.008736841, 0.0844526, -906690.56, 228361.67, 0.0, 10.002219, 9.998527 
1.4951189e+3, 1.9417784e+2, -879243.4, -1117492.9, -10782.964, -0.012358516, 0.08117363, -878756.3, 158309.94, 0.0, 10.001719, 9.99856 
1.4951062e+3, 2.0417656e+2, -830117.7, -1015185.56, -14470.642, -0.033055462, 0.08787352, -828993.06, 110085.37, 0.0, 10.001263, 9.998811 
1.4950936e+3, 2.1417554e+2, -782937.75, -935079.1, -11308.152, -0.049550112, 0.0969724, -782101.9, 58986.3, 0.0, 10.000884, 9.99887 
1.495081e+3, 2.2417437e+2, -754726.9, -888526.0, -7377.7334, -0.04917031, 0.10082734, -754321.25, -11221.306, 0.0, 10.000483, 9.998712 
1.495069e+3, 2.3417298e+2, -717839.25, -817434.8, -10832.296, -0.026813718, 0.09011239, -716674.7, -71560.34, 0.0, 10.0000515, 9.9987335 
1.4950565e+3, 2.4417193e+2, -670490.8, -716734.1, -22227.021, -0.021916797, 0.102250874, -661539.9, -114414.3, 0.0, 9.999587, 9.998976 
1.4950436e+3, 2.5417134e+2, -643619.0, -646531.06, -19139.87, -0.040047202, 0.13740261, -625879.9, -176747.77, 0.0, 9.999071, 9.999033 
1.4950308e+3, 2.641705e+2, -606644.7, -561634.06, -9032.612, -0.05619506, 0.14567228, -559889.06, -208749.03, 0.0, 9.998582, 9.999177 
1.4950182e+3, 2.7416936e+2, -568472.94, -485724.7, -13326.5, -0.07258031, 0.10446795, -483631.44, -230481.66, 0.0, 9.998141, 9.999238 
1.4950058e+3, 2.841684e+2, -500086.72, -365834.7, -10305.544, -0.08364782, 0.07231559, -365048.22, -209889.69, 0.0, 9.997782, 9.999561 
1.4949934e+3, 2.9416785e+2, -443200.6, -289350.1, -16318.243, -0.08041265, 0.054354306, -287638.34, -230473.5, 0.0, 9.997506, 9.999546 
1.4949813e+3, 3.0416855e+2, -385206.5, -124516.35, -11638.704, -0.049390838, 0.12878391, -123997.766, -123997.766, 0.0, 9.997091, 10.000544 
1.4949688e+3, 3.1416914e+2, -439797.1, -91613.16, 6414.5815, -0.0620752, 0.11407227, -91495.016, -91495.016, 0.0, 9.99646, 10.001072 
1.5052105e+3, 1.24203935e+2, -1189640.0, -1738143.0, -46260.78, 0.030713398, 0.121204, -1185765.8, 537049.4, 0.015195458, 10.004873, 9.997491 
1.5051974e+3, 1.3420242e+2, -1094675.6, -1624828.9, 51639.58, -0.055042095, 0.21138835, -1089692.6, 535137.25, 0.009109064, 10.00475, 9.997657 
1.5051864e+3, 1.441989e+2, -1038662.44, -1526698.9, 16103.872, 0.048561007, 0.08269614, -1038131.6, 488732.6, 0.003992713, 10.004348, 9.997848 
1.5051731e+3, 1.5419717e+2, -1048273.44, -1482457.9, 19640.678, 0.0032119507, 0.1252022, -1047386.8, 381494.28, 0.0010310245, 10.003603, 9.997838 
1.5051597e+3, 1.641955e+2, -986465.7, -1335680.4, 12357.346, -0.027306186, 0.14846371, -986029.0, 344868.13, 0.000096309515, 10.003064, 9.998432 
1.5051469e+3, 1.741938e+2, -920811.44, -1242646.1, -4646.3906, -0.002207783, 0.12585656, -920744.4, 312168.13, 0.000000575819, 10.002797, 9.998526 
1.5051341e+3, 1.8419217e+2, -879310.25, -1169664.4, -16321.249, 0.007407415, 0.10988175, -878395.7, 256531.89, 0.0, 10.0023985, 9.998547 
1.5051207e+3, 1.9419064e+2, -861687.5, -1106570.1, -4742.4644, -0.01573937, 0.097723626, -861595.7, 175346.02, 0.0, 10.00183, 9.998582 
1.5051074e+3, 2.0418923e+2, -827089.5, -1016260.44, 5622.108, -0.032606594, 0.091656774, -826922.56, 112032.195, 0.0, 10.001295, 9.998787 
1.5050945e+3, 2.1418801e+2, -797590.44, -944967.4, 2117.453, -0.037762508, 0.083455175, -797560.0, 43406.094, 0.0, 10.000798, 9.998843 
1.5050815e+3, 2.2418681e+2, -780246.06, -899466.56, 5826.5386, -0.037449017, 0.08853362, -779961.94, -36983.977, 0.0, 10.000303, 9.998721 
1.5050688e+3, 2.3418573e+2, -752833.5, -833034.25, 9886.491, -0.030726152, 0.103670694, -751632.75, -106642.37, 0.0, 9.999808, 9.998743 
1.5050559e+3, 2.4418478e+2, -692531.9, -723627.3, 4119.5166, -0.030972302, 0.124931835, -691995.4, -144994.67, 0.0, 9.999422, 9.999006 
1.5050428e+3, 2.5418404e+2, -624271.0, -633546.1, -1260.048, -0.041192457, 0.14409971, -624102.9, -175094.81, 0.0, 9.99919, 9.9990635 
1.5050295e+3, 2.641831e+2, -571850.3, -540243.4, 4450.3237, -0.053686056, 0.1396506, -539628.75, -188612.23, 0.0, 9.998803, 9.999217 
1.5050164e+3, 2.741819e+2, -557746.44, -476088.78, 8565.106, -0.07139478, 0.09260919, -475200.06, -222173.83, 0.0, 9.9981985, 9.999276 
1.5050034e+3, 2.841811e+2, -526944.06, -383443.06, 23481.05, -0.07900264, 0.070375025, -379698.56, -224664.48, 0.0, 9.99762, 9.999517 
1.5049909e+3, 2.9418075e+2, -505670.84, -324707.5, 20444.662, -0.067036115, 0.079442784, -322426.5, -265387.8, 0.0, 9.997102, 9.999497 
1.5049782e+3, 3.0418104e+2, -416104.78, -108663.97, 21112.54, -0.046530075, 0.101124525, -107220.91, -107220.91, 0.0, 9.996748, 10.000818 
1.5049653e+3, 3.1418192e+2, -410544.78, -59122.973, 17627.81, -0.06498842, 0.08918425, -58240.95, -58240.95, 0.0, 9.996581, 10.001238 
1.5152156e+3, 1.24217235e+2, -1201906.3, -1765279.8, -50367.92, 0.061835546, 0.11849164, -1197438.5, 525245.94, 0.016091911, 10.004881, 9.997302 
1.5152024e+3, 1.342157e+2, -1108323.9, -1652198.3, 46415.63, -0.0429208, 0.22350642, -1104391.1, 520310.13, 0.009677582, 10.004746, 9.997471 
1.5151908e+3, 1.4421235e+2, -1024294.6, -1495835.9, -11497.286, 0.05720652, 0.114055015, -1024014.5, 502719.53, 0.0042675883, 10.004344, 9.998063 
1.5151764e+3, 1.5421069e+2, -1029687.3, -1444764.1, -8808.002, -0.01153247, 0.13714649, -1029500.5, 399247.72, 0.0011149633, 10.003606, 9.9980955 
1.5151624e+3, 1.642089e+2, -1015422.9, -1397809.6, -451.6064, -0.057430543, 0.15551384, -1015422.3, 315342.84, 0.000106548556, 10.003072, 9.998003 
1.5151495e+3, 1.7420684e+2, -954831.4, -1314326.6, -14625.011, -0.03042279, 0.14371668, -954237.4, 278549.44, 0.0000007145684, 10.0028, 9.998034 
1.5151362e+3, 1.8420514e+2, -863120.06, -1135922.4, -37295.266, -0.009932446, 0.13794722, -858113.25, 276690.06, 0.0, 10.002397, 9.99878 
1.5151225e+3, 1.94204e+2, -840152.0, -1063259.3, -26176.805, -0.012982079, 0.13584408, -837121.9, 199690.16, 0.0, 10.001834, 9.9988785 
1.515109e+3, 2.0420259e+2, -832252.2, -1027655.9, -14034.724, -0.018163214, 0.11604757, -831249.3, 107574.89, 0.0, 10.001296, 9.99871 
1.5150955e+3, 2.1420081e+2, -805646.0, -961672.75, -16494.535, -0.020668449, 0.06358908, -803921.4, 36919.465, 0.0, 10.000796, 9.99873 
1.515082e+3, 2.2419953e+2, -773722.2, -884814.5, -13247.951, -0.027459541, 0.0608099, -772164.25, -29310.709, 0.0, 10.000298, 9.998825 
1.5150684e+3, 2.3419897e+2, -743870.9, -815113.25, -8087.36, -0.04147058, 0.11694109, -742964.4, -98103.67, 0.0, 9.99981, 9.998865 
1.5150551e+3, 2.4419814e+2, -696137.75, -731711.3, -5276.8154, -0.048073556, 0.14701322, -695371.5, -148501.89, 0.0, 9.999423, 9.998951 
1.5150419e+3, 2.54197e+2, -629449.7, -643762.4, -8856.615, -0.044096842, 0.1308766, -625219.5, -176338.72, 0.0, 9.9991865, 9.998996 
1.5150285e+3, 2.641959e+2, -562189.25, -519319.7, -16196.475, -0.040155634, 0.10642398, -513888.6, -162997.9, 0.0, 9.998798, 9.999364 
1.5150149e+3, 2.7419493e+2, -547387.75, -453593.75, -12311.528, -0.037961505, 0.06358742, -452004.66, -199106.22, 0.0, 9.998193, 9.9994335 
1.5150015e+3, 2.8419447e+2, -525877.8, -381295.22, 4020.2517, -0.04666052, 0.07178283, -381183.5, -226280.94, 0.0, 9.997618, 9.999535 
1.5149881e+3, 2.9419476e+2, -505296.1, -323896.84, 2804.1147, -0.06554858, 0.14207333, -323853.53, -266952.1, 0.0, 9.9971, 9.999505 
1.5149748e+3, 3.0419436e+2, -412902.5, -103520.67, 15788.928, -0.06826618, 0.09341644, -102716.984, -102716.984, 0.0, 9.996751, 10.000853 
1.5149617e+3, 3.141947e+2, -403563.94, -43248.773, 15700.07, -0.07005641, 0.023509413, -42565.965, -42565.965, 0.0, 9.996573, 10.001352 
1.5252209e+3, 1.24230586e+2, -1136184.3, -1738003.9, -56064.363, 0.06577217, 0.116085954, -1131005.9, 591548.0, 0.017049035, 10.005368, 9.997253 
1.5252069e+3, 1.342291e+2, -1143297.8, -1673876.3, 44672.45, -0.056747198, 0.22925672, -1139562.9, 485008.06, 0.010284097, 10.004525, 9.997429 
1.525195e+3, 1.4422593e+2, -1071104.4, -1507839.4, -9212.789, 0.054741245, 0.13487884, -1070910.1, 455692.0, 0.0045615416, 10.003975, 9.998159 
1.5251802e+3, 1.5422422e+2, -994273.1, -1414512.4, -17532.148, -0.0077716615, 0.14044264, -993542.94, 435073.06, 0.0012058237, 10.003793, 9.998214 
1.5251657e+3, 1.6422236e+2, -973799.2, -1381796.6, -2445.7039, -0.054598793, 0.14884971, -973784.5, 356848.63, 0.000118081814, 10.003378, 9.997964 
1.525152e+3, 1.7422026e+2, -977863.25, -1331733.0, 13240.72, -0.039885376, 0.13921598, -977368.5, 255287.0, 0.0000008766353, 10.00267, 9.997976 
1.5251385e+3, 1.8421856e+2, -900201.2, -1156669.1, 2132.5737, -0.022584748, 0.13736916, -900183.44, 234488.89, 0.0, 10.002154, 9.9987545 
1.5251245e+3, 1.9421747e+2, -833210.1, -1062391.1, -10205.888, -0.017044708, 0.14273323, -832756.5, 203924.23, 0.0, 10.001894, 9.998855 
1.5251102e+3, 2.0421611e+2, -811243.7, -1013607.06, -14236.217, -0.014286303, 0.12802438, -810247.1, 128445.38, 0.0, 10.001427, 9.998742 
1.5250963e+3, 2.1421437e+2, -819995.3, -965010.5, -7848.551, -0.010379963, 0.07765359, -819571.75, 21136.84, 0.0, 10.000684, 9.998761 
1.5250823e+3, 2.2421311e+2, -787898.06, -885845.6, 9784.01, -0.017561475, 0.07153807, -786930.3, -44209.32, 0.0, 10.000176, 9.998876 
1.5250684e+3, 2.3421247e+2, -714975.1, -795293.25, 8845.057, -0.04253401, 0.11640464, -714012.56, -69284.45, 0.0, 9.999985, 9.998917 
1.5250546e+3, 2.442116e+2, -666472.56, -714607.25, 8507.981, -0.051056627, 0.1352157, -665013.0, -118275.61, 0.0, 9.999617, 9.998975 
1.525041e+3, 2.5421035e+2, -655118.44, -653862.1, 10333.121, -0.036740787, 0.10882406, -644138.06, -195388.77, 0.0, 9.999002, 9.999015 
1.5250272e+3, 2.6420933e+2, -603112.9, -531520.6, 1619.922, -0.027652107, 0.08852516, -531484.0, -180725.33, 0.0, 9.998487, 9.99943 
1.5250131e+3, 2.7420864e+2, -555180.06, -449506.44, -3194.2378, -0.026905412, 0.06785698, -449410.0, -196645.8, 0.0, 9.998107, 9.999502 
1.5249991e+3, 2.842084e+2, -501133.75, -360097.25, 15166.585, -0.037051816, 0.08837855, -358484.75, -203718.14, 0.0, 9.99775, 9.999616 
1.5249853e+3, 2.942087e+2, -452729.25, -289122.38, 18443.818, -0.05992268, 0.1556521, -287068.94, -230304.27, 0.0, 9.997422, 9.999588 
1.5249716e+3, 3.0420792e+2, -401615.4, -111777.086, 27542.969, -0.07290485, 0.0696688, -109182.93, -109182.93, 0.0, 9.996892, 10.000727 
1.5249583e+3, 3.1420872e+2, -467393.9, -64203.785, 15382.054, -0.0626456, 0.057502013, -63617.8, -63617.8, 0.0, 9.996096, 10.001437 
1.5352261e+3, 1.24244094e+2, -1134362.4, -1730113.5, -83602.73, 0.04399951, 0.11684231, -1122852.6, 599569.9, 0.018060988, 10.005354, 9.997317 
1.535211e+3, 1.3424268e+2, -1137535.4, -1662903.5, 13097.616, -0.09685118, 0.22982627, -1137209.0, 487229.28, 0.01092561, 10.004532, 9.997502 
1.5351988e+3, 1.4423966e+2, -1069848.6, -1508208.0, -18990.207, 0.039953746, 0.14710894, -1069027.5, 457440.5, 0.0048726792, 10.003988, 9.998151 
1.5351842e+3, 1.5423776e+2, -995337.06, -1415798.5, -24525.14, 0.010108011, 0.13492566, -993911.4, 434572.47, 0.0013028046, 10.003789, 9.998207 
1.5351695e+3, 1.6423592e+2, -952479.2, -1336832.8, -28609.73, -0.025186239, 0.1294148, -950361.25, 380139.1, 0.00013086536, 10.003372, 9.998277 
1.5351549e+3, 1.742341e+2, -953139.9, -1281953.1, -13637.078, -0.033035588, 0.11428515, -952575.25, 279943.0, 0.0000010420176, 10.002675, 9.998317 
1.5351406e+3, 1.8423244e+2, -919152.3, -1197186.5, -9909.971, -0.032487743, 0.11083354, -918799.56, 215734.92, 0.0, 10.002158, 9.998476 
1.5351261e+3, 1.9423105e+2, -857294.7, -1111653.9, -19903.496, -0.03017161, 0.11868954, -855746.7, 180800.98, 0.0, 10.001889, 9.99852 
1.5351115e+3, 2.0422979e+2, -803132.2, -995443.8, -41347.64, -0.023736384, 0.1267, -794619.2, 143940.28, 0.0, 10.001418, 9.998872 
1.5350969e+3, 2.1422872e+2, -807624.94, -940471.8, -35391.113, -0.008204723, 0.12482344, -798784.8, 41784.523, 0.0, 10.000687, 9.998929 
1.5350825e+3, 2.2422753e+2, -788495.7, -888047.94, 613.1612, -0.009848457, 0.119950816, -788491.9, -45911.555, 0.0, 10.000179, 9.99886 
1.5350685e+3, 2.3422626e+2, -717244.75, -799982.7, 2352.905, -0.03561016, 0.102047205, -717177.9, -72585.25, 0.0, 9.999983, 9.998886 
1.5350543e+3, 2.4422508e+2, -660551.44, -700985.06, -13301.031, -0.041946407, 0.0897803, -656568.3, -109964.33, 0.0, 9.99961, 9.999072 
1.5350401e+3, 2.542241e+2, -648387.2, -639661.25, -11400.582, -0.021299582, 0.07872694, -631817.3, -183203.69, 0.0, 9.999, 9.999114 
1.5350258e+3, 2.642234e+2, -603765.5, -533484.44, -12520.511, -0.019301908, 0.08544233, -531320.56, -180700.03, 0.0, 9.998488, 9.999416 
1.5350111e+3, 2.7422306e+2, -556686.94, -452819.13, -15697.622, -0.042008806, 0.10328509, -450498.6, -197874.92, 0.0, 9.998106, 9.999481 
1.5349968e+3, 2.842228e+2, -492463.75, -341495.0, 4013.5657, -0.053705387, 0.11843012, -341388.38, -186761.98, 0.0, 9.997747, 9.999746 
1.5349828e+3, 2.9422265e+2, -443596.0, -269294.78, 8390.505, -0.052240893, 0.12338205, -268891.8, -212263.61, 0.0, 9.997418, 9.999727 
1.5349686e+3, 3.0422178e+2, -420865.0, -152385.05, -444.0124, -0.061692126, 0.032823242, -152384.31, -152384.31, 0.0, 9.996891, 10.00045 
1.5349545e+3, 3.1422374e+2, -461444.06, -51003.266, -7872.66, -0.05345359, 0.16786383, -50852.316, -50852.316, 0.0, 9.996091, 10.001532 
1.5452309e+3, 1.242581e+2, -1197613.6, -1746103.5, -61738.582, 0.032011125, 0.12745301, -1190750.3, 531536.1, 0.019126398, 10.004854, 9.997447 
1.5452157e+3, 1.3425663e+2, -1086236.8, -1623149.3, 32676.783, -0.10302434, 0.22070785, -1084255.3, 540046.4, 0.011602894, 10.004829, 9.997631 
1.5452032e+3, 1.442537e+2, -1010134.8, -1484168.0, -2470.027, 0.054235652, 0.14368172, -1010121.94, 516208.2, 0.0052013984, 10.004424, 9.998106 
1.5451877e+3, 1.5425186e+2, -1037492.44, -1441836.6, -13022.196, 0.0041226842, 0.1422282, -1037073.44, 391272.9, 0.0014056398, 10.003524, 9.998156 
1.5451725e+3, 1.6425009e+2, -1007215.4, -1348149.9, -19827.37, -0.033991277, 0.14047782, -1006066.2, 324296.2, 0.00014487762, 10.002932, 9.998411 
1.5451577e+3, 1.7424838e+2, -931139.44, -1254628.4, -19182.635, -0.022272624, 0.1210803, -930005.9, 302372.6, 0.000001197513, 10.002754, 9.998466 
1.5451428e+3, 1.8424675e+2, -898144.2, -1182265.8, -16835.893, -0.014399046, 0.111077495, -897150.0, 237243.89, 0.0, 10.002284, 9.998517 
1.5451278e+3, 1.942453e+2, -922446.1, -1139783.1, -1889.2723, -0.02283606, 0.11024798, -922429.7, 113977.84, 0.0, 10.001429, 9.998548 
1.5451127e+3, 2.04244e+2, -882073.7, -1043668.94, -9747.87, -0.025075508, 0.11750425, -881487.75, 56932.152, 0.0, 10.000921, 9.998779 
1.5450977e+3, 2.1424292e+2, -786249.25, -941411.9, -24305.432, -0.016610349, 0.12599635, -782531.0, 57899.395, 0.0, 10.000884, 9.998827 
1.545083e+3, 2.2424178e+2, -724044.25, -846618.0, 3048.9133, -0.014222917, 0.124404065, -723968.44, 18472.898, 0.0, 10.000578, 9.998952 
1.5450685e+3, 2.3424052e+2, -720687.5, -790046.75, 14014.659, -0.020807978, 0.10008765, -717962.8, -73510.1, 0.0, 9.99991, 9.998989 
1.545054e+3, 2.4423943e+2, -695739.25, -709408.94, -210.64018, -0.023089861, 0.08737252, -695736.0, -149272.97, 0.0, 9.999333, 9.999147 
1.5450391e+3, 2.542386e+2, -661253.8, -637999.3, -3125.9204, -0.020481443, 0.083306864, -637586.44, -189114.84, 0.0, 9.998879, 9.999184 
1.5450242e+3, 2.6423797e+2, -601038.7, -526135.06, 3561.4866, -0.028221814, 0.09293725, -525966.06, -175488.2, 0.0, 9.998482, 9.99947 
1.5450092e+3, 2.7423766e+2, -545736.25, -442138.66, 5279.5967, -0.048828356, 0.108499445, -441870.3, -189389.33, 0.0, 9.998159, 9.999528 
1.5449946e+3, 2.8423747e+2, -498325.0, -333939.7, 20832.139, -0.053917136, 0.12318689, -331340.75, -176857.61, 0.0, 9.997664, 9.999837 
1.5449801e+3, 2.9423743e+2, -510124.63, -290629.47, 18919.469, -0.039695483, 0.12987293, -289010.63, -232526.83, 0.0, 9.996918, 9.999822 
1.5449654e+3, 3.0423653e+2, -496644.7, -211048.36, 16446.432, -0.051546566, 0.044796366, -210104.39, -210104.39, 0.0, 9.99647, 10.000249 
1.5449508e+3, 3.1423843e+2, -394949.8, 820.4295, 18222.898, -0.053729616, 0.19533268, 1657.7158, 1657.7158, 0.0, 9.996465, 10.001706 
1.5552358e+3, 1.2427272e+2, -1182259.8, -1716826.9, -59476.46, 0.028986193, 0.15466072, -1175722.3, 546422.25, 0.020251278, 10.004873, 9.99764 
1.5552206e+3, 1.3427098e+2, -1074936.5, -1597630.8, 31751.21, -0.080387, 0.20205307, -1073014.9, 551145.94, 0.012321102, 10.004825, 9.997811 
1.5552078e+3, 1.4426813e+2, -1017735.5, -1498437.3, -34709.023, 0.0919472, 0.12713751, -1015242.25, 510945.94, 0.005550917, 10.004416, 9.998013 
1.555191e+3, 1.5426654e+2, -1043912.8, -1457342.3, -46720.71, -0.02683546, 0.16280863, -1038698.75, 389504.53, 0.0015153966, 10.003531, 9.998047 
1.5551749e+3, 1.6426489e+2, -1008013.25, -1352617.3, -29097.379, -0.08065753, 0.18120764, -1005573.6, 324645.3, 0.00016035176, 10.002942, 9.998377 
1.5551606e+3, 1.7426309e+2, -934223.2, -1260075.4, -25603.96, -0.010069822, 0.15635332, -932223.6, 300012.4, 0.0000013687348, 10.002749, 9.998432 
1.5551455e+3, 1.842615e+2, -875453.8, -1133861.9, -47741.707, 0.025698917, 0.13629209, -866915.5, 267334.78, 0.0, 10.002275, 9.998854 
1.5551296e+3, 1.9426024e+2, -895318.8, -1085633.4, -33932.1, 0.0028718966, 0.11746096, -889449.9, 146810.36, 0.0, 10.001436, 9.998917 
1.5551138e+3, 2.0425875e+2, -903571.5, -1090371.0, -13959.574, -0.019754456, 0.101922184, -902534.06, 35739.69, 0.0, 10.000929, 9.998456 
1.5550983e+3, 2.1425703e+2, -813126.8, -996964.06, -25281.744, -0.037605815, 0.08203002, -809713.4, 30578.4, 0.0, 10.000881, 9.998447 
1.5550832e+3, 2.2425582e+2, -711076.94, -818219.9, -20496.016, -0.033380713, 0.08512995, -707290.0, 35014.035, 0.0, 10.00057, 9.999151 
1.5550686e+3, 2.3425531e+2, -703976.9, -755240.06, -10187.693, 0.00017639244, 0.11041291, -702026.44, -57718.25, 0.0, 9.999908, 9.99923 
1.5550536e+3, 2.4425465e+2, -693592.7, -704808.5, -17373.404, 0.002565195, 0.12674886, -680944.5, -134629.98, 0.0, 9.999331, 9.999181 
1.5550378e+3, 2.542538e+2, -659894.44, -635356.3, -18765.025, -0.036671102, 0.120583, -625205.4, -176881.84, 0.0, 9.9988785, 9.999203 
1.5550224e+3, 2.6425305e+2, -592873.75, -508844.06, -7979.1987, -0.0557888, 0.11011496, -508093.1, -157762.16, 0.0, 9.998479, 9.999591 
1.5550074e+3, 2.7425247e+2, -537498.5, -425371.9, -4532.7764, -0.049235616, 0.08625778, -425188.97, -172853.05, 0.0, 9.998159, 9.999644 
1.5549922e+3, 2.8425238e+2, -494532.94, -326748.72, -4733.626, -0.04066569, 0.103986695, -326615.28, -172278.44, 0.0, 9.997665, 9.999887 
1.554977e+3, 2.9425302e+2, -507446.38, -284645.28, -7478.7026, -0.029215593, 0.1707421, -284394.53, -228062.66, 0.0, 9.996913, 9.999866 
1.554962e+3, 3.0425224e+2, -508296.03, -234317.3, 15273.736, -0.049217757, 0.101127684, -233468.45, -233468.45, 0.0, 9.996465, 10.0000925 
1.554947e+3, 3.1425264e+2, -378147.4, 34617.156, 26717.904, -0.06819781, 0.12102287, 36339.4, 36339.4, 0.0, 9.996469, 10.001938 
1.5652412e+3, 1.2428803e+2, -1055118.5, -1664356.5, -11332.115, 0.029695127, 0.16560823, -1054907.8, 667086.7, 0.021448012, 10.005814, 9.997553 
1.5652253e+3, 1.3428606e+2, -1109205.5, -1624645.8, 52614.555, -0.08626155, 0.19854574, -1103889.5, 520123.25, 0.013088315, 10.004635, 9.997716 
1.5652122e+3, 1.4428313e+2, -1096724.5, -1541170.4, -17516.398, 0.104059204, 0.12396502, -1096035.3, 430005.78, 0.0059260316, 10.003895, 9.997969 
1.5651946e+3, 1.542816e+2, -1014796.75, -1447180.5, -25794.123, -0.03107751, 0.16808724, -1013263.44, 414792.72, 0.0016340264, 10.003751, 9.99801 
1.565178e+3, 1.6427995e+2, -958795.9, -1330200.3, -5483.145, -0.089855425, 0.18899521, -958714.94, 371357.16, 0.00017771397, 10.003288, 9.998363 
1.5651631e+3, 1.7427811e+2, -985281.25, -1286054.8, -1792.5605, -0.009210521, 0.16199148, -985270.56, 246819.02, 0.0000016137079, 10.002407, 9.998418 
1.5651476e+3, 1.8427654e+2, -931376.0, -1152626.4, -28540.492, 0.033409383, 0.14157735, -927753.7, 206349.95, 0.0, 10.001858, 9.998925 
1.5651312e+3, 1.9427538e+2, -842593.1, -1051568.3, -37161.395, 0.012040269, 0.12542224, -836181.5, 199930.97, 0.0, 10.001762, 9.998993 
1.565115e+3, 2.0427394e+2, -823637.5, -1042581.06, -10266.653, -0.011670697, 0.105909385, -823157.1, 114968.18, 0.0, 10.001439, 9.998538 
1.565099e+3, 2.1427216e+2, -817850.94, -990350.7, 11882.767, -0.034096375, 0.07362688, -817036.2, 23106.814, 0.0, 10.000812, 9.998526 
1.5650836e+3, 2.2427094e+2, -769424.5, -851677.75, 16510.568, -0.035684723, 0.07460906, -766234.1, -24078.824, 0.0, 10.000195, 9.999102 
1.5650682e+3, 2.342705e+2, -754101.9, -786498.4, 1058.099, -0.01076912, 0.1116267, -754067.4, -109907.44, 0.0, 9.999597, 9.999165 
1.5650526e+3, 2.4426992e+2, -710896.44, -696322.8, -4364.725, -0.00651671, 0.13482572, -695115.6, -148949.98, 0.0, 9.999141, 9.9993305 
1.5650368e+3, 2.5426924e+2, -648605.7, -611157.3, 5276.7686, -0.02949577, 0.12913553, -610427.94, -162255.55, 0.0, 9.998877, 9.999369 
1.565021e+3, 2.642686e+2, -588433.3, -498861.44, 17080.518, -0.043041375, 0.117448255, -495714.88, -145536.4, 0.0, 9.998478, 9.999659 
1.5650053e+3, 2.7426803e+2, -573779.25, -436432.8, 13708.806, -0.044597015, 0.08706651, -435077.88, -182894.42, 0.0, 9.997886, 9.9997 
1.5649898e+3, 2.8426787e+2, -522401.22, -342353.97, 9408.647, -0.038567618, 0.097380646, -341863.66, -187678.64, 0.0, 9.997484, 9.9998665 
1.5649742e+3, 2.9426846e+2, -448837.56, -259019.64, -40.522343, -0.02309727, 0.16328701, -259019.64, -202838.98, 0.0, 9.997329, 9.999841 
1.5649587e+3, 3.0426794e+2, -463764.66, -204289.88, 25840.742, -0.034350954, 0.11950123, -201741.47, -201741.47, 0.0, 9.996734, 10.000169 
1.5649432e+3, 3.1426772e+2, -485171.72, 15662.573, 58572.61, -0.04829142, 0.06540766, 22421.432, 22421.432, 0.0, 9.995593, 10.00223 
1.5752469e+3, 1.2430412e+2, -1080775.4, -1714458.4, -48341.3, 0.03336928, 0.16777709, -1077108.8, 644726.8, 0.022729635, 10.005804, 9.997208 
1.5752296e+3, 1.3430192e+2, -1132867.6, -1676295.3, 8603.921, -0.12139589, 0.21052544, -1132731.4, 491126.0, 0.013912951, 10.004644, 9.997357 
1.5752159e+3, 1.4429876e+2, -1095556.5, -1541711.9, -26163.916, 0.09012684, 0.13449186, -1094027.5, 431860.75, 0.0063315514, 10.003907, 9.997959 
1.5751985e+3, 1.5429704e+2, -1013666.8, -1444683.9, -30358.182, -0.012265521, 0.15840378, -1011539.06, 416365.7, 0.0017634083, 10.00375, 9.998029 
1.5751813e+3, 1.6429529e+2, -958680.9, -1329946.6, -37074.977, -0.06824581, 0.16726907, -955014.75, 374906.78, 0.00019721544, 10.003286, 9.998366 
1.5751654e+3, 1.7429346e+2, -984734.3, -1286187.3, -34548.77, -0.020385038, 0.1403223, -980825.5, 251113.44, 0.0000019795527, 10.00241, 9.998416 
1.5751493e+3, 1.8429187e+2, -944669.5, -1181471.3, -34373.61, 0.009466043, 0.12863426, -939780.8, 194172.89, 0.0, 10.001862, 9.998727 
1.5751328e+3, 1.942907e+2, -858134.9, -1083755.4, -40217.96, 0.0024886467, 0.1330071, -851180.2, 184784.08, 0.0, 10.0017605, 9.998774 
1.5751165e+3, 2.0428951e+2, -790848.44, -973587.6, -32458.84, -0.004928458, 0.12789401, -785254.25, 152720.28, 0.0, 10.001433, 9.999015 
1.5751003e+3, 2.142883e+2, -780922.0, -913697.8, -10957.356, -0.008173199, 0.099652894, -780023.8, 59960.35, 0.0, 10.00081, 9.999054 
1.5750839e+3, 2.2428712e+2, -792055.4, -898707.3, -6048.62, -0.023226006, 0.09218434, -791713.44, -49718.094, 0.0, 10.000194, 9.99878 
1.5750673e+3, 2.3428603e+2, -780805.25, -842530.2, -20587.494, -0.054873586, 0.10314431, -774568.7, -130560.586, 0.0, 9.999598, 9.998781 
1.5750514e+3, 2.4428524e+2, -691804.06, -656992.4, -14638.931, -0.05102286, 0.11156408, -651654.8, -105638.38, 0.0, 9.99914, 9.999601 
1.5750359e+3, 2.5428495e+2, -626509.5, -565184.1, -2986.5593, -0.0016824655, 0.11055078, -565039.0, -117020.74, 0.0, 9.998875, 9.999687 
1.57502e+3, 2.6428464e+2, -588476.5, -498871.38, -3009.0498, 0.0061412975, 0.114677876, -498770.44, -148749.88, 0.0, 9.998476, 9.999661 
1.5750033e+3, 2.7428424e+2, -574911.7, -439392.8, -6615.8135, -0.03923246, 0.107052185, -439070.63, -187046.44, 0.0, 9.997886, 9.9996805 
1.5749872e+3, 2.8428388e+2, -528801.5, -356003.6, 3791.869, -0.05114468, 0.100489035, -355920.4, -201892.23, 0.0, 9.997484, 9.999774 
1.5749715e+3, 2.942838e+2, -454651.5, -273006.6, -3611.5813, -0.02313546, 0.11062649, -272934.8, -216904.7, 0.0, 9.9973345, 9.999743 
1.5749556e+3, 3.042837e+2, -441016.22, -158371.19, -13911.651, -0.00921504, 0.102417, -157688.11, -157688.11, 0.0, 9.9967375, 10.0004835 
1.5749392e+3, 3.1428355e+2, -462493.66, 64379.57, 22181.162, -0.006958781, 0.017977137, 65311.742, 65311.742, 0.0, 9.995584, 10.002569 
1.5852529e+3, 1.24320365e+2, -1127756.4, -1738612.8, -39265.043, 0.060163222, 0.14987059, -1125242.8, 596432.75, 0.024104835, 10.00549, 9.9971895 
1.5852341e+3, 1.3431825e+2, -1084313.0, -1651262.3, 30453.582, -0.14834996, 0.20162974, -1082681.9, 541014.56, 0.014801032, 10.004985, 9.997363 
1.58522e+3, 1.443151e+2, -1033130.06, -1518441.0, 22243.451, 0.07765058, 0.12656052, -1032112.7, 493614.8, 0.0067708585, 10.0043745, 9.997893 
1.5852022e+3, 1.5431331e+2, -1034114.0, -1461948.4, 11351.262, -0.0010993831, 0.15140949, -1033813.06, 393931.84, 0.0019046442, 10.003645, 9.997959 
1.5851848e+3, 1.6431151e+2, -1002591.1, -1352509.4, -7597.303, -0.04925832, 0.16159867, -1002426.25, 327335.84, 0.0002187055, 10.002995, 9.99835 
1.5851678e+3, 1.7430967e+2, -977859.8, -1284321.5, -8258.725, -0.014568682, 0.13587798, -977637.44, 254142.22, 0.000002466339, 10.002466, 9.9984 
1.5851511e+3, 1.8430807e+2, -928173.6, -1181455.3, 12242.002, 0.0072151674, 0.12543514, -927583.3, 206211.73, 0.0, 10.002012, 9.998653 
1.5851346e+3, 1.9430684e+2, -879943.6, -1103008.8, 16989.18, -0.0021957883, 0.13236251, -878657.1, 157149.64, 0.0, 10.001651, 9.9986925 
1.5851177e+3, 2.0430572e+2, -812956.5, -965813.94, 7287.4307, -0.0070791375, 0.13282268, -812609.8, 125206.45, 0.0, 10.0012045, 9.999177 
1.5851009e+3, 2.1430479e+2, -791600.8, -898670.0, 191.7351, -0.002112554, 0.11444435, -791600.44, 48222.36, 0.0, 10.000651, 9.999232 
1.585084e+3, 2.243037e+2, -793604.3, -899353.0, 6847.853, -0.014905505, 0.10587691, -793162.7, -51329.88, 0.0, 10.000183, 9.998781 
1.5850672e+3, 2.3430243e+2, -747837.56, -827814.56, 19930.238, -0.051708255, 0.10072113, -743146.2, -99299.04, 0.0, 9.99983, 9.998769 
1.5850505e+3, 2.443015e+2, -668700.9, -650535.8, 29331.916, -0.04894454, 0.09742926, -628912.44, -83055.58, 0.0, 9.999322, 9.999557 
1.5850347e+3, 2.543011e+2, -669366.25, -591706.2, 11481.048, 0.003970467, 0.09208187, -590044.44, -142184.63, 0.0, 9.998608, 9.999633 
1.5850183e+3, 2.6430088e+2, -635666.9, -514872.2, 2746.5723, 0.01643973, 0.10590679, -514809.78, -164948.42, 0.0, 9.998124, 9.99972 
1.5850013e+3, 2.7430084e+2, -561401.44, -424979.38, 4915.482, -0.022146858, 0.12470657, -424802.5, -172940.67, 0.0, 9.997947, 9.999749 
1.5849848e+3, 2.8430042e+2, -512268.78, -345586.1, 23748.887, -0.03732142, 0.10936237, -342268.38, -188402.2, 0.0, 9.99759, 9.999793 
1.5849687e+3, 2.9429987e+2, -505105.88, -294840.4, 22733.701, -0.025144925, 0.070033565, -292410.56, -236538.03, 0.0, 9.996981, 9.999762 
1.5849522e+3, 3.0430025e+2, -484497.53, -172295.33, -7198.143, -0.0031053666, 0.10529574, -172129.45, -172129.45, 0.0, 9.996411, 10.000544 
1.584935e+3, 3.143004e+2, -423195.13, 72231.03, 6682.444, 0.005055838, 0.04812425, 72321.15, 72321.15, 0.0, 9.995905, 10.002467 
1.5952589e+3, 1.2433692e+2, -1110798.0, -1700052.4, -48021.703, 0.106978044, 0.12171098, -1106910.1, 614602.7, 0.025580186, 10.005485, 9.997461 
1.5952389e+3, 1.3433513e+2, -1061983.6, -1604053.3, 11283.076, -0.16998486, 0.17219156, -1061748.9, 561780.75, 0.015756639, 10.004985, 9.99769 
1.5952241e+3, 1.4433213e+2, -1042240.94, -1537203.6, -6229.374, 0.062976286, 0.101810694, -1042162.56, 483396.3, 0.007245947, 10.004374, 9.997765 
1.595206e+3, 1.5433039e+2, -1045822.3, -1486269.6, -16223.569, 0.0010991816, 0.14737432, -1045225.56, 382351.0, 0.0020582187, 10.003644, 9.997793 
1.595188e+3, 1.6432862e+2, -1005280.44, -1359127.3, -28852.86, -0.03489127, 0.17123155, -1002943.2, 326650.88, 0.00024185247, 10.002997, 9.998304 
1.5951705e+3, 1.7432675e+2, -979557.94, -1290028.4, -27800.055, 0.003909, 0.14730589, -977088.3, 254523.67, 0.0000030340082, 10.002475, 9.998358 
1.5951534e+3, 1.8432508e+2, -923915.75, -1174370.1, -2107.1404, 0.020475673, 0.13226724, -923898.0, 209729.78, 0.0, 10.002018, 9.998699 
1.5951361e+3, 1.9432378e+2, -876260.9, -1095824.9, 4078.8113, -0.0030838668, 0.12414403, -876185.1, 159454.9, 0.0, 10.001651, 9.998743 
1.5951188e+3, 2.0432259e+2, -824651.5, -990110.25, -13200.027, -0.018293256, 0.121729545, -823605.06, 114045.69, 0.0, 10.001203, 9.999013 
1.5951015e+3, 2.1432161e+2, -804481.0, -925254.44, -20147.555, -0.018434048, 0.11807077, -801208.6, 38450.434, 0.0, 10.000649, 9.999052 
1.5950844e+3, 2.2432064e+2, -771199.56, -852780.8, -7179.459, -0.0137729915, 0.11548277, -770572.56, -28904.693, 0.0, 10.00018, 9.999103 
1.5950674e+3, 2.3431967e+2, -722857.56, -775531.3, 7841.687, -0.004497971, 0.104642585, -721714.94, -78037.87, 0.0, 9.999826, 9.99913 
1.5950504e+3, 2.4431868e+2, -695834.56, -706737.06, 3941.9785, -0.0040887403, 0.0926489, -694558.6, -148871.58, 0.0, 9.999319, 9.999174 
1.5950331e+3, 2.543177e+2, -699477.56, -655229.56, -13849.172, -0.014802843, 0.07246898, -651252.44, -203554.92, 0.0, 9.99861, 9.999197 
1.5950161e+3, 2.6431733e+2, -627059.7, -498218.97, -4255.1406, -0.012891664, 0.09087223, -498078.6, -148377.44, 0.0, 9.998127, 9.999834 
1.5949996e+3, 2.7431774e+2, -550547.44, -402992.25, 379.43793, 0.0036242623, 0.14238079, -402991.28, -151294.78, 0.0, 9.997947, 9.999901 
1.5949827e+3, 2.8431746e+2, -503817.97, -328489.25, 3297.3208, -0.0016393526, 0.12482458, -328427.28, -174727.97, 0.0, 9.99759, 9.999911 
1.5949656e+3, 2.9431653e+2, -496397.75, -277488.1, 1655.5874, -0.035498116, 0.036762215, -277475.56, -221766.73, 0.0, 9.996982, 9.999882 
1.5949483e+3, 3.0431744e+2, -499795.0, -203435.94, -25670.848, -0.022018272, 0.1258858, -201228.75, -201228.75, 0.0, 9.9964075, 10.000333 
1.5949307e+3, 3.1431836e+2, -463853.6, -13716.31, -9571.202, -0.017541792, 0.1727582, -13512.891, -13512.891, 0.0, 9.99591, 10.001875 
1.6052641e+3, 1.24354094e+2, -1127420.5, -1709656.4, -11519.004, 0.09332145, 0.100555785, -1127192.8, 594151.5, 0.02716579, 10.005384, 9.99744 
1.6052438e+3, 1.3435267e+2, -1082607.3, -1605704.5, 13403.937, -0.17738128, 0.18305616, -1082264.0, 541093.5, 0.016786294, 10.004811, 9.997762 
1.6052286e+3, 1.4434977e+2, -1066877.4, -1545544.9, -11906.798, 0.08218157, 0.11633063, -1066581.4, 458804.63, 0.0077603655, 10.004193, 9.997793 
1.6052094e+3, 1.5434782e+2, -1053842.4, -1487062.3, -10572.282, 0.0003273876, 0.14016889, -1053584.6, 373820.78, 0.002225466, 10.003579, 9.997817 
1.605191e+3, 1.64346e+2, -989347.8, -1354884.6, -4870.9766, -0.039300054, 0.15685318, -989282.9, 340140.63, 0.00026665046, 10.003124, 9.99827 
1.6051733e+3, 1.7434424e+2, -924298.1, -1267361.5, -4231.418, 0.017354028, 0.14856115, -924245.94, 307194.63, 0.0000036433328, 10.002874, 9.998319 
1.6051556e+3, 1.8434267e+2, -871394.25, -1143121.4, 13769.883, 0.038984343, 0.14151374, -870698.25, 262757.3, 0.0, 10.002356, 9.99875 
1.6051377e+3, 1.9434136e+2, -895414.0, -1099091.3, 17918.883, 0.0020752768, 0.12979172, -893849.56, 141617.92, 0.0, 10.001496, 9.998794 
1.6051199e+3, 2.043401e+2, -874504.5, -1023518.3, 11214.078, -0.021684902, 0.12188408, -873665.25, 63813.684, 0.0, 10.000903, 9.998926 
1.6051021e+3, 2.1433896e+2, -810620.9, -939110.3, 10690.422, -0.023931189, 0.11132354, -809737.5, 29752.004, 0.0, 10.000656, 9.998953 
1.6050845e+3, 2.2433798e+2, -754368.94, -831948.6, 16882.447, -0.012432664, 0.11008982, -750854.3, -9356.007, 0.0, 10.000244, 9.999213 
1.6050673e+3, 2.3433727e+2, -745052.1, -772888.44, 11397.925, 0.013404824, 0.111383535, -740980.6, -97476.19, 0.0, 9.999619, 9.999248 
1.6050498e+3, 2.4433632e+2, -722842.94, -731128.94, 9382.383, 0.014360419, 0.10335527, -716729.56, -171215.81, 0.0, 9.999184, 9.999071 
1.6050318e+3, 2.5433514e+2, -650944.4, -644748.6, 14463.666, -0.015795862, 0.07673305, -633054.75, -185528.34, 0.0, 9.9990015, 9.999079 
1.6050144e+3, 2.6433468e+2, -567530.4, -478396.78, 29607.47, -0.021054637, 0.09391589, -469458.44, -119926.72, 0.0, 9.998578, 9.99975 
1.6049974e+3, 2.743351e+2, -571660.25, -422749.9, 14828.251, 0.003398736, 0.1516847, -421287.7, -169759.8, 0.0, 9.997847, 9.999812 
1.6049802e+3, 2.8433484e+2, -546210.06, -338239.25, 5886.9365, -0.00049097143, 0.13917859, -338072.75, -184542.42, 0.0, 9.997255, 10.000005 
1.6049623e+3, 2.9433405e+2, -509614.9, -270707.8, 1511.4346, -0.03932413, 0.05423529, -270698.25, -215160.31, 0.0, 9.996837, 9.999996 
1.6049449e+3, 3.0433506e+2, -492287.0, -207568.31, -14878.439, -0.0143020535, 0.14894931, -206792.92, -206792.92, 0.0, 9.996493, 10.000261 
1.6049269e+3, 3.1433597e+2, -447843.38, -52654.344, 7105.3657, -0.015745379, 0.20651287, -52526.633, -52526.633, 0.0, 9.996223, 10.001454 
1.6152687e+3, 1.2437189e+2, -1145478.1, -1749487.9, -18002.582, 0.026462244, 0.08562019, -1144942.0, 576227.56, 0.028877582, 10.0054, 9.997159 
1.6152485e+3, 1.3437094e+2, -1095634.4, -1631343.3, -8040.4043, -0.17352103, 0.23249184, -1095513.8, 527666.1, 0.017902588, 10.004807, 9.997587 
1.6152333e+3, 1.4436804e+2, -1057061.4, -1522388.1, -35465.613, 0.12908506, 0.16812447, -1054373.9, 470834.75, 0.008322106, 10.004183, 9.997958 
1.615213e+3, 1.5436566e+2, -1039937.3, -1460294.3, -32690.568, -0.0065274546, 0.12919432, -1037410.2, 389820.8, 0.0024100142, 10.003587, 9.997998 
1.6151938e+3, 1.6436367e+2, -989652.3, -1358079.0, -15514.4375, -0.06546488, 0.12046976, -989000.1, 340250.13, 0.0002938313, 10.003134, 9.998245 
1.6151762e+3, 1.7436215e+2, -927406.94, -1274042.8, -12908.81, 0.025280215, 0.14025357, -926926.9, 304338.4, 0.000004294035, 10.002873, 9.998275 
1.6151582e+3, 1.8436074e+2, -869565.6, -1138554.1, -17451.6, 0.061065294, 0.15257137, -868438.06, 264840.47, 0.0, 10.002351, 9.998784 
1.6151392e+3, 1.9435956e+2, -892114.5, -1093721.5, -14084.536, 0.009879211, 0.14870563, -891135.3, 144153.9, 0.0, 10.001501, 9.998829 
1.6151208e+3, 2.0435825e+2, -874097.8, -1024463.44, 60.688065, -0.02152596, 0.13341792, -874097.8, 63203.297, 0.0, 10.000909, 9.998919 
1.6151027e+3, 2.1435682e+2, -811063.06, -940547.7, 2457.2297, -0.02048718, 0.094741404, -811016.44, 28297.74, 0.0, 10.000656, 9.998943 
1.6150847e+3, 2.2435576e+2, -763383.5, -851012.8, -5808.2188, -0.012965363, 0.090927765, -763000.2, -21676.178, 0.0, 10.000243, 9.999084 
1.6150668e+3, 2.3435518e+2, -754165.5, -792850.8, -11318.542, 0.00095701555, 0.12108883, -751097.3, -107767.73, 0.0, 9.99962, 9.999111 
1.6150488e+3, 2.443544e+2, -710640.06, -706333.4, 1778.8479, 0.0054176785, 0.12933204, -705693.6, -160356.39, 0.0, 9.999184, 9.999242 
1.615031e+3, 2.5435346e+2, -637677.06, -616657.94, 9369.485, -0.0026084324, 0.105232485, -613087.8, -165740.94, 0.0, 9.998997, 9.999274 
1.615013e+3, 2.643529e+2, -588964.6, -523057.8, 4562.74, -0.012762186, 0.11547902, -522743.44, -173390.05, 0.0, 9.998576, 9.999446 
1.614995e+3, 2.7435273e+2, -594706.06, -472346.84, -10721.168, -0.026030328, 0.15157661, -471414.56, -220057.89, 0.0, 9.997851, 9.99947 
1.6149771e+3, 2.8435245e+2, -541550.9, -329600.22, -9786.722, -0.035941646, 0.15228674, -329149.28, -175789.36, 0.0, 9.997257, 10.000064 
1.6149592e+3, 2.943523e+2, -502501.0, -256677.47, -12369.393, -0.0406329, 0.124114096, -256056.64, -200696.3, 0.0, 9.996838, 10.000093 
1.6149417e+3, 3.0435297e+2, -487952.72, -199265.78, -24083.59, 0.015374349, 0.1750656, -197270.4, -197270.4, 0.0, 9.996495, 10.000318 
1.6149233e+3, 3.143532e+2, -465919.03, -90754.58, -6529.118, 0.0042072395, 0.16043638, -90640.984, -90640.984, 0.0, 9.996224, 10.001193 
1.6252744e+3, 1.2439084e+2, -1072834.5, -1723654.3, 12751.945, 0.014707575, 0.12075506, -1072584.8, 648400.06, 0.030735277, 10.005972, 9.997058 
1.6252531e+3, 1.3438952e+2, -1133558.4, -1645892.9, 14311.083, -0.18249547, 0.22793636, -1133159.0, 489839.3, 0.01912142, 10.004531, 9.99762 
1.6252373e+3, 1.4438652e+2, -1121250.3, -1550602.4, 19134.824, 0.14116651, 0.15207018, -1120399.1, 404628.47, 0.008941163, 10.003729, 9.997981 
1.6252166e+3, 1.5438432e+2, -1003407.0, -1439327.1, 11774.473, -0.0046625677, 0.12726337, -1003089.2, 423959.22, 0.0026167121, 10.003828, 9.998024 
1.6251971e+3, 1.6438238e+2, -934090.7, -1330041.8, 13563.642, -0.069406986, 0.124522135, -933626.6, 395440.22, 0.0003247618, 10.003514, 9.998253 
1.6251789e+3, 1.7438082e+2, -956889.25, -1287766.9, 17706.822, 0.022960784, 0.13969967, -955944.4, 275137.66, 0.000005034694, 10.002671, 9.998276 
1.6251604e+3, 1.8437937e+2, -913141.3, -1169720.4, 11666.828, 0.06348622, 0.14923944, -912611.9, 220484.13, 0.0, 10.002097, 9.998691 
1.625141e+3, 1.9437806e+2, -846690.2, -1082893.1, 4052.7358, 0.019523576, 0.14524285, -846620.6, 188487.33, 0.0, 10.0018635, 9.998728 
1.625122e+3, 2.0437671e+2, -802054.94, -994869.25, 14115.394, -0.01068273, 0.13364157, -801027.06, 136093.39, 0.0, 10.001427, 9.998871 
1.6251034e+3, 2.1437532e+2, -804399.7, -942316.6, 12072.723, -0.017154299, 0.10273803, -803350.9, 35782.297, 0.0, 10.000725, 9.998897 
1.625085e+3, 2.2437416e+2, -776780.2, -866322.06, 4784.0806, -0.016589714, 0.09580926, -776525.3, -35381.42, 0.0, 10.000191, 9.999003 
1.6250664e+3, 2.3437333e+2, -723151.1, -787037.25, 2788.842, -0.009183095, 0.10960035, -723029.6, -79877.79, 0.0, 9.999875, 9.999027 
1.625048e+3, 2.4437255e+2, -674083.44, -681687.3, 15908.744, -0.0006693924, 0.117733285, -661528.6, -116368.92, 0.0, 9.999408, 9.999301 
1.6250299e+3, 2.5437185e+2, -669434.6, -624578.75, 11862.111, 0.007275153, 0.11479024, -621635.0, -174468.47, 0.0, 9.998749, 9.999337 
1.6250116e+3, 2.6437134e+2, -647266.06, -562042.4, 5163.9917, -0.0020017684, 0.13050711, -561730.6, -212557.7, 0.0, 9.998223, 9.999347 
1.6249928e+3, 2.743709e+2, -601486.75, -487253.63, 6050.469, -0.03237347, 0.15202142, -486934.06, -235754.88, 0.0, 9.997857, 9.999363 
1.6249743e+3, 2.8437063e+2, -516789.53, -315264.06, 17838.455, -0.044414833, 0.15608747, -313697.25, -160514.48, 0.0, 9.997419, 10.000082 
1.6249561e+3, 2.9437077e+2, -492187.7, -248043.5, 8488.973, -0.032858327, 0.15245761, -247748.69, -192568.28, 0.0, 9.996896, 10.000123 
1.6249382e+3, 3.043711e+2, -490683.9, -183497.27, 2298.2122, 0.028289948, 0.16087998, -183480.08, -183480.08, 0.0, 9.996403, 10.000471 
1.6249193e+3, 3.143715e+2, -508070.16, -104833.266, 20141.438, -0.00049609627, 0.14712536, -103829.71, -103829.71, 0.0, 9.995906, 10.001251 
1.6352807e+3, 1.2441091e+2, -1074356.5, -1716884.8, -17418.729, 0.050649107, 0.20195378, -1073884.6, 646905.3, 0.03275599, 10.0059395, 9.997122 
1.6352575e+3, 1.3440841e+2, -1117305.6, -1614824.4, -39288.902, -0.20675896, 0.17134449, -1114222.1, 508590.53, 0.020454967, 10.004547, 9.997828 
1.6352409e+3, 1.4440525e+2, -1126112.9, -1565635.4, 17872.0, 0.11727631, 0.072304904, -1125387.4, 399455.53, 0.00962445, 10.00375, 9.997869 
1.6352206e+3, 1.5440376e+2, -1013270.06, -1459357.6, 16280.3545, 0.003741249, 0.1347519, -1012676.7, 414181.03, 0.002848976, 10.003824, 9.9978895 
1.6352007e+3, 1.6440213e+2, -933284.7, -1325731.5, -16524.371, -0.054770645, 0.16626424, -932590.1, 396283.5, 0.0003608522, 10.003501, 9.998289 
1.6351815e+3, 1.7440027e+2, -952850.8, -1281769.5, -13727.335, 0.0085282335, 0.14617245, -952278.94, 278612.1, 0.000005927034, 10.00268, 9.998314 
1.6351624e+3, 1.8439849e+2, -926686.75, -1200861.9, 1223.6749, 0.043733872, 0.13249262, -926681.25, 206226.7, 0.0, 10.002109, 9.998472 
1.635143e+3, 1.9439687e+2, -862565.4, -1117043.8, -3937.4263, 0.02963394, 0.12050567, -862504.5, 172419.27, 0.0, 10.001866, 9.998492 
1.6351235e+3, 2.0439547e+2, -809183.0, -1009924.5, -11292.633, 0.008537782, 0.12298525, -808549.7, 128387.336, 0.0, 10.001426, 9.998769 
1.6351041e+3, 2.143944e+2, -810668.8, -956641.94, -13705.525, -0.016128726, 0.13449006, -809393.1, 29553.674, 0.0, 10.000729, 9.998797 
1.6350849e+3, 2.2439316e+2, -778326.4, -870538.2, -8158.284, -0.02599779, 0.12420604, -777610.2, -36651.938, 0.0, 10.000194, 9.998975 
1.6350661e+3, 2.343917e+2, -724943.9, -791009.75, -7816.1494, -0.019280566, 0.077328205, -724031.75, -81060.37, 0.0, 9.999874, 9.999001 
1.6350473e+3, 2.443907e+2, -679447.25, -692941.9, -7326.041, -0.0071165813, 0.070101, -676234.8, -131253.7, 0.0, 9.999406, 9.999227 
1.6350287e+3, 2.5439033e+2, -674459.25, -636461.6, -11202.545, 0.011858443, 0.10592669, -633404.75, -186418.86, 0.0, 9.998753, 9.999256 
1.63501e+3, 2.6439e+2, -639628.94, -547001.7, -8383.095, 0.00968553, 0.13887538, -546249.06, -197258.33, 0.0, 9.998225, 9.999451 
1.6349907e+3, 2.7438962e+2, -593135.6, -470391.13, -5918.1772, -0.019372283, 0.15268847, -470106.44, -219110.5, 0.0, 9.997857, 9.99948 
1.634972e+3, 2.8438932e+2, -519214.1, -321267.72, -477.0993, -0.03054556, 0.15006897, -321266.56, -168267.02, 0.0, 9.997421, 10.000041 
1.6349532e+3, 2.943893e+2, -494751.22, -255717.69, -8900.428, -0.020843906, 0.13912736, -255386.73, -200387.83, 0.0, 9.996902, 10.000068 
1.6349345e+3, 3.043893e+2, -472291.16, -145624.27, -15750.141, 0.020578314, 0.10725287, -144866.64, -144866.64, 0.0, 9.996403, 10.000731 
1.6349149e+3, 3.1439075e+2, -479113.94, -43916.09, -4385.19, -0.032669514, 0.16926712, -43871.906, -43871.906, 0.0, 9.995901, 10.001672 
1.6452862e+3, 1.244309e+2, -1223949.9, -1798148.0, 40153.164, 0.06539243, 0.19704852, -1221155.6, 499438.0, 0.03494761, 10.004919, 9.997054 
1.6452621e+3, 1.3442835e+2, -1044697.8, -1572058.3, -17796.795, -0.2105403, 0.1547091, -1044097.94, 578519.1, 0.021907516, 10.005033, 9.997893 
1.6452448e+3, 1.4442536e+2, -1013040.1, -1522241.9, 40818.664, 0.11362659, 0.077829555, -1009788.8, 514856.7, 0.010374311, 10.00459, 9.997762 
1.6452244e+3, 1.5442392e+2, -1061045.4, -1495999.8, 39987.465, 0.0065954044, 0.15418236, -1057399.8, 369260.8, 0.003107904, 10.003556, 9.9977665 
1.6452038e+3, 1.6442212e+2, -1011850.94, -1373680.4, 7865.3687, -0.052098576, 0.1811182, -1011680.0, 316997.94, 0.00040293386, 10.003005, 9.9981985 
1.6451843e+3, 1.7441991e+2, -904078.06, -1267909.6, 654.84546, 0.0033897234, 0.13502342, -904076.9, 326621.5, 0.0000070009137, 10.003058, 9.998225 
1.6451646e+3, 1.8441796e+2, -842199.0, -1175592.8, 9390.28, 0.034042563, 0.11755228, -841934.7, 290782.13, 0.0, 10.002758, 9.998332 
1.6451448e+3, 1.9441645e+2, -852695.25, -1128606.9, 9085.1, 0.017683843, 0.1283395, -852396.44, 182335.92, 0.0, 10.002007, 9.998344 
1.6451249e+3, 2.0441502e+2, -812138.4, -1022441.75, 6053.5293, 0.0014296882, 0.14039229, -811964.3, 124782.016, 0.0, 10.001456, 9.998668 
1.645105e+3, 2.1441379e+2, -755079.44, -941127.6, 2158.3064, -0.010045991, 0.14585312, -755054.4, 83703.39, 0.0, 10.001162, 9.998694 
1.6450855e+3, 2.2441243e+2, -711918.9, -839984.8, 6987.0625, -0.013967404, 0.13182448, -711538.8, 29231.328, 0.0, 10.000657, 9.99896 
1.6450661e+3, 2.3441097e+2, -723426.5, -791574.06, 6137.2236, -0.010986457, 0.08391956, -722878.2, -80095.01, 0.0, 9.999891, 9.998988 
1.6450468e+3, 2.4440993e+2, -706200.06, -711893.5, 7149.219, -0.0061586904, 0.07720421, -701351.6, -156558.47, 0.0, 9.9992485, 9.999171 
1.6450274e+3, 2.5440952e+2, -678488.1, -644900.44, 3834.592, 0.0010998899, 0.11479136, -644468.25, -197669.61, 0.0, 9.9987545, 9.999196 
1.645008e+3, 2.644091e+2, -620975.8, -531657.2, 14118.675, 0.0018263655, 0.14033087, -529478.6, -180674.4, 0.0, 9.998328, 9.999504 
1.6449888e+3, 2.744086e+2, -569861.44, -452939.34, 10987.631, -0.006074309, 0.13710503, -451915.75, -201105.81, 0.0, 9.997992, 9.999534 
1.6449694e+3, 2.844084e+2, -520554.13, -324423.75, 2656.55, -0.012322477, 0.14286377, -324387.78, -171575.22, 0.0, 9.997424, 10.000017 
1.6449499e+3, 2.944087e+2, -550455.8, -285113.56, -6309.7334, -0.017024271, 0.16857722, -284963.63, -230154.4, 0.0, 9.996533, 10.000043 
1.6449305e+3, 3.044085e+2, -532818.6, -191958.72, -7745.682, 0.0017460892, 0.12008749, -191782.8, -191782.8, 0.0, 9.996064, 10.000574 
1.6449107e+3, 3.1440967e+2, -433115.4, -7938.2, -38769.94, -0.04368574, 0.17529815, -4431.8647, -4431.8647, 0.0, 9.996159, 10.001794 
1.6552912e+3, 1.244508e+2, -1233441.1, -1822185.6, 65693.125, 0.0613323, 0.10831093, -1226200.0, 494196.16, 0.037306633, 10.004944, 9.99688 
1.6552673e+3, 1.3444927e+2, -1051161.1, -1582817.6, -15318.233, -0.19718678, 0.1767604, -1050720.1, 571691.5, 0.023476357, 10.005025, 9.997824 
1.6552496e+3, 1.4444683e+2, -1024143.56, -1540030.4, 2359.6533, 0.12481608, 0.16082714, -1024132.75, 500303.2, 0.011190374, 10.004568, 9.99765 
1.6552278e+3, 1.5444472e+2, -1067181.4, -1513008.5, 1046.9061, 0.0008599252, 0.18265359, -1067179.0, 359278.16, 0.0033935986, 10.003572, 9.9976425 
1.6552068e+3, 1.6444235e+2, -1023120.8, -1402754.9, 7008.256, -0.06431435, 0.169877, -1022991.5, 305488.3, 0.00045125975, 10.003027, 9.997989 
1.6551873e+3, 1.7443977e+2, -918645.4, -1298964.4, 3362.7754, 0.005330259, 0.107896395, -918615.6, 311888.25, 0.000008273259, 10.003059, 9.9980135 
1.6551673e+3, 1.8443784e+2, -848430.2, -1187226.0, -17377.602, 0.03106816, 0.1048169, -847541.2, 284981.28, 0.0, 10.00275, 9.998257 
1.6551465e+3, 1.9443676e+2, -857150.94, -1139119.0, -18755.572, -0.01697254, 0.16699074, -855908.9, 178625.17, 0.0, 10.00201, 9.998271 
1.6551259e+3, 2.0443529e+2, -818283.8, -1037071.25, -6041.017, -0.03291747, 0.18442936, -818117.1, 118431.4, 0.0, 10.001462, 9.998565 
1.6551064e+3, 2.1443343e+2, -762604.4, -956978.7, -7895.1504, -0.001305314, 0.13736913, -762284.2, 76282.02, 0.0, 10.001161, 9.998588 
1.6550864e+3, 2.2443198e+2, -713285.9, -842584.94, -20793.215, 0.01589791, 0.119625926, -710024.3, 30555.477, 0.0, 10.000654, 9.998944 
1.6550663e+3, 2.3443106e+2, -723862.25, -793331.0, -21517.852, 0.013166088, 0.12849626, -717737.2, -75149.48, 0.0, 9.999893, 9.998977 
1.655046e+3, 2.4443015e+2, -708536.94, -717542.06, -11336.776, -0.00035925873, 0.13751327, -700841.3, -156244.95, 0.0, 9.99925, 9.999133 
1.6550258e+3, 2.5442934e+2, -680815.1, -650577.7, -13043.828, -0.027506977, 0.1403541, -645728.5, -199123.27, 0.0, 9.998755, 9.999157 
1.6550061e+3, 2.644286e+2, -621460.0, -533764.6, 2404.869, -0.028084042, 0.13529474, -533698.75, -185085.16, 0.0, 9.99833, 9.999491 
1.6549869e+3, 2.7442786e+2, -569969.6, -455615.16, 851.1644, 0.0039277435, 0.10718258, -455608.8, -204987.28, 0.0, 9.997999, 9.999513 
1.654967e+3, 2.8442782e+2, -521059.2, -326700.5, -29023.318, 0.00734534, 0.1351221, -322459.06, -169836.77, 0.0, 9.997428, 10.000001 
1.6549464e+3, 2.944289e+2, -550759.25, -285718.75, -38761.363, -0.025659155, 0.23948856, -280166.34, -225554.25, 0.0, 9.9965315, 10.00004 
1.6549262e+3, 3.044285e+2, -574791.7, -278509.94, -5026.928, -0.03218151, 0.19811198, -278424.66, -278424.66, 0.0, 9.99606, 9.999983 
1.654907e+3, 3.1442812e+2, -446179.78, -36557.94, -38131.02, -0.037263047, 0.15963545, -33038.625, -33038.625, 0.0, 9.996164, 10.001595 
1.6652963e+3, 1.2447157e+2, -1139472.0, -1791134.3, 74241.11, 0.040632017, 0.10484554, -1131121.0, 589071.06, 0.039822478, 10.0057, 9.996727 
1.6652721e+3, 1.3446996e+2, -1128969.6, -1630945.1, -37802.418, -0.18569535, 0.1751952, -1126138.8, 496070.6, 0.025156422, 10.004534, 9.997722 
1.665254e+3, 1.444677e+2, -1112497.1, -1582682.9, -8968.785, 0.12967528, 0.18247733, -1112326.1, 411906.16, 0.012072195, 10.003956, 9.997652 
1.6652317e+3, 1.5446532e+2, -971742.25, -1465284.1, -453.40363, -0.0039985543, 0.17715207, -971741.8, 454513.53, 0.0037066236, 10.004227, 9.997654 
1.6652103e+3, 1.6446285e+2, -894386.0, -1352192.8, 10895.488, -0.07299192, 0.158528, -894126.8, 434152.06, 0.000505959, 10.003963, 9.997885 
1.6651903e+3, 1.7446037e+2, -930802.3, -1317578.0, 12640.169, 0.0009422106, 0.119511575, -930389.7, 299912.44, 0.000009797576, 10.003032, 9.997898 
1.6651699e+3, 1.8445839e+2, -897267.6, -1215670.1, -2615.4868, 0.029175963, 0.11907245, -897246.1, 235075.23, 0.0, 10.002437, 9.998212 
1.6651486e+3, 1.9445701e+2, -823072.2, -1126858.3, -2640.7166, -0.020230712, 0.15757431, -823049.25, 211286.08, 0.0, 10.002264, 9.998232 
1.6651276e+3, 2.044555e+2, -770422.56, -1017764.9, 10271.958, -0.037173424, 0.17086281, -769996.75, 166353.78, 0.0, 10.001809, 9.998529 
1.6651075e+3, 2.144538e+2, -788848.56, -973583.75, 11889.813, -0.006088347, 0.14364797, -788086.44, 50280.473, 0.0, 10.0009985, 9.99855 
1.6650869e+3, 2.2445235e+2, -754869.6, -867662.94, 1258.718, 0.010744128, 0.13232106, -754855.56, -14475.134, 0.0, 10.000392, 9.9988985 
1.6650662e+3, 2.344513e+2, -706812.25, -790500.1, -3412.2456, 0.006705143, 0.13187689, -706673.3, -64283.48, 0.0, 10.000034, 9.998927 
1.6650455e+3, 2.4445033e+2, -657428.2, -700285.75, 7846.404, -0.0052585085, 0.1406465, -656036.8, -111637.63, 0.0, 9.999635, 9.999065 
1.6650248e+3, 2.5444958e+2, -622947.9, -630773.1, 2103.4998, -0.027609447, 0.15488078, -622418.25, -176010.52, 0.0, 9.999189, 9.9990835 
1.6650045e+3, 2.644488e+2, -592284.2, -524560.75, 10334.3955, -0.030004883, 0.15603554, -523018.88, -174602.63, 0.0, 9.998553, 9.999445 
1.6649847e+3, 2.74448e+2, -621740.7, -485861.5, 5517.7007, -0.006263042, 0.12537669, -485637.8, -235212.7, 0.0, 9.997668, 9.999464 
1.6649644e+3, 2.8444782e+2, -553804.06, -339561.34, -17309.455, 0.0027331726, 0.14032431, -338171.84, -185744.61, 0.0, 9.997192, 10.000024 
1.6649434e+3, 2.9444873e+2, -450299.6, -233142.05, -26482.178, -0.010058834, 0.22362135, -229959.22, -175540.72, 0.0, 9.997205, 10.000075 
1.6649225e+3, 3.0444863e+2, -509615.72, -264568.38, 19406.357, -0.03865735, 0.2223762, -263041.03, -263041.03, 0.0, 9.996584, 9.999825 
1.6649027e+3, 3.144481e+2, -577515.2, -90907.0, 16414.5, -0.03312145, 0.18275295, -90353.92, -90353.92, 0.0, 9.995228, 10.001672 
1.6753015e+3, 1.2449304e+2, -1153174.5, -1812104.8, 55813.277, 0.0051669218, 0.1675814, -1148480.4, 571502.2, 0.042482518, 10.005675, 9.996595 
1.6752768e+3, 1.3449043e+2, -1136934.6, -1651327.3, -82430.7, -0.17932422, 0.1504559, -1124048.1, 497961.7, 0.02694435, 10.004553, 9.997577 
1.6752578e+3, 1.4448802e+2, -1102483.4, -1565336.1, -3106.316, 0.124644294, 0.14675283, -1102462.6, 421571.06, 0.0130215315, 10.003974, 9.997764 
1.6752358e+3, 1.5448576e+2, -963710.6, -1446573.4, 10468.125, -0.009733518, 0.14115441, -963483.75, 462570.88, 0.0040489924, 10.004217, 9.997788 
1.6752142e+3, 1.6448362e+2, -897996.75, -1356232.9, -22505.295, -0.08096959, 0.14776611, -896894.1, 431180.8, 0.0005674548, 10.003946, 9.997866 
1.6751933e+3, 1.744817e+2, -932691.9, -1322552.4, -22462.293, -0.011776496, 0.16716224, -931401.94, 298691.53, 0.000011659807, 10.003035, 9.997864 
1.6751723e+3, 1.844796e+2, -897276.6, -1217309.0, -10932.979, 0.025560174, 0.15772846, -896903.56, 235210.28, 0.0, 10.002442, 9.998199 
1.675151e+3, 1.9447728e+2, -824557.75, -1129547.4, -8436.72, 0.004360309, 0.10255887, -824324.56, 209811.52, 0.0, 10.00226, 9.998217 
1.6751297e+3, 2.0447563e+2, -769502.56, -1014953.6, -19297.662, -0.015648602, 0.10315001, -767994.56, 168157.6, 0.0, 10.001803, 9.998552 
1.6751082e+3, 2.1447483e+2, -787351.0, -970975.7, -18000.72, -0.02577289, 0.16423316, -785603.06, 52557.17, 0.0, 10.0009985, 9.9985695 
1.6750869e+3, 2.2447352e+2, -759789.3, -878944.7, -13002.718, -0.030269148, 0.16881707, -758386.94, -18214.346, 0.0, 10.000395, 9.99882 
1.6750658e+3, 2.3447163e+2, -712231.94, -803007.7, -15611.863, -0.031087907, 0.09473878, -709622.0, -67432.13, 0.0, 10.000038, 9.99884 
1.6750447e+3, 2.4447043e+2, -664839.44, -716687.06, -8173.7373, -0.022617452, 0.088278584, -663581.4, -119379.555, 0.0, 9.999636, 9.998953 
1.6750242e+3, 2.544701e+2, -630961.4, -648260.8, -12807.138, -0.0027773003, 0.15958226, -624156.6, -177950.16, 0.0, 9.99919, 9.998964 
1.6750033e+3, 2.6446965e+2, -597936.94, -536943.25, -20885.658, -0.007118714, 0.20198722, -530477.06, -182264.39, 0.0, 9.998553, 9.999361 
1.6749819e+3, 2.7446896e+2, -627010.06, -497296.7, -25784.791, -0.038993392, 0.1899651, -492359.06, -242137.72, 0.0, 9.997668, 9.999387 
1.6749611e+3, 2.844683e+2, -550096.56, -332778.8, -17025.832, -0.028540427, 0.15762131, -331453.0, -179224.95, 0.0, 9.997193, 10.000072 
1.6749409e+3, 2.944681e+2, -444095.84, -223134.03, -23445.54, 0.025376799, 0.12393824, -220673.7, -166444.92, 0.0, 9.997214, 10.00014 
1.6749193e+3, 3.0446887e+2, -489107.28, -224227.38, -29107.85, -0.021190636, 0.19342165, -221066.4, -221066.4, 0.0, 9.996592, 10.000099 
1.674898e+3, 3.1446952e+2, -556243.7, -45166.42, -28232.432, -0.036801197, 0.24516162, -43611.566, -43611.566, 0.0, 9.99522, 10.00199 
1.685307e+3, 1.2451435e+2, -1242967.8, -1840182.1, 74068.85, 0.014424188, 0.19637057, -1233918.6, 485856.66, 0.045275297, 10.004972, 9.99674 
1.6852815e+3, 1.3451144e+2, -1069537.1, -1610703.4, -75871.484, -0.16770801, 0.14400417, -1059101.3, 562703.06, 0.028838424, 10.005007, 9.997637 
1.6852619e+3, 1.4450917e+2, -1015074.44, -1528091.3, 15600.844, 0.100001656, 0.15246335, -1014600.5, 509226.0, 0.014041733, 10.00461, 9.997713 
1.6852397e+3, 1.5450676e+2, -1025106.8, -1482155.8, 15873.527, -0.012140047, 0.13733503, -1024556.2, 401292.97, 0.0044242037, 10.00382, 9.997735 
1.6852176e+3, 1.6450462e+2, -986576.7, -1392105.4, -29837.117, -0.078495614, 0.14396162, -984393.1, 343476.47, 0.00063672714, 10.003308, 9.997927 
1.6851962e+3, 1.7450288e+2, -913858.8, -1305690.4, -23715.59, -0.025686448, 0.17524849, -912428.7, 317457.72, 0.00001399049, 10.003131, 9.997932 
1.6851747e+3, 1.8450084e+2, -862044.44, -1203646.6, -6007.467, 0.013431651, 0.17014667, -861938.9, 269967.2, 0.0, 10.002699, 9.998169 
1.6851532e+3, 1.9449846e+2, -872745.8, -1157038.6, -6409.3486, 0.014716011, 0.111006886, -872601.4, 161327.47, 0.0, 10.001947, 9.9981785 
1.6851313e+3, 2.0449667e+2, -824904.06, -1042416.8, -20512.795, -0.0022902729, 0.10210454, -822986.44, 112959.445, 0.0, 10.001427, 9.998545 
1.6851091e+3, 2.1449572e+2, -759685.94, -957586.44, -22334.15, -0.03362871, 0.14786707, -757196.7, 80758.44, 0.0, 10.001191, 9.998568 
1.6850872e+3, 2.2449443e+2, -699667.06, -853394.94, -13560.758, -0.045716017, 0.15625197, -698480.0, 41487.39, 0.0, 10.000824, 9.998788 
1.6850658e+3, 2.3449276e+2, -677139.1, -790047.1, -13774.586, -0.037501525, 0.10844404, -675482.94, -33499.938, 0.0, 10.0002985, 9.998803 
1.6850445e+3, 2.4449155e+2, -663933.0, -712979.5, -6695.095, -0.019775968, 0.1003988, -663035.5, -119040.31, 0.0, 9.999631, 9.9989805 
1.6850233e+3, 2.544909e+2, -687961.75, -672541.9, -2211.8918, 0.009419602, 0.13665886, -672230.9, -226228.56, 0.0, 9.998787, 9.998991 
1.6850017e+3, 2.6449046e+2, -649322.1, -560678.2, 1587.3359, 0.0043222583, 0.17794922, -560649.8, -212641.4, 0.0, 9.9981985, 9.999369 
1.6849798e+3, 2.7449015e+2, -589186.2, -478584.94, 1863.9014, -0.04028591, 0.20611645, -478553.53, -228539.8, 0.0, 9.997928, 9.999389 
1.6849583e+3, 2.844895e+2, -507796.97, -310213.5, 22197.396, -0.038412794, 0.17480406, -307750.47, -155729.92, 0.0, 9.997477, 10.00009 
1.6849378e+3, 2.9448885e+2, -505678.97, -248785.92, 11263.717, 0.0127089415, 0.093136184, -248293.0, -194267.34, 0.0, 9.996777, 10.000175 
1.6849154e+3, 3.0449018e+2, -533386.1, -215853.45, -15999.191, -0.049870446, 0.20160685, -215049.34, -215049.34, 0.0, 9.996161, 10.000363 
1.6848935e+3, 3.1449088e+2, -488085.5, -14787.709, -10017.861, -0.013457973, 0.23595993, -14575.766, -14575.766, 0.0, 9.995697, 10.001969 
1.6953124e+3, 1.2453546e+2, -1216863.1, -1785582.0, 93406.65, 0.063541114, 0.18529262, -1201914.9, 517655.4, 0.04819677, 10.004993, 9.997108 
1.6952868e+3, 1.3453302e+2, -1054069.1, -1576056.6, -75774.85, -0.15389833, 0.15380241, -1043291.7, 578301.25, 0.03083894, 10.005005, 9.997884 
1.6952659e+3, 1.4453109e+2, -1032416.1, -1561642.9, -14254.73, 0.05428956, 0.19501896, -1032032.44, 491578.88, 0.015136271, 10.0046, 9.997489 
1.6952436e+3, 1.5452828e+2, -1041358.6, -1517391.6, -13203.79, -0.015127437, 0.16336717, -1040992.7, 384646.5, 0.0048364485, 10.003825, 9.997492 
1.695221e+3, 1.6452585e+2, -975541.44, -1370682.8, -37694.707, -0.07005712, 0.14714786, -971977.6, 355685.13, 0.0007154005, 10.003313, 9.998073 
1.6951992e+3, 1.7452395e+2, -901997.6, -1281799.1, -29652.404, -0.042354546, 0.14569385, -899696.5, 329984.03, 0.000016975888, 10.003132, 9.998097 
1.6951771e+3, 1.8452214e+2, -866244.25, -1212500.5, -33454.164, -0.009091222, 0.1583667, -863041.6, 268656.1, 0.0, 10.002698, 9.998111 
1.695155e+3, 1.9452047e+2, -877022.7, -1167351.1, -34246.96, 0.009991424, 0.17971398, -873037.6, 160676.33, 0.0, 10.001952, 9.998108 
1.6951329e+3, 2.0451859e+2, -827031.5, -1047789.94, -30422.611, 0.0016629321, 0.16391887, -822915.7, 112816.37, 0.0, 10.00143, 9.9985075 
1.6951104e+3, 2.1451645e+2, -762014.06, -962848.1, -30257.76, -0.031913247, 0.095447965, -757554.44, 80197.3, 0.0, 10.001191, 9.998533 
1.6950883e+3, 2.2451508e+2, -699402.44, -852480.56, -32727.416, -0.038960624, 0.09683153, -692699.0, 47065.78, 0.0, 10.00082, 9.998796 
1.6950662e+3, 2.3451467e+2, -677526.5, -790262.7, -32178.602, -0.015464115, 0.17213112, -668988.3, -27218.713, 0.0, 10.000294, 9.998805 
1.6950443e+3, 2.4451362e+2, -653750.1, -691216.56, -36953.457, 0.000742395, 0.17499524, -631052.75, -87272.914, 0.0, 9.999626, 9.999133 
1.695022e+3, 2.545119e+2, -676284.4, -648822.44, -32179.863, 0.0076995697, 0.0858637, -627566.5, -181770.75, 0.0, 9.998787, 9.999155 
1.695e+3, 2.6451114e+2, -642677.0, -548063.0, -8434.956, 0.0029321683, 0.084713794, -547316.9, -199513.08, 0.0, 9.9982, 9.999455 
1.6949779e+3, 2.7451155e+2, -582759.06, -467429.28, -5828.313, -0.014509115, 0.17547199, -467135.5, -217332.83, 0.0, 9.997935, 9.999463 
1.694956e+3, 2.8451142e+2, -508684.6, -313847.78, -2420.1304, -0.0309759, 0.19289035, -313817.72, -162012.5, 0.0, 9.997482, 10.000064 
1.6949338e+3, 2.9451093e+2, -507061.84, -250414.33, -13361.364, -0.052017618, 0.13263574, -249720.6, -195910.95, 0.0, 9.996769, 10.000169 
1.6949108e+3, 3.045124e+2, -516183.7, -180090.9, -33082.3, -0.12904936, 0.2435085, -176865.5, -176865.5, 0.0, 9.996159, 10.000612 
1.6948897e+3, 3.1451237e+2, -508817.03, -62484.234, -8424.176, 0.027091477, 0.18107267, -62325.29, -62325.29, 0.0, 9.995716, 10.001633 
1.7053178e+3, 1.2455736e+2, -1117494.0, -1725639.0, 139336.1, 0.061755825, 0.19177957, -1087089.9, 632266.1, 0.051250182, 10.005685, 9.997192 
1.7052919e+3, 1.3455471e+2, -1071130.5, -1593737.9, -70798.33, -0.12790217, 0.14777498, -1061709.1, 559671.44, 0.032948166, 10.004939, 9.997789 
1.7052701e+3, 1.4455286e+2, -1071794.5, -1573805.0, -17451.05, 0.037376467, 0.19961403, -1071188.6, 452209.5, 0.016307874, 10.004301, 9.997549 
1.7052476e+3, 1.5455015e+2, -1026171.06, -1502265.3, 4824.7813, -0.00028815246, 0.17127867, -1026122.1, 399302.72, 0.0052891546, 10.003899, 9.9975605 
1.7052247e+3, 1.6454771e+2, -952749.06, -1366512.8, -3851.4558, -0.047092523, 0.15370719, -952713.25, 374735.38, 0.00080522004, 10.003499, 9.998013 
1.7052022e+3, 1.745457e+2, -912060.75, -1294501.9, -13524.252, -0.041526724, 0.14729556, -911583.06, 317884.7, 0.000020835996, 10.003097, 9.998028 
1.7051797e+3, 1.8454383e+2, -866965.75, -1211939.3, -33420.137, -0.022595288, 0.15862244, -863757.94, 267727.63, 0.0, 10.002689, 9.998118 
1.705157e+3, 1.9454221e+2, -828176.8, -1141966.3, -29714.088, -0.009182137, 0.18243212, -825387.9, 208113.39, 0.0, 10.002282, 9.998121 
1.7051342e+3, 2.0454033e+2, -777102.56, -1022299.06, -15778.931, -0.009280101, 0.16691147, -776091.3, 159427.7, 0.0, 10.001768, 9.998519 
1.7051116e+3, 2.1453819e+2, -772797.9, -967180.7, -13559.831, -0.019315748, 0.0966388, -771856.5, 65682.09, 0.0, 10.001115, 9.998539 
1.705089e+3, 2.2453682e+2, -755723.6, -877480.3, -20390.99, -0.018576052, 0.09799957, -752399.44, -12847.765, 0.0, 10.000427, 9.998814 
1.7050664e+3, 2.3453645e+2, -762705.06, -829130.94, -21151.68, -0.006269644, 0.17659116, -756541.7, -114985.29, 0.0, 9.999702, 9.998821 
1.7050438e+3, 2.4453546e+2, -701773.06, -701024.6, -21529.56, -0.00034353818, 0.17988345, -679866.06, -136300.02, 0.0, 9.999241, 9.999249 
1.7050208e+3, 2.5453383e+2, -623443.4, -609469.6, -20827.46, -0.0023723564, 0.08466683, -594488.4, -148907.48, 0.0, 9.999093, 9.999276 
1.7049982e+3, 2.6453307e+2, -581976.44, -509027.03, -2727.2288, -0.006934789, 0.07639338, -508925.22, -161336.94, 0.0, 9.998578, 9.99954 
1.7049755e+3, 2.745335e+2, -624453.56, -478355.53, -1588.209, -0.012865283, 0.16235891, -478338.28, -228751.63, 0.0, 9.997611, 9.999543 
1.7049533e+3, 2.8453356e+2, -586764.2, -351393.5, 8126.451, -0.022465238, 0.19321044, -351113.28, -199525.56, 0.0, 9.996948, 10.000061 
1.7049307e+3, 2.945333e+2, -521041.66, -256691.28, -1957.2186, -0.0410635, 0.15788655, -256676.8, -203086.28, 0.0, 9.996674, 10.000172 
1.7049068e+3, 3.045347e+2, -484611.3, -127006.695, -21860.799, -0.13207611, 0.24011678, -125675.27, -125675.27, 0.0, 9.996214, 10.00095 
1.704885e+3, 3.1453475e+2, -556752.06, -107059.26, 28204.98, 0.02032046, 0.15856478, -105297.13, -105297.13, 0.0, 9.995483, 10.001437 
1.715323e+3, 1.24579966e+2, -1133892.0, -1755461.4, 123064.15, 0.01578998, 0.20837751, -1110413.5, 608719.9, 0.05443629, 10.005675, 9.996992 
1.7152971e+3, 1.3457659e+2, -1099139.9, -1652679.4, -98624.25, -0.095132664, 0.13025044, -1082092.9, 539073.9, 0.035166852, 10.004944, 9.997382 
1.7152746e+3, 1.4457457e+2, -1049463.4, -1527134.1, -34163.25, 0.040915936, 0.17282487, -1047032.4, 476153.75, 0.017557828, 10.004306, 9.997868 
1.7152517e+3, 1.5457238e+2, -1000110.5, -1450276.1, -9984.909, 0.028507026, 0.16048026, -999889.1, 425317.38, 0.005784473, 10.00391, 9.997912 
1.7152286e+3, 1.645702e+2, -970263.9, -1405375.3, -19742.268, -0.013302285, 0.16221163, -969369.94, 357857.63, 0.0009077385, 10.003508, 9.997743 
1.7152055e+3, 1.745681e+2, -932267.06, -1337787.4, -28231.81, -0.027053345, 0.17854781, -930311.0, 298937.44, 0.000025810483, 10.003099, 9.99773 
1.7151822e+3, 1.8456592e+2, -862656.06, -1202375.1, -49028.316, -0.031356066, 0.17032185, -855721.9, 275547.63, 0.0, 10.002685, 9.998187 
1.715159e+3, 1.9456367e+2, -822336.56, -1129900.6, -44191.633, -0.044141576, 0.121632405, -816112.94, 217177.64, 0.0, 10.002279, 9.998207 
1.7151357e+3, 2.0456193e+2, -774156.7, -1015298.0, -39641.934, -0.036608886, 0.11444188, -767807.0, 167499.67, 0.0, 10.001762, 9.99857 
1.7151129e+3, 2.1456088e+2, -770767.44, -961884.4, -37061.277, 0.0020214412, 0.14968887, -763832.2, 73484.05, 0.0, 10.001108, 9.998581 
1.7150897e+3, 2.245596e+2, -755988.0, -876738.06, -47361.188, 0.012868307, 0.15672886, -739628.25, -299.59454, 0.0, 10.00042, 9.998823 
1.715066e+3, 2.3455812e+2, -761508.94, -827384.06, -47082.01, -0.011228945, 0.122552864, -736987.0, -95643.195, 0.0, 9.999703, 9.998835 
1.7150426e+3, 2.4455708e+2, -696133.75, -689673.2, -27104.281, -0.02477901, 0.11665262, -665607.4, -122253.33, 0.0, 9.999241, 9.999329 
1.7150196e+3, 2.5455663e+2, -618122.6, -598983.5, -24325.395, -0.024530929, 0.13407125, -582413.06, -137054.92, 0.0, 9.999094, 9.999349 
1.7149964e+3, 2.6455623e+2, -576627.9, -498988.6, -36701.605, -0.028248893, 0.15270525, -484385.66, -137023.19, 0.0, 9.99858, 9.99961 
1.714973e+3, 2.7455604e+2, -619325.9, -467829.22, -36607.535, -0.037486833, 0.16648452, -459447.2, -210080.78, 0.0, 9.99761, 9.999619 
1.7149502e+3, 2.845559e+2, -585784.8, -348853.2, -2513.199, -0.01491771, 0.17553547, -348826.53, -197457.78, 0.0, 9.996945, 10.000081 
1.7149282e+3, 2.9455596e+2, -519580.88, -255663.55, -8904.695, 0.043037232, 0.17001574, -255363.44, -201994.55, 0.0, 9.996681, 10.000175 
1.7149037e+3, 3.045569e+2, -455548.88, -70423.82, -48658.586, -0.06234235, 0.19043809, -64371.184, -64371.184, 0.0, 9.996226, 10.001334 
1.71488e+3, 3.145581e+2, -556976.7, -108132.62, 26973.531, -0.049065333, 0.17830625, -106517.445, -106517.445, 0.0, 9.995484, 10.0014305 
1.7253286e+3, 1.2460261e+2, -1159712.3, -1760109.5, 133603.08, 0.00940891, 0.19365928, -1131324.5, 587586.3, 0.057753786, 10.005471, 9.99706 
1.7253025e+3, 1.345993e+2, -1103141.8, -1666793.8, -77582.836, -0.056012623, 0.13315396, -1092658.0, 528286.1, 0.037493784, 10.004982, 9.997264 
1.7252786e+3, 1.445972e+2, -1018066.5, -1519855.6, -2832.1313, 0.019873204, 0.17719468, -1018050.5, 504914.28, 0.018885484, 10.004567, 9.997792 
1.7252557e+3, 1.54595e+2, -942452.06, -1430412.9, -8360.153, 0.016996117, 0.17160949, -942308.9, 482676.66, 0.0063232468, 10.004347, 9.997838 
1.7252322e+3, 1.6459274e+2, -915563.7, -1379048.5, -33706.38, -0.0139234625, 0.17156388, -913125.3, 413881.8, 0.0010243562, 10.003886, 9.99774 
1.7252086e+3, 1.7459051e+2, -926970.44, -1335351.0, -22818.25, -0.018281825, 0.17319837, -925699.44, 303329.5, 0.00003215152, 10.003139, 9.997727 
1.7251849e+3, 1.8458831e+2, -880807.8, -1201957.4, -26439.732, -0.020934137, 0.1596471, -878645.6, 252404.3, 0.0, 10.0025215, 9.998268 
1.7251611e+3, 1.9458623e+2, -849538.56, -1134005.5, -23147.664, -0.04196186, 0.11970976, -847667.3, 185402.16, 0.0, 10.002054, 9.998286 
1.7251374e+3, 2.0458463e+2, -810627.25, -1026070.8, -26663.395, -0.03773722, 0.11859499, -807376.4, 127707.945, 0.0, 10.001484, 9.998631 
1.7251138e+3, 2.1458365e+2, -812448.2, -974984.7, -24909.654, 0.0035539437, 0.15595914, -808716.3, 28376.838, 0.0, 10.000794, 9.99864 
1.7250901e+3, 2.2458234e+2, -771902.94, -873531.5, -25863.543, 0.014994971, 0.1541765, -765699.56, -26594.035, 0.0, 10.000265, 9.998918 
1.7250659e+3, 2.3458076e+2, -724329.2, -798203.5, -20373.883, -0.011943914, 0.09905498, -719082.9, -77961.55, 0.0, 9.999913, 9.998932 
1.7250419e+3, 2.4457985e+2, -684309.4, -678997.9, 1950.2273, -0.02474784, 0.0995235, -678358.75, -135228.39, 0.0, 9.999304, 9.99937 
1.7250185e+3, 2.545798e+2, -717560.94, -642802.0, 236.94821, -0.019070614, 0.15364887, -642801.25, -197670.05, 0.0, 9.998397, 9.999382 
1.7249948e+3, 2.6457947e+2, -677433.6, -539680.4, -13821.774, -0.023062712, 0.17279859, -538307.2, -191171.95, 0.0, 9.997857, 9.999678 
1.7249706e+3, 2.7457896e+2, -594381.06, -447817.97, -15492.432, -0.040073033, 0.14984605, -446198.25, -197056.45, 0.0, 9.997749, 9.999687 
1.7249472e+3, 2.8457895e+2, -538297.44, -314994.4, 18929.08, -0.015175747, 0.16420393, -313401.2, -162258.52, 0.0, 9.997226, 10.000177 
1.7249247e+3, 2.945795e+2, -581250.0, -277310.1, 17739.734, 0.06203773, 0.19653459, -276278.2, -223139.97, 0.0, 9.996225, 10.000245 
1.7249e+3, 3.0457973e+2, -522003.8, -91675.73, -21563.35, -0.025179498, 0.140292, -90597.91, -90597.91, 0.0, 9.995726, 10.00143 
1.7248754e+3, 3.1458178e+2, -505213.75, -64275.605, 56374.23, -0.06592062, 0.2037028, -57182.234, -57182.234, 0.0, 9.995761, 10.001598 
1.7353341e+3, 1.246254e+2, -1145151.6, -1722023.9, 112654.24, 0.0326133, 0.15625681, -1123932.5, 594754.7, 0.061212488, 10.005463, 9.997324 
1.7353079e+3, 1.3462278e+2, -1093867.5, -1646748.5, -97538.125, -0.013929746, 0.15119046, -1077164.6, 543548.8, 0.03993131, 10.0049925, 9.997399 
1.7352828e+3, 1.4462066e+2, -1048482.9, -1585070.4, -12894.46, -0.02585979, 0.2074599, -1048173.2, 474561.8, 0.02028978, 10.004575, 9.997342 
1.7352596e+3, 1.5461802e+2, -975208.06, -1498874.4, -15385.935, -0.034536567, 0.20512486, -974756.4, 450005.2, 0.0069051194, 10.004347, 9.99737 
1.7352356e+3, 1.6461544e+2, -899623.06, -1344446.0, -60884.473, -0.051108286, 0.18413089, -891440.1, 435346.4, 0.0011560215, 10.003879, 9.997983 
1.7352116e+3, 1.7461292e+2, -907904.94, -1296336.5, -50043.23, -0.016729565, 0.13231935, -901561.25, 327247.84, 0.00004011834, 10.003139, 9.997996 
1.7351878e+3, 1.8461101e+2, -875596.9, -1191321.0, -44017.086, 0.0052312263, 0.12776259, -869575.0, 261251.95, 0.0, 10.00252, 9.998343 
1.7351635e+3, 1.9460984e+2, -845316.9, -1124904.4, -39650.035, -0.0069460636, 0.1733778, -839802.6, 193035.83, 0.0, 10.00205, 9.998352 
1.7351389e+3, 2.0460832e+2, -807138.94, -1017930.5, -52406.266, -0.016958378, 0.17545411, -794828.8, 140023.83, 0.0, 10.001478, 9.99869 
1.7351143e+3, 2.1460645e+2, -807895.1, -966597.5, -49666.97, -0.016446328, 0.11577852, -793633.2, 43236.504, 0.0, 10.000796, 9.998697 
1.73509e+3, 2.2460505e+2, -759659.8, -848068.6, -39017.207, -0.0136315655, 0.092566505, -744903.5, -6020.994, 0.0, 10.000264, 9.999094 
1.7350657e+3, 2.3460433e+2, -712809.06, -773491.0, -32113.227, -0.010724914, 0.10659354, -698970.44, -58081.098, 0.0, 9.9999075, 9.999105 
1.7350414e+3, 2.4460371e+2, -685701.06, -681143.3, -30729.785, -0.0030258792, 0.12775744, -652608.0, -109712.5, 0.0, 9.999298, 9.999359 
1.7350172e+3, 2.5460324e+2, -718504.75, -645276.56, -32344.426, 0.011967251, 0.14256468, -633036.25, -188135.45, 0.0, 9.998396, 9.999367 
1.7349929e+3, 2.646027e+2, -673399.4, -531976.6, -17911.174, 0.00659049, 0.13632956, -529743.44, -182836.03, 0.0, 9.997858, 9.999731 
1.7349686e+3, 2.746022e+2, -589315.6, -439769.97, -17661.744, -0.025674712, 0.11390322, -437712.38, -188798.94, 0.0, 9.997759, 9.999739 
1.7349443e+3, 2.8460267e+2, -524797.5, -290192.22, -16920.807, -0.028610336, 0.15956277, -288978.1, -138067.92, 0.0, 9.997237, 10.000344 
1.7349206e+3, 2.946038e+2, -572574.3, -260114.98, -17472.623, 0.010909238, 0.23581906, -259140.95, -206241.5, 0.0, 9.996225, 10.000365 
1.7348957e+3, 3.046031e+2, -537733.94, -123743.32, -21104.143, -0.02484929, 0.0938185, -122670.266, -122670.266, 0.0, 9.995722, 10.001211 
1.7348714e+3, 3.146054e+2, -478129.8, -10238.943, 82152.836, -0.03875989, 0.20016538, 3766.3323, 3766.3323, 0.0, 9.99577, 10.0019655 
1.7453395e+3, 1.24648735e+2, -1138227.5, -1711483.4, 112785.86, 0.019261727, 0.15384454, -1116835.6, 601623.6, 0.06483314, 10.0055065, 9.9973755 
1.7453134e+3, 1.3464634e+2, -1040479.0, -1620656.3, -103375.52, 0.014920332, 0.17311056, -1022610.0, 597873.06, 0.042486437, 10.005394, 9.997384 
1.7452872e+3, 1.4464404e+2, -998906.56, -1561105.1, -16540.914, -0.05371156, 0.2138492, -998420.3, 524085.94, 0.02177061, 10.004934, 9.997332 
1.7452636e+3, 1.5464135e+2, -1004824.2, -1514309.0, 10779.945, -0.03292596, 0.20576869, -1004596.25, 419937.3, 0.0075289775, 10.004151, 9.997357 
1.7452393e+3, 1.6463882e+2, -941006.2, -1350422.3, -24032.303, -0.041066688, 0.18588442, -939600.3, 386957.44, 0.0013029503, 10.003535, 9.998107 
1.7452148e+3, 1.7463651e+2, -902921.7, -1279585.1, -24597.557, -0.025559153, 0.14175391, -901322.1, 327256.1, 0.0000499099, 10.003114, 9.998123 
1.7451902e+3, 1.8463467e+2, -868600.94, -1185325.3, -25459.154, -0.002649652, 0.13756715, -866567.5, 264027.78, 0.0000000000000006446772, 10.00256, 9.998364 
1.7451656e+3, 1.9463342e+2, -873177.3, -1136425.0, -25907.795, 0.008136492, 0.17508915, -870651.75, 161955.64, 0.0, 10.001855, 9.998366 
1.7451406e+3, 2.0463192e+2, -825016.4, -1012710.7, -35841.36, -0.00034103054, 0.17242755, -818405.1, 116216.23, 0.0, 10.001298, 9.998811 
1.7451152e+3, 2.1463017e+2, -782683.75, -940519.06, -29868.275, -0.023814676, 0.112811305, -777220.6, 59416.355, 0.0, 10.000912, 9.998819 
1.7450902e+3, 2.2462891e+2, -745754.56, -836229.44, -22829.78, -0.025431812, 0.09388459, -740320.3, -1671.8018, 0.0, 10.0003395, 9.999139 
1.7450655e+3, 2.346283e+2, -761888.8, -792389.6, -27502.293, -0.0045413235, 0.117135815, -745691.6, -105037.52, 0.0, 9.999553, 9.9991455 
1.7450406e+3, 2.4462771e+2, -730545.4, -693476.8, -30075.809, 0.006154427, 0.13407445, -676683.0, -134023.0, 0.0, 9.998953, 9.999439 
1.7450155e+3, 2.546271e+2, -688249.5, -621425.9, -25705.146, 0.007571403, 0.12848175, -612682.0, -168015.83, 0.0, 9.998567, 9.999447 
1.7449908e+3, 2.646266e+2, -647534.4, -510716.25, 1220.8866, 0.008676719, 0.118075706, -510705.38, -164033.0, 0.0, 9.998001, 9.999806 
1.7449662e+3, 2.7462634e+2, -661605.2, -466119.5, 2185.4656, 0.002949049, 0.1107529, -466095.1, -217418.69, 0.0, 9.997229, 9.999811 
1.7449415e+3, 2.8462696e+2, -596581.6, -320014.1, -7310.3193, -0.015945125, 0.16685152, -319821.0, -169149.28, 0.0, 9.996727, 10.000384 
1.7449164e+3, 2.9462817e+2, -533471.75, -242913.22, -19708.441, -0.03374882, 0.24762453, -241582.5, -188922.11, 0.0, 9.996505, 10.000348 
1.7448917e+3, 3.04627e+2, -528232.0, -160148.88, -24535.305, -0.008725461, 0.08105142, -158520.63, -158520.63, 0.0, 9.995965, 10.000844 
1.7448671e+3, 3.1462908e+2, -549582.4, 252.68599, 77553.07, -0.014715726, 0.19618791, 10982.015, 10982.015, 0.0, 9.995088, 10.002366 
1.7553444e+3, 1.2467264e+2, -1149480.0, -1733881.9, 96455.43, -0.026062312, 0.18418132, -1133971.6, 584255.06, 0.06863212, 10.005515, 9.997217 
1.7553188e+3, 1.3467008e+2, -1052247.9, -1643776.0, -106645.875, 0.02828057, 0.19996479, -1033608.1, 586644.2, 0.04516559, 10.005395, 9.997227 
1.755292e+3, 1.4466748e+2, -975400.6, -1507770.0, -44628.664, -0.07092868, 0.20214267, -971685.3, 550592.3, 0.023328304, 10.004925, 9.997705 
1.7552683e+3, 1.5466496e+2, -978907.06, -1458571.5, -17584.854, 0.0147987055, 0.17480087, -978263.25, 446038.28, 0.008193595, 10.004146, 9.997744 
1.7552434e+3, 1.6466285e+2, -941645.94, -1350959.1, -40379.39, 0.009431138, 0.17631094, -937700.5, 388621.03, 0.0014648308, 10.00353, 9.998107 
1.7552176e+3, 1.746612e+2, -903891.44, -1281760.1, -39729.92, -0.047166433, 0.1986637, -899759.3, 328577.66, 0.000061555744, 10.003112, 9.99811 
1.7551923e+3, 1.8465924e+2, -871130.5, -1190601.1, -51426.383, -0.046276003, 0.18616152, -863056.25, 267299.1, 0.0000000010737394, 10.002558, 9.99833 
1.7551672e+3, 1.94657e+2, -875136.25, -1142153.4, -51084.453, 0.0026727472, 0.12685913, -865696.75, 166679.7, 0.0, 10.001859, 9.998326 
1.7551419e+3, 2.0465545e+2, -812914.44, -988628.3, -50205.805, 0.010714102, 0.11388702, -799581.1, 134809.27, 0.0, 10.001301, 9.998977 
1.7551161e+3, 2.146548e+2, -770903.1, -916110.25, -43119.77, -0.021121718, 0.14599468, -759063.8, 77331.78, 0.0, 10.000909, 9.99899 
1.7550905e+3, 2.2465384e+2, -752823.56, -850107.3, -51551.35, -0.023799028, 0.15470462, -730588.25, 7816.033, 0.0, 10.000334, 9.999046 
1.755065e+3, 2.3465267e+2, -768963.06, -807730.0, -55577.242, 0.0042617708, 0.12913932, -729486.06, -89069.92, 0.0, 9.999553, 9.999041 
1.7550394e+3, 2.4465181e+2, -719195.3, -670071.4, -44454.914, 0.00033631365, 0.11836596, -643844.25, -101419.94, 0.0, 9.998952, 9.999601 
1.7550136e+3, 2.5465137e+2, -676013.0, -596735.75, -38490.176, -0.03563335, 0.11256873, -581123.0, -136695.16, 0.0, 9.998569, 9.999617 
1.7549886e+3, 2.6465115e+2, -640661.6, -498009.63, -26447.713, -0.020168183, 0.119032286, -493264.1, -146833.36, 0.0, 9.998005, 9.999892 
1.7549638e+3, 2.746513e+2, -655532.1, -454553.34, -24832.06, 0.044705287, 0.14049913, -451530.66, -203099.28, 0.0, 9.997231, 9.999891 
1.7549385e+3, 2.8465176e+2, -603604.8, -334880.16, -15425.643, 0.02142965, 0.18549058, -333997.6, -183569.33, 0.0, 9.996726, 10.000282 
1.7549124e+3, 2.946525e+2, -542567.8, -266034.4, -27112.168, -0.07782106, 0.22890328, -263401.3, -210979.05, 0.0, 9.996521, 10.000182 
1.754888e+3, 3.0465144e+2, -562308.3, -234617.06, -56753.137, 0.016862499, 0.10750704, -225066.3, -225066.3, 0.0, 9.995979, 10.000327 
1.7548624e+3, 3.146529e+2, -533699.0, 36524.28, 45479.957, 0.0059587713, 0.20882125, 40128.895, 40128.895, 0.0, 9.995072, 10.002624 
1.7653501e+3, 1.246972e+2, -1098179.1, -1708807.4, 118185.695, -0.04128878, 0.20509554, -1076102.6, 641884.06, 0.072620004, 10.005925, 9.997194 
1.7653245e+3, 1.346945e+2, -1054416.3, -1639187.9, -55469.164, 0.06338451, 0.20545158, -1049201.3, 570812.06, 0.04797412, 10.005377, 9.997261 
1.7652966e+3, 1.4469177e+2, -994529.1, -1499556.5, -6440.966, -0.084056616, 0.18431897, -994447.0, 527592.56, 0.024962751, 10.004724, 9.99786 
1.7652725e+3, 1.5468955e+2, -986442.1, -1444570.9, 4594.1387, 0.024380302, 0.16992863, -986396.06, 437664.0, 0.008896892, 10.004024, 9.997897 
1.7652471e+3, 1.6468756e+2, -960511.4, -1364204.5, -16533.34, 0.026845876, 0.17910258, -959835.4, 366243.4, 0.0016408376, 10.003424, 9.998065 
1.7652206e+3, 1.7468587e+2, -933247.3, -1301277.6, -19971.834, -0.04437009, 0.20191723, -932166.6, 295928.72, 0.00007487245, 10.002936, 9.998058 
1.7651945e+3, 1.846839e+2, -876624.4, -1181117.3, -32347.656, -0.05579321, 0.18667339, -873225.9, 256888.05, 0.000000009428086, 10.002469, 9.998437 
1.7651689e+3, 1.9468172e+2, -842676.44, -1114119.9, -23099.709, -0.015498132, 0.12215354, -840724.7, 191409.25, 0.0, 10.00203, 9.998435 
1.7651431e+3, 2.0468019e+2, -788836.1, -984703.3, -22386.55, 0.0024102314, 0.10961655, -786310.0, 147837.7, 0.0, 10.0015, 9.998906 
1.7651172e+3, 2.1467952e+2, -782719.0, -929826.75, -34584.355, 0.00018320547, 0.14885041, -774994.06, 61159.61, 0.0, 10.000866, 9.998916 
1.765091e+3, 2.246786e+2, -763914.3, -844940.7, -52931.508, 0.00027258694, 0.16005372, -737771.2, 391.01196, 0.0, 10.000215, 9.999139 
1.7650646e+3, 2.3467746e+2, -764280.9, -794850.9, -43961.24, 0.00067439117, 0.13087513, -733023.2, -92850.06, 0.0, 9.999541, 9.999133 
1.7650382e+3, 2.446766e+2, -718878.4, -663660.44, -19013.924, -0.013708697, 0.11255229, -657746.5, -115565.5, 0.0, 9.998928, 9.999657 
1.7650121e+3, 2.5467616e+2, -698252.3, -601125.75, -22756.797, -0.0408408, 0.0982302, -596058.2, -151873.56, 0.0, 9.99839, 9.999672 
1.7649864e+3, 2.6467603e+2, -660849.6, -503984.16, -24257.027, -0.020069422, 0.109618634, -500318.8, -154132.38, 0.0, 9.997853, 9.999924 
1.764961e+3, 2.746763e+2, -640704.44, -443533.22, -27648.379, 0.045426663, 0.14318003, -439729.6, -191544.22, 0.0, 9.997318, 9.999923 
1.7649353e+3, 2.846766e+2, -593070.8, -339131.9, -6319.711, 0.015471157, 0.17536181, -338974.72, -188790.75, 0.0, 9.9968405, 10.000197 
1.7649087e+3, 2.9467702e+2, -568022.4, -291827.75, -17622.65, -0.09309067, 0.19692588, -290707.88, -238526.08, 0.0, 9.996407, 10.000059 
1.7648844e+3, 3.0467656e+2, -578621.4, -269443.63, -44369.918, 0.07275896, 0.1542047, -263202.13, -263202.13, 0.0, 9.995985, 10.000084 
1.7648575e+3, 3.1467694e+2, -461016.34, 75974.56, 54206.37, -0.014794989, 0.16684645, 81391.76, 81391.76, 0.0, 9.995556, 10.002659 
1.7753561e+3, 1.24722525e+2, -1099065.1, -1700182.9, 71995.52, -0.0299416, 0.2264885, -1090562.6, 627176.2, 0.07681606, 10.005904, 9.997263 
1.7753303e+3, 1.3471963e+2, -1045420.8, -1615363.1, -74668.24, 0.113282055, 0.19029568, -1035800.9, 583965.7, 0.05092186, 10.005372, 9.997429 
1.7753012e+3, 1.4471687e+2, -997703.7, -1505119.0, -32600.33, -0.09757144, 0.16011955, -995617.75, 526174.94, 0.026675291, 10.0047245, 9.997822 
1.7752762e+3, 1.5471503e+2, -988465.75, -1451917.3, -20437.373, -0.003537882, 0.18975028, -987566.25, 436243.3, 0.009636663, 10.004037, 9.997841 
1.7752503e+3, 1.6471292e+2, -965442.44, -1377381.5, -34925.93, 0.010475431, 0.19378272, -962502.25, 363327.4, 0.0018298835, 10.003434, 9.99797 
1.7752238e+3, 1.7471051e+2, -939666.2, -1315528.6, -36972.953, -0.020614538, 0.15514444, -936063.75, 291789.7, 0.000089597095, 10.002938, 9.997961 
1.7751972e+3, 1.8470864e+2, -861388.3, -1149359.5, -48185.527, -0.03590383, 0.1435239, -853539.5, 276331.53, 0.000000028818846, 10.002466, 9.998657 
1.7751707e+3, 1.9470747e+2, -826172.9, -1080276.8, -38421.086, -0.047955457, 0.1583096, -820490.56, 211390.2, 0.0, 10.002029, 9.998669 
1.7751443e+3, 2.0470603e+2, -810366.2, -1029051.94, -45553.594, -0.02689645, 0.15500243, -801256.56, 132637.7, 0.0, 10.001496, 9.998605 
1.7751184e+3, 2.147043e+2, -805653.94, -977255.94, -56710.902, 0.03690062, 0.12151521, -788605.8, 47305.676, 0.0, 10.000862, 9.998592 
1.7750916e+3, 2.2470316e+2, -745663.6, -806925.3, -77373.61, 0.043516256, 0.11319264, -693078.3, 44844.016, 0.0, 10.000212, 9.999402 
1.7750639e+3, 2.3470269e+2, -744277.9, -754155.6, -67630.49, -0.016576538, 0.12347605, -681406.2, -41480.746, 0.0, 9.999542, 9.999414 
1.7750369e+3, 2.4470206e+2, -722690.2, -672303.56, -38422.96, -0.03774864, 0.11534092, -651551.0, -109620.21, 0.0, 9.998929, 9.999598 
1.7750107e+3, 2.5470135e+2, -703026.7, -612430.94, -41281.363, -0.010455044, 0.08323178, -596442.2, -152504.84, 0.0, 9.998394, 9.999594 
1.7749844e+3, 2.6470107e+2, -662504.4, -508811.28, -43618.684, 0.005898531, 0.08868541, -497295.06, -151354.81, 0.0, 9.997857, 9.999889 
1.7749579e+3, 2.7470133e+2, -641240.5, -446840.4, -45864.152, -0.001831753, 0.11995148, -436563.16, -188624.13, 0.0, 9.997326, 9.999898 
1.7749314e+3, 2.8470144e+2, -596355.44, -348345.47, -22134.1, -0.039760515, 0.13627674, -346385.56, -196445.9, 0.0, 9.996849, 10.000132 
1.7749053e+3, 2.9470173e+2, -572429.7, -303081.63, -32739.402, -0.077762395, 0.14969432, -299159.28, -247219.45, 0.0, 9.996413, 9.99998 
1.7748812e+3, 3.0470234e+2, -573500.0, -259745.95, -57633.387, 0.1586605, 0.21852238, -249494.27, -249494.27, 0.0, 9.995988, 10.00015 
1.7748524e+3, 3.1470233e+2, -479034.56, 35246.453, 2055.3022, -0.06870182, 0.18715791, 35254.668, 35254.668, 0.0, 9.995568, 10.002374 
1.7853618e+3, 1.2474829e+2, -1137265.6, -1719837.8, 88897.76, -0.03534627, 0.20075604, -1124002.1, 593482.75, 0.08124809, 10.00565, 9.997247 
1.785336e+3, 1.3474566e+2, -1044975.7, -1604722.9, -32902.117, 0.1412304, 0.18363743, -1043048.3, 576461.94, 0.054021534, 10.005352, 9.997512 
1.7853059e+3, 1.447429e+2, -978752.5, -1510771.3, -1777.7058, -0.11449395, 0.15797186, -978746.56, 542789.9, 0.02847006, 10.004937, 9.997677 
1.7852801e+3, 1.5474084e+2, -940229.25, -1445765.5, 1664.9623, -0.024453877, 0.18097948, -940223.75, 483332.3, 0.010413247, 10.004453, 9.997681 
1.7852537e+3, 1.647386e+2, -904773.0, -1339688.0, -13294.909, 0.0012859697, 0.17697662, -904366.94, 421210.47, 0.0020316045, 10.0038185, 9.998042 
1.7852269e+3, 1.7473616e+2, -923337.44, -1298792.0, -4113.963, -0.0034618664, 0.12808427, -923292.3, 304308.6, 0.000105598076, 10.0030155, 9.998037 
1.7852e+3, 1.847344e+2, -874481.7, -1156210.9, -8359.042, -0.012369684, 0.124342166, -874233.9, 255383.67, 0.0000000562377, 10.002383, 9.998649 
1.7851727e+3, 1.947335e+2, -838890.06, -1087514.6, -17394.545, -0.04103857, 0.16776098, -837679.0, 193946.38, 0.0, 10.001951, 9.998655 
1.7851457e+3, 2.0473213e+2, -827761.4, -1029579.1, -30775.283, -0.034267686, 0.16888106, -823172.8, 110465.73, 0.0, 10.001346, 9.9986725 
1.7851187e+3, 2.1473025e+2, -846743.6, -989534.1, -15236.7, 0.017768556, 0.113810055, -845135.9, -9478.923, 0.0, 10.000549, 9.998658 
1.7850916e+3, 2.2472905e+2, -769678.1, -816490.56, -19002.365, 0.02915894, 0.09619297, -762935.75, -25267.521, 0.0, 10.000039, 9.999419 
1.7850636e+3, 2.3472863e+2, -698546.25, -729507.94, -29970.365, -0.00848346, 0.10991964, -680294.6, -40623.918, 0.0, 9.999847, 9.999435 
1.7850362e+3, 2.4472807e+2, -666633.1, -650780.94, -19864.748, -0.023069603, 0.11077654, -637319.4, -95643.91, 0.0, 9.99934, 9.999547 
1.7850092e+3, 2.5472748e+2, -695990.7, -615641.6, -22599.926, -0.0052156025, 0.09466484, -609721.1, -166039.6, 0.0, 9.99847, 9.999534 
1.7849822e+3, 2.6472715e+2, -664639.06, -520158.9, -14222.152, 0.004457862, 0.10305332, -518772.25, -173087.2, 0.0, 9.997887, 9.999797 
1.7849553e+3, 2.7472714e+2, -603485.56, -438960.5, -21691.484, -0.0091163535, 0.11833238, -436148.7, -188462.67, 0.0, 9.99763, 9.999805 
1.7849283e+3, 2.8472704e+2, -571089.9, -330212.56, -8614.982, -0.053410012, 0.1169904, -329904.84, -180216.45, 0.0, 9.996998, 10.000184 
1.7849012e+3, 2.9472733e+2, -633956.75, -322373.66, -12178.615, -0.09260577, 0.12542032, -321898.38, -270210.06, 0.0, 9.995947, 10.000072 
1.784877e+3, 3.0472854e+2, -620483.44, -259990.02, 3432.9941, 0.17373969, 0.2389555, -259957.33, -259957.33, 0.0, 9.995569, 10.000349 
1.784848e+3, 3.1472847e+2, -467281.4, -1118.1044, 19382.09, -0.081111744, 0.1835052, -313.62607, -313.62607, 0.0, 9.995832, 10.001995 
1.7953672e+3, 1.2477454e+2, -1147989.1, -1734007.8, 42094.1, -0.06015015, 0.13563335, -1144980.9, 572244.3, 0.08593828, 10.005635, 9.997153 
1.7953414e+3, 1.3477254e+2, -1046429.0, -1604813.4, -43279.32, 0.14799878, 0.18471102, -1043094.4, 576150.44, 0.057284832, 10.005355, 9.997511 
1.7953105e+3, 1.4476983e+2, -997386.3, -1548923.9, -20339.2, -0.13682391, 0.17553793, -996637.3, 524634.1, 0.030354192, 10.004938, 9.997414 
1.7952845e+3, 1.5476698e+2, -960494.1, -1486252.3, -14751.803, -0.042514008, 0.14637963, -960080.56, 463219.03, 0.011231084, 10.004446, 9.997408 
1.7952575e+3, 1.647646e+2, -890723.3, -1309171.8, -42454.6, -0.005056593, 0.13250186, -886459.44, 438862.66, 0.0022472972, 10.003812, 9.998258 
1.7952299e+3, 1.7476276e+2, -906127.75, -1265029.3, -33304.17, 0.0057167923, 0.11925376, -903063.44, 324275.16, 0.00012299663, 10.003022, 9.998267 
1.7952025e+3, 1.847611e+2, -890272.75, -1190986.0, -24810.717, 0.01148829, 0.12682621, -888239.44, 241114.83, 0.000000085167756, 10.002388, 9.998408 
1.7951751e+3, 1.9475979e+2, -856828.2, -1125053.8, -32116.906, 0.00041607732, 0.15233669, -853036.2, 178331.89, 0.0, 10.001949, 9.9984 
1.795147e+3, 2.0475848e+2, -799192.6, -970129.44, -59693.367, -0.023364427, 0.1547312, -780410.6, 152969.92, 0.0, 10.001343, 9.9990835 
1.7951186e+3, 2.1475728e+2, -815709.44, -927044.8, -43679.973, -0.05610773, 0.12424129, -800618.1, 34772.777, 0.0, 10.000555, 9.999086 
1.7950909e+3, 2.2475617e+2, -785216.8, -850426.8, -26296.914, -0.04204767, 0.10538652, -775933.7, -38532.773, 0.0, 10.000044, 9.999185 
1.7950638e+3, 2.347552e+2, -716225.3, -766985.56, -35704.777, 0.021321187, 0.089102134, -697799.25, -58389.43, 0.0, 9.999847, 9.999179 
1.7950359e+3, 2.447546e+2, -669669.9, -656982.6, -51118.023, 0.02612288, 0.09995349, -611816.1, -70400.31, 0.0, 9.999337, 9.999507 
1.7950073e+3, 2.5475448e+2, -697979.44, -620375.1, -53619.793, -0.027972098, 0.13507885, -592990.5, -149572.92, 0.0, 9.998471, 9.999503 
1.7949799e+3, 2.6475415e+2, -674538.2, -542665.0, -23079.068, -0.026265845, 0.15226461, -538742.6, -193321.25, 0.0, 9.997892, 9.999641 
1.7949532e+3, 2.747536e+2, -613495.6, -463496.3, -28952.678, 0.022699995, 0.13299146, -458101.88, -210674.48, 0.0, 9.997643, 9.999632 
1.7949255e+3, 2.8475335e+2, -558258.06, -305559.6, -47110.867, -0.026792504, 0.11592805, -297062.38, -147631.48, 0.0, 9.9970045, 10.000351 
1.7948966e+3, 2.947539e+2, -616610.4, -285782.3, -49708.92, -0.1479726, 0.13167064, -278474.66, -227047.66, 0.0, 9.995942, 10.000325 
1.794872e+3, 3.0475506e+2, -597170.5, -211825.44, 16170.588, 0.10407296, 0.20702575, -211148.05, -211148.05, 0.0, 9.995568, 10.000682 
1.7948444e+3, 3.147557e+2, -481551.2, -37738.29, -20840.871, -0.02664219, 0.19646883, -36761.78, -36761.78, 0.0, 9.99586, 10.001732 
1.8053728e+3, 1.24801844e+2, -1153720.1, -1747580.0, 27017.834, -0.05994137, 0.13516264, -1152493.4, 564463.1, 0.09089874, 10.00567, 9.997042 
1.8053466e+3, 1.3479961e+2, -1029092.44, -1599526.6, -24251.28, 0.14339823, 0.165712, -1028063.25, 590915.6, 0.060723856, 10.005518, 9.99747 
1.8053155e+3, 1.4479697e+2, -977177.7, -1532306.5, -6282.8433, -0.14944844, 0.16092257, -977106.6, 543898.56, 0.03233773, 10.005066, 9.997464 
1.805289e+3, 1.5479422e+2, -978847.3, -1489837.9, 19833.102, -0.029367097, 0.13973752, -978078.7, 444953.28, 0.012096884, 10.004301, 9.997451 
1.8052614e+3, 1.6479193e+2, -914982.8, -1327845.6, -4699.4326, 0.011750448, 0.13554135, -914929.3, 410124.47, 0.0024794345, 10.00368, 9.998189 
1.8052329e+3, 1.7479014e+2, -881392.7, -1260588.4, -18383.824, -0.003982076, 0.13546535, -880503.5, 346566.6, 0.00014217784, 10.003227, 9.998197 
1.8052049e+3, 1.8478836e+2, -864026.06, -1180002.5, -13975.848, -0.002710906, 0.13417548, -863409.1, 265678.03, 0.00000010953618, 10.002579, 9.99839 
1.8051769e+3, 1.9478668e+2, -891309.1, -1143207.8, -5598.8506, 0.006036156, 0.12725979, -891184.75, 139919.25, 0.0, 10.001722, 9.998383 
1.8051483e+3, 2.047854e+2, -815798.6, -973926.7, -30076.07, -0.016805673, 0.13080464, -810271.3, 122845.04, 0.0, 10.001213, 9.999118 
1.8051192e+3, 2.147846e+2, -736580.2, -884117.25, -44116.336, -0.07095877, 0.13757667, -724395.0, 110728.125, 0.0, 10.001081, 9.9991255 
1.8050909e+3, 2.2478361e+2, -714443.06, -821049.56, -38362.574, -0.05994476, 0.13089938, -702073.44, 35058.688, 0.0, 10.000552, 9.999141 
1.8050633e+3, 2.3478247e+2, -757336.6, -792294.06, -33527.523, 0.021505242, 0.10084567, -737005.3, -97862.34, 0.0, 9.99959, 9.999129 
1.8050352e+3, 2.4478173e+2, -715981.1, -687226.6, -37548.08, 0.031709336, 0.1068271, -661397.4, -120247.22, 0.0, 9.999053, 9.999436 
1.805006e+3, 2.5478157e+2, -628993.4, -594360.94, -44275.664, -0.03330024, 0.14578928, -564135.75, -120983.4, 0.0, 9.998978, 9.999436 
1.8049778e+3, 2.647812e+2, -598405.8, -501298.53, -15919.433, -0.0358826, 0.1598934, -498755.34, -153598.73, 0.0, 9.998396, 9.999682 
1.8049505e+3, 2.747806e+2, -668761.56, -486204.44, -7843.006, 0.022197457, 0.13055655, -485868.13, -238704.86, 0.0, 9.997247, 9.999667 
1.8049222e+3, 2.8478047e+2, -617940.06, -322782.53, -16106.1455, -0.016194465, 0.12002167, -321906.25, -172741.17, 0.0, 9.996546, 10.000453 
1.8048929e+3, 2.9478133e+2, -542430.0, -232321.64, -24406.783, -0.13510312, 0.15557593, -230412.47, -179255.16, 0.0, 9.996377, 10.000483 
1.8048672e+3, 3.04782e+2, -530673.56, -159185.42, 45869.547, 0.050815668, 0.1611824, -153605.48, -153605.48, 0.0, 9.99594, 10.000862 
1.8048401e+3, 3.1478336e+2, -589338.7, -85774.56, -46007.28, 0.0038763632, 0.21266988, -81605.695, -81605.695, 0.0, 9.995105, 10.001766 
1.8153785e+3, 1.2483014e+2, -1166530.1, -1767727.0, -19452.492, -0.04486008, 0.19032767, -1165901.4, 550778.1, 0.09613329, 10.005657, 9.996911 
1.815352e+3, 1.348269e+2, -1038218.0, -1612372.4, -27096.65, 0.12170423, 0.12818094, -1036942.0, 581770.06, 0.06435093, 10.005509, 9.997381 
1.8153203e+3, 1.4482431e+2, -957355.2, -1487838.8, -33549.23, -0.15930821, 0.11820597, -955241.9, 565495.44, 0.034432396, 10.005062, 9.997781 
1.8152936e+3, 1.548225e+2, -955477.06, -1443153.0, -7837.5635, 0.010349774, 0.1586421, -955351.1, 467402.8, 0.013017642, 10.004313, 9.9977665 
1.8152654e+3, 1.6482046e+2, -936681.6, -1376851.8, -22157.45, 0.04586163, 0.18158905, -935569.06, 389204.47, 0.0027308292, 10.003695, 9.9978485 
1.8152359e+3, 1.7481825e+2, -905628.2, -1311971.3, -33842.75, -0.03403619, 0.17471957, -902828.8, 323967.0, 0.00016371385, 10.003229, 9.997845 
1.8152069e+3, 1.8481612e+2, -851874.56, -1154532.5, -45078.09, -0.055253685, 0.14668824, -845303.25, 283513.06, 0.00000012908751, 10.002576, 9.998568 
1.8151782e+3, 1.9481415e+2, -876180.56, -1114788.0, -36484.066, -0.022762688, 0.09155082, -870726.7, 160107.17, 0.0, 10.001733, 9.998574 
1.8151495e+3, 2.0481281e+2, -838011.7, -1022734.94, -35129.785, -0.016102271, 0.09613376, -831556.44, 101290.23, 0.0, 10.001223, 9.99878 
1.8151206e+3, 2.1481219e+2, -761282.6, -935751.6, -47377.914, -0.032635648, 0.15428615, -749247.1, 85606.79, 0.0, 10.00108, 9.998774 
1.8150917e+3, 2.2481135e+2, -705187.25, -800759.8, -73127.695, -0.030265138, 0.17404991, -665616.9, 71245.29, 0.0, 10.0005455, 9.999285 
1.8150626e+3, 2.3481035e+2, -745652.0, -769606.6, -67886.48, -0.0084270295, 0.14418401, -688694.3, -49823.656, 0.0, 9.999595, 9.999285 
1.8150337e+3, 2.4480943e+2, -723070.9, -703868.44, -40004.313, -0.006307607, 0.12841712, -672329.3, -131450.02, 0.0, 9.999059, 9.999321 
1.815005e+3, 2.5480872e+2, -636731.94, -612408.3, -45149.72, -0.024800684, 0.12427532, -577811.1, -134924.38, 0.0, 9.998982, 9.999311 
1.8149763e+3, 2.648083e+2, -581059.75, -465979.22, -57645.105, -0.027932612, 0.1251511, -442071.1, -97179.45, 0.0, 9.998397, 9.999926 
1.8149474e+3, 2.748081e+2, -651442.2, -449659.16, -49997.965, -0.016485222, 0.11419932, -437950.06, -191056.22, 0.0, 9.997243, 9.999921 
1.8149187e+3, 2.848084e+2, -614356.06, -317741.88, -21590.53, -0.025764491, 0.13095571, -316178.53, -167287.31, 0.0, 9.9965515, 10.000487 
1.81489e+3, 2.9480955e+2, -533638.0, -222946.66, -26340.682, -0.051172964, 0.19309722, -220729.3, -169849.17, 0.0, 9.99641, 10.000533 
1.8148626e+3, 3.048092e+2, -530163.44, -161685.06, 14622.296, 0.012439032, 0.09637062, -161105.72, -161105.72, 0.0, 9.995956, 10.000836 
1.8148348e+3, 3.1481e+2, -560144.1, -21288.283, -95141.99, -0.04326664, 0.09568613, -4983.1055, -4983.1055, 0.0, 9.995085, 10.00222 
1.825384e+3, 1.2485868e+2, -1180286.1, -1773778.0, -5182.04, -0.05081005, 0.18321611, -1180240.9, 536158.6, 0.10163583, 10.00558, 9.996906 
1.8253572e+3, 1.3485548e+2, -1050169.6, -1614342.9, 31565.143, 0.11667284, 0.12438659, -1048409.06, 570022.4, 0.06817071, 10.005429, 9.997404 
1.8253255e+3, 1.4485295e+2, -949513.25, -1487356.3, 4379.5337, -0.13892695, 0.12151993, -949477.56, 570978.5, 0.03664611, 10.005147, 9.997742 
1.8252979e+3, 1.54851e+2, -896630.3, -1418384.4, 5131.2056, 0.0072435807, 0.15213163, -896579.8, 525894.4, 0.013998742, 10.004748, 9.9977255 
1.8252692e+3, 1.6484894e+2, -882747.6, -1355352.3, -16120.361, 0.034950588, 0.17550126, -882198.44, 442296.06, 0.0030039928, 10.00409, 9.997803 
1.8252389e+3, 1.748468e+2, -920408.7, -1323930.6, -8108.5474, -0.03967093, 0.18123884, -920245.8, 306270.53, 0.00018819183, 10.003152, 9.997798 
1.8252093e+3, 1.8484463e+2, -866950.1, -1170301.4, -12090.711, -0.058502257, 0.15769185, -866469.0, 262068.11, 0.00000015151502, 10.002512, 9.998489 
1.8251802e+3, 1.9484255e+2, -815281.94, -1094121.1, -24026.896, -0.02699998, 0.0989374, -813226.75, 217328.83, 0.0, 10.002192, 9.998493 
1.8251508e+3, 2.0484105e+2, -789304.5, -1007796.75, -20882.588, -0.015263897, 0.09531594, -787326.56, 145243.28, 0.0, 10.001596, 9.998701 
1.8251216e+3, 2.148402e+2, -821158.6, -972875.6, -14798.745, -0.020666745, 0.14141689, -819728.56, 14850.353, 0.0, 10.000707, 9.998696 
1.825092e+3, 2.2483933e+2, -760075.8, -830602.0, -36720.492, -0.02293724, 0.16205947, -744428.44, -7840.6875, 0.0, 10.000185, 9.999253 
1.8250622e+3, 2.3483844e+2, -681884.3, -741193.8, -46514.645, -0.023008058, 0.14632958, -656375.5, -17780.066, 0.0, 10.000046, 9.99926 
1.8250328e+3, 2.4483748e+2, -661791.75, -670916.25, -20589.773, -0.02093896, 0.12763989, -645264.8, -104660.47, 0.0, 9.999468, 9.999348 
1.8250038e+3, 2.548366e+2, -718292.4, -648847.75, -15076.782, -0.01623781, 0.10104995, -645715.75, -203102.3, 0.0, 9.998412, 9.999335 
1.8249744e+3, 2.6483622e+2, -663359.5, -492330.1, -30140.79, -0.021124762, 0.10298802, -487173.78, -142556.22, 0.0, 9.997776, 10.000043 
1.8249446e+3, 2.7483645e+2, -595203.6, -409140.97, -34801.05, -0.034315933, 0.12159877, -402844.84, -156228.75, 0.0, 9.997574, 10.000038 
1.8249154e+3, 2.8483692e+2, -535980.2, -280523.13, -4769.818, -0.02616213, 0.14781055, -280434.1, -131822.03, 0.0, 9.997093, 10.000481 
1.8248868e+3, 2.948378e+2, -552408.06, -231479.27, -13554.258, -0.00014119995, 0.18808372, -230907.83, -180304.9, 0.0, 9.996281, 10.000537 
1.8248579e+3, 3.0483738e+2, -596456.0, -197354.92, 16566.875, -0.030616228, 0.08271628, -196668.4, -196668.4, 0.0, 9.995521, 10.0008 
1.82483e+3, 3.148383e+2, -538841.44, 36713.527, -82742.67, -0.005684547, 0.09803679, 48372.566, 48372.566, 0.0, 9.995024, 10.002648 
1.8353891e+3, 1.2488751e+2, -1178435.9, -1761866.8, -44988.496, -0.092762336, 0.12401877, -1174987.3, 541128.75, 0.10739064, 10.005578, 9.996993 
1.8353628e+3, 1.3488528e+2, -1045077.1, -1600648.8, 26774.438, 0.12509893, 0.1523227, -1043789.75, 574348.2, 0.07217789, 10.005437, 9.997502 
1.8353312e+3, 1.448828e+2, -974445.25, -1538841.0, -10447.402, -0.09471981, 0.16657336, -974251.94, 545910.7, 0.03898122, 10.005152, 9.99738 
1.8353023e+3, 1.5487973e+2, -923320.25, -1471954.8, -7939.9917, -0.03883359, 0.121741004, -923205.4, 498987.53, 0.015043764, 10.004739, 9.997364 
1.8352726e+3, 1.6487736e+2, -869844.4, -1326134.5, -50500.117, -0.020754702, 0.12181644, -864322.1, 459894.16, 0.0033011416, 10.004079, 9.998011 
1.8352422e+3, 1.7487572e+2, -903676.8, -1292349.3, -42488.074, -0.024194393, 0.1571062, -899086.4, 327145.66, 0.00021620851, 10.003163, 9.998011 
1.8352121e+3, 1.8487383e+2, -887574.0, -1217395.9, -24067.74, -0.019333612, 0.16768317, -885826.94, 242423.23, 0.00000018976193, 10.002527, 9.99816 
1.8351825e+3, 1.9487181e+2, -838046.06, -1143598.6, -34394.465, -0.011064956, 0.14766817, -834222.3, 196047.45, 0.0, 10.002198, 9.998153 
1.8351525e+3, 2.0487003e+2, -777882.1, -984599.1, -53020.945, -0.017010476, 0.1269422, -765076.1, 167210.23, 0.0, 10.001596, 9.998862 
1.8351223e+3, 2.1486862e+2, -807816.3, -947546.6, -46434.773, -0.03523043, 0.097677566, -793792.7, 40506.21, 0.0, 10.000714, 9.998869 
1.835092e+3, 2.2486746e+2, -774170.75, -861498.7, -41607.4, -0.03864803, 0.09410753, -757521.2, -21211.496, 0.0, 10.00019, 9.99904 
1.8350622e+3, 2.3486666e+2, -697062.5, -773447.7, -49876.465, -0.026126087, 0.10844264, -672435.25, -34117.36, 0.0, 10.000046, 9.99904 
1.8350324e+3, 2.4486585e+2, -650788.06, -647065.0, -58852.387, -0.015717203, 0.105883926, -590044.7, -49718.816, 0.0, 9.999462, 9.9995165 
1.8350022e+3, 2.5486508e+2, -705339.2, -622354.94, -52892.67, -0.009763755, 0.07700958, -596621.8, -154288.8, 0.0, 9.998412, 9.999518 
1.8349722e+3, 2.6486492e+2, -664638.25, -497206.4, -36999.43, -0.017108846, 0.093314365, -489394.66, -145059.55, 0.0, 9.997782, 10.000009 
1.8349421e+3, 2.7486554e+2, -596383.06, -415602.1, -39948.85, -0.033929672, 0.1515207, -407167.72, -160836.8, 0.0, 9.997586, 9.9999895 
1.8349126e+3, 2.8486586e+2, -537478.1, -287049.56, -34808.36, -0.020863533, 0.16724342, -282301.38, -133972.55, 0.0, 9.997107, 10.00043 
1.8348832e+3, 2.9486597e+2, -555410.25, -238809.03, -45206.832, 0.008323962, 0.13634513, -232480.55, -182153.45, 0.0, 9.9962845, 10.000485 
1.8348528e+3, 3.0486652e+2, -601021.6, -206806.5, -5453.1113, -0.079412654, 0.13521709, -206731.08, -206731.08, 0.0, 9.995518, 10.000738 
1.8348254e+3, 3.148679e+2, -526494.75, 54247.3, -55807.91, 0.027545292, 0.20423497, 59561.676, 59561.676, 0.0, 9.995051, 10.00276 
1.8453951e+3, 1.2491744e+2, -1121085.6, -1732822.9, -35672.938, -0.07383766, 0.111672685, -1119012.4, 596809.56, 0.11337835, 10.006069, 9.996953 
1.8453678e+3, 1.3491514e+2, -1001574.75, -1579154.3, 55041.914, 0.08249706, 0.13358042, -996376.2, 621467.6, 0.07636637, 10.005787, 9.997492 
1.8453363e+3, 1.4491268e+2, -975666.06, -1559561.3, 6919.528, -0.08639524, 0.16024548, -975584.1, 544284.4, 0.041440304, 10.005245, 9.99719 
1.8453068e+3, 1.5490946e+2, -986055.25, -1524165.8, 18321.744, -0.03882276, 0.11907523, -985432.2, 436469.4, 0.016156979, 10.0044, 9.997168 
1.8452765e+3, 1.6490693e+2, -906087.2, -1342579.3, -23129.86, -0.020115906, 0.11622753, -904864.94, 419061.5, 0.0036248518, 10.003828, 9.998017 
1.8452457e+3, 1.7490524e+2, -847251.1, -1264003.5, -30112.746, -0.018234544, 0.14389488, -845086.56, 380855.5, 0.00024857154, 10.00355, 9.998017 
1.845215e+3, 1.8490334e+2, -821701.6, -1196969.4, -9124.144, -0.013682359, 0.15705945, -821479.94, 306480.47, 0.00000025167606, 10.003032, 9.998055 
1.8451847e+3, 1.9490132e+2, -835055.75, -1153426.6, -4748.3013, -0.011301393, 0.14995433, -834984.94, 194995.61, 0.0, 10.002271, 9.998048 
1.845154e+3, 2.0489949e+2, -773316.44, -983453.7, -25878.5, -0.016423283, 0.12964214, -770176.44, 161821.3, 0.0, 10.001635, 9.998851 
1.845123e+3, 2.1489793e+2, -748842.8, -919930.8, -33309.08, -0.027665976, 0.08789, -742586.6, 91424.27, 0.0, 10.001126, 9.998858 
1.8450925e+3, 2.248967e+2, -729059.7, -844773.1, -18668.64, -0.032590203, 0.07917694, -726122.4, 9900.06, 0.0, 10.000524, 9.998992 
1.8450621e+3, 2.3489587e+2, -733440.3, -796673.9, -15898.648, -0.029380206, 0.09664995, -729668.0, -91636.61, 0.0, 9.999823, 9.998987 
1.8450315e+3, 2.4489516e+2, -683112.56, -656539.75, -35653.168, -0.02398425, 0.10411813, -631777.8, -91739.05, 0.0, 9.999215, 9.99957 
1.8450007e+3, 2.548946e+2, -660197.7, -593197.1, -40320.426, -0.018838538, 0.092040226, -574276.0, -132232.27, 0.0, 9.998693, 9.999581 
1.84497e+3, 2.6489446e+2, -631463.5, -496855.28, -20170.28, -0.022143314, 0.111799195, -493897.84, -149851.94, 0.0, 9.998082, 9.999864 
1.8449397e+3, 2.748948e+2, -635691.06, -451406.06, -30995.934, -0.028805751, 0.15855736, -446332.34, -200287.92, 0.0, 9.997393, 9.999835 
1.8449095e+3, 2.8489482e+2, -573495.06, -307687.53, -35666.35, -0.013184996, 0.15915963, -302984.97, -154940.11, 0.0, 9.996876, 10.000399 
1.8448795e+3, 2.9489478e+2, -534518.25, -232020.94, -50437.582, 0.011519962, 0.11093903, -223832.77, -173787.58, 0.0, 9.996445, 10.000453 
1.8448485e+3, 3.04896e+2, -564053.94, -195669.6, -5221.9634, -0.0871593, 0.18060751, -195595.58, -195595.58, 0.0, 9.995806, 10.000673 
1.8448204e+3, 3.1489667e+2, -512586.38, 33764.223, -7549.9316, 0.02430042, 0.18270546, 33868.535, 33868.535, 0.0, 9.995264, 10.002516 
1.8554017e+3, 1.2494837e+2, -1132816.6, -1753307.5, -66554.97, -0.023697771, 0.13832128, -1125758.1, 589760.44, 0.11958355, 10.006075, 9.996816 
1.8553728e+3, 1.3494508e+2, -1011448.06, -1592850.5, 46385.477, -0.011683649, 0.07077864, -1007770.6, 609778.3, 0.08073837, 10.005779, 9.997395 
1.8553413e+3, 1.4494263e+2, -983243.25, -1570454.8, -24438.56, -0.115186125, 0.1062119, -982227.94, 537345.5, 0.04403225, 10.005232, 9.997124 
1.8553115e+3, 1.549401e+2, -990091.7, -1534673.9, -12894.714, 0.000473017, 0.14271481, -989786.5, 431814.47, 0.017346308, 10.004412, 9.997091 
1.8552807e+3, 1.6493762e+2, -916240.3, -1367728.8, -34028.094, 0.027811874, 0.15658729, -913690.06, 409935.78, 0.003979057, 10.003843, 9.997838 
1.855249e+3, 1.7493531e+2, -859147.6, -1290001.1, -39424.258, -0.023527127, 0.14084382, -855569.9, 370076.9, 0.0002864812, 10.003552, 9.997839 
1.8552177e+3, 1.849331e+2, -815877.75, -1184604.9, -37180.293, -0.041447733, 0.12634659, -812166.06, 315501.94, 0.0000003514084, 10.003028, 9.998144 
1.8551867e+3, 1.9493105e+2, -828067.4, -1140094.4, -32181.39, -0.028272811, 0.10697696, -824782.9, 204905.67, 0.0, 10.002273, 9.99814 
1.8551557e+3, 2.0492935e+2, -785123.1, -1009456.94, -44709.11, -0.0156384, 0.104637854, -776541.0, 155163.66, 0.0, 10.001638, 9.998672 
1.8551244e+3, 2.149281e+2, -761798.25, -947381.9, -50701.105, -0.00182331, 0.11202901, -748850.2, 84865.33, 0.0, 10.001125, 9.998672 
1.8550931e+3, 2.2492696e+2, -722344.44, -830749.8, -44073.76, -0.007933146, 0.116349205, -706687.06, 29039.469, 0.0, 10.000521, 9.999091 
1.855062e+3, 2.3492599e+2, -725935.8, -782237.7, -40381.344, -0.034138005, 0.108934306, -704861.5, -67124.64, 0.0, 9.9998255, 9.999086 
1.8550304e+3, 2.4492529e+2, -687745.3, -667555.0, -54682.168, -0.047507588, 0.12039299, -622043.94, -82300.0, 0.0, 9.999218, 9.999494 
1.854999e+3, 2.5492507e+2, -664766.0, -604171.75, -58543.137, -0.047830652, 0.14595929, -568550.6, -126804.22, 0.0, 9.998697, 9.999506 
1.8549679e+3, 2.6492468e+2, -649841.0, -536162.94, -45807.17, -0.038590617, 0.15825751, -520002.16, -176251.17, 0.0, 9.998085, 9.999594 
1.8549371e+3, 2.749241e+2, -653981.5, -490287.38, -54451.17, -0.020407064, 0.1433128, -473829.44, -228071.83, 0.0, 9.9973955, 9.999569 
1.8549065e+3, 2.849238e+2, -574585.7, -312477.0, -51417.45, -0.006496499, 0.12418669, -302751.4, -154990.2, 0.0, 9.996882, 10.000364 
1.8548758e+3, 2.9492408e+2, -533792.3, -235391.89, -69274.83, 0.001211568, 0.11171019, -220093.75, -170335.17, 0.0, 9.996462, 10.000423 
1.8548445e+3, 3.0492556e+2, -564311.1, -201314.3, -30366.883, -0.049275044, 0.21378113, -198791.45, -198791.45, 0.0, 9.995827, 10.000625 
1.854815e+3, 3.1492618e+2, -563257.4, -77125.695, 11707.099, -0.036908247, 0.215694, -76843.92, -76843.92, 0.0, 9.995287, 10.001744 
1.8654083e+3, 1.24979414e+2, -1077996.1, -1727140.8, -75309.164, 0.0016088868, 0.15841892, -1069373.8, 645840.94, 0.12600064, 10.006565, 9.99676 
1.8653782e+3, 1.3497591e+2, -1016390.25, -1599815.6, 43193.367, -0.038499426, 0.073647216, -1013209.8, 604037.8, 0.08530414, 10.005795, 9.997335 
1.8653469e+3, 1.4497352e+2, -990830.44, -1577421.8, -27287.818, -0.070177615, 0.12120464, -989563.75, 529707.56, 0.04677097, 10.005207, 9.997087 
1.8653162e+3, 1.5497088e+2, -937432.25, -1512318.3, -14016.813, 0.010698162, 0.15156311, -937090.7, 484208.47, 0.018622067, 10.004803, 9.997055 
1.8652847e+3, 1.6496827e+2, -860858.8, -1346860.5, -24826.92, 0.023643875, 0.15526956, -859593.9, 463731.28, 0.004368569, 10.004255, 9.997782 
1.8652526e+3, 1.7496574e+2, -862615.75, -1298241.9, -24431.082, -0.024113536, 0.12442707, -861249.9, 364098.25, 0.00033132714, 10.003558, 9.997779 
1.8652205e+3, 1.8496352e+2, -834709.2, -1191491.3, -27170.559, -0.04172844, 0.11465302, -832651.94, 294717.5, 0.00000050835786, 10.002891, 9.998161 
1.8651888e+3, 1.9496176e+2, -828679.3, -1138081.1, -28144.852, -0.032181945, 0.12059276, -826139.94, 203247.88, 0.0, 10.002261, 9.998158 
1.8651572e+3, 2.0496012e+2, -779224.0, -1005801.56, -29929.457, -0.02080059, 0.12249342, -775337.2, 156066.4, 0.0, 10.001678, 9.998675 
1.8651254e+3, 2.1495871e+2, -758570.44, -945428.6, -24396.797, -0.005799957, 0.113390304, -755437.6, 77978.09, 0.0, 10.001148, 9.9986725 
1.8650937e+3, 2.2495751e+2, -724392.56, -833591.44, -21555.559, -0.0030358268, 0.114148915, -720291.56, 15135.507, 0.0, 10.000518, 9.999072 
1.8650618e+3, 2.349566e+2, -733288.9, -787165.44, -27729.75, -0.014428574, 0.115903035, -721566.94, -84130.09, 0.0, 9.999784, 9.999071 
1.8650298e+3, 2.4495593e+2, -693034.8, -683605.4, -36831.797, -0.032733824, 0.13482459, -651187.75, -111743.445, 0.0, 9.999245, 9.999368 
1.8649977e+3, 2.5495562e+2, -645385.06, -609724.56, -46061.023, -0.054302756, 0.165997, -578163.2, -136714.94, 0.0, 9.998898, 9.99937 
1.864966e+3, 2.6495507e+2, -615556.56, -511749.56, -35752.668, -0.044489257, 0.1684235, -500627.47, -157173.64, 0.0, 9.998289, 9.999662 
1.8649346e+3, 2.7495435e+2, -648746.44, -478445.72, -19723.852, -0.009853997, 0.12820277, -476191.22, -230730.25, 0.0, 9.997395, 9.999648 
1.8649033e+3, 2.8495407e+2, -606909.75, -339666.44, 7774.8867, -0.008617905, 0.11380211, -339440.44, -191976.42, 0.0, 9.996716, 10.000257 
1.864872e+3, 2.9495454e+2, -567101.94, -263540.8, -18006.363, -0.024100969, 0.13349372, -262476.47, -213016.17, 0.0, 9.996289, 10.000311 
1.8648411e+3, 3.049556e+2, -556414.7, -180544.44, 17425.275, 0.008733149, 0.19055386, -179738.34, -179738.34, 0.0, 9.995809, 10.000774 
1.8648097e+3, 3.149561e+2, -588737.44, -107531.07, 83943.625, -0.093317434, 0.16752943, -93307.99, -93307.99, 0.0, 9.995192, 10.001579 
1.8754146e+3, 1.2501052e+2, -1086385.8, -1732033.1, -98465.59, -0.023181157, 0.15971051, -1071703.0, 643208.3, 0.13264258, 10.006543, 9.996746 
1.8753843e+3, 1.3500758e+2, -1021360.9, -1607163.3, 17228.643, -0.009467546, 0.13714932, -1020854.6, 596085.5, 0.09008262, 10.005808, 9.997275 
1.8753532e+3, 1.4500532e+2, -990314.75, -1577039.3, -41903.773, 0.03368884, 0.20116183, -987337.06, 531625.06, 0.049673032, 10.005223, 9.997084 
1.8753208e+3, 1.5500182e+2, -937294.56, -1511112.3, -26885.781, -0.008889424, 0.1451201, -936037.6, 484958.47, 0.019994553, 10.004803, 9.997065 
1.8752885e+3, 1.6499886e+2, -860047.0, -1343876.5, -50498.816, -0.030380668, 0.11273741, -854832.5, 468192.0, 0.0047980896, 10.004249, 9.9978075 
1.875256e+3, 1.7499651e+2, -860546.1, -1295287.9, -49521.953, -0.022079172, 0.09601001, -854976.4, 370069.97, 0.0003844447, 10.003561, 9.997799 
1.8752237e+3, 1.8499464e+2, -836683.9, -1197744.5, -50429.227, -0.019956108, 0.12320332, -829772.7, 297292.22, 0.000000733184, 10.002897, 9.998117 
1.8751912e+3, 1.9499342e+2, -831478.3, -1145362.6, -50458.926, -0.026274927, 0.18870533, -823566.2, 205512.86, 0.0, 10.002264, 9.998109 
1.8751587e+3, 2.0499173e+2, -767234.7, -982109.1, -49184.086, -0.03374739, 0.1802113, -756511.7, 174583.44, 0.0, 10.00168, 9.998838 
1.8751262e+3, 2.1498969e+2, -747184.0, -922444.75, -42793.117, -0.040005717, 0.09130121, -737293.44, 95818.79, 0.0, 10.001149, 9.998832 
1.875094e+3, 2.2498831e+2, -733476.1, -853304.94, -48628.934, -0.019043466, 0.073413484, -716225.06, 18899.758, 0.0, 10.000519, 9.998938 
1.8750618e+3, 2.349877e+2, -742383.2, -806781.6, -53633.492, 0.026706398, 0.11871194, -712025.7, -74893.68, 0.0, 9.999784, 9.998938 
1.8750294e+3, 2.4498697e+2, -705824.4, -711197.25, -48969.945, 0.017764105, 0.14759614, -659467.2, -120326.55, 0.0, 9.999247, 9.999179 
1.8749967e+3, 2.549862e+2, -658310.06, -639174.06, -57237.74, -0.040902365, 0.15205576, -590710.1, -149560.19, 0.0, 9.998906, 9.999165 
1.8749642e+3, 2.6498562e+2, -586228.9, -453462.53, -68792.82, -0.04236221, 0.14189522, -424246.66, -81091.32, 0.0, 9.998298, 10.00006 
1.874932e+3, 2.7498537e+2, -618127.0, -417645.16, -52340.316, -0.000629754, 0.112141766, -404803.16, -159647.67, 0.0, 9.997403, 10.000063 
1.8748997e+3, 2.8498557e+2, -619827.9, -368191.5, -8659.66, -0.023511967, 0.12972488, -367893.84, -220739.77, 0.0, 9.99672, 10.000059 
1.8748677e+3, 2.949862e+2, -582215.94, -294510.72, -31394.164, -0.06922012, 0.1840923, -291124.88, -241974.39, 0.0, 9.9962845, 10.000102 
1.8748376e+3, 3.0498585e+2, -529498.8, -129636.11, -4342.256, 0.08693416, 0.097316176, -129588.96, -129588.96, 0.0, 9.995824, 10.00112 
1.8748052e+3, 3.1498647e+2, -530967.6, 2544.4573, 29980.26, -0.05303614, 0.05554597, 4223.886, 4223.886, 0.0, 9.995233, 10.002316 
1.8854211e+3, 1.2504223e+2, -1088925.9, -1752253.4, -52506.457, -0.008760438, 0.14226052, -1084795.4, 629804.4, 0.13954647, 10.006665, 9.996534 
1.8853901e+3, 1.3503921e+2, -995276.94, -1629143.3, 31001.145, -0.016161261, 0.14694767, -993764.3, 622866.94, 0.09510255, 10.006198, 9.99693 
1.885359e+3, 1.450371e+2, -919123.7, -1513842.9, -26331.424, 0.081480615, 0.23116162, -917960.1, 600691.75, 0.05275569, 10.00564, 9.997316 
1.8853253e+3, 1.5503336e+2, -899733.1, -1466385.9, 1489.7589, -0.033172242, 0.12832244, -899729.2, 520956.88, 0.021471709, 10.004961, 9.997295 
1.8852924e+3, 1.6503036e+2, -859344.44, -1355125.3, -21609.684, -0.062887475, 0.08617768, -858404.3, 464310.13, 0.0052711233, 10.004306, 9.997702 
1.8852597e+3, 1.7502819e+2, -850253.2, -1302146.4, -30496.023, -0.0045470805, 0.09831365, -848204.44, 376531.25, 0.00044695268, 10.003685, 9.997692 
1.885227e+3, 1.8502635e+2, -811728.8, -1186547.3, -32752.684, 0.011813224, 0.13322878, -808888.3, 317866.25, 0.0000010252129, 10.003075, 9.998107 
1.8851936e+3, 1.9502497e+2, -801002.7, -1131634.8, -31906.88, -0.015733114, 0.1843748, -797951.75, 230818.28, 0.0, 10.00248, 9.998097 
1.8851604e+3, 2.050233e+2, -745283.7, -969337.06, -34238.652, -0.034567446, 0.17873062, -740168.3, 190617.77, 0.0, 10.001824, 9.998856 
1.8851273e+3, 2.1502148e+2, -751204.8, -922300.25, -39700.07, -0.04329242, 0.109243415, -742441.8, 90359.82, 0.0, 10.001115, 9.998848 
1.8850943e+3, 2.2502011e+2, -733670.5, -852770.1, -44387.344, -0.02367838, 0.092937656, -718947.75, 15866.4375, 0.0, 10.000519, 9.9989395 
1.8850617e+3, 2.3501936e+2, -705560.4, -788778.06, -40739.176, 0.02204678, 0.123472065, -688937.1, -52114.67, 0.0, 10.00004, 9.998936 
1.8850286e+3, 2.4501859e+2, -687295.6, -690073.3, -21298.379, 0.019906862, 0.14278263, -667340.9, -128509.69, 0.0, 9.999324, 9.999286 
1.8849954e+3, 2.5501785e+2, -730058.25, -662066.4, -8299.952, -0.023402406, 0.14057171, -661067.8, -220228.11, 0.0, 9.998366, 9.999266 
1.8849625e+3, 2.650173e+2, -657857.44, -478762.06, -16670.145, -0.015489239, 0.1271078, -477223.63, -134379.1, 0.0, 9.997769, 10.000139 
1.8849295e+3, 2.750172e+2, -596131.9, -397143.34, -26663.45, 0.02229877, 0.10357545, -393632.53, -148789.03, 0.0, 9.997516, 10.000149 
1.8848965e+3, 2.8501764e+2, -602476.2, -344246.22, 10301.847, -0.024868725, 0.13609517, -343835.9, -196996.3, 0.0, 9.996776, 10.0001955 
1.8848634e+3, 2.9501846e+2, -672564.75, -327364.4, 15298.265, -0.08889037, 0.19802223, -326687.78, -277853.8, 0.0, 9.995623, 10.000194 
1.8848334e+3, 3.0501783e+2, -625289.94, -196891.03, 49261.62, 0.12032789, 0.08660929, -191299.4, -191299.4, 0.0, 9.995258, 10.00093 
1.8848003e+3, 3.1501883e+2, -498496.44, 63823.82, -15501.205, -0.07185239, 0.10084229, 64250.813, 64250.813, 0.0, 9.995268, 10.002716 
1.895428e+3, 1.2507446e+2, -1114511.0, -1810503.4, -48559.87, 0.009967411, 0.10008514, -1111139.3, 603142.1, 0.14675902, 10.006702, 9.996118 
1.8953958e+3, 1.3507085e+2, -1037332.0, -1716908.8, 18054.855, -0.05772559, 0.10694276, -1036852.7, 579468.3, 0.10039479, 10.006192, 9.996332 
1.8953645e+3, 1.4506887e+2, -896633.8, -1458122.0, -49895.754, 0.07549082, 0.2125659, -892234.44, 626106.1, 0.056033384, 10.005616, 9.997735 
1.89533e+3, 1.550655e+2, -873410.5, -1408558.5, -23305.5, -0.06495146, 0.10461168, -872397.44, 547972.06, 0.023058036, 10.004956, 9.997697 
1.8952964e+3, 1.6506274e+2, -874655.7, -1388070.5, -45414.234, -0.08118586, 0.079127535, -870669.56, 451725.94, 0.0057896497, 10.00431, 9.997476 
1.8952636e+3, 1.7506072e+2, -865643.7, -1335331.3, -52767.793, 0.024329968, 0.12866282, -859788.4, 364628.63, 0.0005197467, 10.003687, 9.997465 
1.8952303e+3, 1.8505855e+2, -810676.3, -1185122.4, -54594.63, 0.049815293, 0.14128907, -802878.75, 323560.5, 0.0000013718216, 10.003076, 9.998117 
1.8951961e+3, 1.9505636e+2, -799826.3, -1130218.5, -52775.168, -0.0027515893, 0.11173215, -791601.0, 236860.1, 0.0, 10.002481, 9.998108 
1.8951622e+3, 2.0505482e+2, -753937.7, -988439.3, -60183.227, -0.02626394, 0.12326357, -739394.06, 191082.44, 0.0, 10.001826, 9.998726 
1.8951285e+3, 2.1505399e+2, -760996.5, -942677.5, -64510.004, -0.019829221, 0.1671283, -740420.94, 92063.67, 0.0, 10.001112, 9.998712 
1.895095e+3, 2.2505282e+2, -724284.1, -833654.06, -61584.734, -0.019997317, 0.17027934, -696609.4, 37886.51, 0.0, 10.000517, 9.999073 
1.8950613e+3, 2.3505148e+2, -696714.75, -771216.94, -56940.95, -0.029846847, 0.12945144, -665922.4, -29413.477, 0.0, 10.000041, 9.999058 
1.8950276e+3, 2.4505067e+2, -659570.7, -633750.56, -56417.555, -0.027476514, 0.12124218, -588784.8, -50268.254, 0.0, 9.999327, 9.999673 
1.894994e+3, 2.5505045e+2, -701752.56, -605007.4, -42563.12, -0.0036239503, 0.13178249, -588947.6, -148429.27, 0.0, 9.998371, 9.999658 
1.8949607e+3, 2.6505005e+2, -673692.1, -514132.66, -25131.432, 0.034196526, 0.12307808, -510267.94, -167745.6, 0.0, 9.997777, 9.999894 
1.8949273e+3, 2.7504975e+2, -611491.9, -433420.6, -36011.85, 0.05461929, 0.10189826, -426413.56, -181887.6, 0.0, 9.997531, 9.999894 
1.8948933e+3, 2.8505024e+2, -567664.94, -273773.66, -33266.953, -0.014819615, 0.13161515, -270055.06, -123533.53, 0.0, 9.996782, 10.000677 
1.8948591e+3, 2.9505134e+2, -645982.7, -271729.56, -20653.332, -0.08219565, 0.1730189, -270593.25, -222081.72, 0.0, 9.995617, 10.00058 
1.8948284e+3, 3.0505148e+2, -680626.7, -315971.2, 55808.67, 0.09497446, 0.1687114, -307621.16, -307621.16, 0.0, 9.995272, 10.000109 
1.8947956e+3, 3.1505185e+2, -500458.72, 57056.184, -91660.66, -0.064531386, 0.1912988, 71739.34, 71739.34, 0.0, 9.995282, 10.002661 
1.9054353e+3, 1.2510744e+2, -987220.2, -1711385.4, -30626.24, 0.030927548, 0.105131015, -985927.25, 728031.1, 0.15429772, 10.007679, 9.996326 
1.9054018e+3, 1.351036e+2, -1015022.5, -1707615.3, 40525.66, -0.09538174, 0.09109922, -1012659.25, 603340.0, 0.10596737, 10.006411, 9.996291 
1.90537e+3, 1.4510147e+2, -927301.06, -1490061.5, -16585.39, 0.07715152, 0.19516802, -926812.7, 591207.56, 0.059507374, 10.005492, 9.997561 
1.905335e+3, 1.5509814e+2, -895319.9, -1437430.0, -30176.12, -0.04233843, 0.107816, -893645.3, 526404.8, 0.024752527, 10.004892, 9.997527 
1.9053009e+3, 1.6509546e+2, -864255.8, -1370576.1, -56936.816, -0.060301024, 0.09268961, -857932.1, 464143.6, 0.0063538076, 10.004333, 9.997583 
1.9052674e+3, 1.750935e+2, -839246.06, -1310746.1, -43063.24, 0.018623406, 0.14057773, -835345.25, 388750.63, 0.00060340634, 10.00382, 9.997568 
1.9052333e+3, 1.850913e+2, -786707.8, -1170170.4, -34559.598, 0.036107328, 0.14368817, -783618.0, 342500.03, 0.0000017786746, 10.003227, 9.998146 
1.9051985e+3, 1.95089e+2, -786966.0, -1121136.6, -33124.363, -0.007232725, 0.09817732, -783714.25, 244426.55, 0.0, 10.00256, 9.998132 
1.9051641e+3, 2.0508742e+2, -754465.9, -999059.9, -41578.82, -0.018777465, 0.111056015, -747591.06, 182565.67, 0.0, 10.00187, 9.998631 
1.9051298e+3, 2.1508665e+2, -759926.9, -952025.44, -44536.566, 0.0023240452, 0.17285545, -750103.75, 82061.375, 0.0, 10.001164, 9.99862 
1.9050956e+3, 2.2508559e+2, -728877.44, -814565.1, -35186.03, 0.00076732936, 0.18080857, -716280.75, 17894.97, 0.0, 10.000396, 9.999261 
1.905061e+3, 2.3508435e+2, -752884.44, -777511.4, -27210.357, -0.027233467, 0.13159472, -735331.1, -99143.93, 0.0, 9.999568, 9.999242 
1.9050266e+3, 2.4508367e+2, -701619.9, -639768.9, -33392.31, -0.032700446, 0.12155881, -625181.4, -86988.18, 0.0, 9.99898, 9.999797 
1.9049923e+3, 2.5508362e+2, -656543.3, -569145.44, -40575.902, -0.0032789255, 0.13704333, -553212.2, -113018.95, 0.0, 9.998624, 9.99978 
1.9049585e+3, 2.6508337e+2, -655225.25, -508739.7, -24202.95, 0.0379331, 0.13971765, -504844.38, -162648.36, 0.0, 9.997922, 9.99986 
1.9049245e+3, 2.7508318e+2, -708822.56, -483382.56, -20431.658, 0.05619927, 0.13435735, -481545.8, -237346.5, 0.0, 9.996879, 9.999864 
1.90489e+3, 2.8508356e+2, -626541.4, -285152.44, -20006.139, -0.0018529186, 0.1469209, -283984.03, -137788.05, 0.0, 9.996308, 10.000827 
1.9048554e+3, 2.9508436e+2, -553028.8, -219151.77, -29076.676, -0.034930997, 0.14381097, -216638.45, -168450.44, 0.0, 9.996225, 10.000647 
1.9048233e+3, 3.0508527e+2, -612780.06, -287709.44, 70726.19, 0.0485015, 0.21650308, -272988.1, -272988.1, 0.0, 9.995755, 10.000071 
1.9047907e+3, 3.15085e+2, -615197.1, -947.8437, -80126.305, -0.035636984, 0.1703295, 9332.256, 9332.256, 0.0, 9.994513, 10.002631 
1.915443e+3, 1.2514107e+2, -956406.9, -1625644.1, -41308.45, 0.03412359, 0.1458991, -953866.75, 759764.4, 0.16211826, 10.007638, 9.997048 
1.9154078e+3, 1.3513735e+2, -991638.5, -1646337.3, -1595.2014, -0.1342981, 0.09937413, -991634.56, 624032.4, 0.11178523, 10.00642, 9.996706 
1.9153754e+3, 1.4513485e+2, -971739.3, -1588081.5, -38820.56, 0.0786563, 0.18315442, -969303.8, 548387.7, 0.063158125, 10.005515, 9.996869 
1.9153406e+3, 1.5513122e+2, -941184.9, -1535334.6, -50714.33, 0.025033133, 0.13349347, -936887.2, 482841.06, 0.026547642, 10.004898, 9.996855 
1.9153057e+3, 1.6512844e+2, -837303.06, -1313807.6, -74771.42, -0.008087285, 0.12059758, -825845.7, 495909.8, 0.006962029, 10.004331, 9.997976 
1.9152707e+3, 1.7512655e+2, -811615.7, -1254472.6, -60629.734, -0.021303015, 0.13578154, -803465.1, 420307.44, 0.0006982563, 10.003823, 9.997954 
1.9152357e+3, 1.8512462e+2, -784124.8, -1165766.9, -59063.758, -0.028402817, 0.14389205, -775193.0, 350598.16, 0.0000023137907, 10.003228, 9.9981785 
1.9152008e+3, 1.9512275e+2, -785922.5, -1118470.6, -57080.055, -0.0304114, 0.14092991, -776397.8, 251412.11, 0.0, 10.002554, 9.998155 
1.9151661e+3, 2.0512098e+2, -760039.44, -1010010.7, -67174.36, -0.0140041085, 0.1383056, -743131.44, 186696.44, 0.0, 10.001864, 9.998559 
1.9151312e+3, 2.1511945e+2, -764942.2, -962299.3, -69091.46, 0.021180306, 0.12789011, -743158.8, 88685.02, 0.0, 10.001161, 9.998552 
1.9150962e+3, 2.2511838e+2, -712018.44, -780083.6, -65301.117, 0.035988618, 0.12784284, -672413.75, 61440.46, 0.0, 10.000395, 9.9995 
1.915061e+3, 2.351179e+2, -735894.0, -743015.5, -56544.676, 0.026656657, 0.13079554, -682798.06, -46939.953, 0.0, 9.999568, 9.99948 
1.9150259e+3, 2.4511749e+2, -710974.44, -660837.1, -45804.45, 0.0016660242, 0.14234975, -633690.0, -95827.86, 0.0, 9.998983, 9.999652 
1.9149907e+3, 2.5511727e+2, -665840.7, -591036.8, -52515.633, -0.027067706, 0.15610653, -563965.5, -124100.35, 0.0, 9.9986315, 9.999627 
1.914956e+3, 2.6511726e+2, -641715.44, -482713.72, -62949.684, -0.007989744, 0.17891183, -460809.22, -118943.02, 0.0, 9.997928, 10.000037 
1.9149211e+3, 2.7511752e+2, -694993.9, -456276.4, -58541.234, 0.023502866, 0.20328869, -442693.13, -198829.0, 0.0, 9.996882, 10.00005 
1.9148862e+3, 2.8511757e+2, -639014.7, -313906.66, -22431.459, 0.013125778, 0.18057372, -312366.25, -166502.33, 0.0, 9.996318, 10.000626 
1.9148524e+3, 2.9511738e+2, -567593.06, -257233.72, -26680.588, 0.05371525, 0.10320818, -254956.78, -207091.47, 0.0, 9.996256, 10.000372 
1.9148183e+3, 3.0511913e+2, -551106.7, -166947.39, 30759.607, -0.033060618, 0.23501004, -164500.06, -164500.06, 0.0, 9.995782, 10.00089 
1.9147855e+3, 3.1511983e+2, -633461.8, -34536.98, -135767.36, -0.011532988, 0.20141597, -5197.7617, -5197.7617, 0.0, 9.9944935, 10.00241 
1.9254507e+3, 1.2517509e+2, -991901.3, -1636880.9, 5907.791, 0.054470807, 0.1480664, -991847.25, 721451.7, 0.17012249, 10.00739, 9.997079 
1.9254145e+3, 1.3517149e+2, -957947.2, -1641137.6, -19075.447, -0.12441118, 0.12945141, -957414.94, 657917.8, 0.11778126, 10.006784, 9.996566 
1.9253813e+3, 1.451687e+2, -903684.1, -1556939.6, -45956.934, 0.08404629, 0.19048752, -900466.8, 616893.56, 0.066951394, 10.006059, 9.9968195 
1.9253455e+3, 1.5516505e+2, -901910.5, -1521434.5, -18278.729, 0.029307308, 0.1447262, -901371.7, 518026.2, 0.028430695, 10.00521, 9.9967985 
1.92531e+3, 1.651622e+2, -805797.06, -1290366.5, -23941.336, -0.0053403294, 0.1265806, -804617.06, 516808.5, 0.007611235, 10.0045185, 9.998046 
1.9252746e+3, 1.7516023e+2, -784833.75, -1233520.4, -33964.41, -0.02810029, 0.1276926, -782277.3, 441165.56, 0.00080456963, 10.003976, 9.998023 
1.9252388e+3, 1.851584e+2, -779233.94, -1159514.3, -52875.582, -0.03482711, 0.14187008, -772018.8, 353441.5, 0.0000031359323, 10.003248, 9.99821 
1.9252032e+3, 1.9515681e+2, -813192.44, -1128020.1, -51762.496, -0.024750793, 0.16352865, -804900.25, 222576.42, 0.0, 10.002355, 9.998184 
1.9251677e+3, 2.0515507e+2, -787903.8, -1006980.8, -48321.355, -0.005957996, 0.15404758, -777719.1, 151775.06, 0.0, 10.001605, 9.998702 
1.9251323e+3, 2.151533e+2, -779694.25, -953836.3, -36772.137, 0.020911809, 0.107849985, -772247.8, 59263.85, 0.0, 10.000996, 9.998689 
1.9250965e+3, 2.2515231e+2, -714464.4, -783936.56, -36821.316, 0.03392661, 0.110620216, -698580.25, 34941.043, 0.0, 10.000394, 9.999473 
1.9250606e+3, 2.3515217e+2, -703897.06, -730508.0, -48607.934, 0.03079928, 0.15063487, -666806.44, -31283.813, 0.0, 9.999803, 9.999452 
1.9250248e+3, 2.4515176e+2, -701369.0, -656114.56, -38766.977, 0.014338977, 0.16463996, -633854.5, -96327.67, 0.0, 9.999052, 9.99965 
1.9249892e+3, 2.551513e+2, -736754.3, -625454.4, -35943.59, -0.006220154, 0.1528587, -614855.8, -175323.67, 0.0, 9.998149, 9.999623 
1.9249536e+3, 2.6515126e+2, -673706.9, -483629.94, -40067.586, -0.00857883, 0.17065778, -475529.06, -133996.22, 0.0, 9.997649, 10.000163 
1.9249178e+3, 2.7515173e+2, -593102.94, -392663.66, -41284.824, -0.017945116, 0.20101202, -384493.2, -140964.61, 0.0, 9.997523, 10.000175 
1.9248827e+3, 2.8515178e+2, -570488.1, -276392.28, -2737.2847, 0.007203873, 0.1748963, -276366.8, -130839.01, 0.0, 9.996772, 10.000664 
1.9248492e+3, 2.9515174e+2, -686439.8, -309727.8, 13936.786, 0.13900763, 0.10629509, -309212.94, -261684.89, 0.0, 9.995423, 10.000411 
1.9248128e+3, 3.0515346e+2, -688303.8, -160293.86, 74407.19, -0.09281366, 0.20167378, -150008.73, -150008.73, 0.0, 9.994531, 10.001537 
1.9247805e+3, 3.151545e+2, -723038.4, -85409.414, -82366.4, 0.065526605, 0.13252637, -74941.5, -74941.5, 0.0, 9.9939165, 10.0023365 
1.9354582e+3, 1.2520957e+2, -1024707.1, -1701557.1, 12586.022, 0.08078557, 0.12569572, -1024473.2, 688488.06, 0.17821695, 10.007441, 9.996522 
1.9354217e+3, 1.3520604e+2, -1000231.94, -1730785.0, -36913.613, -0.07733603, 0.1781545, -998371.44, 616625.25, 0.12389406, 10.006782, 9.995955 
1.9353874e+3, 1.4520292e+2, -876364.4, -1488522.6, -72504.484, 0.08704188, 0.21282232, -867894.1, 649133.06, 0.07085583, 10.006042, 9.997313 
1.9353501e+3, 1.5519954e+2, -870667.06, -1452949.0, -46334.832, -0.025715351, 0.14436911, -867003.0, 552056.56, 0.030389655, 10.005211, 9.99727 
1.9353141e+3, 1.651967e+2, -821381.25, -1324543.8, -43415.055, -0.050404362, 0.11676775, -817662.75, 503423.84, 0.008298257, 10.004524, 9.997809 
1.9352786e+3, 1.751945e+2, -802097.6, -1268466.5, -52914.7, -0.0071974224, 0.11715214, -796169.2, 426938.22, 0.0009228504, 10.003969, 9.997788 
1.9352426e+3, 1.8519261e+2, -778737.44, -1156971.4, -85173.64, 0.009222047, 0.13621008, -760442.3, 364683.78, 0.0000044945964, 10.003239, 9.998234 
1.9352058e+3, 1.9519113e+2, -810281.56, -1122950.6, -82886.695, 0.0052385186, 0.16633318, -789667.8, 237473.7, 0.0, 10.002356, 9.9982195 
1.9351692e+3, 2.051896e+2, -764478.44, -959942.9, -70029.484, 0.0023172095, 0.15939225, -741978.75, 187177.67, 0.0, 10.001609, 9.999025 
1.9351329e+3, 2.1518816e+2, -758260.6, -909350.0, -57707.746, -0.00032603284, 0.113247745, -738741.2, 92428.234, 0.0, 10.000993, 9.998998 
1.9350964e+3, 2.251873e+2, -734734.1, -826532.3, -58200.008, -0.006120039, 0.12835465, -706511.94, 26666.1, 0.0, 10.000393, 9.999182 
1.9350599e+3, 2.3518708e+2, -723797.25, -772335.8, -68995.2, -0.016683202, 0.1907457, -674927.4, -39745.813, 0.0, 9.999802, 9.999166 
1.9350238e+3, 2.4518645e+2, -692243.25, -638698.44, -71850.92, 0.004064396, 0.189049, -588794.1, -51606.21, 0.0, 9.999055, 9.99977 
1.9349879e+3, 2.5518557e+2, -726325.9, -606093.0, -68086.12, 0.058006566, 0.12595737, -575381.56, -136186.25, 0.0, 9.998156, 9.999755 
1.9349517e+3, 2.6518533e+2, -667607.56, -473425.9, -43971.848, 0.03462572, 0.111784816, -463932.72, -122735.555, 0.0, 9.997657, 10.000231 
1.9349147e+3, 2.751857e+2, -587697.9, -385054.66, -44944.34, -0.07531628, 0.1251979, -375533.75, -132339.83, 0.0, 9.997536, 10.000224 
1.9348791e+3, 2.8518623e+2, -548143.1, -234420.55, -53964.313, -0.024600537, 0.1300845, -225397.52, -80208.984, 0.0, 9.996786, 10.000947 
1.9348453e+3, 2.9518744e+2, -658504.3, -255229.0, -34102.03, 0.2202836, 0.15823463, -252365.58, -205189.08, 0.0, 9.995434, 10.000783 
1.9348069e+3, 3.0518818e+2, -653303.1, -86916.7, 55763.203, -0.13254689, 0.106369846, -81478.79, -81478.79, 0.0, 9.994525, 10.002045 
1.934774e+3, 3.151895e+2, -688039.94, -15878.744, -7304.0503, 0.04521488, 0.02827991, -15799.384, -15799.384, 0.0, 9.993924, 10.002813 
1.945466e+3, 1.2524529e+2, -901722.56, -1645388.1, 39662.19, 0.044775307, 0.157188, -899613.25, 812998.75, 0.18636677, 10.008576, 9.996447 
1.9454286e+3, 1.3524131e+2, -985697.5, -1722762.1, 5189.493, -0.05881348, 0.16879533, -985661.0, 628990.25, 0.13009432, 10.006941, 9.995931 
1.9453934e+3, 1.4523783e+2, -888570.7, -1483140.4, -5175.016, 0.09243644, 0.16339558, -888525.6, 628159.4, 0.074852765, 10.005926, 9.997406 
1.9453555e+3, 1.5523504e+2, -838336.0, -1425565.3, -5213.221, -0.02314092, 0.1456557, -838289.7, 580421.6, 0.032416746, 10.005406, 9.99736 
1.9453186e+3, 1.652324e+2, -816675.1, -1339520.3, -14350.672, -0.04287498, 0.1421775, -816281.56, 504455.2, 0.00902104, 10.004642, 9.997646 
1.9452825e+3, 1.7523003e+2, -854962.94, -1311520.6, -19544.268, 0.007849667, 0.14141038, -854127.8, 368632.56, 0.0010536346, 10.003685, 9.997627 
1.9452456e+3, 1.8522789e+2, -812086.8, -1167398.4, -44333.426, 0.018873312, 0.14273433, -806638.7, 318142.66, 0.0000066792695, 10.002989, 9.998281 
1.9452082e+3, 1.9522613e+2, -782715.4, -1104415.4, -42308.56, -0.002260939, 0.14136527, -777244.2, 249554.36, 0.0, 10.002525, 9.998263 
1.9451709e+3, 2.0522472e+2, -727899.8, -943076.9, -43538.863, -0.007493496, 0.14472046, -719424.06, 209388.05, 0.0, 10.001866, 9.999016 
1.945134e+3, 2.1522373e+2, -753285.56, -908182.4, -56748.71, -0.00023276893, 0.14604872, -734720.06, 96101.06, 0.0, 10.001035, 9.998983 
1.9450967e+3, 2.2522281e+2, -760988.94, -848481.25, -58042.45, -0.004261473, 0.16125265, -732053.25, 777.1982, 0.0, 10.000256, 9.999095 
1.9450596e+3, 2.3522209e+2, -769873.6, -803533.3, -54993.402, -0.018818855, 0.18115866, -729192.44, -94353.46, 0.0, 9.999528, 9.999082 
1.9450226e+3, 2.4522135e+2, -703458.75, -631253.1, -51118.633, 0.0019156985, 0.1673911, -604773.8, -67927.75, 0.0, 9.998927, 9.999881 
1.9449861e+3, 2.552207e+2, -676767.0, -569898.44, -49131.273, 0.05722781, 0.11891538, -550744.1, -111893.89, 0.0, 9.9984455, 9.999862 
1.9449492e+3, 2.6522055e+2, -673881.2, -470004.2, -25458.691, 0.035839956, 0.103187345, -466873.2, -126021.97, 0.0, 9.997589, 10.000286 
1.9449118e+3, 2.7522075e+2, -753605.4, -460035.0, -28289.752, -0.0634542, 0.09915198, -457333.72, -214484.38, 0.0, 9.996379, 10.000265 
1.9448754e+3, 2.852214e+2, -692413.25, -298910.4, -47791.85, -0.0050417273, 0.109953634, -293189.16, -148345.95, 0.0, 9.995779, 10.000988 
1.9448408e+3, 2.9522303e+2, -606909.2, -212591.02, -47530.176, 0.22216085, 0.17635788, -206942.75, -160115.63, 0.0, 9.995717, 10.000937 
1.9448012e+3, 3.052235e+2, -605645.3, -59095.336, 3165.4585, -0.15168394, 0.081493616, -59077.004, -59077.004, 0.0, 9.994839, 10.002082 
1.9447681e+3, 3.152259e+2, -757195.06, -7413.815, -1579.5774, 0.091990195, 0.11278093, -7410.4873, -7410.4873, 0.0, 9.993275, 10.003183 
1.9554734e+3, 1.252822e+2, -900178.75, -1615827.1, 6098.0137, -0.056051455, 0.24240229, -900126.8, 812124.75, 0.1945896, 10.008519, 9.996732 
1.9554353e+3, 1.3527729e+2, -962283.3, -1657406.8, -45209.844, -0.06738068, 0.11068319, -959355.25, 654942.0, 0.13638547, 10.006946, 9.996381 
1.9553992e+3, 1.4527339e+2, -904851.2, -1518167.4, -22617.28, 0.095812105, 0.055564757, -904018.25, 612316.25, 0.078939654, 10.005953, 9.997137 
1.9553614e+3, 1.5527144e+2, -856099.4, -1463166.0, -23660.238, 0.026721673, 0.14931957, -855178.6, 563175.44, 0.034510415, 10.005413, 9.9971 
1.9553237e+3, 1.6526915e+2, -823599.1, -1354762.6, -49249.41, 0.0076246182, 0.19845955, -819071.3, 501305.9, 0.009779006, 10.004644, 9.997542 
1.9552863e+3, 1.7526665e+2, -859774.44, -1325725.5, -53096.4, 0.0152194975, 0.19634373, -853800.56, 368602.38, 0.0011970516, 10.0037, 9.997524 
1.9552483e+3, 1.8526413e+2, -806584.5, -1159409.3, -60139.164, -0.0064040455, 0.16072975, -796615.44, 327811.7, 0.000009907366, 10.003, 9.998331 
1.9552103e+3, 1.9526175e+2, -779804.94, -1099349.9, -57876.12, -0.04706644, 0.091846146, -769645.4, 256803.02, 0.0, 10.002527, 9.9983 
1.9551724e+3, 2.0526034e+2, -752042.44, -993560.2, -73599.945, -0.035894267, 0.112278074, -731381.2, 197080.9, 0.0, 10.001865, 9.998672 
1.955135e+3, 2.1525992e+2, -776654.4, -956991.5, -85750.71, 0.01837613, 0.20474562, -742390.0, 88077.71, 0.0, 10.001033, 9.998651 
1.9550973e+3, 2.2525877e+2, -753308.0, -833711.7, -84118.586, 0.03571436, 0.20765322, -700278.25, 32201.225, 0.0, 10.000257, 9.999199 
1.9550595e+3, 2.3525709e+2, -762317.5, -788569.8, -80129.31, 0.020859411, 0.12293233, -694246.3, -59750.69, 0.0, 9.999528, 9.9991865 
1.9550216e+3, 2.4525636e+2, -696643.25, -618740.6, -68242.984, 0.004405151, 0.10087944, -579115.2, -42613.22, 0.0, 9.998931, 9.999966 
1.9549839e+3, 2.5525662e+2, -670413.94, -559027.44, -66155.48, -0.0135163255, 0.13343824, -528243.6, -89745.805, 0.0, 9.998453, 9.999934 
1.9549462e+3, 2.652568e+2, -671330.7, -466554.63, -70956.96, -0.007350472, 0.14734183, -444370.6, -103874.78, 0.0, 9.997593, 10.00031 
1.9549088e+3, 2.7525684e+2, -751729.4, -458262.16, -72088.984, 0.018263396, 0.12191066, -441510.06, -199013.89, 0.0, 9.996384, 10.0002775 
1.954872e+3, 2.8525716e+2, -707200.3, -331522.0, -50491.555, 0.06339959, 0.11407562, -324854.22, -180360.97, 0.0, 9.995784, 10.000763 
1.9548355e+3, 2.9525843e+2, -612175.2, -228129.6, -50870.61, 0.13023521, 0.16293463, -221505.53, -175024.17, 0.0, 9.995732, 10.000825 
1.9547962e+3, 3.052592e+2, -639251.3, -131531.16, -60960.168, -0.14552182, 0.12580295, -124314.46, -124314.46, 0.0, 9.994848, 10.00158 
1.9547614e+3, 3.15261e+2, -741811.6, 13831.941, 19105.424, 0.11132255, 0.15989734, 14314.6875, 14314.6875, 0.0, 9.993309, 10.003319 
1.9654816e+3, 1.2531906e+2, -1008521.75, -1680003.5, 49756.906, -0.041093506, 0.20870069, -1004854.8, 707034.94, 0.20289776, 10.007739, 9.996562 
1.9654424e+3, 1.3531473e+2, -914241.2, -1618715.6, -32172.244, -0.05358049, 0.12906726, -912775.0, 701155.5, 0.1427805, 10.007335, 9.996456 
1.9654052e+3, 1.4531083e+2, -824236.75, -1489248.5, -7121.8955, 0.06905139, 0.077721275, -824160.44, 691807.5, 0.083124936, 10.006642, 9.997015 
1.9653669e+3, 1.5530863e+2, -830272.56, -1463940.0, -2314.0857, 0.039767202, 0.16050142, -830264.06, 587725.9, 0.03667343, 10.0056715, 9.996968 
1.9653286e+3, 1.6530614e+2, -796828.94, -1350666.0, -22560.445, 0.02570565, 0.19949807, -795911.44, 524103.78, 0.010571428, 10.004876, 9.9974575 
1.9652899e+3, 1.7530344e+2, -786105.94, -1298473.0, -26544.367, 0.0013072395, 0.18797696, -784734.4, 437308.22, 0.0013522609, 10.004249, 9.997445 
1.9652513e+3, 1.8530096e+2, -735677.25, -1123141.0, -31126.137, -0.029503152, 0.15861349, -733192.75, 390873.47, 0.000014253208, 10.003484, 9.998344 
1.9652125e+3, 1.9529879e+2, -769678.5, -1093473.8, -32768.73, -0.05776422, 0.110528834, -766395.56, 259689.44, 0.0, 10.002597, 9.998302 
1.9651742e+3, 2.0529719e+2, -778652.6, -1028489.94, -47300.01, -0.032526232, 0.12213132, -769997.44, 158103.1, 0.0, 10.001781, 9.998469 
1.9651361e+3, 2.1529621e+2, -790858.2, -985389.4, -50640.277, 0.036817707, 0.17917569, -778465.06, 51647.07, 0.0, 10.001032, 9.998454 
1.9650976e+3, 2.2529496e+2, -745026.25, -818983.0, -42171.11, 0.053518683, 0.17887431, -725917.1, 6207.474, 0.0, 10.000272, 9.9992895 
1.9650589e+3, 2.3529363e+2, -759593.75, -777480.3, -40650.234, 0.024777262, 0.11879396, -726914.6, -92777.75, 0.0, 9.999508, 9.99927 
1.9650203e+3, 2.4529299e+2, -727905.75, -643692.75, -30575.195, -0.0032090442, 0.10634261, -633762.7, -97620.195, 0.0, 9.998761, 9.999875 
1.9649819e+3, 2.5529313e+2, -739535.8, -601792.5, -43047.207, -0.031789955, 0.1364468, -589446.1, -151305.78, 0.0, 9.998024, 9.999845 
1.9649436e+3, 2.652933e+2, -695496.9, -483868.34, -63897.637, -0.021078661, 0.15868197, -466072.06, -125933.1, 0.0, 9.9974575, 10.000254 
1.9649057e+3, 2.752935e+2, -663053.4, -421437.53, -71681.89, 0.028916473, 0.15412766, -401771.8, -159633.5, 0.0, 9.997024, 10.000218 
1.9648679e+3, 2.8529376e+2, -636909.3, -305966.38, -34592.03, 0.065176785, 0.14600036, -302389.28, -158253.28, 0.0, 9.996305, 10.000685 
1.9648306e+3, 2.9529458e+2, -670749.6, -257779.67, -25594.932, 0.078059286, 0.16176465, -256199.4, -210071.98, 0.0, 9.995341, 10.000807 
1.9647914e+3, 3.0529535e+2, -725965.4, -219704.8, -59134.35, -0.07301327, 0.14318596, -212889.3, -212889.3, 0.0, 9.994457, 10.001162 
1.9647542e+3, 3.1529656e+2, -700754.4, 15110.027, 59867.977, 0.036831696, 0.16723949, 20082.27, 20082.27, 0.0, 9.993671, 10.003152 
1.9754903e+3, 1.253559e+2, -1040339.56, -1745332.8, 40917.926, 0.066003695, 0.07564569, -1037972.6, 673553.8, 0.21126625, 10.007771, 9.99605 
1.97545e+3, 1.3535352e+2, -934818.3, -1653361.4, -44129.93, -0.02749188, 0.2150269, -932118.2, 681433.7, 0.14927581, 10.00732, 9.996228 
1.9754112e+3, 1.4535001e+2, -831079.44, -1494465.1, -38095.527, 0.009756747, 0.21308295, -828898.94, 686687.9, 0.087413, 10.006626, 9.996986 
1.9753723e+3, 1.5534659e+2, -833198.4, -1469866.1, -35042.484, 0.018052304, 0.17765178, -831275.44, 586344.1, 0.038907573, 10.005679, 9.996926 
1.9753332e+3, 1.6534339e+2, -801645.4, -1363200.9, -45348.91, 0.011542607, 0.15303567, -798006.8, 521643.88, 0.011396561, 10.004887, 9.997369 
1.9752938e+3, 1.7534043e+2, -791809.3, -1311380.8, -48253.645, -0.03377876, 0.12342414, -787365.9, 434313.8, 0.0015174943, 10.0042515, 9.997357 
1.9752544e+3, 1.8533832e+2, -737960.2, -1128239.0, -62845.418, -0.052468084, 0.1392884, -728090.0, 395609.53, 0.000019590076, 10.003482, 9.998312 
1.9752152e+3, 1.9533713e+2, -771526.9, -1098553.3, -63963.76, -0.03888322, 0.19194245, -759461.25, 266248.44, 0.0, 10.002599, 9.998269 
1.9751763e+3, 2.0533513e+2, -783376.4, -1039963.44, -74015.36, -0.002068978, 0.16920348, -763556.75, 164172.17, 0.0, 10.001785, 9.998391 
1.9751371e+3, 2.1533254e+2, -795828.7, -996643.2, -76111.32, 0.052003365, 0.073743895, -770241.7, 59513.31, 0.0, 10.001032, 9.998379 
1.9750978e+3, 2.2533138e+2, -740260.6, -810635.4, -69486.4, 0.04689994, 0.08012346, -697560.2, 34206.234, 0.0, 10.000275, 9.999348 
1.975058e+3, 2.3533158e+2, -756068.25, -771864.8, -67351.6, -0.008898695, 0.16831255, -696153.44, -62389.508, 0.0, 9.999512, 9.999309 
1.9750188e+3, 2.4533105e+2, -746312.44, -684114.0, -57864.56, -0.021888737, 0.18261573, -649521.0, -113752.086, 0.0, 9.998767, 9.999597 
1.9749801e+3, 2.5533006e+2, -757379.75, -641692.3, -69606.94, -0.0004710395, 0.12645042, -609031.75, -171252.55, 0.0, 9.998033, 9.999569 
1.9749412e+3, 2.653299e+2, -704265.2, -505037.84, -80189.31, -0.009322164, 0.13590446, -476771.84, -136989.83, 0.0, 9.997467, 10.000105 
1.9749019e+3, 2.7533057e+2, -670856.1, -442608.97, -88036.31, -0.037709102, 0.19603573, -412598.63, -170821.55, 0.0, 9.997041, 10.000067 
1.9748634e+3, 2.8533098e+2, -630002.25, -296090.4, -72269.7, -0.0056428364, 0.2073275, -281120.0, -137347.31, 0.0, 9.996322, 10.000747 
1.9748256e+3, 2.9533136e+2, -663952.0, -249118.45, -61635.656, 0.06003109, 0.17100152, -240154.38, -194387.4, 0.0, 9.995361, 10.000859 
1.9747873e+3, 3.0533177e+2, -752723.9, -279119.56, -94111.98, 0.07405134, 0.1344784, -261103.48, -261103.48, 0.0, 9.994472, 10.000748 
1.9747478e+3, 3.1533262e+2, -743081.9, -80748.76, -18628.625, 0.042279046, 0.16197367, -80225.23, -80225.23, 0.0, 9.993699, 10.002484 
1.9854984e+3, 1.2539475e+2, -988318.1, -1723159.9, 51076.68, 0.07579667, 0.086558804, -984784.94, 726360.9, 0.21964702, 10.008358, 9.99592 
1.9854575e+3, 1.3539226e+2, -939079.4, -1649157.6, -18096.912, -0.008899153, 0.2131032, -938618.44, 674554.06, 0.1558378, 10.007315, 9.996257 
1.9854173e+3, 1.4538887e+2, -853566.2, -1517788.0, -5628.803, -0.013850985, 0.22961253, -853518.5, 661688.0, 0.09178589, 10.006548, 9.996849 
1.9853781e+3, 1.5538517e+2, -807715.44, -1469899.5, -10546.347, 0.017971734, 0.17931047, -807547.5, 609695.0, 0.04120538, 10.005937, 9.9967985 
1.9853383e+3, 1.6538186e+2, -753920.5, -1327293.3, -15361.483, 0.021965621, 0.14750749, -753509.25, 565764.7, 0.012251204, 10.005177, 9.997471 
1.9852981e+3, 1.7537902e+2, -777856.4, -1294004.5, -6636.373, -0.028248362, 0.11995353, -777771.06, 443529.63, 0.0016907274, 10.004308, 9.997447 
1.9852579e+3, 1.8537685e+2, -752970.75, -1155780.3, -23366.9, -0.042104233, 0.13421126, -751619.75, 371701.44, 0.000025644316, 10.00347, 9.998127 
1.9852181e+3, 1.9537541e+2, -774383.75, -1119375.4, -36351.516, -0.01531111, 0.18164235, -770595.06, 254739.55, 0.0, 10.002666, 9.998092 
1.9851781e+3, 2.0537338e+2, -758732.0, -1021448.4, -42016.965, 0.008149148, 0.16243148, -752175.7, 175178.47, 0.0, 10.001929, 9.998447 
1.985138e+3, 2.1537094e+2, -761368.7, -974344.3, -36509.316, 0.02537662, 0.077031836, -755283.94, 74094.195, 0.0, 10.001248, 9.998426 
1.985098e+3, 2.2536969e+2, -714211.6, -819193.75, -35439.52, 0.01569383, 0.08390006, -703368.06, 28022.152, 0.0, 10.000547, 9.999156 
1.9850574e+3, 2.3536964e+2, -723703.1, -776644.4, -51789.33, -0.015414427, 0.16672473, -692011.7, -58621.016, 0.0, 9.9998255, 9.999123 
1.9850175e+3, 2.4536902e+2, -726993.75, -684031.1, -47231.414, -0.015356457, 0.18453045, -653625.5, -118228.5, 0.0, 9.998946, 9.999508 
1.9849782e+3, 2.55368e+2, -777836.5, -660858.0, -44683.16, 0.009127172, 0.1348909, -645743.0, -208335.22, 0.0, 9.997936, 9.999481 
1.9849385e+3, 2.6536772e+2, -739014.06, -517653.47, -26035.236, -0.0027000657, 0.13362642, -514632.56, -175220.72, 0.0, 9.997213, 10.000138 
1.9848987e+3, 2.7536824e+2, -716236.8, -460172.44, -22556.273, -0.038012214, 0.17839809, -458200.66, -216792.89, 0.0, 9.9967165, 10.000099 
1.9848596e+3, 2.853688e+2, -662948.06, -302085.22, -14424.496, -0.017664857, 0.19946566, -301509.53, -158107.69, 0.0, 9.9960575, 10.000831 
1.9848205e+3, 2.9536936e+2, -680415.06, -252718.47, -3654.7783, 0.03475245, 0.17413285, -252687.25, -207292.64, 0.0, 9.995235, 10.000893 
1.9847818e+3, 3.0536968e+2, -778193.94, -286414.34, -22262.006, 0.09624162, 0.13179122, -285408.66, -285408.66, 0.0, 9.994278, 10.000789 
1.9847408e+3, 3.1537053e+2, -795675.44, -79134.49, 45354.63, -0.011003479, 0.15269816, -76275.11, -76275.11, 0.0, 9.993225, 10.002721 
1.995506e+3, 1.2543522e+2, -991076.56, -1704754.0, 13613.73, -0.0052996497, 0.20202276, -990817.0, 719934.25, 0.22800137, 10.008328, 9.996066 
1.9954649e+3, 1.3543104e+2, -930482.1, -1620164.9, -47759.984, 0.000083419625, 0.13701281, -927190.44, 685601.44, 0.16242228, 10.007333, 9.996451 
1.9954239e+3, 1.4542757e+2, -867838.1, -1550764.8, -25480.01, -0.010835867, 0.14925376, -866888.8, 647937.56, 0.09621179, 10.006576, 9.996613 
1.9953841e+3, 1.5542433e+2, -823046.9, -1500427.9, -31248.377, 0.034022287, 0.16824679, -821608.4, 595250.9, 0.043553445, 10.005935, 9.9965925 
1.9953437e+3, 1.6542147e+2, -738365.44, -1292604.8, -46195.754, 0.050203815, 0.17802508, -734541.44, 584344.94, 0.013132488, 10.005168, 9.997718 
1.9953027e+3, 1.7541909e+2, -761220.94, -1261415.9, -37572.973, 0.01091809, 0.1712073, -758414.4, 462492.97, 0.0018708461, 10.004313, 9.997669 
1.9952618e+3, 1.854164e+2, -774861.6, -1203986.5, -52793.715, -0.005030502, 0.14099386, -768462.0, 354470.6, 0.000032100925, 10.003479, 9.997794 
1.995221e+3, 1.9541362e+2, -795668.5, -1165731.6, -63918.535, 0.010131824, 0.0870984, -784939.3, 240020.66, 0.0, 10.002672, 9.997773 
1.9951798e+3, 2.0541191e+2, -746904.3, -999005.5, -66321.836, -0.0026469268, 0.10801144, -730521.25, 196455.4, 0.0, 10.001935, 9.9986 
1.9951385e+3, 2.1541125e+2, -751831.8, -955846.0, -60128.29, -0.043575276, 0.18468821, -735429.2, 93553.93, 0.0, 10.00125, 9.998553 
1.9950978e+3, 2.2540976e+2, -743302.1, -881149.56, -61722.746, -0.04010142, 0.18415752, -719704.6, 11293.222, 0.0, 10.00055, 9.998732 
1.9950575e+3, 2.3540774e+2, -752157.94, -836464.0, -77403.91, 0.0025576744, 0.114067085, -706173.3, -73155.26, 0.0, 9.9998255, 9.998714 
1.9950168e+3, 2.454068e+2, -720657.3, -672644.1, -84666.05, 0.012631632, 0.113659434, -608647.0, -73619.38, 0.0, 9.99895, 9.999586 
1.9949758e+3, 2.5540683e+2, -770338.44, -648330.94, -80465.94, -0.006582321, 0.16159399, -608358.3, -171331.11, 0.0, 9.997946, 9.999565 
1.9949357e+3, 2.6540658e+2, -723276.44, -488321.72, -45000.984, -0.0012257305, 0.15251511, -479997.56, -140968.13, 0.0, 9.997224, 10.000338 
1.994896e+3, 2.7540633e+2, -701053.2, -433300.0, -41428.117, 0.026662117, 0.09880144, -427036.56, -186004.89, 0.0, 9.996733, 10.000278 
1.9948559e+3, 2.8540704e+2, -654331.56, -287280.3, -45961.77, 0.026605492, 0.117955476, -281612.53, -138587.42, 0.0, 9.996068, 10.000928 
1.9948153e+3, 2.954084e+2, -678083.1, -251327.42, -35237.594, -0.004526548, 0.16471277, -248437.39, -203425.34, 0.0, 9.995247, 10.000898 
1.9947748e+3, 3.0540916e+2, -737985.8, -207182.31, -62605.69, -0.020338012, 0.13983035, -199898.23, -199898.23, 0.0, 9.994291, 10.001329 
1.9947343e+3, 3.1541073e+2, -722951.1, 71713.41, -35059.043, 0.027872633, 0.16914347, 73257.14, 73257.14, 0.0, 9.993227, 10.003756 
2.0055136e+3, 1.2547553e+2, -998982.1, -1692098.1, 30933.375, -0.05958011, 0.21096584, -997604.3, 712753.44, 0.23636468, 10.008258, 9.996213 
2.0054726e+3, 1.354713e+2, -884354.44, -1588768.5, -26717.541, 0.036380995, 0.13821901, -883342.5, 729055.75, 0.16903317, 10.00774, 9.996496 
2.0054308e+3, 1.4546806e+2, -817639.94, -1520569.4, -2172.7454, 0.0076866057, 0.17194918, -817633.25, 696796.75, 0.10068308, 10.006986, 9.996617 
2.0053898e+3, 1.5546457e+2, -818634.25, -1497290.6, 4382.5547, 0.020530771, 0.16542956, -818605.94, 597859.1, 0.045946673, 10.00598, 9.996591 
2.0053487e+3, 1.6546163e+2, -746580.75, -1306807.9, -12009.95, 0.039383754, 0.1721933, -746323.44, 572169.56, 0.014039847, 10.005163, 9.99762 
2.0053072e+3, 1.754593e+2, -738479.2, -1260757.6, -28337.197, 0.029785894, 0.18117239, -736946.2, 483567.6, 0.0020579563, 10.004519, 9.997572 
2.0052655e+3, 1.8545656e+2, -733323.8, -1187368.5, -45824.72, 0.01604888, 0.15292078, -728745.06, 393794.53, 0.00003871262, 10.003783, 9.997759 
2.0052236e+3, 1.9545363e+2, -756645.4, -1150777.1, -37357.152, 0.0105099715, 0.08964283, -753135.8, 271432.47, 0.0, 10.002963, 9.997733 
2.0051818e+3, 2.0545185e+2, -720089.2, -996787.06, -36027.676, -0.008756871, 0.10994119, -715475.1, 211110.6, 0.0, 10.00217, 9.998501 
2.0051397e+3, 2.1545114e+2, -737067.4, -959933.3, -49270.973, -0.04434963, 0.19386436, -726660.5, 101931.88, 0.0, 10.001404, 9.99845 
2.0050983e+3, 2.2544959e+2, -746769.0, -886756.8, -47118.277, -0.035087604, 0.1937313, -732387.06, -1779.0898, 0.0, 10.000547, 9.9986925 
2.0050572e+3, 2.3544745e+2, -784237.0, -856017.9, -36196.453, 0.014297433, 0.11611409, -769153.9, -136524.17, 0.0, 9.999625, 9.998674 
2.0050158e+3, 2.4544643e+2, -714933.7, -661637.8, -26551.715, 0.018918611, 0.10744948, -650667.9, -116028.18, 0.0, 9.998955, 9.999658 
2.0049739e+3, 2.5544646e+2, -687358.3, -599488.06, -24038.895, -0.014516517, 0.15076274, -593341.6, -156703.19, 0.0, 9.998481, 9.9996395 
2.0049329e+3, 2.654463e+2, -669888.3, -455665.7, 438.80475, -0.0041078613, 0.1446919, -455664.78, -117025.42, 0.0, 9.997566, 10.000393 
2.0048925e+3, 2.7544618e+2, -760530.2, -454612.94, -6254.293, 0.044536043, 0.09535746, -454485.13, -213844.56, 0.0, 9.996297, 10.0003395 
2.0048518e+3, 2.8544676e+2, -733877.8, -307541.13, -5112.165, 0.0487746, 0.09788272, -307479.84, -164845.06, 0.0, 9.995449, 10.001085 
2.0048106e+3, 2.954481e+2, -726997.25, -265265.47, 5524.203, 0.013038609, 0.12280795, -265199.4, -220576.39, 0.0, 9.994873, 10.00098 
2.0047684e+3, 3.054496e+2, -741954.5, -174334.4, -33524.504, -0.074564695, 0.16178459, -172361.25, -172361.25, 0.0, 9.994116, 10.001638 
2.0047277e+3, 3.1545088e+2, -695499.44, 113748.96, -24572.314, 0.06737676, 0.11571306, 114494.4, 114494.4, 0.0, 9.993303, 10.004002 
2.0155215e+3, 1.255157e+2, -997626.94, -1674775.0, 3427.465, -0.096025415, 0.12560958, -997609.56, 712355.7, 0.24496329, 10.008265, 9.996369 
2.0154808e+3, 1.3551289e+2, -896857.25, -1599625.3, -39677.254, 0.09041645, 0.2034811, -894624.2, 717368.7, 0.17580132, 10.007722, 9.996417 
2.015438e+3, 1.4551014e+2, -811896.6, -1498794.0, -33680.2, 0.032841925, 0.27864987, -810249.1, 703770.4, 0.10525775, 10.006972, 9.996787 
2.0153953e+3, 1.5550576e+2, -808074.2, -1476410.0, -29417.877, -0.02251033, 0.17044437, -806781.8, 609279.1, 0.048403643, 10.006, 9.996726 
2.0153533e+3, 1.655023e+2, -772554.06, -1366357.3, -35023.656, -0.009105983, 0.13739899, -770495.44, 547598.8, 0.014978233, 10.005185, 9.997202 
2.0153117e+3, 1.754996e+2, -765110.94, -1318284.4, -50132.355, 0.029239127, 0.15448077, -760604.3, 459515.78, 0.0022535974, 10.004526, 9.997176 
2.0152691e+3, 1.8549724e+2, -717504.5, -1155396.1, -74682.6, 0.020580102, 0.17008497, -705117.75, 417025.0, 0.000045408913, 10.003784, 9.99798 
2.0152263e+3, 1.9549528e+2, -742187.3, -1122660.6, -66129.414, -0.014692465, 0.18203408, -731021.2, 293139.9, 0.0, 10.002968, 9.997925 
2.0151839e+3, 2.05493e+2, -743011.9, -1046597.4, -63409.324, -0.01189882, 0.16191211, -730299.94, 195882.95, 0.0, 10.002175, 9.9981575 
2.0151417e+3, 2.1549058e+2, -759487.3, -1006632.9, -75567.87, 0.017319119, 0.10888796, -738212.8, 89993.57, 0.0, 10.001401, 9.998134 
2.0150994e+3, 2.2548914e+2, -725190.9, -843036.2, -80242.76, 0.024948474, 0.11868173, -684560.6, 45660.184, 0.0, 10.000548, 9.998994 
2.0150568e+3, 2.3548864e+2, -762823.8, -813676.7, -68298.89, 0.016722865, 0.17327066, -715372.0, -83145.41, 0.0, 9.999631, 9.998965 
2.0150144e+3, 2.4548778e+2, -708938.4, -652329.2, -43669.113, 0.0026231082, 0.16484217, -628594.0, -94359.46, 0.0, 9.998964, 9.99972 
2.0149723e+3, 2.554868e+2, -682294.44, -592584.94, -42396.074, -0.018011423, 0.100488186, -575719.56, -139476.92, 0.0, 9.998492, 9.999684 
2.0149302e+3, 2.6548678e+2, -675324.7, -470087.5, -47902.152, -0.01536871, 0.11018819, -459457.72, -121214.97, 0.0, 9.997577, 10.000291 
2.0148884e+3, 2.754876e+2, -763019.5, -463473.53, -51290.355, 0.008659405, 0.17018774, -454934.63, -214699.25, 0.0, 9.996309, 10.000275 
2.0148471e+3, 2.85488e+2, -719143.1, -278852.8, -27283.484, 0.047606584, 0.14132498, -277168.56, -134936.81, 0.0, 9.995454, 10.001282 
2.0148061e+3, 2.9548827e+2, -716301.8, -245181.83, -19133.805, 0.09089863, 0.04640789, -244406.02, -200177.33, 0.0, 9.994878, 10.001118 
2.0147625e+3, 3.0549106e+2, -733612.3, -160580.47, -63771.79, -0.07426114, 0.19935611, -153569.2, -153569.2, 0.0, 9.994127, 10.00173 
2.0147203e+3, 3.1549278e+2, -744282.1, 5460.253, 11061.808, -0.012865635, 0.18975429, 5623.4253, 5623.4253, 0.0, 9.993336, 10.003241 
2.0255299e+3, 1.2555848e+2, -1006536.3, -1680550.0, 46171.313, -0.06638264, 0.16240332, -1003388.2, 706158.3, 0.25425747, 10.008292, 9.9963045 
2.0254885e+3, 1.3555504e+2, -923799.44, -1643464.3, 6840.8564, 0.098786265, 0.20823741, -923734.44, 687846.7, 0.183001, 10.007695, 9.99611 
2.0254448e+3, 1.4555198e+2, -795271.0, -1491552.8, -679.99396, 0.026612468, 0.27252033, -795270.3, 718339.8, 0.110061705, 10.007144, 9.996759 
2.0254014e+3, 1.5554771e+2, -736871.3, -1443238.1, -9360.478, -0.016288642, 0.17598197, -736747.3, 678902.9, 0.050967347, 10.006547, 9.996688 
2.0253588e+3, 1.6554417e+2, -700766.6, -1338276.9, -9294.253, -0.0042344662, 0.14416255, -700631.1, 617052.75, 0.015959568, 10.005728, 9.997129 
2.0253162e+3, 1.7554136e+2, -739765.5, -1314110.5, -1522.3217, 0.02322467, 0.15405543, -739761.5, 479949.97, 0.0024609151, 10.004741, 9.997099 
2.0252728e+3, 1.8553889e+2, -710176.9, -1166329.3, -25667.531, 0.013682741, 0.17394038, -708737.1, 412998.0, 0.00005235502, 10.0039015, 9.997847 
2.0252292e+3, 1.9553694e+2, -719506.0, -1125965.3, -43965.098, -0.016077029, 0.19886093, -714804.9, 308949.06, 0.0, 10.003187, 9.997796 
2.025186e+3, 2.0553458e+2, -719566.25, -1027390.06, -41257.47, -0.004809123, 0.17392999, -714132.5, 211643.95, 0.0, 10.002306, 9.998225 
2.0251432e+3, 2.1553202e+2, -771366.75, -1004445.5, -25604.16, 0.036417887, 0.10078753, -768587.25, 59213.53, 0.0, 10.001289, 9.9982 
2.0250998e+3, 2.2553058e+2, -730569.56, -841736.8, -21860.553, 0.0375733, 0.10849303, -726425.25, 3389.5425, 0.0, 10.000498, 9.999025 
2.0250563e+3, 2.3553023e+2, -723770.8, -791063.94, -30138.602, 0.0077107367, 0.17683685, -712246.3, -80427.32, 0.0, 9.999886, 9.998996 
2.0250133e+3, 2.4552947e+2, -702460.94, -647191.25, -16572.463, -0.002500071, 0.17622113, -642602.94, -108776.74, 0.0, 9.999005, 9.999733 
2.0249707e+3, 2.5552854e+2, -766323.06, -631818.6, -20345.13, 0.0013446725, 0.114856586, -628808.56, -192974.17, 0.0, 9.997914, 9.999691 
2.0249276e+3, 2.655286e+2, -743866.06, -501305.06, -27123.49, -0.0013855038, 0.13273668, -498309.1, -160474.97, 0.0, 9.997101, 10.000305 
2.0248847e+3, 2.7552953e+2, -736389.6, -448755.75, -22541.248, -0.0034960029, 0.20277427, -446999.97, -207173.9, 0.0, 9.996488, 10.000288 
2.0248425e+3, 2.8552985e+2, -680424.9, -263248.16, 2414.3242, 0.033684563, 0.167354, -263234.2, -121410.97, 0.0, 9.995737, 10.00125 
2.024801e+3, 2.9553002e+2, -715544.6, -241724.33, -8787.188, 0.090308756, 0.06578581, -241561.42, -197740.6, 0.0, 9.994876, 10.00114 
2.0247567e+3, 3.0553296e+2, -751574.94, -176333.6, -60795.73, -0.042344365, 0.23355536, -169978.45, -169978.45, 0.0, 9.994036, 10.001665 
2.0247133e+3, 3.1553447e+2, -803593.06, -81173.766, 33773.938, -0.023615053, 0.2185751, -79598.234, -79598.234, 0.0, 9.993182, 10.002718 
2.0355389e+3, 1.2560354e+2, -1035453.1, -1719082.1, 13230.563, 0.004310362, 0.30132115, -1035197.2, 673908.0, 0.26478544, 10.008264, 9.99599 
2.0354958e+3, 1.3559772e+2, -959657.3, -1721556.4, -9512.497, 0.06159143, 0.16652384, -959538.56, 651624.44, 0.19095433, 10.007706, 9.99557 
2.0354515e+3, 1.4559378e+2, -810372.94, -1517972.9, -18958.014, -0.009787996, 0.17731525, -809865.4, 703335.6, 0.11524591, 10.0071535, 9.996557 
2.0354085e+3, 1.555903e+2, -753301.8, -1472117.1, -29388.926, 0.030576328, 0.18060297, -752102.25, 663131.4, 0.05369373, 10.006531, 9.9965 
2.0353648e+3, 1.6558713e+2, -688634.44, -1308139.6, -44292.57, 0.043649226, 0.18382001, -685483.7, 631779.56, 0.01700179, 10.005709, 9.997349 
2.0353207e+3, 1.7558435e+2, -726572.1, -1287742.8, -36284.01, 0.009396311, 0.17684966, -724235.8, 495053.63, 0.002684855, 10.004743, 9.997281 
2.0352764e+3, 1.8558143e+2, -742662.7, -1235580.6, -51273.992, -0.0060270946, 0.16614768, -737385.56, 383932.38, 0.000060079976, 10.003905, 9.997371 
2.0352325e+3, 1.9557856e+2, -750251.06, -1189408.4, -68271.44, 0.0021615992, 0.14787287, -739882.44, 283464.53, 0.0, 10.003182, 9.997364 
2.0351884e+3, 2.0557651e+2, -689233.9, -965012.5, -77476.0, 0.009300763, 0.15145026, -668958.75, 256407.83, 0.0, 10.002304, 9.998656 
2.0351441e+3, 2.1557526e+2, -742689.94, -946878.44, -60786.32, 0.012759788, 0.16656715, -725964.1, 101413.08, 0.0, 10.001294, 9.998594 
2.0351e+3, 2.2557375e+2, -745168.44, -875105.1, -43951.61, 0.0031331833, 0.15889986, -731698.06, -2306.3545, 0.0, 10.000507, 9.998794 
2.0350559e+3, 2.3557216e+2, -738764.4, -823578.1, -52174.773, -0.014791361, 0.12634867, -713936.2, -82528.25, 0.0, 9.999888, 9.998774 
2.0350122e+3, 2.4557143e+2, -705595.56, -655899.94, -57363.76, 0.0013832863, 0.1436223, -618233.6, -84818.11, 0.0, 9.999011, 9.999673 
2.0349687e+3, 2.5557157e+2, -767971.5, -638282.9, -59572.98, 0.041011848, 0.19585387, -615071.94, -179657.27, 0.0, 9.997923, 9.999645 
2.034925e+3, 2.6557165e+2, -733731.4, -483115.97, -50216.914, 0.036299553, 0.21221372, -473428.25, -136013.78, 0.0, 9.997109, 10.000428 
2.0348811e+3, 2.755718e+2, -728440.25, -436824.7, -45409.574, 0.0043186536, 0.18836585, -429917.25, -190503.27, 0.0, 9.996503, 10.000364 
2.0348379e+3, 2.8557223e+2, -698396.0, -304556.0, -31190.334, 0.0027033526, 0.17731152, -302101.16, -160690.97, 0.0, 9.99575, 10.000961 
2.0347948e+3, 2.955733e+2, -720524.75, -257792.34, -42076.758, 0.0031886355, 0.19330992, -253997.39, -210597.83, 0.0, 9.994896, 10.001021 
2.0347513e+3, 3.05575e+2, -766509.6, -210470.7, -94320.13, 0.018865857, 0.24952039, -194906.94, -194906.94, 0.0, 9.994046, 10.001428 
2.0347065e+3, 3.1557506e+2, -774057.2, -27215.543, 9183.315, -0.012868254, 0.12566563, -27102.64, -27102.64, 0.0, 9.993204, 10.003084 
2.0455475e+3, 1.2564713e+2, -1048881.9, -1721547.4, -3115.7666, 0.053274076, 0.28728408, -1048867.5, 659810.56, 0.27689928, 10.0082445, 9.995981 
2.0455037e+3, 1.3564146e+2, -934802.06, -1716024.0, 7332.453, 0.072559945, 0.18173315, -934733.25, 676001.44, 0.1998818, 10.008042, 9.995444 
2.0454587e+3, 1.4563721e+2, -789912.25, -1505960.0, 743.0689, -0.00647243, 0.16811931, -789911.44, 722864.3, 0.120923355, 10.007355, 9.996547 
2.0454147e+3, 1.5563379e+2, -797814.06, -1495978.6, 1204.6587, 0.021948623, 0.1811077, -797812.0, 616995.6, 0.056631606, 10.006233, 9.996477 
2.0453702e+3, 1.6563064e+2, -733903.1, -1338462.5, -12038.502, 0.030540513, 0.19145921, -733663.5, 583173.8, 0.018123629, 10.005438, 9.997269 
2.0453253e+3, 1.756278e+2, -707324.9, -1286292.0, -26143.928, -0.00020300371, 0.18634005, -706146.7, 512717.7, 0.002931444, 10.004911, 9.997209 
2.0452803e+3, 1.8562485e+2, -707724.9, -1205206.1, -32889.047, -0.007777371, 0.1702824, -705559.94, 415333.03, 0.00006959618, 10.004089, 9.997489 
2.0452356e+3, 1.95622e+2, -765610.5, -1184487.3, -9131.608, 0.010751657, 0.14237882, -765411.56, 257509.72, 0.0, 10.003028, 9.99747 
2.0451905e+3, 2.0561993e+2, -714022.44, -996341.75, -19956.38, 0.0149616925, 0.15218651, -712618.75, 212322.34, 0.0, 10.002222, 9.998479 
2.0451453e+3, 2.156187e+2, -707030.2, -948067.75, -47828.63, 0.0045597493, 0.1860433, -697886.5, 129066.19, 0.0, 10.00162, 9.998428 
2.0451005e+3, 2.2561714e+2, -698370.6, -849657.3, -39543.26, -0.007515296, 0.18239112, -688658.3, 40309.41, 0.0, 10.00082, 9.998816 
2.0450556e+3, 2.3561549e+2, -740526.56, -821315.5, -31351.646, -0.01758407, 0.14139824, -729787.5, -98803.19, 0.0, 9.9998665, 9.998797 
2.045011e+3, 2.4561472e+2, -716559.8, -658658.1, -31831.861, 0.0011967237, 0.15131623, -644580.9, -111588.59, 0.0, 9.998927, 9.999693 
2.0449667e+3, 2.5561482e+2, -754824.94, -628963.3, -27768.85, 0.039364118, 0.1981272, -623108.94, -188117.17, 0.0, 9.998004, 9.999668 
2.0449221e+3, 2.656149e+2, -729415.0, -477271.53, -9918.414, 0.042084835, 0.21386647, -476881.97, -139890.42, 0.0, 9.997127, 10.000458 
2.0448777e+3, 2.7561516e+2, -760769.5, -449005.88, -13360.449, 0.026473872, 0.1972706, -448434.38, -209443.97, 0.0, 9.996271, 10.00039 
2.0448333e+3, 2.8561562e+2, -739164.9, -317613.5, 11209.742, 0.0069057303, 0.1892803, -317315.63, -176329.75, 0.0, 9.995445, 10.001017 
2.044789e+3, 2.956166e+2, -751230.9, -260908.27, 23594.139, -0.042641807, 0.19193266, -259775.53, -216799.81, 0.0, 9.994638, 10.001123 
2.0447455e+3, 3.056185e+2, -793962.56, -220716.27, -13652.98, 0.052072342, 0.25737244, -220391.28, -220391.28, 0.0, 9.993853, 10.001446 
2.0446993e+3, 3.1561914e+2, -776890.94, 2789.2131, 82775.414, -0.044652637, 0.20032483, 11480.258, 11480.258, 0.0, 9.993054, 10.003359 
2.0555559e+3, 1.2568979e+2, -1047054.75, -1692247.4, -16367.234, 0.071577944, 0.17194942, -1046639.8, 661620.0, 0.29060018, 10.008267, 9.996215 
2.0555122e+3, 1.3568608e+2, -931541.9, -1684272.9, 2645.3855, 0.120021455, 0.23963566, -931532.6, 678765.06, 0.20981067, 10.008035, 9.9956665 
2.0554663e+3, 1.4568198e+2, -788334.0, -1490344.4, -34882.87, 0.026089676, 0.22355542, -786604.9, 725732.44, 0.12713145, 10.007341, 9.996678 
2.0554201e+3, 1.5567812e+2, -791867.0, -1481395.4, -35449.58, -0.038674306, 0.17937133, -790049.3, 624323.8, 0.059810497, 10.006242, 9.996576 
2.0553747e+3, 1.6567469e+2, -758397.7, -1390907.3, -29750.39, -0.03932945, 0.17562765, -757001.44, 559404.6, 0.019341193, 10.005443, 9.996908 
2.0553301e+3, 1.7567162e+2, -730121.1, -1331934.5, -44029.2, -0.008215148, 0.18496998, -726916.94, 491519.72, 0.0032070328, 10.004902, 9.9969015 
2.0552844e+3, 1.8566902e+2, -663782.94, -1112141.9, -70735.055, 0.0042829127, 0.18444708, -652888.2, 467572.9, 0.00008223085, 10.004078, 9.9981365 
2.0552385e+3, 1.9566703e+2, -726296.0, -1103666.5, -46513.51, 0.008923993, 0.1773546, -720647.44, 301831.34, 0.0, 10.003028, 9.998027 
2.0551926e+3, 2.056647e+2, -765898.0, -1106184.1, -41826.82, 0.011236072, 0.17311619, -760832.25, 163669.63, 0.0, 10.002228, 9.997724 
2.055147e+3, 2.1566224e+2, -756135.1, -1050066.9, -68270.836, 0.008499992, 0.16226844, -741052.0, 85475.805, 0.0, 10.001617, 9.997731 
2.0551012e+3, 2.2566074e+2, -681454.2, -815168.25, -73453.55, 0.0024886597, 0.18272583, -648987.06, 79556.2, 0.0, 10.000819, 9.999055 
2.0550556e+3, 2.3566012e+2, -723895.25, -787938.1, -65315.426, -0.0035556606, 0.22192875, -683174.1, -52625.082, 0.0, 9.999867, 9.999028 
2.0550098e+3, 2.4565916e+2, -708856.6, -645081.94, -66463.76, -0.005484982, 0.19795245, -603252.0, -70694.38, 0.0, 9.998934, 9.999784 
2.0549642e+3, 2.556581e+2, -747934.2, -617297.2, -61414.5, -0.0072049345, 0.11814536, -592959.44, -158392.39, 0.0, 9.998011, 9.999746 
2.054919e+3, 2.656582e+2, -733881.06, -488980.16, -42651.445, 0.013486626, 0.1369858, -481764.66, -145198.23, 0.0, 9.997133, 10.000376 
2.0548743e+3, 2.7565947e+2, -761318.94, -453337.7, -45551.91, 0.059764676, 0.23193015, -446741.6, -208185.56, 0.0, 9.996281, 10.000359 
2.0548292e+3, 2.8565994e+2, -709079.9, -258199.16, -19473.266, 0.04468237, 0.200116, -257359.69, -116808.336, 0.0, 9.995455, 10.001423 
2.0547834e+3, 2.9565972e+2, -725441.0, -212610.39, -5304.531, -0.047733482, 0.04465593, -212555.53, -170004.2, 0.0, 9.994657, 10.001448 
2.0547393e+3, 3.0566338e+2, -778357.1, -189029.9, -45531.277, 0.05628609, 0.26506254, -185532.92, -185532.92, 0.0, 9.993854, 10.001664 
2.0546924e+3, 3.1566495e+2, -811833.4, -72809.586, -18586.969, -0.040369496, 0.27182683, -72342.41, -72342.41, 0.0, 9.993056, 10.002845 
2.0655642e+3, 1.257346e+2, -984425.7, -1660622.8, 17414.336, 0.05403684, 0.15428971, -983977.5, 723843.3, 0.30555776, 10.009058, 9.996147 
2.06552e+3, 1.3573116e+2, -940286.2, -1677889.6, 35076.2, 0.11051821, 0.24610434, -938621.94, 671233.94, 0.22058082, 10.008013, 9.995723 
2.0654736e+3, 1.45727e+2, -811158.3, -1496917.5, -12685.69, 0.04258755, 0.22034927, -810923.7, 700972.56, 0.13382836, 10.007197, 9.9966955 
2.0654266e+3, 1.5572342e+2, -746934.2, -1455454.1, -20544.24, -0.037630253, 0.20553026, -746339.0, 667590.6, 0.063235976, 10.006582, 9.99659 
2.06538e+3, 1.6571994e+2, -718650.8, -1365441.9, -1087.2433, -0.046993162, 0.19318607, -718648.94, 597314.06, 0.020664617, 10.005703, 9.996957 
2.0653345e+3, 1.7571653e+2, -769805.1, -1345875.1, 12455.063, -0.014892433, 0.1662305, -769535.94, 448460.13, 0.0035164487, 10.00461, 9.996945 
2.0652883e+3, 1.8571396e+2, -715195.1, -1145877.5, -30241.521, -0.00068586017, 0.1703922, -713082.0, 406938.63, 0.000099142715, 10.003768, 9.998052 
2.0652415e+3, 1.9571222e+2, -718489.2, -1108001.8, -58258.39, 0.0036470836, 0.198228, -709962.3, 312074.25, 0.0, 10.0031185, 9.997953 
2.0651948e+3, 2.057099e+2, -738114.4, -1081235.9, -36807.563, 0.0071581965, 0.19306315, -734210.4, 189849.11, 0.0, 10.002372, 9.997824 
2.0651485e+3, 2.1570726e+2, -760066.7, -1041116.0, -5258.9824, 0.008612216, 0.15369791, -759968.3, 66118.32, 0.0, 10.001548, 9.997824 
2.0651019e+3, 2.2570571e+2, -713399.9, -832494.44, -2766.578, 0.006036077, 0.1699666, -713335.7, 14766.621, 0.0, 10.000612, 9.999034 
2.0650552e+3, 2.3570523e+2, -765084.9, -809259.4, -14099.955, 0.0024251216, 0.22553326, -760968.06, -130860.8, 0.0, 9.999596, 9.99901 
2.0650086e+3, 2.4570432e+2, -739077.56, -655604.5, -20344.178, -0.00042640208, 0.2059444, -650910.1, -118794.64, 0.0, 9.9987135, 9.999816 
2.064962e+3, 2.557032e+2, -758436.7, -618426.44, -21041.586, -0.005570234, 0.11912991, -615332.56, -181207.3, 0.0, 9.997926, 9.999778 
2.0649157e+3, 2.657033e+2, -747306.6, -493618.38, -1712.1592, 0.008099011, 0.13280727, -493606.8, -157481.94, 0.0, 9.997036, 10.00039 
2.0648701e+3, 2.7570453e+2, -790689.94, -464240.53, 1108.2289, 0.047356725, 0.22669971, -464236.78, -226122.3, 0.0, 9.996068, 10.000385 
2.0648243e+3, 2.8570515e+2, -755255.0, -269376.22, 16657.586, 0.04544392, 0.2032865, -268805.8, -128697.28, 0.0, 9.995094, 10.001518 
2.064778e+3, 2.9570514e+2, -806585.75, -243114.17, 5022.7603, -0.019192658, 0.058643457, -243069.39, -200962.39, 0.0, 9.994069, 10.001519 
2.0647326e+3, 3.057089e+2, -812107.7, -143052.4, -17232.309, 0.037989367, 0.2587106, -142608.86, -142608.86, 0.0, 9.99336, 10.002214 
2.0646851e+3, 3.1570944e+2, -845722.4, -135668.39, -1130.1431, -0.047676586, 0.10847472, -135666.6, -135666.6, 0.0, 9.993025, 10.002428 
2.0755728e+3, 1.2578127e+2, -1019099.75, -1694574.5, -11997.774, -0.0032218166, 0.22344561, -1018886.7, 688477.1, 0.3212549, 10.00902, 9.995833 
2.0755272e+3, 1.3577668e+2, -953853.7, -1691039.0, 7263.3467, 0.046172205, 0.21251032, -953782.1, 655627.0, 0.2319238, 10.00802, 9.995627 
2.0754807e+3, 1.4577231e+2, -821666.94, -1509933.8, -30614.725, 0.03884766, 0.17475738, -820307.9, 691144.2, 0.14092039, 10.007207, 9.99659 
2.0754333e+3, 1.5576957e+2, -755348.94, -1467499.3, -40321.12, 0.013619234, 0.25433123, -753073.3, 660405.3, 0.06689275, 10.006574, 9.996513 
2.0753862e+3, 1.6576621e+2, -692918.0, -1307630.8, -39513.11, -0.0037815426, 0.23538938, -690388.56, 625121.44, 0.02209598, 10.0056925, 9.997363 
2.0753391e+3, 1.7576243e+2, -746527.25, -1298416.5, -26039.82, -0.022995504, 0.13067345, -745301.3, 472242.84, 0.0038615996, 10.004612, 9.9972725 
2.0752917e+3, 1.8575959e+2, -767515.2, -1256319.3, -53478.742, -0.023343503, 0.13163728, -761732.6, 357839.88, 0.00012101446, 10.003772, 9.997293 
2.0752443e+3, 1.9575755e+2, -764107.75, -1202962.5, -79660.87, -0.0075854803, 0.20795175, -750095.1, 271499.6, 0.0, 10.003116, 9.997304 
2.075197e+3, 2.057555e+2, -676963.06, -954389.06, -65416.97, 0.000786483, 0.21337056, -662311.5, 261302.83, 0.0, 10.002368, 9.998698 
2.0751499e+3, 2.1575359e+2, -705588.25, -927207.1, -34752.43, 0.0028217454, 0.15926394, -700266.44, 125364.13, 0.0, 10.001541, 9.9986105 
2.0751023e+3, 2.2575195e+2, -732733.1, -873374.9, -40225.91, 0.0013508624, 0.14408822, -722040.7, 5605.616, 0.0, 10.000612, 9.9987545 
2.0750546e+3, 2.3575073e+2, -783424.56, -848580.94, -49810.164, -0.0017349123, 0.1528657, -756484.75, -126824.73, 0.0, 9.999597, 9.998742 
2.0750073e+3, 2.457501e+2, -741369.1, -662343.8, -49637.008, 0.014464482, 0.17695452, -638412.94, -106746.09, 0.0, 9.998718, 9.999769 
2.0749602e+3, 2.5575006e+2, -759626.06, -623643.56, -50944.027, 0.041054774, 0.20367941, -606675.4, -173008.08, 0.0, 9.997933, 9.999741 
2.0749128e+3, 2.6575002e+2, -739766.0, -480546.3, -38744.246, 0.024106726, 0.20269124, -474879.3, -139211.36, 0.0, 9.997044, 10.000478 
2.0748655e+3, 2.757502e+2, -784184.8, -454556.2, -34391.418, -0.01472738, 0.17890535, -451006.22, -213339.14, 0.0, 9.99608, 10.000448 
2.0748189e+3, 2.8575113e+2, -772391.8, -308079.38, -24139.557, 0.00416907, 0.19937697, -306827.75, -167168.92, 0.0, 9.995103, 10.00125 
2.0747727e+3, 2.9575276e+2, -821145.3, -275449.84, -36387.055, 0.03414367, 0.24554601, -273034.22, -231390.67, 0.0, 9.994073, 10.001297 
2.0747253e+3, 3.057548e+2, -745965.25, -5871.266, -33737.957, -0.0045312094, 0.23832381, -4336.4688, -4336.4688, 0.0, 9.993359, 10.003159 
2.074678e+3, 3.157569e+2, -860997.7, -171554.06, 119.63494, -0.0661312, 0.14414941, -171554.05, -171554.05, 0.0, 9.99304, 10.002175 
2.0855816e+3, 1.2582786e+2, -1043485.75, -1693375.4, 2401.0742, -0.0032732661, 0.2223918, -1043476.9, 663430.75, 0.3371585, 10.0089, 9.995904 
2.085535e+3, 1.3582359e+2, -909141.56, -1627251.4, 36320.375, 0.0053183762, 0.21452881, -907309.2, 701639.56, 0.24355851, 10.008393, 9.995888 
2.0854878e+3, 1.4581919e+2, -796789.2, -1505419.5, 7332.267, 0.021739407, 0.16824162, -796713.3, 714278.44, 0.14829783, 10.00751, 9.996478 
2.08544e+3, 1.5581612e+2, -790136.2, -1495076.1, 1759.3427, 0.018452886, 0.22688872, -790131.8, 622890.0, 0.07075041, 10.006388, 9.996411 
2.0853919e+3, 1.658128e+2, -723407.0, -1326113.1, -11520.682, 0.005704586, 0.22149596, -723186.9, 591866.25, 0.023628717, 10.0055065, 9.997323 
2.0853435e+3, 1.758094e+2, -723011.94, -1291838.3, -29783.627, -0.019780058, 0.15790421, -721456.7, 495627.56, 0.0042414484, 10.004797, 9.997228 
2.0852955e+3, 1.858064e+2, -738409.8, -1247112.4, -37934.426, -0.026208773, 0.14982651, -735596.56, 383517.28, 0.00014803238, 10.003993, 9.99725 
2.0852473e+3, 1.9580387e+2, -765668.5, -1205983.6, -16227.729, -0.016505845, 0.1799447, -765071.2, 256069.42, 0.0, 10.0031185, 9.99728 
2.0851992e+3, 2.0580189e+2, -692827.1, -943815.75, -13748.287, -0.0035058807, 0.1878434, -692076.3, 231082.9, 0.0, 10.002187, 9.998856 
2.0851511e+3, 2.1580052e+2, -742840.8, -927524.3, -34957.156, 0.011076942, 0.1723665, -736445.5, 88724.7, 0.0, 10.001213, 9.998765 
2.0851028e+3, 2.25799e+2, -765136.1, -877780.56, -46095.98, 0.010077243, 0.15645745, -748677.6, -21492.848, 0.0, 10.000345, 9.998852 
2.0850542e+3, 2.3579754e+2, -783780.56, -838955.94, -29952.545, -0.00030855788, 0.13445841, -770646.8, -141446.31, 0.0, 9.999557, 9.998825 
2.0850061e+3, 2.4579698e+2, -742141.5, -667969.4, -13872.501, 0.013925569, 0.16419557, -665459.75, -134252.56, 0.0, 9.998738, 9.99972 
2.084958e+3, 2.5579727e+2, -768148.94, -631951.25, -16471.521, 0.044784833, 0.22711118, -629987.56, -196782.17, 0.0, 9.997897, 9.9997 
2.0849097e+3, 2.6579717e+2, -751898.7, -483085.2, -12787.453, 0.023025988, 0.22429256, -482478.25, -147271.72, 0.0, 9.996949, 10.0005045 
2.0848611e+3, 2.7579704e+2, -807176.25, -463305.22, -13551.566, -0.029548366, 0.16634034, -462772.0, -225563.42, 0.0, 9.995916, 10.000464 
2.0848134e+3, 2.8579813e+2, -792662.2, -318846.06, 6588.2534, -0.015820809, 0.20475857, -318754.5, -179555.75, 0.0, 9.99497, 10.00124 
2.0847663e+3, 2.9580042e+2, -822406.0, -274624.06, 11944.88, 0.023929782, 0.31756508, -274363.72, -233186.13, 0.0, 9.994059, 10.00131 
2.0847182e+3, 3.0580145e+2, -762938.25, 13756.958, 7478.3843, -0.030815607, 0.1954099, 13828.957, 13828.957, 0.0, 9.993124, 10.003407 
2.084671e+3, 3.1580594e+2, -966321.7, -205815.8, 5301.36, -0.019120608, 0.32123896, -205778.84, -205778.84, 0.0, 9.992251, 10.002319 
2.0955905e+3, 1.2587447e+2, -1040398.06, -1658531.0, -3884.3484, 0.029874004, 0.16409898, -1040373.6, 666077.6, 0.35287365, 10.008922, 9.996266 
2.095543e+3, 1.3587165e+2, -896149.4, -1569248.3, 20898.861, -0.019519342, 0.24540219, -895501.1, 712975.8, 0.25528157, 10.00837, 9.996386 
2.0954949e+3, 1.4586732e+2, -813235.7, -1523063.9, -28634.021, -0.010028684, 0.1914044, -812082.5, 698435.6, 0.1558801, 10.007478, 9.996369 
2.0954458e+3, 1.55863e+2, -799560.75, -1512473.4, -34072.875, -0.019999309, 0.13405968, -797935.94, 614623.94, 0.07478265, 10.006393, 9.996291 
2.095397e+3, 1.6585973e+2, -753787.25, -1392125.6, -35406.215, -0.016952459, 0.16162209, -751829.4, 562763.1, 0.025254477, 10.005516, 9.996867 
2.0953484e+3, 1.7585732e+2, -749118.8, -1347249.4, -53513.285, -0.008748072, 0.24213767, -744368.9, 472248.4, 0.004653772, 10.004799, 9.996849 
2.0952994e+3, 1.8585429e+2, -697362.6, -1162755.5, -68446.33, -0.0135434, 0.21798378, -687504.9, 431141.1, 0.00018005843, 10.003993, 9.99783 
2.0952502e+3, 1.9585101e+2, -731379.94, -1134950.3, -47137.84, -0.025717547, 0.11635792, -725947.25, 294728.4, 0.0, 10.003116, 9.997771 
2.0952012e+3, 2.0584896e+2, -727945.6, -1017722.75, -49321.918, -0.0075687827, 0.120679826, -719780.8, 202914.6, 0.0, 10.002187, 9.99835 
2.0951523e+3, 2.1584795e+2, -773519.1, -991308.44, -67996.13, 0.030357644, 0.19329314, -754033.44, 70672.98, 0.0, 10.00121, 9.99833 
2.0951033e+3, 2.2584675e+2, -734996.75, -816164.1, -74137.88, 0.029969573, 0.20584393, -691061.44, 35657.094, 0.0, 10.000345, 9.999276 
2.0950536e+3, 2.3584558e+2, -756878.6, -784024.56, -58042.36, 0.0030605118, 0.1692638, -710843.4, -82113.414, 0.0, 9.999557, 9.999205 
2.0950043e+3, 2.4584486e+2, -744928.2, -676192.5, -45714.09, -0.0043217596, 0.1681455, -653368.4, -122630.69, 0.0, 9.998745, 9.999662 
2.0949556e+3, 2.5584462e+2, -770245.9, -640103.56, -48331.293, 0.0011890812, 0.18834779, -624118.2, -191377.33, 0.0, 9.99791, 9.99964 
2.0949066e+3, 2.658446e+2, -753485.06, -490246.7, -53027.484, 0.0020479828, 0.19585307, -479966.16, -145224.19, 0.0, 9.996962, 10.000451 
2.0948574e+3, 2.758449e+2, -808007.6, -469241.06, -52382.64, 0.0020574827, 0.1878482, -461326.2, -224585.94, 0.0, 9.99593, 10.000419 
2.0948084e+3, 2.8584602e+2, -774117.4, -282840.84, -29035.336, -0.015295437, 0.2200106, -281130.75, -142401.5, 0.0, 9.994977, 10.001486 
2.0947595e+3, 2.9584798e+2, -803282.3, -238001.84, -22638.559, -0.059058893, 0.27349922, -237096.66, -196386.9, 0.0, 9.994068, 10.001559 
2.0947112e+3, 3.0584845e+2, -800789.4, -68307.84, -29795.717, -0.041602157, 0.11049498, -67097.82, -67097.82, 0.0, 9.9931345, 10.00284 
2.0946635e+3, 3.1585285e+2, -893634.25, -61614.426, -13409.745, 0.027450578, 0.2816212, -61398.355, -61398.355, 0.0, 9.992274, 10.003301 
2.1055996e+3, 1.2592335e+2, -989324.3, -1643913.0, 43758.254, 0.015477672, 0.17107709, -986412.06, 719559.56, 0.3682415, 10.009767, 9.996025 
2.105551e+3, 1.3592014e+2, -938003.3, -1599049.8, 32763.13, -0.023811115, 0.23329338, -936383.5, 671617.94, 0.26700586, 10.008168, 9.996207 
2.1055022e+3, 1.4591593e+2, -853850.44, -1534468.8, -15460.675, -0.0046723085, 0.19567546, -853499.44, 656542.1, 0.16362745, 10.007163, 9.99644 
2.1054521e+3, 1.5591162e+2, -765650.56, -1486769.0, -11871.357, -0.020281617, 0.13329075, -765455.2, 646627.7, 0.078972384, 10.006641, 9.996346 
2.1054026e+3, 1.659082e+2, -716997.8, -1394607.3, 1038.2985, -0.01654392, 0.15494224, -716996.2, 597120.9, 0.026965557, 10.005877, 9.9966755 
2.1053533e+3, 1.7590553e+2, -741713.8, -1360764.1, 583.4547, -0.0019490409, 0.23144965, -741713.25, 474431.5, 0.0050955038, 10.0049305, 9.996691 
2.1053034e+3, 1.8590255e+2, -681680.06, -1136187.9, -23654.152, -0.0020175108, 0.2106766, -680452.3, 437720.38, 0.00021664824, 10.0040245, 9.997995 
2.1052532e+3, 1.9589949e+2, -717759.56, -1113135.4, -32596.586, -0.0120281605, 0.11524269, -715090.1, 305109.22, 0.0, 10.003146, 9.997905 
2.1052034e+3, 2.0589736e+2, -734529.4, -1039793.44, -35748.22, -0.000060557282, 0.11354547, -730398.94, 191821.27, 0.0, 10.002226, 9.9981785 
2.1051535e+3, 2.1589603e+2, -773654.3, -1007601.8, -32817.938, 0.027632829, 0.17234282, -769137.9, 55097.48, 0.0, 10.001283, 9.998181 
2.1051036e+3, 2.2589491e+2, -722942.6, -797809.5, -37373.766, 0.02691677, 0.19584052, -707479.4, 18767.682, 0.0, 10.000378, 9.999385 
2.1050529e+3, 2.3589413e+2, -758723.1, -771974.4, -44847.695, 0.0068704416, 0.18788046, -720014.25, -91759.54, 0.0, 9.999493, 9.999315 
2.105003e+3, 2.4589352e+2, -767358.2, -671294.7, -35285.215, -0.006393363, 0.18700929, -659727.0, -129465.984, 0.0, 9.9985285, 9.999798 
2.104953e+3, 2.5589323e+2, -820198.5, -650545.06, -24521.547, -0.014470578, 0.18656926, -647071.8, -214807.34, 0.0, 9.997512, 9.999758 
2.104903e+3, 2.658932e+2, -798375.3, -506548.25, -18166.48, -0.006952201, 0.18545818, -505421.72, -171156.11, 0.0, 9.996634, 10.000496 
2.1048532e+3, 2.758935e+2, -816936.06, -466941.63, -11311.668, 0.013182239, 0.17822683, -466576.4, -230313.02, 0.0, 9.995842, 10.000477 
2.1048032e+3, 2.8589478e+2, -772285.94, -266649.0, 11036.626, -0.017985191, 0.21350925, -266408.22, -128157.586, 0.0, 9.994926, 10.00162 
2.1047531e+3, 2.958969e+2, -820818.94, -240336.97, 6505.029, -0.08753438, 0.27215093, -240264.1, -200035.48, 0.0, 9.993925, 10.001611 
2.1047038e+3, 3.0589643e+2, -836146.44, -112500.14, 3425.9338, -0.057666626, 0.029073127, -112483.92, -112483.92, 0.0, 9.993013, 10.002593 
2.1046552e+3, 3.1590047e+2, -913334.44, -42562.043, 34375.63, 0.00046110168, 0.1888474, -41207.098, -41207.098, 0.0, 9.992024, 10.00355 
2.1156089e+3, 1.2597394e+2, -1039109.75, -1715385.0, 10764.608, -0.045021795, 0.21509102, -1038938.44, 666535.6, 0.3833098, 10.009748, 9.9953 
2.1155591e+3, 1.3596901e+2, -984293.56, -1699928.6, -6314.5986, -0.017526645, 0.18390688, -984237.9, 623284.56, 0.27872926, 10.00817, 9.995495 
2.1155095e+3, 1.4596497e+2, -849856.2, -1510275.4, -29334.406, 0.025211686, 0.18611924, -848555.75, 661005.94, 0.17151697, 10.007163, 9.996611 
2.115459e+3, 1.5596174e+2, -757240.56, -1462372.9, -28564.031, 0.008279717, 0.21206474, -756085.4, 655507.25, 0.08330074, 10.006643, 9.996516 
2.1154085e+3, 1.6595797e+2, -715584.1, -1390553.1, -31837.07, 0.0005407951, 0.19225496, -714085.75, 599543.2, 0.028753089, 10.0058775, 9.996705 
2.1153581e+3, 1.7595403e+2, -739778.2, -1358447.8, -31738.36, -0.0017060097, 0.13689682, -738154.25, 477513.22, 0.005563362, 10.004936, 9.996706 
2.1153073e+3, 1.8595116e+2, -695719.4, -1167473.8, -54530.773, 0.006397307, 0.13787155, -689498.1, 428196.66, 0.00025722128, 10.004029, 9.997781 
2.1152566e+3, 1.9594917e+2, -730634.6, -1140931.8, -62471.03, 0.02039277, 0.17219625, -721333.75, 298379.2, 0.00000000000010610821, 10.003147, 9.997716 
2.1152055e+3, 2.059469e+2, -725880.4, -1024069.56, -68980.94, 0.016411653, 0.16054648, -710696.0, 211039.02, 0.0, 10.002232, 9.998286 
2.1151543e+3, 2.1594462e+2, -768064.75, -996649.3, -65008.727, 0.00031857687, 0.11209045, -750869.94, 72888.16, 0.0, 10.001281, 9.99826 
2.1151035e+3, 2.2594339e+2, -736337.06, -826920.56, -69046.4, -0.00044004543, 0.13135871, -699053.06, 26718.195, 0.0, 10.00038, 9.9991865 
2.1150525e+3, 2.3594308e+2, -768222.44, -793625.9, -76761.28, 0.008909164, 0.19122554, -703119.06, -75343.15, 0.0, 9.999497, 9.9991665 
2.1150015e+3, 2.4594288e+2, -744291.7, -626156.44, -73841.81, 0.0061703995, 0.21917261, -590664.06, -60885.66, 0.0, 9.998536, 10.000106 
2.1149504e+3, 2.5594288e+2, -799681.6, -610547.25, -62191.906, -0.0046816003, 0.22062087, -591929.7, -160152.1, 0.0, 9.9975195, 10.0000305 
2.1148995e+3, 2.659428e+2, -787753.75, -486719.44, -48627.113, -0.005313561, 0.19454902, -479059.44, -145281.11, 0.0, 9.996639, 10.000631 
2.114849e+3, 2.7594277e+2, -803240.0, -442602.84, -41685.906, -0.0032786783, 0.13965777, -437847.1, -202068.47, 0.0, 9.995855, 10.00064 
2.1147981e+3, 2.8594422e+2, -769885.7, -266146.0, -28103.64, -0.02815064, 0.18255524, -264582.97, -126819.04, 0.0, 9.994941, 10.001619 
2.1147473e+3, 2.9594696e+2, -829801.3, -264807.16, -30447.986, -0.056250077, 0.303795, -263171.03, -223435.11, 0.0, 9.993944, 10.001436 
2.1146965e+3, 3.059455e+2, -830822.6, -103354.766, -32619.566, -0.08451568, -0.025835289, -101895.04, -101895.04, 0.0, 9.993019, 10.002654 
2.1146475e+3, 3.1594983e+2, -981192.2, -184738.66, -45050.246, 0.016395442, 0.14629754, -182198.55, -182198.55, 0.0, 9.992025, 10.002574 
2.1256186e+3, 1.2602471e+2, -1026912.0, -1691656.5, 984.5531, -0.04165981, 0.22860062, -1026910.56, 678065.6, 0.39818826, 10.01003, 9.995382 
2.1255673e+3, 1.3601936e+2, -974084.56, -1690917.8, 10768.727, -0.009568269, 0.16025342, -973922.8, 633105.5, 0.29045936, 10.008389, 9.995449 
2.1255165e+3, 1.4601527e+2, -841808.2, -1516888.3, 28111.191, 0.025541004, 0.16945638, -840639.6, 668428.56, 0.17951252, 10.007353, 9.9964695 
2.1254656e+3, 1.5601215e+2, -752675.25, -1470340.1, 14995.21, 0.015608336, 0.22104736, -752362.06, 658736.44, 0.087737486, 10.006759, 9.996403 
2.1254143e+3, 1.6600835e+2, -688255.25, -1360219.4, -606.5984, 0.008863953, 0.19425893, -688254.7, 624880.2, 0.030605398, 10.006016, 9.996843 
2.125363e+3, 1.7600423e+2, -698347.1, -1325821.5, 4852.991, 0.0022657018, 0.10917246, -698309.6, 516864.44, 0.00605471, 10.005174, 9.996814 
2.1253115e+3, 1.860014e+2, -671199.9, -1169984.1, -12898.488, 0.012061258, 0.11767521, -670866.5, 446334.9, 0.00030139246, 10.004264, 9.997649 
2.1252598e+3, 1.959996e+2, -714973.4, -1144941.3, -16770.156, 0.032129873, 0.18479197, -714320.3, 304898.9, 0.0000000000129771185, 10.003308, 9.997609 
2.1252078e+3, 2.0599736e+2, -692355.94, -995642.56, -19434.572, 0.023566315, 0.17636688, -691115.6, 230125.44, 0.0, 10.002413, 9.998391 
2.1251558e+3, 2.15995e+2, -723148.6, -965607.94, -16947.365, -0.0043926015, 0.1113674, -721969.75, 101294.18, 0.0, 10.001554, 9.99834 
2.1251038e+3, 2.2599366e+2, -721767.9, -834335.6, -20644.02, -0.004139093, 0.1246384, -718101.4, 7176.5933, 0.0, 10.000546, 9.999053 
2.1250518e+3, 2.359932e+2, -785356.06, -815110.1, -24889.666, 0.015397042, 0.1844583, -771236.2, -143951.94, 0.0, 9.999439, 9.999045 
2.1249998e+3, 2.4599291e+2, -749145.9, -623035.2, -28898.377, 0.0095270295, 0.20902294, -616728.5, -87441.08, 0.0, 9.998482, 10.000153 
2.1249478e+3, 2.5599295e+2, -782440.7, -595717.1, -37662.605, -0.010707281, 0.20741612, -588406.75, -157120.28, 0.0, 9.997612, 10.000087 
2.1248958e+3, 2.6599294e+2, -790184.4, -473522.38, -32057.807, -0.018055126, 0.18211135, -470309.56, -137023.81, 0.0, 9.996565, 10.000756 
2.124844e+3, 2.7599305e+2, -863905.44, -459024.3, -27528.639, -0.025154253, 0.12521921, -457161.2, -221876.8, 0.0, 9.99539, 10.000749 
2.1247925e+3, 2.859944e+2, -834088.6, -300498.4, -11844.4, -0.031979777, 0.16152284, -300235.63, -162965.36, 0.0, 9.994519, 10.001584 
2.1247415e+3, 2.959972e+2, -839971.25, -273261.16, -15956.374, -0.009307469, 0.2919841, -272812.22, -233569.61, 0.0, 9.993896, 10.001399 
2.1246892e+3, 3.0599606e+2, -820718.3, -94096.9, -15945.721, -0.106480986, -0.0052781045, -93747.14, -93747.14, 0.0, 9.993072, 10.002691 
2.1246395e+3, 3.160009e+2, -1004732.0, -168833.34, -23979.486, 0.055063244, 0.21344842, -168146.0, -168146.0, 0.0, 9.991747, 10.002817 
2.1356289e+3, 1.260757e+2, -1024792.8, -1640076.8, -30672.973, 0.0051366966, 0.21657953, -1023267.44, 681209.6, 0.41293344, 10.009929, 9.996037 
2.1355757e+3, 1.3607101e+2, -961771.1, -1628331.4, -28669.006, -0.005146066, 0.16046052, -960540.3, 645980.6, 0.30216905, 10.008403, 9.995877 
2.1355234e+3, 1.4606667e+2, -865746.75, -1571199.6, 10962.073, -0.002446225, 0.14630064, -865576.44, 642986.6, 0.1875627, 10.007391, 9.996079 
2.1354721e+3, 1.5606289e+2, -774202.6, -1517700.8, -3115.532, 0.00236062, 0.17048937, -774189.56, 636411.25, 0.09225024, 10.006779, 9.996069 
2.1354201e+3, 1.6605927e+2, -675835.9, -1332138.0, -28214.938, 0.0068772594, 0.16730356, -674625.1, 638010.25, 0.03251331, 10.006016, 9.997039 
2.1353681e+3, 1.7605592e+2, -688709.56, -1302742.6, -23982.006, 0.0070335227, 0.14073536, -687774.3, 526892.1, 0.0065690847, 10.005159, 9.996981 
2.1353157e+3, 1.8605307e+2, -677741.8, -1182778.6, -46614.418, 0.01284759, 0.14305563, -673475.44, 443219.13, 0.00034929538, 10.004256, 9.997567 
2.135263e+3, 1.9605067e+2, -718283.44, -1153748.8, -49165.023, 0.022898145, 0.15837993, -712801.56, 305917.5, 0.0000000000136278775, 10.003313, 9.997548 
2.1352102e+3, 2.0604862e+2, -684246.1, -981356.06, -49844.16, 0.020784771, 0.1665541, -676107.06, 244632.17, 0.0, 10.002419, 9.998489 
2.1351573e+3, 2.1604702e+2, -717387.75, -954914.5, -47439.25, 0.010414787, 0.16646288, -708263.56, 114490.984, 0.0, 10.0015545, 9.998415 
2.1351042e+3, 2.2604556e+2, -727776.0, -848698.06, -60995.453, 0.012922181, 0.16988316, -702353.5, 22415.328, 0.0, 10.00055, 9.998954 
2.1350513e+3, 2.3604439e+2, -793252.8, -832709.6, -63836.64, 0.022936583, 0.1675959, -746165.6, -119384.71, 0.0, 9.99944, 9.998926 
2.134998e+3, 2.4604358e+2, -763941.4, -656070.44, -61644.93, 0.0016465078, 0.15934066, -628096.6, -99307.53, 0.0, 9.998487, 9.999925 
2.1349451e+3, 2.560433e+2, -793413.94, -622556.6, -71229.54, -0.036920812, 0.14697368, -596757.1, -165964.94, 0.0, 9.997625, 9.999898 
2.134892e+3, 2.660435e+2, -781072.9, -458157.7, -78210.72, -0.04925409, 0.14678787, -440212.2, -107422.945, 0.0, 9.996575, 10.000858 
2.1348388e+3, 2.7604413e+2, -859349.7, -452570.1, -71816.31, -0.055803783, 0.13383982, -440263.34, -205481.4, 0.0, 9.995398, 10.000792 
2.1347868e+3, 2.8604525e+2, -841383.44, -317454.47, -37837.953, -0.029062923, 0.14989787, -314735.94, -177964.81, 0.0, 9.994524, 10.001467 
2.1347359e+3, 2.9604745e+2, -831322.25, -259102.58, -38515.742, 0.0519006, 0.23420452, -256521.75, -217771.11, 0.0, 9.993908, 10.0014925 
2.134682e+3, 3.0604813e+2, -807972.0, -72400.83, -60125.125, -0.13447218, 0.095800444, -67518.64, -67518.64, 0.0, 9.993086, 10.002836 
2.1346301e+3, 3.1605145e+2, -862056.56, 121016.97, 41489.145, -0.041438248, 0.16101985, 122764.84, 122764.84, 0.0, 9.991774, 10.004794 
2.1456385e+3, 1.2612802e+2, -1135478.0, -1685483.4, 17044.783, 0.024499487, 0.17518717, -1134950.4, 569012.5, 0.4274867, 10.008795, 9.996051 
2.1455842e+3, 1.3612384e+2, -932422.6, -1604380.8, 1437.175, -0.0023316266, 0.17647697, -932419.5, 673583.5, 0.3137704, 10.008823, 9.995836 
2.145531e+3, 1.4611933e+2, -776090.5, -1520763.3, 42068.41, -0.02294594, 0.15168868, -773721.5, 734325.56, 0.19559264, 10.008245, 9.996015 
2.145479e+3, 1.561153e+2, -717630.75, -1491796.6, 48136.023, -0.004387552, 0.15900816, -714649.25, 695437.5, 0.09680112, 10.007263, 9.996013 
2.145426e+3, 1.661117e+2, -664518.1, -1323575.1, 18863.428, 0.0032342894, 0.15955973, -663978.6, 648142.75, 0.034467556, 10.006101, 9.997053 
2.1453728e+3, 1.761085e+2, -735216.56, -1323751.5, 12835.66, -0.004613533, 0.147095, -734936.75, 479214.7, 0.0071069323, 10.004839, 9.996988 
2.1453196e+3, 1.8610558e+2, -702412.1, -1196042.3, 1852.1763, 0.004449053, 0.14521752, -702405.1, 413774.94, 0.00040142774, 10.004098, 9.997549 
2.1452664e+3, 1.96103e+2, -666526.4, -1131649.3, 806.41266, 0.026276438, 0.14606677, -666524.94, 351681.22, 0.000000000027357056, 10.003685, 9.997519 
2.1452126e+3, 2.0610102e+2, -636857.9, -967932.06, -18781.963, 0.02733536, 0.16652589, -635795.75, 284430.34, 0.0, 10.0027895, 9.998401 
2.1451586e+3, 2.1609956e+2, -720536.3, -965060.06, -30917.355, 0.0146667035, 0.19405398, -716687.7, 105552.62, 0.0, 10.001574, 9.998334 
2.1451047e+3, 2.2609797e+2, -708290.1, -834823.0, -38891.66, 0.016847285, 0.1857337, -697292.1, 26963.227, 0.0, 10.000668, 9.998991 
2.1450508e+3, 2.3609647e+2, -717444.6, -794213.5, -33388.688, 0.028782245, 0.14734738, -704955.0, -78685.836, 0.0, 9.999956, 9.99894 
2.1449965e+3, 2.4609548e+2, -739225.94, -667121.94, -34007.832, 0.0044242884, 0.13168296, -653613.06, -125334.0, 0.0, 9.99876, 9.999716 
2.1449421e+3, 2.5609502e+2, -860723.44, -675308.0, -41190.164, -0.0419478, 0.12798595, -666569.44, -236285.38, 0.0, 9.997255, 9.999712 
2.1448885e+3, 2.6609528e+2, -786348.44, -465272.72, -36740.33, -0.055973474, 0.14074372, -461122.22, -128841.02, 0.0, 9.996562, 10.000815 
2.1448347e+3, 2.7609608e+2, -722440.6, -393923.9, -44940.406, -0.051620964, 0.14995275, -387887.1, -153614.9, 0.0, 9.99637, 10.000725 
2.1447818e+3, 2.8609684e+2, -756398.94, -292992.88, -30881.691, -0.029937157, 0.14066842, -290943.94, -154679.05, 0.0, 9.99518, 10.001318 
2.144729e+3, 2.960981e+2, -911847.2, -304701.06, -31355.348, 0.014464923, 0.14957842, -303086.03, -264832.9, 0.0, 9.993387, 10.001429 
2.1446751e+3, 3.061e+2, -905767.2, -119483.445, -62234.953, -0.08355751, 0.13302067, -114587.98, -114587.98, 0.0, 9.992415, 10.002835 
2.1446224e+3, 3.1610256e+2, -840142.75, 164675.88, 98208.84, 0.0074683186, 0.124854475, 174184.63, 174184.63, 0.0, 9.991798, 10.005074 
2.155647e+3, 1.261815e+2, -1166503.0, -1745963.4, 17093.426, 0.022929398, 0.11672083, -1165999.3, 537436.2, 0.44163096, 10.008832, 9.995532 
2.1555927e+3, 1.3617772e+2, -965259.6, -1666013.1, 2367.586, -0.006158942, 0.20544553, -965251.6, 640224.1, 0.32509083, 10.008799, 9.995423 
2.1555391e+3, 1.461731e+2, -779580.3, -1501038.3, 15394.015, -0.043895602, 0.18055968, -779252.0, 728269.4, 0.20349301, 10.008191, 9.996185 
2.155486e+3, 1.5616918e+2, -718443.5, -1474689.3, 17286.998, -0.0078027113, 0.18074992, -718048.56, 691510.0, 0.10134139, 10.007212, 9.996156 
2.1554321e+3, 1.6616543e+2, -678922.2, -1348528.9, -24119.25, -0.0037324694, 0.1682413, -678054.56, 633540.25, 0.036456596, 10.0060835, 9.996893 
2.1553773e+3, 1.7616183e+2, -739699.0, -1341620.4, -27117.416, -0.031922713, 0.13233548, -738479.8, 475150.03, 0.0076687997, 10.004874, 9.996851 
2.1553232e+3, 1.8615884e+2, -696477.06, -1191589.6, -10483.547, -0.013624486, 0.12793656, -696255.2, 419403.72, 0.00045852712, 10.0041275, 9.997568 
2.15527e+3, 1.9615644e+2, -667383.3, -1134366.6, -14576.33, 0.03897515, 0.14514665, -666928.75, 350753.28, 0.0000000008095007, 10.003684, 9.997502 
2.1552153e+3, 2.0615436e+2, -657336.56, -1010385.56, -62539.863, 0.040456593, 0.1729026, -646585.5, 273117.78, 0.0, 10.002786, 9.998114 
2.1551599e+3, 2.1615261e+2, -737032.75, -1000084.44, -71420.63, 0.0066142865, 0.19772048, -718892.44, 102829.61, 0.0, 10.001573, 9.998096 
2.1551052e+3, 2.2615087e+2, -697000.94, -812965.1, -63439.44, 0.006980376, 0.1765878, -669038.4, 54699.723, 0.0, 10.0006695, 9.999143 
2.1550508e+3, 2.3614936e+2, -708066.8, -777303.44, -61862.1, 0.030417137, 0.1234894, -671795.44, -46045.117, 0.0, 9.999963, 9.999056 
2.1549954e+3, 2.4614845e+2, -752493.44, -696849.0, -91837.25, 0.01550325, 0.12401689, -628712.1, -100953.31, 0.0, 9.998766, 9.999511 
2.1549395e+3, 2.5614813e+2, -873869.0, -704596.44, -92363.56, -0.02850789, 0.15141238, -663955.7, -234192.53, 0.0, 9.997259, 9.999511 
2.1548851e+3, 2.6614818e+2, -797509.1, -493180.53, -43710.367, -0.03820985, 0.1649716, -487026.88, -155264.28, 0.0, 9.996577, 10.000618 
2.1548313e+3, 2.7614874e+2, -730058.94, -418178.47, -59550.535, -0.015015571, 0.171246, -407194.7, -173438.3, 0.0, 9.996402, 10.0005455 
2.1547766e+3, 2.8614905e+2, -767556.75, -320870.88, -101704.87, -0.040647116, 0.1349746, -298804.06, -163051.61, 0.0, 9.995197, 10.00112 
2.154721e+3, 2.9614913e+2, -930169.94, -343318.38, -92039.9, -0.13424964, 0.043995295, -329221.72, -291471.47, 0.0, 9.993386, 10.001166 
2.1546687e+3, 3.0615127e+2, -924781.44, -161759.97, -87018.766, 0.05684464, 0.08038724, -151961.75, -151961.75, 0.0, 9.99242, 10.002547 
2.1546136e+3, 3.1615555e+2, -992750.56, -161744.48, 73851.73, -0.042246472, 0.27288574, -155232.3, -155232.3, 0.0, 9.991831, 10.002821 
2.165656e+3, 1.2623632e+2, -1133694.1, -1747542.6, 44812.832, 0.0048292005, 0.08221505, -1130439.9, 572457.4, 0.45497632, 10.00958, 9.995173 
2.1656013e+3, 1.3623275e+2, -1002285.56, -1707077.8, 48413.113, -0.0057851914, 0.21832892, -998975.56, 605961.4, 0.33586937, 10.008611, 9.99524 
2.1655466e+3, 1.4622806e+2, -852626.44, -1513242.4, 60641.0, -0.054370776, 0.18049963, -847106.06, 659877.2, 0.21112372, 10.0075, 9.99643 
2.1654926e+3, 1.5622418e+2, -829175.9, -1512754.9, 73437.85, -0.012327367, 0.16404444, -821375.4, 587643.75, 0.10581762, 10.006305, 9.996333 
2.1654378e+3, 1.6622044e+2, -724783.1, -1399007.4, 51432.223, -0.0052812737, 0.16254519, -720882.25, 590173.06, 0.03846979, 10.005891, 9.996637 
2.1653825e+3, 1.7621684e+2, -600860.4, -1299693.6, 41373.17, -0.034174778, 0.15248004, -598419.5, 614672.0, 0.008255738, 10.005954, 9.996616 
2.1653277e+3, 1.862137e+2, -565559.6, -1134880.1, 37063.53, -0.018519374, 0.14900592, -563156.9, 551965.06, 0.0005214086, 10.005059, 9.997506 
2.1652734e+3, 1.962111e+2, -692256.94, -1154937.3, 26163.021, 0.030595511, 0.15240343, -690782.2, 326364.3, 0.00000001126036, 10.003554, 9.997421 
2.165218e+3, 2.0620875e+2, -694024.8, -1045532.75, -15286.558, 0.03660635, 0.16758436, -693361.3, 225809.03, 0.0, 10.002612, 9.997954 
2.1651617e+3, 2.1620671e+2, -682921.56, -989330.56, -16606.576, 0.012737452, 0.18098699, -682024.2, 139167.89, 0.0, 10.002015, 9.997955 
2.165106e+3, 2.2620496e+2, -642856.94, -794224.56, -14981.235, 0.009734679, 0.16930622, -641388.44, 81820.016, 0.0, 10.001079, 9.999072 
2.1650505e+3, 2.3620358e+2, -718688.6, -789988.44, -30876.6, 0.023461279, 0.13816868, -707176.25, -81956.89, 0.0, 9.999927, 9.998984 
2.1649942e+3, 2.462026e+2, -713400.9, -684751.2, -65359.832, 0.014979142, 0.1375286, -632164.8, -104936.516, 0.0, 9.999065, 9.999448 
2.1649373e+3, 2.56202e+2, -717482.2, -636554.25, -55468.82, -0.014033953, 0.14919615, -608358.75, -179124.39, 0.0, 9.998366, 9.999444 
2.1648818e+3, 2.662019e+2, -754527.5, -491905.56, 1597.6056, -0.02075975, 0.15685332, -491895.84, -160659.88, 0.0, 9.99696, 10.000441 
2.1648271e+3, 2.7620226e+2, -923275.8, -525392.2, -13827.238, 0.0067604654, 0.16362923, -524912.25, -291679.94, 0.0, 9.995142, 10.000414 
2.1647713e+3, 2.8620273e+2, -871204.5, -348748.47, -38894.59, -0.045325466, 0.13759086, -345868.8, -210642.25, 0.0, 9.994396, 10.001311 
2.1647136e+3, 2.9620314e+2, -810913.4, -278941.66, -3569.0608, -0.20892176, 0.058657195, -278917.72, -241697.28, 0.0, 9.994181, 10.001223 
2.1646619e+3, 3.0620447e+2, -875549.75, -204472.45, 3251.5437, 0.11635046, 0.055699, -204456.69, -204456.69, 0.0, 9.9930525, 10.001945 
2.1646038e+3, 3.1620753e+2, -1031980.6, -226352.63, 89822.086, -0.17965153, 0.1752338, -216459.55, -216459.55, 0.0, 9.991762, 10.002409 
2.175665e+3, 1.2629232e+2, -1166877.4, -1794496.5, 17184.252, -0.033089016, 0.07030431, -1166407.3, 535942.1, 0.46711332, 10.009439, 9.994905 
2.1756099e+3, 1.3628878e+2, -1019546.9, -1713308.9, 25660.35, -0.0050952965, 0.21848111, -1018599.06, 585789.06, 0.34586748, 10.008525, 9.995234 
2.1755539e+3, 1.4628403e+2, -845015.56, -1480755.1, 27078.766, -0.059717, 0.15802789, -843864.25, 662570.2, 0.21838398, 10.007485, 9.996701 
2.1754986e+3, 1.5628015e+2, -812417.75, -1481622.3, 39213.508, -0.020990338, 0.11567874, -810127.75, 598342.0, 0.110206865, 10.006365, 9.996516 
2.1754436e+3, 1.6627663e+2, -744059.9, -1448302.9, 55039.727, -0.005232159, 0.14607723, -739784.25, 570720.25, 0.040509757, 10.005931, 9.996283 
2.1753885e+3, 1.7627333e+2, -627376.6, -1350316.5, 39391.027, -0.0170862, 0.20220384, -625236.7, 587301.94, 0.008872104, 10.005932, 9.996282 
2.1753328e+3, 1.8626998e+2, -579546.6, -1159783.6, -17795.027, -0.01427528, 0.20213723, -579001.4, 535570.0, 0.0005912434, 10.005037, 9.997348 
2.1752764e+3, 1.9626686e+2, -701451.75, -1177130.3, -23744.299, 0.0013189137, 0.16851963, -700269.5, 316331.6, 0.00000006066501, 10.003564, 9.997267 
2.1752203e+3, 2.062641e+2, -695419.2, -1052982.5, -35613.3, 0.01660734, 0.15344432, -691906.6, 226721.58, 0.0, 10.002626, 9.997898 
2.1751638e+3, 2.1626176e+2, -687905.94, -1001952.75, -38699.758, 0.028794134, 0.14335102, -683207.3, 137444.64, 0.0, 10.00202, 9.997869 
2.175107e+3, 2.262601e+2, -662899.56, -837392.94, -56994.242, 0.021431608, 0.16208455, -645933.3, 76734.61, 0.0, 10.0010805, 9.998777 
2.1750501e+3, 2.3625904e+2, -736239.6, -827679.7, -70737.05, 0.005281841, 0.19243549, -697733.44, -73056.08, 0.0, 9.9999275, 9.998728 
2.1749929e+3, 2.462578e+2, -708184.6, -676213.1, -91216.2, 0.0019195457, 0.17266159, -599592.5, -72903.875, 0.0, 9.999071, 9.999507 
2.1749355e+3, 2.5625664e+2, -711843.75, -630328.75, -86762.555, -0.0026942005, 0.11942483, -575227.44, -146528.52, 0.0, 9.998385, 9.99948 
2.1748787e+3, 2.662563e+2, -765795.2, -517893.78, -69771.04, -0.0068304786, 0.1150951, -499606.03, -168903.56, 0.0, 9.996967, 10.00026 
2.1748222e+3, 2.762566e+2, -931446.4, -540189.06, -73708.64, 0.010067904, 0.12954967, -526763.8, -294063.03, 0.0, 9.995129, 10.000321 
2.1747653e+3, 2.8625777e+2, -828312.2, -262520.2, -45935.56, -0.046306323, 0.1482807, -258815.05, -124126.84, 0.0, 9.994402, 10.0019045 
2.1747078e+3, 2.9625994e+2, -776778.1, -221300.84, -22608.08, -0.21313871, 0.19028692, -220382.2, -183717.66, 0.0, 9.99423, 10.001597 
2.1746546e+3, 3.062599e+2, -943428.44, -351556.28, -52843.55, 0.092483625, 0.086417094, -346875.34, -346875.34, 0.0, 9.993077, 10.000923 
2.1745966e+3, 3.1626055e+2, -861974.56, 124790.586, -95839.35, -0.06587103, 0.051182978, 134012.77, 134012.77, 0.0, 9.991755, 10.004832 
2.1856739e+3, 1.2635002e+2, -1262627.3, -1760857.4, 5769.388, 0.014167038, 0.2087692, -1262560.5, 439227.2, 0.4779611, 10.007837, 9.995907 
2.185618e+3, 1.363461e+2, -1091986.6, -1656055.3, 71909.61, 0.01487196, 0.2064989, -1082963.8, 520862.97, 0.35510004, 10.007376, 9.996206 
2.1855612e+3, 1.4634138e+2, -883417.8, -1551649.4, 90420.516, -0.055879984, 0.13510472, -871398.94, 634473.2, 0.22533093, 10.007441, 9.996206 
2.1855056e+3, 1.5633759e+2, -662952.56, -1449319.0, 62693.92, -0.012759752, 0.15152295, -657985.6, 749922.3, 0.11455689, 10.00777, 9.996062 
2.1854499e+3, 1.6633375e+2, -607924.9, -1382846.0, 59054.492, 0.00990643, 0.17542322, -603450.3, 706494.94, 0.042598996, 10.006937, 9.996245 
2.1853943e+3, 1.7632999e+2, -716311.25, -1400243.1, 62838.695, 0.004819573, 0.18799515, -710585.7, 501397.38, 0.009525492, 10.005349, 9.996218 
2.1853374e+3, 1.863265e+2, -668156.6, -1221784.6, 10123.424, -0.0045257644, 0.18817416, -667971.56, 446045.84, 0.0006698787, 10.004516, 9.997171 
2.18528e+3, 1.9632344e+2, -628706.06, -1158480.9, 1946.2921, -0.0116487825, 0.1801394, -628698.94, 387348.5, 0.00000021897922, 10.004139, 9.997116 
2.185223e+3, 2.0632069e+2, -600157.06, -1006646.6, -5905.746, 0.00079537835, 0.17305213, -600071.3, 318003.2, 0.0, 10.003284, 9.997897 
2.1851656e+3, 2.1631831e+2, -671828.5, -996088.4, -7404.655, 0.023191, 0.16069755, -671659.5, 148438.27, 0.0, 10.002142, 9.997848 
2.1851079e+3, 2.263165e+2, -658867.5, -848390.06, -20364.826, 0.018773332, 0.1714864, -656703.94, 65411.535, 0.0, 10.001167, 9.998658 
2.1850498e+3, 2.363152e+2, -692699.2, -818479.56, -22352.568, 0.0012583195, 0.19106227, -688844.94, -64717.207, 0.0, 10.000281, 9.998618 
2.184992e+3, 2.4631394e+2, -701317.3, -674275.2, -38773.12, 0.0049110907, 0.17772707, -646733.2, -120593.78, 0.0, 9.999129, 9.99949 
2.1849336e+3, 2.5631294e+2, -796469.94, -672914.94, -43020.883, 0.01580141, 0.14110735, -659411.25, -231262.77, 0.0, 9.997818, 9.999458 
2.1848755e+3, 2.663125e+2, -782631.1, -524964.0, -30337.326, 0.00649885, 0.13077275, -521440.34, -191287.86, 0.0, 9.996852, 10.000266 
2.1848176e+3, 2.7631253e+2, -794223.44, -475279.75, -17652.092, 0.0007244097, 0.120422125, -474305.75, -242153.1, 0.0, 9.996079, 10.000306 
2.18476e+3, 2.8631365e+2, -743226.75, -229719.13, 3578.6543, -0.041715313, 0.1404471, -229694.19, -95552.875, 0.0, 9.995026, 10.001826 
2.1847022e+3, 2.9631618e+2, -842290.1, -252378.77, -33261.223, -0.15432407, 0.22206844, -250509.31, -214393.3, 0.0, 9.993784, 10.001597 
2.1846467e+3, 3.063167e+2, -998865.8, -340478.78, -31716.54, 0.049414866, 0.16194667, -338954.44, -338954.44, 0.0, 9.9925375, 10.00126 
2.1845877e+3, 3.1631774e+2, -883618.2, 187211.48, -38961.67, -0.09096538, 0.13357969, 188627.22, 188627.22, 0.0, 9.991296, 10.005482 
2.1956827e+3, 1.2640901e+2, -1225261.3, -1595980.0, -5943.0205, 0.113095336, 0.45138496, -1225166.0, 476049.38, 0.48811665, 10.007496, 9.997885 
2.1956253e+3, 1.364045e+2, -1015859.06, -1472378.3, 60072.918, 0.044669848, 0.1823501, -1008086.44, 595168.06, 0.36406448, 10.007446, 9.997913 
2.1955685e+3, 1.4639993e+2, -938517.1, -1711350.3, 101175.414, -0.049090236, 0.11499256, -925491.3, 579806.9, 0.23229034, 10.007553, 9.995057 
2.1955134e+3, 1.5639625e+2, -729998.44, -1594418.8, 68864.23, 0.006431058, 0.25717497, -724546.75, 682788.7, 0.119020656, 10.007748, 9.995079 
2.195457e+3, 1.6639172e+2, -598549.1, -1353965.6, 3223.8071, 0.034846094, 0.24024892, -598535.4, 710843.7, 0.04478571, 10.006911, 9.996457 
2.1953997e+3, 1.7638679e+2, -700413.44, -1376207.4, 11713.041, 0.029213902, 0.118300654, -700210.5, 511214.7, 0.010227019, 10.005389, 9.996366 
2.1953417e+3, 1.8638326e+2, -676785.8, -1249758.6, -1864.8999, 0.008557988, 0.11814152, -676779.75, 436680.66, 0.00076006993, 10.004555, 9.9969635 
2.1952839e+3, 1.9638076e+2, -640192.0, -1183476.8, -13376.046, -0.013657891, 0.1877303, -639862.9, 375623.94, 0.00000062519194, 10.004139, 9.996946 
2.1952258e+3, 2.0637839e+2, -598275.6, -1002693.44, -47491.203, -0.013877135, 0.22262914, -592773.56, 324737.03, 0.0, 10.00328, 9.99793 
2.1951672e+3, 2.1637625e+2, -669847.5, -992620.5, -46376.984, -0.004474641, 0.23102202, -663316.1, 156214.92, 0.0, 10.002141, 9.997875 
2.1951087e+3, 2.26374e+2, -656428.6, -844362.56, -51872.086, 0.0017461239, 0.19680884, -643062.0, 78490.25, 0.0, 10.001167, 9.998688 
2.1950501e+3, 2.363719e+2, -691052.4, -817153.2, -56332.332, 0.006990845, 0.13337676, -669552.94, -45981.145, 0.0, 10.000285, 9.998628 
2.194991e+3, 2.4637093e+2, -708325.3, -690943.25, -89252.164, 0.020559557, 0.15345576, -609960.0, -84378.27, 0.0, 9.999133, 9.999375 
2.1949317e+3, 2.563708e+2, -801919.56, -686272.06, -90027.18, 0.03744451, 0.21859877, -637098.25, -209514.52, 0.0, 9.997822, 9.999368 
2.1948723e+3, 2.6637042e+2, -768189.6, -498394.34, -59843.47, 0.016706172, 0.20520957, -485716.22, -156129.47, 0.0, 9.996861, 10.000446 
2.1948132e+3, 2.7636996e+2, -785487.2, -465541.53, -47874.73, -0.024367755, 0.13235176, -458531.44, -226942.36, 0.0, 9.996111, 10.000361 
2.194755e+3, 2.8637025e+2, -799205.4, -352689.16, -45968.97, -0.031938296, 0.11197343, -348005.75, -214418.56, 0.0, 9.995049, 10.000974 
2.194697e+3, 2.9637155e+2, -870660.06, -313068.8, -83601.94, -0.031720784, 0.15698065, -300803.84, -265227.22, 0.0, 9.993787, 10.001183 
2.1946384e+3, 3.0637476e+2, -861312.0, -56972.734, -79725.375, -0.026688067, 0.2667346, -49146.574, -49146.574, 0.0, 9.992541, 10.003207 
2.1945779e+3, 3.163763e+2, -1050897.1, -161893.58, -8614.755, -0.20013064, 0.13568588, -161810.11, -161810.11, 0.0, 9.991309, 10.003074 
2.2056866e+3, 1.2646417e+2, -1630739.1, -1960092.6, 192686.97, 0.011172988, 0.07429716, -1541946.6, 158725.33, 0.49892133, 10.002862, 9.997124 
2.2056335e+3, 1.3646264e+2, -909135.8, -1460515.5, 107134.93, 0.050184518, 0.17396653, -889050.75, 713634.25, 0.37374562, 10.009004, 9.997313 
2.2055776e+3, 1.4645872e+2, -680209.4, -1539729.6, 23932.121, -0.013479473, 0.19329591, -679543.5, 825179.6, 0.239825, 10.009923, 9.995074 
2.205521e+3, 1.5645398e+2, -771888.44, -1611841.8, 54904.684, 0.011879756, 0.22857945, -768314.7, 638455.4, 0.12383081, 10.007435, 9.995107 
2.2054636e+3, 1.6644946e+2, -637095.7, -1346893.9, 31775.049, 0.029672742, 0.20187216, -635676.06, 673136.9, 0.047136266, 10.006537, 9.996684 
2.2054055e+3, 1.7644522e+2, -521377.25, -1269685.3, 39527.508, 0.025947561, 0.12586473, -519295.1, 691557.0, 0.010990617, 10.006557, 9.9965315 
2.205347e+3, 1.8644169e+2, -541546.1, -1206847.8, 18703.977, 0.009986602, 0.1337683, -541020.7, 571866.75, 0.0008654176, 10.005587, 9.996759 
2.2052881e+3, 1.9643888e+2, -665578.44, -1212928.5, 6453.3066, -0.0069014668, 0.1898682, -665502.4, 349415.66, 0.0000015429664, 10.004043, 9.996789 
2.2052288e+3, 2.064364e+2, -633656.75, -1008586.0, -22885.318, -0.011452935, 0.21891518, -632265.0, 284677.44, 0.0, 10.002994, 9.998024 
2.2051692e+3, 2.1643436e+2, -651580.94, -973213.3, -20119.092, -0.010370119, 0.22647017, -650327.3, 168634.13, 0.0, 10.002226, 9.997965 
2.2051096e+3, 2.2643217e+2, -663898.25, -842569.25, -27645.082, -0.001033991, 0.19461864, -659718.56, 61263.28, 0.0, 10.001098, 9.998731 
2.20505e+3, 2.3643015e+2, -763664.06, -846743.9, -30082.49, 0.014312424, 0.1345441, -753915.4, -130914.24, 0.0, 9.999769, 9.998671 
2.20499e+3, 2.4642922e+2, -729151.75, -697046.3, -47744.66, 0.023130724, 0.15663849, -662728.0, -137717.06, 0.0, 9.998979, 9.999406 
2.2049294e+3, 2.5642914e+2, -706365.25, -638525.06, -39924.93, 0.028217044, 0.22348425, -620056.5, -193043.5, 0.0, 9.998475, 9.999378 
2.2048691e+3, 2.6642883e+2, -695963.0, -466845.1, -22045.436, 0.014700365, 0.22435401, -464743.2, -135728.11, 0.0, 9.997376, 10.000412 
2.2048093e+3, 2.7642858e+2, -820606.9, -487427.0, -29007.209, -0.0083962055, 0.17516994, -484920.47, -253904.89, 0.0, 9.995896, 10.000311 
2.2047497e+3, 2.8642854e+2, -892018.5, -415071.13, -3584.1423, -0.02054375, 0.13318585, -415044.2, -282026.94, 0.0, 9.9944935, 10.000811 
2.2046904e+3, 2.9642904e+2, -946250.06, -345773.0, 14085.951, -0.02904984, 0.11419401, -345442.75, -310427.78, 0.0, 9.9932575, 10.00121 
2.2046308e+3, 3.0643353e+2, -794068.44, 44245.652, -16085.66, -0.032904364, 0.31496617, 44554.19, 44554.19, 0.0, 9.992708, 10.003821 
2.20457e+3, 3.1643513e+2, -1017367.06, -263028.63, -12185.0625, -0.114589095, 0.14755498, -262831.84, -262831.84, 0.0, 9.992051, 10.002018 
2.215642e+3, 1.3652064e+2, -1025720.3, -1753429.8, 250865.98, 0.030656863, 0.18545485, -947620.3, 654496.6, 0.38531408, 10.009077, 9.994936 
2.215588e+3, 1.4651766e+2, -654011.94, -1433900.8, -43200.906, 0.03746408, 0.34639078, -651626.2, 852521.06, 0.24852438, 10.009786, 9.996026 
2.215528e+3, 1.5651093e+2, -720141.56, -1486874.5, -13156.909, 0.003976074, 0.088507816, -719915.9, 686294.5, 0.12921332, 10.007463, 9.995951 
2.2154698e+3, 1.6650712e+2, -617313.94, -1311147.9, 35051.258, -0.0023506011, 0.08173047, -615547.7, 692698.7, 0.049717244, 10.006581, 9.996911 
2.2154117e+3, 1.7650506e+2, -513032.78, -1247151.9, 33198.293, -0.003722134, 0.20212568, -511534.56, 698731.25, 0.011832464, 10.0065365, 9.996699 
2.215352e+3, 1.8650162e+2, -559324.2, -1239642.0, -38441.254, -0.00088486396, 0.2222778, -557158.94, 555141.94, 0.0009904028, 10.005564, 9.996548 
2.215292e+3, 1.9649766e+2, -675450.9, -1236097.0, -44405.367, 0.006443802, 0.1864293, -671955.56, 342386.66, 0.0000034152456, 10.004049, 9.996629 
2.2152317e+3, 2.0649472e+2, -622484.2, -989105.8, -49138.86, 0.0056205536, 0.16707253, -616012.25, 300358.4, 0.0, 10.003005, 9.998155 
2.2151715e+3, 2.1649255e+2, -643006.06, -956032.9, -49161.836, -0.00017037602, 0.15097992, -635466.6, 182923.25, 0.0, 10.002223, 9.998086 
2.2151107e+3, 2.2649093e+2, -660765.25, -836793.9, -76517.64, 0.006448925, 0.16671778, -632154.25, 88251.19, 0.0, 10.001097, 9.998775 
2.2150496e+3, 2.3648983e+2, -758471.0, -838244.56, -74356.875, 0.020651544, 0.19452114, -713978.25, -91561.29, 0.0, 9.999774, 9.998729 
2.2149885e+3, 2.4648869e+2, -716989.56, -674341.7, -66636.43, 0.010899816, 0.18502529, -625700.5, -101272.06, 0.0, 9.998985, 9.999561 
2.2149272e+3, 2.5648776e+2, -696495.8, -623700.1, -63284.73, -0.0157283, 0.15147257, -587092.75, -160655.2, 0.0, 9.998494, 9.999474 
2.2148663e+3, 2.664877e+2, -712607.0, -506142.28, -79324.28, -0.002027752, 0.18641132, -479185.3, -150746.7, 0.0, 9.997391, 10.000138 
2.2148055e+3, 2.7648836e+2, -830345.25, -511125.06, -87301.234, 0.041792974, 0.2554127, -488809.66, -258376.92, 0.0, 9.995906, 10.000147 
2.2147441e+3, 2.864885e+2, -851986.2, -331155.22, -53253.848, -0.013365064, 0.20843185, -325765.9, -193334.17, 0.0, 9.994487, 10.001392 
2.2146821e+3, 2.9648855e+2, -913683.3, -276181.47, -19722.582, -0.15023963, 0.08757198, -275571.9, -241140.67, 0.0, 9.993245, 10.001697 
2.214624e+3, 3.06493e+2, -851013.06, -82003.05, -29885.457, 0.029308772, 0.3041994, -80843.38, -80843.38, 0.0, 9.992734, 10.002946 
2.2145623e+3, 3.1649446e+2, -947479.94, -137665.4, -69889.24, -0.095840104, 0.21104735, -131678.03, -131678.03, 0.0, 9.992129, 10.002845 
2.2256511e+3, 1.3657966e+2, -839973.06, -1532633.8, 225534.5, -0.06073766, 0.20695737, -773011.06, 828528.2, 0.3995154, 10.010938, 9.995617 
2.2255974e+3, 1.465766e+2, -811205.2, -1461079.5, 22888.734, 0.13014528, 0.30690122, -810400.0, 693168.8, 0.25868675, 10.008182, 9.9965515 
2.2255357e+3, 1.5657079e+2, -584666.7, -1366460.5, 39088.49, -0.015700344, 0.08894719, -582717.2, 822906.5, 0.13527755, 10.008373, 9.996379 
2.225476e+3, 1.6656715e+2, -515800.38, -1284657.8, 72280.97, -0.04002559, 0.09786082, -509064.2, 798594.56, 0.05257063, 10.007445, 9.996683 
2.2254175e+3, 1.7656495e+2, -607731.06, -1307420.1, 40531.363, -0.005560393, 0.22559418, -605391.0, 604289.8, 0.0127675, 10.005947, 9.996568 
2.2253574e+3, 1.8656157e+2, -617376.6, -1230415.3, -26343.832, 0.011169071, 0.2393345, -616246.6, 495467.94, 0.0011397621, 10.00501, 9.996876 
2.2252962e+3, 1.9655778e+2, -608641.44, -1172139.9, 2522.6516, 0.020066988, 0.18787189, -608630.1, 405122.53, 0.0000068724494, 10.004377, 9.996908 
2.2252348e+3, 2.0655477e+2, -579913.0, -971932.7, 4829.507, 0.015231047, 0.15378256, -579853.5, 335927.78, 0.0, 10.003317, 9.99812 
2.2251734e+3, 2.165524e+2, -674027.94, -972040.1, -8289.66, 0.0029068107, 0.12422442, -673797.5, 144005.11, 0.0, 10.002021, 9.998071 
2.2251116e+3, 2.2655094e+2, -659815.2, -831481.4, -38756.16, 0.007669948, 0.152976, -651471.0, 68346.414, 0.0, 10.001088, 9.998812 
2.2250496e+3, 2.3655015e+2, -672716.1, -791217.94, -37155.758, 0.023322271, 0.2102641, -662029.75, -40203.34, 0.0, 10.000344, 9.998775 
2.2249873e+3, 2.4654907e+2, -681931.6, -648601.4, -28636.775, 0.00670019, 0.20149444, -632133.56, -108296.27, 0.0, 9.999194, 9.999634 
2.224925e+3, 2.5654802e+2, -789933.6, -658369.6, -33086.38, -0.030898964, 0.14904526, -650517.56, -224670.19, 0.0, 9.997816, 9.999558 
2.224863e+3, 2.6654792e+2, -799192.2, -540392.7, -42043.227, -0.012392797, 0.17442654, -533733.9, -205885.05, 0.0, 9.996771, 10.000198 
2.2248013e+3, 2.7654868e+2, -825888.06, -498696.9, -28361.611, 0.049419545, 0.24623016, -496256.7, -266413.97, 0.0, 9.995897, 10.000235 
2.2247386e+3, 2.8654927e+2, -785082.8, -271834.8, -1412.3992, -0.008402945, 0.2287641, -271830.94, -139993.75, 0.0, 9.994835, 10.00163 
2.2246753e+3, 2.9654977e+2, -859021.5, -243363.39, 7801.683, -0.17039749, 0.13453197, -243264.55, -209433.03, 0.0, 9.993596, 10.00175 
2.2246164e+3, 3.0655304e+2, -936159.2, -157036.44, 12666.987, 0.037328206, 0.25296348, -156830.56, -156830.56, 0.0, 9.992303, 10.002634 
2.2245532e+3, 3.1655398e+2, -1020822.5, -65863.055, -16740.557, -0.14832427, 0.12010548, -65569.68, -65569.68, 0.0, 9.991181, 10.003787 
2.2356607e+3, 1.3663949e+2, -747506.6, -1286586.1, 83156.58, -0.20228778, 0.22596793, -734970.7, 865982.94, 0.41620496, 10.010845, 9.99857 
2.2356068e+3, 1.4663567e+2, -821198.25, -1448124.4, 31819.05, 0.25181776, 0.12248673, -819587.44, 683399.7, 0.27019277, 10.008101, 9.996719 
2.2355434e+3, 1.5663305e+2, -584303.0, -1357655.8, 39396.746, -0.050322074, 0.207868, -582301.25, 822713.06, 0.14198929, 10.008391, 9.996446 
2.235483e+3, 1.6662918e+2, -553717.5, -1370822.3, 21772.957, -0.08694986, 0.22469966, -553137.7, 753915.75, 0.055702895, 10.007482, 9.996069 
2.2354236e+3, 1.7662486e+2, -629800.3, -1361955.8, -5815.149, 0.014040141, 0.20110776, -629754.1, 579342.94, 0.013804246, 10.005983, 9.996179 
2.2353625e+3, 1.8662158e+2, -558593.25, -1115425.5, -46585.2, 0.041482776, 0.19581631, -554722.75, 556405.4, 0.0013167729, 10.005036, 9.997654 
2.2353005e+3, 1.9661906e+2, -563242.9, -1080678.8, -22988.227, 0.030668385, 0.19492763, -562223.56, 450927.13, 0.000012513058, 10.004384, 9.997535 
2.2352381e+3, 2.0661634e+2, -593882.5, -1001809.44, -43461.906, 0.015802534, 0.17582276, -589303.3, 325872.9, 0.0, 10.003316, 9.997918 
2.235175e+3, 2.1661377e+2, -685267.5, -996451.25, -51541.094, -0.0025835459, 0.14279205, -676952.94, 140248.31, 0.0, 10.002021, 9.997907 
2.2351123e+3, 2.2661205e+2, -658230.4, -829511.4, -64875.445, 0.0013244312, 0.15201738, -636432.0, 82787.03, 0.0, 10.001089, 9.998827 
2.2350496e+3, 2.36611e+2, -670771.75, -789295.06, -67396.8, 0.018595185, 0.18151186, -640287.8, -19057.25, 0.0, 10.000348, 9.998788 
2.2349863e+3, 2.4661022e+2, -683083.75, -652889.5, -81713.93, 0.0083484715, 0.20634697, -584889.75, -61651.074, 0.0, 9.999197, 9.999606 
2.2349228e+3, 2.566098e+2, -785252.1, -650195.7, -83098.74, -0.021102916, 0.2198481, -610647.0, -185403.86, 0.0, 9.997817, 9.999617 
2.2348596e+3, 2.666094e+2, -771911.7, -483941.22, -76017.15, -0.019355236, 0.18780597, -465106.44, -137859.69, 0.0, 9.996767, 10.000591 
2.2347966e+3, 2.766093e+2, -800535.94, -449274.47, -61444.594, 0.010610772, 0.1362981, -438836.4, -209589.3, 0.0, 9.995906, 10.000572 
2.2347334e+3, 2.8661066e+2, -791503.5, -291883.66, -48260.047, -0.0067808647, 0.18889424, -287264.75, -156030.17, 0.0, 9.994857, 10.001485 
2.2346695e+3, 2.966128e+2, -884202.06, -306084.56, -42073.53, -0.09242439, 0.26983148, -303038.66, -269823.34, 0.0, 9.993634, 10.001305 
2.234608e+3, 3.066134e+2, -926548.75, -135591.8, -38937.375, -0.017611217, 0.15006997, -133679.61, -133679.61, 0.0, 9.992295, 10.002787 
2.2345445e+3, 3.166165e+2, -982365.5, 20636.13, -103210.16, -0.11256545, 0.17427416, 31146.453, 31146.453, 0.0, 9.9911375, 10.004411 
2.2456716e+3, 1.3670298e+2, -778937.25, -1363448.8, 24193.662, -0.17361726, 0.20646124, -777937.5, 822392.75, 0.4347449, 10.011289, 9.9975395 
2.2456138e+3, 1.4669856e+2, -960067.44, -1560064.6, 171082.48, 0.22507614, 0.109517366, -914713.5, 587657.6, 0.28273544, 10.00705, 9.996422 
2.245552e+3, 1.5669592e+2, -557064.75, -1369263.8, 154075.7, -0.04161423, 0.22482271, -528818.6, 875579.5, 0.14923075, 10.008815, 9.996147 
2.2454907e+3, 1.6669172e+2, -445356.25, -1346563.0, 74755.1, -0.07599001, 0.2402238, -439197.4, 867243.2, 0.059074905, 10.008439, 9.995773 
2.2454298e+3, 1.7668687e+2, -510889.6, -1330189.6, 71219.58, 0.010206947, 0.1944124, -504744.75, 703744.9, 0.014929863, 10.006939, 9.9959345 
2.2453676e+3, 1.8668345e+2, -465327.88, -1070417.9, 22847.8, 0.035991486, 0.18560976, -464466.38, 646055.9, 0.0015179233, 10.005685, 9.997649 
2.2453047e+3, 1.9668098e+2, -536776.4, -1065821.5, -10174.204, 0.030092897, 0.19377871, -536580.8, 475963.28, 0.00002036711, 10.004562, 9.997548 
2.2452413e+3, 2.0667848e+2, -583739.6, -985153.44, -48388.434, 0.01815808, 0.18868576, -577989.06, 336579.0, 0.0, 10.003341, 9.998017 
2.245177e+3, 2.1667615e+2, -670068.4, -975597.2, -34878.652, 0.0026004908, 0.17188013, -666137.25, 150453.9, 0.0, 10.002072, 9.998022 
2.2451133e+3, 2.2667447e+2, -666558.44, -811338.25, -19655.096, -0.0012096339, 0.17220888, -663937.56, 54670.414, 0.0, 10.000941, 9.999021 
2.2450493e+3, 2.3667337e+2, -727127.7, -797285.56, -10684.666, 0.0035520296, 0.17878613, -725536.5, -104917.266, 0.0, 9.999886, 9.998953 
2.2449851e+3, 2.4667266e+2, -717497.44, -668611.75, -25476.162, -0.0001898404, 0.20234925, -657749.0, -135121.94, 0.0, 9.998964, 9.999606 
2.2449206e+3, 2.5667235e+2, -742300.6, -623034.25, -26823.44, -0.01185451, 0.22853115, -617279.25, -192648.31, 0.0, 9.998091, 9.999668 
2.2448562e+3, 2.666721e+2, -738664.25, -434617.2, -24817.72, -0.01371961, 0.19504398, -432604.75, -105971.99, 0.0, 9.9968605, 10.00088 
2.244792e+3, 2.7667215e+2, -851477.3, -446702.8, -17441.771, 0.0020601714, 0.12859803, -445952.63, -217321.39, 0.0, 9.99545, 10.000804 
2.2447278e+3, 2.8667358e+2, -858143.56, -334076.72, -5778.5005, -0.00070755644, 0.1890965, -334013.0, -203395.14, 0.0, 9.9944515, 10.001385 
2.2446634e+3, 2.966759e+2, -898960.2, -323260.28, -3626.8516, -0.054032717, 0.3013148, -323237.44, -290640.13, 0.0, 9.993587, 10.0012045 
2.2445996e+3, 3.0667597e+2, -924586.44, -117105.58, 20072.162, -0.05476985, 0.1279226, -116606.94, -116606.94, 0.0, 9.992242, 10.002935 
2.2445358e+3, 3.166806e+2, -1031169.56, -20387.137, -67582.8, -0.04426591, 0.2801758, -15888.447, -15888.447, 0.0, 9.990873, 10.004258 
2.2556841e+3, 1.3676958e+2, -1013179.75, -1856733.8, -272449.53, -0.036123067, 0.17049661, -932836.6, 666838.9, 0.45464858, 10.010819, 9.993453 
2.2556192e+3, 1.4676459e+2, -974882.2, -1646264.8, 222766.16, 0.07250765, 0.22830538, -907692.06, 594035.06, 0.29607227, 10.007369, 9.99572 
2.2555614e+3, 1.5675937e+2, -594144.4, -1456516.6, 191503.05, 0.0016645453, 0.1561285, -553530.9, 850245.0, 0.15686902, 10.008874, 9.995529 
2.2554995e+3, 1.6675481e+2, -455881.75, -1357768.8, 19736.7, -0.018765556, 0.16584677, -455450.03, 850370.4, 0.062599696, 10.008413, 9.995709 
2.2554363e+3, 1.7675073e+2, -525223.3, -1357558.5, 18253.33, -0.016923066, 0.20495383, -524823.2, 683038.1, 0.016095206, 10.006928, 9.995754 
2.2553726e+3, 1.8674688e+2, -514841.78, -1174068.0, -17749.11, -0.0034196256, 0.20447715, -514364.25, 595535.3, 0.0017264653, 10.005684, 9.996941 
2.2553088e+3, 1.9674346e+2, -572946.9, -1142930.9, -49865.125, 0.016632989, 0.18386611, -568617.3, 443316.25, 0.000028974042, 10.004565, 9.997021 
2.2552444e+3, 2.0674108e+2, -558615.1, -935061.9, -92884.64, 0.020634815, 0.1929079, -536944.25, 377012.88, 0.0, 10.003345, 9.998363 
2.255179e+3, 2.1673945e+2, -645492.75, -925207.25, -77870.46, 0.014780118, 0.21038981, -625275.5, 190697.83, 0.0, 10.002069, 9.998372 
2.255114e+3, 2.2673811e+2, -642354.0, -761692.1, -57774.676, -0.0025890712, 0.2116753, -618967.0, 99018.555, 0.0, 10.000939, 9.999365 
2.2550489e+3, 2.3673718e+2, -705826.06, -755332.75, -48365.0, -0.024271842, 0.20093958, -676248.0, -56254.277, 0.0, 9.99989, 9.999241 
2.254984e+3, 2.4673624e+2, -716489.4, -668466.7, -58532.11, -0.02043952, 0.18885408, -629212.3, -107208.72, 0.0, 9.998968, 9.999608 
2.2549187e+3, 2.567355e+2, -738831.44, -620189.44, -63578.813, -0.0075513017, 0.17291856, -592555.06, -168542.98, 0.0, 9.998105, 9.999683 
2.2548531e+3, 2.6673594e+2, -726559.3, -412433.3, -80777.03, 0.002215396, 0.19644853, -392878.88, -66870.97, 0.0, 9.996867, 10.001033 
2.2547874e+3, 2.7673712e+2, -846660.2, -436582.88, -67338.74, 0.020433336, 0.23277552, -425808.28, -197812.84, 0.0, 9.995443, 10.00088 
2.2547221e+3, 2.8673795e+2, -865395.7, -350344.9, -39847.44, 0.006938745, 0.23358126, -347280.3, -217292.14, 0.0, 9.994451, 10.001277 
2.2546566e+3, 2.9673892e+2, -878125.8, -286785.7, -46006.066, -0.062285867, 0.21913342, -283227.8, -251247.64, 0.0, 9.993609, 10.001448 
2.2545916e+3, 3.0674085e+2, -901777.56, -71491.33, -35741.43, -0.073694, 0.19019786, -69955.6, -69955.6, 0.0, 9.992247, 10.003247 
2.2545266e+3, 3.1674397e+2, -1074242.0, -110156.78, -48566.348, -0.056061428, 0.20634669, -107716.41, -107716.41, 0.0, 9.990869, 10.003646 
2.2656924e+3, 1.3683428e+2, -1408420.0, -1982114.3, -217720.38, 0.03984463, 0.18744598, -1335151.3, 263889.53, 0.47554916, 10.005254, 9.995134 
2.2656287e+3, 1.468295e+2, -488830.3, -1411409.4, 186402.78, 0.022653136, 0.24315529, -452591.9, 1048498.56, 0.30997917, 10.012656, 9.994911 
2.26557e+3, 1.5682332e+2, -511886.56, -1471183.8, 158643.53, -0.026096327, 0.15226845, -486331.7, 916817.8, 0.16472599, 10.009912, 9.994909 
2.2655079e+3, 1.6681868e+2, -467719.22, -1322259.4, -17449.277, -0.016262975, 0.16026737, -467363.06, 837831.3, 0.06612383, 10.008183, 9.996061 
2.2654434e+3, 1.7681502e+2, -501992.97, -1315810.6, 5777.4604, 0.015845329, 0.20706193, -501951.94, 705278.4, 0.01720627, 10.006973, 9.996016 
2.2653784e+3, 1.8681115e+2, -493787.38, -1170644.4, 15976.672, 0.005428288, 0.19898403, -493410.47, 615858.5, 0.0019114998, 10.005866, 9.996873 
2.265313e+3, 1.9680747e+2, -537639.56, -1126823.8, 21899.19, -0.022283446, 0.16392462, -536826.7, 474479.13, 0.00003544898, 10.004819, 9.997006 
2.2652473e+3, 2.0680533e+2, -521337.63, -892352.25, -20702.793, -0.004747188, 0.18451877, -520185.97, 393141.63, 0.0, 10.003499, 9.998578 
2.2651811e+3, 2.1680412e+2, -635588.25, -899710.75, -13360.005, 0.03357561, 0.22690122, -634914.2, 180425.42, 0.0, 10.002055, 9.99855 
2.2651148e+3, 2.2680289e+2, -632679.56, -757714.4, 388.46475, 0.013383635, 0.23053344, -632678.4, 84673.07, 0.0, 10.001015, 9.999352 
2.2650486e+3, 2.3680183e+2, -662446.4, -728466.56, -18834.164, -0.03314475, 0.2110251, -657451.3, -38090.402, 0.0, 10.000168, 9.9992895 
2.2649825e+3, 2.4680099e+2, -732382.25, -640520.5, -32841.31, -0.023286402, 0.19090123, -629987.25, -108617.94, 0.0, 9.998711, 9.999921 
2.2649163e+3, 2.568005e+2, -886979.44, -662251.44, -12476.066, 0.010609082, 0.16758327, -661560.94, -238185.98, 0.0, 9.996968, 9.999939 
2.2648494e+3, 2.668011e+2, -815711.3, -453763.4, -14361.417, 0.0071058124, 0.19871229, -453194.47, -127825.21, 0.0, 9.996255, 10.00104 
2.2647828e+3, 2.7680242e+2, -767218.5, -396369.3, -16231.262, 0.00026982362, 0.24981545, -395660.28, -168304.48, 0.0, 9.995987, 10.000891 
2.2647166e+3, 2.8680316e+2, -818331.44, -318614.34, 6945.5376, 0.0041867965, 0.23846437, -318517.84, -189168.42, 0.0, 9.994741, 10.001352 
2.2646499e+3, 2.9680398e+2, -940726.7, -289716.8, 9822.974, -0.033625405, 0.20371218, -289568.63, -258226.2, 0.0, 9.993069, 10.001684 
2.2645836e+3, 3.0680647e+2, -948443.94, -64392.176, 8168.019, -0.059213176, 0.2021328, -64316.715, -64316.715, 0.0, 9.991808, 10.003502 
2.2645171e+3, 3.1680927e+2, -1096394.3, -114789.445, 30444.938, -0.0470648, 0.18099251, -113846.086, -113846.086, 0.0, 9.990703, 10.003689 
2.2756965e+3, 1.3689688e+2, -1247039.4, -1363226.0, 256436.92, -0.064560555, 0.1581473, -1042197.8, 556229.5, 0.4968649, 10.004316, 10.001255 
2.2756414e+3, 1.4689372e+2, -552603.3, -1514804.1, 115111.76, 0.04354946, 0.1772663, -539023.7, 961434.56, 0.3240258, 10.012666, 9.99397 
2.2755788e+3, 1.5688778e+2, -556095.06, -1563399.1, 85783.625, -0.11642868, 0.20224811, -548841.8, 853676.9, 0.17246106, 10.009926, 9.99425 
2.2755152e+3, 1.6688329e+2, -425008.44, -1229693.8, -54196.3, -0.062189035, 0.21116117, -421374.66, 883188.06, 0.069400005, 10.008192, 9.996733 
2.275451e+3, 1.768797e+2, -456254.56, -1224268.0, -34051.223, 0.09608035, 0.1997738, -454747.8, 751848.8, 0.018139841, 10.006995, 9.996636 
2.2753845e+3, 1.8687615e+2, -461438.03, -1105505.3, -20461.443, 0.052780133, 0.17118871, -460788.66, 647842.44, 0.0020407238, 10.005871, 9.997321 
2.2753169e+3, 1.968729e+2, -514425.34, -1073789.9, -17496.02, -0.08742664, 0.13533533, -513878.63, 496784.1, 0.000037711765, 10.004792, 9.997386 
2.27525e+3, 2.0687105e+2, -517268.2, -881127.4, -73768.25, -0.05676125, 0.16544782, -502881.34, 409800.1, 0.0, 10.003482, 9.998667 
2.275183e+3, 2.1687007e+2, -634928.3, -900113.06, -60712.086, 0.0555723, 0.22162646, -621689.6, 193002.06, 0.0, 10.002056, 9.998549 
2.275116e+3, 2.2686864e+2, -659337.7, -813940.75, -29162.13, 0.043336548, 0.2296264, -654019.9, 62686.914, 0.0, 10.001014, 9.998969 
2.2750486e+3, 2.3686723e+2, -676121.75, -757577.25, -55665.414, -0.027672589, 0.20931502, -647875.7, -29153.715, 0.0, 10.000166, 9.999093 
2.274981e+3, 2.4686685e+2, -689933.5, -553450.0, -100633.95, -0.0115274405, 0.20805457, -500101.75, 20623.547, 0.0, 9.99871, 10.000522 
2.274913e+3, 2.5686723e+2, -854154.2, -594988.44, -68133.664, 0.039707102, 0.21270768, -578168.0, -155447.36, 0.0, 9.996966, 10.000404 
2.2748454e+3, 2.6686746e+2, -826932.8, -479318.1, -24112.486, -0.00090525986, 0.20133002, -477653.5, -152935.77, 0.0, 9.996259, 10.000865 
2.2747779e+3, 2.768679e+2, -767043.75, -405106.28, -37364.125, -0.0669385, 0.17700335, -401289.3, -174575.81, 0.0, 9.99602, 10.000818 
2.2747107e+3, 2.8686908e+2, -796897.56, -279174.53, -60156.23, -0.014933272, 0.19733988, -272276.66, -143573.83, 0.0, 9.994757, 10.001618 
2.2746435e+3, 2.9687098e+2, -931189.2, -264472.47, -48520.234, 0.029942103, 0.24414247, -260959.94, -230274.52, 0.0, 9.993039, 10.001875 
2.2745757e+3, 3.068731e+2, -944322.3, -55019.17, -34573.68, -0.0009109637, 0.19524913, -53677.066, -53677.066, 0.0, 9.991797, 10.003574 
2.274508e+3, 3.1687653e+2, -1063891.5, -71591.516, -58666.47, -0.022350866, 0.21714267, -68135.09, -68135.09, 0.0, 9.990785, 10.003958 
2.2856538e+3, 1.4695981e+2, -433542.88, -1441611.0, 97660.12, -0.03293794, 0.15031008, -424168.88, 1075640.8, 0.33731073, 10.014112, 9.99393 
2.2855899e+3, 1.56954e+2, -476783.8, -1518175.3, 123620.34, -0.042431973, 0.19724283, -462310.38, 939558.2, 0.17944098, 10.010673, 9.994208 
2.2855239e+3, 1.6694944e+2, -344164.03, -1189282.6, 39705.22, -0.015107979, 0.20296213, -342302.72, 961611.06, 0.072100215, 10.008815, 9.99673 
2.2854576e+3, 1.7694566e+2, -348447.3, -1160615.1, 17661.92, 0.040305965, 0.17470634, -348063.4, 857886.6, 0.018793557, 10.007711, 9.996731 
2.2853899e+3, 1.8694255e+2, -404651.2, -1023706.7, 8564.2295, 0.022782642, 0.15968314, -404532.72, 703447.25, 0.0021018374, 10.006033, 9.997802 
2.2853218e+3, 1.9694006e+2, -586475.1, -1064289.8, 15391.959, -0.036230344, 0.15176722, -585979.8, 424024.0, 0.00003644299, 10.004113, 9.997774 
2.2852534e+3, 2.0693825e+2, -580008.5, -912474.44, -27990.56, -0.021919677, 0.17373589, -577668.44, 334353.66, 0.0, 10.003062, 9.99865 
2.2851849e+3, 2.1693699e+2, -580762.3, -873054.2, -26425.025, 0.031709198, 0.20528027, -578392.56, 235642.8, 0.0, 10.00243, 9.998552 
2.2851165e+3, 2.2693557e+2, -656153.3, -800882.56, 16506.336, 0.026668746, 0.20851478, -654294.6, 61756.004, 0.0, 10.000991, 9.999067 
2.2850484e+3, 2.3693427e+2, -812606.0, -810770.9, 25586.563, -0.0066302153, 0.19344431, -786085.44, -168020.86, 0.0, 9.999181, 9.999199 
2.2849792e+3, 2.4693413e+2, -727759.3, -555923.6, -20493.973, -0.0030235185, 0.2043532, -553513.25, -33447.535, 0.0, 9.998388, 10.000657 
2.2849101e+3, 2.5693476e+2, -687000.5, -498237.84, -22392.006, 0.015322405, 0.22331153, -495617.97, -73559.54, 0.0, 9.99805, 10.000544 
2.2848415e+3, 2.6693496e+2, -744611.75, -428865.3, 27130.443, -0.019170867, 0.19747698, -426551.1, -102495.37, 0.0, 9.996783, 10.000957 
2.2847731e+3, 2.7693522e+2, -893283.44, -452608.4, 29261.691, -0.063382834, 0.14772883, -450673.84, -224620.86, 0.0, 9.995101, 10.000932 
2.284705e+3, 2.8693664e+2, -889555.9, -302953.66, -2986.1494, -0.0079530515, 0.17975694, -302938.44, -174898.63, 0.0, 9.994038, 10.001799 
2.2846365e+3, 2.9693887e+2, -907613.6, -245372.34, -2767.8892, 0.04022891, 0.24251077, -245360.78, -215341.4, 0.0, 9.993175, 10.001938 
2.2845672e+3, 3.069409e+2, -974498.44, -77155.07, -4280.254, -0.0053460696, 0.19295134, -77134.66, -77134.66, 0.0, 9.991632, 10.003498 
2.2844984e+3, 3.1694424e+2, -1129107.6, -64365.695, -8201.85, -0.015925488, 0.19776033, -64302.52, -64302.52, 0.0, 9.990182, 10.004292 
2.2956662e+3, 1.4702743e+2, -433102.7, -1385803.4, 13339.953, -0.19850011, 0.15474263, -432915.9, 1066231.6, 0.34824803, 10.013973, 9.994596 
2.2956023e+3, 1.5702173e+2, -448001.5, -1448412.3, 31750.25, 0.16040465, 0.14734425, -446994.84, 954207.44, 0.18477169, 10.010754, 9.994635 
2.2955337e+3, 1.670169e+2, -377168.2, -1265309.1, 5436.583, 0.09887424, 0.14607283, -377134.9, 926115.3, 0.07392452, 10.00886, 9.996149 
2.2954631e+3, 1.7701277e+2, -380032.44, -1215446.9, -23177.271, -0.13519578, 0.13707854, -379389.9, 825902.25, 0.019139351, 10.00766, 9.996377 
2.2953948e+3, 1.8701024e+2, -375930.1, -955651.0, -59922.195, -0.0730499, 0.16452345, -369801.1, 737515.9, 0.0021096296, 10.005991, 9.998294 
2.2953272e+3, 1.9700873e+2, -559376.5, -1010285.1, -44117.723, 0.11588983, 0.20619823, -555100.5, 454230.56, 0.000033882705, 10.004117, 9.998146 
2.2952573e+3, 2.0700674e+2, -588625.44, -933394.7, -47934.445, 0.086242944, 0.2044191, -582085.06, 329266.16, 0.0, 10.00307, 9.998505 
2.2951862e+3, 2.1700478e+2, -582717.94, -875462.6, -54691.34, -0.0399254, 0.17760064, -572834.06, 240537.67, 0.0, 10.002418, 9.998546 
2.2951166e+3, 2.2700353e+2, -620055.94, -724827.7, -50774.51, -0.035752226, 0.16799006, -599487.56, 115896.46, 0.0, 10.000981, 9.999598 
2.2950476e+3, 2.3700286e+2, -786169.1, -758153.56, -31310.77, 0.026902258, 0.16299045, -737860.0, -120469.95, 0.0, 9.999185, 9.999561 
2.2949776e+3, 2.4700272e+2, -750664.3, -606928.2, -32808.12, -0.0009811033, 0.17976785, -599793.8, -80402.05, 0.0, 9.998398, 10.000305 
2.2949073e+3, 2.57003e+2, -697365.5, -526212.0, -45041.69, -0.070947915, 0.1998766, -515082.34, -93693.08, 0.0, 9.998072, 10.000344 
2.2948377e+3, 2.6700348e+2, -717380.2, -376591.5, -39514.87, -0.050561603, 0.18593659, -372069.7, -48685.582, 0.0, 9.996796, 10.001312 
2.2947688e+3, 2.770043e+2, -873925.44, -411026.16, -27947.088, 0.017395195, 0.15977885, -409344.97, -183969.97, 0.0, 9.99509, 10.001226 
2.2946993e+3, 2.870059e+2, -888316.2, -297864.06, -34792.207, 0.024733996, 0.19112816, -295821.0, -168460.81, 0.0, 9.994021, 10.001844 
2.2946286e+3, 2.9700777e+2, -914985.44, -264008.63, -44819.49, -0.024978453, 0.21729383, -260937.31, -231594.31, 0.0, 9.993183, 10.001809 
2.2945577e+3, 3.0700934e+2, -993816.1, -120420.86, -72642.9, -0.07730042, 0.14889227, -114420.164, -114420.164, 0.0, 9.991638, 10.003202 
2.2944887e+3, 3.170135e+2, -1092831.5, 12561.635, 44161.875, 0.035075564, 0.24895942, 14323.15, 14323.15, 0.0, 9.990179, 10.004818 
2.305681e+3, 1.470972e+2, -464351.3, -1397983.4, 56073.637, -0.07844097, 0.15030621, -460995.63, 1037468.25, 0.3546462, 10.013765, 9.994568 
2.305613e+3, 1.5709133e+2, -251269.47, -1344181.6, 46125.03, 0.10500918, 0.13334496, -249326.28, 1151193.0, 0.18757571, 10.01246, 9.994611 
2.3055425e+3, 1.6708656e+2, -242104.98, -1199436.9, 34338.137, 0.054280046, 0.13900219, -240874.9, 1061692.0, 0.07470625, 10.009873, 9.996147 
2.3054704e+3, 1.770826e+2, -505634.1, -1274074.1, 48431.508, -0.1000418, 0.1485974, -502593.72, 702014.0, 0.01920851, 10.006773, 9.996398 
2.3054004e+3, 1.8708001e+2, -475023.75, -998324.8, 33797.47, -0.051540203, 0.17008004, -472849.97, 633783.2, 0.0020858154, 10.005293, 9.998332 
2.3053311e+3, 1.9707835e+2, -487604.6, -969459.25, 18134.447, 0.08898972, 0.19484311, -486923.1, 521725.63, 0.00003127355, 10.00459, 9.998196 
2.30526e+3, 2.0707643e+2, -549162.8, -906864.7, 20594.383, 0.073151305, 0.19668044, -547981.0, 362687.5, 0.0, 10.003315, 9.998566 
2.3051885e+3, 2.1707463e+2, -666319.1, -902107.75, 24779.69, -0.015334537, 0.18201713, -663743.06, 148944.84, 0.0, 10.001792, 9.998659 
2.3051174e+3, 2.270736e+2, -636345.75, -699261.25, 15741.579, -0.025511373, 0.17301567, -632627.0, 82070.42, 0.0, 10.000731, 9.999889 
2.3050466e+3, 2.3707315e+2, -670612.1, -678229.3, 21423.37, 0.0039051583, 0.16445625, -652661.44, -35961.504, 0.0, 9.99988, 9.999773 
2.3049755e+3, 2.4707288e+2, -733514.56, -611169.75, 40072.184, -0.010203083, 0.16822378, -599213.2, -80510.27, 0.0, 9.998574, 10.000188 
2.3049048e+3, 2.5707287e+2, -848044.5, -605931.94, 40287.465, -0.048128195, 0.17231809, -599404.1, -178700.22, 0.0, 9.997073, 10.000276 
2.304834e+3, 2.6707348e+2, -815998.5, -409721.78, 27305.727, -0.03423722, 0.16997446, -407894.8, -85197.26, 0.0, 9.996061, 10.001436 
2.3047636e+3, 2.7707464e+2, -842388.2, -381348.56, 23050.668, 0.016711855, 0.16608416, -380198.97, -155513.78, 0.0, 9.995249, 10.00135 
2.3046929e+3, 2.8707623e+2, -852093.6, -268762.13, 22464.166, 0.01086915, 0.1890072, -267898.3, -141228.22, 0.0, 9.994225, 10.001944 
2.3046213e+3, 2.9707804e+2, -927842.9, -265657.63, 8636.208, -0.056810997, 0.19864717, -265545.0, -236891.5, 0.0, 9.993078, 10.001846 
2.3045494e+3, 3.070794e+2, -986615.9, -158892.1, -24781.64, -0.05606691, 0.13405822, -158150.81, -158150.81, 0.0, 9.991862, 10.002832 
2.3044795e+3, 3.170831e+2, -1076730.8, 19308.707, 95280.664, 0.107712545, 0.22482312, 27529.957, 27529.957, 0.0, 9.990305, 10.0048 
2.3156975e+3, 1.4716876e+2, -489836.3, -1454065.5, 23389.66, 0.21950738, 0.1410099, -489269.28, 1008492.94, 0.35466924, 10.013777, 9.993968 
2.3156226e+3, 1.5716259e+2, -292605.38, -1401195.0, -1619.721, -0.16449888, 0.14998434, -292603.0, 1107218.8, 0.18731919, 10.012293, 9.994215 
2.3155503e+3, 1.671581e+2, -226958.77, -1146052.3, -71013.88, -0.11653546, 0.17319356, -221504.25, 1080362.1, 0.07440059, 10.009762, 9.996599 
2.315479e+3, 1.7715472e+2, -479241.53, -1229812.9, -44589.535, 0.110377975, 0.1983793, -476601.88, 727298.6, 0.019037476, 10.006815, 9.996685 
2.3154065e+3, 1.8715157e+2, -495432.5, -1052080.3, 11726.089, 0.06067982, 0.17348722, -495185.6, 610745.9, 0.0020427885, 10.005336, 9.997945 
2.3153335e+3, 1.971488e+2, -507988.5, -1008895.75, -10197.124, -0.102458075, 0.12591416, -507781.0, 500177.03, 0.000028768478, 10.004571, 9.997937 
2.315262e+3, 2.0714721e+2, -535270.5, -874640.2, -34137.34, -0.047287766, 0.15725055, -531870.7, 378104.5, 0.0, 10.003295, 9.998799 
2.3151912e+3, 2.171464e+2, -652758.3, -873725.2, -24221.723, 0.097454295, 0.21618387, -650134.4, 161851.39, 0.0, 10.001785, 9.99886 
2.3151186e+3, 2.2714558e+2, -633198.0, -694041.94, -13738.436, 0.04836273, 0.22057122, -630239.75, 83752.84, 0.0, 10.000731, 9.999928 
2.3150454e+3, 2.3714502e+2, -666353.56, -670948.94, -14362.982, -0.079724364, 0.19601467, -654105.6, -38110.11, 0.0, 9.99988, 9.9998255 
2.3149739e+3, 2.471445e+2, -726326.8, -598071.4, -18211.16, -0.030153586, 0.16842557, -595535.7, -77535.44, 0.0, 9.998576, 10.000279 
2.3149028e+3, 2.5714424e+2, -845000.0, -601197.75, -11678.324, 0.08654949, 0.139005, -600639.6, -180636.39, 0.0, 9.997074, 10.00031 
2.3148306e+3, 2.6714492e+2, -826154.2, -431221.06, -4043.9539, 0.027224217, 0.15079227, -431179.66, -109183.12, 0.0, 9.9960575, 10.001293 
2.3147579e+3, 2.7714622e+2, -844977.94, -390210.97, -9607.168, -0.08605128, 0.17080411, -390008.13, -166024.4, 0.0, 9.995258, 10.001288 
2.3146863e+3, 2.8714758e+2, -839584.0, -246118.7, -21107.766, -0.054496024, 0.16781706, -245368.92, -119398.61, 0.0, 9.994234, 10.002098 
2.3146145e+3, 2.9714945e+2, -910202.0, -233497.97, -34484.164, -0.029997764, 0.16727626, -231745.22, -203792.48, 0.0, 9.993091, 10.002065 
2.314542e+3, 3.0715165e+2, -1010288.0, -215412.95, -70204.46, 0.038396902, 0.18910748, -209260.03, -209260.03, 0.0, 9.991885, 10.002439 
2.3144692e+3, 3.1715384e+2, -1103080.1, -29296.664, -53920.563, 0.0709667, 0.18988988, -26595.809, -26595.809, 0.0, 9.990283, 10.004474 
2.3257117e+3, 1.4724137e+2, -338319.13, -1354438.0, -23309.465, 0.22203077, 0.16008727, -337784.7, 1159266.3, 0.34803873, 10.015066, 9.994388 
2.3256336e+3, 1.5723556e+2, -533854.75, -1501224.3, -1810.1206, -0.1661536, 0.16566713, -533851.4, 865256.2, 0.18388627, 10.010033, 9.994613 
2.3255591e+3, 1.6723126e+2, -409660.28, -1205524.1, -4376.7495, -0.11053071, 0.17799507, -409636.22, 891513.9, 0.072983444, 10.008266, 9.996872 
2.3254864e+3, 1.7722805e+2, -296758.56, -1121146.3, 11871.228, 0.12841602, 0.19466788, -296587.63, 906594.4, 0.01862999, 10.008011, 9.996861 
2.325412e+3, 1.8722484e+2, -365801.4, -1011832.8, 74172.63, 0.064269915, 0.17452285, -357394.84, 747818.56, 0.0019841103, 10.006332, 9.997738 
2.3253372e+3, 1.9722193e+2, -592529.4, -1064933.0, 65789.336, -0.12780108, 0.13477877, -583538.3, 423703.63, 0.000026630198, 10.004065, 9.997792 
2.3252644e+3, 2.0722032e+2, -610616.94, -905430.8, 48264.992, -0.068989076, 0.16776815, -602916.44, 306343.06, 0.0, 10.00276, 9.998841 
2.3251927e+3, 2.1721953e+2, -633041.9, -857621.94, 44237.33, 0.09773378, 0.22792633, -624642.25, 186627.3, 0.0, 10.001898, 9.998914 
2.3251191e+3, 2.2721867e+2, -620868.94, -683988.9, 56146.42, 0.053714078, 0.22505371, -588020.44, 125256.03, 0.0, 10.000805, 9.999959 
2.3250449e+3, 2.3721802e+2, -704675.0, -686743.94, 53275.164, -0.07755455, 0.18996741, -641685.2, -26405.27, 0.0, 9.999613, 9.999842 
2.3249722e+3, 2.4721748e+2, -718816.4, -598644.1, 38386.33, -0.023074161, 0.16523904, -587429.06, -70144.2, 0.0, 9.998652, 10.000236 
2.3249002e+3, 2.572173e+2, -745918.9, -555822.25, 35159.86, 0.105256684, 0.14481053, -549527.6, -130239.75, 0.0, 9.997771, 10.000282 
2.3248267e+3, 2.67218e+2, -758501.06, -396487.5, 51109.906, 0.032197513, 0.16280313, -389410.03, -68129.19, 0.0, 9.996519, 10.001307 
2.3247525e+3, 2.7721924e+2, -870629.44, -401962.2, 52243.08, -0.105907135, 0.18383516, -396209.2, -172941.17, 0.0, 9.995086, 10.001287 
2.32468e+3, 2.8722045e+2, -922720.25, -288777.6, 28867.834, -0.04718366, 0.1671365, -287465.75, -162209.36, 0.0, 9.993682, 10.002068 
2.3246074e+3, 2.9722226e+2, -1015281.2, -272834.5, 3021.3303, 0.02457093, 0.1647661, -272822.22, -245582.88, 0.0, 9.9923315, 10.002156 
2.324533e+3, 3.072248e+2, -1041645.1, -199474.72, -1567.728, -0.020022964, 0.20020145, -199471.81, -199471.81, 0.0, 9.991544, 10.002708 
2.3244585e+3, 3.1722692e+2, -988450.44, 25771.063, -1513.6575, -0.031754777, 0.17946756, 25773.32, 25773.32, 0.0, 9.991081, 10.004461 
2.3357241e+3, 1.4731494e+2, -281507.8, -1249024.6, -142572.72, -0.011742091, 0.20078208, -260935.8, 1235395.1, 0.33597508, 10.014863, 9.995552 
2.3356453e+3, 1.5731001e+2, -466493.72, -1365337.3, -119920.34, 0.041090235, 0.17811, -450769.47, 947609.5, 0.17756104, 10.010066, 9.995583 
2.3355684e+3, 1.6730581e+2, -397565.47, -1191667.8, -5498.5283, 0.02491207, 0.15804951, -397527.4, 902892.56, 0.07044085, 10.00829, 9.9969635 
2.3354927e+3, 1.7730242e+2, -302337.25, -1118919.4, -7701.947, -0.01965597, 0.14786936, -302264.63, 900188.7, 0.017950192, 10.007938, 9.996916 
2.3354173e+3, 1.8729968e+2, -377527.34, -1026178.06, -8614.707, -0.021841493, 0.17627756, -377412.97, 727067.75, 0.00190202, 10.006283, 9.997666 
2.3353423e+3, 1.9729745e+2, -596541.2, -1077063.8, -4818.7017, -0.008799241, 0.21078211, -596492.9, 410010.66, 0.000025236222, 10.004075, 9.997707 
2.3352675e+3, 2.0729548e+2, -617930.25, -927146.8, 19038.291, -0.0087631345, 0.2202369, -616762.44, 291761.7, 0.0, 10.002783, 9.998685 
2.3351933e+3, 2.1729389e+2, -640131.56, -874765.6, 12975.532, -0.01216848, 0.21700665, -639416.2, 171124.75, 0.0, 10.001903, 9.998796 
2.3351191e+3, 2.2729275e+2, -619890.94, -683792.0, 12560.513, -0.0047090044, 0.18922266, -617510.7, 95039.55, 0.0, 10.000807, 9.999962 
2.3350452e+3, 2.3729202e+2, -706930.94, -693612.5, 11626.977, 0.006400575, 0.1476262, -686872.8, -72318.61, 0.0, 9.999616, 9.999796 
2.334971e+3, 2.4729171e+2, -731350.9, -627483.9, 4735.6167, 0.005383424, 0.16016011, -627268.44, -110710.7, 0.0, 9.998659, 10.000037 
2.3348968e+3, 2.5729185e+2, -751179.8, -571172.25, -2531.9202, -0.0031574513, 0.19194385, -571136.6, -152578.08, 0.0, 9.997785, 10.000174 
2.3348223e+3, 2.6729256e+2, -746279.8, -374334.75, -4780.5566, -0.02115645, 0.20607257, -374273.3, -53722.047, 0.0, 9.996528, 10.001457 
2.334748e+3, 2.7729374e+2, -866708.56, -397122.56, -2748.3733, -0.032958243, 0.20157355, -397106.5, -174567.5, 0.0, 9.995093, 10.001321 
2.3346743e+3, 2.8729483e+2, -943090.75, -330877.13, -25084.963, 0.03494833, 0.19208331, -329851.0, -205322.42, 0.0, 9.993674, 10.001785 
2.3346001e+3, 2.9729658e+2, -1022870.56, -285359.38, -41382.457, 0.087266095, 0.2068923, -283044.63, -256531.64, 0.0, 9.992311, 10.002084 
2.334522e+3, 3.0729857e+2, -972506.0, -52416.496, -26367.197, -0.23820056, 0.13239223, -51661.504, -51661.504, 0.0, 9.991523, 10.003732 
2.3344502e+3, 3.1730226e+2, -1003281.25, -36209.867, -447.48175, 0.0360473, 0.17333168, -36209.66, -36209.66, 0.0, 9.991186, 10.004 
2.3458284e+3, 1.3739502e+2, -1133911.0, -1313054.4, -397812.25, 0.04954938, 0.21045578, -815711.1, 777837.4, 0.4918857, 10.005857, 10.001284 
2.345739e+3, 1.4739233e+2, -513937.63, -1373274.5, -53118.3, 0.15849818, 0.22088414, -510666.66, 984906.06, 0.32000244, 10.01225, 9.995488 
2.3456556e+3, 1.5738718e+2, -391036.34, -1335146.8, -57474.152, 0.051404707, 0.18533483, -387550.4, 1010073.3, 0.16893852, 10.010624, 9.995556 
2.3455764e+3, 1.6738285e+2, -360518.44, -1193663.0, 86151.03, 0.0029519512, 0.16564733, -351703.28, 947962.5, 0.066858694, 10.008632, 9.996778 
2.3454995e+3, 1.7737931e+2, -521472.63, -1243027.3, 69504.41, -0.028976748, 0.16100314, -514838.56, 686861.56, 0.016955141, 10.006484, 9.996749 
2.3454228e+3, 1.8737638e+2, -520227.5, -1108529.5, 59162.875, -0.022239503, 0.18638942, -514336.72, 589392.6, 0.0017754831, 10.005366, 9.997537 
2.3453464e+3, 1.9737394e+2, -515180.72, -1049970.4, 59797.055, 0.0033690261, 0.215941, -508576.13, 497178.13, 0.000023678027, 10.004694, 9.997591 
2.3452705e+3, 2.0737177e+2, -514266.84, -890147.9, 94259.03, -0.005199016, 0.22035308, -491954.16, 415822.25, 0.0, 10.003558, 9.998562 
2.3451948e+3, 2.1736997e+2, -601471.2, -869406.6, 87615.305, -0.02790734, 0.211806, -575364.56, 234430.1, 0.0, 10.0022335, 9.99867 
2.3451196e+3, 2.2736868e+2, -611650.94, -698682.0, 76032.55, -0.008212475, 0.18580317, -567561.94, 144243.86, 0.0, 10.000953, 9.999786 
2.3450446e+3, 2.3736782e+2, -704435.2, -705216.6, 65250.426, 0.030668663, 0.14934546, -639574.3, -25762.568, 0.0, 9.999696, 9.999675 
2.3449692e+3, 2.473675e+2, -744663.56, -629418.06, 75185.79, 0.0018031326, 0.16482292, -592313.4, -76497.95, 0.0, 9.998556, 10.000071 
2.3448935e+3, 2.5736767e+2, -798260.3, -590842.9, 79290.08, -0.05380607, 0.1994871, -564005.0, -146189.34, 0.0, 9.997457, 10.000193 
2.3448184e+3, 2.6736832e+2, -794712.75, -405864.0, 58372.793, -0.036583494, 0.21079288, -397290.28, -77480.945, 0.0, 9.996239, 10.001376 
2.3447432e+3, 2.7736932e+2, -890861.56, -414574.28, 44306.07, 0.01604421, 0.2033848, -410487.8, -188689.3, 0.0, 9.994962, 10.00126 
2.3446679e+3, 2.8737044e+2, -891206.75, -310233.1, 39434.48, 0.05699703, 0.1996989, -307568.63, -183780.36, 0.0, 9.994057, 10.0017395 
2.3445922e+3, 2.9737207e+2, -890932.9, -231702.55, 38763.285, 0.070391394, 0.2139215, -229431.06, -203657.67, 0.0, 9.993265, 10.001988 
2.3445132e+3, 3.0737403e+2, -892069.2, 14150.7295, 10954.275, -0.24716955, 0.13063882, 14283.124, 14283.124, 0.0, 9.991962, 10.003973 
2.3444419e+3, 3.173789e+2, -1163779.6, -132314.14, 39788.355, 0.16322868, 0.26119328, -130781.61, -130781.61, 0.0, 9.99018, 10.0038185 
2.3558298e+3, 1.3747708e+2, -1256106.3, -1777040.6, -24274.98, -0.35781914, 0.1045086, -1254977.5, 337763.53, 0.46296716, 10.0065, 9.995778 
2.3557556e+3, 1.4747272e+2, -568513.4, -1494255.1, -104507.89, 0.6113326, 0.22489466, -556862.0, 937922.7, 0.3013308, 10.011944, 9.9944515 
2.3556644e+3, 1.5746656e+2, -436665.0, -1446711.8, -112874.266, -0.10102433, 0.1894174, -424204.84, 972641.94, 0.15874149, 10.010528, 9.994769 
2.3555833e+3, 1.67462e+2, -384729.7, -1253097.3, 10346.413, -0.14345607, 0.19696672, -384606.4, 914284.9, 0.062485285, 10.008626, 9.996345 
2.3555069e+3, 1.7745832e+2, -539736.25, -1294172.1, 4011.224, 0.07486156, 0.22203939, -539714.94, 661211.4, 0.015665786, 10.006523, 9.996382 
2.3554285e+3, 1.8745466e+2, -530223.9, -1137707.9, 36828.45, 0.043612525, 0.2007684, -527999.3, 574962.8, 0.0015911394, 10.005395, 9.997326 
2.3553498e+3, 1.974513e+2, -528340.5, -1076950.9, 32157.94, -0.08223344, 0.15844557, -526461.94, 478533.53, 0.000019995237, 10.004686, 9.997413 
2.3552732e+3, 2.0744912e+2, -523410.78, -908076.9, 46401.15, -0.050339263, 0.17612484, -517892.72, 389124.7, 0.0, 10.003548, 9.998446 
2.3551975e+3, 2.1744768e+2, -615202.9, -896125.2, 40941.52, 0.041071054, 0.21316828, -609357.7, 199674.61, 0.0, 10.00222, 9.998496 
2.3551208e+3, 2.2744635e+2, -637140.44, -752468.8, 30282.186, 0.035371568, 0.21328588, -629672.7, 81372.06, 0.0, 10.00095, 9.999421 
2.3550437e+3, 2.374453e+2, -719072.56, -737708.9, 20213.115, -0.009056029, 0.19319996, -706133.2, -93079.29, 0.0, 9.999699, 9.999454 
2.354967e+3, 2.4744475e+2, -726610.25, -594792.94, 32829.125, -0.033881053, 0.17855775, -587069.4, -72010.375, 0.0, 9.998562, 10.000308 
2.3548906e+3, 2.5744465e+2, -789095.5, -575266.1, 35787.758, -0.049641564, 0.16511175, -569435.44, -152375.4, 0.0, 9.997464, 10.000299 
2.3548144e+3, 2.674451e+2, -819159.2, -457817.22, 8101.2256, -0.015711678, 0.17498763, -457635.7, -138579.81, 0.0, 9.996238, 10.001022 
2.354738e+3, 2.7744597e+2, -903708.56, -442307.3, -30.064165, 0.035211716, 0.18811636, -442307.3, -221259.83, 0.0, 9.994961, 10.001073 
2.3546614e+3, 2.874472e+2, -873504.94, -277922.4, 10715.104, 0.008244786, 0.18562059, -277729.7, -154693.63, 0.0, 9.99407, 10.001958 
2.3545842e+3, 2.974488e+2, -894378.8, -254018.0, 6096.7124, -0.047523342, 0.17883527, -253959.97, -228939.25, 0.0, 9.993323, 10.001811 
2.3545076e+3, 3.0745134e+2, -939864.0, -96055.19, -52073.79, 0.0062551377, 0.2153035, -92853.72, -92853.72, 0.0, 9.992003, 10.003201 
2.3544301e+3, 3.1745508e+2, -1161551.8, -105844.945, 40601.18, 0.014905843, 0.28272948, -104285.77, -104285.77, 0.0, 9.990095, 10.004037 
2.3658389e+3, 1.3755675e+2, -890568.75, -1600522.5, -49832.703, -0.33882427, 0.09471458, -887087.94, 704872.25, 0.4320513, 10.011182, 9.994748 
2.3657648e+3, 1.4755236e+2, -895761.3, -1699329.1, -145673.38, 0.5736619, 0.226874, -870168.3, 623836.4, 0.2812616, 10.00845, 9.994735 
2.3656733e+3, 1.5754643e+2, -581185.8, -1515958.0, -97024.7, -0.12276834, 0.18890134, -571221.4, 824842.9, 0.14772293, 10.0091915, 9.9949255 
2.3655915e+3, 1.6754174e+2, -407925.72, -1289112.3, 16144.276, -0.14439598, 0.19461028, -407630.03, 890479.75, 0.057669055, 10.008537, 9.996118 
2.3655137e+3, 1.7753783e+2, -433532.0, -1263642.1, 25785.379, 0.09770826, 0.21963666, -432731.8, 767415.44, 0.014185252, 10.007356, 9.996186 
2.365434e+3, 1.8753393e+2, -461195.66, -1122966.4, 79032.28, 0.06076248, 0.19383924, -451888.1, 650297.1, 0.0013628446, 10.005958, 9.997151 
2.3653543e+3, 1.9753031e+2, -569133.25, -1111749.1, 73660.12, -0.08308861, 0.14493454, -559311.7, 444909.2, 0.000014041907, 10.004479, 9.99727 
2.3652764e+3, 2.0752804e+2, -581924.25, -944845.7, 84929.78, -0.05139471, 0.1648294, -563032.6, 343210.97, 0.0, 10.00319, 9.998363 
2.3651995e+3, 2.1752656e+2, -654853.6, -923278.94, 81783.04, 0.04927994, 0.2078035, -631899.2, 176359.48, 0.0, 10.001988, 9.998418 
2.3651214e+3, 2.2752513e+2, -649029.5, -768129.7, 90488.98, 0.03460943, 0.20977786, -600253.9, 110018.32, 0.0, 10.000918, 9.999326 
2.365043e+3, 2.3752399e+2, -696239.44, -734570.9, 99118.125, -0.024449801, 0.19104688, -614451.06, -2168.3618, 0.0, 9.999897, 9.999375 
2.3649654e+3, 2.4752335e+2, -700876.9, -586127.75, 102738.8, -0.0392638, 0.17588717, -525828.6, -11539.874, 0.0, 9.998763, 10.000267 
2.3648882e+3, 2.5752315e+2, -777287.6, -574969.6, 84571.92, -0.035363793, 0.15995839, -544274.3, -127983.8, 0.0, 9.997577, 10.000243 
2.3648106e+3, 2.675235e+2, -781987.06, -452364.25, 63385.586, -0.008816508, 0.16937497, -440595.56, -122307.86, 0.0, 9.996555, 10.000902 
2.3647329e+3, 2.7752426e+2, -821944.0, -412517.13, 70394.24, 0.032384053, 0.18331923, -400752.06, -180471.16, 0.0, 9.995573, 10.000977 
2.364655e+3, 2.8752542e+2, -839687.06, -263852.6, 71190.43, -0.009729051, 0.1832753, -255181.89, -132911.94, 0.0, 9.994321, 10.001928 
2.3645766e+3, 2.9752702e+2, -959663.3, -293518.16, 45551.18, -0.09393143, 0.18052572, -290417.78, -266163.25, 0.0, 9.992921, 10.001728 
2.3645005e+3, 3.075295e+2, -986020.1, -181146.14, 10164.723, 0.14059587, 0.25221157, -181017.8, -181017.8, 0.0, 9.991963, 10.002632 
2.3644193e+3, 3.1753057e+2, -1004523.2, -63980.477, 78967.96, -0.13710132, 0.10563007, -57396.418, -57396.418, 0.0, 9.991323, 10.003729 
2.3758523e+3, 1.3763501e+2, -778318.4, -1416982.6, -219361.98, -0.0775199, 0.15145804, -710232.56, 880962.7, 0.40245205, 10.01102, 9.996877 
2.3757689e+3, 1.4763173e+2, -806085.1, -1520816.3, -112206.9, 0.16777422, 0.23260443, -788883.56, 704343.75, 0.26150006, 10.008541, 9.995909 
2.375683e+3, 1.5762684e+2, -529751.4, -1405946.3, -83844.57, -0.038382348, 0.18402097, -521800.28, 873475.2, 0.13668165, 10.009132, 9.995711 
2.3756008e+3, 1.6762209e+2, -420782.75, -1308833.4, -23597.652, -0.034259215, 0.16277792, -420156.16, 877165.7, 0.05276839, 10.008453, 9.996022 
2.3755203e+3, 1.7761783e+2, -446364.2, -1282267.3, -17124.547, 0.04983923, 0.16440879, -446013.5, 753349.6, 0.012649071, 10.007304, 9.996086 
2.3754394e+3, 1.8761411e+2, -475948.56, -1150539.1, 25821.74, 0.037576325, 0.17135082, -474961.63, 626437.94, 0.0011224833, 10.005937, 9.996975 
2.3753591e+3, 1.9761081e+2, -580128.44, -1135084.0, 24030.598, -0.012609775, 0.17086212, -579089.8, 424342.4, 0.000007888812, 10.004476, 9.997114 
2.3752795e+3, 2.0760836e+2, -585674.9, -955593.1, 41994.945, -0.01737624, 0.18197699, -580967.3, 324489.3, 0.0, 10.003197, 9.998289 
2.3752004e+3, 2.1760648e+2, -656105.6, -927113.6, 41492.855, -0.0042727278, 0.19526355, -649895.2, 157579.88, 0.0, 10.001988, 9.998395 
2.3751216e+3, 2.2760497e+2, -637999.4, -747837.8, 53717.71, -0.008952309, 0.17774352, -616096.0, 93393.09, 0.0, 10.000923, 9.999466 
2.3750427e+3, 2.3760378e+2, -694371.6, -732739.3, 60087.367, -0.019269682, 0.14449939, -650480.06, -38980.766, 0.0, 9.9999, 9.99939 
2.374964e+3, 2.4760322e+2, -723945.9, -636652.4, 56598.992, -0.015948448, 0.15766847, -608825.44, -95319.84, 0.0, 9.998769, 9.99992 
2.3748855e+3, 2.5760314e+2, -792163.44, -609978.3, 40819.48, -0.014102202, 0.1866976, -601250.6, -185742.8, 0.0, 9.997589, 10.0 
2.3748067e+3, 2.6760346e+2, -773024.8, -438202.03, 25533.139, -0.019876877, 0.19538143, -436266.13, -118760.664, 0.0, 9.996568, 10.000998 
2.374728e+3, 2.7760404e+2, -820111.0, -417528.0, 31123.664, -0.0088505, 0.18569937, -415136.06, -195636.42, 0.0, 9.9956045, 10.000931 
2.3746492e+3, 2.8760505e+2, -861823.25, -315457.7, 15057.048, 0.0074241995, 0.1960366, -315043.03, -193552.66, 0.0, 9.994339, 10.001569 
2.3745698e+3, 2.9760674e+2, -960532.44, -294509.3, -7426.509, -0.03895488, 0.23650584, -294426.53, -270952.06, 0.0, 9.99291, 10.00173 
2.3744917e+3, 3.0760825e+2, -1003402.75, -215566.94, -13228.141, 0.08829954, 0.20549266, -215344.9, -215344.9, 0.0, 9.991952, 10.002404 
2.374411e+3, 3.176087e+2, -974926.1, -30589.586, -63624.6, -0.06032964, 0.04393785, -26322.168, -26322.168, 0.0, 9.991419, 10.003925 
2.3859541e+3, 1.277196e+2, -1432757.1, -1759628.4, -96852.43, 0.12292586, 0.2011945, -1406214.9, 282152.97, 0.49938866, 10.004959, 9.997448 
2.3858628e+3, 1.3771649e+2, -916320.6, -1468985.0, -127599.56, 0.014831716, 0.17598759, -888282.8, 702114.9, 0.37699118, 10.008954, 9.9972105 
2.3857762e+3, 1.4771315e+2, -671980.4, -1431685.1, -17980.717, 0.01164729, 0.22364606, -671555.06, 820874.6, 0.24363503, 10.009491, 9.996152 
2.3856921e+3, 1.5770848e+2, -634795.7, -1451027.1, -29030.842, 0.03249056, 0.17606238, -633764.44, 760710.5, 0.1263389, 10.008153, 9.995862 
2.3856089e+3, 1.677038e+2, -586447.9, -1394865.4, 15335.755, 0.029603941, 0.16044173, -586157.06, 710363.9, 0.048080765, 10.007234, 9.996015 
2.3855263e+3, 1.776996e+2, -561607.3, -1340165.0, 24737.328, 0.015754746, 0.17032558, -560822.06, 637740.5, 0.011169945, 10.006507, 9.996069 
2.3854448e+3, 1.8769592e+2, -524571.1, -1175788.0, 67408.445, 0.013116825, 0.1836874, -517666.75, 582932.0, 0.00089859805, 10.005616, 9.996952 
2.3853636e+3, 1.9769262e+2, -556756.3, -1126295.3, 73352.06, 0.014744863, 0.18785217, -547460.8, 455170.2, 0.000003422788, 10.004653, 9.997085 
2.3852827e+3, 2.0768997e+2, -555525.44, -944735.44, 94325.22, -0.0031687764, 0.18642335, -533870.5, 370786.44, 0.0, 10.0034275, 9.998249 
2.3852022e+3, 2.1768786e+2, -642014.0, -925307.3, 96040.26, -0.027325036, 0.182335, -612524.75, 194152.78, 0.0, 10.002113, 9.998343 
2.385122e+3, 2.2768632e+2, -638121.8, -757640.2, 103248.38, -0.02298658, 0.17183624, -578585.6, 130106.445, 0.0, 10.000972, 9.999372 
2.3850425e+3, 2.3768517e+2, -702914.06, -746650.7, 92697.16, -0.0047128457, 0.15401359, -629540.7, -18838.502, 0.0, 9.999889, 9.999296 
2.3849626e+3, 2.4768454e+2, -727936.25, -646941.75, 97236.85, -0.0031614178, 0.16981152, -582106.06, -69396.445, 0.0, 9.998786, 9.999838 
2.3848829e+3, 2.5768435e+2, -784228.06, -611468.3, 100811.125, -0.011715564, 0.19731316, -565091.44, -150378.17, 0.0, 9.997675, 9.999944 
2.384803e+3, 2.6768467e+2, -748947.7, -423361.63, 93113.336, -0.021306897, 0.21105482, -398613.56, -81903.03, 0.0, 9.996729, 10.001018 
2.3847234e+3, 2.7768534e+2, -791579.5, -403200.06, 88677.86, -0.011567167, 0.20902967, -383910.5, -165206.77, 0.0, 9.995805, 10.00093 
2.3846433e+3, 2.876862e+2, -802900.25, -288183.28, 82224.42, 0.0064165303, 0.20905566, -275367.28, -154671.61, 0.0, 9.994757, 10.001551 
2.3845628e+3, 2.9768762e+2, -858296.75, -255923.17, 80692.36, -0.03607126, 0.22903712, -245301.14, -222618.89, 0.0, 9.993668, 10.001626 
2.3844832e+3, 3.0768892e+2, -983445.7, -238110.14, 54786.816, 0.061563328, 0.20257393, -234104.48, -234104.48, 0.0, 9.992234, 10.00211 
2.3844016e+3, 3.1769207e+2, -963731.2, 168910.53, -9486.263, -0.056698065, 0.33436304, 168989.98, 168989.98, 0.0, 9.990674, 10.005649 
2.395958e+3, 1.2780532e+2, -1438661.6, -1878681.3, -19346.299, 0.043727167, 0.26277125, -1437812.6, 249714.73, 0.4753364, 10.005194, 9.996379 
2.3958713e+3, 1.3780044e+2, -949213.6, -1564417.8, -56126.785, 0.0053467937, 0.17416541, -944134.94, 645440.1, 0.3563197, 10.008858, 9.99619 
2.3957855e+3, 1.4779617e+2, -694767.3, -1493058.9, -58400.004, 0.036393184, 0.19650173, -690517.6, 801098.7, 0.22835736, 10.009367, 9.995671 
2.3957004e+3, 1.577912e+2, -651633.25, -1504734.6, -68677.37, 0.08547701, 0.16585943, -646139.94, 747524.2, 0.11710883, 10.008124, 9.995515 
2.395616e+3, 1.6778676e+2, -581339.56, -1391438.8, -8865.801, 0.05329385, 0.18512712, -581242.5, 714466.0, 0.043792136, 10.00723, 9.996044 
2.3955323e+3, 1.7778292e+2, -561318.4, -1339759.5, -1301.4373, -0.010073952, 0.22875103, -561316.25, 636431.5, 0.009816694, 10.0064945, 9.996081 
2.3954497e+3, 1.8777911e+2, -521291.97, -1165499.8, 33766.027, -0.014914111, 0.22471468, -519526.97, 580257.9, 0.00070700876, 10.005594, 9.997037 
2.3953676e+3, 1.9777556e+2, -557620.9, -1121854.0, 36488.56, 0.0011835899, 0.19574001, -555271.0, 446547.8, 0.0000010832953, 10.004621, 9.997134 
2.3952858e+3, 2.0777276e+2, -559469.75, -951588.4, 45945.188, -0.007161904, 0.18050334, -554158.25, 349687.6, 0.0, 10.003415, 9.998211 
2.3952039e+3, 2.1777055e+2, -650809.25, -943893.3, 51291.496, -0.024318418, 0.16961934, -642092.2, 163775.28, 0.0, 10.002109, 9.998221 
2.3951228e+3, 2.2776906e+2, -660597.94, -806611.6, 63803.99, -0.010969744, 0.1916147, -636646.3, 71236.016, 0.0, 10.000976, 9.999037 
2.3950422e+3, 2.3776807e+2, -716452.06, -777496.4, 52203.383, 0.012681122, 0.2198561, -686502.75, -76610.4, 0.0, 9.999895, 9.999084 
2.3949611e+3, 2.477672e+2, -715355.75, -624270.1, 53826.434, -0.0040940573, 0.21225426, -599304.56, -87403.03, 0.0, 9.998793, 9.999993 
2.39488e+3, 2.5776666e+2, -775378.75, -597307.1, 60510.816, -0.034962084, 0.18941067, -578691.0, -164783.27, 0.0, 9.997686, 10.000039 
2.3947996e+3, 2.677671e+2, -752869.6, -435418.6, 57389.5, -0.013272368, 0.21711586, -425362.16, -109458.65, 0.0, 9.996739, 10.000933 
2.3947193e+3, 2.7776816e+2, -784640.9, -395099.66, 51455.793, 0.02873799, 0.26236182, -388417.3, -170524.6, 0.0, 9.995826, 10.000978 
2.3946378e+3, 2.8776884e+2, -777056.1, -240263.9, 41609.72, -0.019426823, 0.21744278, -237057.66, -117171.52, 0.0, 9.994775, 10.001874 
2.3945554e+3, 2.9776937e+2, -872050.8, -293821.38, 40499.105, -0.114731796, 0.122481555, -290998.6, -269117.94, 0.0, 9.993701, 10.001352 
2.3944753e+3, 3.0777204e+2, -1017844.1, -314924.72, -12956.128, 0.08253711, 0.2955399, -314686.0, -314686.0, 0.0, 9.9922495, 10.001579 
2.3943916e+3, 3.1777406e+2, -960357.44, 174174.98, 36950.527, -0.09115793, 0.32066518, 175377.16, 175377.16, 0.0, 9.990679, 10.005684 
2.4059641e+3, 1.2788911e+2, -1183080.9, -1688804.5, -23987.816, 0.0009182064, 0.25062945, -1181945.6, 504759.94, 0.45609766, 10.008418, 9.996131 
2.4058796e+3, 1.3788389e+2, -1043170.6, -1665974.3, -42945.883, 0.0435359, 0.15596204, -1040223.25, 548533.4, 0.33935815, 10.007845, 9.995897 
2.4057937e+3, 1.4787947e+2, -865861.9, -1612746.4, -67603.42, 0.055967838, 0.18164712, -859792.1, 631007.75, 0.21538582, 10.007783, 9.995611 
2.4057078e+3, 1.5787473e+2, -685391.44, -1523097.8, -54655.605, 0.061993886, 0.18149276, -681840.5, 711005.75, 0.10901549, 10.007801, 9.99554 
2.4056228e+3, 1.6787049e+2, -568279.7, -1364232.3, 15449.765, 0.038641762, 0.2072823, -567979.94, 726908.75, 0.03995862, 10.007212, 9.996237 
2.4055383e+3, 1.7786679e+2, -573692.7, -1327843.8, 30029.281, 0.00016453778, 0.24544397, -572498.8, 624427.56, 0.008616145, 10.006328, 9.996241 
2.4054548e+3, 1.8786296e+2, -580271.5, -1182966.3, 60699.645, -0.0054276055, 0.23022458, -574219.0, 524744.6, 0.00055227225, 10.005147, 9.997129 
2.4053715e+3, 1.9785938e+2, -663939.06, -1170264.0, 63673.227, 0.0023858778, 0.1925165, -656054.6, 344943.25, 0.00000023334304, 10.003885, 9.997153 
2.4052885e+3, 2.078566e+2, -631145.25, -1005093.3, 69361.07, -0.0025364992, 0.19023365, -618694.5, 284330.75, 0.0, 10.003012, 9.998035 
2.4052058e+3, 2.1785437e+2, -637310.06, -949991.8, 63268.668, -0.010410283, 0.19640094, -624993.3, 180054.2, 0.0, 10.002262, 9.998103 
2.4051236e+3, 2.2785278e+2, -627932.44, -787698.3, 89756.7, -0.005169999, 0.2136441, -587659.0, 119404.13, 0.0, 10.001193, 9.999059 
2.4050418e+3, 2.378517e+2, -699170.06, -768367.94, 104257.0, 0.005954456, 0.23289742, -623920.9, -14847.019, 0.0, 10.000018, 9.999085 
2.4049596e+3, 2.4785084e+2, -680974.1, -611389.3, 105952.375, -0.009794605, 0.22894539, -534663.06, -23579.922, 0.0, 9.999052, 9.999954 
2.4048777e+3, 2.578503e+2, -714001.4, -570047.6, 95995.234, -0.034229476, 0.20989564, -522042.22, -108952.71, 0.0, 9.998124, 10.000012 
2.4047959e+3, 2.6785058e+2, -734956.94, -423646.06, 90796.04, -0.01672151, 0.2260985, -399100.13, -84013.945, 0.0, 9.996857, 10.000954 
2.4047144e+3, 2.7785155e+2, -833273.9, -415121.34, 90445.0, 0.021416372, 0.2613811, -396396.84, -179320.94, 0.0, 9.995488, 10.0009985 
2.4046318e+3, 2.8785223e+2, -824892.06, -261509.25, 66211.65, -0.029347746, 0.22053114, -253832.33, -134763.31, 0.0, 9.994448, 10.001883 
2.4045484e+3, 2.9785267e+2, -903211.9, -313438.22, 45374.465, -0.12767489, 0.11505936, -309967.72, -288902.8, 0.0, 9.993514, 10.001306 
2.4044675e+3, 3.0785576e+2, -891525.7, -249181.06, 39684.42, 0.07659714, 0.33218026, -246738.63, -246738.63, 0.0, 9.993101, 10.0016165 
2.4043836e+3, 3.1785455e+2, -839870.4, 96049.02, 93744.875, -0.008707755, 0.03183907, 105346.47, 105346.47, 0.0, 9.992102, 10.004456 
2.4159719e+3, 1.2797144e+2, -1159432.3, -1662566.4, -38530.91, -0.025695791, 0.1709965, -1156498.6, 529399.0, 0.4394974, 10.008361, 9.996453 
2.4158877e+3, 1.3796708e+2, -1020067.06, -1634459.6, -49806.996, 0.108289264, 0.13366054, -1016055.56, 571884.06, 0.32466507, 10.007848, 9.996116 
2.4158013e+3, 1.4796314e+2, -841939.8, -1575971.0, -65603.63, 0.06305748, 0.18541658, -836122.6, 653857.06, 0.20403689, 10.007782, 9.995868 
2.4157144e+3, 1.57959e+2, -663860.7, -1480108.4, -57606.95, -0.024399599, 0.21743232, -659815.1, 732207.06, 0.10185191, 10.007767, 9.995854 
2.4156292e+3, 1.6795489e+2, -551695.9, -1323273.9, -14123.538, -0.005859994, 0.22358307, -551437.44, 742625.25, 0.036548294, 10.007158, 9.996546 
2.4155447e+3, 1.779511e+2, -563633.25, -1295394.0, -4626.996, 0.03869612, 0.22361508, -563604.0, 632495.75, 0.0075684967, 10.006267, 9.996495 
2.4154599e+3, 1.879474e+2, -578260.4, -1174009.4, 13365.459, 0.03281374, 0.20633534, -577960.7, 520175.1, 0.00043224206, 10.005119, 9.997208 
2.4153753e+3, 1.97944e+2, -666440.8, -1177147.8, 23202.63, 0.012060781, 0.18170053, -665388.8, 334780.13, 0.00000003487578, 10.003886, 9.997108 
2.4152915e+3, 2.0794135e+2, -652556.56, -1052334.9, 43273.777, 0.008145182, 0.2155149, -647926.0, 254270.14, 0.0, 10.003017, 9.997711 
2.415208e+3, 2.1793923e+2, -647853.75, -970701.0, 34087.566, 0.008165782, 0.2609115, -644293.9, 159924.84, 0.0, 10.002251, 9.99797 
2.4151245e+3, 2.2793743e+2, -603379.6, -738258.75, 46581.36, -0.008466522, 0.23781857, -588856.25, 117379.21, 0.0, 10.001193, 9.999401 
2.415041e+3, 2.3793602e+2, -686725.7, -745202.94, 63405.7, -0.027448235, 0.19339713, -646141.8, -37894.246, 0.0, 10.000023, 9.999246 
2.4149582e+3, 2.4793534e+2, -697770.94, -649393.1, 70545.78, -0.020711683, 0.22009423, -599004.5, -88749.25, 0.0, 9.99906, 9.999692 
2.4148758e+3, 2.579351e+2, -723004.6, -593703.25, 55222.08, -0.0133826835, 0.26164386, -573329.3, -161070.22, 0.0, 9.998138, 9.999846 
2.4147922e+3, 2.6793504e+2, -727103.94, -410237.8, 36101.74, -0.03645895, 0.23678471, -406176.66, -91917.336, 0.0, 9.996861, 10.001047 
2.414709e+3, 2.7793533e+2, -837781.06, -425026.88, 42077.14, -0.047688294, 0.19840176, -420781.1, -204526.39, 0.0, 9.995483, 10.0009365 
2.414626e+3, 2.879364e+2, -850514.0, -313969.63, 28442.566, -0.021392928, 0.2204872, -312466.06, -194220.92, 0.0, 9.994438, 10.00153 
2.4145424e+3, 2.9793766e+2, -884478.8, -278674.7, 15820.786, -0.054597266, 0.22696012, -278261.78, -258027.55, 0.0, 9.993525, 10.001542 
2.4144597e+3, 3.079399e+2, -833504.44, -141826.28, 34251.633, 0.01832981, 0.2864742, -140134.3, -140134.3, 0.0, 9.993152, 10.002333 
2.4143757e+3, 3.179411e+2, -856603.94, 51272.51, -68572.58, 0.021596586, 0.20727359, 56422.637, 56422.637, 0.0, 9.992137, 10.004135 
2.4259804e+3, 1.2805529e+2, -1116986.3, -1645486.4, -12809.618, 0.011548201, 0.13836017, -1116676.0, 568400.0, 0.4239876, 10.008668, 9.996497 
2.4258953e+3, 1.3805166e+2, -978724.56, -1602057.6, -24428.652, 0.107490934, 0.1719609, -977768.7, 609342.75, 0.31112733, 10.008103, 9.996202 
2.4258086e+3, 1.4804776e+2, -831334.06, -1533183.8, -28664.334, 0.05262317, 0.20569956, -830165.3, 658985.6, 0.19369476, 10.007629, 9.996223 
2.4257214e+3, 1.5804368e+2, -713812.94, -1469166.6, -19038.84, -0.031609125, 0.2102657, -713333.4, 677859.2, 0.09537955, 10.007179, 9.996207 
2.4256355e+3, 1.6803987e+2, -651864.1, -1341932.3, 5576.789, -0.0035266452, 0.21391813, -651819.06, 641411.06, 0.03350138, 10.006295, 9.996831 
2.4255502e+3, 1.7803638e+2, -694217.44, -1337033.0, 14727.26, 0.05256426, 0.21822847, -693880.2, 501383.84, 0.006662701, 10.005272, 9.996686 
2.4254645e+3, 1.8803282e+2, -649941.4, -1214531.0, 28068.24, 0.04360386, 0.21353477, -648549.44, 448749.9, 0.00034161544, 10.004658, 9.9971485 
2.4253789e+3, 1.980295e+2, -627356.8, -1154389.6, 27629.924, 0.01725726, 0.20245557, -625912.3, 373420.34, 0.000000003872902, 10.004142, 9.99714 
2.4252942e+3, 2.0802693e+2, -621943.6, -1012092.4, 71183.71, 0.014782046, 0.22807534, -609361.7, 291996.88, 0.0, 10.003123, 9.997933 
2.4252097e+3, 2.1802485e+2, -686352.9, -979013.3, 94712.24, 0.018329423, 0.26197866, -658376.06, 145003.42, 0.0, 10.00195, 9.998054 
2.4251252e+3, 2.2802292e+2, -645149.0, -785585.56, 84186.75, -0.008566986, 0.24091695, -605740.6, 99657.49, 0.0, 10.001031, 9.999151 
2.4250408e+3, 2.380213e+2, -672948.94, -750809.75, 59533.38, -0.0385957, 0.19890332, -640747.06, -33333.87, 0.0, 10.000176, 9.999129 
2.424957e+3, 2.4802065e+2, -702206.0, -632257.6, 78530.07, -0.020609135, 0.22206636, -581265.75, -71845.48, 0.0, 9.998954, 9.999858 
2.4248733e+3, 2.5802058e+2, -788037.94, -611136.6, 94661.17, 0.0054342393, 0.2622981, -570033.2, -158611.05, 0.0, 9.997642, 9.999962 
2.4247888e+3, 2.6802057e+2, -714184.3, -404828.1, 81574.36, -0.03472882, 0.24553227, -384635.7, -71214.43, 0.0, 9.996961, 10.001033 
2.4247043e+3, 2.7802083e+2, -710371.0, -372972.3, 74651.84, -0.07110664, 0.20797856, -357193.0, -141775.98, 0.0, 9.996402, 10.00085 
2.4246204e+3, 2.8802153e+2, -760091.44, -293081.47, 62975.06, -0.018936874, 0.2146012, -284738.47, -167327.34, 0.0, 9.995162, 10.001321 
2.4245362e+3, 2.9802275e+2, -842873.94, -243172.5, 64293.668, -0.015246848, 0.23357664, -236357.06, -216955.89, 0.0, 9.993754, 10.00167 
2.4244519e+3, 3.0802536e+2, -874438.5, -104599.4, 74224.2, -0.019637287, 0.29217887, -97508.375, -97508.375, 0.0, 9.992633, 10.002835 
2.4243669e+3, 3.1802696e+2, -871981.2, 73546.13, -85026.71, -0.021310672, 0.22521731, 81131.32, 81131.32, 0.0, 9.99191, 10.004395 
2.4359892e+3, 1.2814042e+2, -1105013.3, -1658067.0, -25172.152, 0.075914785, 0.15005927, -1103869.9, 580372.44, 0.40863854, 10.0087185, 9.996311 
2.4359027e+3, 1.3813727e+2, -972254.25, -1609046.6, -36130.16, 0.052831188, 0.24579272, -970210.9, 616063.75, 0.2980781, 10.008062, 9.996179 
2.4358155e+3, 1.481331e+2, -805079.2, -1479665.8, -39788.46, 0.027638746, 0.22844398, -802740.5, 685575.3, 0.18396948, 10.007584, 9.996628 
2.4357288e+3, 1.5812878e+2, -691535.7, -1420711.8, -36721.152, 0.019561214, 0.16861203, -689691.1, 700666.94, 0.0894274, 10.007138, 9.996563 
2.4356419e+3, 1.681254e+2, -634898.9, -1307157.4, -31241.945, 0.03072908, 0.18789096, -633450.06, 658941.25, 0.030764313, 10.006279, 9.997082 
2.4355552e+3, 1.7812254e+2, -684169.9, -1320218.8, -16010.339, 0.040350493, 0.23078609, -683767.1, 510652.94, 0.005883708, 10.0052805, 9.9968 
2.4354687e+3, 1.8811911e+2, -663230.75, -1244289.0, 11395.879, 0.029829115, 0.24764778, -663007.3, 433447.88, 0.00027396876, 10.004661, 9.996946 
2.4353828e+3, 1.9811575e+2, -624661.5, -1145039.8, 4858.759, 0.01577982, 0.24885899, -624616.1, 373873.75, 0.0000000002134854, 10.00412, 9.997217 
2.435297e+3, 2.081132e+2, -574406.0, -912548.3, 27517.709, 0.01595953, 0.22798626, -572181.3, 328332.16, 0.0, 10.003114, 9.998625 
2.4352114e+3, 2.1811116e+2, -671235.3, -948139.2, 55351.242, 0.017237186, 0.20312603, -660580.94, 141950.17, 0.0, 10.001946, 9.998271 
2.435126e+3, 2.2810918e+2, -703079.6, -907829.25, 53506.832, -0.0064790873, 0.2249293, -689940.0, 14612.091, 0.0, 10.001034, 9.998313 
2.4350405e+3, 2.3810747e+2, -700910.1, -809843.06, 22697.236, -0.033854637, 0.25246727, -696370.1, -89798.77, 0.0, 10.0001745, 9.998728 
2.4349555e+3, 2.4810666e+2, -661044.2, -548555.94, 25876.83, -0.012658691, 0.23522769, -542888.75, -34309.805, 0.0, 9.998955, 10.000435 
2.4348709e+3, 2.5810647e+2, -761614.06, -558742.94, 53206.555, 0.01749425, 0.20914434, -545635.44, -135055.81, 0.0, 9.997645, 10.000323 
2.4347857e+3, 2.6810712e+2, -722765.7, -426884.78, 61801.023, -0.009602809, 0.25389394, -414495.13, -101922.65, 0.0, 9.996973, 10.000878 
2.4347007e+3, 2.7810806e+2, -712977.44, -389569.47, 43366.008, -0.04254753, 0.2995672, -383855.44, -169292.92, 0.0, 9.996444, 10.000719 
2.4346152e+3, 2.8810757e+2, -763463.94, -309213.97, 6049.6855, -0.029067313, 0.19880328, -309133.4, -192565.5, 0.0, 9.995194, 10.001199 
2.434529e+3, 2.9810762e+2, -845564.2, -252036.73, 14906.318, -0.041145924, 0.112792276, -251662.6, -233094.1, 0.0, 9.993762, 10.001609 
2.4344443e+3, 3.0811232e+2, -859520.94, -65953.88, 27620.951, -0.00054053497, 0.3670318, -64993.668, -64993.668, 0.0, 9.992595, 10.003121 
2.4343581e+3, 3.1811216e+2, -936157.8, -72311.49, -57775.035, -0.038303196, 0.10128526, -68464.56, -68464.56, 0.0, 9.991947, 10.003384 
2.445998e+3, 1.2822697e+2, -1020642.1, -1646156.4, -1675.2532, 0.05620241, 0.15899739, -1020637.6, 662756.75, 0.39298442, 10.009655, 9.995983 
2.44591e+3, 1.3822356e+2, -988833.4, -1641258.6, -4071.6902, 0.036460184, 0.26013657, -988808.0, 596622.2, 0.28517717, 10.007855, 9.99605 
2.4458225e+3, 1.4821944e+2, -841672.75, -1472446.0, 11121.401, 0.026362313, 0.23466182, -841476.75, 645993.8, 0.17464392, 10.007077, 9.996923 
2.4457353e+3, 1.5821534e+2, -739152.7, -1425199.5, 6870.0703, 0.038748298, 0.17196096, -739083.9, 650426.0, 0.08388043, 10.006659, 9.996759 
2.4456477e+3, 1.682121e+2, -656035.5, -1317034.0, -8429.965, 0.043608237, 0.19720626, -655928.06, 635614.44, 0.028287562, 10.006115, 9.99709 
2.4455601e+3, 1.7820928e+2, -644807.06, -1291564.5, -6563.714, 0.038327567, 0.24615881, -644740.44, 548830.75, 0.005212244, 10.005509, 9.996885 
2.445473e+3, 1.8820599e+2, -653590.06, -1212546.8, 39533.46, 0.023054572, 0.26031315, -650807.8, 444796.88, 0.00022311955, 10.004616, 9.997183 
2.4453862e+3, 1.9820283e+2, -683408.6, -1153102.3, 54996.84, 0.008733491, 0.2586962, -677054.94, 320582.22, 0.00000000008671795, 10.003638, 9.99739 
2.4452996e+3, 2.0820029e+2, -620741.8, -935822.06, 41823.87, 0.0061893878, 0.23662627, -615284.6, 284375.88, 0.0, 10.002808, 9.998609 
2.4452129e+3, 2.181982e+2, -661523.6, -939850.75, 23822.234, 0.0076703844, 0.20720707, -659499.4, 142179.45, 0.0, 10.002002, 9.998299 
2.4451265e+3, 2.2819626e+2, -718985.4, -902451.5, 60891.887, 0.0021738936, 0.22689697, -700614.94, 3084.1282, 0.0, 10.0008745, 9.998424 
2.4450405e+3, 2.3819467e+2, -770702.0, -834910.44, 93537.4, -0.0029057038, 0.25649175, -703912.7, -98195.555, 0.0, 9.999667, 9.998796 
2.4449544e+3, 2.4819387e+2, -682052.6, -563406.6, 77931.016, 0.001310851, 0.24341443, -524788.5, -17063.992, 0.0, 9.9988365, 10.000387 
2.4448682e+3, 2.581936e+2, -701587.6, -531859.5, 60397.887, 0.006957633, 0.21789603, -512561.16, -102835.52, 0.0, 9.998071, 10.000301 
2.4447823e+3, 2.6819408e+2, -750625.1, -439841.56, 68825.99, -0.012227507, 0.24823767, -425281.53, -113561.7, 0.0, 9.996785, 10.000877 
2.4446963e+3, 2.7819487e+2, -861962.75, -457167.84, 62168.926, -0.02645376, 0.2778733, -447835.03, -234123.69, 0.0, 9.995412, 10.000748 
2.4446099e+3, 2.8819457e+2, -795781.6, -318213.53, 40212.7, -0.017782992, 0.18920596, -314851.2, -199136.19, 0.0, 9.994949, 10.001252 
2.444523e+3, 2.9819483e+2, -724493.1, -200285.5, 53425.27, -0.039764818, 0.1221844, -194896.02, -177182.6, 0.0, 9.994619, 10.001552 
2.444437e+3, 3.081993e+2, -743457.2, -15080.656, 38816.324, 0.012425118, 0.36237952, -13017.915, -13017.915, 0.0, 9.993416, 10.003073 
2.4443501e+3, 3.1820035e+2, -919405.2, -125894.664, 10962.335, -0.029724209, 0.22002216, -125743.25, -125743.25, 0.0, 9.992341, 10.002818 
2.4560064e+3, 1.283145e+2, -1029901.06, -1683173.3, -44712.78, -0.02634086, 0.15882206, -1026854.94, 655681.1, 0.37687993, 10.0095215, 9.995643 
2.4559174e+3, 1.3831058e+2, -986851.06, -1669115.1, -38350.86, 0.038704697, 0.23772088, -984702.1, 599875.56, 0.27227777, 10.007861, 9.995861 
2.4558294e+3, 1.4830673e+2, -821339.06, -1453163.1, 2053.6829, 0.0337854, 0.23728426, -821332.44, 665283.1, 0.16558887, 10.007112, 9.997067 
2.4557415e+3, 1.5830313e+2, -732746.1, -1421690.0, -6801.045, 0.028507777, 0.21141362, -732679.0, 655971.25, 0.07864676, 10.006662, 9.996784 
2.4556535e+3, 1.682997e+2, -672051.0, -1350172.5, -27671.34, 0.037774064, 0.2313775, -670923.75, 619761.5, 0.026021274, 10.006091, 9.996878 
2.4555652e+3, 1.782965e+2, -647975.06, -1288775.9, -29236.105, 0.042769328, 0.26073486, -646643.94, 546074.3, 0.0046272604, 10.005461, 9.996931 
2.4554773e+3, 1.8829344e+2, -615707.25, -1128952.8, 3966.8745, 0.020310167, 0.25482905, -615676.56, 479071.84, 0.0001840744, 10.004588, 9.997774 
2.4553894e+3, 1.9829065e+2, -671703.56, -1126766.8, 21680.275, -0.007548049, 0.2391427, -670673.0, 326102.5, 0.00000000016280782, 10.003624, 9.997581 
2.4553017e+3, 2.0828813e+2, -667801.56, -1033893.44, 13789.659, -0.014784345, 0.25508195, -667282.9, 231517.77, 0.0, 10.002803, 9.99794 
2.4552144e+3, 2.182859e+2, -673009.9, -961127.8, -7123.754, -0.014283817, 0.27234006, -672833.8, 127989.086, 0.0, 10.001985, 9.998163 
2.4551272e+3, 2.2828414e+2, -649925.75, -760396.3, 16534.172, 0.015372948, 0.24575052, -647504.1, 55335.34, 0.0, 10.0008745, 9.999402 
2.4550402e+3, 2.3828276e+2, -737849.0, -770550.56, 53675.77, 0.050005186, 0.20971474, -698088.9, -93237.15, 0.0, 9.999677, 9.999237 
2.4549529e+3, 2.4828216e+2, -729686.7, -665976.44, 48737.223, 0.019300735, 0.24733916, -639607.3, -132749.17, 0.0, 9.998846, 9.999681 
2.4548654e+3, 2.5828198e+2, -729690.8, -594316.06, 22180.713, -0.032926332, 0.29556686, -590774.5, -181913.81, 0.0, 9.998082, 9.99987 
2.4547783e+3, 2.682814e+2, -741481.06, -420903.28, 10840.751, -0.047831945, 0.22424728, -420537.13, -109672.37, 0.0, 9.996779, 10.001014 
2.4546912e+3, 2.7828103e+2, -852027.25, -431550.6, 22603.4, -0.032688633, 0.12457415, -430339.0, -217472.88, 0.0, 9.995384, 10.00094 
2.454605e+3, 2.8828257e+2, -775983.75, -277598.66, 31788.29, 0.020143658, 0.19336896, -275579.28, -160727.34, 0.0, 9.994945, 10.001537 
2.4545178e+3, 2.9828486e+2, -719894.3, -203847.03, 28479.004, 0.010868094, 0.3081123, -202280.13, -185449.2, 0.0, 9.994669, 10.001507 
2.4544297e+3, 3.0828562e+2, -774894.1, -95045.23, -12184.244, -0.022116425, 0.21900533, -94826.94, -94826.94, 0.0, 9.993471, 10.002501 
2.4543421e+3, 3.1828746e+2, -865485.44, -14980.558, 8896.1875, -0.045203213, 0.1927538, -14887.515, -14887.515, 0.0, 9.9923525, 10.0035715 
2.4660154e+3, 1.2840326e+2, -1078815.6, -1710314.9, -21527.787, 0.00036832926, 0.17243136, -1078082.5, 603583.9, 0.36037648, 10.008707, 9.99584 
2.465925e+3, 1.3839899e+2, -918687.0, -1625797.9, 10781.918, 0.030332817, 0.19998255, -918522.6, 665187.5, 0.2593266, 10.008371, 9.995906 
2.4658361e+3, 1.4839514e+2, -770678.6, -1458387.8, 52573.445, 0.027193947, 0.21973976, -766682.75, 719065.94, 0.15670265, 10.007606, 9.996781 
2.4657477e+3, 1.5839162e+2, -732318.5, -1442076.8, 23786.682, 0.034915917, 0.23041938, -731522.2, 656261.75, 0.07363574, 10.006723, 9.9966135 
2.465659e+3, 1.6838814e+2, -719957.1, -1365468.6, 8917.72, 0.033847515, 0.2477755, -719833.94, 569985.56, 0.02391348, 10.005713, 9.996951 
2.4655698e+3, 1.7838486e+2, -752373.25, -1328378.9, 24447.094, 0.023857752, 0.2629503, -751337.56, 440515.38, 0.0041082273, 10.004701, 9.997021 
2.465481e+3, 1.8838182e+2, -689437.2, -1153463.9, 38145.313, 0.015906781, 0.2513096, -686322.4, 407560.4, 0.00015304639, 10.004041, 9.997866 
2.4653926e+3, 1.9837908e+2, -686554.6, -1121397.9, 24187.422, 0.010359691, 0.23270316, -685213.4, 310695.8, 0.00000000021615258, 10.0034685, 9.997692 
2.4653041e+3, 2.0837677e+2, -688267.75, -1027387.94, 48235.465, -0.004526758, 0.257819, -681540.3, 216392.02, 0.0, 10.002598, 9.998081 
2.4652156e+3, 2.183748e+2, -712744.56, -962891.44, 73083.23, -0.018096676, 0.28714037, -692957.6, 106994.74, 0.0, 10.001647, 9.99831 
2.4651277e+3, 2.2837304e+2, -654440.44, -749251.6, 58633.8, 0.011298794, 0.25187322, -626445.7, 75522.74, 0.0, 10.0007925, 9.999515 
2.4650398e+3, 2.3837161e+2, -693601.4, -741520.8, 41581.594, 0.05267683, 0.20059025, -669570.5, -65589.875, 0.0, 9.999953, 9.999301 
2.4649517e+3, 2.4837102e+2, -713895.7, -665520.06, 64344.188, 0.025949176, 0.24303082, -620967.6, -114980.71, 0.0, 9.998992, 9.999611 
2.4648632e+3, 2.5837085e+2, -749972.9, -614734.94, 76610.63, -0.024029536, 0.30083475, -580170.2, -172180.44, 0.0, 9.997995, 9.999767 
2.4647748e+3, 2.6837e+2, -703481.0, -420691.84, 49396.914, -0.03817162, 0.21792293, -412311.66, -102314.82, 0.0, 9.997123, 10.000847 
2.4646868e+3, 2.7836934e+2, -731247.4, -380853.75, 44987.438, -0.016013877, 0.104926035, -375169.97, -163168.61, 0.0, 9.996246, 10.000872 
2.4645999e+3, 2.883712e+2, -705001.25, -226817.39, 53863.168, 0.038909744, 0.2065269, -220825.27, -106842.016, 0.0, 9.995365, 10.00168 
2.464512e+3, 2.9837388e+2, -748443.25, -207751.52, 26459.791, 0.009486874, 0.34422168, -206459.73, -190501.2, 0.0, 9.994441, 10.001584 
2.4644224e+3, 3.083737e+2, -840514.0, -147713.31, -1813.9613, -0.060009364, 0.16998604, -147708.56, -147708.56, 0.0, 9.993122, 10.002302 
2.4643342e+3, 3.1837624e+2, -880876.75, -13716.445, 68250.5, -0.0004458963, 0.23224309, -8377.608, -8377.608, 0.0, 9.992214, 10.003645 
2.4760245e+3, 1.2849307e+2, -1046337.8, -1653266.5, -28378.03, 0.090416394, 0.19654986, -1045013.8, 635773.25, 0.3435454, 10.00863, 9.996361 
2.4759327e+3, 1.384885e+2, -906056.1, -1611177.6, -2754.407, 0.0053246925, 0.15034603, -906045.3, 676785.25, 0.24627095, 10.008316, 9.996034 
2.4758433e+3, 1.4848445e+2, -803774.2, -1545994.9, 25937.475, 0.0068778363, 0.1862524, -802868.9, 682003.6, 0.147882, 10.007568, 9.99617 
2.4757543e+3, 1.5848076e+2, -753293.0, -1490067.9, -5354.705, 0.05206125, 0.2356031, -753254.1, 633657.6, 0.0687588, 10.006689, 9.996304 
2.475664e+3, 1.6847736e+2, -698571.0, -1324570.9, -25891.1, 0.02904021, 0.2527756, -697502.0, 591443.94, 0.021915408, 10.005715, 9.997233 
2.4755734e+3, 1.7847423e+2, -741726.8, -1315005.5, -5009.881, -0.01788262, 0.25787675, -741683.0, 449293.63, 0.0036375616, 10.004731, 9.997101 
2.4754846e+3, 1.88471e+2, -711979.75, -1204775.9, 20390.473, 0.008935185, 0.24943507, -711137.5, 381871.5, 0.00012740519, 10.004053, 9.997511 
2.4753962e+3, 1.9846804e+2, -686389.9, -1117212.0, 2433.5972, 0.05429179, 0.2370568, -686376.1, 308662.66, 0.00000000023303823, 10.003446, 9.997734 
2.4753067e+3, 2.0846614e+2, -631261.4, -908007.0, 13954.069, 0.031274483, 0.24595864, -630559.56, 266496.72, 0.0, 10.002586, 9.998909 
2.475217e+3, 2.184647e+2, -691707.1, -919132.94, 39993.098, -0.010022287, 0.25575224, -684879.3, 114189.46, 0.0, 10.001639, 9.998617 
2.4751277e+3, 2.2846285e+2, -703601.4, -853457.94, 27866.654, -0.011659868, 0.24762408, -698587.2, 2500.083, 0.0, 10.000796, 9.9988 
2.4750388e+3, 2.3846114e+2, -712881.06, -783406.3, 8683.226, 0.0013811662, 0.23167163, -711827.7, -108723.08, 0.0, 9.999954, 9.999016 
2.4749503e+3, 2.4846037e+2, -674439.44, -586204.3, 25295.49, 0.020940697, 0.22895098, -579467.0, -74355.29, 0.0, 9.998997, 10.000156 
2.4748613e+3, 2.5846007e+2, -734903.3, -587959.75, 40280.08, 0.032501984, 0.2279521, -577642.6, -170528.8, 0.0, 9.998009, 9.9999485 
2.4747722e+3, 2.6845983e+2, -737652.9, -496132.84, 15527.911, 0.019307822, 0.23457928, -495138.6, -186022.31, 0.0, 9.997135, 10.000327 
2.4746831e+3, 2.7845988e+2, -752398.8, -434135.44, 11363.406, 0.024051588, 0.24199389, -433730.22, -222614.34, 0.0, 9.99628, 10.000493 
2.4745947e+3, 2.8846034e+2, -708594.06, -240521.02, 15773.774, 0.02859091, 0.22164014, -239990.05, -126878.875, 0.0, 9.995385, 10.00158 
2.4745052e+3, 2.9846117e+2, -735076.94, -180074.63, -20902.273, -0.07089183, 0.1828863, -179288.52, -164185.39, 0.0, 9.994434, 10.001781 
2.4744149e+3, 3.0846414e+2, -821136.7, -97563.86, -56868.055, -0.077292904, 0.28285027, -93121.67, -93121.67, 0.0, 9.993075, 10.002672 
2.4743263e+3, 3.1846625e+2, -917286.5, -110288.7, 106450.47, 0.034198787, 0.2928889, -96483.08, -96483.08, 0.0, 9.9922695, 10.002974 
2.486033e+3, 1.2858376e+2, -1052206.1, -1653813.5, 1603.6945, 0.121667445, 0.22789247, -1052201.8, 627698.25, 0.32633138, 10.008337, 9.996488 
2.4859402e+3, 1.3857886e+2, -915923.5, -1618681.0, 10234.363, -0.03385513, 0.13916734, -915774.5, 666171.06, 0.23300436, 10.008093, 9.99609 
2.4858499e+3, 1.4857489e+2, -842825.3, -1575542.3, 45819.043, -0.022210728, 0.18434235, -839971.25, 644015.4, 0.13901716, 10.007225, 9.996128 
2.4857605e+3, 1.5857135e+2, -808632.6, -1520237.1, 46021.426, 0.054993156, 0.25527376, -805668.7, 580355.75, 0.06393857, 10.006265, 9.996298 
2.4856697e+3, 1.6856779e+2, -685490.8, -1310810.4, 30891.588, 0.040146492, 0.25581703, -683968.44, 604091.25, 0.019988703, 10.00577, 9.997299 
2.4855784e+3, 1.7856449e+2, -649137.5, -1266155.6, 35928.746, -0.0064912494, 0.23801526, -647052.44, 543039.44, 0.0032023564, 10.005352, 9.997136 
2.4854884e+3, 1.8856141e+2, -687944.0, -1194487.0, 67624.28, 0.010122455, 0.24685465, -679071.5, 413051.44, 0.00010536237, 10.0042305, 9.997494 
2.485399e+3, 1.9855867e+2, -754591.25, -1142858.9, 69240.89, 0.046276383, 0.25761372, -742612.9, 251538.2, 0.00000000017417703, 10.002957, 9.997788 
2.4853086e+3, 2.0855664e+2, -679774.75, -915483.94, 53774.508, 0.032831755, 0.24485469, -668086.3, 228083.03, 0.0, 10.0021925, 9.999043 
2.4852182e+3, 2.1855502e+2, -700158.2, -915382.56, 35828.504, 0.0055492693, 0.2257374, -694350.5, 103832.42, 0.0, 10.001553, 9.998682 
2.4851282e+3, 2.2855331e+2, -720499.44, -868250.4, 47416.457, -0.006034669, 0.23599969, -706591.56, -6391.162, 0.0, 10.000715, 9.998735 
2.485038e+3, 2.3855181e+2, -736546.3, -798818.0, 67903.31, -0.0071703964, 0.24904944, -692980.75, -90764.27, 0.0, 9.999818, 9.998972 
2.4849488e+3, 2.4855088e+2, -683733.8, -592122.06, 60447.504, 0.016829604, 0.2343528, -562085.5, -57860.215, 0.0, 9.998945, 10.000138 
2.4848591e+3, 2.5855035e+2, -724533.3, -581601.3, 40021.176, 0.04194943, 0.21173899, -571158.3, -164928.73, 0.0, 9.99808, 9.999954 
2.4847692e+3, 2.6855034e+2, -695901.2, -472005.44, 44814.082, 0.032720137, 0.24040268, -463368.78, -155139.05, 0.0, 9.997411, 10.000356 
2.4846794e+3, 2.7855068e+2, -693585.06, -411158.0, 72023.82, 0.032498848, 0.2788057, -393851.22, -183624.77, 0.0, 9.996715, 10.000437 
2.4845894e+3, 2.8855067e+2, -723070.44, -269886.06, 67976.836, 0.00079654885, 0.2277327, -259909.31, -147682.64, 0.0, 9.995388, 10.001373 
2.4844985e+3, 2.9855093e+2, -808488.2, -231030.75, 24058.756, -0.11513253, 0.15177056, -230030.11, -215805.61, 0.0, 9.994, 10.001639 
2.4844085e+3, 3.0855468e+2, -722734.94, -47505.836, -40158.914, -0.023768919, 0.33779866, -45125.793, -45125.793, 0.0, 9.993749, 10.0026865 
2.4843183e+3, 3.1855458e+2, -808607.1, -81132.8, 124873.22, -0.017130766, 0.13781738, -60294.81, -60294.81, 0.0, 9.993127, 10.002753 
2.4960405e+3, 1.2867521e+2, -1047012.2, -1666302.4, -3592.0552, 0.106795594, 0.26836365, -1046991.4, 632015.0, 0.3086027, 10.008272, 9.996385 
2.4959473e+3, 1.3867003e+2, -905008.94, -1614713.3, -2396.8909, -0.088276, 0.15895963, -905000.8, 676053.7, 0.21941899, 10.008061, 9.996133 
2.4958561e+3, 1.4866632e+2, -818165.1, -1530383.3, 13774.792, -0.062032145, 0.20727348, -817898.8, 665193.1, 0.13003139, 10.007207, 9.9964485 
2.4957664e+3, 1.5866314e+2, -796597.9, -1496868.3, 19593.21, 0.043504164, 0.28418815, -796050.1, 589074.8, 0.059130978, 10.006245, 9.99647 
2.4956752e+3, 1.6865927e+2, -697791.44, -1332980.9, 19026.291, 0.06222279, 0.25581977, -697222.06, 589941.06, 0.018114228, 10.005736, 9.997167 
2.4955837e+3, 1.7865553e+2, -656945.2, -1272458.4, 11790.744, 0.044760276, 0.20706244, -656719.44, 532480.2, 0.002795767, 10.005301, 9.997121 
2.4954922e+3, 1.886529e+2, -673152.44, -1161218.3, 19592.137, 0.015015079, 0.24552314, -672367.2, 418858.78, 0.000085739426, 10.004212, 9.997733 
2.4954009e+3, 1.9865075e+2, -752395.56, -1142470.9, 31067.098, -0.009933489, 0.29403666, -749936.8, 243311.38, 0.00000000005180779, 10.002969, 9.997788 
2.4953103e+3, 2.086481e+2, -711253.8, -986001.6, 31725.502, 0.004096725, 0.25346968, -707638.0, 187634.94, 0.0, 10.002209, 9.998555 
2.4952197e+3, 2.1864568e+2, -709376.25, -936079.0, 11630.602, 0.024285726, 0.1949729, -708781.1, 88514.26, 0.0, 10.001553, 9.998543 
2.495129e+3, 2.2864436e+2, -684499.75, -795299.6, 15263.616, 0.025241097, 0.21632569, -682435.5, 16872.943, 0.0, 10.000717, 9.999238 
2.4950379e+3, 2.3864354e+2, -727820.06, -784035.7, 34620.0, 0.021629313, 0.25316155, -711334.2, -110016.94, 0.0, 9.9998255, 9.999073 
2.494947e+3, 2.4864246e+2, -724559.75, -679964.94, 25022.004, 0.010245329, 0.26128942, -668747.0, -165418.36, 0.0, 9.998952, 9.999535 
2.4948564e+3, 2.586416e+2, -733950.0, -604883.25, 8727.141, -0.0044724396, 0.25689724, -604295.8, -198958.1, 0.0, 9.99809, 9.999793 
2.4947658e+3, 2.6864138e+2, -651198.9, -383701.56, 19547.016, -0.0037236821, 0.23165858, -382280.72, -74942.56, 0.0, 9.997423, 10.000959 
2.4946752e+3, 2.786416e+2, -670783.8, -370763.38, 35746.152, 0.0047652614, 0.2019957, -366563.2, -157228.94, 0.0, 9.996738, 10.000707 
2.494584e+3, 2.8864223e+2, -746861.75, -319820.7, 10329.694, -0.047855735, 0.22703183, -319570.97, -208241.64, 0.0, 9.995383, 10.001037 
2.494492e+3, 2.9864335e+2, -852393.4, -318785.1, -7754.406, -0.12958944, 0.27473432, -318672.44, -305352.2, 0.0, 9.993979, 10.00105 
2.4944033e+3, 3.0864486e+2, -764282.7, -147844.3, -43312.207, 0.13293566, 0.31309095, -144815.97, -144815.97, 0.0, 9.993803, 10.001974 
2.4943107e+3, 3.1864548e+2, -808178.0, -94101.7, 7954.29, -0.046254937, 0.23458242, -94013.11, -94013.11, 0.0, 9.993181, 10.00264 
2.5060484e+3, 1.2876709e+2, -1060417.3, -1681623.0, 30433.818, 0.11819984, 0.28086647, -1058929.8, 619178.5, 0.29030615, 10.007971, 9.996392 
2.505955e+3, 1.3876252e+2, -907528.56, -1611950.9, 27026.994, -0.064449266, 0.22976038, -906493.1, 673657.9, 0.20549501, 10.007885, 9.996238 
2.5058633e+3, 1.4875859e+2, -817433.5, -1504470.0, 26705.6, -0.04305985, 0.23833527, -816397.0, 665792.1, 0.120919086, 10.007039, 9.996704 
2.505772e+3, 1.5875505e+2, -810451.75, -1485220.5, 34828.79, 0.05208606, 0.2570201, -808658.75, 575565.3, 0.05433367, 10.006041, 9.996645 
2.5056803e+3, 1.6875137e+2, -771844.0, -1365846.6, 51097.01, 0.06169075, 0.24143806, -767480.56, 518779.78, 0.016290119, 10.005201, 9.997194 
2.5055882e+3, 1.7874792e+2, -776253.5, -1318873.3, 49234.91, 0.038602024, 0.21935226, -771822.3, 416471.97, 0.0024153793, 10.004437, 9.997212 
2.5054958e+3, 1.8874536e+2, -703185.75, -1153752.6, 50895.805, 0.0104736695, 0.24899457, -697508.1, 392811.53, 0.00006792726, 10.003919, 9.997922 
2.5054035e+3, 1.9874321e+2, -683061.7, -1105109.1, 59844.457, -0.011207688, 0.2843221, -674740.1, 317601.13, 0.0000000000010010511, 10.003432, 9.99782 
2.5053123e+3, 2.087405e+2, -673297.56, -995174.75, 73036.09, 0.00960063, 0.2550557, -657500.44, 236867.14, 0.0, 10.002594, 9.998304 
2.505221e+3, 2.1873797e+2, -700081.6, -939647.3, 61778.047, 0.038557447, 0.21089377, -685088.9, 111303.3, 0.0, 10.001659, 9.998463 
2.5051293e+3, 2.2873674e+2, -678253.94, -771817.56, 47290.277, 0.030080557, 0.23176174, -658515.75, 39888.54, 0.0, 10.000678, 9.999414 
2.5050372e+3, 2.3873602e+2, -737376.5, -774967.9, 52802.336, 0.015029601, 0.26454505, -700124.3, -99712.87, 0.0, 9.999707, 9.999188 
2.5049457e+3, 2.4873488e+2, -704745.2, -671316.75, 80413.67, 0.0020607233, 0.26364118, -605898.6, -103475.32, 0.0, 9.999099, 9.999519 
2.5048542e+3, 2.5873393e+2, -673912.3, -577480.6, 96744.85, -0.0115927765, 0.25257975, -517602.38, -113169.055, 0.0, 9.998515, 9.999774 
2.5047627e+3, 2.6873377e+2, -651742.75, -388156.38, 70844.76, -0.018975068, 0.23856111, -370321.94, -63888.234, 0.0, 9.997444, 10.0009165 
2.5046715e+3, 2.78734e+2, -737421.8, -404520.75, 37981.95, -0.017285606, 0.21939331, -400242.22, -191812.47, 0.0, 9.996293, 10.000687 
2.5045788e+3, 2.8873459e+2, -717803.75, -307514.0, 19062.701, -0.054959178, 0.24175684, -306630.22, -196205.13, 0.0, 9.995596, 10.001016 
2.5044864e+3, 2.9873565e+2, -722419.0, -282128.66, 37865.344, -0.10953732, 0.29015082, -278895.94, -266479.6, 0.0, 9.994989, 10.000811 
2.5043973e+3, 3.0873638e+2, -702932.0, -177869.53, 46486.76, 0.18787923, 0.29861143, -173785.55, -173785.55, 0.0, 9.994483, 10.001438 
2.5043032e+3, 3.187373e+2, -771401.9, -74166.09, 28852.959, -0.082742944, 0.2897994, -72974.14, -72974.14, 0.0, 9.993431, 10.002653 
2.5160563e+3, 1.2885943e+2, -1039516.6, -1671934.1, 30065.787, 0.13582209, 0.27557698, -1038090.5, 639115.2, 0.2715435, 10.007979, 9.99646 
2.515963e+3, 1.3885605e+2, -900012.94, -1602594.5, 16621.623, 0.011809511, 0.33613467, -899619.94, 679617.2, 0.19133128, 10.007792, 9.9963455 
2.5158703e+3, 1.4885159e+2, -804895.06, -1481296.1, -5869.6724, 0.016042138, 0.2752993, -804844.1, 676435.1, 0.111748114, 10.006987, 9.996891 
2.515778e+3, 1.5884721e+2, -796924.8, -1462080.9, 2869.3047, 0.07148929, 0.19018671, -796912.44, 586408.5, 0.049578577, 10.006034, 9.99681 
2.515685e+3, 1.6884412e+2, -760625.0, -1346961.4, 22945.252, 0.040465478, 0.2184823, -759728.44, 525623.1, 0.014525605, 10.005208, 9.997323 
2.5155917e+3, 1.7884149e+2, -764953.1, -1298080.1, 25848.518, -0.01581245, 0.26606622, -763702.8, 423674.9, 0.0020613256, 10.004442, 9.997356 
2.5154993e+3, 1.8883866e+2, -694997.06, -1136604.4, 34478.285, -0.0016148399, 0.25419143, -692321.44, 397083.84, 0.000051899184, 10.003911, 9.998047 
2.515407e+3, 1.9883603e+2, -684254.2, -1102860.8, 37152.008, 0.031133404, 0.23281498, -680982.44, 310448.22, 0.0, 10.003407, 9.99785 
2.5153148e+3, 2.0883377e+2, -680598.56, -1008454.9, 38988.113, 0.042915095, 0.25180662, -676025.94, 217428.06, 0.0, 10.00258, 9.998222 
2.5152224e+3, 2.1883182e+2, -708055.94, -954989.4, 27803.338, 0.044357058, 0.27341515, -704964.1, 90510.38, 0.0, 10.001648, 9.998366 
2.515129e+3, 2.2883034e+2, -686892.8, -791765.0, 10605.988, 0.0078685125, 0.2819498, -685830.94, 11658.097, 0.0, 10.000681, 9.99928 
2.515036e+3, 2.388292e+2, -726316.8, -755468.2, 22646.07, -0.030946996, 0.28082874, -713961.2, -114461.336, 0.0, 9.999716, 9.999322 
2.514944e+3, 2.4882807e+2, -664247.2, -591048.9, 59714.168, -0.007796677, 0.23874854, -557610.3, -56100.586, 0.0, 9.999109, 10.000069 
2.5148526e+3, 2.5882724e+2, -667772.25, -570085.75, 66465.05, 0.020386148, 0.19647431, -536447.06, -132930.44, 0.0, 9.998531, 9.99982 
2.51476e+3, 2.6882738e+2, -706124.4, -502393.8, 23223.506, -0.013852583, 0.26438692, -499780.06, -194263.33, 0.0, 9.997443, 10.000134 
2.5146666e+3, 2.788279e+2, -763184.9, -456090.75, -254.95778, -0.042662933, 0.34016404, -456090.53, -248576.95, 0.0, 9.996279, 10.000342 
2.5145745e+3, 2.8882772e+2, -692966.44, -260257.14, -3366.1714, -0.01240888, 0.27455252, -260230.95, -150716.2, 0.0, 9.995607, 10.001338 
2.5144815e+3, 2.988278e+2, -698686.25, -248717.25, 18450.373, -0.02950539, 0.19659087, -247961.98, -236449.1, 0.0, 9.995051, 10.001014 
2.5143903e+3, 3.0882913e+2, -705687.44, -194480.63, 28555.86, 0.06421154, 0.26366654, -192890.45, -192890.45, 0.0, 9.994524, 10.001307 
2.5142956e+3, 3.1882912e+2, -758565.0, -42155.44, -26692.838, -0.14354356, 0.16910125, -41162.266, -41162.266, 0.0, 9.993415, 10.002877 
2.5260636e+3, 1.2895301e+2, -968113.6, -1631483.9, 51127.16, 0.10128659, 0.30798528, -964196.3, 712093.25, 0.252514, 10.008404, 9.996623 
2.5259703e+3, 1.3894914e+2, -974110.9, -1637415.9, 43865.91, 0.0535039, 0.30701113, -971222.5, 607102.8, 0.1770853, 10.007004, 9.996489 
2.5258768e+3, 1.4894502e+2, -870593.94, -1506264.4, 25848.934, 0.03800443, 0.26702482, -869544.56, 610819.94, 0.102616616, 10.006378, 9.997007 
2.5257832e+3, 1.5894109e+2, -798414.25, -1449550.4, 29433.537, 0.05407397, 0.21620844, -797086.44, 585315.7, 0.044910874, 10.005946, 9.996935 
2.5256896e+3, 1.6893807e+2, -739805.5, -1320979.4, 48057.68, 0.03265763, 0.24045911, -735858.4, 548573.44, 0.012834284, 10.005283, 9.997462 
2.525596e+3, 1.7893544e+2, -742667.4, -1276956.3, 50331.08, -0.0031957144, 0.2767336, -737967.44, 448490.28, 0.0017350425, 10.004556, 9.997443 
2.5255027e+3, 1.8893248e+2, -730851.06, -1154650.9, 51700.9, 0.008886189, 0.25176293, -724635.06, 363851.28, 0.00003798913, 10.003675, 9.998033 
2.5254098e+3, 1.9892971e+2, -767245.4, -1129950.8, 45240.902, 0.03509499, 0.2169543, -761687.56, 228825.39, 0.0, 10.002788, 9.997959 
2.5253168e+3, 2.0892784e+2, -730975.56, -1001036.4, 64031.344, 0.03620906, 0.2517605, -716562.94, 175969.64, 0.0, 10.002104, 9.998499 
2.5252235e+3, 2.1892634e+2, -724933.3, -947060.1, 74230.695, 0.02844028, 0.29661793, -702410.56, 92138.08, 0.0, 10.00147, 9.998504 
2.5251293e+3, 2.2892477e+2, -672026.8, -794401.8, 63261.637, -0.0044390364, 0.29789877, -645203.25, 51361.094, 0.0, 10.000833, 9.999185 
2.5250354e+3, 2.3892337e+2, -666669.44, -731495.0, 74350.97, -0.035691693, 0.2830891, -617973.3, -19395.658, 0.0, 10.000154, 9.999271 
2.5249428e+3, 2.4892226e+2, -661863.3, -590479.44, 77609.19, -0.008954011, 0.2471869, -540748.3, -40160.813, 0.0, 9.999135, 10.000056 
2.5248507e+3, 2.5892147e+2, -734123.8, -601341.94, 47953.8, 0.02344195, 0.2133507, -585834.6, -183240.73, 0.0, 9.99808, 9.999818 
2.5247568e+3, 2.689216e+2, -703063.25, -502697.0, 43318.41, -0.00992779, 0.27841783, -493732.78, -189138.23, 0.0, 9.997479, 10.000111 
2.5246632e+3, 2.7892205e+2, -673432.6, -416964.25, 70556.64, -0.036460787, 0.35365885, -398835.03, -192242.92, 0.0, 9.99692, 10.0002985 
2.52457e+3, 2.8892177e+2, -631786.56, -238151.34, 54787.645, 0.0049039805, 0.28655457, -230668.06, -122073.945, 0.0, 9.996067, 10.001264 
2.5244766e+3, 2.9892167e+2, -673051.3, -220847.19, 51994.145, -0.005664859, 0.19309396, -214945.94, -204351.98, 0.0, 9.995171, 10.001143 
2.5243837e+3, 3.089232e+2, -690275.56, -147199.4, 85919.79, -0.008221135, 0.2530068, -133930.28, -133930.28, 0.0, 9.994468, 10.001654 
2.5242892e+3, 3.1892517e+2, -735611.06, -13431.401, -40911.23, -0.09597519, 0.3344604, -11121.185, -11121.185, 0.0, 9.993503, 10.003029 
2.536071e+3, 1.2904757e+2, -948955.2, -1611776.1, 11940.054, 0.025219232, 0.3638755, -948740.2, 726622.56, 0.23344934, 10.008311, 9.996832 
2.5359774e+3, 1.3904211e+2, -952996.2, -1614781.6, 11623.099, 0.06780159, 0.18332644, -952792.06, 624621.1, 0.16291824, 10.007019, 9.9966345 
2.5358826e+3, 1.4903893e+2, -861858.56, -1502556.5, 11967.169, 0.030187277, 0.22959776, -861635.1, 617809.5, 0.093620926, 10.00638, 9.997035 
2.5357884e+3, 1.5903635e+2, -798164.94, -1443799.1, 11464.188, 0.0064539323, 0.31166393, -797961.44, 583509.06, 0.040376198, 10.005892, 9.997003 
2.5356942e+3, 1.6903302e+2, -735068.75, -1305976.9, 22981.635, 0.034949146, 0.29519475, -734145.1, 549357.6, 0.01123087, 10.005247, 9.997585 
2.5356007e+3, 1.7902979e+2, -743740.06, -1277232.0, 21938.932, 0.060340017, 0.25923488, -742839.44, 442694.66, 0.0014389114, 10.00454, 9.997452 
2.5355062e+3, 1.8902682e+2, -741578.44, -1178373.3, 19536.795, 0.03477081, 0.24501759, -740706.4, 346856.53, 0.000026579513, 10.003675, 9.997872 
2.535412e+3, 1.9902422e+2, -756532.25, -1109391.5, 18499.668, 0.002423604, 0.23423679, -755565.0, 234023.42, 0.0, 10.002789, 9.998102 
2.5353178e+3, 2.0902263e+2, -689823.9, -917232.75, 41467.605, -0.00664732, 0.2546013, -682498.3, 209105.6, 0.0, 10.002105, 9.999077 
2.535224e+3, 2.1902147e+2, -703517.94, -902683.2, 51418.285, -0.010815279, 0.279396, -691026.75, 102588.74, 0.0, 10.001464, 9.998815 
2.5351298e+3, 2.290199e+2, -677743.75, -808222.0, 39581.547, -0.0076023033, 0.28020033, -666675.3, 28955.732, 0.0, 10.000834, 9.999091 
2.5350353e+3, 2.3901848e+2, -686560.06, -774936.3, 43251.926, -0.0025048924, 0.27443537, -668915.2, -71269.77, 0.0, 10.000156, 9.998975 
2.5349417e+3, 2.4901739e+2, -703648.06, -678778.3, 33968.457, -0.004106465, 0.29271904, -655040.25, -155383.02, 0.0, 9.999136, 9.999453 
2.534848e+3, 2.5901663e+2, -736353.9, -607659.0, 13743.962, -0.010499545, 0.3070905, -606207.56, -204541.73, 0.0, 9.998081, 9.999778 
2.534754e+3, 2.690163e+2, -647069.56, -389764.7, 23339.625, -0.006547551, 0.27685064, -387664.72, -83996.805, 0.0, 9.997487, 10.000887 
2.53466e+3, 2.7901638e+2, -652489.75, -382525.3, 45646.25, 0.0078094937, 0.24748231, -375016.2, -169350.27, 0.0, 9.996952, 10.000523 
2.5345653e+3, 2.890167e+2, -670206.4, -323398.72, 17204.613, -0.014873255, 0.27415812, -322547.3, -214883.55, 0.0, 9.996085, 10.000673 
2.5344706e+3, 2.9901713e+2, -670982.94, -218110.61, 19996.291, -0.07814291, 0.28251725, -217229.39, -207568.83, 0.0, 9.995171, 10.001165 
2.5343782e+3, 3.0901897e+2, -626567.25, -14890.92, 61003.39, 0.03358815, 0.31008095, -8866.299, -8866.299, 0.0, 9.994461, 10.002569 
2.5342828e+3, 3.1902188e+2, -754890.0, -78549.305, -195156.23, -0.057866536, 0.41996437, -26277.42, -26277.42, 0.0, 9.993566, 10.002575 
2.546078e+3, 1.291424e+2, -1002624.3, -1676550.8, 45018.387, -0.025457231, 0.3336156, -999630.4, 674801.44, 0.21456881, 10.007851, 9.996486 
2.545984e+3, 1.3913712e+2, -910577.1, -1609218.5, 22286.473, 0.085307546, 0.20118468, -909866.9, 666616.25, 0.1489714, 10.007332, 9.99652 
2.5458887e+3, 1.4913402e+2, -854446.3, -1481357.8, 25898.684, 0.040248387, 0.24821813, -853378.25, 625135.5, 0.08484179, 10.00631, 9.99721 
2.5457934e+3, 1.5913153e+2, -874236.25, -1465199.0, 36640.36, -0.0042459294, 0.3238962, -871973.2, 508565.25, 0.036012273, 10.00526, 9.997157 
2.5456986e+3, 1.6912828e+2, -800490.0, -1325117.3, 55608.3, 0.029146815, 0.30372113, -794660.5, 487909.63, 0.009727395, 10.004737, 9.997697 
2.5456044e+3, 1.7912512e+2, -765839.6, -1269684.8, 50493.86, 0.06403412, 0.26397732, -760829.06, 423771.88, 0.0011750483, 10.004314, 9.99761 
2.5455093e+3, 1.8912241e+2, -728522.9, -1146927.1, 62382.055, 0.028554885, 0.2559479, -719420.06, 367207.03, 0.000017841303, 10.003664, 9.998091 
2.545414e+3, 1.9912006e+2, -725426.1, -1079513.3, 79469.0, -0.014660949, 0.25381097, -708408.5, 280241.2, 0.0, 10.002946, 9.998228 
2.5453192e+3, 2.091184e+2, -702873.56, -925233.4, 72638.66, -0.014426242, 0.26681432, -681247.75, 209418.2, 0.0, 10.00203, 9.999055 
2.5452247e+3, 2.1911708e+2, -754611.3, -925933.6, 47325.547, -0.0061219735, 0.27941293, -742407.56, 50271.52, 0.0, 10.001115, 9.998819 
2.54513e+3, 2.2911543e+2, -712365.6, -822801.94, 40293.613, -0.0070850113, 0.27132386, -699227.2, -4531.7188, 0.0, 10.000595, 9.999104 
2.5450352e+3, 2.3911399e+2, -688542.44, -769232.4, 48155.676, -0.006193881, 0.26180568, -666064.75, -69354.67, 0.0, 10.000121, 9.999027 
2.5449404e+3, 2.4911322e+2, -670211.5, -651190.6, 74150.51, -0.005194326, 0.3036036, -585943.2, -87224.4, 0.0, 9.999323, 9.999548 
2.5448456e+3, 2.5911278e+2, -682536.75, -577919.06, 100802.21, -0.0074133906, 0.34301192, -516661.63, -115937.24, 0.0, 9.998443, 9.9998045 
2.544751e+3, 2.6911205e+2, -618612.4, -383499.38, 73439.445, -0.0075863274, 0.28295, -362445.3, -59715.246, 0.0, 9.997722, 10.000813 
2.5446564e+3, 2.7911168e+2, -643710.3, -380596.38, 34771.47, 0.005010672, 0.21556507, -376078.78, -171346.3, 0.0, 9.997029, 10.000495 
2.5445613e+3, 2.891124e+2, -641344.94, -306702.25, 28640.344, -0.004608271, 0.2810267, -304268.78, -197542.22, 0.0, 9.996277, 10.000692 
2.5444657e+3, 2.991134e+2, -618980.9, -174781.17, 71205.02, -0.058925677, 0.34291175, -163646.16, -154928.16, 0.0, 9.995453, 10.001325 
2.5443715e+3, 3.091149e+2, -580787.4, 60356.797, 84407.7, -0.024675235, 0.30006647, 71283.01, 71283.01, 0.0, 9.994556, 10.003035 
2.5442758e+3, 3.1911558e+2, -732982.75, -173032.81, -181781.63, -0.0673547, 0.16347462, -119195.65, -119195.65, 0.0, 9.994189, 10.001614 
2.556085e+3, 1.2923764e+2, -1030016.75, -1778832.1, 28632.55, -0.0664272, 0.2549129, -1028923.56, 644572.6, 0.19605373, 10.007814, 9.995794 
2.555991e+3, 1.3923372e+2, -925286.94, -1656655.8, 46.307217, 0.09944294, 0.31956503, -925286.94, 650251.8, 0.13536209, 10.007271, 9.996224 
2.555895e+3, 1.492301e+2, -834078.0, -1449475.0, -11010.76, 0.05976811, 0.30424026, -833881.06, 643692.75, 0.07634623, 10.006296, 9.997456 
2.555798e+3, 1.5922678e+2, -857237.44, -1438252.8, 8926.0205, 0.009545657, 0.2734811, -857100.4, 522504.53, 0.031850502, 10.005274, 9.997338 
2.555703e+3, 1.6922389e+2, -796426.06, -1315287.3, 42482.35, 0.014149442, 0.2791094, -792970.75, 488662.78, 0.008333495, 10.00472, 9.997775 
2.555608e+3, 1.7922133e+2, -754779.7, -1236307.5, 32213.787, 0.01732515, 0.2885819, -752634.1, 431025.13, 0.000944348, 10.004264, 9.997866 
2.5555122e+3, 1.8921907e+2, -697283.5, -1076136.5, 36699.62, -0.00395866, 0.2814362, -693761.1, 391919.16, 0.00001159609, 10.003632, 9.998595 
2.5554165e+3, 1.9921705e+2, -723487.8, -1072846.3, 49455.12, -0.021198967, 0.27301207, -716621.9, 271076.78, 0.0, 10.002929, 9.998285 
2.5553212e+3, 2.0921503e+2, -742958.7, -1010232.3, 37080.074, 0.00800633, 0.28720382, -737909.8, 151809.98, 0.0, 10.002032, 9.998473 
2.5552258e+3, 2.1921319e+2, -774192.5, -969057.4, 21783.762, 0.03593323, 0.29790413, -771787.0, 19952.547, 0.0, 10.00112, 9.998524 
2.55513e+3, 2.2921133e+2, -704539.2, -809207.3, 25220.328, -0.006084589, 0.27211574, -698779.2, -5021.392, 0.0, 10.000601, 9.999197 
2.5550345e+3, 2.3920985e+2, -659702.25, -712639.1, 25174.563, -0.051736437, 0.24335183, -649642.1, -53869.875, 0.0, 10.00013, 9.999415 
2.554939e+3, 2.4920966e+2, -614018.44, -537482.3, 39822.73, -0.011747931, 0.27676925, -520520.9, -22748.205, 0.0, 9.99933, 10.00033 
2.554844e+3, 2.592098e+2, -678579.56, -574275.7, 70318.805, 0.03200637, 0.31653124, -538880.1, -139110.23, 0.0, 9.998456, 9.999826 
2.5547484e+3, 2.6920885e+2, -689254.25, -533423.6, 45649.945, -0.018056544, 0.30020148, -521035.5, -219254.1, 0.0, 9.99773, 9.999783 
2.5546527e+3, 2.7920797e+2, -661376.3, -421093.38, 5326.2017, -0.060242195, 0.2709752, -420975.34, -217183.28, 0.0, 9.99704, 10.000215 
2.5545576e+3, 2.8920886e+2, -588241.75, -200214.0, -1766.0531, 0.046309978, 0.31011817, -200205.95, -94423.28, 0.0, 9.996285, 10.001423 
2.5544623e+3, 2.992104e+2, -598426.1, -136366.88, 41138.305, 0.084906735, 0.3638175, -132732.81, -124966.484, 0.0, 9.995464, 10.001586 
2.5543636e+3, 3.0921045e+2, -608637.1, 1731.0708, 42813.902, -0.2571688, 0.19467953, 4719.5933, 4719.5933, 0.0, 9.994553, 10.002638 
2.5542703e+3, 3.1921235e+2, -761760.8, -248767.11, -30857.832, -0.010635762, 0.22523428, -246917.61, -246917.61, 0.0, 9.994267, 10.001051 
2.5660926e+3, 1.2933344e+2, -1018522.0, -1764514.5, 14018.688, -0.03908916, 0.23534602, -1018258.6, 654298.9, 0.17806058, 10.007715, 9.995944 
2.5659975e+3, 1.393301e+2, -954646.2, -1656288.9, 17938.982, 0.07815298, 0.343979, -954187.8, 620407.0, 0.12219446, 10.00687, 9.99642 
2.5659004e+3, 1.4932652e+2, -834892.75, -1427914.9, 11597.855, 0.04884928, 0.3134877, -834666.0, 641963.2, 0.06819494, 10.006141, 9.9976845 
2.5658032e+3, 1.5932317e+2, -821984.3, -1401091.4, 32283.336, 0.018019175, 0.25827384, -820190.2, 558470.2, 0.027919509, 10.005424, 9.9975195 
2.565707e+3, 1.6932052e+2, -830107.8, -1319527.8, 69454.81, 0.015900377, 0.27620244, -820442.25, 460244.53, 0.0070569324, 10.004434, 9.997881 
2.5656113e+3, 1.7931823e+2, -861452.94, -1269198.3, 62069.43, 0.008944145, 0.3033464, -852213.7, 330496.2, 0.00074609375, 10.003455, 9.998027 
2.565515e+3, 1.893161e+2, -783378.2, -1093001.5, 55743.637, -0.00790101, 0.29015985, -773648.06, 311081.7, 0.000007363407, 10.002941, 9.99881 
2.5654188e+3, 1.9931419e+2, -774777.94, -1084136.1, 50170.09, -0.017680276, 0.27280337, -766845.0, 219902.22, 0.0, 10.002523, 9.998401 
2.5653228e+3, 2.0931222e+2, -743123.56, -1012740.4, 61801.258, 0.008480604, 0.29212412, -729632.6, 159135.3, 0.0, 10.0020485, 9.998445 
2.565227e+3, 2.1931039e+2, -716014.6, -940967.8, 79393.164, 0.033697348, 0.31103757, -690816.75, 99970.71, 0.0, 10.001526, 9.998518 
2.5651303e+3, 2.2930863e+2, -690677.94, -799608.9, 86261.9, -0.005907019, 0.29449573, -643125.75, 49679.367, 0.0, 10.00069, 9.999217 
2.565034e+3, 2.3930721e+2, -699690.0, -724624.8, 77559.86, -0.048687574, 0.27037507, -633601.9, -38782.8, 0.0, 9.999832, 9.999473 
2.564938e+3, 2.4930674e+2, -602153.3, -522096.78, 47988.78, -0.016871288, 0.26947942, -499633.56, -2812.0186, 0.0, 9.999377, 10.000408 
2.564842e+3, 2.5930664e+2, -609308.06, -538559.5, 32114.027, 0.019338008, 0.27623641, -526156.7, -127336.18, 0.0, 9.998928, 9.99984 
2.5647452e+3, 2.69306e+2, -662586.06, -529406.2, 54730.38, -0.0350773, 0.3003631, -509800.78, -208971.64, 0.0, 9.997958, 9.999697 
2.564649e+3, 2.7930552e+2, -681356.44, -432186.16, 78171.484, -0.07470276, 0.31694436, -409692.28, -206855.2, 0.0, 9.996916, 10.0001955 
2.5645536e+3, 2.8930598e+2, -565164.6, -179251.27, 44983.945, 0.06967379, 0.31489098, -174077.08, -69246.05, 0.0, 9.99641, 10.001503 
2.5644577e+3, 2.9930717e+2, -542807.9, -123289.86, 30995.145, 0.13467018, 0.3265562, -121012.22, -114194.31, 0.0, 9.995915, 10.001453 
2.5643566e+3, 3.0930734e+2, -632420.4, -67950.27, 8106.0313, -0.3408008, 0.2113269, -67833.89, -67833.89, 0.0, 9.994644, 10.002114 
2.5642645e+3, 3.1931168e+2, -755382.94, -143753.88, 91900.24, 0.061834812, 0.5197982, -130243.83, -130243.83, 0.0, 9.993877, 10.001959 
2.5761002e+3, 1.2942971e+2, -970970.1, -1665186.6, -8222.407, 0.025406444, 0.25011203, -970872.75, 700742.9, 0.16075793, 10.007648, 9.996662 
2.5760034e+3, 1.394265e+2, -931725.4, -1594744.6, -4222.127, 0.027340371, 0.30452415, -931698.44, 641951.06, 0.10958104, 10.006743, 9.996904 
2.5759056e+3, 1.4942339e+2, -824714.94, -1405474.6, -10055.915, 0.013596358, 0.293902, -824540.9, 651138.56, 0.060452633, 10.006078, 9.997879 
2.5758082e+3, 1.5942055e+2, -810490.6, -1379618.5, 3673.9822, 0.020751586, 0.27099472, -810466.94, 567239.44, 0.024248049, 10.005411, 9.997676 
2.5757113e+3, 1.6941804e+2, -820086.94, -1303625.6, 31903.723, 0.02954117, 0.28843278, -817991.0, 461740.28, 0.005903819, 10.004445, 9.997988 
2.5756145e+3, 1.7941578e+2, -854043.6, -1260087.1, 34122.145, 0.027443452, 0.3081594, -851196.1, 330557.72, 0.0005786007, 10.003476, 9.998082 
2.5755176e+3, 1.8941352e+2, -785318.44, -1099987.4, 41072.13, 0.009663497, 0.28505245, -780045.9, 303729.63, 0.000004588243, 10.002948, 9.998761 
2.575421e+3, 1.994115e+2, -765747.44, -1063207.8, 34824.953, -0.0077331862, 0.25849152, -761724.75, 224070.02, 0.0, 10.002509, 9.998554 
2.5753242e+3, 2.0940995e+2, -713632.1, -951299.0, 44032.84, -0.012259759, 0.28507394, -705736.44, 182074.05, 0.0, 10.002042, 9.998873 
2.5752273e+3, 2.1940866e+2, -701272.6, -910340.2, 55353.27, -0.0139331855, 0.31797132, -687521.6, 102302.32, 0.0, 10.00152, 9.9987335 
2.5751308e+3, 2.2940727e+2, -694834.3, -810324.3, 52540.1, -0.005949647, 0.33726227, -674509.1, 17329.242, 0.0, 10.000693, 9.999145 
2.5750336e+3, 2.39406e+2, -721178.6, -771370.0, 51893.574, -0.000003622747, 0.34206504, -688631.1, -94779.56, 0.0, 9.999836, 9.999153 
2.574937e+3, 2.4940437e+2, -647704.56, -618849.06, 32272.063, -0.02440757, 0.2817591, -597926.5, -102060.266, 0.0, 9.999382, 9.999743 
2.57484e+3, 2.594031e+2, -603543.9, -531835.94, 4536.778, -0.055012163, 0.22213814, -531550.06, -133672.7, 0.0, 9.998945, 9.999882 
2.5747427e+3, 2.6940352e+2, -596078.7, -394495.63, 11617.682, -0.05711761, 0.28121004, -393828.28, -93954.45, 0.0, 9.997965, 10.000625 
2.574646e+3, 2.7940425e+2, -666467.75, -402361.03, 49278.55, -0.03361732, 0.34677315, -393465.94, -191598.66, 0.0, 9.996914, 10.000404 
2.5745496e+3, 2.8940374e+2, -615567.3, -286958.53, 29129.18, 0.050644588, 0.28900814, -284396.38, -180523.88, 0.0, 9.996417, 10.000763 
2.5744525e+3, 2.994035e+2, -579599.8, -208692.03, -3387.6846, 0.057299286, 0.23304053, -208661.1, -202786.52, 0.0, 9.995948, 10.000855 
2.5743523e+3, 3.094059e+2, -659415.7, -128917.48, -49034.64, -0.20272455, 0.3843344, -124423.22, -124423.22, 0.0, 9.994658, 10.001692 
2.5742579e+3, 3.194069e+2, -663218.06, 52009.375, 109222.85, 0.036056872, 0.35794857, 68317.05, 68317.05, 0.0, 9.993846, 10.0033245 
2.5861076e+3, 1.2952779e+2, -935639.6, -1619088.4, 24223.746, 0.038174853, 0.28846234, -934782.2, 735873.4, 0.14431322, 10.007637, 9.99704 
2.586009e+3, 1.3952407e+2, -1041084.0, -1630050.9, 31522.309, 0.02039559, 0.26138142, -1039401.7, 533290.7, 0.09763831, 10.005727, 9.997152 
2.5859106e+3, 1.4952135e+2, -917631.94, -1447182.4, 43360.004, -0.00058486185, 0.28113392, -914105.06, 560613.9, 0.053184982, 10.005351, 9.997919 
2.585813e+3, 1.5951897e+2, -829962.56, -1385153.0, 39820.21, 0.0073939255, 0.30133796, -827121.06, 549621.1, 0.020862075, 10.005244, 9.997716 
2.5857154e+3, 1.6951624e+2, -797247.2, -1288338.9, 51537.395, 0.03061651, 0.29604492, -791896.9, 486872.28, 0.004877775, 10.004586, 9.998023 
2.585618e+3, 1.7951372e+2, -804971.25, -1234145.9, 52426.96, 0.042488843, 0.28778088, -798659.7, 382134.53, 0.00043993283, 10.003809, 9.998098 
2.58552e+3, 1.8951169e+2, -787286.44, -1103291.6, 63146.055, 0.02002418, 0.28974202, -775135.44, 307678.84, 0.0000027949502, 10.002951, 9.998734 
2.585423e+3, 1.9950993e+2, -812219.75, -1071922.4, 59196.063, -0.0042258976, 0.29015794, -799363.2, 185468.3, 0.0, 10.002136, 9.998671 
2.5853255e+3, 2.0950833e+2, -746014.25, -934029.94, 66015.336, -0.016873281, 0.2878343, -725150.44, 161696.44, 0.0, 10.001684, 9.999161 
2.585228e+3, 2.1950698e+2, -722874.5, -899195.75, 63144.13, -0.024807157, 0.2897151, -702594.0, 86265.76, 0.0, 10.0012865, 9.9989195 
2.585131e+3, 2.2950588e+2, -682472.44, -799538.6, 58601.664, -0.010641367, 0.32977068, -658178.75, 32693.018, 0.0, 10.000766, 9.99918 
2.5850335e+3, 2.3950489e+2, -675366.8, -753945.7, 69113.92, 0.0047780327, 0.36224115, -635155.3, -42272.652, 0.0, 10.000176, 9.999105 
2.5849357e+3, 2.4950308e+2, -674028.3, -648909.75, 84168.39, -0.024802933, 0.29897395, -576368.75, -81469.2, 0.0, 9.999283, 9.999582 
2.5848383e+3, 2.5950155e+2, -686741.8, -570285.06, 81810.98, -0.061308946, 0.22885077, -528096.44, -131182.84, 0.0, 9.998375, 9.999888 
2.5847402e+3, 2.69502e+2, -592068.7, -369420.78, 43346.67, -0.05303552, 0.28116852, -361279.44, -62370.727, 0.0, 9.997901, 10.000823 
2.5846425e+3, 2.795029e+2, -587533.8, -360885.2, 36685.81, -0.016183857, 0.3424021, -355095.06, -154194.92, 0.0, 9.997448, 10.000429 
2.5845453e+3, 2.8950208e+2, -587018.5, -298320.7, 46420.402, 0.031485733, 0.2726914, -291040.22, -188131.88, 0.0, 9.996727, 10.000533 
2.5844476e+3, 2.995015e+2, -598056.8, -248155.61, 42121.766, 0.0016714389, 0.20655799, -243156.33, -238241.86, 0.0, 9.995955, 10.00058 
2.584348e+3, 3.0950454e+2, -561862.44, -114943.5, 1104.1086, -0.09970439, 0.4576618, -114940.77, -114940.77, 0.0, 9.995478, 10.00139 
2.584251e+3, 3.1950223e+2, -622391.0, 41132.266, 121413.81, -0.022018969, 0.12280329, 62651.11, 62651.11, 0.0, 9.994271, 10.003039 
2.5961146e+3, 1.296272e+2, -929819.9, -1606417.8, -42425.49, 0.008492105, 0.3441155, -927170.0, 742511.56, 0.12884276, 10.007506, 9.99719 
2.5960147e+3, 1.3962258e+2, -1023380.7, -1618637.0, -7874.072, 0.038899653, 0.21347505, -1023276.56, 548449.1, 0.086459145, 10.005784, 9.997203 
2.5959155e+3, 1.496202e+2, -916059.7, -1459069.8, 42462.758, -0.0023279404, 0.27132195, -912759.25, 560990.4, 0.04644807, 10.005376, 9.997825 
2.5958174e+3, 1.5961824e+2, -839935.8, -1398625.5, 27886.43, -0.02203898, 0.34395525, -838547.4, 537222.2, 0.017783014, 10.00519, 9.997652 
2.595719e+3, 1.6961509e+2, -805718.75, -1297403.3, 25232.023, 0.020242838, 0.30010438, -804427.3, 473373.63, 0.003980273, 10.0045395, 9.997986 
2.5956213e+3, 1.796121e+2, -811671.06, -1242918.4, 24967.8, 0.053810094, 0.24993487, -810230.3, 369600.28, 0.00032790154, 10.003781, 9.998054 
2.5955227e+3, 1.8961057e+2, -789365.2, -1110477.0, 33131.734, 0.022925964, 0.3047178, -785982.4, 295864.03, 0.0000016192165, 10.002957, 9.998685 
2.5954244e+3, 1.9960932e+2, -805004.8, -1062992.8, 37465.133, -0.011215189, 0.35922104, -799674.25, 184184.63, 0.0, 10.002157, 9.998725 
2.5953266e+3, 2.0960726e+2, -733898.75, -911830.5, 53094.824, -0.007989609, 0.29688165, -719259.6, 166618.11, 0.0, 10.001692, 9.999312 
2.595229e+3, 2.1960534e+2, -715543.4, -881816.9, 47514.0, -0.0033027474, 0.22795768, -702923.7, 84971.4, 0.0, 10.001272, 9.999048 
2.5951308e+3, 2.2960442e+2, -675751.75, -785175.94, 38908.324, -0.02240566, 0.27552918, -663327.6, 26577.682, 0.0, 10.00076, 9.999284 
2.5950328e+3, 2.396038e+2, -659948.2, -723830.94, 41592.46, -0.039224576, 0.3328475, -639447.4, -47534.543, 0.0, 10.000179, 9.999313 
2.5949347e+3, 2.4960282e+2, -650564.25, -601753.8, 46701.816, -0.016628673, 0.32249555, -573464.9, -79543.2, 0.0, 9.999283, 9.999909 
2.5948367e+3, 2.5960198e+2, -694382.06, -586573.25, 54876.93, 0.0018225546, 0.2996044, -563554.56, -167625.58, 0.0, 9.998371, 9.999782 
2.5947377e+3, 2.6960146e+2, -636206.2, -461801.53, 27164.852, -0.025667021, 0.30079907, -457668.38, -159733.84, 0.0, 9.997899, 10.000192 
2.5946394e+3, 2.7960122e+2, -595360.94, -383909.16, 13225.45, -0.036215752, 0.3016958, -383085.2, -183147.7, 0.0, 9.997471, 10.000262 
2.5945416e+3, 2.8960106e+2, -558219.2, -243238.7, 14524.612, 0.017333612, 0.27126208, -242570.36, -140631.7, 0.0, 9.996739, 10.00091 
2.5944427e+3, 2.9960126e+2, -589583.1, -231609.78, 19198.582, -0.011296284, 0.25554535, -230583.08, -226647.17, 0.0, 9.9959545, 10.000697 
2.594343e+3, 3.096031e+2, -574015.94, -150834.39, -11183.497, -0.091331206, 0.3971083, -150539.05, -150539.05, 0.0, 9.995517, 10.001128 
2.5942445e+3, 3.196016e+2, -733244.5, -193876.97, 10525.682, -0.02984429, 0.20850128, -193671.64, -193671.64, 0.0, 9.994283, 10.001425 
2.6061207e+3, 1.2972686e+2, -1004696.4, -1667557.0, -11762.501, -0.013440102, 0.31031564, -1004487.75, 664216.3, 0.11439606, 10.006924, 9.996991 
2.6060203e+3, 1.3972266e+2, -933695.1, -1587095.8, 15835.927, 0.04296476, 0.24165703, -933311.56, 637433.2, 0.07609571, 10.006458, 9.997094 
2.6059207e+3, 1.4971992e+2, -892506.56, -1451402.9, 75898.76, 0.014472619, 0.27052957, -882382.8, 590389.25, 0.040277995, 10.005538, 9.997796 
2.605822e+3, 1.597176e+2, -920035.3, -1431132.8, 61866.5, 0.0023191434, 0.30930078, -912653.2, 462142.3, 0.015024666, 10.004596, 9.997713 
2.605723e+3, 1.6971485e+2, -889091.56, -1320020.1, 67044.88, 0.023690574, 0.29437667, -878901.56, 397921.56, 0.0032101516, 10.003892, 9.998139 
2.605624e+3, 1.7971228e+2, -878431.94, -1266457.9, 79723.8, 0.03729873, 0.27445045, -862690.5, 316158.3, 0.00023978736, 10.003291, 9.998125 
2.6055253e+3, 1.897105e+2, -783726.44, -1110922.0, 94753.44, 0.018277204, 0.307711, -758267.44, 322599.4, 0.00000086705097, 10.003017, 9.99865 
2.6054266e+3, 1.9970898e+2, -727734.6, -1027418.9, 92955.58, 0.00008132277, 0.33996287, -701243.56, 281638.47, 0.0, 10.002704, 9.998702 
2.6053283e+3, 2.0970707e+2, -738730.0, -916255.9, 91699.65, 0.0028386954, 0.2971718, -699869.75, 185030.03, 0.0, 10.001675, 9.999287 
2.6052296e+3, 2.1970533e+2, -807106.25, -918963.6, 79698.05, 0.0045962525, 0.24754103, -765670.7, 21245.043, 0.0, 10.000618, 9.999106 
2.605131e+3, 2.2970423e+2, -744010.0, -800901.75, 80506.125, -0.024169065, 0.26699933, -687072.0, 1855.106, 0.0, 10.000222, 9.999433 
2.605032e+3, 2.3970348e+2, -688695.75, -720386.56, 79331.086, -0.04749898, 0.29631892, -623643.1, -32707.645, 0.0, 9.999915, 9.99946 
2.6049337e+3, 2.4970289e+2, -615491.25, -571609.06, 64794.2, -0.012133775, 0.31350788, -525141.8, -32201.063, 0.0, 9.999475, 10.000021 
2.604835e+3, 2.5970244e+2, -611536.75, -547015.3, 63120.28, 0.021940479, 0.3230134, -508389.3, -113444.836, 0.0, 9.998947, 9.999772 
2.6047355e+3, 2.697016e+2, -609005.75, -464991.6, 66668.7, -0.015210092, 0.30293602, -438867.44, -141914.0, 0.0, 9.998162, 10.00004 
2.6046363e+3, 2.7970093e+2, -616076.5, -395269.38, 80811.48, -0.039892618, 0.27745867, -368853.94, -169893.52, 0.0, 9.997343, 10.000242 
2.604538e+3, 2.8970113e+2, -548374.94, -222190.36, 66639.07, 0.009591243, 0.27972245, -209101.31, -108143.85, 0.0, 9.996747, 10.001046 
2.6044384e+3, 2.9970172e+2, -561843.5, -214821.83, 54689.97, -0.011943118, 0.2916213, -206406.84, -203455.95, 0.0, 9.9961405, 10.000717 
2.6043376e+3, 3.0970225e+2, -601499.9, -175823.56, 32600.742, -0.12782861, 0.31195104, -173341.28, -173341.28, 0.0, 9.99539, 10.001012 
2.604239e+3, 3.1970298e+2, -650116.4, -127071.586, 19231.822, 0.009805705, 0.35615855, -126365.41, -126365.41, 0.0, 9.994747, 10.001655 
2.616127e+3, 1.2982686e+2, -1028495.94, -1729259.8, -29106.322, -0.032335646, 0.22072499, -1027289.06, 640433.1, 0.10098839, 10.006858, 9.996597 
2.616026e+3, 1.3982403e+2, -951367.9, -1624775.4, -4413.623, 0.029106898, 0.32227883, -951338.94, 618412.75, 0.06656477, 10.006387, 9.996871 
2.615926e+3, 1.4982043e+2, -896129.7, -1460300.1, 42843.785, 0.03988064, 0.27488908, -892894.6, 578892.3, 0.03468507, 10.005506, 9.997751 
2.6158267e+3, 1.5981717e+2, -912147.3, -1416313.3, 33013.625, 0.063699104, 0.21971504, -909994.7, 463824.13, 0.012587676, 10.004588, 9.997821 
2.6157266e+3, 1.6981545e+2, -868836.75, -1281239.9, 43440.95, 0.034975234, 0.28399616, -864310.5, 411526.0, 0.002561984, 10.003899, 9.998405 
2.6156265e+3, 1.7981395e+2, -868316.0, -1247595.3, 63316.72, -0.0058909296, 0.3478214, -858025.2, 319826.72, 0.00017260529, 10.003295, 9.998256 
2.6155275e+3, 1.8981133e+2, -787488.75, -1117318.8, 86960.15, 0.0065557905, 0.2975275, -765966.06, 313911.34, 0.00000042407203, 10.003006, 9.998614 
2.615429e+3, 1.9980891e+2, -741008.1, -1048430.0, 68732.65, 0.026745422, 0.24432845, -726340.8, 255560.25, 0.0, 10.00267, 9.998577 
2.6153293e+3, 2.0980772e+2, -754911.75, -949923.75, 49115.977, 0.013752645, 0.29390696, -743239.94, 140673.38, 0.0, 10.00167, 9.99906 
2.6152298e+3, 2.1980678e+2, -807430.4, -923525.3, 54159.4, -0.0061392905, 0.34233618, -786087.94, -164.91129, 0.0, 10.000629, 9.999072 
2.6151305e+3, 2.2980517e+2, -729497.6, -774487.9, 70960.195, -0.017487003, 0.29916933, -677552.3, 10385.915, 0.0, 10.000233, 9.999612 
2.6150316e+3, 2.3980378e+2, -684596.9, -714990.9, 64902.582, -0.023349082, 0.24960275, -633135.9, -43184.355, 0.0, 9.999923, 9.999497 
2.6149327e+3, 2.4980314e+2, -624208.2, -591598.2, 45471.8, -0.014840782, 0.27077243, -559596.5, -67638.88, 0.0, 9.999478, 9.999884 
2.614833e+3, 2.598028e+2, -601942.1, -532699.8, 37338.55, -0.010612318, 0.2969731, -516401.53, -122440.47, 0.0, 9.998966, 9.999865 
2.6147333e+3, 2.698023e+2, -583409.94, -414845.28, 33433.996, -0.021450184, 0.2864685, -408456.0, -112490.18, 0.0, 9.998169, 10.000384 
2.6146334e+3, 2.7980205e+2, -610170.4, -383193.22, 54705.938, -0.020860098, 0.2734618, -370696.1, -172727.77, 0.0, 9.997338, 10.000331 
2.614534e+3, 2.8980237e+2, -563071.75, -253472.92, 43938.05, 0.0002965571, 0.29883343, -247358.03, -147393.08, 0.0, 9.996744, 10.000835 
2.6144335e+3, 2.998028e+2, -570038.8, -237750.98, 27062.91, -0.03635644, 0.31222492, -235561.3, -233600.45, 0.0, 9.99616, 10.000554 
2.614332e+3, 3.0980188e+2, -604000.1, -181025.39, 238.41649, -0.16212566, 0.20229198, -181025.25, -181025.25, 0.0, 9.995384, 10.000982 
2.6142335e+3, 3.1980464e+2, -500692.88, 162891.44, -49251.65, 0.021662438, 0.39486644, 166527.0, 166527.0, 0.0, 9.994804, 10.003634 
2.6261342e+3, 1.2992832e+2, -1038890.56, -1700638.3, -15324.702, 0.028079756, 0.24379398, -1038535.9, 628192.75, 0.0886201, 10.006538, 9.99695 
2.6260316e+3, 1.3992526e+2, -976997.2, -1623673.3, 33441.684, 0.02900317, 0.29466256, -975272.44, 593486.5, 0.057853833, 10.006085, 9.997023 
2.625931e+3, 1.4992185e+2, -934467.7, -1488501.0, 76831.05, 0.034888152, 0.26734984, -924010.5, 546782.6, 0.029653076, 10.005257, 9.997672 
2.6258308e+3, 1.5991871e+2, -934692.0, -1428144.4, 69378.46, 0.06521862, 0.2345214, -925123.06, 447701.25, 0.010457323, 10.004435, 9.99781 
2.62573e+3, 1.6991687e+2, -859937.9, -1270030.4, 75372.02, 0.03360611, 0.2844898, -846523.8, 428318.75, 0.0020253514, 10.003938, 9.998459 
2.6256293e+3, 1.7991525e+2, -844649.8, -1233498.0, 81812.77, -0.012673894, 0.3332654, -828137.75, 348720.66, 0.00012298183, 10.003455, 9.998271 
2.6255298e+3, 1.8991262e+2, -848465.56, -1150765.6, 100316.05, -0.00018472326, 0.28395745, -818205.44, 260678.95, 0.00000019125741, 10.002613, 9.99857 
2.6254305e+3, 1.999102e+2, -861970.9, -1100593.0, 81858.195, 0.023644092, 0.23394193, -836589.5, 144318.8, 0.0, 10.001819, 9.998626 
2.6253307e+3, 2.0990919e+2, -746145.75, -931487.44, 83827.47, 0.013565449, 0.29313418, -713856.9, 169062.0, 0.0, 10.001675, 9.999182 
2.6252306e+3, 2.1990845e+2, -675411.0, -853684.94, 105861.28, -0.0011499834, 0.35427988, -626157.2, 158769.53, 0.0, 10.001518, 9.999119 
2.6251307e+3, 2.2990687e+2, -678661.9, -754553.44, 109602.38, 0.0027494605, 0.31634793, -600622.5, 86319.266, 0.0, 10.000608, 9.999564 
2.6250315e+3, 2.3990542e+2, -730474.6, -742315.75, 93038.19, 0.0097823655, 0.26631382, -643168.8, -54213.18, 0.0, 9.999637, 9.999445 
2.6249313e+3, 2.4990447e+2, -681292.56, -625837.7, 80168.31, -0.0061264695, 0.26470312, -568737.25, -77772.555, 0.0, 9.99912, 9.999819 
2.6248312e+3, 2.5990388e+2, -643689.4, -544231.2, 70412.42, -0.025820984, 0.27093968, -507757.66, -114787.125, 0.0, 9.998649, 9.999934 
2.6247308e+3, 2.6990378e+2, -576775.75, -388981.97, 51614.105, -0.032288782, 0.28267634, -375731.1, -80759.63, 0.0, 9.998124, 10.000581 
2.62463e+3, 2.799039e+2, -575878.25, -364610.78, 65387.035, -0.021462899, 0.29432514, -346011.06, -149041.02, 0.0, 9.997572, 10.000342 
2.6245302e+3, 2.89904e+2, -524260.72, -255145.4, 58538.184, -0.011330944, 0.31262192, -242963.56, -143994.47, 0.0, 9.997105, 10.000648 
2.6244292e+3, 2.999041e+2, -514890.47, -217453.83, 36625.625, -0.061058313, 0.31129447, -213010.22, -212041.88, 0.0, 9.99657, 10.000494 
2.6243275e+3, 3.099031e+2, -562241.8, -147872.6, 12214.744, -0.12711357, 0.18390404, -147512.84, -147512.84, 0.0, 9.995621, 10.001093 
2.6242274e+3, 3.1990582e+2, -461696.13, 223761.08, -16591.998, -0.010661307, 0.35452574, 224162.47, 224162.47, 0.0, 9.994903, 10.004 
2.636141e+3, 1.3003089e+2, -991137.2, -1593698.9, -26741.45, 0.1303817, 0.33528498, -989952.7, 675772.9, 0.07727276, 10.006444, 9.997767 
2.6360375e+3, 1.4002664e+2, -960601.0, -1578919.1, 10809.795, 0.031294405, 0.19744784, -960412.06, 607352.0, 0.049933363, 10.005999, 9.997372 
2.6359352e+3, 1.5002407e+2, -943734.3, -1508914.3, 44720.73, 0.0053123217, 0.25670728, -940217.6, 529573.5, 0.025153449, 10.005229, 9.997548 
2.6358342e+3, 1.6002186e+2, -941708.0, -1446112.0, 46042.89, 0.020560239, 0.32494268, -937539.56, 434275.72, 0.008611602, 10.004435, 9.997689 
2.6357332e+3, 1.70019e+2, -868176.7, -1289518.0, 60906.656, 0.021858303, 0.288547, -859549.0, 414293.13, 0.0015873887, 10.003942, 9.998326 
2.6356325e+3, 1.8001637e+2, -852240.5, -1250184.4, 58891.637, 0.007240978, 0.24777983, -843708.1, 332158.7, 0.00008731026, 10.003453, 9.99816 
2.635532e+3, 1.9001438e+2, -854575.56, -1165131.1, 68338.695, -0.0056172227, 0.27197146, -840202.6, 237684.7, 0.00000008629741, 10.002614, 9.998474 
2.6354316e+3, 2.0001267e+2, -850317.8, -1077065.8, 66281.01, -0.010147471, 0.29751182, -832364.56, 147540.44, 0.0, 10.001817, 9.998792 
2.6353315e+3, 2.1001136e+2, -717244.1, -870933.8, 83348.52, 0.0028378554, 0.29113546, -680721.9, 201195.56, 0.0, 10.001668, 9.999603 
2.6352313e+3, 2.200103e+2, -672400.9, -844585.25, 86535.31, 0.01663702, 0.28598836, -636426.56, 147500.84, 0.0, 10.0015, 9.999193 
2.6351315e+3, 2.3000927e+2, -699476.25, -797672.9, 70638.16, 0.03473947, 0.32190493, -662549.0, 23389.135, 0.0, 10.000603, 9.999273 
2.635031e+3, 2.400083e+2, -740372.25, -764585.6, 64761.254, 0.046281032, 0.34738985, -686595.75, -98647.45, 0.0, 9.999639, 9.999293 
2.6349303e+3, 2.500068e+2, -681426.2, -627470.2, 62120.973, 0.013776932, 0.2946048, -586722.06, -96759.61, 0.0, 9.999121, 9.99981 
2.6348293e+3, 2.6000565e+2, -641676.2, -542441.06, 50708.418, -0.026798615, 0.24528375, -521113.25, -129139.89, 0.0, 9.998653, 9.999948 
2.634728e+3, 2.700059e+2, -575583.9, -387977.97, 29522.088, -0.05245518, 0.29387474, -383442.0, -89471.2, 0.0, 9.998125, 10.000589 
2.634627e+3, 2.800064e+2, -578663.25, -376431.44, 45228.676, -0.054683946, 0.34326407, -366777.03, -170810.88, 0.0, 9.997592, 10.000254 
2.6345265e+3, 2.9000595e+2, -532754.06, -277942.88, 39611.08, -0.021598507, 0.3185159, -271927.25, -173956.33, 0.0, 9.997122, 10.000485 
2.6344252e+3, 3.0000567e+2, -508259.56, -204703.81, 7751.0947, -0.061555624, 0.2897441, -204506.02, -204506.02, 0.0, 9.996569, 10.000585 
2.6343232e+3, 3.100061e+2, -539783.4, -107181.414, -27028.219, -0.055156533, 0.28305376, -105499.28, -105499.28, 0.0, 9.995636, 10.001369 
2.6342213e+3, 3.2000712e+2, -567034.2, 2122.961, 64805.66, -0.05284051, 0.30260578, 9408.634, 9408.634, 0.0, 9.994932, 10.002454 
2.6461467e+3, 1.3013366e+2, -1037841.1, -1606540.3, 22136.06, 0.1516061, 0.33683157, -1036980.8, 627738.2, 0.06690355, 10.005983, 9.997889 
2.646042e+3, 1.4012936e+2, -1032991.6, -1605183.9, 28538.98, -0.009153379, 0.18318945, -1031571.75, 535186.5, 0.042768918, 10.005395, 9.997481 
2.6459396e+3, 1.501272e+2, -978235.56, -1514948.9, 66666.73, -0.009411983, 0.273895, -970078.7, 498702.94, 0.02115834, 10.0049305, 9.997645 
2.6458383e+3, 1.6012532e+2, -931257.3, -1438837.1, 79322.375, 0.037776064, 0.37205464, -919149.94, 451652.5, 0.007028226, 10.0045, 9.997704 
2.645737e+3, 1.7012213e+2, -873830.4, -1300927.0, 100327.05, 0.022980014, 0.30820635, -851437.2, 421395.22, 0.0012349613, 10.003946, 9.998242 
2.6456353e+3, 1.801191e+2, -868496.8, -1260580.1, 95131.48, -0.007007446, 0.23653753, -846634.06, 328226.53, 0.00006223652, 10.003361, 9.99813 
2.645534e+3, 1.9011715e+2, -842950.25, -1157149.3, 105159.375, -0.004567453, 0.2673414, -811002.8, 265877.47, 0.000000036839044, 10.002692, 9.9984865 
2.6454332e+3, 2.0011559e+2, -820979.2, -1057759.0, 112169.47, 0.0073166625, 0.3047321, -776279.7, 202616.83, 0.0, 10.002005, 9.998829 
2.6453328e+3, 2.1011424e+2, -779008.06, -896501.75, 113435.664, 0.019599827, 0.2929461, -710009.7, 170899.42, 0.0, 10.001233, 9.999634 
2.645232e+3, 2.201131e+2, -810222.94, -912366.7, 92612.52, 0.031070158, 0.27915123, -755533.7, 27386.076, 0.0, 10.000566, 9.999175 
2.6451313e+3, 2.3011194e+2, -709107.9, -810179.06, 86201.23, 0.032069825, 0.30895126, -659721.0, 25210.871, 0.0, 10.000576, 9.999198 
2.6450303e+3, 2.4011092e+2, -608528.3, -695235.9, 90099.29, 0.032406792, 0.33505863, -551894.94, 35047.727, 0.0, 10.000525, 9.999339 
2.6449293e+3, 2.5010973e+2, -600548.94, -572087.8, 94685.164, 0.016048051, 0.30193648, -490569.8, -1616.1749, 0.0, 9.999611, 9.999951 
2.6448277e+3, 2.601088e+2, -647181.3, -553180.0, 95533.11, -0.010201095, 0.2676375, -493711.72, -102749.47, 0.0, 9.998657, 9.999869 
2.6447257e+3, 2.7010867e+2, -566247.94, -416389.34, 60820.996, -0.059467625, 0.30045417, -394811.7, -101847.47, 0.0, 9.998335, 10.000291 
2.644624e+3, 2.8010872e+2, -528432.44, -364813.1, 52447.914, -0.07604998, 0.33224568, -349444.56, -154480.27, 0.0, 9.997994, 10.000138 
2.6445234e+3, 2.9010823e+2, -525371.8, -268315.13, 53664.723, 0.0021782822, 0.307814, -257561.61, -160592.55, 0.0, 9.997152, 10.000533 
2.6444218e+3, 3.001081e+2, -544550.9, -223117.38, 31850.797, -0.013668826, 0.2911591, -219991.69, -219991.69, 0.0, 9.996331, 10.000568 
2.644318e+3, 3.101091e+2, -471481.56, -87676.7, -25722.48, -0.10270213, 0.34624857, -85960.46, -85960.46, 0.0, 9.996165, 10.001247 
2.644216e+3, 3.2010886e+2, -482488.38, -45969.68, 82038.72, -0.058182158, 0.27738935, -31060.645, -31060.645, 0.0, 9.99591, 10.001645 
2.656152e+3, 1.3023679e+2, -1055137.0, -1650573.9, -777.478, 0.11332445, 0.28585577, -1055136.0, 608572.0, 0.057453718, 10.005967, 9.99757 
2.6560462e+3, 1.4023316e+2, -1033241.56, -1611699.1, 10640.632, -0.08115999, 0.22305627, -1033045.9, 532697.3, 0.036321897, 10.005384, 9.997442 
2.6559442e+3, 1.5023108e+2, -964687.6, -1487162.4, 51025.645, -0.014286863, 0.30714187, -959751.0, 508014.3, 0.017638445, 10.00491, 9.9978485 
2.655843e+3, 1.6022919e+2, -930515.44, -1431380.9, 60996.418, 0.094975166, 0.3877623, -923194.2, 446591.2, 0.005684073, 10.004464, 9.997775 
2.6557404e+3, 1.7022617e+2, -881375.44, -1313316.0, 78602.945, 0.029561652, 0.34338525, -867516.25, 404297.84, 0.00095494435, 10.003925, 9.99817 
2.6556376e+3, 1.8022323e+2, -869746.94, -1261732.6, 71372.414, -0.050870493, 0.28585598, -857156.0, 316685.8, 0.00004479405, 10.003349, 9.99813 
2.6555362e+3, 1.9022082e+2, -836488.1, -1145776.0, 79939.03, 0.0016743406, 0.26546064, -817048.75, 258815.84, 0.000000014947995, 10.002696, 9.998566 
2.6554352e+3, 2.0021884e+2, -827729.6, -1074612.4, 85264.836, 0.06497751, 0.25888693, -801144.8, 176738.83, 0.0, 10.002011, 9.998713 
2.655334e+3, 2.1021776e+2, -799993.1, -945065.7, 84504.32, 0.058520753, 0.3000116, -761162.94, 118731.48, 0.0, 10.001249, 9.999295 
2.6552325e+3, 2.2021677e+2, -816871.3, -928566.6, 82221.445, 0.035846416, 0.3297941, -773324.1, 8580.191, 0.0, 10.000571, 9.9990635 
2.6551312e+3, 2.3021483e+2, -700681.06, -794018.06, 91426.69, -0.0055675907, 0.27562198, -644700.7, 39222.68, 0.0, 10.000578, 9.99931 
2.65503e+3, 2.4021322e+2, -592253.6, -663979.4, 71270.234, -0.035858884, 0.22870533, -548331.8, 37607.36, 0.0, 10.00053, 9.999554 
2.654928e+3, 2.5021324e+2, -580165.8, -531645.56, 53616.91, -0.0004309557, 0.28829357, -497055.7, -9117.269, 0.0, 9.999614, 10.00023 
2.654826e+3, 2.6021332e+2, -659869.5, -582302.75, 71375.67, 0.020838397, 0.34229168, -539854.1, -149917.06, 0.0, 9.998664, 9.999668 
2.6547235e+3, 2.7021188e+2, -610489.6, -511065.34, 51052.273, -0.0517246, 0.29869148, -489519.97, -197567.52, 0.0, 9.9983425, 9.9996395 
2.6546213e+3, 2.8021067e+2, -535586.06, -383712.78, 29010.111, -0.08720869, 0.25381, -378360.06, -184394.27, 0.0, 9.998007, 10.000005 
2.654521e+3, 2.902109e+2, -505885.16, -228278.69, 17030.479, 0.063500226, 0.28118923, -227237.81, -131274.2, 0.0, 9.997148, 10.0008135 
2.6544183e+3, 3.0021152e+2, -557300.4, -250516.44, 14381.145, 0.07880209, 0.3236201, -249843.77, -249843.77, 0.0, 9.996328, 10.000384 
2.6543117e+3, 3.1021178e+2, -504833.1, -167060.06, -28383.012, -0.29511312, 0.35743672, -164691.64, -164691.64, 0.0, 9.996203, 10.000688 
2.6542124e+3, 3.20211e+2, -472844.34, -47198.39, 16246.791, 0.018018035, 0.26994973, -46579.152, -46579.152, 0.0, 9.995978, 10.001616 
2.6661572e+3, 1.3034084e+2, -1069126.8, -1688679.9, 15770.123, 0.10759783, 0.28081352, -1068725.6, 593964.1, 0.048867673, 10.005949, 9.9973135 
2.6660514e+3, 1.4033814e+2, -1028032.7, -1612563.8, 26925.29, -0.07156527, 0.33029017, -1026795.06, 537922.75, 0.030546976, 10.005408, 9.997423 
2.6659486e+3, 1.5033537e+2, -984594.2, -1476288.4, 66618.76, -0.006326809, 0.3329517, -975728.0, 491016.7, 0.014556379, 10.004677, 9.998032 
2.6658466e+3, 1.603328e+2, -993078.4, -1456363.4, 77430.06, 0.099927455, 0.32994032, -980479.94, 388289.84, 0.004551645, 10.004011, 9.997819 
2.6657435e+3, 1.703302e+2, -925442.6, -1343942.8, 95411.86, 0.03413436, 0.33631086, -904716.56, 366078.6, 0.00073369243, 10.00367, 9.998078 
2.6656404e+3, 1.8032774e+2, -869109.7, -1254692.6, 81693.54, -0.047509085, 0.33389762, -852515.44, 320303.72, 0.000032466538, 10.003331, 9.998183 
2.6655382e+3, 1.9032528e+2, -826465.9, -1122280.1, 90767.6, -0.0029858, 0.29209998, -800835.5, 274006.63, 0.0000000057994387, 10.002692, 9.998725 
2.665437e+3, 2.003231e+2, -820133.06, -1072150.6, 103999.375, 0.05659547, 0.25817767, -782758.6, 194103.33, 0.0, 10.002076, 9.998695 
2.6653346e+3, 2.1032183e+2, -738047.2, -936136.56, 113457.336, 0.057415545, 0.29510027, -686485.0, 192389.56, 0.0, 10.001771, 9.999102 
2.665233e+3, 2.2032067e+2, -700938.94, -874861.6, 117605.63, 0.041465558, 0.3250286, -641635.56, 139250.48, 0.0, 10.001383, 9.999038 
2.6651308e+3, 2.3031878e+2, -732001.6, -796427.06, 128198.76, -0.009019465, 0.26924536, -632030.44, 50874.023, 0.0, 10.000314, 9.999417 
2.6650292e+3, 2.4031721e+2, -766347.56, -743682.5, 105854.055, -0.046237364, 0.21961483, -648556.06, -63636.426, 0.0, 9.999324, 9.999585 
2.664927e+3, 2.5031722e+2, -629531.3, -560759.6, 66080.64, -0.0058027413, 0.28245458, -520653.6, -33734.45, 0.0, 9.999303, 10.000177 
2.6648247e+3, 2.603173e+2, -577544.75, -549780.44, 67996.28, 0.028381271, 0.34158853, -494263.7, -105345.55, 0.0, 9.999264, 9.9996 
2.664722e+3, 2.7031574e+2, -577398.2, -505848.7, 82905.984, -0.027447453, 0.29604226, -451328.2, -160393.31, 0.0, 9.998622, 9.999538 
2.664619e+3, 2.803144e+2, -553626.2, -399512.06, 86736.89, -0.056324925, 0.2478847, -360547.22, -167597.42, 0.0, 9.997921, 9.999934 
2.6645175e+3, 2.9031467e+2, -465823.84, -215906.22, 48958.754, 0.05066988, 0.28850892, -206657.48, -111710.234, 0.0, 9.997458, 10.000746 
2.6644143e+3, 3.0031532e+2, -460362.72, -209049.3, 39569.92, 0.046224378, 0.3408719, -202966.16, -202966.16, 0.0, 9.997021, 10.000334 
2.664308e+3, 3.1031528e+2, -434051.03, -134053.73, 40914.13, -0.27475375, 0.3460214, -128573.89, -128573.89, 0.0, 9.996702, 10.0006695 
2.664208e+3, 3.2031476e+2, -504205.78, -75560.88, 56923.586, 0.037339043, 0.29457918, -68130.305, -68130.305, 0.0, 9.995829, 10.001489 
2.6761627e+3, 1.3044573e+2, -1091646.5, -1725406.5, -3316.0588, 0.11855563, 0.3085472, -1091629.1, 570035.44, 0.04110207, 10.005855, 9.997105 
2.6760566e+3, 1.4044413e+2, -1022717.94, -1614114.3, 6410.609, -0.013665332, 0.48435774, -1022648.44, 541035.0, 0.025394486, 10.005436, 9.9974 
2.6759526e+3, 1.5044013e+2, -969189.0, -1454900.0, 39287.297, 0.004262872, 0.35282886, -966031.7, 499687.88, 0.011868222, 10.004704, 9.998169 
2.6758495e+3, 1.6043635e+2, -992317.7, -1457636.6, 57842.965, 0.06493479, 0.21995988, -985235.1, 382518.63, 0.0036005264, 10.004014, 9.99781 
2.6757467e+3, 1.7043436e+2, -934845.25, -1364373.1, 84818.625, 0.037413675, 0.29725227, -918702.8, 351071.84, 0.0005582592, 10.003668, 9.997942 
2.6756436e+3, 1.8043266e+2, -865594.44, -1245538.1, 63993.875, -0.011187106, 0.37849557, -855105.56, 316687.34, 0.000023528748, 10.003318, 9.998255 
2.6755404e+3, 1.9043043e+2, -812648.25, -1092533.9, 66108.96, -0.019983325, 0.34322068, -797819.0, 275994.06, 0.000000001728097, 10.002682, 9.998937 
2.6754376e+3, 2.004283e+2, -819897.06, -1068725.5, 87783.02, -0.011530334, 0.29734212, -792045.9, 183786.1, 0.0, 10.002058, 9.99873 
2.6753357e+3, 2.1042639e+2, -746376.56, -952356.1, 103905.02, 0.020996595, 0.2781598, -703068.2, 174781.77, 0.0, 10.001762, 9.998996 
2.6752338e+3, 2.2042477e+2, -701154.94, -873479.94, 89961.96, 0.043516904, 0.26757824, -662749.6, 117115.82, 0.0, 10.00137, 9.999056 
2.675131e+3, 2.3042375e+2, -724889.7, -782757.9, 84214.51, 0.019436937, 0.2906268, -664777.4, 17098.258, 0.0, 10.000313, 9.999514 
2.675028e+3, 2.4042286e+2, -778024.2, -769372.3, 87480.29, -0.0049235225, 0.30738077, -686111.06, -102226.53, 0.0, 9.999325, 9.999411 
2.674926e+3, 2.5042164e+2, -658105.25, -622025.6, 69452.0, -0.0019541623, 0.2809314, -568308.75, -82412.086, 0.0, 9.999308, 9.999756 
2.674823e+3, 2.6042062e+2, -568323.6, -537381.9, 53770.81, 0.0026146944, 0.2613463, -496900.53, -108993.984, 0.0, 9.999289, 9.999676 
2.6747206e+3, 2.7042028e+2, -541795.06, -434724.22, 53461.465, 0.014011645, 0.2966857, -412601.4, -122690.21, 0.0, 9.998629, 10.000026 
2.6746175e+3, 2.8042006e+2, -557350.1, -408132.22, 65807.016, 0.020380594, 0.32905734, -383257.2, -191342.55, 0.0, 9.997919, 9.999879 
2.6745132e+3, 2.9041958e+2, -498884.22, -289161.78, 32451.607, -0.057972867, 0.33244026, -284255.13, -190335.19, 0.0, 9.997473, 10.000238 
2.674409e+3, 3.0041936e+2, -445647.97, -189027.5, 25128.102, -0.15031001, 0.33647355, -186590.13, -186590.13, 0.0, 9.997061, 10.000456 
2.6743072e+3, 3.1041953e+2, -389847.94, -50363.125, 28457.637, 0.048808962, 0.31248462, -47994.168, -47994.168, 0.0, 9.99673, 10.001234 
2.674202e+3, 3.2042027e+2, -534339.3, -129440.18, 2097.0984, -0.09519853, 0.35539547, -129429.32, -129429.32, 0.0, 9.995788, 10.00114 
2.6861674e+3, 1.3055108e+2, -1158408.1, -1740866.5, 39413.03, 0.08060196, 0.33789274, -1155753.4, 504879.5, 0.034112737, 10.005257, 9.99729 
2.6860622e+3, 1.4054893e+2, -978714.1, -1596021.4, 39752.883, 0.04022207, 0.4485032, -976164.7, 586491.7, 0.020813253, 10.005737, 9.997379 
2.685957e+3, 1.505451e+2, -951856.8, -1469818.3, 39670.75, 0.017243063, 0.3521664, -948836.06, 515855.38, 0.00952938, 10.004922, 9.997958 
2.6858526e+3, 1.605415e+2, -986020.25, -1447519.4, 53864.527, 0.034352694, 0.25181207, -979816.75, 386907.63, 0.0028020989, 10.00403, 9.9978695 
2.6857498e+3, 1.7053944e+2, -941075.56, -1337642.0, 108852.58, 0.03968783, 0.2995838, -913161.7, 355583.7, 0.0004182017, 10.003503, 9.998201 
2.6856464e+3, 1.8053769e+2, -901682.94, -1251985.1, 100821.41, 0.025229773, 0.35658976, -874737.9, 296025.53, 0.000016829097, 10.003029, 9.998346 
2.6855427e+3, 1.9053572e+2, -842131.1, -1112976.6, 83998.44, -0.0030875634, 0.35009164, -818195.6, 254586.28, 0.0000000002885943, 10.002512, 9.998875 
2.685439e+3, 2.0053379e+2, -831716.7, -1075368.6, 93964.41, -0.018963672, 0.328846, -799689.2, 175110.42, 0.0, 10.0019865, 9.998715 
2.6853368e+3, 2.1053165e+2, -795199.44, -974863.4, 118865.0, 0.0040757935, 0.28698733, -736039.25, 140780.3, 0.0, 10.001429, 9.998999 
2.6852342e+3, 2.2052981e+2, -766653.8, -902085.94, 104031.945, 0.027870338, 0.25722715, -710240.5, 68596.06, 0.0, 10.000916, 9.999075 
2.685131e+3, 2.305291e+2, -678531.25, -758133.1, 87075.83, 0.027345363, 0.30762786, -622591.3, 58252.805, 0.0, 10.0006275, 9.999528 
2.6850277e+3, 2.4052843e+2, -644176.56, -710118.5, 95593.984, 0.025233893, 0.34802043, -576027.3, 6823.748, 0.0, 10.000273, 9.999357 
2.684925e+3, 2.5052676e+2, -632872.8, -625059.8, 103279.9, 0.011991842, 0.29112595, -525612.56, -40745.11, 0.0, 9.999553, 9.999615 
2.6848215e+3, 2.6052535e+2, -629935.94, -566145.5, 96986.86, -0.0021663967, 0.24330302, -495943.9, -109062.63, 0.0, 9.998869, 9.999677 
2.6847184e+3, 2.7052543e+2, -533171.25, -416146.22, 68970.7, 0.0013560359, 0.30937877, -384211.66, -95329.6, 0.0, 9.9986315, 10.000149 
2.6846147e+3, 2.8052554e+2, -498795.06, -384029.78, 60335.91, 0.008707741, 0.37119174, -358146.66, -167264.78, 0.0, 9.998343, 9.999837 
2.68451e+3, 2.9052478e+2, -470671.5, -296118.8, 46661.13, -0.08027891, 0.3598922, -284428.38, -191538.23, 0.0, 9.997763, 10.000048 
2.684405e+3, 3.0052418e+2, -450186.84, -199884.23, 49418.95, -0.17932707, 0.3408691, -190480.42, -190480.42, 0.0, 9.997076, 10.000369 
2.684304e+3, 3.1052405e+2, -472127.72, -90152.234, 8653.395, 0.12959641, 0.29415622, -89956.3, -89956.3, 0.0, 9.996174, 10.001224 
2.6841968e+3, 3.205256e+2, -459404.84, -71824.625, -24060.828, -0.15300988, 0.40949458, -70336.65, -70336.65, 0.0, 9.996219, 10.001323 
2.6961714e+3, 1.3065681e+2, -1124328.6, -1677045.0, 63169.445, 0.005682723, 0.36186224, -1117200.9, 542394.8, 0.027847297, 10.005268, 9.99772 
2.696068e+3, 1.406531e+2, -990347.2, -1609681.5, 28017.096, 0.08899032, 0.28717384, -989082.4, 572550.25, 0.01675496, 10.005665, 9.997322 
2.6959616e+3, 1.5065044e+2, -986719.9, -1540314.6, 3407.1868, 0.029426303, 0.34210688, -986698.94, 476960.7, 0.007500805, 10.004895, 9.99749 
2.695856e+3, 1.6064794e+2, -976526.44, -1430920.5, 31567.238, 0.0028455013, 0.3854002, -974343.9, 391340.25, 0.0021330123, 10.004037, 9.997982 
2.6957527e+3, 1.7064533e+2, -903103.0, -1258417.8, 92409.54, 0.039334267, 0.32977587, -880506.4, 387202.03, 0.00030586205, 10.003495, 9.998752 
2.6956493e+3, 1.8064295e+2, -901035.06, -1246164.6, 80706.914, 0.060407646, 0.28323925, -883094.75, 286635.53, 0.000011617903, 10.003005, 9.998401 
2.695545e+3, 1.906412e+2, -865215.9, -1161750.0, 64095.63, 0.040168058, 0.32204148, -851954.7, 219793.56, 0.000000000007316074, 10.002512, 9.998542 
2.695441e+3, 2.0063953e+2, -835497.8, -1085996.9, 74323.67, 0.01939794, 0.3538298, -815105.8, 158659.2, 0.0, 10.001994, 9.998641 
2.6953375e+3, 2.1063752e+2, -786991.6, -959912.6, 98264.984, 0.0018696409, 0.31924292, -742565.06, 133218.53, 0.0, 10.001432, 9.999102 
2.695234e+3, 2.2063577e+2, -768868.44, -904407.7, 90120.164, -0.009070004, 0.2888821, -723880.06, 53919.766, 0.0, 10.0009, 9.999068 
2.695131e+3, 2.3063475e+2, -685760.2, -773158.9, 77909.48, 0.014400013, 0.31842923, -640131.4, 39678.94, 0.0, 10.000625, 9.999428 
2.6950276e+3, 2.4063388e+2, -639834.06, -703962.75, 74803.26, 0.0369665, 0.343692, -590512.56, -8693.175, 0.0, 10.00028, 9.999397 
2.6949242e+3, 2.5063264e+2, -622448.25, -605239.25, 72660.21, 0.034815975, 0.31590933, -540675.9, -56844.375, 0.0, 9.999556, 9.999751 
2.6948202e+3, 2.6063156e+2, -637927.3, -583534.06, 80051.24, 0.011010501, 0.2934974, -526185.7, -140343.7, 0.0, 9.998867, 9.999561 
2.6947156e+3, 2.7063105e+2, -554467.8, -461667.25, 60918.594, -0.07529848, 0.33265823, -431490.38, -143642.11, 0.0, 9.998633, 9.999838 
2.6946113e+3, 2.8063074e+2, -496619.88, -386116.6, 42233.395, -0.11538712, 0.37081602, -371823.97, -181971.14, 0.0, 9.998367, 9.999814 
2.6945084e+3, 2.906302e+2, -456301.72, -271129.3, 20374.059, 0.009120501, 0.36915147, -268914.1, -177055.5, 0.0, 9.997776, 10.0002165 
2.6944035e+3, 3.0062965e+2, -477853.97, -258796.0, 17362.229, 0.011217233, 0.3559233, -257428.44, -257428.44, 0.0, 9.997076, 9.999968 
2.6942965e+3, 3.106287e+2, -534216.3, -210657.48, -31860.129, -0.16816407, 0.3003486, -207550.13, -207550.13, 0.0, 9.996135, 10.000417 
2.6941937e+3, 3.2063034e+2, -379486.53, 69106.22, 36171.234, -0.017507354, 0.4595423, 72004.086, 72004.086, 0.0, 9.9963, 10.002265 
2.7061757e+3, 1.3076225e+2, -1101412.6, -1658426.0, 78902.266, -0.027457273, 0.34761807, -1090451.6, 568110.1, 0.022262221, 10.005364, 9.997805 
2.7060726e+3, 1.4075844e+2, -1070905.1, -1626464.9, 17167.924, 0.10890173, 0.25084367, -1070375.1, 490224.34, 0.013183259, 10.00499, 9.997529 
2.705966e+3, 1.5075636e+2, -1019319.94, -1525806.1, 17987.309, 0.030985715, 0.3397154, -1018681.94, 443939.38, 0.0057536955, 10.004539, 9.997757 
2.7058592e+3, 1.6075443e+2, -966421.06, -1414184.6, 76489.234, -0.013718304, 0.4163685, -953715.4, 410926.0, 0.0015763276, 10.004059, 9.998084 
2.7057555e+3, 1.7075163e+2, -926127.0, -1272833.8, 108200.74, 0.043114852, 0.3471803, -895130.7, 371536.38, 0.00021599303, 10.003356, 9.998716 
2.7056518e+3, 1.8074906e+2, -943523.06, -1265612.5, 74040.76, 0.082617186, 0.28294873, -927318.1, 241372.72, 0.0000075416983, 10.002713, 9.9984045 
2.7055472e+3, 1.9074734e+2, -876113.25, -1165554.8, 79149.73, 0.04843769, 0.3249893, -855883.2, 214825.53, 0.0, 10.002436, 9.998549 
2.7054423e+3, 2.0074575e+2, -812995.0, -1070563.5, 101705.37, 0.016577628, 0.36445424, -777677.56, 195047.42, 0.0, 10.002135, 9.998675 
2.7053383e+3, 2.1074383e+2, -773930.56, -949014.0, 117246.805, 0.002752408, 0.3356196, -715149.44, 159593.38, 0.0, 10.001509, 9.999137 
2.7052346e+3, 2.207421e+2, -769253.7, -900504.1, 110445.15, -0.0046106675, 0.30696347, -706407.9, 70350.875, 0.0, 10.000886, 9.999099 
2.705131e+3, 2.3074093e+2, -710560.2, -784615.25, 110027.164, 0.010713298, 0.31967592, -631497.2, 47273.45, 0.0, 10.000458, 9.999427 
2.7050272e+3, 2.4073994e+2, -673618.75, -722229.44, 106348.52, 0.028891942, 0.33454284, -588833.5, -8052.6377, 0.0, 10.000064, 9.999373 
2.7049232e+3, 2.5073898e+2, -599317.94, -598639.94, 87467.27, 0.028456748, 0.3413207, -511511.03, -28720.363, 0.0, 9.99974, 9.999705 
2.7048185e+3, 2.607381e+2, -571646.56, -554261.44, 89812.7, 0.0103385225, 0.34344357, -472721.63, -87921.96, 0.0, 9.99934, 9.999531 
2.704714e+3, 2.7073717e+2, -540190.8, -459150.75, 91059.92, -0.07940154, 0.34395665, -400002.44, -113192.94, 0.0, 9.998757, 9.999791 
2.704609e+3, 2.8073648e+2, -527059.2, -400883.9, 82355.805, -0.12213782, 0.34951565, -360228.94, -171411.75, 0.0, 9.998168, 9.9998045 
2.7045056e+3, 2.9073617e+2, -465547.47, -272914.28, 47336.36, 0.026713401, 0.37386346, -261910.72, -171090.03, 0.0, 9.997707, 10.000234 
2.7044007e+3, 3.007358e+2, -465887.2, -293181.0, 38716.984, 0.050238088, 0.38582072, -284898.7, -284898.7, 0.0, 9.997335, 9.999603 
2.7042922e+3, 3.1073433e+2, -382734.88, -209806.75, 4282.475, -0.23655108, 0.33643588, -209700.77, -209700.77, 0.0, 9.997491, 9.999765 
2.7041903e+3, 3.2073504e+2, -349331.5, 127165.79, 63913.523, 0.039782923, 0.43877375, 135589.7, 135589.7, 0.0, 9.9963255, 10.002647 
2.7161804e+3, 1.3086769e+2, -1109915.5, -1674495.1, 65071.535, -0.040838014, 0.3154733, -1102512.8, 555015.3, 0.01734139, 10.005337, 9.997704 
2.7160773e+3, 1.4086471e+2, -1061636.4, -1578695.3, 2704.41, 0.10449245, 0.2974221, -1061622.3, 497936.13, 0.010080269, 10.004852, 9.997925 
2.7159697e+3, 1.5086284e+2, -975291.9, -1421420.0, 590.0099, 0.023283077, 0.33895534, -975291.1, 486286.16, 0.0042711166, 10.004471, 9.99851 
2.7158627e+3, 1.6086103e+2, -967007.3, -1411780.4, 51753.84, -0.02115065, 0.373931, -961064.6, 402530.75, 0.001121244, 10.004036, 9.998114 
2.7157587e+3, 1.7085838e+2, -963030.4, -1347331.5, 80263.2, 0.04777572, 0.3577317, -946940.7, 318680.8, 0.00014545815, 10.003344, 9.998213 
2.7156544e+3, 1.808559e+2, -947105.94, -1271748.0, 58447.523, 0.09015464, 0.34001976, -936903.9, 230741.97, 0.0000045032148, 10.002704, 9.998368 
2.715549e+3, 1.908541e+2, -856761.94, -1124872.8, 71784.62, 0.026931563, 0.3513279, -838752.0, 230911.66, 0.0, 10.002429, 9.998835 
2.7154437e+3, 2.0085244e+2, -809384.7, -1059341.4, 84584.44, -0.02384191, 0.35979503, -783452.06, 188227.73, 0.0, 10.002115, 9.998765 
2.7153394e+3, 2.1085055e+2, -779543.56, -959831.6, 92440.836, 0.005867689, 0.3378895, -740570.4, 133127.1, 0.0, 10.001502, 9.999067 
2.7152354e+3, 2.2084886e+2, -766660.75, -895801.3, 91383.33, 0.030795809, 0.31562525, -719337.2, 56376.215, 0.0, 10.000884, 9.999134 
2.7151307e+3, 2.3084761e+2, -702462.7, -770165.1, 94571.15, 0.013586856, 0.31286818, -635866.9, 41858.492, 0.0, 10.0004635, 9.999526 
2.7150264e+3, 2.4084657e+2, -681138.7, -738815.1, 92953.72, -0.0039667673, 0.32064816, -612652.5, -32916.836, 0.0, 10.000063, 9.999262 
2.7149218e+3, 2.508458e+2, -617560.06, -637710.56, 74854.81, -0.0096246265, 0.36627126, -552105.5, -70360.086, 0.0, 9.999742, 9.999437 
2.7148172e+3, 2.60845e+2, -564784.56, -546502.5, 70331.33, -0.013556688, 0.3963266, -484720.66, -100966.22, 0.0, 9.999363, 9.999576 
2.7147126e+3, 2.708437e+2, -522499.53, -425012.2, 66156.234, -0.0003535288, 0.3420521, -391581.7, -105815.664, 0.0, 9.998762, 10.000027 
2.714608e+3, 2.8084275e+2, -528507.4, -403735.53, 62824.723, 0.007399738, 0.30290627, -377583.63, -189808.47, 0.0, 9.998162, 9.99979 
2.714502e+3, 2.9084274e+2, -479895.28, -301939.6, 29830.889, -0.056232568, 0.37401277, -297072.16, -207295.63, 0.0, 9.9977, 10.000041 
2.7143955e+3, 3.008427e+2, -484441.2, -336958.72, 37183.316, -0.12593246, 0.44350335, -328114.44, -328114.44, 0.0, 9.997353, 9.999297 
2.714292e+3, 3.1084093e+2, -396626.63, -263200.47, 15467.906, 0.060256954, 0.40340266, -261430.77, -261430.77, 0.0, 9.99759, 9.999354 
2.7141842e+3, 3.208396e+2, -399614.53, 40372.38, -76473.984, -0.15381128, 0.34017703, 53285.324, 53285.324, 0.0, 9.99626, 10.002077 
2.7261856e+3, 1.3097407e+2, -1107683.3, -1658451.8, 57337.676, 0.005141823, 0.31887406, -1101777.4, 554709.8, 0.013089905, 10.005262, 9.997851 
2.7260804e+3, 1.4097172e+2, -1219309.9, -1630012.4, 26708.31, 0.07262359, 0.34858373, -1217580.4, 340931.2, 0.007442048, 10.003643, 9.998153 
2.725973e+3, 1.5096965e+2, -1075057.1, -1440296.3, 20477.137, 0.02294134, 0.34615144, -1073912.8, 386618.63, 0.0030447696, 10.003658, 9.998768 
2.7258664e+3, 1.6096766e+2, -1003390.3, -1414641.9, 38198.6, 0.010903364, 0.3421955, -999872.4, 362677.97, 0.0007609693, 10.003727, 9.9982395 
2.7257612e+3, 1.7096531e+2, -991362.5, -1358450.5, 83111.414, 0.053679608, 0.35189283, -973422.25, 291151.63, 0.00009222209, 10.003144, 9.99823 
2.725656e+3, 1.8096311e+2, -962227.8, -1266196.4, 94496.86, 0.07392604, 0.35901096, -935245.94, 231349.83, 0.0000024128854, 10.002551, 9.998478 
2.7255505e+3, 1.9096124e+2, -882379.3, -1119311.4, 107956.49, 0.028391581, 0.3505075, -840568.06, 228045.66, 0.0, 10.002182, 9.998988 
2.725445e+3, 2.0095952e+2, -849151.0, -1075216.0, 106571.46, -0.0066028205, 0.34131894, -806832.8, 163797.4, 0.0, 10.001833, 9.998788 
2.7253404e+3, 2.1095777e+2, -798068.4, -978136.75, 108983.45, 0.008398788, 0.33940274, -746739.4, 125907.82, 0.0, 10.00142, 9.998978 
2.7252355e+3, 2.2095618e+2, -751028.44, -889286.3, 108779.32, 0.022710878, 0.33572605, -691270.8, 83391.74, 0.0, 10.001002, 9.99912 
2.725131e+3, 2.3095487e+2, -679959.56, -756006.5, 107699.68, 0.009331877, 0.3241685, -603768.3, 72906.77, 0.0, 10.000609, 9.99955 
2.725026e+3, 2.4095371e+2, -663267.8, -728223.94, 103888.43, -0.0033558612, 0.32052767, -586899.06, -8212.833, 0.0, 10.000184, 9.999273 
2.7249208e+3, 2.5095287e+2, -629125.94, -645690.56, 102390.836, -0.016174654, 0.36353767, -534683.0, -53986.496, 0.0, 9.99968, 9.999409 
2.724816e+3, 2.609521e+2, -588959.5, -557683.06, 108169.336, -0.020512197, 0.39645314, -464027.4, -81321.64, 0.0, 9.999205, 9.999571 
2.7247113e+3, 2.7095097e+2, -495427.22, -409458.25, 87240.72, 0.020014873, 0.35712463, -355187.34, -70471.42, 0.0, 9.998945, 10.000041 
2.724606e+3, 2.8095e+2, -463144.88, -375676.13, 70735.23, 0.046810716, 0.32116735, -336247.0, -149522.22, 0.0, 9.998631, 9.999754 
2.724499e+3, 2.909497e+2, -411845.84, -277337.5, 44844.125, -0.088265166, 0.3674186, -263757.78, -175028.61, 0.0, 9.998211, 9.999959 
2.7243918e+3, 3.0094954e+2, -418065.9, -292086.38, 75688.88, -0.20178443, 0.42975804, -256605.25, -256605.25, 0.0, 9.997765, 9.999401 
2.7242905e+3, 3.109485e+2, -428244.03, -250048.88, 106197.51, 0.19663025, 0.4379391, -200523.63, -200523.63, 0.0, 9.997259, 9.9996 
2.7241784e+3, 3.209465e+2, -381806.28, 7356.737, -73275.336, -0.2921039, 0.3112529, 20696.46, 20696.46, 0.0, 9.996571, 10.001697 
2.7361912e+3, 1.3108122e+2, -1094862.0, -1618699.1, -11106.381, 0.078857444, 0.34507293, -1094626.6, 560813.6, 0.009513214, 10.005193, 9.9981575 
2.736083e+3, 1.410794e+2, -1205182.4, -1616397.1, 5708.229, 0.018625213, 0.40268847, -1205103.1, 352355.9, 0.0052668373, 10.003703, 9.998219 
2.7359763e+3, 1.5107682e+2, -1077967.4, -1455255.4, 32128.145, 0.02744729, 0.35872805, -1075251.0, 384231.84, 0.0020679836, 10.003688, 9.998653 
2.7358702e+3, 1.6107444e+2, -992784.06, -1387572.4, 30351.254, 0.067335345, 0.31703886, -990464.3, 371040.7, 0.0004886333, 10.0037, 9.998441 
2.7357638e+3, 1.7107253e+2, -966085.2, -1302682.5, 60856.84, 0.05767585, 0.33320892, -955420.2, 308103.38, 0.000054314478, 10.003126, 9.998623 
2.7356577e+3, 1.8107074e+2, -950640.94, -1240987.1, 77499.92, 0.037017107, 0.34767556, -931249.56, 234291.4, 0.0000011019603, 10.0025425, 9.998657 
2.7355522e+3, 1.910688e+2, -880510.5, -1117416.8, 95028.91, 0.048589643, 0.32837987, -847103.0, 220456.16, 0.0, 10.002187, 9.999001 
2.735447e+3, 2.0106702e+2, -852638.6, -1083895.4, 91661.94, 0.054249343, 0.3148987, -820714.2, 148862.03, 0.0, 10.001836, 9.998729 
2.7353412e+3, 2.1106546e+2, -804497.5, -993813.9, 93287.555, 0.007598413, 0.3416065, -766254.44, 105337.734, 0.0, 10.001427, 9.99887 
2.7352357e+3, 2.2106403e+2, -757644.4, -901563.2, 94574.81, -0.029756194, 0.36312857, -710765.44, 62841.33, 0.0, 10.000992, 9.9990425 
2.7351308e+3, 2.3106264e+2, -685618.3, -768069.3, 93555.87, -0.0020683743, 0.3511456, -624607.6, 51012.574, 0.0, 10.0006075, 9.99947 
2.735026e+3, 2.4106137e+2, -653881.3, -712006.56, 85837.43, 0.02317746, 0.33788383, -592320.0, -14687.639, 0.0, 10.000194, 9.999382 
2.7349204e+3, 2.5106025e+2, -612962.8, -614221.1, 81590.4, 0.008766005, 0.33285654, -531999.1, -52355.043, 0.0, 9.999683, 9.999626 
2.7348146e+3, 2.6105934e+2, -593360.56, -568416.06, 95300.516, -0.014088848, 0.34133828, -484775.16, -103121.39, 0.0, 9.999207, 9.999499 
2.734709e+3, 2.710589e+2, -512876.9, -447491.66, 77826.66, -0.030828252, 0.3925779, -395769.84, -112110.73, 0.0, 9.998949, 9.99978 
2.7346036e+3, 2.8105834e+2, -464033.16, -384959.6, 55972.465, -0.0294901, 0.41919103, -355968.47, -170303.2, 0.0, 9.998659, 9.99968 
2.7344972e+3, 2.910569e+2, -406076.56, -272567.06, 26454.154, -0.049797937, 0.34985125, -267516.4, -179836.9, 0.0, 9.998236, 9.999983 
2.7343896e+3, 3.0105603e+2, -370340.84, -198378.23, 57534.28, -0.13394889, 0.31992462, -180904.34, -180904.34, 0.0, 9.997783, 10.000039 
2.7342856e+3, 3.11057e+2, -358686.78, -98556.44, 89030.06, 0.049678564, 0.43429115, -71004.03, -71004.03, 0.0, 9.997225, 10.000659 
2.7341756e+3, 3.2105628e+2, -394043.6, -36551.66, -154674.75, -0.18860501, 0.3719355, 21080.037, 21080.037, 0.0, 9.996623, 10.001384 
2.7461955e+3, 1.311899e+2, -1155891.0, -1649375.3, 31528.285, 0.07872566, 0.38053578, -1153884.9, 500492.1, 0.0066012666, 10.004758, 9.998157 
2.7460867e+3, 1.4118794e+2, -1140439.9, -1590767.3, 57726.234, 0.048284102, 0.4302533, -1133157.9, 423238.94, 0.0035426323, 10.004171, 9.998168 
2.7459794e+3, 1.5118515e+2, -1075871.3, -1465405.8, 99004.42, 0.03408144, 0.37473533, -1052152.5, 406269.97, 0.0013268911, 10.003757, 9.998547 
2.745873e+3, 1.611826e+2, -1040027.75, -1404588.1, 82943.7, 0.058530986, 0.32405198, -1022043.75, 338402.2, 0.00029403114, 10.003357, 9.9984865 
2.7457663e+3, 1.7118078e+2, -1002093.8, -1306075.5, 91488.03, 0.06470191, 0.3416992, -976683.2, 285780.16, 0.000029276536, 10.002823, 9.998744 
2.74566e+3, 1.8117908e+2, -978458.44, -1256987.6, 100265.82, 0.054834437, 0.35819307, -946119.25, 218360.63, 0.00000039166414, 10.002367, 9.998629 
2.745554e+3, 1.9117704e+2, -887326.1, -1135904.6, 111530.63, 0.052864272, 0.34172514, -844621.7, 221877.84, 0.0, 10.002213, 9.998858 
2.7454484e+3, 2.011752e+2, -822735.4, -1061492.6, 97268.57, 0.051801387, 0.33056527, -788125.6, 180391.8, 0.0, 10.002013, 9.998795 
2.7453423e+3, 2.1117371e+2, -779039.06, -961474.0, 111910.65, 0.019205268, 0.34827998, -725879.9, 144652.13, 0.0, 10.001521, 9.999044 
2.7452365e+3, 2.2117229e+2, -754885.56, -899408.9, 128109.57, -0.0074496125, 0.3613552, -680062.9, 92482.945, 0.0, 10.001013, 9.999043 
2.745131e+3, 2.3117083e+2, -708096.8, -794272.5, 125337.2, 0.006553156, 0.3554077, -618647.94, 55912.37, 0.0, 10.000525, 9.999327 
2.7450255e+3, 2.4116953e+2, -669203.4, -721347.75, 113821.76, 0.021617545, 0.34844154, -578505.94, -1932.4692, 0.0, 10.000103, 9.999359 
2.7449194e+3, 2.5116837e+2, -572679.2, -588838.3, 97259.414, 0.007867782, 0.3384974, -483164.3, -4579.288, 0.0, 9.999941, 9.999674 
2.7448136e+3, 2.611674e+2, -530116.4, -541575.4, 99569.055, -0.016626438, 0.34001508, -436112.1, -55517.184, 0.0, 9.999661, 9.999461 
2.7447072e+3, 2.7116695e+2, -515156.75, -461405.38, 89946.96, -0.062196184, 0.40097558, -394404.78, -111803.81, 0.0, 9.998997, 9.999658 
2.744601e+3, 2.8116643e+2, -500973.94, -399571.4, 80909.58, -0.07340362, 0.43782535, -354789.8, -170182.31, 0.0, 9.998403, 9.999698 
2.744495e+3, 2.9116488e+2, -399809.97, -258051.08, 60066.754, -0.032606713, 0.35079473, -236022.45, -149400.3, 0.0, 9.998236, 10.00008 
2.7443874e+3, 3.01164e+2, -334090.72, -141191.58, 75454.97, -0.08637226, 0.30502847, -115183.11, -115183.11, 0.0, 9.997863, 10.000392 
2.7442813e+3, 3.1116584e+2, -385438.44, -53997.098, 55977.883, -0.035868563, 0.45671394, -44798.176, -44798.176, 0.0, 9.996797, 10.001171 
2.7441728e+3, 3.2116544e+2, -348382.47, -38176.367, -128860.445, -0.07374658, 0.39825055, 8368.721, 8368.721, 0.0, 9.997048, 10.0011635 
2.7561992e+3, 1.3129963e+2, -1181211.6, -1680873.3, 2370.482, 0.033703003, 0.41993618, -1181200.4, 472101.88, 0.0043242765, 10.00466, 9.997986 
2.756091e+3, 1.4129722e+2, -1148926.0, -1610920.8, 38164.117, 0.12720568, 0.44012955, -1145794.6, 409531.78, 0.0022391812, 10.004175, 9.998029 
2.7559826e+3, 1.5129443e+2, -1085586.1, -1486202.3, 83101.18, 0.036041416, 0.39491814, -1069032.1, 388320.13, 0.0007951204, 10.003754, 9.998409 
2.7558753e+3, 1.6129185e+2, -1049855.5, -1421171.3, 63238.902, 0.0009927604, 0.3556053, -1039380.75, 319995.16, 0.00016352431, 10.003337, 9.998384 
2.755769e+3, 1.712899e+2, -1008338.8, -1320972.0, 70194.914, 0.07588615, 0.3691949, -993301.4, 268093.47, 0.000014106576, 10.002828, 9.99864 
2.7556622e+3, 1.8128803e+2, -991775.8, -1287633.9, 89644.8, 0.11253728, 0.3842476, -966733.2, 196680.11, 0.00000009505926, 10.002377, 9.998415 
2.7555555e+3, 1.9128591e+2, -908265.06, -1178320.6, 107632.03, 0.03990967, 0.38422638, -870616.4, 194818.6, 0.0, 10.002205, 9.998572 
2.755449e+3, 2.0128396e+2, -815723.44, -1040843.0, 84207.16, -0.0079433005, 0.37905228, -787711.0, 179743.2, 0.0, 10.001984, 9.998953 
2.7553436e+3, 2.1128245e+2, -751669.7, -903649.4, 92791.516, 0.04317248, 0.35703275, -707723.2, 161743.78, 0.0, 10.0015135, 9.999447 
2.7552375e+3, 2.21281e+2, -752588.25, -895301.94, 109392.72, 0.07703221, 0.33835968, -693336.6, 78142.78, 0.0, 10.001012, 9.999074 
2.755131e+3, 2.3127946e+2, -721154.4, -824138.6, 106742.96, 0.030833317, 0.34070683, -654132.75, 19362.742, 0.0, 10.000533, 9.99912 
2.7550247e+3, 2.4127814e+2, -681052.2, -746774.8, 103481.016, -0.012024327, 0.35120606, -605340.06, -29830.297, 0.0, 10.000102, 9.9991865 
2.7549186e+3, 2.512772e+2, -583136.0, -611827.3, 91715.0, -0.02096584, 0.37998575, -504651.47, -27131.959, 0.0, 9.999943, 9.999516 
2.7548125e+3, 2.612763e+2, -528156.9, -543141.2, 79696.336, -0.03608823, 0.3983598, -455601.3, -76072.26, 0.0, 9.999682, 9.999442 
2.7547055e+3, 2.7127507e+2, -513056.3, -458329.53, 61355.21, -0.070907034, 0.37756324, -418512.44, -136970.28, 0.0, 9.998997, 9.999682 
2.754599e+3, 2.8127408e+2, -492502.25, -380610.5, 67936.875, -0.08084008, 0.36281812, -348548.66, -164995.95, 0.0, 9.998392, 9.999836 
2.7544925e+3, 2.912737e+2, -388508.25, -232536.95, 56211.53, -0.04884965, 0.37639084, -214389.89, -128833.67, 0.0, 9.998225, 10.000261 
2.754385e+3, 3.0127376e+2, -339790.66, -149487.9, 46136.35, -0.08282419, 0.4129154, -138892.67, -138892.67, 0.0, 9.997845, 10.000345 
2.754278e+3, 3.1127495e+2, -408201.13, -90591.5, 7348.0146, 0.0020402025, 0.51501644, -90421.59, -90421.59, 0.0, 9.996742, 10.00095 
2.7541688e+3, 3.2127354e+2, -338507.53, -22573.705, 93503.24, -0.09756382, 0.3664829, 3025.1772, 3025.1772, 0.0, 9.997093, 10.001236 
2.766203e+3, 1.3140869e+2, -1276398.6, -1706016.9, 813.2541, 0.03680729, 0.4164704, -1276397.1, 375836.0, 0.002633139, 10.003902, 9.99818 
2.7660948e+3, 1.4140621e+2, -1143763.3, -1606712.8, 34210.36, 0.13408414, 0.41414198, -1141248.9, 413009.56, 0.0013081181, 10.004203, 9.998045 
2.765986e+3, 1.5140355e+2, -1125059.9, -1517619.6, 72824.336, 0.05767512, 0.39343846, -1111985.5, 344297.9, 0.00043684343, 10.003538, 9.998296 
2.765878e+3, 1.6140111e+2, -1109567.6, -1453320.6, 60814.11, 0.031798184, 0.375525, -1099126.1, 259180.34, 0.000081928505, 10.002944, 9.998351 
2.765771e+3, 1.7139907e+2, -1010770.9, -1321823.8, 77363.234, 0.08992814, 0.38306665, -992592.0, 267733.78, 0.000005757098, 10.002817, 9.998637 
2.7656642e+3, 1.8139715e+2, -956135.94, -1268153.0, 102079.66, 0.1117552, 0.39227876, -925707.0, 236637.58, 0.00000000965895, 10.002621, 9.998428 
2.765557e+3, 1.9139506e+2, -940606.56, -1194934.9, 134536.16, 0.031892385, 0.39688194, -882647.25, 181718.77, 0.0, 10.001992, 9.998559 
2.7654502e+3, 2.0139311e+2, -890136.2, -1072186.3, 122992.93, -0.017266093, 0.39142582, -828148.75, 138236.75, 0.0, 10.001455, 9.99899 
2.7653444e+3, 2.113915e+2, -772569.75, -908514.5, 111494.6, 0.04441019, 0.35671672, -709961.5, 158437.53, 0.0, 10.001352, 9.999488 
2.7652383e+3, 2.2139002e+2, -723036.5, -879635.06, 105864.734, 0.08793575, 0.33359203, -669661.44, 100750.12, 0.0, 10.001216, 9.999082 
2.765131e+3, 2.3138866e+2, -681371.8, -807903.06, 109618.016, 0.0367213, 0.3544763, -618072.6, 54353.66, 0.0, 10.000825, 9.999088 
2.7650243e+3, 2.4138738e+2, -647374.94, -739551.06, 119891.09, -0.009534204, 0.37523994, -565018.5, 9421.815, 0.0, 10.000379, 9.999101 
2.764918e+3, 2.513862e+2, -605689.8, -638468.56, 111504.766, -0.022984201, 0.39189902, -509376.38, -32923.65, 0.0, 9.999864, 9.999369 
2.7648112e+3, 2.613851e+2, -572765.56, -566795.4, 94865.95, -0.039298423, 0.40323424, -474867.56, -96403.4, 0.0, 9.999394, 9.999414 
2.7647042e+3, 2.713839e+2, -492232.78, -445119.9, 72436.805, -0.07192649, 0.38587725, -392505.5, -112028.945, 0.0, 9.999133, 9.999704 
2.764597e+3, 2.8138295e+2, -432510.38, -349100.8, 80270.96, -0.07836798, 0.37053904, -300347.22, -117860.445, 0.0, 9.998796, 9.999854 
2.7644902e+3, 2.913826e+2, -377906.47, -227653.83, 55080.742, -0.041151926, 0.38855007, -209625.16, -125135.22, 0.0, 9.998308, 10.00025 
2.7643824e+3, 3.013827e+2, -352492.84, -177142.95, 18202.9, -0.06845255, 0.4327804, -175273.27, -175273.27, 0.0, 9.997863, 10.00014 
2.7642742e+3, 3.1138343e+2, -307037.8, -80847.32, -34285.21, -0.02765281, 0.5262761, -75764.695, -75764.695, 0.0, 9.997615, 10.000591 
2.7641654e+3, 3.213815e+2, -297482.13, 8966.622, 129736.45, -0.1470975, 0.34550497, 56513.9, 56513.9, 0.0, 9.997331, 10.001335 
2.7762064e+3, 1.3151747e+2, -1245860.1, -1645521.4, 21120.133, 0.061455537, 0.38653323, -1244747.1, 406418.97, 0.001458837, 10.003918, 9.998586 
2.776098e+3, 1.415151e+2, -1149542.3, -1600618.3, 20512.545, 0.08928407, 0.36586156, -1148611.4, 404579.3, 0.00068923016, 10.004122, 9.998126 
2.7759892e+3, 1.5151268e+2, -1133482.9, -1534610.5, 44019.977, 0.09420348, 0.37615073, -1128708.9, 326505.66, 0.00021373408, 10.0035305, 9.998185 
2.7758813e+3, 1.6151044e+2, -1103426.0, -1449277.0, 49511.664, 0.12366182, 0.3847024, -1096477.6, 260758.9, 0.000035174562, 10.002978, 9.998364 
2.7757734e+3, 1.7150843e+2, -1003748.06, -1312081.9, 75261.06, 0.10034855, 0.38817993, -986358.4, 272896.6, 0.0000017161015, 10.002835, 9.998696 
2.7756655e+3, 1.8150653e+2, -945534.25, -1245764.3, 85361.09, 0.059854623, 0.3898039, -922961.56, 238311.36, 0.00000000000031198744, 10.002616, 9.998586 
2.7755582e+3, 1.9150454e+2, -926967.1, -1167159.6, 109765.266, 0.02928032, 0.38505748, -884362.6, 178930.06, 0.0, 10.001991, 9.998753 
2.7754515e+3, 2.0150262e+2, -898027.4, -1088139.1, 112205.35, 0.012399813, 0.37484753, -846026.56, 119284.9, 0.0, 10.001451, 9.998885 
2.7753448e+3, 2.1150085e+2, -793491.1, -951673.3, 108971.53, 0.021688908, 0.34943596, -737933.8, 129394.4, 0.0, 10.0013485, 9.999195 
2.7752382e+3, 2.2149934e+2, -727461.1, -884917.8, 95207.55, 0.02782358, 0.3417313, -682647.5, 86695.15, 0.0, 10.001195, 9.999057 
2.7751315e+3, 2.3149836e+2, -673244.0, -791184.3, 94386.12, 0.026292557, 0.39287663, -620920.8, 50432.242, 0.0, 10.000822, 9.999206 
2.7750245e+3, 2.4149723e+2, -648809.9, -744709.5, 101228.34, 0.020884875, 0.4237927, -584749.1, -11384.225, 0.0, 10.000384, 9.999064 
2.7749175e+3, 2.5149527e+2, -615365.94, -659934.75, 90682.625, 0.0006577928, 0.3746463, -544269.75, -68885.0, 0.0, 9.999865, 9.999223 
2.7748102e+3, 2.6149374e+2, -576964.44, -575478.56, 81624.65, -0.02857423, 0.35143927, -494593.5, -117192.805, 0.0, 9.999391, 9.999359 
2.7747026e+3, 2.714935e+2, -493328.94, -447301.53, 62689.41, -0.06585598, 0.4307389, -403535.03, -124131.06, 0.0, 9.999131, 9.999691 
2.7745953e+3, 2.8149304e+2, -441932.84, -371866.72, 63486.75, -0.06875602, 0.47473827, -334388.53, -152979.55, 0.0, 9.998808, 9.999694 
2.7744883e+3, 2.9149133e+2, -398524.22, -271325.8, 31575.451, -0.0040910016, 0.38127056, -263918.9, -180493.8, 0.0, 9.998305, 9.999955 
2.7743796e+3, 3.014902e+2, -378363.16, -236781.17, 3035.1978, -0.046736017, 0.33775243, -236716.14, -236716.14, 0.0, 9.997882, 9.999725 
2.77427e+3, 3.1149083e+2, -336651.1, -156749.45, -44691.223, -0.16635887, 0.472428, -146258.97, -146258.97, 0.0, 9.997676, 10.000041 
2.7741623e+3, 3.2148936e+2, -296759.5, 2825.4534, 13320.187, -0.09877457, 0.3752836, 3416.531, 3416.531, 0.0, 9.997319, 10.001321 
2.7862102e+3, 1.3162659e+2, -1269313.8, -1691312.0, 29712.521, 0.11851963, 0.36882573, -1267232.0, 382865.3, 0.0007142338, 10.003897, 9.998285 
2.7861008e+3, 1.4162458e+2, -1253241.8, -1632319.4, 2776.2217, 0.069393255, 0.40011442, -1253221.5, 298898.25, 0.00031687476, 10.003329, 9.99829 
2.785992e+3, 1.5162247e+2, -1137188.0, -1493929.3, 51258.336, 0.083955765, 0.40566424, -1129969.0, 324171.0, 0.000088819485, 10.003328, 9.998559 
2.785884e+3, 1.616204e+2, -1047541.7, -1407559.3, 76762.19, 0.12847587, 0.40304002, -1031857.9, 324301.9, 0.000011727656, 10.0033045, 9.998491 
2.7857757e+3, 1.7161818e+2, -995309.2, -1310437.4, 98270.9, 0.096928865, 0.38504708, -967175.6, 291004.66, 0.00000025139548, 10.002906, 9.998673 
2.7856675e+3, 1.816161e+2, -960863.44, -1244373.4, 94927.99, 0.053357787, 0.37151042, -932014.25, 228185.4, 0.0, 10.002471, 9.998667 
2.7855602e+3, 1.916143e+2, -919442.94, -1148986.8, 110807.55, 0.04877256, 0.37458503, -874681.5, 187535.7, 0.0, 10.0019865, 9.998877 
2.7854526e+3, 2.016126e+2, -888358.56, -1083077.3, 120502.266, 0.046832997, 0.37708262, -830799.75, 133434.11, 0.0, 10.001527, 9.9988785 
2.7853453e+3, 2.1161091e+2, -833987.06, -984390.06, 131971.3, 0.021677623, 0.37051904, -757294.9, 108955.74, 0.0, 10.001134, 9.999071 
2.7852383e+3, 2.2160938e+2, -784327.7, -912605.4, 125737.54, 0.0039906655, 0.37184992, -707315.1, 60950.75, 0.0, 10.00081, 9.999051 
2.7851313e+3, 2.316083e+2, -691535.1, -794390.56, 119767.555, 0.011593363, 0.40741703, -612620.7, 57656.5, 0.0, 10.000677, 9.999251 
2.7850243e+3, 2.416071e+2, -629776.75, -734190.1, 119208.14, 0.017978372, 0.42779732, -551844.6, 20444.94, 0.0, 10.000516, 9.99907 
2.784917e+3, 2.5160512e+2, -569254.9, -641237.44, 112659.56, 0.0050006364, 0.3819355, -486977.2, -12667.762, 0.0, 10.000202, 9.9991865 
2.7848095e+3, 2.6160356e+2, -508451.03, -538367.0, 114296.31, -0.017653259, 0.35986823, -408138.1, -31812.664, 0.0, 9.999846, 9.9993925 
2.7847013e+3, 2.716034e+2, -437387.38, -413801.97, 101226.64, -0.058221355, 0.44183126, -323683.44, -45355.9, 0.0, 9.999495, 9.9997425 
2.7845937e+3, 2.8160295e+2, -414014.0, -379770.13, 98065.81, -0.058855128, 0.49054575, -297342.75, -117010.48, 0.0, 9.999103, 9.999493 
2.784486e+3, 2.9160085e+2, -371608.84, -296388.8, 59114.91, 0.0060677174, 0.39072612, -263933.94, -181581.14, 0.0, 9.99866, 9.999608 
2.7843773e+3, 3.0159923e+2, -335017.03, -244914.73, 44999.824, -0.053770125, 0.33385393, -226290.23, -226290.23, 0.0, 9.998309, 9.999461 
2.7842668e+3, 3.1159946e+2, -248136.17, -134987.58, 20662.104, -0.20794751, 0.44521874, -131332.53, -131332.53, 0.0, 9.998383, 9.9998455 
2.7841598e+3, 3.2159814e+2, -310871.84, -15941.737, 18380.38, -0.02782036, 0.38869247, -14800.666, -14800.666, 0.0, 9.997282, 10.001206 
2.7962142e+3, 1.3173603e+2, -1321635.1, -1794648.8, -1544.8759, 0.19143187, 0.36341104, -1321630.1, 327396.6, 0.00029785137, 10.003875, 9.997585 
2.7961037e+3, 1.4173459e+2, -1227623.5, -1590939.0, -814.4655, 0.061816785, 0.48986584, -1227621.6, 323423.6, 0.00012123356, 10.003378, 9.998551 
2.7959943e+3, 1.5173285e+2, -1088975.5, -1392950.9, 55163.113, 0.036582116, 0.4681414, -1079274.5, 373785.75, 0.000028714292, 10.003321, 9.999258 
2.795886e+3, 1.6173092e+2, -1046507.3, -1389211.6, 66012.83, 0.064686954, 0.42954826, -1034231.44, 320845.44, 0.0000024460635, 10.003233, 9.998652 
2.795778e+3, 1.7172827e+2, -1010168.56, -1331064.9, 81588.19, 0.08445545, 0.37398666, -990616.06, 266486.03, 0.0000000042322403, 10.002858, 9.998557 
2.7956697e+3, 1.817259e+2, -963791.7, -1244608.5, 76520.305, 0.083498254, 0.33811182, -944294.25, 214830.42, 0.0, 10.002443, 9.99868 
2.7955619e+3, 1.917244e+2, -914665.7, -1140105.9, 92477.164, 0.08301594, 0.3657622, -881585.1, 179554.08, 0.0, 10.001988, 9.998938 
2.795454e+3, 2.0172304e+2, -884075.25, -1075467.6, 104903.04, 0.078585185, 0.3958291, -837777.06, 125375.52, 0.0, 10.00153, 9.998931 
2.795346e+3, 2.1172166e+2, -831353.9, -980913.5, 117805.97, 0.041501474, 0.41652316, -766597.75, 98568.914, 0.0, 10.001139, 9.999094 
2.7952388e+3, 2.2172022e+2, -786125.94, -915737.75, 118500.07, 0.0059792404, 0.42521355, -715868.6, 51312.723, 0.0, 10.000804, 9.999033 
2.7951312e+3, 2.3171848e+2, -693901.25, -801224.4, 115606.76, -0.010093234, 0.39980558, -620108.94, 49089.77, 0.0, 10.000682, 9.999204 
2.795024e+3, 2.417169e+2, -627955.75, -730830.75, 109427.484, -0.019838253, 0.3863995, -558479.25, 12735.187, 0.0, 10.000514, 9.999096 
2.7949166e+3, 2.5171572e+2, -565249.4, -633722.94, 99951.195, -0.010919361, 0.4135463, -493833.88, -20606.977, 0.0, 10.000203, 9.999238 
2.7948087e+3, 2.6171464e+2, -498251.06, -522022.6, 100958.7, -0.01496219, 0.43160704, -408480.88, -33242.79, 0.0, 9.999865, 9.999497 
2.7947006e+3, 2.7171355e+2, -428434.6, -399004.44, 86979.516, -0.05066859, 0.41316193, -325504.03, -48256.375, 0.0, 9.999506, 9.999841 
2.7945924e+3, 2.817125e+2, -430463.7, -418551.2, 82315.56, -0.056678616, 0.40398198, -341976.66, -162718.92, 0.0, 9.99912, 9.99922 
2.7944842e+3, 2.917112e+2, -400468.2, -358330.9, 41370.9, -0.019396232, 0.42571938, -332972.84, -251700.58, 0.0, 9.998668, 9.999181 
2.7943745e+3, 3.017101e+2, -340909.47, -256637.06, 42416.78, -0.08760137, 0.44812322, -238984.95, -238984.95, 0.0, 9.998304, 9.999384 
2.7942654e+3, 3.1170928e+2, -230452.25, -108992.914, 25846.658, -0.1258167, 0.44898653, -103721.5, -103721.5, 0.0, 9.998421, 10.00001 
2.7941564e+3, 3.21708e+2, -350208.06, -83000.39, -68646.555, -0.05420369, 0.3920355, -66396.586, -66396.586, 0.0, 9.997238, 10.000757 
2.8062177e+3, 1.318463e+2, -1285249.6, -1705769.5, 490.8529, 0.2046101, 0.42860004, -1285249.1, 362700.66, 0.000100037316, 10.003817, 9.998224 
2.8061062e+3, 1.4184456e+2, -1194418.4, -1546923.1, 47016.777, 0.054160077, 0.47694752, -1188255.1, 361712.9, 0.00003524401, 10.003486, 9.998802 
2.8059968e+3, 1.5184295e+2, -1152075.4, -1416679.0, 70821.32, 0.037075967, 0.46184945, -1134312.4, 317669.4, 0.000006022763, 10.002862, 9.999314 
2.8058884e+3, 1.6184124e+2, -1166316.4, -1437277.8, 57117.313, 0.071506456, 0.43771538, -1154768.5, 199228.44, 0.00000016363987, 10.002368, 9.99874 
2.80578e+3, 1.7183891e+2, -1093460.8, -1361252.1, 85846.5, 0.08514993, 0.4053994, -1068304.0, 187715.53, 0.0, 10.00225, 9.99864 
2.8056714e+3, 1.8183678e+2, -997313.2, -1245434.0, 90430.85, 0.07972795, 0.38319674, -967852.5, 190187.75, 0.0, 10.002159, 9.998805 
2.805563e+3, 1.9183524e+2, -903558.4, -1123375.4, 107222.74, 0.077640876, 0.39588124, -859920.1, 200134.6, 0.0, 10.00202, 9.999036 
2.805455e+3, 2.018338e+2, -841270.6, -1047656.1, 116731.69, 0.07896693, 0.41091362, -788658.9, 173409.52, 0.0, 10.00179, 9.998998 
2.8053468e+3, 2.1183239e+2, -809104.0, -964486.75, 127858.96, 0.054258596, 0.4227487, -737183.0, 126899.58, 0.0, 10.001271, 9.999142 
2.805239e+3, 2.2183092e+2, -782037.2, -913367.8, 138168.13, 0.02337519, 0.4276542, -694724.2, 71372.97, 0.0, 10.000837, 9.999029 
2.8051314e+3, 2.3182917e+2, -692017.56, -805379.7, 139066.5, -0.008055124, 0.40597957, -598524.6, 69590.266, 0.0, 10.000724, 9.999152 
2.8050238e+3, 2.418276e+2, -623046.1, -720863.7, 125934.08, -0.025722664, 0.39590523, -536856.94, 33273.82, 0.0, 10.00052, 9.99916 
2.804916e+3, 2.5182664e+2, -585017.25, -631358.56, 115830.9, -0.016800914, 0.43363208, -490062.25, -17921.143, 0.0, 10.000022, 9.999339 
2.8048077e+3, 2.6182565e+2, -539597.4, -542239.4, 120233.43, -0.01797072, 0.4575904, -420677.72, -46526.66, 0.0, 9.999589, 9.999488 
2.8046995e+3, 2.718243e+2, -435077.94, -412034.88, 94583.68, -0.052598592, 0.41940486, -328273.6, -52110.29, 0.0, 9.999504, 9.999751 
2.8045908e+3, 2.8182304e+2, -397067.78, -406178.6, 83122.26, -0.060780954, 0.39478225, -318376.2, -140200.53, 0.0, 9.999362, 9.999189 
2.8044823e+3, 2.9182193e+2, -345534.2, -332140.94, 70890.34, -0.035847362, 0.43753454, -267631.63, -187443.31, 0.0, 9.999049, 9.999175 
2.8043723e+3, 3.0182105e+2, -290136.34, -236386.28, 99150.23, -0.09886953, 0.4846964, -160533.34, -160533.34, 0.0, 9.998677, 9.999341 
2.8042635e+3, 3.1182018e+2, -257347.7, -131207.28, 73936.79, -0.086751185, 0.49031496, -97094.68, -97094.68, 0.0, 9.998277, 9.999926 
2.804153e+3, 3.2181877e+2, -215361.86, -27273.992, -84049.836, -0.11126349, 0.42686638, 4811.5176, 4811.5176, 0.0, 9.998208, 10.0006695 
2.8162205e+3, 1.3195722e+2, -1198951.3, -1503015.4, -4132.7905, 0.17114596, 0.5320105, -1198895.1, 447972.47, 0.000023984428, 10.00372, 9.99966 
2.816109e+3, 1.4195462e+2, -1196702.6, -1530851.8, 25748.875, 0.04288223, 0.3942483, -1194730.1, 354157.8, 0.0000064487667, 10.003396, 9.998956 
2.8159994e+3, 1.5195298e+2, -1182832.6, -1480401.1, 45608.56, 0.07082803, 0.40993047, -1175999.0, 274904.63, 0.00000052844416, 10.002857, 9.998882 
2.8158906e+3, 1.6195151e+2, -1154492.4, -1424994.8, 47230.008, 0.12889649, 0.43572083, -1146483.1, 206435.14, 0.0000000005064632, 10.0024185, 9.998801 
2.8157815e+3, 1.7195009e+2, -1070870.8, -1321536.4, 83792.01, 0.090099044, 0.4709726, -1045440.8, 209491.86, 0.0, 10.002278, 9.9989 
2.8156728e+3, 1.8194857e+2, -986447.3, -1221477.4, 86980.72, 0.040414166, 0.48910528, -957759.0, 199188.55, 0.0, 10.002151, 9.998976 
2.8155643e+3, 1.9194672e+2, -899380.06, -1109630.5, 102549.29, 0.039313797, 0.4556979, -857645.94, 201318.67, 0.0, 10.001994, 9.999144 
2.815456e+3, 2.0194489e+2, -841753.2, -1040845.8, 100741.53, 0.050705574, 0.42200837, -799672.1, 161309.2, 0.0, 10.001754, 9.999063 
2.8153476e+3, 2.119431e+2, -806194.0, -958857.5, 106800.79, 0.06020835, 0.39314854, -751251.44, 111746.586, 0.0, 10.00127, 9.999182 
2.8152394e+3, 2.2194152e+2, -783443.5, -915999.9, 128922.33, 0.051878158, 0.38312975, -704760.44, 60252.85, 0.0, 10.0008335, 9.999015 
2.8151318e+3, 2.3194036e+2, -695675.06, -814315.6, 135301.69, 0.015521689, 0.42616698, -607261.0, 59765.01, 0.0, 10.000727, 9.99909 
2.815024e+3, 2.419392e+2, -615199.5, -706911.8, 110603.875, -0.011366695, 0.45700675, -541322.56, 27715.844, 0.0, 10.000527, 9.999253 
2.8149152e+3, 2.5193784e+2, -575095.25, -611167.3, 95227.45, -0.014751287, 0.44209698, -496210.84, -25158.846, 0.0, 10.000019, 9.999482 
2.8148067e+3, 2.619366e+2, -551404.9, -566805.8, 112159.42, -0.029855072, 0.43725657, -446681.9, -73617.52, 0.0, 9.999586, 9.999323 
2.814698e+3, 2.7193567e+2, -457290.3, -458380.34, 91397.25, -0.06636531, 0.46762905, -366436.47, -91362.1, 0.0, 9.999504, 9.999434 
2.8145894e+3, 2.8193456e+2, -375324.7, -364266.34, 73095.77, -0.07468103, 0.47507086, -296490.9, -119405.54, 0.0, 9.999373, 9.999473 
2.8144804e+3, 2.9193294e+2, -308659.72, -259365.78, 59013.27, -0.042563446, 0.4150777, -220059.34, -140958.02, 0.0, 9.999061, 9.999672 
2.8143704e+3, 3.0193192e+2, -287334.4, -237280.02, 87048.49, -0.09887449, 0.41851136, -171732.38, -171732.38, 0.0, 9.998703, 9.999324 
2.814261e+3, 3.1193256e+2, -283972.13, -183193.78, 59873.457, -0.103998, 0.5989511, -155327.61, -155327.61, 0.0, 9.99826, 9.999578 
2.8141502e+3, 3.219301e+2, -165844.02, 53953.418, -60136.97, -0.14149554, 0.4452757, 69331.125, 69331.125, 0.0, 9.998288, 10.001195 
2.826223e+3, 1.3206825e+2, -1339423.1, -1562056.6, 43386.742, 0.16875723, 0.56320524, -1331266.8, 314513.8, 0.0000033281458, 10.002713, 9.999742 
2.826112e+3, 1.4206532e+2, -1287896.9, -1580596.3, 15784.693, 0.065626025, 0.38919932, -1287048.1, 260755.44, 0.00000050691085, 10.002797, 9.998901 
2.826002e+3, 1.5206374e+2, -1200728.0, -1503129.4, 50217.72, 0.09455706, 0.4207031, -1192606.8, 257212.78, 0.0000000023756648, 10.002802, 9.998749 
2.825893e+3, 1.6206235e+2, -1094934.0, -1371783.6, 63440.605, 0.14576802, 0.45646003, -1081088.9, 270744.78, 0.0, 10.002728, 9.999014 
2.8257832e+3, 1.7206109e+2, -1040938.5, -1271144.3, 101178.48, 0.085667774, 0.47662613, -1002790.75, 251054.92, 0.0, 10.00233, 9.999221 
2.8256738e+3, 1.8205972e+2, -1012561.9, -1224293.9, 103571.555, 0.02642411, 0.48679617, -970324.25, 185534.19, 0.0, 10.001925, 9.999067 
2.8255653e+3, 1.9205795e+2, -970668.3, -1145280.5, 112400.02, 0.04449883, 0.46296713, -915650.44, 142224.94, 0.0, 10.001515, 9.999127 
2.8254572e+3, 2.0205615e+2, -920355.5, -1084298.0, 106026.586, 0.066006355, 0.4360804, -868308.4, 91584.01, 0.0, 10.001249, 9.9990015 
2.8253484e+3, 2.1205428e+2, -799186.25, -967454.6, 102596.73, 0.060825303, 0.40745753, -750637.94, 111272.33, 0.0, 10.001376, 9.999068 
2.82524e+3, 2.2205263e+2, -706923.6, -871015.0, 114814.92, 0.04992041, 0.3974168, -647852.5, 116073.63, 0.0, 10.001327, 9.999084 
2.825132e+3, 2.3205164e+2, -693143.5, -798490.75, 129956.055, 0.02466006, 0.44381097, -605592.0, 60344.79, 0.0, 10.000685, 9.999218 
2.8250238e+3, 2.420506e+2, -658692.06, -718800.8, 117114.72, 0.00004008127, 0.47533748, -567836.9, 110.94275, 0.0, 10.000194, 9.9993305 
2.8249148e+3, 2.5204915e+2, -535486.6, -586813.9, 96208.89, -0.027838467, 0.4452272, -461577.34, 8384.906, 0.0, 10.000271, 9.999526 
2.8248057e+3, 2.6204786e+2, -462570.28, -522832.6, 111243.234, -0.055167325, 0.43236876, -377449.78, -5474.678, 0.0, 10.000191, 9.999333 
2.824697e+3, 2.720471e+2, -439470.25, -451823.75, 110757.16, -0.07438009, 0.4837729, -334717.75, -60734.156, 0.0, 9.9996395, 9.999413 
2.824588e+3, 2.8204617e+2, -392169.06, -355796.7, 106215.64, -0.064732894, 0.50422823, -266221.56, -90228.25, 0.0, 9.999196, 9.999613 
2.824479e+3, 2.9204443e+2, -271751.25, -222743.31, 70649.46, -0.039401896, 0.41818532, -172469.0, -94459.555, 0.0, 9.999237, 9.999838 
2.8243688e+3, 3.0204335e+2, -203424.13, -182136.98, 82286.945, -0.11068336, 0.40061045, -109808.11, -109808.11, 0.0, 9.999214, 9.999458 
2.8242588e+3, 3.1204423e+2, -177828.56, -123326.53, 78637.01, -0.1284391, 0.5939642, -67352.57, -67352.57, 0.0, 9.998954, 9.999654 
2.8241476e+3, 3.220417e+2, -202255.44, 2743.0244, -34635.59, -0.13341673, 0.43671423, 8436.753, 8436.753, 0.0, 9.998194, 10.000883 
2.8362253e+3, 1.3217948e+2, -1384455.1, -1664477.5, 41660.723, 0.19133766, 0.55662435, -1378388.4, 266301.22, 0.00000016214108, 10.002756, 9.999016 
2.8361142e+3, 1.4217664e+2, -1295994.6, -1600280.8, 17188.316, 0.0991585, 0.44178942, -1295026.8, 251687.95, 0.0000000020979667, 10.002809, 9.998761 
2.8360042e+3, 1.5217511e+2, -1196093.3, -1493223.9, 52277.895, 0.09987099, 0.47328964, -1187163.8, 261566.61, 0.0, 10.002797, 9.998821 
2.8358948e+3, 1.6217363e+2, -1081540.6, -1335525.8, 53480.32, 0.12846681, 0.48781672, -1070738.9, 280005.63, 0.0, 10.002689, 9.999284 
2.835785e+3, 1.7217198e+2, -1024093.94, -1227287.1, 84694.55, 0.07641912, 0.435824, -993421.75, 259336.38, 0.0, 10.00229, 9.999543 
2.8356752e+3, 1.8217042e+2, -1015469.2, -1223462.3, 85880.43, 0.033555035, 0.40420827, -984592.7, 170178.98, 0.0, 10.001895, 9.999088 
2.8355667e+3, 1.9216906e+2, -974398.2, -1159194.5, 96074.01, 0.08259851, 0.42990533, -933501.06, 123285.2, 0.0, 10.00154, 9.999022 
2.835458e+3, 2.0216762e+2, -929625.3, -1110579.1, 105525.42, 0.11044404, 0.45256507, -881099.75, 77701.734, 0.0, 10.001277, 9.998809 
2.835349e+3, 2.1216588e+2, -815701.7, -1003320.06, 109226.234, 0.053582236, 0.46128595, -765529.9, 95289.51, 0.0, 10.00138, 9.998822 
2.8352404e+3, 2.2216427e+2, -699318.9, -850673.8, 99806.945, 0.010211476, 0.46444526, -649742.56, 113092.93, 0.0, 10.001306, 9.999236 
2.8351322e+3, 2.3216303e+2, -673666.8, -757229.94, 104695.93, 0.019213205, 0.45769057, -602723.3, 62123.94, 0.0, 10.000678, 9.999506 
2.8350234e+3, 2.421618e+2, -657171.8, -715514.0, 112513.52, 0.008617626, 0.45165318, -570109.3, -3250.4177, 0.0, 10.00019, 9.999355 
2.834914e+3, 2.521605e+2, -540174.75, -599189.94, 100031.8, -0.05854873, 0.44367617, -465389.22, 3482.8699, 0.0, 10.00028, 9.999437 
2.834805e+3, 2.6215932e+2, -443115.28, -489062.78, 95350.47, -0.10590566, 0.44324136, -368009.94, 2873.5984, 0.0, 10.0002165, 9.999555 
2.8346962e+3, 2.7215856e+2, -417195.4, -406240.06, 87262.69, -0.076958604, 0.46245182, -324283.28, -51391.992, 0.0, 9.999638, 9.999729 
2.834587e+3, 2.8215775e+2, -396166.47, -363852.1, 101995.05, -0.03501122, 0.47332072, -276742.44, -101842.66, 0.0, 9.999192, 9.99956 
2.8344777e+3, 2.9215652e+2, -288407.06, -258294.0, 73402.31, -0.026919251, 0.4577128, -198419.9, -121508.01, 0.0, 9.99924, 9.999593 
2.834367e+3, 3.0215546e+2, -175777.75, -127977.94, 75976.586, -0.13141224, 0.44666937, -72230.83, -72230.83, 0.0, 9.999226, 9.999826 
2.8342566e+3, 3.121547e+2, -131590.73, -35756.14, 68930.83, -0.17280012, 0.42320105, 276.10666, 276.10666, 0.0, 9.998986, 10.000242 
2.8341454e+3, 3.2215413e+2, -330227.22, -246509.25, -94155.92, -0.1086328, 0.47881302, -185326.92, -185326.92, 0.0, 9.998127, 9.999201 
2.846228e+3, 1.3229007e+2, -1346714.6, -1648666.8, 21682.525, 0.1955317, 0.5181904, -1345165.5, 298439.75, 0.00000000032983427, 10.003019, 9.999 
2.8461167e+3, 1.4228803e+2, -1310442.8, -1592640.6, 24473.797, 0.13907424, 0.48136047, -1308336.0, 237287.75, 0.0, 10.0026455, 9.998893 
2.8460062e+3, 1.5228638e+2, -1248527.0, -1502225.4, 66912.945, 0.096613124, 0.48540112, -1231960.5, 215680.13, 0.0, 10.002369, 9.998965 
2.8458965e+3, 1.622848e+2, -1159454.3, -1361172.9, 60232.645, 0.106809124, 0.4770893, -1142837.8, 206818.03, 0.0, 10.002104, 9.999389 
2.8457865e+3, 1.7228328e+2, -1100887.5, -1255034.3, 76013.56, 0.09755447, 0.4310027, -1069709.5, 181958.53, 0.0, 10.001728, 9.9996195 
2.8456768e+3, 1.8228187e+2, -1063438.8, -1237565.3, 80648.2, 0.073741585, 0.40551758, -1031825.4, 121854.98, 0.0, 10.001534, 9.99916 
2.8455678e+3, 1.9228065e+2, -928933.44, -1132482.0, 101276.195, 0.07736737, 0.44236675, -887128.94, 168564.81, 0.0, 10.001835, 9.999062 
2.8454587e+3, 2.0227937e+2, -827950.06, -1047957.25, 116215.89, 0.083074525, 0.4741211, -777932.0, 179775.83, 0.0, 10.001915, 9.998934 
2.84535e+3, 2.1227773e+2, -818515.5, -988576.1, 142104.86, 0.054643657, 0.47844574, -737944.06, 121780.484, 0.0, 10.001294, 9.998964 
2.8452408e+3, 2.2227618e+2, -763954.3, -872893.6, 147415.11, 0.02422356, 0.4781914, -661267.5, 100472.36, 0.0, 10.000828, 9.999311 
2.845132e+3, 2.322749e+2, -641727.9, -738153.9, 133838.06, 0.008422488, 0.46594408, -547683.7, 116068.266, 0.0, 10.000886, 9.999535 
2.8450233e+3, 2.4227369e+2, -577906.56, -675393.3, 129132.47, -0.007171239, 0.4581185, -488624.2, 77139.45, 0.0, 10.00073, 9.99937 
2.844914e+3, 2.522725e+2, -585169.2, -622617.06, 121121.85, -0.045347527, 0.46267042, -481332.56, -13556.806, 0.0, 9.999982, 9.999419 
2.8448045e+3, 2.6227137e+2, -553457.9, -536183.75, 117868.055, -0.07639219, 0.46448362, -426636.72, -56849.758, 0.0, 9.999439, 9.999603 
2.8446952e+3, 2.7227035e+2, -413685.16, -396127.6, 91653.19, -0.075445846, 0.45309412, -312833.72, -41037.125, 0.0, 9.999627, 9.999804 
2.8445858e+3, 2.8226948e+2, -331669.22, -340534.94, 95389.484, -0.055193093, 0.45682397, -240609.64, -66804.17, 0.0, 9.999663, 9.999497 
2.8444764e+3, 2.922688e+2, -288721.84, -272399.03, 74733.9, -0.046485994, 0.50708187, -205382.22, -129569.13, 0.0, 9.999299, 9.999468 
2.8443655e+3, 3.0226785e+2, -201794.67, -106473.516, 75166.086, -0.1343038, 0.5055017, -65131.45, -65131.45, 0.0, 9.998912, 10.00012 
2.8442553e+3, 3.1226596e+2, -162840.33, -4166.9487, 54061.566, -0.14910303, 0.32449222, 12501.378, 12501.378, 0.0, 9.998582, 10.000651 
2.8441438e+3, 3.2226664e+2, -146745.25, -254428.9, -75834.67, -0.09758055, 0.5140669, -107582.57, -107582.57, 0.0, 9.999802, 9.998342 
2.8562298e+3, 1.3240032e+2, -1327330.8, -1593583.1, 7382.109, 0.16812846, 0.4588824, -1327126.3, 315398.22, 0.0, 10.00296, 9.999403 
2.8561193e+3, 1.4239952e+2, -1298038.6, -1556632.4, 12839.408, 0.18751231, 0.511156, -1297402.6, 247128.31, 0.0, 10.002603, 9.999161 
2.8560078e+3, 1.5239765e+2, -1240540.9, -1478156.5, 57905.285, 0.09341022, 0.47291917, -1227180.9, 219368.9, 0.0, 10.002334, 9.999149 
2.8558978e+3, 1.62396e+2, -1164842.3, -1363835.4, 48283.055, 0.08070401, 0.44425574, -1153745.8, 194820.44, 0.0, 10.002066, 9.99939 
2.8557882e+3, 1.7239496e+2, -1103910.6, -1265727.6, 63057.688, 0.13544105, 0.4532587, -1082240.1, 168335.13, 0.0, 10.001745, 9.999538 
2.8556782e+3, 1.8239391e+2, -1053926.5, -1224120.6, 87200.09, 0.13033502, 0.46662682, -1017182.0, 135403.13, 0.0, 10.001559, 9.999242 
2.8555685e+3, 1.923927e+2, -923924.25, -1115708.3, 114999.23, 0.03436519, 0.4903247, -870082.9, 184515.25, 0.0, 10.001803, 9.999194 
2.8554592e+3, 2.023914e+2, -810441.2, -995921.94, 101925.04, -0.007509612, 0.49861643, -765379.2, 191232.19, 0.0, 10.001846, 9.999325 
2.855351e+3, 2.1238981e+2, -787323.2, -921388.2, 116984.34, 0.06488833, 0.4623644, -719527.3, 139098.53, 0.0, 10.001283, 9.999432 
2.855242e+3, 2.2238837e+2, -766715.1, -878304.75, 142560.39, 0.08573996, 0.443262, -669420.0, 91219.49, 0.0, 10.000825, 9.999277 
2.8551322e+3, 2.323873e+2, -657770.3, -772622.9, 136706.48, -0.011927834, 0.4711705, -566918.3, 95732.766, 0.0, 10.000889, 9.999298 
2.8550228e+3, 2.4238624e+2, -575552.7, -673754.75, 107762.86, -0.061556082, 0.4948349, -506231.8, 58430.453, 0.0, 10.000741, 9.999376 
2.8549138e+3, 2.5238514e+2, -581312.4, -613033.6, 90175.89, 0.013857311, 0.5020609, -505612.9, -38939.742, 0.0, 9.999972, 9.999491 
2.8548044e+3, 2.623839e+2, -565304.5, -559602.1, 116242.86, 0.036888093, 0.49544603, -446175.5, -77490.43, 0.0, 9.999432, 9.999447 
2.854694e+3, 2.723824e+2, -429782.0, -431423.1, 100504.875, -0.07303818, 0.4572272, -330094.3, -59394.62, 0.0, 9.999633, 9.99956 
2.854584e+3, 2.8238133e+2, -332787.88, -348852.97, 84023.01, -0.13753283, 0.45985213, -256414.33, -83703.62, 0.0, 9.999686, 9.999431 
2.8544745e+3, 2.923812e+2, -290883.06, -274871.44, 57292.566, -0.107713096, 0.5678277, -225028.05, -150314.39, 0.0, 9.999289, 9.999457 
2.854364e+3, 3.0238044e+2, -191711.97, -81674.516, 58938.305, -0.13395834, 0.57825416, -56065.8, -56065.8, 0.0, 9.998895, 10.0003 
2.8542542e+3, 3.1237796e+2, -158398.61, 15416.972, 39063.953, -0.029183865, 0.31924278, 23792.738, 23792.738, 0.0, 9.998536, 10.000809 
2.854143e+3, 3.2237846e+2, -101378.75, -205007.44, 69548.72, -0.10823942, 0.47267085, -66465.06, -66465.06, 0.0, 9.99998, 9.998603 
2.8662318e+3, 1.3251139e+2, -1388011.4, -1606792.8, 17423.87, 0.13079922, 0.43921694, -1386632.4, 254803.23, 0.0, 10.002468, 9.999553 
2.866121e+3, 1.4251101e+2, -1368342.3, -1560525.8, 21244.98, 0.19007829, 0.51328975, -1366021.8, 177416.77, 0.0, 10.001989, 9.999428 
2.8660092e+3, 1.5250945e+2, -1311443.6, -1479169.8, 73658.766, 0.106538124, 0.47643504, -1283688.5, 161765.64, 0.0, 10.001708, 9.99944 
2.865899e+3, 1.6250803e+2, -1233972.9, -1392557.4, 73803.45, 0.09243889, 0.452624, -1204940.6, 142527.77, 0.0, 10.0015745, 9.999427 
2.865789e+3, 1.7250709e+2, -1108266.8, -1275623.4, 89858.29, 0.12351257, 0.47924903, -1069158.4, 180319.17, 0.0, 10.001751, 9.999467 
2.8656793e+3, 1.825061e+2, -1024623.44, -1199162.8, 109083.64, 0.11364826, 0.5005376, -972196.2, 179291.36, 0.0, 10.001713, 9.99934 
2.8655693e+3, 1.925048e+2, -1021816.06, -1145857.4, 136625.72, 0.048187405, 0.49950296, -933792.9, 119707.7, 0.0, 10.001061, 9.999343 
2.8654602e+3, 2.0250347e+2, -965601.8, -1050911.9, 124771.875, 0.0145092625, 0.49033156, -876395.25, 79118.13, 0.0, 10.000701, 9.9994955 
2.865351e+3, 2.1250212e+2, -799826.4, -909115.4, 119282.01, 0.048899192, 0.46156886, -723267.94, 134257.81, 0.0, 10.0011215, 9.999591 
2.865242e+3, 2.2250092e+2, -696748.7, -836441.3, 128065.4, 0.059143957, 0.45284793, -620720.94, 138816.39, 0.0, 10.001272, 9.999348 
2.8651324e+3, 2.3249997e+2, -693062.56, -787880.94, 136804.97, -0.0066730287, 0.49185637, -595684.94, 65862.95, 0.0, 10.000641, 9.999311 
2.865023e+3, 2.4249896e+2, -644059.25, -702709.7, 122520.516, -0.03757693, 0.5195965, -547403.4, 16155.36, 0.0, 10.000258, 9.999409 
2.8649136e+3, 2.5249773e+2, -486396.03, -564795.94, 100019.914, 0.027897062, 0.51084864, -418168.72, 47402.027, 0.0, 10.000618, 9.99951 
2.864804e+3, 2.6249644e+2, -390591.22, -487158.47, 126717.52, 0.044421863, 0.4980841, -303270.13, 64313.3, 0.0, 10.000682, 9.999342 
2.8646934e+3, 2.7249494e+2, -375335.63, -424510.53, 116385.16, -0.07776826, 0.47981364, -280969.1, -11371.175, 0.0, 10.0000925, 9.999385 
2.864583e+3, 2.8249377e+2, -360942.34, -366776.7, 97372.77, -0.14908889, 0.4873279, -266443.06, -94833.14, 0.0, 9.999521, 9.999384 
2.864473e+3, 2.9249325e+2, -296304.3, -277304.28, 73665.47, -0.12887947, 0.55525154, -212528.78, -138912.17, 0.0, 9.999255, 9.9994545 
2.864362e+3, 3.0249235e+2, -172002.8, -105232.02, 68280.48, -0.13725932, 0.56446457, -62612.1, -62612.1, 0.0, 9.999171, 10.000008 
2.8642535e+3, 3.124905e+2, -49027.84, 19801.873, 4091.0134, 0.06771191, 0.40627748, 20044.176, 20044.176, 0.0, 9.999499, 10.000376 
2.8641418e+3, 3.2248995e+2, -156802.6, -159591.25, 104695.52, -0.14128186, 0.4589822, -53492.117, -53492.117, 0.0, 9.9993, 9.999237 
2.8762332e+3, 1.3262314e+2, -1394275.4, -1604299.4, -2593.1055, 0.0900266, 0.44949093, -1394243.4, 246097.4, 0.0, 10.002407, 9.999596 
2.8761217e+3, 1.426226e+2, -1351807.1, -1520753.8, 11444.048, 0.15259519, 0.49599698, -1351035.5, 191309.73, 0.0, 10.001966, 9.999712 
2.8760105e+3, 1.5262166e+2, -1285264.5, -1428241.0, 63827.266, 0.12233269, 0.48678458, -1260917.0, 183437.4, 0.0, 10.00172, 9.999785 
2.8759003e+3, 1.6262068e+2, -1230761.6, -1389579.8, 75639.195, 0.12405625, 0.48528627, -1200502.6, 145861.81, 0.0, 10.001589, 9.999441 
2.8757894e+3, 1.7261966e+2, -1117348.9, -1290864.4, 96989.836, 0.074104734, 0.5097357, -1073976.3, 174399.42, 0.0, 10.001733, 9.9993725 
2.8756794e+3, 1.8261851e+2, -1022765.3, -1185739.8, 91568.555, 0.04311197, 0.5173971, -981676.2, 168711.2, 0.0, 10.001671, 9.999453 
2.8755707e+3, 1.9261697e+2, -1007401.1, -1119682.0, 110964.9, 0.1091082, 0.4765449, -939183.4, 113217.81, 0.0, 10.001076, 9.999516 
2.8754613e+3, 2.026156e+2, -965562.3, -1056149.0, 131246.17, 0.12331602, 0.4527954, -872013.9, 82400.08, 0.0, 10.000722, 9.99945 
2.8753513e+3, 2.1261466e+2, -809380.1, -928001.75, 136804.94, 0.003123546, 0.47593293, -719582.4, 136841.64, 0.0, 10.001114, 9.999467 
2.8752416e+3, 2.2261377e+2, -689650.7, -813013.7, 113329.664, -0.058427084, 0.5009033, -622304.2, 136129.27, 0.0, 10.001233, 9.999528 
2.875133e+3, 2.3261294e+2, -676317.8, -750801.4, 111466.875, 0.026564397, 0.52463806, -596035.94, 64406.402, 0.0, 10.000631, 9.999572 
2.8750238e+3, 2.4261186e+2, -641047.44, -697927.0, 127854.3, 0.06434347, 0.52911186, -538508.06, 23945.076, 0.0, 10.000263, 9.999439 
2.8749132e+3, 2.5261024e+2, -489175.72, -575584.94, 114413.375, -0.012000816, 0.4879968, -410081.28, 54387.332, 0.0, 10.000636, 9.999428 
2.8748026e+3, 2.626089e+2, -388891.0, -493361.63, 111488.55, -0.07524572, 0.47496247, -318007.6, 48474.402, 0.0, 10.000722, 9.999281 
2.8746927e+3, 2.72608e+2, -380440.38, -436533.84, 90424.53, -0.08992329, 0.52560574, -313812.84, -45322.008, 0.0, 10.000097, 9.9993 
2.8745824e+3, 2.826068e+2, -359945.16, -367262.8, 81943.18, -0.08995038, 0.5363605, -281579.16, -111076.25, 0.0, 9.999528, 9.999378 
2.8744715e+3, 2.9260474e+2, -295735.63, -277449.28, 67766.82, -0.104799666, 0.44713265, -218211.61, -145688.22, 0.0, 9.999257, 9.9994545 
2.874361e+3, 3.0260342e+2, -234388.72, -236241.67, 74290.02, -0.13617082, 0.44941986, -161019.39, -161019.39, 0.0, 9.999181, 9.999103 
2.8742528e+3, 3.1260395e+2, -131073.97, -161055.67, 16718.379, 0.10914992, 0.64823955, -123609.76, -123609.76, 0.0, 9.999552, 9.999105 
2.8741398e+3, 3.2260135e+2, -84478.16, 23969.104, 62001.797, -0.19906107, 0.5158438, 52113.094, 52113.094, 0.0, 9.999163, 10.000561 
2.8862345e+3, 1.327355e+2, -1481973.4, -1637470.1, 16875.355, 0.10317678, 0.47179228, -1480163.0, 159076.08, 0.0, 10.001759, 9.999684 
2.886123e+3, 1.4273456e+2, -1397929.1, -1533956.1, 32784.953, 0.15237845, 0.46945968, -1390439.8, 150808.14, 0.0, 10.001609, 9.999793 
2.8860116e+3, 1.5273382e+2, -1305454.8, -1433383.1, 69768.83, 0.11565341, 0.4761092, -1274766.4, 168488.89, 0.0, 10.001563, 9.999825 
2.885901e+3, 1.6273303e+2, -1243326.4, -1391626.3, 73875.016, 0.11634862, 0.4902554, -1212806.6, 132456.94, 0.0, 10.001485, 9.999477 
2.8857905e+3, 1.727321e+2, -1179792.8, -1317960.5, 102573.09, 0.071591444, 0.5203605, -1125208.4, 122066.16, 0.0, 10.001291, 9.999399 
2.8856805e+3, 1.82731e+2, -1084658.8, -1200576.8, 97185.59, 0.04258504, 0.5270319, -1029461.7, 119824.23, 0.0, 10.001183, 9.999584 
2.885571e+3, 1.9272952e+2, -966081.75, -1081884.0, 111635.7, 0.10790278, 0.4772491, -898224.9, 153073.64, 0.0, 10.001285, 9.999673 
2.8854617e+3, 2.0272824e+2, -895983.1, -1020314.8, 136451.88, 0.12756921, 0.4528279, -808203.3, 145106.75, 0.0, 10.001189, 9.999472 
2.8853515e+3, 2.1272741e+2, -886716.2, -967563.4, 149607.08, 0.0038573765, 0.48915362, -772167.7, 83151.95, 0.0, 10.000593, 9.999447 
2.8852418e+3, 2.2272658e+2, -823919.06, -864755.9, 128372.04, -0.060684226, 0.5170622, -714351.75, 42977.168, 0.0, 10.0002575, 9.999642 
2.8851327e+3, 2.3272564e+2, -675850.44, -732513.2, 116499.15, 0.03466722, 0.5157624, -584287.2, 75051.12, 0.0, 10.000559, 9.999731 
2.8850237e+3, 2.4272461e+2, -574169.6, -654467.1, 135966.55, 0.077502735, 0.51050067, -472548.06, 88800.47, 0.0, 10.000675, 9.999538 
2.8849128e+3, 2.527233e+2, -528172.44, -588012.75, 132439.98, -0.031447988, 0.4951382, -422315.0, 41046.29, 0.0, 10.000345, 9.99948 
2.8848022e+3, 2.6272213e+2, -484626.38, -533478.75, 126934.49, -0.10374056, 0.49900484, -379789.25, -14416.3, 0.0, 10.000049, 9.999324 
2.8846923e+3, 2.7272123e+2, -417151.44, -454419.84, 104263.195, -0.07418511, 0.54351896, -329870.34, -62487.934, 0.0, 9.999854, 9.999289 
2.8845817e+3, 2.827199e+2, -346311.16, -351236.6, 108304.484, -0.047875065, 0.5392231, -240441.4, -71045.77, 0.0, 9.999584, 9.999457 
2.8844708e+3, 2.9271752e+2, -229775.31, -253152.39, 111455.55, -0.08415279, 0.42214283, -129397.086, -57979.504, 0.0, 9.999751, 9.999379 
2.88436e+3, 3.027161e+2, -144524.55, -265973.5, 126119.72, -0.13778247, 0.43921196, -65271.715, -65271.715, 0.0, 10.000121, 9.998445 
2.8842518e+3, 3.127167e+2, -90997.04, -259934.78, 94442.414, 0.060079336, 0.7452519, -48760.113, -48760.113, 0.0, 10.000349, 9.99805 
2.8841394e+3, 3.2271233e+2, 67071.26, 157776.88, 31878.1, -0.14382686, 0.491245, 167859.53, 167859.53, 0.0, 9.999932, 10.001129 
2.8962362e+3, 1.3284826e+2, -1476256.8, -1621791.6, 7617.818, 0.14287429, 0.49551645, -1475859.1, 162274.25, 0.0, 10.001751, 9.999791 
2.896124e+3, 1.4284684e+2, -1406201.1, -1548210.3, 30345.842, 0.17319453, 0.44096425, -1399988.4, 140158.67, 0.0, 10.001598, 9.999701 
2.896012e+3, 1.5284602e+2, -1318390.5, -1460227.1, 68267.44, 0.09324043, 0.4566353, -1290871.8, 151283.75, 0.0, 10.00156, 9.999642 
2.8959015e+3, 1.6284522e+2, -1240524.0, -1384272.9, 68962.164, 0.082431436, 0.4793609, -1212790.6, 131373.72, 0.0, 10.001477, 9.999532 
2.8957915e+3, 1.7284445e+2, -1170210.9, -1299701.5, 95536.95, 0.10171235, 0.5118609, -1119547.0, 126626.945, 0.0, 10.001297, 9.999521 
2.8956813e+3, 1.8284355e+2, -1076324.4, -1183828.3, 98621.12, 0.085899584, 0.52601624, -1017758.0, 130425.49, 0.0, 10.0011835, 9.999699 
2.8955713e+3, 1.9284241e+2, -958182.5, -1064631.1, 115638.53, 0.051966365, 0.49824876, -884107.56, 166085.25, 0.0, 10.001278, 9.999797 
2.8954613e+3, 2.0284134e+2, -894462.3, -1011387.94, 118943.67, 0.040937897, 0.4838946, -820390.25, 131812.03, 0.0, 10.001164, 9.999546 
2.895352e+3, 2.1284036e+2, -880211.8, -956286.7, 126175.336, 0.049225215, 0.49940047, -786465.06, 67747.76, 0.0, 10.000603, 9.99952 
2.8952426e+3, 2.2283933e+2, -820286.44, -859359.3, 132520.34, 0.038202718, 0.50070405, -705870.25, 50353.527, 0.0, 10.000265, 9.999676 
2.8951326e+3, 2.3283812e+2, -672664.4, -726678.25, 128872.53, 0.010179091, 0.46882907, -567999.4, 90236.19, 0.0, 10.00056, 9.999771 
2.8950226e+3, 2.4283722e+2, -562711.94, -631093.6, 127422.87, -0.010576043, 0.46796823, -464972.5, 95272.12, 0.0, 10.000676, 9.9997 
2.8949127e+3, 2.5283694e+2, -515666.4, -560303.8, 118655.875, -0.02622829, 0.53423375, -417248.47, 45000.168, 0.0, 10.000339, 9.999675 
2.8948024e+3, 2.6283622e+2, -474425.0, -512782.22, 120200.836, -0.038487874, 0.56841105, -371882.38, -7625.9077, 0.0, 10.00005, 9.999465 
2.8946918e+3, 2.7283457e+2, -414833.25, -449374.53, 93408.71, -0.031478755, 0.5273261, -337111.97, -70838.836, 0.0, 9.999849, 9.999326 
2.894581e+3, 2.82833e+2, -331981.03, -327822.6, 101862.78, -0.028108688, 0.4939425, -228017.81, -59729.883, 0.0, 9.999607, 9.999609 
2.89447e+3, 2.928319e+2, -240679.22, -274792.38, 131262.48, -0.07133425, 0.5020382, -125369.76, -55072.867, 0.0, 9.999757, 9.999221 
2.894359e+3, 3.028305e+2, -157621.25, -300944.16, 138598.56, -0.17398241, 0.5385577, -73254.09, -73254.09, 0.0, 10.000159, 9.998182 
2.89425e+3, 3.1282783e+2, -135720.27, -356049.4, 104206.01, -0.092426114, 0.56424, -94243.4, -94243.4, 0.0, 10.000371, 9.99738 
2.894141e+3, 3.228223e+2, 10393.553, 36824.85, -9485.736, 0.09572575, 0.2989487, 39876.734, 39876.734, 0.0, 9.99994, 10.0003 
2.906237e+3, 1.329605e+2, -1502300.4, -1635238.8, -4657.206, 0.1403814, 0.46814972, -1502137.4, 134895.84, 0.0, 10.001568, 9.999792 
2.9061252e+3, 1.4295967e+2, -1448751.3, -1568407.1, 25893.443, 0.17671339, 0.4730577, -1443388.4, 95653.42, 0.0, 10.001302, 9.999705 
2.9060128e+3, 1.5295869e+2, -1361655.8, -1482385.8, 73243.11, 0.07790246, 0.47340116, -1327107.8, 113944.086, 0.0, 10.001268, 9.999631 
2.905902e+3, 1.6295774e+2, -1273519.4, -1394070.6, 77730.8, 0.0619519, 0.48018557, -1235432.3, 107629.61, 0.0, 10.001224, 9.999587 
2.9057923e+3, 1.7295693e+2, -1181475.8, -1295565.9, 100473.67, 0.10261476, 0.5018808, -1122982.5, 122089.01, 0.0, 10.001179, 9.999607 
2.905682e+3, 1.8295607e+2, -1086142.3, -1188437.1, 102731.04, 0.09955247, 0.5142982, -1022530.3, 124550.46, 0.0, 10.001114, 9.999702 
2.9055718e+3, 1.9295508e+2, -1000916.06, -1088365.0, 110463.48, 0.049799256, 0.5044278, -925838.1, 123251.414, 0.0, 10.000996, 9.99977 
2.9054618e+3, 2.0295414e+2, -920487.8, -1010154.1, 102435.12, 0.031963777, 0.50034124, -853504.3, 97593.92, 0.0, 10.000922, 9.999671 
2.9053524e+3, 2.1295327e+2, -817928.3, -905830.9, 112611.02, 0.06282132, 0.50737953, -740995.5, 112111.914, 0.0, 10.000941, 9.999703 
2.9052424e+3, 2.2295232e+2, -737712.1, -812465.1, 129684.68, 0.061909445, 0.50529796, -640125.25, 114991.81, 0.0, 10.0008, 9.999741 
2.9051325e+3, 2.3295124e+2, -706108.3, -736194.7, 128087.67, -0.00540878, 0.4802452, -592183.5, 64944.5, 0.0, 10.000301, 9.999831 
2.9050222e+3, 2.4295047e+2, -661415.94, -659955.75, 125748.98, -0.040262792, 0.48279235, -534934.75, 24201.154, 0.0, 9.999921, 9.999865 
2.9049122e+3, 2.5295034e+2, -564201.25, -554328.9, 117517.48, -0.013728783, 0.5436863, -441643.97, 19494.203, 0.0, 9.999881, 9.999935 
2.9048023e+3, 2.6294985e+2, -492174.25, -491296.38, 129149.766, -0.0008243814, 0.57474506, -362584.8, 558.91364, 0.0, 9.9998, 9.999732 
2.904691e+3, 2.7294844e+2, -405492.84, -405059.78, 115330.58, -0.010742734, 0.529219, -289945.53, -24787.688, 0.0, 9.999744, 9.999677 
2.90458e+3, 2.8294733e+2, -312507.16, -283859.06, 141294.6, -0.007460295, 0.5029269, -156164.3, 11004.597, 0.0, 9.999608, 9.999902 
2.9044682e+3, 2.9294702e+2, -415859.38, -289240.56, 165391.55, -0.07658844, 0.5507387, -175455.5, -106285.13, 0.0, 9.998261, 9.999839 
2.9162377e+3, 1.330725e+2, -1521390.3, -1648518.5, -22072.082, 0.10769165, 0.41957763, -1517667.1, 118268.76, 0.0, 10.001461, 9.999749 
2.9161257e+3, 1.4307286e+2, -1434949.8, -1553244.9, 23546.9, 0.16474229, 0.5430101, -1430435.0, 107498.586, 0.0, 10.001362, 9.99978 
2.9160133e+3, 1.5307164e+2, -1350746.0, -1466717.4, 69322.99, 0.064443104, 0.5097262, -1318354.6, 121590.93, 0.0, 10.001297, 9.999726 
2.9159027e+3, 1.6307048e+2, -1271209.6, -1388136.4, 73997.26, 0.04591304, 0.48724154, -1235367.4, 106589.89, 0.0, 10.001218, 9.999631 
2.9157925e+3, 1.7306955e+2, -1177487.9, -1287917.9, 98217.8, 0.081086464, 0.49311343, -1120028.9, 123938.305, 0.0, 10.001179, 9.9996605 
2.9156825e+3, 1.8306862e+2, -1094889.3, -1204621.5, 98809.92, 0.0893628, 0.4982223, -1036734.6, 109242.62, 0.0, 10.001105, 9.999596 
2.9155725e+3, 1.9306757e+2, -1012564.1, -1110903.9, 106245.92, 0.09043108, 0.4974533, -944661.94, 103326.44, 0.0, 10.000988, 9.99962 
2.9154626e+3, 2.0306669e+2, -912058.56, -987979.7, 102857.914, 0.08187542, 0.5016936, -840379.94, 109617.53, 0.0, 10.000901, 9.999834 
2.9153523e+3, 2.1306613e+2, -801254.6, -867915.75, 113529.27, 0.04224776, 0.515589, -716264.3, 135738.63, 0.0, 10.000925, 9.999972 
2.9152423e+3, 2.2306557e+2, -735502.2, -801743.0, 114458.164, 0.008149938, 0.53055793, -649468.8, 104539.97, 0.0, 10.000773, 9.999828 
2.9151317e+3, 2.3306493e+2, -700383.7, -723646.2, 108414.07, -0.00914164, 0.5469149, -602978.75, 53037.098, 0.0, 10.000298, 9.99992 
2.9150218e+3, 2.4306428e+2, -648270.25, -634830.7, 120557.94, -0.015494592, 0.5490074, -520805.4, 37217.445, 0.0, 9.999929, 10.000031 
2.9149115e+3, 2.5306353e+2, -543737.7, -509790.4, 115834.68, -0.0006540904, 0.52105904, -409692.38, 50337.625, 0.0, 9.999873, 10.000243 
2.9148012e+3, 2.63063e+2, -463446.28, -438098.47, 124805.33, -0.005315043, 0.5170198, -325325.2, 36709.785, 0.0, 9.999823, 10.00009 
2.91469e+3, 2.7306297e+2, -358185.4, -312733.78, 112393.58, -0.020153016, 0.55511534, -220791.48, 43244.855, 0.0, 9.9997635, 10.000306 
2.9145792e+3, 2.8306282e+2, -288822.56, -234630.48, 129720.945, -0.012224427, 0.5754695, -129205.89, 36832.547, 0.0, 9.999618, 10.000236 
2.914466e+3, 2.9306266e+2, -329151.03, -102403.66, 68999.0, -0.099095434, 0.55943525, -83057.88, -15018.065, 0.0, 9.998242, 10.001133 
2.9262382e+3, 1.33185e+2, -1628523.8, -1683954.9, -992.41693, 0.093428865, 0.44584566, -1628506.0, 6327.7524, 0.0, 10.000653, 9.999894 
2.9261264e+3, 1.4318494e+2, -1393105.1, -1539662.0, 12302.027, 0.13840671, 0.52268255, -1392079.6, 144755.28, 0.0, 10.001675, 9.999724 
2.926014e+3, 1.5318377e+2, -1355652.3, -1478008.0, 36616.887, 0.06724073, 0.49986, -1345531.3, 93315.664, 0.0, 10.0013, 9.999648 
2.9259032e+3, 1.6318274e+2, -1292637.3, -1382832.4, 46068.227, 0.06545693, 0.48857543, -1273267.3, 67590.336, 0.0, 10.000999, 9.999775 
2.925793e+3, 1.731821e+2, -1189538.1, -1272124.5, 79324.516, 0.08288678, 0.50367194, -1141402.5, 101461.82, 0.0, 10.0009985, 9.999858 
2.925683e+3, 1.8318138e+2, -1114515.3, -1207091.5, 85259.06, 0.07881483, 0.51553595, -1063789.5, 81082.91, 0.0, 10.000934, 9.999664 
2.9255727e+3, 1.9318041e+2, -1046488.3, -1123071.9, 103251.9, 0.08071802, 0.5175656, -974656.44, 72227.234, 0.0, 10.000733, 9.9996605 
2.9254627e+3, 2.0317963e+2, -949490.8, -988065.56, 112235.51, 0.07506928, 0.5218411, -854897.5, 93994.914, 0.0, 10.000565, 9.999997 
2.9253522e+3, 2.1317917e+2, -860822.25, -875538.2, 117868.57, 0.030222196, 0.5299682, -750082.2, 100814.27, 0.0, 10.000422, 10.000164 
2.925242e+3, 2.2317876e+2, -794988.75, -820917.94, 112476.53, -0.0003025967, 0.5456674, -694732.1, 58168.574, 0.0, 10.00032, 9.999916 
2.925132e+3, 2.3317833e+2, -691376.4, -705679.44, 104959.84, 0.004598632, 0.5714134, -593324.7, 61581.375, 0.0, 10.000297, 10.000045 
2.9250214e+3, 2.4317782e+2, -600956.9, -597955.8, 121524.8, 0.0106657185, 0.57407564, -477922.25, 78989.555, 0.0, 10.000188, 10.000165 
2.924911e+3, 2.5317702e+2, -517146.94, -472983.9, 110128.7, 0.013211506, 0.5253697, -382744.8, 76174.25, 0.0, 9.999945, 10.000465 
2.9248005e+3, 2.6317668e+2, -469292.72, -418036.47, 114375.375, -0.001538208, 0.5120729, -326453.13, 34469.355, 0.0, 9.999674, 10.000304 
2.9246894e+3, 2.731771e+2, -374380.38, -278992.0, 84820.95, -0.030242205, 0.56935453, -229375.7, 33543.348, 0.0, 9.999463, 10.000687 
2.924578e+3, 2.8317735e+2, -328001.7, -224156.81, 86320.12, -0.013646877, 0.594658, -175346.44, -10429.151, 0.0, 9.9992, 10.000525 
2.924464e+3, 2.931772e+2, -127197.15, 18318.402, -50364.55, -0.07880468, 0.5521516, 34049.508, 100969.086, 0.0, 9.999498, 10.001381 
2.936238e+3, 1.3329773e+2, -1611835.9, -1645396.5, 58787.813, 0.085455395, 0.5106627, -1567480.4, 66249.336, 0.0, 10.000643, 10.000161 
2.936127e+3, 1.4329633e+2, -1418420.9, -1568692.5, 11547.243, 0.10121004, 0.44314098, -1417538.8, 118203.89, 0.0, 10.0015745, 9.999572 
2.936015e+3, 1.5329535e+2, -1372661.8, -1508632.0, 21407.85, 0.080567546, 0.459892, -1369370.9, 68382.84, 0.0, 10.001279, 9.999449 
2.935904e+3, 1.6329466e+2, -1276929.8, -1352170.4, 45178.94, 0.10626272, 0.48607376, -1255758.8, 84002.836, 0.0, 10.001008, 9.999981 
2.9357934e+3, 1.7329454e+2, -1171662.5, -1231040.6, 79869.266, 0.09813416, 0.52584875, -1116142.8, 125620.41, 0.0, 10.000981, 10.000149 
2.9356828e+3, 1.8329427e+2, -1104718.8, -1179375.5, 78089.734, 0.064863384, 0.55629915, -1055494.3, 88272.75, 0.0, 10.0009, 9.99987 
2.9355723e+3, 1.932935e+2, -1033456.94, -1094219.6, 95443.65, 0.027031556, 0.55986184, -963675.8, 82100.445, 0.0, 10.000724, 9.999864 
2.935462e+3, 2.0329285e+2, -940178.2, -966255.8, 107045.96, 0.013902257, 0.5562748, -845379.9, 102404.14, 0.0, 10.000554, 10.000152 
2.935352e+3, 2.1329236e+2, -851033.2, -855399.6, 111395.17, 0.027620591, 0.5469326, -741799.8, 107988.67, 0.0, 10.000422, 10.000302 
2.935242e+3, 2.232919e+2, -789267.06, -807377.1, 111071.16, 0.03117866, 0.5475372, -686882.44, 64910.574, 0.0, 10.000313, 10.000012 
2.9351315e+3, 2.3329145e+2, -683337.56, -685813.56, 103292.27, 0.029619632, 0.55795467, -581275.9, 72522.484, 0.0, 10.000283, 10.000188 
2.9350212e+3, 2.4329108e+2, -594281.75, -585521.56, 113351.89, 0.029917218, 0.56359124, -476465.16, 79337.484, 0.0, 10.000191, 10.000251 
2.9349107e+3, 2.5329083e+2, -505096.25, -452809.97, 100447.74, 0.02765581, 0.5607535, -375159.03, 82646.07, 0.0, 9.999961, 10.0006 
2.9347995e+3, 2.6329076e+2, -457011.8, -399649.97, 105467.484, -0.000016649941, 0.5644288, -319033.22, 40772.74, 0.0, 9.999704, 10.000415 
2.934688e+3, 2.7329078e+2, -365538.4, -262457.1, 75963.47, -0.04674192, 0.5692658, -222199.69, 39606.39, 0.0, 9.999474, 10.000792 
2.9345763e+3, 2.8329077e+2, -297577.03, -188881.58, 73694.74, -0.031818435, 0.55371386, -151661.9, 12145.004, 0.0, 9.999305, 10.000724 
2.9344633e+3, 2.9329112e+2, -144789.05, -34652.242, -20952.484, -0.03766939, 0.5785061, -30800.908, 35003.535, 0.0, 9.999566, 10.000984 
2.946238e+3, 1.3340949e+2, -1625062.3, -1614582.9, 52501.46, 0.11771352, 0.5378451, -1567060.4, 65575.55, 0.0, 10.00038, 10.000507 
2.946127e+3, 1.4340793e+2, -1537605.8, -1597173.1, -4720.1978, 0.052188247, 0.42250076, -1537234.1, -2584.9866, 0.0, 10.00063, 9.999833 
2.9460156e+3, 1.5340742e+2, -1407561.1, -1501028.8, 21214.838, 0.08554447, 0.4640435, -1402971.3, 33684.37, 0.0, 10.000931, 9.999671 
2.9459047e+3, 1.6340691e+2, -1284100.1, -1355849.3, 47337.42, 0.13166374, 0.49532428, -1260579.3, 78082.914, 0.0, 10.000956, 9.999983 
2.9457936e+3, 1.7340651e+2, -1224465.4, -1257804.5, 64666.08, 0.08082071, 0.50866765, -1174354.9, 66311.96, 0.0, 10.00062, 10.000142 
2.9456827e+3, 1.8340623e+2, -1157934.4, -1175395.8, 59538.297, 0.028150557, 0.52882034, -1106490.0, 36180.637, 0.0, 10.000404, 10.000139 
2.945572e+3, 1.9340602e+2, -1049596.9, -1070388.9, 82827.27, 0.020671297, 0.55639863, -976515.75, 68158.445, 0.0, 10.000469, 10.0001545 
2.9454622e+3, 2.0340572e+2, -945154.7, -969985.25, 93406.58, 0.025533127, 0.5715669, -863341.94, 83336.42, 0.0, 10.000514, 10.000151 
2.9453522e+3, 2.1340519e+2, -854070.9, -862614.75, 81537.0, 0.032090504, 0.5633627, -776694.0, 71989.95, 0.0, 10.000416, 10.000261 
2.9452416e+3, 2.2340477e+2, -771498.3, -775410.3, 81002.84, 0.031948254, 0.5584866, -692427.9, 58260.598, 0.0, 10.000323, 10.000233 
2.9451314e+3, 2.3340449e+2, -673288.3, -648184.2, 83658.13, 0.02596435, 0.55624866, -576141.7, 76549.56, 0.0, 10.000199, 10.000491 
2.9450208e+3, 2.434043e+2, -611832.6, -593971.25, 100345.24, 0.027004141, 0.56176114, -502160.06, 52533.457, 0.0, 10.000063, 10.000257 
2.9449102e+3, 2.534043e+2, -488451.25, -449684.75, 77310.32, 0.026759723, 0.5861443, -389364.8, 67329.73, 0.0, 10.000089, 10.000564 
2.9447988e+3, 2.634044e+2, -404478.9, -358951.5, 69696.97, 0.0004319526, 0.601749, -308395.0, 50299.176, 0.0, 9.999994, 10.00056 
2.9446867e+3, 2.734043e+2, -319521.5, -233920.05, 43213.58, -0.04584478, 0.58210576, -215898.77, 44796.188, 0.0, 9.999748, 10.000866 
2.9445753e+3, 2.834039e+2, -242026.52, -173015.42, 44393.285, -0.029367423, 0.53300375, -151294.67, 11404.418, 0.0, 9.999729, 10.000624 
2.9444632e+3, 2.9340494e+2, -31032.32, 12322.06, -33049.324, -0.003658086, 0.6400355, 30169.018, 94859.32, 0.0, 10.000365, 10.000915 
2.9562384e+3, 1.3352062e+2, -1594172.3, -1551152.5, 61266.76, 0.16545825, 0.5449318, -1507729.4, 123819.3, 0.0, 10.00039, 10.000936 
2.9561263e+3, 1.4351967e+2, -1501251.5, -1521422.6, 6729.3833, -0.008584495, 0.4442412, -1499212.6, 34342.07, 0.0, 10.00063, 10.000352 
2.9560158e+3, 1.5351985e+2, -1379002.8, -1431391.3, 29025.932, 0.083505966, 0.50293404, -1366099.1, 69455.09, 0.0, 10.000885, 10.000172 
2.955905e+3, 1.6351938e+2, -1304920.6, -1383403.5, 34948.313, 0.1450758, 0.5184636, -1291614.3, 45946.105, 0.0, 10.000888, 9.999827 
2.955793e+3, 1.7351809e+2, -1239742.5, -1287697.5, 53269.242, 0.037201345, 0.46351966, -1205303.1, 34271.363, 0.0, 10.000611, 9.999941 
2.955682e+3, 1.835175e+2, -1134352.5, -1129562.0, 59169.977, -0.03043607, 0.4489085, -1072738.9, 68842.69, 0.0, 10.000418, 10.000447 
2.9555723e+3, 1.9351807e+2, -1024668.8, -1017835.7, 84851.836, 0.05372019, 0.5176321, -936331.7, 107244.69, 0.0, 10.000466, 10.000517 
2.9554626e+3, 2.0351835e+2, -958162.2, -991849.56, 91197.914, 0.097418986, 0.57650405, -882265.56, 63309.063, 0.0, 10.000492, 10.000012 
2.9553518e+3, 2.1351779e+2, -869551.2, -893824.56, 76407.49, 0.037369188, 0.5854341, -804322.5, 43259.56, 0.0, 10.00041, 10.000051 
2.9552412e+3, 2.2351736e+2, -748476.3, -724460.7, 77954.02, -0.0067323474, 0.5797384, -657595.06, 91991.74, 0.0, 10.000309, 10.00059 
2.9551306e+3, 2.3351742e+2, -640633.2, -579257.3, 77536.38, -0.005502575, 0.5644766, -526556.8, 125028.055, 0.0, 10.000195, 10.000967 
2.95502e+3, 2.4351746e+2, -612840.2, -598975.44, 97952.55, 0.00049035583, 0.5670079, -507710.28, 45874.195, 0.0, 10.000073, 10.000218 
2.9549095e+3, 2.5351742e+2, -499892.9, -474768.9, 78401.336, 0.0060046725, 0.6014387, -407929.56, 47657.74, 0.0, 10.0000925, 10.000391 
2.954798e+3, 2.635176e+2, -387816.28, -329265.75, 60407.6, -0.0073058563, 0.626909, -291413.38, 66173.414, 0.0, 10.000013, 10.000755 
2.9546863e+3, 2.7351773e+2, -307345.72, -215048.0, 41616.59, -0.03016038, 0.6118798, -199054.63, 60529.99, 0.0, 9.999776, 10.000982 
2.9545745e+3, 2.83517e+2, -257309.28, -224366.55, 54684.523, -0.028349409, 0.5391154, -183726.6, -22135.053, 0.0, 9.999804, 10.000239 
2.9544628e+3, 2.9351756e+2, -11836.269, 30896.256, 4491.733, -0.024975253, 0.63416123, 31363.29, 94950.8, 0.0, 10.000455, 10.001 
2.9662386e+3, 1.3363187e+2, -1566197.8, -1574050.0, 87259.29, 0.18496509, 0.5170702, -1482776.3, 147683.64, 0.0, 10.000742, 10.000607 
2.9661268e+3, 1.4363116e+2, -1493491.6, -1509755.9, -6080.9453, 0.0108514195, 0.45991835, -1491469.5, 40994.27, 0.0, 10.000646, 10.000429 
2.9660156e+3, 1.5363179e+2, -1437881.9, -1433660.0, -5359.4785, 0.057933632, 0.5403781, -1430010.6, 4448.159, 0.0, 10.000365, 10.000409 
2.9659045e+3, 1.6363183e+2, -1393669.0, -1401067.0, 6621.6367, 0.10643189, 0.58007944, -1389783.3, -53323.438, 0.0, 10.000164, 10.000059 
2.965793e+3, 1.7363085e+2, -1252838.5, -1280016.9, 50655.688, 0.025588678, 0.5398898, -1213980.9, 24490.059, 0.0, 10.000453, 10.000075 
2.9656819e+3, 1.8363029e+2, -1109113.6, -1129427.0, 51472.52, -0.02030548, 0.5267926, -1066805.3, 73672.33, 0.0, 10.00063, 10.000353 
2.9655722e+3, 1.9363044e+2, -1027457.3, -1022434.3, 46621.23, 0.046793263, 0.5611793, -978257.0, 64219.375, 0.0, 10.000451, 10.000497 
2.9654625e+3, 2.036304e+2, -968001.6, -976328.4, 50265.82, 0.08005754, 0.58145523, -921727.06, 22750.367, 0.0, 10.000331, 10.000199 
2.9653516e+3, 2.1363e+2, -857378.94, -852397.7, 68771.734, 0.026718913, 0.5763909, -786071.5, 60410.574, 0.0, 10.000336, 10.000374 
2.9652408e+3, 2.2362982e+2, -741122.0, -722250.56, 84421.93, -0.006702789, 0.5760044, -646738.7, 101745.54, 0.0, 10.0003605, 10.000583 
2.9651305e+3, 2.336299e+2, -625526.1, -590545.9, 40044.445, 0.0022498767, 0.5744388, -564338.6, 86144.516, 0.0, 10.000367, 10.000813 
2.9650196e+3, 2.4362999e+2, -570074.44, -553713.56, 41768.676, 0.0020665803, 0.5773878, -519331.78, 33150.94, 0.0, 10.000247, 10.000455 
2.9649085e+3, 2.5362998e+2, -488187.13, -452067.94, 51876.46, -0.017389974, 0.5948879, -415197.44, 39286.902, 0.0, 10.000084, 10.000561 
2.9647973e+3, 2.636302e+2, -375533.88, -329872.22, 42720.977, -0.026873542, 0.6191742, -304264.13, 52218.94, 0.0, 10.000114, 10.00071 
2.964686e+3, 2.736306e+2, -229330.3, -198111.4, 4858.413, -0.013476888, 0.6368344, -197372.8, 61106.613, 0.0, 10.000399, 10.000802 
2.964574e+3, 2.8362983e+2, -173180.56, -198033.27, 14544.091, -0.011542238, 0.5728784, -166477.23, -5990.2476, 0.0, 10.00045, 10.000116 
2.964462e+3, 2.936297e+2, -59382.773, 3479.6482, -13937.566, -0.056966268, 0.6247579, 6431.2354, 68920.01, 0.0, 10.000182, 10.000946 
2.9762387e+3, 1.3374321e+2, -1628890.3, -1704405.5, 78370.8, 0.19163306, 0.471147, -1579655.8, 49714.277, 0.0, 10.000747, 9.999708 
2.9761273e+3, 1.4374235e+2, -1515378.9, -1542763.6, -9824.108, 0.07887284, 0.46314088, -1512219.1, 19157.34, 0.0, 10.000595, 10.000227 
2.976015e+3, 1.5374315e+2, -1430491.3, -1422756.3, -17375.982, 0.010867128, 0.55908865, -1408822.5, 24547.164, 0.0, 10.000385, 10.000475 
2.9759035e+3, 1.6374402e+2, -1350537.1, -1322676.0, 9493.672, 0.02393248, 0.65047383, -1319748.6, 15613.6875, 0.0, 10.000214, 10.000572 
2.975793e+3, 1.7374432e+2, -1226356.1, -1225237.8, 62599.0, 0.034726467, 0.69737375, -1163195.4, 74164.8, 0.0, 10.000456, 10.000448 
2.9756823e+3, 1.8374416e+2, -1143649.1, -1196602.6, 47395.88, 0.04114048, 0.7241808, -1115836.0, 23526.965, 0.0, 10.000612, 9.9999 
2.9755715e+3, 1.9374296e+2, -1049044.1, -1069482.1, 38496.035, 0.00039015862, 0.66212076, -1019433.8, 21942.242, 0.0, 10.000462, 10.000168 
2.975461e+3, 2.0374179e+2, -932753.75, -904944.1, 50118.207, -0.022672677, 0.57218945, -866837.56, 76549.82, 0.0, 10.000339, 10.000686 
2.9753512e+3, 2.1374181e+2, -799780.44, -731972.25, 67690.664, 0.0053483555, 0.530726, -690169.56, 155215.08, 0.0, 10.000332, 10.001203 
2.975241e+3, 2.2374213e+2, -770978.44, -777730.06, 83822.85, 0.032465875, 0.547275, -690463.5, 56917.56, 0.0, 10.000332, 10.0002165 
2.9751304e+3, 2.3374201e+2, -677641.2, -698467.4, 39758.89, 0.045592725, 0.59232014, -646954.4, 2430.85, 0.0, 10.000363, 10.000074 
2.9750192e+3, 2.43742e+2, -535152.7, -479787.03, 33932.7, 0.020186385, 0.6030471, -463677.53, 87709.3, 0.0, 10.00024, 10.000966 
2.9749078e+3, 2.5374207e+2, -452390.28, -379464.28, 48867.12, -0.04737973, 0.56918335, -354955.6, 98429.49, 0.0, 10.000092, 10.001055 
2.9747966e+3, 2.637423e+2, -393015.06, -372037.2, 49602.145, -0.06459355, 0.58058673, -331827.1, 23555.717, 0.0, 10.000139, 10.000409 
2.9746857e+3, 2.7374285e+2, -256084.89, -262182.97, 17866.096, -0.0015946028, 0.65721947, -241009.52, 16369.97, 0.0, 10.000434, 10.000347 
2.9745743e+3, 2.8374243e+2, -151726.7, -165312.33, 1441.1626, 0.004101759, 0.6451672, -151575.52, 7809.03, 0.0, 10.000517, 10.000307 
2.9744613e+3, 2.9374167e+2, -84655.375, -48967.348, -13814.377, -0.08178868, 0.61866236, -44244.887, 17146.82, 0.0, 10.000212, 10.000559 
2.98624e+3, 1.3385798e+2, -1351096.8, -1520282.0, 44603.246, 0.21783717, 0.7585026, -1340058.0, 288190.56, 0.0, 10.002418, 10.000184 
2.9861253e+3, 1.4385538e+2, -1634617.9, -1594053.3, 18750.4, -0.08145237, 0.5473523, -1586714.0, -56442.77, 0.0, 9.999753, 10.000281 
2.986014e+3, 1.5385383e+2, -1625311.1, -1527166.4, 38165.754, -0.005346028, 0.4181024, -1514071.9, -81784.57, 0.0, 9.999107, 10.000367 
2.985903e+3, 1.6385312e+2, -1542829.8, -1419405.9, 44915.605, 0.10126552, 0.36401185, -1404791.0, -70496.17, 0.0, 9.998934, 10.000514 
2.9857934e+3, 1.7385381e+2, -1380280.6, -1287271.0, 80869.39, 0.12888308, 0.4443011, -1240488.3, -4200.4453, 0.0, 9.999372, 10.000532 
2.9856825e+3, 1.8385388e+2, -1231257.6, -1223052.1, 75574.766, 0.06438495, 0.48189, -1151468.9, -13181.107, 0.0, 9.999969, 10.000015 
2.9855713e+3, 1.9385356e+2, -1088854.5, -1100068.0, 78446.21, 0.014908813, 0.5136846, -1015814.94, 24477.006, 0.0, 10.000252, 10.000054 
2.985461e+3, 2.0385385e+2, -923178.94, -901547.75, 88689.16, 0.01556604, 0.5749169, -823017.1, 119271.78, 0.0, 10.000415, 10.000672 
2.9853508e+3, 2.1385404e+2, -836730.06, -778024.9, 32532.518, 0.032225423, 0.5711523, -763560.4, 80724.31, 0.0, 10.000196, 10.000955 
2.9852402e+3, 2.2385387e+2, -848964.75, -824570.5, 13981.273, 0.025551112, 0.55772346, -818213.75, -71927.555, 0.0, 9.999827, 10.000143 
2.9851297e+3, 2.3385376e+2, -692012.4, -689131.75, 36423.484, 0.0110584805, 0.59329313, -654120.1, -5829.6064, 0.0, 10.0001955, 10.000221 
2.9850188e+3, 2.4385376e+2, -486100.3, -475119.1, 27976.152, -0.006089514, 0.6062537, -452099.84, 98192.4, 0.0, 10.000658, 10.000796 
2.9849073e+3, 2.5385368e+2, -429995.72, -391772.28, -21452.928, -0.049174704, 0.57482153, -382152.72, 70139.55, 0.0, 10.000341, 10.000851 
2.984796e+3, 2.6385385e+2, -386274.38, -362780.9, -15893.897, -0.070689194, 0.5851127, -354764.0, -473.2163, 0.0, 10.00015, 10.000475 
2.984685e+3, 2.7385435e+2, -242246.47, -250148.61, -3722.042, -0.046297815, 0.6466764, -240769.42, 15518.14, 0.0, 10.000485, 10.00042 
2.9845738e+3, 2.8385428e+2, -115186.32, -122310.586, -18944.97, -0.041520018, 0.6563117, -99471.51, 58817.258, 0.0, 10.000652, 10.000565 
2.9844618e+3, 2.9385304e+2, -61962.72, -93826.086, -31362.24, -0.034958765, 0.58227473, -42717.582, 17582.498, 0.0, 10.00054, 10.000179 
2.9962417e+3, 1.3396764e+2, -1723630.5, -1502889.5, 7048.8945, 0.21681261, 0.5354448, -1502664.6, 124513.59, 0.0, 9.9990425, 10.001914 
2.9961255e+3, 1.4396955e+2, -1536685.9, -1510079.6, 11462.365, 0.037432067, 0.6544619, -1505822.6, 23332.434, 0.0, 10.000267, 10.000608 
2.9960138e+3, 1.5397015e+2, -1219541.4, -1366424.4, 2701.2507, 0.13644537, 0.7581887, -1219491.6, 211658.31, 0.0, 10.001998, 10.000098 
2.9959008e+3, 1.6396807e+2, -1150707.6, -1305761.5, -43223.348, 0.040760398, 0.6221149, -1139472.6, 193697.5, 0.0, 10.0018835, 9.999906 
2.9957914e+3, 1.739675e+2, -1158449.3, -1216143.1, -32140.652, 0.08668455, 0.60199845, -1144108.6, 91065.516, 0.0, 10.000979, 10.000278 
2.995681e+3, 1.8396749e+2, -1098785.5, -1115973.1, -66655.04, -0.028564285, 0.6106823, -1040172.56, 97000.83, 0.0, 10.000623, 10.000469 
2.9955706e+3, 1.9396621e+2, -974409.5, -1048786.0, -51868.297, -0.02291655, 0.5239646, -947775.44, 91410.09, 0.0, 10.0009985, 10.0000725 
2.9954615e+3, 2.0396635e+2, -908388.3, -968792.06, -33300.715, 0.05646958, 0.57372755, -893633.6, 47551.082, 0.0, 10.000793, 10.000049 
2.9953504e+3, 2.1396519e+2, -786082.3, -895518.7, -20921.545, 0.026939224, 0.54136837, -782219.06, 60978.16, 0.0, 10.001132, 9.999705 
2.9952392e+3, 2.2396469e+2, -647659.06, -706756.0, -26747.57, -0.01733124, 0.5644024, -637351.0, 107851.83, 0.0, 10.001112, 10.000335 
2.995129e+3, 2.339656e+2, -656922.6, -563283.94, -14350.987, -0.028774148, 0.6210827, -561133.9, 86060.45, 0.0, 9.999963, 10.001197 
2.9950187e+3, 2.439653e+2, -545563.3, -601720.5, 2952.2178, -0.04684137, 0.5930447, -545408.5, 3789.981, 0.0, 10.000671, 9.999918 
2.9949072e+3, 2.539649e+2, -488051.88, -514941.44, -39507.273, -0.017242912, 0.6173668, -459764.3, -8559.167, 0.0, 10.000355, 9.999993 
2.9947957e+3, 2.6396486e+2, -355317.28, -297992.56, -7915.0786, -0.044749692, 0.63415325, -296919.78, 56286.59, 0.0, 10.000139, 10.000929 
2.994684e+3, 2.739649e+2, -195934.39, -166474.02, 15681.641, -0.16882364, 0.5949185, -159689.27, 95515.22, 0.0, 10.0005245, 10.000982 
2.9945722e+3, 2.8396508e+2, -107920.39, -84153.336, -27402.22, -0.18291204, 0.5824916, -66168.82, 91032.91, 0.0, 10.000599, 10.000829 
2.9944623e+3, 2.9396522e+2, -73985.37, -67341.71, -5013.9126, 0.066684015, 0.6102182, -64649.07, -5448.653, 0.0, 10.000387, 10.000405 
