coord_x,coord_y,stress_xx,stress_yy,tau_xy,velocity_x,velocity_y,stress_1,eps,damage,lx,ly
5.0020003e+0, 1.2377218e+2, -1325170.0, -1848425.9, 19304.428, -0.003021314, -0.07831461, -1324458.8, 402565.3, 0.0026773983, 10.0039835, 9.997156 
5.0026655e+0, 1.3376988e+2, -1166169.0, -1762431.0, 48130.89, 0.033773094, -0.039062724, -1162308.9, 466734.2, 0.0015879606, 10.004612, 9.996764 
5.002742e+0, 1.4376451e+2, -1025363.56, -1566119.9, 51842.066, 0.043270465, -0.2787657, -1020438.3, 510654.3, 0.0007106875, 10.004579, 9.99745 
5.001755e+0, 1.5376301e+2, -1087877.8, -1536157.8, 50568.94, 0.0019849718, -0.21871671, -1082244.1, 350861.16, 0.00020845665, 10.003432, 9.997537 
5.001237e+0, 1.6376124e+2, -1051372.5, -1398377.5, 67361.99, -0.0135332355, -0.1738614, -1038754.75, 296366.75, 0.000030560015, 10.00271, 9.998158 
5.0014627e+0, 1.737581e+2, -958235.44, -1302209.3, 27718.66, 0.010860991, -0.34261757, -956016.06, 281136.7, 0.0000010193884, 10.002674, 9.998163 
5.0015426e+0, 1.8375608e+2, -869492.44, -1199672.3, 17274.496, 0.023169689, -0.36109197, -868591.1, 270581.66, 0.0, 10.002583, 9.998236 
5.0013435e+0, 1.9375587e+2, -811168.56, -1131846.5, 35890.51, 0.014928824, -0.23578689, -807200.75, 233974.39, 0.0, 10.002355, 9.998142 
5.0009507e+0, 2.0375523e+2, -759785.4, -1014179.3, 45470.523, 0.0002708412, -0.12439615, -751902.2, 191280.42, 0.0, 10.00186, 9.99851 
5.0002086e+0, 2.1375377e+2, -797708.8, -983694.0, 34628.215, -0.02757917, -0.15670477, -791470.7, 53729.68, 0.0, 10.000932, 9.998495 
4.9998507e+0, 2.2375284e+2, -723045.06, -778179.56, 52545.793, -0.029810492, -0.14292714, -691274.2, 55936.152, 0.0, 10.000263, 9.999555 
5.000112e+0, 2.3375258e+2, -656716.44, -688059.7, 53333.65, 0.0087564085, -0.16915715, -616799.56, 32409.865, 0.0, 10.000011, 9.999623 
5.000133e+0, 2.437526e+2, -570664.3, -546472.8, 45850.223, 0.026137667, -0.14793596, -511149.7, 40057.906, 0.0, 9.999713, 10.000067 
4.99978e+0, 2.5375265e+2, -527408.9, -481921.63, 1439.0061, 0.007856663, -0.1811628, -481876.16, -28668.465, 0.0, 9.999365, 10.000007 
4.999466e+0, 2.6375243e+2, -475942.72, -401727.44, -9984.497, -0.0065681944, -0.19995584, -400407.63, -45197.93, 0.000000019594776, 9.999031, 10.00004 
4.999221e+0, 2.7375215e+2, -428429.56, -331782.94, -4891.867, -0.014919238, -0.2642148, -331535.94, -74324.836, 0.00000068486895, 9.998699, 10.000007 
4.9991268e+0, 2.8375298e+2, -451495.66, -390937.63, 16654.1, -0.0040198136, -0.14272802, -386659.78, -227455.2, 0.0000056407102, 9.998297, 9.999117 
4.999209e+0, 2.9375386e+2, -431803.56, -349949.97, 48225.438, 0.026844537, 0.016640404, -327625.7, -266423.63, 0.00003698917, 9.99783, 9.998953 
4.9988562e+0, 3.0375147e+2, -447493.06, -333114.7, 79810.52, 0.014021856, -0.12078711, -292118.72, -292118.72, 0.00018828975, 9.99739, 9.998948 
4.997881e+0, 3.1375206e+2, -388734.44, -65965.04, 97525.93, -0.052723415, 0.009838236, -38785.88, -38785.88, 0.00054298295, 9.99672, 10.001116 
1.5005931e+1, 1.2377312e+2, -1273900.3, -1703724.4, 28377.63, -0.014173015, 0.0036474778, -1272034.8, 454979.7, 0.0025789526, 10.003846, 9.998222 
1.5008001e+1, 1.3377039e+2, -1095039.8, -1597610.5, 76946.47, 0.101858, -0.087003686, -1083522.8, 545510.44, 0.0015329723, 10.004557, 9.9979315 
1.5008229e+1, 1.437653e+2, -1007840.6, -1508337.1, 12047.064, 0.13184358, -0.3825422, -1007550.8, 523527.5, 0.0006843033, 10.004497, 9.997893 
1.5005264e+1, 1.5376484e+2, -1076653.5, -1493857.1, 14580.927, 0.0060296175, -0.2343847, -1076144.5, 356938.56, 0.00019662829, 10.003361, 9.997868 
1.5003729e+1, 1.6376409e+2, -1118184.6, -1516413.0, 56130.72, -0.03812112, -0.073858015, -1110424.1, 224668.89, 0.00002664921, 10.002629, 9.9973955 
1.5004422e+1, 1.7376211e+2, -1028455.56, -1434177.8, 33342.11, 0.034820598, -0.018444097, -1025733.8, 211384.73, 0.00000066228677, 10.002618, 9.997294 
1.5004595e+1, 1.8376015e+2, -847131.0, -1126640.1, 5691.61, 0.06778998, -0.0092439065, -847015.1, 292125.0, 0.0, 10.002483, 9.998788 
1.5004039e+1, 1.9375823e+2, -770659.25, -1026170.06, 34793.047, 0.045450468, -0.11235161, -766006.2, 275149.03, 0.0, 10.002269, 9.998915 
1.5002824e+1, 2.0375673e+2, -772106.4, -1010794.44, 9370.764, -0.000029092736, -0.13699345, -771739.06, 171429.58, 0.0, 10.001753, 9.998588 
1.5000613e+1, 2.1375582e+2, -816518.6, -993783.2, 7301.358, -0.08328785, -0.09617666, -816218.4, 28961.768, 0.0, 10.000822, 9.998482 
1.4999533e+1, 2.237547e+2, -726615.94, -756494.4, 33489.316, -0.08942519, -0.10948088, -704884.8, 42306.043, 0.0, 10.0001545, 9.99976 
1.5000314e+1, 2.3375332e+2, -655943.4, -657779.06, 50911.793, 0.0256582, -0.2522806, -605941.2, 43258.406, 0.0, 9.999905, 9.9998865 
1.5000407e+1, 2.4375279e+2, -642493.2, -676657.06, 27549.36, 0.07864027, -0.26279646, -627159.7, -75955.695, 0.0, 9.999639, 9.999216 
1.4999337e+1, 2.5375336e+2, -609561.0, -623863.75, -5674.5664, 0.023298709, -0.13541234, -607583.1, -154379.34, 0.0, 9.999249, 9.999094 
1.49984e+1, 2.637534e+2, -473816.7, -375048.34, -28713.041, -0.019830354, -0.08832397, -367307.78, -12102.421, 0.0000000045160005, 9.998948, 10.000267 
1.4997679e+1, 2.73753e+2, -420249.4, -288737.2, -13051.195, -0.04342115, -0.18541802, -287454.5, -30247.787, 0.0000004592844, 9.998595, 10.00036 
1.4997351e+1, 2.8375378e+2, -400031.47, -261236.36, -5662.48, -0.014351987, -0.1281825, -261005.72, -101807.78, 0.00000436483, 9.998212, 10.000053 
1.4997624e+1, 2.9375526e+2, -376511.94, -203161.17, 41589.074, 0.079066366, 0.0009332679, -193699.81, -132514.73, 0.000032381515, 9.997699, 10.0000305 
1.499658e+1, 3.0375332e+2, -408868.13, -219734.36, 53989.93, 0.045102354, -0.18289647, -205407.67, -205407.67, 0.00017490126, 9.997284, 9.999783 
1.4993648e+1, 3.13752e+2, -348542.78, 75203.49, 94190.03, -0.15594813, -0.30160093, 95196.67, 95196.67, 0.0005127624, 9.996504, 10.002199 
2.5011405e+1, 1.237724e+2, -1015530.9, -1552772.4, 1032.3942, 0.07082189, -0.037699014, -1015528.9, 711491.4, 0.0024634947, 10.005509, 9.998456 
2.5012216e+1, 1.3377045e+2, -1217949.0, -1623565.5, -28423.6, 0.12130285, -0.08591852, -1215966.9, 413065.47, 0.0014644304, 10.003572, 9.998229 
2.5011542e+1, 1.4376618e+2, -1279128.4, -1586336.9, -100119.48, 0.121835105, -0.33863702, -1249380.0, 281690.22, 0.00064927345, 10.0024185, 9.998346 
2.5008404e+1, 1.5376587e+2, -1155675.4, -1484094.8, -94625.91, 0.025062598, -0.22770034, -1130362.3, 302710.78, 0.0001814002, 10.002622, 9.9982815 
2.5006637e+1, 1.6376525e+2, -1106702.0, -1498736.3, 12384.131, -0.008670994, -0.07833072, -1106311.1, 228769.94, 0.000022322774, 10.00267, 9.997484 
2.5007096e+1, 1.7376356e+2, -1063628.6, -1443907.3, 55875.484, 0.055895545, -0.0049342634, -1055588.6, 181514.6, 0.00000035252413, 10.002369, 9.997332 
2.500688e+1, 1.837617e+2, -935242.4, -1172681.4, 52627.363, 0.081114665, 0.014827193, -924100.56, 215023.48, 0.0, 10.001886, 9.998756 
2.5005683e+1, 1.9375972e+2, -954390.9, -1115437.6, 17640.023, 0.048845045, -0.09761766, -952481.3, 88659.91, 0.0, 10.001016, 9.998896 
2.5004116e+1, 2.0375822e+2, -904353.3, -1051907.0, -4938.841, 0.007393756, -0.12968855, -904188.2, 38966.637, 0.0, 10.000735, 9.998796 
2.5002006e+1, 2.1375738e+2, -735976.9, -930621.75, 9851.404, -0.04497776, -0.11072734, -735479.5, 109684.67, 0.0, 10.001263, 9.998702 
2.5000718e+1, 2.2375639e+2, -566361.0, -697148.9, 46387.953, -0.042170085, -0.11668161, -551578.9, 195594.63, 0.0, 10.001318, 9.999603 
2.5000772e+1, 2.3375523e+2, -578292.9, -648375.1, 24274.436, 0.05150867, -0.22484161, -570706.2, 78476.05, 0.0, 10.0005455, 9.999638 
2.5000274e+1, 2.4375479e+2, -582629.1, -641966.06, 38700.184, 0.084423356, -0.21316053, -563533.6, -12347.114, 0.0, 10.000032, 9.999256 
2.4998862e+1, 2.537553e+2, -506344.03, -567252.6, 77460.49, 0.020233441, -0.10345302, -453566.16, -380.37665, 0.0, 9.999932, 9.999145 
2.499745e+1, 2.637553e+2, -419337.72, -371487.13, 85229.625, -0.030625135, -0.056546796, -306888.38, 48299.363, 0.00000000030772893, 9.99943, 10.000052 
2.4996108e+1, 2.737547e+2, -480548.5, -345236.44, 45111.22, -0.042646866, -0.1485434, -331576.06, -74384.58, 0.000000332103, 9.99831, 10.000099 
2.4995352e+1, 2.83755e+2, -473210.3, -283506.9, 35194.62, -0.003680284, -0.12900747, -277187.94, -118000.97, 0.000003312623, 9.99765, 10.000169 
2.4995619e+1, 2.9375592e+2, -372505.47, -180759.2, 12705.731, 0.116238564, -0.0770484, -179920.94, -118743.555, 0.000027299557, 9.997647, 10.000205 
2.4994236e+1, 3.03755e+2, -418887.72, -191270.72, -32924.855, 0.099105716, -0.18107586, -186603.83, -186603.83, 0.00015832737, 9.997083, 10.000079 
2.4990247e+1, 3.1375337e+2, -437842.6, 114383.64, -58475.68, -0.08807536, -0.36900032, 120507.766, 120507.766, 0.0004751241, 9.995565, 10.002908 
3.501833e+1, 1.2376991e+2, -1061996.3, -1627091.9, -84698.305, 0.1796162, -0.23389962, -1049574.5, 677468.2, 0.0023398355, 10.005429, 9.997981 
3.501513e+1, 1.337701e+2, -1242606.9, -1666778.0, -97610.734, 0.03796669, -0.025634503, -1221222.6, 407817.66, 0.0013870671, 10.003557, 9.997934 
3.5012496e+1, 1.4376707e+2, -1245034.1, -1507656.5, -108041.31, -0.043782894, -0.16107503, -1206299.5, 324769.16, 0.00060858665, 10.002383, 9.998903 
3.5010993e+1, 1.5376602e+2, -1108674.1, -1380179.8, -78807.375, 0.002567285, -0.1897177, -1087457.5, 345618.03, 0.00016439817, 10.0026, 9.999002 
3.5009864e+1, 1.6376472e+2, -1036317.25, -1347253.9, -3049.7559, 0.02981804, -0.19915043, -1036287.3, 298798.47, 0.000017966355, 10.002642, 9.998543 
3.5009354e+1, 1.7376228e+2, -989212.4, -1287116.3, 50451.38, 0.028056871, -0.30432793, -980900.1, 256208.34, 0.00000014192928, 10.002355, 9.99842 
3.500825e+1, 1.837606e+2, -976563.3, -1241961.0, 17832.023, 0.013819582, -0.30714852, -975370.5, 163755.42, 0.0, 10.0018215, 9.998309 
3.5006124e+1, 1.937602e+2, -1008369.2, -1216385.5, -7973.03, -0.025984515, -0.19261341, -1008064.06, 33070.3, 0.0, 10.000966, 9.998229 
3.500466e+1, 2.037596e+2, -882727.4, -982813.7, 2062.7795, -0.024487967, -0.121282265, -882684.9, 60457.742, 0.0, 10.000643, 9.999312 
3.5004246e+1, 2.1375847e+2, -700248.7, -833819.6, 36930.594, 0.037517935, -0.19345877, -690717.9, 154434.77, 0.0, 10.001173, 9.999409 
3.500327e+1, 2.2375792e+2, -608070.4, -758522.4, 18186.74, 0.06601169, -0.17984696, -605903.1, 141255.36, 0.0, 10.001216, 9.999229 
3.5001317e+1, 2.3375833e+2, -627125.3, -726533.25, 701.8865, 0.03583082, -0.074225925, -627120.3, 22036.678, 0.0, 10.000451, 9.9991455 
3.4999597e+1, 2.437586e+2, -524620.9, -504760.16, 25531.65, -0.0003868007, -0.0060184794, -487295.66, 63859.234, 0.0, 9.99996, 10.000235 
3.4998208e+1, 2.537585e+2, -435671.75, -397715.9, 80095.83, -0.054509666, -0.07210991, -334380.38, 118772.945, 0.0, 9.99984, 10.000352 
3.4996518e+1, 2.6375806e+2, -462848.97, -453630.34, 40701.117, -0.08122669, -0.11094358, -417278.38, -62122.113, 0.00000000006499392, 9.999389, 9.999512 
3.49943e+1, 2.7375722e+2, -545699.2, -462436.1, 9574.725, -0.07180467, -0.14634135, -461349.25, -204184.16, 0.0000002836276, 9.99823, 9.999336 
3.4992972e+1, 2.8375664e+2, -524722.75, -372175.97, 23701.31, -0.022233054, -0.14876826, -368578.34, -209406.75, 0.000002745044, 9.997581, 9.999591 
3.4993047e+1, 2.9375586e+2, -424681.84, -270168.75, 19398.803, 0.07610037, -0.20873274, -267770.5, -206591.25, 0.000022379118, 9.99757, 9.999629 
3.4991616e+1, 3.0375633e+2, -427866.38, -209610.27, -88363.6, 0.11412685, -0.13668568, -178320.89, -178320.89, 0.00013928866, 9.997066, 9.999965 
3.498737e+1, 3.1375626e+2, -418934.9, 157497.66, -105577.7, 0.033101615, -0.16367716, 176226.44, 176226.44, 0.00043208257, 9.995526, 10.003231 
4.502288e+1, 1.2377051e+2, -1344991.1, -1761947.0, 37237.93, 0.20413357, -0.29272315, -1341691.5, 385342.3, 0.0022151922, 10.003503, 9.997969 
4.5018637e+1, 1.3377145e+2, -1295969.4, -1682217.0, 15714.754, 0.06330876, -0.018087978, -1295331.0, 333695.8, 0.0013074038, 10.003156, 9.998019 
4.5015347e+1, 1.4376882e+2, -1188757.6, -1496944.8, 52077.145, -0.011470294, -0.11072188, -1180195.5, 350857.22, 0.0005675109, 10.00283, 9.9987755 
4.501374e+1, 1.5376699e+2, -1122630.4, -1407528.8, 9156.318, 0.02539321, -0.19921605, -1122336.4, 310730.8, 0.00014805637, 10.002581, 9.998837 
4.5012403e+1, 1.6376542e+2, -1027843.25, -1283122.8, 41927.83, 0.035322998, -0.24849966, -1021133.3, 313946.0, 0.000013959289, 10.002444, 9.99908 
4.501157e+1, 1.7376356e+2, -918847.5, -1182815.4, 46702.08, 0.010677549, -0.357074, -910828.44, 326266.28, 0.000000037538413, 10.002529, 9.999056 
4.5010224e+1, 1.8376237e+2, -877960.2, -1188478.8, 7171.401, 0.002603419, -0.34992144, -877794.6, 261312.55, 0.0, 10.002468, 9.998372 
4.500799e+1, 1.937624e+2, -849596.5, -1140926.9, 17637.574, 0.014763219, -0.190338, -848532.56, 192580.36, 0.0, 10.002065, 9.998219 
4.5006013e+1, 2.0376207e+2, -774384.6, -924843.94, 62743.457, 0.016758775, -0.09312491, -751653.9, 191465.64, 0.0, 10.001354, 9.999372 
4.500455e+1, 2.1376096e+2, -855659.6, -902046.25, 41650.91, 0.0122460155, -0.17184319, -831179.8, 13949.421, 0.0, 10.00007, 9.999475 
4.500303e+1, 2.2376035e+2, -867283.9, -879464.8, 30765.96, 0.016123092, -0.16754724, -842011.4, -94875.914, 0.0, 9.999425, 9.999263 
4.5001388e+1, 2.3376061e+2, -721558.0, -769879.7, 43360.992, 0.0360545, -0.07779709, -696080.94, -46945.223, 0.0, 9.9998, 9.999165 
4.4999677e+1, 2.4376084e+2, -533657.0, -486221.53, 72739.47, 0.025221877, -0.024886506, -433430.7, 117703.06, 0.0, 9.999806, 10.000431 
4.4997805e+1, 2.5376076e+2, -514803.38, -416749.88, 41457.152, -0.042187996, -0.10900165, -401571.34, 51559.383, 0.0, 9.9992075, 10.000527 
4.4995782e+1, 2.6376054e+2, -523940.44, -478795.4, -11160.371, -0.067502536, -0.1388494, -476187.13, -121056.23, 0.00000000016705606, 9.998957, 9.999545 
4.4993573e+1, 2.7376017e+2, -387281.47, -387403.3, 4597.4473, -0.016319226, -0.12802044, -382744.53, -125609.12, 0.00000025698242, 9.999322, 9.99933 
4.499182e+1, 2.8375936e+2, -259853.5, -253264.42, 92131.65, 0.017477082, -0.14627464, -164368.42, -5224.814, 0.0000023157831, 9.999442, 9.999516 
4.499073e+1, 2.9375768e+2, -195292.78, -172681.75, 108998.48, 0.011383948, -0.28584635, -74404.04, -13244.803, 0.000017842196, 9.99921, 9.99951 
4.4988796e+1, 3.0375874e+2, -261711.69, -223685.33, -29608.15, 0.054086406, -0.10955814, -207511.23, -207511.23, 0.0001190779, 9.998604, 9.9991255 
4.498494e+1, 3.1375834e+2, -194754.61, 192162.94, -135393.69, 0.15368657, -0.0808696, 234834.95, 234834.95, 0.00038609168, 9.9973755, 10.002579 
5.502433e+1, 1.2377447e+2, -1308537.3, -1721396.0, 9928.984, -0.05132511, -0.2031368, -1308298.6, 418692.53, 0.002088926, 10.00363, 9.998195 
5.5022496e+1, 1.3377452e+2, -1255945.8, -1620280.0, 8275.623, 0.10716284, -0.059347034, -1255757.9, 373233.8, 0.0012257147, 10.003235, 9.998411 
5.5019933e+1, 1.4377142e+2, -1240561.8, -1615090.5, 34903.063, 0.13913853, -0.18387814, -1237336.8, 293685.53, 0.00052635325, 10.0028715, 9.997945 
5.5016375e+1, 1.5376876e+2, -1191022.6, -1553756.6, 6108.583, 0.007833151, -0.2540728, -1190919.8, 242127.95, 0.00013276051, 10.002601, 9.997824 
5.501392e+1, 1.637674e+2, -1030248.0, -1285157.3, 37067.58, -0.07708928, -0.22693762, -1024967.25, 310094.0, 0.0000106646075, 10.002433, 9.999071 
5.5013466e+1, 1.7376731e+2, -910188.1, -1163541.9, 56517.46, -0.072212294, -0.16984443, -898152.1, 338910.78, 0.000000007551507, 10.002524, 9.99919 
5.501262e+1, 1.8376696e+2, -841198.5, -1103732.5, -12183.295, -0.022426141, -0.1121892, -840634.3, 298433.66, 0.0, 10.002434, 9.998969 
5.501103e+1, 1.9376627e+2, -807494.5, -1046415.6, 6790.781, 0.09254675, -0.090958275, -807301.6, 233775.84, 0.0, 10.002038, 9.9988785 
5.5007976e+1, 2.037656e+2, -808108.7, -982077.75, 12794.248, 0.061421104, -0.049653035, -807172.75, 135913.08, 0.0, 10.001302, 9.999002 
5.500264e+1, 2.1376479e+2, -899928.3, -981566.44, -1520.7274, -0.20390013, -0.04530546, -899900.0, -54805.945, 0.0, 10.000019, 9.998952 
5.499973e+1, 2.237637e+2, -841529.56, -815943.6, 31527.209, -0.2732489, -0.08086525, -794712.7, -47608.508, 0.0, 9.99938, 9.999721 
5.5000794e+1, 2.3376217e+2, -687108.25, -686476.9, 64185.0, -0.021056248, -0.23026274, -622606.75, 26510.576, 0.0, 9.999747, 9.999761 
5.500029e+1, 2.4376152e+2, -583727.0, -581422.06, 50135.0, 0.08843516, -0.2716584, -532426.3, 18696.588, 0.0, 9.999766, 9.999798 
5.4997325e+1, 2.537621e+2, -583470.06, -537035.75, 24248.293, -0.031121712, -0.21150614, -526681.8, -73564.15, 0.0, 9.999115, 9.999744 
5.499495e+1, 2.637627e+2, -489270.97, -395992.66, -8002.574, -0.06325312, -0.13616821, -395311.06, -40200.0, 0.00000000012003064, 9.998912, 10.000135 
5.4993725e+1, 2.7376342e+2, -340973.53, -276911.1, 24837.18, 0.04945109, -0.09794638, -268409.78, -11306.949, 0.00000017731924, 9.999259, 10.00012 
5.499169e+1, 2.837631e+2, -235223.75, -197251.36, 78746.8, 0.04264555, -0.12833266, -135234.27, 23869.459, 0.0000014956321, 9.99942, 9.999911 
5.4988426e+1, 2.937613e+2, -181109.5, -129617.91, 107231.336, -0.16086796, -0.31384915, -45084.934, 16033.298, 0.000012909044, 9.9991455, 9.99984 
5.4985535e+1, 3.0376217e+2, -372330.9, -438575.88, -76442.95, -0.15011042, -0.10863151, -322142.97, -322142.97, 0.00009809619, 9.99855, 9.997675 
5.498241e+1, 3.137596e+2, -317150.22, -44386.438, -159682.38, 0.12671085, -0.1328602, 29228.049, 29228.049, 0.00033776127, 9.997306, 10.000983 
6.502845e+1, 1.2377785e+2, -1212237.6, -1719691.8, 29280.574, -0.03552401, -0.21389395, -1210553.8, 516400.38, 0.001962876, 10.004473, 9.997808 
6.502577e+1, 1.3377696e+2, -1206673.0, -1615949.8, -42786.75, 0.09736091, -0.14168997, -1202247.8, 426716.9, 0.0011414998, 10.003647, 9.998245 
6.502275e+1, 1.4377394e+2, -1197938.1, -1576319.0, 32749.469, 0.12737185, -0.25748697, -1195124.5, 335870.44, 0.0004823892, 10.003101, 9.998092 
6.5019155e+1, 1.5377194e+2, -1058833.9, -1468934.9, 83659.016, -0.008645459, -0.28074473, -1042424.4, 390589.75, 0.00011742101, 10.003424, 9.998002 
6.501639e+1, 1.6377093e+2, -994255.5, -1314079.6, 130277.06, -0.09026407, -0.2077353, -947905.6, 387119.7, 0.000008467286, 10.00288, 9.998654 
6.501513e+1, 1.7377093e+2, -1188634.3, -1352394.5, 88106.74, -0.07021926, -0.096481636, -1150234.9, 86795.08, 0.000000004638606, 10.000857, 9.998692 
6.501385e+1, 1.8377055e+2, -1180579.6, -1225112.0, 37339.31, -0.0124408305, -0.029702878, -1159371.6, -20335.219, 0.0, 9.999926, 9.999343 
6.501245e+1, 1.9376962e+2, -961980.9, -1065301.6, 38278.234, 0.10094756, -0.07986365, -949344.94, 91700.17, 0.0, 10.0007305, 9.999382 
6.500926e+1, 2.0376876e+2, -831793.5, -995092.2, 25287.809, 0.07187256, -0.08671024, -827967.2, 115086.62, 0.0, 10.001144, 9.998989 
6.500322e+1, 2.137679e+2, -787607.2, -936583.4, 28150.965, -0.18453243, -0.077268995, -782465.1, 62597.656, 0.0, 10.000833, 9.998868 
6.4999795e+1, 2.2376704e+2, -682669.25, -723533.56, 100732.484, -0.25153574, -0.09171064, -600317.6, 146753.45, 0.0, 10.0004, 9.999869 
6.500058e+1, 2.3376611e+2, -673838.9, -660956.44, 92530.09, -0.012275856, -0.19782916, -574643.6, 74434.766, 0.0, 9.999747, 9.999944 
6.499985e+1, 2.4376546e+2, -659412.5, -647874.56, 78668.08, 0.09240949, -0.23635107, -574764.2, -23680.184, 0.0, 9.999365, 9.999548 
6.499666e+1, 2.5376526e+2, -561905.2, -560959.44, 75595.83, -0.0181929, -0.22202024, -485835.0, -32748.16, 0.0, 9.999408, 9.999449 
6.4994204e+1, 2.6376557e+2, -428130.25, -355843.0, 69255.59, -0.043623976, -0.16693296, -313866.84, 41216.543, 0.00000000000043891748, 9.999279, 10.000239 
6.499305e+1, 2.7376658e+2, -383114.78, -276062.25, 45384.37, 0.07993016, -0.11444184, -259411.58, -2340.5964, 0.00000007111923, 9.998886, 10.000301 
6.499088e+1, 2.8376645e+2, -363762.6, -252282.08, 64878.14, 0.070712976, -0.14094302, -222487.84, -63418.563, 0.00000065443334, 9.998504, 9.999973 
6.498721e+1, 2.937647e+2, -332911.2, -193226.81, 57628.004, -0.13609952, -0.3240592, -172521.13, -111438.914, 0.000008482825, 9.998063, 9.999921 
6.498402e+1, 3.037654e+2, -425713.03, -508950.13, -71036.68, -0.14141414, -0.12942931, -385001.06, -385001.06, 0.00007932554, 9.998376, 9.997278 
6.498079e+1, 3.1376192e+2, 19268.809, 29965.926, -80350.02, 0.11025574, -0.18360208, 105145.21, 105145.21, 0.00029245962, 9.999989, 10.000212 
7.503475e+1, 1.2378051e+2, -1257883.6, -1830455.4, -18782.986, 0.10525954, -0.32309607, -1257268.1, 469655.88, 0.0018397092, 10.00454, 9.997015 
7.502818e+1, 1.3377878e+2, -1249818.3, -1716650.9, -74018.96, -0.048329685, -0.26352417, -1238363.1, 390582.6, 0.0010576755, 10.0036955, 9.997532 
7.502346e+1, 1.4377642e+2, -1111735.9, -1406537.4, 32803.184, -0.13454749, -0.32580587, -1108129.9, 422840.38, 0.00043753645, 10.0031395, 9.999241 
7.5021845e+1, 1.5377647e+2, -961311.56, -1271540.9, 102832.11, -0.104305595, -0.27920622, -930321.4, 502645.13, 0.00010224, 10.003443, 9.9993515 
7.5019556e+1, 1.6377611e+2, -1052797.5, -1432852.9, 59291.3, -0.08105724, -0.18228604, -1043762.4, 291208.8, 0.000007138289, 10.002867, 9.997846 
7.501632e+1, 1.7377442e+2, -1264487.9, -1513348.3, 15994.944, -0.056917302, -0.13256006, -1263464.0, -26468.17, 0.00000003688298, 10.00087, 9.997582 
7.50137e+1, 1.8377309e+2, -1168016.1, -1200518.1, 49946.645, -0.03807566, -0.10559655, -1131743.3, 7269.4717, 0.0, 9.999929, 9.999512 
7.5012016e+1, 1.937724e+2, -941841.44, -1019467.06, 75516.9, -0.03368424, -0.16441157, -895747.0, 145269.58, 0.0, 10.000712, 9.999708 
7.500964e+1, 2.0377156e+2, -815628.75, -950193.25, 13879.634, -0.021174373, -0.19986026, -814212.06, 128810.99, 0.0, 10.0011, 9.999316 
7.5006086e+1, 2.1377034e+2, -771797.56, -891908.1, 21898.52, 0.0015675591, -0.26459688, -767929.56, 77105.4, 0.0, 10.00078, 9.9992 
7.5002944e+1, 2.2377038e+2, -704300.4, -756638.1, 73066.305, 0.008780167, -0.19810109, -652858.06, 94177.586, 0.0, 10.000347, 9.999666 
7.50005e+1, 2.3377235e+2, -702527.4, -707563.25, 75225.71, -0.011230744, 0.011723576, -629777.44, 19241.719, 0.0, 9.999686, 9.999654 
7.4998033e+1, 2.4377266e+2, -660193.9, -636320.0, 72209.766, -0.04035669, 0.07985164, -575067.1, -24050.152, 0.0, 9.999312, 9.999648 
7.499561e+1, 2.5377026e+2, -560358.9, -545073.3, 83101.664, -0.0800777, -0.14301085, -469263.7, -16225.458, 0.0, 9.999349, 9.999587 
7.499329e+1, 2.6376903e+2, -460412.34, -411206.25, 52070.64, -0.07751448, -0.23263505, -378218.8, -23171.158, 0.0, 9.999231, 9.999882 
7.499123e+1, 2.7376962e+2, -425034.75, -348043.9, 39478.42, -0.008637539, -0.17859966, -331399.13, -74359.65, 0.000000009748358, 9.998817, 9.999841 
7.498908e+1, 2.8376934e+2, -383880.78, -285541.97, 43834.82, 0.023278693, -0.18537556, -268839.34, -109799.58, 0.00000018808618, 9.998468, 9.999761 
7.4986833e+1, 2.937679e+2, -355963.25, -226199.36, 46293.063, 0.0019390553, -0.3231469, -211377.39, -150326.25, 0.000005696117, 9.997994, 9.999731 
7.498405e+1, 3.0376822e+2, -389744.94, -426079.78, -20558.729, 0.008344684, -0.1777404, -380476.7, -380476.7, 0.00006525944, 9.9983425, 9.997858 
7.497966e+1, 3.1376517e+2, 5531.7285, 28788.096, 842.82965, -0.033164628, -0.2628052, 28818.602, 28818.602, 0.00025509726, 9.99987, 10.0002575 
8.5039306e+1, 1.2378411e+2, -1364044.5, -1865195.6, -27806.852, 0.15333799, -0.32735538, -1362506.4, 364384.13, 0.0017202923, 10.003747, 9.997152 
8.5031706e+1, 1.3378285e+2, -1245756.3, -1682163.4, -38898.594, -0.0533405, -0.24721166, -1242316.3, 386590.7, 0.000979446, 10.003595, 9.997811 
8.5026324e+1, 1.437811e+2, -1163686.6, -1457122.0, 72967.055, -0.14480853, -0.25451446, -1146543.8, 384382.0, 0.0003977733, 10.002883, 9.999023 
8.502472e+1, 1.537809e+2, -1286684.3, -1458056.5, 9877.85, -0.050545905, -0.2039877, -1286116.8, 146809.6, 0.000088897265, 10.001337, 9.999084 
8.502219e+1, 1.6378029e+2, -1325689.3, -1522388.9, -44788.81, 0.0021780883, -0.13364841, -1315970.9, 18962.432, 0.000006071428, 10.000816, 9.9982195 
8.501823e+1, 1.7377831e+2, -1078699.6, -1370978.5, 17607.203, -0.0017618405, -0.15855713, -1077642.8, 159314.55, 0.000000076650345, 10.001917, 9.998057 
8.501492e+1, 1.837768e+2, -861342.8, -1070788.4, 121807.73, -0.01418824, -0.16995321, -805429.4, 333544.97, 0.0, 10.002118, 9.99935 
8.501276e+1, 1.9377622e+2, -941221.9, -1044807.3, 95844.625, -0.03296429, -0.19179793, -884071.1, 156907.27, 0.0, 10.000835, 9.999471 
8.501026e+1, 2.0377555e+2, -927788.25, -974840.3, 26097.623, -0.018338235, -0.20673512, -916177.94, 26805.342, 0.0, 10.000193, 9.999593 
8.50072e+1, 2.137747e+2, -789071.6, -861701.56, 22975.328, 0.054000665, -0.26820773, -782414.0, 62576.445, 0.0, 10.000491, 9.999553 
8.500401e+1, 2.2377472e+2, -700371.9, -796784.7, 61431.168, 0.07293343, -0.20583771, -670490.9, 76500.336, 0.0, 10.000559, 9.999285 
8.500064e+1, 2.337762e+2, -658612.4, -740346.75, 31778.02, 0.011714706, 0.0033627527, -647711.1, 1270.3503, 0.0, 10.000228, 9.999163 
8.499773e+1, 2.4377637e+2, -574994.94, -584240.0, 41084.902, -0.02415503, 0.082215734, -538273.3, 12708.316, 0.0, 9.999847, 9.999746 
8.4995633e+1, 2.5377446e+2, -541516.1, -512643.16, 45019.805, -0.00929085, -0.10627803, -479801.78, -26804.441, 0.0, 9.999387, 9.999785 
8.499314e+1, 2.6377338e+2, -484939.34, -426932.06, 34861.21, -0.0018901511, -0.1965653, -410586.88, -55581.414, 0.0, 9.999068, 9.999859 
8.499015e+1, 2.7377334e+2, -415164.72, -348849.63, 37963.395, 0.0023940287, -0.19951814, -331602.38, -74599.15, 0.0, 9.9989, 9.999802 
8.498761e+1, 2.8377283e+2, -319123.78, -245615.08, 86915.57, 0.01443724, -0.23041734, -188002.06, -28996.229, 0.000000024133003, 9.998867, 9.999849 
8.4985834e+1, 2.937718e+2, -188847.16, -129253.47, 100215.51, 0.054076694, -0.33777902, -54498.9, 6514.4727, 0.0000041706858, 9.99907, 9.999878 
8.4983116e+1, 3.037724e+2, -252863.52, -261413.52, 86309.92, 0.06185046, -0.21291088, -170722.78, -170722.78, 0.00005536609, 9.998846, 9.99875 
8.4978366e+1, 3.1377137e+2, -285764.97, -99383.125, 110459.26, -0.037984807, -0.19417886, -48054.855, -48054.855, 0.00022562832, 9.9978075, 10.000362 
9.504173e+1, 1.23788774e+2, -1292387.5, -1718436.8, -45475.023, -0.01778357, -0.21520725, -1287587.8, 439264.38, 0.0016119159, 10.003758, 9.998151 
9.503599e+1, 1.337891e+2, -1156045.9, -1508322.1, -41770.605, -0.0037241983, -0.095817454, -1151160.8, 477688.0, 0.0009129297, 10.003645, 9.99898 
9.5031005e+1, 1.4378792e+2, -1266748.6, -1675415.8, 15885.569, 0.017058522, -0.045689788, -1266132.0, 264730.06, 0.00036647206, 10.002903, 9.997513 
9.5027614e+1, 1.5378526e+2, -1415750.6, -1731856.8, -41987.313, 0.083550826, -0.056941576, -1410268.8, 22624.85, 0.00007896108, 10.001365, 9.99719 
9.502413e+1, 1.6378355e+2, -1217820.3, -1300765.0, -20506.795, 0.09837726, -0.056113254, -1213027.3, 121884.06, 0.000005121987, 10.000823, 9.999738 
9.502056e+1, 1.737826e+2, -937896.4, -1079915.9, 64951.902, 0.022684548, -0.17517607, -912671.4, 324243.13, 0.00000007826353, 10.00192, 10.000053 
9.501728e+1, 1.8378168e+2, -901569.94, -1148803.4, 78933.52, -0.0040854914, -0.21607488, -878518.3, 260402.78, 0.0, 10.002093, 9.998826 
9.501442e+1, 1.93781e+2, -1004447.6, -1170084.4, 53415.992, 0.031535443, -0.16641928, -988715.75, 52215.38, 0.0, 10.000812, 9.998621 
9.5010924e+1, 2.0378073e+2, -919080.75, -947294.5, 25057.105, 0.013160309, -0.105109006, -904432.4, 38502.316, 0.0, 10.000151, 9.999802 
9.500631e+1, 2.1378088e+2, -770013.7, -814477.44, 42673.285, -0.100851595, -0.099896245, -744128.4, 100801.77, 0.0, 10.000453, 9.999897 
9.500274e+1, 2.2378e+2, -753289.06, -893286.8, 47137.242, -0.12547849, -0.12028142, -738897.4, 8040.95, 0.0, 10.000503, 9.998648 
9.500081e+1, 2.3377748e+2, -720004.8, -855416.44, 24410.953, -0.010845022, -0.23601878, -715738.6, -66771.71, 0.0, 10.000171, 9.998401 
9.499877e+1, 2.437765e+2, -575857.44, -570081.7, 18249.0, 0.0805923, -0.23509075, -554493.44, -3514.7688, 0.0, 9.999784, 9.999871 
9.499651e+1, 2.5377792e+2, -533384.1, -483645.75, 34842.72, 0.12445463, -0.118906006, -465707.34, -12742.738, 0.0, 9.999331, 10.000012 
9.499356e+1, 2.6377848e+2, -471920.75, -389455.44, 22287.824, 0.119070925, -0.06604581, -383817.22, -28859.482, 0.0, 9.999025, 10.000134 
9.4989586e+1, 2.7377757e+2, -404050.13, -309629.9, 38659.984, 0.039531942, -0.18715717, -295820.44, -38856.73, 0.0, 9.998829, 10.000104 
9.498627e+1, 2.8377682e+2, -295486.63, -186866.2, 87226.33, -0.02215279, -0.2775802, -138424.13, 20543.836, 0.000000004406078, 9.998829, 10.000267 
9.4983935e+1, 2.937764e+2, -170601.11, -72704.17, 117637.99, -0.061804373, -0.36864537, 5762.6304, 66731.43, 0.0000031909003, 9.99899, 10.000305 
9.498095e+1, 3.03778e+2, -169224.64, -80514.3, 50197.543, -0.055633936, -0.23040633, -57883.094, -57883.094, 0.000047523536, 9.998816, 10.000005 
9.4976324e+1, 3.137806e+2, -296024.44, -90914.34, 96288.445, -0.058017578, 0.03175477, -52796.008, -52796.008, 0.00020078661, 9.997681, 10.000482 
1.0504458e+2, 1.2379406e+2, -1476783.8, -1804748.5, 62227.977, -0.03430661, -0.16380553, -1465373.6, 261427.2, 0.001525873, 10.002449, 9.998197 
1.0503959e+2, 1.3379382e+2, -1279390.4, -1557217.1, -38315.28, 0.043930516, -0.11096532, -1274203.1, 354599.25, 0.00086255383, 10.00273, 9.999092 
1.0503465e+2, 1.4379261e+2, -1264755.1, -1683818.8, 12757.771, 0.09241299, -0.06673151, -1264367.1, 266448.5, 0.00034425873, 10.002968, 9.997419 
1.0503015e+2, 1.5378948e+2, -1150138.8, -1625684.5, 65269.984, 0.11122644, -0.10799661, -1141343.0, 291509.06, 0.00007295785, 10.0032835, 9.996999 
1.0502596e+2, 1.637876e+2, -905820.0, -1151030.4, 138502.78, 0.09497487, -0.111970924, -843452.06, 491419.3, 0.0000044141693, 10.002976, 9.9997225 
1.0502254e+2, 1.7378704e+2, -974659.5, -1099875.4, 65303.04, 0.044816937, -0.18953289, -946800.6, 290069.7, 0.000000050630582, 10.001686, 10.000025 
1.05019055e+2, 1.8378645e+2, -1039137.9, -1203731.3, 15469.068, 0.017512608, -0.20177732, -1037696.6, 101177.07, 0.0, 10.001094, 9.998926 
1.0501534e+2, 1.9378592e+2, -900239.9, -1108120.6, 46987.625, 0.013540439, -0.1507127, -890112.56, 150769.83, 0.0, 10.00147, 9.998728 
1.05011374e+2, 2.037856e+2, -756271.75, -898011.44, 60852.473, -0.014716945, -0.08835087, -733730.9, 209155.67, 0.0, 10.001406, 9.99953 
1.05007105e+2, 2.1378544e+2, -776645.5, -851745.3, 16012.661, -0.06838849, -0.081170194, -773373.9, 71510.99, 0.0, 10.000567, 9.999579 
1.05003595e+2, 2.2378415e+2, -811290.94, -919750.4, 28861.74, -0.0661554, -0.12557729, -804088.9, -57191.97, 0.0, 10.000093, 9.998671 
1.0500137e+2, 2.337811e+2, -714058.56, -843593.44, 59124.54, 0.032168847, -0.30078155, -691130.3, -42199.945, 0.0, 10.000176, 9.998482 
1.0499911e+2, 2.4378002e+2, -531990.25, -563088.5, 82412.734, 0.12092388, -0.30939376, -463672.63, 87270.94, 0.0, 10.000146, 9.999743 
1.0499682e+2, 2.53782e+2, -461662.4, -465916.6, 55457.68, 0.19716202, -0.1190535, -408291.03, 44634.23, 0.0, 9.999904, 9.999855 
1.0499349e+2, 2.6378292e+2, -388296.56, -350083.97, 29979.92, 0.18475096, -0.020655435, -333639.66, 21276.688, 0.0, 9.999607, 10.000121 
1.0498868e+2, 2.7378213e+2, -343726.75, -280971.22, 11961.104, 0.049511507, -0.13278848, -278768.75, -21845.957, 0.0, 9.999244, 10.000102 
1.0498502e+2, 2.837816e+2, -277845.3, -180406.1, 54596.35, -0.031057617, -0.19940466, -155952.2, 2973.777, 0.0000000012345152, 9.998948, 10.000262 
1.0498311e+2, 2.9378152e+2, -198217.11, -79660.08, 38493.836, -0.025974425, -0.2577833, -68258.2, -7334.331, 0.0000025074758, 9.998765, 10.000369 
1.04980096e+2, 3.0378282e+2, -90141.28, 11140.232, -54621.15, -0.03141926, -0.17687695, 34984.08, 34984.08, 0.000040782536, 9.999131, 10.000487 
1.0497521e+2, 3.1378487e+2, 51089.414, 29585.08, -83011.36, -0.058773983, -0.012905565, 124042.055, 124042.055, 0.0001788825, 10.000266, 10.000071 
1.1504729e+2, 1.2379978e+2, -1529988.8, -1933348.1, 48406.977, -0.051587738, -0.18108007, -1524260.9, 202477.55, 0.0014675308, 10.002524, 9.99728 
1.1504236e+2, 1.3379693e+2, -1337568.6, -1684174.6, -27162.71, 0.02800176, -0.2973535, -1335452.9, 293315.7, 0.0008305489, 10.002761, 9.998202 
1.1503717e+2, 1.437952e+2, -1179684.0, -1505529.6, 17407.03, 0.028792312, -0.31033987, -1178756.8, 352029.4, 0.00033210375, 10.002956, 9.998651 
1.1503197e+2, 1.5379354e+2, -1037867.44, -1398216.3, 85926.29, -0.054356627, -0.3559637, -1018426.8, 414374.84, 0.00007103606, 10.003312, 9.998543 
1.1502741e+2, 1.6379243e+2, -1015865.1, -1386197.8, 91140.734, -0.07580573, -0.29867026, -994650.25, 340163.34, 0.0000041839003, 10.002995, 9.998107 
1.1502402e+2, 1.7379163e+2, -1111685.1, -1390873.1, 21814.904, 0.005419589, -0.20359175, -1109990.9, 126834.29, 0.000000024917117, 10.001711, 9.998017 
1.1502012e+2, 1.8379107e+2, -993775.7, -1101165.9, 18741.21, -0.001868537, -0.12944472, -990599.06, 148233.3, 0.0, 10.001057, 9.999651 
1.1501524e+2, 1.9379096e+2, -825670.8, -948596.4, 66415.305, -0.16311005, -0.14549151, -796642.4, 244190.11, 0.0, 10.001451, 9.999832 
1.15011446e+2, 2.037902e+2, -816955.2, -1016888.75, 28073.625, -0.16242157, -0.15224391, -813088.0, 129750.45, 0.0, 10.001369, 9.998734 
1.1500933e+2, 2.1378835e+2, -855719.56, -1005205.9, -11072.842, 0.08320376, -0.21388175, -854903.9, -10048.791, 0.0, 10.000516, 9.998552 
1.1500638e+2, 2.2378716e+2, -772034.8, -825729.9, 22333.27, 0.19072194, -0.22022322, -763960.06, -17092.8, 0.0, 10.000039, 9.999342 
1.1500206e+2, 2.3378697e+2, -659030.56, -714790.1, 68938.43, 0.06845731, -0.19736995, -612547.8, 36324.703, 0.0, 10.000111, 9.999399 
1.1499856e+2, 2.4378686e+2, -571174.5, -629532.7, 68917.98, 0.03699024, -0.14353417, -525513.06, 25363.592, 0.0, 10.000082, 9.999319 
1.1499632e+2, 2.5378662e+2, -511542.6, -555926.25, 50141.887, 0.14191769, -0.11328228, -478901.2, -26020.85, 0.0, 9.999844, 9.999267 
1.1499279e+2, 2.6378664e+2, -413136.44, -395055.5, 10853.335, 0.13889378, -0.062391438, -389970.63, -35088.6, 0.0, 9.999579, 9.999827 
1.1498721e+2, 2.7378696e+2, -372952.56, -328207.8, 4942.1685, -0.037333496, -0.035516147, -327668.44, -70787.484, 0.0, 9.999182, 9.999812 
1.1498364e+2, 2.837871e+2, -314775.56, -245716.75, 41480.293, -0.07827275, 0.003450097, -226274.92, -67394.85, 0.00000000007947066, 9.998906, 9.999831 
1.1498315e+2, 2.9378715e+2, -244401.52, -148023.03, 38045.93, 0.084320635, 0.0011319848, -134814.42, -73935.555, 0.000001910546, 9.998652, 9.999953 
1.1498035e+2, 3.0378684e+2, -115491.35, -27013.795, -19376.156, 0.06646796, -0.045593485, -22956.559, -22956.559, 0.000034748213, 9.999082, 10.000242 
1.1497453e+2, 3.137841e+2, -32717.969, -113495.945, -15166.253, -0.18947221, -0.3368874, -29964.338, -29964.338, 0.00015878698, 10.000144, 9.999141 
1.2505034e+2, 1.23804405e+2, -1496644.4, -1868968.1, -64566.84, 0.0018693749, -0.15653047, -1485765.4, 240930.84, 0.0014351123, 10.002571, 9.997692 
1.2504469e+2, 1.338014e+2, -1484428.3, -1712496.5, -68335.07, 0.051439535, -0.32465494, -1465520.8, 163205.45, 0.00081633194, 10.001574, 9.998582 
1.2503916e+2, 1.4380036e+2, -1408638.4, -1563885.8, 52887.797, 0.02877305, -0.3107065, -1392333.6, 138402.19, 0.00033045214, 10.001158, 9.999116 
1.2503436e+2, 1.5379958e+2, -1216252.4, -1436526.5, 28715.605, -0.07125222, -0.31534204, -1212570.5, 220171.67, 0.00007352079, 10.001872, 9.998975 
1.2502979e+2, 1.6379857e+2, -1168758.8, -1509230.5, -10086.43, -0.0929909, -0.25243002, -1168460.3, 166292.66, 0.0000047035833, 10.002155, 9.997669 
1.2502569e+2, 1.737968e+2, -1155182.0, -1476688.4, 12393.846, 0.0069643646, -0.19726813, -1154705.0, 82069.92, 0.000000012759114, 10.001681, 9.997449 
1.2502141e+2, 1.8379568e+2, -976071.5, -1114144.4, 79963.71, 0.01601424, -0.13952288, -939465.94, 199322.55, 0.0, 10.001279, 9.999454 
1.2501678e+2, 1.9379567e+2, -912816.7, -1010342.9, 28400.547, -0.12467526, -0.123322695, -905149.0, 135638.83, 0.0, 10.000941, 9.999657 
1.2501322e+2, 2.0379466e+2, -862159.44, -1040727.06, -30311.31, -0.1032019, -0.14677045, -857154.44, 85641.664, 0.0, 10.001067, 9.998713 
1.2501137e+2, 2.1379195e+2, -664268.2, -915341.1, -5106.11, 0.17285988, -0.29314682, -664164.4, 180655.03, 0.0, 10.001839, 9.998531 
1.2500806e+2, 2.2379091e+2, -521001.84, -706499.25, 38817.563, 0.27229032, -0.28156373, -513206.4, 233623.61, 0.0, 10.001772, 9.999322 
1.2500243e+2, 2.3379253e+2, -626330.7, -702500.5, -1475.071, 0.087892964, -0.07749975, -626302.1, 22518.51, 0.0, 10.000355, 9.999361 
1.2499814e+2, 2.4379285e+2, -609751.94, -621423.44, 21510.588, 0.009660996, 0.0120747695, -593299.56, -42478.75, 0.0, 9.9997015, 9.999558 
1.2499601e+2, 2.53791e+2, -423744.97, -486948.97, 61813.848, 0.10589235, -0.14529826, -385923.34, 66913.72, 0.0, 10.00032, 9.9995165 
1.2499241e+2, 2.6379034e+2, -311188.3, -384957.6, 42269.156, 0.10279547, -0.15781413, -291973.4, 62870.668, 0.0, 10.000457, 9.999469 
1.2498656e+2, 2.7379152e+2, -306253.72, -342201.4, 7174.956, -0.050806597, -0.0014013911, -304874.53, -48037.684, 0.0, 9.999857, 9.99938 
1.2498281e+2, 2.8379178e+2, -316281.78, -339416.13, 41827.15, -0.06670863, 0.10551029, -284451.8, -125613.64, 0.00000000021645001, 9.999299, 9.998996 
1.2498241e+2, 2.9379076e+2, -276244.34, -256417.38, -2376.5242, 0.14089994, 0.08721383, -256136.5, -195285.95, 0.0000014014497, 9.998841, 9.999113 
1.2497977e+2, 3.0379015e+2, -149620.22, -47740.375, -18991.887, 0.11968537, 0.053680457, -44315.168, -44315.168, 0.000028996776, 9.998839, 10.000234 
1.2497456e+2, 3.137872e+2, -172060.88, -191057.0, -5324.8325, -0.14491546, -0.26461062, -170670.1, -170670.1, 0.00013884061, 9.999217, 9.999066 
1.3505322e+2, 1.2380787e+2, -1383029.9, -1628882.1, -113743.64, -0.0031190477, -0.09590853, -1338479.3, 388195.28, 0.0014283952, 10.002562, 9.999342 
1.350463e+2, 1.3380732e+2, -1357026.9, -1453843.6, -101045.82, 0.038237978, -0.1912697, -1293392.3, 335281.97, 0.000819765, 10.001615, 10.00033 
1.3504043e+2, 1.438082e+2, -1428731.8, -1620964.4, 64505.348, 0.019179612, -0.064552754, -1409092.8, 121570.516, 0.00033887546, 10.001213, 9.9987 
1.3503711e+2, 1.5380755e+2, -1263219.4, -1536637.4, 61865.152, -0.0011057511, 0.012377958, -1249872.9, 182800.23, 0.0000801792, 10.001881, 9.998283 
1.3503283e+2, 1.6380602e+2, -1125384.4, -1409027.8, -28063.111, -0.019392028, 0.029961778, -1122634.5, 212054.5, 0.0000062149566, 10.002118, 9.998372 
1.3502726e+2, 1.7380257e+2, -1093399.5, -1347160.9, 2407.3376, -0.02362938, -0.17058744, -1093376.6, 143342.81, 0.000000017143847, 10.001686, 9.998329 
1.3502268e+2, 1.838003e+2, -1058465.1, -1286590.0, 60515.883, -0.0025624195, -0.22427568, -1043405.9, 95335.68, 0.0, 10.001274, 9.998276 
1.3501966e+2, 1.9380009e+2, -1014155.94, -1218122.6, 22128.432, 0.051931337, -0.08843103, -1011782.8, 28965.744, 0.0, 10.000928, 9.998237 
1.3501649e+2, 2.0379896e+2, -818641.06, -940331.56, -10190.643, 0.10073735, -0.074180886, -817793.56, 124965.875, 0.0, 10.001023, 9.999425 
1.3501297e+2, 2.1379623e+2, -602334.8, -771688.3, 31847.709, 0.1324077, -0.3207519, -596543.7, 248234.17, 0.0, 10.001777, 9.999546 
1.3500842e+2, 2.2379547e+2, -581514.44, -822346.2, -11695.901, 0.11480535, -0.3059624, -580947.75, 165837.16, 0.0, 10.001722, 9.998552 
1.3500221e+2, 2.3379768e+2, -702546.75, -850445.2, -50899.215, 0.01474303, 0.057145152, -686722.8, -37947.758, 0.0, 10.000308, 9.998368 
1.3499764e+2, 2.4379796e+2, -553419.25, -494438.78, 29721.943, -0.026101828, 0.15758413, -482059.38, 68717.0, 0.0, 9.999659, 10.000452 
1.3499568e+2, 2.5379512e+2, -353018.94, -324188.28, 91408.52, 0.025974791, -0.21354115, -246065.4, 206729.84, 0.0, 10.000252, 10.000668 
1.3499217e+2, 2.6379412e+2, -350183.47, -454882.44, 20464.598, 0.019694129, -0.30423757, -346325.6, 8476.277, 0.0, 10.000412, 9.999008 
1.349864e+2, 2.737958e+2, -365493.72, -444644.97, -8900.824, -0.067392364, -0.02983007, -364505.13, -107713.96, 0.0, 9.999771, 9.998716 
1.3498233e+2, 2.8379548e+2, -403194.56, -509938.03, 17021.59, -0.060810164, 0.10562385, -400545.97, -241744.72, 0.000000004047862, 9.999259, 9.997845 
1.3498075e+2, 2.9379225e+2, -373732.72, -443660.38, -12415.658, 0.07459274, -0.011002509, -371593.75, -310753.28, 0.0000011638989, 9.998773, 9.997865 
1.3497812e+2, 3.0379263e+2, -140301.86, -11507.436, -9211.131, 0.05985816, 0.1151491, -10852.009, -10852.009, 0.00002379093, 9.9987755, 10.000508 
1.3497487e+2, 3.137943e+2, -133611.97, -86698.266, 29566.703, -0.06853141, 0.21630807, -72413.71, -72413.71, 0.00011909773, 9.999114, 9.999833 
1.450545e+2, 1.2381276e+2, -1621082.4, -1688934.0, 46859.86, -0.025523122, -0.06732194, -1597156.6, 129472.83, 0.0014440229, 10.000679, 9.999842 
1.4504817e+2, 1.3381276e+2, -1258271.4, -1364757.8, -69916.91, 0.04308085, -0.14892846, -1223632.8, 404988.8, 0.00083842565, 10.0021, 10.000712 
1.4504284e+2, 1.4381394e+2, -1218756.4, -1554864.3, 57191.133, 0.061153885, -0.0012351074, -1209291.4, 321315.6, 0.00035495815, 10.0028105, 9.998386 
1.4503995e+2, 1.5381242e+2, -1203670.4, -1553185.4, 61334.758, 0.06885216, 0.032226767, -1193219.6, 239407.11, 0.00008912459, 10.002487, 9.99788 
1.4503565e+2, 1.6381057e+2, -1061096.0, -1323308.3, -21801.43, 0.046568133, 0.016874278, -1059295.8, 275350.2, 0.000008328298, 10.002325, 9.998858 
1.4502941e+2, 1.7380764e+2, -957889.5, -1218014.3, -29221.219, -0.0068377885, -0.19014575, -954647.3, 282022.0, 0.0000000715251, 10.002334, 9.998907 
1.4502455e+2, 1.8380563e+2, -935421.5, -1265382.4, 54430.1, 0.009954938, -0.23443128, -926674.6, 212013.53, 0.0, 10.002285, 9.997934 
1.4502183e+2, 1.938052e+2, -874452.4, -1207248.5, 73802.23, 0.1202893, -0.07251644, -858820.0, 181878.75, 0.0, 10.00212, 9.997744 
1.4501837e+2, 2.0380403e+2, -730893.56, -889174.8, 73294.55, 0.1632598, -0.038007263, -702167.0, 240544.05, 0.0, 10.0015955, 9.999497 
1.4501368e+2, 2.1380161e+2, -783478.0, -845476.7, 37824.734, 0.09451161, -0.26793388, -765572.6, 79153.91, 0.0, 10.000478, 9.999665 
1.4500852e+2, 2.238006e+2, -814032.1, -941484.1, -8539.206, 0.033040103, -0.28126234, -813462.56, -66727.39, 0.0, 10.000164, 9.998485 
1.4500266e+2, 2.3380172e+2, -588300.94, -807670.8, 6931.072, -0.007843818, -0.015958931, -588082.1, 60651.473, 0.0, 10.001146, 9.998261 
1.449981e+2, 2.4380158e+2, -364864.44, -469291.0, 82714.01, -0.019721322, 0.07550407, -319262.4, 231476.69, 0.0, 10.001239, 9.999864 
1.4499553e+2, 2.5379947e+2, -446934.72, -436767.25, -3790.7012, 0.0069006095, -0.1613966, -435509.53, 17245.354, 0.0, 9.999914, 10.00005 
1.4499179e+2, 2.637985e+2, -494212.06, -524715.3, -109533.96, -0.0048697903, -0.2140952, -398873.0, -44110.78, 0.0, 9.9994135, 9.999017 
1.449865e+2, 2.7379918e+2, -296894.78, -401543.7, -89188.055, -0.050918486, -0.05053956, -245815.36, 10942.983, 0.0, 10.000186, 9.998821 
1.4498228e+2, 2.837982e+2, -238570.94, -435406.88, -881.55396, -0.043073364, 0.014888576, -238566.98, -79794.17, 0.000000009906891, 10.000399, 9.997815 
1.4497949e+2, 2.9379505e+2, -233421.13, -379647.94, 44364.332, 0.025882555, -0.088007286, -221013.98, -160202.97, 0.0000010398929, 9.999749, 9.997833 
1.4497645e+2, 3.037959e+2, -105683.28, -30407.86, 104389.47, 0.0027654488, 0.1017953, 42921.805, 42921.805, 0.000019274365, 9.999169, 10.000181 
1.449746e+2, 3.1379837e+2, -212687.25, -85578.37, 64161.227, 0.03774816, 0.3097227, -58823.176, -58823.176, 0.00010043125, 9.998415, 10.000166 
1.5505376e+2, 1.2381931e+2, -1655555.4, -1783076.9, 78389.0, -0.20864034, -0.052892413, -1618270.3, 108288.74, 0.0014662774, 10.000773, 9.999153 
1.5505005e+2, 1.3381776e+2, -1320460.1, -1502708.9, -14668.888, 0.0010649816, -0.18906058, -1319287.0, 309280.88, 0.0008607167, 10.002131, 9.999754 
1.5504602e+2, 1.4381756e+2, -1231602.8, -1580926.0, 44535.52, 0.08150372, -0.11863855, -1226014.3, 304552.8, 0.00037131715, 10.00281, 9.998209 
1.5504262e+2, 1.5381424e+2, -1207784.9, -1564786.3, 56198.6, 0.06732295, -0.25579253, -1199147.3, 233455.28, 0.00009663115, 10.002502, 9.997791 
1.5503807e+2, 1.6381231e+2, -1047068.7, -1287663.8, -28919.729, 0.0388801, -0.28423783, -1043641.3, 290981.4, 0.000009881803, 10.0023, 9.999116 
1.5503192e+2, 1.7381215e+2, -938833.94, -1171949.9, -21945.428, -0.0035106847, -0.24452353, -936786.0, 299837.03, 0.00000020107916, 10.00231, 9.999235 
1.5502676e+2, 1.8381174e+2, -906938.0, -1203867.0, 43473.477, -0.014239983, -0.16600265, -900703.94, 237923.73, 0.0, 10.002272, 9.998364 
1.5502308e+2, 1.9381101e+2, -849532.8, -1145861.9, 73863.04, 0.017128741, -0.07867123, -832142.3, 208496.47, 0.0, 10.002086, 9.998179 
1.5501872e+2, 2.0380989e+2, -779319.0, -982247.2, 29784.629, 0.023628777, -0.035556123, -775037.7, 167613.25, 0.0, 10.001558, 9.99888 
1.550132e+2, 2.1380807e+2, -842437.1, -954884.5, 601.8778, -0.0155457165, -0.13163778, -842433.94, 2231.634, 0.0, 10.000421, 9.998941 
1.550081e+2, 2.2380632e+2, -780678.1, -859160.44, 13708.308, -0.03773879, -0.20399056, -778352.6, -31672.209, 0.0, 10.000107, 9.999078 
1.5500368e+2, 2.3380463e+2, -541809.8, -700820.25, 51949.695, -0.03599786, -0.2974952, -526342.1, 122354.28, 0.0, 10.001099, 9.99902 
1.5499935e+2, 2.4380371e+2, -515306.38, -773068.94, 37231.055, -0.033722218, -0.23436718, -510036.47, 40672.492, 0.0, 10.001201, 9.997796 
1.5499529e+2, 2.5380394e+2, -630510.0, -802555.9, -47951.836, -0.023878785, 0.007428935, -618047.75, -165330.94, 0.0, 9.999843, 9.997576 
1.5499105e+2, 2.638034e+2, -464064.13, -450986.9, -95099.18, -0.034140296, 0.113249786, -362201.8, -7475.8086, 0.0, 9.999371, 9.99954 
1.5498666e+2, 2.738015e+2, -246275.56, -278387.2, -52946.492, -0.06657789, -0.07107535, -207003.98, 49735.4, 0.0, 10.000109, 9.999705 
1.5498245e+2, 2.8379986e+2, -165375.5, -272703.47, -23559.203, -0.08014213, -0.16840696, -160431.81, -1678.6525, 0.000000005626964, 10.000356, 9.998949 
1.549783e+2, 2.9379913e+2, -163418.84, -218414.5, 31126.293, -0.087841436, -0.14842673, -149383.83, -88621.18, 0.00000084127635, 9.999677, 9.998976 
1.5497456e+2, 3.0379996e+2, -178279.31, -164930.55, 73807.26, -0.11661927, 0.018157577, -97496.51, -97496.51, 0.000015268795, 9.999113, 9.999274 
1.5497343e+2, 3.1379938e+2, -240718.36, -116417.875, 54457.3, 0.046240177, 0.027660925, -95934.89, -95934.89, 0.00008386637, 9.998308, 9.999997 
1.6505705e+2, 1.23824656e+2, -1459617.5, -1798962.4, 89814.695, -0.04283245, -0.103950664, -1437312.3, 289188.44, 0.0014745225, 10.002591, 9.998165 
1.650526e+2, 1.3382147e+2, -1246969.3, -1604864.8, -42014.324, -0.0070487717, -0.28139636, -1242103.3, 386426.97, 0.00086981576, 10.003239, 9.998512 
1.6504799e+2, 1.4382075e+2, -1182891.6, -1516136.8, -27097.602, -0.006876748, -0.2110843, -1180702.5, 349833.6, 0.00037795518, 10.002989, 9.998554 
1.6504434e+2, 1.5381807e+2, -1315750.9, -1559399.4, 9370.952, 0.043393876, -0.33620492, -1315391.0, 117172.02, 0.000098805474, 10.001522, 9.998295 
1.6503981e+2, 1.6381668e+2, -1235798.4, -1400052.1, -1719.8676, 0.048818804, -0.32828405, -1235780.4, 98797.516, 0.000009884257, 10.001082, 9.99893 
1.650341e+2, 1.738171e+2, -979424.25, -1219920.6, -41821.395, -0.0045796004, -0.20904745, -972359.2, 264217.22, 0.0000002904704, 10.002148, 9.9989805 
1.6502891e+2, 1.8381701e+2, -849294.0, -1105082.5, -21338.389, -0.027878232, -0.11170903, -847526.1, 291052.53, 0.0, 10.00238, 9.9989805 
1.650245e+2, 1.938162e+2, -916564.06, -1096103.3, 11860.877, -0.0034066434, -0.106388554, -915783.9, 124802.75, 0.0, 10.001277, 9.998904 
1.6501969e+2, 2.0381501e+2, -933605.7, -1119068.5, 5691.073, 0.0075465343, -0.08414035, -933431.2, 9167.299, 0.0, 10.0007715, 9.998318 
1.6501413e+2, 2.1381333e+2, -775188.4, -1004244.9, -33598.996, -0.0008828962, -0.09315304, -770361.6, 74254.51, 0.0, 10.00124, 9.998207 
1.6500905e+2, 2.2381136e+2, -606072.75, -786563.9, -13363.917, -0.012180711, -0.1438117, -605088.6, 141546.39, 0.0, 10.001363, 9.998967 
1.6500467e+2, 2.3380896e+2, -576825.6, -716880.94, -46259.535, -0.030999366, -0.30425364, -562925.8, 85729.35, 0.0, 10.000871, 9.999011 
1.6500017e+2, 2.4380769e+2, -637280.1, -862457.7, -56798.965, -0.033282887, -0.26427504, -623764.4, -73094.21, 0.0, 10.000495, 9.997523 
1.6499554e+2, 2.5380814e+2, -582355.06, -812498.7, 3000.8508, -0.0025331115, 0.031429797, -582315.94, -129638.89, 0.0, 10.000315, 9.997279 
1.6499102e+2, 2.6380754e+2, -382919.7, -442546.4, 67300.25, -0.003687002, 0.15581669, -339124.88, 15563.181, 0.0, 10.0000515, 9.999273 
1.6498685e+2, 2.73805e+2, -323165.28, -338494.78, 13879.583, -0.033507027, -0.068748154, -314974.72, -58267.176, 0.0, 9.999682, 9.999489 
1.6498251e+2, 2.8380322e+2, -290376.63, -298550.25, -40290.93, -0.054433577, -0.1787383, -253965.77, -95244.38, 0.00000000009995645, 9.999352, 9.999253 
1.6497782e+2, 2.938032e+2, -223942.48, -204668.9, -62161.74, -0.068790644, -0.12531278, -151401.4, -90679.73, 0.00000051342266, 9.999078, 9.99936 
1.649731e+2, 3.038035e+2, -268854.3, -225406.92, -22923.48, -0.14050935, -0.023749035, -215548.9, -215548.9, 0.000011747977, 9.99855, 9.99914 
1.6497107e+2, 3.1380254e+2, -309071.84, -90187.2, 2648.8445, 0.024220116, -0.034146253, -90155.15, -90155.15, 0.00007014343, 9.997569, 10.000541 
1.7506382e+2, 1.2382874e+2, -1537983.0, -1967099.6, 95463.625, 0.33727416, -0.2308305, -1517704.0, 208751.25, 0.0014574766, 10.002618, 9.996994 
1.750556e+2, 1.3382398e+2, -1348137.3, -1819811.1, -15295.503, -0.04855124, -0.42150554, -1347641.8, 280865.53, 0.00085594517, 10.0032625, 9.997023 
1.7504863e+2, 1.4382352e+2, -1123325.4, -1397069.3, -79411.734, -0.25928155, -0.27692935, -1101956.5, 428557.3, 0.0003688444, 10.003003, 9.99937 
1.7504492e+2, 1.5382382e+2, -1234588.5, -1392121.9, -37574.504, -0.0702872, -0.21433276, -1226085.3, 206423.55, 0.00009401229, 10.001528, 9.99944 
1.7504069e+2, 1.6382365e+2, -1277625.8, -1483176.5, 22254.748, 0.011491072, -0.12370504, -1275243.9, 59267.758, 0.000008393363, 10.001066, 9.998368 
1.7503572e+2, 1.738225e+2, -1036791.75, -1336845.4, 4575.4683, -0.076473564, -0.07958898, -1036722.0, 199806.95, 0.00000020811186, 10.002144, 9.998178 
1.750308e+2, 1.8382153e+2, -793019.0, -989705.0, -58446.723, -0.09426533, -0.063184306, -776962.0, 361578.2, 0.0, 10.002375, 9.999781 
1.7502588e+2, 1.9382079e+2, -847533.94, -947853.2, -23488.438, -0.010581751, -0.15096118, -842306.75, 198235.14, 0.0, 10.00125, 9.999937 
1.7502102e+2, 2.038195e+2, -976302.2, -1199036.6, 9919.02, 0.05102779, -0.17511973, -975861.3, -33308.344, 0.0, 10.000731, 9.997788 
1.750163e+2, 2.1381734e+2, -834359.3, -1119419.8, -8833.045, 0.07558967, -0.16006342, -834085.9, 10493.157, 0.0, 10.0012045, 9.997435 
1.7501116e+2, 2.2381568e+2, -670667.56, -908748.3, -33126.582, 0.047592696, -0.09916285, -666144.25, 80454.71, 0.0, 10.001311, 9.998152 
1.7500545e+2, 2.3381469e+2, -642670.6, -842629.25, -58260.293, -0.055135205, -0.038322624, -626934.25, 21676.107, 0.0, 10.000817, 9.998175 
1.7500032e+2, 2.4381347e+2, -537929.75, -644513.06, -71155.83, -0.080305554, -0.011115429, -502321.72, 48300.996, 0.0, 10.000447, 9.999038 
1.749961e+2, 2.53812e+2, -465211.34, -553672.9, 718.1019, 0.008892154, -0.09119929, -465205.53, -12569.296, 0.0, 10.000248, 9.999087 
1.7499161e+2, 2.6381075e+2, -456855.28, -589297.4, 48771.586, 0.03700643, -0.08692131, -440833.4, -86184.61, 0.0, 10.000023, 9.998278 
1.7498681e+2, 2.7380958e+2, -428554.5, -546281.9, 6308.911, -0.019641375, -0.0391288, -428217.38, -171554.55, 0.0, 9.999631, 9.99809 
1.7498225e+2, 2.8380826e+2, -329293.88, -375099.25, -59341.215, -0.030596212, -0.0053724353, -288589.06, -129911.375, 0.0, 9.999332, 9.998736 
1.7497773e+2, 2.9380712e+2, -263211.8, -271153.34, -65532.285, 0.0007274251, -0.021688595, -201530.11, -140840.75, 0.00000027417164, 9.999015, 9.998933 
1.7497185e+2, 3.0380636e+2, -222961.14, -125144.77, -61863.94, -0.13206454, -0.03123722, -95191.32, -95191.32, 0.000009335192, 9.9985285, 9.999842 
1.7496699e+2, 3.1380796e+2, -236843.67, 86347.22, -15028.736, -0.17268674, 0.1266308, 87044.57, 87044.57, 0.000059812894, 9.997465, 10.001801 
1.8506715e+2, 1.23834305e+2, -1401741.3, -1865535.6, 112251.734, 0.37489736, -0.200556, -1376001.5, 350401.66, 0.001411963, 10.003386, 9.997327 
1.8505894e+2, 1.3383006e+2, -1325892.1, -1795458.4, 98692.87, -0.042140197, -0.35315147, -1305992.3, 322457.78, 0.0008198644, 10.003349, 9.997149 
1.8505158e+2, 1.438298e+2, -1114535.8, -1409603.5, 45778.23, -0.26679736, -0.18911074, -1107596.6, 422858.4, 0.0003462985, 10.003119, 9.9992285 
1.8504716e+2, 1.5383004e+2, -1055561.3, -1323236.0, -23862.05, -0.05884979, -0.11809645, -1053450.6, 379000.56, 0.000084445885, 10.002822, 9.999293 
1.8504249e+2, 1.6382967e+2, -1094636.6, -1382637.4, 48966.43, 0.024878507, -0.04591728, -1086538.9, 247916.84, 0.000006352812, 10.002288, 9.998465 
1.8503746e+2, 1.7382804e+2, -1133682.3, -1372164.3, 91212.19, -0.07891636, -0.05913806, -1102796.4, 133679.61, 0.000000056960435, 10.001432, 9.9982815 
1.8503237e+2, 1.8382667e+2, -1037786.3, -1141294.3, 15198.193, -0.09332775, -0.07341835, -1035600.9, 102889.875, 0.0, 10.00084, 9.999477 
1.8502706e+2, 1.9382578e+2, -962944.6, -1042579.3, -67995.76, 0.018150436, -0.14193174, -923965.75, 116530.51, 0.0, 10.000628, 9.999586 
1.8502213e+2, 2.0382455e+2, -932084.75, -1131802.6, -5596.233, 0.08551134, -0.15790735, -931928.06, 10578.986, 0.0, 10.0008335, 9.9982 
1.8501776e+2, 2.1382287e+2, -730400.44, -1009740.1, 64794.71, 0.08271809, -0.14568411, -716102.7, 128423.305, 0.0, 10.001656, 9.99797 
1.8501268e+2, 2.2382146e+2, -636572.6, -944256.06, 70271.34, 0.0507047, -0.0712519, -621283.25, 125260.2, 0.0, 10.001755, 9.997704 
1.850066e+2, 2.3382038e+2, -700686.06, -934912.8, 46780.074, -0.009987914, 0.038563635, -691688.7, -43129.973, 0.0, 10.000686, 9.997611 
1.8500109e+2, 2.4381898e+2, -555486.94, -603806.0, 47871.543, -0.029941648, 0.06012773, -526024.0, 24549.098, 0.0, 10.000111, 9.999482 
1.849964e+2, 2.5381714e+2, -414200.8, -461551.28, 18051.184, 0.013609936, -0.11362522, -408104.22, 44481.563, 0.0, 10.000307, 9.99969 
1.8499154e+2, 2.638158e+2, -424004.13, -610270.2, 37726.14, 0.010242337, -0.140593, -416653.2, -62055.227, 0.0, 10.000405, 9.997951 
1.8498658e+2, 2.7381495e+2, -356192.78, -560315.0, 54470.848, -0.0400593, -0.015635788, -342566.63, -85955.04, 0.0, 10.000339, 9.997655 
1.849819e+2, 2.8381374e+2, -261276.03, -340966.5, 40637.17, -0.017249614, 0.057818815, -244208.86, -85582.86, 0.0, 9.99979, 9.998752 
1.8497732e+2, 2.938124e+2, -341458.44, -307798.0, 51020.477, 0.087969095, 0.011954527, -270903.5, -210264.77, 0.00000021710767, 9.998471, 9.998943 
1.8497051e+2, 3.0381072e+2, -359472.75, -181574.55, 70438.39, -0.064017355, -0.08982229, -157062.16, -157062.16, 0.0000079127085, 9.997542, 9.999929 
1.8496437e+2, 3.1381312e+2, -278752.1, 68587.36, 39986.77, -0.15909646, 0.13272373, 73131.31, 73131.31, 0.00005116492, 9.997137, 10.00185 
1.9506681e+2, 1.238413e+2, -1278084.6, -1602055.5, 90254.98, -0.035305656, -0.014960955, -1254637.5, 471707.5, 0.001338509, 10.003372, 9.999138 
1.9506243e+2, 1.3383953e+2, -1216283.4, -1551912.1, 97209.64, -0.04215644, -0.08787611, -1190161.3, 438199.1, 0.0007672974, 10.003298, 9.998838 
1.9505663e+2, 1.4383945e+2, -1189494.5, -1562489.1, 26550.602, -0.093381815, 0.045231, -1187614.0, 342747.22, 0.00031672008, 10.003098, 9.998193 
1.9505082e+2, 1.5383676e+2, -1153862.6, -1525975.3, -29111.742, 0.008122884, -0.04156977, -1151598.9, 280790.94, 0.000073711046, 10.002815, 9.997905 
1.9504493e+2, 1.6383481e+2, -1044081.7, -1276939.9, 15781.172, 0.027407002, -0.08173, -1043017.0, 291392.16, 0.0000047225935, 10.002278, 9.999198 
1.9503917e+2, 1.7383374e+2, -1063206.5, -1224857.6, 67641.06, -0.066842504, -0.14099519, -1038637.2, 197779.61, 0.0000000036456946, 10.001424, 9.999297 
1.9503349e+2, 1.838325e+2, -1142127.9, -1352852.9, -2104.9063, -0.08076486, -0.13688585, -1142106.9, -3676.857, 0.0, 10.0008135, 9.998042 
1.9502786e+2, 1.9383103e+2, -1089140.6, -1300774.3, -69261.41, 0.019735457, -0.08717706, -1068488.8, -28038.018, 0.0, 10.000609, 9.997827 
1.9502272e+2, 2.0383011e+2, -841576.4, -931624.7, 16479.428, 0.047762364, -0.036357503, -838655.25, 103806.164, 0.0, 10.000783, 9.999598 
1.9501832e+2, 2.138299e+2, -612020.3, -749918.3, 102874.58, -0.042382415, -0.05514122, -557126.1, 287331.6, 0.0, 10.001596, 9.999782 
1.9501346e+2, 2.2382872e+2, -651545.75, -960617.94, 31104.066, -0.05987577, -0.054334752, -648446.56, 98021.65, 0.0, 10.001696, 9.997618 
1.9500794e+2, 2.3382604e+2, -732867.6, -987172.56, 12107.9795, 0.04070095, -0.07424566, -732292.44, -83791.83, 0.0, 10.000625, 9.99728 
1.9500224e+2, 2.4382417e+2, -607620.25, -700443.8, 44223.33, 0.06325342, -0.053884048, -589924.7, -39402.83, 0.0, 10.00006, 9.998843 
1.9499621e+2, 2.5382355e+2, -471034.53, -564523.75, 31804.248, -0.051284693, -0.038761664, -461240.94, -8714.831, 0.0, 10.000242, 9.999014 
1.9499059e+2, 2.6382264e+2, -401372.4, -555881.44, 30836.47, -0.13809316, -0.00025973603, -395445.5, -40910.305, 0.0, 10.000375, 9.99834 
1.9498587e+2, 2.7382106e+2, -326383.6, -487013.56, 60125.74, -0.1595245, 0.00071243354, -306371.13, -49817.598, 0.0, 10.000285, 9.998187 
1.9498129e+2, 2.8381974e+2, -230867.81, -269562.56, -7885.086, -0.07221187, 0.006353112, -229322.7, -70756.12, 0.0, 9.999757, 9.999257 
1.9497637e+2, 2.938191e+2, -324998.5, -253724.44, 9291.531, 0.13010994, -0.015566014, -252533.08, -191963.83, 0.0000002787285, 9.998388, 9.999354 
1.9496891e+2, 3.0381665e+2, -398786.8, -251045.02, 48402.06, 0.00690136, -0.19528946, -236600.19, -236600.19, 0.000006930128, 9.997498, 9.99947 
1.949628e+2, 3.1381825e+2, -361014.5, -79000.85, 35138.11, -0.06038154, -0.00049782277, -74688.67, -74688.67, 0.00004299831, 9.997052, 10.000871 
2.0506924e+2, 1.23847194e+2, -1274179.9, -1546865.6, 109998.65, -0.1120417, 0.014480856, -1235339.8, 490951.28, 0.0012409434, 10.003186, 9.999602 
2.0506512e+2, 1.3384587e+2, -1451548.4, -1633319.6, -12199.907, -0.0074710296, -0.0473921, -1450733.3, 177566.22, 0.0007023467, 10.001535, 9.999138 
2.0505925e+2, 1.4384559e+2, -1525261.6, -1713843.6, -48618.28, -0.019172266, 0.047244582, -1513465.3, 16835.818, 0.0002832004, 10.000762, 9.998277 
2.0505309e+2, 1.5384266e+2, -1327761.1, -1603956.4, -12557.87, 0.018383317, -0.06856139, -1327191.3, 105141.4, 0.000063005726, 10.001601, 9.997953 
2.0504692e+2, 1.6384056e+2, -1093046.5, -1308335.8, 47977.168, 0.015559326, -0.12249011, -1082838.8, 251515.0, 0.0000035155435, 10.001975, 9.999126 
2.0504099e+2, 1.7383964e+2, -1043176.2, -1223959.5, 3321.069, -0.03321643, -0.15747572, -1043115.2, 193244.36, 0.0000000004928599, 10.001603, 9.999215 
2.0503509e+2, 1.8383859e+2, -1037350.06, -1314183.0, -28227.98, -0.036728784, -0.12435739, -1034501.06, 103869.88, 0.0, 10.001585, 9.997935 
2.050292e+2, 1.9383734e+2, -878236.3, -1212157.9, 16643.904, 0.021946242, -0.043987826, -877408.75, 162982.05, 0.0, 10.00211, 9.997711 
2.0502375e+2, 2.038365e+2, -688612.4, -865343.94, 117791.83, 0.021863095, 0.023777323, -629725.2, 312676.6, 0.0, 10.001864, 9.999535 
2.05019e+2, 2.1383621e+2, -797901.75, -846507.1, 51828.254, -0.06882345, 0.0034700846, -764961.2, 79438.555, 0.0, 10.000349, 9.999721 
2.0501395e+2, 2.23835e+2, -890036.94, -1006264.5, -54772.258, -0.08080099, -0.021530988, -868293.25, -121883.664, 0.0, 9.999761, 9.998233 
2.0500854e+2, 2.3383234e+2, -683680.9, -885113.06, -7752.8784, 0.040922597, -0.10821651, -683382.94, -34944.973, 0.0, 10.000625, 9.997979 
2.0500296e+2, 2.438307e+2, -519203.16, -701411.5, 82289.69, 0.09210159, -0.09025007, -487541.03, 62915.477, 0.0, 10.000855, 9.998451 
2.0499708e+2, 2.538305e+2, -523733.16, -652720.4, 69444.45, 0.02041002, 0.01982158, -493453.56, -40993.125, 0.0, 10.000149, 9.998453 
2.0499124e+2, 2.6382965e+2, -480895.13, -538800.44, 90166.625, -0.068098135, 0.07858524, -415146.78, -60677.22, 0.0, 9.999598, 9.998827 
2.0498575e+2, 2.7382773e+2, -424930.38, -462715.06, 110014.664, -0.14744191, -0.017745404, -332197.7, -75709.484, 0.0, 9.9993105, 9.998817 
2.0498085e+2, 2.838265e+2, -298156.3, -314314.84, 30517.3, -0.06761344, -0.032555606, -274666.9, -116167.88, 0.0, 9.99935, 9.999147 
2.0497622e+2, 2.9382664e+2, -116502.34, -174059.45, -9805.734, 0.20387782, 0.040921517, -114877.65, -54382.4, 0.00000036340376, 9.999915, 9.999163 
2.0496826e+2, 3.0382383e+2, -29333.049, -109910.27, 23366.088, 0.062656656, -0.15032925, -23047.566, -23047.566, 0.000006339283, 10.000204, 9.999135 
2.0496136e+2, 3.1382313e+2, -19811.643, 982.9548, -15491.844, -0.03847924, -0.15182194, 9243.122, 9243.122, 0.00003635789, 9.999784, 10.0000925 
2.1507393e+2, 1.2385204e+2, -1334494.1, -1671130.8, 35454.773, 0.003372444, -0.106329344, -1330800.6, 395440.22, 0.0011228287, 10.003182, 9.998751 
2.1506687e+2, 1.3384925e+2, -1515924.9, -1776510.8, -69072.28, -0.0032881047, -0.21588293, -1498748.5, 129516.945, 0.0006268981, 10.001575, 9.998137 
2.1505927e+2, 1.438484e+2, -1446507.4, -1555590.8, -34999.066, -0.11153612, -0.16754772, -1436243.8, 94028.945, 0.0002465844, 10.000781, 9.999355 
2.1505378e+2, 1.5384772e+2, -1226830.3, -1398256.9, 25813.744, -0.09069208, -0.19508827, -1223027.5, 209252.47, 0.000052325075, 10.001615, 9.99936 
2.1504824e+2, 1.6384685e+2, -1156403.6, -1433856.6, 32331.066, -0.06692281, -0.16798714, -1152685.9, 181604.25, 0.000002586899, 10.001947, 9.99828 
2.150427e+2, 1.7384568e+2, -1125087.5, -1389677.8, -4338.3994, -0.03779972, -0.116894834, -1125016.4, 111288.516, 0.000000000052014764, 10.001586, 9.998084 
2.1503694e+2, 1.8384491e+2, -958871.7, -1144903.4, -16998.973, -0.022871628, -0.044819728, -957331.1, 180983.34, 0.0, 10.001554, 9.999115 
2.1503091e+2, 1.9384465e+2, -775645.56, -993900.94, 43072.656, -0.034656845, -0.01190557, -767452.7, 272864.38, 0.0, 10.002086, 9.999222 
2.1502507e+2, 2.038437e+2, -801530.06, -1089994.0, 63037.156, -0.04705984, 0.029093098, -788356.4, 153971.88, 0.0, 10.001822, 9.998012 
2.1501957e+2, 2.1384172e+2, -940407.25, -1128225.5, -935.44727, -0.061929215, 0.02864201, -940402.6, -96049.87, 0.0, 10.000288, 9.997816 
2.1501394e+2, 2.2384019e+2, -805869.6, -816225.25, -38011.2, -0.06965692, 0.019335302, -772685.2, -26316.795, 0.0, 9.999697, 9.999567 
2.150082e+2, 2.3383932e+2, -572072.94, -632979.56, 33565.65, -0.0676367, -0.06510298, -557204.5, 91166.45, 0.0, 10.00054, 9.999749 
2.1500306e+2, 2.4383855e+2, -536082.06, -728548.5, 56533.25, 0.00094115606, -0.04876711, -520705.03, 29672.045, 0.0, 10.000821, 9.998282 
2.1499884e+2, 2.5383794e+2, -564060.25, -718119.7, 47585.363, 0.16646816, 0.06534178, -550547.5, -98158.84, 0.0, 10.000071, 9.998044 
2.1499331e+2, 2.638369e+2, -449302.7, -464076.25, 72474.18, 0.16625585, 0.098055504, -383839.84, -29438.848, 0.0, 9.999558, 9.999357 
2.14986e+2, 2.738349e+2, -391589.34, -378673.25, 106746.08, -0.07008285, -0.068972744, -278190.03, -21773.654, 0.0, 9.999244, 9.999426 
2.1498035e+2, 2.83834e+2, -344884.9, -402183.97, 41219.023, -0.06732437, -0.0589989, -323336.78, -164912.86, 0.0, 9.999314, 9.998559 
2.149767e+2, 2.93835e+2, -177272.1, -291805.3, 17800.523, 0.24498895, 0.17853944, -174569.36, -114152.37, 0.0000004878426, 9.999877, 9.998375 
2.1496844e+2, 3.0383223e+2, -49558.75, -151416.61, 10895.265, 0.04909982, 0.046533927, -48406.375, -48406.375, 0.0000063211505, 10.000198, 9.998856 
2.1495977e+2, 3.1382778e+2, -80558.59, -113280.79, -30157.568, -0.2081087, -0.30484322, -62609.86, -62609.86, 0.0000317033, 9.999725, 9.999343 
2.2507769e+2, 1.2385873e+2, -1351630.1, -1662754.8, 36233.055, 0.07880756, -0.078733556, -1347466.3, 378711.34, 0.0009916932, 10.002974, 9.998918 
2.250689e+2, 1.338556e+2, -1390648.6, -1696324.3, -10016.346, 0.007991315, -0.24345316, -1390320.8, 237882.9, 0.0005457132, 10.002362, 9.998302 
2.250604e+2, 1.4385442e+2, -1311519.4, -1498586.5, 95318.61, -0.12021582, -0.2312652, -1271508.4, 258705.02, 0.00020902291, 10.00174, 9.9992895 
2.2505568e+2, 1.538546e+2, -1286521.1, -1437610.4, 44307.055, -0.040043723, -0.1650526, -1274486.6, 157727.19, 0.000042237294, 10.001246, 9.999272 
2.2505023e+2, 1.6385409e+2, -1287213.0, -1488466.3, 21419.783, -0.010831009, -0.099510714, -1284958.5, 49262.457, 0.0000020119714, 10.001008, 9.998361 
2.2504371e+2, 1.738525e+2, -1196918.8, -1418546.6, 58287.86, -0.06442463, -0.099394605, -1182524.0, 53715.613, 0.0, 10.00106, 9.998146 
2.2503756e+2, 1.8385153e+2, -1011978.9, -1132389.6, 90069.516, -0.08597808, -0.06485357, -963845.8, 174404.11, 0.0, 10.00103, 9.99945 
2.2503203e+2, 1.9385152e+2, -937536.5, -1032137.25, 57439.234, -0.0645278, -0.043617222, -910428.6, 129819.05, 0.0, 10.0008135, 9.999569 
2.2502637e+2, 2.0385063e+2, -991157.06, -1235804.4, 46911.992, -0.042910542, 0.0051589306, -982470.0, -40211.664, 0.0, 10.000751, 9.997531 
2.2502057e+2, 2.1384837e+2, -892094.75, -1169094.5, 68485.64, -0.017552575, 0.03367529, -876087.4, -31798.043, 0.0, 10.000895, 9.997244 
2.2501451e+2, 2.2384687e+2, -651617.9, -714528.4, 84058.555, -0.025066808, 0.04650119, -593321.94, 152984.5, 0.0, 10.000638, 9.999813 
2.2500819e+2, 2.338464e+2, -671167.3, -640567.6, 39354.426, -0.07485172, -0.03140202, -613643.6, 34659.54, 0.0, 9.999688, 10.000106 
2.250029e+2, 2.438458e+2, -723940.6, -778881.06, 33491.594, -0.020495692, -0.032878563, -708094.56, -157788.69, 0.0, 9.999357, 9.998646 
2.2499914e+2, 2.53845e+2, -543339.5, -666139.7, 71163.22, 0.19614686, 0.022587122, -510749.28, -58430.824, 0.0, 10.000029, 9.998425 
2.2499374e+2, 2.6384398e+2, -346455.34, -392804.6, 116165.92, 0.22568192, 0.03228492, -251174.97, 103154.46, 0.0, 10.00017, 9.999554 
2.2498603e+2, 2.7384257e+2, -334155.28, -329600.72, 102555.47, -0.00057432184, -0.09674115, -229297.25, 27041.648, 0.0, 9.999545, 9.999619 
2.2498016e+2, 2.838419e+2, -357441.9, -431082.94, 76308.43, -0.012978041, -0.06344026, -309535.06, -151190.2, 0.00000000075483947, 9.999314, 9.998367 
2.249765e+2, 2.9384273e+2, -227187.86, -348120.16, 80297.625, 0.25222242, 0.1810725, -187136.03, -126793.17, 0.00000073344995, 9.999666, 9.998095 
2.2496805e+2, 3.0384073e+2, -160025.98, -164531.17, 80897.19, 0.04206122, 0.12452806, -81350.04, -81350.04, 0.000007274646, 9.99926, 9.999215 
2.2495912e+2, 3.1383604e+2, -365462.3, -203545.6, 43893.523, -0.13071707, -0.30240208, -192412.17, -192412.17, 0.000030117351, 9.997552, 9.999775 
2.3508018e+2, 1.2386709e+2, -1266874.5, -1489734.4, -12522.486, -0.0055435617, 0.08256799, -1266173.1, 459929.72, 0.00085973064, 10.002994, 10.000095 
2.3507096e+2, 1.3386466e+2, -1294989.0, -1508792.3, -37211.688, -0.03776296, -0.13573802, -1288697.6, 339418.9, 0.00046459655, 10.0024, 9.9995775 
2.3506235e+2, 1.438634e+2, -1394882.4, -1663424.9, 67362.72, -0.1148957, -0.15776992, -1378932.1, 151193.88, 0.00017252294, 10.00171, 9.998172 
2.3505853e+2, 1.5386319e+2, -1382313.8, -1642770.4, 32936.203, 0.10215848, 0.013519266, -1378213.3, 53921.613, 0.000033446406, 10.001273, 9.997852 
2.3505272e+2, 1.6386224e+2, -1226008.0, -1357080.8, 14396.036, 0.12110921, 0.07425315, -1224445.5, 109701.44, 0.0000017722703, 10.000992, 9.999272 
2.350439e+2, 1.7386001e+2, -1107533.9, -1231809.3, 66051.086, -0.16716312, -0.10923879, -1078986.1, 157178.63, 0.0000000001389195, 10.001054, 9.999432 
2.3503679e+2, 1.8385844e+2, -1057643.6, -1215346.3, 76786.984, -0.28126863, -0.18383828, -1026432.4, 111745.516, 0.0, 10.000979, 9.998905 
2.3503233e+2, 1.938579e+2, -995755.2, -1146609.6, 53197.344, -0.12999968, -0.13802004, -978882.8, 61300.45, 0.0, 10.000786, 9.998797 
2.3502739e+2, 2.0385723e+2, -957027.7, -1150787.6, 45408.297, -0.027276035, -0.053885013, -946914.0, -4721.413, 0.0, 10.000692, 9.998141 
2.3502177e+2, 2.1385618e+2, -845055.0, -1058080.5, 80592.4, -0.0010327649, 0.017042715, -818000.9, 26208.629, 0.0, 10.000834, 9.998036 
2.3501551e+2, 2.2385499e+2, -723865.25, -847610.56, 48246.78, -0.0017858082, 0.059658352, -707277.9, 38945.78, 0.0, 10.000569, 9.998934 
2.3500833e+2, 2.3385358e+2, -758715.5, -805953.06, 9221.156, -0.045194935, -0.0012637773, -756979.25, -108744.96, 0.0, 9.999617, 9.999007 
2.3500219e+2, 2.4385239e+2, -665688.56, -646347.06, 45862.703, -0.041436713, -0.04413096, -609146.6, -58903.08, 0.0, 9.999309, 9.999577 
2.3499773e+2, 2.538515e+2, -471593.38, -500316.53, 103451.22, 0.03755499, -0.11220678, -381511.63, 70739.195, 0.0, 9.999956, 9.999598 
2.3499234e+2, 2.6385096e+2, -359737.06, -411586.66, 92299.695, 0.05496748, -0.117803246, -289790.44, 64464.633, 0.0, 10.0001335, 9.999442 
2.3498568e+2, 2.7385068e+2, -361153.72, -371194.03, 86207.26, -0.0075502237, -0.104493864, -279820.56, -23564.154, 0.0, 9.99948, 9.999367 
2.3498003e+2, 2.8385025e+2, -349109.0, -403885.94, 80005.734, 0.026847571, -0.045579195, -291933.63, -133671.34, 0.00000003119879, 9.999274, 9.998572 
2.349754e+2, 2.9384977e+2, -221288.88, -321015.0, 101112.33, 0.15733793, 0.04127828, -158413.17, -98139.58, 0.0000012360658, 9.999598, 9.998316 
2.3496684e+2, 3.0384922e+2, -90827.89, -11035.608, 23759.29, -0.01918134, 0.07796975, -4496.784, -4496.784, 0.000009095323, 9.999219, 10.000291 
2.3495898e+2, 3.1384787e+2, -263887.75, 25282.293, -22131.787, 0.06984178, -0.13542417, 26966.354, 26966.354, 0.00003154515, 9.997469, 10.00139 
2.4508174e+2, 1.2387467e+2, -1668736.9, -1689297.6, 71300.6, -0.003838138, 0.080513366, -1606979.4, 119046.99, 0.0007337323, 10.000261, 10.000042 
2.4507284e+2, 1.3387293e+2, -1429508.9, -1571179.3, -57985.797, -0.036209997, -0.06954373, -1408801.9, 219233.94, 0.00038625058, 10.0014715, 9.999598 
2.450642e+2, 1.4387138e+2, -1335300.3, -1645389.3, 24699.395, -0.119550854, -0.11509489, -1333345.1, 196703.31, 0.00013762698, 10.002163, 9.998074 
2.4506046e+2, 1.5387055e+2, -1264440.9, -1598662.6, 69738.25, 0.12742697, 0.002871911, -1250473.1, 181588.69, 0.000025817635, 10.002151, 9.997726 
2.4505441e+2, 1.6386941e+2, -1104058.8, -1310893.8, 78979.33, 0.15058337, 0.056171145, -1077349.8, 256725.78, 0.0000016011192, 10.0018835, 9.999158 
2.4504513e+2, 1.7386761e+2, -1105217.0, -1243917.5, 19125.326, -0.14885034, -0.07397413, -1102628.1, 133463.05, 0.0000000006420841, 10.00113, 9.99931 
2.4503775e+2, 1.8386611e+2, -1107818.5, -1272278.1, 4502.985, -0.2688924, -0.12158022, -1107695.3, 30409.707, 0.0, 10.000774, 9.998612 
2.4503328e+2, 1.9386502e+2, -995110.44, -1182573.9, 4209.0786, -0.11734934, -0.10119111, -995016.0, 45100.555, 0.0, 10.000943, 9.998472 
2.4502817e+2, 2.0386407e+2, -908024.8, -1064927.4, 11693.317, -0.018882278, -0.047874764, -907158.2, 34969.09, 0.0, 10.000762, 9.998697 
2.450222e+2, 2.1386339e+2, -934950.3, -1025994.06, 23042.21, 0.0070336135, -0.006615753, -929450.75, -85313.87, 0.0, 9.999903, 9.998705 
2.4501581e+2, 2.238624e+2, -852478.9, -929955.6, 31194.893, 0.014706595, 0.023818469, -841480.1, -95331.93, 0.0, 9.999769, 9.9987545 
2.4500892e+2, 2.3386087e+2, -620144.3, -769193.56, 45762.47, 0.002159025, -0.020962616, -607215.4, 40947.05, 0.0, 10.000701, 9.998735 
2.4500254e+2, 2.4385977e+2, -437836.2, -511468.53, 96984.7, -0.007352496, -0.048613425, -370914.88, 179256.78, 0.0, 10.000767, 9.999803 
2.4499701e+2, 2.538593e+2, -515568.66, -488907.0, 73200.08, -0.0037038785, -0.10540807, -427833.78, 24339.658, 0.0, 9.9995165, 9.999887 
2.4499124e+2, 2.6385897e+2, -537447.56, -515607.75, 43656.93, -0.007978183, -0.09653336, -481525.72, -127350.53, 0.0, 9.998985, 9.999286 
2.4498524e+2, 2.738588e+2, -365731.06, -394546.34, 31011.129, 0.002683726, -0.05407089, -345944.1, -89766.266, 0.0, 9.999546, 9.999171 
2.449796e+2, 2.8385824e+2, -279848.38, -297882.1, 44629.32, 0.054100428, -0.026310153, -243334.14, -85149.33, 0.00000009388162, 9.99944, 9.999218 
2.4497399e+2, 2.9385722e+2, -359951.06, -300161.3, 87213.42, 0.12691726, -0.06978098, -237861.38, -177663.92, 0.0000018075962, 9.998277, 9.999091 
2.4496558e+2, 3.0385727e+2, -215872.8, -102990.58, 29397.24, -0.025670515, -0.0037277055, -95793.67, -95793.67, 0.000010445255, 9.998504, 10.000003 
2.4495916e+2, 3.1385767e+2, 236113.05, 292064.47, -178893.7, 0.18512002, -0.0005415894, 445156.7, 445156.7, 0.00003251449, 10.000817, 10.001601 
2.5508198e+2, 1.238816e+2, -1747827.0, -1866204.5, 84819.49, -0.04293954, -0.0741181, -1703586.3, 22361.078, 0.00061503233, 10.000311, 9.998805 
2.550744e+2, 1.338804e+2, -1505393.9, -1733662.5, -9449.7295, -0.041098032, -0.054855645, -1505003.4, 122958.26, 0.0003122467, 10.001495, 9.998468 
2.550659e+2, 1.4387846e+2, -1277410.3, -1525747.4, 22640.691, -0.18356803, -0.11234352, -1275363.0, 254617.63, 0.000105299376, 10.002162, 9.998895 
2.5506115e+2, 1.5387668e+2, -1184488.3, -1435607.0, 75145.47, -0.036977127, -0.20080991, -1163719.3, 268275.78, 0.000019009012, 10.002158, 9.998842 
2.5505507e+2, 1.6387556e+2, -1188630.5, -1478211.6, 48126.652, 0.012019862, -0.15721023, -1180841.6, 153165.83, 0.0000013062046, 10.001853, 9.998023 
2.5504717e+2, 1.7387536e+2, -1204672.6, -1449040.6, -3221.516, -0.07485379, 0.0124002015, -1204630.3, 31387.941, 0.000000000635992, 10.00113, 9.997898 
2.5504023e+2, 1.8387458e+2, -1116189.8, -1283963.0, 2342.8328, -0.11357972, 0.118760236, -1116157.0, 21873.953, 0.0, 10.000748, 9.998548 
2.550347e+2, 1.9387278e+2, -989212.3, -1164915.0, 16501.24, -0.089838505, 0.056803405, -987676.0, 52372.383, 0.0, 10.000917, 9.998608 
2.5502855e+2, 2.0387118e+2, -887335.0, -1005554.56, -21856.154, -0.06987463, 0.016332584, -883423.7, 58639.195, 0.0, 10.000692, 9.999139 
2.5502154e+2, 2.138699e+2, -906056.4, -958226.56, -3469.0488, -0.06222534, -0.048508607, -905826.75, -61753.83, 0.0, 9.999866, 9.999188 
2.5501516e+2, 2.2386889e+2, -820300.44, -850408.7, 52730.71, -0.039482843, -0.070747495, -780517.0, -34435.723, 0.0, 9.999714, 9.999327 
2.5500974e+2, 2.3386818e+2, -587048.7, -688311.44, 87401.8, 0.0023215339, -0.095600754, -536672.06, 111416.3, 0.0, 10.000646, 9.999318 
2.5500375e+2, 2.4386795e+2, -479413.47, -586737.06, 52946.996, 0.024428647, -0.047067627, -457689.78, 92400.82, 0.0, 10.000721, 9.999306 
2.5499678e+2, 2.538683e+2, -569319.75, -584650.5, 29607.08, 0.0066590025, 0.041604426, -546401.8, -94315.03, 0.0, 9.999445, 9.999266 
2.5499022e+2, 2.63868e+2, -556979.9, -545674.8, 51892.734, -0.019454135, 0.09706905, -499127.7, -145037.36, 0.0, 9.9989395, 9.999104 
2.5498456e+2, 2.7386677e+2, -383925.5, -418762.44, 60000.094, -0.038666483, 0.04406301, -338866.66, -82761.73, 0.0, 9.999481, 9.999042 
2.5497866e+2, 2.8386575e+2, -211078.52, -139684.5, -291.7859, 0.0028063175, -0.013640936, -139683.31, 18430.463, 0.00000013919723, 9.999382, 10.000329 
2.5497198e+2, 2.9386503e+2, -281399.06, -115398.19, 47449.98, 0.08398088, -0.15376377, -102792.27, -42677.023, 0.0000021199414, 9.998188, 10.000401 
2.5496402e+2, 3.038647e+2, -336400.63, -348557.34, 100047.23, -0.04602352, -0.1246109, -242247.28, -242247.28, 0.000010666905, 9.998481, 9.998329 
2.549593e+2, 3.138651e+2, 135539.06, 91625.84, -87393.055, 0.08037075, 0.0851779, 203691.5, 203691.5, 0.00003213242, 10.000772, 10.000251 
2.6508296e+2, 1.2388673e+2, -1639346.3, -1863075.9, -26236.742, -0.016877469, -0.22032627, -1636310.8, 89580.07, 0.0005068244, 10.001264, 9.998362 
2.6507634e+2, 1.3388656e+2, -1527872.8, -1775363.6, -65327.867, 0.01028809, -0.076611534, -1511687.3, 116213.17, 0.00024645263, 10.001452, 9.99821 
2.6506788e+2, 1.4388494e+2, -1362771.8, -1501413.4, -16965.088, -0.15447472, -0.11273084, -1360725.9, 169191.95, 0.00007758306, 10.0013, 9.999478 
2.6506248e+2, 1.5388304e+2, -1305068.1, -1415438.4, -11668.855, -0.055335592, -0.28156152, -1303847.9, 128081.46, 0.000013419433, 10.000994, 9.999542 
2.650562e+2, 1.6388209e+2, -1323571.0, -1577264.3, -11650.874, -0.017490782, -0.24705954, -1323037.1, 10902.187, 0.0000010267595, 10.001069, 9.997726 
2.650486e+2, 1.738825e+2, -1158645.0, -1475275.8, -1363.2775, -0.06734208, 0.025760548, -1158639.1, 77308.72, 0.0000000012219834, 10.001647, 9.997474 
2.650417e+2, 1.8388186e+2, -993784.4, -1229481.5, 44991.05, -0.07945494, 0.1728692, -985488.25, 152473.38, 0.0, 10.001611, 9.998504 
2.6503596e+2, 1.938796e+2, -1041414.0, -1191601.5, 35824.87, -0.033873793, 0.0689511, -1033306.25, 6677.291, 0.0, 10.000568, 9.998593 
2.6502934e+2, 2.0387797e+2, -932580.3, -975618.56, 14537.364, -0.029457182, 0.0041971663, -928130.06, 13867.368, 0.0, 10.00017, 9.999591 
2.650215e+2, 2.1387722e+2, -753290.9, -830505.9, 21676.041, -0.089351304, -0.05853452, -747622.1, 96377.734, 0.0, 10.000688, 9.999668 
2.6501477e+2, 2.2387646e+2, -675342.75, -786223.94, 75641.734, -0.097282365, -0.07911971, -636999.94, 109004.87, 0.0, 10.000733, 9.999277 
2.6500982e+2, 2.3387577e+2, -690101.2, -754717.75, 42491.785, -0.018050976, -0.08828391, -669029.94, -21016.455, 0.0, 10.000009, 9.999173 
2.6500398e+2, 2.4387549e+2, -615637.3, -648475.44, -9380.06, 0.023336649, -0.03789344, -613146.8, -63130.043, 0.0, 9.999769, 9.999342 
2.6499653e+2, 2.5387567e+2, -442887.47, -513309.38, 9873.502, 0.00033682346, 0.028037135, -441529.34, 10483.723, 0.0, 10.000277, 9.99935 
2.649897e+2, 2.638752e+2, -386121.88, -480292.94, 79325.266, -0.02337506, 0.06293402, -340960.22, 13058.117, 0.0, 10.000186, 9.998948 
2.6498404e+2, 2.7387378e+2, -436127.63, -463655.22, 71760.84, -0.017780295, 0.014793801, -376822.53, -120787.02, 0.0, 9.999212, 9.998859 
2.6497796e+2, 2.838729e+2, -270864.56, -154772.92, -13066.728, 0.02356945, -0.026031151, -153320.36, 4722.5513, 0.00000017298198, 9.998906, 10.000456 
2.6497075e+2, 2.9387245e+2, -70492.445, 11340.75, -61548.67, 0.08176108, -0.15637136, 44332.25, 104371.38, 0.0000022646286, 9.99952, 10.00063 
2.6496327e+2, 3.0387115e+2, -164474.22, -308451.34, 52564.918, -0.03311655, -0.21964486, -147325.67, -147325.67, 0.000010678338, 9.999835, 9.997959 
2.6495948e+2, 3.1387162e+2, -36421.39, -2815.9834, -38864.484, 0.084671706, 0.039421905, 22722.535, 22722.535, 0.000032089163, 9.999632, 10.000153 
2.7508438e+2, 1.23889975e+2, -1616359.4, -1818484.5, -53088.18, -0.042430796, -0.37006956, -1603264.1, 122593.17, 0.0004154287, 10.001272, 9.998664 
2.7507824e+2, 1.3389148e+2, -1475888.3, -1676562.6, -58595.375, 0.03872697, -0.12530354, -1460031.8, 167819.9, 0.00019320652, 10.001491, 9.998867 
2.750699e+2, 1.4389095e+2, -1337221.5, -1453606.6, -37092.113, -0.10484547, -0.1041783, -1326405.4, 203453.73, 0.000056136425, 10.001323, 9.999795 
2.7506435e+2, 1.5388972e+2, -1283660.1, -1373389.1, -16637.936, 0.013347825, -0.23225406, -1280674.4, 151189.67, 0.000009372096, 10.001009, 9.999823 
2.7505764e+2, 1.6388902e+2, -1284502.0, -1497347.3, -713.4412, 0.0036609329, -0.21170606, -1284499.6, 49370.867, 0.0000008660051, 10.001074, 9.998269 
2.7504912e+2, 1.7388898e+2, -1122086.1, -1395568.9, 26092.754, -0.19683528, -0.042556453, -1119619.0, 116261.984, 0.000000004874734, 10.001635, 9.998023 
2.75042e+2, 1.8388797e+2, -1006681.6, -1243771.0, 5698.905, -0.2289064, 0.0416946, -1006544.75, 131352.48, 0.0, 10.001559, 9.99843 
2.7503687e+2, 1.9388565e+2, -1053860.1, -1210310.9, 2879.2397, -0.015638249, -0.05856536, -1053807.1, -13885.973, 0.0, 10.000544, 9.998474 
2.750304e+2, 2.038846e+2, -908340.4, -918524.9, 22097.627, 0.046081685, -0.07427717, -890755.9, 51174.047, 0.0, 10.000134, 10.000005 
2.7502188e+2, 2.1388529e+2, -726124.75, -761223.1, 47982.92, -0.1368443, -0.040261637, -692582.5, 151335.48, 0.0, 10.000628, 10.000174 
2.750145e+2, 2.2388507e+2, -740797.1, -903607.56, 47674.13, -0.21110418, -0.003037423, -727864.5, 18054.486, 0.0, 10.000653, 9.998512 
2.7500895e+2, 2.3388349e+2, -763928.3, -891847.25, 20275.098, -0.120406084, -0.009413735, -760791.6, -112852.4, 0.0, 9.999937, 9.998268 
2.7500293e+2, 2.4388222e+2, -581551.7, -562301.94, -961.27673, -0.06839356, -0.03388283, -562254.06, -12302.508, 0.0, 9.999708, 9.99996 
2.7499607e+2, 2.538813e+2, -398011.7, -404573.34, 35193.88, -0.08977784, -0.15994668, -365946.06, 86007.38, 0.0, 10.000206, 10.000133 
2.7498952e+2, 2.638804e+2, -403893.9, -502440.47, 40709.17, -0.07712898, -0.20095304, -389252.44, -35292.793, 0.0, 10.000127, 9.998823 
2.7498358e+2, 2.7387977e+2, -462082.78, -504584.9, 41578.402, -0.0035976574, -0.14891481, -436639.4, -180668.56, 0.00000000009324417, 9.999156, 9.998607 
2.7497736e+2, 2.8387955e+2, -333358.47, -277180.94, -1277.7772, 0.053460468, -0.07136877, -277151.9, -119178.17, 0.00000023612336, 9.998876, 9.999628 
2.7497008e+2, 2.938794e+2, -139115.63, -118746.8, -31415.303, 0.04046548, -0.08280572, -95906.32, -35935.914, 0.0000024951785, 9.999459, 9.999768 
2.7496293e+2, 3.038767e+2, -97276.76, -154422.39, 42732.695, -0.06233102, -0.28812826, -74444.42, -74444.42, 0.000011113361, 9.999788, 9.99903 
2.7495924e+2, 3.1387714e+2, 20695.313, 149154.67, -41928.94, 0.065823704, -0.15565905, 161628.89, 161628.89, 0.000032683794, 9.999495, 10.00126 
2.8508523e+2, 1.2389544e+2, -1749635.6, -1838845.5, -30259.246, -0.019771874, -0.29853678, -1740340.5, -14532.128, 0.00034201675, 10.000176, 9.999047 
2.850793e+2, 1.3389699e+2, -1490099.0, -1604029.5, -46897.746, 0.022746326, -0.11336438, -1473277.9, 154520.9, 0.00015211831, 10.001068, 9.999558 
2.8507116e+2, 1.4389685e+2, -1293518.8, -1449382.9, -42323.633, -0.120068945, -0.08466131, -1282767.8, 247033.94, 0.000040681283, 10.001693, 9.99965 
2.8506625e+2, 1.538961e+2, -1154637.8, -1339200.6, -76476.15, 0.058302887, -0.14177339, -1127067.3, 304738.16, 0.0000066741927, 10.002005, 9.999585 
2.850595e+2, 1.6389553e+2, -1143260.3, -1358198.9, -76082.39, 0.053194918, -0.120761454, -1119055.0, 214755.86, 0.00000074756446, 10.001747, 9.998901 
2.8504997e+2, 1.7389505e+2, -1207388.3, -1356809.8, -52993.8, -0.22166038, -0.06447646, -1190501.9, 45319.78, 0.000000006090155, 10.000704, 9.998744 
2.8504246e+2, 1.8389408e+2, -1153302.1, -1277691.5, -34269.355, -0.27611533, -0.031206429, -1144485.8, -6650.711, 0.0, 10.0004, 9.998752 
2.850378e+2, 1.9389246e+2, -942442.94, -1128803.5, -20379.23, -0.0036044337, -0.08588142, -940240.44, 99611.305, 0.0, 10.001186, 9.998725 
2.8503138e+2, 2.0389172e+2, -752475.8, -882871.7, -2895.826, 0.07308457, -0.07138801, -752411.56, 189446.98, 0.0, 10.001375, 9.999645 
2.8502223e+2, 2.1389215e+2, -765907.4, -829813.25, -58506.67, -0.15687682, -0.022444844, -731196.8, 112655.195, 0.0, 10.000573, 9.999723 
2.8501463e+2, 2.2389187e+2, -776622.6, -894121.7, -48539.664, -0.24447124, 0.025039675, -759164.5, -13310.218, 0.0, 10.0002985, 9.998744 
2.850094e+2, 2.3389056e+2, -614920.75, -783030.9, 4526.9917, -0.10721781, 0.015121614, -614798.94, 33070.934, 0.0, 10.000806, 9.998593 
2.8500345e+2, 2.4388924e+2, -448174.28, -521657.47, 16321.855, -0.033531304, -0.026459444, -444712.03, 105170.41, 0.0, 10.000714, 9.999757 
2.849963e+2, 2.538878e+2, -486329.75, -477305.47, -40689.96, -0.058240213, -0.17677489, -440878.25, 11012.473, 0.0, 9.999729, 9.999864 
2.849895e+2, 2.638868e+2, -463965.53, -492176.0, -42958.863, -0.055838805, -0.22788239, -432855.5, -78958.02, 0.0, 9.999545, 9.999174 
2.8498355e+2, 2.7388668e+2, -236592.36, -344572.66, -3655.2156, 0.017579664, -0.16934954, -236468.77, 19431.729, 0.0000000018932573, 10.0004835, 9.999064 
2.8497708e+2, 2.8388664e+2, -136644.98, -262320.6, -7961.7036, 0.05924274, -0.07270175, -136142.61, 21758.994, 0.00000028816427, 10.000566, 9.998923 
2.8496933e+2, 2.9388607e+2, -198826.36, -232422.98, -43258.313, 0.028859086, -0.03710199, -169219.23, -109313.65, 0.0000027347362, 9.999421, 9.999006 
2.8496248e+2, 3.038826e+2, -162080.63, -111361.984, 43664.195, -0.04314753, -0.31581706, -86227.17, -86227.17, 0.000011990512, 9.99901, 9.999704 
2.8495917e+2, 3.138838e+2, 191.74617, 164110.52, -106403.96, 0.1338063, -0.18026349, 216461.0, 216461.0, 0.000033758955, 9.999249, 10.001474 
2.9508504e+2, 1.2390321e+2, -1711917.0, -1782570.3, -39128.914, -0.10373685, -0.0037100518, -1694527.0, 31215.688, 0.00028129522, 10.000257, 9.999401 
2.9507935e+2, 1.339031e+2, -1442590.0, -1517680.5, -11877.58, -0.10294592, -0.042410903, -1440756.0, 186985.6, 0.00011974083, 10.001116, 10.000129 
2.9507163e+2, 1.4390258e+2, -1330987.9, -1532326.5, -40077.316, -0.26415637, -0.05834583, -1323303.6, 206442.78, 0.000029635712, 10.001708, 9.999077 
2.950679e+2, 1.5390214e+2, -1208968.4, -1449493.3, -60390.33, 0.0051698843, -0.011590104, -1194657.3, 237096.2, 0.0000047316526, 10.001993, 9.998834 
2.9506153e+2, 1.6390164e+2, -1099352.5, -1260456.0, -114981.09, 0.06546772, 0.026914166, -1039514.7, 294245.44, 0.00000054097734, 10.001722, 9.999581 
2.9505104e+2, 1.7390087e+2, -1144139.9, -1225786.3, -83514.38, -0.20519595, -0.03301164, -1092005.1, 143763.47, 0.0000000012704189, 10.000712, 9.999635 
2.9504293e+2, 1.8390033e+2, -1106757.8, -1180134.3, -17474.275, -0.28380427, -0.040689383, -1102808.8, 34965.418, 0.0, 10.000391, 9.99943 
2.9503855e+2, 1.9390005e+2, -902655.25, -1040071.0, 15891.595, -0.06583738, -0.02384121, -900841.44, 138934.5, 0.0, 10.001158, 9.999349 
2.9503205e+2, 2.0389928e+2, -843304.1, -1054922.4, -31026.701, -0.012008083, 0.0045985477, -838848.9, 102935.195, 0.0, 10.0013075, 9.998494 
2.950223e+2, 2.138977e+2, -871714.8, -1031238.2, -81550.3, -0.21987161, -0.009497817, -837404.7, 6397.6396, 0.0, 10.000499, 9.998373 
2.950149e+2, 2.2389683e+2, -700927.56, -718983.75, -40703.527, -0.25865433, -0.0018090693, -668262.94, 77548.09, 0.0, 10.00022, 9.999986 
2.9501104e+2, 2.3389702e+2, -516976.3, -560736.6, 30912.309, -0.036099967, -0.016909253, -500984.16, 146821.36, 0.0, 10.000727, 10.000156 
2.9500544e+2, 2.4389659e+2, -525067.75, -670679.56, -20669.236, 0.07766945, -0.010229549, -522190.66, 27617.922, 0.0, 10.000666, 9.998762 
2.9499698e+2, 2.538951e+2, -587170.56, -674907.44, -72062.85, 0.02249805, -0.03126405, -546673.75, -94848.0, 0.0, 9.999673, 9.99854 
2.9498953e+2, 2.6389426e+2, -409210.6, -369806.84, -19819.29, -0.023333449, -0.034979433, -361562.9, -7729.3477, 0.0, 9.999507, 10.000033 
2.9498369e+2, 2.7389443e+2, -167054.05, -186253.1, 36417.004, -0.036586445, -0.055436168, -138992.6, 116833.195, 0.0000000016821552, 10.000421, 10.000183 
2.949769e+2, 2.8389406e+2, -182153.02, -342869.3, -51236.188, -0.02943293, -0.026430495, -167208.6, -9381.818, 0.00000022409213, 10.00051, 9.998396 
2.9496837e+2, 2.938924e+2, -256293.11, -340303.75, -75255.79, -0.03293111, -0.028570728, -212113.27, -152267.69, 0.0000026529046, 9.999368, 9.998294 
2.949616e+2, 3.0388874e+2, -147502.22, -72985.32, 44718.777, -0.04419317, -0.30671805, -52037.57, -52037.57, 0.000012335517, 9.998974, 9.999985 
2.9495868e+2, 3.138913e+2, -56753.457, 57968.81, -75995.92, 0.11829995, -0.06833951, 95821.54, 95821.54, 0.000034800534, 9.999189, 10.000774 
3.0508587e+2, 1.23909354e+2, -1592327.1, -1691545.6, 27244.377, -0.07328432, 0.05645969, -1585338.4, 140346.58, 0.00022926967, 10.000944, 9.999698 
3.05081e+2, 1.3390885e+2, -1448842.9, -1475374.0, 37997.367, -0.028778287, -0.060442213, -1421862.0, 205821.6, 0.00009406682, 10.000867, 10.000548 
3.0507335e+2, 1.4390843e+2, -1508679.1, -1636326.4, 16460.77, -0.20022787, -0.08461696, -1506590.6, 23095.738, 0.00002163711, 10.000591, 9.998885 
3.0506858e+2, 1.5390754e+2, -1489084.0, -1619956.4, 6227.459, -0.03197294, -0.051402744, -1488788.4, -57087.418, 0.0000030875526, 10.000236, 9.998501 
3.050621e+2, 1.6390702e+2, -1292026.8, -1331123.4, -38185.645, 0.026160989, -0.004202723, -1268676.5, 65032.734, 0.0000002653173, 10.000294, 9.9997835 
3.0505282e+2, 1.7390695e+2, -1094980.6, -1167117.8, -62503.887, -0.10271053, -0.024596903, -1058884.9, 176824.84, 0.0, 10.000899, 9.999943 
3.0504498e+2, 1.8390696e+2, -970274.25, -1081747.3, -6083.047, -0.15193741, -0.0074414383, -969943.25, 167765.8, 0.0, 10.001189, 9.9997225 
3.0503947e+2, 1.9390696e+2, -911679.5, -1013784.2, -8948.331, -0.07470247, 0.010027778, -910901.2, 128806.414, 0.0, 10.000958, 9.99963 
3.0503252e+2, 2.0390609e+2, -924298.8, -1106733.0, -46182.188, -0.06456392, 0.018079061, -913274.25, 28442.328, 0.0, 10.000803, 9.998389 
3.0502355e+2, 2.1390384e+2, -845473.06, -1038667.6, -23129.506, -0.1543285, -0.045218453, -842742.56, 998.8724, 0.0, 10.000756, 9.998207 
3.0501628e+2, 2.2390269e+2, -649150.44, -678542.44, 55839.098, -0.1532331, -0.063883424, -606105.9, 139646.75, 0.0, 10.000505, 10.000126 
3.0501157e+2, 2.3390312e+2, -619989.56, -589920.06, 14517.582, -0.012537146, -0.07304655, -584054.94, 63688.684, 0.0, 9.999932, 10.000338 
3.0500558e+2, 2.43903e+2, -602091.94, -730774.8, -40950.38, 0.05154681, -0.035242118, -590165.75, -40421.664, 0.0, 10.000249, 9.998544 
3.0499753e+2, 2.5390202e+2, -268586.1, -546240.75, -20888.246, -0.0036092207, 0.017105289, -267023.44, 184735.92, 0.0, 10.001986, 9.9983 
3.0499008e+2, 2.639013e+2, -30062.188, -187626.77, 24844.344, -0.046547994, 0.040100977, -26237.633, 327529.25, 0.0, 10.0021105, 10.000033 
3.0498365e+2, 2.7390105e+2, -250910.8, -224277.8, -16223.05, -0.047783364, -0.027341995, -216605.81, 39156.195, 0.00000000014964384, 9.999832, 10.000209 
3.049766e+2, 2.8390032e+2, -411068.53, -447442.4, -92237.195, -0.022739202, -0.037133113, -335242.38, -177476.48, 0.00000013461268, 9.9989195, 9.998439 
3.0496848e+2, 2.938988e+2, -154859.33, -285608.47, -68615.3, 0.014598602, -0.03280603, -125461.04, -65676.36, 0.0000024042524, 10.000056, 9.998329 
3.0496177e+2, 3.03896e+2, 63563.9, 28040.217, 68595.875, 0.0061557386, -0.22385885, 116660.2, 116660.2, 0.000011969342, 10.0004225, 9.999985 
3.0495712e+2, 3.1389877e+2, -106218.13, -63485.32, -98572.75, 0.049694084, 0.042449746, 16010.113, 16010.113, 0.00003458678, 9.999253, 9.999923 
3.1508738e+2, 1.2391407e+2, -1562602.0, -1644407.1, -15304.68, -0.054608732, -0.0954612, -1559832.5, 165800.95, 0.00018682136, 10.001015, 9.999984 
3.1508398e+2, 1.3391444e+2, -1425489.1, -1423560.9, 37420.84, 0.16708106, -0.15630378, -1387091.8, 240530.89, 0.00007455782, 10.000869, 10.000897 
3.1507605e+2, 1.439145e+2, -1504452.8, -1632253.8, -4555.0674, -0.010462145, -0.15243669, -1504290.6, 25329.6, 0.000015951327, 10.000602, 9.998913 
3.150681e+2, 1.5391223e+2, -1482374.6, -1618546.0, -288.26447, -0.124010794, -0.25895396, -1482374.0, -50725.39, 0.00000170519, 10.000284, 9.998488 
3.1506106e+2, 1.639116e+2, -1306399.5, -1363721.9, -29558.496, -0.12091396, -0.21523167, -1293888.3, 39771.297, 0.000000057148895, 10.000302, 9.999558 
3.1505513e+2, 1.7391323e+2, -1115949.8, -1205851.5, -36790.85, 0.023770668, -0.038062774, -1102813.3, 132832.39, 0.0, 10.00088, 9.999687 
3.1504837e+2, 1.8391398e+2, -979503.4, -1096853.3, -18112.408, 0.050967127, 0.072529934, -976771.4, 160868.25, 0.0, 10.001165, 9.999632 
3.1504035e+2, 1.9391324e+2, -920620.06, -1020926.9, -11520.978, -0.09972676, 0.01906403, -919313.8, 120332.67, 0.0, 10.00091, 9.999604 
3.150327e+2, 2.039122e+2, -872730.0, -982191.7, -55651.406, -0.14309707, -0.02630356, -849406.06, 92249.45, 0.0, 10.0007305, 9.999277 
3.1502572e+2, 2.1391062e+2, -786519.8, -898850.75, -19142.639, -0.026416892, -0.12221292, -783347.25, 60321.406, 0.0, 10.000684, 9.9992 
3.1501848e+2, 2.2390948e+2, -721576.25, -816168.44, 30240.656, 0.0024848839, -0.15488958, -712734.9, 32943.688, 0.0, 10.00045, 9.999209 
3.1501076e+2, 2.3390885e+2, -710416.1, -762661.5, -781.3837, -0.10420294, -0.15388644, -710404.44, -62720.004, 0.0, 9.999867, 9.999185 
3.1500366e+2, 2.4390846e+2, -564633.6, -646816.06, 8105.8086, -0.17958419, -0.10591671, -563841.75, -14152.552, 0.0, 10.00022, 9.999133 
3.149976e+2, 2.539085e+2, -220587.23, -431348.6, 48064.426, -0.20585623, -0.03386957, -210143.58, 241548.19, 0.0, 10.001917, 9.999123 
3.1499094e+2, 2.6390797e+2, -92599.83, -308892.7, -50908.117, -0.18385817, 0.0015870918, -81216.82, 272480.44, 0.0, 10.002073, 9.999222 
3.1498325e+2, 2.7390647e+2, -328111.84, -373137.94, -95519.0, -0.08617429, -0.08893454, -252488.69, 3220.5776, 0.00000000001473293, 9.99978, 9.999213 
3.14976e+2, 2.8390536e+2, -377770.97, -367246.6, -70006.12, 0.009539077, -0.1091177, -302305.2, -144586.03, 0.000000108201135, 9.998873, 9.999011 
3.1496942e+2, 2.9390505e+2, -114321.72, -186370.67, -17547.217, 0.0836765, -0.05723077, -110275.414, -50551.547, 0.0000022594174, 9.999985, 9.999047 
3.1496263e+2, 3.0390427e+2, 40638.28, -7407.2676, 33673.957, 0.036861807, -0.076160595, 57980.094, 57980.094, 0.00001165084, 10.000375, 9.999763 
3.1495407e+2, 3.1390628e+2, -175099.47, -188860.6, -120130.46, -0.21915562, 0.14105156, -61652.68, -61652.68, 0.000033846463, 9.999178, 9.999097 
3.250893e+2, 1.23920165e+2, -1495268.0, -1680313.6, 14382.992, 0.0044532553, -0.1773458, -1494156.8, 231412.78, 0.00015585056, 10.001757, 9.999385 
3.2508552e+2, 1.3391992e+2, -1432048.5, -1510789.3, -12518.807, 0.22423515, -0.22645383, -1430106.0, 197462.45, 0.00006148356, 10.001167, 10.000166 
3.2507756e+2, 1.439204e+2, -1428665.8, -1564973.9, -54482.54, 0.067015454, -0.15081052, -1409565.4, 119997.78, 0.000012624215, 10.000977, 9.999199 
3.250693e+2, 1.53919e+2, -1246402.8, -1456137.3, -30188.852, -0.09833096, -0.21333775, -1242143.9, 189437.28, 0.0000008198343, 10.001691, 9.998928 
3.2506213e+2, 1.6391844e+2, -1122848.3, -1299110.4, -42561.57, -0.111178316, -0.17587946, -1113109.3, 220480.92, 0.000000004124255, 10.001679, 9.999333 
3.250563e+2, 1.7391905e+2, -1187857.9, -1280512.4, -69027.43, 0.071104385, -0.06857487, -1151052.8, 84534.11, 0.0, 10.000554, 9.999334 
3.2504934e+2, 1.8391928e+2, -1157776.4, -1179095.3, -32633.838, 0.09890251, 0.009659815, -1134105.1, 3481.0679, 0.0, 9.999936, 9.999651 
3.250407e+2, 1.9391882e+2, -1038787.3, -1070508.1, -33498.55, -0.10459353, -0.022792539, -1017584.2, 22006.703, 0.0, 10.000076, 9.999659 
3.2503304e+2, 2.0391823e+2, -895404.2, -950611.56, -68719.734, -0.15797576, -0.046412352, -848951.4, 92644.15, 0.0, 10.000387, 9.999662 
3.2502693e+2, 2.1391739e+2, -731967.9, -823507.6, -83848.46, 0.020540006, -0.1121002, -682210.56, 161389.36, 0.0, 10.00085, 9.999639 
3.250198e+2, 2.2391635e+2, -660508.7, -857055.8, -50250.496, 0.059258983, -0.12944801, -648406.5, 97202.34, 0.0, 10.001173, 9.998582 
3.250112e+2, 2.3391491e+2, -553789.3, -773241.2, -66191.555, -0.1128092, -0.13510294, -535370.4, 112255.01, 0.0, 10.001309, 9.99842 
3.2500377e+2, 2.4391411e+2, -483909.1, -571960.94, -32776.09, -0.20853594, -0.09950592, -473048.28, 76586.53, 0.0, 10.000612, 9.999463 
3.2499814e+2, 2.5391436e+2, -646608.1, -584285.06, -26411.281, -0.18344155, -0.049501546, -574598.1, -122965.59, 0.0, 9.998756, 9.999598 
3.2499135e+2, 2.63914e+2, -669791.6, -604213.3, -119933.164, -0.15380573, -0.01987847, -512667.88, -159031.69, 0.0, 9.998195, 9.999055 
3.2498264e+2, 2.7391234e+2, -374691.72, -422271.63, -123210.945, -0.112483315, -0.099879146, -272995.03, -17342.916, 0.00000000010851988, 9.99959, 9.9989605 
3.2497516e+2, 2.8391117e+2, -164876.25, -236019.94, -39324.055, -0.023217218, -0.12555319, -147422.28, 10241.807, 0.00000014601811, 10.000204, 9.999276 
3.2496974e+2, 2.939112e+2, -151149.13, -166793.95, -26077.176, 0.14221163, -0.07590471, -131746.38, -72081.66, 0.000002235968, 9.999574, 9.999378 
3.249632e+2, 3.0391157e+2, -121627.23, -58386.113, 3137.7126, 0.12543179, -0.00841927, -58230.816, -58230.816, 0.000011376777, 9.999152, 9.999997 
3.2495245e+2, 3.1391245e+2, -191039.7, -158769.2, -130783.35, -0.2791006, 0.0726353, -43129.527, -43129.527, 0.000032649332, 9.998933, 9.999409 
3.3509108e+2, 1.2392754e+2, -1594514.6, -1892020.5, -50350.38, -0.031928997, -0.189556, -1586224.3, 139270.08, 0.0001366495, 10.001786, 9.997915 
3.3508548e+2, 1.3392527e+2, -1548080.3, -1759338.8, -34309.176, 0.08732876, -0.26762706, -1542647.9, 84873.21, 0.00005493034, 10.001217, 9.998427 
3.3507782e+2, 1.4392613e+2, -1384766.8, -1479112.1, -44090.64, -0.026524557, -0.08480582, -1367369.8, 162145.55, 0.000011796083, 10.001, 9.999775 
3.3507186e+2, 1.5392792e+2, -1183650.4, -1323425.8, 2563.902, -0.028414942, 0.086570874, -1183603.4, 247894.27, 0.00000057438905, 10.001685, 9.999839 
3.3506492e+2, 1.6392769e+2, -1144578.9, -1340781.5, -83550.06, -0.016539343, 0.115902804, -1113821.8, 219678.48, 0.00000000201948, 10.00166, 9.999059 
3.3505613e+2, 1.739245e+2, -1216959.4, -1341744.5, -105056.96, -0.020243933, -0.114702016, -1157164.4, 78368.05, 0.0, 10.000556, 9.998916 
3.350478e+2, 1.8392293e+2, -1159444.0, -1173746.6, -39026.277, -0.0646408, -0.19617996, -1126919.3, 10629.392, 0.0, 9.999897, 9.999709 
3.3504045e+2, 1.9392365e+2, -1035229.7, -1055446.4, -22227.535, -0.1578692, -0.12076627, -1020920.0, 18621.725, 0.0, 10.000044, 9.999777 
3.3503342e+2, 2.0392412e+2, -907489.6, -963941.06, -59638.855, -0.1713357, -0.040353023, -869734.4, 71802.27, 0.0, 10.0003395, 9.999593 
3.3502695e+2, 2.1392407e+2, -748349.7, -838277.8, -60333.28, -0.07414474, -0.020053586, -718068.3, 125467.15, 0.0, 10.00077, 9.999574 
3.3502012e+2, 2.2392327e+2, -697139.56, -917054.25, -50572.63, -0.040398195, 0.006153963, -686067.1, 59476.73, 0.0, 10.0011015, 9.998206 
3.3501273e+2, 2.3392127e+2, -592017.3, -835549.75, -57130.62, -0.10360222, -0.014502366, -579281.06, 68285.72, 0.0, 10.001234, 9.99803 
3.3500558e+2, 2.4391997e+2, -480531.66, -556386.9, -100826.53, -0.10095305, -0.014089979, -410735.1, 138845.8, 0.0, 10.000575, 9.999587 
3.3499888e+2, 2.5391975e+2, -641486.0, -563138.4, -91418.64, 0.000009847606, -0.03160892, -502853.88, -51272.418, 0.0, 9.998712, 9.999764 
3.349911e+2, 2.6391944e+2, -644551.56, -546518.94, -86431.19, -0.011008784, -0.02403413, -496172.53, -142588.97, 0.0, 9.99817, 9.999464 
3.3498153e+2, 2.7391863e+2, -350893.8, -358985.53, -64797.06, -0.198395, -0.063556574, -290016.44, -34425.08, 0.000000000044508567, 9.999527, 9.999426 
3.3497384e+2, 2.8391773e+2, -166119.78, -232792.31, -60642.527, -0.19084203, -0.09090173, -130254.734, 27346.086, 0.00000018850986, 10.000175, 9.999312 
3.3496913e+2, 2.939172e+2, -164170.45, -186066.8, -43679.984, 0.10900266, -0.09005312, -130087.484, -70480.625, 0.0000021997091, 9.999534, 9.9992695 
3.3496323e+2, 3.0391768e+2, -87142.53, 24787.066, -12287.47, 0.20013443, -0.028114922, 26120.092, 26120.092, 0.000010801098, 9.999107, 10.000587 
3.3495176e+2, 3.1391722e+2, -118518.016, 24346.078, -109423.29, -0.27098835, -0.1621074, 83589.17, 83589.17, 0.000030818417, 9.998797, 10.000732 
3.450939e+2, 1.23936296e+2, -1475684.9, -1903026.1, -37882.59, 0.023203135, -0.07171624, -1472352.6, 253056.83, 0.00012647996, 10.00291, 9.997295 
3.4508738e+2, 1.3393201e+2, -1258085.9, -1730730.8, 24319.049, 0.03833244, -0.25805914, -1256837.9, 370619.7, 0.000053444728, 10.003673, 9.997452 
3.450796e+2, 1.4393196e+2, -1057508.9, -1311482.8, 23130.8, -0.056650084, -0.114935756, -1055419.4, 474041.1, 0.0000131995685, 10.003215, 9.999854 
3.450735e+2, 1.5393399e+2, -1237432.4, -1332161.5, -1370.4122, -0.0045329337, 0.06394974, -1237412.6, 194025.64, 0.00000089811203, 10.001239, 9.999994 
3.4506634e+2, 1.6393389e+2, -1341369.3, -1444180.0, -83031.336, 0.03167662, 0.10276664, -1295118.5, 38319.684, 0.0000000015154811, 10.000345, 9.9989805 
3.4505698e+2, 1.739307e+2, -1146255.9, -1314960.0, -94365.984, -0.013016509, -0.11957618, -1104037.0, 131433.73, 0.0, 10.001083, 9.998839 
3.450483e+2, 1.83929e+2, -971438.6, -1104395.6, -13653.082, -0.0683353, -0.20158105, -970051.1, 167437.36, 0.0, 10.00127, 9.999528 
3.450411e+2, 1.9392943e+2, -976294.5, -1050636.3, -28570.586, -0.11430625, -0.13607146, -966583.06, 72901.734, 0.0, 10.000539, 9.999578 
3.450341e+2, 2.039297e+2, -929864.44, -999616.44, -49396.85, -0.13091572, -0.05347066, -904272.4, 37209.473, 0.0, 10.000285, 9.999376 
3.4502724e+2, 2.1392955e+2, -773909.0, -878665.75, -70799.7, -0.1118521, -0.021316838, -738218.7, 105263.516, 0.0, 10.000701, 9.999334 
3.450204e+2, 2.2392866e+2, -747284.06, -916184.25, -59888.203, -0.09433886, 0.0007522536, -728204.4, 17286.883, 0.0, 10.000654, 9.9984255 
3.4501353e+2, 2.3392671e+2, -764106.5, -886823.44, -31103.584, -0.07777855, -0.04349524, -756673.25, -109160.03, 0.0, 9.999922, 9.998308 
3.450064e+2, 2.4392551e+2, -609835.25, -615484.75, -54271.99, -0.030002624, -0.0501572, -558314.56, -8788.438, 0.0, 9.99968, 9.999614 
3.4499896e+2, 2.5392538e+2, -436559.34, -467531.7, -72560.54, 0.0704932, -0.052810665, -377850.8, 73674.984, 0.0, 10.000131, 9.999742 
3.449908e+2, 2.6392525e+2, -368195.66, -390145.97, -41829.86, 0.05598827, -0.033676215, -335925.13, 17601.232, 0.0, 9.999968, 9.999671 
3.4498143e+2, 2.7392486e+2, -418560.34, -364410.94, -42458.625, -0.12576684, -0.056486607, -341129.2, -85598.58, 0.0, 9.998951, 9.999665 
3.4497336e+2, 2.839243e+2, -394603.06, -296850.66, -41401.51, -0.1641301, -0.07635156, -281672.44, -124136.42, 0.00000016974016, 9.9984255, 9.99971 
3.4496728e+2, 2.9392397e+2, -279433.97, -198705.55, -9435.067, 0.02375073, -0.09988649, -197617.5, -138078.13, 0.0000019719364, 9.998567, 9.999646 
3.4496173e+2, 3.0392447e+2, -114776.55, -45302.137, 50938.902, 0.14179374, -0.03018931, -18383.48, -18383.48, 0.000009630792, 9.999144, 10.000093 
3.4495285e+2, 3.1392312e+2, 120089.43, 138225.2, -139344.6, -0.114572056, -0.2014658, 268796.66, 268796.66, 0.000028581368, 10.00041, 10.000745 
3.5509735e+2, 1.23946495e+2, -1448663.9, -1876664.4, -44841.12, 0.029810352, 0.18343848, -1444016.4, 281298.0, 0.00012065916, 10.003022, 9.997427 
3.5509077e+2, 1.3394016e+2, -1267885.4, -1751467.8, 55635.72, -0.0075326087, -0.19320883, -1261567.1, 365810.34, 0.000054324108, 10.003678, 9.997304 
3.5508254e+2, 1.4393806e+2, -1091209.4, -1385961.5, -49006.465, -0.10412111, -0.22565863, -1083275.0, 446122.22, 0.000015580361, 10.003228, 9.999341 
3.5507417e+2, 1.5393737e+2, -1272981.1, -1415519.4, -70447.66, -0.08531316, -0.26019698, -1244039.8, 187361.58, 0.0000017221554, 10.001279, 9.999404 
3.5506627e+2, 1.6393714e+2, -1330514.8, -1424369.6, -74533.85, -0.026369685, -0.20713294, -1289365.6, 44037.69, 0.000000007086625, 10.000354, 9.999113 
3.5505855e+2, 1.7393759e+2, -1127674.3, -1280735.3, -59611.895, 0.021681573, -0.088278264, -1107197.0, 128205.414, 0.0, 10.001096, 9.99907 
3.5505056e+2, 1.8393742e+2, -1006659.1, -1165767.8, -40689.7, 0.01564292, -0.012384032, -996857.2, 140549.45, 0.0, 10.0012245, 9.999126 
3.5504255e+2, 1.9393621e+2, -1015908.06, -1122122.4, -50244.438, -0.039648864, -0.06268531, -995906.6, 43512.875, 0.0, 10.000496, 9.999107 
3.550349e+2, 2.0393506e+2, -965491.3, -1062579.6, -43540.176, -0.09234168, -0.07965098, -948825.94, -7395.4546, 0.0, 10.000234, 9.998971 
3.5502768e+2, 2.1393387e+2, -809213.3, -939077.0, -49236.89, -0.1534777, -0.11180492, -792656.4, 50783.094, 0.0, 10.000644, 9.998947 
3.550205e+2, 2.2393265e+2, -699281.6, -804131.6, -87595.86, -0.16143124, -0.13943203, -649621.25, 95828.9, 0.0, 10.0006, 9.999221 
3.5501337e+2, 2.3393126e+2, -707126.2, -757310.25, -52377.996, -0.09730805, -0.21765344, -674140.1, -26675.965, 0.0, 9.999871, 9.999222 
3.5500598e+2, 2.4393071e+2, -624753.25, -635214.0, -47256.695, -0.05241812, -0.20432037, -582438.4, -32967.96, 0.0, 9.999632, 9.9995 
3.5499817e+2, 2.5393125e+2, -461957.9, -504946.63, -50871.574, -0.037793204, -0.11815538, -428226.13, 23239.928, 0.0, 10.000067, 9.999515 
3.5499024e+2, 2.639315e+2, -374219.03, -393116.44, -78747.79, -0.009865521, -0.049772784, -304355.1, 49109.516, 0.0, 9.9999275, 9.999668 
3.5498217e+2, 2.7393112e+2, -427030.84, -370466.78, -72957.77, 0.038218655, -0.07361149, -320501.06, -65032.043, 0.0, 9.998902, 9.999645 
3.5497352e+2, 2.8393096e+2, -348321.63, -196060.44, -46288.54, -0.0053383396, -0.0836194, -183092.78, -25623.008, 0.00000011654808, 9.998402, 10.000415 
3.5496396e+2, 2.9393137e+2, -228118.97, -83145.14, 1697.6543, -0.18500307, -0.11674374, -83125.26, -23662.111, 0.0000016005947, 9.998522, 10.0004635 
3.5495847e+2, 3.0393192e+2, -222928.06, -258352.7, 92378.805, -0.11229639, -0.020432256, -146578.88, -146578.88, 0.000008029012, 9.9991, 9.998651 
3.5495517e+2, 3.139307e+2, 20796.123, -45061.03, -52507.67, 0.04219776, -0.010736341, 49846.15, 49846.15, 0.00002594716, 10.000322, 9.999523 
3.651011e+2, 1.23953e+2, -1315988.5, -1734682.3, -129308.17, 0.07999866, 0.16323005, -1279273.0, 445981.7, 0.0001173425, 10.003606, 9.998117 
3.650935e+2, 1.3394779e+2, -1495855.4, -1806653.6, 2656.3572, -0.0023682672, -0.15058358, -1495832.8, 131471.6, 0.000055697445, 10.001883, 9.997782 
3.6508507e+2, 1.4394593e+2, -1418598.5, -1571391.3, -53859.625, -0.064234026, -0.17387873, -1401521.5, 127799.234, 0.000017764012, 10.001105, 9.999091 
3.6507526e+2, 1.5394448e+2, -1227042.1, -1428135.9, -71742.54, -0.120498225, -0.25237417, -1204071.1, 227262.03, 0.000002786188, 10.001743, 9.999097 
3.6506695e+2, 1.6394378e+2, -1090991.1, -1306960.5, -22778.951, -0.0746773, -0.2288941, -1088614.8, 244725.14, 0.00000008230677, 10.001989, 9.999133 
3.6506015e+2, 1.7394437e+2, -1038760.25, -1229999.8, -31556.3, 0.046665974, -0.102073714, -1033687.7, 201648.83, 0.0, 10.001675, 9.99914 
3.6505252e+2, 1.839444e+2, -988425.1, -1185504.3, -25077.861, 0.08143834, 0.0008707761, -985284.06, 152054.38, 0.0, 10.001475, 9.998871 
3.6504397e+2, 1.939433e+2, -904596.7, -1100123.8, -32985.043, 0.013013947, -0.007137287, -899182.1, 140168.64, 0.0, 10.001399, 9.998824 
3.650361e+2, 2.0394185e+2, -813580.2, -982845.4, 24512.404, -0.042488884, -0.04130704, -810101.9, 131262.72, 0.0, 10.001259, 9.9990225 
3.6502916e+2, 2.1393977e+2, -753615.9, -903447.5, 41777.77, -0.08562048, -0.16990304, -742754.25, 100626.74, 0.0, 10.000998, 9.999022 
3.650216e+2, 2.2393852e+2, -671774.94, -762033.9, -9403.073, -0.11498567, -0.21417458, -670805.75, 74585.555, 0.0, 10.000664, 9.999478 
3.6501315e+2, 2.3393843e+2, -644752.6, -697010.5, -36255.6, -0.11711998, -0.19099964, -626191.7, 21201.637, 0.0, 10.000168, 9.999494 
3.6500514e+2, 2.4393842e+2, -621843.2, -638251.7, -24291.879, -0.0964443, -0.13643406, -604407.5, -55012.906, 0.0, 9.999663, 9.999469 
3.6499768e+2, 2.539385e+2, -602146.06, -576666.0, -23874.377, -0.04092502, -0.09355786, -562345.06, -110949.734, 0.0, 9.999125, 9.999475 
3.6498994e+2, 2.639383e+2, -514708.06, -472254.72, -46255.137, 0.017686984, -0.06263406, -442588.28, -89190.27, 0.0, 9.999011, 9.99957 
3.6498183e+2, 2.7393755e+2, -351043.53, -347372.38, -62248.56, 0.09011675, -0.108663596, -286932.34, -31527.172, 0.0, 9.9994755, 9.999533 
3.649729e+2, 2.839374e+2, -152058.61, -113704.38, -40851.73, 0.028122596, -0.10734249, -87752.51, 69653.016, 0.000000055764154, 9.999795, 10.000312 
3.6496267e+2, 2.9393828e+2, -39108.23, 426.477, -75745.58, -0.22748454, -0.082695246, 58941.566, 118336.01, 0.0000011854916, 9.99986, 10.000392 
3.6495736e+2, 3.0393854e+2, -176655.89, -292079.78, 29610.0, -0.15450616, 0.008094402, -169503.2, -169503.2, 0.000006614604, 9.999654, 9.9981575 
3.6495623e+2, 3.1393683e+2, -203381.05, -199961.33, -32292.766, 0.18870857, 0.027919827, -169333.19, -169333.19, 0.000023524617, 9.998985, 9.999111 
3.7510443e+2, 1.23956226e+2, -1226261.8, -1556302.1, -218845.61, 0.014938417, -0.0928492, -1117192.4, 608034.5, 0.00011727098, 10.003637, 9.999324 
3.7509552e+2, 1.339551e+2, -1410127.1, -1645155.1, -56080.426, -0.011144405, -0.11154478, -1397431.5, 229804.83, 0.000057588015, 10.001951, 9.998855 
3.7508693e+2, 1.4395557e+2, -1413063.5, -1564840.9, -48453.49, -0.007808297, 0.03653747, -1398914.3, 130316.94, 0.000019793933, 10.001129, 9.999123 
3.7507653e+2, 1.5395513e+2, -1227224.5, -1434396.4, -40575.953, -0.18572171, 0.067874864, -1219560.9, 211674.67, 0.000003853391, 10.001771, 9.99904 
3.75068e+2, 1.6395375e+2, -1099726.1, -1323342.0, -37413.758, -0.18391384, 0.028345354, -1093632.4, 239616.27, 0.00000020238203, 10.001982, 9.999023 
3.7506154e+2, 1.7395113e+2, -1048776.5, -1252272.4, -37283.844, 0.0018054373, -0.1510908, -1042160.6, 193111.6, 0.0, 10.0016775, 9.998987 
3.75054e+2, 1.8394995e+2, -997900.06, -1198307.9, -34433.523, 0.06856788, -0.15749402, -992148.8, 145134.94, 0.0, 10.001447, 9.998795 
3.750452e+2, 1.939507e+2, -915073.25, -1111505.4, -29089.777, -0.018874219, 0.023264224, -910855.9, 128422.945, 0.0, 10.001358, 9.998762 
3.7503755e+2, 2.0395005e+2, -789726.0, -923683.3, 9760.203, -0.03672425, 0.054152425, -789018.6, 152266.02, 0.0, 10.001214, 9.999453 
3.750314e+2, 2.1394724e+2, -726670.4, -833594.3, 38583.008, 0.027690522, -0.19610398, -714201.9, 129105.11, 0.0, 10.0009365, 9.999531 
3.750234e+2, 2.239463e+2, -702679.5, -810757.4, -33623.477, -0.011291699, -0.22204067, -693073.0, 52241.652, 0.0, 10.000593, 9.99918 
3.7501267e+2, 2.3394813e+2, -677928.9, -754015.56, -49798.363, -0.19864656, 0.026793828, -653305.06, -6003.6147, 0.0, 10.000111, 9.999131 
3.750037e+2, 2.4394864e+2, -626328.3, -631232.25, -48365.594, -0.21962948, 0.1495077, -580352.56, -31053.766, 0.0, 9.999597, 9.999548 
3.7499735e+2, 2.539471e+2, -602750.56, -565746.1, -36660.51, -0.0014086444, 0.021181343, -543183.44, -91870.195, 0.0, 9.999068, 9.999578 
3.7498975e+2, 2.6394558e+2, -535724.0, -505361.78, -37455.81, 0.083469756, -0.07328102, -480127.5, -126800.74, 0.0, 9.99897, 9.99936 
3.749802e+2, 2.739441e+2, -375559.7, -383908.72, -37333.484, -0.03737337, -0.17123938, -342168.06, -86828.64, 0.0, 9.9994135, 9.999311 
3.7497127e+2, 2.8394365e+2, -223698.44, -253066.9, -41391.56, -0.13063088, -0.14678447, -194463.56, -37120.473, 0.00000003400916, 9.999753, 9.999377 
3.7496322e+2, 2.9394475e+2, -118007.945, -152477.88, -66772.17, -0.1740357, 0.0017467797, -66282.29, -6948.5283, 0.0000008994765, 9.999805, 9.999372 
3.7495816e+2, 3.039442e+2, -155752.67, -229684.75, 1105.5458, -0.05302564, 0.05323514, -155736.16, -155736.16, 0.000005653841, 9.999588, 9.998613 
3.7495548e+2, 3.139414e+2, -193726.11, -144889.25, -29266.768, 0.18332292, -0.09969905, -131192.02, -131192.02, 0.000021891798, 9.99885, 9.999549 
3.8510767e+2, 1.23963475e+2, -1390144.9, -1617641.8, -74118.336, 0.04107266, -0.14482558, -1368128.0, 357029.84, 0.00012051854, 10.002439, 9.999481 
3.8509777e+2, 1.3396339e+2, -1242817.9, -1563646.9, -15959.903, -0.03317727, -0.062416587, -1242025.9, 385131.06, 0.00006024057, 10.00309, 9.998875 
3.8508967e+2, 1.439638e+2, -1125431.9, -1452652.5, -28548.701, 0.050652463, 0.09183075, -1122959.8, 406192.97, 0.000021870095, 10.003212, 9.99889 
3.8507935e+2, 1.5396328e+2, -1140368.6, -1420386.1, -53947.727, -0.111536264, 0.13750277, -1130334.8, 300824.63, 0.000004862859, 10.002491, 9.998787 
3.850706e+2, 1.639617e+2, -1107091.0, -1349896.0, -54671.582, -0.12384321, 0.101678126, -1095348.6, 237826.05, 0.00000029520132, 10.002017, 9.998832 
3.8506314e+2, 1.7395869e+2, -1032184.56, -1263579.8, -67411.72, -0.011281784, -0.10046828, -1013978.2, 221223.48, 0.0, 10.001864, 9.998824 
3.850551e+2, 1.8395716e+2, -932295.2, -1160757.8, -37888.125, 0.012090887, -0.13574922, -926175.75, 211039.9, 0.0, 10.001869, 9.99885 
3.8504645e+2, 1.939576e+2, -805068.0, -1053978.4, -35710.83, -0.063377164, 0.0060145743, -800045.94, 239166.27, 0.0, 10.002084, 9.998813 
3.8503873e+2, 2.0395702e+2, -740897.94, -914538.44, -29305.795, -0.056675933, 0.048484605, -736085.3, 205131.97, 0.0, 10.001605, 9.999327 
3.8503218e+2, 2.1395485e+2, -863589.56, -917644.6, -62542.41, 0.05767314, -0.12289544, -822484.56, 20751.188, 0.0, 10.000063, 9.999377 
3.8502386e+2, 2.2395411e+2, -854350.44, -857927.94, -95224.17, 0.037092395, -0.13256143, -760898.2, -15656.547, 0.0, 9.99944, 9.999412 
3.85013e+2, 2.3395547e+2, -647499.9, -707366.75, -72925.31, -0.1755565, 0.043628026, -598603.7, 48625.586, 0.0, 10.000192, 9.999409 
3.850038e+2, 2.439556e+2, -532377.0, -634354.94, -75233.79, -0.20594712, 0.12992038, -492481.44, 56748.094, 0.0, 10.000452, 9.999108 
3.8499713e+2, 2.5395375e+2, -516415.1, -586881.9, -126230.96, 0.030635733, 0.025408464, -420592.6, 30657.164, 0.0, 9.99993, 9.999017 
3.8498908e+2, 2.6395217e+2, -429710.97, -435463.13, -104608.87, 0.091622435, -0.0524443, -327938.66, 25326.252, 0.0, 9.999608, 9.999534 
3.84979e+2, 2.7395105e+2, -336529.2, -332170.22, -77598.13, -0.10058449, -0.14593188, -256720.98, -1448.7141, 0.0, 9.999547, 9.999598 
3.8497043e+2, 2.839505e+2, -295182.34, -330811.84, -35184.496, -0.1683095, -0.12965627, -273559.63, -116283.56, 0.000000026095549, 9.999447, 9.998991 
3.8496405e+2, 2.9395086e+2, -230656.53, -256719.19, -28331.627, -0.04118544, -0.004837488, -212502.98, -153228.28, 0.0000006696504, 9.99925, 9.998919 
3.8495865e+2, 3.0395022e+2, -200057.3, -195005.69, 62549.902, 0.071410306, 0.03519581, -134930.61, -134930.61, 0.0000049598348, 9.999038, 9.999115 
3.8495383e+2, 3.139476e+2, -198273.78, -94464.07, 12307.6, 0.15585132, -0.15843634, -93024.84, -93024.84, 0.000021460863, 9.998585, 10.000026 
3.951104e+2, 1.2397461e+2, -1454302.5, -1749954.8, -61216.383, 0.03156047, 0.00069476606, -1442128.6, 282920.6, 0.00012411328, 10.002451, 9.998565 
3.951e+2, 1.3397251e+2, -1309515.3, -1704083.0, 12824.139, -0.13631913, -0.01902414, -1309098.9, 317968.94, 0.00006272597, 10.003111, 9.997897 
3.9509293e+2, 1.4397068e+2, -1163989.9, -1537226.8, -56837.363, 0.03660379, -0.007249818, -1155526.5, 373558.75, 0.000023584134, 10.00322, 9.998312 
3.950834e+2, 1.5396905e+2, -1168093.1, -1490464.3, -74638.41, 0.026777985, -0.023647333, -1151650.8, 279452.47, 0.000005569423, 10.002535, 9.998289 
3.9507434e+2, 1.6396767e+2, -1122739.8, -1378375.1, -71980.61, 0.03310096, -0.0031049412, -1103865.4, 229252.8, 0.00000035120044, 10.002005, 9.998642 
3.9506477e+2, 1.7396699e+2, -1041451.3, -1281351.5, -67354.0, -0.05089256, 0.043334857, -1023834.75, 211290.56, 0.0, 10.001862, 9.998702 
3.950556e+2, 1.8396592e+2, -928516.4, -1143966.4, -36696.113, -0.13576184, 0.05730118, -922437.7, 214697.13, 0.0, 10.001828, 9.998987 
3.950475e+2, 1.9396406e+2, -800651.6, -1029967.5, -22104.4, -0.18308598, -0.048050493, -798540.4, 240609.7, 0.0, 10.002022, 9.999006 
3.950394e+2, 2.0396283e+2, -798952.94, -1015039.94, -87443.11, -0.16010694, -0.052848555, -768001.1, 173160.7, 0.0, 10.001524, 9.998674 
3.950312e+2, 2.139626e+2, -928539.9, -1028637.94, -114175.73, -0.056584243, 0.042207252, -853925.4, -10757.631, 0.0, 9.9999695, 9.998655 
3.9502284e+2, 2.2396193e+2, -811859.8, -757493.2, -81475.52, -0.022217914, 0.046356816, -698785.9, 46386.617, 0.0, 9.999382, 10.000133 
3.9501405e+2, 2.3396043e+2, -593215.56, -580543.94, -37347.895, -0.10544737, -0.1505765, -548998.25, 98179.15, 0.0, 10.000128, 10.000313 
3.9500532e+2, 2.4395922e+2, -610123.44, -782240.44, -95401.12, -0.114524625, -0.20287804, -567700.7, -18513.107, 0.0, 10.000397, 9.99812 
3.949968e+2, 2.5395837e+2, -608847.56, -764655.0, -139336.56, -0.012095033, -0.09053079, -527115.25, -75909.37, 0.0, 9.999865, 9.997829 
3.9498773e+2, 2.6395807e+2, -399888.06, -356557.25, -113339.37, -0.015372297, -0.003350473, -262831.13, 90381.36, 0.0, 9.999537, 10.000109 
3.9497802e+2, 2.739583e+2, -290169.8, -222704.17, -72510.94, -0.16829, -0.032849044, -176463.63, 78740.33, 0.0, 9.999488, 10.000379 
3.9497018e+2, 2.8395787e+2, -285199.84, -299348.66, -48257.133, -0.1519713, -0.059198175, -243501.33, -86296.64, 0.000000010243951, 9.999404, 9.999228 
3.9496487e+2, 2.9395673e+2, -231524.36, -237658.13, -26171.299, 0.100124374, -0.10227432, -208240.86, -149024.02, 0.00000051187845, 9.999164, 9.999093 
3.9495867e+2, 3.0395657e+2, -166358.1, -114140.055, 45041.824, 0.15688083, -0.04882451, -88187.125, -88187.125, 0.0000058228006, 9.998991, 9.99969 
3.9495087e+2, 3.1395555e+2, -176558.17, -21446.611, 10766.695, -0.028860593, -0.14460067, -20702.834, -20702.834, 0.00002601799, 9.998478, 10.000571 
4.0511358e+2, 1.2398371e+2, -1411396.1, -1728757.9, -130928.266, 0.099877626, 0.12468623, -1364354.4, 360610.84, 0.000125019, 10.002732, 9.998576 
4.051027e+2, 1.3398093e+2, -1269415.4, -1676645.5, -22186.227, -0.18474919, 0.023088021, -1268210.3, 358777.16, 0.00006390436, 10.003342, 9.997977 
4.0509623e+2, 1.4397815e+2, -1172930.1, -1578199.3, -70826.125, 0.0441509, -0.05081468, -1160908.9, 368104.06, 0.000024485202, 10.003321, 9.99798 
4.0508637e+2, 1.5397604e+2, -1221816.1, -1559739.4, -100663.164, 0.082415864, -0.076469235, -1194102.6, 236933.86, 0.000005781208, 10.002349, 9.997904 
4.0507704e+2, 1.6397472e+2, -1110395.1, -1371128.4, -30632.615, 0.10184221, -0.027988417, -1106844.6, 226206.77, 0.0000003430959, 10.00209, 9.998646 
4.0506718e+2, 1.7397492e+2, -895432.9, -1207503.3, -24948.307, -0.042702433, 0.1006935, -893451.0, 341599.06, 0.0, 10.002853, 9.998728 
4.050578e+2, 1.8397404e+2, -793365.44, -1086044.1, -14137.17, -0.14376254, 0.1348779, -792684.1, 344373.38, 0.0, 10.002785, 9.998923 
4.0504962e+2, 1.9397128e+2, -895335.8, -1083825.3, -29393.979, -0.13643804, -0.05274372, -890858.3, 148222.92, 0.0, 10.001406, 9.998936 
4.05041e+2, 2.0396987e+2, -891466.56, -1067486.4, -67260.875, -0.11697381, -0.070007846, -868707.5, 72387.625, 0.0, 10.000925, 9.998603 
4.050317e+2, 2.139704e+2, -677940.7, -921681.44, -58680.32, -0.08818152, 0.11139904, -664549.2, 178545.45, 0.0, 10.001744, 9.99854 
4.05023e+2, 2.2396961e+2, -473484.4, -607111.2, -11539.877, -0.05826485, 0.11612868, -472495.16, 272605.2, 0.0, 10.001773, 10.000006 
4.0501505e+2, 2.339667e+2, -529166.75, -568015.4, -56820.336, -0.037984617, -0.20638835, -488542.28, 158574.4, 0.0, 10.0006485, 10.000145 
4.050064e+2, 2.4396503e+2, -642185.7, -776069.7, -103447.914, -0.02450879, -0.30190542, -585909.56, -36779.668, 0.0, 10.00008, 9.998319 
4.0499678e+2, 2.5396538e+2, -519094.38, -687293.9, -52082.36, -0.015591577, -0.0973785, -504273.25, -53136.4, 0.0, 10.00035, 9.998121 
4.049871e+2, 2.6396576e+2, -338407.38, -355853.16, 3632.1333, -0.05508078, 0.053691592, -337681.38, 15456.224, 0.0, 10.0000725, 9.999862 
4.0497735e+2, 2.7396587e+2, -393384.63, -310324.16, -48341.996, -0.15274043, 0.04040841, -288122.84, -32990.27, 0.0, 9.998929, 10.000053 
4.0496963e+2, 2.8396505e+2, -436528.88, -332538.84, -36930.633, -0.08045622, -0.020072095, -320758.06, -163620.98, 0.0000000008315615, 9.998199, 9.999575 
4.0496483e+2, 2.939632e+2, -345192.8, -243473.48, -9180.582, 0.23564853, -0.17735928, -242651.53, -183498.17, 0.00000071034475, 9.998174, 9.999524 
4.0495774e+2, 3.039636e+2, -282360.03, -144800.69, 65886.695, 0.21519223, -0.106459536, -118334.89, -118334.89, 0.0000094188645, 9.998076, 9.999924 
4.0494764e+2, 3.1396353e+2, -242920.2, 4655.547, -22031.764, -0.15501189, -0.12605672, 6600.868, 6600.868, 0.00003801625, 9.997742, 10.001113 
4.151168e+2, 1.239908e+2, -1333927.8, -1589284.6, -100474.13, 0.10397734, 0.21568331, -1299135.1, 425770.1, 0.00012209901, 10.002818, 9.999491 
4.1510552e+2, 1.3398884e+2, -1178291.4, -1503219.8, 4628.392, -0.254085, 0.07623556, -1178225.4, 448688.5, 0.000062719766, 10.003396, 9.999144 
4.1509926e+2, 1.4398623e+2, -1182902.4, -1594233.0, -105868.516, -0.0033387854, -0.040539853, -1157253.3, 371682.22, 0.000024127196, 10.00331, 9.997873 
4.150881e+2, 1.5398426e+2, -1236529.6, -1588370.8, -128839.234, 0.0001942796, -0.027125835, -1194396.1, 236562.9, 0.0000053776757, 10.002349, 9.9977045 
4.1507852e+2, 1.6398287e+2, -1105118.3, -1355462.4, -13903.878, 0.025556225, 0.018319014, -1104348.4, 228626.08, 0.0000002359893, 10.0020685, 9.998763 
4.150701e+2, 1.7398253e+2, -883577.3, -1183721.5, 11846.975, -0.053694963, 0.076723374, -883110.44, 351864.97, 0.0, 10.002854, 9.998891 
4.1506135e+2, 1.839815e+2, -815402.4, -1124261.4, -63682.7, -0.08340551, 0.09653617, -802787.1, 334196.88, 0.0, 10.002753, 9.998676 
4.1505256e+2, 1.9397928e+2, -920752.9, -1125653.5, -76594.74, 0.0022031043, -0.007316194, -895285.94, 143719.3, 0.0, 10.001362, 9.998666 
4.1504335e+2, 2.0397809e+2, -867873.44, -1009568.1, -50518.367, 0.012570353, -0.004861315, -851706.7, 89310.31, 0.0, 10.000876, 9.999029 
4.1503343e+2, 2.1397829e+2, -650706.5, -847878.0, -22362.826, -0.10680072, 0.08969841, -648201.94, 194813.94, 0.0, 10.001668, 9.999084 
4.150241e+2, 2.239772e+2, -559408.5, -766650.25, -51936.17, -0.13714536, 0.08205535, -547121.44, 197903.14, 0.0, 10.001691, 9.998952 
4.150158e+2, 2.3397417e+2, -624371.06, -749264.44, -92879.375, -0.042131167, -0.13186786, -574897.4, 72150.79, 0.0, 10.000578, 9.998934 
4.1500682e+2, 2.4397305e+2, -551579.0, -574115.06, -104083.05, -0.005375145, -0.17039245, -458155.8, 90900.9, 0.0, 10.000023, 9.999728 
4.1499692e+2, 2.5397468e+2, -407882.56, -443098.72, -34617.41, -0.052969325, -0.006507103, -386652.4, 64391.297, 0.0, 10.00029, 9.999827 
4.1498694e+2, 2.639752e+2, -416024.8, -505892.1, -39596.977, -0.09210701, 0.1087012, -401067.28, -48025.93, 0.0, 10.000033, 9.998846 
4.1497672e+2, 2.7397382e+2, -499906.88, -511783.84, -84209.55, -0.12454066, 0.08077614, -421426.7, -166369.58, 0.0, 9.998851, 9.998704 
4.149686e+2, 2.8397217e+2, -408787.1, -272830.03, -47847.29, -0.021279847, -0.010613812, -257679.48, -100607.14, 0.00000000001177225, 9.998182, 9.999995 
4.1496363e+2, 2.9397035e+2, -311712.7, -159790.97, -2526.7065, 0.27860886, -0.22671543, -159748.95, -100664.71, 0.0000013022876, 9.998108, 10.000133 
4.1495553e+2, 3.039713e+2, -287485.72, -148601.58, 52216.336, 0.17271857, -0.12868308, -131160.13, -131160.13, 0.000014524035, 9.998052, 9.9999075 
4.149437e+2, 3.139719e+2, -218046.83, 86184.734, -31652.684, -0.35813296, -0.08436512, 89443.02, 89443.02, 0.000053920798, 9.9976225, 10.001728 
4.2512026e+2, 1.2399834e+2, -1099948.3, -1490424.0, 38344.637, 0.093158774, 0.17562757, -1096218.5, 628613.4, 0.00011443259, 10.004466, 9.999383 
4.2510855e+2, 1.3399744e+2, -1384301.6, -1585135.1, 14539.323, -0.20840198, 0.12530054, -1383254.5, 243576.73, 0.00005866896, 10.001898, 9.999305 
4.251027e+2, 1.4399526e+2, -1474763.9, -1722749.1, -62072.49, 0.11999446, 0.03826872, -1460094.5, 68754.39, 0.00002226237, 10.001248, 9.997986 
4.2509058e+2, 1.5399326e+2, -1121018.6, -1520800.4, -75744.625, -0.014542204, 0.037071805, -1107148.9, 323723.22, 0.0000044458184, 10.003092, 9.99781 
4.250807e+2, 1.6399159e+2, -891484.06, -1254466.4, 33687.113, -0.033789694, 0.051838472, -888384.2, 444505.0, 0.00000009724189, 10.003541, 9.998749 
4.2507282e+2, 1.7399046e+2, -1018036.1, -1250368.8, 30802.969, -0.015358564, 0.03457033, -1014021.6, 220874.58, 0.0, 10.001936, 9.9988785 
4.2506412e+2, 1.8398924e+2, -1049340.8, -1255377.5, -38015.734, -0.0011461471, 0.043722525, -1042550.3, 94356.39, 0.0, 10.001231, 9.9985075 
4.250545e+2, 1.9398767e+2, -868108.0, -1124322.3, -54204.758, 0.042282976, 0.023908883, -857112.4, 181812.16, 0.0, 10.001827, 9.99845 
4.2504483e+2, 2.0398663e+2, -759195.6, -944935.94, -23514.926, 0.039871104, 0.047479827, -756264.9, 184670.5, 0.0, 10.001577, 9.999128 
4.2503482e+2, 2.1398626e+2, -880054.1, -944899.44, -37825.51, -0.044969626, 0.07428461, -862657.1, -19719.957, 0.0, 10.000041, 9.999198 
4.2502508e+2, 2.2398496e+2, -921499.8, -997404.4, -48377.477, -0.092838265, 0.060821816, -897964.25, -153015.9, 0.0, 9.999444, 9.998451 
4.2501566e+2, 2.339823e+2, -719979.2, -858810.75, -54137.906, -0.08867183, -0.059333302, -701363.94, -54390.914, 0.0, 10.000194, 9.998368 
4.2500615e+2, 2.439813e+2, -522239.8, -515392.22, -77112.805, -0.06760456, -0.07207755, -441627.25, 107354.086, 0.0, 10.000023, 10.000137 
4.2499664e+2, 2.5398266e+2, -634197.9, -495581.3, -109888.02, -0.015487384, 0.011801213, -434970.3, 15996.326, 0.0, 9.998482, 10.000342 
4.2498678e+2, 2.6398298e+2, -697821.8, -647029.44, -93619.586, -0.009531707, 0.082743995, -575422.56, -222458.47, 0.0, 9.998121, 9.998803 
4.2497647e+2, 2.739816e+2, -404772.3, -474179.44, -56068.125, -0.0635786, 0.06383091, -373536.72, -118555.21, 0.0, 9.999541, 9.998631 
4.2496753e+2, 2.8398022e+2, -189012.81, -184322.27, -6238.567, -0.02218304, 0.011956867, -180002.7, -23007.584, 0.0000000012455732, 9.999766, 9.99984 
4.2496067e+2, 2.9397896e+2, -311445.75, -179412.52, -36917.98, 0.17416883, -0.12948251, -169790.98, -110788.94, 0.0000019825331, 9.998188, 9.999964 
4.2495227e+2, 3.039794e+2, -442919.22, -252038.11, 11706.768, 0.09389384, -0.060463138, -251322.81, -251322.81, 0.000019596095, 9.997117, 9.999649 
4.249423e+2, 3.139793e+2, -301873.72, 75576.51, -128743.27, -0.21303952, -0.061025877, 115307.07, 115307.07, 0.00006922057, 9.996931, 10.001991 
4.3512347e+2, 1.2400639e+2, -1174729.3, -1638045.4, -29583.479, -0.06769275, 0.017063893, -1172848.0, 551896.94, 0.00010277845, 10.0044565, 9.998367 
4.3511173e+2, 1.3400671e+2, -1432374.5, -1692364.5, -75385.62, -0.101827055, 0.17023249, -1412097.5, 214641.89, 0.000052240524, 10.001938, 9.9985485 
4.3510646e+2, 1.4400512e+2, -1453023.3, -1683490.6, -9040.6875, 0.3463457, 0.17289625, -1452669.1, 76085.03, 0.000019361623, 10.001269, 9.998247 
4.350936e+2, 1.5400293e+2, -1089094.6, -1463703.1, 2469.2205, -0.043619253, 0.11081955, -1089078.4, 341698.3, 0.0000034941986, 10.003123, 9.99819 
4.350832e+2, 1.640008e+2, -903190.25, -1271805.4, -21292.084, -0.15004653, 0.06249125, -901964.44, 430832.2, 0.000000032016867, 10.003515, 9.99864 
4.350752e+2, 1.7399879e+2, -1030798.6, -1274482.1, -23722.064, 0.011189141, -0.025199084, -1028510.8, 206301.17, 0.0, 10.001925, 9.998718 
4.350659e+2, 1.8399733e+2, -1065657.6, -1276654.5, -28606.479, 0.038117666, -0.026296081, -1061848.0, 74977.88, 0.0, 10.001182, 9.998384 
4.3505523e+2, 1.9399649e+2, -883885.6, -1143555.6, -24640.861, -0.08158247, 0.037134215, -881568.06, 157270.75, 0.0, 10.001774, 9.998342 
4.3504518e+2, 2.0399554e+2, -789405.56, -990345.25, -80091.36, -0.09192504, 0.089121535, -761388.75, 179460.98, 0.0, 10.001503, 9.998852 
4.3503582e+2, 2.1399437e+2, -909226.75, -991781.9, -90692.05, 0.034884673, 0.062834695, -850860.5, -8002.066, 0.0, 9.999982, 9.998903 
4.3502566e+2, 2.2399296e+2, -935148.8, -1003076.3, -35514.44, 0.010912162, 0.055645406, -919971.9, -175100.56, 0.0, 9.99935, 9.998458 
4.350145e+2, 2.339911e+2, -728031.75, -856316.2, -20324.305, -0.23829818, 0.012336504, -724888.75, -77997.516, 0.0, 10.000113, 9.998424 
4.3500432e+2, 2.4398986e+2, -574187.75, -608816.4, -133823.25, -0.26505455, -0.0023523392, -456563.4, 92340.11, 0.0, 9.999962, 9.999526 
4.349957e+2, 2.5398937e+2, -692814.6, -600485.5, -163711.53, 0.027278248, -0.032869767, -476554.1, -25648.89, 0.0, 9.99841, 9.999657 
4.3498644e+2, 2.6398918e+2, -633603.7, -507762.06, -56898.906, 0.13157798, -0.0229867, -485850.6, -132944.83, 0.0, 9.998094, 9.999772 
4.3497634e+2, 2.7398917e+2, -329916.63, -309385.22, 4827.7314, -0.045477144, -0.015760235, -308306.7, -53400.613, 0.0, 9.999496, 9.999786 
4.3496612e+2, 2.8398922e+2, -244627.81, -291428.94, -60241.95, -0.15362817, 0.04485678, -203401.14, -46495.418, 0.000000012355592, 9.999735, 9.999118 
4.3495575e+2, 2.9398924e+2, -389797.56, -327556.44, -90888.234, -0.15188865, 0.12007906, -262608.47, -203702.5, 0.0000027659546, 9.998129, 9.998976 
4.349477e+2, 3.03988e+2, -484274.2, -336229.8, -6024.463, -0.08831185, 0.10553179, -335985.06, -335985.06, 0.000024042205, 9.997103, 9.999081 
4.3494317e+2, 3.1398553e+2, -326646.8, 44656.547, -131215.19, 0.15041023, -0.07929547, 86345.96, 86345.96, 0.00008111006, 9.996846, 10.001818 
4.4512692e+2, 1.240149e+2, -1354028.3, -1765491.6, -61587.188, -0.10695983, -0.014015015, -1345007.8, 379649.13, 0.00009059982, 10.003425, 9.997979 
4.4511437e+2, 1.3401476e+2, -1194114.4, -1593785.6, -141608.58, -0.10954006, 0.107112296, -1149027.0, 477630.6, 0.00004496908, 10.003657, 9.998396 
4.451092e+2, 1.4401321e+2, -1118902.4, -1497396.0, 20449.955, 0.39106953, 0.11351187, -1117800.6, 410871.75, 0.00001621496, 10.003461, 9.9984665 
4.4509667e+2, 1.5401135e+2, -1157833.8, -1464291.3, 11238.4795, -0.01102635, 0.057430573, -1157422.3, 273268.4, 0.0000027558995, 10.002517, 9.998476 
4.450862e+2, 1.6400945e+2, -1129797.6, -1391367.9, -40309.87, -0.1214662, 0.021402515, -1123726.5, 208981.86, 0.000000035556127, 10.001996, 9.998555 
4.450774e+2, 1.7400756e+2, -1015624.25, -1278863.9, -56470.727, 0.035917535, -0.04402436, -1004021.5, 230703.4, 0.0, 10.002088, 9.998607 
4.4506735e+2, 1.8400629e+2, -955127.6, -1217255.9, -16024.505, 0.035187267, -0.022530356, -954151.6, 182586.64, 0.0, 10.001904, 9.998449 
4.4505614e+2, 1.9400577e+2, -960295.9, -1170505.9, -8209.998, -0.13622436, 0.064393856, -959975.7, 78772.85, 0.0, 10.001198, 9.998438 
4.450458e+2, 2.040048e+2, -866054.25, -1019541.9, -48873.043, -0.15105447, 0.10565891, -851813.5, 88946.03, 0.0, 10.00095, 9.998915 
4.4503653e+2, 2.1400307e+2, -708274.56, -889111.8, -47690.746, 0.044679977, 0.020490391, -696468.25, 146304.44, 0.0, 10.001341, 9.998954 
4.4502625e+2, 2.2400178e+2, -660521.44, -845944.1, 54584.9, 0.049525525, 0.01351286, -645646.06, 99138.34, 0.0, 10.001122, 9.998679 
4.4501463e+2, 2.340011e+2, -732999.4, -835080.25, 73992.55, -0.22594835, 0.06187748, -694150.9, -47355.816, 0.0, 9.999973, 9.998637 
4.4500405e+2, 2.4400002e+2, -664642.94, -708534.4, -24116.67, -0.26572475, 0.07611587, -653981.5, -105174.92, 0.0, 9.999582, 9.999021 
4.4499508e+2, 2.5399825e+2, -456948.2, -552296.5, -59323.836, 0.03619205, -0.024487255, -428516.22, 22304.3, 0.0, 10.000312, 9.999068 
4.4498566e+2, 2.639973e+2, -351798.03, -381381.75, 36686.91, 0.14647543, -0.054337867, -327033.25, 25794.885, 0.0, 10.000072, 9.999683 
4.4497555e+2, 2.7399743e+2, -485986.22, -388935.6, 22.560328, -0.019076375, -0.031229826, -388935.6, -134108.78, 0.0, 9.9984455, 9.9997425 
4.44965e+2, 2.8399777e+2, -534574.7, -429940.25, -92319.43, -0.13632843, 0.059009213, -376144.47, -219320.55, 0.00000003062236, 9.99774, 9.999127 
4.4495383e+2, 2.9399806e+2, -362291.8, -306430.7, -69616.54, -0.16237646, 0.16208977, -259350.73, -200528.81, 0.0000032981313, 9.998293, 9.999036 
4.4494545e+2, 3.039962e+2, -376961.88, -280768.28, 76023.08, -0.053675544, 0.07973849, -238905.03, -238905.03, 0.000027025699, 9.997817, 9.999114 
4.4494078e+2, 3.1399435e+2, -480657.34, -39775.16, -42913.746, 0.2823824, -0.047808398, -35636.945, -35636.945, 0.00008860118, 9.995812, 10.001737 
4.5513028e+2, 1.2402376e+2, -1334526.9, -1736446.6, -16663.902, -0.15749384, 0.0604529, -1333837.3, 390731.3, 0.0000810946, 10.003473, 9.998155 
4.5511615e+2, 1.3402146e+2, -1162199.0, -1538894.6, -125968.055, -0.31761363, -0.071346335, -1123957.1, 502629.47, 0.000038740534, 10.003701, 9.998754 
4.551108e+2, 1.4401942e+2, -1101757.0, -1465041.8, -12546.99, 0.18202443, -0.14212573, -1101324.1, 427280.13, 0.000013268856, 10.003477, 9.998679 
4.5509967e+2, 1.5401858e+2, -1143162.0, -1434530.8, -15305.928, 0.014306532, -0.113267675, -1142360.1, 288253.03, 0.0000020825275, 10.002525, 9.998674 
4.5508948e+2, 1.6401765e+2, -1130483.4, -1396063.9, -48856.53, -0.0151190255, -0.062121432, -1121780.9, 210842.86, 0.00000004449902, 10.002003, 9.998522 
4.5507926e+2, 1.7401668e+2, -1016783.8, -1288899.1, -46352.176, -0.0045245937, -0.030447358, -1009104.9, 225530.8, 0.0, 10.002111, 9.998529 
4.5506832e+2, 1.84016e+2, -944018.94, -1183351.4, -44915.9, -0.06946893, 0.04362769, -935867.1, 200778.05, 0.0, 10.001861, 9.998699 
4.550569e+2, 1.9401552e+2, -949988.94, -1134462.6, -28856.51, -0.19459973, 0.107426226, -945580.4, 93073.07, 0.0, 10.00114, 9.99871 
4.550463e+2, 2.0401439e+2, -850740.06, -968580.7, -46300.418, -0.20898816, 0.10079826, -834724.8, 105939.84, 0.0, 10.000865, 9.999308 
4.550367e+2, 2.1401231e+2, -691708.3, -832308.1, -26032.16, -0.083150685, -0.061015762, -687043.2, 155637.06, 0.0, 10.001244, 9.999389 
4.5502666e+2, 2.2401147e+2, -643818.8, -791176.6, 11512.029, -0.03819773, -0.069375366, -642924.9, 101762.805, 0.0, 10.001035, 9.9991 
4.550158e+2, 2.3401228e+2, -711264.1, -775207.4, 37085.99, -0.11850727, 0.08948841, -694270.9, -47586.76, 0.0, 9.999909, 9.999079 
4.550051e+2, 2.4401183e+2, -701138.0, -769570.5, -9558.058, -0.13356443, 0.15940954, -699828.06, -151137.63, 0.0, 9.999521, 9.9986315 
4.5499465e+2, 2.5400937e+2, -500095.22, -623537.94, -25375.438, -0.054285467, 0.034702733, -495082.47, -44370.035, 0.0, 10.000235, 9.998617 
4.5498422e+2, 2.6400745e+2, -441223.0, -556134.8, -20370.496, -0.016745785, -0.01051929, -437718.75, -84987.98, 0.0, 10.000025, 9.998506 
4.5497385e+2, 2.7400637e+2, -584855.56, -578750.5, -53990.363, -0.05029975, 0.016586907, -527726.44, -272982.75, 0.0, 9.99838, 9.99847 
4.5496392e+2, 2.8400582e+2, -487024.84, -320006.8, -84592.03, -0.030105045, 0.05202976, -284647.97, -127898.484, 0.000000022691747, 9.997687, 9.99991 
4.5495474e+2, 2.940055e+2, -293184.3, -154288.33, -39400.707, 0.08209566, -0.005044173, -143889.97, -85140.4, 0.0000033719941, 9.998246, 10.000109 
4.549454e+2, 3.0400398e+2, -335035.16, -184416.3, 8536.725, 0.14168921, -0.1471224, -183934.0, -183934.0, 0.000028147611, 9.997788, 9.999784 
4.5493463e+2, 3.1400576e+2, -492684.72, -37676.04, -113352.96, 0.058292676, 0.031488046, -11001.074, -11001.074, 0.00009108323, 9.995706, 10.0018 
4.6513492e+2, 1.2403237e+2, -1334333.1, -1743633.8, 130918.49, -0.034721136, 0.0008762192, -1296040.3, 428440.56, 0.000074883086, 10.003491, 9.9981 
4.651194e+2, 1.3402963e+2, -1187405.1, -1552559.1, -79538.195, -0.347228, -0.1753967, -1170832.3, 455671.34, 0.000033935048, 10.003516, 9.998755 
4.651132e+2, 1.4402796e+2, -1122697.4, -1468641.8, 5621.612, 0.08929313, -0.21225059, -1122606.0, 405912.06, 0.000010536622, 10.003298, 9.998743 
4.6510237e+2, 1.540278e+2, -1114542.0, -1412538.5, -27101.66, 0.032400083, -0.12611368, -1112097.3, 318424.06, 0.0000014175026, 10.002678, 9.9987545 
4.6509203e+2, 1.6402735e+2, -1090099.6, -1353402.6, -14578.277, 0.037657022, -0.041465044, -1089294.9, 243233.11, 0.000000030371112, 10.002197, 9.998715 
4.6508127e+2, 1.740265e+2, -1023606.06, -1269339.4, -3906.8848, -0.006159528, -0.016865503, -1023544.0, 210995.53, 0.0, 10.001971, 9.998733 
4.6507e+2, 1.8402585e+2, -969052.1, -1164271.3, -193.42984, -0.06886302, 0.035834387, -969051.94, 167496.52, 0.0, 10.001556, 9.998977 
4.6505857e+2, 1.9402526e+2, -975843.06, -1118075.6, 4198.0933, -0.1218251, 0.061556853, -975719.25, 62836.492, 0.0, 10.000833, 9.998975 
4.650476e+2, 2.0402429e+2, -921632.4, -989123.6, 18824.549, -0.13145821, 0.05025296, -916736.94, 23827.945, 0.0, 10.000312, 9.999434 
4.6503723e+2, 2.1402276e+2, -859546.2, -904707.75, 4068.1968, -0.09178348, -0.06793656, -859182.7, -16605.688, 0.0, 10.000048, 9.999471 
4.650268e+2, 2.2402224e+2, -824454.7, -877152.94, 996.18713, -0.06080893, -0.04683725, -824435.9, -79853.31, 0.0, 9.999798, 9.999101 
4.6501628e+2, 2.3402306e+2, -754413.1, -798303.8, -22526.693, -0.04381182, 0.11355037, -744909.3, -98329.38, 0.0, 9.999627, 9.999055 
4.6500564e+2, 2.4402274e+2, -696023.56, -746010.9, -23827.422, -0.025534712, 0.18798023, -686485.7, -137900.28, 0.0, 9.999459, 9.998826 
4.6499485e+2, 2.5402054e+2, -622099.25, -659481.3, 4077.4172, -0.00555809, 0.07127541, -621659.7, -171055.81, 0.0, 9.999292, 9.998826 
4.64984e+2, 2.640187e+2, -562451.8, -641129.44, 45811.36, -0.0016530245, 0.029825866, -541406.6, -188784.94, 0.0, 9.999298, 9.998278 
4.6497297e+2, 2.740173e+2, -443534.34, -542026.75, 68533.45, -0.026800036, 0.05308643, -408388.47, -153749.83, 0.0, 9.999479, 9.9981985 
4.6496266e+2, 2.8401646e+2, -309358.94, -236042.2, 74156.79, 0.015623142, 0.07457086, -189977.75, -33329.67, 0.00000001636591, 9.998909, 9.9999 
4.649535e+2, 2.9401594e+2, -420033.03, -206473.53, 31075.18, 0.18524872, -0.004445271, -202043.64, -143393.02, 0.0000038591365, 9.997335, 10.000187 
4.649436e+2, 3.040148e+2, -399767.6, -162041.14, 50548.152, 0.22104162, -0.13833757, -151739.42, -151739.42, 0.00002953643, 9.997105, 10.000279 
4.6492976e+2, 3.1401783e+2, -79024.664, 160746.0, -105686.09, -0.13143742, 0.122880585, 200679.45, 200679.45, 0.00009247593, 9.99855, 10.001801 
4.7514018e+2, 1.2404067e+2, -1348637.1, -1769220.4, 166517.92, 0.101762354, -0.18453027, -1290692.3, 433702.0, 0.000071053815, 10.003493, 9.997913 
4.7512388e+2, 1.3403931e+2, -1208195.6, -1590991.0, -72614.37, -0.265449, -0.19661358, -1194884.0, 431524.06, 0.000030027433, 10.003513, 9.998484 
4.7511628e+2, 1.4403881e+2, -1122557.8, -1474061.8, -17854.254, 0.04440755, -0.09876887, -1121653.1, 406760.8, 0.000008160018, 10.00331, 9.998706 
4.7510454e+2, 1.540389e+2, -1107448.4, -1409508.6, -42869.344, -0.039322, 0.013088462, -1101482.0, 328933.53, 0.0000009257674, 10.002722, 9.998757 
4.7509375e+2, 1.6403842e+2, -1060896.9, -1291815.4, -31400.73, -0.030052612, 0.07540678, -1056703.1, 275719.03, 0.000000014696447, 10.002193, 9.999141 
4.7508314e+2, 1.7403695e+2, -991574.3, -1200656.8, -5452.5586, -0.03031037, -0.0060688243, -991432.25, 243004.81, 0.0, 10.001966, 9.999204 
4.750721e+2, 1.8403581e+2, -950169.7, -1116644.9, -31045.535, -0.031034438, -0.04446626, -944568.5, 191879.78, 0.0, 10.001517, 9.999325 
4.7506088e+2, 1.94035e+2, -955099.44, -1070557.0, -16524.05, 0.010813447, -0.073871255, -952781.06, 85674.28, 0.0, 10.000811, 9.999314 
4.7504953e+2, 2.0403454e+2, -941770.3, -1017949.8, 1588.6354, 0.016746327, -0.046539754, -941737.2, -1277.2513, 0.0, 10.000258, 9.999262 
4.750378e+2, 2.1403444e+2, -885424.2, -942401.1, -634.6975, -0.049482264, 0.005556268, -885417.1, -42954.97, 0.0, 9.999981, 9.999243 
4.750265e+2, 2.2403412e+2, -862480.06, -945713.75, -11531.188, -0.085066, 0.0779911, -860912.1, -116443.1, 0.0, 9.999744, 9.998661 
4.7501582e+2, 2.3403342e+2, -798094.3, -870299.25, -22948.033, -0.0660305, 0.13116056, -791418.3, -144935.7, 0.0, 9.999543, 9.998603 
4.7500545e+2, 2.4403271e+2, -650210.44, -638662.9, -34912.67, -0.0035653133, 0.15882672, -609049.8, -60558.32, 0.0, 9.999404, 9.99959 
4.7499555e+2, 2.5403184e+2, -570165.1, -539807.7, 4802.765, 0.1172154, 0.082321204, -539065.94, -88570.79, 0.0, 9.999234, 9.999679 
4.7498477e+2, 2.64031e+2, -518699.2, -537641.75, 47856.617, 0.13101967, 0.06536081, -479385.66, -126884.48, 0.0, 9.999246, 9.99901 
4.7497267e+2, 2.7403018e+2, -399661.88, -438436.97, 83492.46, -0.020053914, 0.07294937, -333335.53, -78823.94, 0.0, 9.999427, 9.998933 
4.749609e+2, 2.8402963e+2, -370345.1, -360386.3, 15272.374, -0.06433983, 0.12340626, -349302.06, -192782.61, 0.0000000367379, 9.998895, 9.999054 
4.749499e+2, 2.940293e+2, -500705.03, -363085.78, -20063.531, 0.07191778, 0.15891358, -360220.38, -301694.56, 0.000004901276, 9.997273, 9.999147 
4.7493967e+2, 3.0402857e+2, -387778.47, -117721.08, 92618.08, 0.11368009, 0.10594075, -89009.56, -89009.56, 0.000032485186, 9.9970255, 10.000619 
4.749258e+2, 3.1403047e+2, -88047.16, 148599.64, -24979.682, -0.4185529, 0.21379246, 151207.67, 151207.67, 0.000096372605, 9.998519, 10.00173 
4.8514476e+2, 1.2405182e+2, -1169486.0, -1717370.3, 263882.66, 0.14744285, -0.15846953, -1063062.0, 661221.9, 0.00006783458, 10.00486, 9.997617 
4.851285e+2, 1.3405083e+2, -1202498.6, -1643510.0, -65329.125, -0.1620274, -0.08605213, -1193024.6, 433272.63, 0.000026263862, 10.003767, 9.998012 
4.8511964e+2, 1.4405036e+2, -1176518.3, -1507739.3, 6125.927, 0.07134636, 0.040560167, -1176405.0, 351899.4, 0.0000061262785, 10.002989, 9.998622 
4.8510715e+2, 1.5404917e+2, -1112659.9, -1420310.4, -43074.566, -0.04592015, 0.033902306, -1106742.8, 323574.4, 0.0000005794279, 10.002728, 9.998679 
4.8509574e+2, 1.6404827e+2, -1048125.8, -1271154.8, -34745.902, -0.04525619, 0.052208308, -1042838.06, 289489.3, 0.0000000048834687, 10.002216, 9.999273 
4.8508492e+2, 1.7404753e+2, -1072304.0, -1222959.6, -41188.215, -0.011430589, 0.0286029, -1061778.8, 172556.77, 0.0, 10.00134, 9.999351 
4.8507366e+2, 1.8404673e+2, -1011643.44, -1103338.0, -57754.54, 0.01075012, -0.0007084575, -983750.9, 152591.64, 0.0, 10.000908, 9.999706 
4.8506224e+2, 1.9404577e+2, -893104.7, -993079.94, -47018.973, 0.05924682, -0.08889243, -874466.2, 163882.17, 0.0, 10.001037, 9.999731 
4.8505056e+2, 2.0404537e+2, -838398.8, -977698.9, -11179.818, 0.060158525, -0.073304415, -837507.25, 102844.28, 0.0, 10.001009, 9.999181 
4.8503846e+2, 2.1404564e+2, -787024.44, -908031.44, -12763.747, -0.016876524, 0.026893426, -785692.75, 56659.563, 0.0, 10.000714, 9.999126 
4.8502663e+2, 2.2404535e+2, -770742.1, -890673.06, 6357.314, -0.07071646, 0.10426541, -770406.06, -26046.623, 0.0, 10.000329, 9.998756 
4.8501527e+2, 2.3404413e+2, -748222.56, -834799.25, 26860.146, -0.08308962, 0.09415343, -740566.4, -94189.56, 0.0, 9.999829, 9.99871 
4.8500463e+2, 2.4404337e+2, -619248.06, -606747.56, 38567.906, -0.026286783, 0.10375368, -573926.75, -25540.748, 0.0, 9.99955, 9.999736 
4.8499507e+2, 2.5404322e+2, -509570.0, -491145.28, 8970.762, 0.13256568, 0.086190514, -487499.1, -37115.066, 0.0, 9.999578, 9.999841 
4.849843e+2, 2.6404297e+2, -506877.56, -495804.25, 6711.03, 0.16803929, 0.10495767, -492640.75, -140255.61, 0.0, 9.999171, 9.999332 
4.8497188e+2, 2.7404243e+2, -562541.9, -478092.84, 1981.9989, 0.02877178, 0.10546485, -478046.34, -223653.39, 0.0, 9.9981365, 9.999283 
4.8495948e+2, 2.84042e+2, -510795.16, -434524.16, -38554.07, -0.045819893, 0.15080437, -418431.13, -262031.3, 0.00000008825205, 9.997961, 9.998995 
4.8494738e+2, 2.940419e+2, -262421.22, -260097.2, -22225.115, 0.015939392, 0.22508764, -239003.73, -180599.84, 0.0000056074396, 9.998975, 9.999028 
4.8493743e+2, 3.0404142e+2, -153544.5, -23976.016, 123939.445, 0.10942367, 0.21026228, 51089.605, 51089.605, 0.000034672463, 9.998713, 10.000438 
4.8492405e+2, 3.1404206e+2, -395017.78, -25552.047, -46838.953, -0.33665878, 0.20643407, -19706.531, -19706.531, 0.000099448036, 9.996526, 10.001479 
4.9514827e+2, 1.2406558e+2, -1189811.4, -1773053.6, 243462.56, -0.02915172, 0.060283717, -1101541.9, 622609.94, 0.00006191263, 10.004921, 9.997204 
4.9513283e+2, 1.3406415e+2, -1243046.9, -1730686.3, -102544.36, -0.119027734, 0.1478466, -1222360.6, 403810.75, 0.000021672518, 10.003787, 9.997399 
4.95123e+2, 1.4406255e+2, -1190515.3, -1540147.4, -12096.959, 0.088137336, 0.20722146, -1190097.3, 338092.2, 0.000004231548, 10.003, 9.998396 
4.9510995e+2, 1.5405868e+2, -1124025.4, -1444091.0, -46124.793, -0.05665023, -0.051702563, -1117511.0, 312714.47, 0.00000029436407, 10.002733, 9.998511 
4.9509788e+2, 1.6405697e+2, -1058889.6, -1291014.6, -71781.68, -0.07051802, -0.09667376, -1038485.56, 293757.22, 0.0000000005507737, 10.002202, 9.9991455 
4.9508646e+2, 1.7405824e+2, -1078351.5, -1238577.6, -68218.35, -0.009942396, 0.08952168, -1053241.8, 180993.13, 0.0, 10.001354, 9.999236 
4.9507463e+2, 1.8405859e+2, -986210.0, -1044512.1, -62047.332, -0.0017159303, 0.16286585, -946807.0, 189424.33, 0.0, 10.000881, 10.000124 
4.9506247e+2, 1.940575e+2, -862344.8, -922821.2, -38505.066, -0.037493944, 0.012604013, -843623.94, 194611.67, 0.0, 10.001007, 10.000229 
4.9505055e+2, 2.0405675e+2, -841781.1, -971004.6, -27694.727, -0.05467963, -0.036809366, -836095.8, 104144.46, 0.0, 10.000946, 9.999261 
4.950389e+2, 2.1405645e+2, -793558.9, -908150.0, -18111.563, -0.05372532, 0.0014707182, -790764.4, 51482.09, 0.0, 10.000649, 9.999163 
4.9502695e+2, 2.2405596e+2, -740809.25, -810479.44, -16021.893, -0.08346005, 0.030594716, -737301.3, 6952.46, 0.0, 10.000255, 9.999341 
4.9501446e+2, 2.3405512e+2, -715054.2, -746000.3, 14408.564, -0.16153874, -0.004770204, -709384.3, -63121.047, 0.0, 9.999747, 9.999358 
4.95003e+2, 2.4405468e+2, -658577.2, -680414.06, 33404.996, -0.1604455, 0.021729978, -634351.5, -86082.42, 0.0, 9.999512, 9.999249 
4.9499306e+2, 2.5405464e+2, -559625.75, -584476.1, 16461.703, -0.038451415, 0.07725344, -551426.4, -101155.336, 0.0, 9.999528, 9.999227 
4.949824e+2, 2.6405448e+2, -520984.1, -511762.2, -34722.38, 0.045123406, 0.14290047, -481345.94, -129071.27, 0.0, 9.999118, 9.999247 
4.9497038e+2, 2.7405393e+2, -577497.75, -489167.56, -29414.69, 0.04593772, 0.14256449, -480268.75, -225985.17, 0.0, 9.998054, 9.999245 
4.9495807e+2, 2.840536e+2, -470353.28, -337398.94, -12152.924, 0.0025699039, 0.16675626, -336297.22, -180008.94, 0.00000018947561, 9.997905, 9.999688 
4.9494582e+2, 2.940537e+2, -210322.73, -149979.36, 27482.908, -0.056827728, 0.1890251, -139338.78, -81053.46, 0.000005616016, 9.998963, 9.999791 
4.9493673e+2, 3.0405322e+2, -202989.53, -126030.26, 48910.293, 0.15137078, 0.16395944, -102277.27, -102277.27, 0.000033520122, 9.998706, 9.999739 
4.9492407e+2, 3.1405246e+2, -442434.75, -102209.14, -88743.91, -0.024362981, 0.09319219, -80452.6, -80452.6, 0.000095768366, 9.996431, 10.000996 
5.0515395e+2, 1.2407672e+2, -1059839.4, -1721708.9, 224280.97, 0.0020608152, 0.035060354, -990999.5, 733041.0, 0.000051029394, 10.005887, 9.997084 
5.051371e+2, 1.340744e+2, -1190256.8, -1744918.1, -157580.42, -0.0925379, 0.069016464, -1148614.3, 477455.5, 0.00001611817, 10.00431, 9.997062 
5.051253e+2, 1.4407279e+2, -1146947.6, -1475065.8, 18211.557, 0.017594572, 0.12827796, -1145940.0, 382148.3, 0.0000026245807, 10.00312, 9.99878 
5.05113e+2, 1.5406998e+2, -1111147.6, -1389355.5, 12135.368, -0.015949557, -0.0675721, -1110619.3, 319493.84, 0.00000011750303, 10.002617, 9.998941 
5.051008e+2, 1.6406868e+2, -1043996.0, -1300037.3, 24378.795, 0.00035672702, -0.08900082, -1041695.44, 290430.88, 0.000000000026416515, 10.002371, 9.999 
5.050884e+2, 1.7406946e+2, -935652.44, -1197017.5, 7662.57, -0.0015346645, 0.07246614, -935428.0, 298695.75, 0.0, 10.002442, 9.9990015 
5.050759e+2, 1.8406959e+2, -803022.25, -965764.2, 8081.4863, -0.024791434, 0.14199881, -802621.94, 333501.3, 0.0, 10.00219, 10.000032 
5.050635e+2, 1.940687e+2, -802110.6, -902947.75, -22135.8, -0.05712036, 0.023450745, -797465.4, 240661.45, 0.0, 10.001472, 10.000138 
5.050513e+2, 2.0406803e+2, -847793.25, -951186.94, -27832.23, -0.062412716, -0.021182658, -840777.25, 99353.37, 0.0, 10.000809, 9.999455 
5.0503945e+2, 2.1406767e+2, -852542.75, -912345.6, -20603.604, -0.033712834, -0.01178324, -846131.6, -3995.8723, 0.0, 10.000148, 9.999369 
5.0502735e+2, 2.240672e+2, -778501.0, -805586.4, 83.348595, -0.042775534, -0.00022943813, -778500.75, -34359.33, 0.0, 9.999893, 9.999551 
5.050149e+2, 2.3406655e+2, -635165.2, -682756.25, -12511.853, -0.10590275, -0.040188175, -632076.3, 14072.093, 0.0, 10.000189, 9.999579 
5.0500286e+2, 2.4406622e+2, -588816.0, -639369.1, 8323.863, -0.14279333, -0.014967489, -587480.7, -39328.207, 0.0, 9.999967, 9.999312 
5.0499153e+2, 2.5406623e+2, -619485.06, -607941.8, 28417.113, -0.12149029, 0.043907374, -584716.1, -134562.03, 0.0, 9.999098, 9.999275 
5.049805e+2, 2.640661e+2, -548274.5, -540564.44, 27813.615, -0.043776505, 0.11199722, -516340.0, -164181.63, 0.0, 9.998997, 9.999108 
5.049697e+2, 2.7406555e+2, -320676.47, -384662.56, 4664.618, 0.09153506, 0.13062333, -320338.22, -66170.164, 0.00000000061010413, 9.999906, 9.999067 
5.0495744e+2, 2.8406504e+2, -202163.77, -184898.28, 936.4326, 0.071026094, 0.13896698, -184847.64, -28673.723, 0.00000027597625, 9.999649, 9.999892 
5.0494355e+2, 2.9406476e+2, -384572.3, -208416.31, -15433.876, -0.11272539, 0.096638516, -207074.3, -148901.72, 0.0000049400037, 9.997664, 10.000015 
5.049345e+2, 3.0406415e+2, -451348.25, -317352.9, 10131.124, 0.1275471, 0.07658644, -316591.25, -316591.25, 0.000029285811, 9.997314, 9.9991045 
5.0492346e+2, 3.1406397e+2, -59441.094, 24784.44, -114346.69, 0.1359472, 0.13810548, 104526.71, 104526.71, 0.000085814645, 9.999298, 10.0005045 
5.151611e+2, 1.2408544e+2, -1053011.4, -1705036.5, 169279.33, 0.08455017, -0.21131681, -1011682.6, 712265.9, 0.000037819933, 10.00588, 9.997196 
5.151411e+2, 1.3408196e+2, -1190865.6, -1748167.4, -206262.0, -0.13828021, -0.2969564, -1122831.6, 503157.44, 0.000010818732, 10.004322, 9.997029 
5.151264e+2, 1.4408132e+2, -1079637.8, -1344735.8, -9507.837, -0.20197788, -0.17526029, -1079297.3, 448701.38, 0.0000014946027, 10.003155, 9.999662 
5.15116e+2, 1.54083e+2, -1038319.2, -1244521.0, 1986.4723, 0.006424074, -0.020850666, -1038300.06, 391681.0, 0.00000003629146, 10.002645, 9.999924 
5.151043e+2, 1.6408323e+2, -1062077.5, -1332786.0, 20690.85, 0.096470386, 0.0649728, -1060505.3, 271474.3, 0.0, 10.002354, 9.99878 
5.150905e+2, 1.740812e+2, -959699.4, -1247007.9, 18325.055, -0.052097414, -0.021826949, -958535.25, 275467.0, 0.0, 10.002444, 9.998654 
5.1507723e+2, 1.840799e+2, -850785.5, -1059548.5, -22919.338, -0.12694599, -0.05005631, -848298.9, 287718.13, 0.0, 10.002166, 9.999396 
5.15065e+2, 1.9407947e+2, -851985.3, -1001808.4, -41618.082, -0.065887995, -0.05683422, -841200.8, 196820.25, 0.0, 10.001449, 9.99947 
5.150526e+2, 2.0407926e+2, -843711.44, -926896.06, -58281.918, -0.025161266, -0.030066693, -813702.75, 126319.7, 0.0, 10.00074, 9.999657 
5.150399e+2, 2.1407923e+2, -837423.3, -870494.1, -40080.613, -0.018374756, -0.020358665, -810601.2, 31419.924, 0.0, 10.000098, 9.9996805 
5.1502776e+2, 2.24079e+2, -797227.75, -831944.44, 925.06177, -0.006979504, 0.00502304, -797203.1, -53179.652, 0.0, 9.999837, 9.999398 
5.1501644e+2, 2.3407844e+2, -658978.6, -715577.44, 3105.59, 0.011748024, -0.005275171, -658808.75, -12777.054, 0.0, 10.000119, 9.999388 
5.1500404e+2, 2.440781e+2, -551857.4, -552395.1, -26757.09, -0.039131097, 0.001192815, -525367.8, 22667.625, 0.0, 9.999921, 9.999933 
5.1499003e+2, 2.54078e+2, -578505.4, -508101.3, 4904.146, -0.18981268, -0.024467755, -507761.34, -57727.56, 0.0, 9.999032, 9.999993 
5.1497847e+2, 2.640778e+2, -572437.0, -580279.1, 51097.582, -0.1635371, 0.0115679605, -525110.25, -173074.1, 0.0, 9.998956, 9.998857 
5.149698e+2, 2.740772e+2, -351890.7, -438533.4, 47535.938, 0.0962563, 0.06537861, -330897.16, -76850.33, 0.0000000018853024, 9.999858, 9.998723 
5.149575e+2, 2.840763e+2, -228672.31, -231882.31, -70666.8, 0.09122781, 0.06420196, -159592.3, -3534.9133, 0.00000034894228, 9.999615, 9.999586 
5.149401e+2, 2.9407495e+2, -414300.16, -261455.6, -82660.26, -0.2431951, -0.05832475, -225303.08, -167236.31, 0.0000043002137, 9.997623, 9.999671 
5.1493025e+2, 3.040741e+2, -499645.16, -406380.84, 67095.21, -0.041446485, -0.0540042, -371304.22, -371304.22, 0.00002546161, 9.997274, 9.998513 
5.149219e+2, 3.1407654e+2, -107518.24, -47896.94, 17400.129, 0.01864069, 0.33393794, -43190.36, -43190.36, 0.00007750593, 9.999197, 10.00005 
5.2516544e+2, 1.24097876e+2, -1336053.9, -1761980.5, 246060.55, 0.063622855, -0.21478845, -1223595.6, 500232.13, 0.000027130387, 10.003583, 9.997916 
5.251462e+2, 1.3409482e+2, -1288711.0, -1724110.0, -114669.25, -0.004506246, -0.321771, -1260357.4, 365503.3, 0.0000067921223, 10.003335, 9.997673 
5.251297e+2, 1.4409421e+2, -1096760.5, -1396064.1, 113935.84, -0.1909642, -0.21524063, -1058324.4, 469544.72, 0.000000671477, 10.003227, 9.999273 
5.251182e+2, 1.5409586e+2, -957093.8, -1259549.5, 4897.9956, -0.07036669, -0.016970048, -957014.5, 472840.34, 0.000000004981165, 10.003432, 9.999439 
5.251061e+2, 1.6409591e+2, -928755.94, -1242194.5, -13917.175, 0.0031026716, 0.06783169, -928139.2, 403716.06, 0.0, 10.00315, 9.999029 
5.250928e+2, 1.7409354e+2, -966868.5, -1214047.1, 15791.158, -0.054896146, -0.082633846, -965863.75, 268014.38, 0.0, 10.002235, 9.998988 
5.2507955e+2, 1.840922e+2, -937108.44, -1155363.9, 23414.832, -0.087103724, -0.110301174, -934624.7, 201268.52, 0.0, 10.001807, 9.998916 
5.250668e+2, 1.9409214e+2, -814936.6, -1045084.06, -2116.6528, -0.0572274, -0.0236145, -814917.1, 222981.05, 0.0, 10.001972, 9.9989195 
5.2505386e+2, 2.0409189e+2, -673262.94, -837364.2, -15866.046, -0.033133063, 0.028035609, -671743.06, 268158.22, 0.0, 10.001878, 9.999723 
5.2504057e+2, 2.1409129e+2, -638615.6, -758754.8, -24123.582, -0.021828324, -0.028529689, -633952.7, 207949.94, 0.0, 10.001395, 9.999822 
5.25028e+2, 2.240909e+2, -709953.75, -794300.5, 22131.19, 0.0051400997, -0.026836216, -704499.6, 39405.438, 0.0, 10.000464, 9.999351 
5.2501637e+2, 2.3409058e+2, -840833.7, -812730.56, 20788.574, 0.057188727, -0.004418474, -801690.06, -155779.27, 0.0, 9.998917, 9.999299 
5.2500373e+2, 2.4409021e+2, -760859.5, -635992.5, 11760.005, 0.019970862, -0.0029828788, -634894.56, -86980.72, 0.0, 9.99841, 10.000084 
5.2498966e+2, 2.5408977e+2, -521598.47, -461168.22, -9654.818, -0.14508884, -0.0819177, -459663.2, -9749.884, 0.0, 9.999341, 10.000164 
5.2497786e+2, 2.6408923e+2, -489327.84, -547995.75, 35707.266, -0.14232275, -0.08620113, -472450.44, -120532.805, 0.0, 9.999557, 9.998792 
5.249691e+2, 2.7408838e+2, -513736.38, -522791.1, 44418.633, 0.09633195, -0.051364303, -473614.97, -219684.25, 0.00000000009174081, 9.998778, 9.998662 
5.2495646e+2, 2.8408763e+2, -382275.6, -345908.3, -70236.016, 0.0797812, -0.018405192, -291540.3, -135599.95, 0.00000033351301, 9.998735, 9.999225 
5.249385e+2, 2.9408687e+2, -155221.39, -186452.23, -113033.33, -0.25604415, -0.038829666, -56729.957, 1215.4576, 0.0000041079616, 9.999615, 9.999228 
5.2492815e+2, 3.040855e+2, -179809.94, -261434.03, 93418.86, -0.08000298, -0.062318254, -118677.37, -118677.37, 0.000024461535, 9.999506, 9.998433 
5.2492e+2, 3.1408674e+2, -296836.94, -168238.38, 93256.76, -0.021991063, 0.2112948, -119262.67, -119262.67, 0.000075222786, 9.998013, 9.999795 
5.3516704e+2, 1.24113664e+2, -1232741.0, -1559249.4, 202889.75, -0.18335207, -0.0025513878, -1135579.8, 588101.56, 0.000019765901, 10.003644, 9.999273 
5.35152e+2, 1.3411269e+2, -1200367.6, -1538811.5, -121988.836, 0.2383199, -0.02340942, -1160981.5, 464705.56, 0.0000039921174, 10.00333, 9.998949 
5.351347e+2, 1.4411117e+2, -1206533.3, -1627620.6, 115036.78, -0.03793824, -0.0042573474, -1177155.9, 350546.38, 0.00000019536436, 10.003237, 9.99768 
5.351195e+2, 1.5410852e+2, -1088889.0, -1534304.3, 21173.682, -0.30543667, -0.05300608, -1087884.6, 341849.66, 0.00000000000050979853, 10.003432, 9.997555 
5.35106e+2, 1.6410686e+2, -883913.8, -1142857.6, -51159.625, -0.3348391, -0.06810263, -874172.6, 457579.56, 0.0, 10.003126, 9.999722 
5.3509504e+2, 1.7410654e+2, -899475.1, -1076610.0, -10367.963, -0.06863722, -0.10770583, -898870.3, 334880.7, 0.0, 10.002245, 9.999929 
5.3508264e+2, 1.8410644e+2, -962704.4, -1207397.0, 21411.238, 0.025350977, -0.043122403, -960844.94, 174907.61, 0.0, 10.0018015, 9.99856 
5.3506845e+2, 1.9410656e+2, -856089.94, -1123523.3, 12182.771, -0.09762958, 0.10982991, -855536.1, 182223.1, 0.0, 10.001938, 9.998401 
5.350546e+2, 2.041059e+2, -686876.0, -849594.5, -37310.395, -0.15337461, 0.14896585, -678728.9, 261038.69, 0.0, 10.001812, 9.999667 
5.350413e+2, 2.1410406e+2, -649912.5, -767055.0, -36403.813, -0.10604339, -0.031036433, -639521.2, 202257.73, 0.0, 10.001329, 9.999797 
5.350279e+2, 2.2410302e+2, -717932.94, -799150.6, -38986.926, -0.06734531, -0.09088157, -702247.4, 41537.9, 0.0, 10.000409, 9.999346 
5.3501445e+2, 2.3410296e+2, -847658.8, -813637.94, -31207.205, -0.036310997, -0.0443323, -795106.2, -149320.28, 0.0, 9.998858, 9.99932 
5.350018e+2, 2.4410254e+2, -793726.7, -693354.2, 34140.77, -0.027297994, -0.034093454, -682842.4, -135054.23, 0.0, 9.998366, 9.999712 
5.3499013e+2, 2.5410146e+2, -557504.25, -525230.75, 32591.39, -0.051425967, -0.13356288, -505000.0, -55206.543, 0.0, 9.999294, 9.999748 
5.3497857e+2, 2.6410034e+2, -480045.25, -520510.34, 7082.4297, -0.042040024, -0.18331923, -478841.44, -127038.34, 0.0, 9.99952, 9.998996 
5.3496724e+2, 2.7409902e+2, -502120.28, -487461.28, 24893.248, 0.008204919, -0.22585528, -468840.94, -215020.8, 0.0, 9.998727, 9.998932 
5.3495425e+2, 2.84099e+2, -419581.7, -416490.8, -47224.57, -0.03800701, -0.11126646, -370786.4, -214963.27, 0.00000019037492, 9.998707, 9.9987545 
5.349389e+2, 2.941006e+2, -201342.98, -269716.3, -70991.54, -0.20346658, 0.15954395, -156735.44, -98927.25, 0.0000040138116, 9.999559, 9.998684 
5.3492814e+2, 3.0409828e+2, -158190.53, -208145.8, 42135.215, -0.044312485, 0.054660685, -134185.94, -134185.94, 0.000024849203, 9.999471, 9.998813 
5.349171e+2, 3.1409425e+2, -305732.88, -175602.44, 82766.24, -0.14795664, -0.24833907, -135388.34, -135388.34, 0.00007616266, 9.997967, 9.999762 
5.451703e+2, 1.24129035e+2, -1249516.8, -1595219.5, 299261.25, -0.2182926, 0.008640721, -1076774.6, 646755.1, 0.00001395204, 10.003652, 9.99904 
5.451559e+2, 1.3412838e+2, -1155666.3, -1542086.8, -129271.31, 0.27385774, 0.046069913, -1116408.8, 509124.66, 0.0000022579334, 10.003743, 9.998733 
5.451372e+2, 1.4412639e+2, -1221311.9, -1646591.8, 107405.586, -0.097985655, 0.03429174, -1195725.8, 331827.5, 0.000000029643958, 10.003188, 9.997574 
5.451226e+2, 1.5412278e+2, -1271000.5, -1628957.6, 124098.8, -0.26762003, -0.09854374, -1232186.0, 197406.48, 0.0, 10.002217, 9.997488 
5.4510915e+2, 1.6412084e+2, -1052229.0, -1252734.6, 121568.086, -0.2763926, -0.12875003, -994908.25, 336704.63, 0.0, 10.0021, 9.999455 
5.450976e+2, 1.741211e+2, -801259.9, -1058211.8, 63158.973, -0.07182922, -0.08240345, -786574.6, 447032.94, 0.0, 10.003054, 9.99966 
5.450847e+2, 1.841211e+2, -791893.94, -1122768.9, 47562.1, -0.0012740546, 0.0060286527, -785192.8, 350415.44, 0.0, 10.002952, 9.998596 
5.4507005e+2, 1.9412066e+2, -920426.94, -1144263.1, 64259.68, -0.102795795, 0.09530155, -903290.94, 134327.47, 0.0, 10.001441, 9.998501 
5.4505605e+2, 2.0411961e+2, -874124.4, -990685.3, 61438.516, -0.13528273, 0.11066481, -847721.25, 91909.2, 0.0, 10.000745, 9.999218 
5.4504293e+2, 2.1411757e+2, -708870.3, -849068.25, 20582.453, -0.06016619, -0.039313313, -705911.06, 135735.19, 0.0, 10.001158, 9.999317 
5.4502904e+2, 2.2411625e+2, -567297.56, -737396.0, -15302.572, -0.03800099, -0.09611512, -565931.9, 177723.73, 0.0, 10.00149, 9.999249 
5.450142e+2, 2.341158e+2, -436509.03, -625473.2, -29906.482, -0.08661338, -0.08099498, -431888.84, 213768.72, 0.0, 10.0017185, 9.999239 
5.4500103e+2, 2.4411498e+2, -413663.9, -575930.5, 49618.234, -0.07842291, -0.08020805, -399694.2, 147968.95, 0.0, 10.001253, 9.999129 
5.449902e+2, 2.541135e+2, -520644.8, -575127.0, 20341.643, 0.0029439235, -0.15639879, -513887.97, -64213.445, 0.0, 9.9998455, 9.999136 
5.4497826e+2, 2.6411223e+2, -562828.9, -548395.06, -15018.748, 0.010918993, -0.19000822, -538949.2, -187263.0, 0.0, 9.998901, 9.999103 
5.4496497e+2, 2.7411112e+2, -508516.22, -470616.5, -19159.947, -0.077806555, -0.23019904, -462618.25, -208918.28, 0.0, 9.998592, 9.999115 
5.449521e+2, 2.8411102e+2, -435843.75, -442896.8, -27545.35, -0.113860294, -0.12507562, -411600.1, -255897.08, 0.00000011177434, 9.998682, 9.998585 
5.449397e+2, 2.941122e+2, -233874.08, -301459.75, -33003.67, -0.057271548, 0.1233089, -220431.34, -162738.84, 0.0000045059896, 9.999423, 9.998524 
5.449288e+2, 3.0410996e+2, -208384.92, -181152.56, 18143.473, 0.10348442, 0.012688033, -172084.25, -172084.25, 0.00002638034, 9.9989, 9.999271 
5.449143e+2, 3.141055e+2, -534793.3, -263885.38, 43606.414, -0.13873333, -0.3838433, -257039.31, -257039.31, 0.00007851539, 9.996301, 9.999955 
5.551746e+2, 1.241442e+2, -1357024.4, -1817822.5, 231074.34, -0.18856484, -0.13914621, -1261112.1, 462259.53, 0.000010246303, 10.003664, 9.997497 
5.5515754e+2, 1.3414207e+2, -1267607.8, -1771189.4, -123424.3, 0.053313438, -0.092061915, -1238984.3, 386413.8, 0.0000015968802, 10.003738, 9.99716 
5.5513734e+2, 1.4413996e+2, -1123360.3, -1451876.3, 64275.297, -0.42062685, -0.09113931, -1111232.4, 416188.22, 0.000000016896806, 10.003218, 9.9988985 
5.551273e+2, 1.541386e+2, -1153521.8, -1395225.6, 95259.016, -0.033946738, -0.15590617, -1120492.3, 308937.94, 0.0, 10.002253, 9.99908 
5.551151e+2, 1.6413768e+2, -1132066.9, -1420090.3, 144325.31, 0.09234636, -0.11611061, -1072193.4, 259245.67, 0.0, 10.002111, 9.998298 
5.5510026e+2, 1.7413716e+2, -906093.6, -1269316.3, 104844.97, -0.12535293, -0.0073102815, -878002.44, 355446.03, 0.0, 10.003028, 9.998221 
5.5508566e+2, 1.841362e+2, -765140.94, -1056681.9, -7393.3955, -0.21589127, 0.03971121, -764953.56, 370506.34, 0.0, 10.002906, 9.999072 
5.5507135e+2, 1.9413449e+2, -881634.7, -1057752.4, 13459.763, -0.13091289, -0.06001363, -880612.0, 156863.55, 0.0, 10.00141, 9.999116 
5.550578e+2, 2.04133e+2, -932178.3, -1102608.9, 65285.5, -0.045604344, -0.08425218, -910044.44, 29445.885, 0.0, 10.0007105, 9.998464 
5.550453e+2, 2.1413179e+2, -782698.0, -988196.94, 42889.04, 0.04925675, -0.06263832, -774106.0, 67398.9, 0.0, 10.001093, 9.998395 
5.5503136e+2, 2.2413053e+2, -595681.2, -777650.8, -11197.143, 0.029514018, -0.05373173, -594994.8, 148521.94, 0.0, 10.001414, 9.999007 
5.5501544e+2, 2.3412907e+2, -462466.34, -658373.06, -13694.743, -0.15124822, -0.11981554, -461513.66, 184012.08, 0.0, 10.00163, 9.999054 
5.5500126e+2, 2.4412757e+2, -479138.44, -697571.5, -2833.0134, -0.19536673, -0.13798657, -479101.7, 68436.59, 0.0, 10.001191, 9.998325 
5.5498964e+2, 2.541259e+2, -591237.2, -705944.3, -25033.35, -0.049262054, -0.14933805, -586012.06, -136455.33, 0.0, 9.999778, 9.998272 
5.549768e+2, 2.641249e+2, -568297.9, -549873.94, -35146.016, -0.038948353, -0.11082959, -522752.7, -171184.92, 0.0, 9.998862, 9.999109 
5.549622e+2, 2.741247e+2, -514082.5, -467482.34, -23653.096, -0.22425066, -0.06334682, -457580.6, -204010.3, 0.0, 9.998532, 9.999165 
5.5495e+2, 2.841237e+2, -427552.88, -425376.94, -8259.263, -0.2048826, -0.05851945, -418134.28, -262553.94, 0.00000024371042, 9.998672, 9.998714 
5.54941e+2, 2.941215e+2, -222294.66, -280055.44, 5333.4043, 0.10564041, -0.16481432, -221806.31, -164205.48, 0.0000058589785, 9.999421, 9.998679 
5.549296e+2, 3.041204e+2, -175879.14, -103538.266, -71457.38, 0.28695083, -0.19542585, -59618.395, -59618.395, 0.000029983938, 9.998867, 9.999813 
5.54911e+2, 3.1412044e+2, -518486.88, -205859.0, -28383.855, -0.12774433, -0.19666797, -203302.89, -203302.89, 0.00008393316, 9.996201, 10.000399 
5.6517845e+2, 1.2415911e+2, -1388505.6, -1847374.3, 162508.05, -0.1456392, -0.2564022, -1336783.4, 386435.78, 0.000007999431, 10.003489, 9.997379 
5.6516105e+2, 1.3415733e+2, -1283246.1, -1783721.6, -56744.715, 0.046646353, -0.17413785, -1276893.0, 348350.88, 0.00000128022, 10.003638, 9.997121 
5.651398e+2, 1.441554e+2, -1075411.5, -1445067.1, 136587.95, -0.5188091, -0.14426586, -1030418.56, 496846.63, 0.000000037787355, 10.00362, 9.998754 
5.65131e+2, 1.541541e+2, -963776.1, -1317102.5, 27885.795, 0.039688423, -0.18674809, -961588.9, 467684.56, 0.0, 10.003618, 9.998959 
5.651188e+2, 1.64153e+2, -1017838.5, -1412363.8, 61439.906, 0.20518109, -0.14159825, -1008491.8, 322792.53, 0.0, 10.003104, 9.997875 
5.651026e+2, 1.7415181e+2, -1088906.6, -1405796.3, 78777.65, -0.13243498, -0.054075133, -1070403.3, 162898.2, 0.0, 10.001981, 9.997788 
5.6508744e+2, 1.8415034e+2, -957664.7, -1161736.8, -10647.734, -0.25591832, -0.029141126, -957110.6, 178207.48, 0.0, 10.0016365, 9.99896 
5.650736e+2, 1.941484e+2, -753576.1, -998377.4, -50626.418, -0.089384235, -0.1472853, -743519.4, 293815.5, 0.0, 10.002306, 9.9990835 
5.6505996e+2, 2.0414706e+2, -685321.2, -1005261.44, 18403.71, 0.014290976, -0.15083636, -684266.0, 255083.22, 0.0, 10.002504, 9.998266 
5.650468e+2, 2.1414638e+2, -659183.75, -947812.1, 35962.215, 0.04999249, -0.051862817, -654770.5, 186590.56, 0.0, 10.002033, 9.998213 
5.650326e+2, 2.2414532e+2, -589093.9, -779363.3, 24919.152, 0.011465434, -0.009233997, -585884.4, 157487.6, 0.0, 10.001475, 9.998967 
5.650169e+2, 2.3414363e+2, -586270.7, -715075.2, 24824.203, -0.11818741, -0.09989907, -581652.0, 63730.707, 0.0, 10.0007715, 9.999073 
5.650024e+2, 2.4414192e+2, -621558.94, -806415.9, 56938.52, -0.16070923, -0.12407018, -605428.56, -58030.535, 0.0, 10.000408, 9.997941 
5.6498945e+2, 2.5413996e+2, -505719.97, -714871.06, 50908.03, -0.07743816, -0.12005636, -493987.0, -44565.164, 0.0, 10.0005865, 9.997817 
5.649759e+2, 2.6413894e+2, -379780.94, -457720.25, 66096.63, -0.07465266, -0.058208685, -342021.22, 9412.903, 0.0, 10.000159, 9.999112 
5.649613e+2, 2.741391e+2, -450635.22, -425145.7, 63203.32, -0.18609229, 0.01719776, -373414.97, -119983.4, 0.0, 9.998934, 9.999251 
5.6494904e+2, 2.8413787e+2, -484336.6, -414696.88, 135671.6, -0.13917017, -0.019649552, -309448.16, -154005.73, 0.00000046127252, 9.998121, 9.99905 
5.649399e+2, 2.9413486e+2, -414340.7, -330273.0, 157900.72, 0.14040346, -0.24510206, -208907.08, -151436.89, 0.000007820285, 9.997926, 9.999052 
5.64928e+2, 3.0413467e+2, -318012.2, -152614.13, 31005.742, 0.2944167, -0.20605244, -146992.8, -146992.8, 0.000035959114, 9.997792, 10.000005 
5.6490886e+2, 3.1413633e+2, -301314.16, -46703.33, 20553.752, -0.014264348, -0.07085883, -45054.777, -45054.777, 0.000094359246, 9.997449, 10.0008955 
5.751816e+2, 1.2417371e+2, -1301043.4, -1667022.3, 72495.48, -0.22300424, -0.36121005, -1287206.1, 435866.78, 0.0000055281434, 10.003492, 9.9986105 
5.7516617e+2, 1.3417408e+2, -1188225.9, -1587187.3, -52129.133, 0.17278054, -0.19971828, -1181527.1, 443544.78, 0.00000085256136, 10.003638, 9.998467 
5.7514405e+2, 1.4417264e+2, -1182608.5, -1666037.1, 122843.88, -0.46548593, -0.121698104, -1153183.8, 373904.2, 0.00000002938157, 10.003616, 9.997238 
5.751333e+2, 1.5416938e+2, -1092873.4, -1577811.0, 32647.861, -0.10102587, -0.18585737, -1090685.3, 338436.28, 0.0, 10.0035925, 9.997182 
5.751201e+2, 1.6416681e+2, -996715.8, -1366257.5, 14991.352, 0.014347081, -0.20426479, -996108.7, 335039.4, 0.0, 10.003087, 9.9982 
5.751045e+2, 1.7416507e+2, -1053668.3, -1334986.6, 43260.074, -0.15788078, -0.22384441, -1047166.2, 186000.1, 0.0, 10.0019865, 9.998273 
5.7508993e+2, 1.8416364e+2, -1000732.3, -1248148.6, 4038.8047, -0.19026019, -0.19333807, -1000666.44, 134515.55, 0.0, 10.001628, 9.99837 
5.7507646e+2, 1.9416249e+2, -810196.94, -1103788.5, -18689.6, -0.04681645, -0.16041008, -809012.0, 228183.95, 0.0, 10.002255, 9.998385 
5.7506233e+2, 2.0416172e+2, -668959.94, -955655.3, -2207.096, -0.012124739, -0.08546435, -668942.94, 270263.97, 0.0, 10.002435, 9.99864 
5.750473e+2, 2.141613e+2, -638955.44, -887943.94, 23894.178, -0.12248499, -0.008554684, -636683.2, 204531.9, 0.0, 10.001953, 9.998665 
5.7503253e+2, 2.2416063e+2, -580745.25, -743277.75, -6670.716, -0.15123455, 0.034790676, -580471.94, 162750.06, 0.0, 10.001397, 9.99925 
5.750184e+2, 2.3415953e+2, -581962.6, -686474.25, 5863.7485, -0.05906433, -0.020964833, -581634.7, 63593.492, 0.0, 10.000687, 9.9993105 
5.750041e+2, 2.4415796e+2, -624859.1, -810047.2, 54707.62, -0.044160306, -0.0427941, -609905.1, -62662.16, 0.0, 10.000382, 9.997935 
5.7498956e+2, 2.5415567e+2, -515075.25, -723298.8, 63818.46, -0.14342256, -0.06800002, -497072.1, -47801.55, 0.0, 10.000532, 9.997789 
5.749755e+2, 2.6415434e+2, -381449.53, -455950.56, 19086.73, -0.14946426, -0.03461641, -376844.3, -25559.012, 0.0, 10.000132, 9.999141 
5.749619e+2, 2.7415422e+2, -454027.4, -423843.03, 22521.447, -0.031177681, 0.006124466, -411824.5, -158540.02, 0.0, 9.998888, 9.999287 
5.749488e+2, 2.8415352e+2, -450760.4, -332418.97, 118067.3, 0.01603812, -0.0030724488, -259525.08, -104235.84, 0.0000006054728, 9.998067, 9.999643 
5.7493633e+2, 2.9415232e+2, -380869.5, -248136.23, 160333.89, -0.026618773, -0.10966873, -140976.23, -83676.17, 0.000009307056, 9.997868, 9.999647 
5.749236e+2, 3.0415294e+2, -329924.06, -166949.56, 19770.865, 0.06448519, -0.018902538, -164585.4, -164585.4, 0.00004067109, 9.99775, 9.999928 
5.7490766e+2, 3.141529e+2, -269950.0, 29907.316, 20929.127, 0.08458462, -0.038342383, 31361.059, 31361.059, 0.00010363106, 9.997397, 10.001451 
5.851839e+2, 1.2418923e+2, -1599541.0, -1780291.0, -16697.834, -0.2177256, -0.28166857, -1598011.4, 124911.93, 0.0000029888902, 10.001305, 9.998886 
5.851709e+2, 1.3418907e+2, -1232519.9, -1569580.4, -160123.53, 0.31553394, -0.20439534, -1168580.8, 456343.7, 0.00000032572908, 10.003167, 9.998815 
5.851488e+2, 1.441874e+2, -1200178.1, -1700195.6, -20326.879, -0.3465148, -0.15786023, -1199353.1, 327588.38, 0.0000000021906112, 10.003617, 9.996995 
5.8513606e+2, 1.5418406e+2, -1260941.8, -1691132.1, -23202.37, -0.13120411, -0.20507449, -1259694.0, 169283.11, 0.0, 10.002579, 9.996886 
5.85122e+2, 1.641814e+2, -1116172.1, -1397704.0, 35877.668, -0.053027306, -0.22734383, -1111671.9, 219332.64, 0.0, 10.002147, 9.998438 
5.851074e+2, 1.7417964e+2, -949885.6, -1252146.1, 37508.777, -0.0931504, -0.27780205, -945300.56, 287720.94, 0.0, 10.002552, 9.9985695 
5.850929e+2, 1.8417837e+2, -886011.3, -1205631.4, 28106.994, -0.090096414, -0.24356781, -883558.44, 251477.06, 0.0, 10.002478, 9.998251 
5.850784e+2, 1.941776e+2, -901230.7, -1165333.9, 32429.99, -0.045088835, -0.15554872, -897306.8, 139740.3, 0.0, 10.001708, 9.998227 
5.850635e+2, 2.0417689e+2, -852040.5, -1021176.94, 66433.16, -0.06163035, -0.073646694, -829067.4, 109990.086, 0.0, 10.001075, 9.998847 
5.850482e+2, 2.1417616e+2, -809451.3, -940179.25, 64144.906, -0.15213276, -0.05364614, -783234.6, 57832.316, 0.0, 10.000654, 9.998932 
5.8503336e+2, 2.241755e+2, -711390.25, -814390.2, 32491.81, -0.15949737, -0.023284126, -701997.2, 41076.95, 0.0, 10.000542, 9.999179 
5.8501923e+2, 2.3417467e+2, -572226.4, -696055.9, 6006.5845, -0.042975925, -0.0375509, -571935.7, 73144.19, 0.0, 10.000812, 9.999193 
5.8500475e+2, 2.441735e+2, -566271.7, -743209.3, 63530.08, -0.02495296, -0.029036524, -545824.0, 1267.7467, 0.0, 10.000614, 9.998285 
5.8498967e+2, 2.541718e+2, -579307.06, -707938.06, 93788.84, -0.14441617, -0.035640165, -529899.94, -80787.85, 0.0, 9.999892, 9.998201 
5.8497536e+2, 2.641705e+2, -490761.03, -522681.47, 61651.145, -0.13619351, -0.017179854, -443037.72, -91911.66, 0.0, 9.999448, 9.999006 
5.8496183e+2, 2.741696e+2, -388365.6, -413476.28, 35586.785, 0.052176364, -0.03356756, -363184.28, -110051.0, 0.0, 9.999436, 9.99909 
5.849478e+2, 2.8416905e+2, -302159.13, -224179.39, 122760.664, 0.06997648, -0.036465455, -134365.56, 20771.7, 0.00000055145284, 9.998921, 9.999977 
5.849329e+2, 2.9416916e+2, -391544.28, -211700.27, 133302.52, -0.13610125, -0.04628358, -140825.72, -83691.02, 0.000008783807, 9.997617, 10.000015 
5.849196e+2, 3.0416986e+2, -465631.0, -234846.89, 16642.615, -0.06462844, 0.034475684, -233652.92, -233652.92, 0.000039664603, 9.996826, 9.999901 
5.849059e+2, 3.1416917e+2, -336540.78, 52141.6, -1251.5559, 0.21369651, -0.053219184, 52145.633, 52145.633, 0.00010367087, 9.996703, 10.001928 
5.951852e+2, 1.2420556e+2, -1623076.8, -1843644.4, -48087.168, -0.2592998, -0.03111927, -1613048.9, 109721.95, 0.000001124367, 10.001379, 9.998412 
5.9517515e+2, 1.3420248e+2, -1271908.0, -1650612.4, -87924.83, 0.41005436, -0.19127423, -1252489.9, 372309.7, 0.000000025767086, 10.003175, 9.998252 
5.951537e+2, 1.441999e+2, -1132208.4, -1558703.1, -60186.07, -0.24019238, -0.25215033, -1123877.8, 402945.75, 0.0, 10.003611, 9.99797 
5.9513885e+2, 1.541982e+2, -1182278.5, -1531850.8, -54787.816, -0.12421725, -0.24276473, -1173892.9, 254946.75, 0.0, 10.002594, 9.997973 
5.9512424e+2, 1.641968e+2, -1106698.5, -1372780.0, 39463.445, -0.058866672, -0.20439586, -1100969.0, 229884.33, 0.0, 10.002127, 9.99862 
5.95111e+2, 1.7419557e+2, -942550.3, -1234315.6, 58879.688, -0.0023397272, -0.21135366, -931116.2, 301750.4, 0.0, 10.002542, 9.998698 
5.950962e+2, 1.841945e+2, -866902.3, -1159062.9, -3438.4055, -0.023088342, -0.17895234, -866861.9, 268016.8, 0.0, 10.002446, 9.998587 
5.950792e+2, 1.941936e+2, -883537.7, -1118465.3, 9689.157, -0.15556458, -0.14104056, -883138.75, 153750.83, 0.0, 10.001663, 9.998572 
5.950634e+2, 2.0419253e+2, -852729.8, -1009487.06, 43130.03, -0.19650102, -0.11970211, -841646.6, 97254.84, 0.0, 10.0010195, 9.998954 
5.950495e+2, 2.1419106e+2, -813601.56, -934858.1, 55024.824, -0.10534048, -0.17838192, -792354.8, 48561.188, 0.0, 10.000595, 9.998998 
5.9503484e+2, 2.2418994e+2, -748349.75, -882012.3, 34057.25, -0.07777308, -0.17628175, -740172.25, 2755.6707, 0.0, 10.000497, 9.998737 
5.950192e+2, 2.3418906e+2, -616687.4, -773436.8, 21928.367, -0.14128448, -0.15023659, -613677.5, 31260.605, 0.0, 10.000743, 9.998696 
5.950041e+2, 2.4418847e+2, -520744.25, -640040.94, 32900.03, -0.17003205, -0.08810155, -512272.6, 34672.26, 0.0, 10.000572, 9.999017 
5.9498966e+2, 2.541883e+2, -528232.2, -586531.06, 71728.68, -0.14922923, -0.027944416, -479956.22, -31009.113, 0.0, 9.999823, 9.99907 
5.949753e+2, 2.641874e+2, -519137.56, -569362.8, 53261.617, -0.09484671, -0.0052162325, -485365.2, -134408.7, 0.0, 9.999398, 9.998711 
5.9496087e+2, 2.7418524e+2, -425535.63, -479165.38, 43763.492, -0.008518743, -0.10666494, -401025.28, -148046.86, 0.0, 9.999387, 9.998665 
5.9494567e+2, 2.841843e+2, -302313.16, -215871.3, 70827.0, -0.047116492, -0.1261744, -176119.27, -21132.256, 0.0000003359344, 9.998887, 10.000048 
5.949295e+2, 2.9418522e+2, -393649.8, -200124.8, 88802.7, -0.25588354, -0.07078303, -165552.22, -108576.6, 0.000006914508, 9.997549, 10.000126 
5.949156e+2, 3.0418527e+2, -473663.56, -238923.69, 3531.0837, -0.14684635, -0.057417035, -238870.58, -238870.58, 0.000035630153, 9.996773, 9.9999 
5.949032e+2, 3.14185e+2, -322805.7, 103318.83, 8611.831, 0.2328954, -0.106201, 103492.8, 103492.8, 0.0000986736, 9.99661, 10.002324 
6.051886e+2, 1.24220714e+2, -1411978.4, -1750993.3, 24389.332, -0.13045108, -0.02487893, -1410232.8, 312392.28, 0.00000033090242, 10.00285, 9.998357 
6.0517806e+2, 1.342176e+2, -1260712.5, -1652941.3, 69393.766, 0.384908, -0.17776458, -1248797.1, 375856.53, 0.000000000013925105, 10.00329, 9.99818 
6.0515684e+2, 1.442152e+2, -1149962.5, -1522266.1, 51038.797, -0.26170814, -0.23451893, -1143092.4, 383583.3, 0.0, 10.003297, 9.998374 
6.051426e+2, 1.5421373e+2, -1075924.6, -1432037.6, -10045.171, -0.032473117, -0.2419324, -1075641.5, 353047.16, 0.0, 10.003116, 9.99841 
6.051277e+2, 1.6421276e+2, -1045318.7, -1335498.1, 76944.305, 0.05547343, -0.18866093, -1026178.5, 304519.9, 0.0, 10.002512, 9.998689 
6.05113e+2, 1.7421225e+2, -1124956.0, -1319032.6, 79036.65, 0.0125990305, -0.12730226, -1096841.5, 135864.61, 0.0, 10.001276, 9.998727 
6.050976e+2, 1.8421145e+2, -1085944.8, -1244491.3, 31704.83, -0.04092143, -0.07913622, -1079839.8, 54876.195, 0.0, 10.000854, 9.998768 
6.050811e+2, 1.9421013e+2, -892374.9, -1097724.9, 22389.586, -0.119958915, -0.10384725, -889962.06, 146767.61, 0.0, 10.001499, 9.998789 
6.0506517e+2, 2.0420879e+2, -777093.1, -993898.1, 35712.547, -0.146627, -0.11233668, -771362.0, 167381.42, 0.0, 10.001629, 9.99877 
6.050503e+2, 2.1420723e+2, -780153.2, -944871.56, 13187.303, -0.089029066, -0.15854049, -779104.06, 61655.05, 0.0, 10.00093, 9.998773 
6.0503525e+2, 2.2420593e+2, -734084.44, -883235.0, 34542.566, -0.091438964, -0.15689306, -726473.0, 16299.789, 0.0, 10.000636, 9.998658 
6.050196e+2, 2.3420481e+2, -592191.2, -763999.94, 43905.715, -0.17795531, -0.14683455, -581621.3, 63163.727, 0.0, 10.000935, 9.99866 
6.0500443e+2, 2.4420431e+2, -477281.06, -564904.6, 34797.223, -0.18942563, -0.0975077, -465143.6, 81646.78, 0.0, 10.000654, 9.999486 
6.049899e+2, 2.5420454e+2, -527309.5, -529161.25, 31369.795, -0.093654744, -0.047397807, -496851.94, -48064.824, 0.0, 9.999592, 9.999573 
6.04975e+2, 2.6420388e+2, -570066.4, -573654.3, 55881.773, -0.041709363, -0.032887675, -515949.75, -165157.14, 0.0, 9.998946, 9.998907 
6.049595e+2, 2.7420196e+2, -489665.66, -493481.88, 79005.22, -0.05082173, -0.12620161, -412545.5, -159733.6, 0.0, 9.998856, 9.998833 
6.0494375e+2, 2.84201e+2, -378748.75, -271156.88, 100511.42, -0.104485884, -0.14938974, -210950.42, -56129.855, 0.00000016006682, 9.9984455, 9.999879 
6.049276e+2, 2.9420143e+2, -399730.84, -225958.17, 76109.13, -0.20102556, -0.12035643, -197337.64, -140524.0, 0.0000052467194, 9.997606, 9.999919 
6.049134e+2, 3.042006e+2, -406817.5, -232292.47, 28466.018, -0.07354713, -0.1756417, -227766.86, -227766.86, 0.000031327, 9.997351, 9.999668 
6.0490024e+2, 3.1420138e+2, -173821.13, 131059.15, -17226.955, 0.22598308, -0.09265954, 132029.45, 132029.45, 0.00009198692, 9.997827, 10.001942 
6.151933e+2, 1.2423495e+2, -1375993.1, -1683945.8, -51645.023, 0.022211466, -0.23019634, -1367562.9, 354920.3, 0.000000091949275, 10.00289, 9.998793 
6.151795e+2, 1.342345e+2, -1234052.9, -1596294.8, 90364.05, 0.18194194, -0.1531555, -1212762.3, 411724.5, 0.0, 10.003295, 9.998561 
6.151583e+2, 1.4423317e+2, -1161950.3, -1551756.9, 31875.094, -0.466702, -0.11085868, -1159360.9, 367138.38, 0.0, 10.003304, 9.998173 
6.1514693e+2, 1.5423054e+2, -1083924.1, -1460276.1, -10569.851, 0.07185748, -0.21503158, -1083627.5, 344897.97, 0.0, 10.003152, 9.998203 
6.15132e+2, 1.6422923e+2, -1051866.4, -1342112.0, 28834.008, 0.21186449, -0.18358685, -1049029.6, 281510.6, 0.0, 10.002488, 9.998654 
6.151133e+2, 1.7422958e+2, -1126508.4, -1327011.5, 39867.027, -0.10031326, -0.03155997, -1118872.3, 113668.836, 0.0, 10.001293, 9.998666 
6.1509705e+2, 1.8422908e+2, -1089500.0, -1240001.1, 44696.79, -0.1963304, 0.047677036, -1077226.6, 57321.883, 0.0, 10.000807, 9.998817 
6.150838e+2, 1.9422723e+2, -896447.0, -1096267.4, 54167.285, -0.009619074, -0.036490764, -882708.0, 153858.63, 0.0, 10.001456, 9.99882 
6.1506855e+2, 2.0422573e+2, -817984.7, -1064078.4, 7367.5415, 0.016601952, -0.041109342, -817764.3, 120818.23, 0.0, 10.001566, 9.998318 
6.150507e+2, 2.142246e+2, -824273.75, -1021933.25, -8067.5034, -0.16381353, 0.0033963087, -823945.0, 16651.414, 0.0, 10.000866, 9.998275 
6.150344e+2, 2.2422342e+2, -722217.7, -845176.3, 37994.598, -0.25126338, 0.029600747, -711424.6, 31184.213, 0.0, 10.000574, 9.998951 
6.1502033e+2, 2.34222e+2, -576996.3, -715793.6, 62855.773, -0.21484827, -0.0270133, -552762.56, 91857.94, 0.0, 10.00086, 9.999028 
6.150056e+2, 2.4422099e+2, -473908.7, -546734.8, -8778.424, -0.14898697, -0.05539689, -472865.5, 73762.984, 0.0, 10.000603, 9.999635 
6.149901e+2, 2.542204e+2, -528109.56, -518766.38, -4033.832, -0.044479568, -0.10247562, -517265.8, -68632.81, 0.0, 9.9995365, 9.999671 
6.1497414e+2, 2.6422e+2, -527159.6, -474659.78, 44199.39, -0.035095572, -0.10223385, -449503.03, -98868.23, 0.0, 9.998905, 9.999605 
6.1495745e+2, 2.742198e+2, -447387.72, -387671.9, 84196.734, -0.15350553, -0.095871896, -328195.7, -75561.984, 0.0, 9.998782, 9.999592 
6.1494166e+2, 2.842192e+2, -416030.22, -339332.56, 64645.93, -0.16966936, -0.10214886, -302516.7, -147879.55, 0.00000012615395, 9.998403, 9.999432 
6.1492693e+2, 2.942179e+2, -447930.84, -308958.63, 50885.74, -0.046506826, -0.19802102, -292318.78, -235670.56, 0.000004351736, 9.997535, 9.999381 
6.149125e+2, 3.0421594e+2, -450579.3, -314596.47, 39487.504, 0.09120864, -0.31264472, -303961.56, -303961.56, 0.000027327762, 9.9973135, 9.999127 
6.1489666e+2, 3.1421825e+2, -266138.47, -40706.867, 14281.601, 0.052488383, -0.0141609665, -39805.7, -39805.7, 0.00008366508, 9.997747, 10.000802 
6.2519705e+2, 1.2425246e+2, -1259796.9, -1636642.9, -14790.567, 0.07898792, -0.22085278, -1259217.3, 463094.63, 0.000000014013729, 10.003723, 9.998721 
6.2518287e+2, 1.3425186e+2, -1248947.0, -1622389.8, 120020.734, 0.19681954, -0.14113104, -1213700.3, 410617.97, 0.0, 10.003266, 9.998404 
6.251621e+2, 1.4425059e+2, -1247964.0, -1593688.9, 60440.453, -0.38359118, -0.085817926, -1237702.3, 288629.1, 0.0, 10.002722, 9.998161 
6.251498e+2, 1.5424839e+2, -1157743.1, -1494592.4, 24594.5, 0.07625232, -0.14571443, -1155956.9, 272396.9, 0.0, 10.002657, 9.998197 
6.251341e+2, 1.6424707e+2, -1071020.6, -1362380.5, 54250.69, 0.18821713, -0.10960073, -1061247.1, 269121.66, 0.0, 10.002402, 9.998561 
6.2511504e+2, 1.7424685e+2, -1073890.8, -1306452.4, 41887.92, -0.07530098, -0.0065711513, -1066576.3, 165798.56, 0.0, 10.001692, 9.99861 
6.2509847e+2, 1.84246e+2, -1022174.25, -1188687.1, 102255.14, -0.14935419, 0.033920985, -973568.06, 160816.28, 0.0, 10.001173, 9.999 
6.2508506e+2, 1.9424413e+2, -972470.44, -1109982.3, 116148.8, 0.010891826, -0.07374535, -906252.56, 130148.305, 0.0, 10.000825, 9.999035 
6.2506986e+2, 2.0424286e+2, -880448.56, -1090711.3, 108112.45, 0.021886244, -0.06729947, -834779.0, 103635.02, 0.0, 10.0011215, 9.998349 
6.2505233e+2, 2.1424226e+2, -619543.0, -917421.7, 117644.99, -0.15415052, 0.028495932, -578684.4, 261739.8, 0.0, 10.0022545, 9.99832 
6.2503594e+2, 2.2424133e+2, -494217.8, -713834.3, 153239.28, -0.22462602, 0.07003772, -415505.16, 326928.75, 0.0, 10.002044, 9.999146 
6.2502134e+2, 2.3423979e+2, -691410.5, -751208.4, 151816.84, -0.14756763, -0.018504756, -566576.44, 77868.414, 0.0, 9.999979, 9.999214 
6.2500596e+2, 2.4423856e+2, -728010.0, -704503.75, 91828.03, -0.08686017, -0.06560464, -623679.75, -77224.99, 0.0, 9.999001, 9.999329 
6.2498957e+2, 2.542376e+2, -551587.9, -566744.1, 49684.953, -0.045538004, -0.11301414, -508906.44, -60441.883, 0.0, 9.999533, 9.999345 
6.249731e+2, 2.6423714e+2, -406688.84, -380344.78, 73183.05, -0.051750664, -0.115888245, -319157.8, 31309.09, 0.0, 9.99957, 9.999934 
6.2495655e+2, 2.7423728e+2, -401695.28, -320385.47, 71511.586, -0.12261021, -0.11806724, -278780.25, -26320.03, 0.0, 9.9988985, 9.999995 
6.2494063e+2, 2.8423685e+2, -416341.03, -369547.94, 58569.254, -0.11789179, -0.116966404, -329875.03, -175413.63, 0.000000116905284, 9.998528, 9.999167 
6.249254e+2, 2.9423535e+2, -315079.63, -284356.38, 44967.31, 0.0000228503, -0.19673836, -252199.17, -195723.03, 0.000004287332, 9.998597, 9.999051 
6.249103e+2, 3.042332e+2, -287555.53, -227955.7, 93853.06, 0.09197396, -0.31809348, -159285.16, -159285.16, 0.000025839543, 9.998403, 9.999191 
6.2489325e+2, 3.1423518e+2, -280439.75, -87321.24, 90715.86, -0.05879503, -0.06453835, -51392.55, -51392.55, 0.00007841617, 9.997815, 10.000439 
6.3519955e+2, 1.2427292e+2, -1295346.5, -1717554.0, -97747.18, -0.08311701, -0.024318507, -1273814.6, 448299.75, 0.0000000049225286, 10.003754, 9.998155 
6.3518786e+2, 1.3426958e+2, -1294156.8, -1719859.3, 101568.38, 0.3584682, -0.15142553, -1271165.3, 352983.9, 0.0, 10.00328, 9.997731 
6.351679e+2, 1.4426742e+2, -1239089.5, -1571659.5, 45690.75, -0.091928706, -0.15281719, -1232926.5, 293245.0, 0.0, 10.002708, 9.998319 
6.3515115e+2, 1.5426718e+2, -1139893.8, -1463653.1, 32820.06, -0.07437413, -0.03854323, -1136600.3, 291574.13, 0.0, 10.002679, 9.998402 
6.3513404e+2, 1.6426612e+2, -1082945.4, -1380800.8, 21881.465, -0.07111076, 0.017499648, -1081346.5, 248838.94, 0.0, 10.002377, 9.998445 
6.351179e+2, 1.7426394e+2, -1081721.0, -1328399.6, 21414.678, 0.021226874, -0.061057396, -1079875.8, 152332.53, 0.0, 10.001709, 9.998453 
6.351015e+2, 1.8426214e+2, -1002333.9, -1141070.5, 83492.23, 0.025871532, -0.12193738, -963153.06, 171071.39, 0.0, 10.001152, 9.999332 
6.3508475e+2, 1.9426078e+2, -952546.06, -1058912.5, 108751.02, -0.118177116, -0.21766987, -884670.44, 151562.4, 0.0, 10.000786, 9.999402 
6.350691e+2, 2.042601e+2, -857100.8, -1023204.5, 139171.08, -0.17954032, -0.19312508, -778084.2, 160154.31, 0.0, 10.0010395, 9.998852 
6.3505495e+2, 2.1426022e+2, -597006.56, -847911.7, 166794.6, -0.12565131, -0.08014373, -513751.72, 326490.44, 0.0, 10.002156, 9.998843 
6.3503957e+2, 2.2425969e+2, -503166.75, -709965.44, 78096.03, -0.07804456, -0.029950928, -476988.25, 265259.78, 0.0, 10.001946, 9.99922 
6.3502246e+2, 2.3425817e+2, -699782.5, -750808.2, 80982.914, -0.045127455, -0.12288664, -640388.7, 3869.6946, 0.0, 9.999902, 9.999255 
6.350053e+2, 2.44257e+2, -788565.7, -820297.0, 99443.29, -0.06747229, -0.12912448, -703730.4, -157461.3, 0.0, 9.998957, 9.998557 
6.3498807e+2, 2.5425616e+2, -618840.56, -693321.8, 76152.695, -0.1604914, -0.07833102, -571310.3, -123028.85, 0.0, 9.999472, 9.998508 
6.349718e+2, 2.6425534e+2, -418484.0, -388549.22, 44775.664, -0.15103441, -0.072591476, -356305.56, -6016.6694, 0.0, 9.999509, 9.999904 
6.3495666e+2, 2.7425438e+2, -414087.84, -323436.72, 53596.125, -0.01851667, -0.18700889, -298570.03, -46278.96, 0.0, 9.998809, 10.000016 
6.349404e+2, 2.8425387e+2, -422977.5, -377588.4, 50506.35, -0.008559066, -0.19203632, -344912.1, -190618.84, 0.0000001448745, 9.998501, 9.999129 
6.349227e+2, 2.942539e+2, -329311.63, -296030.84, 54951.516, -0.14803274, -0.11420138, -255255.47, -198958.86, 0.000005079309, 9.998531, 9.999001 
6.3490635e+2, 3.042525e+2, -245733.97, -141680.3, 69561.516, -0.16095108, -0.18099998, -106841.74, -106841.74, 0.000027818513, 9.998396, 9.999788 
6.348894e+2, 3.1425232e+2, -282606.66, -53971.844, 87805.64, -0.26176736, -0.21075623, -24142.45, -24142.45, 0.00008105603, 9.9976635, 10.000737 
6.452025e+2, 1.2429162e+2, -1477562.6, -1802869.3, -125374.86, -0.08508995, 0.014367477, -1434850.5, 287084.75, 0.0000000021351345, 10.002482, 9.998182 
6.451909e+2, 1.3428874e+2, -1352089.8, -1743609.1, 128361.9, 0.36443225, -0.06774967, -1313758.4, 310207.38, 0.0, 10.002882, 9.997746 
6.451719e+2, 1.442865e+2, -1209081.5, -1539424.4, 108915.66, 0.03449567, -0.08751952, -1176404.0, 349584.38, 0.0, 10.002836, 9.998483 
6.451538e+2, 1.5428579e+2, -1172959.6, -1458426.9, 80001.59, -0.05062423, -0.038432524, -1152068.3, 275925.7, 0.0, 10.002359, 9.998591 
6.451362e+2, 1.642845e+2, -1113122.6, -1401779.6, 85085.414, -0.07950565, -0.012851015, -1089909.4, 240096.9, 0.0, 10.002193, 9.998391 
6.451204e+2, 1.7428243e+2, -977062.2, -1286923.5, 78268.125, 0.07278588, -0.0714778, -958414.56, 273613.6, 0.0, 10.002461, 9.998381 
6.451039e+2, 1.8428068e+2, -846755.5, -1087278.8, 125399.195, 0.09229855, -0.11310932, -793270.75, 340773.06, 0.0, 10.002306, 9.999149 
6.450861e+2, 1.9427924e+2, -859980.44, -1034540.5, 94918.914, -0.09451674, -0.19645393, -818313.1, 217739.64, 0.0, 10.001511, 9.99922 
6.4507014e+2, 2.0427845e+2, -902494.2, -1032335.9, 127604.945, -0.15808716, -0.18182874, -824244.7, 113814.33, 0.0, 10.00067, 9.998965 
6.4505666e+2, 2.1427839e+2, -944360.75, -1004896.56, 112526.34, -0.04386895, -0.100306585, -858102.56, -18039.244, 0.0, 9.999718, 9.998943 
6.450413e+2, 2.2427785e+2, -850000.1, -875219.4, -5696.732, 0.025978636, -0.055929787, -848773.0, -106703.91, 0.0, 9.999551, 9.999243 
6.450234e+2, 2.3427662e+2, -626375.75, -710992.1, -23809.867, 0.034013905, -0.122137226, -620136.1, 23941.889, 0.0, 10.00039, 9.999291 
6.4500564e+2, 2.4427547e+2, -549945.5, -719184.56, 51381.688, -0.014859532, -0.12236662, -535567.3, 10521.381, 0.0, 10.000659, 9.998432 
6.449882e+2, 2.542743e+2, -524186.84, -661174.9, 74004.2, -0.1332398, -0.09165569, -491844.1, -43741.094, 0.0, 10.000182, 9.998386 
6.4497155e+2, 2.6427323e+2, -399794.34, -398532.06, 61688.324, -0.1320584, -0.09644557, -337471.66, 12640.902, 0.0, 9.999713, 9.99974 
6.449562e+2, 2.742721e+2, -354938.66, -315031.22, 40824.063, 0.03679857, -0.20831786, -289545.38, -37428.156, 0.000000000000000000046744374, 9.999294, 9.9998455 
6.4493954e+2, 2.8427175e+2, -369193.8, -335096.84, 60699.703, 0.04490079, -0.20059946, -289096.9, -134977.81, 0.00000034821963, 9.9988, 9.999275 
6.4492095e+2, 2.942721e+2, -369934.4, -297467.7, 67832.9, -0.14827809, -0.10624006, -256797.48, -200678.06, 0.0000068469953, 9.998163, 9.99917 
6.4490414e+2, 3.042715e+2, -311276.63, -131187.66, 101115.83, -0.18888432, -0.11960814, -85834.875, -85834.875, 0.00003363737, 9.997768, 10.000156 
6.448868e+2, 3.142711e+2, -229855.42, 13514.54, 77673.96, -0.2908529, -0.21093497, 36191.875, 36191.875, 0.000093360155, 9.997821, 10.001129 
6.552056e+2, 1.2430871e+2, -1426567.1, -1705476.6, -152704.03, -0.059354782, -0.09742303, -1359222.1, 362550.9, 0.0000000012982254, 10.002517, 9.998836 
6.551919e+2, 1.3430932e+2, -1300629.4, -1643494.0, 145427.0, 0.15465473, 0.10318905, -1247255.0, 376513.47, 0.0, 10.002913, 9.998417 
6.55174e+2, 1.4430761e+2, -1194926.5, -1513247.1, 82325.48, -0.05590825, 0.090621136, -1174895.6, 350888.47, 0.0, 10.002844, 9.998663 
6.5515757e+2, 1.5430413e+2, -1162561.4, -1440862.4, 68020.66, 0.072856985, -0.14660777, -1146825.9, 280987.16, 0.0, 10.002369, 9.9987135 
6.5514016e+2, 1.6430221e+2, -1116138.6, -1403553.9, 86003.38, 0.0808448, -0.1903025, -1092369.5, 237461.25, 0.0, 10.002175, 9.9983835 
6.5512246e+2, 1.743023e+2, -979270.2, -1291844.9, 95605.305, 0.016541846, -0.034631997, -952347.0, 279487.44, 0.0, 10.002461, 9.998345 
6.5510535e+2, 1.8430151e+2, -897678.5, -1182904.9, 90794.914, -0.004565112, 0.05163875, -871228.9, 262614.53, 0.0, 10.002264, 9.998513 
6.550888e+2, 1.9429949e+2, -913716.1, -1132783.4, 72093.44, 0.011483806, -0.021551363, -892119.75, 143741.19, 0.0, 10.001459, 9.998569 
6.550727e+2, 2.0429792e+2, -936305.3, -1086111.4, 86254.48, 0.018385839, -0.03539026, -896970.44, 40905.02, 0.0, 10.000599, 9.9986315 
6.5505713e+2, 2.1429673e+2, -974917.94, -1051015.3, 84067.17, 0.01726418, -0.033760842, -920689.9, -80802.1, 0.0, 9.999646, 9.99866 
6.550409e+2, 2.2429584e+2, -867132.3, -891231.1, 14195.877, 0.022592682, -0.008520843, -860561.56, -118664.66, 0.0, 9.999472, 9.9991665 
6.550238e+2, 2.3429517e+2, -644572.5, -725186.06, 14298.373, 0.025643848, -0.012475919, -642111.56, 1791.8682, 0.0, 10.000295, 9.999235 
6.5500665e+2, 2.4429397e+2, -522562.9, -643738.9, 29483.297, 0.010178364, -0.0404713, -515770.13, 30143.486, 0.0, 10.000581, 9.998985 
6.549894e+2, 2.5429195e+2, -491059.38, -575807.1, 62841.53, -0.033542976, -0.15757148, -457640.1, -9710.418, 0.0, 10.000119, 9.998999 
6.5497226e+2, 2.642908e+2, -419469.2, -438331.8, 37884.81, -0.053519256, -0.19143662, -389859.38, -39921.38, 0.0, 9.999701, 9.999477 
6.549549e+2, 2.7429068e+2, -386310.66, -367791.06, 32769.78, -0.039476875, -0.16807503, -342997.94, -91060.87, 0.0000000002377775, 9.999236, 9.999514 
6.5493757e+2, 2.8429055e+2, -352113.38, -286729.97, 30720.482, -0.0424732, -0.13180469, -274560.8, -120623.266, 0.0000008000927, 9.99875, 9.999627 
6.5492004e+2, 2.9429013e+2, -352631.78, -239486.03, 51580.234, -0.07471512, -0.16056928, -219501.67, -163558.73, 0.000010270006, 9.998081, 9.999601 
6.5490335e+2, 3.0429035e+2, -298317.0, -108418.88, 96968.664, -0.05274563, -0.12397949, -67654.1, -67654.1, 0.00004390313, 9.997775, 10.0003195 
6.54885e+2, 3.1429178e+2, -203087.86, 83814.8, 114633.625, -0.28287962, -0.039357733, 123991.22, 123991.22, 0.000113456364, 9.997761, 10.001645 
6.652095e+2, 1.2432802e+2, -1355550.3, -1661583.3, -78044.0, 0.06150618, -0.070001855, -1336796.9, 384789.22, 0.00000000035571668, 10.002955, 9.998923 
6.6519386e+2, 1.3432875e+2, -1324785.6, -1642884.6, 161627.81, 0.07896103, 0.12884557, -1257074.6, 366505.0, 0.0, 10.002684, 9.998537 
6.651765e+2, 1.4432694e+2, -1281288.1, -1541546.9, 73464.29, -0.04876095, 0.094660245, -1261983.0, 263612.97, 0.0, 10.002212, 9.998764 
6.6516024e+2, 1.5432364e+2, -1220369.3, -1458349.3, 41428.69, 0.12961328, -0.13480031, -1213363.4, 214260.55, 0.0, 10.00194, 9.998795 
6.651426e+2, 1.6432194e+2, -1171546.9, -1424561.8, 92996.234, 0.1342615, -0.1623579, -1141043.4, 188596.14, 0.0, 10.001771, 9.998435 
6.651242e+2, 1.7432226e+2, -1096162.4, -1338182.8, 95330.29, -0.004746426, 0.011739791, -1063122.8, 168517.02, 0.0, 10.001619, 9.998427 
6.6510695e+2, 1.8432158e+2, -1033029.3, -1279258.8, 102331.81, -0.022514373, 0.11446747, -996053.3, 137595.13, 0.0, 10.001479, 9.998227 
6.6509104e+2, 1.943194e+2, -949229.6, -1188714.6, 93602.33, 0.09771652, 0.059742805, -916986.4, 118683.28, 0.0, 10.001376, 9.998227 
6.650746e+2, 2.0431744e+2, -835992.4, -1011164.44, 146058.6, 0.12470135, 0.01320114, -753271.56, 184415.84, 0.0, 10.001174, 9.998871 
6.650575e+2, 2.1431552e+2, -789352.25, -930827.8, 172192.44, 0.039318774, -0.082745366, -673934.0, 165768.23, 0.0, 10.000793, 9.998931 
6.6504073e+2, 2.2431438e+2, -751319.06, -887411.4, 157103.2, 0.007864259, -0.07655982, -648158.6, 93554.35, 0.0, 10.000492, 9.998702 
6.650241e+2, 2.3431407e+2, -690363.2, -809045.8, 112776.4, 0.039714053, 0.008940036, -622268.6, 21450.91, 0.0, 10.000238, 9.9986925 
6.650075e+2, 2.4431302e+2, -576821.1, -637402.6, 94942.66, 0.064161554, 0.011864396, -507454.28, 38275.023, 0.0, 10.000056, 9.999288 
6.6499054e+2, 2.5431085e+2, -492837.9, -541372.75, 89673.22, 0.0796683, -0.15531307, -424206.5, 23538.54, 0.0, 9.999933, 9.999335 
6.6497296e+2, 2.6430964e+2, -422621.25, -476192.78, 64500.066, 0.051240783, -0.19670254, -379566.22, -29812.621, 0.0, 9.999835, 9.999151 
6.649544e+2, 2.743096e+2, -328629.47, -380705.28, 42503.508, -0.035734218, -0.12769566, -304822.4, -53068.668, 0.0000000023427176, 9.999806, 9.999146 
6.6493654e+2, 2.8430933e+2, -226583.31, -229719.47, 33918.695, -0.059568375, -0.08472139, -194196.47, -40440.48, 0.0000014418595, 9.999629, 9.999593 
6.6491944e+2, 2.9430842e+2, -180254.06, -153028.36, 5140.716, 0.0070030256, -0.16330306, -152090.05, -96325.67, 0.000014823799, 9.99925, 9.99963 
6.6490257e+2, 3.0430815e+2, -205292.11, -103715.1, 27034.895, 0.05238484, -0.16042504, -96967.9, -96967.9, 0.000057815294, 9.998599, 9.999954 
6.6488296e+2, 3.1430975e+2, -238336.0, 60181.285, -5291.3286, -0.24992187, -0.015041848, 60275.043, 60275.043, 0.0001407211, 9.997563, 10.001576 
6.752137e+2, 1.2434936e+2, -1385556.1, -1728662.1, -96687.75, 0.1523844, 0.07554072, -1360185.4, 361191.03, 0.0000000023126079, 10.002982, 9.998446 
6.751965e+2, 1.3434713e+2, -1350310.9, -1697751.1, 151711.03, 0.062402174, 0.0140672615, -1293390.8, 330007.63, 0.0, 10.002699, 9.99815 
6.751791e+2, 1.4434475e+2, -1279815.5, -1542630.0, 53929.06, -0.023198254, -0.055330954, -1269179.8, 256242.11, 0.0, 10.002225, 9.998753 
6.751615e+2, 1.5434435e+2, -1213906.0, -1452373.8, 39998.168, 0.04174003, 0.004265284, -1207375.9, 220050.14, 0.0, 10.001967, 9.998824 
6.7514336e+2, 1.643436e+2, -1158076.5, -1398137.5, 79556.45, 0.017586708, 0.06041066, -1134105.1, 195328.05, 0.0, 10.001776, 9.998614 
6.7512554e+2, 1.7434236e+2, -1083036.6, -1309919.4, 96141.27, -0.04974661, 0.06154369, -1047776.6, 183667.64, 0.0, 10.001616, 9.998623 
6.751085e+2, 1.8434092e+2, -1033298.1, -1278551.3, 90327.82, -0.029352026, 0.078766145, -1003621.1, 129837.414, 0.0, 10.001467, 9.9982395 
6.7509246e+2, 1.9433908e+2, -956877.25, -1191216.6, 96021.98, 0.088612095, 0.05576007, -922557.8, 112920.266, 0.0, 10.00132, 9.998237 
6.750756e+2, 2.0433709e+2, -794852.7, -908528.44, 125669.29, 0.096011, -0.025276529, -713765.5, 223728.45, 0.0, 10.001097, 9.999616 
6.7505765e+2, 2.1433482e+2, -742430.44, -816305.5, 163741.16, -0.036411025, -0.24200687, -611512.25, 227994.38, 0.0, 10.00072, 9.999753 
6.750405e+2, 2.2433351e+2, -823525.8, -1015951.25, 141533.48, -0.07235834, -0.25403407, -748599.4, -7082.452, 0.0, 10.000402, 9.997863 
6.7502415e+2, 2.343334e+2, -770184.56, -952498.2, 112451.12, 0.008873428, -0.055163685, -716583.56, -73058.26, 0.0, 10.00015, 9.997747 
6.750078e+2, 2.4433272e+2, -588298.56, -646148.5, 84361.984, 0.08004301, 0.03708293, -528040.56, 17494.082, 0.0, 9.999993, 9.999255 
6.749912e+2, 2.5433114e+2, -502809.94, -543891.3, 90603.48, 0.13933967, -0.07308589, -430447.94, 17099.412, 0.0, 9.999856, 9.999353 
6.749736e+2, 2.6432985e+2, -459402.06, -540161.5, 56788.805, 0.11887247, -0.10239004, -430100.44, -80542.4, 0.0, 9.999782, 9.998738 
6.749545e+2, 2.7432892e+2, -366399.44, -445879.56, 49317.617, -0.021466365, -0.08386, -342803.1, -91236.25, 0.0000000015372758, 9.999755, 9.998722 
6.7493623e+2, 2.8432807e+2, -252282.05, -288957.25, 13485.223, -0.06646332, -0.058871463, -247857.42, -94283.18, 0.0000017821444, 9.999644, 9.999183 
6.74919e+2, 2.9432702e+2, -217227.47, -217854.34, -2901.7676, 0.02001021, -0.10370095, -214622.27, -159039.69, 0.000019076204, 9.999195, 9.999213 
6.749012e+2, 3.0432487e+2, -281869.7, -250605.55, -16354.05, 0.04080056, -0.22253512, -243614.25, -243614.25, 0.000073988194, 9.9985485, 9.998964 
6.7487985e+2, 3.1432447e+2, -306506.8, -58955.77, -15793.578, -0.35230154, -0.17931187, -57952.22, -57952.22, 0.00017623325, 9.997475, 10.0007925 
6.852169e+2, 1.2436903e+2, -1438585.8, -1774260.3, -53103.625, 0.20628199, 0.029958893, -1430385.1, 290795.16, 0.0000000036242784, 10.002697, 9.998278 
6.851987e+2, 1.3436638e+2, -1344516.3, -1692298.3, 179133.83, 0.017777318, -0.071383566, -1268753.5, 354453.2, 0.0, 10.002742, 9.998161 
6.8518156e+2, 1.443642e+2, -1280646.0, -1575392.8, 92207.42, -0.0032243622, -0.10833516, -1254177.1, 271052.72, 0.0, 10.002348, 9.998471 
6.851631e+2, 1.5436484e+2, -1279175.5, -1516991.5, 44719.684, 0.03027861, 0.08436437, -1271044.4, 156182.94, 0.0, 10.001655, 9.998536 
6.8514484e+2, 1.6436405e+2, -1196545.5, -1405743.0, 103971.15, 0.0068383478, 0.1480431, -1153662.4, 175572.6, 0.0, 10.001464, 9.998717 
6.851275e+2, 1.7436144e+2, -1036269.3, -1275941.3, 101994.05, -0.020024788, -0.0024080288, -998741.25, 232515.03, 0.0, 10.001883, 9.9987335 
6.851105e+2, 1.8435948e+2, -997471.7, -1268328.4, 82311.24, 0.017584605, -0.03872278, -974419.8, 158854.17, 0.0, 10.001748, 9.998174 
6.850938e+2, 1.9435817e+2, -1028001.9, -1233030.9, 68887.86, 0.11685681, -0.0008853326, -1007006.2, 28283.281, 0.0, 10.000866, 9.998166 
6.8507653e+2, 2.0435669e+2, -879080.75, -970564.06, 96254.484, 0.1127606, -0.021087892, -818252.1, 119050.07, 0.0, 10.000613, 9.999414 
6.8505865e+2, 2.1435486e+2, -691828.44, -816980.44, 46447.957, -0.02526651, -0.17070723, -676473.94, 162838.7, 0.0, 10.001169, 9.999532 
6.8504137e+2, 2.243535e+2, -657912.5, -894089.7, 25158.666, -0.062322367, -0.19513927, -655262.2, 86060.54, 0.0, 10.001346, 9.998251 
6.850249e+2, 2.3435266e+2, -617237.0, -832638.75, 84137.51, 0.029628191, -0.11147098, -588268.2, 55065.527, 0.0, 10.000986, 9.998174 
6.850081e+2, 2.4435179e+2, -550761.25, -705042.5, 102049.62, 0.09273087, -0.030655084, -499976.9, 45368.023, 0.0, 10.000582, 9.998566 
6.8499094e+2, 2.5435072e+2, -511011.53, -632284.25, 37960.035, 0.11649376, -0.014035113, -500109.56, -52751.715, 0.0, 10.00017, 9.998591 
6.849731e+2, 2.6434937e+2, -432145.25, -496425.84, 15847.732, 0.09824271, -0.02165589, -428450.5, -79079.84, 0.0, 9.999838, 9.999009 
6.849546e+2, 2.7434763e+2, -367177.06, -410278.47, 51085.023, 0.026171958, -0.117010444, -333283.1, -81898.87, 0.00000000039754933, 9.999588, 9.999052 
6.849363e+2, 2.8434667e+2, -302819.3, -351295.03, 58259.703, -0.012589813, -0.103899084, -263956.72, -110564.98, 0.000001935021, 9.999465, 9.99884 
6.849181e+2, 2.9434633e+2, -187598.48, -248113.98, 29213.053, -0.0040866723, -0.03437813, -175797.53, -120402.48, 0.000022833043, 9.999587, 9.998818 
6.848994e+2, 3.0434346e+2, -208418.55, -237537.55, 24623.53, -0.009040222, -0.19560093, -194372.16, -194372.16, 0.00009092674, 9.99914, 9.998767 
6.8487823e+2, 3.143423e+2, -298993.63, -103286.04, 76615.586, -0.26111194, -0.21244873, -76860.66, -76860.66, 0.00021661, 9.997703, 10.000384 
6.952189e+2, 1.2438726e+2, -1422547.6, -1745178.6, -52461.297, 0.10022485, -0.1879205, -1414231.5, 306764.06, 0.00000000017840025, 10.002728, 9.998453 
6.952003e+2, 1.3438654e+2, -1323723.6, -1642283.3, 181127.55, -0.11164763, -0.12998033, -1241803.9, 381200.44, 0.0, 10.002721, 9.998508 
6.951837e+2, 1.4438514e+2, -1317539.5, -1649683.3, 60179.934, -0.04343668, -0.08305786, -1306971.9, 218049.55, 0.0, 10.0023365, 9.997969 
6.951649e+2, 1.543851e+2, -1313146.9, -1599619.8, 27874.021, 0.027683107, 0.0975756, -1310459.9, 116568.164, 0.0, 10.001699, 9.997952 
6.951467e+2, 1.6438343e+2, -1195369.8, -1405535.4, 110266.79, 0.027676275, 0.10384563, -1148133.4, 180911.2, 0.0, 10.001476, 9.998711 
6.9512993e+2, 1.7437968e+2, -1035933.2, -1272340.6, 124611.766, 0.018223701, -0.16228256, -982380.7, 248693.13, 0.0, 10.001869, 9.998765 
6.9511276e+2, 1.8437737e+2, -1011176.4, -1288350.5, 46551.367, 0.052717768, -0.23112144, -1003567.0, 129526.63, 0.0, 10.001712, 9.998053 
6.950948e+2, 1.9437672e+2, -1043856.1, -1256780.9, 42885.188, 0.12134783, -0.11164641, -1035543.1, -439.68304, 0.0, 10.000831, 9.998019 
6.950773e+2, 2.0437618e+2, -967873.94, -1141672.4, 107132.555, 0.11160438, 0.023579914, -916828.0, 20284.162, 0.0, 10.000555, 9.998271 
6.950603e+2, 2.1437564e+2, -788875.94, -999780.8, 73816.47, 0.0064634983, 0.1257556, -765607.4, 73512.98, 0.0, 10.00109, 9.998316 
6.950432e+2, 2.2437432e+2, -558707.8, -666622.0, 8100.268, -0.021951789, 0.09466702, -558103.2, 183027.3, 0.0, 10.001256, 9.999853 
6.950261e+2, 2.3437187e+2, -505110.03, -576844.6, 77255.89, 0.041987337, -0.16159156, -455801.4, 187343.33, 0.0, 10.000894, 9.99997 
6.9500834e+2, 2.4437027e+2, -652381.2, -901856.7, 80530.85, 0.04030161, -0.18707097, -628644.3, -83484.92, 0.0, 10.000519, 9.997248 
6.9498956e+2, 2.5436956e+2, -624696.75, -856287.1, 29616.982, -0.051204875, 0.019725787, -620969.2, -173793.06, 0.0, 10.000115, 9.997082 
6.9497156e+2, 2.6436818e+2, -373270.56, -363818.34, 1190.73, -0.062251538, 0.041820906, -363670.63, -14479.406, 0.0, 9.999797, 9.999939 
6.9495445e+2, 2.7436578e+2, -301326.06, -258482.25, 49842.445, 0.039995015, -0.2241768, -225653.19, 25551.984, 0.0000000054780975, 9.999525, 10.000124 
6.949363e+2, 2.8436518e+2, -330505.34, -399288.53, 57053.156, 0.026175138, -0.21809292, -298279.8, -145071.64, 0.000002364329, 9.999423, 9.99853 
6.949163e+2, 2.9436645e+2, -221038.7, -306660.8, 46345.156, -0.15956143, 0.04731525, -200757.28, -145556.17, 0.000027093956, 9.999542, 9.998437 
6.948972e+2, 3.0436406e+2, -168837.42, -150637.77, -28173.832, -0.16695471, -0.0751419, -130130.64, -130130.64, 0.00010798756, 9.999125, 9.99937 
6.9487804e+2, 3.1436327e+2, -314086.72, -108449.08, 55963.07, -0.08478002, -0.11110165, -94205.63, -94205.63, 0.00025660693, 9.997604, 10.000393 
7.0522046e+2, 1.2440614e+2, -1512864.8, -1750576.5, -116036.59, 0.026200725, -0.20651495, -1465614.6, 255198.61, 0.0, 10.001927, 9.9988165 
7.0520234e+2, 1.3440713e+2, -1457137.4, -1645125.9, 80291.766, -0.11637639, -0.030251559, -1427512.5, 195291.38, 0.0, 10.001524, 9.999072 
7.0518637e+2, 1.4440602e+2, -1467920.1, -1729825.6, 4451.9404, 0.0481416, 0.016039312, -1467844.5, 56972.7, 0.0, 10.001336, 9.997902 
7.051669e+2, 1.5440428e+2, -1306316.6, -1603143.6, -7991.1304, 0.051372416, 0.038790125, -1306101.6, 120737.42, 0.0, 10.001793, 9.997872 
7.051482e+2, 1.6440214e+2, -1151072.5, -1418879.5, 101296.99, 0.018547487, 0.016938316, -1117073.6, 211787.27, 0.0, 10.001936, 9.998392 
7.051316e+2, 1.7439932e+2, -1099527.6, -1336969.8, 77087.48, 0.016579159, -0.12307485, -1076696.0, 154187.97, 0.0, 10.001586, 9.998452 
7.0511425e+2, 1.8439734e+2, -1024118.75, -1282183.8, -2936.8516, 0.042194385, -0.15029022, -1024085.3, 108816.125, 0.0, 10.001569, 9.998163 
7.050958e+2, 1.9439615e+2, -870463.8, -1158936.3, 164.50352, 0.083913356, -0.097956605, -870463.7, 164450.33, 0.0, 10.001952, 9.998153 
7.05078e+2, 2.0439532e+2, -849927.44, -1117268.8, 110020.08, 0.08470579, 0.016254092, -810473.1, 126451.92, 0.0, 10.001507, 9.997981 
7.050611e+2, 2.1439484e+2, -977465.2, -1125765.5, 130650.27, 0.039167672, 0.15507671, -901389.7, -62454.805, 0.0, 9.9999485, 9.998002 
7.05044e+2, 2.2439358e+2, -835913.25, -778154.9, 81342.984, 0.030022027, 0.13672236, -720716.7, 20228.615, 0.0, 9.999262, 10.000044 
7.0502657e+2, 2.3439115e+2, -664253.8, -628572.1, 22998.344, 0.059761085, -0.13783832, -617305.94, 25652.129, 0.0, 9.999697, 10.00019 
7.050087e+2, 2.4438961e+2, -667560.2, -857076.8, 41467.98, 0.042228483, -0.19199356, -658883.8, -113913.49, 0.0, 10.000195, 9.997706 
7.0499e+2, 2.54389e+2, -495681.1, -740003.8, 129367.71, -0.0389499, -0.026987279, -439911.56, 7072.043, 0.0, 10.000772, 9.99756 
7.049718e+2, 2.643877e+2, -293787.1, -394441.3, 111671.15, -0.05332591, 0.009653674, -221626.39, 127371.85, 0.0, 10.000645, 9.999321 
7.049539e+2, 2.7438542e+2, -337308.78, -348106.44, 9095.122, 0.033608828, -0.17387553, -332130.8, -81115.45, 0.000000016182126, 9.9995985, 9.999468 
7.049355e+2, 2.8438473e+2, -386896.38, -421983.22, -944.38226, 0.032273218, -0.14526936, -386871.0, -233849.66, 0.0000030357212, 9.999008, 9.998579 
7.0491606e+2, 2.9438567e+2, -293808.2, -327787.78, 16840.736, -0.10144121, 0.07660059, -286875.94, -231859.75, 0.000031540207, 9.998976, 9.998567 
7.0489687e+2, 3.0438364e+2, -107484.836, -66893.8, -43406.31, -0.10949794, -0.044178665, -39272.56, -39272.56, 0.00012311795, 9.9993105, 9.999858 
7.048779e+2, 3.143832e+2, 11100.065, 44568.457, 695.43475, 0.040342897, -0.09276954, 44582.902, 44582.902, 0.00029058926, 9.999854, 10.0003605 
7.1522105e+2, 1.2442553e+2, -1454364.0, -1647743.6, -110556.84, -0.13955316, -0.043037027, -1404180.6, 316453.16, 0.0, 10.002009, 9.999479 
7.152045e+2, 1.3442807e+2, -1389903.1, -1526509.4, 67398.56, -0.06890997, 0.20528309, -1362248.5, 260357.3, 0.0, 10.001605, 9.999852 
7.1518934e+2, 1.4442678e+2, -1439849.9, -1677911.3, 8768.118, 0.19141324, 0.17812085, -1439527.4, 85089.53, 0.0, 10.00137, 9.998236 
7.1516865e+2, 1.5442249e+2, -1284174.9, -1558342.4, 15645.059, 0.0362054, -0.08684581, -1283285.0, 143374.2, 0.0, 10.001796, 9.9981785 
7.1514934e+2, 1.6442022e+2, -1195355.3, -1503181.8, 85389.75, -0.0782514, -0.1127902, -1173255.1, 155428.66, 0.0, 10.001908, 9.997825 
7.1513236e+2, 1.7442031e+2, -1144393.4, -1432470.1, 72006.4, -0.080399975, 0.103282064, -1127397.6, 103289.65, 0.0, 10.001596, 9.997792 
7.1511483e+2, 1.8441921e+2, -1002578.75, -1232292.8, 5318.4155, -0.07221944, 0.18454467, -1002455.7, 130242.9, 0.0, 10.001547, 9.998515 
7.150964e+2, 1.9441648e+2, -851000.75, -1101934.8, 22969.1, -0.060837347, 0.037348606, -848915.6, 185805.27, 0.0, 10.0018835, 9.998576 
7.150784e+2, 2.0441425e+2, -825436.8, -1044591.1, 49823.914, -0.032588765, -0.03681756, -814641.3, 122098.45, 0.0, 10.001419, 9.998519 
7.150609e+2, 2.1441248e+2, -954014.5, -1054725.5, 76150.82, 0.014899902, -0.07882468, -913075.8, -74319.88, 0.0, 9.99986, 9.998528 
7.150434e+2, 2.2441126e+2, -929145.56, -956151.1, 86742.01, 0.03593755, -0.06368352, -854861.6, -114094.67, 0.0, 9.99919, 9.998858 
7.1502596e+2, 2.3441058e+2, -764665.2, -822183.56, 46194.563, 0.019166833, -0.035202887, -739009.0, -96236.08, 0.0, 9.999631, 9.998893 
7.150089e+2, 2.4440986e+2, -518543.6, -534455.1, 56347.715, 0.03603459, -0.04293566, -469592.78, 75184.305, 0.0, 10.000136, 9.999952 
7.149922e+2, 2.5440893e+2, -331142.03, -383963.72, 156788.86, 0.09004165, -0.15407348, -198555.14, 248225.31, 0.0, 10.000711, 10.000035 
7.149737e+2, 2.644079e+2, -450342.38, -713534.1, 69735.58, 0.0587857, -0.11886654, -433006.97, -84215.16, 0.0, 10.000615, 9.997146 
7.149526e+2, 2.7440658e+2, -521355.9, -715297.94, -21804.443, -0.072382055, 0.036641087, -518934.7, -268119.75, 0.000000020828322, 9.999531, 9.996982 
7.1493375e+2, 2.8440532e+2, -359033.56, -355509.0, -11274.478, -0.058435407, 0.11917727, -345859.9, -193028.4, 0.0000037854625, 9.998973, 9.999052 
7.1491736e+2, 2.9440403e+2, -261027.08, -242640.78, 25690.414, 0.10966586, 0.053523973, -224548.2, -169707.38, 0.000035842306, 9.998908, 9.999184 
7.1489835e+2, 3.044021e+2, -82269.086, -12177.006, -25618.453, 0.09580803, -0.10534153, -3811.8726, -3811.8726, 0.00013552581, 9.999295, 10.000242 
7.148771e+2, 3.144022e+2, -4813.7964, 26336.084, 32589.088, -0.06328534, -0.14063002, 46880.77, 46880.77, 0.00031572883, 9.999789, 10.000267 
7.252242e+2, 1.2444608e+2, -1313802.6, -1643379.6, 35910.133, -0.08099429, 0.05083315, -1309935.3, 410496.9, 0.0, 10.003213, 9.998954 
7.252064e+2, 1.3444653e+2, -1352669.4, -1549711.0, 68291.305, -0.057234682, 0.13639611, -1331315.0, 291110.47, 0.0, 10.002053, 9.999472 
7.2519094e+2, 1.4444497e+2, -1395512.1, -1629825.3, 22022.914, 0.20941241, 0.09154894, -1393460.3, 130979.14, 0.0, 10.001555, 9.998481 
7.251703e+2, 1.544419e+2, -1238826.0, -1500885.0, 18379.77, 0.021194493, -0.08198275, -1237543.3, 188926.25, 0.0, 10.001953, 9.998498 
7.25151e+2, 1.6444036e+2, -1197606.9, -1504137.0, 88781.414, -0.090510756, -0.050623998, -1173749.6, 154737.92, 0.0, 10.001877, 9.997842 
7.25134e+2, 1.7444064e+2, -1202801.4, -1457288.9, 106062.72, -0.049493134, 0.18344145, -1164394.1, 66097.47, 0.0, 10.001181, 9.997823 
7.2511625e+2, 1.8443964e+2, -1082626.0, -1250500.5, 97617.69, -0.043359168, 0.26318586, -1037820.56, 94682.15, 0.0, 10.000898, 9.998708 
7.250976e+2, 1.9443685e+2, -951959.6, -1127479.0, 90358.08, -0.08855834, 0.09118723, -913757.6, 120766.836, 0.0, 10.001084, 9.99879 
7.2507936e+2, 2.0443434e+2, -844696.2, -1036880.5, 72958.35, -0.06915736, -0.028647888, -820137.5, 116406.555, 0.0, 10.001205, 9.998682 
7.2506154e+2, 2.14432e+2, -745325.7, -938628.2, 58013.53, 0.03205878, -0.14363876, -729251.44, 109311.625, 0.0, 10.001211, 9.998682 
7.250437e+2, 2.2443059e+2, -695597.0, -899252.1, 120730.805, 0.06223484, -0.1335957, -639485.44, 101090.38, 0.0, 10.001036, 9.998361 
7.2502595e+2, 2.3443022e+2, -655625.6, -832715.1, 123513.41, 0.008968718, -0.01913804, -592197.56, 50384.258, 0.0, 10.0006485, 9.998334 
7.250089e+2, 2.4442953e+2, -508634.75, -506299.34, 100760.11, 0.028969271, -0.0018479022, -406700.2, 137886.2, 0.0, 10.000107, 10.000157 
7.2499263e+2, 2.5442836e+2, -503229.78, -438612.9, 21523.797, 0.12540795, -0.16313846, -432099.84, 14490.465, 0.0, 9.999406, 10.000288 
7.24974e+2, 2.6442745e+2, -599841.94, -799520.7, -60053.977, 0.08601611, -0.12517105, -583172.2, -234571.67, 0.0, 9.999659, 9.99701 
7.249526e+2, 2.7442667e+2, -298560.63, -624582.75, 8687.329, -0.10228418, 0.09861703, -298329.3, -47708.785, 0.000000011844985, 10.001137, 9.996828 
7.249335e+2, 2.844252e+2, -39936.02, -205911.55, 72402.8, -0.08122306, 0.17224689, -12791.438, 139848.11, 0.000004675658, 10.001198, 9.9990015 
7.2491723e+2, 2.944228e+2, -178634.23, -208399.61, 38359.953, 0.18093127, 0.0016206418, -152371.08, -97712.914, 0.000040333267, 9.999505, 9.999127 
7.24898e+2, 3.0442137e+2, -185365.34, -111338.1, -6669.1934, 0.16118391, -0.082845226, -110742.06, -110742.06, 0.00014552723, 9.998807, 9.999793 
7.2487676e+2, 3.1442156e+2, -117748.836, -77144.98, -47591.81, -0.03820479, -0.060822636, -45705.74, -45705.74, 0.0003309744, 9.99921, 9.999839 
7.352293e+2, 1.2446765e+2, -1428719.4, -1864149.4, 3961.3557, 0.08215833, 0.085822344, -1428683.4, 291527.16, 0.0, 10.003153, 9.9974575 
7.3520774e+2, 1.344627e+2, -1461914.8, -1777608.0, 24704.732, -0.13762088, -0.21464914, -1459993.1, 162268.48, 0.0, 10.002055, 9.997908 
7.35191e+2, 1.444607e+2, -1383092.5, -1598153.3, 28726.066, 0.04596183, -0.23483244, -1379321.6, 144962.4, 0.0, 10.001539, 9.998699 
7.351716e+2, 1.5446237e+2, -1218364.8, -1462815.4, 43805.043, -0.06070153, 0.03720673, -1210752.0, 215518.98, 0.0, 10.001973, 9.998747 
7.3515314e+2, 1.6446243e+2, -1155291.6, -1416467.5, 56859.945, -0.08443418, 0.18637405, -1143449.8, 184823.95, 0.0, 10.001878, 9.998441 
7.351363e+2, 1.7446038e+2, -1159004.3, -1365429.3, 86320.24, 0.046755195, 0.12454082, -1127665.6, 102630.75, 0.0, 10.001175, 9.998457 
7.351184e+2, 1.844587e+2, -1084801.8, -1247576.9, 97807.086, 0.065265425, 0.101843275, -1038948.75, 93364.56, 0.0, 10.000868, 9.998742 
7.350991e+2, 1.9445731e+2, -962439.7, -1133163.8, 103864.47, -0.065798104, 0.06989759, -913360.25, 120964.35, 0.0, 10.00102, 9.998778 
7.350804e+2, 2.0445564e+2, -866145.94, -1065855.3, 67269.83, -0.08837327, 0.042716857, -845600.5, 90737.414, 0.0, 10.001135, 9.998517 
7.350627e+2, 2.1445347e+2, -765047.0, -963868.2, 65146.543, 0.019589994, -0.04098826, -745602.44, 92753.016, 0.0, 10.001146, 9.998536 
7.350447e+2, 2.2445165e+2, -696620.2, -886039.56, 99482.54, 0.04797842, -0.07090684, -653973.75, 86396.89, 0.0, 10.000968, 9.998486 
7.350263e+2, 2.3445003e+2, -657065.44, -815596.3, 115636.62, -0.028277725, -0.09556579, -596135.1, 46249.598, 0.0, 10.000562, 9.998493 
7.350084e+2, 2.4444863e+2, -646237.2, -777422.6, 69569.77, -0.045637775, -0.07187827, -616214.25, -71815.95, 0.0, 10.000045, 9.998325 
7.3499095e+2, 2.5444734e+2, -652925.9, -730206.3, 1451.587, 0.005745536, -0.05085228, -652898.6, -206485.73, 0.0, 9.999327, 9.998323 
7.349727e+2, 2.6444638e+2, -470867.5, -520477.66, -13770.52, -0.01941902, -0.0020297843, -467301.47, -118877.91, 0.0, 9.99961, 9.99895 
7.3495364e+2, 2.7444568e+2, -152707.36, -311666.63, 75381.59, -0.12766995, 0.0118013, -122645.234, 127786.625, 0.000000051096855, 10.001095, 9.998999 
7.3493457e+2, 2.844443e+2, -78181.5, -287995.97, 9610.146, -0.1139466, 0.0053537935, -77742.24, 74703.61, 0.0000058850314, 10.001205, 9.998434 
7.349153e+2, 2.9444212e+2, -241740.0, -325560.63, -14593.116, 0.023560807, -0.07368646, -239272.02, -184804.88, 0.000044056193, 9.999445, 9.998351 
7.3489547e+2, 3.044415e+2, -287795.75, -320127.0, 3742.2979, 0.009017761, 0.03706391, -287368.25, -287368.25, 0.00015023218, 9.998784, 9.998373 
7.348765e+2, 3.144414e+2, -199218.19, -224637.63, -20937.057, -0.02249231, 0.16998371, -187435.11, -187435.11, 0.0003328002, 9.999116, 9.998871 
7.4523187e+2, 1.2448655e+2, -1828660.4, -2038136.5, -48229.355, 0.17576708, 0.0031660222, -1818089.6, -98065.836, 0.0, 10.0003395, 9.997607 
7.4520904e+2, 1.3448218e+2, -1506868.9, -1780972.4, 37236.49, -0.18840331, -0.25259897, -1501900.4, 120169.17, 0.0, 10.001685, 9.9980545 
7.451916e+2, 1.4448082e+2, -1313679.6, -1564105.3, 98681.95, -0.06424584, -0.21648003, -1279467.3, 244619.33, 0.0, 10.002008, 9.998707 
7.451727e+2, 1.5448257e+2, -1324070.8, -1511453.4, 76083.88, -0.1086048, 0.06182421, -1297069.0, 129005.48, 0.0, 10.001242, 9.998761 
7.451545e+2, 1.6448258e+2, -1248981.9, -1416484.8, 91595.66, -0.09114974, 0.18605874, -1208620.3, 119456.836, 0.0, 10.001036, 9.998852 
7.451377e+2, 1.7448024e+2, -1076501.5, -1275909.3, 94313.51, 0.058012675, 0.051786657, -1038961.44, 191138.13, 0.0, 10.00152, 9.998909 
7.451197e+2, 1.8447872e+2, -1044967.94, -1245968.1, 87965.41, 0.09860808, 0.028652754, -1011908.4, 120206.23, 0.0, 10.001223, 9.998582 
7.451e+2, 1.9447796e+2, -1129102.8, -1236545.4, 66808.266, -0.010168239, 0.08170009, -1097095.9, -62973.17, 0.0, 9.999972, 9.998576 
7.4508154e+2, 2.0447657e+2, -1063341.6, -1196721.1, 75686.58, -0.029650752, 0.105902284, -1029155.25, -93019.23, 0.0, 9.999941, 9.998189 
7.4506444e+2, 2.1447422e+2, -751991.06, -997497.4, 49997.8, 0.06645382, 0.040874753, -742199.44, 95957.586, 0.0, 10.001409, 9.99818 
7.450465e+2, 2.2447215e+2, -565358.9, -827222.56, 35906.426, 0.08490218, 0.008595421, -560524.7, 179649.84, 0.0, 10.001892, 9.998443 
7.4502736e+2, 2.3447026e+2, -573841.4, -777199.75, 20627.951, -0.004397014, -0.043488696, -571770.0, 70419.42, 0.0, 10.001138, 9.99848 
7.450088e+2, 2.4446845e+2, -565178.44, -804890.7, 41500.027, -0.044626817, -0.033992395, -558197.1, -13989.996, 0.0, 10.000886, 9.997735 
7.44991e+2, 2.5446656e+2, -403863.38, -681532.94, 59978.28, -0.018513046, -0.0057403236, -391461.63, 54768.07, 0.0, 10.001339, 9.997693 
7.44973e+2, 2.6446536e+2, -222945.8, -329275.6, 72987.086, -0.016910763, 0.019008135, -185813.3, 162429.23, 0.0, 10.000997, 9.9995985 
7.449549e+2, 2.744648e+2, -303065.34, -301808.53, 40036.44, -0.033680126, -0.02615986, -262395.56, -12150.213, 0.00000017449423, 9.999704, 9.999736 
7.449356e+2, 2.844639e+2, -337039.28, -406565.72, -66881.21, -0.041316137, -0.024621228, -296426.25, -144172.98, 0.0000070145306, 9.999407, 9.998484 
7.449144e+2, 2.9446262e+2, -102788.39, -255184.89, -49051.62, -0.05032079, -0.014252832, -88365.26, -34097.43, 0.00004543542, 10.000388, 9.998378 
7.448943e+2, 3.0446213e+2, -59279.563, -246014.38, 60508.797, -0.05792591, 0.12001539, -41386.97, -41386.97, 0.00014809403, 10.000509, 9.998056 
7.4487716e+2, 3.1446087e+2, -153923.73, -184453.5, 86613.06, 0.12171516, 0.17322479, -81240.69, -81240.69, 0.00032277982, 9.999354, 9.999033 
7.552317e+2, 1.2450304e+2, -1708831.6, -1797126.4, 7523.9985, 0.08679033, -0.19182038, -1708195.0, 11673.221, 0.0, 10.000378, 9.999239 
7.5521004e+2, 1.3450469e+2, -1390203.8, -1540294.6, 89912.16, -0.2752961, -0.014541226, -1348133.8, 273718.1, 0.0, 10.001695, 9.999699 
7.5519264e+2, 1.4450495e+2, -1332300.0, -1597458.1, 63462.66, -0.17946847, 0.11092169, -1317893.6, 205957.42, 0.0, 10.001983, 9.998493 
7.5517327e+2, 1.5450257e+2, -1343534.5, -1549701.1, 53688.746, -0.19229494, 0.0049399245, -1330391.1, 95487.99, 0.0, 10.00123, 9.998507 
7.5515485e+2, 1.6450098e+2, -1232690.6, -1379517.6, 99606.21, -0.17510757, -0.03132194, -1182366.8, 145529.33, 0.0, 10.001023, 9.99911 
7.5513804e+2, 1.7450026e+2, -1063228.6, -1243871.3, 118124.664, -0.07133628, -0.029241223, -1004851.0, 225049.45, 0.0, 10.001503, 9.999137 
7.5512004e+2, 1.8449962e+2, -1071884.0, -1295194.8, 35924.953, -0.0010710402, 0.04032784, -1066246.9, 65660.125, 0.0, 10.001193, 9.998259 
7.5510037e+2, 1.9449882e+2, -1159875.9, -1288882.6, 26016.262, 0.010275629, 0.12443585, -1154826.9, -120908.21, 0.0, 9.999926, 9.998238 
7.550823e+2, 2.0449714e+2, -1107082.9, -1279379.0, 118938.96, 0.04615919, 0.1656733, -1046370.56, -110432.72, 0.0, 9.9999, 9.997645 
7.5506645e+2, 2.1449427e+2, -803074.75, -1080941.0, 111912.414, 0.115488745, 0.10127436, -763607.2, 74360.04, 0.0, 10.001315, 9.997652 
7.5504875e+2, 2.2449222e+2, -594617.5, -864416.3, 6978.195, 0.113836944, 0.10653828, -594437.2, 145549.4, 0.0, 10.001792, 9.998237 
7.550288e+2, 2.3449096e+2, -600410.75, -812471.6, 1152.1298, 0.015187335, 0.14079183, -600404.5, 41590.76, 0.0, 10.001057, 9.998277 
7.5500995e+2, 2.4448904e+2, -527407.0, -717082.2, 49832.793, -0.03383357, 0.12064987, -515111.6, 28900.406, 0.0, 10.000844, 9.998358 
7.549924e+2, 2.5448605e+2, -363036.66, -586274.1, 83615.24, -0.020034606, -0.030751858, -335191.25, 110849.57, 0.0, 10.001291, 9.99837 
7.5497454e+2, 2.6448435e+2, -273561.34, -424807.0, 22687.59, 0.022782763, -0.06155931, -270231.4, 77825.88, 0.0, 10.00096, 9.998959 
7.549562e+2, 2.7448404e+2, -368280.4, -415961.47, 312.83734, 0.108557016, -0.0073828925, -368278.38, -118217.79, 0.0000002213921, 9.999619, 9.998993 
7.549363e+2, 2.844841e+2, -295376.38, -311127.94, -40450.69, 0.07785569, 0.09474966, -262041.89, -109980.76, 0.000006961638, 9.999363, 9.999165 
7.5491434e+2, 2.944844e+2, -54615.742, -146285.6, -2737.4648, -0.11191587, 0.19063987, -54534.066, -473.9079, 0.00004401986, 10.000341, 9.999155 
7.5489444e+2, 3.0448312e+2, -6218.7866, -121122.945, 20226.543, -0.11562613, 0.16552188, -2762.2915, -2762.2915, 0.0001416952, 10.000461, 9.99893 
7.5487816e+2, 3.144798e+2, -73722.53, 3328.3123, 55824.81, 0.25503588, -0.081725135, 32630.74, 32630.74, 0.00030697437, 9.999272, 10.000359 
7.65232e+2, 1.2452309e+2, -1452114.5, -1603695.5, 101062.266, 0.024889491, -0.105424084, -1401581.0, 318096.5, 0.0, 10.001801, 9.99989 
7.6521146e+2, 1.3452554e+2, -1477828.8, -1522686.5, 57635.953, -0.2437087, 0.09442873, -1438411.4, 183239.69, 0.0, 10.000806, 10.000256 
7.651943e+2, 1.4452611e+2, -1589891.4, -1729869.3, 7170.057, -0.117168315, 0.22159526, -1589525.0, -65878.586, 0.0, 10.000247, 9.998421 
7.6517487e+2, 1.5452279e+2, -1447511.0, -1615043.3, -7180.139, -0.11740932, 0.03486118, -1447203.8, -21520.129, 0.0, 10.000573, 9.998382 
7.651561e+2, 1.6452089e+2, -1288536.1, -1399178.3, 61629.09, -0.122964375, -0.03005311, -1261040.8, 66662.78, 0.0, 10.000611, 9.999175 
7.651387e+2, 1.7452057e+2, -1237186.1, -1317740.0, 53976.22, -0.093252406, 0.0036495442, -1210115.8, 19587.234, 0.0, 10.00027, 9.999223 
7.6512057e+2, 1.8451992e+2, -1169625.3, -1359936.9, -18677.926, -0.03495968, 0.07409031, -1167809.5, -36100.125, 0.0, 10.000597, 9.998101 
7.6510143e+2, 1.9451864e+2, -912215.4, -1190474.4, -28439.91, 0.0435238, 0.12748173, -909338.4, 124388.01, 0.0, 10.001709, 9.998057 
7.650836e+2, 2.045169e+2, -819065.94, -1142475.5, 113337.43, 0.086873546, 0.17174083, -783302.25, 152444.64, 0.0, 10.00189, 9.997626 
7.650673e+2, 2.1451437e+2, -857248.56, -1110944.9, 131109.9, 0.08977935, 0.14377972, -801667.9, 36105.867, 0.0, 10.000952, 9.997625 
7.6504964e+2, 2.245124e+2, -773619.3, -942987.44, 50344.16, 0.09172189, 0.15537241, -759784.7, -19991.988, 0.0, 10.000536, 9.998299 
7.650303e+2, 2.3451099e+2, -638645.25, -824426.56, 48998.72, 0.084911235, 0.16729593, -626514.25, 15288.822, 0.0, 10.00077, 9.99833 
7.6501155e+2, 2.445092e+2, -560010.7, -705189.3, 108889.97, 0.06021777, 0.1475285, -501732.75, 42085.477, 0.0, 10.000503, 9.998605 
7.6499325e+2, 2.5450683e+2, -588743.75, -662962.94, 98938.19, 0.015217692, 0.032708507, -520184.56, -74344.24, 0.0, 9.999615, 9.998649 
7.649747e+2, 2.6450527e+2, -517149.66, -552152.1, 44694.89, 0.032556858, 0.0068147997, -486651.66, -138796.89, 0.0, 9.999333, 9.998869 
7.649561e+2, 2.7450454e+2, -353344.0, -419200.2, 53208.633, 0.14004563, 0.029549174, -323698.8, -73837.26, 0.00000016204108, 9.999769, 9.998897 
7.649364e+2, 2.8450426e+2, -201032.44, -272662.28, 62345.773, 0.12672019, 0.108239286, -164946.7, -13081.752, 0.000006290961, 10.000035, 9.999105 
7.6491517e+2, 2.9450434e+2, -99263.03, -169510.9, 26804.883, -0.04603498, 0.18539838, -90203.34, -36336.902, 0.000041719115, 10.000045, 9.999134 
7.6489514e+2, 3.045028e+2, -243.40851, -73977.22, -14855.967, -0.07091286, 0.111338004, 2637.2454, 2637.2454, 0.00013461517, 10.000311, 9.999325 
7.6487786e+2, 3.145007e+2, 154911.77, 160608.38, -49998.65, 0.23872209, -0.049273714, 207839.78, 207839.78, 0.00029000925, 10.000646, 10.000774 
7.7523255e+2, 1.24546364e+2, -1477394.8, -1638140.5, 58450.76, -0.14849778, 0.23036382, -1458388.1, 261066.48, 0.00000000003061157, 10.00173, 9.999687 
7.7521324e+2, 1.3454491e+2, -1503720.3, -1576525.0, 20017.14, -0.16886188, 0.081814766, -1498579.6, 122886.04, 0.0, 10.000809, 9.999884 
7.751963e+2, 1.4454456e+2, -1583904.0, -1721838.3, 6328.225, 0.041316297, 0.13100824, -1583614.3, -60144.277, 0.0, 10.000262, 9.998473 
7.751772e+2, 1.5454334e+2, -1440148.5, -1607492.4, 12543.326, 0.04270919, 0.15167159, -1439213.5, -13726.08, 0.0, 10.000602, 9.998423 
7.7515805e+2, 1.6454229e+2, -1296785.0, -1413344.5, 43436.395, -0.0037625427, 0.17579642, -1282378.8, 45120.668, 0.0, 10.0006, 9.999082 
7.7513933e+2, 1.745412e+2, -1243258.3, -1328332.0, 49855.574, -0.0725036, 0.14134213, -1220259.1, 9247.486, 0.0, 10.00026, 9.999154 
7.75121e+2, 1.8453972e+2, -1175881.9, -1363780.6, 15488.158, -0.06645607, 0.13204631, -1174613.8, -43093.125, 0.0, 10.000555, 9.998097 
7.7510315e+2, 1.945376e+2, -921518.94, -1193973.1, 20642.04, 0.02439718, 0.10006645, -919963.9, 113580.27, 0.0, 10.00164, 9.998068 
7.7508503e+2, 2.0453592e+2, -800747.4, -1083525.3, 74420.01, 0.030324252, 0.12908733, -782357.8, 153204.53, 0.0, 10.001799, 9.998076 
7.7506673e+2, 2.1453458e+2, -837221.56, -1047972.75, 102145.79, -0.07058378, 0.1728405, -795839.6, 41736.516, 0.0, 10.000863, 9.998098 
7.75049e+2, 2.2453278e+2, -765926.7, -905665.4, 49592.703, -0.0441786, 0.16330919, -750115.44, -10522.928, 0.0, 10.000444, 9.998601 
7.750318e+2, 2.3453021e+2, -630004.9, -785984.8, 64440.492, 0.13680883, 0.03114461, -606826.6, 34787.4, 0.0, 10.000682, 9.998636 
7.7501327e+2, 2.4452889e+2, -579185.44, -727606.56, 69782.91, 0.1711799, 0.04568769, -551529.1, -7902.8945, 0.0, 10.000429, 9.9984865 
7.7499306e+2, 2.545289e+2, -608161.9, -689037.2, 72971.12, 0.026610976, 0.18526432, -565173.0, -119544.63, 0.0, 9.999554, 9.9985 
7.7497345e+2, 2.6452813e+2, -490339.6, -488724.44, 53812.53, -0.042577334, 0.22403267, -435713.4, -88078.47, 0.0, 9.999296, 9.999324 
7.7495444e+2, 2.745262e+2, -325024.34, -350578.38, 77919.4, -0.014554535, 0.08083075, -258841.33, -9192.484, 0.00000014054619, 9.999722, 9.999395 
7.749356e+2, 2.8452435e+2, -261827.22, -387375.7, 58359.98, 0.027068155, 0.0089838365, -238889.77, -87224.195, 0.0000059856334, 9.9999895, 9.998337 
7.7491665e+2, 2.9452226e+2, -161725.53, -293855.47, 35823.69, 0.076966174, -0.04920166, -152637.88, -98949.13, 0.0000396548, 10.000019, 9.998293 
7.7489644e+2, 3.0452093e+2, -12434.754, -92316.6, -3982.796, 0.014500787, -0.04842908, -12236.668, -12236.668, 0.00012692052, 10.000281, 9.999213 
7.748756e+2, 3.1452364e+2, 108276.555, 76435.96, -21734.549, -0.088702, 0.2819302, 119297.8, 119297.8, 0.00027213217, 10.000581, 10.000233 
7.8523284e+2, 1.2456593e+2, -1751157.8, -1802019.4, 55456.867, -0.18751687, 0.23575336, -1715578.8, 3681.0986, 0.0000000009851104, 9.999997, 9.9993925 
7.852143e+2, 1.345634e+2, -1614754.9, -1682586.4, -31419.725, -0.11335311, 0.02635405, -1602437.8, 18847.205, 0.0, 10.000288, 9.9994 
7.85197e+2, 1.4456312e+2, -1515474.1, -1627458.0, 4689.2573, 0.08551914, 0.082662374, -1515278.1, 8010.9043, 0.0, 10.000467, 9.999021 
7.851776e+2, 1.5456317e+2, -1396233.8, -1520703.4, 38226.844, 0.030331431, 0.16907634, -1385431.1, 39860.273, 0.0, 10.0006275, 9.999002 
7.8515846e+2, 1.6456258e+2, -1310840.9, -1445864.8, 79294.336, -0.018170899, 0.22227858, -1274211.3, 53087.258, 0.0, 10.00062, 9.99884 
7.8514004e+2, 1.7456105e+2, -1251545.8, -1363029.9, 53299.926, -0.024538446, 0.16886361, -1230164.1, -850.77185, 0.0, 10.000343, 9.998868 
7.8512204e+2, 1.8455935e+2, -1205493.6, -1361613.4, 62876.547, 0.0036437726, 0.14519604, -1183319.8, -51989.285, 0.0, 10.000283, 9.998242 
7.851045e+2, 1.9455723e+2, -1090696.5, -1255402.6, 68648.805, 0.06726716, 0.09843916, -1065836.3, -32484.203, 0.0, 10.0004, 9.99824 
7.8508645e+2, 2.0455576e+2, -939790.4, -1098095.5, 109901.34, 0.054471068, 0.11815006, -883505.0, 51861.793, 0.0, 10.000624, 9.998537 
7.8506774e+2, 2.1455494e+2, -807704.3, -981909.0, 121805.2, -0.049783174, 0.1647029, -745062.44, 92312.3, 0.0, 10.000847, 9.998557 
7.850497e+2, 2.2455345e+2, -677088.9, -853487.44, 93779.086, -0.03221016, 0.16034849, -636549.56, 102838.8, 0.0, 10.001006, 9.998691 
7.850325e+2, 2.3455107e+2, -569357.4, -749093.44, 79563.41, 0.13150851, 0.039237283, -539197.94, 102212.35, 0.0, 10.001063, 9.998708 
7.85014e+2, 2.4454994e+2, -478738.9, -664329.8, 75464.24, 0.17358929, 0.063598536, -451927.3, 91494.01, 0.0, 10.001061, 9.998609 
7.8499365e+2, 2.5455013e+2, -389989.47, -571768.5, 81923.945, 0.06707623, 0.20638393, -358517.06, 86903.74, 0.0, 10.000997, 9.998606 
7.8497386e+2, 2.6454934e+2, -270657.03, -379627.06, 88595.1, 0.004641887, 0.23777838, -221133.84, 126293.484, 0.0, 10.000792, 9.999353 
7.8495467e+2, 2.7454725e+2, -218211.31, -296137.44, 64746.82, 0.00076908956, 0.074471146, -181608.05, 67835.8, 0.0000001311964, 10.000441, 9.999423 
7.849356e+2, 2.845454e+2, -199067.83, -321987.47, 78438.125, 0.025205098, -0.014656217, -160879.03, -9419.538, 0.0000058891046, 10.00027, 9.998652 
7.849168e+2, 2.9454362e+2, -110296.11, -230414.47, 129534.74, 0.08777622, -0.068108656, -27574.502, 25901.137, 0.000037489564, 10.0002165, 9.998632 
7.848967e+2, 3.0454248e+2, -77185.1, -164843.75, 139021.86, 0.028990107, -0.05093303, 24752.813, 24752.813, 0.00011865352, 9.99999, 9.998861 
7.848757e+2, 3.1454492e+2, -120853.31, -121191.63, 70009.3, -0.070550695, 0.2861304, -51012.965, -51012.965, 0.0002544846, 9.999363, 9.999463 
7.952327e+2, 1.2458232e+2, -1775330.6, -1864888.4, 53777.297, -0.24118295, -0.055653084, -1750129.9, -31041.328, 0.0000000034592607, 10.000055, 9.998936 
7.952144e+2, 1.3458121e+2, -1647215.4, -1759037.8, -18154.06, -0.14379773, -0.06738083, -1644342.0, -23234.346, 0.0, 10.000332, 9.998852 
7.951964e+2, 1.4458191e+2, -1444782.9, -1481421.6, 2389.367, -0.044051256, 0.06884495, -1444627.8, 78475.51, 0.0, 10.000469, 10.000022 
7.9517597e+2, 1.5458235e+2, -1317159.6, -1359255.0, 53005.18, -0.21375163, 0.0830178, -1281176.1, 143919.17, 0.0, 10.000636, 10.000105 
7.951572e+2, 1.6458188e+2, -1346598.0, -1513335.6, 62304.387, -0.22309591, 0.11248251, -1325889.0, 1211.401, 0.0, 10.000587, 9.998397 
7.951407e+2, 1.745802e+2, -1284191.0, -1436171.3, 48584.3, -0.009254739, 0.09522565, -1269987.3, -40864.953, 0.0, 10.0003605, 9.998361 
7.9512346e+2, 1.8457879e+2, -1190423.3, -1322719.8, 59985.31, 0.10690502, 0.11493519, -1167275.3, -36136.492, 0.0, 10.000249, 9.998526 
7.9510534e+2, 1.9457753e+2, -1071303.4, -1207988.8, 80175.24, 0.09414446, 0.11820839, -1034295.25, -1144.7361, 0.0, 10.000367, 9.998579 
7.950875e+2, 2.0457645e+2, -919852.06, -1036819.94, 110422.31, 0.08948879, 0.1353296, -853382.2, 81778.305, 0.0, 10.000539, 9.999001 
7.950701e+2, 2.1457535e+2, -785880.1, -918287.94, 136592.63, 0.09094692, 0.110387966, -700293.06, 136877.4, 0.0, 10.000769, 9.999031 
7.9505175e+2, 2.2457445e+2, -700364.5, -878796.44, 90331.8, 0.06384466, 0.14318687, -662618.56, 76561.73, 0.0, 10.000906, 9.998565 
7.950324e+2, 2.3457362e+2, -590546.3, -776888.2, 89941.61, 0.0021706638, 0.19320938, -554217.0, 86974.28, 0.0, 10.000988, 9.998554 
7.950134e+2, 2.4457237e+2, -464365.56, -619434.5, 65948.07, 0.0012335976, 0.19894747, -440112.28, 103090.87, 0.0, 10.000998, 9.998949 
7.9499483e+2, 2.5457045e+2, -376242.1, -525325.1, 85328.836, 0.070132695, 0.09460896, -337481.16, 107736.92, 0.0, 10.000919, 9.998962 
7.949758e+2, 2.6456887e+2, -302984.16, -438900.03, 69617.06, 0.10868685, 0.045337666, -273654.8, 73577.5, 0.0, 10.000753, 9.998966 
7.9495645e+2, 2.7456754e+2, -254712.4, -365893.44, 61365.383, 0.115883134, 0.0030845238, -227501.86, 21745.566, 0.000000103459534, 10.00041, 9.998961 
7.9493636e+2, 2.845674e+2, -103080.26, -117096.98, 71573.24, 0.056616645, 0.044865105, -38173.066, 113072.96, 0.0000054454867, 10.000247, 10.000071 
7.949153e+2, 2.945686e+2, -13303.364, -15922.915, 141209.5, -0.09936429, 0.13504054, 126602.43, 179828.13, 0.00003447301, 10.000156, 10.000137 
7.9489547e+2, 3.0456746e+2, -124306.88, -251353.47, 116113.03, -0.1051417, 0.09706578, -55476.69, -55476.69, 0.0001104858, 9.999945, 9.998286 
7.9487777e+2, 3.145642e+2, -212332.6, -293129.94, 67254.37, 0.1604513, -0.0636499, -174276.17, -174276.17, 0.000240168, 9.999284, 9.998322 
8.052331e+2, 1.24599785e+2, -1781781.9, -1831546.5, 49440.71, -0.19065936, -0.18770258, -1751315.1, -32401.623, 0.0000000057252847, 9.999866, 9.999266 
8.0521446e+2, 1.3459998e+2, -1647252.1, -1742383.6, 5917.1465, -0.16281857, -0.08125774, -1646885.5, -25965.123, 0.0, 10.000252, 9.999022 
8.051962e+2, 1.4460093e+2, -1446515.0, -1439574.3, 33219.008, -0.09069684, 0.050856058, -1409644.9, 113268.1, 0.0, 10.000282, 10.000398 
8.0517685e+2, 1.5460066e+2, -1375922.0, -1349819.1, 9663.546, -0.14939922, -0.039228857, -1346631.0, 78277.92, 0.0, 10.0000725, 10.000443 
8.051585e+2, 1.6460021e+2, -1409039.9, -1547827.4, 24867.504, -0.1227939, -0.025730327, -1404718.8, -77805.09, 0.0, 10.000175, 9.998365 
8.0514157e+2, 1.7459936e+2, -1259196.3, -1430653.0, 31363.914, 0.033255167, 0.050032992, -1253639.1, -24709.328, 0.0, 10.000566, 9.998303 
8.051241e+2, 1.8459837e+2, -1076472.8, -1232014.3, 72967.66, 0.11854158, 0.09875418, -1047601.25, 83341.82, 0.0, 10.000883, 9.998838 
8.051061e+2, 1.9459704e+2, -956829.56, -1121961.6, 77773.66, 0.10615918, 0.063083366, -925967.7, 106987.21, 0.0, 10.001022, 9.998858 
8.0508846e+2, 2.0459606e+2, -858123.2, -977332.94, 98862.16, 0.11695554, 0.064689375, -802287.75, 132675.94, 0.0, 10.000834, 9.999268 
8.050712e+2, 2.1459529e+2, -855683.44, -922194.5, 93222.34, 0.15711765, 0.04761485, -789962.5, 47008.586, 0.0, 10.000166, 9.999293 
8.050527e+2, 2.2459494e+2, -832724.6, -913495.56, 74516.32, 0.12172885, 0.11001009, -788353.56, -49377.37, 0.0, 9.999874, 9.99882 
8.0503273e+2, 2.3459496e+2, -726087.8, -813391.44, 92559.945, -0.007625734, 0.21649714, -667402.8, -26423.012, 0.0, 9.99994, 9.998805 
8.050136e+2, 2.4459375e+2, -593650.8, -644824.8, 92989.805, -0.022206789, 0.19756982, -522791.97, 20198.709, 0.0, 9.999942, 9.999289 
8.049955e+2, 2.5459093e+2, -505914.38, -549965.5, 96925.3, 0.10268807, -0.029889692, -428543.56, 16468.672, 0.0, 9.999858, 9.999311 
8.0497664e+2, 2.6458952e+2, -414753.47, -514974.16, 109412.16, 0.15290113, -0.071705736, -344522.38, 2502.9243, 0.0, 10.000077, 9.998769 
8.04957e+2, 2.7458954e+2, -234217.81, -377530.38, 104135.44, 0.12423843, 0.04187589, -179466.77, 69563.67, 0.00000004701224, 10.00064, 9.998768 
8.0493665e+2, 2.8458983e+2, -21530.82, -51565.41, 82163.02, 0.0464686, 0.123756714, 46976.027, 198002.13, 0.000004093495, 10.000698, 10.000301 
8.049155e+2, 2.9459032e+2, 19403.84, 30592.348, 38878.46, -0.09785543, 0.11957611, 64276.977, 117287.88, 0.000029631305, 10.000252, 10.000405 
8.048959e+2, 3.045891e+2, -50730.793, -216515.61, 12324.997, -0.07528146, 0.05912074, -49819.52, -49819.52, 0.00010221737, 10.0004635, 9.998284 
8.048787e+2, 3.1458437e+2, 70130.734, -147092.95, -6309.4404, 0.24344428, -0.24492665, 70313.84, 70313.84, 0.00023173615, 10.001204, 9.998403 
8.1523335e+2, 1.2461845e+2, -1703839.3, -1686683.8, 46413.56, -0.18701562, -0.16122612, -1648062.0, 70670.84, 0.000000004999778, 9.999943, 10.000218 
8.1521404e+2, 1.3461977e+2, -1579013.8, -1608405.3, 25639.941, -0.2434049, -0.034081753, -1564156.6, 56566.625, 0.0, 10.000292, 9.999915 
8.1519634e+2, 1.4462025e+2, -1471273.4, -1493829.1, 19068.934, -0.12643859, 0.025377927, -1460396.9, 62320.594, 0.0, 10.000291, 10.000025 
8.1518006e+2, 1.5461822e+2, -1397389.6, -1404949.1, 10977.242, 0.13838002, -0.19807662, -1389559.6, 35171.44, 0.0, 10.000114, 10.000048 
8.15162e+2, 1.6461763e+2, -1385079.3, -1500194.8, 30843.986, 0.19487153, -0.19298115, -1377335.9, -50598.74, 0.0, 10.000184, 9.998687 
8.151423e+2, 1.7461854e+2, -1232364.1, -1375272.9, 53497.746, 0.03301099, 0.019395458, -1214556.3, 14179.435, 0.0, 10.000565, 9.998684 
8.1512374e+2, 1.8461809e+2, -1066827.3, -1198062.6, 74452.45, -0.020473918, 0.088208415, -1033203.6, 97539.945, 0.0, 10.000822, 9.999103 
8.1510663e+2, 1.9461578e+2, -944992.56, -1088022.9, 91904.984, 0.03864667, -0.06809964, -900056.25, 132708.17, 0.0, 10.000977, 9.999114 
8.150889e+2, 2.0461467e+2, -873597.1, -985096.4, 68470.55, 0.0743084, -0.09289754, -841050.5, 93724.945, 0.0, 10.00073, 9.999266 
8.1507075e+2, 2.1461478e+2, -865788.4, -926049.94, 75551.586, 0.08685299, -0.024490697, -814580.94, 22195.451, 0.0, 10.000088, 9.999306 
8.150522e+2, 2.2461496e+2, -803557.5, -827824.0, 69123.42, 0.07578375, 0.059612844, -745510.56, -6734.4575, 0.0, 9.999768, 9.999459 
8.150332e+2, 2.3461503e+2, -691374.6, -721776.0, 102163.55, 0.030543696, 0.10441071, -603287.1, 37489.246, 0.0, 9.999856, 9.999475 
8.1501424e+2, 2.44614e+2, -578116.44, -599720.94, 82743.234, 0.033469986, 0.05253838, -505473.3, 37311.215, 0.0, 9.999882, 9.99963 
8.149954e+2, 2.546116e+2, -490385.0, -508920.16, 100396.164, 0.09905958, -0.16417374, -398829.56, 45973.523, 0.0, 9.999813, 9.9996195 
8.149761e+2, 2.6461133e+2, -416947.88, -507291.66, 124493.76, 0.074712574, -0.11088255, -329684.13, 17121.754, 0.0, 10.000032, 9.99884 
8.1495595e+2, 2.7461332e+2, -245566.05, -376636.1, 134923.52, -0.05381506, 0.19371997, -161103.77, 87688.6, 0.000000004527389, 10.000544, 9.998817 
8.149362e+2, 2.8461257e+2, -94353.28, -200687.7, 59148.12, -0.07864632, 0.21846472, -67989.03, 82811.46, 0.0000024308686, 10.000677, 9.999292 
8.14917e+2, 2.9460868e+2, -62659.984, -137697.88, 29101.213, 0.019142982, -0.12062797, -52696.81, 136.8308, 0.00002455122, 10.000232, 9.999266 
8.148977e+2, 3.046073e+2, -8033.0356, -121074.59, 36321.996, 0.050672457, -0.16031905, 2631.644, 2631.644, 0.00009685274, 10.000444, 9.998939 
8.148779e+2, 3.1460544e+2, 136869.72, 18346.639, 40781.625, 0.009910113, -0.26007327, 149546.14, 149546.14, 0.00023258898, 10.001096, 9.999587 
8.2523364e+2, 1.2463924e+2, -1528110.8, -1629557.9, 180635.89, -0.21109542, -0.09419877, -1391211.8, 327314.84, 0.0000000017683296, 10.0012455, 9.999978 
8.252157e+2, 1.3463941e+2, -1527935.3, -1624433.8, 50396.12, -0.12868215, -0.050618365, -1506415.1, 114111.59, 0.0, 10.000804, 9.999558 
8.251978e+2, 1.4463921e+2, -1465168.0, -1523314.1, 19625.26, -0.0064586657, -0.029047685, -1459164.1, 63363.6, 0.0, 10.000477, 9.999729 
8.2518053e+2, 1.5463743e+2, -1376179.9, -1428298.8, 5261.608, 0.1711607, -0.19809951, -1375654.0, 48886.61, 0.0, 10.000413, 9.999737 
8.251623e+2, 1.6463673e+2, -1318465.4, -1413943.5, 60862.918, 0.19912958, -0.20877409, -1288852.5, 37694.418, 0.0, 10.000415, 9.999158 
8.251432e+2, 1.7463724e+2, -1212056.4, -1314007.5, 76964.914, 0.0798109, -0.087601766, -1170716.6, 57830.133, 0.0, 10.000479, 9.999144 
8.251247e+2, 1.8463711e+2, -1140169.6, -1187528.8, 98780.57, 0.032984905, -0.028089492, -1062270.0, 68280.15, 0.0, 10.00013, 9.999505 
8.2510686e+2, 1.9463602e+2, -1173953.5, -1151643.1, 109472.69, 0.061367813, -0.103827134, -1052758.8, -20198.432, 0.0, 9.999221, 9.999515 
8.250888e+2, 2.0463532e+2, -1066603.5, -1067121.8, 134699.94, 0.067785375, -0.113194, -932162.4, 2405.3823, 0.0, 9.999357, 9.999358 
8.2507074e+2, 2.14635e+2, -784740.9, -879089.25, 134365.45, 0.05704999, -0.09392637, -689509.0, 147063.89, 0.0, 10.000614, 9.9993725 
8.2505244e+2, 2.2463502e+2, -593275.44, -686194.7, 114925.6, 0.06660463, -0.04622004, -515773.84, 222799.63, 0.0, 10.001034, 9.999826 
8.250339e+2, 2.3463517e+2, -585598.1, -629032.75, 110291.19, 0.09590198, -0.028466325, -494906.44, 145664.84, 0.0, 10.0004015, 9.999851 
8.25015e+2, 2.4463455e+2, -526836.44, -609127.25, 91917.48, 0.103751026, -0.044750463, -467275.5, 75300.984, 0.0, 10.000393, 9.999314 
8.249959e+2, 2.5463292e+2, -316189.75, -457151.4, 47335.895, 0.0932719, -0.151105, -301769.25, 142822.1, 0.0, 10.001169, 9.999312 
8.249764e+2, 2.6463273e+2, -224344.53, -369827.56, 50404.145, 0.05387571, -0.09705886, -208587.98, 138005.78, 0.0, 10.001161, 9.999243 
8.2495666e+2, 2.7463385e+2, -263880.03, -336475.97, 74487.89, -0.015290426, 0.076927535, -217316.73, 31267.72, 0.0, 10.000204, 9.999258 
8.249371e+2, 2.8463286e+2, -229664.61, -334520.66, 57518.98, -0.018244732, 0.08644423, -204265.06, -53669.22, 0.000001518397, 10.000045, 9.998678 
8.2491803e+2, 2.9462942e+2, -36579.918, -198333.88, 45150.72, 0.07201374, -0.14228675, -24830.373, 27801.492, 0.000022026383, 10.000728, 9.99861 
8.248986e+2, 3.0462876e+2, 73477.53, -38003.066, 74819.516, 0.08451565, -0.09545604, 111037.5, 111037.5, 0.00009707927, 10.000807, 9.999326 
8.248782e+2, 3.1462768e+2, 74146.12, 106148.586, 24462.861, -0.014395175, -0.17122932, 119378.69, 119378.69, 0.00024342752, 10.000144, 10.000636 
8.3523345e+2, 1.2466194e+2, -1622500.6, -1825502.8, 136211.44, -0.39275447, -0.003348909, -1554131.1, 164166.69, 0.000000000051048894, 10.001246, 9.998632 
8.3521897e+2, 1.3465902e+2, -1618706.6, -1822255.8, 39363.117, 0.10508588, -0.12978253, -1611359.6, 8970.505, 0.0, 10.000845, 9.998179 
8.352004e+2, 1.4465792e+2, -1483861.1, -1567111.8, 9908.396, 0.18597087, -0.10842464, -1482698.1, 39643.875, 0.0, 10.000498, 9.999417 
8.351783e+2, 1.5465818e+2, -1389499.4, -1457651.9, 11561.88, -0.11161563, -0.053304262, -1387591.4, 36746.453, 0.0, 10.000421, 9.999529 
8.3515936e+2, 1.6465744e+2, -1282441.4, -1331073.0, 58272.883, -0.15130125, -0.08895583, -1243614.6, 82729.375, 0.0, 10.0003805, 9.999747 
8.351442e+2, 1.7465554e+2, -1167851.0, -1223339.5, 89548.36, 0.11707119, -0.26664302, -1101847.4, 126514.55, 0.0, 10.0004835, 9.999764 
8.351267e+2, 1.8465558e+2, -1110251.3, -1120983.5, 58686.727, 0.21130434, -0.2449848, -1056685.9, 73676.234, 0.0, 10.000108, 9.999976 
8.351066e+2, 1.9465755e+2, -1140598.9, -1078775.4, 82276.28, 0.09912635, -0.06132832, -1021795.56, 10548.346, 0.0, 9.9992, 10.000029 
8.350879e+2, 2.046578e+2, -1066476.3, -1048661.1, 171780.83, 0.026340239, -0.0118718315, -885557.06, 48785.227, 0.0, 9.999279, 9.999522 
8.350709e+2, 2.146559e+2, -785342.5, -862180.56, 188973.06, 0.00013491866, -0.16710876, -630922.6, 205438.47, 0.0, 10.000537, 9.999522 
8.3505327e+2, 2.2465515e+2, -601153.5, -680734.3, 84229.73, 0.033786736, -0.20913956, -547788.56, 190579.63, 0.0, 10.000935, 9.999915 
8.3503467e+2, 2.3465551e+2, -588977.0, -621488.94, 93084.67, 0.12289194, -0.17839974, -510739.5, 129624.15, 0.0, 10.000332, 9.99994 
8.350158e+2, 2.4465552e+2, -603425.3, -754611.3, 112842.45, 0.12351708, -0.09093089, -543195.94, -830.10583, 0.0, 10.000332, 9.998346 
8.349964e+2, 2.5465488e+2, -397698.9, -612517.94, 85271.664, 0.022771554, 0.0027210566, -367965.94, 76411.67, 0.0, 10.001103, 9.998281 
8.349774e+2, 2.6465353e+2, -177393.81, -260198.88, 12082.225, 0.03135505, -0.042109836, -175666.89, 170723.78, 0.0, 10.001108, 10.000021 
8.3495885e+2, 2.7465108e+2, -215846.4, -222712.5, 47913.5, 0.16999638, -0.30623347, -171243.13, 77164.055, 0.0, 10.000143, 10.000071 
8.3493906e+2, 2.8465077e+2, -248445.8, -361607.84, 75421.21, 0.16043493, -0.2648983, -210741.23, -60329.42, 0.0000012583888, 9.999999, 9.998512 
8.34918e+2, 2.9465264e+2, -64068.684, -237182.55, 80356.27, -0.017619452, 0.05935174, -32518.746, 19886.4, 0.000022671806, 10.000653, 9.998379 
8.348983e+2, 3.046535e+2, 78271.914, -18133.324, 50857.18, -0.042853154, 0.26224664, 100140.3, 100140.3, 0.0001036696, 10.000767, 9.999484 
8.3487916e+2, 3.1465122e+2, 119512.586, 217869.02, 25098.982, 0.02922187, 0.050937254, 223903.61, 223903.61, 0.00026236358, 10.000075, 10.00144 
8.4523547e+2, 1.2468105e+2, -1648458.8, -1777222.5, -23506.006, -0.2838385, -0.052963577, -1644301.9, 73808.336, 0.0, 10.000817, 9.999173 
8.452201e+2, 1.3467847e+2, -1660202.5, -1786981.9, -6817.885, 0.16466458, -0.19371113, -1659836.9, -39701.984, 0.0, 10.000333, 9.99867 
8.452008e+2, 1.4467739e+2, -1548355.1, -1593480.9, 78050.23, 0.20136686, -0.197694, -1489672.0, 32473.371, 0.0, 10.000044, 9.99945 
8.451788e+2, 1.5467784e+2, -1414458.4, -1472320.0, 80518.6, -0.09266698, -0.12082874, -1357830.8, 66310.23, 0.0, 10.000261, 9.999507 
8.4515977e+2, 1.6467741e+2, -1313157.6, -1327661.5, 120560.8, -0.12690029, -0.13009036, -1199630.8, 126514.21, 0.0, 10.000088, 9.999915 
8.451444e+2, 1.74676e+2, -1328449.8, -1281496.1, 105230.73, 0.1548687, -0.27592784, -1197155.3, 31003.387, 0.0, 9.999306, 9.999932 
8.451268e+2, 1.8467608e+2, -1198712.0, -1169857.3, 71766.34, 0.24459255, -0.25519097, -1111082.5, 19075.438, 0.0, 9.999525, 9.999918 
8.451066e+2, 1.9467771e+2, -912347.06, -980161.5, 41097.363, 0.10563237, -0.100746274, -892974.9, 139167.88, 0.0, 10.000813, 9.999929 
8.45088e+2, 2.0467785e+2, -819814.94, -927931.6, 109219.24, 0.031423878, -0.056700848, -752008.0, 182133.77, 0.0, 10.000959, 9.999548 
8.450714e+2, 2.1467608e+2, -911854.7, -924488.8, 101690.46, 0.0383926, -0.19922885, -816285.3, 19873.846, 0.0, 9.999666, 9.999522 
8.450538e+2, 2.2467545e+2, -817236.4, -804403.9, 7703.8784, 0.06872346, -0.2210711, -800794.25, -62627.965, 0.0, 9.999553, 9.999719 
8.4503514e+2, 2.3467596e+2, -540879.1, -619885.3, -25298.723, 0.11970373, -0.15574364, -533472.5, 106690.26, 0.0, 10.000774, 9.999728 
8.4501624e+2, 2.4467611e+2, -491940.44, -656697.56, 27550.92, 0.11774632, -0.06182753, -487455.4, 54708.793, 0.0, 10.000904, 9.998742 
8.4499705e+2, 2.5467563e+2, -564268.2, -641653.3, 91854.15, 0.054415885, 0.0002585725, -503289.8, -59116.33, 0.0, 9.999744, 9.998727 
8.449784e+2, 2.6467416e+2, -375237.94, -382234.1, 71181.22, 0.086155705, -0.06260499, -307468.9, 38717.934, 0.0, 9.999867, 9.99978 
8.4496033e+2, 2.7467152e+2, -40503.254, -164078.03, 13270.946, 0.24271758, -0.32180473, -39094.13, 209112.03, 0.0000000050987805, 10.001463, 9.999836 
8.449404e+2, 2.8467128e+2, 8133.377, -226122.47, 434.9431, 0.21363765, -0.2702025, 8134.1846, 158344.72, 0.0000017149706, 10.001707, 9.99862 
8.449184e+2, 2.9467335e+2, -101734.98, -234283.39, 12810.9795, -0.018766884, 0.058963455, -100508.13, -48307.016, 0.0000255943, 10.000306, 9.998561 
8.4489864e+2, 3.046737e+2, -62635.07, -115035.516, 16878.879, -0.03870219, 0.21468614, -57668.832, -57668.832, 0.000114907256, 9.999913, 9.999243 
8.448801e+2, 3.146722e+2, 205043.61, 261805.47, -63198.438, 0.09400768, 0.11213963, 302703.1, 302703.1, 0.00028673265, 10.00063, 10.001489 
8.5523903e+2, 1.2469723e+2, -1502560.9, -1471963.3, -67138.32, -0.04511087, -0.20677981, -1418402.8, 299553.97, 0.0, 10.000807, 10.001275 
8.5521895e+2, 1.3469784e+2, -1511626.9, -1472696.5, -23417.678, 0.0020793364, -0.24157864, -1461710.4, 158229.73, 0.0, 10.000321, 10.000825 
8.55199e+2, 1.4469753e+2, -1521323.3, -1547932.8, 77196.54, 0.0006510522, -0.29662457, -1456293.3, 65644.96, 0.0, 10.000072, 9.999758 
8.551816e+2, 1.5469642e+2, -1391921.0, -1435625.0, 99758.195, 0.14155325, -0.39934093, -1311649.5, 112300.49, 0.0, 10.000297, 9.999744 
8.551631e+2, 1.646968e+2, -1337634.8, -1374736.5, 84482.71, 0.18432546, -0.32456222, -1269690.1, 56259.164, 0.0, 10.000073, 9.999598 
8.551436e+2, 1.7469852e+2, -1343555.4, -1319482.5, 81433.94, 0.12844785, -0.12973484, -1249200.3, -21262.781, 0.0, 9.999334, 9.999657 
8.551248e+2, 1.8469854e+2, -1243019.5, -1259600.5, 111740.41, 0.075650565, -0.0734059, -1139262.4, -9323.592, 0.0, 9.999511, 9.999312 
8.551067e+2, 1.9469652e+2, -956256.44, -1071128.1, 96318.11, 0.015787618, -0.22034618, -901549.3, 130407.12, 0.0, 10.000805, 9.999311 
8.55089e+2, 2.046956e+2, -839612.44, -953251.4, 55243.19, 0.023095466, -0.24271919, -817183.8, 116781.13, 0.0, 10.000889, 9.999411 
8.550718e+2, 2.1469568e+2, -928500.25, -940026.56, 60320.848, 0.103041716, -0.19127546, -873667.9, -37701.977, 0.0, 9.999583, 9.9994545 
8.5505384e+2, 2.2469594e+2, -872583.9, -895756.4, 44401.207, 0.10412348, -0.09161865, -838282.1, -100314.7, 0.0, 9.99945, 9.999145 
8.55035e+2, 2.3469636e+2, -591630.8, -709303.5, 29852.18, 0.017841445, 0.022443349, -584490.94, 55479.152, 0.0, 10.000703, 9.99915 
8.550163e+2, 2.4469623e+2, -378313.97, -404472.06, -20615.371, 0.021798309, 0.031266496, -366978.78, 174993.94, 0.0, 10.000834, 10.000508 
8.5499775e+2, 2.5469512e+2, -446133.6, -379879.63, 54007.098, 0.13099335, -0.15018107, -349649.2, 94329.43, 0.0, 9.99967, 10.000563 
8.549793e+2, 2.6469472e+2, -468533.7, -564540.3, 120643.97, 0.17354186, -0.14469703, -386693.7, -40711.86, 0.0, 9.999816, 9.998555 
8.549608e+2, 2.746951e+2, -144066.66, -364128.22, 82597.016, 0.13237137, 0.03209341, -116514.586, 131467.47, 0.0000001292932, 10.0014, 9.998495 
8.5494083e+2, 2.8469425e+2, 34741.363, -160934.83, -53649.97, 0.06963395, 0.06946843, 48485.58, 198478.34, 0.0000031613251, 10.001663, 9.999088 
8.54919e+2, 2.9469138e+2, -71823.71, -162447.5, -32721.11, -0.010396546, -0.14470398, -61244.297, -9223.645, 0.000030116835, 10.000258, 9.99908 
8.548993e+2, 3.0468914e+2, -117962.836, -212194.47, 37224.848, 0.02726791, -0.24410701, -105032.086, -105032.086, 0.0001273879, 9.999854, 9.998597 
8.5488063e+2, 3.1469035e+2, 128334.94, 140984.05, -13072.784, 0.04809461, -0.0033689656, 149181.81, 149181.81, 0.00031292182, 10.000488, 10.00072 
8.652404e+2, 1.2471701e+2, -1712285.0, -1512927.4, 61167.094, 0.11325012, -0.17030782, -1495656.3, 222108.97, 0.00000000000000000000885557, 9.999113, 10.001802 
8.652185e+2, 1.3471787e+2, -1581368.8, -1442867.4, -22089.309, -0.022771142, -0.24306013, -1439429.6, 180314.08, 0.0, 9.999552, 10.001407 
8.651982e+2, 1.4471765e+2, -1558453.8, -1533726.3, 42064.586, -0.062130295, -0.33136526, -1502246.0, 19493.355, 0.0, 9.999693, 10.000032 
8.651823e+2, 1.5471688e+2, -1467969.5, -1445888.4, 48711.332, 0.21447113, -0.42629418, -1406982.1, 16765.664, 0.0, 9.999666, 9.999978 
8.65164e+2, 1.6471742e+2, -1354418.4, -1446414.1, 47017.023, 0.26699942, -0.3164961, -1334640.8, -8894.352, 0.0, 10.000228, 9.999027 
8.651434e+2, 1.747193e+2, -1081239.8, -1263188.1, 6167.777, 0.07560614, -0.04695765, -1081030.9, 146705.22, 0.0, 10.001427, 9.999036 
8.651244e+2, 1.8471873e+2, -974825.25, -1163945.6, 39355.254, -0.011239223, -0.0030070383, -966962.5, 162781.61, 0.0, 10.001502, 9.999004 
8.651072e+2, 1.9471534e+2, -1058331.9, -1155139.6, 35407.848, 0.013473411, -0.25725308, -1046763.6, -14989.911, 0.0, 10.000263, 9.99899 
8.650897e+2, 2.0471409e+2, -975208.6, -1002912.8, 13335.506, 0.06379414, -0.30136818, -969832.7, -36048.375, 0.0, 9.9999, 9.9995365 
8.650721e+2, 2.1471508e+2, -796310.3, -862856.2, 17129.033, 0.13965803, -0.17439108, -792160.1, 43615.75, 0.0, 10.000441, 9.999567 
8.650539e+2, 2.2471547e+2, -733024.1, -826563.06, 68217.0, 0.1286343, -0.0682065, -697083.6, 40692.203, 0.0, 10.000396, 9.999166 
8.6503524e+2, 2.3471512e+2, -740559.4, -779070.44, 86777.13, 0.022961028, -0.034307186, -670927.06, -31140.98, 0.0, 9.99967, 9.9991665 
8.650167e+2, 2.4471512e+2, -529786.8, -433258.53, 3584.5083, 0.04523391, -0.02990938, -433125.63, 108661.7, 0.0, 9.999609, 10.000897 
8.649984e+2, 2.5471526e+2, -322612.13, -276019.56, -46542.133, 0.20897938, -0.12710628, -247268.88, 196512.31, 0.0, 10.00033, 10.000958 
8.649799e+2, 2.6471546e+2, -363725.8, -515020.06, 55050.223, 0.22611794, -0.082680255, -345815.38, -36.199306, 0.0000000005766255, 10.000538, 9.998543 
8.649611e+2, 2.7471566e+2, -321078.84, -451444.63, 100941.96, 0.08123693, 0.07835989, -266103.13, -18321.008, 0.000000514823, 10.000185, 9.998477 
8.6494136e+2, 2.8471455e+2, -164083.3, -271919.72, -26647.81, 0.027430594, 0.09730172, -157857.69, -8062.55, 0.0000054394536, 10.0003605, 9.998957 
8.649207e+2, 2.947113e+2, 52029.883, -111391.46, -68633.766, 0.09263889, -0.14001162, 77030.164, 128854.8, 0.000035908153, 10.001147, 9.999005 
8.649009e+2, 3.0470824e+2, 101277.305, -151990.94, 22217.377, 0.12622112, -0.3021786, 103211.5, 103211.5, 0.00014004746, 10.001542, 9.998195 
8.648806e+2, 3.1470975e+2, 184011.42, 78775.2, -27279.89, -0.025728691, 0.008101626, 190662.67, 190662.67, 0.0003371157, 10.001247, 9.999916 
8.752394e+2, 1.24740206e+2, -1764158.5, -1641494.9, 49140.457, 0.057279393, 0.04668927, -1624236.8, 93301.16, 0.0000000055054987, 9.999194, 10.000882 
8.7521863e+2, 1.3473853e+2, -1631708.8, -1549213.4, -2803.0564, 0.015775466, -0.20422345, -1549118.3, 70427.02, 0.0, 9.999562, 10.000667 
8.7519807e+2, 1.447379e+2, -1548626.1, -1518493.3, 32301.15, -0.062137973, -0.30116993, -1497917.5, 23629.154, 0.0, 9.999711, 10.000131 
8.7518066e+2, 1.5473908e+2, -1450333.8, -1414063.3, 53908.9, 0.073514916, -0.21782732, -1375320.9, 48213.516, 0.0, 9.999695, 10.000179 
8.751625e+2, 1.6473927e+2, -1408701.0, -1565989.8, 82584.74, 0.07467381, -0.11579543, -1373305.1, -47768.723, 0.0, 10.000249, 9.998202 
8.751436e+2, 1.7473845e+2, -1141320.0, -1390507.4, 58168.348, -0.062010273, -0.028944837, -1128410.4, 99143.25, 0.0, 10.0014305, 9.998163 
8.751253e+2, 1.8473691e+2, -987049.94, -1175427.1, -10952.122, -0.080504954, -0.03333192, -986415.3, 143156.3, 0.0, 10.001445, 9.998952 
8.751077e+2, 1.947342e+2, -1063021.5, -1156000.5, -3335.4568, 0.030462606, -0.2178136, -1062902.0, -31307.957, 0.0, 10.000224, 9.9990015 
8.7509e+2, 2.047333e+2, -965935.1, -964190.8, 26003.521, 0.09034196, -0.24780934, -939044.8, -5444.585, 0.0, 9.999816, 9.999844 
8.750721e+2, 2.1473427e+2, -785246.9, -823268.0, 43822.082, 0.09045082, -0.15043119, -756489.5, 79099.555, 0.0, 10.000368, 9.999873 
8.75054e+2, 2.2473405e+2, -700970.6, -743508.3, 34624.004, 0.08629897, -0.14916828, -681604.7, 55986.41, 0.0, 10.00032, 9.999773 
8.750355e+2, 2.3473231e+2, -708869.9, -693588.56, 66321.54, 0.07696744, -0.31822184, -634469.0, 5140.974, 0.0, 9.999581, 9.999798 
8.750172e+2, 2.4473293e+2, -613336.56, -589359.44, 22318.404, 0.12059714, -0.23660822, -576013.5, -34406.523, 0.0, 9.999532, 9.999864 
8.74999e+2, 2.5473598e+2, -410718.22, -439542.75, -11212.458, 0.21655522, 0.06706109, -406870.34, 36711.016, 0.0, 10.000247, 9.999873 
8.7498015e+2, 2.647362e+2, -283933.16, -343190.38, 37491.105, 0.18579274, 0.11227884, -265776.44, 79803.59, 0.0000000691861, 10.0005045, 9.999742 
8.749608e+2, 2.7473316e+2, -242419.9, -271279.47, 95267.836, 0.014389821, -0.1824962, -160495.23, 87111.73, 0.000001269736, 10.000112, 9.999752 
8.7494177e+2, 2.8473222e+2, -218320.11, -375992.75, -5466.8315, 0.020753067, -0.17481512, -218130.8, -68513.805, 0.000008255043, 10.00032, 9.998264 
8.749233e+2, 2.9473317e+2, -6172.7686, -221617.8, -29565.506, 0.22758307, 0.0794302, -2189.154, 49423.86, 0.000042714033, 10.001099, 9.998276 
8.749033e+2, 3.0473095e+2, 85631.85, -172939.22, 12955.145, 0.19719364, 0.04538672, 86279.32, 86279.32, 0.00015286829, 10.001497, 9.998069 
8.748797e+2, 3.1473008e+2, 111640.33, -58950.285, -13878.784, -0.28588408, 0.13572714, 112762.086, 112762.086, 0.0003572186, 10.001196, 9.998994 
8.8523877e+2, 1.24759756e+2, -1589381.6, -1638814.4, -36640.79, 0.00824285, 0.024243569, -1569900.3, 147445.36, 0.00000006865043, 10.000745, 10.000157 
8.852195e+2, 1.3475843e+2, -1577984.1, -1598856.8, -97415.484, 0.12324339, -0.1283961, -1490447.5, 128908.64, 0.0, 10.000248, 10.000003 
8.851989e+2, 1.4475784e+2, -1474964.9, -1476068.8, -25321.344, 0.037156157, -0.18646225, -1450189.4, 71169.875, 0.0, 10.000194, 10.000185 
8.8517976e+2, 1.54759e+2, -1273970.1, -1324496.4, -28465.34, -0.04038224, -0.1121368, -1261174.1, 162171.39, 0.0, 10.000878, 10.000224 
8.8516146e+2, 1.6475879e+2, -1317312.4, -1499986.3, 36906.316, -0.07517765, -0.06327377, -1310137.9, 15211.545, 0.0, 10.000799, 9.998387 
8.851443e+2, 1.747572e+2, -1353228.4, -1471399.6, 72475.97, -0.05505587, -0.06895655, -1318805.3, -91433.92, 0.0, 9.999899, 9.998346 
8.851266e+2, 1.8475582e+2, -1223673.4, -1290835.6, 44934.027, -0.009403157, -0.06471124, -1201158.5, -71771.11, 0.0, 9.999824, 9.998942 
8.851084e+2, 1.9475438e+2, -1009191.6, -1130939.3, 34112.94, 0.060573943, -0.12175586, -1000285.0, 31114.824, 0.0, 10.000603, 9.99899 
8.8509023e+2, 2.0475362e+2, -845176.5, -933557.3, 63788.613, 0.08769534, -0.123367, -811766.75, 121638.66, 0.0, 10.000756, 9.999605 
8.8507223e+2, 2.1475355e+2, -831795.75, -872856.1, 30264.953, 0.07182737, -0.10498716, -815754.7, 19649.39, 0.0, 10.00016, 9.999638 
8.85054e+2, 2.2475299e+2, -760417.0, -739989.25, -14266.312, 0.089853235, -0.14072733, -732657.44, 4751.006, 0.0, 9.99978, 10.000054 
8.8503575e+2, 2.3475163e+2, -679227.94, -647832.44, -26586.617, 0.14284949, -0.29828954, -632655.2, 6766.167, 0.0, 9.999652, 10.000077 
8.8501716e+2, 2.4475226e+2, -629956.3, -628506.6, -14148.481, 0.17006564, -0.2145429, -615064.44, -73647.086, 0.0, 9.999551, 9.999585 
8.8499826e+2, 2.547549e+2, -538533.1, -533920.5, -2558.88, 0.16883859, 0.07568378, -532781.94, -89385.37, 0.00000000006372724, 9.999503, 9.999585 
8.8497967e+2, 2.6475477e+2, -396419.53, -380203.6, 39960.242, 0.13437316, 0.09160323, -347537.06, -2137.979, 0.00000025387644, 9.999662, 9.99989 
8.849613e+2, 2.747514e+2, -231649.72, -246154.56, -1265.0579, 0.066074476, -0.25115168, -231540.22, 15888.435, 0.0000021793016, 10.000105, 9.999924 
8.849429e+2, 2.847508e+2, -158384.94, -332851.7, -73217.2, 0.08734945, -0.2243824, -131730.56, 17704.836, 0.000011106664, 10.000685, 9.998377 
8.849244e+2, 2.947529e+2, 49885.69, -178329.25, -46425.66, 0.21969928, 0.1374614, 58968.547, 110389.086, 0.000049522223, 10.001421, 9.99841 
8.849047e+2, 3.0475137e+2, 133796.58, -169109.55, 9962.959, 0.17394261, 0.16846976, 134123.92, 134123.92, 0.00016466355, 10.001904, 9.997913 
8.8488156e+2, 3.1474987e+2, 155905.98, -118884.78, -39001.773, -0.24683388, 0.2207853, 161334.38, 161334.38, 0.00037254568, 10.00185, 9.998283 
8.952381e+2, 1.2477592e+2, -1640979.3, -1728039.6, -85250.75, -0.16831073, -0.22407934, -1588788.1, 128397.766, 0.00000033567557, 10.00068, 9.999572 
8.9522105e+2, 1.3477775e+2, -1614369.0, -1674274.0, -113527.945, 0.2411073, -0.0029612556, -1526908.8, 92265.15, 0.00000000007521531, 10.000264, 9.999471 
8.9520055e+2, 1.4477777e+2, -1469364.4, -1476727.6, -9446.676, 0.16227184, 0.024127608, -1462907.3, 58267.35, 0.0, 10.000236, 10.000167 
8.951793e+2, 1.5477692e+2, -1277765.1, -1330344.5, 6806.834, -0.19502379, -0.097660705, -1276898.3, 146279.84, 0.0, 10.000865, 10.000194 
8.951606e+2, 1.6477625e+2, -1244835.0, -1345853.4, -2802.7124, -0.25405523, -0.14344575, -1244757.4, 80424.984, 0.0, 10.000778, 9.9994545 
8.951452e+2, 1.7477559e+2, -1273333.9, -1307308.6, 46431.766, 0.032926388, -0.17022529, -1240879.6, -13690.478, 0.0, 9.999905, 9.999468 
8.951281e+2, 1.8477546e+2, -1227978.0, -1295455.5, 65276.11, 0.13647197, -0.099025674, -1188237.0, -59045.184, 0.0, 9.999802, 9.998923 
8.951089e+2, 1.9477576e+2, -1020811.25, -1144944.6, 69216.51, 0.03533017, 0.024584647, -989909.1, 41282.63, 0.0, 10.000554, 9.9989195 
8.9509016e+2, 2.04775e+2, -909871.7, -1048110.75, 35012.707, -0.006532659, 0.06636634, -901509.56, 31690.889, 0.0, 10.000672, 9.998858 
8.95072e+2, 2.1477297e+2, -898805.9, -987954.9, 15484.052, 0.019512074, -0.040808868, -896193.06, -60972.543, 0.0, 10.000062, 9.998892 
8.9505374e+2, 2.2477233e+2, -782371.75, -766150.06, -26204.336, 0.07557082, -0.03910956, -746830.0, -9603.115, 0.0, 9.999688, 9.999923 
8.9503556e+2, 2.3477307e+2, -697408.4, -669116.0, -23872.713, 0.15255329, 0.023679744, -655512.94, -16292.84, 0.0, 9.9995775, 9.999968 
8.950165e+2, 2.4477309e+2, -603816.6, -564193.75, -23206.008, 0.13072263, 0.02729957, -553492.7, -12273.731, 0.0, 9.999505, 10.0000515 
8.949962e+2, 2.5477207e+2, -517694.53, -470809.4, 3064.0225, -0.0009224121, -0.09592359, -470610.03, -27383.79, 0.0000000002378373, 9.999418, 10.000061 
8.949782e+2, 2.6477128e+2, -467980.78, -515384.13, 49761.35, 0.008248939, -0.12665558, -436564.75, -91330.086, 0.00000030747992, 9.999606, 9.998987 
8.949626e+2, 2.7477047e+2, -309812.66, -390914.66, 24198.99, 0.16640978, -0.11703091, -303141.03, -55894.594, 0.0000026197797, 10.000033, 9.998963 
8.949444e+2, 2.8477022e+2, -99977.59, -207165.98, -52231.527, 0.15830016, -0.046541575, -78735.5, 70515.195, 0.000013171274, 10.000658, 9.999254 
8.949236e+2, 2.9477048e+2, 115382.75, -40847.32, -10304.555, -0.021536358, 0.030318227, 116059.484, 167308.05, 0.000055655084, 10.001405, 9.999365 
8.949048e+2, 3.0476937e+2, 114439.44, -194038.44, 3598.3503, -0.016686331, 0.06185384, 114481.41, 114481.41, 0.00017577781, 10.001851, 9.997761 
8.9488584e+2, 3.1476846e+2, 105720.78, -197143.92, -18098.443, -0.030554287, 0.192094, 106798.47, 106798.47, 0.0003866523, 10.001751, 9.997786 
9.0523946e+2, 1.24794215e+2, -1891965.3, -1871509.1, -61698.926, -0.0050356393, -0.2381822, -1819196.3, -102187.164, 0.0000010657902, 9.999052, 9.999376 
9.0522087e+2, 1.3479652e+2, -1566494.6, -1667951.4, -82431.73, 0.18392442, 0.044616017, -1520432.8, 98561.516, 0.000000007369457, 10.000661, 9.999326 
9.052001e+2, 1.4479673e+2, -1403991.8, -1466239.3, 10965.756, 0.070648275, 0.10875175, -1402116.5, 118877.82, 0.0, 10.000782, 9.999967 
9.051796e+2, 1.547957e+2, -1496698.5, -1458207.5, -5309.708, -0.16540597, -0.012705091, -1457488.5, -34487.84, 0.0, 9.999464, 9.999988 
9.051614e+2, 1.647949e+2, -1421253.3, -1386423.6, -6661.782, -0.18118158, -0.07938262, -1385192.9, -60187.87, 0.0, 9.999374, 9.999854 
9.051457e+2, 1.7479411e+2, -1143974.9, -1195716.6, -24139.484, 0.06282702, -0.16082422, -1134461.9, 92547.69, 0.0, 10.000584, 9.999903 
9.0512836e+2, 1.8479405e+2, -1066873.9, -1215999.6, -20494.574, 0.14105277, -0.10731291, -1064108.6, 64901.746, 0.0, 10.000896, 9.99894 
9.0510917e+2, 1.9479467e+2, -1059329.5, -1163666.6, -21363.246, 0.030986434, 0.04620704, -1055124.8, -24116.627, 0.0, 10.000277, 9.998929 
9.0509045e+2, 2.0479399e+2, -1000065.3, -1076588.3, -19769.31, -0.005587713, 0.08650866, -995259.75, -62243.31, 0.0, 9.9999895, 9.99899 
9.0507215e+2, 2.1479167e+2, -891840.56, -973045.2, 5887.9395, 0.04171995, -0.05998492, -891415.9, -56377.164, 0.0, 10.000053, 9.999001 
9.050538e+2, 2.2479124e+2, -748071.6, -759515.94, 16873.338, 0.09696477, -0.037379537, -735976.6, 1066.333, 0.0, 9.9999695, 9.999831 
9.050352e+2, 2.3479274e+2, -675639.3, -670954.0, 6489.811, 0.1526737, 0.111668386, -666396.94, -27367.617, 0.0, 9.99978, 9.999858 
9.05016e+2, 2.4479239e+2, -549802.75, -558700.94, 12347.187, 0.117515564, 0.095465995, -541127.5, -96.0645, 0.0, 9.999973, 9.999857 
9.0499604e+2, 2.547899e+2, -357925.94, -415432.16, -28673.836, -0.019340599, -0.15697044, -346072.03, 96980.13, 0.0, 10.000612, 9.999862 
9.049781e+2, 2.6478907e+2, -350292.75, -471046.7, 16961.842, -0.0029681309, -0.174208, -347955.4, -2894.083, 0.0000002007212, 10.000475, 9.998875 
9.0496254e+2, 2.7478984e+2, -392539.16, -443761.56, 37092.92, 0.18690751, 0.0017342119, -373074.66, -126014.3, 0.0000025589381, 9.999519, 9.998851 
9.0494454e+2, 2.8478968e+2, -253621.72, -242568.16, 28533.318, 0.16447139, 0.06989876, -219031.28, -69967.24, 0.000014749117, 9.999435, 9.999603 
9.049239e+2, 2.9478854e+2, -28549.303, -67461.766, 11365.228, -0.07657113, -0.020888314, -25473.04, 25599.773, 0.00006245814, 10.000243, 9.99974 
9.0490586e+2, 3.047877e+2, 3445.2515, -195911.52, 13470.904, -0.034938157, -0.007390642, 4351.3867, 4351.3867, 0.00018870574, 10.000867, 9.998222 
9.0488833e+2, 3.1478688e+2, 29690.68, -186107.31, 18278.498, 0.087687604, 0.087449245, 31227.951, 31227.951, 0.00040376265, 10.001013, 9.998222 
9.15242e+2, 1.248148e+2, -1858616.6, -1837436.0, -24217.967, 0.30961627, -0.013381106, -1821594.1, -104780.98, 0.000002613721, 9.999203, 9.999538 
9.152189e+2, 1.348148e+2, -1547858.9, -1631146.9, -17056.207, -0.099737085, 0.014057533, -1544501.4, 74314.8, 0.00000007607973, 10.000666, 9.999576 
9.1519743e+2, 1.4481476e+2, -1435291.6, -1527694.9, -44776.844, -0.292029, 0.059950665, -1417153.9, 103664.66, 0.0, 10.000764, 9.999556 
9.151807e+2, 1.5481533e+2, -1516723.1, -1512826.9, -45506.82, -0.029187353, 0.13950323, -1469226.5, -46413.023, 0.0, 9.999519, 9.999585 
9.1516334e+2, 1.6481477e+2, -1429706.3, -1416965.0, 28449.361, 0.059409868, 0.12828927, -1394181.8, -69364.49, 0.0, 9.999428, 9.99962 
9.151456e+2, 1.7481288e+2, -1162637.9, -1233102.6, 27771.367, -0.02823426, -0.04009093, -1153008.6, 73823.17, 0.0, 10.000574, 9.999653 
9.151275e+2, 1.8481173e+2, -1065397.0, -1202639.9, -49510.168, -0.053117886, -0.08753029, -1049400.6, 79440.83, 0.0, 10.000851, 9.999056 
9.1510916e+2, 1.9481125e+2, -1060623.4, -1151361.1, -35382.883, -0.016205844, -0.055393882, -1048457.1, -17609.637, 0.0, 10.000213, 9.999045 
9.150908e+2, 2.0481068e+2, -947689.94, -949382.5, -23951.861, 0.022207422, -0.054039035, -924569.4, 8282.558, 0.0, 9.9999075, 9.999903 
9.1507256e+2, 2.148098e+2, -840804.25, -845245.8, 15412.951, 0.06911121, -0.14896783, -827452.94, 7404.2324, 0.0, 9.99996, 9.999922 
9.150538e+2, 2.248098e+2, -763822.1, -776678.56, 1880.1324, 0.08522202, -0.12753785, -763552.8, -26696.889, 0.0, 9.999898, 9.999749 
9.1503435e+2, 2.3481067e+2, -695000.56, -691067.5, 6563.337, 0.07597293, -0.032342378, -686182.4, -47333.61, 0.0, 9.999696, 9.99976 
9.150156e+2, 2.4481031e+2, -618201.9, -688560.56, 30527.809, 0.060064837, -0.0015320791, -606803.0, -65949.36, 0.0, 9.999915, 9.998996 
9.149974e+2, 2.5480846e+2, -428626.8, -549428.1, 4402.0674, 0.039837945, -0.10055932, -428466.6, 14407.037, 0.0, 10.000553, 9.998974 
9.1497904e+2, 2.6480818e+2, -307954.63, -375743.84, -23798.963, 0.034162905, -0.050581586, -300433.8, 44445.273, 0.00000011562638, 10.000442, 9.999545 
9.149608e+2, 2.7480936e+2, -348767.5, -343413.44, 9710.297, 0.04881454, 0.0978874, -336017.9, -89146.805, 0.0000025826089, 9.9994755, 9.999562 
9.1494274e+2, 2.8480905e+2, -273552.66, -274814.34, 50653.5, 0.032484096, 0.123589374, -223526.08, -74650.51, 0.000017159802, 9.9993925, 9.999405 
9.149249e+2, 2.9480717e+2, -54101.195, -110675.33, 52185.11, -0.010698557, -0.023725586, -23029.66, 27863.916, 0.00007135739, 10.000194, 9.999472 
9.149078e+2, 3.0480632e+2, 63469.926, -49197.973, 18460.984, 0.058584593, -0.042137522, 66417.695, 66417.695, 0.00020552066, 10.000779, 9.999269 
9.148884e+2, 3.1480458e+2, 114394.12, 15697.711, 55951.96, -0.043480862, -0.15406133, 139650.66, 139650.66, 0.00042645857, 10.00091, 9.999652 
9.2524296e+2, 1.2483468e+2, -1431791.4, -1644859.6, 6909.729, 0.33685732, 0.11246686, -1431567.5, 285054.47, 0.0000053718704, 10.002178, 9.999424 
9.252194e+2, 1.3483322e+2, -1564375.3, -1642767.3, -28473.611, -0.0960777, -0.0050596325, -1555124.6, 63512.08, 0.00000033393198, 10.000564, 9.999548 
9.251982e+2, 1.448325e+2, -1529215.6, -1611931.9, -38646.39, -0.2646408, -0.00716986, -1513969.5, 6675.2944, 0.0, 10.000287, 9.999212 
9.2518175e+2, 1.5483303e+2, -1238584.4, -1417954.9, -54166.176, 0.031971768, 0.10421145, -1223496.5, 199144.64, 0.0, 10.001597, 9.999237 
9.2516434e+2, 1.648326e+2, -1114983.6, -1313878.8, 32356.324, 0.108543225, 0.145399, -1109852.4, 214793.19, 0.0, 10.0018015, 9.99918 
9.25146e+2, 1.7483109e+2, -1148610.9, -1276624.0, 2792.367, -0.050781723, 0.058444075, -1148550.0, 78109.46, 0.0, 10.00089, 9.999202 
9.2512757e+2, 1.8482998e+2, -1128749.3, -1181307.0, -80163.71, -0.09416283, 0.01639878, -1070667.0, 58001.734, 0.0, 10.000197, 9.999516 
9.25109e+2, 1.9482917e+2, -1103946.9, -1115688.8, -60075.01, -0.016054586, -0.033151172, -1049456.6, -18781.662, 0.0, 9.999684, 9.999538 
9.2509073e+2, 2.0482865e+2, -987609.75, -961058.8, -21173.832, 0.047237102, -0.05748342, -949342.9, -16665.463, 0.0, 9.999597, 9.999977 
9.250728e+2, 2.1482822e+2, -830411.0, -830745.94, -54498.54, 0.100731224, -0.11394459, -776079.7, 58598.098, 0.0, 9.999987, 10.0000105 
9.2505383e+2, 2.2482796e+2, -726457.7, -774337.6, -97548.16, 0.08993214, -0.1167924, -649954.8, 86723.8, 0.0, 10.000226, 9.999605 
9.250336e+2, 2.3482776e+2, -615949.0, -670643.56, -112279.05, 0.011688691, -0.113161445, -527734.8, 110946.414, 0.0, 10.000309, 9.999606 
9.250151e+2, 2.4482761e+2, -550565.4, -634275.56, -25347.592, 0.0074696997, -0.06516964, -543488.4, -2804.0393, 0.0, 10.000286, 9.999194 
9.249981e+2, 2.548273e+2, -461167.63, -539300.44, 16173.504, 0.08416516, -0.029603664, -457952.03, -15262.115, 0.0, 10.000223, 9.999203 
9.249799e+2, 2.6482737e+2, -320325.97, -361598.4, 153.64851, 0.08636038, 0.034336135, -320325.4, 24366.328, 0.00000007319143, 10.000261, 9.999734 
9.249603e+2, 2.7482757e+2, -204549.02, -250543.98, -17294.49, 0.017140146, 0.066436835, -198771.78, 47919.72, 0.0000027897247, 10.000362, 9.999772 
9.24942e+2, 2.848273e+2, -146684.83, -228524.9, 51099.723, -0.021793455, 0.089622036, -122140.14, 26556.45, 0.000020180585, 10.000334, 9.999265 
9.2492497e+2, 2.9482648e+2, -66516.234, -135833.5, 42409.56, -0.017096905, 0.0676411, -46404.52, 4302.681, 0.00008284934, 10.000192, 9.999297 
9.249086e+2, 3.0482605e+2, 23772.861, -19225.463, -932.1666, 0.08958509, 0.07435061, 23793.06, 23793.06, 0.00022869528, 10.00027, 9.999724 
9.248895e+2, 3.1482363e+2, 102917.85, 107280.74, -30449.094, 0.015120938, -0.15704334, 135626.44, 135626.44, 0.0004606453, 10.000403, 10.000526 
9.352418e+2, 1.2485363e+2, -1467603.8, -1696637.9, -76123.24, -0.032896932, 0.11136609, -1444611.3, 271826.88, 0.000009857008, 10.002092, 9.999107 
9.3522215e+2, 1.3485187e+2, -1569848.0, -1672237.8, -85100.48, 0.108973615, -0.0118425945, -1521730.3, 96724.84, 0.0000009955157, 10.0006485, 9.999302 
9.352018e+2, 1.4485021e+2, -1538956.4, -1656969.5, 715.86017, 0.050189096, -0.078584254, -1538952.1, -18481.14, 0.00000000002439963, 10.000387, 9.998858 
9.3518275e+2, 1.5484902e+2, -1265665.6, -1470602.6, 3178.1858, -0.045604, -0.102308996, -1265616.4, 156865.44, 0.0, 10.001579, 9.998887 
9.351644e+2, 1.6484855e+2, -1163454.9, -1403773.9, -9489.286, -0.086869285, -0.018568568, -1163080.8, 161407.92, 0.0, 10.001755, 9.998586 
9.3514687e+2, 1.7484878e+2, -1192687.5, -1364938.8, -22601.426, -0.069564275, 0.13166401, -1189771.3, 36720.67, 0.0, 10.000876, 9.998603 
9.351282e+2, 1.8484883e+2, -1082696.9, -1077690.0, -104123.164, -0.055569757, 0.19912103, -976040.2, 152451.63, 0.0, 10.000162, 10.000247 
9.351086e+2, 1.948484e+2, -1058571.9, -1010807.4, -71989.85, -0.046644583, 0.113557905, -958841.75, 71649.09, 0.0, 9.999639, 10.000282 
9.3509e+2, 2.0484781e+2, -1038792.4, -1059524.6, -16219.544, -0.0015290559, 0.07675718, -1029909.3, -97416.02, 0.0, 9.999559, 9.99932 
9.350727e+2, 2.148469e+2, -891143.44, -939842.9, -32944.51, 0.07997495, 0.041286837, -874526.75, -40026.105, 0.0, 9.999908, 9.999304 
9.350537e+2, 2.2484574e+2, -754456.3, -809960.9, -99656.41, 0.04966001, -0.0069395388, -678760.1, 57750.645, 0.0, 10.000132, 9.999404 
9.35033e+2, 2.3484407e+2, -644994.6, -709473.75, -100524.98, -0.095273964, -0.12929247, -571665.9, 66860.38, 0.0, 10.0002165, 9.999386 
9.3501437e+2, 2.4484427e+2, -471405.47, -455717.0, -34551.12, -0.10460559, -0.09566606, -428130.84, 112392.43, 0.0, 10.000225, 10.000448 
9.349981e+2, 2.5484633e+2, -380325.16, -360855.06, 20734.154, 0.048800983, 0.04821797, -347684.3, 94817.73, 0.0, 10.000172, 10.000456 
9.3498033e+2, 2.6484656e+2, -340850.1, -394101.25, -442.46448, 0.094491445, 0.07599746, -340846.44, 3653.3457, 0.00000003612581, 10.000218, 9.99953 
9.34961e+2, 2.7484462e+2, -233303.81, -293657.16, -3474.6995, 0.028836565, -0.08639797, -233104.42, 13416.052, 0.0000027030533, 10.000293, 9.999509 
9.3494207e+2, 2.8484452e+2, -161294.67, -246937.39, 41303.777, -0.065563366, -0.024556447, -144620.9, 3904.9597, 0.000022488803, 10.000285, 9.999159 
9.3492377e+2, 2.948465e+2, -79860.266, -158606.78, 48278.695, -0.17893933, 0.24310729, -56935.16, -6421.112, 0.000095232324, 10.000171, 9.99915 
9.349079e+2, 3.0484676e+2, 6402.149, -51426.332, 807.6366, -0.020694451, 0.33982724, 6413.4263, 6413.4263, 0.0002574787, 10.00025, 9.999515 
9.348913e+2, 3.148435e+2, 111366.33, 147568.89, 5780.0874, 0.11792606, 0.040374752, 148469.34, 148469.34, 0.0005076133, 10.000307, 10.000849 
9.45243e+2, 1.2487225e+2, -1735959.8, -1872274.5, -25261.523, -0.024598017, 0.04254925, -1731428.9, -15172.532, 0.000016753027, 10.000437, 9.99871 
9.452239e+2, 1.3487136e+2, -1376585.5, -1626921.8, -72008.89, 0.1455493, 0.050559025, -1357350.3, 260916.8, 0.000002343361, 10.002177, 9.998882 
9.452039e+2, 1.4486983e+2, -1252559.0, -1550369.4, 22556.207, 0.117093764, 0.03265231, -1250860.4, 269422.13, 0.0000000053592455, 10.002497, 9.998565 
9.4518465e+2, 1.5486778e+2, -1294104.3, -1521183.3, 12237.843, -0.004867993, -0.05043387, -1293446.6, 128854.48, 0.0, 10.001539, 9.998559 
9.451657e+2, 1.6486683e+2, -1330143.8, -1464059.5, 5797.9087, -0.059489552, -0.0060026688, -1329893.1, -5581.732, 0.0, 10.000523, 9.998767 
9.451473e+2, 1.7486702e+2, -1391628.5, -1439160.5, 32063.182, -0.03430664, 0.121265076, -1375483.6, -149170.25, 0.0, 9.999417, 9.9987955 
9.4512826e+2, 1.8486702e+2, -1203096.5, -1157332.8, 10150.025, -0.029033855, 0.18280402, -1155182.6, -26869.56, 0.0, 9.999433, 10.000045 
9.4510865e+2, 1.9486655e+2, -921072.0, -969189.6, -36953.836, -0.049035754, 0.11417299, -901035.3, 129277.31, 0.0, 10.000686, 10.000062 
9.450902e+2, 2.0486581e+2, -850778.2, -1006805.6, -9141.709, -0.014131044, 0.0928587, -850244.4, 82072.82, 0.0, 10.001024, 9.998969 
9.450729e+2, 2.1486473e+2, -846435.9, -952976.56, -18436.555, 0.08495293, 0.07299243, -843335.7, -9007.878, 0.0, 10.000377, 9.998978 
9.4505405e+2, 2.2486354e+2, -755553.3, -808730.1, -38986.523, 0.07621269, 0.03771913, -734951.75, 1386.983, 0.0, 10.000114, 9.999423 
9.450337e+2, 2.3486204e+2, -631714.56, -695259.1, -36518.523, -0.041344043, -0.07113957, -615081.5, 23270.396, 0.0, 10.000279, 9.999448 
9.450149e+2, 2.44862e+2, -476045.16, -465508.5, -5197.299, -0.069677666, -0.06188912, -463376.34, 76974.22, 0.0, 10.000217, 10.000388 
9.449977e+2, 2.548634e+2, -423450.28, -382276.1, -60617.117, 0.011287634, 0.021539275, -338845.53, 103489.29, 0.0, 9.999879, 10.000447 
9.449798e+2, 2.6486346e+2, -423133.2, -440649.13, -106812.67, 0.050198454, 0.03416147, -324720.03, 19613.822, 0.000000027783642, 9.999684, 9.999468 
9.4496113e+2, 2.7486178e+2, -328352.38, -343930.13, -110723.63, 0.05111159, -0.09381776, -225144.0, 21207.68, 0.000002329391, 9.999661, 9.999469 
9.4494253e+2, 2.8486165e+2, -261589.03, -286882.8, -44079.332, -0.008088307, -0.03824077, -228378.19, -80021.47, 0.000023981273, 9.999552, 9.999246 
9.44924e+2, 2.9486325e+2, -210768.08, -210718.23, -36283.516, -0.11774956, 0.17905001, -174459.63, -124112.23, 0.000106754764, 9.999225, 9.99925 
9.4490826e+2, 3.0486315e+2, -90011.266, -139635.53, -27554.277, 0.017255764, 0.25567165, -77744.02, -77744.02, 0.00028782972, 9.999783, 9.999138 
9.448922e+2, 3.1486064e+2, 244752.9, 198262.94, -49597.39, 0.13783056, 0.07240348, 276282.28, 276282.28, 0.00056174357, 10.001279, 10.000744 
9.5524573e+2, 1.2489087e+2, -1766551.8, -1951240.4, 20757.352, 0.1628921, -0.06742466, -1764247.5, -48173.664, 0.00002677623, 10.000518, 9.998118 
9.5522445e+2, 1.3489178e+2, -1423513.9, -1715437.0, -3149.0747, -0.034514748, 0.17696281, -1423479.9, 194592.02, 0.0000047533053, 10.0021515, 9.998279 
9.552044e+2, 1.4489117e+2, -1277467.3, -1593818.1, -20505.445, -0.10441055, 0.29667842, -1276143.6, 243937.52, 0.000000046136613, 10.002455, 9.998291 
9.551871e+2, 1.5488908e+2, -1307737.9, -1556555.5, -15402.734, 0.067555204, 0.23801042, -1306788.0, 115312.98, 0.0, 10.001567, 9.998304 
9.55168e+2, 1.6488735e+2, -1263141.9, -1331901.4, -42769.117, 0.1001562, 0.17185533, -1242647.5, 81467.234, 0.0, 10.000549, 9.999661 
9.551471e+2, 1.7488582e+2, -1324032.5, -1305711.1, -3037.7808, -0.009851125, 0.034123946, -1305220.6, -79096.664, 0.0, 9.999445, 9.999698 
9.5512736e+2, 1.8488462e+2, -1274115.5, -1309866.3, 48321.047, -0.07719873, -0.015792025, -1240469.5, -112337.52, 0.0, 9.999452, 9.99899 
9.55109e+2, 1.9488363e+2, -1002214.94, -1128915.9, 17092.299, -0.09796518, -0.026501408, -999949.6, 30190.426, 0.0, 10.000649, 9.998982 
9.550909e+2, 2.0488274e+2, -863344.3, -1019132.1, -40759.97, -0.053429335, -0.00903369, -853324.4, 78824.28, 0.0, 10.000961, 9.998918 
9.5507306e+2, 2.1488172e+2, -865310.44, -969359.6, -35156.84, 0.054948848, -0.016573822, -854545.25, -20385.648, 0.0, 10.000276, 9.998918 
9.5505464e+2, 2.2488138e+2, -748685.44, -772774.4, -40155.785, 0.107937485, 0.023113158, -718806.7, 17355.871, 0.0, 10.000023, 9.999713 
9.550356e+2, 2.3488154e+2, -626263.5, -665679.94, -22798.004, 0.10873104, 0.052427854, -615835.94, 22323.512, 0.0, 10.000195, 9.999697 
9.550164e+2, 2.4488066e+2, -576378.25, -654600.0, -23526.723, 0.04060142, 0.02814763, -569847.44, -29680.115, 0.0, 10.000143, 9.99912 
9.549967e+2, 2.5487855e+2, -526054.56, -581526.94, -66368.15, -0.09291296, -0.10837603, -481860.03, -39671.93, 0.0, 9.999817, 9.999109 
9.549781e+2, 2.6487806e+2, -428490.94, -434391.4, -113532.03, -0.10337162, -0.08910093, -317870.8, 26323.414, 0.000000030362223, 9.999617, 9.999539 
9.549605e+2, 2.7487898e+2, -333565.78, -338165.72, -102140.79, 0.010807593, 0.036411475, -233699.08, 12487.726, 0.000002140531, 9.999595, 9.999539 
9.5494306e+2, 2.8487855e+2, -246856.64, -240017.27, -63088.098, 0.08002678, 0.04114827, -180256.23, -32065.299, 0.000025889522, 9.999486, 9.999597 
9.5492566e+2, 2.9487664e+2, -197572.73, -167202.03, -41531.406, 0.10861803, -0.12703276, -138166.88, -87959.38, 0.000117742304, 9.999155, 9.999581 
9.5490944e+2, 3.048752e+2, -138297.84, -224742.95, 27965.21, 0.15123112, -0.17592487, -130039.89, -130039.89, 0.00031737162, 9.99972, 9.998586 
9.548918e+2, 3.1487507e+2, 205084.56, 128445.19, 40073.953, -0.06625284, -0.06774495, 222211.44, 222211.44, 0.0006187058, 10.001227, 10.000289 
9.6524733e+2, 1.24910764e+2, -1470687.8, -1823074.8, 21638.707, 0.17352168, 0.017200503, -1469364.0, 246517.38, 0.000040530904, 10.002605, 9.997993 
9.652267e+2, 1.3491096e+2, -1354834.0, -1692534.8, 4726.635, -0.040298805, 0.19738272, -1354767.9, 263117.66, 0.000008656152, 10.002662, 9.998191 
9.652066e+2, 1.4491026e+2, -1348655.8, -1605831.6, -28560.783, -0.09042791, 0.3030035, -1345522.0, 174372.9, 0.00000019058375, 10.001881, 9.998482 
9.6518797e+2, 1.549086e+2, -1459594.0, -1605753.6, -10212.372, 0.061457932, 0.26958647, -1458884.0, -36973.61, 0.0, 10.00044, 9.998505 
9.651684e+2, 1.6490678e+2, -1283154.6, -1356124.8, 9550.928, 0.09438629, 0.19111125, -1281925.3, 41998.652, 0.0, 10.000482, 9.999524 
9.65148e+2, 1.7490458e+2, -949262.3, -1143433.3, -40162.83, 0.00087940984, 0.0018582983, -941282.9, 284654.84, 0.0, 10.002094, 9.9995365 
9.651285e+2, 1.849028e+2, -922964.3, -1205220.9, -13494.213, -0.03976288, -0.07073679, -922320.6, 205630.73, 0.0, 10.002137, 9.998421 
9.651103e+2, 1.9490129e+2, -1057244.5, -1220795.4, -22430.209, -0.02116846, -0.0762837, -1054224.1, -24257.592, 0.0, 10.000546, 9.998407 
9.65092e+2, 2.0490032e+2, -990331.25, -1038996.44, -28485.365, 0.014814359, -0.05391758, -977200.6, -45224.504, 0.0, 9.999927, 9.999272 
9.650734e+2, 2.1489976e+2, -824829.3, -908266.75, -9783.618, 0.06781819, -0.05411187, -823697.5, 10283.847, 0.0, 10.000382, 9.999279 
9.650548e+2, 2.2489959e+2, -688887.3, -765451.6, 2694.91, 0.1064227, -0.005575133, -688792.56, 47189.703, 0.0, 10.000523, 9.999527 
9.650362e+2, 2.348997e+2, -617420.3, -676081.1, -26014.135, 0.1422239, 0.038201556, -607546.0, 30434.11, 0.0, 10.000324, 9.99956 
9.6501696e+2, 2.4489863e+2, -558031.3, -668258.8, 10435.773, 0.08218016, 0.010746413, -557052.0, -17062.064, 0.0, 10.000364, 9.998923 
9.649972e+2, 2.5489622e+2, -416170.34, -548710.5, 36667.664, -0.06385453, -0.1361904, -406702.47, 35311.004, 0.0, 10.0006695, 9.998921 
9.6497834e+2, 2.648956e+2, -267600.38, -387990.4, 34071.53, -0.09572588, -0.10388016, -258626.7, 85394.164, 0.000000012060779, 10.000841, 9.999273 
9.6496046e+2, 2.7489665e+2, -175315.5, -292444.9, 5376.6426, -0.008667644, 0.058895413, -175069.2, 70944.086, 0.0000023356135, 10.000801, 9.999275 
9.64943e+2, 2.8489587e+2, -95550.03, -184182.17, 14090.095, 0.07752767, 0.050966926, -93364.01, 54656.29, 0.000028869204, 10.000602, 9.999438 
9.649259e+2, 2.9489315e+2, -53568.766, -116496.15, -22670.963, 0.17414857, -0.1817333, -46251.836, 3791.3088, 0.00012890252, 10.000232, 9.99941 
9.649094e+2, 3.0489135e+2, -170427.19, -226451.03, 84334.18, 0.19033319, -0.26184127, -109574.49, -109574.49, 0.00034520676, 9.999431, 9.998711 
9.648911e+2, 3.1489247e+2, -270190.4, -98726.31, 127344.21, -0.09252655, -0.043425024, -30944.41, -30944.41, 0.0006746552, 9.997968, 10.000284 
9.7524744e+2, 1.2493161e+2, -1438889.1, -1761024.1, 3718.31, -0.116822906, 0.26024103, -1438846.3, 276835.7, 0.000058506626, 10.002622, 9.998408 
9.752303e+2, 1.3492903e+2, -1323722.6, -1623341.0, 10425.402, 0.04199008, 0.118582286, -1323360.3, 294346.28, 0.00001444443, 10.002644, 9.99867 
9.752102e+2, 1.4492738e+2, -1309356.0, -1525183.8, -89782.945, 0.06427674, 0.07478127, -1276890.4, 242831.05, 0.0000005546723, 10.001881, 9.99904 
9.751872e+2, 1.549265e+2, -1415990.5, -1524710.8, -56625.22, -0.07404163, 0.064133205, -1391855.8, 29872.283, 0.0, 10.000478, 9.999044 
9.751669e+2, 1.6492519e+2, -1356507.6, -1514733.0, 59363.117, -0.12123565, 0.06468423, -1336712.3, -12973.57, 0.0, 10.000506, 9.998426 
9.751495e+2, 1.7492335e+2, -1028238.9, -1305697.4, 26143.686, -0.060096968, 0.023017284, -1025796.94, 199957.5, 0.0, 10.002086, 9.998427 
9.7513133e+2, 1.8492153e+2, -934911.3, -1220705.0, -76432.29, 0.017863346, 0.0076747676, -915754.44, 212016.84, 0.0, 10.002096, 9.998334 
9.751124e+2, 1.9491956e+2, -1070332.8, -1236752.3, -73190.68, 0.11393632, -0.03802743, -1042724.06, -12932.586, 0.0, 10.0005, 9.99832 
9.750931e+2, 2.0491865e+2, -946054.8, -940027.56, -19109.57, 0.12637456, -0.03668336, -923695.44, 8103.25, 0.0, 9.999887, 9.999975 
9.750738e+2, 2.1491872e+2, -786052.56, -812598.2, 13594.344, 0.053352434, -0.043420624, -780326.06, 53468.254, 0.0, 10.000311, 9.999975 
9.750544e+2, 2.2491807e+2, -740483.9, -853106.25, -12667.572, 0.0038081023, -0.051709138, -739076.6, -3277.721, 0.0, 10.000441, 9.998961 
9.75035e+2, 2.3491652e+2, -675199.25, -771523.56, -27129.068, -0.016044071, -0.11696523, -668084.1, -30269.828, 0.0, 10.000219, 9.998955 
9.7501653e+2, 2.4491598e+2, -503999.72, -543578.0, 14496.55, -0.007118882, -0.104881585, -499258.06, 40560.086, 0.0, 10.000305, 9.999809 
9.749989e+2, 2.5491628e+2, -358849.3, -422353.06, 55810.508, 0.029322296, -0.06990084, -326390.63, 115421.32, 0.0, 10.000629, 9.999811 
9.7498035e+2, 2.649159e+2, -315422.06, -472600.53, 27103.06, 0.0073429374, -0.02789353, -310879.8, 32935.85, 0.0000000034767167, 10.000785, 9.998716 
9.7496074e+2, 2.7491474e+2, -224291.42, -379721.03, 13351.516, -0.07608024, -0.03244702, -223152.86, 22678.396, 0.0000028342504, 10.000743, 9.998701 
9.7494215e+2, 2.849137e+2, -152055.6, -291721.97, -3990.888, -0.07975677, -0.0025344468, -151941.66, -4097.6567, 0.000032313746, 10.000563, 9.99872 
9.749245e+2, 2.9491276e+2, -109654.36, -223164.75, -24248.879, -0.009032876, 0.014071815, -104691.164, -54836.445, 0.00013997531, 10.000193, 9.998695 
9.749075e+2, 3.0491152e+2, -132442.73, -129568.164, 24790.494, 0.055969354, -0.0045994665, -106173.32, -106173.32, 0.00037147623, 9.999352, 9.9994135 
9.748894e+2, 3.149129e+2, -260204.28, -45324.934, 98202.53, -0.08432903, 0.16145676, -7206.9854, -7206.9854, 0.00072747667, 9.9978285, 10.000713 
9.8524976e+2, 1.2495089e+2, -1426674.4, -1707060.8, 65054.383, -0.12812169, 0.23574938, -1412316.0, 303174.25, 0.00008108169, 10.002499, 9.998841 
9.8523194e+2, 1.3494796e+2, -1585007.4, -1704902.5, 41351.64, 0.049644455, 0.01795899, -1572128.6, 45386.742, 0.000022462764, 10.000649, 9.999078 
9.852118e+2, 1.4494611e+2, -1494680.9, -1629337.8, -18779.174, 0.10139742, -0.05818024, -1492111.0, 27420.34, 0.0000013019285, 10.000664, 9.998909 
9.8518866e+2, 1.549453e+2, -1088650.4, -1381074.9, -50204.813, -0.083855025, -0.05220213, -1080271.1, 341267.84, 0.0, 10.002782, 9.998917 
9.851682e+2, 1.6494435e+2, -1047425.0, -1387180.9, 65367.465, -0.14528662, 0.00073002715, -1035282.56, 288265.47, 0.0, 10.0027275, 9.998226 
9.8515075e+2, 1.7494315e+2, -1280062.3, -1447414.9, 82235.984, -0.06324254, 0.04556599, -1246416.5, -20856.813, 0.0, 10.000456, 9.998235 
9.8513263e+2, 1.8494162e+2, -1239061.5, -1350548.4, 40743.926, 0.051218342, 0.060951706, -1225758.6, -98183.94, 0.0, 9.999936, 9.998483 
9.851139e+2, 1.9493955e+2, -960039.25, -1166146.1, 46695.242, 0.18812974, -0.00891361, -949953.56, 79641.32, 0.0, 10.001182, 9.998476 
9.8509425e+2, 2.0493846e+2, -772866.6, -917904.6, 75607.29, 0.18151592, -0.0079964, -740621.75, 190982.97, 0.0, 10.001333, 9.999438 
9.8507386e+2, 2.1493821e+2, -823450.8, -889250.6, 3307.1968, 0.031735346, 0.005613353, -823285.0, 10320.69, 0.0, 10.000306, 9.999454 
9.8505414e+2, 2.249372e+2, -762397.2, -851513.2, -5042.15, -0.04931755, -0.016849102, -762112.8, -26499.326, 0.0, 10.000231, 9.999076 
9.850353e+2, 2.3493531e+2, -535797.8, -690457.1, 20179.615, -0.05067258, -0.12614134, -533208.2, 104421.41, 0.0, 10.001112, 9.999082 
9.85017e+2, 2.4493463e+2, -366357.7, -496641.34, 50601.977, -0.033228833, -0.12533273, -349013.06, 190620.92, 0.0, 10.001348, 9.999624 
9.849995e+2, 2.54935e+2, -322037.66, -425602.25, -6216.0117, 0.0046851845, -0.067032255, -321665.9, 119962.35, 0.0, 10.000978, 9.999619 
9.849811e+2, 2.6493445e+2, -338848.84, -477495.06, -49867.41, 0.022888366, -0.0379395, -322776.1, 20857.424, 0.00000001775074, 10.000589, 9.998785 
9.8496217e+2, 2.7493283e+2, -309759.22, -414599.13, -30245.83, 0.029980684, -0.089129314, -301659.25, -56007.664, 0.000003544514, 10.00012, 9.998772 
9.84943e+2, 2.849319e+2, -244114.56, -407642.03, 9756.45, -0.02937314, -0.021363929, -243534.53, -95869.88, 0.00003520851, 10.000231, 9.998089 
9.8492354e+2, 2.949315e+2, -45116.145, -266404.7, -18649.986, -0.15722035, 0.11540729, -43555.35, 6118.832, 0.00014919741, 10.000944, 9.998042 
9.8490566e+2, 3.049302e+2, 6006.939, 7795.971, -34693.41, -0.09134791, 0.090382814, 41606.395, 41606.395, 0.00039500848, 10.000001, 10.000042 
9.848881e+2, 3.149312e+2, -320368.56, -35434.164, 7094.0225, 0.040281482, 0.161688, -35257.652, -35257.652, 0.00077431643, 9.997224, 10.001084 
9.952537e+2, 1.24968894e+2, -1401317.1, -1654690.4, -25771.605, -0.024742967, -0.021269022, -1398722.4, 316582.0, 0.000108580556, 10.002501, 9.9992 
9.952316e+2, 1.3496771e+2, -1552991.9, -1649091.1, -26939.572, -0.06195585, -0.10089681, -1545955.1, 71357.31, 0.000033028722, 10.000698, 9.999437 
9.952113e+2, 1.449664e+2, -1541545.9, -1736963.3, 47961.695, -0.02951843, -0.10277774, -1530409.3, -11083.979, 0.0000026281716, 10.000703, 9.998156 
9.95192e+2, 1.5496498e+2, -1139404.5, -1486248.3, 36519.785, -0.04666742, -0.08334025, -1135600.9, 285741.94, 0.00000000019976186, 10.002776, 9.9981985 
9.95172e+2, 1.6496423e+2, -1008547.25, -1297806.5, -26836.629, -0.062144645, -0.006573446, -1006078.5, 317273.34, 0.0, 10.002691, 9.998857 
9.951513e+2, 1.7496394e+2, -1232396.6, -1354061.4, 2795.467, -0.06708575, 0.06527048, -1232332.4, -6978.2, 0.0, 10.000477, 9.998866 
9.951322e+2, 1.8496297e+2, -1212042.3, -1297208.8, 78286.31, -0.00084675115, 0.08636594, -1165507.1, -38144.484, 0.0, 9.999948, 9.998844 
9.951147e+2, 1.9496116e+2, -935897.7, -1111762.4, 98154.734, 0.13940856, 0.0070970883, -892048.2, 137330.22, 0.0, 10.001163, 9.998859 
9.950951e+2, 2.0495965e+2, -903874.06, -1171993.1, 27411.03, 0.1212749, 0.029301029, -901100.4, 30294.967, 0.0, 10.001259, 9.997729 
9.950734e+2, 2.1495818e+2, -959336.8, -1146393.6, -28567.443, -0.056471474, 0.09659622, -955071.25, -121655.89, 0.0, 10.000201, 9.997739 
9.950539e+2, 2.2495705e+2, -721520.25, -739546.4, 21824.023, -0.10760732, 0.10705209, -706921.44, 28503.703, 0.0, 10.000117, 9.999897 
9.950367e+2, 2.349561e+2, -491575.38, -574540.4, 59871.313, -0.0306802, 0.007005865, -460219.9, 177206.16, 0.0, 10.001014, 9.999923 
9.9501824e+2, 2.4495457e+2, -466127.9, -690272.9, 28685.582, -0.062645614, -0.054883774, -462515.03, 76922.97, 0.0, 10.001283, 9.998327 
9.9499846e+2, 2.549523e+2, -422709.84, -619731.06, -13136.25, -0.20416774, -0.1302587, -421837.88, 19624.783, 0.0, 10.000908, 9.998322 
9.949805e+2, 2.6495114e+2, -302160.1, -384428.75, -73251.04, -0.10601355, -0.1292642, -259284.03, 84190.055, 0.000000028595345, 10.00052, 9.999457 
9.949644e+2, 2.7495095e+2, -274634.9, -320816.47, -39213.01, 0.22843634, -0.10663586, -252219.17, -6745.1763, 0.000003781716, 10.000036, 9.999454 
9.949452e+2, 2.849504e+2, -289541.06, -489498.38, 29635.156, 0.15611954, -0.00659901, -285241.34, -137758.47, 0.000036350866, 10.000172, 9.997558 
9.949229e+2, 2.9494944e+2, -84132.96, -338215.7, 17881.115, -0.33401346, 0.121609345, -82880.75, -33379.215, 0.00015454051, 10.000908, 9.997563 
9.949037e+2, 3.049474e+2, 33972.46, 73225.53, -141123.56, -0.3028131, 0.022904463, 196080.8, 196080.8, 0.00041140616, 9.99997, 10.000508 
9.948865e+2, 3.1494746e+2, -330061.7, -5858.2715, -78093.9, 0.13599831, -0.049007293, 11972.287, 11972.287, 0.00080724823, 9.997028, 10.001376 
1.0052565e+3, 1.249879e+2, -1577604.0, -1743687.5, -76324.45, 0.072394155, -0.10025606, -1547856.9, 167259.22, 0.00014134821, 10.001324, 9.999147 
1.005233e+3, 1.3498774e+2, -1300500.0, -1532090.4, -129779.37, -0.069406494, -0.07208746, -1242366.4, 374749.38, 0.000046426092, 10.002465, 9.999379 
1.0052128e+3, 1.4498685e+2, -1308058.3, -1608265.3, 4106.507, -0.023396686, -0.037175905, -1308002.1, 211123.28, 0.00000474816, 10.002262, 9.998276 
1.0051942e+3, 1.5498532e+2, -1420993.8, -1611891.6, 30533.133, -0.0015762758, -0.035387624, -1416229.0, 4914.468, 0.000000004412824, 10.000812, 9.998283 
1.0051742e+3, 1.649843e+2, -1297397.5, -1411170.9, -34900.586, 0.009412074, -0.0010876977, -1287544.8, 35609.547, 0.0, 10.000587, 9.999102 
1.00515306e+3, 1.7498364e+2, -1049522.9, -1236246.4, -47555.883, 0.010674651, 0.007277653, -1038108.8, 187050.27, 0.0, 10.001605, 9.999135 
1.0051336e+3, 1.8498276e+2, -930241.9, -1169499.8, 50866.81, 0.048835862, 0.02746944, -919876.5, 207289.84, 0.0, 10.001922, 9.998769 
1.0051159e+3, 1.9498147e+2, -891860.75, -1100265.6, 24060.826, 0.12741797, 0.009175833, -889118.94, 140058.7, 0.0, 10.001512, 9.998768 
1.005096e+3, 2.0497993e+2, -925746.8, -1194817.6, -32407.637, 0.09640479, 0.03745308, -921898.56, 9296.653, 0.0, 10.001158, 9.997616 
1.0050739e+3, 2.1497789e+2, -878981.4, -1122101.9, 13608.741, -0.04821363, 0.05876358, -878222.0, -45001.176, 0.0, 10.000812, 9.997609 
1.0050545e+3, 2.2497663e+2, -689944.6, -746107.56, 135804.33, -0.07030854, 0.07237857, -579348.8, 155883.61, 0.0, 10.000432, 9.999703 
1.0050379e+3, 2.3497592e+2, -653204.56, -677382.2, 80835.57, 0.03316547, 0.017741028, -583558.9, 53673.223, 0.0, 10.000007, 9.999706 
1.0050194e+3, 2.4497429e+2, -685285.25, -840965.8, 47288.68, -0.0016260499, -0.023671845, -672046.9, -132800.13, 0.0, 9.999963, 9.9979315 
1.00499935e+3, 2.549716e+2, -539725.25, -718885.6, 59245.707, -0.17273991, -0.099949695, -521905.9, -80628.234, 0.0, 10.000292, 9.997936 
1.0049807e+3, 2.6497033e+2, -336803.25, -404668.03, 4329.9854, -0.12487277, -0.08776073, -336528.1, 6762.9927, 0.000000017098808, 10.000313, 9.999409 
1.0049635e+3, 2.7497032e+2, -284884.34, -332111.16, -33646.953, 0.14200152, -0.042532075, -267391.66, -22102.596, 0.000003428396, 9.999999, 9.999389 
1.0049444e+3, 2.8496978e+2, -349052.03, -435506.97, 84974.46, 0.10025641, 0.024852693, -296941.8, -149646.83, 0.00003625069, 9.999404, 9.998298 
1.00492336e+3, 2.949686e+2, -386948.94, -404822.75, 152865.6, -0.24784337, 0.060905874, -242759.22, -193449.03, 0.00015742959, 9.998469, 9.998287 
1.0049036e+3, 3.049665e+2, -189752.25, -89019.81, -13037.623, -0.23124866, -0.05805824, -87359.734, -87359.734, 0.00042159262, 9.998665, 10.000021 
1.0048844e+3, 3.149658e+2, 38687.75, 83140.69, -56637.145, 0.08480404, -0.14998971, 121756.49, 121756.49, 0.0008274677, 9.999916, 10.000606 
1.0152577e+3, 1.2500797e+2, -1605885.4, -1808731.3, -58132.543, 0.025806675, -0.015682805, -1590406.6, 124517.23, 0.0001798155, 10.001339, 9.998697 
1.01523586e+3, 1.350081e+2, -1326530.1, -1594120.5, -79716.52, -0.052497927, 0.08459287, -1304582.4, 312341.97, 0.000062927356, 10.002489, 9.998944 
1.0152159e+3, 1.4500748e+2, -1250763.4, -1491774.6, -56591.8, 0.035300065, 0.12760848, -1238136.6, 280794.2, 0.000007860604, 10.00227, 9.999074 
1.0151951e+3, 1.5500633e+2, -1366820.4, -1500190.4, -15581.872, -0.010304129, 0.0885621, -1365024.0, 55916.715, 0.000000028517778, 10.000816, 9.999047 
1.015175e+3, 1.6500466e+2, -1298652.4, -1422310.5, -5019.297, 0.0076481723, 0.024470981, -1298449.0, 24505.67, 0.0, 10.000618, 9.999012 
1.0151558e+3, 1.7500235e+2, -1048898.9, -1246353.4, -2490.4944, 0.10806024, -0.12610865, -1048867.5, 176105.94, 0.0, 10.001646, 9.999048 
1.01513654e+3, 1.8500105e+2, -967904.06, -1244608.1, 28457.432, 0.13447155, -0.116198, -965007.7, 161977.33, 0.0, 10.001906, 9.9982605 
1.0151171e+3, 1.9500054e+2, -937413.6, -1179522.1, 16025.73, 0.08571859, -0.006148115, -936357.44, 92634.39, 0.0, 10.001441, 9.99826 
1.0150967e+3, 2.0499936e+2, -841681.44, -995935.2, -51751.434, 0.036343478, 0.013491567, -825927.94, 105075.92, 0.0, 10.001057, 9.999027 
1.0150752e+3, 2.1499732e+2, -788893.25, -919354.9, 6115.642, -0.012855239, -0.108622074, -788607.2, 44415.363, 0.0, 10.000746, 9.99903 
1.0150557e+3, 2.2499587e+2, -790566.75, -932288.44, 111644.77, -0.0016404476, -0.123414315, -729193.7, 5842.6597, 0.0, 10.000337, 9.99847 
1.01503834e+3, 2.3499481e+2, -752874.56, -862400.94, 72554.94, 0.07112544, -0.089466184, -716735.44, -79688.41, 0.0, 9.999912, 9.99848 
1.0150203e+3, 2.4499388e+2, -668034.5, -780315.44, 52394.688, 0.082870424, -0.023296282, -647383.3, -108324.54, 0.0, 9.999862, 9.998394 
1.01500176e+3, 2.5499287e+2, -517196.78, -654905.4, 79295.766, 0.029926246, 0.020671615, -481033.3, -39960.105, 0.0, 10.000222, 9.998406 
1.0149814e+3, 2.649919e+2, -399267.66, -524100.56, -13025.586, -0.0979415, 0.08069682, -397923.0, -54837.6, 0.000000011022683, 10.000261, 9.998617 
1.0149592e+3, 2.7499095e+2, -344998.0, -444464.84, -34498.36, -0.30094233, 0.10617227, -334204.16, -89107.71, 0.0000031084232, 9.999943, 9.998644 
1.0149404e+3, 2.849901e+2, -218661.23, -150418.06, 43826.715, -0.25677183, 0.07984453, -128996.3, 18103.742, 0.000035475467, 9.999347, 10.000279 
1.0149247e+3, 2.9498923e+2, -268835.94, -124274.82, 129433.21, 0.03134839, -0.05273471, -48307.496, 790.3402, 0.00015859005, 9.998332, 10.000271 
1.0149052e+3, 3.0498764e+2, -308116.22, -319887.28, 34561.46, 0.047892302, -0.14358549, -278942.75, -278942.75, 0.00042792628, 9.998591, 9.998475 
1.0148811e+3, 3.1498662e+2, -102136.64, -186055.64, 15489.829, -0.27217823, -0.11491063, -99368.81, -99368.81, 0.0008405054, 9.999825, 9.9987955 
1.0252594e+3, 1.250277e+2, -1727014.8, -1837806.6, 14321.128, 0.12250451, 0.007835679, -1725193.5, -10462.277, 0.00022439056, 10.000379, 9.998962 
1.0252378e+3, 1.3502799e+2, -1409045.0, -1610066.5, 22639.463, -0.06770336, 0.10123847, -1406526.8, 210204.22, 0.0000828242, 10.001812, 9.999167 
1.025218e+3, 1.4502746e+2, -1260814.8, -1453210.0, -19486.514, 0.044412863, 0.1247187, -1258860.9, 259874.64, 0.000012107546, 10.002002, 9.999471 
1.02519654e+3, 1.5502663e+2, -1290191.9, -1415981.8, -18620.982, 0.045045733, 0.07298578, -1287493.3, 133247.22, 0.00000009714164, 10.001128, 9.999473 
1.0251763e+3, 1.6502512e+2, -1239259.6, -1411231.5, 75545.195, 0.058109697, 0.01124185, -1210787.4, 111964.93, 0.0, 10.00111, 9.998846 
1.0251576e+3, 1.7502286e+2, -1005655.4, -1242589.3, 56983.574, 0.109760396, -0.11575532, -992663.06, 232108.61, 0.0, 10.00202, 9.998892 
1.0251383e+3, 1.8502124e+2, -986061.6, -1265162.6, 42492.04, 0.1308812, -0.12401723, -979735.75, 147051.17, 0.0, 10.001831, 9.998157 
1.0251183e+3, 1.9502011e+2, -1074221.1, -1254128.6, 45898.4, 0.10853681, -0.06744589, -1063188.0, -34388.05, 0.0, 10.0005455, 9.998176 
1.02509744e+3, 2.0501913e+2, -930516.2, -976809.3, 12606.276, 0.054917064, -0.04807847, -927305.94, 3503.124, 0.0, 10.000181, 9.999586 
1.02507584e+3, 2.1501818e+2, -756283.2, -842568.94, -7726.3867, -0.020178255, -0.113110095, -755596.8, 77218.82, 0.0, 10.00071, 9.99958 
1.0250562e+3, 2.2501703e+2, -697755.56, -921719.2, 105640.79, -0.019924412, -0.11275891, -655789.6, 79037.484, 0.0, 10.001117, 9.998166 
1.02503866e+3, 2.3501548e+2, -572133.3, -810131.7, 120215.57, 0.052889444, -0.09481396, -521979.9, 114864.945, 0.0, 10.001311, 9.998165 
1.0250206e+3, 2.4501471e+2, -465464.72, -657369.0, 138171.88, 0.0686295, -0.006797545, -393195.94, 145660.16, 0.0, 10.001153, 9.998612 
1.0250021e+3, 2.5501448e+2, -453901.25, -602454.5, 127237.62, 0.023736728, 0.09412763, -380846.84, 60016.12, 0.0, 10.000563, 9.998604 
1.02498144e+3, 2.6501358e+2, -410266.06, -570583.1, 59448.156, -0.11356568, 0.16752382, -390627.44, -47751.99, 0.00000001218603, 10.000353, 9.998257 
1.024959e+3, 2.750119e+2, -291358.9, -456525.16, 54687.69, -0.3384422, 0.15712945, -274893.0, -29998.143, 0.0000027111198, 10.000474, 9.998304 
1.0249401e+3, 2.850107e+2, -77922.125, -25331.846, 70849.66, -0.2560226, 0.084979065, 23944.889, 170845.38, 0.00003356273, 10.000083, 10.000776 
1.02492444e+3, 2.950097e+2, -116777.88, 2796.7324, 21361.895, 0.13323908, -0.10585026, 6498.4214, 55393.094, 0.00015687123, 9.999147, 10.00075 
1.0249048e+3, 3.050086e+2, -256899.06, -297903.8, 18684.896, 0.12842344, -0.1690801, -249662.06, -249662.06, 0.0004299211, 9.998968, 9.99844 
1.0248805e+3, 3.150078e+2, -172387.36, -237458.2, 82791.58, -0.28908488, -0.11374989, -115967.74, -115967.74, 0.000848036, 9.9994135, 9.99864 
1.0352611e+3, 1.2504718e+2, -1656796.5, -1710196.5, 35749.973, 0.21312982, -0.020565338, -1638876.4, 75661.62, 0.00027553758, 10.000463, 9.999794 
1.03523865e+3, 1.350475e+2, -1365326.6, -1503094.1, 79308.734, -0.17163448, -0.002197935, -1329163.5, 287371.53, 0.000106410545, 10.001756, 9.999925 
1.0352191e+3, 1.4504695e+2, -1255266.5, -1440220.9, -63134.227, -0.06343315, -0.021571988, -1235770.6, 282768.28, 0.000017580353, 10.001988, 9.99957 
1.03519835e+3, 1.5504621e+2, -1275487.9, -1394087.1, -45892.07, 0.09717144, -0.07601844, -1259804.0, 160739.05, 0.00000023822265, 10.001162, 9.999611 
1.035178e+3, 1.6504566e+2, -1251677.4, -1441070.1, 98261.17, 0.092903115, -0.037633777, -1209908.9, 112638.64, 0.0, 10.00113, 9.99863 
1.0351583e+3, 1.7504513e+2, -1029445.94, -1283004.0, 96839.28, -0.039369546, 0.03204552, -996692.0, 227862.05, 0.0, 10.001984, 9.998632 
1.0351387e+3, 1.8504332e+2, -974269.94, -1230472.9, -14331.499, -0.02344746, 0.0044922875, -973470.75, 153101.16, 0.0, 10.001787, 9.998415 
1.03511915e+3, 1.9504012e+2, -1059511.6, -1217553.4, 2091.4717, 0.13174306, -0.1743361, -1059484.0, -30881.547, 0.0, 10.00052, 9.998439 
1.035098e+3, 2.0503923e+2, -957421.94, -1021802.3, 23106.05, 0.09315798, -0.14510305, -949987.7, -19376.363, 0.0, 10.00013, 9.999303 
1.0350754e+3, 2.1504045e+2, -783622.44, -885900.44, 19779.55, -0.13069354, 0.03228999, -779930.56, 52670.254, 0.0, 10.000646, 9.999314 
1.0350558e+3, 2.2504e+2, -675082.06, -847743.2, 105372.375, -0.18742266, 0.0912662, -625191.06, 109414.46, 0.0, 10.001004, 9.998728 
1.0350387e+3, 2.3503785e+2, -543150.25, -732218.7, 135054.63, -0.08822418, -0.013413129, -472831.6, 163794.9, 0.0, 10.001233, 9.998736 
1.0350201e+3, 2.4503669e+2, -485721.25, -676236.2, 109706.33, -0.113026656, 0.014180876, -435687.75, 102952.06, 0.0, 10.001055, 9.99853 
1.035e+3, 2.5503638e+2, -466195.44, -616677.4, 114144.21, -0.2546731, 0.11668467, -404724.66, 35922.594, 0.0, 10.00051, 9.998533 
1.0349807e+3, 2.650353e+2, -413554.8, -561191.75, 57608.047, -0.23136325, 0.16988824, -393736.47, -51075.313, 0.00000000560088, 10.00029, 9.998347 
1.0349625e+3, 2.7503327e+2, -302071.16, -453673.66, 69971.164, -0.04304849, 0.11359296, -274713.34, -30029.797, 0.0000022721786, 10.000377, 9.998365 
1.0349431e+3, 2.850315e+2, -162082.52, -188074.86, 30021.617, 0.026427912, 0.040891826, -142364.8, 4331.8247, 0.000031159278, 10.000027, 9.999687 
1.0349222e+3, 2.9503006e+2, -198849.38, -155454.48, -627.2128, -0.022987984, -0.09009946, -155445.42, -106745.016, 0.00015252481, 9.999098, 9.999685 
1.03490196e+3, 3.0502948e+2, -158196.69, -87947.09, 31336.863, -0.062287133, -0.12191267, -76000.13, -76000.13, 0.00042681675, 9.998949, 9.999888 
1.034882e+3, 3.150296e+2, -95107.914, -29669.248, 122589.91, -0.11453386, -0.118054144, 64492.62, 64492.62, 0.0008482349, 9.999233, 10.000144 
1.04526184e+3, 1.2506776e+2, -1370834.5, -1584222.6, 75153.75, 0.14378048, -0.03365257, -1347023.0, 367311.44, 0.0003338259, 10.002455, 9.99971 
1.0452401e+3, 1.3506773e+2, -1598789.1, -1630840.5, 51575.37, -0.11297214, -0.034571443, -1560807.0, 55527.59, 0.00013404706, 10.000195, 9.999809 
1.0452211e+3, 1.4506699e+2, -1546460.9, -1580134.4, -58233.01, 0.03132326, -0.06976615, -1502679.5, 15661.379, 0.000024406929, 9.999995, 9.99957 
1.0451995e+3, 1.550664e+2, -1157469.4, -1335110.6, -70067.016, 0.06512245, -0.10589031, -1133159.6, 287184.88, 0.0000004785213, 10.001973, 9.999622 
1.0451789e+3, 1.6506614e+2, -1099142.5, -1365073.1, 57286.38, 0.03864994, -0.041961405, -1087327.0, 235020.39, 0.0, 10.002167, 9.998651 
1.0451597e+3, 1.7506598e+2, -1218651.6, -1369002.6, 60718.145, -0.025696978, 0.060852416, -1197193.5, 27158.127, 0.0, 10.000664, 9.9986725 
1.04514e+3, 1.8506466e+2, -1123354.5, -1234313.1, -2294.0603, -0.0002849753, 0.049270883, -1123307.1, 3057.4512, 0.0, 10.000473, 9.9990225 
1.04512e+3, 1.9506209e+2, -865665.1, -1058485.9, 25136.344, 0.11243526, -0.124145426, -862442.2, 165945.03, 0.0, 10.001566, 9.999031 
1.04509875e+3, 2.0506105e+2, -753578.4, -993876.06, 61094.496, 0.07310824, -0.107144564, -738937.44, 191460.5, 0.0, 10.0018425, 9.998666 
1.04507655e+3, 2.150613e+2, -733457.0, -931720.94, 15359.36, -0.11418436, 0.038931757, -732274.2, 100124.79, 0.0, 10.001303, 9.998679 
1.0450569e+3, 2.2506076e+2, -649247.0, -783403.4, 97207.51, -0.16612111, 0.095491834, -598220.2, 136185.13, 0.0, 10.000953, 9.999196 
1.0450397e+3, 2.350593e+2, -579083.44, -701409.44, 102262.84, -0.09065963, 0.017371573, -521088.53, 115329.695, 0.0, 10.000768, 9.999178 
1.0450205e+3, 2.4505824e+2, -595838.0, -733624.9, 65327.88, -0.13115963, 0.033171818, -569789.1, -31359.488, 0.0, 10.000305, 9.998503 
1.0449997e+3, 2.5505745e+2, -604099.3, -681958.44, 59606.273, -0.27761516, 0.087500386, -571836.06, -131395.33, 0.0, 9.999563, 9.998537 
1.0449807e+3, 2.6505634e+2, -539820.56, -570623.06, 54491.758, -0.19979209, 0.11222971, -498595.4, -156141.86, 0.0000000009945924, 9.999205, 9.998807 
1.04496375e+3, 2.7505457e+2, -454400.6, -480121.78, 78338.32, 0.10278546, 0.041897263, -387874.25, -143403.05, 0.0000020282196, 9.999114, 9.998799 
1.0449441e+3, 2.8505296e+2, -271615.44, -336000.56, 85172.97, 0.15477252, 0.004700118, -212754.2, -66269.47, 0.00002862002, 9.99967, 9.998851 
1.044922e+3, 2.9505152e+2, -4935.086, -153044.81, 52913.605, -0.036598913, -0.045413684, 12026.382, 60520.645, 0.00014590684, 10.00081, 9.998884 
1.0449012e+3, 3.0505118e+2, 64908.844, 58436.28, 30534.451, -0.083055265, -0.02905213, 92378.04, 92378.04, 0.0004167961, 10.0003195, 10.000231 
1.0448819e+3, 3.1505105e+2, -229750.7, -54042.164, 3818.6975, 0.016530689, -0.08337975, -53959.21, -53959.21, 0.0008355391, 9.998112, 10.000528 
1.055261e+3, 1.2508935e+2, -1437566.4, -1699996.1, -58926.72, -0.22268355, -0.029133102, -1424942.1, 289178.84, 0.00039971265, 10.002373, 9.998944 
1.055242e+3, 1.3508868e+2, -1658885.1, -1756900.9, -25935.121, 0.028268883, -0.0048679905, -1652445.6, -36316.336, 0.00016604259, 10.00021, 9.998933 
1.0552233e+3, 1.4508767e+2, -1544533.9, -1593144.0, 7384.8022, 0.23829721, -0.018465789, -1543436.8, -25296.611, 0.000032768716, 10.000064, 9.999449 
1.05519995e+3, 1.550873e+2, -1170356.0, -1361041.5, 10997.653, -0.1085366, -0.020810924, -1169723.8, 250419.7, 0.0000008393984, 10.001961, 9.9994545 
1.0551792e+3, 1.650866e+2, -1088750.1, -1329188.6, -5657.2427, -0.16784371, -0.0051537044, -1088617.0, 233533.98, 0.0, 10.0021105, 9.99892 
1.0551615e+3, 1.7508544e+2, -1197137.3, -1327422.4, 12017.937, 0.07953573, -0.030518763, -1196037.9, 28125.828, 0.0, 10.000678, 9.998949 
1.0551418e+3, 1.8508531e+2, -1059895.9, -1098490.3, 30773.678, 0.12856661, 0.016167788, -1042869.56, 83294.54, 0.0, 10.000457, 9.999962 
1.0551204e+3, 1.9508602e+2, -810257.2, -929542.8, 72571.82, -0.017316258, 0.07620254, -775964.2, 252189.95, 0.0, 10.001505, 9.999945 
1.0550994e+3, 2.0508456e+2, -839989.7, -1151681.4, 32195.871, -0.06834554, 0.05861668, -836698.75, 93470.2, 0.0, 10.001746, 9.997631 
1.0550789e+3, 2.1508086e+2, -816142.56, -1086009.8, 2583.7683, -0.028815176, -0.090268984, -816117.8, 16091.41, 0.0, 10.0012245, 9.997659 
1.0550594e+3, 2.2507939e+2, -640411.5, -744410.1, 85143.984, -0.015191899, -0.09030059, -592643.94, 141581.33, 0.0, 10.000859, 9.99951 
1.0550411e+3, 2.3507994e+2, -566983.3, -658387.06, 102850.99, -0.02461821, -0.0019297984, -500137.47, 136082.23, 0.0, 10.000687, 9.999513 
1.0550217e+3, 2.4507943e+2, -605617.1, -735594.25, 29498.732, -0.056937005, 0.049407713, -599235.56, -61010.387, 0.0, 10.000226, 9.998528 
1.0550011e+3, 2.550777e+2, -611665.06, -684257.9, 38223.18, -0.111145176, 0.007190244, -595250.56, -155007.4, 0.0, 9.999501, 9.998552 
1.0549812e+3, 2.6507658e+2, -494976.0, -456848.03, 45623.496, -0.082075596, -0.009259472, -426465.7, -84212.35, 0.000000000012280949, 9.999123, 9.999623 
1.0549621e+3, 2.7507585e+2, -408413.5, -366542.38, 86525.26, 0.026968056, -0.056923468, -298455.94, -54198.316, 0.0000016155456, 9.999041, 9.999613 
1.054943e+3, 2.850751e+2, -319470.22, -426408.0, 123170.29, 0.058039706, -0.019103708, -238663.86, -92399.516, 0.000025303238, 9.999629, 9.998251 
1.05492346e+3, 2.9507414e+2, -57095.168, -249125.63, 108497.63, 0.0209211, 0.03857208, -8228.858, 40046.313, 0.000137169, 10.000758, 9.998252 
1.05490245e+3, 3.050737e+2, 469.78458, -64445.453, -55556.23, -0.013263807, 0.11849009, 32354.934, 32354.934, 0.00040068463, 10.00027, 9.99941 
1.05487965e+3, 3.150722e+2, -302401.38, -173673.14, -59636.4, -0.04768177, 0.008582052, -150291.94, -150291.94, 0.00081052736, 9.997985, 9.999766 
1.0652617e+3, 1.2511057e+2, -1851557.0, -1847690.4, -110919.32, -0.21507332, 0.004003407, -1738687.5, -24772.34, 0.00047318285, 9.999303, 9.999413 
1.0652429e+3, 1.3511014e+2, -1458371.9, -1613815.4, 13853.453, 0.06064643, 0.010890029, -1457146.9, 158771.11, 0.00020250746, 10.001396, 9.999334 
1.0652245e+3, 1.4510906e+2, -1340254.1, -1541309.5, 105660.18, 0.27413455, -0.0087025855, -1294939.9, 222989.55, 0.000042863663, 10.001671, 9.99903 
1.06520094e+3, 1.5510835e+2, -1442682.5, -1534982.8, 68611.89, -0.10812531, -0.00056338834, -1406143.9, 13795.198, 0.0000013547858, 10.000283, 9.999065 
1.0651801e+3, 1.6510767e+2, -1326270.5, -1356197.6, 63390.754, -0.1863353, -0.0028633908, -1276101.1, 45845.24, 0.0, 10.000093, 9.999714 
1.0651622e+3, 1.751069e+2, -1093272.8, -1189562.3, 103974.33, 0.06921157, -0.06452572, -1026837.5, 197114.6, 0.0, 10.001013, 9.999742 
1.0651426e+3, 1.8510714e+2, -1017585.25, -1098266.4, 119497.59, 0.14194605, -0.011806637, -931802.7, 194146.22, 0.0, 10.000828, 9.999785 
1.0651212e+3, 1.9510816e+2, -1099983.5, -1088838.3, 65547.02, 0.023176022, 0.09522811, -1028627.4, -688.26904, 0.0, 9.999596, 9.999772 
1.0651004e+3, 2.0510687e+2, -1106562.4, -1213310.1, 77368.02, -0.020941475, 0.072640546, -1065943.8, -135992.0, 0.0, 9.99963, 9.998225 
1.0650802e+3, 2.1510325e+2, -829575.6, -1028193.25, 150229.55, 0.011001954, -0.12367827, -748797.94, 83189.5, 0.0, 10.000859, 9.99823 
1.06506065e+3, 2.2510189e+2, -688780.94, -836557.8, 228993.48, 0.026333122, -0.110758916, -522050.3, 211952.8, 0.0, 10.000826, 9.998894 
1.0650417e+3, 2.3510252e+2, -775232.9, -823638.2, 164580.64, 0.026139956, 0.048748136, -633084.8, 2916.3943, 0.0, 9.999546, 9.998923 
1.0650222e+3, 2.4510196e+2, -662769.0, -696031.1, 127895.26, 0.013965359, 0.09501302, -550428.0, -12420.825, 0.0, 9.99955, 9.999124 
1.0650021e+3, 2.5510004e+2, -385518.53, -512479.63, 161570.56, -0.012577545, -0.022321444, -275405.25, 164617.42, 0.0, 10.00078, 9.999121 
1.064982e+3, 2.6509875e+2, -242444.38, -403932.25, 129907.45, -0.022495078, -0.05106476, -170232.33, 171801.19, 0.0, 10.001143, 9.999018 
1.06496155e+3, 2.75098e+2, -220362.28, -337564.13, 46616.055, -0.008349131, -0.04686919, -204082.47, 39958.18, 0.00000091217555, 10.000599, 9.99906 
1.06494226e+3, 2.8509727e+2, -227078.77, -348867.66, 106233.87, 0.0056957207, 0.003113662, -165524.17, -19476.146, 0.000020741376, 10.000132, 9.998537 
1.0649237e+3, 2.9509628e+2, -183628.58, -278074.56, 141343.13, 0.026309054, 0.034878615, -81828.445, -33770.4, 0.0001251533, 9.999751, 9.998534 
1.064903e+3, 3.0509576e+2, -79257.195, -220232.69, -13217.719, 0.027076224, 0.14558259, -78028.62, -78028.62, 0.0003777452, 10.000216, 9.998368 
1.06488e+3, 3.1509364e+2, 125637.19, -69014.734, -64792.574, 0.027272005, 0.071863055, 145231.8, 145231.8, 0.00077367935, 10.001346, 9.99887 
1.0752634e+3, 1.2513146e+2, -1737996.1, -1606204.3, -82569.945, -0.0152215, 0.055265024, -1566459.0, 147257.36, 0.00055371417, 9.999294, 10.001065 
1.0752431e+3, 1.351321e+2, -1361124.5, -1395989.6, 93615.086, -0.07339492, 0.013243303, -1283332.6, 332367.7, 0.00024334127, 10.001339, 10.000851 
1.0752245e+3, 1.4513113e+2, -1392685.9, -1647209.8, 41498.117, 0.08809261, -0.036019567, -1386090.8, 131618.39, 0.00005483326, 10.001647, 9.99832 
1.0752024e+3, 1.5512952e+2, -1485741.9, -1631365.9, 25687.115, -0.013725001, -0.049318675, -1481343.8, -61611.734, 0.000002073113, 10.000306, 9.998395 
1.0751813e+3, 1.6512936e+2, -1235822.1, -1168561.9, 89865.234, -0.092678614, -0.029805753, -1106240.1, 215493.42, 0.0000000000166348, 10.000095, 10.000999 
1.0751616e+3, 1.7513035e+2, -1006063.3, -1008564.0, 142459.16, -0.10882093, -0.048143923, -864849.0, 358868.6, 0.0, 10.001007, 10.000987 
1.07514195e+3, 1.8513013e+2, -1112118.3, -1282095.8, 63200.016, -0.015008215, -0.040449817, -1091195.1, 34524.816, 0.0, 10.00078, 9.998546 
1.0751224e+3, 1.9512859e+2, -1186509.0, -1262970.4, 26949.621, 0.16828738, -0.062782794, -1177965.0, -150224.1, 0.0, 9.999576, 9.998585 
1.07510194e+3, 2.051281e+2, -965803.8, -911527.75, 114948.74, 0.14921722, -0.053443335, -820557.0, 109187.91, 0.0, 9.999586, 10.0003195 
1.0750804e+3, 2.1512842e+2, -697139.0, -733451.44, 201399.73, -0.05794001, -0.068987496, -513078.72, 318655.8, 0.0, 10.000773, 10.000296 
1.0750603e+3, 2.251281e+2, -810153.94, -1064280.8, 173100.98, -0.102173485, 0.02404057, -722487.1, 11253.234, 0.0, 10.000721, 9.997382 
1.0750413e+3, 2.3512705e+2, -890563.56, -1043626.25, 125667.85, 0.007359784, 0.16550945, -819957.4, -184194.61, 0.0, 9.999465, 9.997452 
1.075022e+3, 2.451259e+2, -597046.06, -544174.3, 170081.02, 0.024305021, 0.1709784, -398486.94, 139288.14, 0.0, 9.999481, 10.000201 
1.0750027e+3, 2.5512445e+2, -316897.63, -361479.28, 216298.89, -0.04721257, -0.010834803, -121744.016, 318035.9, 0.0, 10.000739, 10.00018 
1.0749825e+3, 2.6512283e+2, -395725.0, -704893.44, 102791.61, -0.07652613, -0.01999892, -364668.72, -22874.1, 0.000000000031670343, 10.001071, 9.996986 
1.0749618e+3, 2.7512097e+2, -371658.7, -635723.94, 35780.156, -0.06736491, 0.07567184, -366896.47, -123076.18, 0.00000057346807, 10.000529, 9.997047 
1.07494175e+3, 2.851194e+2, -148950.89, -174400.63, 83170.16, -0.07194023, 0.08545944, -77537.79, 68297.586, 0.000016659129, 10.000081, 9.999759 
1.07492246e+3, 2.95118e+2, -107827.33, -106995.36, 139302.66, -0.09204457, -0.048735864, 31891.941, 79733.97, 0.00011189467, 9.999692, 9.999739 
1.0749027e+3, 3.051174e+2, -175931.69, -410594.44, 31175.645, -0.03310559, 0.056892533, -171860.53, -171860.53, 0.00035149738, 10.000175, 9.99708 
1.07488245e+3, 3.1511524e+2, 29671.145, -251898.64, 3381.0872, 0.10012654, 0.11084061, 29711.738, 29711.738, 0.00073250505, 10.001277, 9.997649 
1.08526334e+3, 1.2515284e+2, -1851179.3, -1641840.9, 37870.375, 0.10215461, 0.050898824, -1635200.6, 78306.375, 0.00064071716, 9.99842, 10.00126 
1.08524315e+3, 1.3515295e+2, -1635777.5, -1513764.6, 116904.7, -0.09726685, -0.055968694, -1442905.6, 172590.2, 0.00028839763, 9.999379, 10.001 
1.0852244e+3, 1.4515238e+2, -1603039.9, -1684445.6, 7672.12, 0.010339163, -0.098827176, -1602323.1, -84823.36, 0.00006873226, 9.999948, 9.998873 
1.08520314e+3, 1.5515184e+2, -1468987.8, -1565065.9, 57525.453, 0.04160336, -0.05848257, -1442080.6, -22569.533, 0.0000030594845, 10.000178, 9.998908 
1.085182e+3, 1.6515209e+2, -1286810.6, -1240335.1, 139842.61, -0.010965382, -0.0031754007, -1121812.8, 199697.31, 0.000000000186287, 9.999954, 10.000572 
1.08516164e+3, 1.751529e+2, -1275042.9, -1185373.6, 52738.92, -0.11173156, 0.0041962913, -1160987.3, 62511.83, 0.0, 9.999371, 10.00056 
1.0851418e+3, 1.8515246e+2, -1221649.6, -1297560.3, -12189.35, -0.05680091, -0.0047967257, -1219740.4, -94236.19, 0.0, 9.999864, 9.998881 
1.0851225e+3, 1.9515075e+2, -906205.25, -1091040.3, 50046.336, 0.13707009, -0.079054855, -893524.56, 134000.98, 0.0, 10.001347, 9.99891 
1.0851024e+3, 2.0515068e+2, -663089.44, -752814.7, 132844.61, 0.1453765, -0.04791733, -567736.7, 361788.38, 0.0, 10.001608, 10.000433 
1.08508155e+3, 2.1515197e+2, -697620.2, -722967.0, 56089.78, -0.023432277, 0.020950785, -652789.9, 178716.45, 0.0, 10.000716, 10.000396 
1.08506106e+3, 2.2515151e+2, -832278.56, -1041257.1, 15378.26, -0.073907286, 0.079176754, -831152.94, -97641.055, 0.0, 10.000438, 9.997674 
1.0850412e+3, 2.3514926e+2, -684148.06, -914388.25, 81792.234, -0.0108235935, 0.075167656, -658049.9, -22507.975, 0.0, 10.00076, 9.997716 
1.0850219e+3, 2.4514799e+2, -466977.7, -545668.94, 169574.61, 0.00045755692, 0.08549645, -332243.94, 205311.72, 0.0, 10.0006485, 9.999633 
1.0850032e+3, 2.5514752e+2, -455244.78, -489836.22, 78326.19, -0.037853543, 0.058454704, -392327.47, 47227.938, 0.0, 10.000064, 9.999622 
1.0849835e+3, 2.6514593e+2, -501617.4, -734197.75, -187.9593, -0.04051889, 0.06921194, -501617.25, -160046.98, 0.000000020287489, 10.000245, 9.997179 
1.08496316e+3, 2.7514318e+2, -278330.5, -571806.5, 82406.38, -0.008020812, 0.058724035, -256774.55, -13173.312, 0.0000009638229, 10.001083, 9.997217 
1.0849426e+3, 2.8514126e+2, -35992.63, -181208.88, 133663.89, -0.036784764, 0.04899407, 43510.965, 189130.95, 0.000015514439, 10.001118, 9.999215 
1.08492225e+3, 2.9514e+2, -52170.504, -135302.22, 34927.02, -0.11265019, -0.020234013, -39444.4, 8183.65, 0.00010321646, 10.000318, 9.999242 
1.08490296e+3, 3.0513924e+2, -118471.52, -356004.47, -763.19116, -0.03923128, 0.08572943, -118469.07, -118469.07, 0.0003319706, 10.000469, 9.997312 
1.08488455e+3, 3.1513664e+2, 63778.613, -202254.97, 52179.59, 0.18331237, 0.07177327, 73647.01, 73647.01, 0.0007041168, 10.001395, 9.997919 
1.0952615e+3, 1.2517479e+2, -1922878.4, -1798668.0, 28743.834, 0.03411222, 0.0017302657, -1792338.9, -79052.19, 0.000734217, 9.998454, 10.000167 
1.0952428e+3, 1.3517298e+2, -1710685.9, -1668103.9, 158105.89, -0.089734554, -0.18916266, -1529861.9, 85439.195, 0.00033773432, 9.99938, 9.999939 
1.095224e+3, 1.4517309e+2, -1488581.4, -1448972.5, 8796.522, -0.042323153, -0.19383469, -1447106.8, 70191.8, 0.0000845864, 9.999954, 10.000484 
1.095203e+3, 1.551753e+2, -1362104.3, -1340992.5, 71529.75, -0.00026644857, -0.037558924, -1279244.0, 140033.1, 0.0000043925156, 10.0001745, 10.000445 
1.0951822e+3, 1.6517583e+2, -1424466.4, -1536553.8, 107019.44, 0.0017534604, 0.0743483, -1359704.1, -38428.215, 0.0000000006358386, 9.999991, 9.998527 
1.09516226e+3, 1.7517456e+2, -1404644.8, -1469745.8, 42018.88, -0.0067073675, 0.079958834, -1384043.4, -160747.52, 0.0, 9.999429, 9.998585 
1.095142e+3, 1.8517426e+2, -1094627.9, -1034168.6, 37534.473, -0.051997207, 0.088291496, -1016204.2, 109096.28, 0.0, 9.999867, 10.000686 
1.09512135e+3, 1.951746e+2, -794095.06, -841213.4, 112383.01, -0.12364166, 0.039793316, -702828.4, 324464.44, 0.0, 10.001275, 10.000658 
1.0951018e+3, 2.0517455e+2, -802089.75, -1023205.3, 89602.57, -0.083895326, 0.077534385, -770339.25, 158953.8, 0.0, 10.001525, 9.99862 
1.0950831e+3, 2.15174e+2, -831292.4, -981956.75, 29896.09, 0.05675465, 0.14656885, -825576.94, 5724.5415, 0.0, 10.000634, 9.998659 
1.0950629e+3, 2.2517225e+2, -710189.06, -767334.0, 20681.627, 0.046653647, 0.06259662, -703489.5, 29826.621, 0.0, 10.000351, 9.999593 
1.0950411e+3, 2.3516913e+2, -567969.3, -651343.1, 101724.25, -0.09925805, -0.22557731, -499721.6, 135617.33, 0.0, 10.000666, 9.999565 
1.0950212e+3, 2.451682e+2, -634425.75, -870597.4, 139391.11, -0.12810333, -0.1605671, -569825.6, -32476.16, 0.0, 10.000551, 9.997448 
1.09500326e+3, 2.5516924e+2, -611858.7, -799802.94, 65946.28, -0.046328038, 0.18026099, -591028.06, -151678.58, 0.0, 9.999999, 9.997524 
1.0949846e+3, 2.651681e+2, -344766.88, -390765.94, 26877.201, 0.030889776, 0.21545202, -332391.8, 8968.39, 0.00000010014453, 10.000169, 9.999574 
1.0949655e+3, 2.751647e+2, -119974.92, -233583.77, 125690.88, 0.09663026, -0.10097889, -38848.418, 204534.94, 0.0000018004142, 10.001042, 9.999559 
1.0949447e+3, 2.851627e+2, -205844.03, -529368.06, 95796.8, 0.044330243, -0.11387196, -179606.11, -34203.44, 0.000016749296, 10.001092, 9.996839 
1.0949227e+3, 2.951619e+2, -220255.23, -478881.78, 15964.315, -0.11111654, 0.10253239, -219273.53, -171854.67, 0.000099959936, 10.000284, 9.996903 
1.09490335e+3, 3.0516112e+2, -5678.3374, -104231.11, 28841.268, -0.06558449, 0.23102699, 2141.519, 2141.519, 0.00032156563, 10.000401, 9.999072 
1.0948858e+3, 3.1515762e+2, 171677.81, 36530.957, 104089.27, 0.13491438, -0.045910154, 228204.13, 228204.13, 0.0006902331, 10.001326, 9.999599 
1.10526e+3, 1.2519637e+2, -1709799.9, -1679397.4, -47981.027, -0.011414918, 0.050430384, -1644267.1, 68811.266, 0.00083503575, 9.999846, 10.0003 
1.10524304e+3, 1.3519537e+2, -1694051.9, -1643743.6, 157082.64, 0.008692211, -0.079052925, -1509813.9, 105272.04, 0.0003918232, 9.999399, 10.0001 
1.1052241e+3, 1.451957e+2, -1536984.5, -1450283.0, 28210.123, 0.008873527, -0.080954164, -1441912.4, 75168.85, 0.000102570426, 9.999531, 10.000679 
1.10520326e+3, 1.5519723e+2, -1327439.3, -1301663.6, -25803.455, 0.0060728583, -0.0120124435, -1285708.5, 133356.6, 0.0000061708192, 10.000313, 10.000647 
1.1051826e+3, 1.6519754e+2, -1298944.9, -1454998.6, 37579.445, -0.0006242771, 0.057518322, -1290366.8, 30698.541, 0.0000000015512864, 10.000774, 9.998699 
1.1051627e+3, 1.7519657e+2, -1157879.6, -1328152.5, 112547.72, 0.017204331, 0.073576465, -1101894.9, 121187.234, 0.0, 10.001039, 9.998769 
1.10514246e+3, 1.8519665e+2, -983094.2, -970986.9, 145345.66, -0.00934182, 0.1095955, -831568.9, 293513.63, 0.0, 10.000595, 10.000773 
1.10512204e+3, 1.9519751e+2, -1046479.0, -951707.56, 82228.586, -0.08530156, 0.10226487, -904188.4, 122881.44, 0.0, 9.999497, 10.000757 
1.1051025e+3, 2.051972e+2, -1102391.5, -1202735.1, 76531.02, -0.062329393, 0.12585747, -1061052.6, -131979.69, 0.0, 9.999615, 9.998308 
1.1050839e+3, 2.1519573e+2, -812202.4, -1007584.06, 108643.18, 0.055018485, 0.13284391, -763787.6, 67304.164, 0.0, 10.000916, 9.998348 
1.1050637e+3, 2.251939e+2, -516177.25, -661089.25, 97093.94, 0.039768796, 0.05309878, -467484.16, 265622.5, 0.0, 10.001627, 9.999706 
1.10504225e+3, 2.3519155e+2, -401062.22, -559075.06, 28909.229, -0.09818073, -0.16746211, -395939.22, 239180.77, 0.0, 10.001763, 9.999669 
1.1050224e+3, 2.4519034e+2, -516710.88, -845553.94, 60732.883, -0.10803333, -0.122261554, -505852.84, 31279.668, 0.0, 10.001501, 9.997157 
1.1050042e+3, 2.5519007e+2, -505185.66, -781057.4, 107667.445, 0.0034602447, 0.119490266, -468139.84, -28994.531, 0.0, 10.000872, 9.9972315 
1.1049855e+3, 2.6518893e+2, -249654.31, -314635.5, 108367.32, 0.08001184, 0.15424639, -169011.73, 172144.31, 0.00000018749917, 10.000697, 9.999843 
1.10496655e+3, 2.7518675e+2, -124910.125, -208287.69, 27002.174, 0.12404642, -0.06484635, -116929.28, 126237.62, 0.0000025324416, 10.0009, 9.999804 
1.10494606e+3, 2.8518474e+2, -252099.38, -561558.56, -17002.436, 0.08371383, -0.081677, -251168.03, -105982.21, 0.000018771152, 10.0008335, 9.996734 
1.1049239e+3, 2.951829e+2, -207394.73, -484010.25, 55067.313, -0.02443342, 0.04204581, -196835.28, -149622.75, 0.00010053436, 10.000439, 9.996785 
1.1049043e+3, 3.051821e+2, 50376.85, -54143.695, 162101.84, -0.006431538, 0.1606561, 168434.34, 168434.34, 0.00031863083, 10.00066, 9.9993 
1.1048868e+3, 3.1517956e+2, 170885.38, 73372.0, 87318.46, 0.12393778, -0.04602749, 222137.33, 222137.33, 0.00068517454, 10.001168, 9.99992 
1.1152588e+3, 1.2521756e+2, -1631257.6, -1503807.8, -80448.66, -0.16150622, 0.15930988, -1464903.0, 247978.33, 0.000944546, 9.999814, 10.001515 
1.1152439e+3, 1.3522014e+2, -1616273.3, -1465967.3, 148636.81, 0.14295948, 0.2632053, -1374564.4, 240285.69, 0.00045159098, 9.999349, 10.001338 
1.1152247e+3, 1.4522023e+2, -1607518.6, -1603716.9, 46182.688, 0.09119, 0.23391703, -1559396.0, -42548.6, 0.00012308804, 9.999549, 9.999622 
1.1152035e+3, 1.5521793e+2, -1398848.6, -1446261.9, 11953.721, -0.013527752, 0.022573343, -1396005.4, 22866.535, 0.000008505592, 10.000292, 9.999668 
1.1151827e+3, 1.6521758e+2, -1148988.9, -1136964.5, 38341.04, -0.088794, -0.038808823, -1104167.1, 216707.42, 0.0000000033697685, 10.000741, 10.000902 
1.1151628e+3, 1.7521892e+2, -1014276.56, -1023385.4, 126251.0, -0.09139522, -0.00888955, -892497.9, 330360.13, 0.0, 10.001004, 10.000883 
1.11514345e+3, 1.8521962e+2, -1089582.4, -1190084.3, 93484.125, 0.0044643134, 0.0618185, -1033699.25, 91152.16, 0.0, 10.000586, 9.999273 
1.1151243e+3, 1.9521958e+2, -1150990.3, -1165058.9, 47965.023, 0.17725825, 0.11413762, -1109546.5, -82691.04, 0.0, 9.999482, 9.9993 
1.11510426e+3, 2.0521875e+2, -1028977.94, -1045248.94, 115203.48, 0.13563503, 0.10213464, -921623.06, 7240.6733, 0.0, 9.99959, 9.999399 
1.1150834e+3, 2.1521701e+2, -754663.06, -866158.7, 164220.58, -0.092944466, -0.028123075, -636985.94, 193892.25, 0.0, 10.000818, 9.999366 
1.1150635e+3, 2.2521636e+2, -646024.56, -906186.7, 94841.99, -0.15816338, 0.042775963, -615120.9, 117763.73, 0.0, 10.001524, 9.998072 
1.1150444e+3, 2.3521659e+2, -523626.8, -792389.94, 41599.496, -0.06620644, 0.2433475, -517335.28, 117549.586, 0.0, 10.001673, 9.998111 
1.1150251e+3, 2.4521445e+2, -425281.9, -634883.2, 31324.342, -0.0022029197, 0.195669, -420700.7, 116203.78, 0.0, 10.00141, 9.998648 
1.1150055e+3, 2.5520995e+2, -414577.5, -580319.8, 94554.58, 0.039432213, -0.1345071, -371718.0, 67225.484, 0.0, 10.000815, 9.998636 
1.1149859e+3, 2.6520836e+2, -389655.34, -595922.3, 107600.35, 0.03623791, -0.11286353, -343744.03, -2785.735, 0.00000020790911, 10.000654, 9.9979315 
1.1149663e+3, 2.7520928e+2, -260917.38, -476093.97, 44736.36, -0.002977341, 0.164506, -251987.08, -9034.505, 0.0000030041272, 10.000834, 9.997994 
1.1149463e+3, 2.8520748e+2, -116941.195, -257165.6, -37126.848, 0.013671343, 0.1459026, -107717.88, 37251.582, 0.000021469468, 10.000734, 9.998871 
1.1149255e+3, 2.95203e+2, -65682.45, -183112.1, 57220.27, 0.07526886, -0.21032478, -42411.973, 4596.965, 0.00010455908, 10.000412, 9.998862 
1.11490585e+3, 3.0520213e+2, -48915.65, -256070.97, 178263.56, 0.074557036, -0.12768805, 53677.082, 53677.082, 0.00032151054, 10.000641, 9.997924 
1.1148871e+3, 3.1520212e+2, 66044.805, -126291.41, 126754.016, -0.011653923, 0.05397718, 128983.22, 128983.22, 0.0006861148, 10.001085, 9.998591 
1.1252589e+3, 1.2523831e+2, -1660296.5, -1556339.5, -785.43884, -0.11635423, 0.12581924, -1556333.6, 156343.19, 0.0010643419, 9.999765, 10.00119 
1.12524405e+3, 1.3524102e+2, -1678175.6, -1522259.6, 84094.57, 0.23270285, 0.2660067, -1485547.0, 129100.63, 0.00051804923, 9.999033, 10.001104 
1.1252236e+3, 1.4524147e+2, -1739660.6, -1615932.4, 39674.492, 0.08806257, 0.2612719, -1604303.4, -87660.914, 0.00014661087, 9.99843, 10.000074 
1.1252026e+3, 1.552397e+2, -1691735.3, -1537859.3, 88627.06, -0.0033982575, 0.056543216, -1497433.6, -78772.58, 0.00001150662, 9.998069, 10.000113 
1.1251823e+3, 1.652397e+2, -1476259.4, -1233745.4, 134281.34, -0.071891986, -0.017874736, -1174074.9, 146583.45, 0.0000000061074554, 9.998225, 10.001454 
1.1251627e+3, 1.7524125e+2, -1275076.0, -1086377.0, 91608.59, -0.09062777, -0.02522257, -1049220.0, 173416.88, 0.0, 9.99894, 10.001447 
1.1251437e+3, 1.8524182e+2, -1195945.1, -1299464.6, 49507.5, 0.0033406767, 0.031823218, -1176080.4, -51449.23, 0.0, 10.000112, 9.998745 
1.125125e+3, 1.9524132e+2, -850509.4, -1080045.9, 58314.32, 0.18679541, 0.09141234, -836544.1, 190097.73, 0.0, 10.001793, 9.998772 
1.1251051e+3, 2.0524035e+2, -676131.2, -858916.25, 127125.28, 0.1501446, 0.08451877, -610956.06, 317695.8, 0.0, 10.001958, 9.999534 
1.1250842e+3, 2.1523878e+2, -750495.7, -844270.9, 86576.39, -0.08255633, -0.043462798, -698925.56, 131737.61, 0.0, 10.000778, 9.999527 
1.1250644e+3, 2.2523823e+2, -879214.3, -1052519.6, 48831.918, -0.12933965, 0.043773297, -866402.2, -133733.08, 0.0, 10.000058, 9.997781 
1.1250458e+3, 2.3523854e+2, -814228.0, -961896.1, 80567.54, 0.00007235526, 0.28149572, -778779.9, -144108.88, 0.0, 9.999798, 9.997851 
1.12502664e+3, 2.452362e+2, -573208.06, -691701.06, 94746.984, 0.07154993, 0.2194271, -520708.7, 15983.292, 0.0, 10.000337, 9.998773 
1.12500705e+3, 2.5523123e+2, -293193.9, -510402.47, 41302.414, 0.087520346, -0.17143553, -285605.3, 153127.05, 0.0, 10.001603, 9.998736 
1.1249871e+3, 2.6522937e+2, -312026.75, -621510.4, 39410.625, 0.051567208, -0.15327229, -307086.9, 33663.555, 0.00000016860811, 10.001468, 9.997362 
1.1249665e+3, 2.752302e+2, -410944.56, -609278.0, 55403.934, -0.026360327, 0.17237724, -396517.13, -153767.03, 0.0000038179373, 10.000071, 9.997445 
1.12494655e+3, 2.852286e+2, -148646.45, -217893.69, 19149.273, 0.005407367, 0.17678995, -143703.81, 1061.8323, 0.000026281929, 10.000273, 9.999366 
1.12492725e+3, 2.9522467e+2, 174468.13, -12580.579, -32869.227, 0.13535786, -0.17356673, 180075.97, 226873.13, 0.00011344339, 10.001824, 9.999354 
1.1249076e+3, 3.0522394e+2, 156778.53, -158451.6, 68211.23, 0.11191491, -0.1006236, 170905.38, 170905.38, 0.00033238306, 10.002078, 9.997895 
1.1248873e+3, 3.1522393e+2, 48236.52, -150081.47, 87166.71, -0.07592718, 0.090679474, 81102.305, 81102.305, 0.0006975335, 10.001017, 9.998473 
1.1352602e+3, 1.2525862e+2, -1769280.1, -1777099.4, -18464.639, -0.0066991793, -0.047191918, -1754315.8, -41849.586, 0.0011953667, 9.999765, 9.999665 
1.13524295e+3, 1.352585e+2, -1783799.8, -1731190.8, 62133.766, 0.20457816, -0.03713359, -1690022.9, -75548.555, 0.00059164723, 9.998997, 9.999687 
1.1352207e+3, 1.4525986e+2, -1612523.3, -1353345.4, 18467.621, -0.071285084, 0.024107454, -1352036.1, 164426.48, 0.00017336896, 9.998432, 10.00188 
1.1352007e+3, 1.5526257e+2, -1563772.1, -1283706.9, 83944.74, -0.0241542, 0.092457734, -1260473.3, 157959.5, 0.000015247707, 9.998116, 10.001837 
1.1351812e+3, 1.6526386e+2, -1533822.6, -1366444.1, 149774.56, -0.030511161, 0.10983637, -1278563.3, 41854.45, 0.000000009421829, 9.998282, 10.000515 
1.1351621e+3, 1.7526366e+2, -1334960.8, -1218106.1, 124270.77, -0.05689116, 0.02167732, -1139212.8, 83204.81, 0.0, 9.998974, 10.0005245 
1.13514304e+3, 1.8526337e+2, -1165138.0, -1240746.3, 101792.68, -0.08054873, 0.016197987, -1094356.1, 30064.566, 0.0, 10.000129, 9.999142 
1.13512404e+3, 1.952628e+2, -836976.25, -1033981.4, 124180.33, -0.10816314, 0.030247934, -776974.9, 249453.97, 0.0, 10.001711, 9.999129 
1.135105e+3, 2.0526208e+2, -747389.9, -988043.8, 73169.81, -0.074404955, 0.07361542, -726889.25, 201547.69, 0.0, 10.001873, 9.998688 
1.1350862e+3, 2.1526106e+2, -820260.44, -968133.7, 47283.152, 0.02526016, 0.08677114, -806434.2, 24012.385, 0.0, 10.000683, 9.998726 
1.1350665e+3, 2.2525956e+2, -817641.1, -901401.9, 28889.215, 0.05757719, 0.061574608, -808643.7, -76183.695, 0.0, 9.999961, 9.998861 
1.135046e+3, 2.3525746e+2, -758404.25, -824106.4, 79829.66, 0.035674255, -0.050000813, -704930.56, -70452.41, 0.0, 9.999705, 9.998841 
1.1350269e+3, 2.4525565e+2, -668201.1, -875206.0, 133835.9, 0.04259441, -0.042542253, -602514.94, -66020.11, 0.0, 10.000276, 9.997543 
1.1350088e+3, 2.5525394e+2, -381292.03, -681005.6, 93384.42, 0.08500988, 0.014442775, -354576.72, 83934.76, 0.0, 10.001549, 9.997593 
1.13498874e+3, 2.652519e+2, -267981.94, -517217.3, -18070.295, 0.06541622, 0.029281083, -266678.6, 73854.01, 0.00000020663475, 10.001408, 9.998111 
1.1349669e+3, 2.7524936e+2, -371435.6, -516840.25, 19008.154, -0.014856994, -0.053167265, -368991.8, -126431.81, 0.0000055002247, 10.000023, 9.998106 
1.1349468e+3, 2.85248e+2, -243531.75, -400934.6, 69134.96, -0.01756774, 0.009724492, -217478.42, -72903.45, 0.00003348711, 10.000218, 9.998132 
1.1349286e+3, 2.9524776e+2, 84603.23, -183034.33, 32755.615, 0.06986376, 0.14889573, 88553.805, 135132.78, 0.00012779766, 10.001756, 9.998215 
1.13490894e+3, 3.052474e+2, 238475.64, 33791.656, 22786.682, 0.0292802, 0.24115089, 240981.72, 240981.72, 0.00035402225, 10.001984, 9.999261 
1.13488734e+3, 3.1524485e+2, 120145.53, 24146.62, 68784.695, -0.210772, 0.042459816, 156022.66, 156022.66, 0.0007264602, 10.0009165, 9.999713 
1.1452591e+3, 1.2527937e+2, -1914576.9, -1840421.8, -42933.36, -0.028273793, -0.078300014, -1820771.8, -108511.39, 0.0013373722, 9.998715, 9.999759 
1.1452415e+3, 1.3527909e+2, -1891372.4, -1773998.6, 77785.48, 0.20987728, -0.092757456, -1735244.6, -120974.586, 0.000672049, 9.998194, 9.999802 
1.1452189e+3, 1.4528057e+2, -1570384.9, -1316165.5, 93173.24, -0.09709769, -0.0324724, -1285674.1, 230583.1, 0.0002032588, 9.998648, 10.00203 
1.1452002e+3, 1.5528406e+2, -1265207.0, -1125167.4, 19784.324, 0.015013564, 0.09834384, -1122426.0, 295794.06, 0.000019742625, 10.000106, 10.001964 
1.14518106e+3, 1.6528532e+2, -1229378.6, -1293695.1, 45276.953, 0.01848301, 0.14289232, -1206001.8, 114204.61, 0.000000013934886, 10.000692, 9.999851 
1.14516184e+3, 1.7528437e+2, -1154090.1, -1203047.9, 25345.338, -0.05636118, 0.044861805, -1143332.6, 78883.305, 0.0, 10.000522, 9.999883 
1.1451427e+3, 1.8528388e+2, -1148172.5, -1175359.0, 37980.715, -0.123763196, 0.02382811, -1121425.8, 2794.9927, 0.0, 10.000006, 9.999647 
1.14512354e+3, 1.9528365e+2, -1157673.1, -1128093.5, 50258.547, -0.19598411, 0.017365545, -1090493.9, -64271.234, 0.0, 9.999263, 9.999654 
1.14510514e+3, 2.0528302e+2, -1112347.0, -1191682.6, 27079.14, -0.12507977, 0.05676478, -1103985.5, -175756.25, 0.0, 9.999483, 9.998447 
1.1450874e+3, 2.1528193e+2, -849026.25, -1005118.75, 33665.35, 0.086829744, 0.08726202, -842075.0, -11833.707, 0.0, 10.000587, 9.998519 
1.1450677e+3, 2.2528021e+2, -602323.2, -778935.06, 20938.75, 0.12329187, 0.043061048, -599874.7, 132382.33, 0.0, 10.001356, 9.999032 
1.14504635e+3, 2.3527774e+2, -439152.78, -651515.3, -10848.332, 0.0027280557, -0.12400601, -438600.06, 195677.84, 0.0, 10.001807, 9.999018 
1.14502735e+3, 2.4527621e+2, -478053.97, -797658.9, 78042.58, -0.00067632267, -0.0915814, -460015.28, 76276.85, 0.0, 10.00165, 9.997409 
1.1450102e+3, 2.552754e+2, -465101.22, -730426.1, 101196.13, 0.10964038, 0.066231884, -430910.5, 7391.223, 0.0, 10.001033, 9.997491 
1.1449903e+3, 2.6527327e+2, -292444.06, -534439.9, -9969.205, 0.09705667, 0.081313744, -292034.06, 48289.6, 0.00000038376965, 10.001252, 9.998071 
1.14496775e+3, 2.752698e+2, -59601.418, -371279.4, -44290.91, -0.030732412, -0.090632655, -53429.68, 188929.19, 0.0000075917305, 10.002174, 9.998072 
1.1449478e+3, 2.852683e+2, 30323.441, -283537.25, 66606.125, -0.03390674, -0.036766723, 43873.33, 188247.97, 0.0000412879, 10.002153, 9.998012 
1.1449303e+3, 2.9526863e+2, -4865.2393, -241825.45, 95691.18, 0.09869414, 0.17006579, 28951.53, 75324.42, 0.00014478626, 10.001203, 9.998082 
1.1449111e+3, 3.0526787e+2, 177340.02, -46043.3, 70284.266, 0.07125002, 0.2564615, 197613.9, 197613.9, 0.00038253577, 10.00176, 9.998826 
1.14488974e+3, 3.1526443e+2, 459785.72, 134472.7, -57139.51, -0.17590092, 0.0054805274, 469530.1, 469530.1, 0.00077112904, 10.003483, 9.999232 
1.1552557e+3, 1.2530036e+2, -1801352.3, -1596023.6, -17150.168, -0.26597932, 0.0020417974, -1594601.0, 117459.51, 0.001489488, 9.998687, 10.00144 
1.1552395e+3, 1.3530266e+2, -1778289.6, -1545167.9, 63301.605, 0.17820278, 0.078813985, -1529088.1, 84947.836, 0.00075867696, 9.9982195, 10.001354 
1.155218e+3, 1.4530349e+2, -1667480.5, -1527263.0, 136395.38, -0.06686814, 0.07434278, -1444012.9, 72014.76, 0.0002361324, 9.998678, 10.000573 
1.1552007e+3, 1.5530425e+2, -1362202.1, -1328510.1, 78283.484, 0.033752225, 0.075788386, -1265280.6, 152740.86, 0.000024990082, 10.000106, 10.000572 
1.15518175e+3, 1.653043e+2, -1257200.6, -1345062.1, 28709.545, -0.0023079868, 0.08220418, -1248651.4, 71370.984, 0.000000023716384, 10.000669, 9.999508 
1.1551616e+3, 1.7530358e+2, -1184271.9, -1253385.4, 24704.482, -0.1445184, 0.040364344, -1176349.5, 45681.344, 0.0, 10.000476, 9.999556 
1.1551422e+3, 1.8530352e+2, -1112367.3, -1098660.4, 1635.5837, -0.18955618, 0.054675743, -1098467.9, 25561.873, 0.0, 9.999991, 10.000182 
1.1551233e+3, 1.9530393e+2, -1123466.3, -1052945.0, 29120.041, -0.15629342, 0.056341987, -1042475.0, -16452.76, 0.0, 9.999239, 10.000185 
1.1551051e+3, 2.0530322e+2, -1086376.0, -1130902.1, 54608.78, -0.08145144, 0.039034873, -1049666.5, -121638.35, 0.0, 9.999452, 9.9988785 
1.15508765e+3, 2.1530138e+2, -835803.1, -957594.94, 80508.19, 0.038095333, -0.050099395, -795754.1, 34293.387, 0.0, 10.000493, 9.998894 
1.155068e+3, 2.253002e+2, -670390.44, -892926.94, 29219.906, 0.0071188784, -0.022036826, -666617.75, 65442.97, 0.0, 10.001243, 9.9983015 
1.1550466e+3, 2.3529942e+2, -501753.22, -757974.8, 12512.886, -0.160221, 0.053816676, -501143.6, 132926.39, 0.0, 10.001711, 9.998331 
1.1550278e+3, 2.4529786e+2, -423974.78, -665016.9, 44128.58, -0.121215254, 0.069252074, -416150.0, 119934.1, 0.0, 10.00156, 9.998363 
1.15501136e+3, 2.5529552e+2, -415242.34, -608544.4, 86282.91, 0.0997413, -0.02063104, -382331.97, 55771.508, 0.0, 10.000951, 9.998366 
1.1549916e+3, 2.6529345e+2, -359806.94, -658976.94, 17563.527, 0.08434687, 0.00063292735, -358779.34, -18655.16, 0.0000005356376, 10.001185, 9.997248 
1.1549689e+3, 2.7529147e+2, -118007.47, -474983.16, -2020.5631, -0.14667107, 0.05518573, -117996.03, 124151.99, 0.000008957139, 10.002101, 9.997393 
1.1549492e+3, 2.8528947e+2, 95851.164, -127972.47, 24211.17, -0.11487954, 0.030602474, 98440.16, 242605.23, 0.00004724257, 10.002069, 9.999121 
1.15493216e+3, 2.9528728e+2, 56298.32, -107417.74, 78099.5, 0.14784765, -0.11808466, 87578.56, 133756.58, 0.0001595295, 10.001162, 9.999028 
1.154914e+3, 3.052854e+2, -10364.039, -411691.06, 133944.08, 0.16443454, -0.06313105, 30233.428, 30233.428, 0.000411773, 10.00167, 9.99635 
1.1548943e+3, 3.1528234e+2, 273088.47, -227209.6, 28750.242, -0.11893382, -0.028946046, 274735.22, 274735.22, 0.0008237991, 10.003375, 9.996795 
1.1652541e+3, 1.2532097e+2, -1785514.6, -1563288.9, 41187.484, -0.27642965, 0.05765047, -1555900.8, 155959.28, 0.0016512593, 9.998694, 10.001644 
1.1652378e+3, 1.353231e+2, -1739588.6, -1520693.4, -77869.375, 0.1796996, 0.11082241, -1495819.0, 118015.266, 0.0008513687, 9.998462, 10.0014 
1.16521694e+3, 1.4532307e+2, -1765412.4, -1650058.9, 29819.943, -0.025230264, 0.05120654, -1642806.3, -126972.164, 0.00027198074, 9.9983425, 9.999886 
1.1651997e+3, 1.553228e+2, -1659555.1, -1544344.9, 7383.2646, 0.020706838, 0.016041767, -1543873.6, -126033.52, 0.00003101119, 9.998382, 9.999918 
1.1651812e+3, 1.6532291e+2, -1524168.8, -1410631.1, 8568.032, -0.014128102, 0.033677015, -1409988.3, -90148.11, 0.00000004774233, 9.9985695, 10.00007 
1.16516165e+3, 1.7532328e+2, -1369013.8, -1283897.4, 52209.55, -0.10735942, 0.047081266, -1259098.0, -37261.69, 0.0, 9.998954, 10.000085 
1.1651426e+3, 1.853232e+2, -1180554.1, -1169143.3, 45512.055, -0.12734893, 0.048530348, -1128980.4, -5145.374, 0.0, 9.999677, 9.999852 
1.1651239e+3, 1.9532263e+2, -928737.25, -993224.0, -2473.9126, -0.093429066, -0.013084474, -928642.5, 97194.7, 0.0, 10.000718, 9.999884 
1.1651056e+3, 2.0532194e+2, -867425.2, -1003421.06, 1949.6226, -0.047980025, -0.022821773, -867397.25, 60446.402, 0.0, 10.000867, 9.999066 
1.1650877e+3, 2.1532103e+2, -858619.56, -943694.06, -10100.041, 0.016521307, -0.041814007, -857436.94, -27581.713, 0.0, 10.000239, 9.9991045 
1.1650684e+3, 2.2532031e+2, -844559.0, -997552.6, -22803.803, -0.02349093, 0.032032862, -841232.4, -109367.1, 0.0, 10.000135, 9.9981165 
1.1650479e+3, 2.3531958e+2, -691481.4, -866291.44, -13968.017, -0.15000646, 0.12952018, -690372.3, -56496.164, 0.0, 10.000484, 9.998177 
1.1650293e+3, 2.4531804e+2, -462996.78, -643001.75, 19318.326, -0.101803266, 0.13337678, -460946.88, 74942.98, 0.0, 10.001109, 9.9987335 
1.1650127e+3, 2.5531566e+2, -245053.73, -490071.44, 1785.04, 0.09426601, 0.0032361434, -245040.73, 192866.47, 0.0, 10.001944, 9.998712 
1.1649932e+3, 2.6531357e+2, -252309.66, -601849.5, -38794.49, 0.09172119, 0.0012137422, -248055.73, 91871.02, 0.00000056359414, 10.001912, 9.997284 
1.1649711e+3, 2.753115e+2, -262634.25, -545564.2, -17289.06, -0.0831067, 0.04994904, -261581.67, -19631.324, 0.00000928475, 10.001116, 9.997386 
1.1649512e+3, 2.8530923e+2, 8517.377, -196000.77, 5588.1377, -0.08690601, 0.013013872, 8669.95, 152639.45, 0.000050363375, 10.001578, 9.998889 
1.1649334e+3, 2.9530677e+2, 328394.7, 3782.354, -62729.43, 0.05904629, -0.14533223, 340095.06, 386080.4, 0.00017032117, 10.00313, 9.998837 
1.16491556e+3, 3.0530447e+2, 201723.22, -307535.53, 63327.46, 0.09446918, -0.122957624, 209479.98, 209479.98, 0.0004381968, 10.003116, 9.996378 
1.16489746e+3, 3.1530148e+2, -15840.194, -372197.8, 121256.53, -0.025025802, -0.07952342, 21505.557, 21505.557, 0.0008746987, 10.0014105, 9.996756 
1.1752541e+3, 1.2534127e+2, -1873549.4, -1735898.8, 63586.574, -0.1858238, 0.083742164, -1711021.5, 637.1599, 0.0018234614, 9.99866, 10.000475 
1.1752361e+3, 1.3534075e+2, -1832174.9, -1717410.6, -82841.016, 0.1486217, 0.011358, -1674019.1, -60357.48, 0.0009506097, 9.998479, 10.000044 
1.1752153e+3, 1.4533964e+2, -1762161.3, -1643677.0, 23606.314, -0.03502842, -0.09238409, -1639147.0, -123474.11, 0.00031097958, 9.998343, 9.999928 
1.17519714e+3, 1.5533982e+2, -1654332.1, -1534766.5, 19313.162, -0.086365595, -0.08414235, -1531724.3, -114050.25, 0.00003785508, 9.998389, 9.999978 
1.1751792e+3, 1.6534123e+2, -1429235.4, -1218131.6, 15733.063, -0.088561885, -0.008634507, -1216965.5, 102693.85, 0.00000010132158, 9.998586, 10.001383 
1.1751616e+3, 1.7534354e+2, -1279661.5, -1099959.1, 73099.06, -0.012547504, 0.06266062, -1073979.8, 147652.73, 0.0, 9.998958, 10.001346 
1.1751436e+3, 1.8534297e+2, -1258980.0, -1329910.3, 73764.81, -0.009150146, 0.012551215, -1212597.6, -88961.72, 0.0, 9.99967, 9.998752 
1.175125e+3, 1.9533981e+2, -1012399.4, -1154898.8, 42927.45, -0.07367804, -0.19939405, -1000466.8, 25200.115, 0.0, 10.000665, 9.998801 
1.1751062e+3, 2.0533931e+2, -883742.9, -1019126.56, -30589.691, -0.08899901, -0.13388632, -877152.06, 50522.504, 0.0, 10.000789, 9.998997 
1.1750874e+3, 2.1534097e+2, -876157.1, -960400.2, -26080.348, -0.047840524, 0.11313801, -868736.7, -39073.28, 0.0, 10.000149, 9.999037 
1.1750685e+3, 2.2534056e+2, -831519.1, -946173.75, -19065.385, -0.030523263, 0.19996116, -828431.94, -96760.73, 0.0, 10.000031, 9.998521 
1.17504954e+3, 2.3533826e+2, -678391.75, -814312.0, 8585.739, -0.03771108, 0.098724745, -677851.56, -44155.176, 0.0, 10.00038, 9.998583 
1.1750314e+3, 2.4533676e+2, -493469.56, -684834.5, 43060.727, -0.019508919, 0.10077223, -484226.53, 51482.594, 0.0, 10.001012, 9.998496 
1.175014e+3, 2.553358e+2, -263617.9, -516232.25, 39777.164, 0.024354575, 0.133561, -257502.55, 180210.16, 0.0, 10.001888, 9.998558 
1.17499486e+3, 2.6533353e+2, -206352.84, -491121.78, -77404.14, 0.0627599, 0.07895258, -186673.31, 153058.31, 0.0000005132723, 10.001845, 9.998078 
1.174974e+3, 2.7532986e+2, -223990.02, -448955.88, -33874.918, 0.08612796, -0.11396415, -218999.89, 22766.37, 0.000009286575, 10.001048, 9.99808 
1.1749536e+3, 2.853277e+2, -119286.36, -449637.97, 57873.68, -0.02469757, -0.08414877, -109441.0, 34346.508, 0.00005131962, 10.001522, 9.997176 
1.1749336e+3, 2.9532683e+2, 225675.67, -212887.97, 1964.2247, -0.2496367, 0.08674216, 225684.47, 271481.56, 0.00017691198, 10.003129, 9.9973545 
1.1749158e+3, 3.0532494e+2, 382768.28, 91536.15, -4607.592, -0.21282457, 0.07047215, 382841.16, 382841.16, 0.00045575172, 10.00303, 9.999156 
1.1748989e+3, 3.1532207e+2, 145581.58, -5414.566, 80395.13, -0.050412256, -0.1469137, 180371.03, 180371.03, 0.00090608484, 10.0012865, 9.999329 
1.18525356e+3, 1.2536012e+2, -2032784.3, -1810379.6, 27334.064, -0.054229546, 0.09889076, -1807069.5, -95595.47, 0.0020081834, 9.997563, 10.000491 
1.18523404e+3, 1.35359e+2, -1847808.3, -1746191.8, -80712.914, 0.112602316, -0.013928293, -1701626.8, -88142.52, 0.0010574218, 9.998455, 9.999866 
1.1852146e+3, 1.4535831e+2, -1665690.4, -1535219.6, 87888.38, 0.038077433, -0.09807077, -1491001.8, 24489.23, 0.00035351914, 9.998746, 10.000472 
1.1851959e+3, 1.553594e+2, -1597382.6, -1448766.1, 97078.39, -0.052034657, -0.053405583, -1400820.9, 16659.416, 0.00004562391, 9.998532, 10.000497 
1.1851781e+3, 1.6536061e+2, -1442688.9, -1295520.8, 77955.7, -0.060547825, 0.010649175, -1261905.4, 57561.883, 0.00000019883093, 9.998795, 10.000755 
1.1851614e+3, 1.7536178e+2, -1235662.1, -1139930.9, -18358.238, 0.03492549, 0.029311402, -1136531.1, 84922.586, 0.0, 9.999526, 10.000794 
1.1851437e+3, 1.8536127e+2, -1225734.5, -1281526.3, -17992.006, 0.031104136, -0.006332513, -1220435.6, -96977.4, 0.0, 9.999769, 9.999034 
1.1851251e+3, 1.9535913e+2, -1140556.0, -1181155.4, 29877.582, -0.06959547, -0.14416046, -1124734.4, -99254.38, 0.0, 9.999645, 9.999106 
1.1851063e+3, 2.0535888e+2, -1019946.2, -1087191.4, 6204.1147, -0.10083033, -0.06988, -1019378.56, -91893.48, 0.0, 9.999859, 9.998981 
1.18508756e+3, 2.1536e+2, -846699.75, -945339.06, 4806.7427, -0.058344763, 0.1272094, -846466.06, -16988.295, 0.0, 10.000349, 9.999043 
1.1850691e+3, 2.2535941e+2, -693999.6, -864837.2, 40253.16, -0.01300187, 0.18796308, -684990.25, 46496.207, 0.0, 10.00091, 9.998652 
1.18505105e+3, 2.3535718e+2, -502640.66, -714578.06, 27215.053, 0.026776146, 0.08027613, -499201.75, 134308.38, 0.0, 10.001518, 9.998719 
1.1850331e+3, 2.4535567e+2, -415904.25, -636347.5, 71743.05, 0.030203758, 0.068260185, -394612.1, 140910.52, 0.0, 10.001499, 9.998595 
1.1850153e+3, 2.5535458e+2, -391853.1, -571573.9, 74722.33, 0.007044997, 0.0808167, -364844.7, 72682.79, 0.0, 10.000977, 9.998621 
1.1849961e+3, 2.6535246e+2, -306011.94, -538235.94, -57888.64, 0.034634013, 0.040213518, -292381.56, 47163.16, 0.0000005059796, 10.001164, 9.998079 
1.1849756e+3, 2.7534923e+2, -93253.47, -387749.28, -94781.914, 0.094533235, -0.10708102, -65385.535, 176189.23, 0.000009353779, 10.00196, 9.99806 
1.18495554e+3, 2.8534698e+2, -60666.863, -436795.88, 68605.02, 0.0057174885, -0.07894352, -48544.188, 95053.375, 0.000051335024, 10.002014, 9.997016 
1.1849363e+3, 2.9534557e+2, -36744.53, -354273.78, 107634.0, -0.19590497, 0.058958214, -3698.6108, 41915.02, 0.00017968877, 10.001414, 9.997199 
1.1849187e+3, 3.0534354e+2, 297333.06, 98311.23, 52482.633, -0.1754186, 0.013805432, 310324.78, 310324.78, 0.00045955076, 10.00221, 9.999605 
1.1849015e+3, 3.1534207e+2, 567801.4, 241214.03, -74358.82, -0.04590212, -0.10995557, 583934.7, 583934.7, 0.0009064869, 10.003975, 9.99974 
1.1952515e+3, 1.2537771e+2, -1958601.0, -1646226.8, 22323.363, -0.04533234, 0.09893108, -1644639.5, 66664.63, 0.0022081332, 9.997519, 10.001637 
1.19523145e+3, 1.3537793e+2, -1782347.6, -1601614.6, -40872.355, -0.0027026848, 0.016449006, -1592801.3, 20500.717, 0.0011730703, 9.998418, 10.000874 
1.19521424e+3, 1.4537896e+2, -1603173.6, -1404683.9, 72024.42, 0.111738, 0.010573616, -1381303.0, 133986.06, 0.00040013902, 9.998739, 10.001374 
1.1951957e+3, 1.5538141e+2, -1535575.0, -1333656.4, 95649.734, 0.059124947, 0.10056491, -1295541.4, 121718.516, 0.00005450229, 9.998581, 10.001268 
1.1951776e+3, 1.6538106e+2, -1600827.9, -1634710.1, 91486.52, 0.0010327031, 0.09277993, -1524727.1, -205462.95, 0.00000035173326, 9.998839, 9.998408 
1.1951605e+3, 1.753782e+2, -1395744.9, -1466426.8, 14714.654, -0.018800838, -0.055466693, -1392803.9, -171505.8, 0.0, 9.999499, 9.9985695 
1.1951426e+3, 1.8537821e+2, -1119910.0, -1057211.4, -29949.938, -0.069115065, -0.011300849, -1045204.25, 78096.2, 0.0, 9.999746, 10.000585 
1.1951242e+3, 1.9538052e+2, -1042726.44, -969337.4, 33178.848, -0.14865671, 0.14185843, -956561.5, 68715.65, 0.0, 9.999601, 10.000586 
1.1951058e+3, 2.0538042e+2, -1021431.4, -1074899.4, 13164.968, -0.15102792, 0.15587775, -1018365.6, -91088.61, 0.0, 9.999797, 9.999094 
1.1950878e+3, 2.153781e+2, -853727.2, -936679.94, 28922.42, -0.081018455, -0.004546469, -844638.75, -15340.475, 0.0, 10.000254, 9.999146 
1.19506985e+3, 2.2537687e+2, -718684.8, -894358.7, 54070.207, -0.038975153, -0.00426608, -703376.6, 27934.041, 0.0, 10.000812, 9.998498 
1.1950523e+3, 2.3537642e+2, -524002.34, -739165.8, 55157.746, -0.019780187, 0.07951525, -510686.56, 122630.18, 0.0, 10.001432, 9.99859 
1.19503416e+3, 2.453748e+2, -398228.16, -582392.25, 43177.527, -0.020121224, 0.041816257, -388607.7, 146722.33, 0.0, 10.001422, 9.999006 
1.195016e+3, 2.5537205e+2, -377647.0, -522452.56, 64493.152, -0.0344426, -0.15313563, -353088.3, 84262.61, 0.0, 10.000893, 9.998998 
1.1949963e+3, 2.6537046e+2, -381243.56, -678114.8, -34590.457, -0.06969224, -0.11191513, -377266.47, -37901.285, 0.0000006389743, 10.001088, 9.99716 
1.1949754e+3, 2.753697e+2, -156208.61, -505366.56, -56028.684, -0.13016231, 0.074808456, -147438.11, 93937.36, 0.000009301616, 10.0019045, 9.997278 
1.1949571e+3, 2.853671e+2, 26459.047, -245219.75, 37870.7, -0.056364365, 0.038383, 31639.264, 175038.39, 0.000051838055, 10.001962, 9.99836 
1.19494125e+3, 2.9536283e+2, 39949.516, -184020.48, 101889.586, 0.14394632, -0.24964866, 79365.07, 124800.88, 0.00018142357, 10.001358, 9.998398 
1.19492404e+3, 3.053601e+2, 129312.16, -219031.61, 117479.52, 0.13339727, -0.30647933, 165229.02, 165229.02, 0.00045547623, 10.002086, 9.997478 
1.1949048e+3, 3.1536132e+2, 417354.53, -34913.77, 13483.989, -0.1590829, 0.039932318, 417756.2, 417756.2, 0.0008857679, 10.003837, 9.997895 
1.20524935e+3, 1.2539533e+2, -2133511.5, -1681127.0, 62881.504, 0.07792343, 0.0414066, -1672549.1, 38580.53, 0.0024257244, 9.9961, 10.002092 
1.20522864e+3, 1.353968e+2, -1964417.8, -1627106.1, -4938.596, -0.04764399, 0.02986647, -1627033.9, -13917.752, 0.0012988481, 9.996909, 10.001423 
1.2052133e+3, 1.453983e+2, -1702752.4, -1520911.1, 58978.59, 0.16226104, 0.07431326, -1503457.3, 11642.357, 0.00045139206, 9.998344, 10.000771 
1.2051954e+3, 1.553995e+2, -1344530.8, -1301164.8, -46486.133, 0.094530486, 0.09646486, -1271553.4, 145530.48, 0.00006471426, 10.000154, 10.000732 
1.2051774e+3, 1.6539873e+2, -1395717.8, -1524721.5, -29637.043, 0.024480056, 0.06827712, -1389234.8, -70142.31, 0.00000057087306, 10.00021, 9.998494 
1.2051598e+3, 1.7539613e+2, -1470435.8, -1490119.5, 51289.543, -0.0014469647, -0.062421013, -1428052.4, -206929.08, 0.0, 9.998942, 9.998668 
1.2051421e+3, 1.8539664e+2, -1270265.4, -1124564.1, 69016.46, -0.032571226, 0.022285512, -1097062.9, 26058.77, 0.0, 9.998692, 10.000627 
1.20512426e+3, 1.9539958e+2, -1076595.8, -976187.06, 10991.585, -0.07870047, 0.23264101, -974997.94, 50096.1, 0.0, 9.999329, 10.000663 
1.20510645e+3, 2.053994e+2, -954629.0, -1009239.25, -18512.055, -0.07522564, 0.21827662, -948945.25, -21851.635, 0.0, 10.000106, 9.999395 
1.2050889e+3, 2.1539637e+2, -721893.3, -842053.6, -7953.2324, -0.022629159, -0.043968562, -721369.2, 107749.06, 0.0, 10.001009, 9.999438 
1.20507106e+3, 2.2539498e+2, -692264.9, -876423.94, 18433.043, -0.010888255, -0.07654169, -690437.94, 40692.332, 0.0, 10.000977, 9.998543 
1.2050529e+3, 2.3539479e+2, -706465.94, -823753.0, 18231.1, -0.034251753, 0.0335435, -703697.44, -70564.305, 0.0, 10.000169, 9.998619 
1.205035e+3, 2.453934e+2, -569052.44, -692072.9, 12557.439, -0.028234705, 0.029692946, -567783.7, -32638.102, 0.0, 10.00037, 9.998753 
1.20501734e+3, 2.553908e+2, -314646.88, -518394.16, -32152.416, -0.0072143315, -0.12723784, -309693.5, 127474.56, 0.00000000020898414, 10.001439, 9.998759 
1.20499805e+3, 2.6538906e+2, -201706.86, -583544.56, -80454.52, -0.057546888, -0.09131356, -185447.19, 153736.78, 0.00000074892756, 10.00229, 9.997223 
1.2049774e+3, 2.7538797e+2, -468.16388, -423275.6, -49633.926, -0.16802281, 0.055586327, 5280.273, 246476.13, 0.000009032264, 10.00294, 9.997337 
1.20495945e+3, 2.8538546e+2, 155171.3, -180321.75, -14212.29, -0.05996611, 0.019840024, 155772.28, 298990.88, 0.000052112464, 10.002828, 9.998396 
1.2049439e+3, 2.9538158e+2, 130559.22, -138816.58, -69857.51, 0.24074134, -0.23213674, 147597.72, 192850.17, 0.00018285186, 10.001971, 9.998418 
1.204927e+3, 3.0537865e+2, 149874.7, -236856.45, 78019.1, 0.2171184, -0.29720163, 165021.06, 165021.06, 0.00045304873, 10.002355, 9.997217 
1.2049086e+3, 3.153803e+2, 366394.0, -64479.95, 73074.516, -0.13210802, 0.12719746, 378449.84, 378449.84, 0.00086639443, 10.003518, 9.997841 
1.2152459e+3, 1.2541252e+2, -2148716.0, -1711805.3, -24204.14, 0.07149529, -0.1280033, -1710468.5, 487.14252, 0.0026624324, 9.996105, 10.001876 
1.21522546e+3, 1.3541576e+2, -1963426.1, -1629378.3, 31351.559, -0.06805499, 0.033956263, -1626461.3, -13535.789, 0.0014356553, 9.996936, 10.001393 
1.21521145e+3, 1.4541647e+2, -1826465.4, -1783825.9, 117903.305, 0.1339821, 0.095011584, -1685330.3, -170409.44, 0.0005075534, 9.998374, 9.998952 
1.2151947e+3, 1.5541399e+2, -1468662.1, -1553108.0, 27046.232, -0.008078423, -0.0654919, -1460742.5, -43793.926, 0.000076397075, 10.000126, 9.99902 
1.2151769e+3, 1.6541384e+2, -1235865.6, -1188294.8, -85642.38, -0.061792776, -0.0677015, -1123196.1, 195753.52, 0.0000008702971, 10.00019, 10.000811 
1.21515915e+3, 1.7541559e+2, -1317459.9, -1175705.8, 11827.531, 0.026474448, 0.004491657, -1174725.8, 46203.8, 0.0, 9.998952, 10.000823 
1.2151421e+3, 1.8541646e+2, -1355593.4, -1309022.0, 81870.07, 0.0733987, 0.089581266, -1247190.5, -124267.49, 0.0, 9.998724, 9.999345 
1.2151251e+3, 1.9541642e+2, -1166513.4, -1159319.9, 42362.082, 0.06427839, 0.13169464, -1120402.1, -95472.586, 0.0, 9.999311, 9.999416 
1.2151079e+3, 2.0541595e+2, -931417.7, -944934.75, 5406.4507, 0.04943285, 0.12379708, -929521.3, -2587.9873, 0.0, 10.000039, 9.9998665 
1.2150907e+3, 2.1541494e+2, -707875.06, -783062.5, 29234.258, 0.043880712, 0.014576981, -697846.0, 131090.19, 0.0, 10.000882, 9.9999 
1.2150723e+3, 2.2541375e+2, -695228.8, -857602.7, -23588.137, 0.0022677432, -0.028117951, -691871.56, 39073.18, 0.0, 10.000864, 9.998729 
1.21505275e+3, 2.3541234e+2, -707853.9, -806336.2, -2203.758, -0.07353189, -0.062282708, -707804.56, -74845.5, 0.0, 10.000081, 9.998783 
1.2150352e+3, 2.454115e+2, -646754.06, -831264.8, 46500.516, -0.06338792, 0.027891407, -635697.56, -100728.38, 0.0, 10.000277, 9.997839 
1.2150193e+3, 2.5541088e+2, -382228.1, -645413.06, 15857.019, 0.026243825, 0.16239302, -381276.16, 55701.918, 0.00000000018849695, 10.001384, 9.997911 
1.2150011e+3, 2.6540837e+2, -138014.69, -439181.44, -62956.36, 0.0075417547, 0.10317091, -125383.914, 213616.92, 0.00000061447383, 10.002233, 9.998245 
1.2149812e+3, 2.75404e+2, 57862.086, -291332.53, -17485.725, -0.09666043, -0.17709161, 58735.49, 299772.34, 0.000008322687, 10.002888, 9.998271 
1.214962e+3, 2.8540197e+2, 41826.477, -389763.34, -53844.332, -0.09131552, -0.13757677, 48442.57, 191499.05, 0.000050693892, 10.002722, 9.997006 
1.21494375e+3, 2.954018e+2, 36948.55, -321153.22, -84222.96, 0.0059693297, 0.1223564, 55768.145, 100831.12, 0.00018217303, 10.001921, 9.997187 
1.21492736e+3, 3.0539912e+2, 243846.94, -23404.697, 116696.54, 0.0022508109, 0.05740071, 287630.1, 287630.1, 0.00045205725, 10.00228, 9.998719 
1.2149127e+3, 3.153988e+2, 475781.2, 200128.11, 137419.33, -0.109566964, 0.13192713, 532583.06, 532583.06, 0.00085648143, 10.003373, 9.999722 
1.2252427e+3, 1.2543036e+2, -2058754.4, -1741505.0, -168916.8, 0.11733874, -0.03604995, -1668408.6, 42376.594, 0.0029179724, 9.996999, 10.001256 
1.225224e+3, 1.3543265e+2, -1735604.6, -1558085.1, -87813.04, 0.014829272, 0.067292236, -1521987.3, 90777.055, 0.0015834377, 9.998652, 10.001058 
1.2252102e+3, 1.4543319e+2, -1706804.1, -1700374.4, 52111.324, 0.13511485, 0.1112839, -1651378.9, -136617.72, 0.00056846405, 9.999089, 9.999175 
1.2251938e+3, 1.5543094e+2, -1686604.0, -1628646.1, 85004.42, -0.01450943, -0.04885648, -1567816.8, -151031.39, 0.00008951281, 9.998508, 9.999273 
1.2251763e+3, 1.654312e+2, -1386659.8, -1231712.8, -32785.938, -0.07260081, -0.04030225, -1225060.9, 93720.945, 0.0000012652538, 9.999007, 10.001098 
1.2251586e+3, 1.754335e+2, -1081414.4, -1031038.06, -88621.66, 0.0035534992, 0.058232293, -964094.56, 256660.9, 0.0, 10.000425, 10.001116 
1.2251419e+3, 1.854341e+2, -1047122.25, -1206306.5, -29094.732, 0.06606795, 0.12304467, -1041971.2, 80780.14, 0.0, 10.0010395, 9.998939 
1.22512564e+3, 1.9543305e+2, -941597.75, -1091072.8, -24539.121, 0.09733549, 0.10336299, -937672.3, 87095.54, 0.0, 10.001035, 9.999057 
1.2251085e+3, 2.0543252e+2, -860942.06, -909823.25, -45309.227, 0.08528267, 0.10711665, -833901.94, 92870.84, 0.0, 10.000512, 9.999882 
1.22509085e+3, 2.154323e+2, -905766.1, -875975.3, -67829.56, 0.04819843, 0.075159945, -821424.9, 7344.41, 0.0, 9.999514, 9.999922 
1.2250727e+3, 2.254313e+2, -820317.7, -910112.44, -103596.01, 0.0103840595, 0.043969464, -752308.44, -21531.848, 0.0, 9.9999695, 9.998797 
1.2250538e+3, 2.3542947e+2, -471664.2, -686359.56, -113506.38, -0.038857117, -0.039714597, -422783.75, 210010.55, 0.0, 10.001667, 9.998844 
1.2250366e+3, 2.454285e+2, -399569.88, -717609.2, -31245.85, -0.024654884, 0.03790236, -396529.2, 138276.06, 0.0, 10.001991, 9.997802 
1.22502066e+3, 2.5542814e+2, -412786.53, -660319.06, -10578.544, 0.04743158, 0.20036033, -412335.28, 24476.791, 0.0, 10.001179, 9.9979105 
1.22500315e+3, 2.6542574e+2, -298148.06, -479501.6, -61621.207, 0.055899553, 0.1421064, -279191.56, 59641.45, 0.0000003685213, 10.000977, 9.998575 
1.2249842e+3, 2.754215e+2, -165047.7, -365259.4, -88010.51, 0.0077927033, -0.15821534, -131860.53, 109007.08, 0.0000073761885, 10.001225, 9.998562 
1.2249649e+3, 2.8541958e+2, -80136.15, -493359.28, -100884.28, -0.037473295, -0.10168077, -56821.69, 86064.336, 0.00004908337, 10.002066, 9.996607 
1.2249454e+3, 2.954195e+2, 205179.17, -285987.72, -76972.92, -0.0777745, 0.20743173, 216959.39, 261851.1, 0.00018062291, 10.003272, 9.9967785 
1.2249291e+3, 3.0541623e+2, 301331.6, -10126.081, 83793.89, -0.07269239, 0.108551376, 322444.2, 322444.2, 0.00044944658, 10.002726, 9.998606 
1.2249154e+3, 3.1541464e+2, 73483.41, 31813.191, -54449.094, -0.016182793, 0.06588652, 110947.58, 110947.58, 0.0008490022, 10.000451, 9.999992 
1.2352397e+3, 1.2544855e+2, -2105359.8, -1843124.3, -167811.6, 0.09002673, 0.2641212, -1761280.5, -50660.23, 0.0031899144, 9.997022, 10.0005455 
1.23522386e+3, 1.3544776e+2, -1769201.1, -1631430.1, -23271.25, 0.12819187, 0.12211617, -1627605.5, -14976.329, 0.0017411282, 9.998669, 10.000544 
1.2352089e+3, 1.4544857e+2, -1559794.5, -1402722.4, 23976.06, 0.07841213, 0.112684526, -1399144.1, 115474.36, 0.0006337289, 9.999112, 10.001212 
1.2351927e+3, 1.5545017e+2, -1548530.1, -1354387.0, 70432.82, 0.007886387, 0.13458343, -1331526.6, 85069.9, 0.00010392506, 9.998543, 10.001148 
1.2351755e+3, 1.6545054e+2, -1486826.3, -1437264.4, 7290.9165, -0.07150611, 0.13956052, -1436214.1, -117622.66, 0.0000017603737, 9.999003, 9.999684 
1.23515785e+3, 1.7544997e+2, -1180382.8, -1232481.3, -31729.352, -0.13247764, 0.09173095, -1165379.4, 55220.473, 0.0, 10.000407, 9.999741 
1.2351411e+3, 1.8544967e+2, -1025611.56, -1154682.8, -37244.613, -0.11562492, 0.11516909, -1015635.4, 106969.484, 0.0, 10.001011, 9.999308 
1.2351255e+3, 1.9544941e+2, -926370.94, -1046044.1, -17628.441, -0.037983786, 0.13965327, -923828.2, 100780.63, 0.0, 10.000974, 9.999398 
1.235108e+3, 2.0544907e+2, -898698.75, -967038.8, -94075.41, -0.026790904, 0.16308582, -832779.94, 93832.414, 0.0, 10.000423, 9.99953 
1.2350894e+3, 2.1544856e+2, -942700.94, -935225.2, -94747.77, -0.06784279, 0.13765246, -844141.56, -15525.045, 0.0, 9.999435, 9.999554 
1.2350722e+3, 2.2544764e+2, -839185.3, -928360.2, -48044.082, -0.055342406, 0.13822246, -818226.75, -87602.01, 0.0, 9.999878, 9.998717 
1.235056e+3, 2.354462e+2, -492074.34, -704670.5, -44826.83, 0.0019881162, 0.100791484, -483008.97, 149629.28, 0.0, 10.001563, 9.99877 
1.2350391e+3, 2.4544448e+2, -355441.8, -603906.6, -70116.6, 0.011542275, 0.06511396, -337020.72, 197632.48, 0.0, 10.001898, 9.998627 
1.23502135e+3, 2.5544244e+2, -365421.4, -549487.6, -31209.152, -0.012434527, -0.023325395, -360273.75, 76396.62, 0.0, 10.001118, 9.998704 
1.2350038e+3, 2.654412e+2, -343390.22, -548569.7, -58664.227, 0.015988901, 0.016341988, -327801.53, 10879.642, 0.00000016286783, 10.0008745, 9.998148 
1.2349863e+3, 2.754405e+2, -201895.06, -427179.4, -65343.137, 0.08059908, 0.110001944, -184314.42, 56373.87, 0.000006622681, 10.0011635, 9.998164 
1.2349679e+3, 2.8543827e+2, -52460.895, -413394.1, -60201.52, 0.03504837, 0.12157601, -42684.45, 100023.6, 0.0000487502, 10.001974, 9.997199 
1.2349487e+3, 2.954345e+2, 231726.72, -219700.47, -23131.182, -0.08735615, 0.0025159528, 232908.86, 277649.25, 0.00018150224, 10.003221, 9.997261 
1.2349318e+3, 3.054298e+2, 159696.9, -282822.94, -4088.5723, -0.09410177, -0.16552353, 159734.69, 159734.69, 0.00045012333, 10.002634, 9.996778 
1.2349164e+3, 3.154278e+2, -37471.86, -163431.73, -113207.49, -0.003804768, -0.06877434, 29095.14, 29095.14, 0.0008459935, 10.000303, 9.99872 
1.2452365e+3, 1.2546432e+2, -2073873.5, -1841774.9, -32804.15, 0.045123514, 0.27942973, -1837227.5, -126757.57, 0.003475539, 9.997323, 10.0004 
1.2452241e+3, 1.3546413e+2, -1741099.8, -1642598.6, 86997.85, 0.27113107, 0.22194396, -1591878.0, 20595.191, 0.0019075654, 9.998969, 10.000328 
1.2452075e+3, 1.4546454e+2, -1543766.6, -1356638.1, 11775.672, 0.03573517, 0.1684608, -1355900.0, 158565.06, 0.0007030745, 9.999055, 10.001558 
1.24519065e+3, 1.5546599e+2, -1583423.3, -1330846.3, -72660.41, -0.026119845, 0.13736556, -1311435.3, 105007.3, 0.00011956255, 9.99814, 10.001502 
1.2451744e+3, 1.6546644e+2, -1569915.3, -1492877.0, -46024.043, -0.052018154, 0.13982055, -1471380.0, -152943.23, 0.0000023468863, 9.998506, 9.999538 
1.2451587e+3, 1.7546602e+2, -1262142.1, -1284035.5, -15449.124, -0.053344827, 0.12294064, -1254154.6, -33709.11, 0.0, 9.9999075, 9.9996195 
1.2451424e+3, 1.8546577e+2, -1141619.5, -1170777.4, -31085.828, -0.050668888, 0.13796458, -1121863.8, 585.3174, 0.0, 10.000033, 9.999667 
1.2451254e+3, 1.9546548e+2, -1178048.5, -1132684.8, -23543.568, -0.036183912, 0.11895037, -1122674.6, -98224.23, 0.0, 9.999086, 9.999714 
1.24510765e+3, 2.0546514e+2, -1085444.5, -1110484.9, -61574.836, -0.04960983, 0.15176132, -1035129.8, -108675.22, 0.0, 9.999364, 9.999061 
1.2450891e+3, 2.1546467e+2, -798019.44, -911554.9, -87022.7, -0.08256948, 0.17559439, -750885.6, 77576.38, 0.0, 10.000627, 9.999144 
1.24507226e+3, 2.2546387e+2, -736568.7, -879268.1, -21016.955, -0.053647146, 0.20832239, -733537.7, -3067.0479, 0.0, 10.000588, 9.99871 
1.2450568e+3, 2.3546258e+2, -795133.94, -846349.9, -28716.582, 0.027942702, 0.18647392, -782265.8, -149783.28, 0.0, 9.999467, 9.998804 
1.2450401e+3, 2.4546084e+2, -684031.25, -710836.0, -56967.457, 0.050215095, 0.12196727, -638910.9, -104414.45, 0.0, 9.999418, 9.999085 
1.24502234e+3, 2.5545862e+2, -464155.88, -548350.25, -62731.07, 0.024919061, -0.02700579, -430705.97, 5806.703, 0.0, 10.000235, 9.999132 
1.2450049e+3, 2.6545757e+2, -354230.0, -575131.06, -66448.53, 0.038489852, 0.017431151, -335782.4, 2739.6406, 0.000000050542315, 10.000882, 9.997962 
1.24498755e+3, 2.754573e+2, -185404.11, -440409.4, -73035.82, 0.08312081, 0.1752091, -165967.45, 74559.67, 0.0000061370592, 10.001351, 9.997992 
1.2449698e+3, 2.8545487e+2, -12207.679, -322866.44, -18953.213, 0.041044716, 0.1463836, -11055.62, 131491.48, 0.000049450737, 10.001949, 9.997835 
1.2449519e+3, 2.9545036e+2, 183846.97, -178961.89, -2775.9023, -0.06348278, -0.111214444, 183868.2, 228450.56, 0.00018681613, 10.002628, 9.997822 
1.2449348e+3, 3.054457e+2, 216951.95, -402445.03, 5318.184, -0.09611795, -0.22857943, 216997.61, 216997.61, 0.00046226173, 10.003643, 9.995474 
1.24491856e+3, 3.154434e+2, 556852.94, 20032.463, -94433.586, -0.027071014, -0.03705517, 572980.5, 572980.5, 0.0008624877, 10.004835, 9.997799 
1.2552331e+3, 1.2547857e+2, -2035282.4, -1784701.4, 90159.69, -0.049380943, 0.092260055, -1755633.5, -45307.1, 0.0037739007, 9.9974165, 10.000746 
1.2552243e+3, 1.3548166e+2, -1741090.1, -1648000.5, 144074.64, 0.39017594, 0.35657322, -1543138.9, 69159.02, 0.0020822603, 9.998977, 10.000294 
1.2552059e+3, 1.4548111e+2, -1627166.6, -1524154.1, -34814.594, -0.047685456, 0.27005234, -1513491.8, 809.90814, 0.0007764397, 9.999033, 10.000418 
1.2551875e+3, 1.5547866e+2, -1646481.8, -1475268.8, -94119.67, -0.17556986, -0.03899546, -1433647.1, -17326.172, 0.00013646827, 9.998194, 10.000488 
1.2551728e+3, 1.6547905e+2, -1499202.4, -1352421.0, -2261.5752, -0.07494897, -0.04336907, -1352386.1, -34070.19, 0.0000030208696, 9.998533, 10.000487 
1.255161e+3, 1.7548174e+2, -1199648.0, -1151128.3, 37891.273, 0.17714895, 0.15310036, -1130396.0, 89895.78, 0.0, 9.999889, 10.000542 
1.2551449e+3, 1.8548238e+2, -1113331.4, -1106338.4, -77914.43, 0.18998349, 0.19018142, -1031842.0, 90442.47, 0.0, 10.000007, 10.000124 
1.2551253e+3, 1.9548121e+2, -1150247.4, -1073405.1, -50007.08, 0.024996432, 0.039429396, -1048763.6, -24470.965, 0.0, 9.999075, 10.000128 
1.2551072e+3, 2.054807e+2, -1134662.8, -1195913.8, -23719.494, -0.049686402, 0.06409106, -1126551.5, -200252.22, 0.0, 9.999298, 9.998507 
1.2550901e+3, 2.1548061e+2, -850802.75, -997926.0, -36435.938, -0.06006944, 0.18293664, -842273.6, -13967.921, 0.0, 10.000527, 9.998601 
1.255073e+3, 2.254799e+2, -747640.1, -876025.94, -72512.45, -0.05585907, 0.24828273, -714988.94, 15325.896, 0.0, 10.000475, 9.998787 
1.2550558e+3, 2.3547857e+2, -798237.9, -838940.94, -60024.973, -0.026634024, 0.21384595, -755208.2, -122880.72, 0.0, 9.999401, 9.99889 
1.2550394e+3, 2.4547756e+2, -689247.75, -701696.2, -34295.72, 0.02736775, 0.21043168, -660616.06, -126281.11, 0.0, 9.999331, 9.99919 
1.2550235e+3, 2.5547665e+2, -470882.4, -546117.75, -23533.17, 0.09731981, 0.17946875, -464127.78, -27788.098, 0.0, 10.00016, 9.999185 
1.255006e+3, 2.6547468e+2, -370747.7, -583207.3, -56356.836, 0.062199473, 0.13297531, -356724.16, -18367.059, 0.00000007625481, 10.000775, 9.997956 
1.2549877e+3, 2.7547178e+2, -195767.16, -438371.0, -44396.27, -0.05961262, 0.02794706, -187897.94, 52487.453, 0.0000061507535, 10.001255, 9.99805 
1.2549704e+3, 2.8546944e+2, 24940.773, -234337.63, -171.21445, -0.10311233, -0.02922415, 24940.887, 167344.48, 0.000051587293, 10.001891, 9.998473 
1.2549545e+3, 2.954672e+2, 218052.1, -103093.38, 36796.266, -0.079284415, -0.12639631, 222214.19, 266631.0, 0.0001993085, 10.002596, 9.998362 
1.2549381e+3, 3.0546412e+2, 151692.16, -524101.56, 46203.242, -0.14971367, -0.07148294, 154836.39, 154836.39, 0.00049473415, 10.00359, 9.994661 
1.2549217e+3, 3.154613e+2, 489102.88, -88930.28, -28188.408, -0.24152948, 0.1507957, 490474.25, 490474.25, 0.0009169739, 10.0047035, 9.997113 
1.265232e+3, 1.2549257e+2, -1685387.5, -1579171.3, 71063.99, -0.018295133, 0.06591958, -1543563.1, 166625.27, 0.004085261, 9.999667, 10.001069 
1.2652221e+3, 1.3549533e+2, -1955671.8, -1740938.9, -11489.833, 0.35221097, 0.28912106, -1740325.8, -128163.81, 0.0022650692, 9.997474, 10.000368 
1.2652034e+3, 1.4549507e+2, -1878309.5, -1672053.8, -94308.195, -0.111876614, 0.24093428, -1635434.0, -121269.54, 0.00085386867, 9.997426, 10.000178 
1.265187e+3, 1.5549344e+2, -1464416.4, -1406597.5, -106003.414, -0.10676382, 0.03652714, -1325632.1, 90547.9, 0.00015477135, 9.999534, 10.000308 
1.2651727e+3, 1.6549404e+2, -1303094.0, -1224112.3, -16056.403, -0.002602205, 0.04416573, -1220972.9, 97200.81, 0.0000038088367, 9.999726, 10.000793 
1.2651597e+3, 1.7549638e+2, -1394707.6, -1209972.4, -35321.637, 0.12618138, 0.17612971, -1203449.3, 16700.98, 0.0, 9.9984, 10.000855 
1.2651436e+3, 1.8549713e+2, -1285950.3, -1163062.8, -151410.06, 0.13219967, 0.19416012, -1061104.1, 61036.89, 0.0, 9.9987135, 10.000358 
1.2651253e+3, 1.9549638e+2, -948465.44, -949396.44, -158281.48, 0.054753132, 0.06287135, -790648.75, 233496.42, 0.0, 10.000358, 10.000358 
1.2651078e+3, 2.0549598e+2, -904926.7, -1068230.6, -97865.555, 0.012876214, 0.08025497, -859123.94, 67025.945, 0.0, 10.000802, 9.998654 
1.265091e+3, 2.1549572e+2, -886658.9, -999452.1, -76225.17, -0.010095354, 0.16695067, -848235.4, -20078.92, 0.0, 10.000216, 9.998735 
1.2650737e+3, 2.2549483e+2, -782490.7, -892757.56, -94839.12, -0.0129706375, 0.20547801, -727923.8, 2243.069, 0.0, 10.000229, 9.9987955 
1.2650561e+3, 2.3549335e+2, -613105.5, -747551.06, -102036.12, 0.01326165, 0.15539417, -558138.75, 74042.35, 0.0, 10.000668, 9.998906 
1.2650397e+3, 2.4549252e+2, -492417.13, -635528.6, -56978.668, 0.051499885, 0.18464507, -472502.7, 61685.402, 0.0, 10.000811, 9.998929 
1.265024e+3, 2.5549206e+2, -408267.13, -541563.5, -90364.54, 0.100143164, 0.22385505, -362631.16, 73560.03, 0.0, 10.000702, 9.998953 
1.2650068e+3, 2.654902e+2, -369373.72, -547416.56, -110140.734, 0.07183756, 0.18313952, -316776.66, 21431.264, 0.00000015326442, 10.000625, 9.9982815 
1.2649888e+3, 2.754871e+2, -284072.6, -446155.25, -91214.01, -0.021021876, 0.025452081, -243098.8, -2861.8481, 0.0000068361555, 10.000492, 9.998367 
1.2649721e+3, 2.8548512e+2, -131709.83, -332080.34, -31954.969, -0.0879166, -0.0010102971, -126737.08, 15516.379, 0.00005543398, 10.00092, 9.99826 
1.2649563e+3, 2.954838e+2, 107417.46, -175241.03, -80397.72, -0.12357616, 0.013992868, 128685.1, 172947.28, 0.00021874357, 10.0019245, 9.998181 
1.2649405e+3, 3.0548134e+2, 79306.38, -436374.16, -10733.843, -0.2027419, 0.0885601, 79529.71, 79529.71, 0.0005474256, 10.002575, 9.995747 
1.2649256e+3, 3.1547755e+2, 270890.72, -85551.57, 19980.154, -0.20326641, 0.10088378, 272007.2, 272007.2, 0.0010137463, 10.002743, 9.9980755 
1.2752327e+3, 1.2550674e+2, -1666693.6, -1534266.8, 88481.0, 0.046020694, 0.22052608, -1489967.3, 220084.5, 0.0044096503, 9.999651, 10.001381 
1.2752172e+3, 1.3550547e+2, -1939711.8, -1723223.0, -88317.93, 0.09611461, 0.031342756, -1691764.5, -79702.44, 0.0024558255, 9.997525, 10.000473 
1.2751998e+3, 1.4550668e+2, -1831998.4, -1580513.1, -26329.516, -0.22825144, 0.091906145, -1577786.1, -63734.81, 0.00093550276, 9.997451, 10.00079 
1.2751888e+3, 1.5551019e+2, -1432052.1, -1333562.9, -25191.453, 0.10600912, 0.34290534, -1327493.5, 88527.58, 0.00017466526, 9.999508, 10.000821 
1.2751734e+3, 1.6551118e+2, -1318546.9, -1256279.4, -76354.08, 0.090511136, 0.37504253, -1204955.5, 113056.41, 0.0000047674703, 9.999721, 10.000579 
1.2751544e+3, 1.7551005e+2, -1402109.0, -1235113.8, -74488.125, -0.25496602, 0.1826104, -1206717.1, 13303.062, 0.0, 9.998436, 10.000669 
1.2751384e+3, 1.8551011e+2, -1286223.4, -1167419.4, -96831.49, -0.27248085, 0.14265878, -1113221.5, 8796.117, 0.0, 9.998728, 10.0003195 
1.2751251e+3, 1.95511e+2, -951515.25, -951732.75, -93453.945, -0.0076951887, 0.17625538, -858170.0, 165837.55, 0.0, 10.000335, 10.000354 
1.2751092e+3, 2.0551099e+2, -860407.06, -956148.1, -130379.555, 0.07253252, 0.19100584, -769387.7, 156618.58, 0.0, 10.000718, 9.999464 
1.2750913e+3, 2.155101e+2, -846944.44, -891552.75, -90715.11, 0.00028258646, 0.13201396, -775831.75, 52181.867, 0.0, 10.000105, 9.99953 
1.2750742e+3, 2.2550875e+2, -801564.2, -902555.7, -87097.31, 0.009870166, 0.08621635, -751383.44, -21357.375, 0.0, 10.000106, 9.998785 
1.2750578e+3, 2.3550689e+2, -632214.06, -765221.5, -77229.52, 0.08566257, 0.001395155, -596800.44, 35243.3, 0.0, 10.000572, 9.99883 
1.2750407e+3, 2.4550568e+2, -557205.25, -744636.06, -68991.72, 0.06262731, 0.034119967, -534548.7, -491.95724, 0.0, 10.000702, 9.998231 
1.2750234e+3, 2.555049e+2, -460805.47, -630748.7, -85846.08, -0.039008945, 0.10718236, -424989.13, 11077.677, 0.0, 10.000618, 9.998379 
1.2750068e+3, 2.6550424e+2, -333056.8, -455822.16, -122566.54, -0.00521658, 0.1751637, -257361.45, 80712.31, 0.00000020123079, 10.000551, 9.998946 
1.274991e+3, 2.7550343e+2, -258188.11, -372568.84, -82755.69, 0.12780882, 0.17676963, -214784.03, 25296.48, 0.0000077157165, 10.000411, 9.99891 
1.274974e+3, 2.85502e+2, -223601.8, -507851.97, -3577.309, 0.018200202, 0.24442537, -223556.78, -81460.66, 0.000060402712, 10.000853, 9.997086 
1.2749568e+3, 2.9549995e+2, 27117.291, -319529.56, -32017.498, -0.27883026, 0.30114248, 30049.73, 74169.81, 0.00024154171, 10.001829, 9.997236 
1.274942e+3, 3.0549735e+2, 271652.47, -19012.17, -9523.065, -0.33302432, 0.2516885, 271964.16, 271964.16, 0.0006104457, 10.002496, 9.9986515 
1.2749302e+3, 3.154924e+2, 426266.75, 275425.6, 48273.918, -0.058450308, -0.1478813, 440393.0, 440393.0, 0.0011368401, 10.002595, 10.00062 
1.2852325e+3, 1.2551992e+2, -1916248.0, -1664730.0, 180756.11, 0.14454643, 0.24081282, -1570288.9, 139633.69, 0.0047468157, 9.997972, 10.0013 
1.2852143e+3, 1.3551827e+2, -1748659.0, -1626916.1, -108681.98, -0.01648158, 0.020069316, -1563219.9, 48717.1, 0.0026545508, 9.998825, 10.000502 
1.2851985e+3, 1.4552e+2, -1662461.5, -1468904.9, 16.060892, -0.15517299, 0.11291956, -1468904.9, 45016.82, 0.0010215283, 9.998482, 10.001061 
1.285188e+3, 1.5552388e+2, -1704853.4, -1433745.3, -36003.81, 0.17927667, 0.3738924, -1429045.3, -13157.234, 0.00019628371, 9.997504, 10.001097 
1.2851727e+3, 1.6552478e+2, -1591174.6, -1397204.3, -86098.195, 0.14353095, 0.39075473, -1364501.3, -46621.67, 0.0000059623408, 9.997894, 10.000498 
1.2851535e+3, 1.7552324e+2, -1273629.1, -1184788.9, -91269.234, -0.24218392, 0.16509652, -1127704.1, 92187.49, 0.0, 9.99937, 10.000569 
1.2851375e+3, 1.8552329e+2, -1142515.8, -1132118.6, -87105.71, -0.28378478, 0.14621763, -1050056.5, 71834.24, 0.0, 9.999865, 10.000012 
1.2851247e+3, 1.955245e+2, -1071749.8, -1037297.56, -121080.28, -0.03301543, 0.24304269, -932224.1, 91656.35, 0.0, 9.999637, 10.0001 
1.2851092e+3, 2.055246e+2, -987778.1, -950187.75, -194853.72, 0.06820342, 0.24946824, -773224.9, 152652.95, 0.0, 9.99955, 10.000072 
1.2850915e+3, 2.1552366e+2, -893199.06, -847922.9, -185028.72, 0.04799771, 0.12499415, -684152.5, 143730.2, 0.0, 9.999501, 10.000122 
1.2850747e+3, 2.2552285e+2, -816540.9, -885654.9, -133529.75, 0.05496355, 0.09247915, -713169.0, 16720.238, 0.0, 9.999901, 9.998999 
1.2850583e+3, 2.3552197e+2, -604368.1, -728362.5, -127769.52, 0.085580036, 0.085843466, -524348.75, 107549.48, 0.0, 10.000668, 9.999034 
1.2850414e+3, 2.455206e+2, -571646.25, -769854.3, -106435.66, 0.06894526, 0.098783575, -525319.3, 8593.865, 0.0, 10.000668, 9.998083 
1.2850241e+3, 2.5551867e+2, -563401.9, -699279.4, -99000.78, 0.016687697, 0.074082226, -511270.53, -75336.42, 0.0, 9.999985, 9.998223 
1.2850077e+3, 2.6551804e+2, -381378.8, -481089.53, -104069.695, 0.047458187, 0.15467334, -315838.94, 22102.223, 0.00000014147287, 10.0002365, 9.998915 
1.2849918e+3, 2.7551824e+2, -126309.3, -310557.9, -139644.56, 0.14155409, 0.26362962, -51138.977, 188799.81, 0.000007879153, 10.001326, 9.99889 
1.2849754e+3, 2.8551692e+2, -128960.61, -421327.34, -15729.917, 0.029238857, 0.3208734, -128116.74, 13836.925, 0.00006525831, 10.001326, 9.9974575 
1.2849583e+3, 2.955141e+2, -160010.94, -366894.63, 48101.06, -0.24173684, 0.26693326, -149374.19, -105389.79, 0.00026775803, 10.000355, 9.997624 
1.284944e+3, 3.055125e+2, 45093.54, -25068.805, 80374.97, -0.27110726, 0.2497218, 97709.71, 97709.71, 0.0006827303, 10.000498, 9.999572 
1.2849335e+3, 3.155092e+2, 307903.66, 264586.75, -48543.05, 0.083355, -0.07165536, 339400.78, 339400.78, 0.0012767545, 10.001552, 10.001063 
1.2952293e+3, 1.2553169e+2, -1948610.1, -1730091.1, 196407.95, 0.015441455, 0.0867663, -1614598.0, 95206.75, 0.0050962004, 9.997969, 10.00085 
1.2952128e+3, 1.355335e+2, -1762660.9, -1646391.6, -79214.19, -0.06026987, 0.22432137, -1606268.9, 5520.3145, 0.0028611089, 9.998788, 10.000384 
1.2951991e+3, 1.455348e+2, -1661612.1, -1466731.6, -49164.355, 0.030345384, 0.2788966, -1455031.0, 58746.637, 0.00111182, 9.998478, 10.001079 
1.2951845e+3, 1.5553485e+2, -1698389.8, -1430367.6, -59531.168, 0.057696044, 0.15521233, -1417740.0, -1961.9493, 0.000219555, 9.9975395, 10.001107 
1.2951703e+3, 1.6553521e+2, -1588259.6, -1393279.0, -40877.883, 0.085803196, 0.11692841, -1385055.8, -67282.04, 0.0000074533, 9.997904, 10.000517 
1.2951562e+3, 1.7553599e+2, -1276235.9, -1189051.6, -33554.305, 0.086072095, 0.119660445, -1177633.1, 42131.18, 0.0, 9.999364, 10.00054 
1.2951407e+3, 1.8553667e+2, -1186919.5, -1220251.3, -103645.48, 0.018373694, 0.19594038, -1098608.5, 23151.64, 0.0, 9.999843, 9.999421 
1.295124e+3, 1.95537e+2, -1112057.0, -1116127.0, -120439.43, -0.08557568, 0.26484552, -993635.44, 30127.383, 0.0, 9.999611, 9.999573 
1.2951076e+3, 2.0553692e+2, -969912.5, -896363.9, -203673.58, -0.058872838, 0.253888, -726171.3, 199592.4, 0.0, 9.99948, 10.000472 
1.2950914e+3, 2.155364e+2, -880524.06, -798950.8, -178133.2, 0.0696136, 0.13216911, -656994.5, 170769.33, 0.0, 9.999404, 10.000504 
1.2950747e+3, 2.2553708e+2, -807696.75, -839699.6, -112183.13, 0.05906866, 0.2141348, -710379.6, 19376.877, 0.0, 9.999782, 9.999372 
1.2950577e+3, 2.3553859e+2, -592006.4, -677786.56, -91434.85, -0.06017265, 0.403858, -533901.94, 97842.64, 0.0, 10.000558, 9.9994335 
1.2950414e+3, 2.4553724e+2, -562437.06, -720356.0, -140716.98, -0.0017965133, 0.3785273, -480040.2, 53717.5, 0.0, 10.000543, 9.998481 
1.2950261e+3, 2.555334e+2, -555613.0, -657731.5, -111860.914, 0.19917719, 0.123657696, -483709.2, -47916.543, 0.0, 9.9998865, 9.99855 
1.2950093e+3, 2.6553166e+2, -448414.97, -608332.56, -70670.47, 0.16698398, 0.12394559, -421660.47, -83850.87, 0.000000052302592, 10.000173, 9.998078 
1.2949914e+3, 2.7553162e+2, -182421.63, -408617.94, -91560.336, -0.058389656, 0.28678903, -150005.22, 89806.64, 0.000007172051, 10.001244, 9.998258 
1.2949751e+3, 2.8552988e+2, -9114.862, -153256.33, -59913.676, -0.13724127, 0.23374142, 12536.541, 154362.56, 0.000069658236, 10.001237, 9.999343 
1.2949602e+3, 2.955264e+2, -54050.2, -127877.12, 28024.906, -0.09421249, -0.07638774, -44617.15, -763.6616, 0.0002984911, 10.000272, 9.999305 
1.2949465e+3, 3.0552688e+2, -55624.004, -210830.05, 112610.14, -0.08795674, 0.10458146, 3532.8857, 3532.8857, 0.0007671863, 10.000407, 9.998336 
1.2949355e+3, 3.1552818e+2, 160549.88, 15354.921, 18144.963, 0.08934377, 0.35869783, 162783.1, 162783.1, 0.001436353, 10.001334, 9.999439 
1.3052277e+3, 1.2554507e+2, -1950537.6, -1707974.9, 144522.5, 0.05322205, 0.14270942, -1640587.5, 69088.57, 0.0054552136, 9.997844, 10.001066 
1.3052104e+3, 1.3554692e+2, -1871116.4, -1641907.9, -65099.016, -0.123414285, 0.23697254, -1624709.1, -13050.337, 0.003073975, 9.997803, 10.000888 
1.3051987e+3, 1.455483e+2, -1746587.9, -1516164.6, -20293.703, 0.18411508, 0.27396992, -1514391.0, -745.316, 0.0012055306, 9.997928, 10.001007 
1.3051824e+3, 1.5554805e+2, -1604002.9, -1394303.6, -53005.535, 0.07083894, 0.13364534, -1381666.9, 33980.793, 0.000244213, 9.998231, 10.001021 
1.3051683e+3, 1.6554835e+2, -1523305.9, -1356408.9, 15580.941, 0.09031627, 0.09083756, -1354966.8, -37322.805, 0.000009295233, 9.998333, 10.00056 
1.3051562e+3, 1.7554921e+2, -1419073.0, -1251186.5, 6621.8784, 0.20515545, 0.097755305, -1250925.8, -31291.557, 0.0, 9.998364, 10.000591 
1.3051412e+3, 1.8555011e+2, -1363441.8, -1289377.4, -43785.934, 0.15438706, 0.18622462, -1269063.4, -147435.34, 0.0, 9.998559, 9.999566 
1.3051237e+3, 1.9555078e+2, -1217911.6, -1155704.5, -25417.822, -0.03578576, 0.27601945, -1146639.8, -123012.3, 0.0, 9.998832, 9.99968 
1.305107e+3, 2.0555072e+2, -1020974.3, -954262.2, -89661.87, -0.05554357, 0.28087932, -891952.8, 33676.31, 0.0, 9.999282, 10.000168 
1.305091e+3, 2.1555005e+2, -830957.94, -802850.2, -131510.33, 0.063141085, 0.17283645, -684644.94, 142987.81, 0.0, 9.999882, 10.000242 
1.3050745e+3, 2.2555071e+2, -772432.7, -797979.94, -82707.414, 0.07505325, 0.25255662, -701518.3, 28107.76, 0.0, 9.999912, 9.999594 
1.3050583e+3, 2.3555227e+2, -743425.3, -727435.25, -90585.9, 0.0017182066, 0.42502865, -644492.25, -12879.436, 0.0, 9.999416, 9.999641 
1.3050425e+3, 2.4555124e+2, -589674.94, -720349.6, -121551.8, 0.057528794, 0.41628373, -517012.97, 16609.557, 0.0, 10.0003, 9.998593 
1.3050273e+3, 2.5554794e+2, -194375.67, -474318.34, -133605.94, 0.22041683, 0.20363347, -140846.3, 294806.3, 0.0, 10.002316, 9.998642 
1.3050103e+3, 2.6554593e+2, -152045.83, -470444.34, -90469.25, 0.16293478, 0.17654356, -128135.586, 209536.22, 0.000000026393016, 10.002239, 9.99803 
1.304992e+3, 2.7554488e+2, -293034.28, -468958.97, -75142.81, -0.08355443, 0.24689317, -265308.16, -25624.984, 0.0000066700077, 10.000506, 9.998206 
1.304976e+3, 2.8554317e+2, -94668.1, -133196.06, -40161.906, -0.11660009, 0.16994837, -69389.07, 72306.28, 0.00007501981, 10.000391, 9.999885 
1.3049623e+3, 2.9554075e+2, 179150.84, 37211.824, -76056.07, 0.029623909, -0.088418216, 212206.33, 255916.17, 0.00033195864, 10.001644, 9.999781 
1.3049482e+3, 3.055412e+2, 92777.53, -189107.1, 11230.458, -0.019612586, 0.087420896, 93224.25, 93224.25, 0.00085839094, 10.001617, 9.997912 
1.3049358e+3, 3.155423e+2, -22216.432, -170410.06, -53401.867, 0.029915651, 0.36833346, -4978.1646, -4978.1646, 0.0016111253, 10.000458, 9.998607 
1.3152243e+3, 1.2555976e+2, -1887411.6, -1577070.9, 9396.023, -0.09232805, 0.3575016, -1576786.6, 132751.97, 0.005819013, 9.9978285, 10.001982 
1.315207e+3, 1.3555883e+2, -1800475.3, -1497129.8, -56205.68, -0.25637215, 0.07195076, -1487050.6, 124492.56, 0.0032902497, 9.997809, 10.001881 
1.3151972e+3, 1.4556064e+2, -1751352.6, -1531943.4, -20170.555, 0.22405943, 0.109990865, -1530104.5, -16580.596, 0.0013013786, 9.997958, 10.000882 
1.3151817e+3, 1.5556343e+2, -1613074.8, -1419691.8, -35924.992, 0.152568, 0.29102224, -1413233.6, 2264.1978, 0.00026992275, 9.998259, 10.000834 
1.315167e+3, 1.6556405e+2, -1517863.3, -1352205.0, 7272.2495, 0.09671334, 0.2869947, -1351886.4, -34394.82, 0.00001153221, 9.998356, 10.000583 
1.3151534e+3, 1.755629e+2, -1406889.5, -1236234.5, 15210.893, 0.07532573, 0.09006465, -1234889.4, -15388.4795, 0.0, 9.9984, 10.00068 
1.315139e+3, 1.8556365e+2, -1312166.6, -1176802.6, -42542.02, 0.06562645, 0.11814095, -1164542.9, -43049.043, 0.0, 9.998536, 10.000348 
1.3151236e+3, 1.9556573e+2, -1174257.6, -1058488.5, -9630.966, 0.052399643, 0.26964477, -1057692.8, -34217.18, 0.0, 9.998801, 10.000361 
1.3151072e+3, 2.0556596e+2, -1099902.3, -1101058.1, -76297.02, 0.012256032, 0.32201582, -1024180.94, -98705.84, 0.0, 9.999209, 9.999195 
1.3150899e+3, 2.155646e+2, -907805.75, -944553.8, -102418.97, -0.035023276, 0.24169585, -822125.7, 5364.179, 0.0, 9.999798, 9.999313 
1.3150743e+3, 2.255637e+2, -784250.9, -793887.25, -108647.67, 0.033000007, 0.20749073, -680314.6, 49183.414, 0.0, 9.999794, 9.999679 
1.3150597e+3, 2.355631e+2, -754011.94, -726089.0, -94291.44, 0.1955147, 0.1558813, -644731.0, -13228.872, 0.0, 9.99932, 9.999697 
1.315044e+3, 2.455627e+2, -619498.6, -756699.3, -53131.664, 0.17282021, 0.21931612, -601329.3, -67822.28, 0.0, 10.000188, 9.9984 
1.3150278e+3, 2.5556242e+2, -219735.36, -500071.78, -55877.2, 0.009990956, 0.3275349, -209008.28, 226504.38, 0.0, 10.002201, 9.998521 
1.3150108e+3, 2.6556095e+2, -121164.94, -383479.16, -164645.44, -0.038747855, 0.3201517, -41821.91, 295705.44, 0.000000066602475, 10.002138, 9.998677 
1.3149934e+3, 2.7555817e+2, -269138.8, -392193.4, -122000.35, -0.0068357424, 0.15186669, -194029.03, 45522.938, 0.0000067822207, 10.000403, 9.9987755 
1.314978e+3, 2.8555697e+2, -162476.03, -266388.38, 679.54877, 0.023332627, 0.14856842, -162471.6, -20911.834, 0.00008157081, 10.000343, 9.9990015 
1.3149644e+3, 2.9555705e+2, 110920.52, -84611.21, -18976.95, 0.055613324, 0.22602423, 112745.266, 156299.22, 0.0003645955, 10.001551, 9.998995 
1.3149486e+3, 3.0555525e+2, 101994.055, -141691.2, -36478.234, -0.15078259, 0.194282, 107337.46, 107337.46, 0.0009459137, 10.001508, 9.998284 
1.3149337e+3, 3.1555158e+2, -50770.02, -170687.6, -61629.133, -0.2532809, -0.039556503, -24745.05, -24745.05, 0.0017802492, 10.000235, 9.998699 
1.3252234e+3, 1.2557407e+2, -2051884.0, -1686160.6, 93027.25, 0.083182864, 0.35075343, -1663857.8, 45540.41, 0.006183249, 9.996797, 10.001745 
1.325206e+3, 1.3557301e+2, -1698351.8, -1464280.4, 18562.48, -0.16460605, 0.076431625, -1462817.4, 148586.7, 0.0035072896, 9.998607, 10.001707 
1.3251963e+3, 1.4557464e+2, -1546286.8, -1447310.8, -344.51447, 0.26923093, 0.10881177, -1447309.5, 66077.29, 0.0013982238, 9.999426, 10.000757 
1.3251804e+3, 1.5557718e+2, -1453524.6, -1359808.6, -28604.379, 0.1515986, 0.27736115, -1351767.8, 63595.305, 0.00029637254, 9.999426, 10.000685 
1.3251655e+3, 1.6557792e+2, -1392080.0, -1319825.9, 14075.368, 0.07330674, 0.30811483, -1317180.8, 175.78644, 0.000014169166, 9.999349, 10.000318 
1.3251519e+3, 1.7557721e+2, -1305612.3, -1216503.1, -18991.307, 0.040489595, 0.18160905, -1212624.5, 6739.5615, 0.0, 9.999225, 10.000415 
1.3251376e+3, 1.8557763e+2, -1215499.3, -1099528.9, -89028.64, 0.05572389, 0.17629702, -1051267.3, 70091.8, 0.0, 9.99907, 10.000619 
1.3251229e+3, 1.9557886e+2, -1137664.8, -1010918.44, -108678.34, 0.096054226, 0.21458149, -948485.6, 74859.88, 0.0, 9.998934, 10.000618 
1.3251068e+3, 2.0557909e+2, -1092892.0, -1094383.8, -117233.91, 0.06200457, 0.25311717, -976401.6, -51057.98, 0.0, 9.999233, 9.999232 
1.3250898e+3, 2.155784e+2, -901761.06, -940670.7, -86772.01, -0.023247467, 0.23776731, -832289.7, -4937.3047, 0.0, 9.999828, 9.999329 
1.3250743e+3, 2.255773e+2, -732578.3, -807194.8, -84019.766, 0.046961438, 0.2002182, -677956.0, 51407.3, 0.0, 10.000325, 9.999328 
1.3250601e+3, 2.3557578e+2, -562648.7, -665194.5, -117692.94, 0.2418994, 0.090717405, -485545.03, 145832.16, 0.0, 10.00078, 9.999409 
1.3250445e+3, 2.4557544e+2, -595984.94, -709182.6, -40802.99, 0.2100809, 0.15591042, -582810.44, -49428.633, 0.0, 10.000189, 9.998728 
1.325028e+3, 2.5557598e+2, -702053.75, -694484.75, -24614.398, -0.0059653874, 0.31296134, -673365.6, -237985.88, 0.0, 9.998729, 9.998857 
1.3250114e+3, 2.6557496e+2, -534294.25, -544981.2, -120340.75, -0.029904373, 0.3200403, -419178.4, -81789.125, 0.0000000978673, 9.999141, 9.99901 
1.324995e+3, 2.755724e+2, -154324.77, -309778.66, -122201.445, 0.08810846, 0.14045773, -87225.35, 152185.73, 0.000006920427, 10.001063, 9.999032 
1.3249797e+3, 2.8557116e+2, -74722.6, -315212.72, 12599.81, 0.11666662, 0.16625372, -74064.27, 67356.47, 0.00008668865, 10.001352, 9.998173 
1.3249655e+3, 2.955711e+2, -98164.53, -268823.9, -31952.75, 0.07290574, 0.3099949, -92378.17, -48957.797, 0.00038909205, 10.000475, 9.998242 
1.3249493e+3, 3.0556843e+2, -84227.39, -189938.88, -53453.76, -0.16241485, 0.20678806, -61909.773, -61909.773, 0.0010147934, 10.000058, 9.998651 
1.3249342e+3, 3.155648e+2, -63774.426, -138334.23, -103140.03, -0.20515163, -0.052337095, 8616.35, 8616.35, 0.0019149169, 9.999962, 9.99906 
1.3352232e+3, 1.2558822e+2, -2126189.8, -1855247.3, 74258.51, 0.34800416, 0.14475788, -1836229.6, -126976.72, 0.0065457188, 9.9968605, 10.000553 
1.3352074e+3, 1.3558945e+2, -1791152.9, -1658447.0, 85527.06, 0.085411765, 0.23614839, -1616552.1, -5309.621, 0.0037237175, 9.99862, 10.000362 
1.3351957e+3, 1.455901e+2, -1550228.8, -1457408.0, -8869.234, 0.24647994, 0.2411781, -1456568.1, 56668.137, 0.0014951822, 9.999427, 10.000692 
1.3351786e+3, 1.5558946e+2, -1456348.0, -1369710.0, -19526.697, 0.01339743, 0.09615714, -1365512.4, 49729.367, 0.00032323142, 9.9994335, 10.000617 
1.335164e+3, 1.6559021e+2, -1442449.8, -1417612.6, 405.2445, -0.043590326, 0.16522563, -1417606.0, -100368.984, 0.000017128494, 9.999321, 9.9996605 
1.3351512e+3, 1.7559208e+2, -1350228.0, -1307730.1, -15017.545, 0.038306855, 0.3612946, -1302959.0, -83735.29, 0.00000000003443261, 9.999217, 9.999793 
1.3351369e+3, 1.8559203e+2, -1232025.0, -1134738.3, -101954.516, 0.056151353, 0.3474254, -1070417.5, 50806.27, 0.0, 9.999071, 10.000379 
1.3351214e+3, 1.9559023e+2, -1149625.8, -1035876.5, -103916.74, 0.036770876, 0.10733375, -974288.4, 48947.797, 0.0, 9.998927, 10.000452 
1.3351059e+3, 2.0559023e+2, -1033789.44, -953038.06, -103873.79, 0.02990154, 0.07805464, -881968.9, 43264.496, 0.0, 9.999155, 10.000239 
1.3350904e+3, 2.1559155e+2, -857339.7, -821722.56, -57225.75, 0.034398757, 0.16246694, -779598.4, 47621.37, 0.0, 9.999707, 10.000207 
1.3350749e+3, 2.2559144e+2, -803336.44, -925933.0, -72732.26, 0.046205875, 0.22282112, -769516.56, -40293.848, 0.0, 10.000199, 9.998573 
1.3350593e+3, 2.3559017e+2, -621914.0, -769150.9, -94087.5, 0.07543322, 0.21565388, -576066.4, 55172.613, 0.0, 10.000691, 9.99874 
1.3350438e+3, 2.4558932e+2, -551341.94, -595436.25, -104044.14, 0.089743726, 0.2151781, -467034.7, 66213.586, 0.0, 10.000099, 9.999551 
1.3350278e+3, 2.5558862e+2, -658300.1, -588019.6, -64467.344, 0.09322835, 0.16463849, -549737.3, -114483.95, 0.0, 9.998662, 9.999617 
1.3350122e+3, 2.6558805e+2, -545396.7, -556385.0, -54874.01, 0.11184906, 0.18703859, -495742.47, -158485.34, 0.00000008871969, 9.999084, 9.998962 
1.3349965e+3, 2.7558747e+2, -173276.02, -326757.53, -43431.1, 0.1342989, 0.20764044, -161838.52, 77422.875, 0.000006673535, 10.000968, 9.9989605 
1.334981e+3, 2.8558567e+2, -144303.95, -445258.6, -32082.451, 0.08471084, 0.22384235, -140921.9, 357.468, 0.00008850924, 10.001283, 9.997315 
1.3349655e+3, 2.9558286e+2, -171547.36, -391971.97, -50375.895, 0.00029875457, 0.17934875, -160580.13, -117271.45, 0.00040084837, 10.000348, 9.99746 
1.3349496e+3, 3.055809e+2, -68021.234, -132287.44, -59066.57, -0.1403849, 0.1595556, -32913.01, -32913.01, 0.0010550291, 9.999963, 9.999087 
1.334937e+3, 3.155819e+2, -53438.9, -59088.996, -66004.74, 0.047885496, 0.31580177, 9801.225, 9801.225, 0.0019990124, 9.999731, 9.99971 
1.3452211e+3, 1.2560217e+2, -1745404.5, -1681819.3, -21862.36, 0.33000186, 0.098801255, -1675027.8, 34087.086, 0.0069055543, 9.999528, 10.000451 
1.3452071e+3, 1.3560374e+2, -1721748.0, -1662061.5, 61474.242, 0.165884, 0.2541052, -1623569.5, -12468.268, 0.0039389143, 9.99926, 10.000031 
1.3451943e+3, 1.4560416e+2, -1660478.1, -1540146.0, -26392.52, 0.20038724, 0.26824343, -1534611.8, -21512.791, 0.0015916337, 9.998814, 10.000408 
1.3451776e+3, 1.5560317e+2, -1604552.3, -1463855.4, -73299.23, 0.02300278, 0.11277677, -1432608.1, -17497.787, 0.0003501717, 9.998534, 10.000393 
1.3451631e+3, 1.6560398e+2, -1527007.9, -1405724.9, 9197.828, -0.011696763, 0.17519958, -1405031.3, -87926.96, 0.000020254476, 9.998514, 10.0001335 
1.3451502e+3, 1.7560627e+2, -1403334.0, -1284806.1, 57293.902, 0.041817978, 0.36586148, -1261639.4, -42555.07, 0.0000000014653116, 9.998653, 10.00022 
1.3451357e+3, 1.8560614e+2, -1268594.5, -1201761.9, 18866.176, 0.0487081, 0.35036469, -1196804.0, -75718.92, 0.0, 9.999032, 9.999939 
1.3451205e+3, 1.956039e+2, -1075206.0, -1044588.1, -14932.929, 0.029764496, 0.11230403, -1038511.2, -15407.386, 0.0, 9.999632, 10.000055 
1.3451052e+3, 2.056039e+2, -1016370.94, -922447.6, -58683.203, 0.044469796, 0.08934482, -894248.7, 30852.918, 0.0, 9.999183, 10.000433 
1.3450897e+3, 2.1560553e+2, -1104721.8, -910244.25, -86753.61, 0.08270028, 0.18309188, -877169.6, -50086.156, 0.0, 9.997898, 10.000457 
1.3450743e+3, 2.256056e+2, -1092721.0, -1050974.5, -26441.533, 0.0869214, 0.24276401, -1038160.3, -309076.13, 0.0, 9.998138, 9.998716 
1.3450594e+3, 2.3560438e+2, -774816.8, -824935.56, 2734.9517, 0.07278907, 0.22374505, -774668.0, -143567.36, 0.0, 9.999559, 9.998906 
1.345044e+3, 2.4560362e+2, -473523.16, -516453.8, -31304.621, 0.09753153, 0.2098976, -457031.4, 76076.56, 0.0, 10.000475, 9.9999075 
1.3450281e+3, 2.5560313e+2, -294829.28, -377281.88, -40011.9, 0.14984384, 0.14604539, -278605.1, 156504.25, 0.0, 10.0010195, 9.999929 
1.3450128e+3, 2.6560262e+2, -225187.23, -441334.94, 13671.799, 0.15292642, 0.17740087, -224325.9, 112787.195, 0.000000062099474, 10.001461, 9.998602 
1.3449977e+3, 2.756019e+2, -60938.047, -309820.7, -24461.674, 0.110936545, 0.22054255, -58556.594, 180564.11, 0.0000065347235, 10.001903, 9.99862 
1.3449825e+3, 2.8560004e+2, -65622.32, -417534.97, -36802.184, 0.090370305, 0.24954696, -61814.836, 79325.99, 0.00008965579, 10.0018635, 9.997229 
1.3449673e+3, 2.955973e+2, -13063.6045, -316325.4, -22777.445, 0.09476926, 0.22286695, -11362.375, 31807.46, 0.0004062936, 10.00144, 9.997452 
1.3449506e+3, 3.0559498e+2, 29073.611, -116399.29, -9534.627, -0.056849428, 0.17295505, 29695.871, 29695.871, 0.0010727071, 10.000739, 9.998838 
1.3449371e+3, 3.1559584e+2, -33691.73, -29555.559, -83540.63, 0.089369, 0.3426993, 51942.58, 51942.58, 0.0020364497, 9.999771, 9.999895 
1.3552184e+3, 1.2561567e+2, -1687980.4, -1561360.4, -115.94875, 0.07206662, 0.15777518, -1561360.3, 147625.1, 0.0072628423, 9.999534, 10.001279 
1.355205e+3, 1.3561614e+2, -1678059.3, -1567437.8, 51941.375, 0.029920336, 0.12589127, -1546872.4, 64105.887, 0.004152666, 9.99925, 10.000685 
1.355192e+3, 1.4561704e+2, -1706239.1, -1634806.3, -46832.39, 0.06508808, 0.1987692, -1611625.0, -98652.266, 0.0016872559, 9.998805, 9.999766 
1.3551772e+3, 1.556182e+2, -1631411.6, -1525963.4, -73682.305, 0.10221784, 0.3155236, -1488084.4, -73115.29, 0.0003769789, 9.998552, 9.999961 
1.3551629e+3, 1.6561909e+2, -1415057.3, -1180343.5, 4936.339, 0.09157669, 0.3209015, -1180239.8, 136720.05, 0.000023370363, 9.998535, 10.001676 
1.3551484e+3, 1.7561968e+2, -1306472.3, -1085022.5, 69173.07, -0.005011479, 0.18945548, -1065191.3, 153755.52, 0.0000000068048798, 9.998648, 10.0016 
1.3551341e+3, 1.8561995e+2, -1318357.1, -1297970.5, 32116.383, -0.038436342, 0.18594019, -1274468.6, -153525.16, 0.0, 9.999002, 9.99929 
1.35512e+3, 1.9561984e+2, -1125746.4, -1140645.5, 11638.35, 0.002595078, 0.22026284, -1119377.6, -96428.21, 0.0, 9.999588, 9.999417 
1.3551043e+3, 2.0561996e+2, -1066294.0, -1011011.94, -115779.12, 0.035572335, 0.27328646, -919620.06, 5329.014, 0.0, 9.999118, 9.999857 
1.3550875e+3, 2.1562025e+2, -1146932.6, -985372.06, -121914.01, 0.06049083, 0.29091436, -919904.3, -92960.01, 0.0, 9.997837, 9.999973 
1.3550727e+3, 2.2561973e+2, -1034686.7, -904039.75, 16653.736, 0.10656136, 0.25626105, -901950.3, -173001.64, 0.0, 9.998031, 9.999775 
1.35506e+3, 2.3561846e+2, -721303.3, -689045.4, 61257.4, 0.16943772, 0.12678967, -641829.2, -10867.777, 0.0, 9.999455, 9.999887 
1.3550453e+3, 2.4561849e+2, -495275.63, -539427.75, -18525.55, 0.16587807, 0.15196522, -488532.44, 44427.617, 0.0, 10.000373, 9.999803 
1.3550287e+3, 2.556195e+2, -318202.72, -404530.16, -10005.075, 0.104375705, 0.24778298, -317058.34, 117890.21, 0.0, 10.000929, 9.999786 
1.3550133e+3, 2.6561847e+2, -284263.8, -551491.56, 21512.756, 0.028231576, 0.2739117, -282543.03, 54416.258, 0.000000036385206, 10.001402, 9.997878 
1.3549982e+3, 2.756157e+2, -121647.055, -411590.6, 800.151, -0.05031788, 0.18324691, -121644.84, 117344.445, 0.0000068750182, 10.001798, 9.997974 
1.3549842e+3, 2.8561437e+2, -31297.016, -326732.78, -59926.832, 0.048358183, 0.26235244, -19604.113, 121399.84, 0.000091050126, 10.0017805, 9.99789 
1.3549706e+3, 2.9561418e+2, 10781.044, -246442.63, -26723.182, 0.28012073, 0.42595264, 13528.002, 56534.563, 0.0004082825, 10.001349, 9.997979 
1.3549523e+3, 3.0561024e+2, -47345.07, -247105.05, -55345.406, 0.010264323, 0.23899995, -33036.066, -33036.066, 0.001072397, 10.000634, 9.997983 
1.3549337e+3, 3.1560624e+2, -96794.53, -99405.59, -73019.65, -0.24793778, 0.005579642, -25068.74, -25068.74, 0.0020302255, 9.99953, 9.999522 
1.3652174e+3, 1.2562951e+2, -1611636.0, -1556572.5, 50369.137, -0.0055281026, 0.21994977, -1526701.8, 182151.11, 0.0076198755, 10.000185, 10.000999 
1.3652042e+3, 1.356293e+2, -1791404.5, -1661318.8, -55411.938, 0.04237632, 0.15344638, -1640915.4, -30061.473, 0.004366158, 9.9986105, 10.000359 
1.3651904e+3, 1.4563034e+2, -1800895.1, -1604189.9, -75274.586, 0.07812147, 0.22120583, -1578689.8, -65843.51, 0.0017823466, 9.99783, 10.000445 
1.3651758e+3, 1.5563242e+2, -1633244.3, -1452746.8, -23350.11, 0.1255794, 0.36000398, -1449775.0, -34943.57, 0.0004035849, 9.998227, 10.000618 
1.3651614e+3, 1.656334e+2, -1439886.5, -1176697.3, 50902.266, 0.1152761, 0.33713436, -1167195.5, 149624.19, 0.000026350568, 9.998301, 10.001806 
1.3651468e+3, 1.7563352e+2, -1371626.5, -1097126.9, -2604.507, 0.0003882812, 0.14433451, -1097102.1, 121708.234, 0.000000016360648, 9.998125, 10.0017605 
1.3651326e+3, 1.8563421e+2, -1444908.1, -1331541.6, -16833.43, -0.022688042, 0.16070002, -1329094.9, -208291.27, 0.0, 9.998018, 9.999536 
1.3651192e+3, 1.9563523e+2, -1340390.9, -1213484.8, 10968.764, 0.050157677, 0.28161338, -1212543.6, -189743.39, 0.0, 9.997995, 9.99968 
1.365104e+3, 2.0563535e+2, -1089475.3, -1033657.3, -52621.984, 0.096917495, 0.32740778, -1002001.3, -77201.37, 0.0, 9.999007, 9.999759 
1.3650873e+3, 2.1563475e+2, -715611.7, -786983.6, -36706.39, 0.11696725, 0.26711637, -700103.44, 126699.375, 0.0, 10.000839, 9.999893 
1.3650724e+3, 2.2563432e+2, -628633.2, -663551.94, 87669.68, 0.14395575, 0.22567311, -556701.25, 172104.3, 0.0, 10.000631, 10.000163 
1.3650592e+3, 2.3563395e+2, -796087.2, -687404.6, 66046.93, 0.17622332, 0.14864941, -656217.1, -25408.102, 0.0, 9.998781, 10.00022 
1.3650447e+3, 2.4563418e+2, -747100.06, -695646.25, 14823.205, 0.15850578, 0.19243309, -691681.4, -158874.5, 0.0, 9.998793, 9.999491 
1.3650292e+3, 2.5563473e+2, -431425.72, -491592.75, -12208.44, 0.09176912, 0.27212784, -429042.88, 5758.891, 0.0, 10.000279, 9.999503 
1.3650139e+3, 2.6563355e+2, -396124.44, -580501.06, 28372.27, 0.00970668, 0.28604457, -391857.22, -55043.22, 0.000000033203506, 10.000532, 9.998097 
1.3649987e+3, 2.7563098e+2, -388900.88, -510769.63, 59463.082, -0.079376884, 0.19261988, -364695.03, -125854.3, 0.0000069323874, 9.999839, 9.998236 
1.3649848e+3, 2.8562978e+2, -276895.66, -409120.94, 48501.176, 0.043648668, 0.2568942, -261012.89, -120159.555, 0.00008927096, 9.999961, 9.998194 
1.3649723e+3, 2.956297e+2, -42209.84, -233246.67, 36284.133, 0.3337245, 0.3956654, -35550.438, 7304.663, 0.00039892914, 10.00084, 9.998305 
1.3649534e+3, 3.0562627e+2, -29863.85, -258292.42, 9109.819, 0.062086117, 0.25627896, -29501.123, -29501.123, 0.0010452198, 10.00082, 9.997826 
1.3649336e+3, 3.156225e+2, -22770.932, -46732.598, 23825.525, -0.22590293, 0.06370633, -8083.507, -8083.507, 0.0019747745, 9.999914, 9.999723 
1.375219e+3, 1.2564354e+2, -1716119.4, -1755692.3, 7360.219, 0.09611398, 0.2712327, -1714794.8, -6076.0693, 0.0079810945, 10.0001335, 9.999639 
1.3752034e+3, 1.3564318e+2, -1868698.6, -1826501.6, -111810.74, 0.105179265, 0.32928222, -1733816.3, -123088.05, 0.0045821774, 9.998634, 9.999213 
1.3751893e+3, 1.4564411e+2, -1661833.3, -1326258.5, -73347.266, 0.168123, 0.33514735, -1310927.3, 201791.66, 0.0018779465, 9.99787, 10.002338 
1.3751732e+3, 1.5564576e+2, -1514556.0, -1208999.5, -108.11018, 0.03502255, 0.2440595, -1208999.5, 205698.19, 0.00043006244, 9.998239, 10.002286 
1.3751587e+3, 1.6564696e+2, -1517306.1, -1345943.8, 32932.137, -0.0056584366, 0.22938634, -1339832.8, -23149.31, 0.000029160963, 9.998327, 10.000637 
1.375145e+3, 1.7564784e+2, -1439532.5, -1243722.4, -2398.7693, -0.0105552785, 0.22850485, -1243693.0, -25018.455, 0.000000027808229, 9.998136, 10.000757 
1.3751313e+3, 1.8564893e+2, -1364687.4, -1166505.6, -27865.295, 0.023668267, 0.2698644, -1162662.1, -41996.934, 0.0, 9.998026, 10.000665 
1.375118e+3, 1.9565e+2, -1271560.3, -1063297.0, 18414.21, 0.110828355, 0.28812104, -1061681.4, -39024.27, 0.0, 9.99796, 10.000731 
1.3751037e+3, 2.0564999e+2, -1069150.3, -975534.9, 7349.0474, 0.1576338, 0.2480047, -974961.44, -50306.32, 0.0, 9.9989395, 10.00019 
1.3750887e+3, 2.1564905e+2, -705615.56, -740536.56, 31751.582, 0.1757522, 0.11191804, -686840.3, 139818.58, 0.0, 10.000728, 10.000266 
1.375073e+3, 2.2564946e+2, -671000.0, -717917.44, 10733.326, 0.12575224, 0.15408717, -668661.1, 59993.1, 0.0, 10.000488, 9.999859 
1.3750565e+3, 2.3565087e+2, -834241.06, -740173.44, 12577.774, 0.025204744, 0.2833177, -738520.7, -107876.766, 0.0, 9.998672, 9.9999075 
1.375042e+3, 2.4565059e+2, -799984.0, -785021.7, 60246.758, 0.006687007, 0.3223415, -731793.4, -199144.06, 0.0, 9.998699, 9.998925 
1.3750292e+3, 2.5564888e+2, -476087.63, -561179.3, 46256.57, 0.05350246, 0.23317504, -455785.88, -21117.871, 0.0, 10.000177, 9.999077 
1.3750148e+3, 2.6564807e+2, -328671.97, -417780.84, -5470.0093, 0.030628666, 0.23697138, -328337.44, 8337.941, 0.000000022673568, 10.000437, 9.999259 
1.3749988e+3, 2.756477e+2, -331182.13, -362392.78, 45834.258, -0.046656195, 0.25096276, -298369.44, -59693.574, 0.000006624494, 9.999729, 9.999303 
1.3749847e+3, 2.856462e+2, -282583.4, -410387.3, 71742.6, 0.007522067, 0.23292144, -250410.08, -109719.85, 0.00008435929, 9.9999075, 9.998215 
1.3749717e+3, 2.9564384e+2, -55809.977, -231278.88, 79728.266, 0.17497234, 0.14266784, -24995.152, 17719.963, 0.00037578115, 10.000708, 9.998387 
1.3749538e+3, 3.056431e+2, -10128.807, -188447.36, -26749.018, 0.014000475, 0.23716757, -6202.711, -6202.711, 0.0009853418, 10.000702, 9.998357 
1.3749361e+3, 3.1564426e+2, -6500.768, 44182.367, 29461.785, 0.0051143686, 0.49113533, 57701.984, 57701.984, 0.0018645666, 9.999698, 10.000438 
1.3852195e+3, 1.2565812e+2, -1828771.8, -1789897.0, 41882.613, 0.18597966, 0.3221715, -1763161.1, -54582.98, 0.008351057, 9.999269, 9.999824 
1.3852024e+3, 1.3565756e+2, -1626414.4, -1669340.8, 24330.51, 0.06014764, 0.32567808, -1615433.1, -4844.5586, 0.004803759, 10.000118, 9.99958 
1.3851885e+3, 1.4565875e+2, -1405264.6, -1212020.3, 60388.13, 0.2154195, 0.34325892, -1194701.4, 317874.8, 0.0019753822, 9.999674, 10.002254 
1.3851716e+3, 1.5566039e+2, -1467959.4, -1199760.5, -23128.668, 0.029175589, 0.26229548, -1197780.6, 216773.94, 0.00045665295, 9.9986105, 10.002173 
1.385157e+3, 1.656615e+2, -1552780.5, -1371751.6, 22615.045, 0.00006702902, 0.2494434, -1368969.3, -52427.44, 0.00003186285, 9.998141, 10.000545 
1.385144e+3, 1.7566235e+2, -1432396.9, -1244491.3, 44951.137, 0.06969409, 0.25449944, -1234291.6, -15757.07, 0.000000039188958, 9.998221, 10.000704 
1.3851304e+3, 1.8566363e+2, -1295076.8, -1098929.8, 43000.01, 0.11034056, 0.29922333, -1089917.3, 30606.08, 0.0, 9.998357, 10.00097 
1.3851164e+3, 1.9566508e+2, -1147435.3, -965666.0, 19368.203, 0.13117437, 0.32301468, -963625.2, 58885.12, 0.0, 9.998656, 10.001061 
1.3851026e+3, 2.0566507e+2, -1081006.6, -966854.8, 17169.973, 0.15599486, 0.26059115, -964328.1, -39819.95, 0.0, 9.998794, 10.000317 
1.3850886e+3, 2.1566387e+2, -971871.44, -853751.3, -1473.7874, 0.18736255, 0.08324794, -853732.94, -27217.531, 0.0, 9.998828, 10.000405 
1.3850728e+3, 2.2566459e+2, -881800.75, -830132.6, -60730.29, 0.1316958, 0.15179831, -789969.94, -61461.305, 0.0, 9.999065, 9.999788 
1.3850555e+3, 2.3566666e+2, -710047.56, -688922.3, -53362.15, 0.0074678725, 0.3575018, -645087.44, -14594.951, 0.0, 9.99954, 9.999855 
1.3850412e+3, 2.4566646e+2, -645135.9, -673035.06, 104849.24, -0.0035543502, 0.39045322, -553312.4, -20815.645, 0.0, 9.999621, 9.999236 
1.3850291e+3, 2.5566447e+2, -554521.75, -560428.0, 131019.79, 0.06866256, 0.23979631, -426421.8, 8095.128, 0.0, 9.999493, 9.999397 
1.3850151e+3, 2.656638e+2, -389631.47, -422590.47, 61492.223, 0.057361834, 0.23023348, -342448.84, -5926.2817, 0.0000000049794013, 9.999915, 9.999475 
1.3849995e+3, 2.7566388e+2, -152811.48, -251798.36, 27990.008, -0.01877314, 0.26712707, -145445.1, 93073.88, 0.0000064646365, 10.0008335, 9.999533 
1.384985e+3, 2.8566262e+2, -133225.77, -283381.5, 56137.008, 0.007937478, 0.23965314, -114559.02, 25971.238, 0.00007935542, 10.000695, 9.998712 
1.3849713e+3, 2.9566038e+2, -151734.38, -218297.9, 76165.36, 0.11453082, 0.10986898, -101896.72, -59343.688, 0.00034767005, 9.999791, 9.998915 
1.3849546e+3, 3.0566058e+2, -97066.7, -236277.47, -13559.967, 0.047286432, 0.27581713, -95758.18, -95758.18, 0.0009104193, 10.000143, 9.99829 
1.3849388e+3, 3.1566182e+2, 241611.31, 148359.55, -17279.023, 0.22357988, 0.5421101, 244710.05, 244710.05, 0.0017264709, 10.001466, 10.000303 
1.3952182e+3, 1.2567288e+2, -1718458.3, -1551740.0, -33083.18, 0.10298804, 0.3386709, -1545415.0, 163020.03, 0.008733579, 9.999227, 10.001487 
1.3952005e+3, 1.356724e+2, -1508159.3, -1412229.1, 52105.438, -0.15666299, 0.15024248, -1389373.1, 221063.0, 0.005033633, 10.000071, 10.001371 
1.3951878e+3, 1.4567432e+2, -1539066.6, -1489524.5, 2152.7214, 0.1566899, 0.25518364, -1489431.1, 22986.709, 0.002076125, 9.999666, 10.000353 
1.3951702e+3, 1.5567636e+2, -1589233.9, -1454829.4, -51351.66, 0.022976046, 0.4085301, -1437455.4, -23054.025, 0.00048381835, 9.998623, 10.000417 
1.3951556e+3, 1.656771e+2, -1484315.4, -1243845.0, 16029.893, 0.040389843, 0.3932517, -1242781.1, 73612.586, 0.000034571214, 9.998194, 10.001402 
1.3951434e+3, 1.7567693e+2, -1381771.4, -1137231.5, 53621.855, 0.18159415, 0.21366152, -1125990.1, 92401.516, 0.00000005013657, 9.998207, 10.0014515 
1.3951296e+3, 1.8567824e+2, -1317856.9, -1149624.5, 41734.145, 0.16855708, 0.24827796, -1139840.4, -19461.563, 0.0, 9.998366, 10.000618 
1.3951144e+3, 1.9568047e+2, -1177295.8, -1021455.44, 36257.594, 0.04543381, 0.38627413, -1013432.8, 8926.601, 0.0, 9.998621, 10.0007 
1.3951002e+3, 2.0568062e+2, -1100569.4, -990943.4, 10051.497, 0.026081415, 0.36346677, -990029.4, -65670.695, 0.0, 9.998725, 10.000183 
1.3950865e+3, 2.1567917e+2, -997629.44, -881262.06, 6913.049, 0.08775264, 0.17735359, -880852.8, -54480.395, 0.0, 9.998721, 10.000266 
1.3950716e+3, 2.2567964e+2, -880160.0, -807984.2, -51780.71, 0.09077482, 0.21800955, -780956.5, -52587.57, 0.0, 9.998976, 9.999986 
1.3950555e+3, 2.3568146e+2, -706153.06, -657886.06, -28150.387, 0.057482973, 0.37546593, -644940.3, -14586.888, 0.0, 9.999438, 10.000118 
1.3950415e+3, 2.4568197e+2, -580250.44, -516238.06, 92137.27, 0.052084226, 0.4075422, -450706.2, 81640.9, 0.0, 9.999524, 10.0003605 
1.3950288e+3, 2.556814e+2, -503708.34, -428720.2, 137318.97, 0.06796917, 0.2855019, -323868.53, 110480.62, 0.0, 9.999386, 10.000352 
1.3950148e+3, 2.6568058e+2, -449360.84, -532160.44, 88279.15, 0.02226016, 0.26083016, -393256.03, -56899.25, 0.0000000011462398, 9.999846, 9.998756 
1.395e+3, 2.7567956e+2, -211767.9, -345693.1, 68797.74, -0.0627501, 0.25418973, -182724.69, 55644.484, 0.000006299897, 10.00071, 9.99895 
1.3949853e+3, 2.8567928e+2, -85133.52, -157031.81, 13739.22, -0.035467014, 0.30233762, -82597.516, 57773.918, 0.00007482128, 10.000583, 9.999632 
1.3949709e+3, 2.9567933e+2, -115063.11, -117279.305, 60180.637, 0.07457425, 0.3109918, -55980.367, -13611.431, 0.00032370954, 9.999689, 9.999657 
1.3949552e+3, 3.0567864e+2, -144882.67, -322378.7, 28926.838, 0.07897272, 0.38799003, -140287.38, -140287.38, 0.00084908167, 10.000082, 9.997728 
1.3949412e+3, 3.156752e+2, 136874.06, -12712.212, 67841.07, 0.29574585, 0.23889829, 163058.27, 163058.27, 0.0016133434, 10.001228, 9.99931 
1.4052184e+3, 1.2568836e+2, -1620566.4, -1495208.5, -31225.91, 0.17058095, 0.3153083, -1487861.0, 220421.02, 0.009133226, 9.999856, 10.001572 
1.4051993e+3, 1.3568911e+2, -1829332.5, -1522291.0, -2210.8887, -0.1454409, 0.2005488, -1522275.1, 87994.99, 0.005275387, 9.997672, 10.001768 
1.4051868e+3, 1.4569068e+2, -1836967.5, -1702546.9, 13331.435, 0.18362616, 0.28349024, -1701237.4, -188982.31, 0.0021822979, 9.997924, 9.999725 
1.4051703e+3, 1.5569109e+2, -1421496.0, -1444981.6, 26243.83, 0.09265298, 0.33955407, -1404487.6, 9767.646, 0.00051218417, 10.000082, 9.999778 
1.4051554e+3, 1.6569148e+2, -1234174.5, -1154572.6, 60329.813, 0.09630948, 0.33505976, -1122097.6, 194154.47, 0.000037386584, 10.0000515, 10.001115 
1.405142e+3, 1.7569184e+2, -1344468.1, -1143838.0, 3419.9915, 0.19740766, 0.23372726, -1143779.6, 74466.695, 0.00000006103049, 9.998564, 10.001232 
1.4051278e+3, 1.8569309e+2, -1328052.4, -1111262.4, 45161.863, 0.17571405, 0.24914964, -1102230.5, 18002.836, 0.0, 9.998115, 10.001001 
1.4051129e+3, 1.9569485e+2, -1164351.4, -972161.25, 76297.13, 0.05084444, 0.30210343, -945555.4, 76660.33, 0.0, 9.998527, 10.001081 
1.4050989e+3, 2.0569585e+2, -1087503.6, -993854.4, 86615.32, 0.021368816, 0.34751502, -942217.06, -18008.541, 0.0, 9.998851, 10.000108 
1.4050852e+3, 2.1569616e+2, -931718.44, -853044.3, 76129.71, 0.06572161, 0.34408692, -806689.25, 19520.701, 0.0, 9.999189, 10.000236 
1.4050706e+3, 2.2569631e+2, -830495.7, -757418.06, 38114.996, 0.08190045, 0.34385526, -741156.9, -12947.454, 0.0, 9.999232, 10.0001955 
1.405055e+3, 2.3569624e+2, -739758.4, -643358.4, 42569.44, 0.076481245, 0.291616, -627251.3, 2956.9924, 0.0, 9.999098, 10.00037 
1.405041e+3, 2.4569686e+2, -623184.94, -521605.34, 133839.31, 0.08655942, 0.31181234, -429242.9, 102957.12, 0.0, 9.99916, 10.000504 
1.4050284e+3, 2.556978e+2, -487443.03, -404992.7, 93040.11, 0.09894839, 0.33195826, -344453.53, 89734.21, 0.0, 9.999422, 10.000501 
1.4050144e+3, 2.6569727e+2, -575051.25, -594084.25, 57708.316, 0.046199974, 0.32885367, -526080.06, -189886.31, 0.0000000047036606, 9.998988, 9.998746 
1.4049993e+3, 2.756957e+2, -589644.44, -522987.06, 66119.88, -0.05117025, 0.2696225, -482270.9, -244058.23, 0.000006310048, 9.998096, 9.99899 
1.4049849e+3, 2.8569555e+2, -388323.13, -275281.8, 31070.09, -0.019499965, 0.31162462, -267304.9, -127090.76, 0.00007120588, 9.998392, 9.9998665 
1.4049709e+3, 2.956961e+2, -110141.64, -84629.22, 9633.351, 0.10818016, 0.3505884, -81400.37, -39194.547, 0.00031037428, 9.999604, 9.999916 
1.4049555e+3, 3.056957e+2, -150542.9, -240642.75, 34540.047, 0.14219663, 0.4033582, -138825.67, -138825.67, 0.0008184522, 9.999665, 9.998503 
1.4049417e+3, 3.1569198e+2, -190123.4, -133006.28, 145105.36, 0.3375127, 0.15029973, -13675.848, -13675.848, 0.0015564455, 9.998812, 9.99965 
1.4152183e+3, 1.2570442e+2, -1724760.5, -1701999.9, -225194.95, 0.12420776, 0.20950888, -1487897.9, 220223.19, 0.009556688, 9.999814, 10.000175 
1.4151989e+3, 1.357077e+2, -1893140.1, -1654799.8, -60385.074, 0.02217005, 0.4553287, -1640374.0, -30283.947, 0.0055341963, 9.997688, 10.000843 
1.415185e+3, 1.457078e+2, -1788419.9, -1622830.4, 85083.71, 0.18877898, 0.40473813, -1586906.1, -74818.15, 0.0022969088, 9.998005, 10.000238 
1.4151713e+3, 1.5570477e+2, -1398652.4, -1393935.8, 104502.9, 0.1689396, 0.07122843, -1291764.5, 122350.07, 0.0005425403, 10.000065, 10.000139 
1.4151557e+3, 1.6570492e+2, -1326233.5, -1342772.9, -8407.415, 0.100275755, 0.0960245, -1322710.3, -6595.426, 0.000040406845, 10.000038, 9.999831 
1.4151393e+3, 1.7570728e+2, -1427249.6, -1307023.1, -39315.867, 0.058549155, 0.32010227, -1295307.9, -77210.59, 0.00000007226826, 9.998528, 10.000131 
1.4151248e+3, 1.857083e+2, -1250652.0, -953118.0, 52493.695, 0.06200759, 0.3081584, -944128.2, 175957.5, 0.0, 9.998123, 10.002083 
1.4151119e+3, 1.9570832e+2, -1100534.8, -831370.7, 97347.49, 0.07781316, 0.078223385, -799853.75, 222225.1, 0.0, 9.998492, 10.002065 
1.4150985e+3, 2.0571072e+2, -1089648.4, -987725.8, 85609.18, 0.071052134, 0.21854837, -939057.9, -14999.799, 0.0, 9.998799, 10.000176 
1.4150845e+3, 2.157148e+2, -945055.4, -852607.1, 93396.79, 0.0620197, 0.5842565, -794621.7, 31406.533, 0.0, 9.999062, 10.000303 
1.4150694e+3, 2.2571453e+2, -834265.2, -735311.3, 22733.346, 0.037641812, 0.52708435, -730338.56, -2307.893, 0.0, 9.999103, 10.000409 
1.4150533e+3, 2.35711e+2, -750930.8, -636963.4, 46939.684, -0.0008764389, 0.10800258, -620119.75, 9937.694, 0.0, 9.998978, 10.000468 
1.4150397e+3, 2.457111e+2, -686754.75, -639768.94, 135614.11, 0.022271564, 0.11699427, -525627.94, 6427.092, 0.0, 9.999089, 9.999727 
1.415028e+3, 2.5571382e+2, -546826.1, -509276.28, 109012.77, 0.09588901, 0.38535008, -417433.47, 16598.654, 0.0, 9.999334, 9.999829 
1.4150138e+3, 2.65714e+2, -545004.6, -509159.16, 17006.127, 0.061572194, 0.44886634, -502374.94, -166342.52, 0.000000079284355, 9.998894, 9.999371 
1.4149976e+3, 2.757122e+2, -567451.4, -455043.72, 49586.227, -0.054652512, 0.30660716, -436296.47, -198245.75, 0.000007370017, 9.99801, 9.999495 
1.4149836e+3, 2.857112e+2, -418491.28, -332819.16, 70234.34, -0.022190824, 0.2662745, -293388.66, -153328.83, 0.00007169882, 9.998355, 9.999495 
1.4149708e+3, 2.9571062e+2, -140094.31, -128300.72, 65287.97, 0.13700762, 0.22419389, -68643.79, -26579.37, 0.00031191297, 9.999504, 9.999676 
1.4149554e+3, 3.057117e+2, -35125.816, 43825.305, -2756.0159, 0.14681451, 0.32671198, 43921.395, 43921.395, 0.00082090637, 9.999497, 10.000521 
1.4149393e+3, 3.157123e+2, -131201.63, 53026.195, 140142.39, 0.20292568, 0.30259192, 128616.97, 128616.97, 0.001557211, 9.998569, 10.001029 
1.4252174e+3, 1.2572183e+2, -1930135.8, -1898055.9, -152907.92, 0.121243685, 0.1386091, -1760348.9, -52405.35, 0.010011913, 9.998816, 9.99931 
1.4251994e+3, 1.3572378e+2, -1505518.6, -1574806.8, 11002.455, 0.15608835, 0.3535621, -1503813.5, 106113.36, 0.0058154534, 10.000818, 9.999886 
1.4251837e+3, 1.4572296e+2, -1434449.4, -1460247.8, 153433.08, 0.14040911, 0.2630972, -1293374.3, 218560.6, 0.002423067, 10.000495, 10.000148 
1.4251709e+3, 1.5572093e+2, -1622164.1, -1509869.6, 109969.82, 0.20616381, 0.034633458, -1442542.8, -28590.38, 0.00057589856, 9.998574, 10.000059 
1.4251551e+3, 1.6572136e+2, -1605338.3, -1492938.9, 33992.0, 0.15249255, 0.09737222, -1483458.6, -167507.86, 0.00004378684, 9.998178, 9.9997 
1.425138e+3, 1.757235e+2, -1363993.8, -1290617.8, 69351.33, 0.05757034, 0.31169814, -1248848.0, -30911.975, 0.00000008454083, 9.999021, 10.000005 
1.4251234e+3, 1.8572411e+2, -1156867.9, -955468.1, 159299.81, 0.053604435, 0.2878184, -867708.7, 252220.34, 0.0, 9.998982, 10.001648 
1.4251104e+3, 1.9572355e+2, -1142115.4, -894475.3, 79872.95, 0.09550424, 0.043496966, -870948.5, 150979.6, 0.0, 9.998395, 10.0016775 
1.425097e+3, 2.0572576e+2, -1175492.0, -987405.94, 58091.883, 0.108462766, 0.16261698, -970910.44, -47002.19, 0.0, 9.998036, 10.000543 
1.4250834e+3, 2.157299e+2, -1084795.8, -878885.44, 69754.41, 0.10821542, 0.49815053, -857480.44, -31604.754, 0.0, 9.997926, 10.000666 
1.4250685e+3, 2.2573002e+2, -915751.75, -773602.8, 31609.666, 0.060067423, 0.45976332, -766890.7, -39016.656, 0.0, 9.998533, 10.0004225 
1.4250524e+3, 2.3572707e+2, -639853.44, -584648.7, 23505.213, -0.034185506, 0.098434515, -575996.56, 53899.473, 0.0, 9.99973, 10.000472 
1.4250389e+3, 2.4572697e+2, -653353.6, -641586.25, 111173.945, 0.005120001, 0.097228765, -536140.44, -4244.481, 0.0, 9.999407, 9.999562 
1.4250271e+3, 2.5572893e+2, -739563.6, -612685.44, 109654.1, 0.14420116, 0.30647683, -549441.7, -115561.37, 0.00000000006254562, 9.998059, 9.999734 
1.425013e+3, 2.6572922e+2, -583341.8, -500932.75, 74767.98, 0.115298785, 0.37454128, -456767.13, -120887.984, 0.00000036239143, 9.998515, 9.999613 
1.424997e+3, 2.7572826e+2, -214050.5, -260209.27, 64738.69, -0.03716305, 0.28784618, -168400.3, 69488.99, 0.000010082052, 10.000325, 9.99972 
1.4249828e+3, 2.8572726e+2, -171318.94, -245037.16, 74387.23, -0.004425574, 0.2521998, -125159.66, 14739.745, 0.000078412035, 10.000185, 9.999222 
1.4249703e+3, 2.9572618e+2, -266678.13, -207394.81, 47585.94, 0.17624573, 0.18716347, -180973.56, -139062.72, 0.00032778483, 9.998716, 9.999512 
1.4249551e+3, 3.0572698e+2, -87307.16, 86316.47, -39497.195, 0.20217443, 0.23696585, 94879.28, 94879.28, 0.00085219153, 9.998827, 10.001144 
1.4249389e+3, 3.1572872e+2, 102413.52, 198281.14, -26036.484, 0.22773683, 0.2614482, 204895.92, 204895.92, 0.001610581, 10.000009, 10.001347 
1.4352156e+3, 1.257408e+2, -1936536.3, -1921263.3, -29300.012, 0.024994032, 0.111716226, -1898620.9, -190873.42, 0.010506618, 9.998853, 9.999128 
1.4352009e+3, 1.3573791e+2, -1586769.9, -1729519.3, 83454.9, 0.19709863, -0.06364475, -1548330.8, 61445.19, 0.006123269, 10.000763, 9.998841 
1.4351827e+3, 1.457366e+2, -1475883.8, -1554147.0, 69842.516, -0.036689546, -0.11333532, -1434957.5, 76834.4, 0.002563054, 10.000517, 9.9995 
1.435169e+3, 1.5573947e+2, -1654403.1, -1578536.1, 53942.563, 0.14307779, 0.20746925, -1550524.6, -136755.2, 0.0006133788, 9.998577, 9.999592 
1.4351538e+3, 1.6574068e+2, -1535953.5, -1354365.1, 56121.11, 0.17277002, 0.32007006, -1338420.6, -22660.18, 0.000047750204, 9.9981985, 10.000642 
1.4351378e+3, 1.7574047e+2, -1313330.6, -1186883.9, 103043.44, 0.118423745, 0.20713171, -1129214.1, 88549.23, 0.00000010052836, 9.9990225, 10.000717 
1.4351228e+3, 1.8574046e+2, -1286792.4, -1224564.4, 124714.1, 0.07752708, 0.18911241, -1127141.6, -7377.678, 0.0, 9.9989805, 9.999804 
1.4351085e+3, 1.9574054e+2, -1266395.3, -1140789.4, 66229.055, 0.038755875, 0.19181815, -1112320.8, -90557.27, 0.0, 9.998346, 10.000011 
1.4350949e+3, 2.05741e+2, -1136612.4, -897125.9, 44191.367, 0.05687872, 0.17707323, -889231.6, 34526.71, 0.0, 9.99799, 10.001186 
1.4350817e+3, 2.1574162e+2, -1062352.6, -807255.5, 76227.97, 0.130816, 0.09874576, -786212.94, 39537.715, 0.0, 9.997816, 10.001211 
1.4350672e+3, 2.2574285e+2, -945201.56, -806847.3, 67869.12, 0.07226635, 0.15679945, -779113.7, -51375.063, 0.0, 9.998414, 10.000252 
1.4350517e+3, 2.3574446e+2, -668220.75, -610924.2, 68600.33, -0.0867372, 0.26797625, -565230.5, 64493.402, 0.0, 9.999595, 10.000357 
1.435038e+3, 2.4574444e+2, -640741.44, -590606.8, 49403.83, -0.037245538, 0.25432658, -560274.6, -28551.547, 0.0, 9.999291, 9.999971 
1.4350256e+3, 2.557431e+2, -731006.25, -570837.1, 75104.555, 0.17239225, 0.095438845, -541129.94, -107396.74, 0.000000006122379, 9.997958, 10.000071 
1.4350118e+3, 2.6574305e+2, -592033.25, -508692.53, 135419.7, 0.14123239, 0.11799562, -408676.94, -72943.24, 0.0000008787704, 9.998462, 9.999591 
1.434997e+3, 2.7574393e+2, -228984.61, -273692.44, 135814.7, -0.07127866, 0.22222506, -113696.484, 124031.25, 0.000014138208, 10.000242, 9.999674 
1.4349827e+3, 2.8574374e+2, -203040.66, -290491.38, 9884.294, -0.050736155, 0.2780484, -201937.39, -62204.766, 0.00009033198, 10.000094, 9.998951 
1.4349689e+3, 2.957425e+2, -308802.9, -271687.4, 11145.234, 0.14346567, 0.22919545, -268597.84, -226850.42, 0.00035666508, 9.998616, 9.999118 
1.4349544e+3, 3.0574137e+2, -142126.83, -7542.206, -1684.234, 0.2300051, 0.13566487, -7521.1323, -7521.1323, 0.00091448583, 9.998749, 10.000535 
1.4349397e+3, 3.157413e+2, 24982.814, 86976.74, 43819.613, 0.2826447, 0.039718818, 109654.445, 109654.445, 0.0017228713, 9.999799, 10.000685 
1.4452152e+3, 1.2575752e+2, -1673596.9, -1735243.3, -16060.749, 0.02523692, 0.056364596, -1669663.5, 37916.098, 0.011047917, 10.000403, 9.999656 
1.4452007e+3, 1.3575444e+2, -1730651.8, -1824067.8, 21775.988, 0.18046689, -0.12884128, -1725825.0, -116215.11, 0.00646129, 9.999863, 9.9986315 
1.4451814e+3, 1.4575315e+2, -1652722.0, -1656711.1, 13855.809, -0.15369748, -0.15419643, -1640717.9, -129091.51, 0.0027186894, 9.999386, 9.999329 
1.4451675e+3, 1.5575625e+2, -1571764.0, -1547295.9, 13897.988, 0.10332238, 0.20163657, -1541014.4, -127411.76, 0.0006559602, 9.99919, 9.999502 
1.4451526e+3, 1.6575746e+2, -1409593.9, -1282918.3, 64885.008, 0.19540042, 0.31334996, -1255582.3, 60010.926, 0.000052490832, 9.9990425, 10.000716 
1.4451373e+3, 1.7575711e+2, -1298080.0, -1176023.0, 32229.752, 0.17075905, 0.17904392, -1168035.3, 49560.625, 0.00000012546444, 9.999121, 10.00074 
1.4451224e+3, 1.8575704e+2, -1314898.3, -1299183.4, 69966.4, 0.13242401, 0.18121898, -1236634.6, -117036.67, 0.0, 9.999037, 9.999269 
1.4451073e+3, 1.9575714e+2, -1226779.9, -1175067.3, 90466.4, 0.071629606, 0.23892304, -1106834.6, -85235.086, 0.0, 9.998847, 9.999533 
1.4450933e+3, 2.057568e+2, -1043405.4, -882361.25, 97427.766, 0.07711874, 0.18178616, -836487.2, 87114.29, 0.0, 9.998766, 10.000911 
1.44508e+3, 2.1575601e+2, -934955.44, -774087.4, 47567.332, 0.14113702, -0.012600067, -761074.7, 64530.105, 0.0, 9.9988165, 10.000956 
1.4450657e+3, 2.2575705e+2, -955485.6, -842531.6, 40406.4, 0.08635069, 0.053451646, -829565.6, -101970.695, 0.0, 9.998472, 9.999981 
1.4450507e+3, 2.3575939e+2, -933202.75, -761945.5, 17580.654, -0.062083673, 0.26169083, -760159.4, -130583.36, 0.0, 9.997868, 10.000152 
1.4450373e+3, 2.4575949e+2, -697042.94, -573990.25, 12620.349, -0.005208971, 0.2501367, -572709.25, -41136.35, 0.0, 9.998722, 10.000355 
1.4450252e+3, 2.557578e+2, -302292.4, -331113.8, 21019.236, 0.19926038, 0.019983169, -291218.28, 142364.5, 0.000000012932129, 10.000743, 10.000381 
1.4450115e+3, 2.657576e+2, -373067.16, -431785.94, 62159.133, 0.17773601, 0.02467459, -333682.6, 1901.9347, 0.0000016431604, 10.000093, 9.999326 
1.4449964e+3, 2.757585e+2, -632485.25, -487604.72, 23506.166, -0.011095853, 0.15278883, -483886.38, -246305.97, 0.00001933506, 9.997562, 9.999485 
1.4449821e+3, 2.857586e+2, -507476.34, -402000.25, -36378.066, 0.0021959045, 0.23090865, -390670.66, -251088.23, 0.000106984284, 9.99786, 9.999254 
1.4449684e+3, 2.9575795e+2, -57624.27, -122549.67, -1877.9061, 0.16848512, 0.20427209, -57570.0, -15979.076, 0.00040085675, 10.0002165, 9.999365 
1.4449541e+3, 3.057561e+2, 132317.84, 74323.516, 32696.252, 0.23660566, 0.057186875, 147022.86, 147022.86, 0.0010133042, 10.000849, 10.000094 
1.4449394e+3, 3.1575617e+2, 84047.84, 103938.086, 51237.684, 0.2574742, 0.015190606, 146186.89, 146186.89, 0.0019009939, 10.000263, 10.000573 
1.455217e+3, 1.2577301e+2, -1606197.8, -1581882.1, 88194.88, 0.12958492, 0.03913853, -1505011.0, 202418.48, 0.011640448, 10.000359, 10.000734 
1.4551994e+3, 1.3577324e+2, -1699517.6, -1741225.9, 3196.1667, 0.041744296, 0.120766476, -1699274.1, -89844.69, 0.0068325973, 9.999784, 9.999239 
1.4551798e+3, 1.4577252e+2, -1643132.6, -1628441.0, -4535.6323, -0.290923, 0.11745074, -1627153.5, -115715.234, 0.0028915813, 9.999348, 9.999541 
1.4551657e+3, 1.5577148e+2, -1561806.4, -1520815.3, 11690.87, 0.008180012, 0.030636685, -1517715.4, -104265.04, 0.00070428615, 9.999169, 9.99969 
1.4551514e+3, 1.6577196e+2, -1451298.0, -1381188.9, 54952.434, 0.14406851, 0.09672964, -1351062.3, -35615.176, 0.000058062662, 9.999084, 10.000025 
1.4551365e+3, 1.7577349e+2, -1341978.5, -1263946.1, 43345.84, 0.15772328, 0.22050852, -1244643.1, -27210.105, 0.00000016567238, 9.999105, 10.000146 
1.4551216e+3, 1.8577388e+2, -1266172.9, -1196270.0, 53738.44, 0.14750971, 0.26003215, -1167116.6, -47686.563, 0.0, 9.999028, 9.999978 
1.4551069e+3, 1.9577342e+2, -1195816.3, -1100819.1, 89588.62, 0.12166809, 0.19302869, -1046916.3, -25480.55, 0.0, 9.998801, 10.000068 
1.4550924e+3, 2.0577313e+2, -1136130.6, -1055084.3, 90003.57, 0.09283869, 0.17905647, -996901.94, -73463.42, 0.0, 9.998685, 9.999762 
1.4550784e+3, 2.1577288e+2, -1026639.2, -937569.6, 54698.098, 0.07197831, 0.15254825, -911569.1, -86129.48, 0.0, 9.998704, 9.999886 
1.4550638e+3, 2.2577251e+2, -990137.3, -889780.25, 8951.552, 0.028507471, 0.1409462, -888988.0, -161544.23, 0.0, 9.998366, 9.999705 
1.4550489e+3, 2.3577201e+2, -973283.94, -809436.56, 11526.65, -0.030491386, 0.09526687, -808629.6, -179178.95, 0.0, 9.997725, 9.999891 
1.4550364e+3, 2.4577232e+2, -681526.94, -527953.5, 81764.01, 0.022190655, 0.09673096, -492572.7, 38871.527, 0.0, 9.998648, 10.000712 
1.4550257e+3, 2.5577316e+2, -293108.6, -292720.53, 93081.58, 0.1560355, 0.08124228, -199832.78, 233595.77, 0.000000017460069, 10.000657, 10.000688 
1.4550115e+3, 2.657729e+2, -424918.88, -518920.72, -41539.363, 0.15342537, 0.09668683, -409193.38, -73761.96, 0.000002726617, 10.0, 9.9987755 
1.4549948e+3, 2.7577183e+2, -681037.9, -558083.44, -49264.863, 0.06020186, 0.08039807, -540779.44, -303331.0, 0.0000251694, 9.99744, 9.999056 
1.4549811e+3, 2.8577182e+2, -447742.97, -260671.38, 46118.29, 0.082813494, 0.114571355, -249919.88, -110470.19, 0.00012713004, 9.997775, 10.000273 
1.454969e+3, 2.9577252e+2, -3864.0247, 7500.4126, 89993.08, 0.18075821, 0.12280504, 91990.484, 133430.97, 0.00045719108, 10.00013, 10.000307 
1.4549543e+3, 3.057714e+2, 91091.555, 19387.395, 2675.6694, 0.14767744, 0.021300808, 91191.26, 91191.26, 0.0011417216, 10.000722, 9.999773 
1.4549373e+3, 3.1577337e+2, 63332.695, 116640.16, 47099.277, 0.0019250367, 0.19846034, 144104.47, 144104.47, 0.0021348668, 10.000038, 10.000761 
1.4652167e+3, 1.2578736e+2, -1978711.4, -1740715.9, 71016.91, 0.20948662, 0.056340978, -1721135.6, -13844.733, 0.012283002, 9.997701, 10.000919 
1.4651978e+3, 1.3578902e+2, -1957483.9, -1809895.1, -140920.2, -0.00056530384, 0.2350344, -1724616.9, -115337.69, 0.00723705, 9.997773, 9.99974 
1.4651793e+3, 1.4578931e+2, -1766481.1, -1649064.0, -82565.195, -0.2015099, 0.28606293, -1606462.6, -95185.17, 0.0030819494, 9.9983225, 9.999901 
1.4651655e+3, 1.5578672e+2, -1461908.0, -1439113.5, -80026.47, 0.02750711, 0.010125676, -1369676.8, 43624.285, 0.0007585455, 9.999688, 10.000012 
1.4651506e+3, 1.6578655e+2, -1384572.6, -1370353.0, -34450.48, 0.1282269, 0.0049183005, -1342286.4, -26984.02, 0.00006440502, 9.999631, 9.999838 
1.465135e+3, 1.757881e+2, -1411339.0, -1314167.8, -27829.705, 0.12812978, 0.15014663, -1306761.8, -89474.42, 0.00000022299002, 9.998698, 9.999999 
1.46512e+3, 1.8578866e+2, -1381468.4, -1224996.3, 4314.9946, 0.13467494, 0.20072596, -1224877.4, -105595.06, 0.0, 9.998139, 10.000201 
1.4651054e+3, 1.9578843e+2, -1299661.3, -1125637.3, -8441.952, 0.14489026, 0.12959626, -1125228.8, -103943.33, 0.0, 9.997986, 10.000281 
1.4650911e+3, 2.0578839e+2, -1232942.0, -1128194.0, 50118.613, 0.12741983, 0.14284162, -1108077.3, -184791.22, 0.0, 9.998128, 9.999534 
1.4650771e+3, 2.157885e+2, -1059419.4, -974560.1, 68593.016, 0.09304423, 0.17356506, -936334.44, -111049.33, 0.0, 9.9985695, 9.9997 
1.4650628e+3, 2.2578786e+2, -854385.9, -828050.06, 73198.3, 0.045427885, 0.14545509, -766844.7, -39553.48, 0.0, 9.999324, 9.999671 
1.465048e+3, 2.3578651e+2, -593020.9, -634345.5, 78772.234, -0.010496104, 0.02057465, -532246.1, 97057.7, 0.0, 10.000364, 9.9998255 
1.4650357e+3, 2.4578652e+2, -539235.25, -519483.03, 137274.81, 0.022206292, 0.02676036, -391729.5, 139571.8, 0.0, 9.999903, 10.000158 
1.4650247e+3, 2.557875e+2, -644791.8, -515019.47, 58626.39, 0.11353947, 0.0831918, -492456.97, -59169.156, 0.000000044837254, 9.998482, 10.000201 
1.4650108e+3, 2.657871e+2, -594677.3, -587324.9, -89135.305, 0.15060084, 0.10112259, -501790.0, -166497.94, 0.0000038968087, 9.998788, 9.998884 
1.4649947e+3, 2.7578568e+2, -248648.48, -343417.97, -56719.4, 0.14617693, 0.03921704, -222125.14, 15184.956, 0.000030512307, 10.000375, 9.999121 
1.4649807e+3, 2.8578547e+2, -80927.06, -103909.19, 63757.777, 0.15085138, 0.05914197, -27633.105, 111679.49, 0.00014596309, 10.000383, 10.000093 
1.4649683e+3, 2.957862e+2, -137063.17, -78195.81, -16200.022, 0.15185386, 0.09421672, -74032.14, -32729.074, 0.0005129789, 9.999317, 10.000107 
1.4649539e+3, 3.0578488e+2, -120064.41, -159398.28, -151337.28, 0.10626606, 0.0140274335, 12878.49, 12878.49, 0.0012767037, 9.999602, 9.999075 
1.4649379e+3, 3.1578645e+2, 160812.86, 142820.48, -165174.23, 0.025242895, 0.22516872, 317235.72, 317235.72, 0.002388808, 10.000759, 10.000608 
1.4752147e+3, 1.2579985e+2, -2029375.4, -1840821.6, 58699.074, 0.16966578, 0.041082714, -1824041.3, -116870.336, 0.012969953, 9.997696, 10.000223 
1.4751951e+3, 1.3580208e+2, -1922554.0, -1735502.8, -134648.1, -0.06211916, 0.23442693, -1665085.9, -55929.348, 0.0076708426, 9.997773, 10.000244 
1.4751802e+3, 1.4580368e+2, -1714761.1, -1559248.3, -45559.72, 0.01688433, 0.35709548, -1546884.0, -35742.34, 0.0032881629, 9.998386, 10.000492 
1.475166e+3, 1.558022e+2, -1440852.6, -1375918.5, -26570.762, 0.09440356, 0.140883, -1366431.9, 46720.62, 0.00081847684, 9.999607, 10.000484 
1.4751498e+3, 1.6580139e+2, -1367854.8, -1337714.3, -80028.45, 0.070753865, 0.04097686, -1271349.5, 43807.83, 0.000071419374, 9.999629, 10.000065 
1.4751327e+3, 1.7580116e+2, -1398715.9, -1284858.8, -53971.33, 0.008455497, -0.017687984, -1263341.4, -46184.266, 0.0000002932695, 9.998685, 10.000206 
1.4751174e+3, 1.8580152e+2, -1389368.0, -1252619.9, -10698.307, 0.02085598, 0.013047153, -1251788.0, -132634.73, 0.0, 9.9981785, 9.999997 
1.4751029e+3, 1.9580214e+2, -1314051.1, -1148886.0, -5369.1323, 0.07773642, 0.049857665, -1148711.8, -127563.45, 0.0, 9.997953, 10.000143 
1.4750892e+3, 2.0580262e+2, -1188890.9, -1025284.94, 55228.355, 0.10803036, 0.08065942, -1008386.9, -85243.04, 0.0, 9.998077, 10.000262 
1.4750762e+3, 2.1580297e+2, -1032052.94, -889952.8, 91709.63, 0.13011207, 0.064080544, -844990.94, -19850.72, 0.0, 9.998455, 10.000334 
1.4750624e+3, 2.2580308e+2, -858140.5, -811977.56, 103021.83, 0.06584649, 0.07534711, -729483.2, -2346.1892, 0.0, 9.999213, 9.999838 
1.4750479e+3, 2.3580292e+2, -603761.94, -633033.6, 118797.305, -0.06989537, 0.04979537, -498702.3, 130432.664, 0.0, 10.000261, 9.9998865 
1.4750347e+3, 2.4580213e+2, -653835.5, -741629.7, 73690.18, -0.08389768, 0.053791087, -611958.44, -80814.84, 0.0, 9.999827, 9.9986725 
1.4750223e+3, 2.5580084e+2, -753147.44, -715357.6, 22169.78, 0.0033068946, 0.030350536, -705123.25, -271962.47, 0.000000082863835, 9.998377, 9.998878 
1.4750092e+3, 2.6580027e+2, -552775.5, -480884.63, -34173.582, 0.09077816, 0.046604585, -467232.6, -132066.17, 0.0000048986644, 9.9987, 9.999657 
1.4749953e+3, 2.7580008e+2, -221117.5, -262285.5, 7590.9883, 0.17235276, 0.03225652, -219762.4, 17402.3, 0.00003489618, 10.000275, 9.999722 
1.474981e+3, 2.8579953e+2, -204190.3, -342806.38, 13074.128, 0.12538053, 0.076820366, -202967.94, -63797.543, 0.0001611451, 10.000298, 9.998498 
1.4749663e+3, 2.9579878e+2, -261303.16, -309396.34, -40198.832, -0.011957116, 0.11571752, -238507.63, -197326.75, 0.0005625148, 9.999204, 9.99857 
1.4749528e+3, 3.057962e+2, -211098.2, -318083.6, -112456.8, 0.026043251, 0.03674255, -140059.78, -140059.78, 0.0014021061, 9.999475, 9.998045 
1.4749406e+3, 3.1579512e+2, 98364.89, 77109.41, -102801.445, 0.19047984, 0.076939486, 191086.48, 191086.48, 0.0026234915, 10.000505, 10.000266 
1.4852118e+3, 1.2581402e+2, -2061780.5, -1863026.3, 137249.36, 0.15211388, 0.089382514, -1792953.6, -85920.67, 0.013700781, 9.997491, 10.000183 
1.4851929e+3, 1.3581495e+2, -1648047.5, -1542322.9, -27588.355, -0.12745646, 0.10446027, -1535556.8, 73471.93, 0.00813248, 9.999369, 10.000818 
1.4851803e+3, 1.4581688e+2, -1600604.1, -1467666.6, 26925.943, 0.16616558, 0.21460041, -1462420.0, 48590.617, 0.0035089266, 9.999037, 10.000798 
1.485165e+3, 1.5581743e+2, -1724566.4, -1476284.9, 13857.584, 0.16068101, 0.16981663, -1475513.9, -62510.8, 0.0008836724, 9.997514, 10.000797 
1.4851484e+3, 1.6581728e+2, -1633860.3, -1448848.4, -6626.307, 0.069837116, 0.11283108, -1448611.4, -133609.48, 0.00007901186, 9.997754, 10.000196 
1.4851312e+3, 1.7581657e+2, -1277781.1, -1211584.9, -9698.188, -0.038011044, -0.006293377, -1210193.3, 6812.507, 0.00000037325287, 9.999461, 10.00033 
1.4851159e+3, 1.8581651e+2, -1200509.1, -1187227.1, 14968.056, -0.0034726965, -0.010440322, -1177493.0, -58487.313, 0.0, 9.999585, 9.999772 
1.4851014e+3, 1.9581687e+2, -1208845.1, -1116813.0, 6327.009, 0.10776551, 0.02264239, -1116380.1, -95377.13, 0.0, 9.998757, 9.999977 
1.4850877e+3, 2.0581731e+2, -1099113.6, -983055.2, 85444.22, 0.13555197, 0.056924034, -937797.9, -14799.042, 0.0, 9.998705, 10.000247 
1.4850748e+3, 2.1581769e+2, -916418.9, -835045.8, 53727.805, 0.11424108, 0.04683424, -808337.44, 16656.986, 0.0, 9.999248, 10.000329 
1.4850618e+3, 2.258178e+2, -863456.0, -825187.4, 46192.01, 0.08124899, 0.06201491, -794323.44, -67332.37, 0.0, 9.999223, 9.999737 
1.4850485e+3, 2.358177e+2, -812839.9, -744554.2, 18348.326, 0.023683501, 0.050906144, -739936.3, -110947.82, 0.0, 9.998875, 9.999784 
1.4850348e+3, 2.4581689e+2, -792079.8, -839689.4, 754.1905, -0.006213275, 0.07006278, -792067.9, -261069.42, 0.0, 9.999004, 9.9984045 
1.485021e+3, 2.5581545e+2, -604798.1, -668099.25, 30660.846, -0.010222627, 0.06110866, -592382.3, -159363.77, 0.00000011463164, 9.99949, 9.998672 
1.485008e+3, 2.6581472e+2, -394323.94, -375103.38, 50034.586, 0.0646622, 0.059348848, -333764.5, 1259.8119, 0.000005857849, 9.999667, 9.999918 
1.4849955e+3, 2.7581444e+2, -287745.75, -277249.0, 26019.588, 0.18936624, 0.011503865, -255953.73, -18933.412, 0.0000392753, 9.999739, 9.999884 
1.4849815e+3, 2.8581342e+2, -271336.94, -450647.6, 35096.08, 0.14302504, 0.04027406, -264712.38, -125682.03, 0.0001765315, 10.000185, 9.997799 
1.4849661e+3, 2.958119e+2, -59049.832, -289426.1, 29650.777, -0.030088166, 0.07663011, -55294.81, -14244.346, 0.00061170605, 10.000924, 9.997881 
1.4849527e+3, 3.0580932e+2, -8985.935, -243810.44, 56756.34, 0.0058610276, 0.04338258, 4012.392, 4012.392, 0.0015158497, 10.0009575, 9.997847 
1.4849412e+3, 3.158072e+2, 97439.164, 85851.58, 81149.734, 0.21474865, -0.0016873656, 173001.67, 173001.67, 0.0028185756, 10.000455, 10.000353 
1.4952077e+3, 1.258298e+2, -1985300.6, -1729670.3, 49539.13, -0.06926249, 0.19247049, -1720405.8, -13528.021, 0.014485426, 9.997591, 10.001052 
1.495191e+3, 1.3582817e+2, -1622918.3, -1465051.8, 34916.207, -0.25971007, -0.1125795, -1457673.9, 151217.38, 0.008627366, 9.999277, 10.001388 
1.4951797e+3, 1.4582908e+2, -1593165.6, -1466778.5, -48322.426, 0.17650482, -0.12864509, -1450420.3, 60462.684, 0.0037456865, 9.999074, 10.000797 
1.4951625e+3, 1.5583256e+2, -1716708.8, -1465840.8, -28067.78, 0.13995497, 0.112857185, -1462738.8, -49887.016, 0.0009542572, 9.997537, 10.000862 
1.495146e+3, 1.6583428e+2, -1614128.4, -1430353.5, 45043.484, 0.033511017, 0.23496419, -1419907.1, -105071.85, 0.00008722728, 9.997845, 10.00028 
1.4951305e+3, 1.7583422e+2, -1285206.0, -1214337.4, 50079.24, -0.073040776, 0.17885314, -1188424.1, 28409.92, 0.0000004647829, 9.999413, 10.000332 
1.4951155e+3, 1.8583363e+2, -1212269.1, -1218755.3, -29100.0, -0.013427458, 0.13225685, -1186232.1, -67392.49, 0.0, 9.999605, 9.99955 
1.4951009e+3, 1.9583265e+2, -1232278.0, -1160403.3, -16006.995, 0.15186885, 0.05352408, -1156999.6, -136150.16, 0.0, 9.998732, 9.999692 
1.4950867e+3, 2.0583245e+2, -1152004.1, -1084502.5, 96269.33, 0.12992664, 0.075475, -1016239.06, -93388.016, 0.0, 9.998664, 9.99957 
1.4950728e+3, 2.1583273e+2, -976705.3, -935640.5, 77151.37, -0.014689599, 0.11571107, -876336.1, -51488.383, 0.0, 9.9991455, 9.999683 
1.4950605e+3, 2.258321e+2, -904557.94, -895036.4, 22314.186, 0.027117256, 0.11295527, -876980.75, -150128.05, 0.0, 9.9991455, 9.999301 
1.4950491e+3, 2.3583084e+2, -851700.06, -800398.75, 13953.705, 0.1977277, 0.0269589, -796849.06, -167984.7, 0.0, 9.998765, 9.999456 
1.4950357e+3, 2.4583071e+2, -741593.75, -709136.4, 11652.081, 0.17258361, 0.080031775, -705386.5, -174520.55, 0.0, 9.99889, 9.999356 
1.4950207e+3, 2.558313e+2, -561118.44, -553031.06, 56454.953, 0.0057590506, 0.17530522, -500475.2, -67613.69, 0.00000015644366, 9.999388, 9.999511 
1.4950073e+3, 2.6583058e+2, -432580.3, -434398.78, 44510.637, 0.0023267276, 0.1513138, -388969.63, -54103.996, 0.000006865855, 9.999577, 9.999555 
1.4949948e+3, 2.7582875e+2, -326464.9, -332726.94, 40630.184, 0.122245446, -0.013865947, -288845.25, -51968.47, 0.00004412312, 9.999636, 9.99955 
1.4949815e+3, 2.858271e+2, -275468.28, -440107.94, 56383.49, 0.11657808, -0.039159525, -258010.1, -119117.59, 0.0001927378, 10.0000925, 9.99792 
1.4949676e+3, 2.958256e+2, -63459.51, -272099.4, 69285.164, 0.014932868, -0.019157093, -42547.332, -1635.867, 0.00065815035, 10.000811, 9.9980545 
1.4949533e+3, 3.058244e+2, 7109.7505, -176656.95, 31672.695, -0.04715563, 0.049471464, 12415.441, 12415.441, 0.0016072446, 10.00082, 9.998368 
1.494939e+3, 3.1582254e+2, 94694.54, 129214.11, 93711.42, -0.07790253, -0.021413641, 207241.94, 207241.94, 0.0029540178, 10.000258, 10.000739 
1.5052067e+3, 1.2584521e+2, -1644295.3, -1578061.9, 64073.184, -0.044497307, 0.15482117, -1539053.1, 167674.47, 0.015336173, 10.0000105, 10.000924 
1.5051906e+3, 1.3584428e+2, -1779997.8, -1593907.3, 33607.31, -0.18984719, -0.04595281, -1588023.9, 20711.219, 0.0091627855, 9.99842, 10.000915 
1.5051784e+3, 1.4584465e+2, -1725091.6, -1545857.8, -77504.42, 0.18305214, -0.07966852, -1516992.0, -6259.6313, 0.0040015904, 9.998262, 10.000629 
1.5051608e+3, 1.5584771e+2, -1416268.8, -1328440.3, -89071.586, 0.10621639, 0.12900582, -1273045.9, 139659.56, 0.001031135, 9.999633, 10.000792 
1.5051447e+3, 1.6584936e+2, -1375780.8, -1309944.6, 8158.4355, 0.039316215, 0.24448952, -1308948.8, 5740.4297, 0.000096309515, 9.99945, 10.0003395 
1.5051302e+3, 1.7584948e+2, -1433604.5, -1281896.9, -3233.0186, 0.015882496, 0.19680317, -1281828.0, -65142.25, 0.000000575819, 9.99836, 10.000382 
1.5051152e+3, 1.8584889e+2, -1402383.8, -1330868.5, -67752.39, 0.06338358, 0.16036724, -1290016.8, -171325.69, 0.0, 9.998409, 9.999342 
1.5050997e+3, 1.9584791e+2, -1144974.6, -1137410.5, -67885.94, 0.14322367, 0.10028142, -1073201.4, -52500.082, 0.0, 9.999429, 9.9995 
1.5050858e+3, 2.0584737e+2, -999996.5, -1044292.1, 84474.63, 0.12510806, 0.11065795, -934814.5, -12108.804, 0.0, 9.999858, 9.999274 
1.5050729e+3, 2.15847e+2, -880396.6, -923605.94, 73735.06, 0.039449252, 0.12060294, -825166.25, -459.02768, 0.0, 9.999951, 9.999385 
1.5050606e+3, 2.2584593e+2, -807263.5, -879558.2, 35092.992, 0.0858138, 0.10212566, -793030.8, -66313.89, 0.0, 9.999971, 9.998999 
1.5050487e+3, 2.3584433e+2, -692635.2, -751231.9, 18596.559, 0.220097, 0.014724463, -687231.56, -58498.82, 0.0, 9.999982, 9.999203 
1.5050355e+3, 2.4584426e+2, -559588.44, -572776.8, 27749.3, 0.20517774, 0.060884796, -537660.56, -6927.887, 0.0, 9.9999485, 9.999771 
1.505021e+3, 2.5584525e+2, -458417.0, -466886.3, 8928.781, 0.075042486, 0.15424573, -452769.6, -20048.236, 0.00000020302433, 9.999945, 9.999825 
1.5050071e+3, 2.6584417e+2, -425892.47, -520393.4, -28745.162, 0.032542016, 0.12723939, -417835.72, -83105.88, 0.0000077496, 10.00001, 9.998753 
1.5049939e+3, 2.7584153e+2, -294601.72, -391358.75, -80244.2, 0.05552365, -0.04124879, -249280.63, -12527.206, 0.0000484326, 10.000163, 9.998897 
1.504981e+3, 2.8584015e+2, -232839.98, -321766.53, -25889.5, 0.074978486, -0.057037815, -225851.83, -87085.41, 0.00020691432, 9.999974, 9.998788 
1.5049686e+3, 2.9583973e+2, -177553.05, -230475.9, 11225.007, 0.0877199, -0.0131459115, -175270.64, -134499.3, 0.0006962151, 9.999624, 9.998904 
1.5049544e+3, 3.0583936e+2, -155882.08, -227260.27, -7054.4863, 0.033162374, 0.08230009, -155191.55, -155191.55, 0.001668208, 9.99955, 9.998653 
1.504939e+3, 3.1583667e+2, -26362.537, 52012.875, 12082.556, -0.061539937, -0.09155557, 53833.273, 53833.273, 0.0030196507, 9.999468, 10.000614 
1.5152076e+3, 1.2586167e+2, -1714694.5, -1736644.6, -62595.62, 0.0036431872, 0.0842146, -1662119.1, 44449.184, 0.016257107, 10.000047, 9.99982 
1.5151909e+3, 1.3586332e+2, -1893698.4, -1816615.5, -9559.639, -0.008901136, 0.28531626, -1815447.6, -206888.63, 0.009740974, 9.998381, 9.999398 
1.5151758e+3, 1.4586377e+2, -1743551.0, -1608840.1, -40400.926, 0.08169676, 0.3637036, -1597652.6, -87096.25, 0.0042781597, 9.998353, 10.000161 
1.5151593e+3, 1.5586305e+2, -1444478.9, -1371696.8, -37965.86, -0.010358022, 0.22898008, -1355497.8, 57064.375, 0.0011151112, 9.999576, 10.000516 
1.5151441e+3, 1.6586283e+2, -1360869.4, -1291670.5, -44642.242, 0.012502885, 0.16215096, -1269789.4, 44771.375, 0.000106548556, 9.99949, 10.00045 
1.5151301e+3, 1.7586258e+2, -1425964.0, -1267732.9, -31684.23, 0.1506432, 0.062309023, -1261624.3, -45066.008, 0.0000007145684, 9.998365, 10.000477 
1.5151148e+3, 1.8586257e+2, -1408680.6, -1357150.0, -38140.23, 0.14552078, 0.090075016, -1336887.9, -218330.38, 0.0, 9.998459, 9.999143 
1.5150982e+3, 1.9586276e+2, -1163360.8, -1166398.4, -26813.893, 0.020202927, 0.16713223, -1138022.8, -117465.22, 0.0, 9.9993925, 9.999319 
1.5150851e+3, 2.0586209e+2, -1003063.5, -1042265.5, 75940.51, 0.05385217, 0.1729974, -944235.2, -21672.973, 0.0, 9.999814, 9.999312 
1.5150747e+3, 2.158607e+2, -893504.7, -925038.4, 82143.875, 0.2075193, 0.0742646, -825628.2, -1056.688, 0.0, 9.99984, 9.999429 
1.5150617e+3, 2.2585943e+2, -839291.44, -916063.56, 26385.645, 0.18143241, 0.044709124, -831097.5, -104515.74, 0.0, 9.999839, 9.998816 
1.5150468e+3, 2.3585825e+2, -722110.1, -786470.4, 27578.244, 0.025017511, 0.017587727, -711909.56, -83316.305, 0.0, 9.999872, 9.999014 
1.5150337e+3, 2.4585757e+2, -586842.75, -609338.25, 17947.855, 0.022527628, 0.023319472, -576909.44, -46311.457, 0.0, 9.999852, 9.999573 
1.5150216e+3, 2.5585723e+2, -493035.13, -514677.94, 17345.313, 0.13192844, 0.005169766, -483412.4, -50814.266, 0.00000026346208, 9.999838, 9.999551 
1.5150078e+3, 2.658555e+2, -528091.44, -707146.94, -29597.115, 0.079770654, -0.008099614, -523326.0, -188708.56, 0.0000083363275, 9.999898, 9.997526 
1.5149929e+3, 2.7585274e+2, -381990.03, -542468.3, -64955.73, -0.08924852, -0.06809472, -358993.7, -122343.15, 0.000050839903, 10.000043, 9.997913 
1.5149799e+3, 2.858526e+2, -140276.05, -112260.91, -48163.17, -0.06727097, 0.0017493974, -76109.695, 62542.18, 0.00021853887, 9.999885, 10.000275 
1.5149686e+3, 2.958543e+2, -96502.2, -38246.176, 13373.497, 0.10368826, 0.10656306, -35322.8, 5307.434, 0.0007285583, 9.999517, 10.000275 
1.5149553e+3, 3.058541e+2, -178261.02, -228497.27, -17414.186, 0.1624108, 0.15638076, -172814.89, -172814.89, 0.0017078614, 9.999379, 9.998717 
1.5149407e+3, 3.1584954e+2, -108216.914, -39521.16, 34688.875, 0.11693533, -0.2170855, -25052.086, -25052.086, 0.0030333768, 9.999182, 10.000099 
1.5252069e+3, 1.2587848e+2, -1994216.4, -1900714.4, -91959.67, 0.03556843, 0.13197155, -1844304.1, -137899.11, 0.017244658, 9.998273, 9.99954 
1.5251906e+3, 1.3587978e+2, -1721600.6, -1762186.6, 1271.6294, 0.05477436, 0.31799692, -1721560.8, -113162.19, 0.010359608, 9.999671, 9.999155 
1.525174e+3, 1.4587992e+2, -1633571.9, -1595073.4, 56219.227, 0.017054772, 0.3967062, -1554899.3, -44500.35, 0.0045741852, 9.999295, 9.999796 
1.5251587e+3, 1.558785e+2, -1655186.9, -1517790.3, 40908.816, 0.04271853, 0.22439498, -1506532.4, -94121.3, 0.0012060112, 9.998306, 10.0001335 
1.5251438e+3, 1.6587754e+2, -1556093.3, -1443137.3, 19138.906, 0.09684484, 0.13248284, -1439982.6, -125565.27, 0.000118081814, 9.998433, 9.999908 
1.5251292e+3, 1.7587683e+2, -1278481.0, -1249041.3, -36371.703, 0.17788225, 0.044899944, -1224523.8, -8103.6387, 0.0000008766353, 9.999625, 9.999993 
1.525114e+3, 1.8587674e+2, -1162764.1, -1227271.4, -20114.68, 0.15799518, 0.08274635, -1157006.0, -38586.836, 0.0, 10.000098, 9.999246 
1.5250981e+3, 1.9587709e+2, -1040917.9, -1107136.0, -5232.3926, 0.040067155, 0.1675506, -1040507.0, -20091.363, 0.0, 10.000213, 9.999342 
1.5250854e+3, 2.0587601e+2, -956761.8, -1055822.9, 91367.21, 0.088233784, 0.14898896, -902363.3, 20060.672, 0.0, 10.000283, 9.998988 
1.5250751e+3, 2.1587388e+2, -836652.9, -930165.56, 53517.2, 0.25196898, 0.008368034, -812344.1, 12096.877, 0.0, 10.000362, 9.99914 
1.5250622e+3, 2.2587267e+2, -733513.6, -850038.25, 17024.883, 0.21844126, -0.0121960165, -731077.2, -4626.5845, 0.0, 10.000491, 9.998957 
1.5250473e+3, 2.3587207e+2, -602494.44, -718020.56, 25077.654, 0.03671795, 0.0065176804, -597285.6, 31169.605, 0.0, 10.000641, 9.999116 
1.5250337e+3, 2.4587116e+2, -560117.0, -631423.25, 17406.19, 0.024795832, 0.001851302, -556094.94, -25632.422, 0.0, 10.000199, 9.999244 
1.5250212e+3, 2.5586998e+2, -576366.44, -586159.75, -6914.152, 0.13107431, -0.067800306, -572790.6, -140318.52, 0.0000003530132, 9.999398, 9.999268 
1.525008e+3, 2.6586863e+2, -545121.6, -684798.44, 57836.684, 0.11470434, -0.04782032, -524282.13, -189793.19, 0.00000861748, 9.999653, 9.997797 
1.5249941e+3, 2.7586707e+2, -272141.88, -462759.25, 109912.54, 0.0035852238, -0.014144058, -221970.28, 14541.046, 0.000051572304, 10.000685, 9.99815 
1.5249807e+3, 2.8586686e+2, -55153.156, -88372.93, 74637.69, 0.00030071486, 0.048358142, 4700.4985, 143214.2, 0.00023012148, 10.000547, 10.00012 
1.5249677e+3, 2.9586762e+2, -87506.875, -52147.65, -6676.9297, 0.076642536, 0.07958222, -50928.848, -10427.268, 0.0007602401, 9.999641, 10.000132 
1.5249549e+3, 3.0586767e+2, -102207.31, -159974.02, -26145.307, 0.1652179, 0.14195716, -92131.39, -92131.39, 0.0017408301, 9.999755, 9.999012 
1.5249415e+3, 3.158646e+2, 63458.883, 12949.35, 7319.899, 0.23141709, -0.1036268, 64498.3, 64498.3, 0.003031587, 10.000451, 9.9998665 
1.5352048e+3, 1.2589534e+2, -1983113.1, -1876357.0, 28941.332, -0.04750338, 0.26005286, -1869015.9, -162775.3, 0.018294634, 9.998267, 9.999707 
1.5351892e+3, 1.3589424e+2, -1662927.6, -1614528.1, 40377.957, -0.069383755, 0.09740205, -1591653.4, 16596.184, 0.011016667, 9.999574, 10.000209 
1.5351725e+3, 1.4589375e+2, -1646410.8, -1636391.9, 1425.6416, -0.08919481, 0.0795114, -1636193.0, -125938.734, 0.0048880493, 9.999343, 9.999499 
1.5351586e+3, 1.5589432e+2, -1691986.6, -1578614.1, 15766.987, 0.18283238, 0.14146246, -1576462.1, -164212.17, 0.0013030368, 9.998255, 9.999739 
1.5351437e+3, 1.6589372e+2, -1635775.9, -1628463.3, 52291.07, 0.20822059, 0.17505482, -1579700.8, -265444.28, 0.00013086536, 9.998501, 9.998612 
1.5351278e+3, 1.7589232e+2, -1361056.4, -1416540.1, 12611.377, 0.04288847, 0.14607595, -1358324.4, -142053.9, 0.0000010420176, 9.999611, 9.99885 
1.535113e+3, 1.8589152e+2, -1131969.6, -1175358.6, -24430.059, 0.028657323, 0.14605163, -1120991.9, -2716.5503, 0.0, 10.000142, 9.999584 
1.5350993e+3, 1.9589102e+2, -1024345.75, -1068042.0, 5309.8594, 0.1290276, 0.10901531, -1023709.75, -3434.805, 0.0, 10.000192, 9.99962 
1.5350865e+3, 2.0588925e+2, -1016016.94, -1161697.9, 86038.58, 0.1471755, 0.04675284, -976126.0, -53836.137, 0.0, 10.000212, 9.998295 
1.5350743e+3, 2.1588658e+2, -896399.75, -1026259.9, 63982.637, 0.106351845, -0.077927224, -870172.3, -45856.746, 0.0, 10.000247, 9.998532 
1.5350619e+3, 2.2588561e+2, -720581.94, -795662.25, 14748.736, 0.12555893, -0.06831436, -717788.6, 8534.448, 0.0, 10.000363, 9.999396 
1.5350495e+3, 2.358858e+2, -588758.3, -668540.75, 36990.203, 0.19183719, -0.01949132, -574247.5, 54071.117, 0.0, 10.000545, 9.999505 
1.5350352e+3, 2.45885e+2, -615435.5, -713344.44, -20938.309, 0.1335797, -0.0048595387, -611145.7, -80819.125, 0.0, 10.000062, 9.998745 
1.5350194e+3, 2.558835e+2, -615695.75, -639291.6, -21959.955, -0.002289561, -0.058699235, -602565.2, -170221.92, 0.0000004707298, 9.999284, 9.998954 
1.5350072e+3, 2.658835e+2, -433999.9, -437075.28, 86423.55, 0.056656614, 0.019310823, -349100.38, -14756.181, 0.000008627056, 9.999569, 9.999544 
1.5349974e+3, 2.7588448e+2, -182886.28, -258081.25, 150680.56, 0.25543275, 0.13064305, -65183.41, 171151.77, 0.00005249674, 10.000602, 9.999598 
1.5349832e+3, 2.8588283e+2, -204860.72, -375438.97, 32121.904, 0.1876179, 0.08985697, -199012.3, -60659.887, 0.00024287593, 10.000436, 9.998208 
1.534966e+3, 2.9587954e+2, -223508.11, -308033.16, -21526.248, -0.07680671, -0.09989821, -218341.73, -177954.88, 0.0007925894, 9.999528, 9.998428 
1.5349525e+3, 3.0587992e+2, -90632.61, -97953.53, -8265.133, -0.04572476, 0.046733692, -85253.63, -85253.63, 0.0017781113, 9.999603, 9.999505 
1.5349412e+3, 3.1588203e+2, 35318.063, 31107.877, 64571.723, 0.1225805, 0.26455152, 97819.0, 97819.0, 0.003049598, 10.000156, 10.000117 
1.5452032e+3, 1.259089e+2, -1950066.6, -1729857.4, -27916.91, -0.017105263, 0.2517621, -1726373.4, -20263.195, 0.019406972, 9.997946, 10.000856 
1.5451875e+3, 1.3590872e+2, -1965291.1, -1634152.6, -102078.25, -0.04547088, 0.059650518, -1605214.4, 2890.5657, 0.0117135905, 9.996939, 10.001346 
1.5451714e+3, 1.4590813e+2, -1950176.3, -1790874.3, -90792.3, -0.013328999, -0.02073783, -1749746.4, -239636.64, 0.0052204016, 9.997296, 9.999427 
1.5451574e+3, 1.5590942e+2, -1551090.0, -1528718.1, -77528.836, 0.20535895, 0.12668495, -1461572.5, -49471.977, 0.0014059248, 9.99927, 9.999606 
1.5451428e+3, 1.6590898e+2, -1424378.6, -1531581.5, 40945.51, 0.20366618, 0.18441793, -1410528.9, -96423.42, 0.00014487762, 9.999979, 9.998556 
1.5451273e+3, 1.759073e+2, -1315521.3, -1409677.3, 71341.664, 0.036079176, 0.13034482, -1277124.3, -61003.324, 0.000001197513, 9.999967, 9.99873 
1.5451133e+3, 1.8590586e+2, -1179552.0, -1258034.4, 38852.438, 0.04103919, 0.10254866, -1163572.0, -45439.367, 0.0, 10.00009, 9.999036 
1.5450999e+3, 1.9590463e+2, -1012292.1, -1114504.8, -12208.557, 0.16097192, 0.04761793, -1010854.2, 9287.036, 0.0, 10.000513, 9.999142 
1.545087e+3, 2.0590308e+2, -977412.8, -1143022.9, 71057.766, 0.15630566, 0.028460948, -951103.75, -28948.234, 0.0, 10.000489, 9.998289 
1.545074e+3, 2.159013e+2, -913946.75, -1037475.3, 83727.33, 0.062178403, -0.003487196, -871667.3, -47493.566, 0.0, 10.00015, 9.998504 
1.5450619e+3, 2.2590028e+2, -785278.8, -843642.94, 52777.28, 0.1115488, 0.01084966, -754153.06, -27970.295, 0.0, 10.00001, 9.99923 
1.5450503e+3, 2.3589976e+2, -675266.56, -725001.56, 5110.087, 0.2532767, 0.007518743, -674746.94, -46561.473, 0.0, 10.000035, 9.999355 
1.5450358e+3, 2.4589896e+2, -572336.94, -697078.44, -44877.86, 0.20103331, 0.029986383, -557869.3, -27675.066, 0.000000000009610117, 10.000363, 9.998722 
1.5450196e+3, 2.558979e+2, -386389.03, -528381.1, -23953.934, 0.014184476, 0.026623886, -382456.94, 49750.453, 0.0000005675007, 10.000853, 9.99897 
1.5450074e+3, 2.658981e+2, -262926.7, -308672.94, 64667.19, 0.067239165, 0.09978665, -217206.63, 116998.875, 0.000008574752, 10.000558, 9.999946 
1.5449977e+3, 2.75899e+2, -280121.0, -270522.53, 4982.651, 0.276697, 0.1680659, -268403.72, -32209.252, 0.000054083346, 9.999779, 9.999913 
1.5449834e+3, 2.858974e+2, -314139.9, -437127.5, -73682.52, 0.20505325, 0.11958024, -279661.8, -141450.83, 0.00025576144, 9.9997425, 9.998103 
1.5449657e+3, 2.9589412e+2, -132446.94, -281145.38, -12556.026, -0.08539045, -0.05498709, -131394.17, -91147.8, 0.0008265112, 10.000234, 9.998266 
1.5449522e+3, 3.0589396e+2, 17642.996, -61420.418, 66967.766, -0.0671931, 0.053844605, 55876.563, 55876.563, 0.0018294866, 10.000396, 9.999383 
1.5449408e+3, 3.158966e+2, 33156.875, 3508.4788, 54217.434, 0.08057511, 0.3448223, 74540.21, 74540.21, 0.0031096644, 10.000215, 9.999917 
1.5552025e+3, 1.2591976e+2, -1784586.8, -1409727.6, -63195.598, 0.06596936, 0.15507711, -1399360.6, 306646.9, 0.020587768, 9.998014, 10.003068 
1.5551853e+3, 1.3592346e+2, -1885502.6, -1451560.6, -136028.61, 0.024054091, 0.21916996, -1412445.4, 195517.03, 0.012455585, 9.99687, 10.0026455 
1.5551707e+3, 1.4592302e+2, -1928644.3, -1760972.0, -30707.262, 0.14693607, 0.08080532, -1755525.3, -245559.64, 0.0055746003, 9.997344, 9.999613 
1.5551552e+3, 1.5592405e+2, -1541708.6, -1503179.8, 1117.3142, 0.038952, 0.190918, -1503147.4, -91187.664, 0.001515748, 9.999256, 9.999782 
1.555141e+3, 1.6592364e+2, -1337001.5, -1367819.4, 30500.252, 0.007630002, 0.18459986, -1318238.8, -4277.7437, 0.00016035176, 10.000042, 9.999656 
1.5551281e+3, 1.7592187e+2, -1257255.3, -1279755.3, 75377.26, 0.09695198, 0.012796976, -1192293.1, 23677.578, 0.0000013687348, 9.99993, 9.999639 
1.5551142e+3, 1.8591997e+2, -1276965.3, -1461829.5, 46197.56, 0.11894573, -0.028668394, -1266063.5, -148074.2, 0.0, 10.000094, 9.997635 
1.5550998e+3, 1.9591801e+2, -1107659.4, -1298777.4, 9623.723, 0.070737414, -0.015643759, -1107176.0, -87162.49, 0.0, 10.000459, 9.997901 
1.5550864e+3, 2.0591752e+2, -939723.56, -1055804.8, 51193.742, 0.046297204, 0.09544552, -920372.2, 1648.212, 0.0, 10.000438, 9.998919 
1.5550742e+3, 2.1591803e+2, -888145.3, -968907.06, 79829.71, 0.054402962, 0.22622061, -839064.5, -15048.607, 0.0, 10.000073, 9.999017 
1.5550618e+3, 2.2591664e+2, -861246.0, -976871.0, 46091.43, 0.092767626, 0.22553904, -845121.3, -119091.67, 0.0, 9.999902, 9.998368 
1.5550494e+3, 2.3591387e+2, -742091.3, -842897.5, 17499.746, 0.151555, 0.085483916, -739139.8, -111083.39, 0.0, 9.999942, 9.998592 
1.5550359e+3, 2.4591295e+2, -557626.94, -639124.7, -32173.648, 0.14790335, 0.105455875, -546456.5, -16390.412, 0.0, 10.000243, 9.999179 
1.5550216e+3, 2.5591323e+2, -377158.9, -486067.4, -355.70532, 0.11152703, 0.18565698, -377157.75, 54906.605, 0.0000005355393, 10.000753, 9.99931 
1.555008e+3, 2.6591232e+2, -351069.63, -468127.28, 30442.58, 0.058139972, 0.19014266, -343625.9, -9552.693, 0.000008556659, 10.000453, 9.998899 
1.5549949e+3, 2.759106e+2, -351328.13, -396473.0, -7717.188, -0.0016404898, 0.09613985, -350045.38, -113955.99, 0.00005618316, 9.999687, 9.999088 
1.554981e+3, 2.8591043e+2, -215196.1, -207616.2, -61160.65, -0.024280105, 0.14053611, -150128.19, -12038.324, 0.0002701419, 9.999636, 9.999733 
1.5549667e+3, 2.9591128e+2, -45314.152, -73504.25, 16943.043, -0.028606718, 0.215991, -37369.758, 2710.2354, 0.0008663048, 10.000123, 9.9997425 
1.5549535e+3, 3.0590978e+2, -76263.7, -206661.25, 54637.613, 0.0059296396, 0.17081568, -56396.918, -56396.918, 0.0019044692, 10.000205, 9.998468 
1.55494e+3, 3.1590816e+2, -52782.164, -95383.71, 75589.25, -0.047273602, 0.118199825, 4450.224, 4450.224, 0.003225979, 9.999914, 9.999362 
1.565201e+3, 1.2593311e+2, -1919588.4, -1517982.3, 76868.875, 0.17938814, 0.06835626, -1503772.0, 202102.06, 0.021849003, 9.997274, 10.002679 
1.565182e+3, 1.3593729e+2, -1810118.0, -1486990.3, -129970.766, -0.013164974, 0.25493228, -1441201.1, 166629.11, 0.013250772, 9.997663, 10.00204 
1.5651692e+3, 1.4593725e+2, -1741470.8, -1580171.5, 11624.6875, 0.21861547, 0.13946372, -1579338.0, -69508.46, 0.0059556314, 9.998269, 10.000397 
1.5651543e+3, 1.5593825e+2, -1536320.3, -1423177.3, 62234.69, 0.032565188, 0.17073935, -1395644.6, 16175.674, 0.0016345053, 9.998969, 10.000464 
1.5651402e+3, 1.659381e+2, -1446808.5, -1395277.9, 47907.727, -0.023476021, 0.14801408, -1366646.5, -52828.62, 0.00017771397, 9.999185, 9.999884 
1.565128e+3, 1.7593691e+2, -1324276.6, -1287003.8, 17169.814, 0.1163342, 0.011645862, -1280300.1, -64477.656, 0.0000016137079, 9.999362, 9.999865 
1.5651146e+3, 1.859353e+2, -1385597.6, -1518784.1, 38842.496, 0.1674776, -0.0074113244, -1375097.5, -257258.77, 0.0, 9.999362, 9.9976 
1.5651e+3, 1.9593349e+2, -1273577.6, -1386531.4, 89078.44, 0.10387967, 0.023177788, -1224581.3, -204718.7, 0.0, 9.999341, 9.997845 
1.5650867e+3, 2.059329e+2, -1042537.56, -1124888.4, 153561.33, 0.06254339, 0.13883854, -924727.1, -2855.6807, 0.0, 9.999824, 9.9987335 
1.5650745e+3, 2.1593322e+2, -793403.2, -936501.75, 104345.68, 0.049050797, 0.26648808, -738432.44, 85437.51, 0.0, 10.000794, 9.998881 
1.565062e+3, 2.2593181e+2, -729456.6, -901233.75, 80268.38, 0.080119126, 0.26571196, -697787.25, 28096.354, 0.0, 10.000746, 9.998482 
1.5650491e+3, 2.3592919e+2, -731397.4, -825511.6, 114912.4, 0.13575156, 0.12520063, -654280.3, -26371.805, 0.0, 9.9999485, 9.99871 
1.5650362e+3, 2.4592817e+2, -571287.2, -639771.25, 128792.77, 0.15315822, 0.12838435, -472262.2, 57656.387, 0.0, 10.000124, 9.999232 
1.5650226e+3, 2.5592825e+2, -331634.2, -454013.34, 107749.086, 0.13668545, 0.18511003, -268912.4, 163005.83, 0.00000039469393, 10.001026, 9.9993925 
1.5650086e+3, 2.6592726e+2, -253752.6, -409855.7, 141725.13, 0.0543158, 0.16992317, -170007.8, 163919.03, 0.000008163994, 10.001078, 9.9990015 
1.5649942e+3, 2.7592537e+2, -229733.39, -333186.66, 174673.97, -0.07378476, 0.054565728, -99288.016, 136654.53, 0.00005803459, 10.000503, 9.99913 
1.5649809e+3, 2.8592494e+2, -98732.86, -209502.03, 122849.73, -0.059403148, 0.10084378, -19360.232, 118585.97, 0.00028587523, 10.000684, 9.999227 
1.5649681e+3, 2.9592553e+2, 110855.6, -54704.145, 7348.1484, 0.04582377, 0.20698026, 111181.09, 151122.13, 0.0009117836, 10.001434, 9.999252 
1.564955e+3, 3.0592376e+2, 50667.64, -181599.63, -16949.037, 0.08893574, 0.1707933, 51897.934, 51897.934, 0.0020009489, 10.001217, 9.998154 
1.56494e+3, 3.15922e+2, 3142.8313, -67584.98, 13865.83, -0.04564688, 0.14023164, 5764.0156, 5764.0156, 0.0033957218, 10.000255, 9.999406 
1.5751982e+3, 1.2594934e+2, -2113045.8, -1920853.3, -44057.688, 0.116682105, 0.043164056, -1911235.0, -205528.22, 0.023204513, 9.997283, 9.999888 
1.5751778e+3, 1.3595067e+2, -1976181.8, -1821901.1, -102399.77, -0.23101999, 0.20898356, -1770837.1, -163133.48, 0.014108494, 9.997652, 9.999722 
1.5751667e+3, 1.4595133e+2, -1632701.8, -1390095.5, 30133.193, 0.13302581, 0.19850017, -1386408.9, 123287.8, 0.0063687824, 9.998397, 10.001659 
1.5751544e+3, 1.5595202e+2, -1462371.8, -1265056.9, 89750.64, 0.1226031, 0.07712225, -1230340.9, 181341.19, 0.00176415, 9.998944, 10.001569 
1.5751402e+3, 1.6595241e+2, -1482664.4, -1473666.1, 42733.207, 0.025821052, 0.08625995, -1435195.9, -121520.49, 0.00019721544, 9.999198, 9.999341 
1.5751266e+3, 1.7595242e+2, -1358922.4, -1350510.3, 30923.055, 0.031553783, 0.12685059, -1323508.5, -107833.01, 0.0000019795527, 9.999331, 9.999442 
1.5751135e+3, 1.8595192e+2, -1287745.3, -1328053.4, 30287.291, 0.11260119, 0.16645667, -1271519.3, -153838.9, 0.0, 9.999409, 9.998888 
1.5751003e+3, 1.9595104e+2, -1203457.1, -1234227.3, 96553.84, 0.19177973, 0.16494046, -1121070.3, -101381.68, 0.0, 9.999311, 9.998905 
1.5750873e+3, 2.0594929e+2, -1120172.4, -1276192.1, 182190.17, 0.12464773, 0.1693818, -999993.44, -78285.5, 0.0, 9.999776, 9.99772 
1.5750746e+3, 2.1594688e+2, -870137.1, -1066830.3, 142250.27, -0.019641133, 0.1267192, -795546.75, 28188.848, 0.0, 10.000671, 9.998045 
1.575062e+3, 2.259458e+2, -668906.2, -747160.6, 44226.973, 0.0023288117, 0.13375996, -648982.9, 76762.16, 0.0, 10.00062, 9.999599 
1.5750493e+3, 2.359456e+2, -682748.0, -694620.56, 97295.43, 0.13640232, 0.12516245, -591207.94, 36534.535, 0.0, 9.999821, 9.99967 
1.5750362e+3, 2.4594462e+2, -619521.06, -707092.0, 154973.92, 0.13200691, 0.111012734, -502265.9, 27485.42, 0.0, 9.999981, 9.9988365 
1.5750226e+3, 2.5594306e+2, -364228.7, -499974.38, 143966.56, 0.034250706, 0.038114734, -272937.78, 158830.72, 0.00000029448665, 10.000931, 9.999122 
1.5750092e+3, 2.659428e+2, -184839.11, -244090.19, 113875.234, -0.005978788, 0.04640029, -96798.84, 236968.08, 0.000007127328, 10.000978, 10.000188 
1.5749954e+3, 2.7594328e+2, -185623.22, -215512.16, 168365.27, -0.012510821, 0.045938566, -31540.479, 204213.7, 0.000058416226, 10.000395, 9.9999895 
1.5749823e+3, 2.8594086e+2, -308641.25, -627690.5, 144153.67, 0.009247969, 0.008798834, -253157.98, -115377.83, 0.00029913065, 10.000595, 9.996402 
1.57497e+3, 2.959367e+2, -82259.37, -436891.94, 46128.07, 0.05912058, -0.08576555, -76357.58, -36526.848, 0.0009576331, 10.001344, 9.9966755 
1.5749563e+3, 3.0593565e+2, 47053.617, -146291.89, -57377.27, 0.07981084, 0.052460928, 62798.71, 62798.71, 0.0021078228, 10.001054, 9.998461 
1.5749402e+3, 3.1593794e+2, 20119.068, 36412.59, 3526.985, -0.074927285, 0.3871328, 37143.293, 37143.293, 0.0035946025, 9.999983, 10.000236 
1.5851954e+3, 1.259666e+2, -2155240.3, -2012602.9, -76561.234, 0.1112898, 0.15130605, -1979289.0, -273753.84, 0.024665277, 9.997331, 9.999223 
1.5851766e+3, 1.3596547e+2, -1814739.5, -1810759.6, 64434.27, -0.18116538, 0.13309565, -1748284.6, -140728.27, 0.0150364665, 9.999061, 9.999111 
1.5851657e+3, 1.4596568e+2, -1547846.4, -1416396.4, 144308.69, 0.14885864, 0.13835539, -1323550.4, 186004.39, 0.0068181083, 9.999285, 10.001041 
1.5851535e+3, 1.5596648e+2, -1580152.0, -1385331.4, 49095.08, 0.18280281, 0.08986481, -1373658.6, 37881.965, 0.0019058621, 9.998407, 10.000997 
1.5851396e+3, 1.6596682e+2, -1590349.3, -1532322.6, 5656.939, 0.09609516, 0.124426916, -1531776.3, -218240.69, 0.0002187055, 9.998496, 9.9992695 
1.5851262e+3, 1.7596675e+2, -1346998.1, -1344990.6, 12284.66, 0.07217629, 0.15922888, -1333668.8, -118130.76, 0.000002466339, 9.999415, 9.999435 
1.5851131e+3, 1.8596636e+2, -1203181.6, -1239774.0, -10528.849, 0.12792486, 0.18715544, -1200368.4, -82827.586, 0.0, 9.999792, 9.999309 
1.5850997e+3, 1.9596575e+2, -1074237.5, -1121929.5, -20839.877, 0.17409348, 0.17144608, -1066414.4, -46870.57, 0.0, 9.999985, 9.999349 
1.5850869e+3, 2.0596403e+2, -1128799.6, -1244754.4, 112980.92, 0.12711698, 0.13777778, -1059788.5, -138227.45, 0.0, 9.999564, 9.998039 
1.585075e+3, 2.1596137e+2, -1124647.1, -1161562.1, 156361.97, 0.04346203, 0.04114825, -985657.06, -162067.55, 0.0, 9.998783, 9.998317 
1.5850624e+3, 2.2596033e+2, -879931.8, -854358.5, 71975.27, 0.059462484, 0.044352833, -794042.9, -68444.14, 0.0, 9.99921, 9.999545 
1.5850495e+3, 2.3596048e+2, -568542.75, -644146.56, 19172.922, 0.13288584, 0.07904984, -563958.5, 63635.56, 0.0, 10.000632, 9.999631 
1.5850362e+3, 2.4595979e+2, -528836.25, -664069.7, 59699.88, 0.11983297, 0.09675475, -506252.66, 23348.441, 0.0, 10.00062, 9.998816 
1.5850231e+3, 2.5595847e+2, -556258.4, -600429.7, 57913.883, 0.04432862, 0.052714657, -516361.84, -84745.18, 0.00000023115544, 9.9996395, 9.999053 
1.58501e+3, 2.65958e+2, -385799.78, -361049.3, -3454.3518, 0.049239192, 0.055897977, -360576.25, -26959.047, 0.0000061293663, 9.999692, 9.999996 
1.5849969e+3, 2.759581e+2, -174663.48, -227545.42, -70533.84, 0.10316552, 0.03543561, -125777.51, 109830.516, 0.000059467606, 10.000556, 9.999821 
1.584984e+3, 2.859556e+2, -218829.16, -589374.9, 17865.846, 0.10405634, -0.0012133181, -217969.75, -80334.68, 0.00031124914, 10.001248, 9.996339 
1.5849714e+3, 2.959515e+2, -27815.44, -413845.72, 94414.52, 0.061553843, -0.08494164, -5960.9766, 33724.637, 0.001001838, 10.001742, 9.996629 
1.5849574e+3, 3.0595043e+2, 116252.055, -138024.02, 27760.623, 0.07122205, 0.07001124, 119247.54, 119247.54, 0.00221268, 10.001598, 9.998282 
1.5849409e+3, 3.159515e+2, 154551.22, 107501.68, 6710.679, -0.049431697, 0.30243766, 155489.64, 155489.64, 0.0037863106, 10.000871, 10.00031 
1.5951914e+3, 1.2598468e+2, -2057948.6, -1846671.6, -79334.59, -0.042757176, 0.34139875, -1820198.6, -114837.875, 0.026239868, 9.997447, 10.00032 
1.5951784e+3, 1.3598184e+2, -1758680.8, -1685292.6, 133303.14, 0.08255393, 0.029926747, -1583725.4, 23661.908, 0.016040104, 9.999022, 9.9999895 
1.5951656e+3, 1.4598036e+2, -1705858.0, -1766950.8, 101021.5, 0.17215002, -0.039491165, -1630865.6, -121461.69, 0.0073062, 9.999364, 9.998598 
1.5951517e+3, 1.5598175e+2, -1730074.8, -1704899.6, 29554.445, 0.14531563, 0.21486048, -1685363.9, -273969.28, 0.002060233, 9.99844, 9.998791 
1.5951386e+3, 1.6598156e+2, -1551928.5, -1470624.5, 30454.824, 0.111368604, 0.27673277, -1460482.0, -147085.63, 0.00024185247, 9.9985695, 9.999659 
1.5951268e+3, 1.7598005e+2, -1328818.6, -1301324.6, 50813.547, 0.17812043, 0.12671898, -1262431.4, -47022.934, 0.0000030340082, 9.999391, 9.999746 
1.5951133e+3, 1.859788e+2, -1224974.3, -1289746.0, -12771.762, 0.14089444, 0.07397946, -1222546.9, -105128.44, 0.0, 9.999808, 9.998956 
1.5950981e+3, 1.9597782e+2, -1097450.1, -1154375.1, -8041.2397, -0.0077178106, 0.054001126, -1096336.0, -76909.83, 0.0, 9.999924, 9.999151 
1.5950854e+3, 2.0597717e+2, -1025166.6, -1018746.3, 75660.1, 0.007103838, 0.054134723, -946228.3, -24798.408, 0.0, 9.999514, 9.999615 
1.5950751e+3, 2.1597669e+2, -1050308.8, -977114.0, 139609.7, 0.16597955, 0.0136758145, -869384.5, -45952.766, 0.0, 9.998661, 9.999638 
1.5950629e+3, 2.2597553e+2, -981966.0, -1043162.75, 117727.51, 0.167478, 0.013077795, -890925.44, -165481.92, 0.0, 9.999101, 9.998304 
1.5950495e+3, 2.359739e+2, -662587.5, -814675.75, 74772.47, 0.056003205, -0.008417328, -631984.4, -4521.8745, 0.0, 10.000521, 9.998516 
1.5950362e+3, 2.4597369e+2, -528139.5, -633417.1, 18107.064, 0.036238834, 0.09309547, -525112.25, 4355.0986, 0.0, 10.000494, 9.999084 
1.5950233e+3, 2.559744e+2, -567471.1, -593306.2, 36294.617, 0.09028809, 0.22516349, -541863.8, -110400.7, 0.00000009760233, 9.999517, 9.999154 
1.5950109e+3, 2.659729e+2, -514091.84, -608751.7, 20959.32, 0.14813949, 0.20866665, -509658.72, -176181.63, 0.0000054247644, 9.9996, 9.9983425 
1.5949987e+3, 2.7596986e+2, -274130.97, -417802.13, -27147.611, 0.20104317, 0.031683046, -269172.4, -33668.39, 0.00006233866, 10.000475, 9.998556 
1.5949859e+3, 2.8596893e+2, -51611.24, -211720.13, 29490.102, 0.13173755, 0.06744162, -46352.26, 91160.34, 0.00032281963, 10.00112, 9.998994 
1.5949725e+3, 2.9596952e+2, 120765.22, -78613.08, 122887.086, -0.031059857, 0.18936998, 179313.75, 218822.47, 0.0010343667, 10.001624, 9.998992 
1.5949583e+3, 3.0596796e+2, 35045.273, -256735.0, -7506.765, -0.027076906, 0.22326885, 35238.277, 35238.277, 0.0022871916, 10.001408, 9.997549 
1.5949415e+3, 3.1596246e+2, 52577.84, -40089.836, 8862.529, -0.11319858, -0.1267674, 53417.816, 53417.816, 0.0039191097, 10.000619, 9.999407 
1.6051891e+3, 1.2599748e+2, -1921614.5, -1662133.8, -145569.7, -0.036610868, 0.2246881, -1596879.0, 108358.51, 0.027939666, 9.997874, 10.00139 
1.6051789e+3, 1.3599674e+2, -1788242.5, -1648575.4, -33274.688, 0.25601143, 0.06316103, -1641053.0, -33813.676, 0.01712635, 9.998602, 10.000437 
1.6051646e+3, 1.459953e+2, -1734287.6, -1831451.5, -21243.607, 0.14535286, 0.0076489793, -1729846.0, -220591.44, 0.007836914, 9.999414, 9.998116 
1.6051507e+3, 1.5599544e+2, -1429908.3, -1605186.1, 28401.303, 0.10186027, 0.17901154, -1425421.1, -14162.454, 0.0022287087, 10.000695, 9.998383 
1.605138e+3, 1.659949e+2, -1286641.6, -1342406.6, 78703.875, 0.124424174, 0.22230889, -1231027.3, 82237.15, 0.00026665046, 10.0004, 9.999653 
1.6051267e+3, 1.7599365e+2, -1339410.1, -1305070.5, 56012.203, 0.2320662, 0.10295081, -1263655.6, -48382.094, 0.0000036433328, 9.999314, 9.999757 
1.6051131e+3, 1.8599242e+2, -1333923.0, -1345663.1, 22669.777, 0.18678603, 0.051549897, -1316375.6, -199092.23, 0.0, 9.999072, 9.998928 
1.605098e+3, 1.9599116e+2, -1154199.5, -1182717.4, 33746.31, 0.011297609, 0.0043211374, -1131823.3, -112529.266, 0.0, 9.999519, 9.999156 
1.6050854e+3, 2.0599066e+2, -962352.3, -967206.6, 65823.91, 0.03660137, 0.009314174, -898910.8, 22385.832, 0.0, 9.999858, 9.9998045 
1.605075e+3, 2.1599072e+2, -806852.44, -836297.56, 13842.42, 0.20544043, 0.006248933, -801366.9, 21926.611, 0.0, 10.000237, 9.999841 
1.6050628e+3, 2.2598986e+2, -811023.9, -952944.4, 49810.457, 0.1930529, 0.021026319, -795286.75, -69984.26, 0.0, 10.000246, 9.998363 
1.6050495e+3, 2.3598836e+2, -729865.5, -841452.94, 83558.1, 0.046960924, 0.0054354747, -685185.9, -57866.055, 0.0, 10.000042, 9.998547 
1.6050364e+3, 2.4598771e+2, -569972.25, -710502.4, 23898.188, 0.007421897, 0.088524684, -566019.4, -36689.664, 0.0, 10.00045, 9.998587 
1.6050233e+3, 2.5598767e+2, -340305.63, -531562.25, -27809.025, 0.050641663, 0.1982795, -336344.22, 94990.03, 0.000000007673713, 10.001286, 9.998735 
1.6050112e+3, 2.6598617e+2, -252507.39, -465541.34, 36380.332, 0.14000787, 0.19130524, -246465.97, 86882.44, 0.0000049768487, 10.001328, 9.998495 
1.6049998e+3, 2.7598357e+2, -218515.92, -378802.9, 94657.72, 0.25501886, 0.052944735, -174630.94, 60738.92, 0.00006447964, 10.000798, 9.998677 
1.604987e+3, 2.859828e+2, -142279.3, -243874.77, 112606.48, 0.17463312, 0.08875287, -69543.12, 67834.14, 0.00032949253, 10.000429, 9.999109 
1.6049731e+3, 2.9598334e+2, -71110.984, -151808.4, -7682.295, -0.04683049, 0.19629163, -70386.15, -31012.408, 0.0010457553, 10.00022, 9.999163 
1.6049592e+3, 3.059823e+2, 14885.889, -234906.77, -133641.5, -0.03677903, 0.25554547, 72907.97, 72907.97, 0.0023104926, 10.001134, 9.997825 
1.6049436e+3, 3.1597617e+2, 347401.66, 87291.13, -91212.38, -0.050410066, -0.18026945, 376198.75, 376198.75, 0.0039605508, 10.002695, 9.999289 
1.6151883e+3, 1.2600596e+2, -1814909.1, -1482376.6, -15749.795, 0.04842922, -0.13413157, -1481632.3, 223523.7, 0.02978273, 9.99802, 10.002586 
1.6151777e+3, 1.3601074e+2, -1790569.0, -1650901.4, -5380.7905, 0.27618727, 0.25438818, -1650694.4, -43587.65, 0.018308382, 9.998589, 10.00043 
1.6151626e+3, 1.4601077e+2, -1634221.1, -1635567.8, 19155.295, -0.01635616, 0.28479165, -1615727.3, -106623.445, 0.008418617, 9.999455, 9.999444 
1.6151506e+3, 1.5600769e+2, -1348171.1, -1425143.5, 73854.84, -0.009746527, -0.0040015774, -1303376.3, 107755.45, 0.0024150687, 10.00066, 9.999634 
1.6151382e+3, 1.6600692e+2, -1299574.0, -1390151.1, 24932.854, 0.064143375, -0.022206962, -1293164.4, 19974.459, 0.0002938315, 10.000472, 9.999295 
1.6151255e+3, 1.760076e+2, -1363395.6, -1354228.8, 26134.613, 0.17364724, 0.08671352, -1332278.8, -117145.59, 0.000004294035, 9.999303, 9.999429 
1.6151126e+3, 1.860071e+2, -1310548.4, -1303336.4, 31195.572, 0.19345772, 0.11092629, -1275539.1, -158402.25, 0.0, 9.9991, 9.999205 
1.615099e+3, 1.9600575e+2, -1149186.4, -1166190.0, 56985.676, 0.16115803, 0.027158312, -1100071.9, -80924.266, 0.0, 9.9994955, 9.999281 
1.6150865e+3, 2.0600457e+2, -1052232.0, -1139505.5, 68083.16, 0.12894692, 0.021801276, -1015001.75, -93841.31, 0.0, 9.999796, 9.9986515 
1.6150743e+3, 2.1600354e+2, -885184.1, -976702.0, 32227.098, 0.104565665, 0.022305217, -874974.6, -51800.215, 0.0, 10.000142, 9.998923 
1.615062e+3, 2.2600338e+2, -742879.7, -773593.94, 32944.09, 0.07242457, 0.07521839, -721889.1, 3286.074, 0.0, 10.000091, 9.999666 
1.6150495e+3, 2.3600376e+2, -676629.0, -698576.25, 87884.62, 0.03433619, 0.11937076, -599035.56, 28131.648, 0.0, 9.999911, 9.999588 
1.6150364e+3, 2.460018e+2, -675210.06, -902373.94, 47095.336, -0.04664826, 0.09355637, -665833.4, -136644.6, 0.0, 10.000331, 9.997328 
1.6150227e+3, 2.5599828e+2, -423857.34, -676396.25, 9468.121, -0.15017033, -0.0247466, -423502.88, 7726.9033, 0.00000000987263, 10.001166, 9.997795 
1.6150108e+3, 2.659977e+2, -148792.2, -214586.42, 8416.534, -0.052636325, 0.004494641, -147732.61, 185499.16, 0.000004852571, 10.001178, 10.00029 
1.615e+3, 2.75999e+2, -140988.95, -185040.14, 89542.05, 0.18364696, 0.076429226, -70803.34, 164405.1, 0.000064250504, 10.000674, 10.000059 
1.6149874e+3, 2.85997e+2, -334709.94, -615928.2, 94106.32, 0.14881209, 0.06591532, -306124.13, -168893.89, 0.00032939267, 10.000306, 9.996615 
1.6149732e+3, 2.9599285e+2, -236218.33, -466048.8, 5014.546, -0.07885912, -0.057123438, -236108.98, -196827.61, 0.0010398368, 10.000094, 9.997067 
1.6149603e+3, 3.0599317e+2, 75721.19, -59931.92, -84993.29, -0.05687637, 0.16074276, 116634.234, 116634.234, 0.0022907362, 10.000954, 9.999099 
1.6149467e+3, 3.1599274e+2, 350398.94, 176104.4, -12901.284, -0.030951133, 0.17152856, 351348.7, 351348.7, 0.0039168783, 10.002393, 10.00002 
1.625187e+3, 1.2601818e+2, -1709886.4, -1479190.0, 50324.19, 0.06330372, -0.058732003, -1468690.1, 236347.95, 0.03179242, 9.998957, 10.0021515 
1.6251762e+3, 1.3602199e+2, -1839746.4, -1680728.3, -83431.67, 0.28682455, 0.25019595, -1644987.4, -37986.992, 0.019603958, 9.998263, 10.000387 
1.6251618e+3, 1.4602326e+2, -1779484.5, -1578926.6, 3669.8682, 0.038748443, 0.34218556, -1578859.5, -69875.84, 0.009062119, 9.997923, 10.00057 
1.6251507e+3, 1.5602021e+2, -1536809.1, -1399153.5, 25544.633, 0.04262874, -0.0589567, -1394566.0, 16440.309, 0.002624408, 9.99887, 10.0006695 
1.625138e+3, 1.6601966e+2, -1532743.5, -1540139.6, -79319.24, 0.088158, -0.08187264, -1457036.1, -144025.06, 0.00032476612, 9.999046, 9.998947 
1.625124e+3, 1.7602083e+2, -1475369.6, -1440018.4, -88578.19, 0.122251265, 0.10859287, -1367369.5, -152365.72, 0.000005034694, 9.998676, 9.999138 
1.6251114e+3, 1.860203e+2, -1289376.4, -1270692.0, -15209.471, 0.18225758, 0.13198861, -1262184.6, -145176.16, 0.0, 9.999152, 9.999405 
1.6251e+3, 1.9601864e+2, -1015894.7, -1077462.0, -10239.353, 0.26874146, -0.005497372, -1014236.44, 4784.902, 0.0, 10.000322, 9.999484 
1.625087e+3, 2.0601782e+2, -983151.44, -1141153.4, 22437.13, 0.19140743, 0.03140552, -980027.06, -58994.773, 0.0, 10.000427, 9.998332 
1.6250731e+3, 2.1601753e+2, -946656.1, -1036295.75, 33655.785, 0.002090357, 0.13918152, -935426.6, -112384.375, 0.0, 9.999852, 9.998655 
1.6250609e+3, 2.2601724e+2, -763364.2, -766690.1, 27715.947, -0.024100706, 0.18531293, -737261.4, -12217.251, 0.0, 9.999863, 9.999828 
1.6250499e+3, 2.3601694e+2, -615239.44, -654937.44, -18137.08, 0.048556726, 0.14443195, -608201.0, 18839.742, 0.0, 10.0002575, 9.999728 
1.6250372e+3, 2.4601479e+2, -671204.8, -893394.56, -11700.428, 0.010575292, 0.09022321, -670590.4, -141528.23, 0.0, 10.000322, 9.997392 
1.6250236e+3, 2.5601137e+2, -563595.06, -747040.5, 25355.443, -0.11467772, -0.026428645, -560155.0, -129054.16, 0.000000011745934, 10.000196, 9.997784 
1.6250117e+3, 2.6601052e+2, -274664.72, -315476.66, -25704.541, -0.034834605, -0.00023611028, -262251.06, 70854.88, 0.0000048598445, 10.000487, 9.999928 
1.6250008e+3, 2.7601147e+2, -103933.91, -204455.11, -128525.53, 0.18215448, 0.073107205, -16191.104, 218897.45, 0.00006262461, 10.00108, 9.999731 
1.6249883e+3, 2.8600937e+2, -196361.13, -538311.2, -61254.508, 0.1651966, 0.06222, -185719.6, -48609.004, 0.00032550952, 10.001218, 9.99671 
1.6249743e+3, 2.9600522e+2, -85042.3, -389482.3, 12908.382, -0.027174748, -0.065964684, -84495.95, -45336.824, 0.0010260531, 10.001106, 9.997113 
1.6249621e+3, 3.0600506e+2, 122384.92, -58594.4, -1043.8832, 0.0021945394, 0.113474846, 122390.945, 122390.945, 0.0022458762, 10.001345, 9.998939 
1.6249494e+3, 3.1600478e+2, 219840.69, 31264.74, -84536.27, 0.0375067, 0.16717926, 252188.44, 252188.44, 0.0038119992, 10.001775, 9.999364 
1.6351849e+3, 1.2603395e+2, -1860171.9, -1787086.3, 84154.836, -0.064124204, 0.4224204, -1731882.6, -26996.916, 0.03398967, 9.998987, 9.999961 
1.635174e+3, 1.3603057e+2, -1845041.8, -1696606.6, -115317.18, 0.21983245, 0.056285053, -1633688.1, -26768.146, 0.02102759, 9.998294, 10.000259 
1.635162e+3, 1.4603291e+2, -1689861.9, -1422166.0, 17541.684, 0.22259624, 0.20062226, -1421021.4, 87870.414, 0.009775217, 9.998031, 10.001604 
1.635151e+3, 1.5603308e+2, -1479479.6, -1275279.0, 63967.066, 0.1706824, 0.018434279, -1256895.9, 153985.13, 0.002860367, 9.998847, 10.001532 
1.6351376e+3, 1.6603316e+2, -1553517.6, -1594121.4, -100771.25, 0.11333649, 0.037190896, -1471023.5, -158143.06, 0.00036087315, 9.999085, 9.998564 
1.6351219e+3, 1.7603332e+2, -1496846.0, -1489720.9, -93006.586, 0.020753857, 0.17311935, -1400208.6, -185323.47, 0.000005927034, 9.9987, 9.998787 
1.63511e+3, 1.8603206e+2, -1262640.6, -1231765.0, 20217.45, 0.08603748, 0.1251513, -1221765.3, -104867.72, 0.0, 9.999215, 9.999645 
1.6351004e+3, 1.9602977e+2, -1002908.8, -1040884.56, 33774.953, 0.27159238, -0.10186859, -983150.25, 35765.293, 0.0, 10.000279, 9.999759 
1.6350873e+3, 2.0603025e+2, -959221.44, -1071432.3, -7650.107, 0.1519866, 0.023971824, -958702.25, -37788.68, 0.0, 10.000342, 9.998852 
1.6350713e+3, 2.1603253e+2, -937300.75, -996201.8, 24604.766, -0.1676783, 0.34107333, -928375.1, -105476.484, 0.0, 9.999759, 9.998978 
1.6350593e+3, 2.2603138e+2, -858415.25, -928137.3, 36977.188, -0.18377507, 0.3444957, -842456.94, -117546.586, 0.0, 9.999709, 9.998793 
1.6350499e+3, 2.3602793e+2, -685233.8, -775103.3, 3489.3994, 0.019250322, 0.0862654, -685098.56, -58158.68, 0.0, 10.000149, 9.998955 
1.6350386e+3, 2.4602662e+2, -603219.5, -715177.7, -25013.996, 0.096726924, 0.08000929, -597885.0, -68934.875, 0.0, 10.000166, 9.998688 
1.635026e+3, 2.560268e+2, -515173.28, -618693.75, 31384.076, 0.08405335, 0.19716218, -506401.88, -75454.31, 0.000000006263202, 10.000089, 9.998711 
1.6350138e+3, 2.660247e+2, -467981.06, -695768.1, -11141.636, 0.11069006, 0.19547792, -467437.38, -134467.67, 0.000005059976, 10.000387, 9.997372 
1.6350019e+3, 2.7602103e+2, -261425.05, -506530.28, -94766.93, 0.16598152, 0.053593613, -229058.61, 5950.6245, 0.00006071332, 10.000969, 9.997712 
1.6349892e+3, 2.8601986e+2, -39447.09, -178650.48, -74285.13, 0.12638882, 0.08720088, -7251.5537, 129766.87, 0.00031809925, 10.00108, 9.999244 
1.6349761e+3, 2.9602042e+2, 42660.4, -91901.016, 26785.523, 0.019154567, 0.18035285, 47796.25, 86803.12, 0.0010037773, 10.000979, 9.999213 
1.6349639e+3, 3.06018e+2, -26327.816, -316638.75, 3588.511, 0.0430057, 0.13446377, -26283.465, -26283.465, 0.00218191, 10.001136, 9.997259 
1.6349511e+3, 3.160121e+2, 48801.59, -251530.13, -42530.473, -0.007855001, -0.21764629, 54708.234, 54708.234, 0.003670205, 10.001484, 9.997544 
1.6451845e+3, 1.2604578e+2, -1916067.1, -1904440.4, 157894.02, -0.012204628, 0.41378713, -1752252.8, -47487.777, 0.036383986, 9.999011, 9.999148 
1.6451715e+3, 1.3604209e+2, -1692263.9, -1594666.4, -30490.813, 0.10388662, 0.001535654, -1585923.8, 20880.375, 0.022584815, 9.999218, 10.00052 
1.645161e+3, 1.4604431e+2, -1604939.0, -1398642.8, 105530.52, 0.32735762, 0.1244253, -1354223.3, 154556.44, 0.010560797, 9.998691, 10.001453 
1.6451503e+3, 1.5604563e+2, -1564062.4, -1333720.6, 56156.313, 0.24817881, 0.077536404, -1320759.3, 90001.086, 0.0031241647, 9.998326, 10.001388 
1.6451369e+3, 1.6604593e+2, -1511427.1, -1521092.6, -74951.57, 0.14472294, 0.09980748, -1441152.6, -128395.19, 0.0004029895, 9.99915, 9.999033 
1.6451214e+3, 1.7604566e+2, -1155525.6, -1284687.4, -22288.367, 0.0008920883, 0.1449035, -1151787.6, 62976.86, 0.0000070009137, 10.000868, 9.999152 
1.6451095e+3, 1.8604459e+2, -1108423.6, -1213166.6, 65160.15, 0.06360631, 0.13074197, -1077197.1, 39579.43, 0.0, 10.000531, 9.999126 
1.6451e+3, 1.9604297e+2, -1221308.3, -1190232.9, 4787.6787, 0.258362, 0.022018602, -1189512.0, -170719.75, 0.0, 9.998973, 9.999358 
1.6450867e+3, 2.0604324e+2, -1121327.4, -1076324.5, -21782.068, 0.14568917, 0.10919404, -1067508.6, -146718.2, 0.0, 9.998898, 9.999519 
1.6450712e+3, 2.1604484e+2, -883257.7, -905227.5, 11089.058, -0.17467521, 0.28817713, -878633.75, -55857.074, 0.0, 9.999855, 9.999548 
1.6450596e+3, 2.2604358e+2, -746676.75, -954264.94, 77299.17, -0.17616303, 0.29192922, -721055.3, 3734.332, 0.0, 10.000818, 9.998087 
1.6450511e+3, 2.3604028e+2, -492487.47, -751139.06, 46864.96, 0.038931806, 0.1228628, -484257.84, 142563.66, 0.0, 10.001768, 9.998348 
1.6450398e+3, 2.4603884e+2, -368043.0, -566205.0, -41176.195, 0.13485922, 0.1119952, -359827.56, 169005.47, 0.0, 10.001637, 9.999001 
1.6450268e+3, 2.560386e+2, -396489.9, -539428.56, -70931.28, 0.13264868, 0.1620865, -367266.1, 63565.355, 0.000000005166704, 10.000807, 9.998917 
1.6450146e+3, 2.6603675e+2, -376158.97, -680103.75, 17552.172, 0.12443567, 0.19052283, -375148.72, -42296.27, 0.000005473011, 10.00114, 9.997109 
1.645003e+3, 2.7603373e+2, -77278.55, -443793.6, 69720.85, 0.104630135, 0.14061248, -64463.848, 170425.81, 0.00005878461, 10.002347, 9.997474 
1.6449904e+3, 2.860326e+2, 151370.13, -65577.766, 26560.54, 0.09132836, 0.17819713, 154574.56, 291472.9, 0.0003059286, 10.002314, 9.999421 
1.6449778e+3, 2.960329e+2, 101065.14, -47782.137, -70304.18, 0.08313277, 0.23169838, 129020.97, 167907.17, 0.0009705867, 10.001333, 9.999336 
1.6449656e+3, 3.060299e+2, -362.2708, -306698.2, -29166.57, 0.10020814, 0.120351724, 2389.982, 2389.982, 0.002106459, 10.001279, 9.997268 
1.6449526e+3, 3.160246e+2, 83012.26, -228640.48, -957.6085, 0.0025156648, -0.1771868, 83015.2, 83015.2, 0.0035252424, 10.001677, 9.9976 
1.6551845e+3, 1.26053e+2, -1844488.1, -1780119.9, 51021.965, 0.051235296, -0.13049006, -1751979.4, -47296.523, 0.03897044, 9.999107, 9.999952 
1.6551684e+3, 1.3605681e+2, -1648831.8, -1499924.8, -31232.229, -0.1425199, 0.1192633, -1493639.3, 113011.44, 0.024272982, 9.999184, 10.0012045 
1.6551597e+3, 1.4605735e+2, -1691395.5, -1584506.3, 75173.08, 0.28947085, 0.1056898, -1545715.8, -37067.59, 0.0114189135, 9.99872, 10.0001545 
1.6551486e+3, 1.5605797e+2, -1646097.6, -1502593.6, 56935.805, 0.21700919, 0.13226509, -1482748.5, -72105.414, 0.0034161112, 9.998328, 10.000225 
1.6551359e+3, 1.6605821e+2, -1403232.1, -1320813.3, -18493.566, 0.091440275, 0.12987934, -1316853.8, -4213.9155, 0.00045137366, 9.999239, 10.00037 
1.6551223e+3, 1.7605789e+2, -1082844.1, -1124635.6, 34526.57, -0.0064185, 0.031229394, -1063382.5, 151258.33, 0.000008273259, 10.000828, 10.000269 
1.65511e+3, 1.8605787e+2, -1197704.9, -1406740.5, -1114.3096, 0.042904384, 0.1426288, -1197698.9, -81053.07, 0.0, 10.000556, 9.997791 
1.6550982e+3, 1.9605811e+2, -1301863.0, -1358102.9, -38278.63, 0.16739003, 0.35639998, -1282485.8, -263833.03, 0.0, 9.998968, 9.998215 
1.6550854e+3, 2.0605685e+2, -1068163.6, -954819.06, 8394.791, 0.093427256, 0.29521683, -954200.7, -33537.85, 0.0, 9.998852, 10.000374 
1.655072e+3, 2.1605453e+2, -844543.56, -804321.0, 53200.242, -0.09031618, -0.0043134405, -767557.56, 55118.227, 0.0, 9.999764, 10.000285 
1.6550615e+3, 2.2605374e+2, -789479.1, -1014559.3, 103579.055, -0.08807342, 0.031979486, -749068.6, -24385.535, 0.0, 10.000693, 9.997735 
1.6550529e+3, 2.360539e+2, -539862.2, -821214.25, 85290.9, 0.038183067, 0.24596408, -516025.94, 110660.91, 0.0, 10.001645, 9.99793 
1.6550407e+3, 2.4605122e+2, -442080.38, -684788.0, -77288.18, 0.037205964, 0.17353924, -419558.53, 109154.07, 0.0, 10.001486, 9.998258 
1.6550261e+3, 2.5604668e+2, -445728.5, -610946.75, -84587.77, -0.03376032, -0.13769855, -410103.3, 20649.516, 0.00000000856411, 10.000688, 9.998474 
1.655014e+3, 2.6604664e+2, -260852.75, -419427.06, 55981.094, -0.06280918, -0.014062786, -243081.5, 89672.82, 0.0000057188686, 10.001039, 9.998955 
1.6550037e+3, 2.7604944e+2, 13338.564, -233607.39, 119110.164, -0.07181981, 0.3358484, 61425.51, 296156.4, 0.00005715205, 10.002251, 9.998966 
1.6549918e+3, 2.8604746e+2, -25551.66, -398493.47, -19133.604, -0.027196987, 0.34176198, -24572.59, 112178.56, 0.00029385844, 10.002159, 9.997211 
1.6549791e+3, 2.960423e+2, -40330.633, -319071.06, -84703.33, 0.06788501, 0.06426092, -16609.738, 22190.607, 0.00093917665, 10.00123, 9.997523 
1.6549668e+3, 3.0604032e+2, 75074.05, -89046.65, -22958.895, 0.069464944, 0.051565554, 78225.266, 78225.266, 0.0020481069, 10.001042, 9.998868 
1.6549541e+3, 3.1604218e+2, 167491.94, 20016.053, 57774.035, -0.061881512, 0.30375817, 187429.63, 187429.63, 0.003428113, 10.001373, 9.99945 
1.665183e+3, 1.2606436e+2, -2096116.3, -1806836.5, 49338.64, 0.10532518, -0.30870306, -1798652.9, -94085.7, 0.041736465, 9.996935, 10.000837 
1.665167e+3, 1.3607012e+2, -1618529.3, -1487008.3, -18986.176, -0.19132072, 0.12421554, -1484322.3, 122192.62, 0.026087236, 9.999375, 10.001212 
1.6651592e+3, 1.460698e+2, -1526810.1, -1562063.8, 44527.008, 0.29565647, 0.0551089, -1496547.9, 11973.965, 0.012349877, 10.000105, 9.999634 
1.6651471e+3, 1.5607014e+2, -1507686.4, -1478540.8, 85097.93, 0.1876965, 0.10054161, -1406776.9, 3745.122, 0.003737191, 9.999471, 9.999831 
1.6651346e+3, 1.6607061e+2, -1443047.8, -1317556.5, 42453.84, 0.06454338, 0.12988718, -1304543.6, 7973.583, 0.00050616945, 9.998888, 10.00055 
1.6651222e+3, 1.7607062e+2, -1394130.3, -1258820.9, -10157.245, 0.013553357, 0.043712612, -1258062.6, -43547.71, 0.000009797576, 9.9986105, 10.000417 
1.66511e+3, 1.8607055e+2, -1366539.4, -1491094.3, -26225.934, 0.04593529, 0.14553903, -1361242.5, -244722.3, 0.0, 9.999422, 9.99775 
1.6650975e+3, 1.9607064e+2, -986931.1, -1208572.0, 17635.729, 0.08640735, 0.3478192, -985536.7, 32991.723, 0.0, 10.001162, 9.998165 
1.665085e+3, 2.0606902e+2, -752632.9, -858892.0, 54164.71, 0.05851891, 0.2761435, -729890.4, 190651.95, 0.0, 10.001265, 9.999868 
1.6650729e+3, 2.1606614e+2, -796044.1, -829014.44, -10164.05, 0.0051585813, -0.028699996, -793162.56, 29398.434, 0.0, 10.000304, 9.999857 
1.6650628e+3, 2.2606526e+2, -861052.6, -1017665.5, 63464.63, 0.0010242844, 0.0053606825, -838563.94, -113994.72, 0.0, 10.000078, 9.997999 
1.6650535e+3, 2.3606569e+2, -709695.3, -873302.6, 69205.64, 0.017975934, 0.21810852, -684348.4, -57777.64, 0.0, 10.000358, 9.998176 
1.6650414e+3, 2.4606335e+2, -521835.97, -750853.2, -55203.74, -0.0061189127, 0.17768712, -509223.88, 19370.322, 0.0, 10.001035, 9.998036 
1.6650273e+3, 2.560591e+2, -266477.16, -544116.3, -37333.42, -0.053753626, -0.080337964, -261544.67, 169088.23, 0.0000000057748837, 10.001991, 9.998315 
1.6650154e+3, 2.660588e+2, -153054.34, -335441.3, 61350.707, -0.06701681, 0.014784089, -134338.05, 198297.28, 0.0000055479773, 10.00165, 9.999234 
1.665005e+3, 2.7606115e+2, -232537.88, -337221.56, -14824.046, -0.07637127, 0.29281428, -230479.16, 4134.7515, 0.000055344583, 10.000478, 9.999119 
1.6649935e+3, 2.860591e+2, -183921.6, -499272.22, -78212.07, -0.010407362, 0.29989406, -165589.42, -28954.36, 0.0002837419, 10.001164, 9.996998 
1.6649817e+3, 2.960543e+2, 209447.39, -223266.83, -31470.602, 0.10767621, 0.08012626, 211724.2, 250407.75, 0.0009166585, 10.003062, 9.997295 
1.6649693e+3, 3.0605224e+2, 371089.72, 36595.406, 5078.521, 0.13171421, 0.07659683, 371166.78, 371166.78, 0.0020189087, 10.003156, 9.998715 
1.6649567e+3, 3.160542e+2, 238083.92, 76203.97, -90582.19, 0.050636686, 0.3609504, 278619.9, 278619.9, 0.003398234, 10.001782, 9.9996395 
1.6751787e+3, 1.2608062e+2, -2008303.4, -1623254.4, -11639.459, -0.055172574, -0.051097587, -1622902.8, 81507.164, 0.044670317, 9.996907, 10.002137 
1.6751675e+3, 1.3608214e+2, -1683241.5, -1602404.8, 70127.75, -0.105086364, 0.022847947, -1561881.5, 44513.63, 0.028026333, 9.999321, 10.000426 
1.675159e+3, 1.4608182e+2, -1496110.1, -1507718.3, 14117.631, 0.25671265, -0.02050917, -1486650.0, 21749.025, 0.013357116, 10.000137, 9.999994 
1.6751459e+3, 1.5608223e+2, -1492840.3, -1441398.8, 68189.57, 0.09291314, -0.01262422, -1394240.4, 16156.034, 0.004090086, 9.9994335, 10.000111 
1.675133e+3, 1.6608302e+2, -1505913.8, -1454612.8, 19825.016, -0.015381329, 0.08927797, -1447844.4, -135453.38, 0.0005678562, 9.998916, 9.999598 
1.6751209e+3, 1.7608388e+2, -1452759.9, -1371018.9, -8943.533, 0.0032822024, 0.18757819, -1370051.9, -155665.78, 0.000011659807, 9.998579, 9.999661 
1.6751091e+3, 1.8608284e+2, -1271881.0, -1306370.9, 30756.738, -0.005603157, 0.15831095, -1253864.5, -137466.92, 0.0, 9.99946, 9.999007 
1.6750973e+3, 1.9608064e+2, -930024.75, -1080033.1, 77332.47, -0.057326257, 0.00774121, -897298.06, 121121.4, 0.0, 10.001113, 9.999077 
1.6750854e+3, 2.060797e+2, -882673.9, -1117361.0, 7596.5386, -0.034286983, 0.061967537, -882428.2, 38001.598, 0.0, 10.001213, 9.998119 
1.6750738e+3, 2.160795e+2, -915620.94, -1057917.6, -35231.7, 0.048576064, 0.20134988, -907375.56, -84942.195, 0.0, 10.000216, 9.998331 
1.675063e+3, 2.26078e+2, -825022.0, -908460.44, 68019.766, 0.015043127, 0.19645074, -786946.56, -62497.324, 0.0, 9.999929, 9.998818 
1.675053e+3, 2.3607567e+2, -672315.1, -770413.56, 88715.97, -0.08866752, 0.048804697, -619992.0, 6481.1333, 0.0, 10.000248, 9.998935 
1.6750419e+3, 2.4607517e+2, -518188.38, -712806.6, -29056.75, -0.07800932, 0.14016855, -513942.78, 14535.538, 0.0, 10.000901, 9.998362 
1.6750298e+3, 2.5607583e+2, -273885.66, -529964.94, -1062.2788, 0.0045797927, 0.34049714, -273881.25, 156590.31, 0.0000000017385277, 10.001866, 9.998468 
1.675018e+3, 2.6607332e+2, -269305.2, -546893.1, 8336.655, 0.026246022, 0.2795871, -269055.06, 63440.74, 0.0000048816705, 10.001513, 9.997853 
1.6750064e+3, 2.7606863e+2, -319679.66, -498436.47, -33231.35, 0.011988995, -0.006934812, -313701.78, -79160.74, 0.000051549086, 10.000389, 9.998056 
1.6749954e+3, 2.860675e+2, -92351.39, -274970.97, -12767.629, 0.046406243, 0.04852922, -91463.08, 45088.03, 0.00027036015, 10.001016, 9.998611 
1.674985e+3, 2.9606882e+2, 290343.13, -38239.36, 47088.13, 0.1133153, 0.27875733, 296958.0, 335494.72, 0.00089050346, 10.0029745, 9.998615 
1.674973e+3, 3.0606544e+2, 190027.77, -278943.88, -54976.695, 0.17659137, 0.19149289, 196386.36, 196386.36, 0.001993897, 10.002909, 9.996658 
1.6749597e+3, 3.1605995e+2, 100362.73, -161201.34, -101121.79, 0.13819708, -0.06622332, 134897.22, 134897.22, 0.0033966575, 10.001586, 9.99809 
1.6851744e+3, 1.2609279e+2, -2066199.3, -1589611.3, -219935.38, -0.12510964, 0.16691339, -1503628.1, 200669.13, 0.04776628, 9.996261, 10.002699 
1.6851673e+3, 1.3609244e+2, -1923777.5, -1694978.1, -67629.37, 0.027835056, 0.030691111, -1676483.1, -70185.23, 0.030093629, 9.997597, 10.0006 
1.685158e+3, 1.4609289e+2, -1764987.1, -1584310.9, -153019.17, 0.24237095, 0.032645196, -1496953.1, 11338.87, 0.0144471, 9.998061, 10.000469 
1.6851439e+3, 1.5609321e+2, -1724843.9, -1504366.4, -117811.51, 0.047139235, -0.019364793, -1453260.4, -42971.887, 0.004479329, 9.997633, 10.000546 
1.6851313e+3, 1.6609375e+2, -1643462.0, -1544896.8, -77239.58, -0.018413076, 0.04862682, -1502556.6, -190271.13, 0.0006375465, 9.998087, 9.999376 
1.6851203e+3, 1.760945e+2, -1332823.5, -1317638.0, -58899.29, 0.06282527, 0.15290827, -1265844.1, -51561.95, 0.00001399049, 9.999436, 9.999604 
1.685109e+3, 1.8609361e+2, -1219098.3, -1205039.1, -11167.057, 0.046042614, 0.103165105, -1198873.3, -82583.26, 0.0, 9.999501, 9.99968 
1.685097e+3, 1.9609159e+2, -1223155.3, -1164710.4, -17057.719, -0.068164535, -0.094127655, -1160096.3, -141789.95, 0.0, 9.998836, 9.999604 
1.6850857e+3, 2.0609094e+2, -1138762.4, -1290464.1, -35438.527, -0.045522984, -0.008404224, -1130892.1, -210577.28, 0.0, 9.999673, 9.997675 
1.6850749e+3, 2.1609128e+2, -754728.44, -1018940.06, -2913.8782, 0.073137015, 0.22833577, -754696.3, 67621.07, 0.0, 10.001499, 9.997976 
1.685064e+3, 2.2608978e+2, -622631.44, -819134.7, 84105.08, 0.051073864, 0.24062087, -591550.0, 132784.83, 0.0, 10.001338, 9.998767 
1.6850533e+3, 2.3608702e+2, -730676.9, -800262.3, 36162.105, -0.07157743, 0.058842085, -715287.6, -88925.305, 0.0, 9.999848, 9.998934 
1.6850424e+3, 2.4608667e+2, -609567.25, -705878.4, -29835.31, -0.06591314, 0.14132327, -601073.9, -72708.89, 0.0, 10.000059, 9.998805 
1.6850315e+3, 2.5608784e+2, -317418.2, -520247.9, -20637.402, 0.013170354, 0.3461209, -315339.66, 115012.39, 0.0000000018399801, 10.001412, 9.998761 
1.6850202e+3, 2.6608494e+2, -243288.16, -586070.4, -8450.968, 0.06180203, 0.2633048, -243079.94, 89299.22, 0.0000039092515, 10.001922, 9.997381 
1.6850083e+3, 2.7607936e+2, -118465.914, -441702.5, -524.3573, 0.0859186, -0.06666832, -118465.06, 115967.984, 0.00004640097, 10.001971, 9.99767 
1.6849974e+3, 2.8607792e+2, 18487.2, -223484.3, 37192.984, 0.10083431, -0.022370853, 24075.023, 160521.66, 0.00025559173, 10.001783, 9.998601 
1.6849871e+3, 2.960795e+2, 65574.59, -141392.67, -54571.203, 0.10424816, 0.23602249, 79081.89, 117512.87, 0.0008589189, 10.001411, 9.998659 
1.6849758e+3, 3.0607665e+2, 71463.1, -320993.34, -110573.484, 0.18875477, 0.18988548, 100472.56, 100472.56, 0.0019565516, 10.001993, 9.996828 
1.6849624e+3, 3.1607014e+2, 323988.25, -48084.348, -32817.277, 0.18731199, -0.17306899, 326860.63, 326860.63, 0.003380258, 10.003045, 9.998205 
1.6951698e+3, 1.2610069e+2, -2073878.8, -1640347.6, -139788.92, -0.27274582, 0.2838661, -1599182.5, 105048.29, 0.051028147, 9.996404, 10.002264 
1.6951661e+3, 1.3610105e+2, -1862225.6, -1549089.4, -8534.361, 0.1382342, 0.12682523, -1548857.0, 57365.453, 0.032295942, 9.997508, 10.001659 
1.6951557e+3, 1.4610307e+2, -1723451.5, -1500272.3, -168188.03, 0.16957839, 0.19899078, -1410021.8, 98178.06, 0.015627254, 9.998061, 10.001058 
1.695141e+3, 1.5610339e+2, -1690670.4, -1436306.1, -120068.086, -0.020652898, 0.098173276, -1388583.5, 21611.523, 0.004910431, 9.9976425, 10.001013 
1.6951296e+3, 1.6610296e+2, -1590350.5, -1451374.3, -35772.61, -0.03073305, 0.01827885, -1442706.9, -130508.41, 0.0007170378, 9.998151, 9.999989 
1.6951208e+3, 1.7610261e+2, -1296435.9, -1240334.9, -9679.473, 0.12600775, -0.048129745, -1238711.8, -24509.977, 0.000016975888, 9.999424, 10.000143 
1.6951095e+3, 1.861029e+2, -1205587.1, -1187490.6, -46064.1, 0.11635875, -0.0122313285, -1149594.5, -33397.246, 0.0, 9.999539, 9.9997835 
1.6950965e+3, 1.9610342e+2, -1216909.4, -1141837.5, -28243.922, -0.023764906, 0.03298853, -1132398.3, -114208.88, 0.0, 9.998796, 9.999778 
1.6950855e+3, 2.0610282e+2, -1095542.3, -1180418.4, 24381.398, -0.051355124, 0.07058711, -1089037.1, -168840.7, 0.0, 9.999583, 9.998473 
1.6950758e+3, 2.1610151e+2, -725807.6, -937018.9, 59276.56, 0.009865737, 0.06304812, -710308.9, 111903.83, 0.0, 10.001401, 9.998586 
1.6950652e+3, 2.2610055e+2, -699198.5, -947519.56, 18313.314, 0.021790346, 0.14877601, -697855.2, 26370.928, 0.0, 10.001208, 9.997947 
1.6950539e+3, 2.3609973e+2, -800362.56, -911704.6, 1944.214, -0.0050271875, 0.24116014, -800328.6, -174090.16, 0.0, 9.999705, 9.998237 
1.6950428e+3, 2.4609774e+2, -602977.4, -648716.94, 15307.353, -0.05000182, 0.16383274, -598327.3, -70071.98, 0.0, 9.999873, 9.9992895 
1.695032e+3, 2.5609502e+2, -301789.53, -457643.25, 34850.19, -0.09303976, -0.063520014, -294351.7, 135922.89, 0.0000000033657745, 10.001289, 9.999249 
1.6950211e+3, 2.6609376e+2, -238576.53, -546077.75, -13137.267, -0.04600664, -0.028941954, -238016.28, 94268.78, 0.0000030031388, 10.001789, 9.997721 
1.6950102e+3, 2.7609327e+2, -126884.39, -431686.8, 12010.863, 0.06668418, 0.115125276, -126411.83, 107878.94, 0.000041424442, 10.001858, 9.997791 
1.694999e+3, 2.860903e+2, -122127.766, -480827.13, 11208.8545, 0.06406827, 0.092774086, -121777.85, 14545.226, 0.00024223694, 10.001632, 9.99691 
1.6949874e+3, 2.960859e+2, -38169.08, -328606.66, -50850.258, -0.011882416, -0.07618883, -29523.492, 8847.205, 0.0008256541, 10.001285, 9.997438 
1.6949765e+3, 3.0608544e+2, 194286.5, 1398.997, -78865.33, 0.060407333, 0.039302118, 222426.6, 222426.6, 0.0018998468, 10.001725, 9.999163 
1.6949642e+3, 3.1608528e+2, 425113.03, 242546.58, 35333.895, 0.02829581, 0.07540902, 431712.97, 431712.97, 0.0033156949, 10.002734, 10.000338 
1.7051683e+3, 1.2610921e+2, -1619626.0, -1524090.8, 69365.04, -0.23403363, 0.17951015, -1487636.9, 216506.86, 0.054460447, 9.99995, 10.001404 
1.7051628e+3, 1.3611005e+2, -2018448.5, -1632571.9, 66026.69, 0.115530245, 0.093370035, -1621586.9, -15452.677, 0.034638863, 9.996455, 10.001593 
1.7051522e+3, 1.4611271e+2, -1984872.0, -1559383.0, -49615.813, 0.1414785, 0.19935848, -1553674.0, -45567.637, 0.016903277, 9.996011, 10.001626 
1.7051393e+3, 1.5611398e+2, -1628536.4, -1348108.9, -20621.664, 0.044603456, 0.13992041, -1346600.6, 63491.355, 0.00538814, 9.997828, 10.001526 
1.7051286e+3, 1.6611376e+2, -1532003.1, -1406685.8, 60789.75, 0.03664682, 0.049394704, -1382043.3, -69950.33, 0.0008082668, 9.998464, 10.000154 
1.7051195e+3, 1.7611317e+2, -1429838.5, -1287634.0, 43186.418, 0.1238708, -0.057806753, -1275546.1, -61447.797, 0.000020835996, 9.998419, 10.000317 
1.7051089e+3, 1.861136e+2, -1252268.1, -1202816.9, -892.205, 0.12916787, -0.016281292, -1202800.9, -86709.0, 0.0, 9.999189, 9.999854 
1.7050971e+3, 1.9611453e+2, -939177.06, -999572.5, 779.9552, 0.05459706, 0.064245515, -939167.0, 78912.266, 0.0, 10.000661, 9.999865 
1.7050862e+3, 2.0611376e+2, -926979.56, -1078619.5, 41069.754, 0.006156513, 0.07184627, -916570.8, 3516.2183, 0.0, 10.000661, 9.998643 
1.7050761e+3, 2.1611197e+2, -953316.75, -1035583.3, 10090.294, -0.024675675, 0.0005798491, -952097.25, -129990.18, 0.0, 9.999791, 9.998684 
1.7050655e+3, 2.2611098e+2, -879570.6, -1042169.94, -30538.51, 0.0026036005, 0.08310024, -874024.25, -149903.6, 0.0, 10.000003, 9.997874 
1.7050546e+3, 2.3611043e+2, -629928.8, -835069.7, -8313.286, 0.062885255, 0.20809472, -629592.5, -3461.578, 0.0, 10.0009, 9.998183 
1.705044e+3, 2.4610832e+2, -411684.75, -562818.56, 53362.24, 0.035162773, 0.1261155, -394742.8, 133406.48, 0.0, 10.001214, 9.999237 
1.7050336e+3, 2.5610524e+2, -320139.0, -468253.47, 13787.89, -0.057972163, -0.13380821, -318866.44, 111306.35, 0.0000000026261497, 10.001181, 9.999224 
1.7050229e+3, 2.661043e+2, -252414.16, -560600.06, -58707.617, -0.035961244, -0.057885528, -241609.5, 90571.34, 0.0000021613648, 10.001728, 9.997653 
1.7050123e+3, 2.7610475e+2, -15573.022, -390453.1, -88972.234, 0.056770794, 0.18811938, 4471.4595, 238650.67, 0.000036573332, 10.002669, 9.99769 
1.705001e+3, 2.861016e+2, -32945.918, -448477.25, -51608.24, 0.07999164, 0.16082178, -26632.2, 109581.25, 0.00022753773, 10.002297, 9.996806 
1.7049891e+3, 2.9609615e+2, -74271.21, -358381.06, -12248.116, 0.048505213, -0.101964794, -73744.164, -35473.098, 0.0007845109, 10.001083, 9.9973345 
1.704979e+3, 3.0609623e+2, 259559.69, 69100.76, 16874.768, 0.11265687, 0.054263636, 261043.23, 261043.23, 0.001811542, 10.002009, 9.999486 
1.7049673e+3, 3.160973e+2, 649840.1, 342259.6, -85413.0, 0.0025938377, 0.18156512, 671967.0, 671967.0, 0.0031792617, 10.004297, 10.000267 
1.71517e+3, 1.2611787e+2, -1703697.8, -1671086.1, -32597.35, -0.10956044, -0.17708807, -1650943.9, 53098.1, 0.058051143, 9.999847, 10.000378 
1.715157e+3, 1.3611995e+2, -2103436.0, -1799893.9, -40470.4, -0.119268276, -0.0081024, -1794590.8, -188562.19, 0.037118543, 9.996435, 10.000446 
1.7151478e+3, 1.4612198e+2, -1925211.5, -1473088.6, 10899.828, 0.07379662, 0.05533498, -1472826.0, 35184.535, 0.018276531, 9.996144, 10.002169 
1.7151384e+3, 1.5612476e+2, -1597366.5, -1282567.1, 47583.258, 0.16022252, 0.09447243, -1275531.9, 134449.83, 0.005915651, 9.997813, 10.001989 
1.7151278e+3, 1.6612606e+2, -1544224.0, -1434161.1, 47504.215, 0.10244194, 0.14159358, -1416493.8, -104523.61, 0.0009130136, 9.998476, 9.999954 
1.7151168e+3, 1.761262e+2, -1448594.3, -1317132.9, 52894.28, -0.006532205, 0.12883773, -1298493.4, -84522.05, 0.000025810483, 9.998387, 10.000123 
1.7151071e+3, 1.8612579e+2, -1247329.5, -1198685.5, 47232.613, 0.009643365, 0.09354331, -1169880.5, -53907.445, 0.0, 9.999207, 9.999877 
1.7150983e+3, 1.9612503e+2, -943799.7, -1004722.7, 54098.35, 0.098014146, 0.0008846026, -912176.3, 105798.67, 0.0, 10.00064, 9.99984 
1.7150873e+3, 2.0612392e+2, -969375.4, -1158366.9, 855.76495, 0.040579103, 0.0048748427, -969371.5, -49386.15, 0.0, 10.000623, 9.998117 
1.7150752e+3, 2.1612257e+2, -996138.3, -1098290.8, -7871.5337, -0.09848107, 0.028630203, -995535.3, -173534.06, 0.0, 9.999678, 9.998308 
1.715065e+3, 2.2612093e+2, -861784.94, -966824.7, -2912.243, -0.07312906, 0.029192662, -861704.3, -137684.78, 0.0, 9.999834, 9.998476 
1.7150559e+3, 2.3611914e+2, -613186.56, -773793.7, 30486.545, 0.060183644, -0.029229239, -607594.3, 18444.84, 0.0, 10.000784, 9.998662 
1.715046e+3, 2.4611841e+2, -475274.44, -659360.6, 44465.848, 0.08785455, 0.035740286, -465096.5, 62950.49, 0.0, 10.001062, 9.998646 
1.7150359e+3, 2.561183e+2, -379686.8, -564477.2, 27027.959, 0.04596069, 0.12847027, -375814.78, 54233.184, 0.0000000000058928205, 10.001061, 9.998619 
1.7150253e+3, 2.661165e+2, -310890.3, -646037.06, -32612.422, 0.009328839, 0.17297809, -307746.38, 24321.777, 0.0000014626683, 10.001578, 9.997137 
1.7150144e+3, 2.7611372e+2, -56532.43, -437995.9, -51333.73, -0.02142547, 0.14718966, -49745.188, 184354.45, 0.000032081512, 10.002517, 9.997434 
1.7150033e+3, 2.8611177e+2, 39289.387, -261417.06, -105714.65, 0.0529788, 0.17380024, 72734.09, 208853.03, 0.00021186807, 10.0021305, 9.998175 
1.714992e+3, 2.961103e+2, -20693.379, -216478.52, -25668.725, 0.19064832, 0.1672748, -17383.979, 20747.55, 0.00073607016, 10.000951, 9.998371 
1.7149824e+3, 3.0610895e+2, 84758.83, -232435.22, 93350.336, 0.24362794, 0.24492268, 110192.516, 110192.516, 0.0016998283, 10.001761, 9.997528 
1.7149715e+3, 3.1610543e+2, 444448.53, 12902.984, 15524.52, -0.037762515, 0.107794076, 445006.3, 445006.3, 0.0029923418, 10.003918, 9.998164 
1.7251694e+3, 1.2612885e+2, -2194586.0, -1877911.6, -170619.44, 0.04201899, -0.15131642, -1803479.3, -99546.85, 0.06177432, 9.996352, 10.000629 
1.7251544e+3, 1.3613056e+2, -1811593.8, -1642137.9, -64345.76, -0.11215029, -0.047078736, -1620474.1, -14552.441, 0.039721623, 9.998363, 10.000591 
1.7251462e+3, 1.4613225e+2, -1588605.8, -1356168.1, 42619.883, 0.16598237, -0.0020619312, -1348599.8, 159307.4, 0.019743169, 9.998628, 10.001792 
1.7251368e+3, 1.5613456e+2, -1637698.6, -1327881.5, -1625.1666, 0.2345964, 0.022030894, -1327873.0, 82011.0, 0.006494274, 9.9976225, 10.00178 
1.7251265e+3, 1.6613631e+2, -1613492.3, -1418636.4, 27026.844, 0.15219529, 0.099932045, -1414957.1, -103089.64, 0.001032908, 9.997802, 10.000383 
1.7251156e+3, 1.7613733e+2, -1335623.5, -1225454.4, 61590.73, 0.017311346, 0.1320717, -1197908.9, 15949.832, 0.00003215152, 9.999006, 10.00045 
1.7251065e+3, 1.8613675e+2, -1199206.4, -1227682.6, 84171.75, 0.019737368, 0.09250482, -1128077.0, -12213.909, 0.0, 9.999766, 9.999403 
1.7250985e+3, 1.9613531e+2, -1005890.56, -1076893.6, 32348.371, 0.08117196, -0.022554742, -993363.2, 24511.379, 0.0, 10.000402, 9.999451 
1.7250882e+3, 2.0613407e+2, -941277.1, -1133059.6, -41414.996, 0.064566545, -0.02155342, -932715.8, -12829.381, 0.0, 10.000757, 9.998234 
1.7250766e+3, 2.1613286e+2, -797071.1, -986038.9, -15678.647, 0.003474192, 0.0064181904, -795779.1, 26120.443, 0.0, 10.000967, 9.998465 
1.7250659e+3, 2.2613147e+2, -697005.1, -828497.1, 37995.23, -0.0033804143, -0.003109551, -686815.75, 37097.773, 0.0, 10.000734, 9.9989805 
1.7250557e+3, 2.3613003e+2, -660531.4, -752323.9, 44140.934, 0.011806557, -0.07255038, -642749.6, -16822.248, 0.0, 10.000286, 9.999041 
1.7250466e+3, 2.4612953e+2, -580881.8, -753896.25, 81397.58, 0.071732365, 0.021339927, -548607.44, -20673.615, 0.0, 10.000532, 9.998243 
1.725038e+3, 2.5612956e+2, -381032.7, -599665.44, 63392.184, 0.15120997, 0.16997789, -363981.97, 65954.32, 0.0000000000049057277, 10.001214, 9.998295 
1.7250277e+3, 2.6612753e+2, -300933.2, -606819.7, 69114.46, 0.109525666, 0.18787633, -286041.84, 45917.12, 0.0000011502509, 10.001493, 9.997445 
1.7250164e+3, 2.7612415e+2, -187973.39, -477333.0, 88428.22, -0.011778759, 0.073515736, -163089.66, 70904.84, 0.000029088935, 10.001492, 9.997661 
1.7250055e+3, 2.861225e+2, 73731.66, -265428.28, -4630.54, 0.054930378, 0.12751412, 73794.87, 209805.56, 0.00020043374, 10.002465, 9.99798 
1.7249946e+3, 2.961218e+2, 422269.2, -30631.838, -76895.58, 0.22150666, 0.22160178, 434968.78, 472984.25, 0.00069488265, 10.004128, 9.998111 
1.7249857e+3, 3.0611926e+2, 316111.47, -183717.03, 78217.14, 0.3225176, 0.22217418, 328065.63, 328065.63, 0.0016016935, 10.003601, 9.996999 
1.7249754e+3, 3.161145e+2, 43597.45, -267159.1, 48413.55, 0.092922784, 0.019114671, 50965.24, 50965.24, 0.0028259312, 10.00148, 9.99745 
1.7351662e+3, 1.2614281e+2, -2080048.1, -1660108.9, -223603.03, 0.03135048, 0.31178916, -1563344.8, 140462.73, 0.06561491, 9.9964075, 10.002155 
1.7351545e+3, 1.3614158e+2, -1736149.1, -1469010.6, 7437.9478, 0.041392516, -0.048858248, -1468803.8, 137012.22, 0.042436883, 9.998266, 10.001868 
1.7351466e+3, 1.4614333e+2, -1675371.5, -1530033.4, -4049.3547, 0.32020405, 0.016637325, -1529920.6, -22122.436, 0.021297567, 9.998617, 10.000577 
1.7351343e+3, 1.5614359e+2, -1695767.6, -1446225.5, -26100.17, 0.18880998, -0.05984255, -1443524.9, -33728.105, 0.0071235094, 9.997624, 10.000957 
1.7351238e+3, 1.6614482e+2, -1528596.8, -1265214.0, 63674.734, 0.101147324, -0.054986134, -1250628.0, 61154.28, 0.0011691477, 9.997882, 10.001406 
1.735116e+3, 1.7614661e+2, -1281238.9, -1116313.1, 110161.164, 0.12840341, -0.043618906, -1061169.4, 152590.72, 0.00004011834, 9.99901, 10.001203 
1.7351072e+3, 1.8614654e+2, -1266893.0, -1371779.8, 95618.28, 0.07677278, -0.012094415, -1210280.6, -94518.766, 0.0, 9.999782, 9.998406 
1.7350978e+3, 1.9614528e+2, -1076477.9, -1201548.0, 59809.383, -0.058574885, -0.009971882, -1052480.9, -34701.87, 0.0, 10.000311, 9.998638 
1.7350885e+3, 2.0614414e+2, -900673.5, -1030087.1, -42515.523, 0.0016616051, -0.0054440773, -887955.9, 31835.145, 0.0, 10.000673, 9.998981 
1.7350796e+3, 2.1614295e+2, -762648.0, -891602.6, -3488.723, 0.2015428, -0.050599217, -762553.7, 59246.973, 0.0, 10.000866, 9.999161 
1.7350678e+3, 2.2614263e+2, -695862.5, -794366.25, 12608.539, 0.111330904, -0.0025140028, -694274.2, 29527.895, 0.0, 10.000595, 9.999282 
1.7350544e+3, 2.361429e+2, -658408.8, -721118.1, 40367.563, -0.15857182, 0.064470395, -638649.3, -12851.693, 0.0, 10.000167, 9.999312 
1.7350456e+3, 2.461415e+2, -622760.44, -799118.0, 99245.96, -0.09502817, 0.069332026, -578179.06, -50366.99, 0.0, 10.000358, 9.998016 
1.7350397e+3, 2.5613907e+2, -404488.03, -614641.5, 97292.77, 0.18077652, -0.009693276, -366362.1, 63476.402, 0.000000000000012544113, 10.00108, 9.998253 
1.7350301e+3, 2.6613736e+2, -247375.44, -460831.94, 62619.477, 0.17614815, -0.015318816, -230361.55, 101492.875, 0.0000010511417, 10.001341, 9.998523 
1.7350182e+3, 2.761362e+2, -155969.48, -378676.0, 106982.15, -0.0027503558, -0.019716717, -112905.36, 120958.1, 0.000028849088, 10.001358, 9.998399 
1.7350075e+3, 2.8613377e+2, -87672.69, -563273.44, 46008.426, -0.016212635, 0.033774957, -83262.836, 52626.1, 0.00019664556, 10.002302, 9.996014 
1.7349973e+3, 2.961303e+2, 280033.88, -283881.0, -15018.849, 0.054492116, 0.045483638, 280433.6, 318360.25, 0.0006730319, 10.003953, 9.996452 
1.7349887e+3, 3.0612683e+2, 334586.88, -81372.484, -13147.446, 0.22562078, -0.023259703, 335002.0, 335002.0, 0.0015496872, 10.003337, 9.997821 
1.7349784e+3, 3.1612355e+2, 41307.28, -172861.6, -10402.359, 0.20950244, -0.16938832, 41811.344, 41811.344, 0.002746368, 10.001081, 9.998275 
1.7451629e+3, 1.2615351e+2, -2002800.6, -1654790.8, -124541.83, 0.037479836, 0.31007504, -1614813.5, 88888.48, 0.06957688, 9.99709, 10.001847 
1.7451535e+3, 1.3615207e+2, -1913981.9, -1546058.0, 14064.544, 0.17547993, -0.07662084, -1545521.1, 60191.12, 0.045260757, 9.997026, 10.001915 
1.7451447e+3, 1.4615422e+2, -1815053.3, -1642432.5, -1824.5868, 0.31205225, 0.05106602, -1642413.3, -134721.42, 0.022935338, 9.997862, 10.000167 
1.7451324e+3, 1.5615445e+2, -1459616.3, -1367960.1, 708.1429, 0.14753053, 0.006732405, -1367954.8, 41738.473, 0.0078018596, 9.999404, 10.000631 
1.7451225e+3, 1.6615516e+2, -1320793.9, -1175082.4, 69038.07, 0.099018104, -0.021643957, -1147567.8, 164115.52, 0.0013223152, 9.999347, 10.001323 
1.745115e+3, 1.7615627e+2, -1357731.6, -1162506.8, 27016.445, 0.17467971, -0.06935644, -1158837.0, 54828.387, 0.000049909977, 9.998519, 10.00113 
1.7451069e+3, 1.8615635e+2, -1415742.9, -1425414.9, 65611.33, 0.12130741, -0.027799835, -1354789.6, -239123.94, 0.0000000000000006446772, 9.998691, 9.99856 
1.7450976e+3, 1.9615567e+2, -1181675.0, -1233032.8, 94200.3, -0.04595035, 0.016071504, -1109716.4, -92037.95, 0.0, 9.999502, 9.998809 
1.7450887e+3, 2.0615491e+2, -1006296.1, -1032631.9, 7735.75, 0.01612959, 0.03041821, -1004191.94, -84505.91, 0.0, 9.999742, 9.999408 
1.74508e+3, 2.1615416e+2, -897609.56, -910405.6, 4166.5337, 0.22650006, -0.017944992, -896372.5, -74682.54, 0.0, 9.999743, 9.999568 
1.7450686e+3, 2.2615361e+2, -765823.56, -833289.1, 11609.8545, 0.15359879, -0.008224598, -763881.56, -40189.566, 0.0, 10.000126, 9.99925 
1.7450555e+3, 2.3615319e+2, -577993.94, -686024.44, -19.439577, -0.104147054, -0.0033867953, -577993.94, 47698.848, 0.0, 10.000728, 9.99929 
1.7450467e+3, 2.4615166e+2, -507110.53, -725357.56, 90971.3, -0.05728935, -0.02018374, -474164.66, 53543.16, 0.0, 10.001078, 9.998174 
1.7450407e+3, 2.5614935e+2, -363621.9, -585597.94, 92382.805, 0.17182688, -0.0995421, -330204.53, 99527.91, 0.0, 10.001309, 9.998348 
1.7450318e+3, 2.661477e+2, -193404.94, -449551.22, 23907.14, 0.19465119, -0.09757711, -191192.7, 140555.0, 0.0000010008785, 10.00178, 9.998389 
1.7450207e+3, 2.7614647e+2, 2171.9104, -318971.13, -41865.426, 0.075443186, -0.08788587, 7539.918, 241296.84, 0.00002996529, 10.002514, 9.998253 
1.7450106e+3, 2.8614396e+2, -22802.857, -535123.25, -17413.809, 0.05445448, -0.035171602, -22211.645, 113571.87, 0.00019663884, 10.002771, 9.995976 
1.7450008e+3, 2.961403e+2, 74242.03, -400266.53, 27242.813, 0.08255268, -0.03566735, 75800.99, 113624.64, 0.00067006296, 10.002599, 9.996311 
1.7449917e+3, 3.0613664e+2, 280953.97, -104581.586, 24353.244, 0.22928223, -0.11283455, 282486.22, 282486.22, 0.0015536589, 10.002936, 9.997858 
1.7449819e+3, 3.16134e+2, 476013.63, 76047.336, -100694.445, 0.30931795, -0.20621918, 499933.63, 499933.63, 0.0027788058, 10.003887, 9.998626 
1.7551586e+3, 1.2616046e+2, -2166415.5, -1973726.8, -158321.94, -0.13974229, -0.20582181, -1884738.9, -181117.6, 0.07366958, 9.997034, 9.99964 
1.7551512e+3, 1.3616228e+2, -2002640.3, -1717238.5, 23656.67, 0.22404245, -0.11616381, -1715290.9, -109682.836, 0.048192136, 9.996993, 10.000733 
1.7551403e+3, 1.4616533e+2, -1785413.0, -1588208.0, 47483.457, 0.054406114, 0.13173132, -1577370.4, -69786.14, 0.024652572, 9.9978895, 10.000528 
1.7551309e+3, 1.561671e+2, -1458090.0, -1357514.5, 54536.18, 0.042434644, 0.2166966, -1333619.8, 75953.94, 0.008527423, 9.9993725, 10.000722 
1.7551218e+3, 1.6616714e+2, -1403238.9, -1347126.8, 23140.953, 0.06674957, 0.18413684, -1338814.6, -27242.502, 0.0014925194, 9.99935, 10.000141 
1.755113e+3, 1.7616624e+2, -1423728.1, -1289719.6, 9999.895, 0.091624424, 0.047898564, -1288977.5, -75402.6, 0.00006156021, 9.998482, 10.000273 
1.7551053e+3, 1.8616618e+2, -1325647.1, -1238675.9, 91040.45, 0.07426382, 0.04448595, -1181268.8, -65694.836, 0.0000000010737394, 9.998692, 9.99984 
1.7550983e+3, 1.9616655e+2, -1109367.4, -1072797.1, 128390.55, 0.038722947, 0.06407468, -961396.1, 56175.832, 0.0, 9.999461, 9.9999275 
1.7550887e+3, 2.0616648e+2, -1008154.1, -1024476.8, -3066.7385, 0.019537225, 0.09325377, -1007596.94, -88025.96, 0.0, 9.999684, 9.999494 
1.7550778e+3, 2.1616626e+2, -908043.8, -910607.5, 12557.753, 0.01825967, 0.089435786, -896702.6, -75133.336, 0.0, 9.999645, 9.999617 
1.7550679e+3, 2.2616425e+2, -810726.4, -896791.5, 27110.695, 0.05070702, -0.028771041, -802898.44, -79313.67, 0.0, 9.999999, 9.998876 
1.7550582e+3, 2.3616104e+2, -615477.56, -737664.0, 31279.361, 0.097550675, -0.26542506, -607935.6, 17675.89, 0.0, 10.000615, 9.998991 
1.7550494e+3, 2.4616003e+2, -500000.28, -675675.94, 93575.81, 0.080517605, -0.23983617, -459495.16, 68125.48, 0.0, 10.000923, 9.998592 
1.7550409e+3, 2.5616047e+2, -364540.63, -559736.3, 111601.22, 0.044745367, -0.09097964, -313881.38, 115736.87, 0.0, 10.001193, 9.99858 
1.7550325e+3, 2.6615846e+2, -311044.75, -671935.56, 41953.38, 0.07912874, -0.051683288, -306231.88, 25407.8, 0.00000094846536, 10.001678, 9.996913 
1.755024e+3, 2.7615502e+2, -91967.36, -478686.8, -5670.767, 0.13854583, -0.12514123, -91884.23, 141791.11, 0.000030532858, 10.002371, 9.997217 
1.7550148e+3, 2.8615302e+2, 81884.82, -286091.5, -31504.295, 0.16808017, -0.0772173, 84562.58, 220257.81, 0.00019885889, 10.002624, 9.997763 
1.7550048e+3, 2.9615173e+2, 148749.75, -209247.98, 38627.34, 0.20005724, -0.02049409, 152870.16, 190577.28, 0.0006867094, 10.002443, 9.997699 
1.7549945e+3, 3.0614886e+2, 171287.14, -270804.44, 43804.81, 0.19736804, -0.013639964, 175585.75, 175585.75, 0.0016096956, 10.002681, 9.996833 
1.7549853e+3, 3.1614634e+2, 372890.72, -41782.465, -37099.7, 0.2295591, -0.019136718, 376183.78, 376183.78, 0.002898753, 10.0035, 9.997989 
1.765156e+3, 1.261703e+2, -1989721.9, -1863848.8, -164069.39, -0.1570276, -0.2669445, -1751058.9, -47534.836, 0.07790593, 9.998112, 9.999879 
1.7651488e+3, 1.3617235e+2, -1840221.4, -1657942.3, -10169.72, 0.24185428, -0.1466789, -1657376.6, -51870.375, 0.05123237, 9.998157, 10.000591 
1.7651364e+3, 1.4617495e+2, -1836264.1, -1650176.6, 77363.984, -0.09050644, 0.085411526, -1622214.9, -114727.625, 0.026445003, 9.9977045, 10.000195 
1.76513e+3, 1.5617727e+2, -1632502.9, -1479770.8, 22558.268, 0.08199237, 0.25980124, -1476508.6, -67034.26, 0.009296644, 9.99835, 10.000373 
1.7651215e+3, 1.6617718e+2, -1487731.4, -1410135.4, -10912.68, 0.14248869, 0.24288176, -1408629.9, -97154.69, 0.0016790463, 9.998882, 9.999924 
1.7651114e+3, 1.761756e+2, -1340225.4, -1264264.6, 25404.652, 0.05407182, 0.05873363, -1256551.4, -43066.527, 0.000074904594, 9.999123, 10.000132 
1.765104e+3, 1.8617547e+2, -1220587.5, -1134282.1, 138421.6, 0.045083933, 0.025006698, -1032442.75, 83040.234, 0.000000009428086, 9.999174, 10.000331 
1.7650983e+3, 1.9617625e+2, -1088427.1, -1011181.5, 102202.32, 0.10576845, 0.039024584, -940547.56, 76926.516, 0.0, 9.999378, 10.0004 
1.765089e+3, 2.061763e+2, -979545.44, -1000289.1, -40784.473, 0.067503296, 0.055180356, -947834.7, -28363.494, 0.0, 9.999844, 9.999578 
1.7650773e+3, 2.1617594e+2, -782673.0, -843784.4, -39938.133, -0.04223136, 0.03179559, -762942.44, 58529.145, 0.0, 10.000485, 9.999667 
1.7650679e+3, 2.2617404e+2, -681211.06, -841848.7, 5741.232, 0.018178787, -0.07321665, -681006.1, 42480.508, 0.0, 10.00093, 9.998796 
1.76506e+3, 2.3617113e+2, -518761.16, -696343.6, 11030.772, 0.17602657, -0.27502623, -518078.6, 107432.48, 0.0, 10.00131, 9.998932 
1.7650513e+3, 2.4617034e+2, -415381.47, -641304.25, 65101.297, 0.16253303, -0.22140981, -397964.72, 129553.516, 0.0, 10.001527, 9.998544 
1.7650422e+3, 2.5617096e+2, -299583.25, -534417.06, 35746.0, 0.04335807, -0.046561647, -294262.6, 135251.75, 0.0, 10.001662, 9.998532 
1.7650345e+3, 2.6616865e+2, -263089.66, -642495.0, 48767.79, 0.08127808, -0.037040036, -256921.44, 74616.79, 0.0000007067664, 10.001991, 9.996962 
1.765027e+3, 2.761645e+2, -77159.63, -468473.22, 87649.64, 0.19478558, -0.18487415, -58424.17, 175156.05, 0.00002910251, 10.002449, 9.99726 
1.7650183e+3, 2.8616253e+2, 164851.47, -195482.75, 46146.375, 0.24608546, -0.15697978, 170667.34, 306266.22, 0.00020251243, 10.002979, 9.998211 
1.7650086e+3, 2.9616198e+2, 356819.97, -74304.086, -20400.713, 0.27856958, -0.0638087, 357783.16, 395385.7, 0.0007167565, 10.00372, 9.99801 
1.7649977e+3, 3.061599e+2, 265721.88, -271050.25, -5010.3774, 0.21277682, 0.027817229, 265768.63, 265768.63, 0.0016880381, 10.003528, 9.996426 
1.7649888e+3, 3.161567e+2, 217796.98, -150651.61, -77031.4, 0.289299, 0.004329322, 233253.5, 233253.5, 0.0030287413, 10.00256, 9.99771 
1.7751549e+3, 1.2618344e+2, -1789626.5, -1473835.1, -879.2273, -0.110857494, 0.14538123, -1473832.8, 229573.64, 0.08231803, 9.998137, 10.00268 
1.7751463e+3, 1.3618232e+2, -1779465.5, -1533837.8, -31540.693, 0.14647546, -0.16650766, -1529852.4, 75553.6, 0.054393712, 9.9981365, 10.001486 
1.7751333e+3, 1.4618297e+2, -1906788.3, -1796019.1, 75749.11, -0.21219142, -0.11031085, -1757566.6, -250163.89, 0.02831169, 9.997697, 9.999199 
1.7751296e+3, 1.5618512e+2, -1689910.1, -1590918.4, 57491.664, 0.17788823, 0.1426751, -1564551.8, -155157.67, 0.010105246, 9.998319, 9.999622 
1.7751215e+3, 1.6618553e+2, -1440974.1, -1318131.5, -7457.704, 0.23559126, 0.17040142, -1317680.4, -6289.679, 0.0018804772, 9.998902, 10.000546 
1.7751099e+3, 1.7618439e+2, -1310560.4, -1195010.1, 37844.195, -0.006844776, -0.02733831, -1183719.0, 29676.018, 0.00008970714, 9.999095, 10.000618 
1.7751025e+3, 1.8618417e+2, -1234906.4, -1171532.6, 135532.92, -0.046098024, -0.07474426, -1064031.8, 51361.094, 0.000000028818846, 9.999201, 10.000064 
1.7750977e+3, 1.9618472e+2, -1108147.9, -1044786.4, 118802.72, 0.08403164, -0.058628574, -953512.8, 63872.2, 0.0, 9.999343, 10.000188 
1.775089e+3, 2.0618433e+2, -982690.2, -992728.9, -24267.307, 0.07301978, -0.083574995, -962928.56, -43541.41, 0.0, 9.99979, 9.999651 
1.775078e+3, 2.1618326e+2, -800378.4, -847007.06, -11032.154, -0.02920863, -0.18837556, -797899.94, 23496.58, 0.0, 10.000352, 9.9997015 
1.7750686e+3, 2.2618301e+2, -691369.75, -833015.9, 12842.224, -0.020905606, -0.13472985, -690214.8, 33182.49, 0.0, 10.000792, 9.998928 
1.7750603e+3, 2.3618333e+2, -525089.75, -688942.1, 33758.773, 0.068372704, -0.030875929, -518406.97, 106985.37, 0.0, 10.001214, 9.999033 
1.7750524e+3, 2.461824e+2, -472938.4, -728439.6, 61179.105, 0.10603718, 0.031999297, -459044.72, 68357.734, 0.0, 10.001389, 9.998011 
1.7750446e+3, 2.561808e+2, -343232.06, -589731.6, 50514.37, 0.10564722, 0.036455795, -333281.97, 96139.18, 0.0, 10.001519, 9.998217 
1.775037e+3, 2.661782e+2, -181961.17, -440961.22, 59286.953, 0.12546483, -0.052533746, -169035.08, 162409.25, 0.00000032366296, 10.001843, 9.99842 
1.7750293e+3, 2.761749e+2, -20680.738, -308938.7, 117080.34, 0.15896986, -0.257343, 20880.807, 254352.28, 0.00002512301, 10.002281, 9.998431 
1.7750208e+3, 2.8617257e+2, 62128.336, -375125.56, 62716.49, 0.18275842, -0.25140834, 70946.11, 206439.6, 0.00020058491, 10.00282, 9.997061 
1.7750119e+3, 2.96171e+2, 271908.72, -216768.17, 13117.349, 0.22006647, -0.15607855, 272260.6, 309771.28, 0.0007353983, 10.003572, 9.997103 
1.7750008e+3, 3.0616954e+2, 244429.9, -255892.58, -49926.754, 0.15392159, 0.015945667, 249363.4, 249363.4, 0.001730267, 10.0032835, 9.996643 
1.774992e+3, 3.1616667e+2, 158350.56, -152489.6, -49652.313, 0.3336464, 0.01177403, 166089.16, 166089.16, 0.0030651416, 10.00209, 9.997899 
1.7851532e+3, 1.2619248e+2, -1892318.5, -1490816.8, 83463.914, -0.044256672, 0.23673071, -1474157.5, 229163.27, 0.08696164, 9.99736, 10.002909 
1.7851435e+3, 1.3619104e+2, -1870571.0, -1611423.5, -230557.31, 0.07632192, -0.066296324, -1476524.1, 128801.08, 0.057701517, 9.997683, 10.001176 
1.7851315e+3, 1.461911e+2, -1870734.1, -1724361.3, -51725.08, -0.14663276, -0.082734875, -1707927.6, -200602.1, 0.030258754, 9.997713, 9.999684 
1.7851284e+3, 1.5619242e+2, -1647129.0, -1526774.1, 20499.305, 0.2323144, 0.04221252, -1523378.4, -114057.945, 0.0109521225, 9.99842, 10.000017 
1.7851205e+3, 1.6619317e+2, -1455509.8, -1320551.8, -30305.053, 0.24227314, 0.08326176, -1314059.1, -2745.4744, 0.0020959692, 9.998773, 10.000592 
1.7851089e+3, 1.7619309e+2, -1321866.6, -1192549.9, -46306.71, -0.022256512, -0.016391626, -1177678.3, 35631.97, 0.000105867584, 9.998976, 10.000694 
1.7851014e+3, 1.8619308e+2, -1252365.6, -1142568.8, 72792.38, -0.04210602, -0.06326548, -1106293.9, 9011.9, 0.0000000562377, 9.998931, 10.000392 
1.7850968e+3, 1.961934e+2, -1158663.8, -1036463.75, 88878.4, 0.09860062, -0.10534658, -989709.3, 27588.896, 0.0, 9.9988575, 10.000477 
1.785089e+3, 2.0619306e+2, -1076565.6, -1059756.8, -16612.8, 0.10843664, -0.12662615, -1049543.5, -130242.96, 0.0, 9.999241, 9.999465 
1.7850788e+3, 2.1619225e+2, -857850.2, -892831.44, -37371.098, 0.032727614, -0.1831338, -834079.2, -12769.49, 0.0, 10.000032, 9.999551 
1.7850696e+3, 2.2619203e+2, -671534.9, -818260.3, -8607.646, -0.0018840831, -0.121636495, -671031.6, 52278.566, 0.0, 10.000905, 9.99898 
1.785061e+3, 2.3619226e+2, -437831.47, -642498.75, -20766.703, -0.012587959, -0.03152493, -435745.63, 189559.02, 0.0, 10.001798, 9.999074 
1.7850535e+3, 2.46191e+2, -412854.16, -696828.44, 11546.657, 0.060566798, -0.0033412974, -412385.44, 114931.37, 0.0, 10.001791, 9.998032 
1.7850466e+3, 2.561888e+2, -378291.1, -609845.06, 28231.83, 0.17315076, -0.056415834, -374898.66, 54441.547, 0.0, 10.001276, 9.998201 
1.7850393e+3, 2.6618686e+2, -201679.83, -438806.4, 39280.754, 0.19403051, -0.08696354, -195342.23, 136015.98, 0.00000018370703, 10.001655, 9.998525 
1.7850316e+3, 2.7618492e+2, 45583.477, -276526.63, -27396.84, 0.14224252, -0.16459323, 47897.074, 281271.25, 0.000020759246, 10.002705, 9.998459 
1.7850234e+3, 2.8618214e+2, 68189.68, -400547.5, -72622.62, 0.1442561, -0.18832903, 79183.44, 214585.03, 0.00019242667, 10.003019, 9.996773 
1.7850149e+3, 2.961792e+2, 172995.31, -286686.8, -91165.1, 0.20174778, -0.20039892, 190415.22, 227848.22, 0.00073228433, 10.003008, 9.996885 
1.7850038e+3, 3.061781e+2, 293882.25, -170727.42, -120864.766, 0.13689674, -0.007660878, 323443.47, 323443.47, 0.0017135036, 10.003354, 9.997192 
1.7849952e+3, 3.161763e+2, 397188.72, -39267.64, -128369.44, 0.37528872, 0.054839466, 432144.78, 432144.78, 0.0029749514, 10.003707, 9.997912 
1.795151e+3, 1.2619764e+2, -2049584.1, -1809470.8, 120115.91, -0.058600504, 0.013323684, -1759699.8, -56433.98, 0.09190124, 9.997395, 10.00057 
1.7951398e+3, 1.3619857e+2, -1968441.3, -1816120.0, -229050.25, -0.076816246, 0.14516324, -1650900.4, -45637.215, 0.06119029, 9.997687, 9.999733 
1.7951313e+3, 1.4619961e+2, -1742980.9, -1463606.9, -45211.99, 0.020551829, 0.18055217, -1456472.3, 50780.867, 0.03230053, 9.997723, 10.001481 
1.7951265e+3, 1.5619926e+2, -1554619.5, -1321401.8, 53194.176, 0.18072039, -0.028994586, -1309841.8, 99411.055, 0.011841973, 9.998366, 10.001455 
1.7951179e+3, 1.6620016e+2, -1485086.8, -1388672.6, -31824.963, 0.08626994, -0.00857669, -1379115.0, -67871.5, 0.0023264778, 9.998788, 10.000124 
1.7951077e+3, 1.7620161e+2, -1341075.1, -1233177.6, -34111.28, -0.058340162, 0.09021906, -1223298.1, -10067.113, 0.00012352158, 9.998972, 10.000422 
1.7951007e+3, 1.862022e+2, -1187681.9, -1009601.75, 62238.637, -0.029454406, 0.058942556, -990005.8, 125215.58, 0.000000085167756, 9.99894, 10.001298 
1.7950957e+3, 1.9620222e+2, -1118919.1, -940087.4, 95336.87, 0.078890026, -0.096855745, -898796.25, 118417.445, 0.0, 9.998799, 10.001165 
1.7950882e+3, 2.0620252e+2, -1114699.0, -1126394.4, 4115.0347, 0.09297088, -0.061126616, -1113396.3, -194185.48, 0.0, 9.999182, 9.999037 
1.7950794e+3, 2.1620296e+2, -897052.2, -954270.3, 923.15576, 0.075157106, 0.048499413, -897037.3, -75826.45, 0.0, 9.999943, 9.999175 
1.7950706e+3, 2.2620104e+2, -701402.7, -849995.3, 18609.787, -0.00468961, -0.034850154, -699107.44, 24118.396, 0.0, 10.000777, 9.998822 
1.7950617e+3, 2.3619775e+2, -466604.22, -665767.75, 14836.238, -0.13369575, -0.28233865, -465505.1, 159744.2, 0.0, 10.001647, 9.998982 
1.7950544e+3, 2.4619602e+2, -399044.72, -632116.4, -14394.151, -0.05171399, -0.3286182, -398159.13, 129103.375, 0.0, 10.001634, 9.998554 
1.7950481e+3, 2.5619516e+2, -374671.66, -570570.44, 25039.613, 0.17403315, -0.2987792, -371521.75, 57748.383, 0.0, 10.001149, 9.9985285 
1.7950413e+3, 2.661947e+2, -310674.03, -638276.7, 71278.65, 0.19621567, -0.12019281, -295837.4, 35441.55, 0.00000013255313, 10.00153, 9.997219 
1.7950335e+3, 2.7619448e+2, -51582.445, -440128.44, 16682.328, 0.06316608, 0.09832518, -50867.5, 182420.84, 0.0000188634, 10.002549, 9.997405 
1.7950253e+3, 2.861913e+2, 76959.26, -349782.25, -86016.54, 0.031192534, 0.05457168, 93644.85, 228966.84, 0.00018750537, 10.002865, 9.997203 
1.7950173e+3, 2.9618657e+2, 180459.3, -225350.23, -70503.805, 0.123097494, -0.18469968, 192359.39, 229727.98, 0.00072388566, 10.002819, 9.997394 
1.7950065e+3, 3.061856e+2, 293662.16, -115352.914, -118098.14, 0.035945915, -0.025153793, 325312.4, 325312.4, 0.0016682546, 10.003103, 9.9977 
1.7949976e+3, 3.1618553e+2, 362552.2, -30450.98, -36772.78, 0.1991094, 0.14243262, 365963.38, 365963.38, 0.00282097, 10.003387, 9.998108 
1.8051493e+3, 1.2620483e+2, -1995541.6, -1820355.3, 119877.336, 0.011284791, -0.05059306, -1759479.1, -56287.07, 0.097200245, 9.997936, 10.000235 
1.8051372e+3, 1.3620622e+2, -1981160.6, -1838714.0, -86524.26, -0.09370536, 0.15699913, -1797869.5, -192679.77, 0.06490086, 9.99767, 9.999592 
1.8051308e+3, 1.4620775e+2, -1685454.9, -1380136.5, 119531.33, 0.21463254, 0.209926, -1338907.8, 168267.31, 0.034457777, 9.997873, 10.001998 
1.8051246e+3, 1.562077e+2, -1571620.0, -1288722.8, 108604.83, 0.17334585, -0.014223909, -1251838.3, 157330.25, 0.0127833225, 9.998071, 10.0018215 
1.8051156e+3, 1.662086e+2, -1565221.9, -1403280.4, 29528.299, 0.012212694, -0.019262206, -1398064.3, -86905.555, 0.0025744103, 9.998163, 10.000318 
1.8051064e+3, 1.7621008e+2, -1400615.9, -1234417.6, 57343.344, -0.040938012, 0.06246286, -1216552.9, -3406.0989, 0.00014305822, 9.998475, 10.000641 
1.8051001e+3, 1.8621111e+2, -1214936.4, -1040664.25, 136898.05, 0.035466183, 0.07301272, -965523.5, 149610.98, 0.00000010953618, 9.998805, 10.001159 
1.8050948e+3, 1.962118e+2, -1073199.0, -933909.75, 82767.76, 0.1124705, -0.0033949087, -895383.8, 121738.68, 0.0, 9.999177, 10.001025 
1.8050878e+3, 2.0621194e+2, -1064459.9, -1135262.0, 6946.9277, 0.11884182, 0.037655108, -1063784.8, -144662.73, 0.0, 9.999654, 9.998758 
1.8050799e+3, 2.1621168e+2, -864224.9, -960738.2, 1046.8195, 0.11564143, 0.10380239, -864213.5, -43084.387, 0.0, 10.000253, 9.998983 
1.805072e+3, 2.2620974e+2, -670115.06, -784866.75, 61144.684, 0.064146094, 0.0011023361, -643641.9, 79501.34, 0.0, 10.000795, 9.9992485 
1.8050641e+3, 2.3620676e+2, -488369.34, -648856.2, 78690.45, -0.037124857, -0.25101563, -456224.2, 168937.55, 0.0, 10.001377, 9.9992285 
1.8050566e+3, 2.462046e+2, -367589.47, -678514.1, 11870.738, -0.0070404885, -0.3170417, -367136.9, 160042.13, 0.0, 10.002114, 9.998009 
1.8050495e+3, 2.56203e+2, -147275.83, -518236.94, -50627.863, 0.11015648, -0.305761, -140490.38, 288705.0, 0.0, 10.002942, 9.998038 
1.8050425e+3, 2.662022e+2, -202708.44, -577905.94, 25676.861, 0.1343445, -0.13970757, -200959.38, 130248.44, 0.00000007008213, 10.002247, 9.997286 
1.8050352e+3, 2.7620196e+2, -315226.97, -557653.7, 54718.23, 0.06319717, 0.07414693, -303448.72, -70231.05, 0.000018211342, 10.000698, 9.997497 
1.8050274e+3, 2.8619954e+2, -90847.31, -361370.0, 61044.79, 0.032741453, 0.06680808, -77710.21, 57533.574, 0.00018362651, 10.001396, 9.997839 
1.8050198e+3, 2.9619595e+2, 336482.44, -92291.65, 58546.133, 0.07251294, -0.11130346, 344332.78, 381610.9, 0.0007097157, 10.003615, 9.99794 
1.8050101e+3, 3.0619428e+2, 471091.72, -30710.39, -22683.15, 0.042734247, -0.05124543, 472115.0, 472115.0, 0.0016129982, 10.004329, 9.997689 
1.8050016e+3, 3.161942e+2, 417247.28, -48054.75, -3214.5774, 0.2552124, 0.14146866, 417269.47, 417269.47, 0.0026760024, 10.003883, 9.99779 
1.815147e+3, 1.2621376e+2, -1898434.9, -1628737.4, -83560.51, -0.054213546, 0.01305978, -1604946.5, 98155.99, 0.10291468, 9.997919, 10.001643 
1.8151353e+3, 1.3621406e+2, -1905245.9, -1669883.4, -75920.016, -0.066291034, -0.014781197, -1647519.3, -42414.074, 0.06887483, 9.997636, 10.000761 
1.8151303e+3, 1.4621553e+2, -1721370.0, -1466385.6, 118571.56, 0.34344673, 0.011804573, -1419770.1, 87321.336, 0.036753505, 9.99792, 10.001375 
1.8151224e+3, 1.562176e+2, -1609668.8, -1373757.5, 122624.36, 0.13140684, 0.074740164, -1321565.4, 87503.48, 0.01378539, 9.998091, 10.00123 
1.815113e+3, 1.6621846e+2, -1507069.0, -1289019.8, 28605.023, -0.0824434, 0.05114806, -1285329.6, 25729.404, 0.002842686, 9.998187, 10.001091 
1.8151052e+3, 1.7621846e+2, -1364107.4, -1156523.9, 75814.48, -0.027068028, -0.093681306, -1131783.4, 81274.54, 0.00016504708, 9.998456, 10.001189 
1.8150996e+3, 1.8621983e+2, -1292621.5, -1198260.6, 143142.6, 0.08015996, -0.012375358, -1094723.4, 20321.768, 0.00000012908751, 9.998793, 10.000083 
1.8150944e+3, 1.9622208e+2, -1142639.1, -1074187.0, 103864.95, 0.12638417, 0.17359807, -999054.25, 17970.955, 0.0, 9.999162, 10.000071 
1.8150875e+3, 2.062212e+2, -1080566.8, -1158606.6, 21460.727, 0.10642933, 0.16189292, -1075054.5, -156018.94, 0.0, 9.999612, 9.998616 
1.8150799e+3, 2.1621831e+2, -882664.3, -972305.2, 30975.549, 0.091601424, -0.021939842, -873002.1, -51936.805, 0.0, 10.000139, 9.998958 
1.8150736e+3, 2.2621804e+2, -626740.25, -661689.7, 74924.42, 0.13351153, -0.0096442, -567279.7, 155783.31, 0.0, 10.000646, 10.000173 
1.815068e+3, 2.3621933e+2, -465061.94, -572173.94, 111407.21, 0.19680151, 0.074798726, -395006.38, 230035.16, 0.0, 10.001253, 9.999816 
1.81506e+3, 2.4621683e+2, -511354.13, -943542.94, 36225.227, 0.09951794, 0.04851177, -508338.84, 18727.13, 0.0, 10.001966, 9.996261 
1.8150505e+3, 2.562121e+2, -258295.48, -718105.25, -20366.582, -0.083794475, -0.08914309, -257395.14, 171722.73, 0.0, 10.002811, 9.996725 
1.8150428e+3, 2.6620921e+2, -131735.84, -397321.16, -41994.01, -0.06942151, -0.15210494, -125253.99, 205892.66, 0.0000000874347, 10.002097, 9.9986 
1.815036e+3, 2.762074e+2, -252166.47, -390421.2, 25958.238, 0.059513737, -0.2291343, -247453.31, -14291.408, 0.00001648955, 10.000552, 9.99871 
1.8150291e+3, 2.8620687e+2, -69268.78, -284306.13, 136660.58, 0.034980662, -0.12952097, -2901.349, 132264.67, 0.00017232615, 10.0012455, 9.998444 
1.8150225e+3, 2.962073e+2, 354806.9, -23799.207, 146821.92, -0.056572177, 0.020548968, 405070.8, 442232.72, 0.0006746177, 10.003482, 9.998472 
1.8150145e+3, 3.06204e+2, 376070.97, -170572.16, -50180.113, 0.027640231, -0.06634213, 380639.16, 380639.16, 0.0015412994, 10.004088, 9.996843 
1.8150057e+3, 3.1620005e+2, 315336.66, -140092.89, 49803.043, 0.24406202, -0.18378757, 320719.2, 320719.2, 0.0025647236, 10.003421, 9.997354 
1.8251443e+3, 1.2622215e+2, -2142376.8, -1677421.0, -74834.86, -0.00047215342, -0.043540314, -1665673.1, 37343.62, 0.10907774, 9.99595, 10.002216 
1.8251343e+3, 1.3622257e+2, -1708536.6, -1576475.1, -47435.992, 0.0052790865, -0.0833206, -1561202.5, 43813.836, 0.07313931, 9.998957, 10.000793 
1.8251291e+3, 1.4622374e+2, -1524564.1, -1444171.6, 45856.914, 0.3538309, -0.050147224, -1423387.6, 83619.26, 0.039204508, 9.999605, 10.000706 
1.8251202e+3, 1.5622576e+2, -1611596.6, -1438583.5, 30986.816, 0.0857112, 0.074236944, -1433201.1, -24213.117, 0.014855209, 9.9983635, 10.000644 
1.8251109e+3, 1.6622655e+2, -1524311.4, -1276072.0, -41423.516, -0.10458996, 0.061097976, -1269342.1, 41637.06, 0.0031336718, 9.997967, 10.001288 
1.825104e+3, 1.762266e+2, -1382625.0, -1148278.9, -45247.26, 0.031183036, -0.101531945, -1139846.1, 73130.195, 0.00019006866, 9.998257, 10.001338 
1.8250993e+3, 1.8622766e+2, -1300530.5, -1253776.6, 60361.695, 0.1535715, -0.031906165, -1212423.3, -97456.04, 0.00000015151502, 9.998972, 9.999609 
1.825094e+3, 1.9622934e+2, -1040059.56, -1065213.9, 47954.77, 0.14512093, 0.14543858, -1003060.06, 13894.393, 0.0, 10.000061, 9.99969 
1.8250877e+3, 2.0622835e+2, -935365.4, -1049180.3, 941.7898, 0.12160712, 0.12025936, -935357.6, -16392.598, 0.0, 10.000454, 9.998947 
1.8250805e+3, 2.1622555e+2, -824323.44, -916281.8, 28820.887, 0.12767617, -0.086906426, -816037.3, 4954.056, 0.0, 10.000429, 9.999194 
1.8250749e+3, 2.2622555e+2, -683086.8, -739728.5, 43513.85, 0.19895394, -0.034913532, -659489.25, 63499.477, 0.0, 10.000463, 9.99973 
1.8250696e+3, 2.3622729e+2, -590114.2, -664538.3, -33722.48, 0.28338888, 0.13715473, -577107.3, 47860.43, 0.0, 10.000534, 9.999527 
1.8250619e+3, 2.4622536e+2, -663939.7, -962821.94, -21389.78, 0.16551808, 0.1500779, -662416.6, -135428.58, 0.0, 10.000683, 9.996743 
1.8250525e+3, 2.562211e+2, -507453.97, -790015.2, 62548.836, -0.07009904, 0.013726577, -494227.1, -65192.723, 0.0, 10.000891, 9.997151 
1.8250448e+3, 2.6621816e+2, -164305.19, -393158.94, 40897.984, -0.05936519, -0.08298115, -157215.98, 173846.31, 0.00000011582431, 10.001803, 9.998765 
1.825038e+3, 2.7621597e+2, 140582.66, -192004.36, -1784.0851, 0.091385886, -0.20847006, 140592.23, 373671.75, 0.000015405387, 10.003197, 9.998806 
1.8250315e+3, 2.862154e+2, 152323.98, -197399.03, 77784.63, 0.07811605, -0.10694966, 168844.28, 303928.13, 0.0001600689, 10.002869, 9.998255 
1.8250251e+3, 2.9621607e+2, 57053.453, -193449.13, -1045.8219, -0.046400473, 0.09437177, 57057.82, 94136.03, 0.0006309656, 10.001543, 9.998243 
1.8250185e+3, 3.06212e+2, 171016.72, -269229.63, -142501.98, 0.10495629, -0.053699106, 213116.78, 213116.78, 0.0014656942, 10.002682, 9.996837 
1.8250102e+3, 3.162071e+2, 660515.44, 84450.33, -41873.67, 0.26736495, -0.2617032, 663543.3, 663543.3, 0.002489003, 10.0055, 9.997927 
1.8351404e+3, 1.2622991e+2, -2159389.3, -1710481.1, -44386.18, -0.019967938, -0.24715309, -1706134.5, -3198.596, 0.11569034, 9.995951, 10.001963 
1.835134e+3, 1.3623191e+2, -1778111.8, -1713228.9, 65809.72, 0.06092414, -0.05118677, -1672298.9, -67377.46, 0.07769921, 9.998946, 9.999829 
1.8351269e+3, 1.4623253e+2, -1582004.8, -1565150.5, -4338.6333, 0.13976964, 0.025518749, -1564099.3, -57179.97, 0.04181763, 9.999619, 9.99985 
1.8351175e+3, 1.5623224e+2, -1657731.0, -1534009.4, -1234.0414, -0.042386584, -0.00922595, -1533997.1, -125072.195, 0.015997248, 9.998356, 9.999995 
1.8351088e+3, 1.6623293e+2, -1542903.0, -1318899.1, -42530.313, -0.13156301, 0.011574996, -1311096.0, -177.52135, 0.0034491862, 9.997986, 10.000984 
1.8351029e+3, 1.7623435e+2, -1398807.8, -1188320.9, -25786.807, 0.06589315, 0.017785512, -1185207.8, 27695.46, 0.00021871291, 9.998279, 10.001055 
1.8350984e+3, 1.862344e+2, -1292703.8, -1239970.1, 94136.24, 0.15888983, -0.004693119, -1168577.8, -53675.586, 0.00000018976193, 9.998984, 9.999696 
1.835094e+3, 1.9623363e+2, -1036731.9, -1046715.6, 92186.055, 0.1001008, -0.083503485, -949402.6, 67507.39, 0.0, 10.000009, 9.999842 
1.8350878e+3, 2.062334e+2, -888989.1, -937496.25, -7270.7866, 0.08959234, -0.08342778, -887922.75, 30987.688, 0.0, 10.000384, 9.999749 
1.8350813e+3, 2.1623346e+2, -807429.06, -854336.3, 33725.637, 0.14844976, -0.08188411, -789803.6, 31103.39, 0.0, 10.000316, 9.999674 
1.8350752e+3, 2.2623236e+2, -828779.75, -1006764.8, 39686.48, 0.17229596, -0.058639135, -820331.6, -97412.266, 0.0, 10.000309, 9.997973 
1.835069e+3, 2.362306e+2, -691988.56, -845488.1, -19798.951, 0.1617848, -0.07001617, -689475.94, -64534.695, 0.0, 10.000405, 9.998347 
1.8350622e+3, 2.4623002e+2, -498878.44, -584562.25, -21030.893, 0.122305445, -0.018804565, -493994.8, 32952.21, 0.0, 10.000525, 9.99942 
1.8350549e+3, 2.5623018e+2, -377693.16, -486964.13, 86506.78, 0.07322981, 0.023439722, -330013.16, 98930.45, 0.0, 10.000752, 9.999299 
1.8350479e+3, 2.662292e+2, -264449.94, -575027.75, 86797.77, 0.061676025, 0.10378871, -241838.61, 89114.375, 0.000000090536304, 10.001679, 9.99758 
1.8350412e+3, 2.7622756e+2, 46345.2, -360383.47, 51216.566, 0.07069852, 0.14221244, 52695.41, 285666.7, 0.00001528185, 10.003078, 9.9977045 
1.8350345e+3, 2.8622493e+2, 54531.14, -371867.53, 10801.684, 0.05881388, 0.14607683, 54804.598, 189803.08, 0.00015262204, 10.002732, 9.9971285 
1.8350273e+3, 2.9622203e+2, -33035.645, -335602.9, -18133.834, 0.011041611, 0.09876773, -31952.7, 5075.4854, 0.000595642, 10.001362, 9.997346 
1.8350221e+3, 3.0621848e+2, 168710.94, -217679.9, -48346.57, 0.15383945, 0.014411127, 174668.38, 174668.38, 0.0014012378, 10.002435, 9.99731 
1.8350133e+3, 3.1621608e+2, 693559.44, 235799.16, 75461.4, -0.0067813895, -0.014109925, 705678.3, 705678.3, 0.0024329247, 10.005159, 9.999124 
1.8451367e+3, 1.262377e+2, -2031331.4, -1695292.3, -93097.26, -0.045689937, -0.2112933, -1671224.1, 31636.076, 0.12272786, 9.997017, 10.001588 
1.8451335e+3, 1.3623948e+2, -1832878.1, -1801775.5, -20861.176, 0.1191603, 0.023328967, -1791307.0, -186458.45, 0.08254445, 9.998867, 9.999251 
1.8451253e+3, 1.4623877e+2, -1640976.6, -1558117.4, -128491.2, 0.056435827, -0.018934557, -1464541.8, 42317.168, 0.04459436, 9.999045, 10.000195 
1.8451154e+3, 1.5623923e+2, -1665132.6, -1493900.9, -54118.71, -0.05300918, -0.02560502, -1478230.5, -69374.2, 0.017215712, 9.998116, 10.00039 
1.8451074e+3, 1.6624014e+2, -1495211.3, -1339813.4, 16064.01, -0.08585382, 0.020746088, -1338170.1, -27322.465, 0.0037916328, 9.998513, 10.000583 
1.845102e+3, 1.762411e+2, -1180833.4, -1122913.5, 6434.457, 0.07231914, 0.023396522, -1122207.3, 90630.28, 0.00025177147, 9.99995, 10.000699 
1.8450977e+3, 1.8624096e+2, -1129928.6, -1148473.8, 116438.44, 0.13893591, -0.011244214, -1022394.06, 92443.8, 0.00000025167606, 10.000045, 9.999812 
1.8450934e+3, 1.9624016e+2, -1116086.3, -1074150.0, 100266.2, 0.08276925, -0.10296304, -992682.9, 24161.2, 0.0, 9.999407, 9.9999485 
1.8450877e+3, 2.0624003e+2, -1069507.0, -1036801.8, -29722.24, 0.089206524, -0.09294221, -1019230.7, -100386.695, 0.0, 9.9991865, 9.999654 
1.8450812e+3, 2.1624027e+2, -953829.06, -936339.3, -64296.914, 0.14999653, -0.063094884, -880195.3, -59355.13, 0.0, 9.999355, 9.99958 
1.8450752e+3, 2.2623897e+2, -894675.2, -1046777.3, 24420.424, 0.1726445, -0.05251273, -890850.56, -167995.27, 0.0, 9.999907, 9.997882 
1.8450695e+3, 2.3623662e+2, -646416.44, -829926.25, 65250.125, 0.15245225, -0.111305304, -625581.2, -698.174, 0.0, 10.000747, 9.998284 
1.8450634e+3, 2.462362e+2, -401552.0, -497279.4, 4971.411, 0.1522587, -0.06278552, -401294.5, 125592.336, 0.0, 10.001039, 9.999763 
1.8450566e+3, 2.5623703e+2, -322647.1, -435837.88, -74658.484, 0.15410165, 0.016820582, -285557.22, 143318.31, 0.0, 10.001027, 9.999516 
1.8450502e+3, 2.6623616e+2, -357712.7, -703736.25, -66238.52, 0.1356671, 0.12946326, -345466.22, -14579.636, 0.00000009817215, 10.001407, 9.996824 
1.845044e+3, 2.7623403e+2, -151269.86, -533507.2, -97306.34, 0.1003707, 0.20356835, -127924.39, 104988.16, 0.000013983738, 10.002064, 9.996999 
1.8450373e+3, 2.862308e+2, 19726.281, -390651.16, -115078.78, 0.09271208, 0.17736147, 49793.883, 184739.84, 0.0001420209, 10.00252, 9.997096 
1.8450299e+3, 2.9622716e+2, 180624.95, -241965.22, -93807.75, 0.06530943, 0.064268306, 200512.72, 237493.31, 0.0005571277, 10.002858, 9.997284 
1.8450262e+3, 3.0622435e+2, 324544.13, -191876.66, -16027.839, 0.2598324, 0.082557745, 325041.1, 325041.1, 0.0013278592, 10.003727, 9.996871 
1.8450181e+3, 3.162209e+2, 695419.9, 210842.67, -70410.016, -0.041714612, 0.0031558496, 705443.3, 705443.3, 0.0023466824, 10.005272, 9.998896 
1.8551329e+3, 1.2624519e+2, -2060252.3, -1778260.5, 37845.71, -0.18229468, 0.007553986, -1773269.6, -70476.71, 0.13014582, 9.99712, 10.000941 
1.8551324e+3, 1.3624533e+2, -1861304.8, -1851161.1, 40495.08, 0.11242888, 0.12847218, -1815421.4, -210624.67, 0.08765755, 9.99882, 9.998935 
1.8551241e+3, 1.4624247e+2, -1540815.0, -1347381.9, -164458.95, 0.007412881, -0.19833253, -1253308.4, 253517.48, 0.04753598, 9.99902, 10.001711 
1.855114e+3, 1.5624663e+2, -1566521.1, -1298666.9, -73300.914, -0.030694142, 0.0096619995, -1279919.5, 128863.61, 0.01851746, 9.998143, 10.001735 
1.8551065e+3, 1.6624811e+2, -1520368.8, -1404839.8, 60743.16, -0.06603088, 0.07905738, -1378780.3, -68012.65, 0.0041650403, 9.998564, 10.000114 
1.8551013e+3, 1.7624693e+2, -1213266.9, -1190504.1, 59263.96, -0.014976066, -0.08123122, -1141538.6, 71239.94, 0.00029041685, 9.999942, 10.000242 
1.8550968e+3, 1.8624724e+2, -1119162.1, -1128296.5, 82798.336, 0.019327033, -0.055873036, -1040805.1, 73969.57, 0.0000003514084, 10.000054, 9.999948 
1.8550923e+3, 1.9624886e+2, -1120732.5, -1075744.5, 83626.54, 0.016983422, 0.08080729, -1011639.56, 5118.178, 0.0, 9.9993725, 9.999955 
1.8550865e+3, 2.0624815e+2, -1143378.0, -1178127.1, -31769.527, 0.03420132, 0.08873029, -1124542.4, -205776.17, 0.0, 9.999134, 9.998712 
1.8550798e+3, 2.162459e+2, -1011280.44, -1034285.44, -47270.152, 0.07811685, -0.037178367, -974133.44, -153341.9, 0.0, 9.999264, 9.998954 
1.8550748e+3, 2.2624521e+2, -802483.9, -829568.2, 49997.695, 0.12937592, -0.027014056, -764226.8, -41428.918, 0.0, 9.99979, 9.9994335 
1.8550707e+3, 2.3624542e+2, -587466.0, -683038.2, 101444.41, 0.17946674, 0.023086088, -523116.13, 101676.836, 0.0, 10.000637, 9.99935 
1.8550646e+3, 2.4624406e+2, -563125.7, -800133.94, -4177.646, 0.16380581, 0.044920668, -563052.06, -36245.91, 0.0, 10.000894, 9.997755 
1.8550572e+3, 2.5624177e+2, -464885.94, -697533.44, -63357.945, 0.110694855, 0.00447866, -448750.47, -19919.975, 0.0, 10.00089, 9.997781 
1.8550514e+3, 2.6623884e+2, -396992.25, -758705.8, -51185.957, 0.09777966, 0.007506393, -389888.47, -59024.85, 0.00000008466028, 10.001287, 9.99651 
1.8550465e+3, 2.7623543e+2, -191491.34, -575308.4, -59485.605, 0.10807183, -0.017918054, -182483.42, 50419.652, 0.000011475633, 10.001894, 9.996792 
1.85504e+3, 2.8623298e+2, 47309.44, -291856.63, -114045.805, 0.0835088, 0.0019729724, 82090.914, 217016.69, 0.00012583715, 10.002331, 9.99787 
1.8550324e+3, 2.9623136e+2, 197167.66, -163009.45, -63991.168, 0.020543838, 0.008683192, 208198.84, 245134.28, 0.0005096421, 10.002675, 9.997911 
1.8550304e+3, 3.0622962e+2, 182852.55, -441169.97, 22305.371, 0.29110956, 0.19019549, 183648.83, 183648.83, 0.0012369246, 10.003524, 9.995259 
1.8550253e+3, 3.1622332e+2, 507368.38, -72509.25, -36832.22, 0.111583136, -0.0062679946, 509698.5, 509698.5, 0.0022135882, 10.004832, 9.9971485 
1.865132e+3, 1.2625043e+2, -1611201.9, -1548466.0, 56149.414, -0.13121705, -0.0042106914, -1515516.6, 187228.11, 0.1378835, 10.000175, 10.001209 
1.8651302e+3, 1.3625246e+2, -2007035.8, -1814212.8, 137322.86, 0.10092374, 0.1926149, -1742836.5, -138110.2, 0.09301642, 9.997347, 9.999903 
1.8651217e+3, 1.4624865e+2, -1829098.1, -1510411.3, -48593.12, -0.029871376, -0.25383893, -1503166.5, 3597.5889, 0.050644647, 9.997179, 10.001402 
1.8651135e+3, 1.5625314e+2, -1478881.3, -1289533.6, -107690.17, 0.06752032, 0.015755067, -1240818.8, 167901.02, 0.01991141, 9.998901, 10.00143 
1.8651067e+3, 1.6625471e+2, -1360825.6, -1354205.4, 13576.919, 0.050069045, 0.12029376, -1343540.9, -32837.227, 0.0045744055, 9.999778, 9.999871 
1.8651013e+3, 1.7625315e+2, -1197086.1, -1203388.1, 8738.57, -0.015368207, -0.0548642, -1190947.8, 21769.867, 0.0003360051, 10.000158, 10.000037 
1.8650967e+3, 1.8625304e+2, -1120471.5, -1128772.3, 5224.31, 0.010096825, -0.063529454, -1117949.6, -3232.3464, 0.00000050835786, 10.00005, 9.999945 
1.8650924e+3, 1.9625436e+2, -1064259.0, -1052779.4, -9450.474, 0.06695901, 0.044648338, -1047462.2, -30759.85, 0.0, 9.999782, 9.999916 
1.8650866e+3, 2.0625384e+2, -996240.44, -1128813.9, -45353.453, 0.06889119, 0.08240394, -982209.9, -63499.984, 0.0, 10.0002575, 9.998495 
1.8650796e+3, 2.1625191e+2, -729421.6, -919342.06, -25740.611, 0.029743155, 0.0064625833, -725994.75, 94739.02, 0.0, 10.001293, 9.998758 
1.8650752e+3, 2.262511e+2, -541127.8, -704260.25, 25773.25, 0.10184455, 0.014568313, -537152.75, 185588.28, 0.0, 10.001587, 9.9994335 
1.8650721e+3, 2.3625112e+2, -476018.44, -637409.4, -48479.402, 0.22808793, 0.04521677, -462575.66, 162161.2, 0.0, 10.001439, 9.999281 
1.8650663e+3, 2.4624935e+2, -513685.03, -858014.4, -127123.0, 0.2106425, 0.070514396, -471838.2, 54916.43, 0.0, 10.001577, 9.997029 
1.8650585e+3, 2.5624636e+2, -361497.4, -720410.75, -106787.35, 0.09394038, 0.034035366, -332128.25, 96659.1, 0.0, 10.001901, 9.99714 
1.8650527e+3, 2.662432e+2, -275431.8, -666805.5, -10741.568, 0.073589854, 0.025342638, -275137.22, 55685.848, 0.000000065173005, 10.001988, 9.996796 
1.8650483e+3, 2.762399e+2, -153925.7, -531776.8, -263.51553, 0.1098103, -0.01599932, -153925.52, 78935.13, 0.000009431519, 10.002024, 9.997037 
1.8650426e+3, 2.8623733e+2, 129241.79, -244479.9, -24956.752, 0.09751795, -0.022605484, 130901.01, 265784.34, 0.00011328213, 10.00287, 9.997926 
1.865036e+3, 2.962354e+2, 441260.47, -33187.863, -67823.42, 0.028685583, -0.05239784, 450765.56, 487660.3, 0.00047190647, 10.004302, 9.998005 
1.8650343e+3, 3.0623457e+2, 239865.64, -367322.13, 79210.54, 0.31729484, 0.19051515, 250028.92, 250028.92, 0.0011580472, 10.003719, 9.995661 
1.8650293e+3, 3.1622946e+2, 79989.09, -322168.78, 70899.22, 0.18216842, 0.0797603, 92122.35, 92122.35, 0.0020773846, 10.002035, 9.996786 
1.8751334e+3, 1.2625428e+2, -1559199.4, -1431178.4, -85826.52, -0.059627388, -0.16558407, -1388121.0, 314586.56, 0.14588223, 10.000125, 10.0021925 
1.875127e+3, 1.3626081e+2, -1846012.0, -1493458.6, 49711.74, 0.008607395, 0.20731391, -1486583.1, 118054.93, 0.0986057, 9.997352, 10.002189 
1.875118e+3, 1.462574e+2, -1967589.4, -1811533.6, 9876.568, -0.14369795, -0.18814737, -1810911.0, -304237.7, 0.053927336, 9.997234, 9.99931 
1.8751135e+3, 1.5625882e+2, -1607939.9, -1561854.9, -36455.945, 0.16386674, -0.009169386, -1541769.8, -133103.8, 0.021407956, 9.9989195, 9.999536 
1.875108e+3, 1.6625997e+2, -1359002.3, -1355399.8, 21703.69, 0.17417282, 0.13702513, -1335422.8, -24767.238, 0.0050250688, 9.999798, 9.999854 
1.8751018e+3, 1.7625973e+2, -1201134.6, -1209467.8, 26952.871, -0.008005014, 0.09513937, -1178028.1, 34627.023, 0.00038988978, 10.000141, 10.000008 
1.875097e+3, 1.8625832e+2, -1123730.3, -1137001.8, -13954.863, 0.012242597, -0.03705554, -1114913.8, -248.00757, 0.000000733184, 10.000058, 9.9998865 
1.8750933e+3, 1.9625682e+2, -1070695.8, -1056893.4, -7383.853, 0.16574202, -0.20283808, -1053687.8, -37010.76, 0.0, 9.999743, 9.999909 
1.8750875e+3, 2.0625709e+2, -965037.0, -1058822.8, -16311.542, 0.11088438, -0.112768844, -962281.0, -43605.953, 0.0, 10.000226, 9.998997 
1.87508e+3, 2.1625824e+2, -730019.56, -897496.9, 14184.098, -0.07148175, 0.07579654, -728826.8, 91840.26, 0.0, 10.001185, 9.998965 
1.875076e+3, 2.262567e+2, -667937.2, -934146.4, 13125.933, 0.000050591454, 0.087220274, -667291.56, 55392.61, 0.0, 10.001436, 9.99793 
1.8750738e+3, 2.3625363e+2, -580511.06, -823349.7, -41838.656, 0.23063026, -0.044960078, -573504.8, 51210.38, 0.0, 10.001308, 9.998063 
1.875068e+3, 2.4625187e+2, -497683.8, -789541.3, -120312.1, 0.21150763, -0.00010272685, -454482.44, 72251.73, 0.0, 10.001424, 9.997577 
1.8750598e+3, 2.5625083e+2, -345805.75, -649173.8, -83884.69, 0.027737625, 0.10922094, -324155.75, 104590.266, 0.0, 10.001744, 9.997703 
1.875054e+3, 2.662493e+2, -241923.88, -567815.1, -17795.332, -0.021416763, 0.19645877, -240955.03, 89808.92, 0.00000004605578, 10.001846, 9.997552 
1.8750496e+3, 2.7624747e+2, -134022.47, -452587.8, 20214.744, 0.017798094, 0.22511385, -132744.86, 100040.31, 0.000008317367, 10.001862, 9.99766 
1.8750449e+3, 2.8624392e+2, 59554.7, -355077.78, 17846.424, 0.019325575, 0.13110422, 60321.418, 195139.48, 0.00010640216, 10.002715, 9.997248 
1.8750402e+3, 2.962392e+2, 376214.56, -109223.484, -10315.81, 0.0076171295, -0.107911944, 376433.7, 413293.13, 0.00044874792, 10.004062, 9.997598 
1.875037e+3, 3.0623907e+2, 377299.84, -31371.582, 974.5618, 0.20265687, 0.09393456, 377302.16, 377302.16, 0.001101345, 10.003496, 9.998079 
1.8750314e+3, 3.16238e+2, 88652.57, -192847.89, 20606.95, 0.15566193, 0.14587194, 90153.086, 90153.086, 0.001964711, 10.001584, 9.997886 
1.885132e+3, 1.2625973e+2, -2130793.0, -1691114.3, -80392.38, 0.022532543, -0.17267922, -1676876.1, 25778.965, 0.15411249, 9.996096, 10.002059 
1.8851253e+3, 1.3626713e+2, -1601715.1, -1270650.4, -47388.797, 0.064770736, 0.1505806, -1264000.6, 340573.28, 0.10442951, 9.998468, 10.003355 
1.8851157e+3, 1.4626507e+2, -1652048.0, -1731870.5, -10851.506, -0.22661701, -0.12817848, -1650599.1, -144004.84, 0.057399224, 9.999709, 9.998662 
1.885113e+3, 1.5626487e+2, -1411852.9, -1528910.8, 34348.76, 0.14688699, -0.05072498, -1402518.1, 6083.982, 0.023018045, 10.000547, 9.998966 
1.8851084e+3, 1.6626509e+2, -1314937.0, -1384172.1, 81367.37, 0.21143678, 0.05008623, -1261129.4, 49471.816, 0.005521801, 10.000317, 9.999408 
1.8851015e+3, 1.7626455e+2, -1334387.5, -1327378.5, 43325.832, 0.00206589, 0.02543036, -1287415.6, -74811.234, 0.0004532519, 9.999453, 9.999537 
1.8850969e+3, 1.8626313e+2, -1227998.4, -1248311.9, 5931.2188, 0.02166076, -0.058094107, -1226393.4, -111776.24, 0.0000010252129, 9.9995985, 9.999343 
1.8850937e+3, 1.9626155e+2, -985365.94, -1064454.4, -31862.451, 0.20394252, -0.1820836, -974126.7, 42504.81, 0.0, 10.000536, 9.999471 
1.8850884e+3, 2.062614e+2, -896281.2, -1014039.3, -57068.508, 0.1691354, -0.12123997, -873162.94, 45469.523, 0.0, 10.000652, 9.999098 
1.8850812e+3, 2.16262e+2, -839780.3, -942424.75, -67946.44, -0.017124968, 0.0017755175, -805951.56, 14674.935, 0.0, 10.000411, 9.999024 
1.8850772e+3, 2.2626041e+2, -775530.75, -1035646.5, -15319.297, 0.019207504, 0.03067406, -774631.6, -51986.867, 0.0, 10.000924, 9.997467 
1.885075e+3, 2.3625737e+2, -513774.06, -834567.44, -13142.784, 0.19111106, -0.04962516, -513236.5, 111442.375, 0.0, 10.001944, 9.997682 
1.8850695e+3, 2.4625547e+2, -357931.2, -656394.94, -62152.87, 0.18471107, -0.032153193, -345505.63, 181192.3, 0.0, 10.002109, 9.998157 
1.8850617e+3, 2.5625432e+2, -300639.72, -571899.0, -44822.805, 0.051341977, 0.0049675987, -293425.1, 135282.19, 0.0, 10.001809, 9.998205 
1.885056e+3, 2.6625317e+2, -262898.1, -567085.06, 10314.245, 0.014105448, 0.1050338, -262548.78, 68171.07, 0.000000017635879, 10.001666, 9.99764 
1.8850513e+3, 2.7625206e+2, -148545.8, -449510.6, -17967.191, 0.017730037, 0.19803125, -147476.97, 85257.016, 0.000007212163, 10.001734, 9.997733 
1.8850473e+3, 2.862488e+2, -114907.13, -462315.84, 25433.027, 0.029984165, 0.14241402, -113055.11, 21710.955, 0.00009812263, 10.001641, 9.997017 
1.8850438e+3, 2.9624403e+2, 10729.057, -304439.28, -302.81876, 0.08363839, -0.08195652, 10729.348, 47540.44, 0.00042173456, 10.001623, 9.997435 
1.8850398e+3, 3.06243e+2, 336347.4, 52679.676, -41226.086, 0.17940865, -0.011038429, 342217.4, 342217.4, 0.0010400804, 10.0027485, 9.999034 
1.8850343e+3, 3.1624317e+2, 544067.6, 106241.086, -196873.45, 0.14901136, 0.064443976, 619572.75, 619572.75, 0.0018543331, 10.004361, 9.998609 
1.8951276e+3, 1.2626661e+2, -2201137.5, -1859685.4, 4626.6816, -0.0822453, -0.07238207, -1859622.6, -157033.92, 0.16258536, 9.996207, 10.000821 
1.895125e+3, 1.362715e+2, -1610156.1, -1281641.9, 29357.713, 0.17310564, 0.019325333, -1279039.0, 325494.0, 0.110513955, 9.998422, 10.003319 
1.895114e+3, 1.4627177e+2, -1603007.9, -1612395.5, 7044.1943, -0.37232754, -0.07303132, -1599237.0, -92710.66, 0.06108175, 9.999641, 9.999511 
1.8951118e+3, 1.5627134e+2, -1375122.3, -1438980.8, 65866.71, -0.046332035, -0.10565059, -1333853.9, 74674.66, 0.024752133, 10.000502, 9.999609 
1.8951076e+3, 1.6627e+2, -1366158.3, -1502748.8, 41378.184, 0.077641934, -0.13853042, -1354601.1, -44059.7, 0.0060684755, 10.000361, 9.998575 
1.8951008e+3, 1.7626765e+2, -1393394.1, -1451662.1, 23974.154, -0.04707637, -0.25961092, -1384798.1, -172232.7, 0.0005270964, 9.999456, 9.998686 
1.895096e+3, 1.8626736e+2, -1291222.1, -1382424.9, 33635.266, -0.038457613, -0.13849057, -1280159.4, -165587.4, 0.0000013718216, 9.999616, 9.99841 
1.8950935e+3, 1.962686e+2, -1054022.9, -1192179.8, 2973.862, 0.10321137, 0.10941956, -1053958.9, -37393.605, 0.0, 10.000479, 9.998615 
1.8950891e+3, 2.0626684e+2, -920052.94, -1061884.0, -73954.336, 0.15204412, 0.062220644, -888507.44, 30073.867, 0.0, 10.000631, 9.998786 
1.8950832e+3, 2.1626318e+2, -862496.94, -974866.94, -64754.03, 0.12407504, -0.21184589, -832950.75, -12338.947, 0.0, 10.000338, 9.99884 
1.895079e+3, 2.2626197e+2, -758909.4, -971907.7, 15675.204, 0.084274106, -0.16472279, -757762.0, -35136.613, 0.0, 10.000796, 9.997969 
1.8950754e+3, 2.362623e+2, -501297.2, -770714.56, 27954.066, 0.032661278, 0.041329596, -498427.3, 126200.85, 0.0, 10.001788, 9.99819 
1.8950704e+3, 2.4626029e+2, -341273.75, -589758.94, -83196.91, 0.042530917, -0.0072707245, -315990.6, 210654.56, 0.0, 10.001957, 9.998694 
1.8950643e+3, 2.562568e+2, -293012.94, -522257.84, -46567.03, 0.09688793, -0.26025113, -283914.75, 144756.44, 0.0, 10.001665, 9.998614 
1.8950588e+3, 2.662547e+2, -320662.25, -660744.6, 4235.622, 0.09505057, -0.23522939, -320609.5, 10082.199, 0.0000000071100716, 10.001547, 9.997056 
1.8950532e+3, 2.7625364e+2, -207345.31, -528799.06, -4373.677, 0.02699014, -0.086857684, -207285.81, 25422.348, 0.0000064261117, 10.001561, 9.997267 
1.8950489e+3, 2.86252e+2, -122213.09, -446394.5, 9835.42, 0.022020372, 0.026841719, -121914.97, 12812.5205, 0.00008727804, 10.001489, 9.997206 
1.8950462e+3, 2.962497e+2, -26885.012, -328967.25, 27084.973, 0.14692031, 0.034581322, -24475.764, 12275.652, 0.00038336558, 10.001388, 9.997384 
1.8950419e+3, 3.062463e+2, 255340.75, -50606.285, 13188.635, 0.08333565, -0.08899577, 255908.23, 255908.23, 0.00096103176, 10.002487, 9.99844 
1.8950374e+3, 3.1624472e+2, 431845.34, 6970.4, -60859.234, 0.0042562215, -0.13756086, 440390.97, 440390.97, 0.0017327515, 10.00384, 9.99816 
1.9051243e+3, 1.2627245e+2, -1925529.5, -1796722.9, 67854.91, -0.14230569, 0.010102774, -1767573.6, -65043.97, 0.1713416, 9.998409, 10.000191 
1.905124e+3, 1.3627379e+2, -1651063.8, -1420721.9, -73129.06, 0.21740438, -0.12937641, -1399466.3, 205046.3, 0.11689223, 9.998752, 10.002095 
1.9051135e+3, 1.4627649e+2, -1710198.3, -1598741.8, -165301.33, -0.3381876, 0.05234215, -1480027.5, 26453.078, 0.06499328, 9.99862, 10.000107 
1.9051114e+3, 1.5627508e+2, -1603656.1, -1473102.6, -131050.74, -0.043135613, -0.15917343, -1391971.1, 16517.055, 0.026617203, 9.998582, 10.000304 
1.9051076e+3, 1.6627352e+2, -1530820.8, -1601606.3, -110486.02, 0.10707296, -0.23850824, -1450197.0, -139693.89, 0.0066676727, 9.999313, 9.998403 
1.9051015e+3, 1.7627202e+2, -1204265.4, -1378585.8, -92498.28, 0.022346387, -0.25734735, -1164331.8, 48189.11, 0.0006122247, 10.000841, 9.998512 
1.9050969e+3, 1.8627174e+2, -1118389.9, -1342339.9, -32561.625, 0.012170429, -0.106322885, -1113751.6, 776.536, 0.0000017786746, 10.000996, 9.998019 
1.9050938e+3, 1.9627215e+2, -1090047.8, -1254519.1, -37229.574, 0.087355755, 0.102371745, -1082013.0, -65483.523, 0.0, 10.00042, 9.998224 
1.9050899e+3, 2.0626993e+2, -867106.94, -1043098.3, -62462.59, 0.15642491, 0.032719065, -847191.5, 71358.734, 0.0, 10.001049, 9.998698 
1.9050854e+3, 2.1626605e+2, -549287.3, -832206.94, -58920.77, 0.19642568, -0.2534852, -537507.0, 283075.9, 0.0, 10.00253, 9.998758 
1.9050811e+3, 2.2626509e+2, -501271.94, -820751.8, 8624.975, 0.13727543, -0.19222139, -501039.25, 221554.73, 0.0, 10.002442, 9.998217 
1.9050768e+3, 2.36266e+2, -541205.3, -769307.6, -12739.905, 0.008782189, 0.045803405, -540495.94, 84094.92, 0.0, 10.001412, 9.998388 
1.9050717e+3, 2.4626425e+2, -389253.8, -603673.6, -122367.2, 0.018550495, 0.0142720835, -333774.75, 192830.31, 0.0, 10.001611, 9.998752 
1.9050664e+3, 2.5626072e+2, -140787.34, -445682.3, -144638.33, 0.10681248, -0.24754395, -83090.875, 345540.66, 0.0, 10.002703, 9.998634 
1.9050615e+3, 2.6625797e+2, -142604.31, -607749.4, -93479.78, 0.14551961, -0.2766573, -124520.805, 206137.39, 0.000000016068412, 10.002919, 9.996754 
1.9050561e+3, 2.7625588e+2, -63418.03, -494910.66, -106520.43, 0.11775512, -0.19458589, -38554.547, 194128.95, 0.000006012962, 10.002675, 9.996974 
1.9050518e+3, 2.8625447e+2, 19589.117, -355425.0, -64888.914, 0.108552665, -0.057464782, 30499.467, 165200.05, 0.000076659555, 10.002361, 9.997416 
1.9050483e+3, 2.962533e+2, 99758.586, -245909.95, -72405.24, 0.18560377, 0.041535314, 114312.164, 151026.0, 0.00034009657, 10.00216, 9.997579 
1.9050439e+3, 3.0624938e+2, 178201.89, -126086.98, -5154.8555, 0.063878685, -0.12270326, 178289.19, 178289.19, 0.00087139563, 10.002132, 9.998094 
1.9050412e+3, 3.162461e+2, 189193.55, -104788.086, -87578.81, 0.09401718, -0.30429056, 213306.06, 213306.06, 0.0016054219, 10.002094, 9.998259 
1.9151214e+3, 1.2627742e+2, -1917863.6, -1753221.8, 156552.52, -0.31218076, 0.08377138, -1658665.9, 43810.758, 0.18042894, 9.99831, 10.000567 
1.915122e+3, 1.3627394e+2, -1822556.1, -1751083.4, -73765.33, 0.106634654, -0.31095272, -1704853.9, -100340.87, 0.12358676, 9.998744, 9.999652 
1.9151136e+3, 1.4627913e+2, -1671547.3, -1539650.4, -174043.78, -0.21403001, 0.22492114, -1419479.4, 86979.17, 0.069141634, 9.998707, 10.000494 
1.9151114e+3, 1.5627612e+2, -1551419.0, -1366395.8, -119878.68, 0.07148458, -0.21488455, -1307483.1, 100997.71, 0.028615344, 9.998579, 10.001055 
1.9151081e+3, 1.6627572e+2, -1488022.1, -1520477.1, -64019.11, 0.19633694, -0.24514501, -1438205.9, -127721.05, 0.0073205116, 9.999348, 9.99894 
1.9151036e+3, 1.7627773e+2, -1176975.9, -1316219.4, -38581.53, 0.1340931, 0.0351792, -1167000.4, 45469.27, 0.00070924795, 10.000819, 9.998949 
1.9150989e+3, 1.8627629e+2, -1106517.0, -1323721.1, -61363.21, 0.08805927, 0.044252977, -1090379.9, 24105.154, 0.0000023137907, 10.001016, 9.998142 
1.9150944e+3, 1.9627243e+2, -1091719.3, -1245592.6, -41841.965, 0.09341756, -0.18163955, -1081077.4, -64554.945, 0.0, 10.000364, 9.998315 
1.9150907e+3, 2.0627074e+2, -873512.6, -1045687.5, -11799.855, 0.10765297, -0.20091487, -872707.7, 45831.0, 0.0, 10.000995, 9.99871 
1.9150874e+3, 2.1627058e+2, -565867.75, -837953.5, -7543.7407, 0.12671939, -0.11927136, -565658.75, 254881.38, 0.0, 10.002405, 9.998778 
1.9150832e+3, 2.262698e+2, -525659.7, -830676.44, -34868.246, 0.099223025, -0.04334965, -521724.47, 200825.58, 0.0, 10.002264, 9.998238 
1.9150786e+3, 2.3626857e+2, -567220.4, -785092.3, -31868.313, 0.048538454, -0.016462859, -562654.6, 61910.836, 0.0, 10.001259, 9.998351 
1.9150735e+3, 2.462673e+2, -443113.25, -683443.7, -88207.01, 0.015092353, 0.029333793, -414214.2, 112364.055, 0.0, 10.001465, 9.998277 
1.9150682e+3, 2.5626603e+2, -191632.23, -514478.66, -100137.62, -0.0036212828, 0.038773824, -163094.94, 265494.22, 0.0, 10.002552, 9.99823 
1.9150639e+3, 2.6626304e+2, -167160.9, -630504.6, -113267.586, 0.07648239, 0.0062396405, -140954.13, 189664.13, 0.000000038925435, 10.002787, 9.996668 
1.9150598e+3, 2.762589e+2, -90723.39, -518115.56, -105064.72, 0.19814229, -0.10909044, -66292.17, 166367.45, 0.000005437274, 10.002535, 9.9968815 
1.9150549e+3, 2.8625625e+2, 9037.903, -350232.0, -84185.89, 0.16639914, -0.090781145, 27786.37, 162471.38, 0.00006527873, 10.002238, 9.997513 
1.9150499e+3, 2.9625466e+2, 76783.1, -245919.95, -62829.44, 0.09947251, -0.048933532, 88584.266, 125283.984, 0.00029241332, 10.001964, 9.997672 
1.9150455e+3, 3.0625242e+2, 147588.3, -150184.0, -21730.809, -0.009464252, -0.052187555, 149165.81, 149165.81, 0.0007692978, 10.001947, 9.998013 
1.9150424e+3, 3.1624982e+2, 179528.34, -19723.547, -11513.522, -0.03738973, -0.17576143, 180191.42, 180191.42, 0.0014580134, 10.001668, 9.999028 
1.9251202e+3, 1.2627955e+2, -1949943.9, -1829657.4, 215.93132, -0.25326693, 0.18017213, -1829656.9, -127202.64, 0.18987963, 9.998337, 9.999991 
1.9251214e+3, 1.3627411e+2, -1743571.3, -1707670.5, -125805.47, 0.158032, -0.40957066, -1598541.3, 5971.233, 0.13060497, 9.999244, 9.999721 
1.9251151e+3, 1.46281e+2, -1510777.5, -1443109.9, -126207.22, 0.016176438, 0.27747998, -1346280.0, 160162.52, 0.07352615, 9.99974, 10.000683 
1.92511e+3, 1.5627787e+2, -1352249.1, -1246529.5, -127804.86, 0.04147927, -0.1950522, -1161084.4, 247382.03, 0.030745408, 9.999857, 10.001279 
1.925107e+3, 1.662776e+2, -1373391.6, -1420610.6, -55845.332, 0.10544389, -0.24183255, -1336370.1, -25901.53, 0.008026891, 9.99996, 9.999323 
1.9251044e+3, 1.7628035e+2, -1209986.1, -1285711.8, -58993.875, 0.14788777, 0.072420254, -1177750.0, 34695.62, 0.0008187495, 10.000399, 9.999359 
1.9251002e+3, 1.8627921e+2, -1139123.1, -1266340.5, -88253.375, 0.15755445, 0.053645387, -1093944.3, 20511.582, 0.0000031359323, 10.000478, 9.9987955 
1.9250953e+3, 1.9627509e+2, -1040175.44, -1159293.5, -33493.887, 0.1493188, -0.2643675, -1031403.56, -14911.153, 0.0, 10.00045, 9.998862 
1.9250916e+3, 2.0627381e+2, -987232.25, -1147530.5, 43921.38, 0.12626192, -0.24578625, -975986.8, -57480.824, 0.0, 10.000417, 9.998291 
1.9250883e+3, 2.1627453e+2, -862500.6, -1017321.0, -2801.666, 0.08608318, -0.032817364, -862449.94, -41947.09, 0.0, 10.000533, 9.998446 
1.9250849e+3, 2.262736e+2, -705683.1, -895810.8, -53048.332, 0.102843195, 0.02988609, -691883.5, 30631.607, 0.0, 10.000951, 9.998418 
1.9250809e+3, 2.3627135e+2, -514991.2, -745360.2, -52034.45, 0.142119, -0.061107747, -503783.22, 120755.875, 0.0, 10.001552, 9.9984865 
1.9250758e+3, 2.4627015e+2, -428770.38, -688762.7, -49792.234, 0.09147265, -0.008877133, -419560.7, 106991.33, 0.0, 10.001614, 9.998169 
1.92507e+3, 2.562698e+2, -352881.4, -603811.44, -51115.516, -0.025617078, 0.10867512, -342868.53, 85687.55, 0.0, 10.001473, 9.998148 
1.9250661e+3, 2.6626727e+2, -220097.17, -600680.44, -7137.337, 0.06354337, 0.09831983, -219963.36, 110616.45, 0.000000047147957, 10.002193, 9.997153 
1.9250633e+3, 2.7626315e+2, 75681.89, -390556.25, 15646.383, 0.24736081, -0.060787555, 76206.375, 308824.13, 0.0000043683804, 10.003485, 9.997295 
1.925058e+3, 2.8625986e+2, 182188.08, -313151.34, 20864.719, 0.2001718, -0.10521164, 183065.39, 317713.88, 0.000052619915, 10.00366, 9.997067 
1.9250518e+3, 2.9625738e+2, 240117.31, -225142.73, -24317.752, 0.05305464, -0.0983908, 241384.88, 278056.4, 0.00024219825, 10.003325, 9.997165 
1.9250485e+3, 3.0625552e+2, 295918.16, -112054.25, 24062.123, 0.039564718, -0.021675076, 297332.44, 297332.44, 0.0006583745, 10.003103, 9.997726 
1.9250458e+3, 3.1625322e+2, 330673.16, 3206.4602, -37057.52, 0.10237037, -0.08135379, 334814.38, 334814.38, 0.001285051, 10.002876, 9.998631 
1.9351202e+3, 1.2627745e+2, -2076599.8, -2114472.5, -78430.54, -0.13111334, 0.16253595, -2014851.9, -312375.66, 0.1997211, 9.998421, 9.998005 
1.9351219e+3, 1.3627426e+2, -1571892.6, -1367566.0, -76864.45, 0.2609019, -0.4266171, -1341879.9, 262631.7, 0.13795441, 9.999196, 10.0023365 
1.9351174e+3, 1.462825e+2, -1505226.8, -1432360.9, -122693.016, 0.2454149, 0.24375302, -1340805.8, 165623.02, 0.07814733, 9.999738, 10.000764 
1.9351079e+3, 1.5628043e+2, -1374407.9, -1293697.5, -115063.38, -0.20293498, -0.09127011, -1212117.8, 196325.86, 0.033007, 9.999858, 10.000952 
1.9351037e+3, 1.662791e+2, -1351843.5, -1381992.5, -48412.355, -0.24944061, -0.23938987, -1316213.0, -5757.805, 0.008786739, 9.999984, 9.999579 
1.9351035e+3, 1.7627995e+2, -1188098.4, -1236123.9, -37301.19, 0.009594564, -0.13853502, -1167749.1, 44699.46, 0.00094156526, 10.000375, 9.999718 
1.9351009e+3, 1.8628046e+2, -1050771.3, -1083253.1, -94569.77, 0.13984372, -0.077050515, -971058.0, 143383.03, 0.0000044945964, 10.000479, 10.00005 
1.9350962e+3, 1.962801e+2, -978121.75, -1019434.8, -27640.018, 0.18034585, -0.1435861, -964272.3, 52167.17, 0.0, 10.000404, 9.999845 
1.935092e+3, 2.0627904e+2, -1050124.1, -1271039.5, 38884.277, 0.119484186, -0.09937412, -1043479.8, -125027.04, 0.0, 10.0003805, 9.997465 
1.9350882e+3, 2.1627785e+2, -929489.25, -1130614.1, 10412.665, 0.0070468746, 0.006625335, -928951.6, -108479.71, 0.0, 10.000419, 9.997727 
1.9350855e+3, 2.2627623e+2, -709587.0, -863042.9, -36436.81, 0.05893382, 0.019075321, -701374.9, 21116.672, 0.0, 10.00078, 9.99872 
1.9350833e+3, 2.3627421e+2, -515630.53, -708680.3, -25349.459, 0.20800284, -0.08278075, -512357.38, 112155.266, 0.0, 10.001399, 9.998803 
1.9350782e+3, 2.4627289e+2, -433479.2, -668784.1, -65634.664, 0.14913504, -0.069492854, -416409.7, 110115.71, 0.0, 10.001477, 9.998377 
1.9350713e+3, 2.562721e+2, -349418.16, -566173.7, -42205.934, -0.03309487, -0.019397862, -341489.97, 87042.0, 0.0, 10.0013485, 9.998466 
1.9350679e+3, 2.6627064e+2, -174560.98, -467778.3, 31701.162, 0.015812444, 0.009496553, -171172.78, 159370.48, 0.00000001782158, 10.002037, 9.998138 
1.9350663e+3, 2.762686e+2, 98883.27, -290534.0, 64151.43, 0.18796928, -0.040069584, 109179.164, 341738.1, 0.0000032439186, 10.003287, 9.998066 
1.9350612e+3, 2.862653e+2, 89648.39, -482143.22, -10675.702, 0.11536807, -0.059554856, 89847.64, 224438.1, 0.000042492127, 10.003536, 9.995977 
1.9350542e+3, 2.9626134e+2, 147203.03, -381978.75, -23098.393, -0.06868659, -0.09601263, 148209.34, 184839.63, 0.00020128557, 10.003174, 9.99616 
1.9350523e+3, 3.0625886e+2, 214306.52, -234289.34, 4712.313, 0.07622396, 0.00010388027, 214356.02, 214356.02, 0.00056117197, 10.002898, 9.996987 
1.9350502e+3, 3.1625476e+2, 161911.16, -240655.14, -39505.45, 0.21176234, -0.16408935, 165751.36, 165751.36, 0.0011168965, 10.002462, 9.997132 
1.9451213e+3, 1.2627785e+2, -1760496.8, -2100313.8, 90034.32, 0.0020422686, 0.060932074, -1738116.3, -35646.254, 0.20999403, 10.00119, 9.99676 
1.9451198e+3, 1.36277e+2, -1610434.3, -1320103.0, -5044.6274, 0.1754289, -0.34450632, -1320015.4, 284467.38, 0.14565058, 9.998542, 10.003054 
1.9451165e+3, 1.462838e+2, -1754672.4, -1567044.0, -65252.496, 0.2730931, 0.14355771, -1546582.3, -40166.418, 0.083007626, 9.998064, 10.000595 
1.9451082e+3, 1.5628295e+2, -1493057.9, -1383569.3, -79913.31, -0.111786745, -0.03344153, -1341447.4, 66973.21, 0.03539992, 9.99917, 10.000651 
1.9451037e+3, 1.6628183e+2, -1397666.3, -1369775.1, -4483.599, -0.20688897, -0.16595483, -1369072.1, -58642.227, 0.009600047, 9.999509, 9.999899 
1.9451028e+3, 1.762819e+2, -1299804.4, -1258756.1, 3618.8384, -0.048170336, -0.17487118, -1258439.5, -46010.574, 0.0010784023, 9.999473, 9.999992 
1.9451006e+3, 1.8628246e+2, -1170404.8, -1180496.0, -105320.57, 0.10879561, -0.10151537, -1070009.0, 44413.258, 0.0000066792873, 9.999828, 9.999693 
1.945097e+3, 1.9628279e+2, -967387.3, -1035007.8, -169627.95, 0.22124419, -0.066740386, -828232.9, 188184.38, 0.0, 10.000575, 9.999652 
1.9450928e+3, 2.0628187e+2, -954292.94, -1124246.3, -72194.4, 0.16091636, -0.049429834, -927765.94, -9338.58, 0.0, 10.000611, 9.998358 
1.9450885e+3, 2.1628034e+2, -892478.25, -1030131.44, 15553.528, 0.0021397367, -0.06417953, -890742.7, -70297.12, 0.0, 10.000309, 9.998473 
1.9450858e+3, 2.2627917e+2, -757005.3, -904761.1, 37995.586, 0.03390567, -0.03090276, -747807.3, -25346.328, 0.0, 10.000524, 9.998558 
1.945084e+3, 2.3627815e+2, -560392.06, -742588.9, 39.839417, 0.17292978, -0.017393226, -560392.06, 64083.168, 0.0, 10.001132, 9.998708 
1.94508e+3, 2.4627686e+2, -391845.94, -606499.6, -46171.68, 0.18218409, -0.017866587, -382335.8, 144151.19, 0.0, 10.001598, 9.998746 
1.9450743e+3, 2.5627533e+2, -223321.0, -478301.88, -30245.906, 0.095854, -0.073155425, -219782.33, 208715.38, 0.0, 10.002093, 9.998714 
1.9450708e+3, 2.6627365e+2, -176183.3, -512617.06, 13453.827, 0.09025582, -0.055813402, -175646.14, 154865.81, 0.000000002142629, 10.002202, 9.997755 
1.9450682e+3, 2.762719e+2, -88483.0, -424998.22, -78625.24, 0.1199166, -0.03766555, -71018.91, 161509.31, 0.0000029419668, 10.002142, 9.997719 
1.9450636e+3, 2.862687e+2, -65210.5, -504131.75, -121852.07, 0.074427575, -0.052519705, -33651.418, 100907.48, 0.000037529444, 10.002249, 9.996449 
1.9450577e+3, 2.9626495e+2, 92597.43, -349363.7, -54237.934, -0.008085713, -0.117144614, 99156.234, 135751.8, 0.00017698373, 10.002537, 9.996693 
1.9450557e+3, 3.0626282e+2, 160140.77, -226812.47, 80627.76, 0.17143284, -0.027717851, 176268.63, 176268.63, 0.00049046375, 10.002399, 9.997263 
1.9450524e+3, 3.1625947e+2, 118068.86, -260861.17, 29125.303, 0.22987224, -0.12560533, 120294.414, 120294.414, 0.000970849, 10.002128, 9.997162 
1.955122e+3, 1.2628113e+2, -1759803.9, -2129420.8, -78339.7, -0.095692866, -0.085595846, -1743885.5, -41453.496, 0.22070916, 10.001278, 9.996536 
1.9551153e+3, 1.3628243e+2, -1685226.3, -1466134.9, -70747.7, -0.14664704, -0.15520215, -1445275.5, 159150.53, 0.15369554, 9.998597, 10.001881 
1.9551122e+3, 1.4628464e+2, -1770994.9, -1619321.3, -34713.582, 0.0022268137, -0.045827344, -1611754.0, -105347.89, 0.08810495, 9.998141, 10.000198 
1.9551109e+3, 1.5628526e+2, -1515040.8, -1430520.0, -36971.824, 0.22469223, -0.02898895, -1416630.1, -8231.371, 0.037922986, 9.999174, 10.000317 
1.9551069e+3, 1.6628572e+2, -1358405.1, -1300753.1, -12486.888, 0.124637105, -0.015636876, -1298164.8, 12227.971, 0.010466628, 9.9995575, 10.000351 
1.9551021e+3, 1.7628612e+2, -1286906.8, -1240493.1, 10219.359, -0.09924588, -0.0393542, -1238342.6, -25954.945, 0.0012294218, 9.999497, 10.000108 
1.9550993e+3, 1.8628506e+2, -1298352.4, -1451727.1, -83156.33, -0.024533492, -0.024445252, -1261920.6, -147519.69, 0.000009908067, 9.99986, 9.997814 
1.9550976e+3, 1.9628318e+2, -1066378.1, -1229334.8, -138927.52, 0.20697765, -0.025302649, -986798.75, 29626.127, 0.0, 10.000529, 9.998341 
1.9550939e+3, 2.0628224e+2, -789709.5, -762062.7, -90502.28, 0.17274329, -0.0948552, -684334.2, 234096.36, 0.0, 10.000524, 10.000887 
1.9550888e+3, 2.1628194e+2, -758695.75, -722871.8, 15809.254, -0.004332787, -0.23915812, -716893.0, 103531.64, 0.0, 10.00019, 10.000637 
1.9550855e+3, 2.262823e+2, -816392.1, -997220.4, 55734.88, -0.058726765, -0.11526377, -800593.75, -78169.38, 0.0, 10.000384, 9.9979925 
1.9550833e+3, 2.3628314e+2, -614875.94, -818079.56, 29905.705, -0.034661695, 0.13942398, -610566.1, 13860.915, 0.0, 10.000981, 9.998256 
1.955081e+3, 2.4628194e+2, -385441.3, -557411.4, -35682.055, 0.09188702, 0.14532192, -378331.56, 148106.23, 0.0, 10.001441, 9.999159 
1.9550785e+3, 2.562794e+2, -232692.2, -463302.34, -5657.734, 0.2835795, -0.05169691, -232553.48, 195900.83, 0.0, 10.001958, 9.998874 
1.9550744e+3, 2.6627648e+2, -318004.25, -781273.0, 2105.1814, 0.20282014, -0.06921531, -317994.7, 12489.56, 0.00000003752054, 10.002078, 9.995977 
1.955069e+3, 2.7627313e+2, -200195.4, -625463.5, -66524.06, -0.04326696, -0.037806742, -190032.05, 42492.04, 0.0000033154865, 10.00201, 9.996405 
1.955065e+3, 2.862703e+2, 31961.063, -257060.25, -123021.37, -0.034646127, -0.06006214, 77233.41, 211784.56, 0.00003554113, 10.002054, 9.99824 
1.9550619e+3, 2.962683e+2, 195034.53, -87991.8, -32026.05, 0.14979428, -0.1303154, 198613.22, 235178.83, 0.00016173386, 10.002343, 9.998573 
1.9550587e+3, 3.0626756e+2, 216066.53, -70349.81, 52631.406, 0.2037881, -0.058984596, 225431.77, 225431.77, 0.0004325806, 10.002207, 9.998442 
1.9550543e+3, 3.162665e+2, 170398.39, -67856.09, -1880.6445, 0.14089505, -0.040184703, 170413.23, 170413.23, 0.00082958135, 10.001797, 9.998635 
1.9651224e+3, 1.2628414e+2, -2137646.8, -2177201.5, -102477.38, -0.03434243, -0.103391305, -2053055.6, -350652.03, 0.23177752, 9.998163, 9.9976845 
1.9651149e+3, 1.3628562e+2, -1562063.4, -1478411.4, -144883.64, -0.11416824, -0.10139054, -1369437.3, 234958.08, 0.1620495, 9.999906, 10.001169 
1.9651099e+3, 1.4628676e+2, -1551589.3, -1524669.8, -62334.29, -0.12148014, -0.04852822, -1474358.6, 32027.215, 0.093428105, 9.999725, 10.000082 
1.9651102e+3, 1.5628712e+2, -1479922.4, -1407643.1, -41259.813, 0.22247347, -0.061830632, -1388933.5, 19447.654, 0.04057487, 9.999413, 10.000345 
1.965107e+3, 1.6628794e+2, -1385451.4, -1332115.3, -26545.355, 0.20659883, -0.007103287, -1321155.6, -10782.925, 0.011385711, 9.999459, 10.00018 
1.9651021e+3, 1.7628887e+2, -1271841.8, -1241015.9, -61102.52, -0.041675836, 0.039814703, -1193412.4, 18951.594, 0.0013940044, 9.999647, 10.000031 
1.9650991e+3, 1.862878e+2, -1277796.5, -1377763.4, -35032.84, -0.021126308, 0.023926694, -1266741.9, -152365.3, 0.000014255441, 9.999708, 9.9984045 
1.9650973e+3, 1.9628564e+2, -1133752.5, -1207026.5, 75681.62, 0.15602173, -0.0644433, -1086306.4, -69905.03, 0.0, 9.999823, 9.998838 
1.965094e+3, 2.0628496e+2, -803545.4, -781431.44, 85095.49, 0.15575689, -0.12405327, -706677.56, 211726.27, 0.0, 10.000472, 10.000781 
1.96509e+3, 2.1628517e+2, -574420.3, -642571.3, -17754.955, 0.041011028, -0.20866083, -570072.1, 250321.17, 0.0, 10.001476, 10.000573 
1.9650868e+3, 2.2628543e+2, -642356.4, -899556.6, -18528.432, -0.0303033, -0.09981489, -641028.44, 81364.85, 0.0, 10.001525, 9.998119 
1.9650838e+3, 2.3628566e+2, -593693.9, -806182.5, -5958.107, -0.09095294, 0.08670534, -593526.94, 30873.623, 0.0, 10.0011, 9.998292 
1.9650818e+3, 2.4628437e+2, -402359.97, -604268.1, -51074.78, 0.05051452, 0.10088029, -390175.38, 136238.05, 0.0, 10.001477, 9.998822 
1.9650808e+3, 2.562822e+2, -192785.16, -474404.03, -99683.586, 0.306134, -0.025575653, -161071.8, 267357.28, 0.0, 10.00235, 9.998615 
1.9650769e+3, 2.6627958e+2, -271819.06, -699182.06, -30578.035, 0.24803393, -0.026680361, -269642.28, 60814.04, 0.00000006167767, 10.002155, 9.996497 
1.9650708e+3, 2.7627653e+2, -254454.69, -591374.8, 47358.13, -0.02083713, -0.016414337, -247924.52, -15432.213, 0.000003603985, 10.001397, 9.9969225 
1.9650672e+3, 2.8627414e+2, -16408.742, -212300.25, 50495.58, 0.03237611, -0.051562753, -4158.4253, 130356.66, 0.00003406456, 10.001434, 9.99884 
1.9650654e+3, 2.9627275e+2, 181511.95, -39915.6, 22591.73, 0.2899157, -0.112257145, 183793.44, 220317.34, 0.0001486936, 10.0020075, 9.999072 
1.965061e+3, 3.0627245e+2, 280732.0, -19135.438, 28541.861, 0.2005423, -0.0286002, 283424.47, 283424.47, 0.00038063264, 10.0025625, 9.998628 
1.9650552e+3, 3.1627148e+2, 403695.9, 137160.69, -170337.16, 0.023199238, -0.012792629, 486703.56, 486703.56, 0.00069817615, 10.002955, 9.999512 
1.975122e+3, 1.2628809e+2, -1948904.1, -1808474.8, 166476.33, 0.055085175, 0.08711871, -1698011.6, 4361.174, 0.24301729, 9.998259, 10.000178 
1.9751182e+3, 1.3628653e+2, -1592813.3, -1541496.6, -109158.875, 0.20178753, -0.20469958, -1455021.0, 149369.98, 0.17062773, 9.999893, 10.000683 
1.975109e+3, 1.4629032e+2, -1539891.1, -1504034.0, -86535.03, -0.20456189, 0.14828461, -1433589.8, 72763.42, 0.09895461, 9.999737, 10.000243 
1.9751057e+3, 1.5628853e+2, -1453259.4, -1361048.6, -40186.71, -0.17622273, -0.12790704, -1345992.9, 62375.09, 0.04335473, 9.999436, 10.000671 
1.9751044e+3, 1.6628842e+2, -1427354.1, -1430416.3, -23953.342, -0.032698393, -0.13946144, -1404883.0, -94512.45, 0.012356995, 9.999515, 9.999476 
1.9751029e+3, 1.7629011e+2, -1290055.5, -1274177.0, -46361.875, 0.05916696, 0.057572354, -1235079.5, -22721.348, 0.0015709848, 9.999636, 9.999807 
1.9750996e+3, 1.8629058e+2, -1068402.3, -943823.2, -37621.227, 0.036061577, 0.035896104, -933343.6, 181006.95, 0.000019593592, 9.99971, 10.001385 
1.9750956e+3, 1.9629005e+2, -982350.1, -881371.94, 90563.17, -0.0097660655, -0.18213123, -828174.8, 188173.55, 0.0, 9.999777, 10.001095 
1.9750933e+3, 2.0628987e+2, -1003105.0, -1176730.0, 117395.91, 0.01702052, -0.13806991, -943909.94, -25560.635, 0.0, 10.000394, 9.998104 
1.975092e+3, 2.1629007e+2, -751957.4, -979948.3, 19906.74, 0.071021535, 0.04135851, -750232.25, 70118.88, 0.0, 10.001344, 9.998319 
1.9750892e+3, 2.262885e+2, -613749.56, -803902.4, -43009.605, 0.028387962, 0.023724072, -604473.94, 117894.18, 0.0, 10.001365, 9.998853 
1.9750851e+3, 2.3628576e+2, -575830.7, -741302.06, -6512.3306, -0.06147686, -0.16203918, -575574.75, 48820.605, 0.0, 10.00098, 9.998793 
1.9750829e+3, 2.4628428e+2, -504192.2, -783756.1, -23871.22, -0.02133203, -0.124091096, -502168.53, 24243.764, 0.0, 10.001334, 9.997663 
1.9750811e+3, 2.562837e+2, -258960.38, -577634.94, -65002.875, 0.09898929, 0.017486626, -246211.22, 182210.47, 0.0, 10.002207, 9.997974 
1.975078e+3, 2.662829e+2, -113662.25, -327106.75, -69114.88, 0.12920634, 0.07801957, -93236.92, 237191.64, 0.000000055759365, 10.001968, 9.99914 
1.9750737e+3, 2.7628198e+2, -119415.31, -272992.06, 34543.363, 0.1086622, 0.038109466, -112003.336, 120430.59, 0.0000036492006, 10.001246, 9.999173 
1.9750704e+3, 2.862803e+2, -83601.66, -321280.25, 58230.65, 0.17946815, 0.008142893, -70102.05, 64347.848, 0.00003270161, 10.001291, 9.998168 
1.9750679e+3, 2.9627812e+2, 112930.805, -150238.95, 60839.637, 0.31849185, -0.065526746, 126315.03, 162787.42, 0.00013867494, 10.00187, 9.998381 
1.975062e+3, 3.0627742e+2, 151728.2, -209641.31, 28004.322, 0.025888328, 0.075792894, 153885.52, 153885.52, 0.0003432849, 10.002249, 9.997466 
1.975058e+3, 3.1627426e+2, 373343.25, 164205.84, -60671.91, -0.035977654, -0.028828006, 389669.94, 389669.94, 0.0006047334, 10.002602, 9.999854 
1.9851205e+3, 1.2629032e+2, -1871497.6, -1628434.8, 270965.22, 0.09343465, 0.06564568, -1452994.8, 249356.56, 0.25424254, 9.998157, 10.001869 
1.9851175e+3, 1.3628884e+2, -2028681.6, -1713747.4, -88167.57, 0.3119633, -0.25224525, -1690744.6, -86376.484, 0.17932345, 9.996726, 10.000896 
1.9851081e+3, 1.4629474e+2, -1876860.8, -1621011.8, 52709.81, -0.12937126, 0.28802085, -1610578.0, -104269.164, 0.104643695, 9.997222, 10.000625 
1.9851044e+3, 1.5629207e+2, -1426067.9, -1304909.6, 83164.875, -0.25645798, -0.12187504, -1262599.4, 145732.17, 0.046255346, 9.999438, 10.001079 
1.9851035e+3, 1.6629131e+2, -1392436.4, -1430977.1, 102755.23, -0.08944455, -0.21157612, -1307160.3, 3180.2844, 0.013380272, 9.999824, 9.999323 
1.9851026e+3, 1.7629285e+2, -1352951.0, -1322333.0, 110932.766, 0.09198523, -0.0138842445, -1225657.9, -13327.987, 0.0017591557, 9.999268, 9.99966 
1.9850995e+3, 1.8629389e+2, -1101119.4, -968407.4, 33469.527, 0.075314045, 0.033223756, -960444.3, 153873.34, 0.0000256483, 9.999526, 10.001298 
1.9850956e+3, 1.9629411e+2, -893911.94, -849605.06, -75785.414, -0.014570076, -0.10068537, -792801.56, 223508.03, 0.0, 10.000418, 10.001005 
1.9850937e+3, 2.0629372e+2, -965255.75, -1154435.0, 2142.7566, -0.007525483, -0.07846717, -965231.5, -46918.543, 0.0, 10.000639, 9.998138 
1.9850925e+3, 2.1629313e+2, -866524.7, -1034567.1, 86193.04, 0.030309837, 0.020176208, -830176.44, -9854.89, 0.0, 10.00056, 9.998321 
1.9850905e+3, 2.262914e+2, -662187.56, -836111.7, 70468.625, 0.054572158, -0.008451788, -637220.06, 85119.26, 0.0, 10.001068, 9.998774 
1.985088e+3, 2.3628885e+2, -442815.75, -682364.2, 28964.686, 0.07502277, -0.16663767, -439363.28, 185000.61, 0.0, 10.00192, 9.998738 
1.985085e+3, 2.4628733e+2, -468766.6, -757921.7, 46754.97, 0.05227605, -0.13357013, -461394.5, 64986.56, 0.0, 10.001567, 9.997713 
1.9850814e+3, 2.562864e+2, -485392.22, -673164.5, 75263.945, -0.014262101, -0.027976885, -458948.53, -30554.684, 0.0, 10.000601, 9.998088 
1.9850785e+3, 2.66286e+2, -215230.44, -295921.6, 39861.29, 0.045417607, 0.021141438, -198860.16, 131535.86, 0.00000004684117, 10.00092, 9.999861 
1.9850759e+3, 2.7628592e+2, 29568.447, -144738.66, -20492.889, 0.17827314, -0.00010819018, 31945.338, 264336.03, 0.000003631824, 10.002004, 9.9997 
1.985073e+3, 2.8628448e+2, 7133.5796, -323729.2, -24999.314, 0.27447528, 0.00029157512, 9011.814, 143416.69, 0.000030883682, 10.002119, 9.997751 
1.9850698e+3, 2.96282e+2, 62011.78, -222222.58, -27960.871, 0.340935, -0.06302787, 64736.25, 101169.67, 0.00012816787, 10.001735, 9.997949 
1.9850643e+3, 3.0628052e+2, 200134.22, -187940.61, 39819.266, 0.02413567, 0.023648048, 204177.83, 204177.83, 0.00031301912, 10.00257, 9.9974575 
1.985062e+3, 3.1627795e+2, 595384.6, 273188.9, 56139.78, 0.06346785, -0.021278154, 604886.3, 604886.3, 0.0005440033, 10.004092, 9.999889 
1.9951177e+3, 1.2629004e+2, -1808128.8, -1530704.1, 169168.64, -0.04966797, -0.22781932, -1450649.1, 251698.1, 0.26535824, 9.998163, 10.002629 
1.9951124e+3, 1.3629241e+2, -1949282.3, -1579365.1, -138449.16, 0.11982183, -0.24431641, -1533287.3, 71040.89, 0.18805622, 9.996797, 10.001887 
1.9951072e+3, 1.4629981e+2, -1819695.3, -1528066.4, 124650.8, 0.019468982, 0.35548884, -1482048.4, 24206.756, 0.11045076, 9.997319, 10.001236 
1.9951054e+3, 1.5629756e+2, -1396921.9, -1243445.1, 155022.4, -0.10305126, -0.05474147, -1147207.5, 261066.34, 0.04926506, 9.999437, 10.001531 
1.995104e+3, 1.6629635e+2, -1359315.4, -1367469.1, 70602.25, -0.055035412, -0.2318873, -1292672.4, 17612.676, 0.014456319, 9.999841, 9.999754 
1.9951011e+3, 1.7629696e+2, -1351315.8, -1323058.3, 98206.625, -0.0044129044, -0.16923006, -1237969.3, -25689.068, 0.0019582892, 9.99928, 9.999649 
1.9950987e+3, 1.8629764e+2, -1312871.3, -1413846.4, 61311.684, 0.020950777, 0.013048368, -1283935.1, -169656.11, 0.000032105352, 9.999557, 9.998225 
1.9950971e+3, 1.9629776e+2, -1063211.4, -1188987.8, -39529.387, 0.07512297, 0.17350358, -1051819.6, -35533.94, 0.0, 10.000376, 9.998692 
1.9950946e+3, 2.0629638e+2, -790263.6, -774634.5, -9000.317, 0.0034049593, 0.048432115, -770529.6, 147765.77, 0.0, 10.000563, 10.000785 
1.9950914e+3, 2.1629432e+2, -727917.6, -723775.56, 94755.445, -0.14981788, -0.2626763, -631068.56, 189236.36, 0.0, 10.00046, 10.000504 
1.9950908e+3, 2.262941e+2, -744263.1, -976019.44, 99743.555, -0.039386824, -0.18632133, -707247.5, 15059.765, 0.0, 10.000932, 9.997879 
1.9950917e+3, 2.362949e+2, -506553.3, -784585.0, 63730.133, 0.24289554, 0.07601507, -492641.28, 131665.06, 0.0, 10.001785, 9.998101 
1.9950879e+3, 2.4629328e+2, -416718.13, -609210.06, 578.722, 0.16976771, 0.062919915, -416716.38, 109605.72, 0.0, 10.001388, 9.998823 
1.9950812e+3, 2.5629026e+2, -443041.28, -557730.4, 54205.23, -0.10797552, -0.15415598, -421477.0, 6870.171, 0.0, 10.000484, 9.998934 
1.9950782e+3, 2.6628876e+2, -323748.4, -484631.3, 72694.125, -0.08696054, -0.18018909, -295768.16, 34591.133, 0.000000042002604, 10.000766, 9.998639 
1.9950774e+3, 2.762882e+2, -71585.055, -315575.2, 23721.877, 0.11206303, -0.12842892, -69300.1, 163063.23, 0.0000035134383, 10.001847, 9.998596 
1.9950746e+3, 2.8628662e+2, -45538.836, -391505.38, -51572.67, 0.20427346, -0.07467218, -38014.617, 96366.27, 0.00002820436, 10.001941, 9.997372 
1.9950709e+3, 2.9628423e+2, 21829.857, -272104.47, -18944.758, 0.25344786, -0.10029476, 23045.861, 59454.31, 0.00011358975, 10.001587, 9.997676 
1.9950676e+3, 3.0628175e+2, 213185.44, -82261.805, 79775.86, 0.065068975, -0.15450373, 233350.03, 233350.03, 0.00027751442, 10.002251, 9.998327 
1.9950666e+3, 3.1628275e+2, 495513.03, 160480.47, 256087.53, 0.04627649, 0.056655534, 634007.4, 634007.4, 0.0004885508, 10.003718, 9.999275 
2.005115e+3, 1.2629405e+2, -2116097.5, -1674197.5, 174891.45, -0.02068183, -0.21219538, -1613356.9, 88947.63, 0.27641812, 9.996078, 10.002351 
2.0051093e+3, 1.362954e+2, -1671280.3, -1450885.1, -83192.61, 0.043151546, -0.33746648, -1423008.4, 181285.98, 0.1968332, 9.998627, 10.002056 
2.005106e+3, 1.4630292e+2, -1530368.5, -1396682.0, 118953.516, 0.08887605, 0.25405818, -1327077.6, 179142.77, 0.11636926, 9.9993305, 10.001263 
2.0051053e+3, 1.5630142e+2, -1610118.3, -1365205.3, 100827.484, 0.013862882, -0.06512662, -1329037.1, 79195.85, 0.05238356, 9.998045, 10.001329 
2.0051037e+3, 1.6630028e+2, -1548877.0, -1447320.1, 1822.4725, 0.0059071123, -0.22843401, -1447287.4, -137043.7, 0.015589432, 9.998497, 9.999852 
2.0051007e+3, 1.7630075e+2, -1187627.6, -1244993.3, -7689.051, -0.022776658, -0.19157039, -1186614.9, 25624.826, 0.0021699998, 10.000411, 9.999639 
2.005099e+3, 1.8630084e+2, -1148600.8, -1419147.4, 53395.195, 0.02833891, -0.023769159, -1138443.9, -24198.328, 0.00003871999, 10.001056, 9.997463 
2.0050985e+3, 1.9630012e+2, -1011521.25, -1237529.0, 102243.875, 0.13543615, 0.12890974, -972131.94, 44131.047, 0.0, 10.001057, 9.998027 
2.0050958e+3, 2.0629892e+2, -732532.2, -720367.8, 77434.72, 0.058964524, 0.03700104, -648776.75, 269495.28, 0.0, 10.000845, 10.001021 
2.005092e+3, 2.1629767e+2, -692943.5, -679346.0, -2682.5088, -0.14044048, -0.21759653, -678835.94, 141438.05, 0.0, 10.000576, 10.000755 
2.0050913e+3, 2.2629775e+2, -766794.6, -961451.06, 21471.693, -0.06445651, -0.1346818, -764454.3, -42181.47, 0.0, 10.000681, 9.998098 
2.0050924e+3, 2.3629846e+2, -594423.44, -801424.8, 43085.895, 0.17228226, 0.10141246, -585813.56, 38458.05, 0.0, 10.001091, 9.998317 
2.0050894e+3, 2.4629678e+2, -390923.88, -580830.1, -47156.74, 0.17825708, 0.063954204, -379858.8, 146427.28, 0.0, 10.001467, 9.998994 
2.0050837e+3, 2.5629368e+2, -250848.02, -461099.44, -73533.39, 0.03552149, -0.17618538, -227682.75, 200627.19, 0.0, 10.001762, 9.998993 
2.0050804e+3, 2.6629168e+2, -215529.16, -492460.06, -11231.084, 0.0043488555, -0.22234799, -215074.42, 115252.85, 0.000000029896977, 10.001774, 9.998091 
2.0050783e+3, 2.7629024e+2, -123543.13, -400277.34, -30577.88, 0.033428874, -0.2047911, -120204.69, 112137.53, 0.0000031274246, 10.001745, 9.998059 
2.005076e+3, 2.862887e+2, 67658.914, -358592.97, -56507.73, 0.10385648, -0.116390735, 75022.87, 209383.23, 0.000025154262, 10.002809, 9.997183 
2.0050731e+3, 2.9628706e+2, 405769.53, -115323.95, -53503.45, 0.18615887, -0.03836065, 411206.28, 447586.56, 0.00009776422, 10.00435, 9.997423 
2.0050721e+3, 3.0628324e+2, 450630.22, 27692.686, 12518.318, 0.22876091, -0.20704845, 451000.4, 451000.4, 0.00024033496, 10.003878, 9.998321 
2.0050703e+3, 3.162836e+2, 218850.61, -88517.45, 109201.41, 0.14095211, -0.04778113, 253697.02, 253697.02, 0.00043298, 10.002272, 9.998289 
2.0151114e+3, 1.2630169e+2, -2194256.8, -1831655.5, -36591.477, -0.034316212, 0.047363427, -1827999.8, -125770.06, 0.28771394, 9.996142, 10.001043 
2.0151077e+3, 1.3629779e+2, -1707548.6, -1513747.4, 7227.9287, 0.0003716799, -0.52498513, -1513478.1, 90788.53, 0.20582092, 9.9986105, 10.00152 
2.0151049e+3, 1.4630407e+2, -1562709.8, -1468219.8, 73148.41, -0.002071558, -0.01361449, -1428385.6, 77819.03, 0.12247417, 9.99935, 10.000703 
2.0151037e+3, 1.5630364e+2, -1659282.3, -1466033.5, 70497.99, 0.02234255, -0.14830543, -1443049.1, -34840.39, 0.055639356, 9.998053, 10.000605 
2.0151024e+3, 1.6630322e+2, -1559648.3, -1480908.4, 65661.15, 0.001931795, -0.19624719, -1443718.6, -133503.73, 0.016791714, 9.998544, 9.999602 
2.0151013e+3, 1.7630412e+2, -1193809.9, -1249482.5, 62338.426, -0.023640206, -0.08911178, -1153375.1, 58834.01, 0.0023981123, 10.000378, 9.999624 
2.0151003e+3, 1.8630345e+2, -1045921.0, -1209084.6, 43227.805, 0.015731532, -0.08032995, -1035176.0, 79041.94, 0.000045425786, 10.0010605, 9.998907 
2.0150991e+3, 1.9630127e+2, -951187.1, -1102441.9, 105441.67, 0.09153493, -0.21255009, -897055.3, 119185.78, 0.0, 10.001011, 9.998979 
2.015097e+3, 2.063014e+2, -890190.7, -1026369.8, 60091.367, 0.064575374, -0.09523806, -867466.4, 50776.07, 0.0, 10.000758, 9.99896 
2.015094e+3, 2.163031e+2, -831625.75, -933110.06, -2242.4792, -0.011511801, 0.15463746, -831576.25, -11347.008, 0.0, 10.000439, 9.999076 
2.0150918e+3, 2.2630212e+2, -704106.8, -797829.44, 29947.068, -0.10607454, 0.13821603, -695355.1, 26882.89, 0.0, 10.000525, 9.9993 
2.01509e+3, 2.3629946e+2, -537642.2, -667492.7, 66000.836, -0.19747415, -0.085712485, -509985.6, 114275.14, 0.0, 10.001005, 9.999286 
2.0150891e+3, 2.4629775e+2, -467588.44, -698981.0, -39672.62, -0.01430585, -0.12831116, -460975.47, 65298.87, 0.0, 10.001301, 9.998258 
2.0150886e+3, 2.562966e+2, -318991.16, -565055.6, -55831.066, 0.3361815, -0.09545797, -306915.88, 121366.555, 0.0, 10.001618, 9.998342 
2.0150846e+3, 2.662946e+2, -237507.64, -503640.75, -20095.799, 0.22347553, -0.117917016, -235998.75, 94302.97, 0.0000000091701935, 10.001623, 9.99809 
2.0150787e+3, 2.7629197e+2, -141659.61, -405661.4, -10834.875, -0.14067504, -0.22262776, -141215.69, 91112.35, 0.0000023642951, 10.001609, 9.998088 
2.0150764e+3, 2.8629074e+2, 23046.69, -402315.4, -8163.855, -0.14756756, -0.094416484, 23203.318, 157545.94, 0.000021595964, 10.002605, 9.996974 
2.0150763e+3, 2.962901e+2, 361295.3, -179482.64, -395.65036, 0.04368185, 0.10586253, 361295.6, 397647.6, 0.000083873885, 10.004214, 9.997051 
2.0150775e+3, 3.0628455e+2, 338141.2, -138457.67, -59015.047, 0.35466826, -0.16079591, 345340.03, 345340.03, 0.00020822513, 10.003611, 9.997293 
2.0150721e+3, 3.162829e+2, 67404.0, -279468.94, 37418.465, 0.059740596, -0.11712187, 71394.56, 71394.56, 0.00038286584, 10.001791, 9.997183 
2.025109e+3, 1.2630612e+2, -2027273.9, -1838443.8, -135699.05, 0.031148622, 0.116370305, -1767545.8, -65357.773, 0.29983783, 9.997675, 10.000253 
2.0251076e+3, 1.3630225e+2, -1697861.5, -1494544.3, 36705.938, 0.12401929, -0.46181524, -1488120.5, 116100.76, 0.21537028, 9.998619, 10.001687 
2.0251028e+3, 1.4630616e+2, -1621944.3, -1541257.0, 58866.723, -0.12297434, -0.17600547, -1510236.1, -4054.4365, 0.12892798, 9.999149, 10.00024 
2.0251031e+3, 1.5630622e+2, -1528284.0, -1472738.0, 43898.89, 0.114268854, -0.19931528, -1448564.4, -40382.492, 0.05909158, 9.9992485, 9.999982 
2.0251025e+3, 1.6630612e+2, -1486245.4, -1468973.1, 104822.12, 0.13883482, -0.17264739, -1372432.0, -62246.1, 0.018083457, 9.999152, 9.999386 
2.0251013e+3, 1.76307e+2, -1393032.1, -1359795.1, 91235.58, 0.010800447, -0.049359486, -1283676.9, -71495.234, 0.0026487417, 9.999088, 9.999482 
2.0251003e+3, 1.8630618e+2, -1249667.3, -1249517.4, 24070.88, -0.00068164774, -0.07506228, -1225521.3, -111330.93, 0.000052423693, 9.999409, 9.999422 
2.0250992e+3, 1.9630395e+2, -1053711.6, -1113757.8, 6038.787, 0.04869903, -0.26480642, -1053110.4, -36899.45, 0.0, 10.000127, 9.999329 
2.0250975e+3, 2.0630412e+2, -987638.75, -1154109.1, -2249.877, 0.06405188, -0.12182877, -987608.3, -69395.18, 0.0, 10.000441, 9.998231 
2.025095e+3, 2.1630572e+2, -846773.6, -1011780.44, 20787.969, 0.04347201, 0.19113915, -844195.0, -23990.709, 0.0, 10.000636, 9.998438 
2.025093e+3, 2.2630432e+2, -649494.44, -748255.3, 75352.94, -0.04274248, 0.14959759, -608783.3, 113433.914, 0.0, 10.000809, 9.9994955 
2.0250912e+3, 2.3630115e+2, -523876.94, -636684.25, 24505.414, -0.17042066, -0.14514996, -518783.53, 105459.45, 0.0, 10.001008, 9.999486 
2.0250903e+3, 2.4629964e+2, -456347.25, -680584.44, -59876.582, -0.0114583615, -0.18408397, -441360.44, 84893.76, 0.0, 10.00133, 9.998364 
2.02509e+3, 2.56299e+2, -290500.53, -544858.56, -27671.656, 0.30281577, -0.11278974, -287524.94, 140733.05, 0.0, 10.001787, 9.998395 
2.0250864e+3, 2.662973e+2, -178643.28, -489093.5, 30205.67, 0.2303562, -0.0949864, -175731.69, 154542.9, 0.000000001074916, 10.002075, 9.997977 
2.025081e+3, 2.762951e+2, -67295.89, -380122.78, 12100.705, -0.06947926, -0.1461778, -66828.516, 165469.84, 0.0000018159459, 10.002162, 9.997998 
2.0250793e+3, 2.8629336e+2, -35427.266, -424552.78, 64970.72, -0.10293401, -0.066618584, -24866.01, 109451.05, 0.000018189116, 10.002158, 9.997042 
2.0250787e+3, 2.9629174e+2, 63811.523, -307385.75, 64693.453, -0.021262307, 0.027408749, 74763.38, 111097.61, 0.000072171526, 10.002116, 9.997171 
2.0250817e+3, 3.062873e+2, 291100.9, -244269.94, 49553.68, 0.41402286, -0.10348162, 295648.94, 295648.94, 0.00017992141, 10.003585, 9.996607 
2.0250753e+3, 3.1628516e+2, 577019.56, -74227.5, -9458.943, 0.013935352, -0.020742506, 577156.9, 577156.9, 0.00033497292, 10.005436, 9.996847 
2.0351067e+3, 1.2630734e+2, -2052644.5, -1921526.4, -28887.99, -0.012404137, -0.039914317, -1915443.9, -213264.94, 0.3135409, 9.997789, 9.999634 
2.0351084e+3, 1.363087e+2, -1643798.8, -1407535.1, 76607.26, 0.32675138, -0.16101894, -1384870.0, 219288.66, 0.22593072, 9.998635, 10.00247 
2.0350996e+3, 1.4630897e+2, -1640420.6, -1599863.1, 53245.316, -0.3879829, -0.25035083, -1563165.6, -57012.227, 0.13594478, 9.999231, 9.999801 
2.0351037e+3, 1.5630904e+2, -1563161.5, -1545279.8, 49527.33, 0.2199481, -0.22007969, -1503892.8, -95739.4, 0.06282382, 9.999252, 9.99948 
2.0351037e+3, 1.6630898e+2, -1491379.0, -1492256.0, 91237.8, 0.32259005, -0.15478908, -1400578.6, -90422.21, 0.019494196, 9.999201, 9.999205 
2.0351006e+3, 1.7630933e+2, -1402625.9, -1386167.8, 98297.83, 0.0056752264, -0.07082728, -1295755.1, -83597.836, 0.0029308582, 9.999105, 9.999294 
2.0350988e+3, 1.8630898e+2, -1273722.6, -1305959.3, 48206.574, -0.11250554, -0.020588124, -1239011.1, -124848.05, 0.00006041413, 9.999438, 9.9990225 
2.0350985e+3, 1.9630806e+2, -1079626.0, -1154611.0, 37620.19, -0.05886834, -0.038917247, -1064005.8, -47832.336, 0.0, 10.000075, 9.999075 
2.035097e+3, 2.0630687e+2, -954582.75, -1073919.1, -3436.1892, -0.04178112, -0.05283089, -954483.9, -36298.055, 0.0, 10.000391, 9.998806 
2.035095e+3, 2.1630554e+2, -831340.25, -956767.8, 34825.313, -0.045239568, -0.090822086, -822319.6, -2120.6726, 0.0, 10.000535, 9.998866 
2.0350948e+3, 2.2630444e+2, -728872.7, -869982.8, 78070.23, 0.030952055, -0.0804341, -694199.56, 28010.195, 0.0, 10.00063, 9.998744 
2.0350957e+3, 2.3630343e+2, -587591.8, -734203.75, 44339.723, 0.17316514, -0.08140761, -575225.25, 48994.23, 0.0, 10.000865, 9.998883 
2.0350929e+3, 2.4630216e+2, -417537.6, -562471.2, -48550.62, 0.08922579, -0.11946007, -402777.1, 123451.586, 0.0, 10.001166, 9.999257 
2.0350876e+3, 2.5630066e+2, -250303.06, -441703.03, -4350.293, -0.12413321, -0.22281156, -250204.23, 178033.6, 0.0, 10.001693, 9.999155 
2.0350856e+3, 2.6629984e+2, -227736.88, -545737.3, 27283.727, -0.07803807, -0.13864338, -225412.98, 104833.86, 0.000000023664393, 10.001895, 9.997668 
2.0350857e+3, 2.762993e+2, -105711.43, -428291.97, 25080.678, 0.15122074, 0.005072248, -103773.055, 128483.62, 0.0000019634658, 10.002027, 9.997732 
2.0350839e+3, 2.862962e+2, -44985.23, -394141.13, 49945.51, 0.13118225, -0.052175533, -37981.2, 96306.086, 0.000016146072, 10.001951, 9.997348 
2.0350805e+3, 2.9629183e+2, 75450.484, -253281.88, 89187.87, -0.08593061, -0.2696752, 98088.9, 134416.95, 0.00006227005, 10.001973, 9.99762 
2.0350836e+3, 3.062912e+2, 186652.58, -353461.75, 117623.195, 0.23184907, -0.019782173, 211156.27, 211156.27, 0.0001542965, 10.00316, 9.996039 
2.0350803e+3, 3.1628755e+2, 544522.1, -35638.3, -30669.28, -0.047803517, -0.032650877, 546138.94, 546138.94, 0.0002896245, 10.005013, 9.997297 
2.0451054e+3, 1.2630914e+2, -1697238.9, -1727263.4, 122193.516, -0.03892602, -0.19190542, -1589138.9, 113021.57, 0.3294151, 10.000301, 9.999928 
2.0451084e+3, 1.3631277e+2, -1838419.1, -1543764.9, -3846.3333, 0.5227648, -0.017924927, -1543714.6, 60404.406, 0.23787552, 9.9976015, 10.00177 
2.0450978e+3, 1.4631154e+2, -1961231.6, -1759753.9, 3769.7798, -0.3853788, -0.21704945, -1759683.4, -253555.0, 0.14372098, 9.997053, 9.999755 
2.0451029e+3, 1.5631141e+2, -1565961.9, -1545405.6, 27027.89, 0.21932563, -0.21174532, -1526767.5, -118638.65, 0.06692591, 9.999226, 9.999494 
2.0451039e+3, 1.6631098e+2, -1417943.6, -1494295.4, 48402.836, 0.3796108, -0.16877608, -1394473.5, -84338.48, 0.021061258, 9.999875, 9.998858 
2.0451008e+3, 1.7631035e+2, -1367923.9, -1404304.9, 23430.262, 0.08799058, -0.14611998, -1356451.8, -144307.03, 0.003256253, 9.999501, 9.998973 
2.0450987e+3, 1.8631011e+2, -1266911.1, -1314852.6, 18006.125, -0.07277246, -0.06428267, -1260901.6, -146751.63, 0.00007088071, 9.999541, 9.998914 
2.0450981e+3, 1.9631009e+2, -1099811.0, -1169055.4, 14856.939, -0.09895296, 0.015464804, -1096758.0, -80605.05, 0.0, 9.999966, 9.999026 
2.045097e+3, 2.0630859e+2, -935782.44, -1030298.6, -23244.078, -0.07663533, -0.041269187, -930375.4, -12208.619, 0.0, 10.000365, 9.999125 
2.0450956e+3, 2.1630631e+2, -763543.1, -890023.3, -20963.16, -0.042806767, -0.20787449, -760159.2, 60027.242, 0.0, 10.000867, 9.99916 
2.0450957e+3, 2.2630545e+2, -718710.4, -905040.6, 34576.035, 0.065969445, -0.16990474, -712501.25, 9694.278, 0.0, 10.0008545, 9.9984 
2.0450968e+3, 2.363052e+2, -654573.9, -800352.2, 22124.926, 0.2129554, -0.060828418, -651289.94, -27089.55, 0.0, 10.000538, 9.998586 
2.045094e+3, 2.4630402e+2, -466971.7, -588343.06, -60107.05, 0.11824747, -0.07598437, -442243.03, 83967.26, 0.0, 10.000834, 9.999239 
2.0450892e+3, 2.563023e+2, -282691.5, -457289.5, -100393.55, -0.13568817, -0.19719152, -236949.23, 191273.42, 0.0, 10.001483, 9.999141 
2.0450872e+3, 2.663012e+2, -255221.31, -579705.6, -89788.79, -0.098444484, -0.13103548, -232032.77, 98202.305, 0.00000011200642, 10.001786, 9.997491 
2.0450874e+3, 2.763003e+2, -134539.48, -454867.9, -101394.75, 0.14044347, -0.0034031866, -105142.44, 127106.336, 0.000002326167, 10.001889, 9.997613 
2.0450865e+3, 2.862975e+2, 51978.258, -317561.7, -44840.844, 0.17745647, -0.046455704, 57341.51, 191618.16, 0.000014696717, 10.002476, 9.997626 
2.0450841e+3, 2.962937e+2, 272324.8, -122030.7, -42555.297, 0.028542597, -0.22606863, 276864.75, 313175.78, 0.00005375532, 10.003175, 9.997942 
2.0450862e+3, 3.0629328e+2, 161293.52, -308021.6, 53486.484, 0.20079592, 0.0015343627, 167312.03, 167312.03, 0.00013235425, 10.00273, 9.996554 
2.0450845e+3, 3.162901e+2, 133269.23, -185109.89, -160418.67, 0.016702835, -0.0022225124, 200078.5, 200078.5, 0.0002522823, 10.001937, 9.99776 
2.0551057e+3, 1.2631279e+2, -1625733.8, -1567098.4, 188804.02, -0.09886882, -0.21553624, -1405349.4, 296770.72, 0.3476065, 10.000309, 10.001472 
2.0551072e+3, 1.3631473e+2, -1980827.3, -1834402.4, -109144.85, 0.6181878, -0.017420033, -1776189.4, -172089.13, 0.2513395, 9.9976635, 9.999615 
2.0550966e+3, 1.4631388e+2, -1929640.0, -1704624.3, 67866.76, -0.23477632, -0.08038897, -1685739.9, -179633.47, 0.15236652, 9.997096, 10.0001135 
2.0551004e+3, 1.5631345e+2, -1522411.5, -1456080.3, 108590.03, 0.024137687, -0.17603405, -1375704.0, 32403.64, 0.071473114, 9.999229, 10.000116 
2.0551026e+3, 1.6631214e+2, -1455787.4, -1586688.9, 28973.26, 0.22400118, -0.21383159, -1449661.3, -139540.42, 0.022826005, 9.999925, 9.998208 
2.0551012e+3, 1.7631005e+2, -1407165.5, -1490835.4, 17377.191, 0.19315793, -0.2680959, -1403700.0, -191555.88, 0.0036400491, 9.9995165, 9.998378 
2.0550993e+3, 1.8630949e+2, -1245106.6, -1280313.4, 26921.896, 0.021032853, -0.20331316, -1230543.8, -116391.6, 0.00008593674, 9.99958, 9.999134 
2.0550977e+3, 1.9630995e+2, -1088510.6, -1142811.0, 37145.22, -0.15389942, -0.097044036, -1069651.0, -53500.77, 0.0, 9.999946, 9.99922 
2.0550969e+3, 2.0630923e+2, -940465.56, -1027527.06, -10355.344, -0.13551827, -0.08794644, -939250.8, -21093.96, 0.0, 10.000312, 9.999167 
2.0550969e+3, 2.1630782e+2, -777622.94, -893574.3, 1605.8351, -0.019131308, -0.17383018, -777600.75, 42568.01, 0.0, 10.0007515, 9.999192 
2.0550957e+3, 2.2630696e+2, -737857.7, -903090.8, 16651.336, -0.035404034, -0.14189883, -736196.4, -14018.266, 0.0, 10.000684, 9.998492 
2.0550942e+3, 2.3630635e+2, -674341.8, -811144.4, 22534.533, -0.113970295, -0.07815531, -670725.5, -46538.742, 0.0, 10.000412, 9.998572 
2.0550938e+3, 2.463052e+2, -559693.94, -731936.75, -41839.1, -0.017262792, -0.040159266, -550068.75, -23869.281, 0.0, 10.000637, 9.9983425 
2.0550938e+3, 2.563037e+2, -360518.34, -586124.4, -68947.375, 0.18125752, -0.050587557, -341116.0, 87098.61, 0.0, 10.001351, 9.998318 
2.0550908e+3, 2.663012e+2, -284587.22, -601281.94, -92939.53, 0.07459138, -0.083059, -259327.27, 70914.09, 0.00000017468948, 10.001617, 9.997424 
2.0550865e+3, 2.7629805e+2, -151875.63, -469931.0, -80818.305, -0.18179867, -0.17497116, -132517.77, 99757.77, 0.0000023499456, 10.001788, 9.997562 
2.0550866e+3, 2.8629693e+2, 14202.575, -329614.13, -25895.37, -0.08069838, -0.047247615, 16142.007, 150429.14, 0.000012296112, 10.002211, 9.997663 
2.0550893e+3, 2.9629692e+2, 257237.78, -117759.53, -11304.629, 0.20456283, 0.13569519, 257578.27, 293864.5, 0.000044415407, 10.003025, 9.99804 
2.0550889e+3, 3.0629253e+2, 198018.98, -142518.73, -4708.853, 0.17458704, -0.10801258, 198084.08, 198084.08, 0.00011223961, 10.002374, 9.997852 
2.055087e+3, 3.1629238e+2, 66775.375, -211447.28, -154347.02, 0.028177971, 0.050082594, 135449.9, 135449.9, 0.00022222151, 10.001462, 9.997808 
2.0651042e+3, 1.2631567e+2, -2137466.0, -1688411.0, 282103.5, -0.04483888, -0.24170335, -1552390.4, 149692.44, 0.36771804, 9.995897, 10.002611 
2.0651057e+3, 1.363151e+2, -1620510.1, -1802713.5, -91073.4, 0.54511386, -0.1857644, -1582794.6, 21295.18, 0.26616043, 10.000792, 9.998327 
2.0650966e+3, 1.4631426e+2, -1370076.5, -1494026.6, 64275.01, -0.13858601, -0.15048328, -1342764.5, 163333.73, 0.1618756, 10.001405, 9.999513 
2.0650996e+3, 1.5631382e+2, -1552155.8, -1510476.5, 19441.709, 0.0306597, -0.20037584, -1502815.8, -94713.484, 0.07651462, 9.999203, 9.999742 
2.0651019e+3, 1.6631272e+2, -1528868.9, -1590458.5, -15745.626, 0.20507354, -0.22177327, -1525076.9, -214963.3, 0.024829434, 9.999282, 9.998492 
2.0651019e+3, 1.7631081e+2, -1185492.9, -1357847.3, 25760.479, 0.20885909, -0.28626582, -1181725.0, 30408.541, 0.0041003036, 10.000924, 9.99861 
2.0651e+3, 1.8631e+2, -1104444.5, -1223549.3, 27076.64, 0.09518393, -0.2513782, -1098578.0, 15565.472, 0.000108260756, 10.000608, 9.99902 
2.0650984e+3, 1.9631003e+2, -1190646.1, -1193369.8, 3489.816, -0.037276056, -0.17837755, -1188261.9, -172115.88, 0.0, 9.999268, 9.99919 
2.0650974e+3, 2.0630962e+2, -1087410.6, -1078502.0, 2220.3762, -0.0584837, -0.14913756, -1077979.3, -159829.52, 0.0, 9.999223, 9.99934 
2.065097e+3, 2.1630883e+2, -868730.44, -919487.94, 7623.769, -0.04399483, -0.18474336, -867610.06, -47454.8, 0.0, 10.000053, 9.999351 
2.0650958e+3, 2.2630785e+2, -709561.5, -862745.75, 32784.906, -0.094878584, -0.18368572, -702839.7, 19325.21, 0.0, 10.000762, 9.998737 
2.0650944e+3, 2.3630674e+2, -523427.63, -722122.9, 34904.973, -0.1706056, -0.1925952, -517474.22, 106702.81, 0.0, 10.001386, 9.998716 
2.0650947e+3, 2.463058e+2, -434514.16, -741434.56, 10439.396, -0.028208748, -0.1075389, -434159.47, 92030.89, 0.0, 10.001783, 9.99773 
2.0650959e+3, 2.5630477e+2, -297872.03, -613824.6, -13882.124, 0.22075798, -0.010244113, -297263.28, 130942.33, 0.0, 10.002025, 9.997803 
2.065093e+3, 2.663022e+2, -206123.88, -560204.9, -20414.703, 0.09491179, -0.03115412, -204950.75, 125283.27, 0.00000012472299, 10.002139, 9.997455 
2.0650877e+3, 2.7629864e+2, -90994.79, -435047.6, -17507.086, -0.24244446, -0.16253258, -90106.24, 142164.28, 0.0000018192295, 10.002191, 9.997603 
2.0650885e+3, 2.8629753e+2, 27340.133, -326252.44, 69162.18, -0.11708138, -0.03981277, 40386.766, 174669.52, 0.000008845643, 10.002308, 9.997642 
2.0650923e+3, 2.9629752e+2, 151123.88, -171721.44, 34256.754, 0.23686394, 0.15127571, 154718.8, 191002.03, 0.000033872344, 10.002324, 9.998001 
2.0650908e+3, 3.0629352e+2, 270380.84, -13604.179, 17409.375, 0.1337059, -0.094151564, 271444.13, 271444.13, 0.00009224371, 10.002415, 9.99875 
2.0650901e+3, 3.1629446e+2, 275206.63, -64230.17, -158005.77, 0.16485368, 0.08282623, 337372.16, 337372.16, 0.00019318692, 10.002657, 9.998269 
2.0750996e+3, 1.2631701e+2, -2092879.3, -1633036.4, 256816.6, -0.14196926, -0.33859348, -1518257.0, 183799.05, 0.38886976, 9.995947, 10.0031595 
2.075103e+3, 1.3631375e+2, -1628263.3, -1839031.5, 65079.62, 0.18051618, -0.53256756, -1609788.0, -5698.4604, 0.28190908, 10.000822, 9.998055 
2.0750982e+3, 1.4631286e+2, -1456927.1, -1719074.0, -18415.871, -0.18296883, -0.4099424, -1455639.8, 50463.156, 0.17213808, 10.001463, 9.997915 
2.0751004e+3, 1.5631254e+2, -1641507.3, -1707296.8, -40613.586, 0.15207736, -0.27605253, -1622138.0, -214025.2, 0.08207624, 9.999247, 9.998371 
2.0751016e+3, 1.6631256e+2, -1432640.1, -1398901.5, 35577.414, 0.21437149, -0.19649307, -1376396.6, -66281.99, 0.027111659, 9.999312, 9.999794 
2.0751013e+3, 1.7631254e+2, -1109545.3, -1194792.5, 77922.7, 0.06573463, -0.20354374, -1063350.4, 148763.48, 0.0046569863, 10.000904, 9.999741 
2.0751008e+3, 1.863116e+2, -1130673.9, -1287562.1, -29795.41, 0.0703101, -0.20664392, -1125205.9, -11081.386, 0.00014131474, 10.000649, 9.99856 
2.0751001e+3, 1.9631019e+2, -1220768.6, -1252818.0, -31418.025, 0.1833302, -0.22996472, -1201524.6, -185383.28, 0.0000000002137382, 9.999252, 9.998791 
2.0750982e+3, 2.0630953e+2, -1071895.5, -1038423.9, 25593.49, 0.06465282, -0.22509511, -1024580.06, -106432.74, 0.0, 9.999185, 9.999633 
2.0750958e+3, 2.1630923e+2, -862984.44, -884061.75, 45038.816, -0.19052161, -0.24357648, -827267.7, -7120.1055, 0.0, 9.999948, 9.999644 
2.0750958e+3, 2.2630805e+2, -710567.3, -822126.44, 52973.45, -0.19393769, -0.29738215, -689421.25, 32735.852, 0.0, 10.00059, 9.999091 
2.0750974e+3, 2.3630631e+2, -526744.3, -697733.56, 66026.95, -0.035408475, -0.4051448, -504216.3, 119956.1, 0.0, 10.001258, 9.998942 
2.075097e+3, 2.4630554e+2, -484103.13, -803200.5, 13774.222, -0.017830933, -0.28791812, -483509.66, 42675.824, 0.0, 10.001614, 9.997384 
2.075095e+3, 2.5630537e+2, -335899.13, -661439.06, 1789.061, -0.085496835, -0.07575737, -335889.28, 92308.11, 0.0, 10.001895, 9.997535 
2.0750931e+3, 2.6630396e+2, -232008.23, -564221.56, -28056.799, -0.12743457, 0.029413773, -229655.38, 100559.72, 0.000000021824269, 10.001933, 9.997524 
2.075091e+3, 2.7630174e+2, -106332.89, -434174.06, -4465.455, -0.13205656, 0.018997747, -106272.08, 125965.39, 0.00000084431264, 10.002057, 9.997672 
2.0750916e+3, 2.8629863e+2, -17850.322, -365935.97, 57360.547, -0.064624116, -0.04781468, -8641.578, 125627.26, 0.000005133315, 10.002082, 9.997474 
2.0750925e+3, 2.9629517e+2, 112095.82, -226556.86, 46724.527, 0.021742785, -0.18653475, 118424.23, 154729.13, 0.000023723636, 10.002193, 9.997692 
2.0750916e+3, 3.0629602e+2, 219228.25, 5075.524, 5329.689, -0.06347733, 0.055768706, 219360.81, 219360.81, 0.00007269625, 10.00193, 9.999087 
2.0750928e+3, 3.1629813e+2, 215383.88, -35427.84, -3804.7063, 0.12993123, 0.28369245, 215441.58, 215441.58, 0.00016039563, 10.002074, 9.998716 
2.0850971e+3, 1.2631604e+2, -1861079.6, -1494230.8, -21958.725, -0.044334363, -0.3268507, -1492921.1, 209144.16, 0.40993002, 9.997047, 10.003906 
2.085102e+3, 1.3631265e+2, -1895707.0, -1952904.6, -40342.637, 0.08476406, -0.5529632, -1874854.6, -270754.63, 0.29801235, 9.998926, 9.998186 
2.0850986e+3, 1.4631286e+2, -1594844.6, -1752965.6, -177003.86, -0.22126532, -0.3493936, -1480047.1, 26054.977, 0.18298064, 10.000335, 9.998228 
2.0850998e+3, 1.563116e+2, -1443563.8, -1585824.0, -75149.04, 0.12046464, -0.33388665, -1411219.9, -3099.78, 0.088167645, 10.000497, 9.998606 
2.0851009e+3, 1.6631185e+2, -1333313.4, -1309247.4, 76438.516, 0.19227701, -0.2576472, -1243900.5, 66219.516, 0.029713616, 9.999826, 10.000168 
2.0851016e+3, 1.7631306e+2, -1363455.9, -1277438.8, 33245.12, 0.08620396, -0.17986314, -1266087.6, -53979.234, 0.005333032, 9.998985, 10.000097 
2.0851013e+3, 1.8631242e+2, -1292858.4, -1356740.9, -76957.484, 0.115310945, -0.17626064, -1241476.8, -127360.72, 0.00018960002, 9.999487, 9.998655 
2.0851004e+3, 1.9631058e+2, -964674.0, -1125487.0, -47754.266, 0.2068483, -0.25059068, -951562.2, 64573.855, 0.000000020895914, 10.000981, 9.998839 
2.0850986e+3, 2.0630975e+2, -791527.2, -918338.75, 20175.701, 0.10774943, -0.25432903, -788394.6, 129749.53, 0.0, 10.001195, 9.999485 
2.085097e+3, 2.1630952e+2, -752601.94, -840682.56, -7331.6284, -0.10257761, -0.25103116, -751995.8, 68149.56, 0.0, 10.000761, 9.999544 
2.0850974e+3, 2.2630864e+2, -654774.7, -786083.7, 1615.2579, -0.10225418, -0.2762597, -654754.9, 67397.21, 0.0, 10.000912, 9.9992 
2.085099e+3, 2.363073e+2, -494135.84, -668665.56, -16573.074, 0.021077499, -0.35484013, -492576.03, 131586.69, 0.0, 10.001405, 9.999083 
2.0850983e+3, 2.463064e+2, -509946.8, -800749.25, -55630.35, -0.014064093, -0.26716927, -499668.1, 26508.256, 0.0, 10.00137, 9.9975195 
2.0850956e+3, 2.563057e+2, -445585.9, -703488.75, -45781.14, -0.15321645, -0.11644586, -437700.25, -9507.6045, 0.0, 10.001087, 9.997642 
2.0850949e+3, 2.663044e+2, -284397.22, -573574.8, -30014.91, -0.10580969, -0.010979007, -281314.72, 48893.344, 0.0, 10.001509, 9.997663 
2.0850949e+3, 2.763027e+2, -56530.707, -400432.5, -28249.176, 0.047412366, 0.019202176, -54225.68, 177998.28, 0.000000115745564, 10.002363, 9.997754 
2.0850947e+3, 2.862994e+2, 1833.1941, -374706.5, 25349.951, 0.043190345, -0.06465706, 3532.1743, 137789.63, 0.0000020138657, 10.002278, 9.997323 
2.0850933e+3, 2.9629532e+2, 8523.852, -284307.6, -7032.1143, -0.086957164, -0.24556752, 8692.625, 44992.49, 0.000014504671, 10.001528, 9.997612 
2.0850933e+3, 3.0629689e+2, 185826.83, -24495.898, -1164.3688, -0.05088942, 0.07127375, 185833.27, 185833.27, 0.000053401804, 10.001711, 9.999007 
2.0850955e+3, 3.1629795e+2, 263014.13, 1509.7037, -101108.484, 0.17611061, 0.21439397, 297546.72, 297546.72, 0.00012544217, 10.002266, 9.9989 
2.0950955e+3, 1.2631314e+2, -1825121.9, -1440899.9, -184971.52, 0.019952705, -0.18401033, -1366325.5, 335780.6, 0.42994058, 9.997127, 10.004747 
2.0951018e+3, 1.3631189e+2, -1857623.0, -1868965.3, 53899.14, 0.15901293, -0.25599974, -1809097.5, -204977.31, 0.31401625, 9.998923, 9.998759 
2.0950976e+3, 1.463142e+2, -1461509.6, -1469814.5, -151858.2, -0.37055352, 0.028058235, -1313747.1, 192348.95, 0.19429262, 10.000374, 10.000306 
2.0950979e+3, 1.5631095e+2, -1318813.9, -1325921.0, -62507.27, -0.14661355, -0.37303415, -1259759.3, 148365.48, 0.094824284, 10.000528, 10.000439 
2.0950994e+3, 1.6631058e+2, -1363058.4, -1391765.0, 36507.4, 0.04028368, -0.40447116, -1338184.0, -28054.0, 0.032688897, 9.999908, 9.999555 
2.0951018e+3, 1.7631243e+2, -1390962.8, -1340538.1, 15383.353, 0.19425471, -0.20109652, -1336215.6, -124099.02, 0.0061590113, 9.999008, 9.999653 
2.0951013e+3, 1.8631247e+2, -1241719.6, -1259053.8, -28637.592, 0.1386958, -0.1473795, -1220466.3, -106348.336, 0.00026052183, 9.999521, 9.99931 
2.0950991e+3, 1.9631118e+2, -934532.25, -1055770.3, 5418.3457, -0.034247283, -0.23269819, -934290.56, 81839.72, 0.00000016154512, 10.00095, 9.999333 
2.095099e+3, 2.0631024e+2, -848621.3, -1019361.06, -4579.433, -0.0077924007, -0.23252772, -848498.6, 69642.195, 0.0, 10.001121, 9.998824 
2.0951003e+3, 2.163096e+2, -811954.44, -936660.4, -11956.7, 0.14525256, -0.20491695, -810818.44, 9331.251, 0.0, 10.000647, 9.998938 
2.0951003e+3, 2.2630946e+2, -684376.9, -809451.06, 15001.736, 0.09239613, -0.12463827, -682602.7, 39548.656, 0.0, 10.000748, 9.999119 
2.0950998e+3, 2.3630962e+2, -516980.94, -676802.25, 7507.17, -0.077488005, -0.04739288, -516629.06, 107519.84, 0.0, 10.00124, 9.9991045 
2.095099e+3, 2.463082e+2, -500507.97, -731506.4, -72628.85, -0.11672307, -0.04581381, -479570.34, 46594.1, 0.0, 10.001156, 9.998099 
2.0950979e+3, 2.563057e+2, -427883.6, -641418.0, -42152.02, -0.063106425, -0.12988065, -419863.9, 8328.186, 0.0, 10.000975, 9.998124 
2.0950982e+3, 2.6630348e+2, -301832.66, -567998.1, -5190.8926, 0.04482694, -0.15068138, -301731.47, 28482.486, 0.0, 10.001339, 9.997779 
2.0950991e+3, 2.7630135e+2, -75497.164, -405014.38, 8219.523, 0.20339118, -0.1683257, -75292.26, 156939.88, 0.0, 10.002215, 9.997792 
2.0950976e+3, 2.8629956e+2, -59655.195, -424827.22, -13159.047, 0.09571118, -0.09092427, -59181.62, 75068.69, 0.00000039293647, 10.001954, 9.997132 
2.0950942e+3, 2.9629788e+2, -17697.469, -295024.63, -11001.987, -0.172571, -0.02101634, -17261.69, 19007.379, 0.000007667558, 10.001342, 9.997629 
2.0950955e+3, 3.0629477e+2, 65076.0, -147751.45, 11482.523, -0.034217406, -0.14670613, 65693.72, 65693.72, 0.000037309004, 10.001215, 9.998378 
2.0950982e+3, 3.1629208e+2, 193321.1, 26672.447, -71163.69, 0.179572, -0.29573756, 219574.19, 219574.19, 0.000096027696, 10.0016165, 9.999354 
2.105095e+3, 1.263101e+2, -1530310.9, -1384050.5, -71693.87, 0.12755945, -0.23557985, -1354769.6, 347369.03, 0.44859928, 10.0002575, 10.003904 
2.1051009e+3, 1.3630927e+2, -1826134.3, -1790178.3, 197658.1, 0.17765404, -0.33071387, -1609682.3, -5535.056, 0.3298663, 9.998847, 9.999351 
2.1050975e+3, 1.463144e+2, -1694510.8, -1484320.6, -63987.535, -0.32605284, 0.16668086, -1466373.5, 39720.76, 0.20615475, 9.9982195, 10.0011425 
2.1050976e+3, 1.5631066e+2, -1534907.4, -1343252.0, -70477.7, -0.12759563, -0.37679476, -1320125.6, 88000.72, 0.10215144, 9.99861, 10.001233 
2.1050988e+3, 1.6630986e+2, -1485628.8, -1485027.6, 21084.14, 0.02749873, -0.47212106, -1464241.9, -154104.97, 0.036114734, 9.999213, 9.999247 
2.1051009e+3, 1.7631215e+2, -1247240.4, -1291049.9, 14832.745, 0.14780875, -0.1987521, -1242690.9, -30569.57, 0.007176738, 10.00008, 9.9994755 
2.1051006e+3, 1.8631284e+2, -1121138.0, -1126935.8, 6022.786, 0.102397226, -0.10763008, -1117352.8, -3237.0437, 0.0003661867, 10.000048, 9.999955 
2.1050991e+3, 1.9631192e+2, -1092010.0, -1072957.3, 21495.855, -0.06428795, -0.21602665, -1058971.4, -42849.242, 0.00000091193453, 9.999639, 9.999838 
2.1050996e+3, 2.0631091e+2, -1022835.4, -1153247.3, 27724.406, -0.005158699, -0.22153734, -1017186.1, -99052.48, 0.0, 10.000099, 9.998411 
2.1051015e+3, 2.1630996e+2, -767062.5, -957675.2, 27603.137, 0.18443501, -0.1856624, -763145.7, 57001.484, 0.0, 10.001114, 9.99858 
2.1051018e+3, 2.2630972e+2, -640131.94, -798251.4, 63446.97, 0.14551905, -0.09492186, -617821.25, 104329.74, 0.0, 10.001115, 9.999002 
2.1051009e+3, 2.3630965e+2, -613977.0, -730671.7, 35011.543, -0.048543613, -0.028294044, -604278.56, 19872.594, 0.0, 10.000613, 9.9990225 
2.1051002e+3, 2.4630818e+2, -552826.2, -728875.7, -45455.72, -0.07254626, -0.042050943, -541782.4, -15616.834, 0.0, 10.000676, 9.998348 
2.1050994e+3, 2.563058e+2, -400171.03, -597671.5, -49768.98, -0.004709366, -0.13803223, -388338.44, 39850.445, 0.0, 10.00105, 9.99838 
2.1050999e+3, 2.663033e+2, -285707.0, -547088.7, 13955.817, 0.0912607, -0.20289275, -284963.97, 45246.992, 0.0, 10.001361, 9.997927 
2.105101e+3, 2.763007e+2, -155552.86, -429311.88, 9497.014, 0.20018096, -0.28724393, -155223.78, 77008.95, 0.0, 10.001586, 9.997936 
2.1050999e+3, 2.8629908e+2, -46385.496, -399771.0, 4643.1265, 0.13627534, -0.20653406, -46324.5, 87923.58, 0.00000006547354, 10.001977, 9.997283 
2.1050972e+3, 2.9629788e+2, 155938.83, -207503.22, -8538.516, -0.060291473, -0.09613519, 156139.33, 192400.95, 0.000004738257, 10.002525, 9.997656 
2.1050979e+3, 3.0629414e+2, 241137.27, -125165.43, 46840.977, 0.04123296, -0.25904265, 247032.19, 247032.19, 0.00002905632, 10.002643, 9.997864 
2.1050999e+3, 3.1628993e+2, 278154.28, 65783.125, -121115.34, 0.16101035, -0.5045764, 333041.06, 333041.06, 0.00007989996, 10.002148, 9.999388 
2.1150967e+3, 1.2630582e+2, -1637222.5, -1613110.1, 26947.055, 0.1888392, -0.6064905, -1595645.3, 106528.9, 0.46656317, 10.0003395, 10.0010395 
2.1150987e+3, 1.363049e+2, -1774844.6, -1696204.3, 137232.75, 0.037043437, -0.7635097, -1592769.8, 11410.767, 0.34608045, 9.998901, 9.9999895 
2.1150972e+3, 1.4631325e+2, -1721907.5, -1556197.4, -53991.05, -0.20103328, 0.05580858, -1540158.6, -34059.53, 0.21890919, 9.998308, 10.000544 
2.1150984e+3, 1.5631068e+2, -1533266.5, -1360427.5, -52840.555, 0.0795815, -0.34434354, -1345553.1, 62573.277, 0.110347085, 9.998696, 10.001059 
2.1150984e+3, 1.6630973e+2, -1469738.0, -1467835.4, 46332.695, 0.046257887, -0.45534527, -1422444.3, -112303.625, 0.040102176, 9.99928, 9.999333 
2.1150984e+3, 1.7631215e+2, -1238610.9, -1276621.3, 47111.85, -0.11761793, -0.17427303, -1206815.3, 5307.924, 0.008443992, 10.000086, 9.999575 
2.1150991e+3, 1.863133e+2, -1079968.8, -1046346.7, -18068.8, -0.08465619, -0.07066687, -1038477.94, 75633.37, 0.00052604213, 10.000071, 10.000496 
2.1150999e+3, 1.9631267e+2, -1064054.9, -1011742.3, 18495.217, 0.0380845, -0.20454705, -1005863.8, 10249.405, 0.0000034897541, 9.999627, 10.000261 
2.1151e+3, 2.063116e+2, -1040621.8, -1173190.1, 59954.88, 0.020194238, -0.22828305, -1017529.4, -99404.734, 0.0, 10.00003, 9.998308 
2.1151003e+3, 2.1631064e+2, -794513.06, -983115.3, 63271.402, -0.0506853, -0.1829541, -775253.75, 44884.33, 0.0, 10.000989, 9.998462 
2.1151014e+3, 2.2630928e+2, -681632.1, -842668.75, 39463.742, -0.032580465, -0.186889, -672481.1, 49671.28, 0.0, 10.000932, 9.998786 
2.1151026e+3, 2.3630737e+2, -646699.2, -771672.5, 29085.625, 0.0352211, -0.28007662, -640261.6, -16091.434, 0.0, 10.000495, 9.998799 
2.1151018e+3, 2.4630629e+2, -583640.1, -750389.25, -36639.445, 0.00835311, -0.24249798, -575944.56, -49764.004, 0.0, 10.000498, 9.9982815 
2.1151e+3, 2.5630575e+2, -417569.72, -611214.06, -27628.758, -0.05266396, -0.15252897, -413704.84, 14481.089, 0.0, 10.000955, 9.99833 
2.1150999e+3, 2.6630378e+2, -300062.5, -529840.0, 18005.662, -0.06454782, -0.17518002, -298660.13, 31541.486, 0.0, 10.001166, 9.998134 
2.1151003e+3, 2.7630064e+2, -153394.9, -401820.53, 31208.623, -0.04226791, -0.33425543, -149534.3, 82692.04, 0.0, 10.001482, 9.998176 
2.115101e+3, 2.8629756e+2, -65001.094, -383916.53, 15844.63, 0.007896071, -0.42682767, -64215.824, 70038.88, 0.00000005479561, 10.001751, 9.997497 
2.1151018e+3, 2.9629484e+2, 124231.67, -240496.11, 31343.229, 0.12677078, -0.49003017, 126905.58, 163187.31, 0.0000044706885, 10.002371, 9.997508 
2.1151003e+3, 3.0629456e+2, 116582.4, -228589.31, 15670.407, -0.04140859, -0.26088482, 117292.36, 117292.36, 0.000027145721, 10.002031, 9.997418 
2.1151e+3, 3.1629175e+2, 94486.54, -152905.02, -71489.305, -0.05738323, -0.35663608, 113659.11, 113659.11, 0.00007497601, 10.001501, 9.998178 
2.1250959e+3, 1.263109e+2, -1485772.3, -1529497.1, 1332.4014, -0.019736536, 0.21329875, -1485731.6, 216396.97, 0.48543465, 10.002246, 10.001274 
2.1250965e+3, 1.3630384e+2, -1913978.3, -1669590.4, -79509.53, 0.009923312, -0.7324819, -1645999.8, -41807.66, 0.3637423, 9.997573, 10.000764 
2.1250957e+3, 1.4631075e+2, -1852021.0, -1641444.0, -68960.234, -0.12798586, -0.08286457, -1620870.8, -114745.49, 0.23315269, 9.997502, 10.000352 
2.1250981e+3, 1.5631065e+2, -1389704.1, -1305322.4, -83832.586, 0.11972377, -0.21791151, -1253662.4, 154468.03, 0.1197026, 9.999739, 10.001007 
2.1250984e+3, 1.6631e+2, -1369174.3, -1383054.0, -16728.113, 0.08084632, -0.3170783, -1358003.6, -47862.63, 0.044803485, 9.9998045, 9.99967 
2.125098e+3, 1.7631103e+2, -1386658.9, -1322520.5, -5766.3906, -0.12752075, -0.19961384, -1322006.1, -109871.59, 0.01004214, 9.998954, 9.999807 
2.1250987e+3, 1.8631212e+2, -1150312.6, -1077762.0, -58114.066, -0.09141223, -0.11642991, -1045530.8, 68592.055, 0.0007722133, 9.999556, 10.000529 
2.1251006e+3, 1.9631228e+2, -847528.94, -901931.3, -68944.37, 0.06823162, -0.17754674, -800613.8, 215503.72, 0.000010944595, 10.001076, 10.000319 
2.1251011e+3, 2.0631146e+2, -832133.4, -1049622.3, -22379.596, 0.05702764, -0.1886644, -829854.4, 88271.74, 0.0, 10.001389, 9.998488 
2.1251014e+3, 2.163103e+2, -765006.94, -952514.56, -19715.457, -0.06733105, -0.17820616, -762956.4, 57184.715, 0.0, 10.001134, 9.998595 
2.125102e+3, 2.2630894e+2, -676340.1, -837518.44, -30135.717, -0.050717708, -0.18998481, -670889.94, 51265.65, 0.0, 10.000948, 9.998817 
2.125103e+3, 2.3630726e+2, -601522.9, -739299.0, -30459.123, 0.024159031, -0.26436967, -595089.44, 29082.027, 0.0, 10.000766, 9.99889 
2.1251027e+3, 2.463061e+2, -452945.03, -651275.7, -26125.146, 0.014729753, -0.25748098, -449561.4, 76619.66, 0.0, 10.001241, 9.998606 
2.1251018e+3, 2.5630525e+2, -223606.36, -489334.72, -8489.982, -0.048444998, -0.22659409, -223335.38, 204851.56, 0.0, 10.002161, 9.998592 
2.1251015e+3, 2.6630354e+2, -116381.68, -452357.5, 26994.375, -0.075199544, -0.22870678, -114226.61, 215973.38, 0.0, 10.002491, 9.998023 
2.1251015e+3, 2.763009e+2, -30831.568, -351138.4, -8118.0376, -0.10072505, -0.31963518, -30625.951, 201595.2, 0.0, 10.00239, 9.998077 
2.1251027e+3, 2.862978e+2, 11008.637, -369625.3, -23812.645, -0.00034600194, -0.40033397, 12492.582, 146743.4, 0.000000117451826, 10.002348, 9.997326 
2.125105e+3, 2.962948e+2, 113085.016, -251859.63, -62397.156, 0.20299809, -0.4721587, 123458.625, 159740.25, 0.0000050467984, 10.00233, 9.997444 
2.1251027e+3, 3.0629468e+2, 249070.39, -127097.8, -26659.227, -0.0115936985, -0.25117546, 250950.34, 250950.34, 0.00002697455, 10.002713, 9.99783 
2.1251026e+3, 3.1629416e+2, 281540.44, -57290.156, -95363.26, -0.025835302, -0.14028399, 306536.28, 306536.28, 0.00007155191, 10.002693, 9.998301 
2.1350946e+3, 1.3630594e+2, -1858508.4, -1578077.1, -198981.67, 0.026150389, -0.21446033, -1474871.0, 129312.68, 0.38411817, 9.997568, 10.001815 
2.1350928e+3, 1.4630695e+2, -1823223.8, -1606488.3, 17678.879, -0.22018428, -0.22820356, -1605055.6, -98883.5, 0.24951555, 9.997608, 10.000537 
2.1350962e+3, 1.563105e+2, -1377074.1, -1289440.6, -19986.85, -0.07580728, -0.0015959166, -1285097.4, 123042.15, 0.13052814, 9.999761, 10.00112 
2.1350981e+3, 1.6631043e+2, -1325524.5, -1309021.3, -59008.58, 0.04015552, -0.07825139, -1257690.1, 52450.496, 0.050404422, 9.999871, 10.00016 
2.1350986e+3, 1.7630874e+2, -1359898.5, -1274738.1, -22010.734, 0.033587363, -0.2808822, -1269385.5, -57228.957, 0.012084308, 9.998984, 10.000119 
2.1350993e+3, 1.8630926e+2, -1172661.1, -1137344.8, -4555.1387, -0.018858666, -0.24078052, -1136766.8, -22616.338, 0.001155736, 9.999607, 10.000097 
2.1351005e+3, 1.9631074e+2, -872709.44, -949234.4, -15752.043, -0.04453381, -0.126039, -869593.9, 146540.86, 0.000030850606, 10.001047, 10.0000105 
2.1351023e+3, 2.0631033e+2, -817916.56, -995918.0, -42040.996, -0.0015570666, -0.10924697, -808486.75, 109653.32, 0.0, 10.001286, 9.998907 
2.1351038e+3, 2.163088e+2, -754276.44, -903019.5, -21967.264, 0.063222885, -0.17634298, -751100.0, 69057.87, 0.0, 10.001018, 9.998992 
2.1351035e+3, 2.2630864e+2, -682714.44, -806337.44, -39749.94, -0.00953305, -0.10308954, -671036.4, 51124.586, 0.0, 10.000765, 9.999116 
2.1351023e+3, 2.3630911e+2, -597279.94, -706506.5, -24055.46, -0.14793043, 0.008591829, -592216.8, 31940.121, 0.0, 10.00066, 9.999167 
2.1351026e+3, 2.4630731e+2, -435074.0, -573861.6, -159.9065, -0.15203302, -0.094242975, -435073.8, 91096.164, 0.0, 10.001071, 9.999216 
2.135104e+3, 2.5630412e+2, -207262.14, -427591.38, 27117.316, -0.064686745, -0.36282247, -203973.72, 224219.97, 0.0, 10.002037, 9.999075 
2.1351045e+3, 2.6630232e+2, -182433.73, -541876.44, 14658.722, -0.047499266, -0.3648069, -181836.92, 148371.75, 0.0, 10.002297, 9.997496 
2.1351045e+3, 2.7630112e+2, -90112.805, -447642.5, -919.0338, -0.06389902, -0.26184392, -90110.44, 142110.64, 0.00000000014169585, 10.002274, 9.997474 
2.135105e+3, 2.862992e+2, -72019.0, -473236.97, -33788.035, -0.03703988, -0.1624898, -69193.484, 65049.418, 0.000000256191, 10.002072, 9.996732 
2.1351062e+3, 2.9629725e+2, 69542.625, -308493.34, -37075.79, 0.08127948, -0.08159047, 73144.51, 109410.5, 0.0000052967753, 10.00217, 9.997135 
2.1351047e+3, 3.0629322e+2, 242744.36, 6125.9287, -25870.213, -0.109521374, -0.3037853, 245539.8, 245539.8, 0.000025200057, 10.002151, 9.998985 
2.1351047e+3, 3.1629363e+2, 250545.14, 85151.3, 59887.703, -0.11940534, -0.21668255, 269952.66, 269952.66, 0.00006359445, 10.001878, 9.9996395 
2.145092e+3, 1.3630462e+2, -1716286.8, -1522196.5, -8567.2295, -0.006180882, -0.11103735, -1521819.0, 82378.305, 0.40760165, 9.998451, 10.001722 
2.1450931e+3, 1.4630452e+2, -1420668.4, -1413546.5, 5398.3867, -0.09692206, -0.24588884, -1410640.4, 95558.89, 0.26811564, 10.000506, 10.000694 
2.145095e+3, 1.5630819e+2, -1639926.4, -1393583.3, -26343.67, -0.07404395, -0.017956158, -1390797.6, 17365.525, 0.14296411, 9.997872, 10.001214 
2.1450971e+3, 1.6630863e+2, -1541811.4, -1372435.1, -33335.945, 0.06233854, -0.06653159, -1366110.3, -55953.08, 0.057087187, 9.99822, 10.000508 
2.1450992e+3, 1.7630713e+2, -1177975.0, -1156955.5, -18838.867, 0.11833942, -0.2834824, -1145893.1, 66276.44, 0.014719365, 10.000123, 10.000385 
2.1451001e+3, 1.8630716e+2, -1099785.6, -1145578.9, 6109.7393, 0.066592, -0.2825937, -1098984.5, 15184.031, 0.0017550356, 10.000309, 9.999702 
2.1451013e+3, 1.9630799e+2, -1079534.3, -1084249.1, -17505.967, -0.00284897, -0.19281176, -1064227.8, -48066.938, 0.00008036648, 9.999787, 9.999693 
2.145103e+3, 2.0630766e+2, -969753.9, -1027956.94, -39475.79, 0.01751825, -0.17141056, -949812.2, -31646.729, 0.000000018813253, 10.000054, 9.999284 
2.1451046e+3, 2.163067e+2, -742979.06, -858952.56, -36896.918, 0.050394405, -0.21996212, -732235.56, 87941.695, 0.0, 10.000917, 9.999344 
2.1451043e+3, 2.2630711e+2, -597941.06, -748638.9, -64292.69, -0.018665513, -0.11516668, -574239.44, 147935.42, 0.0, 10.001273, 9.999271 
2.1451032e+3, 2.3630808e+2, -490814.2, -644076.44, -70763.016, -0.14822863, 0.037197124, -463139.38, 161026.81, 0.0, 10.001347, 9.9992695 
2.145104e+3, 2.4630623e+2, -453799.22, -601699.4, -63746.906, -0.112999655, -0.06634605, -430115.88, 96064.89, 0.0, 10.001022, 9.999052 
2.1451057e+3, 2.563026e+2, -443011.4, -550546.1, -104990.65, 0.0077816923, -0.36050296, -378821.28, 49388.83, 0.0, 10.000459, 9.998991 
2.1451066e+3, 2.6630104e+2, -305702.25, -553455.44, -62507.26, 0.0047384184, -0.36063033, -290825.22, 39397.777, 0.0, 10.001233, 9.997932 
2.145107e+3, 2.7630055e+2, 19155.69, -345979.63, -37030.645, -0.07921934, -0.22870006, 22873.346, 255101.17, 0.00000000016893417, 10.002811, 9.997909 
2.1451072e+3, 2.8629908e+2, 42799.324, -387749.47, -27614.152, -0.04462806, -0.12335842, 44563.19, 178807.31, 0.0000002738674, 10.002703, 9.997026 
2.145108e+3, 2.962969e+2, -9897.264, -309248.78, 8817.17, 0.07359556, -0.08766072, -9637.786, 26630.51, 0.0000047479944, 10.001468, 9.997463 
2.145108e+3, 3.0629313e+2, 167317.72, -59538.59, 41930.445, 0.02842717, -0.29994196, 174819.73, 174819.73, 0.000021563434, 10.001676, 9.998798 
2.1451077e+3, 3.1629214e+2, 311309.53, 111980.63, -60074.33, -0.0034086395, -0.3228345, 328014.88, 328014.88, 0.000054127435, 10.002282, 9.99962 
2.1550886e+3, 1.363002e+2, -1834870.5, -1706127.9, 297539.25, -0.24692711, -0.37815365, -1466076.4, 138153.77, 0.43279883, 9.998531, 10.000467 
2.1550956e+3, 1.4630316e+2, -1405374.9, -1399488.3, -98548.484, 0.07362709, -0.16840082, -1303839.1, 202370.89, 0.28823382, 10.0006075, 10.0008135 
2.155094e+3, 1.5630381e+2, -1627773.4, -1391200.5, -92184.5, 0.035418294, -0.25238177, -1359521.4, 48679.004, 0.15688464, 9.997952, 10.001228 
2.1550955e+3, 1.6630487e+2, -1512491.6, -1338167.5, 36462.496, 0.034891132, -0.24570718, -1330848.1, -20660.242, 0.06501248, 9.998339, 10.000683 
2.1550986e+3, 1.7630617e+2, -1167424.4, -1134500.5, 39706.86, 0.049073257, -0.20600688, -1107978.4, 104195.805, 0.018139776, 10.000126, 10.000535 
2.1551009e+3, 1.8630563e+2, -1122712.1, -1205919.4, -24374.994, 0.069183215, -0.24402738, -1116097.4, -1918.2181, 0.0026903055, 10.000356, 9.999269 
2.1551025e+3, 1.9630392e+2, -1098659.5, -1123818.5, -24567.896, 0.10875549, -0.37204453, -1083637.9, -67441.63, 0.00019736934, 9.999789, 9.999416 
2.1551032e+3, 2.0630352e+2, -958235.6, -992628.9, -12248.339, 0.0085060485, -0.3646848, -954319.56, -36117.906, 0.0000007869328, 10.000002, 9.999553 
2.1551032e+3, 2.1630391e+2, -742844.8, -835477.1, -2670.768, -0.17660466, -0.3065318, -742767.9, 77432.48, 0.0, 10.00081, 9.999558 
2.1551043e+3, 2.2630417e+2, -626647.5, -766350.9, -67455.445, -0.1788774, -0.22537377, -599393.56, 122805.47, 0.0, 10.001093, 9.999234 
2.1551055e+3, 2.3630413e+2, -516669.16, -671381.56, -63223.79, -0.06084755, -0.17232257, -494119.25, 130080.484, 0.0, 10.001229, 9.999138 
2.1551065e+3, 2.4630278e+2, -549931.0, -750329.6, -90198.21, 0.025076035, -0.16964321, -515313.3, 10900.667, 0.0, 10.000815, 9.998125 
2.1551074e+3, 2.563005e+2, -503780.78, -654959.44, -107020.34, 0.0969206, -0.23183529, -448346.84, -20109.5, 0.0, 10.000365, 9.998319 
2.1551079e+3, 2.6629937e+2, -242537.84, -378630.47, -7307.0107, -0.020695807, -0.23244111, -242146.64, 88098.586, 0.0, 10.00105, 9.99922 
2.1551085e+3, 2.7629888e+2, 86299.13, -170267.47, 19351.879, -0.22416562, -0.236126, 87750.56, 319995.06, 0.0, 10.002652, 9.999195 
2.1551092e+3, 2.862969e+2, 72910.46, -247043.81, -83251.27, -0.14419551, -0.29857767, 93275.94, 227536.31, 0.000000100631844, 10.002398, 9.998125 
2.1551096e+3, 2.9629368e+2, 6902.3145, -229724.84, -9271.465, 0.085152276, -0.47608683, 7265.0303, 43554.918, 0.0000031808167, 10.001273, 9.998105 
2.1551108e+3, 3.0629316e+2, -39200.773, -334742.06, 58459.105, 0.11796145, -0.2883325, -28057.508, -28057.508, 0.000016664693, 10.001062, 9.997176 
2.1551105e+3, 3.1629145e+2, 46988.043, -313773.44, -44678.246, -0.013778057, -0.25376067, 52438.832, 52438.832, 0.00004561872, 10.001763, 9.99694 
2.1650891e+3, 1.362963e+2, -1743822.6, -1933609.9, 299755.38, -0.12756827, -0.48789003, -1524299.3, 79960.1, 0.45757636, 10.00056, 9.997639 
2.1650948e+3, 1.4629963e+2, -1599601.6, -1418130.6, -211178.63, 0.023435129, -0.1640648, -1279019.8, 227225.73, 0.3088363, 9.998766, 10.001751 
2.1650937e+3, 1.5630043e+2, -1235796.6, -1151273.8, -133977.14, 0.08666491, -0.3185783, -1053050.6, 355180.47, 0.17204043, 10.000562, 10.001913 
2.1650955e+3, 1.6630183e+2, -1219738.9, -1216043.3, 16322.958, 0.09897962, -0.30552548, -1201463.9, 108751.09, 0.07433442, 10.000442, 10.000564 
2.1650986e+3, 1.7630325e+2, -1229639.6, -1174040.0, -11292.732, 0.059662428, -0.24200948, -1171833.9, 40367.297, 0.022589553, 9.999709, 10.000471 
2.1651006e+3, 1.8630311e+2, -1200471.3, -1209959.5, -61931.246, 0.07067053, -0.25339264, -1143102.6, -28899.47, 0.00413868, 9.99969, 9.9995575 
2.1651025e+3, 1.9630206e+2, -1010850.0, -1061066.8, -33767.965, 0.09760523, -0.3378015, -993878.6, 22336.035, 0.00045452762, 10.000308, 9.9996 
2.1651036e+3, 2.063018e+2, -959252.3, -1014475.25, -11908.405, 0.03603836, -0.31745285, -956793.8, -38574.438, 0.000007502901, 10.000084, 9.999363 
2.1651043e+3, 2.1630183e+2, -945395.4, -951636.56, -48155.63, -0.09872989, -0.2686883, -900259.3, -80038.16, 0.0, 9.99951, 9.999386 
2.1651052e+3, 2.2630148e+2, -822843.8, -841521.1, -96025.766, -0.1015551, -0.24716829, -735703.7, -13478.704, 0.0, 9.999676, 9.9993925 
2.1651067e+3, 2.3630077e+2, -633530.6, -709724.94, -97307.93, -0.0316701, -0.28082314, -567127.9, 57103.098, 0.0, 10.000356, 9.9992895 
2.1651079e+3, 2.4630007e+2, -523567.1, -737006.8, -72725.164, 0.07035073, -0.22014163, -501143.3, 25096.604, 0.0, 10.000978, 9.998142 
2.1651089e+3, 2.562992e+2, -320521.2, -550766.6, -30264.35, 0.16667098, -0.14536664, -316609.56, 111642.43, 0.0, 10.001574, 9.998439 
2.1651094e+3, 2.6629817e+2, -262247.84, -344463.84, 63006.055, 0.04228774, -0.1652295, -228125.33, 102133.26, 0.0, 10.000739, 9.999595 
2.1651094e+3, 2.7629688e+2, -409942.8, -365307.38, 9277.245, -0.2007424, -0.28071836, -363455.94, -131192.23, 0.0, 9.999077, 9.999564 
2.1651106e+3, 2.8629488e+2, -252596.14, -364912.6, -113661.34, -0.12172368, -0.38543576, -181976.42, -47697.617, 0.0000000029805467, 9.999975, 9.998489 
2.1651113e+3, 2.9629222e+2, 173053.02, -109933.34, -120763.375, 0.06948769, -0.5347748, 217581.64, 253884.11, 0.000001345268, 10.002266, 9.998441 
2.1651128e+3, 3.0629328e+2, 256923.44, -253031.77, 9829.732, 0.09900962, -0.18777071, 257112.84, 257112.84, 0.000010778314, 10.003328, 9.996654 
2.1651138e+3, 3.1628934e+2, 359415.84, -177714.23, -127393.734, 0.01731718, -0.3060124, 388098.75, 388098.75, 0.00003608632, 10.0039625, 9.996816 
2.175094e+3, 1.3629349e+2, -1969489.3, -2559803.3, -24628.914, 0.22765452, -0.40834427, -1968463.5, -364184.6, 0.48078975, 10.001037, 9.992898 
2.1750903e+3, 1.4629456e+2, -1476840.0, -1257517.6, -114954.39, -0.35051146, -0.20154051, -1208307.5, 297992.3, 0.32934, 9.998886, 10.00315 
2.1750937e+3, 1.5629806e+2, -1174981.3, -1021416.25, -85613.35, 0.011385514, -0.22436605, -983197.9, 425057.94, 0.18832743, 10.000552, 10.003056 
2.1750967e+3, 1.662992e+2, -1233956.9, -1268851.0, -17384.797, 0.13243335, -0.26099962, -1226774.1, 83467.21, 0.0852701, 10.000547, 10.000125 
2.1750987e+3, 1.762985e+2, -1233962.1, -1195371.4, -24394.828, 0.06630423, -0.3806459, -1183563.4, 28685.781, 0.028395085, 9.999764, 10.000293 
2.1750996e+3, 1.8629971e+2, -1139754.0, -1097658.5, -46106.895, -0.025922034, -0.2957077, -1068022.4, 46217.063, 0.006367479, 9.999746, 10.000303 
2.1751009e+3, 1.9630215e+2, -975129.6, -985975.5, -12315.902, -0.106148325, -0.10249858, -967095.6, 49123.117, 0.0009868387, 10.000302, 10.000116 
2.1751036e+3, 2.0630209e+2, -1012174.6, -1115430.1, -41761.094, -0.009070426, -0.044462778, -997398.94, -79177.21, 0.000047582707, 10.00004, 9.998694 
2.175107e+3, 2.1630032e+2, -995667.06, -1035028.4, -57008.777, 0.20439509, -0.114611246, -955037.44, -134796.22, 0.00000000032497088, 9.999417, 9.998859 
2.1751074e+3, 2.2629891e+2, -830872.0, -814916.3, -73699.875, 0.120545104, -0.19060786, -748763.75, -26509.863, 0.0, 9.999495, 9.9996605 
2.1751063e+3, 2.3629771e+2, -631308.8, -668888.94, -63878.3, -0.13105805, -0.30057734, -583514.3, 40748.246, 0.0, 10.000207, 9.999638 
2.1751074e+3, 2.4629776e+2, -489586.75, -609932.75, -57683.652, -0.08506438, -0.23606478, -466403.94, 59857.78, 0.0, 10.000744, 9.999123 
2.1751103e+3, 2.5629842e+2, -287861.03, -445539.16, -12715.916, 0.14215215, -0.11016086, -286842.13, 141414.44, 0.0, 10.001418, 9.999234 
2.1751109e+3, 2.662972e+2, -333274.28, -439530.97, -9924.3125, 0.08767796, -0.15599298, -332355.3, -2089.6633, 0.0, 10.0005245, 9.999041 
2.1751097e+3, 2.7629447e+2, -466421.94, -456842.84, -23542.145, -0.10360085, -0.35666788, -437607.97, -205321.39, 0.0, 9.998974, 9.998981 
2.1751106e+3, 2.8629267e+2, -322175.56, -439799.97, -33760.656, -0.13183963, -0.38943753, -313174.34, -178871.55, 0.0, 9.999695, 9.9981 
2.175112e+3, 2.9629186e+2, 133656.13, -158999.22, -33991.977, -0.10608463, -0.3249392, 137552.42, 173864.3, 0.00000028754212, 10.002122, 9.998172 
2.1751133e+3, 3.0629203e+2, 196695.31, -250958.63, 6870.982, -0.21953434, -0.06527606, 196800.75, 196800.75, 0.0000061263827, 10.002842, 9.996875 
2.1751179e+3, 3.1628624e+2, 402187.7, 90274.21, -30648.006, 0.010301954, -0.4090684, 405170.6, 405170.6, 0.000027574106, 10.003222, 9.999003 
2.1850903e+3, 1.4629278e+2, -1523302.8, -1399634.8, -55378.0, -0.24488676, -0.20162603, -1378461.8, 127856.29, 0.34983045, 9.999199, 10.001584 
2.185094e+3, 1.5629575e+2, -1175195.8, -1091306.3, -35546.254, -0.040044144, -0.17187864, -1078270.1, 330011.88, 0.2059314, 10.000926, 10.002356 
2.185096e+3, 1.662967e+2, -1256061.6, -1283049.5, -65649.32, 0.004801522, -0.19372074, -1202533.8, 107736.836, 0.09816949, 10.000435, 10.000088 
2.1850987e+3, 1.7629606e+2, -1276434.4, -1205768.8, -57752.504, 0.11371707, -0.3028691, -1173398.0, 38879.973, 0.036017943, 9.999485, 10.000345 
2.1850996e+3, 1.8629736e+2, -1177654.8, -1089195.4, -36392.305, 0.019981828, -0.22893737, -1076148.0, 38118.66, 0.009796201, 9.999351, 10.000557 
2.1851006e+3, 1.962997e+2, -1034732.1, -995755.6, -46962.715, -0.14159758, -0.06767494, -964398.1, 51847.32, 0.0020521113, 9.999796, 10.000292 
2.1851037e+3, 2.0629962e+2, -922473.4, -1051559.8, -47118.54, -0.00042739074, -0.027250977, -907104.25, 11143.153, 0.00020967671, 10.000578, 9.998877 
2.1851082e+3, 2.1629794e+2, -658358.0, -855513.25, -24114.51, 0.2838818, -0.108125426, -655451.3, 164813.31, 0.00000086887735, 10.0016575, 9.999019 
2.1851084e+3, 2.2629662e+2, -615538.7, -750548.9, -49690.215, 0.19839446, -0.16327532, -599222.25, 123054.51, 0.0, 10.001126, 9.999329 
2.1851061e+3, 2.3629546e+2, -719101.56, -732968.1, -87123.07, -0.10329065, -0.23522276, -638636.3, -14350.339, 0.0, 9.999712, 9.999434 
2.1851076e+3, 2.4629526e+2, -621858.94, -639196.2, -76925.32, -0.07071941, -0.20382695, -553115.3, -26827.926, 0.0, 9.999681, 9.999436 
2.1851113e+3, 2.5629547e+2, -403610.22, -476718.22, -108089.84, 0.14214319, -0.15026364, -326060.72, 102225.04, 0.0, 10.000496, 9.999477 
2.1851121e+3, 2.6629463e+2, -279421.13, -416382.94, -134458.72, 0.14596063, -0.16838223, -197008.75, 133282.8, 0.0, 10.0008745, 9.99905 
2.185111e+3, 2.7629268e+2, -161383.45, -318704.56, -113576.22, 0.029245028, -0.2830315, -101888.16, 130417.76, 0.0, 10.001082, 9.998932 
2.1851121e+3, 2.8629097e+2, -87939.82, -377558.88, -23571.469, -0.05138707, -0.28860542, -86033.93, 48288.945, 0.0, 10.001497, 9.99767 
2.1851136e+3, 2.962896e+2, 101349.805, -219528.88, -68780.086, -0.16625625, -0.22857526, 115471.29, 151810.52, 0.000000027227998, 10.002083, 9.997782 
2.1851149e+3, 3.0628863e+2, 33050.953, -286293.3, -75753.08, -0.2350868, -0.09051482, 50109.46, 50109.46, 0.0000044959556, 10.001476, 9.997322 
2.1851194e+3, 3.162843e+2, -716.2312, 67131.17, -127086.04, 0.015202698, -0.31350502, 164743.31, 164743.31, 0.000025056477, 9.999623, 10.000624 
2.195093e+3, 1.4629322e+2, -1782090.1, -1889459.3, -359354.03, 0.04709751, -0.17441107, -1472432.8, 33877.504, 0.371045, 9.99925, 9.997848 
2.195094e+3, 1.5629323e+2, -1304626.0, -1363486.3, 283.94016, -0.15587592, -0.15292335, -1304624.6, 103688.195, 0.22535217, 10.000973, 9.999995 
2.1950927e+3, 1.6629443e+2, -1230684.1, -1236920.0, -117938.83, -0.3772385, -0.076167114, -1115822.0, 194480.23, 0.113554515, 10.00048, 10.000435 
2.1950987e+3, 1.7629556e+2, -1268845.9, -1185433.5, -78319.17, 0.13551456, -0.024675297, -1138408.0, 73883.28, 0.046104282, 9.999471, 10.000499 
2.1951003e+3, 1.8629561e+2, -1179986.9, -1101883.3, -20418.668, 0.11336277, -0.0765812, -1096867.4, 17421.932, 0.015073848, 9.999384, 10.000455 
2.1951011e+3, 1.9629481e+2, -1038688.9, -1000378.56, -20395.127, -0.08366805, -0.21514432, -991553.7, 24740.611, 0.004138987, 9.999787, 10.000263 
2.195104e+3, 2.062945e+2, -868439.4, -928773.0, -11691.323, -0.047714986, -0.24175857, -866253.06, 52042.14, 0.00072646124, 10.000532, 9.999741 
2.195108e+3, 2.1629463e+2, -627057.7, -760493.7, 8199.318, 0.065133855, -0.23541483, -626555.75, 193736.72, 0.000022642807, 10.001532, 9.999727 
2.1951081e+3, 2.2629444e+2, -702062.1, -887634.1, -109945.63, 0.03807555, -0.161413, -650982.6, 71312.28, 0.000000000011542125, 10.000938, 9.998477 
2.1951069e+3, 2.3629388e+2, -785194.5, -854413.06, -122166.555, -0.032684673, -0.09372359, -692829.5, -68526.95, 0.0, 9.999637, 9.998635 
2.1951081e+3, 2.4629249e+2, -684056.0, -716241.4, -53687.316, -0.0071881707, -0.1258063, -644101.4, -117783.49, 0.0, 9.99947, 9.999003 
2.1951114e+3, 2.562904e+2, -446489.03, -534371.75, -73202.98, 0.08109809, -0.25823295, -405051.72, 23287.504, 0.0, 10.000367, 9.999139 
2.1951126e+3, 2.6629034e+2, -290803.03, -371804.28, -134299.11, 0.09995864, -0.2054294, -191030.52, 139307.38, 0.0, 10.000602, 9.999475 
2.195113e+3, 2.7629122e+2, -161804.58, -277018.2, -94872.75, 0.102107435, -0.09092587, -108418.67, 123906.805, 0.0, 10.0009165, 9.999287 
2.195114e+3, 2.862892e+2, -167529.11, -483978.6, -10585.163, -0.026872868, -0.111729436, -167175.44, -32830.363, 0.0, 10.001258, 9.997049 
2.1951152e+3, 2.962854e+2, 28052.967, -326511.06, -36658.67, -0.21220596, -0.22708985, 31803.465, 68187.195, 0.000000020729713, 10.00189, 9.99714 
2.1951175e+3, 3.062826e+2, -2104.2305, -239809.52, -140976.19, -0.20451379, -0.2621037, 63434.652, 63434.652, 0.0000055230016, 10.001001, 9.99784 
2.1951179e+3, 3.162809e+2, -140360.94, -51692.664, -51879.758, -0.13059987, -0.3002601, -27784.4, -27784.4, 0.000029811183, 9.998968, 10.000079 
2.205094e+3, 1.4629318e+2, -1377811.0, -1713850.1, -213149.63, 0.04958674, -0.13142061, -1274420.6, 231891.14, 0.39437363, 10.003014, 9.997379 
2.2050947e+3, 1.5629137e+2, -1494295.1, -1597800.0, -30776.502, -0.13733561, -0.131171, -1485835.4, -77502.164, 0.24751917, 10.000061, 9.998743 
2.2050916e+3, 1.6629182e+2, -1568039.6, -1390564.6, -78351.4, -0.4062019, -0.0813792, -1360924.5, -50594.17, 0.13222682, 9.99804, 10.000485 
2.2050977e+3, 1.7629293e+2, -1199946.6, -1185846.1, -31052.756, 0.08551982, -0.015491553, -1161053.4, 51266.36, 0.059555795, 10.000028, 10.000258 
2.2051e+3, 1.862926e+2, -991763.75, -1016308.56, 6902.8276, 0.1081594, -0.085818596, -989955.6, 124364.81, 0.023171267, 10.000714, 10.000421 
2.2051015e+3, 1.9629161e+2, -988806.75, -972879.8, -1856.6447, -0.037553106, -0.24645402, -972666.25, 43660.137, 0.008108057, 10.000109, 10.000313 
2.2051042e+3, 2.0629148e+2, -943447.2, -957853.8, 19477.578, -0.040554237, -0.26165915, -929883.6, -11558.755, 0.0021629941, 9.999983, 9.999809 
2.205108e+3, 2.1629184e+2, -778293.4, -834980.8, -37548.0, -0.03219551, -0.23482566, -759592.25, 60727.02, 0.00023583506, 10.000491, 9.999719 
2.2051089e+3, 2.2629124e+2, -694500.9, -924840.6, -183210.23, 0.008371606, -0.17704774, -593268.1, 129058.016, 0.0000019906881, 10.001166, 9.998114 
2.2051087e+3, 2.3629017e+2, -478705.88, -745680.2, -179863.28, 0.07634741, -0.123684935, -388207.28, 236132.28, 0.0, 10.001887, 9.998314 
2.2051094e+3, 2.4628887e+2, -406751.78, -587021.1, -60372.473, 0.07795415, -0.12547183, -388401.0, 137953.95, 0.0, 10.001381, 9.998978 
2.2051108e+3, 2.5628743e+2, -465444.3, -532546.25, -62696.89, 0.011606664, -0.20023611, -427885.72, 485.68958, 0.0, 10.000235, 9.99919 
2.2051126e+3, 2.6628733e+2, -320524.66, -401691.22, -95754.64, 0.047401804, -0.14830194, -257108.16, 73262.67, 0.0, 10.00045, 9.999351 
2.2051148e+3, 2.7628765e+2, -75218.586, -249395.1, -112305.41, 0.14970456, -0.07311816, -20191.156, 212172.83, 0.0, 10.001555, 9.999175 
2.205116e+3, 2.862859e+2, -118161.35, -430880.03, -17869.557, 0.048514996, -0.07503638, -117143.555, 17236.41, 0.0, 10.001487, 9.997298 
2.2051167e+3, 2.9628256e+2, -98535.24, -353024.38, -16233.57, -0.19576325, -0.15792954, -97503.9, -61090.438, 0.00000007580395, 10.000875, 9.997448 
2.2051184e+3, 3.062785e+2, 33520.49, -147633.22, -75439.305, -0.16100374, -0.3887501, 60821.773, 60821.773, 0.0000083740215, 10.000892, 9.998544 
2.2051199e+3, 3.1627947e+2, 170880.05, 64110.78, -41564.777, 0.057223205, -0.19431339, 185153.02, 185153.02, 0.000042885644, 10.001207, 9.999808 
2.2150965e+3, 1.4629436e+2, -1246723.0, -1346160.4, 146874.06, -0.077627964, 0.12340779, -1141380.6, 364925.06, 0.4221777, 10.0028925, 10.000535 
2.2150959e+3, 1.5628979e+2, -1526849.6, -1641258.5, -183902.36, -0.040014245, -0.115883924, -1391460.1, 16887.13, 0.27423543, 9.999991, 9.998502 
2.215092e+3, 1.6628855e+2, -1569010.4, -1400801.0, -45724.48, -0.21862622, -0.20663743, -1389175.3, -78816.88, 0.15564767, 9.998076, 10.000394 
2.2150959e+3, 1.7628822e+2, -1234627.8, -1252776.1, 41979.617, -0.11732754, -0.25521544, -1200752.8, 11609.812, 0.07778218, 10.00001, 9.999794 
2.2150993e+3, 1.8628845e+2, -993557.2, -1028537.44, -13587.915, -0.08488563, -0.23836283, -988899.25, 125460.26, 0.035576556, 10.0007515, 10.00033 
2.2151013e+3, 1.962899e+2, -992644.8, -970121.6, -18464.826, -0.07149777, -0.15813369, -959755.1, 56588.227, 0.0154146915, 10.000066, 10.000354 
2.2151043e+3, 2.0629026e+2, -996036.56, -1056501.9, 31378.209, -0.079495326, -0.09643429, -982696.25, -64357.336, 0.005714695, 9.999933, 9.999156 
2.215108e+3, 2.1628937e+2, -837477.1, -937865.3, -8589.459, -0.09260852, -0.1210864, -836747.5, -16400.537, 0.0013616167, 10.0004015, 9.999056 
2.21511e+3, 2.2628711e+2, -730569.7, -948857.9, -160177.94, -0.005763126, -0.19497696, -645885.5, 76483.805, 0.00013056793, 10.000948, 9.998054 
2.2151116e+3, 2.3628426e+2, -495304.28, -746372.5, -152741.31, 0.15157329, -0.32236668, -423129.72, 201268.2, 0.0000045921656, 10.001737, 9.998383 
2.2151111e+3, 2.4628432e+2, -426262.25, -558503.25, -113710.984, 0.072892286, -0.20774163, -360845.28, 165554.7, 0.000000030624218, 10.001102, 9.9993 
2.2151099e+3, 2.562861e+2, -470793.97, -505875.03, -89012.77, -0.14190054, 0.0036146906, -397609.97, 30776.19, 0.0, 10.00008, 9.999445 
2.2151116e+3, 2.6628503e+2, -401960.47, -513538.03, -66124.26, -0.11493811, -0.016530648, -371234.47, -40839.035, 0.0, 10.000222, 9.998685 
2.2151157e+3, 2.7628198e+2, -137082.64, -334789.5, -72066.0, 0.08456236, -0.21868648, -113602.47, 118818.8, 0.0, 10.001382, 9.998666 
2.2151177e+3, 2.8628108e+2, -112719.73, -337972.2, -52804.813, 0.016905727, -0.16209598, -100955.38, 33473.492, 0.0, 10.001157, 9.998081 
2.2151177e+3, 2.9628062e+2, -68519.555, -247147.19, -21068.295, -0.2221069, -0.04400068, -66068.28, -29635.043, 0.00000027397763, 10.000707, 9.998242 
2.2151184e+3, 3.0627567e+2, 48756.113, -28071.615, -71506.69, -0.30107594, -0.45122144, 91513.87, 91513.87, 0.000015050563, 10.000558, 9.9995 
2.2151218e+3, 3.1627902e+2, 10454.393, -93144.75, 6368.954, 0.09348707, -0.122790426, 10844.467, 10844.467, 0.00007034586, 10.000512, 9.999036 
2.2250928e+3, 1.4628471e+2, -1638066.9, -1249987.4, 327987.6, -0.4690888, -0.23674555, -1062940.1, 443457.44, 0.45833316, 9.997335, 10.004995 
2.2250955e+3, 1.5628563e+2, -1751845.8, -1560030.3, -268068.44, 0.04378396, -0.27114645, -1371229.4, 37157.027, 0.30885017, 9.997584, 10.000274 
2.225092e+3, 1.6628844e+2, -1236283.8, -1281039.5, -2037.8849, -0.13351358, -0.019808749, -1236191.3, 74167.375, 0.18666483, 10.000661, 10.000009 
2.2250955e+3, 1.7628577e+2, -1272461.4, -1297129.0, 46976.504, -0.16556793, -0.2711713, -1236226.5, -23841.14, 0.103338934, 9.999887, 9.999533 
2.225099e+3, 1.8628561e+2, -1207452.9, -1178006.3, -8354.942, -0.11110607, -0.2598909, -1175800.9, -61413.906, 0.054786276, 9.999439, 9.999927 
2.2251017e+3, 1.9628786e+2, -941712.44, -985662.75, -50403.027, -0.0676624, -0.06343508, -908702.4, 107662.195, 0.028543482, 10.000571, 10.00001 
2.2251047e+3, 2.0628785e+2, -865601.3, -1014786.9, 11560.192, -0.05484447, -0.016121741, -864710.9, 53653.074, 0.013685946, 10.000934, 9.998955 
2.2251086e+3, 2.1628605e+2, -831540.7, -948766.4, -12452.496, -0.054579116, -0.10776036, -830232.5, -9852.01, 0.005262215, 10.000514, 9.998926 
2.2251108e+3, 2.2628382e+2, -772679.8, -905763.56, -91262.234, 0.007257019, -0.20561026, -726276.5, -3875.5432, 0.001420654, 10.000361, 9.998641 
2.2251119e+3, 2.3628157e+2, -663818.5, -773366.06, -54720.684, 0.0920919, -0.33131984, -641168.0, -16746.531, 0.0002619265, 10.000336, 9.998878 
2.2251113e+3, 2.4628155e+2, -517263.88, -663986.3, -43613.89, 0.037432317, -0.21370548, -505278.5, 21146.021, 0.000035642544, 10.000721, 9.99877 
2.2251108e+3, 2.5628293e+2, -286767.5, -469527.34, -83744.02, -0.1158787, 0.006377572, -254198.42, 174218.33, 0.0000011567587, 10.001523, 9.999024 
2.2251126e+3, 2.662816e+2, -186044.1, -394932.16, -20429.36, -0.0940755, -0.026143862, -184064.84, 146364.31, 0.0, 10.001647, 9.99881 
2.2251166e+3, 2.7627856e+2, -88560.88, -288925.78, -1959.9918, 0.02705515, -0.23612687, -88541.71, 143912.83, 0.0, 10.001648, 9.998847 
2.2251187e+3, 2.86278e+2, -105073.03, -319500.94, -13127.285, 0.0280266, -0.16192845, -104272.37, 30186.941, 0.0, 10.001126, 9.998242 
2.2251196e+3, 2.962777e+2, -77636.414, -229546.8, -45645.13, -0.089332424, -0.026257938, -64976.32, -28512.826, 0.00000073017384, 10.000559, 9.998432 
2.2251199e+3, 3.0627403e+2, 146213.63, 133461.16, -75343.65, -0.20544103, -0.3909486, 215450.36, 215450.36, 0.00002755439, 10.000699, 10.000568 
2.2251223e+3, 3.1627622e+2, 69956.414, -121567.82, -65027.48, 0.076432176, -0.23332894, 89948.16, 89948.16, 0.000118261974, 10.0011015, 9.998597 
2.235093e+3, 1.5627953e+2, -1506736.0, -1121383.8, -93469.836, 0.010049354, -0.5056174, -1099908.8, 308536.2, 0.35698506, 9.997334, 10.004403 
2.2350922e+3, 1.662911e+2, -1297243.9, -1412420.4, 8943.999, -0.22864874, 0.4481591, -1296553.5, 13780.468, 0.23053116, 10.000588, 9.999096 
2.2350956e+3, 1.7628518e+2, -1300359.1, -1337150.1, 9883.419, -0.13213854, -0.09320673, -1297872.3, -85480.34, 0.14104874, 9.999799, 9.999303 
2.235099e+3, 1.8628377e+2, -1258084.8, -1274445.3, 14661.988, -0.09261378, -0.17110933, -1249475.4, -135069.53, 0.08532412, 9.999405, 9.999277 
2.235102e+3, 1.9628535e+2, -991507.75, -1077494.3, -4657.2256, -0.10179803, 0.033258114, -991256.25, 25134.7, 0.05187056, 10.000521, 9.999395 
2.235106e+3, 2.0628442e+2, -868804.9, -998021.8, -5210.642, -0.07214427, 0.0071712537, -868595.06, 49803.07, 0.030293982, 10.000843, 9.999113 
2.2351101e+3, 2.1628174e+2, -826060.7, -908212.06, -21071.994, 0.005039922, -0.19403921, -820971.0, -549.8894, 0.015773455, 10.000385, 9.999268 
2.2351106e+3, 2.2628108e+2, -728866.9, -748658.44, -97860.22, -0.05707123, -0.21713622, -640403.4, 82020.586, 0.0069356123, 10.000091, 9.999843 
2.2351097e+3, 2.3628175e+2, -615565.4, -648326.25, -45568.473, -0.18051304, -0.17884444, -583522.6, 40891.332, 0.002541045, 10.000227, 9.9997835 
2.2351106e+3, 2.4628042e+2, -656374.9, -889808.0, -26223.502, -0.14260308, -0.14945476, -653465.25, -127034.6, 0.00075579167, 10.0004635, 9.997336 
2.2351135e+3, 2.56278e+2, -386028.9, -634463.1, -50329.39, -0.007563103, -0.18310292, -376220.13, 52241.918, 0.00014769337, 10.001347, 9.9979725 
2.2351152e+3, 2.6627713e+2, -200143.4, -331854.1, -38503.39, -0.035057113, -0.15820631, -189713.52, 140757.39, 0.000007045108, 10.001275, 9.999407 
2.235117e+3, 2.7627712e+2, -79265.98, -223127.47, 3361.2083, -0.113971435, -0.1376428, -79187.49, 153279.1, 0.00000000065814787, 10.001457, 9.999377 
2.2351192e+3, 2.8627628e+2, -196590.39, -425533.13, -57206.574, -0.05445495, -0.092576005, -183091.89, -48615.586, 0.0, 10.000797, 9.997653 
2.2351219e+3, 2.9627395e+2, -172868.4, -348167.5, -49605.97, 0.07363507, -0.10505744, -159804.52, -123300.67, 0.0000012574419, 10.000248, 9.997748 
2.235122e+3, 3.062728e+2, 91098.09, 170312.05, -76274.55, -0.10347671, -0.20765172, 216649.94, 216649.94, 0.000044073433, 10.000097, 10.001086 
2.2351228e+3, 3.1627473e+2, -128724.49, -322991.25, 90025.555, -0.010099964, -0.1408443, -93421.12, -93421.12, 0.00018419352, 10.00029, 9.997567 
2.245091e+3, 1.5628208e+2, -1269941.5, -1588447.9, 97527.93, -0.2355654, -0.2666877, -1242450.9, 165962.89, 0.42759266, 10.003118, 9.997264 
2.2450915e+3, 1.6628624e+2, -1391129.1, -1416879.8, -63759.37, -0.29145166, 0.2653361, -1338958.0, -28580.113, 0.29616648, 9.999727, 9.999486 
2.2450961e+3, 1.7628203e+2, -1315554.9, -1294013.8, -31406.457, -0.031308565, -0.15471779, -1271582.4, -59164.79, 0.19952731, 9.99949, 9.99974 
2.2451001e+3, 1.862806e+2, -1150965.9, -1258360.4, 82730.14, 0.034455422, -0.2440372, -1106034.3, 8396.297, 0.13536815, 10.000294, 9.998962 
2.2451036e+3, 1.9628085e+2, -844978.7, -1037662.0, 58986.39, -0.06645295, -0.13412553, -828355.3, 188071.92, 0.09319166, 10.001793, 9.999081 
2.2451071e+3, 2.0628e+2, -803816.06, -968926.8, 2842.6587, -0.040132616, -0.14227627, -803767.1, 114667.305, 0.06306426, 10.001294, 9.999134 
2.2451106e+3, 2.1627793e+2, -945076.3, -968382.56, -37530.78, 0.07326891, -0.2738376, -917431.2, -96977.71, 0.0400799, 9.9995365, 9.999294 
2.2451109e+3, 2.2627772e+2, -794397.06, -758588.2, -93317.9, -0.0059437216, -0.2609703, -681472.6, 40980.598, 0.023131557, 9.999526, 10.000063 
2.2451097e+3, 2.3627892e+2, -577708.4, -603110.2, -137241.4, -0.2043953, -0.1936356, -452581.44, 171857.69, 0.011994159, 10.00037, 10.000036 
2.2451113e+3, 2.4627738e+2, -557791.1, -811672.7, -49212.24, -0.13263449, -0.20756538, -548585.7, -22129.418, 0.0054928027, 10.000984, 9.997627 
2.2451158e+3, 2.5627458e+2, -339220.53, -571265.4, 26340.617, 0.078242876, -0.31593993, -336268.03, 92220.72, 0.002050329, 10.001502, 9.998328 
2.2451171e+3, 2.6627424e+2, -258736.44, -389800.72, 19877.82, 0.0705523, -0.23651062, -255788.0, 74705.67, 0.0004876709, 10.000975, 9.999168 
2.2451185e+3, 2.7627516e+2, -225410.52, -308020.88, 3409.0205, -0.06641394, -0.10160907, -225270.08, 7213.838, 0.000047167257, 10.000504, 9.999264 
2.2451204e+3, 2.86274e+2, -246769.89, -425177.78, -42557.5, 0.0035993636, -0.096168086, -237138.19, -102639.98, 0.00000034188096, 10.0003395, 9.997877 
2.2451231e+3, 2.962708e+2, -39734.242, -279001.4, -6452.5137, 0.13174772, -0.19660279, -39560.36, -3025.1404, 0.0000013302117, 10.001114, 9.997827 
2.245124e+3, 3.0627203e+2, 204740.06, 188955.64, -8738.526, 0.06028615, -0.063239254, 208622.78, 208622.78, 0.0000584347, 10.000988, 10.000794 
2.2451238e+3, 3.1627288e+2, -177460.88, -273967.9, -58219.703, 0.09188745, -0.044803374, -150097.36, -150097.36, 0.00025945, 9.999544, 9.998269 
2.2550896e+3, 1.6627423e+2, -1395632.5, -1325821.6, -91370.8, -0.5301443, -0.51826483, -1262916.0, 47571.08, 0.39765337, 9.999274, 10.000471 
2.2550972e+3, 1.7627627e+2, -1251007.3, -1166248.3, -39972.67, 0.053452387, -0.45349717, -1150371.1, 62092.26, 0.29298013, 9.999425, 10.000805 
2.2551022e+3, 1.8627588e+2, -1194995.1, -1303045.5, 112609.87, 0.16245416, -0.48067808, -1124121.5, -9658.465, 0.21888196, 10.000094, 9.998736 
2.2551057e+3, 1.9627397e+2, -896044.4, -1079652.0, 90065.03, -0.050926734, -0.5773391, -859241.6, 157235.66, 0.16615056, 10.001586, 9.998902 
2.2551082e+3, 2.0627409e+2, -844473.4, -1000666.06, -63364.336, -0.094092034, -0.48537812, -822000.94, 96476.63, 0.12546477, 10.001103, 9.999004 
2.2551101e+3, 2.1627432e+2, -978831.0, -1016622.44, -84084.67, 0.04391412, -0.37500712, -911545.06, -91064.64, 0.0914258, 9.999444, 9.998995 
2.255111e+3, 2.2627378e+2, -890082.8, -908831.8, -62567.188, 0.03721049, -0.3318525, -836191.7, -113703.23, 0.062582165, 9.999316, 9.999129 
2.2551118e+3, 2.3627315e+2, -629705.1, -680376.75, -99297.61, -0.05188416, -0.36860505, -552562.06, 71933.836, 0.039919913, 10.000222, 9.999586 
2.2551133e+3, 2.4627253e+2, -509421.8, -586817.6, -44871.875, -0.06371344, -0.36973923, -488865.94, 37634.715, 0.023601582, 10.000476, 9.999407 
2.2551171e+3, 2.5627246e+2, -263974.28, -353605.53, 41914.92, 0.046398424, -0.407249, -247427.84, 181070.88, 0.012405956, 10.001265, 9.999933 
2.2551186e+3, 2.6627246e+2, -395583.2, -589375.0, -32690.076, 0.09077949, -0.2844791, -390217.38, -59715.72, 0.005154125, 10.00063, 9.997957 
2.2551201e+3, 2.7627265e+2, -327103.22, -439379.8, -4592.311, 0.051198747, -0.13871282, -326915.72, -94409.086, 0.0013586987, 10.0001745, 9.998511 
2.255121e+3, 2.8627115e+2, -293942.4, -377661.66, -47750.93, 0.03139527, -0.17078994, -272301.0, -137775.39, 0.00015517221, 9.99976, 9.998462 
2.2551231e+3, 2.962682e+2, -47827.016, -204905.97, 28794.49, 0.0015802968, -0.30477232, -42715.0, -6157.1377, 0.0000026982873, 10.000797, 9.998447 
2.2551255e+3, 3.0627164e+2, 49602.383, -25884.922, -62934.418, 0.05512136, 0.06285271, 85243.5, 85243.5, 0.000065484004, 10.000567, 9.999503 
2.2551225e+3, 3.1626776e+2, -126228.59, -30005.422, -131345.1, -0.042728968, -0.2373882, 61762.43, 61762.43, 0.00034262822, 9.999004, 10.000195 
2.2650972e+3, 1.762703e+2, -1268919.5, -1148536.1, -116630.93, 0.1496596, -0.29483557, -1077480.6, 135043.92, 0.44342524, 9.998713, 10.001794 
2.2650976e+3, 1.862744e+2, -791552.1, -928689.8, -48000.668, -0.45319483, -0.1706228, -776420.6, 338055.53, 0.3585124, 10.003126, 10.00059 
2.2651064e+3, 1.9627151e+2, -999999.3, -957855.25, 17321.768, -0.056317136, -0.5337722, -951649.56, 64844.773, 0.29413474, 9.999883, 10.000657 
2.2651091e+3, 2.0627086e+2, -1053765.9, -1117212.3, -41866.273, -0.035612967, -0.59150136, -1032961.56, -114459.73, 0.24160613, 9.999563, 9.998949 
2.2651075e+3, 2.1627158e+2, -814790.8, -973980.0, -83951.6, -0.22284003, -0.4062966, -778699.75, 41803.28, 0.1940874, 10.000739, 9.998693 
2.2651088e+3, 2.2627118e+2, -659693.4, -874786.0, -18111.893, -0.20710203, -0.30361018, -658178.94, 64333.18, 0.14888066, 10.001271, 9.998441 
2.2651123e+3, 2.3627017e+2, -566585.6, -710093.25, -77621.44, -0.04725783, -0.292715, -532633.75, 91891.34, 0.108788945, 10.000971, 9.999037 
2.2651145e+3, 2.462695e+2, -451215.75, -493315.88, -61331.527, 0.023470985, -0.3037081, -407422.44, 119107.805, 0.07581198, 10.000534, 10.00008 
2.2651175e+3, 2.5626954e+2, -404122.7, -380218.16, -88427.52, 0.013017845, -0.3890897, -302938.78, 125587.22, 0.048806984, 9.999999, 10.000447 
2.2651182e+3, 2.662695e+2, -463096.0, -593357.4, -137324.23, 0.024555406, -0.29604223, -376240.0, -45710.85, 0.026684597, 9.999966, 9.998276 
2.2651206e+3, 2.7627e+2, -159806.4, -295679.16, -9871.493, 0.056101438, -0.17277889, -159092.95, 73438.62, 0.010897145, 10.000985, 9.999139 
2.2651218e+3, 2.8626883e+2, -161910.38, -288562.56, -8969.201, 0.091839634, -0.21447493, -161278.34, -26731.08, 0.002788968, 10.000523, 9.998724 
2.265125e+3, 2.962661e+2, 170964.02, -74572.62, 64363.684, 0.040430494, -0.3391579, 186812.95, 223389.23, 0.0003034348, 10.002201, 9.99867 
2.265127e+3, 3.0626976e+2, 218566.75, 42595.305, -79409.55, 0.07481221, 0.009296979, 249102.6, 249102.6, 0.000074942734, 10.001842, 9.999354 
2.2651237e+3, 3.162643e+2, -3632.8193, 13734.921, -143510.34, 0.12154448, -0.28998804, 148823.88, 148823.88, 0.00045627946, 9.999816, 10.000185 
2.2751115e+3, 2.0627128e+2, -978248.8, -1179745.9, 3513.7524, 0.1987983, -0.3412665, -978187.56, -59690.098, 0.4526298, 10.0005245, 9.99802 
2.2751072e+3, 2.1626915e+2, -650108.5, -892811.06, 9216.462, -0.33572924, -0.41141498, -649759.0, 170767.42, 0.38963944, 10.002769, 9.998226 
2.2751094e+3, 2.2626877e+2, -632449.44, -942163.25, 33308.27, -0.3352232, -0.27056906, -628907.8, 93627.56, 0.32267725, 10.00212, 9.997536 
2.275113e+3, 2.3626816e+2, -664755.7, -846555.9, -44734.54, -0.08591068, -0.16727029, -654344.4, -29799.77, 0.25840095, 10.000626, 9.998209 
2.275115e+3, 2.4626681e+2, -637998.94, -720133.56, -79978.86, -0.046875708, -0.13514507, -589159.94, -62600.492, 0.20062341, 9.999825, 9.998813 
2.2751167e+3, 2.562657e+2, -517854.16, -487797.0, -87471.6, -0.10324036, -0.30132383, -414072.34, 14498.923, 0.14660953, 9.999473, 9.999907 
2.275116e+3, 2.6626593e+2, -568293.25, -527686.25, -133761.0, -0.24444814, -0.22193076, -412696.6, -82126.67, 0.09444842, 9.998781, 9.999262 
2.2751203e+3, 2.762678e+2, -111489.87, -65622.15, 16205.477, -0.11765613, -0.16872936, -60474.35, 172078.98, 0.04983968, 10.000475, 10.000987 
2.2751221e+3, 2.8626713e+2, -307838.94, -388554.13, -51644.965, 0.028183956, -0.23143543, -282653.13, -148090.89, 0.019500945, 9.999691, 9.998411 
2.2751275e+3, 2.9626492e+2, 84468.95, -138492.83, 119097.336, 0.065934435, -0.30360618, 136120.42, 172706.98, 0.004786881, 10.001755, 9.998419 
2.275127e+3, 3.0626723e+2, 128967.414, 61937.29, -214649.95, -0.14430977, -0.1440221, 312703.03, 312703.03, 0.0007184054, 10.001038, 9.99984 
2.2751248e+3, 3.162641e+2, -343895.44, -423983.56, -34940.277, 0.19711111, -0.1795538, -330794.88, -330794.88, 0.0007782504, 9.998859, 9.997544 
2.285112e+3, 2.4626192e+2, -364178.88, -431056.34, -17552.018, -0.5148261, -0.87268937, -359852.25, 166745.86, 0.45869297, 10.001253, 10.001096 
2.2851199e+3, 2.5627112e+2, -277703.13, -525230.7, 171911.63, 0.11689808, 0.21019895, -189638.94, 238872.2, 0.36361384, 10.0025835, 9.998446 
2.2851221e+3, 2.6626104e+2, -224852.78, -445281.53, 46685.29, 0.3228665, -0.59563214, -215372.86, 115241.695, 0.26167566, 10.001652, 9.998525 
2.2851242e+3, 2.7626505e+2, -232559.7, -284681.16, 33749.8, 0.28358835, -0.20391086, -215979.95, 16601.287, 0.1640845, 10.000183, 9.999673 
2.2851229e+3, 2.86265e+2, -336462.3, -374282.9, -85532.914, 0.17024262, -0.116501, -267774.22, -133189.75, 0.0825175, 9.999263, 9.998769 
2.2851306e+3, 2.9626235e+2, 541349.56, 217891.92, 263284.75, 0.07224258, -0.33610097, 688611.1, 725221.9, 0.030766618, 10.00432, 9.999746 
2.2851302e+3, 3.062655e+2, 603009.6, 515778.72, -240330.36, -0.036183957, -0.26282433, 803650.2, 803650.2, 0.009050242, 10.003228, 10.001974 
2.2851208e+3, 3.162679e+2, -480955.3, -125334.08, 69589.73, 0.05620156, 0.050426587, -112201.39, -112201.39, 0.003963244, 9.996283, 10.000834 
2.2951207e+3, 2.7626222e+2, -119800.77, -620174.1, -167302.83, -0.15469293, -0.2450048, -69016.336, 163594.02, 0.434636, 10.003602, 9.995711 
2.2951216e+3, 2.862636e+2, -816461.4, -695381.75, -189114.75, 0.039221812, 0.14363821, -557353.06, -422751.47, 0.25417683, 9.996441, 9.997855 
2.295134e+3, 2.9626095e+2, 533840.25, 493829.63, 408610.34, -0.06484915, -0.36839476, 922934.7, 959558.06, 0.12175005, 10.003497, 10.002368 
2.2951356e+3, 3.0626598e+2, -21831.457, 421982.1, -528325.6, 0.09257495, -0.37163314, 773111.56, 773111.56, 0.053891286, 9.998142, 10.003865 
2.2951145e+3, 3.1627455e+2, -91248.19, 894288.44, -83769.96, -0.33116084, 0.12695721, 901358.1, 901358.1, 0.03110966, 9.995492, 10.008287 
2.3051482e+3, 2.9626873e+2, 908025.56, 346989.7, -670191.44, 0.2593279, -0.78139, 1354038.4, 1390592.6, 0.36050537, 10.010292, 9.999808 
2.3051289e+3, 3.0629018e+2, -1904094.3, -748450.3, 238888.48, -0.24884307, 0.96377337, -701015.56, -701015.56, 0.21322535, 9.986008, 10.001584 
2.305127e+3, 3.1626144e+2, 1178322.1, -255048.5, 624167.2, 0.39929315, -1.0698335, 1412017.0, 1412017.0, 0.16406931, 10.013189, 9.99254 
2.3524621e+3, 2.7546802e+2, -665328.6, 267900.25, 236620.98, 0.2803003, 1.0724658, 324466.97, 564925.94, 0.4490552, 9.991678, 10.009703 
2.3520617e+3, 2.8544745e+2, 478502.5, -264609.4, -197125.33, -0.07154141, -0.60972106, 527555.9, 670194.94, 0.35158685, 10.008017, 9.994993 
2.3516946e+3, 2.954432e+2, -328375.84, -28658.389, 997096.9, 0.517147, -0.71395105, 829778.4, 874463.06, 0.27401498, 9.997857, 10.002095 
2.3513193e+3, 3.0544284e+2, 803708.9, -198763.13, -137221.19, 0.0048656855, 0.716807, 822152.75, 822152.75, 0.21933356, 10.011216, 9.993413 
2.3662202e+3, 1.7590868e+2, -2212869.0, -1491139.0, -99026.81, 0.09630034, 0.40794566, -1477798.4, -261645.48, 0.43640727, 9.9916935, 10.001426 
2.365829e+3, 1.8590412e+2, -948915.44, -1610300.4, 16318.914, -1.0960058, 0.9587236, -948513.0, 169689.19, 0.3775988, 10.004138, 9.993882 
2.3654626e+3, 1.9588925e+2, -1242657.1, -1683630.9, 159614.38, 0.45474297, 0.6627654, -1190947.0, -170587.47, 0.33353588, 10.000361, 9.99456 
2.365082e+3, 2.05884e+2, -138056.64, -283782.66, -50873.64, 0.1673626, 0.96812385, -122053.76, 800350.0, 0.30097756, 10.005625, 10.002814 
2.3646955e+3, 2.1587332e+2, -1935498.6, -981989.0, 64330.266, -0.66705394, 0.24406765, -977668.4, -153182.52, 0.27814138, 9.9900675, 10.003092 
2.3643275e+3, 2.2587143e+2, -1302702.4, -926715.9, 10218.951, 0.24631196, 0.56437325, -926438.3, -199940.44, 0.26103863, 9.995138, 10.000296 
2.3639494e+3, 2.3586312e+2, -1237214.5, -722655.5, -118330.09, 0.06593847, 0.28909624, -696748.2, -68162.58, 0.24561478, 9.99432, 10.001466 
2.3635833e+3, 2.4586363e+2, -1077942.8, -542825.44, 178447.63, 1.2816291, 0.8524919, -488776.9, 41807.906, 0.23008043, 9.994421, 10.002074 
2.3632005e+3, 2.5585765e+2, -1338920.0, -432058.66, 399637.56, 0.5534541, 0.7481927, -281080.9, 151564.42, 0.20982568, 9.991074, 10.003964 
2.3628098e+3, 2.6585215e+2, -667399.0, 80963.53, 55801.26, -0.5606628, 0.3040534, 85101.445, 419795.94, 0.17455336, 9.993978, 10.00591 
2.3624499e+3, 2.758465e+2, -1047911.94, -917141.25, 167279.39, 0.41674846, 0.15942456, -802922.5, -566183.2, 0.12471826, 9.9951725, 9.997034 
2.362072e+3, 2.8584254e+2, 294717.72, -131280.42, -651472.8, 0.9743513, 0.71843904, 767127.6, 905900.6, 0.08169017, 10.003535, 9.997988 
2.3616916e+3, 2.9584736e+2, 88470.36, 333430.44, 104507.95, 0.9637471, 1.5526273, 371957.47, 412682.72, 0.054943465, 9.999363, 10.002758 
2.3613198e+3, 3.0581996e+2, 793814.44, 711246.9, 543077.4, -0.12934786, -0.567033, 1297175.0, 1297175.0, 0.039140318, 10.004533, 10.003024 
2.3769651e+3, 1.563093e+2, -811249.44, -1504568.4, 66253.39, -0.22320822, 1.4626216, -804975.06, 603276.3, 0.40916014, 10.008721, 9.994545 
2.376592e+3, 1.6628298e+2, -969420.75, -1218846.9, 43360.21, 0.12732305, -0.164813, -962098.0, 348404.63, 0.31914034, 10.00344, 9.99859 
2.3762144e+3, 1.7628747e+2, -1062070.4, -1229241.8, -123228.336, 0.049784422, 1.0569844, -996754.1, 215700.78, 0.25440004, 10.00131, 9.998767 
2.3758343e+3, 1.8628044e+2, -965051.44, -949759.1, -200900.61, 0.08682662, 1.0792061, -756359.25, 358157.88, 0.20803122, 10.000338, 10.000684 
2.3754555e+3, 1.9626887e+2, -957108.5, -960150.6, -11399.87, 0.43308118, 0.55162674, -947128.7, 69494.36, 0.17323056, 9.999711, 10.000061 
2.3750761e+3, 2.0625933e+2, -1013757.0, -1027244.9, 103765.16, 0.37537768, 0.3710609, -916516.9, 2194.7412, 0.14628343, 9.998995, 9.99916 
2.3746952e+3, 2.1625155e+2, -898046.2, -832341.7, -59344.324, 0.1619605, 0.3402309, -797363.1, 23419.533, 0.1255341, 9.998729, 9.999977 
2.3743165e+3, 2.2624472e+2, -541954.56, -495493.06, 101815.58, -0.1794745, 0.28883544, -414291.66, 308552.97, 0.10829949, 10.000136, 10.001095 
2.3739363e+3, 2.3623642e+2, -99678.71, -198898.38, 49331.832, -0.79695255, 0.07147427, -79325.945, 545596.44, 0.09199208, 10.002581, 10.001383 
2.3735562e+3, 2.4623221e+2, 179991.31, 43357.777, -176419.67, -0.97615886, 0.1526777, 300859.84, 827826.5, 0.07586676, 10.003569, 10.001962 
2.373183e+3, 2.5622934e+2, 107468.12, -168587.64, -230775.92, -0.6457243, 0.49746278, 238343.97, 667344.94, 0.059159193, 10.003405, 9.999643 
2.3728086e+3, 2.6622456e+2, 379452.22, 292886.63, -391372.4, -0.14135523, 0.5441282, 729927.94, 1060973.5, 0.040411934, 10.00322, 10.002343 
2.3724407e+3, 2.7621725e+2, -412630.9, -462516.84, -45540.684, 0.38014045, 0.37699503, -385649.84, -152540.61, 0.021717625, 9.999094, 9.998145 
2.3720613e+3, 2.862096e+2, -257821.61, -483270.38, -506638.22, 0.4708357, 0.5761251, 148481.06, 283662.03, 0.009487559, 10.000211, 9.996732 
2.3716812e+3, 2.962046e+2, 247352.63, 233876.05, -73457.14, 0.41920292, 0.721389, 314379.88, 351609.72, 0.0043383124, 10.001517, 10.000638 
2.371314e+3, 3.0618933e+2, -149446.88, 106581.61, 63484.19, -0.060779613, -0.044666007, 121458.55, 121458.55, 0.0025592025, 9.998526, 10.00119 
2.387345e+3, 1.4668627e+2, -1613696.9, -1471692.4, -72826.93, 0.082580134, 0.9062607, -1440983.9, 61571.67, 0.38967893, 9.998392, 10.000554 
2.3869652e+3, 1.5668514e+2, -1392769.6, -1445804.9, -123055.63, 0.06188041, 1.3883237, -1293406.9, 111153.74, 0.2783623, 9.999927, 9.9993305 
2.3865832e+3, 1.6667406e+2, -1394808.9, -1458148.8, 65001.785, -0.23395407, 1.106612, -1354172.4, -47507.086, 0.19862524, 9.999457, 9.998583 
2.3862012e+3, 1.7666075e+2, -1465471.5, -1462437.6, 66871.39, -0.61794287, 0.58835185, -1397066.0, -188273.34, 0.1461588, 9.99831, 9.998496 
2.3858194e+3, 1.8665269e+2, -1098510.4, -926397.2, -26792.412, -0.69469655, 0.4876848, -922322.94, 188541.6, 0.11113541, 9.99879, 10.001403 
2.3854387e+3, 1.9664598e+2, -908117.75, -848764.9, -91168.945, -0.53566825, 0.3495061, -782563.94, 230356.56, 0.08556882, 9.99969, 10.000844 
2.385065e+3, 2.0663878e+2, -847690.56, -1016298.2, 62403.395, -0.055138513, 0.3715848, -827107.25, 87880.875, 0.065839775, 10.0005665, 9.99845 
2.3846921e+3, 2.166308e+2, -621160.8, -848218.3, 101108.29, 0.47066668, 0.41877714, -582664.4, 234403.06, 0.050802168, 10.001434, 9.998548 
2.3843192e+3, 2.2662458e+2, -443737.66, -381409.88, 270589.4, 0.67404693, 0.45842245, -140195.69, 578928.44, 0.038884565, 10.000558, 10.001557 
2.383947e+3, 2.3661874e+2, -702639.7, -626923.06, 142456.3, 0.7869636, 0.4859238, -517380.38, 103793.33, 0.028499383, 9.9987955, 9.999996 
2.383567e+3, 2.4661092e+2, -584453.56, -606985.4, -21440.098, 0.56667036, 0.43186605, -571499.7, -48246.688, 0.019239577, 9.999327, 9.999168 
2.383187e+3, 2.5660086e+2, -670991.25, -817102.3, 75737.07, 0.2117341, 0.33187866, -638817.44, -213457.34, 0.011432521, 9.999096, 9.997135 
2.3828083e+3, 2.6659578e+2, 22826.125, 146472.17, -144469.03, 0.27566063, 0.48484215, 241790.44, 569199.25, 0.005416997, 10.000682, 10.002319 
2.3824334e+3, 2.765914e+2, -292443.47, -221537.44, 3735.2632, 0.37945354, 0.515212, -221341.22, 8104.444, 0.001679893, 9.999144, 9.999788 
2.38205e+3, 2.8657869e+2, -88511.94, -435311.53, -198590.45, -0.02664628, 0.18250881, 1727.5188, 133295.77, 0.00032890253, 10.001488, 9.996471 
2.3816717e+3, 2.9656833e+2, -10637.092, -264690.06, 107179.51, -0.108726785, -0.047636647, 28538.635, 62208.375, 0.000101577105, 10.001224, 9.997453 
2.3813085e+3, 3.0656475e+2, -511340.84, -354541.78, 226893.55, 0.08145278, 0.6776319, -192884.7, -192884.7, 0.00014331771, 9.997161, 9.998768 
2.3977102e+3, 1.370578e+2, -1169373.3, -2328425.3, 373353.9, 0.36644435, -0.19711114, -1059520.1, 537372.4, 0.4278238, 10.00972, 9.98985 
2.3973323e+3, 1.4706029e+2, -1422806.5, -1162396.9, -96787.516, -0.37063634, 0.8772701, -1130363.8, 368513.06, 0.2998544, 9.998404, 10.003527 
2.3969641e+3, 1.5705332e+2, -1193112.9, -1091918.5, -67528.16, 0.6233508, 0.5561341, -1058134.9, 342803.4, 0.19614406, 10.000075, 10.00214 
2.3965836e+3, 1.6704704e+2, -1188989.4, -1144919.3, -34730.23, 0.501852, 0.49074546, -1125823.6, 177171.28, 0.12585048, 9.999879, 10.000759 
2.396198e+3, 1.7704032e+2, -1291363.5, -1215678.8, 8510.209, -0.10418062, 0.44657657, -1214733.6, -9676.396, 0.083471425, 9.998745, 10.000008 
2.3958164e+3, 1.8703263e+2, -1126240.1, -1124630.8, -16717.209, -0.1947398, 0.4155734, -1108698.9, -1566.2689, 0.057587944, 9.999429, 9.999601 
2.3954372e+3, 1.9702466e+2, -853142.44, -946417.75, -40390.54, -0.048326366, 0.35033324, -838083.56, 171128.03, 0.03970386, 10.000617, 9.999632 
2.39506e+3, 2.0701939e+2, -605028.94, -687671.8, 87096.58, 0.047219094, 0.50861007, -549948.75, 361311.8, 0.026570952, 10.001345, 10.000354 
2.3946838e+3, 2.1701485e+2, -417773.44, -595460.6, 164154.11, 0.1298952, 0.7422977, -319962.94, 493338.6, 0.017417854, 10.002142, 9.999943 
2.3943089e+3, 2.2700708e+2, -412471.56, -547289.3, 213796.08, 0.22066939, 0.67233044, -255709.25, 459665.1, 0.011141793, 10.001538, 9.999863 
2.3939353e+3, 2.369968e+2, -550250.5, -674556.9, 125067.35, 0.30528665, 0.43300498, -472743.9, 144727.86, 0.0065593217, 10.000382, 9.9988575 
2.3935561e+3, 2.4698879e+2, -375200.72, -395064.16, 18367.588, 0.20272923, 0.3564283, -364251.63, 155301.03, 0.0032030866, 10.000312, 10.00012 
2.393178e+3, 2.569815e+2, -510504.47, -606001.5, 187861.45, 0.051801726, 0.4211809, -364418.4, 57210.85, 0.0011282732, 9.9996605, 9.998265 
2.392802e+3, 2.6697537e+2, -270965.06, -218286.69, 30946.08, 0.33612213, 0.57544756, -203988.3, 119699.56, 0.00023273825, 9.999685, 10.000238 
2.3924285e+3, 2.769687e+2, -353700.88, -235380.38, 103475.125, 0.65549016, 0.55438733, -175347.34, 50400.953, 0.000018051116, 9.9987, 9.999848 
2.3920466e+3, 2.8695658e+2, -159408.1, -354604.1, 39697.973, 0.21137872, 0.22342081, -151643.39, -23778.807, 0.000004039042, 10.000533, 9.997442 
2.391669e+3, 2.969486e+2, 192508.03, -231384.8, 243265.22, 0.06507085, 0.2761229, 303205.78, 333147.66, 0.00001362104, 10.002826, 9.99691 
2.3913024e+3, 3.0693752e+2, -155119.8, -55670.23, 20695.777, 0.366924, 0.33918363, -51535.293, -51535.293, 0.000054133918, 9.999003, 9.999971 
2.4080801e+3, 1.2744737e+2, -1268104.6, -1584762.4, 92799.99, 0.12765145, 0.44119623, -1242912.8, 448140.5, 0.49043465, 10.006363, 9.997589 
2.4076992e+3, 1.3744313e+2, -1819046.9, -1834113.6, 181399.33, -0.40609053, 0.9052577, -1645024.6, -51912.4, 0.36336103, 9.998573, 9.998477 
2.4073255e+3, 1.474352e+2, -1571219.5, -1226018.9, 90370.28, -0.16537213, 0.6477428, -1203792.0, 291400.72, 0.24041095, 9.997512, 10.003024 
2.4069536e+3, 1.5742646e+2, -1353887.8, -1134827.8, -23974.223, 0.33989686, 0.17254566, -1132234.6, 265039.4, 0.14389461, 9.998698, 10.002204 
2.4065752e+3, 1.6742311e+2, -1200662.6, -1052869.5, -93777.79, 0.39308226, 0.34498703, -1007371.8, 291932.9, 0.08188297, 9.999384, 10.001613 
2.4061933e+3, 1.7742053e+2, -1175538.3, -1112397.6, -132786.4, 0.24541894, 0.63558286, -1007480.2, 193848.44, 0.047678713, 9.999356, 10.000485 
2.4058124e+3, 1.8741305e+2, -1222736.5, -1221860.6, -114096.47, 0.19421613, 0.6153046, -1108201.3, -4796.4424, 0.028905774, 9.999045, 9.999094 
2.4054322e+3, 1.9740428e+2, -1254259.1, -1208071.4, -82717.875, 0.2019147, 0.52219194, -1145284.1, -139788.97, 0.017015342, 9.998165, 9.998998 
2.4050537e+3, 2.0739838e+2, -847330.8, -705871.56, 57585.04, 0.052783184, 0.5838, -685394.2, 222153.55, 0.00915297, 9.999253, 10.001208 
2.4046762e+3, 2.1739358e+2, -614811.0, -674595.4, 22097.04, -0.07222054, 0.70458037, -607530.3, 202055.88, 0.0045936005, 10.000738, 10.000056 
2.4043003e+3, 2.2738531e+2, -703694.06, -809919.06, 29300.576, -0.03524359, 0.6228866, -696148.0, 15517.302, 0.0022051786, 10.000067, 9.998754 
2.403925e+3, 2.3737398e+2, -952983.1, -948742.6, 22503.55, 0.036421053, 0.36181155, -928259.7, -314482.63, 0.0009056362, 9.997994, 9.998134 
2.4035473e+3, 2.4736737e+2, -410462.63, -286755.75, -23610.598, 0.027356617, 0.3712841, -282402.63, 233441.16, 0.00023937336, 9.999616, 10.001151 
2.4031709e+3, 2.573623e+2, -343383.4, -480310.97, 51311.227, 0.032077428, 0.5164825, -326289.44, 91606.6, 0.000025130046, 10.000625, 9.998678 
2.4027951e+3, 2.6735505e+2, -92091.375, -290352.75, -47902.176, 0.30994353, 0.6290927, -81124.33, 238840.88, 0.00000030344088, 10.001651, 9.998781 
2.402421e+3, 2.7734703e+2, -174777.53, -188017.2, 26519.604, 0.63752335, 0.5491235, -154064.03, 67975.984, 0.000000006555133, 10.000083, 9.999547 
2.4020429e+3, 2.8733742e+2, -38537.53, -135369.45, 141048.72, 0.44115555, 0.36287916, 62173.457, 186305.53, 0.00000087941476, 10.000693, 9.998876 
2.4016668e+3, 2.973305e+2, -364425.9, -610808.75, 295440.06, 0.2426246, 0.51227194, -167522.1, -141323.0, 0.0000072209577, 9.999504, 9.995914 
2.4012962e+3, 3.0731437e+2, -213968.52, -57035.555, 69120.01, 0.42072812, 0.07287342, -30933.566, -30933.566, 0.00003484927, 9.99851, 10.000154 
2.4180694e+3, 1.2782867e+2, -1449836.4, -1491227.9, -70737.43, -0.8006555, 0.7564098, -1396829.4, 290497.72, 0.44509998, 10.00202, 10.000838 
2.4176985e+3, 1.3782196e+2, -1683409.3, -1616048.6, 46240.055, 0.31576177, 0.73133385, -1592523.1, -3130.6758, 0.31930807, 9.998827, 9.9999 
2.4173196e+3, 1.4781329e+2, -1643585.1, -1456104.6, 160339.47, 0.13987978, 0.51278466, -1364114.0, 127364.45, 0.20041417, 9.998146, 10.00072 
2.416938e+3, 1.5780349e+2, -1466032.0, -1324850.1, 45677.93, -0.4701015, 0.1630647, -1311360.4, 82215.16, 0.110025235, 9.998627, 10.000682 
2.416562e+3, 1.6780093e+2, -1160482.6, -1006482.25, -82812.81, -0.17176813, 0.45243922, -970402.9, 325200.53, 0.054970514, 9.9995575, 10.001794 
2.4161875e+3, 1.7780027e+2, -1073744.3, -1041458.0, -118249.56, 0.38143858, 0.9214198, -938254.75, 259358.27, 0.027314784, 9.999952, 10.0006695 
2.4158062e+3, 1.877932e+2, -1139735.3, -1169562.3, -142740.36, 0.34059003, 0.9297419, -1011131.44, 88554.23, 0.013986388, 9.999533, 9.999237 
2.4154224e+3, 1.9778357e+2, -1155713.6, -1140426.0, -65065.508, 0.07461317, 0.7482779, -1082556.9, -80773.766, 0.006556314, 9.998717, 9.999203 
2.4150454e+3, 2.0777409e+2, -798619.1, -723011.0, 112609.125, -0.035747085, 0.46527308, -642029.7, 261835.83, 0.002469395, 9.999752, 10.000857 
2.4146706e+3, 2.1776484e+2, -507395.0, -643822.8, 63918.31, -0.09110254, 0.18790117, -482127.97, 323814.0, 0.00078321603, 10.00151, 9.999906 
2.4142939e+3, 2.2775817e+2, -641367.8, -756298.3, -55597.254, 0.004303402, 0.26233003, -618874.9, 89132.03, 0.00023610769, 10.000359, 9.998984 
2.4139175e+3, 2.377514e+2, -876716.9, -843722.3, 17334.988, 0.12206053, 0.42309317, -836289.25, -226211.55, 0.000047296035, 9.998196, 9.998751 
2.4135423e+3, 2.4774484e+2, -447439.6, -314937.06, 67361.875, 0.23851472, 0.4316054, -286706.28, 225437.42, 0.0000020598873, 9.999398, 10.001073 
2.4131684e+3, 2.577382e+2, -205880.47, -320354.9, 90257.875, 0.34038293, 0.4054855, -156241.2, 257968.73, 0.0, 10.001151, 9.999507 
2.4127898e+3, 2.677307e+2, -74717.06, -274027.22, -39832.316, 0.26128486, 0.46476123, -67051.37, 249229.63, 0.0, 10.00178, 9.998809 
2.4124102e+3, 2.7772337e+2, 64929.08, -17198.877, 7283.0596, 0.11565778, 0.471452, 65569.93, 283919.72, 0.0, 10.001421, 10.000093 
2.4120356e+3, 2.8771633e+2, 102206.914, 114242.39, 56060.777, 0.3383481, 0.41849345, 164607.48, 285027.56, 0.0000001537889, 10.000781, 10.000608 
2.411665e+3, 2.9771164e+2, -149500.63, -334536.66, 229948.22, 0.74370897, 0.6575338, 5843.749, 28312.94, 0.000003139397, 10.000126, 9.997531 
2.4112867e+3, 3.0769628e+2, -849.29193, 16529.713, 73986.01, 0.25633824, 0.22822139, 82334.76, 82334.76, 0.000017281642, 9.999959, 10.000006 
2.4280635e+3, 1.2820452e+2, -1966578.1, -1628815.8, 53634.023, -0.50153327, 0.23992398, -1620503.6, 63131.58, 0.4141129, 9.996613, 10.00177 
2.4276905e+3, 1.3819952e+2, -1573460.8, -1544997.6, 52606.297, 0.30085295, 0.28464675, -1504731.9, 80944.52, 0.28877336, 9.999504, 10.000193 
2.4273112e+3, 1.4819348e+2, -1654616.3, -1555574.9, 207339.84, 0.15129577, 0.38206723, -1391924.0, 95815.74, 0.17287979, 9.99847, 9.999833 
2.4269295e+3, 1.5818651e+2, -1858684.1, -1642277.9, 182621.1, -0.3526692, 0.42517626, -1538211.4, -148395.97, 0.08747846, 9.996408, 9.99957 
2.4265529e+3, 1.6818018e+2, -1440108.8, -1256102.5, 101558.086, -0.23492032, 0.4591359, -1211070.5, 80810.305, 0.038149297, 9.998099, 10.000699 
2.4261785e+3, 1.7817485e+2, -1033946.9, -1103348.9, -31451.674, 0.15656811, 0.57486194, -1021814.5, 172121.11, 0.01570925, 10.000589, 9.999919 
2.4257976e+3, 1.881689e+2, -927502.6, -1045760.75, -121707.97, 0.18344021, 0.70350045, -851320.6, 244677.98, 0.0064830934, 10.000898, 9.999432 
2.4254148e+3, 1.9816183e+2, -1006244.5, -1099967.5, -26037.709, 0.08071191, 0.77003485, -999496.6, -1424.0524, 0.0021827125, 9.999919, 9.998896 
2.4250388e+3, 2.0815147e+2, -847376.5, -854812.7, 173071.83, 0.006080587, 0.46704614, -677982.8, 222183.78, 0.00044835047, 9.99991, 9.999861 
2.4246651e+3, 2.1814024e+2, -840999.25, -869319.06, 45654.875, -0.029065834, 0.074354, -807358.8, -5093.6904, 0.000068581576, 9.99956, 9.99929 
2.4242873e+3, 2.2813427e+2, -668569.5, -660908.5, -96792.7, 0.042983517, 0.17981988, -567870.5, 136450.17, 0.0000096515805, 9.999831, 9.999845 
2.4239099e+3, 2.3812942e+2, -720307.56, -755455.25, 26661.963, 0.18985026, 0.44591427, -705948.7, -99579.38, 0.00000040342232, 9.99929, 9.998822 
2.4235356e+3, 2.4812227e+2, -484311.88, -453150.38, 104024.695, 0.32517222, 0.45604923, -363546.06, 144897.13, 0.0, 9.999717, 9.999955 
2.423163e+3, 2.5811422e+2, -536115.75, -537466.44, -6344.4165, 0.43964532, 0.36191827, -530410.8, -119885.29, 0.0, 9.999185, 9.99898 
2.4227832e+3, 2.6810664e+2, -289304.4, -304300.8, -109300.47, 0.20492955, 0.35283858, -187245.25, 125351.72, 0.0, 10.00004, 9.999408 
2.4224016e+3, 2.7809942e+2, -286554.88, -287338.8, -62059.152, -0.13447261, 0.3543246, -224886.47, -10223.227, 0.0, 9.999465, 9.999195 
2.4220279e+3, 2.8809348e+2, -162383.94, -35798.566, -81119.01, 0.20049906, 0.46491146, 3798.292, 120524.38, 0.0000000009564638, 9.99913, 10.0003395 
2.4216601e+3, 2.980892e+2, -617333.5, -467172.94, 38651.473, 0.91391003, 0.6846906, -457808.06, -439033.25, 0.0000004799063, 9.996582, 9.998338 
2.4212751e+3, 3.080788e+2, -10681.384, 3028.2034, -212135.2, -0.2945725, 0.5384838, 208419.34, 208419.34, 0.0000055147566, 9.999935, 9.999942 
2.4380566e+3, 1.285825e+2, -1766279.6, -1584066.8, 59364.926, -0.2486193, -0.15117396, -1566432.3, 113484.97, 0.39271495, 9.998185, 10.00147 
2.4376792e+3, 1.3857612e+2, -1527679.4, -1511769.6, 51929.746, -0.13309313, -0.21237402, -1467189.0, 114778.62, 0.26710206, 9.999848, 10.0002775 
2.4373017e+3, 1.4857386e+2, -1543993.8, -1485653.5, 70292.58, 0.042975545, 0.24637942, -1438718.9, 45279.4, 0.15331793, 9.999127, 9.999964 
2.4369241e+3, 1.5857162e+2, -1770689.1, -1665950.4, 133962.83, 0.13448964, 0.760573, -1574484.5, -188451.03, 0.07196278, 9.997303, 9.9989805 
2.4365456e+3, 1.6855957e+2, -1490617.4, -1494033.3, 186127.23, -0.111743905, 0.3726156, -1306190.3, -18037.807, 0.027363949, 9.998662, 9.998793 
2.4361673e+3, 1.785459e+2, -1099708.9, -1250660.5, 29685.469, -0.39121565, -0.1683936, -1094080.9, 96203.85, 0.009079448, 10.000651, 9.998849 
2.435788e+3, 1.8854174e+2, -895715.25, -999016.2, -154900.47, -0.14791778, 0.16129789, -784080.94, 308250.5, 0.002868925, 10.000997, 9.999696 
2.4354091e+3, 1.9853917e+2, -938670.2, -1077796.9, -21503.674, 0.1688875, 0.6663201, -935422.4, 58941.566, 0.00059867656, 10.000411, 9.998812 
2.4350335e+3, 2.0853066e+2, -912143.4, -1049474.4, 172012.81, 0.15323906, 0.6518572, -795597.2, 100853.164, 0.000045539302, 10.000139, 9.998425 
2.434659e+3, 2.1852048e+2, -798445.4, -873432.44, 53342.188, 0.0455331, 0.4904248, -770738.06, 27812.455, 0.0000022398012, 9.999929, 9.999074 
2.4342808e+3, 2.2851323e+2, -526414.44, -420982.4, -77813.59, 0.08572151, 0.3825326, -379709.4, 320901.3, 0.000000052409952, 10.000064, 10.001386 
2.4339028e+3, 2.3850664e+2, -557215.9, -607235.0, 56777.484, 0.1671481, 0.3399422, -520183.84, 82480.33, 0.0, 10.000088, 9.999453 
2.4335271e+3, 2.4849866e+2, -665507.2, -841480.9, 94037.63, 0.16720302, 0.43699023, -624712.2, -119960.07, 0.0, 9.999734, 9.997302 
2.4331526e+3, 2.5849026e+2, -586258.4, -634484.1, -26719.85, 0.12899014, 0.54535717, -574379.9, -167532.38, 0.0, 9.999103, 9.998349 
2.4327761e+3, 2.684823e+2, -235444.69, -119463.97, -116708.53, 0.21433955, 0.42253712, -47132.563, 261788.36, 0.0, 9.999642, 10.000906 
2.4323992e+3, 2.784746e+2, -140378.66, -181297.75, -70110.22, 0.3119394, 0.27166584, -87803.73, 123184.336, 0.0, 10.000219, 9.999575 
2.4320196e+3, 2.8846732e+2, -255985.02, -350016.13, -126169.555, 0.16324404, 0.39770567, -168355.78, -55290.203, 0.0, 9.999543, 9.998028 
2.4316436e+3, 2.9846084e+2, -371159.56, -342097.28, 31562.701, 0.16419213, 0.5859846, -321881.38, -306743.0, 0.000000008678429, 9.998161, 9.99845 
2.431275e+3, 3.0845603e+2, 238150.3, 227180.25, -286770.03, 0.29899687, 0.90231633, 519487.75, 519487.75, 0.0000009202062, 10.000971, 10.001101 
2.4484238e+3, 1.18976556e+2, -1961152.6, -2323641.5, 48773.926, -0.4415593, 0.82898676, -1954704.6, -180645.45, 0.4945417, 10.000298, 9.995591 
2.4480489e+3, 1.2896122e+2, -1504046.8, -1450625.3, -50762.426, -0.29504272, -0.031872716, -1419975.0, 256231.77, 0.3775347, 10.00062, 10.001712 
2.4476722e+3, 1.3895592e+2, -1472270.0, -1451052.0, -57282.758, -0.12946618, -0.025892042, -1403404.0, 174841.97, 0.25111946, 10.000132, 10.000695 
2.447294e+3, 1.489522e+2, -1376974.8, -1420308.6, -94704.41, -0.02072072, 0.26243788, -1301490.4, 178799.27, 0.13882844, 10.000431, 9.999834 
2.4469163e+3, 1.5894827e+2, -1348415.1, -1459761.1, -53900.27, 0.13822602, 0.6092427, -1326598.0, 55741.51, 0.060861234, 10.000264, 9.998948 
2.4465385e+3, 1.689379e+2, -1386738.8, -1435384.4, 91772.91, -0.045021124, 0.365909, -1316120.1, -31677.791, 0.02025213, 9.999434, 9.998774 
2.4461602e+3, 1.7892565e+2, -1466829.8, -1473319.8, 14521.822, -0.3108321, -0.025090996, -1455194.9, -268633.3, 0.0052852775, 9.99834, 9.998426 
2.4457808e+3, 1.8891934e+2, -1101718.0, -1172550.9, -167300.3, -0.2135153, 0.13963501, -966126.5, 122500.63, 0.0012089658, 9.999925, 9.999005 
2.4454018e+3, 1.989148e+2, -800129.2, -1066406.9, -100939.375, 0.04221524, 0.4998149, -766191.06, 224486.38, 0.00012403581, 10.001651, 9.998282 
2.4450274e+3, 2.08908e+2, -761117.4, -991583.7, 111212.78, 0.15236071, 0.66082054, -716203.8, 176547.78, 0.000001917801, 10.001299, 9.998228 
2.4446535e+3, 2.1889998e+2, -817942.94, -915717.9, 77572.52, 0.20672214, 0.7316602, -775138.06, 19698.102, 0.000000018702426, 9.999982, 9.998743 
2.4442747e+3, 2.2889136e+2, -348305.28, -316663.2, -71201.62, 0.1172409, 0.47658554, -259546.06, 437359.84, 0.0, 10.00121, 10.00154 
2.4438955e+3, 2.3888266e+2, -346033.38, -566951.7, -51889.242, 0.04902716, 0.19824663, -334452.7, 264521.28, 0.0, 10.001842, 9.998883 
2.4435191e+3, 2.4887486e+2, -573795.7, -907865.94, 47347.465, 0.039824467, 0.38536176, -567214.8, -66151.79, 0.0, 10.000924, 9.99623 
2.4431436e+3, 2.588671e+2, -672463.4, -768298.4, 65819.22, 0.023453977, 0.6574428, -638966.8, -235809.9, 0.0, 9.998946, 9.997509 
2.4427691e+3, 2.688592e+2, -206465.8, -56487.816, -11159.6455, 0.22257634, 0.5369003, -55661.99, 249568.11, 0.0, 9.999639, 10.001343 
2.4423948e+3, 2.788511e+2, -215483.83, -244878.81, -61567.727, 0.51568276, 0.3013888, -166883.6, 40416.926, 0.0, 9.999854, 9.999338 
2.4420129e+3, 2.8884256e+2, 1913.6808, -317878.13, -40713.21, 0.14806622, 0.3438397, 7015.5513, 116405.01, 0.0, 10.001773, 9.997154 
2.4416314e+3, 2.9883462e+2, -94390.22, -291024.38, 224226.19, -0.38230363, 0.48762405, 52126.594, 63602.875, 0.0, 10.000467, 9.997705 
2.4412724e+3, 3.088296e+2, -73381.42, 175196.8, 186933.67, 0.6104815, 0.7157996, 275389.28, 275389.28, 0.00000009984614, 9.99869, 10.001713 
2.4584235e+3, 1.1934668e+2, -1844327.9, -1944873.8, 90110.77, 0.098119095, 0.46109763, -1791414.9, -20974.545, 0.48539782, 9.999722, 9.9984865 
2.4580418e+3, 1.293388e+2, -1493863.1, -1355025.9, -36311.22, -0.37274295, 0.17239626, -1346102.6, 326409.22, 0.36593348, 10.000101, 10.002932 
2.4576662e+3, 1.3933687e+2, -1433043.4, -1398572.4, -30198.246, -0.09539945, 0.4221972, -1381037.3, 193482.13, 0.23856215, 10.00033, 10.0010195 
2.4572864e+3, 1.4932932e+2, -1372692.5, -1442931.4, -79255.305, -0.1500673, 0.3427471, -1321124.1, 155473.75, 0.1275105, 10.000585, 9.999557 
2.4569067e+3, 1.593209e+2, -1297666.6, -1386374.6, -53984.113, -0.17683394, 0.25099763, -1272152.5, 106535.17, 0.052560914, 10.000431, 9.999356 
2.4565317e+3, 1.6931595e+2, -1267991.6, -1264856.3, 38770.99, -0.005025791, 0.46406052, -1227621.3, 53118.984, 0.01541553, 9.999747, 9.999795 
2.4561563e+3, 1.7931037e+2, -1394345.0, -1427417.8, 4379.9165, 0.095724106, 0.6630484, -1393774.8, -210977.16, 0.0031067657, 9.998778, 9.9985285 
2.4557741e+3, 1.8929932e+2, -1136901.9, -1328698.1, -85158.05, -0.16621166, 0.44246104, -1104549.0, -19642.264, 0.00048131414, 10.000266, 9.997773 
2.4553926e+3, 1.9928809e+2, -761250.4, -1060036.0, -46772.777, -0.39112404, 0.23625103, -754099.56, 232918.36, 0.000015932997, 10.001955, 9.998163 
2.4550205e+3, 2.092828e+2, -667607.6, -830253.1, 65373.754, 0.007896922, 0.48940277, -644589.0, 244486.94, 0.0000000054715246, 10.001429, 9.999276 
2.4546492e+3, 2.1927775e+2, -701977.4, -795959.56, 71466.195, 0.40932623, 0.76708114, -663437.3, 127693.36, 0.0, 10.000471, 9.999335 
2.4542691e+3, 2.2926757e+2, -401452.1, -495239.6, -21671.268, 0.11446691, 0.43908304, -396686.7, 296530.25, 0.0, 10.001458, 10.000225 
2.4538882e+3, 2.3925671e+2, -254830.14, -515288.25, -59163.58, -0.23476705, 0.06235585, -242020.97, 353287.5, 0.0, 10.002377, 9.998991 
2.4535131e+3, 2.4925007e+2, -416043.6, -646123.94, -19874.904, 0.014725448, 0.26127845, -414339.38, 83043.586, 0.0, 10.001173, 9.997932 
2.4531391e+3, 2.592442e+2, -509193.4, -591002.44, 53225.27, 0.29288632, 0.5758366, -482970.38, -83516.13, 0.0, 9.999559, 9.998449 
2.452762e+3, 2.6923725e+2, -309589.38, -290889.66, 11476.013, 0.25201157, 0.63247085, -285436.84, 16086.04, 0.0, 9.999638, 9.999777 
2.4523854e+3, 2.7922988e+2, -87676.52, -143099.77, -21061.27, 0.2319601, 0.602945, -80581.375, 123010.32, 0.0, 10.000472, 9.999756 
2.45201e+3, 2.8922135e+2, 377485.75, 140662.98, 54796.75, 0.26726368, 0.46018153, 389550.2, 495222.97, 0.0, 10.003067, 9.999713 
2.4516347e+3, 2.992125e+2, 534262.0, 1267.6876, 191771.27, 0.23143953, 0.34286365, 596089.3, 603848.4, 0.0, 10.004678, 9.997705 
2.451262e+3, 3.092041e+2, -121876.03, -174821.28, 35498.582, 0.3019941, 0.5418696, -104066.055, -104066.055, 0.000000000000427524, 9.999597, 9.998898 
2.468416e+3, 1.1972403e+2, -1923217.5, -1685750.4, 39722.316, 0.16623898, 0.3700057, -1679282.0, 87457.766, 0.47722325, 9.997524, 10.001902 
2.4680339e+3, 1.2971732e+2, -1699125.4, -1449033.0, 91353.24, -0.34295616, 0.12237655, -1419218.1, 249575.77, 0.3557266, 9.998064, 10.0029 
2.4676567e+3, 1.3971359e+2, -1512445.5, -1512105.5, 37203.098, -0.35058188, 0.24447483, -1475072.0, 95748.14, 0.22774403, 9.999987, 10.000171 
2.4672781e+3, 1.4970553e+2, -1504310.8, -1663559.4, -72475.44, -0.30651858, 0.2427144, -1476265.5, -3356.8723, 0.11809006, 10.00026, 9.998147 
2.4669002e+3, 1.5969685e+2, -1397647.0, -1523174.8, -94766.125, -0.17301133, 0.24931684, -1346745.0, 28260.207, 0.04605504, 10.000083, 9.9985895 
2.4665254e+3, 1.6969208e+2, -1255802.6, -1273465.5, -71630.36, 0.074027576, 0.49803957, -1192461.3, 84596.63, 0.012013259, 9.999894, 9.999679 
2.4661504e+3, 1.796873e+2, -1252552.5, -1318726.0, -120376.97, 0.28656092, 0.7647236, -1160798.0, 18310.488, 0.0018483637, 9.999586, 9.998892 
2.4657688e+3, 1.8967627e+2, -1017269.6, -1183201.4, -63834.676, -0.047833942, 0.458623, -995554.06, 85659.055, 0.00018026956, 10.000698, 9.998579 
2.4653874e+3, 1.9966452e+2, -842351.25, -1082635.8, 47424.44, -0.36841944, 0.14354973, -833329.9, 149995.14, 0.0000007906511, 10.001369, 9.998294 
2.4650145e+3, 2.0965903e+2, -742693.9, -894646.06, 56765.145, -0.029496502, 0.38506043, -723829.8, 161554.42, 0.0, 10.001069, 9.9990015 
2.4646424e+3, 2.1965402e+2, -797438.25, -909929.25, 5773.6133, 0.3883948, 0.6940132, -797142.7, -9704.535, 0.0, 10.000157, 9.998701 
2.464263e+3, 2.2964366e+2, -585268.25, -661947.94, -10208.793, 0.09470249, 0.39704654, -583932.4, 105596.68, 0.0, 10.000618, 9.999434 
2.4638829e+3, 2.3963271e+2, -555615.06, -713391.56, -46645.91, -0.24600258, 0.075214125, -542856.2, 48768.777, 0.0, 10.000597, 9.998478 
2.4635074e+3, 2.4962606e+2, -354419.0, -541447.44, -86667.57, 0.014776684, 0.22515278, -320433.5, 173262.27, 0.0, 10.001263, 9.998617 
2.463133e+3, 2.596201e+2, -363848.8, -573853.9, -68998.68, 0.3562632, 0.4713748, -343207.63, 52555.46, 0.0, 10.000813, 9.997977 
2.4627551e+3, 2.69613e+2, -230827.52, -399784.56, -55408.227, 0.25034773, 0.5972861, -214277.86, 83558.23, 0.0, 10.000856, 9.998409 
2.462378e+3, 2.7960622e+2, -203353.25, -249305.5, -29728.96, 0.10738097, 0.7296829, -188756.6, 11147.333, 0.0, 9.999969, 9.999258 
2.4620052e+3, 2.8959802e+2, -59466.207, 61685.324, -29562.03, 0.25420463, 0.5204709, 68513.836, 170490.95, 0.0, 9.999526, 10.000873 
2.4616355e+3, 2.9958716e+2, -652857.9, -792433.1, -76893.78, 0.67345524, 0.17394407, -618804.44, -614727.7, 0.0, 9.997596, 9.995664 
2.4612527e+3, 3.0957666e+2, -106729.16, -415473.44, -69720.016, -0.028868524, 0.39145336, -91715.234, -91715.234, 0.0, 10.001039, 9.996446 
2.4784072e+3, 1.2010478e+2, -1679051.0, -1420117.3, -100334.77, 0.15864436, 0.504249, -1385789.3, 377212.06, 0.4678463, 9.998348, 10.004799 
2.4780251e+3, 1.3009596e+2, -1698855.6, -1503228.1, 101181.97, -0.37598807, 0.03170207, -1460310.5, 204760.2, 0.34520847, 9.998554, 10.002009 
2.477646e+3, 1.40088e+2, -1658771.5, -1738912.5, 4292.1465, -0.7485635, -0.1722779, -1658542.4, -91402.664, 0.21743059, 9.999597, 9.998672 
2.4772698e+3, 1.5008114e+2, -1609873.8, -1893867.5, -86222.43, -0.48307502, 0.1045468, -1585745.9, -116522.4, 0.109704144, 10.000351, 9.9965 
2.4768943e+3, 1.6007407e+2, -1409415.3, -1647310.1, -55900.105, -0.10588189, 0.42330983, -1396934.8, -25623.334, 0.040704507, 10.000524, 9.997517 
2.4765188e+3, 1.7006627e+2, -1237903.0, -1338976.3, -39102.87, 0.11563899, 0.45389912, -1224541.4, 48853.37, 0.00953522, 10.000324, 9.99903 
2.4761431e+3, 1.800586e+2, -1114881.4, -1137220.6, -58412.51, 0.25035703, 0.46426877, -1066580.1, 108892.91, 0.0011160366, 10.000026, 9.999928 
2.4757646e+3, 1.9005118e+2, -798301.75, -799463.06, -2748.3604, 0.13224258, 0.31510973, -796073.4, 281464.25, 0.00006263998, 10.000993, 10.001077 
2.4753858e+3, 2.0004348e+2, -749338.8, -950027.9, 65781.266, -0.03081411, 0.20413288, -729699.2, 249905.94, 0.0000000031066179, 10.0016365, 9.999068 
2.4750088e+3, 2.1003582e+2, -810456.1, -1086099.0, 31934.455, -0.016015314, 0.3250064, -806804.75, 74880.11, 0.0, 10.001267, 9.997616 
2.4746326e+3, 2.2002798e+2, -749388.44, -926612.06, 7866.4404, 0.040147383, 0.47347322, -749040.0, 34726.406, 0.0, 10.000621, 9.998375 
2.4742566e+3, 2.3001936e+2, -553409.6, -637430.75, 2167.618, 0.08108211, 0.3626196, -553353.75, 132491.42, 0.0, 10.000756, 9.999566 
2.47388e+3, 2.4001053e+2, -478446.47, -669962.25, -27206.752, 0.06741662, 0.2542313, -474656.47, 113268.555, 0.0, 10.001039, 9.99858 
2.4735017e+3, 2.5000218e+2, -348760.06, -607917.75, -74554.01, 0.00050888554, 0.2874032, -328843.2, 161164.61, 0.0, 10.001556, 9.998045 
2.4731243e+3, 2.5999376e+2, -207062.47, -523830.6, -73690.9, -0.003791731, 0.34866652, -190758.64, 201334.36, 0.0, 10.001933, 9.997787 
2.4727492e+3, 2.6998484e+2, -136059.66, -411430.66, -84962.25, 0.19725072, 0.336055, -111955.53, 182228.25, 0.0, 10.001698, 9.997952 
2.4723735e+3, 2.799768e+2, -107899.75, -309374.6, -107809.55, 0.27939144, 0.40853372, -61087.42, 135178.14, 0.0, 10.001026, 9.998338 
2.4719946e+3, 2.8996792e+2, -375993.1, -373027.66, -215455.23, 0.04302501, 0.34141845, -159050.03, -60697.473, 0.0, 9.998443, 9.998479 
2.4716233e+3, 2.999571e+2, -589960.75, -593269.25, -41926.08, 0.4196492, 0.15221794, -549656.3, -549198.75, 0.0, 9.997145, 9.997301 
2.4712531e+3, 3.0995077e+2, 1046723.3, 746914.0, 282872.56, 0.21884798, 0.38310632, 1216956.6, 1216956.6, 0.0, 10.006073, 10.00214 
2.4883969e+3, 1.204803e+2, -1687067.4, -1533594.1, -227252.66, -0.0829313, 0.37511262, -1370471.9, 388844.16, 0.45571515, 9.9993725, 10.002967 
2.4880193e+3, 1.3047087e+2, -1788331.3, -1757224.5, -74367.79, -0.15879725, 0.06876426, -1696801.1, -35400.277, 0.33319858, 9.999045, 9.999423 
2.4876408e+3, 1.4046139e+2, -1738316.9, -1707605.9, -206179.03, -0.47494543, -0.14019732, -1516211.3, 47280.355, 0.20679392, 9.998774, 9.999347 
2.4872641e+3, 1.5045696e+2, -1401300.3, -1464659.3, -111147.03, -0.3759034, 0.11936042, -1317406.3, 148137.25, 0.10179194, 10.000402, 9.99951 
2.4868885e+3, 1.6045225e+2, -1141672.5, -1314990.6, 62698.156, -0.10358235, 0.41459492, -1121369.6, 246230.2, 0.036105353, 10.001551, 9.999317 
2.4865125e+3, 1.7044424e+2, -1038542.06, -1173275.8, 144662.55, 0.06795789, 0.34267324, -946329.6, 323352.3, 0.0076701324, 10.001411, 9.9996395 
2.486136e+3, 1.80436e+2, -990784.8, -1108809.0, 199453.89, 0.19733107, 0.29049578, -841796.25, 329968.4, 0.000687035, 10.001038, 9.99962 
2.4857588e+3, 1.9042976e+2, -785084.3, -879267.06, 109963.12, 0.12539771, 0.33293402, -712553.44, 361270.22, 0.000019881356, 10.001491, 10.000258 
2.485381e+3, 2.0042306e+2, -796027.8, -1016766.56, -665.55664, 0.05926419, 0.3864778, -796025.8, 179860.2, 0.0, 10.001545, 9.998634 
2.4850029e+3, 2.1041346e+2, -790768.0, -1072204.8, 28015.826, -0.020275466, 0.3069337, -788006.25, 89973.73, 0.0, 10.001434, 9.997593 
2.4846254e+3, 2.204037e+2, -766580.2, -980530.1, 90984.04, -0.04969738, 0.28117612, -733121.06, 46954.76, 0.0, 10.000734, 9.99794 
2.4842507e+3, 2.3039591e+2, -613786.56, -728685.9, 67508.65, 0.110124916, 0.30389678, -582591.56, 99558.945, 0.0, 10.000618, 9.999006 
2.4838755e+3, 2.4038802e+2, -653403.9, -815720.4, 15529.611, 0.24174882, 0.34720337, -651931.44, -67705.805, 0.0, 10.0001545, 9.998001 
2.4834959e+3, 2.5037828e+2, -440769.2, -669068.44, 15718.862, -0.011919752, 0.25667003, -439692.0, 46626.62, 0.0, 10.001035, 9.997854 
2.4831174e+3, 2.603682e+2, -400221.56, -703903.75, 26023.838, -0.16927315, 0.19340597, -398007.6, -9591.608, 0.0, 10.00105, 9.996972 
2.4827434e+3, 2.7035832e+2, -286425.13, -569994.25, -23755.201, 0.16231576, 0.16358864, -284448.88, 6067.5093, 0.0, 10.001087, 9.997139 
2.4823682e+3, 2.8034884e+2, -298424.84, -588938.9, -71524.15, 0.31838825, 0.20291175, -281770.44, -89156.6, 0.0, 10.000567, 9.996643 
2.4819855e+3, 2.903389e+2, 60669.883, -326588.3, -106392.914, -0.15553313, 0.1857167, 87974.44, 182690.95, 0.0, 10.00227, 9.996893 
2.4816138e+3, 3.0032995e+2, 105197.06, -113768.3, 240579.2, 0.21033853, 0.27605942, 260033.89, 260033.89, 0.0, 10.0014105, 9.99852 
2.4812534e+3, 3.10328e+2, 107476.08, 755370.2, 348998.97, 0.45082113, 0.5565946, 907597.44, 907597.44, 0.0, 9.9976845, 10.006246 
2.4983872e+3, 1.20854765e+2, -1744419.8, -1732912.0, -215581.73, -0.33707696, 0.2937039, -1523007.4, 232635.2, 0.43991756, 10.000136, 10.000371 
2.4980149e+3, 1.3084471e+2, -1864036.5, -2088281.9, 22357.25, 0.14297159, 0.18702342, -1861829.1, -204082.13, 0.31901658, 9.999808, 9.996784 
2.4976373e+3, 1.4083472e+2, -1569306.5, -1465311.8, -50072.32, -0.075334, 0.08199542, -1445122.1, 114729.27, 0.19536594, 9.999176, 10.000919 
2.4972592e+3, 1.5083283e+2, -1120032.6, -833244.94, -4433.6377, -0.20521232, 0.19028047, -833176.4, 628688.5, 0.094030365, 10.000166, 10.00436 
2.4968821e+3, 1.6083063e+2, -1015515.44, -939574.9, 68160.35, -0.2298885, 0.3143183, -899522.25, 464359.2, 0.032013185, 10.001058, 10.002199 
2.4965057e+3, 1.7082414e+2, -950773.4, -972612.8, 103094.91, -0.06344633, 0.21649121, -858021.5, 407921.06, 0.0062260167, 10.001335, 10.001044 
2.4961291e+3, 1.808171e+2, -1047568.5, -1255741.5, 177626.77, 0.03501522, 0.20704122, -945778.2, 222234.13, 0.00043419475, 10.0011635, 9.998538 
2.4957517e+3, 1.9081034e+2, -972910.7, -1317931.3, 121212.695, -0.06873026, 0.46791154, -934583.75, 135505.98, 0.0000058323185, 10.001686, 9.997152 
2.4953742e+3, 2.0080265e+2, -769285.1, -1053006.6, 212.18889, -0.16059302, 0.6676598, -769285.0, 202887.7, 0.000000000090419006, 10.001916, 9.998201 
2.4949975e+3, 2.1079166e+2, -635881.56, -825639.4, 22997.873, -0.03914786, 0.34374925, -633134.06, 241137.3, 0.0, 10.001713, 9.999151 
2.4946211e+3, 2.2078086e+2, -672503.5, -911037.75, 81954.16, 0.060246512, 0.09370733, -647060.1, 129308.97, 0.0, 10.001242, 9.998159 
2.4942446e+3, 2.30773e+2, -655659.4, -887280.4, 61437.31, 0.12220046, 0.20487766, -640372.2, 38075.348, 0.0, 10.0008955, 9.997793 
2.4938685e+3, 2.4076487e+2, -561217.6, -759205.56, 33473.03, 0.14154008, 0.31764483, -555711.56, 24816.559, 0.0, 10.000693, 9.998118 
2.493491e+3, 2.5075465e+2, -364991.78, -563358.1, 51804.344, 0.06382782, 0.12854461, -352277.72, 130346.9, 0.0, 10.001186, 9.998527 
2.4931137e+3, 2.6074433e+2, -326773.94, -686390.94, 43329.152, 0.0068703815, 0.007472988, -321627.0, 63096.78, 0.0, 10.001568, 9.996843 
2.4927373e+3, 2.7073523e+2, -323581.4, -716017.4, -9205.73, 0.10636702, 0.15818368, -323365.56, -36546.117, 0.0, 10.001339, 9.996032 
2.4923606e+3, 2.8072628e+2, -102699.33, -446386.2, 33165.38, 0.11349264, 0.33081734, -99528.17, 89384.93, 0.0, 10.001599, 9.997146 
2.4919836e+3, 2.9071763e+2, 482155.53, 15372.208, 91875.375, -0.061975077, 0.35435134, 499588.03, 590586.25, 0.0, 10.004485, 9.998216 
2.4916133e+3, 3.0070925e+2, 472988.1, -223761.39, 161887.06, 0.37629375, 0.47958246, 508764.84, 508764.84, 0.0, 10.005116, 9.995975 
2.4912383e+3, 3.1069827e+2, -997344.3, -576229.0, -208646.77, 0.16405101, 0.49296156, -490361.3, -490361.3, 0.0, 9.993411, 9.999186 
2.508381e+3, 1.2122918e+2, -1580161.8, -1646187.9, -117099.32, -0.3460724, -0.07090819, -1491510.9, 260456.38, 0.42027465, 10.001506, 10.000275 
2.5080088e+3, 1.3122514e+2, -1625615.9, -1829559.6, 158928.66, 0.1741606, 0.35024348, -1538758.3, 115258.29, 0.30251706, 10.001087, 9.998075 
2.507629e+3, 1.4121674e+2, -1499025.6, -1466585.9, 183725.84, -0.15389451, 0.364635, -1298365.3, 257742.3, 0.18302314, 9.999901, 10.000636 
2.5072518e+3, 1.5121156e+2, -1366900.0, -1093820.6, 56599.113, -0.21524686, 0.273546, -1082554.5, 375598.63, 0.08629053, 9.998917, 10.002965 
2.5068748e+3, 1.612066e+2, -1479635.8, -1278263.9, -72670.25, -0.19877622, 0.23818867, -1254778.0, 105417.68, 0.028287582, 9.998292, 10.001136 
2.5064987e+3, 1.7119977e+2, -1200941.0, -1191514.3, -160406.19, -0.11459938, 0.16398989, -1035752.2, 226507.58, 0.0050760456, 10.000002, 10.000195 
2.5061223e+3, 1.8119276e+2, -1074684.9, -1280941.5, -178303.38, -0.044751465, 0.18871093, -971833.75, 192494.39, 0.00028139996, 10.001077, 9.998413 
2.505745e+3, 1.9118612e+2, -1138586.5, -1350613.4, -79659.69, -0.12058414, 0.4035336, -1111993.3, -45590.734, 0.0000014559199, 10.00045, 9.997507 
2.5053683e+3, 2.011785e+2, -1059870.3, -1188819.9, -18469.277, -0.15441446, 0.58337915, -1057277.0, -88792.734, 0.0, 9.999927, 9.998241 
2.5049922e+3, 2.11168e+2, -683226.7, -818597.3, -58327.1, -0.031236013, 0.2777134, -661562.44, 209015.88, 0.0, 10.001325, 9.999381 
2.504616e+3, 2.2115764e+2, -576725.75, -915276.25, -84949.625, 0.10512463, 0.059854258, -556605.8, 216065.89, 0.0, 10.002155, 9.9977 
2.504239e+3, 2.3114923e+2, -523688.0, -888891.4, -65374.285, 0.10791574, 0.14632882, -512338.22, 162419.58, 0.0, 10.002101, 9.9971895 
2.503862e+3, 2.4114086e+2, -480704.1, -755230.75, -39259.117, 0.1037024, 0.27244854, -475200.16, 101642.88, 0.0, 10.0014105, 9.997813 
2.503486e+3, 2.5113153e+2, -308566.44, -499997.28, -30791.277, 0.11398037, 0.14019483, -303735.63, 175194.64, 0.0, 10.001467, 9.998808 
2.5031093e+3, 2.611219e+2, -367585.1, -765526.56, -46238.527, 0.09457543, 0.071809836, -362283.1, 18739.426, 0.0, 10.001593, 9.996292 
2.502731e+3, 2.711119e+2, -45735.188, -660056.4, -49604.26, -0.035081226, 0.18076529, -41755.598, 241370.9, 0.0, 10.003615, 9.995329 
2.5023544e+3, 2.8110263e+2, 208789.69, -281018.38, 12463.181, -0.08390569, 0.36575618, 209106.61, 394329.1, 0.0, 10.003749, 9.997236 
2.5019816e+3, 2.9109576e+2, -15679.294, -132768.64, 50920.688, 0.103275135, 0.4680474, 3367.2395, 90654.05, 0.0, 10.000708, 9.999 
2.5016096e+3, 3.0108687e+2, -670943.25, -1053128.8, -59415.297, 0.3660467, 0.55853206, -661919.5, -661919.5, 0.0, 9.99853, 9.993442 
2.5012234e+3, 3.1106874e+2, -423557.9, -966244.1, -188140.27, -0.25772473, 0.2469619, -364713.44, -364713.44, 0.0, 10.0003605, 9.993099 
2.518378e+3, 1.216048e+2, -1772720.9, -1652052.9, -160083.63, -0.13000779, -0.2725679, -1541310.9, 206969.45, 0.39734322, 9.9991255, 10.001446 
2.5180012e+3, 1.3160668e+2, -1612932.3, -1561633.0, 41704.184, 0.021186301, 0.49479318, -1538322.0, 111949.04, 0.28406283, 9.999793, 10.000663 
2.517619e+3, 1.4160064e+2, -1692739.0, -1709027.9, 79360.45, -0.472787, 0.61100733, -1621106.1, -68767.35, 0.16993596, 9.999161, 9.999085 
2.5172427e+3, 1.515905e+2, -1618332.5, -1612248.8, -18034.904, -0.3182076, 0.35166857, -1597001.0, -142562.72, 0.078587286, 9.999004, 9.9991045 
2.516867e+3, 1.6158067e+2, -1597058.5, -1642853.9, -55120.24, -0.16835268, 0.18381107, -1560269.1, -203735.08, 0.024857625, 9.998824, 9.998351 
2.5164917e+3, 1.7157237e+2, -1298566.5, -1451230.3, -73385.39, -0.15825064, 0.17723933, -1269011.8, -10396.507, 0.0041356636, 10.000244, 9.99829 
2.5161156e+3, 1.8156442e+2, -970776.6, -1087519.0, -165088.05, -0.15670685, 0.2029498, -854044.25, 306647.97, 0.00018434241, 10.001168, 9.999686 
2.5157392e+3, 1.9155782e+2, -903542.6, -906433.25, -99887.15, -0.085799575, 0.16211756, -805090.3, 257663.36, 0.00000026313862, 10.000608, 10.000488 
2.5153625e+3, 2.0155075e+2, -973463.44, -1078654.6, 5312.5747, -0.05101981, 0.1738231, -973195.75, -8374.54, 0.0, 10.000223, 9.998847 
2.5149867e+3, 2.1154219e+2, -709933.4, -953104.56, 5351.7656, -0.03966282, 0.15152173, -709815.6, 157089.08, 0.0, 10.001651, 9.998318 
2.514611e+3, 2.2153325e+2, -477660.7, -872211.4, -70471.09, -0.012196064, 0.15678224, -465451.56, 303541.38, 0.0, 10.002792, 9.997708 
2.5142342e+3, 2.315239e+2, -441725.88, -810283.94, -89197.766, 0.07086006, 0.12870151, -421273.38, 249816.83, 0.0, 10.002439, 9.997594 
2.5138572e+3, 2.4151541e+2, -367752.13, -678949.3, -52329.434, 0.11442092, 0.2119056, -359188.3, 213989.28, 0.0, 10.00205, 9.99803 
2.5134802e+3, 2.515092e+2, -261921.03, -524789.7, -50126.844, 0.068742834, 0.42362404, -252686.67, 222550.16, 0.0, 10.001924, 9.998449 
2.5131035e+3, 2.6150128e+2, -237069.95, -672536.94, -18151.316, -0.011297178, 0.5507123, -236314.67, 140997.66, 0.0, 10.002296, 9.996611 
2.5127274e+3, 2.7148765e+2, 122179.0, -541139.9, 19756.36, -0.17594998, 0.26903978, 122766.9, 402212.25, 0.0, 10.004538, 9.995744 
2.512351e+3, 2.8147516e+2, 426319.22, -173853.5, -111011.8, -0.23878886, 0.10389731, 446194.5, 627762.44, 0.0, 10.005161, 9.997308 
2.5119743e+3, 2.9146793e+2, -250886.6, -345621.1, -217724.52, 0.09495902, 0.2322761, -75436.38, 8203.767, 0.0, 9.999404, 9.998208 
2.5116003e+3, 3.0146086e+2, -643737.25, -581945.44, 58091.383, 0.45082858, 0.42560357, -547044.94, -547044.94, 0.0, 9.996655, 9.997597 
2.5112265e+3, 3.1145084e+2, 980846.75, 373174.66, 370878.88, 0.21567012, 0.3478209, 1156455.8, 1156455.8, 0.0, 10.0070095, 9.99915 
2.5283688e+3, 1.21981665e+2, -2255140.3, -1836720.3, -274445.5, 0.011034734, 0.01958142, -1700837.3, 43757.293, 0.3720952, 9.995469, 10.001469 
2.5279903e+3, 1.3197924e+2, -2014472.9, -1738749.0, -194859.92, -0.17123377, 0.33552483, -1637913.9, 8708.078, 0.26429757, 9.996894, 10.000657 
2.5276113e+3, 1.4197262e+2, -1978943.1, -1891798.8, -205491.0, -0.35711595, 0.37330353, -1725311.3, -176619.84, 0.15642525, 9.997398, 9.998673 
2.527236e+3, 1.5196386e+2, -1695350.1, -1774117.9, -205831.11, -0.18863152, 0.31577715, -1525168.9, -74386.86, 0.071005836, 9.999059, 9.997964 
2.5268608e+3, 1.6195479e+2, -1407377.8, -1559034.5, -123283.016, -0.03371889, 0.2952022, -1338469.6, 14404.0625, 0.021693112, 10.000201, 9.99827 
2.5264844e+3, 1.7194618e+2, -1336983.3, -1420765.3, -47816.97, -0.185936, 0.22623298, -1315302.9, -60347.83, 0.00335279, 9.999868, 9.998668 
2.526108e+3, 1.8193795e+2, -1216631.6, -1207109.8, -86433.36, -0.23439744, 0.20752765, -1125306.4, 31726.217, 0.00011963712, 9.999456, 9.999703 
2.5257328e+3, 1.9193065e+2, -1008560.6, -961522.94, -184780.61, -0.027898181, 0.08690817, -798770.44, 260329.06, 0.00000002568285, 9.999854, 10.00049 
2.5253573e+3, 2.0192349e+2, -1007286.0, -1093858.5, -169661.28, 0.10526351, 0.06766323, -875476.2, 85690.164, 0.0, 9.999961, 9.998877 
2.5249806e+3, 2.1191604e+2, -992324.3, -1086713.1, -92377.04, -0.0384296, 0.11467288, -935784.3, -72543.35, 0.0, 9.9996605, 9.998364 
2.5246042e+3, 2.2190823e+2, -938079.06, -1085604.3, -78107.805, -0.098327465, 0.22285728, -904409.1, -139088.3, 0.0, 9.999666, 9.997724 
2.5242287e+3, 2.3189944e+2, -550039.1, -832442.3, -99555.72, 0.029555915, 0.20632698, -518471.4, 148941.78, 0.0, 10.001613, 9.997825 
2.523853e+3, 2.4189095e+2, -307690.72, -708498.6, -82482.25, 0.1110634, 0.29134887, -291380.4, 278120.72, 0.0, 10.002785, 9.99746 
2.523475e+3, 2.518844e+2, -146654.75, -545890.25, -110997.586, 0.008906333, 0.5208583, -117869.984, 353694.5, 0.0, 10.003118, 9.997712 
2.5230983e+3, 2.618765e+2, -236414.67, -693309.3, -77288.11, -0.09430043, 0.7011648, -223694.77, 149945.88, 0.0, 10.002447, 9.99638 
2.522723e+3, 2.718624e+2, -405581.66, -736447.44, -8676.763, -0.21742888, 0.30970025, -405354.25, -129579.664, 0.0, 10.000713, 9.996203 
2.522347e+3, 2.8184876e+2, -380503.84, -610806.4, -238322.5, -0.26783776, 0.005443474, -230971.47, -53065.67, 0.0, 9.999898, 9.996829 
2.5219667e+3, 2.9183996e+2, 24504.807, -292292.13, -376261.4, 0.027903752, 0.02959926, 274349.78, 354345.94, 0.0, 10.001708, 9.997446 
2.5215927e+3, 3.0183455e+2, 247606.44, 188753.33, 121378.82, 0.522145, 0.32976997, 343074.8, 343074.8, 0.0, 10.001395, 10.000588 
2.5212252e+3, 3.1182927e+2, 111972.18, 532745.2, 420548.97, 0.19459905, 0.2006464, 792596.8, 792596.8, 0.0, 9.998732, 10.004168 
2.5383562e+3, 1.22357205e+2, -2142854.8, -1860242.0, -37574.52, -0.19476147, 0.2820396, -1855331.6, -114406.84, 0.34545994, 9.996652, 10.000574 
2.537979e+3, 1.3234885e+2, -1921372.9, -1773482.0, -83201.766, -0.33158192, 0.08280594, -1736115.0, -93110.984, 0.24384509, 9.997892, 9.999903 
2.5376043e+3, 1.4234027e+2, -1898170.3, -1864476.0, -84346.07, -0.15973769, -0.008588494, -1795311.0, -250222.83, 0.14280653, 9.99807, 9.998505 
2.5372303e+3, 1.5233493e+2, -1611096.8, -1702602.0, -71571.32, -0.016428187, 0.27076396, -1571903.8, -124753.73, 0.06363834, 9.999544, 9.9981985 
2.5368553e+3, 1.6232869e+2, -1290069.0, -1363583.6, -74113.19, 0.04142758, 0.4824368, -1244098.8, 105117.125, 0.0187796, 10.000423, 9.999497 
2.5364769e+3, 1.7232017e+2, -1193282.8, -1182321.9, -38664.965, -0.25736555, 0.27600598, -1148750.9, 102539.44, 0.0026956536, 10.000083, 10.000214 
2.5360996e+3, 1.8231179e+2, -1238260.8, -1303575.9, -78747.86, -0.38648888, 0.17261371, -1185667.3, -32300.576, 0.00007576087, 9.999701, 9.998905 
2.5357264e+3, 1.9230373e+2, -1109126.5, -1226638.6, -154813.03, 0.013695583, 0.16126221, -1002294.7, 53153.207, 0.00000000011876218, 10.000086, 9.998558 
2.535352e+3, 2.0229605e+2, -918513.06, -968225.6, -158483.08, 0.2325086, 0.19607513, -782948.9, 174575.39, 0.0, 10.0002, 9.999613 
2.5349733e+3, 2.1228944e+2, -828839.0, -822803.25, -90600.87, -0.044098053, 0.18357456, -735170.0, 124417.7, 0.0, 9.999961, 10.0000305 
2.5345963e+3, 2.2228281e+2, -807086.5, -935923.5, -26527.72, -0.2270853, 0.27610657, -801838.2, -40184.914, 0.0, 10.0001545, 9.998518 
2.534223e+3, 2.3227595e+2, -474230.78, -776566.3, -20474.28, -0.060331706, 0.4434789, -472850.56, 190875.03, 0.0, 10.001992, 9.998049 
2.5338483e+3, 2.4226725e+2, -246515.48, -740970.0, -62510.723, 0.041562922, 0.5170351, -238735.08, 327079.13, 0.0, 10.003406, 9.996952 
2.5334713e+3, 2.522547e+2, -140499.25, -662927.9, -108584.945, -0.046850745, 0.25447556, -118829.12, 349106.16, 0.0, 10.003637, 9.996674 
2.5330943e+3, 2.6224357e+2, -118343.62, -583275.8, -161015.7, -0.112544835, 0.16629075, -68026.16, 302016.72, 0.0, 10.002983, 9.996884 
2.532718e+3, 2.722351e+2, -458552.4, -678665.56, -128577.56, -0.028635908, 0.2772467, -399361.72, -127235.836, 0.0, 9.999922, 9.997005 
2.5323418e+3, 2.8222564e+2, -510271.63, -629074.4, -164909.89, 0.034698673, 0.32485557, -394390.97, -220171.95, 0.0, 9.998796, 9.997221 
2.5319633e+3, 2.9221475e+2, 253919.38, -212083.2, -218213.7, 0.09555025, 0.1681962, 340146.56, 416474.47, 0.0, 10.003374, 9.997218 
2.5315884e+3, 3.0220616e+2, 562540.75, 147094.94, -99591.55, 0.38102597, 0.22768535, 585181.2, 585181.2, 0.0, 10.004336, 9.998916 
2.5312138e+3, 3.1220087e+2, -670536.44, -128360.18, -121319.66, 0.1803412, 0.3798751, -102451.28, -102451.28, 0.0, 9.994449, 10.001766 
2.5483507e+3, 1.2273547e+2, -1868393.4, -1797952.0, 253052.3, 0.10108327, 0.43032852, -1577681.1, 159537.58, 0.31815657, 9.999019, 10.000093 
2.547972e+3, 1.3272557e+2, -1652860.5, -1706587.0, 39508.348, -0.24505493, 0.13959382, -1631947.8, 7364.9023, 0.22319712, 10.000056, 9.999283 
2.5475988e+3, 1.4271586e+2, -1520683.5, -1702497.9, 67651.81, 0.01724015, -0.007189428, -1498273.1, 43133.875, 0.12934339, 10.000739, 9.998365 
2.547223e+3, 1.527102e+2, -1437312.6, -1630699.1, 78210.74, -0.068335064, 0.2618632, -1409641.5, 33829.164, 0.05657354, 10.000745, 9.998168 
2.5468475e+3, 1.6270389e+2, -1307182.0, -1379852.1, 44659.926, -0.09888064, 0.48348874, -1285943.3, 59593.496, 0.016116831, 10.000327, 9.999424 
2.5464705e+3, 1.726952e+2, -1220958.4, -1233461.0, -17916.117, -0.20452161, 0.27760822, -1208234.3, 39380.508, 0.0021455006, 10.000024, 9.999888 
2.546094e+3, 1.8268687e+2, -1248684.5, -1334037.0, -57033.33, -0.23260559, 0.20883895, -1220128.3, -70436.12, 0.000046550977, 9.999753, 9.9986725 
2.5457194e+3, 1.9267927e+2, -1129817.4, -1258623.4, -27065.79, -0.01060269, 0.258513, -1124361.1, -72591.055, 0.0, 10.000062, 9.99835 
2.5453445e+3, 2.0267162e+2, -940561.5, -1009928.06, 25775.652, 0.14667638, 0.33688843, -932032.4, 21815.432, 0.0, 10.00023, 9.999297 
2.544967e+3, 2.1266401e+2, -766204.6, -818158.9, -45117.582, -0.011928173, 0.25066406, -740120.2, 115801.23, 0.0, 10.000531, 9.999778 
2.5445905e+3, 2.2265677e+2, -744415.44, -872281.25, -33561.613, -0.1355173, 0.2929847, -736141.75, 21849.94, 0.0, 10.000477, 9.998807 
2.5442168e+3, 2.3265032e+2, -683713.3, -803825.25, 22239.016, -0.10638275, 0.42959446, -679727.94, -19671.563, 0.0, 10.000308, 9.998657 
2.5438425e+3, 2.4264203e+2, -719129.7, -965694.44, 12711.459, -0.046308767, 0.5142806, -718476.06, -156337.17, 0.0, 10.000227, 9.996918 
2.5434667e+3, 2.5262836e+2, -596369.7, -886812.9, 53641.91, -0.06963385, 0.13323058, -586779.25, -122507.586, 0.0, 10.000571, 9.996588 
2.54309e+3, 2.6261634e+2, -424101.16, -679229.6, 6520.494, -0.05856621, -0.029006673, -423934.6, -57545.883, 0.0, 10.000711, 9.997314 
2.542713e+3, 2.7261007e+2, -278678.34, -502166.38, 12435.429, 0.11681612, 0.2274298, -277988.56, -9536.162, 0.0, 10.000814, 9.997783 
2.5423363e+3, 2.826032e+2, -279695.94, -508950.25, 112580.305, 0.24495545, 0.50832736, -233656.64, -63134.89, 0.0, 10.000399, 9.997268 
2.5419593e+3, 2.9259238e+2, -126488.625, -380455.94, 158390.84, 0.12358361, 0.34679094, -50463.64, 22165.404, 0.0, 10.000782, 9.997274 
2.541583e+3, 3.0257994e+2, -76687.52, -401839.06, 29244.072, 0.16777839, 0.13916078, -74078.25, -74078.25, 0.0, 10.001061, 9.996702 
2.541202e+3, 3.125725e+2, -56759.227, 30550.27, -55369.754, 0.08890218, 0.3391029, 57404.72, 57404.72, 0.0, 9.999329, 10.000494 
2.5583407e+3, 1.2311344e+2, -1958168.6, -2078414.0, 139226.8, -0.20997858, 0.49313968, -1866637.6, -133125.58, 0.29081753, 9.999378, 9.997705 
2.5579667e+3, 1.3310392e+2, -1644695.1, -1745253.4, 76472.16, -0.11273125, 0.29742992, -1603453.9, 32150.123, 0.2027681, 10.00035, 9.998893 
2.5575933e+3, 1.4309376e+2, -1535819.3, -1698600.8, 56494.984, 0.051986214, 0.13258408, -1518133.6, 19569.076, 0.11625642, 10.000594, 9.998437 
2.5572148e+3, 1.5308693e+2, -1470191.1, -1618118.8, 77375.66, -0.27657345, 0.25190935, -1437114.6, 2659.444, 0.04988728, 10.000401, 9.998396 
2.5568384e+3, 1.6307947e+2, -1405800.3, -1526112.3, 34411.99, -0.38257626, 0.38448188, -1396653.1, -54803.113, 0.013707004, 10.00007, 9.998549 
2.556465e+3, 1.7307037e+2, -1316932.8, -1410304.4, -4138.1216, -0.07523228, 0.26435974, -1316749.6, -72811.766, 0.0016894786, 9.999921, 9.9987335 
2.5560898e+3, 1.8306237e+2, -1164793.4, -1193986.1, -34103.13, 0.04110327, 0.26905084, -1142294.3, 3721.1912, 0.000027889511, 9.999898, 9.999554 
2.5557116e+3, 1.9305655e+2, -1000402.25, -1049747.8, 3809.0823, -0.15304737, 0.37445608, -1000110.0, 47963.43, 0.0, 10.000321, 9.999653 
2.555335e+3, 2.0304929e+2, -970711.0, -1159271.4, 40838.023, -0.18411261, 0.46434605, -962246.3, -12100.18, 0.0, 10.000578, 9.998111 
2.554962e+3, 2.1303914e+2, -853678.75, -1085901.3, -21150.406, 0.06698782, 0.32463974, -851768.1, 479.97894, 0.0, 10.000859, 9.997798 
2.5545874e+3, 2.2302976e+2, -619943.1, -717179.5, -30032.281, 0.13319927, 0.23666242, -611415.25, 142924.17, 0.0, 10.000897, 9.999673 
2.55421e+3, 2.3302205e+2, -551078.56, -591240.94, 29072.559, -0.11900663, 0.12739201, -535826.06, 120583.38, 0.0, 10.000551, 10.0000105 
2.5538346e+3, 2.4301505e+2, -548306.0, -666753.06, 33542.41, -0.2182957, 0.18454991, -539466.94, 19008.701, 0.0, 10.000417, 9.998891 
2.5534603e+3, 2.5300846e+2, -486182.34, -627629.5, 96388.51, -0.045055203, 0.3418364, -437354.4, 23188.545, 0.0, 10.000382, 9.99848 
2.553085e+3, 2.6300037e+2, -322409.8, -470462.16, 87260.69, 0.07838328, 0.4008251, -282005.66, 80618.055, 0.0, 10.000664, 9.998795 
2.5527078e+3, 2.729905e+2, -104260.86, -312825.9, 112642.59, 0.16790561, 0.21818744, -55040.297, 209678.3, 0.0, 10.0015, 9.99879 
2.5523302e+3, 2.8298223e+2, 690.9251, -223307.34, 178217.3, 0.18681622, 0.25233412, 99179.83, 265979.16, 0.0, 10.001602, 9.998673 
2.5519508e+3, 2.9297557e+2, -136588.42, -259293.05, 230711.9, -0.017063227, 0.41632026, 40789.43, 109656.7, 0.0, 10.000097, 9.998468 
2.5515753e+3, 3.0296475e+2, -54101.473, -243366.94, 268477.2, 0.0818462, 0.25216663, 135932.89, 135932.89, 0.0, 10.000488, 9.998104 
2.5511953e+3, 3.1295297e+2, 572579.56, 278636.44, 238988.97, -0.15102778, -0.024748199, 706172.4, 706172.4, 0.0, 10.003743, 10.000122 
2.5683352e+3, 1.2348717e+2, -1707321.8, -1846443.3, 129509.95, -0.11108509, 0.23337007, -1629873.9, 99963.97, 0.26403108, 10.000786, 9.998737 
2.567962e+3, 1.3347872e+2, -1686964.6, -1866475.0, -1305.8422, 0.07913505, 0.22294359, -1686955.1, -55028.81, 0.18292536, 10.00044, 9.998055 
2.5675866e+3, 1.4346938e+2, -1636206.5, -1721170.1, -34231.055, 0.07892044, 0.17607123, -1624131.3, -90110.39, 0.1037245, 9.999723, 9.998715 
2.5672084e+3, 1.5346286e+2, -1659012.6, -1702370.9, -38612.188, -0.16547678, 0.278644, -1636409.9, -200322.72, 0.043632858, 9.998989, 9.998534 
2.5668314e+3, 1.6345526e+2, -1666455.3, -1634324.9, -25093.455, -0.24442783, 0.37485042, -1620594.5, -282431.63, 0.011545959, 9.998242, 9.998658 
2.566457e+3, 1.7344595e+2, -1609985.0, -1564164.9, -19746.305, -0.08350408, 0.22517148, -1556829.5, -316575.72, 0.0013158798, 9.998015, 9.998563 
2.5660816e+3, 1.8343768e+2, -1413496.9, -1343076.9, 5997.7764, -0.004491132, 0.22480163, -1342569.8, -200234.4, 0.000016496271, 9.998348, 9.999274 
2.5657043e+3, 1.9343135e+2, -1134091.1, -1161228.9, -49861.293, -0.14941001, 0.3039182, -1095985.4, -51586.883, 0.0, 9.999599, 9.999258 
2.5653285e+3, 2.0342405e+2, -1025721.4, -1191675.5, -43577.105, -0.17529999, 0.41285837, -1014974.6, -68502.82, 0.0, 10.00027, 9.998039 
2.564955e+3, 2.1341443e+2, -1002528.56, -1175596.3, 13823.538, 0.028636059, 0.32458025, -1001431.4, -152862.45, 0.0, 9.999966, 9.997614 
2.5645807e+3, 2.2340514e+2, -754745.75, -787232.8, 64322.32, 0.12825935, 0.27092195, -704647.6, 46012.703, 0.0, 10.000034, 9.999585 
2.5642037e+3, 2.3339675e+2, -581511.1, -610051.56, 16498.162, -0.111293115, 0.08627352, -573967.9, 78769.38, 0.0, 10.000384, 9.999947 
2.563828e+3, 2.4339002e+2, -525172.25, -515227.1, -65543.88, -0.20408201, 0.12217928, -454467.44, 100332.086, 0.0, 10.000033, 10.000092 
2.563453e+3, 2.5338623e+2, -639210.2, -534700.56, -33390.758, -0.01611772, 0.38100737, -524943.25, -68105.805, 0.0, 9.99866, 9.999936 
2.5630784e+3, 2.6338047e+2, -615721.75, -514375.16, 2652.1458, 0.15796702, 0.54500806, -514305.8, -155412.23, 0.0, 9.998309, 9.999583 
2.562702e+3, 2.7337003e+2, -258441.23, -307529.56, 30039.7, 0.1986697, 0.19637792, -244193.64, 16798.605, 0.0, 10.000157, 9.999441 
2.562324e+3, 2.8336102e+2, -41664.5, -190493.97, -9755.615, 0.101709075, 0.087864906, -41027.754, 122052.086, 0.0, 10.001123, 9.999116 
2.5619423e+3, 2.9335582e+2, 16416.123, -134918.89, -15544.337, -0.22445309, 0.31103846, 17996.256, 83131.4, 0.0, 10.000959, 9.998891 
2.5615686e+3, 3.033483e+2, 56038.805, -139367.6, 69966.22, 0.041067023, 0.41506425, 78507.09, 78507.09, 0.0, 10.001135, 9.998445 
2.5611964e+3, 3.1334007e+2, 274591.53, 262824.3, 86146.28, 0.28556183, 0.37162566, 355054.9, 355054.9, 0.0, 10.00133, 10.001091 
2.578331e+3, 1.2386031e+2, -1834194.4, -2041886.1, 85454.75, -0.0032998507, 0.026524408, -1803554.3, -77386.04, 0.23823552, 10.000293, 9.997542 
2.577957e+3, 1.3385192e+2, -1785607.4, -1980995.9, -26231.865, 0.19708279, 0.066061184, -1782146.9, -153883.34, 0.16394834, 10.000061, 9.997415 
2.5775796e+3, 1.4384398e+2, -1667705.6, -1702311.0, -41822.004, 0.0689456, 0.18226948, -1639748.4, -109399.37, 0.09188186, 9.999395, 9.998991 
2.5772032e+3, 1.5383805e+2, -1640445.8, -1640805.8, -36649.13, 0.07706524, 0.3153482, -1603976.1, -171568.0, 0.03784501, 9.998905, 9.998998 
2.5768256e+3, 1.6383082e+2, -1596835.4, -1529624.3, -34939.813, -0.0040646307, 0.39807528, -1514751.8, -180272.73, 0.009625426, 9.99845, 9.999256 
2.5764465e+3, 1.7382137e+2, -1499378.9, -1445295.8, -18594.092, -0.25270337, 0.18606333, -1439519.9, -202950.9, 0.0010124295, 9.998499, 9.999135 
2.5760704e+3, 1.8381235e+2, -1412701.8, -1449616.9, 38897.22, -0.29470766, 0.12247887, -1388105.0, -249447.53, 0.000009793076, 9.998825, 9.9983015 
2.5756985e+3, 1.9380394e+2, -1183165.6, -1324392.8, 20940.3, -0.021379717, 0.13123569, -1180126.1, -139382.39, 0.0, 9.999858, 9.998011 
2.5753242e+3, 2.0379639e+2, -890819.5, -972961.6, -33913.797, 0.035428565, 0.22250007, -878627.3, 64192.48, 0.0, 10.000489, 9.999444 
2.5749463e+3, 2.1378987e+2, -820189.1, -900657.7, 30057.816, -0.18732555, 0.2862774, -810201.2, 34682.227, 0.0, 10.000363, 9.999327 
2.5745705e+3, 2.237828e+2, -753566.9, -888214.8, 91494.09, -0.24349983, 0.393798, -707296.5, 39658.633, 0.0, 10.000442, 9.998687 
2.5741982e+3, 2.3377496e+2, -617017.8, -802566.44, 45237.254, -0.07527365, 0.4214381, -606576.44, 42461.09, 0.0, 10.000832, 9.99842 
2.5738236e+3, 2.4376695e+2, -396065.53, -343063.66, -121771.21, 0.01784004, 0.3706098, -244943.06, 306170.94, 0.0, 10.000405, 10.001104 
2.5734454e+3, 2.53759e+2, -530914.25, -347766.8, -93192.016, 0.032469027, 0.11011597, -308686.44, 144493.23, 0.0, 9.998759, 10.001202 
2.5730687e+3, 2.6375207e+2, -550877.6, -413042.97, 44377.984, 0.063453674, 0.05902388, -399990.78, -44750.727, 0.0, 9.998408, 10.000229 
2.5726947e+3, 2.737459e+2, -227572.42, -257759.86, 69533.55, 0.1284124, 0.110850714, -171513.25, 85787.24, 0.0, 10.00016, 9.999796 
2.572318e+3, 2.8373823e+2, -35585.777, -267185.97, -39800.133, 0.055657346, 0.14503147, -28937.057, 130441.11, 0.0, 10.001453, 9.998438 
2.571937e+3, 2.9372934e+2, 96962.57, -212812.36, -83035.97, -0.21845722, 0.104285404, 117816.67, 179289.23, 0.0, 10.001939, 9.99791 
2.571562e+3, 3.0372143e+2, 34457.66, -293216.53, -58969.324, -0.0800684, 0.26706934, 44746.883, 44746.883, 0.0, 10.00154, 9.997211 
2.571193e+3, 3.1371436e+2, 106246.2, 140941.7, -128977.48, 0.5836971, 0.49163613, 253732.86, 253732.86, 0.0, 10.000219, 10.000828 
2.5883248e+3, 1.2423134e+2, -1890303.8, -1914050.4, -88930.78, 0.090290666, -0.122876644, -1812457.1, -89923.67, 0.21373183, 9.9991455, 9.998978 
2.5879493e+3, 1.3422601e+2, -1780389.6, -1858939.9, -90617.42, 0.14272016, 0.07159755, -1720902.1, -96306.02, 0.14603193, 9.9995, 9.998546 
2.5875723e+3, 1.4421867e+2, -1677296.5, -1668996.0, -67026.29, 0.117462315, 0.16617124, -1605991.6, -79319.06, 0.080827504, 9.999203, 9.999291 
2.587195e+3, 1.5421154e+2, -1678080.5, -1648064.1, -91466.13, 0.09983777, 0.16226976, -1570383.0, -141643.28, 0.032553293, 9.998648, 9.999042 
2.5868177e+3, 1.6420376e+2, -1562288.5, -1577349.8, -50972.516, 0.037753493, 0.20623167, -1518293.4, -187476.97, 0.007938516, 9.99896, 9.9986725 
2.58644e+3, 1.741949e+2, -1295362.1, -1439121.4, -104709.34, -0.14247495, 0.10284546, -1240235.0, -7328.1226, 0.00076767127, 10.0002775, 9.998335 
2.5860643e+3, 1.8418647e+2, -1087390.4, -1261819.3, -49815.23, -0.20533007, 0.11996331, -1074166.3, 60825.168, 0.000005913737, 10.000932, 9.998564 
2.5856915e+3, 1.941784e+2, -1113426.4, -1261346.0, 12242.985, -0.06473356, 0.10832393, -1112419.9, -75348.336, 0.0, 10.0002365, 9.9982395 
2.5853163e+3, 2.0417105e+2, -1001468.5, -986111.1, -22741.137, -0.031940427, 0.19508336, -969787.25, -30642.867, 0.0, 9.999592, 9.999772 
2.584938e+3, 2.1416485e+2, -1022840.2, -959017.8, -56566.223, -0.24513817, 0.2357736, -925982.4, -84777.195, 0.0, 9.99881, 9.999672 
2.5845626e+3, 2.2415824e+2, -1124769.4, -1091850.5, 19864.02, -0.28400967, 0.37561575, -1082512.8, -339239.34, 0.0, 9.998087, 9.998408 
2.5841913e+3, 2.3415074e+2, -1164577.3, -1114598.9, 61316.45, -0.028541131, 0.46268564, -1073375.0, -428019.44, 0.0, 9.997369, 9.9979315 
2.583817e+3, 2.4414255e+2, -734296.25, -472530.34, -79521.875, 0.13331673, 0.40989044, -450266.06, 97168.0, 0.0, 9.99798, 10.001366 
2.5834382e+3, 2.5413305e+2, -373462.72, -244246.83, -126675.26, 0.09095013, -0.05486373, -166654.89, 282855.22, 0.0, 9.999766, 10.00141 
2.5830612e+3, 2.6412547e+2, -279616.7, -309534.56, -1558.6313, 0.03471508, -0.17354983, -279535.7, 72039.22, 0.0, 10.000413, 9.999981 
2.5826865e+3, 2.7412102e+2, -278880.47, -304264.13, -1527.3773, -0.003922414, 0.03949255, -278788.9, -25168.5, 0.0, 9.999962, 9.999554 
2.5823113e+3, 2.841144e+2, -244074.33, -440851.97, -113161.305, -0.0103271, 0.21303117, -192510.36, -36820.246, 0.0, 10.000388, 9.997739 
2.5819334e+3, 2.941037e+2, -37733.93, -362495.28, -114792.68, -0.09194802, 0.03308226, -1255.7499, 56547.832, 0.0, 10.0014305, 9.997111 
2.5815555e+3, 3.040944e+2, -21412.037, -394403.97, -100939.89, -0.18627176, 0.12789042, 4152.3804, 4152.3804, 0.0, 10.00152, 9.996516 
2.5811812e+3, 3.1409073e+2, 80350.836, 36507.793, -62007.273, 0.04676351, 0.76187706, 124197.51, 124197.51, 0.0, 10.000506, 9.999973 
2.598315e+3, 1.2460435e+2, -1778749.3, -1707544.6, -124855.08, -0.19193487, -0.04954874, -1613315.1, 105568.14, 0.19077104, 9.999334, 10.000417 
2.5979406e+3, 1.346006e+2, -1649449.5, -1614838.6, -51849.53, 0.02754561, 0.15634215, -1577482.9, 43442.32, 0.12932456, 9.999655, 10.000183 
2.5975648e+3, 1.4459303e+2, -1630387.3, -1617789.5, -88653.92, 0.11140995, 0.13345668, -1535211.0, -12212.729, 0.07062259, 9.999422, 9.999534 
2.5971857e+3, 1.5458374e+2, -1610868.0, -1603862.9, -85165.46, -0.037535943, -0.08601245, -1522128.0, -97046.97, 0.027766839, 9.9990635, 9.999143 
2.5968093e+3, 1.645751e+2, -1566511.8, -1696674.8, 15947.189, -0.0577746, -0.079371676, -1564586.5, -237418.31, 0.0064744665, 9.999438, 9.997623 
2.5964364e+3, 1.7456701e+2, -1313806.4, -1572406.3, -11021.726, 0.11052, 0.019127132, -1313337.5, -84076.06, 0.0005723583, 10.000663, 9.997245 
2.596061e+3, 1.8456008e+2, -962342.0, -1026462.1, -43200.293, 0.026095249, 0.16900147, -940605.1, 190729.19, 0.0000035552432, 10.001032, 10.0001335 
2.5956824e+3, 1.9455415e+2, -972555.44, -1010693.75, 18529.832, -0.3309434, 0.22260232, -965035.4, 68351.56, 0.0, 10.000389, 9.999898 
2.595306e+3, 2.0454708e+2, -989958.44, -1023167.44, -41263.254, -0.3910916, 0.26449442, -962084.1, -26628.416, 0.0, 9.999844, 9.999404 
2.5949317e+3, 2.1453881e+2, -999176.4, -1021827.44, -65402.168, -0.13960542, 0.18375252, -944126.4, -106585.74, 0.0, 9.999244, 9.999061 
2.5945568e+3, 2.2453092e+2, -991174.44, -891227.94, -3549.3813, -0.019273907, 0.16850638, -891102.06, -151481.52, 0.0, 9.998401, 9.999632 
2.594182e+3, 2.3452316e+2, -1042557.8, -915362.9, 58077.12, -0.011022749, 0.11761165, -892834.9, -251137.56, 0.0, 9.997559, 9.999217 
2.5938073e+3, 2.445159e+2, -748954.75, -568517.3, 9724.634, 0.058758218, 0.12171979, -567994.7, -24228.816, 0.0, 9.998205, 10.000614 
2.5934324e+3, 2.5450894e+2, -337208.66, -344662.34, -36054.297, 0.1820327, 0.0376786, -304689.1, 141136.45, 0.0, 10.000458, 10.000407 
2.593056e+3, 2.6450175e+2, -209501.55, -358427.72, -35812.586, 0.10658537, 0.04012395, -201337.2, 146555.39, 0.0, 10.001244, 9.999238 
2.5926784e+3, 2.7449447e+2, -264799.78, -375311.38, -55947.863, -0.14516035, 0.06796696, -241421.19, 8544.865, 0.0, 10.00035, 9.99889 
2.5923035e+3, 2.844871e+2, -217236.45, -408410.38, -114075.94, -0.13246815, 0.18855478, -163994.02, -11951.412, 0.0, 10.000474, 9.997921 
2.59193e+3, 2.9447892e+2, 15541.9375, -307939.84, -122203.734, 0.113900125, 0.25460437, 56517.273, 110646.8, 0.0, 10.001632, 9.997402 
2.5915557e+3, 3.0446935e+2, 185592.03, -142649.47, -149097.84, 0.32842433, 0.240285, 243204.88, 243204.88, 0.0, 10.002234, 9.997919 
2.5911754e+3, 3.144556e+2, 445024.72, 461304.9, 307237.34, 0.020433033, -0.26020283, 760510.0, 760510.0, 0.0, 10.001862, 10.00226 
2.608307e+3, 1.2497984e+2, -1659300.0, -1758317.4, -78321.555, -0.28936878, 0.067716725, -1616151.4, 99058.14, 0.16949522, 10.000719, 9.999336 
2.607933e+3, 1.3497558e+2, -1534727.9, -1587976.0, -85817.984, -0.07956106, 0.2542823, -1471499.0, 145756.64, 0.11391173, 10.000645, 9.99991 
2.6075566e+3, 1.449678e+2, -1447989.9, -1474992.1, -124318.99, 0.013910705, 0.18776995, -1336441.0, 182886.17, 0.061296463, 10.0004635, 10.000038 
2.6071793e+3, 1.5495771e+2, -1372273.6, -1448597.5, -117493.56, 0.023609491, -0.1690598, -1286899.9, 134512.33, 0.023481611, 10.000522, 9.999515 
2.6068032e+3, 1.6494945e+2, -1347936.9, -1589217.4, 73541.72, 0.013533585, -0.14483067, -1327288.5, -3793.0884, 0.005220199, 10.0008955, 9.997702 
2.60643e+3, 1.7494284e+2, -1242130.8, -1545935.4, 89501.625, 0.06298589, 0.10018007, -1217724.1, 7854.3843, 0.00041937284, 10.001178, 9.997211 
2.6060542e+3, 1.849363e+2, -979549.0, -974654.2, 13126.671, -0.022769485, 0.26980844, -963748.7, 163898.5, 0.0000020172258, 10.000628, 10.000698 
2.6056752e+3, 1.9492991e+2, -1161555.4, -1060719.1, -3519.2346, -0.3054753, 0.22795567, -1060596.5, -30895.895, 0.0, 9.998904, 10.000283 
2.6052988e+3, 2.0492248e+2, -1165666.3, -1167090.0, -15454.895, -0.33914334, 0.24640359, -1150906.9, -219133.44, 0.0, 9.998946, 9.998817 
2.604925e+3, 2.1491371e+2, -907673.6, -1049636.6, -37956.77, -0.06171375, 0.16083114, -898162.3, -64294.016, 0.0, 10.00026, 9.998345 
2.60455e+3, 2.2490591e+2, -560227.7, -581284.56, -6149.6455, 0.04747634, 0.1495154, -558563.25, 177383.42, 0.0, 10.000914, 10.000556 
2.6041737e+3, 2.348988e+2, -593228.1, -605860.1, 25042.213, -0.027858276, 0.052962516, -573717.7, 64293.645, 0.0, 10.000251, 10.000046 
2.603799e+3, 2.4489179e+2, -562538.44, -582534.56, 51001.266, 0.0172956, 0.088198446, -520564.5, 19512.37, 0.0, 9.999994, 9.9996395 
2.6034257e+3, 2.5488514e+2, -494965.22, -549674.75, 18084.646, 0.17988631, 0.12076376, -489527.66, -47386.992, 0.0, 9.999986, 9.999214 
2.6030502e+3, 2.6487783e+2, -399353.3, -526467.75, -28428.592, 0.12164694, 0.21526869, -393285.06, -49072.605, 0.0, 10.000311, 9.99853 
2.602672e+3, 2.7486926e+2, -347292.44, -507687.97, -22741.842, -0.15915857, 0.16630945, -344130.3, -97831.63, 0.0, 10.00022, 9.998045 
2.602297e+3, 2.848607e+2, -273595.06, -433640.3, -24934.447, -0.1203223, 0.2210204, -269800.34, -121414.67, 0.0, 10.000096, 9.997929 
2.6019254e+3, 2.9485285e+2, -272879.44, -461092.3, -29526.752, 0.22372155, 0.30603936, -268356.0, -217889.81, 0.0, 9.999755, 9.99725 
2.601554e+3, 3.0484352e+2, 1775.1823, -161925.53, -99011.36, 0.69149137, 0.29901084, 48387.78, 48387.78, 0.0, 10.00074, 9.998477 
2.6011696e+3, 3.148279e+2, 162329.13, 113751.195, 83343.195, -0.13112603, -0.4626444, 224850.55, 224850.55, 0.0, 10.000958, 10.000257 
2.6183024e+3, 1.2535629e+2, -1661415.6, -1708275.5, -39074.81, -0.19344567, 0.25030804, -1639284.6, 72241.11, 0.14988379, 10.000466, 9.999775 
2.6179254e+3, 1.3535053e+2, -1566483.0, -1693457.6, -61277.8, -0.23940818, 0.36622578, -1541734.3, 71853.38, 0.09979615, 10.0008, 9.999069 
2.6175487e+3, 1.4534247e+2, -1359376.6, -1339269.8, -100240.0, -0.14890835, 0.27532083, -1248580.3, 267078.94, 0.05285716, 10.000704, 10.000873 
2.617174e+3, 1.5533234e+2, -1292626.5, -1350834.8, -87230.52, 0.12371005, -0.15313825, -1229773.0, 187967.14, 0.019694533, 10.000811, 10.000056 
2.616798e+3, 1.6532518e+2, -1275981.8, -1453695.5, 86276.77, 0.07085999, -0.08424588, -1240987.0, 78824.61, 0.004163879, 10.000967, 9.998579 
2.6164216e+3, 1.7532046e+2, -1214238.1, -1435321.6, 111808.94, -0.2645003, 0.268769, -1167551.6, 54325.04, 0.00030229846, 10.000964, 9.998053 
2.6160458e+3, 1.8531375e+2, -988190.7, -991445.25, -44221.12, -0.2761049, 0.37926373, -945566.94, 178378.33, 0.0000010444409, 10.000603, 10.000596 
2.6156703e+3, 1.953053e+2, -1114507.1, -1074552.8, -39002.805, -0.04728824, 0.16035333, -1050708.6, -24691.848, 0.0, 9.999324, 10.0 
2.6152945e+3, 2.0529726e+2, -1137824.3, -1196786.1, 47761.99, -0.016107425, 0.15164487, -1111177.4, -183079.17, 0.0, 9.9993, 9.998443 
2.6149184e+3, 2.1528932e+2, -848144.94, -1058519.5, 32374.645, -0.12411505, 0.20197393, -843275.5, -13085.106, 0.0, 10.000798, 9.998022 
2.6145428e+3, 2.2528322e+2, -416001.03, -407033.75, -8887.233, -0.1325863, 0.3237696, -401563.2, 330689.53, 0.0, 10.001412, 10.00153 
2.6141673e+3, 2.3527865e+2, -415681.88, -426589.97, 31774.137, -0.0632997, 0.41060203, -388897.1, 245392.5, 0.0, 10.000992, 10.000947 
2.613792e+3, 2.4527104e+2, -522013.13, -642147.06, 50675.934, -0.020127337, 0.37502202, -503492.0, 32869.688, 0.0, 10.000597, 9.998945 
2.6134175e+3, 2.552609e+2, -484991.72, -634376.5, 28353.66, -0.0022818283, 0.15986976, -479791.16, -41328.473, 0.0, 10.000398, 9.99845 
2.6130432e+3, 2.652533e+2, -338125.22, -462393.47, 2209.4417, 0.083705045, 0.24710445, -338085.94, 2452.683, 0.0, 10.000538, 9.998879 
2.6126695e+3, 2.752476e+2, -241015.42, -421131.66, 19845.238, 0.22247207, 0.48060963, -238854.8, 3741.0688, 0.0, 10.0007305, 9.998415 
2.6122937e+3, 2.852376e+2, -195318.19, -339683.56, 1657.7784, 0.20742224, 0.3473542, -195299.16, -50606.266, 0.0, 10.000351, 9.998462 
2.6119164e+3, 2.952245e+2, -259072.39, -397216.78, 21025.482, 0.052291676, -0.11570412, -255943.2, -209124.31, 0.0, 9.999551, 9.997806 
2.6115438e+3, 3.0521807e+2, -111307.03, -286963.47, 53840.58, 0.36089176, 0.17586163, -96117.76, -96117.76, 0.0, 10.000207, 9.997893 
2.6111656e+3, 3.152112e+2, 268733.8, 108396.73, -294673.6, 0.04280425, 0.38131693, 493949.47, 493949.47, 0.0, 10.001852, 9.999797 
2.6282948e+3, 1.2573034e+2, -1664206.9, -1740751.6, -17961.797, -0.3288714, 0.13452365, -1660201.5, 47652.715, 0.13183959, 10.000552, 9.999492 
2.6279208e+3, 1.3572387e+2, -1516916.8, -1697916.3, -47044.445, -0.0913894, 0.20988248, -1505419.5, 104503.75, 0.08692967, 10.001275, 9.9988165 
2.6275444e+3, 1.4571635e+2, -1236130.3, -1323960.0, -84899.05, -0.022674145, 0.20221573, -1184460.8, 327531.22, 0.045284744, 10.001701, 10.0005455 
2.6271674e+3, 1.557077e+2, -1167550.9, -1327899.3, -117102.11, 0.032052033, -0.045985978, -1105806.8, 308256.72, 0.01638905, 10.001799, 9.99978 
2.6267907e+3, 1.6570072e+2, -1292649.3, -1396388.9, -7633.21, -0.056761533, 0.016486676, -1292090.6, 24042.605, 0.0032885466, 10.000596, 9.99914 
2.6264137e+3, 1.7569502e+2, -1569091.9, -1550814.1, -2393.8323, -0.29792455, 0.21123818, -1550505.8, -332303.6, 0.00021471751, 9.998278, 9.998568 
2.6260388e+3, 1.8568802e+2, -1269836.9, -1115898.6, -81202.58, -0.22092444, 0.25015628, -1080983.5, 39287.727, 0.00000047553752, 9.998662, 10.00066 
2.625665e+3, 1.9567989e+2, -951925.6, -1015046.3, -81553.195, 0.13125747, 0.050043635, -896039.0, 126301.84, 0.0, 10.0005865, 9.999784 
2.6252887e+3, 2.0567192e+2, -951905.4, -1116119.8, 13050.985, 0.10514622, 0.06342933, -950874.6, -26452.416, 0.0, 10.000594, 9.998391 
2.6249105e+3, 2.1566413e+2, -1198758.9, -1237196.4, 26505.953, -0.20652975, 0.12427417, -1185237.4, -358724.84, 0.0, 9.99845, 9.997934 
2.624535e+3, 2.2565868e+2, -896517.8, -653811.25, -24933.818, -0.21456718, 0.31764966, -651276.2, 77293.055, 0.0, 9.998237, 10.001337 
2.6241612e+3, 2.3565502e+2, -821833.94, -668294.5, -72672.055, 0.0069485046, 0.49204534, -639353.2, -8753.656, 0.0, 9.9984665, 10.000486 
2.623786e+3, 2.45647e+2, -743612.3, -820043.06, -53813.855, 0.010290809, 0.461862, -715825.06, -183147.55, 0.0, 9.999413, 9.998282 
2.6234093e+3, 2.556353e+2, -605327.3, -791368.4, -60501.14, -0.13805823, 0.13696077, -587382.94, -152587.14, 0.0, 10.000019, 9.99756 
2.6230365e+3, 2.6562774e+2, -380064.9, -444555.8, -78831.6, 0.048669375, 0.24454333, -327138.8, 9732.525, 0.0, 10.000121, 9.99918 
2.6226652e+3, 2.7562362e+2, -451398.38, -520161.88, -56544.09, 0.4758316, 0.5835895, -419603.56, -180691.72, 0.0, 9.99932, 9.998401 
2.6222885e+3, 2.8561336e+2, -259637.8, -309065.13, -76107.22, 0.36564365, 0.39272997, -204332.25, -63322.48, 0.0, 9.999707, 9.9989605 
2.6219073e+3, 2.955978e+2, -148291.88, -316795.16, -42689.336, -0.15024872, -0.39442098, -138093.95, -94936.56, 0.0, 10.000245, 9.998017 
2.621536e+3, 3.0559456e+2, -15965.0205, -262064.64, 51612.863, 0.17230743, 0.21531901, -5578.9155, -5578.9155, 0.0, 10.001011, 9.997666 
2.6211625e+3, 3.1558964e+2, 12384.548, -427220.78, -65.57727, 0.18448758, 0.63601756, 12384.558, 12384.558, 0.0, 10.001924, 9.996096 
2.6382872e+3, 1.2610416e+2, -1767649.6, -1793121.6, -6783.2607, -0.5144046, 0.021339308, -1765955.9, -61774.355, 0.11528716, 9.999836, 9.999461 
2.6379174e+3, 1.3609643e+2, -1597674.9, -1753728.1, 6666.539, 0.10454814, -0.033729106, -1597390.5, 8871.819, 0.07524967, 10.000716, 9.998701 
2.6375404e+3, 1.460898e+2, -1343129.5, -1426707.5, -51301.17, 0.110584125, 0.08266535, -1318751.1, 189575.78, 0.038529176, 10.001191, 10.000029 
2.6371598e+3, 1.5608342e+2, -1259150.3, -1410284.6, -77135.4, -0.23240279, 0.11492409, -1226734.6, 183650.22, 0.013527696, 10.001361, 9.999397 
2.6367822e+3, 1.660758e+2, -1263255.1, -1327019.6, -63122.68, -0.28674826, 0.10890001, -1224420.0, 88040.24, 0.0025719018, 10.000557, 9.999643 
2.6364067e+3, 1.760675e+2, -1469779.6, -1435754.8, -36997.0, -0.18592335, 0.0022018447, -1412046.1, -197500.23, 0.00015054179, 9.99865, 9.999182 
2.6360324e+3, 1.8606028e+2, -1216210.0, -1074181.3, 5800.868, -0.03797001, -0.019561635, -1073944.8, 42670.426, 0.0000001940375, 9.998972, 10.000792 
2.6356593e+3, 1.9605353e+2, -904190.8, -973072.6, 1450.6807, 0.13268371, -0.08674064, -904160.25, 114514.58, 0.0, 10.0008, 9.999977 
2.6352814e+3, 2.0604606e+2, -901890.75, -1021797.8, -48613.363, 0.011520173, -0.06291225, -884658.25, 36090.934, 0.0, 10.000641, 9.999005 
2.634901e+3, 2.1603824e+2, -1092930.5, -1121931.3, -9216.984, -0.32456842, -0.059463736, -1090249.0, -267416.0, 0.0, 9.998862, 9.99853 
2.6345262e+3, 2.2603156e+2, -965608.75, -857210.94, 5642.074, -0.21929348, 0.06431157, -856918.06, -132015.03, 0.0, 9.998463, 9.999846 
2.6341546e+3, 2.3602584e+2, -834273.2, -821658.2, -45422.85, 0.15837285, 0.19501947, -782107.0, -155145.92, 0.0, 9.998966, 9.999202 
2.6337796e+3, 2.4601759e+2, -718680.94, -833660.56, -28309.684, 0.14219892, 0.2168438, -712088.6, -183044.95, 0.0, 9.999663, 9.998073 
2.633403e+3, 2.560075e+2, -534172.8, -744509.6, -34286.816, -0.13312253, 0.080737256, -528724.9, -97580.1, 0.0, 10.000413, 9.997688 
2.633029e+3, 2.6599932e+2, -333592.75, -386504.34, -117793.83, -0.04577045, 0.09722443, -239320.36, 93904.125, 0.0, 10.000249, 9.999534 
2.632656e+3, 2.7599278e+2, -402313.88, -440261.25, -91492.85, 0.2960034, 0.17632638, -327848.06, -92561.26, 0.0, 9.999356, 9.998947 
2.632281e+3, 2.8598556e+2, -202571.7, -238276.73, -47509.285, 0.29694423, 0.24024515, -169671.44, -32312.697, 0.0, 9.999837, 9.99941 
2.631903e+3, 2.9597738e+2, 29111.719, -159203.89, -24761.576, 0.0340649, 0.16504836, 32313.188, 71755.1, 0.0, 10.0010805, 9.998718 
2.631532e+3, 3.0597094e+2, 168228.56, -129745.875, 32279.127, 0.30735442, 0.38728037, 171685.22, 171685.22, 0.0, 10.0020275, 9.998114 
2.6311588e+3, 3.1596154e+2, 432009.47, 430216.38, -90650.94, 0.33097187, 0.32447457, 521768.28, 521768.28, 0.0, 10.00188, 10.002034 
2.6482823e+3, 1.2647915e+2, -1810944.0, -1714806.1, 1258.1594, -0.23251848, 0.015919443, -1714789.6, -14289.286, 0.10016987, 9.999116, 10.000356 
2.6479086e+3, 1.3647117e+2, -1707327.6, -1712048.5, 20579.152, -0.04867149, -0.14367121, -1688974.0, -86394.9, 0.064692505, 9.999587, 9.999513 
2.6475322e+3, 1.4646453e+2, -1560856.3, -1563159.0, -16848.834, -0.051289044, -0.053906262, -1545119.5, -40474.023, 0.032530583, 9.999828, 9.9997 
2.6471537e+3, 1.564583e+2, -1541758.3, -1588266.1, -42558.688, -0.18580544, 0.033610787, -1516514.9, -109807.375, 0.011066901, 9.999597, 9.99901 
2.6467767e+3, 1.6645095e+2, -1339422.8, -1363168.9, -33217.363, -0.17421208, 0.06824979, -1316020.3, -7238.834, 0.0019930317, 9.999999, 9.999674 
2.6464003e+3, 1.7644288e+2, -1276300.5, -1372176.8, -40392.41, -0.059608396, -0.012562274, -1261552.0, -50689.492, 0.00010503105, 10.000098, 9.998937 
2.6460254e+3, 1.8643506e+2, -1201743.8, -1180109.6, -6275.2476, 0.020679567, -0.027537288, -1178421.3, -65481.152, 0.00000008640195, 9.999601, 9.99974 
2.645651e+3, 1.9642755e+2, -1338462.0, -1276927.8, -98342.35, 0.0857243, -0.07649994, -1204652.0, -189638.44, 0.0, 9.998267, 9.9991045 
2.6452738e+3, 2.0642099e+2, -1060337.8, -925496.1, -137271.58, -0.015755976, -0.026881864, -839982.1, 77093.99, 0.0, 9.998842, 10.000526 
2.6448944e+3, 2.1641472e+2, -909169.06, -942136.9, -46366.73, -0.2129265, -0.01695922, -876443.3, -57307.26, 0.0, 9.999741, 9.999359 
2.6445195e+3, 2.2640671e+2, -815201.7, -945036.56, 22177.225, -0.111254066, 0.013494802, -811518.1, -90300.445, 0.0, 10.000179, 9.998418 
2.6441473e+3, 2.363981e+2, -874379.0, -1004104.4, -16826.244, 0.19106403, -0.007853873, -872232.0, -248924.5, 0.0, 9.999419, 9.997739 
2.643773e+3, 2.4638991e+2, -687325.9, -769804.9, 54519.53, 0.17216206, 0.05712199, -660205.5, -134814.84, 0.0, 9.999693, 9.998485 
2.643397e+3, 2.5638166e+2, -669323.94, -800896.9, 85329.91, -0.06624232, 0.06623569, -627365.06, -199892.38, 0.0, 9.999482, 9.997749 
2.6430216e+3, 2.6637265e+2, -385825.2, -429374.16, -31640.96, -0.072508074, 0.012228564, -369190.3, -39630.824, 0.0, 10.000014, 9.999322 
2.6426467e+3, 2.763633e+2, -355550.88, -472935.72, -42132.13, 0.0979797, -0.1723979, -341994.3, -110346.46, 0.0, 9.999968, 9.998416 
2.642273e+3, 2.8635806e+2, -199897.89, -237467.98, -16566.77, 0.20950904, 0.1168622, -193636.27, -59932.18, 0.0, 9.999953, 9.999316 
2.6418984e+3, 2.963554e+2, -235313.88, -314288.22, -31592.803, 0.17097138, 0.5882215, -224230.88, -188491.38, 0.0, 9.999468, 9.998407 
2.6415256e+3, 3.063442e+2, -103348.33, -244135.27, -10730.297, 0.22541793, 0.3292395, -102535.195, -102535.195, 0.0, 10.000137, 9.998207 
2.6411524e+3, 3.1633133e+2, 276480.84, 631683.0, -100362.44, 0.20143953, -0.14395428, 658078.9, 658078.9, 0.0, 9.9996805, 10.004458 
2.6582778e+3, 1.2685457e+2, -1842965.0, -1614948.9, 12009.833, 0.056736574, 0.04629134, -1614318.0, 82497.54, 0.08642937, 9.998435, 10.001395 
2.6578984e+3, 1.368467e+2, -1710265.4, -1621701.4, 36415.625, -0.39179224, -0.20912877, -1608651.0, -9763.324, 0.05519947, 9.99918, 10.000326 
2.6575226e+3, 1.4683956e+2, -1622276.1, -1606399.4, -23873.723, -0.33694777, -0.1982269, -1589178.8, -88219.13, 0.027235242, 9.999494, 9.999556 
2.6571482e+3, 1.5683267e+2, -1576796.9, -1620654.5, -14795.556, -0.03819462, -0.15725893, -1572272.4, -169240.17, 0.0089680515, 9.999426, 9.998866 
2.6567718e+3, 1.668263e+2, -1344167.3, -1372963.0, -5188.007, 0.039196722, -0.00947549, -1343261.1, -38163.043, 0.0015322798, 10.000053, 9.999554 
2.6563945e+3, 1.7682e+2, -1254108.4, -1398892.1, -8169.7173, -0.018855222, 0.108420864, -1253648.9, -46486.184, 0.00007382683, 10.000411, 9.998597 
2.6560178e+3, 1.8681128e+2, -1284941.0, -1427950.1, -24536.336, -0.0437493, 0.12757888, -1280848.4, -171593.14, 0.000000036839044, 9.999903, 9.997904 
2.6556417e+3, 1.9680157e+2, -1341917.0, -1383304.1, -90817.69, -0.06885526, 0.045598343, -1269465.1, -258106.13, 0.0, 9.998661, 9.998188 
2.6552662e+3, 2.0679641e+2, -864737.6, -579587.5, -70466.14, -0.003425434, 0.137908, -563124.44, 350280.3, 0.0, 9.999113, 10.002758 
2.654891e+3, 2.1679324e+2, -693801.94, -648465.3, 18147.385, 0.06743112, 0.24765338, -642096.06, 173328.88, 0.0, 10.000369, 10.001073 
2.654515e+3, 2.2678412e+2, -832510.7, -1071609.0, 16771.068, 0.050429057, 0.16089244, -831340.06, -113826.53, 0.0, 10.000538, 9.997389 
2.6541388e+3, 2.3677236e+2, -796982.4, -1020744.8, 571.9876, 0.015935762, -0.067726776, -796980.94, -177347.84, 0.0, 10.000116, 9.997304 
2.6537648e+3, 2.467647e+2, -531321.8, -528167.44, 88177.19, 0.06269185, -0.011399527, -441553.3, 80156.56, 0.0, 10.000014, 10.0000105 
2.653392e+3, 2.56759e+2, -505252.5, -574248.1, 134136.27, 0.109865725, 0.122490086, -401248.9, 22517.533, 0.0, 9.99993, 9.999092 
2.6530161e+3, 2.6674977e+2, -425023.25, -575830.6, 32366.264, 0.04149664, 0.05689421, -418370.3, -92514.195, 0.0, 10.000272, 9.998197 
2.6526394e+3, 2.767388e+2, -288161.56, -536773.06, 163.34929, -0.009614056, -0.16319634, -288161.47, -60200.066, 0.0, 10.00079, 9.997593 
2.6522645e+3, 2.8673074e+2, -226690.2, -418669.03, -31458.738, 0.017910592, -0.03127416, -221666.66, -91621.8, 0.0, 10.000458, 9.997855 
2.6518887e+3, 2.967247e+2, -287408.66, -452522.34, -69307.586, -0.04697666, 0.26260868, -262173.22, -230060.95, 0.0, 9.999546, 9.997425 
2.6515165e+3, 3.0671203e+2, -264726.44, -347812.0, -43012.77, 0.059338063, -0.09407206, -246470.38, -246470.38, 0.0, 9.999093, 9.998021 
2.6511437e+3, 3.1670508e+2, 22757.62, 239071.45, -183587.03, 0.097262025, 0.076198354, 343992.25, 343992.25, 0.0, 9.999002, 10.00212 
2.668272e+3, 1.2722716e+2, -1892831.3, -1661796.0, -15048.97, 0.35291943, -0.13348052, -1660819.9, 32339.59, 0.07399912, 9.99815, 10.001163 
2.667891e+3, 1.3722108e+2, -1815885.3, -1694915.4, -69734.06, -0.28273544, -0.19877452, -1663089.6, -67872.03, 0.04671132, 9.998502, 10.000165 
2.6675147e+3, 1.4721441e+2, -1661989.9, -1532072.6, -107072.7, -0.3044442, -0.19500376, -1471794.8, 25488.682, 0.022592485, 9.998789, 10.000436 
2.6671407e+3, 1.5720765e+2, -1621800.9, -1580662.1, -61668.38, 0.0048682503, -0.22591136, -1536223.1, -136871.86, 0.0071954923, 9.998824, 9.999462 
2.666765e+3, 1.672013e+2, -1367226.9, -1393634.1, -722.9879, 0.040175118, -0.10200538, -1367207.1, -65789.95, 0.001170623, 9.999946, 9.99946 
2.666388e+3, 1.7719509e+2, -1197558.4, -1379034.3, -20852.47, -0.039488357, 0.027343292, -1195193.1, 8288.851, 0.00005271245, 10.000866, 9.998502 
2.6660103e+3, 1.8718672e+2, -1152690.1, -1318379.4, -1109.0042, -0.12034445, 0.058795765, -1152682.8, -47112.984, 0.000000014947995, 10.000633, 9.998307 
2.6656327e+3, 1.971775e+2, -1271896.1, -1347970.0, 73223.28, -0.1551231, 0.007849563, -1227419.6, -219752.64, 0.0, 9.999179, 9.998181 
2.665258e+3, 2.0717148e+2, -848155.56, -674618.8, 79169.47, -0.05437839, 0.08053725, -643928.44, 265793.72, 0.0, 9.999702, 10.001796 
2.6648846e+3, 2.1716727e+2, -804182.94, -803657.3, -69766.22, 0.114910826, 0.16840385, -734153.44, 77600.45, 0.0, 10.000125, 10.000102 
2.6645085e+3, 2.2715805e+2, -825581.8, -1060772.5, -104395.06, 0.06713221, 0.094498016, -785929.0, -72085.4, 0.0, 10.000634, 9.997372 
2.6641312e+3, 2.3714632e+2, -825794.6, -1053222.1, -57623.656, -0.06187989, -0.14214031, -812027.8, -196065.55, 0.0, 10.0000725, 9.9970875 
2.6637575e+3, 2.4713925e+2, -683389.6, -593177.25, -41888.168, 0.06341004, -0.033593398, -576727.06, -58692.36, 0.0, 9.998982, 10.000051 
2.6633856e+3, 2.5713435e+2, -962041.7, -818595.06, -95004.24, 0.27189958, 0.15285878, -771280.4, -351194.9, 0.0, 9.996944, 9.998859 
2.6630095e+3, 2.6712558e+2, -724513.8, -701739.8, -71406.59, 0.1325217, 0.111097924, -640818.0, -318648.16, 0.0, 9.998174, 9.998324 
2.6626322e+3, 2.771149e+2, -473809.5, -679346.5, 14058.368, -0.11421978, -0.10315373, -472852.38, -248580.78, 0.0, 9.999799, 9.997088 
2.6622567e+3, 2.8710496e+2, -261369.44, -561510.5, -5298.1553, -0.13330433, -0.07803461, -261275.94, -134902.63, 0.0, 10.0008, 9.996691 
2.6618803e+3, 2.9709554e+2, -277217.0, -597525.0, 4592.919, -0.20009711, -0.00040502893, -277151.16, -248678.61, 0.0, 10.000309, 9.996063 
2.6615092e+3, 3.0708265e+2, -148209.13, -302753.9, 56219.21, 0.07536239, -0.31201756, -129922.0, -129922.0, 0.0, 10.000001, 9.997863 
2.6611367e+3, 3.1707624e+2, -191657.56, -212856.02, -160613.48, 0.18551326, -0.06364149, -41293.957, -41293.957, 0.0, 9.999131, 9.998934 
2.6782656e+3, 1.2759885e+2, -1887298.4, -1698638.0, 2721.0579, 0.50992113, -0.34430212, -1698598.8, -9085.644, 0.062778875, 9.998433, 10.000736 
2.677885e+3, 1.3759486e+2, -1775347.3, -1692618.4, -25873.973, -0.089857705, -0.15791084, -1685192.6, -93635.58, 0.039145913, 9.998864, 10.00001 
2.6775077e+3, 1.47589e+2, -1531618.3, -1323967.1, -72025.15, -0.20371094, -0.14416218, -1301430.6, 192181.75, 0.01854353, 9.999088, 10.001722 
2.6771322e+3, 1.575826e+2, -1509570.5, -1417183.6, -17073.37, -0.086043134, -0.2581176, -1414129.4, -18458.13, 0.005710664, 9.9991255, 10.000434 
2.6767567e+3, 1.6757573e+2, -1352056.4, -1380742.8, 58313.39, -0.10379073, -0.22373064, -1306348.1, -8606.752, 0.0008890518, 10.000019, 9.999508 
2.676381e+3, 1.7756866e+2, -1144862.6, -1288862.0, 21034.275, -0.1985496, -0.18787406, -1141853.0, 57962.58, 0.000037964888, 10.000939, 9.999074 
2.676003e+3, 1.8756168e+2, -1005458.75, -1021665.25, -39481.777, -0.23773816, -0.16118668, -973257.25, 128625.12, 0.0000000057994387, 10.000669, 10.00033 
2.6756242e+3, 1.975547e+2, -1155292.9, -1196447.5, 64936.035, -0.26676187, -0.17144811, -1107751.8, -103804.305, 0.0, 9.999542, 9.999046 
2.6752496e+3, 2.0754577e+2, -1068510.0, -1186377.0, 123326.56, -0.21604745, -0.19622277, -990759.25, -84724.25, 0.0, 9.999926, 9.998182 
2.674876e+3, 2.1753643e+2, -861502.1, -1099952.1, -26172.46, -0.15178086, -0.26238474, -858663.25, -50535.883, 0.0, 10.000828, 9.99774 
2.674501e+3, 2.2752808e+2, -697244.7, -874899.0, -98210.23, -0.082941994, -0.22633523, -653650.1, 56562.21, 0.0, 10.000949, 9.998513 
2.6741254e+3, 2.3751983e+2, -696060.44, -932629.6, -63435.4, -0.017917499, -0.20195706, -680124.0, -67826.734, 0.0, 10.000663, 9.997642 
2.673751e+3, 2.4751224e+2, -816114.25, -904061.2, -130718.49, 0.19189297, -0.033993706, -722171.1, -207791.02, 0.0, 9.999093, 9.997878 
2.673377e+3, 2.5750518e+2, -985441.06, -902303.56, -156332.25, 0.42160052, 0.14508076, -782107.9, -365649.6, 0.0, 9.997023, 9.998267 
2.6730013e+3, 2.674984e+2, -515137.06, -277280.34, -909.6062, 0.19358236, 0.14222194, -277276.88, 41245.176, 0.0, 9.998147, 10.001289 
2.672625e+3, 2.7749145e+2, -216215.33, -279604.38, 90668.65, -0.14850536, 0.023672774, -151861.19, 68723.0, 0.0, 10.000321, 9.999589 
2.6722518e+3, 2.8748325e+2, -192763.73, -504092.6, 44459.875, -0.03065613, 0.1215585, -186539.03, -63869.06, 0.0, 10.001145, 9.996939 
2.671878e+3, 2.9747447e+2, -79300.76, -442698.22, 69864.15, 0.149, 0.26069036, -66332.01, -41567.047, 0.0, 10.00133, 9.996666 
2.6715067e+3, 3.0746377e+2, 32203.494, -147117.58, 122686.37, 0.43756673, 0.12009883, 94500.05, 94500.05, 0.0, 10.00091, 9.998518 
2.67113e+3, 3.1745398e+2, 84716.836, 100292.89, -79039.51, 0.19727148, -0.01687556, 171927.13, 171927.13, 0.0, 10.000133, 10.000634 
2.688255e+3, 1.2797326e+2, -1650746.0, -1570254.8, 34612.023, 0.1899944, -0.35656095, -1557418.4, 128428.81, 0.052671067, 9.999874, 10.001037 
2.6878798e+3, 1.3797094e+2, -1531886.8, -1532460.4, 9376.168, 0.11236832, -0.028067637, -1522793.0, 65081.453, 0.032423306, 10.000351, 10.000405 
2.6875022e+3, 1.479649e+2, -1335338.5, -1206393.8, -48919.99, -0.026018681, -0.065838814, -1189934.9, 299994.38, 0.015032757, 10.000319, 10.001935 
2.6871246e+3, 1.5795769e+2, -1414991.8, -1355702.8, -42484.867, -0.093673214, -0.28538066, -1333542.3, 58451.086, 0.0044764117, 9.999712, 10.000573 
2.6867482e+3, 1.679511e+2, -1411805.5, -1403261.5, 40401.66, -0.20948157, -0.23155566, -1366906.6, -72845.3, 0.00066900725, 9.999585, 9.99958 
2.6863727e+3, 1.7794457e+2, -1409362.0, -1426472.5, -21482.992, -0.33110932, -0.14777818, -1394793.4, -198661.77, 0.000027210404, 9.999167, 9.999006 
2.685995e+3, 1.879372e+2, -1215836.4, -1146146.0, -186386.56, -0.30030948, -0.15209697, -991375.44, 106824.4, 0.000000001728097, 9.999338, 10.000115 
2.6856172e+3, 1.9792983e+2, -1299673.8, -1323305.1, -201282.5, -0.20500398, -0.19952834, -1109860.5, -109595.57, 0.0, 9.998813, 9.998534 
2.6852423e+3, 2.0791951e+2, -1298689.6, -1417530.1, -34049.75, -0.15405306, -0.3064124, -1289625.3, -387258.88, 0.0, 9.998873, 9.997107 
2.6848692e+3, 2.1790838e+2, -1318654.9, -1427564.8, -13633.359, -0.108162, -0.44809684, -1316974.3, -512495.38, 0.0, 9.998196, 9.996764 
2.6844943e+3, 2.27901e+2, -913487.7, -934423.1, -70077.08, -0.060354292, -0.30758858, -853100.8, -146544.34, 0.0, 9.999287, 9.9988985 
2.684119e+3, 2.3789488e+2, -838505.44, -1021452.2, -98096.91, 0.025936646, -0.110745594, -795850.6, -187228.34, 0.0, 9.999812, 9.997441 
2.6837438e+3, 2.4788623e+2, -605654.5, -877828.8, -102029.48, 0.1921217, -0.009448028, -571654.25, -60939.41, 0.0, 10.000922, 9.9971285 
2.683368e+3, 2.5787723e+2, -471117.22, -727318.2, -3515.6357, 0.36505732, 0.04717217, -471069.0, -58256.938, 0.0, 10.000939, 9.997557 
2.6829928e+3, 2.6787138e+2, -210737.28, -43410.332, 64820.207, 0.15639919, 0.119329, -21237.912, 293630.94, 0.0, 9.999942, 10.001988 
2.682618e+3, 2.7786645e+2, -497559.03, -352348.38, -41458.473, -0.15111592, 0.11833647, -341345.44, -124432.82, 0.0, 9.998177, 10.000115 
2.6822463e+3, 2.8785962e+2, -379416.8, -474103.16, -74206.4, 0.07695974, 0.24293756, -338737.44, -219753.02, 0.0, 9.99936, 9.99799 
2.681875e+3, 2.9785216e+2, -192423.72, -431744.66, 25093.127, 0.41763282, 0.3968464, -189820.97, -168755.64, 0.0, 10.0003395, 9.997198 
2.681502e+3, 3.0784383e+2, 135718.63, -66356.87, 41285.355, 0.5791083, 0.44268662, 143828.06, 143828.06, 0.0, 10.001556, 9.998717 
2.681122e+3, 3.1782815e+2, 294797.1, 294938.2, -173505.95, 0.039201207, -0.33658132, 468373.6, 468373.6, 0.0, 10.001309, 10.001363 
2.6982436e+3, 1.2834854e+2, -1665749.9, -1513617.3, 65786.56, -0.2644158, -0.2930202, -1489115.4, 193059.06, 0.043612197, 9.999579, 10.0015135 
2.697875e+3, 1.3834746e+2, -1583882.5, -1507750.5, 22570.232, 0.2556048, 0.10057385, -1501562.3, 82624.82, 0.026484963, 9.999812, 10.000811 
2.697497e+3, 1.4834096e+2, -1405944.8, -1253688.8, -64114.73, 0.12181319, 0.006786582, -1230287.0, 255957.7, 0.012009427, 9.999907, 10.001788 
2.6971173e+3, 1.5833282e+2, -1432147.5, -1379830.4, -53120.4, -0.14392067, -0.2886779, -1346777.0, 41540.04, 0.003455713, 9.999668, 10.000416 
2.69674e+3, 1.6832697e+2, -1389187.0, -1382791.8, 37950.918, -0.32981518, -0.16627994, -1347904.0, -57524.65, 0.00049606664, 9.999671, 9.99968 
2.6963636e+3, 1.7832169e+2, -1390399.3, -1470842.9, -17627.232, -0.5026782, 0.04437686, -1386706.3, -194267.06, 0.00001910138, 9.999506, 9.998536 
2.695987e+3, 1.883126e+2, -1296496.4, -1373466.4, -177341.34, -0.33381128, -0.006288834, -1153512.3, -58986.113, 0.0000000002885943, 9.999578, 9.998434 
2.6956105e+3, 1.9830273e+2, -1264835.1, -1388855.0, -171246.31, -0.08526106, -0.1420777, -1144717.3, -148099.48, 0.0, 9.999366, 9.997814 
2.695237e+3, 2.0829277e+2, -1154353.8, -1204239.3, -21151.105, 0.07384732, -0.27314118, -1146593.1, -247879.48, 0.0, 9.999178, 9.998447 
2.694864e+3, 2.1828309e+2, -1151143.0, -1236628.0, 13607.385, 0.18091126, -0.38817447, -1149029.4, -348220.8, 0.0, 9.998819, 9.997774 
2.6944885e+3, 2.2827679e+2, -902480.56, -977966.7, -13525.531, 0.11183704, -0.14331156, -900130.25, -197252.72, 0.0, 9.999536, 9.998493 
2.6941127e+3, 2.3827143e+2, -689015.25, -873007.25, -43583.254, 0.0068093305, 0.16037236, -679213.56, -74274.664, 0.0, 10.00047, 9.998138 
2.693736e+3, 2.4826187e+2, -383657.8, -569046.4, -30170.188, -0.021702081, 0.030653458, -378871.5, 128159.23, 0.0, 10.001549, 9.998962 
2.6933596e+3, 2.5825122e+2, -223177.19, -572110.8, 55576.19, -0.029417252, -0.21183413, -214539.17, 194592.48, 0.0, 10.002426, 9.997913 
2.692985e+3, 2.6824355e+2, -367626.56, -553123.25, -7967.1387, -0.03753762, -0.075008385, -367285.0, -56070.816, 0.0, 10.00069, 9.998145 
2.6926103e+3, 2.7823704e+2, -589969.9, -566844.4, -113365.75, -0.03610179, 0.12291952, -464453.25, -251166.1, 0.0, 9.998212, 9.998629 
2.6922393e+3, 2.8823015e+2, -198634.08, -44931.973, -35911.91, 0.15065423, 0.091995694, -36955.26, 78396.766, 0.0, 9.999062, 10.001093 
2.691868e+3, 2.982233e+2, 31656.762, -98638.68, 74481.28, 0.33157867, 0.016085114, 65461.992, 82876.92, 0.0, 10.000847, 9.999236 
2.6914918e+3, 3.0821514e+2, 174832.94, -164826.2, 57987.94, 0.03089004, 0.07944949, 184460.0, 184460.0, 0.0, 10.002254, 9.997743 
2.6911163e+3, 3.182063e+2, 263261.72, -227819.47, -250446.08, -0.07902327, 0.14867643, 368453.8, 368453.8, 0.0, 10.003167, 9.996904 
2.7082393e+3, 1.2872852e+2, -1725343.0, -1710992.9, 100798.44, -0.020423453, 0.05401507, -1617114.4, 61338.664, 0.035544243, 9.999893, 9.999975 
2.7078673e+3, 1.3872048e+2, -1763462.3, -1733225.0, -26483.379, 0.26254168, -0.08477736, -1717848.8, -137314.86, 0.021269005, 9.999131, 9.9996195 
2.7074888e+3, 1.4871359e+2, -1556891.1, -1398236.8, -128550.766, 0.051901955, -0.14725217, -1326507.4, 156089.95, 0.0094155185, 9.999164, 10.001162 
2.707109e+3, 1.5870678e+2, -1533828.3, -1483563.0, -137879.4, -0.22408028, -0.24879874, -1368544.4, 16114.399, 0.0026134893, 9.999198, 9.999935 
2.7067322e+3, 1.6870137e+2, -1396197.4, -1373891.1, -62789.17, -0.3805096, -0.08864227, -1321272.3, -34556.086, 0.0003600524, 9.999565, 9.999775 
2.7063563e+3, 1.7869616e+2, -1399421.5, -1469047.9, -117686.49, -0.49239498, 0.11093908, -1311507.0, -122733.64, 0.000012952271, 9.999445, 9.998563 
2.7059808e+3, 1.8868677e+2, -1199575.0, -1310465.0, -177849.64, -0.2550478, 0.003052061, -1068728.1, 22134.096, 0.000000000007316074, 10.000186, 9.998565 
2.7056053e+3, 1.9867633e+2, -1122092.4, -1343871.1, -66946.695, 0.056448255, -0.18927875, -1103450.6, -110491.28, 0.0, 10.000464, 9.997605 
2.70523e+3, 2.0866722e+2, -896030.06, -1077917.8, 21030.664, 0.08449245, -0.22327502, -893630.1, 1417.0878, 0.0, 10.000964, 9.998451 
2.7048558e+3, 2.1865872e+2, -912681.5, -1149037.0, -27688.613, 0.070923515, -0.2222903, -909481.2, -112350.61, 0.0, 10.00061, 9.997512 
2.7044815e+3, 2.2865197e+2, -838422.44, -960769.8, -48128.453, 0.109293364, -0.020700885, -821759.3, -122555.45, 0.0, 10.0000925, 9.998309 
2.7041066e+3, 2.3864594e+2, -935084.94, -1007959.5, -46406.707, 0.11078596, 0.22051163, -912520.06, -311248.7, 0.0, 9.998892, 9.997969 
2.70373e+3, 2.4863614e+2, -516639.22, -543626.2, -73937.875, -0.0769644, 0.0042678947, -454973.66, 48386.91, 0.0, 10.000244, 9.999763 
2.7033526e+3, 2.586254e+2, -477660.7, -748190.3, -89846.766, -0.26145872, -0.33052167, -450540.13, -45083.473, 0.0, 10.000975, 9.99739 
2.7029777e+3, 2.6861688e+2, -481366.44, -841594.06, -99588.016, -0.1549403, -0.1384919, -455667.8, -148115.4, 0.0, 10.000975, 9.996003 
2.7026033e+3, 2.7860922e+2, -460948.63, -620735.94, -17090.463, 0.035860635, 0.14234033, -459141.13, -249497.34, 0.0, 9.999668, 9.997548 
2.702232e+3, 2.8860214e+2, -93619.09, 187801.66, 34571.504, 0.1775224, 0.01985342, 191986.4, 303691.75, 0.0, 9.999057, 10.002667 
2.7018598e+3, 2.9859525e+2, -334115.97, -205264.39, 24305.33, 0.18476093, -0.21324678, -200832.13, -187071.33, 0.0, 9.99809, 9.999831 
2.7014816e+3, 3.0858666e+2, -217464.23, -397266.38, 48152.24, -0.47789824, -0.2040625, -205380.8, -205380.8, 0.0, 9.999805, 9.997306 
2.701115e+3, 3.1858638e+2, -246464.8, -928521.6, -163845.6, 0.1576961, 0.82115597, -209147.13, -209147.13, 0.0, 10.001723, 9.992785 
2.718236e+3, 1.2910879e+2, -1906846.1, -2007396.3, 29939.045, 0.3070859, 0.42423928, -1898606.9, -223878.2, 0.028409868, 9.99958, 9.99807 
2.7178583e+3, 1.3909213e+2, -1737881.0, -1889075.5, -15030.658, 0.09859085, -0.40092853, -1736401.3, -159506.48, 0.016712526, 10.000066, 9.998078 
2.717479e+3, 1.4908525e+2, -1500528.8, -1455973.1, -78521.08, -0.14680876, -0.3562061, -1396630.6, 82330.445, 0.00719808, 9.999957, 10.000359 
2.7171e+3, 1.5908052e+2, -1493436.6, -1514477.9, -72573.02, -0.36919785, -0.16810845, -1430625.6, -49619.777, 0.0019202423, 9.9997015, 9.999474 
2.7167246e+3, 1.6907494e+2, -1347514.6, -1336200.1, -14951.42, -0.41936374, -0.012720109, -1325871.5, -42808.465, 0.00025324232, 9.999855, 9.99989 
2.71635e+3, 1.7906895e+2, -1299059.4, -1339817.1, -86078.25, -0.43623292, 0.09613224, -1230980.6, -45856.367, 0.000008369746, 9.999763, 9.999303 
2.715975e+3, 1.890601e+2, -1075446.8, -1083393.9, -135123.58, -0.1387144, -0.079030715, -944238.3, 142966.45, 0.0, 10.000318, 10.000064 
2.7156e+3, 1.9905084e+2, -1028306.2, -1229728.4, -25921.297, 0.145583, -0.2799477, -1025023.8, -35735.625, 0.0, 10.0008, 9.998228 
2.7152222e+3, 2.0904277e+2, -943927.25, -1232578.6, 47173.977, -0.14715308, -0.13749671, -936413.25, -45044.418, 0.0, 10.0012, 9.997287 
2.7148443e+3, 2.1903497e+2, -832504.56, -1142520.5, -27207.791, -0.49624532, 0.0410101, -830134.8, -36686.02, 0.0, 10.001265, 9.997249 
2.714473e+3, 2.2902595e+2, -773957.5, -901697.56, -71302.734, -0.08315665, 0.013490571, -742101.56, -46560.74, 0.0, 10.000384, 9.998601 
2.7141017e+3, 2.3901701e+2, -835532.94, -946122.94, -29822.834, 0.37966236, -0.040305026, -828003.3, -230371.77, 0.0, 9.999457, 9.998126 
2.713725e+3, 2.4900827e+2, -545075.1, -641764.44, -18369.592, 0.12957829, -0.099369444, -541702.75, -41988.473, 0.0, 10.00037, 9.999048 
2.713347e+3, 2.5899968e+2, -375411.38, -639219.56, -80000.01, -0.23360766, -0.15728578, -353047.22, 48747.773, 0.0, 10.001377, 9.99794 
2.7129716e+3, 2.689922e+2, -305404.7, -574183.8, -99502.375, -0.15660295, 0.009043384, -272578.0, 31299.979, 0.0, 10.001354, 9.997677 
2.7125973e+3, 2.78985e+2, -243132.31, -447288.97, 6693.4634, 0.03829545, 0.20436564, -242913.1, -36953.08, 0.0, 10.000839, 9.998165 
2.7122238e+3, 2.889778e+2, -216825.61, -124961.47, -8725.468, 0.145146, 0.21532245, -124140.05, -16113.666, 0.0, 9.999305, 10.000399 
2.7118498e+3, 2.9897046e+2, -428746.1, -307622.03, -18794.885, 0.10528942, 0.14147429, -304772.66, -294681.5, 0.0, 9.997626, 9.999354 
2.7114752e+3, 3.089611e+2, -221168.1, -190208.66, 98510.83, -0.34008157, -0.03502871, -105968.74, -105968.74, 0.0, 9.998838, 9.999219 
2.7111116e+3, 3.18956e+2, 49603.01, -336353.72, 126744.53, 0.34440356, 0.31142205, 87503.02, 87503.02, 0.0, 10.001762, 9.996841 
2.7282268e+3, 1.2947948e+2, -1751379.8, -1799851.6, 44428.375, 0.097341314, 0.045972105, -1725006.8, -53906.96, 0.022186834, 9.999984, 9.999351 
2.7278504e+3, 1.3946958e+2, -1279992.1, -1581606.8, 17734.82, -0.18864223, -0.20593381, -1278953.0, 294247.88, 0.012783812, 10.002788, 9.998921 
2.727473e+3, 1.4946449e+2, -1107635.5, -1246129.4, -26066.582, -0.17914172, -0.026755689, -1102891.9, 372360.44, 0.005327316, 10.002537, 10.000605 
2.7270964e+3, 1.5945992e+2, -1279074.3, -1447523.4, 36065.0, -0.10569599, 0.18823202, -1271677.6, 105620.02, 0.0013580795, 10.001338, 9.9991665 
2.7267197e+3, 1.6945082e+2, -1270055.8, -1381447.6, 65930.93, -0.25303873, 0.065317124, -1239444.5, 39940.383, 0.00016970174, 10.000802, 9.999123 
2.7263436e+3, 1.7944153e+2, -1299068.5, -1405131.1, -42965.797, -0.3772757, -0.07115994, -1283847.5, -102373.77, 0.0000049540654, 10.00009, 9.998699 
2.7259684e+3, 1.8943404e+2, -1025735.25, -1077218.0, -151682.61, -0.16068786, -0.085249506, -897625.3, 185917.55, 0.0, 10.000755, 9.999887 
2.7255934e+3, 1.9942665e+2, -1035578.1, -1262946.6, -125831.914, 0.09393638, -0.08863487, -979681.2, 5929.5835, 0.0, 10.000917, 9.997931 
2.7252162e+3, 2.0941782e+2, -908851.94, -1219498.3, -19923.945, -0.20572597, -0.031841803, -907579.25, -19881.477, 0.0, 10.00151, 9.997195 
2.7248383e+3, 2.1940891e+2, -874519.4, -1220043.5, -45804.457, -0.543681, 0.054567523, -868550.44, -78763.33, 0.0, 10.001275, 9.996705 
2.7244666e+3, 2.2939914e+2, -708054.9, -919611.0, -149287.69, -0.082474925, -0.008758319, -630869.0, 61016.625, 0.0, 10.001105, 9.998107 
2.7240956e+3, 2.3938943e+2, -820333.75, -993747.5, -118971.28, 0.48391375, -0.09921989, -759825.7, -165842.8, 0.0, 9.99989, 9.99757 
2.7237195e+3, 2.4938142e+2, -620488.3, -680461.3, -31321.47, 0.23420656, -0.083158985, -607113.25, -111053.14, 0.0, 9.999952, 9.998938 
2.7233422e+3, 2.5937405e+2, -637675.25, -774961.7, -57394.88, -0.14857094, -0.013330547, -616841.9, -218710.13, 0.0, 9.999668, 9.997836 
2.7229664e+3, 2.693667e+2, -341209.47, -482009.6, -136755.44, -0.1127509, 0.08789262, -257797.23, 42412.832, 0.0, 10.000664, 9.998634 
2.7225912e+3, 2.7935952e+2, -299844.88, -520221.7, -106534.336, 0.038417425, 0.20240161, -256765.38, -54478.063, 0.0, 10.000677, 9.997758 
2.7222162e+3, 2.8935227e+2, -192638.72, -308371.75, -97922.88, 0.1047902, 0.314453, -136762.44, -32405.582, 0.0, 10.000324, 9.998645 
2.7218404e+3, 2.9934478e+2, -317462.25, -339769.63, 2122.8503, 0.012198884, 0.3839893, -317262.03, -310835.84, 0.0, 9.998808, 9.998562 
2.721469e+3, 3.0933455e+2, -205145.02, -13184.823, 127446.625, -0.13692127, 0.021096844, 50380.75, 50380.75, 0.0, 9.998252, 10.000682 
2.7211043e+3, 3.1932315e+2, -278511.16, -44899.906, 309364.06, 0.19553666, -0.47679642, 168975.08, 168975.08, 0.0, 9.997675, 10.00077 
2.738216e+3, 1.2984875e+2, -1620415.0, -1503781.3, 168307.08, -0.35040173, -0.41202202, -1383974.1, 283511.34, 0.01685025, 9.999948, 10.00138 
2.7378428e+3, 1.398496e+2, -1439591.4, -1495860.8, 74512.375, -0.55888003, 0.20429544, -1388079.0, 181402.83, 0.009466787, 10.001004, 10.000354 
2.7374688e+3, 1.4984657e+2, -1205088.9, -1213727.8, -54486.266, -0.1599649, 0.49977478, -1154751.1, 316764.56, 0.0037924952, 10.001552, 10.00128 
2.7370948e+3, 1.5984142e+2, -1302553.0, -1482653.0, -1721.1877, 0.25386256, 0.61196494, -1302536.5, 71031.83, 0.0009170214, 10.001307, 9.998917 
2.7367157e+3, 1.6982764e+2, -1320992.6, -1534769.0, 51803.727, -0.049867485, 0.12063994, -1309100.8, -33404.754, 0.0001065257, 10.0010395, 9.997938 
2.7363366e+3, 1.7981409e+2, -1296166.1, -1522606.1, -27674.049, -0.42127156, -0.31934467, -1292833.0, -115011.73, 0.0000025959862, 10.000619, 9.99763 
2.7359608e+3, 1.8980846e+2, -1067732.9, -1240630.1, -102124.805, -0.31418005, -0.02336359, -1020380.06, 59497.813, 0.0, 10.001056, 9.998638 
2.7355856e+3, 1.9980328e+2, -973390.06, -1243870.3, -79094.664, -0.14334036, 0.30430847, -951959.0, 29971.096, 0.0, 10.00136, 9.997843 
2.7352116e+3, 2.097919e+2, -801880.3, -1057193.1, 20567.23, -0.119101055, 0.04085402, -800234.06, 83803.336, 0.0, 10.001734, 9.99821 
2.7348375e+3, 2.1978027e+2, -756809.25, -1155571.6, -28820.385, -0.13967797, -0.21539728, -754737.0, 31410.877, 0.0, 10.002008, 9.996793 
2.7344623e+3, 2.2977164e+2, -754425.2, -1105370.3, -158469.77, 0.059247896, -0.056039486, -693459.0, -5220.4614, 0.0, 10.001453, 9.996676 
2.7340874e+3, 2.3976365e+2, -703667.56, -930465.4, -128711.94, 0.28114027, 0.1387637, -645526.2, -55203.2, 0.0, 10.000616, 9.997651 
2.7337125e+3, 2.4975571e+2, -500089.78, -515263.44, -28622.846, 0.19256195, 0.094317846, -478065.34, 14332.5205, 0.0, 10.000276, 9.999933 
2.733337e+3, 2.5974786e+2, -522646.0, -645664.06, -29995.896, 0.04315849, 0.037453838, -515721.75, -121250.29, 0.0, 10.000096, 9.99851 
2.7329615e+3, 2.697389e+2, -339091.78, -533349.75, -98290.07, 0.028372275, 0.0069782888, -298036.2, -1474.3896, 0.0, 10.000866, 9.9981985 
2.7325863e+3, 2.7973014e+2, -146293.55, -415237.25, -107927.49, 0.086650506, -0.00428328, -108338.55, 90312.51, 0.0, 10.001502, 9.998105 
2.7322105e+3, 2.8972298e+2, -36058.938, -179769.0, -114894.96, 0.11508911, 0.08254704, 27599.857, 128315.45, 0.0, 10.001075, 9.999219 
2.7318338e+3, 2.997158e+2, -94805.93, -186218.1, 4074.9114, 0.03316711, 0.13501227, -94624.64, -91844.516, 0.0, 10.000086, 9.999005 
2.731462e+3, 3.097038e+2, -259919.02, -96797.31, 78846.59, 0.028506337, -0.37092352, -64916.74, -64916.74, 0.0, 9.998069, 10.000215 
2.7310944e+3, 3.1969878e+2, -560279.2, -181963.92, 201215.81, 0.26130894, -0.17197141, -94954.18, -94954.18, 0.0, 9.995633, 10.000837 
2.74821e+3, 1.3022824e+2, -1490295.5, -1376405.6, 155808.05, -0.30137268, -0.069148555, -1267462.5, 396307.47, 0.012354684, 10.000523, 10.001979 
2.747835e+3, 1.4022586e+2, -1993809.1, -1790282.0, 48764.207, -0.49077928, 0.19887413, -1779201.6, -213411.78, 0.0067443927, 9.997309, 10.000089 
2.7474627e+3, 1.5022059e+2, -1626285.1, -1543114.4, -77506.61, -0.064960726, 0.35248926, -1496741.6, -28894.646, 0.0025849887, 9.999167, 10.000155 
2.7470902e+3, 1.6021411e+2, -1358404.6, -1578943.1, -109206.414, 0.37702975, 0.42056346, -1313479.4, 56436.035, 0.0005889778, 10.001195, 9.998305 
2.7467108e+3, 1.7020202e+2, -1154924.3, -1472911.3, -48129.87, -0.034314707, 0.096087, -1147799.1, 124229.68, 0.00006228534, 10.002191, 9.997824 
2.7463308e+3, 1.801898e+2, -1063688.4, -1440070.8, -72344.984, -0.4763321, -0.19981916, -1050261.9, 123880.47, 0.0000011486238, 10.002329, 9.997376 
2.7459547e+3, 1.901833e+2, -939030.6, -1182190.6, -81623.06, -0.34471157, 0.0038217914, -914172.8, 162032.47, 0.0, 10.001972, 9.998574 
2.7455798e+3, 2.0017736e+2, -1014105.25, -1252856.6, 26293.156, -0.15077157, 0.26142243, -1011243.94, -32980.406, 0.0, 10.001078, 9.9979105 
2.745207e+3, 2.1016638e+2, -830143.3, -1008733.0, 103465.9, -0.05794922, -0.0006500716, -782767.94, 97597.78, 0.0, 10.001294, 9.998744 
2.744834e+3, 2.2015494e+2, -887176.2, -1216141.8, 44321.875, 0.034956973, -0.27216744, -881309.3, -98835.63, 0.0, 10.001158, 9.996774 
2.7444577e+3, 2.301463e+2, -564684.4, -1032910.3, -2408.4368, 0.07807509, -0.10184184, -564672.0, 119893.664, 0.0, 10.002891, 9.996453 
2.7440807e+3, 2.4013852e+2, -333800.94, -778263.06, 70035.55, 0.119281724, 0.15633753, -323026.38, 263623.25, 0.0, 10.003317, 9.99739 
2.7437058e+3, 2.5013098e+2, -405123.7, -435486.13, 83724.86, 0.16825306, 0.13671078, -335214.8, 153505.83, 0.0, 10.00081, 10.000212 
2.743331e+3, 2.6012316e+2, -841483.9, -830172.44, 87915.945, 0.17781112, 0.07976526, -747730.5, -356937.22, 0.0, 9.998096, 9.998199 
2.7429557e+3, 2.7011278e+2, -472716.22, -617698.25, 89970.336, 0.07678432, -0.075037934, -429666.72, -136772.42, 0.0, 10.000067, 9.997984 
2.7425802e+3, 2.8010255e+2, -169609.08, -472260.06, 54969.574, 0.025652591, -0.1899016, -159934.39, 35059.844, 0.0, 10.001627, 9.997627 
2.742205e+3, 2.9009533e+2, 32164.084, -136052.13, -54950.93, 0.12739524, -0.10685835, 48523.773, 145583.47, 0.0, 10.0016, 9.99922 
2.741828e+3, 3.000879e+2, -120961.37, -267395.28, -27857.258, 0.105073795, -0.057483554, -115840.914, -115840.914, 0.0, 10.000295, 9.998328 
2.7414542e+3, 3.1007445e+2, -273474.84, -190527.02, -14373.587, 0.08928991, -0.6459672, -188106.9, -188106.9, 0.0, 9.998433, 9.999354 
2.741084e+3, 3.200764e+2, -505573.34, -172027.69, 124419.11, 0.27092066, 0.30063397, -130730.125, -130730.125, 0.0, 9.996166, 10.000628 
2.7582052e+3, 1.3060933e+2, -1556516.8, -1386599.8, -40749.758, -0.19680642, 0.400697, -1377332.5, 282704.22, 0.008681728, 10.000034, 10.002123 
2.7578273e+3, 1.4059986e+2, -1841251.4, -1822576.0, -8115.9707, -0.34898454, -0.026530096, -1819541.9, -257426.27, 0.0045918897, 9.998841, 9.999118 
2.7574557e+3, 1.5059124e+2, -1654435.3, -1742738.4, 8646.664, 0.010262813, -0.05838483, -1653596.5, -189389.75, 0.0016781295, 9.999808, 9.998468 
2.7570844e+3, 1.6058305e+2, -1415643.4, -1655893.5, -35860.49, 0.31275487, -0.019326694, -1410404.9, -44110.363, 0.0003582228, 10.001022, 9.997854 
2.7567047e+3, 1.7057548e+2, -1139956.3, -1402408.0, 3477.3228, -0.14457323, 0.07849975, -1139910.3, 128459.586, 0.000033741435, 10.002022, 9.998382 
2.7563253e+3, 1.8056753e+2, -978516.8, -1294036.3, -56768.94, -0.5887347, 0.14433023, -968613.7, 201832.47, 0.00000040337267, 10.002447, 9.998312 
2.75595e+3, 1.905582e+2, -853307.25, -1041149.4, -80393.5, -0.32944524, -0.023712667, -823598.7, 248930.38, 0.0, 10.002121, 9.999468 
2.7555755e+3, 2.0054942e+2, -890790.1, -1126051.8, 35415.016, -0.0574093, -0.12336993, -885574.56, 89032.52, 0.0, 10.0016, 9.998541 
2.7552018e+3, 2.1054153e+2, -772804.3, -963264.25, 130731.52, -0.064768024, -0.098510094, -706295.3, 170385.83, 0.0, 10.001557, 9.998964 
2.7548277e+3, 2.2053328e+2, -725617.0, -1016318.44, 96416.98, -0.09046345, -0.08786359, -696545.6, 82215.016, 0.0, 10.001733, 9.997858 
2.7544525e+3, 2.3052342e+2, -399118.94, -796741.4, 100517.375, -0.053381614, -0.15787917, -375153.03, 305709.72, 0.0, 10.003337, 9.997873 
2.754077e+3, 2.4051416e+2, -143105.67, -612203.8, 69301.71, 0.0006981218, -0.15994836, -133081.66, 449877.1, 0.0, 10.00424, 9.998103 
2.7536997e+3, 2.5050765e+2, -415470.1, -531312.4, -7408.7236, 0.15145995, -0.014764416, -414998.2, 70023.41, 0.0, 10.001081, 9.999452 
2.7533227e+3, 2.605008e+2, -785446.8, -767691.44, 125952.5, 0.22861089, 0.08713576, -650304.2, -263217.7, 0.0, 9.998271, 9.998552 
2.7529478e+3, 2.704901e+2, -379592.44, -491605.78, 249720.47, -0.044518698, -0.14693065, -179675.17, 109511.62, 0.0, 10.000322, 9.998746 
2.7525732e+3, 2.8047955e+2, -82166.8, -469707.94, 150928.52, -0.21412675, -0.32190824, -30322.928, 160964.38, 0.0, 10.002385, 9.997272 
2.7522e+3, 2.9047173e+2, -34177.965, -381737.84, -37572.45, 0.16223231, -0.118796736, -30162.639, 63206.266, 0.0, 10.002087, 9.997296 
2.7518246e+3, 3.0046353e+2, -85028.81, -401299.4, -63135.324, 0.3517772, 0.04572418, -72891.266, -72891.266, 0.0, 10.001129, 9.997033 
2.751445e+3, 3.104506e+2, -226572.4, -320716.16, -93302.695, -0.030804861, -0.35026947, -169139.95, -169139.95, 0.0, 9.999303, 9.998112 
2.7510735e+3, 3.2044783e+2, -231814.7, 137235.69, 118103.625, 0.20214318, 0.18182199, 171794.98, 171794.98, 0.0, 9.997154, 10.002309 
2.7681994e+3, 1.3098076e+2, -1549498.1, -1465631.8, -76575.67, -0.103614606, 0.20017093, -1420259.6, 236129.27, 0.0058182203, 10.000391, 10.001449 
2.7678248e+3, 1.4097066e+2, -1189592.9, -1543897.6, -150396.67, -0.05701973, -0.22147824, -1134361.8, 424113.0, 0.0029685837, 10.003467, 9.998823 
2.7674496e+3, 1.5096281e+2, -1356140.4, -1590688.9, -119258.21, -0.0043179817, -0.1879743, -1306155.0, 154404.7, 0.0010278097, 10.001836, 9.998535 
2.7670753e+3, 1.6095561e+2, -1507000.5, -1624599.9, -48943.6, 0.064438686, -0.07605644, -1489296.1, -126656.88, 0.00020336722, 10.000057, 9.998558 
2.7666992e+3, 1.7095004e+2, -1203889.6, -1295234.8, 45241.383, -0.16945721, 0.10545403, -1185275.6, 79420.43, 0.000016580547, 10.000974, 9.999646 
2.7663225e+3, 1.8094383e+2, -1043579.1, -1265213.1, -6343.233, -0.3853007, 0.24649756, -1043397.75, 123358.62, 0.00000009587778, 10.001772, 9.998838 
2.7659464e+3, 1.90933e+2, -755942.44, -994397.25, -93643.77, -0.22587706, -0.08633369, -723564.0, 345288.7, 0.0, 10.002804, 9.999469 
2.7655712e+3, 2.0092271e+2, -677399.4, -1029318.3, -17783.475, -0.049754996, -0.33135116, -676503.0, 294441.03, 0.0, 10.0031185, 9.998478 
2.7651966e+3, 2.1091627e+2, -633753.56, -866656.0, 48839.95, -0.07931971, -0.19841018, -623926.4, 249078.2, 0.0, 10.002414, 9.999206 
2.764822e+3, 2.2090979e+2, -820543.3, -1027005.75, 25688.934, -0.11502968, -0.038060836, -817395.0, -42327.53, 0.0, 10.000959, 9.998162 
2.764447e+3, 2.3090053e+2, -837140.5, -919355.6, 8985.292, -0.095525175, -0.14144486, -836169.94, -159006.42, 0.0, 9.999967, 9.998648 
2.7640715e+3, 2.4089135e+2, -886450.4, -1002519.25, -72975.69, -0.027995205, -0.19338726, -851246.1, -271988.13, 0.0, 9.999343, 9.997764 
2.7636942e+3, 2.5088415e+2, -277067.25, -548825.06, -160960.03, 0.17016606, -0.08425531, -202301.42, 279027.56, 0.0, 10.002446, 9.998649 
2.7633172e+3, 2.6087686e+2, -2246.805, -423823.28, 13296.178, 0.2755072, 0.031095149, -1827.8706, 381570.84, 0.0, 10.003865, 9.998215 
2.7629414e+3, 2.70867e+2, -189526.61, -335870.94, 138729.56, -0.088524856, -0.17992401, -105854.71, 179634.08, 0.0, 10.001427, 9.999267 
2.7625665e+3, 2.8085706e+2, -612594.8, -806966.9, 39785.207, -0.32196623, -0.31744537, -604766.6, -417184.56, 0.0, 9.999143, 9.996519 
2.7621946e+3, 2.9084858e+2, -289004.3, -644268.1, -43914.473, 0.14791258, -0.09453296, -283656.5, -193980.33, 0.0, 10.000956, 9.996036 
2.76182e+3, 3.0084e+2, -80346.5, -518599.0, -15576.367, 0.4293961, 0.15817425, -79793.586, -79793.586, 0.0, 10.001747, 9.995909 
2.7614373e+3, 3.1082815e+2, -64440.113, -317967.97, -6171.794, -0.080026075, -0.05749606, -64289.957, -64289.957, 0.0, 10.000804, 9.997371 
2.7610636e+3, 3.2081893e+2, -58552.58, 342520.7, 261811.52, 0.07648827, -0.15253255, 471772.2, 471772.2, 0.0, 9.997996, 10.003245 
2.778194e+3, 1.3134955e+2, -1593181.1, -1582957.8, 63382.207, -0.06476509, -0.13528404, -1524481.4, 128283.39, 0.003685426, 10.000576, 10.000501 
2.777824e+3, 1.4134051e+2, -1332676.9, -1611522.9, -105483.86, 0.19452009, -0.39577472, -1297269.6, 257574.19, 0.001803296, 10.00251, 9.998795 
2.7774432e+3, 1.5133502e+2, -1345900.3, -1505476.5, -158655.61, -0.13093272, -0.18921211, -1248099.6, 208808.2, 0.00058549305, 10.001572, 9.999231 
2.777065e+3, 1.6132982e+2, -1349922.8, -1391872.9, -31304.951, -0.3304816, 0.032170117, -1333215.6, 25752.707, 0.00010501676, 10.000449, 9.999964 
2.7766937e+3, 1.7132513e+2, -1063997.8, -1028494.7, 103835.125, -0.16746958, 0.13268928, -940904.6, 320110.06, 0.0000068884756, 10.001061, 10.001443 
2.7763212e+3, 1.8131927e+2, -1022568.9, -1216034.6, 26750.895, -0.06706594, 0.17980734, -1018938.1, 144132.58, 0.00000000965895, 10.001757, 9.999175 
2.7759436e+3, 1.9130778e+2, -808856.7, -1095352.3, -32883.67, -0.12132571, -0.16250111, -805130.8, 260045.56, 0.0, 10.002754, 9.998809 
2.7755663e+3, 2.0129704e+2, -645080.4, -989032.0, -2349.326, -0.16903612, -0.40921366, -645064.3, 322210.88, 0.0, 10.00324, 9.998678 
2.7751917e+3, 2.1129042e+2, -598768.06, -814904.75, 43129.402, -0.13343297, -0.3138249, -590479.56, 278857.44, 0.0, 10.002521, 9.999499 
2.7748168e+3, 2.2128429e+2, -709615.4, -927949.3, -5900.142, -0.10516975, -0.14428148, -709456.06, 61940.434, 0.0, 10.001488, 9.998599 
2.7744403e+3, 2.3127784e+2, -811203.94, -888928.06, -24554.873, -0.05535124, 0.027433038, -804096.44, -130629.125, 0.0, 10.00002, 9.998867 
2.7740645e+3, 2.4127044e+2, -852758.56, -973137.0, 6324.3804, 0.018783716, 0.13860537, -852427.2, -276880.7, 0.0, 9.999501, 9.99788 
2.7736908e+3, 2.5125974e+2, -203510.16, -586770.8, -2490.471, 0.21686429, -0.036351286, -203493.98, 274158.28, 0.0, 10.003251, 9.998016 
2.7733162e+3, 2.6124987e+2, 280609.53, -268012.0, -18249.473, 0.33084822, -0.13526653, 281215.94, 660964.75, 0.0, 10.005685, 9.998418 
2.7729377e+3, 2.7124262e+2, -82557.92, -265124.22, -23310.094, 0.060338795, -0.09182114, -79628.68, 202187.25, 0.0, 10.002027, 9.999495 
2.7725604e+3, 2.812351e+2, -533888.25, -619225.1, 33712.813, -0.14543055, -0.0374818, -522177.03, -338290.2, 0.0, 9.998974, 9.99789 
2.7721867e+3, 2.912264e+2, -132994.44, -395092.6, 79838.7, -0.037020035, 0.011006846, -110589.68, -24612.469, 0.0, 10.001174, 9.997672 
2.7718118e+3, 3.012178e+2, 229213.44, -180502.9, 68627.11, 0.063961595, 0.10469904, 240402.83, 240402.83, 0.0, 10.002992, 9.997627 
2.7714357e+3, 3.1120858e+2, 185024.83, -47660.703, 61162.348, 0.2814874, 0.017799446, 200122.06, 200122.06, 0.0, 10.001822, 9.998734 
2.7710557e+3, 3.2120135e+2, -61734.215, -94597.695, 195128.83, 0.03636953, 0.17084587, 117653.5, 117653.5, 0.0, 9.999754, 9.9994 
2.788188e+3, 1.317225e+2, -1423006.0, -1519620.8, 127884.625, -0.13252658, -0.20818576, -1334609.0, 314496.34, 0.0021692961, 10.001794, 10.000343 
2.7878183e+3, 1.4171414e+2, -1568472.1, -1724813.4, -55690.457, 0.18041806, -0.37951216, -1550663.1, 516.1749, 0.0010069286, 10.000824, 9.998853 
2.7874377e+3, 1.5170857e+2, -1356247.4, -1498194.0, -122220.4, -0.1255179, -0.19326322, -1285887.6, 167357.94, 0.00030057676, 10.001367, 9.999423 
2.7870592e+3, 1.6170335e+2, -1181759.0, -1267363.5, -10669.668, -0.3060039, 0.0056344527, -1180449.3, 174857.5, 0.000046417692, 10.001429, 10.00035 
2.7866873e+3, 1.7169845e+2, -1099873.4, -1004020.6, 35633.875, -0.17184928, 0.0428219, -992225.06, 265129.6, 0.0000020738605, 10.000671, 10.00179 
2.7863148e+3, 1.816928e+2, -1290413.3, -1351810.0, -62824.71, -0.07053868, 0.08758837, -1251187.9, -91778.79, 0.00000000000031198744, 9.999955, 9.999105 
2.785938e+3, 1.9168356e+2, -1077525.8, -1218816.5, -88726.22, -0.15954189, -0.052008927, -1034755.5, 26741.283, 0.0, 10.000913, 9.998823 
2.7855614e+3, 2.016743e+2, -933426.75, -1152396.8, -52310.973, -0.21052824, -0.15242018, -921571.75, 42012.176, 0.0, 10.001409, 9.998433 
2.785187e+3, 2.1166594e+2, -737001.3, -898589.9, -60585.203, -0.10957048, -0.22499116, -716809.06, 148851.38, 0.0, 10.001686, 9.999319 
2.7848122e+3, 2.2165838e+2, -717618.3, -953961.06, -123322.43, -0.007665489, -0.18519664, -664988.94, 102742.96, 0.0, 10.001565, 9.998369 
2.7844355e+3, 2.3165232e+2, -448539.56, -698757.0, -152243.1, 0.024000764, -0.001257991, -376594.6, 293203.25, 0.0, 10.002495, 9.998949 
2.784059e+3, 2.4164563e+2, -464081.0, -797064.2, -53019.785, 0.071386695, 0.16890617, -455842.66, 116027.125, 0.0, 10.002258, 9.997763 
2.783686e+3, 2.5163507e+2, -521507.94, -724625.44, 30272.402, 0.19206306, -0.01816331, -517092.16, -43116.49, 0.0, 10.001039, 9.99813 
2.7833122e+3, 2.6162517e+2, -566543.75, -688501.8, -23563.627, 0.27991512, -0.11846415, -562149.3, -186075.17, 0.0, 9.999988, 9.998248 
2.7829334e+3, 2.716188e+2, -274016.5, -353869.28, -102069.99, 0.15793264, 0.0036875657, -204341.78, 73793.8, 0.0, 10.000755, 9.999466 
2.782555e+3, 2.8161228e+2, -264647.8, -426963.88, 22845.195, 0.010610597, 0.14176257, -261493.77, -81295.48, 0.0, 10.000629, 9.998397 
2.7821797e+3, 2.9160333e+2, -106089.945, -248663.2, 70340.65, -0.16791947, 0.047607247, -77228.734, 5056.4775, 0.0, 10.000844, 9.998807 
2.7818042e+3, 3.0159482e+2, -67391.17, -215227.56, -77581.57, -0.2293077, 0.03401782, -34151.543, -34151.543, 0.0, 10.000571, 9.998543 
2.7814323e+3, 3.1158724e+2, -77364.39, -39412.91, -170112.55, 0.5648116, -0.030178674, 112778.98, 112778.98, 0.0, 9.999531, 9.999877 
2.7810472e+3, 3.2158276e+2, -217230.17, -631051.8, 9153.236, -0.13420564, 0.4492829, -217027.81, -217027.81, 0.0, 10.000744, 9.995254 
2.7981818e+3, 1.3209696e+2, -1416360.1, -1491635.5, 78978.4, -0.29397523, -0.1971982, -1366509.6, 278923.56, 0.0011660241, 10.001769, 10.000533 
2.797811e+3, 1.4208949e+2, -1633047.5, -1757089.5, -26502.977, 0.027207544, -0.2791821, -1627622.3, -80122.75, 0.00050457666, 10.000418, 9.998812 
2.7974325e+3, 1.5208313e+2, -1392274.0, -1484605.3, -31946.59, -0.08095826, -0.18838087, -1382298.4, 67276.34, 0.0001343589, 10.001027, 9.99966 
2.7970555e+3, 1.6207695e+2, -1212393.6, -1312153.6, 33464.24, -0.14896372, -0.08367239, -1202208.1, 149437.78, 0.00001642319, 10.001352, 10.000078 
2.7966806e+3, 1.7207083e+2, -1120015.8, -1081474.6, 52928.152, -0.24777198, -0.1043725, -1044418.06, 209288.16, 0.0000003300107, 10.000824, 10.001189 
2.7963057e+3, 1.8206531e+2, -1199115.5, -1281607.0, -23559.023, -0.33883137, -0.00788237, -1192861.4, -37100.504, 0.0, 10.000433, 9.99937 
2.7959305e+3, 1.9206019e+2, -987260.0, -1115214.6, -18757.55, -0.32941476, 0.22491203, -984566.9, 73246.7, 0.0, 10.001249, 9.999393 
2.7955556e+3, 2.0205358e+2, -859340.25, -1101907.0, -24742.236, -0.26221612, 0.35768217, -856842.2, 103035.64, 0.0, 10.001854, 9.998555 
2.7951828e+3, 2.1204239e+2, -735741.6, -942248.25, -28377.174, -0.046307832, 0.044436797, -731913.2, 130065.55, 0.0, 10.001887, 9.998925 
2.7948084e+3, 2.2203174e+2, -622447.44, -914779.8, -78383.08, 0.10756507, -0.19102661, -602756.9, 161319.97, 0.0, 10.002194, 9.998334 
2.7944317e+3, 2.3202263e+2, -365073.16, -677198.2, -101334.14, 0.097790465, -0.29270244, -335060.1, 331107.7, 0.0, 10.003093, 9.998814 
2.794055e+3, 2.4201514e+2, -232703.14, -546505.06, -90601.38, 0.06939314, -0.23630126, -208423.19, 359820.9, 0.0, 10.003205, 9.999032 
2.7936783e+3, 2.5201038e+2, -405700.53, -501839.88, -30460.99, 0.018587526, 0.01923991, -396861.8, 73432.94, 0.0, 10.001043, 9.999695 
2.7933022e+3, 2.6200446e+2, -587779.6, -637538.44, 14060.534, 0.023740107, 0.1988707, -584081.3, -211725.55, 0.0, 9.999513, 9.998834 
2.792927e+3, 2.7199548e+2, -264140.7, -394618.13, -19586.79, 0.14700846, 0.09448299, -261263.81, 13181.016, 0.0, 10.000961, 9.999103 
2.7925515e+3, 2.819866e+2, -100091.625, -378421.78, 42638.176, 0.19578971, 0.03730503, -93706.26, 82825.24, 0.0, 10.001878, 9.998114 
2.7921754e+3, 2.9197752e+2, -96701.47, -302456.28, 31950.992, -0.030432202, -0.006226993, -91854.1, -13237.254, 0.0, 10.00113, 9.9983 
2.791798e+3, 3.0196813e+2, -115154.37, -252163.89, -164596.17, -0.17421965, -0.08093231, -5376.2046, -5376.2046, 0.0, 10.000221, 9.998477 
2.791423e+3, 3.1195772e+2, -117312.74, -108210.16, -300465.25, 0.3931764, -0.38764703, 187738.28, 187738.28, 0.0, 9.999374, 9.999534 
2.7910453e+3, 3.2195297e+2, 93423.16, -471283.66, 388511.7, 0.094731696, 0.10331246, 291345.5, 291345.5, 0.0, 10.002726, 9.995433 
2.8081784e+3, 1.3247266e+2, -1196525.1, -1214523.8, -25777.248, -0.17835724, -0.11947535, -1178221.4, 463536.03, 0.00056489167, 10.002475, 10.002132 
2.8078055e+3, 1.4246595e+2, -1562616.0, -1571211.6, 24176.482, 0.14858282, -0.2699119, -1542358.3, 1452.5615, 0.00022531899, 10.000231, 10.000189 
2.8074268e+3, 1.524615e+2, -1338669.0, -1319498.9, 102709.1, -0.04805871, -0.1115232, -1225928.6, 219935.6, 0.000052747473, 10.000773, 10.00093 
2.8070503e+3, 1.6245587e+2, -1291482.0, -1437938.8, 197523.06, -0.12676007, 0.013675724, -1154050.0, 193878.0, 0.0000047753, 10.001213, 9.99925 
2.806676e+3, 1.7244741e+2, -1085269.3, -1240658.5, 155387.95, -0.14549556, -0.09466022, -989234.56, 260778.86, 0.00000002399446, 10.001806, 9.999597 
2.8063014e+3, 1.8244003e+2, -963855.8, -1193023.1, 81176.6, -0.20664991, -0.06762436, -938014.94, 214071.9, 0.0, 10.002212, 9.999101 
2.805926e+3, 1.9243479e+2, -715019.1, -949794.25, 72296.95, -0.28185365, 0.13195223, -694541.94, 359595.6, 0.0, 10.002996, 9.9996805 
2.8055516e+3, 2.0242818e+2, -709252.2, -1050982.0, 42142.383, -0.25232306, 0.26518887, -704131.9, 252068.13, 0.0, 10.002975, 9.998369 
2.805178e+3, 2.1241687e+2, -748359.94, -959672.5, 35754.477, -0.01674062, -0.05634465, -742474.1, 115829.22, 0.0, 10.00184, 9.998821 
2.8048036e+3, 2.2240615e+2, -862650.4, -1064981.1, 56931.754, 0.13420627, -0.26918328, -847731.06, -87327.18, 0.0, 10.000772, 9.99798 
2.804427e+3, 2.32397e+2, -645848.44, -845653.75, 17931.055, 0.057834934, -0.33766267, -644252.06, 18244.723, 0.0, 10.001351, 9.998505 
2.80405e+3, 2.423892e+2, -515673.78, -679795.6, -64989.7, 0.0073856567, -0.2759864, -493055.88, 71520.83, 0.0, 10.001325, 9.999005 
2.803672e+3, 2.5238493e+2, -438408.72, -468315.3, -148095.98, -0.012690783, -0.01456645, -304513.03, 162109.45, 0.0, 10.000694, 10.000052 
2.8032947e+3, 2.6237994e+2, -547981.25, -637833.25, -81590.65, -0.018653331, 0.23544009, -499765.53, -131090.63, 0.0, 9.999926, 9.998621 
2.8029206e+3, 2.7237073e+2, -252733.55, -404975.38, -55646.3, 0.099050805, 0.09198534, -234562.86, 36204.824, 0.0, 10.001138, 9.998938 
2.8025466e+3, 2.8236136e+2, -204514.23, -488067.56, -23999.902, 0.20407227, 0.014744619, -202497.23, -29637.613, 0.0, 10.001462, 9.997563 
2.8021708e+3, 2.9235205e+2, -210428.08, -386987.66, -22214.336, 0.122033395, -0.034662634, -207676.02, -132730.63, 0.0, 10.000536, 9.998002 
2.8017926e+3, 3.023418e+2, -165112.42, -355289.4, -176535.78, -0.039921094, -0.1459899, -59684.816, -59684.816, 0.0, 10.00031, 9.99769 
2.8014135e+3, 3.123287e+2, 340922.94, 34934.754, -296211.34, 0.13021609, -0.65475464, 521318.03, 521318.03, 0.0, 10.002949, 9.998743 
2.8010434e+3, 3.223234e+2, 11317.142, -391661.13, 737614.9, 0.24819924, -0.21276934, 574467.5, 574467.5, 0.0, 10.001853, 9.996324 
2.818175e+3, 1.3284898e+2, -1269208.4, -1041736.5, -119798.28, -0.06754641, -0.018911911, -990283.2, 647794.1, 0.0002480307, 10.00113, 10.003948 
2.8178e+3, 1.4284301e+2, -1497920.8, -1335111.0, -5031.894, 0.27101365, -0.28452116, -1334955.6, 205161.2, 0.00009111463, 9.999832, 10.001987 
2.81742e+3, 1.5284169e+2, -1291030.3, -1101371.1, 96672.695, -0.082231805, 0.009232055, -1060781.9, 381352.88, 0.000018145423, 10.000282, 10.002659 
2.817044e+3, 1.6283731e+2, -1410462.6, -1611700.6, 175226.48, -0.21785232, 0.19370203, -1309021.0, 35162.586, 0.000001252134, 10.000895, 9.998219 
2.816673e+3, 1.7282626e+2, -1235733.4, -1524519.0, 181677.7, 0.017780704, 0.0105224755, -1148057.1, 98240.04, 0.0000000065346386, 10.001684, 9.997716 
2.8163e+3, 1.8281607e+2, -968158.25, -1206124.6, 104235.25, 0.086882964, -0.11667586, -928958.06, 219438.97, 0.0, 10.002258, 9.998964 
2.8159237e+3, 1.9280756e+2, -710306.5, -931025.44, 119636.04, -0.1502773, -0.24863142, -657902.4, 392567.47, 0.0, 10.002958, 9.999826 
2.815548e+3, 2.027992e+2, -652646.44, -974517.25, 15338.334, -0.25293067, -0.3116789, -651917.1, 300626.2, 0.0, 10.003137, 9.998813 
2.815172e+3, 2.1279004e+2, -694911.75, -901635.1, 16752.998, -0.072529465, -0.4394826, -693562.9, 161066.1, 0.0, 10.002032, 9.999139 
2.8147963e+3, 2.2278218e+2, -788975.4, -1033283.44, 76226.89, 0.003391906, -0.3791013, -767142.75, -10435.703, 0.0, 10.001274, 9.997956 
2.8144196e+3, 2.3277687e+2, -606381.56, -873376.25, 75769.86, -0.16391803, -0.01815573, -586377.7, 72393.734, 0.0, 10.0017805, 9.998124 
2.814043e+3, 2.427693e+2, -514487.03, -812785.5, -57601.81, -0.16498683, 0.13829038, -503750.47, 57104.13, 0.0, 10.001869, 9.997829 
2.813668e+3, 2.527572e+2, -498502.88, -694381.06, -163172.98, 0.1933314, -0.20366462, -406133.03, 56842.277, 0.0, 10.001093, 9.998321 
2.8132918e+3, 2.627478e+2, -402682.6, -551590.1, -62459.082, 0.3113321, -0.29432973, -379953.56, -14884.39, 0.0, 10.000789, 9.998822 
2.812914e+3, 2.72743e+2, -132543.6, -306796.5, -23217.258, -0.058565907, -0.021642935, -129503.2, 137615.52, 0.0, 10.001709, 9.999384 
2.812538e+3, 2.8273684e+2, -54081.61, -311828.84, -39350.01, -0.12502615, 0.15949093, -48207.934, 120970.914, 0.0, 10.001973, 9.998553 
2.812167e+3, 2.9272747e+2, -86227.05, -243648.3, -41984.11, 0.3698156, 0.03883327, -75729.89, -4465.156, 0.0, 10.000959, 9.998819 
2.8117913e+3, 3.0271736e+2, -27708.172, -337238.84, -33383.977, 0.4191324, -0.08747675, -24148.527, -24148.527, 0.0, 10.001429, 9.997272 
2.8114092e+3, 3.1270534e+2, 695118.56, 80237.09, -105826.45, -0.13282175, -0.37250423, 712822.44, 712822.44, 0.0, 10.005861, 9.99767 
2.8110364e+3, 3.2269883e+2, 134353.23, -124593.67, 197914.56, 0.0004804822, -0.05241513, 241382.52, 241382.52, 0.0, 10.001682, 9.998264 
2.8281662e+3, 1.3322374e+2, -1536116.8, -1287195.4, -107873.414, -0.26010394, -0.22749537, -1246952.9, 387446.8, 0.000104967556, 9.999825, 10.002872 
2.8277916e+3, 1.4322032e+2, -1584937.9, -1472812.6, -78838.48, 0.16319966, -0.10978156, -1432135.8, 104286.53, 0.000034652854, 9.999651, 10.001115 
2.8274137e+3, 1.532164e+2, -1483662.3, -1288246.6, -104326.64, -0.0127682295, -0.004482027, -1243017.9, 195447.31, 0.000005523166, 9.99939, 10.00179 
2.8270385e+3, 1.632109e+2, -1596580.4, -1673483.3, -22673.873, -0.070559554, 0.0930686, -1590393.0, -249870.53, 0.0000002527922, 9.999538, 9.998444 
2.826667e+3, 1.7320126e+2, -1350876.3, -1519969.5, 71500.78, 0.027717838, -0.020312876, -1324695.8, -82077.89, 0.0, 10.000692, 9.99823 
2.8262946e+3, 1.8319146e+2, -1113098.3, -1292885.5, 60107.59, 0.058112845, -0.13937747, -1094854.1, 49857.2, 0.0, 10.001323, 9.998834 
2.82592e+3, 1.931814e+2, -992679.0, -1102268.1, 39160.105, -0.04964021, -0.4182511, -980124.0, 66675.08, 0.0, 10.001157, 9.999526 
2.8255445e+3, 2.0317246e+2, -927128.25, -1110395.9, -79781.47, -0.10735226, -0.528036, -897263.75, 51615.008, 0.0, 10.001316, 9.9987335 
2.8251678e+3, 2.1316501e+2, -603505.25, -849461.7, -113075.305, -0.06478369, -0.51652133, -559421.56, 291528.66, 0.0, 10.00267, 9.99917 
2.8247905e+3, 2.231585e+2, -591981.6, -972299.8, -62647.176, -0.08505949, -0.31867698, -581928.0, 171089.88, 0.0, 10.002833, 9.997598 
2.8244135e+3, 2.3315342e+2, -718175.75, -948844.75, -55036.824, -0.24043706, 0.061805952, -705717.06, -50634.926, 0.0, 10.001175, 9.997864 
2.824037e+3, 2.431457e+2, -773167.3, -1042962.0, -126419.13, -0.19913273, 0.2535685, -723188.8, -166020.2, 0.0, 10.000618, 9.996841 
2.8236637e+3, 2.531315e+2, -383510.75, -755430.3, -158157.14, 0.2960563, -0.21230312, -325350.25, 133959.75, 0.0, 10.002433, 9.997249 
2.8232878e+3, 2.6312068e+2, -149024.47, -427984.3, -22133.762, 0.44851217, -0.37725392, -147279.2, 214138.02, 0.0, 10.0026045, 9.998767 
2.8229076e+3, 2.7311677e+2, -268883.56, -324082.47, 8612.329, -0.13751398, -0.06548617, -267571.06, -4116.539, 0.0, 10.000628, 9.999754 
2.822531e+3, 2.8311157e+2, -342671.13, -397944.94, -11201.8955, -0.2994469, 0.18334153, -340487.22, -174984.38, 0.0, 9.999849, 9.998953 
2.8221628e+3, 2.931023e+2, 92549.055, -76522.94, -29993.723, 0.48896262, -0.013228779, 97712.33, 165299.75, 0.0, 10.001898, 9.999493 
2.8217885e+3, 3.0309275e+2, 90493.12, -355750.06, 54886.37, 0.6328141, -0.083597735, 97144.8, 97144.8, 0.0, 10.002617, 9.996566 
2.821405e+3, 3.1308255e+2, 71162.29, -304790.22, 47166.72, -0.3241412, -0.12894422, 76989.48, 76989.48, 0.0, 10.001977, 9.996886 
2.821029e+3, 3.2307422e+2, 51421.83, 72451.84, -276266.06, -0.18480363, -0.03004887, 338402.94, 338402.94, 0.0, 10.000219, 10.00028 
2.8381562e+3, 1.3359879e+2, -1703036.9, -1593153.8, -99777.81, -0.56893003, -0.42978153, -1534191.0, 96525.164, 0.00004788907, 9.999659, 10.000852 
2.8377822e+3, 1.4359744e+2, -1626208.8, -1697106.0, -36106.336, -0.054337885, 0.09569539, -1611058.3, -78327.97, 0.000014416294, 10.000281, 9.999254 
2.8374073e+3, 1.5358868e+2, -1464716.4, -1495137.9, -51426.78, 0.067939915, -0.09120177, -1426298.0, 8523.561, 0.000001952137, 10.000477, 9.999833 
2.8370333e+3, 1.6358097e+2, -1358738.3, -1426121.5, 49291.934, 0.10187322, -0.14193912, -1332723.8, 4174.4736, 0.00000005936716, 10.000596, 9.999625 
2.8366596e+3, 1.7357427e+2, -1192675.3, -1258377.3, 143554.92, -0.12460813, -0.12641247, -1078260.5, 160696.95, 0.0, 10.000954, 9.999908 
2.8362867e+3, 1.8356636e+2, -1095350.1, -1272865.6, 62979.71, -0.19892949, -0.15852645, -1075276.0, 65753.51, 0.0, 10.001358, 9.998972 
2.835915e+3, 1.9355601e+2, -1004403.4, -1153634.0, 58893.156, 0.012390471, -0.42613223, -983961.6, 59165.176, 0.0, 10.001245, 9.999147 
2.8355414e+3, 2.0354755e+2, -881367.3, -1076156.4, -26795.955, 0.10076312, -0.469929, -877748.44, 67459.35, 0.0, 10.001576, 9.998845 
2.8351638e+3, 2.1354164e+2, -562331.44, -842642.8, -30684.988, -0.054735977, -0.28245446, -559011.75, 288255.7, 0.0, 10.002984, 9.999084 
2.8347862e+3, 2.2353446e+2, -514370.1, -917500.1, -100263.82, -0.15047424, -0.14645194, -490810.03, 258532.2, 0.0, 10.003266, 9.997776 
2.8344086e+3, 2.3352505e+2, -680756.5, -940571.7, -108168.21, -0.15123112, -0.18364301, -641618.7, 9825.743, 0.0, 10.001431, 9.997823 
2.8340322e+3, 2.4351713e+2, -664435.56, -922562.2, -61173.027, -0.07498364, -0.037050195, -650672.1, -97140.85, 0.0, 10.001035, 9.997476 
2.8336585e+3, 2.5351056e+2, -232854.6, -646196.1, -44234.293, 0.1765645, 0.23431647, -228173.81, 227428.67, 0.0, 10.003244, 9.997635 
2.8332824e+3, 2.6350257e+2, 41304.78, -258741.44, -51120.695, 0.27258697, 0.29871702, 49775.39, 407456.5, 0.0, 10.003545, 9.999476 
2.832903e+3, 2.734927e+2, -233782.63, -281109.0, -65626.92, 0.037525892, -0.0001254775, -187683.06, 72084.26, 0.0, 10.000733, 10.000009 
2.8325263e+3, 2.8348368e+2, -284992.0, -302181.63, 101897.68, -0.035921883, -0.17825657, -191327.3, -29480.752, 0.0, 9.999915, 9.99959 
2.8321555e+3, 2.9347494e+2, 269752.88, 30729.61, 110909.234, 0.200643, -0.3303461, 313286.9, 377210.34, 0.0, 10.002972, 9.99973 
2.8317812e+3, 3.0346662e+2, 280880.56, -238509.06, 17507.45, 0.23138618, -0.30274236, 281470.03, 281470.03, 0.0, 10.003747, 9.996845 
2.831403e+3, 3.1345874e+2, -149437.16, -432120.5, -29416.137, 0.09208756, -0.10201831, -146408.55, -146408.55, 0.0, 10.000467, 9.99677 
2.8310245e+3, 3.2344833e+2, 165219.03, 111409.22, -114835.08, 0.0068842648, -0.19691335, 256258.89, 256258.89, 0.0, 10.000971, 10.00023 
2.8481537e+3, 1.3397956e+2, -1655690.9, -1720741.4, 38269.813, -0.15063815, -0.25758827, -1637991.9, -11015.22, 0.000025215255, 10.000531, 9.999612 
2.847776e+3, 1.4397189e+2, -1364397.5, -1721050.5, 124105.49, -0.15002927, -0.21754509, -1325462.6, 203591.61, 0.000007550391, 10.002723, 9.997918 
2.8474027e+3, 1.5396376e+2, -939848.8, -1424258.3, 105289.42, 0.035830624, -0.17223296, -917953.2, 513188.5, 0.0000012508747, 10.004845, 9.998226 
2.84703e+3, 1.6395572e+2, -750205.06, -1151869.8, 111929.484, 0.13638677, -0.14364873, -721120.4, 612102.7, 0.000000073245815, 10.004888, 9.999421 
2.8466552e+3, 1.7394786e+2, -1048951.8, -1195365.8, 96186.57, -0.036925085, -0.2361636, -1001282.3, 234012.86, 0.0, 10.001978, 9.999837 
2.8462815e+3, 1.839405e+2, -1220020.4, -1284934.0, 44931.016, -0.11854953, -0.2306879, -1197049.4, -59686.047, 0.0, 10.000336, 9.999375 
2.8459093e+3, 1.9393288e+2, -1051571.3, -1141968.4, 70718.766, 0.019974485, -0.27478117, -1012840.94, 26595.502, 0.0, 10.000791, 9.999448 
2.8455353e+3, 2.0392543e+2, -979576.56, -1125229.3, 39796.473, 0.07395155, -0.22429313, -969412.3, -27902.38, 0.0, 10.000954, 9.99879 
2.8451586e+3, 2.1391839e+2, -919911.06, -1035798.4, 26583.02, -0.071762666, -0.14899425, -914104.25, -70521.59, 0.0, 10.000673, 9.998851 
2.8447816e+3, 2.239103e+2, -828364.3, -1046016.6, -44314.984, -0.12670702, -0.08939605, -819687.5, -74021.86, 0.0, 10.001028, 9.997978 
2.8444046e+3, 2.3389992e+2, -524286.53, -838114.06, -36108.453, -0.027225144, -0.26300222, -520185.56, 127586.37, 0.0, 10.002411, 9.998063 
2.8440282e+3, 2.4389191e+2, -387538.47, -763950.8, 79534.57, 0.012456315, -0.13527018, -371423.06, 178432.67, 0.0, 10.002854, 9.997685 
2.843653e+3, 2.5388744e+2, -364326.16, -682565.9, 77782.97, 0.021189755, 0.30947304, -346332.16, 105573.234, 0.0, 10.002281, 9.997826 
2.8432766e+3, 2.638802e+2, -217857.67, -444006.75, -58651.344, 0.073994674, 0.470441, -203551.55, 150425.14, 0.0, 10.002091, 9.99888 
2.8428987e+3, 2.7386737e+2, -65945.125, -278301.53, -173427.84, 0.18286537, -0.075817704, 31226.193, 287317.72, 0.0, 10.002287, 9.999253 
2.8425223e+3, 2.838567e+2, -40659.285, -196250.47, 55790.91, 0.17328756, -0.3752699, -22722.02, 135463.83, 0.0, 10.001687, 9.999445 
2.8421488e+3, 2.9384875e+2, -78814.67, -146614.23, 62867.063, -0.014466042, -0.48060456, -41289.93, 18964.69, 0.0, 10.000649, 9.999621 
2.841774e+3, 3.0384138e+2, -188887.05, -446559.5, -159160.75, -0.0681051, -0.3607284, -112952.875, -112952.875, 0.0, 10.00053, 9.996935 
2.8414002e+3, 3.1383446e+2, -64343.79, -377013.06, -185643.7, 0.43404028, -0.10961662, 22023.25, 22023.25, 0.0, 10.001078, 9.996822 
2.8410187e+3, 3.2382262e+2, 224162.98, 109257.445, 43526.027, -0.014575994, -0.38147566, 238788.89, 238788.89, 0.0, 10.001629, 9.999832 
2.8581518e+3, 1.3436082e+2, -1565185.6, -1756679.3, 29439.383, 0.27088907, -0.07205333, -1560762.0, 62470.668, 0.000013079658, 10.001501, 9.998903 
2.857771e+3, 1.4434578e+2, -1380601.0, -1860157.9, 152746.98, -0.26332414, -0.66896594, -1336081.5, 189299.19, 0.0000037431412, 10.003182, 9.996735 
2.8573996e+3, 1.543405e+2, -1164497.0, -1692387.5, 195050.22, -0.09808891, -0.21454914, -1100247.6, 327194.38, 0.00000051506584, 10.003991, 9.9967985 
2.8570274e+3, 1.6433279e+2, -939521.7, -1328165.8, 36168.22, 0.08303214, -0.041343328, -936184.44, 393339.06, 0.00000002542409, 10.003947, 9.998664 
2.8566527e+3, 1.7432196e+2, -1130813.1, -1337718.4, 28731.395, 0.15296167, -0.33864406, -1126897.5, 104733.125, 0.0, 10.001863, 9.998913 
2.8562772e+3, 1.843148e+2, -1097736.4, -1121006.1, 76965.17, 0.09112909, -0.30130196, -1031531.6, 102168.82, 0.0, 10.000729, 10.000299 
2.855902e+3, 1.9431175e+2, -956782.0, -989179.94, 125262.02, -0.102822065, 0.028029807, -846675.9, 189052.98, 0.0, 10.000966, 10.000415 
2.8555268e+3, 2.0430547e+2, -952484.7, -1114211.5, 43997.14, -0.18374278, 0.14468801, -941290.25, -3498.874, 0.0, 10.001105, 9.9988 
2.8551516e+3, 2.1429488e+2, -894715.6, -1042088.9, 43851.87, -0.14759351, -0.1125502, -882654.3, -42754.78, 0.0, 10.000871, 9.998727 
2.8547767e+3, 2.2428626e+2, -691056.25, -867622.5, 24556.658, -0.061255764, -0.14647856, -687704.5, 54280.676, 0.0, 10.001468, 9.99899 
2.8544015e+3, 2.3427944e+2, -359750.63, -652637.1, 59745.063, 0.08170157, -0.044113427, -348032.25, 296017.53, 0.0, 10.003026, 9.999055 
2.8540248e+3, 2.4427055e+2, -266983.38, -675309.4, 84622.36, 0.049181215, -0.06935272, -250140.77, 295992.6, 0.0, 10.003506, 9.997991 
2.853646e+3, 2.5425932e+2, -298007.2, -630124.75, 86485.71, -0.19575389, -0.29818204, -276835.38, 171402.7, 0.0, 10.002586, 9.998055 
2.8532693e+3, 2.6424938e+2, -321497.38, -727496.0, -10619.727, -0.1618299, -0.322377, -321219.78, 29116.47, 0.0, 10.002339, 9.996833 
2.8528947e+3, 2.742401e+2, -77476.67, -543525.44, -132587.55, 0.19096956, -0.25389352, -42396.93, 210037.42, 0.0, 10.003274, 9.996978 
2.8525195e+3, 2.8423202e+2, 85056.96, -193140.06, -23753.783, 0.33709887, -0.15238468, 87070.6, 241585.88, 0.0, 10.0027275, 9.998994 
2.8521442e+3, 2.942256e+2, -162741.11, -231349.98, -49033.06, 0.19047306, -0.04275995, -137203.8, -80629.39, 0.0, 10.00022, 9.999266 
2.851768e+3, 3.0421805e+2, -202631.08, -342430.8, -112592.29, 0.057842854, 0.030106192, -140005.42, -140005.42, 0.0, 9.999899, 9.997983 
2.8513935e+3, 3.142088e+2, 254841.48, -94734.89, -103850.02, 0.26582906, -0.048120864, 283365.22, 283365.22, 0.0, 10.002673, 9.998018 
2.851016e+3, 3.242004e+2, 393626.88, 124729.805, -88962.9, 0.13232265, -0.016392386, 420394.97, 420394.97, 0.0, 10.002924, 9.999388 
2.868145e+3, 1.3473418e+2, -1142658.4, -1561535.3, -8016.643, -0.04279679, -0.16499981, -1142505.0, 477074.16, 0.0000059629547, 10.004421, 9.998842 
2.86777e+3, 1.4472212e+2, -986623.06, -1518418.6, -46266.824, -0.10832345, -0.5395867, -982627.8, 539067.06, 0.0000015122073, 10.0052395, 9.998093 
2.867396e+3, 1.5471657e+2, -1425025.4, -1680637.5, 82537.625, -0.04048524, -0.2575036, -1400690.5, 23063.373, 0.0000000966577, 10.001594, 9.99804 
2.8670222e+3, 1.6470948e+2, -1466083.0, -1597664.6, 78277.2, 0.082041994, -0.08335826, -1429620.5, -103791.38, 0.00000000026919006, 10.000391, 9.998545 
2.8666472e+3, 1.7470026e+2, -1170164.1, -1406421.0, 84702.266, 0.15561108, -0.1860938, -1142935.1, 84990.3, 0.0, 10.001767, 9.998513 
2.866272e+3, 1.8469277e+2, -918945.6, -1056033.5, 127374.625, 0.08412322, -0.14455473, -842843.25, 287156.9, 0.0, 10.002106, 10.000051 
2.865896e+3, 1.9468753e+2, -952458.06, -1018157.94, 89168.8, -0.11731657, -0.012023506, -890280.7, 141767.19, 0.0, 10.0012, 10.000067 
2.8655207e+3, 2.0468074e+2, -1048462.2, -1142595.3, -9877.589, -0.1894349, 0.06384692, -1047436.9, -113322.39, 0.0, 10.000386, 9.998948 
2.8651455e+3, 2.1467106e+2, -1078417.8, -1112492.0, 10453.34, -0.0871787, -0.13504949, -1075466.5, -239253.3, 0.0, 9.999546, 9.9988785 
2.8647715e+3, 2.2466294e+2, -888959.06, -930656.06, 80208.164, 0.028437449, -0.14230314, -826934.1, -88641.46, 0.0, 10.000009, 9.999227 
2.864398e+3, 2.3465666e+2, -545871.8, -719596.9, 54095.395, 0.17029704, -0.03390918, -530404.44, 109944.76, 0.0, 10.001715, 9.999182 
2.8640214e+3, 2.4464731e+2, -407317.7, -755627.0, -12312.774, 0.08258746, -0.110546954, -406882.97, 135551.06, 0.0, 10.002677, 9.997792 
2.863641e+3, 2.5463352e+2, -325148.16, -689026.4, -45874.547, -0.2532283, -0.6066374, -319453.8, 125106.05, 0.0, 10.002644, 9.997604 
2.8632638e+3, 2.6462263e+2, -423867.72, -908770.5, -70606.914, -0.26570165, -0.6484161, -413795.8, -67127.586, 0.0, 10.002263, 9.995601 
2.8628898e+3, 2.7461496e+2, -440726.75, -880879.9, -59895.625, 0.12117616, -0.3110947, -432721.78, -183963.17, 0.0, 10.001517, 9.995499 
2.862515e+3, 2.8460807e+2, -163585.39, -342640.28, 54486.676, 0.34241927, 0.009681013, -148308.44, 2525.8162, 0.0, 10.001219, 9.998672 
2.8621393e+3, 2.9460177e+2, -100728.97, -262295.9, 23579.162, 0.32597998, 0.16891652, -97358.14, -44462.652, 0.0, 10.000962, 9.998686 
2.8617623e+3, 3.0459377e+2, -21212.72, -161134.81, 64513.04, 0.15380277, 0.20840862, 3991.7734, 3991.7734, 0.0, 10.000809, 9.9987545 
2.8613868e+3, 3.1458363e+2, 3680.5034, -146916.11, 62701.53, 0.05130045, -0.06133056, 26368.506, 26368.506, 0.0, 10.00071, 9.998585 
2.8610128e+3, 3.245779e+2, 94311.58, -11927.406, -64184.445, 0.2761938, 0.20783183, 124506.69, 124506.69, 0.0, 10.000923, 9.999385 
2.878138e+3, 1.3510633e+2, -1463847.4, -1665558.8, 154799.73, -0.50052726, -0.21358427, -1379947.0, 235994.89, 0.0000021473002, 10.001999, 9.999297 
2.87777e+3, 1.4509936e+2, -1115064.6, -1299675.0, -145709.78, 0.08512819, -0.21769916, -1034883.3, 483120.66, 0.00000043033984, 10.003144, 10.000603 
2.877391e+3, 1.5509234e+2, -1303822.3, -1352849.1, -36325.813, 0.01537529, -0.32301673, -1284512.5, 135558.13, 0.000000019645139, 10.001259, 10.000456 
2.8770155e+3, 1.6508633e+2, -1402961.9, -1552609.9, 111079.58, 0.042550173, -0.1678747, -1343855.6, -21721.816, 0.0, 10.000764, 9.99867 
2.8766406e+3, 1.750812e+2, -1167351.4, -1406673.5, 152172.5, -0.01704786, 0.14186421, -1093427.1, 130767.32, 0.0, 10.001788, 9.998499 
2.876266e+3, 1.8507242e+2, -979930.6, -1195291.9, 98588.86, -0.07028421, 0.100701824, -941615.1, 184666.52, 0.0, 10.002114, 9.999108 
2.875891e+3, 1.9506025e+2, -1015088.8, -1177397.3, 87957.82, -0.08624198, -0.3418, -976566.0, 51827.773, 0.0, 10.001281, 9.998958 
2.8755158e+3, 2.0505221e+2, -950032.6, -986620.75, -23573.33, -0.046612784, -0.37860247, -938487.5, -8017.3843, 0.0, 10.000611, 9.999895 
2.8751397e+3, 2.1504736e+2, -970424.44, -964856.75, 14287.547, 0.017320843, -0.16641708, -953084.4, -120564.25, 0.0, 9.999856, 9.999744 
2.8747654e+3, 2.250401e+2, -847266.75, -940753.56, 164337.31, 0.08959381, -0.11756248, -723154.4, 11436.305, 0.0, 10.000402, 9.998969 
2.8743932e+3, 2.350307e+2, -496411.38, -732526.6, 140094.78, 0.1649728, -0.2706885, -431263.78, 205415.47, 0.0, 10.002167, 9.99889 
2.874018e+3, 2.4502173e+2, -373306.2, -794500.0, 535.2261, 0.12906788, -0.270059, -373305.5, 165460.1, 0.0, 10.003095, 9.997355 
2.8736395e+3, 2.5501236e+2, -261516.55, -713253.1, -31314.822, -0.047523525, -0.25017202, -259356.11, 181501.16, 0.0, 10.0032425, 9.997188 
2.8732604e+3, 2.6500303e+2, -235922.3, -644024.06, -90175.03, -0.16980518, -0.19727764, -216885.08, 126065.766, 0.0, 10.002755, 9.997194 
2.872881e+3, 2.749939e+2, -291425.6, -632364.4, -47809.08, -0.2033004, -0.13945343, -284848.3, -39802.86, 0.0, 10.001728, 9.997114 
2.8725055e+3, 2.8498462e+2, -124776.04, -301300.44, 153684.3, -0.033941288, -0.15116253, -35812.168, 111324.03, 0.0, 10.001364, 9.998891 
2.8721333e+3, 2.949749e+2, 65496.773, -175737.64, 137669.94, 0.25215384, -0.31679854, 127913.77, 177139.33, 0.0, 10.002023, 9.998783 
2.8717574e+3, 3.049667e+2, 154054.05, -66955.766, 130543.805, 0.20302503, -0.30385548, 214584.3, 214584.3, 0.0, 10.001904, 9.998896 
2.8713807e+3, 3.1496003e+2, 76267.78, -91833.016, 103147.65, 0.043525875, -0.20223778, 125273.414, 125273.414, 0.0, 10.001035, 9.998838 
2.8710043e+3, 3.2495072e+2, 146712.53, 80533.91, 35166.523, 0.04977657, -0.32719237, 161909.73, 161909.73, 0.0, 10.000896, 10.000052 
2.8881317e+3, 1.3548145e+2, -1880892.5, -1512473.1, 196653.34, -0.37464082, -0.08588928, -1427228.3, 185044.05, 0.0000003382392, 9.997552, 10.002491 
2.8877628e+3, 1.4547463e+2, -1731358.8, -1593248.3, -53725.605, 0.038653534, -0.21932226, -1574810.3, -60483.695, 0.000000039050374, 9.998853, 10.00066 
2.887385e+3, 1.5546817e+2, -1228278.0, -1324475.5, -68054.88, -0.060945254, -0.27040216, -1193040.4, 223350.78, 0.0000000006124831, 10.001782, 10.000417 
2.8870097e+3, 1.654621e+2, -1056604.4, -1303492.1, 28534.945, -0.023679692, -0.16413566, -1053349.3, 265103.88, 0.0, 10.002803, 9.99937 
2.8866357e+3, 1.7545648e+2, -1079155.6, -1299573.0, 82745.98, -0.020779595, 0.007455809, -1051549.8, 168963.16, 0.0, 10.002115, 9.999066 
2.8862604e+3, 1.8544835e+2, -1049508.9, -1215740.4, 64348.652, -0.0845725, -0.0103010945, -1027510.5, 95082.164, 0.0, 10.00163, 9.9992 
2.885885e+3, 1.954373e+2, -1046499.75, -1193053.6, 99594.914, -0.11168498, -0.35402325, -996129.4, 28566.672, 0.0, 10.001098, 9.998947 
2.8855097e+3, 2.0542915e+2, -901321.7, -1017625.7, 24767.623, -0.04451052, -0.36917785, -896266.94, 30508.29, 0.0, 10.001232, 9.999388 
2.8851342e+3, 2.1542372e+2, -727760.0, -914539.9, -34472.434, 0.0916882, -0.17348261, -721600.8, 107230.375, 0.0, 10.001864, 9.999124 
2.8847602e+3, 2.2541629e+2, -675266.6, -843100.75, 111481.9, 0.13891445, -0.119332835, -619647.75, 111255.89, 0.0, 10.001576, 9.999068 
2.8843877e+3, 2.354067e+2, -774673.6, -883718.7, 112053.74, 0.14751403, -0.31333306, -704581.75, -71586.81, 0.0, 10.000402, 9.998697 
2.884013e+3, 2.4539822e+2, -701023.9, -943054.3, 35594.707, 0.11803844, -0.25251842, -695897.6, -160819.0, 0.0, 10.000833, 9.997422 
2.883636e+3, 2.5539067e+2, -477624.97, -826951.2, 48653.28, 0.052848045, -0.06610897, -470975.25, -33818.83, 0.0, 10.001864, 9.997057 
2.8832564e+3, 2.6538214e+2, -209244.22, -551977.7, -62614.16, -0.1362856, 0.04997807, -198163.45, 141078.34, 0.0, 10.002675, 9.997843 
2.8828743e+3, 2.753723e+2, -107943.27, -479607.88, -102855.54, -0.3910346, -0.049667608, -81377.586, 159960.84, 0.0, 10.002785, 9.99764 
2.882498e+3, 2.853616e+2, -54415.0, -265609.28, 56378.86, -0.26424173, -0.23552091, -40306.953, 103130.7, 0.0, 10.001878, 9.998872 
2.8821272e+3, 2.953497e+2, -309919.84, -391936.25, 55041.004, 0.19538608, -0.63587373, -282290.0, -236745.27, 0.0, 9.999642, 9.998438 
2.881752e+3, 3.0534196e+2, -270957.25, -247658.6, 38531.19, 0.21954508, -0.5766517, -219054.22, -219054.22, 0.0, 9.998984, 9.999037 
2.8813744e+3, 3.1533793e+2, -261556.83, -281300.53, 45645.418, 0.045589834, -0.22594036, -224727.95, -224727.95, 0.0, 9.9989195, 9.998546 
2.8809956e+3, 3.25325e+2, -145959.95, -10636.831, 59626.793, -0.20689517, -0.7721652, 11887.202, 11887.202, 0.0, 9.998885, 10.0002985 
2.8981254e+3, 1.3585727e+2, -1456439.4, -942060.5, 180384.11, -0.16966939, 0.028131306, -885108.5, 723484.5, 0.0000000028010363, 9.998909, 10.005751 
2.8977528e+3, 1.4584926e+2, -1703772.5, -1675596.6, 54212.742, -0.15327634, -0.32213885, -1633671.3, -123017.125, 0.0, 9.9994755, 9.999779 
2.8973782e+3, 1.558441e+2, -1326251.5, -1457251.9, 55990.855, -0.23639311, -0.15221849, -1305581.8, 107131.05, 0.0, 10.001473, 9.999653 
2.8970048e+3, 1.6583705e+2, -1053620.1, -1174151.6, 18992.385, -0.12649922, -0.17480595, -1050698.3, 264083.22, 0.0, 10.002265, 10.000516 
2.8966317e+3, 1.7582859e+2, -1047763.94, -1158798.4, 80600.3, 0.008608675, -0.38634866, -1005411.0, 211447.53, 0.0, 10.001785, 10.000191 
2.8962556e+3, 1.8582262e+2, -984494.7, -1085665.8, 50774.945, -0.078147486, -0.28766203, -963407.44, 155508.34, 0.0, 10.001617, 10.000105 
2.8958777e+3, 1.9581802e+2, -967024.3, -1073228.9, 88860.19, -0.28020775, -0.059107527, -916608.5, 104353.59, 0.0, 10.001246, 9.999713 
2.895503e+3, 2.058098e+2, -971046.94, -1227484.8, 49995.773, -0.17547706, -0.035814628, -961644.44, -38598.043, 0.0, 10.00146, 9.997856 
2.8951293e+3, 2.1579914e+2, -771184.44, -1080807.0, 15953.9795, 0.09267862, -0.19937174, -770364.56, 54791.8, 0.0, 10.002133, 9.997871 
2.8947553e+3, 2.2579129e+2, -588403.56, -736645.25, 75014.72, 0.14793152, -0.16414824, -557067.75, 170166.63, 0.0, 10.00186, 9.999671 
2.8943804e+3, 2.3578508e+2, -674322.5, -760537.75, 90476.87, 0.036668304, -0.06315835, -617208.75, 12084.449, 0.0, 10.0007, 9.999418 
2.8940055e+3, 2.4577688e+2, -590770.7, -761529.0, 100990.32, -0.033822995, -0.07570921, -543905.2, -12533.439, 0.0, 10.000983, 9.998605 
2.89363e+3, 2.5576723e+2, -330713.3, -624683.1, 122458.914, -0.10452458, -0.20430484, -286385.0, 147080.1, 0.0, 10.002242, 9.998273 
2.893252e+3, 2.6575813e+2, -198126.23, -653452.25, -5212.4067, -0.15027994, -0.15063468, -198066.58, 137489.84, 0.0, 10.003183, 9.996912 
2.8928727e+3, 2.75749e+2, 17422.479, -504120.44, -62074.766, -0.20229328, -0.056162883, 24708.906, 262359.03, 0.0, 10.003968, 9.996903 
2.892495e+3, 2.8573993e+2, 38544.707, -224062.1, -52128.543, -0.07830484, -0.051451333, 48513.977, 188252.13, 0.0, 10.002463, 9.998891 
2.8921196e+3, 2.957306e+2, -332534.88, -376669.4, -41967.688, 0.18948175, -0.18483843, -307186.4, -265361.72, 0.0, 9.999318, 9.998703 
2.8917423e+3, 3.0572382e+2, -319886.97, -190605.73, 80653.43, 0.15742837, -0.081713, -151885.89, -151885.89, 0.0, 9.9983, 9.999781 
2.8913662e+3, 3.157189e+2, -212833.36, -194337.19, 70216.914, 0.06286324, 0.14928105, -132761.95, -132761.95, 0.0, 9.998934, 9.999193 
2.8909916e+3, 3.257098e+2, -150881.83, -108412.914, 1814.6013, 0.2295328, 0.052711025, -108335.52, -108335.52, 0.0, 9.999149, 9.999617 
2.908122e+3, 1.3623331e+2, -1053639.1, -1105622.9, 185120.02, -0.0035245533, -0.08066265, -892695.25, 712207.44, 0.00000000011876347, 10.003198, 10.00259 
2.9077467e+3, 1.4622568e+2, -1383517.9, -1584218.9, 42196.234, -0.18777709, -0.21641883, -1375007.3, 131961.48, 0.0, 10.001974, 9.999208 
2.907374e+3, 1.5621957e+2, -1442059.5, -1552714.9, 46018.742, -0.10831292, -0.08679081, -1425422.8, -16386.451, 0.0, 10.000869, 9.999284 
2.9070005e+3, 1.6621245e+2, -1247165.0, -1149681.3, 5282.876, 0.013439473, -0.16184185, -1149395.8, 161706.67, 0.0, 10.0004425, 10.001561 
2.9066265e+3, 1.7620434e+2, -1256230.8, -1165711.9, 62836.805, 0.10019165, -0.45077085, -1133531.8, 79639.43, 0.0, 9.999972, 10.00102 
2.9062498e+3, 1.8619871e+2, -1158978.4, -1169730.4, 47716.406, -0.05529006, -0.35147223, -1116336.1, -1111.4617, 0.0, 10.000447, 10.0000725 
2.905872e+3, 1.9619483e+2, -970927.75, -1091719.1, 31552.012, -0.30909622, -0.06929967, -963182.7, 54084.184, 0.0, 10.001319, 9.99952 
2.905497e+3, 2.0618673e+2, -1009130.3, -1282618.0, 6974.8223, -0.21527681, -0.018629143, -1008952.56, -89600.9, 0.0, 10.001379, 9.997478 
2.905124e+3, 2.1617533e+2, -1047212.5, -1277828.6, 50427.266, 0.1067968, -0.22659309, -1036668.06, -215198.38, 0.0, 10.000536, 9.997271 
2.9047498e+3, 2.2616734e+2, -755042.7, -874086.94, 94842.414, 0.12776957, -0.14994308, -702591.75, 20960.318, 0.0, 10.001022, 9.999098 
2.904374e+3, 2.3616166e+2, -575344.2, -771844.44, 18021.174, -0.033106416, 0.04141812, -573705.1, 51904.457, 0.0, 10.00169, 9.998841 
2.903999e+3, 2.4615397e+2, -451781.84, -559929.3, 16067.297, -0.101385936, 0.034857225, -449445.25, 78237.64, 0.0, 10.001453, 9.99971 
2.9036242e+3, 2.561444e+2, -582759.5, -655790.6, 24896.932, -0.10699873, -0.21441576, -575079.56, -145307.63, 0.0, 10.000198, 9.999015 
2.9032478e+3, 2.6613563e+2, -577766.06, -766903.9, 10387.533, -0.08956239, -0.20625168, -577197.25, -245339.31, 0.0, 10.000307, 9.997498 
2.90287e+3, 2.761271e+2, -502807.94, -742576.6, 81388.71, -0.048918605, -0.110272504, -477791.03, -243846.36, 0.0, 10.00037, 9.997004 
2.902491e+3, 2.8611934e+2, -318233.4, -380603.6, 24608.94, 0.041387383, 0.037149794, -309693.06, -173670.33, 0.0, 10.000064, 9.998934 
2.9021117e+3, 2.961119e+2, -441409.3, -450766.9, 47674.08, 0.17751113, 0.11312044, -398185.0, -360088.75, 0.0, 9.99879, 9.998407 
2.9017347e+3, 3.0610266e+2, -108379.305, -80495.01, 209878.36, 0.18851918, -0.02150785, 115903.78, 115903.78, 0.0, 9.999815, 9.999719 
2.9013595e+3, 3.160935e+2, -14790.295, -281207.9, 137164.97, 0.15159704, -0.19476123, 43204.492, 43204.492, 0.0, 10.001221, 9.997417 
2.9009846e+3, 3.260828e+2, 849511.56, 51856.15, 3792.624, 0.029442096, -0.22830233, 849529.56, 849529.56, 0.0, 10.007576, 9.99653 
2.918119e+3, 1.366096e+2, -1489001.0, -1791368.6, 26528.063, 0.041581538, -0.157121, -1486691.3, 114518.84, 0.0000000000007792345, 10.002295, 9.998315 
2.9177418e+3, 1.466024e+2, -1425360.9, -1638176.6, -17859.414, -0.17649245, -0.044490643, -1423872.5, 79409.266, 0.0, 10.001844, 9.998899 
2.9173696e+3, 1.5659459e+2, -1471006.4, -1582604.9, 26516.063, 0.07287573, -0.04807112, -1465026.5, -59663.785, 0.0, 10.000732, 9.999152 
2.916996e+3, 1.6658813e+2, -1174280.8, -986266.44, -14492.466, 0.19297148, -0.12491819, -985155.9, 322263.56, 0.0, 10.000394, 10.002696 
2.91662e+3, 1.7658213e+2, -1189009.3, -1039683.6, 34569.598, 0.1369331, -0.3077748, -1032068.94, 177396.73, 0.0, 9.999999, 10.001884 
2.9162434e+3, 1.8657538e+2, -1175931.8, -1219130.5, 60724.645, -0.0521445, -0.34004694, -1133079.5, -21549.309, 0.0, 10.00049, 9.999714 
2.9158664e+3, 1.9656835e+2, -993771.2, -1135142.9, 56982.277, -0.31511173, -0.32525134, -973663.5, 39940.152, 0.0, 10.001266, 9.999257 
2.9154915e+3, 2.0656088e+2, -946955.25, -1178899.4, -22779.287, -0.21659462, -0.23598167, -944739.3, -29057.43, 0.0, 10.0014305, 9.998191 
2.9151174e+3, 2.1655272e+2, -959228.8, -1172181.9, 43412.44, 0.046831235, -0.1794852, -950718.8, -132951.64, 0.0, 10.000813, 9.997883 
2.9147434e+3, 2.2654417e+2, -838459.6, -1102641.9, 130907.13, 0.06332164, -0.090439215, -784581.0, -64721.645, 0.0, 10.0012245, 9.997455 
2.9143688e+3, 2.3653553e+2, -572039.1, -893187.0, 49829.53, -0.085870214, -0.015617711, -564485.25, 57468.27, 0.0, 10.002169, 9.997804 
2.9139945e+3, 2.4652882e+2, -339102.66, -397866.97, -34414.75, -0.034447934, 0.05729472, -323233.44, 200786.78, 0.0, 10.001696, 10.000723 
2.9136202e+3, 2.5652274e+2, -433307.9, -409259.13, -21073.168, 0.110735364, 0.062661745, -397021.13, 29054.645, 0.0, 10.000374, 10.0006485 
2.9132426e+3, 2.6651567e+2, -373765.28, -240488.39, 32873.086, 0.08684822, -0.04648695, -232821.23, 95315.61, 0.0, 9.999802, 10.001379 
2.912863e+3, 2.7650815e+2, -345101.47, -265219.8, 141584.16, -0.041994028, -0.2250706, -158050.67, 72150.46, 0.0, 9.999666, 10.000631 
2.9124835e+3, 2.8650063e+2, -363247.56, -403993.4, 130487.875, 0.039093383, -0.20202655, -251551.8, -119276.89, 0.0, 9.999719, 9.998961 
2.912105e+3, 2.9649252e+2, -378835.78, -394763.75, 177168.52, 0.32944384, -0.1780254, -209452.33, -175092.81, 0.0, 9.999011, 9.998699 
2.9281142e+3, 1.3698453e+2, -1540298.1, -1834771.6, -47865.457, 0.026447808, 0.03145699, -1532713.3, 64826.918, 0.0, 10.002009, 9.998153 
2.9277366e+3, 1.4697522e+2, -1230613.8, -1399450.0, -90496.62, -0.23327592, -0.15016694, -1191273.9, 308356.13, 0.0, 10.002532, 10.000215 
2.9273644e+3, 1.5696834e+2, -1331336.3, -1417348.8, 10267.354, 0.14917928, -0.18822762, -1330127.6, 71567.625, 0.0, 10.001262, 10.000031 
2.9269892e+3, 1.6696236e+2, -1210147.8, -1131498.6, -42238.484, 0.1759039, -0.18459888, -1113112.6, 190637.88, 0.0, 10.000713, 10.001542 
2.926612e+3, 1.7695673e+2, -1207481.3, -1146019.0, -103061.83, -0.024126204, -0.22918217, -1069204.1, 136596.55, 0.0, 10.000302, 10.001012 
2.9262367e+3, 1.8695036e+2, -1202514.6, -1194349.4, -73883.56, -0.08237051, -0.22821854, -1124435.8, -16572.564, 0.0, 10.000149, 10.000042 
2.9258627e+3, 1.9694328e+2, -1218851.9, -1229215.1, -51412.746, -0.02891613, -0.26654658, -1172360.3, -162424.72, 0.0, 9.999653, 9.999403 
2.9254872e+3, 2.0693617e+2, -1042856.94, -1145323.3, -100096.336, -0.027846662, -0.1967617, -981644.06, -69635.26, 0.0, 10.000502, 9.998846 
2.9251108e+3, 2.1692897e+2, -856516.2, -1062163.1, -51922.47, -0.021028157, -0.12843451, -844150.2, -30066.957, 0.0, 10.001313, 9.998388 
2.9247364e+3, 2.2692093e+2, -898500.5, -1055813.4, 139295.03, -0.029062444, -0.060368005, -817188.4, -101019.76, 0.0, 10.000498, 9.9981165 
2.9243627e+3, 2.3691227e+2, -1071634.4, -1078419.4, 224918.56, -0.05261772, -0.05126514, -850082.7, -231820.67, 0.0, 9.998537, 9.998278 
2.9239884e+3, 2.4690628e+2, -841435.56, -549863.1, 167189.58, 0.02936562, 0.050758574, -473825.16, 46497.285, 0.0, 9.997928, 10.001473 
2.923613e+3, 2.5690168e+2, -834519.56, -491114.6, 154064.06, 0.20679209, 0.12588514, -432127.94, -9762.53, 0.0, 9.997229, 10.00158 
2.9232353e+3, 2.6689586e+2, -471773.06, -24527.104, 131710.42, 0.17474641, -0.014322116, 11378.085, 335788.9, 0.0, 9.998105, 10.003631 
2.9228556e+3, 2.7688947e+2, -330490.38, -42126.957, 87963.94, 0.0018265758, -0.32527655, -17412.19, 209045.5, 0.0, 9.998915, 10.002505 
2.922476e+3, 2.8688273e+2, -273731.0, -359184.97, 25980.076, 0.016696483, -0.32249698, -266452.4, -137928.25, 0.0, 10.00041, 9.998884 
2.9220986e+3, 2.9687434e+2, -163654.45, -198865.36, 33966.297, 0.42247328, -0.38825873, -143002.1, -112388.31, 0.0, 10.000154, 9.999492 
2.9381087e+3, 1.373584e+2, -1574530.3, -1711961.8, 84349.52, -0.085225776, 0.2049379, -1534449.4, 59432.813, 0.0, 10.001201, 9.99938 
2.9377308e+3, 1.4734693e+2, -1205389.9, -1173839.4, -84531.305, -0.36050177, -0.35664302, -1103623.9, 392363.22, 0.0, 10.001768, 10.00214 
2.9373586e+3, 1.5734182e+2, -1324160.4, -1301422.3, -8301.519, 0.09567441, -0.39132437, -1298714.0, 99313.92, 0.0, 10.000808, 10.001055 
2.9369816e+3, 1.6733593e+2, -1350737.8, -1446910.0, -33076.324, 0.033043988, -0.287681, -1340460.1, -40371.414, 0.0, 10.00079, 9.999351 
2.936602e+3, 1.7732966e+2, -1258776.4, -1338681.1, -67212.61, -0.37342805, -0.17660807, -1220538.4, -18380.668, 0.0, 10.00064, 9.99954 
2.9362294e+3, 1.873246e+2, -1100975.8, -1049780.3, -58655.535, -0.1294033, -0.0366262, -1011380.2, 92829.85, 0.0, 10.000407, 10.000924 
2.9358605e+3, 1.9731964e+2, -1123734.9, -1082944.5, -32951.234, 0.3802259, 0.060913004, -1064587.3, -58327.707, 0.0, 9.999842, 10.000324 
2.9354838e+3, 2.0731217e+2, -980706.5, -1043965.4, -50945.24, 0.24136978, 0.023157237, -952370.6, -44035.453, 0.0, 10.000623, 9.999483 
2.935104e+3, 2.1730371e+2, -711106.0, -848440.5, -28810.803, -0.1869203, -0.09299229, -705306.8, 105114.04, 0.0, 10.001632, 9.999719 
2.934729e+3, 2.272979e+2, -634941.2, -564205.9, 63880.5, -0.15856643, -0.053998604, -526555.8, 185919.98, 0.0, 10.000641, 10.001468 
2.934355e+3, 2.3729289e+2, -823282.44, -618153.06, 167087.6, 0.01081479, -0.0015428653, -524662.2, 89859.49, 0.0, 9.998661, 10.001421 
2.933979e+3, 2.47287e+2, -838836.75, -504462.22, 162388.19, 0.04844372, -0.045590628, -438579.75, 77998.78, 0.0, 9.997685, 10.00194 
2.9336017e+3, 2.572808e+2, -804261.3, -439594.6, 166584.23, 0.04864395, -0.1574441, -374954.75, 43684.0, 0.0, 9.997184, 10.0019865 
2.933226e+3, 2.672752e+2, -576420.8, -216662.22, 176494.08, 0.12550743, -0.22262555, -144536.11, 176151.7, 0.0, 9.997911, 10.002437 
2.9328495e+3, 2.772698e+2, -318687.0, -140488.67, 78020.664, 0.1666032, -0.31383428, -111156.91, 111575.72, 0.0, 9.999313, 10.0016775 
2.93247e+3, 2.8726402e+2, -257295.77, -425506.9, -9273.797, 0.07398654, -0.15120776, -256786.03, -131992.36, 0.0, 10.000689, 9.998375 
2.9320917e+3, 2.9725677e+2, 291352.7, 196903.61, -90857.24, 0.28217158, -0.07085465, 346525.4, 373397.8, 0.0, 10.002286, 10.001267 
2.948102e+3, 1.3773084e+2, -1475007.0, -1371747.8, 279409.47, -0.1501995, -0.234961, -1139237.9, 450986.56, 0.0, 10.000567, 10.002051 
2.9477274e+3, 1.4772528e+2, -1388261.5, -1322053.9, 49104.883, -0.124139525, -0.25404376, -1295936.5, 196335.81, 0.0, 10.000766, 10.0016165 
2.9473513e+3, 1.5772021e+2, -1384546.0, -1371372.1, 33660.164, 0.014683672, -0.22914623, -1343660.5, 50659.93, 0.0, 10.0005665, 10.000706 
2.9469755e+3, 1.6771372e+2, -1254383.9, -1403969.3, 91874.54, -0.0073426072, -0.16356224, -1210707.8, 85680.91, 0.0, 10.001482, 9.999313 
2.9465985e+3, 1.7770655e+2, -990743.4, -1218385.6, 135888.92, -0.21318883, -0.12435637, -927304.7, 271161.28, 0.0, 10.002536, 9.999438 
2.9462245e+3, 1.8770084e+2, -866184.44, -919507.75, 119999.05, -0.07057891, -0.039183144, -769920.9, 330602.75, 0.0, 10.001966, 10.001058 
2.945853e+3, 1.9769548e+2, -1025462.7, -1012418.6, 124353.016, 0.31423566, 0.018775003, -894416.7, 108158.84, 0.0, 10.000434, 10.000524 
2.9454765e+3, 2.0768863e+2, -980484.56, -947905.3, 161876.4, 0.17306149, -0.01134913, -801501.0, 103144.47, 0.0, 10.00021, 10.000335 
2.945098e+3, 2.1768105e+2, -930282.3, -871001.25, 184949.75, -0.18718566, -0.101098485, -713331.94, 93391.266, 0.0, 9.999797, 10.000453 
2.9447225e+3, 2.2767617e+2, -637528.75, -384239.13, 148562.28, -0.13836923, -0.083647974, -315667.0, 393098.75, 0.0, 9.999929, 10.002998 
2.9443482e+3, 2.3767227e+2, -668921.06, -433848.25, 112265.664, 0.079403296, -0.078829385, -388847.3, 221948.23, 0.0, 9.999344, 10.00232 
2.9439706e+3, 2.4766654e+2, -631218.94, -431084.0, 55294.574, 0.0736382, -0.13273345, -416823.06, 96028.516, 0.0, 9.9993105, 10.001622 
2.9435927e+3, 2.576601e+2, -603720.56, -396798.47, 22283.133, 0.017412689, -0.2596433, -394426.03, 20490.781, 0.0, 9.99888, 10.001454 
2.9432175e+3, 2.6765466e+2, -416327.78, -226913.6, 99614.83, 0.123844855, -0.25890693, -184170.52, 132796.83, 0.0, 9.999425, 10.001636 
2.942843e+3, 2.7764946e+2, -355472.8, -255130.95, 62446.36, 0.26870772, -0.26218933, -225197.77, -6183.5815, 0.0, 9.999547, 10.000767 
2.942464e+3, 2.876437e+2, -330752.72, -415433.13, 48344.234, 0.1084915, -0.081188366, -308828.94, -187753.14, 0.0, 10.000084, 9.998703 
2.9420853e+3, 2.9763716e+2, 35690.484, 234551.06, 70741.64, 0.1480853, 0.046886396, 257148.48, 280294.13, 0.0, 10.000026, 10.002558 
2.9580966e+3, 1.381049e+2, -1304204.8, -988033.56, 256473.5, -0.14740421, -0.66953903, -844839.06, 741706.5, 0.0, 10.000433, 10.00476 
2.9577237e+3, 1.4810608e+2, -1465164.4, -1523886.9, 19043.35, 0.13609739, -0.024426818, -1459529.4, 29002.78, 0.0, 10.000954, 10.000135 
2.9573432e+3, 1.581005e+2, -1376740.4, -1466753.6, 28686.701, -0.18773705, 0.09586405, -1368375.4, 22222.744, 0.0, 10.001028, 9.999839 
2.9569703e+3, 1.6809325e+2, -1161959.5, -1244360.4, 119105.5, -0.0024964404, 0.047271676, -1077129.8, 215542.08, 0.0, 10.001586, 10.000368 
2.9565978e+3, 1.7808548e+2, -994910.3, -1129174.8, 140144.19, 0.13851157, -0.07371375, -906649.06, 288099.06, 0.0, 10.002082, 10.000277 
2.95622e+3, 1.880779e+2, -923522.25, -979178.7, 53105.32, -0.034882847, -0.19376113, -891395.6, 205424.63, 0.0, 10.001678, 10.0007925 
2.9558414e+3, 1.9807057e+2, -991756.75, -978291.94, 84643.555, -0.2226888, -0.30385518, -900113.44, 98775.97, 0.0, 10.000532, 10.000726 
2.9554668e+3, 2.0806564e+2, -864508.06, -770040.5, 148693.72, -0.15594697, -0.22187543, -661258.75, 239682.1, 0.0, 10.000376, 10.001522 
2.9550922e+3, 2.1806116e+2, -783384.2, -686109.3, 165454.3, -0.0911575, -0.11462868, -562291.75, 240697.28, 0.0, 10.000241, 10.00153 
2.9547167e+3, 2.2805555e+2, -647822.44, -447914.75, 133015.33, -0.012537595, -0.1773947, -381483.97, 323556.34, 0.0, 10.000103, 10.002482 
2.9543412e+3, 2.3804969e+2, -614582.7, -478799.0, 84497.5, 0.069716886, -0.30713272, -438297.44, 168794.55, 0.0, 9.999946, 10.001733 
2.9539642e+3, 2.4804468e+2, -647366.9, -609345.1, 23355.326, 0.13136354, -0.17316307, -598241.44, -89095.08, 0.0, 9.999831, 10.000201 
2.953587e+3, 2.5803974e+2, -496507.03, -427907.78, -15240.6045, 0.18614744, -0.0059283664, -424674.22, -13471.623, 0.0, 9.999859, 10.000816 
2.9532117e+3, 2.680342e+2, -262472.0, -109966.02, 64483.137, 0.22492777, -0.030616999, -86356.14, 226896.22, 0.0, 10.000218, 10.002095 
2.9528362e+3, 2.7802834e+2, -108170.195, -26926.873, 29924.768, 0.21651493, -0.13508669, -17094.484, 198206.8, 0.0, 10.000665, 10.001834 
2.9524577e+3, 2.8802085e+2, -89644.47, -52021.426, 21858.19, 0.16212015, -0.31792375, -41994.54, 75379.445, 0.0, 10.000542, 10.001038 
2.9520783e+3, 2.9801735e+2, 130119.38, 284598.34, 90651.35, 0.14798954, -0.06650018, 326453.78, 345861.28, 0.0, 10.000432, 10.002763 
2.9680923e+3, 1.384843e+2, -1379067.6, -1210601.9, 254832.19, 0.06445205, -0.5805331, -1026442.06, 556378.06, 0.0, 10.00077, 10.003048 
2.9677135e+3, 1.4848183e+2, -1332217.8, -1553734.1, 22837.91, -0.3295372, -0.18096428, -1329887.8, 154959.42, 0.0, 10.002314, 9.999268 
2.9673383e+3, 1.5847456e+2, -1054266.6, -1350127.5, 29690.72, -0.21840881, -0.14852144, -1051316.5, 335614.03, 0.0, 10.003399, 9.999508 
2.9669654e+3, 1.6846843e+2, -1057486.8, -1109116.3, 65104.05, 0.034949478, -0.1284099, -1013266.25, 275727.16, 0.0, 10.001928, 10.001143 
2.9665923e+3, 1.7846239e+2, -1304206.6, -1208409.0, 91975.695, 0.19780628, -0.1621345, -1152607.3, 38444.99, 0.0, 9.99967, 10.000902 
2.9662135e+3, 1.8845542e+2, -1178918.3, -1068640.4, 40310.582, -0.04214032, -0.26483542, -1055476.8, 37640.875, 0.0, 9.999824, 10.001065 
2.965834e+3, 1.9844805e+2, -1068540.4, -1019665.75, 97061.09, -0.27323905, -0.3987276, -944012.9, 51173.7, 0.0, 10.000083, 10.000648 
2.9654595e+3, 2.0844373e+2, -934809.5, -808897.94, 98590.0, -0.22684017, -0.24901216, -754877.56, 142355.23, 0.0, 9.999989, 10.001415 
2.965085e+3, 2.1843997e+2, -975152.25, -808483.6, 19787.041, -0.10428433, -0.07347532, -806166.75, -6892.037, 0.0, 9.999102, 10.001232 
2.9647094e+3, 2.2843403e+2, -802146.7, -555294.4, -294.9928, -0.025327759, -0.15947653, -555294.06, 146035.64, 0.0, 9.999204, 10.002179 
2.9643336e+3, 2.3842761e+2, -793004.2, -624416.6, -20823.697, 0.07618436, -0.3267237, -621882.6, -18495.123, 0.0, 9.999015, 10.001196 
2.9639575e+3, 2.4842265e+2, -656100.75, -627671.8, 13533.268, 0.18197557, -0.1692661, -622259.75, -116818.805, 0.0, 9.999888, 10.000015 
2.9635814e+3, 2.5841802e+2, -496796.03, -495129.5, 76465.33, 0.3003365, 0.050465506, -419492.88, -11998.856, 0.0, 10.000219, 10.000148 
2.963205e+3, 2.684121e+2, -270477.72, -163147.11, 105136.664, 0.21769865, 0.039616734, -98771.39, 210775.42, 0.0, 10.000396, 10.0016165 
2.962828e+3, 2.7840555e+2, -265375.34, -126864.84, -16876.318, 0.059721503, -0.1116616, -124838.26, 86764.04, 0.0, 9.999781, 10.001546 
2.9624516e+3, 2.8839597e+2, -76876.54, 94424.336, -132225.78, 0.19726351, -0.58543944, 166316.44, 280008.0, 0.0, 10.0001335, 10.002179 
2.9620722e+3, 2.983956e+2, 52247.08, 118834.84, -74474.945, 0.13876271, -0.14917685, 167119.14, 182810.92, 0.0, 10.000596, 10.0014925 
2.9780856e+3, 1.3886487e+2, -1543212.5, -1625508.8, 208145.73, -0.0528775, -0.33662304, -1372186.6, 206900.19, 0.0, 10.001138, 10.000001 
2.977702e+3, 1.4885555e+2, -1433308.4, -1664026.9, 57100.484, -1.0066456, -0.4817392, -1419950.0, 61234.08, 0.0, 10.0019, 9.9987 
2.9773352e+3, 1.5884629e+2, -1195583.9, -1413265.6, 19338.56, -0.20917885, -0.6014939, -1193879.3, 189403.81, 0.0, 10.002411, 9.999546 
2.9769605e+3, 1.6884212e+2, -1077834.9, -1044349.6, -18827.24, 0.030982569, -0.43790925, -1035897.44, 249430.63, 0.0, 10.00147, 10.001815 
2.9765835e+3, 1.788386e+2, -1204156.3, -1091952.3, 26667.357, -0.004349267, -0.26965192, -1085936.8, 101428.05, 0.0, 10.000031, 10.00154 
2.9762065e+3, 1.8883334e+2, -1057571.5, -947239.9, 28673.95, -0.042269625, -0.262688, -940232.8, 149181.48, 0.0, 10.000309, 10.001702 
2.97583e+3, 1.9882753e+2, -982756.5, -969126.44, 63349.645, -0.06527474, -0.29798812, -912226.3, 79242.81, 0.0, 10.000554, 10.000798 
2.9754528e+3, 2.088222e+2, -1011814.9, -1000785.2, 50342.434, -0.18500674, -0.15626311, -955656.44, -62129.438, 0.0, 10.000096, 10.000069 
2.9750755e+3, 2.1881722e+2, -952125.75, -861011.9, -19139.285, -0.3280903, 0.016189698, -857154.8, -61572.26, 0.0, 9.999436, 10.000746 
2.9747003e+3, 2.2881196e+2, -747942.9, -536437.6, -13241.815, -0.16612703, 0.011534364, -535611.8, 162018.61, 0.0, 9.99947, 10.002247 
2.974326e+3, 2.3880649e+2, -640946.9, -475554.66, -26663.854, 0.04510068, -0.07019063, -471362.28, 128315.86, 0.0, 9.999642, 10.001949 
2.9739508e+3, 2.4880022e+2, -472547.78, -370147.94, 33761.492, 0.1868065, -0.17397906, -360018.66, 141716.9, 0.0, 10.000324, 10.001612 
2.9735753e+3, 2.587937e+2, -322101.53, -361028.9, 78817.18, 0.28757513, -0.27161878, -260380.34, 143416.42, 0.0, 10.001074, 10.00069 
2.973197e+3, 2.6878712e+2, -334410.22, -415440.16, 70896.38, 0.049865022, -0.22350487, -293268.8, 12589.146, 0.0, 10.000828, 9.999739 
2.972818e+3, 2.7877995e+2, -270677.97, -311338.28, -59521.414, -0.26220766, -0.22247088, -228110.47, -20185.82, 0.0, 10.000395, 10.000042 
2.9724455e+3, 2.8876737e+2, -114971.74, -89523.82, -180384.6, 0.27647373, -0.85849, 78585.02, 188633.11, 0.0, 10.000498, 10.000803 
2.9720697e+3, 2.9876757e+2, 65010.863, -149876.4, 19097.656, 0.41893634, -0.180313, 66694.93, 78744.97, 0.0, 10.001808, 9.999099 
2.988082e+3, 1.3924238e+2, -1424411.4, -1767404.3, 42975.813, -0.00084877305, -0.14267649, -1419108.6, 156280.7, 0.0, 10.002726, 9.998298 
2.9876965e+3, 1.4923343e+2, -1439396.6, -1586108.1, -18302.805, -1.045298, -0.26023948, -1437147.8, 40338.363, 0.0, 10.001436, 9.999494 
2.9873303e+3, 1.5922508e+2, -1512895.9, -1496130.4, 11580.088, -0.067857, -0.3796708, -1490217.3, -110643.63, 0.0, 9.999914, 10.000196 
2.986956e+3, 1.6922192e+2, -1174130.8, -1058872.6, -9332.928, 0.16394782, -0.15708849, -1058121.9, 223487.14, 0.0, 10.000685, 10.002099 
2.986579e+3, 1.7921877e+2, -1013680.6, -1079525.5, 34940.555, 0.14906593, 0.048476655, -998595.5, 185047.92, 0.0, 10.001687, 10.000845 
2.9862016e+3, 1.8921195e+2, -873600.5, -984309.94, -52269.3, 0.046536636, -0.0016150023, -852822.3, 232888.16, 0.0, 10.002123, 10.000578 
2.9858243e+3, 1.9920504e+2, -799673.44, -879480.7, -119732.06, -0.04254891, -0.09065241, -713370.6, 274406.75, 0.0, 10.001825, 10.000798 
2.9854462e+3, 2.091987e+2, -807212.7, -811700.6, -48467.477, -0.21356755, -0.13835403, -760937.25, 128903.67, 0.0, 10.001074, 10.000916 
2.985068e+3, 2.1919334e+2, -907820.56, -801921.3, 60266.04, -0.3284789, -0.08940499, -774648.4, 17247.018, 0.0, 9.999633, 10.001054 
2.9846933e+3, 2.2918868e+2, -626432.6, -503492.9, 80475.15, -0.18365872, -0.022417853, -463696.78, 230240.23, 0.0, 10.000521, 10.001928 
2.984319e+3, 2.3918314e+2, -481967.4, -461345.7, 1956.9291, 0.00693343, -0.057778865, -461161.63, 134824.1, 0.0, 10.001071, 10.001342 
2.9839426e+3, 2.4917583e+2, -529449.9, -370104.22, -66192.086, 0.059551172, -0.26552996, -346195.4, 151855.34, 0.0, 9.999904, 10.001787 
2.9835665e+3, 2.5916848e+2, -793636.8, -651874.06, -90616.75, 0.13778129, -0.4553019, -607709.5, -207593.25, 0.0, 9.998198, 10.000072 
2.9831892e+3, 2.6916218e+2, -522623.7, -549158.06, 10112.624, -0.0940058, -0.3535411, -519209.03, -217034.0, 0.0, 9.999765, 9.999316 
2.9828104e+3, 2.791553e+2, -292722.28, -428482.78, 15411.551, -0.39978388, -0.2877041, -290994.72, -86753.69, 0.0, 10.000805, 9.999026 
2.9824403e+3, 2.8914112e+2, -36566.965, -169475.39, -63149.73, 0.33763337, -0.9742885, -11347.567, 95034.58, 0.0, 10.001662, 9.999666 
2.982066e+3, 2.9914188e+2, -226539.47, -471994.88, 317782.1, 0.51993823, -0.09865371, -8609.648, -225.14722, 0.0, 10.000763, 9.997352 
2.9980785e+3, 1.3961706e+2, -1550798.8, -1887995.6, 18105.16, 0.009993337, -0.09854697, -1549829.4, 21892.326, 0.0, 10.002187, 9.997734 
2.9976925e+3, 1.4961186e+2, -1329479.9, -1365204.1, -110915.38, -0.92004967, 0.070773095, -1234997.5, 238787.02, 0.0, 10.001499, 10.000987 
2.9973248e+3, 1.5960597e+2, -1401580.8, -1345702.5, -35278.098, 0.022435572, 0.06127115, -1328640.1, 47206.637, 0.0, 10.0002575, 10.001072 
2.9969516e+3, 1.6960289e+2, -1200145.6, -1072625.3, -22738.46, 0.38555256, 0.26583448, -1068692.0, 209189.42, 0.0, 10.000503, 10.002103 
2.9965767e+3, 1.7959988e+2, -1120357.9, -1188170.0, 20202.191, 0.41048366, 0.49374858, -1114795.5, 65119.727, 0.0, 10.001224, 10.000309 
2.996197e+3, 1.8959016e+2, -1046473.2, -1280883.3, -15652.658, 0.042941302, 0.31204674, -1045432.6, 36581.445, 0.0, 10.001888, 9.998643 
2.995818e+3, 1.9957995e+2, -844384.6, -868455.0, -107316.51, -0.24105188, 0.06601015, -748430.56, 235685.14, 0.0, 10.001366, 10.001087 
2.9954407e+3, 2.0957446e+2, -608956.06, -334708.25, -75231.39, -0.18826173, -0.14224847, -315426.5, 570735.2, 0.0, 10.000801, 10.004316 
2.9950625e+3, 2.1956883e+2, -733537.56, -571950.6, 51871.34, -0.19679016, -0.3900265, -556732.56, 231475.72, 0.0, 10.000154, 10.002383 
2.994687e+3, 2.2956222e+2, -675121.75, -677111.0, 103082.625, -0.19795229, -0.44967926, -573028.94, 117238.555, 0.0, 10.000749, 10.0006695 
2.9943126e+3, 2.3955634e+2, -449143.63, -574064.4, -18536.51, -0.12996162, -0.4018847, -446451.1, 145869.77, 0.0, 10.001791, 10.000234 
2.9939333e+3, 2.495491e+2, -587376.56, -636777.8, -176529.52, -0.19607075, -0.41843408, -433827.97, 60564.652, 0.0, 10.000471, 9.999728 
2.993554e+3, 2.5954178e+2, -724748.25, -589784.5, -136467.61, -0.27416995, -0.43790755, -505025.75, -108560.875, 0.0, 9.998452, 10.000427 
2.993181e+3, 2.69538e+2, -332229.0, -158903.98, 75209.164, -0.16395508, -0.27787083, -130819.78, 167676.95, 0.0, 9.99974, 10.002061 
2.9928082e+3, 2.7953357e+2, -47206.652, -141140.06, 74605.35, -0.09177415, -0.19698787, -6015.374, 194519.28, 0.0, 10.001686, 10.0006275 
2.992435e+3, 2.8952026e+2, 63450.414, -173833.69, -12714.23, 0.3315336, -0.7999187, 64129.727, 166792.42, 0.0, 10.002482, 9.999354 
2.992059e+3, 2.9952088e+2, -194473.64, -392075.56, 111529.07, 0.45298818, 0.12134518, -144276.73, -139613.75, 0.0, 10.000497, 9.998193 
3.0080688e+3, 1.3998468e+2, -1588453.6, -1924166.1, 40089.688, -0.5326452, -0.8249681, -1583732.6, -15622.198, 0.0, 10.001867, 9.997685 
3.007686e+3, 1.4998311e+2, -1044511.25, -1294074.6, -118724.484, -1.091221, -0.27438626, -997054.8, 473089.47, 0.0, 10.003725, 10.0003805 
3.0073175e+3, 1.5997599e+2, -1065528.0, -1298556.9, -193428.17, -0.19349653, -0.3380203, -956232.6, 415990.03, 0.0, 10.002963, 10.000088 
3.0069384e+3, 1.6996998e+2, -1163008.9, -1184860.5, -256827.88, -0.3067513, -0.35319853, -916874.5, 357410.16, 0.0, 10.001208, 10.000982 
3.0065626e+3, 1.7996483e+2, -1233719.5, -1014861.5, -160344.2, -0.31811097, -0.36425886, -930164.3, 246171.86, 0.0, 9.999355, 10.002421 
3.006191e+3, 1.8996286e+2, -1222067.9, -792901.8, 99558.61, 0.10745316, -0.26460344, -770930.9, 307419.88, 0.0, 9.9981, 10.0038185 
3.0058172e+3, 1.9995655e+2, -1320227.5, -1085847.9, 388456.6, 0.42736036, -0.4484616, -797289.06, 183119.28, 0.0, 9.997965, 10.001234 
3.0054367e+3, 2.0995444e+2, -1062747.5, -784830.4, 189990.63, 0.15050337, -0.13351437, -688404.3, 194023.53, 0.0, 9.998687, 10.002171 
3.0050558e+3, 2.1995144e+2, -928241.0, -885504.2, -14966.46, -0.1805198, 0.10599973, -880784.2, -96329.72, 0.0, 9.999747, 10.000387 
3.0046818e+3, 2.299417e+2, -735987.5, -783034.25, 63096.492, -0.08489185, -0.19695981, -692172.06, -5626.344, 0.0, 10.000638, 9.999931 
3.0043092e+3, 2.3993362e+2, -819314.3, -869037.56, -4163.489, 0.12244245, -0.33685642, -818968.1, -230346.3, 0.0, 9.999765, 9.999136 
3.0039307e+3, 2.4992636e+2, -450320.3, -730327.8, -98051.7, 0.12349677, -0.24907574, -419399.53, 71299.73, 0.0, 10.002158, 9.998166 
3.00355e+3, 2.5991878e+2, -91645.06, -420975.1, -25522.5, -0.054736137, -0.17395414, -89678.85, 303100.47, 0.0, 10.003439, 9.999122 
3.003175e+3, 2.6991418e+2, -206754.92, -147898.72, -52754.414, -0.11121924, -0.043570966, -116919.52, 177899.17, 0.0, 10.000904, 10.00147 
3.0028006e+3, 2.7990976e+2, -383659.28, -193886.75, -211409.31, -0.1968464, 0.011270472, -57046.242, 139807.89, 0.0, 9.998955, 10.001525 
3.002428e+3, 2.8989565e+2, 196483.92, 183857.36, 6336.2656, 0.1062532, -0.9419085, 199115.23, 298098.88, 0.0, 10.002252, 10.00181 
3.0020523e+3, 2.9989588e+2, 285962.22, -49925.17, -9691.431, 0.3376004, -0.2840575, 286241.63, 287222.34, 0.0, 10.003533, 9.998945 
