coord_x,coord_y,stress_xx,stress_yy,tau_xy,velocity_x,velocity_y,stress_1,eps,damage,lx,ly
5.0005484e+0, 1.2502179e+2, -1597904.0, -1693724.6, 4971.2686, 0.0069508785, -0.20635821, -1597646.8, 117123.31, 0.0013801174, 10.000951, 9.999683 
5.000324e+0, 1.3502249e+2, -1567151.6, -1683695.0, 16695.377, -0.004288083, -0.05268217, -1564807.0, 51956.703, 0.0008364695, 10.00073, 9.999185 
5.0002295e+0, 1.4502032e+2, -1441168.1, -1497954.4, 20199.72, -0.007427355, -0.22337371, -1434715.9, 84069.18, 0.00038681776, 10.000603, 9.999844 
5.0002944e+0, 1.5502048e+2, -1354313.4, -1416769.0, 5896.9365, 0.00049344095, -0.1896908, -1353761.5, 67021.53, 0.00011816065, 10.000575, 9.999741 
5.000276e+0, 1.6502057e+2, -1282475.1, -1353347.3, -654.2107, 0.002939517, -0.14433484, -1282469.1, 40313.027, 0.000016018055, 10.000491, 9.999546 
5.00018e+0, 1.7502017e+2, -1205246.1, -1267177.8, 2451.2917, 0.0000136297385, -0.14344558, -1205149.3, 19637.418, 0.00000013955699, 10.000357, 9.99953 
5.000147e+0, 1.8501963e+2, -1114960.8, -1164654.4, 7105.1113, 0.0011915507, -0.15595321, -1113964.8, 12827.965, 0.0, 10.000269, 9.999605 
5.0001806e+0, 1.9501902e+2, -1026140.25, -1075214.9, 9032.121, 0.0068352874, -0.17737716, -1024530.7, 4268.225, 0.0, 10.000223, 9.999568 
5.0001377e+0, 2.0501883e+2, -907257.8, -916653.25, 4567.5015, 0.0062323553, -0.17632383, -905403.4, 25396.91, 0.0, 10.00015, 10.000018 
5.000015e+0, 2.1501897e+2, -826173.56, -830127.25, -5986.0044, -0.0009799566, -0.16897285, -821846.44, 10950.889, 0.0, 10.000048, 9.999988 
4.9999768e+0, 2.2501881e+2, -767397.3, -807297.9, -4585.5015, -0.0034586303, -0.1563912, -766877.1, -32077.947, 0.0, 10.000021, 9.999485 
5.000019e+0, 2.3501839e+2, -664522.44, -709745.44, 1055.9426, -0.0014387439, -0.151859, -664497.75, -27691.857, 0.0, 10.000066, 9.99946 
5.0000465e+0, 2.4501805e+2, -558225.0, -590451.6, 1472.9618, 0.0021404158, -0.13952568, -558157.8, -19347.322, 0.0, 10.000049, 9.999616 
5.0000596e+0, 2.550178e+2, -473780.25, -503314.28, 41.81624, 0.0071746134, -0.13056156, -473780.2, -32967.207, 0.0, 9.999974, 9.999577 
5.0000155e+0, 2.6501727e+2, -404616.84, -459421.38, 989.35114, 0.0040347646, -0.12036402, -404598.97, -61779.7, 0.0, 9.999949, 9.999216 
4.999915e+0, 2.7501658e+2, -304856.78, -362773.63, -1945.5944, -0.0071236435, -0.11596575, -304791.5, -59962.76, 0.0, 9.99997, 9.999196 
4.999896e+0, 2.8501618e+2, -246693.75, -342736.66, 471.66818, -0.007951185, -0.049309075, -246691.42, -99856.17, 0.000000004221918, 9.99995, 9.99867 
4.9999577e+0, 2.950159e+2, -153217.06, -241767.17, 11249.895, 0.00084254605, 0.052310336, -151810.17, -102969.65, 0.0000065845143, 9.999897, 9.998716 
4.9998707e+0, 3.050129e+2, -83194.47, -120721.336, 2834.0657, -0.0016490447, -0.15103824, -82981.65, -82981.65, 0.0000754208, 9.999774, 9.999277 
4.9996868e+0, 3.150137e+2, -31917.324, 34031.008, -19571.277, -0.009760556, 0.0057443073, 39401.73, 39401.73, 0.00026987135, 9.999564, 10.000441 
1.5001641e+1, 1.2502219e+2, -1575702.3, -1646356.5, -3783.0774, 0.020578437, -0.18753277, -1575500.4, 139265.42, 0.00135349, 10.000946, 10.000011 
1.5000977e+1, 1.3502236e+2, -1543930.4, -1634697.6, 8206.449, -0.0126339635, -0.12115615, -1543194.4, 73568.53, 0.0008181531, 10.000728, 9.999523 
1.5000686e+1, 1.4502023e+2, -1467221.6, -1550855.3, 18513.412, -0.022406286, -0.28661042, -1463306.8, 55477.168, 0.00037595516, 10.000598, 9.999482 
1.5000883e+1, 1.5502092e+2, -1380082.3, -1469452.1, 4977.2827, 0.0015220299, -0.16185468, -1379806.0, 40972.785, 0.00011312574, 10.000572, 9.999381 
1.5000829e+1, 1.6502103e+2, -1275952.6, -1338948.8, -6412.5166, 0.008807449, -0.1040453, -1275306.5, 47472.195, 0.000014709239, 10.000487, 9.999647 
1.5000539e+1, 1.750201e+2, -1199373.5, -1254156.6, -2544.3323, 0.00005388837, -0.16470967, -1199255.5, 25532.252, 0.00000010097208, 10.000354, 9.999621 
1.5000442e+1, 1.8501957e+2, -1111351.3, -1156073.1, 5203.779, 0.00353249, -0.1812588, -1110753.8, 16039.46, 0.0, 10.000264, 9.999666 
1.5000543e+1, 1.9501959e+2, -1021762.75, -1065768.8, 7657.051, 0.02053808, -0.14760281, -1020468.5, 8324.9375, 0.0, 10.000222, 9.999634 
1.5000413e+1, 2.0501937e+2, -926044.2, -954878.94, 281.90387, 0.018619755, -0.13916485, -926041.44, 4753.9453, 0.0, 10.000147, 9.999758 
1.5000045e+1, 2.1501882e+2, -845189.9, -868886.7, -9358.576, -0.0027652164, -0.17118512, -841939.7, -9140.09, 0.0, 10.000045, 9.999723 
1.4999926e+1, 2.2501852e+2, -755894.56, -782354.0, -3235.0156, -0.010564919, -0.17237155, -755504.8, -20701.664, 0.0, 10.000017, 9.999658 
1.5000059e+1, 2.3501843e+2, -653366.8, -686223.94, 3217.2693, -0.004137585, -0.14927128, -653054.75, -16249.123, 0.0, 10.000065, 9.999622 
1.5000136e+1, 2.4501823e+2, -560710.5, -594993.25, -1807.0378, 0.006201642, -0.12825505, -560615.5, -21807.027, 0.0, 10.000047, 9.999586 
1.5000178e+1, 2.550179e+2, -475205.8, -505636.3, -2469.6067, 0.021527627, -0.122471295, -475006.7, -34194.746, 0.0, 9.999971, 9.999562 
1.5000045e+1, 2.6501733e+2, -408865.4, -467437.5, 1558.0164, 0.012063245, -0.11757432, -408824.0, -66004.836, 0.0, 9.999947, 9.999163 
1.4999743e+1, 2.7501655e+2, -310716.56, -374143.2, -890.86176, -0.021478726, -0.1136511, -310704.06, -65874.695, 0.0, 9.999968, 9.99912 
1.4999689e+1, 2.8501624e+2, -227071.22, -301199.16, -1936.0718, -0.023744406, -0.049105328, -227020.69, -80186.07, 0.0000000059189293, 9.999948, 9.998957 
1.499987e+1, 2.950162e+2, -132440.4, -197604.6, 9855.121, 0.0022257753, 0.050001074, -130982.58, -82146.24, 0.0000065077284, 9.999893, 9.999022 
1.4999616e+1, 3.050132e+2, -127086.4, -211050.3, -5140.894, -0.004534118, -0.13789758, -126772.805, -126772.805, 0.000074264535, 9.999771, 9.998658 
1.4999056e+1, 3.1501374e+2, -77691.266, -59472.81, -23366.213, -0.02971884, 0.05425547, -43503.004, -43503.004, 0.0002663471, 9.999559, 9.999801 
2.500253e+1, 1.2502252e+2, -1604532.6, -1669950.4, 8333.619, 0.02238374, -0.19516295, -1603487.8, 111274.04, 0.0013145427, 10.0007925, 9.999924 
2.500183e+1, 1.3502266e+2, -1538332.5, -1640030.8, -12713.483, -0.0039845477, -0.12489948, -1536767.4, 79992.6, 0.0007913486, 10.000802, 9.999452 
2.5001404e+1, 1.4502053e+2, -1455460.1, -1547115.4, -3786.7415, -0.0149634, -0.28738907, -1455304.0, 63477.363, 0.00036019128, 10.000687, 9.999467 
2.500144e+1, 1.5502122e+2, -1395641.6, -1478767.8, 8563.663, 0.0046764505, -0.16008924, -1394768.5, 26007.326, 0.00010584406, 10.000474, 9.999365 
2.5001284e+1, 1.650213e+2, -1294128.4, -1353310.3, 8007.439, 0.010304918, -0.100919634, -1293064.1, 29711.871, 0.000012859098, 10.000387, 9.999598 
2.500095e+1, 1.7502032e+2, -1192595.9, -1256733.1, 288.63718, 0.0023449503, -0.1613183, -1192594.5, 32191.43, 0.00000006033416, 10.000425, 9.999569 
2.5000757e+1, 1.8501979e+2, -1097136.5, -1153623.5, -1309.741, 0.0030341467, -0.17360342, -1097106.1, 29685.512, 0.0, 10.0003805, 9.999627 
2.5000706e+1, 1.9501989e+2, -1018713.1, -1068353.1, -6813.807, 0.01280885, -0.13060641, -1017794.8, 10996.592, 0.0, 10.000261, 9.999597 
2.5000542e+1, 2.0501961e+2, -922609.2, -961294.6, -9093.416, 0.014151462, -0.120724745, -920578.3, 10215.538, 0.0, 10.000205, 9.999685 
2.500026e+1, 2.1501893e+2, -826626.0, -868023.5, -4815.4805, 0.006026943, -0.16070549, -826073.25, 6726.4365, 0.0, 10.000207, 9.999652 
2.5000137e+1, 2.2501853e+2, -736588.9, -770993.2, 4075.607, 0.0027200612, -0.16709147, -736112.7, -1308.8234, 0.0, 10.00014, 9.999678 
2.5000182e+1, 2.3501846e+2, -661064.9, -687642.7, -1320.0817, 0.004633122, -0.14346817, -660999.44, -24193.725, 0.0, 10.000003, 9.999642 
2.5000152e+1, 2.4501829e+2, -578893.1, -606296.56, -10108.495, 0.008629364, -0.1200591, -575567.8, -36759.547, 0.0, 9.999932, 9.999563 
2.500006e+1, 2.5501797e+2, -483362.34, -511293.44, -10503.815, 0.014969623, -0.112507135, -479853.16, -39041.313, 0.0, 9.999924, 9.999547 
2.4999903e+1, 2.6501733e+2, -410905.47, -463792.25, -597.4543, 0.0048819087, -0.11446774, -410898.72, -68079.33, 0.0, 9.999912, 9.999205 
2.4999699e+1, 2.7501646e+2, -315751.3, -372690.03, 4654.9385, -0.020277124, -0.12578952, -315373.25, -70543.11, 0.0, 9.999917, 9.999155 
2.4999648e+1, 2.8501615e+2, -235851.7, -307130.5, -5170.0215, -0.019732447, -0.058354497, -235478.66, -88643.695, 0.0000000086392555, 9.999894, 9.998942 
2.4999723e+1, 2.9501632e+2, -144310.33, -204828.22, -17241.393, 0.0020217707, 0.061717503, -139743.0, -90907.836, 0.0000063841276, 9.999818, 9.999008 
2.499931e+1, 3.050133e+2, -128631.82, -221754.2, -23354.844, -0.013933241, -0.124299854, -123102.77, -123102.77, 0.00007245599, 9.9998045, 9.998569 
2.4998637e+1, 3.1501356e+2, -39050.62, -55860.64, 1600.355, -0.044117957, 0.05145547, -38899.62, -38899.62, 0.00026087384, 9.99989, 9.999667 
3.500321e+1, 1.2502277e+2, -1639487.3, -1743037.4, 7982.1104, 0.009288623, -0.23168632, -1638875.5, 75882.71, 0.0012623775, 10.000795, 9.99942 
3.5002872e+1, 1.3502339e+2, -1571191.6, -1709209.4, -12012.735, 0.019552564, -0.06500941, -1570153.9, 46601.215, 0.000755357, 10.000806, 9.998976 
3.5002378e+1, 1.450212e+2, -1431675.6, -1497718.8, -12865.71, 0.012625429, -0.22643706, -1429257.8, 89519.64, 0.00033918672, 10.000688, 9.999806 
3.5001963e+1, 1.550214e+2, -1372941.5, -1430833.6, 608.18286, 0.009126713, -0.18253401, -1372935.1, 47839.1, 0.00009620481, 10.000471, 9.999696 
3.5001636e+1, 1.650214e+2, -1308215.3, -1381752.4, 9280.107, 0.005982046, -0.13501379, -1307062.3, 15711.973, 0.000010539653, 10.000384, 9.999404 
3.5001412e+1, 1.7502086e+2, -1206005.8, -1284509.5, 2042.8821, 0.0052442355, -0.13433218, -1205952.6, 18828.77, 0.000000028001644, 10.000425, 9.999379 
3.5001096e+1, 1.850203e+2, -1106589.1, -1172769.5, -6274.5, -0.0019758656, -0.13390711, -1105999.5, 20788.568, 0.0, 10.00038, 9.999496 
3.5000676e+1, 1.950199e+2, -1028842.75, -1088482.9, -10978.766, -0.016872052, -0.1257004, -1026885.94, 1906.8423, 0.0, 10.000258, 9.99946 
3.5000527e+1, 2.0501956e+2, -914910.0, -944053.5, -9056.164, -0.00828298, -0.121088, -912325.1, 18470.625, 0.0, 10.0002, 9.999806 
3.5000655e+1, 2.1501923e+2, -818288.7, -850530.2, -4233.8555, 0.02453337, -0.13779394, -817742.0, 15055.6875, 0.0, 10.000206, 9.999773 
3.50006e+1, 2.2501884e+2, -745526.4, -788726.6, -1458.5565, 0.03486415, -0.14181197, -745477.2, -10675.708, 0.0, 10.000136, 9.9995575 
3.500038e+1, 2.3501849e+2, -669857.4, -705735.9, -6068.8276, 0.024170712, -0.13465133, -668858.6, -32052.31, 0.0, 10.000002, 9.999519 
3.5000083e+1, 2.4501821e+2, -579495.4, -606481.06, -10688.453, 0.008349058, -0.11612718, -575774.9, -36964.906, 0.0, 9.999928, 9.999563 
3.49997e+1, 2.5501797e+2, -484431.7, -512859.88, -10607.9795, -0.01338207, -0.10021949, -480909.66, -40096.97, 0.0, 9.999921, 9.999537 
3.499958e+1, 2.650173e+2, -401385.38, -443347.53, -816.1385, -0.018994112, -0.11194932, -401369.53, -58549.508, 0.0, 9.99991, 9.999347 
3.499977e+1, 2.7501628e+2, -305595.06, -350434.88, 5376.1675, -0.005125972, -0.15180518, -304959.47, -60128.4, 0.0, 9.999912, 9.9993105 
3.4999776e+1, 2.8501597e+2, -258453.17, -353031.72, -8083.315, 0.0031525623, -0.0776349, -257767.28, -110930.96, 0.000000011844628, 9.99989, 9.998629 
3.499951e+1, 2.950163e+2, -167615.27, -251840.03, -20049.938, -0.0013222301, 0.08803911, -163085.89, -114248.836, 0.0000061783935, 9.999814, 9.998688 
3.4998947e+1, 3.0501318e+2, -97778.375, -157215.81, -20883.482, -0.03080137, -0.11027487, -91174.625, -91174.625, 0.00006980885, 9.999804, 9.999013 
3.4998414e+1, 3.150132e+2, -12526.387, 210.43869, 9155.186, -0.056458347, -0.0012520296, 4994.34, 4994.34, 0.00025299258, 9.999887, 10.000053 
4.5004004e+1, 1.2502316e+2, -1628813.9, -1744680.1, -10735.288, 0.00447053, -0.22897364, -1627827.6, 86927.516, 0.0011988538, 10.000897, 9.999363 
4.500365e+1, 1.3502394e+2, -1572784.3, -1711932.5, 2308.4597, 0.016690644, -0.043967016, -1572746.0, 44004.883, 0.0007112032, 10.000805, 9.998958 
4.5003074e+1, 1.4502172e+2, -1427041.6, -1496899.1, 2579.29, 0.01186645, -0.2056513, -1426946.5, 91826.984, 0.00031351, 10.000726, 9.999794 
4.500258e+1, 1.5502179e+2, -1345509.0, -1419388.8, -11015.415, 0.013828154, -0.17468248, -1343901.5, 76869.734, 0.000084590996, 10.000668, 9.999681 
4.5002145e+1, 1.6502173e+2, -1288090.6, -1377592.4, -5765.7666, 0.010586363, -0.13140693, -1287720.8, 35051.05, 0.000007991499, 10.000546, 9.999354 
4.5001805e+1, 1.7502119e+2, -1215435.0, -1294191.5, -2303.85, 0.0041575283, -0.12552997, -1215367.6, 9411.296, 0.000000008983813, 10.000383, 9.999333 
4.50014e+1, 1.8502057e+2, -1123153.9, -1181818.6, -1572.8899, -0.004039185, -0.12645571, -1123111.8, 3674.1665, 0.0, 10.000271, 9.999487 
4.5000905e+1, 1.9502008e+2, -1037280.06, -1093872.1, 2489.399, -0.016743956, -0.12709016, -1037170.75, -8379.393, 0.0, 10.000206, 9.999449 
4.50007e+1, 2.0501971e+2, -921487.94, -952757.5, 7575.727, -0.010070444, -0.12270578, -919749.2, 11045.453, 0.0, 10.000178, 9.999758 
4.500078e+1, 2.1501943e+2, -824351.9, -858144.3, -833.33185, 0.017318755, -0.1291612, -824331.3, 8465.025, 0.0, 10.000186, 9.99973 
4.5000693e+1, 2.2501905e+2, -742296.06, -788107.44, -3135.524, 0.028906416, -0.13015738, -742082.44, -7282.2993, 0.0, 10.000163, 9.99955 
4.500045e+1, 2.3501864e+2, -654802.56, -698991.0, 786.03986, 0.025510548, -0.12847966, -654788.56, -17983.145, 0.0, 10.000108, 9.999516 
4.500012e+1, 2.4501835e+2, -564249.56, -601864.06, 2663.6333, 0.013653233, -0.11139861, -564061.9, -25252.639, 0.0, 10.000044, 9.99954 
4.4999707e+1, 2.5501812e+2, -478048.13, -512608.1, 560.7787, -0.007880938, -0.09253746, -478039.03, -37227.195, 0.0, 9.999977, 9.999512 
4.499953e+1, 2.650174e+2, -406593.8, -453229.4, 2567.1177, -0.014731028, -0.10385646, -406452.9, -63633.277, 0.0, 9.999906, 9.999281 
4.4999656e+1, 2.7501625e+2, -323549.03, -365780.28, -7042.607, -0.0026427153, -0.14815187, -322405.53, -77573.62, 0.0, 9.999818, 9.999251 
4.49996e+1, 2.8501597e+2, -270873.78, -352085.6, -13068.92, 0.0024499667, -0.075262904, -268822.5, -121985.27, 0.000000014278152, 9.999777, 9.998691 
4.4999263e+1, 2.9501635e+2, -163562.61, -244073.39, 3148.902, -0.007506496, 0.09249316, -163439.64, -114602.72, 0.0000058442592, 9.999816, 9.998741 
4.4998634e+1, 3.0501327e+2, -98714.82, -141252.02, 3321.3271, -0.038380276, -0.11271995, -98457.05, -98457.05, 0.000066210356, 9.999726, 9.999161 
4.499815e+1, 3.150133e+2, -71632.33, -20962.186, 12530.919, -0.049252085, -0.019768571, -18032.62, -18032.62, 0.0002424885, 9.999449, 10.00012 
5.500489e+1, 1.2502372e+2, -1600355.9, -1687440.8, -14403.914, 0.0022620356, -0.18566658, -1598035.3, 116717.07, 0.0011275938, 10.000905, 9.999752 
5.500416e+1, 1.3502434e+2, -1542208.6, -1648216.5, -1468.8351, -0.013145111, -0.059150215, -1542188.3, 74559.09, 0.00066134764, 10.000804, 9.999396 
5.50035e+1, 1.4502212e+2, -1451777.9, -1547874.1, 493.19287, -0.019119745, -0.22554077, -1451775.3, 66994.39, 0.00028458898, 10.000724, 9.999445 
5.500326e+1, 1.5502238e+2, -1369712.0, -1470793.3, -12714.61, 0.0143973725, -0.1380785, -1368137.3, 52629.996, 0.00007188515, 10.000671, 9.999327 
5.5002797e+1, 1.6502225e+2, -1280848.6, -1362753.5, -12397.08, 0.02037541, -0.091016516, -1279013.4, 43755.563, 0.0000055425044, 10.000548, 9.999455 
5.500214e+1, 1.750213e+2, -1209229.0, -1279979.1, -8287.107, -0.0009272914, -0.13315254, -1208271.3, 16507.336, 0.00000000116644, 10.000379, 9.999433 
5.5001664e+1, 1.8502064e+2, -1116043.4, -1165910.5, -3913.2605, -0.004507314, -0.15050828, -1115738.1, 11047.062, 0.0, 10.000266, 9.9995985 
5.500139e+1, 1.950204e+2, -1029285.5, -1077434.8, 405.18008, 0.0106673, -0.13601926, -1029282.1, -494.78632, 0.0, 10.000207, 9.999561 
5.5001044e+1, 2.0502006e+2, -936043.1, -982576.44, 7678.096, 0.006412059, -0.12682281, -934808.94, -4018.196, 0.0, 10.000177, 9.999554 
5.500062e+1, 2.1501952e+2, -839299.06, -888763.75, -170.7485, -0.0170775, -0.13521896, -839298.44, -6502.696, 0.0, 10.000184, 9.999521 
5.5000407e+1, 2.2501916e+2, -734709.75, -771367.4, -5309.177, -0.01662369, -0.13309209, -733956.3, 843.6887, 0.0, 10.000159, 9.999666 
5.5000377e+1, 2.3501892e+2, -646695.5, -682198.75, -944.657, 0.0073408876, -0.12472435, -646670.4, -9867.319, 0.0, 10.000107, 9.999631 
5.500026e+1, 2.4501866e+2, -567314.44, -607769.9, -141.3865, 0.02255401, -0.10694383, -567313.94, -28507.764, 0.0, 10.000043, 9.9995 
5.500006e+1, 2.5501835e+2, -481580.44, -519290.8, -1613.2009, 0.029353121, -0.08957261, -481511.56, -40702.227, 0.0, 9.999974, 9.999468 
5.499975e+1, 2.6501757e+2, -425467.75, -491408.66, -811.0247, 0.016332088, -0.09144222, -425457.78, -82639.36, 0.0, 9.999903, 9.999021 
5.4999363e+1, 2.750164e+2, -342480.4, -404297.25, -10514.337, -0.014403498, -0.11428796, -340740.97, -95908.32, 0.0, 9.999815, 9.998987 
5.4999113e+1, 2.850161e+2, -240353.4, -288809.56, -12133.831, -0.024361648, -0.05143783, -237484.81, -90647.125, 0.000000014996283, 9.999777, 9.9991255 
5.4998964e+1, 2.950165e+2, -133321.83, -180202.0, 5584.5225, -0.019292055, 0.0759233, -132665.77, -83831.055, 0.0000053587105, 9.999812, 9.999182 
5.4998356e+1, 3.0501354e+2, -110318.49, -164437.23, -6928.8457, -0.03915756, -0.13221738, -109445.48, -109445.48, 0.00006167987, 9.999723, 9.999002 
5.4997844e+1, 3.1501374e+2, -89998.695, -58026.75, 5530.093, -0.025937084, -0.0050509954, -57097.246, -57097.246, 0.00022941288, 9.999446, 9.999867 
6.5005636e+1, 1.2502433e+2, -1645286.8, -1704879.6, 12395.42, 0.003063709, -0.16858405, -1642811.4, 71935.914, 0.001052614, 10.000579, 9.999787 
6.500494e+1, 1.3502494e+2, -1546684.8, -1639523.9, -1925.1036, -0.011795905, -0.054491773, -1546644.9, 70097.23, 0.00060904585, 10.000727, 9.999493 
6.500418e+1, 1.4502273e+2, -1459544.9, -1559986.1, -5726.5415, -0.02235919, -0.22069845, -1459219.5, 59544.848, 0.000254567, 10.000708, 9.999371 
6.500381e+1, 1.5502307e+2, -1389845.9, -1488808.6, 1800.5319, 0.007841684, -0.11815385, -1389813.1, 30948.56, 0.00005931439, 10.00057, 9.999252 
6.5003276e+1, 1.6502288e+2, -1292627.0, -1369104.4, 7996.07, 0.017201789, -0.07208518, -1291799.9, 30963.953, 0.0000034805446, 10.000471, 9.999449 
6.500257e+1, 1.7502175e+2, -1206809.5, -1279452.0, 4025.2864, 0.00404529, -0.1314828, -1206587.1, 18187.453, 0.00000000000024211628, 10.000399, 9.999427 
6.5002066e+1, 1.8502104e+2, -1107132.9, -1165515.0, 2642.0144, 0.0054025166, -0.15319167, -1107013.5, 19768.123, 0.0, 10.000345, 9.999562 
6.5001786e+1, 1.9502084e+2, -1015077.06, -1074123.0, -4263.824, 0.023461426, -0.13050656, -1014770.75, 14012.631, 0.0, 10.00032, 9.999529 
6.5001327e+1, 2.0502044e+2, -932237.56, -984898.06, 2713.2305, 0.01477164, -0.12122955, -932098.1, -1311.0073, 0.0, 10.000222, 9.999516 
6.5000695e+1, 2.1501984e+2, -861566.3, -903676.6, 7558.79, -0.021619095, -0.1370348, -860250.6, -27457.465, 0.0, 10.000051, 9.999483 
6.500038e+1, 2.2501941e+2, -761019.0, -787253.06, 7054.541, -0.02646852, -0.13536225, -759242.3, -24444.555, 0.0, 9.999992, 9.999638 
6.500038e+1, 2.3501919e+2, -658023.2, -690197.06, 351.42807, 0.0003733121, -0.12229784, -658019.3, -21218.797, 0.0, 10.000041, 9.999607 
6.5000266e+1, 2.4501893e+2, -568500.1, -608328.94, -4485.4233, 0.019741865, -0.10283948, -568001.25, -29197.63, 0.0, 10.000034, 9.999501 
6.5000063e+1, 2.5501862e+2, -481634.56, -518679.44, -2622.3694, 0.032473717, -0.08663897, -481449.84, -40642.906, 0.0, 9.99997, 9.999474 
6.499971e+1, 2.6501787e+2, -423776.97, -493425.2, 10041.619, 0.021166764, -0.08658347, -422358.13, -79542.1, 0.0, 9.999926, 9.998996 
6.499925e+1, 2.750167e+2, -330231.94, -401710.8, 17962.885, -0.011767686, -0.105276026, -325971.72, -81141.52, 0.0, 9.999913, 9.998958 
6.4998907e+1, 2.8501636e+2, -230557.22, -278859.78, 9719.391, -0.024080534, -0.043173205, -228674.86, -81839.54, 0.000000013847158, 9.999822, 9.999172 
6.4998645e+1, 2.9501683e+2, -156834.53, -185469.06, -2390.7595, -0.022787336, 0.079216495, -156636.3, -107803.93, 0.0000047556837, 9.999624, 9.999235 
6.499792e+1, 3.0501398e+2, -136994.94, -168987.3, -21929.537, -0.044197213, -0.12092772, -125847.375, -125847.375, 0.000056396846, 9.999504, 9.999077 
6.4997375e+1, 3.1501442e+2, -86894.59, -62258.152, 9648.84, -0.018884275, 0.024145592, -58929.05, -58929.05, 0.00021408794, 9.999492, 9.999816 
7.5006235e+1, 1.25025e+2, -1665750.4, -1748999.5, 17539.313, 0.0029698052, -0.18114986, -1662206.0, 52534.17, 0.0009783517, 10.000585, 9.999482 
7.5005937e+1, 1.3502571e+2, -1562365.0, -1674488.1, 3916.5842, 0.014371393, -0.03193173, -1562228.4, 54506.96, 0.00055803865, 10.000735, 9.9992485 
7.500509e+1, 1.4502354e+2, -1445126.6, -1530827.9, -11245.815, -0.003325087, -0.19208373, -1443675.5, 75082.016, 0.00022607559, 10.000711, 9.999568 
7.500427e+1, 1.5502383e+2, -1376700.1, -1460586.4, -3059.777, -0.0049445685, -0.11364837, -1376588.6, 44165.89, 0.000048170983, 10.0005665, 9.999448 
7.500359e+1, 1.6502362e+2, -1300407.5, -1384231.3, 5493.567, 0.00074341183, -0.074257955, -1300049.0, 22707.535, 0.0000019773436, 10.000466, 9.999347 
7.500309e+1, 1.7502253e+2, -1213724.8, -1294613.9, 1750.2336, 0.015045545, -0.121623896, -1213686.9, 11080.418, 0.0, 10.000402, 9.99932 
7.5002587e+1, 1.8502173e+2, -1119585.8, -1191645.3, 1646.347, 0.021796023, -0.1355214, -1119548.3, 7227.247, 0.0, 10.000347, 9.999382 
7.500208e+1, 1.9502139e+2, -1027946.75, -1100052.6, -4996.962, 0.021336691, -0.10972839, -1027602.06, 1177.409, 0.0, 10.000318, 9.999352 
7.500155e+1, 2.0502093e+2, -923441.6, -965749.5, -3740.203, 0.014789884, -0.10565176, -923113.5, 7670.3066, 0.0, 10.000218, 9.999649 
7.500098e+1, 2.1502031e+2, -852527.0, -884655.3, 1431.5554, 0.0016422325, -0.13452454, -852463.3, -19674.66, 0.0, 10.00005, 9.999614 
7.500062e+1, 2.2501983e+2, -772781.8, -811382.9, 8769.596, -0.0025125083, -0.13746966, -770882.9, -36089.4, 0.0, 9.999991, 9.999473 
7.5000453e+1, 2.3501949e+2, -669888.0, -714661.0, 2375.4724, 0.0029892307, -0.12182212, -669762.3, -32964.324, 0.0, 10.00004, 9.99944 
7.5000155e+1, 2.4501918e+2, -565287.6, -601141.8, -7007.806, 0.00427213, -0.10093294, -563966.6, -25164.816, 0.0, 10.000032, 9.999551 
7.499971e+1, 2.5501892e+2, -478115.88, -511263.75, -5087.3135, -0.00018816652, -0.08354144, -477352.7, -36547.992, 0.0, 9.99997, 9.999525 
7.4999404e+1, 2.6501825e+2, -408779.6, -462050.94, 9065.648, -0.001998491, -0.08892659, -407279.06, -64466.645, 0.0, 9.999926, 9.99921 
7.499932e+1, 2.7501714e+2, -316447.03, -371986.0, 18050.5, 0.003608808, -0.12135965, -311096.06, -66271.484, 0.0, 9.999909, 9.999164 
7.499899e+1, 2.8501683e+2, -255104.27, -329136.4, 2164.5886, 0.0014743507, -0.05086434, -255041.03, -108210.875, 0.000000011324871, 9.999819, 9.998828 
7.499831e+1, 2.9501724e+2, -180122.69, -233950.23, -9972.021, -0.019871462, 0.10204715, -178334.67, -129504.734, 0.000004098041, 9.999625, 9.998902 
7.4997294e+1, 3.050146e+2, -115040.414, -123388.0, -23026.977, -0.05704683, -0.078384176, -95812.02, -95812.02, 0.000050636394, 9.999505, 9.999389 
7.4996734e+1, 3.1501538e+2, -75677.195, -37755.95, 12549.064, -0.032674216, 0.068653025, -33979.285, -33979.285, 0.00019707165, 9.999487, 9.999986 
8.500713e+1, 1.2502566e+2, -1621932.5, -1736512.6, 6146.2173, 0.01710897, -0.18371175, -1621603.8, 93130.12, 0.00090933184, 10.000923, 9.999406 
8.500668e+1, 1.3502641e+2, -1578314.1, -1682921.3, 8435.103, 0.020245617, -0.028025735, -1577638.4, 39090.254, 0.0005120121, 10.00063, 9.999241 
8.500568e+1, 1.4502424e+2, -1475241.1, -1542068.3, -3009.493, -0.0034185217, -0.18971056, -1475105.9, 43644.906, 0.00020159004, 10.00049, 9.999598 
8.500479e+1, 1.5502454e+2, -1382959.9, -1460665.5, -7562.959, -0.00529576, -0.11515812, -1382230.6, 38517.32, 0.000039447743, 10.000512, 9.999473 
8.500406e+1, 1.6502431e+2, -1299212.4, -1386153.3, -1643.0565, 0.0007224629, -0.07658738, -1299181.4, 23568.662, 0.0000010481418, 10.000486, 9.999324 
8.500353e+1, 1.7502323e+2, -1210934.3, -1295754.8, -48.469154, 0.017321689, -0.120240815, -1210934.3, 13826.4375, 0.0, 10.000432, 9.999298 
8.500296e+1, 1.8502243e+2, -1119539.0, -1197456.6, 8541.955, 0.02317675, -0.13012408, -1118613.5, 8155.3984, 0.0, 10.000372, 9.999331 
8.500233e+1, 1.9502208e+2, -1034094.25, -1108429.6, 11708.889, 0.016375955, -0.10010717, -1032293.5, -3520.1204, 0.0, 10.0002985, 9.999304 
8.500177e+1, 2.0502162e+2, -915134.1, -964583.2, 11767.878, 0.011632524, -0.092888914, -912476.44, 18301.479, 0.0, 10.000288, 9.999623 
8.5001254e+1, 2.15021e+2, -812041.5, -868220.44, 4419.827, 0.009655804, -0.11953389, -811695.9, 21086.889, 0.0, 10.0003395, 9.999587 
8.5000795e+1, 2.2502042e+2, -738349.6, -796118.25, 10359.455, 0.0041215783, -0.1296649, -736548.1, -1759.9404, 0.0, 10.000233, 9.999461 
8.500039e+1, 2.3501989e+2, -679926.6, -720505.8, 15069.547, -0.0044239783, -0.12938923, -674942.5, -38148.8, 0.0, 9.999976, 9.999431 
8.499999e+1, 2.4501953e+2, -592449.6, -623934.4, 11120.785, -0.007424714, -0.1100855, -588917.8, -50119.56, 0.0, 9.999887, 9.999465 
8.499961e+1, 2.5501934e+2, -484566.2, -524216.84, 2543.8503, -0.0070838793, -0.07973957, -484403.66, -43602.125, 0.0, 9.999969, 9.999437 
8.499927e+1, 2.6501867e+2, -403734.06, -442730.78, 3579.6084, -0.006807905, -0.08356537, -403408.2, -60599.453, 0.0, 9.9998865, 9.999362 
8.4999055e+1, 2.7501765e+2, -345590.7, -368674.28, 7224.395, -0.000019003228, -0.1259187, -343516.16, -98696.625, 0.0, 9.999634, 9.99932 
8.499873e+1, 2.8501737e+2, -294438.88, -355228.63, 5638.1187, 0.006213531, -0.05758782, -293920.38, -147095.66, 0.000000007967864, 9.999578, 9.998766 
8.499816e+1, 2.9501778e+2, -167745.4, -234664.77, 14142.553, -0.002240631, 0.10397611, -164879.31, -116054.46, 0.0000034232567, 9.999739, 9.998843 
8.499694e+1, 3.050153e+2, -86124.09, -105173.87, -4700.9736, -0.051201034, -0.063454084, -85027.18, -85027.18, 0.00004462947, 9.999683, 9.999428 
8.499598e+1, 3.150161e+2, -102856.11, -63592.91, 11825.015, -0.050099205, 0.081912264, -60306.598, -60306.598, 0.00017893763, 9.999353, 9.999872 
9.5008284e+1, 1.250263e+2, -1611866.8, -1715779.5, -4401.6216, 0.039304294, -0.1752049, -1611680.6, 103047.71, 0.0008487081, 10.000923, 9.999548 
9.500718e+1, 1.3502702e+2, -1562737.0, -1651764.8, -2306.5508, 0.0064431964, -0.043392006, -1562677.4, 54044.64, 0.00047347447, 10.000634, 9.999454 
9.500599e+1, 1.4502482e+2, -1483383.8, -1559461.9, -2368.3762, -0.02327338, -0.21369328, -1483310.0, 35434.29, 0.00018256163, 10.000493, 9.999477 
9.500538e+1, 1.5502512e+2, -1391537.9, -1479514.3, -6242.903, 0.0011555934, -0.12315997, -1391097.1, 29645.033, 0.00003354367, 10.000516, 9.999342 
9.500466e+1, 1.6502492e+2, -1295997.4, -1379695.9, -3526.4636, 0.011690324, -0.07952292, -1295849.1, 26895.383, 0.00000057940093, 10.000487, 9.999368 
9.5003897e+1, 1.7502385e+2, -1207651.6, -1288522.0, -1719.8303, 0.011154238, -0.12714516, -1207615.1, 17139.682, 0.0, 10.00043, 9.999349 
9.50032e+1, 1.8502313e+2, -1113661.4, -1185055.5, 5693.478, 0.009418035, -0.13625817, -1113210.1, 13551.929, 0.0, 10.000371, 9.999416 
9.500254e+1, 1.9502293e+2, -1028145.06, -1096305.8, 9253.726, 0.00621841, -0.10172035, -1026911.1, 1854.0499, 0.0, 10.0003, 9.999386 
9.500198e+1, 2.0502251e+2, -928489.56, -992271.6, 13612.631, 0.0033467181, -0.08284691, -925705.8, 5063.68, 0.0, 10.000288, 9.9994335 
9.500151e+1, 2.1502186e+2, -825028.2, -894996.5, 6584.5396, 0.0010786579, -0.0922262, -824413.94, 8361.587, 0.0, 10.000339, 9.999404 
9.500091e+1, 2.2502117e+2, -728875.3, -776144.3, 470.97894, -0.0076967017, -0.11197872, -728870.6, 5911.103, 0.0, 10.000232, 9.9995985 
9.5000184e+1, 2.3502046e+2, -670410.56, -700324.94, 5481.9673, -0.022718934, -0.14532304, -669437.56, -32649.854, 0.0, 9.999974, 9.99957 
9.4999796e+1, 2.4502002e+2, -608080.94, -656124.1, 13779.246, -0.016178537, -0.1292736, -604409.5, -65616.59, 0.0, 9.9998865, 9.999244 
9.4999754e+1, 2.550198e+2, -500797.2, -557377.2, 5910.818, 0.010449467, -0.076068126, -500186.28, -59388.77, 0.0, 9.999966, 9.99921 
9.4999284e+1, 2.650192e+2, -398390.7, -431131.03, -6125.188, 0.0059120012, -0.07127068, -397282.3, -54477.184, 0.0, 9.999885, 9.999443 
9.4998443e+1, 2.750182e+2, -338916.16, -355000.9, -2464.7402, -0.024687763, -0.119214125, -338546.94, -93731.836, 0.0, 9.999634, 9.9994135 
9.4998133e+1, 2.8501794e+2, -278398.4, -321867.1, 10900.771, -0.012333078, -0.06260859, -275817.97, -128999.01, 0.0000000042394483, 9.999578, 9.998995 
9.4998217e+1, 2.9501843e+2, -153693.39, -204274.22, 20832.02, 0.028791977, 0.083942086, -146218.31, -97401.164, 0.000002739973, 9.999734, 9.999054 
9.499686e+1, 3.0501598e+2, -103574.305, -139504.17, -16878.418, -0.027935755, -0.07701881, -96889.3, -96889.3, 0.000038513957, 9.999677, 9.999195 
9.49951e+1, 3.150165e+2, -131255.69, -122082.12, 2016.2523, -0.074798666, 0.063421346, -121658.53, -121658.53, 0.00016010099, 9.9993515, 9.999472 
1.0500899e+2, 1.2502715e+2, -1643682.3, -1724267.3, 8121.9517, 0.029974217, -0.16956863, -1642871.8, 71848.56, 0.00079770345, 10.000676, 9.999608 
1.0500792e+2, 1.3502784e+2, -1551951.5, -1630163.3, 3179.3884, 0.017406972, -0.055046484, -1551822.4, 64890.96, 0.0004431459, 10.000639, 9.9995985 
1.0500666e+2, 1.4502569e+2, -1474265.0, -1566636.1, 8260.798, -0.010937416, -0.22455987, -1473532.1, 45203.348, 0.00016917764, 10.000605, 9.999374 
1.0500593e+2, 1.5502602e+2, -1386952.1, -1489425.5, 4818.26, 0.0011370594, -0.11979065, -1386726.0, 34007.51, 0.000030278157, 10.000599, 9.999234 
1.0500512e+2, 1.6502577e+2, -1292828.6, -1381490.1, 2345.8906, 0.007885858, -0.07243638, -1292766.5, 29970.08, 0.0000004316036, 10.000523, 9.99934 
1.0500429e+2, 1.7502463e+2, -1218961.9, -1296827.4, -1207.7289, 0.010054611, -0.124626964, -1218943.1, 5804.574, 0.0, 10.000365, 9.999324 
1.0500354e+2, 1.8502389e+2, -1121618.5, -1185672.9, 5182.1235, 0.010766636, -0.13535058, -1121201.9, 5553.1426, 0.0, 10.000302, 9.999445 
1.0500291e+2, 1.9502372e+2, -1019647.7, -1089656.3, 3499.3962, 0.010804214, -0.10022232, -1019473.2, 9284.371, 0.0, 10.000346, 9.999411 
1.05002284e+2, 2.0502332e+2, -932521.5, -997925.1, 10028.562, 0.0052972874, -0.07947049, -931018.3, -256.51465, 0.0, 10.000275, 9.999401 
1.0500164e+2, 2.1502267e+2, -864122.25, -916834.44, 14573.429, -0.0067242454, -0.08588537, -860361.44, -27593.367, 0.0, 10.000085, 9.999376 
1.05001e+2, 2.2502199e+2, -757404.75, -792360.9, 8416.35, -0.012908277, -0.10267581, -755483.9, -20709.408, 0.0, 10.000047, 9.999577 
1.0500035e+2, 2.350213e+2, -644843.25, -691091.3, 939.9355, -0.013340413, -0.13220473, -644824.2, -8043.6846, 0.0, 10.000162, 9.999543 
1.049999e+2, 2.4502084e+2, -579361.25, -641662.94, 10782.383, -0.004125863, -0.11637938, -577547.94, -38762.176, 0.0, 10.00008, 9.99925 
1.0499967e+2, 2.550206e+2, -524010.25, -567631.56, 19192.377, 0.013560836, -0.06825124, -516768.34, -75977.74, 0.0, 9.999803, 9.999219 
1.0499906e+2, 2.6501995e+2, -425668.9, -449896.7, 13147.207, 0.003716092, -0.061240688, -419905.56, -77107.25, 0.0, 9.99972, 9.999395 
1.04998134e+2, 2.7501902e+2, -313780.03, -348310.44, 6517.637, -0.028890617, -0.09923214, -312590.78, -67782.484, 0.0, 9.999829, 9.999367 
1.0499775e+2, 2.8501874e+2, -245100.8, -290311.03, 10986.472, -0.016424008, -0.0508539, -242572.39, -95760.2, 0.0000000012344323, 9.99974, 9.999135 
1.04997784e+2, 2.9501912e+2, -187183.63, -205091.19, 14457.312, 0.02788953, 0.071950346, -179132.0, -130321.71, 0.0000020653147, 9.999434, 9.999194 
1.0499636e+2, 3.0501682e+2, -139479.17, -150303.97, -12492.569, -0.030875629, -0.08480017, -131276.94, -131276.94, 0.00003243676, 9.999398, 9.999258 
1.0499466e+2, 3.1501734e+2, -100191.625, -118776.93, 28599.748, -0.06702457, 0.04762117, -79412.71, -79412.71, 0.00014094144, 9.999615, 9.999369 
1.1500925e+2, 1.2502818e+2, -1644055.1, -1726690.5, 6853.681, -0.013622238, -0.17001447, -1643490.6, 71219.67, 0.0007564602, 10.000683, 9.999588 
1.1500887e+2, 1.3502887e+2, -1546461.4, -1618405.6, 1742.3683, 0.047326174, -0.062658966, -1546419.1, 70283.734, 0.00042056636, 10.000637, 9.999681 
1.1500765e+2, 1.4502679e+2, -1482230.0, -1581825.1, 8289.111, 0.02704698, -0.22197887, -1481544.8, 37179.363, 0.00016082273, 10.000599, 9.999272 
1.1500647e+2, 1.5502715e+2, -1393398.4, -1503850.8, 5424.323, -0.0058393925, -0.106110394, -1393132.6, 27590.055, 0.000029173776, 10.000604, 9.999133 
1.1500547e+2, 1.6502686e+2, -1297789.4, -1392959.4, -4037.6025, -0.010881424, -0.055438478, -1297618.4, 25108.412, 0.0000005105562, 10.000527, 9.999259 
1.15004666e+2, 1.7502557e+2, -1224804.9, -1309326.0, -6939.7056, 0.01110976, -0.1120363, -1224238.9, 500.54495, 0.0, 10.000366, 9.999237 
1.1500398e+2, 1.8502474e+2, -1124668.4, -1191761.0, 6813.058, 0.024062019, -0.12717447, -1123983.6, 2764.3027, 0.0, 10.000301, 9.999403 
1.1500345e+2, 1.9502448e+2, -1022180.44, -1094819.0, 5495.6924, 0.02960809, -0.095746174, -1021767.0, 6983.7397, 0.0, 10.000345, 9.999375 
1.1500267e+2, 2.0502405e+2, -923941.56, -979762.4, 2719.3262, 0.016713016, -0.08234558, -923809.44, 6945.416, 0.0, 10.000274, 9.999527 
1.1500165e+2, 2.1502343e+2, -855339.5, -898350.06, 7622.3096, -0.014567904, -0.10062246, -854028.6, -21268.053, 0.0, 10.000084, 9.999503 
1.1500105e+2, 2.2502285e+2, -770630.56, -819428.94, 12587.891, -0.012436653, -0.10177316, -767574.75, -32808.31, 0.0, 10.000046, 9.999392 
1.1500087e+2, 2.3502238e+2, -658062.75, -718235.4, 5600.5674, 0.022952752, -0.08998372, -657545.9, -20773.9, 0.0, 10.000161, 9.999358 
1.150003e+2, 2.4502198e+2, -564118.56, -609457.8, 84.74505, 0.027635336, -0.07117223, -564118.44, -25341.652, 0.0, 10.000078, 9.999473 
1.1499935e+2, 2.5502163e+2, -507841.47, -533694.0, 8791.748, 0.00045734437, -0.056213, -505134.97, -64354.117, 0.0, 9.999801, 9.999454 
1.14998594e+2, 2.65021e+2, -437642.25, -474680.4, 16766.232, -0.014612994, -0.053122204, -431180.1, -88391.695, 0.0, 9.99972, 9.999226 
1.14998125e+2, 2.7502012e+2, -327283.53, -375598.63, 10861.335, -0.013105168, -0.066814534, -324954.2, -80155.07, 0.0, 9.999826, 9.999181 
1.1499759e+2, 2.8501973e+2, -242410.52, -283006.8, -740.0451, -0.0057351463, -0.023120834, -242397.03, -95592.555, 0.00000000006210851, 9.999733, 9.999188 
1.14996865e+2, 2.9501987e+2, -182706.7, -195347.67, 3547.7998, -0.007835163, 0.06790522, -181779.06, -132974.81, 0.0000014487281, 9.9994335, 9.999262 
1.1499544e+2, 3.050178e+2, -114142.07, -97063.15, -4559.1235, -0.0625942, -0.086653545, -95922.32, -95922.32, 0.000026628812, 9.999396, 9.999624 
1.14994645e+2, 3.1501853e+2, -88081.06, -91825.49, 38381.285, -0.030424435, 0.033453472, -51526.36, -51526.36, 0.00012196842, 9.999607, 9.9995575 
1.2500997e+2, 1.2502927e+2, -1662449.3, -1747354.9, 15387.788, -0.006966786, -0.17454195, -1659746.5, 54952.65, 0.0007247361, 10.000608, 9.999483 
1.2500952e+2, 1.3503003e+2, -1548638.6, -1621496.8, -95.659515, 0.050884116, -0.059042428, -1548638.5, 68053.086, 0.00040489552, 10.000632, 9.999662 
1.2500829e+2, 1.4502795e+2, -1482273.9, -1579902.1, 7141.3887, 0.031970125, -0.21639165, -1481754.3, 36958.54, 0.00015657058, 10.000589, 9.999291 
1.2500715e+2, 1.550282e+2, -1408975.1, -1509404.9, 13123.035, 0.008677183, -0.114003256, -1407288.6, 13423.491, 0.000029665785, 10.000488, 9.999151 
1.2500611e+2, 1.6502789e+2, -1303808.0, -1403410.9, 10995.163, 0.0009974109, -0.06074906, -1302608.8, 20107.672, 0.0000007617598, 10.000518, 9.999192 
1.2500516e+2, 1.7502674e+2, -1183421.4, -1297314.0, 8082.548, 0.007900179, -0.09773, -1182850.6, 41877.61, 0.0, 10.000683, 9.999168 
1.2500435e+2, 1.8502589e+2, -1083964.5, -1176913.0, 17777.795, 0.016638096, -0.110681005, -1080680.3, 46056.93, 0.0, 10.0006, 9.999363 
1.2500373e+2, 1.9502543e+2, -1036876.44, -1106160.8, 16294.553, 0.02729966, -0.09371789, -1033235.5, -4493.8945, 0.0, 10.000263, 9.999337 
1.2500292e+2, 2.0502491e+2, -944862.44, -986879.2, 12972.533, 0.021280859, -0.08854972, -941179.94, -10433.607, 0.0, 10.000117, 9.999554 
1.250019e+2, 2.150243e+2, -841588.1, -889313.7, 9471.7295, -0.0015140958, -0.10858888, -839777.06, -7025.276, 0.0, 10.000166, 9.999527 
1.2500125e+2, 2.2502379e+2, -762113.9, -822898.56, 18197.686, -0.0016541154, -0.10210248, -757082.4, -22324.951, 0.0, 10.000135, 9.999325 
1.2500094e+2, 2.3502342e+2, -682243.94, -736921.75, 19684.498, 0.020487389, -0.073598884, -675894.7, -39131.773, 0.0, 10.000026, 9.999294 
1.2500028e+2, 2.4502303e+2, -571125.44, -604347.56, 9429.475, 0.022541638, -0.05483952, -568635.7, -29867.996, 0.0, 9.999993, 9.999549 
1.24999285e+2, 2.550226e+2, -469076.13, -506741.84, 6746.5664, 0.0024923033, -0.054747626, -467904.16, -27132.457, 0.0, 10.000031, 9.999528 
1.2499842e+2, 2.65022e+2, -415327.06, -466728.34, 14787.159, -0.012423793, -0.04982276, -411376.7, -68597.87, 0.0, 9.999885, 9.999201 
1.2499778e+2, 2.7502128e+2, -368570.66, -398977.94, 19339.613, -0.016159, -0.047138937, -359174.1, -114385.125, 0.0, 9.999556, 9.999152 
1.2499717e+2, 2.8502086e+2, -283741.13, -303145.8, 13402.626, -0.0066571985, -0.004071208, -276897.63, -130102.76, 0.0, 9.999448, 9.999188 
1.2499642e+2, 2.9502085e+2, -166724.16, -187229.14, 12523.538, -0.00047726816, 0.07245267, -160791.69, -111995.78, 0.00000094519226, 9.999542, 9.999266 
1.249949e+2, 3.0501908e+2, -90619.58, -58843.477, -525.60803, -0.05935586, -0.064407155, -58834.785, -58834.785, 0.000021325412, 9.999443, 9.999865 
1.2499406e+2, 3.1501988e+2, -151075.55, -112700.836, 33698.754, -0.025185322, 0.037312288, -93109.84, -93109.84, 0.00010374953, 9.999133, 9.999643 
1.3501109e+2, 1.2503046e+2, -1678957.6, -1779073.0, 17004.479, 0.044340126, -0.17859063, -1676148.3, 38538.527, 0.0007016644, 10.000598, 9.99927 
1.3500993e+2, 1.3503125e+2, -1556711.6, -1641084.3, 1576.1, 0.02624279, -0.04574839, -1556682.1, 59997.797, 0.00039489288, 10.000644, 9.999522 
1.3500859e+2, 1.4502913e+2, -1470101.4, -1556842.3, 2085.1025, 0.002046002, -0.20960641, -1470051.4, 48650.246, 0.00015526546, 10.000599, 9.999445 
1.3500796e+2, 1.5502918e+2, -1398991.0, -1487891.9, 9292.842, 0.040798333, -0.14208847, -1398030.0, 22671.855, 0.000031126172, 10.000484, 9.9993 
1.3500701e+2, 1.6502893e+2, -1308976.9, -1413017.1, 17150.324, 0.039094683, -0.08730607, -1306222.6, 16482.654, 0.0000011270397, 10.000513, 9.999129 
1.3500576e+2, 1.7502813e+2, -1187231.0, -1305738.5, 14786.091, -0.00069583766, -0.08280452, -1185414.0, 39300.52, 0.0, 10.000686, 9.999109 
1.3500467e+2, 1.8502732e+2, -1085696.8, -1181111.1, 4782.9756, -0.012486394, -0.08639913, -1085457.6, 41265.68, 0.0, 10.000602, 9.999333 
1.3500375e+2, 1.9502659e+2, -1039275.06, -1111270.9, 3810.7998, 0.0027590757, -0.09422039, -1039073.94, -10343.592, 0.0, 10.000263, 9.999302 
1.3500299e+2, 2.0502594e+2, -950552.94, -998338.75, 14607.851, 0.017459001, -0.098023064, -946441.2, -15704.828, 0.0, 10.000115, 9.9994755 
1.350024e+2, 2.1502532e+2, -847364.2, -900823.44, 11750.265, 0.031697206, -0.109721355, -844895.5, -12153.856, 0.0, 10.000163, 9.999449 
1.3500158e+2, 2.2502479e+2, -759399.44, -816471.1, 13938.541, 0.017806565, -0.10256137, -756177.1, -21429.768, 0.0, 10.000133, 9.999371 
1.3500053e+2, 2.3502438e+2, -678567.75, -729147.8, 15836.673, -0.022469608, -0.0836943, -674018.44, -37265.13, 0.0, 10.000025, 9.999349 
1.3499984e+2, 2.4502394e+2, -575637.8, -613592.75, 10647.436, -0.02102697, -0.06850162, -572854.94, -34096.29, 0.0, 9.999992, 9.999486 
1.3499948e+2, 2.550235e+2, -474314.56, -517259.66, 8400.822, 0.019342065, -0.06397635, -472729.7, -31966.5, 0.0, 10.00003, 9.999457 
1.3499853e+2, 2.6502302e+2, -408017.78, -450396.47, 2149.793, 0.010264654, -0.05133199, -407909.0, -65139.43, 0.0, 9.999881, 9.999314 
1.3499708e+2, 2.7502245e+2, -359660.75, -380035.25, 7445.6235, -0.04140788, -0.039757967, -357229.88, -112452.07, 0.0, 9.999555, 9.999282 
1.3499646e+2, 2.8502214e+2, -287337.7, -310651.25, 16795.46, -0.022498513, 0.006080341, -278550.2, -131766.84, 0.0, 9.999448, 9.999137 
1.3499646e+2, 2.9502207e+2, -171833.78, -196763.33, 16665.39, 0.047922097, 0.08499728, -163487.36, -114701.98, 0.0000005800232, 9.9995365, 9.999203 
1.3499472e+2, 3.0502066e+2, -83459.516, -41089.863, -12755.916, -0.02152858, -0.019556465, -37545.953, -37545.953, 0.000016654767, 9.999433, 9.99999 
1.349929e+2, 3.1502137e+2, -152444.28, -113211.5, 22807.434, -0.054766037, 0.059651893, -102744.98, -102744.98, 0.00008670888, 9.999126, 9.999642 
1.4501198e+2, 1.2503158e+2, -1667073.5, -1776226.5, 891.7934, 0.06982775, -0.16844124, -1667066.3, 47609.836, 0.0006852014, 10.000691, 9.999245 
1.4501053e+2, 1.3503224e+2, -1564960.0, -1639117.5, -2700.6492, 0.026681531, -0.053417254, -1564861.9, 51808.508, 0.00038852147, 10.000562, 9.999575 
1.4500909e+2, 1.450302e+2, -1472383.4, -1554345.0, 3047.6787, -0.0068941345, -0.21485154, -1472270.3, 46421.008, 0.00015533686, 10.000567, 9.999477 
1.4500856e+2, 1.5503031e+2, -1365383.0, -1468596.9, -35.804577, 0.04144146, -0.14328218, -1365383.0, 55307.918, 0.00003278088, 10.000701, 9.999329 
1.4500764e+2, 1.6503009e+2, -1284175.4, -1393937.1, 7794.2964, 0.04550722, -0.089917086, -1283624.6, 39069.273, 0.0000015078091, 10.000651, 9.999192 
1.4500639e+2, 1.7502932e+2, -1221095.8, -1314915.0, 14352.362, 0.006613803, -0.089413166, -1218949.3, 5753.241, 0.0, 10.0004225, 9.999173 
1.450052e+2, 1.8502851e+2, -1127913.6, -1210377.8, 4055.2598, -0.0072240015, -0.09200565, -1127714.8, -1003.49, 0.0, 10.000351, 9.999253 
1.4500411e+2, 1.9502774e+2, -1019112.5, -1110838.6, -1249.7358, 0.0029469845, -0.09619289, -1019095.5, 9623.705, 0.0, 10.000441, 9.999221 
1.4500321e+2, 2.0502704e+2, -912097.3, -982179.8, 12547.939, 0.014779261, -0.09822746, -909918.44, 20807.28, 0.0, 10.000389, 9.9994545 
1.4500254e+2, 2.1502642e+2, -843717.8, -901045.06, 13514.592, 0.027561873, -0.10739866, -840691.56, -7960.887, 0.0, 10.000198, 9.999431 
1.4500165e+2, 2.2502588e+2, -766908.3, -818623.2, 17053.78, 0.013382178, -0.10280133, -761790.94, -27054.37, 0.0, 10.000074, 9.999384 
1.4500052e+2, 2.3502539e+2, -678236.8, -727485.8, 16111.976, -0.026476165, -0.092752405, -673434.06, -36690.934, 0.0, 10.000021, 9.999362 
1.4499974e+2, 2.4502495e+2, -587408.44, -617698.75, 13308.238, -0.026358344, -0.080000594, -582392.1, -43643.527, 0.0, 9.999905, 9.9995 
1.4499928e+2, 2.5502455e+2, -517442.16, -536914.6, 16437.594, 0.01092919, -0.07031297, -508073.72, -67320.92, 0.0, 9.999728, 9.999467 
1.4499822e+2, 2.6502416e+2, -444123.66, -463858.06, 6182.8926, 0.006099359, -0.049071312, -442346.53, -99588.266, 0.0, 9.999615, 9.999351 
1.449967e+2, 2.7502376e+2, -358692.0, -374794.53, 5124.329, -0.034079645, -0.027224788, -357199.6, -112434.414, 0.0, 9.999541, 9.999324 
1.4499599e+2, 2.8502342e+2, -280768.47, -304638.5, 23110.72, -0.016257916, 0.010743718, -266692.9, -119921.734, 0.0, 9.999482, 9.999162 
1.4499587e+2, 2.9502314e+2, -183850.38, -201359.75, 28687.46, 0.040553674, 0.06603988, -162611.48, -113836.26, 0.00000034163278, 9.999448, 9.999215 
1.4499411e+2, 3.0502206e+2, -71384.56, -33887.695, -6227.2476, -0.028488789, -0.004250992, -32880.563, -32880.563, 0.000012640429, 9.999507, 10.000005 
1.449925e+2, 3.1502277e+2, -91300.9, -92589.4, 18412.307, -0.028504778, 0.071836196, -73521.57, -73521.57, 0.000071064576, 9.999582, 9.999565 
1.5501264e+2, 1.2503256e+2, -1653702.9, -1750789.8, -3431.4324, 0.06455925, -0.14897926, -1653581.8, 61085.832, 0.0006719969, 10.000701, 9.999414 
1.5501131e+2, 1.3503301e+2, -1547715.8, -1602748.8, -7740.4272, 0.047165893, -0.08062017, -1546647.8, 70014.91, 0.00038301162, 10.000558, 9.999826 
1.5500973e+2, 1.4503114e+2, -1479808.4, -1568126.4, 7729.3325, 0.00010944576, -0.23034894, -1479137.0, 39544.58, 0.00015494693, 10.000561, 9.999386 
1.5500896e+2, 1.5503158e+2, -1371476.4, -1482169.0, 5474.039, 0.0088775065, -0.118717596, -1371206.4, 49473.055, 0.000033834087, 10.000705, 9.999233 
1.5500805e+2, 1.6503136e+2, -1269577.3, -1365040.3, -1519.3704, 0.018661603, -0.070103295, -1269553.0, 53129.227, 0.0000017896223, 10.000657, 9.999389 
1.5500702e+2, 1.7503032e+2, -1207606.1, -1286705.9, 5780.452, 0.027676731, -0.11650778, -1207185.9, 17506.137, 0.0, 10.000422, 9.999367 
1.5500592e+2, 1.8502945e+2, -1137249.4, -1229497.9, 7174.881, 0.029649412, -0.1264728, -1136694.8, -9993.672, 0.0, 10.000349, 9.999124 
1.5500477e+2, 1.9502886e+2, -1028058.06, -1129361.5, 2406.752, 0.026628446, -0.09998496, -1028000.94, 707.33813, 0.0, 10.000441, 9.999094 
1.5500359e+2, 2.0502827e+2, -909752.8, -977029.9, 5093.5356, 0.011717975, -0.0889612, -909369.4, 21344.895, 0.0, 10.000388, 9.999491 
1.5500233e+2, 2.1502763e+2, -841209.06, -895793.75, 6601.637, -0.015470306, -0.10266056, -840422.0, -7702.861, 0.0, 10.000197, 9.999468 
1.5500142e+2, 2.2502704e+2, -767988.0, -820544.06, 14808.605, -0.016664121, -0.10402265, -764102.6, -29377.477, 0.0, 10.0000725, 9.999372 
1.5500088e+2, 2.3502648e+2, -679617.94, -730134.9, 14359.539, 0.008346332, -0.10065069, -675821.5, -39089.227, 0.0, 10.000019, 9.999345 
1.5499997e+2, 2.4502605e+2, -581645.94, -605157.6, 6438.4355, 0.005618741, -0.088362224, -579998.3, -41260.824, 0.0, 9.999903, 9.999587 
1.5499865e+2, 2.550258e+2, -510961.1, -523498.1, 10187.785, -0.026019247, -0.07398337, -505267.78, -64527.207, 0.0, 9.999728, 9.999559 
1.5499751e+2, 2.6502553e+2, -446948.1, -469576.5, 3460.9468, -0.028023241, -0.044405844, -446430.6, -103685.44, 0.0, 9.999615, 9.9993105 
1.5499665e+2, 2.7502522e+2, -361912.28, -380668.75, 2466.4424, 0.0048250617, -0.009768701, -361593.38, -116842.164, 0.0, 9.999538, 9.999285 
1.5499575e+2, 2.8502467e+2, -274030.56, -289984.72, 21378.658, 0.012085422, 0.009326263, -259189.22, -112430.82, 0.0, 9.999478, 9.999265 
1.5499467e+2, 2.95024e+2, -176511.34, -186819.2, 28732.299, -0.025326358, 0.015135849, -152474.38, -103708.86, 0.00000019535571, 9.999451, 9.999314 
1.5499304e+2, 3.050233e+2, -78773.69, -48944.703, -2712.8516, -0.08488778, -0.018905444, -48699.984, -48699.984, 0.000009261703, 9.999507, 9.999901 
1.5499285e+2, 3.1502408e+2, -103688.04, -116817.734, 21859.45, 0.044905055, 0.075139835, -87428.94, -87428.94, 0.000056915687, 9.999576, 9.9994 
1.6501333e+2, 1.2503345e+2, -1664066.1, -1754469.0, 1901.632, 0.06717309, -0.14469928, -1664026.1, 50633.56, 0.00065754744, 10.000621, 9.999428 
1.6501199e+2, 1.3503394e+2, -1534026.3, -1586800.4, -18425.926, 0.058371045, -0.079767615, -1528229.5, 88424.76, 0.00037533476, 10.00061, 9.99991 
1.6501035e+2, 1.450323e+2, -1480204.6, -1561902.3, -52.563442, 0.007388551, -0.21517463, -1480204.6, 38466.484, 0.00015252095, 10.000529, 9.999443 
1.6500945e+2, 1.5503283e+2, -1414348.4, -1496495.8, 8198.586, 0.005869749, -0.09935204, -1413538.1, 7129.9253, 0.000033788867, 10.000383, 9.99929 
1.6500853e+2, 1.6503261e+2, -1306547.0, -1377928.5, 165.39433, 0.015240907, -0.055838887, -1306546.6, 16124.203, 0.0000018950186, 10.000382, 9.999432 
1.6500753e+2, 1.7503148e+2, -1189281.1, -1273371.4, -4896.9946, 0.031678934, -0.115148135, -1188996.9, 35684.29, 0.0, 10.000527, 9.999408 
1.6500643e+2, 1.8503061e+2, -1111911.9, -1215862.1, -2831.2798, 0.03580347, -0.12853348, -1111834.8, 14855.24, 0.0, 10.000517, 9.999136 
1.650052e+2, 1.9503011e+2, -1038641.25, -1132999.8, 2478.3396, 0.028867204, -0.095093764, -1038576.25, -9879.822, 0.0, 10.000361, 9.999106 
1.6500391e+2, 2.050295e+2, -928434.75, -991769.56, 5328.6323, 0.010155181, -0.08222465, -927989.56, 2713.0046, 0.0, 10.000284, 9.99944 
1.650025e+2, 2.1502878e+2, -831632.9, -896687.3, -154.9687, -0.021058442, -0.09983659, -831632.5, 1076.0437, 0.0, 10.000286, 9.999418 
1.6500148e+2, 2.2502819e+2, -752043.06, -808431.06, 5415.3135, -0.021775197, -0.10027007, -751527.75, -16813.225, 0.0, 10.000163, 9.999411 
1.6500086e+2, 2.3502775e+2, -691601.9, -731528.25, 8557.424, 0.008052525, -0.08900794, -689845.06, -53124.836, 0.0, 9.999919, 9.999384 
1.6499981e+2, 2.4502733e+2, -605716.94, -621196.4, -866.0717, 0.007953583, -0.076303735, -605668.6, -66943.28, 0.0, 9.999756, 9.999548 
1.6499837e+2, 2.5502697e+2, -522183.0, -532522.9, -6676.2095, -0.023629952, -0.06929574, -518909.0, -78179.195, 0.0, 9.999667, 9.999526 
1.6499715e+2, 2.6502666e+2, -442861.6, -468283.56, -12053.357, -0.027798088, -0.039913688, -438055.38, -95320.73, 0.0, 9.999646, 9.999304 
1.6499622e+2, 2.750264e+2, -340142.1, -371401.03, -11396.938, 0.0015144862, 0.00092594075, -336428.06, -91688.04, 0.0, 9.999693, 9.999273 
1.6499522e+2, 2.8502578e+2, -256343.16, -277510.38, 1023.27515, 0.007369469, 0.011958178, -256293.8, -109546.13, 0.0, 9.999583, 9.999299 
1.64994e+2, 2.95025e+2, -196799.97, -192651.3, 2844.2937, -0.029277377, -0.0014681958, -191205.28, -142449.28, 0.00000010392393, 9.999296, 9.999347 
1.6499239e+2, 3.050246e+2, -105568.91, -63537.9, -13477.817, -0.09248667, -0.004974953, -59587.367, -59587.367, 0.0000064948904, 9.99933, 9.999885 
1.6499248e+2, 3.1502506e+2, -91816.484, -112275.414, 15113.319, 0.047324777, 0.058576103, -83796.17, -83796.17, 0.00004432351, 9.999661, 9.999389 
1.75014e+2, 1.2503427e+2, -1674302.5, -1775354.8, 3475.054, 0.07196045, -0.15307355, -1674183.1, 40469.16, 0.0006370072, 10.000619, 9.999286 
1.7501262e+2, 1.3503504e+2, -1539164.4, -1598867.0, -18272.066, 0.058594674, -0.052513395, -1534016.1, 82629.195, 0.00036284848, 10.000616, 9.999825 
1.7501093e+2, 1.4503363e+2, -1464954.0, -1531602.1, -6447.05, 0.013286997, -0.17155452, -1464336.0, 54323.973, 0.00014707113, 10.000535, 9.999649 
1.7501009e+2, 1.5503408e+2, -1399688.3, -1466160.4, 2828.668, 0.029213678, -0.08368593, -1399568.1, 21088.732, 0.00003249045, 10.000383, 9.999498 
1.750091e+2, 1.6503386e+2, -1314144.3, -1393679.9, 5205.1675, 0.03179557, -0.04552603, -1313805.1, 8854.504, 0.0000018022155, 10.000382, 9.999325 
1.7500792e+2, 1.7503281e+2, -1197038.9, -1289337.3, 750.16736, 0.017408086, -0.085849755, -1197032.8, 27637.09, 0.0, 10.000526, 9.999298 
1.7500667e+2, 1.8503197e+2, -1101101.1, -1193666.4, -8920.251, 0.009190062, -0.09856536, -1100249.4, 26428.998, 0.0, 10.000518, 9.999288 
1.7500536e+2, 1.9503145e+2, -1028112.4, -1110983.3, -3128.9692, 0.008726133, -0.081768155, -1027994.4, 689.3034, 0.0, 10.0003605, 9.999258 
1.7500418e+2, 2.0503074e+2, -938078.3, -1011595.3, 5224.4316, 0.008873365, -0.077898405, -937708.9, -7018.3574, 0.0, 10.000283, 9.999305 
1.750031e+2, 2.1502988e+2, -841452.9, -916702.9, 231.39896, 0.0096707605, -0.09897125, -841452.2, -8753.174, 0.0, 10.000285, 9.999282 
1.7500183e+2, 2.2502935e+2, -745733.4, -794912.3, -4094.7546, -0.00355416, -0.090782896, -745394.75, -10690.181, 0.0, 10.000161, 9.999505 
1.7500041e+2, 2.3502919e+2, -685014.25, -718045.7, -342.64352, -0.02921209, -0.05898576, -685010.7, -48303.66, 0.0, 9.999919, 9.999476 
1.7499928e+2, 2.4502875e+2, -617361.44, -645199.25, -4391.6367, -0.021111796, -0.045273617, -616685.06, -77972.6, 0.0, 9.999756, 9.999383 
1.7499845e+2, 2.5502807e+2, -533641.2, -555926.0, -9896.119, 0.0174299, -0.056280475, -529881.0, -89160.445, 0.0, 9.999666, 9.999366 
1.7499715e+2, 2.650276e+2, -441058.47, -464626.56, -10571.287, 0.0068480195, -0.03544002, -437011.66, -94284.82, 0.0, 9.999646, 9.99933 
1.7499544e+2, 2.7502733e+2, -338201.2, -367985.22, -9163.616, -0.04634746, 0.0040228115, -335607.66, -90875.89, 0.0, 9.999695, 9.999296 
1.749944e+2, 2.8502676e+2, -259415.17, -283833.84, -9882.856, -0.03386622, 0.018279264, -255916.6, -109177.49, 0.0, 9.999583, 9.999255 
1.7499386e+2, 2.9502603e+2, -200866.02, -199875.16, -7306.017, 0.025535408, 0.016811118, -193047.8, -144301.0, 0.00000004563321, 9.999291, 9.999299 
1.7499211e+2, 3.050259e+2, -99615.47, -50923.426, -1129.8102, -0.05377052, 0.038352974, -50897.223, -50897.223, 0.000004309572, 9.999328, 9.999972 
1.7499144e+2, 3.150257e+2, -80462.67, -90062.69, 26317.254, -0.024021573, 0.025460867, -58511.27, -58511.27, 0.000033325945, 9.999667, 9.999539 
1.8501464e+2, 1.2503539e+2, -1676856.5, -1779078.4, 8862.232, 0.07231334, -0.1379184, -1676093.9, 38548.48, 0.0006065531, 10.000614, 9.999261 
1.8501319e+2, 1.3503613e+2, -1554083.1, -1603710.5, -8597.986, 0.0595518, -0.042478703, -1552635.8, 64000.156, 0.00034376056, 10.000504, 9.999845 
1.8501148e+2, 1.4503483e+2, -1468848.8, -1525586.3, 2686.3074, 0.014977875, -0.15320624, -1468721.8, 49927.574, 0.00013809917, 10.000474, 9.999719 
1.8501058e+2, 1.5503526e+2, -1374352.3, -1445795.6, 1157.6118, 0.03370267, -0.075200774, -1374333.5, 46312.48, 0.000029920388, 10.000523, 9.999571 
1.8500952e+2, 1.6503507e+2, -1299394.3, -1385682.0, 5524.672, 0.031805705, -0.03976175, -1299042.0, 23606.488, 0.0000015280342, 10.00048, 9.999332 
1.8500823e+2, 1.750341e+2, -1222089.1, -1300380.0, 9264.266, 0.004242349, -0.07217738, -1221007.9, 3650.3108, 0.0, 10.00035, 9.999308 
1.8500693e+2, 1.8503329e+2, -1125205.5, -1200677.5, -1181.9138, -0.007482586, -0.08394352, -1125187.0, 1479.1317, 0.0, 10.000332, 9.99933 
1.8500565e+2, 1.9503273e+2, -1015286.4, -1099902.0, -3993.8677, -0.002431973, -0.07427598, -1015098.25, 13573.208, 0.0, 10.000427, 9.999302 
1.8500449e+2, 2.0503202e+2, -927281.25, -1008664.4, 2659.5518, 0.008363995, -0.07334137, -927194.44, 3484.0122, 0.0, 10.000367, 9.999284 
1.8500346e+2, 2.1503116e+2, -860653.44, -928285.3, 5679.602, 0.02408436, -0.091835305, -860179.75, -27492.639, 0.0, 10.000163, 9.999262 
1.8500204e+2, 2.2503065e+2, -762149.6, -803627.5, 1405.1232, 0.006850655, -0.081485346, -762102.06, -27409.297, 0.0, 10.000052, 9.999497 
1.8500026e+2, 2.3503049e+2, -668365.6, -710458.9, -2643.3604, -0.041211262, -0.047644634, -668200.3, -31505.254, 0.0, 10.000035, 9.999473 
1.84999e+2, 2.4503002e+2, -588033.44, -637825.6, -4111.216, -0.035825495, -0.034210164, -587696.25, -48995.44, 0.0, 9.999987, 9.999322 
1.8499824e+2, 2.5502923e+2, -503227.84, -548340.06, -2619.5044, 0.019263873, -0.047410667, -503076.25, -62366.426, 0.0, 9.999906, 9.999302 
1.8499689e+2, 2.6502872e+2, -422917.47, -461435.06, -1126.837, 0.009830283, -0.026616376, -422884.53, -80167.875, 0.0, 9.999795, 9.999279 
1.8499501e+2, 2.7502844e+2, -348357.13, -377934.34, -5637.6206, -0.057159897, 0.014277931, -347319.0, -102597.15, 0.0, 9.999648, 9.999249 
1.8499394e+2, 2.8502777e+2, -261636.98, -288148.5, -11147.311, -0.038489513, 0.025552513, -257572.88, -110842.98, 0.0, 9.999582, 9.999225 
1.849935e+2, 2.95027e+2, -159564.11, -184282.36, -8246.667, 0.046929497, 0.019653065, -157065.39, -108326.84, 0.000000013949684, 9.999594, 9.99926 
1.8499164e+2, 3.050271e+2, -79545.47, -43407.004, 1063.9945, -0.040187486, 0.07003801, -43375.707, -43375.707, 0.0000026617806, 9.9994755, 9.999952 
1.8499076e+2, 3.1502646e+2, -139476.34, -103500.484, 17016.41, -0.035069477, 0.013583117, -96727.07, -96727.07, 0.00002394661, 9.999199, 9.999672 
1.9501519e+2, 1.2503678e+2, -1670488.6, -1766556.3, 6452.2354, 0.06673722, -0.09992817, -1670057.3, 44572.543, 0.0005643703, 10.000616, 9.999347 
1.950137e+2, 1.3503721e+2, -1545263.0, -1585632.5, -12306.458, 0.05868542, -0.04823877, -1541807.3, 74818.875, 0.00031730495, 10.0005045, 9.999969 
1.950119e+2, 1.4503597e+2, -1473210.0, -1534967.1, 4151.8906, 0.008877396, -0.1586444, -1472932.1, 45706.85, 0.00012543245, 10.000475, 9.999654 
1.9501096e+2, 1.5503637e+2, -1378534.6, -1454934.6, 3365.1042, 0.018409112, -0.0743311, -1378386.6, 42248.883, 0.000026112697, 10.000524, 9.999507 
1.9500983e+2, 1.6503622e+2, -1290663.3, -1367649.5, 333.74948, 0.013836025, -0.039229978, -1290661.9, 31975.734, 0.0000011234973, 10.00048, 9.999456 
1.9500846e+2, 1.7503534e+2, -1213363.4, -1282170.8, 4737.2295, -0.008691713, -0.07356309, -1213038.8, 11607.299, 0.0, 10.000349, 9.9994335 
1.9500719e+2, 1.8503457e+2, -1129775.6, -1210100.5, 2248.8142, -0.016007416, -0.083907686, -1129712.6, -3059.0093, 0.0, 10.000332, 9.999265 
1.9500604e+2, 1.9503398e+2, -1020073.06, -1109553.0, -319.63602, -0.0055945246, -0.07231788, -1020071.94, 8587.795, 0.0, 10.000426, 9.999237 
1.9500485e+2, 2.0503333e+2, -920654.9, -994617.7, -5302.9326, 0.0069085765, -0.067883104, -920276.6, 10389.612, 0.0, 10.000366, 9.999381 
1.950036e+2, 2.1503262e+2, -854135.25, -914467.4, -1561.0005, 0.02093488, -0.07928127, -854094.9, -21421.809, 0.0, 10.000161, 9.999357 
1.9500211e+2, 2.2503206e+2, -770036.5, -819663.8, 488.25003, 0.00835591, -0.072773196, -770031.7, -35352.582, 0.0, 10.000051, 9.999388 
1.9500042e+2, 2.3503165e+2, -675883.5, -725832.4, -3002.0662, -0.028894935, -0.055112924, -675703.75, -39019.516, 0.0, 10.000034, 9.999367 
1.94999e+2, 2.4503113e+2, -585119.0, -631885.94, -7480.199, -0.03706005, -0.042951535, -583951.7, -45261.22, 0.0, 9.999987, 9.999363 
1.9499777e+2, 2.550305e+2, -500694.2, -543244.4, -5446.2515, -0.019519577, -0.04325389, -500008.16, -59310.49, 0.0, 9.999907, 9.999337 
1.9499639e+2, 2.6503003e+2, -432279.1, -480918.03, -7000.4766, -0.020236, -0.013574257, -431291.6, -88587.38, 0.0, 9.999795, 9.9991455 
1.949949e+2, 2.7502966e+2, -357271.78, -396163.94, -11196.441, -0.032631867, 0.031997792, -354278.84, -109568.414, 0.0, 9.999647, 9.9991255 
1.9499384e+2, 2.8502887e+2, -262671.53, -289883.34, -10843.826, -0.007859492, 0.034364413, -258878.89, -112158.69, 0.0, 9.999581, 9.999214 
1.9499296e+2, 2.9502782e+2, -161574.1, -188990.13, -6823.5015, 0.033772815, 0.0061107473, -159969.7, -111238.28, 0.0000000023315327, 9.999596, 9.999227 
1.9499099e+2, 3.050282e+2, -88405.34, -62302.195, -9997.403, -0.052913997, 0.0896904, -58913.223, -58913.223, 0.0000014940416, 9.999477, 9.999822 
1.9499041e+2, 3.150274e+2, -133810.61, -90841.39, 3997.1484, 0.008580674, 0.026434047, -90472.72, -90472.72, 0.000016254342, 9.999195, 9.999761 
2.0501587e+2, 1.2503797e+2, -1697136.3, -1784113.3, 21707.523, 0.079243764, -0.10071508, -1692019.5, 22598.82, 0.0005112227, 10.000456, 9.999303 
2.0501415e+2, 1.3503842e+2, -1548209.8, -1589381.5, -12610.113, 0.055168457, -0.044971056, -1544654.6, 71960.39, 0.00028397882, 10.000496, 9.999948 
2.0501225e+2, 1.4503726e+2, -1476193.3, -1535877.4, 1683.0089, -0.0012432882, -0.14357561, -1476145.8, 42481.12, 0.000109345056, 10.000453, 9.99966 
2.0501138e+2, 1.5503754e+2, -1405228.9, -1466463.5, 5775.2554, 0.017864281, -0.075778626, -1404689.0, 15935.664, 0.000021261263, 10.000335, 9.999519 
2.0501024e+2, 1.6503732e+2, -1315639.4, -1377353.3, 1972.222, 0.01628712, -0.04538829, -1315576.4, 7050.5493, 0.00000067965186, 10.000298, 9.999477 
2.0500876e+2, 1.7503658e+2, -1212867.1, -1279381.4, -1984.0018, -0.0123612005, -0.07055813, -1212808.0, 11826.397, 0.0, 10.000341, 9.999456 
2.0500748e+2, 1.8503584e+2, -1130408.5, -1208548.4, -2824.0042, -0.019625714, -0.07975751, -1130306.6, -3664.964, 0.0, 10.0003195, 9.999282 
2.0500639e+2, 1.9503519e+2, -1046060.4, -1119833.5, 412.86014, -0.0032795968, -0.0756813, -1046058.06, -17409.91, 0.0, 10.000238, 9.999257 
2.0500512e+2, 2.050346e+2, -943765.56, -1001580.8, -7367.312, 0.007394606, -0.06901037, -942841.5, -12187.343, 0.0, 10.00019, 9.999418 
2.0500366e+2, 2.1503404e+2, -849285.3, -907715.6, -8455.69, 0.011184336, -0.067945525, -848086.25, -15426.567, 0.0, 10.000175, 9.999396 
2.0500213e+2, 2.2503346e+2, -762925.0, -819593.5, -2817.2883, 0.0027937347, -0.062489044, -762785.25, -28119.447, 0.0, 10.000114, 9.999358 
2.0500056e+2, 2.3503289e+2, -681691.4, -731816.6, -1107.2008, -0.01636489, -0.06019794, -681666.94, -44994.395, 0.0, 10.000009, 9.999338 
2.0499901e+2, 2.4503236e+2, -594000.8, -632327.75, -3623.62, -0.029056033, -0.049458724, -593661.25, -54982.395, 0.0, 9.99991, 9.999396 
2.0499745e+2, 2.550319e+2, -511246.66, -544527.7, -2309.7327, -0.037957124, -0.036192346, -511087.13, -70402.625, 0.0, 9.999818, 9.999371 
2.04996e+2, 2.650315e+2, -435989.6, -481404.88, 2199.0583, -0.03709856, -0.004064118, -435883.34, -93192.945, 0.0, 9.999764, 9.999158 
2.0499472e+2, 2.7503103e+2, -343029.88, -388149.0, 7689.5806, -0.020045063, 0.033631593, -341755.34, -97058.484, 0.0, 9.99974, 9.999137 
2.0499359e+2, 2.8503013e+2, -260793.6, -298214.0, 10420.662, 0.006959421, 0.029995006, -258087.4, -111379.695, 0.0, 9.999634, 9.999132 
2.049924e+2, 2.9502898e+2, -190017.19, -212760.45, 9384.0625, 0.024547465, -0.0016044762, -186645.19, -137924.52, 0.000000000097020676, 9.999444, 9.999136 
2.0499033e+2, 3.0502948e+2, -105117.49, -80618.29, 6143.3193, -0.06347592, 0.105567664, -79164.13, -79164.13, 0.00000072960836, 9.999407, 9.999732 
2.0498998e+2, 3.1502837e+2, -80996.234, -46869.043, 17806.447, 0.032067448, 0.021897856, -39270.2, -39270.2, 0.000010315381, 9.9994755, 9.999929 
2.150166e+2, 1.2503894e+2, -1709056.5, -1810233.3, 26634.703, 0.10540745, -0.13826314, -1702473.4, 12134.57, 0.00045034575, 10.000461, 9.999122 
2.1501459e+2, 1.3503972e+2, -1559933.9, -1614609.0, -10655.232, 0.047743194, -0.0332276, -1557930.8, 58671.887, 0.0002457903, 10.000499, 9.999773 
2.1501257e+2, 1.4503874e+2, -1470358.5, -1524132.4, -3299.755, -0.017581932, -0.10851935, -1470156.8, 48456.406, 0.00009091271, 10.000455, 9.99974 
2.1501185e+2, 1.5503871e+2, -1399154.0, -1453744.6, 1888.8872, 0.030887391, -0.07923016, -1399088.8, 21524.533, 0.000015871614, 10.000335, 9.999608 
2.1501076e+2, 1.6503842e+2, -1321304.6, -1389113.1, 3488.5645, 0.03694204, -0.05762538, -1321125.6, 1490.8539, 0.00000031009594, 10.000298, 9.999397 
2.1500915e+2, 1.750378e+2, -1218356.4, -1291449.6, -171.34654, -0.008113907, -0.062914446, -1218356.0, 6267.2803, 0.0, 10.000344, 9.9993725 
2.1500778e+2, 1.8503708e+2, -1122875.6, -1193210.0, -6046.3667, -0.020651573, -0.071457975, -1122359.6, 4270.7207, 0.0, 10.00032, 9.999387 
2.1500671e+2, 1.9503637e+2, -1038646.8, -1104498.9, -2276.7297, 0.0036527887, -0.084774, -1038568.2, -9931.332, 0.0, 10.000238, 9.999362 
2.1500534e+2, 2.0503579e+2, -945469.44, -1004629.3, -7963.8574, 0.00875761, -0.07699257, -944416.1, -13773.742, 0.0, 10.000188, 9.999398 
2.1500367e+2, 2.1503542e+2, -850789.0, -910536.4, -8565.292, -0.0064126966, -0.05726378, -849585.3, -16938.33, 0.0, 10.0001745, 9.999378 
2.1500212e+2, 2.2503488e+2, -759630.56, -812366.4, -7132.8994, -0.011216641, -0.050494086, -758682.8, -24029.92, 0.0, 10.000113, 9.999409 
2.150007e+2, 2.350342e+2, -678647.1, -725139.44, -4858.332, -0.0044693314, -0.063134104, -678144.9, -41484.902, 0.0, 10.000008, 9.999385 
2.149991e+2, 2.450337e+2, -592263.2, -628795.06, -7541.6733, -0.012472554, -0.053195048, -590767.56, -52101.582, 0.0, 9.99991, 9.999421 
2.1499726e+2, 2.550334e+2, -508857.6, -539486.6, -5596.7964, -0.03747276, -0.02654886, -507866.94, -67196.54, 0.0, 9.999817, 9.999406 
2.1499571e+2, 2.6503304e+2, -425837.47, -459815.56, 1190.2009, -0.04182847, 0.0018656498, -425795.8, -83120.45, 0.0, 9.999762, 9.999307 
2.1499446e+2, 2.7503252e+2, -333354.97, -367902.2, 7086.134, -0.020436201, 0.018413614, -331958.0, -87276.61, 0.0, 9.999739, 9.999276 
2.1499321e+2, 2.850316e+2, -271546.75, -320693.03, 2415.373, 0.005403877, 0.012147891, -271428.3, -124735.76, 0.0, 9.999634, 9.998979 
2.1499176e+2, 2.9503044e+2, -200197.55, -234545.77, 2453.6567, 0.01621653, -0.0033123735, -200023.16, -151316.73, 0.0, 9.999446, 9.998987 
2.1498962e+2, 3.05031e+2, -108677.97, -86509.28, 9205.65, -0.07427037, 0.1186491, -83185.06, -83185.06, 0.0000002906552, 9.999402, 9.999693 
2.1498947e+2, 3.150295e+2, -63458.703, -10019.914, 17147.17, 0.032114662, 0.0006500642, -4991.056, -4991.056, 0.0000060416633, 9.9994755, 10.000183 
2.2501694e+2, 1.2504016e+2, -1668254.5, -1783836.6, 11905.492, 0.080769815, -0.13574107, -1667041.0, 47555.69, 0.0003861587, 10.000713, 9.999182 
2.2501501e+2, 1.3504097e+2, -1581709.0, -1618270.1, -12038.663, 0.048954163, -0.033340346, -1578101.1, 38489.56, 0.00020573656, 10.000321, 9.999834 
2.2501296e+2, 1.4504014e+2, -1516866.8, -1551146.5, 5677.561, -0.008828026, -0.095299095, -1515950.9, 2648.92, 0.00007189719, 10.000155, 9.999699 
2.250122e+2, 1.5504003e+2, -1417254.3, -1466123.5, 504.52457, 0.03599152, -0.07067877, -1417249.1, 3351.9783, 0.000010694928, 10.000227, 9.999576 
2.2501108e+2, 1.650397e+2, -1334221.8, -1395881.0, 1195.7837, 0.043553483, -0.050661467, -1334198.6, -11593.818, 0.000000092361944, 10.000212, 9.9993925 
2.2500949e+2, 1.7503911e+2, -1251849.1, -1307536.8, 3268.9138, 0.0026860533, -0.052549046, -1251657.9, -27046.305, 0.0, 10.000114, 9.999373 
2.2500807e+2, 1.8503845e+2, -1145266.0, -1189932.9, 2774.5706, -0.013766436, -0.0618413, -1145094.3, -18476.432, 0.0, 10.000107, 9.999513 
2.2500686e+2, 1.950378e+2, -1036807.4, -1089579.8, 7488.8086, -0.0018530039, -0.08105465, -1035765.2, -7142.2593, 0.0, 10.000191, 9.999488 
2.2500546e+2, 2.0503727e+2, -950110.94, -1011790.1, 8.494111, 0.002897321, -0.074736565, -950110.94, -19482.66, 0.0, 10.000176, 9.999355 
2.2500384e+2, 2.1503687e+2, -869499.3, -924186.6, -2742.8137, -0.0011810807, -0.051978316, -869362.06, -36728.387, 0.0, 10.000067, 9.999336 
2.2500223e+2, 2.2503638e+2, -766270.5, -802856.8, 1140.7567, -0.0054565137, -0.044183094, -766234.94, -31595.793, 0.0, 10.000012, 9.999522 
2.2500066e+2, 2.3503579e+2, -670559.75, -709136.5, 7957.704, -0.008492429, -0.05705194, -668982.7, -32338.227, 0.0, 10.0000105, 9.999494 
2.2499903e+2, 2.450353e+2, -586678.2, -631885.94, 4456.562, -0.0138787795, -0.048072714, -586243.0, -47592.945, 0.0, 9.999973, 9.99937 
2.2499725e+2, 2.5503495e+2, -500735.5, -541514.1, -668.7101, -0.024226649, -0.023934007, -500724.53, -60068.836, 0.0, 9.999899, 9.999353 
2.2499564e+2, 2.6503456e+2, -413834.06, -449835.4, 210.96552, -0.029542796, 0.0032308656, -413832.84, -71171.88, 0.0, 9.999826, 9.999344 
2.2499417e+2, 2.750341e+2, -328906.1, -361757.0, -2097.9058, -0.024453519, 0.020284636, -328772.66, -84106.35, 0.0, 9.999753, 9.999311 
2.2499284e+2, 2.8503314e+2, -257441.9, -315462.44, -5596.4893, 0.00031879602, 0.013460119, -256907.02, -110229.78, 0.0, 9.999737, 9.998965 
2.2499147e+2, 2.95032e+2, -156142.02, -216461.94, 3422.3284, 0.026075106, -0.0038766025, -155948.47, -107257.234, 0.0, 9.999762, 9.9989605 
2.2498919e+2, 3.0503246e+2, -85874.28, -108259.04, 7254.1396, -0.0724713, 0.12793784, -83729.05, -83729.05, 0.000000085825576, 9.999698, 9.999402 
2.2498877e+2, 3.1503078e+2, -51591.2, -354.00812, -8595.266, 0.011375103, 0.019761711, 1049.4435, 1049.4435, 0.0000031779714, 9.99954, 10.000218 
2.3501688e+2, 1.2504162e+2, -1647207.4, -1739958.5, -305.74728, 0.00071102806, -0.091943845, -1647206.4, 67378.22, 0.00032267286, 10.000713, 9.999482 
2.3501542e+2, 1.3504219e+2, -1561888.1, -1576163.4, -26552.443, 0.057876434, -0.044502623, -1541530.8, 75048.266, 0.0001666326, 10.000317, 10.000125 
2.3501344e+2, 1.4504145e+2, -1528717.9, -1575293.8, 8073.7407, 0.02320595, -0.10322836, -1527358.0, -8771.292, 0.00005400246, 10.000154, 9.999535 
2.3501238e+2, 1.5504146e+2, -1428085.0, -1489974.5, 3360.8389, 0.030947044, -0.050183065, -1427903.0, -7314.904, 0.000006396683, 10.000232, 9.99941 
2.3501119e+2, 1.6504113e+2, -1327763.5, -1383261.0, -2779.7183, 0.032833174, -0.024987891, -1327624.6, -5032.44, 0.000000013163342, 10.000216, 9.999477 
2.3500976e+2, 1.750405e+2, -1245498.6, -1294559.6, -2.6833758, 0.018976286, -0.04006447, -1245498.6, -20899.355, 0.0, 10.000115, 9.999462 
2.3500831e+2, 1.8503994e+2, -1135457.4, -1169125.1, 5821.3594, -0.0002488216, -0.05116865, -1134479.3, -7875.044, 0.0, 10.000105, 9.999656 
2.3500687e+2, 1.950395e+2, -1026589.9, -1068733.9, 10829.727, -0.020931024, -0.06369437, -1023969.9, 4636.7124, 0.0, 10.000192, 9.999631 
2.350055e+2, 2.0503895e+2, -954693.44, -1020980.25, -4321.515, -0.011747688, -0.06193131, -954412.9, -23800.975, 0.0, 10.000175, 9.999292 
2.3500419e+2, 2.1503837e+2, -874074.9, -933341.56, -6449.3403, 0.025362957, -0.052572027, -873381.2, -40761.24, 0.0, 10.000066, 9.999273 
2.3500249e+2, 2.2503795e+2, -754231.9, -777348.75, 897.52936, 0.01872939, -0.043645974, -754197.06, -19572.475, 0.0, 10.0000105, 9.999699 
2.3500048e+2, 2.3503768e+2, -657749.44, -682486.56, 8298.159, -0.029222216, -0.041757964, -655223.7, -18597.795, 0.0, 10.0000105, 9.999677 
2.3499879e+2, 2.450372e+2, -596648.4, -652479.75, 1413.8077, -0.034248326, -0.034654442, -596612.56, -57981.27, 0.0, 9.999972, 9.999229 
2.349974e+2, 2.5503653e+2, -511388.06, -563156.2, -3314.0967, 0.00025235454, -0.028256403, -511176.75, -70536.24, 0.0, 9.999897, 9.999206 
2.3499574e+2, 2.6503605e+2, -418703.5, -459797.56, -3180.5496, -0.0016088162, 0.0006828995, -418458.78, -75811.57, 0.0, 9.9998255, 9.999276 
2.3499382e+2, 2.7503574e+2, -332388.28, -369078.9, -4777.8867, -0.03381786, 0.039408598, -331776.28, -87124.625, 0.0, 9.999753, 9.999261 
2.3499247e+2, 2.8503487e+2, -249782.52, -299000.2, -4408.095, -0.00936441, 0.033849712, -249390.83, -102729.12, 0.0, 9.999735, 9.99908 
2.349915e+2, 2.9503357e+2, -149719.42, -203209.02, 4927.1245, 0.052461192, -0.004263904, -149269.36, -100594.04, 0.0, 9.999762, 9.999051 
2.3498903e+2, 3.0503386e+2, -124302.78, -187004.58, 449.90857, -0.059042424, 0.13168535, -124299.555, -124299.555, 0.000000016806371, 9.999694, 9.998863 
2.3498785e+2, 3.150322e+2, -64605.895, -26772.363, -18506.207, -0.035453122, 0.0777404, -19225.498, -19225.498, 0.0000014346882, 9.999538, 10.000037 
2.4501698e+2, 1.2504312e+2, -1739421.0, -1771401.8, 15917.413, -0.02393936, -0.06646951, -1732849.0, -18277.738, 0.00026299746, 10.000023, 9.999599 
2.4501583e+2, 1.3504355e+2, -1572487.8, -1570001.0, -30942.256, 0.07173752, -0.043223765, -1540277.1, 76289.14, 0.0001305452, 10.000196, 10.000225 
2.450138e+2, 1.4504291e+2, -1521562.3, -1568989.9, 7271.0176, 0.043341573, -0.098668106, -1520472.5, -1899.7384, 0.000038366878, 10.000191, 9.999561 
2.4501254e+2, 1.550429e+2, -1456940.3, -1499842.8, 17321.908, 0.035003535, -0.048754934, -1450819.6, -30245.648, 0.000003303544, 10.000017, 9.999446 
2.4501128e+2, 1.6504262e+2, -1362782.4, -1400586.5, 17595.45, 0.032966938, -0.02325817, -1355860.3, -33282.223, 0.00000000018007511, 9.999977, 9.999474 
2.4500991e+2, 1.7504202e+2, -1251861.4, -1297831.8, 12484.442, 0.024225747, -0.032152876, -1248689.8, -24104.844, 0.0, 10.000073, 9.99946 
2.450085e+2, 1.8504152e+2, -1138579.0, -1164922.1, 11302.335, 0.009127249, -0.04063296, -1134394.5, -7805.0693, 0.0, 10.000059, 9.999707 
2.4500707e+2, 1.950411e+2, -1060137.9, -1078789.1, 9328.883, -0.0074341334, -0.055032395, -1056272.8, -27681.313, 0.0, 9.999936, 9.999684 
2.4500564e+2, 2.0504062e+2, -984427.1, -1025363.44, -2206.165, -0.002130915, -0.055241458, -984308.6, -53712.53, 0.0, 9.999929, 9.999381 
2.4500419e+2, 2.1504012e+2, -872322.2, -922992.5, 6274.5957, 0.022602135, -0.04757461, -871556.75, -38953.645, 0.0, 10.000036, 9.99936 
2.4500248e+2, 2.250397e+2, -751407.2, -778367.7, 10812.499, 0.01435538, -0.038788613, -747606.6, -12999.154, 0.0, 10.00004, 9.999678 
2.4500048e+2, 2.3503943e+2, -669251.06, -690176.56, 2517.1316, -0.024608662, -0.037089482, -668952.56, -32343.443, 0.0, 9.999941, 9.999657 
2.4499881e+2, 2.4503891e+2, -603500.4, -657230.7, -4610.494, -0.028082568, -0.032009296, -603107.6, -64492.746, 0.0, 9.999932, 9.999216 
2.4499737e+2, 2.550382e+2, -496053.3, -557588.0, 428.86426, 0.00028341523, -0.028603457, -496050.34, -55426.04, 0.0, 10.00001, 9.999189 
2.4499568e+2, 2.650377e+2, -396930.2, -460555.13, 2626.7473, 0.0007770641, 0.0034713256, -396821.94, -54190.37, 0.0, 10.000024, 9.999176 
2.4499382e+2, 2.7503735e+2, -307767.22, -368680.03, -3065.3298, -0.020684859, 0.051330984, -307613.38, -62976.44, 0.0, 9.999971, 9.99916 
2.4499242e+2, 2.850365e+2, -217532.0, -273865.0, -3767.6277, 0.0027507814, 0.048664466, -217281.13, -70634.63, 0.0, 9.999914, 9.999166 
2.449913e+2, 2.9503524e+2, -131502.23, -186196.75, 3484.815, 0.05310608, 0.0057415534, -131281.1, -82622.61, 0.0, 9.999853, 9.999124 
2.449887e+2, 3.0503517e+2, -133465.39, -231675.25, 3036.92, -0.066541396, 0.121889114, -133371.58, -133371.58, 0.0000000018495133, 9.999805, 9.998501 
2.4498735e+2, 3.150334e+2, -39499.23, -22865.264, -9652.531, -0.04833994, 0.090301946, -18440.836, -18440.836, 0.00000052479436, 9.999745, 9.999965 
2.550173e+2, 1.2504463e+2, -1744324.9, -1780771.3, 26112.117, 0.004452873, -0.05980995, -1730705.9, -16148.817, 0.000209724, 10.000018, 9.999538 
2.5501615e+2, 1.35045e+2, -1578186.8, -1584108.5, -24549.766, 0.08559793, -0.030890746, -1556420.0, 60133.016, 0.00009902971, 10.000204, 10.000126 
2.5501403e+2, 1.4504448e+2, -1504479.6, -1534984.0, -242.30742, 0.0464321, -0.0826631, -1504477.8, 14080.385, 0.000025643241, 10.000196, 9.999791 
2.550127e+2, 1.5504439e+2, -1440231.0, -1464807.6, 10760.907, 0.04731858, -0.066152446, -1436185.3, -15626.334, 0.0000014046367, 10.000015, 9.999687 
2.5501138e+2, 1.6504411e+2, -1370227.4, -1415283.9, 20847.48, 0.043365255, -0.04472092, -1362061.3, -39498.906, 0.0, 9.999974, 9.999374 
2.5500992e+2, 1.7504369e+2, -1258483.9, -1312578.5, 16166.915, 0.016376853, -0.028559487, -1254020.4, -29451.963, 0.0, 10.000077, 9.999357 
2.5500858e+2, 1.8504317e+2, -1140453.5, -1169275.4, 6443.785, 0.011802893, -0.030652575, -1139078.5, -12504.803, 0.0, 10.000061, 9.999676 
2.5500745e+2, 1.9504263e+2, -1061947.1, -1082663.5, 4976.817, 0.037196778, -0.055940546, -1060813.6, -32235.959, 0.0, 9.999937, 9.999658 
2.550059e+2, 2.0504226e+2, -968297.7, -991307.1, 1794.412, 0.03065473, -0.05556076, -968158.56, -37577.69, 0.0, 9.999927, 9.999616 
2.550039e+2, 2.1504208e+2, -855939.25, -888670.4, 10692.652, -0.01014198, -0.03629302, -852755.8, -20172.49, 0.0, 10.000035, 9.999596 
2.5500217e+2, 2.2504167e+2, -767109.3, -810629.0, 6816.9297, -0.019525586, -0.029712535, -766066.5, -31478.746, 0.0, 10.000038, 9.999457 
2.550007e+2, 2.3504102e+2, -685128.6, -722618.0, -923.7978, 0.00354529, -0.042794798, -685105.9, -48511.69, 0.0, 9.999939, 9.999435 
2.5499904e+2, 2.4504043e+2, -595051.8, -639458.94, -1994.8191, 0.0022994706, -0.03962827, -594962.4, -56361.668, 0.0, 9.999931, 9.999338 
2.549971e+2, 2.5503993e+2, -486719.8, -538278.0, 3614.881, -0.024693912, -0.02526139, -486467.6, -45860.53, 0.0, 10.00001, 9.999322 
2.549955e+2, 2.6503947e+2, -407352.84, -482548.44, 708.2622, -0.022687959, 0.010528338, -407346.2, -64732.082, 0.0, 10.000026, 9.999025 
2.5499412e+2, 2.7503896e+2, -318958.13, -392079.7, -4718.8555, 0.012329255, 0.05566813, -318654.88, -74032.67, 0.0, 9.999971, 9.999 
2.5499263e+2, 2.8503808e+2, -213514.08, -264716.13, -6803.25, 0.0332441, 0.057701644, -212625.55, -65993.82, 0.0, 9.999911, 9.99923 
2.5499088e+2, 2.9503706e+2, -126761.77, -175741.66, 1354.6865, 0.025808735, 0.026418796, -126724.336, -78083.6, 0.0, 9.99985, 9.999196 
2.549882e+2, 3.0503646e+2, -147483.61, -260679.88, 1415.162, -0.09583525, 0.09813135, -147465.9, -147465.9, 0.000000000039700524, 9.9998045, 9.998303 
2.549873e+2, 3.1503433e+2, -36328.027, -17231.87, -15275.611, -0.03078836, 0.050882395, -8765.785, -8765.785, 0.00000015406697, 9.999748, 10.000003 
2.6501766e+2, 1.2504621e+2, -1717809.3, -1768120.6, 39019.55, 0.030386498, -0.060063023, -1696539.4, 18001.908, 0.0001649167, 10.0002, 9.999537 
2.650162e+2, 1.3504648e+2, -1624877.9, -1609980.5, -11552.452, 0.083623834, -0.039380394, -1603683.6, 12854.911, 0.000073287774, 9.999898, 10.000095 
2.6501393e+2, 1.4504604e+2, -1551371.6, -1554479.9, 12136.605, 0.032521453, -0.08072608, -1540690.1, -22147.326, 0.000016155976, 9.999862, 9.999819 
2.650128e+2, 1.5504597e+2, -1424732.0, -1452887.6, 6339.583, 0.052317176, -0.06567389, -1423370.4, -2826.9714, 0.00000046134082, 10.000103, 9.999727 
2.6501155e+2, 1.6504571e+2, -1345863.0, -1398538.6, 11754.863, 0.056441367, -0.047143046, -1343358.9, -20812.33, 0.0, 10.00012, 9.999419 
2.6500997e+2, 1.7504528e+2, -1278756.4, -1317319.8, 17720.934, 0.0241995, -0.03433106, -1271850.0, -47297.754, 0.0, 9.999917, 9.999402 
2.650086e+2, 1.8504481e+2, -1170346.0, -1186833.0, 15725.885, 0.017513292, -0.034539428, -1160834.0, -34276.69, 0.0, 9.99987, 9.999647 
2.6500747e+2, 1.950443e+2, -1057296.9, -1083628.4, 13546.817, 0.043768205, -0.053164706, -1051572.0, -23010.443, 0.0, 9.999983, 9.999629 
2.6500592e+2, 2.0504396e+2, -949462.25, -973972.6, 6120.657, 0.037426688, -0.051877517, -948018.9, -17454.248, 0.0, 10.000021, 9.99969 
2.6500398e+2, 2.1504381e+2, -858213.06, -881555.4, 2678.5427, -0.004124993, -0.037689954, -857909.6, -25343.377, 0.0, 9.999985, 9.999669 
2.6500222e+2, 2.2504342e+2, -775509.44, -818669.75, -1707.1704, -0.014487618, -0.031708688, -775442.0, -40871.49, 0.0, 9.999998, 9.999421 
2.6500073e+2, 2.3504277e+2, -670231.9, -719412.56, 4127.313, 0.0066848146, -0.04045421, -669887.94, -33310.703, 0.0, 10.000058, 9.999401 
2.649991e+2, 2.4504219e+2, -578381.2, -630595.8, 6900.183, 0.006733917, -0.035410944, -577484.75, -38900.87, 0.0, 10.000042, 9.999346 
2.6499718e+2, 2.550417e+2, -494421.8, -540857.8, 3066.1567, -0.015412136, -0.022725439, -494220.22, -53630.0, 0.0, 9.999952, 9.999331 
2.6499552e+2, 2.650412e+2, -417249.5, -484854.3, 3122.1575, -0.016706875, 0.0089989435, -417105.63, -74508.27, 0.0, 9.999947, 9.999047 
2.6499406e+2, 2.7504066e+2, -310611.06, -385568.13, 10954.899, 0.0062254723, 0.049140006, -309042.8, -64437.355, 0.0, 10.000019, 9.999021 
2.6499254e+2, 2.850398e+2, -200809.73, -262641.0, 9370.01, 0.025953686, 0.05551765, -199420.98, -52806.457, 0.0, 10.000018, 9.999192 
2.649908e+2, 2.9503885e+2, -118428.36, -176231.7, 8217.434, 0.029118735, 0.035970774, -117282.85, -68660.11, 0.0, 9.9999275, 9.999156 
2.6498815e+2, 3.0503786e+2, -135457.5, -254459.17, 14705.668, -0.08524967, 0.064632624, -133667.17, -133667.17, 0.0, 9.999885, 9.998307 
2.649872e+2, 3.150358e+2, -2866.2874, 16296.398, 7432.1167, -0.022343853, 0.02743343, 18840.998, 18840.998, 0.000000038019415, 9.999906, 10.000155 
2.7501807e+2, 1.2504783e+2, -1712114.5, -1757347.3, 31285.86, 0.048103, -0.06717344, -1696126.4, 18397.963, 0.00012966055, 10.000206, 9.999608 
2.750159e+2, 1.3504796e+2, -1622128.9, -1603429.4, -23730.238, 0.06498729, -0.06724645, -1587273.4, 29249.355, 0.00005392466, 9.999894, 10.000143 
2.7501348e+2, 1.4504762e+2, -1564250.9, -1580208.6, 20670.35, 0.0009023458, -0.09157554, -1550072.9, -31546.354, 0.0000098627, 9.999858, 9.999644 
2.7501285e+2, 1.5504766e+2, -1436319.3, -1477536.3, 15378.326, 0.046559073, -0.048565045, -1431213.9, -10686.289, 0.00000011248763, 10.000106, 9.999557 
2.750118e+2, 1.6504739e+2, -1331871.9, -1370367.0, 3562.7947, 0.06871439, -0.032104373, -1331545.0, -9014.09, 0.0, 10.000124, 9.999611 
2.7501014e+2, 1.7504686e+2, -1264918.3, -1288762.6, 10070.856, 0.046576526, -0.049316954, -1261234.0, -36697.88, 0.0, 9.999918, 9.999598 
2.7500856e+2, 1.8504643e+2, -1172954.1, -1191852.1, 19720.303, 0.025090229, -0.051852327, -1160535.9, -33995.52, 0.0, 9.999869, 9.999614 
2.7500713e+2, 1.9504613e+2, -1059867.8, -1088954.4, 17932.514, 0.011384097, -0.046083853, -1051322.5, -22779.197, 0.0, 9.999983, 9.999592 
2.7500573e+2, 2.0504574e+2, -955550.4, -986144.4, 4667.1836, 0.017004436, -0.044049237, -954854.25, -24306.975, 0.0, 10.000019, 9.999607 
2.750044e+2, 2.1504529e+2, -863954.94, -893387.5, 1811.4354, 0.039154388, -0.05233488, -863843.9, -31291.848, 0.0, 9.999984, 9.999588 
2.7500266e+2, 2.2504492e+2, -765438.75, -797269.1, 499.2833, 0.027492922, -0.045624956, -765430.9, -30875.121, 0.0, 9.999996, 9.999569 
2.7500057e+2, 2.3504467e+2, -659541.9, -697375.6, 6618.4053, -0.015139608, -0.030480497, -658417.5, -21859.234, 0.0, 10.000059, 9.999552 
2.749989e+2, 2.4504416e+2, -586076.7, -646794.1, 3227.4636, -0.015100938, -0.020167805, -585905.56, -47341.17, 0.0, 10.000043, 9.999234 
2.7499756e+2, 2.5504342e+2, -502668.3, -557746.7, -95.419235, 0.025053103, -0.020894187, -502668.13, -62094.254, 0.0, 9.999951, 9.999217 
2.7499577e+2, 2.6504284e+2, -403435.84, -455279.7, 5452.2295, 0.015108948, -0.00035911295, -402868.66, -60287.375, 0.0, 9.999944, 9.999251 
2.7499363e+2, 2.7504244e+2, -296103.28, -354862.44, 14023.326, -0.039111793, 0.031589426, -292928.1, -48341.363, 0.0, 10.000017, 9.999231 
2.749921e+2, 2.8504166e+2, -211349.52, -284758.38, 6160.7754, -0.018689342, 0.040802535, -210836.06, -64241.04, 0.0, 10.000018, 9.999041 
2.7499107e+2, 2.9504064e+2, -128957.25, -199026.08, 5164.1367, 0.05954809, 0.032993507, -128578.695, -79973.97, 0.0, 9.99993, 9.998999 
2.749885e+2, 3.0503926e+2, -121322.195, -225197.1, 14880.183, -0.040129855, 0.02083866, -119232.625, -119232.625, 0.0, 9.999886, 9.9985075 
2.7498707e+2, 3.1503776e+2, 15833.039, 55472.36, 3928.563, -0.027858315, 0.01607027, 55857.957, 55857.957, 0.00000000643165, 9.999904, 10.000425 
2.8501797e+2, 1.2504938e+2, -1759087.1, -1777841.9, 33388.473, 0.03457052, -0.077282414, -1733784.3, -19275.672, 0.00010364884, 9.999875, 9.999627 
2.8501603e+2, 1.3504946e+2, -1596885.9, -1592442.5, -33211.566, 0.07746817, -0.08062828, -1561378.4, 55128.95, 0.000040612387, 10.000073, 10.000133 
2.8501353e+2, 1.4504924e+2, -1539116.4, -1573802.3, 16831.086, 0.009440714, -0.09145535, -1532292.0, -13781.468, 0.0000062724685, 10.000055, 9.999593 
2.8501275e+2, 1.5504926e+2, -1479428.6, -1503168.3, 20408.436, 0.042689912, -0.045373905, -1467689.1, -47176.98, 0.000000028346124, 9.999832, 9.999513 
2.850117e+2, 1.6504902e+2, -1372615.0, -1377552.0, 9375.674, 0.06567606, -0.031880647, -1365388.4, -42872.906, 0.0, 9.999792, 9.999722 
2.8501016e+2, 1.750485e+2, -1252780.1, -1270179.9, 8797.902, 0.055435147, -0.05626979, -1249107.0, -24587.223, 0.0, 9.999948, 9.99971 
2.8500855e+2, 1.8504815e+2, -1154812.0, -1183008.1, 18620.871, 0.032816406, -0.059480228, -1145554.3, -19030.896, 0.0, 9.999994, 9.999614 
2.8500703e+2, 1.950479e+2, -1067164.8, -1092609.6, 18902.57, 0.0054933224, -0.047451187, -1057102.0, -28575.988, 0.0, 9.999934, 9.999591 
2.8500566e+2, 2.050475e+2, -968275.8, -995801.75, 9140.233, 0.009345289, -0.043310873, -965517.2, -34987.11, 0.0, 9.999946, 9.999577 
2.8500444e+2, 2.15047e+2, -859564.3, -894164.5, 9691.382, 0.04070984, -0.05368789, -857034.75, -24499.27, 0.0, 10.000027, 9.999562 
2.8500277e+2, 2.2504665e+2, -749740.0, -783733.6, 7986.5127, 0.03513642, -0.048450477, -747957.1, -13417.985, 0.0, 10.000078, 9.999622 
2.8500077e+2, 2.3504643e+2, -650087.56, -686994.1, 6748.274, -0.004259867, -0.033795573, -648892.3, -12351.352, 0.0, 10.000098, 9.999604 
2.8499907e+2, 2.4504599e+2, -582170.5, -646052.6, -391.29416, -0.0035880601, -0.019470768, -582168.06, -43621.484, 0.0, 10.000074, 9.999225 
2.849976e+2, 2.5504532e+2, -495300.84, -555100.7, 3625.878, 0.033898864, -0.011355734, -495081.8, -54526.1, 0.0, 10.000006, 9.999208 
2.8499582e+2, 2.6504475e+2, -388847.06, -440251.44, 14053.8, 0.020715194, 0.005550995, -385255.72, -42692.754, 0.0, 10.0000105, 9.999322 
2.849937e+2, 2.7504426e+2, -281709.25, -339502.7, 11867.363, -0.036206096, 0.02181927, -279367.3, -34798.836, 0.0, 10.00008, 9.999307 
2.8499216e+2, 2.8504348e+2, -211117.16, -298871.47, -5161.3354, -0.017917572, 0.03453254, -210814.63, -64237.883, 0.0, 10.000082, 9.998913 
2.8499103e+2, 2.9504257e+2, -124514.73, -211007.6, -4935.0464, 0.058842644, 0.048003912, -124234.055, -75647.49, 0.0, 10.000025, 9.99887 
2.849885e+2, 3.0504084e+2, -94326.7, -199251.66, 6330.249, -0.033690337, 0.0045472817, -93946.17, -93946.17, 0.0, 10.000017, 9.998621 
2.8498712e+2, 3.1503978e+2, 36933.453, 70810.9, -17235.336, -0.017618282, 0.034948107, 78037.8, 78037.8, 0.00000000043435586, 10.000027, 10.000473 
2.950174e+2, 1.2505092e+2, -1761330.9, -1783414.5, 44978.742, -0.0128566045, -0.08976482, -1726058.5, -11565.018, 0.000085497144, 9.999879, 9.999588 
2.9501647e+2, 1.3505104e+2, -1602195.5, -1603769.3, -25863.078, 0.11763214, -0.08126422, -1577107.4, 39384.996, 0.000032281903, 10.000074, 10.000054 
2.9501402e+2, 1.450509e+2, -1534072.4, -1563862.9, 7762.428, 0.055131055, -0.08127093, -1532171.0, -13676.543, 0.0000046245973, 10.000058, 9.9996605 
2.9501253e+2, 1.5505081e+2, -1474274.3, -1492094.4, 11791.496, 0.038444996, -0.053867646, -1468405.0, -47908.043, 0.00000001715619, 9.99983, 9.99959 
2.950113e+2, 1.6505058e+2, -1370788.8, -1373395.0, 14725.735, 0.045221426, -0.043857116, -1357308.5, -34808.566, 0.0, 9.99979, 9.999751 
2.9501003e+2, 1.7505023e+2, -1251429.0, -1266560.3, 14821.685, 0.049216706, -0.056137305, -1242353.6, -17850.56, 0.0, 9.999945, 9.999737 
2.950086e+2, 1.8504989e+2, -1153335.1, -1179272.9, 16259.2295, 0.03929821, -0.05846396, -1145506.0, -18999.717, 0.0, 9.999991, 9.999641 
2.9500717e+2, 1.9504955e+2, -1064951.4, -1088202.9, 16904.436, 0.02525303, -0.05774709, -1056060.9, -27551.203, 0.0, 9.999934, 9.999621 
2.9500565e+2, 2.0504925e+2, -967022.0, -992831.25, 12115.005, 0.013132793, -0.049998187, -962226.25, -31713.15, 0.0, 9.999945, 9.9995985 
2.9500404e+2, 2.1504895e+2, -858159.75, -891136.75, 13063.652, -0.00012837331, -0.041934755, -853611.9, -21095.252, 0.0, 10.000026, 9.999583 
2.9500255e+2, 2.2504854e+2, -752716.8, -789414.8, 8499.803, 0.0073687425, -0.040261038, -750843.75, -16322.967, 0.0, 10.000076, 9.999585 
2.9500127e+2, 2.3504806e+2, -652957.94, -692748.7, 7844.9424, 0.03738964, -0.05054042, -651467.1, -14941.687, 0.0, 10.000097, 9.999565 
2.9499957e+2, 2.4504766e+2, -575987.8, -632766.0, -3139.3918, 0.039226044, -0.033324648, -575814.75, -37284.258, 0.0, 10.0000725, 9.999316 
2.949974e+2, 2.5504738e+2, -488943.8, -541750.44, 1340.5453, 0.011188217, 0.00500788, -488909.78, -48374.035, 0.0, 10.000006, 9.9993 
2.9499564e+2, 2.6504683e+2, -393661.1, -450240.78, 16366.718, 0.0006596826, 0.025483575, -389267.84, -46725.277, 0.0, 10.0000105, 9.999253 
2.9499426e+2, 2.7504608e+2, -286160.6, -348879.34, 14544.419, 0.011226578, 0.01914799, -282951.94, -38401.086, 0.0, 10.00008, 9.999243 
2.949927e+2, 2.8504527e+2, -218777.81, -314498.0, -7944.604, 0.024110332, 0.03735456, -218122.9, -71563.17, 0.0, 10.000081, 9.998806 
2.9499072e+2, 2.9504454e+2, -132696.1, -226811.5, -6790.7646, 0.026453698, 0.08184989, -132208.64, -83640.35, 0.0, 10.00002, 9.998764 
2.9498821e+2, 3.0504256e+2, -93081.766, -196235.3, 6764.2515, -0.06526809, 0.01649187, -92640.09, -92640.09, 0.0, 10.000015, 9.998644 
2.9498738e+2, 3.1504184e+2, 27103.555, 48368.25, -19680.27, 0.0032118824, 0.07458014, 60104.625, 60104.625, 0.0, 10.000034, 10.000315 
3.0501738e+2, 1.250525e+2, -1749394.0, -1766405.9, 37543.832, -0.0026172374, -0.07368551, -1719404.6, -4925.3843, 0.000073591786, 9.999916, 9.999685 
3.0501652e+2, 1.3505264e+2, -1627980.4, -1610326.8, -29632.6, 0.122335754, -0.06879996, -1588234.3, 28243.488, 0.000027638554, 9.999872, 10.000107 
3.0501392e+2, 1.4505264e+2, -1557028.4, -1560281.1, 5038.278, 0.047915667, -0.065138154, -1553360.5, -34882.203, 0.000004191702, 9.999839, 9.999791 
3.0501243e+2, 1.5505254e+2, -1467368.5, -1473807.9, 12174.19, 0.043625694, -0.052599203, -1457995.4, -37515.105, 0.000000032166714, 9.999814, 9.999723 
3.0501118e+2, 1.6505234e+2, -1368884.8, -1372895.9, 24093.63, 0.0516205, -0.04509384, -1346713.4, -24230.438, 0.0, 9.999807, 9.999745 
3.050098e+2, 1.7505209e+2, -1268591.3, -1275535.8, 20820.844, 0.04081579, -0.046575468, -1250955.1, -26469.469, 0.0, 9.99983, 9.99973 
3.0500844e+2, 1.8505181e+2, -1174020.0, -1180796.3, 18058.834, 0.03382679, -0.045581162, -1159034.3, -32545.965, 0.0, 9.999813, 9.999717 
3.0500716e+2, 1.9505154e+2, -1084038.6, -1087903.4, 22072.623, 0.041441157, -0.04866053, -1063814.0, -35323.305, 0.0, 9.999764, 9.999704 
3.0500567e+2, 2.0505118e+2, -983135.2, -1005838.1, 24637.03, 0.027119322, -0.04547461, -967360.3, -36866.008, 0.0, 9.999858, 9.99955 
3.0500397e+2, 2.150508e+2, -852324.56, -894059.94, 19898.832, -0.012928187, -0.04136846, -844357.8, -11858.92, 0.0, 10.000091, 9.999533 
3.050025e+2, 2.2505037e+2, -743134.1, -783992.2, 7003.1343, -0.010330975, -0.038578667, -741967.1, -7463.8145, 0.0, 10.000137, 9.999593 
3.0500132e+2, 2.3504995e+2, -666121.25, -697810.3, 9136.38, 0.035742044, -0.043374106, -663675.9, -27168.43, 0.0, 10.000002, 9.999577 
3.049997e+2, 2.4504955e+2, -579562.7, -633638.1, 2076.0671, 0.044355623, -0.02703931, -579483.1, -40970.77, 0.0, 10.000045, 9.999324 
3.0499756e+2, 2.550492e+2, -450448.8, -522365.16, 116.24307, 0.0148901185, 0.0043691397, -450448.63, -9930.776, 0.0, 10.000266, 9.999308 
3.049958e+2, 2.6504868e+2, -359830.53, -443634.88, 7164.6396, 0.004710678, 0.026448451, -359222.44, -16697.527, 0.0, 10.000285, 9.9991665 
3.049944e+2, 2.750479e+2, -289286.2, -360252.53, 2882.0623, 0.016763512, 0.03047381, -289169.34, -44635.79, 0.0, 10.000103, 9.999153 
3.049928e+2, 2.8504708e+2, -221601.47, -323344.84, -15341.455, 0.029363189, 0.055982634, -219338.53, -72795.79, 0.0, 10.000095, 9.998738 
3.0499092e+2, 2.9504633e+2, -103566.5, -220107.84, -11593.505, 0.032510113, 0.104449496, -102424.375, -53872.824, 0.0, 10.000252, 9.998698 
3.0498847e+2, 3.0504405e+2, -50000.805, -180515.92, 843.3464, -0.05632477, 0.01629563, -49995.355, -49995.355, 0.0, 10.000333, 9.998599 
3.0498755e+2, 3.1504354e+2, 48716.06, 25599.178, -36440.24, 0.0014634951, 0.09814484, 75387.04, 75387.04, 0.0, 10.000327, 10.000017 
3.1501797e+2, 1.2505415e+2, -1732900.3, -1733126.1, 41836.793, 0.06254248, -0.029016849, -1691176.3, 23289.498, 0.00006650563, 9.999919, 9.999913 
3.1501603e+2, 1.3505433e+2, -1614093.4, -1582399.8, -30969.65, 0.08594715, -0.040649038, -1563458.0, 53005.273, 0.000025576577, 9.999877, 10.000297 
3.1501308e+2, 1.4505449e+2, -1543187.0, -1532512.0, 3740.3953, -0.017557153, -0.040214457, -1531331.9, -12870.424, 0.000004447986, 9.999842, 9.999981 
3.150124e+2, 1.5505442e+2, -1454674.0, -1446538.3, 11611.356, 0.05701218, -0.04335752, -1438302.8, -17840.568, 0.00000006594377, 9.99981, 9.999912 
3.1501132e+2, 1.6505426e+2, -1373053.4, -1380808.0, 24598.523, 0.08399125, -0.03694643, -1352028.4, -29564.145, 0.0, 9.999804, 9.999693 
3.1500956e+2, 1.7505409e+2, -1272098.3, -1282925.4, 21722.938, 0.028101481, -0.026723804, -1255124.5, -30657.168, 0.0, 9.99983, 9.99968 
3.1500807e+2, 1.8505393e+2, -1164887.4, -1161972.3, 15935.935, 0.013154762, -0.018842915, -1147427.4, -20958.457, 0.0, 9.999813, 9.999846 
3.1500706e+2, 1.9505377e+2, -1075227.4, -1069291.6, 20646.146, 0.05309105, -0.020867404, -1051401.1, -22931.941, 0.0, 9.999763, 9.999834 
3.1500578e+2, 2.050533e+2, -992056.3, -1023376.2, 33364.96, 0.050199028, -0.030440172, -970859.0, -40385.26, 0.0, 9.999853, 9.999432 
3.1500417e+2, 2.1505253e+2, -860935.8, -911661.3, 29089.72, 0.0010783966, -0.052491356, -847704.8, -15222.43, 0.0, 10.000089, 9.999413 
3.1500256e+2, 2.2505213e+2, -739784.56, -776733.8, 1906.671, -0.019436771, -0.0438357, -739686.44, -5199.6206, 0.0, 10.000136, 9.999643 
3.150009e+2, 2.3505212e+2, -662510.56, -690400.56, 4321.502, -0.009711096, -0.012702727, -661856.25, -25369.152, 0.0, 10.000002, 9.999627 
3.149994e+2, 2.4505167e+2, -584946.56, -644750.75, 9950.996, 0.011234088, -0.0011809488, -583334.25, -44841.906, 0.0, 10.000045, 9.999248 
3.1499812e+2, 2.5505084e+2, -455205.88, -532154.9, 8503.744, 0.04196299, -0.013625509, -454277.3, -13775.312, 0.0, 10.000266, 9.999241 
3.1499636e+2, 2.650502e+2, -367798.3, -460031.66, 43.016888, 0.030604068, 0.008832983, -367798.28, -25288.27, 0.0, 10.000284, 9.999054 
3.1499413e+2, 2.7504975e+2, -298056.38, -377560.53, -3622.4563, -0.01990346, 0.056033526, -297891.66, -53375.01, 0.0, 10.000099, 9.999036 
3.1499258e+2, 2.8504896e+2, -224691.16, -328622.5, -9948.804, -0.0015795972, 0.09028532, -223747.39, -77221.5, 0.0, 10.000091, 9.998704 
3.1499156e+2, 2.950479e+2, -104177.96, -222438.31, -5437.467, 0.07311609, 0.1138499, -103928.48, -55391.902, 0.0, 10.000257, 9.99868 
3.1498927e+2, 3.0504534e+2, -57795.883, -198243.23, 150.33278, -0.010448449, 0.0023699899, -57795.723, -57795.723, 0.0, 10.000339, 9.998474 
3.1498757e+2, 3.1504488e+2, 17828.943, -37349.656, -40374.063, -0.026839083, 0.10468655, 39139.895, 39139.895, 0.0, 10.000321, 9.999587 
3.2501808e+2, 1.2505592e+2, -1706436.0, -1713751.9, 70431.59, 0.07378557, -0.011958053, -1639567.5, 74881.86, 0.00006287029, 10.000075, 9.999969 
3.2501587e+2, 1.35056e+2, -1645086.1, -1596403.3, -22652.55, 0.09262901, -0.035810027, -1587493.4, 28954.459, 0.000025189593, 9.9996605, 10.000304 
3.2501268e+2, 1.4505625e+2, -1572118.6, -1534866.0, 14989.223, -0.028409118, -0.031265285, -1529583.8, -11138.887, 0.0000050024137, 9.999595, 10.000083 
3.2501218e+2, 1.5505621e+2, -1439664.3, -1427383.0, 15086.602, 0.053949654, -0.040348504, -1417235.3, 3209.653, 0.000000115129794, 9.999862, 10.000019 
3.2501116e+2, 1.6505614e+2, -1358601.0, -1371845.8, 21194.863, 0.087272055, -0.03436706, -1343018.0, -20571.775, 0.0, 9.999894, 9.999711 
3.2500938e+2, 1.7505604e+2, -1288762.8, -1288274.1, 23370.402, 0.03282683, -0.017109774, -1265146.8, -40698.176, 0.0, 9.999706, 9.9997015 
3.2500786e+2, 1.850559e+2, -1176671.1, -1169486.4, 22161.518, 0.0136863515, -0.007797545, -1150627.9, -24177.725, 0.0, 9.999741, 9.999828 
3.2500684e+2, 1.950557e+2, -1041472.06, -1055439.3, 14647.659, 0.042687908, -0.013005985, -1032228.4, -3777.175, 0.0, 10.000003, 9.999813 
3.2500565e+2, 2.0505522e+2, -967593.56, -1006871.25, 23727.285, 0.04566747, -0.02378322, -956431.94, -25976.174, 0.0, 9.999999, 9.9994755 
3.2500428e+2, 2.1505453e+2, -909385.4, -929212.94, 31264.451, 0.018835682, -0.044884965, -886500.56, -54036.89, 0.0, 9.999733, 9.999463 
3.250027e+2, 2.2505417e+2, -792539.5, -807472.5, 12591.894, -0.00225269, -0.031989455, -785366.9, -50899.094, 0.0, 9.999798, 9.999596 
3.250009e+2, 2.3505417e+2, -638587.25, -684286.06, 7487.056, -0.01583209, 0.00674679, -637391.9, -923.7258, 0.0, 10.000189, 9.999579 
3.2499945e+2, 2.4505363e+2, -547292.25, -627381.7, 9289.728, -0.002380033, 0.0123389345, -546228.8, -7754.8335, 0.0, 10.000307, 9.999241 
3.2499826e+2, 2.550526e+2, -471934.22, -541281.4, 11841.857, 0.035884783, -0.019098284, -469967.8, -29483.01, 0.0, 10.000155, 9.999232 
3.249966e+2, 2.6505184e+2, -388109.88, -478188.44, 5946.87, 0.029618984, -0.0020851325, -387718.97, -45225.46, 0.0, 10.000181, 9.99898 
3.2499442e+2, 2.7505141e+2, -261615.72, -368110.5, 5070.306, -0.017218975, 0.05337367, -261374.88, -16874.547, 0.0, 10.000384, 9.998964 
3.2499287e+2, 2.850506e+2, -173609.4, -307603.3, 3344.19, -0.000426467, 0.090439126, -173526.0, -27016.107, 0.0, 10.000457, 9.9986725 
3.2499185e+2, 2.950495e+2, -88398.914, -218605.27, 6392.175, 0.06811968, 0.11181404, -88085.86, -39564.695, 0.0, 10.000381, 9.998647 
3.2498965e+2, 3.0504704e+2, -45292.66, -175268.66, 20020.107, -0.0066540195, 0.002756982, -42278.86, -42278.86, 0.0, 10.000352, 9.998626 
3.2498804e+2, 3.1504673e+2, 13700.892, -57940.813, -2986.5469, -0.016210996, 0.10474392, 13825.177, 13825.177, 0.0, 10.000371, 9.999423 
3.3501765e+2, 1.2505789e+2, -1713875.8, -1731689.9, 59766.74, 0.022725914, -0.019434104, -1662356.0, 52073.344, 0.000061273975, 10.000086, 9.999842 
3.35016e+2, 1.3505766e+2, -1657851.5, -1622156.9, -37144.26, 0.14305444, -0.05480611, -1598794.6, 17636.756, 0.000025556885, 9.999657, 10.00013 
3.3501276e+2, 1.4505793e+2, -1572312.3, -1534489.4, 25294.205, 0.015456488, -0.038658567, -1521818.6, -3389.9724, 0.0000055599335, 9.999591, 10.000087 
3.3501178e+2, 1.5505798e+2, -1438415.9, -1424860.1, 25545.572, 0.028514244, -0.04178944, -1405208.5, 15219.51, 0.00000016881297, 9.999862, 10.000035 
3.3501077e+2, 1.6505797e+2, -1351470.3, -1357801.1, 13923.202, 0.05486634, -0.03448286, -1340357.3, -17928.684, 0.0, 9.999896, 9.999806 
3.3500928e+2, 1.7505795e+2, -1282309.3, -1274680.8, 16923.576, 0.055126246, -0.019070389, -1261146.9, -36717.375, 0.0, 9.999704, 9.999797 
3.3500782e+2, 1.8505773e+2, -1189432.4, -1195025.4, 31923.102, 0.03509027, -0.013680659, -1160183.5, -33751.227, 0.0, 9.999737, 9.999656 
3.350065e+2, 1.9505729e+2, -1054186.4, -1081676.1, 24791.08, 0.00863044, -0.025314858, -1039584.8, -11148.022, 0.0, 10.000002, 9.999634 
3.350053e+2, 2.0505695e+2, -953418.9, -976741.44, 13663.912, 0.011220465, -0.024838693, -947116.6, -16676.252, 0.0, 9.999996, 9.999683 
3.350042e+2, 2.1505672e+2, -894709.1, -898762.5, 21817.393, 0.039225888, -0.018833606, -874824.5, -42381.58, 0.0, 9.999732, 9.999673 
3.350029e+2, 2.2505642e+2, -802696.1, -828254.4, 27065.8, 0.03992631, -0.0032944153, -785544.3, -51097.984, 0.0, 9.999796, 9.999454 
3.350014e+2, 2.3505609e+2, -648123.2, -704055.75, 22501.396, 0.01601144, 0.01488169, -640194.8, -3744.2527, 0.0, 10.000189, 9.999444 
3.349998e+2, 2.4505544e+2, -543722.4, -619773.9, 3466.552, 0.0020274404, 0.01362178, -543564.7, -5107.4185, 0.0, 10.000306, 9.999293 
3.34998e+2, 2.550545e+2, -469022.63, -534575.0, 6450.993, -0.0042236852, -0.011786476, -468393.8, -27927.541, 0.0, 10.000154, 9.999279 
3.349965e+2, 2.6505366e+2, -391122.8, -483957.3, 13069.482, 0.00158593, -0.006436652, -389317.97, -46842.508, 0.0, 10.000178, 9.998941 
3.3499518e+2, 2.7505288e+2, -262630.2, -370711.0, 12806.794, 0.02199556, 0.020947501, -261133.4, -16648.69, 0.0, 10.000386, 9.998945 
3.3499363e+2, 2.8505203e+2, -176208.61, -313149.6, 198.49925, 0.030124256, 0.055741534, -176208.31, -29713.453, 0.0, 10.000457, 9.998634 
3.349917e+2, 2.9505116e+2, -92436.82, -225408.42, 3967.6624, 0.015912702, 0.0998884, -92318.54, -43813.344, 0.0, 10.000375, 9.998603 
3.349896e+2, 3.050491e+2, -16818.738, -114414.49, 19735.123, -0.045610573, 0.017802067, -12979.102, -12979.102, 0.0, 10.000344, 9.999047 
3.3498886e+2, 3.15049e+2, 23095.428, -39745.53, -3655.992, 0.028784873, 0.09698283, 23307.412, 23307.412, 0.0, 10.000377, 9.999545 
3.4501764e+2, 1.250597e+2, -1731184.1, -1740213.9, 56204.3, 0.019037945, -0.038175948, -1679313.6, 35097.633, 0.000060228966, 9.999969, 9.999839 
3.45016e+2, 1.3505961e+2, -1607487.3, -1605358.5, -38359.137, 0.15545394, -0.053236518, -1568049.0, 48363.66, 0.000025763518, 10.000031, 10.000065 
3.4501246e+2, 1.4506002e+2, -1531042.8, -1519152.1, 33060.938, 0.0118287355, -0.020472487, -1491506.1, 26902.895, 0.000005876301, 9.999893, 10.000046 
3.4501147e+2, 1.5505989e+2, -1489879.9, -1453493.5, 28882.39, 0.02706483, -0.036548845, -1437551.9, -17141.576, 0.0000002059256, 9.999526, 10.000001 
3.450105e+2, 1.6505983e+2, -1403748.6, -1371210.9, 20186.15, 0.058251273, -0.036747217, -1361553.9, -39142.82, 0.0, 9.999488, 9.999911 
3.450091e+2, 1.7505991e+2, -1261184.8, -1252942.5, 22746.162, 0.060692314, -0.021443535, -1233947.1, -9536.732, 0.0, 9.999799, 9.999901 
3.450076e+2, 1.8505971e+2, -1178962.0, -1198997.1, 40952.64, 0.03530669, -0.015589384, -1146819.5, -20406.455, 0.0, 9.999846, 9.999576 
3.450062e+2, 1.9505921e+2, -1113261.5, -1117935.4, 41259.855, -0.002236404, -0.02554679, -1074272.5, -45853.727, 0.0, 9.999632, 9.999561 
3.4500507e+2, 2.0505893e+2, -993229.6, -990685.7, 29265.07, 0.0012431495, -0.01802432, -962664.94, -32242.941, 0.0, 9.9997015, 9.99973 
3.450041e+2, 2.1505886e+2, -845192.1, -869994.44, 24597.25, 0.039859112, 0.00019641258, -830046.75, 2376.0193, 0.0, 10.000051, 9.999718 
3.4500295e+2, 2.2505853e+2, -751454.75, -805863.6, 32139.29, 0.04663029, 0.010661878, -736552.0, -2125.6824, 0.0, 10.000157, 9.9994335 
3.450016e+2, 2.3505795e+2, -673029.1, -718188.9, 35891.063, 0.024453312, 0.006876075, -653205.94, -16773.396, 0.0, 10.000028, 9.999425 
3.4500006e+2, 2.4505731e+2, -574907.8, -638380.8, 15961.379, 0.008210759, 0.009171323, -571120.1, -32680.934, 0.0, 10.000107, 9.999262 
3.449983e+2, 2.5505665e+2, -435992.03, -522125.16, 12527.7, -0.0039888886, 0.012020255, -434206.9, 6239.119, 0.0, 10.000395, 9.9992485 
3.4499675e+2, 2.650557e+2, -356368.34, -470811.0, 14982.958, -0.001325529, 0.012104637, -354439.28, -11983.495, 0.0, 10.000433, 9.998909 
3.4499544e+2, 2.7505454e+2, -289747.75, -388117.78, 13949.437, 0.01830666, 0.0010140217, -287807.88, -43339.477, 0.0, 10.000217, 9.998908 
3.449939e+2, 2.850536e+2, -211437.72, -321141.6, 6598.0093, 0.02661779, 0.029216863, -211042.31, -64563.53, 0.0, 10.000175, 9.998715 
3.4499204e+2, 2.9505304e+2, -94514.26, -217787.81, 19273.729, 0.015246993, 0.098325305, -91571.086, -43084.87, 0.0, 10.000321, 9.998681 
3.4499007e+2, 3.0505145e+2, 3435.6096, -89849.92, 29481.98, -0.036415815, 0.04643446, 11971.959, 11971.959, 0.0, 10.00042, 9.999179 
3.4498933e+2, 3.1505093e+2, 21510.107, -51502.816, -20947.219, 0.034715492, 0.073390946, 27092.93, 27092.93, 0.0, 10.000415, 9.999445 
3.5501805e+2, 1.2506138e+2, -1722691.8, -1722551.0, 63492.76, 0.06045094, -0.06845732, -1659128.6, 55266.65, 0.00005843651, 9.999967, 9.999961 
3.550157e+2, 1.3506187e+2, -1603498.1, -1598096.5, -34834.926, 0.12226924, -0.029790064, -1565857.9, 50533.56, 0.000025162195, 10.000034, 10.000114 
3.5501176e+2, 1.4506249e+2, -1536169.8, -1530815.1, 19720.602, -0.04730622, 0.025524147, -1513591.0, 4795.185, 0.0000057861466, 9.999897, 9.999965 
3.5501122e+2, 1.5506192e+2, -1495841.8, -1465392.9, 15724.713, 0.05125477, -0.025421314, -1458730.1, -38338.414, 0.00000020730299, 9.999523, 9.99992 
3.550104e+2, 1.6506173e+2, -1396612.1, -1356320.9, 31633.008, 0.09810584, -0.04153128, -1338963.3, -16569.576, 0.0, 9.999487, 10.000014 
3.5500872e+2, 1.7506194e+2, -1253994.1, -1238359.1, 34788.21, 0.04547128, -0.024157632, -1210520.9, 13870.5205, 0.0, 9.999799, 10.000001 
3.550072e+2, 1.8506184e+2, -1177118.4, -1195031.9, 32886.254, 0.009438534, -0.012649877, -1151991.0, -25598.414, 0.0, 9.9998455, 9.999603 
3.5500595e+2, 1.9506145e+2, -1110931.5, -1113261.8, 33786.45, 0.00947965, -0.014585, -1078290.1, -49892.918, 0.0, 9.999632, 9.999595 
3.5500488e+2, 2.0506115e+2, -1001590.2, -1007570.7, 42267.37, 0.01519972, -0.0040558837, -962207.44, -31806.676, 0.0, 9.999699, 9.999615 
3.5500395e+2, 2.1506096e+2, -853572.7, -887077.6, 38156.746, 0.01933682, 0.012231119, -828652.8, 3750.4268, 0.0, 10.000049, 9.999601 
3.5500282e+2, 2.250605e+2, -745001.0, -791960.2, 27085.375, 0.015943065, 0.009579578, -732635.0, 1772.8467, 0.0, 10.000155, 9.99953 
3.5500148e+2, 2.3505978e+2, -666621.56, -704669.44, 31268.555, 0.008531696, -0.017166011, -649044.5, -12630.27, 0.0, 10.000027, 9.999518 
3.5500026e+2, 2.4505927e+2, -582842.44, -654810.56, 26381.928, 0.015454811, -0.0009741361, -574207.5, -35787.69, 0.0, 10.000106, 9.999149 
3.549991e+2, 2.5505897e+2, -443018.03, -536569.56, 23308.645, 0.034905016, 0.051882554, -437532.28, 2891.8948, 0.0, 10.000394, 9.999149 
3.549974e+2, 2.6505798e+2, -358769.75, -475269.25, 6684.0, 0.018924601, 0.053159032, -358387.5, -15952.892, 0.0, 10.00043, 9.998879 
3.549952e+2, 2.750563e+2, -292912.13, -394037.78, 6160.3945, -0.029970346, -0.005336278, -292538.22, -48086.945, 0.0, 10.000215, 9.998868 
3.549937e+2, 2.8505537e+2, -198089.31, -292894.44, 11380.159, -0.012069869, 0.011257233, -196742.4, -50280.88, 0.0, 10.000173, 9.998911 
3.5499287e+2, 2.9505524e+2, -79688.43, -187141.31, 25215.479, 0.06362407, 0.105788164, -74065.47, -25601.174, 0.0, 10.000322, 9.998892 
3.5499102e+2, 3.0505398e+2, -9013.173, -115188.76, 29270.314, 0.01784232, 0.08738448, -1478.6509, -1478.6509, 0.0, 10.000417, 9.999006 
3.5498935e+2, 3.1505254e+2, -1543.4094, -98308.54, -23129.611, -0.00578909, 0.039398808, 3700.9924, 3700.9924, 0.0, 10.00041, 9.9991255 
3.6501816e+2, 1.2506369e+2, -1696553.0, -1706458.9, 75264.66, 0.06703595, -0.054435376, -1626078.5, 88294.88, 0.000055122826, 10.000132, 9.99999 
3.6501557e+2, 1.3506414e+2, -1659222.9, -1629901.9, -34180.855, 0.12378111, -0.017325947, -1607370.1, 9000.467, 0.000023501116, 9.999674, 10.00007 
3.650113e+2, 1.4506483e+2, -1579254.4, -1540373.4, 27795.115, -0.06755095, 0.0446219, -1525894.9, -7530.5405, 0.00000526637, 9.999554, 10.000064 
3.6501086e+2, 1.5506427e+2, -1458572.5, -1435800.1, 35947.797, 0.05175323, -0.017737681, -1409478.4, 10891.009, 0.00000017249042, 9.999728, 10.000025 
3.6501005e+2, 1.6506408e+2, -1357599.0, -1344162.0, 62064.63, 0.101364285, -0.033768725, -1288453.3, 33917.78, 0.0, 9.999782, 9.999955 
3.6500832e+2, 1.7506434e+2, -1268866.6, -1251457.3, 53281.64, 0.02887731, -0.005151006, -1206174.0, 18194.764, 0.0, 9.999723, 9.999947 
3.650069e+2, 1.8506424e+2, -1183567.4, -1194765.3, 41377.047, -0.0025067532, 0.004668629, -1147412.1, -21042.096, 0.0, 9.999786, 9.999634 
3.650059e+2, 1.9506374e+2, -1057953.8, -1084324.3, 41546.61, 0.025906522, -0.011088533, -1027550.3, 824.74286, 0.0, 9.999979, 9.999626 
3.6500493e+2, 2.0506337e+2, -958164.75, -998685.8, 56740.406, 0.030470133, -0.004226877, -918176.1, 12203.071, 0.0, 10.000048, 9.999509 
3.6500382e+2, 2.1506312e+2, -869033.0, -905789.2, 53020.625, 0.004192801, 0.018020371, -831295.7, 1086.8423, 0.0, 9.999991, 9.9995 
3.6500272e+2, 2.2506261e+2, -762395.8, -800128.3, 34521.402, -0.0017161513, 0.0145267015, -741921.75, -7534.1353, 0.0, 10.000035, 9.999532 
3.6500165e+2, 2.3506181e+2, -644395.5, -693852.44, 31170.686, 0.015574213, -0.019251486, -629335.7, 7058.536, 0.0, 10.000178, 9.999519 
3.6500055e+2, 2.4506126e+2, -567263.0, -653862.56, 30589.662, 0.027340516, -0.0036894395, -557547.7, -19147.586, 0.0, 10.000242, 9.99909 
3.6499935e+2, 2.5506097e+2, -471044.88, -557092.94, 30454.01, 0.031665456, 0.054281432, -461357.3, -20952.23, 0.0, 10.000231, 9.999087 
3.6499768e+2, 2.6506004e+2, -377367.22, -482410.16, 10813.45, 0.012308206, 0.061857913, -376265.6, -33850.434, 0.0, 10.000294, 9.998897 
3.649955e+2, 2.7505845e+2, -258947.13, -375708.44, 13600.048, -0.028583763, 0.011126371, -257383.95, -12953.333, 0.0, 10.00044, 9.998886 
3.6499402e+2, 2.8505737e+2, -159332.03, -283222.84, 13804.872, -0.0108487755, 0.01808172, -157812.44, -11370.364, 0.0, 10.000477, 9.998831 
3.6499313e+2, 2.950569e+2, -77317.086, -195626.36, 6109.1025, 0.058069285, 0.08544677, -77002.47, -28553.988, 0.0, 10.000379, 9.998807 
3.6499152e+2, 3.05056e+2, -1513.1316, -108803.01, 11828.384, 0.022660257, 0.106644854, -224.5641, -224.5641, 0.0, 10.000456, 9.999032 
3.6499003e+2, 3.1505442e+2, 47663.586, -74907.44, -28702.932, 0.0041075465, 0.04009773, 54052.09, 54052.09, 0.0, 10.000748, 9.9991255 
3.7501794e+2, 1.2506664e+2, -1701936.9, -1716036.8, 62350.516, 0.032569762, 0.00452593, -1646239.0, 68106.67, 0.00005010573, 10.000125, 9.9999275 
3.7501562e+2, 1.3506638e+2, -1669065.9, -1650056.6, -50141.082, 0.16144168, -0.015673038, -1608527.3, 7822.991, 0.000020857056, 9.999672, 9.999932 
3.7501103e+2, 1.4506707e+2, -1559547.0, -1499658.1, 34487.926, -0.04904371, 0.03709533, -1483928.9, 34414.84, 0.000004428325, 9.999554, 10.000344 
3.750103e+2, 1.5506689e+2, -1438755.6, -1394757.0, 42719.824, 0.023667313, -0.012942814, -1368704.8, 51638.68, 0.00000011962439, 9.999728, 10.000306 
3.7500945e+2, 1.6506693e+2, -1372240.4, -1374419.4, 59688.617, 0.06275645, -0.012430671, -1313631.3, 8711.863, 0.0, 9.999782, 9.999747 
3.7500787e+2, 1.7506717e+2, -1283168.8, -1281334.4, 51546.105, 0.011143064, 0.035004295, -1230697.3, -6354.6724, 0.0, 9.999723, 9.999742 
3.7500668e+2, 1.8506688e+2, -1181253.5, -1190156.8, 48404.355, -0.0012145594, 0.036122072, -1137096.5, -10750.814, 0.0, 9.999786, 9.999665 
3.750061e+2, 1.9506605e+2, -1056168.4, -1080516.0, 49162.21, 0.045059938, -0.01473494, -1017695.2, 10657.239, 0.0, 9.999978, 9.999653 
3.7500513e+2, 2.0506555e+2, -964939.3, -1012166.3, 54561.99, 0.04480181, -0.018611442, -929100.25, 1257.1635, 0.0, 10.000045, 9.999417 
3.750037e+2, 2.1506536e+2, -875527.1, -918790.2, 51368.316, -0.006864042, 0.017235383, -841421.56, -9060.931, 0.0, 9.999989, 9.999413 
3.750027e+2, 2.2506484e+2, -768894.25, -813360.0, 39597.332, -0.0075160107, 0.02556266, -745715.1, -11349.458, 0.0, 10.000033, 9.999442 
3.7500212e+2, 2.3506407e+2, -650620.9, -706475.94, 36712.418, 0.044417217, 0.00063259044, -632420.9, 3951.6296, 0.0, 10.000177, 9.9994335 
3.7500092e+2, 2.4506332e+2, -568253.3, -655416.5, 29970.496, 0.041996356, 0.00060517073, -558942.7, -20562.441, 0.0, 10.00024, 9.999081 
3.749991e+2, 2.550626e+2, -471917.5, -559009.1, 30205.895, -0.014879977, 0.01946411, -462466.78, -22078.094, 0.0, 10.000232, 9.999074 
3.7499765e+2, 2.6506183e+2, -373172.56, -473861.47, 15846.032, -0.021952182, 0.038422313, -370737.66, -28340.223, 0.0, 10.000294, 9.998956 
3.7499645e+2, 2.7506092e+2, -254346.14, -365465.84, 19218.256, 0.020902038, 0.04969153, -251116.2, -6709.682, 0.0, 10.000436, 9.998959 
3.749949e+2, 2.8505963e+2, -184703.95, -334604.2, 10020.775, 0.02785566, 0.049380478, -184037.03, -37616.563, 0.0, 10.000471, 9.998481 
3.7499288e+2, 2.9505804e+2, -102460.91, -247969.39, 2719.7341, -0.004956648, 0.038542636, -102410.09, -53971.527, 0.0, 10.00038, 9.998446 
3.749915e+2, 3.0505753e+2, 14311.223, -76484.625, 21695.57, -0.02496579, 0.10427488, 19228.994, 19228.994, 0.0, 10.000459, 9.999253 
3.7499133e+2, 3.1505656e+2, 69399.445, -27818.375, -19325.379, 0.060720287, 0.07840601, 73100.16, 73100.16, 0.0, 10.00074, 9.999452 
3.8501766e+2, 1.2506928e+2, -1757939.4, -1735038.0, 61927.414, 0.012501245, 0.02456911, -1683511.5, 30808.984, 0.00004363311, 9.999707, 9.999998 
3.8501543e+2, 1.3506873e+2, -1670184.4, -1653613.3, -45683.24, 0.17704572, -0.023238586, -1615470.3, 857.5395, 0.000017489165, 9.999675, 9.999907 
3.8501057e+2, 1.4506942e+2, -1541714.9, -1490347.5, 45517.973, -0.05596586, 0.033454556, -1463767.1, 54553.688, 0.0000034194288, 9.999672, 10.000351 
3.850098e+2, 1.5506943e+2, -1451523.9, -1399929.5, 31649.875, 0.0042280387, -0.002019482, -1384895.3, 35423.61, 0.00000006772674, 9.999636, 10.000316 
3.8500902e+2, 1.6506942e+2, -1395753.0, -1398725.6, 41483.9, 0.048352424, -0.00013595451, -1355728.9, -33409.684, 0.0, 9.999675, 9.999632 
3.8500768e+2, 1.7506944e+2, -1277750.9, -1291098.5, 39725.758, 0.014424164, 0.03697298, -1244142.3, -19821.088, 0.0, 9.999813, 9.999632 
3.8500664e+2, 1.8506911e+2, -1152318.9, -1173960.6, 45715.15, 0.0047131013, 0.038033087, -1116161.4, 10163.239, 0.0, 9.999975, 9.999686 
3.850061e+2, 1.950684e+2, -1028657.3, -1064528.5, 45568.71, 0.039507337, -0.0034593267, -997621.56, 30708.297, 0.0, 10.000155, 9.999678 
3.850052e+2, 2.0506784e+2, -946328.4, -1010007.94, 43237.81, 0.04209484, -0.010481965, -924472.0, 5863.074, 0.0, 10.000203, 9.999356 
3.850039e+2, 2.1506745e+2, -860120.6, -918062.0, 41687.832, 0.007009448, 0.011136116, -838325.4, -5985.315, 0.0, 10.000123, 9.999352 
3.8500294e+2, 2.250669e+2, -755932.44, -815970.25, 40257.004, 0.0058667, 0.021572517, -735734.2, -1388.3909, 0.0, 10.000161, 9.999363 
3.8500232e+2, 2.350662e+2, -635392.9, -707938.56, 37515.727, 0.039866444, 0.013658582, -619481.9, 16870.441, 0.0, 10.0003195, 9.999355 
3.8500112e+2, 2.450654e+2, -544612.44, -637901.25, 27447.088, 0.032242678, 0.008708876, -537136.2, 1224.3009, 0.0, 10.000375, 9.999136 
3.849994e+2, 2.550645e+2, -453348.22, -543833.0, 32255.885, -0.017542796, 0.0017522338, -443027.0, -2656.997, 0.0, 10.000333, 9.999129 
3.8499805e+2, 2.6506373e+2, -361287.56, -477496.47, 23011.168, -0.018260833, 0.025062777, -356896.88, -14518.387, 0.0, 10.000416, 9.998872 
3.8499707e+2, 2.7506307e+2, -234044.19, -365186.28, 15030.801, 0.030265585, 0.0704257, -232343.5, 12042.483, 0.0, 10.000615, 9.998875 
3.8499552e+2, 2.8506172e+2, -158229.03, -323588.8, 3909.0696, 0.032026924, 0.06694517, -158136.67, -11735.866, 0.0, 10.000659, 9.9984665 
3.8499326e+2, 2.9505965e+2, -77013.445, -238585.66, 20747.494, -0.01577513, 0.014840736, -74391.8, -25969.375, 0.0, 10.000565, 9.998423 
3.84992e+2, 3.0505934e+2, 30888.135, -85124.36, 51814.684, -0.028408142, 0.108616784, 50660.332, 50660.332, 0.0, 10.000643, 9.9991045 
3.8499215e+2, 3.1505817e+2, 92289.07, -10711.788, -19312.713, 0.06273779, 0.07346991, 95791.15, 95791.15, 0.000000000002787424, 10.000869, 9.999508 
3.950173e+2, 1.2507159e+2, -1744293.3, -1705747.9, 61979.973, 0.0041573327, 0.0056630364, -1660113.3, 54184.52, 0.0000362571, 9.999703, 10.000201 
3.95015e+2, 1.3507116e+2, -1663628.6, -1640230.3, -45897.32, 0.16748515, -0.039512575, -1604564.5, 11738.758, 0.000013744367, 9.999675, 9.999999 
3.9500988e+2, 1.4507194e+2, -1561361.0, -1530224.4, 44638.324, -0.09230448, 0.034688808, -1498517.4, 19778.197, 0.0000023661473, 9.999668, 10.000079 
3.9500934e+2, 1.5507182e+2, -1470104.3, -1438631.6, 30548.045, -0.0078064273, 0.014395533, -1420005.0, 290.82974, 0.000000028035489, 9.999637, 10.00005 
3.950088e+2, 1.6507153e+2, -1397255.6, -1402133.0, 46042.074, 0.056451526, 0.0032427465, -1353587.8, -31288.717, 0.0, 9.999677, 9.999609 
3.9500773e+2, 1.7507115e+2, -1279343.4, -1294046.0, 45231.094, 0.037187938, 0.0014101011, -1240870.1, -16565.81, 0.0, 9.999811, 9.999613 
3.9500672e+2, 1.850709e+2, -1151503.9, -1171826.3, 52461.004, 0.013382919, 0.010749881, -1108229.0, 18077.986, 0.0, 9.999973, 9.9997015 
3.9500594e+2, 1.9507074e+2, -1027608.5, -1061959.9, 52654.12, 0.007865293, 0.022492357, -989399.5, 38908.06, 0.0, 10.0001545, 9.999696 
3.950052e+2, 2.0507024e+2, -948422.7, -1014040.7, 40028.08, 0.02085673, 0.020333352, -929475.75, 836.5159, 0.0, 10.000201, 9.99933 
3.950044e+2, 2.1506938e+2, -862492.6, -922435.25, 39177.63, 0.04447108, -0.0000015666913, -843136.8, -10815.893, 0.0, 10.000121, 9.999324 
3.950034e+2, 2.250687e+2, -761036.5, -826052.25, 46107.957, 0.036616035, 0.002320173, -737128.9, -2800.8425, 0.0, 10.000159, 9.999294 
3.9500225e+2, 2.350682e+2, -640012.1, -717564.94, 43723.59, 0.0011557294, 0.019648826, -620347.44, 15986.328, 0.0, 10.0003195, 9.9992895 
3.9500117e+2, 2.4506748e+2, -536408.25, -620665.4, 25542.898, -0.0029296158, 0.020730063, -529269.6, 9071.241, 0.0, 10.000375, 9.999255 
3.9500013e+2, 2.5506657e+2, -445407.47, -526297.44, 30898.637, 0.02207342, 0.0007658458, -434955.28, 5393.8384, 0.0, 10.000328, 9.999252 
3.9499885e+2, 2.650657e+2, -377526.22, -510109.66, 30302.732, 0.02132649, 0.021449748, -370928.66, -28570.213, 0.0, 10.000411, 9.998651 
3.949974e+2, 2.7506492e+2, -249137.5, -397500.44, 22557.977, -0.0026530002, 0.073958725, -245783.48, -1414.5742, 0.0, 10.00062, 9.998651 
3.9499584e+2, 2.850636e+2, -135807.5, -277518.94, -111.06037, -0.00013967867, 0.07077859, -135807.4, 10575.591, 0.0, 10.000662, 9.998782 
3.9499423e+2, 2.9506183e+2, -56495.434, -193551.95, 17586.809, 0.023533992, 0.01420149, -54274.71, -5874.72, 0.0, 10.000555, 9.998736 
3.9499304e+2, 3.0506152e+2, -7003.3066, -161535.95, 60040.973, 0.010274108, 0.11989293, 13582.314, 13582.314, 0.0, 10.000634, 9.998585 
3.9499244e+2, 3.1505927e+2, 77224.28, -42086.33, -10629.625, 0.0027239611, 0.02881323, 78163.89, 78163.89, 0.000000001718879, 10.000872, 9.99929 
4.050169e+2, 1.2507392e+2, -1768253.8, -1710466.6, 59380.37, 0.005872802, -0.0036702882, -1673323.4, 40951.395, 0.000028702449, 9.999512, 10.00026 
4.050146e+2, 1.350735e+2, -1674416.3, -1650960.0, -60207.043, 0.16132103, -0.043508407, -1601349.5, 14930.54, 0.000010028613, 9.999624, 9.999951 
4.0500924e+2, 1.4507428e+2, -1562769.0, -1545777.9, 29867.39, -0.12453147, 0.039424714, -1523221.3, -4948.6665, 0.0000013962007, 9.999722, 9.999948 
4.05009e+2, 1.5507399e+2, -1463321.4, -1449577.5, 23920.088, -0.008046945, 0.014700287, -1431561.9, -11286.776, 0.000000006286357, 9.999743, 9.999923 
4.0500867e+2, 1.6507357e+2, -1375232.6, -1391527.1, 51553.74, 0.067582645, -0.0025100217, -1331186.4, -8906.996, 0.0, 9.999827, 9.999609 
4.050076e+2, 1.750731e+2, -1255331.5, -1282679.6, 51823.652, 0.03541303, -0.012668966, -1215408.3, 8876.562, 0.0, 9.999977, 9.999611 
4.0500662e+2, 1.8507285e+2, -1151074.6, -1181806.3, 53538.285, 0.005390828, 0.0011080594, -1110740.8, 15546.982, 0.0, 10.000021, 9.99961 
4.0500596e+2, 1.9507279e+2, -1060531.4, -1087611.0, 44940.633, 0.0015359172, 0.030142011, -1027135.2, 1153.267, 0.0, 9.99997, 9.999608 
4.050053e+2, 2.0507228e+2, -961981.3, -1010792.9, 33569.363, 0.018674005, 0.029902833, -944883.56, -14590.5625, 0.0, 10.000067, 9.999416 
4.0500465e+2, 2.1507138e+2, -829157.25, -896419.4, 40938.22, 0.04702862, -0.0043347585, -809807.3, 22493.875, 0.0, 10.000308, 9.999413 
4.0500364e+2, 2.2507071e+2, -738270.06, -825217.06, 49590.77, 0.035095833, -0.0019292997, -715795.2, 18513.102, 0.0, 10.000359, 9.999204 
4.050024e+2, 2.3507027e+2, -659789.5, -736664.2, 45248.41, -0.012293618, 0.029809024, -638856.4, -2542.0854, 0.0, 10.000225, 9.999203 
4.0500143e+2, 2.4506953e+2, -542575.1, -625306.06, 27212.836, -0.010812575, 0.034851167, -534426.56, 3895.2212, 0.0, 10.0003395, 9.99924 
4.0500078e+2, 2.5506854e+2, -392508.72, -502363.53, 21919.594, 0.03651949, 0.008470049, -388296.56, 52033.938, 0.0, 10.000697, 9.999239 
4.0499952e+2, 2.6506767e+2, -327099.6, -482592.03, 19866.48, 0.03193651, 0.02415824, -324601.5, 17738.398, 0.0, 10.000743, 9.99868 
4.0499774e+2, 2.7506685e+2, -265725.4, -402639.72, 30460.11, -0.021614695, 0.07363421, -259254.61, -14904.484, 0.0, 10.000493, 9.998676 
4.0499628e+2, 2.8506553e+2, -147355.34, -284654.3, 11480.537, -0.017900545, 0.069432616, -146401.98, -37.88053, 0.0, 10.000589, 9.998768 
4.0499514e+2, 2.9506376e+2, 7803.2354, -164287.81, 4002.8083, 0.03795179, 0.011543085, 7896.2896, 56277.613, 0.0, 10.001003, 9.998722 
4.049941e+2, 3.0506343e+2, 35543.617, -169042.2, 39683.08, 0.03187411, 0.12964882, 42971.2, 42971.2, 0.0, 10.001047, 9.998334 
4.04993e+2, 3.1506085e+2, 67138.9, -37406.26, -13822.337, -0.020662341, 0.033433646, 68935.53, 68935.53, 0.00000001196501, 10.000761, 9.999376 
4.1501647e+2, 1.2507625e+2, -1775008.4, -1723332.5, 63337.3, 0.011075568, -0.0054222504, -1680765.6, 33485.85, 0.000021697306, 9.999507, 10.000174 
4.1501418e+2, 1.3507573e+2, -1686884.1, -1678493.1, -54883.734, 0.15652141, -0.037018877, -1627644.8, -11386.617, 0.000006740833, 9.999629, 9.999761 
4.1500866e+2, 1.4507642e+2, -1562809.4, -1545423.8, 31268.973, -0.15542991, 0.04677569, -1521661.8, -3409.9875, 0.0000006540361, 9.99972, 9.99995 
4.1500887e+2, 1.5507592e+2, -1462716.1, -1447806.3, 25070.395, 0.002818025, -0.00013626761, -1429105.9, -8849.384, 0.0000000002364484, 9.999742, 9.999936 
4.150086e+2, 1.6507553e+2, -1374543.9, -1389391.5, 56717.055, 0.080567606, -0.016728291, -1324766.8, -2506.579, 0.0, 9.999825, 9.999624 
4.150073e+2, 1.7507531e+2, -1254444.5, -1280443.9, 57679.207, 0.006766298, -0.005422548, -1208318.1, 15944.391, 0.0, 9.999975, 9.999627 
4.1500637e+2, 1.8507497e+2, -1165066.1, -1210664.9, 51435.36, -0.021840071, 0.009031998, -1131603.5, -5336.83, 0.0, 10.00002, 9.999412 
4.150061e+2, 1.9507451e+2, -1074699.6, -1116409.4, 43476.152, 0.01989817, 0.019884754, -1047335.2, -19062.58, 0.0, 9.999968, 9.999412 
4.1500556e+2, 2.0507401e+2, -947982.7, -981277.6, 42460.87, 0.034692768, 0.018251829, -919022.44, 11254.913, 0.0, 10.000065, 9.9996195 
4.150046e+2, 2.1507344e+2, -815152.5, -866803.06, 50338.574, 0.013153956, -0.0019419246, -784401.1, 47879.832, 0.0, 10.000305, 9.999617 
4.1500366e+2, 2.250729e+2, -746125.56, -841164.25, 44366.742, -0.00025133567, 0.008813166, -728633.44, 5653.153, 0.0, 10.000358, 9.999095 
4.150027e+2, 2.3507237e+2, -667674.7, -752533.1, 40625.004, -0.0016617527, 0.043964017, -651361.9, -15067.778, 0.0, 10.000223, 9.999095 
4.1500196e+2, 2.4507153e+2, -552976.2, -646434.6, 40441.727, 0.00700877, 0.05092217, -537906.06, 397.24673, 0.0, 10.000338, 9.999096 
4.1500133e+2, 2.5507042e+2, -402298.34, -523119.22, 35298.65, 0.024452614, 0.024656018, -392741.53, 47572.637, 0.0, 10.000699, 9.999096 
4.1500005e+2, 2.650695e+2, -307937.56, -442181.63, 10149.454, 0.012369819, 0.03296616, -307174.56, 35148.367, 0.0, 10.000741, 9.998959 
4.1499817e+2, 2.7506885e+2, -247620.33, -363074.34, 21831.422, -0.02830193, 0.06893209, -243630.1, 699.58746, 0.0, 10.000485, 9.998952 
4.1499683e+2, 2.8506747e+2, -172366.42, -335107.2, 26800.57, -0.023131717, 0.06262485, -168066.45, -21722.25, 0.0, 10.000583, 9.998425 
4.1499603e+2, 2.9506537e+2, -14942.6, -212368.05, 19065.107, 0.024827382, 0.007893234, -13118.364, 35247.938, 0.0, 10.001007, 9.998389 
4.1499516e+2, 3.0506504e+2, 36381.863, -167662.86, 28384.48, 0.03371862, 0.13891914, 40256.813, 40256.813, 0.0, 10.001049, 9.998342 
4.1499385e+2, 3.1506288e+2, 92202.14, 17699.166, -24799.348, -0.012851278, 0.08223303, 99701.98, 99701.98, 0.000000036873733, 10.000749, 9.999759 
4.250156e+2, 1.250784e+2, -1818129.0, -1726539.6, 38891.34, -0.011932256, 0.013896847, -1712253.6, 1977.8715, 0.000015823704, 9.99914, 10.000328 
4.250139e+2, 1.3507767e+2, -1719930.8, -1690566.1, -61897.523, 0.17569725, -0.041212842, -1641633.4, -25394.156, 0.0000041887733, 9.999388, 9.999794 
4.250083e+2, 1.4507832e+2, -1582655.4, -1562815.6, 26225.127, -0.1588957, 0.040376496, -1544697.0, -26463.541, 0.00000021832761, 9.999619, 9.99988 
4.2500854e+2, 1.5507786e+2, -1468160.8, -1458240.0, 12390.316, -0.0038742055, 0.006221131, -1449854.0, -29615.77, 0.0, 9.99974, 9.999866 
4.2500836e+2, 1.6507755e+2, -1372609.5, -1379559.0, 44780.965, 0.07478453, -0.0038680083, -1331168.6, -8927.46, 0.0, 9.9998, 9.999704 
4.2500713e+2, 1.750774e+2, -1271177.8, -1279765.0, 49596.402, 0.0018198201, 0.007546405, -1225689.5, -1447.5015, 0.0, 9.999823, 9.999705 
4.2500633e+2, 1.85077e+2, -1185826.8, -1233136.3, 48652.297, -0.02348143, 0.01758031, -1155383.5, -29136.875, 0.0, 9.999932, 9.9993 
4.2500618e+2, 1.9507635e+2, -1059598.1, -1121589.0, 46909.53, 0.024122056, 0.019532528, -1034368.8, -6113.598, 0.0, 10.000126, 9.999299 
4.2500564e+2, 2.0507582e+2, -924232.1, -963633.4, 45084.04, 0.03072267, 0.01914809, -894732.3, 35527.996, 0.0, 10.000202, 9.999674 
4.2500457e+2, 2.1507542e+2, -831881.8, -868565.8, 41145.668, -0.01238845, 0.0096415235, -805175.0, 27086.967, 0.0, 10.000164, 9.999673 
4.250038e+2, 2.2507492e+2, -759512.6, -846160.6, 32774.203, -0.018538352, 0.019630473, -748512.44, -14245.381, 0.0, 10.000259, 9.999107 
4.2500323e+2, 2.350743e+2, -628200.94, -732041.25, 37575.453, 0.015107209, 0.04430715, -616030.4, 20244.97, 0.0, 10.000488, 9.999108 
4.250026e+2, 2.4507344e+2, -529750.06, -648444.56, 46736.195, 0.025621748, 0.054981034, -513556.8, 24728.256, 0.0, 10.000553, 9.998978 
4.250018e+2, 2.5507236e+2, -444761.0, -556715.94, 43055.375, 0.012707598, 0.04477187, -430118.06, 10178.1455, 0.0, 10.0004635, 9.998978 
4.250006e+2, 2.650714e+2, -324927.94, -444820.28, 7266.858, 0.0004624626, 0.048042484, -324489.1, 17816.693, 0.0, 10.0006, 9.999008 
4.2499906e+2, 2.7507052e+2, -176646.05, -323008.72, 1582.4989, -0.01082014, 0.059394654, -176628.94, 67684.72, 0.0, 10.000947, 9.999004 
4.2499778e+2, 2.850692e+2, -110435.336, -308826.78, 14062.46, -0.009734037, 0.055801045, -109443.516, 36884.08, 0.0, 10.001022, 9.998393 
4.2499673e+2, 2.950673e+2, -41707.402, -228750.13, 27953.059, 0.0024847118, 0.02658029, -37619.246, 10728.62, 0.0, 10.000838, 9.998359 
4.2499602e+2, 3.050667e+2, 3727.1482, -204556.9, 38090.11, 0.020859472, 0.14352983, 10474.338, 10474.338, 0.0, 10.000916, 9.998153 
4.2499498e+2, 3.1506437e+2, 175738.6, 73821.38, -29717.945, -0.0025601524, 0.087502815, 183770.97, 183770.97, 0.00000007454206, 10.001252, 9.999904 
4.3501416e+2, 1.2508033e+2, -1791977.9, -1671710.3, 45383.914, -0.068501994, 0.054786235, -1656506.4, 57707.934, 0.0000113764345, 9.999138, 10.000705 
4.350137e+2, 1.3507931e+2, -1701658.3, -1654012.9, -50762.484, 0.21773519, -0.05488952, -1621761.0, -5537.67, 0.0000025044064, 9.999392, 10.000044 
4.3500814e+2, 1.4507997e+2, -1593014.0, -1584241.5, 31612.01, -0.13683392, 0.020908842, -1556712.9, -38495.52, 0.000000047491298, 9.999619, 9.999733 
4.3500802e+2, 1.5507981e+2, -1478513.1, -1479587.5, 17285.014, -0.030609626, 0.031949632, -1461757.0, -41536.574, 0.0, 9.999739, 9.99972 
4.350079e+2, 1.6507962e+2, -1363667.1, -1360071.6, 45564.934, 0.047328725, 0.034495894, -1316269.0, 5953.422, 0.0, 9.999796, 9.99984 
4.3500715e+2, 1.750794e+2, -1261758.0, -1259747.9, 51020.668, 0.019606724, 0.026726117, -1209722.4, 14500.523, 0.0, 9.999822, 9.999844 
4.350065e+2, 1.8507898e+2, -1188282.8, -1237607.3, 55725.43, -0.00084190635, 0.027764846, -1152006.1, -25778.621, 0.0, 9.999929, 9.9992695 
4.350062e+2, 1.950783e+2, -1061845.5, -1125646.5, 54463.168, 0.012507594, 0.029618224, -1030628.06, -2391.7017, 0.0, 10.000124, 9.999272 
4.3500558e+2, 2.0507774e+2, -931318.9, -977583.56, 43634.9, 0.0053126086, 0.03255922, -905063.9, 25178.057, 0.0, 10.000199, 9.999579 
4.350046e+2, 2.1507733e+2, -838724.9, -882204.0, 40225.61, -0.030813089, 0.030391304, -814740.1, 17504.111, 0.0, 10.000162, 9.99958 
4.3500403e+2, 2.2507675e+2, -750304.3, -826667.2, 41105.83, -0.021147951, 0.0308973, -732383.06, 1866.716, 0.0, 10.000258, 9.999243 
4.3500394e+2, 2.3507601e+2, -618943.5, -712780.4, 46227.547, 0.03668361, 0.030424215, -599996.0, 36262.246, 0.0, 10.000488, 9.999241 
4.3500334e+2, 2.4507523e+2, -536533.94, -661943.06, 43166.902, 0.04390755, 0.04637164, -523111.97, 15155.1455, 0.0, 10.000551, 9.998886 
4.3500215e+2, 2.5507438e+2, -451478.2, -570076.8, 40168.473, -0.0002554582, 0.06876339, -439154.1, 1122.6447, 0.0, 10.000462, 9.998887 
4.3500116e+2, 2.6507324e+2, -337721.56, -470819.44, 20061.777, -0.005356041, 0.06930265, -334763.4, 7525.1323, 0.0, 10.000597, 9.998831 
4.350004e+2, 2.7507186e+2, -188431.64, -347585.53, 14282.885, 0.02913108, 0.0456892, -187160.03, 57142.047, 0.0, 10.000947, 9.998836 
4.3499908e+2, 2.8507066e+2, -91407.914, -268065.84, 6808.4956, 0.020542007, 0.04922912, -91145.9, 55168.445, 0.0, 10.001019, 9.998675 
4.3499723e+2, 2.9506952e+2, -23113.953, -188793.7, 21565.436, -0.03155693, 0.0670384, -20352.936, 27973.182, 0.0, 10.0008335, 9.998635 
4.3499663e+2, 3.0506846e+2, -23768.62, -260679.02, 50125.15, -0.009173911, 0.14306411, -13599.696, -13599.696, 0.0, 10.000912, 9.997769 
4.349963e+2, 3.1506526e+2, 169944.25, 62001.86, -14246.741, 0.0060168845, 0.041212767, 171792.94, 171792.94, 0.0000001100893, 10.001251, 9.999824 
4.4501317e+2, 1.250818e+2, -1826323.3, -1677352.1, 48142.52, -0.06849953, 0.05323394, -1663148.4, 51051.895, 0.000008277144, 9.9988575, 10.000801 
4.4501308e+2, 1.3508098e+2, -1731347.1, -1670538.0, -63158.594, 0.22547454, -0.035167135, -1630846.6, -14638.925, 0.0000015575915, 9.999196, 10.000027 
4.4500747e+2, 1.4508162e+2, -1612513.5, -1591471.6, 9937.701, -0.15867811, 0.03990985, -1587520.3, -69318.51, 0.000000013935479, 9.9994755, 9.999752 
4.4500765e+2, 1.5508136e+2, -1496889.5, -1486128.9, 5383.051, -0.034647144, 0.036487337, -1483898.4, -63692.617, 0.0, 9.999603, 9.99974 
4.450077e+2, 1.6508111e+2, -1374047.1, -1367465.9, 33071.402, 0.053318005, 0.035264965, -1337521.9, -15313.768, 0.0, 9.999736, 9.999818 
4.4500706e+2, 1.7508096e+2, -1253238.6, -1257929.1, 26827.72, 0.025317706, 0.034095544, -1228653.8, -4445.493, 0.0, 9.999891, 9.999822 
4.4500643e+2, 1.8508056e+2, -1180220.3, -1230622.0, 28784.5, -0.00007678216, 0.038765457, -1167163.8, -40951.215, 0.0, 9.999972, 9.999297 
4.4500616e+2, 1.9507991e+2, -1081000.6, -1131807.9, 30987.307, 0.004275052, 0.041279204, -1066334.8, -38114.086, 0.0, 9.999979, 9.999299 
4.4500566e+2, 2.0507932e+2, -959365.25, -997368.94, 21451.2, -0.00046340225, 0.040497847, -949710.06, -19483.188, 0.0, 10.000033, 9.999524 
4.450048e+2, 2.1507877e+2, -846989.7, -892344.3, 20652.172, -0.023419308, 0.030842064, -838995.0, -6764.0522, 0.0, 10.000132, 9.999524 
4.4500434e+2, 2.2507818e+2, -746997.06, -817544.06, 26378.73, -0.013823258, 0.031456783, -738224.44, -3988.0308, 0.0, 10.000249, 9.999309 
4.450043e+2, 2.3507757e+2, -629267.25, -710473.8, 25877.215, 0.030544821, 0.036917955, -621722.25, 14520.94, 0.0, 10.000386, 9.999306 
4.450038e+2, 2.450768e+2, -537136.94, -659219.25, 19638.35, 0.038871557, 0.05096505, -534055.6, 4196.016, 0.0, 10.000533, 9.998914 
4.450028e+2, 2.550759e+2, -416012.1, -549381.75, 25243.086, 0.010184447, 0.065351255, -411394.2, 28867.598, 0.0, 10.0006895, 9.9989195 
4.4500196e+2, 2.650748e+2, -319849.16, -469250.56, 19468.459, 0.0068485015, 0.06979007, -317353.9, 24919.854, 0.0, 10.000751, 9.998768 
4.4500124e+2, 2.7507353e+2, -225886.75, -373022.38, 21419.93, 0.030144595, 0.062150035, -222831.88, 21455.357, 0.0, 10.000721, 9.99877 
4.4499993e+2, 2.850724e+2, -115477.23, -270785.72, 4769.1436, 0.015216606, 0.07351421, -115330.914, 30967.83, 0.0, 10.0008135, 9.998755 
4.449981e+2, 2.9507133e+2, 7744.0396, -164237.25, 3617.351, -0.037197795, 0.08983965, 7820.091, 56129.293, 0.0, 10.001002, 9.998723 
4.4499764e+2, 3.0506983e+2, -12827.578, -264149.3, 42153.73, -0.0044373167, 0.12208738, -5945.6577, -5945.6577, 0.00000000000009396187, 10.001022, 9.997693 
4.449973e+2, 3.1506693e+2, 123824.74, 51774.57, 801.9646, -0.0004938774, 0.054510318, 123833.664, 123833.664, 0.00000013361628, 10.000883, 9.999929 
4.5501253e+2, 1.2508276e+2, -1838161.6, -1701973.9, 55369.258, -0.018167377, 0.006923482, -1682303.8, 31885.846, 0.0000061456926, 9.998858, 10.000631 
4.55012e+2, 1.3508263e+2, -1750282.3, -1709958.0, -48320.555, 0.19797607, 0.015350392, -1677761.9, -61569.48, 0.0000010596042, 9.999195, 9.999757 
4.550063e+2, 1.4508328e+2, -1600853.3, -1566513.4, 16433.674, -0.2268065, 0.09564924, -1559916.3, -41729.586, 0.000000007555667, 9.999472, 9.999926 
4.550074e+2, 1.5508248e+2, -1484564.9, -1460721.5, 10809.812, -0.01855431, 0.021627365, -1456550.4, -36356.207, 0.0, 9.999604, 9.999914 
4.5500785e+2, 1.6508205e+2, -1385817.1, -1392154.0, 38493.05, 0.09041518, 0.0007574604, -1350362.4, -28164.2, 0.0, 9.999738, 9.999647 
4.550069e+2, 1.7508201e+2, -1265356.3, -1282713.5, 33249.91, 0.018332982, 0.029290332, -1239671.0, -15472.682, 0.0, 9.999889, 9.999653 
4.5500618e+2, 1.8508172e+2, -1175458.3, -1219469.4, 29339.426, -0.02262099, 0.04926184, -1160788.9, -34587.117, 0.0, 9.999967, 9.999375 
4.5500606e+2, 1.9508117e+2, -1075773.5, -1120364.9, 31680.443, -0.0024028302, 0.05386859, -1059329.8, -31121.215, 0.0, 9.999977, 9.999378 
4.550058e+2, 2.0508051e+2, -960980.75, -999993.06, 24859.732, 0.011411057, 0.042931717, -948887.9, -18672.596, 0.0, 10.0000305, 9.999507 
4.5500526e+2, 2.1507972e+2, -848088.0, -894458.0, 24667.014, 0.008649896, 0.011348726, -837420.25, -5198.264, 0.0, 10.000131, 9.99951 
4.5500475e+2, 2.2507922e+2, -747671.44, -818670.94, 31337.254, 0.0025760038, 0.021083526, -735818.7, -1591.716, 0.0, 10.000248, 9.999302 
4.5500436e+2, 2.3507898e+2, -629534.2, -711052.1, 31206.566, -0.0038901533, 0.06377274, -618959.5, 17270.857, 0.0, 10.000385, 9.999302 
4.5500407e+2, 2.4507822e+2, -527219.5, -638200.44, 25166.246, 0.009531123, 0.0694498, -521779.4, 16459.248, 0.0, 10.000532, 9.999059 
4.5500386e+2, 2.5507694e+2, -405868.94, -527461.5, 30956.045, 0.042218946, 0.034074582, -398441.6, 41809.88, 0.0, 10.000686, 9.999071 
4.55003e+2, 2.6507604e+2, -316769.47, -462160.6, 18174.016, 0.035974804, 0.048945896, -314532.13, 27729.504, 0.0, 10.000747, 9.998818 
4.5500156e+2, 2.7507547e+2, -222495.6, -366592.4, 21024.533, -0.009726747, 0.10773264, -219490.66, 24778.639, 0.0, 10.000724, 9.998814 
4.5500034e+2, 2.850744e+2, -124793.02, -289340.4, 11508.534, -0.02810981, 0.12770224, -123992.016, 22288.947, 0.0, 10.000812, 9.998629 
4.549993e+2, 2.9507273e+2, 77.751335, -178994.72, 10128.837, -0.016630275, 0.095187485, 648.8452, 48946.03, 0.0, 10.000998, 9.998624 
4.5499906e+2, 3.0507082e+2, 1315.2617, -232624.94, 36603.21, 0.033442162, 0.08114269, 6908.612, 6908.612, 0.00000000000087855477, 10.001014, 9.997913 
4.5499796e+2, 3.1506914e+2, 144231.47, 94754.16, -757.33014, -0.026763018, 0.11591599, 144243.06, 144243.06, 0.00000014519496, 10.000881, 10.000226 
4.6501148e+2, 1.250836e+2, -1820811.1, -1685657.8, 26197.805, -0.013509238, -0.008922928, -1680757.3, 33423.566, 0.000004581255, 9.998945, 10.000699 
4.6501127e+2, 1.3508359e+2, -1766579.3, -1721455.0, -52396.59, 0.2084437, 0.013701341, -1686969.4, -70786.49, 0.0000007444035, 9.999098, 9.999725 
4.650055e+2, 1.4508422e+2, -1622963.9, -1571950.5, 13497.935, -0.24564064, 0.08999215, -1568599.3, -50421.92, 0.0000000034677494, 9.999298, 9.999972 
4.6500692e+2, 1.550834e+2, -1501009.6, -1463245.3, -2751.342, -0.020420646, 0.011504135, -1463045.9, -42861.656, 0.0, 9.999468, 9.999962 
4.6500757e+2, 1.6508293e+2, -1408544.6, -1412226.3, 24081.744, 0.09468839, -0.0123028625, -1386233.4, -64044.684, 0.0, 9.999621, 9.999566 
4.6500668e+2, 1.7508279e+2, -1290254.6, -1303605.1, 24799.705, 0.016577773, 0.01449992, -1271247.5, -47056.984, 0.0, 9.999757, 9.999574 
4.650061e+2, 1.8508255e+2, -1185838.6, -1211071.4, 21798.938, -0.021560663, 0.036593895, -1173268.4, -47074.62, 0.0, 9.999837, 9.999496 
4.6500614e+2, 1.9508219e+2, -1082227.5, -1110088.4, 27836.523, 0.0101014925, 0.047729816, -1065030.4, -36831.957, 0.0, 9.999875, 9.999499 
4.6500593e+2, 2.0508161e+2, -972812.25, -1008026.06, 26047.285, 0.023451183, 0.042805694, -958979.3, -28775.191, 0.0, 9.999959, 9.999487 
4.650053e+2, 2.1508089e+2, -857035.5, -901314.1, 24499.28, 0.006838878, 0.016813241, -846154.2, -13943.225, 0.0, 10.00008, 9.999488 
4.6500492e+2, 2.2508036e+2, -749338.0, -812030.6, 34924.117, -0.0049511436, 0.022475483, -733755.8, 460.3734, 0.0, 10.000204, 9.999369 
4.6500468e+2, 2.3508006e+2, -633078.0, -704781.3, 40037.527, -0.008733782, 0.05222232, -615186.3, 21033.492, 0.0, 10.000328, 9.9993725 
4.650045e+2, 2.4507938e+2, -531517.8, -632494.4, 35308.91, 0.0053591663, 0.059810072, -520396.16, 17830.992, 0.0, 10.00047, 9.999127 
4.650044e+2, 2.5507835e+2, -409352.63, -522229.7, 34303.65, 0.036705665, 0.03987967, -399745.34, 40492.69, 0.0, 10.000632, 9.999134 
4.650037e+2, 2.650775e+2, -322337.13, -462732.88, 10395.779, 0.032174993, 0.059144165, -321571.53, 20676.15, 0.0, 10.000699, 9.998838 
4.650023e+2, 2.750769e+2, -228743.42, -367151.9, 10374.516, -0.0090246685, 0.11268024, -227970.11, 16285.917, 0.0, 10.00067, 9.998835 
4.6500114e+2, 2.850759e+2, -126317.68, -293639.8, 14553.55, -0.027543487, 0.1401777, -125061.26, 21206.041, 0.0, 10.000815, 9.998597 
4.650003e+2, 2.950744e+2, 14978.157, -174168.6, 18665.754, -0.019535614, 0.12668964, 16802.57, 65084.79, 0.0, 10.00111, 9.998603 
4.6500018e+2, 3.050722e+2, 23035.803, -215970.94, 27208.71, 0.041139107, 0.076322675, 26094.129, 26094.129, 0.00000000000042122027, 10.001136, 9.99797 
4.649989e+2, 3.1507105e+2, 147452.3, 96486.28, -19723.563, -0.021415623, 0.16320454, 154193.55, 154193.55, 0.00000014428599, 10.000901, 10.000229 
4.7500995e+2, 1.2508433e+2, -1801179.6, -1643968.6, 22331.875, -0.06209304, 0.0046479604, -1640857.9, 73316.25, 0.0000033199578, 9.99894, 10.000988 
4.750108e+2, 1.3508388e+2, -1752565.8, -1693524.8, -44787.887, 0.2533218, -0.03639594, -1669403.6, -53224.75, 0.00000048107097, 9.999101, 9.999917 
4.7500503e+2, 1.4508443e+2, -1626849.1, -1580893.0, 20593.986, -0.21943784, 0.027041957, -1573014.9, -54841.285, 0.000000000765976, 9.999302, 9.999909 
4.750062e+2, 1.5508412e+2, -1505911.5, -1472461.8, 4307.394, -0.04056974, 0.004750795, -1471916.0, -51739.68, 0.0, 9.999465, 9.999901 
4.750069e+2, 1.6508374e+2, -1409055.9, -1412629.1, 29538.611, 0.065236524, -0.005394441, -1381249.9, -59069.754, 0.0, 9.999618, 9.999564 
4.7500643e+2, 1.750833e+2, -1289972.1, -1303204.0, 30414.287, 0.01652096, -0.00999804, -1265462.5, -41277.453, 0.0, 9.999758, 9.999576 
4.7500616e+2, 1.8508303e+2, -1173588.1, -1185646.9, 22936.975, -0.00091080606, 0.0021763702, -1155901.3, -29712.92, 0.0, 9.999837, 9.999671 
4.750063e+2, 1.9508296e+2, -1070110.8, -1085086.0, 29776.244, 0.041744303, 0.023173109, -1046895.1, -18704.936, 0.0, 9.999875, 9.99967 
4.7500598e+2, 2.0508267e+2, -976032.6, -1013465.4, 30582.076, 0.0349618, 0.039777976, -958894.2, -28700.785, 0.0, 9.999954, 9.999452 
4.7500503e+2, 2.1508223e+2, -859386.3, -906062.1, 29305.553, -0.030127104, 0.04668639, -845261.25, -13063.412, 0.0, 10.00008, 9.999455 
4.7500476e+2, 2.250816e+2, -739829.0, -791814.06, 39178.035, -0.03804769, 0.0355184, -718805.25, 15398.721, 0.0, 10.000201, 9.999509 
4.750052e+2, 2.350808e+2, -622995.3, -683478.94, 44915.69, 0.014458888, 0.0015660278, -599089.3, 37122.254, 0.0, 10.000326, 9.999519 
4.7500518e+2, 2.450803e+2, -532930.44, -635248.9, 41087.88, 0.024783066, 0.020970125, -518473.5, 19743.777, 0.0, 10.000468, 9.999109 
4.7500464e+2, 2.5508007e+2, -410663.22, -525590.7, 40480.344, -0.0074468474, 0.08295983, -397836.56, 42384.98, 0.0, 10.000634, 9.99911 
4.75004e+2, 2.650792e+2, -323811.66, -465464.44, 8961.015, -0.0055080396, 0.10140104, -323247.03, 18984.822, 0.0, 10.000698, 9.99882 
4.7500336e+2, 2.7507782e+2, -230018.2, -368356.4, 9395.258, 0.030502342, 0.077297516, -229383.05, 14864.469, 0.0, 10.000665, 9.998829 
4.7500238e+2, 2.8507692e+2, -122440.836, -284557.6, 25580.209, 0.015683126, 0.11090646, -118500.34, 27757.58, 0.0, 10.000811, 9.998662 
4.7500113e+2, 2.9507628e+2, 20387.316, -163741.53, 30011.959, -0.049075797, 0.18271233, 25155.613, 73420.12, 0.0, 10.001113, 9.998673 
4.7500107e+2, 3.050738e+2, 14253.503, -232996.38, 17564.752, 0.01560985, 0.105613865, 15495.077, 15495.077, 0.0, 10.001132, 9.997854 
4.750001e+2, 3.1507248e+2, 127495.734, 57174.605, -22153.623, 0.010645658, 0.18643284, 133892.94, 133892.94, 0.00000012581201, 10.000894, 9.999962 
4.8500854e+2, 1.25085e+2, -1827716.9, -1639131.8, 25827.404, -0.08167213, 0.0051413896, -1635658.5, 78509.67, 0.0000022837717, 9.998686, 10.0011425 
4.8501018e+2, 1.3508467e+2, -1756599.6, -1686595.1, -38208.043, 0.28324872, -0.030669449, -1669780.4, -53609.42, 0.0000002759338, 9.999034, 9.999997 
4.8500445e+2, 1.4508511e+2, -1622787.4, -1583238.4, 20926.97, -0.21169248, 0.02092479, -1574221.1, -56054.715, 0.000000000009128432, 9.999349, 9.99987 
4.850056e+2, 1.5508479e+2, -1506689.4, -1477311.4, 3622.4482, -0.050048664, 0.00016612733, -1476871.3, -56701.65, 0.0, 9.999477, 9.999862 
4.850063e+2, 1.6508445e+2, -1416922.6, -1405591.1, 31231.16, 0.052857894, -0.009558075, -1379516.0, -57342.81, 0.0, 9.9995165, 9.999662 
4.8500606e+2, 1.750841e+2, -1318056.3, -1305669.3, 39587.65, 0.01488857, -0.013650982, -1271793.6, -47616.76, 0.0, 9.9995165, 9.999676 
4.8500592e+2, 1.8508393e+2, -1201960.6, -1202514.1, 31547.852, 0.0030349232, 0.0022322892, -1170688.4, -44508.797, 0.0, 9.999655, 9.999643 
4.850062e+2, 1.9508389e+2, -1067097.0, -1086488.9, 22493.738, 0.044222455, 0.03130877, -1052298.5, -24117.008, 0.0, 9.9999075, 9.999645 
4.8500597e+2, 2.0508367e+2, -956484.7, -991971.25, 19146.863, 0.035838056, 0.047950774, -948123.8, -17939.6, 0.0, 10.000035, 9.999561 
4.850051e+2, 2.1508324e+2, -857084.0, -892520.4, 28875.852, -0.030394187, 0.047163736, -840923.75, -8736.028, 0.0, 10.000042, 9.999567 
4.8500493e+2, 2.2508262e+2, -750601.6, -800731.56, 41341.25, -0.037085366, 0.03400768, -727320.44, 6873.239, 0.0, 10.000144, 9.9994755 
4.850056e+2, 2.3508182e+2, -623747.94, -687971.0, 32583.791, 0.017096322, 0.0031717268, -610111.75, 26090.223, 0.0, 10.000338, 9.999483 
4.8500565e+2, 2.4508142e+2, -536773.25, -630098.06, 21655.727, 0.026608609, 0.029960638, -531992.94, 6214.131, 0.0, 10.000411, 9.999173 
4.850051e+2, 2.5508136e+2, -445168.8, -534736.44, 26823.674, -0.009020854, 0.10341785, -437750.16, 2459.4058, 0.0, 10.000366, 9.999176 
4.8500457e+2, 2.6508045e+2, -354474.25, -479315.78, 2157.5415, -0.005830333, 0.113265015, -354436.97, -12216.801, 0.0, 10.000484, 9.998827 
4.850041e+2, 2.7507877e+2, -217602.36, -362048.47, 4174.469, 0.03630042, 0.060510438, -217481.81, 26756.457, 0.0, 10.000749, 9.998833 
4.8500326e+2, 2.8507793e+2, -114301.67, -279566.22, 19880.27, 0.020524835, 0.10112946, -111943.84, 34304.133, 0.0, 10.000862, 9.9986725 
4.8500207e+2, 2.950778e+2, -18493.576, -180348.02, 18901.627, -0.052033726, 0.2162499, -16315.522, 31935.092, 0.0, 10.000836, 9.9986925 
4.8500213e+2, 3.0507502e+2, -2030.4242, -233151.05, 8048.1865, 0.015937215, 0.10678907, -1750.5056, -1750.5056, 0.0, 10.000986, 9.997924 
4.8500112e+2, 3.150737e+2, 167560.45, 54581.754, -13551.221, 0.0049689505, 0.18316391, 169163.11, 169163.11, 0.00000009052117, 10.001263, 9.999767 
4.9500725e+2, 1.2508558e+2, -1826796.6, -1636121.9, 25194.621, -0.08250631, -0.0070395176, -1632849.0, 81314.164, 0.0000015131136, 9.998682, 10.001165 
4.9500933e+2, 1.3508594e+2, -1758736.0, -1690640.0, -22825.594, 0.29712, 0.028789224, -1683696.9, -67537.74, 0.00000014199817, 9.999032, 9.99997 
4.950037e+2, 1.4508627e+2, -1624606.0, -1586678.5, 27344.451, -0.22431204, 0.07071948, -1572365.5, -54209.652, 0.0, 9.999346, 9.999848 
4.95005e+2, 1.5508543e+2, -1508075.9, -1480405.4, 8492.857, -0.053227127, 0.00030346992, -1478006.6, -57842.375, 0.0, 9.999478, 9.99984 
4.9500585e+2, 1.6508506e+2, -1401726.0, -1375166.4, 30196.633, 0.05243689, -0.020693762, -1355458.5, -33290.758, 0.0, 9.999521, 9.999869 
4.9500555e+2, 1.7508522e+2, -1303662.3, -1276096.0, 40238.664, 0.0114394035, 0.0032289012, -1247345.3, -23179.326, 0.0, 9.999517, 9.999878 
4.9500546e+2, 1.8508519e+2, -1218711.8, -1236334.8, 41278.758, -0.010443278, 0.03640003, -1185314.5, -59147.023, 0.0, 9.999651, 9.9994135 
4.9500585e+2, 1.9508499e+2, -1082734.6, -1119202.5, 32285.248, 0.01553805, 0.07136533, -1063890.1, -35717.832, 0.0, 9.999908, 9.99942 
4.9500588e+2, 2.0508456e+2, -938595.44, -954250.4, 18999.531, 0.023395978, 0.06689855, -925874.2, 4302.462, 0.0, 10.000032, 9.999822 
4.950055e+2, 2.1508393e+2, -838951.4, -854865.5, 29688.523, 0.005027133, 0.017625552, -816172.06, 16008.476, 0.0, 10.000041, 9.999826 
4.9500543e+2, 2.2508346e+2, -766478.9, -833002.8, 48387.73, -0.004243131, 0.016706083, -741023.44, -6838.0938, 0.0, 10.000141, 9.999255 
4.9500573e+2, 2.3508315e+2, -639041.94, -720134.0, 39943.72, -0.0011565492, 0.057662394, -622671.5, 13519.352, 0.0, 10.0003395, 9.999262 
4.9500588e+2, 2.4508274e+2, -527104.1, -609600.25, 19588.277, 0.010464239, 0.08792589, -522689.25, 15507.247, 0.0, 10.000409, 9.999314 
4.9500585e+2, 2.550822e+2, -435001.03, -513029.78, 25467.06, 0.030175118, 0.10073246, -427424.72, 12777.487, 0.0, 10.000363, 9.999326 
4.9500543e+2, 2.650812e+2, -352377.6, -474717.1, 11886.451, 0.02887213, 0.093326084, -351233.4, -9020.519, 0.0, 10.0004835, 9.998859 
4.9500453e+2, 2.7507982e+2, -215666.75, -358237.13, 14241.926, 0.006223516, 0.06159511, -214257.98, 29970.41, 0.0, 10.00075, 9.998858 
4.950038e+2, 2.85079e+2, -118807.74, -288295.72, 18483.74, -0.014189597, 0.11110705, -116815.39, 29422.04, 0.0, 10.000859, 9.998613 
4.9500313e+2, 2.950788e+2, -21297.22, -185016.48, 18625.889, -0.029409058, 0.22843958, -19204.943, 29035.594, 0.0, 10.000833, 9.998663 
4.950034e+2, 3.0507576e+2, 14619.673, -196958.5, 18572.975, 0.04123227, 0.08048349, 16237.691, 16237.691, 0.0, 10.000979, 9.998176 
4.950019e+2, 3.1507462e+2, 160125.23, 40490.598, 3707.6687, -0.044857834, 0.14579116, 160240.03, 160240.03, 0.000000050936965, 10.001258, 9.999672 
5.0500596e+2, 1.250863e+2, -1843612.0, -1638478.3, 11455.404, -0.07146095, 0.01376293, -1637840.5, 76316.44, 0.0000009949754, 9.998545, 10.001214 
5.050084e+2, 1.3508658e+2, -1760611.5, -1689545.6, -18433.262, 0.30021405, 0.040069796, -1685048.9, -68895.53, 0.000000065122016, 9.999008, 9.99999 
5.050028e+2, 1.4508678e+2, -1634875.6, -1586428.3, 23216.104, -0.24026798, 0.065066785, -1577099.4, -58948.125, 0.0, 9.999253, 9.999895 
5.0500447e+2, 1.5508612e+2, -1542047.5, -1491614.1, 6960.45, -0.042250972, 0.008156927, -1490671.1, -70512.99, 0.0, 9.999223, 9.9998865 
5.050055e+2, 1.6508588e+2, -1416482.5, -1378973.6, 30275.176, 0.06723824, -0.004399565, -1362114.6, -39954.12, 0.0, 9.999405, 9.9999 
5.050052e+2, 1.7508611e+2, -1265767.6, -1254520.5, 26352.773, 0.008193211, 0.023641827, -1233198.0, -9039.927, 0.0, 9.999763, 9.999908 
5.050051e+2, 1.8508603e+2, -1183555.8, -1215056.9, 28122.38, -0.02247797, 0.049574193, -1167073.6, -40913.895, 0.0, 9.999872, 9.999454 
5.0500554e+2, 1.9508569e+2, -1100571.5, -1123199.1, 39138.777, 0.0024842836, 0.06779931, -1071144.1, -42978.875, 0.0, 9.999766, 9.999462 
5.050058e+2, 2.0508526e+2, -965867.1, -967033.06, 28479.76, 0.01778773, 0.05995234, -937964.4, -7794.798, 0.0, 9.999843, 9.9998255 
5.0500566e+2, 2.1508472e+2, -831945.25, -850943.75, 18789.125, 0.013420352, 0.019314887, -820390.6, 11782.226, 0.0, 10.000087, 9.999831 
5.050057e+2, 2.2508432e+2, -758080.56, -827939.1, 35909.1, 0.006482845, 0.024947438, -742914.75, -8737.607, 0.0, 10.000194, 9.999266 
5.05006e+2, 2.3508406e+2, -664148.94, -730969.06, 44601.02, 0.0005107369, 0.07043958, -641832.1, -5649.717, 0.0, 10.000162, 9.999273 
5.050062e+2, 2.4508364e+2, -542625.06, -611942.1, 30632.936, 0.008905902, 0.09763046, -531027.9, 7160.2075, 0.0, 10.000281, 9.99936 
5.050063e+2, 2.5508305e+2, -405173.78, -493928.66, 28723.107, 0.03047398, 0.099563934, -396689.38, 43504.883, 0.0, 10.000547, 9.999369 
5.0500596e+2, 2.650821e+2, -327891.6, -463598.28, 9971.702, 0.029223518, 0.09291527, -327162.8, 15041.791, 0.0, 10.000655, 9.998853 
5.0500524e+2, 2.7508077e+2, -236369.1, -369397.84, 8130.816, 0.0043434803, 0.07155432, -235873.97, 8345.143, 0.0, 10.000613, 9.998847 
5.050046e+2, 2.8507993e+2, -135565.02, -299905.4, 13502.924, -0.015176992, 0.11744546, -134462.95, 11765.71, 0.0, 10.00076, 9.998582 
5.0500417e+2, 2.950796e+2, 10865.754, -171812.98, 15033.437, -0.024842821, 0.22183508, 12094.655, 60327.918, 0.0, 10.001063, 9.998642 
5.050045e+2, 3.0507654e+2, 58840.527, -147314.69, 14090.702, 0.048955668, 0.061051123, 59799.168, 59799.168, 0.0, 10.001162, 9.998428 
5.0500304e+2, 3.150757e+2, 123559.59, 8308.336, 3542.8462, -0.0488302, 0.13729177, 123668.4, 123668.4, 0.000000020855737, 10.00107, 9.999541 
5.150047e+2, 1.2508708e+2, -1839683.1, -1629153.9, 11527.913, -0.05661602, 0.06538378, -1628524.5, 85625.24, 0.00000067894854, 9.998538, 10.001281 
5.1500726e+2, 1.3508663e+2, -1755571.9, -1679549.6, 150.01729, 0.28843206, 0.0070508816, -1679549.4, -63396.043, 0.000000029496794, 9.999009, 10.000059 
5.1500183e+2, 1.4508666e+2, -1626479.0, -1570242.5, 21906.184, -0.26608646, 0.008947416, -1562716.5, -44563.883, 0.0, 9.999257, 10.000005 
5.150039e+2, 1.5508682e+2, -1533887.5, -1475020.6, 6264.01, -0.019055752, 0.023131065, -1474361.5, -54210.074, 0.0, 9.999224, 10.0 
5.150052e+2, 1.6508685e+2, -1426533.6, -1399552.6, 43459.47, 0.096098214, 0.039005805, -1367538.0, -45386.418, 0.0, 9.999403, 9.99976 
5.150049e+2, 1.7508675e+2, -1275116.4, -1274372.5, 39838.465, 0.0024975613, 0.047344398, -1234904.3, -10750.965, 0.0, 9.999764, 9.999772 
5.150048e+2, 1.8508646e+2, -1161492.6, -1169707.3, 23489.863, -0.037262186, 0.042711627, -1141753.6, -15597.416, 0.0, 9.999874, 9.9997635 
5.1500535e+2, 1.9508603e+2, -1078938.9, -1078618.5, 35564.105, 0.004236775, 0.020455724, -1043214.25, -15053.825, 0.0, 9.999766, 9.999768 
5.150056e+2, 2.0508575e+2, -984518.0, -1004370.3, 37475.348, 0.01754511, 0.026377076, -955676.5, -25513.367, 0.0, 9.999837, 9.999572 
5.150055e+2, 2.1508561e+2, -849444.94, -887534.56, 28135.43, -0.0061210515, 0.05224159, -834514.6, -2350.067, 0.0, 10.000087, 9.99958 
5.150058e+2, 2.2508521e+2, -741377.4, -792827.44, 34429.133, -0.0063436097, 0.058567654, -724124.0, 10045.117, 0.0, 10.000192, 9.999508 
5.1500636e+2, 2.3508458e+2, -647073.44, -695705.94, 43944.69, 0.020727545, 0.040455278, -621166.0, 15010.606, 0.0, 10.000162, 9.999516 
5.150066e+2, 2.4508415e+2, -546848.06, -620284.94, 40185.52, 0.019397255, 0.056906696, -529132.0, 9050.149, 0.0, 10.000279, 9.999304 
5.150065e+2, 2.5508392e+2, -409372.84, -502412.63, 38699.58, -0.009243067, 0.10025329, -395380.28, 44805.438, 0.0, 10.000546, 9.999311 
5.150063e+2, 2.650831e+2, -331998.53, -471956.72, 8282.45, -0.004878264, 0.113138676, -331510.1, 10685.1, 0.0, 10.000653, 9.998796 
5.150061e+2, 2.750817e+2, -239935.94, -376883.44, 7220.071, 0.029790519, 0.090922415, -239556.33, 4654.1055, 0.0, 10.000612, 9.998796 
5.1500565e+2, 2.8508067e+2, -136862.47, -301465.88, 24834.17, 0.015446904, 0.119901046, -133197.28, 13024.509, 0.0, 10.000756, 9.998572 
5.15005e+2, 2.9508e+2, 9434.652, -172664.02, 26664.629, -0.04258232, 0.19522186, 13258.832, 61487.84, 0.0, 10.001056, 9.998639 
5.150055e+2, 3.050772e+2, 75417.63, -111880.83, 9859.031, 0.03638389, 0.04689598, 75935.164, 75935.164, 0.0, 10.001156, 9.998675 
5.150045e+2, 3.1507698e+2, 113356.445, -12822.854, 7249.7803, -0.008513426, 0.15761593, 113771.625, 113771.625, 0.0000000053166334, 10.001069, 9.999397 
5.2500325e+2, 1.2508722e+2, -1828570.1, -1627176.9, 15412.189, -0.05593989, 0.039995465, -1626004.3, 88143.51, 0.0000005002885, 9.998633, 10.001247 
5.250062e+2, 1.3508704e+2, -1784873.4, -1695580.1, 13731.154, 0.28363508, 0.012719368, -1693516.4, -77366.77, 0.000000016983103, 9.998816, 10.000043 
5.2500093e+2, 1.4508708e+2, -1634690.6, -1562308.3, 26787.621, -0.27769333, 0.009867699, -1553473.0, -35323.855, 0.0, 9.99915, 10.000111 
5.250035e+2, 1.5508737e+2, -1488128.8, -1441246.5, 8787.215, -0.0017188225, 0.025301669, -1439653.6, -19507.617, 0.0, 9.999488, 10.000105 
5.2500486e+2, 1.650874e+2, -1402180.9, -1392918.5, 49176.773, 0.116833225, 0.038563482, -1348155.3, -26009.295, 0.0, 9.999593, 9.999714 
5.250045e+2, 1.7508717e+2, -1315584.6, -1299181.3, 51436.723, 0.0044101295, 0.04135605, -1255296.5, -31147.262, 0.0, 9.999509, 9.999725 
5.250045e+2, 1.8508688e+2, -1193954.0, -1177517.0, 27797.984, -0.042940278, 0.035257306, -1156748.0, -30595.838, 0.0, 9.999618, 9.999835 
5.250051e+2, 1.9508657e+2, -1055346.5, -1059125.3, 21009.416, -0.0007009572, 0.015879197, -1036141.7, -7986.8687, 0.0, 9.999894, 9.999841 
5.250055e+2, 2.050863e+2, -965870.56, -996955.9, 23492.627, 0.013741556, 0.020362953, -953244.5, -23087.236, 0.0, 9.999971, 9.999558 
5.250055e+2, 2.1508612e+2, -884123.44, -905464.25, 31784.291, -0.008198914, 0.042438444, -861266.25, -29106.854, 0.0, 9.999855, 9.999569 
5.250059e+2, 2.2508574e+2, -768470.25, -797145.1, 44494.832, -0.007866415, 0.047229353, -736059.94, -1896.2635, 0.0, 9.999968, 9.999586 
5.250066e+2, 2.3508516e+2, -621039.8, -674270.25, 41060.45, 0.017724702, 0.027367935, -598723.1, 37447.02, 0.0, 10.000303, 9.999595 
5.250069e+2, 2.4508476e+2, -532000.94, -622706.6, 28293.842, 0.012981533, 0.048212193, -523898.94, 14276.643, 0.0, 10.0004225, 9.999218 
5.250068e+2, 2.5508457e+2, -447342.34, -530177.75, 23711.818, -0.021475602, 0.10270617, -441035.06, -855.1546, 0.0, 10.000327, 9.999227 
5.250068e+2, 2.650838e+2, -354521.25, -477567.34, -342.5455, -0.013947166, 0.122197986, -354520.28, -12331.174, 0.0, 10.000477, 9.998843 
5.2500683e+2, 2.7508244e+2, -201230.78, -352674.72, 6348.615, 0.03282898, 0.100175574, -200965.11, 43238.207, 0.0, 10.000855, 9.998845 
5.250066e+2, 2.8508133e+2, -106317.91, -295396.97, 23517.633, 0.022485694, 0.122891605, -103436.69, 42778.727, 0.0, 10.001004, 9.998494 
5.2500606e+2, 2.950805e+2, -14338.697, -193358.88, 19093.48, -0.039714333, 0.18902194, -12324.926, 35899.926, 0.0, 10.000932, 9.998557 
5.2500665e+2, 3.0507803e+2, 68683.945, -89015.23, -3351.9216, 0.04030221, 0.06520347, 68755.164, 68755.164, 0.0, 10.000998, 9.998909 
5.2500576e+2, 3.1507793e+2, 121547.914, -20129.51, -969.1841, -0.0003475924, 0.17132482, 121554.55, 121554.55, 0.00000000056215, 10.001174, 9.999297 
5.3500164e+2, 1.2508672e+2, -1839201.5, -1651135.1, 1547.9425, -0.08049478, -0.05869871, -1651122.5, 63027.945, 0.00000041209, 9.99864, 10.00108 
5.35005e+2, 1.3508785e+2, -1792212.1, -1712100.1, 22132.662, 0.28358752, 0.05670693, -1706392.3, -90249.91, 0.000000018082496, 9.998819, 9.999929 
5.350001e+2, 1.4508803e+2, -1627694.3, -1547170.8, 39856.344, -0.27706215, 0.067815684, -1530779.8, -12638.711, 0.0, 9.999147, 10.000216 
5.3500307e+2, 1.5508774e+2, -1480819.6, -1426002.8, 21034.469, 0.0069168056, 0.015184683, -1418861.8, 1280.1066, 0.0, 9.999488, 10.000209 
5.350045e+2, 1.6508752e+2, -1398897.1, -1386963.4, 45040.16, 0.12492374, -0.003631528, -1347496.5, -25352.943, 0.0, 9.999596, 9.999754 
5.350041e+2, 1.750874e+2, -1312364.0, -1293211.4, 48710.24, 0.012477308, 0.005833454, -1253145.0, -28999.047, 0.0, 9.999511, 9.999765 
5.3500414e+2, 1.8508732e+2, -1206169.6, -1202344.0, 37945.258, -0.041152563, 0.027049644, -1166263.4, -40115.73, 0.0, 9.999616, 9.999665 
5.3500485e+2, 1.9508728e+2, -1066974.6, -1083492.4, 31341.512, -0.013911442, 0.052900337, -1042822.1, -14673.519, 0.0, 9.999894, 9.999674 
5.350054e+2, 2.050869e+2, -950131.25, -963520.0, 18783.93, 0.004306183, 0.041399434, -936884.44, -6732.492, 0.0, 9.999969, 9.999789 
5.350055e+2, 2.1508619e+2, -868440.4, -872700.0, 27825.889, 0.005974696, -0.010926788, -842662.94, -10505.516, 0.0, 9.999853, 9.999795 
5.3500587e+2, 2.2508582e+2, -774817.94, -809719.4, 56711.453, 0.00007297075, -0.0109496415, -732933.06, 1228.0028, 0.0, 9.999965, 9.999501 
5.350066e+2, 2.3508579e+2, -626838.8, -686659.1, 53762.152, -0.009529537, 0.03131498, -595226.75, 40936.313, 0.0, 10.000304, 9.99951 
5.3500706e+2, 2.450855e+2, -540186.9, -639507.0, 24671.14, -0.011600839, 0.071625635, -534396.2, 3772.2522, 0.0, 10.000422, 9.999104 
5.3500724e+2, 2.5508496e+2, -455327.13, -547196.4, 20662.813, -0.007382858, 0.10671673, -450893.7, -10716.84, 0.0, 10.000329, 9.999109 
5.3500736e+2, 2.6508415e+2, -344612.03, -456373.13, 13588.284, 0.00028609022, 0.11882768, -342983.66, -797.0982, 0.0, 10.000475, 9.998989 
5.3500754e+2, 2.7508298e+2, -191552.83, -331220.13, 20472.518, 0.01091497, 0.09881286, -188613.8, 55584.117, 0.0, 10.000851, 9.998995 
5.350074e+2, 2.8508192e+2, -117076.91, -317169.8, 20668.727, 0.0040698214, 0.12634833, -114964.23, 31245.412, 0.0, 10.001, 9.998347 
5.350072e+2, 2.9508108e+2, -24656.018, -214972.28, 17463.506, -0.01663725, 0.20502236, -23066.828, 25153.83, 0.0, 10.000932, 9.998409 
5.350079e+2, 3.0507898e+2, 82746.21, -58710.023, 2808.4612, 0.0592863, 0.116715245, 82801.945, 82801.945, 0.0, 10.000994, 9.999118 
5.350066e+2, 3.1507868e+2, 116213.08, -27854.672, 12898.157, -0.03147437, 0.17954649, 117358.72, 117358.72, 0.0000000000003731001, 10.001162, 9.9992485 
5.45e+2, 1.2508704e+2, -1884650.0, -1688540.9, -6046.3623, -0.094992325, -0.07054502, -1688354.6, 25792.016, 0.00000036785775, 9.998396, 10.00094 
5.4500395e+2, 1.3508832e+2, -1765565.5, -1707050.1, 38701.297, 0.29314673, 0.06942364, -1687791.9, -71654.0, 0.000000024396927, 9.999037, 9.999859 
5.4499936e+2, 1.4508839e+2, -1595476.6, -1528480.3, 45869.813, -0.26796263, 0.071592964, -1505179.0, 12958.857, 0.0, 9.999356, 10.000242 
5.450024e+2, 1.5508807e+2, -1505104.4, -1434967.4, 17744.602, 0.0041117882, 0.013300964, -1430733.6, -10595.049, 0.0, 9.99931, 10.000234 
5.4500395e+2, 1.6508786e+2, -1427587.9, -1400289.5, 34739.766, 0.118267275, -0.0067530917, -1376613.8, -54473.586, 0.0, 9.999397, 9.999758 
5.4500365e+2, 1.7508776e+2, -1299128.6, -1285904.4, 35385.84, 0.014172598, 0.005205066, -1256518.3, -32375.727, 0.0, 9.9996, 9.999771 
5.4500383e+2, 1.8508774e+2, -1190570.0, -1195409.5, 33880.35, -0.037494317, 0.030822279, -1159023.1, -32879.22, 0.0, 9.999725, 9.99966 
5.450047e+2, 1.9508778e+2, -1083908.0, -1092316.0, 38820.79, -0.016619524, 0.0639806, -1049064.3, -20919.865, 0.0, 9.999782, 9.999667 
5.4500526e+2, 2.0508738e+2, -958321.2, -963698.1, 19981.82, 0.001726496, 0.050230883, -940847.8, -10700.048, 0.0, 9.999895, 9.999824 
5.450055e+2, 2.1508656e+2, -834949.8, -852628.7, 13895.408, 0.010313995, -0.01494227, -827320.56, 4833.1724, 0.0, 10.000067, 9.99983 
5.45006e+2, 2.2508621e+2, -750084.06, -798003.4, 44143.89, 0.005861178, -0.016092787, -723816.75, 10340.316, 0.0, 10.000136, 9.999498 
5.450068e+2, 2.3508628e+2, -656114.44, -700898.4, 46616.113, -0.007945664, 0.036813296, -626791.2, 9366.916, 0.0, 10.000104, 9.999508 
5.450074e+2, 2.4508595e+2, -569236.44, -661131.4, 21529.348, -0.0107153915, 0.07831219, -564442.56, -26278.611, 0.0, 10.000257, 9.999034 
5.4500777e+2, 2.550853e+2, -422583.97, -538849.2, 21049.223, -0.0039793295, 0.105333686, -418890.47, 21283.855, 0.0, 10.0005865, 9.999042 
5.45008e+2, 2.6508448e+2, -306513.38, -431021.25, 14078.451, 0.0016531636, 0.11985021, -304941.3, 37242.51, 0.0, 10.000707, 9.999051 
5.450082e+2, 2.7508345e+2, -221767.92, -339239.72, 13408.421, 0.0058488636, 0.110420994, -220256.9, 23936.23, 0.0, 10.000614, 9.999053 
5.4500824e+2, 2.8508234e+2, -156563.52, -337893.97, 15014.168, -0.0029569936, 0.12843981, -155328.75, -9123.337, 0.0, 10.000736, 9.998331 
5.450082e+2, 2.9508123e+2, -6972.536, -208133.08, 21291.797, -0.021950934, 0.18285187, -4743.6074, 43475.406, 0.0, 10.001062, 9.998392 
5.450089e+2, 3.0507952e+2, 122965.4, -39644.715, 3937.6736, 0.050175663, 0.13590194, 123060.69, 123060.69, 0.0, 10.001271, 9.999115 
5.450077e+2, 3.1507906e+2, 134792.42, -36670.44, 3985.7813, -0.043442532, 0.1802717, 134885.03, 134885.03, 0.000000000015387011, 10.001364, 9.999091 
5.5499834e+2, 1.2508814e+2, -1891248.1, -1702107.6, -3062.2725, -0.10377196, 0.004467304, -1702058.1, 12078.3545, 0.0000003291145, 9.998396, 10.000848 
5.5500317e+2, 1.350885e+2, -1765248.8, -1707555.8, 63443.03, 0.3095165, 0.051013395, -1666709.1, -50573.152, 0.000000025104656, 9.999042, 9.999853 
5.549989e+2, 1.4508821e+2, -1599827.3, -1538484.0, 44200.17, -0.25532642, 0.02188016, -1515356.0, 2783.5447, 0.0, 9.999359, 10.000174 
5.550016e+2, 1.550884e+2, -1509401.5, -1444391.0, 16346.481, -0.011944498, 0.020178825, -1440512.3, -20376.21, 0.0, 9.9993105, 10.000169 
5.550031e+2, 1.6508843e+2, -1430432.8, -1405161.5, 41786.953, 0.09537389, 0.029098187, -1374141.6, -52005.883, 0.0, 9.999393, 9.999725 
5.550032e+2, 1.7508829e+2, -1301323.1, -1290246.8, 42949.418, 0.007899577, 0.03879032, -1252480.0, -28341.29, 0.0, 9.999599, 9.999742 
5.550036e+2, 1.8508813e+2, -1179724.8, -1172772.6, 35628.51, -0.034188174, 0.046417665, -1140451.0, -14310.067, 0.0, 9.999724, 9.999816 
5.550046e+2, 1.95088e+2, -1073200.1, -1069998.5, 41146.043, -0.009781429, 0.04872268, -1030422.1, -2279.8108, 0.0, 9.999781, 9.999822 
5.550052e+2, 2.050877e+2, -970002.4, -987311.56, 26134.102, 0.0049268915, 0.0456427, -951127.1, -20982.326, 0.0, 9.999893, 9.999662 
5.550055e+2, 2.1508725e+2, -846298.25, -875864.56, 20503.918, 0.0029291157, 0.030256536, -835803.9, -3655.5813, 0.0, 10.000065, 9.999672 
5.5500615e+2, 2.2508688e+2, -744662.2, -786269.75, 42740.684, 0.00782769, 0.031642072, -717931.1, 16220.743, 0.0, 10.000134, 9.99958 
5.550072e+2, 2.350866e+2, -650688.9, -689725.75, 45667.137, 0.021780437, 0.04336334, -620543.9, 15611.5, 0.0, 10.000104, 9.999584 
5.5500793e+2, 2.4508613e+2, -570918.56, -664383.7, 33603.332, 0.0148129435, 0.06715171, -560091.44, -21929.123, 0.0, 10.000256, 9.999012 
5.5500823e+2, 2.550855e+2, -423861.28, -541368.8, 33627.08, -0.012921025, 0.09815029, -414918.78, 25253.605, 0.0, 10.0005865, 9.999024 
5.550086e+2, 2.6508477e+2, -308516.38, -434822.94, 10539.675, -0.011789426, 0.12482943, -307642.94, 34538.09, 0.0, 10.000705, 9.999026 
5.550089e+2, 2.7508393e+2, -224007.83, -344135.6, 10466.001, 0.01676134, 0.13497652, -223102.81, 21086.195, 0.0, 10.000615, 9.99902 
5.5500895e+2, 2.850826e+2, -149685.94, -322827.97, 26816.2, 0.000084643274, 0.12946904, -145627.77, 575.05536, 0.0, 10.000733, 9.998436 
5.550088e+2, 2.95081e+2, -906.2886, -193596.0, 33436.355, -0.0585281, 0.12279575, 4730.8203, 52950.93, 0.0, 10.001054, 9.998496 
5.550098e+2, 3.050797e+2, 107955.19, -69248.8, 6896.1626, 0.009787785, 0.12306012, 108223.16, 108223.16, 0.0, 10.001265, 9.998915 
5.5500907e+2, 3.1507918e+2, 117850.86, -71244.74, 13708.424, -0.039717607, 0.17984413, 118839.48, 118839.48, 0.0000000020600701, 10.001361, 9.998855 
5.649968e+2, 1.2508832e+2, -1884972.0, -1702915.6, -36546.0, -0.1030322, 0.03471643, -1695853.4, 18282.365, 0.00000027083397, 9.998457, 10.000811 
5.6500214e+2, 1.3508846e+2, -1791742.6, -1712798.5, 53053.785, 0.31270188, 0.050940778, -1686143.9, -70007.0, 0.000000017878008, 9.998826, 9.999921 
5.649982e+2, 1.4508805e+2, -1637056.5, -1556633.9, 22438.584, -0.24486601, 0.007001569, -1550796.9, -32655.486, 0.0, 9.9991045, 10.000171 
5.6500083e+2, 1.5508844e+2, -1517851.9, -1448034.9, -878.8398, -0.007206227, 0.026720531, -1448023.8, -27887.44, 0.0, 9.999252, 10.00017 
5.6500256e+2, 1.6508862e+2, -1420116.8, -1389989.6, 37458.324, 0.095392056, 0.045807157, -1364679.5, -42544.86, 0.0, 9.999421, 9.999815 
5.650028e+2, 1.7508855e+2, -1295017.1, -1277694.0, 46107.57, 0.007825277, 0.055124708, -1239441.5, -15305.124, 0.0, 9.999602, 9.999826 
5.6500334e+2, 1.8508838e+2, -1188762.6, -1182454.5, 29431.385, -0.032020453, 0.057377797, -1156008.6, -29869.68, 0.0, 9.999686, 9.999767 
5.6500435e+2, 1.9508809e+2, -1090433.4, -1083276.3, 19313.527, -0.0051403726, 0.048746664, -1067212.5, -39070.316, 0.0, 9.999684, 9.999776 
5.6500506e+2, 2.050878e+2, -979579.8, -988316.0, 11535.422, 0.0072691636, 0.04744049, -971613.2, -41468.598, 0.0, 9.999812, 9.999695 
5.650055e+2, 2.1508752e+2, -844240.0, -871274.56, 19805.666, -0.001228295, 0.046359573, -833778.5, -1632.3165, 0.0, 10.000064, 9.999703 
5.650063e+2, 2.2508714e+2, -741497.9, -793020.06, 35636.664, 0.0058467924, 0.048780996, -723286.2, 10863.652, 0.0, 10.000192, 9.999506 
5.6500745e+2, 2.3508668e+2, -640934.0, -693108.25, 26732.432, 0.030272575, 0.049401093, -629669.3, 6486.119, 0.0, 10.000207, 9.999512 
5.650082e+2, 2.4508615e+2, -564428.44, -650352.8, 21988.418, 0.021597337, 0.0662059, -559128.44, -20965.854, 0.0, 10.000253, 9.999109 
5.6500864e+2, 2.5508556e+2, -454711.75, -545297.0, 30151.736, -0.01935053, 0.0935836, -445593.47, -5422.2827, 0.0, 10.000327, 9.999122 
5.650091e+2, 2.650849e+2, -336266.7, -455819.28, 7302.04, -0.02068905, 0.123072036, -335822.34, 6356.9805, 0.0, 10.000547, 9.998958 
5.6500965e+2, 2.7508408e+2, -186138.48, -332603.72, 3892.4106, 0.0151698, 0.14166582, -186035.11, 58152.695, 0.0, 10.000906, 9.998957 
5.650099e+2, 2.8508267e+2, -90804.61, -288731.0, 19816.693, 0.0005146561, 0.12863296, -88840.03, 57362.324, 0.0, 10.001114, 9.9984865 
5.6500995e+2, 2.9508093e+2, 17941.46, -180960.72, 21675.53, -0.060368147, 0.10202498, 20276.164, 68496.52, 0.0, 10.001167, 9.9985285 
5.6501096e+2, 3.0507994e+2, 109964.44, -85223.05, -4511.1626, 0.0008845984, 0.13809824, 110068.64, 110068.64, 0.0, 10.00135, 9.998764 
5.6501055e+2, 3.1507888e+2, 158288.98, -58528.355, 9720.036, -0.04657145, 0.15791443, 158723.88, 158723.88, 0.000000017271022, 10.001668, 9.998795 
5.749953e+2, 1.2508763e+2, -1884367.8, -1704944.9, -44286.766, -0.09929056, 0.020906651, -1694609.0, 19534.842, 0.00000019303324, 9.998469, 10.000792 
5.750009e+2, 1.350882e+2, -1782183.3, -1694185.9, 67702.57, 0.30123797, 0.07011782, -1657441.0, -41300.926, 0.000000007774616, 9.99883, 10.000048 
5.7499737e+2, 1.4508791e+2, -1633247.4, -1547375.1, 27633.07, -0.23819269, 0.027626755, -1539251.5, -21107.945, 0.0, 9.9991, 10.0002365 
5.7500035e+2, 1.5508823e+2, -1512448.8, -1437086.0, 4937.0605, 0.016402392, 0.03200948, -1436763.9, -16624.43, 0.0, 9.999253, 10.000245 
5.750022e+2, 1.6508847e+2, -1405971.0, -1360670.3, 44159.52, 0.11556959, 0.04259191, -1333691.0, -11554.153, 0.0, 9.999421, 10.000017 
5.7500243e+2, 1.7508863e+2, -1281242.3, -1249334.0, 53166.72, 0.0126825245, 0.05419898, -1209779.3, 14356.263, 0.0, 9.999602, 10.000022 
5.75003e+2, 1.8508847e+2, -1207104.8, -1219817.0, 28954.09, -0.03277381, 0.06319735, -1183817.3, -57679.34, 0.0, 9.999683, 9.999513 
5.7500404e+2, 1.9508803e+2, -1108115.8, -1119491.0, 19443.045, -0.0042536454, 0.064158075, -1093545.5, -65401.582, 0.0, 9.999682, 9.999528 
5.750049e+2, 2.0508766e+2, -964209.6, -955821.06, 20647.375, 0.007537675, 0.056086075, -938946.25, -8799.246, 0.0, 9.999809, 9.999919 
5.7500553e+2, 2.1508738e+2, -828939.8, -839017.9, 29324.135, -0.0032716496, 0.033385776, -804224.94, 27922.387, 0.0, 10.000062, 9.999926 
5.750064e+2, 2.25087e+2, -757526.0, -826219.7, 35890.6, -0.0011087754, 0.035086446, -742195.5, -8044.459, 0.0, 10.000192, 9.999278 
5.750075e+2, 2.350865e+2, -656553.3, -725524.8, 27643.346, 0.016314486, 0.05457701, -646841.5, -10683.369, 0.0, 10.000207, 9.9992895 
5.7500833e+2, 2.4508601e+2, -549419.75, -619055.7, 24535.406, 0.008324991, 0.074795984, -541643.4, -3478.6245, 0.0, 10.000252, 9.999325 
5.750089e+2, 2.5508553e+2, -440418.5, -515430.56, 33122.465, -0.024311004, 0.0914328, -427886.53, 12284.19, 0.0, 10.000326, 9.999328 
5.750096e+2, 2.6508483e+2, -344152.5, -472143.44, 20467.045, -0.025952457, 0.1150168, -340959.28, 1219.504, 0.0, 10.000546, 9.998846 
5.7501036e+2, 2.750839e+2, -193305.06, -347200.5, 17404.99, -0.00016034553, 0.13088362, -191361.17, 52828.43, 0.0, 10.000904, 9.998858 
5.75011e+2, 2.8508252e+2, -91289.164, -288542.0, 21507.137, -0.0035985734, 0.1257843, -88971.4, 57232.75, 0.0, 10.001109, 9.99849 
5.7501143e+2, 2.9508096e+2, 15978.385, -184812.63, 24116.025, -0.030102922, 0.119549744, 18834.225, 67054.1, 0.0, 10.001166, 9.998502 
5.750125e+2, 3.0508015e+2, 101072.08, -103147.84, 6624.167, 0.020477273, 0.18083069, 101286.72, 101286.72, 0.00000000021282408, 10.001348, 9.998643 
5.75012e+2, 3.150782e+2, 163281.22, -46001.152, 26903.334, -0.06781022, 0.11758625, 166684.31, 166684.31, 0.0000000699572, 10.001658, 9.998885 
5.849938e+2, 1.2508696e+2, -1892078.8, -1701589.3, -62498.145, -0.093588494, 0.025565768, -1682914.8, 31237.152, 0.00000011738098, 9.998386, 10.0008545 
5.849995e+2, 1.3508782e+2, -1787252.0, -1674666.5, 74126.14, 0.2900279, 0.08292919, -1637881.0, -21736.229, 0.0000000014227642, 9.998703, 10.000241 
5.849965e+2, 1.450876e+2, -1655458.5, -1555462.6, 28223.271, -0.22864732, 0.039674543, -1548046.8, -29899.736, 0.0, 9.998937, 10.000259 
5.8499974e+2, 1.5508792e+2, -1540552.5, -1447955.1, -54.61739, 0.0380316, 0.041190237, -1447955.1, -27811.822, 0.0, 9.99905, 10.000269 
5.850016e+2, 1.6508815e+2, -1443303.4, -1372569.4, 31648.91, 0.13076387, 0.047720954, -1360476.1, -38335.43, 0.0, 9.999139, 10.000072 
5.850018e+2, 1.750883e+2, -1333245.1, -1268263.1, 29453.52, 0.010057003, 0.052582312, -1256900.1, -32760.828, 0.0, 9.99922, 10.000075 
5.850025e+2, 1.8508819e+2, -1242080.9, -1235338.0, 11932.731, -0.040003426, 0.06200035, -1226309.6, -100168.445, 0.0, 9.999437, 9.999524 
5.8500373e+2, 1.9508784e+2, -1094128.3, -1111542.3, 21783.914, -0.0064197457, 0.070242405, -1079375.8, -51229.547, 0.0, 9.999773, 9.999539 
5.8500475e+2, 2.0508745e+2, -954511.5, -959832.0, 19420.197, 0.011883841, 0.06298171, -937570.2, -7420.4966, 0.0, 9.999914, 9.999841 
5.8500564e+2, 2.1508704e+2, -861758.8, -863449.9, 4668.0454, 0.009788861, 0.03482196, -857860.3, -25708.648, 0.0, 9.999874, 9.999848 
5.850066e+2, 2.2508663e+2, -782831.25, -838485.56, 11362.861, 0.0072226096, 0.0381059, -780600.7, -46444.926, 0.0, 10.000017, 9.999278 
5.8500767e+2, 2.350862e+2, -636896.94, -715984.25, 19691.137, 0.006675661, 0.06465489, -632265.5, 3896.4963, 0.0, 10.000341, 9.99929 
5.850087e+2, 2.4508566e+2, -511499.5, -601171.94, 12678.527, -0.0017333564, 0.08140973, -509741.38, 28427.229, 0.0, 10.000515, 9.999321 
5.850094e+2, 2.5508508e+2, -409319.66, -500514.16, 4825.2773, -0.018765327, 0.085522, -409065.06, 31110.318, 0.0, 10.000541, 9.999326 
5.850103e+2, 2.6508436e+2, -327048.47, -465464.4, -2089.4912, -0.017335553, 0.10805181, -327016.94, 15166.596, 0.0, 10.000671, 9.998831 
5.850113e+2, 2.7508348e+2, -194009.08, -349333.06, 1357.8562, 0.001084446, 0.13386592, -193997.2, 50196.535, 0.0, 10.000906, 9.998843 
5.850121e+2, 2.850821e+2, -89840.26, -290469.0, 1608.4551, -0.003199246, 0.13101432, -89827.37, 56381.086, 0.0, 10.00113, 9.998467 
5.850127e+2, 2.9508048e+2, 37323.438, -178640.34, 1186.1936, -0.02575572, 0.11933237, 37329.953, 85555.04, 0.0, 10.001331, 9.998465 
5.850139e+2, 3.0507973e+2, 113699.77, -120250.57, -13929.008, 0.015899433, 0.20176661, 114526.164, 114526.164, 0.000000006848287, 10.001534, 9.998435 
5.850137e+2, 3.1507733e+2, 181892.95, -29704.494, 4102.467, -0.072827764, 0.113507055, 181972.45, 181972.45, 0.00000018333391, 10.001755, 9.99895 
5.949922e+2, 1.2508635e+2, -1880454.3, -1679007.3, -70173.5, -0.08603176, 0.052603435, -1656972.6, 57186.723, 0.000000058921596, 9.998391, 10.001008 
5.949981e+2, 1.3508725e+2, -1767704.1, -1635705.5, 86502.42, 0.2766325, 0.08680836, -1592899.6, 23251.19, 0.000000000010343272, 9.998709, 10.000506 
5.9499556e+2, 1.4508712e+2, -1657365.8, -1559376.4, 32777.85, -0.21933532, 0.04042976, -1549423.1, -31271.182, 0.0, 9.998936, 10.000233 
5.9499896e+2, 1.5508755e+2, -1542657.9, -1452627.4, 4709.225, 0.05628817, 0.054541703, -1452381.6, -32234.055, 0.0, 9.99905, 10.0002365 
5.9500086e+2, 1.6508768e+2, -1450641.9, -1387252.1, 34096.766, 0.13907316, 0.061028313, -1372394.3, -50248.2, 0.0, 9.999136, 9.999972 
5.95001e+2, 1.750876e+2, -1339149.1, -1281026.3, 32851.227, -0.0015226788, 0.050397858, -1266226.9, -42079.383, 0.0, 9.999222, 9.999987 
5.9500176e+2, 1.8508753e+2, -1222645.5, -1194937.8, 24539.365, -0.055577345, 0.053619254, -1180611.8, -54463.227, 0.0, 9.999436, 9.999802 
5.950034e+2, 1.9508748e+2, -1075068.1, -1072121.1, 34463.195, -0.012989316, 0.06694696, -1039099.94, -10951.029, 0.0, 9.999773, 9.99981 
5.9500474e+2, 2.0508713e+2, -981673.4, -1015771.1, 17454.53, 0.01882268, 0.06774867, -974323.0, -44170.406, 0.0, 9.999912, 9.999457 
5.950058e+2, 2.1508645e+2, -888607.6, -918582.6, 3464.6448, 0.03667591, 0.050686423, -888212.4, -56053.055, 0.0, 9.999871, 9.999471 
5.950068e+2, 2.25086e+2, -767301.1, -805762.06, 23093.941, 0.02975992, 0.05759669, -756479.25, -22315.27, 0.0, 10.000015, 9.999504 
5.95008e+2, 2.3508576e+2, -621610.9, -683867.94, 31874.791, -0.000045651523, 0.08000493, -608186.2, 27980.68, 0.0, 10.0003395, 9.999512 
5.950091e+2, 2.4508514e+2, -526710.1, -632931.75, 13516.177, -0.010390183, 0.08688386, -525017.25, 13156.807, 0.0, 10.000515, 9.999104 
5.9501016e+2, 2.5508416e+2, -423934.53, -530941.1, 6098.124, -0.0033955623, 0.07619053, -423588.13, 16596.922, 0.0, 10.000541, 9.999118 
5.950112e+2, 2.6508343e+2, -321435.16, -453579.66, 6587.697, 0.004870935, 0.101925045, -321107.56, 21085.959, 0.0, 10.00067, 9.998914 
5.950123e+2, 2.7508286e+2, -189191.98, -339123.88, 10471.653, 0.015743492, 0.14924295, -188464.16, 55736.223, 0.0, 10.000905, 9.998914 
5.9501326e+2, 2.8508142e+2, -94399.32, -299459.94, 8860.237, -0.0019625116, 0.14362144, -94017.2, 52198.17, 0.0, 10.001127, 9.998407 
5.950138e+2, 2.9507947e+2, 32343.043, -188172.83, 8504.919, -0.0481073, 0.10266709, 32670.576, 80906.5, 0.0, 10.0013275, 9.998402 
5.950151e+2, 3.0507874e+2, 92767.13, -161370.0, -6137.67, -0.012386657, 0.20358343, 92915.28, 92915.28, 0.000000033052434, 10.001525, 9.9981575 
5.950155e+2, 3.1507635e+2, 184850.22, -22223.586, 16938.74, -0.06644216, 0.14511551, 186226.67, 186226.67, 0.00000037488923, 10.00175, 9.999003 
6.0499066e+2, 1.2508556e+2, -1891935.6, -1694885.6, -66795.99, -0.08191661, 0.049483955, -1674377.5, 39789.395, 0.000000021349177, 9.998359, 10.000915 
6.049966e+2, 1.350865e+2, -1792556.3, -1643909.5, 86420.09, 0.2688373, 0.08574897, -1604248.8, 11909.623, 0.0, 9.998525, 10.000539 
6.0499454e+2, 1.4508648e+2, -1690200.9, -1571168.3, 23919.53, -0.20305012, 0.04723817, -1566541.4, -48382.84, 0.0, 9.998694, 10.000269 
6.04998e+2, 1.5508693e+2, -1558641.0, -1455609.8, 478.67636, 0.05976524, 0.06024024, -1455607.5, -35453.74, 0.0, 9.998921, 10.0002775 
6.0499996e+2, 1.6508709e+2, -1453540.5, -1396657.6, 33435.477, 0.13586336, 0.06731925, -1381203.1, -59050.734, 0.0, 9.99915, 9.999901 
6.0500026e+2, 1.7508693e+2, -1325661.5, -1282388.0, 33197.555, -0.0009937554, 0.058873624, -1264398.8, -40243.94, 0.0, 9.999348, 9.999917 
6.050013e+2, 1.8508685e+2, -1215286.3, -1182399.6, 19799.992, -0.052210033, 0.061447497, -1173105.4, -46949.69, 0.0, 9.999449, 9.999882 
6.050031e+2, 1.9508687e+2, -1112946.0, -1081792.3, 14357.622, -0.00998, 0.07104709, -1076184.8, -48029.625, 0.0, 9.999476, 9.9998865 
6.0500455e+2, 2.050865e+2, -1017695.25, -1046589.75, 1418.6057, 0.019391809, 0.07375258, -1017625.75, -87466.84, 0.0, 9.9997225, 9.999337 
6.0500574e+2, 2.1508576e+2, -853382.06, -915251.3, 6711.958, 0.033222467, 0.063569546, -852662.3, -20495.258, 0.0, 10.000172, 9.99935 
6.0500693e+2, 2.2508527e+2, -719513.4, -781242.06, 24858.078, 0.026987081, 0.07126029, -710747.8, 23424.488, 0.0, 10.000338, 9.9995165 
6.050083e+2, 2.35085e+2, -636736.7, -689928.7, 16911.49, 0.0013261195, 0.08894533, -631815.25, 4359.6895, 0.0, 10.000231, 9.999522 
6.050095e+2, 2.450843e+2, -553467.8, -654450.25, -35.78272, -0.007797302, 0.09406328, -553467.75, -15285.282, 0.0, 10.000368, 9.999026 
6.0501075e+2, 2.550833e+2, -399582.4, -528099.56, 2117.7888, -0.0015674959, 0.08482468, -399547.53, 40646.83, 0.0, 10.000746, 9.999039 
6.05012e+2, 2.6508248e+2, -279614.66, -431100.22, 2651.2036, 0.004476759, 0.10847738, -279568.28, 62634.957, 0.0, 10.000947, 9.998936 
6.0501325e+2, 2.7508187e+2, -178595.94, -331480.9, 1916.6046, 0.010500019, 0.15057841, -178571.92, 65638.06, 0.0, 10.000967, 9.998937 
6.050143e+2, 2.8508046e+2, -94708.22, -303259.78, 5532.4194, -0.0060467077, 0.14480162, -94561.555, 51663.566, 0.0, 10.001141, 9.998375 
6.050153e+2, 2.9507852e+2, 49091.53, -185601.58, 6017.898, -0.044642247, 0.10799815, 49245.74, 97491.836, 0.00000000003092486, 10.001465, 9.998354 
6.050167e+2, 3.0507773e+2, 109354.27, -168519.83, -4387.3096, -0.01693767, 0.21280079, 109423.52, 109423.52, 0.00000008707832, 10.001704, 9.998022 
6.0501724e+2, 3.1507534e+2, 214645.27, 11336.653, 30377.955, -0.07138759, 0.16726774, 219087.23, 219087.23, 0.0000006525611, 10.001872, 9.999176 
6.1498904e+2, 1.2508461e+2, -1916028.0, -1745816.4, -76571.31, -0.08180959, 0.016547004, -1716440.1, -2265.8372, 0.0000000039655865, 9.998361, 10.000565 
6.149951e+2, 1.3508561e+2, -1808107.0, -1675621.4, 92623.82, 0.26467898, 0.08114334, -1627990.3, -11823.125, 0.0, 9.998522, 10.000321 
6.149934e+2, 1.4508572e+2, -1683512.0, -1557194.4, 31401.436, -0.18168901, 0.06114679, -1549818.9, -31652.072, 0.0, 9.998693, 10.000365 
6.1499685e+2, 1.550861e+2, -1550714.0, -1440216.1, 9516.741, 0.04704458, 0.057221167, -1439402.4, -19240.686, 0.0, 9.998924, 10.000382 
6.149989e+2, 1.650863e+2, -1456110.5, -1402389.9, 40932.25, 0.11880671, 0.06540288, -1380291.8, -58131.91, 0.0, 9.999151, 9.999861 
6.149997e+2, 1.7508632e+2, -1328778.3, -1289275.9, 40726.88, 0.010243316, 0.07768255, -1263763.5, -39602.33, 0.0, 9.999349, 9.999869 
6.150009e+2, 1.8508619e+2, -1224357.8, -1200953.9, 20109.662, -0.03198501, 0.08516254, -1189389.3, -63226.344, 0.0, 9.999448, 9.999755 
6.150027e+2, 1.9508597e+2, -1121307.6, -1099202.8, 15728.789, 0.001512701, 0.08279492, -1091031.4, -62866.633, 0.0, 9.999476, 9.999766 
6.150042e+2, 2.0508558e+2, -1008207.6, -1026328.56, 17928.785, 0.012341474, 0.080996394, -997180.0, -67011.234, 0.0, 9.99972, 9.999477 
6.1500555e+2, 2.15085e+2, -843644.9, -894825.3, 23573.162, -0.0022118487, 0.073658906, -834442.06, -2267.4019, 0.0, 10.000171, 9.99949 
6.1500704e+2, 2.2508445e+2, -734333.5, -811602.6, 20407.682, -0.003248891, 0.079772994, -729274.8, 4905.656, 0.0, 10.000336, 9.99931 
6.150086e+2, 2.3508392e+2, -650678.9, -718898.0, 13239.955, 0.010569189, 0.09150574, -648199.4, -12013.158, 0.0, 10.000231, 9.999323 
6.150101e+2, 2.4508323e+2, -549691.06, -646548.94, 13754.674, 0.0060142307, 0.10268157, -547775.7, -9581.709, 0.0, 10.000367, 9.999081 
6.1501133e+2, 2.550824e+2, -396439.84, -521148.2, 16373.122, -0.015927996, 0.11042468, -394326.03, 45877.395, 0.0, 10.000744, 9.999087 
6.150127e+2, 2.6508158e+2, -282328.16, -436570.44, 3335.3276, -0.02190393, 0.12751676, -282256.06, 59956.59, 0.0, 10.000946, 9.9988985 
6.1501396e+2, 2.7508062e+2, -180372.47, -335166.8, 2963.8865, -0.014295086, 0.14010921, -180315.75, 63906.57, 0.0, 10.000967, 9.998911 
6.150154e+2, 2.850792e+2, -95477.3, -304297.13, 17584.834, -0.014054207, 0.13685676, -94006.82, 52230.645, 0.0, 10.001138, 9.998369 
6.15017e+2, 2.950776e+2, 47115.28, -189228.38, 18322.639, -0.019601202, 0.13284129, 48527.316, 96783.18, 0.0000000010306047, 10.001463, 9.99833 
6.1501855e+2, 3.0507666e+2, 107586.125, -170523.7, 1635.7072, -0.0031994318, 0.2258216, 107595.74, 107595.74, 0.00000016756015, 10.001698, 9.998012 
6.150189e+2, 3.1507427e+2, 232860.7, 51381.902, 39530.223, -0.090900935, 0.17656246, 241097.45, 241097.45, 0.000001002472, 10.001863, 9.999455 
6.249871e+2, 1.2508342e+2, -1972894.3, -1779922.8, -126402.086, -0.0880615, 0.02241037, -1717389.6, -3203.2786, 0.00000000008306351, 9.997999, 10.000505 
6.249935e+2, 1.3508442e+2, -1825074.5, -1678685.9, 73737.13, 0.26157105, 0.083376125, -1647983.3, -31804.113, 0.0, 9.998384, 10.000365 
6.2499243e+2, 1.450846e+2, -1686328.6, -1558636.1, 18243.09, -0.15269415, 0.06873306, -1556080.9, -37902.895, 0.0, 9.998673, 10.000365 
6.249956e+2, 1.5508486e+2, -1554845.1, -1441733.3, -11542.055, 0.03955851, 0.052419007, -1440567.5, -20393.568, 0.0, 9.998895, 10.000386 
6.249978e+2, 1.6508506e+2, -1473752.4, -1410870.8, 14486.395, 0.10134403, 0.060526066, -1407693.9, -85521.86, 0.0, 9.999031, 9.999861 
6.24999e+2, 1.750852e+2, -1364339.0, -1306355.8, 16862.182, 0.014715018, 0.08457813, -1301808.6, -77636.23, 0.0, 9.999105, 9.999869 
6.250004e+2, 1.8508507e+2, -1245695.6, -1217456.8, 3464.7747, -0.020310596, 0.09332687, -1217037.9, -90863.52, 0.0, 9.999328, 9.9997 
6.2500226e+2, 1.9508469e+2, -1095807.8, -1093179.3, 3606.2288, 0.0026857443, 0.08149291, -1090655.3, -62477.67, 0.0, 9.999679, 9.999711 
6.2500405e+2, 2.0508425e+2, -982673.7, -1011523.9, 6969.3076, 0.009014981, 0.078258865, -981078.3, -50896.492, 0.0, 9.999884, 9.9995 
6.250056e+2, 2.1508378e+2, -873227.7, -906636.5, 2846.8376, -0.0044380804, 0.07724701, -872986.8, -40799.824, 0.0, 9.999957, 9.999512 
6.250073e+2, 2.2508323e+2, -761408.06, -832796.94, -4123.7095, -0.0053355023, 0.08639832, -761170.6, -26977.771, 0.0, 10.000185, 9.999236 
6.25009e+2, 2.3508263e+2, -608481.56, -706899.6, -2070.9229, 0.0071922713, 0.09857592, -608438.0, 27761.557, 0.0, 10.000556, 9.9992485 
6.250105e+2, 2.4508189e+2, -504093.1, -623478.3, 1605.0468, 0.0003692369, 0.109150864, -504071.53, 34136.06, 0.0, 10.000676, 9.999091 
6.250119e+2, 2.5508106e+2, -424387.34, -533633.5, 411.32892, -0.026068302, 0.11334446, -424385.78, 15831.043, 0.0, 10.000547, 9.999096 
6.250134e+2, 2.6508015e+2, -317982.3, -459396.63, -9542.291, -0.031050056, 0.12565503, -317341.34, 24885.264, 0.0, 10.000725, 9.998848 
6.25015e+2, 2.7507913e+2, -149806.94, -326189.72, -11983.813, -0.016011138, 0.1350035, -148996.45, 95240.84, 0.0, 10.001201, 9.99886 
6.2501675e+2, 2.8507778e+2, -54793.332, -289386.5, -2709.7385, -0.009026947, 0.14394669, -54762.035, 91489.89, 0.0, 10.001437, 9.998327 
6.250185e+2, 2.9507634e+2, 39778.94, -198470.22, -5498.5923, -0.009653757, 0.16263214, 39905.777, 88174.5, 0.000000004235602, 10.001437, 9.998279 
6.2502027e+2, 3.0507502e+2, 89101.984, -191201.64, -21548.898, 0.0015118774, 0.22355993, 90748.92, 90748.92, 0.000000262113, 10.00162, 9.997907 
6.25021e+2, 3.1507245e+2, 259371.86, 76110.06, 9724.715, -0.076804146, 0.16826959, 259886.45, 259886.45, 0.0000013873902, 10.001993, 9.999562 
6.34985e+2, 1.2508199e+2, -1955410.0, -1745151.9, -124931.55, -0.10043149, 0.06708057, -1687002.0, 27201.133, 0.0, 9.998003, 10.000743 
6.349919e+2, 1.3508293e+2, -1803951.4, -1635058.1, 87633.06, 0.2574165, 0.09083058, -1597805.3, 18389.354, 0.0, 9.998385, 10.000665 
6.3499147e+2, 1.4508314e+2, -1692769.0, -1572511.3, 25385.412, -0.118131, 0.068810485, -1567372.3, -49179.93, 0.0, 9.998675, 10.000269 
6.349945e+2, 1.5508324e+2, -1561606.9, -1456298.1, -3329.0947, 0.035220798, 0.046058603, -1456193.0, -36002.84, 0.0, 9.998896, 10.000286 
6.3499665e+2, 1.650834e+2, -1470887.8, -1405077.9, 16338.647, 0.08058663, 0.05295009, -1401244.8, -79055.87, 0.0, 9.999031, 9.999901 
6.34998e+2, 1.7508359e+2, -1360726.9, -1299662.6, 19799.934, 0.011078793, 0.079433, -1293804.5, -69615.97, 0.0, 9.999108, 9.999914 
6.3499975e+2, 1.8508345e+2, -1244820.3, -1215545.8, 16446.594, -0.01906562, 0.085492946, -1208166.3, -81976.02, 0.0, 9.999328, 9.999713 
6.3500184e+2, 1.9508302e+2, -1094671.8, -1091313.9, 16788.164, -0.0076819044, 0.06701741, -1076120.9, -47927.32, 0.0, 9.9996805, 9.999723 
6.3500386e+2, 2.0508257e+2, -990285.56, -1026871.75, 9018.057, 0.007151987, 0.065603815, -988183.5, -57985.37, 0.0, 9.999882, 9.999396 
6.3500583e+2, 2.1508206e+2, -880182.8, -921289.5, 5853.681, 0.025613928, 0.073500946, -879365.44, -47161.516, 0.0, 9.999958, 9.999411 
6.350077e+2, 2.250816e+2, -757955.0, -824773.8, 9410.441, 0.019295594, 0.090020694, -756655.0, -22445.389, 0.0, 10.000181, 9.999292 
6.3500935e+2, 2.350811e+2, -604572.94, -698716.5, 12111.708, -0.0103285825, 0.10973898, -603039.7, 33175.313, 0.0, 10.000556, 9.999305 
6.350109e+2, 2.4508032e+2, -507112.8, -629535.5, -3477.8, -0.027193313, 0.113726586, -507014.1, 31209.146, 0.0, 10.000674, 9.99905 
6.350124e+2, 2.550792e+2, -426483.63, -538316.06, -4044.903, -0.03227857, 0.09533556, -426337.5, 13896.789, 0.0, 10.000548, 9.9990635 
6.3501424e+2, 2.6507822e+2, -323057.94, -470015.72, 8237.599, -0.022831403, 0.10447362, -322597.63, 19647.29, 0.0, 10.000725, 9.9987755 
6.3501644e+2, 2.7507734e+2, -155578.3, -337373.28, 6156.3667, 0.0018173028, 0.13288835, -155370.05, 88885.125, 0.0, 10.001197, 9.998786 
6.350183e+2, 2.8507614e+2, -60905.594, -300852.9, -2764.5518, 0.004746171, 0.16285086, -60873.746, 85395.01, 0.0, 10.001431, 9.998251 
6.350199e+2, 2.9507476e+2, 34086.06, -209514.89, -5191.093, -0.014649057, 0.1994742, 34196.63, 82481.055, 0.000000008608103, 10.001434, 9.998204 
6.3502187e+2, 3.0507278e+2, 74273.266, -221440.47, -7557.388, -0.0017129217, 0.2102796, 74466.28, 74466.28, 0.00000035003856, 10.001617, 9.997701 
6.350234e+2, 3.150699e+2, 254656.27, 67355.32, 26056.129, -0.034399215, 0.14068323, 258213.47, 258213.47, 0.0000017531552, 10.001987, 9.999505 
6.449831e+2, 1.2508015e+2, -2013971.0, -1753721.4, -138102.28, -0.06746595, 0.10775943, -1694097.1, 20126.129, 0.0, 9.997515, 10.000921 
6.4498997e+2, 1.3508086e+2, -1809382.0, -1610765.8, 76360.25, 0.23469478, 0.08411699, -1584802.3, 31413.193, 0.0, 9.998234, 10.000904 
6.449901e+2, 1.4508124e+2, -1709866.5, -1576855.9, 1299.2781, -0.11368475, 0.06509606, -1576843.3, -58632.29, 0.0, 9.998542, 10.000303 
6.4499325e+2, 1.550815e+2, -1610260.5, -1475971.5, -18265.795, 0.03626515, 0.05541144, -1473531.4, -53323.754, 0.0, 9.998547, 10.0003195 
6.4499557e+2, 1.6508168e+2, -1509553.6, -1425787.5, 10013.45, 0.078387834, 0.06436746, -1424607.1, -102400.93, 0.0, 9.998775, 9.999883 
6.449972e+2, 1.7508177e+2, -1349758.1, -1296598.9, 8029.821, 0.010651928, 0.08192491, -1295412.4, -71205.62, 0.0, 9.999193, 9.999894 
6.449992e+2, 1.8508157e+2, -1226395.4, -1205320.0, 1906.9023, -0.016822016, 0.082437076, -1205148.9, -78940.055, 0.0, 9.999449, 9.999724 
6.4500153e+2, 1.9508114e+2, -1111516.5, -1097893.5, 1417.8573, -0.0044922517, 0.06285815, -1097747.5, -69535.46, 0.0, 9.99956, 9.999735 
6.4500374e+2, 2.050807e+2, -1004130.3, -1036776.75, -3557.8684, 0.01019776, 0.06411462, -1003747.06, -73530.65, 0.0, 9.999802, 9.999366 
6.45006e+2, 2.1508023e+2, -853150.44, -911903.5, -1992.5066, 0.027693188, 0.07748583, -853082.94, -20860.781, 0.0, 10.000159, 9.999378 
6.450079e+2, 2.2507972e+2, -738010.3, -818106.2, 305.9064, 0.016236078, 0.094648965, -738009.2, -3780.959, 0.0, 10.000331, 9.999267 
6.4500964e+2, 2.3507918e+2, -640534.2, -718813.9, -4279.6104, -0.02356445, 0.11021436, -640300.9, -4066.3804, 0.0, 10.000321, 9.999279 
6.450114e+2, 2.4507837e+2, -526252.9, -638118.6, -21773.963, -0.036905, 0.113138735, -522164.2, 16078.561, 0.0, 10.000541, 9.999055 
6.450133e+2, 2.550773e+2, -364037.34, -507774.78, -19730.883, -0.025439844, 0.097101495, -361378.06, 78874.84, 0.0, 10.000976, 9.999067 
6.4501524e+2, 2.650762e+2, -271668.75, -465559.66, -7874.149, -0.013592559, 0.10573059, -271349.5, 70914.99, 0.0, 10.001166, 9.998593 
6.450175e+2, 2.7507508e+2, -179968.14, -369297.16, -18617.537, -0.00031244985, 0.13004665, -178154.77, 66122.79, 0.0, 10.001117, 9.998605 
6.4501965e+2, 2.8507382e+2, -81931.49, -314467.03, -29668.436, 0.0020261782, 0.16497627, -78205.88, 68085.945, 0.0, 10.001303, 9.9982195 
6.4502156e+2, 2.950726e+2, 71532.57, -195165.38, -29750.479, -0.007389248, 0.21362205, 74810.97, 123117.26, 0.000000011710588, 10.001707, 9.998171 
6.450237e+2, 3.050702e+2, 106869.27, -219588.73, -27080.293, 0.0033447582, 0.19387126, 109100.38, 109100.38, 0.00000040808163, 10.001901, 9.997577 
6.450255e+2, 3.150675e+2, 236418.4, 46452.977, 11947.218, -0.020967744, 0.15702711, 237166.84, 237166.84, 0.0000020409286, 10.001915, 9.999396 
6.5498143e+2, 1.2507792e+2, -2004004.3, -1735282.6, -117280.32, 0.0136293, 0.14214082, -1691296.9, 22949.865, 0.0, 9.997522, 10.001045 
6.5498775e+2, 1.3507827e+2, -1797010.3, -1584806.5, 101929.73, 0.18946107, 0.063400604, -1543778.3, 72463.16, 0.0, 9.998233, 10.001082 
6.5498835e+2, 1.4507893e+2, -1698860.8, -1553633.6, -649.9568, -0.14286935, 0.057193026, -1553630.8, -35397.035, 0.0, 9.99854, 10.000464 
6.549918e+2, 1.5507966e+2, -1598435.3, -1452412.1, -17819.295, 0.041289315, 0.08005554, -1450269.0, -30043.027, 0.0, 9.998549, 10.00048 
6.549944e+2, 1.6507995e+2, -1515118.0, -1437834.1, 25389.176, 0.09338286, 0.09456838, -1430239.6, -108015.945, 0.0, 9.998776, 9.999799 
6.549964e+2, 1.7507976e+2, -1355465.9, -1308964.9, 23537.68, 0.011808124, 0.09152006, -1299130.5, -74903.51, 0.0, 9.999194, 9.999809 
6.5499866e+2, 1.8507944e+2, -1226414.1, -1204815.4, 5220.1846, -0.016223758, 0.08380938, -1203619.9, -77389.73, 0.0, 9.999446, 9.999729 
6.550012e+2, 1.9507904e+2, -1110838.8, -1096813.3, 5727.902, 0.011456828, 0.06787585, -1094771.4, -66538.28, 0.0, 9.99956, 9.9997425 
6.550036e+2, 2.0507866e+2, -1001797.25, -1031134.6, 9636.575, 0.017114867, 0.07238707, -998915.06, -68678.33, 0.0, 9.999799, 9.999406 
6.550059e+2, 2.1507826e+2, -850500.06, -906576.4, 11608.003, 0.0008686024, 0.088864304, -848192.1, -15950.606, 0.0, 10.000159, 9.999414 
6.5500796e+2, 2.2507766e+2, -746344.1, -834924.4, -622.0676, -0.016276747, 0.10036847, -746339.75, -12091.164, 0.0, 10.000328, 9.999152 
6.5500987e+2, 2.3507683e+2, -648016.06, -734973.8, -4282.678, -0.03335583, 0.09974322, -647805.6, -11547.634, 0.0, 10.000323, 9.999167 
6.55012e+2, 2.4507603e+2, -523531.03, -631995.5, -5683.6665, -0.030436229, 0.10674811, -523234.0, 15032.139, 0.0, 10.000539, 9.999098 
6.550144e+2, 2.5507528e+2, -361413.7, -501679.78, -3188.6523, -0.0075498912, 0.116851255, -361341.25, 78931.58, 0.0, 10.000973, 9.99911 
6.5501654e+2, 2.6507407e+2, -292466.9, -508256.38, -9840.452, -0.004999647, 0.12744014, -292019.1, 50266.313, 0.0, 10.0011635, 9.9983015 
6.5501845e+2, 2.7507243e+2, -200081.73, -411000.13, -19821.082, -0.022857716, 0.12883611, -198235.2, 46068.895, 0.0, 10.001117, 9.998319 
6.550208e+2, 2.8507096e+2, -81780.83, -314084.38, -14324.127, -0.018208645, 0.15403192, -80900.914, 65419.773, 0.0, 10.001302, 9.998222 
6.550234e+2, 2.950697e+2, 71272.43, -194449.55, -14442.272, 0.008889372, 0.20340261, 72055.08, 120389.55, 0.000000011654482, 10.0017, 9.998179 
6.550257e+2, 3.0506718e+2, 102965.2, -225771.08, -26775.998, 0.013515288, 0.17041524, 105131.87, 105131.87, 0.00000041978168, 10.001892, 9.997539 
6.550273e+2, 3.1506526e+2, 224952.8, 24449.059, 13361.819, -0.03848965, 0.21581145, 225839.33, 225839.33, 0.000002202322, 10.001907, 9.9992485 
6.649794e+2, 1.2507536e+2, -1972616.8, -1719313.1, -95576.59, 0.043561794, 0.13178453, -1687296.9, 26974.498, 0.0, 9.997733, 10.001054 
6.6498554e+2, 1.3507569e+2, -1871675.6, -1617686.9, 111527.69, 0.17007841, 0.05011544, -1575666.5, 40599.64, 0.0, 9.99771, 10.001108 
6.649867e+2, 1.4507657e+2, -1769443.6, -1585561.6, 924.7652, -0.13147025, 0.06359208, -1585557.0, -67300.5, 0.0, 9.998047, 10.000483 
6.649905e+2, 1.5507735e+2, -1558501.1, -1431194.9, -26342.35, 0.041741613, 0.08692575, -1425959.4, -5710.345, 0.0, 9.998816, 10.000498 
6.649934e+2, 1.6507761e+2, -1456599.6, -1410090.5, 7584.5454, 0.09001984, 0.098289035, -1408884.9, -86637.836, 0.0, 9.999182, 9.999793 
6.649956e+2, 1.7507733e+2, -1361398.3, -1312293.6, 10355.351, 0.015653621, 0.08927529, -1310199.3, -85948.445, 0.0, 9.999159, 9.999803 
6.649981e+2, 1.8507704e+2, -1242560.6, -1211962.0, -2925.5742, -0.0084873075, 0.08456462, -1211684.9, -85431.12, 0.0, 9.999333, 9.999734 
6.650009e+2, 1.9507675e+2, -1091067.0, -1087182.3, -3588.496, 0.017496064, 0.07941519, -1085044.1, -56788.453, 0.0, 9.999696, 9.999743 
6.650035e+2, 2.0507637e+2, -982499.8, -1021605.44, -1073.6572, 0.016126854, 0.08398726, -982470.4, -52210.844, 0.0, 9.999929, 9.999409 
6.650058e+2, 2.150759e+2, -867324.1, -913728.7, -2532.3105, -0.012073525, 0.09177918, -867186.4, -34921.18, 0.0, 10.000042, 9.999421 
6.650081e+2, 2.2507529e+2, -761020.75, -838614.94, -14696.324, -0.025409264, 0.10155013, -758330.5, -24058.441, 0.0, 10.000214, 9.999182 
6.6501033e+2, 2.3507454e+2, -629447.2, -722963.1, -7917.2544, -0.024349865, 0.10516073, -628781.6, 7498.7197, 0.0, 10.000438, 9.999195 
6.650128e+2, 2.4507374e+2, -512192.28, -640441.0, -1113.876, -0.01943112, 0.11530932, -512182.63, 26106.104, 0.0, 10.000676, 9.998974 
6.6501534e+2, 2.5507283e+2, -376850.22, -522920.1, -12324.866, -0.009895404, 0.12644984, -375817.6, 64479.39, 0.0, 10.000926, 9.998987 
6.6501766e+2, 2.6507148e+2, -296444.78, -515181.1, -25393.09, -0.008325142, 0.12716582, -293535.6, 48775.668, 0.0, 10.001158, 9.998256 
6.650197e+2, 2.750696e+2, -167146.34, -400085.84, -17456.5, -0.015603099, 0.109737545, -165845.42, 78486.14, 0.0, 10.001365, 9.998273 
6.650222e+2, 2.8506812e+2, -50533.453, -311518.97, 1842.79, -0.012862924, 0.14271608, -50520.44, 95827.65, 0.0, 10.001572, 9.99811 
6.650251e+2, 2.9506704e+2, 77532.414, -203234.05, -8007.76, -0.00036186195, 0.22232471, 77760.62, 126121.17, 0.000000008469742, 10.001797, 9.998072 
6.6502744e+2, 3.050643e+2, 107973.29, -211656.39, -31635.51, 0.002953805, 0.16589554, 111074.34, 111074.34, 0.00000038345433, 10.001878, 9.997642 
6.6502935e+2, 3.1506246e+2, 201378.6, 3427.5789, 17876.588, -0.01512591, 0.21110691, 202980.03, 202980.03, 0.0000022156387, 10.001786, 9.999162 
6.7497694e+2, 1.2507246e+2, -1980251.8, -1736208.4, -99036.92, 0.021679701, 0.07194032, -1701075.4, 13221.78, 0.0, 9.997735, 10.000938 
6.7498326e+2, 1.3507318e+2, -1880206.1, -1636589.5, 109896.82, 0.17419057, 0.043777753, -1594341.3, 21948.102, 0.0, 9.997716, 10.000975 
6.749853e+2, 1.4507422e+2, -1777658.9, -1603563.9, 27960.324, -0.080536, 0.08394571, -1599183.5, -80904.41, 0.0, 9.998051, 10.000357 
6.749893e+2, 1.5507454e+2, -1567217.1, -1449242.9, 2379.541, 0.0348366, 0.07535737, -1449194.9, -28918.531, 0.0, 9.998815, 10.000374 
6.749924e+2, 1.6507465e+2, -1452721.1, -1400981.9, 6154.391, 0.06473791, 0.07480995, -1400259.9, -77983.9, 0.0, 9.999177, 9.999858 
6.749948e+2, 1.7507452e+2, -1356428.3, -1302301.8, 9880.99, 0.021588787, 0.07454625, -1300554.4, -76276.484, 0.0, 9.99916, 9.99987 
6.7499757e+2, 1.8507442e+2, -1243256.3, -1213217.8, 10340.733, 0.0055886707, 0.08401818, -1210002.3, -83722.97, 0.0, 9.999333, 9.999725 
6.7500055e+2, 1.950743e+2, -1092122.6, -1089097.6, 9875.64, 0.012170073, 0.097131155, -1080619.3, -52339.348, 0.0, 9.999694, 9.999731 
6.750033e+2, 2.0507386e+2, -985425.94, -1026872.25, 2523.959, 0.005231245, 0.09903184, -985272.8, -54988.16, 0.0, 9.999926, 9.999374 
6.7500585e+2, 2.1507314e+2, -869461.25, -918264.5, 1862.8331, -0.01219527, 0.08519003, -869390.25, -37097.137, 0.0, 10.000042, 9.999391 
6.750084e+2, 2.2507264e+2, -749156.06, -813414.75, -6618.7144, -0.0128429355, 0.09683772, -748481.44, -14182.74, 0.0, 10.000212, 9.999356 
6.7501104e+2, 2.3507231e+2, -617540.94, -698282.8, 887.86383, 0.0028773674, 0.12557544, -617531.1, 18770.447, 0.0, 10.000438, 9.999365 
6.7501354e+2, 2.4507144e+2, -532710.44, -683089.7, 8018.539, -0.004633632, 0.1378071, -532284.1, 6026.3477, 0.0, 10.000676, 9.998681 
6.75016e+2, 2.5507006e+2, -397177.56, -565405.06, -2606.8254, -0.034131866, 0.12707701, -397137.2, 43187.945, 0.0, 10.000927, 9.998694 
6.750186e+2, 2.650684e+2, -282997.9, -486942.8, -17675.168, -0.02596687, 0.10666513, -281477.38, 60864.34, 0.0, 10.001157, 9.99845 
6.7502147e+2, 2.7506655e+2, -154206.44, -371948.34, -9380.244, 0.019732777, 0.070978135, -153803.08, 90556.98, 0.0, 10.001359, 9.998469 
6.750241e+2, 2.850653e+2, -67205.43, -344978.34, 9995.497, 0.016837593, 0.12826264, -66846.21, 79528.05, 0.0, 10.001567, 9.997882 
6.750265e+2, 2.9506463e+2, 61073.945, -236274.39, 1021.39325, -0.036346897, 0.27168876, 61077.453, 109461.79, 0.0000000040864183, 10.001792, 9.997847 
6.75029e+2, 3.0506158e+2, 124479.51, -176506.0, -34532.07, -0.030110467, 0.18252037, 128390.555, 128390.555, 0.0000003121116, 10.001874, 9.997885 
6.750317e+2, 3.150592e+2, 199619.7, 1093.5162, 14949.7, 0.04391946, 0.14887702, 200739.16, 200739.16, 0.0000020914758, 10.0017805, 9.999148 
6.8497455e+2, 1.250696e+2, -2007763.6, -1760628.9, -113255.09, 0.020276941, 0.056589123, -1716578.8, -2255.0906, 0.0, 9.997595, 10.000838 
6.849813e+2, 1.3507028e+2, -1807799.6, -1616046.0, 92809.47, 0.17060809, 0.03672894, -1578483.8, 37833.285, 0.0, 9.998277, 10.000845 
6.8498397e+2, 1.4507131e+2, -1714222.4, -1582580.6, 13479.391, -0.046007164, 0.089177966, -1581214.6, -62907.39, 0.0, 9.998529, 10.00027 
6.8498784e+2, 1.5507138e+2, -1625222.5, -1487030.4, -9764.102, 0.029750848, 0.06209093, -1486343.9, -66036.65, 0.0, 9.998462, 10.000284 
6.8499106e+2, 1.6507149e+2, -1517625.6, -1419221.5, -6255.092, 0.04748998, 0.06124824, -1418825.5, -96518.766, 0.0, 9.998677, 9.999972 
6.8499404e+2, 1.7507166e+2, -1348348.6, -1285673.0, 3.9192188, 0.024215467, 0.07807271, -1285673.0, -61367.12, 0.0, 9.999161, 9.999984 
6.84997e+2, 1.8507162e+2, -1227886.3, -1206025.4, 2356.4304, 0.013421563, 0.08947192, -1205774.3, -79467.75, 0.0, 9.99944, 9.9997225 
6.850001e+2, 1.9507138e+2, -1115656.3, -1099602.8, 2703.9126, 0.008230829, 0.08998234, -1099159.5, -70850.94, 0.0, 9.999533, 9.999735 
6.8500304e+2, 2.0507097e+2, -1013510.75, -1035022.44, -1595.2654, -0.0019037116, 0.091569215, -1013393.06, -83079.9, 0.0, 9.999712, 9.99942 
6.8500584e+2, 2.150704e+2, -875547.44, -916196.9, 2751.9275, -0.014359735, 0.0888184, -875362.0, -43041.867, 0.0, 9.999978, 9.999435 
6.850087e+2, 2.250699e+2, -734777.7, -806115.06, -4325.7324, -0.011094168, 0.099719994, -734516.4, -191.06007, 0.0, 10.000307, 9.99936 
6.850117e+2, 2.3506947e+2, -578875.2, -678478.6, -10372.982, 0.007817411, 0.116393186, -577806.4, 58522.473, 0.0, 10.000699, 9.999374 
6.850144e+2, 2.4506852e+2, -505665.63, -681431.5, -7439.878, 0.0011915724, 0.124746546, -505351.25, 32987.375, 0.0, 10.000911, 9.998579 
6.85017e+2, 2.5506705e+2, -400735.84, -578105.5, -3767.7295, -0.030623779, 0.11759049, -400655.84, 39698.82, 0.0, 10.000951, 9.998596 
6.8501985e+2, 2.6506552e+2, -277385.47, -475466.78, -9884.443, -0.023681622, 0.10844207, -276893.44, 65476.94, 0.0, 10.001159, 9.998528 
6.8502295e+2, 2.750639e+2, -122972.76, -348261.25, -11521.62, 0.0229455, 0.09035014, -122385.055, 122000.8, 0.0, 10.001537, 9.998546 
6.850257e+2, 2.8506258e+2, -66051.49, -351440.4, -1489.8647, 0.02016259, 0.14096762, -66043.72, 80356.59, 0.0, 10.001605, 9.997819 
6.850281e+2, 2.950616e+2, -5654.386, -274462.06, 1629.6127, -0.034418307, 0.25403848, -5644.5073, 42769.2, 0.0000000009738006, 10.001359, 9.997793 
6.850307e+2, 3.050585e+2, 87962.016, -170728.14, -18434.322, -0.030976469, 0.1540342, 89269.05, 89269.05, 0.00000022618863, 10.001521, 9.998095 
6.850338e+2, 3.150565e+2, 240877.13, 14382.723, 26212.137, 0.059226014, 0.13751976, 243871.08, 243871.08, 0.0000018666766, 10.002093, 9.999089 
6.9497234e+2, 1.2506679e+2, -2013091.8, -1774385.5, -83357.95, 0.0393884, 0.08173773, -1748158.0, -33807.09, 0.0, 9.997604, 10.00074 
6.9497937e+2, 1.35067e+2, -1817104.9, -1634020.4, 116927.21, 0.15600161, 0.028187707, -1577063.6, 39285.53, 0.0, 9.998272, 10.000723 
6.949826e+2, 1.4506793e+2, -1718949.3, -1590985.0, 9681.294, -0.030896049, 0.07786417, -1590256.8, -71916.305, 0.0, 9.998523, 10.000216 
6.949863e+2, 1.5506788e+2, -1627952.9, -1494119.5, -11117.126, 0.025404884, 0.046696473, -1493202.3, -72860.89, 0.0, 9.998467, 10.000234 
6.949897e+2, 1.6506816e+2, -1507159.1, -1397958.5, 11350.006, 0.0366055, 0.057090618, -1396791.4, -74452.07, 0.0, 9.998679, 10.000117 
6.9499314e+2, 1.7506872e+2, -1338906.0, -1265023.6, 17806.088, 0.020594312, 0.09982757, -1260956.1, -36621.684, 0.0, 9.999156, 10.000128 
6.949965e+2, 1.8506867e+2, -1227418.3, -1203718.8, 5325.5776, 0.011936702, 0.100979745, -1202577.0, -76241.69, 0.0, 9.9994335, 9.999742 
6.9499964e+2, 1.95068e+2, -1114305.6, -1096573.4, 6529.0684, 0.00540203, 0.057263814, -1094428.8, -66087.16, 0.0, 9.999531, 9.999757 
6.950027e+2, 2.050677e+2, -1005164.44, -1017710.06, 7863.5376, -0.0057783043, 0.0605653, -1001378.25, -71033.22, 0.0, 9.999711, 9.999539 
6.950057e+2, 2.1506767e+2, -867884.75, -899865.2, 12820.886, -0.01999406, 0.102644034, -863379.56, -31033.465, 0.0, 9.999976, 9.999549 
6.9500893e+2, 2.2506712e+2, -745876.44, -828976.8, 9993.825, -0.021687537, 0.110245004, -744691.44, -10339.654, 0.0, 10.000306, 9.999205 
6.950122e+2, 2.3506604e+2, -589913.44, -701540.1, 4448.5137, -0.010886661, 0.078133784, -589736.44, 46625.492, 0.0, 10.000698, 9.999217 
6.9501525e+2, 2.4506496e+2, -498923.06, -667349.0, -6286.3364, -0.0037023677, 0.0762976, -498688.78, 39684.438, 0.0, 10.000911, 9.998675 
6.950182e+2, 2.550639e+2, -394220.6, -564084.8, -1945.3422, -0.00007517615, 0.09713875, -394198.3, 46187.246, 0.0, 10.000949, 9.998693 
6.9502115e+2, 2.650628e+2, -280543.63, -481389.5, 4172.0986, -0.0018968383, 0.13045418, -280457.0, 61940.332, 0.0, 10.001156, 9.998488 
6.950242e+2, 2.750617e+2, -126726.97, -355279.03, 2933.431, -0.0076470845, 0.16830415, -126689.32, 117719.43, 0.0, 10.001534, 9.998499 
6.950271e+2, 2.8506005e+2, -59167.2, -336661.72, -10607.286, -0.0051117064, 0.18232073, -58762.324, 87663.66, 0.0, 10.001603, 9.997922 
6.9502985e+2, 2.9505786e+2, 1718.1465, -258183.81, -6888.5806, 0.0032164757, 0.16911562, 1900.597, 50349.27, 0.000000000021633938, 10.001355, 9.997907 
6.950325e+2, 3.0505502e+2, 99554.51, -145497.58, 2482.7756, -0.0012388848, 0.07923171, 99579.66, 99579.66, 0.00000014519733, 10.001517, 9.998269 
6.950356e+2, 3.1505445e+2, 231599.83, -2276.4165, 46612.27, 0.026783865, 0.18541567, 240547.47, 240547.47, 0.0000015881137, 10.002083, 9.99898 
7.0497054e+2, 1.2506334e+2, -1919025.1, -1737730.6, -94145.445, 0.062229685, 0.08320383, -1697686.3, 16698.225, 0.0, 9.998288, 10.000662 
7.049773e+2, 1.3506342e+2, -1850726.6, -1664282.0, 96042.27, 0.13129178, 0.029045118, -1623659.3, -7274.6157, 0.0, 9.998105, 10.000594 
7.04981e+2, 1.4506444e+2, -1753655.8, -1592588.4, -3299.6875, -0.026467135, 0.08669451, -1592520.8, -74145.734, 0.0, 9.99822, 10.000349 
7.0498484e+2, 1.5506439e+2, -1576955.0, -1454839.1, -9137.924, 0.025344841, 0.043626778, -1454159.1, -33783.76, 0.0, 9.9987545, 10.000364 
7.049885e+2, 1.6506472e+2, -1459788.5, -1374137.0, 14561.385, 0.034262, 0.051541302, -1371729.1, -49356.48, 0.0, 9.999001, 10.000125 
7.049922e+2, 1.7506537e+2, -1367457.0, -1277325.0, 10297.674, 0.018578012, 0.10104891, -1276163.5, -51796.156, 0.0, 9.998956, 10.000138 
7.0499575e+2, 1.850654e+2, -1268842.8, -1211435.8, -3173.579, 0.01183852, 0.10469519, -1211260.8, -84893.41, 0.0, 9.999099, 9.999849 
7.0499915e+2, 1.9506481e+2, -1122241.3, -1089073.0, 3259.504, 0.008262266, 0.058806416, -1088755.8, -60382.984, 0.0, 9.999426, 9.99986 
7.050025e+2, 2.0506455e+2, -991535.0, -1009305.94, 9159.94, -0.0018293723, 0.060219064, -987658.94, -57283.31, 0.0, 9.999796, 9.9995575 
7.0500594e+2, 2.1506453e+2, -832038.56, -880052.6, 6305.3057, -0.01622407, 0.1000091, -831224.3, 1152.2007, 0.0, 10.000213, 9.999571 
7.050093e+2, 2.2506395e+2, -734629.6, -831318.06, -1314.8514, -0.022790186, 0.10761188, -734611.75, -229.14227, 0.0, 10.000418, 9.999134 
7.050126e+2, 2.3506284e+2, -635128.2, -731105.56, -809.29974, -0.022508835, 0.078622825, -635121.4, 1272.4535, 0.0, 10.000422, 9.999147 
7.05016e+2, 2.450618e+2, -526807.75, -670722.44, -5127.0117, -0.011535091, 0.08042015, -526625.3, 11779.378, 0.0, 10.000676, 9.998766 
7.050194e+2, 2.5506085e+2, -354175.66, -534765.2, -2363.802, 0.0105346665, 0.10523092, -354144.72, 86270.664, 0.0, 10.00118, 9.998783 
7.0502245e+2, 2.6505983e+2, -260617.27, -477935.78, -3999.7793, 0.0042723725, 0.13982879, -260543.67, 81883.234, 0.0, 10.001319, 9.998434 
7.0502526e+2, 2.7505866e+2, -193428.52, -393002.94, -6262.7466, -0.028747078, 0.17679325, -193232.17, 51207.227, 0.0, 10.001101, 9.998448 
7.0502836e+2, 2.8505695e+2, -90822.17, -338896.22, -13628.668, -0.01919094, 0.18214221, -90075.69, 56381.13, 0.0, 10.00133, 9.998038 
7.050318e+2, 2.950547e+2, 105542.484, -194624.19, -9428.062, 0.030085703, 0.15254694, 105838.32, 154317.22, 0.0, 10.00201, 9.998028 
7.0503455e+2, 3.0505216e+2, 188553.11, -101195.81, -11543.032, 0.020807963, 0.08325079, 189012.23, 189012.23, 0.00000008201181, 10.002123, 9.998282 
7.0503736e+2, 3.1505153e+2, 155153.6, -62711.65, 16853.084, 0.014945973, 0.18652673, 156449.56, 156449.56, 0.0000012936833, 10.0016575, 9.99877 
7.149691e+2, 1.2505929e+2, -1923498.6, -1748231.3, -92985.77, 0.08822095, 0.05606431, -1708091.6, 6332.907, 0.0, 9.998291, 10.00059 
7.1497506e+2, 1.350596e+2, -1858815.0, -1683093.6, 88863.07, 0.093076415, 0.039125904, -1645989.8, -29566.682, 0.0, 9.998114, 10.000462 
7.149791e+2, 1.4506088e+2, -1731595.6, -1547354.1, 14610.328, -0.036608692, 0.11528858, -1546202.8, -27792.059, 0.0, 9.998223, 10.000658 
7.1498364e+2, 1.5506096e+2, -1556129.3, -1410567.9, 10982.524, 0.026940636, 0.052831713, -1409743.9, 10664.949, 0.0, 9.99875, 10.0006695 
7.149876e+2, 1.6506122e+2, -1468606.4, -1391315.1, 13144.462, 0.038033213, 0.044014625, -1389140.9, -66734.29, 0.0, 9.998996, 10.0000105 
7.149911e+2, 1.7506161e+2, -1375032.4, -1293723.0, 9446.692, 0.017614791, 0.08112275, -1292639.9, -68235.77, 0.0, 9.998959, 10.000025 
7.149948e+2, 1.8506183e+2, -1256428.4, -1185744.5, 8673.883, 0.011860088, 0.099851094, -1184695.6, -58293.14, 0.0, 9.999099, 10.000026 
7.149986e+2, 1.9506185e+2, -1110606.6, -1063841.9, 15530.258, 0.014369408, 0.095381364, -1059154.3, -30752.316, 0.0, 9.999421, 10.000035 
7.1500236e+2, 2.0506155e+2, -997246.94, -1020630.1, 24236.59, 0.008008938, 0.09140811, -982029.3, -51624.477, 0.0, 9.999793, 9.999481 
7.1500623e+2, 2.1506098e+2, -837623.94, -891332.1, 21926.371, -0.0038840347, 0.08111036, -829809.5, 2601.7642, 0.0, 10.000211, 9.999495 
7.1500975e+2, 2.2506039e+2, -732862.8, -827840.06, -1842.1912, -0.015412901, 0.09181393, -732827.06, 1590.6672, 0.0, 10.000419, 9.999158 
7.15013e+2, 2.3505984e+2, -633811.9, -728061.7, -347.94495, -0.027937712, 0.117422834, -633810.6, 2613.6873, 0.0, 10.000421, 9.999169 
7.1501654e+2, 2.4505904e+2, -521338.44, -659120.0, 13555.318, -0.023147801, 0.1365312, -520017.5, 18415.54, 0.0, 10.000675, 9.998846 
7.150204e+2, 2.5505796e+2, -349121.84, -524031.03, 16653.568, -0.00026106503, 0.14248043, -347550.34, 92893.69, 0.0, 10.001179, 9.9988575 
7.150237e+2, 2.6505655e+2, -264810.16, -486738.3, -12321.353, -0.0066747395, 0.1374489, -264128.2, 78330.76, 0.0, 10.001319, 9.998373 
7.1502626e+2, 2.7505472e+2, -197626.53, -401236.22, -13956.576, -0.041736912, 0.115614034, -196674.33, 47803.402, 0.0, 10.001099, 9.998394 
7.1502966e+2, 2.8505325e+2, -82298.55, -320346.66, 11579.372, -0.0236083, 0.13960187, -81736.62, 64756.215, 0.0, 10.001327, 9.998167 
7.1503395e+2, 2.9505208e+2, 113616.76, -176370.5, 16533.658, 0.0447853, 0.20450646, 114556.38, 163060.63, 0.0, 10.002005, 9.998157 
7.150368e+2, 3.0504984e+2, 177996.11, -122342.29, -28883.912, 0.03376394, 0.16611156, 180748.67, 180748.67, 0.00000004119849, 10.002118, 9.998139 
7.15039e+2, 3.150479e+2, 131694.3, -110037.63, -1658.3373, 0.018829163, 0.15178205, 131705.67, 131705.67, 0.0000010048329, 10.001651, 9.998448 
7.249673e+2, 1.2505557e+2, -1943014.1, -1736670.8, -86509.64, 0.092727505, 0.06691503, -1705201.1, 9260.891, 0.0, 9.998064, 10.000779 
7.24973e+2, 1.3505578e+2, -1834257.6, -1658506.1, 103353.85, 0.075469404, 0.029926028, -1610719.9, 5740.1167, 0.0, 9.998229, 10.000573 
7.249776e+2, 1.4505714e+2, -1723214.3, -1554059.6, 36591.496, -0.020653969, 0.11288268, -1546483.5, -28036.773, 0.0, 9.998328, 10.000561 
7.249823e+2, 1.5505731e+2, -1605596.8, -1445495.8, 2619.919, 0.03349899, 0.06864027, -1445452.9, -25007.688, 0.0, 9.998459, 10.000569 
7.249863e+2, 1.6505753e+2, -1506435.1, -1397526.9, -8507.909, 0.03792016, 0.05620092, -1396866.3, -74422.93, 0.0, 9.998684, 10.000118 
7.249901e+2, 1.750578e+2, -1360589.6, -1275118.4, 3778.3127, 0.016589357, 0.06898679, -1274951.6, -50510.45, 0.0, 9.999006, 10.00013 
7.2499406e+2, 1.8505803e+2, -1219128.3, -1168702.4, 12727.829, 0.012834936, 0.08439511, -1165671.9, -39232.63, 0.0, 9.999357, 10.000018 
7.2499824e+2, 1.950582e+2, -1064894.3, -1042222.06, 5873.1255, 0.018043041, 0.095768124, -1040790.94, -12353.316, 0.0, 9.999738, 10.00003 
7.250022e+2, 2.0505798e+2, -974938.1, -1001825.25, 8398.644, 0.010573832, 0.09671896, -972530.3, -42090.457, 0.0, 9.999913, 9.999552 
7.250062e+2, 2.1505742e+2, -879729.7, -903947.5, 16249.442, -0.006157383, 0.08169448, -871573.56, -39127.71, 0.0, 9.999887, 9.999564 
7.2501004e+2, 2.250569e+2, -773896.25, -841003.94, 1201.9948, -0.014032683, 0.09075137, -773874.75, -39422.855, 0.0, 10.000109, 9.999217 
7.250136e+2, 2.350564e+2, -606398.94, -707945.0, 4848.2515, -0.014228087, 0.1164897, -606168.0, 30290.082, 0.0, 10.000579, 9.99923 
7.2501737e+2, 2.4505568e+2, -500899.6, -643040.8, 19565.014, -0.014068182, 0.13739471, -498255.75, 40210.27, 0.0, 10.000789, 9.998902 
7.250213e+2, 2.550547e+2, -408563.34, -546147.44, 20875.535, -0.012995658, 0.14738226, -405465.66, 35010.156, 0.0, 10.000744, 9.998916 
7.250247e+2, 2.6505324e+2, -315720.28, -513175.53, -9771.452, -0.01648046, 0.13729946, -315237.9, 27252.947, 0.0, 10.000978, 9.998357 
7.250277e+2, 2.7505127e+2, -141462.81, -376184.84, -9017.964, -0.024333991, 0.101088814, -141116.86, 103394.26, 0.0, 10.001492, 9.998377 
7.250314e+2, 2.850497e+2, -30224.684, -293109.84, 19027.873, -0.005870533, 0.11871098, -28854.568, 117672.195, 0.0, 10.001675, 9.998187 
7.2503567e+2, 2.9504862e+2, 47167.367, -205880.92, 15497.791, 0.036510307, 0.18612853, 48112.984, 96650.69, 0.0, 10.001536, 9.998179 
7.250386e+2, 3.0504677e+2, 123342.46, -143097.92, -35865.95, 0.021535754, 0.18341853, 128085.984, 128085.984, 0.000000018939705, 10.00172, 9.998189 
7.2504115e+2, 3.1504452e+2, 212095.25, -73692.91, 2795.31, 0.036303833, 0.13706893, 212122.6, 212122.6, 0.0000007295325, 10.002215, 9.998426 
7.3496515e+2, 1.2505218e+2, -1912328.8, -1672904.5, -70099.68, 0.068982035, 0.11430117, -1653890.5, 60606.297, 0.0, 9.998062, 10.001219 
7.349712e+2, 1.35052e+2, -1809192.1, -1605483.5, 108455.52, 0.07729211, 0.0013027443, -1558553.1, 57942.055, 0.0, 9.998226, 10.000938 
7.349763e+2, 1.4505325e+2, -1758522.5, -1626839.0, 40692.6, 0.020150619, 0.078310594, -1615279.0, -96796.06, 0.0, 9.998325, 10.000063 
7.349808e+2, 1.5505347e+2, -1639947.4, -1518264.6, 8589.163, 0.04277591, 0.0902624, -1517661.4, -97177.24, 0.0, 9.998465, 10.000068 
7.34985e+2, 1.6505368e+2, -1484370.4, -1351884.4, 3155.2722, 0.030843424, 0.08740723, -1351809.3, -29326.635, 0.0, 9.998685, 10.000431 
7.3498905e+2, 1.7505392e+2, -1338795.0, -1229245.1, 15937.208, 0.013872776, 0.065921225, -1226973.8, -2495.2585, 0.0, 9.999003, 10.000446 
7.349934e+2, 1.85054e+2, -1232071.1, -1194983.8, 26677.242, 0.013161499, 0.058896825, -1181038.4, -54560.92, 0.0, 9.999354, 9.99984 
7.34998e+2, 1.9505388e+2, -1077349.6, -1068236.1, 20184.99, 0.018443326, 0.059713084, -1052100.0, -23620.314, 0.0, 9.999738, 9.999852 
7.3500216e+2, 2.0505385e+2, -959972.0, -970814.94, 6822.559, 0.004440036, 0.07598519, -956679.1, -26198.582, 0.0, 9.999912, 9.999765 
7.35006e+2, 2.1505392e+2, -865338.44, -873350.8, 15345.933, -0.024510704, 0.10190781, -853484.4, -21004.197, 0.0, 9.999885, 9.999776 
7.350101e+2, 2.2505346e+2, -767362.2, -827165.25, 18239.766, -0.019749712, 0.10465091, -762238.1, -27753.191, 0.0, 10.000107, 9.999313 
7.350145e+2, 2.3505254e+2, -599659.3, -693964.25, 22474.498, 0.017358162, 0.07697265, -594577.1, 41917.79, 0.0, 10.000579, 9.999328 
7.3501843e+2, 2.4505174e+2, -497974.63, -637043.44, 17512.4, 0.014129335, 0.08384032, -495803.25, 42700.234, 0.0, 10.000789, 9.998943 
7.350218e+2, 2.5505108e+2, -405873.06, -539933.44, 19467.646, -0.02907535, 0.11973163, -403103.28, 37407.375, 0.0, 10.000741, 9.99896 
7.3502564e+2, 2.6504993e+2, -314370.94, -509839.13, 9440.417, -0.026506053, 0.13872166, -313916.06, 28606.535, 0.0, 10.000976, 9.998381 
7.3502964e+2, 2.750483e+2, -140499.92, -373867.47, 10533.722, 0.022302685, 0.13392597, -140025.42, 104514.02, 0.0, 10.001491, 9.998394 
7.3503345e+2, 2.8504643e+2, -35619.03, -304036.4, 13956.462, 0.032719184, 0.120476045, -34895.313, 111663.086, 0.0, 10.001673, 9.998113 
7.350368e+2, 2.950443e+2, 41208.234, -216739.81, 11540.748, 0.0029693055, 0.09720994, 41723.547, 90302.62, 0.0, 10.00153, 9.998108 
7.350399e+2, 3.0504295e+2, 138075.5, -111181.414, -17123.525, -0.018787496, 0.13469617, 139246.36, 139246.36, 0.0000000073965225, 10.001715, 9.99841 
7.3504364e+2, 3.150416e+2, 226914.34, -40574.617, 19667.137, 0.0631407, 0.15397386, 228352.64, 228352.64, 0.0000004773962, 10.002205, 9.998659 
7.449632e+2, 1.250482e+2, -1878427.3, -1655963.3, -60182.355, 0.06006626, 0.11623572, -1640726.0, 73809.55, 0.0, 9.998294, 10.001222 
7.449696e+2, 1.3504794e+2, -1772173.8, -1595443.3, 70440.63, 0.072561115, 0.0013997797, -1570802.8, 45732.336, 0.0, 9.998515, 10.000867 
7.44975e+2, 1.4504915e+2, -1727509.0, -1610574.1, 34.03109, 0.042785287, 0.07885841, -1610574.1, -92050.984, 0.0, 9.998531, 10.000076 
7.4497926e+2, 1.5504938e+2, -1638173.6, -1516094.1, 8192.24, 0.037907414, 0.089819774, -1515546.9, -95022.945, 0.0, 9.99847, 10.00008 
7.4498355e+2, 1.6504958e+2, -1486530.3, -1355550.5, 23845.033, 0.022237986, 0.08487947, -1351344.5, -28821.896, 0.0, 9.998681, 10.000407 
7.4498826e+2, 1.7504974e+2, -1319947.3, -1223244.6, 10247.61, 0.025429018, 0.059542798, -1222170.6, 2348.686, 0.0, 9.999146, 10.000419 
7.449929e+2, 1.8504985e+2, -1229362.0, -1188492.0, 8863.447, 0.026860528, 0.05389508, -1186652.6, -60134.46, 0.0, 9.999351, 9.9998865 
7.4499744e+2, 1.9504984e+2, -1137462.6, -1092271.9, 18666.184, 0.01540194, 0.061448243, -1085558.9, -57039.715, 0.0, 9.999304, 9.999897 
7.450018e+2, 2.0504986e+2, -1014835.94, -986578.2, 10742.308, -0.002992816, 0.07506412, -982958.2, -52438.69, 0.0, 9.99949, 9.999861 
7.4500585e+2, 2.1504986e+2, -855327.2, -857573.4, 10077.813, -0.024303915, 0.087928995, -846310.06, -13790.843, 0.0, 9.999907, 9.999873 
7.4501026e+2, 2.2504953e+2, -753222.4, -812128.9, 12190.086, -0.017124983, 0.09208303, -750799.44, -16276.427, 0.0, 10.000169, 9.999387 
7.4501497e+2, 2.3504885e+2, -638545.7, -704371.9, 14039.816, 0.016892312, 0.080909744, -635676.25, 854.6442, 0.0, 10.000277, 9.999401 
7.450191e+2, 2.4504808e+2, -533765.9, -648187.2, 4256.78, 0.017014509, 0.08633192, -533607.75, 4931.347, 0.0, 10.000518, 9.998997 
7.4502283e+2, 2.550473e+2, -380202.94, -521786.34, 6302.841, -0.016503662, 0.103200085, -379922.9, 60624.54, 0.0, 10.000892, 9.999012 
7.450268e+2, 2.6504624e+2, -282780.53, -485893.06, 5481.0728, -0.011614419, 0.12510318, -282632.72, 59925.703, 0.0, 10.001155, 9.99846 
7.450312e+2, 2.7504492e+2, -160115.56, -374485.34, 10442.342, 0.03249049, 0.14455816, -159608.1, 84964.086, 0.0, 10.001318, 9.998473 
7.4503505e+2, 2.8504306e+2, -64560.008, -309624.9, 8245.016, 0.03893864, 0.12574722, -64282.926, 82307.93, 0.0, 10.001438, 9.998187 
7.450384e+2, 2.950407e+2, 43910.086, -207120.19, 16410.318, 0.0060440768, 0.06795447, 44978.316, 93592.305, 0.0, 10.001513, 9.998182 
7.450416e+2, 3.0503958e+2, 149749.66, -112161.52, 5061.4077, -0.023443809, 0.13186401, 149847.44, 149847.44, 0.0000000015345106, 10.001823, 9.998351 
7.4504584e+2, 3.1503808e+2, 257734.34, -20572.256, 16382.59, 0.053819884, 0.14185898, 258695.39, 258695.39, 0.00000026410652, 10.002395, 9.998704 
7.5496155e+2, 1.2504365e+2, -1911872.0, -1725637.4, -40306.066, 0.059197217, 0.07037927, -1717288.4, -2710.1152, 0.0, 9.998293, 10.000745 
7.549679e+2, 1.3504358e+2, -1809155.9, -1672427.8, 77548.69, 0.057999026, 0.029512942, -1637411.8, -20831.887, 0.0, 9.998516, 10.000338 
7.5497353e+2, 1.4504488e+2, -1690412.1, -1533266.5, -4146.1772, 0.043897808, 0.11476612, -1533157.3, -14590.067, 0.0, 9.99853, 10.000607 
7.549775e+2, 1.5504506e+2, -1600257.3, -1437557.5, 6362.415, 0.018213676, 0.068751425, -1437309.1, -16744.684, 0.0, 9.998471, 10.000619 
7.549821e+2, 1.650452e+2, -1511753.1, -1407979.4, 41253.855, 0.010577862, 0.048450984, -1393578.1, -71014.86, 0.0, 9.998681, 10.000048 
7.5498766e+2, 1.7504525e+2, -1345140.0, -1276443.9, 27875.572, 0.049661674, 0.048437703, -1266555.8, -41992.17, 0.0, 9.999149, 10.000052 
7.549925e+2, 1.8504557e+2, -1211010.8, -1149951.9, 6602.878, 0.051522397, 0.06822734, -1149246.0, -22684.838, 0.0, 9.999348, 10.000153 
7.549967e+2, 1.9504608e+2, -1119084.8, -1053769.1, 17016.42, 0.008306879, 0.101395726, -1049601.8, -21045.627, 0.0, 9.999302, 10.000162 
7.550012e+2, 2.05046e+2, -1016491.7, -989718.9, 25743.977, -0.012261848, 0.094161496, -974088.94, -43532.29, 0.0, 9.999488, 9.999841 
7.550059e+2, 2.1504533e+2, -856689.94, -860232.06, 25485.246, -0.0071371696, 0.040340614, -832914.25, -351.49683, 0.0, 9.999905, 9.999856 
7.550105e+2, 2.2504511e+2, -749787.7, -804387.44, 15707.435, -0.008329624, 0.053643096, -745591.44, -11025.585, 0.0, 10.000166, 9.999441 
7.550149e+2, 2.3504531e+2, -635423.3, -697180.56, 18107.24, -0.01631894, 0.1273882, -630505.8, 6060.197, 0.0, 10.000274, 9.999452 
7.550194e+2, 2.4504474e+2, -529704.25, -639204.6, 18091.596, -0.005834424, 0.14409375, -526792.56, 11780.164, 0.0, 10.000515, 9.99906 
7.5502414e+2, 2.550434e+2, -376108.75, -513170.44, 20531.293, 0.023374528, 0.098618, -373099.34, 67486.66, 0.0, 10.000891, 9.999071 
7.5502837e+2, 2.6504222e+2, -273221.03, -465579.97, 11416.001, 0.02658117, 0.09736264, -272545.88, 70052.2, 0.0, 10.001153, 9.9986 
7.5503224e+2, 2.7504116e+2, -150890.48, -353784.6, 17221.34, 0.0045698714, 0.13176899, -149439.14, 95170.11, 0.0, 10.001311, 9.998618 
7.550362e+2, 2.850397e+2, -50393.63, -279283.94, 11239.006, 0.011001319, 0.13321021, -49843.094, 96781.0, 0.0, 10.001434, 9.998398 
7.550403e+2, 2.950378e+2, 58202.746, -177384.14, 19784.299, 0.043458976, 0.10121024, 59852.652, 108494.78, 0.0, 10.001512, 9.998387 
7.550437e+2, 3.0503678e+2, 127908.88, -157531.67, 26021.371, 0.005193145, 0.17838533, 130261.66, 130261.66, 0.00000000001992495, 10.001823, 9.998039 
7.5504774e+2, 3.1503412e+2, 245473.19, -42467.047, 36689.387, 0.0037092743, 0.10576831, 250074.63, 250074.63, 0.000000109993245, 10.00238, 9.998561 
7.6496005e+2, 1.2503906e+2, -1861324.1, -1724848.1, -47412.56, 0.05613697, 0.04337576, -1709993.6, 4628.3877, 0.0, 9.998739, 10.000537 
7.6496613e+2, 1.3503915e+2, -1854809.9, -1724266.9, 76321.48, 0.031293787, 0.04544686, -1689112.6, -72488.4, 0.0, 9.998332, 10.000071 
7.649719e+2, 1.450404e+2, -1708012.4, -1524150.3, 3744.1304, 0.043901194, 0.13062394, -1524074.1, -5461.8203, 0.0, 9.998334, 10.000765 
7.649763e+2, 1.550404e+2, -1534833.8, -1389013.3, -14219.253, 0.030733498, 0.05159557, -1387639.6, 32970.004, 0.0, 9.998846, 10.000772 
7.649811e+2, 1.6504057e+2, -1466446.5, -1393895.5, 15319.607, 0.019482646, 0.030236239, -1390793.3, -68185.45, 0.0, 9.999023, 9.999981 
7.649865e+2, 1.7504087e+2, -1389354.6, -1305020.9, 23883.246, 0.037794545, 0.061533775, -1298726.9, -74119.9, 0.0, 9.998877, 9.999988 
7.649916e+2, 1.8504125e+2, -1248457.4, -1160779.3, 9438.486, 0.037524454, 0.087684385, -1159774.8, -33170.625, 0.0, 9.99906, 10.0002165 
7.649962e+2, 1.9504163e+2, -1076495.3, -1026303.2, 4393.761, 0.01040863, 0.10120119, -1025921.5, 2678.1956, 0.0, 9.999564, 10.000224 
7.6500094e+2, 2.050415e+2, -976483.56, -972824.25, 4071.2036, -0.00034607953, 0.087377235, -970190.44, -39589.953, 0.0, 9.999773, 9.99982 
7.650059e+2, 2.1504088e+2, -889712.44, -878495.0, 2947.583, 0.007475951, 0.040400572, -877767.6, -45161.137, 0.0, 9.999689, 9.999834 
7.650106e+2, 2.2504076e+2, -797910.44, -818564.5, -4525.5117, 0.002907231, 0.059555218, -796962.4, -62353.39, 0.0, 9.999798, 9.99952 
7.6501507e+2, 2.3504108e+2, -656182.8, -698720.7, -870.26575, -0.014777601, 0.13803992, -656165.0, -19556.996, 0.0, 10.000094, 9.999528 
7.6501983e+2, 2.4504055e+2, -545546.5, -639573.5, 5114.36, -0.0067720003, 0.15360841, -545269.1, -6654.9536, 0.0, 10.000375, 9.9991255 
7.650249e+2, 2.550392e+2, -407308.1, -520799.38, 7279.39, 0.026589658, 0.100749865, -406843.1, 33784.32, 0.0, 10.000646, 9.999137 
7.650294e+2, 2.650381e+2, -308075.0, -467146.28, -8349.921, 0.028143616, 0.100141205, -307637.9, 35000.54, 0.0, 10.000849, 9.998734 
7.650333e+2, 2.750373e+2, -190354.83, -357828.16, -4073.2136, -0.0007347871, 0.1428288, -190255.81, 54391.78, 0.0, 10.000976, 9.998752 
7.650376e+2, 2.850359e+2, -66761.87, -284068.53, -9810.258, 0.012317622, 0.14652772, -66319.88, 80341.55, 0.0, 10.0013075, 9.998426 
7.650422e+2, 2.9503402e+2, 111968.04, -148776.92, -15543.392, 0.06420986, 0.111409366, 112891.336, 161570.78, 0.0, 10.001868, 9.998412 
7.650458e+2, 3.0503312e+2, 170717.31, -148491.28, -9526.737, 0.017537331, 0.20276065, 171001.39, 171001.39, 0.0, 10.002167, 9.997936 
7.650498e+2, 3.1503016e+2, 225547.34, -37356.566, 13931.964, -0.013842019, 0.10825116, 226283.58, 226283.58, 0.000000028836135, 10.002178, 9.998693 
7.749586e+2, 1.250345e+2, -1857605.8, -1715943.9, -50673.7, 0.043247614, 0.039603494, -1699683.9, 14982.36, 0.00000000003061157, 9.998734, 10.000601 
7.7496403e+2, 1.3503467e+2, -1854871.6, -1723803.6, 60047.793, -0.009898218, 0.04974244, -1700453.3, -83785.36, 0.0, 9.998331, 10.000073 
7.749703e+2, 1.4503571e+2, -1723137.4, -1556093.3, 21491.043, 0.039407834, 0.12570103, -1553372.6, -34714.363, 0.0, 9.998335, 10.000545 
7.749756e+2, 1.5503539e+2, -1550533.6, -1422769.5, 5287.136, 0.073935546, 0.036326215, -1422551.1, -1891.6792, 0.0, 9.998849, 10.00054 
7.749804e+2, 1.650357e+2, -1450970.5, -1361269.9, 9080.207, 0.047172952, 0.029133579, -1360359.9, -37703.496, 0.0, 9.999022, 10.000205 
7.749849e+2, 1.7503664e+2, -1373189.3, -1271108.5, 18500.896, -0.011151573, 0.09991463, -1267858.9, -43209.87, 0.0, 9.998876, 10.000221 
7.7499014e+2, 1.8503691e+2, -1258247.9, -1180322.9, 28081.053, -0.016991941, 0.11265438, -1171258.1, -44611.473, 0.0, 9.999056, 10.000085 
7.749958e+2, 1.950365e+2, -1086204.4, -1046359.1, 23297.553, 0.02038855, 0.06094458, -1035627.44, -6977.771, 0.0, 9.999562, 10.000088 
7.75001e+2, 2.0503637e+2, -978616.1, -976404.06, 153.66183, 0.030649764, 0.054529767, -976393.44, -45742.594, 0.0, 9.999769, 9.999797 
7.750057e+2, 2.1503653e+2, -891961.9, -882753.5, -385.2716, 0.018786568, 0.087158926, -882737.44, -50087.11, 0.0, 9.999687, 9.999806 
7.750105e+2, 2.2503646e+2, -790952.2, -803808.25, 6044.025, 0.015691614, 0.108770534, -788556.94, -53904.742, 0.0, 9.999796, 9.999622 
7.750155e+2, 2.3503615e+2, -648840.5, -683570.5, 10424.826, 0.020139495, 0.113693915, -645951.6, -9295.018, 0.0, 10.000094, 9.999632 
7.7502036e+2, 2.4503559e+2, -541113.6, -629758.7, 14902.877, 0.012193533, 0.1156875, -538675.25, -12.229824, 0.0, 10.000372, 9.999194 
7.750252e+2, 2.5503471e+2, -402987.2, -510871.5, 17704.21, -0.00784856, 0.108381234, -400156.13, 40515.46, 0.0, 10.000641, 9.9992075 
7.750299e+2, 2.65034e+2, -300032.0, -449659.03, -3410.8762, -0.0075072064, 0.13259439, -299954.28, 42725.156, 0.0, 10.000845, 9.998857 
7.750344e+2, 2.7503338e+2, -182215.56, -340919.75, 1285.4988, 0.01410362, 0.1806743, -182205.14, 62481.652, 0.0, 10.000975, 9.998868 
7.750392e+2, 2.8503183e+2, -75915.31, -303037.22, 10783.753, 0.039707024, 0.16800977, -75404.45, 71297.98, 0.0, 10.0013075, 9.998296 
7.750441e+2, 2.9502943e+2, 100859.484, -169514.58, 6656.471, 0.06693701, 0.09421925, 101023.266, 149749.22, 0.0, 10.001859, 9.998275 
7.7504796e+2, 3.0502862e+2, 175347.14, -136808.16, -8029.3433, 0.012727196, 0.20188394, 175553.53, 175553.53, 0.0, 10.002158, 9.998021 
7.750521e+2, 3.1502622e+2, 250462.67, 15349.033, 12847.138, -0.00666122, 0.15553266, 251162.58, 251162.58, 0.0000000029769756, 10.002174, 9.999058 
7.849571e+2, 1.2502973e+2, -1893228.4, -1719790.4, -68080.6, 0.033381987, 0.052506525, -1696259.0, 18454.732, 0.0000000009851104, 9.998433, 10.00072 
7.8496236e+2, 1.3502988e+2, -1803271.5, -1690806.3, 33067.41, -0.027017709, 0.052425165, -1681804.3, -65089.297, 0.0, 9.998651, 10.000146 
7.8496873e+2, 1.4503086e+2, -1684516.4, -1549755.0, 13406.101, 0.04014864, 0.123195276, -1548434.3, -29728.26, 0.0, 9.9986515, 10.000438 
7.849742e+2, 1.5503058e+2, -1603484.4, -1460187.1, 6891.9063, 0.071411684, 0.049132776, -1459856.5, -39148.996, 0.0, 9.998538, 10.000433 
7.8497916e+2, 1.6503087e+2, -1494275.9, -1376139.6, 7825.655, 0.041972797, 0.043696515, -1375623.5, -52919.047, 0.0, 9.998698, 10.000258 
7.849839e+2, 1.7503175e+2, -1332275.3, -1245850.9, 2973.395, -0.017732544, 0.103583954, -1245748.8, -21051.895, 0.0, 9.999131, 10.000272 
7.8498924e+2, 1.8503194e+2, -1217051.9, -1170178.8, 13658.297, -0.02250924, 0.10856215, -1166489.3, -39794.04, 0.0, 9.99938, 9.999999 
7.8499526e+2, 1.950314e+2, -1108565.0, -1066278.1, 12061.818, 0.015957568, 0.05265619, -1063079.6, -34379.754, 0.0, 9.99945, 10.000006 
7.850006e+2, 2.050313e+2, -1004924.44, -985743.8, -15548.266, 0.029378783, 0.052875258, -977066.06, -46365.19, 0.0, 9.999576, 9.9998255 
7.8500545e+2, 2.1503167e+2, -879994.25, -874205.06, -12382.303, 0.023510803, 0.10268999, -864383.5, -31685.04, 0.0, 9.999757, 9.999831 
7.850105e+2, 2.2503157e+2, -767108.0, -794636.56, 427.65338, 0.024581144, 0.12245879, -767101.4, -32400.793, 0.0, 9.99997, 9.999601 
7.8501576e+2, 2.3503104e+2, -631646.06, -677204.25, -5659.4194, 0.030147463, 0.10615888, -630953.56, 5753.589, 0.0, 10.000222, 9.999614 
7.850209e+2, 2.450305e+2, -528658.94, -609923.1, -6904.5747, 0.017104609, 0.10651265, -528076.5, 10636.677, 0.0, 10.0004, 9.999316 
7.850257e+2, 2.5502995e+2, -415838.22, -503653.03, -777.7264, -0.013892386, 0.11757523, -415831.34, 24887.275, 0.0, 10.000496, 9.999327 
7.8503066e+2, 2.650293e+2, -315446.75, -462142.75, -21789.006, -0.011885142, 0.14586397, -312278.78, 30446.857, 0.0, 10.00076, 9.998812 
7.850356e+2, 2.7502853e+2, -151284.39, -331117.1, -30114.04, 0.023267407, 0.18402572, -146375.63, 98358.87, 0.0, 10.00121, 9.998822 
7.850406e+2, 2.8502688e+2, -59226.957, -294413.5, -23086.889, 0.049570702, 0.16451979, -56982.08, 89768.93, 0.0, 10.001419, 9.9983015 
7.850457e+2, 2.9502442e+2, 29620.951, -203481.39, -17658.111, 0.06686229, 0.08520541, 30951.01, 79726.06, 0.0, 10.001368, 9.998278 
7.8504986e+2, 3.0502355e+2, 104671.375, -188728.1, -27694.68, 0.009637981, 0.19294085, 107262.66, 107262.66, 0.0, 10.00175, 9.997861 
7.8505445e+2, 3.1502116e+2, 320112.22, 61170.16, -29743.67, -0.005401773, 0.1607094, 323484.8, 323484.8, 0.0, 10.002599, 9.999168 
7.949554e+2, 1.2502481e+2, -1881276.4, -1695890.5, -49023.836, 0.015313992, 0.08481017, -1683724.9, 31039.266, 0.0000000034592607, 9.998435, 10.000883 
7.9496104e+2, 1.3502479e+2, -1792694.8, -1669897.1, 40394.637, -0.020695051, 0.052329835, -1657800.8, -41035.38, 0.0, 9.998654, 10.000288 
7.949675e+2, 1.4502582e+2, -1684059.9, -1548614.5, 7122.877, 0.044709373, 0.12277846, -1548241.0, -29485.574, 0.0, 9.9986515, 10.000444 
7.949723e+2, 1.5502599e+2, -1602549.9, -1457358.3, 2887.761, 0.019325485, 0.09109223, -1457300.9, -36547.645, 0.0, 9.998534, 10.000454 
7.949775e+2, 1.6502613e+2, -1503042.4, -1393826.9, 23773.252, 0.000017942044, 0.074579224, -1388876.5, -66124.914, 0.0, 9.998695, 10.00014 
7.949833e+2, 1.7502624e+2, -1341113.4, -1264671.6, 19488.479, 0.01793454, 0.07198561, -1259989.8, -35239.566, 0.0, 9.999132, 10.000143 
7.9498905e+2, 1.8502632e+2, -1220225.5, -1176176.5, 15638.031, 0.019762112, 0.07438836, -1171189.4, -44439.695, 0.0, 9.999377, 9.999959 
7.9499453e+2, 1.9502631e+2, -1111466.9, -1071973.1, 14540.086, -0.0045105247, 0.074994154, -1067197.5, -38447.33, 0.0, 9.999448, 9.999968 
7.949999e+2, 2.0502633e+2, -999365.2, -973604.94, -9413.251, -0.0057527237, 0.08141577, -970531.8, -39781.344, 0.0, 9.999573, 9.99991 
7.950052e+2, 2.1502632e+2, -874392.0, -862228.06, -5613.0684, 0.020705294, 0.0878404, -860033.75, -27283.07, 0.0, 9.999755, 9.999914 
7.950105e+2, 2.2502612e+2, -778020.8, -816702.06, 9208.895, 0.027781792, 0.10133301, -775940.4, -41186.684, 0.0, 9.999968, 9.999451 
7.950159e+2, 2.3502575e+2, -642353.3, -699212.0, 3791.3271, 0.01456124, 0.11465398, -642101.6, -5341.9844, 0.0, 10.000221, 9.999463 
7.950211e+2, 2.450253e+2, -516507.22, -584386.94, -3488.3857, 0.007090082, 0.12537834, -516328.4, 22436.074, 0.0, 10.000398, 9.999493 
7.950264e+2, 2.5502488e+2, -403743.03, -478418.28, 3229.438, 0.0058035525, 0.1294404, -403603.63, 37164.52, 0.0, 10.000495, 9.999501 
7.950316e+2, 2.6502404e+2, -330006.88, -492257.56, -5390.8276, 0.012165564, 0.14049663, -329827.97, 12948.798, 0.0, 10.000759, 9.998606 
7.9503685e+2, 2.7502277e+2, -166535.42, -361618.53, -12777.33, 0.026120009, 0.15005067, -165702.1, 79088.55, 0.0, 10.0012045, 9.998616 
7.950419e+2, 2.8502116e+2, -51489.945, -276798.44, -24240.857, 0.04167955, 0.13461244, -48911.39, 97895.74, 0.0, 10.001412, 9.9984255 
7.950469e+2, 2.9501918e+2, 38006.313, -185356.94, -18657.652, 0.05829028, 0.09140622, 39554.074, 88380.09, 0.0, 10.001365, 9.998404 
7.950516e+2, 3.05018e+2, 78653.555, -243447.73, 3382.3743, 0.0019962853, 0.18281251, 78689.06, 78689.06, 0.0, 10.001752, 9.997484 
7.95057e+2, 3.1501484e+2, 309827.6, 41783.24, 1385.9116, -0.012343068, 0.1138234, 309834.78, 309834.78, 0.0, 10.00259, 9.99904 
8.049537e+2, 1.2501955e+2, -1856694.9, -1674692.9, -51551.09, -0.005188758, 0.10440318, -1661105.6, 53711.734, 0.0000000057252847, 9.998562, 10.00097 
8.049596e+2, 1.3501944e+2, -1828885.1, -1679564.0, 18385.498, -0.01900072, 0.057103995, -1677333.6, -60515.35, 0.0, 9.998373, 10.000358 
8.0496615e+2, 1.4502041e+2, -1715720.8, -1569380.9, -12913.173, 0.0582796, 0.12082776, -1568250.3, -49441.74, 0.0, 9.998459, 10.000394 
8.049708e+2, 1.5502076e+2, -1550125.6, -1438258.0, -22045.086, 0.0035986798, 0.11101688, -1434070.4, -13265.189, 0.0, 9.99892, 10.000399 
8.049762e+2, 1.650208e+2, -1442010.0, -1370375.8, 864.2259, -0.017823867, 0.09015742, -1370365.3, -47560.82, 0.0, 9.99914, 10.000087 
8.0498254e+2, 1.7502058e+2, -1346238.8, -1273078.9, 1221.7267, 0.022234827, 0.05790481, -1273058.4, -48252.535, 0.0, 9.999125, 10.000089 
8.0498844e+2, 1.8502061e+2, -1246221.0, -1189137.0, -1161.0662, 0.029407175, 0.060187817, -1189113.4, -62307.94, 0.0, 9.999203, 9.999953 
8.0499387e+2, 1.9502087e+2, -1122191.4, -1078038.6, -37.430176, -0.005058513, 0.089505166, -1078038.6, -49235.1, 0.0, 9.999378, 9.999959 
8.049994e+2, 2.0502087e+2, -991240.94, -974324.9, -21358.174, -0.011231143, 0.09712547, -959810.94, -29006.938, 0.0, 9.999649, 9.999868 
8.0500495e+2, 2.1502057e+2, -839923.9, -849686.4, -27967.89, 0.013349396, 0.077517875, -816414.5, 16392.652, 0.0, 10.000011, 9.999876 
8.050105e+2, 2.2502035e+2, -743512.6, -797195.56, -16266.132, 0.021048313, 0.089056134, -738968.56, -4158.2715, 0.0, 10.000193, 9.999476 
8.05016e+2, 2.3502022e+2, -644830.56, -697709.0, -8784.04, 0.012177899, 0.12492613, -643409.56, -6595.895, 0.0, 10.000193, 9.999487 
8.050215e+2, 2.4501984e+2, -530433.94, -601793.4, -16415.26, 0.010255463, 0.1427115, -526838.94, 11979.421, 0.0, 10.000348, 9.999397 
8.0502707e+2, 2.550192e+2, -385286.06, -480052.16, -31000.564, 0.014590671, 0.13741663, -376045.88, 64778.504, 0.0, 10.000668, 9.999406 
8.0503255e+2, 2.6501822e+2, -311695.13, -477278.7, -38207.492, 0.021088665, 0.13544343, -303304.16, 39530.156, 0.0, 10.000859, 9.998661 
8.05038e+2, 2.750168e+2, -204624.48, -373880.66, -26683.467, 0.031137723, 0.1284018, -200517.47, 44331.063, 0.0, 10.0009165, 9.99867 
8.050433e+2, 2.8501529e+2, -83199.336, -297920.8, -33702.215, 0.041603453, 0.12337422, -78033.78, 68830.17, 0.0, 10.001221, 9.998372 
8.0504847e+2, 2.9501364e+2, 95068.484, -163703.1, -42514.754, 0.050884943, 0.11732382, 101874.42, 150754.83, 0.0, 10.001782, 9.998351 
8.050534e+2, 3.0501217e+2, 121061.98, -235805.84, -10130.49, -0.0036886672, 0.18836012, 121349.33, 121349.33, 0.0, 10.002099, 9.99737 
8.0505943e+2, 3.1500873e+2, 252130.23, 24908.885, 4658.6978, -0.0050722584, 0.10074329, 252225.72, 252225.72, 0.0, 10.002147, 9.999137 
8.149519e+2, 1.2501404e+2, -1855875.3, -1673086.1, -48627.324, -0.040494714, 0.11638793, -1660955.0, 53917.7, 0.000000004999778, 9.998563, 10.00098 
8.1495786e+2, 1.3501388e+2, -1830555.0, -1681050.4, 10146.493, -0.026559759, 0.06750853, -1680364.9, -63491.813, 0.0, 9.998366, 10.000349 
8.149648e+2, 1.4501469e+2, -1723190.3, -1585242.1, 3104.7068, 0.076599754, 0.118705794, -1585172.3, -66307.43, 0.0, 9.998459, 10.000287 
8.1496996e+2, 1.550149e+2, -1557271.6, -1455153.9, -3833.784, 0.024610886, 0.1084946, -1455010.3, -34147.0, 0.0, 9.998927, 10.00028 
8.149754e+2, 1.650149e+2, -1441118.9, -1369338.0, -297.3939, -0.012608285, 0.089057185, -1369336.8, -46473.816, 0.0, 9.999144, 10.000092 
8.1498134e+2, 1.750147e+2, -1345931.4, -1271329.6, 580.5864, -0.008297087, 0.059919164, -1271325.1, -46461.484, 0.0, 9.99912, 10.000103 
8.1498736e+2, 1.8501481e+2, -1244665.3, -1184871.5, 5051.532, 0.0030900496, 0.06586675, -1184447.8, -57585.523, 0.0, 9.999197, 9.999986 
8.1499344e+2, 1.9501515e+2, -1120268.6, -1074167.3, 6628.6963, 0.014014044, 0.097786374, -1073233.1, -44373.832, 0.0, 9.999378, 9.999986 
8.149993e+2, 2.0501502e+2, -1003632.94, -999712.7, -8368.517, 0.011967315, 0.10075066, -993077.8, -62216.64, 0.0, 9.999647, 9.999695 
8.150048e+2, 2.1501443e+2, -852295.4, -874964.75, -14536.318, -0.000315455, 0.07064392, -845196.94, -12329.161, 0.0, 10.00001, 9.999703 
8.150105e+2, 2.2501427e+2, -728975.3, -766884.6, -17011.764, 0.0028240257, 0.08461302, -722460.8, 12409.548, 0.0, 10.000192, 9.999685 
8.1501627e+2, 2.350145e+2, -630362.9, -667734.75, -8719.952, 0.02155831, 0.137015, -628428.4, 8440.596, 0.0, 10.000193, 9.999693 
8.1502205e+2, 2.4501407e+2, -556801.3, -656614.4, -4860.572, 0.024687812, 0.15827802, -556565.2, -17690.674, 0.0, 10.000348, 9.999022 
8.150277e+2, 2.5501293e+2, -411690.75, -534583.06, -18919.21, 0.012127603, 0.14078829, -408844.1, 32043.063, 0.0, 10.000666, 9.999033 
8.150333e+2, 2.6501185e+2, -290485.3, -432388.6, -35872.223, 0.014877388, 0.13104129, -281932.53, 60965.594, 0.0, 10.000855, 9.998971 
8.1503886e+2, 2.7501073e+2, -183366.38, -329094.3, -23744.451, 0.033607118, 0.122954756, -179595.13, 65312.523, 0.0, 10.000914, 9.998979 
8.150445e+2, 2.8500944e+2, -98046.71, -329254.94, -13184.924, 0.044184037, 0.13254642, -97297.25, 49623.883, 0.0, 10.001222, 9.9981575 
8.150502e+2, 2.9500785e+2, 78763.805, -196758.45, -20801.635, 0.044092048, 0.15642302, 80325.45, 129264.06, 0.0, 10.001777, 9.998127 
8.150555e+2, 3.0500612e+2, 129005.38, -216805.89, -7246.8647, -0.007059477, 0.20470701, 129157.18, 129157.18, 0.0, 10.0020895, 9.997504 
8.150617e+2, 3.150028e+2, 272446.47, 69609.97, 5699.1167, 0.005932507, 0.11876893, 272606.47, 272606.47, 0.0000000016901937, 10.002137, 9.999448 
8.2495034e+2, 1.2500823e+2, -1916758.1, -1698279.4, -43682.734, -0.031136578, 0.11931154, -1689869.3, 25060.621, 0.0000000017683296, 9.998129, 10.001014 
8.249563e+2, 1.3500814e+2, -1781190.9, -1654415.0, 6211.087, -0.035965953, 0.073582165, -1654111.5, -37182.27, 0.0, 9.998692, 10.000376 
8.249634e+2, 1.4500879e+2, -1674039.9, -1576472.0, -332.20407, 0.0734299, 0.112285204, -1576470.9, -57548.38, 0.0, 9.99886, 10.000154 
8.249689e+2, 1.5500876e+2, -1596518.6, -1488749.0, -9121.988, 0.034193408, 0.09316143, -1487982.3, -67059.03, 0.0, 9.998723, 10.000149 
8.249745e+2, 1.6500872e+2, -1477151.3, -1391569.6, -3825.9204, -0.0055706603, 0.07985935, -1391398.9, -68475.36, 0.0, 9.998919, 10.000046 
8.2498056e+2, 1.7500873e+2, -1300051.9, -1254849.5, -7486.467, -0.01879185, 0.07308572, -1253641.8, -28719.074, 0.0, 9.999458, 10.0000515 
8.2498676e+2, 1.8500878e+2, -1168902.5, -1153850.4, -13297.447, -0.0080141565, 0.07831121, -1146096.9, -19175.05, 0.0, 9.999742, 9.999936 
8.249931e+2, 1.950088e+2, -1066263.5, -1053409.6, -18270.146, 0.017311463, 0.08619075, -1040468.94, -11547.549, 0.0, 9.999773, 9.999937 
8.249991e+2, 2.0500863e+2, -980549.2, -992980.56, -26516.324, 0.019489784, 0.08804664, -959529.75, -28606.033, 0.0, 9.999825, 9.999655 
8.250048e+2, 2.1500823e+2, -871470.56, -888679.1, -22639.883, 0.002411218, 0.08017274, -855855.06, -22926.31, 0.0, 9.999897, 9.999663 
8.2501066e+2, 2.2500803e+2, -744114.8, -776644.9, -30430.744, 0.0035595165, 0.09414012, -725875.06, 9056.59, 0.0, 10.000098, 9.999663 
8.250166e+2, 2.3500802e+2, -597481.56, -654125.94, -40491.832, 0.021711715, 0.123974346, -576389.8, 60542.695, 0.0, 10.000428, 9.999672 
8.250225e+2, 2.4500754e+2, -520996.88, -643242.56, -31591.83, 0.024560442, 0.1437571, -513315.3, 25623.2, 0.0, 10.00061, 9.998986 
8.2502836e+2, 2.5500658e+2, -416230.03, -540463.5, -20589.865, 0.013038546, 0.1459816, -412906.47, 28043.371, 0.0, 10.00065, 9.999 
8.250342e+2, 2.6500553e+2, -293232.16, -433883.53, -35596.035, 0.013458441, 0.1437313, -284736.66, 58223.76, 0.0, 10.000837, 9.998968 
8.2503986e+2, 2.750044e+2, -145942.38, -311226.75, -47521.68, 0.026080929, 0.13136148, -133253.34, 111717.03, 0.0, 10.001172, 9.998977 
8.250457e+2, 2.850031e+2, -84182.65, -324761.0, -38601.66, 0.038610857, 0.14376485, -78140.62, 68843.2, 0.0, 10.001327, 9.998137 
8.250518e+2, 2.9500157e+2, 8481.542, -232685.73, -32087.504, 0.049646348, 0.17607091, 12677.797, 61678.75, 0.0, 10.001304, 9.998108 
8.250574e+2, 3.049996e+2, 53126.707, -247237.52, -12619.62, 0.0007492654, 0.19949977, 53655.98, 53655.98, 0.0, 10.001541, 9.997559 
8.2506377e+2, 3.149967e+2, 264531.38, 83009.1, -10121.32, 0.0056498395, 0.14874995, 265093.97, 265093.97, 0.000000023716037, 10.002009, 9.999602 
8.3494884e+2, 1.250022e+2, -1912555.6, -1690058.1, -13921.641, 0.011861989, 0.11516506, -1689190.5, 25797.695, 0.000000000051048894, 9.998128, 10.001072 
8.349549e+2, 1.3500227e+2, -1774215.8, -1642801.9, 27936.973, -0.048639845, 0.074597925, -1637109.5, -20123.332, 0.0, 9.998702, 10.000451 
8.3496195e+2, 1.4500271e+2, -1686065.3, -1602763.5, -7187.7944, 0.046142865, 0.10007587, -1602147.8, -83166.45, 0.0, 9.998867, 9.9999695 
8.349676e+2, 1.5500236e+2, -1609122.3, -1513120.1, -14453.831, 0.029579803, 0.064391576, -1510991.1, -90005.86, 0.0, 9.998715, 9.999984 
8.3497345e+2, 1.6500233e+2, -1483542.0, -1404275.5, 16415.078, 0.00044281327, 0.06395902, -1401010.6, -78024.78, 0.0, 9.998915, 9.999961 
8.349801e+2, 1.7500265e+2, -1306136.9, -1268790.8, 13392.423, -0.009788316, 0.09924256, -1264484.8, -39502.023, 0.0, 9.999463, 9.999954 
8.349865e+2, 1.8500252e+2, -1178530.5, -1174086.0, -12574.552, -0.0054759476, 0.097980194, -1163538.9, -36554.965, 0.0, 9.9997425, 9.999796 
8.3499277e+2, 1.9500189e+2, -1076384.4, -1073520.1, -17295.014, 0.0026322668, 0.05293353, -1057598.1, -28608.375, 0.0, 9.999768, 9.999802 
8.3499885e+2, 2.0500171e+2, -973781.7, -978555.75, -24556.162, 0.009568281, 0.057914857, -951496.8, -20505.203, 0.0, 9.999823, 9.999755 
8.3500487e+2, 2.1500199e+2, -864444.3, -874157.5, -20353.46, 0.020399405, 0.10676301, -848376.06, -15386.338, 0.0, 9.999896, 9.9997635 
8.3501095e+2, 2.2500168e+2, -762394.0, -814646.4, -18811.645, 0.022038955, 0.118295535, -756326.1, -21332.342, 0.0, 10.000098, 9.999403 
8.3501697e+2, 2.3500079e+2, -615645.0, -691908.75, -28270.074, 0.012098395, 0.08650434, -606308.56, 30695.414, 0.0, 10.000428, 9.9994135 
8.350229e+2, 2.4500027e+2, -499494.53, -598517.56, -30550.629, 0.009536488, 0.10016196, -490827.63, 48182.492, 0.0, 10.000609, 9.999294 
8.3502907e+2, 2.550001e+2, -395250.25, -496317.44, -18675.846, 0.014417106, 0.15346086, -391909.63, 49102.63, 0.0, 10.000648, 9.999304 
8.3503497e+2, 2.649993e+2, -315401.13, -480133.94, -23278.508, 0.013666058, 0.17273635, -312174.8, 30846.248, 0.0, 10.000837, 9.9986515 
8.350408e+2, 2.7499774e+2, -168231.13, -357323.9, -34808.3, 0.00813589, 0.1506554, -162027.14, 83009.664, 0.0, 10.001169, 9.998662 
8.3504695e+2, 2.8499627e+2, -73236.01, -300793.8, -39108.168, 0.025115099, 0.1559269, -66702.45, 80349.49, 0.0, 10.001322, 9.998304 
8.3505315e+2, 2.9499486e+2, 19557.096, -208224.63, -31848.637, 0.06252662, 0.1816514, 23926.389, 72993.25, 0.0, 10.001298, 9.998279 
8.350591e+2, 3.049927e+2, 51555.22, -250183.28, 5131.6567, 0.0145607, 0.17727974, 51642.47, 51642.47, 0.0, 10.001538, 9.99754 
8.350656e+2, 3.1499028e+2, 264177.44, 83751.016, 7011.835, -0.0105706025, 0.17493896, 264449.53, 264449.53, 0.00000010288848, 10.002002, 9.999611 
8.4494746e+2, 1.2499575e+2, -1852371.0, -1674487.4, -17988.748, 0.033393506, 0.09636965, -1672686.5, 42364.21, 0.0, 9.998599, 10.000952 
8.4495336e+2, 1.3499594e+2, -1819077.6, -1675288.8, -1209.9783, -0.054422192, 0.07906577, -1675278.5, -58230.02, 0.0, 9.998445, 10.00035 
8.4496063e+2, 1.4499636e+2, -1712189.0, -1608544.3, -31857.998, 0.03251603, 0.10451426, -1599534.9, -80490.914, 0.0, 9.99866, 10.000029 
8.449664e+2, 1.5499601e+2, -1518450.5, -1462714.5, -20508.6, 0.016776554, 0.0627018, -1455981.5, -34934.53, 0.0, 9.99931, 10.000043 
8.4497267e+2, 1.6499591e+2, -1400293.4, -1380905.1, 15324.1, -0.0042831865, 0.059981696, -1372466.3, -49418.195, 0.0, 9.999558, 9.999811 
8.449795e+2, 1.749961e+2, -1324101.5, -1294013.3, 6897.5483, -0.0022597332, 0.09575966, -1292507.4, -67460.195, 0.0, 9.999412, 9.999805 
8.449862e+2, 1.849959e+2, -1214553.0, -1193475.1, -16922.635, 0.0036171642, 0.09946235, -1184078.0, -57029.04, 0.0, 9.999503, 9.999779 
8.449925e+2, 1.9499537e+2, -1068733.5, -1071517.6, -12246.249, 0.0031793886, 0.064662315, -1057800.5, -28746.713, 0.0, 9.999827, 9.999787 
8.449987e+2, 2.0499514e+2, -940800.5, -968720.6, -21769.209, 0.0070177536, 0.06733899, -928899.75, 2156.328, 0.0, 10.000074, 9.9997015 
8.450049e+2, 2.1499519e+2, -817402.06, -857519.3, -29766.883, 0.0196072, 0.09996737, -801566.2, 31490.0, 0.0, 10.000245, 9.999709 
8.450112e+2, 2.2499484e+2, -730186.1, -807589.7, -24127.375, 0.020807236, 0.11232998, -723281.4, 11779.558, 0.0, 10.000357, 9.999326 
8.450173e+2, 2.3499407e+2, -623323.8, -704338.5, -20731.111, 0.00855164, 0.09937433, -618327.06, 18743.25, 0.0, 10.000413, 9.999335 
8.450236e+2, 2.4499354e+2, -505610.56, -599334.75, -29233.33, 0.008258005, 0.11411342, -497240.03, 41836.49, 0.0, 10.00056, 9.999312 
8.450298e+2, 2.5499323e+2, -372602.72, -483382.13, -39844.92, 0.01983715, 0.14998442, -359760.2, 81319.586, 0.0, 10.000795, 9.999321 
8.450359e+2, 2.6499233e+2, -311134.47, -485321.72, -44580.457, 0.018102748, 0.16610403, -300387.84, 42701.31, 0.0, 10.000898, 9.998586 
8.450418e+2, 2.7499086e+2, -214892.6, -387133.66, -38283.84, 0.004230407, 0.15590823, -206766.66, 38338.277, 0.0, 10.000882, 9.998594 
8.45048e+2, 2.8498942e+2, -99331.9, -311257.06, -35657.32, 0.015869237, 0.1662455, -93493.26, 53626.598, 0.0, 10.001134, 9.998322 
8.4505457e+2, 2.9498798e+2, 69027.875, -182065.6, -40424.977, 0.0523598, 0.1890318, 75375.65, 124510.06, 0.0, 10.001629, 9.998298 
8.450606e+2, 3.0498555e+2, 75421.766, -227570.06, -12585.03, 0.013688558, 0.15407234, 75943.59, 75943.59, 0.00000000024035085, 10.001655, 9.997639 
8.450674e+2, 3.1498358e+2, 153668.97, 36846.05, -4959.0757, 0.002926941, 0.1875369, 153879.11, 153879.11, 0.00000026211356, 10.001214, 9.999667 
8.549459e+2, 1.249889e+2, -1874368.0, -1721470.6, -16408.29, 0.019527595, 0.06401817, -1719729.6, -4612.686, 0.0, 9.998605, 10.000627 
8.5495186e+2, 1.3498919e+2, -1842010.4, -1721764.3, -8069.456, -0.05326591, 0.08827862, -1721225.1, -104108.99, 0.0, 9.99844, 10.000033 
8.549593e+2, 1.4498976e+2, -1689206.3, -1560627.0, -8293.917, 0.031003905, 0.12819366, -1560094.1, -40983.88, 0.0, 9.998656, 10.00036 
8.549655e+2, 1.5498976e+2, -1495085.8, -1416677.3, 5022.669, -0.007012445, 0.08928936, -1416356.8, 4751.163, 0.0, 9.999318, 10.000356 
8.5497206e+2, 1.649895e+2, -1415995.6, -1414615.4, 9572.067, -0.023180928, 0.06729308, -1405708.6, -82598.55, 0.0, 9.999563, 9.9995775 
8.54979e+2, 1.7498904e+2, -1340006.5, -1326223.8, 1318.7482, 0.0028423595, 0.061200723, -1326098.8, -100982.664, 0.0, 9.999408, 9.999586 
8.5498583e+2, 1.84989e+2, -1206720.5, -1176523.5, -4987.8306, 0.018037193, 0.08233433, -1175721.0, -48603.965, 0.0, 9.999499, 9.999898 
8.549925e+2, 1.9498932e+2, -1060419.3, -1054670.5, -179.93779, 0.017737322, 0.12273715, -1054664.8, -25551.67, 0.0, 9.999829, 9.999902 
8.549988e+2, 2.0498897e+2, -955354.44, -998854.9, -16186.282, 0.010682196, 0.11713253, -949992.5, -18875.775, 0.0, 10.000074, 9.9994955 
8.55005e+2, 2.1498792e+2, -832287.0, -887897.5, -23726.797, -0.0012451626, 0.05996236, -823539.6, 9588.225, 0.0, 10.000242, 9.999502 
8.550113e+2, 2.2498754e+2, -723227.7, -793027.56, -22941.25, -0.0012817954, 0.07656937, -716362.75, 18769.953, 0.0, 10.000356, 9.999427 
8.550178e+2, 2.3498784e+2, -616031.3, -689216.06, -18594.797, 0.009384595, 0.1614179, -611577.75, 25553.5, 0.0, 10.000413, 9.999439 
8.550242e+2, 2.4498731e+2, -525203.1, -640302.56, -20689.953, 0.018925108, 0.18411843, -521596.94, 17540.693, 0.0, 10.00056, 9.999031 
8.550307e+2, 2.549859e+2, -392045.88, -523860.97, -30992.893, 0.028453842, 0.1362339, -385122.38, 56029.73, 0.0, 10.000794, 9.999044 
8.5503685e+2, 2.6498467e+2, -298417.44, -458933.38, -45538.914, 0.026625354, 0.12588942, -286397.9, 56766.4, 0.0, 10.000898, 9.998768 
8.550428e+2, 2.749837e+2, -203047.2, -361728.72, -38280.94, 0.011788252, 0.14897034, -194294.9, 50879.535, 0.0, 10.000878, 9.998771 
8.5504913e+2, 2.8498244e+2, -109386.22, -331454.7, -16590.33, 0.008044535, 0.17542012, -108153.625, 39033.79, 0.0, 10.00113, 9.998185 
8.550558e+2, 2.9498085e+2, 59373.184, -201307.69, -21007.617, 0.016228102, 0.19598319, 61055.28, 110259.02, 0.0, 10.001624, 9.998168 
8.550621e+2, 3.0497816e+2, 89709.375, -197059.52, -28952.19, -0.0037941628, 0.12779132, 92603.19, 92603.19, 0.0000000059514194, 10.001651, 9.99785 
8.55069e+2, 3.1497657e+2, 161126.16, 53690.957, -21718.486, 0.04173137, 0.17703599, 165350.55, 165350.55, 0.0000005093443, 10.001209, 9.999785 
8.6494434e+2, 1.24982074e+2, -1917755.5, -1739523.8, -35751.38, 0.013757918, 0.07779982, -1732619.9, -17434.953, 0.00000000000000000000885557, 9.998297, 10.000649 
8.649504e+2, 1.3498236e+2, -1788139.8, -1690368.3, -6695.2476, -0.05321579, 0.09696585, -1689911.9, -72728.53, 0.0, 9.998786, 10.000081 
8.649581e+2, 1.4498284e+2, -1635103.6, -1544244.9, 6.8703094, 0.031621683, 0.13024299, -1544244.9, -25066.63, 0.0, 9.99907, 10.000272 
8.649647e+2, 1.5498282e+2, -1519992.4, -1438554.6, -18645.195, -0.010156593, 0.0986575, -1434488.8, -13312.331, 0.0, 9.99919, 10.000267 
8.6497146e+2, 1.6498253e+2, -1446719.9, -1430491.6, -33943.855, -0.025805684, 0.07708512, -1403705.5, -80526.52, 0.0, 9.999355, 9.99957 
8.649785e+2, 1.7498201e+2, -1317373.1, -1315480.0, -25048.36, 0.0036258698, 0.06613017, -1291360.4, -66175.22, 0.0, 9.999564, 9.999585 
8.6498547e+2, 1.8498191e+2, -1178018.8, -1163182.3, -20450.566, 0.021944143, 0.0833037, -1148846.0, -21659.867, 0.0, 9.999699, 9.999893 
8.649924e+2, 1.9498219e+2, -1070423.0, -1060205.8, -25420.828, 0.02454989, 0.1194438, -1039385.3, -10202.668, 0.0, 9.9997635, 9.999896 
8.649989e+2, 2.0498182e+2, -982099.7, -1020134.75, -39969.492, 0.013683935, 0.11556126, -956854.06, -25667.453, 0.0, 9.999927, 9.99942 
8.6500514e+2, 2.149808e+2, -845889.9, -902891.7, -37908.977, -0.009961522, 0.06799604, -826963.06, 6234.9805, 0.0, 10.000185, 9.999428 
8.650116e+2, 2.249804e+2, -717709.9, -783548.4, -38419.88, -0.009885363, 0.084216334, -700035.0, 35167.86, 0.0, 10.000364, 9.999487 
8.6501825e+2, 2.3498064e+2, -604278.1, -676393.6, -38249.266, 0.013585915, 0.1564108, -587770.0, 49431.35, 0.0, 10.0004635, 9.999502 
8.6502486e+2, 2.4498005e+2, -535374.1, -654867.25, -31761.307, 0.025833847, 0.17610799, -527456.56, 11751.348, 0.0, 10.000532, 9.998944 
8.6503136e+2, 2.5497863e+2, -429710.22, -552052.56, -28496.07, 0.027067738, 0.13657667, -423398.5, 17824.2, 0.0, 10.00058, 9.998954 
8.6503774e+2, 2.6497734e+2, -320039.78, -470651.34, -43525.21, 0.024947213, 0.121846825, -308366.25, 34869.71, 0.0, 10.000757, 9.9987545 
8.650438e+2, 2.7497616e+2, -178723.36, -351620.22, -51372.59, 0.019183565, 0.1272707, -164610.98, 80636.836, 0.0, 10.001053, 9.998756 
8.650503e+2, 2.8497496e+2, -95481.01, -313382.88, -23954.184, 0.013164542, 0.15743013, -92878.78, 54381.023, 0.0, 10.001177, 9.998287 
8.6505705e+2, 2.9497376e+2, -4039.0364, -220187.22, -12018.3955, 0.0064362707, 0.20346773, -3372.836, 45899.535, 0.0, 10.001139, 9.998271 
8.6506355e+2, 3.049709e+2, 40410.04, -218841.94, -28438.352, -0.009592337, 0.11164548, 43492.89, 43492.89, 0.000000027135602, 10.001304, 9.997868 
8.650705e+2, 3.1496927e+2, 212197.39, 63767.656, -38203.164, 0.054919776, 0.16031446, 221453.05, 221453.05, 0.00000083365, 10.001621, 9.999657 
8.7494254e+2, 1.24975316e+2, -1890284.0, -1681753.9, -14002.367, 0.0057502477, 0.14112584, -1680817.9, 34436.33, 0.0000000055054987, 9.998292, 10.001049 
8.7494916e+2, 1.3497548e+2, -1756676.9, -1625839.8, 12038.239, -0.059022278, 0.104145944, -1624741.4, -7491.5522, 0.0, 9.998789, 10.000523 
8.749572e+2, 1.4497563e+2, -1672478.0, -1622983.8, 3930.3608, 0.029062271, 0.10853906, -1622673.6, -103426.125, 0.0, 9.999075, 9.99973 
8.749641e+2, 1.5497522e+2, -1556886.9, -1515075.6, -14033.171, 0.007949672, 0.09094646, -1510802.4, -89549.95, 0.0, 9.999189, 9.9997425 
8.74971e+2, 1.64975e+2, -1429822.4, -1395511.0, -26809.078, -0.011748887, 0.09121323, -1380838.4, -57583.605, 0.0, 9.999355, 9.999811 
8.74978e+2, 1.7497504e+2, -1300657.1, -1281581.1, -17188.104, -0.0022763521, 0.111904986, -1271462.0, -46208.074, 0.0, 9.999567, 9.999817 
8.749851e+2, 1.8497473e+2, -1187292.9, -1182441.1, -18648.031, 0.012321789, 0.102860905, -1166061.9, -38805.664, 0.0, 9.999699, 9.999762 
8.749921e+2, 1.9497405e+2, -1079701.3, -1079201.0, -23261.28, 0.02250602, 0.05435587, -1056188.5, -26926.502, 0.0, 9.999762, 9.999766 
8.7499887e+2, 2.0497374e+2, -978489.9, -1012284.94, -31003.27, 0.014731789, 0.062353063, -960078.4, -28812.902, 0.0, 9.999924, 9.9994755 
8.750053e+2, 2.1497385e+2, -841820.5, -894321.56, -28513.795, -0.007999854, 0.12349544, -829313.75, 3952.6558, 0.0, 10.000184, 9.999487 
8.75012e+2, 2.2497346e+2, -716674.4, -781621.75, -35574.484, -0.0062040933, 0.13453352, -700980.8, 34290.38, 0.0, 10.000364, 9.999501 
8.750187e+2, 2.349725e+2, -603193.1, -674266.56, -34700.6, 0.020552063, 0.08614779, -589061.06, 48219.12, 0.0, 10.0004635, 9.999517 
8.750254e+2, 2.4497184e+2, -527830.0, -639501.06, -30665.6, 0.027932208, 0.092899606, -519963.22, 19323.633, 0.0, 10.000533, 9.999049 
8.750318e+2, 2.549715e+2, -422881.75, -537475.1, -26410.678, 0.014129752, 0.15050818, -417087.75, 24203.613, 0.0, 10.000578, 9.999055 
8.750383e+2, 2.649703e+2, -335639.25, -502808.7, -31908.76, 0.011809501, 0.15237258, -329755.7, 13548.265, 0.0, 10.000754, 9.998535 
8.7504494e+2, 2.7496827e+2, -193427.6, -382243.28, -39461.246, 0.023616781, 0.090577915, -185512.27, 59812.652, 0.0, 10.001052, 9.998547 
8.750516e+2, 2.8496706e+2, -72297.055, -265308.97, -25630.65, 0.028420238, 0.11319196, -68951.48, 78385.35, 0.0, 10.001177, 9.998617 
8.750584e+2, 2.9496667e+2, 18250.145, -172282.44, -12631.82, 0.022471989, 0.21184018, 19083.953, 68424.11, 0.0, 10.001132, 9.998604 
8.750649e+2, 3.0496374e+2, 26576.775, -245211.72, -15278.924, -0.0036126522, 0.10597138, 27433.0, 27433.0, 0.00000006425192, 10.001294, 9.997691 
8.7507194e+2, 3.149617e+2, 186837.73, 12378.272, -25201.096, 0.03460379, 0.1268911, 190405.16, 190405.16, 0.0000011924308, 10.0016165, 9.999305 
8.849409e+2, 1.2496799e+2, -1862349.0, -1664655.8, -306.85422, 0.008787317, 0.16140075, -1664655.3, 50671.33, 0.00000006865042, 9.998468, 10.001082 
8.849481e+2, 1.3496795e+2, -1731731.8, -1607098.9, -9791.285, -0.05737017, 0.09686375, -1606334.4, 10989.005, 0.0, 9.998931, 10.000584 
8.849563e+2, 1.4496797e+2, -1663501.9, -1631863.6, -29151.875, 0.025442474, 0.09120688, -1614515.4, -95193.2, 0.0, 9.999193, 9.999613 
8.849633e+2, 1.5496764e+2, -1548939.0, -1523788.6, -15207.228, 0.00040118923, 0.09352581, -1516630.8, -95303.75, 0.0, 9.999299, 9.99963 
8.849703e+2, 1.6496742e+2, -1407453.0, -1376583.9, -13433.755, -0.015652029, 0.09623745, -1371556.5, -48227.22, 0.0, 9.9994755, 9.999882 
8.849777e+2, 1.7496736e+2, -1273542.6, -1261419.8, -17711.14, 0.004796663, 0.10045408, -1248761.5, -23432.723, 0.0, 9.999722, 9.999881 
8.849849e+2, 1.8496701e+2, -1165681.8, -1180386.9, -28733.613, 0.018058747, 0.08728833, -1143374.9, -16043.568, 0.0, 9.999882, 9.999687 
8.849918e+2, 1.9496635e+2, -1056205.0, -1075655.8, -29409.04, 0.012131494, 0.049102932, -1034955.0, -5617.833, 0.0, 9.999957, 9.999697 
8.849987e+2, 2.0496607e+2, -968112.5, -999977.06, -32605.836, 0.004433138, 0.059012584, -947754.6, -16414.094, 0.0, 9.999965, 9.999539 
8.850054e+2, 2.1496616e+2, -877842.7, -904286.2, -30305.209, -0.0010434453, 0.111595385, -858000.56, -24659.184, 0.0, 9.999907, 9.999552 
8.8501227e+2, 2.2496577e+2, -760649.6, -803518.25, -31991.07, 0.0052847075, 0.12019926, -743576.06, -8230.083, 0.0, 10.000066, 9.999495 
8.8501924e+2, 2.3496486e+2, -605712.56, -676629.6, -33887.543, 0.022273086, 0.07810405, -592123.44, 45230.934, 0.0, 10.00045, 9.999508 
8.850259e+2, 2.4496423e+2, -516982.44, -629959.5, -43620.51, 0.026222961, 0.08559968, -502100.78, 37260.074, 0.0, 10.000589, 9.999087 
8.8503236e+2, 2.5496385e+2, -434023.78, -538334.25, -45171.574, 0.015955532, 0.13661358, -417181.63, 24183.947, 0.0, 10.000483, 9.999095 
8.85039e+2, 2.649627e+2, -356256.53, -505347.38, -29101.582, 0.014869427, 0.13857202, -350777.44, -7399.8467, 0.0, 10.000581, 9.998601 
8.850459e+2, 2.7496082e+2, -211990.81, -383787.22, -16431.484, 0.024503686, 0.0849961, -210433.34, 34963.777, 0.0, 10.000894, 9.998612 
8.8505274e+2, 2.8495967e+2, -95092.23, -277159.1, -18286.752, 0.029853608, 0.11176413, -93273.67, 54134.754, 0.0, 10.001025, 9.998608 
8.8505954e+2, 2.9495928e+2, -7607.8564, -185835.0, -31398.117, 0.028827978, 0.21060027, -2238.2524, 47173.78, 0.0, 10.000958, 9.998594 
8.8506615e+2, 3.049563e+2, 18160.201, -227598.31, -16126.119, 0.003929158, 0.088156834, 19213.844, 19213.844, 0.00000010587227, 10.001142, 9.997886 
8.850735e+2, 3.1495446e+2, 179055.73, 8172.7725, -1354.187, 0.031716466, 0.11374809, 179066.47, 179066.47, 0.0000015115112, 10.001566, 9.9993 
8.9493936e+2, 1.24960124e+2, -1887703.5, -1717152.4, 20612.986, 0.006152022, 0.13667552, -1714696.4, 705.5697, 0.00000033535434, 9.998467, 10.000722 
8.949471e+2, 1.3495977e+2, -1756402.4, -1658467.6, 7412.3154, -0.047308978, 0.07731527, -1657909.9, -40506.16, 0.00000000007521531, 9.998932, 10.000231 
8.9495546e+2, 1.449599e+2, -1638796.9, -1582823.0, -27106.297, 0.021878185, 0.082247496, -1571848.1, -52446.414, 0.0, 9.999201, 9.999946 
8.949622e+2, 1.5496011e+2, -1525977.3, -1476419.5, -11294.059, -0.03693792, 0.10676473, -1473966.9, -52567.207, 0.0, 9.9993, 9.999955 
8.949695e+2, 1.6495982e+2, -1415625.5, -1393577.1, -4235.0054, -0.042775236, 0.09114013, -1392791.8, -69389.46, 0.0, 9.999475, 9.999765 
8.949777e+2, 1.74959e+2, -1281141.9, -1277491.4, -8288.339, 0.023834031, 0.030890092, -1270829.8, -45420.41, 0.0, 9.9997225, 9.99977 
8.94985e+2, 1.8495879e+2, -1166707.4, -1182804.0, -26664.215, 0.037843723, 0.036897816, -1146903.4, -19492.143, 0.0, 9.999883, 9.999671 
8.949916e+2, 1.9495915e+2, -1057057.5, -1077657.6, -27054.256, -0.0074872607, 0.10414022, -1038408.94, -9001.15, 0.0, 9.999957, 9.999683 
8.9499843e+2, 2.0495881e+2, -963182.7, -989862.06, -35985.895, -0.018158665, 0.10573526, -938143.56, -6732.088, 0.0, 9.999965, 9.99961 
8.950054e+2, 2.1495771e+2, -873042.44, -894167.6, -33092.47, 0.009357365, 0.03322671, -848867.75, -15445.216, 0.0, 9.999905, 9.999622 
8.950125e+2, 2.2495735e+2, -762831.0, -807849.0, -18512.475, 0.022166187, 0.04269623, -756196.06, -20769.375, 0.0, 10.000064, 9.999466 
8.9501965e+2, 2.3495774e+2, -608167.6, -681345.6, -19387.074, 0.01790984, 0.13113004, -603348.7, 34075.11, 0.0, 10.000448, 9.999476 
8.9502645e+2, 2.449572e+2, -519847.16, -636073.56, -47850.242, 0.020168569, 0.1522405, -502682.28, 36747.52, 0.0, 10.000589, 9.999046 
8.9503294e+2, 2.549557e+2, -436266.47, -543237.9, -48833.184, 0.030667327, 0.09570147, -417327.03, 24118.016, 0.0, 10.000483, 9.999062 
8.9503974e+2, 2.649546e+2, -331693.88, -454458.22, -17910.02, 0.0315434, 0.082823925, -329134.38, 14322.174, 0.0, 10.000582, 9.998951 
8.950468e+2, 2.749538e+2, -188768.05, -334187.25, -4300.543, 0.021904824, 0.110128686, -188640.98, 56823.31, 0.0, 10.000888, 9.998956 
8.950536e+2, 2.8495285e+2, -120249.79, -328521.1, -19908.56, 0.018111065, 0.15231647, -118363.81, 29110.668, 0.0, 10.00102, 9.998258 
8.9506036e+2, 2.9495162e+2, -31331.533, -235872.23, -32422.068, 0.020452004, 0.20053509, -26315.281, 23172.389, 0.0, 10.00096, 9.99825 
8.950674e+2, 3.049485e+2, 56307.65, -148303.75, -260.9788, 0.007187039, 0.05872243, 56307.98, 56307.98, 0.00000013409642, 10.001142, 9.99843 
8.950752e+2, 3.1494752e+2, 200726.13, 56679.676, 14956.252, 0.04333402, 0.10951906, 202262.64, 202262.64, 0.0000016978646, 10.001552, 9.9996395 
9.049383e+2, 1.2495177e+2, -1838057.5, -1712443.4, 7007.091, 0.029444063, 0.102396145, -1712053.6, 3428.5808, 0.0000010631732, 9.998888, 10.000554 
9.049459e+2, 1.3495168e+2, -1759507.8, -1673993.6, 7583.102, -0.05562977, 0.080782786, -1673326.4, -55843.457, 0.000000007369457, 9.998971, 10.000105 
9.049545e+2, 1.4495187e+2, -1630454.6, -1559684.5, -25739.295, 0.004632683, 0.08979385, -1551313.3, -31832.584, 0.0, 9.999179, 10.000114 
9.049616e+2, 1.5495208e+2, -1482680.8, -1437265.6, -23585.514, -0.036181193, 0.09651158, -1427233.1, -5755.3765, 0.0, 9.9995165, 10.00012 
9.049691e+2, 1.6495182e+2, -1397474.5, -1391351.3, -25091.578, -0.03851963, 0.080120824, -1369135.1, -45655.316, 0.0, 9.999627, 9.999707 
9.049772e+2, 1.7495112e+2, -1313722.1, -1298885.1, -25802.291, 0.012294253, 0.03793476, -1279456.0, -53969.41, 0.0, 9.999526, 9.999718 
9.049846e+2, 1.8495096e+2, -1210241.0, -1191782.1, -35807.938, 0.026776066, 0.047145646, -1164033.4, -36545.29, 0.0, 9.999535, 9.999776 
9.0499145e+2, 1.9495131e+2, -1094115.6, -1084216.8, -27469.086, 0.0003286948, 0.101904325, -1061254.8, -31770.537, 0.0, 9.999655, 9.9997835 
9.049985e+2, 2.0495094e+2, -975070.3, -1004415.25, -34007.94, -0.0053392076, 0.09956164, -952704.7, -21216.559, 0.0, 9.999922, 9.999531 
9.050056e+2, 2.1494983e+2, -815126.1, -875368.56, -43634.24, 0.010720654, 0.033014115, -792226.25, 41273.477, 0.0, 10.000342, 9.999541 
9.0501267e+2, 2.2494948e+2, -716528.7, -778021.4, -38535.69, 0.017766247, 0.045675755, -697976.56, 37527.133, 0.0, 10.000351, 9.999533 
9.0501976e+2, 2.3494992e+2, -677204.75, -707030.94, -32913.28, 0.014023719, 0.1335554, -655983.6, -18483.707, 0.0, 9.999943, 9.999543 
9.0502673e+2, 2.4494936e+2, -601132.4, -676968.7, -46129.137, 0.020188862, 0.14825253, -579337.2, -39831.0, 0.0, 10.000039, 9.99903 
9.0503365e+2, 2.5494772e+2, -413158.16, -534065.6, -46405.45, 0.03729894, 0.07992773, -397400.88, 44122.145, 0.0, 10.00065, 9.999043 
9.0504044e+2, 2.6494676e+2, -291438.75, -421401.94, -33014.883, 0.032492824, 0.07519822, -283532.84, 60000.582, 0.0, 10.0008, 9.999072 
9.050473e+2, 2.749464e+2, -239233.23, -344912.44, -37085.043, 0.0048413617, 0.13089852, -227518.03, 18019.291, 0.0, 10.000482, 9.999078 
9.0505433e+2, 2.8494546e+2, -169758.56, -344523.6, -33441.43, 0.0027784004, 0.16808292, -163578.1, -16031.116, 0.0, 10.000646, 9.998329 
9.050616e+2, 2.949439e+2, 21644.072, -201713.64, -15632.837, 0.027032042, 0.17762198, 22732.91, 72295.81, 0.0, 10.001289, 9.998326 
9.0506876e+2, 3.0494097e+2, 105304.48, -114768.88, 6291.326, 0.017217971, 0.04472553, 105484.18, 105484.18, 0.0000001316986, 10.001437, 9.998518 
9.050764e+2, 3.1494063e+2, 122214.51, 4011.1023, -14851.076, 0.0290108, 0.15654191, 124051.836, 124051.836, 0.0000016698094, 10.001074, 9.999509 
9.149376e+2, 1.2494301e+2, -1830368.6, -1701640.4, 9214.867, 0.07028461, 0.062184, -1700984.1, 14582.819, 0.0000026057617, 9.998908, 10.000619 
9.149446e+2, 1.3494371e+2, -1751469.6, -1656232.4, 10054.037, -0.08731175, 0.107208654, -1655182.5, -37621.906, 0.00000007607973, 9.998966, 10.00023 
9.1495323e+2, 1.4494391e+2, -1631949.9, -1561975.0, -12914.227, -0.03306224, 0.11286628, -1559667.8, -40109.363, 0.0, 9.999174, 10.000101 
9.1496146e+2, 1.5494354e+2, -1483152.0, -1438721.0, -10297.819, 0.0015839095, 0.0630265, -1436450.3, -14889.577, 0.0, 9.999519, 10.000109 
9.149691e+2, 1.6494349e+2, -1396515.1, -1391445.6, -30089.076, -0.0032604511, 0.06587165, -1363784.8, -40223.242, 0.0, 9.999635, 9.999704 
9.1497624e+2, 1.7494377e+2, -1313726.1, -1299202.5, -30020.172, -0.03118412, 0.12315284, -1275578.3, -50018.242, 0.0, 9.999526, 9.999716 
9.149837e+2, 1.8494359e+2, -1194537.1, -1158896.4, -32030.652, -0.017527405, 0.11866375, -1140062.5, -12501.126, 0.0, 9.999533, 10.000003 
9.1499144e+2, 1.9494286e+2, -1078521.9, -1051594.5, -23271.564, 0.033501323, 0.042179115, -1038172.6, -8606.467, 0.0, 9.999653, 10.000009 
9.149988e+2, 2.0494248e+2, -992355.7, -1039985.94, -19190.38, 0.04022302, 0.040707093, -985586.0, -54016.055, 0.0, 9.99992, 9.999289 
9.1500586e+2, 2.1494249e+2, -832262.1, -910613.75, -28288.547, 0.002820724, 0.11046096, -823116.25, 10456.451, 0.0, 10.00034, 9.9993 
9.150128e+2, 2.2494215e+2, -705487.7, -755491.8, -54753.215, -0.007846164, 0.12844668, -670298.25, 65278.492, 0.0, 10.000351, 9.999687 
9.1501963e+2, 2.3494145e+2, -665847.56, -683689.0, -48409.473, 0.009099327, 0.08671945, -625543.75, 12038.426, 0.0, 9.999943, 9.999704 
9.150268e+2, 2.4494071e+2, -600422.06, -675493.94, -23741.607, 0.023436796, 0.075762294, -593543.9, -53954.34, 0.0, 10.000039, 9.999041 
9.1503423e+2, 2.549399e+2, -413642.84, -534168.5, -23129.97, 0.03520491, 0.08926663, -409356.44, 32242.748, 0.0, 10.000647, 9.999045 
9.1504115e+2, 2.649392e+2, -299123.0, -437296.9, -44529.492, 0.01777408, 0.11466421, -286015.78, 57592.184, 0.0, 10.000798, 9.998964 
9.150474e+2, 2.7493846e+2, -246198.75, -360025.56, -48116.61, -0.029569637, 0.14732833, -228584.69, 17031.213, 0.0, 10.0004835, 9.998974 
9.1505474e+2, 2.849375e+2, -136836.14, -275143.8, -9663.457, -0.020141153, 0.16023095, -136164.22, 11461.345, 0.0, 10.000642, 9.998807 
9.15063e+2, 2.9493615e+2, 53731.1, -132201.89, 9043.908, 0.047702935, 0.14237437, 54169.965, 103807.54, 0.0, 10.001277, 9.998809 
9.1507035e+2, 3.0493367e+2, 80043.67, -166092.38, -6823.2603, 0.034552723, 0.045300454, 80232.67, 80232.67, 0.00000009563079, 10.0014305, 9.99817 
9.15077e+2, 3.1493384e+2, 84175.45, -76625.73, -26713.186, -0.017333282, 0.2434333, 88497.05, 88497.05, 0.0000014046396, 10.0010805, 9.998953 
9.2493665e+2, 1.24934494e+2, -1775427.3, -1683743.3, 5949.488, 0.061639316, 0.05536131, -1683358.9, 32290.742, 0.0000053561066, 9.999327, 10.000538 
9.249438e+2, 1.3493523e+2, -1714816.0, -1643915.9, -8298.96, -0.07859618, 0.10748587, -1642957.5, -25314.143, 0.00000033393198, 9.999241, 10.000182 
9.249525e+2, 1.4493537e+2, -1618709.1, -1555394.5, -25938.234, -0.027911957, 0.11038734, -1546125.4, -26483.574, 0.0, 9.999266, 10.000102 
9.2496085e+2, 1.5493497e+2, -1495698.1, -1443709.9, -23474.986, -0.009766052, 0.056913804, -1434678.8, -13034.105, 0.0, 9.999432, 10.000115 
9.2496854e+2, 1.64935e+2, -1403458.5, -1384681.1, -48893.1, -0.015776346, 0.06449453, -1344283.4, -20638.87, 0.0, 9.999548, 9.999791 
9.249758e+2, 1.7493552e+2, -1295010.8, -1280811.6, -42623.996, -0.029017895, 0.13527457, -1244700.0, -19058.918, 0.0, 9.999615, 9.9998 
9.249834e+2, 1.8493532e+2, -1160021.0, -1146012.6, -42278.113, -0.010853708, 0.128022, -1110162.4, 17480.172, 0.0, 9.999786, 9.9999695 
9.249913e+2, 1.9493437e+2, -1019538.94, -1026405.94, -54221.766, 0.031833626, 0.03338298, -968642.06, 61007.477, 0.0, 10.000074, 9.999978 
9.2499876e+2, 2.0493408e+2, -959043.6, -1005256.7, -49451.008, 0.03539197, 0.03396294, -927567.06, 4085.2656, 0.0, 10.00007, 9.999454 
9.2500585e+2, 2.149345e+2, -904697.94, -927188.2, -28285.592, 0.00065929315, 0.12632014, -885504.2, -51853.387, 0.0, 9.999764, 9.999464 
9.250129e+2, 2.2493415e+2, -785354.7, -804717.4, -48794.633, -0.006265951, 0.13929328, -745290.25, -9635.342, 0.0, 9.99985, 9.99959 
9.250199e+2, 2.34933e+2, -615041.7, -670105.44, -63225.355, 0.014918611, 0.06381613, -573613.8, 64051.063, 0.0, 10.0003395, 9.999606 
9.25027e+2, 2.449323e+2, -534534.9, -628939.44, -39899.78, 0.024636576, 0.05423675, -519930.6, 19741.447, 0.0, 10.000428, 9.999173 
9.2503446e+2, 2.5493202e+2, -481493.13, -551925.2, -30425.666, 0.022178594, 0.10644228, -470170.03, -28493.559, 0.0, 10.000115, 9.999179 
9.250415e+2, 2.649313e+2, -388012.3, -480758.47, -44996.68, 0.006404745, 0.13108298, -369769.88, -26085.266, 0.0, 10.000191, 9.998959 
9.2504805e+2, 2.749302e+2, -222012.77, -348589.94, -41782.52, -0.022674523, 0.12220512, -209464.52, 36232.03, 0.0, 10.000652, 9.998971 
9.250555e+2, 2.8492922e+2, -102936.44, -248712.6, -6212.411, -0.017575005, 0.13218403, -102672.164, 45034.0, 0.0, 10.000833, 9.998898 
9.2506385e+2, 2.9492834e+2, -19818.82, -157498.17, -17738.62, 0.023194041, 0.15138927, -17570.104, 32143.832, 0.0, 10.000728, 9.9989 
9.2507136e+2, 3.0492616e+2, 25298.832, -176569.86, -34103.25, 0.0138675505, 0.070868045, 30904.498, 30904.498, 0.00000004550982, 10.000985, 9.998312 
9.250784e+2, 3.1492615e+2, 157175.4, -45593.02, -18014.514, -0.010214586, 0.23781754, 158763.42, 158763.42, 0.0000009683944, 10.0016, 9.998916 
9.3493515e+2, 1.2492627e+2, -1793315.4, -1720077.5, 2578.8625, -0.014083614, 0.07799196, -1719986.8, -4256.9854, 0.000009830683, 9.999323, 10.00029 
9.349435e+2, 1.349263e+2, -1730755.9, -1678362.9, -11053.029, -0.030379418, 0.0838857, -1676126.5, -58396.26, 0.0000009955157, 9.9992485, 9.999942 
9.3495226e+2, 1.4492632e+2, -1615037.1, -1552058.5, -20966.916, 0.019782066, 0.08658384, -1545716.8, -25986.707, 0.00000000002439963, 9.999282, 10.000118 
9.3495965e+2, 1.549264e+2, -1494579.9, -1441384.5, -17410.14, -0.07255264, 0.079710945, -1436193.1, -14464.3545, 0.0, 9.99943, 10.0001335 
9.3496746e+2, 1.6492642e+2, -1391566.8, -1359160.1, -46680.594, -0.0797086, 0.07627302, -1325950.6, -2222.186, 0.0, 9.999544, 9.999968 
9.3497586e+2, 1.7492637e+2, -1283146.8, -1255812.5, -40063.387, 0.017045172, 0.07321271, -1227149.3, -1420.1135, 0.0, 9.999614, 9.999971 
9.349838e+2, 1.8492621e+2, -1181530.9, -1190700.5, -32246.352, 0.04459734, 0.075268686, -1153545.0, -25814.098, 0.0, 9.999785, 9.999663 
9.34991e+2, 1.949259e+2, -1040337.4, -1070142.3, -43784.47, -0.0046799327, 0.07581172, -1008988.75, 20745.285, 0.0, 10.000076, 9.999678 
9.349983e+2, 2.0492579e+2, -918569.4, -921938.0, -61970.414, -0.020116221, 0.0796469, -858260.4, 73474.56, 0.0, 10.000072, 10.000025 
9.350056e+2, 2.1492587e+2, -864747.3, -843857.06, -40332.355, 0.002036945, 0.08182442, -812639.25, 21094.305, 0.0, 9.999763, 10.000037 
9.35013e+2, 2.2492547e+2, -810406.2, -856432.25, -31526.24, 0.01949133, 0.07940057, -794387.2, -58649.453, 0.0, 9.999848, 9.999237 
9.350204e+2, 2.3492458e+2, -640735.56, -722916.1, -44963.563, 0.03097036, 0.06470597, -620915.0, 16832.66, 0.0, 10.000337, 9.999245 
9.350275e+2, 2.449241e+2, -516795.94, -592593.56, -51899.1, 0.023566753, 0.08338966, -490430.94, 49322.406, 0.0, 10.000429, 9.999422 
9.3503433e+2, 2.5492403e+2, -463091.28, -514403.38, -41770.824, -0.0036217284, 0.13093536, -439726.6, 2028.0824, 0.0, 10.000117, 9.999436 
9.3504155e+2, 2.6492321e+2, -381453.66, -466589.53, -27950.219, -0.004284819, 0.12465956, -373097.7, -29334.607, 0.0, 10.000189, 9.999057 
9.350492e+2, 2.749216e+2, -216240.73, -335438.78, -24111.096, 0.02330054, 0.05661462, -211548.33, 34230.637, 0.0, 10.000648, 9.9990635 
9.350566e+2, 2.8492072e+2, -123125.67, -290694.75, -9952.197, 0.009062307, 0.08439873, -122536.67, 25251.79, 0.0, 10.000831, 9.9986105 
9.3506384e+2, 2.9492053e+2, -39554.83, -199341.72, -20633.328, -0.04897196, 0.20388834, -36933.445, 12858.17, 0.0, 10.00073, 9.998613 
9.350717e+2, 3.0491847e+2, 66724.125, -88303.98, -11150.992, -0.047995083, 0.1212002, 67522.09, 67522.09, 0.000000010385675, 10.0009775, 9.998921 
9.350805e+2, 3.1491753e+2, 187505.86, 22110.412, 6295.9263, 0.04310546, 0.13471498, 187745.17, 187745.17, 0.00000050425, 10.001581, 9.999389 
9.449343e+2, 1.2491752e+2, -1811035.4, -1730061.4, -16914.934, -0.026003007, 0.08954927, -1726670.0, -10854.27, 0.000016700973, 9.999208, 10.000277 
9.449431e+2, 1.3491729e+2, -1657175.0, -1639775.1, -11795.711, -0.024445632, 0.06627979, -1633818.1, -16000.0205, 0.0000023433604, 9.999741, 9.999968 
9.4495183e+2, 1.4491731e+2, -1541209.6, -1510986.4, -25117.4, 0.02376729, 0.06568734, -1496785.1, 23032.537, 0.0000000053592455, 9.999768, 10.000164 
9.449589e+2, 1.5491769e+2, -1514981.1, -1445836.4, -20158.201, -0.081052184, 0.0844291, -1440388.8, -18575.086, 0.0, 9.999269, 10.000179 
9.4496685e+2, 1.6491774e+2, -1425523.8, -1366364.1, -33460.93, -0.08554509, 0.07751784, -1351283.0, -27470.008, 0.0, 9.999272, 10.000049 
9.4497573e+2, 1.7491744e+2, -1248885.8, -1229488.8, -34671.445, 0.026205696, 0.041377816, -1203184.9, 22630.463, 0.0, 9.999808, 10.000056 
9.449837e+2, 1.8491735e+2, -1158394.5, -1177561.6, -28691.809, 0.054976895, 0.044563472, -1137728.0, -9911.395, 0.0, 9.999938, 9.99968 
9.449909e+2, 1.9491743e+2, -1102248.5, -1098568.6, -16449.018, -0.006657445, 0.081523515, -1083857.0, -54040.234, 0.0, 9.999645, 9.99969 
9.449981e+2, 2.0491734e+2, -972587.75, -945053.5, -41012.79, -0.026276976, 0.08763781, -915558.8, 16258.654, 0.0, 9.999688, 10.000051 
9.4500554e+2, 2.1491711e+2, -816204.6, -817300.4, -61568.734, -0.0009152733, 0.056969654, -755181.3, 78637.5, 0.0, 10.000083, 10.000065 
9.45013e+2, 2.2491679e+2, -750567.9, -817869.06, -51693.887, 0.016904319, 0.05484191, -722536.9, 13285.446, 0.0, 10.000218, 9.999323 
9.450205e+2, 2.3491631e+2, -670136.4, -727732.7, -32223.432, 0.025927648, 0.07521133, -655717.8, -17889.62, 0.0, 10.000095, 9.999329 
9.450277e+2, 2.449159e+2, -565225.8, -623092.2, -42633.42, 0.020191956, 0.10027035, -542634.8, -2801.4731, 0.0, 10.000128, 9.999358 
9.450346e+2, 2.5491554e+2, -438743.94, -509761.34, -57633.605, -0.00075526076, 0.1235902, -406558.47, 35279.387, 0.0, 10.000317, 9.9993725 
9.4504195e+2, 2.6491463e+2, -343253.25, -446028.2, -46819.152, -0.0016422373, 0.11360878, -325123.06, 18723.93, 0.0, 10.000442, 9.999076 
9.450497e+2, 2.7491325e+2, -235054.78, -342190.56, -48959.4, 0.01879385, 0.06423209, -216051.73, 29809.174, 0.0, 10.000508, 9.999084 
9.450573e+2, 2.849124e+2, -153713.86, -297089.4, -33800.496, 0.0022539233, 0.09131119, -146145.03, 1724.7867, 0.0, 10.000586, 9.998685 
9.450644e+2, 2.949121e+2, -44369.918, -192972.16, -17959.568, -0.05288321, 0.19107904, -42230.195, 7643.5107, 0.0, 10.00066, 9.998691 
9.4507265e+2, 3.0491012e+2, 54226.67, -86978.48, 3877.8706, -0.050495025, 0.11134103, 54333.09, 54333.09, 0.00000000032400083, 10.000861, 9.998986 
9.450818e+2, 3.1490913e+2, 126149.07, -14504.132, -21665.914, 0.035330005, 0.108712494, 129410.805, 129410.805, 0.00000016973306, 10.00119, 9.999326 
9.5493394e+2, 1.24908336e+2, -1792286.5, -1696258.9, -374.65503, 0.011468957, 0.09210307, -1696257.5, 19649.127, 0.000026645826, 9.999228, 10.000501 
9.549424e+2, 1.3490824e+2, -1636921.6, -1597983.6, 8572.764, -0.06300938, 0.05516468, -1596179.8, 21726.205, 0.00000475329, 9.99974, 10.000257 
9.5495117e+2, 1.4490838e+2, -1536862.0, -1500924.6, -43658.883, -0.019282289, 0.046944503, -1471681.4, 48222.516, 0.000000046136613, 9.999764, 10.000235 
9.549586e+2, 1.549089e+2, -1510334.5, -1436078.3, -38712.676, -0.036249347, 0.070461005, -1419567.1, 2331.8198, 0.0, 9.999268, 10.000246 
9.549666e+2, 1.64909e+2, -1426265.4, -1368519.6, -13793.577, -0.035009023, 0.06902539, -1365394.0, -41496.38, 0.0, 9.999274, 10.000034 
9.5497525e+2, 1.7490879e+2, -1249274.3, -1231113.9, -14247.914, -0.0025266402, 0.040579855, -1223298.8, 2600.5303, 0.0, 9.999811, 10.000045 
9.549833e+2, 1.8490875e+2, -1134724.4, -1128959.0, -40223.117, 0.01845361, 0.036697924, -1091515.4, 36383.645, 0.0, 9.99994, 10.000011 
9.549908e+2, 1.9490893e+2, -1079340.0, -1050587.3, -27981.41, 0.024295837, 0.051386867, -1033505.06, -3607.9805, 0.0, 9.999643, 10.00002 
9.5499825e+2, 2.0490879e+2, -1009607.06, -1021400.1, -27383.08, 0.014926763, 0.058187064, -987492.9, -55593.44, 0.0, 9.999685, 9.999529 
9.550055e+2, 2.1490826e+2, -853188.7, -893826.56, -47240.035, -0.008840456, 0.051457193, -822083.1, 11822.999, 0.0, 10.000082, 9.99954 
9.550129e+2, 2.2490808e+2, -714000.44, -742209.25, -57310.855, -0.014449842, 0.06558751, -669083.94, 66824.48, 0.0, 10.000219, 9.999843 
9.550203e+2, 2.3490825e+2, -632862.25, -650500.3, -36971.492, -0.0017194176, 0.09521366, -603672.5, 34233.65, 0.0, 10.000095, 9.999859 
9.5502776e+2, 2.4490777e+2, -592048.94, -678678.75, -35915.887, 0.01271836, 0.104726434, -579095.5, -39183.77, 0.0, 10.000127, 9.998977 
9.550352e+2, 2.5490656e+2, -466466.9, -566829.7, -50260.4, 0.02916505, 0.08597471, -445625.22, -3699.6165, 0.0, 10.000314, 9.998981 
9.550425e+2, 2.649057e+2, -347056.34, -454303.34, -44321.625, 0.013075672, 0.09972574, -331110.56, 12825.278, 0.0, 10.0004425, 9.99902 
9.5504963e+2, 2.7490517e+2, -238238.73, -349523.6, -45837.508, -0.03735509, 0.14315121, -221789.86, 24152.297, 0.0, 10.00051, 9.999034 
9.5505744e+2, 2.8490433e+2, -124855.94, -235906.47, -30835.639, -0.039530907, 0.15061347, -116868.28, 31081.84, 0.0, 10.000581, 9.999107 
9.550657e+2, 2.9490307e+2, -15365.06, -130800.84, -14411.133, 0.0074816807, 0.11379553, -13593.156, 36366.773, 0.0, 10.000652, 9.999121 
9.5507395e+2, 3.0490118e+2, 20717.654, -155423.16, 16425.408, 0.003009442, 0.042414296, 22236.256, 22236.256, 0.0, 10.0008545, 9.998521 
9.550823e+2, 3.1490088e+2, 85525.64, -97641.5, -7100.99, -0.037346177, 0.15703684, 85800.516, 85800.516, 0.000000027453995, 10.001184, 9.998758 
9.649337e+2, 1.2489945e+2, -1680006.4, -1642613.3, 16630.322, 0.030256879, 0.094463706, -1636287.3, 79705.97, 0.000040247374, 10.000004, 10.000492 
9.6494174e+2, 1.3489929e+2, -1715568.6, -1632355.3, 8824.56, -0.07534285, 0.04795155, -1631429.8, -13436.59, 0.0000086557575, 9.999187, 10.000285 
9.649505e+2, 1.4489943e+2, -1622158.3, -1535505.1, -42461.336, -0.03344951, 0.03566426, -1518167.5, 1823.5488, 0.00000019058375, 9.999152, 10.000291 
9.649585e+2, 1.5490003e+2, -1413332.3, -1382480.9, -40074.973, -0.010042596, 0.062058233, -1354965.3, 67020.0, 0.0, 9.999906, 10.000305 
9.6496654e+2, 1.6490023e+2, -1316857.9, -1315293.6, -19006.852, -0.007309103, 0.06551652, -1297052.9, 26930.205, 0.0, 10.000024, 10.000037 
9.6497476e+2, 1.7490007e+2, -1296394.4, -1253024.5, -18208.186, -0.015986716, 0.0440114, -1246393.8, -20409.771, 0.0, 9.999485, 10.0000515 
9.649828e+2, 1.8490003e+2, -1205364.1, -1157721.1, -50650.785, -0.0027114903, 0.034671094, -1125569.8, 2414.3477, 0.0, 9.999433, 10.000058 
9.649906e+2, 1.9490007e+2, -1039698.0, -1025779.0, -60425.96, 0.029998424, 0.031287573, -971913.06, 58070.223, 0.0, 9.999892, 10.00007 
9.649982e+2, 2.0489997e+2, -962523.9, -1000914.4, -50750.855, 0.026214072, 0.04219093, -927459.5, 4525.6426, 0.0, 10.00002, 9.999507 
9.6500546e+2, 2.1489969e+2, -895553.0, -916897.06, -33125.805, -0.014527937, 0.061786436, -871422.56, -37432.816, 0.0, 9.999803, 9.9995165 
9.650128e+2, 2.248995e+2, -779024.1, -779228.6, -46551.004, -0.026053818, 0.079106286, -732575.25, 3417.1074, 0.0, 9.999797, 9.999792 
9.650203e+2, 2.3489942e+2, -648741.2, -663575.3, -71015.98, -0.007997718, 0.08737702, -584756.0, 53236.95, 0.0, 10.00001, 9.99981 
9.6502787e+2, 2.4489887e+2, -577811.4, -668831.3, -71448.34, 0.01073712, 0.09253593, -538609.94, 1389.2206, 0.0, 10.000213, 9.999002 
9.6503556e+2, 2.5489783e+2, -450743.44, -556039.5, -54970.203, 0.030590747, 0.08840831, -427276.2, 14735.011, 0.0, 10.00041, 9.999009 
9.6504295e+2, 2.6489708e+2, -342736.75, -453582.2, -38434.56, 0.011378498, 0.10931276, -330714.0, 13306.713, 0.0, 10.00048, 9.999006 
9.6505e+2, 2.748965e+2, -254110.67, -358729.7, -37787.188, -0.048966195, 0.15153028, -241889.9, 4137.6406, 0.0, 10.000408, 9.99902 
9.6505785e+2, 2.8489563e+2, -130798.06, -232449.73, -27937.574, -0.045379046, 0.15417002, -123625.85, 24410.041, 0.0, 10.000513, 9.999164 
9.650667e+2, 2.9489434e+2, 10384.071, -112191.8, -40517.44, 0.024704497, 0.10896257, 22566.363, 72612.266, 0.0, 10.000803, 9.999176 
9.65075e+2, 3.048927e+2, 33429.566, -143436.06, -6278.5645, 0.01598125, 0.054558147, 33652.168, 33652.168, 0.0, 10.000917, 9.998572 
9.6508306e+2, 3.1489256e+2, 35375.63, -123045.37, 9017.489, -0.06172727, 0.1836233, 35887.26, 35887.26, 0.00000000015790982, 10.000846, 9.998747 
9.7493356e+2, 1.2489088e+2, -1697048.6, -1677767.0, -17467.52, 0.013308023, 0.090116836, -1667456.4, 48619.176, 0.000057975532, 10.000003, 10.000252 
9.74941e+2, 1.348905e+2, -1731970.4, -1666808.5, -20931.154, -0.06369806, 0.04468572, -1660664.4, -42585.484, 0.000014441633, 9.999188, 10.000048 
9.749498e+2, 1.4489053e+2, -1619954.6, -1530906.6, -14072.604, -0.021914275, 0.032705735, -1528735.6, -8657.315, 0.0000005546723, 9.999151, 10.000323 
9.749584e+2, 1.5489118e+2, -1410381.9, -1376997.5, -11064.261, -0.0038185767, 0.059881743, -1373663.5, 48408.36, 0.0, 9.9999075, 10.000343 
9.749666e+2, 1.6489145e+2, -1314915.1, -1312043.6, -39472.25, -0.004311406, 0.06767636, -1273981.0, 50087.816, 0.0, 10.000027, 10.000058 
9.749742e+2, 1.7489137e+2, -1295181.8, -1250259.8, -38806.957, -0.0152804265, 0.05211582, -1227882.4, -1813.2438, 0.0, 9.999483, 10.000072 
9.7498214e+2, 1.8489118e+2, -1222362.8, -1192274.0, -34451.086, -0.010419729, 0.038140513, -1169725.6, -41654.48, 0.0, 9.999429, 9.999824 
9.749903e+2, 1.9489086e+2, -1055983.4, -1060113.4, -43450.27, 0.009210399, 0.020529607, -1014549.06, 15525.873, 0.0, 9.999894, 9.999833 
9.74998e+2, 2.0489094e+2, -928854.5, -931703.94, -59911.53, 0.0061946376, 0.039250955, -870350.75, 61723.586, 0.0, 10.000022, 9.999982 
9.750052e+2, 2.1489145e+2, -861837.56, -846689.8, -41913.684, -0.019498698, 0.088863105, -811671.2, 22398.02, 0.0, 9.999801, 9.999999 
9.7501266e+2, 2.248911e+2, -823069.8, -870202.25, -39685.96, -0.01959145, 0.09575905, -800480.4, -64406.668, 0.0, 9.999794, 9.999168 
9.750205e+2, 2.3488985e+2, -693544.4, -756101.94, -63121.453, 0.0063526467, 0.052732155, -654376.8, -16288.654, 0.0, 10.000008, 9.999176 
9.7502816e+2, 2.4488927e+2, -547862.6, -606607.94, -64488.6, 0.013590695, 0.06536449, -506372.5, 33722.69, 0.0, 10.000212, 9.999431 
9.750357e+2, 2.5488937e+2, -419615.2, -491649.88, -47323.15, 0.0019190047, 0.12907712, -396162.13, 45932.39, 0.0, 10.00041, 9.999452 
9.7504324e+2, 2.648887e+2, -341389.22, -450295.75, -40788.613, -0.00827237, 0.13982522, -327806.7, 16294.885, 0.0, 10.000477, 9.99903 
9.7505075e+2, 2.7488726e+2, -253067.17, -355972.88, -39619.676, -0.018308047, 0.09022965, -239580.7, 6536.018, 0.0, 10.000405, 9.99904 
9.750587e+2, 2.8488636e+2, -153091.9, -278148.6, -16793.404, -0.017819779, 0.10432443, -150876.03, -2749.4236, 0.0, 10.000509, 9.998852 
9.7506714e+2, 2.9488596e+2, -11968.359, -158027.6, -28537.02, -0.003831844, 0.17700331, -6590.793, 43540.434, 0.0, 10.0008, 9.998863 
9.750756e+2, 3.0488464e+2, 70387.66, -64775.004, -8787.626, -0.013953376, 0.14685021, 70956.59, 70956.59, 0.0, 10.000908, 9.999118 
9.7508407e+2, 3.1488407e+2, 70002.72, -47468.84, 8152.096, -0.044019565, 0.17715026, 70565.75, 70565.75, 0.0, 10.00083, 9.999273 
9.8493314e+2, 1.2488199e+2, -1780039.4, -1727433.8, -30446.3, 0.0013838239, 0.059350315, -1713502.0, 2658.9517, 0.00008015815, 9.999474, 10.000166 
9.8494077e+2, 1.348819e+2, -1630995.1, -1625565.0, -18038.596, -0.043445423, 0.048827786, -1610038.3, 8124.215, 0.000022452736, 9.999913, 9.999982 
9.8494947e+2, 1.4488193e+2, -1513788.1, -1489477.6, 3599.2847, -0.0056362436, 0.0441542, -1488955.9, 31206.445, 0.0000013019285, 9.999921, 10.000237 
9.84958e+2, 1.5488228e+2, -1486090.5, -1422273.9, -2712.155, -0.0125231845, 0.050521646, -1422158.8, -0.11593839, 0.0, 9.999427, 10.000263 
9.8496616e+2, 1.648825e+2, -1397894.4, -1351136.0, -39609.67, -0.017697185, 0.055362664, -1328520.5, -4363.9946, 0.0, 9.9994545, 10.000066 
9.84974e+2, 1.7488256e+2, -1213732.9, -1210102.6, -40816.76, -0.012771319, 0.054540645, -1171060.6, 55095.242, 0.0, 10.000039, 10.000079 
9.8498195e+2, 1.8488245e+2, -1118986.6, -1148122.9, -27919.277, -0.0074531836, 0.050959744, -1102063.3, 26094.117, 0.0, 10.000163, 9.999773 
9.8499e+2, 1.9488214e+2, -1072904.5, -1073998.1, -23156.004, -0.0048808735, 0.03918819, -1050288.9, -20127.967, 0.0, 9.999802, 9.9997835 
9.849977e+2, 2.0488214e+2, -979769.56, -953210.44, -52856.344, -0.006518286, 0.051171582, -911991.0, 20169.842, 0.0, 9.99966, 10.000009 
9.85005e+2, 2.1488248e+2, -866724.56, -845710.25, -69868.61, -0.012004009, 0.08007317, -785563.1, 48594.05, 0.0, 9.999754, 10.000029 
9.8501265e+2, 2.2488207e+2, -813220.25, -872446.25, -53781.418, -0.0065446254, 0.08396982, -781438.06, -45276.02, 0.0, 9.999893, 9.9991045 
9.850206e+2, 2.3488092e+2, -687481.4, -760675.8, -35227.25, 0.0099247, 0.05739272, -673281.75, -35106.16, 0.0, 10.000083, 9.999108 
9.850283e+2, 2.4488033e+2, -549976.3, -609851.6, -33978.836, 0.0077594123, 0.074737966, -534627.94, 5554.813, 0.0, 10.000208, 9.99941 
9.8503584e+2, 2.5488034e+2, -442765.97, -505371.2, -52664.85, -0.014616678, 0.12967178, -412803.25, 29380.186, 0.0, 10.000262, 9.999429 
9.8504347e+2, 2.6487967e+2, -362468.8, -451154.2, -67641.11, -0.019714994, 0.13717447, -325931.38, 18259.117, 0.0, 10.000293, 9.999113 
9.8505116e+2, 2.7487835e+2, -262575.7, -350648.28, -63028.285, -0.007185275, 0.09097113, -229724.02, 16480.043, 0.0, 10.000299, 9.999126 
9.8505914e+2, 2.8487748e+2, -181677.45, -302720.13, -20958.898, -0.012204636, 0.10833114, -178151.1, -29937.205, 0.0, 10.0003605, 9.998754 
9.850675e+2, 2.9487702e+2, -67201.61, -195761.56, -16430.826, -0.033323456, 0.18454961, -65134.863, -14914.839, 0.0, 10.000469, 9.998763 
9.850761e+2, 3.0487588e+2, 35648.12, -53007.22, -6419.137, -0.036584437, 0.16781037, 36110.49, 36110.49, 0.0, 10.000548, 9.999371 
9.85085e+2, 3.1487554e+2, 51246.297, -31838.826, -14134.223, -0.017318906, 0.19520892, 53584.945, 53584.945, 0.0, 10.000593, 9.9994955 
9.949325e+2, 1.2487281e+2, -1776688.5, -1719508.4, -19890.361, -0.018712193, -0.0018900831, -1713270.1, 2979.2747, 0.00010704937, 9.99947, 10.000223 
9.94941e+2, 1.3487355e+2, -1624122.3, -1612023.3, 3.596768, -0.015181149, 0.060926575, -1612023.3, 6220.1533, 0.000032992957, 9.999916, 10.000074 
9.949496e+2, 1.4487368e+2, -1527308.0, -1518338.3, -14582.459, 0.013857566, 0.071219206, -1507566.6, 12676.067, 0.0000026281716, 9.999924, 10.000038 
9.949572e+2, 1.5487339e+2, -1500197.3, -1451069.4, -21172.822, -0.038592957, 0.033026196, -1443203.8, -20958.625, 0.00000000019976186, 9.999424, 10.000067 
9.949653e+2, 1.6487336e+2, -1399438.5, -1353222.9, -18462.977, -0.049992166, 0.026925674, -1346752.8, -22507.082, 0.0, 9.999449, 10.000054 
9.949741e+2, 1.7487371e+2, -1213788.3, -1211219.9, -18663.963, -0.010237459, 0.050950527, -1193795.9, 32447.78, 0.0, 10.000043, 10.00007 
9.9498224e+2, 1.8487391e+2, -1109148.6, -1128703.3, -41999.145, 0.0036505172, 0.073712975, -1075803.8, 52438.285, 0.0, 10.000167, 9.999905 
9.9498975e+2, 1.9487399e+2, -1063359.0, -1054195.6, -37442.766, -0.013000836, 0.0886103, -1021055.25, 9185.352, 0.0, 9.999801, 9.99992 
9.949973e+2, 2.0487362e+2, -1009618.4, -1014635.7, -50759.902, -0.012806368, 0.078286715, -961305.2, -29060.934, 0.0, 9.999657, 9.999589 
9.9500495e+2, 2.1487282e+2, -896746.3, -907837.25, -66996.72, 0.00680956, 0.035120178, -835065.94, -812.6981, 0.0, 9.999753, 9.999602 
9.950127e+2, 2.2487248e+2, -778970.1, -801438.8, -47867.793, 0.011718011, 0.04358157, -741036.0, -4779.0854, 0.0, 9.999893, 9.999592 
9.9502057e+2, 2.3487268e+2, -652257.3, -687587.2, -28314.047, 0.0011737805, 0.10023357, -636549.6, 1705.4047, 0.0, 10.000082, 9.99961 
9.950283e+2, 2.4487214e+2, -583430.3, -678893.56, -32090.64, -0.008836163, 0.11920914, -573645.7, -33384.047, 0.0, 10.000206, 9.998937 
9.9503607e+2, 2.5487083e+2, -476740.4, -575916.5, -49928.938, -0.019658599, 0.091298416, -455958.9, -13681.425, 0.0, 10.000261, 9.998944 
9.9504375e+2, 2.6487002e+2, -353639.28, -433079.28, -67122.78, -0.02350987, 0.10428666, -315364.75, 28922.027, 0.0, 10.000293, 9.999237 
9.950513e+2, 2.7486977e+2, -253146.06, -331230.13, -62215.996, -0.018611832, 0.15413484, -218736.67, 27552.602, 0.0, 10.000299, 9.99926 
9.950593e+2, 2.8486896e+2, -173536.69, -285237.72, -16596.217, -0.031787325, 0.16474015, -171123.03, -22825.297, 0.0, 10.000358, 9.998876 
9.9506766e+2, 2.9486752e+2, -58615.938, -177200.75, -10770.827, -0.065085694, 0.13006078, -57645.582, -7333.386, 0.0, 10.000466, 9.998892 
9.950765e+2, 3.048665e+2, 31470.059, -60821.62, -3491.6084, -0.05369364, 0.11684396, 31601.965, 31601.965, 0.0, 10.000545, 9.999319 
9.9508595e+2, 3.14867e+2, 43844.766, -44654.69, -9844.116, 0.011831229, 0.23659424, 44926.54, 44926.54, 0.0, 10.000583, 9.999413 
1.00493185e+3, 1.24864e+2, -1762375.6, -1715399.9, -27891.938, -0.030714588, -0.010420981, -1702423.5, 13911.73, 0.0001389771, 9.9995775, 10.000201 
1.0049408e+3, 1.3486473e+2, -1669681.4, -1633494.0, -7759.5166, -0.010864073, 0.051467672, -1631900.3, -13570.871, 0.000046326506, 9.9996, 10.00008 
1.00494936e+3, 1.448649e+2, -1558359.6, -1527435.6, -30752.813, 0.014160569, 0.062767394, -1508476.6, 11851.614, 0.00000474816, 9.999686, 10.00009 
1.0049567e+3, 1.5486464e+2, -1440562.5, -1416976.0, -21035.537, -0.044020396, 0.023695597, -1404653.4, 17676.701, 0.000000004412824, 9.999808, 10.000116 
1.0049649e+3, 1.6486466e+2, -1353419.0, -1345466.1, 3881.169, -0.05240337, 0.023835713, -1343886.0, -19555.293, 0.0, 9.999825, 9.9999275 
1.004974e+3, 1.74865e+2, -1268540.9, -1251605.8, -5256.288, -0.0033596964, 0.0629471, -1250107.0, -23777.592, 0.0, 9.999726, 9.999946 
1.0049822e+3, 1.8486519e+2, -1171635.5, -1150401.5, -49497.01, 0.012979402, 0.085936725, -1110395.6, 17932.418, 0.0, 9.9997015, 9.999979 
1.0049896e+3, 1.9486518e+2, -1063289.4, -1045430.56, -50017.098, -0.007651071, 0.08450741, -1003552.06, 26774.6, 0.0, 9.999764, 9.999997 
1.00499704e+3, 2.0486474e+2, -988821.0, -1025388.0, -44996.945, -0.010527855, 0.070645176, -958534.8, -26203.688, 0.0, 9.99989, 9.999401 
1.0050049e+3, 2.1486385e+2, -862024.9, -912772.6, -43830.56, 0.006312152, 0.03885716, -836753.44, -2411.7104, 0.0, 10.000084, 9.999409 
1.0050127e+3, 2.248635e+2, -732342.8, -767925.7, -32363.275, 0.009631793, 0.049972016, -713203.0, 23142.543, 0.0, 10.000167, 9.99969 
1.0050207e+3, 2.348637e+2, -637791.44, -669297.4, -44276.89, -0.0023250752, 0.09754735, -606548.7, 31793.895, 0.0, 10.000133, 9.99971 
1.0050285e+3, 2.4486312e+2, -604010.9, -699175.56, -51417.273, -0.009905321, 0.11297859, -581537.4, -41188.02, 0.0, 10.00011, 9.998843 
1.0050363e+3, 2.5486174e+2, -507155.88, -600749.06, -41176.293, -0.01348137, 0.08996574, -491619.4, -49253.082, 0.0, 10.000099, 9.998851 
1.005044e+3, 2.6486096e+2, -362894.0, -448344.06, -45375.88, -0.022044314, 0.111543536, -343294.1, 1082.1412, 0.0, 10.000278, 9.999138 
1.00505166e+3, 2.7486074e+2, -209508.53, -321462.56, -57858.844, -0.035530694, 0.17267624, -184980.44, 61398.457, 0.0, 10.0006485, 9.999158 
1.0050597e+3, 2.8485984e+2, -122461.6, -248248.05, -33150.402, -0.047348592, 0.1760337, -114259.77, 34127.938, 0.0, 10.000656, 9.998985 
1.00506805e+3, 2.9485825e+2, -77552.99, -173385.78, -31171.514, -0.05783869, 0.11454143, -68306.08, -17903.395, 0.0, 10.00028, 9.999007 
1.005077e+3, 3.0485716e+2, -13953.263, -101177.18, -14597.403, -0.04459577, 0.10237079, -11575.1455, -11575.1455, 0.0, 10.000312, 9.999154 
1.00508645e+3, 3.1485763e+2, 57604.21, -58254.496, -28467.824, -0.0006610206, 0.23119837, 64221.17, 64221.17, 0.0, 10.000767, 9.999229 
1.0149312e+3, 1.24855556e+2, -1768357.5, -1726249.1, -33044.113, -0.05447836, 0.030763758, -1708121.8, 8296.857, 0.00017643356, 9.999572, 10.000129 
1.01494014e+3, 1.3485548e+2, -1674729.3, -1642401.9, -5857.17, -0.034297805, 0.018966498, -1641373.4, -22953.215, 0.00006271102, 9.999594, 10.000021 
1.01494886e+3, 1.4485563e+2, -1538352.5, -1485797.9, -26148.537, -0.0073732734, 0.016782047, -1475004.4, 45414.246, 0.000007860604, 9.999684, 10.000378 
1.0149567e+3, 1.5485613e+2, -1419605.6, -1374576.0, -16098.228, -0.030685931, 0.023289973, -1369412.9, 52999.92, 0.000000028517778, 9.999812, 10.000406 
1.014965e+3, 1.6485642e+2, -1370011.6, -1380819.8, -359.76602, -0.027683979, 0.048625004, -1369999.8, -45588.855, 0.0, 9.999828, 9.999682 
1.0149738e+3, 1.7485656e+2, -1285994.6, -1287344.8, -9237.706, 0.0069168, 0.0906511, -1277407.4, -50994.887, 0.0, 9.999724, 9.999701 
1.014982e+3, 1.8485634e+2, -1170954.9, -1148486.4, -48279.95, 0.019911716, 0.0865762, -1110150.9, 18264.182, 0.0, 9.999699, 9.999994 
1.0149895e+3, 1.9485578e+2, -1061688.3, -1042514.8, -48168.86, 0.009312933, 0.025927931, -1002988.0, 27430.725, 0.0, 9.999765, 10.000017 
1.0149971e+3, 2.0485552e+2, -985733.44, -1019159.94, -38915.81, -0.0023061493, 0.027870132, -960093.75, -27672.627, 0.0, 9.99989, 9.999444 
1.0150047e+3, 2.1485563e+2, -859145.9, -906490.2, -37082.242, -0.014687849, 0.09148378, -838824.1, -4402.0776, 0.0, 10.000083, 9.999453 
1.0150126e+3, 2.2485515e+2, -753847.3, -811927.4, -34540.348, -0.014467284, 0.10312978, -737761.3, -1333.9199, 0.0, 10.000164, 9.99939 
1.01502076e+3, 2.3485403e+2, -658875.75, -713387.6, -45598.918, -0.0008396903, 0.050306994, -633007.8, 5429.9575, 0.0, 10.0001335, 9.999408 
1.0150287e+3, 2.4485338e+2, -584655.5, -659441.25, -52360.676, 0.0040089814, 0.058141507, -557706.56, -17261.236, 0.0, 10.000112, 9.999116 
1.01503655e+3, 2.548532e+2, -487511.53, -559828.06, -41422.973, 0.0008446729, 0.1250655, -468685.4, -26235.57, 0.0, 10.000097, 9.999133 
1.0150443e+3, 2.6485246e+2, -385148.75, -493595.38, -31307.26, -0.018970532, 0.15675473, -376759.66, -32300.814, 0.0, 10.000274, 9.99883 
1.01505205e+3, 2.7485123e+2, -231447.7, -366989.5, -42383.56, -0.058764074, 0.14536558, -219285.75, 27186.84, 0.0, 10.000648, 9.998846 
1.0150602e+3, 2.8485012e+2, -117665.27, -238861.94, -45872.82, -0.059832543, 0.1425884, -102260.49, 46222.848, 0.0, 10.000657, 9.99905 
1.0150688e+3, 2.9484922e+2, -73628.42, -164339.92, -44111.28, -0.016991282, 0.1416003, -55715.305, -5224.28, 0.0, 10.000276, 9.999072 
1.0150776e+3, 3.0484805e+2, -33476.137, -139834.69, 2561.514, -0.01465885, 0.12808818, -33414.48, -33414.48, 0.0, 10.000303, 9.998893 
1.0150867e+3, 3.148474e+2, 37537.96, -97478.49, -8494.67, -0.05832358, 0.17289388, 38070.313, 38070.313, 0.0, 10.000756, 9.998964 
1.024931e+3, 1.2484694e+2, -1762140.0, -1705185.4, -39804.195, -0.031242147, 0.0602975, -1684720.5, 31783.686, 0.00021988727, 9.999539, 10.000288 
1.0249396e+3, 1.3484672e+2, -1684251.5, -1628237.5, 7945.967, -0.043559827, 0.015093518, -1627132.1, -8626.132, 0.000082442966, 9.999447, 10.00019 
1.0249482e+3, 1.4484681e+2, -1570961.8, -1514210.0, -10631.055, -0.024947697, 0.0068471134, -1512283.9, 8220.613, 0.000012107546, 9.999514, 10.000265 
1.0249566e+3, 1.5484741e+2, -1444278.9, -1399105.0, -32063.375, -0.007461184, 0.034253336, -1382471.6, 40027.13, 0.00000009714164, 9.999698, 10.000293 
1.0249651e+3, 1.648477e+2, -1372658.9, -1370585.1, -26646.65, -0.00011694462, 0.059960157, -1344955.1, -20458.375, 0.0, 9.999763, 9.999784 
1.02497354e+3, 1.748477e+2, -1280451.4, -1273560.1, -10103.937, 0.00058835064, 0.07959388, -1266330.5, -39831.867, 0.0, 9.999714, 9.999801 
1.02498166e+3, 1.8484743e+2, -1164515.8, -1160453.9, -31760.102, 0.005997537, 0.07047081, -1130659.9, -2158.1934, 0.0, 9.999808, 9.99986 
1.0249895e+3, 1.9484687e+2, -1027708.7, -1041421.0, -43868.54, 0.014447575, 0.024454284, -990163.75, 40342.35, 0.0, 10.000065, 9.99988 
1.02499716e+3, 2.0484664e+2, -949527.4, -996140.9, -45678.906, 0.0059597134, 0.03371804, -921552.9, 10955.531, 0.0, 10.000115, 9.999494 
1.0250046e+3, 2.1484677e+2, -874633.06, -908075.3, -43960.813, -0.021029651, 0.09552526, -844320.7, -9812.349, 0.0, 9.999951, 9.999504 
1.0250126e+3, 2.2484623e+2, -798233.2, -850744.1, -33797.07, -0.023139067, 0.10337328, -781691.56, -45176.965, 0.0, 9.999935, 9.999232 
1.02502085e+3, 2.3484492e+2, -678415.06, -740440.7, -34719.637, 0.0013464753, 0.047595236, -662874.2, -24346.648, 0.0, 10.000078, 9.999248 
1.0250289e+3, 2.4484423e+2, -563561.7, -644428.4, -43483.273, 0.009455484, 0.058910348, -544617.8, -4082.3848, 0.0, 10.0002365, 9.999157 
1.0250367e+3, 2.5484416e+2, -439618.13, -532211.4, -51277.75, 0.00018699278, 0.13394189, -416829.4, 25708.766, 0.0, 10.000406, 9.999173 
1.0250447e+3, 2.648434e+2, -371670.66, -484702.56, -39345.434, -0.01811062, 0.15871684, -359323.6, -14776.384, 0.0, 10.000356, 9.998851 
1.0250525e+3, 2.7484196e+2, -314371.2, -403752.7, -27314.639, -0.04746733, 0.12508254, -306684.9, -60122.207, 0.0, 10.000066, 9.998872 
1.02506064e+3, 2.8484088e+2, -198692.31, -298010.8, -25349.71, -0.048820075, 0.12902914, -192596.3, -44022.49, 0.0, 10.000189, 9.998868 
1.0250692e+3, 2.9484013e+2, -16974.813, -157951.42, -41621.484, -0.017764881, 0.16483127, -5603.7935, 44976.7, 0.0, 10.000756, 9.998883 
1.02507815e+3, 3.0483887e+2, 38741.91, -95485.28, 3118.6763, -0.016234642, 0.14853188, 38814.332, 38814.332, 0.0, 10.000759, 9.998977 
1.0250872e+3, 3.148377e+2, -47759.42, -130487.48, 14626.454, -0.050510578, 0.13124335, -45249.586, -45249.586, 0.0, 10.0001335, 9.999039 
1.0349312e+3, 1.24838196e+2, -1737772.6, -1653777.1, -49210.434, 0.026101446, 0.07523851, -1631079.6, 85511.92, 0.00026982953, 9.999535, 10.000643 
1.034939e+3, 1.3483848e+2, -1657544.6, -1572308.4, 5373.4927, -0.04086443, 0.041584138, -1571971.0, 46615.21, 0.00010582585, 9.999445, 10.000575 
1.0349476e+3, 1.4483854e+2, -1607365.4, -1589272.8, -3711.671, -0.04192034, 0.036106557, -1588541.0, -67955.9, 0.000017580334, 9.999512, 9.999751 
1.03495665e+3, 1.5483855e+2, -1481257.9, -1474849.1, -24846.29, 0.024588015, 0.0562469, -1453001.4, -30414.033, 0.00000023822265, 9.999694, 9.999775 
1.0349651e+3, 1.6483854e+2, -1341430.9, -1306558.4, -29363.31, 0.030071765, 0.056281928, -1289844.5, 34743.652, 0.0, 9.9997635, 10.000223 
1.0349729e+3, 1.7483853e+2, -1248515.5, -1207724.1, -12172.472, -0.025058042, 0.029375529, -1204368.0, 22219.275, 0.0, 9.999715, 10.000253 
1.0349811e+3, 1.8483853e+2, -1185054.4, -1203089.4, -23184.482, -0.03309492, 0.03887349, -1169195.5, -40608.242, 0.0, 9.999807, 9.999567 
1.0349895e+3, 1.9483855e+2, -1049045.0, -1085358.1, -34777.535, 0.007372898, 0.08107176, -1027969.75, 2618.5283, 0.0, 10.000063, 9.999578 
1.0349973e+3, 2.0483817e+2, -946251.3, -989090.44, -52909.855, 0.014336899, 0.08861245, -910589.75, 22002.674, 0.0, 10.0001135, 9.999543 
1.0350048e+3, 2.1483737e+2, -870554.75, -899749.4, -50790.3, -0.013869256, 0.050595198, -832305.75, 2294.4746, 0.0, 9.999951, 9.999561 
1.0350126e+3, 2.2483677e+2, -799175.25, -852995.1, -29754.049, -0.018374648, 0.051147018, -785967.25, -49360.63, 0.0, 9.999935, 9.999217 
1.035021e+3, 2.3483637e+2, -679747.4, -743250.2, -29460.21, 0.0027858033, 0.088451765, -668185.3, -29573.863, 0.0, 10.000076, 9.999229 
1.03502914e+3, 2.448357e+2, -577263.2, -671985.75, -37254.316, 0.004023783, 0.113186516, -564366.9, -23747.459, 0.0, 10.000233, 9.99897 
1.035037e+3, 2.5483474e+2, -452646.4, -559708.9, -44080.516, -0.016227579, 0.11645326, -436832.97, 5797.852, 0.0, 10.000408, 9.998984 
1.035045e+3, 2.6483384e+2, -348737.63, -437822.8, -49559.15, -0.019919088, 0.11939787, -326645.75, 17994.934, 0.0, 10.000358, 9.999172 
1.035053e+3, 2.74833e+2, -291712.94, -356114.66, -37693.15, -0.005055901, 0.114896886, -274338.9, -27690.059, 0.0, 10.000062, 9.999202 
1.03506126e+3, 2.8483206e+2, -227766.8, -356345.28, -4362.051, -0.018127643, 0.13640285, -227618.97, -78960.0, 0.0, 10.00018, 9.998471 
1.0350696e+3, 2.94831e+2, -45348.97, -216134.7, -18075.08, -0.06154162, 0.18072279, -43456.953, 7214.0024, 0.0, 10.000752, 9.998486 
1.0350785e+3, 3.048297e+2, 66243.695, -39175.598, -17682.848, -0.050606612, 0.15997665, 69130.72, 69130.72, 0.0, 10.000761, 9.999364 
1.035088e+3, 3.1482857e+2, -21509.05, -75607.484, -6542.2046, 0.016692711, 0.10785965, -20729.135, -20729.135, 0.0, 10.000131, 9.999417 
1.0449305e+3, 1.248292e+2, -1792419.4, -1689608.1, -41125.2, 0.036350176, 0.059406396, -1675182.0, 41497.125, 0.00032683904, 9.9992, 10.000558 
1.04493886e+3, 1.3482964e+2, -1624728.3, -1563520.8, -14562.824, -0.012967389, 0.048762616, -1560232.5, 58440.504, 0.00013321284, 9.999699, 10.000513 
1.04494736e+3, 1.4482976e+2, -1554743.1, -1560900.4, -27776.594, -0.025926875, 0.05001851, -1529875.0, -9203.388, 0.000024406861, 9.999862, 9.999776 
1.0449563e+3, 1.5482964e+2, -1488528.4, -1475931.9, -9916.152, 0.020500075, 0.055224717, -1470482.9, -47808.16, 0.0000004785213, 9.999632, 9.999798 
1.0449647e+3, 1.6482952e+2, -1362545.6, -1322851.8, -5892.538, 0.02415641, 0.048139576, -1321995.5, 2680.702, 0.0, 9.999645, 10.000169 
1.0449729e+3, 1.7482951e+2, -1220127.3, -1199655.4, -27524.457, -0.016188182, 0.02456386, -1180525.3, 46150.254, 0.0, 9.999935, 10.000201 
1.0449811e+3, 1.8482953e+2, -1151586.4, -1187443.4, -48091.277, -0.023588715, 0.039463837, -1118190.4, 10484.949, 0.0, 10.000042, 9.99956 
1.0449894e+3, 1.9482961e+2, -1064783.4, -1093751.1, -37812.277, 0.0024161027, 0.08889281, -1038775.9, -8099.996, 0.0, 9.999959, 9.999571 
1.04499735e+3, 2.0482917e+2, -966890.44, -1007178.6, -50970.293, 0.009372093, 0.09425008, -932228.0, 452.76413, 0.0, 10.000008, 9.999469 
1.0450049e+3, 2.1482821e+2, -838708.25, -892558.44, -59437.715, -0.0038366485, 0.04566034, -800381.5, 34308.75, 0.0, 10.000207, 9.999487 
1.04501285e+3, 2.2482757e+2, -749160.25, -825903.7, -41287.633, -0.007788825, 0.048122562, -731166.56, 5530.0923, 0.0, 10.000266, 9.999244 
1.045021e+3, 2.3482737e+2, -663089.2, -732298.1, -38949.94, -0.0023696963, 0.09965366, -645592.1, -6892.3657, 0.0, 10.000178, 9.999256 
1.0450293e+3, 2.4482664e+2, -590762.7, -677367.2, -35097.527, -0.0026133454, 0.11701272, -578325.1, -37617.188, 0.0, 10.000134, 9.9989805 
1.04503736e+3, 2.548254e+2, -491242.44, -576352.3, -27754.115, -0.009110153, 0.091084726, -482991.72, -40270.215, 0.0, 10.000135, 9.999 
1.0450454e+3, 2.648245e+2, -364563.56, -449689.47, -42184.07, -0.008387947, 0.09808194, -347200.72, -2469.6345, 0.0, 10.000269, 9.999133 
1.0450534e+3, 2.7482402e+2, -224240.31, -328650.06, -58096.25, 0.00091883476, 0.13184743, -198339.34, 48397.23, 0.0, 10.000547, 9.999157 
1.0450615e+3, 2.848231e+2, -179555.42, -325214.66, -18918.9, -0.01694499, 0.15294413, -177138.27, -28391.422, 0.0, 10.000477, 9.998542 
1.0450699e+3, 2.9482168e+2, -147462.19, -256618.95, 243.95421, -0.06385125, 0.15631092, -147461.66, -96699.836, 0.0, 10.000014, 9.998562 
1.045079e+3, 3.0482054e+2, -40243.813, -89456.31, 1059.9192, -0.049186517, 0.14272438, -40220.996, -40220.996, 0.0, 10.000026, 9.999372 
1.0450885e+3, 3.148199e+2, 42598.918, -44976.832, -16032.965, 0.029789979, 0.14324135, 45441.87, 45441.87, 0.0, 10.000573, 9.9994135 
1.0549292e+3, 1.2481997e+2, -1829789.4, -1765735.3, -28261.602, -0.019079978, 0.008823349, -1755048.8, -38281.867, 0.00039134276, 9.999193, 10.000039 
1.0549391e+3, 1.3482027e+2, -1660264.9, -1637306.1, 5546.238, 0.039913457, 0.03636434, -1636036.5, -17270.686, 0.00016489324, 9.999699, 10.000007 
1.05494775e+3, 1.4482053e+2, -1514901.9, -1479610.9, -36325.11, 0.02306819, 0.04827298, -1456872.3, 63891.41, 0.000032768054, 9.9998665, 10.000332 
1.0549554e+3, 1.5482074e+2, -1449066.1, -1393200.5, -18621.158, -0.023155363, 0.03148165, -1387562.6, 35197.492, 0.0000008393984, 9.999628, 10.000368 
1.054964e+3, 1.648208e+2, -1401882.6, -1403929.5, 4155.104, -0.023071432, 0.037831217, -1398626.8, -73866.84, 0.0, 9.999642, 9.999614 
1.0549732e+3, 1.7482072e+2, -1260094.0, -1282631.9, -16740.89, 0.027271613, 0.06602212, -1251182.6, -24420.018, 0.0, 9.999935, 9.999632 
1.0549817e+3, 1.848205e+2, -1131933.9, -1147230.6, -52070.363, 0.03520353, 0.07210604, -1086953.1, 41812.336, 0.0, 10.000043, 9.999836 
1.05498925e+3, 1.9482014e+2, -1044468.2, -1051549.6, -41463.184, -0.0024183802, 0.046526074, -1006394.8, 24373.809, 0.0, 9.999959, 9.999861 
1.0549972e+3, 2.0481974e+2, -981094.94, -1036532.6, -44755.293, -0.012372456, 0.050641675, -956170.0, -23397.209, 0.0, 10.000007, 9.999269 
1.0550053e+3, 2.1481933e+2, -853612.3, -923392.4, -52413.625, 0.0081572505, 0.08084052, -825538.06, 9239.894, 0.0, 10.000205, 9.999276 
1.0550132e+3, 2.2481872e+2, -744926.75, -817039.06, -45462.01, 0.007561647, 0.093927056, -722958.4, 13825.927, 0.0, 10.000265, 9.999305 
1.0550211e+3, 2.3481795e+2, -658048.3, -722285.4, -42441.137, -0.015161853, 0.08123549, -636942.3, 1849.7048, 0.0, 10.000179, 9.999324 
1.0550293e+3, 2.448171e+2, -576253.7, -647670.9, -35389.85, -0.011834182, 0.07171577, -561687.56, -20887.027, 0.0, 10.000135, 9.999185 
1.0550378e+3, 2.5481617e+2, -476841.47, -546308.4, -27366.387, 0.019757057, 0.05877522, -467355.78, -24545.914, 0.0, 10.0001335, 9.9992075 
1.0550459e+3, 2.6481548e+2, -391947.3, -505529.4, -31838.855, 0.014604627, 0.093277805, -383631.25, -38813.027, 0.0, 10.000264, 9.998752 
1.0550536e+3, 2.7481505e+2, -251797.48, -385714.88, -46301.57, -0.031361654, 0.17286277, -237347.94, 9477.589, 0.0, 10.000546, 9.998766 
1.05506174e+3, 2.84814e+2, -144502.98, -252969.89, -34740.254, -0.04700874, 0.17738871, -134330.28, 14506.677, 0.0, 10.000478, 9.999038 
1.0550703e+3, 2.948123e+2, -112063.9, -182680.88, -16213.5205, -0.027391115, 0.09604982, -108519.23, -57666.68, 0.0, 10.0000105, 9.999072 
1.0550793e+3, 3.0481136e+2, -65235.793, -139673.33, 20713.47, -0.014659729, 0.10060842, -59860.14, -59860.14, 0.0, 10.000018, 9.99903 
1.05508864e+3, 3.1481177e+2, 18060.797, -95597.37, 7006.1943, -0.0155484285, 0.23537953, 18491.049, 18491.049, 0.0, 10.000571, 9.999066 
1.0649287e+3, 1.248109e+2, -1743795.0, -1741284.8, -37645.77, -0.025954563, -0.010166821, -1704873.1, 11981.616, 0.00046328275, 9.999859, 9.999886 
1.0649388e+3, 1.3481124e+2, -1692635.4, -1669108.9, 27744.28, 0.058030665, 0.034353923, -1650737.0, -31882.383, 0.00020096678, 9.999545, 9.999863 
1.0649476e+3, 1.448115e+2, -1543042.9, -1491169.9, -17016.766, 0.033957317, 0.052630264, -1486085.9, 34767.063, 0.000042859534, 9.999664, 10.00035 
1.0649553e+3, 1.5481167e+2, -1362068.0, -1348615.8, -42108.133, -0.026781244, 0.029141815, -1312699.9, 110149.414, 0.0000013547858, 10.000216, 10.000389 
1.06496386e+3, 1.6481172e+2, -1311339.9, -1366942.1, -29424.041, -0.027297229, 0.0384149, -1298660.5, 26188.45, 0.0, 10.000296, 9.999552 
1.06497325e+3, 1.748117e+2, -1272644.5, -1296080.9, -12558.247, 0.036277674, 0.07877471, -1267186.4, -40334.87, 0.0, 9.999881, 9.999566 
1.0649817e+3, 1.8481141e+2, -1176873.4, -1171924.4, -34829.684, 0.048762318, 0.08333786, -1139481.5, -10626.416, 0.0, 9.999748, 9.999808 
1.06498934e+3, 1.9481087e+2, -1049944.8, -1056979.1, -48742.992, 0.005241565, 0.043057557, -1004592.2, 26267.426, 0.0, 9.999934, 9.999835 
1.0649972e+3, 2.0481044e+2, -972700.6, -1029671.44, -52847.3, -0.008475146, 0.044995587, -941150.56, -8286.701, 0.0, 10.000052, 9.999293 
1.06500536e+3, 2.1481018e+2, -866406.5, -926666.3, -43369.79, 0.009934977, 0.086266465, -843727.75, -8860.13, 0.0, 10.000105, 9.999302 
1.0650134e+3, 2.2480957e+2, -767720.25, -832683.3, -36793.535, 0.010104904, 0.09811087, -751122.1, -14248.01, 0.0, 10.000129, 9.999263 
1.0650214e+3, 2.348086e+2, -668629.94, -731678.0, -42697.56, -0.009000699, 0.071494356, -647080.0, -8196.568, 0.0, 10.000126, 9.999285 
1.0650296e+3, 2.4480774e+2, -566675.94, -636540.1, -41353.33, -0.00514683, 0.060492277, -547475.3, -6583.473, 0.0, 10.000174, 9.999242 
1.0650381e+3, 2.54807e+2, -451584.47, -527727.1, -45358.168, 0.023419946, 0.058270376, -430437.66, 12461.671, 0.0, 10.000279, 9.999265 
1.0650461e+3, 2.6480633e+2, -392355.3, -504340.2, -40992.367, 0.012902765, 0.090884596, -378953.75, -34046.348, 0.0, 10.000255, 9.998765 
1.0650539e+3, 2.7480578e+2, -319155.7, -416091.56, -26145.186, -0.04061589, 0.1562311, -312553.56, -65637.69, 0.0, 10.000075, 9.998783 
1.065062e+3, 2.8480476e+2, -197806.53, -281986.4, -22576.83, -0.050839394, 0.1647977, -192133.77, -43206.5, 0.0, 10.000128, 9.999006 
1.0650707e+3, 2.9480323e+2, -49975.184, -156632.3, -44520.246, -0.012211449, 0.10577133, -33834.414, 17107.297, 0.0, 10.000455, 9.999037 
1.0650796e+3, 3.048023e+2, -1070.8988, -99125.484, -7743.878, -0.0031267127, 0.1107177, -463.0923, -463.0923, 0.0, 10.000418, 9.999116 
1.0650887e+3, 3.1480274e+2, -67733.58, -126468.03, 7956.752, -0.030850489, 0.23843576, -66674.766, -66674.766, 0.0, 9.999939, 9.999159 
1.0749289e+3, 1.2480209e+2, -1729880.3, -1711780.6, -54613.88, 0.004515868, 0.003934917, -1665471.9, 51470.25, 0.000542142, 9.999858, 10.000088 
1.07493825e+3, 1.3480258e+2, -1678567.1, -1637786.0, 16635.674, 0.03808159, 0.043356072, -1631860.8, -12922.055, 0.00024133897, 9.9995365, 10.000082 
1.07494704e+3, 1.4480272e+2, -1580874.9, -1568211.6, 3531.8865, 0.0016162511, 0.063733436, -1567293.1, -46354.758, 0.0000548195, 9.999658, 9.999825 
1.0749559e+3, 1.5480244e+2, -1399329.3, -1426861.5, -21037.248, 0.009641829, 0.049371693, -1387954.3, 34987.234, 0.000002073113, 10.000219, 9.99985 
1.0749646e+3, 1.6480236e+2, -1280238.3, -1303730.8, -45425.43, 0.0117191095, 0.04992644, -1245065.0, 79877.766, 0.0000000000166348, 10.0003, 9.999983 
1.07497275e+3, 1.748025e+2, -1241577.5, -1231131.8, -28348.549, 0.008701773, 0.06194685, -1207529.0, 19412.537, 0.0, 9.999878, 10.000013 
1.0749811e+3, 1.8480235e+2, -1200963.0, -1221285.4, -29137.256, 0.012612728, 0.07379108, -1180266.0, -51322.688, 0.0, 9.999744, 9.999472 
1.0749895e+3, 1.9480191e+2, -1074853.8, -1108660.1, -42202.23, 0.024823997, 0.07950757, -1046295.44, -15347.078, 0.0, 9.999933, 9.999481 
1.07499756e+3, 2.048014e+2, -955166.4, -993792.56, -52069.06, 0.020859051, 0.07776238, -918944.06, 14009.489, 0.0, 10.000054, 9.999539 
1.0750054e+3, 2.1480079e+2, -848416.94, -889236.2, -42119.516, -0.00010684317, 0.06133828, -822022.6, 12936.301, 0.0, 10.000104, 9.99956 
1.0750134e+3, 2.2480014e+2, -777404.6, -852814.3, -37941.22, -0.0024330472, 0.06085688, -761619.4, -24653.818, 0.0, 10.000128, 9.9991255 
1.0750217e+3, 2.3479937e+2, -678720.3, -753087.94, -42797.14, 0.01528971, 0.07063947, -659209.94, -20236.455, 0.0, 10.000127, 9.999138 
1.0750299e+3, 2.4479863e+2, -572858.2, -649677.8, -37745.164, 0.016410455, 0.0822783, -557416.25, -16434.799, 0.0, 10.0001745, 9.999152 
1.0750381e+3, 2.5479788e+2, -458040.72, -541024.75, -40923.95, -0.000009566748, 0.08851505, -441254.47, 1734.9934, 0.0, 10.000278, 9.999174 
1.0750461e+3, 2.6479706e+2, -364652.9, -446900.3, -46978.867, -0.01494036, 0.091202445, -343341.25, 1656.8344, 0.0, 10.000254, 9.99916 
1.07505396e+3, 2.7479622e+2, -290789.06, -356925.06, -32203.432, -0.028192127, 0.08423343, -277699.13, -30691.955, 0.0, 10.000073, 9.999191 
1.0750624e+3, 2.8479534e+2, -235967.78, -360058.22, -10824.879, -0.030268468, 0.1155702, -235030.56, -86013.1, 0.0, 10.000122, 9.998473 
1.075071e+3, 2.947945e+2, -89042.81, -237277.9, -30407.484, -0.020791577, 0.18105327, -83047.77, -32018.656, 0.0, 10.000452, 9.998485 
1.07507996e+3, 3.047934e+2, 32492.076, -29706.576, -23162.113, -0.016804889, 0.17011592, 40169.695, 40169.695, 0.0, 10.000418, 9.999593 
1.07508875e+3, 3.1479296e+2, -32375.715, -53232.91, -8386.659, -0.019771287, 0.16149756, -29421.797, -29421.797, 0.0, 9.999938, 9.999662 
1.0849286e+3, 1.2479322e+2, -1801124.9, -1739008.4, -61454.773, 0.024848076, 0.033030894, -1701209.5, 15821.187, 0.0006273791, 9.999339, 10.000151 
1.0849381e+3, 1.3479355e+2, -1555679.3, -1569340.6, 4688.4507, 0.03854392, 0.04857285, -1554225.0, 64802.555, 0.0002858709, 10.000341, 10.000164 
1.0849469e+3, 1.4479361e+2, -1464582.4, -1527486.9, -13193.6875, -0.01341037, 0.06478897, -1461927.3, 59100.484, 0.00006870092, 10.0005245, 9.999685 
1.0849561e+3, 1.5479334e+2, -1471329.4, -1478179.3, -10308.5, 0.02310301, 0.064316764, -1463891.8, -40860.01, 0.0000030594845, 9.999798, 9.9997015 
1.0849647e+3, 1.647932e+2, -1369460.8, -1337734.8, -27897.09, 0.028823085, 0.06375044, -1321506.0, 3527.5527, 0.000000000186287, 9.999649, 10.000064 
1.0849728e+3, 1.7479326e+2, -1198483.3, -1200362.0, -38831.145, 0.00085173914, 0.05935283, -1160580.1, 66452.4, 0.0, 10.0001335, 10.0001 
1.084981e+3, 1.8479314e+2, -1117343.6, -1177173.3, -39827.277, -0.0005266918, 0.06900902, -1097447.6, 31585.82, 0.0, 10.000303, 9.999505 
1.0849895e+3, 1.9479287e+2, -1042087.5, -1089267.6, -24077.52, 0.02689521, 0.08663501, -1031969.75, -932.9959, 0.0, 10.000143, 9.999513 
1.08499765e+3, 2.0479229e+2, -960134.0, -1010802.2, -30734.08, 0.027315764, 0.084863216, -945638.44, -12595.954, 0.0, 10.000084, 9.999408 
1.0850055e+3, 2.1479145e+2, -852392.44, -906035.56, -50883.91, -0.0018816215, 0.056310333, -821693.9, 13357.049, 0.0, 10.000141, 9.999427 
1.0850135e+3, 2.2479072e+2, -760960.3, -838764.6, -54581.043, -0.0063204193, 0.054187953, -732836.6, 4221.582, 0.0, 10.000215, 9.999181 
1.0850219e+3, 2.3479012e+2, -648145.0, -731755.3, -45470.875, 0.015539339, 0.07331774, -628182.25, 10882.065, 0.0, 10.000308, 9.999197 
1.08503014e+3, 2.4478947e+2, -563289.5, -649606.3, -34334.9, 0.0146004865, 0.091727436, -551297.8, -10226.291, 0.0, 10.000259, 9.999112 
1.0850381e+3, 2.547887e+2, -493935.8, -562621.7, -34086.3, -0.010559421, 0.10259494, -479891.63, -36811.78, 0.0, 10.000051, 9.999136 
1.0850462e+3, 2.6478782e+2, -392363.0, -450227.06, -47144.688, -0.020676758, 0.09634983, -365980.63, -20891.648, 0.0, 10.000022, 9.9992485 
1.08505435e+3, 2.747868e+2, -266126.34, -335128.5, -56621.316, -0.014627589, 0.06516456, -234322.83, 12776.033, 0.0, 10.000199, 9.99928 
1.0850626e+3, 2.8478605e+2, -222981.28, -348055.53, -24477.715, -0.017794657, 0.099020414, -218361.5, -69253.5, 0.0, 10.000186, 9.998526 
1.0850712e+3, 2.947856e+2, -159223.6, -265104.78, -322.06387, -0.030685356, 0.19731109, -159222.61, -108106.43, 0.0, 9.999945, 9.998537 
1.08508e+3, 3.0478436e+2, -36224.594, -62105.31, 8087.7637, -0.028778536, 0.17171925, -33905.043, -33905.043, 0.0, 9.999944, 9.9995985 
1.08508885e+3, 3.1478357e+2, 13240.004, -28654.467, -14553.72, -0.011560929, 0.12753733, 17799.58, 17799.58, 0.0, 10.00024, 9.999685 
1.094928e+3, 1.2478428e+2, -1807814.5, -1749063.6, -29845.43, 0.024237126, 0.073592, -1736562.3, -19442.025, 0.0007190712, 9.999323, 10.000089 
1.09493874e+3, 1.3478419e+2, -1558396.9, -1576395.5, 43787.406, 0.057841275, 0.051647205, -1522693.5, 96427.016, 0.00033462446, 10.000346, 10.0001135 
1.0949475e+3, 1.4478426e+2, -1446596.8, -1491257.1, -39758.73, -0.01264225, 0.05678328, -1423326.6, 97793.47, 0.000084530904, 10.000529, 9.999931 
1.0949558e+3, 1.5478438e+2, -1454934.4, -1443268.6, -37585.953, 0.011634906, 0.07281817, -1411065.6, 12053.809, 0.0000043925156, 9.999793, 9.999943 
1.0949642e+3, 1.647843e+2, -1389521.5, -1378039.6, -11006.692, 0.020263067, 0.07946285, -1371366.6, -46245.82, 0.0000000006358386, 9.999643, 9.99979 
1.094973e+3, 1.7478405e+2, -1218519.6, -1242337.9, -20659.309, 0.011621236, 0.07192335, -1206582.6, 20541.307, 0.0, 10.000134, 9.999811 
1.0949814e+3, 1.8478386e+2, -1088617.0, -1118083.6, -46559.38, 0.007901599, 0.06900486, -1054515.5, 74609.73, 0.0, 10.000306, 9.999909 
1.0949895e+3, 1.9478376e+2, -1012733.2, -1028092.1, -30738.145, 0.01047201, 0.063854605, -988729.75, 42394.688, 0.0, 10.000142, 9.999934 
1.0949975e+3, 2.047832e+2, -995834.56, -1084713.4, -29896.773, 0.0090510165, 0.066473156, -986713.94, -53583.773, 0.0, 10.000082, 9.998901 
1.09500565e+3, 2.1478216e+2, -889495.8, -983269.56, -49113.734, 0.003407593, 0.07165481, -868481.75, -33338.7, 0.0, 10.000142, 9.998897 
1.0950138e+3, 2.247814e+2, -743919.0, -803968.9, -52192.105, -0.0027984055, 0.0783645, -713731.7, 23419.906, 0.0, 10.0002165, 9.999419 
1.095022e+3, 2.3478085e+2, -630473.7, -694783.7, -42243.29, -0.009361851, 0.079208255, -609539.7, 29615.852, 0.0, 10.000306, 9.999452 
1.09503e+3, 2.4478023e+2, -562192.6, -647206.25, -42179.676, -0.011685318, 0.08873295, -544816.56, -3654.9204, 0.0, 10.000258, 9.999129 
1.0950382e+3, 2.5477952e+2, -492894.88, -560427.5, -41481.77, -0.009395631, 0.10089378, -473173.78, -30003.773, 0.0, 10.00005, 9.999152 
1.0950464e+3, 2.6477864e+2, -407644.6, -481830.78, -40555.555, -0.005781074, 0.10617673, -389777.25, -44597.613, 0.0, 10.000021, 9.999032 
1.0950546e+3, 2.7477762e+2, -281836.5, -367780.88, -48748.656, -0.0014971492, 0.097668014, -259823.77, -12633.247, 0.0, 10.000199, 9.999056 
1.0950629e+3, 2.847769e+2, -179936.56, -258859.02, -32280.768, -0.014501251, 0.115425065, -168415.1, -19216.723, 0.0, 10.000186, 9.999138 
1.09507106e+3, 2.947765e+2, -115200.055, -173154.94, -8333.601, -0.043997303, 0.15628468, -114025.53, -62822.895, 0.0, 9.999942, 9.999171 
1.09507985e+3, 3.0477524e+2, -68229.18, -127777.26, 18484.975, -0.04217893, 0.11604669, -62957.707, -62957.707, 0.0, 9.99994, 9.999149 
1.09508924e+3, 3.1477463e+2, -17643.686, -92534.9, -1202.9806, -0.009841385, 0.1365696, -17624.367, -17624.367, 0.0, 10.000238, 9.999248 
1.10492826e+3, 1.2477534e+2, -1602457.8, -1666996.0, -14861.45, 0.038578182, 0.09171351, -1599200.0, 118008.414, 0.000818133, 10.000806, 9.999937 
1.1049388e+3, 1.3477491e+2, -1642317.3, -1631526.3, 56299.05, 0.06640826, 0.047896966, -1580364.8, 38847.25, 0.00038809632, 9.999831, 9.999985 
1.1049475e+3, 1.447749e+2, -1555302.8, -1533070.9, -34147.273, -0.026904413, 0.049283106, -1508275.8, 12936.1455, 0.000102482416, 9.999737, 10.000027 
1.1049559e+3, 1.5477522e+2, -1334593.4, -1373778.8, -44018.78, 0.0058568567, 0.0752309, -1306003.9, 117205.445, 0.0000061708192, 10.000572, 10.000044 
1.1049645e+3, 1.6477522e+2, -1246506.5, -1317903.0, -20371.672, 0.022503303, 0.08797235, -1241102.9, 84107.1, 0.0000000015512864, 10.000666, 9.999709 
1.104973e+3, 1.7477489e+2, -1249378.1, -1266822.3, -15513.236, 0.017741513, 0.0810876, -1240303.1, -13089.19, 0.0, 9.999965, 9.999724 
1.10498145e+3, 1.847746e+2, -1166843.1, -1153792.1, -39881.85, 0.0124675, 0.07233185, -1119905.4, 9310.716, 0.0, 9.99976, 9.9999275 
1.10498965e+3, 1.9477442e+2, -1016990.3, -1027562.7, -54537.85, 0.0075612334, 0.05515479, -967483.06, 63733.332, 0.0, 10.000102, 9.999956 
1.1049977e+3, 2.0477395e+2, -960347.3, -1062357.3, -49556.484, 0.0047716275, 0.061765842, -940237.2, -7015.876, 0.0, 10.000303, 9.998949 
1.1050059e+3, 2.1477315e+2, -855673.5, -961568.2, -26243.605, 0.0038160014, 0.08733628, -849526.44, -14294.938, 0.0, 10.000351, 9.998945 
1.105014e+3, 2.2477235e+2, -740004.06, -807157.0, -21608.842, -0.0030019851, 0.093733944, -733651.56, 3588.5117, 0.0, 10.000266, 9.9993725 
1.10502206e+3, 2.3477156e+2, -672854.3, -720649.0, -34914.93, -0.01580951, 0.071867526, -654441.7, -15194.718, 0.0, 10.000039, 9.999403 
1.1050302e+3, 2.447709e+2, -593700.75, -650059.8, -41400.746, -0.01582303, 0.07599964, -571799.25, -30546.045, 0.0, 9.9999895, 9.999239 
1.1050383e+3, 2.5477046e+2, -472272.06, -538100.9, -34782.66, -0.002522099, 0.10179381, -457299.2, -14040.431, 0.0, 10.000138, 9.999263 
1.1050465e+3, 2.6476964e+2, -390060.53, -479861.56, -22276.12, 0.0016437756, 0.11337514, -384838.38, -39570.926, 0.0, 10.000169, 9.998974 
1.1050547e+3, 2.747686e+2, -305629.2, -385940.4, -18859.195, -0.0041528433, 0.104083724, -301421.03, -54141.55, 0.0, 10.000066, 9.998995 
1.10506296e+3, 2.8476784e+2, -189406.0, -247317.14, -16855.03, -0.01517302, 0.11622245, -184857.6, -35570.223, 0.0, 10.000053, 9.999281 
1.10507116e+3, 2.9476747e+2, -75446.72, -137691.17, -29682.535, -0.030162742, 0.14489767, -63561.434, -12270.778, 0.0, 10.000145, 9.999316 
1.1050798e+3, 3.0476615e+2, -53638.09, -121647.79, -2543.92, -0.035698105, 0.093778975, -53543.066, -53543.066, 0.0, 10.000043, 9.999143 
1.105089e+3, 3.1476584e+2, -88277.88, -122382.61, 9405.956, -0.032625858, 0.14486404, -85855.77, -85855.77, 0.0, 9.999736, 9.999285 
1.1149292e+3, 1.247664e+2, -1618757.3, -1701848.0, -56127.605, 0.061375897, 0.08245264, -1590471.9, 126822.83, 0.00092609524, 10.000812, 9.999694 
1.1149386e+3, 1.3476571e+2, -1658046.5, -1663570.4, 20268.646, 0.061760154, 0.03492752, -1640352.5, -21050.871, 0.00044726714, 9.999827, 9.999767 
1.1149469e+3, 1.4476562e+2, -1560160.4, -1540659.0, -4292.4873, -0.0594121, 0.04007043, -1539756.0, -18452.973, 0.00012295434, 9.999726, 9.99998 
1.11495644e+3, 1.5476596e+2, -1337347.0, -1379951.1, -12314.779, 0.0032631883, 0.0726842, -1334043.5, 89257.14, 0.000008505592, 10.000574, 10.000001 
1.1149652e+3, 1.6476604e+2, -1238065.6, -1301446.9, -46469.594, 0.03289587, 0.08997977, -1213509.4, 111791.016, 0.0000000033697685, 10.0006695, 9.99982 
1.11497305e+3, 1.7476584e+2, -1241123.1, -1249872.6, -42216.97, 0.018526927, 0.0864103, -1203054.9, 24247.14, 0.0, 9.999966, 9.999841 
1.1149812e+3, 1.8476547e+2, -1193081.9, -1207700.4, -28831.002, 0.011629132, 0.079024635, -1170648.0, -41342.22, 0.0, 9.999757, 9.999559 
1.11498974e+3, 1.9476488e+2, -1043923.6, -1083678.3, -42094.92, 0.016346857, 0.061050985, -1017248.94, 14063.175, 0.0, 10.000102, 9.999571 
1.114998e+3, 2.0476452e+2, -918302.8, -975533.44, -48876.203, 0.012585282, 0.07062049, -890281.4, 43034.19, 0.0, 10.000304, 9.999544 
1.1150062e+3, 2.1476442e+2, -812471.5, -871306.7, -25288.076, -0.001285068, 0.10312449, -803096.25, 32219.775, 0.0, 10.000348, 9.999566 
1.11501426e+3, 2.247637e+2, -762918.1, -854293.4, -31040.014, -0.0077099586, 0.1001546, -753371.3, -16048.015, 0.0, 10.000264, 9.999051 
1.1150222e+3, 2.3476228e+2, -696881.3, -770716.06, -43525.074, -0.0052139107, 0.052172028, -676725.7, -37387.742, 0.0, 10.00004, 9.99906 
1.1150303e+3, 2.4476154e+2, -580502.94, -622593.06, -36324.68, 0.0003760656, 0.054688927, -559567.3, -18221.71, 0.0, 9.999989, 9.999428 
1.11503854e+3, 2.5476152e+2, -458558.88, -509435.25, -28657.18, 0.009085192, 0.10520711, -445678.22, -2332.5442, 0.0, 10.000137, 9.99946 
1.11504674e+3, 2.6476088e+2, -383253.47, -465916.97, -25810.705, 0.001389502, 0.11764351, -375856.3, -30504.08, 0.0, 10.00017, 9.99907 
1.11505456e+3, 2.7475968e+2, -299696.44, -372609.2, -22055.254, -0.024663834, 0.083786055, -293544.1, -46178.477, 0.0, 10.000061, 9.999089 
1.1150628e+3, 2.8475884e+2, -211956.69, -292590.13, -13177.741, -0.02294915, 0.10097473, -209857.72, -60482.94, 0.0, 10.000046, 9.998974 
1.1150716e+3, 2.947585e+2, -97610.586, -184271.7, -24385.863, 0.00952765, 0.1635552, -91219.84, -39840.227, 0.0, 10.000146, 9.998997 
1.11508004e+3, 3.0475718e+2, -24991.46, -63208.16, -13031.421, -0.00949247, 0.106607184, -20970.89, -20970.89, 0.0, 10.000048, 9.999542 
1.1150882e+3, 3.147573e+2, -54757.74, -51617.04, -486.32257, -0.083918385, 0.16039675, -51543.457, -51543.457, 0.0, 9.99973, 9.999774 
1.12492956e+3, 1.2475725e+2, -1685599.5, -1741289.8, -64459.035, 0.03762909, 0.050792463, -1643228.4, 74155.12, 0.0010446907, 10.000385, 9.999629 
1.1249392e+3, 1.3475682e+2, -1496288.8, -1590150.3, 28543.195, 0.08079151, 0.034451924, -1488290.4, 131097.45, 0.0005132032, 10.000958, 9.999725 
1.1249473e+3, 1.4475672e+2, -1407228.9, -1493639.5, 13794.2, -0.055201318, 0.052174773, -1405080.3, 116309.56, 0.00014641856, 10.000893, 9.99974 
1.12495676e+3, 1.5475668e+2, -1423974.9, -1449708.9, -10917.808, -0.0002028374, 0.07190507, -1419967.0, 3425.0322, 0.00001150662, 10.000099, 9.999751 
1.1249655e+3, 1.6475664e+2, -1337148.8, -1336854.5, -56531.887, 0.028142935, 0.084317744, -1280469.6, 44923.56, 0.0000000061074554, 9.999935, 9.999932 
1.1249733e+3, 1.747566e+2, -1158734.0, -1196441.1, -52570.313, 0.017265968, 0.08465802, -1121738.8, 105653.914, 0.0, 10.000472, 9.999964 
1.1249814e+3, 1.8475634e+2, -1081132.4, -1168041.4, -26264.5, 0.012772064, 0.08704612, -1073811.8, 55583.855, 0.0, 10.000587, 9.999431 
1.12499e+3, 1.9475575e+2, -1033512.56, -1093844.3, -21379.703, 0.018178089, 0.08426136, -1026704.5, 4698.077, 0.0, 10.000239, 9.999435 
1.12499826e+3, 2.0475534e+2, -946657.75, -968170.06, -32997.418, 0.010581564, 0.086714506, -922707.6, 10698.839, 0.0, 10.00002, 9.999732 
1.1250062e+3, 2.1475513e+2, -856553.75, -870682.94, -41899.004, -0.012481001, 0.087780036, -821127.94, 14279.054, 0.0, 9.999951, 9.999762 
1.1250143e+3, 2.247545e+2, -794883.9, -865462.94, -49665.188, -0.015989404, 0.08321027, -769247.4, -31834.512, 0.0, 10.000027, 9.999088 
1.1250225e+3, 2.3475344e+2, -662381.94, -749978.6, -35462.945, 0.0021696212, 0.06753368, -649825.0, -10400.594, 0.0, 10.00026, 9.999096 
1.1250305e+3, 2.4475273e+2, -544079.94, -607575.9, -24171.63, 0.008396102, 0.07155337, -535925.5, 5506.458, 0.0, 10.000251, 9.999404 
1.1250386e+3, 2.5475234e+2, -484725.4, -524755.94, -33482.785, 0.0012163834, 0.08895583, -465731.6, -22296.262, 0.0, 9.99997, 9.999434 
1.1250466e+3, 2.647517e+2, -417381.9, -469053.66, -35427.082, -0.0072403653, 0.09503689, -399370.66, -53928.754, 0.0, 9.99988, 9.999187 
1.12505466e+3, 2.7475083e+2, -300898.72, -360193.94, -30775.158, -0.017303538, 0.08508004, -287813.56, -40361.934, 0.0, 9.999997, 9.999206 
1.125063e+3, 2.8475013e+2, -235389.94, -320144.44, -17144.184, -0.014835884, 0.11402526, -232053.34, -82593.28, 0.0, 9.999955, 9.998829 
1.1250716e+3, 2.9474962e+2, -165851.22, -233981.73, -17594.941, 0.0020820652, 0.17514063, -161575.6, -110108.12, 0.0, 9.999752, 9.998844 
1.12508e+3, 3.0474812e+2, -61073.586, -63319.93, -9600.3125, -0.017663594, 0.09994556, -52530.965, -52530.965, 0.0, 9.999726, 9.999696 
1.125088e+3, 3.1474844e+2, -15604.147, -3929.7942, -16078.937, -0.07308564, 0.16090423, 7338.7256, 7338.7256, 0.0, 9.999875, 10.000031 
1.1349292e+3, 1.2474792e+2, -1678521.8, -1723327.6, -46313.645, -0.03933625, -0.0054930253, -1649477.1, 67997.06, 0.001174958, 10.000374, 9.999757 
1.1349405e+3, 1.3474834e+2, -1485487.5, -1568683.8, 51121.273, 0.120288916, 0.048577134, -1461178.3, 158291.55, 0.00058639556, 10.000962, 9.999871 
1.1349485e+3, 1.447483e+2, -1437933.0, -1558100.1, -15155.382, -0.016668502, 0.08794032, -1436051.1, 85420.32, 0.00017311395, 10.0008955, 9.999297 
1.1349568e+3, 1.5474746e+2, -1456288.4, -1516815.3, -40950.242, -0.0056626042, 0.071823776, -1435632.3, -12149.21, 0.000015247707, 10.000099, 9.999291 
1.1349652e+3, 1.6474707e+2, -1329915.8, -1321125.4, -38276.555, 0.0061328835, 0.069584474, -1286992.5, 38495.465, 0.000000009421829, 9.999931, 10.000042 
1.1349736e+3, 1.7474724e+2, -1149856.5, -1178374.0, -32454.023, 0.011536897, 0.07618879, -1128667.1, 98818.2, 0.0, 10.000473, 10.000087 
1.13498196e+3, 1.8474725e+2, -1072879.0, -1151531.6, -39796.914, 0.013296082, 0.0962656, -1056255.8, 73229.234, 0.0, 10.000589, 9.999543 
1.1349901e+3, 1.947471e+2, -1025466.8, -1077124.9, -35263.39, 0.012715915, 0.12500627, -1007584.94, 23902.412, 0.0, 10.000239, 9.999551 
1.1349982e+3, 2.0474647e+2, -962134.44, -1000219.56, -37040.285, -0.0018071192, 0.11069971, -939528.44, -6035.0225, 0.0, 10.000019, 9.999513 
1.13500595e+3, 2.1474534e+2, -872556.2, -904156.44, -44913.24, -0.032070935, 0.04214746, -840744.94, -5241.177, 0.0, 9.999951, 9.999532 
1.13501415e+3, 2.2474484e+2, -767963.1, -809371.5, -42281.285, -0.030568803, 0.043631468, -741588.94, -4080.758, 0.0, 10.000025, 9.999475 
1.1350227e+3, 2.3474509e+2, -634545.2, -691700.2, -26948.621, 0.006178178, 0.11678164, -623842.94, 15663.129, 0.0, 10.0002575, 9.999497 
1.13503076e+3, 2.447445e+2, -560221.06, -640837.94, -34738.582, 0.008221196, 0.12488765, -547317.3, -5805.218, 0.0, 10.00025, 9.999177 
1.1350382e+3, 2.54743e+2, -502141.66, -560051.2, -43621.33, -0.02803595, 0.053584184, -478739.97, -35212.723, 0.0, 9.999967, 9.999194 
1.13504626e+3, 2.647422e+2, -408461.22, -449238.03, -30825.926, -0.026749518, 0.047416657, -391891.22, -46355.395, 0.0, 9.999874, 9.999327 
1.13505505e+3, 2.7474216e+2, -289887.53, -338221.22, -24836.81, 0.016156076, 0.108618796, -279400.3, -31863.49, 0.0, 10.000001, 9.999355 
1.1350631e+3, 2.847417e+2, -235575.6, -321881.25, -24322.854, 0.0083886795, 0.1554041, -229192.9, -79650.14, 0.0, 9.99996, 9.998815 
1.1350708e+3, 2.9474077e+2, -168445.0, -237308.94, -24194.791, -0.054705456, 0.17740618, -160794.33, -109240.02, 0.0, 9.999742, 9.998826 
1.1350792e+3, 3.047389e+2, -67156.44, -72499.04, -3481.0283, -0.06310683, 0.07245037, -65439.867, -65439.867, 0.0, 9.999711, 9.9996395 
1.13508865e+3, 3.1473944e+2, -10061.42, 6392.112, -7550.749, -0.006039199, 0.1555955, 9331.97, 9331.97, 0.0, 9.99988, 10.000101 
1.1449298e+3, 1.2473897e+2, -1583148.5, -1687535.0, -49465.42, -0.051898774, -0.0069825933, -1563432.4, 154129.61, 0.0013167423, 10.001074, 9.999665 
1.1449415e+3, 1.3473937e+2, -1512650.8, -1588269.3, 31584.008, 0.12289509, 0.050377846, -1501194.5, 118363.77, 0.0006665531, 10.000801, 9.999817 
1.1449491e+3, 1.4473934e+2, -1466911.6, -1564222.1, -42807.805, -0.035708603, 0.09148249, -1450760.6, 70798.91, 0.00020295075, 10.000662, 9.999368 
1.1449572e+3, 1.5473856e+2, -1367206.0, -1465328.5, -29426.63, -0.0036808026, 0.0734757, -1359057.6, 64512.266, 0.000019742625, 10.000674, 9.999367 
1.14496544e+3, 1.6473815e+2, -1252621.1, -1302160.0, 4041.0073, 0.014902939, 0.07113947, -1252293.6, 73281.57, 0.000000013934886, 10.000541, 9.999878 
1.144974e+3, 1.7473814e+2, -1194863.3, -1219611.1, -12420.9, 0.007877143, 0.07891427, -1189704.6, 37870.258, 0.0, 10.000247, 9.999914 
1.1449823e+3, 1.8473811e+2, -1132344.3, -1166828.6, -39779.258, 0.0043862537, 0.09665864, -1106231.1, 23344.088, 0.0, 10.000125, 9.999662 
1.14499025e+3, 1.9473802e+2, -1021362.94, -1060840.0, -35143.555, 0.007204214, 0.119282715, -1000794.1, 30781.996, 0.0, 10.000206, 9.999678 
1.1449983e+3, 2.0473742e+2, -940403.94, -1005870.8, -29910.723, 0.000029862593, 0.10831971, -928796.3, 4785.7363, 0.0, 10.000238, 9.999367 
1.1450062e+3, 2.1473628e+2, -845130.8, -907687.9, -32949.125, -0.019770758, 0.054189157, -830978.2, 4615.1816, 0.0, 10.000214, 9.99938 
1.1450143e+3, 2.2473578e+2, -748543.44, -784081.0, -34175.27, -0.019523215, 0.05586164, -727793.7, 9804.284, 0.0, 10.000092, 9.999616 
1.1450227e+3, 2.3473601e+2, -681909.9, -698019.75, -37950.016, 0.0026061286, 0.11227759, -651169.4, -11574.2295, 0.0, 9.999863, 9.999643 
1.1450308e+3, 2.4473545e+2, -625136.06, -674466.06, -50189.2, 0.0016768847, 0.117467225, -593878.6, -52277.96, 0.0, 9.999815, 9.999155 
1.1450382e+3, 2.5473407e+2, -503793.94, -564036.6, -44622.656, -0.024600765, 0.06004102, -480077.78, -36462.473, 0.0, 9.9999695, 9.999166 
1.1450463e+3, 2.647333e+2, -389923.78, -436583.94, -25468.438, -0.02198735, 0.059442054, -378715.0, -33091.434, 0.0, 9.999985, 9.99936 
1.1450549e+3, 2.7473325e+2, -309068.2, -343218.13, -28474.412, 0.011790156, 0.11588635, -292941.56, -45316.918, 0.0, 9.999852, 9.999392 
1.145063e+3, 2.8473285e+2, -254648.36, -316222.56, -31456.404, 0.0018324371, 0.15785778, -241420.11, -91790.33, 0.0, 9.999767, 9.998945 
1.1450704e+3, 2.94732e+2, -164021.67, -221176.23, -20392.912, -0.05466485, 0.17479621, -157491.52, -105851.86, 0.0, 9.999712, 9.998953 
1.14507884e+3, 3.0472997e+2, -86625.91, -98963.72, 10564.483, -0.06005049, 0.054823227, -80561.1, -80561.1, 0.0, 9.999652, 9.999487 
1.1450884e+3, 3.1473047e+2, -48922.133, -12628.864, -5057.382, -0.00095792924, 0.14900592, -11937.308, -11937.308, 0.0, 9.999619, 10.000094 
1.1549314e+3, 1.24730505e+2, -1607039.4, -1734741.4, -57776.875, -0.0030936399, 0.050069295, -1584779.4, 132866.52, 0.0014692028, 10.001065, 9.999345 
1.1549419e+3, 1.3472994e+2, -1531485.9, -1627280.3, 21339.914, 0.08614682, 0.03799256, -1526947.1, 92705.84, 0.00075311697, 10.000801, 9.999549 
1.154949e+3, 1.447299e+2, -1424530.5, -1476567.0, -43443.098, -0.11523325, 0.060586896, -1399910.3, 121743.67, 0.000235787, 10.000663, 9.9999695 
1.15495786e+3, 1.5473008e+2, -1323034.0, -1374035.6, -28740.55, 0.0036673055, 0.077960014, -1310112.0, 113539.82, 0.000024990082, 10.000675, 9.999993 
1.1549664e+3, 1.6472992e+2, -1283505.5, -1366314.3, -7475.758, 0.052385133, 0.09037717, -1282836.1, 42817.86, 0.000000023716384, 10.000541, 9.999438 
1.15497425e+3, 1.747294e+2, -1228183.5, -1288255.4, -23926.623, 0.005292691, 0.09311281, -1219818.4, 7842.267, 0.0, 10.000245, 9.999444 
1.15498215e+3, 1.8472897e+2, -1123942.5, -1149342.0, -37986.254, -0.015743308, 0.088264786, -1096589.3, 33076.207, 0.0, 10.000124, 9.9997835 
1.1549905e+3, 1.9472857e+2, -1011532.75, -1040909.4, -32429.025, -0.00057599135, 0.066916704, -990620.7, 41047.82, 0.0, 10.000208, 9.999814 
1.1549987e+3, 2.0472825e+2, -945736.8, -1017210.06, -32015.553, 0.013623554, 0.079225056, -933493.2, 178.61304, 0.0, 10.000239, 9.9992895 
1.1550068e+3, 2.1472798e+2, -851053.0, -919716.5, -34719.547, 0.02443401, 0.12315405, -836557.3, -881.91486, 0.0, 10.000213, 9.999299 
1.1550148e+3, 2.2472735e+2, -755522.25, -798126.44, -43685.906, 0.01692027, 0.11926945, -728221.5, 9460.227, 0.0, 10.00009, 9.999519 
1.15502246e+3, 2.3472625e+2, -688836.6, -712211.9, -46654.47, -0.010188221, 0.05535317, -652428.06, -12736.978, 0.0, 9.999862, 9.999547 
1.1550304e+3, 2.4472564e+2, -613486.0, -649526.8, -44828.246, -0.013829315, 0.051093407, -583191.75, -41494.652, 0.0, 9.999811, 9.999329 
1.15503855e+3, 2.5472558e+2, -490867.06, -537756.9, -38250.016, 0.009385691, 0.107293494, -469448.53, -25749.387, 0.0, 9.999971, 9.999346 
1.1550465e+3, 2.647251e+2, -395428.03, -448543.06, -30194.691, 0.0052941064, 0.128528, -381773.34, -36068.34, 0.0, 9.999987, 9.999277 
1.15505435e+3, 2.747242e+2, -316617.16, -356859.75, -32903.33, -0.030852774, 0.10623802, -298170.38, -50455.55, 0.0, 9.999843, 9.999303 
1.1550624e+3, 2.847236e+2, -234933.13, -272354.78, -32548.605, -0.035582334, 0.122376226, -216100.55, -66379.88, 0.0, 9.999754, 9.999253 
1.15507066e+3, 2.9472336e+2, -140873.39, -174834.33, -20022.695, -0.0040464825, 0.16864593, -131600.39, -79877.65, 0.0, 9.999719, 9.999268 
1.155079e+3, 3.0472136e+2, -107530.37, -144752.95, 9541.857, -0.0134681845, 0.047103066, -105226.9, -105226.9, 0.0, 9.9996605, 9.999169 
1.1550875e+3, 3.1472152e+2, -60728.027, -35506.746, -4785.091, -0.058468107, 0.14520048, -34629.414, -34629.414, 0.0, 9.99961, 9.999943 
1.1649328e+3, 1.2472212e+2, -1541833.4, -1717665.6, -38559.625, 0.0010273416, 0.07188391, -1533749.0, 183979.88, 0.0016317561, 10.001576, 9.999215 
1.16494276e+3, 1.3472134e+2, -1551956.3, -1645995.8, 49243.06, 0.091183886, 0.046765253, -1530889.8, 88848.12, 0.00084588735, 10.000697, 9.999472 
1.16494924e+3, 1.447212e+2, -1459300.8, -1487274.6, 906.727, -0.13767627, 0.059347477, -1459271.4, 62468.273, 0.00027161013, 10.000397, 10.000025 
1.1649586e+3, 1.547214e+2, -1306159.6, -1359412.3, -27433.133, 0.0064618997, 0.072436616, -1294555.9, 129180.77, 0.000031011183, 10.000762, 10.000052 
1.1649672e+3, 1.6472125e+2, -1248024.6, -1356379.0, -31227.664, 0.06390424, 0.08603012, -1239669.1, 86069.38, 0.00000004774233, 10.000816, 9.999374 
1.16497464e+3, 1.7472072e+2, -1190361.6, -1277613.9, -18488.572, 0.0034431857, 0.0952323, -1186605.6, 41139.832, 0.0, 10.000538, 9.999375 
1.1649823e+3, 1.8472022e+2, -1098180.5, -1145867.4, -13188.671, -0.021312455, 0.09128543, -1094776.0, 34975.17, 0.0, 10.000339, 9.999703 
1.1649906e+3, 1.9471972e+2, -1013099.6, -1050442.5, -24084.03, 0.00047178465, 0.06573343, -1001297.06, 30458.514, 0.0, 10.000235, 9.999736 
1.1649989e+3, 2.0471938e+2, -947769.5, -1010644.8, -25541.018, 0.019669492, 0.078361146, -938702.0, -4943.0625, 0.0, 10.000195, 9.999355 
1.1650072e+3, 2.1471924e+2, -843128.25, -908304.2, -16997.16, 0.033366516, 0.1265599, -838961.94, -3200.813, 0.0, 10.000234, 9.999367 
1.165015e+3, 2.2471859e+2, -752797.56, -810975.6, -28731.46, 0.024300154, 0.123862274, -741000.56, -3232.819, 0.0, 10.00017, 9.9993925 
1.1650223e+3, 2.3471735e+2, -679658.4, -722339.6, -36164.77, -0.009230543, 0.059378915, -659007.2, -19227.928, 0.0, 9.999988, 9.999415 
1.16503015e+3, 2.4471678e+2, -601433.9, -631073.56, -29472.727, -0.012619273, 0.06004995, -583264.8, -41479.8, 0.0, 9.99984, 9.999441 
1.1650384e+3, 2.5471693e+2, -517585.47, -537166.9, -27258.57, 0.01671117, 0.12550685, -498412.6, -54628.066, 0.0, 9.999731, 9.999465 
1.1650464e+3, 2.6471642e+2, -447765.13, -474896.06, -24161.746, 0.010821943, 0.13990237, -433621.2, -87830.97, 0.0, 9.999634, 9.999267 
1.1650539e+3, 2.7471527e+2, -362534.56, -381451.56, -22025.928, -0.03392721, 0.09453323, -348022.16, -100219.72, 0.0, 9.999537, 9.999282 
1.16506204e+3, 2.8471473e+2, -257182.86, -274263.66, -19879.021, -0.03431735, 0.10992322, -244087.33, -94279.4, 0.0, 9.999562, 9.999333 
1.1650707e+3, 2.9471475e+2, -132378.4, -161452.64, -27009.111, 0.014809826, 0.17776214, -116242.74, -64435.87, 0.0, 9.99974, 9.999349 
1.1650789e+3, 3.0471274e+2, -121551.234, -158429.08, -10287.12, 0.0034177518, 0.053810637, -118875.734, -118875.734, 0.0, 9.999596, 9.999105 
1.1650868e+3, 3.1471273e+2, -133223.94, -56938.27, -3345.8284, -0.059914716, 0.14177094, -56791.81, -56791.81, 0.0, 9.999052, 10.000066 
1.1749338e+3, 1.24713905e+2, -1537080.3, -1708405.4, -67358.6, -0.042138923, 0.0592721, -1513769.3, 204040.97, 0.0018049687, 10.001579, 9.999277 
1.1749438e+3, 1.3471368e+2, -1544123.1, -1629063.5, 16116.943, 0.13592508, 0.078295484, -1541167.9, 78644.2, 0.0009453062, 10.000693, 9.999591 
1.1749499e+3, 1.4471334e+2, -1495710.4, -1561103.0, 12727.561, -0.10491236, 0.089886434, -1493320.5, 28495.055, 0.0003105983, 10.00039, 9.99952 
1.1749593e+3, 1.5471257e+2, -1342748.6, -1434857.6, -13642.315, 0.0030009968, 0.056690868, -1340770.5, 83053.484, 0.000037854974, 10.000761, 9.999535 
1.1749678e+3, 1.6471216e+2, -1225626.9, -1311055.4, -41954.492, 0.046748348, 0.056638785, -1208468.9, 117359.56, 0.00000010132158, 10.00082, 9.999684 
1.1749751e+3, 1.7471217e+2, -1166524.4, -1228691.4, -29194.96, 0.0010755549, 0.085038826, -1154963.8, 72865.0, 0.0, 10.00054, 9.999711 
1.1749828e+3, 1.8471195e+2, -1117801.5, -1186573.5, -18376.78, -0.014237042, 0.10674419, -1113199.0, 16632.438, 0.0, 10.000339, 9.999424 
1.174991e+3, 1.947115e+2, -1034368.94, -1094099.3, -28589.129, 0.010278784, 0.116440125, -1022890.9, 8945.941, 0.0, 10.000233, 9.999437 
1.1749992e+3, 2.0471089e+2, -933016.5, -979990.25, -25288.469, 0.017503252, 0.10610465, -921990.5, 11852.372, 0.0, 10.000194, 9.999567 
1.1750071e+3, 2.1471007e+2, -827507.6, -875647.6, -15979.037, 0.004861771, 0.06436084, -822686.56, 13163.373, 0.0, 10.000232, 9.999592 
1.1750149e+3, 2.2470954e+2, -765076.2, -835938.8, -36353.773, -0.00023104652, 0.06991085, -749743.56, -11888.06, 0.0, 10.000166, 9.999223 
1.1750225e+3, 2.3470932e+2, -691915.75, -748308.4, -43358.32, 0.0047340114, 0.1230789, -668391.9, -28532.617, 0.0, 9.9999895, 9.999237 
1.17503025e+3, 2.4470887e+2, -597382.44, -622814.0, -34262.156, 0.004519318, 0.14254434, -573552.56, -31688.266, 0.0, 9.999841, 9.999497 
1.175038e+3, 2.5470814e+2, -513852.13, -528255.75, -31045.822, -0.002439278, 0.115451895, -489183.75, -45312.773, 0.0, 9.999726, 9.999528 
1.1750459e+3, 2.6470736e+2, -443454.25, -464857.63, -27081.334, -0.005605689, 0.095357925, -425036.78, -79158.22, 0.0, 9.999628, 9.999338 
1.1750539e+3, 2.7470657e+2, -356911.1, -370734.9, -24129.123, -0.0039629256, 0.08068682, -338723.4, -90836.625, 0.0, 9.99954, 9.999354 
1.1750619e+3, 2.847062e+2, -270212.9, -302206.8, -13230.729, -0.0010499244, 0.118559286, -265450.4, -115559.23, 0.0, 9.999566, 9.999141 
1.1750703e+3, 2.947062e+2, -147738.45, -191008.17, -19828.004, 0.0036815403, 0.20104046, -140026.81, -88134.766, 0.0, 9.999728, 9.999151 
1.1750784e+3, 3.0470416e+2, -105355.0, -122005.84, -28861.9, -0.0071458044, 0.07452762, -83641.75, -83641.75, 0.0, 9.999583, 9.999362 
1.1750863e+3, 3.1470424e+2, -98799.77, 13115.095, -20003.346, -0.017110491, 0.14424327, 16582.979, 16582.979, 0.0, 9.999059, 10.000544 
1.1849347e+3, 1.2470584e+2, -1647659.0, -1755918.1, -70630.055, -0.07804393, 0.07279151, -1612801.9, 105087.86, 0.001990702, 10.000795, 9.99933 
1.1849453e+3, 1.347055e+2, -1422034.8, -1558780.5, 4001.4385, 0.17651638, 0.070413135, -1421917.8, 197973.72, 0.0010523666, 10.001482, 9.999693 
1.18495114e+3, 1.44705e+2, -1362013.3, -1527610.5, 5085.7207, -0.0775941, 0.0736018, -1361857.1, 160039.3, 0.00035315592, 10.001443, 9.999243 
1.1849599e+3, 1.5470412e+2, -1383353.9, -1486548.5, -4500.7256, -0.0053182277, 0.0595426, -1383157.9, 40748.957, 0.000045623692, 10.000621, 9.999247 
1.1849683e+3, 1.6470364e+2, -1297483.0, -1337625.0, -24526.004, 0.030743591, 0.06255887, -1285862.1, 40050.176, 0.00000019883093, 10.000292, 9.999756 
1.1849757e+3, 1.747036e+2, -1162158.8, -1216850.0, -31047.629, 0.0065095387, 0.07729606, -1148131.3, 79781.11, 0.0, 10.000528, 9.999798 
1.18498325e+3, 1.8470336e+2, -1088324.4, -1183435.6, -26356.803, -0.0022039048, 0.098660536, -1081508.9, 48406.113, 0.0, 10.000589, 9.999324 
1.1849913e+3, 1.9470294e+2, -1008254.3, -1093397.1, -22812.889, 0.011860323, 0.12176761, -1002527.1, 29393.535, 0.0, 10.000463, 9.999331 
1.1849993e+3, 2.047023e+2, -927452.44, -977424.0, -20357.658, 0.011639877, 0.114216134, -920209.0, 13718.234, 0.0, 10.000231, 9.999566 
1.1850071e+3, 2.1470141e+2, -877677.4, -898589.56, -28376.938, -0.006182514, 0.06475121, -857891.44, -21956.639, 0.0, 9.999884, 9.999601 
1.1850149e+3, 2.247009e+2, -815591.6, -855210.44, -42593.13, -0.0053988164, 0.068857856, -788426.7, -50486.547, 0.0, 9.999799, 9.999268 
1.1850226e+3, 2.3470075e+2, -685848.0, -740305.75, -32955.023, 0.016740719, 0.12660597, -670328.25, -30385.314, 0.0, 10.000009, 9.999283 
1.1850303e+3, 2.4470031e+2, -582920.06, -621584.4, -27788.984, 0.016543593, 0.14646989, -568400.2, -26452.205, 0.0, 9.999965, 9.999446 
1.1850376e+3, 2.546995e+2, -530798.75, -542579.25, -34787.98, -0.008511188, 0.1160793, -501405.88, -57450.13, 0.0, 9.999636, 9.999474 
1.1850454e+3, 2.646987e+2, -457397.13, -472254.97, -28891.982, -0.009746346, 0.097737566, -434994.25, -89030.67, 0.0, 9.999536, 9.999332 
1.1850536e+3, 2.7469796e+2, -334366.8, -360158.25, -32796.727, 0.014457134, 0.088901564, -312021.56, -64050.203, 0.0, 9.999699, 9.99935 
1.1850616e+3, 2.8469756e+2, -267874.7, -300332.2, -23747.32, 0.016932203, 0.12459456, -255340.48, -105364.53, 0.0, 9.99958, 9.9991455 
1.1850696e+3, 2.946975e+2, -234369.27, -233044.64, -14439.692, -0.0027904515, 0.19773869, -219252.08, -167274.45, 0.0, 9.999134, 9.99915 
1.1850775e+3, 3.046955e+2, -181610.6, -162562.47, -23221.873, -0.0139008, 0.07629742, -146987.47, -146987.47, 0.0, 9.999076, 9.999328 
1.18508585e+3, 3.146956e+2, -27095.428, 68515.125, -41350.902, 0.007932956, 0.14914687, 83917.766, 83917.766, 0.0, 9.999461, 10.000729 
1.1949352e+3, 1.2469799e+2, -1647334.5, -1751147.0, -38236.617, -0.11157856, 0.113054655, -1634771.4, 83195.72, 0.0021913827, 10.000778, 9.99937 
1.19494714e+3, 1.3469686e+2, -1415813.5, -1546844.0, 30008.844, 0.21117343, 0.022399688, -1409267.9, 210707.78, 0.0011682742, 10.001486, 9.999774 
1.1949527e+3, 1.4469619e+2, -1363751.8, -1533722.6, -25648.975, -0.0576122, 0.009037869, -1359965.6, 162016.0, 0.00039982723, 10.001452, 9.999197 
1.1949605e+3, 1.5469614e+2, -1386896.4, -1494225.3, -35869.88, -0.019799564, 0.08148671, -1376012.3, 47972.355, 0.00005450218, 10.000621, 9.999195 
1.1949684e+3, 1.6469575e+2, -1309864.5, -1362683.1, -17413.963, 0.013346211, 0.10607449, -1304640.0, 21349.29, 0.00000035173326, 10.000289, 9.999585 
1.19497634e+3, 1.7469506e+2, -1174369.1, -1241903.5, -22305.002, 0.018650241, 0.072409905, -1167667.4, 60328.367, 0.0, 10.000526, 9.999626 
1.1949842e+3, 1.8469448e+2, -1082761.8, -1172311.0, -31664.438, 0.01264109, 0.06554286, -1072696.5, 57304.945, 0.0, 10.00059, 9.9994 
1.1949917e+3, 1.9469407e+2, -1002173.44, -1081163.0, -28204.656, 0.0033146867, 0.08050202, -993136.4, 38870.402, 0.0, 10.0004635, 9.999415 
1.1949994e+3, 2.0469368e+2, -942201.44, -1007868.56, -34391.586, -0.00042685604, 0.10329962, -927486.9, 6524.491, 0.0, 10.00023, 9.999358 
1.195007e+3, 2.1469332e+2, -892888.4, -930481.3, -42201.848, 0.00010952667, 0.12786101, -865486.3, -29471.1, 0.0, 9.999885, 9.999382 
1.1950148e+3, 2.2469269e+2, -797067.4, -816904.94, -36309.063, 0.008161724, 0.12060283, -769346.7, -31325.443, 0.0, 9.9998, 9.99953 
1.1950227e+3, 2.3469175e+2, -666787.8, -700328.0, -25176.734, 0.02604556, 0.0704679, -653307.25, -13277.571, 0.0, 10.000007, 9.999558 
1.1950303e+3, 2.4469121e+2, -594757.5, -645668.56, -39934.133, 0.022093626, 0.0726585, -572855.7, -30820.178, 0.0, 9.999962, 9.999282 
1.1950372e+3, 2.5469106e+2, -542988.4, -568100.94, -46833.914, -0.0057416647, 0.12660642, -507056.78, -63018.37, 0.0, 9.999636, 9.999299 
1.19504504e+3, 2.646905e+2, -464874.84, -487936.16, -23183.973, -0.005811818, 0.14543723, -450512.4, -104467.33, 0.0, 9.999536, 9.999225 
1.1950533e+3, 2.746895e+2, -342303.5, -375688.72, -26097.354, 0.023887094, 0.11950038, -328016.84, -79960.98, 0.0, 9.999694, 9.999246 
1.1950613e+3, 2.846889e+2, -251325.28, -265396.97, -39277.96, 0.022003336, 0.12911211, -218457.98, -68396.15, 0.0, 9.9995775, 9.999387 
1.1950686e+3, 2.946887e+2, -217552.45, -197682.36, -29112.713, -0.014567737, 0.16726893, -176856.14, -124793.21, 0.0, 9.999132, 9.999393 
1.19507656e+3, 3.0468675e+2, -210056.0, -221690.95, -8759.729, -0.027426112, 0.058436044, -205357.97, -205357.97, 0.0, 9.999075, 9.998922 
1.19508535e+3, 3.146868e+2, -42099.633, 38440.816, -24851.656, 0.018110279, 0.16601306, 45491.79, 45491.79, 0.0, 9.999456, 10.000525 
1.20493665e+3, 1.2468959e+2, -1529229.1, -1709274.4, -19049.752, -0.082389034, 0.090302095, -1527235.6, 190812.95, 0.0024090873, 10.0016575, 9.999231 
1.2049481e+3, 1.3468857e+2, -1504342.6, -1601352.0, 22994.227, 0.19448838, 0.023676421, -1499168.3, 120888.58, 0.0012942023, 10.000928, 9.999668 
1.20495334e+3, 1.4468792e+2, -1462002.9, -1562904.5, -38859.902, -0.103299625, 0.008225181, -1448771.9, 73290.94, 0.00045114366, 10.000699, 9.999359 
1.2049614e+3, 1.5468797e+2, -1304892.5, -1434840.8, -32671.652, -0.008203937, 0.07478465, -1297140.6, 126922.85, 0.00006471426, 10.001101, 9.999371 
1.20496936e+3, 1.6468754e+2, -1207229.9, -1341314.5, -3052.3228, 0.043514505, 0.09700874, -1207160.4, 118908.04, 0.00000057087306, 10.001116, 9.999332 
1.20497696e+3, 1.7468658e+2, -1167817.8, -1269080.6, -15853.214, 0.019766713, 0.064387366, -1165393.9, 62684.414, 0.0, 10.000703, 9.999354 
1.2049845e+3, 1.846859e+2, -1107682.8, -1182622.9, -32373.691, 0.002492807, 0.057312332, -1095634.5, 34451.152, 0.0, 10.000411, 9.999416 
1.2049921e+3, 1.9468549e+2, -1030079.2, -1090974.8, -33675.863, 0.0023319495, 0.07157524, -1015127.25, 16963.086, 0.0, 10.0002575, 9.999446 
1.2049996e+3, 2.046851e+2, -940354.6, -1012921.56, -33405.17, 0.005537, 0.09565609, -927318.75, 6776.0737, 0.0, 10.00027, 9.999304 
1.2050072e+3, 2.1468472e+2, -811538.44, -897855.9, -29564.68, 0.009158593, 0.12341153, -802383.25, 33715.934, 0.0, 10.000471, 9.999324 
1.2050149e+3, 2.2468404e+2, -723507.56, -782694.2, -31248.232, 0.011991772, 0.11537501, -710063.5, 28042.195, 0.0, 10.000308, 9.99952 
1.2050225e+3, 2.3468307e+2, -706252.44, -719513.56, -42467.844, 0.015917288, 0.060653284, -669900.7, -29786.184, 0.0, 9.999738, 9.999556 
1.2050299e+3, 2.4468249e+2, -661588.8, -679832.44, -58901.188, 0.016807562, 0.06368903, -611107.3, -68986.91, 0.0, 9.999513, 9.999264 
1.2050371e+3, 2.546824e+2, -538478.1, -567743.94, -54766.414, 0.013844957, 0.12358161, -496423.44, -52300.254, 0.0, 9.999676, 9.999282 
1.2050447e+3, 2.6468185e+2, -453131.5, -487767.7, -21776.883, 0.011253543, 0.14798003, -442626.06, -96496.18, 0.0, 9.999641, 9.999175 
1.2050527e+3, 2.7468085e+2, -390567.0, -404754.03, -20642.17, 0.009307352, 0.12762338, -375833.53, -127692.63, 0.0, 9.999387, 9.999194 
1.20506056e+3, 2.8468025e+2, -283628.78, -274666.44, -42102.813, 0.0058856294, 0.13586512, -236806.98, -86659.98, 0.0, 9.999329, 9.999442 
1.2050681e+3, 2.9468003e+2, -162307.72, -164482.31, -49235.867, 0.00082203734, 0.16395152, -114147.15, -61998.832, 0.0, 9.999484, 9.999451 
1.2050759e+3, 3.0467817e+2, -176369.69, -221731.48, -20731.408, -0.008156303, 0.06763421, -168322.52, -168322.52, 0.0, 9.999378, 9.9987755 
1.2050846e+3, 3.1467792e+2, -109816.22, 10983.496, -13731.909, 0.017398456, 0.16310237, 12524.805, 12524.805, 0.0, 9.998969, 10.000571 
1.2149392e+3, 1.2468068e+2, -1552018.3, -1757633.5, -36342.723, 0.010819932, 0.0032974721, -1545783.8, 172349.98, 0.002645014, 10.001661, 9.998898 
1.2149484e+3, 1.3468076e+2, -1525738.6, -1645642.8, -5839.0317, 0.12258585, 0.074581094, -1525454.9, 94679.695, 0.0014309159, 10.000925, 9.999366 
1.2149529e+3, 1.4468026e+2, -1436254.8, -1508057.5, -26254.408, -0.22017983, 0.072323814, -1427679.1, 94460.17, 0.00050734985, 10.000692, 9.999739 
1.2149629e+3, 1.5467972e+2, -1276345.0, -1375745.0, -17106.164, 0.02871795, 0.038793482, -1273483.5, 150659.31, 0.000076397075, 10.0011, 9.999777 
1.2149712e+3, 1.6467905e+2, -1231322.4, -1391938.4, -18753.521, 0.119957194, 0.033039257, -1229161.9, 96987.61, 0.0000008702971, 10.001118, 9.998984 
1.2149775e+3, 1.7467824e+2, -1194093.8, -1324178.0, -31959.432, 0.008423957, 0.05293612, -1186666.0, 41493.617, 0.0, 10.000704, 9.998976 
1.2149845e+3, 1.8467763e+2, -1110607.0, -1188388.3, -39478.348, -0.035106465, 0.07627908, -1094080.9, 36085.99, 0.0, 10.00041, 9.999377 
1.2149924e+3, 1.9467726e+2, -1031904.7, -1095089.4, -39848.043, 0.008423165, 0.09541119, -1012644.9, 19526.016, 0.0, 10.000258, 9.999417 
1.21500015e+3, 2.046766e+2, -933291.25, -998693.94, -27421.6, 0.028381098, 0.09018003, -923315.6, 10861.612, 0.0, 10.000271, 9.999401 
1.2150078e+3, 2.1467565e+2, -804764.1, -883239.3, -22659.598, 0.019154904, 0.050577696, -798691.2, 37495.11, 0.0, 10.000467, 9.999427 
1.2150151e+3, 2.24675e+2, -743895.2, -824241.8, -53006.18, 0.0044130753, 0.053146426, -717558.7, 20634.273, 0.0, 10.000304, 9.999237 
1.215022e+3, 2.346747e+2, -726715.75, -762483.3, -64273.367, -0.01499346, 0.09673449, -677884.5, -37687.55, 0.0, 9.999739, 9.99926 
1.2150293e+3, 2.4467424e+2, -652509.7, -661571.9, -54038.094, -0.0007626596, 0.11909689, -602813.0, -60610.727, 0.0, 9.999515, 9.999389 
1.21503726e+3, 2.5467357e+2, -528580.7, -547568.9, -48137.973, 0.050562095, 0.107769944, -489009.5, -44799.95, 0.0, 9.999677, 9.99942 
1.2150447e+3, 2.6467285e+2, -452318.66, -486251.56, -30571.938, 0.041867007, 0.10620066, -434320.78, -88103.266, 0.0, 9.999641, 9.999186 
1.2150518e+3, 2.7467212e+2, -390732.34, -403780.88, -28861.113, -0.03542764, 0.1126859, -367667.25, -119441.26, 0.0, 9.999381, 9.999204 
1.21505946e+3, 2.8467166e+2, -295968.25, -299668.4, -35880.02, -0.038165003, 0.14397794, -261890.66, -111659.45, 0.0, 9.999324, 9.999273 
1.215068e+3, 2.9467142e+2, -174652.56, -190204.0, -42664.156, 0.04509024, 0.18881969, -139061.33, -86827.69, 0.0, 9.999484, 9.999274 
1.2150758e+3, 3.0466968e+2, -164038.9, -196296.89, -34867.992, 0.045613073, 0.10548142, -141750.17, -141750.17, 0.0, 9.999379, 9.998949 
1.2150832e+3, 3.146691e+2, -86588.94, 62227.723, -25016.152, -0.005716147, 0.14529327, 66320.4, 66320.4, 0.0, 9.998957, 10.000929 
1.22494064e+3, 1.2467277e+2, -1581547.8, -1771796.6, -25022.13, -0.0015791595, -0.0035133737, -1578311.8, 139899.17, 0.002898859, 10.001459, 9.998897 
1.2249496e+3, 1.34673e+2, -1480377.1, -1623445.4, 14469.343, 0.13266757, 0.08540442, -1478928.4, 141281.78, 0.0015783015, 10.001238, 9.999366 
1.22495376e+3, 1.4467235e+2, -1387981.9, -1502473.0, 12685.752, -0.22457954, 0.07329829, -1386593.1, 135623.39, 0.0005682736, 10.001102, 9.9995775 
1.2249639e+3, 1.546715e+2, -1284894.6, -1399059.5, -21553.973, 0.021302126, 0.027425047, -1280960.8, 143262.39, 0.00008951281, 10.001125, 9.999603 
1.22497216e+3, 1.6467075e+2, -1238857.6, -1394066.8, -50395.07, 0.11186716, 0.020310983, -1223930.4, 102300.36, 0.0000012652538, 10.001059, 9.998998 
1.2249783e+3, 1.7467009e+2, -1165758.9, -1307236.8, -34574.887, 0.0039311466, 0.053179156, -1157761.5, 70477.766, 0.0, 10.000885, 9.999004 
1.2249851e+3, 1.846695e+2, -1061057.6, -1168623.8, -18532.791, -0.03506285, 0.07792565, -1057954.1, 72291.945, 0.0, 10.000769, 9.999339 
1.22499295e+3, 1.9466895e+2, -966605.94, -1068176.3, -20448.049, 0.010805478, 0.083630495, -962643.9, 69607.45, 0.0, 10.000727, 9.999376 
1.2250006e+3, 2.0466816e+2, -906487.4, -998253.4, -15998.696, 0.029279295, 0.07416709, -903778.1, 30480.836, 0.0, 10.000508, 9.9992895 
1.2250081e+3, 2.1466717e+2, -867735.8, -925481.0, -27700.912, 0.01558214, 0.041490987, -856596.3, -20327.2, 0.0, 10.000088, 9.999318 
1.22501515e+3, 2.2466652e+2, -800459.0, -856890.9, -60498.625, 0.0011005836, 0.051847033, -761920.0, -23643.855, 0.0, 9.999941, 9.999187 
1.22502185e+3, 2.3466627e+2, -677568.25, -744432.3, -54672.78, -0.013679799, 0.10409417, -646915.8, -6636.1255, 0.0, 10.0001, 9.99921 
1.2250291e+3, 2.4466574e+2, -581359.56, -634707.0, -37200.4, -0.0012185884, 0.12568729, -562258.2, -19972.422, 0.0, 10.000034, 9.999323 
1.22503676e+3, 2.546649e+2, -525753.75, -553122.75, -47242.676, 0.041400004, 0.10358363, -490253.53, -45958.656, 0.0, 9.999726, 9.999357 
1.2250442e+3, 2.6466414e+2, -460978.2, -482035.75, -38222.6, 0.034413163, 0.09965528, -431860.75, -85557.875, 0.0, 9.999546, 9.999259 
1.2250513e+3, 2.7466357e+2, -369128.2, -384510.56, -33335.895, -0.0290321, 0.111646935, -342607.72, -94298.19, 0.0, 9.999493, 9.999281 
1.2250588e+3, 2.846631e+2, -295302.03, -305432.34, -27943.15, -0.032805853, 0.1414443, -271968.7, -121653.94, 0.0, 9.999356, 9.999217 
1.22506715e+3, 2.946627e+2, -228195.67, -223080.56, -25679.752, 0.032179795, 0.17950456, -199831.33, -147512.38, 0.0, 9.999146, 9.999211 
1.225075e+3, 3.046612e+2, -215752.1, -217595.92, -26769.994, 0.034225635, 0.12032504, -189888.14, -189888.14, 0.0, 9.999008, 9.998981 
1.2250824e+3, 3.1466037e+2, -79743.16, 83575.49, -31152.07, 0.0149367675, 0.13251708, 89315.805, 89315.805, 0.0, 9.998925, 10.00109 
1.2349409e+3, 1.2466592e+2, -1558884.0, -1722447.5, -22859.473, -0.12713991, 0.07051295, -1555749.3, 162530.3, 0.0031684104, 10.001451, 9.99924 
1.2349518e+3, 1.3466541e+2, -1458628.6, -1578535.5, 5820.704, 0.22568735, 0.055375047, -1458346.8, 161935.9, 0.001735363, 10.001238, 9.999675 
1.2349559e+3, 1.4466424e+2, -1438754.4, -1608104.8, 11626.825, -0.11536539, 0.009962823, -1437959.9, 84333.984, 0.00063353236, 10.001102, 9.998853 
1.2349645e+3, 1.5466341e+2, -1338445.8, -1511313.6, -20994.447, -0.033555657, 0.040970933, -1335932.5, 88371.41, 0.00010392506, 10.001128, 9.998832 
1.23497225e+3, 1.6466269e+2, -1211707.1, -1337546.4, -57417.527, 0.014803335, 0.060099807, -1189446.6, 136865.23, 0.0000017603737, 10.001058, 9.999387 
1.2349791e+3, 1.7466217e+2, -1135238.1, -1244297.1, -41223.82, 0.0053791963, 0.06442839, -1121409.3, 106907.32, 0.0, 10.000886, 9.999436 
1.2349862e+3, 1.846615e+2, -1063965.1, -1174817.1, -21602.084, 0.0008208535, 0.059803285, -1059904.1, 70418.76, 0.0, 10.00077, 9.999297 
1.23499356e+3, 1.9466059e+2, -970686.75, -1076747.4, -22776.568, 0.008024797, 0.036154572, -966002.4, 66328.92, 0.0, 10.000726, 9.999318 
1.2350009e+3, 2.0465986e+2, -928678.25, -1044136.44, -32556.637, 0.0073120296, 0.048977446, -920130.75, 14208.627, 0.0, 10.000507, 9.998976 
1.23500794e+3, 2.1465935e+2, -890269.3, -972574.06, -44130.797, -0.0030243236, 0.09623604, -871080.6, -34733.51, 0.0, 10.000089, 9.998995 
1.2350152e+3, 2.2465867e+2, -787522.6, -830623.1, -56147.85, 0.00020413466, 0.111279, -748931.44, -10576.678, 0.0, 9.999943, 9.999368 
1.23502225e+3, 2.346578e+2, -663925.0, -716123.2, -48722.902, 0.018899817, 0.08264881, -634751.25, 5611.109, 0.0, 10.000099, 9.999406 
1.2350292e+3, 2.4465702e+2, -599832.75, -673000.2, -48805.527, 0.014809943, 0.083350345, -575421.8, -33051.39, 0.0, 10.000033, 9.999061 
1.2350359e+3, 2.5465637e+2, -545588.2, -593514.5, -58282.125, -0.016173072, 0.11067189, -506535.16, -62156.348, 0.0, 9.9997225, 9.999082 
1.2350432e+3, 2.646558e+2, -452599.63, -464274.7, -40011.78, -0.013729664, 0.12825952, -418001.78, -71616.086, 0.0, 9.999543, 9.999383 
1.2350513e+3, 2.746552e+2, -359140.38, -364631.9, -34397.684, 0.027695313, 0.12581478, -327379.03, -78987.74, 0.0, 9.999495, 9.999417 
1.2350587e+3, 2.8465456e+2, -289942.94, -295067.84, -35385.363, 0.02084399, 0.1298546, -257027.36, -106630.01, 0.0, 9.999359, 9.999287 
1.2350655e+3, 2.9465395e+2, -225201.73, -214225.03, -31738.42, -0.04253736, 0.13518366, -187503.92, -135099.92, 0.0, 9.999135, 9.999277 
1.2350731e+3, 3.0465275e+2, -227755.94, -240713.72, -28654.164, -0.04694915, 0.111651756, -204857.33, -204857.33, 0.0, 9.998999, 9.998828 
1.235082e+3, 3.1465188e+2, -85993.22, 69891.766, -30632.557, 0.07661995, 0.13747421, 75695.23, 75695.23, 0.0, 9.998927, 10.000996 
1.2449422e+3, 1.24658406e+2, -1573087.4, -1738782.3, -12602.339, -0.14050479, 0.08918435, -1572134.4, 146219.17, 0.0034511252, 10.001396, 9.999153 
1.24495335e+3, 1.3465755e+2, -1396289.9, -1562772.6, -32073.367, 0.24608769, 0.05145936, -1390324.6, 230035.33, 0.0019010409, 10.001729, 9.999546 
1.2449574e+3, 1.4465617e+2, -1361774.8, -1578690.3, -28759.963, -0.106172696, -0.004409615, -1358026.3, 164346.88, 0.0007028683, 10.001664, 9.998784 
1.2449654e+3, 1.5465552e+2, -1330840.1, -1514052.5, -8331.441, -0.05169549, 0.052270155, -1330462.0, 93919.58, 0.00011956255, 10.00121, 9.998773 
1.2449732e+3, 1.6465487e+2, -1219317.8, -1336680.9, -23586.758, -0.0069210776, 0.077528246, -1214754.9, 111633.93, 0.0000023468863, 10.000988, 9.999425 
1.2449801e+3, 1.746542e+2, -1112159.8, -1228855.6, -37648.316, 0.005604562, 0.06459116, -1101067.9, 127326.305, 0.0, 10.001027, 9.999474 
1.2449872e+3, 1.846534e+2, -1046502.1, -1180147.9, -38097.156, 0.007647586, 0.051291026, -1036404.94, 93996.8, 0.0, 10.000948, 9.999174 
1.24499425e+3, 1.946524e+2, -980633.06, -1095571.1, -44920.43, 0.005000619, 0.029677387, -965160.1, 67251.69, 0.0, 10.000719, 9.999191 
1.2450013e+3, 2.0465171e+2, -922321.7, -1038672.06, -49554.54, 0.0010517342, 0.05298257, -904076.94, 30342.648, 0.0, 10.000541, 9.998996 
1.2450082e+3, 2.146514e+2, -839871.7, -945595.9, -36230.758, -0.007185431, 0.11971542, -828647.4, 7777.605, 0.0, 10.0004225, 9.999019 
1.2450153e+3, 2.2465065e+2, -744935.56, -823997.6, -35322.645, -0.0018213703, 0.1313662, -731453.5, 6979.9404, 0.0, 10.000294, 9.999244 
1.2450225e+3, 2.3464936e+2, -663457.1, -729364.0, -52474.082, 0.019797292, 0.07269048, -634447.2, 5998.27, 0.0, 10.000162, 9.999284 
1.2450293e+3, 2.4464852e+2, -610639.3, -676106.3, -66323.99, 0.017145328, 0.0705475, -569411.0, -26956.521, 0.0, 9.999951, 9.999077 
1.2450357e+3, 2.5464818e+2, -556071.4, -596482.06, -55366.203, -0.013711305, 0.12645368, -517338.84, -72878.93, 0.0, 9.999641, 9.999101 
1.24504276e+3, 2.6464763e+2, -460684.84, -468033.03, -18542.941, -0.0137442835, 0.14989612, -445455.53, -98989.55, 0.0, 9.999487, 9.999384 
1.2450508e+3, 2.7464682e+2, -353311.78, -361506.0, -23070.62, 0.02140346, 0.12624022, -333977.28, -85504.125, 0.0, 9.999534, 9.999419 
1.2450581e+3, 2.846461e+2, -281984.16, -289381.75, -41982.258, 0.016052611, 0.11622497, -243538.08, -93057.75, 0.0, 9.999407, 9.999303 
1.24506466e+3, 2.9464546e+2, -237338.55, -218081.06, -45109.145, -0.035994474, 0.11827513, -181584.45, -129097.16, 0.0, 9.999043, 9.999293 
1.245072e+3, 3.0464458e+2, -247803.1, -253720.53, -26760.46, -0.047968823, 0.13048007, -223838.28, -223838.28, 0.0, 9.998877, 9.9987955 
1.2450807e+3, 3.1464347e+2, -81954.195, 69779.14, -16136.493, 0.053258616, 0.13061368, 71476.234, 71476.234, 0.0, 9.998964, 10.000977 
1.2549447e+3, 1.246503e+2, -1611084.0, -1818103.5, 11766.243, -0.039410565, 0.05277004, -1610417.5, 108014.62, 0.0037460001, 10.001396, 9.99861 
1.2549546e+3, 1.3464943e+2, -1437267.6, -1648905.0, -20856.146, 0.18950033, 0.07318617, -1435231.9, 185209.77, 0.0020748412, 10.001733, 9.998954 
1.254958e+3, 1.4464816e+2, -1319087.8, -1489997.1, -46840.414, -0.2031083, 0.028949289, -1307092.4, 215361.73, 0.00077620865, 10.001664, 9.999393 
1.2549669e+3, 1.546479e+2, -1284085.5, -1417450.8, -25407.016, -0.033344097, 0.06006096, -1279409.3, 145046.23, 0.00013646827, 10.001211, 9.999435 
1.2549746e+3, 1.646473e+2, -1242368.0, -1384294.1, -23768.443, 0.046341937, 0.07088616, -1238493.3, 87967.78, 0.0000030208696, 10.000986, 9.9991 
1.254981e+3, 1.7464624e+2, -1137141.9, -1281663.4, -36548.285, 0.0028816096, 0.054581165, -1128424.9, 100046.58, 0.0, 10.00103, 9.99911 
1.2549879e+3, 1.8464528e+2, -1060388.3, -1209233.6, -47236.65, -0.01640963, 0.053769045, -1046663.2, 83818.7, 0.0, 10.000949, 9.998974 
1.254995e+3, 1.9464438e+2, -994006.6, -1123702.3, -53996.215, 0.00025450758, 0.063553005, -974469.44, 58022.9, 0.0, 10.00072, 9.998999 
1.255002e+3, 2.0464376e+2, -898132.44, -988464.56, -55414.48, 0.008129308, 0.0846148, -871809.06, 62690.227, 0.0, 10.000541, 9.999341 
1.2550087e+3, 2.1464342e+2, -814398.9, -892558.8, -41331.793, 0.002357478, 0.11215661, -796596.9, 39905.383, 0.0, 10.000422, 9.999384 
1.2550154e+3, 2.2464253e+2, -774616.3, -885604.44, -41549.418, -0.0050751, 0.11267781, -760785.44, -22273.777, 0.0, 10.000294, 9.998821 
1.2550223e+3, 2.3464099e+2, -694982.1, -794574.06, -57613.207, -0.012383263, 0.074621536, -668627.44, -28098.932, 0.0, 10.00016, 9.9988365 
1.255029e+3, 2.4464022e+2, -590314.7, -633842.75, -77912.07, 0.0036086163, 0.08753055, -531183.94, 11353.642, 0.0, 9.99995, 9.999369 
1.2550358e+3, 2.5464028e+2, -533584.9, -550552.25, -66450.42, 0.046831865, 0.15140332, -475078.78, -30540.936, 0.0, 9.999643, 9.999415 
1.2550427e+3, 2.6463974e+2, -469013.6, -486032.63, -17065.225, 0.03255588, 0.16501518, -458453.94, -111910.62, 0.0, 9.99949, 9.999259 
1.2550496e+3, 2.7463853e+2, -363654.78, -381588.34, -19928.78, -0.049452204, 0.11294452, -350768.4, -102213.51, 0.0, 9.999527, 9.999285 
1.2550569e+3, 2.8463766e+2, -286783.47, -298109.34, -53894.926, -0.048672087, 0.10019089, -238254.78, -87691.195, 0.0, 9.9994, 9.999247 
1.2550646e+3, 2.9463723e+2, -240340.95, -225649.88, -57548.594, 0.047830977, 0.12967183, -174979.92, -122411.13, 0.0, 9.999048, 9.99924 
1.2550716e+3, 3.0463675e+2, -238921.86, -236279.66, -23716.781, 0.026771948, 0.17780286, -213847.2, -213847.2, 0.0, 9.99888, 9.998914 
1.2550785e+3, 3.1463516e+2, -79839.125, 78496.9, -8017.64, -0.058346115, 0.11999842, 78901.84, 78901.84, 0.0, 9.998945, 10.001046 
1.2649468e+3, 1.2464234e+2, -1480350.0, -1761916.5, 11935.479, -0.007720695, 0.04143529, -1479844.9, 238665.16, 0.0040529803, 10.002326, 9.998548 
1.264956e+3, 1.346416e+2, -1474820.8, -1679308.9, 297.2731, 0.17000714, 0.086915195, -1474820.3, 145698.56, 0.0022565385, 10.001528, 9.998843 
1.2649593e+3, 1.4464031e+2, -1380975.1, -1507693.6, -19036.148, -0.23598884, 0.040050887, -1378177.3, 144354.22, 0.0008535736, 10.001188, 9.9995 
1.2649682e+3, 1.5463997e+2, -1245161.0, -1387063.4, -39442.496, -0.02190571, 0.05133921, -1234934.6, 189598.13, 0.00015477135, 10.001429, 9.999539 
1.2649761e+3, 1.6463926e+2, -1181348.8, -1369356.0, -50955.668, 0.06775969, 0.05556091, -1168426.4, 158112.55, 0.0000038088367, 10.001468, 9.99897 
1.2649822e+3, 1.7463817e+2, -1111856.1, -1284330.0, -47173.41, -0.0010311336, 0.047477514, -1099796.9, 128753.52, 0.0, 10.001269, 9.998976 
1.2649888e+3, 1.846372e+2, -1049356.8, -1208446.0, -48777.07, -0.0274589, 0.05623832, -1035592.5, 94968.6, 0.0, 10.001046, 9.998932 
1.2649958e+3, 1.9463639e+2, -986500.1, -1124454.4, -45006.938, -0.0008895265, 0.075971864, -973115.44, 59455.58, 0.0, 10.000792, 9.998959 
1.2650025e+3, 2.0463566e+2, -875634.06, -974089.9, -43604.03, 0.009708444, 0.09035104, -859099.5, 75479.086, 0.0, 10.00068, 9.9993725 
1.2650093e+3, 2.1463512e+2, -767665.56, -866019.1, -54673.582, -0.00006879037, 0.09228898, -743306.25, 93277.12, 0.0, 10.000727, 9.999418 
1.2650158e+3, 2.2463429e+2, -746109.25, -869273.25, -62964.387, -0.011270444, 0.095834516, -719618.25, 18973.986, 0.0, 10.00048, 9.998843 
1.2650222e+3, 2.3463313e+2, -732521.1, -810600.4, -45644.56, -0.023111872, 0.09350718, -711498.1, -70892.28, 0.0, 9.999893, 9.998856 
1.2650289e+3, 2.4463242e+2, -624991.44, -650065.1, -45298.832, -0.0052831513, 0.11209589, -590526.6, -47912.19, 0.0, 9.999709, 9.999373 
1.2650357e+3, 2.546322e+2, -481503.56, -524333.94, -57439.223, 0.04597151, 0.14685984, -441617.25, 3000.0776, 0.0, 9.999997, 9.999425 
1.2650424e+3, 2.6463163e+2, -416732.94, -456576.16, -26209.79, 0.034254543, 0.15503788, -403733.06, -57110.023, 0.0, 9.99983, 9.999297 
1.2650488e+3, 2.7463064e+2, -420406.03, -404603.13, -17414.875, -0.050063774, 0.124043435, -393381.0, -144748.75, 0.0, 9.999119, 9.999323 
1.265056e+3, 2.8462985e+2, -351438.66, -328900.22, -26624.002, -0.05223911, 0.11335538, -311258.66, -160618.08, 0.0, 9.998954, 9.999249 
1.2650639e+3, 2.9462925e+2, -184065.53, -198531.55, -26191.041, 0.039400592, 0.12513532, -164127.11, -111479.586, 0.0, 9.999434, 9.99924 
1.2650706e+3, 3.046291e+2, -193305.84, -206266.64, -14636.636, 0.016372144, 0.20270312, -183779.16, -183779.16, 0.0, 9.99916, 9.998985 
1.2650768e+3, 3.146274e+2, -221148.67, 4904.92, -3503.548, -0.06264269, 0.12809864, 4959.2075, 4959.2075, 0.0, 9.997998, 10.000995 
1.2749486e+3, 1.2463461e+2, -1449791.1, -1697749.9, -5670.0903, -0.050152313, 0.057666864, -1449661.5, 268925.3, 0.0043717744, 10.002323, 9.99899 
1.2749578e+3, 1.3463414e+2, -1447213.3, -1622070.3, -30597.674, 0.18771397, 0.09242567, -1442013.6, 178577.13, 0.0024458782, 10.001529, 9.999235 
1.2749606e+3, 1.446327e+2, -1409829.5, -1568087.1, -12542.016, -0.20499888, 0.028635424, -1408841.6, 113762.69, 0.00093509414, 10.001188, 9.999086 
1.2749697e+3, 1.5463176e+2, -1277306.1, -1454792.0, -30462.879, -0.020085394, 0.026382621, -1272223.3, 152389.67, 0.00017466526, 10.001431, 9.999073 
1.2749775e+3, 1.6463085e+2, -1176703.4, -1359753.1, -58792.754, 0.05465402, 0.031172348, -1159446.9, 167174.92, 0.0000047674703, 10.001467, 9.999036 
1.2749834e+3, 1.7463003e+2, -1105113.3, -1270658.1, -55082.586, -0.0073375287, 0.042502973, -1088460.5, 140170.03, 0.0, 10.001269, 9.99907 
1.2749897e+3, 1.8462925e+2, -1041622.56, -1192199.1, -59404.758, -0.02795342, 0.05724851, -1021008.5, 109630.5, 0.0, 10.001044, 9.999044 
1.2749964e+3, 1.9462842e+2, -978359.2, -1107956.4, -55099.707, 0.0011427904, 0.067526706, -958099.94, 74547.484, 0.0, 10.000793, 9.999071 
1.2750031e+3, 2.0462753e+2, -895224.94, -1015076.1, -43272.754, 0.0059711374, 0.07095419, -881234.3, 53422.652, 0.0, 10.000681, 9.99909 
1.2750098e+3, 2.1462655e+2, -788720.7, -909352.1, -53392.16, -0.016352292, 0.060115084, -768483.9, 68183.914, 0.0, 10.000724, 9.999123 
1.275016e+3, 2.2462596e+2, -714521.5, -802985.2, -85226.33, -0.023566408, 0.080499634, -662732.6, 75942.08, 0.0, 10.000476, 9.9993 
1.2750222e+3, 2.3462579e+2, -698414.94, -740224.8, -67925.96, -0.01303949, 0.1291108, -648249.8, -7572.7534, 0.0, 9.999894, 9.999338 
1.2750284e+3, 2.4462515e+2, -644608.6, -691040.75, -35987.68, -0.01010224, 0.1441974, -624998.3, -82313.7, 0.0, 9.999709, 9.999092 
1.275035e+3, 2.5462398e+2, -503233.2, -568821.94, -45893.39, -0.016943686, 0.11358566, -479621.22, -34923.27, 0.0, 9.999993, 9.999122 
1.2750417e+3, 2.6462334e+2, -403477.0, -428608.66, -51001.23, -0.009550884, 0.120128594, -363516.4, -16811.45, 0.0, 9.999827, 9.999492 
1.2750487e+3, 2.7462327e+2, -404760.66, -373286.06, -43069.586, 0.01614373, 0.159355, -343168.7, -94463.62, 0.0, 9.999123, 9.999537 
1.2750554e+3, 2.8462264e+2, -346728.06, -319545.7, -9615.197, 0.0017738736, 0.15552014, -316488.38, -165777.25, 0.0, 9.998956, 9.999313 
1.2750623e+3, 2.946215e+2, -182184.67, -190980.63, -6553.2866, -0.061319694, 0.10549923, -178690.39, -125967.1, 0.0, 9.999418, 9.9993 
1.2750688e+3, 3.046216e+2, -194808.27, -206437.0, -54640.832, -0.07874837, 0.20555581, -145673.33, -145673.33, 0.0, 9.9991455, 9.998991 
1.275076e+3, 3.146203e+2, -233962.44, -23129.29, -41839.22, 0.032449253, 0.16576423, -15129.928, -15129.928, 0.0, 9.998004, 10.0008 
1.2849505e+3, 1.24626845e+2, -1489940.9, -1711044.9, 12232.251, -0.07492776, 0.053477954, -1489266.3, 229396.53, 0.004702038, 10.002022, 9.999043 
1.2849598e+3, 1.3462643e+2, -1361536.4, -1579943.1, -56460.28, 0.20334385, 0.093099035, -1347804.3, 272861.97, 0.0026428213, 10.002116, 9.999242 
1.2849626e+3, 1.4462492e+2, -1307913.3, -1532110.8, -33508.992, -0.17893814, 0.028073251, -1303012.1, 219668.23, 0.001020959, 10.001946, 9.998968 
1.2849712e+3, 1.546238e+2, -1272584.1, -1466297.4, -25629.924, -0.022756075, 0.020641886, -1269250.5, 155440.19, 0.00019628371, 10.001525, 9.998949 
1.2849787e+3, 1.6462286e+2, -1202995.5, -1369679.3, -42554.945, 0.04042002, 0.027844185, -1192759.6, 133940.34, 0.0000059623408, 10.001276, 9.99906 
1.2849846e+3, 1.7462222e+2, -1111398.4, -1270697.1, -44402.625, -0.0111181205, 0.05144003, -1099857.8, 128849.59, 0.0, 10.001214, 9.999096 
1.2849909e+3, 1.846214e+2, -1021540.06, -1175860.0, -53631.402, -0.02653574, 0.05983231, -1004732.06, 125983.67, 0.0, 10.001154, 9.999104 
1.2849975e+3, 1.9462036e+2, -929853.0, -1077718.5, -53846.17, 0.0011008901, 0.04163498, -912322.8, 120402.56, 0.0, 10.001098, 9.999132 
1.2850039e+3, 2.0461945e+2, -886246.7, -1021411.6, -41660.52, 0.0035933985, 0.044354953, -874437.75, 60297.484, 0.0, 10.00079, 9.998995 
1.2850101e+3, 2.1461868e+2, -873450.3, -961162.75, -38160.008, -0.02328734, 0.064639024, -859172.56, -22427.387, 0.0, 10.000191, 9.999023 
1.2850164e+3, 2.246182e+2, -776028.5, -812892.5, -68490.664, -0.027735975, 0.093182415, -723533.0, 15218.214, 0.0, 9.999969, 9.999476 
1.2850222e+3, 2.3461802e+2, -643336.5, -692344.56, -74067.26, -0.0063817156, 0.122975126, -589825.1, 50927.68, 0.0, 10.000182, 9.999528 
1.2850283e+3, 2.4461739e+2, -598275.4, -670176.9, -42487.652, -0.0073566795, 0.12809913, -578569.5, -35809.418, 0.0, 10.000034, 9.999079 
1.2850346e+3, 2.546162e+2, -581677.2, -609246.3, -31943.334, -0.034928836, 0.09845527, -560671.06, -115897.13, 0.0, 9.999466, 9.999098 
1.2850411e+3, 2.6461568e+2, -483007.28, -461285.22, -34644.99, -0.027694233, 0.11771505, -435838.72, -89058.8, 0.0, 9.999256, 9.999542 
1.285048e+3, 2.7461594e+2, -350491.4, -341140.78, -39615.496, 0.021014867, 0.18182862, -305925.7, -57148.313, 0.0, 9.999469, 9.999591 
1.2850547e+3, 2.8461534e+2, -307260.75, -289759.88, -10216.887, 0.011657064, 0.17005032, -285058.38, -134274.89, 0.0, 9.99918, 9.99941 
1.2850611e+3, 2.9461384e+2, -339115.4, -255385.42, -5455.312, -0.0662599, 0.0765304, -255031.48, -202232.9, 0.0, 9.998292, 9.9994 
1.2850672e+3, 3.046143e+2, -322875.63, -242873.84, -41390.74, -0.09213915, 0.19683261, -225313.78, -225313.78, 0.0, 9.998159, 9.999215 
1.2850742e+3, 3.146135e+2, -101818.484, 37354.7, -10238.446, 0.018258585, 0.18734056, 38103.87, 38103.87, 0.0, 9.998925, 10.000772 
1.2949525e+3, 1.24619156e+2, -1515219.4, -1764420.6, 26396.025, -0.084591426, 0.029169932, -1512454.1, 206282.75, 0.0050433725, 10.002024, 9.998676 
1.2949619e+3, 1.3461855e+2, -1389994.0, -1638365.1, -53779.637, 0.21516079, 0.088641696, -1378849.1, 241895.23, 0.0028472822, 10.002113, 9.998841 
1.2949647e+3, 1.4461705e+2, -1295259.9, -1505390.8, -50362.258, -0.1606899, 0.038035564, -1283813.1, 238945.83, 0.0011110725, 10.001944, 9.999153 
1.2949726e+3, 1.5461619e+2, -1256402.5, -1433646.0, -41583.258, -0.0311245, 0.034214742, -1247131.6, 177633.97, 0.000219555, 10.001528, 9.999171 
1.2949798e+3, 1.6461541e+2, -1204300.5, -1372957.0, -46082.12, 0.023079474, 0.045284033, -1192530.9, 134242.0, 0.0000074533, 10.001278, 9.999037 
1.2949859e+3, 1.7461476e+2, -1114011.9, -1276618.8, -47074.14, -0.013378512, 0.074178815, -1101367.4, 127412.96, 0.0, 10.001216, 9.999055 
1.2949921e+3, 1.8461372e+2, -1021497.75, -1175947.0, -56771.902, -0.024140611, 0.063885756, -1002875.2, 127915.43, 0.0, 10.001155, 9.999103 
1.2949985e+3, 1.9461223e+2, -929783.1, -1077465.8, -56393.816, -0.00262202, -0.001289813, -910711.56, 122092.88, 0.0, 10.001097, 9.999135 
1.2950046e+3, 2.0461145e+2, -880348.56, -1008784.9, -64651.74, -0.00034184, 0.010550459, -853441.44, 81371.6, 0.0, 10.000788, 9.999083 
1.2950104e+3, 2.1461152e+2, -866832.3, -947812.25, -61397.63, -0.021303395, 0.10521633, -833775.6, 3039.6375, 0.0, 10.000192, 9.999115 
1.2950164e+3, 2.2461104e+2, -782750.44, -827209.4, -62519.03, -0.02397293, 0.13341725, -738626.44, 195.06273, 0.0, 9.9999695, 9.999378 
1.2950225e+3, 2.3460989e+2, -650863.44, -707748.94, -65948.07, -0.004571454, 0.07577976, -607486.0, 33346.49, 0.0, 10.00018, 9.999424 
1.2950285e+3, 2.4460915e+2, -581418.75, -634551.7, -63007.363, 0.00064034364, 0.06430027, -539606.1, 3234.442, 0.0, 10.000031, 9.999326 
1.2950343e+3, 2.5460887e+2, -563454.44, -571777.9, -52890.598, -0.009717077, 0.10125783, -514562.1, -69717.06, 0.0, 9.999467, 9.999355 
1.2950404e+3, 2.6460874e+2, -489552.56, -475044.4, -27220.5, -0.021678166, 0.14737996, -454127.97, -107280.27, 0.0, 9.999256, 9.999448 
1.2950468e+3, 2.7460867e+2, -358974.53, -356880.63, -30145.82, -0.03644215, 0.19225131, -327763.6, -78914.79, 0.0, 9.99946, 9.999488 
1.2950535e+3, 2.8460783e+2, -299728.72, -273180.53, -40861.42, -0.023708584, 0.15778714, -243491.17, -92633.84, 0.0, 9.999174, 9.999527 
1.2950602e+3, 2.9460624e+2, -328804.7, -235245.06, -37451.97, 0.020123627, 0.039400585, -222099.92, -169226.77, 0.0, 9.998297, 9.9995365 
1.2950662e+3, 3.0460718e+2, -291220.28, -178274.39, -14331.214, -0.027365552, 0.1769463, -176484.34, -176484.34, 0.0, 9.998163, 9.999658 
1.2950718e+3, 3.1460714e+2, -95221.16, 57303.652, 23680.654, -0.107021116, 0.20361952, 60895.664, 60895.664, 0.0, 9.998899, 10.000922 
1.3049549e+3, 1.2461168e+2, -1442040.1, -1752711.5, 35525.91, -0.078043856, 0.023976661, -1438029.5, 280780.2, 0.0053935107, 10.002633, 9.998464 
1.3049638e+3, 1.3461088e+2, -1403533.4, -1671410.3, -45615.844, 0.20170708, 0.08706159, -1395978.6, 224841.56, 0.0030578757, 10.002137, 9.998603 
1.3049664e+3, 1.4460938e+2, -1301400.5, -1498002.3, -37631.938, -0.16989626, 0.044092257, -1294443.4, 228391.61, 0.0012046372, 10.001858, 9.999245 
1.3049744e+3, 1.546087e+2, -1202470.5, -1396177.8, -38184.156, -0.03185369, 0.04951718, -1195215.3, 229623.94, 0.000244213, 10.001849, 9.999274 
1.3049813e+3, 1.6460793e+2, -1151369.8, -1350423.9, -48308.676, 0.026333997, 0.056491487, -1140265.1, 186581.06, 0.000009295233, 10.001655, 9.99901 
1.304987e+3, 1.7460704e+2, -1110463.3, -1278006.5, -49024.16, -0.007574903, 0.06529953, -1097172.8, 131683.19, 0.0, 10.001254, 9.999026 
1.3049932e+3, 1.8460602e+2, -1051406.9, -1187933.0, -53688.344, -0.019466216, 0.05548176, -1032823.56, 98042.82, 0.0, 10.000939, 9.999125 
1.3049994e+3, 1.9460478e+2, -983500.75, -1100212.4, -52337.848, -0.0063865413, 0.015200625, -963468.75, 69409.19, 0.0, 10.000715, 9.999162 
1.3050053e+3, 2.0460412e+2, -906899.56, -1006903.56, -64996.25, -0.0029743852, 0.030876685, -874897.25, 59988.04, 0.0, 10.000543, 9.999213 
1.3050108e+3, 2.1460412e+2, -822398.9, -911274.6, -59340.742, -0.01136721, 0.10483525, -792701.44, 44186.105, 0.0, 10.000432, 9.99925 
1.3050164e+3, 2.2460358e+2, -756520.2, -826786.3, -48981.023, -0.012446236, 0.12480788, -731374.94, 7519.5186, 0.0, 10.000202, 9.999269 
1.3050224e+3, 2.3460238e+2, -709132.25, -748899.7, -54289.793, -0.004789002, 0.07344365, -671199.5, -30292.55, 0.0, 9.999837, 9.999307 
1.3050282e+3, 2.4460176e+2, -627793.3, -633658.3, -61533.4, -0.0023688767, 0.071335234, -569122.56, -26208.799, 0.0, 9.999613, 9.999534 
1.3050339e+3, 2.5460184e+2, -535778.94, -533740.25, -55183.61, -0.0053549674, 0.12114713, -479566.56, -34652.594, 0.0, 9.99955, 9.999577 
1.3050398e+3, 2.646017e+2, -485961.66, -473575.38, -22034.4, -0.019403566, 0.15810613, -456880.3, -109964.25, 0.0, 9.999283, 9.999445 
1.305046e+3, 2.7460128e+2, -459037.94, -406507.16, -18924.557, -0.047039524, 0.16740158, -400399.56, -151478.67, 0.0, 9.99878, 9.999474 
1.3050522e+3, 2.846005e+2, -374712.47, -300916.25, -32465.715, -0.03362096, 0.13432455, -288666.7, -137737.48, 0.0, 9.998625, 9.999601 
1.3050589e+3, 2.9459938e+2, -239171.47, -183305.7, -34164.203, 0.02679599, 0.05986283, -167108.78, -114168.586, 0.0, 9.998875, 9.999616 
1.3050646e+3, 3.046005e+2, -207184.89, -110029.81, -10746.212, -0.022141477, 0.19580321, -108855.38, -108855.38, 0.0, 9.998622, 9.999906 
1.30507e+3, 3.1460023e+2, -259356.17, -28783.117, 13496.0625, -0.12963174, 0.17108007, -27995.844, -27995.844, 0.0, 9.9978, 10.000861 
1.3149577e+3, 1.2460457e+2, -1446681.1, -1761530.6, 26886.729, -0.058141515, 0.0441071, -1444401.6, 274478.2, 0.0057480065, 10.002628, 9.998405 
1.3149656e+3, 1.3460349e+2, -1407889.3, -1681298.9, -64498.664, 0.16128132, 0.08753107, -1393437.6, 227455.27, 0.0032717513, 10.002141, 9.998533 
1.3149679e+3, 1.4460196e+2, -1301532.6, -1499498.1, -39491.98, -0.21013655, 0.045146834, -1293945.3, 228962.77, 0.0013003696, 10.0018635, 9.999232 
1.3149762e+3, 1.5460142e+2, -1204650.6, -1400356.4, -38794.145, -0.026385134, 0.06641996, -1197241.1, 227669.92, 0.00026992275, 10.001848, 9.999247 
1.3149832e+3, 1.6460048e+2, -1153895.4, -1355423.5, -63964.64, 0.04898346, 0.06153965, -1135307.5, 191612.03, 0.00001153221, 10.001653, 9.998977 
1.3149886e+3, 1.7459914e+2, -1111721.6, -1281198.1, -64380.01, 0.004740032, 0.025285857, -1090039.3, 138894.44, 0.0, 10.001256, 9.999004 
1.3149941e+3, 1.845983e+2, -1048006.2, -1181080.3, -63283.38, -0.015592687, 0.034731984, -1022717.5, 108225.11, 0.0, 10.000939, 9.999171 
1.315e+3, 1.9459806e+2, -979984.2, -1093405.1, -61328.44, -0.0108491285, 0.08988137, -953164.7, 79780.86, 0.0, 10.000716, 9.999208 
1.3150057e+3, 2.045975e+2, -894398.1, -981499.2, -70451.28, -0.0047128946, 0.10441213, -855123.4, 79828.32, 0.0, 10.000545, 9.999387 
1.3150114e+3, 2.1459654e+2, -810206.94, -885727.6, -63841.758, 0.004787775, 0.06438134, -773794.44, 63167.04, 0.0, 10.00043, 9.999427 
1.3150169e+3, 2.2459587e+2, -765750.7, -845276.3, -63376.4, 0.004199674, 0.06837844, -730696.06, 8273.536, 0.0, 10.000199, 9.999144 
1.3150223e+3, 2.345955e+2, -718958.4, -769454.5, -68239.24, -0.0076877526, 0.115010954, -671446.1, -30470.305, 0.0, 9.999837, 9.999166 
1.3150278e+3, 2.4459524e+2, -615506.94, -608193.7, -64488.094, -0.017012263, 0.14766707, -547258.6, -4278.9585, 0.0, 9.999612, 9.999709 
1.3150331e+3, 2.5459513e+2, -522885.6, -506214.63, -56760.773, -0.023507474, 0.1584224, -457180.56, -12200.151, 0.0, 9.999546, 9.999768 
1.3150391e+3, 2.645947e+2, -481213.94, -463386.38, -39629.008, -0.02278624, 0.1504264, -431681.03, -84696.4, 0.0, 9.99928, 9.9995165 
1.315045e+3, 2.745938e+2, -454187.22, -396884.94, -36530.11, -0.012696867, 0.108495526, -379110.47, -130117.055, 0.0, 9.998781, 9.99954 
1.315051e+3, 2.845933e+2, -372130.3, -296058.5, -23572.832, -0.019660305, 0.10023282, -289346.13, -138347.16, 0.0, 9.998626, 9.999635 
1.315057e+3, 2.945934e+2, -239320.23, -179487.0, -23004.95, -0.048625205, 0.13792968, -171664.63, -118665.12, 0.0, 9.998857, 9.99965 
1.3150626e+3, 3.045943e+2, -205971.36, -105240.375, -38760.32, -0.07966415, 0.2535386, -92052.38, -92052.38, 0.0, 9.9986105, 9.999945 
1.3150686e+3, 3.1459278e+2, -276814.88, -65927.48, -12011.992, -0.055221457, 0.09895197, -65245.49, -65245.49, 0.0, 9.997804, 10.000605 
1.3249603e+3, 1.2459753e+2, -1427837.1, -1743762.9, 29539.771, -0.06603879, 0.06681897, -1425098.9, 293850.7, 0.006102575, 10.00272, 9.998485 
1.3249677e+3, 1.3459629e+2, -1362131.6, -1649523.1, -60866.164, 0.14495821, 0.08604862, -1349772.4, 271190.78, 0.0034860687, 10.002417, 9.998618 
1.3249698e+3, 1.445947e+2, -1279334.4, -1497098.4, -25514.486, -0.2108909, 0.03594569, -1276385.0, 246593.75, 0.0013970501, 10.002052, 9.999157 
1.324978e+3, 1.5459414e+2, -1241439.8, -1427975.8, -29293.465, -0.020632733, 0.0638476, -1236947.6, 188034.86, 0.00029637254, 10.001638, 9.999158 
1.3249847e+3, 1.645932e+2, -1188623.5, -1370035.3, -53704.184, 0.0527604, 0.06320008, -1173917.4, 153073.9, 0.000014169166, 10.001406, 9.998995 
1.3249898e+3, 1.7459191e+2, -1092625.8, -1269312.3, -51862.68, 0.0012144765, 0.030982303, -1078527.5, 150477.42, 0.0, 10.001376, 9.999027 
1.3249952e+3, 1.8459117e+2, -1008992.7, -1154098.8, -51157.727, -0.020211631, 0.043507893, -992770.44, 138242.63, 0.0, 10.001172, 9.999245 
1.3250007e+3, 1.9459102e+2, -966270.5, -1078258.4, -47188.676, -0.011922259, 0.09894545, -949038.1, 83977.03, 0.0, 10.000773, 9.999285 
1.3250063e+3, 2.0459045e+2, -910228.25, -992252.3, -57133.957, -0.001170666, 0.112541266, -880910.56, 54110.68, 0.0, 10.000449, 9.999359 
1.3250118e+3, 2.1458946e+2, -844521.56, -905343.0, -67388.89, 0.014511979, 0.071402445, -800999.4, 36032.297, 0.0, 10.00021, 9.999398 
1.325017e+3, 2.2458884e+2, -790616.1, -842451.8, -70058.05, 0.011150832, 0.0760313, -741835.5, -2796.254, 0.0, 9.999966, 9.999275 
1.325022e+3, 2.3458864e+2, -726749.44, -757446.75, -54711.97, -0.014737511, 0.12530278, -685274.0, -44230.57, 0.0, 9.999716, 9.999307 
1.3250272e+3, 2.4458843e+2, -628678.9, -612660.4, -38322.17, -0.028782712, 0.15593167, -581519.44, -38472.98, 0.0, 9.999515, 9.999725 
1.3250326e+3, 2.5458828e+2, -547208.75, -516091.34, -45041.84, -0.029493578, 0.15888436, -483996.72, -38948.78, 0.0, 9.999373, 9.999783 
1.3250382e+3, 2.6458782e+2, -502215.84, -468873.6, -48331.17, -0.021176696, 0.14785688, -434419.1, -87366.945, 0.0, 9.999118, 9.9995575 
1.3250439e+3, 2.74587e+2, -459649.28, -395044.88, -48243.027, -0.00082823244, 0.10853881, -369288.3, -120228.15, 0.0, 9.998725, 9.99958 
1.3250495e+3, 2.845866e+2, -398138.84, -300807.63, -18277.826, -0.012816513, 0.10469285, -297488.4, -146423.77, 0.0, 9.998416, 9.999702 
1.3250554e+3, 2.9458678e+2, -327799.53, -213052.4, -16027.561, -0.06384308, 0.14754127, -210855.77, -157791.83, 0.0, 9.998212, 9.99973 
1.3250609e+3, 3.0458754e+2, -265166.6, -120643.3, -39312.746, -0.08805047, 0.23599942, -110641.72, -110641.72, 0.0, 9.99815, 10.000059 
1.3250668e+3, 3.1458625e+2, -221468.34, -54913.457, -5437.2314, -0.03648299, 0.09417078, -54736.145, -54736.145, 0.0, 9.998253, 10.0004635 
1.3349627e+3, 1.24590635e+2, -1413813.4, -1715072.4, 24383.277, -0.1074279, 0.09147686, -1411852.6, 307165.7, 0.0064544743, 10.002723, 9.998681 
1.3349701e+3, 1.3458936e+2, -1347071.1, -1616495.5, -72877.375, 0.15319052, 0.08409628, -1328621.6, 292408.88, 0.0036991173, 10.002411, 9.998847 
1.3349722e+3, 1.4458765e+2, -1289197.9, -1516560.6, -42025.508, -0.1732734, 0.017584695, -1281678.6, 241367.98, 0.0014937163, 10.002048, 9.999026 
1.3349797e+3, 1.5458691e+2, -1250660.5, -1447975.4, -44813.96, -0.016933331, 0.040786043, -1240959.4, 184093.78, 0.00032323142, 10.001641, 9.999019 
1.334986e+3, 1.6458614e+2, -1184359.6, -1361924.4, -56042.973, 0.034360245, 0.06074051, -1168150.9, 158910.1, 0.000017128494, 10.001409, 9.99905 
1.334991e+3, 1.7458545e+2, -1088396.6, -1260848.6, -53478.12, -0.01912318, 0.082215324, -1073159.3, 155909.9, 0.00000000003443261, 10.001377, 9.999085 
1.3349962e+3, 1.8458465e+2, -1001369.6, -1138706.5, -66810.62, -0.034453142, 0.08161229, -974230.9, 156846.47, 0.0, 10.001174, 9.999351 
1.3350016e+3, 1.9458367e+2, -958383.8, -1062336.3, -62647.516, -0.010912348, 0.04335443, -928958.3, 104127.98, 0.0, 10.000774, 9.999393 
1.3350068e+3, 2.0458305e+2, -926642.4, -1026262.5, -67501.44, 0.0055257534, 0.056308765, -892562.75, 42530.625, 0.0, 10.000449, 9.999126 
1.335012e+3, 2.1458289e+2, -862175.44, -941956.06, -77092.41, 0.016622923, 0.12454034, -815264.4, 21833.578, 0.0, 10.000209, 9.999147 
1.335017e+3, 2.2458251e+2, -762777.9, -784772.1, -80384.39, 0.0075048036, 0.14622675, -692641.9, 46461.316, 0.0, 9.999966, 9.999672 
1.3350216e+3, 2.3458181e+2, -697267.1, -695972.25, -63947.168, -0.026785284, 0.104966275, -632669.25, 8439.951, 0.0, 9.999714, 9.99973 
1.3350266e+3, 2.4458139e+2, -639820.56, -635086.4, -43921.914, -0.03908111, 0.097394586, -593467.8, -50354.137, 0.0, 9.999511, 9.999573 
1.3350321e+3, 2.5458127e+2, -560293.06, -542840.25, -49810.44, -0.024745326, 0.12346126, -500997.6, -55881.33, 0.0, 9.999371, 9.9996 
1.3350374e+3, 2.645811e+2, -501056.6, -466592.2, -62334.0, -0.01579318, 0.15034367, -419152.3, -72033.734, 0.0, 9.999118, 9.999573 
1.3350424e+3, 2.745809e+2, -458994.16, -391819.5, -61508.99, -0.014078836, 0.16665445, -355325.0, -106204.02, 0.0, 9.998716, 9.999607 
1.335048e+3, 2.8458038e+2, -393154.84, -289442.38, -25152.074, -0.016152564, 0.14773442, -283664.47, -132538.39, 0.0, 9.99841, 9.9997835 
1.3350539e+3, 2.9457968e+2, -321209.1, -199674.8, -22027.94, -0.020960085, 0.092811525, -195805.45, -142672.28, 0.0, 9.998212, 9.999822 
1.3350594e+3, 3.0458024e+2, -250285.31, -90487.82, -34815.656, -0.049890503, 0.14594668, -83231.875, -83231.875, 0.0, 9.998153, 10.000266 
1.3350648e+3, 3.1458065e+2, -223442.78, -54434.953, 3139.1423, -0.07870066, 0.15610793, -54376.668, -54376.668, 0.0, 9.998234, 10.000476 
1.3449652e+3, 1.2458369e+2, -1393027.6, -1705766.9, 41998.035, -0.121607825, 0.079694286, -1387485.9, 331600.4, 0.0068022367, 10.0028715, 9.998673 
1.3449726e+3, 1.3458252e+2, -1360767.4, -1620165.4, -78514.93, 0.15048079, 0.08121856, -1338853.6, 282243.56, 0.0039100754, 10.002305, 9.998873 
1.3449745e+3, 1.4458089e+2, -1295827.4, -1516607.9, -40679.242, -0.15659459, 0.01829125, -1288570.6, 234541.97, 0.0015897118, 10.001988, 9.999054 
1.3449815e+3, 1.5458016e+2, -1203571.9, -1422580.1, -32325.477, -0.01852051, 0.039947163, -1198900.4, 226218.97, 0.0003501717, 10.001954, 9.9990425 
1.3449873e+3, 1.6457939e+2, -1139178.6, -1336728.1, -39016.496, 0.022165768, 0.059036773, -1131752.0, 195375.02, 0.000020254476, 10.001704, 9.999081 
1.3449922e+3, 1.7457874e+2, -1109520.0, -1267406.4, -38426.11, -0.029876998, 0.08070627, -1100664.6, 128469.94, 0.0000000014653116, 10.001216, 9.999119 
1.3449971e+3, 1.8457794e+2, -1037878.4, -1159998.0, -55587.555, -0.03911323, 0.0795998, -1016365.3, 114777.586, 0.0, 10.000939, 9.999317 
1.3450025e+3, 1.9457692e+2, -942670.25, -1058349.5, -63571.934, -0.0057202196, 0.041297857, -914563.3, 118589.266, 0.0, 10.000899, 9.999361 
1.3450074e+3, 2.0457633e+2, -895566.3, -1005908.8, -68905.64, 0.010424625, 0.055675928, -862466.06, 72693.49, 0.0, 10.00064, 9.999174 
1.345012e+3, 2.1457624e+2, -870653.75, -940234.44, -56131.26, 0.008723025, 0.12559626, -839405.56, -2242.3264, 0.0, 10.000125, 9.9992 
1.3450168e+3, 2.2457589e+2, -781167.06, -786802.56, -51481.48, 0.002383387, 0.14626746, -732426.25, 6741.46, 0.0, 9.99981, 9.999732 
1.3450214e+3, 2.3457526e+2, -689502.8, -684596.94, -63692.473, -0.010921465, 0.101848185, -623310.2, 17862.904, 0.0, 9.999737, 9.999796 
1.3450262e+3, 2.445748e+2, -656843.06, -652800.56, -62171.99, -0.02076703, 0.09344032, -592617.0, -49439.094, 0.0, 9.999438, 9.999485 
1.3450311e+3, 2.545746e+2, -639616.44, -591374.56, -62502.688, -0.025666669, 0.12060355, -548499.94, -103317.984, 0.0, 9.998873, 9.999506 
1.3450362e+3, 2.6457447e+2, -562092.06, -486172.38, -59652.79, -0.024433121, 0.1498395, -453425.75, -106241.4, 0.0, 9.998659, 9.999659 
1.3450412e+3, 2.7457437e+2, -430486.72, -366746.72, -54990.336, -0.016755534, 0.17082816, -335058.6, -85873.586, 0.0, 9.998867, 9.999705 
1.3450466e+3, 2.8457397e+2, -358111.88, -277275.38, -32090.93, -0.0100496365, 0.15832195, -266084.88, -114895.734, 0.0, 9.998673, 9.99974 
1.3450523e+3, 2.9457325e+2, -354322.1, -220589.38, -40019.543, -0.0030609763, 0.1082939, -209528.38, -156331.8, 0.0, 9.998009, 9.999776 
1.3450576e+3, 3.0457348e+2, -288789.94, -90873.17, -36683.71, -0.034203332, 0.12191304, -84292.664, -84292.664, 0.0, 9.997811, 10.000428 
1.3450626e+3, 3.1457445e+2, -229089.69, -47909.207, -1067.3683, -0.0977624, 0.17265256, -47902.918, -47902.918, 0.0, 9.998157, 10.000558 
1.3549682e+3, 1.2457677e+2, -1408959.6, -1737993.8, 26461.26, -0.1104988, 0.031077202, -1406845.1, 312307.78, 0.007146109, 10.002866, 9.998455 
1.3549747e+3, 1.3457586e+2, -1372323.3, -1644223.4, -99809.98, 0.13424946, 0.07530985, -1339618.5, 281544.25, 0.0041188756, 10.002306, 9.998707 
1.3549764e+3, 1.4457445e+2, -1283902.1, -1492733.9, -43233.594, -0.16579315, 0.036243767, -1275305.5, 247870.86, 0.001684743, 10.001992, 9.999217 
1.3549834e+3, 1.5457393e+2, -1191514.9, -1397772.6, -34037.55, -0.026378943, 0.0631521, -1186043.0, 239137.27, 0.00037697863, 10.001954, 9.999213 
1.354989e+3, 1.6457304e+2, -1137792.5, -1334140.3, -57929.73, 0.015318636, 0.059483953, -1121975.4, 205213.31, 0.000023370363, 10.001704, 9.999099 
1.3549933e+3, 1.7457186e+2, -1107962.0, -1265050.4, -57106.844, -0.032646514, 0.025820537, -1089396.0, 139804.75, 0.0000000068048798, 10.00122, 9.999133 
1.3549982e+3, 1.8457109e+2, -1050193.3, -1185992.0, -58761.95, -0.037108663, 0.037438415, -1028296.8, 102912.45, 0.0, 10.00094, 9.999138 
1.3550034e+3, 1.9457082e+2, -955538.5, -1085345.3, -65617.94, 0.0023313633, 0.09226589, -928148.0, 105065.71, 0.0, 10.000899, 9.999176 
1.355008e+3, 2.0457032e+2, -871725.2, -957047.94, -88707.96, 0.012412981, 0.109494425, -815953.4, 119266.23, 0.0, 10.000642, 9.999509 
1.355012e+3, 2.1456957e+2, -845235.5, -887667.7, -76035.24, -0.01001786, 0.07552058, -787511.9, 49715.19, 0.0, 10.000125, 9.999561 
1.3550165e+3, 2.2456908e+2, -801141.44, -827882.75, -55792.953, -0.005417995, 0.07745631, -757139.4, -17907.063, 0.0, 9.999808, 9.999452 
1.3550216e+3, 2.3456895e+2, -711911.0, -730633.25, -66591.67, 0.030840354, 0.115568146, -654025.7, -12790.807, 0.0, 9.999734, 9.999481 
1.355026e+3, 2.4456869e+2, -657883.5, -654757.3, -82982.53, 0.024032973, 0.14283349, -573323.1, -30084.201, 0.0, 9.999436, 9.999473 
1.35503e+3, 2.5456828e+2, -639723.6, -591043.6, -82959.61, -0.033877797, 0.1499022, -528927.06, -83682.32, 0.0, 9.99887, 9.999511 
1.3550347e+3, 2.6456788e+2, -553129.7, -466912.53, -52315.277, -0.048344124, 0.14633235, -442232.94, -94983.7, 0.0, 9.998655, 9.999793 
1.3550402e+3, 2.745675e+2, -421145.25, -346821.34, -45793.332, -0.011209908, 0.12363729, -325008.38, -75756.305, 0.0, 9.998864, 9.999844 
1.3550454e+3, 2.8456736e+2, -369130.75, -300396.63, -54978.49, 0.0020982665, 0.1384102, -269927.5, -118673.65, 0.0, 9.998674, 9.99958 
1.3550502e+3, 2.945675e+2, -367888.3, -246818.4, -62888.184, -0.013596411, 0.19177897, -220064.16, -166809.73, 0.0, 9.998, 9.9996 
1.3550553e+3, 3.0456725e+2, -282802.0, -77055.83, -23854.447, -0.04418282, 0.16168514, -74326.33, -74326.33, 0.0, 9.997805, 10.000526 
1.3550608e+3, 3.145676e+2, -219067.78, -25421.633, 15620.646, -0.09733333, 0.13954797, -24169.674, -24169.674, 0.0, 9.998149, 10.000717 
1.3649711e+3, 1.24570586e+2, -1422211.3, -1749941.3, 46100.383, -0.11069758, 0.023695778, -1415850.0, 303363.06, 0.0074891904, 10.002798, 9.998406 
1.364977e+3, 1.345697e+2, -1321498.8, -1619024.0, -72732.7, 0.12018125, 0.07282599, -1304670.5, 316552.06, 0.0043270662, 10.002656, 9.998711 
1.3649787e+3, 1.4456828e+2, -1237020.1, -1477863.4, -14718.094, -0.16404428, 0.034435064, -1236124.1, 287112.44, 0.0017791736, 10.002349, 9.999147 
1.3649853e+3, 1.5456773e+2, -1212859.4, -1416831.0, -24331.703, -0.023873625, 0.06473179, -1209997.0, 215244.27, 0.00040358416, 10.001845, 9.999135 
1.3649906e+3, 1.645668e+2, -1157086.3, -1337983.0, -56230.797, 0.016740957, 0.059345715, -1141031.9, 186218.0, 0.000026350568, 10.001548, 9.999147 
1.3649948e+3, 1.7456561e+2, -1064465.8, -1237954.5, -53072.16, -0.030032348, 0.01954331, -1049518.3, 179743.44, 0.000000016360648, 10.001492, 9.999188 
1.3649993e+3, 1.8456489e+2, -1010382.44, -1171258.8, -47406.637, -0.038205367, 0.034906738, -997452.0, 133817.66, 0.0, 10.001233, 9.999099 
1.3650042e+3, 1.9456473e+2, -981019.56, -1102749.8, -43703.902, -0.011421217, 0.1029092, -966954.06, 66319.72, 0.0, 10.000746, 9.99913 
1.3650085e+3, 2.045642e+2, -897961.25, -963948.3, -72668.55, -0.0010717845, 0.116866425, -851146.94, 84133.0, 0.0, 10.000437, 9.999559 
1.3650124e+3, 2.1456327e+2, -810075.44, -864029.1, -83908.74, -0.0070881834, 0.061838824, -748913.56, 88374.63, 0.0, 10.0003395, 9.9996195 
1.3650165e+3, 2.2456276e+2, -770953.6, -820319.8, -67475.516, 0.00053059374, 0.060644384, -723788.25, 15505.396, 0.0, 10.000048, 9.999387 
1.3650212e+3, 2.3456272e+2, -748015.0, -756230.4, -60645.027, 0.023123581, 0.11609037, -691338.7, -50042.97, 0.0, 9.999522, 9.999408 
1.3650253e+3, 2.445625e+2, -683144.6, -669984.56, -65638.18, 0.013575543, 0.15169455, -610597.44, -67297.67, 0.0, 9.999278, 9.999444 
1.365029e+3, 2.5456202e+2, -568556.7, -559110.5, -69297.18, -0.033771917, 0.15523946, -494375.63, -49069.508, 0.0, 9.999372, 9.999487 
1.3650335e+3, 2.6456153e+2, -497543.38, -440138.3, -47551.395, -0.04202374, 0.14355905, -413298.34, -65986.74, 0.0, 9.99904, 9.99979 
1.3650388e+3, 2.7456105e+2, -517990.72, -393569.53, -52608.605, -0.004550013, 0.10956543, -374307.28, -124991.6, 0.0, 9.998202, 9.99984 
1.3650437e+3, 2.8456107e+2, -474145.8, -344009.16, -53127.1, 0.0025801556, 0.13766053, -325075.25, -173759.22, 0.0, 9.997925, 9.999641 
1.3650483e+3, 2.9456165e+2, -317827.06, -214643.39, -44509.953, -0.024184704, 0.22712056, -198096.75, -144784.34, 0.0, 9.99831, 9.999671 
1.3650532e+3, 3.0456102e+2, -237194.81, -59289.74, -3975.2852, -0.043660693, 0.15841633, -59200.957, -59200.957, 0.0, 9.9981365, 10.000488 
1.3650586e+3, 3.1456137e+2, -337851.7, -70636.65, 23126.18, -0.082900085, 0.14034776, -68649.96, -68649.96, 0.0, 9.99728, 10.000825 
1.3749738e+3, 1.2456516e+2, -1414919.8, -1734531.1, 41527.63, -0.12714945, 0.053244885, -1409612.1, 309654.5, 0.007836575, 10.002796, 9.998514 
1.3749796e+3, 1.3456419e+2, -1310381.0, -1594826.9, -78348.39, 0.10870846, 0.07672314, -1290228.4, 331047.25, 0.0045376513, 10.002652, 9.998878 
1.3749811e+3, 1.4456248e+2, -1257525.9, -1521116.6, -33863.875, -0.15183729, 0.015221437, -1253244.9, 270047.47, 0.001874079, 10.002351, 9.99885 
1.3749872e+3, 1.5456158e+2, -1234834.6, -1463144.4, -43432.156, -0.013068833, 0.042869262, -1226851.5, 198450.22, 0.00043006166, 10.001847, 9.9988165 
1.3749921e+3, 1.6456072e+2, -1151590.9, -1327089.5, -59803.523, 0.023345193, 0.057196382, -1133149.8, 194160.69, 0.000029160963, 10.00155, 9.999222 
1.3749962e+3, 1.7456007e+2, -1057573.0, -1224235.8, -55614.02, -0.022844793, 0.0627329, -1040719.4, 188597.28, 0.000000027808229, 10.001493, 9.999282 
1.3750003e+3, 1.845594e+2, -1003173.4, -1157098.4, -66188.99, -0.043722138, 0.0719804, -978626.25, 152697.56, 0.0, 10.001236, 9.999195 
1.3750045e+3, 1.9455865e+2, -973744.0, -1088440.1, -62582.734, -0.047630895, 0.07327089, -946207.44, 87125.01, 0.0, 10.000749, 9.999228 
1.3750087e+3, 2.0455797e+2, -914505.5, -998281.8, -77995.125, -0.030963335, 0.07858342, -867861.94, 67478.21, 0.0, 10.000437, 9.999325 
1.375013e+3, 2.1455741e+2, -828032.7, -900865.94, -87985.805, 0.015642857, 0.084155545, -769224.94, 68121.43, 0.0, 10.000337, 9.999368 
1.3750167e+3, 2.2455695e+2, -760698.5, -798476.2, -87393.266, 0.018088503, 0.094439216, -690176.06, 49175.45, 0.0, 10.000045, 9.999538 
1.3750201e+3, 2.3455663e+2, -735951.4, -731179.7, -80362.84, -0.03415385, 0.10389438, -653167.25, -11811.955, 0.0, 9.999521, 9.99958 
1.3750239e+3, 2.4455628e+2, -687400.6, -678426.6, -63122.574, -0.05214485, 0.12051378, -619631.75, -76271.75, 0.0, 9.999275, 9.999387 
1.3750285e+3, 2.5455585e+2, -574172.1, -569729.75, -65029.95, -0.0279165, 0.1380473, -506883.06, -61517.234, 0.0, 9.999366, 9.999416 
1.3750328e+3, 2.6455542e+2, -507358.06, -460346.06, -77151.164, -0.008615437, 0.14237218, -403199.53, -55828.23, 0.0, 9.999039, 9.999652 
1.375037e+3, 2.74555e+2, -527844.25, -414024.03, -82665.52, 0.0010455594, 0.12676917, -370573.06, -121197.05, 0.0, 9.998201, 9.999701 
1.3750415e+3, 2.8455505e+2, -455788.28, -305539.34, -39453.7, -0.010364733, 0.15454438, -295809.34, -144433.58, 0.0, 9.997923, 9.9999075 
1.3750464e+3, 2.9455566e+2, -298971.22, -173330.13, -27938.031, -0.03975299, 0.21934281, -167397.81, -114027.57, 0.0, 9.998301, 9.99996 
1.3750514e+3, 3.045548e+2, -249591.19, -84437.0, -32724.324, -0.03871445, 0.11646823, -78189.22, -78189.22, 0.0, 9.998133, 10.000318 
1.3750562e+3, 3.145556e+2, -333219.94, -60600.406, -6717.2373, -0.05920716, 0.15986644, -60434.996, -60434.996, 0.0, 9.997278, 10.000895 
1.3849767e+3, 1.2455976e+2, -1372656.5, -1727946.3, 57951.18, -0.13107668, 0.056661833, -1363443.0, 355876.22, 0.00819284, 10.003151, 9.998388 
1.3849823e+3, 1.3455872e+2, -1296927.1, -1595210.0, -81181.06, 0.104463086, 0.07965655, -1276264.3, 345065.0, 0.004753623, 10.002776, 9.998816 
1.3849835e+3, 1.4455688e+2, -1249991.3, -1520912.9, -41723.137, -0.13975963, 0.0108251115, -1243711.3, 279635.94, 0.001970775, 10.0024185, 9.998818 
1.3849892e+3, 1.5455598e+2, -1204981.1, -1452400.1, -31262.95, -0.01377168, 0.03896409, -1201092.0, 224265.0, 0.0004566524, 10.0020685, 9.998785 
1.384994e+3, 1.6455512e+2, -1121752.4, -1317393.4, -29146.957, 0.018242888, 0.057596304, -1117502.3, 209863.3, 0.00003186285, 10.001775, 9.999181 
1.3849978e+3, 1.745545e+2, -1049694.0, -1225296.1, -34908.652, -0.021178607, 0.07216344, -1043008.9, 186362.45, 0.000000039188958, 10.001569, 9.999239 
1.3850017e+3, 1.8455377e+2, -999499.2, -1157715.9, -66059.695, -0.041487206, 0.0785777, -975544.44, 155834.67, 0.0, 10.001271, 9.999173 
1.3850053e+3, 1.9455284e+2, -958025.3, -1082953.4, -72534.59, -0.05300974, 0.06468661, -924765.6, 108623.86, 0.0, 10.000867, 9.999208 
1.385009e+3, 2.0455216e+2, -912045.1, -1002326.6, -77847.266, -0.037308697, 0.07242539, -867197.6, 68199.77, 0.0, 10.000477, 9.999276 
1.385013e+3, 2.1455176e+2, -865436.06, -924727.3, -72745.984, 0.015499541, 0.09963211, -816527.0, 20875.188, 0.0, 10.000105, 9.999315 
1.3850167e+3, 2.2455129e+2, -787227.8, -810754.44, -71799.516, 0.018293707, 0.1106889, -726234.4, 13173.068, 0.0, 9.999861, 9.999542 
1.3850197e+3, 2.3455073e+2, -698926.6, -711699.1, -78456.45, -0.04076688, 0.0960639, -626596.94, 14816.319, 0.0, 9.999771, 9.999593 
1.3850233e+3, 2.4455033e+2, -653627.3, -655072.3, -60371.895, -0.059758954, 0.10442048, -593973.56, -50555.445, 0.0, 9.999479, 9.999449 
1.3850276e+3, 2.545501e+2, -631034.94, -589987.25, -52567.625, -0.03019569, 0.13256605, -554079.0, -108657.08, 0.0, 9.998946, 9.999478 
1.3850318e+3, 2.6454976e+2, -562666.75, -498003.72, -63030.24, -0.010045003, 0.14781672, -459496.4, -112069.8, 0.0, 9.998708, 9.999552 
1.3850355e+3, 2.745493e+2, -445110.1, -385969.6, -67869.19, -0.0034344518, 0.14267497, -341508.6, -92076.445, 0.0, 9.998821, 9.999594 
1.3850397e+3, 2.8454933e+2, -382753.66, -265097.56, -29759.785, -0.0131572, 0.16783375, -257998.5, -106565.93, 0.0, 9.998404, 9.999952 
1.3850442e+3, 2.945498e+2, -431999.0, -231076.48, -36733.406, -0.03581996, 0.21214114, -224571.34, -171143.64, 0.0, 9.997363, 10.000013 
1.3850492e+3, 3.0454865e+2, -405232.25, -177663.95, -40177.99, -0.025421843, 0.090466015, -170778.7, -170778.7, 0.0, 9.997145, 10.000153 
1.3850538e+3, 3.1454977e+2, -233852.3, 6159.601, -13601.496, -0.0525463, 0.18398634, 6927.9395, 6927.9395, 0.0, 9.997882, 10.001061 
1.3949798e+3, 1.2455442e+2, -1396582.8, -1778164.4, 44411.793, -0.12362938, 0.032195568, -1391481.9, 327888.7, 0.008561277, 10.003151, 9.998045 
1.394985e+3, 1.3455333e+2, -1318035.6, -1637992.5, -95071.07, 0.10491964, 0.08049445, -1291918.4, 329464.38, 0.004977431, 10.002772, 9.998524 
1.394986e+3, 1.4455155e+2, -1233866.1, -1487662.1, -55681.203, -0.13230331, 0.019427218, -1222187.5, 301213.38, 0.0020706747, 10.0024185, 9.999047 
1.3949911e+3, 1.5455094e+2, -1187207.4, -1415799.6, -44987.91, -0.026323551, 0.054494467, -1178672.3, 246734.03, 0.0004838168, 10.002069, 9.999035 
1.3949955e+3, 1.6455004e+2, -1132190.0, -1340455.1, -38238.09, 0.00054100656, 0.06260201, -1125391.4, 202023.47, 0.000034571214, 10.00178, 9.999021 
1.3949993e+3, 1.7454895e+2, -1061595.6, -1250923.0, -43053.184, -0.026259828, 0.04718008, -1052265.1, 177160.2, 0.00000005013657, 10.001572, 9.999062 
1.395003e+3, 1.8454807e+2, -1009436.56, -1178479.6, -81883.03, -0.033469122, 0.054404546, -976277.5, 155157.61, 0.0, 10.001271, 9.999031 
1.3950063e+3, 1.9454737e+2, -967611.7, -1103470.6, -88186.46, -0.028968, 0.077047475, -924225.1, 109219.375, 0.0, 10.000869, 9.999067 
1.3950096e+3, 2.0454678e+2, -902279.1, -982286.3, -92639.1, -0.022356391, 0.097122595, -841375.4, 94075.97, 0.0, 10.000478, 9.999414 
1.3950129e+3, 2.1454638e+2, -854691.3, -902911.94, -86982.41, -0.008025845, 0.10853746, -788539.5, 48915.598, 0.0, 10.000107, 9.999465 
1.3950163e+3, 2.2454582e+2, -797666.4, -832503.7, -76333.01, 0.00069254223, 0.10990643, -736789.8, 2671.2039, 0.0, 9.999861, 9.999393 
1.3950199e+3, 2.345451e+2, -710699.0, -735748.75, -81799.14, 0.0010942977, 0.09299649, -640471.4, 997.93414, 0.0, 9.999768, 9.99943 
1.3950232e+3, 2.4454471e+2, -641006.0, -628168.7, -79934.445, -0.012125499, 0.10300321, -554395.6, -10921.614, 0.0, 9.9994755, 9.999636 
1.3950264e+3, 2.5454473e+2, -617011.56, -560573.8, -72026.52, -0.041947782, 0.13784029, -511435.56, -65961.3, 0.0, 9.998944, 9.999681 
1.39503e+3, 2.6454452e+2, -567839.9, -508681.28, -58945.367, -0.04711388, 0.15881287, -472309.9, -124832.38, 0.0, 9.998706, 9.99948 
1.3950342e+3, 2.7454406e+2, -451743.5, -398564.22, -61825.582, -0.021951547, 0.16043799, -357852.97, -108369.195, 0.0, 9.998815, 9.999511 
1.395038e+3, 2.8454387e+2, -395268.06, -291293.6, -66116.516, -0.010562163, 0.18051277, -259173.36, -107687.18, 0.0, 9.998404, 9.999772 
1.395042e+3, 2.9454395e+2, -445327.6, -259547.31, -73998.45, -0.015146287, 0.20217288, -233675.72, -180190.48, 0.0, 9.997365, 9.999817 
1.3950466e+3, 3.045426e+2, -415495.84, -199708.8, -14129.062, -0.006012911, 0.07792379, -198787.6, -198787.6, 0.0, 9.997148, 10.0 
1.3950515e+3, 3.145439e+2, -217745.97, 43183.285, 15647.201, -0.06942557, 0.20302208, 44118.254, 44118.254, 0.0, 9.997866, 10.001324 
1.4049834e+3, 1.2454936e+2, -1388703.8, -1770224.9, 37919.715, -0.09199467, 0.027145673, -1384971.4, 334449.44, 0.008945781, 10.003188, 9.998082 
1.4049876e+3, 1.3454849e+2, -1322014.6, -1629702.0, -74011.43, 0.08857541, 0.088398345, -1305137.5, 316292.94, 0.0052122944, 10.002702, 9.998614 
1.4049885e+3, 1.4454669e+2, -1236083.8, -1497373.6, -20315.895, -0.14512712, 0.02476606, -1234513.6, 288935.0, 0.0021757921, 10.002441, 9.99897 
1.4049934e+3, 1.5454602e+2, -1137405.9, -1401432.6, -34804.19, -0.01904267, 0.062397216, -1132895.0, 292559.72, 0.0005121799, 10.002454, 9.998948 
1.4049974e+3, 1.6454503e+2, -1081307.0, -1315625.1, -45817.75, 0.0083844885, 0.06749692, -1072666.6, 254797.47, 0.000037386584, 10.00213, 9.999022 
1.4050007e+3, 1.7454389e+2, -1083955.8, -1260827.3, -38238.59, -0.03860042, 0.043609623, -1076042.8, 153432.38, 0.00000006103049, 10.001415, 9.999069 
1.405004e+3, 1.8454297e+2, -1054974.9, -1211103.5, -59046.78, -0.043981917, 0.0534198, -1035158.9, 96326.31, 0.0, 10.001005, 9.998935 
1.4050074e+3, 1.9454233e+2, -960092.25, -1111174.3, -62495.113, -0.014346515, 0.09149947, -937592.0, 95902.37, 0.0, 10.00097, 9.998965 
1.4050105e+3, 2.0454171e+2, -857626.25, -960232.4, -75263.63, -0.0066996934, 0.11261671, -817843.5, 117658.23, 0.0, 10.000782, 9.999419 
1.4050132e+3, 2.1454115e+2, -808291.75, -879004.1, -80753.984, -0.019763846, 0.10830908, -755493.1, 82013.54, 0.0, 10.000421, 9.999477 
1.4050162e+3, 2.2454058e+2, -775299.8, -826877.25, -67707.4, -0.014375598, 0.10906089, -728636.1, 10876.679, 0.0, 10.000037, 9.999347 
1.4050196e+3, 2.3453996e+2, -735398.94, -753702.2, -65158.598, 0.010524043, 0.10939316, -678752.44, -37232.207, 0.0, 9.999624, 9.999375 
1.4050229e+3, 2.4453962e+2, -662894.8, -638044.56, -68554.97, 0.002863934, 0.12487254, -580797.9, -37273.277, 0.0, 9.999322, 9.999641 
1.4050256e+3, 2.5453955e+2, -586120.6, -544780.3, -76538.39, -0.04368754, 0.14918679, -486170.06, -40644.676, 0.0, 9.999152, 9.99969 
1.4050287e+3, 2.6453924e+2, -554118.6, -498907.72, -63938.723, -0.05561604, 0.15790384, -456869.63, -109340.25, 0.0, 9.998787, 9.999508 
1.4050326e+3, 2.7453867e+2, -540308.2, -437460.2, -59325.527, -0.02598188, 0.14705126, -410373.38, -160837.0, 0.0, 9.998193, 9.999542 
1.4050363e+3, 2.8453854e+2, -452689.9, -329788.8, -58024.957, -0.011798543, 0.17243713, -306722.7, -155184.06, 0.0, 9.998056, 9.999675 
1.4050397e+3, 2.9453874e+2, -292864.03, -198556.86, -60509.504, -0.013552069, 0.21808492, -168997.6, -115460.95, 0.0, 9.998464, 9.999707 
1.4050442e+3, 3.045373e+2, -308271.72, -165967.52, -1247.0442, 0.005376777, 0.102269, -165956.58, -165956.58, 0.0, 9.99796, 9.999841 
1.4050487e+3, 3.14538e+2, -419788.9, -30233.266, 22767.691, -0.059480388, 0.17760907, -28907.117, -28907.117, 0.0, 9.996375, 10.001538 
1.414987e+3, 1.24544606e+2, -1360481.0, -1710669.1, 16739.635, -0.040470604, 0.037827216, -1359682.6, 359786.94, 0.009352543, 10.003186, 9.998492 
1.41499e+3, 1.3454427e+2, -1290221.8, -1562697.0, -92420.445, 0.055591136, 0.10575879, -1261831.9, 359639.75, 0.0054630674, 10.002699, 9.999077 
1.4149904e+3, 1.445424e+2, -1261651.9, -1551808.6, -21680.477, -0.1788662, 0.03008979, -1260040.9, 263448.78, 0.002288969, 10.002446, 9.998594 
1.4149961e+3, 1.5454125e+2, -1166655.8, -1462293.8, -34409.805, 0.005429475, 0.062238768, -1162703.5, 262798.5, 0.00054253166, 10.002454, 9.998531 
1.4149998e+3, 1.6454017e+2, -1070409.1, -1293428.0, -72535.64, 0.038384702, 0.07178616, -1048893.1, 278619.88, 0.000040406845, 10.0021305, 9.999174 
1.4150019e+3, 1.7453934e+2, -1070516.9, -1234197.4, -65563.07, -0.05911239, 0.061281934, -1047493.75, 182026.78, 0.00000007226826, 10.00142, 9.99925 
1.4150047e+3, 1.8453854e+2, -1058048.8, -1218517.8, -62382.39, -0.07502831, 0.07557979, -1036650.8, 94878.125, 0.0, 10.001009, 9.998882 
1.4150085e+3, 1.9453777e+2, -964362.3, -1120746.5, -64066.52, -0.009685156, 0.1081274, -941467.75, 92071.19, 0.0, 10.000972, 9.9988985 
1.4150113e+3, 2.0453697e+2, -866626.4, -979012.2, -89250.68, 0.009115773, 0.119213164, -817352.06, 118196.15, 0.0, 10.000782, 9.99929 
1.4150135e+3, 2.1453612e+2, -817430.94, -898005.8, -94657.05, -0.02155793, 0.09862772, -754844.5, 82712.1, 0.0, 10.00042, 9.999348 
1.415016e+3, 2.2453557e+2, -772134.25, -819548.25, -83632.74, -0.02972304, 0.10709665, -708913.4, 30649.271, 0.0, 10.000033, 9.999399 
1.415019e+3, 2.345354e+2, -730987.6, -744940.6, -80422.68, -0.012984944, 0.14478108, -657239.4, -15673.69, 0.0, 9.999625, 9.999435 
1.415022e+3, 2.4453507e+2, -675188.7, -664042.1, -75120.13, -0.015172147, 0.16925564, -594288.8, -50719.09, 0.0, 9.999323, 9.999463 
1.4150247e+3, 2.5453457e+2, -599878.4, -572719.0, -82059.25, -0.037738778, 0.1684146, -503123.38, -57548.49, 0.0, 9.999148, 9.999501 
1.4150277e+3, 2.645339e+2, -545773.5, -481631.53, -84917.63, -0.038664974, 0.14707308, -422930.53, -75348.625, 0.0, 9.998786, 9.999627 
1.415031e+3, 2.7453315e+2, -531059.8, -418338.66, -80322.414, -0.01784923, 0.10099648, -376575.8, -126985.67, 0.0, 9.998192, 9.999675 
1.4150342e+3, 2.8453323e+2, -452643.03, -329628.56, -43169.51, -0.01875697, 0.141574, -315990.94, -164400.89, 0.0, 9.998055, 9.999677 
1.415038e+3, 2.9453415e+2, -295112.1, -201398.7, -42601.113, -0.03585922, 0.26253644, -184927.64, -131346.17, 0.0, 9.998455, 9.999692 
1.4150421e+3, 3.0453286e+2, -321300.38, -193131.89, -56005.38, 0.0031814256, 0.16809449, -172108.02, -172108.02, 0.0, 9.997959, 9.999656 
1.4150454e+3, 3.1453192e+2, -410854.88, -12442.935, -37671.473, -0.02675003, 0.10059015, -8912.232, -8912.232, 0.0, 9.996378, 10.001658 
1.4249901e+3, 1.24540426e+2, -1395787.9, -1730131.0, 52393.16, -0.04322593, 0.05408243, -1387770.0, 331741.3, 0.009788863, 10.002952, 9.998472 
1.424993e+3, 1.3454e+2, -1217082.0, -1524700.8, -87153.61, 0.05984991, 0.11199926, -1194105.9, 427407.5, 0.0057347612, 10.003194, 9.999101 
1.4249933e+3, 1.4453802e+2, -1190533.6, -1521205.5, -31732.055, -0.16477619, 0.02320616, -1187516.1, 336016.5, 0.0024130836, 10.002954, 9.998559 
1.4249983e+3, 1.5453684e+2, -1215571.6, -1490453.1, -18122.783, -0.0032220432, 0.056708172, -1214382.0, 211163.3, 0.0005758784, 10.002137, 9.99849 
1.4250018e+3, 1.6453578e+2, -1134618.1, -1332758.0, -45313.387, 0.027762577, 0.074304156, -1124747.0, 202809.36, 0.00004378684, 10.001726, 9.999099 
1.4250037e+3, 1.7453502e+2, -1018104.9, -1217400.8, -58286.23, -0.046870474, 0.078833014, -1002310.2, 227253.47, 0.00000008454083, 10.001818, 9.999173 
1.4250062e+3, 1.8453418e+2, -966984.75, -1162622.5, -60127.41, -0.062727444, 0.08795444, -949982.75, 181589.44, 0.0, 10.001584, 9.998988 
1.4250092e+3, 1.9453326e+2, -956189.94, -1103376.1, -48614.926, -0.024724174, 0.09260718, -941582.4, 92000.03, 0.0, 10.000972, 9.999017 
1.4250119e+3, 2.045324e+2, -911413.25, -1017897.7, -65427.516, -0.008905295, 0.09911552, -880302.06, 55289.953, 0.0, 10.000549, 9.999135 
1.425014e+3, 2.145316e+2, -838672.3, -927361.56, -74355.14, -0.014752856, 0.10172328, -796442.5, 41158.32, 0.0, 10.000356, 9.999177 
1.4250162e+3, 2.2453104e+2, -761733.25, -814943.9, -69517.93, -0.019339683, 0.11779881, -713903.44, 25703.932, 0.0, 10.000106, 9.999396 
1.4250186e+3, 2.3453075e+2, -706346.9, -732157.0, -71702.97, -0.02449956, 0.14373162, -646396.9, -4785.781, 0.0, 9.999791, 9.999443 
1.4250211e+3, 2.4453035e+2, -658687.7, -655871.2, -59596.28, -0.030923167, 0.15895474, -597666.5, -54050.883, 0.0, 9.999434, 9.999465 
1.4250238e+3, 2.545298e+2, -616912.7, -580274.44, -52407.652, -0.03706126, 0.15240085, -543076.44, -97455.336, 0.0, 9.999028, 9.999506 
1.4250267e+3, 2.6452917e+2, -554101.44, -491075.4, -55373.2, -0.02760366, 0.13761675, -458876.1, -111248.375, 0.0, 9.998752, 9.999579 
1.4250295e+3, 2.7452856e+2, -469743.53, -394867.44, -65744.89, -0.003730031, 0.110562086, -356648.38, -107013.36, 0.0, 9.998636, 9.999623 
1.4250325e+3, 2.8452855e+2, -430917.0, -302803.53, -27567.133, -0.013079762, 0.14254539, -297123.53, -145488.23, 0.0, 9.998133, 9.999824 
1.4250356e+3, 2.945293e+2, -470929.78, -269052.38, -16256.955, -0.051730257, 0.22523364, -267751.63, -214123.33, 0.0, 9.997176, 9.999843 
1.4250396e+3, 3.045284e+2, -485431.66, -287785.38, -29340.686, -0.0012580805, 0.16931036, -283521.7, -283521.7, 0.0, 9.996901, 9.999514 
1.4250427e+3, 3.1452727e+2, -253026.69, 68462.37, -12731.788, 0.008171603, 0.099875525, 68965.79, 68965.79, 0.0, 9.997439, 10.001703 
1.4349924e+3, 1.24536864e+2, -1426951.9, -1794611.5, 57833.957, -0.100021176, 0.0733824, -1418069.1, 301476.34, 0.010261075, 10.002948, 9.998032 
1.4349966e+3, 1.345358e+2, -1246067.1, -1583671.4, -77930.94, 0.09703818, 0.1068382, -1228946.1, 392609.22, 0.0060308045, 10.00319, 9.998694 
1.4349969e+3, 1.4453357e+2, -1169996.8, -1479353.5, -61552.965, -0.10813008, 0.0035349906, -1158199.4, 365377.5, 0.002550165, 10.002956, 9.998846 
1.4350002e+3, 1.5453282e+2, -1192166.5, -1442557.3, -49242.793, -0.0457233, 0.046116818, -1182830.3, 242753.73, 0.00061331474, 10.002139, 9.998818 
1.435003e+3, 1.6453192e+2, -1155548.6, -1377402.3, -44694.69, -0.024162367, 0.07661739, -1146882.9, 180710.58, 0.000047750204, 10.00173, 9.99879 
1.4350058e+3, 1.7453095e+2, -1041770.0, -1267081.0, -55131.2, -0.003367603, 0.096053824, -1029003.3, 200600.89, 0.00000010052836, 10.00182, 9.998831 
1.4350083e+3, 1.8452992e+2, -948361.75, -1124191.8, -82898.055, -0.009147004, 0.09053052, -915441.56, 216173.0, 0.0, 10.001584, 9.999253 
1.4350098e+3, 1.9452879e+2, -934963.44, -1060299.6, -72001.12, -0.061081126, 0.04427274, -902177.6, 131447.02, 0.0, 10.000975, 9.999312 
1.4350118e+3, 2.04528e+2, -924308.8, -1044840.75, -73990.52, -0.06335338, 0.051724926, -889146.3, 46486.63, 0.0, 10.000549, 9.99895 
1.4350145e+3, 2.1452764e+2, -853167.4, -958118.06, -81607.125, -0.00018682447, 0.11734197, -808620.1, 29019.006, 0.0, 10.000358, 9.998965 
1.4350167e+3, 2.2452699e+2, -766038.44, -824192.4, -81594.78, 0.01630172, 0.14068551, -708494.5, 31152.322, 0.0, 10.000106, 9.999333 
1.4350185e+3, 2.3452607e+2, -710542.94, -740788.9, -83354.42, -0.025351984, 0.10720088, -640950.7, 705.5347, 0.0, 9.999789, 9.999385 
1.4350204e+3, 2.4452543e+2, -645784.1, -628681.1, -74658.77, -0.046960182, 0.094925925, -562085.7, -18423.45, 0.0, 9.999432, 9.999654 
1.4350228e+3, 2.545252e+2, -603266.2, -551693.75, -66940.93, -0.043312605, 0.10038872, -505744.22, -60080.25, 0.0, 9.999026, 9.999704 
1.4350253e+3, 2.6452503e+2, -568438.75, -520878.63, -59283.324, -0.02332026, 0.12813716, -480783.78, -133116.95, 0.0, 9.998751, 9.999375 
1.4350282e+3, 2.7452493e+2, -485954.3, -427807.03, -68177.164, 0.014253492, 0.1774697, -382763.2, -133092.61, 0.0, 9.9986315, 9.999399 
1.4350307e+3, 2.8452465e+2, -411776.16, -263671.56, -60876.36, 0.0018275756, 0.17777665, -241861.06, -90187.11, 0.0, 9.998135, 10.0000925 
1.4350328e+3, 2.945241e+2, -451446.97, -228731.83, -50526.33, -0.0646993, 0.10502468, -217805.23, -164127.97, 0.0, 9.997175, 10.00012 
1.4350364e+3, 3.0452386e+2, -490208.84, -297165.28, -10592.379, -0.010511833, 0.1048042, -296585.8, -296585.8, 0.0, 9.996898, 9.999451 
1.4350405e+3, 3.1452417e+2, -256233.7, 63427.074, 7043.0073, 0.0408614, 0.18219975, 63582.176, 63582.176, 0.0, 9.997434, 10.001672 
1.444996e+3, 1.2453311e+2, -1307178.8, -1748286.4, 59805.902, -0.09536575, 0.057770554, -1299214.0, 420367.7, 0.01077456, 10.003835, 9.997921 
1.4449996e+3, 1.3453215e+2, -1281694.0, -1609739.4, -50274.76, 0.09637021, 0.10869609, -1274162.1, 347429.0, 0.00635403, 10.002984, 9.998613 
1.4449996e+3, 1.445299e+2, -1230224.8, -1509907.5, -33791.734, -0.10162445, 0.007899088, -1226199.9, 297413.2, 0.0027018294, 10.00255, 9.998831 
1.4450024e+3, 1.545291e+2, -1121956.4, -1409372.9, -47223.258, -0.04492749, 0.047444057, -1114396.4, 311224.25, 0.0006557922, 10.002626, 9.99881 
1.445005e+3, 1.6452815e+2, -1067660.3, -1335120.1, -42597.574, -0.025464904, 0.07439805, -1061039.8, 266590.56, 0.000052490832, 10.002337, 9.998786 
1.4450076e+3, 1.7452714e+2, -1071643.9, -1282112.3, -28968.342, -0.0022674093, 0.08894901, -1067729.5, 161911.8, 0.00000012546444, 10.001618, 9.998824 
1.4450097e+3, 1.8452609e+2, -1014233.1, -1160470.0, -56546.86, -0.0040243594, 0.08372033, -994918.56, 136733.27, 0.0, 10.001152, 9.999211 
1.445011e+3, 1.9452499e+2, -934881.44, -1065191.3, -72113.22, -0.05262462, 0.045549195, -902848.5, 130813.266, 0.0, 10.000998, 9.999267 
1.4450125e+3, 2.0452419e+2, -886885.2, -1019978.7, -73614.29, -0.058566187, 0.05102948, -854197.2, 81472.875, 0.0, 10.000777, 9.999011 
1.4450149e+3, 2.1452375e+2, -830672.3, -939661.06, -60796.91, -0.006808686, 0.102505, -803521.75, 34154.582, 0.0, 10.000481, 9.999032 
1.4450167e+3, 2.2452305e+2, -765402.06, -831832.44, -53829.863, 0.008726867, 0.120806046, -735364.56, 4319.7104, 0.0, 10.000145, 9.999262 
1.4450182e+3, 2.3452209e+2, -720592.4, -754653.6, -57905.188, -0.0224446, 0.09287267, -677265.3, -35571.242, 0.0, 9.999759, 9.999305 
1.4450198e+3, 2.4452145e+2, -647747.8, -627097.56, -55653.92, -0.039281897, 0.08089799, -580819.06, -37118.664, 0.0, 9.999407, 9.999677 
1.4450218e+3, 2.545212e+2, -590573.9, -542714.4, -62136.83, -0.03795942, 0.079868175, -500058.72, -54356.164, 0.0, 9.9991, 9.999731 
1.445024e+3, 2.6452112e+2, -569473.5, -511781.84, -49514.69, -0.023940187, 0.11485994, -483323.34, -135619.27, 0.0, 9.998702, 9.999461 
1.4450265e+3, 2.7452135e+2, -543497.56, -445042.84, -35580.066, 0.0037715281, 0.18718061, -433530.8, -183826.31, 0.0, 9.998193, 9.999492 
1.4450286e+3, 2.8452098e+2, -453519.47, -294168.5, -34516.31, -0.005996779, 0.17976797, -287013.34, -135304.64, 0.0, 9.997892, 9.999999 
1.4450303e+3, 2.9451996e+2, -361306.47, -197798.92, -55161.023, -0.0547963, 0.06520168, -180930.1, -127212.484, 0.0, 9.997847, 10.0000105 
1.4450336e+3, 3.045202e+2, -408858.22, -236632.66, -10374.702, 0.0028889556, 0.11250491, -236009.95, -236009.95, 0.0, 9.997365, 9.999641 
1.4450374e+3, 3.1452075e+2, -400882.94, 7317.705, 23736.842, 0.039307218, 0.19229026, 8693.365, 8693.365, 0.0, 9.996383, 10.001791 
1.4550003e+3, 1.2452924e+2, -1292858.6, -1718917.9, 23121.34, -0.033916228, 0.00718607, -1291607.5, 428011.72, 0.011332716, 10.003839, 9.998121 
1.4550021e+3, 1.3452911e+2, -1266377.4, -1577382.0, -82124.875, 0.057959568, 0.11808858, -1246023.4, 375596.6, 0.006706996, 10.002983, 9.998837 
1.4550018e+3, 1.4452702e+2, -1251872.6, -1555548.9, -34327.875, -0.14470828, 0.03841998, -1248040.6, 275600.0, 0.002869533, 10.002552, 9.998517 
1.4550056e+3, 1.5452574e+2, -1145365.4, -1458219.1, -44536.832, -0.0037273366, 0.060489625, -1139148.8, 286505.8, 0.00070392614, 10.002628, 9.998474 
1.4550078e+3, 1.6452456e+2, -1046949.6, -1293400.3, -69199.73, 0.019630665, 0.068063386, -1028848.8, 298817.6, 0.000058062662, 10.002341, 9.999071 
1.4550088e+3, 1.745236e+2, -1048573.4, -1235554.0, -56247.902, -0.044846654, 0.057280533, -1032957.0, 196717.64, 0.00000016567238, 10.001623, 9.999142 
1.4550103e+3, 1.8452272e+2, -1038487.25, -1211715.4, -64263.92, -0.049545985, 0.067961395, -1017250.25, 114433.41, 0.0, 10.001155, 9.998858 
1.4550124e+3, 1.9452187e+2, -961459.94, -1121574.9, -77943.125, -0.00024520812, 0.09586107, -929784.06, 103909.51, 0.0, 10.001002, 9.9988785 
1.455014e+3, 2.0452097e+2, -865660.0, -976291.0, -85341.12, 0.004652018, 0.09618782, -819275.4, 116427.84, 0.0, 10.000778, 9.9993105 
1.455015e+3, 2.1451996e+2, -806906.06, -890697.9, -72118.81, -0.03616823, 0.057250656, -765397.0, 72315.305, 0.0, 10.000481, 9.999369 
1.4550163e+3, 2.2451924e+2, -771235.3, -843409.8, -68580.016, -0.044747114, 0.05827003, -729827.4, 9892.156, 0.0, 10.000142, 9.999184 
1.455018e+3, 2.3451887e+2, -727243.56, -768713.8, -71985.266, -0.01678423, 0.10003413, -673066.56, -31342.135, 0.0, 9.99976, 9.999208 
1.4550197e+3, 2.4451838e+2, -657893.3, -648470.06, -67042.71, -0.008207684, 0.11537907, -585973.6, -42243.45, 0.0, 9.999407, 9.999531 
1.455021e+3, 2.5451773e+2, -601416.0, -564852.44, -72643.18, -0.022292137, 0.09153544, -508225.9, -62489.277, 0.0, 9.999097, 9.999581 
1.4550227e+3, 2.6451752e+2, -543859.2, -458086.78, -67513.04, -0.031664457, 0.09929168, -420990.25, -73250.95, 0.0, 9.998699, 9.999832 
1.4550243e+3, 2.7451783e+2, -516258.22, -387676.47, -53360.18, -0.037284493, 0.13971631, -368417.22, -118680.38, 0.0, 9.998188, 9.999887 
1.4550263e+3, 2.8451762e+2, -483867.7, -357201.2, -35822.004, -0.03762083, 0.1473637, -347772.38, -196032.67, 0.0, 9.997891, 9.999567 
1.4550285e+3, 2.945168e+2, -395352.72, -268849.53, -54799.99, -0.024491822, 0.10550517, -248412.4, -194663.27, 0.0, 9.997847, 9.999523 
1.4550312e+3, 3.0451742e+2, -378182.06, -173820.94, -44205.582, 0.034683276, 0.19345915, -164668.66, -164668.66, 0.0, 9.997368, 10.000072 
1.4550334e+3, 3.1451717e+2, -386826.63, 37406.9, -15225.576, -0.000104844425, 0.14784001, 37952.637, 37952.637, 0.0, 9.996378, 10.002 
1.4650041e+3, 1.2452644e+2, -1323289.5, -1736895.1, 42492.996, -0.026701303, 0.013557432, -1318969.0, 400677.56, 0.011933639, 10.003643, 9.998092 
1.4650054e+3, 1.3452612e+2, -1175183.6, -1535744.5, -77108.54, 0.054422695, 0.10801498, -1159385.6, 462263.25, 0.0070893364, 10.003626, 9.998815 
1.4650047e+3, 1.4452401e+2, -1150694.5, -1514313.9, -25940.553, -0.14467144, 0.029570708, -1148853.3, 374816.6, 0.0030533436, 10.003286, 9.998445 
1.4650081e+3, 1.5452287e+2, -1159538.1, -1473255.1, -17700.004, 0.00028531646, 0.07432487, -1158542.6, 267140.25, 0.0007578694, 10.002566, 9.998401 
1.46501e+3, 1.6452168e+2, -1086848.3, -1308974.6, -46552.13, 0.022343902, 0.083890334, -1077486.6, 250208.11, 0.00006440502, 10.002052, 9.999103 
1.4650105e+3, 1.7452054e+2, -1020574.06, -1217574.4, -55796.887, -0.05112391, 0.048873164, -1005868.3, 223836.11, 0.00000022299002, 10.001798, 9.99918 
1.4650117e+3, 1.8451957e+2, -989432.6, -1190785.3, -54269.914, -0.054568302, 0.052973785, -975737.0, 155976.89, 0.0, 10.001506, 9.998833 
1.4650136e+3, 1.9451888e+2, -938778.25, -1114082.9, -41154.008, 0.007835266, 0.09669773, -929597.8, 104125.26, 0.0, 10.001174, 9.998846 
1.465015e+3, 2.0451804e+2, -863059.7, -972224.1, -48887.52, 0.015777247, 0.105231844, -844367.0, 91365.11, 0.0, 10.000785, 9.999335 
1.4650154e+3, 2.1451704e+2, -828370.5, -898223.94, -59844.176, -0.035622522, 0.065856986, -794006.56, 43734.15, 0.0, 10.000322, 9.999393 
1.4650163e+3, 2.2451629e+2, -795968.06, -854691.9, -62587.09, -0.04940485, 0.060712386, -756197.7, -16449.56, 0.0, 9.9999695, 9.999189 
1.4650176e+3, 2.3451579e+2, -728350.94, -768501.3, -59469.227, -0.020126741, 0.088109836, -685659.9, -43905.6, 0.0, 9.999749, 9.999214 
1.465019e+3, 2.445153e+2, -658089.56, -655236.1, -50021.375, -0.008480601, 0.10712253, -606621.1, -62861.14, 0.0, 9.999435, 9.999471 
1.4650203e+3, 2.5451487e+2, -620180.44, -580804.5, -49774.242, -0.01780571, 0.109205894, -546965.94, -101200.92, 0.0, 9.998999, 9.999518 
1.4650214e+3, 2.6451457e+2, -557956.4, -461425.1, -55499.055, -0.028590992, 0.11367706, -436139.97, -88371.91, 0.0, 9.998588, 9.999862 
1.4650224e+3, 2.7451453e+2, -510524.25, -381085.25, -69996.82, -0.04255251, 0.114183396, -350472.84, -100704.46, 0.0, 9.998211, 9.999923 
1.465024e+3, 2.8451428e+2, -485603.4, -351058.53, -39552.938, -0.043232948, 0.112970114, -340292.4, -188521.1, 0.0, 9.997849, 9.99963 
1.4650261e+3, 2.9451385e+2, -439483.72, -283009.9, -18404.395, -0.021093667, 0.104342856, -280874.34, -227097.28, 0.0, 9.997515, 9.999585 
1.4650285e+3, 3.0451483e+2, -411456.16, -176786.08, -17299.203, 0.036115713, 0.2192373, -175517.69, -175517.69, 0.0, 9.997083, 10.000188 
1.4650297e+3, 3.145141e+2, -379724.28, 15840.361, -21977.52, -0.0039300895, 0.11250406, 17057.684, 17057.684, 0.0, 9.996534, 10.001776 
1.4750074e+3, 1.2452478e+2, -1340143.0, -1772511.0, 36286.465, -0.07069463, 0.080245845, -1337118.8, 382544.25, 0.012570755, 10.003644, 9.997848 
1.4750095e+3, 1.3452326e+2, -1192697.3, -1572190.9, -77820.24, 0.08143188, 0.07826805, -1177359.1, 444317.9, 0.0074969246, 10.003628, 9.998562 
1.4750083e+3, 1.445209e+2, -1139408.3, -1492548.9, -52504.34, -0.107428156, -0.018052759, -1131767.3, 391933.0, 0.00325146, 10.003293, 9.998591 
1.4750104e+3, 1.5452056e+2, -1147233.9, -1447864.4, -44849.1, -0.03360133, 0.08906337, -1140685.8, 285019.44, 0.0008173103, 10.002567, 9.998574 
1.4750116e+3, 1.645196e+2, -1102073.3, -1341625.4, -58442.62, -0.018162478, 0.12298686, -1088575.8, 239139.34, 0.000071419374, 10.002056, 9.998878 
1.4750126e+3, 1.7451794e+2, -1036876.75, -1253014.9, -65693.6, -0.022672031, 0.06331177, -1018476.2, 211254.27, 0.0000002932695, 10.001804, 9.998934 
1.4750135e+3, 1.8451673e+2, -968174.6, -1147705.0, -67277.87, -0.021716626, 0.038484894, -945760.94, 185981.4, 0.0, 10.00151, 9.999126 
1.4750144e+3, 1.94516e+2, -915770.1, -1067385.6, -53801.277, -0.029591488, 0.048250932, -898618.75, 135131.2, 0.0, 10.001178, 9.999166 
1.4750153e+3, 2.0451541e+2, -880981.7, -1009475.7, -66704.41, -0.027215349, 0.07841636, -852615.75, 83140.75, 0.0, 10.000784, 9.999081 
1.475016e+3, 2.1451503e+2, -848068.0, -939859.94, -77155.55, -0.006517938, 0.12716508, -804189.7, 33571.766, 0.0, 10.000324, 9.999106 
1.4750168e+3, 2.2451419e+2, -790549.25, -843363.4, -71651.36, -0.0062243235, 0.12648308, -740593.7, -823.5103, 0.0, 9.999969, 9.999269 
1.4750174e+3, 2.3451284e+2, -721674.6, -754728.94, -67299.04, -0.03319516, 0.05793713, -668903.1, -27119.738, 0.0, 9.999749, 9.99931 
1.4750183e+3, 2.4451222e+2, -656504.5, -651294.2, -65798.305, -0.0417963, 0.057079542, -588049.5, -44259.723, 0.0, 9.999432, 9.999499 
1.4750192e+3, 2.5451252e+2, -618883.9, -577436.7, -65221.14, -0.026278974, 0.13242207, -529725.9, -83938.25, 0.0, 9.998996, 9.999543 
1.4750202e+3, 2.645123e+2, -579455.9, -506456.16, -68725.69, -0.015580524, 0.15687008, -465139.2, -117348.75, 0.0, 9.998588, 9.999554 
1.475021e+3, 2.7451146e+2, -533644.06, -429037.97, -82395.46, -0.0139440745, 0.11064089, -383746.84, -133947.73, 0.0, 9.998209, 9.999595 
1.4750221e+3, 2.84511e+2, -447850.84, -271846.97, -51248.27, -0.02595082, 0.07812998, -258012.16, -106208.75, 0.0, 9.997846, 10.000175 
1.4750235e+3, 2.9451108e+2, -399528.38, -198499.97, -29256.277, -0.0460797, 0.06209349, -194328.77, -140527.27, 0.0, 9.997508, 10.000169 
1.4750254e+3, 3.045124e+2, -423423.3, -201934.19, -36129.625, 0.006893303, 0.18902043, -196189.66, -196189.66, 0.0, 9.997083, 10.000016 
1.4750266e+3, 3.1451175e+2, -424534.22, -78755.41, -43732.12, 0.022563111, 0.109106176, -73310.17, -73310.17, 0.0, 9.99654, 10.001124 
1.4850113e+3, 1.2452262e+2, -1252964.3, -1734279.9, 45011.043, -0.0867292, 0.06763118, -1248791.1, 470892.3, 0.01324157, 10.004273, 9.997806 
1.485013e+3, 1.3452114e+2, -1194568.3, -1579697.5, -51475.754, 0.08790255, 0.07613242, -1187806.8, 433890.6, 0.0079274075, 10.003645, 9.998502 
1.4850117e+3, 1.4451882e+2, -1160272.3, -1495903.3, -29937.875, -0.09433806, -0.015301073, -1157622.8, 366097.47, 0.0034623703, 10.00312, 9.998651 
1.4850129e+3, 1.5451838e+2, -1118498.4, -1425308.9, -30355.93, -0.04134164, 0.07485819, -1115523.8, 310201.75, 0.00088177144, 10.002728, 9.998651 
1.4850138e+3, 1.6451742e+2, -1065575.0, -1332721.8, -32692.742, -0.024798188, 0.10670845, -1061632.3, 266103.25, 0.00007901186, 10.002347, 9.998797 
1.4850147e+3, 1.7451584e+2, -1015879.2, -1253165.0, -29131.695, -0.004037628, 0.062726386, -1012355.06, 217395.88, 0.00000037325287, 10.001993, 9.998841 
1.4850153e+3, 1.8451461e+2, -955026.94, -1135174.4, -37257.09, -0.0031376297, 0.041832473, -947625.75, 184137.14, 0.0, 10.001574, 9.999182 
1.4850155e+3, 1.9451389e+2, -926517.7, -1065197.3, -43959.848, -0.042280912, 0.04284097, -913757.06, 120013.3, 0.0, 10.001074, 9.999229 
1.4850157e+3, 2.0451331e+2, -893145.56, -1015934.75, -54927.406, -0.046726305, 0.07149793, -872161.06, 63615.676, 0.0, 10.000704, 9.999074 
1.4850165e+3, 2.1451297e+2, -824512.56, -929666.25, -45532.207, -0.0039349534, 0.12592334, -807537.25, 30244.314, 0.0, 10.000492, 9.999095 
1.485017e+3, 2.2451216e+2, -766937.56, -834000.1, -33653.22, 0.006447771, 0.12959146, -752962.1, -13172.047, 0.0, 10.00014, 9.999249 
1.4850171e+3, 2.3451082e+2, -743266.9, -767746.8, -38871.08, -0.025647067, 0.06419308, -714754.2, -72951.164, 0.0, 9.999613, 9.999286 
1.4850175e+3, 2.4451014e+2, -690722.0, -667037.75, -42290.96, -0.03686752, 0.059602514, -634962.2, -91152.48, 0.0, 9.999195, 9.999505 
1.4850181e+3, 2.5451034e+2, -631242.9, -582733.9, -44591.137, -0.020604653, 0.1221985, -556227.7, -110419.14, 0.0, 9.998909, 9.999548 
1.4850187e+3, 2.6451007e+2, -586677.7, -523514.97, -42135.234, -0.009963245, 0.14605804, -502439.34, -154627.28, 0.0, 9.998598, 9.999432 
1.4850193e+3, 2.7450922e+2, -535660.56, -444459.7, -41577.37, -0.010517488, 0.11272698, -428350.5, -178529.23, 0.0, 9.998259, 9.999464 
1.4850199e+3, 2.845088e+2, -450880.44, -244263.34, -20261.055, -0.0215115, 0.07844292, -242295.28, -90470.34, 0.0, 9.997702, 10.000434 
1.4850208e+3, 2.9450896e+2, -472647.7, -202824.47, -23842.527, -0.03574058, 0.04430559, -200733.86, -146912.97, 0.0, 9.996874, 10.000443 
1.4850222e+3, 3.0451033e+2, -491695.63, -211702.61, -13387.635, 0.011006347, 0.14861996, -211063.95, -211063.95, 0.0, 9.996515, 10.000222 
1.4850233e+3, 3.1451008e+2, -408937.94, -89743.53, 7484.017, 0.026727589, 0.09312713, -89568.16, -89568.16, 0.0, 9.996729, 10.000957 
1.4950156e+3, 1.24520026e+2, -1243868.0, -1714935.1, 15922.993, -0.076969326, -0.023064248, -1243330.4, 476377.0, 0.013953493, 10.004275, 9.997937 
1.4950167e+3, 1.3451985e+2, -1187604.4, -1564072.3, -74982.52, 0.073979214, 0.10221147, -1173219.5, 448489.88, 0.008384871, 10.003642, 9.9986105 
1.4950147e+3, 1.4451785e+2, -1160598.0, -1497692.8, -46653.695, -0.10531551, 0.039725136, -1154260.4, 369468.78, 0.003687204, 10.003125, 9.998637 
1.4950159e+3, 1.5451643e+2, -1118550.9, -1426820.4, -45483.766, -0.02567699, 0.031822324, -1111980.0, 313763.28, 0.00095130136, 10.002734, 9.998638 
1.4950164e+3, 1.645152e+2, -1061018.5, -1324945.3, -46873.785, -0.0016384454, 0.0354677, -1052940.9, 274814.88, 0.00008722728, 10.002353, 9.998848 
1.4950167e+3, 1.7451422e+2, -1011972.44, -1245959.4, -42612.496, 0.003948558, 0.04705023, -1004453.7, 225311.97, 0.0000004647829, 10.001996, 9.99889 
1.4950168e+3, 1.8451332e+2, -967854.25, -1162288.9, -56622.395, -0.00021429572, 0.063586965, -952566.9, 179208.36, 0.0, 10.0015745, 9.998995 
1.4950167e+3, 1.9451253e+2, -939395.94, -1093410.9, -62923.203, -0.031709958, 0.07945194, -916957.56, 116826.61, 0.0, 10.001079, 9.999034 
1.4950165e+3, 2.0451172e+2, -876477.3, -981772.7, -63966.27, -0.04428962, 0.082995616, -846279.0, 89513.734, 0.0, 10.000706, 9.999308 
1.4950167e+3, 2.1451089e+2, -806110.9, -892075.06, -53517.977, -0.028424717, 0.06318363, -780451.6, 57349.11, 0.0, 10.000494, 9.999352 
1.4950168e+3, 2.2451021e+2, -775413.06, -851284.44, -53297.086, -0.01279322, 0.07067482, -747929.3, -8121.602, 0.0, 10.000138, 9.999132 
1.495017e+3, 2.3450972e+2, -752779.5, -787534.56, -58337.113, 0.00084230356, 0.10597111, -709286.7, -67473.42, 0.0, 9.999613, 9.99915 
1.4950171e+3, 2.4450909e+2, -693202.5, -671986.2, -53018.984, 0.004825845, 0.11319853, -628524.5, -84704.625, 0.0, 9.999193, 9.999472 
1.4950173e+3, 2.545083e+2, -633564.94, -587168.25, -54134.207, -0.0017075615, 0.07946017, -551471.2, -105643.53, 0.0, 9.998907, 9.999518 
1.4950173e+3, 2.645078e+2, -582367.44, -513672.78, -54153.992, -0.013331284, 0.0822865, -483892.16, -136059.28, 0.0, 9.998594, 9.999501 
1.4950173e+3, 2.7450776e+2, -530999.0, -434075.16, -52824.957, -0.033360563, 0.11981227, -410850.03, -161015.0, 0.0, 9.998256, 9.999537 
1.4950174e+3, 2.845076e+2, -453411.72, -250002.34, -49126.34, -0.03062136, 0.11253156, -238759.08, -86922.88, 0.0, 9.997702, 10.000395 
1.495018e+3, 2.9450747e+2, -476521.78, -210657.61, -53130.277, 0.005709764, 0.051536024, -200433.25, -146597.9, 0.0, 9.996871, 10.000393 
1.495019e+3, 3.045085e+2, -451016.94, -126259.74, -6351.9683, 0.043368757, 0.098700695, -126135.55, -126135.55, 0.0, 9.996511, 10.000811 
1.49502e+3, 3.145092e+2, -386695.9, -43046.445, 16556.395, 0.006588581, 0.07712479, -42250.633, -42250.633, 0.0, 9.996727, 10.001278 
1.50502e+3, 1.2451885e+2, -1240748.0, -1713765.9, 52983.473, -0.06529742, -0.053997606, -1234885.9, 484831.7, 0.014717477, 10.004301, 9.997934 
1.5050201e+3, 1.345188e+2, -1164160.5, -1557421.6, -44343.453, 0.06315641, 0.087874174, -1159222.5, 462496.1, 0.008875777, 10.003827, 9.998569 
1.5050179e+3, 1.4451689e+2, -1125952.0, -1485450.1, -15708.878, -0.11893691, 0.03833144, -1125266.9, 398470.8, 0.003928808, 10.003386, 9.998595 
1.5050188e+3, 1.5451533e+2, -1080575.8, -1412697.1, -17472.572, -0.017305834, 0.018920913, -1079659.1, 346094.34, 0.0010266986, 10.003013, 9.998601 
1.5050189e+3, 1.6451402e+2, -1028660.9, -1310821.8, -23861.691, 0.008762244, 0.020003095, -1026657.2, 301109.28, 0.00009630864, 10.002581, 9.998836 
1.5050186e+3, 1.7451312e+2, -1002085.25, -1242256.0, -24655.465, -0.008847384, 0.038662665, -999580.25, 230195.61, 0.000000575819, 10.002069, 9.998879 
1.5050183e+3, 1.8451224e+2, -962796.5, -1166039.4, -35075.188, -0.01371591, 0.06156674, -956913.56, 174871.78, 0.0, 10.001637, 9.998939 
1.5050179e+3, 1.9451146e+2, -910017.4, -1086270.3, -32221.273, -0.019806787, 0.08346691, -904311.6, 129482.88, 0.0, 10.001311, 9.99897 
1.5050174e+3, 2.0451057e+2, -848787.1, -967969.2, -34530.152, -0.029892413, 0.08400668, -839505.6, 96298.07, 0.0, 10.000895, 9.999311 
1.5050171e+3, 2.1450962e+2, -825123.56, -900393.4, -43477.69, -0.039640535, 0.050975468, -805254.56, 32558.178, 0.0, 10.0003605, 9.99936 
1.5050168e+3, 2.2450897e+2, -789278.2, -846115.5, -44131.918, -0.025476962, 0.055681296, -765206.4, -25387.207, 0.0, 9.999994, 9.999236 
1.5050168e+3, 2.3450868e+2, -714083.5, -756717.94, -31892.594, 0.016205465, 0.10056881, -697039.75, -55217.652, 0.0, 9.999827, 9.999257 
1.5050167e+3, 2.4450804e+2, -665058.8, -673860.8, -24360.133, 0.027968474, 0.10848626, -644705.3, -100876.555, 0.0, 9.9994545, 9.999332 
1.5050162e+3, 2.5450698e+2, -655587.0, -614750.2, -36280.594, 0.002773661, 0.063265435, -593536.94, -147697.13, 0.0, 9.99883, 9.999366 
1.5050158e+3, 2.645065e+2, -616759.75, -506091.7, -34798.887, -0.014170433, 0.06349385, -496058.94, -148213.72, 0.0, 9.998256, 9.999716 
1.5050153e+3, 2.7450675e+2, -590003.7, -436284.44, -22216.438, -0.021403404, 0.11011887, -433138.0, -183294.42, 0.0, 9.99774, 9.99977 
1.5050152e+3, 2.845068e+2, -512625.84, -296618.5, -18945.684, -0.012366411, 0.116757914, -294969.4, -143126.2, 0.0, 9.997375, 10.000233 
1.5050152e+3, 2.9450667e+2, -441401.4, -213766.27, -34331.668, 0.01973057, 0.0742991, -208701.11, -154857.42, 0.0, 9.9972, 10.000212 
1.5050156e+3, 3.0450734e+2, -400071.25, -66030.84, 4459.85, 0.042949818, 0.079177156, -65971.305, -65971.305, 0.0, 9.996707, 10.001131 
1.5050161e+3, 3.145088e+2, -505861.63, -76278.49, 5791.457, 0.009740921, 0.094846606, -76200.43, -76200.43, 0.0, 9.995804, 10.001495 
1.5150245e+3, 1.2451921e+2, -1248781.4, -1730271.1, 28578.576, -0.04907233, -0.016239129, -1247091.0, 472621.94, 0.015538238, 10.004303, 9.99782 
1.5150239e+3, 1.3451806e+2, -1176355.6, -1582540.6, -62244.18, 0.05204382, 0.033036347, -1167031.4, 454693.1, 0.009402564, 10.003828, 9.998394 
1.515021e+3, 1.4451599e+2, -1131402.3, -1498262.9, -30785.115, -0.13913922, -0.018625522, -1128836.8, 394908.5, 0.004188673, 10.003392, 9.998505 
1.5150219e+3, 1.5451509e+2, -1086001.3, -1424786.9, -31488.842, -0.016732596, 0.036427595, -1083099.4, 342656.03, 0.0011086961, 10.003016, 9.998517 
1.5150215e+3, 1.6451396e+2, -1032519.0, -1320085.4, -43807.3, 0.0054529966, 0.061239652, -1025993.5, 301773.75, 0.000106542946, 10.002585, 9.99877 
1.5150204e+3, 1.7451254e+2, -1005835.7, -1251354.0, -44161.43, -0.04430621, 0.036695816, -998133.94, 231647.44, 0.0000007145684, 10.002074, 9.998816 
1.5150197e+3, 1.8451142e+2, -958071.4, -1157305.6, -48195.332, -0.046215255, 0.034885887, -947025.2, 184767.77, 0.0, 10.001641, 9.998998 
1.5150194e+3, 1.9451068e+2, -905011.9, -1077013.0, -44515.38, -0.0072567104, 0.055565592, -894173.8, 139627.27, 0.0, 10.001315, 9.999033 
1.5150186e+3, 2.0450991e+2, -864631.5, -1001267.44, -54733.63, -0.0045085945, 0.075413845, -845410.25, 90399.15, 0.0, 10.0008955, 9.9990835 
1.5150174e+3, 2.1450919e+2, -842287.9, -936286.25, -63532.836, -0.039611865, 0.0880948, -810259.56, 27558.072, 0.0, 10.000361, 9.999114 
1.5150167e+3, 2.2450843e+2, -767379.06, -800196.2, -51266.438, -0.03366269, 0.082784094, -729959.3, 9865.196, 0.0, 9.999991, 9.999554 
1.5150167e+3, 2.3450772e+2, -689865.2, -706614.7, -37635.273, 0.02022319, 0.048951976, -659684.1, -17854.666, 0.0, 9.999827, 9.999601 
1.5150163e+3, 2.4450704e+2, -682505.1, -709821.2, -46787.395, 0.03140785, 0.046050914, -647423.0, -103586.69, 0.0, 9.999453, 9.999087 
1.5150149e+3, 2.545064e+2, -675255.94, -655252.1, -58843.38, -0.008674739, 0.07284103, -605566.7, -159721.47, 0.0, 9.998828, 9.999089 
1.515014e+3, 2.6450613e+2, -592328.4, -455042.06, -53241.48, -0.013782568, 0.088632435, -436814.4, -88965.195, 0.0, 9.998254, 10.000068 
1.5150136e+3, 2.7450627e+2, -563664.2, -381189.0, -39833.15, 0.022881078, 0.08452342, -372872.72, -123025.73, 0.0, 9.997737, 10.00015 
1.5150131e+3, 2.8450638e+2, -532036.7, -336774.28, -25555.943, 0.030213492, 0.09251734, -333484.94, -181638.95, 0.0, 9.997373, 9.999958 
1.5150124e+3, 2.9450655e+2, -463073.94, -259302.06, -39262.35, 0.0055860947, 0.11161472, -251998.83, -198152.78, 0.0, 9.997201, 9.9999 
1.515012e+3, 3.0450678e+2, -395900.3, -58277.715, -26348.549, 0.008962346, 0.08665278, -56233.81, -56233.81, 0.0, 9.99671, 10.0011835 
1.5150121e+3, 3.145087e+2, -495866.0, -54794.645, -24379.756, 0.028406639, 0.14236833, -53451.168, -53451.168, 0.0, 9.995799, 10.001646 
1.525029e+3, 1.24519855e+2, -1218857.4, -1727080.0, 37771.355, -0.050823025, 0.01161368, -1216065.5, 503640.84, 0.016413026, 10.004566, 9.997716 
1.5250279e+3, 1.3451809e+2, -1144155.5, -1586640.9, -48346.895, 0.057036392, 0.0148624685, -1138934.6, 482789.22, 0.009963288, 10.004139, 9.998217 
1.5250245e+3, 1.4451589e+2, -1094986.4, -1485546.4, -14973.167, -0.1402449, -0.038359366, -1094413.1, 429332.94, 0.004465717, 10.003664, 9.998463 
1.5250248e+3, 1.545152e+2, -1072925.8, -1421694.4, -12135.973, -0.023963878, 0.04348817, -1072503.9, 353250.16, 0.0011971197, 10.00312, 9.998488 
1.525024e+3, 1.6451412e+2, -1022362.9, -1319055.9, -19080.816, -0.0015232735, 0.077006854, -1021140.75, 306624.7, 0.000118069845, 10.002673, 9.998734 
1.5250225e+3, 1.7451257e+2, -966760.94, -1237090.8, -18468.686, -0.045787852, 0.039608236, -965505.0, 264276.1, 0.0000008766353, 10.002362, 9.998775 
1.5250215e+3, 1.845113e+2, -914775.3, -1141078.1, -25366.568, -0.04563198, 0.02923229, -911966.75, 219827.11, 0.0, 10.001958, 9.998956 
1.5250207e+3, 1.945105e+2, -889766.56, -1074288.4, -29912.777, -0.008430381, 0.047792513, -885038.56, 148763.95, 0.0, 10.00144, 9.998991 
1.5250196e+3, 2.0450972e+2, -858022.8, -1002609.2, -39647.89, -0.0010197894, 0.06903175, -847864.44, 87946.6, 0.0, 10.000961, 9.999042 
1.525018e+3, 2.1450898e+2, -820139.44, -930625.8, -34220.84, -0.024231968, 0.08748152, -810399.0, 27420.068, 0.0, 10.000536, 9.999068 
1.5250169e+3, 2.245082e+2, -757509.06, -796316.7, -20500.662, -0.021835312, 0.07989256, -748685.5, -8859.113, 0.0, 10.000064, 9.999545 
1.5250164e+3, 2.3450734e+2, -732866.6, -728082.0, -34076.43, 0.008632352, 0.033222314, -696314.0, -54481.33, 0.0, 9.999536, 9.999595 
1.5250152e+3, 2.4450672e+2, -726436.8, -719130.75, -49179.727, 0.016443215, 0.030573538, -673468.56, -129629.55, 0.0, 9.999101, 9.999192 
1.5250137e+3, 2.5450635e+2, -675310.9, -642853.0, -33066.89, -0.0018899804, 0.0745853, -622247.2, -176402.06, 0.0, 9.9987755, 9.9992 
1.5250124e+3, 2.6450616e+2, -580241.7, -449095.78, -27322.18, 0.002743899, 0.092796326, -443631.34, -95782.95, 0.0, 9.998337, 10.000068 
1.5250115e+3, 2.745061e+2, -561569.4, -380586.38, -44279.707, 0.03360006, 0.07193818, -370333.63, -120485.664, 0.0, 9.997754, 10.000146 
1.5250103e+3, 2.8450632e+2, -549848.7, -339790.06, -24389.951, 0.036328007, 0.08652227, -336995.3, -185148.9, 0.0, 9.997228, 10.000008 
1.5250093e+3, 2.945069e+2, -521383.1, -281128.56, -11096.012, 0.008196731, 0.13975523, -280617.2, -226774.1, 0.0, 9.996776, 9.999955 
1.5250084e+3, 3.0450675e+2, -457624.75, -102551.445, -1858.6013, 0.0040001897, 0.081419796, -102541.71, -102541.71, 0.0, 9.99635, 10.001052 
1.5250081e+3, 3.1450874e+2, -468074.0, -31622.3, -14904.245, 0.038345892, 0.15660933, -31113.932, -31113.932, 0.0, 9.995951, 10.001732 
1.5350333e+3, 1.2452086e+2, -1226234.9, -1742680.1, 14157.005, -0.06843085, 0.032933537, -1225847.0, 493849.97, 0.01733671, 10.004569, 9.997607 
1.5350324e+3, 1.3451889e+2, -1157234.8, -1614197.1, -64402.21, 0.076711036, 0.03363268, -1148331.6, 473384.88, 0.010555511, 10.004143, 9.998025 
1.5350284e+3, 1.4451659e+2, -1093004.5, -1482903.6, -36229.992, -0.12329348, -0.019949587, -1089666.6, 434073.06, 0.0047582914, 10.003671, 9.998478 
1.5350278e+3, 1.5451573e+2, -1070074.9, -1416259.1, -32827.52, -0.041126158, 0.039465927, -1066989.4, 358759.7, 0.0012911803, 10.003122, 9.998525 
1.5350266e+3, 1.645146e+2, -1023049.5, -1322017.0, -31812.49, -0.015182292, 0.06767599, -1019701.9, 308058.75, 0.00013084838, 10.002679, 9.998713 
1.5350252e+3, 1.7451319e+2, -967856.9, -1240838.9, -30078.695, -0.014337085, 0.04827608, -964581.94, 265192.84, 0.0000010420176, 10.002368, 9.998747 
1.5350237e+3, 1.8451193e+2, -924198.9, -1161667.8, -45064.758, -0.013183756, 0.045844994, -915934.5, 215853.2, 0.0, 10.001962, 9.998814 
1.535022e+3, 1.9451092e+2, -900106.94, -1096192.6, -49509.35, -0.025253281, 0.0588768, -888315.44, 145483.27, 0.0, 10.001441, 9.99884 
1.5350203e+3, 2.0450996e+2, -848246.6, -982592.25, -56289.254, -0.021655807, 0.06315588, -827780.0, 108028.586, 0.0, 10.000961, 9.99918 
1.5350188e+3, 2.1450907e+2, -809397.75, -908736.3, -49909.54, 0.0057350257, 0.050139166, -788653.94, 49162.87, 0.0, 10.000537, 9.999219 
1.5350172e+3, 2.2450826e+2, -781023.75, -845302.44, -40397.89, 0.008790228, 0.048279632, -761540.2, -21715.537, 0.0, 10.000064, 9.999209 
1.5350156e+3, 2.3450755e+2, -758298.4, -780994.4, -53385.742, -0.01973562, 0.05267756, -715067.9, -73236.09, 0.0, 9.999536, 9.999232 
1.535014e+3, 2.4450704e+2, -694812.94, -653181.9, -61402.492, -0.017985223, 0.060884535, -609162.56, -65325.566, 0.0, 9.999099, 9.999646 
1.5350129e+3, 2.5450683e+2, -641285.5, -572051.2, -44062.918, 0.021559875, 0.0693137, -550633.6, -104794.055, 0.0, 9.998774, 9.999687 
1.5350111e+3, 2.6450658e+2, -604065.8, -498683.84, -47852.44, 0.032860074, 0.07599422, -480197.63, -132354.88, 0.0, 9.998337, 9.999728 
1.5350088e+3, 2.7450633e+2, -588305.1, -436576.84, -64693.88, 0.009249796, 0.06979823, -412738.1, -162891.39, 0.0, 9.997755, 9.999762 
1.5350074e+3, 2.8450662e+2, -524450.25, -287030.63, -40127.95, 0.0048857396, 0.096509896, -280431.72, -128587.07, 0.0, 9.997228, 10.00037 
1.5350062e+3, 2.945077e+2, -493588.22, -223093.94, -26071.16, 0.024434546, 0.16125503, -220604.02, -166769.27, 0.0, 9.996773, 10.000356 
1.535005e+3, 3.0450726e+2, -478842.78, -146803.22, -15969.795, 0.025201492, 0.0657597, -146036.9, -146036.9, 0.0, 9.99635, 10.000749 
1.5350041e+3, 3.1450862e+2, -464290.9, -24009.012, -23544.531, 0.032780062, 0.11289138, -22753.523, -22753.523, 0.0, 9.99595, 10.001784 
1.5450378e+3, 1.2452193e+2, -1214430.1, -1731657.5, 21840.84, -0.06983159, 0.023573397, -1213509.5, 506177.28, 0.01830711, 10.004634, 9.997652 
1.5450366e+3, 1.3452007e+2, -1140579.1, -1609740.0, -38662.348, 0.08845479, 0.037599374, -1137414.5, 484290.53, 0.011179684, 10.004277, 9.997991 
1.5450323e+3, 1.4451776e+2, -1070123.8, -1481248.8, -11192.738, -0.115914255, -0.010613731, -1069819.3, 453908.84, 0.005066773, 10.003872, 9.998392 
1.545031e+3, 1.5451665e+2, -1032183.06, -1407502.9, -17886.78, -0.039559625, 0.032457676, -1031332.56, 394407.4, 0.0013906169, 10.003425, 9.99844 
1.5450294e+3, 1.6451542e+2, -981467.0, -1304083.6, -16949.84, -0.013145879, 0.055667683, -980578.9, 347173.66, 0.00014484508, 10.002974, 9.998693 
1.5450276e+3, 1.7451409e+2, -946418.2, -1232252.0, -14716.298, -0.0059179766, 0.045590244, -945662.5, 284103.44, 0.000001197513, 10.002522, 9.998731 
1.5450257e+3, 1.8451287e+2, -916425.56, -1160200.8, -30476.51, -0.0064337174, 0.048797596, -912673.2, 219105.27, 0.0, 10.002027, 9.998792 
1.5450235e+3, 1.9451186e+2, -895877.75, -1096894.5, -26292.86, -0.030654134, 0.0635182, -892495.56, 141293.95, 0.0, 10.001483, 9.998816 
1.5450212e+3, 2.0451082e+2, -838573.06, -981718.5, -27972.824, -0.02733969, 0.06383842, -833300.9, 102499.09, 0.0, 10.001045, 9.999145 
1.5450196e+3, 2.1450979e+2, -782075.06, -899566.94, -36221.688, 0.013318995, 0.040227253, -771805.8, 66003.6, 0.0, 10.000742, 9.999182 
1.5450175e+3, 2.2450894e+2, -750253.2, -835960.2, -31221.75, 0.016704932, 0.039763134, -740085.75, -268.0318, 0.0, 10.0002985, 9.99916 
1.5450151e+3, 2.3450835e+2, -740121.2, -778178.75, -21532.629, -0.02651105, 0.06027068, -730414.1, -88589.805, 0.0, 9.999686, 9.999179 
1.545013e+3, 2.4450791e+2, -687392.0, -633440.56, -24446.564, -0.024493666, 0.07143278, -624011.3, -80182.445, 0.0, 9.999082, 9.99979 
1.5450114e+3, 2.5450772e+2, -672581.5, -570333.3, -33752.723, 0.03148637, 0.0664251, -560196.3, -114365.84, 0.0, 9.998487, 9.999837 
1.5450095e+3, 2.6450747e+2, -650048.4, -524737.75, -38269.24, 0.04177883, 0.067356355, -513974.94, -166141.47, 0.0, 9.998038, 9.999693 
1.5450066e+3, 2.745072e+2, -589501.06, -442560.5, -30494.451, -0.0022794507, 0.064824045, -436483.34, -186645.22, 0.0, 9.997771, 9.999713 
1.5450045e+3, 2.8450757e+2, -507138.75, -269309.78, -8067.077, -0.0030086082, 0.0957759, -269036.47, -117200.68, 0.0, 9.997308, 10.000454 
1.5450032e+3, 2.9450879e+2, -514844.84, -222989.38, -19375.936, 0.048282117, 0.16671158, -221708.64, -167884.48, 0.0, 9.996585, 10.000446 
1.5450014e+3, 3.0450827e+2, -536040.8, -189992.22, -6880.726, 0.0457528, 0.067191534, -189855.45, -189855.45, 0.0, 9.996028, 10.000607 
1.5449998e+3, 3.1450933e+2, -482211.22, -5173.8193, 3571.3645, 0.019985586, 0.101810224, -5147.084, -5147.084, 0.0, 9.995712, 10.0020275 
1.5550427e+3, 1.2452318e+2, -1200971.5, -1702655.6, -128.06775, -0.051305342, -0.008940586, -1200971.5, 518703.13, 0.019328794, 10.004636, 9.997852 
1.555041e+3, 1.3452165e+2, -1131816.3, -1591112.6, -51919.895, 0.09026594, 0.026684504, -1126020.3, 495668.7, 0.01184024, 10.004279, 9.998119 
1.555036e+3, 1.4451943e+2, -1083391.5, -1510264.8, -28513.06, -0.12096671, -0.00882757, -1081495.4, 442215.5, 0.005394227, 10.003879, 9.99819 
1.5550347e+3, 1.5451802e+2, -1046665.6, -1439101.3, -34680.77, -0.02103755, 0.02376226, -1043624.4, 382101.94, 0.0014964974, 10.00343, 9.99822 
1.5550326e+3, 1.6451661e+2, -981269.9, -1305606.6, -34550.24, 0.003093778, 0.042098023, -977630.2, 350110.6, 0.00016027692, 10.00298, 9.99868 
1.5550302e+3, 1.7451526e+2, -946543.25, -1232943.3, -31739.266, -0.022127494, 0.030465672, -943068.0, 286686.4, 0.0000013687348, 10.002524, 9.998726 
1.5550275e+3, 1.8451412e+2, -909838.06, -1146821.6, -51178.957, -0.028251886, 0.03782795, -899257.8, 232508.17, 0.0, 10.002027, 9.998884 
1.5550248e+3, 1.945133e+2, -888363.7, -1082342.0, -46457.42, -0.025306974, 0.063039504, -877811.25, 155963.38, 0.0, 10.001486, 9.998915 
1.5550224e+3, 2.0451231e+2, -853279.5, -1013279.94, -40091.87, -0.018766439, 0.07257769, -843795.7, 91989.29, 0.0, 10.001048, 9.998927 
1.5550202e+3, 2.1451113e+2, -798814.8, -933934.4, -47590.184, -0.0033075023, 0.057030037, -783735.94, 54061.027, 0.0, 10.000739, 9.998948 
1.5550177e+3, 2.2451024e+2, -733762.94, -801290.4, -53918.16, -0.00018871095, 0.053121764, -703909.4, 35896.316, 0.0, 10.000296, 9.999399 
1.5550148e+3, 2.3450974e+2, -721857.75, -740410.44, -43891.73, -0.012654378, 0.05653314, -686272.8, -44462.51, 0.0, 9.999686, 9.999438 
1.5550123e+3, 2.4450931e+2, -699702.2, -659095.25, -46260.164, -0.0051417765, 0.062575266, -628879.06, -85064.555, 0.0, 9.999082, 9.999615 
1.55501e+3, 2.54509e+2, -686120.6, -598751.75, -54886.766, 0.02630351, 0.06448099, -572287.2, -126469.13, 0.0, 9.998488, 9.999642 
1.5550074e+3, 2.6450878e+2, -631020.9, -485602.66, -47796.74, 0.029178191, 0.06613533, -471299.44, -123478.76, 0.0, 9.998039, 9.999962 
1.5550044e+3, 2.7450874e+2, -569638.0, -401712.03, -38511.215, -0.0028939203, 0.059401378, -393301.34, -143479.22, 0.0, 9.997771, 9.999994 
1.5550019e+3, 2.8450912e+2, -520536.53, -297467.56, -33041.324, 0.009555405, 0.08570252, -292676.3, -140856.6, 0.0, 9.997308, 10.00026 
1.555e+3, 2.945101e+2, -530319.3, -255287.97, -45086.055, 0.07555284, 0.15146297, -248085.6, -194273.8, 0.0, 9.996584, 10.000225 
1.5549977e+3, 3.0450973e+2, -536744.7, -191119.48, -18335.031, 0.062171128, 0.08142385, -190149.55, -190149.55, 0.0, 9.996025, 10.000601 
1.5549952e+3, 3.145107e+2, -453253.94, 53873.19, -361.39664, -0.0040830947, 0.104840085, 53873.45, 53873.45, 0.0, 9.995715, 10.002433 
1.5650477e+3, 1.2452535e+2, -1156096.5, -1681146.9, 27684.215, -0.04259973, -0.014085488, -1154640.9, 565012.44, 0.02041284, 10.004957, 9.997848 
1.5650453e+3, 1.3452384e+2, -1104714.5, -1585326.1, -30758.777, 0.09426306, 0.027601287, -1102754.0, 518913.63, 0.012544646, 10.004502, 9.998052 
1.56504e+3, 1.4452156e+2, -1058368.0, -1508361.4, -10270.514, -0.12362119, -0.0057948814, -1058133.8, 465556.38, 0.0057452675, 10.004098, 9.998096 
1.5650384e+3, 1.5451996e+2, -1004343.2, -1428734.9, -7836.803, -0.005631562, 0.019161634, -1004198.5, 421508.5, 0.001610755, 10.003766, 9.998129 
1.5650357e+3, 1.6451846e+2, -944898.75, -1296282.6, -11180.687, 0.016169988, 0.035359953, -944543.4, 383179.25, 0.00017757353, 10.003267, 9.998606 
1.5650325e+3, 1.745171e+2, -944880.0, -1240737.3, -14875.626, -0.03682417, 0.030558096, -944133.94, 285602.63, 0.0000016137079, 10.002573, 9.998649 
1.5650295e+3, 1.8451594e+2, -902606.44, -1141201.6, -33020.984, -0.04686402, 0.03978993, -898120.75, 233627.47, 0.0, 10.002068, 9.998903 
1.5650266e+3, 1.9451512e+2, -841693.0, -1057498.9, -34842.023, -0.019649418, 0.06151396, -836207.2, 197549.48, 0.0, 10.001798, 9.998935 
1.5650237e+3, 2.0451412e+2, -823082.8, -1007086.5, -31438.89, -0.008204766, 0.07235246, -817859.44, 117907.664, 0.0, 10.001292, 9.998852 
1.5650207e+3, 2.1451291e+2, -838720.1, -962581.1, -27854.342, -0.011460258, 0.06381663, -832744.44, 5035.225, 0.0, 10.000506, 9.998863 
1.5650177e+3, 2.2451201e+2, -785289.25, -821089.9, -32262.137, -0.0069379243, 0.060540937, -766294.2, -26505.43, 0.0, 9.999923, 9.999442 
1.5650147e+3, 2.3451148e+2, -733101.3, -740836.06, -40120.203, 0.005056607, 0.057274044, -696662.56, -54869.11, 0.0, 9.999588, 9.999482 
1.5650116e+3, 2.4451107e+2, -689439.75, -655078.7, -48312.777, 0.009034892, 0.062276922, -620982.56, -77184.984, 0.0, 9.999156, 9.999606 
1.5650083e+3, 2.545108e+2, -669464.75, -591812.2, -43889.008, 0.00403388, 0.06995203, -572040.44, -126239.625, 0.0, 9.998609, 9.999631 
1.5650052e+3, 2.645107e+2, -629021.9, -468909.38, -31446.486, 0.0075176214, 0.07373135, -462954.7, -115152.08, 0.0, 9.997987, 10.000101 
1.565002e+3, 2.745107e+2, -633573.75, -416605.25, -33749.32, 0.020445598, 0.06311489, -411476.78, -161674.08, 0.0, 9.997266, 10.000135 
1.5649992e+3, 2.845111e+2, -584121.56, -327387.56, -21379.047, 0.03607739, 0.08059561, -325619.44, -173819.14, 0.0, 9.996869, 10.000266 
1.5649964e+3, 2.9451197e+2, -489733.34, -235546.05, -18025.104, 0.054540426, 0.13695829, -234274.2, -180480.81, 0.0, 9.996863, 10.000226 
1.5649936e+3, 3.0451196e+2, -499823.2, -178165.06, 2981.0425, 0.039881896, 0.10437183, -178137.44, -178137.44, 0.0, 9.996299, 10.000558 
1.5649909e+3, 3.1451258e+2, -534268.56, 33167.69, 19767.828, 0.018395938, 0.09516663, 33855.51, 33855.51, 0.0, 9.995079, 10.002598 
1.5750524e+3, 1.2452853e+2, -1170546.9, -1711204.3, -919.0448, -0.042190976, 0.010954422, -1170545.3, 549076.94, 0.021571953, 10.004962, 9.997636 
1.5750499e+3, 1.3452664e+2, -1123090.3, -1624409.6, -48108.484, 0.09898232, 0.041463647, -1118515.3, 503125.44, 0.013301039, 10.004508, 9.997778 
1.5750441e+3, 1.4452414e+2, -1056288.3, -1505827.1, -23913.834, -0.12451508, -0.00016109688, -1055019.8, 468645.75, 0.0061244774, 10.0041065, 9.998111 
1.5750423e+3, 1.5452251e+2, -1001847.2, -1424213.4, -20083.426, 0.0051721437, 0.018271174, -1000894.4, 424787.63, 0.0017352081, 10.003769, 9.998159 
1.5750392e+3, 1.6452098e+2, -953755.3, -1316074.6, -37198.645, 0.02289326, 0.036678515, -949975.6, 377721.97, 0.00019699702, 10.003272, 9.998467 
1.5750349e+3, 1.7451961e+2, -954705.2, -1262629.9, -40891.203, -0.05081764, 0.046383034, -949367.5, 280344.56, 0.0000019795527, 10.002579, 9.998496 
1.5750314e+3, 1.8451834e+2, -906678.56, -1151007.4, -44205.484, -0.0632577, 0.05515118, -898926.56, 232798.47, 0.0, 10.002072, 9.998834 
1.5750284e+3, 1.9451725e+2, -846648.7, -1067657.0, -45052.7, -0.015894793, 0.058378965, -837817.56, 195918.19, 0.0, 10.001796, 9.998866 
1.5750252e+3, 2.0451619e+2, -818434.56, -996930.2, -60358.137, 0.0015654973, 0.06293848, -799940.7, 135805.9, 0.0, 10.001289, 9.998923 
1.5750213e+3, 2.1451513e+2, -833282.7, -951616.9, -56883.023, -0.01189745, 0.06108986, -810374.06, 27383.396, 0.0, 10.000507, 9.998939 
1.5750177e+3, 2.2451423e+2, -797242.6, -846438.6, -45413.33, -0.0047684205, 0.06277027, -770193.44, -30426.633, 0.0, 9.999924, 9.999269 
1.5750146e+3, 2.3451355e+2, -746002.75, -767769.3, -52043.95, 0.025339233, 0.062033515, -703716.3, -61942.426, 0.0, 9.999588, 9.999298 
1.5750109e+3, 2.4451314e+2, -678191.44, -631727.94, -67995.9, 0.017173482, 0.0701429, -583104.56, -39326.305, 0.0, 9.999154, 9.999768 
1.5750064e+3, 2.545131e+2, -657436.9, -566691.06, -63120.266, -0.0371635, 0.08406591, -534328.1, -88549.27, 0.0, 9.998607, 9.999805 
1.5750027e+3, 2.6451313e+2, -628922.5, -468744.16, -56922.875, -0.026058897, 0.09037292, -450576.06, -102796.72, 0.0, 9.997986, 10.000104 
1.5749998e+3, 2.745131e+2, -633313.2, -416934.88, -59024.086, 0.06491116, 0.07253063, -401881.44, -152101.06, 0.0, 9.997269, 10.000133 
1.5749966e+3, 2.845134e+2, -569694.6, -298206.22, -21388.873, 0.07455575, 0.078037776, -296531.47, -144753.55, 0.0, 9.996871, 10.000466 
1.5749927e+3, 2.9451445e+2, -474062.9, -204663.28, -16286.416, -0.016442373, 0.12570754, -203682.27, -149913.27, 0.0, 9.996868, 10.000437 
1.5749893e+3, 3.0451494e+2, -504274.0, -187873.97, -39850.363, -0.023406276, 0.13846494, -182932.03, -182932.03, 0.0, 9.996301, 10.000491 
1.5749864e+3, 3.1451482e+2, -540683.25, 20054.5, -19928.605, 0.0768152, 0.06279347, 20761.87, 20761.87, 0.0, 9.995078, 10.002509 
1.5850572e+3, 1.2453171e+2, -1183634.9, -1724480.4, 1432.7782, -0.05815117, 0.012027975, -1183631.1, 535960.2, 0.022815872, 10.004909, 9.997568 
1.5850547e+3, 1.345298e+2, -1066225.3, -1608313.4, -23628.326, 0.10785095, 0.050863877, -1065197.4, 556412.56, 0.014115568, 10.00496, 9.99767 
1.5850484e+3, 1.445272e+2, -990125.3, -1483179.5, -9311.378, -0.12032965, 0.008089552, -989949.5, 533686.25, 0.006535041, 10.004608, 9.998024 
1.585046e+3, 1.5452546e+2, -1005053.0, -1435147.0, -16274.435, -0.002840618, 0.023945453, -1004438.06, 421215.53, 0.0018708833, 10.00379, 9.998074 
1.5850423e+3, 1.6452387e+2, -965444.4, -1323322.1, -30341.684, 0.018766016, 0.041483417, -962890.1, 364779.53, 0.00021839465, 10.0032015, 9.998451 
1.5850379e+3, 1.7452247e+2, -909217.75, -1242190.8, -24715.123, -0.033625092, 0.052097194, -907393.25, 322290.3, 0.000002466339, 10.0029, 9.998481 
1.5850338e+3, 1.8452111e+2, -870769.94, -1144073.1, -25284.072, -0.045614336, 0.05482096, -868450.5, 263246.97, 0.0, 10.002365, 9.998739 
1.58503e+3, 1.9451979e+2, -889154.6, -1099394.4, -29026.389, -0.022997811, 0.044885155, -885220.75, 148490.02, 0.0, 10.001554, 9.998764 
1.5850261e+3, 2.045187e+2, -854263.4, -1007044.8, -43887.08, -0.0108138155, 0.04993927, -842554.0, 93167.86, 0.0, 10.001014, 9.998986 
1.5850219e+3, 2.1451788e+2, -785463.06, -920711.44, -42451.168, -0.0071995086, 0.06522535, -773242.8, 64487.453, 0.0, 10.000802, 9.999008 
1.5850179e+3, 2.2451703e+2, -751311.6, -832972.8, -32003.38, 0.0015114882, 0.071203925, -740264.0, -524.73193, 0.0, 10.000277, 9.999191 
1.5850139e+3, 2.3451614e+2, -782715.75, -794566.9, -31196.447, 0.014901047, 0.058950555, -756887.1, -115138.48, 0.0, 9.999376, 9.999215 
1.5850097e+3, 2.4451572e+2, -735676.56, -646345.1, -39647.09, 0.007971071, 0.063507326, -631287.1, -87533.77, 0.0, 9.998706, 9.999882 
1.5850051e+3, 2.545159e+2, -692284.8, -570339.4, -39947.03, -0.024725981, 0.08503801, -558418.75, -112666.78, 0.0, 9.998311, 9.999922 
1.5850009e+3, 2.6451606e+2, -641890.2, -477374.06, -39792.74, -0.012051605, 0.102191396, -468254.6, -120503.46, 0.0, 9.997908, 10.000082 
1.5849972e+3, 2.745161e+2, -602461.4, -404681.47, -44981.676, 0.057541978, 0.09778989, -394931.78, -145180.22, 0.0, 9.997494, 10.000107 
1.5849933e+3, 2.8451642e+2, -553351.9, -264098.1, -2371.4153, 0.060945395, 0.088769265, -264078.66, -112329.42, 0.0, 9.996872, 10.000699 
1.5849891e+3, 2.9451722e+2, -585268.75, -230103.13, 4268.1553, -0.018276457, 0.09285717, -230051.84, -176310.83, 0.0, 9.995986, 10.000686 
1.5849853e+3, 3.045183e+2, -614505.25, -235950.95, -18180.518, -0.0106133595, 0.14473762, -235079.83, -235079.83, 0.0, 9.995523, 10.000534 
1.5849818e+3, 3.145182e+2, -476697.78, 36018.344, 10857.1455, 0.07514913, 0.075116634, 36248.152, 36248.152, 0.0, 9.995582, 10.002375 
1.595062e+3, 1.24535024e+2, -1178454.6, -1713515.0, -9281.913, -0.084658995, -0.0028437122, -1178293.8, 541265.6, 0.02415232, 10.004914, 9.997642 
1.5950598e+3, 1.3453338e+2, -1062213.6, -1600426.8, -21260.303, 0.11814375, 0.05514632, -1061375.1, 560199.7, 0.014992556, 10.004966, 9.997723 
1.5950532e+3, 1.4453076e+2, -1002969.4, -1511455.4, -39578.664, -0.11476722, 0.0190935, -999907.2, 523693.63, 0.006978867, 10.004616, 9.997826 
1.5950495e+3, 1.5452881e+2, -1019410.06, -1466395.1, -47192.293, -0.030124592, 0.036409464, -1014481.9, 411139.94, 0.0020181953, 10.003796, 9.997857 
1.5950455e+3, 1.6452713e+2, -957585.2, -1308545.3, -43147.25, 0.0031126149, 0.050324745, -952358.5, 375280.22, 0.00024140984, 10.003207, 9.998549 
1.5950413e+3, 1.7452572e+2, -901177.2, -1226000.5, -35824.824, 0.012250608, 0.04798613, -897273.0, 332378.13, 0.0000030340082, 10.002901, 9.99859 
1.5950367e+3, 1.8452425e+2, -878854.56, -1161247.5, -55272.88, 0.0023908643, 0.040158387, -868421.44, 263244.0, 0.0, 10.002366, 9.998621 
1.5950315e+3, 1.9452271e+2, -897708.4, -1118428.6, -59099.523, -0.041312315, 0.021124525, -882880.2, 150801.53, 0.0, 10.001558, 9.998632 
1.5950267e+3, 2.0452164e+2, -851062.3, -1001579.7, -52791.156, -0.04593723, 0.03318797, -834392.94, 101300.19, 0.0, 10.001018, 9.9990225 
1.5950227e+3, 2.1452115e+2, -782777.8, -914585.6, -50086.4, 0.00062420923, 0.07620236, -765905.06, 71793.195, 0.0, 10.000799, 9.999052 
1.5950182e+3, 2.2452037e+2, -749811.75, -829264.56, -64870.063, 0.0097719245, 0.08608523, -713470.3, 26236.002, 0.0, 10.000273, 9.999219 
1.5950128e+3, 2.3451926e+2, -781035.7, -791016.0, -64073.504, -0.02745619, 0.04832603, -721758.3, -80040.68, 0.0, 9.999375, 9.999241 
1.5950081e+3, 2.4451876e+2, -732258.5, -639368.75, -54577.01, -0.02049933, 0.042785242, -614149.3, -70426.32, 0.0, 9.998706, 9.999931 
1.595004e+3, 2.5451905e+2, -688078.7, -562457.25, -53257.832, 0.039774965, 0.07173067, -542917.56, -97196.9, 0.0, 9.998314, 9.999976 
1.5949994e+3, 2.6451942e+2, -644987.3, -484675.3, -54219.77, 0.04879647, 0.108815365, -468059.6, -120341.28, 0.0, 9.99791, 10.000031 
1.594994e+3, 2.745198e+2, -606584.25, -413585.53, -58770.566, -0.0041440353, 0.14055184, -397097.72, -147381.25, 0.0, 9.997494, 10.000047 
1.5949894e+3, 2.8452e+2, -535111.2, -226230.6, -33536.14, -0.0083188135, 0.113542326, -222631.4, -70916.73, 0.0, 9.996871, 10.00096 
1.5949857e+3, 2.9452026e+2, -564632.7, -188736.6, -27403.178, 0.04450827, 0.03456138, -186749.39, -133039.1, 0.0, 9.995991, 10.000968 
1.5949817e+3, 3.0452192e+2, -604556.8, -215113.94, -16532.305, 0.07434394, 0.12094246, -214413.38, -214413.38, 0.0, 9.9955225, 10.000678 
1.5949768e+3, 3.1452292e+2, -491227.13, 4880.237, 15454.615, 0.010093984, 0.14599696, 5361.209, 5361.209, 0.0, 9.995585, 10.002159 
1.6050671e+3, 1.24539055e+2, -1102336.4, -1674430.1, 2229.2966, -0.08998171, 0.010057932, -1102327.6, 617192.7, 0.0255916, 10.005447, 9.99766 
1.6050647e+3, 1.3453719e+2, -1073168.3, -1601991.4, 361.54565, 0.119556315, 0.044791203, -1073168.0, 548369.0, 0.01593844, 10.004879, 9.997754 
1.6050577e+3, 1.445345e+2, -1034677.06, -1540851.1, -25107.816, -0.11661158, 0.004643675, -1033434.7, 490129.13, 0.0074592805, 10.004462, 9.997697 
1.6050535e+3, 1.5453266e+2, -963306.94, -1454232.6, -27921.012, -0.026438443, 0.045697454, -961724.06, 463860.6, 0.0021782795, 10.004249, 9.997721 
1.6050489e+3, 1.6453093e+2, -879094.4, -1264979.9, -25249.738, 0.008344225, 0.060172252, -877449.2, 450152.8, 0.00026599475, 10.003724, 9.998599 
1.605044e+3, 1.7452934e+2, -907873.1, -1222632.8, -23253.703, 0.014620876, 0.034365844, -906164.5, 323450.66, 0.0000036433328, 10.002829, 9.998648 
1.605039e+3, 1.8452784e+2, -906753.5, -1180081.9, -40566.813, 0.0056352993, 0.023650922, -900859.75, 230769.69, 0.0, 10.002199, 9.998572 
1.6050331e+3, 1.9452646e+2, -853442.2, -1103409.9, -39809.92, -0.034676507, 0.02486007, -847255.2, 186389.63, 0.0, 10.001891, 9.998573 
1.6050279e+3, 2.045254e+2, -806939.56, -978974.4, -31561.37, -0.04002358, 0.040178962, -801332.1, 134324.25, 0.0, 10.001316, 9.999033 
1.6050234e+3, 2.1452475e+2, -836702.7, -939069.6, -31007.014, 0.0015001874, 0.06731966, -828043.2, 9619.661, 0.0, 10.000423, 9.999064 
1.6050182e+3, 2.24524e+2, -809991.25, -846011.4, -45079.844, 0.0071873544, 0.074403055, -779457.0, -39786.598, 0.0, 9.999808, 9.999327 
1.6050123e+3, 2.3452313e+2, -751867.75, -765252.0, -40246.234, -0.032916084, 0.04958684, -717761.06, -76082.0, 0.0, 9.999525, 9.999345 
1.6050069e+3, 2.4452265e+2, -690564.1, -629345.7, -31737.025, -0.023737663, 0.044886798, -615862.25, -72177.984, 0.0, 9.999035, 9.999842 
1.6050023e+3, 2.5452268e+2, -697649.5, -577506.5, -42439.887, 0.045515522, 0.059999105, -564027.1, -118342.38, 0.0, 9.998295, 9.99988 
1.6049972e+3, 2.6452306e+2, -667969.0, -480061.72, -37936.957, 0.053676244, 0.09633779, -472691.63, -125009.23, 0.0, 9.997688, 10.000167 
1.6049914e+3, 2.7452376e+2, -633513.5, -410723.7, -27790.377, -0.013006005, 0.1440635, -407309.5, -157632.33, 0.0, 9.997242, 10.000186 
1.604986e+3, 2.8452402e+2, -558360.2, -243680.34, -16149.027, -0.017885199, 0.119443536, -242853.77, -91179.055, 0.0, 9.996739, 10.000903 
1.6049819e+3, 2.9452407e+2, -545673.56, -185859.72, -38313.176, 0.05185641, 0.025964294, -181825.34, -128152.516, 0.0, 9.99615, 10.000911 
1.6049774e+3, 3.0452588e+2, -583509.2, -166361.13, -18239.688, 0.09597931, 0.11357869, -165565.13, -165565.13, 0.0, 9.9955015, 10.001022 
1.6049719e+3, 3.1452742e+2, -607237.56, -47327.887, 26653.582, 0.005137102, 0.15989526, -46061.95, -46061.95, 0.0, 9.994776, 10.00219 
1.6150728e+3, 1.245438e+2, -1104966.6, -1679468.3, -35144.84, -0.071350954, 0.04785201, -1102824.6, 616649.8, 0.027148634, 10.005453, 9.9976225 
1.6150695e+3, 1.3454133e+2, -1073054.8, -1602426.0, -20754.791, 0.112144865, 0.022266518, -1072242.3, 549253.75, 0.016964728, 10.004886, 9.997748 
1.615062e+3, 1.4453845e+2, -1038152.0, -1549235.0, -34539.375, -0.12626399, -0.03265577, -1035828.4, 487695.94, 0.007983454, 10.004468, 9.997636 
1.615058e+3, 1.5453699e+2, -967487.1, -1463781.5, -35283.992, 0.0046586846, 0.051421568, -964991.1, 460551.03, 0.0023543707, 10.004252, 9.997653 
1.6150528e+3, 1.6453528e+2, -878543.3, -1265205.1, -58082.848, 0.030461445, 0.07151964, -870006.8, 457552.75, 0.00029283596, 10.003729, 9.998596 
1.6150466e+3, 1.7453334e+2, -907095.75, -1222843.1, -56646.48, -0.026249308, 0.010991036, -897240.75, 332334.97, 0.000004294035, 10.002835, 9.998645 
1.6150407e+3, 1.8453188e+2, -905816.0, -1179108.9, -53427.184, -0.03623981, 0.004636342, -895742.6, 235846.89, 0.0, 10.002203, 9.998577 
1.6150354e+3, 1.9453101e+2, -853396.4, -1103448.1, -51129.996, -0.0051571033, 0.056417532, -843345.44, 190254.75, 0.0, 10.001891, 9.998573 
1.6150297e+3, 2.0452994e+2, -807515.3, -980182.1, -64359.035, 0.0043139462, 0.07199645, -786166.1, 149445.67, 0.0, 10.001315, 9.999026 
1.6150236e+3, 2.1452868e+2, -836995.44, -940135.0, -63744.813, -0.005847788, 0.038260076, -806572.25, 31051.75, 0.0, 10.000424, 9.999057 
1.6150178e+3, 2.2452791e+2, -798562.2, -822862.5, -56461.72, -0.008038554, 0.035948344, -752958.1, -13326.638, 0.0, 9.999809, 9.999486 
1.6150121e+3, 2.3452772e+2, -739997.44, -740943.06, -50060.48, -0.002520716, 0.06287781, -690407.5, -48774.445, 0.0, 9.999525, 9.999513 
1.6150062e+3, 2.4452734e+2, -706604.9, -662717.0, -58304.805, -0.0027271323, 0.07007037, -622363.4, -78725.93, 0.0, 9.999034, 9.999614 
1.615e+3, 2.545268e+2, -715490.7, -614146.44, -68760.05, -0.010063873, 0.050394636, -579404.2, -133759.75, 0.0, 9.998292, 9.99963 
1.6149944e+3, 2.6452696e+2, -646214.3, -435130.44, -53933.316, -0.0005679619, 0.06546328, -422148.5, -74504.78, 0.0, 9.997687, 10.000477 
1.614989e+3, 2.7452797e+2, -608572.56, -361131.03, -42614.465, 0.028788477, 0.10747192, -353997.6, -104363.305, 0.0, 9.99725, 10.000524 
1.6149834e+3, 2.8452843e+2, -584814.1, -299865.5, -37010.406, 0.030860033, 0.10582176, -295136.9, -143506.95, 0.0, 9.996744, 10.000516 
1.6149776e+3, 2.945286e+2, -574568.7, -246362.88, -59012.492, 0.00064208213, 0.06733533, -236074.73, -182445.47, 0.0, 9.996151, 10.000496 
1.6149724e+3, 3.0453014e+2, -545947.6, -88114.17, -44177.297, 0.05029419, 0.12277836, -83890.375, -83890.375, 0.0, 9.9955, 10.00156 
1.6149671e+3, 3.145319e+2, -587505.9, -7454.0493, -4666.879, 0.05588667, 0.13137496, -7416.504, -7416.504, 0.0, 9.99478, 10.002461 
1.625078e+3, 1.24548785e+2, -1124385.4, -1697605.5, -20912.332, -0.08099314, 0.05259125, -1123623.4, 595802.3, 0.028840985, 10.005366, 9.997536 
1.6250746e+3, 1.3454624e+2, -1022964.75, -1581840.6, 6927.2104, 0.11297312, 0.02240869, -1022878.9, 598569.25, 0.018085161, 10.005258, 9.997713 
1.6250668e+3, 1.445433e+2, -981824.7, -1517061.5, -9316.3545, -0.124138035, -0.03776104, -981662.56, 541814.2, 0.008560105, 10.004841, 9.997677 
1.6250622e+3, 1.5454184e+2, -988633.06, -1468416.1, -3221.5593, 0.0049083303, 0.043317113, -988611.44, 436882.44, 0.0025509072, 10.004086, 9.997701 
1.6250566e+3, 1.6454013e+2, -915072.56, -1294753.4, -29147.605, 0.027667627, 0.065646365, -912848.0, 414663.34, 0.000323255, 10.003531, 9.9984865 
1.6250494e+3, 1.7453817e+2, -859452.3, -1213088.4, -36947.098, -0.034622606, 0.013127984, -855633.44, 373895.22, 0.000005034694, 10.0032215, 9.998524 
1.6250432e+3, 1.845367e+2, -840161.56, -1142993.6, -37504.69, -0.041438997, 0.010595702, -835585.9, 295956.88, 0.0, 10.002636, 9.998615 
1.6250373e+3, 1.9453585e+2, -875499.4, -1108996.8, -32655.643, 0.0037595402, 0.0623112, -871018.4, 162534.28, 0.0, 10.0017185, 9.998618 
1.625031e+3, 2.0453478e+2, -855179.1, -1004375.44, -46944.273, 0.01610805, 0.0760424, -841637.3, 93926.766, 0.0, 10.000994, 9.999014 
1.6250242e+3, 2.1453348e+2, -828033.94, -937657.0, -48674.125, -0.0062330146, 0.03712646, -809541.44, 28035.6, 0.0, 10.000495, 9.99904 
1.6250177e+3, 2.2453266e+2, -779412.1, -806444.7, -37576.566, -0.0098476615, 0.030030549, -752994.9, -13410.227, 0.0, 9.99991, 9.99955 
1.6250116e+3, 2.3453252e+2, -778690.6, -751540.75, -38200.875, 0.0075197113, 0.053225763, -724574.5, -82988.98, 0.0, 9.999227, 9.999582 
1.6250052e+3, 2.4453218e+2, -751283.7, -682912.56, -42840.26, 0.0050151707, 0.062032785, -662289.9, -118700.71, 0.0, 9.998724, 9.999622 
1.6249983e+3, 2.5453174e+2, -693787.75, -603598.56, -35900.938, -0.02238579, 0.051234055, -591052.9, -145457.48, 0.0, 9.998442, 9.99963 
1.624992e+3, 2.6453182e+2, -614158.75, -419716.13, -26667.809, -0.012350663, 0.059435006, -416124.97, -68529.66, 0.0, 9.997908, 10.000477 
1.6249862e+3, 2.7453256e+2, -636686.5, -374121.28, -41727.28, 0.043223616, 0.07546783, -367649.44, -118061.31, 0.0, 9.997056, 10.000526 
1.6249801e+3, 2.8453317e+2, -631380.7, -313452.5, -28172.28, 0.046133187, 0.082004435, -310975.4, -159392.88, 0.0, 9.996388, 10.000592 
1.6249734e+3, 2.945339e+2, -598297.6, -248362.45, -13593.594, -0.014170873, 0.09147507, -247835.19, -194258.56, 0.0, 9.99595, 10.000577 
1.6249678e+3, 3.0453506e+2, -557232.06, -103104.48, -5133.2476, 0.035783555, 0.111416966, -103046.46, -103046.46, 0.0, 9.995462, 10.001475 
1.6249621e+3, 3.1453663e+2, -587033.25, -28991.85, -24851.867, 0.06839155, 0.11083833, -27887.281, -27887.281, 0.0, 9.994875, 10.002269 
1.6350831e+3, 1.2455407e+2, -1132884.3, -1715714.3, -42195.38, -0.11395072, 0.028836954, -1129845.3, 589528.25, 0.030684073, 10.005377, 9.997403 
1.63508e+3, 1.3455188e+2, -1026995.0, -1591205.1, 3669.1682, 0.11807957, 0.04254744, -1026971.1, 594422.25, 0.019310245, 10.005267, 9.997643 
1.6350716e+3, 1.4454903e+2, -971955.25, -1497750.0, -37346.38, -0.11433013, -0.013103114, -969315.8, 554105.25, 0.009195183, 10.004848, 9.9978075 
1.635066e+3, 1.5454726e+2, -977997.25, -1447633.5, -31238.21, -0.025129829, 0.022698095, -975928.5, 449511.2, 0.002771036, 10.00409, 9.997842 
1.6350597e+3, 1.645455e+2, -929305.8, -1325170.9, -41870.387, -0.0001026579, 0.043830413, -924925.7, 402531.75, 0.00035862112, 10.003534, 9.998277 
1.635053e+3, 1.745438e+2, -875495.8, -1247359.0, -48137.758, -0.0128672095, 0.040276002, -869365.44, 360108.56, 0.000005927034, 10.003224, 9.998288 
1.635046e+3, 1.8454227e+2, -835040.25, -1132857.9, -70848.22, -0.013104203, 0.04146865, -819045.1, 312444.0, 0.0, 10.002637, 9.998685 
1.635039e+3, 1.9454102e+2, -869058.4, -1096351.6, -66468.87, -0.008772618, 0.042305376, -851047.6, 182454.61, 0.0, 10.00172, 9.998705 
1.6350318e+3, 2.0453992e+2, -857156.44, -1009164.75, -66227.73, -0.0057104053, 0.051733594, -832350.1, 103163.32, 0.0, 10.000996, 9.9989805 
1.6350248e+3, 2.145391e+2, -831274.9, -944529.44, -66920.6, -0.0006262636, 0.06444718, -800237.94, 37284.258, 0.0, 10.000494, 9.998994 
1.6350177e+3, 2.2453825e+2, -780818.94, -809465.2, -62958.367, 0.0005949754, 0.05786316, -730574.94, 8955.102, 0.0, 9.999909, 9.99953 
1.6350107e+3, 2.3453748e+2, -780180.3, -754797.56, -62900.813, -0.004541359, 0.020419624, -703320.5, -61783.934, 0.0, 9.999227, 9.999561 
1.6350038e+3, 2.4453717e+2, -735145.0, -649755.56, -53220.16, -0.002857566, 0.021015596, -624221.06, -80681.445, 0.0, 9.998724, 9.99985 
1.6349971e+3, 2.5453746e+2, -676364.3, -568657.8, -44833.12, 0.007255692, 0.06268949, -552438.4, -106900.4, 0.0, 9.998445, 9.999869 
1.6349903e+3, 2.6453763e+2, -635662.44, -465399.13, -56653.96, 0.017496206, 0.07795271, -448270.97, -100733.36, 0.0, 9.9979105, 10.000162 
1.6349831e+3, 2.7453753e+2, -660834.4, -424517.03, -72318.305, 0.027765242, 0.04751893, -404142.66, -154603.4, 0.0, 9.997056, 10.000181 
1.6349763e+3, 2.8453815e+2, -593990.5, -236001.73, -44336.184, 0.024487961, 0.048004683, -230592.52, -79059.42, 0.0, 9.9963875, 10.001125 
1.6349694e+3, 2.945399e+2, -556502.1, -164144.95, -27928.629, 0.0034515413, 0.09920476, -162166.9, -108651.42, 0.0, 9.995958, 10.001151 
1.6349635e+3, 3.0454066e+2, -606397.75, -206303.95, -26009.145, 0.04948267, 0.08055387, -204620.25, -204620.25, 0.0, 9.995467, 10.000766 
1.6349567e+3, 3.145416e+2, -631380.0, -121052.59, -53294.246, 0.043547988, 0.09815882, -115546.41, -115546.41, 0.0, 9.994874, 10.0016365 
1.6450888e+3, 1.2456014e+2, -1064207.8, -1703396.6, -12916.914, -0.11681444, 0.005121807, -1063946.9, 655365.94, 0.032686315, 10.005969, 9.997205 
1.6450852e+3, 1.3455813e+2, -1010303.94, -1597138.1, 45266.098, 0.106518745, 0.0477603, -1006832.8, 614499.6, 0.020644592, 10.005454, 9.997512 
1.6450766e+3, 1.4455532e+2, -959101.5, -1490876.9, -13178.376, -0.119855896, 0.004799319, -958775.1, 564584.7, 0.009891001, 10.004939, 9.997811 
1.6450703e+3, 1.545533e+2, -926688.75, -1422159.1, -17605.482, -0.029474245, 0.014863221, -926063.94, 499315.97, 0.003015799, 10.004442, 9.997847 
1.6450633e+3, 1.6455147e+2, -889244.9, -1310895.5, -23930.68, -0.0001653469, 0.029675748, -887891.06, 439507.22, 0.00039974946, 10.003832, 9.998232 
1.6450562e+3, 1.7454988e+2, -899421.7, -1264308.8, -17097.156, -0.0039134747, 0.044056416, -898622.4, 330791.9, 0.0000070009137, 10.003084, 9.998239 
1.6450486e+3, 1.8454836e+2, -865122.9, -1147356.9, -42101.906, -0.0045238226, 0.049522687, -858976.25, 272453.28, 0.0, 10.002432, 9.998684 
1.6450407e+3, 1.94547e+2, -844805.06, -1084775.1, -45384.004, -0.014040463, 0.037391234, -836508.7, 196934.81, 0.0, 10.001889, 9.998702 
1.6450328e+3, 2.045459e+2, -807435.2, -981431.0, -39290.574, -0.015136469, 0.043956112, -798974.3, 136480.44, 0.0, 10.001322, 9.999013 
1.6450253e+3, 2.1454518e+2, -794716.25, -923363.8, -34608.777, -0.0021591936, 0.06658768, -785996.75, 51465.47, 0.0, 10.000731, 9.999023 
1.6450177e+3, 2.2454436e+2, -754217.94, -798391.06, -31827.572, 0.0034158863, 0.06067539, -737564.25, 1905.7216, 0.0, 10.000101, 9.999513 
1.64501e+3, 2.3454346e+2, -752679.5, -744225.1, -33824.977, -0.002060607, 0.013328654, -714364.2, -72886.63, 0.0, 9.999427, 9.9995365 
1.6450025e+3, 2.4454315e+2, -726137.6, -636198.94, -22450.943, 0.0015333156, 0.012187147, -630906.1, -87425.66, 0.0, 9.998745, 9.999933 
1.6449954e+3, 2.5454363e+2, -728383.94, -583762.5, -25920.244, 0.016099358, 0.060821936, -579257.2, -133780.03, 0.0, 9.998046, 9.999957 
1.6449879e+3, 2.6454383e+2, -694923.8, -489560.88, -35646.3, 0.02162542, 0.074634686, -483549.47, -136073.33, 0.0, 9.997487, 10.000198 
1.6449802e+3, 2.7454367e+2, -651711.0, -416880.3, -24346.805, 0.016604405, 0.034405015, -414382.66, -164904.5, 0.0, 9.997106, 10.000208 
1.6449727e+3, 2.8454432e+2, -575297.06, -227789.7, -1718.9257, 0.014695505, 0.035145886, -227781.19, -76309.23, 0.0, 9.996519, 10.001117 
1.6449654e+3, 2.945461e+2, -602689.75, -186819.72, -30591.475, 0.015378933, 0.096685715, -184581.45, -131127.5, 0.0, 9.995644, 10.001146 
1.6449586e+3, 3.0454668e+2, -671780.8, -240986.78, -17861.133, 0.050464183, 0.062272225, -240247.5, -240247.5, 0.0, 9.995033, 10.000734 
1.6449516e+3, 3.145479e+2, -626352.0, -89952.21, 2050.56, 0.03454187, 0.10640141, -89944.37, -89944.37, 0.0, 9.994786, 10.001891 
1.6550949e+3, 1.2456696e+2, -1082340.5, -1740145.5, -50420.7, -0.08803598, -0.023488196, -1078498.1, 640745.94, 0.034847453, 10.005974, 9.996948 
1.6550903e+3, 1.3456494e+2, -1023629.8, -1625334.4, 27014.123, 0.07881258, 0.040637176, -1022419.44, 598845.8, 0.022087645, 10.005463, 9.997312 
1.6550812e+3, 1.4456218e+2, -967405.06, -1508620.0, -32197.049, -0.14182125, 0.016839411, -965496.4, 557796.6, 0.0106480485, 10.004943, 9.997686 
1.655075e+3, 1.5455994e+2, -934992.94, -1440861.9, -35550.523, -0.011888729, 0.017870612, -932506.75, 492808.06, 0.0032854953, 10.004448, 9.997716 
1.6550675e+3, 1.6455798e+2, -880681.94, -1294163.0, -51448.227, 0.023775995, 0.021947999, -874376.56, 452957.44, 0.0004469211, 10.003836, 9.998345 
1.6550592e+3, 1.745564e+2, -890041.4, -1245521.0, -44431.18, -0.0081747295, 0.02528516, -884572.06, 344777.44, 0.000008273259, 10.003086, 9.998367 
1.655051e+3, 1.84555e+2, -870534.06, -1158985.8, -62729.867, -0.016881095, 0.035687655, -857482.7, 273881.28, 0.0, 10.002432, 9.998604 
1.6550426e+3, 1.9455376e+2, -851390.8, -1098920.5, -65249.785, -0.01299589, 0.04804997, -835244.0, 198132.73, 0.0, 10.00189, 9.998605 
1.6550341e+3, 2.0455264e+2, -799995.6, -966646.4, -61292.63, -0.013355708, 0.053346276, -779880.7, 155507.42, 0.0, 10.001324, 9.999115 
1.655026e+3, 2.1455172e+2, -786961.06, -907553.9, -56021.5, -0.012832941, 0.04289778, -764952.8, 72444.6, 0.0, 10.000731, 9.999133 
1.6550177e+3, 2.2455095e+2, -756001.3, -802488.56, -56810.973, -0.0038288366, 0.037892606, -717862.94, 21541.645, 0.0, 10.000101, 9.999486 
1.6550097e+3, 2.3455042e+2, -755173.56, -749753.44, -58099.37, 0.013895761, 0.032152668, -694300.94, -52892.11, 0.0, 9.999427, 9.9995 
1.6550015e+3, 2.4455011e+2, -730593.7, -645526.56, -47878.91, 0.017065682, 0.03581286, -624017.2, -80605.23, 0.0, 9.998745, 9.99987 
1.6549933e+3, 2.5455013e+2, -732883.6, -593527.2, -50723.176, 0.0024127264, 0.045380834, -577020.2, -131606.84, 0.0, 9.998046, 9.99989 
1.6549852e+3, 2.645504e+2, -667888.44, -434390.66, -49307.69, -0.0019399668, 0.050254777, -424405.38, -76994.17, 0.0, 9.997489, 10.000578 
1.6549772e+3, 2.745509e+2, -622712.44, -359032.63, -36308.63, 0.0064898944, 0.03790246, -354124.28, -104719.195, 0.0, 9.997113, 10.000603 
1.6549692e+3, 2.845515e+2, -613822.8, -309071.0, -32710.078, 0.014412659, 0.043615945, -305599.66, -154200.02, 0.0, 9.996524, 10.000557 
1.6549611e+3, 2.945525e+2, -644579.94, -273540.7, -62634.086, 0.019724477, 0.08087949, -263252.88, -209859.94, 0.0, 9.995642, 10.000552 
1.6549535e+3, 3.0455315e+2, -626360.8, -145702.63, -27114.982, 0.036496826, 0.054297417, -144177.84, -144177.84, 0.0, 9.995028, 10.001392 
1.6549464e+3, 3.1455538e+2, -545453.5, 76561.56, -10303.818, 0.037689492, 0.13195764, 76732.195, 76732.195, 0.0, 9.994792, 10.003033 
1.665101e+3, 1.2457456e+2, -1073564.1, -1749079.9, -51615.215, -0.08098831, -0.0171441, -1069643.1, 649526.56, 0.037161577, 10.00611, 9.99682 
1.6650958e+3, 1.3457237e+2, -985472.2, -1614521.0, 51045.24, 0.06476441, 0.0381373, -981357.0, 639835.6, 0.023636848, 10.005775, 9.997235 
1.6650863e+3, 1.4456964e+2, -929124.8, -1491023.5, -7339.704, -0.1434345, 0.022181636, -929028.94, 594191.06, 0.011466874, 10.005217, 9.997677 
1.6650793e+3, 1.545673e+2, -942042.7, -1444733.5, -2045.6785, -0.011493569, 0.014052947, -942034.4, 483207.94, 0.0035809402, 10.004403, 9.997711 
1.6650711e+3, 1.6456528e+2, -900324.9, -1304102.1, -16838.078, 0.022563588, 0.012008185, -899623.9, 427638.0, 0.0005003002, 10.003703, 9.998341 
1.6650623e+3, 1.7456369e+2, -883290.3, -1243049.4, -20522.096, -0.01597887, 0.013441251, -882123.44, 347154.34, 0.0000097975735, 10.003136, 9.998361 
1.6650534e+3, 1.8456227e+2, -850208.8, -1141087.3, -35758.066, -0.025099525, 0.02206475, -845877.56, 285414.28, 0.0, 10.002537, 9.998676 
1.6650444e+3, 1.945611e+2, -844045.5, -1086877.3, -26053.184, -0.0142646395, 0.032303616, -841281.75, 192021.69, 0.0, 10.0019045, 9.99868 
1.6650355e+3, 2.0455997e+2, -814996.56, -981475.8, -22889.307, -0.0110309, 0.035543084, -811906.8, 123408.016, 0.0, 10.001255, 9.999045 
1.6650265e+3, 2.1455893e+2, -814594.0, -929376.44, -32669.162, -0.011583014, 0.022945512, -805947.1, 31378.617, 0.0, 10.000579, 9.999057 
1.6650178e+3, 2.2455822e+2, -766162.8, -800667.7, -34800.27, -0.004223962, 0.024350101, -744573.2, -5240.4316, 0.0, 10.000003, 9.999545 
1.665009e+3, 2.3455793e+2, -733644.75, -732001.0, -29262.09, 0.010913898, 0.035485636, -703549.25, -62214.53, 0.0, 9.999544, 9.999565 
1.6650002e+3, 2.4455765e+2, -708877.7, -639152.75, -20964.535, 0.01150215, 0.04006061, -633334.7, -89997.07, 0.0, 9.998912, 9.999833 
1.6649914e+3, 2.5455746e+2, -730986.94, -597745.44, -23798.496, -0.0057069445, 0.03281502, -593622.4, -148281.34, 0.0, 9.998082, 9.999844 
1.6649826e+3, 2.6455772e+2, -678869.5, -425209.88, -20981.813, -0.008635312, 0.035360508, -423486.06, -76147.46, 0.0, 9.997352, 10.000707 
1.664974e+3, 2.745585e+2, -670548.6, -367377.16, -27852.111, 0.006877487, 0.03582111, -364839.63, -115509.92, 0.0, 9.996722, 10.000733 
1.6649656e+3, 2.8455913e+2, -660472.0, -338760.56, -19845.316, 0.017928118, 0.041407354, -337541.0, -186216.95, 0.0, 9.996236, 10.000491 
1.664957e+3, 2.945599e+2, -609465.94, -263781.63, -12454.193, 0.020301694, 0.06606297, -263333.53, -210013.69, 0.0, 9.995915, 10.000486 
1.6649483e+3, 3.0456084e+2, -595777.6, -124041.336, 20543.328, 0.010753993, 0.06830349, -123148.4, -123148.4, 0.0, 9.99521, 10.001452 
1.6649409e+3, 3.1456283e+2, -628101.56, 71879.74, -14982.0, 0.040079582, 0.11175979, 72200.26, 72200.26, 0.0, 9.994076, 10.0033455 
1.675107e+3, 1.2458285e+2, -1074213.1, -1748795.1, -80921.77, -0.09415096, 0.01743171, -1064641.8, 654448.2, 0.039620563, 10.006116, 9.996822 
1.6751015e+3, 1.3458037e+2, -982772.44, -1608789.4, 39408.586, 0.060792685, 0.03882935, -980301.4, 640813.56, 0.0252907, 10.005783, 9.9972725 
1.6750917e+3, 1.4457768e+2, -921868.6, -1476026.4, -36810.746, -0.1281643, 0.02025576, -919434.1, 603707.0, 0.012349643, 10.00522, 9.99778 
1.6750836e+3, 1.5457538e+2, -933622.75, -1428234.1, -31420.309, -0.027866192, 0.004214391, -931634.75, 493527.72, 0.0039041485, 10.004408, 9.997823 
1.6750747e+3, 1.6457333e+2, -908461.94, -1322051.4, -38408.516, -0.0044411942, 0.00049311406, -904925.3, 422256.84, 0.0005602872, 10.003706, 9.998216 
1.6750652e+3, 1.7457166e+2, -892896.7, -1263933.9, -41269.88, -0.029450437, 0.008350981, -888361.7, 340837.6, 0.000011659806, 10.003139, 9.998216 
1.6750558e+3, 1.845702e+2, -834034.9, -1108218.3, -59222.94, -0.031305194, 0.008142828, -821789.75, 309423.66, 0.0, 10.002539, 9.998902 
1.6750462e+3, 1.9456898e+2, -826817.2, -1051818.4, -49026.656, -0.01911929, -0.009895031, -816598.6, 216625.17, 0.0, 10.001906, 9.998921 
1.6750367e+3, 2.0456782e+2, -831890.6, -1017002.25, -48130.445, -0.010039915, -0.009140967, -820124.25, 115111.02, 0.0, 10.001256, 9.998802 
1.6750273e+3, 2.1456681e+2, -833763.44, -969156.2, -57288.074, 0.0006365198, 0.007515126, -812776.5, 24471.053, 0.0, 10.000578, 9.998784 
1.6750178e+3, 2.2456616e+2, -755688.1, -778966.1, -51990.496, 0.001328806, 0.021070555, -714049.75, 25205.03, 0.0, 10.000002, 9.999695 
1.6750084e+3, 2.3456593e+2, -721700.0, -707950.0, -45346.81, -0.0121598905, 0.022879938, -668960.0, -27704.344, 0.0, 9.999546, 9.999729 
1.6749988e+3, 2.4456571e+2, -709872.94, -641994.56, -50980.094, -0.016769879, 0.02476715, -614689.6, -71431.93, 0.0, 9.998914, 9.999813 
1.6749893e+3, 2.5456554e+2, -732926.56, -602558.9, -53320.99, -0.011000091, 0.023538979, -583528.4, -138267.88, 0.0, 9.998083, 9.999811 
1.6749799e+3, 2.6456577e+2, -687797.6, -444185.03, -43606.773, -0.00044500714, 0.029190918, -436614.66, -89355.82, 0.0, 9.997353, 10.000577 
1.6749708e+3, 2.7456638e+2, -679760.44, -386868.25, -49731.96, 0.017294955, 0.026570437, -378654.3, -129401.67, 0.0, 9.996723, 10.0006 
1.6749617e+3, 2.8456715e+2, -630601.06, -277386.13, -30987.11, 0.024322107, 0.028432535, -274688.28, -123442.63, 0.0, 9.996237, 10.000914 
1.6749528e+3, 2.945684e+2, -575938.25, -196254.22, -22322.055, 0.012009275, 0.057362102, -194946.38, -141711.77, 0.0, 9.995922, 10.000948 
1.6749431e+3, 3.0456975e+2, -634016.0, -204793.89, -20303.887, -0.030921433, 0.10606574, -203835.58, -203835.58, 0.0, 9.995214, 10.000896 
1.6749349e+3, 3.1457004e+2, -668602.5, -11463.514, -51885.44, 0.039718997, 0.04241832, -7392.0435, -7392.0435, 0.0, 9.994073, 10.002774 
1.6851135e+3, 1.2459188e+2, -1000680.75, -1702403.8, -57073.78, -0.093346894, 0.04053612, -996069.0, 722933.4, 0.0422165, 10.0066185, 9.9969 
1.6851072e+3, 1.345891e+2, -979573.06, -1598795.3, 80331.22, 0.048039816, 0.025349542, -969321.44, 651707.75, 0.02704875, 10.005778, 9.997345 
1.6850969e+3, 1.4458652e+2, -937733.25, -1482269.9, 1751.7177, -0.11740678, 0.01361683, -937727.6, 585326.25, 0.013299612, 10.005108, 9.997791 
1.685088e+3, 1.5458432e+2, -895494.56, -1409022.8, -1094.4908, -0.033114605, 0.0071083517, -895492.2, 529582.3, 0.004258305, 10.004669, 9.997829 
1.6850784e+3, 1.6458228e+2, -863580.0, -1306040.1, -12263.233, -0.014570168, 0.005482159, -863240.4, 463853.94, 0.0006277733, 10.004039, 9.998166 
1.6850683e+3, 1.7458047e+2, -891210.4, -1268899.9, -8824.473, -0.030153891, 0.0050000437, -891004.3, 338108.3, 0.00001399049, 10.003176, 9.998164 
1.6850583e+3, 1.8457894e+2, -840610.94, -1110418.6, -24757.076, -0.027685171, -0.0000055573014, -838358.1, 292769.2, 0.0, 10.00249, 9.99891 
1.6850482e+3, 1.9457772e+2, -810791.0, -1043212.7, -32315.16, -0.01895166, -0.017218813, -806381.6, 226755.72, 0.0, 10.002012, 9.99893 
1.685038e+3, 2.0457658e+2, -804225.6, -1005988.0, -36083.35, -0.010950807, -0.015526723, -797966.6, 137182.13, 0.0, 10.001456, 9.998781 
1.685028e+3, 2.1457556e+2, -801489.0, -955633.8, -27637.598, 0.0017935128, 0.0026328897, -796683.5, 40477.676, 0.0, 10.00081, 9.998765 
1.6850178e+3, 2.2457491e+2, -745567.2, -776072.2, -17681.412, -0.0012264049, 0.018538915, -737468.7, 1699.8702, 0.0, 10.000082, 9.999676 
1.6850075e+3, 2.345747e+2, -765439.25, -731449.75, -25869.469, -0.025266029, 0.023715481, -717492.06, -76322.4, 0.0, 9.999258, 9.999706 
1.6849975e+3, 2.4457446e+2, -746964.4, -648847.75, -34347.63, -0.028278254, 0.020845247, -638018.9, -94847.18, 0.0, 9.998613, 9.999911 
1.6849875e+3, 2.5457424e+2, -712995.0, -581785.5, -28012.92, -0.00637219, 0.0052098976, -576055.06, -130880.98, 0.0, 9.998173, 9.99991 
1.6849776e+3, 2.6457447e+2, -666367.3, -446794.06, -15591.213, 0.0062681, 0.012378758, -445692.5, -98520.27, 0.0, 9.997556, 10.000461 
1.6849676e+3, 2.7457517e+2, -686787.8, -404458.38, -22140.072, 0.010047308, 0.030176135, -402732.72, -153566.72, 0.0, 9.9967375, 10.000471 
1.6849579e+3, 2.8457585e+2, -645134.7, -270761.4, -1975.5482, 0.017817073, 0.026357401, -270751.0, -119591.32, 0.0, 9.996079, 10.001034 
1.6849487e+3, 2.9457688e+2, -615649.1, -198965.52, -18477.959, 0.02403697, 0.01841797, -198147.72, -144997.61, 0.0, 9.99558, 10.001095 
1.684938e+3, 3.0457875e+2, -671586.7, -216182.27, -25861.469, -0.04421638, 0.10591837, -214718.34, -214718.34, 0.0, 9.994928, 10.000956 
1.684929e+3, 3.145787e+2, -673645.56, -40673.35, -939.5558, 0.032346837, 0.007890029, -40671.957, -40671.957, 0.0, 9.994151, 10.002537 
1.6951202e+3, 1.2460155e+2, -994051.06, -1683453.0, -100417.74, -0.07903386, 0.0462925, -979722.1, 739185.94, 0.044946693, 10.006614, 9.99704 
1.6951127e+3, 1.3459854e+2, -972370.94, -1583017.9, 50386.395, 0.026206719, -0.002731144, -968241.3, 652694.6, 0.028911712, 10.005785, 9.997455 
1.695102e+3, 1.4459613e+2, -943876.5, -1495661.3, -15735.003, -0.113251746, 0.0011793119, -943428.1, 579530.7, 0.014319935, 10.005115, 9.997696 
1.6950928e+3, 1.545941e+2, -902600.6, -1424464.1, -16949.059, -0.031137632, 0.022822505, -902050.7, 522928.1, 0.0046471735, 10.004673, 9.997722 
1.6950825e+3, 1.6459207e+2, -860890.7, -1301323.0, -43834.555, -0.010959582, 0.027039422, -856570.4, 470428.22, 0.0007042656, 10.004042, 9.9981985 
1.6950716e+3, 1.7459007e+2, -887528.0, -1262863.6, -40542.637, -0.018933147, 0.0026195585, -883198.7, 345819.44, 0.000016975888, 10.0031805, 9.998204 
1.6950609e+3, 1.8458846e+2, -854909.06, -1141116.0, -43037.887, -0.01589428, -0.0023396683, -848577.4, 282456.3, 0.0, 10.002493, 9.998699 
1.6950503e+3, 1.9458732e+2, -826519.25, -1076189.3, -49518.2, -0.01515022, 0.010471219, -817056.75, 215987.58, 0.0, 10.002012, 9.998704 
1.6950396e+3, 2.045862e+2, -790212.6, -976996.0, -59875.867, -0.014756498, 0.01629285, -772666.8, 162388.69, 0.0, 10.001455, 9.998981 
1.6950287e+3, 2.1458513e+2, -785897.8, -923622.3, -51159.723, -0.00943296, 0.0072436505, -768973.56, 68093.484, 0.0, 10.00081, 9.998985 
1.6950178e+3, 2.2458443e+2, -758700.9, -803539.44, -48163.773, -0.013598202, 0.016184393, -727994.1, 11080.348, 0.0, 10.000081, 9.999488 
1.6950068e+3, 2.3458418e+2, -780499.0, -762747.5, -55569.95, -0.030052606, 0.038000267, -715348.94, -74271.84, 0.0, 9.999256, 9.999494 
1.6949962e+3, 2.4458385e+2, -732908.9, -619307.9, -50362.406, -0.02416206, 0.028381959, -600196.1, -57116.26, 0.0, 9.9986105, 10.000115 
1.6949858e+3, 2.545835e+2, -697011.4, -549293.06, -42855.664, 0.0077745, -0.021801695, -537760.3, -92678.14, 0.0, 9.998175, 10.0001335 
1.694975e+3, 2.645838e+2, -673410.25, -462490.94, -44710.453, 0.010732516, -0.014479191, -453404.72, -106325.57, 0.0, 9.997559, 10.000352 
1.694964e+3, 2.745848e+2, -694929.6, -422896.72, -50804.965, -0.019399878, 0.04809524, -413718.06, -164647.89, 0.0, 9.996742, 10.000343 
1.6949537e+3, 2.8458527e+2, -658394.94, -299464.97, -20058.05, -0.005095937, 0.035504475, -298347.53, -147280.88, 0.0, 9.996083, 10.000836 
1.6949446e+3, 2.9458526e+2, -628751.5, -225184.69, -35832.754, 0.056330442, -0.052209098, -222027.78, -168960.66, 0.0, 9.995574, 10.000918 
1.6949332e+3, 3.0458772e+2, -623462.25, -116394.484, -54030.953, -0.029876554, 0.063038185, -110701.1, -110701.1, 0.0, 9.994926, 10.001643 
1.6949229e+3, 3.1458908e+2, -662212.4, -20295.037, -12049.488, 0.007368795, 0.03866033, -20068.936, -20068.936, 0.0, 9.994165, 10.00267 
1.7051268e+3, 1.2461198e+2, -1047486.6, -1713378.3, -65141.027, -0.07209644, 0.036929358, -1041174.0, 677630.8, 0.047813352, 10.006266, 9.996992 
1.7051186e+3, 1.3460882e+2, -949348.7, -1583915.9, 79788.74, 0.009997086, -0.015770894, -939470.06, 681364.4, 0.030881492, 10.006015, 9.997337 
1.7051075e+3, 1.4460647e+2, -901270.2, -1484019.0, 1250.5842, -0.097082295, 0.0045967707, -901267.5, 621589.56, 0.015413159, 10.005458, 9.997612 
1.7050974e+3, 1.5460436e+2, -928206.06, -1446475.8, 1379.2765, -0.024230687, 0.025424499, -928202.44, 496675.94, 0.0050739385, 10.004539, 9.997636 
1.7050864e+3, 1.6460226e+2, -882650.75, -1309906.3, -21355.121, -0.011274983, 0.025728174, -881586.0, 445312.88, 0.00079141813, 10.003883, 9.998216 
1.7050749e+3, 1.746002e+2, -832190.4, -1234175.0, -20504.143, -0.024788616, -0.0048567345, -831147.2, 397771.13, 0.000020835878, 10.0035515, 9.998223 
1.7050636e+3, 1.8459858e+2, -792980.5, -1122206.5, -22719.92, -0.02123992, -0.005573279, -791420.0, 339513.97, 0.0, 10.002966, 9.998601 
1.7050524e+3, 1.9459751e+2, -824145.94, -1086286.1, -20760.117, -0.013146309, 0.022911461, -822512.06, 210432.55, 0.0, 10.002079, 9.998602 
1.705041e+3, 2.0459634e+2, -810879.3, -984780.0, -30973.197, -0.010574721, 0.029265938, -805527.44, 129428.875, 0.0, 10.001306, 9.998999 
1.7050295e+3, 2.1459514e+2, -806486.8, -931381.94, -37727.063, -0.0101704905, 0.0038155995, -795975.25, 40993.543, 0.0, 10.00066, 9.999003 
1.7050178e+3, 2.2459437e+2, -764433.94, -808126.7, -38046.707, -0.0152263045, 0.0068718456, -742407.56, -3430.8445, 0.0, 10.0000515, 9.999471 
1.7050062e+3, 2.3459418e+2, -748536.06, -749550.9, -32934.42, -0.027576871, 0.035812892, -716105.1, -75126.15, 0.0, 9.999487, 9.999472 
1.7049949e+3, 2.4459389e+2, -711034.9, -609377.94, -27041.816, -0.020624327, 0.032190584, -602632.1, -59650.773, 0.0, 9.998764, 10.000109 
1.7049837e+3, 2.5459358e+2, -744716.8, -572728.94, -37282.867, 0.008788008, -0.015402991, -564994.7, -120011.29, 0.0, 9.997852, 10.000127 
1.7049725e+3, 2.645938e+2, -716724.7, -480880.9, -37922.055, 0.009049638, -0.015482468, -474933.28, -127952.37, 0.0, 9.997253, 10.000372 
1.7049608e+3, 2.7459466e+2, -655157.3, -401755.94, -34220.0, -0.023613699, 0.030909194, -397216.1, -148242.95, 0.0, 9.997008, 10.0003605 
1.7049499e+3, 2.8459513e+2, -621650.75, -290923.9, -1957.2252, -0.007543978, 0.024289535, -290912.3, -139942.98, 0.0, 9.996376, 10.000753 
1.70494e+3, 2.9459524e+2, -671370.3, -254404.22, -10295.006, 0.061737362, -0.042876028, -254150.19, -201181.36, 0.0, 9.99532, 10.000839 
1.704928e+3, 3.045976e+2, -638268.56, -86911.99, -28433.46, -0.033567175, 0.050879985, -85449.56, -85449.56, 0.0, 9.99467, 10.001969 
1.7049171e+3, 3.145993e+2, -637173.8, -31344.525, 4032.7043, 0.0050799707, 0.028435057, -31317.682, -31317.682, 0.0, 9.994439, 10.002461 
1.7151329e+3, 1.24623105e+2, -1064225.4, -1748120.9, -84053.516, -0.073970206, 0.006869801, -1054046.4, 664647.4, 0.050815888, 10.006275, 9.996752 
1.7151244e+3, 1.3461997e+2, -972889.56, -1632279.5, 71222.16, -0.004051956, -0.011638274, -965284.44, 655440.5, 0.03295889, 10.006021, 9.996998 
1.7151132e+3, 1.4461757e+2, -906634.9, -1494406.4, -31868.543, -0.072633654, 0.026149072, -904912.06, 617836.56, 0.016580889, 10.00546, 9.9975395 
1.715102e+3, 1.5461504e+2, -931980.9, -1455648.9, -32240.016, -0.013427582, 0.013467452, -930003.44, 494770.1, 0.0055407807, 10.004545, 9.99757 
1.7150903e+3, 1.646128e+2, -882072.75, -1310542.9, -34547.773, -0.016773231, 0.0011478019, -879305.06, 447490.44, 0.00089072995, 10.00389, 9.998209 
1.7150782e+3, 1.7461085e+2, -832187.75, -1235100.6, -32146.027, -0.04941366, -0.016345926, -829639.1, 399174.4, 0.000025809924, 10.003554, 9.998217 
1.7150664e+3, 1.8460932e+2, -792137.8, -1120645.1, -55052.063, -0.045676135, -0.008997118, -783157.56, 347670.63, 0.0, 10.002965, 9.998612 
1.7150545e+3, 1.9460826e+2, -822907.7, -1084383.4, -53439.355, -0.013813966, 0.019356323, -812407.6, 220430.98, 0.0, 10.00208, 9.998615 
1.7150423e+3, 2.0460701e+2, -822198.2, -1008594.4, -55121.098, 0.000079612895, 0.023326272, -807117.8, 127733.695, 0.0, 10.001306, 9.9988365 
1.7150302e+3, 2.1460555e+2, -819214.0, -957666.6, -60897.008, -0.0019743326, -0.0071929744, -796240.9, 40625.95, 0.0, 10.000658, 9.998825 
1.715018e+3, 2.2460473e+2, -755139.06, -788408.44, -58866.84, -0.0074493475, -0.00894578, -710601.7, 28273.764, 0.0, 10.000049, 9.999608 
1.7150058e+3, 2.3460464e+2, -737570.8, -727275.44, -53012.965, -0.01858221, 0.01707964, -679160.8, -38285.06, 0.0, 9.999488, 9.999625 
1.7149937e+3, 2.4460453e+2, -726256.25, -640893.25, -59973.48, -0.019182984, 0.03176086, -609964.1, -67087.336, 0.0, 9.998763, 9.999893 
1.7149815e+3, 2.546044e+2, -761375.94, -607444.9, -69860.45, -0.0067975842, 0.025080392, -580467.3, -135588.98, 0.0, 9.997851, 9.999888 
1.7149696e+3, 2.646044e+2, -706637.56, -460973.25, -46865.64, -0.0008672581, 0.009223987, -452336.3, -105458.11, 0.0, 9.997256, 10.000508 
1.714958e+3, 2.7460465e+2, -643955.2, -379230.75, -42019.61, -0.0026613504, -0.021822892, -372721.06, -123845.445, 0.0, 9.997009, 10.000515 
1.7149465e+3, 2.846054e+2, -619448.5, -286278.63, -39729.688, 0.009319017, -0.00706093, -281606.5, -130738.21, 0.0, 9.996376, 10.000786 
1.714935e+3, 2.946068e+2, -669564.44, -251631.25, -47060.063, 0.03511453, 0.051009562, -246397.73, -193542.34, 0.0, 9.995325, 10.000856 
1.7149223e+3, 3.046084e+2, -642783.06, -99081.16, -37765.29, -0.059999272, 0.07099515, -96470.53, -96470.53, 0.0, 9.994679, 10.001883 
1.7149116e+3, 3.1460935e+2, -671943.0, -105440.625, 21252.678, 0.017270014, -0.016618857, -104644.44, -104644.44, 0.0, 9.994446, 10.00195 
1.7251395e+3, 1.2463478e+2, -989691.56, -1707401.4, -83596.55, -0.0663468, -0.004169992, -980083.2, 738495.5, 0.053952526, 10.006826, 9.996765 
1.7251301e+3, 1.3463162e+2, -983381.1, -1649334.4, 92572.16, -0.02496449, -0.012944424, -970752.44, 649857.7, 0.035143297, 10.006011, 9.996886 
1.7251188e+3, 1.446292e+2, -924810.0, -1508700.5, -4359.6914, -0.060563616, 0.028689062, -924777.44, 597857.0, 0.017823124, 10.005364, 9.997486 
1.7251068e+3, 1.5462641e+2, -874322.56, -1433897.8, -4658.883, -0.017703563, -0.0037484595, -874283.8, 550378.0, 0.0060486817, 10.004974, 9.997513 
1.7250942e+3, 1.6462412e+2, -817444.8, -1279801.0, -5482.402, -0.027840363, -0.014618722, -817379.8, 509304.1, 0.0010035688, 10.004338, 9.998204 
1.7250817e+3, 1.7462243e+2, -855075.7, -1246794.3, -3432.0688, -0.055743117, -0.008109888, -855045.6, 373654.06, 0.000032150663, 10.003401, 9.998209 
1.7250691e+3, 1.8462087e+2, -840324.0, -1147574.1, -30009.93, -0.04683466, -0.0028871265, -837420.3, 293294.44, 0.0, 10.002651, 9.998579 
1.7250565e+3, 1.9461946e+2, -819341.3, -1087106.0, -33227.375, -0.010572943, -0.004107847, -815279.7, 217448.72, 0.0, 10.002124, 9.998575 
1.7250438e+3, 2.0461817e+2, -794767.7, -999211.9, -31164.37, 0.0028651555, -0.0008784298, -790122.7, 144619.13, 0.0, 10.001512, 9.998801 
1.7250308e+3, 2.1461698e+2, -801139.3, -952743.06, -27631.027, -0.004863637, -0.00010309689, -796260.4, 40494.387, 0.0, 10.000801, 9.99879 
1.725018e+3, 2.2461617e+2, -752030.1, -788183.2, -24281.254, -0.008906567, 0.0030298918, -739835.56, -1072.3097, 0.0, 10.000076, 9.999595 
1.7250052e+3, 2.3461585e+2, -761677.2, -739795.9, -31236.568, -0.011099239, 0.0051389267, -717639.4, -76873.47, 0.0, 9.999329, 9.999615 
1.7249924e+3, 2.4461567e+2, -738027.06, -652791.06, -39955.96, -0.012292925, 0.018067047, -636990.1, -94222.66, 0.0, 9.998712, 9.999835 
1.7249794e+3, 2.5461566e+2, -708362.3, -589132.0, -38334.297, -0.0108579965, 0.032809697, -577870.6, -133102.77, 0.0, 9.998248, 9.999823 
1.724967e+3, 2.6461565e+2, -671088.7, -448218.7, -13057.319, -0.004293043, 0.020057524, -447456.3, -100687.94, 0.0, 9.99752, 10.000468 
1.7249548e+3, 2.7461576e+2, -723110.25, -421575.7, -23855.324, 0.0067800353, -0.023662407, -419700.06, -170932.17, 0.0, 9.996487, 10.000476 
1.7249426e+3, 2.846167e+2, -691446.75, -307410.13, -25294.09, 0.013721766, 0.005623554, -305751.3, -154992.7, 0.0, 9.995826, 10.000905 
1.7249304e+3, 2.9461852e+2, -622739.56, -217940.02, -25639.646, 0.018571464, 0.0940455, -216322.48, -163581.81, 0.0, 9.9956, 10.000955 
1.7249173e+3, 3.046192e+2, -602804.8, -101376.78, -17121.346, -0.055229563, 0.030828653, -100792.85, -100792.85, 0.0, 9.995047, 10.00169 
1.724906e+3, 3.1462067e+2, -736798.94, -153104.36, 58843.266, 0.024687396, 0.010939134, -147231.36, -147231.36, 0.0, 9.994074, 10.001802 
1.7351465e+3, 1.24647014e+2, -978850.25, -1677310.0, -117171.49, -0.056532104, 0.004152708, -959718.0, 758741.4, 0.05723175, 10.006816, 9.99699 
1.7351359e+3, 1.3464378e+2, -977349.9, -1633822.1, 62413.44, -0.053435244, -0.02222954, -971468.7, 649022.0, 0.037437133, 10.006015, 9.996989 
1.7351241e+3, 1.4464128e+2, -928030.6, -1515397.6, -19899.164, -0.061754428, 0.010521196, -927357.25, 595157.9, 0.019139303, 10.005369, 9.997438 
1.7351116e+3, 1.5463842e+2, -877742.9, -1441589.6, -18216.887, -0.039155886, -0.023722723, -877154.9, 547388.4, 0.006597429, 10.004977, 9.997459 
1.7350984e+3, 1.6463627e+2, -817796.8, -1280607.0, -39671.72, -0.047490925, -0.019127725, -814420.8, 512143.47, 0.0011308455, 10.004338, 9.998199 
1.7350852e+3, 1.7463489e+2, -855143.94, -1247715.3, -38040.387, -0.045143, 0.018104916, -851491.75, 377085.53, 0.000040117335, 10.003404, 9.998202 
1.735072e+3, 1.8463315e+2, -846275.25, -1160548.0, -49953.473, -0.026666785, 0.011690374, -838526.25, 292067.75, 0.0, 10.002652, 9.99849 
1.7350587e+3, 1.9463107e+2, -825618.94, -1100775.9, -51917.984, -0.005225363, -0.046957858, -816148.7, 216465.4, 0.0, 10.002125, 9.998482 
1.7350452e+3, 2.0462978e+2, -789098.6, -987490.3, -57376.504, -0.0039564916, -0.04266446, -773700.06, 160927.44, 0.0, 10.00151, 9.998883 
1.7350315e+3, 2.1462937e+2, -794799.25, -940027.4, -53414.164, -0.01991552, 0.024256464, -777269.7, 59363.305, 0.0, 10.000801, 9.998878 
1.7350179e+3, 2.2462866e+2, -763287.8, -811369.2, -51652.06, -0.021091709, 0.04205492, -730355.8, 8284.78, 0.0, 10.000075, 9.999437 
1.7350046e+3, 2.3462771e+2, -774328.5, -765631.8, -57975.586, -0.0071216254, 0.00032190265, -711841.75, -71191.95, 0.0, 9.999326, 9.999439 
1.7349912e+3, 2.4462728e+2, -732260.25, -640484.56, -56868.797, -0.0015971015, -0.008583834, -613298.8, -70644.81, 0.0, 9.99871, 9.999922 
1.7349778e+3, 2.546274e+2, -701218.56, -574919.5, -54169.258, -0.004270671, 0.007316929, -554869.44, -110216.8, 0.0, 9.99825, 9.99992 
1.7349645e+3, 2.6462758e+2, -687028.4, -481701.22, -50135.36, -0.0027459965, 0.016903298, -470113.47, -123461.414, 0.0, 9.997521, 10.000238 
1.7349513e+3, 2.7462792e+2, -739694.1, -457213.56, -61337.875, -0.000106689266, 0.028111529, -444469.6, -195819.11, 0.0, 9.996491, 10.000229 
1.7349383e+3, 2.846289e+2, -675878.75, -277357.8, -33981.668, 0.0015415333, 0.063173875, -274481.0, -123839.98, 0.0, 9.995833, 10.001108 
1.734926e+3, 2.9463026e+2, -609933.0, -193144.88, -31443.375, 0.011053041, 0.081637435, -190786.08, -138160.2, 0.0, 9.995605, 10.001123 
1.7349125e+3, 3.0463e+2, -624669.2, -147023.81, -52743.09, -0.020923862, -0.06770555, -141269.1, -141269.1, 0.0, 9.995048, 10.001376 
1.7349e+3, 3.146329e+2, -719450.5, -117115.23, 45957.297, 0.016478343, 0.084533796, -113628.94, -113628.94, 0.0, 9.994074, 10.002049 
1.7451534e+3, 1.2465991e+2, -995698.44, -1676601.6, -87927.52, -0.044466894, 0.0046784747, -984527.3, 733805.75, 0.060671642, 10.006679, 9.997061 
1.7451417e+3, 1.3465662e+2, -956789.0, -1628133.0, 81537.68, -0.07668176, -0.023788957, -947027.8, 673336.8, 0.039847117, 10.006198, 9.996941 
1.7451297e+3, 1.4465408e+2, -903379.94, -1500387.5, -2040.1846, -0.054016653, 0.0065685785, -903372.94, 619016.4, 0.020529905, 10.005539, 9.99746 
1.7451163e+3, 1.5465136e+2, -915007.6, -1457107.1, 4571.6045, -0.047231723, -0.018338317, -914969.06, 509447.38, 0.0071862014, 10.004713, 9.997479 
1.7451026e+3, 1.6464916e+2, -866885.7, -1311678.1, -19802.973, -0.05500186, -0.014233381, -866005.75, 460432.16, 0.0012727504, 10.004033, 9.998132 
1.7450887e+3, 1.7464758e+2, -842614.75, -1249812.9, -24315.436, -0.033479556, 0.011356052, -841167.94, 387285.0, 0.0000499031, 10.003526, 9.998129 
1.7450748e+3, 1.8464582e+2, -812793.3, -1145420.1, -33292.34, -0.013852459, 0.006422263, -809493.8, 320976.22, 0.0000000000000006446772, 10.002888, 9.99848 
1.7450608e+3, 1.9464388e+2, -830245.6, -1104067.0, -29811.97, -0.013142612, -0.03667056, -827037.44, 205451.47, 0.0, 10.0021, 9.99847 
1.7450465e+3, 2.046426e+2, -799812.2, -985510.2, -32050.588, -0.015844075, -0.034035716, -794436.06, 140065.98, 0.0, 10.001408, 9.998944 
1.7450324e+3, 2.1464203e+2, -787295.8, -929326.75, -30705.309, -0.01703421, 0.01317378, -780941.94, 55566.39, 0.0, 10.000823, 9.9989395 
1.7450182e+3, 2.2464134e+2, -756077.44, -818105.44, -30969.168, -0.0140181305, 0.03280118, -743262.7, -4746.77, 0.0, 10.00017, 9.999344 
1.745004e+3, 2.3464055e+2, -764831.1, -772334.2, -33334.07, -0.008192989, 0.016401531, -735038.1, -94513.734, 0.0, 9.999441, 9.999336 
1.74499e+3, 2.4464008e+2, -731175.8, -644448.9, -27608.793, -0.004040317, 0.011483172, -636405.8, -93876.44, 0.0, 9.998737, 9.99988 
1.7449759e+3, 2.5463995e+2, -731930.4, -593805.44, -35633.76, 0.000449417, 0.007252967, -585154.4, -140624.1, 0.0, 9.998059, 9.999881 
1.744962e+3, 2.6464006e+2, -702380.44, -490663.38, -37523.836, 0.002859851, 0.016538173, -484209.56, -137679.5, 0.0, 9.997426, 10.000221 
1.7449479e+3, 2.7464065e+2, -690122.0, -435161.94, -32650.637, -0.0032093164, 0.05034793, -431047.06, -182520.45, 0.0, 9.996842, 10.000211 
1.7449342e+3, 2.8464165e+2, -634409.0, -262531.6, 4296.2954, -0.009038456, 0.09026193, -262481.97, -111964.76, 0.0, 9.996141, 10.0010605 
1.7449212e+3, 2.946428e+2, -664777.2, -231232.44, -14334.625, 0.0017133793, 0.091868386, -230759.0, -178254.55, 0.0, 9.995281, 10.001018 
1.7449078e+3, 3.0464208e+2, -704884.75, -203105.5, -46409.926, 0.024991225, -0.08384486, -198849.11, -198849.11, 0.0, 9.994574, 10.00122 
1.7448938e+3, 3.1464526e+2, -676952.94, -27807.486, 76484.01, -0.00623347, 0.10561255, -18917.684, -18917.684, 0.0, 9.994069, 10.002665 
1.7551601e+3, 1.2467345e+2, -1003171.8, -1688277.3, -104353.664, -0.03542467, -0.0051371004, -987629.5, 730570.75, 0.064285114, 10.006684, 9.996975 
1.7551477e+3, 1.3467015e+2, -970890.1, -1655873.0, 64552.906, -0.09755409, -0.015773002, -964859.75, 655372.3, 0.042379342, 10.0062, 9.996749 
1.7551352e+3, 1.4466758e+2, -899508.44, -1489799.0, -32216.637, -0.041130513, 0.01944511, -897755.4, 624501.6, 0.021996142, 10.005535, 9.997537 
1.7551209e+3, 1.5466508e+2, -909430.4, -1445239.3, -25491.918, -0.043480508, 0.0097111175, -908220.25, 516061.72, 0.007814244, 10.004714, 9.9975605 
1.7551066e+3, 1.6466272e+2, -876303.25, -1331593.5, -39008.855, -0.052077673, -0.0021957643, -872985.2, 453320.13, 0.0014289905, 10.004034, 9.997996 
1.7550924e+3, 1.7466049e+2, -851968.9, -1270427.6, -42463.605, -0.023016402, -0.02674536, -847703.3, 380623.44, 0.00006152053, 10.003529, 9.997987 
1.7550777e+3, 1.8465883e+2, -808210.9, -1136479.9, -62018.383, -0.011422651, -0.017135855, -796884.8, 333458.34, 0.0000000010737394, 10.002889, 9.998542 
1.7550626e+3, 1.9465782e+2, -825262.25, -1094849.5, -58332.26, -0.034686718, 0.025218397, -813181.9, 219171.45, 0.0, 10.002103, 9.998532 
1.7550477e+3, 2.0465654e+2, -797168.1, -980365.7, -53606.586, -0.033341534, 0.023828184, -782634.94, 151731.13, 0.0, 10.001408, 9.9989805 
1.7550333e+3, 2.1465498e+2, -785234.2, -924987.44, -51375.676, 0.0020533835, -0.03304027, -768380.1, 68000.92, 0.0, 10.000821, 9.998971 
1.7550185e+3, 2.2465417e+2, -758957.4, -823764.25, -57528.848, 0.009988044, -0.024338873, -725333.94, 13055.745, 0.0, 10.000168, 9.999308 
1.7550033e+3, 2.3465428e+2, -767583.4, -778613.5, -59416.945, -0.0156834, 0.052733522, -713426.1, -73035.67, 0.0, 9.999441, 9.999294 
1.7549886e+3, 2.4465398e+2, -743441.2, -669930.2, -52451.777, -0.021201616, 0.0776902, -642637.6, -100243.39, 0.0, 9.998736, 9.999706 
1.7549741e+3, 2.5465328e+2, -744256.4, -620026.0, -59696.52, 0.0002967129, 0.03371396, -595990.3, -151589.03, 0.0, 9.99806, 9.9997015 
1.7549595e+3, 2.6465318e+2, -688006.5, -462100.8, -58585.242, 0.00979306, 0.019483175, -447811.47, -101408.57, 0.0, 9.99743, 10.000416 
1.7549448e+3, 2.7465388e+2, -675208.2, -405328.13, -52457.844, -0.0031760987, 0.04198434, -395490.28, -147093.27, 0.0, 9.996845, 10.000414 
1.7549303e+3, 2.8465486e+2, -655760.4, -307796.53, -26759.496, -0.01911619, 0.0855792, -305750.66, -155362.67, 0.0, 9.996144, 10.000749 
1.7549163e+3, 2.94656e+2, -690328.1, -287266.06, -46167.113, -0.014952765, 0.12440609, -282045.66, -229668.38, 0.0, 9.995293, 10.0006275 
1.7549029e+3, 3.0465552e+2, -702322.44, -200249.8, -65198.195, 0.07654861, -0.009831707, -191921.44, -191921.44, 0.0, 9.994582, 10.001235 
1.7548876e+3, 3.1465787e+2, -619851.44, 92431.875, 60119.418, -0.043309882, 0.08793134, 97470.54, 97470.54, 0.0, 9.994061, 10.003495 
1.765167e+3, 1.2468764e+2, -950315.7, -1650402.9, -89517.26, -0.037916612, 0.00044661525, -939050.75, 779010.7, 0.068075955, 10.007047, 9.997079 
1.7651537e+3, 1.3468428e+2, -981080.4, -1656695.1, 88361.27, -0.11938119, -0.019454386, -969715.1, 650377.8, 0.045036763, 10.006125, 9.99678 
1.7651409e+3, 1.4468159e+2, -935897.94, -1515248.3, -4685.7183, -0.021599285, 0.0054831607, -935860.0, 586259.06, 0.023538055, 10.005324, 9.997459 
1.7651257e+3, 1.5467925e+2, -914048.25, -1456412.0, -9069.995, -0.037099246, 0.020596119, -913896.56, 510246.72, 0.008479998, 10.004726, 9.997478 
1.7651106e+3, 1.6467689e+2, -868622.56, -1327410.0, -18925.645, -0.054653697, 0.012818431, -867843.2, 458323.72, 0.0015988299, 10.004089, 9.997996 
1.7650957e+3, 1.7467447e+2, -870025.8, -1278851.0, -13040.49, -0.031703062, -0.031059297, -869610.3, 358579.63, 0.00007476828, 10.003407, 9.997986 
1.7650805e+3, 1.8467279e+2, -816513.44, -1138302.4, -29883.021, -0.019931164, -0.023826178, -813761.8, 316444.56, 0.000000009428086, 10.002824, 9.99856 
1.7650647e+3, 1.9467199e+2, -787419.2, -1074704.9, -30727.29, -0.03608212, 0.03630426, -784169.44, 248045.5, 0.0, 10.002356, 9.9985485 
1.7650492e+3, 2.0467073e+2, -762263.56, -966671.3, -34858.844, -0.03189932, 0.039999343, -756482.4, 177744.98, 0.0, 10.001661, 9.998952 
1.765034e+3, 2.1466903e+2, -803928.44, -937056.6, -38747.266, 0.0011806008, -0.02677566, -793472.2, 42771.492, 0.0, 10.000708, 9.998941 
1.7650186e+3, 2.2466816e+2, -788642.7, -838172.8, -40031.62, 0.010873513, -0.02276739, -766335.06, -28082.24, 0.0, 9.999965, 9.999305 
1.7650028e+3, 2.3466828e+2, -765706.06, -777990.4, -39362.76, -0.009212958, 0.055377804, -732009.1, -91755.82, 0.0, 9.999457, 9.9992895 
1.7649873e+3, 2.4466796e+2, -734906.44, -673250.75, -30350.209, -0.019186959, 0.08059735, -660817.9, -118560.375, 0.0, 9.998828, 9.999639 
1.7649719e+3, 2.5466722e+2, -748451.06, -629971.06, -30402.053, -0.013104207, 0.03850775, -622625.3, -178359.88, 0.0, 9.998067, 9.99963 
1.7649567e+3, 2.6466712e+2, -696244.0, -463695.03, -27751.814, 0.00042574052, 0.02793674, -460429.06, -114162.1, 0.0, 9.997363, 10.000437 
1.7649417e+3, 2.746678e+2, -690940.7, -410086.7, -35847.418, 0.012371916, 0.04853272, -405583.44, -157322.88, 0.0, 9.996726, 10.000439 
1.7649265e+3, 2.8466865e+2, -671691.44, -318343.25, -12702.75, -0.016688371, 0.07753107, -317887.2, -167634.19, 0.0, 9.996049, 10.000722 
1.7649111e+3, 2.9466966e+2, -692545.1, -294996.88, -10572.359, -0.06254413, 0.106631346, -294715.9, -242471.73, 0.0, 9.995309, 10.000566 
1.7648979e+3, 3.0466977e+2, -710735.4, -225565.0, -13148.519, 0.10652318, 0.048388213, -225208.92, -225208.92, 0.0, 9.994617, 10.001043 
1.7648816e+3, 3.1467095e+2, -626488.94, 101418.336, 72482.62, -0.03179811, 0.043287553, 108565.734, 108565.734, 0.0, 9.993966, 10.003601 
1.7751738e+3, 1.2470255e+2, -939013.06, -1617770.3, -115951.85, -0.056887675, 0.025823286, -919751.6, 798164.44, 0.07205008, 10.007033, 9.99733 
1.7751595e+3, 1.3469897e+2, -967711.44, -1624569.8, 54787.234, -0.144803, -0.035649575, -963173.1, 656774.7, 0.04782239, 10.006129, 9.996998 
1.7751464e+3, 1.4469606e+2, -951276.25, -1547133.0, -27890.158, 0.0011173195, -0.03500556, -949973.7, 572002.3, 0.025155123, 10.005327, 9.997239 
1.7751306e+3, 1.5469384e+2, -929969.7, -1490568.0, -30225.941, -0.03061723, 0.015791154, -928344.7, 495655.84, 0.009181525, 10.004731, 9.997241 
1.7751147e+3, 1.6469166e+2, -859614.3, -1309652.5, -43821.613, -0.06552117, 0.031658318, -855386.94, 470635.9, 0.0017813718, 10.004092, 9.998117 
1.7750989e+3, 1.7468946e+2, -860492.25, -1260177.5, -37566.42, -0.059447993, -0.00330718, -856992.0, 371051.03, 0.000089384695, 10.003409, 9.998114 
1.7750831e+3, 1.8468763e+2, -818839.3, -1143274.4, -46991.117, -0.039729062, -0.014636498, -812170.25, 317890.25, 0.000000028818846, 10.002823, 9.998527 
1.7750674e+3, 1.946863e+2, -789845.2, -1080063.8, -47002.875, -0.019454699, -0.0026836488, -782422.56, 249651.69, 0.0, 10.002356, 9.998513 
1.7750512e+3, 2.0468512e+2, -769278.5, -981313.25, -69332.93, -0.014664574, 0.014993151, -748620.1, 185466.4, 0.0, 10.00166, 9.998853 
1.7750345e+3, 2.1468416e+2, -810891.0, -952317.8, -73309.53, -0.021201072, 0.030866822, -779748.3, 56348.566, 0.0, 10.00071, 9.998837 
1.7750183e+3, 2.2468327e+2, -786230.5, -833430.94, -58857.055, -0.012341316, 0.036917202, -746418.4, -8312.38, 0.0, 9.999965, 9.999339 
1.7750025e+3, 2.3468253e+2, -763044.4, -772876.8, -57048.73, 0.010437497, 0.024680004, -710700.44, -70586.94, 0.0, 9.999456, 9.999327 
1.7749864e+3, 2.4468192e+2, -732429.2, -668345.3, -57651.176, 0.00037507637, 0.019530615, -634430.1, -92310.45, 0.0, 9.998828, 9.999673 
1.7749697e+3, 2.5468165e+2, -746111.56, -626050.25, -57427.66, -0.04147869, 0.019669736, -603004.94, -158881.44, 0.0, 9.998069, 9.999656 
1.7749539e+3, 2.646818e+2, -707272.25, -487598.66, -50908.586, -0.026926061, 0.04108203, -476374.28, -130251.32, 0.0, 9.997366, 10.000272 
1.7749386e+3, 2.746824e+2, -701266.75, -433656.4, -58061.28, 0.038568906, 0.07207912, -421602.28, -173484.55, 0.0, 9.996734, 10.000274 
1.7749225e+3, 2.8468296e+2, -651446.6, -278307.4, -39649.61, -0.006492584, 0.06642267, -274140.78, -124028.01, 0.0, 9.996057, 10.000994 
1.7749056e+3, 2.9468367e+2, -672470.4, -254474.84, -37175.33, -0.14075276, 0.03512604, -251194.33, -199088.47, 0.0, 9.995312, 10.000843 
1.7748925e+3, 3.0468482e+2, -736960.4, -280213.53, -34549.125, 0.11430002, 0.08653779, -277614.94, -277614.94, 0.0, 9.994617, 10.000669 
1.7748764e+3, 3.1468564e+2, -676659.44, -4083.6248, 12832.002, 0.04308949, 0.086093076, -3838.8933, -3838.8933, 0.0, 9.993973, 10.002872 
1.7851807e+3, 1.24718e+2, -972729.06, -1642394.9, -68265.68, -0.052536506, 0.01090817, -965840.9, 751922.3, 0.07621737, 10.006855, 9.997234 
1.7851655e+3, 1.3471445e+2, -956516.75, -1629352.8, 71018.734, -0.1605628, -0.0377613, -949102.4, 670693.1, 0.050738864, 10.006276, 9.996894 
1.7851521e+3, 1.4471135e+2, -919942.3, -1530827.6, -12777.839, 0.020122249, -0.049210005, -919675.1, 602150.5, 0.026847737, 10.005558, 9.997238 
1.7851353e+3, 1.5470915e+2, -923871.44, -1487712.3, 1315.9458, -0.035013676, 0.003336384, -923868.4, 499981.3, 0.009918874, 10.00478, 9.997236 
1.7851186e+3, 1.6470698e+2, -857671.8, -1309288.8, -5553.2266, -0.07758508, 0.021214386, -857603.5, 468268.3, 0.0019764863, 10.00411, 9.998111 
1.7851023e+3, 1.7470478e+2, -840268.94, -1251332.1, -10126.3955, -0.060861044, -0.011883459, -840019.6, 387872.56, 0.00010526353, 10.003554, 9.998104 
1.7850861e+3, 1.8470298e+2, -812708.6, -1135765.8, -23589.563, -0.036179256, -0.02248785, -810995.2, 318914.38, 0.0000000562377, 10.002848, 9.998565 
1.7850694e+3, 1.9470167e+2, -841955.94, -1100488.4, -19039.586, -0.018487656, -0.010770138, -840561.25, 191361.75, 0.0, 10.00198, 9.998552 
1.7850526e+3, 2.0470054e+2, -818362.06, -1009269.0, -36051.773, -0.015489105, 0.010944255, -811780.75, 122154.34, 0.0, 10.001343, 9.998813 
1.7850354e+3, 2.1469963e+2, -777008.0, -941084.06, -36191.7, -0.023261093, 0.036506258, -769379.56, 66565.75, 0.0, 10.000965, 9.998791 
1.7850184e+3, 2.246987e+2, -731802.75, -808879.3, -22200.643, -0.014004994, 0.04089991, -725865.56, 12089.396, 0.0, 10.000346, 9.999324 
1.7850019e+3, 2.3469777e+2, -764458.75, -774713.5, -25479.092, 0.011353584, 0.0126596065, -743596.25, -103632.57, 0.0, 9.999454, 9.999315 
1.784985e+3, 2.4469714e+2, -749745.7, -675760.44, -28022.61, 0.00034199978, 0.003994026, -666344.9, -124374.75, 0.0, 9.998705, 9.999681 
1.7849678e+3, 2.5469697e+2, -740350.06, -623012.56, -30125.05, -0.04556611, 0.016499685, -615730.25, -171757.22, 0.0, 9.998107, 9.999659 
1.7849512e+3, 2.6469716e+2, -704157.6, -488437.28, -20238.227, -0.028368408, 0.043773603, -486555.03, -140582.97, 0.0, 9.997397, 10.000251 
1.7849353e+3, 2.746977e+2, -725839.94, -448031.13, -16711.152, 0.04533521, 0.06817565, -447029.5, -199062.08, 0.0, 9.996576, 10.000251 
1.7849185e+3, 2.8469813e+2, -679671.8, -290344.22, -506.91144, -0.005742808, 0.050690733, -290343.56, -140379.86, 0.0, 9.995856, 10.001008 
1.7849007e+3, 2.946988e+2, -679023.6, -252117.77, -19961.035, -0.15665859, 0.016926214, -251186.47, -199229.42, 0.0, 9.995242, 10.000894 
1.7848873e+3, 3.047005e+2, -718497.1, -252371.98, -547.89624, 0.13064249, 0.10727155, -252371.34, -252371.34, 0.0, 9.994661, 10.000839 
1.7848703e+3, 3.14701e+2, -698019.0, -57873.3, 37223.09, 0.045668673, 0.061494283, -55716.125, -55716.125, 0.0, 9.994017, 10.0024805 
1.7951877e+3, 1.24734e+2, -1003399.6, -1699165.8, -77112.58, -0.037852444, -0.039388504, -994955.6, 722647.56, 0.080581635, 10.006855, 9.996814 
1.7951718e+3, 1.3473067e+2, -985165.9, -1687426.1, 50301.93, -0.16785133, -0.026416143, -981581.1, 638055.2, 0.0537876, 10.006275, 9.996495 
1.7951576e+3, 1.4472745e+2, -908478.75, -1503996.1, -41674.105, 0.03500123, -0.0387357, -905576.56, 616091.6, 0.028619064, 10.005554, 9.997428 
1.7951399e+3, 1.5472515e+2, -910050.56, -1458197.5, -26329.043, -0.051894784, -0.016688881, -908788.8, 514902.28, 0.010695878, 10.00478, 9.997439 
1.7951225e+3, 1.6472282e+2, -867528.25, -1329940.1, -25930.99, -0.09294649, -0.016883511, -866078.6, 459635.56, 0.0021856008, 10.00411, 9.997971 
1.7951061e+3, 1.747204e+2, -850115.44, -1272693.4, -29850.424, -0.038699284, -0.05566478, -848017.25, 379720.56, 0.00012255237, 10.003557, 9.997957 
1.7950891e+3, 1.8471879e+2, -805399.9, -1121400.0, -55271.367, -0.012983817, -0.047009386, -796011.4, 333742.8, 0.000000085167756, 10.00285, 9.998664 
1.7950714e+3, 1.9471806e+2, -834322.56, -1085557.9, -50392.098, -0.03414867, 0.011423552, -824591.94, 207169.9, 0.0, 10.001983, 9.998654 
1.7950538e+3, 2.0471694e+2, -817090.5, -1007076.06, -49909.703, -0.03436351, 0.027584549, -804777.1, 128996.48, 0.0, 10.001344, 9.998829 
1.7950365e+3, 2.1471539e+2, -776019.0, -939592.0, -48737.383, -0.005727937, -0.009814307, -762598.56, 73191.02, 0.0, 10.000965, 9.998802 
1.7950189e+3, 2.2471437e+2, -737037.6, -819809.2, -54239.54, 0.0040896377, -0.011449828, -710198.0, 27602.256, 0.0, 10.000345, 9.999249 
1.7950012e+3, 2.3471394e+2, -769820.2, -786402.25, -57686.496, -0.009229572, 0.018328112, -719831.94, -80027.375, 0.0, 9.999454, 9.999235 
1.7949834e+3, 2.4471352e+2, -750828.25, -678101.0, -49774.75, -0.021319522, 0.034062713, -652821.8, -111012.24, 0.0, 9.998704, 9.999667 
1.794966e+3, 2.5471318e+2, -740651.4, -624407.75, -51045.1, -0.027036166, 0.031283002, -605174.9, -161360.53, 0.0, 9.998108, 9.999649 
1.7949489e+3, 2.647132e+2, -694599.2, -470076.66, -49712.496, -0.0055685258, 0.035583403, -459562.0, -113747.27, 0.0, 9.997402, 10.000376 
1.7949317e+3, 2.7471358e+2, -716497.6, -430865.72, -45461.01, 0.031752247, 0.031131051, -423804.72, -175994.08, 0.0, 9.996584, 10.000366 
1.7949142e+3, 2.8471404e+2, -696941.4, -327167.25, -22729.244, -0.014332714, 0.02875589, -325775.38, -175969.06, 0.0, 9.995859, 10.000754 
1.7948964e+3, 2.9471514e+2, -692165.6, -280111.66, -40868.387, -0.11545093, 0.06080985, -276097.34, -224299.95, 0.0, 9.995244, 10.000701 
1.7948821e+3, 3.0471665e+2, -666261.4, -145603.28, -21102.156, 0.14410731, 0.102677494, -144749.42, -144749.42, 0.0, 9.994667, 10.001571 
1.794864e+3, 3.1471732e+2, -685084.94, -35233.836, -38107.082, -0.0047099446, 0.00721506, -33006.88, -33006.88, 0.0, 9.994033, 10.002628 
1.8051948e+3, 1.2475058e+2, -961605.75, -1693051.3, -61916.797, -0.038768694, -0.073524155, -956401.56, 761037.44, 0.08513871, 10.00727, 9.996659 
1.805178e+3, 1.3474756e+2, -1003972.44, -1708540.6, 67804.13, -0.17528579, -0.017520638, -997506.7, 621963.56, 0.056972556, 10.006207, 9.996385 
1.8051635e+3, 1.4474428e+2, -930986.44, -1504375.0, -10335.097, 0.06156887, -0.035246477, -930800.2, 590702.7, 0.030476429, 10.005361, 9.997519 
1.8051447e+3, 1.5474178e+2, -898860.2, -1442482.5, -2490.14, -0.047167927, -0.041845005, -898848.75, 524678.06, 0.011518778, 10.004819, 9.997527 
1.8051265e+3, 1.6473944e+2, -866302.6, -1335670.4, -3361.8032, -0.095983796, -0.04305871, -866278.56, 459271.25, 0.0024111723, 10.004149, 9.9979105 
1.8051095e+3, 1.7473729e+2, -884556.8, -1296275.5, -2379.476, -0.03856384, -0.051244788, -884543.06, 343028.88, 0.00014164914, 10.003353, 9.997891 
1.8050918e+3, 1.8473569e+2, -831303.1, -1131013.6, -28779.12, -0.0133302305, -0.036772754, -828564.7, 301023.56, 0.00000010953618, 10.002662, 9.998687 
1.8050732e+3, 1.9473477e+2, -817454.75, -1074454.1, -30539.564, -0.038212538, 0.00011911609, -813875.56, 217721.83, 0.0, 10.002087, 9.998679 
1.805055e+3, 2.047336e+2, -798207.4, -993780.44, -25222.904, -0.039361376, 0.009564423, -795006.75, 138602.61, 0.0, 10.001456, 9.998865 
1.8050374e+3, 2.147322e+2, -802743.0, -947837.75, -23179.414, -0.009189169, -0.018375611, -799130.0, 36494.16, 0.0, 10.000765, 9.99884 
1.8050192e+3, 2.2473122e+2, -770958.06, -837449.0, -32684.46, 0.00024487593, -0.016763382, -757582.4, -19947.893, 0.0, 10.000118, 9.999237 
1.8050006e+3, 2.3473077e+2, -761350.7, -784305.1, -31914.36, -0.015418815, 0.010715871, -738912.5, -99273.234, 0.0, 9.99952, 9.999218 
1.8049823e+3, 2.4473038e+2, -734200.6, -665394.56, -18406.805, -0.022453876, 0.031096539, -660779.94, -119136.08, 0.0, 9.998796, 9.999709 
1.8049642e+3, 2.547302e+2, -763026.06, -629955.4, -16437.3, -0.016524354, 0.038859293, -627955.06, -184307.73, 0.0, 9.997933, 9.999696 
1.8049464e+3, 2.647302e+2, -710352.3, -475443.13, -13050.52, 0.0003939404, 0.03945771, -474720.3, -129072.555, 0.0, 9.997284, 10.000396 
1.8049283e+3, 2.747304e+2, -676717.25, -410625.78, -17978.146, 0.021173831, 0.016948683, -409416.6, -161771.38, 0.0, 9.996851, 10.000378 
1.8049102e+3, 2.84731e+2, -673174.1, -315009.72, 1004.94836, -0.010627679, 0.022783099, -315006.9, -165366.92, 0.0, 9.996018, 10.000761 
1.8048918e+3, 2.947324e+2, -752061.56, -301951.78, 3736.3652, -0.07455445, 0.08652812, -301920.78, -250292.92, 0.0, 9.994803, 10.000763 
1.8048762e+3, 3.0473348e+2, -724521.75, -149342.69, 34248.57, 0.11824185, 0.07117982, -147310.56, -147310.56, 0.0, 9.994164, 10.001786 
1.8048579e+3, 3.1473505e+2, -681363.25, -28290.74, -66985.8, -0.00020594492, 0.047983244, -21490.795, -21490.795, 0.0, 9.994037, 10.002675 
1.8152018e+3, 1.2476771e+2, -961316.56, -1682545.1, -80618.68, -0.060803518, -0.09235511, -952414.94, 764855.8, 0.08988289, 10.00726, 9.996745 
1.8151839e+3, 1.3476509e+2, -995873.56, -1685991.1, 30489.123, -0.18855023, -0.0118591525, -994529.2, 624768.44, 0.060301535, 10.006207, 9.996538 
1.815169e+3, 1.447618e+2, -933156.9, -1507268.5, -30878.428, 0.09294801, -0.03811633, -931500.9, 589829.44, 0.032430027, 10.005362, 9.9974985 
1.8151498e+3, 1.54759e+2, -900367.6, -1446004.8, -21535.611, -0.023230573, -0.07167844, -899518.94, 523838.25, 0.012394093, 10.004823, 9.997502 
1.8151307e+3, 1.6475682e+2, -865005.0, -1334208.5, -32509.256, -0.08885951, -0.057546873, -862763.25, 462615.8, 0.0026558726, 10.004154, 9.997919 
1.8151127e+3, 1.7475532e+2, -883275.94, -1294561.8, -30925.467, -0.061110407, -0.00012820035, -880963.6, 346431.7, 0.00016313064, 10.003355, 9.997904 
1.8150942e+3, 1.8475361e+2, -835159.56, -1139700.5, -49664.188, -0.037875745, 0.0071219066, -827265.0, 302147.53, 0.00000012908751, 10.002663, 9.998629 
1.8150754e+3, 1.9475175e+2, -820759.7, -1082927.3, -50709.027, -0.031997316, -0.044798635, -811293.25, 220136.95, 0.0, 10.002092, 9.99862 
1.8150567e+3, 2.0475051e+2, -794232.8, -986679.8, -50173.555, -0.032889806, -0.04291144, -781937.44, 151505.48, 0.0, 10.00146, 9.998913 
1.8150377e+3, 2.1474996e+2, -798961.3, -940599.25, -47769.344, -0.036143295, 0.01043647, -784356.44, 51093.36, 0.0, 10.000765, 9.998891 
1.815019e+3, 2.2474916e+2, -767658.25, -830382.9, -54305.676, -0.02724168, 0.024838295, -736309.3, 1149.0946, 0.0, 10.000116, 9.999288 
1.8150002e+3, 2.3474813e+2, -757252.9, -776730.2, -52726.074, -0.0072280136, -0.010150738, -713373.6, -73905.12, 0.0, 9.999523, 9.9992695 
1.8149813e+3, 2.4474765e+2, -727311.94, -652008.4, -49522.484, -0.0035396076, -0.006348771, -627449.75, -85976.06, 0.0, 9.998799, 9.999801 
1.8149622e+3, 2.5474793e+2, -756217.5, -617152.25, -47110.957, -0.016818628, 0.037309162, -602695.44, -159222.77, 0.0, 9.997936, 9.999783 
1.8149434e+3, 2.647481e+2, -715990.44, -487736.5, -28466.863, -0.012669828, 0.05471354, -484239.78, -138767.95, 0.0, 9.997286, 10.000312 
1.8149251e+3, 2.7474818e+2, -682630.2, -423490.97, -33007.113, 0.008861109, 0.02896773, -419352.84, -171881.47, 0.0, 9.996852, 10.000289 
1.8149063e+3, 2.8474885e+2, -652133.5, -273899.53, -42972.87, 0.0011143782, 0.034324992, -269078.63, -119613.67, 0.0, 9.996026, 10.001041 
1.8148871e+3, 2.9475045e+2, -727078.5, -254877.83, -38345.234, -0.032378446, 0.08923818, -251784.25, -200335.11, 0.0, 9.994822, 10.00108 
1.8148698e+3, 3.0475092e+2, -748814.4, -200707.27, 29755.709, 0.05265598, 0.008960808, -199096.63, -199096.63, 0.0, 9.99417, 10.0014305 
1.8148522e+3, 3.1475282e+2, -677284.6, -19108.02, -90937.586, 0.017286284, 0.061964646, -6774.6533, -6774.6533, 0.0, 9.994031, 10.002743 
1.8252091e+3, 1.2478605e+2, -970820.44, -1676117.8, -34720.36, -0.048857685, -0.08026508, -969115.3, 747975.94, 0.09480962, 10.0071745, 9.996836 
1.82519e+3, 1.3478322e+2, -970318.44, -1655191.3, 54623.523, -0.20679022, -0.03506189, -965989.2, 653129.75, 0.06378001, 10.006341, 9.996686 
1.8251745e+3, 1.4477989e+2, -913889.9, -1506775.9, 5090.7334, 0.09608221, -0.06719339, -913846.2, 607305.5, 0.034487598, 10.005552, 9.997409 
1.8251547e+3, 1.5477736e+2, -893726.94, -1453349.5, 10671.621, -0.016410368, -0.063815646, -893523.5, 529653.4, 0.013326729, 10.004921, 9.997403 
1.825135e+3, 1.6477521e+2, -854384.94, -1325160.3, -9577.454, -0.082884856, -0.042960245, -854190.2, 471008.53, 0.0029219915, 10.004214, 9.997951 
1.825116e+3, 1.747735e+2, -873600.25, -1286208.4, -7954.409, -0.06255449, -0.010324315, -873446.94, 353769.6, 0.00018758583, 10.003408, 9.997934 
1.8250968e+3, 1.8477172e+2, -829615.0, -1139410.6, -15740.203, -0.042288158, -0.011408902, -828817.3, 300417.06, 0.00000015151502, 10.002712, 9.998605 
1.8250775e+3, 1.9476992e+2, -814752.2, -1082743.0, -14911.472, -0.035056263, -0.053801056, -813925.0, 217326.56, 0.0, 10.002148, 9.998593 
1.825058e+3, 2.0476872e+2, -788715.7, -982667.4, -20053.125, -0.03596845, -0.045448724, -786664.0, 146599.9, 0.0, 10.001493, 9.998923 
1.8250385e+3, 2.1476823e+2, -801906.1, -940329.5, -21395.365, -0.0412593, 0.011765578, -798674.56, 36595.95, 0.0, 10.000739, 9.998904 
1.825019e+3, 2.2476748e+2, -774354.5, -822061.25, -23710.578, -0.031985946, 0.025155688, -764574.94, -27296.283, 0.0, 10.000021, 9.999391 
1.8249996e+3, 2.3476647e+2, -776754.4, -773743.25, -18988.703, -0.008295072, -0.016977584, -756200.56, -116912.48, 0.0, 9.999338, 9.999378 
1.82498e+3, 2.44766e+2, -747591.7, -661437.25, -21818.479, 0.0011753005, -0.018784506, -656226.8, -114933.766, 0.0, 9.99866, 9.999803 
1.8249603e+3, 2.547662e+2, -750298.4, -614630.4, -26731.785, -0.0048900475, 0.02008492, -609553.2, -166260.69, 0.0, 9.997979, 9.99978 
1.8249407e+3, 2.6476642e+2, -720918.5, -483355.03, -698.04785, -0.007962623, 0.04006239, -483353.0, -138061.72, 0.0, 9.997223, 10.000371 
1.8249215e+3, 2.7476668e+2, -747325.1, -447761.4, 4651.889, -0.0055390834, 0.027631968, -447689.2, -200399.98, 0.0, 9.996381, 10.000348 
1.8249023e+3, 2.8476742e+2, -684219.0, -282075.1, -13314.02, 0.0035500524, 0.033234023, -281634.78, -132352.69, 0.0, 9.995776, 10.001105 
1.8248826e+3, 2.947689e+2, -640880.56, -204799.67, -26989.785, 0.014961342, 0.06431792, -203135.6, -151868.16, 0.0, 9.995376, 10.001157 
1.8248636e+3, 3.0476928e+2, -716483.7, -196792.19, 43725.844, 0.0065353094, -0.017101824, -193138.86, -193138.86, 0.0, 9.994445, 10.001324 
1.8248461e+3, 3.1477156e+2, -778209.3, -28142.25, -46887.516, 0.05941078, 0.08408478, -25222.625, -25222.625, 0.0, 9.993166, 10.003098 
1.8352166e+3, 1.2480548e+2, -969295.2, -1664967.4, -41320.05, -0.022268338, -0.04123593, -966849.56, 750051.9, 0.09991658, 10.007176, 9.9969225 
1.8351962e+3, 1.348019e+2, -963343.6, -1634851.3, 24513.01, -0.2291253, -0.08379923, -962449.94, 656484.44, 0.06740978, 10.006344, 9.996823 
1.8351799e+3, 1.4479853e+2, -925637.06, -1529752.6, -18957.91, 0.07311028, -0.118672244, -925042.75, 595924.56, 0.036653716, 10.005554, 9.997249 
1.8351594e+3, 1.5479678e+2, -905825.9, -1477747.4, -11042.367, -0.02919453, -0.02083623, -905612.75, 517373.78, 0.014320391, 10.00492, 9.997237 
1.8351391e+3, 1.6479455e+2, -852254.2, -1320405.0, -38504.258, -0.08176056, -0.0019189426, -849108.44, 475900.94, 0.0032115686, 10.004211, 9.997986 
1.8351196e+3, 1.7479178e+2, -869691.25, -1280124.1, -37032.73, -0.04517467, -0.08000809, -866376.6, 360659.56, 0.00021560045, 10.003415, 9.997973 
1.8350998e+3, 1.8478993e+2, -828282.7, -1138730.3, -36405.324, -0.029496964, -0.08920982, -824070.7, 304983.5, 0.00000018976193, 10.00272, 9.998608 
1.8350795e+3, 1.9478919e+2, -814301.2, -1082825.9, -34657.914, -0.048678085, -0.02698306, -809900.1, 221161.92, 0.0, 10.00215, 9.998592 
1.8350594e+3, 2.0478816e+2, -790962.1, -987395.56, -47111.53, -0.04928178, 0.0007185332, -780247.56, 152825.52, 0.0, 10.0014925, 9.998893 
1.8350393e+3, 2.1478692e+2, -803363.1, -944458.9, -48102.77, -0.025391126, -0.015326556, -788524.4, 46562.75, 0.0, 10.000742, 9.998876 
1.8350191e+3, 2.2478606e+2, -763849.0, -800717.7, -48402.83, -0.015567034, -0.01689016, -730488.94, 6606.992, 0.0, 10.000022, 9.999537 
1.8349987e+3, 2.3478569e+2, -766004.0, -752045.56, -43051.39, -0.021494387, -0.009695546, -715411.4, -76312.67, 0.0, 9.999339, 9.999528 
1.8349785e+3, 2.4478531e+2, -754402.44, -675176.4, -46299.383, -0.01022361, -0.006247649, -653856.44, -112753.77, 0.0, 9.998657, 9.99971 
1.8349583e+3, 2.5478497e+2, -756218.5, -627438.94, -50601.01, 0.017865356, -0.012559594, -609935.44, -166827.95, 0.0, 9.99798, 9.999692 
1.8349381e+3, 2.647851e+2, -706636.75, -455291.28, -31282.693, 0.013040054, -0.005058076, -451456.3, -106349.58, 0.0, 9.997228, 10.000564 
1.8349177e+3, 2.7478588e+2, -733316.2, -420467.25, -24980.955, -0.023173247, 0.0119186435, -418485.1, -171385.63, 0.0, 9.996386, 10.000535 
1.834898e+3, 2.847866e+2, -693837.25, -304122.4, -27455.459, -0.0043076067, 0.01637626, -302197.7, -153105.25, 0.0, 9.995784, 10.000951 
1.8348785e+3, 2.947875e+2, -650638.06, -228628.95, -42458.53, 0.059221175, 0.007091822, -224399.56, -173315.6, 0.0, 9.99539, 10.000986 
1.8348578e+3, 3.047887e+2, -706415.56, -177224.38, -7533.584, -0.021849293, 0.0055044508, -177117.14, -177117.14, 0.0, 9.99445, 10.001456 
1.8348391e+3, 3.1479096e+2, -750601.6, 25404.293, -52453.93, 0.042007294, 0.089307405, 28933.85, 28933.85, 0.0, 9.993175, 10.003466 
1.845224e+3, 1.248254e+2, -917076.9, -1649450.0, 5058.71, -0.008189923, -0.038973935, -917041.94, 799664.25, 0.10520812, 10.0076685, 9.996805 
1.8452026e+3, 1.3482174e+2, -940469.3, -1632044.1, 31588.475, -0.23247029, -0.079342306, -939029.44, 679710.44, 0.07119719, 10.006579, 9.996729 
1.8451855e+3, 1.4481835e+2, -917952.2, -1519374.8, -3302.4084, 0.07060208, -0.11516662, -917934.06, 602839.0, 0.038935352, 10.005597, 9.997297 
1.8451641e+3, 1.5481658e+2, -923431.6, -1480864.4, 18869.875, -0.036241904, -0.022409005, -922793.56, 499998.53, 0.015380189, 10.00478, 9.997283 
1.8451433e+3, 1.6481428e+2, -869128.0, -1332144.0, 354.23502, -0.081705935, -0.010091976, -869127.75, 455687.66, 0.0035271842, 10.004114, 9.9979515 
1.8451232e+3, 1.7481141e+2, -842998.7, -1271313.3, -4074.83, -0.0320865, -0.09611816, -842959.94, 383883.3, 0.00024795154, 10.003618, 9.997935 
1.8451026e+3, 1.8480957e+2, -798259.56, -1120165.5, -8968.703, -0.014324811, -0.10307812, -798009.9, 330851.2, 0.00000025167606, 10.002911, 9.998641 
1.8450816e+3, 1.9480899e+2, -837430.5, -1089921.4, -6017.1367, -0.0417754, -0.026897652, -837287.2, 193579.97, 0.0, 10.001976, 9.998627 
1.8450607e+3, 2.0480798e+2, -825576.4, -1000840.1, -10395.739, -0.046623725, -0.0012255583, -824961.94, 107916.125, 0.0, 10.001243, 9.9989195 
1.84504e+3, 2.1480654e+2, -803886.44, -941487.2, -7548.6265, -0.023286503, -0.03665497, -803473.56, 31420.041, 0.0, 10.000727, 9.998902 
1.8450192e+3, 2.2480574e+2, -753706.0, -789480.7, -13429.708, -0.015794814, -0.038238723, -749225.7, -12323.615, 0.0, 10.000066, 9.999592 
1.844998e+3, 2.3480563e+2, -776319.06, -750922.5, -16177.123, -0.025464254, -0.009817038, -743055.1, -104152.734, 0.0, 9.999244, 9.99958 
1.844977e+3, 2.4480528e+2, -765097.9, -675733.25, -12316.772, -0.013454036, -0.006937598, -674066.75, -133160.86, 0.0, 9.998566, 9.99975 
1.8449563e+3, 2.5480473e+2, -745606.44, -616870.9, -7248.8584, 0.019872326, -0.038212612, -616464.0, -173551.72, 0.0, 9.998033, 9.999738 
1.8449354e+3, 2.648049e+2, -693567.06, -445751.0, 699.20544, 0.018651772, -0.032128524, -445749.0, -100837.875, 0.0, 9.997307, 10.000588 
1.8449143e+3, 2.748059e+2, -732070.8, -417598.22, -5780.5005, -0.014158577, 0.007943718, -417492.0, -170590.5, 0.0, 9.996387, 10.000553 
1.8448937e+3, 2.8480658e+2, -709459.7, -319351.63, 4589.5903, 0.0043183495, 0.0070522223, -319297.63, -170402.23, 0.0, 9.995711, 10.00088 
1.8448737e+3, 2.9480705e+2, -681853.1, -251379.67, -8525.787, 0.06291914, -0.03583637, -251210.89, -200319.73, 0.0, 9.995213, 10.000914 
1.8448521e+3, 3.0480877e+2, -719045.3, -164494.83, 4130.5596, -0.030589502, 0.0140288435, -164464.06, -164464.06, 0.0, 9.994287, 10.001619 
1.8448325e+3, 3.148103e+2, -743231.0, 31366.723, 9679.804, 0.051409293, 0.0053910227, 31487.668, 31487.668, 0.0, 9.993214, 10.003488 
1.8552317e+3, 1.2484579e+2, -940665.7, -1689207.8, -8156.761, -0.014455017, -0.06958823, -940576.8, 775928.9, 0.110701315, 10.007669, 9.996501 
1.8552092e+3, 1.3484266e+2, -963302.6, -1676190.3, -5477.125, -0.22420162, -0.027780192, -963260.56, 655275.75, 0.07515998, 10.006576, 9.996428 
1.8551911e+3, 1.4483921e+2, -904990.56, -1489328.6, -32686.492, 0.08104127, -0.063571244, -903167.9, 617402.0, 0.041346207, 10.005595, 9.997515 
1.855169e+3, 1.5483674e+2, -907391.4, -1448072.5, -10314.776, -0.039261285, -0.064966105, -907194.6, 515399.16, 0.016514776, 10.004788, 9.997504 
1.8551475e+3, 1.6483441e+2, -874798.7, -1346747.6, -17975.59, -0.083934695, -0.060993265, -874115.06, 450501.8, 0.0038728893, 10.004126, 9.997847 
1.8551268e+3, 1.7483227e+2, -849990.3, -1286913.4, -21332.465, -0.024376435, -0.060591683, -848951.25, 377687.3, 0.00028579228, 10.003621, 9.997828 
1.8551058e+3, 1.8483053e+2, -794789.4, -1113206.9, -42775.215, 0.0015428928, -0.057007704, -789143.2, 339512.7, 0.0000003514084, 10.00291, 9.998691 
1.8550839e+3, 1.9482927e+2, -832656.75, -1081989.3, -39762.33, -0.016231632, -0.054000057, -826469.2, 204198.47, 0.0, 10.001983, 9.998679 
1.8550621e+3, 2.0482811e+2, -819026.75, -988992.75, -29181.904, -0.030088663, -0.050200105, -814156.0, 118523.44, 0.0, 10.001248, 9.999 
1.8550406e+3, 2.148271e+2, -798151.56, -930184.9, -25388.174, -0.036952093, -0.051756166, -793438.06, 41252.55, 0.0, 10.000728, 9.998981 
1.855019e+3, 2.2482644e+2, -757297.4, -796613.0, -43112.68, -0.033825133, -0.039077938, -729572.4, 7125.324, 0.0, 10.000063, 9.999546 
1.8549973e+3, 2.3482622e+2, -779431.4, -758361.9, -45485.98, -0.020517413, -0.017920258, -722206.6, -83506.664, 0.0, 9.999246, 9.999529 
1.8549755e+3, 2.4482585e+2, -753098.44, -651713.44, -31579.633, -0.009893761, -0.022028865, -642681.56, -101977.98, 0.0, 9.998568, 9.999914 
1.854954e+3, 2.548254e+2, -733018.44, -592083.44, -25927.754, -0.002322059, -0.056795456, -587464.9, -144757.2, 0.0, 9.998036, 9.999907 
1.8549326e+3, 2.648257e+2, -704210.8, -468602.84, -33102.004, 0.007926886, -0.041057844, -464040.5, -119335.22, 0.0, 9.997309, 10.000432 
1.8549109e+3, 2.7482674e+2, -742860.8, -440874.56, -37872.89, 0.020987, 0.016645042, -436197.25, -189501.13, 0.0, 9.996388, 10.000393 
1.8548897e+3, 2.848272e+2, -708535.4, -319757.66, -13762.785, 0.02546197, 0.006228412, -319271.03, -170579.16, 0.0, 9.995718, 10.000875 
1.8548685e+3, 2.9482743e+2, -679791.44, -250352.33, -30111.46, 0.018379407, -0.06408062, -248251.25, -197561.19, 0.0, 9.995223, 10.000917 
1.8548465e+3, 3.0482945e+2, -701043.8, -129778.73, -39958.516, -0.012327249, 0.0043116403, -126997.27, -126997.27, 0.0, 9.994297, 10.001853 
1.8548258e+3, 3.1483132e+2, -774286.56, -38240.27, 12077.885, 0.06926595, 0.009054466, -38042.133, -38042.133, 0.0, 9.993234, 10.003002 
1.8652394e+3, 1.2486708e+2, -942272.25, -1692453.9, 21709.193, -0.01047861, -0.075316384, -941644.5, 774652.2, 0.11642701, 10.00772, 9.996452 
1.8652159e+3, 1.3486405e+2, -956906.94, -1678584.5, 14102.861, -0.20810018, -0.018043736, -956631.44, 661695.7, 0.079324685, 10.006677, 9.996362 
1.865197e+3, 1.4486054e+2, -874708.8, -1472466.1, 2479.2522, 0.08544416, -0.058216322, -874698.5, 645662.94, 0.04390417, 10.005819, 9.997527 
1.8651739e+3, 1.5485789e+2, -850198.4, -1418575.3, 11098.826, -0.047817543, -0.076945215, -849981.75, 572404.56, 0.017734453, 10.005189, 9.997513 
1.8651517e+3, 1.6485561e+2, -828651.7, -1318770.5, 2272.9211, -0.093487024, -0.06971037, -828641.1, 495767.44, 0.004253507, 10.004423, 9.997894 
1.8651304e+3, 1.7485379e+2, -861176.75, -1287111.6, 8327.42, -0.028110756, -0.04309946, -861014.06, 365413.56, 0.00033048444, 10.003523, 9.997872 
1.8651085e+3, 1.84852e+2, -811256.6, -1126739.3, -11053.746, 0.0029752597, -0.04170071, -810869.8, 317575.44, 0.00000050835786, 10.002822, 9.998639 
1.8650861e+3, 1.9485037e+2, -786117.2, -1065461.0, -16323.728, -0.009078679, -0.070889294, -785166.5, 245294.1, 0.0, 10.002329, 9.998625 
1.8650636e+3, 2.0484917e+2, -762950.56, -951629.1, -10980.427, -0.024210362, -0.07216867, -762313.7, 170158.75, 0.0, 10.001591, 9.99909 
1.8650413e+3, 2.1484849e+2, -811447.6, -926223.06, -7627.864, -0.040400386, -0.049526196, -810942.9, 23537.02, 0.0, 10.000593, 9.999071 
1.8650189e+3, 2.2484787e+2, -795447.06, -821609.0, -21476.209, -0.037098356, -0.034953438, -783381.7, -46895.008, 0.0, 9.999831, 9.999485 
1.8649966e+3, 2.3484735e+2, -773950.5, -762583.4, -25323.543, -0.014675249, -0.035342854, -742313.44, -103821.29, 0.0, 9.999315, 9.999466 
1.8649742e+3, 2.4484701e+2, -735974.06, -633811.1, -15066.833, -0.0041320263, -0.03860451, -631635.44, -91139.83, 0.0, 9.998647, 9.999998 
1.864952e+3, 2.548469e+2, -760464.75, -596408.44, -16910.514, -0.0026813704, -0.049347598, -594683.5, -152187.28, 0.0, 9.997812, 9.999984 
1.8649298e+3, 2.6484716e+2, -737810.1, -496866.5, -27447.893, 0.014660435, -0.035769947, -493779.25, -149285.14, 0.0, 9.997132, 10.000321 
1.8649076e+3, 2.7484778e+2, -720547.0, -440896.56, -28921.428, 0.041722596, -0.007310998, -437936.8, -191447.67, 0.0, 9.996592, 10.000293 
1.8648854e+3, 2.848483e+2, -697261.94, -302051.3, -868.445, 0.026896736, -0.014208944, -302049.4, -153565.03, 0.0, 9.995747, 10.000982 
1.864863e+3, 2.9484895e+2, -761198.1, -277278.28, -10077.394, -0.013648026, -0.050355922, -277068.53, -226590.88, 0.0, 9.994615, 10.001024 
1.8648411e+3, 3.0485064e+2, -736181.7, -155424.03, -20076.701, 0.04246721, -0.016357306, -154730.81, -154730.81, 0.0, 9.994095, 10.001773 
1.864819e+3, 3.148522e+2, -673805.94, -37568.176, 21555.041, 0.029624537, -0.030911697, -36838.75, -36838.75, 0.0, 9.994131, 10.002571 
1.8752472e+3, 1.24889165e+2, -938468.25, -1673315.9, 9203.409, -0.008525846, -0.063219056, -938353.0, 777727.25, 0.12242672, 10.007715, 9.996606 
1.8752229e+3, 1.3488589e+2, -950796.8, -1659532.1, -21646.375, -0.18704075, -0.04341064, -950136.3, 667976.25, 0.08372139, 10.006683, 9.9964905 
1.8752027e+3, 1.4488229e+2, -886595.94, -1496253.4, -19860.666, 0.08118398, -0.08952422, -885949.6, 634198.1, 0.046627063, 10.00583, 9.997354 
1.8751788e+3, 1.5487994e+2, -863497.1, -1444614.0, -10421.989, -0.0636455, -0.06157682, -863310.25, 558860.2, 0.019048272, 10.005186, 9.997336 
1.8751557e+3, 1.6487779e+2, -817610.6, -1295022.1, -30365.514, -0.11226665, -0.042322747, -815687.0, 508504.6, 0.00467337, 10.004419, 9.998061 
1.8751337e+3, 1.7487586e+2, -848507.3, -1262482.3, -24143.602, -0.04449273, -0.042789835, -847104.0, 379106.88, 0.0003833782, 10.003529, 9.99804 
1.8751112e+3, 1.8487397e+2, -820681.0, -1148270.3, -28888.73, -0.011718678, -0.05330157, -818152.9, 310076.66, 0.000000733184, 10.002829, 9.998489 
1.8750882e+3, 1.9487223e+2, -796672.0, -1088190.5, -33448.344, -0.021141065, -0.07744627, -792883.44, 237363.14, 0.0, 10.002331, 9.998469 
1.8750651e+3, 2.0487109e+2, -756781.4, -939111.7, -47093.266, -0.029571015, -0.068322174, -745336.25, 186921.53, 0.0, 10.00159, 9.999178 
1.8750419e+3, 2.1487065e+2, -804842.94, -913574.6, -43558.39, -0.034374464, -0.030814175, -789545.44, 44716.887, 0.0, 10.000596, 9.999159 
1.8750188e+3, 2.2486994e+2, -800352.7, -832438.7, -40093.766, -0.027164105, -0.026468169, -773211.3, -36941.51, 0.0, 9.999832, 9.999411 
1.874996e+3, 2.3486899e+2, -779053.0, -773736.94, -43103.16, -0.010322338, -0.062093247, -733209.94, -94930.336, 0.0, 9.999316, 9.99939 
1.874973e+3, 2.4486868e+2, -736650.44, -635909.1, -45228.563, 0.002886054, -0.05684022, -618583.25, -78300.42, 0.0, 9.998648, 9.999985 
1.8749501e+3, 2.548691e+2, -761320.2, -600062.94, -46797.914, 0.01775274, -0.015224126, -587465.94, -145187.3, 0.0, 9.997818, 9.999957 
1.8749271e+3, 2.6486915e+2, -741866.9, -507023.16, -47329.777, 0.037141893, -0.016529981, -497843.28, -153564.69, 0.0, 9.997138, 10.00025 
1.8749042e+3, 2.748689e+2, -722837.4, -448661.28, -48570.746, 0.045624603, -0.06633348, -440311.22, -194029.36, 0.0, 9.996603, 10.000236 
1.8748808e+3, 2.848697e+2, -680843.25, -269171.34, -44019.766, 0.0068776226, -0.05373357, -264516.97, -116243.11, 0.0, 9.99575, 10.001206 
1.8748574e+3, 2.948716e+2, -748040.94, -247139.77, -50684.496, -0.0358134, 0.013386884, -242062.64, -191808.63, 0.0, 9.9946, 10.001239 
1.8748362e+3, 3.0487213e+2, -765134.8, -219652.45, -17410.871, 0.13379514, -0.059390824, -219097.28, -219097.28, 0.0, 9.994107, 10.001328 
1.8748131e+3, 3.1487313e+2, -675127.75, -54371.965, -3619.7048, 0.014188979, -0.08324113, -54350.86, -54350.86, 0.0, 9.994192, 10.002426 
1.885255e+3, 1.24911964e+2, -912101.44, -1662338.1, 54366.95, -0.005986716, -0.076721005, -908182.2, 807674.2, 0.12874559, 10.00799, 9.996561 
1.8852298e+3, 1.349088e+2, -925931.7, -1650086.1, -7407.327, -0.1800919, -0.0400147, -925855.9, 692031.94, 0.08837733, 10.006921, 9.99644 
1.8852083e+3, 1.4490512e+2, -868704.6, -1487841.9, 6724.869, 0.06467486, -0.091705926, -868631.6, 651292.3, 0.04952787, 10.00598, 9.997341 
1.8851839e+3, 1.549027e+2, -864516.9, -1446722.5, 26789.018, -0.05973895, -0.0691061, -863286.8, 558660.25, 0.020461375, 10.005193, 9.997318 
1.8851602e+3, 1.649005e+2, -814845.1, -1293836.3, 4135.4517, -0.10176109, -0.05151584, -814809.44, 509158.97, 0.005135228, 10.004442, 9.998058 
1.8851373e+3, 1.748986e+2, -821315.0, -1249925.9, -2910.8674, -0.048878103, -0.049648646, -821295.25, 404692.4, 0.00044561864, 10.003719, 9.998034 
1.8851139e+3, 1.8489671e+2, -802372.75, -1139471.0, -2554.822, -0.02185718, -0.05826183, -802353.44, 325652.84, 0.0000010252129, 10.002956, 9.998487 
1.8850903e+3, 1.9489497e+2, -821310.6, -1100548.8, 3001.26, -0.026429981, -0.080286354, -821278.4, 208744.78, 0.0, 10.002165, 9.998463 
1.8850666e+3, 2.0489383e+2, -776682.4, -952591.5, -14902.332, -0.030338336, -0.06967982, -775428.8, 156605.67, 0.0, 10.0014715, 9.999141 
1.8850426e+3, 2.1489336e+2, -766201.5, -899116.0, -21907.02, -0.031170396, -0.031721737, -762683.9, 71355.54, 0.0, 10.000881, 9.99912 
1.8850188e+3, 2.2489256e+2, -754810.9, -816176.6, -17670.463, -0.02171513, -0.030428793, -750086.4, -14038.729, 0.0, 10.000172, 9.999358 
1.8849953e+3, 2.348915e+2, -779817.4, -779818.7, -19586.451, -0.0046490817, -0.0717492, -760231.6, -122173.07, 0.0, 9.999338, 9.999336 
1.8849716e+3, 2.448912e+2, -745311.56, -637878.3, -22393.758, 0.0064781816, -0.06475037, -633397.4, -93335.53, 0.0, 9.998581, 10.000002 
1.8849479e+3, 2.548917e+2, -749120.44, -592501.4, -22071.78, 0.019441122, -0.015704822, -589450.3, -147393.48, 0.0, 9.997897, 9.99997 
1.8849243e+3, 2.648917e+2, -739951.5, -502698.0, -13926.816, 0.046076223, -0.020963367, -501883.28, -157826.33, 0.0, 9.997139, 10.000278 
1.8849008e+3, 2.7489138e+2, -765386.6, -465207.66, -9263.724, 0.06346505, -0.08084204, -464922.03, -218861.25, 0.0, 9.996296, 10.000269 
1.8848765e+3, 2.848923e+2, -716589.7, -281071.94, -16590.959, 0.007867063, -0.062007613, -280440.8, -132389.1, 0.0, 9.995484, 10.001252 
1.8848519e+3, 2.948943e+2, -723437.56, -234705.22, -34652.086, -0.05103233, 0.0128143625, -232260.55, -182229.84, 0.0, 9.994769, 10.001242 
1.8848307e+3, 3.0489445e+2, -752872.5, -248331.78, 19528.725, 0.17536308, -0.08347903, -247577.03, -247577.03, 0.0, 9.994339, 10.00102 
1.8848066e+3, 3.1489593e+2, -717478.25, -44681.723, -9190.102, -0.023493268, -0.028867843, -44556.215, -44556.215, 0.0, 9.993779, 10.002687 
1.8952629e+3, 1.2493548e+2, -932361.4, -1693000.5, 35400.07, -0.013091779, -0.107580975, -930717.44, 784907.44, 0.1354134, 10.007994, 9.99632 
1.8952365e+3, 1.3493268e+2, -945540.25, -1683497.5, -42365.69, -0.18790734, -0.012387451, -943116.06, 674537.94, 0.0933065, 10.0069065, 9.99622 
1.895214e+3, 1.4492886e+2, -863734.5, -1471549.3, -20527.715, 0.034276024, -0.07156132, -863042.06, 656649.25, 0.05261034, 10.005969, 9.997466 
1.8951893e+3, 1.5492609e+2, -856947.9, -1430000.5, -773.2799, -0.04047346, -0.09623912, -856946.9, 564769.8, 0.021974254, 10.005197, 9.997433 
1.895165e+3, 1.6492377e+2, -825955.8, -1318579.4, -21972.729, -0.06762146, -0.089662775, -824977.7, 498761.44, 0.0056402287, 10.004449, 9.997886 
1.895141e+3, 1.7492191e+2, -833201.1, -1275443.5, -28645.672, -0.043319, -0.06373369, -831353.4, 394405.2, 0.00051811256, 10.003721, 9.997859 
1.8951169e+3, 1.8492015e+2, -792903.0, -1120622.9, -31308.504, -0.0288106, -0.059225, -789938.8, 337837.44, 0.0000013718216, 10.002957, 9.998617 
1.8950926e+3, 1.9491856e+2, -811433.25, -1081453.1, -25218.21, -0.026212329, -0.079693004, -809098.2, 220692.92, 0.0, 10.002169, 9.998593 
1.8950681e+3, 2.0491734e+2, -788300.56, -977749.1, -36056.574, -0.028219901, -0.07540636, -781670.2, 150133.05, 0.0, 10.001474, 9.998968 
1.8950434e+3, 2.1491653e+2, -778843.3, -925501.9, -42354.465, -0.03326057, -0.05209476, -767490.4, 66321.46, 0.0, 10.000879, 9.99894 
1.8950191e+3, 2.2491567e+2, -756863.1, -820774.4, -47990.934, -0.022164242, -0.04704069, -731162.06, 4658.867, 0.0, 10.000171, 9.999328 
1.8949947e+3, 2.3491482e+2, -781770.94, -785253.7, -49436.453, 0.0015215077, -0.06408787, -734045.2, -96215.5, 0.0, 9.999342, 9.999298 
1.8949701e+3, 2.4491447e+2, -741615.5, -631414.94, -47130.355, 0.0054843356, -0.062038373, -614007.9, -74174.46, 0.0, 9.998585, 10.000046 
1.8949455e+3, 2.5491464e+2, -744805.25, -585232.8, -46253.47, 0.00006963109, -0.05195053, -572795.25, -130963.61, 0.0, 9.997902, 10.000018 
1.8949214e+3, 2.6491478e+2, -729630.75, -483323.25, -44591.566, 0.039841574, -0.050493043, -475498.94, -131668.89, 0.0, 9.997145, 10.00041 
1.8948974e+3, 2.7491522e+2, -755283.5, -446855.3, -40922.023, 0.09212578, -0.049753875, -441518.16, -195691.66, 0.0, 9.996304, 10.000393 
1.8948722e+3, 2.84916e+2, -726656.56, -302475.1, -43064.82, 0.028952103, -0.03904859, -298147.13, -150328.5, 0.0, 9.995486, 10.001104 
1.8948467e+3, 2.9491696e+2, -739141.7, -269699.06, -54487.21, -0.057280347, -0.056380462, -263457.8, -213648.78, 0.0, 9.994778, 10.0009985 
1.894825e+3, 3.049175e+2, -762785.8, -275378.06, 3971.7268, 0.15520127, -0.08226091, -275345.7, -275345.7, 0.0, 9.994362, 10.000827 
1.8948007e+3, 3.149194e+2, -671490.75, 52050.484, -107188.62, -0.00079472555, 0.02116216, 67595.89, 67595.89, 0.0, 9.993778, 10.00335 
1.9052708e+3, 1.2496002e+2, -943171.25, -1701573.9, 56449.25, -0.015283337, -0.105744965, -938992.7, 776391.75, 0.14240801, 10.007989, 9.996255 
1.9052437e+3, 1.3495727e+2, -941019.0, -1678263.5, -19772.336, -0.16821821, -0.0056192605, -940489.1, 676923.6, 0.09848959, 10.006968, 9.996224 
1.9052199e+3, 1.4495331e+2, -854999.4, -1472831.9, 15079.485, 0.021747556, -0.07754051, -854631.56, 664819.9, 0.055861812, 10.006079, 9.997404 
1.9051945e+3, 1.5495045e+2, -853463.5, -1435560.0, 21082.32, -0.03766634, -0.10275184, -852700.94, 568776.75, 0.023581585, 10.005262, 9.997362 
1.9051696e+3, 1.6494805e+2, -819682.44, -1317997.1, 3157.7456, -0.056575906, -0.09835281, -819662.44, 503838.34, 0.006187833, 10.004508, 9.99786 
1.9051448e+3, 1.749461e+2, -816225.25, -1270031.9, 6355.677, -0.038683135, -0.07769175, -816136.25, 409384.4, 0.0006014414, 10.003851, 9.997833 
1.9051199e+3, 1.8494435e+2, -767331.75, -1110337.3, 909.3917, -0.026762927, -0.06950404, -767329.4, 360208.94, 0.0000017786746, 10.003143, 9.998597 
1.9050948e+3, 1.9494289e+2, -782868.6, -1070161.0, -5475.974, -0.021241732, -0.075706854, -782764.3, 246788.14, 0.0, 10.0023775, 9.9985695 
1.9050696e+3, 2.049416e+2, -774188.75, -976731.25, -14474.887, -0.02436664, -0.072540455, -773159.56, 158405.58, 0.0, 10.001598, 9.998915 
1.9050442e+3, 2.1494058e+2, -792623.3, -937794.4, -12407.32, -0.035057604, -0.066578776, -791570.56, 42005.12, 0.0, 10.000812, 9.998888 
1.905019e+3, 2.2493969e+2, -765819.06, -821899.5, -12260.033, -0.024252666, -0.06282128, -763256.0, -27670.959, 0.0, 10.000098, 9.999354 
1.904994e+3, 2.3493902e+2, -762979.0, -773527.3, -9970.969, 0.0039261472, -0.0642856, -756973.25, -119381.08, 0.0, 9.99946, 9.999321 
1.9049688e+3, 2.4493869e+2, -730244.6, -626277.75, -10086.797, 0.007289214, -0.05898722, -625308.2, -85712.54, 0.0, 9.998666, 10.000041 
1.9049433e+3, 2.5493872e+2, -773856.1, -599654.4, -13883.077, -0.0012526207, -0.05846739, -598554.9, -156959.77, 0.0, 9.997707, 10.000012 
1.9049184e+3, 2.6493895e+2, -752822.8, -485286.7, -11702.674, 0.03583363, -0.05545379, -484775.75, -141182.77, 0.0, 9.996948, 10.00049 
1.9048935e+3, 2.7493957e+2, -738718.7, -429075.38, -13130.264, 0.083502814, -0.043098718, -428519.56, -182932.39, 0.0, 9.996378, 10.000478 
1.9048677e+3, 2.849403e+2, -703103.6, -294374.03, -12966.912, 0.030208029, -0.041506868, -293963.06, -146382.92, 0.0, 9.995664, 10.001074 
1.9048418e+3, 2.9494098e+2, -737299.8, -281637.63, -11083.839, -0.023344873, -0.08414814, -281368.2, -231794.03, 0.0, 9.994849, 10.000881 
1.9048187e+3, 3.0494216e+2, -776244.5, -268880.72, 69054.35, 0.11410683, -0.04081628, -259650.08, -259650.08, 0.0, 9.994212, 10.000945 
1.9047944e+3, 3.1494334e+2, -721023.8, 55458.875, -87028.23, 0.023557926, -0.029965729, 65093.457, 65093.457, 0.0, 9.993327, 10.003589 
1.9152789e+3, 1.2498546e+2, -945533.6, -1689977.6, 32735.504, -0.020006401, -0.07739516, -944096.94, 771039.3, 0.14962839, 10.007972, 9.996358 
1.915251e+3, 1.3498254e+2, -930733.06, -1648189.9, -51871.887, -0.12783347, -0.015140297, -927002.1, 690162.25, 0.10386013, 10.006979, 9.9964285 
1.9152258e+3, 1.449784e+2, -870891.8, -1505348.8, -12568.588, 0.020263255, -0.10255554, -870642.9, 648561.7, 0.05924909, 10.006096, 9.997161 
1.9151998e+3, 1.5497568e+2, -871119.9, -1471753.5, -7851.054, -0.05186829, -0.09085581, -871017.3, 550213.75, 0.025271673, 10.005263, 9.997114 
1.915174e+3, 1.6497323e+2, -812710.2, -1302992.1, -20643.646, -0.06836831, -0.08279741, -811842.5, 511412.0, 0.006775724, 10.004506, 9.997966 
1.9151486e+3, 1.7497112e+2, -808575.2, -1254734.6, -16501.514, -0.03661068, -0.091330305, -807965.7, 417309.06, 0.0006959261, 10.003852, 9.997938 
1.915123e+3, 1.8496929e+2, -779717.0, -1136666.8, -26685.092, -0.019149948, -0.08604505, -777733.06, 349559.84, 0.0000023137907, 10.003144, 9.998418 
1.9150972e+3, 1.9496788e+2, -795735.44, -1097236.3, -32932.41, -0.013849365, -0.06799885, -792180.25, 237127.52, 0.0, 10.002377, 9.998385 
1.9150712e+3, 2.0496657e+2, -769933.25, -968543.8, -42784.863, -0.019934658, -0.061872974, -761108.56, 170212.33, 0.0, 10.001598, 9.998971 
1.9150451e+3, 2.149654e+2, -788082.75, -929285.94, -40165.78, -0.037535563, -0.07553987, -777457.06, 55874.707, 0.0, 10.000813, 9.998946 
1.915019e+3, 2.2496453e+2, -760115.5, -810624.56, -35010.906, -0.029175034, -0.07758958, -742201.1, -6860.502, 0.0, 10.000098, 9.999433 
1.9149934e+3, 2.3496398e+2, -756972.8, -761639.7, -32297.127, 0.0005897679, -0.072655685, -726924.94, -89578.28, 0.0, 9.999461, 9.999403 
1.9149674e+3, 2.449638e+2, -734432.2, -635923.44, -44971.414, 0.010936876, -0.056702744, -618481.3, -79131.945, 0.0, 9.998668, 9.999975 
1.9149412e+3, 2.54964e+2, -778097.6, -610148.7, -48452.72, 0.01305209, -0.034540426, -597172.75, -155824.81, 0.0, 9.997712, 9.999939 
1.9149153e+3, 2.6496416e+2, -749896.6, -480717.9, -32187.914, 0.0317651, -0.033966392, -476922.47, -133576.14, 0.0, 9.996953, 10.000521 
1.9148894e+3, 2.7496442e+2, -733962.44, -422246.6, -33737.543, 0.03405811, -0.06164841, -418636.94, -173293.27, 0.0, 9.996388, 10.000521 
1.9148631e+3, 2.849651e+2, -694627.7, -280095.9, -43019.336, 0.010603882, -0.072481655, -275678.5, -128341.34, 0.0, 9.995676, 10.001166 
1.9148374e+3, 2.9496622e+2, -732985.2, -278205.03, -35693.164, 0.052531514, -0.07387093, -275420.72, -226093.78, 0.0, 9.994869, 10.000896 
1.9148123e+3, 3.0496845e+2, -741650.0, -200782.03, 44677.543, 0.038997203, 0.050076768, -197116.36, -197116.36, 0.0, 9.994225, 10.001409 
1.9147877e+3, 3.1496912e+2, -754586.7, -10960.211, -142689.08, 0.025059713, -0.042394012, 15479.309, 15479.309, 0.0, 9.993314, 10.0031395 
1.9252865e+3, 1.250117e+2, -957661.75, -1697528.5, 66799.125, -0.045197066, -0.060862787, -951679.1, 763200.1, 0.15691538, 10.007951, 9.996306 
1.9252585e+3, 1.3500854e+2, -888504.6, -1612767.3, -29053.467, -0.08663571, -0.03166828, -887341.0, 729568.1, 0.10931999, 10.007294, 9.996519 
1.9252323e+3, 1.4500433e+2, -830297.44, -1503617.6, 7364.131, 0.030286986, -0.12064355, -830216.9, 688733.1, 0.06272546, 10.006502, 9.996977 
1.9252051e+3, 1.5500174e+2, -844198.44, -1479705.4, 14786.943, -0.054151725, -0.075036705, -843854.56, 577121.44, 0.027027698, 10.005555, 9.996919 
1.9251786e+3, 1.6499928e+2, -785881.4, -1284648.6, 8361.649, -0.06744895, -0.061066035, -785741.25, 537258.5, 0.0073997965, 10.004672, 9.998012 
1.9251525e+3, 1.7499699e+2, -806498.1, -1248616.0, 6593.867, -0.024530742, -0.090556584, -806399.8, 418621.03, 0.0008018033, 10.003847, 9.997982 
1.9251262e+3, 1.8499507e+2, -801403.5, -1159217.5, -4186.577, -0.011706864, -0.091995, -801354.5, 325685.38, 0.0000031359323, 10.00305, 9.998307 
1.9250993e+3, 1.949936e+2, -816305.9, -1119810.5, -5823.3755, -0.024636168, -0.06718187, -816194.2, 212861.47, 0.0, 10.002292, 9.99827 
1.9250727e+3, 2.0499226e+2, -764886.25, -958103.75, -10036.101, -0.030827368, -0.061497953, -764366.3, 166702.77, 0.0, 10.001601, 9.99904 
1.9250458e+3, 2.1499111e+2, -759138.6, -907943.9, -8410.28, -0.031911537, -0.081981815, -758664.8, 74414.73, 0.0, 10.000982, 9.99901 
1.9250193e+3, 2.2499023e+2, -751047.5, -809840.1, -11156.961, -0.021162096, -0.082187645, -749001.5, -13913.444, 0.0, 10.000178, 9.999399 
1.9249927e+3, 2.3498976e+2, -799156.0, -785598.94, -17366.7, -0.0012308981, -0.06893588, -773734.75, -136640.77, 0.0, 9.999188, 9.99937 
1.924966e+3, 2.4498954e+2, -765701.44, -645254.44, -27021.57, 0.011387402, -0.054915007, -639470.06, -100373.11, 0.0, 9.99843, 10.000024 
1.9249392e+3, 2.549897e+2, -747875.25, -590247.6, -22655.764, 0.025438314, -0.040177166, -587056.0, -145960.28, 0.0, 9.997898, 9.999986 
1.9249122e+3, 2.6498997e+2, -720638.06, -464586.88, -2130.6907, 0.029065121, -0.033948116, -464569.16, -121475.82, 0.0, 9.997148, 10.000536 
1.9248854e+3, 2.7499032e+2, -762672.44, -434004.78, -6127.0103, -0.002234771, -0.05186808, -433890.63, -188800.75, 0.0, 9.996186, 10.000537 
1.9248587e+3, 2.8499103e+2, -732272.9, -294008.7, -18043.53, 0.0056939223, -0.06497486, -293267.1, -146183.5, 0.0, 9.995402, 10.001203 
1.9248329e+3, 2.9499224e+2, -745963.9, -279839.34, -12056.432, 0.1253355, -0.057765905, -279527.72, -230455.36, 0.0, 9.994764, 10.000935 
1.9248055e+3, 3.049946e+2, -747505.75, -143741.45, 67871.22, -0.03352233, 0.04799051, -136205.88, -136205.88, 0.0, 9.99393, 10.001941 
1.9247814e+3, 3.1499532e+2, -849413.9, -79856.29, -107461.34, 0.08941964, -0.09063776, -65132.063, -65132.063, 0.0, 9.992766, 10.002929 
1.9352938e+3, 1.2503864e+2, -973659.1, -1722181.1, 47097.656, -0.096625, -0.05834356, -970707.3, 743907.3, 0.16412884, 10.007963, 9.996116 
1.9352661e+3, 1.3503519e+2, -894741.6, -1616268.5, -49129.766, -0.04821166, -0.05464231, -891411.6, 725235.75, 0.11478269, 10.00729, 9.996498 
1.9352388e+3, 1.4503102e+2, -842542.75, -1523723.4, -24462.303, 0.047649097, -0.13291872, -841665.44, 677022.94, 0.066248894, 10.006498, 9.996836 
1.9352107e+3, 1.5502861e+2, -854772.94, -1501152.9, -17578.426, -0.04800196, -0.054300766, -854295.25, 566417.9, 0.028833693, 10.005558, 9.996771 
1.9351834e+3, 1.6502617e+2, -787245.56, -1289084.3, -21038.88, -0.058349952, -0.03065881, -786365.06, 536371.94, 0.008055841, 10.00468, 9.997979 
1.9351566e+3, 1.7502367e+2, -808168.4, -1253505.3, -22880.844, -0.0050854366, -0.076066315, -806995.9, 417763.94, 0.00091948523, 10.003852, 9.997948 
1.9351293e+3, 1.850216e+2, -804374.44, -1166414.8, -31532.844, -0.005950449, -0.08943239, -801648.5, 325131.63, 0.0000044945964, 10.003052, 9.998258 
1.9351014e+3, 1.9501999e+2, -818723.7, -1125939.0, -32292.438, -0.05419281, -0.07392594, -815366.06, 213430.98, 0.0, 10.002295, 9.998228 
1.935074e+3, 2.0501862e+2, -760819.3, -950387.7, -31842.822, -0.058111187, -0.070922874, -755613.5, 175197.0, 0.0, 10.001602, 9.999094 
1.935047e+3, 2.1501757e+2, -755787.25, -900770.44, -29689.879, -0.020319868, -0.084942095, -749942.9, 82876.83, 0.0, 10.000978, 9.999063 
1.9350196e+3, 2.2501676e+2, -761499.6, -831918.9, -47191.527, -0.0018264713, -0.07632644, -737830.06, -3001.9558, 0.0, 10.000177, 9.9992485 
1.9349918e+3, 2.3501624e+2, -809083.4, -807186.4, -52757.77, -0.0036212187, -0.052893303, -755368.56, -118533.53, 0.0, 9.99919, 9.999221 
1.9349642e+3, 2.4501587e+2, -754365.5, -623179.5, -45890.984, 0.007138433, -0.05322317, -608719.9, -69880.66, 0.0, 9.998434, 10.000175 
1.934937e+3, 2.550158e+2, -735104.75, -566244.7, -41380.195, 0.034594424, -0.07781631, -556649.5, -115810.02, 0.0, 9.997907, 10.000148 
1.9349094e+3, 2.6501626e+2, -720111.2, -465344.97, -37741.387, 0.026994467, -0.05786186, -459871.5, -117036.49, 0.0, 9.997154, 10.000529 
1.9348812e+3, 2.7501726e+2, -764204.06, -438287.3, -40849.035, -0.029940967, -0.011470411, -433245.47, -188419.02, 0.0, 9.996188, 10.000507 
1.934854e+3, 2.85018e+2, -733019.25, -297996.1, -41422.813, 0.012515636, -0.015555477, -294086.97, -147266.94, 0.0, 9.995409, 10.001173 
1.9348283e+3, 2.9501894e+2, -737470.94, -268981.66, -34041.223, 0.19504164, -0.03592661, -266521.1, -217709.69, 0.0, 9.994789, 10.000999 
1.9347987e+3, 3.050204e+2, -700317.4, -47687.676, 27952.959, -0.104354784, -0.06056547, -46492.605, -46492.605, 0.0, 9.993937, 10.002598 
1.934774e+3, 3.1502295e+2, -823963.75, -30326.064, -73906.11, 0.09294194, -0.073551685, -23502.357, -23502.357, 0.0, 9.992773, 10.003269 
1.9453023e+3, 1.250663e+2, -959339.9, -1742579.6, 71799.27, -0.061045013, -0.069006495, -952812.5, 761529.8, 0.17122117, 10.008274, 9.995831 
1.9452734e+3, 1.3506272e+2, -886343.2, -1625370.3, -29096.05, -0.044260446, -0.060912926, -885199.44, 731178.06, 0.120210186, 10.007461, 9.996351 
1.945245e+3, 1.4505868e+2, -818969.56, -1499695.9, -5141.247, 0.01003366, -0.12542623, -818930.75, 699486.75, 0.06979565, 10.006641, 9.99694 
1.9452164e+3, 1.5505616e+2, -826967.6, -1474898.6, 16682.203, -0.026717572, -0.06571858, -826538.4, 593903.9, 0.03067916, 10.005715, 9.996874 
1.9451883e+3, 1.6505365e+2, -777958.06, -1304404.3, 21664.715, -0.026009154, -0.0441403, -777068.0, 545398.75, 0.008740875, 10.004838, 9.997794 
1.9451603e+3, 1.7505114e+2, -794186.9, -1267092.8, 8761.579, -0.013019071, -0.074187115, -794024.6, 430466.13, 0.0010493496, 10.004039, 9.997763 
1.9451322e+3, 1.8504897e+2, -769924.25, -1144138.9, 1036.543, -0.023066957, -0.088401414, -769921.4, 356590.5, 0.0000066792695, 10.003266, 9.998306 
1.9451037e+3, 1.9504724e+2, -782752.6, -1103036.9, 5871.544, -0.049845934, -0.089469455, -782645.06, 245884.17, 0.0, 10.002521, 9.998276 
1.9450757e+3, 2.0504588e+2, -752569.9, -954978.75, 4218.631, -0.047486093, -0.083442576, -752482.0, 178060.63, 0.0, 10.001698, 9.999015 
1.9450478e+3, 2.1504496e+2, -786922.6, -924660.9, -4349.354, -0.018642412, -0.07556237, -786785.44, 45766.023, 0.0, 10.000805, 9.998981 
1.9450197e+3, 2.2504415e+2, -776588.8, -835413.1, -20647.545, -0.005577325, -0.06549611, -770065.0, -35504.89, 0.0, 10.00006, 9.999279 
1.944991e+3, 2.3504345e+2, -767360.7, -783342.75, -13601.205, -0.008187058, -0.060495295, -759576.75, -123008.8, 0.0, 9.999464, 9.999251 
1.9449627e+3, 2.4504302e+2, -724635.7, -617310.56, -6725.018, 0.0061137234, -0.06437444, -616890.8, -78318.086, 0.0, 9.998678, 10.000096 
1.9449349e+3, 2.5504297e+2, -768914.6, -590943.25, -20034.723, 0.038519584, -0.07880542, -588715.75, -148142.48, 0.0, 9.997713, 10.00007 
1.9449063e+3, 2.650435e+2, -757829.0, -473313.38, -26720.855, 0.024574349, -0.055716287, -470825.6, -128256.91, 0.0, 9.996853, 10.000618 
1.9448772e+3, 2.7504453e+2, -776527.1, -435412.16, -23050.65, -0.03990851, -0.013504968, -433861.56, -189301.98, 0.0, 9.996069, 10.000584 
1.9448495e+3, 2.8504533e+2, -740275.6, -299744.53, -8247.547, 0.021778613, -0.014615418, -299590.2, -153037.73, 0.0, 9.995356, 10.001185 
1.9448233e+3, 2.9504648e+2, -741092.44, -256306.5, 1528.0284, 0.22426026, -0.015969545, -256301.67, -207759.95, 0.0, 9.994706, 10.001123 
1.9447923e+3, 3.0504757e+2, -736917.9, -47106.844, 20875.861, -0.12841518, -0.09460446, -46475.652, -46475.652, 0.0, 9.993614, 10.002754 
1.9447668e+3, 3.1505138e+2, -896741.25, -35884.48, -38311.86, 0.12898317, 0.01186435, -34182.8, -34182.8, 0.0, 9.99215, 10.0035305 
1.9553116e+3, 1.2509456e+2, -987758.8, -1799491.4, 40771.188, 0.04073891, -0.094659664, -985716.1, 728347.2, 0.17824331, 10.00828, 9.995432 
1.9552806e+3, 1.3509108e+2, -908586.56, -1666294.0, -52873.62, -0.074234, -0.050835256, -904914.8, 711185.2, 0.12562388, 10.007452, 9.996077 
1.9552508e+3, 1.450872e+2, -801625.94, -1458225.1, -35005.375, -0.0788766, -0.09895796, -799764.94, 718373.2, 0.073369026, 10.006639, 9.997251 
1.9552223e+3, 1.5508434e+2, -805903.25, -1429306.9, -15898.843, 0.0064051636, -0.10703229, -805498.0, 614666.1, 0.03256222, 10.005722, 9.997184 
1.9551936e+3, 1.6508168e+2, -799796.7, -1351864.8, -7388.9272, 0.025213767, -0.098340616, -799697.8, 522491.9, 0.009453361, 10.004848, 9.997464 
1.9551641e+3, 1.7507929e+2, -816193.5, -1314479.5, -19237.445, -0.048233654, -0.084038034, -815451.9, 408762.53, 0.0011913278, 10.004044, 9.997437 
1.955135e+3, 1.850771e+2, -760737.2, -1126075.4, -25083.236, -0.06383515, -0.088200964, -759023.06, 367212.75, 0.000009907366, 10.003268, 9.998431 
1.9551067e+3, 1.9507529e+2, -774167.3, -1085737.9, -20177.566, -0.01437918, -0.11232613, -772866.06, 255386.98, 0.0, 10.00252, 9.998395 
1.9550778e+3, 2.0507394e+2, -767923.0, -987619.6, -28014.621, -0.0017790549, -0.09864392, -764406.94, 165859.56, 0.0, 10.0016985, 9.998792 
1.9550484e+3, 2.1507317e+2, -801864.56, -956464.1, -35910.715, -0.028711418, -0.0546595, -793930.4, 38345.34, 0.0, 10.000806, 9.998763 
1.9550194e+3, 2.2507228e+2, -761964.9, -806178.0, -41653.805, -0.033640202, -0.050554927, -736914.9, -2629.9285, 0.0, 10.000062, 9.99948 
1.9549905e+3, 2.3507133e+2, -753147.6, -754484.6, -34421.105, -0.016054189, -0.09172316, -719388.56, -83094.84, 0.0, 9.999464, 9.999451 
1.9549614e+3, 2.4507092e+2, -746838.4, -664590.06, -42098.875, 0.0069945427, -0.087999865, -646862.6, -108564.19, 0.0, 9.998681, 9.999771 
1.9549325e+3, 2.5507116e+2, -791209.25, -638578.9, -54955.457, 0.033698175, -0.04060653, -620850.94, -180552.95, 0.0, 9.997717, 9.999742 
1.954903e+3, 2.650715e+2, -745108.06, -448044.63, -55529.277, 0.019598901, -0.025835289, -438004.06, -95708.88, 0.0, 9.996855, 10.0007925 
1.9548734e+3, 2.750719e+2, -762418.6, -410168.0, -51417.85, -0.032238185, -0.06437148, -402816.0, -158525.03, 0.0, 9.996083, 10.0007515 
1.9548449e+3, 2.850728e+2, -734739.4, -292050.97, -33274.348, 0.031673506, -0.06639905, -289563.9, -143281.63, 0.0, 9.995369, 10.001233 
1.9548178e+3, 2.9507476e+2, -728701.6, -232929.95, -23245.465, 0.20251538, 0.008100372, -231842.42, -183578.69, 0.0, 9.994713, 10.001283 
1.9547862e+3, 3.050759e+2, -767395.06, -109185.7, -37701.215, -0.099004954, -0.054416943, -107033.27, -107033.27, 0.0, 9.993608, 10.002331 
1.9547588e+3, 3.150782e+2, -873129.94, 1908.3036, -7815.587, 0.10304874, -0.053326726, 1978.1046, 1978.1046, 0.0, 9.992187, 10.0037775 
1.9653198e+3, 1.2512362e+2, -936077.4, -1746166.3, 33644.734, 0.016374765, -0.10404547, -934682.44, 779095.94, 0.18528356, 10.008686, 9.995602 
1.9652884e+3, 1.3512029e+2, -923472.3, -1649447.6, -20956.1, -0.03429373, -0.06490683, -922867.9, 692945.06, 0.13108012, 10.0072775, 9.996272 
1.9652574e+3, 1.4511672e+2, -836932.5, -1479954.9, 18206.709, -0.068478756, -0.08853188, -836417.44, 681430.56, 0.07699376, 10.006432, 9.997186 
1.9652282e+3, 1.5511355e+2, -766281.2, -1416528.1, 10410.227, -0.0073585343, -0.12003079, -766114.56, 653762.6, 0.03448766, 10.006047, 9.997114 
1.9651987e+3, 1.6511077e+2, -734476.2, -1324352.4, 6856.4517, 0.01055535, -0.11844943, -734396.5, 587507.56, 0.010191619, 10.005324, 9.997423 
1.9651683e+3, 1.7510842e+2, -782881.7, -1302355.8, 14564.834, -0.047244128, -0.09376123, -782473.6, 441454.53, 0.0013443808, 10.004294, 9.997396 
1.9651383e+3, 1.8510625e+2, -750400.0, -1127762.3, 16619.27, -0.0590883, -0.092314154, -749669.44, 376280.25, 0.000014253208, 10.003372, 9.998366 
1.9651091e+3, 1.9510436e+2, -774407.75, -1092832.1, 7119.1807, -0.014560368, -0.11545018, -774248.6, 253719.06, 0.0, 10.002552, 9.998329 
1.9650795e+3, 2.0510298e+2, -763576.75, -988048.7, -1579.7747, -0.002830908, -0.101268, -763565.6, 166416.19, 0.0, 10.001742, 9.998766 
1.9650494e+3, 2.1510215e+2, -783122.0, -950065.1, 3849.294, -0.028227331, -0.058204476, -783033.25, 48958.227, 0.0, 10.000949, 9.998736 
1.9650194e+3, 2.2510125e+2, -753425.0, -802005.7, 2279.2532, -0.032686286, -0.053275466, -753318.3, -19317.355, 0.0, 10.000124, 9.999477 
1.9649898e+3, 2.3510033e+2, -781490.5, -768379.8, -6830.15, -0.014662903, -0.091312684, -765468.2, -129458.79, 0.0, 9.999273, 9.999446 
1.96496e+3, 2.4509993e+2, -780507.75, -683559.6, -15525.228, 0.005486434, -0.08421929, -681134.1, -143120.13, 0.0, 9.998464, 9.999744 
1.96493e+3, 2.5510016e+2, -798591.75, -644754.8, -6911.8164, 0.02555824, -0.033452395, -644444.9, -204431.23, 0.0, 9.997682, 9.999714 
1.9648999e+3, 2.651004e+2, -745864.8, -458425.7, -2759.263, 0.019993676, -0.023821155, -458399.22, -116386.99, 0.0, 9.996898, 10.000698 
1.9648696e+3, 2.751006e+2, -766007.06, -421988.6, -19680.184, -0.0044514337, -0.07219702, -420866.4, -176856.17, 0.0, 9.996106, 10.000657 
1.9648401e+3, 2.8510153e+2, -753702.75, -291281.28, -12014.235, 0.04097043, -0.07005982, -290969.34, -144968.38, 0.0, 9.995199, 10.001319 
1.9648115e+3, 2.9510364e+2, -796614.4, -248489.63, -73.29421, 0.13761209, 0.008587414, -248489.63, -200509.2, 0.0, 9.994178, 10.001431 
1.96478e+3, 3.0510485e+2, -840423.9, -182755.8, -26700.719, -0.060449522, -0.038207218, -181673.55, -181673.55, 0.0, 9.993278, 10.001983 
1.9647509e+3, 3.151066e+2, -828601.3, 9632.36, 57003.65, 0.083605796, -0.04670351, 13491.101, 13491.101, 0.0, 9.992551, 10.003655 
1.975327e+3, 1.2515335e+2, -906478.8, -1659836.1, -19326.215, -0.12001441, -0.10493303, -905983.4, 807505.25, 0.19240871, 10.00866, 9.996292 
1.9752964e+3, 1.351503e+2, -889694.56, -1566538.1, -63102.5, 0.06506955, -0.099350676, -883861.75, 731655.3, 0.13662542, 10.007281, 9.996892 
1.9752647e+3, 1.4514714e+2, -865513.75, -1539464.3, 7483.1445, 0.025306655, -0.090492964, -865430.7, 652117.0, 0.08069246, 10.006446, 9.996751 
1.9752336e+3, 1.551437e+2, -795994.3, -1478830.0, -1469.1409, -0.06671622, -0.10619207, -795991.2, 623590.94, 0.03646, 10.00605, 9.996686 
1.9752032e+3, 1.6514078e+2, -720392.3, -1294535.6, -30295.023, -0.066105634, -0.1065127, -718798.2, 602812.4, 0.010953202, 10.005323, 9.997631 
1.9751729e+3, 1.7513843e+2, -768248.3, -1272780.0, -22174.72, -0.013189176, -0.103181675, -767275.6, 456357.4, 0.0015065508, 10.004296, 9.9976 
1.975142e+3, 1.8513624e+2, -767312.6, -1164107.9, -12686.848, -0.013446397, -0.10029627, -766907.4, 358747.22, 0.000019590076, 10.003375, 9.998117 
1.9751112e+3, 1.9513436e+2, -790794.3, -1128127.4, -21639.428, -0.05125037, -0.099845015, -789411.8, 238262.47, 0.0, 10.002555, 9.998087 
1.9750807e+3, 2.0513286e+2, -752189.9, -965706.5, -29623.08, -0.050321814, -0.09249249, -748156.2, 181533.28, 0.0, 10.001745, 9.9989195 
1.9750504e+3, 2.1513183e+2, -772883.2, -928866.8, -23738.701, -0.018202249, -0.08503047, -769350.44, 62349.23, 0.0, 10.000947, 9.998885 
1.9750197e+3, 2.2513096e+2, -768692.4, -834329.94, -28270.379, -0.004617887, -0.07222529, -758195.0, -24486.217, 0.0, 10.000124, 9.999257 
1.974989e+3, 2.3513034e+2, -796215.1, -800323.56, -37003.207, -0.006507815, -0.059173703, -761209.1, -125493.07, 0.0, 9.999276, 9.999227 
1.9749583e+3, 2.4512996e+2, -761195.3, -645015.4, -44180.684, 0.00010849368, -0.0531292, -630123.3, -92402.8, 0.0, 9.998467, 10.00001 
1.9749275e+3, 2.5512987e+2, -779458.1, -607423.06, -35314.15, 0.012116444, -0.059389815, -600456.1, -160734.7, 0.0, 9.997689, 9.9999695 
1.9748968e+3, 2.6513004e+2, -771320.3, -513725.1, -32492.537, 0.024366137, -0.050841086, -509689.78, -167968.8, 0.0, 9.996906, 10.000316 
1.9748662e+3, 2.7513048e+2, -791580.7, -477610.63, -49365.066, 0.042402707, -0.03365098, -470031.94, -226313.73, 0.0, 9.996114, 10.000273 
1.9748354e+3, 2.851314e+2, -745071.8, -274633.13, -50940.58, 0.04607486, -0.022334374, -269180.34, -123470.84, 0.0, 9.995202, 10.001433 
1.9748044e+3, 2.9513285e+2, -785715.1, -230358.02, -38057.875, 0.019161317, -0.020292161, -227762.1, -180068.39, 0.0, 9.994194, 10.001551 
1.9747737e+3, 3.0513418e+2, -862184.44, -231782.31, -59495.598, -0.0065396586, -0.045847394, -226216.42, -226216.42, 0.0, 9.993292, 10.001639 
1.9747442e+3, 3.1513622e+2, -879278.94, -102424.336, 6091.9595, 0.15298815, 0.014010746, -102376.56, -102376.56, 0.0, 9.992577, 10.002876 
1.9853354e+3, 1.2518471e+2, -998642.56, -1690075.0, 37582.824, -0.115584545, -0.101857394, -996605.7, 716575.4, 0.19963713, 10.0078745, 9.996412 
1.985304e+3, 1.3518134e+2, -839129.8, -1543892.6, -29586.203, 0.067808114, -0.12712343, -837890.0, 777322.25, 0.14226183, 10.007744, 9.996852 
1.9852714e+3, 1.451783e+2, -779671.3, -1509849.1, 31762.156, 0.009952524, -0.09553294, -778292.25, 738949.3, 0.08446069, 10.007182, 9.996604 
1.9852397e+3, 1.5517484e+2, -799098.3, -1494707.9, 41309.082, -0.063381955, -0.09801887, -796653.75, 622623.06, 0.038474638, 10.006106, 9.996548 
1.9852084e+3, 1.6517183e+2, -741990.4, -1300678.9, 11158.015, -0.058990803, -0.101808846, -741767.6, 579538.7, 0.011734664, 10.005166, 9.997662 
1.985177e+3, 1.7516932e+2, -756971.56, -1263839.3, 5837.7446, -0.015908416, -0.11641789, -756904.4, 466425.5, 0.0016756335, 10.004363, 9.997627 
1.9851455e+3, 1.8516716e+2, -747484.75, -1158206.5, 20085.25, -0.019728009, -0.1105417, -746504.9, 378846.4, 0.000025644316, 10.00353, 9.998082 
1.9851138e+3, 1.9516544e+2, -775551.0, -1124284.8, 25890.387, -0.057310686, -0.08842477, -773639.3, 253730.27, 0.0, 10.002678, 9.998054 
1.9850823e+3, 2.0516388e+2, -740045.75, -962473.7, 19195.348, -0.052319825, -0.0845996, -738401.4, 190984.05, 0.0, 10.001843, 9.998894 
1.9850513e+3, 2.1516255e+2, -763811.9, -927150.94, 10469.753, -0.011470458, -0.103778414, -763143.5, 68254.57, 0.0, 10.001023, 9.998858 
1.98502e+3, 2.2516166e+2, -763912.2, -833940.06, 5380.859, 0.0024864834, -0.090744264, -763501.1, -30093.684, 0.0, 10.000167, 9.999238 
1.9849883e+3, 2.3516126e+2, -798374.9, -802971.75, 11790.143, -0.006300988, -0.051704142, -788661.25, -153248.36, 0.0, 9.999272, 9.999208 
1.9849567e+3, 2.4516088e+2, -770212.44, -651514.8, 3989.8643, -0.0021947243, -0.042116176, -651380.9, -113963.445, 0.0, 9.99842, 9.999985 
1.9849251e+3, 2.5516057e+2, -792268.5, -615766.25, -8901.613, 0.010987027, -0.06900389, -615318.44, -175897.8, 0.0, 9.997613, 9.999947 
1.9848935e+3, 2.651607e+2, -782199.2, -508797.3, 780.5456, 0.023385761, -0.06542158, -508795.1, -167374.88, 0.0, 9.99679, 10.000404 
1.9848622e+3, 2.7516145e+2, -814105.8, -478507.53, 17954.76, 0.042710375, -0.028773118, -477549.7, -234135.17, 0.0, 9.995921, 10.000357 
1.9848305e+3, 2.8516248e+2, -773205.3, -292164.2, 23413.893, 0.04047824, -0.0071313716, -291027.22, -145622.63, 0.0, 9.995029, 10.001394 
1.9847983e+3, 2.9516366e+2, -805198.06, -249302.86, 23393.99, 0.0020095808, -0.02481303, -248320.1, -200928.66, 0.0, 9.994105, 10.00146 
1.9847673e+3, 3.0516458e+2, -866239.1, -235994.17, 11821.074, 0.041117672, -0.082905784, -235772.52, -235772.52, 0.0, 9.993275, 10.001618 
1.984736e+3, 3.1516677e+2, -880699.5, -97171.164, 70511.57, 0.093866475, -0.012375189, -90876.234, -90876.234, 0.0, 9.992543, 10.002926 
1.9953443e+3, 1.2521757e+2, -1030513.3, -1750588.3, 19893.324, -0.0027603286, -0.09718571, -1029964.1, 682893.7, 0.206949, 10.007869, 9.995964 
1.9953108e+3, 1.3521327e+2, -882029.2, -1627568.1, -30859.021, -0.019774104, -0.14715199, -880754.06, 734145.25, 0.14795981, 10.007756, 9.996194 
1.9952774e+3, 1.4521012e+2, -773434.94, -1494184.4, -3079.506, -0.10312851, -0.10107011, -773421.8, 743508.4, 0.08827564, 10.007195, 9.996717 
1.9952464e+3, 1.5520686e+2, -792116.4, -1476845.3, 4043.859, -0.0032544844, -0.09508219, -792092.5, 626869.9, 0.04052147, 10.006104, 9.996673 
1.9952142e+3, 1.652038e+2, -753559.0, -1323636.4, -16942.027, 0.02155609, -0.10362096, -753055.94, 567936.4, 0.012533115, 10.005162, 9.997505 
1.9951808e+3, 1.7520097e+2, -766613.44, -1285497.6, -21870.443, -0.055770766, -0.1327533, -765693.25, 457326.3, 0.0018503127, 10.004369, 9.997478 
1.9951485e+3, 1.8519887e+2, -735278.6, -1134752.8, -10275.093, -0.07647388, -0.12284247, -735014.5, 390025.9, 0.000032100925, 10.003535, 9.998242 
1.9951166e+3, 1.951975e+2, -764702.3, -1102546.4, -3905.634, -0.0344161, -0.08064164, -764657.2, 262397.38, 0.0, 10.002678, 9.998203 
1.9950846e+3, 2.051959e+2, -755183.8, -994902.25, -10138.089, -0.011734959, -0.07706942, -754755.8, 174314.84, 0.0, 10.001844, 9.998672 
1.9950524e+3, 2.1519417e+2, -778511.7, -958646.44, -18260.398, -0.010764748, -0.1142702, -776679.25, 54408.504, 0.0, 10.001025, 9.998643 
1.9950199e+3, 2.2519319e+2, -750353.44, -807121.4, -26979.611, -0.01260285, -0.10914404, -739576.8, -6478.9355, 0.0, 10.00017, 9.999422 
1.9949874e+3, 2.3519298e+2, -786112.06, -778303.75, -20120.125, -0.015041944, -0.06908256, -761712.5, -126611.82, 0.0, 9.999272, 9.999379 
1.9949551e+3, 2.451926e+2, -793011.25, -700191.0, -25712.553, -0.0030561972, -0.051135853, -693544.2, -156438.47, 0.0, 9.998423, 9.99965 
1.9949228e+3, 2.551921e+2, -812813.1, -660935.56, -38067.676, 0.019878149, -0.0627165, -651928.2, -212815.73, 0.0, 9.997622, 9.999634 
1.9948903e+3, 2.6519233e+2, -741747.8, -426963.2, -31867.965, 0.015846105, -0.066911265, -423769.38, -82658.47, 0.0, 9.996796, 10.000965 
1.9948575e+3, 2.7519333e+2, -773836.2, -399467.72, -14207.886, -0.009278444, -0.059492815, -398929.28, -155829.22, 0.0, 9.995937, 10.000894 
1.9948252e+3, 2.8519458e+2, -786520.3, -322555.78, -11557.956, 0.020863585, -0.027869916, -322268.03, -177180.53, 0.0, 9.99504, 10.001181 
1.9947933e+3, 2.9519594e+2, -826079.8, -295086.78, -11710.2, 0.09176803, -0.00852401, -294828.66, -247753.73, 0.0, 9.994113, 10.001143 
1.994761e+3, 3.0519602e+2, -840487.9, -186165.66, -15403.505, 0.07801924, -0.14637327, -185803.23, -185803.23, 0.0, 9.993287, 10.001957 
1.9947281e+3, 3.1519935e+2, -819586.4, 27801.594, -16947.998, 0.051967245, -0.009699234, 28140.424, 28140.424, 0.0, 9.992555, 10.003777 
2.0053525e+3, 1.2525105e+2, -1000797.0, -1731918.0, 31192.527, 0.020451061, -0.08228292, -999468.6, 713061.06, 0.21435763, 10.008199, 9.995935 
2.0053186e+3, 1.352464e+2, -868232.3, -1645949.6, 20748.518, -0.024403943, -0.14109048, -867679.2, 746895.6, 0.1537205, 10.008038, 9.995929 
2.0052844e+3, 1.4524303e+2, -754368.6, -1479600.9, 26896.293, -0.11754252, -0.1045982, -753372.56, 763235.0, 0.09213427, 10.007352, 9.996748 
2.0052524e+3, 1.552397e+2, -792054.1, -1472503.8, 26089.9, 0.004717903, -0.107746966, -791055.25, 627584.6, 0.0425982, 10.006102, 9.996703 
2.0052195e+3, 1.6523665e+2, -756164.2, -1330302.1, 23481.639, 0.03319354, -0.11367016, -755205.44, 565464.25, 0.01334784, 10.005174, 9.997454 
2.0051853e+3, 1.7523389e+2, -742227.9, -1279143.9, 25204.31, -0.05865479, -0.1311557, -741047.3, 481649.4, 0.0020304252, 10.004564, 9.997426 
2.005152e+3, 1.8523172e+2, -704746.06, -1123500.1, 24795.111, -0.0801034, -0.12137491, -703283.0, 421435.28, 0.00003871262, 10.003764, 9.998207 
2.0051193e+3, 1.9523023e+2, -752577.4, -1099994.3, 16329.097, -0.025603848, -0.088674374, -751811.56, 274922.1, 0.0, 10.00278, 9.99817 
2.0050865e+3, 2.0522861e+2, -752780.8, -992083.1, 15618.254, -0.002559285, -0.08501807, -751765.75, 176983.98, 0.0, 10.001857, 9.998684 
2.0050532e+3, 2.1522696e+2, -782597.56, -959538.25, 23853.111, -0.012603116, -0.114432424, -779438.4, 51327.527, 0.0, 10.000995, 9.998651 
2.0050201e+3, 2.2522593e+2, -756068.4, -813886.56, 14271.302, -0.018645927, -0.111891136, -752737.7, -19961.178, 0.0, 10.000151, 9.999384 
2.0049867e+3, 2.3522556e+2, -780648.25, -779849.6, 3428.1755, -0.019082634, -0.08363203, -776797.6, -142016.64, 0.0, 9.99933, 9.99934 
2.0049533e+3, 2.452252e+2, -785063.4, -692364.7, 5126.6646, -0.0058518974, -0.06273667, -692082.0, -155296.06, 0.0, 9.998461, 9.999685 
2.0049202e+3, 2.5522494e+2, -822859.3, -660771.3, 19641.535, 0.019437045, -0.055796545, -658425.2, -219634.42, 0.0, 9.997534, 9.999675 
2.0048869e+3, 2.652252e+2, -766670.2, -426296.47, 19001.414, 0.010638086, -0.060801852, -425239.0, -84450.71, 0.0, 9.996574, 10.001073 
2.004853e+3, 2.752261e+2, -816191.7, -406942.47, 2897.9734, -0.026822802, -0.07585384, -406921.97, -164144.08, 0.0, 9.995595, 10.001005 
2.0048201e+3, 2.8522733e+2, -812906.44, -329006.47, 5614.623, 0.018504843, -0.05261396, -328941.3, -184175.92, 0.0, 9.994835, 10.001234 
2.0047878e+3, 2.952289e+2, -817009.9, -292765.9, 22606.654, 0.13403267, -0.015585378, -291792.84, -245041.33, 0.0, 9.994188, 10.0011215 
2.004754e+3, 3.052292e+2, -840711.0, -166884.56, 21574.273, 0.052954894, -0.1363667, -166194.52, -166194.52, 0.0, 9.993202, 10.00213 
2.0047203e+3, 3.1523234e+2, -866519.94, 54791.273, -16717.695, 0.04917309, -0.042402267, 55094.527, 55094.527, 0.0, 9.992029, 10.004211 
2.0153601e+3, 1.2528518e+2, -983652.75, -1684918.6, 12544.867, -0.03911679, -0.05030886, -983428.44, 728767.94, 0.22202373, 10.008239, 9.996289 
2.0153272e+3, 1.3528058e+2, -869861.25, -1632421.6, 17696.596, 0.041915447, -0.11450888, -869450.8, 744789.0, 0.15964627, 10.008016, 9.996033 
2.0152923e+3, 1.4527689e+2, -766207.0, -1492657.9, -12984.184, -0.0491981, -0.10977917, -765975.0, 750300.0, 0.096087545, 10.007325, 9.996665 
2.015258e+3, 1.5527329e+2, -797496.2, -1483855.0, -16271.369, -0.038482472, -0.13324878, -797110.7, 621199.4, 0.044722885, 10.006109, 9.996622 
2.0152241e+3, 1.6527031e+2, -752228.1, -1325200.6, 2039.83, -0.020073753, -0.12833935, -752220.9, 568118.25, 0.014183333, 10.005188, 9.997483 
2.0151901e+3, 1.7526792e+2, -740703.75, -1276611.4, 3881.1975, -0.027088903, -0.1128494, -740675.6, 481687.1, 0.0022172115, 10.004564, 9.997444 
2.0151561e+3, 1.852656e+2, -720800.9, -1156685.5, -10498.265, -0.035471175, -0.10747448, -720548.1, 403837.9, 0.000045408426, 10.00376, 9.997982 
2.015122e+3, 1.952635e+2, -767066.7, -1131308.3, -18457.408, -0.03270678, -0.11101336, -766133.75, 260273.88, 0.0, 10.002783, 9.997955 
2.0150882e+3, 2.052619e+2, -735775.8, -958776.3, -14952.412, -0.025141703, -0.1076814, -734777.75, 193645.73, 0.0, 10.001863, 9.998911 
2.0150542e+3, 2.152608e+2, -767492.0, -928879.94, -6395.054, -0.018034784, -0.10480298, -767239.0, 63194.42, 0.0, 10.000995, 9.998862 
2.0150201e+3, 2.2525977e+2, -775214.0, -854616.5, -15255.225, -0.01722298, -0.09916602, -772383.94, -39939.715, 0.0, 10.000152, 9.9991045 
2.0149858e+3, 2.3525886e+2, -798052.25, -817794.0, -26071.492, -0.020648943, -0.0953481, -780045.56, -145590.77, 0.0, 9.999334, 9.999079 
2.0149519e+3, 2.4525857e+2, -755504.94, -633309.0, -28936.44, -0.011661663, -0.07660756, -626803.1, -90344.13, 0.0, 9.998467, 10.00009 
2.0149176e+3, 2.5525892e+2, -795012.7, -605659.75, -14461.327, 0.0068923472, -0.048510425, -604561.7, -166105.33, 0.0, 9.997541, 10.0000515 
2.0148833e+3, 2.652592e+2, -791808.9, -480407.94, -18057.316, 0.005668746, -0.046688806, -479364.34, -138911.06, 0.0, 9.99658, 10.0007 
2.0148487e+3, 2.7525955e+2, -838159.3, -455387.56, -32417.576, -0.010239546, -0.07901296, -452661.5, -210212.17, 0.0, 9.995604, 10.00067 
2.014815e+3, 2.8526056e+2, -789504.9, -282072.25, -18973.322, 0.03429221, -0.082363695, -281363.8, -136924.17, 0.0, 9.99484, 10.001555 
2.0147818e+3, 2.9526243e+2, -795070.7, -251612.78, -4841.1914, 0.122646645, -0.047441702, -251569.66, -205147.27, 0.0, 9.994203, 10.001399 
2.0147459e+3, 3.0526406e+2, -836732.7, -162035.9, -22712.262, -0.050649423, -0.04770714, -161272.22, -161272.22, 0.0, 9.993214, 10.002159 
2.0147128e+3, 3.1526655e+2, -870828.1, 44740.023, -22890.906, 0.091737404, -0.02646872, 45311.98, 45311.98, 0.0, 9.992036, 10.004138 
2.0253687e+3, 1.2531984e+2, -885207.9, -1624266.5, 33391.13, -0.045897443, -0.07047563, -883702.3, 828153.6, 0.23027185, 10.009132, 9.9964 
2.0253351e+3, 1.353155e+2, -918155.2, -1660772.0, 43125.785, 0.05546608, -0.10534567, -915659.2, 698238.06, 0.16593896, 10.007678, 9.996002 
2.0252995e+3, 1.4531158e+2, -834417.9, -1523838.1, 16282.822, -0.028389795, -0.12184875, -834033.56, 681901.1, 0.10023406, 10.006827, 9.996674 
2.0252642e+3, 1.5530795e+2, -754684.1, -1461865.9, 18261.104, -0.050257243, -0.14529711, -754212.9, 663756.7, 0.046932463, 10.006433, 9.996616 
2.0252292e+3, 1.6530497e+2, -693215.7, -1307112.1, 32666.404, -0.0356283, -0.13471684, -691482.4, 628516.5, 0.015050567, 10.005654, 9.99738 
2.0251948e+3, 1.7530257e+2, -750472.7, -1291796.8, 24942.957, -0.017046047, -0.10997649, -749325.8, 472697.3, 0.0024135695, 10.004547, 9.997346 
2.0251599e+3, 1.853002e+2, -740484.44, -1167342.8, 15193.67, -0.022166455, -0.10485062, -739944.3, 384102.88, 0.00005234892, 10.0036335, 9.997969 
2.0251247e+3, 1.9529799e+2, -751638.4, -1125822.5, 21143.375, -0.038702227, -0.117475554, -750447.44, 275622.28, 0.0, 10.002899, 9.997936 
2.0250899e+3, 2.0529638e+2, -706844.06, -948518.25, 20637.373, -0.037484795, -0.11049078, -705094.44, 222991.19, 0.0, 10.00208, 9.998876 
2.0250551e+3, 2.152954e+2, -742357.94, -919739.0, 8562.322, -0.024005173, -0.09192197, -741945.56, 88149.15, 0.0, 10.0011835, 9.998833 
2.0250201e+3, 2.2529434e+2, -763672.75, -844820.8, 2042.62, -0.018711224, -0.088044725, -763621.3, -31515.791, 0.0, 10.000216, 9.999141 
2.0249851e+3, 2.3529328e+2, -818425.2, -823294.56, 14611.411, -0.018798597, -0.10289161, -806047.0, -171929.81, 0.0, 9.999179, 9.999115 
2.0249501e+3, 2.45293e+2, -779315.44, -634725.7, 12736.295, -0.0134329265, -0.08886309, -633612.4, -97491.48, 0.0, 9.998264, 10.000175 
2.0249149e+3, 2.5529352e+2, -801993.8, -600083.5, 2474.8042, -0.005281753, -0.05025511, -600053.2, -161936.98, 0.0, 9.997458, 10.000129 
2.0248798e+3, 2.652938e+2, -786351.3, -493748.3, -1952.2845, -0.0014451091, -0.04797144, -493735.28, -153621.8, 0.0, 9.996688, 10.000556 
2.0248446e+3, 2.7529386e+2, -799544.44, -451838.6, 649.8231, 0.0051870104, -0.09357962, -451837.38, -209724.66, 0.0, 9.995936, 10.000532 
2.02481e+3, 2.852948e+2, -759622.75, -262963.34, 10118.02, 0.04633893, -0.09910038, -262757.3, -118653.48, 0.0, 9.995028, 10.001595 
2.0247757e+3, 2.9529694e+2, -822721.8, -253974.22, 775.5736, 0.102962665, -0.040845625, -253973.16, -207889.58, 0.0, 9.993971, 10.0014925 
2.0247388e+3, 3.0529863e+2, -855889.06, -178359.16, -25676.727, -0.08470315, -0.040841103, -177387.47, -177387.47, 0.0, 9.9931135, 10.002095 
2.0247054e+3, 3.1530076e+2, -841473.2, 12328.437, 1061.0381, 0.14068513, -0.04096201, 12329.755, 12329.755, 0.0, 9.99244, 10.003719 
2.035378e+3, 1.2535504e+2, -907140.7, -1643983.9, -17406.996, -0.016568992, -0.13206013, -906729.7, 804778.75, 0.23943758, 10.009092, 9.996251 
2.0353425e+3, 1.3535109e+2, -932706.3, -1685738.6, 1283.1932, 0.016688999, -0.10614867, -932704.1, 680843.4, 0.1728067, 10.00769, 9.995823 
2.0353061e+3, 1.4534703e+2, -828877.3, -1510917.8, 4878.753, -0.053544093, -0.13336526, -828842.4, 686744.44, 0.10467855, 10.006854, 9.996755 
2.0352706e+3, 1.5534358e+2, -752022.8, -1453407.8, 4862.83, -0.034578796, -0.1472608, -751989.06, 665630.6, 0.04927109, 10.0064335, 9.9966755 
2.0352352e+3, 1.6534051e+2, -710619.6, -1341354.9, -6568.2876, -0.018811757, -0.13691598, -710551.2, 609099.0, 0.015965544, 10.005647, 9.997149 
2.0351991e+3, 1.7533778e+2, -765077.2, -1323236.6, -13474.107, -0.02914987, -0.1210672, -764752.1, 456926.5, 0.0026241713, 10.004549, 9.99713 
2.0351632e+3, 1.8533543e+2, -727787.44, -1142944.5, -10380.732, -0.040223278, -0.111519486, -727528.06, 396174.38, 0.000060059912, 10.003639, 9.998135 
2.0351276e+3, 1.9533356e+2, -740731.7, -1104235.3, -4381.3374, -0.0447616, -0.10842871, -740678.94, 285042.1, 0.0, 10.002901, 9.998085 
2.0350918e+3, 2.0533194e+2, -727616.7, -992529.7, -11381.132, -0.04083911, -0.094061345, -727128.6, 200608.7, 0.0, 10.002081, 9.998575 
2.0350562e+3, 2.1533068e+2, -761739.9, -960736.4, -22959.4, -0.032458972, -0.07498871, -759125.25, 70625.45, 0.0, 10.001184, 9.998552 
2.0350203e+3, 2.2532958e+2, -738743.94, -794653.44, -35496.266, -0.02450068, -0.0781203, -721516.25, 10245.186, 0.0, 10.000219, 9.999484 
2.0349842e+3, 2.3532873e+2, -795047.25, -775918.4, -22290.887, -0.014945087, -0.10698926, -761226.6, -127457.55, 0.0, 9.999181, 9.999441 
2.0349482e+3, 2.453284e+2, -796531.06, -672129.3, -17012.492, -0.012123707, -0.099452704, -669844.7, -134072.06, 0.0, 9.998269, 9.999918 
2.0349123e+3, 2.5532866e+2, -817391.94, -634724.8, -27070.787, -0.019003604, -0.06179464, -630797.44, -193026.17, 0.0, 9.997467, 9.999889 
2.0348763e+3, 2.653288e+2, -778115.2, -479802.0, -30301.943, -0.012017445, -0.066545226, -476755.1, -136984.95, 0.0, 9.996698, 10.0006485 
2.0348406e+3, 2.7532884e+2, -792574.0, -442403.53, -27344.025, 0.015126994, -0.122237906, -440281.16, -198511.92, 0.0, 9.9959545, 10.00059 
2.0348051e+3, 2.8532994e+2, -777129.06, -302507.9, -30566.496, 0.052294537, -0.10049291, -300547.47, -156788.8, 0.0, 9.995039, 10.001319 
2.0347694e+3, 2.9533234e+2, -829617.9, -271377.47, -39918.563, 0.076429166, 0.012307811, -268537.4, -222802.0, 0.0, 9.99398, 10.001369 
2.0347321e+3, 3.0533245e+2, -866556.8, -202297.84, -52244.816, -0.047056787, -0.13607769, -198213.83, -198213.83, 0.0, 9.993119, 10.001929 
2.0346974e+3, 3.153348e+2, -870703.8, -59956.83, 27453.75, 0.09482941, -0.08268488, -59028.246, -59028.246, 0.0, 9.992482, 10.003207 
2.045387e+3, 1.2539117e+2, -980299.8, -1690650.8, -7805.7407, 0.0018144336, -0.17745663, -980214.06, 730938.44, 0.24967258, 10.008612, 9.996062 
2.04535e+3, 1.3538761e+2, -876359.4, -1661509.8, 22923.42, -0.018090118, -0.09898908, -875690.7, 737498.25, 0.18035306, 10.008269, 9.99571 
2.0453131e+3, 1.4538342e+2, -746021.25, -1467620.8, 30328.662, -0.071639426, -0.1353481, -744748.75, 770481.7, 0.109483406, 10.007517, 9.996767 
2.045277e+3, 1.5538007e+2, -760084.25, -1455380.3, 25516.99, -0.02854222, -0.14046314, -759149.06, 658113.5, 0.051772792, 10.006384, 9.996685 
2.0452406e+3, 1.6537704e+2, -731782.94, -1345247.1, 20071.703, -0.013112476, -0.12871481, -731126.94, 588165.7, 0.016943984, 10.005479, 9.997203 
2.0452036e+3, 1.7537428e+2, -729161.4, -1300718.5, 32174.38, -0.041041147, -0.11951896, -727355.9, 493965.0, 0.002854614, 10.004777, 9.997175 
2.045167e+3, 1.853719e+2, -687956.2, -1130935.1, 37588.14, -0.051791742, -0.110951796, -684789.3, 438555.56, 0.00006955473, 10.003945, 9.998069 
2.0451304e+3, 1.9536999e+2, -730427.5, -1105247.4, 26394.605, -0.041809443, -0.10307683, -728577.94, 296785.9, 0.0, 10.003, 9.998028 
2.0450939e+3, 2.0536831e+2, -733201.7, -996280.6, 20114.35, -0.036119405, -0.09157665, -731672.7, 195708.13, 0.0, 10.00205, 9.998562 
2.0450573e+3, 2.1536691e+2, -775766.9, -968954.94, 28787.715, -0.036758862, -0.08251335, -771568.4, 57826.848, 0.0, 10.001096, 9.998537 
2.0450203e+3, 2.2536583e+2, -737967.5, -790367.6, 13608.25, -0.031328175, -0.08531841, -734644.25, -3238.406, 0.0, 10.000211, 9.9995165 
2.0449835e+3, 2.3536511e+2, -762960.75, -756499.9, 2728.1787, -0.017730476, -0.10416391, -755502.0, -122089.82, 0.0, 9.999387, 9.999473 
2.0449467e+3, 2.453647e+2, -765872.56, -667197.06, 7708.9565, -0.0119439205, -0.10028728, -666598.44, -131182.27, 0.0, 9.998524, 9.999828 
2.0449096e+3, 2.553647e+2, -799223.1, -635020.25, 10102.224, -0.016516186, -0.079840325, -634401.06, -196983.89, 0.0, 9.997633, 9.999805 
2.0448731e+3, 2.6536474e+2, -770832.25, -473029.28, 10266.954, -0.010081567, -0.08898909, -472675.72, -133258.95, 0.0, 9.9967375, 10.000674 
2.0448364e+3, 2.7536497e+2, -812292.94, -449381.94, 7312.9424, 0.015896061, -0.13181919, -449234.66, -207819.92, 0.0, 9.995812, 10.000609 
2.0447999e+3, 2.8536615e+2, -789036.6, -318266.13, 9608.623, 0.048029415, -0.09288071, -318070.1, -174667.27, 0.0, 9.995003, 10.001226 
2.0447633e+3, 2.9536855e+2, -786069.25, -255299.88, 12436.451, 0.05979521, 0.027257109, -255008.64, -209629.27, 0.0, 9.994304, 10.001323 
2.0447259e+3, 3.0536765e+2, -847142.6, -229903.92, -6179.4067, 0.003584526, -0.20719588, -229842.06, -229842.06, 0.0, 9.993417, 10.001593 
2.0446895e+3, 3.1537092e+2, -870266.0, -28152.16, 78695.07, 0.06177563, -0.02223393, -20861.273, -20861.273, 0.0, 9.9923525, 10.003486 
2.0553955e+3, 1.2542826e+2, -1000851.7, -1714677.1, -20197.6, 0.001106692, -0.19433704, -1000280.6, 710507.3, 0.26086977, 10.008623, 9.99585 
2.0553578e+3, 1.354249e+2, -887635.9, -1669150.8, 13835.953, -0.05110455, -0.091138944, -887391.0, 725432.4, 0.18853433, 10.008257, 9.995664 
2.0553203e+3, 1.4542057e+2, -755977.75, -1476975.8, -5784.9243, -0.08517098, -0.13557163, -755931.3, 758935.7, 0.114648916, 10.007501, 9.996706 
2.0552835e+3, 1.5541731e+2, -764942.1, -1462295.5, -11750.847, -0.034351468, -0.123710066, -764744.2, 652154.8, 0.05445273, 10.006382, 9.99664 
2.0552458e+3, 1.6541445e+2, -711634.0, -1302906.1, -3911.5334, -0.021098683, -0.10698079, -711608.1, 607318.56, 0.017998014, 10.005481, 9.997497 
2.0552082e+3, 1.7541191e+2, -710572.2, -1262658.1, 7312.741, -0.054576315, -0.1060554, -710475.3, 510476.0, 0.0031104758, 10.004778, 9.9974375 
2.0551707e+3, 1.8540944e+2, -707868.9, -1172749.8, 3622.197, -0.058198545, -0.104835846, -707840.6, 415135.47, 0.000082162405, 10.003944, 9.997784 
2.0551336e+3, 1.9540721e+2, -748806.5, -1143787.5, -6899.8984, -0.0313953, -0.101440944, -748686.0, 276313.28, 0.0, 10.002999, 9.997766 
2.0550959e+3, 2.0540541e+2, -715129.7, -959809.4, -14066.726, -0.02479694, -0.10248493, -714323.6, 212693.39, 0.0, 10.002052, 9.998813 
2.055058e+3, 2.1540405e+2, -759740.25, -936022.5, -4696.0864, -0.03868696, -0.11413733, -759615.25, 69414.15, 0.0, 10.001095, 9.998765 
2.0550205e+3, 2.25403e+2, -758160.1, -833449.75, -15867.397, -0.040253464, -0.10900087, -754952.7, -23912.934, 0.0, 10.000213, 9.999222 
2.0549826e+3, 2.3540233e+2, -781869.94, -797133.1, -26861.502, -0.029246615, -0.09349398, -761577.0, -128529.58, 0.0, 9.999391, 9.999194 
2.0549451e+3, 2.4540181e+2, -759467.4, -656239.8, -25565.713, -0.014058388, -0.090908386, -650255.1, -115202.555, 0.0, 9.99853, 9.999902 
2.0549075e+3, 2.5540152e+2, -793042.6, -624990.9, -22574.959, 0.0010278845, -0.10569954, -622011.1, -184956.28, 0.0, 9.997642, 9.999871 
2.0548698e+3, 2.654016e+2, -773814.94, -481093.1, -24737.6, 0.0036096277, -0.11442848, -479017.25, -139963.02, 0.0, 9.996743, 10.000618 
2.054832e+3, 2.754021e+2, -813177.6, -453664.63, -27546.863, 0.0041408855, -0.12012641, -451566.16, -210516.23, 0.0, 9.995819, 10.000579 
2.0547947e+3, 2.8540337e+2, -780386.75, -303833.63, -16640.924, 0.03048695, -0.07790884, -303253.25, -160215.92, 0.0, 9.995014, 10.001322 
2.0547576e+3, 2.9540536e+2, -779841.25, -250817.33, -13011.951, 0.051022742, -0.0076856944, -250497.48, -205480.27, 0.0, 9.994336, 10.00134 
2.0547199e+3, 3.0540416e+2, -885793.8, -312663.53, -49346.105, 0.070455775, -0.24400885, -308445.9, -308445.9, 0.0, 9.993428, 10.0010195 
2.0546813e+3, 3.1540698e+2, -794210.94, 129141.875, -941.67004, 0.029295836, -0.051689327, 129142.836, 129142.836, 0.0, 9.992346, 10.004573 
2.065404e+3, 1.254662e+2, -960139.7, -1688196.0, -8711.036, -0.0318975, -0.18939933, -960035.5, 750380.94, 0.27273154, 10.009117, 9.995846 
2.0653659e+3, 1.3546295e+2, -921704.9, -1664670.8, 37927.96, -0.053360496, -0.09111262, -919773.7, 692676.4, 0.19719474, 10.007943, 9.995848 
2.0653279e+3, 1.4545862e+2, -819441.2, -1509413.3, 25264.475, -0.06362411, -0.14200832, -818517.4, 695976.44, 0.120122805, 10.007063, 9.996664 
2.0652896e+3, 1.5545546e+2, -758766.56, -1462935.9, 21210.607, -0.04867612, -0.11474341, -758128.25, 658397.25, 0.057306223, 10.006462, 9.996596 
2.0652512e+3, 1.6545261e+2, -679435.4, -1279298.9, 23597.738, -0.041913535, -0.098578095, -678508.5, 640044.44, 0.01913315, 10.005678, 9.997566 
2.0652129e+3, 1.7545001e+2, -712580.8, -1255496.3, 19779.33, -0.05366977, -0.109923825, -711861.2, 508716.16, 0.0033952906, 10.004733, 9.997507 
2.0651746e+3, 1.8544753e+2, -725411.75, -1183383.8, 16764.152, -0.05054751, -0.113199316, -724798.9, 397803.16, 0.00009903603, 10.003838, 9.997761 
2.0651364e+3, 1.9544527e+2, -753326.2, -1148459.3, 23359.645, -0.031216837, -0.10804424, -751950.0, 272675.53, 0.0, 10.002981, 9.997742 
2.0650978e+3, 2.0544343e+2, -713127.75, -955451.6, 13713.453, -0.026310174, -0.11350526, -712354.2, 214289.28, 0.0, 10.002054, 9.998841 
2.0650594e+3, 2.1544199e+2, -762079.2, -934132.8, 5550.3896, -0.035404995, -0.1357361, -761900.4, 66755.64, 0.0, 10.001069, 9.998789 
2.0650205e+3, 2.254409e+2, -763680.7, -852599.1, 1198.3759, -0.0368619, -0.12668987, -763664.56, -32997.613, 0.0, 10.00025, 9.99907 
2.0649822e+3, 2.3544024e+2, -765805.4, -805285.56, -181.7952, -0.030041512, -0.09355945, -765804.56, -133129.2, 0.0, 9.999572, 9.999049 
2.0649436e+3, 2.4543971e+2, -732968.06, -635939.7, -1899.9846, -0.016758382, -0.08955778, -635902.5, -101221.664, 0.0, 9.998683, 9.999966 
2.064905e+3, 2.5543934e+2, -794269.3, -618518.8, -8.054504, -0.0008040838, -0.11726143, -618518.75, -181835.6, 0.0, 9.997606, 9.999931 
2.0648664e+3, 2.6543942e+2, -783507.25, -493993.3, 2810.7136, 0.003158847, -0.12485045, -493966.03, -155283.48, 0.0, 9.996715, 10.000543 
2.0648278e+3, 2.7543998e+2, -792947.3, -450552.7, -2552.1416, 0.0069357427, -0.11623095, -450533.66, -209855.56, 0.0, 9.995989, 10.000517 
2.0647898e+3, 2.854412e+2, -760738.0, -281654.0, 5996.1084, 0.030990507, -0.08539316, -281578.97, -138912.64, 0.0, 9.995097, 10.001433 
2.0647515e+3, 2.954429e+2, -823913.5, -263785.34, 8528.1875, 0.04321306, -0.050943285, -263655.53, -219007.11, 0.0, 9.994002, 10.00141 
2.0647131e+3, 3.054423e+2, -937991.3, -345606.28, -3734.872, 0.07557944, -0.2217462, -345582.75, -345582.75, 0.0, 9.993108, 10.000946 
2.0646736e+3, 3.1544402e+2, -742221.1, 201177.69, 50510.92, 0.0063763964, -0.13667224, 203874.4, 203874.4, 0.0, 9.9925, 10.004995 
2.0754124e+3, 1.2550488e+2, -966644.4, -1671489.6, -36838.414, -0.096481875, -0.16623877, -964724.25, 745314.56, 0.28490382, 10.009087, 9.996025 
2.075374e+3, 1.3550177e+2, -908626.25, -1610517.8, 4706.006, -0.034620088, -0.09354912, -908594.7, 703474.7, 0.20614436, 10.007941, 9.996221 
2.0753352e+3, 1.4549756e+2, -826118.0, -1516525.0, 6119.3394, -0.017977651, -0.14709526, -826063.75, 688047.56, 0.12583204, 10.00707, 9.99661 
2.0752956e+3, 1.554944e+2, -764606.6, -1472317.3, 1105.3763, -0.07325542, -0.11416276, -764604.9, 651538.7, 0.060315695, 10.006464, 9.996532 
2.0752566e+3, 1.6549137e+2, -688759.0, -1297719.9, -9489.316, -0.07527381, -0.1057929, -688611.2, 629561.75, 0.020347532, 10.005677, 9.997439 
2.0752178e+3, 1.7548852e+2, -720023.3, -1271192.4, -13072.818, -0.040535443, -0.13083869, -719713.44, 500486.25, 0.0037093773, 10.004731, 9.997401 
2.0751785e+3, 1.8548606e+2, -711358.94, -1154597.6, -13511.682, -0.03190051, -0.13452148, -710947.44, 411276.03, 0.00012081349, 10.003836, 9.997961 
2.0751391e+3, 1.954841e+2, -740678.25, -1122662.5, -6952.6772, -0.043126956, -0.1210166, -740551.75, 283691.72, 0.0, 10.00298, 9.99792 
2.0750998e+3, 2.0548226e+2, -726357.8, -984324.0, -21703.99, -0.040922448, -0.12404241, -724544.44, 201716.72, 0.0, 10.002056, 9.998643 
2.0750603e+3, 2.1548061e+2, -775352.6, -962388.0, -28895.22, -0.028417103, -0.14717177, -770990.3, 57285.813, 0.0, 10.00107, 9.998596 
2.075021e+3, 2.2547942e+2, -764292.6, -855443.7, -22825.996, -0.022628957, -0.13761647, -758896.06, -28607.738, 0.0, 10.000254, 9.99905 
2.0749816e+3, 2.3547876e+2, -766489.6, -808360.5, -24590.852, -0.021673897, -0.10503209, -755129.5, -122832.38, 0.0, 9.999577, 9.999027 
2.0749421e+3, 2.4547827e+2, -729282.5, -629942.0, -42015.367, -0.021506172, -0.0966376, -614555.2, -80252.97, 0.0, 9.998688, 10.000007 
2.0749024e+3, 2.5547805e+2, -790789.3, -613049.6, -40105.375, -0.025860703, -0.11375644, -604419.3, -168116.1, 0.0, 9.997611, 9.999969 
2.074863e+3, 2.6547807e+2, -790523.8, -510992.6, -25000.467, -0.012583461, -0.1196339, -508774.22, -170471.36, 0.0, 9.996721, 10.000423 
2.074824e+3, 2.7547842e+2, -797692.06, -465163.34, -29700.344, 0.025679234, -0.12215914, -462531.44, -222230.75, 0.0, 9.996006, 10.00041 
2.074785e+3, 2.8547937e+2, -751588.1, -266221.25, -37107.52, 0.04850569, -0.117737144, -263400.66, -121109.17, 0.0, 9.995109, 10.001535 
2.0747453e+3, 2.9548103e+2, -815501.7, -248811.44, -36099.395, 0.026602453, -0.10289326, -246521.1, -202246.6, 0.0, 9.994009, 10.001512 
2.0747055e+3, 3.0548212e+2, -901864.6, -270606.16, -28584.174, 0.015508335, -0.13115276, -269314.47, -269314.47, 0.0, 9.993107, 10.001462 
2.0746663e+3, 3.1548396e+2, -793449.3, 90066.63, 5622.387, 0.049354587, -0.08878344, 90102.414, 90102.414, 0.0, 9.992518, 10.004225 
2.0854211e+3, 1.2554449e+2, -1008338.75, -1686486.5, -7674.9277, -0.10988792, -0.1490654, -1008251.94, 701399.6, 0.29709324, 10.008805, 9.996018 
2.0853819e+3, 1.355413e+2, -897868.2, -1588687.0, 15539.345, -0.047991227, -0.09696726, -897518.8, 714163.25, 0.2152267, 10.008038, 9.996363 
2.0853426e+3, 1.4553724e+2, -809333.44, -1504275.0, 21087.6, -0.011339875, -0.14332105, -808694.1, 705028.0, 0.13171068, 10.007234, 9.996623 
2.085302e+3, 1.5553401e+2, -768782.4, -1471396.1, 22721.203, -0.06785266, -0.119572, -768048.4, 647706.5, 0.063457206, 10.006443, 9.996548 
2.0852622e+3, 1.655309e+2, -699801.44, -1307210.1, 12349.716, -0.07158641, -0.118726805, -699550.44, 618234.6, 0.021632526, 10.005629, 9.9973955 
2.0852225e+3, 1.7552796e+2, -715333.75, -1273603.0, 12529.895, -0.03609082, -0.14518845, -715052.7, 504759.88, 0.004050162, 10.0047865, 9.997358 
2.0851824e+3, 1.855255e+2, -701529.44, -1146043.1, 7812.7217, -0.029643884, -0.14679624, -701392.2, 420443.88, 0.00014758465, 10.003888, 9.997994 
2.0851421e+3, 1.955236e+2, -743625.7, -1120465.6, 1853.0775, -0.046372537, -0.13094725, -743616.6, 280238.56, 0.0, 10.002947, 9.997951 
2.0851018e+3, 2.055217e+2, -723639.94, -996946.0, -13392.133, -0.0426284, -0.13482082, -722985.25, 202888.33, 0.0, 10.002139, 9.998514 
2.0850615e+3, 2.1551992e+2, -729899.06, -953377.7, -16575.299, -0.022615392, -0.15919465, -728676.4, 99214.05, 0.0, 10.001441, 9.998478 
2.0850213e+3, 2.255187e+2, -728279.6, -826474.25, -6686.0396, -0.015075099, -0.15103139, -727826.5, 2076.1414, 0.0, 10.000454, 9.999151 
2.0849809e+3, 2.3551808e+2, -810016.44, -818848.3, -101.757965, -0.016363872, -0.12234276, -810015.25, -178105.02, 0.0, 9.999236, 9.999118 
2.0849407e+3, 2.4551761e+2, -780722.7, -666170.25, -13772.413, -0.0213013, -0.11096594, -664537.7, -130622.21, 0.0, 9.998386, 9.999902 
2.0848998e+3, 2.555174e+2, -764096.44, -610157.2, -23709.113, -0.031802274, -0.11637852, -606588.4, -170670.89, 0.0, 9.99784, 9.999877 
2.0848596e+3, 2.6551747e+2, -756917.7, -478778.56, -9123.03, -0.017540663, -0.119590044, -478479.63, -140562.98, 0.0, 9.996886, 10.000565 
2.0848198e+3, 2.7551788e+2, -849772.1, -476017.53, 6111.464, 0.026629902, -0.12910649, -475917.63, -236004.58, 0.0, 9.99559, 10.000534 
2.0847797e+3, 2.855188e+2, -806354.2, -299530.53, 7899.322, 0.049752906, -0.12825616, -299407.47, -157503.48, 0.0, 9.994764, 10.0014715 
2.0847392e+3, 2.9552042e+2, -774705.94, -233345.2, -5761.381, 0.028801534, -0.10741527, -233283.89, -189396.28, 0.0, 9.9943075, 10.001473 
2.0846985e+3, 3.0552167e+2, -844635.8, -225827.6, -21920.291, -0.0050832303, -0.12972304, -225052.08, -225052.08, 0.0, 9.993425, 10.001616 
2.0846587e+3, 3.1552354e+2, -854482.0, 25429.81, -6454.725, 0.049426097, -0.096371345, 25477.158, 25477.158, 0.0, 9.992256, 10.003904 
2.0954302e+3, 1.2558493e+2, -1030111.6, -1706779.5, -20286.598, -0.085727, -0.13735668, -1029503.94, 679751.75, 0.30915317, 10.0088005, 9.995823 
2.0953892e+3, 1.3558146e+2, -911495.06, -1600840.0, -5770.066, -0.09220484, -0.10284653, -911446.75, 699842.4, 0.22436565, 10.008039, 9.996258 
2.0953494e+3, 1.4557754e+2, -809072.56, -1494014.1, -3940.0674, -0.040847886, -0.13495265, -809049.9, 704277.5, 0.13772318, 10.007232, 9.996707 
2.0953089e+3, 1.555742e+2, -764614.3, -1457519.4, -2912.471, -0.03765791, -0.13035272, -764602.06, 650757.94, 0.066711895, 10.006442, 9.996644 
2.095268e+3, 1.6557108e+2, -700819.25, -1307844.5, -16588.68, -0.03753475, -0.13496366, -700366.25, 617023.75, 0.022977918, 10.005626, 9.997395 
2.0952271e+3, 1.7556824e+2, -716098.2, -1275677.9, -17016.596, -0.04237631, -0.15142663, -715581.25, 503835.66, 0.0044137463, 10.004787, 9.997346 
2.095186e+3, 1.8556575e+2, -709652.1, -1164534.5, -25752.955, -0.04394088, -0.15032451, -708198.75, 413242.22, 0.00017905436, 10.003892, 9.997868 
2.095145e+3, 1.9556367e+2, -752068.0, -1139193.3, -30689.041, -0.04218901, -0.13896841, -749650.25, 273811.56, 0.0, 10.002949, 9.997822 
2.095104e+3, 2.0556162e+2, -727919.2, -1007172.5, -37872.453, -0.033199932, -0.14573155, -722874.06, 202607.6, 0.0, 10.002142, 9.998445 
2.095063e+3, 2.1555975e+2, -733774.0, -961639.3, -41184.973, -0.020001935, -0.17140625, -726558.6, 100941.086, 0.0, 10.001439, 9.998424 
2.0950218e+3, 2.255586e+2, -714079.9, -797636.06, -51016.438, -0.015117289, -0.16741085, -689917.94, 39592.977, 0.0, 10.000454, 9.999351 
2.0949802e+3, 2.3555811e+2, -797882.25, -794044.9, -43248.87, -0.015769392, -0.14550261, -752672.1, -121156.44, 0.0, 9.999234, 9.99929 
2.0949389e+3, 2.455576e+2, -798481.25, -704767.7, -34196.29, -0.016945165, -0.13084409, -693616.3, -160094.63, 0.0, 9.998391, 9.999636 
2.0948978e+3, 2.5555724e+2, -778083.4, -643111.25, -45500.105, -0.020313071, -0.124832004, -629205.5, -193678.22, 0.0, 9.997853, 9.999646 
2.0948565e+3, 2.6555747e+2, -726773.6, -419560.9, -59280.43, -0.0136512825, -0.12607916, -408518.9, -70993.68, 0.0, 9.996897, 10.000967 
2.0948152e+3, 2.7555823e+2, -823871.8, -424276.3, -41611.727, 0.0058563105, -0.14041825, -419989.1, -180472.67, 0.0, 9.995596, 10.000889 
2.0947744e+3, 2.8555942e+2, -824223.06, -337443.03, -9838.832, 0.03338011, -0.11373463, -337244.25, -195739.86, 0.0, 9.994765, 10.001212 
2.0947339e+3, 2.955612e+2, -786703.4, -262486.9, -24695.514, 0.050692983, -0.053659953, -261326.1, -217838.31, 0.0, 9.994323, 10.001268 
2.0946921e+3, 3.055605e+2, -861875.75, -266950.25, -71230.055, 0.015587493, -0.24727418, -258540.78, -258540.78, 0.0, 9.993444, 10.001327 
2.0946504e+3, 3.1556314e+2, -805930.6, 116982.94, -4628.202, -0.0030206677, -0.10121767, 117006.15, 117006.15, 0.0, 9.992291, 10.0045185 
2.105439e+3, 1.2562624e+2, -1037968.44, -1715253.4, 11492.182, -0.07686318, -0.12705515, -1037773.5, 671077.0, 0.32111174, 10.008894, 9.995712 
2.1053973e+3, 1.3562238e+2, -894827.8, -1601289.8, 18748.2, -0.09726829, -0.118414246, -894330.6, 716557.44, 0.23356684, 10.008333, 9.996112 
2.1053565e+3, 1.4561853e+2, -781037.6, -1472817.5, 14223.006, -0.045931317, -0.13756971, -780745.4, 732180.0, 0.14385912, 10.007473, 9.996758 
2.1053152e+3, 1.5561521e+2, -763632.9, -1448337.9, 12661.13, -0.03113124, -0.13650219, -763398.8, 651558.5, 0.070064455, 10.006436, 9.996709 
2.1052738e+3, 1.6561212e+2, -710803.6, -1309241.0, 3489.621, -0.029881163, -0.1421812, -710783.3, 606203.6, 0.024372552, 10.005549, 9.99742 
2.1052317e+3, 1.7560932e+2, -716147.3, -1272660.5, 5223.6064, -0.04217984, -0.15654312, -716098.25, 502915.3, 0.0047950465, 10.004778, 9.997369 
2.10519e+3, 1.8560681e+2, -696234.94, -1161048.4, -252.89207, -0.04305351, -0.1561083, -696234.8, 424803.1, 0.00021454871, 10.004001, 9.997836 
2.105148e+3, 1.9560467e+2, -715289.56, -1124520.9, 625.95856, -0.034584567, -0.14790466, -715288.56, 307770.63, 0.0, 10.003218, 9.997792 
2.1051063e+3, 2.0560263e+2, -716129.75, -1000950.06, -2640.3389, -0.028907042, -0.15251759, -716105.3, 208973.89, 0.0, 10.002223, 9.998446 
2.105064e+3, 2.156008e+2, -787594.7, -987015.44, -2158.9832, -0.025943367, -0.17331037, -787571.3, 39525.777, 0.0, 10.001069, 9.998426 
2.1050218e+3, 2.2559959e+2, -748458.75, -811358.94, -16616.154, -0.022440009, -0.17425011, -744339.1, -15230.574, 0.0, 10.000209, 9.999373 
2.1049795e+3, 2.35599e+2, -746953.44, -766578.56, -22304.178, -0.017645285, -0.16312242, -732398.75, -101285.06, 0.0, 9.999576, 9.999313 
2.1049373e+3, 2.4559852e+2, -769625.75, -688305.6, -5126.3125, -0.014901706, -0.14735636, -687983.75, -154864.34, 0.0, 9.998581, 9.999656 
2.1048953e+3, 2.5559828e+2, -857202.5, -679325.7, 4562.0664, -0.0139362905, -0.13204217, -679208.75, -244084.39, 0.0, 9.997305, 9.99966 
2.1048531e+3, 2.6559848e+2, -786943.4, -445898.28, -15703.462, -0.006105793, -0.1340653, -445176.75, -108054.41, 0.0, 9.996475, 10.000989 
2.1048108e+3, 2.7559918e+2, -765154.8, -392488.78, -27700.91, 0.009414935, -0.15639354, -390440.97, -151327.22, 0.0, 9.995985, 10.000919 
2.104769e+3, 2.8560042e+2, -768399.4, -304121.78, 10906.838, 0.01607275, -0.12875906, -303865.72, -162764.56, 0.0, 9.995123, 10.001268 
2.1047275e+3, 2.9560232e+2, -837469.1, -287058.44, 18749.33, 0.0121081695, -0.060211197, -286420.5, -243337.02, 0.0, 9.993978, 10.001265 
2.1046858e+3, 3.0560145e+2, -921670.94, -321717.4, -28025.994, 0.06240675, -0.2566358, -320411.06, -320411.06, 0.0, 9.993149, 10.001092 
2.1046425e+3, 3.1560442e+2, -775921.75, 157961.63, 55494.563, -0.012993444, -0.05712019, 161247.75, 161247.75, 0.0, 9.992389, 10.00475 
2.1154478e+3, 1.2566829e+2, -1051161.9, -1720464.3, 4151.4355, -0.08404214, -0.12162231, -1051136.1, 657301.25, 0.33309898, 10.008896, 9.995676 
2.1154058e+3, 1.3566397e+2, -913818.75, -1625244.1, 3539.797, -0.072581664, -0.14146, -913801.2, 696678.5, 0.24287137, 10.008323, 9.995934 
2.1153641e+3, 1.4566016e+2, -787944.2, -1475345.0, -17494.861, -0.033889845, -0.14756042, -787499.2, 725017.5, 0.15010856, 10.007463, 9.996748 
2.1153213e+3, 1.5565692e+2, -764889.7, -1447629.5, -20642.31, -0.04879787, -0.1372406, -764266.1, 650281.7, 0.073493995, 10.00644, 9.996715 
2.1152788e+3, 1.6565388e+2, -707358.7, -1301981.1, -22832.232, -0.04784032, -0.14168818, -706483.3, 610093.8, 0.02580295, 10.005554, 9.997471 
2.1152365e+3, 1.7565107e+2, -712037.75, -1264965.6, -21349.78, -0.036815993, -0.16175334, -711214.6, 507389.22, 0.0051883967, 10.004781, 9.997422 
2.1151939e+3, 1.8564859e+2, -692602.94, -1154169.1, -27838.984, -0.029612478, -0.16437343, -690929.94, 429697.88, 0.00025320775, 10.004, 9.997887 
2.1151514e+3, 1.9564648e+2, -712028.6, -1117437.3, -27085.434, -0.025684008, -0.15634353, -710227.06, 312421.38, 0.00000000000010610821, 10.003213, 9.997846 
2.1151082e+3, 2.0564456e+2, -712334.06, -993778.5, -44070.27, -0.030410232, -0.15500146, -705594.7, 219072.6, 0.0, 10.002223, 9.998498 
2.115065e+3, 2.156429e+2, -785102.2, -982042.25, -41921.535, -0.04182749, -0.16454718, -776549.94, 50133.84, 0.0, 10.001067, 9.998463 
2.1150218e+3, 2.2564158e+2, -759505.9, -835506.6, -38729.414, -0.03848032, -0.16969523, -743247.7, -14551.012, 0.0, 10.000211, 9.999208 
2.114979e+3, 2.3564066e+2, -754855.0, -785526.6, -46129.137, -0.02387501, -0.17529418, -721579.25, -90873.85, 0.0, 9.999583, 9.999181 
2.1149358e+3, 2.4564026e+2, -747649.8, -644426.56, -53423.84, -0.016434828, -0.1628851, -621755.9, -89045.97, 0.0, 9.998586, 9.999956 
2.1148926e+3, 2.5564036e+2, -839802.7, -643840.06, -41836.426, -0.014336948, -0.13982844, -635282.06, -200572.2, 0.0, 9.997305, 9.999905 
2.1148495e+3, 2.6564047e+2, -813965.2, -503356.06, -34024.38, 0.0048948242, -0.1420709, -499672.7, -162963.89, 0.0, 9.996478, 10.000594 
2.1148069e+3, 2.756407e+2, -783681.25, -436872.38, -48046.844, 0.034806427, -0.17425771, -430339.03, -191632.95, 0.0, 9.996007, 10.000606 
2.1147639e+3, 2.856417e+2, -737784.0, -245368.23, -34416.707, -0.0060569337, -0.17851229, -242974.38, -102278.516, 0.0, 9.99514, 10.001665 
2.1147205e+3, 2.9564363e+2, -821409.75, -256051.19, -22768.389, -0.091637164, -0.14510082, -255135.73, -212458.69, 0.0, 9.993984, 10.001476 
2.1146797e+3, 3.0564487e+2, -936273.6, -352457.94, -53288.137, 0.13550709, -0.12184165, -347633.9, -347633.9, 0.0, 9.993149, 10.000882 
2.114635e+3, 3.1564552e+2, -805416.8, 93888.57, -12914.975, -0.001017578, -0.14708285, 94074.01, 94074.01, 0.0, 9.992399, 10.004307 
2.1254568e+3, 1.257108e+2, -1004107.44, -1673920.6, 17859.102, -0.08410718, -0.13991618, -1003631.56, 704388.3, 0.34521195, 10.009423, 9.995861 
2.125414e+3, 1.3570665e+2, -937624.3, -1629815.6, 22438.36, -0.05661482, -0.14782722, -936897.7, 673162.75, 0.25228894, 10.008162, 9.99598 
2.1253714e+3, 1.4570284e+2, -819862.9, -1487422.8, 14797.723, -0.031425267, -0.15440847, -819535.0, 692562.2, 0.15643886, 10.007246, 9.996754 
2.1253279e+3, 1.5569949e+2, -745207.25, -1435467.0, 15490.387, -0.050817966, -0.15670119, -744859.8, 669269.44, 0.07696854, 10.006606, 9.996716 
2.1252844e+3, 1.656964e+2, -679461.94, -1297766.8, 9377.527, -0.049827762, -0.15913, -679319.75, 636839.44, 0.027252821, 10.005806, 9.997377 
2.1252412e+3, 1.7569362e+2, -702654.56, -1268358.1, -436.75864, -0.03608966, -0.16638824, -702654.25, 515532.25, 0.0055882665, 10.004885, 9.997347 
2.1251978e+3, 1.8569124e+2, -693596.44, -1132414.9, -7852.026, -0.026817227, -0.16626617, -693456.0, 426753.53, 0.0002942177, 10.003901, 9.998082 
2.1251543e+3, 1.9568926e+2, -748712.56, -1114362.5, 1944.2316, -0.021320377, -0.16476686, -748702.25, 273526.1, 0.0000000000129771185, 10.002873, 9.998029 
2.1251103e+3, 2.056874e+2, -739025.4, -1005044.75, -12252.225, -0.026721599, -0.16466819, -738462.25, 185784.11, 0.0, 10.002036, 9.998508 
2.1250659e+3, 2.1568578e+2, -744705.44, -961188.8, -13778.536, -0.040608086, -0.16887332, -743832.0, 82430.53, 0.0, 10.001342, 9.998471 
2.125022e+3, 2.2568448e+2, -735655.06, -827169.06, -4440.646, -0.037453536, -0.17089114, -735440.1, -7164.5635, 0.0, 10.000391, 9.999176 
2.1249783e+3, 2.356835e+2, -805869.44, -813084.44, -2929.3787, -0.021015067, -0.17820136, -804829.9, -174544.66, 0.0, 9.999248, 9.999151 
2.124934e+3, 2.4568309e+2, -776147.25, -651023.25, -19433.68, -0.016043397, -0.16774751, -648074.4, -115784.72, 0.0, 9.998362, 10.000017 
2.12489e+3, 2.5568327e+2, -785031.7, -610867.7, -25639.73, -0.017990066, -0.14320487, -607171.56, -172883.2, 0.0, 9.997656, 9.999961 
2.1248461e+3, 2.6568332e+2, -781657.5, -498664.47, -3210.9768, 0.004135211, -0.14913364, -498628.03, -162340.3, 0.0, 9.996749, 10.000494 
2.1248028e+3, 2.7568328e+2, -836317.9, -471642.1, 3077.4438, 0.039884284, -0.19486848, -471616.13, -233328.56, 0.0, 9.99569, 10.000517 
2.1247585e+3, 2.8568426e+2, -803084.0, -268301.78, -587.5157, -0.012069592, -0.20120835, -268301.13, -128023.35, 0.0, 9.994658, 10.001738 
2.1247138e+3, 2.9568648e+2, -863623.8, -267895.9, -10577.1875, -0.113699354, -0.14152585, -267708.2, -225452.3, 0.0, 9.993663, 10.001548 
2.1246728e+3, 3.056879e+2, -893509.5, -284118.9, 8475.883, 0.1480656, -0.12940176, -284001.06, -284001.06, 0.0, 9.9932375, 10.0013075 
2.1246272e+3, 3.1568772e+2, -782268.1, 37302.23, 14794.786, -0.02187186, -0.2748199, 37569.215, 37569.215, 0.0, 9.99285, 10.003699 
2.135466e+3, 1.2575375e+2, -1001046.56, -1643150.1, -8117.423, -0.08091839, -0.17740294, -1000943.94, 706654.06, 0.35744706, 10.009436, 9.996189 
2.1354221e+3, 1.3575026e+2, -935510.5, -1603647.6, -9639.736, -0.05152568, -0.13889252, -935371.44, 674260.44, 0.26177216, 10.008166, 9.99617 
2.1353784e+3, 1.4574641e+2, -822668.94, -1483858.5, -4093.8623, -0.039656952, -0.15966667, -822643.56, 689025.0, 0.16279495, 10.007248, 9.996784 
2.1353345e+3, 1.5574278e+2, -745873.94, -1434052.6, -5321.8, -0.040922794, -0.19359683, -745832.75, 667870.0, 0.08045162, 10.006615, 9.996722 
2.1352904e+3, 1.657396e+2, -696457.44, -1333585.8, -22017.51, -0.039858904, -0.1921146, -695697.44, 620036.75, 0.028706856, 10.00581, 9.997128 
2.1352458e+3, 1.7573687e+2, -717522.1, -1298934.3, -32090.604, -0.0417116, -0.16876502, -715756.25, 502006.0, 0.005990293, 10.004881, 9.997141 
2.1352014e+3, 1.8573463e+2, -671712.2, -1087206.4, -44016.29, -0.035357565, -0.16190541, -667100.44, 452683.63, 0.00033696948, 10.003899, 9.998395 
2.135157e+3, 1.9573283e+2, -728192.75, -1072559.9, -33349.266, -0.021993438, -0.17280063, -724992.9, 296807.28, 0.0000000000136278775, 10.002874, 9.998317 
2.1351123e+3, 2.0573103e+2, -740861.75, -1010292.25, -36460.297, -0.018959345, -0.18017785, -736015.0, 187802.55, 0.0, 10.002038, 9.998474 
2.1350674e+3, 2.1572936e+2, -746000.1, -965024.3, -38466.484, -0.024141252, -0.1866742, -739440.8, 86393.625, 0.0, 10.001344, 9.998446 
2.1350224e+3, 2.2572817e+2, -729369.5, -815431.2, -45926.125, -0.020673947, -0.17985585, -709464.94, 18381.62, 0.0, 10.000394, 9.999257 
2.1349776e+3, 2.3572743e+2, -801847.94, -805278.1, -43274.695, -0.010727356, -0.17117654, -760254.4, -130400.125, 0.0, 9.999247, 9.9992075 
2.1349324e+3, 2.4572696e+2, -789191.7, -679569.9, -45569.605, -0.014905752, -0.15900594, -663100.9, -131241.38, 0.0, 9.998365, 9.999822 
2.1348874e+3, 2.5572687e+2, -793664.25, -633235.94, -52943.875, -0.027931802, -0.14189678, -617338.9, -183477.9, 0.0, 9.997671, 9.999802 
2.1348426e+3, 2.6572686e+2, -765132.4, -467729.1, -44751.16, -0.011544108, -0.1570887, -461141.16, -125280.67, 0.0, 9.99676, 10.000703 
2.1347982e+3, 2.7572685e+2, -825016.0, -449841.16, -37828.414, 0.021529136, -0.2202312, -446064.97, -208205.78, 0.0, 9.995694, 10.000667 
2.1347532e+3, 2.8572807e+2, -825684.06, -315607.88, -39565.473, 0.0008099683, -0.19443339, -312557.13, -172709.47, 0.0, 9.994657, 10.001415 
2.134708e+3, 2.9573092e+2, -869377.94, -282563.44, -44633.527, -0.047073502, -0.041691944, -279187.97, -237367.2, 0.0, 9.99367, 10.001445 
2.1346653e+3, 3.0573022e+2, -804734.44, -103156.37, 4586.6655, 0.08110697, -0.30276048, -103126.38, -103126.38, 0.0, 9.993249, 10.002545 
2.1346198e+3, 3.1573373e+2, -844815.06, -97061.98, -84783.734, -0.02603797, -0.18441655, -87569.305, -87569.305, 0.0, 9.9928665, 10.002769 
2.1454756e+3, 1.2579846e+2, -973086.94, -1640815.9, 31652.398, -0.09377682, -0.20805915, -971589.9, 735567.75, 0.3697052, 10.010001, 9.995951 
2.1454306e+3, 1.3579501e+2, -926315.6, -1619269.4, 13444.963, -0.041091852, -0.13737647, -926054.9, 683137.25, 0.2712208, 10.00846, 9.995908 
2.1453854e+3, 1.4579087e+2, -805530.06, -1477864.1, 31489.783, -0.043641917, -0.17130114, -804058.4, 707173.44, 0.16909784, 10.007462, 9.996729 
2.145341e+3, 1.5578711e+2, -719308.7, -1423549.9, 25312.945, -0.04364041, -0.21294793, -718400.06, 694867.06, 0.08389748, 10.006857, 9.996676 
2.1452959e+3, 1.6578393e+2, -680265.2, -1318873.5, 4514.605, -0.03974247, -0.21176957, -680233.3, 635065.1, 0.03014682, 10.005908, 9.997179 
2.1452507e+3, 1.7578126e+2, -738593.4, -1304152.4, 15172.775, -0.04106395, -0.18658623, -738186.6, 479139.34, 0.006389942, 10.004719, 9.997181 
2.1452053e+3, 1.8577904e+2, -690431.94, -1100368.1, 4696.2124, -0.038403638, -0.17584135, -690378.1, 428969.63, 0.0003809278, 10.003792, 9.998354 
2.1451598e+3, 1.9577727e+2, -703355.7, -1062956.5, -10659.453, -0.03053055, -0.17928514, -703040.0, 318324.13, 0.000000000027357056, 10.003059, 9.998291 
2.1451142e+3, 2.057755e+2, -715603.3, -980674.4, -16911.467, -0.022381641, -0.18916102, -714528.7, 208852.25, 0.0, 10.00214, 9.998626 
2.1450686e+3, 2.1577385e+2, -774473.75, -963393.25, -6743.8813, -0.014878925, -0.20766245, -774233.3, 51163.824, 0.0, 10.001084, 9.998581 
2.1450227e+3, 2.2577277e+2, -753657.4, -827421.1, -13683.748, -0.012033842, -0.19547689, -751200.75, -23792.521, 0.0, 10.00023, 9.999252 
2.1449769e+3, 2.3577222e+2, -762224.06, -786297.7, -17417.586, -0.0116671175, -0.16641824, -753088.8, -123674.26, 0.0, 9.999523, 9.999203 
2.144931e+3, 2.4577168e+2, -758655.2, -672215.75, -13567.453, -0.014992913, -0.1555153, -670136.25, -138715.69, 0.0, 9.99861, 9.999753 
2.144885e+3, 2.557713e+2, -814442.4, -648111.4, -12021.672, -0.020900914, -0.15831533, -647247.0, -213822.33, 0.0, 9.997552, 9.999755 
2.1448392e+3, 2.6577133e+2, -775264.3, -455235.75, -5339.693, -0.0193576, -0.17827466, -455146.66, -119722.77, 0.0, 9.996619, 10.000855 
2.1447934e+3, 2.757716e+2, -808958.7, -428220.97, -3619.3647, -0.010112531, -0.2302766, -428186.56, -190766.83, 0.0, 9.995748, 10.000789 
2.144748e+3, 2.8577292e+2, -818311.4, -327412.56, 1497.0537, 0.008318337, -0.18638887, -327408.0, -188001.06, 0.0, 9.994777, 10.001275 
2.1447024e+3, 2.957757e+2, -857143.1, -280939.7, 12426.869, 0.028334009, -0.024048164, -280671.8, -239290.58, 0.0, 9.993775, 10.001404 
2.1446575e+3, 3.0577448e+2, -825972.2, -67773.92, 42117.94, -0.0012777873, -0.36532584, -65441.445, -65441.445, 0.0, 9.99291, 10.00295 
2.1446128e+3, 3.1578076e+2, -948622.1, -138850.0, -125338.44, 0.0142082395, -0.003119482, -119893.58, -119893.58, 0.0, 9.992129, 10.002833 
2.1554853e+3, 1.2584469e+2, -1026279.6, -1714793.4, -7499.9277, -0.11752833, -0.23385037, -1026197.94, 680503.6, 0.3818227, 10.009915, 9.995224 
2.155439e+3, 1.3584076e+2, -964097.25, -1711019.6, -25383.785, -0.030980015, -0.14182013, -963235.56, 645506.9, 0.2804927, 10.008491, 9.995266 
2.1553928e+3, 1.4583613e+2, -814092.56, -1494311.8, 15153.644, -0.04923901, -0.18732685, -813755.2, 697032.6, 0.17524345, 10.007504, 9.996575 
2.1553476e+3, 1.5583234e+2, -729180.44, -1439930.3, 5753.7295, -0.05854161, -0.21567918, -729133.8, 683689.44, 0.087246306, 10.006852, 9.996568 
2.1553017e+3, 1.6582923e+2, -662498.8, -1277416.4, -36674.21, -0.048896283, -0.21958101, -660319.25, 654533.94, 0.03154874, 10.005894, 9.99748 
2.1552554e+3, 1.7582661e+2, -720601.1, -1267655.8, -25684.895, -0.035341956, -0.2185191, -719397.8, 497481.13, 0.006781683, 10.004723, 9.997432 
2.155209e+3, 1.8582432e+2, -716060.6, -1156161.0, -20542.596, -0.037889645, -0.20611237, -715103.8, 403798.16, 0.00042557897, 10.0037985, 9.99797 
2.1551625e+3, 1.9582242e+2, -725581.25, -1110471.6, -36178.76, -0.048123218, -0.18465753, -722210.06, 298711.28, 0.00000000007381513, 10.003061, 9.997966 
2.1551162e+3, 2.0582068e+2, -693124.3, -935307.8, -54479.082, -0.03759644, -0.19316542, -681433.6, 241504.27, 0.0, 10.002143, 9.998939 
2.1550696e+3, 2.1581915e+2, -755018.7, -923350.25, -42875.914, -0.013834911, -0.23039646, -744727.0, 80224.586, 0.0, 10.001081, 9.998859 
2.1550229e+3, 2.2581817e+2, -760788.6, -843055.0, -38282.09, -0.012369592, -0.21519321, -745730.56, -18769.021, 0.0, 10.000231, 9.999147 
2.1549761e+3, 2.3581773e+2, -767166.75, -798885.4, -43805.063, -0.025589313, -0.16473603, -736438.5, -107471.04, 0.0, 9.999529, 9.999116 
2.1549295e+3, 2.4581712e+2, -753538.1, -664022.9, -53899.8, -0.017576091, -0.16021207, -638720.3, -107746.055, 0.0, 9.998616, 9.999807 
2.1548826e+3, 2.5581652e+2, -809362.06, -639681.25, -51068.008, 0.0014466081, -0.19344854, -625497.25, -192516.72, 0.0, 9.997558, 9.999812 
2.1548358e+3, 2.6581663e+2, -767573.0, -441729.22, -38384.844, -0.019668475, -0.21286388, -437268.5, -102289.64, 0.0, 9.996626, 10.000947 
2.1547885e+3, 2.7581733e+2, -800720.5, -414931.56, -38005.402, -0.05823051, -0.22656119, -411223.16, -174252.92, 0.0, 9.99576, 10.000875 
2.1547426e+3, 2.858188e+2, -814129.44, -321139.7, -37737.75, 0.006938717, -0.17675522, -318267.63, -179311.2, 0.0, 9.994784, 10.001316 
2.154697e+3, 2.9582092e+2, -855459.5, -281253.66, -22563.988, 0.108796075, -0.08731699, -280368.34, -239430.75, 0.0, 9.993789, 10.001397 
2.1546493e+3, 3.058204e+2, -868155.75, -157125.36, 6146.3267, -0.097387776, -0.31977645, -157072.23, -157072.23, 0.0, 9.992913, 10.002337 
2.1546048e+3, 3.1582522e+2, -834161.94, 92517.64, -86151.31, 0.016569743, -0.054514285, 100458.875, 100458.875, 0.0, 9.992145, 10.004421 
2.1654944e+3, 1.2589131e+2, -1144133.4, -1791493.5, -14240.3125, -0.124275096, -0.22196902, -1143820.3, 562423.75, 0.39357886, 10.008697, 9.995282 
2.165448e+3, 1.3588709e+2, -861500.56, -1620662.3, 8153.499, -0.0267503, -0.17498286, -861413.0, 746873.6, 0.28940588, 10.009495, 9.995399 
2.1654008e+3, 1.4588235e+2, -688775.2, -1443842.0, 41670.242, -0.060051948, -0.22928767, -686482.5, 823850.7, 0.18110435, 10.008667, 9.996437 
2.1653542e+3, 1.5587886e+2, -763656.0, -1470765.9, 35888.8, -0.06692875, -0.21281737, -761839.2, 650527.6, 0.09042799, 10.006672, 9.996442 
2.1653074e+3, 1.658758e+2, -712993.7, -1293486.4, 3013.8274, -0.053005062, -0.20725974, -712978.06, 601418.1, 0.032885216, 10.00551, 9.99755 
2.16526e+3, 1.7587307e+2, -683234.9, -1241943.9, -1614.4779, -0.03530783, -0.22444144, -683230.25, 533192.25, 0.0071590445, 10.004955, 9.997494 
2.165213e+3, 1.8587066e+2, -677349.75, -1143437.5, 8211.4795, -0.03366098, -0.22304374, -677205.1, 441241.4, 0.00047025163, 10.004095, 9.997912 
2.1651655e+3, 1.9586864e+2, -735730.3, -1121594.0, 14233.799, -0.03985135, -0.2062518, -735206.0, 285261.28, 0.00000000020128568, 10.003021, 9.997908 
2.1651182e+3, 2.0586695e+2, -698165.44, -938954.1, -8555.455, -0.036239784, -0.20662081, -697861.8, 224621.86, 0.0, 10.002116, 9.998924 
2.1650706e+3, 2.1586557e+2, -718647.1, -904915.3, -21469.053, -0.026677763, -0.22705881, -716204.7, 108291.51, 0.0, 10.001332, 9.998863 
2.165023e+3, 2.2586456e+2, -737581.6, -825204.0, -18517.828, -0.023019528, -0.2167451, -733828.8, -7322.6, 0.0, 10.000365, 9.999203 
2.1649754e+3, 2.3586397e+2, -801317.7, -808952.1, -12065.114, -0.021271076, -0.18619998, -792480.3, -163967.14, 0.0, 9.99927, 9.999169 
2.1649277e+3, 2.458634e+2, -788534.06, -674590.56, -17520.117, -0.009691709, -0.18374361, -671957.5, -141437.86, 0.0, 9.998351, 9.999862 
2.1648802e+3, 2.5586292e+2, -807413.56, -632142.44, -15055.616, 0.0039938083, -0.20849915, -630858.56, -198333.88, 0.0, 9.997545, 9.999868 
2.164832e+3, 2.658631e+2, -768309.25, -446996.9, -7531.323, -0.022632338, -0.21832235, -446820.47, -112298.05, 0.0, 9.996645, 10.0009 
2.1647842e+3, 2.7586392e+2, -813247.2, -425055.16, -18012.139, -0.06105716, -0.21515442, -424221.16, -187708.06, 0.0, 9.995694, 10.000836 
2.1647373e+3, 2.8586522e+2, -793275.25, -308498.2, -21172.922, 0.0063453065, -0.1824838, -307575.2, -169074.17, 0.0, 9.994919, 10.001336 
2.1646906e+3, 2.9586673e+2, -807025.1, -263046.88, -11385.684, 0.09667005, -0.1551744, -262808.7, -222320.9, 0.0, 9.994146, 10.0013485 
2.1646419e+3, 3.058673e+2, -896349.6, -199989.3, 21109.846, -0.12531352, -0.25647798, -199349.95, -199349.95, 0.0, 9.992852, 10.002069 
2.1645969e+3, 3.1586993e+2, -865718.44, 128956.055, 18802.498, 0.054195527, -0.19679247, 129311.35, 129311.35, 0.0, 9.991711, 10.004879 
2.175503e+3, 1.2593831e+2, -1119216.5, -1694739.8, 1817.6907, -0.12165584, -0.18117185, -1119210.8, 586574.06, 0.4047122, 10.008774, 9.995957 
2.1754573e+3, 1.3593394e+2, -836932.56, -1540516.1, 24523.059, -0.029024092, -0.23324732, -836078.8, 771746.56, 0.2977692, 10.009449, 9.996166 
2.1754092e+3, 1.4592941e+2, -709857.4, -1465613.0, -18712.313, -0.076391555, -0.29317367, -709394.3, 800475.06, 0.18656313, 10.008604, 9.996288 
2.1753606e+3, 1.5592648e+2, -775145.94, -1493257.8, -26079.336, -0.071680635, -0.20457482, -774200.06, 637699.44, 0.0933859, 10.006673, 9.996288 
2.1753128e+3, 1.6592349e+2, -720883.2, -1313533.5, -14511.011, -0.055191718, -0.17661238, -720528.1, 593400.8, 0.034136217, 10.00553, 9.9974 
2.175265e+3, 1.7592049e+2, -690039.0, -1258430.0, -21090.67, -0.041762643, -0.20702581, -689257.5, 526700.44, 0.0075172395, 10.004962, 9.997379 
2.1752168e+3, 1.8591793e+2, -661043.75, -1110549.3, -29677.799, -0.026900962, -0.22870234, -659092.75, 458889.97, 0.0005142278, 10.004096, 9.998139 
2.1751687e+3, 1.9591582e+2, -723775.8, -1097190.3, -22638.709, -0.00792582, -0.24201234, -722408.3, 297594.72, 0.0000000009394869, 10.00302, 9.998077 
2.1751204e+3, 2.0591415e+2, -721422.25, -988408.4, -35807.08, -0.020035803, -0.2271312, -716703.3, 205316.2, 0.0, 10.002117, 9.998586 
2.1750715e+3, 2.1591294e+2, -738637.7, -947350.5, -49382.453, -0.055514004, -0.19890346, -727543.3, 96489.0, 0.0, 10.001332, 9.998573 
2.175023e+3, 2.259118e+2, -722144.6, -794575.7, -58062.09, -0.04522223, -0.20232324, -689929.4, 36114.32, 0.0, 10.000368, 9.9994135 
2.1749748e+3, 2.3591082e+2, -787700.9, -781600.06, -50941.305, -0.00011318721, -0.2303835, -733617.9, -105565.03, 0.0, 9.99927, 9.999359 
2.1749263e+3, 2.4591038e+2, -785310.44, -669168.6, -47644.71, 0.007964315, -0.2248814, -652124.6, -122067.016, 0.0, 9.998354, 9.9999 
2.1748772e+3, 2.559104e+2, -804168.7, -628114.06, -46294.832, -0.01686877, -0.20212874, -616682.75, -184624.56, 0.0, 9.997554, 9.999894 
2.1748286e+3, 2.6591069e+2, -781530.75, -476797.94, -44655.465, -0.029594596, -0.19346425, -470388.94, -136333.27, 0.0, 9.996652, 10.000694 
2.1747802e+3, 2.7591124e+2, -823869.9, -450450.38, -51728.51, -0.016827364, -0.19521244, -443417.06, -207367.58, 0.0, 9.995705, 10.000658 
2.1747322e+3, 2.8591198e+2, -790956.44, -308829.97, -51428.14, 0.003063403, -0.2073253, -303405.2, -165362.86, 0.0, 9.994936, 10.001328 
2.1746837e+3, 2.9591295e+2, -810461.25, -277035.13, -49933.27, -0.026259193, -0.23513193, -272401.2, -232367.55, 0.0, 9.994171, 10.001243 
2.1746351e+3, 3.0591527e+2, -893548.06, -194750.9, -35690.61, -0.06520199, -0.15966944, -192932.77, -192932.77, 0.0, 9.992852, 10.002107 
2.174589e+3, 3.1591704e+2, -940422.5, -27671.799, 4205.0283, 0.09059473, -0.18979947, -27652.428, -27652.428, 0.0, 9.991711, 10.003805 
2.185513e+3, 1.2598644e+2, -981585.0, -1630939.9, 42820.164, -0.08354485, -0.19100949, -978773.5, 726539.2, 0.4149929, 10.010563, 9.995844 
2.1854658e+3, 1.3598211e+2, -942608.56, -1583787.5, 41428.43, -0.054546453, -0.23833863, -939942.8, 667410.2, 0.30544338, 10.008462, 9.996219 
2.1854168e+3, 1.4597782e+2, -847684.8, -1513375.4, -15347.067, -0.11274066, -0.28841397, -847331.1, 662063.56, 0.1915522, 10.007385, 9.996476 
2.1853675e+3, 1.5597506e+2, -722954.5, -1447399.0, -2406.3992, -0.067531414, -0.20138511, -722946.56, 688476.44, 0.09609409, 10.007015, 9.996436 
2.1853186e+3, 1.6597198e+2, -635101.1, -1283598.3, 30254.4, -0.04125432, -0.1818875, -633692.75, 679760.5, 0.035293456, 10.006203, 9.997287 
2.1852697e+3, 1.7596874e+2, -679864.7, -1263935.6, 25528.314, -0.040304646, -0.22442861, -678751.06, 536733.56, 0.007854064, 10.005082, 9.997282 
2.1852207e+3, 1.859662e+2, -665625.5, -1107526.3, 4298.94, -0.03313139, -0.23997186, -665583.7, 451925.44, 0.0005569392, 10.0040455, 9.998183 
2.1851717e+3, 1.9596429e+2, -713688.3, -1087099.5, -1310.5359, -0.017599288, -0.23631792, -713683.7, 305843.6, 0.00000000393543, 10.003071, 9.99812 
2.1851224e+3, 2.0596258e+2, -724415.7, -994593.75, -734.31494, -0.022301707, -0.22596477, -724413.7, 197130.72, 0.0, 10.002122, 9.99854 
2.1850727e+3, 2.1596111e+2, -761774.56, -962672.8, 5237.501, -0.043284576, -0.21515937, -761638.1, 61921.363, 0.0, 10.001195, 9.998533 
2.1850231e+3, 2.2595996e+2, -731819.1, -792755.3, -6304.0894, -0.036904354, -0.21863747, -731173.8, -5602.996, 0.0, 10.000277, 9.999469 
2.1849738e+3, 2.3595914e+2, -771337.4, -767705.8, -10403.256, -0.007204968, -0.23716502, -758961.06, -131382.75, 0.0, 9.99936, 9.99941 
2.1849243e+3, 2.4595869e+2, -763606.9, -661994.75, -6351.4883, -0.00010498018, -0.23188831, -661599.25, -132016.16, 0.0, 9.99852, 9.9998665 
2.1848747e+3, 2.5595865e+2, -781238.06, -621028.3, -12032.781, -0.014663574, -0.21356584, -620129.6, -188544.95, 0.0, 9.997731, 9.999856 
2.1848252e+3, 2.6595894e+2, -767383.1, -476783.2, -13674.279, -0.021887263, -0.19697657, -476141.2, -142558.95, 0.0, 9.996781, 10.00063 
2.1847759e+3, 2.7595952e+2, -826481.6, -458080.88, -8695.723, -0.008826174, -0.18886855, -457875.75, -222299.5, 0.0, 9.995718, 10.000599 
2.1847267e+3, 2.859601e+2, -815822.75, -316166.47, 1735.1604, -0.01013066, -0.2142832, -316160.44, -178589.89, 0.0, 9.99475, 10.001366 
2.184677e+3, 2.95961e+2, -860074.25, -297350.66, -62.722687, -0.06525171, -0.25169915, -297350.66, -257788.5, 0.0, 9.993819, 10.00127 
2.1846284e+3, 3.0596355e+2, -898962.7, -217248.34, 7314.401, -0.007923525, -0.1436339, -217169.88, -217169.88, 0.0, 9.992902, 10.001928 
2.1845798e+3, 3.1596446e+2, -919199.8, -29678.738, 18368.574, 0.016115213, -0.24330205, -29299.59, -29299.59, 0.0, 9.99191, 10.0036955 
2.195524e+3, 1.2603547e+2, -1029598.06, -1699042.9, -8985.754, -0.025451176, -0.24990892, -1029477.44, 675353.0, 0.4243623, 10.010495, 9.995077 
2.1954736e+3, 1.3603148e+2, -975441.56, -1651986.6, -5227.1333, -0.103273176, -0.19781336, -975401.2, 631469.8, 0.31242192, 10.008456, 9.995685 
2.1954234e+3, 1.4602742e+2, -823962.0, -1459387.8, -22635.291, -0.16842955, -0.22476168, -823156.7, 685753.75, 0.19608682, 10.0074005, 9.996923 
2.1953745e+3, 1.5602443e+2, -699224.25, -1392238.9, -13880.273, -0.057693385, -0.20366025, -698946.4, 711992.25, 0.09856426, 10.007019, 9.996828 
2.1953249e+3, 1.6602114e+2, -642813.25, -1297816.6, -8085.9346, -0.015046084, -0.21974325, -642713.44, 670256.8, 0.03636027, 10.006198, 9.99719 
2.1952748e+3, 1.7601769e+2, -687710.4, -1279478.3, -13031.974, -0.032679945, -0.27240545, -687423.5, 527580.2, 0.008169801, 10.005077, 9.99718 
2.1952243e+3, 1.8601535e+2, -674800.94, -1127504.4, -29591.645, -0.05261836, -0.2547594, -672874.8, 444152.0, 0.0005982234, 10.004046, 9.998047 
2.1951741e+3, 1.9601391e+2, -719404.0, -1100555.8, -34824.58, -0.06864874, -0.191554, -716248.3, 302793.22, 0.000000012004619, 10.003075, 9.998028 
2.195124e+3, 2.0601204e+2, -707885.0, -962358.75, -33528.504, -0.042617615, -0.20551121, -703541.5, 217518.13, 0.0, 10.002127, 9.99876 
2.1950743e+3, 2.1601e+2, -748800.4, -936466.5, -26946.516, 0.0086000385, -0.27401912, -745007.8, 78070.95, 0.0, 10.001195, 9.998715 
2.1950237e+3, 2.26009e+2, -739159.94, -809449.56, -38957.375, 0.00040470783, -0.2635544, -721837.3, 3251.172, 0.0, 10.000279, 9.999354 
2.1949726e+3, 2.3600884e+2, -778635.75, -784459.3, -43121.195, -0.045893103, -0.2053859, -738328.2, -111237.54, 0.0, 9.999364, 9.999295 
2.1949224e+3, 2.4600822e+2, -770720.3, -679232.7, -36422.32, -0.03574386, -0.20475572, -666503.56, -137406.3, 0.0, 9.998528, 9.999747 
2.1948728e+3, 2.5600746e+2, -787423.6, -637137.94, -43212.75, 0.009594272, -0.24380003, -625598.7, -194493.38, 0.0, 9.997742, 9.9997425 
2.1948223e+3, 2.6600772e+2, -760194.2, -465007.66, -55025.69, -0.00044326458, -0.2308395, -455083.94, -121980.63, 0.0, 9.996791, 10.000709 
2.1947712e+3, 2.7600864e+2, -820641.6, -448458.4, -48229.754, -0.042037066, -0.19669075, -442310.06, -207215.89, 0.0, 9.995725, 10.000664 
2.1947213e+3, 2.8600952e+2, -812488.2, -310515.03, -34437.72, -0.033556737, -0.2005149, -308163.44, -171077.36, 0.0, 9.994751, 10.001406 
2.1946712e+3, 2.9601082e+2, -848777.75, -276147.5, -36464.46, -0.010978847, -0.19972754, -273834.84, -234761.08, 0.0, 9.993825, 10.001416 
2.1946216e+3, 3.0601197e+2, -918547.6, -263357.06, -25450.285, 0.034377627, -0.22567499, -262369.94, -262369.94, 0.0, 9.992922, 10.001604 
2.1945713e+3, 3.1601283e+2, -827567.44, 157976.34, -80246.78, -0.019358793, -0.28761062, 164467.6, 164467.6, 0.0, 9.991922, 10.004978 
2.2055341e+3, 1.2608626e+2, -1090915.6, -1748477.0, -1541.2042, -0.012352438, -0.24407178, -1090912.0, 613420.44, 0.43299928, 10.009915, 9.994991 
2.2054821e+3, 1.3608226e+2, -933291.3, -1626691.4, 36899.938, -0.126169, -0.18412252, -931333.2, 675040.44, 0.31884402, 10.008973, 9.995617 
2.2054309e+3, 1.460782e+2, -757516.3, -1426641.8, 44879.773, -0.18324664, -0.20679578, -754519.56, 753893.4, 0.20025112, 10.00801, 9.996911 
2.2053814e+3, 1.5607482e+2, -701232.3, -1393620.8, 32114.225, -0.05030968, -0.22119924, -699746.0, 710698.1, 0.100830466, 10.007026, 9.996813 
2.2053309e+3, 1.6607149e+2, -669140.4, -1309486.4, 20633.637, -0.012741832, -0.2403229, -668476.25, 643999.8, 0.037343625, 10.006015, 9.997192 
2.2052795e+3, 1.7606823e+2, -700340.4, -1285436.9, 23031.672, -0.051844478, -0.27227926, -699435.2, 515072.38, 0.008464414, 10.004994, 9.997177 
2.2052282e+3, 1.8606587e+2, -674152.4, -1133529.5, 18761.055, -0.06630994, -0.2527672, -673387.44, 443143.7, 0.0006379505, 10.004082, 9.997987 
2.2051772e+3, 1.9606426e+2, -698034.3, -1095101.9, 17510.283, -0.060319476, -0.20025717, -697263.6, 321284.16, 0.00000003061151, 10.003245, 9.997982 
2.2051263e+3, 2.060624e+2, -683377.1, -943497.5, 10333.562, -0.037204448, -0.2135455, -682967.3, 237598.44, 0.0, 10.002269, 9.998819 
2.2050752e+3, 2.1606049e+2, -745188.75, -929330.4, 4721.916, -0.0027766107, -0.27525982, -745067.75, 77515.586, 0.0, 10.0012, 9.998759 
2.2050239e+3, 2.260594e+2, -738177.5, -822812.9, -5348.6357, -0.006486108, -0.2664502, -737840.9, -13247.029, 0.0, 10.00035, 9.999227 
2.2049722e+3, 2.3605904e+2, -745386.3, -780335.75, -10478.792, -0.03587557, -0.21416862, -742485.3, -115887.125, 0.0, 9.999647, 9.999185 
2.204921e+3, 2.460584e+2, -747648.7, -665785.3, -2387.4143, -0.030598944, -0.20953804, -665715.75, -137110.73, 0.0, 9.99868, 9.9997635 
2.2048701e+3, 2.5605777e+2, -817724.25, -650800.44, 776.1404, -0.0014145883, -0.2401434, -650796.8, -220184.8, 0.0, 9.997534, 9.999747 
2.2048186e+3, 2.6605788e+2, -792004.56, -485803.3, -12044.347, -0.009557426, -0.23418948, -485330.28, -152719.11, 0.0, 9.9966, 10.000656 
2.2047669e+3, 2.760586e+2, -816850.6, -450359.63, -17038.893, -0.039833006, -0.21448946, -449569.16, -214964.98, 0.0, 9.99577, 10.000627 
2.2047158e+3, 2.860596e+2, -809699.44, -302000.63, -5668.3945, -0.023982268, -0.20689568, -301937.34, -165342.61, 0.0, 9.994742, 10.001468 
2.2046651e+3, 2.960612e+2, -859680.3, -265500.44, -4362.707, 0.013397718, -0.18601356, -265468.4, -226888.89, 0.0, 9.993685, 10.001555 
2.2046143e+3, 3.060621e+2, -913701.06, -236312.39, 28229.66, 0.02114915, -0.25373408, -235137.98, -235137.98, 0.0, 9.99285, 10.001823 
2.2045632e+3, 3.1606424e+2, -836267.94, 160926.75, -14504.81, 0.00058729964, -0.19684242, 161137.69, 161137.69, 0.0, 9.991839, 10.005034 
2.2155437e+3, 1.2613857e+2, -1087166.6, -1696037.1, -24282.432, -0.042894535, -0.18839645, -1086199.8, 617621.56, 0.44123346, 10.009864, 9.995414 
2.215491e+3, 1.3613428e+2, -927295.6, -1592719.1, 15072.633, -0.13294812, -0.19343415, -926954.4, 678908.8, 0.324917, 10.008961, 9.995891 
2.215439e+3, 1.4613001e+2, -783201.1, -1474924.4, 16782.934, -0.16954033, -0.22690564, -782794.2, 725110.06, 0.20414993, 10.008016, 9.996497 
2.2153884e+3, 1.5612611e+2, -725854.56, -1445050.1, 1282.8313, -0.04650773, -0.25066835, -725852.3, 684088.75, 0.10293101, 10.007022, 9.996451 
2.2153367e+3, 1.6612291e+2, -664993.25, -1300181.0, -13580.204, -0.03213692, -0.24410917, -664703.0, 647268.8, 0.03825002, 10.006014, 9.997262 
2.215284e+3, 1.761202e+2, -694401.75, -1275411.8, -11586.15, -0.096947454, -0.22831021, -694170.8, 519827.2, 0.008736609, 10.005002, 9.997244 
2.2152321e+3, 1.861176e+2, -672698.2, -1133289.1, -10426.183, -0.07564957, -0.23664837, -672462.25, 443561.4, 0.00067564944, 10.00409, 9.997987 
2.2151808e+3, 1.9611524e+2, -699099.5, -1098077.4, -12236.634, 0.0029501272, -0.2588051, -698724.56, 319322.6, 0.000000067517966, 10.003245, 9.997963 
2.2151287e+3, 2.0611356e+2, -690762.4, -960294.8, -27898.955, -0.008959171, -0.24675116, -687904.9, 232158.77, 0.0, 10.002272, 9.998705 
2.2150756e+3, 2.161124e+2, -752767.1, -946232.44, -31636.383, -0.07905743, -0.21935242, -747725.2, 74349.26, 0.0, 10.001202, 9.998645 
2.2150236e+3, 2.2611102e+2, -747711.2, -844221.6, -30045.297, -0.057350736, -0.22881104, -739122.0, -15033.874, 0.0, 10.000353, 9.999081 
2.2149724e+3, 2.3610963e+2, -752583.06, -797317.06, -37513.13, 0.023115842, -0.2643231, -731274.94, -105172.766, 0.0, 9.999653, 9.999067 
2.2149199e+3, 2.4610916e+2, -736634.0, -644949.7, -46114.324, 0.015132524, -0.2465611, -625768.5, -97661.17, 0.0, 9.998685, 9.999907 
2.2148669e+3, 2.5610942e+2, -809321.25, -635231.0, -41119.938, -0.051716324, -0.2000247, -626007.25, -195901.66, 0.0, 9.997538, 9.999854 
2.2148147e+3, 2.6610938e+2, -805726.4, -515862.25, -43822.844, -0.05183583, -0.20543641, -509381.8, -177275.22, 0.0, 9.996603, 10.00045 
2.2147629e+3, 2.761093e+2, -826068.06, -473131.8, -52061.18, -0.0041042077, -0.24394938, -465612.53, -231505.14, 0.0, 9.995782, 10.000466 
2.214711e+3, 2.8611028e+2, -802490.56, -289169.6, -48165.4, 0.019181337, -0.23608537, -284689.28, -148591.7, 0.0, 9.994748, 10.0015545 
2.2146587e+3, 2.9611194e+2, -848997.3, -243770.44, -38333.18, 0.009732736, -0.21462868, -241352.19, -203271.75, 0.0, 9.993683, 10.001708 
2.2146063e+3, 3.0611402e+2, -854238.94, -115558.73, -5643.41, -0.0651253, -0.21970794, -115515.62, -115515.62, 0.0, 9.992856, 10.002653 
2.2145551e+3, 3.1611645e+2, -978550.56, -144532.81, -10808.182, 0.011938738, -0.20592223, -144392.77, -144392.77, 0.0, 9.991879, 10.002919 
2.2255528e+3, 1.2619165e+2, -1110487.6, -1700547.8, 10345.761, -0.11081493, -0.19911607, -1110306.4, 592993.3, 0.4493756, 10.009663, 9.995454 
2.2255002e+3, 1.3618709e+2, -918443.9, -1592841.9, 41989.73, -0.088385336, -0.22311044, -915839.56, 689504.4, 0.3308143, 10.009158, 9.995793 
2.2254474e+3, 1.4618272e+2, -772041.2, -1489645.3, 34221.3, -0.1124663, -0.24667962, -770412.94, 736973.4, 0.20786051, 10.008264, 9.996248 
2.225395e+3, 1.5617879e+2, -730259.2, -1469731.4, 30375.81, -0.07526039, -0.24933584, -729013.5, 680410.8, 0.10489116, 10.007101, 9.9962435 
2.2253422e+3, 1.6617551e+2, -649458.75, -1287519.0, 25849.635, -0.0658794, -0.24113192, -648413.2, 663042.7, 0.039082672, 10.00611, 9.997305 
2.225289e+3, 1.7617276e+2, -658267.3, -1253476.5, 26652.873, -0.082423806, -0.23377576, -657076.25, 556406.06, 0.008984288, 10.005238, 9.99728 
2.2252363e+3, 1.8617009e+2, -655163.2, -1130209.0, 23972.064, -0.055714924, -0.24670689, -653956.56, 461551.9, 0.00071045256, 10.004238, 9.997935 
2.2251841e+3, 1.9616763e+2, -715464.1, -1111189.5, 17717.256, 0.0013420142, -0.27259386, -714672.5, 302860.3, 0.00000012235222, 10.003159, 9.997913 
2.2251306e+3, 2.0616594e+2, -697695.44, -972275.7, 4164.46, -0.014721354, -0.25421974, -697632.25, 221917.38, 0.0, 10.002265, 9.998624 
2.2250769e+3, 2.1616484e+2, -715515.9, -935425.44, 2006.5349, -0.07892966, -0.21283498, -715497.56, 106062.87, 0.0, 10.0014925, 9.998576 
2.225024e+3, 2.2616337e+2, -725894.25, -833335.06, 11701.07, -0.05649407, -0.22589748, -724634.7, -1059.8306, 0.0, 10.000505, 9.99908 
2.2249717e+3, 2.3616181e+2, -793104.3, -816895.75, 14569.683, 0.023984494, -0.27661428, -786190.94, -160600.72, 0.0, 9.999379, 9.999063 
2.2249185e+3, 2.4616134e+2, -773724.4, -666854.06, 648.7102, 0.014412094, -0.25597104, -666850.1, -139254.53, 0.0, 9.998452, 9.999866 
2.2248645e+3, 2.561617e+2, -795692.6, -629196.9, -7940.4097, -0.05630367, -0.19601607, -628819.06, -199225.69, 0.0, 9.99764, 9.999844 
2.224811e+3, 2.6616162e+2, -786039.56, -492556.9, 1588.6906, -0.05558839, -0.20688106, -492548.3, -160954.2, 0.0, 9.996683, 10.000568 
2.2247586e+3, 2.7616155e+2, -838993.9, -466823.03, 15480.391, -0.00026699237, -0.2570715, -466180.22, -232585.83, 0.0, 9.995645, 10.000574 
2.2247055e+3, 2.861626e+2, -801028.94, -289247.16, 23902.682, 0.02646496, -0.24365154, -288133.22, -152549.64, 0.0, 9.994767, 10.001543 
2.2246523e+3, 2.961642e+2, -816552.8, -235153.56, 25381.51, 0.0099870125, -0.22570914, -234047.61, -196480.47, 0.0, 9.993941, 10.001639 
2.2245987e+3, 3.061663e+2, -840402.3, -88210.67, 13905.553, -0.07751064, -0.23376156, -87953.695, -87953.695, 0.0, 9.992867, 10.002832 
2.2245474e+3, 3.161682e+2, -1026589.7, -216938.1, -8389.289, 0.0525901, -0.29879615, -216851.17, -216851.17, 0.0, 9.99177, 10.00247 
2.235561e+3, 1.2624551e+2, -1130828.8, -1739372.6, -3458.2957, -0.22353292, -0.25089836, -1130809.1, 571959.3, 0.45760453, 10.009643, 9.995187 
2.2355102e+3, 1.362406e+2, -943216.4, -1644869.8, 29820.201, -0.00143152, -0.26754814, -941951.3, 662865.7, 0.3366455, 10.009149, 9.995405 
2.2354566e+3, 1.4623626e+2, -782551.2, -1505224.9, 831.8918, -0.020406377, -0.2646381, -782550.25, 724310.0, 0.21143514, 10.00826, 9.996117 
2.2354014e+3, 1.5623267e+2, -738392.1, -1485563.3, -5554.232, -0.13617681, -0.22096944, -738350.8, 670545.1, 0.10672941, 10.007098, 9.996138 
2.2353476e+3, 1.6622916e+2, -648785.6, -1285861.1, -3274.6367, -0.11533076, -0.23270284, -648768.8, 662161.1, 0.03984612, 10.006109, 9.997319 
2.2352949e+3, 1.7622583e+2, -658200.9, -1254334.8, -4423.7866, -0.015279509, -0.28386968, -658168.06, 554793.3, 0.00920774, 10.0052395, 9.997275 
2.235241e+3, 1.8622325e+2, -662138.0, -1147063.8, -14650.26, -0.010671125, -0.2792024, -661695.8, 453290.66, 0.0007420375, 10.004244, 9.997818 
2.2351862e+3, 1.962213e+2, -721515.1, -1126426.1, -19032.02, -0.06311673, -0.2431974, -720622.5, 296383.66, 0.00000018696807, 10.003166, 9.997807 
2.2351323e+3, 2.062194e+2, -700609.1, -980628.56, -22886.59, -0.05226796, -0.23787613, -698750.9, 220274.33, 0.0, 10.002271, 9.998567 
2.2350788e+3, 2.1621767e+2, -717821.2, -941088.56, -25948.807, -0.004511097, -0.2549311, -714845.0, 106197.33, 0.0, 10.0014925, 9.99854 
2.2350247e+3, 2.2621638e+2, -716626.6, -815277.44, -29114.236, -0.0067172353, -0.25608084, -708675.25, 14379.716, 0.0, 10.000507, 9.999205 
2.2349702e+3, 2.3621552e+2, -786767.56, -805013.4, -25468.428, -0.03738926, -0.2499086, -768837.4, -143774.16, 0.0, 9.999381, 9.9991455 
2.2349162e+3, 2.4621484e+2, -790075.4, -701978.56, -30182.084, -0.033983402, -0.23817462, -692630.1, -165559.38, 0.0, 9.998454, 9.999626 
2.2348623e+3, 2.562144e+2, -804135.3, -649694.5, -40331.14, -0.014267393, -0.23065013, -639796.6, -210719.95, 0.0, 9.997648, 9.999701 
2.234808e+3, 2.662146e+2, -753454.44, -426971.03, -39007.414, -0.02025385, -0.23987819, -422375.22, -91300.51, 0.0, 9.996688, 10.001019 
2.2347537e+3, 2.7621534e+2, -811349.2, -410968.2, -21891.363, -0.031582825, -0.2526398, -409774.8, -176709.27, 0.0, 9.995646, 10.000959 
2.2347e+3, 2.862166e+2, -810530.4, -311296.06, -7174.2104, -0.006895457, -0.22874779, -311193.0, -176139.97, 0.0, 9.994773, 10.00139 
2.234646e+3, 2.9621792e+2, -838498.2, -287225.4, -9087.2, 0.0067473697, -0.21990058, -287075.66, -250035.23, 0.0, 9.993964, 10.001273 
2.2345923e+3, 3.0621868e+2, -883473.0, -179319.72, -34092.336, -0.0013921938, -0.30097666, -177672.95, -177672.95, 0.0, 9.992872, 10.002206 
2.2345386e+3, 3.1622204e+2, -890241.7, 61819.0, -59904.965, 0.02909948, -0.19001618, 65573.5, 65573.5, 0.0, 9.991776, 10.004388 
2.2455706e+3, 1.2629992e+2, -1115397.9, -1728900.0, 1050.0669, -0.2298651, -0.2871874, -1115396.0, 586836.9, 0.46592507, 10.009998, 9.995089 
2.245519e+3, 1.3629504e+2, -934478.9, -1647547.1, 43401.266, -0.010710018, -0.28648052, -931846.94, 672435.06, 0.34244147, 10.009354, 9.995294 
2.2454648e+3, 1.4629062e+2, -768772.25, -1487505.6, 13565.33, -0.007905963, -0.28983697, -768516.3, 737809.7, 0.21490319, 10.00836, 9.996221 
2.2454084e+3, 1.562873e+2, -729448.5, -1472465.4, 23608.857, -0.13097234, -0.22935541, -728699.06, 679660.2, 0.10846082, 10.007147, 9.996202 
2.2453538e+3, 1.6628373e+2, -656102.75, -1311782.6, 35322.887, -0.11343829, -0.23630364, -654205.3, 656188.94, 0.04054576, 10.0061655, 9.997106 
2.2453001e+3, 1.7628013e+2, -656617.7, -1271935.1, 18192.18, -0.010120106, -0.29297537, -656080.3, 556348.9, 0.009409287, 10.005334, 9.9971075 
2.2452451e+3, 1.8627755e+2, -627412.75, -1118952.8, 6121.2227, -0.012523902, -0.2846426, -627336.5, 487117.53, 0.00077088806, 10.004437, 9.997916 
2.2451894e+3, 1.962758e+2, -668387.2, -1092816.9, 16233.525, -0.080628484, -0.2379989, -667767.2, 348704.13, 0.000000258046, 10.003501, 9.997874 
2.2451346e+3, 2.062738e+2, -681138.44, -983311.3, 17673.73, -0.057217304, -0.23967692, -680108.2, 238383.23, 0.0, 10.002461, 9.998454 
2.2450806e+3, 2.1627174e+2, -743205.25, -962953.6, 9236.061, 0.022708995, -0.27503487, -742817.75, 77694.164, 0.0, 10.001364, 9.99845 
2.2450253e+3, 2.2627053e+2, -726476.5, -814400.0, -383.9434, 0.012204945, -0.2664717, -726474.8, -3950.884, 0.0, 10.00042, 9.99925 
2.2449695e+3, 2.3626998e+2, -756897.75, -784529.4, -1827.8528, -0.052618116, -0.23310979, -756777.4, -132248.08, 0.0, 9.999564, 9.999195 
2.2449146e+3, 2.4626926e+2, -771618.25, -687617.56, 6615.8037, -0.043766875, -0.23006827, -687099.75, -160562.53, 0.0, 9.998562, 9.99967 
2.24486e+3, 2.562686e+2, -828287.25, -655918.75, 16586.719, 0.0078051668, -0.2516791, -654337.1, -225791.73, 0.0, 9.997464, 9.999744 
2.2448047e+3, 2.6626885e+2, -769090.44, -430279.53, 7034.127, -0.00701907, -0.25195983, -430133.56, -99591.23, 0.0, 9.996569, 10.001051 
2.244749e+3, 2.7626994e+2, -788373.6, -394595.8, -8000.2593, -0.051913112, -0.23754184, -394433.34, -161903.03, 0.0, 9.995789, 10.0009985 
2.2446944e+3, 2.8627107e+2, -803498.5, -299351.7, 1649.8612, -0.016274583, -0.22874413, -299346.28, -164827.61, 0.0, 9.99479, 10.001461 
2.2446398e+3, 2.9627222e+2, -885546.94, -305730.47, 14647.894, 0.035969928, -0.2438301, -305360.66, -268853.03, 0.0, 9.993629, 10.001305 
2.2445847e+3, 3.062731e+2, -908522.3, -196041.53, 36992.535, -0.008356111, -0.30644408, -194126.02, -194126.02, 0.0, 9.992725, 10.002159 
2.24453e+3, 3.162766e+2, -857463.56, 104396.94, 12071.577, -0.010911115, -0.18037815, 104548.414, 104548.414, 0.0, 9.991891, 10.004622 
2.255581e+3, 1.2635507e+2, -1120472.4, -1722809.8, -9258.229, -0.16239727, -0.28791037, -1120330.1, 581361.2, 0.47414374, 10.010035, 9.995113 
2.2555274e+3, 1.3635024e+2, -942312.1, -1640167.5, 27830.56, -0.10893508, -0.28421456, -941204.0, 662535.9, 0.3481119, 10.009293, 9.995369 
2.2554724e+3, 1.463457e+2, -760698.56, -1456931.3, -20317.072, -0.06817758, -0.32103682, -760106.2, 745678.6, 0.21824285, 10.008313, 9.996514 
2.255416e+3, 1.5634258e+2, -716322.3, -1443178.8, -13545.027, -0.06910122, -0.2692293, -716070.0, 691745.25, 0.11008941, 10.00716, 9.996399 
2.25536e+3, 1.6633911e+2, -682420.2, -1373860.5, 7563.2695, -0.06778148, -0.2496358, -682337.5, 627512.7, 0.041186627, 10.0061865, 9.996671 
2.2553048e+3, 1.7633551e+2, -679350.4, -1320843.9, -10146.137, -0.06271188, -0.26435786, -679189.94, 532697.06, 0.009591426, 10.005336, 9.996773 
2.255249e+3, 1.8633287e+2, -608264.75, -1078969.1, -26365.719, -0.058013953, -0.26548055, -606792.56, 507120.03, 0.00079748046, 10.004433, 9.998196 
2.2551928e+3, 1.9633101e+2, -653281.25, -1061438.9, -17338.795, -0.055398814, -0.25617945, -652546.0, 363383.34, 0.0000003336063, 10.003496, 9.998095 
2.2551373e+3, 2.0632896e+2, -693823.9, -1011089.25, -21517.084, -0.03298385, -0.25842234, -692371.25, 225578.28, 0.0, 10.002463, 9.998263 
2.2550815e+3, 2.1632695e+2, -754086.75, -987112.8, -28358.967, 0.001685902, -0.27351117, -750685.1, 69285.21, 0.0, 10.001366, 9.998285 
2.2550254e+3, 2.2632572e+2, -729070.25, -820983.75, -30741.348, 0.00083747756, -0.2578867, -719736.4, 2246.7993, 0.0, 10.000421, 9.9992075 
2.2549692e+3, 2.3632509e+2, -755392.0, -783482.6, -34246.29, -0.021358725, -0.22730544, -732422.75, -108433.15, 0.0, 9.99957, 9.999202 
2.2549132e+3, 2.4632448e+2, -748805.2, -641908.0, -35343.63, -0.015373899, -0.23134221, -631279.1, -105283.27, 0.0, 9.998566, 9.999984 
2.2548571e+3, 2.5632405e+2, -812866.4, -626057.5, -23737.59, 0.0051023248, -0.25822246, -623088.4, -195088.03, 0.0, 9.99747, 9.9999485 
2.2548011e+3, 2.6632434e+2, -799110.75, -494300.8, -23747.064, -0.018842408, -0.24291468, -492461.8, -162463.8, 0.0, 9.9965725, 10.000611 
2.2547446e+3, 2.763251e+2, -811782.06, -446206.5, -40664.383, -0.062163714, -0.21253711, -441737.88, -209747.36, 0.0, 9.995797, 10.000643 
2.2546892e+3, 2.8632587e+2, -781542.06, -255688.86, -45081.297, 0.00013456272, -0.24378467, -251852.05, -117869.84, 0.0, 9.994794, 10.001761 
2.254634e+3, 2.9632697e+2, -851935.9, -238099.7, -29782.348, 0.099401064, -0.29520443, -236658.1, -200688.38, 0.0, 9.993634, 10.00177 
2.2545764e+3, 3.0632952e+2, -864158.6, -105714.2, 9549.565, -0.11479845, -0.2534318, -105593.984, -105593.984, 0.0, 9.992729, 10.002779 
2.2545221e+3, 3.163318e+2, -977266.25, -149054.83, -49417.31, 0.02953949, -0.2785396, -146116.64, -146116.64, 0.0, 9.991904, 10.002879 
2.2655922e+3, 1.2641123e+2, -1042280.0, -1667154.9, 3647.9814, -0.09110349, -0.3094136, -1042258.75, 658881.6, 0.4818339, 10.011153, 9.995166 
2.2655356e+3, 1.3640682e+2, -994744.9, -1658975.0, 49856.88, -0.15680309, -0.278846, -991023.5, 612160.9, 0.3533949, 10.008716, 9.995526 
2.26548e+3, 1.4640217e+2, -831874.56, -1489831.4, 25347.271, -0.10118363, -0.33405465, -830899.56, 674330.8, 0.22133775, 10.007715, 9.99651 
2.2654235e+3, 1.5639894e+2, -661065.06, -1412137.1, 17550.416, -0.043260075, -0.28836843, -660655.2, 746606.3, 0.11158569, 10.007599, 9.996399 
2.2653668e+3, 1.6639549e+2, -609830.0, -1337813.3, 35573.117, -0.047773585, -0.2663474, -608095.8, 701200.4, 0.041766614, 10.006717, 9.996661 
2.2653095e+3, 1.7639194e+2, -674725.25, -1321030.3, 47231.23, -0.085520126, -0.27408224, -671291.9, 540040.75, 0.0097545395, 10.0053835, 9.996746 
2.2652529e+3, 1.8638922e+2, -637297.2, -1106955.8, 29599.19, -0.070732996, -0.27339643, -635439.06, 477920.3, 0.0008215446, 10.004298, 9.998066 
2.2651966e+3, 1.963872e+2, -679598.06, -1084366.9, 8247.114, -0.026496502, -0.26562098, -679430.06, 335948.2, 0.00000039847941, 10.003364, 9.997998 
2.2651397e+3, 2.0638517e+2, -687777.9, -1000885.3, 2971.1812, -0.014887937, -0.26625678, -687749.7, 229648.66, 0.0, 10.002477, 9.998325 
2.2650824e+3, 2.1638323e+2, -714302.3, -961428.44, 13211.326, -0.02150048, -0.27682808, -713598.06, 105819.766, 0.0, 10.001616, 9.998338 
2.2650257e+3, 2.2638194e+2, -708353.56, -812068.6, 18615.05, -0.015224585, -0.26745906, -705113.7, 16317.451, 0.0, 10.000572, 9.999193 
2.2649688e+3, 2.3638116e+2, -778240.94, -794822.6, 17373.963, -0.00057234603, -0.24919415, -767281.0, -143841.83, 0.0, 9.999418, 9.999195 
2.2649118e+3, 2.4638064e+2, -758173.1, -643601.7, 5573.045, 0.00495566, -0.24462032, -643331.2, -117886.414, 0.0, 9.998493, 10.000005 
2.2648548e+3, 2.5638047e+2, -779361.4, -607148.9, -4828.0435, 0.0028134184, -0.24994594, -607013.6, -179566.36, 0.0, 9.997692, 9.999969 
2.2647974e+3, 2.663807e+2, -781163.44, -485842.44, 8428.586, -0.023431186, -0.23665544, -485602.1, -156156.97, 0.0, 9.996701, 10.000605 
2.2647402e+3, 2.7638128e+2, -846512.56, -463563.13, 22604.088, -0.053762704, -0.22391985, -462233.5, -230794.1, 0.0, 9.995567, 10.000632 
2.2646838e+3, 2.863819e+2, -803169.7, -264630.5, 16551.03, 0.020998752, -0.266534, -264122.3, -130689.836, 0.0, 9.994644, 10.001769 
2.264628e+3, 2.9638305e+2, -809928.6, -206291.34, 7099.5645, 0.12732838, -0.31564766, -206207.86, -170787.94, 0.0, 9.993878, 10.001866 
2.2645684e+3, 3.0638647e+2, -844000.1, -71108.27, 10715.623, -0.17413875, -0.20396265, -70959.734, -70959.734, 0.0, 9.992765, 10.0029955 
2.2645144e+3, 3.1638885e+2, -1048006.9, -205306.78, -28705.236, 0.104119435, -0.2299902, -204330.11, -204330.11, 0.0, 9.991522, 10.002673 
2.275604e+3, 1.2646845e+2, -1055007.8, -1662820.8, -38234.79, -0.031387754, -0.32745346, -1052612.0, 647967.44, 0.48840472, 10.011036, 9.995282 
2.2755443e+3, 1.364646e+2, -984889.3, -1622343.8, -1252.0446, -0.16589001, -0.26995394, -984886.9, 617730.4, 0.35791165, 10.008758, 9.995745 
2.2754873e+3, 1.4645979e+2, -842445.25, -1523577.9, 23614.924, -0.11305449, -0.3318104, -841627.5, 663037.0, 0.22400366, 10.007774, 9.996225 
2.2754309e+3, 1.5645626e+2, -675170.7, -1440798.0, 10844.805, -0.051436268, -0.28981352, -675017.1, 731682.1, 0.11289089, 10.0075865, 9.996211 
2.275373e+3, 1.6645277e+2, -590245.0, -1290066.3, -10617.09, -0.052983914, -0.28560242, -590084.0, 718649.6, 0.042275667, 10.00669, 9.997009 
2.275315e+3, 1.764493e+2, -659420.6, -1288497.1, 1373.6525, -0.083312884, -0.3188154, -659417.6, 551349.94, 0.009897811, 10.005379, 9.996974 
2.2752573e+3, 1.8644649e+2, -673436.6, -1184881.4, -3629.16, -0.054580647, -0.30648854, -673410.9, 439385.2, 0.0008427195, 10.004306, 9.997529 
2.2751999e+3, 1.9644427e+2, -707697.94, -1145241.0, -23604.236, 0.0042845984, -0.26650038, -706428.25, 308391.0, 0.00000043907016, 10.00337, 9.99758 
2.275142e+3, 2.0644227e+2, -666510.44, -958077.44, -27059.006, -0.0034897842, -0.26311284, -664020.5, 252818.56, 0.0, 10.002479, 9.998621 
2.2750838e+3, 2.164405e+2, -696618.6, -925239.4, -17823.613, -0.048342533, -0.2861277, -695237.44, 123618.14, 0.0, 10.001614, 9.99859 
2.2750258e+3, 2.2643912e+2, -708929.75, -813980.06, -23157.74, -0.037083853, -0.29539177, -704051.3, 16817.766, 0.0, 10.000571, 9.999182 
2.274968e+3, 2.3643811e+2, -780894.1, -801815.7, -23206.348, 0.0068311454, -0.29918596, -765899.8, -143020.64, 0.0, 9.99942, 9.999148 
2.2749102e+3, 2.4643765e+2, -778217.25, -687079.8, -25086.746, 0.015604797, -0.27046967, -680630.75, -155745.48, 0.0, 9.998497, 9.999706 
2.2748521e+3, 2.5643766e+2, -790157.7, -633411.56, -37003.56, -0.0005281123, -0.22725376, -625115.2, -198227.73, 0.0, 9.9977045, 9.999784 
2.274794e+3, 2.6643786e+2, -748975.6, -421405.72, -36182.938, -0.019802347, -0.23324865, -417456.63, -88572.03, 0.0, 9.996707, 10.001046 
2.2747359e+3, 2.764384e+2, -821491.7, -413696.6, -19835.986, -0.027687762, -0.27219364, -412734.0, -181856.58, 0.0, 9.995571, 10.000975 
2.2746786e+3, 2.864391e+2, -826581.2, -315104.28, -13195.146, 0.04257796, -0.3001872, -314764.1, -181893.75, 0.0, 9.994648, 10.001423 
2.2746216e+3, 2.9644024e+2, -833207.2, -257972.4, -24297.025, 0.11000245, -0.31537127, -256947.97, -222087.55, 0.0, 9.993888, 10.001509 
2.2745611e+3, 3.0644408e+2, -861688.94, -109652.11, -45212.27, -0.17263529, -0.13037537, -106943.72, -106943.72, 0.0, 9.992769, 10.002732 
2.2745058e+3, 3.164451e+2, -945316.94, -378.62418, 33272.07, 0.09985678, -0.2866088, 791.4646, 791.4646, 0.0, 9.9915495, 10.004071 
2.2856145e+3, 1.2652734e+2, -1136521.1, -1726975.1, -5262.759, -0.011896731, -0.32501554, -1136474.1, 563527.4, 0.4933434, 10.010128, 9.995037 
2.2855535e+3, 1.365233e+2, -882713.44, -1566194.0, 20825.463, -0.15987574, -0.28381014, -882079.5, 719961.56, 0.3613318, 10.009904, 9.995713 
2.2854955e+3, 1.4651836e+2, -734568.4, -1482094.0, 56789.6, -0.107686326, -0.3452284, -730278.7, 773810.75, 0.22606768, 10.008843, 9.996033 
2.285438e+3, 1.5651467e+2, -709623.6, -1477128.9, 52317.55, -0.06308374, -0.29947385, -706073.75, 700052.1, 0.113936715, 10.007407, 9.996047 
2.2853793e+3, 1.6651112e+2, -642542.0, -1313572.8, 13456.484, -0.059652317, -0.29335317, -642272.25, 665888.6, 0.04269525, 10.006314, 9.997021 
2.2853203e+3, 1.7650767e+2, -655022.8, -1284532.6, 3405.757, -0.0702856, -0.3249862, -655004.4, 555190.1, 0.010018236, 10.005406, 9.996985 
2.2852618e+3, 1.8650481e+2, -643679.7, -1170920.1, 19330.063, -0.044441782, -0.31677833, -642972.0, 469251.38, 0.000860764, 10.004518, 9.99752 
2.2852033e+3, 1.965025e+2, -668763.75, -1126585.6, 34417.3, -0.0022993125, -0.28387064, -666190.9, 348056.47, 0.0000004566556, 10.003644, 9.997573 
2.2851443e+3, 2.065005e+2, -647921.4, -947812.6, 28413.557, -0.009746374, -0.27726257, -645253.06, 271014.03, 0.0, 10.002606, 9.998627 
2.2850852e+3, 2.1649884e+2, -716211.5, -933002.1, 15415.056, -0.0441589, -0.29103076, -715120.9, 103162.17, 0.0, 10.001476, 9.998601 
2.2850262e+3, 2.264975e+2, -711845.75, -811727.1, 4779.47, -0.035211645, -0.29680336, -711617.56, 8678.55, 0.0, 10.000539, 9.999211 
2.2849676e+3, 2.3649652e+2, -738294.9, -778574.75, 8062.6494, 0.0006112831, -0.3006976, -736740.94, -114434.91, 0.0, 9.999705, 9.999167 
2.2849087e+3, 2.4649598e+2, -753871.44, -679411.25, 21865.105, 0.012922343, -0.277322, -673465.4, -149152.55, 0.0, 9.998686, 9.999666 
2.2848496e+3, 2.5649586e+2, -813017.7, -645126.8, 28284.662, 0.007146295, -0.24246177, -640489.75, -214173.52, 0.0, 9.997555, 9.999774 
2.2847906e+3, 2.6649606e+2, -764095.44, -419797.9, 16135.58, -0.0077038296, -0.2495974, -419043.38, -90730.16, 0.0, 9.996569, 10.001122 
2.2847314e+3, 2.764967e+2, -804575.44, -399145.38, 4561.3047, -0.010888252, -0.28224194, -399094.06, -168789.33, 0.0, 9.995664, 10.001028 
2.2846732e+3, 2.8649756e+2, -823086.7, -323264.53, 17242.752, 0.04182985, -0.29462564, -322670.4, -190373.52, 0.0, 9.994719, 10.00133 
2.2846147e+3, 2.9649863e+2, -875121.44, -294830.47, 20646.006, 0.071389176, -0.30512604, -294096.84, -259808.67, 0.0, 9.993678, 10.001355 
2.2845542e+3, 3.065019e+2, -914158.4, -181044.34, -7520.8384, -0.099743694, -0.14581588, -180967.2, -180967.2, 0.0, 9.992613, 10.002315 
2.284497e+3, 3.165016e+2, -874510.06, 96014.51, 89378.664, 0.08466355, -0.40420878, 104177.02, 104177.02, 0.0, 9.991775, 10.004621 
2.2956243e+3, 1.2658767e+2, -1157348.8, -1798998.0, -4911.435, -0.03651269, -0.30380282, -1157311.3, 542097.94, 0.49645466, 10.010128, 9.994542 
2.2955632e+3, 1.3658282e+2, -896368.9, -1588308.4, 11271.417, -0.14512795, -0.31554294, -896185.3, 705271.4, 0.36352798, 10.009894, 9.995479 
2.2955044e+3, 1.465778e+2, -744098.3, -1499097.9, 14920.634, -0.092385456, -0.3701196, -743803.56, 759702.44, 0.22744486, 10.008836, 9.995888 
2.295445e+3, 1.5657406e+2, -720463.3, -1501158.4, 7856.039, -0.07995107, -0.31651226, -720384.25, 685158.56, 0.114670776, 10.007402, 9.995884 
2.2953855e+3, 1.6657043e+2, -662887.44, -1359089.6, -17135.898, -0.06864839, -0.29208788, -662465.94, 645113.3, 0.043002304, 10.006317, 9.996709 
2.2953257e+3, 1.7656694e+2, -667544.25, -1312282.6, -27040.568, -0.048989106, -0.29580018, -666412.2, 543202.44, 0.0101099275, 10.005409, 9.996796 
2.2952661e+3, 1.8656409e+2, -612055.2, -1105529.3, -10925.361, -0.041695282, -0.3057099, -611813.44, 499828.97, 0.00087527925, 10.004515, 9.997973 
2.2952063e+3, 1.9656177e+2, -645427.0, -1077138.3, 2561.0564, -0.04512362, -0.31848875, -645411.8, 368252.22, 0.00000046190817, 10.003635, 9.997919 
2.2951464e+3, 2.0655978e+2, -668778.75, -991270.56, -12212.924, -0.032814704, -0.30877614, -668316.94, 247367.1, 0.0, 10.002603, 9.998332 
2.2950867e+3, 2.1655813e+2, -732535.06, -967800.7, -22873.936, -0.011557259, -0.29138008, -730331.8, 87369.76, 0.0, 10.001475, 9.998364 
2.295027e+3, 2.2655697e+2, -707988.5, -804925.2, -24738.414, -0.011609325, -0.27131814, -702040.2, 17673.346, 0.0, 10.000541, 9.999259 
2.2949667e+3, 2.3655626e+2, -731925.44, -767547.9, -24054.28, -0.021299055, -0.2537434, -719805.94, -98085.01, 0.0, 9.999711, 9.999243 
2.294907e+3, 2.4655552e+2, -738068.5, -648356.2, -21627.385, -0.0035203407, -0.26555747, -643414.56, -119686.086, 0.0, 9.99869, 9.99988 
2.2948472e+3, 2.5655493e+2, -802060.5, -624070.6, -13644.961, 0.022714006, -0.29708573, -623030.6, -197296.11, 0.0, 9.997558, 9.999919 
2.2947872e+3, 2.6655522e+2, -786605.44, -468407.2, -18945.115, 0.010429656, -0.28729913, -467283.2, -139551.3, 0.0, 9.9965725, 10.000789 
2.2947271e+3, 2.765562e+2, -820940.94, -437007.5, -29760.992, -0.006034789, -0.2539548, -434714.25, -204991.7, 0.0, 9.995676, 10.000765 
2.2946675e+3, 2.8655726e+2, -810720.8, -299590.53, -24019.018, 0.01661945, -0.24305548, -298464.3, -166751.89, 0.0, 9.994723, 10.001493 
2.2946076e+3, 2.9655835e+2, -872819.44, -289386.2, -23945.52, 0.0051489803, -0.2667844, -288405.06, -254703.22, 0.0, 9.9936695, 10.001399 
2.2945482e+3, 3.0655932e+2, -954631.9, -266730.06, -41032.703, 0.056543726, -0.30274925, -264291.16, -264291.16, 0.0, 9.992615, 10.001728 
2.2944885e+3, 3.1656128e+2, -904985.06, 28514.977, -28554.7, 0.067568675, -0.27880758, 29387.615, 29387.615, 0.0, 9.991789, 10.004151 
2.305634e+3, 1.2664784e+2, -1127050.8, -1774178.9, 6268.2334, -0.065965325, -0.32394564, -1126990.0, 571828.8, 0.4978324, 10.010578, 9.994497 
2.3055732e+3, 1.3664332e+2, -866654.6, -1567376.5, 26483.512, -0.14007375, -0.31364217, -865655.1, 735207.9, 0.36454856, 10.010186, 9.995561 
2.3055132e+3, 1.4663842e+2, -736824.94, -1511935.0, 10816.412, -0.08174083, -0.34748667, -736674.0, 766237.2, 0.22812518, 10.008995, 9.99571 
2.3054524e+3, 1.5663414e+2, -721022.25, -1515303.1, 3896.475, -0.08304851, -0.32986778, -721003.1, 683950.7, 0.115053914, 10.007466, 9.995753 
2.3053916e+3, 1.6663043e+2, -644943.7, -1338044.3, 13559.511, -0.0732562, -0.31180868, -644678.5, 662312.06, 0.043167047, 10.006401, 9.99681 
2.3053311e+3, 1.766272e+2, -637024.1, -1287074.4, 29873.852, -0.048934035, -0.30100012, -635654.1, 573368.94, 0.010161814, 10.005583, 9.996882 
2.3052703e+3, 1.8662436e+2, -609255.6, -1105543.1, 29647.506, -0.046062525, -0.30917522, -607490.8, 503559.66, 0.00088496035, 10.004546, 9.997954 
2.3052095e+3, 1.9662195e+2, -681490.0, -1094441.3, 8600.339, -0.05869976, -0.32904744, -681310.94, 331762.3, 0.00000047448012, 10.003392, 9.997914 
2.305149e+3, 2.0662e+2, -695885.1, -998443.44, -2255.2134, -0.04101598, -0.3196983, -695868.3, 219224.86, 0.0, 10.002396, 9.998381 
2.3050882e+3, 2.1661842e+2, -728441.06, -960045.9, 11477.199, -0.0047916654, -0.29763764, -727873.75, 89236.23, 0.0, 10.001485, 9.99841 
2.3050271e+3, 2.2661729e+2, -711316.06, -803857.2, 20528.527, -0.004858903, -0.27714175, -706966.6, 12155.156, 0.0, 10.00051, 9.999279 
2.304966e+3, 2.3661658e+2, -759769.5, -775852.9, 18758.203, -0.023165671, -0.2608344, -747401.9, -126272.72, 0.0, 9.999501, 9.999285 
2.3049052e+3, 2.4661587e+2, -743583.8, -632703.8, 15487.494, -0.00699041, -0.2777141, -630581.2, -107445.4, 0.0, 9.998576, 10.00004 
2.3048447e+3, 2.5661537e+2, -777257.1, -599632.5, 18486.67, 0.023844412, -0.31693614, -597728.9, -172588.42, 0.0, 9.997678, 10.000028 
2.3047838e+3, 2.6661563e+2, -785366.44, -484280.1, 20818.592, 0.01630995, -0.30149513, -482847.44, -155709.13, 0.0, 9.996656, 10.000638 
2.3047224e+3, 2.7661657e+2, -843873.3, -458288.28, 24052.113, 0.0035511956, -0.25573453, -456793.75, -227663.23, 0.0, 9.995566, 10.000669 
2.3046619e+3, 2.8661767e+2, -821437.8, -284828.38, 34099.97, 0.018155945, -0.24535424, -282670.1, -151550.23, 0.0, 9.994567, 10.001668 
2.304601e+3, 2.966189e+2, -876814.6, -275589.9, 30846.232, 0.0005006047, -0.27351084, -274011.44, -240904.06, 0.0, 9.993577, 10.001537 
2.304541e+3, 3.0661967e+2, -950199.06, -265410.3, 52801.96, 0.08809684, -0.33337718, -261362.83, -261362.83, 0.0, 9.992649, 10.00172 
2.3044795e+3, 3.1662264e+2, -929633.2, -17511.063, 23323.7, -0.005551805, -0.20012894, -16915.047, -16915.047, 0.0, 9.991776, 10.003837 
2.315644e+3, 1.2670785e+2, -1111784.5, -1720589.9, 4967.101, -0.1052277, -0.38859674, -1111744.0, 586486.4, 0.4975938, 10.010609, 9.99485 
2.3155832e+3, 1.3670468e+2, -857294.2, -1539922.6, 12922.25, -0.14808153, -0.28365457, -857049.7, 743211.25, 0.36444739, 10.010127, 9.995884 
2.315522e+3, 1.467001e+2, -754553.0, -1550977.6, -33116.05, -0.079176955, -0.28650406, -753178.4, 749128.25, 0.22809753, 10.008949, 9.99547 
2.3154597e+3, 1.5669489e+2, -728111.1, -1533176.9, -40392.605, -0.07590137, -0.339411, -726089.6, 678269.75, 0.11504207, 10.007466, 9.995634 
2.3153977e+3, 1.6669111e+2, -613712.4, -1274731.3, -12775.665, -0.07546595, -0.348886, -613465.56, 692930.0, 0.043153014, 10.006409, 9.997253 
2.3153362e+3, 1.766883e+2, -617040.06, -1245115.8, -300.88184, -0.06900931, -0.33833158, -617039.9, 591381.5, 0.010158889, 10.005578, 9.997174 
2.3152746e+3, 1.8668552e+2, -643264.2, -1175871.1, -11612.979, -0.057774123, -0.32642472, -643011.1, 467438.1, 0.0008877638, 10.0045395, 9.997477 
2.315213e+3, 1.9668294e+2, -705876.44, -1144708.1, -30293.283, -0.04729175, -0.3158161, -703795.1, 308680.94, 0.000000529114, 10.0033865, 9.997575 
2.3151511e+3, 2.0668101e+2, -670452.56, -946120.94, -33800.89, -0.036626037, -0.3099868, -666368.6, 248126.94, 0.0, 10.002393, 9.998743 
2.3150894e+3, 2.1667956e+2, -707322.0, -916429.7, -20598.146, -0.024623351, -0.31157392, -705312.3, 111197.28, 0.0, 10.001481, 9.9987135 
2.3150274e+3, 2.2667831e+2, -713459.1, -809149.9, -15591.971, -0.015019804, -0.31533447, -710982.6, 7539.4414, 0.0, 10.00051, 9.999245 
2.3149656e+3, 2.366773e+2, -759650.56, -777095.7, -17701.363, -0.0072375764, -0.3228193, -748639.4, -128107.37, 0.0, 9.999503, 9.999278 
2.3149037e+3, 2.4667692e+2, -736924.0, -620540.1, -18818.04, 0.0010287175, -0.31386968, -617573.1, -95037.27, 0.0, 9.998579, 10.000124 
2.314842e+3, 2.5667703e+2, -770866.1, -590084.7, -17256.576, 0.0076965643, -0.29925093, -588452.2, -163917.38, 0.0, 9.997689, 10.00009 
2.31478e+3, 2.666773e+2, -782544.1, -480708.06, -22392.564, 0.008919396, -0.29058108, -479055.84, -152522.73, 0.0, 9.996661, 10.000662 
2.314718e+3, 2.766778e+2, -838461.7, -447090.13, -16402.596, 0.014122133, -0.28971878, -446403.88, -217874.63, 0.0, 9.995563, 10.000751 
2.3146565e+3, 2.8667873e+2, -808491.4, -257903.19, -2748.5574, 0.04854942, -0.31058645, -257889.47, -127369.26, 0.0, 9.994562, 10.001858 
2.3145953e+3, 2.9668012e+2, -856906.94, -238616.75, -6041.9634, 0.06948673, -0.34088963, -238557.72, -206051.5, 0.0, 9.99359, 10.001788 
2.3145323e+3, 3.0668342e+2, -905650.06, -176525.05, 22492.006, -0.042015485, -0.19399606, -175831.88, -175831.88, 0.0, 9.992659, 10.002329 
2.3144718e+3, 3.1668493e+2, -921995.6, 777.5077, -67193.836, 0.057343364, -0.26316229, 5644.708, 5644.708, 0.0, 9.991762, 10.003971 
2.325655e+3, 1.2676975e+2, -1046771.5, -1672877.4, 26335.643, -0.10139692, -0.3833917, -1045665.75, 651957.6, 0.49559742, 10.011412, 9.99495 
2.3255928e+3, 1.3676634e+2, -909451.94, -1560251.1, 18552.637, -0.1478666, -0.3070331, -908923.44, 690732.56, 0.3630993, 10.009507, 9.99596 
2.3255305e+3, 1.467622e+2, -808951.75, -1561609.6, -12597.288, -0.08591842, -0.2798272, -808740.94, 692956.44, 0.22725561, 10.008361, 9.995675 
2.325467e+3, 1.5675709e+2, -690088.3, -1491637.3, 8207.897, -0.08198647, -0.34214485, -690004.25, 713744.94, 0.11455558, 10.007674, 9.995814 
2.325404e+3, 1.6675329e+2, -574703.4, -1254398.9, 31327.443, -0.07889081, -0.35978782, -573262.5, 732522.94, 0.04291474, 10.006688, 9.99726 
2.3253416e+3, 1.7675045e+2, -621452.44, -1244067.4, 15029.328, -0.069983974, -0.3506838, -621089.9, 586721.3, 0.010084763, 10.005539, 9.997198 
2.3252788e+3, 1.8674773e+2, -664076.25, -1178707.4, 12912.126, -0.05876395, -0.33825916, -663752.5, 446085.97, 0.0008814642, 10.004372, 9.997536 
2.3252161e+3, 1.9674519e+2, -729226.94, -1149106.6, 32312.639, -0.048413742, -0.32729977, -726754.8, 285110.13, 0.00000065345915, 10.003202, 9.99763 
2.325153e+3, 2.0674327e+2, -690999.94, -952644.3, 34786.41, -0.036816437, -0.32298213, -686453.94, 227430.42, 0.0, 10.002243, 9.998768 
2.3250906e+3, 2.1674182e+2, -716942.2, -915471.7, 21732.11, -0.023852233, -0.3262785, -714591.1, 101307.24, 0.0, 10.001395, 9.998759 
2.3250276e+3, 2.2674058e+2, -713229.56, -796693.75, 21823.865, -0.015046906, -0.33481833, -707867.6, 10042.754, 0.0, 10.000463, 9.9993515 
2.3249649e+3, 2.367396e+2, -758149.75, -766258.9, 30864.102, -0.006826671, -0.34858173, -731075.06, -111155.33, 0.0, 9.9994755, 9.999363 
2.3249021e+3, 2.4673925e+2, -749997.25, -629493.1, 30642.668, 0.002250789, -0.33757362, -622148.7, -100225.234, 0.0, 9.998506, 10.000095 
2.3248394e+3, 2.567394e+2, -793338.4, -600707.3, 22601.207, 0.011228908, -0.3141192, -598091.06, -174168.63, 0.0, 9.9975395, 10.000087 
2.3247764e+3, 2.6673982e+2, -792266.25, -469242.44, 15872.951, 0.010680365, -0.29751393, -468464.34, -142545.05, 0.0, 9.99653, 10.000802 
2.3247133e+3, 2.7674046e+2, -844786.9, -436844.44, 28683.08, 0.009558598, -0.2964902, -434837.56, -206923.55, 0.0, 9.995466, 10.000865 
2.3246509e+3, 2.867412e+2, -815899.25, -259430.44, 39547.5, 0.050919063, -0.33843294, -256633.9, -126727.16, 0.0, 9.994509, 10.00187 
2.3245889e+3, 2.9674253e+2, -840652.1, -215551.78, 20323.734, 0.101080805, -0.376453, -214891.7, -182998.05, 0.0, 9.993644, 10.001916 
2.3245242e+3, 3.0674702e+2, -881371.44, -94943.13, 41566.754, -0.07276028, -0.15175702, -92752.22, -92752.22, 0.0, 9.992528, 10.00295 
2.3244636e+3, 3.1674802e+2, -989391.75, -41123.527, -42044.98, 0.12735765, -0.3251759, -39262.957, -39262.957, 0.0, 9.9913435, 10.003884 
2.3356666e+3, 1.2683299e+2, -1047770.9, -1683157.1, -3848.7654, -0.076090306, -0.3462882, -1047747.56, 649255.6, 0.49135697, 10.011386, 9.994817 
2.335602e+3, 1.3682832e+2, -914014.25, -1572807.5, -19327.232, -0.1436002, -0.37217578, -913447.7, 685600.4, 0.360136, 10.009483, 9.995832 
2.3355383e+3, 1.4682473e+2, -777684.9, -1486977.0, -29633.152, -0.10170311, -0.31534955, -776449.0, 724634.5, 0.22536686, 10.008355, 9.996221 
2.3354743e+3, 1.5682052e+2, -665934.44, -1436127.8, -14692.391, -0.10181667, -0.33914807, -665654.25, 737471.3, 0.113476746, 10.007664, 9.996203 
2.3354104e+3, 1.6681676e+2, -602083.3, -1310019.3, -7110.8403, -0.08518506, -0.34867203, -602011.9, 703150.56, 0.042406023, 10.006673, 9.996873 
2.335347e+3, 1.7681356e+2, -638547.5, -1277714.8, -24329.014, -0.05524128, -0.33988464, -637622.8, 569570.7, 0.009926568, 10.005524, 9.996976 
2.335283e+3, 1.8681087e+2, -627211.2, -1102331.6, -28547.271, -0.051090684, -0.34452826, -625502.1, 483717.22, 0.00086420076, 10.004368, 9.998064 
2.3352188e+3, 1.9680855e+2, -701501.06, -1093526.3, -7235.7427, -0.06242373, -0.3640686, -701367.56, 309873.9, 0.00000084418537, 10.003206, 9.998013 
2.3351553e+3, 2.068066e+2, -712457.5, -999285.7, 4935.4175, -0.042050563, -0.35845283, -712372.6, 200888.6, 0.0, 10.002248, 9.998447 
2.3350918e+3, 2.1680506e+2, -732359.94, -948269.9, -8061.1016, -0.005839613, -0.34140787, -732059.4, 83218.26, 0.0, 10.001394, 9.998537 
2.335028e+3, 2.2680402e+2, -696384.2, -763044.94, -13875.13, -0.0064953673, -0.33430293, -693611.5, 23676.324, 0.0, 10.0004635, 9.999583 
2.3349641e+3, 2.3680338e+2, -746048.9, -742904.0, -5506.8315, -0.024229798, -0.33747554, -738749.5, -119456.15, 0.0, 9.999478, 9.999524 
2.3349003e+3, 2.4680276e+2, -760823.8, -653615.8, -6704.4, -0.0037869802, -0.34945977, -653198.2, -131898.39, 0.0, 9.998508, 9.99993 
2.3348369e+3, 2.5680238e+2, -798680.25, -613058.94, -14900.646, 0.033040535, -0.36437133, -611870.4, -188565.92, 0.0, 9.99754, 10.000003 
2.334773e+3, 2.6680315e+2, -775399.06, -434782.0, -25533.236, 0.020409983, -0.32349136, -432878.63, -107580.81, 0.0, 9.996528, 10.001042 
2.3347083e+3, 2.768045e+2, -834024.8, -417803.25, -11655.614, -0.014504491, -0.272256, -417477.13, -190191.98, 0.0, 9.995476, 10.000994 
2.3346451e+3, 2.8680506e+2, -831595.75, -295160.0, 4716.0215, 0.019375397, -0.32375512, -295118.56, -165838.56, 0.0, 9.994517, 10.001623 
2.334582e+3, 2.96806e+2, -842673.9, -221483.94, -15554.961, 0.08489651, -0.37816373, -221094.67, -189823.6, 0.0, 9.993647, 10.001877 
2.3345175e+3, 3.0681017e+2, -833390.0, 8267.54, -11888.4375, 0.021426633, -0.22765177, 8435.431, 8435.431, 0.0, 9.992508, 10.003671 
2.3344539e+3, 3.1681195e+2, -1056855.4, -188192.83, 31365.262, 0.021953113, -0.3739015, -187061.78, -187061.78, 0.0, 9.9913645, 10.002869 
2.3456775e+3, 1.2689784e+2, -1014694.56, -1676038.5, 19588.197, -0.11218574, -0.32807055, -1014114.9, 682251.3, 0.48421398, 10.011741, 9.994733 
2.3456118e+3, 1.3689221e+2, -914759.06, -1590536.0, 10738.497, -0.10267986, -0.42215857, -914588.44, 683832.2, 0.35506487, 10.009519, 9.995622 
2.345547e+3, 1.4688882e+2, -774458.7, -1468795.3, 28010.094, -0.07156981, -0.34451568, -773330.56, 727123.4, 0.22214209, 10.008267, 9.996415 
2.3454817e+3, 1.568851e+2, -673603.3, -1424640.0, 26787.012, -0.10968689, -0.3385634, -672649.1, 729842.06, 0.11168271, 10.007527, 9.9963455 
2.3454167e+3, 1.6688128e+2, -640907.1, -1341641.1, 27280.596, -0.09599603, -0.35099316, -639846.7, 664682.3, 0.041591417, 10.006446, 9.996762 
2.3453523e+3, 1.768778e+2, -688840.0, -1309333.0, 29726.287, -0.052829664, -0.35750285, -687419.2, 519144.2, 0.009676871, 10.005211, 9.996907 
2.3452874e+3, 1.8687516e+2, -628586.44, -1090065.4, 20186.473, -0.044047244, -0.35819402, -627705.1, 480883.44, 0.0008343058, 10.004309, 9.998174 
2.3452222e+3, 1.9687307e+2, -643136.3, -1053900.3, 10752.127, -0.05459303, -0.3665702, -642855.06, 367753.16, 0.000001041521, 10.003563, 9.99811 
2.3451573e+3, 2.068711e+2, -678007.9, -981321.75, 25433.566, -0.04111437, -0.364784, -675890.0, 236737.8, 0.0, 10.002483, 9.998455 
2.3450927e+3, 2.1686947e+2, -755310.75, -958447.94, 35418.773, -0.0137665365, -0.35609794, -749312.3, 65332.844, 0.0, 10.001239, 9.998539 
2.345028e+3, 2.2686848e+2, -729335.6, -781949.0, 29048.479, -0.009756671, -0.34026882, -716452.3, 202.8013, 0.0, 10.000256, 9.999551 
2.3449634e+3, 2.3686798e+2, -757169.56, -747264.4, 18013.586, -0.016253728, -0.32714972, -733535.0, -114875.04, 0.0, 9.999402, 9.999528 
2.3448987e+3, 2.4686736e+2, -765133.75, -640008.0, 23520.111, -0.0021708289, -0.34572855, -635732.94, -115066.86, 0.0, 9.998416, 10.000066 
2.3448342e+3, 2.568669e+2, -817569.6, -608463.3, 37179.96, 0.022578366, -0.37886137, -602049.3, -179378.52, 0.0, 9.997357, 10.00012 
2.3447691e+3, 2.6686764e+2, -781236.6, -438124.22, 24340.525, 0.018120963, -0.34177226, -436406.1, -111741.93, 0.0, 9.996496, 10.001031 
2.3447038e+3, 2.768691e+2, -799897.3, -400296.47, 17427.521, 0.0006739783, -0.2836162, -399537.88, -172886.67, 0.0, 9.995711, 10.000998 
2.3446395e+3, 2.868698e+2, -821377.56, -288886.53, 37640.566, 0.01845666, -0.32017437, -286238.97, -157594.39, 0.0, 9.994586, 10.001631 
2.3445752e+3, 2.968708e+2, -898183.44, -251368.92, 35748.996, 0.055379074, -0.36661425, -249399.1, -218764.16, 0.0, 9.993283, 10.001845 
2.3445103e+3, 3.068744e+2, -823382.0, 29811.139, 10546.013, 0.07710835, -0.27619517, 29941.475, 29941.475, 0.0, 9.992512, 10.003814 
2.3444453e+3, 3.1687754e+2, -1019251.7, -210675.64, 74144.3, 0.040522363, -0.30384213, -203933.03, -203933.03, 0.0, 9.99181, 10.002494 
2.3556879e+3, 1.269639e+2, -1013113.44, -1684239.9, -22918.455, -0.20309822, -0.33688822, -1012331.7, 683385.0, 0.47377688, 10.011601, 9.994684 
2.3556218e+3, 1.369577e+2, -920394.06, -1627499.8, -35281.137, -0.03558718, -0.46095484, -918638.06, 679138.7, 0.3475785, 10.0095005, 9.995357 
2.3555556e+3, 1.4695425e+2, -775949.94, -1484184.6, 8849.744, -0.0070200893, -0.36937284, -775839.4, 723971.56, 0.21740651, 10.008279, 9.996275 
2.3554888e+3, 1.5695062e+2, -678571.25, -1438242.6, 1402.0604, -0.10910357, -0.3396569, -678568.6, 723278.9, 0.10911114, 10.00751, 9.996262 
2.3554228e+3, 1.6694671e+2, -634031.75, -1327347.8, -15496.164, -0.11186215, -0.36424258, -633685.56, 670200.7, 0.040460307, 10.006436, 9.996868 
2.3553571e+3, 1.7694303e+2, -684987.0, -1304544.4, -10672.414, -0.06319173, -0.40105164, -684803.2, 521119.3, 0.009334697, 10.0052185, 9.996939 
2.3552915e+3, 1.8694048e+2, -648091.44, -1132726.3, -5302.608, -0.038542077, -0.37847456, -648033.44, 459914.34, 0.0007907297, 10.0043125, 9.997882 
2.3552255e+3, 1.9693859e+2, -656792.75, -1081146.8, -17716.865, -0.02820085, -0.33674014, -656054.4, 353912.06, 0.0000011539311, 10.003554, 9.99793 
2.3551597e+3, 2.0693667e+2, -657078.75, -937991.94, -19501.15, -0.035374016, -0.34261313, -655731.44, 256253.81, 0.0, 10.00248, 9.998756 
2.3550935e+3, 2.1693495e+2, -742526.4, -932264.94, -6433.7036, -0.048953656, -0.37169468, -742308.44, 71693.66, 0.0, 10.001235, 9.998723 
2.3550281e+3, 2.2693388e+2, -750679.2, -827689.44, -1325.0416, -0.025038231, -0.35344616, -750656.4, -34642.816, 0.0, 10.0002575, 9.999239 
2.3549628e+3, 2.3693329e+2, -768050.25, -771914.7, -14965.026, 0.014756147, -0.31759527, -754893.2, -136872.56, 0.0, 9.999407, 9.999359 
2.354897e+3, 2.4693298e+2, -734185.56, -577701.94, -17541.955, 0.005316239, -0.32444105, -575759.56, -55736.426, 0.0, 9.99842, 10.000495 
2.3548308e+3, 2.5693297e+2, -795565.1, -565210.6, -1434.7917, -0.026463429, -0.35435104, -565201.7, -143179.8, 0.0, 9.997363, 10.000418 
2.3547651e+3, 2.6693332e+2, -801355.1, -482282.38, -6260.8247, 0.002477029, -0.35276058, -482159.6, -158140.38, 0.0, 9.996502, 10.000728 
2.3547e+3, 2.7693403e+2, -808519.7, -421127.88, -16510.025, 0.060468607, -0.33692253, -420425.53, -194411.67, 0.0, 9.99572, 10.000853 
2.3546341e+3, 2.8693533e+2, -800017.0, -244849.02, -13748.852, 0.05091161, -0.3283167, -244508.73, -116507.516, 0.0, 9.994583, 10.001938 
2.3545676e+3, 2.9693705e+2, -902473.75, -260415.22, -7690.593, 0.0025424452, -0.33219525, -260323.11, -230338.95, 0.0, 9.9932785, 10.001788 
2.3545027e+3, 3.0693948e+2, -867306.75, -67125.3, -9117.907, 0.08434496, -0.306469, -67021.414, -67021.414, 0.0, 9.992532, 10.003141 
2.3544376e+3, 3.1694287e+2, -976324.94, -127322.695, -17888.475, 0.10246878, -0.27241093, -126945.95, -126945.95, 0.0, 9.991829, 10.003059 
2.3656987e+3, 1.2703042e+2, -1093892.9, -1721335.4, -19683.27, -0.2014443, -0.37145904, -1093276.0, 601788.06, 0.4602862, 10.010167, 9.99506 
2.3656312e+3, 1.370247e+2, -882361.7, -1598302.9, -15347.125, -0.032576542, -0.45876342, -882032.8, 715086.0, 0.3378159, 10.009752, 9.995432 
2.365564e+3, 1.470211e+2, -739977.5, -1487293.8, 40536.59, -0.0029400303, -0.372817, -737785.1, 761369.6, 0.21123385, 10.008647, 9.996066 
2.3654963e+3, 1.5701704e+2, -718763.94, -1479089.6, 33168.207, -0.09013039, -0.3641293, -717319.75, 683876.0, 0.10580099, 10.007262, 9.996098 
2.3654293e+3, 1.6701315e+2, -648447.06, -1332604.0, 15852.322, -0.09707987, -0.37924707, -648079.94, 655154.56, 0.039030675, 10.006322, 9.996882 
2.3653623e+3, 1.770097e+2, -632761.1, -1277802.9, 14364.625, -0.06316609, -0.39386526, -632441.4, 572827.4, 0.008904964, 10.005579, 9.996945 
2.3652954e+3, 1.8700702e+2, -632974.25, -1131695.3, 26436.248, -0.04348468, -0.37878868, -631576.8, 475718.38, 0.00073370704, 10.004449, 9.99782 
2.3652288e+3, 1.9700488e+2, -719064.94, -1115285.4, 29016.639, -0.032056008, -0.35545564, -716951.25, 292365.16, 0.0000011146645, 10.003149, 9.997887 
2.365162e+3, 2.0700304e+2, -688292.06, -949507.5, 20830.006, -0.039480943, -0.35189888, -686641.44, 224692.98, 0.0, 10.0022545, 9.998783 
2.3650947e+3, 2.1700153e+2, -695992.5, -906471.6, 12710.405, -0.053950705, -0.36079016, -695227.7, 118121.51, 0.0, 10.001545, 9.998749 
2.3650281e+3, 2.2700033e+2, -726973.9, -817287.25, 23839.406, -0.030390857, -0.35628036, -721067.44, -5705.5845, 0.0, 10.000429, 9.999226 
2.364962e+3, 2.3699944e+2, -807859.8, -788732.0, 33763.004, 0.01193403, -0.347751, -763204.5, -145832.95, 0.0, 9.999129, 9.999374 
2.364895e+3, 2.4699928e+2, -752684.94, -574683.4, 27973.055, 0.0049045463, -0.34469464, -570390.94, -51018.438, 0.0, 9.998247, 10.000595 
2.3648281e+3, 2.5699964e+2, -764072.56, -539946.1, 18644.133, -0.02591132, -0.34822518, -538405.8, -117038.1, 0.0, 9.99754, 10.000503 
2.3647615e+3, 2.669999e+2, -801127.4, -480934.53, 18644.846, 0.0034424653, -0.35326946, -479852.47, -156487.14, 0.0, 9.996505, 10.000732 
2.3646954e+3, 2.770004e+2, -865822.7, -445851.1, 29688.535, 0.06984299, -0.36012292, -443762.75, -218400.61, 0.0, 9.995321, 10.000871 
2.3646286e+3, 2.8700173e+2, -808237.56, -243341.86, 21737.63, 0.07516852, -0.35154584, -242506.61, -115157.3, 0.0, 9.994511, 10.001979 
2.3645613e+3, 2.9700357e+2, -825188.7, -223959.47, 8619.804, 0.026597617, -0.34393585, -223835.9, -194504.95, 0.0, 9.993819, 10.001775 
2.3644948e+3, 3.0700585e+2, -859887.9, -108696.39, 38644.574, 0.048503514, -0.3083054, -106713.58, -106713.58, 0.0, 9.992781, 10.002734 
2.364429e+3, 3.1700718e+2, -994304.0, -146028.66, 749.98755, 0.07303698, -0.44710281, -146028.0, -146028.0, 0.0, 9.9917555, 10.002964 
2.3757093e+3, 1.2709735e+2, -1057514.5, -1661888.5, -25791.834, -0.13641559, -0.42902452, -1056415.8, 637992.25, 0.44459662, 10.010108, 9.995666 
2.3756401e+3, 1.3709305e+2, -861533.25, -1571632.9, -29245.988, -0.08894819, -0.42113236, -860330.75, 736117.75, 0.32634556, 10.009698, 9.99572 
2.3755717e+3, 1.4708915e+2, -749567.44, -1526878.3, -280.94205, -0.0523997, -0.35646105, -749567.4, 748919.75, 0.20393747, 10.008634, 9.995784 
2.3755036e+3, 1.5708423e+2, -728472.8, -1513835.4, -7287.111, -0.056223024, -0.40815422, -728405.2, 672131.7, 0.10189188, 10.00728, 9.995852 
2.3754355e+3, 1.6708048e+2, -652069.25, -1344898.3, -8049.0, -0.056745958, -0.39579165, -651975.75, 650599.0, 0.037352968, 10.006327, 9.9967985 
2.3753677e+3, 1.770776e+2, -638170.8, -1285562.0, -14382.266, -0.055150483, -0.34322917, -637851.44, 566752.25, 0.008401606, 10.005557, 9.996905 
2.3752996e+3, 1.8707465e+2, -625731.4, -1114843.0, -20404.463, -0.05909915, -0.36208487, -624881.6, 481750.7, 0.0006655589, 10.0044365, 9.997944 
2.3752314e+3, 1.970718e+2, -715454.94, -1109345.1, -13063.114, -0.065739386, -0.41968736, -715022.2, 293637.0, 0.00000092378025, 10.003152, 9.99793 
2.3751636e+3, 2.070701e+2, -704546.25, -985414.2, -3439.8784, -0.053156614, -0.38983294, -704504.1, 206172.36, 0.0, 10.002259, 9.998537 
2.3750962e+3, 2.170691e+2, -706404.3, -928288.75, -15584.765, -0.03273851, -0.32337657, -705315.0, 107372.53, 0.0, 10.001541, 9.998603 
2.3750283e+3, 2.2706771e+2, -707555.4, -778322.25, -24215.182, -0.028003104, -0.34837276, -700062.7, 14638.274, 0.0, 10.000431, 9.999495 
2.3749605e+3, 2.3706628e+2, -796035.6, -765158.44, -10203.99, -0.027792692, -0.4186697, -762091.06, -145377.36, 0.0, 9.999128, 9.999539 
2.3748931e+3, 2.4706611e+2, -770093.6, -612508.9, 952.10144, -0.0031242731, -0.4082309, -612503.1, -93787.875, 0.0, 9.998251, 10.000337 
2.3748259e+3, 2.5706676e+2, -772676.0, -561220.3, -12898.351, 0.025991356, -0.36011556, -560436.44, -139726.97, 0.0, 9.997552, 10.000354 
2.3747581e+3, 2.6706737e+2, -778288.0, -434926.0, -28886.695, 0.019930474, -0.34148917, -432512.75, -109809.38, 0.0, 9.996505, 10.001051 
2.3746899e+3, 2.7706814e+2, -854801.7, -422523.1, -11367.28, 0.014149995, -0.35171336, -422224.38, -197527.83, 0.0, 9.995315, 10.001038 
2.3746231e+3, 2.8706884e+2, -828054.6, -286700.28, -4633.951, 0.08914464, -0.3930583, -286660.63, -159970.5, 0.0, 9.994515, 10.001681 
2.3745559e+3, 2.970702e+2, -818961.3, -219492.22, -24232.268, 0.14885217, -0.40654588, -218514.28, -189837.0, 0.0, 9.993851, 10.001793 
2.3744863e+3, 3.0707353e+2, -861632.5, -113173.664, -7174.6973, -0.04993151, -0.27953202, -113104.89, -113104.89, 0.0, 9.992781, 10.002706 
2.3744212e+3, 3.170735e+2, -973433.75, -101835.836, -11064.61, 0.13802983, -0.52624434, -101695.4, -101695.4, 0.0, 9.991747, 10.003274 
2.38572e+3, 1.2716646e+2, -1056272.3, -1667632.9, 12301.304, -0.03807667, -0.40420714, -1056024.9, 637706.44, 0.42778322, 10.00987, 9.995699 
2.3856492e+3, 1.371619e+2, -884572.5, -1594564.3, -6233.4663, -0.12420373, -0.41398174, -884517.75, 711256.56, 0.3138989, 10.009368, 9.995642 
2.3855798e+3, 1.4715782e+2, -746734.7, -1534574.0, 11724.685, -0.093505666, -0.35924265, -746560.25, 751254.25, 0.19593, 10.008621, 9.995732 
2.3855112e+3, 1.5715294e+2, -668361.6, -1487200.8, 17159.83, -0.03281034, -0.40069407, -668002.2, 731861.5, 0.09757403, 10.007733, 9.995815 
2.385442e+3, 1.6714914e+2, -628549.3, -1331927.8, 26835.148, -0.035839126, -0.39113486, -627527.0, 674374.9, 0.03550036, 10.006482, 9.99681 
2.3853725e+3, 1.7714617e+2, -704454.56, -1317201.9, 27841.498, -0.068148464, -0.34699062, -703192.1, 500739.44, 0.007847098, 10.005098, 9.996906 
2.3853035e+3, 1.8714322e+2, -660905.56, -1135385.3, 19981.896, -0.070098706, -0.36161843, -660065.56, 445894.6, 0.0005904234, 10.004216, 9.997906 
2.3852347e+3, 1.9714041e+2, -660060.25, -1085900.3, 14945.941, -0.058180112, -0.41136238, -659536.3, 348450.53, 0.0000006457051, 10.0035515, 9.997894 
2.3851658e+3, 2.0713858e+2, -681001.9, -975701.3, 30737.385, -0.048620243, -0.38981828, -677830.06, 232175.14, 0.0, 10.002434, 9.998517 
2.3850971e+3, 2.1713743e+2, -767721.1, -957297.6, 33722.4, -0.039589368, -0.33616942, -761901.2, 50116.36, 0.0, 10.001123, 9.998603 
2.3850283e+3, 2.2713605e+2, -718396.8, -775132.25, 22933.18, -0.03856735, -0.36082298, -710286.4, 3743.9404, 0.0, 10.000325, 9.999565 
2.3849595e+3, 2.3713474e+2, -705375.6, -717043.7, 21781.82, -0.037528127, -0.42642856, -688660.06, -72618.445, 0.0, 9.999737, 9.999575 
2.384891e+3, 2.4713448e+2, -734095.7, -604825.9, 34046.22, -0.002679581, -0.42034844, -596407.25, -78363.055, 0.0, 9.998545, 10.000245 
2.3848233e+3, 2.5713488e+2, -842066.25, -600169.94, 33006.21, 0.043472648, -0.38022065, -595747.2, -175706.66, 0.0, 9.997106, 10.000298 
2.3847541e+3, 2.6713556e+2, -794905.4, -431634.4, 15584.515, 0.025217224, -0.3639256, -430967.03, -108932.64, 0.0, 9.996349, 10.001145 
2.3846851e+3, 2.7713642e+2, -773198.4, -376674.2, 14091.022, -0.006417824, -0.37183237, -376174.06, -152147.7, 0.0, 9.9958515, 10.00109 
2.3846175e+3, 2.871373e+2, -798400.44, -278281.06, 25516.797, 0.08311299, -0.38993537, -277032.22, -151014.11, 0.0, 9.994751, 10.001622 
2.3845498e+3, 2.971388e+2, -883315.44, -253876.84, 21772.656, 0.17855164, -0.38031262, -253124.61, -225120.56, 0.0, 9.993433, 10.001754 
2.3844787e+3, 3.071411e+2, -900807.5, -151617.77, 19097.465, -0.050686136, -0.34884745, -151131.27, -151131.27, 0.0, 9.9926, 10.002526 
2.3844129e+3, 3.171447e+2, -877827.44, 115426.52, 8934.458, 0.17273651, -0.21087135, 115506.88, 115506.88, 0.0, 9.9916725, 10.004799 
2.3957308e+3, 1.2723725e+2, -1050989.0, -1697763.6, -138.39705, 0.07076424, -0.31778792, -1050989.0, 642049.5, 0.4107662, 10.009871, 9.995362 
2.3956579e+3, 1.3723119e+2, -887226.9, -1643098.4, -19052.047, -0.1449528, -0.43560064, -886746.94, 708349.56, 0.30112273, 10.00937, 9.995308 
2.3955879e+3, 1.4722703e+2, -735096.9, -1522778.1, -12987.62, -0.12824261, -0.38162252, -734882.8, 762254.7, 0.18759368, 10.008605, 9.995825 
2.3955189e+3, 1.5722294e+2, -664531.3, -1477091.8, -14500.622, -0.021025795, -0.35101655, -664272.6, 734905.7, 0.093035094, 10.007687, 9.99591 
2.3954482e+3, 1.6721897e+2, -625262.3, -1322989.3, -21641.305, -0.034556013, -0.36799923, -624591.75, 676625.8, 0.033550207, 10.006456, 9.996886 
2.3953772e+3, 1.7721535e+2, -702483.4, -1316092.5, -15740.554, -0.101515956, -0.39629954, -702079.9, 501173.2, 0.0072670537, 10.005104, 9.996914 
2.3953074e+3, 1.8721265e+2, -673803.2, -1164508.4, -2216.4226, -0.07705852, -0.37331328, -673793.2, 431486.53, 0.00051324535, 10.004222, 9.997705 
2.3952383e+3, 1.972105e+2, -669601.7, -1104380.6, -12361.214, -0.014521462, -0.33700773, -669250.56, 338050.56, 0.00000036108204, 10.003541, 9.997775 
2.3951682e+3, 2.0720834e+2, -669199.06, -951152.8, -17243.17, -0.028831055, -0.35586596, -668148.5, 241173.5, 0.0, 10.002429, 9.998691 
2.3950976e+3, 2.1720637e+2, -760456.06, -942767.2, -7480.9736, -0.07538299, -0.39875355, -760149.6, 51190.78, 0.0, 10.001121, 9.998706 
2.3950283e+3, 2.2720528e+2, -727461.0, -795870.1, 3147.8735, -0.061636, -0.39192244, -727316.44, -13965.586, 0.0, 10.000329, 9.999423 
2.3949592e+3, 2.3720473e+2, -711018.56, -731784.56, -6617.9155, -0.02109495, -0.36746672, -709088.8, -93732.74, 0.0, 9.999745, 9.999472 
2.3948896e+3, 2.4720427e+2, -728956.9, -596388.3, -22640.346, 0.003886617, -0.3792922, -592628.44, -75268.35, 0.0, 9.998549, 10.000303 
2.3948199e+3, 2.5720403e+2, -841616.5, -599440.2, -14780.99, 0.020064611, -0.41135705, -598541.4, -179179.52, 0.0, 9.997102, 10.000307 
2.3947503e+3, 2.672043e+2, -806581.94, -457171.63, -3019.9214, 0.017835464, -0.42324623, -457145.5, -135786.0, 0.0, 9.996351, 10.000971 
2.394681e+3, 2.7720514e+2, -774381.5, -386349.2, -12841.969, 0.013102944, -0.41649917, -385924.66, -162572.34, 0.0, 9.995878, 10.001014 
2.3946115e+3, 2.872071e+2, -785531.2, -254384.66, -28613.078, 0.052745502, -0.3371159, -252847.7, -127513.98, 0.0, 9.994759, 10.001785 
2.394542e+3, 2.972093e+2, -895894.9, -275231.34, -21175.35, 0.09088176, -0.2727096, -274509.75, -247196.94, 0.0, 9.993407, 10.001622 
2.3944724e+3, 3.0720857e+2, -925125.06, -201027.48, -10677.634, 0.06822824, -0.5074449, -200870.06, -200870.06, 0.0, 9.99259, 10.002195 
2.3944035e+3, 3.1721413e+2, -925938.25, 6273.365, -60940.664, 0.09672349, -0.15266867, 10240.306, 10240.306, 0.0, 9.991703, 10.004039 
2.4057405e+3, 1.2730779e+2, -1012540.94, -1696143.8, 15854.01, 0.08441718, -0.32335496, -1012173.44, 680173.5, 0.39414716, 10.0101595, 9.995236 
2.4056675e+3, 1.3730183e+2, -853894.44, -1640216.4, 7981.2505, -0.12037035, -0.4131583, -853813.44, 740591.75, 0.28847063, 10.009614, 9.99521 
2.4055962e+3, 1.4729756e+2, -733922.44, -1507979.8, 8683.166, -0.12050218, -0.3760142, -733825.0, 762622.06, 0.17921716, 10.008474, 9.995987 
2.4055256e+3, 1.5729351e+2, -733521.25, -1500920.8, 13802.598, -0.033233155, -0.35523582, -733273.06, 665213.56, 0.08842597, 10.00708, 9.996036 
2.4054544e+3, 1.672896e+2, -663425.2, -1339861.0, 11531.079, -0.04064388, -0.37122503, -663228.7, 637296.4, 0.031566314, 10.006168, 9.996906 
2.4053824e+3, 1.77286e+2, -649762.2, -1290448.5, 14454.706, -0.09102933, -0.39787224, -649436.25, 553124.0, 0.0066831433, 10.005469, 9.996911 
2.4053115e+3, 1.8728325e+2, -652511.44, -1163034.5, 34400.375, -0.07125108, -0.37405193, -650203.9, 454383.84, 0.00043854077, 10.004411, 9.9976225 
2.4052414e+3, 1.9728105e+2, -723259.75, -1135501.9, 30228.773, -0.021381572, -0.33270553, -721054.94, 285555.0, 0.00000014397028, 10.0032015, 9.997723 
2.4051702e+3, 2.072788e+2, -688397.3, -954876.56, 18197.51, -0.032676388, -0.35761222, -687160.4, 221470.75, 0.0, 10.002279, 9.998734 
2.4050988e+3, 2.1727675e+2, -707675.3, -914086.2, 19180.09, -0.06865699, -0.41427848, -705908.2, 104741.71, 0.0, 10.001474, 9.99873 
2.4050283e+3, 2.2727568e+2, -720623.94, -796523.2, 37526.03, -0.055799115, -0.4012246, -705203.4, 7456.8384, 0.0, 10.000398, 9.999383 
2.4049585e+3, 2.3727526e+2, -791990.2, -775224.56, 34130.992, -0.019703614, -0.3587346, -748462.0, -133797.33, 0.0, 9.999213, 9.999428 
2.4048877e+3, 2.4727476e+2, -747708.6, -610923.9, 10399.673, -0.0019931786, -0.36894011, -610137.75, -93468.45, 0.0, 9.998448, 10.00025 
2.4048169e+3, 2.5727436e+2, -739547.06, -553436.0, 10650.23, 0.007295627, -0.41102386, -552828.5, -134155.88, 0.0, 9.99782, 10.000275 
2.4047466e+3, 2.6727453e+2, -756903.9, -425722.6, 36229.273, 0.0150012765, -0.43355468, -421805.66, -101134.7, 0.0, 9.996665, 10.001033 
2.4046762e+3, 2.7727535e+2, -853474.94, -418126.03, 41055.844, 0.0277426, -0.42876554, -414288.06, -191624.89, 0.0, 9.9953165, 10.001062 
2.4046059e+3, 2.8727755e+2, -822270.7, -272741.28, 16965.06, 0.049385387, -0.32608834, -272218.03, -147575.7, 0.0, 9.994515, 10.001774 
2.4045351e+3, 2.9727975e+2, -824174.06, -243427.95, 15644.315, 0.062492397, -0.25943616, -243006.83, -216385.17, 0.0, 9.993915, 10.001594 
2.4044654e+3, 3.0727854e+2, -853918.4, -150444.55, 56024.375, 0.10171653, -0.5455725, -146010.73, -146010.73, 0.0, 9.993015, 10.002334 
2.404395e+3, 3.1728175e+2, -1014832.0, -164864.42, -8448.088, 0.091373324, -0.44446582, -164780.47, -164780.47, 0.0, 9.991659, 10.002877 
2.4157497e+3, 1.2737814e+2, -995260.5, -1694260.3, 2899.3845, 0.020777943, -0.41037482, -995248.44, 696408.1, 0.37822694, 10.010141, 9.995255 
2.4156775e+3, 1.3737372e+2, -845857.06, -1637099.1, -8754.528, -0.06415377, -0.34745875, -845760.2, 747941.3, 0.2762017, 10.009539, 9.995269 
2.4156047e+3, 1.473693e+2, -719150.94, -1484713.5, -32978.38, -0.08509436, -0.34086442, -717732.94, 778011.7, 0.17099011, 10.008433, 9.996184 
2.4155322e+3, 1.573646e+2, -720104.7, -1481211.0, -27269.63, -0.069204636, -0.4038759, -719128.94, 678660.5, 0.083857566, 10.007088, 9.99617 
2.4154599e+3, 1.6736092e+2, -664631.44, -1347340.3, -11631.239, -0.05260848, -0.39783973, -664433.4, 635392.1, 0.029598288, 10.006173, 9.996856 
2.415388e+3, 1.773579e+2, -654434.9, -1297042.9, -13583.294, -0.042864457, -0.3617561, -654147.9, 547707.6, 0.006112531, 10.005448, 9.996879 
2.415316e+3, 1.8735485e+2, -654245.75, -1164008.9, -9518.69, -0.05672789, -0.3673099, -654068.06, 449817.66, 0.00036985413, 10.004395, 9.997626 
2.4152437e+3, 1.9735199e+2, -725402.0, -1139768.6, -9425.528, -0.07731014, -0.39187533, -725187.7, 280726.28, 0.00000003444413, 10.003197, 9.997698 
2.4151722e+3, 2.0734994e+2, -694749.25, -969483.94, -9750.633, -0.05799916, -0.39016598, -694403.6, 213529.75, 0.0, 10.002281, 9.998635 
2.4151006e+3, 2.1734843e+2, -712862.75, -924971.9, -11724.6, -0.024379823, -0.38263002, -712216.6, 97730.62, 0.0, 10.00147, 9.99866 
2.4150288e+3, 2.2734715e+2, -717147.44, -790568.25, -6237.2656, -0.024063084, -0.38960063, -716621.4, -4662.0405, 0.0, 10.000399, 9.999426 
2.4149573e+3, 2.373462e+2, -792488.94, -777793.94, -5352.5186, -0.03522578, -0.40265474, -776051.06, -162082.47, 0.0, 9.999215, 9.999412 
2.4148858e+3, 2.473458e+2, -760229.1, -638687.8, -13052.961, -0.0204048, -0.39011472, -637301.75, -121328.914, 0.0, 9.998452, 10.000059 
2.4148144e+3, 2.573458e+2, -742127.5, -564733.94, -19962.822, 0.0021465167, -0.37385678, -562515.2, -144541.78, 0.0, 9.997841, 10.00019 
2.4147429e+3, 2.673462e+2, -735117.3, -383585.06, -18105.115, 0.015548291, -0.39036706, -382655.06, -62686.02, 0.0, 9.996673, 10.001322 
2.4146713e+3, 2.773471e+2, -845119.7, -397396.44, -4753.2695, 0.032088354, -0.4090795, -397346.0, -175386.56, 0.0, 9.9952965, 10.001217 
2.4146004e+3, 2.8734863e+2, -836580.56, -301241.56, -4430.9985, 0.07545284, -0.36333978, -301204.88, -177260.08, 0.0, 9.994506, 10.001585 
2.4145293e+3, 2.973502e+2, -812087.6, -227646.95, -8041.099, 0.10603741, -0.34299597, -227536.34, -201605.52, 0.0, 9.99395, 10.001688 
2.4144572e+3, 3.0735117e+2, -814908.6, -75453.875, 13487.543, 0.028284013, -0.45386446, -75207.945, -75207.945, 0.0, 9.993035, 10.002842 
2.4143867e+3, 3.173548e+2, -937398.75, -1675.4193, -73846.21, 0.11993459, -0.34651035, 4116.587, 4116.587, 0.0, 9.991638, 10.004014 
2.4257596e+3, 1.2744997e+2, -942637.44, -1663900.4, 12649.877, -0.024687113, -0.44057947, -942415.6, 748536.44, 0.3630582, 10.010442, 9.995423 
2.4256863e+3, 1.3744627e+2, -912682.4, -1672094.0, 12218.668, -0.051276233, -0.32194376, -912485.8, 680504.7, 0.2644037, 10.008727, 9.995419 
2.4256128e+3, 1.4744183e+2, -774865.7, -1505867.3, -4239.653, -0.07298763, -0.3267251, -774841.06, 720192.6, 0.16300632, 10.007862, 9.996297 
2.425539e+3, 1.5743704e+2, -678382.44, -1452725.0, -1654.5814, -0.079690024, -0.4098912, -678378.9, 718700.56, 0.079399705, 10.007343, 9.99624 
2.425466e+3, 1.674333e+2, -646848.44, -1345048.9, 11851.345, -0.05864939, -0.40680602, -646647.3, 652468.7, 0.0276825, 10.006321, 9.996798 
2.425393e+3, 1.7743026e+2, -705960.8, -1323091.6, 9541.127, -0.033217777, -0.36637962, -705813.4, 495332.9, 0.005568334, 10.005101, 9.996863 
2.4253199e+3, 1.8742731e+2, -678466.3, -1162032.8, 17837.504, -0.056228295, -0.36712244, -677809.2, 425366.2, 0.0003094319, 10.004175, 9.997743 
2.4252465e+3, 1.9742458e+2, -695873.44, -1118418.1, 24557.725, -0.094203666, -0.38955382, -694450.94, 310751.34, 0.000000003872902, 10.003371, 9.997758 
2.4251741e+3, 2.074224e+2, -683039.4, -975621.9, 28726.008, -0.06460512, -0.39452523, -680245.7, 226977.1, 0.0, 10.002417, 9.998526 
2.4251018e+3, 2.174207e+2, -728691.06, -939925.06, 23696.986, -0.009002992, -0.39232105, -726065.25, 83173.086, 0.0, 10.0014, 9.998589 
2.425029e+3, 2.2741944e+2, -703585.3, -780119.44, 24908.71, -0.014359995, -0.39648968, -696192.6, 15057.668, 0.0, 10.000481, 9.999455 
2.4249563e+3, 2.3741852e+2, -737070.9, -749522.25, 26853.252, -0.04052651, -0.4077769, -715731.06, -102471.945, 0.0, 9.999594, 9.99942 
2.424884e+3, 2.4741806e+2, -754457.25, -642188.56, 31804.756, -0.027382294, -0.3973749, -633804.6, -118540.35, 0.0, 9.998525, 9.999998 
2.4248117e+3, 2.57418e+2, -811105.1, -601903.44, 31052.408, 0.00021746734, -0.38005477, -597391.56, -180125.72, 0.0, 9.997391, 10.000148 
2.4247393e+3, 2.674185e+2, -754985.1, -392156.56, 13227.441, 0.012963598, -0.38094464, -391675.0, -72414.88, 0.0, 9.996537, 10.001326 
2.4246667e+3, 2.7741948e+2, -780351.9, -366964.66, 6267.4004, 0.030710094, -0.3909879, -366869.66, -145620.22, 0.0, 9.995747, 10.001207 
2.4245949e+3, 2.874205e+2, -798813.7, -280820.63, 21326.033, 0.096389085, -0.39598882, -279944.1, -156704.55, 0.0, 9.9947605, 10.001599 
2.4245232e+3, 2.9742175e+2, -835771.8, -223468.88, 28633.648, 0.14584458, -0.40952295, -222132.77, -196904.39, 0.0, 9.99373, 10.001818 
2.4244492e+3, 3.074242e+2, -875692.44, -79577.97, 18641.193, -0.031588685, -0.3921005, -79141.73, -79141.73, 0.0, 9.992515, 10.003062 
2.4243782e+3, 3.1742695e+2, -881871.9, 131475.34, -24195.494, 0.14626646, -0.39055377, 132052.72, 132052.72, 0.0, 9.991562, 10.004965 
2.435769e+3, 1.2752314e+2, -927324.06, -1646281.9, -29039.549, -0.06759217, -0.42013928, -926153.06, 764082.06, 0.34850684, 10.010307, 9.995663 
2.4356946e+3, 1.3751931e+2, -893182.06, -1645793.4, -26359.766, -0.07636455, -0.3367691, -892259.94, 700014.06, 0.25304052, 10.0087185, 9.995605 
2.4356201e+3, 1.4751501e+2, -765631.7, -1502518.6, -18642.777, -0.08045184, -0.33689365, -765160.3, 729155.94, 0.15528995, 10.007866, 9.996322 
2.435546e+3, 1.5751062e+2, -679456.1, -1454971.9, -23269.102, -0.07043737, -0.38145232, -678758.6, 717600.1, 0.0750897, 10.007304, 9.996246 
2.4354719e+3, 1.6750664e+2, -654509.5, -1358563.6, -30579.291, -0.062816165, -0.39918357, -653183.9, 645213.9, 0.025842944, 10.006292, 9.996721 
2.4353977e+3, 1.7750308e+2, -706748.06, -1325869.3, -28974.32, -0.061162747, -0.40294188, -705395.06, 495037.6, 0.0050590932, 10.005099, 9.996848 
2.4353237e+3, 1.8750058e+2, -665180.2, -1135771.8, -9385.461, -0.06843783, -0.37044188, -664993.1, 437464.25, 0.0002581657, 10.004175, 9.997925 
2.4352497e+3, 1.974986e+2, -689799.06, -1104359.0, -5089.853, -0.07709213, -0.33259976, -689736.6, 314740.13, 0.0000000002134854, 10.003361, 9.997863 
2.4351762e+3, 2.0749603e+2, -692738.8, -995757.75, -8187.3823, -0.05553811, -0.37446105, -692517.75, 213983.22, 0.0, 10.002412, 9.998392 
2.4351028e+3, 2.1749349e+2, -736068.6, -955957.7, -11211.685, -0.02384242, -0.44386405, -735498.44, 73026.08, 0.0, 10.001398, 9.998482 
2.4350293e+3, 2.2749245e+2, -703167.7, -780714.06, -6822.0967, -0.02620573, -0.42127448, -702572.1, 7962.0347, 0.0, 10.000483, 9.999452 
2.4349555e+3, 2.3749216e+2, -735934.8, -748607.8, -8420.399, -0.04000987, -0.37002927, -731733.06, -119196.195, 0.0, 9.999596, 9.999429 
2.4348824e+3, 2.4749142e+2, -750316.25, -634937.94, -12834.533, -0.024571177, -0.38971663, -633527.5, -118983.24, 0.0, 9.998526, 10.00005 
2.4348089e+3, 2.5749078e+2, -813427.5, -607404.5, -9041.207, -0.0012691835, -0.43337765, -607008.5, -190457.6, 0.0, 9.997389, 10.0001135 
2.4347353e+3, 2.6749137e+2, -777597.94, -440233.44, -16781.518, 0.0064065, -0.40830696, -439400.72, -120855.48, 0.0, 9.996537, 10.000998 
2.4346621e+3, 2.7749246e+2, -790608.44, -395354.03, -27285.168, 0.022421261, -0.3715331, -393479.38, -172945.38, 0.0, 9.995772, 10.001003 
2.4345896e+3, 2.8749308e+2, -784410.5, -255698.38, -21374.139, 0.11006508, -0.4243234, -254835.7, -132308.0, 0.0, 9.994775, 10.001768 
2.4345168e+3, 2.9749417e+2, -829405.75, -207346.33, -13940.008, 0.17011487, -0.46669966, -207034.1, -182517.81, 0.0, 9.993712, 10.00194 
2.4344409e+3, 3.0749762e+2, -881099.2, -82059.336, -36931.008, -0.069894, -0.3538772, -80356.05, -80356.05, 0.0, 9.992474, 10.003068 
2.4343699e+3, 3.174985e+2, -971659.6, -60928.797, 71593.586, 0.18268465, -0.5319151, -55335.1, -55335.1, 0.0, 9.991585, 10.003634 
2.4457781e+3, 1.275974e+2, -1005739.6, -1681304.3, 51.93242, -0.13112159, -0.41267082, -1005739.6, 683766.94, 0.33433902, 10.009258, 9.995797 
2.4457031e+3, 1.375932e+2, -855938.06, -1617993.4, 5949.2466, -0.06691438, -0.3811533, -855891.6, 735656.75, 0.24200988, 10.008917, 9.995698 
2.4456279e+3, 1.4758903e+2, -757522.6, -1510776.1, 11909.627, -0.06747879, -0.36344084, -757334.4, 736255.6, 0.14782286, 10.007929, 9.996229 
2.4455528e+3, 1.5758507e+2, -754092.9, -1496436.9, 1225.7239, -0.078244, -0.3561597, -754090.8, 641538.8, 0.07093879, 10.006738, 9.996231 
2.4454775e+3, 1.675811e+2, -686816.94, -1351176.6, 5346.5977, -0.07593353, -0.3830579, -686773.94, 610894.1, 0.024089288, 10.005956, 9.996932 
2.4454026e+3, 1.7757739e+2, -665312.75, -1291511.4, 22982.496, -0.07256822, -0.42070386, -664470.4, 535233.3, 0.0045873406, 10.005322, 9.996976 
2.4453276e+3, 1.875749e+2, -657156.6, -1141496.9, 31715.408, -0.061333794, -0.3845556, -655088.7, 446639.66, 0.00021569213, 10.004276, 9.997834 
2.4452531e+3, 1.9757304e+2, -733794.56, -1130255.4, 19315.365, -0.04641297, -0.32645518, -732855.75, 270891.13, 0.00000000008671795, 10.003088, 9.997812 
2.4451785e+3, 2.075704e+2, -714949.6, -1004082.8, 23142.145, -0.04475475, -0.37114963, -713109.0, 192662.7, 0.0, 10.002256, 9.998406 
2.4451038e+3, 2.1756771e+2, -713935.1, -944297.9, 27588.729, -0.046151727, -0.45457575, -710677.1, 97119.625, 0.0, 10.00155, 9.9984865 
2.4450293e+3, 2.2756664e+2, -704229.6, -781696.4, 28918.596, -0.035363752, -0.4331775, -694625.0, 15181.416, 0.0, 10.000483, 9.999443 
2.4449551e+3, 2.375664e+2, -782398.6, -771276.5, 27644.02, -0.018248966, -0.3763119, -748639.75, -136831.2, 0.0, 9.999285, 9.999419 
2.4448806e+3, 2.475656e+2, -770127.9, -647386.94, 21791.557, -0.0052281437, -0.39872897, -643632.9, -129816.41, 0.0, 9.998406, 10.000019 
2.4448061e+3, 2.575648e+2, -781549.25, -596353.94, 20032.3, 0.0046173236, -0.44995797, -594211.9, -178387.55, 0.0, 9.99763, 10.000072 
2.4447317e+3, 2.6756534e+2, -758398.3, -442110.25, 25600.992, 0.006960772, -0.42122298, -440051.47, -122232.19, 0.0, 9.996721, 10.000894 
2.4446577e+3, 2.775664e+2, -796879.2, -406433.1, 29032.256, 0.022193747, -0.37843606, -404286.16, -184477.42, 0.0, 9.99577, 10.000924 
2.4445839e+3, 2.875668e+2, -778421.7, -255412.56, 23316.605, 0.104658715, -0.44386116, -254375.13, -132571.1, 0.0, 9.994831, 10.001741 
2.4445103e+3, 2.9756775e+2, -822902.25, -218276.98, 12784.729, 0.15819669, -0.497945, -218006.78, -194212.8, 0.0, 9.993816, 10.001816 
2.4444334e+3, 3.0757156e+2, -822695.1, -77912.336, -29690.256, -0.07051532, -0.32650793, -76730.625, -76730.625, 0.0, 9.992979, 10.0028515 
2.4443616e+3, 3.1757328e+2, -938577.8, -137509.13, 118171.02, 0.17942639, -0.40006262, -120440.61, -120440.61, 0.0, 9.992221, 10.002796 
2.4557862e+3, 1.276725e+2, -986168.7, -1666509.6, -7530.914, -0.2121417, -0.423221, -986085.3, 702684.2, 0.32035926, 10.009236, 9.995951 
2.4557121e+3, 1.3766792e+2, -850735.44, -1616711.0, -8372.688, -0.037573885, -0.4417729, -850643.9, 740169.9, 0.23121077, 10.008847, 9.99574 
2.4556358e+3, 1.476639e+2, -770014.9, -1550190.5, -25052.705, -0.04495038, -0.39537176, -769211.25, 723643.75, 0.14056902, 10.0078945, 9.99598 
2.4555591e+3, 1.5766028e+2, -754873.44, -1506098.0, -32056.777, -0.10427541, -0.33216104, -753508.0, 641385.0, 0.06693888, 10.006739, 9.996168 
2.4554832e+3, 1.6765653e+2, -657619.3, -1291383.1, -14435.211, -0.09799455, -0.3619747, -657290.7, 639638.2, 0.022419272, 10.00595, 9.997349 
2.4554075e+3, 1.7765294e+2, -653476.5, -1262211.1, -4476.4624, -0.07024152, -0.42549983, -653443.6, 545518.4, 0.004150991, 10.005296, 9.997192 
2.455332e+3, 1.8765011e+2, -682476.4, -1192067.3, -12237.655, -0.03797175, -0.4089896, -682182.6, 418807.13, 0.0001807804, 10.004262, 9.997498 
2.4552563e+3, 1.976478e+2, -748485.06, -1161707.8, -18072.887, -0.0064774854, -0.36516136, -747696.1, 255317.27, 0.00000000016280782, 10.003087, 9.997599 
2.4551807e+3, 2.0764546e+2, -705156.2, -985022.25, -624.1231, -0.033440154, -0.38140744, -705154.8, 199880.97, 0.0, 10.002257, 9.998539 
2.4551047e+3, 2.1764329e+2, -708847.75, -932482.56, -1011.7423, -0.079020076, -0.42375875, -708843.2, 98212.78, 0.0, 10.001539, 9.998575 
2.4550295e+3, 2.2764194e+2, -707332.2, -788936.4, -15110.34, -0.042656723, -0.43248445, -704624.1, 4444.009, 0.0, 10.000482, 9.999396 
2.4549544e+3, 2.376411e+2, -786145.75, -781748.94, -13364.613, 0.023151917, -0.4290594, -770403.1, -159327.77, 0.0, 9.999291, 9.999347 
2.4548791e+3, 2.4764046e+2, -778268.06, -666417.44, -8559.205, 0.030729074, -0.42516434, -665766.25, -152684.19, 0.0, 9.998411, 9.999888 
2.4548037e+3, 2.576401e+2, -784313.4, -605192.1, -12218.736, 0.014455229, -0.42326707, -604362.5, -189276.1, 0.0, 9.997639, 10.00001 
2.4547283e+3, 2.6764044e+2, -748844.3, -424601.4, -12023.663, 0.013851654, -0.41922054, -424156.16, -107073.37, 0.0, 9.996727, 10.001014 
2.4546531e+3, 2.7764118e+2, -793418.7, -400497.72, -5800.0728, 0.027359614, -0.41960293, -400412.13, -181337.5, 0.0, 9.995771, 10.000967 
2.4545784e+3, 2.8764182e+2, -793641.75, -287889.34, -14514.22, 0.07524781, -0.44931492, -287473.16, -166405.08, 0.0, 9.994829, 10.001522 
2.4545035e+3, 2.976428e+2, -847771.56, -274173.13, -24708.268, 0.10487539, -0.47579494, -273110.75, -250052.11, 0.0, 9.993829, 10.001429 
2.4544266e+3, 3.0764556e+2, -860880.9, -167215.7, -53007.707, -0.024939079, -0.3525651, -163188.39, -163188.39, 0.0, 9.993017, 10.002222 
2.454353e+3, 3.1764683e+2, -891714.1, -43610.184, -4694.332, 0.13729231, -0.4297106, -43584.203, -43584.203, 0.0, 9.992232, 10.003436 
2.4657954e+3, 1.2774853e+2, -969124.7, -1663966.1, 15112.331, -0.18893574, -0.4168348, -968796.2, 719227.7, 0.3064676, 10.009252, 9.995963 
2.4657202e+3, 1.3774389e+2, -887420.7, -1637616.4, 5067.4146, -0.06746926, -0.44477814, -887386.44, 702682.3, 0.22055809, 10.008397, 9.995812 
2.4656431e+3, 1.4773987e+2, -786917.2, -1542172.8, -1076.5931, -0.06382713, -0.41297033, -786915.6, 705193.9, 0.13346921, 10.007627, 9.996161 
2.4655657e+3, 1.5773624e+2, -722918.1, -1478034.3, 17490.418, -0.0882332, -0.3654559, -722513.2, 671633.75, 0.06305699, 10.006902, 9.99628 
2.465489e+3, 1.6773269e+2, -671548.6, -1305142.1, 22890.748, -0.081380256, -0.3730374, -670722.7, 625458.7, 0.020818237, 10.005879, 9.997285 
2.4654123e+3, 1.7772937e+2, -730014.06, -1297695.8, 4272.8726, -0.06602515, -0.40346006, -729981.9, 468230.94, 0.0037444935, 10.004767, 9.997199 
2.4653357e+3, 1.8772638e+2, -708068.44, -1188311.3, 11749.91, -0.040623054, -0.4116892, -707781.1, 392460.4, 0.00015173804, 10.004023, 9.997636 
2.4652593e+3, 1.9772375e+2, -699579.25, -1132547.4, 34427.48, -0.011653576, -0.41089243, -696858.8, 305408.34, 0.00000000021615258, 10.003398, 9.997649 
2.4651825e+3, 2.0772155e+2, -706020.3, -1000853.7, 43226.656, -0.02903534, -0.40373573, -699813.3, 204475.75, 0.0, 10.002321, 9.998398 
2.465106e+3, 2.177197e+2, -776985.8, -970293.7, 23093.56, -0.06159315, -0.39988783, -774265.2, 32042.385, 0.0, 10.0011015, 9.998523 
2.4650298e+3, 2.277183e+2, -720488.9, -782378.06, 15516.666, -0.03305405, -0.4181319, -716816.5, -8496.372, 0.0, 10.000341, 9.999506 
2.4649537e+3, 2.3771723e+2, -718134.5, -740851.0, 29733.865, 0.02085214, -0.44515997, -697663.3, -87334.76, 0.0, 9.999728, 9.999414 
2.4648774e+3, 2.477166e+2, -733234.9, -648126.56, 41922.285, 0.036436174, -0.43888354, -630945.2, -118610.305, 0.0, 9.99874, 9.999853 
2.464801e+3, 2.5771633e+2, -789355.6, -610073.75, 44101.016, 0.034528714, -0.42328206, -599812.75, -185474.39, 0.0, 9.997621, 9.999982 
2.4647248e+3, 2.677166e+2, -753876.9, -427998.4, 38584.3, 0.02146703, -0.4250338, -423492.3, -107156.484, 0.0, 9.9967, 10.001002 
2.4646485e+3, 2.777172e+2, -785880.94, -396544.9, 33842.61, 0.0160985, -0.43503568, -393625.06, -175295.97, 0.0, 9.995823, 10.000969 
2.4645728e+3, 2.8771806e+2, -783758.8, -277175.5, 32963.156, 0.06780099, -0.44438353, -275039.6, -154719.33, 0.0, 9.994876, 10.001572 
2.4644968e+3, 2.9771918e+2, -840961.56, -273915.5, 42817.66, 0.10712533, -0.45782545, -270700.56, -248391.31, 0.0, 9.993897, 10.001393 
2.4644195e+3, 3.0772105e+2, -878851.56, -212789.11, 55704.56, -0.019391382, -0.40194914, -208162.53, -208162.53, 0.0, 9.993063, 10.001883 
2.464345e+3, 3.177224e+2, -876993.3, 846.9349, 23537.05, 0.14294554, -0.43541685, 1477.5679, 1477.5679, 0.0, 9.992174, 10.003769 
2.4758051e+3, 1.2782547e+2, -965747.6, -1679992.6, -4128.9155, -0.09869612, -0.39522082, -965723.75, 721546.7, 0.29258248, 10.009215, 9.995816 
2.4757273e+3, 1.378209e+2, -879286.4, -1634311.4, -15823.526, -0.15144652, -0.40429693, -878954.9, 710360.06, 0.20994654, 10.008364, 9.9958515 
2.4756499e+3, 1.478167e+2, -751789.6, -1472547.9, -22377.268, -0.116852224, -0.42204952, -751095.56, 740259.94, 0.1264331, 10.007607, 9.996671 
2.4755728e+3, 1.5781283e+2, -707588.06, -1445821.9, -10607.799, -0.03764935, -0.44445464, -707435.7, 685957.1, 0.059238814, 10.006876, 9.996516 
2.4754949e+3, 1.6780953e+2, -704127.5, -1374396.0, -16723.867, -0.034331743, -0.40722254, -703710.5, 591716.0, 0.01926296, 10.005867, 9.996819 
2.4754168e+3, 1.7780662e+2, -741677.6, -1323539.4, -28927.111, -0.06401019, -0.3556227, -740243.06, 457213.66, 0.0033608077, 10.004767, 9.997025 
2.4753392e+3, 1.8780357e+2, -671073.75, -1112484.5, -8028.8574, -0.06827702, -0.39611268, -670927.8, 428556.8, 0.00012695637, 10.004021, 9.99816 
2.4752617e+3, 1.9780073e+2, -683787.9, -1097348.0, 6931.731, -0.059633184, -0.4648606, -683671.75, 317838.13, 0.00000000023303823, 10.003383, 9.997901 
2.4751845e+3, 2.0779856e+2, -736534.3, -1063722.1, -2396.8784, -0.030466806, -0.4372401, -736516.75, 167016.14, 0.0, 10.002315, 9.9979725 
2.4751075e+3, 2.1779683e+2, -792903.3, -1003817.3, -14903.95, 0.0017832578, -0.38180992, -791855.3, 13697.441, 0.0, 10.001098, 9.998297 
2.47503e+3, 2.2779563e+2, -700768.3, -743560.56, -5548.042, -0.008980792, -0.38938677, -700060.7, 7502.5073, 0.0, 10.000346, 9.999773 
2.4749526e+3, 2.3779476e+2, -703048.44, -711695.75, 2194.962, -0.029548483, -0.42152497, -702523.2, -92954.555, 0.0, 9.999732, 9.999616 
2.4748755e+3, 2.4779397e+2, -729689.44, -643054.75, -1512.2416, 0.010469977, -0.43995237, -643028.4, -131452.69, 0.0, 9.998746, 9.999887 
2.4747989e+3, 2.5779346e+2, -789667.4, -614036.5, 4016.6643, 0.06297415, -0.45388004, -613944.7, -200363.5, 0.0, 9.997629, 9.999953 
2.4747212e+3, 2.6779374e+2, -766222.8, -454816.66, 4563.911, 0.028872216, -0.4384061, -454749.78, -139170.75, 0.0, 9.996699, 10.000821 
2.4746437e+3, 2.7779448e+2, -789148.1, -404865.75, -762.75275, -0.015396091, -0.41430408, -404864.25, -187292.42, 0.0, 9.995825, 10.000914 
2.4745676e+3, 2.8779548e+2, -762029.0, -234061.38, -5411.588, 0.084705204, -0.43184492, -234005.9, -114444.516, 0.0, 9.994878, 10.001869 
2.4744911e+3, 2.9779664e+2, -815545.94, -223930.0, 6870.4736, 0.17034039, -0.4690647, -223850.23, -202301.95, 0.0, 9.993903, 10.001737 
2.4744119e+3, 3.0779853e+2, -873805.56, -198883.0, 28827.566, -0.06359192, -0.4350437, -197653.94, -197653.94, 0.0, 9.993045, 10.001988 
2.4743366e+3, 3.1780076e+2, -869498.75, 7657.002, -35320.203, 0.11595583, -0.38385004, 9076.933, 9076.933, 0.0, 9.992188, 10.003821 
2.4858142e+3, 1.2790325e+2, -946550.8, -1675273.8, 28681.352, -0.08596626, -0.41062853, -945423.7, 741083.3, 0.27854967, 10.009244, 9.995848 
2.4857354e+3, 1.3789892e+2, -871295.06, -1631219.3, 30092.965, -0.15476234, -0.39700282, -870105.25, 718443.8, 0.1992297, 10.008331, 9.99589 
2.4856572e+3, 1.4789462e+2, -771076.0, -1478545.0, 13527.426, -0.11629361, -0.42870587, -770817.44, 719772.94, 0.11935156, 10.00739, 9.996722 
2.4855794e+3, 1.5789056e+2, -756517.4, -1464179.5, 360.89246, -0.023958288, -0.47587073, -756517.2, 636112.1, 0.05542409, 10.006471, 9.996582 
2.4855004e+3, 1.6788733e+2, -719573.6, -1372352.8, 11429.29, -0.02843878, -0.43727034, -719373.56, 575288.56, 0.017730048, 10.005712, 9.996905 
2.4854214e+3, 1.778846e+2, -704483.0, -1300655.1, 32071.77, -0.07243517, -0.3735084, -702762.6, 493928.2, 0.0029937741, 10.005002, 9.997068 
2.4853428e+3, 1.8788159e+2, -678019.0, -1120712.4, 33887.15, -0.073031336, -0.40703765, -675440.06, 423278.75, 0.000105213425, 10.003999, 9.998112 
2.4852647e+3, 1.9787872e+2, -752342.06, -1127971.4, 10723.975, -0.054864753, -0.4734071, -752036.1, 248708.52, 0.00000000017417703, 10.002912, 9.997913 
2.4851865e+3, 2.0787662e+2, -762217.6, -1062892.6, 17418.566, -0.022615094, -0.44575736, -761211.9, 141555.02, 0.0, 10.002088, 9.998084 
2.4851084e+3, 2.17875e+2, -752983.7, -976990.4, 42601.637, 0.012690973, -0.3891703, -745155.25, 59630.414, 0.0, 10.001343, 9.998362 
2.48503e+3, 2.2787379e+2, -701431.1, -748426.0, 48186.84, -0.0058754687, -0.39364806, -671317.94, 35478.434, 0.0, 10.000365, 9.999727 
2.4849516e+3, 2.3787293e+2, -763194.44, -739294.9, 31698.857, -0.037527647, -0.42220327, -717368.2, -108565.836, 0.0, 9.99932, 9.999621 
2.4848738e+3, 2.4787216e+2, -755944.2, -642192.44, 24828.076, 0.0036309334, -0.44517288, -637009.5, -126200.65, 0.0, 9.998511, 10.000004 
2.4847962e+3, 2.5787166e+2, -766053.3, -593971.2, 36215.586, 0.06348664, -0.4672325, -586660.06, -173846.45, 0.0, 9.99776, 10.000025 
2.4847178e+3, 2.6787192e+2, -756779.94, -455145.63, 44966.695, 0.027216371, -0.45016724, -448584.84, -133773.1, 0.0, 9.996791, 10.0007715 
2.4846391e+3, 2.7787268e+2, -803438.5, -413495.8, 48280.59, -0.018834375, -0.4204087, -407606.9, -190801.83, 0.0, 9.995741, 10.000891 
2.4845625e+3, 2.878737e+2, -752872.7, -224101.53, 35170.69, 0.110002376, -0.43332377, -221772.44, -102978.445, 0.0, 9.994923, 10.001913 
2.4844854e+3, 2.978749e+2, -765978.4, -185475.05, 25655.232, 0.22012874, -0.47057387, -184343.42, -163563.31, 0.0, 9.994183, 10.001864 
2.4844036e+3, 3.0787674e+2, -859651.5, -159494.86, 37338.84, -0.14367305, -0.465164, -157509.25, -157509.25, 0.0, 9.993007, 10.0022745 
2.4843279e+3, 3.178783e+2, -924199.3, 14878.819, 7518.718, 0.08474968, -0.50023824, 14939.014, 14939.014, 0.0, 9.991678, 10.004113 
2.4958228e+3, 1.2798181e+2, -924389.6, -1653116.1, 4236.993, -0.13002159, -0.44799107, -924365.0, 761370.2, 0.26418236, 10.009206, 9.996068 
2.495744e+3, 1.379779e+2, -858449.8, -1623487.5, 2581.1418, -0.09967591, -0.41170254, -858441.1, 729331.56, 0.18827094, 10.008328, 9.995943 
2.4956645e+3, 1.4797351e+2, -785647.75, -1528040.6, -16048.423, -0.07918468, -0.4314255, -785301.0, 704514.56, 0.11214078, 10.007396, 9.996373 
2.4955852e+3, 1.5796922e+2, -760248.8, -1477418.1, -27520.6, -0.044470858, -0.46992117, -759194.3, 632663.5, 0.051573645, 10.006463, 9.996498 
2.4955057e+3, 1.6796596e+2, -683848.1, -1298092.8, -12075.321, -0.057378165, -0.4660318, -683610.8, 610278.94, 0.016207498, 10.005703, 9.997422 
2.4954258e+3, 1.7796323e+2, -692327.44, -1274154.9, 2488.1572, -0.09014039, -0.44751137, -692316.8, 503599.6, 0.0026406602, 10.004991, 9.997258 
2.4953467e+3, 1.8796036e+2, -718144.5, -1203705.1, -6348.3975, -0.057873573, -0.43845892, -718061.5, 379883.56, 0.00008567738, 10.003992, 9.997548 
2.4952678e+3, 1.9795763e+2, -767346.8, -1159072.6, -24102.219, -0.0047429227, -0.43757576, -765869.4, 234102.89, 0.00000000005180779, 10.002905, 9.997705 
2.4951884e+3, 2.0795566e+2, -719403.8, -975257.6, -8050.305, -0.008165105, -0.43132976, -719150.75, 182841.36, 0.0, 10.002088, 9.998688 
2.4951091e+3, 2.179541e+2, -731128.7, -931801.7, 13732.265, -0.02997573, -0.4240171, -730193.4, 73814.125, 0.0, 10.001338, 9.998676 
2.49503e+3, 2.2795272e+2, -728795.8, -806454.7, 9527.339, -0.023008402, -0.43170318, -727644.06, -21623.502, 0.0, 10.000366, 9.9993305 
2.4949509e+3, 2.3795162e+2, -778519.7, -773256.6, -4855.437, -0.00511081, -0.44679013, -770365.5, -162334.72, 0.0, 9.999323, 9.99939 
2.494872e+3, 2.4795105e+2, -741442.5, -613803.44, -4461.917, 0.014628071, -0.4533352, -613647.6, -103612.31, 0.0, 9.998514, 10.0002 
2.4947932e+3, 2.579509e+2, -752665.9, -568996.2, 4183.412, 0.030235609, -0.4594905, -568900.94, -156864.88, 0.0, 9.9977665, 10.000196 
2.4947141e+3, 2.6795107e+2, -750269.94, -443794.97, 3893.4905, 0.014998118, -0.46140695, -443745.5, -129711.05, 0.0, 9.996795, 10.00085 
2.494635e+3, 2.7795163e+2, -802911.4, -415018.44, 11122.527, 0.007815376, -0.4607435, -414699.78, -198670.17, 0.0, 9.995747, 10.00088 
2.4945574e+3, 2.8795272e+2, -771659.5, -264158.84, 6935.587, 0.14542933, -0.44938448, -264064.06, -146045.56, 0.0, 9.994922, 10.001641 
2.4944794e+3, 2.979541e+2, -774780.5, -204305.23, -7026.0054, 0.25223923, -0.4485086, -204218.72, -184214.5, 0.0, 9.994181, 10.001739 
2.4943951e+3, 3.0795535e+2, -830033.44, -98465.625, -19217.334, -0.27647483, -0.51665837, -97961.16, -97961.16, 0.0, 9.993002, 10.002699 
2.4943206e+3, 3.1795862e+2, -939654.9, -15186.179, 13048.876, 0.212427, -0.4224036, -15002.03, -15002.03, 0.0, 9.9916725, 10.003907 
2.5058314e+3, 1.2806128e+2, -920263.8, -1658095.6, 23296.432, -0.14421448, -0.4680433, -919529.0, 765425.0, 0.2493701, 10.009101, 9.996064 
2.505752e+3, 1.3805702e+2, -825535.1, -1607758.0, 8027.9644, -0.08215976, -0.46538398, -825452.75, 761542.25, 0.17701206, 10.008509, 9.995964 
2.5056717e+3, 1.4805292e+2, -757940.75, -1508391.3, -2063.2434, -0.07889425, -0.46090007, -757935.06, 731100.7, 0.10477703, 10.007535, 9.996437 
2.505591e+3, 1.5804908e+2, -752096.5, -1465379.9, 11875.389, -0.074751385, -0.45996097, -751898.8, 639175.5, 0.04768198, 10.006468, 9.996575 
2.5055107e+3, 1.6804579e+2, -695542.7, -1291598.5, 21324.756, -0.07221753, -0.46564645, -694780.75, 598325.44, 0.014696648, 10.005567, 9.997528 
2.5054303e+3, 1.780429e+2, -725733.0, -1281543.3, 9316.172, -0.07602932, -0.47272587, -725576.9, 469557.1, 0.0023018462, 10.004728, 9.99733 
2.5053504e+3, 1.8804014e+2, -740233.94, -1216884.6, 15470.019, -0.051566932, -0.45479923, -739732.4, 357429.88, 0.00006789629, 10.003857, 9.9975195 
2.5052702e+3, 1.9803758e+2, -754817.5, -1148419.6, 32438.893, -0.0156123815, -0.43212953, -752161.94, 247026.58, 0.0000000000010010511, 10.0029745, 9.997744 
2.50519e+3, 2.080356e+2, -708661.25, -948218.6, 38943.74, -0.016719207, -0.4375264, -702489.3, 198718.36, 0.0, 10.002072, 9.9988785 
2.50511e+3, 2.1803398e+2, -748661.7, -927147.1, 29714.729, -0.03001135, -0.45371857, -743844.7, 59377.92, 0.0, 10.001168, 9.998786 
2.50503e+3, 2.280326e+2, -746708.2, -828357.6, 30350.014, -0.01759652, -0.45613775, -736662.6, -31426.521, 0.0, 10.000306, 9.999207 
2.5049502e+3, 2.380315e+2, -765472.5, -772541.3, 38161.043, 0.006345801, -0.45633048, -730682.5, -123435.48, 0.0, 9.999443, 9.999333 
2.5048703e+3, 2.48031e+2, -735056.4, -599935.44, 40787.29, 0.019168705, -0.46048236, -588578.1, -79326.88, 0.0, 9.998517, 10.000291 
2.5047904e+3, 2.5803092e+2, -777465.8, -572808.06, 39197.85, 0.02565883, -0.467055, -565557.44, -154306.3, 0.0, 9.997566, 10.000263 
2.5047106e+3, 2.680311e+2, -752007.3, -445476.94, 29925.1, 0.020345148, -0.46949917, -442582.8, -129333.414, 0.0, 9.996792, 10.000837 
2.5046307e+3, 2.780316e+2, -758963.1, -394996.56, 29587.096, 0.027592765, -0.4728526, -392607.1, -177362.02, 0.0, 9.9960575, 10.000866 
2.504552e+3, 2.880326e+2, -759127.44, -263987.9, 35508.555, 0.13629304, -0.4644081, -261454.39, -144219.34, 0.0, 9.995037, 10.001584 
2.504473e+3, 2.9803395e+2, -817940.75, -231733.75, 35161.246, 0.2117073, -0.455735, -229632.28, -210411.14, 0.0, 9.993917, 10.001674 
2.5043878e+3, 3.080353e+2, -801733.56, -82365.8, -153.96167, -0.25648403, -0.51369804, -82365.766, -82365.766, 0.0, 9.993189, 10.002718 
2.5043124e+3, 3.1803852e+2, -862103.7, -18695.238, 20684.318, 0.23721361, -0.42809585, -18188.268, -18188.268, 0.0, 9.992392, 10.00353 
2.5158402e+3, 1.281415e+2, -916657.25, -1680147.8, 8818.494, -0.14664066, -0.4800678, -916555.44, 767609.9, 0.23413475, 10.009091, 9.995863 
2.5157604e+3, 1.3813636e+2, -823139.0, -1615377.8, -11740.831, -0.09472113, -0.5478486, -822965.06, 763250.3, 0.16549838, 10.008451, 9.995939 
2.5156787e+3, 1.4813285e+2, -732606.3, -1460805.4, -36318.125, -0.10640243, -0.5079227, -730799.5, 757451.3, 0.09730194, 10.0075, 9.996804 
2.515597e+3, 1.5812998e+2, -738814.56, -1440090.5, -22549.373, -0.11435187, -0.44401354, -738090.2, 652190.06, 0.043774765, 10.006453, 9.996759 
2.515516e+3, 1.6812669e+2, -713429.3, -1328881.6, -7522.7114, -0.07682872, -0.4403183, -713337.4, 578975.44, 0.013208903, 10.005551, 9.997282 
2.5154352e+3, 1.7812349e+2, -730569.0, -1288096.6, -19545.121, -0.03685178, -0.45666623, -729884.7, 464459.66, 0.001979796, 10.004706, 9.997297 
2.515354e+3, 1.8812077e+2, -712158.5, -1157202.6, -15085.723, -0.055062834, -0.45947403, -711647.7, 384723.6, 0.000051885003, 10.003845, 9.997938 
2.5152722e+3, 1.981184e+2, -740181.6, -1117845.1, 1086.2474, -0.0841739, -0.45708403, -740178.5, 258216.25, 0.0, 10.002969, 9.997959 
2.5151917e+3, 2.0811635e+2, -724213.4, -981540.4, 6294.5005, -0.04592214, -0.46298695, -724059.5, 176355.28, 0.0, 10.002071, 9.998652 
2.5151113e+3, 2.1811458e+2, -757071.8, -944416.06, -1937.5249, 0.00863553, -0.47450873, -757051.8, 45379.965, 0.0, 10.001163, 9.998673 
2.5150302e+3, 2.2811337e+2, -736101.9, -807731.4, -678.78925, 0.007975194, -0.46472567, -736095.44, -31651.86, 0.0, 10.000307, 9.999351 
2.514949e+3, 2.3811254e+2, -757151.06, -758305.44, 5106.883, -0.0071415002, -0.4523517, -752588.9, -146136.94, 0.0, 9.999451, 9.999431 
2.5148687e+3, 2.481119e+2, -737653.4, -607294.75, 3776.0564, 0.017267466, -0.46899754, -607185.44, -98728.055, 0.0, 9.998521, 10.000241 
2.5147882e+3, 2.581116e+2, -782247.25, -584688.1, 4640.0996, 0.050106026, -0.49188358, -584579.25, -174119.55, 0.0, 9.997569, 10.000183 
2.514707e+3, 2.6811188e+2, -761130.3, -465553.53, 1377.2316, 0.0437245, -0.47354993, -465547.13, -153089.83, 0.0, 9.996792, 10.000702 
2.5146264e+3, 2.7811253e+2, -759244.2, -398164.84, -2955.8918, 0.033582192, -0.45178935, -398140.63, -183688.77, 0.0, 9.996063, 10.000844 
2.5145462e+3, 2.881133e+2, -744911.56, -235648.45, -8116.37, 0.07152612, -0.47834378, -235519.13, -119075.21, 0.0, 9.995036, 10.001782 
2.5144655e+3, 2.9811457e+2, -818438.9, -232957.78, -824.0026, 0.090841986, -0.4965114, -232956.63, -214525.75, 0.0, 9.993913, 10.001671 
2.5143832e+3, 3.081167e+2, -838608.06, -160473.34, -23491.41, -0.047163174, -0.4409041, -159660.55, -159660.55, 0.0, 9.993191, 10.002182 
2.5143027e+3, 3.181173e+2, -853802.56, -10805.729, -26844.125, 0.054909755, -0.5738112, -9951.777, -9951.777, 0.0, 9.992424, 10.003572 
2.525849e+3, 1.2822258e+2, -854013.2, -1655906.5, 32233.604, -0.15133587, -0.514461, -852719.6, 830649.5, 0.2185889, 10.009495, 9.99588 
2.5257677e+3, 1.3821782e+2, -873513.3, -1644761.5, 25608.158, -0.11408899, -0.5454249, -872664.0, 712752.2, 0.1538328, 10.007931, 9.995988 
2.5256854e+3, 1.4821436e+2, -786809.3, -1476742.6, 2169.859, -0.11944993, -0.508165, -786802.44, 700648.7, 0.08978858, 10.00699, 9.9969225 
2.525603e+3, 1.5821144e+2, -756925.94, -1438104.8, 2731.4136, -0.11564281, -0.45728293, -756915.0, 632565.8, 0.039891396, 10.006256, 9.996863 
2.525521e+3, 1.6820823e+2, -740200.6, -1334142.5, 29041.322, -0.07934117, -0.45528975, -738784.0, 552728.6, 0.01175962, 10.005329, 9.99735 
2.5254396e+3, 1.7820509e+2, -773736.75, -1297188.1, 36714.832, -0.04220788, -0.46948627, -771174.1, 422368.9, 0.0016779178, 10.004363, 9.997397 
2.5253573e+3, 1.8820246e+2, -740959.75, -1153440.3, 34959.97, -0.060208526, -0.47616005, -738017.7, 357551.63, 0.00003798456, 10.003577, 9.99809 
2.5252748e+3, 1.9820015e+2, -750155.6, -1109408.4, 32695.29, -0.08942658, -0.48078632, -747204.25, 250387.94, 0.0, 10.00285, 9.998071 
2.5251934e+3, 2.0819819e+2, -731934.94, -984452.0, 43715.543, -0.046131007, -0.4787859, -724581.1, 175030.28, 0.0, 10.002021, 9.998653 
2.525112e+3, 2.1819654e+2, -756788.25, -940274.7, 49937.734, 0.017311266, -0.4770572, -744077.7, 57549.777, 0.0, 10.001153, 9.998703 
2.5250304e+3, 2.2819534e+2, -744042.5, -801571.75, 51037.75, 0.015438643, -0.47236153, -714221.6, -10582.416, 0.0, 10.000216, 9.999434 
2.524948e+3, 2.3819445e+2, -781927.3, -766618.56, 53077.746, -0.0031142978, -0.4695408, -720646.1, -114998.32, 0.0, 9.999271, 9.999456 
2.524867e+3, 2.4819379e+2, -741023.0, -623778.4, 48163.63, 0.02102431, -0.48270357, -606530.4, -98876.07, 0.0, 9.998568, 10.000102 
2.5247854e+3, 2.581934e+2, -737696.8, -569141.56, 41636.73, 0.055365723, -0.4990277, -559417.4, -149759.53, 0.0, 9.997908, 10.000123 
2.5247037e+3, 2.6819375e+2, -736065.56, -442939.63, 47043.758, 0.046356365, -0.47644952, -435574.63, -123919.97, 0.0, 9.996924, 10.00079 
2.524622e+3, 2.781945e+2, -791552.06, -411327.1, 55431.33, 0.03229085, -0.44906583, -403410.8, -189762.95, 0.0, 9.995837, 10.000859 
2.5245404e+3, 2.8819513e+2, -754271.7, -253751.25, 31525.926, 0.035822455, -0.47964585, -251773.36, -136131.83, 0.0, 9.995038, 10.001653 
2.5244585e+3, 2.9819614e+2, -770948.75, -222044.94, 15411.755, 0.026858527, -0.5106214, -221612.55, -203981.05, 0.0, 9.9943, 10.001554 
2.524377e+3, 3.081985e+2, -830660.5, -172544.7, 13188.356, 0.08653561, -0.41528204, -172280.52, -172280.52, 0.0, 9.993323, 10.00203 
2.5242946e+3, 3.1820032e+2, -819168.6, 25891.607, 32606.998, 0.01874644, -0.4094422, 27147.895, 27147.895, 0.0, 9.992576, 10.003752 
2.5358582e+3, 1.2830445e+2, -840547.4, -1640592.3, -13107.92, -0.16345595, -0.5602278, -840332.6, 842233.25, 0.20288487, 10.00938, 9.99606 
2.535775e+3, 1.38301e+2, -863393.1, -1633921.9, -14070.139, -0.14123575, -0.478572, -863136.3, 721464.56, 0.14212929, 10.007885, 9.996085 
2.5356922e+3, 1.4829716e+2, -788976.06, -1493166.5, -20114.313, -0.12282506, -0.47430718, -788402.0, 698237.25, 0.08231267, 10.00698, 9.996811 
2.535609e+3, 1.5829346e+2, -754208.9, -1435497.6, -23412.432, -0.0888731, -0.49524713, -753405.25, 635271.06, 0.03607302, 10.006242, 9.996891 
2.535526e+3, 1.6829035e+2, -719071.2, -1290685.8, -4836.3755, -0.08202085, -0.5028274, -719030.25, 571675.7, 0.010365139, 10.0053215, 9.997655 
2.535443e+3, 1.7828763e+2, -761916.1, -1272858.9, 4623.816, -0.0867257, -0.50575334, -761874.3, 430857.16, 0.0014001295, 10.004358, 9.997569 
2.5353605e+3, 1.8828507e+2, -749012.9, -1169633.5, 9443.163, -0.06644653, -0.50257933, -748801.0, 345956.47, 0.000026578999, 10.00357, 9.997984 
2.535278e+3, 1.9828276e+2, -752074.6, -1110996.1, 5943.6914, -0.0393145, -0.50037605, -751976.2, 244805.42, 0.0, 10.002834, 9.99807 
2.5351954e+3, 2.0828107e+2, -718449.2, -956358.4, 12890.367, -0.021434998, -0.483988, -717752.8, 181045.53, 0.0, 10.002015, 9.998852 
2.5351128e+3, 2.1827975e+2, -746996.3, -921190.9, 18171.021, -0.006472758, -0.46626928, -745121.0, 55690.0, 0.0, 10.001153, 9.998837 
2.53503e+3, 2.282784e+2, -743708.7, -802632.3, 16004.003, 0.0052833837, -0.4815962, -739642.5, -36818.42, 0.0, 10.000218, 9.999427 
2.5349474e+3, 2.3827724e+2, -787312.9, -779396.9, 20846.213, 0.017154831, -0.5067999, -762136.25, -157301.0, 0.0, 9.999273, 9.999371 
2.534865e+3, 2.4827655e+2, -757467.4, -659814.5, 23378.225, 0.02888818, -0.49959692, -654506.3, -147663.95, 0.0, 9.998571, 9.999856 
2.534783e+3, 2.5827625e+2, -739109.44, -576316.7, 11579.452, 0.034850672, -0.4864875, -575497.2, -166651.14, 0.0, 9.997921, 10.000071 
2.5347003e+3, 2.6827663e+2, -713795.06, -398336.06, 4553.566, 0.026013669, -0.4788549, -398270.34, -87428.47, 0.0, 9.996926, 10.001098 
2.5346175e+3, 2.7827746e+2, -791403.94, -411099.78, 18734.78, 0.025285438, -0.46864334, -410179.06, -197345.77, 0.0, 9.995832, 10.000866 
2.5345352e+3, 2.8827804e+2, -795602.3, -340201.53, 2721.5952, 0.032753203, -0.46675372, -340185.28, -225356.86, 0.0, 9.995036, 10.001063 
2.534452e+3, 2.9827857e+2, -789035.7, -263353.56, -18845.242, 0.013902021, -0.49377263, -262678.84, -245854.45, 0.0, 9.994311, 10.001267 
2.5343707e+3, 3.0828065e+2, -801235.3, -113892.0, -27431.922, 0.14265959, -0.44543082, -112798.93, -112798.93, 0.0, 9.993328, 10.002434 
2.534287e+3, 3.18284e+2, -844877.8, -44309.797, 23743.166, 0.016350562, -0.30789474, -43606.242, -43606.242, 0.0, 9.992624, 10.003258 
2.5458667e+3, 1.2838823e+2, -911744.56, -1670295.3, 11057.84, -0.16312934, -0.53265727, -911583.4, 770162.0, 0.18718326, 10.0085745, 9.996191 
2.5457823e+3, 1.3838463e+2, -880696.3, -1638472.1, 14523.975, -0.1572689, -0.4753307, -880418.06, 703363.1, 0.13049573, 10.007626, 9.996179 
2.5456986e+3, 1.483807e+2, -804567.0, -1504769.5, 25397.244, -0.13115914, -0.48253313, -803647.06, 682172.94, 0.07494247, 10.006833, 9.996798 
2.545615e+3, 1.5837687e+2, -770679.9, -1441353.4, 25180.852, -0.082579, -0.5120511, -769735.8, 618121.75, 0.03235691, 10.006099, 9.996917 
2.545531e+3, 1.6837373e+2, -727768.4, -1284583.8, 29834.744, -0.082611956, -0.52776605, -726174.4, 563712.9, 0.009040373, 10.005215, 9.9977455 
2.5454468e+3, 1.7837101e+2, -765597.75, -1264516.4, 27522.576, -0.0996697, -0.5365094, -764084.06, 427828.5, 0.0011497864, 10.0042925, 9.997656 
2.5453636e+3, 1.8836868e+2, -772328.3, -1171958.0, 41314.008, -0.06756647, -0.51878446, -768101.94, 325834.78, 0.000017841303, 10.003377, 9.998057 
2.5452802e+3, 1.9836663e+2, -796652.6, -1120289.0, 48926.344, -0.02092119, -0.49707216, -789417.8, 206540.78, 0.0, 10.002482, 9.998172 
2.5451967e+3, 2.08365e+2, -749441.06, -955410.94, 56251.84, -0.0156176, -0.48625794, -735079.6, 162895.16, 0.0, 10.00174, 9.998988 
2.5451133e+3, 2.1836367e+2, -757177.6, -917136.6, 55401.62, -0.021753432, -0.48015997, -739863.44, 60124.14, 0.0, 10.001051, 9.998911 
2.5450298e+3, 2.2836234e+2, -723787.7, -800709.2, 47299.19, -0.007976852, -0.48939458, -701285.8, 714.972, 0.0, 10.000395, 9.999352 
2.5449467e+3, 2.3836121e+2, -724499.75, -749506.56, 48927.613, 0.013870976, -0.504211, -686503.2, -82491.12, 0.0, 9.999712, 9.99936 
2.5448632e+3, 2.4836054e+2, -727197.8, -632280.25, 70514.82, 0.023370095, -0.50019526, -594740.94, -88722.336, 0.0, 9.998729, 9.999966 
2.5447804e+3, 2.5836027e+2, -773380.0, -589278.06, 80837.18, 0.02587931, -0.49222603, -558821.75, -150800.11, 0.0, 9.997677, 10.000096 
2.5446966e+3, 2.6836056e+2, -712087.4, -413364.2, 51093.402, 0.026550973, -0.4837409, -404866.9, -94848.234, 0.0, 9.997012, 10.00095 
2.5446135e+3, 2.7836123e+2, -714374.8, -385102.9, 32564.795, 0.037870556, -0.47302696, -381913.16, -169901.25, 0.0, 9.996415, 10.00076 
2.5445297e+3, 2.8836176e+2, -754690.25, -325608.13, 39944.867, 0.025050286, -0.4704361, -321921.2, -207913.61, 0.0, 9.995343, 10.001013 
2.5444457e+3, 2.9836223e+2, -815607.9, -285042.72, 58282.477, -0.018310705, -0.49205062, -278715.88, -262712.25, 0.0, 9.994169, 10.001186 
2.5443646e+3, 3.0836397e+2, -747717.8, -94470.61, 33565.043, 0.18907362, -0.4658843, -92750.5, -92750.5, 0.0, 9.993729, 10.002371 
2.5442785e+3, 3.1836468e+2, -855548.75, -87654.64, 31611.03, -0.04634402, -0.58887166, -86355.54, -86355.54, 0.0, 9.992731, 10.0029 
2.555875e+3, 1.2847348e+2, -894369.56, -1659660.1, -15373.215, -0.15879932, -0.45213255, -894060.8, 786850.44, 0.17164105, 10.008552, 9.9962845 
2.5557896e+3, 1.3846871e+2, -869259.25, -1629110.0, -11439.369, -0.16937831, -0.5197495, -869087.06, 713869.9, 0.119037524, 10.007605, 9.996253 
2.5557047e+3, 1.4846489e+2, -798272.75, -1501718.6, 2546.4077, -0.1460781, -0.5214266, -798263.5, 686730.3, 0.067743085, 10.006822, 9.996828 
2.5556207e+3, 1.5846148e+2, -771994.06, -1444582.1, -765.11053, -0.09419223, -0.51094943, -771993.2, 615033.3, 0.02877745, 10.006073, 9.99691 
2.5555357e+3, 1.6845821e+2, -737480.94, -1301925.0, -1361.3416, -0.082125425, -0.53365463, -737477.7, 551580.5, 0.00779817, 10.005191, 9.99764 
2.5554508e+3, 1.7845523e+2, -767864.8, -1266301.4, -4073.2593, -0.08761641, -0.5612848, -767831.5, 423255.47, 0.00092872203, 10.004274, 9.997655 
2.5553665e+3, 1.884532e+2, -757349.25, -1142074.9, 9546.882, -0.06561234, -0.5253003, -757112.5, 335995.25, 0.00001159609, 10.003377, 9.998266 
2.555282e+3, 1.9845162e+2, -783474.3, -1096229.5, 19558.016, -0.033948727, -0.4759101, -782256.0, 212868.53, 0.0, 10.002491, 9.998336 
2.555198e+3, 2.0844987e+2, -744458.6, -947726.44, 31511.652, -0.027393881, -0.4873388, -739685.6, 157456.34, 0.0, 10.001747, 9.99904 
2.555114e+3, 2.1844825e+2, -758506.7, -920094.4, 31428.168, -0.029985067, -0.5156531, -752609.25, 46548.492, 0.0, 10.001047, 9.998895 
2.5550297e+3, 2.2844712e+2, -734372.6, -823909.9, 23685.51, -0.02586422, -0.49304333, -728493.1, -27323.215, 0.0, 10.000396, 9.999195 
2.5549456e+3, 2.3844631e+2, -718524.6, -740608.1, 18894.893, -0.017626181, -0.4624125, -707681.75, -104502.75, 0.0, 9.9997225, 9.99942 
2.5548616e+3, 2.4844572e+2, -694021.25, -565392.1, 29012.3, 0.0043298835, -0.4858861, -559151.2, -53967.633, 0.0, 9.998733, 10.000426 
2.5547776e+3, 2.584454e+2, -768818.25, -580629.8, 46762.688, 0.028244765, -0.5200278, -569650.4, -162465.36, 0.0, 9.997675, 10.000159 
2.5546935e+3, 2.6844546e+2, -759040.4, -512697.66, 29793.748, 0.048220847, -0.49059942, -509145.5, -199960.03, 0.0, 9.997016, 10.000269 
2.5546098e+3, 2.784458e+2, -725363.9, -414935.75, 2049.9805, 0.06680882, -0.45619133, -414922.22, -203738.23, 0.0, 9.99644, 10.000546 
2.5545245e+3, 2.8844622e+2, -709961.2, -236443.77, -6636.442, 0.014026176, -0.49401018, -236350.78, -123171.766, 0.0, 9.995353, 10.001624 
2.5544393e+3, 2.9844716e+2, -807162.9, -266032.75, 29044.533, -0.06303263, -0.5196605, -264478.28, -249309.72, 0.0, 9.994157, 10.001326 
2.554358e+3, 3.0844873e+2, -805190.5, -219350.75, 24826.875, 0.19301337, -0.46523243, -218300.52, -218300.52, 0.0, 9.993748, 10.001507 
2.5542712e+3, 3.184483e+2, -786627.25, 62226.23, -89652.76, -0.02215597, -0.64456105, 71591.69, 71591.69, 0.0, 9.992706, 10.00394 
2.5658834e+3, 1.2855911e+2, -878884.75, -1669699.8, 18067.486, -0.13840869, -0.45212916, -878472.1, 801599.1, 0.15641944, 10.00861, 9.996176 
2.565797e+3, 1.3855414e+2, -857166.44, -1627226.1, 15765.317, -0.16650587, -0.5296642, -856843.8, 725275.56, 0.10786434, 10.007629, 9.996253 
2.565711e+3, 1.4855032e+2, -804212.1, -1487124.4, 38316.586, -0.14411308, -0.5402655, -802069.0, 682086.6, 0.060779486, 10.006659, 9.997005 
2.5656262e+3, 1.5854703e+2, -814378.3, -1455410.5, 43165.633, -0.090565935, -0.5347779, -811484.75, 574702.06, 0.025366222, 10.005714, 9.997006 
2.5655407e+3, 1.6854389e+2, -795023.7, -1337218.5, 46101.51, -0.0786923, -0.54001004, -791131.75, 497085.63, 0.0066484893, 10.004823, 9.997573 
2.5654545e+3, 1.7854102e+2, -811702.25, -1287012.4, 47713.402, -0.08338903, -0.5482754, -806959.94, 383285.72, 0.0007369587, 10.003976, 9.997654 
2.5653693e+3, 1.8853883e+2, -755216.2, -1129001.5, 60499.19, -0.066159345, -0.5331467, -745668.0, 346599.53, 0.000007363407, 10.0033455, 9.998368 
2.5652844e+3, 1.9853707e+2, -740571.44, -1068275.6, 61133.26, -0.041107986, -0.5111902, -729538.5, 264747.03, 0.0, 10.002759, 9.998397 
2.5651994e+3, 2.0853542e+2, -726781.94, -942388.6, 63373.105, -0.033570062, -0.50957453, -709534.44, 186767.8, 0.0, 10.001888, 9.999005 
2.5651145e+3, 2.18534e+2, -771481.2, -923522.56, 59145.902, -0.03169079, -0.51556194, -751182.7, 47134.215, 0.0, 10.000952, 9.998915 
2.56503e+3, 2.2853294e+2, -757180.9, -821874.3, 69549.21, -0.025280315, -0.49195144, -712824.25, -12496.013, 0.0, 10.000189, 9.999307 
2.564945e+3, 2.3853219e+2, -750420.2, -748195.9, 78728.91, -0.014835839, -0.46446487, -670571.25, -68234.57, 0.0, 9.999477, 9.999482 
2.56486e+3, 2.4853152e+2, -688791.56, -567992.75, 56870.2, 0.004222975, -0.49058962, -545432.5, -41090.637, 0.0, 9.998797, 10.000374 
2.564775e+3, 2.5853112e+2, -710492.7, -555157.75, 42718.805, 0.024872242, -0.5277481, -544184.75, -137840.55, 0.0, 9.998093, 10.00013 
2.5646904e+3, 2.685311e+2, -731534.5, -499307.2, 63111.695, 0.043754216, -0.50324047, -483263.84, -174918.88, 0.0, 9.99721, 10.000265 
2.5646058e+3, 2.7853137e+2, -750882.44, -428286.3, 76136.71, 0.06532915, -0.47357103, -411219.97, -200876.08, 0.0, 9.996275, 10.000531 
2.56452e+3, 2.8853178e+2, -684605.06, -226183.75, 30423.818, 0.027450781, -0.51039207, -224173.45, -111834.24, 0.0, 9.995543, 10.001599 
2.5644335e+3, 2.9853275e+2, -719309.2, -231794.6, 24295.652, -0.037977, -0.52927846, -230586.8, -216258.33, 0.0, 9.994804, 10.001245 
2.5643504e+3, 3.0853397e+2, -867390.44, -279463.66, 50463.996, 0.11796219, -0.48651454, -275163.6, -275163.6, 0.0, 9.993456, 10.001232 
2.564264e+3, 3.1853607e+2, -726461.2, 200229.72, -48221.445, 0.026198357, -0.39682174, 202732.22, 202732.22, 0.0, 9.992651, 10.004914 
2.575892e+3, 1.2864509e+2, -886449.25, -1704792.3, -11557.173, -0.11095489, -0.50991464, -886286.06, 792940.25, 0.1416918, 10.008549, 9.99595 
2.5758043e+3, 1.386407e+2, -860063.56, -1640382.4, -12742.181, -0.15612583, -0.50987655, -859855.5, 721414.75, 0.09709296, 10.007568, 9.996194 
2.5757176e+3, 1.4863683e+2, -783860.0, -1452208.5, 7985.5186, -0.13193077, -0.54140913, -783764.56, 699542.3, 0.05411841, 10.00664, 9.997269 
2.5756317e+3, 1.5863337e+2, -800574.94, -1433255.8, 11234.487, -0.07636096, -0.5776811, -800375.5, 584963.75, 0.02215316, 10.005723, 9.997157 
2.575545e+3, 1.686306e+2, -796667.25, -1345061.6, 15556.921, -0.073836684, -0.5467947, -796226.25, 491140.22, 0.0055989344, 10.004832, 9.997517 
2.5754583e+3, 1.7862818e+2, -812633.56, -1290689.8, 21277.621, -0.08838753, -0.5053687, -811688.4, 377702.4, 0.0005735563, 10.003978, 9.99763 
2.5753725e+3, 1.8862545e+2, -755371.1, -1130600.3, 41312.977, -0.069835536, -0.543728, -750876.4, 340540.9, 0.000004588243, 10.0033455, 9.99836 
2.575287e+3, 1.9862293e+2, -745514.3, -1077736.0, 36900.844, -0.04319992, -0.5952879, -741464.94, 251976.84, 0.0, 10.002751, 9.998338 
2.5752008e+3, 2.0862162e+2, -736734.5, -963525.6, 29098.463, -0.035013948, -0.5480892, -733060.56, 162395.5, 0.0, 10.001885, 9.998864 
2.5751153e+3, 2.1862079e+2, -768253.0, -918141.4, 28363.035, -0.030954897, -0.48320442, -763065.5, 34400.535, 0.0, 10.000953, 9.998954 
2.5750297e+3, 2.2861971e+2, -731152.75, -770146.3, 43776.813, -0.0066440827, -0.48859966, -702727.4, -3250.6602, 0.0, 10.000193, 9.999662 
2.5749442e+3, 2.3861873e+2, -749052.4, -746802.44, 52298.047, 0.021855168, -0.512528, -695617.25, -94131.29, 0.0, 9.999478, 9.999495 
2.5748587e+3, 2.4861792e+2, -731644.6, -657776.44, 30107.408, 0.021972349, -0.513453, -647059.94, -143565.72, 0.0, 9.998797, 9.999759 
2.5747728e+3, 2.5861737e+2, -715929.8, -571048.8, 12166.235, 0.010448943, -0.5118164, -570034.3, -164534.42, 0.0, 9.998107, 10.000016 
2.574687e+3, 2.6861748e+2, -678510.8, -391980.3, 26204.422, 0.010493708, -0.5239893, -389603.53, -82105.86, 0.0, 9.997215, 10.001003 
2.5746012e+3, 2.7861792e+2, -740516.7, -406037.47, 44980.055, 0.028523814, -0.5367289, -400094.25, -190602.31, 0.0, 9.996267, 10.000691 
2.5745153e+3, 2.886184e+2, -743100.56, -349326.1, 4289.871, 0.06653201, -0.51666373, -349279.34, -237791.25, 0.0, 9.995545, 10.000754 
2.574429e+3, 2.98619e+2, -737676.9, -279289.4, -15691.138, 0.058748152, -0.5000044, -278752.9, -265269.56, 0.0, 9.994839, 10.000905 
2.574342e+3, 3.086195e+2, -825636.0, -189306.6, -9489.17, -0.04050521, -0.55558765, -189165.13, -189165.13, 0.0, 9.993435, 10.001865 
2.574257e+3, 3.1862244e+2, -777887.44, 88195.08, 3293.901, 0.07455325, -0.42910028, 88207.61, 88207.61, 0.0, 9.9926605, 10.004147 
2.5858998e+3, 1.2873219e+2, -867949.75, -1684273.6, 3661.9316, -0.12466568, -0.55355144, -867933.3, 810437.44, 0.12761492, 10.008511, 9.996113 
2.5858113e+3, 1.387282e+2, -914368.1, -1661004.8, 28902.148, -0.140393, -0.5272686, -913251.0, 667160.2, 0.086832404, 10.007046, 9.9963045 
2.585724e+3, 1.487245e+2, -819947.94, -1473194.8, 56799.387, -0.12442285, -0.54057544, -815046.06, 667400.5, 0.047822665, 10.006359, 9.997248 
2.585637e+3, 1.5872112e+2, -775983.4, -1419683.1, 41370.418, -0.08464634, -0.5652207, -773335.44, 611143.3, 0.019164955, 10.0058775, 9.997173 
2.5855494e+3, 1.6871822e+2, -768082.9, -1322703.5, 43194.86, -0.08093451, -0.55326426, -764738.94, 521768.03, 0.004654965, 10.004994, 9.997591 
2.585462e+3, 1.7871562e+2, -802312.8, -1278937.0, 60199.84, -0.09017955, -0.53446114, -794826.9, 393705.5, 0.00043727696, 10.004024, 9.997687 
2.5853753e+3, 1.8871298e+2, -771199.7, -1136251.9, 88105.53, -0.07339106, -0.56627905, -751047.8, 339510.28, 0.0000027949502, 10.003234, 9.998372 
2.5852892e+3, 1.9871056e+2, -781110.6, -1092831.5, 81731.18, -0.049261443, -0.6066523, -760981.1, 231600.53, 0.0, 10.002502, 9.998351 
2.5852025e+3, 2.0870924e+2, -752650.4, -970344.8, 78984.375, -0.0363172, -0.55893016, -727012.5, 167583.4, 0.0, 10.001779, 9.998867 
2.5851157e+3, 2.187084e+2, -752568.7, -908519.7, 87415.664, -0.025005737, -0.4948738, -713404.6, 83201.43, 0.0, 10.001059, 9.998966 
2.5850296e+3, 2.2870716e+2, -707932.94, -757907.6, 86385.25, -0.0010551848, -0.5120761, -642993.75, 55624.07, 0.0, 10.000355, 9.999665 
2.5849435e+3, 2.3870605e+2, -726331.7, -737010.2, 72888.04, 0.025411112, -0.5484161, -658587.6, -57959.43, 0.0, 9.999645, 9.999478 
2.584857e+3, 2.4870534e+2, -726203.25, -661120.94, 78655.766, 0.019527974, -0.53521657, -608540.7, -105904.59, 0.0, 9.998865, 9.999701 
2.5847703e+3, 2.5870493e+2, -722692.0, -572032.9, 94005.01, 0.0033271285, -0.51473325, -526898.8, -122257.64, 0.0, 9.998057, 10.00003 
2.584684e+3, 2.6870498e+2, -658191.75, -368253.03, 73177.516, 0.0014336782, -0.5372832, -350830.7, -44191.84, 0.0, 9.997301, 10.0011215 
2.5845972e+3, 2.7870536e+2, -700851.25, -386040.03, 51618.375, 0.019856049, -0.56516755, -377792.44, -169159.44, 0.0, 9.996541, 10.000693 
2.5845107e+3, 2.887058e+2, -727929.3, -364800.84, 45189.96, 0.0658043, -0.53135514, -359261.63, -248632.02, 0.0, 9.995751, 10.000547 
2.5844237e+3, 2.987063e+2, -737731.06, -299667.44, 60411.965, 0.06558367, -0.50325274, -291488.9, -278862.4, 0.0, 9.994928, 10.000721 
2.5843352e+3, 3.0870634e+2, -716647.7, -143033.67, 19568.217, -0.05178784, -0.59409416, -142366.9, -142366.9, 0.0, 9.994216, 10.001803 
2.5842494e+3, 3.1870803e+2, -772806.25, 25787.531, 15829.718, 0.07828619, -0.58031505, 26101.186, 26101.186, 0.0, 9.992987, 10.003555 
2.5959074e+3, 1.2882024e+2, -843233.0, -1633793.6, -44713.71, -0.17413105, -0.583714, -840712.06, 836794.0, 0.11429581, 10.0084, 9.996547 
2.595818e+3, 1.3881646e+2, -895079.9, -1633971.3, -9663.747, -0.122907124, -0.57462156, -894953.5, 684590.1, 0.07716813, 10.007046, 9.99649 
2.5957298e+3, 1.4881314e+2, -832034.6, -1510496.1, 41674.97, -0.12124009, -0.5397823, -829484.3, 652092.44, 0.04194637, 10.006363, 9.996992 
2.5956422e+3, 1.588101e+2, -785104.25, -1435380.4, 19481.031, -0.1140502, -0.50938696, -784521.1, 599086.06, 0.01642519, 10.005841, 9.997087 
2.5955537e+3, 1.6880664e+2, -758442.0, -1300549.6, 8564.304, -0.09920723, -0.5603658, -758306.75, 527333.06, 0.00382069, 10.004977, 9.997753 
2.5954655e+3, 1.7880338e+2, -794582.8, -1265248.9, 28873.193, -0.089046985, -0.6219733, -792818.2, 394852.03, 0.00032650857, 10.004029, 9.997781 
2.5953782e+3, 1.8880135e+2, -770753.7, -1137434.3, 61942.69, -0.0777565, -0.5958195, -760572.56, 329117.97, 0.0000016192165, 10.003238, 9.998365 
2.595291e+3, 1.9879976e+2, -777766.06, -1085528.3, 55414.047, -0.063135445, -0.55387986, -768092.5, 223614.23, 0.0, 10.002497, 9.998407 
2.5952038e+3, 2.0879814e+2, -742975.6, -952345.06, 52847.03, -0.03818695, -0.5473141, -730392.7, 163330.47, 0.0, 10.001782, 9.998991 
2.5951168e+3, 2.187967e+2, -756395.0, -917733.6, 62075.08, -0.014053002, -0.550445, -735276.0, 60461.926, 0.0, 10.00106, 9.998905 
2.5950295e+3, 2.2879529e+2, -734087.6, -812824.56, 60722.844, -0.009606536, -0.5598539, -701088.0, -3335.883, 0.0, 10.000355, 9.9992895 
2.5949425e+3, 2.3879412e+2, -728176.9, -743001.06, 44757.805, -0.009331553, -0.571097, -690221.56, -90457.58, 0.0, 9.99965, 9.999437 
2.594855e+3, 2.4879374e+2, -689643.2, -587325.25, 47670.52, -0.003745631, -0.55743206, -568557.7, -66789.87, 0.0, 9.998869, 10.000209 
2.594768e+3, 2.587937e+2, -715895.5, -559621.3, 64793.367, 0.0018720488, -0.540194, -536251.8, -132483.67, 0.0, 9.99806, 10.000117 
2.5946808e+3, 2.687936e+2, -700788.56, -457001.94, 44357.105, 0.016926462, -0.5403584, -449181.97, -143413.36, 0.0, 9.997299, 10.000514 
2.5945935e+3, 2.7879366e+2, -710592.0, -409996.56, 21054.156, 0.037484318, -0.54823625, -408529.06, -200761.66, 0.0, 9.996552, 10.000526 
2.5945055e+3, 2.88794e+2, -686320.3, -281954.97, 14421.04, 0.018158482, -0.5585744, -281441.34, -171677.31, 0.0, 9.995761, 10.001115 
2.5944173e+3, 2.9879463e+2, -739954.1, -305284.53, 34156.938, -0.026320003, -0.56087255, -302616.78, -290858.66, 0.0, 9.994928, 10.000685 
2.5943306e+3, 3.0879474e+2, -786996.8, -298359.0, -4733.1357, 0.10686276, -0.5714696, -298313.16, -298313.16, 0.0, 9.994251, 10.000724 
2.5942412e+3, 3.187955e+2, -717345.2, 136380.88, -78527.94, 0.00853902, -0.57240874, 143543.97, 143543.97, 0.0, 9.993002, 10.004311 
2.6059154e+3, 1.2890968e+2, -906561.94, -1669813.4, -5814.0933, -0.17274575, -0.59122133, -906517.6, 770110.6, 0.10179272, 10.007822, 9.996547 
2.605825e+3, 1.3890584e+2, -853844.3, -1615970.3, 12083.773, -0.11894005, -0.5873226, -853652.75, 725013.56, 0.068157084, 10.007302, 9.996489 
2.605736e+3, 1.4890243e+2, -830154.9, -1513356.8, 72489.36, -0.12436524, -0.5592699, -822548.3, 658152.25, 0.03652941, 10.006367, 9.996967 
2.605647e+3, 1.5889929e+2, -848577.75, -1464111.5, 60682.555, -0.12401358, -0.53256977, -842652.44, 540079.56, 0.013951619, 10.005382, 9.997108 
2.605558e+3, 1.6889602e+2, -791778.5, -1306599.6, 48239.234, -0.102281794, -0.5714733, -787297.44, 497465.63, 0.003097928, 10.004705, 9.99784 
2.6054692e+3, 1.7889296e+2, -782073.25, -1253297.6, 62480.105, -0.08237925, -0.6213353, -773929.7, 412862.06, 0.00023902382, 10.004095, 9.9978285 
2.605381e+3, 1.888909e+2, -769093.8, -1139015.5, 92654.375, -0.07317363, -0.5950316, -747184.25, 341627.84, 0.00000086705097, 10.003267, 9.998338 
2.605293e+3, 1.9888927e+2, -789723.4, -1088843.6, 86476.13, -0.062277563, -0.55429876, -766522.56, 224306.22, 0.0, 10.002411, 9.998423 
2.6052052e+3, 2.0888756e+2, -740985.56, -943825.1, 82563.734, -0.03526517, -0.5599617, -711627.9, 181217.64, 0.0, 10.00177, 9.999052 
2.6051176e+3, 2.1888602e+2, -739257.7, -908127.75, 85597.2, -0.008631971, -0.5770078, -703458.94, 91401.74, 0.0, 10.001176, 9.998913 
2.6050296e+3, 2.2888458e+2, -729000.1, -819145.1, 99140.78, -0.020214994, -0.58196175, -665167.06, 31708.375, 0.0, 10.000431, 9.9992075 
2.6049414e+3, 2.3888342e+2, -728033.5, -739201.25, 101539.75, -0.035053357, -0.58400077, -631924.25, -33036.65, 0.0, 9.999641, 9.999464 
2.6048538e+3, 2.4888316e+2, -674406.1, -560564.75, 86417.01, -0.013564644, -0.56910247, -514006.63, -13116.835, 0.0, 9.998897, 10.000377 
2.604766e+3, 2.5888327e+2, -701700.8, -551113.7, 81524.945, 0.013334271, -0.5523869, -515432.28, -112543.89, 0.0, 9.998157, 10.000126 
2.6046777e+3, 2.6888296e+2, -692961.94, -480883.2, 79595.805, 0.018790452, -0.5537421, -454333.6, -149442.19, 0.0, 9.997478, 10.000262 
2.6045898e+3, 2.7888277e+2, -684342.5, -404838.2, 76969.58, 0.025053684, -0.5628131, -385044.2, -178150.81, 0.0, 9.996771, 10.000453 
2.604501e+3, 2.888832e+2, -645127.2, -238132.95, 48831.64, 0.000089978406, -0.5732691, -232356.08, -123467.42, 0.0, 9.995948, 10.001323 
2.6044115e+3, 2.98884e+2, -710469.6, -281552.47, 47668.098, -0.042430088, -0.57466614, -276318.7, -265438.3, 0.0, 9.995097, 10.000763 
2.6043248e+3, 3.088841e+2, -801058.06, -326507.94, 64011.22, 0.1302853, -0.57397217, -318025.22, -318025.22, 0.0, 9.99425, 10.000529 
2.6042342e+3, 3.1888536e+2, -668191.44, 209071.06, -30867.51, 0.028667593, -0.5141124, 210155.83, 210155.83, 0.0, 9.993135, 10.004742 
2.615923e+3, 1.2900023e+2, -923497.06, -1712752.9, -24046.637, -0.13686983, -0.5858662, -922765.06, 752975.06, 0.09013875, 10.00775, 9.99628 
2.6158318e+3, 1.3899621e+2, -864372.5, -1638790.4, -9277.558, -0.13331977, -0.57433045, -864261.4, 713518.6, 0.0598295, 10.0072365, 9.996366 
2.6157418e+3, 1.4899236e+2, -825590.94, -1503294.4, 37823.203, -0.13668767, -0.59410673, -823486.56, 656331.44, 0.03159086, 10.006329, 9.997058 
2.6156524e+3, 1.5898882e+2, -845860.5, -1457549.3, 30668.188, -0.11901212, -0.616229, -844326.75, 537526.0, 0.0117502725, 10.0053625, 9.997165 
2.6155624e+3, 1.6898628e+2, -791933.0, -1307660.4, 27375.623, -0.09383344, -0.5830387, -790483.94, 493393.66, 0.002484198, 10.004701, 9.997838 
2.615473e+3, 1.7898409e+2, -782858.3, -1255371.0, 36958.715, -0.075117126, -0.54629827, -779985.0, 405914.1, 0.00017216448, 10.004091, 9.997818 
2.6153842e+3, 1.8898147e+2, -771479.3, -1146648.9, 60900.504, -0.06203182, -0.571325, -761841.06, 326083.28, 0.00000042407203, 10.003274, 9.998284 
2.6152954e+3, 1.9897904e+2, -791800.8, -1095694.0, 59536.016, -0.04763474, -0.6045862, -780553.4, 209394.5, 0.0, 10.002418, 9.998375 
2.6152068e+3, 2.0897748e+2, -743142.8, -949756.25, 61902.79, -0.028620098, -0.5922295, -726016.0, 165947.03, 0.0, 10.001772, 9.999013 
2.615118e+3, 2.1897627e+2, -735969.56, -900644.56, 62242.91, -0.014062787, -0.5744331, -715090.6, 78884.414, 0.0, 10.001168, 9.99897 
2.6150292e+3, 2.28975e+2, -714819.3, -791050.4, 70328.96, -0.03369489, -0.5798423, -672941.4, 23046.967, 0.0, 10.000432, 9.999403 
2.6149407e+3, 2.389739e+2, -724054.7, -733113.3, 72277.61, -0.053216986, -0.5892832, -656164.6, -58165.0, 0.0, 9.999645, 9.999507 
2.6148522e+3, 2.4897358e+2, -689780.25, -592996.25, 57532.953, -0.010394905, -0.5691639, -566209.6, -66207.09, 0.0, 9.998895, 10.000156 
2.614764e+3, 2.589735e+2, -705671.0, -562284.3, 53703.047, 0.03467065, -0.54864186, -544401.1, -142398.6, 0.0, 9.998164, 10.000048 
2.614675e+3, 2.68973e+2, -682390.6, -461459.28, 53260.61, 0.0056958096, -0.58049524, -449289.88, -145282.22, 0.0, 9.997482, 10.000396 
2.6145858e+3, 2.7897263e+2, -683164.7, -405230.1, 48866.0, -0.022580057, -0.6162772, -396888.9, -190877.63, 0.0, 9.9967785, 10.00045 
2.6144966e+3, 2.8897348e+2, -663774.06, -277766.63, 15500.753, 0.014166657, -0.56977963, -277145.2, -169141.97, 0.0, 9.995948, 10.001053 
2.614407e+3, 2.9897457e+2, -693871.4, -249205.81, 14717.979, 0.01750691, -0.5226496, -248719.19, -238726.83, 0.0, 9.9951, 10.000986 
2.6143172e+3, 3.089744e+2, -729509.25, -180274.58, 34536.465, -0.0052277804, -0.62691486, -178111.4, -178111.4, 0.0, 9.994254, 10.001534 
2.6142275e+3, 3.1897658e+2, -741415.9, 61753.816, -146232.36, 0.11928636, -0.5357882, 87549.7, 87549.7, 0.0, 9.993108, 10.003748 
2.6259303e+3, 1.2909117e+2, -951949.3, -1694536.9, -4342.014, -0.12713405, -0.5833531, -951923.94, 722925.44, 0.079348356, 10.007301, 9.996624 
2.6258382e+3, 1.3908744e+2, -887773.0, -1628407.3, 31030.285, -0.15023407, -0.5754193, -886475.25, 690410.06, 0.052187566, 10.006917, 9.996589 
2.6257473e+3, 1.4908358e+2, -866905.5, -1519966.0, 70144.39, -0.13834004, -0.6018999, -859456.3, 619466.44, 0.027125815, 10.006001, 9.997097 
2.6256573e+3, 1.5907997e+2, -893539.0, -1482797.5, 67542.945, -0.09721845, -0.63215435, -885896.1, 495061.9, 0.009813033, 10.005038, 9.997144 
2.625567e+3, 1.6907735e+2, -816075.6, -1332113.9, 70194.39, -0.08401025, -0.59709847, -806697.8, 476286.28, 0.001972067, 10.004597, 9.997717 
2.6254767e+3, 1.790751e+2, -763735.06, -1247122.5, 66032.695, -0.08315651, -0.55452204, -754877.06, 430129.56, 0.00012271976, 10.004235, 9.997802 
2.625387e+3, 1.8907256e+2, -745685.56, -1120869.3, 85511.79, -0.06375085, -0.57830673, -727114.94, 359915.84, 0.00000019125741, 10.003401, 9.998397 
2.6252973e+3, 1.9907019e+2, -781033.44, -1088737.9, 96355.14, -0.03841494, -0.6135798, -753351.06, 235702.22, 0.0, 10.002489, 9.998385 
2.625208e+3, 2.0906842e+2, -746443.75, -967267.3, 101720.93, -0.028346252, -0.6103329, -706729.2, 184341.33, 0.0, 10.001823, 9.998865 
2.6251188e+3, 2.19067e+2, -736158.2, -904037.0, 90628.73, -0.023907026, -0.5989859, -696568.7, 96516.0, 0.0, 10.001188, 9.998933 
2.6250294e+3, 2.2906598e+2, -721344.6, -781698.75, 85655.45, -0.035340007, -0.5842595, -660705.9, 34389.973, 0.0, 10.00034, 9.999508 
2.62494e+3, 2.3906521e+2, -743623.3, -734683.2, 86705.41, -0.043785237, -0.5720704, -652332.7, -55228.316, 0.0, 9.999483, 9.999572 
2.624851e+3, 2.4906462e+2, -677229.9, -587916.3, 89584.11, -0.011417944, -0.57673454, -532475.44, -33366.35, 0.0, 9.99899, 10.000143 
2.6247618e+3, 2.5906423e+2, -656232.94, -535973.2, 94673.805, 0.021742325, -0.58688074, -483948.1, -82836.516, 0.0, 9.998498, 10.000065 
2.6246718e+3, 2.6906386e+2, -675040.7, -451103.06, 83747.94, -0.013372175, -0.6054148, -423247.97, -120132.61, 0.0, 9.99751, 10.00045 
2.6245818e+3, 2.7906376e+2, -729951.06, -426736.47, 77469.59, -0.039589643, -0.62181884, -408090.1, -202973.02, 0.0, 9.996459, 10.000453 
2.6244923e+3, 2.8906444e+2, -664988.1, -288610.75, 58684.066, 0.035979055, -0.5830405, -279673.06, -172562.58, 0.0, 9.995989, 10.000955 
2.6244023e+3, 2.9906538e+2, -618366.44, -191808.03, 59538.633, 0.061582785, -0.54731023, -183653.56, -174552.4, 0.0, 9.995533, 10.001168 
2.6243103e+3, 3.090658e+2, -679006.7, -84363.77, 43934.625, -0.08377046, -0.63930756, -81135.234, -81135.234, 0.0, 9.994301, 10.002166 
2.6242206e+3, 3.190679e+2, -686163.5, -25732.127, -127320.34, 0.10309766, -0.5902367, -2036.9901, -2036.9901, 0.0, 9.993987, 10.002718 
2.6359367e+3, 1.2918262e+2, -903084.3, -1595118.4, -11937.958, -0.14160101, -0.5814279, -902878.44, 771076.2, 0.06941416, 10.007247, 9.99737 
2.6358443e+3, 1.3917945e+2, -859777.56, -1570070.6, 8878.824, -0.17302741, -0.5825357, -859666.56, 716315.94, 0.04521372, 10.006878, 9.99701 
2.635753e+3, 1.4917594e+2, -864942.6, -1522465.0, 31689.51, -0.13357812, -0.58683425, -863418.9, 614597.6, 0.023115657, 10.0060005, 9.997083 
2.6356623e+3, 1.5917252e+2, -897405.06, -1496373.3, 40076.703, -0.06489736, -0.5957227, -894735.44, 485314.7, 0.008124171, 10.00505, 9.997048 
2.6355714e+3, 1.6916914e+2, -832718.56, -1367467.3, 59882.805, -0.075204834, -0.6169597, -826094.75, 455988.78, 0.0015513517, 10.004593, 9.997478 
2.6354802e+3, 1.791661e+2, -769717.25, -1255806.8, 46823.742, -0.105024025, -0.6342755, -765247.94, 418865.8, 0.00008715688, 10.004214, 9.997755 
2.63539e+3, 1.891642e+2, -732416.56, -1091396.9, 51698.473, -0.0775478, -0.6082632, -725119.56, 361011.84, 0.00000008629741, 10.003387, 9.998608 
2.6352996e+3, 1.991626e+2, -780191.2, -1086134.0, 67078.195, -0.03846773, -0.5826241, -766130.44, 222015.64, 0.0, 10.002481, 9.998409 
2.6352096e+3, 2.091603e+2, -763686.6, -1004468.6, 79633.19, -0.034882884, -0.6169279, -739732.75, 150436.3, 0.0, 10.001825, 9.998611 
2.6351193e+3, 2.1915816e+2, -746019.1, -925659.56, 64418.207, -0.038748138, -0.6537495, -725307.06, 66883.59, 0.0, 10.001188, 9.998787 
2.6350293e+3, 2.2915754e+2, -722124.5, -783973.3, 52650.64, -0.025317818, -0.5943033, -691988.25, 2210.2524, 0.0, 10.000339, 9.9994955 
2.6349393e+3, 2.3915727e+2, -737647.4, -723265.3, 60401.69, -0.010483781, -0.53044266, -669628.1, -73425.76, 0.0, 9.999482, 9.999653 
2.6348493e+3, 2.4915628e+2, -662817.25, -559849.75, 73270.77, -0.018116098, -0.5937186, -521783.6, -23573.617, 0.0, 9.998994, 10.000337 
2.6347592e+3, 2.591554e+2, -647538.06, -522361.0, 67363.45, -0.033088017, -0.6711791, -492997.6, -92781.445, 0.0, 9.998512, 10.000154 
2.6346684e+3, 2.6915565e+2, -679920.56, -460853.28, 40439.055, -0.040840797, -0.6259065, -453626.78, -151412.36, 0.0, 9.997504, 10.000389 
2.6345778e+3, 2.7915618e+2, -732484.8, -429398.2, 47071.316, -0.024798846, -0.56915593, -422256.03, -218045.75, 0.0, 9.996443, 10.000444 
2.6344883e+3, 2.8915605e+2, -657423.9, -274401.06, 46013.387, 0.069354646, -0.6209188, -268950.9, -162739.73, 0.0, 9.995991, 10.001055 
2.6343977e+3, 2.991562e+2, -607961.56, -176430.5, 29511.549, 0.09405505, -0.6731966, -174421.61, -166213.05, 0.0, 9.995555, 10.001267 
2.634304e+3, 3.091585e+2, -676005.1, -76149.84, -11620.521, -0.10844086, -0.5820967, -75924.81, -75924.81, 0.0, 9.994287, 10.002233 
2.6342136e+3, 3.1915966e+2, -707857.2, -104332.78, 48161.758, 0.05135041, -0.6186624, -100513.6, -100513.6, 0.0, 9.99412, 10.00212 
2.6459435e+3, 1.2927537e+2, -929806.56, -1622101.1, 53471.758, -0.14092585, -0.57728195, -925700.8, 747343.75, 0.060309626, 10.007044, 9.997265 
2.6458508e+3, 1.3927183e+2, -892876.1, -1592625.6, 26363.447, -0.16460434, -0.6072943, -891884.3, 683192.6, 0.03888439, 10.006627, 9.996973 
2.6457587e+3, 1.492685e+2, -860933.9, -1515911.3, 33861.41, -0.12954026, -0.5930989, -859187.94, 617921.25, 0.019539699, 10.005998, 9.997125 
2.645667e+3, 1.5926535e+2, -849613.25, -1462396.8, 48388.81, -0.064656824, -0.5786622, -845815.75, 533324.5, 0.006666384, 10.005334, 9.997141 
2.6455754e+3, 1.6926192e+2, -835405.0, -1351554.0, 93180.42, -0.07147023, -0.6181527, -819098.3, 462075.2, 0.0012109583, 10.004506, 9.997625 
2.645484e+3, 1.7925872e+2, -845827.9, -1288780.6, 98210.83, -0.096907444, -0.65991825, -825029.25, 358175.03, 0.000062152576, 10.003682, 9.997782 
2.6453927e+3, 1.8925674e+2, -777920.06, -1129254.3, 84563.766, -0.07340294, -0.6300465, -758625.75, 326597.38, 0.000000036839044, 10.003151, 9.998458 
2.6453018e+3, 1.9925512e+2, -758701.6, -1079872.6, 78414.234, -0.03944, -0.5936919, -740579.25, 246659.42, 0.0, 10.002654, 9.998364 
2.645211e+3, 2.0925291e+2, -756218.5, -991809.3, 104344.87, -0.039471198, -0.62109494, -716649.3, 172611.38, 0.0, 10.001844, 9.998686 
2.64512e+3, 2.1925087e+2, -772551.4, -934924.75, 109159.945, -0.04379307, -0.65325516, -717697.0, 73584.38, 0.0, 10.000998, 9.998813 
2.6450294e+3, 2.292501e+2, -715309.8, -786208.7, 99587.84, -0.021451052, -0.6030291, -645050.25, 48240.24, 0.0, 10.000414, 9.999441 
2.6449388e+3, 2.392497e+2, -686664.0, -697801.25, 104488.8, 0.0044214805, -0.5481774, -587595.56, 7700.1157, 0.0, 9.999835, 9.999655 
2.644848e+3, 2.4924879e+2, -667008.94, -554914.7, 108250.305, -0.016498903, -0.60522145, -489062.63, 8239.871, 0.0, 9.99894, 10.000393 
2.6447567e+3, 2.5924802e+2, -717370.0, -550596.5, 90791.74, -0.046565432, -0.67540836, -510709.22, -111401.664, 0.0, 9.998015, 10.000196 
2.6446655e+3, 2.6924828e+2, -680484.7, -458883.4, 64254.11, -0.04225107, -0.62895495, -441600.6, -140295.25, 0.0, 9.997495, 10.000404 
2.6445743e+3, 2.7924883e+2, -649912.06, -385714.66, 80148.84, -0.009544333, -0.5745598, -363301.53, -160000.42, 0.0, 9.996998, 10.000475 
2.6444837e+3, 2.8924844e+2, -612805.25, -247182.14, 82665.84, 0.06824954, -0.6511273, -229360.42, -124056.586, 0.0, 9.996279, 10.0011 
2.6443928e+3, 2.9924846e+2, -615506.75, -188666.63, 51625.78, 0.08060004, -0.72032684, -182511.31, -175208.83, 0.0, 9.995547, 10.0011835 
2.6442984e+3, 3.0925134e+2, -567014.56, -53130.875, -22105.242, -0.094337784, -0.5510244, -52181.746, -52181.746, 0.0, 9.995166, 10.001964 
2.6442078e+3, 3.192516e+2, -685034.7, -102669.93, 128295.96, 0.07266535, -0.6539311, -75658.92, -75658.92, 0.0, 9.994327, 10.0020275 
2.6559502e+3, 1.2936914e+2, -968351.5, -1715739.6, 37283.098, -0.13523169, -0.57155055, -966496.25, 705626.4, 0.05199607, 10.007038, 9.996602 
2.6558572e+3, 1.3936453e+2, -917940.06, -1646390.5, 9389.572, -0.13605401, -0.64779973, -917819.06, 656348.75, 0.033172652, 10.006587, 9.996625 
2.6557642e+3, 1.4936131e+2, -859786.6, -1513020.4, 11835.22, -0.12776484, -0.6170277, -859572.25, 616627.56, 0.016375376, 10.005971, 9.99716 
2.6556715e+3, 1.593585e+2, -836324.25, -1432576.5, 23026.059, -0.09308221, -0.5759055, -835436.4, 542791.25, 0.0054210224, 10.005315, 9.997356 
2.6555794e+3, 1.6935559e+2, -806157.7, -1289502.9, 61365.582, -0.07348762, -0.60121584, -798488.4, 481766.2, 0.00093934475, 10.004495, 9.998059 
2.6554877e+3, 1.793528e+2, -844071.3, -1284374.8, 71172.234, -0.06578867, -0.6378492, -832852.6, 349427.6, 0.000044756252, 10.0036745, 9.997818 
2.6553956e+3, 1.893501e+2, -811328.1, -1199712.9, 67597.26, -0.055308834, -0.6473363, -799899.3, 284407.75, 0.000000014947995, 10.003151, 9.997976 
2.655304e+3, 1.993477e+2, -766666.1, -1096722.1, 55940.58, -0.04300375, -0.6474272, -757442.6, 228888.7, 0.0, 10.002651, 9.998253 
2.6552123e+3, 2.0934626e+2, -731657.25, -941054.4, 72416.71, -0.04275219, -0.6215816, -709053.2, 179292.61, 0.0, 10.001841, 9.999038 
2.6551205e+3, 2.193451e+2, -763065.5, -913196.6, 82860.08, -0.044132575, -0.59817505, -726324.9, 64032.676, 0.0, 10.000984, 9.998971 
2.6550293e+3, 2.2934364e+2, -723132.9, -803033.2, 80484.72, -0.024981122, -0.6119855, -673228.7, 19143.809, 0.0, 10.000414, 9.999328 
2.654938e+3, 2.3934242e+2, -692199.0, -712520.3, 77222.81, -0.0032639732, -0.6281808, -624471.25, -30086.064, 0.0, 9.999844, 9.999552 
2.6548463e+3, 2.4934217e+2, -674285.8, -570690.1, 70348.016, -0.006607935, -0.6087021, -535127.44, -38740.63, 0.0, 9.998939, 10.000288 
2.6547548e+3, 2.593422e+2, -719342.7, -553691.06, 61929.98, -0.017610695, -0.59050685, -533098.1, -134712.61, 0.0, 9.998007, 10.000182 
2.6546627e+3, 2.6934183e+2, -674203.5, -446374.88, 47299.703, -0.013596487, -0.61585623, -436945.25, -136556.58, 0.0, 9.997493, 10.000493 
2.654571e+3, 2.7934158e+2, -641801.1, -375813.44, 58006.227, 0.0026830342, -0.6479773, -363713.94, -161323.25, 0.0, 9.997023, 10.000533 
2.654479e+3, 2.8934178e+2, -614180.7, -253083.36, 52331.21, 0.018642813, -0.6665299, -245652.3, -141264.4, 0.0, 9.996286, 10.001058 
2.654387e+3, 2.9934236e+2, -641386.0, -240658.25, 30061.598, -0.0011817373, -0.6637129, -238415.64, -232034.63, 0.0, 9.995534, 10.000834 
2.654294e+3, 3.0934393e+2, -606772.6, -151562.88, -34007.37, -0.0053054313, -0.567058, -149036.31, -149036.31, 0.0, 9.995229, 10.001261 
2.654202e+3, 3.193435e+2, -662297.2, -52053.39, 17281.15, 0.09422747, -0.69125843, -51564.406, -51564.406, 0.0, 9.9943075, 10.002386 
2.665957e+3, 1.2946276e+2, -958362.56, -1715685.3, 34886.06, -0.123858005, -0.60026073, -956758.94, 714444.7, 0.044429567, 10.007078, 9.996584 
2.6658636e+3, 1.394585e+2, -948224.75, -1658408.1, 37872.14, -0.11877544, -0.6403705, -946210.8, 627035.6, 0.0280418, 10.00633, 9.996665 
2.6657698e+3, 1.4945522e+2, -895948.6, -1519478.5, 49971.414, -0.11790827, -0.6233502, -891969.2, 583309.7, 0.013591853, 10.005662, 9.99726 
2.6656762e+3, 1.5945229e+2, -874553.6, -1446543.0, 59044.11, -0.09240565, -0.60101885, -868522.3, 508785.1, 0.004365102, 10.005033, 9.997394 
2.6655835e+3, 1.694495e+2, -825903.6, -1304177.4, 68102.555, -0.072619565, -0.61042315, -816395.4, 462938.25, 0.00072401675, 10.004387, 9.998007 
2.6654908e+3, 1.7944685e+2, -831617.2, -1273433.4, 55340.844, -0.06160274, -0.6278444, -824790.8, 356567.34, 0.00003245601, 10.003745, 9.997856 
2.6653984e+3, 1.8944417e+2, -817181.2, -1188010.9, 84718.4, -0.047322128, -0.64643383, -798743.44, 284641.28, 0.0000000057994387, 10.003055, 9.9981 
2.665306e+3, 1.9944176e+2, -802974.75, -1106379.5, 104640.38, -0.031611793, -0.65812933, -770386.0, 215023.0, 0.0, 10.002374, 9.998318 
2.6652136e+3, 2.0944035e+2, -739847.94, -946837.1, 100902.195, -0.036645178, -0.62572, -698800.56, 188622.69, 0.0, 10.001798, 9.999016 
2.6651213e+3, 2.1943925e+2, -724652.8, -889232.44, 88856.2, -0.043261413, -0.59303975, -685835.06, 103599.44, 0.0, 10.00123, 9.999013 
2.6650292e+3, 2.2943781e+2, -697276.25, -779414.3, 97809.77, -0.031098139, -0.6152165, -632263.2, 59185.81, 0.0, 10.000547, 9.999422 
2.6649374e+3, 2.3943655e+2, -693673.3, -712818.75, 105231.9, -0.012905132, -0.64223593, -597579.6, -4118.0654, 0.0, 9.999838, 9.99955 
2.6648453e+3, 2.4943629e+2, -657869.5, -578383.06, 92518.85, -0.0029369078, -0.6114988, -517432.38, -21968.516, 0.0, 9.999123, 10.000144 
2.6647526e+3, 2.5943634e+2, -666972.25, -534585.9, 86180.29, 0.0031066802, -0.5787932, -492111.78, -94648.484, 0.0, 9.998398, 10.000122 
2.6646605e+3, 2.6943582e+2, -627335.44, -419905.28, 74130.84, -0.00016390231, -0.61753994, -396136.25, -96668.95, 0.0, 9.997804, 10.000523 
2.6645678e+3, 2.794354e+2, -617334.3, -367359.22, 74812.02, 0.005498162, -0.6668923, -346680.25, -145210.03, 0.0, 9.997211, 10.000497 
2.6644754e+3, 2.8943568e+2, -585428.6, -254136.52, 54783.457, 0.008092077, -0.6624544, -245312.39, -141845.8, 0.0, 9.996552, 10.000919 
2.6643822e+3, 2.994364e+2, -605371.56, -238536.52, 34499.41, -0.022899367, -0.63784945, -235320.17, -229860.73, 0.0, 9.9958515, 10.000694 
2.6642892e+3, 3.094371e+2, -631461.2, -181734.81, 13947.995, 0.023731347, -0.6074367, -181302.64, -181302.64, 0.0, 9.995145, 10.001091 
2.6641956e+3, 3.1943706e+2, -605055.2, -16326.078, 40133.816, 0.07165507, -0.6847501, -13602.743, -13602.743, 0.0, 9.994673, 10.002451 
2.6759636e+3, 1.2955646e+2, -933489.9, -1658246.8, 9396.557, -0.111366466, -0.6500896, -933368.06, 736916.9, 0.037564702, 10.007015, 9.997009 
2.6758695e+3, 1.3955356e+2, -927040.9, -1617081.8, 12239.169, -0.11577864, -0.5942908, -926823.9, 645490.4, 0.023444822, 10.006316, 9.996956 
2.675775e+3, 1.4955007e+2, -884994.25, -1501620.3, 26039.275, -0.10610385, -0.6153961, -883896.6, 590451.2, 0.011150158, 10.005665, 9.997385 
2.675681e+3, 1.5954666e+2, -884469.0, -1467960.9, 35155.945, -0.07012375, -0.64739275, -882358.5, 494021.94, 0.003472251, 10.005026, 9.997252 
2.6755875e+3, 1.6954362e+2, -858452.94, -1373115.1, 45622.973, -0.07054344, -0.64195263, -854439.94, 423970.6, 0.0005526933, 10.004388, 9.997536 
2.675494e+3, 1.7954092e+2, -828081.8, -1267259.0, 33002.74, -0.082463466, -0.6308267, -825615.56, 354821.97, 0.000023527984, 10.003745, 9.9979 
2.675401e+3, 1.8953891e+2, -773029.25, -1096489.1, 60287.95, -0.048722304, -0.6287548, -762157.9, 320298.38, 0.000000001728097, 10.00305, 9.998733 
2.675308e+3, 1.9953714e+2, -793558.5, -1084294.6, 81442.625, -0.009704123, -0.629192, -772298.9, 212173.95, 0.0, 10.002358, 9.998479 
2.675215e+3, 2.0953512e+2, -768318.5, -1006075.9, 80574.94, -0.023270376, -0.63442415, -743585.0, 142908.89, 0.0, 10.001795, 9.998612 
2.675122e+3, 2.1953334e+2, -729847.44, -900981.56, 66305.03, -0.045586437, -0.6376223, -707164.44, 81348.46, 0.0, 10.001229, 9.998935 
2.6750293e+3, 2.2953258e+2, -676020.9, -736466.44, 71589.19, -0.04101059, -0.61131555, -628536.3, 61983.89, 0.0, 10.000548, 9.999719 
2.6749367e+3, 2.3953205e+2, -688290.75, -701931.7, 78286.664, -0.02809699, -0.5880447, -616528.0, -24003.16, 0.0, 9.999834, 9.999628 
2.6748437e+3, 2.4953109e+2, -672327.7, -609104.06, 64954.156, -0.005761152, -0.61647314, -568477.75, -73943.56, 0.0, 9.999123, 9.999934 
2.6747507e+3, 2.595303e+2, -673298.56, -553121.7, 60869.54, 0.008870928, -0.64679354, -527678.1, -131136.34, 0.0, 9.998417, 9.999988 
2.6746574e+3, 2.6953024e+2, -629350.9, -427625.25, 51081.758, -0.0076060994, -0.63286954, -415427.66, -116886.15, 0.0, 9.997813, 10.000467 
2.6745644e+3, 2.7953038e+2, -628012.94, -391638.3, 50601.75, -0.006432513, -0.61950284, -381261.3, -180721.97, 0.0, 9.997215, 10.000331 
2.6744717e+3, 2.8953022e+2, -603330.06, -294429.03, 27038.139, 0.050781872, -0.6384864, -292080.25, -189539.38, 0.0, 9.996561, 10.000642 
2.6743782e+3, 2.995303e+2, -593136.2, -219342.64, 5271.8975, 0.038533974, -0.6517316, -219268.3, -214728.58, 0.0, 9.995873, 10.000818 
2.6742828e+3, 3.095309e+2, -599466.44, -111688.63, -13602.133, -0.061377753, -0.6750273, -111309.62, -111309.62, 0.0, 9.995123, 10.001585 
2.6741898e+3, 3.1953245e+2, -627912.7, -73819.66, 57348.043, 0.07301023, -0.61545175, -67946.45, -67946.45, 0.0, 9.994704, 10.002048 
2.68597e+3, 1.2965144e+2, -991634.25, -1691509.8, 42324.867, -0.12399655, -0.64876527, -989083.94, 680269.1, 0.031350926, 10.006573, 9.996994 
2.6858756e+3, 1.396484e+2, -924132.6, -1608776.3, 18641.861, -0.08835732, -0.6068703, -923625.44, 647758.56, 0.01933169, 10.006283, 9.997028 
2.6857802e+3, 1.4964503e+2, -876827.94, -1480552.3, 26446.387, -0.08998558, -0.6275952, -875671.6, 597744.4, 0.0090102125, 10.005642, 9.997538 
2.6856858e+3, 1.5964177e+2, -886092.9, -1454485.3, 40776.863, -0.07041359, -0.65861106, -883182.4, 492264.4, 0.002717246, 10.004955, 9.9973755 
2.6855913e+3, 1.696388e+2, -864926.8, -1367836.3, 82441.336, -0.0688997, -0.65648854, -851757.2, 425719.5, 0.0004153066, 10.004312, 9.997605 
2.6854974e+3, 1.796361e+2, -833696.25, -1263467.8, 95137.445, -0.07666137, -0.6464801, -813577.7, 365925.97, 0.000016829097, 10.003684, 9.997952 
2.6854035e+3, 1.8963422e+2, -778746.44, -1096436.0, 88799.4, -0.048305336, -0.6350435, -755610.44, 325911.25, 0.0000000002885943, 10.003004, 9.998752 
2.68531e+3, 1.9963254e+2, -797343.25, -1082840.4, 76165.64, -0.014088345, -0.62688524, -778294.56, 205243.02, 0.0, 10.002323, 9.998502 
2.6852167e+3, 2.0963049e+2, -785587.94, -1013285.2, 96837.96, -0.023428725, -0.6356353, -749973.8, 135585.13, 0.0, 10.001677, 9.998617 
2.6851228e+3, 2.1962866e+2, -755049.44, -907416.75, 105774.836, -0.03888511, -0.64395106, -700878.75, 86699.73, 0.0, 10.001039, 9.99898 
2.6850295e+3, 2.2962794e+2, -692290.06, -736023.06, 97939.87, -0.03492885, -0.6191224, -613805.4, 75779.82, 0.0, 10.000406, 9.999787 
2.684936e+3, 2.3962747e+2, -697030.75, -705485.25, 91119.19, -0.02272683, -0.5954472, -610040.8, -18451.734, 0.0, 9.999777, 9.999628 
2.6848426e+3, 2.4962643e+2, -657758.5, -613896.4, 83366.016, -0.007842035, -0.6228876, -549625.0, -56025.67, 0.0, 9.999279, 9.999824 
2.6847488e+3, 2.596255e+2, -628940.9, -539844.9, 84689.85, 0.001454533, -0.6547336, -488701.22, -93092.79, 0.0, 9.998762, 9.999909 
2.684655e+3, 2.696254e+2, -593941.5, -415258.44, 74195.02, -0.010472822, -0.64011586, -388467.22, -90858.63, 0.0, 9.998082, 10.00042 
2.6845613e+3, 2.7962548e+2, -612853.4, -391059.4, 75526.8, -0.000101992715, -0.62502766, -367783.25, -168176.44, 0.0, 9.997354, 10.000266 
2.6844683e+3, 2.8962526e+2, -590603.56, -298597.7, 64409.81, 0.068953924, -0.6403706, -285021.56, -183412.22, 0.0, 9.996699, 10.000543 
2.6843742e+3, 2.9962525e+2, -569722.1, -211013.34, 48902.566, 0.06597057, -0.6533875, -204465.98, -200856.5, 0.0, 9.996054, 10.000785 
2.6842776e+3, 3.0962586e+2, -548230.44, -80279.05, -4745.5166, -0.06886874, -0.67951953, -80230.92, -80230.92, 0.0, 9.995452, 10.001637 
2.6841843e+3, 3.196275e+2, -606248.6, -65003.234, 79172.21, 0.08892176, -0.60970575, -53659.83, -53659.83, 0.0, 9.994868, 10.002024 
2.6959756e+3, 1.2974739e+2, -1007531.0, -1735354.8, 32345.125, -0.1588687, -0.6136491, -1006096.4, 662314.94, 0.025737973, 10.006583, 9.996686 
2.6958817e+3, 1.397432e+2, -936552.5, -1625628.8, 4411.905, -0.043830074, -0.6613722, -936524.3, 633929.7, 0.015659181, 10.006218, 9.996945 
2.6957858e+3, 1.497402e+2, -869792.8, -1461163.4, 3303.6687, -0.072060116, -0.6541828, -869774.4, 602708.06, 0.007138409, 10.005606, 9.997692 
2.6956898e+3, 1.5973756e+2, -864492.44, -1407802.9, 18200.205, -0.091833055, -0.64346606, -863883.44, 510623.8, 0.002079681, 10.004941, 9.997705 
2.6955953e+3, 1.6973488e+2, -831991.44, -1297122.5, 60143.58, -0.068665415, -0.65791446, -824340.5, 452192.78, 0.00030455194, 10.004296, 9.9981 
2.6955009e+3, 1.7973234e+2, -836369.4, -1265375.0, 70348.63, -0.05011706, -0.67206097, -825128.1, 353429.97, 0.000011617903, 10.003664, 9.9979515 
2.695406e+3, 1.8973003e+2, -817682.3, -1177228.5, 63772.35, -0.048663024, -0.6619682, -806706.1, 273875.63, 0.000000000007316074, 10.003, 9.998201 
2.6953116e+3, 1.9972795e+2, -803519.5, -1097083.0, 52875.23, -0.04579607, -0.6480941, -794286.25, 188316.83, 0.0, 10.002326, 9.998405 
2.6952174e+3, 2.0972645e+2, -757851.94, -957049.2, 74125.35, -0.035950366, -0.62898564, -733295.6, 151323.02, 0.0, 10.001678, 9.999004 
2.6951236e+3, 2.1972516e+2, -747829.4, -890286.5, 82981.35, -0.02638251, -0.61520934, -709698.8, 76933.07, 0.0, 10.001025, 9.999105 
2.6950297e+3, 2.2972383e+2, -705948.2, -764388.44, 74767.08, -0.0137526095, -0.64071983, -654894.2, 33750.23, 0.0, 10.000403, 9.999596 
2.6949355e+3, 2.3972273e+2, -702688.3, -720368.94, 69558.86, -0.0025073036, -0.66383624, -641410.25, -50755.574, 0.0, 9.999786, 9.999523 
2.6948413e+3, 2.4972229e+2, -657345.94, -615491.25, 64069.133, -0.011853134, -0.627949, -569018.25, -76358.72, 0.0, 9.999285, 9.999812 
2.6947471e+3, 2.59722e+2, -629682.4, -544611.75, 61999.637, -0.023542233, -0.59445494, -511959.25, -117296.49, 0.0, 9.998772, 9.999874 
2.694653e+3, 2.697212e+2, -597594.2, -424389.5, 46261.414, -0.006017393, -0.6410174, -412807.9, -116138.98, 0.0, 9.998085, 10.000358 
2.6945585e+3, 2.797206e+2, -608954.44, -385680.56, 49128.594, 0.025022402, -0.6906214, -375348.56, -176675.19, 0.0, 9.997361, 10.000301 
2.694464e+3, 2.8972083e+2, -581897.4, -282637.3, 40081.277, 0.049842063, -0.6719064, -277362.03, -176690.05, 0.0, 9.996702, 10.000654 
2.6943693e+3, 2.997213e+2, -589038.25, -251996.42, 26765.602, 0.037325513, -0.63892454, -249884.13, -247216.33, 0.0, 9.996052, 10.000506 
2.6942736e+3, 3.0972204e+2, -587490.94, -167403.53, -29267.795, 0.056262884, -0.5967313, -165374.22, -165374.22, 0.0, 9.995473, 10.001032 
2.6941785e+3, 3.1972152e+2, -571793.4, 2565.0178, 57256.625, 0.041224834, -0.7121582, 8217.192, 8217.192, 0.0, 9.994876, 10.002489 
2.705982e+3, 1.2984313e+2, -953055.2, -1673284.1, 25703.33, -0.14258054, -0.6386179, -952139.06, 715332.9, 0.020694278, 10.006778, 9.99702 
2.7058876e+3, 1.3983932e+2, -1024841.94, -1640425.6, 39463.957, -0.024206797, -0.6771165, -1022322.3, 547187.5, 0.012399438, 10.005465, 9.997205 
2.7057904e+3, 1.498364e+2, -941630.06, -1479058.0, 53523.45, -0.06773001, -0.6781529, -936351.4, 535186.2, 0.0055116024, 10.0050335, 9.997841 
2.7056944e+3, 1.5983383e+2, -886697.8, -1404824.6, 59832.953, -0.10280461, -0.6741687, -879878.06, 493684.0, 0.0015450247, 10.00473, 9.997825 
2.7055988e+3, 1.6983138e+2, -860204.8, -1301189.8, 72991.53, -0.070843846, -0.6728445, -848437.3, 427148.9, 0.0002155136, 10.0040655, 9.99818 
2.705504e+3, 1.7982906e+2, -873054.25, -1272234.4, 65747.1, -0.041813634, -0.67278826, -862504.2, 315105.0, 0.0000075416983, 10.00337, 9.998043 
2.7054083e+3, 1.8982674e+2, -833442.1, -1176135.5, 94620.43, -0.053100176, -0.6705976, -809052.44, 270580.44, 0.0, 10.00286, 9.998274 
2.7053136e+3, 1.9982463e+2, -792389.9, -1082595.0, 117581.63, -0.06222949, -0.6651742, -750730.0, 230924.53, 0.0, 10.002369, 9.998482 
2.7052188e+3, 2.0982322e+2, -743524.56, -942306.1, 121939.9, -0.039506845, -0.64247197, -685600.8, 198068.48, 0.0, 10.001748, 9.999068 
2.7051243e+3, 2.1982202e+2, -734656.7, -883136.5, 110353.86, -0.014694042, -0.6232802, -675894.56, 109787.125, 0.0, 10.001117, 9.999107 
2.7050295e+3, 2.2982065e+2, -693624.56, -769130.7, 106439.88, -0.012970037, -0.64557797, -618440.75, 69254.25, 0.0, 10.000539, 9.999495 
2.7049348e+3, 2.3981942e+2, -682292.8, -715757.75, 108361.54, -0.011569094, -0.6689806, -589379.5, 327.05954, 0.0, 9.999955, 9.999471 
2.70484e+3, 2.498189e+2, -655607.8, -615064.44, 103273.65, -0.009355255, -0.63815653, -530091.7, -38379.805, 0.0, 9.999305, 9.999803 
2.7047452e+3, 2.5981855e+2, -649667.8, -557041.25, 101036.95, -0.007519307, -0.60951215, -492208.72, -98493.13, 0.0, 9.998652, 9.999844 
2.7046505e+3, 2.6981768e+2, -584592.9, -427291.03, 83575.24, -0.0011134116, -0.65463406, -391177.9, -95455.11, 0.0, 9.99822, 10.000269 
2.7045557e+3, 2.7981704e+2, -552705.06, -360028.25, 79817.18, 0.018489344, -0.70175093, -331259.22, -133531.03, 0.0, 9.997761, 10.000281 
2.7044603e+3, 2.898174e+2, -537351.8, -254778.77, 61400.492, 0.039425775, -0.66938204, -242013.66, -142288.56, 0.0, 9.996986, 10.000706 
2.7043647e+3, 2.9981798e+2, -572801.7, -257214.63, 53883.434, 0.029290374, -0.6269431, -248268.17, -246548.42, 0.0, 9.996224, 10.000385 
2.7042696e+3, 3.0981818e+2, -525682.6, -176549.3, 28304.73, 0.10376898, -0.6077451, -174269.48, -174269.48, 0.0, 9.996068, 10.00068 
2.7041727e+3, 3.1981716e+2, -538473.4, 29619.049, 61842.707, 0.037741564, -0.7489511, 36273.32, 36273.32, 0.0, 9.995062, 10.002582 
2.7159888e+3, 1.2993884e+2, -904062.56, -1562930.9, -20391.855, -0.096800305, -0.7024527, -903432.0, 763100.5, 0.01621653, 10.006715, 9.997816 
2.7158922e+3, 1.3993654e+2, -989110.56, -1570956.6, 9615.947, -0.026769852, -0.66434616, -988951.7, 579602.3, 0.009542996, 10.005472, 9.997679 
2.715795e+3, 1.4993349e+2, -931337.2, -1461679.9, 44828.79, -0.07496019, -0.7009912, -927574.56, 543008.56, 0.0041180844, 10.005038, 9.997961 
2.7156985e+3, 1.5993056e+2, -894865.3, -1418009.4, 42152.742, -0.106559254, -0.73903316, -891490.6, 481121.1, 0.0011045443, 10.004708, 9.997747 
2.7156025e+3, 1.6992828e+2, -880629.44, -1342258.5, 47424.617, -0.07651544, -0.6972002, -875807.75, 398827.75, 0.0001453305, 10.004056, 9.997905 
2.7155066e+3, 1.7992625e+2, -860415.06, -1247208.0, 45424.14, -0.05134397, -0.65217704, -855152.1, 321504.78, 0.0000045032148, 10.003372, 9.998216 
2.715411e+3, 1.8992428e+2, -790871.5, -1088397.8, 78072.27, -0.061020758, -0.66434026, -771629.4, 307046.44, 0.0, 10.002858, 9.998879 
2.7153152e+3, 1.9992246e+2, -781557.4, -1057362.6, 96506.2, -0.06741233, -0.6818747, -751143.06, 229550.33, 0.0, 10.002353, 9.998664 
2.7152202e+3, 2.0992073e+2, -763558.0, -982946.56, 97981.79, -0.036413137, -0.67542046, -726169.75, 156541.98, 0.0, 10.001741, 9.998795 
2.715125e+3, 2.1991923e+2, -744360.94, -903385.44, 88019.8, -0.009381773, -0.66181076, -705257.5, 79470.35, 0.0, 10.001114, 9.998972 
2.7150294e+3, 2.2991836e+2, -693188.1, -769768.06, 85111.664, -0.033846047, -0.6305862, -638150.1, 48586.855, 0.0, 10.000542, 9.999492 
2.714934e+3, 2.3991759e+2, -683383.06, -718260.9, 85228.76, -0.053408183, -0.6094736, -613827.4, -25082.688, 0.0, 9.999952, 9.999457 
2.714839e+3, 2.4991623e+2, -658388.44, -620468.3, 78156.47, 0.0011640288, -0.65809363, -559005.0, -68248.13, 0.0, 9.9993, 9.999769 
2.7147442e+3, 2.5991508e+2, -652425.5, -565427.7, 80763.91, 0.047717005, -0.70404965, -517193.47, -124426.21, 0.0, 9.99866, 9.999784 
2.7146482e+3, 2.6991484e+2, -592048.8, -445778.84, 68082.56, 0.00053810596, -0.6790812, -418994.06, -124224.055, 0.0, 9.998228, 10.000141 
2.7145526e+3, 2.7991486e+2, -556874.75, -372616.13, 57034.055, -0.029822996, -0.64713174, -356390.97, -159620.64, 0.0, 9.997772, 10.000192 
2.714457e+3, 2.8991503e+2, -540213.4, -262220.88, 29260.178, 0.042985126, -0.6264558, -259174.45, -160406.38, 0.0, 9.996988, 10.000655 
2.714361e+3, 2.9991525e+2, -565822.44, -244923.31, 37027.09, 0.05353125, -0.6165791, -240706.34, -239941.16, 0.0, 9.996229, 10.00047 
2.7142644e+3, 3.0991408e+2, -513079.25, -161293.8, 30620.29, 0.018518597, -0.74668026, -158648.42, -158648.42, 0.0, 9.996108, 10.000769 
2.714168e+3, 3.199154e+2, -585495.25, -55918.832, -72960.33, 0.12062965, -0.6444391, -46050.887, -46050.887, 0.0, 9.995013, 10.002015 
2.7259946e+3, 1.3003638e+2, -964411.8, -1611909.6, 45962.004, -0.120954305, -0.7598546, -961165.5, 704407.44, 0.012317994, 10.006354, 9.997648 
2.7258974e+3, 1.4003421e+2, -979502.56, -1574875.6, 36384.055, -0.015798284, -0.6901543, -977287.3, 590306.94, 0.0070928736, 10.005565, 9.997605 
2.7257997e+3, 1.5003127e+2, -952503.56, -1472433.4, 68973.36, -0.06362433, -0.7130376, -943509.2, 526114.0, 0.0029546039, 10.004895, 9.9979515 
2.7257025e+3, 1.600284e+2, -949569.4, -1435662.8, 60519.78, -0.09844769, -0.74396724, -942147.8, 429503.78, 0.00075319345, 10.004297, 9.997821 
2.725606e+3, 1.7002614e+2, -899573.4, -1334983.0, 86626.17, -0.07585317, -0.71235704, -882971.75, 390703.28, 0.000092196795, 10.003861, 9.998046 
2.7255094e+3, 1.8002412e+2, -848318.75, -1233073.8, 101636.96, -0.057488263, -0.6751156, -823120.6, 352575.47, 0.0000024128854, 10.003426, 9.998284 
2.725413e+3, 1.9002225e+2, -807221.06, -1097875.9, 99159.266, -0.06674651, -0.67845935, -776614.94, 301099.84, 0.0, 10.002759, 9.998858 
2.725317e+3, 2.000205e+2, -816262.4, -1066356.4, 83104.71, -0.070932776, -0.68738896, -791165.6, 188566.34, 0.0, 10.002087, 9.998727 
2.7252212e+3, 2.1001889e+2, -784297.56, -979680.8, 103444.98, -0.043846805, -0.6797397, -739705.94, 142042.9, 0.0, 10.001547, 9.998908 
2.7251256e+3, 2.200175e+2, -756808.06, -906198.75, 117390.4, -0.018775621, -0.6658086, -692363.5, 91400.414, 0.0, 10.00102, 9.998995 
2.7250296e+3, 2.3001656e+2, -708613.94, -785451.1, 112269.77, -0.038124677, -0.6327983, -628371.3, 57402.563, 0.0, 10.000477, 9.999413 
2.7249333e+3, 2.4001572e+2, -686787.7, -719630.94, 108090.414, -0.05099236, -0.61061496, -593878.6, -6096.0176, 0.0, 9.999933, 9.999454 
2.7248383e+3, 2.5001433e+2, -631240.44, -602626.25, 105116.57, 0.000050327166, -0.6648677, -510847.63, -21052.896, 0.0, 9.999472, 9.999805 
2.7247423e+3, 2.6001313e+2, -610829.75, -550327.94, 111539.52, 0.045176823, -0.71723753, -465009.88, -73204.55, 0.0, 9.998975, 9.999733 
2.724646e+3, 2.7001286e+2, -593090.4, -461101.38, 96868.4, 0.000030364661, -0.68199384, -409883.4, -116074.51, 0.0, 9.998292, 10.000002 
2.7245495e+3, 2.8001282e+2, -585055.25, -392807.34, 84795.22, -0.025030712, -0.64073193, -360751.56, -164941.39, 0.0, 9.997613, 10.000127 
2.7244538e+3, 2.9001293e+2, -499291.53, -243738.83, 58311.06, 0.06033237, -0.62188536, -231062.44, -133254.55, 0.0, 9.997282, 10.000637 
2.7243572e+3, 3.000131e+2, -475311.88, -199419.78, 64413.64, 0.072677605, -0.6194406, -185121.84, -185121.84, 0.0, 9.996852, 10.000478 
2.7242592e+3, 3.1001148e+2, -577372.8, -184761.17, 49407.15, -0.020968165, -0.79791, -178639.13, -178639.13, 0.0, 9.995644, 10.000826 
2.7241632e+3, 3.2001385e+2, -526954.44, -32958.676, -73353.67, 0.14528926, -0.5904531, -22296.48, -22296.48, 0.0, 9.995447, 10.001961 
2.7359998e+3, 1.3013524e+2, -1031227.0, -1736825.9, 10605.507, -0.19537413, -0.811731, -1031067.6, 633531.06, 0.009010881, 10.006275, 9.996822 
2.735903e+3, 1.4013232e+2, -1010816.25, -1642768.0, 10795.814, 0.0030827539, -0.74323434, -1010631.9, 555998.6, 0.005054052, 10.005563, 9.997141 
2.7358043e+3, 1.5012969e+2, -959795.25, -1491178.1, 46687.03, -0.039650094, -0.7164439, -955724.56, 512933.44, 0.00201938, 10.004901, 9.997823 
2.7357066e+3, 1.601272e+2, -937737.1, -1409673.5, 42350.195, -0.08385945, -0.7039058, -933966.9, 436716.44, 0.00048564, 10.004287, 9.998006 
2.7356094e+3, 1.7012484e+2, -869299.3, -1270087.8, 72000.24, -0.071679726, -0.72152215, -856757.2, 415948.9, 0.00005431211, 10.003849, 9.9985 
2.7355126e+3, 1.8012264e+2, -855172.1, -1244094.4, 79880.28, -0.06305756, -0.73474824, -839404.8, 335322.75, 0.0000011019603, 10.0034075, 9.9982195 
2.7354154e+3, 1.9012061e+2, -848642.25, -1183189.5, 73571.47, -0.07159012, -0.708716, -833177.75, 243572.11, 0.0, 10.002752, 9.998277 
2.7353185e+3, 2.0011882e+2, -819096.8, -1072779.4, 62116.3, -0.076218635, -0.67874366, -804703.7, 174065.97, 0.0, 10.002086, 9.998685 
2.7352223e+3, 2.101177e+2, -750909.1, -911764.94, 84924.52, -0.061671063, -0.6563342, -714372.0, 166408.75, 0.0, 10.00155, 9.999374 
2.735126e+3, 2.2011669e+2, -747974.44, -885853.5, 97755.63, -0.04541866, -0.64098984, -697294.5, 85496.18, 0.0, 10.001008, 9.999143 
2.7350295e+3, 2.3011519e+2, -721673.1, -812581.8, 92225.51, -0.025837833, -0.6557527, -664309.0, 20497.334, 0.0, 10.000474, 9.9992285 
2.7349335e+3, 2.4011385e+2, -686679.0, -722404.0, 88996.77, -0.009264604, -0.6682951, -613769.8, -26949.664, 0.0, 9.999943, 9.999432 
2.734837e+3, 2.5011328e+2, -622170.5, -586519.0, 87152.99, -0.016345643, -0.6522512, -515387.47, -26562.398, 0.0, 9.999479, 9.999915 
2.7347404e+3, 2.6011276e+2, -612726.25, -556679.3, 89331.98, -0.024936477, -0.6387145, -491078.44, -100249.516, 0.0, 9.9989805, 9.999688 
2.7346438e+3, 2.7011177e+2, -606779.44, -488507.34, 69434.01, -0.0009681113, -0.66453665, -456439.5, -163599.92, 0.0, 9.998284, 9.999819 
2.7345473e+3, 2.801109e+2, -590524.2, -403124.4, 66231.33, 0.041692354, -0.68894726, -382079.97, -187231.72, 0.0, 9.997605, 10.000062 
2.734451e+3, 2.901111e+2, -496738.13, -243227.92, 47892.176, 0.0899223, -0.66319466, -234482.03, -137636.8, 0.0, 9.997297, 10.000637 
2.7343535e+3, 3.001114e+2, -477962.28, -212725.08, 31980.908, 0.071361296, -0.6393021, -208923.48, -208923.48, 0.0, 9.996881, 10.000375 
2.734255e+3, 3.1011057e+2, -593644.1, -203661.48, -5533.964, 0.022787154, -0.72979665, -203582.97, -203582.97, 0.0, 9.995578, 10.00073 
2.7341583e+3, 3.201117e+2, -466397.53, 63058.023, 26611.953, 0.13161582, -0.6568905, 64392.254, 64392.254, 0.0, 9.995547, 10.002586 
2.7460054e+3, 1.302344e+2, -1107573.8, -1742390.6, -10184.702, -0.16668926, -0.80326277, -1107410.4, 556215.8, 0.006295142, 10.005591, 9.997117 
2.7459076e+3, 1.4023139e+2, -1012014.56, -1634264.9, 37344.17, -0.02510397, -0.76877284, -1009781.4, 555876.6, 0.0034228018, 10.005511, 9.997224 
2.745809e+3, 1.5022871e+2, -978786.1, -1514469.4, 73481.9, -0.0474261, -0.7347486, -968889.2, 498797.0, 0.0013035252, 10.004837, 9.99769 
2.7457103e+3, 1.6022626e+2, -960318.1, -1418340.9, 69178.15, -0.064878196, -0.7095528, -950097.75, 419614.13, 0.0002931351, 10.0041275, 9.998021 
2.745613e+3, 1.7022397e+2, -905909.0, -1274474.1, 83340.484, -0.06495965, -0.7284621, -887940.0, 383793.84, 0.000029276536, 10.003544, 9.998613 
2.745515e+3, 1.8022183e+2, -906782.9, -1260017.8, 76409.6, -0.07066031, -0.7457529, -890962.94, 282791.56, 0.00000039166414, 10.003018, 9.998295 
2.7454174e+3, 1.902199e+2, -863194.2, -1187658.9, 101365.39, -0.073850036, -0.71337324, -834130.2, 241645.95, 0.0, 10.002648, 9.998294 
2.7453202e+3, 2.0021817e+2, -790915.94, -1051524.3, 119085.14, -0.07193031, -0.6760714, -744696.9, 233098.6, 0.0, 10.002253, 9.998749 
2.745223e+3, 2.10217e+2, -741594.4, -896993.3, 120606.94, -0.0652789, -0.6660474, -675825.25, 203981.44, 0.0, 10.0015745, 9.999462 
2.7451262e+3, 2.2021592e+2, -758931.1, -883579.0, 114091.69, -0.054013833, -0.66522706, -691250.5, 90566.37, 0.0, 10.000905, 9.999205 
2.7450296e+3, 2.3021443e+2, -722655.75, -811954.8, 120660.4, -0.024974242, -0.6790569, -638648.75, 45183.59, 0.0, 10.000468, 9.999234 
2.744933e+3, 2.4021316e+2, -673777.94, -713337.3, 127139.31, 0.002373667, -0.6872223, -564888.9, 20957.004, 0.0, 10.000025, 9.999453 
2.744836e+3, 2.502127e+2, -634156.4, -589057.2, 117611.67, -0.0138079375, -0.6571623, -491852.9, -4003.3323, 0.0, 9.999389, 9.999939 
2.7447385e+3, 2.602123e+2, -644121.2, -572875.25, 117239.26, -0.032145385, -0.63359433, -485966.44, -96113.8, 0.0, 9.998775, 9.999674 
2.744642e+3, 2.702111e+2, -572370.75, -478879.72, 106154.63, -0.0062879757, -0.6721366, -409634.06, -117769.23, 0.0, 9.998558, 9.999749 
2.744545e+3, 2.8021002e+2, -496665.53, -364941.03, 107288.07, 0.04758679, -0.7107289, -304912.2, -111036.766, 0.0, 9.998289, 9.99999 
2.7444482e+3, 2.9021004e+2, -465850.66, -236502.33, 82219.68, 0.117676064, -0.69302034, -210072.84, -114198.73, 0.0, 9.997551, 10.000558 
2.74435e+3, 3.0021024e+2, -494548.13, -236225.31, 55374.336, 0.10514957, -0.6708395, -224855.63, -224855.63, 0.0, 9.996838, 10.000232 
2.7442503e+3, 3.102098e+2, -444135.7, -151184.72, 5445.8423, -0.008251825, -0.6995494, -151083.53, -151083.53, 0.0, 9.996692, 10.000552 
2.7441537e+3, 3.2021004e+2, -443759.8, 103865.55, 84038.266, 0.18173495, -0.710738, 116471.81, 116471.81, 0.0, 9.995581, 10.002847 
2.7560115e+3, 1.3033389e+2, -1038071.7, -1588951.4, -6908.9956, -0.07334209, -0.7558642, -1037985.06, 624668.56, 0.004153588, 10.005546, 9.998193 
2.755912e+3, 1.4033124e+2, -989982.0, -1576643.1, 20773.436, -0.092817985, -0.77453554, -989247.3, 575430.5, 0.0021784827, 10.005451, 9.997649 
2.7558127e+3, 1.5032832e+2, -993273.8, -1540355.3, 45162.395, -0.080899134, -0.76309836, -989570.7, 477137.56, 0.00078564364, 10.004812, 9.997527 
2.7557144e+3, 1.603256e+2, -970550.7, -1440026.5, 46129.746, -0.044318274, -0.7482052, -966061.0, 402676.0, 0.00016331965, 10.004127, 9.997874 
2.755616e+3, 1.703235e+2, -918291.75, -1299641.3, 64176.793, -0.05629079, -0.73360866, -907781.2, 362976.97, 0.000014106576, 10.003539, 9.998445 
2.7555177e+3, 1.8032162e+2, -895748.3, -1233952.8, 61594.324, -0.0805341, -0.7181234, -884879.94, 287897.2, 0.00000009505926, 10.003002, 9.998483 
2.7554196e+3, 1.9031999e+2, -829779.0, -1115554.0, 89632.11, -0.075435385, -0.6969173, -803993.0, 270801.4, 0.0, 10.002634, 9.998797 
2.7553222e+3, 2.0031847e+2, -786399.56, -1037674.44, 98696.766, -0.0632862, -0.6810383, -752269.0, 224541.63, 0.0, 10.002231, 9.998857 
2.7552244e+3, 2.1031675e+2, -762169.9, -938653.0, 94266.19, -0.05624809, -0.7074164, -721288.6, 157538.56, 0.0, 10.001567, 9.999181 
2.7551267e+3, 2.2031522e+2, -761011.2, -888184.25, 94189.93, -0.05041876, -0.72991985, -710953.56, 69888.43, 0.0, 10.000903, 9.999176 
2.7550295e+3, 2.3031433e+2, -708319.75, -784540.6, 105662.125, -0.037245773, -0.6984549, -634105.25, 48746.363, 0.0, 10.000474, 9.999421 
2.7549323e+3, 2.4031359e+2, -671073.4, -707515.4, 106425.836, -0.019688495, -0.66777813, -581320.0, 3539.8079, 0.0, 10.00002, 9.999496 
2.754835e+3, 2.503126e+2, -642025.4, -604008.44, 92393.92, 0.010217477, -0.6862322, -528687.9, -41819.08, 0.0, 9.99938, 9.999842 
2.7547374e+3, 2.603117e+2, -643600.7, -573441.44, 102218.75, 0.025258234, -0.7065985, -500450.47, -111573.58, 0.0, 9.998779, 9.99967 
2.7546397e+3, 2.703109e+2, -566584.9, -471254.44, 100132.29, -0.02040433, -0.7043331, -408021.28, -117136.77, 0.0, 9.998572, 9.999799 
2.754542e+3, 2.8031027e+2, -497706.34, -374370.84, 88387.77, -0.02599007, -0.7012898, -328264.25, -135373.53, 0.0, 9.998317, 9.999914 
2.7544457e+3, 2.9030985e+2, -480305.22, -265917.8, 51049.29, 0.14667797, -0.71132064, -254382.75, -159488.66, 0.0, 9.997546, 10.000359 
2.7543473e+3, 3.0030957e+2, -513718.38, -270774.7, 41872.68, 0.19499743, -0.7163724, -263760.22, -263760.22, 0.0, 9.996813, 10.000009 
2.7542448e+3, 3.1030917e+2, -451314.44, -187784.9, 6055.4277, -0.16989623, -0.71621716, -187645.84, -187645.84, 0.0, 9.996778, 10.000263 
2.7541497e+3, 3.2030907e+2, -478728.63, 52753.684, -27142.336, 0.26227143, -0.73117083, 54136.22, 54136.22, 0.0, 9.995506, 10.002522 
2.7660167e+3, 1.3043389e+2, -1099750.6, -1603731.4, 40815.082, -0.034532644, -0.73569125, -1096466.6, 565207.56, 0.002549365, 10.005045, 9.998333 
2.7659163e+3, 1.4043103e+2, -1064872.8, -1590762.1, 13949.667, -0.111642696, -0.7901294, -1064503.0, 499196.66, 0.0012818351, 10.00484, 9.997847 
2.7658167e+3, 1.5042838e+2, -1038441.6, -1537576.4, 44846.938, -0.09783419, -0.7727018, -1034444.1, 431282.84, 0.00043389498, 10.004397, 9.997745 
2.7657178e+3, 1.6042593e+2, -989325.9, -1433284.9, 66658.86, -0.04826331, -0.74987155, -979533.3, 388219.6, 0.00008189681, 10.003932, 9.998013 
2.765619e+3, 1.7042385e+2, -935361.0, -1301569.6, 99642.6, -0.051229045, -0.7396939, -910004.7, 359769.3, 0.000005757098, 10.003401, 9.998495 
2.76552e+3, 1.8042198e+2, -907184.94, -1223673.6, 107996.055, -0.07022843, -0.7288252, -873845.3, 297947.63, 0.00000000965895, 10.002865, 9.998617 
2.7654216e+3, 1.9042043e+2, -869630.94, -1115110.6, 119141.85, -0.07177927, -0.71386033, -821315.6, 252493.2, 0.0, 10.00228, 9.998969 
2.7653238e+3, 2.00419e+2, -850955.9, -1056742.8, 110578.164, -0.063372575, -0.7052424, -802804.3, 173019.5, 0.0, 10.001738, 9.998961 
2.7652255e+3, 2.1041736e+2, -787900.25, -948912.25, 120883.14, -0.052591156, -0.72494185, -723168.7, 154670.8, 0.0, 10.001386, 9.999195 
2.765127e+3, 2.2041589e+2, -742523.7, -879261.6, 137661.58, -0.04474079, -0.7397985, -657188.3, 122665.42, 0.0, 10.001037, 9.99917 
2.7650297e+3, 2.3041493e+2, -697718.7, -782225.4, 136834.19, -0.043158334, -0.7136406, -596762.6, 85101.69, 0.0, 10.000566, 9.999391 
2.764932e+3, 2.4041408e+2, -663262.3, -704906.1, 122909.95, -0.031094529, -0.68942356, -559423.06, 24450.486, 0.0, 10.000084, 9.999481 
2.7648342e+3, 2.504131e+2, -600136.5, -587307.8, 109804.695, 0.016824463, -0.70434207, -483730.28, 2152.304, 0.0, 9.999689, 9.9998045 
2.7647364e+3, 2.6041216e+2, -575222.44, -537892.06, 125308.09, 0.04990772, -0.72154474, -429866.66, -41975.895, 0.0, 9.999245, 9.999686 
2.764638e+3, 2.704114e+2, -561288.25, -462597.56, 124228.734, -0.010332943, -0.7226739, -378272.63, -88374.555, 0.0, 9.998588, 9.999847 
2.7645397e+3, 2.8041077e+2, -552993.5, -404612.0, 110282.586, -0.03143832, -0.72085536, -345887.3, -153983.28, 0.0, 9.997956, 9.999878 
2.7644426e+3, 2.9041043e+2, -471621.4, -276025.75, 73748.29, 0.15216579, -0.71272993, -251335.9, -157429.02, 0.0, 9.997675, 10.000223 
2.7643442e+3, 3.0041006e+2, -441931.3, -243672.11, 75890.99, 0.2121526, -0.71325594, -217957.33, -217957.33, 0.0, 9.997346, 9.999933 
2.764241e+3, 3.1040877e+2, -462721.1, -201040.83, 63148.254, -0.19152533, -0.7916925, -186599.02, -186599.02, 0.0, 9.996739, 10.000187 
2.764145e+3, 3.2040918e+2, -354216.9, 80865.195, -37378.223, 0.27135405, -0.7437855, 84053.02, 84053.02, 0.0, 9.996507, 10.002229 
2.7760214e+3, 1.3053435e+2, -1126877.9, -1673095.1, 36503.12, -0.03549663, -0.73246706, -1124449.3, 536239.56, 0.0014247892, 10.0051, 9.997828 
2.7759206e+3, 1.4053088e+2, -1069373.4, -1588923.9, 5001.1475, -0.09905669, -0.811718, -1069325.3, 493396.63, 0.0006804662, 10.004787, 9.997885 
2.7758205e+3, 1.5052886e+2, -1011395.2, -1472000.5, 30344.076, -0.1037503, -0.7700892, -1009404.75, 455337.63, 0.00021310599, 10.004352, 9.9982195 
2.775721e+3, 1.6052705e+2, -970805.1, -1386393.1, 49309.777, -0.070428394, -0.7264787, -965034.6, 401726.44, 0.00003517426, 10.003892, 9.998356 
2.7756217e+3, 1.7052492e+2, -924456.6, -1272844.5, 80641.07, -0.05107996, -0.7461209, -906696.1, 362086.1, 0.0000017161015, 10.003373, 9.998708 
2.7755228e+3, 1.805229e+2, -907010.1, -1218903.1, 86820.734, -0.049027976, -0.767276, -884470.9, 286331.44, 0.00000000000031198744, 10.002843, 9.998662 
2.7754235e+3, 1.9052123e+2, -879360.06, -1133850.5, 98208.66, -0.06436542, -0.7589383, -845868.56, 226951.06, 0.0, 10.002271, 9.998847 
2.7753246e+3, 2.0051976e+2, -844847.1, -1043110.0, 95004.36, -0.072165556, -0.74426985, -806672.8, 168161.88, 0.0, 10.001731, 9.999059 
2.7752262e+3, 2.1051882e+2, -769173.25, -910562.8, 108974.91, -0.05489986, -0.7187998, -709970.9, 166872.9, 0.0, 10.001387, 9.999459 
2.775128e+3, 2.2051787e+2, -745237.0, -882838.25, 121880.49, -0.04083349, -0.70087504, -674079.1, 104773.94, 0.0, 10.001025, 9.999153 
2.7750295e+3, 2.3051617e+2, -716032.2, -820913.7, 118728.96, -0.04320506, -0.72896785, -638678.5, 42192.594, 0.0, 10.000565, 9.999126 
2.7749315e+3, 2.4051465e+2, -668556.1, -718336.2, 106138.875, -0.038322877, -0.74906176, -584427.94, -1540.988, 0.0, 10.000092, 9.999387 
2.774833e+3, 2.5051424e+2, -597410.7, -584301.3, 94651.375, 0.0028593654, -0.70536566, -495977.94, -11087.441, 0.0, 9.999697, 9.999824 
2.7747348e+3, 2.6051384e+2, -572005.5, -533806.44, 104257.164, 0.03569702, -0.6714918, -446913.75, -60020.137, 0.0, 9.999252, 9.999713 
2.7746364e+3, 2.7051255e+2, -561274.75, -460306.84, 97355.49, 0.029499099, -0.72938496, -401124.4, -112218.516, 0.0, 9.998576, 9.99987 
2.7745378e+3, 2.8051147e+2, -556925.9, -407752.22, 93650.41, 0.043664984, -0.7738946, -362616.06, -171700.23, 0.0, 9.997932, 9.999869 
2.7744398e+3, 2.9051182e+2, -477105.3, -288715.72, 65033.934, 0.12169049, -0.68961155, -268446.25, -175534.45, 0.0, 9.997676, 10.000139 
2.7743402e+3, 3.005118e+2, -426706.03, -221659.83, 57816.336, 0.12278217, -0.65083903, -206481.13, -206481.13, 0.0, 9.997383, 10.00007 
2.774239e+3, 3.1050852e+2, -449801.94, -169614.67, 40508.348, -0.00085811043, -0.95565903, -163875.69, -163875.69, 0.0, 9.996717, 10.000415 
2.7741402e+3, 3.20511e+2, -361214.75, 39404.367, -38592.754, 0.19745868, -0.7001689, 43088.242, 43088.242, 0.0, 9.996595, 10.001915 
2.7860257e+3, 1.3063528e+2, -1087810.5, -1669084.8, 40101.363, -0.062490385, -0.74328244, -1085057.0, 574642.4, 0.0007040486, 10.0054245, 9.997702 
2.785925e+3, 1.4063205e+2, -1149202.4, -1607700.9, 38632.94, -0.07362763, -0.7927303, -1145970.0, 415761.1, 0.00031496616, 10.004153, 9.998061 
2.7858242e+3, 1.5063013e+2, -1076730.4, -1460056.1, 72460.87, -0.08811227, -0.7746236, -1063490.3, 400259.56, 0.00008875206, 10.003722, 9.998602 
2.785724e+3, 1.6062841e+2, -1033075.5, -1397569.3, 80902.93, -0.06851272, -0.75253946, -1015925.3, 349841.38, 0.000011727656, 10.00339, 9.998518 
2.7856246e+3, 1.7062645e+2, -1001620.1, -1313892.1, 93787.15, -0.05052834, -0.75433254, -975617.5, 292169.1, 0.00000025139548, 10.002861, 9.998672 
2.785525e+3, 1.8062459e+2, -968327.4, -1234837.5, 91546.64, -0.047096577, -0.76013654, -939910.9, 229894.81, 0.0, 10.002361, 9.998785 
2.7854252e+3, 1.90623e+2, -893482.5, -1114265.8, 124267.61, -0.06301866, -0.76299775, -837655.2, 234166.19, 0.0, 10.002066, 9.999078 
2.7853262e+3, 2.0062158e+2, -837182.94, -1035644.0, 137560.44, -0.071955845, -0.759157, -766797.5, 207037.75, 0.0, 10.001778, 9.9990835 
2.7852273e+3, 2.1062051e+2, -786271.75, -937217.44, 126628.57, -0.051511966, -0.7338953, -714330.4, 161515.84, 0.0, 10.001354, 9.9992895 
2.7851284e+3, 2.2061944e+2, -760602.3, -890639.06, 116528.03, -0.031210434, -0.7136943, -692180.94, 85676.29, 0.0, 10.000924, 9.999146 
2.7850297e+3, 2.3061791e+2, -715433.3, -809030.7, 132799.38, -0.036877554, -0.73204154, -621427.94, 58445.207, 0.0, 10.000524, 9.999227 
2.7849308e+3, 2.4061652e+2, -662183.56, -713856.75, 142857.97, -0.036403697, -0.7468429, -542844.6, 39042.832, 0.0, 10.000135, 9.999394 
2.7848324e+3, 2.506159e+2, -591249.6, -590599.7, 126367.39, -0.00046843823, -0.71699655, -464556.84, 19336.219, 0.0, 9.9997835, 9.999737 
2.7847338e+3, 2.6061532e+2, -551992.06, -526236.1, 124224.47, 0.031880863, -0.69409, -414223.9, -28325.818, 0.0, 9.999402, 9.999691 
2.7846348e+3, 2.7061412e+2, -508178.28, -432146.56, 111079.15, 0.04172189, -0.7426152, -352758.06, -64848.72, 0.0, 9.998937, 9.9998865 
2.784536e+3, 2.8061312e+2, -482333.16, -370891.4, 112809.19, 0.07115298, -0.7777228, -300792.06, -110873.78, 0.0, 9.998449, 9.999869 
2.784437e+3, 2.906134e+2, -422432.34, -265826.78, 92255.47, 0.116934866, -0.6977655, -223123.8, -131209.13, 0.0, 9.998072, 10.000103 
2.7843368e+3, 3.0061328e+2, -381628.56, -199275.56, 78928.69, 0.09643697, -0.66761774, -169858.16, -169858.16, 0.0, 9.997693, 10.000072 
2.7842364e+3, 3.106098e+2, -370003.28, -125845.81, 36228.063, 0.08622913, -0.994415, -120583.71, -120583.71, 0.0, 9.997249, 10.000456 
2.7841362e+3, 3.2061285e+2, -341729.84, 49307.84, -13266.568, 0.16321577, -0.68319863, 49757.414, 49757.414, 0.0, 9.996736, 10.001911 
2.7960303e+3, 1.3073659e+2, -1097366.4, -1654475.5, -10507.53, -0.10809048, -0.76241016, -1097168.4, 561538.0, 0.00029603567, 10.005278, 9.997871 
2.795929e+3, 1.4073424e+2, -1129421.1, -1567469.1, 12336.711, -0.039859194, -0.7450133, -1129074.0, 431656.2, 0.00012104602, 10.004155, 9.998338 
2.7958277e+3, 1.5073206e+2, -1052830.6, -1414051.9, 63270.664, -0.059902325, -0.7839, -1042068.9, 420681.4, 0.000028714185, 10.003734, 9.998914 
2.7957273e+3, 1.6073006e+2, -1035273.5, -1399595.3, 65225.92, -0.055694826, -0.81282115, -1023947.94, 340821.22, 0.0000024460635, 10.003376, 9.998512 
2.7956268e+3, 1.707284e+2, -1020177.44, -1352336.1, 75068.68, -0.050458003, -0.7639372, -1003999.6, 262787.8, 0.0000000042322403, 10.002858, 9.998411 
2.7955267e+3, 1.8072692e+2, -954200.06, -1206319.1, 78646.55, -0.057856813, -0.71841127, -931678.7, 237125.19, 0.0, 10.002362, 9.998981 
2.7954268e+3, 1.9072567e+2, -857806.5, -1039166.8, 114697.86, -0.068391375, -0.73273873, -802272.8, 268542.0, 0.0, 10.00206, 9.999597 
2.7953273e+3, 2.0072436e+2, -846110.1, -1049980.8, 122948.914, -0.06964839, -0.7532737, -788335.56, 184490.95, 0.0, 10.001757, 9.998997 
2.795228e+3, 2.1072242e+2, -826353.2, -1020554.3, 110622.055, -0.04335017, -0.7699905, -776260.8, 98586.39, 0.0, 10.001351, 9.99872 
2.795129e+3, 2.2072072e+2, -760040.25, -889692.1, 101991.836, -0.020593707, -0.7719771, -704016.1, 72849.13, 0.0, 10.000923, 9.999155 
2.79503e+3, 2.3072025e+2, -684316.1, -745410.3, 118466.23, -0.025225345, -0.71869326, -592522.0, 86347.99, 0.0, 10.0005245, 9.999663 
2.7949306e+3, 2.4071968e+2, -657300.5, -703583.6, 128851.086, -0.026442755, -0.68252975, -549529.4, 31345.766, 0.0, 10.000132, 9.999468 
2.7948317e+3, 2.50718e+2, -607022.25, -623692.5, 113064.12, 0.0070246146, -0.7460581, -501986.44, -19095.38, 0.0, 9.999783, 9.999511 
2.7947327e+3, 2.607165e+2, -556400.5, -538515.3, 108127.06, 0.032509703, -0.7978363, -438961.7, -54056.664, 0.0, 9.9994135, 9.999602 
2.794633e+3, 2.7071613e+2, -507115.44, -433036.94, 92255.92, 0.019282699, -0.75862896, -370662.6, -83754.33, 0.0, 9.998945, 9.999878 
2.7945334e+3, 2.8071585e+2, -479259.25, -369634.47, 96501.555, 0.03682426, -0.723631, -313465.13, -124554.484, 0.0, 9.998469, 9.99987 
2.7944347e+3, 2.9071507e+2, -421131.97, -265223.13, 77658.62, 0.14775953, -0.7487306, -233142.31, -142225.67, 0.0, 9.998079, 10.000104 
2.7943346e+3, 3.0071425e+2, -397540.97, -230942.8, 63561.0, 0.15810272, -0.78081053, -209462.4, -209462.4, 0.0, 9.9976845, 9.99986 
2.7942324e+3, 3.1071302e+2, -386617.88, -166192.73, 16488.951, 0.0077684666, -0.8547699, -164966.1, -164966.1, 0.0, 9.997268, 10.000174 
2.7941325e+3, 3.2071394e+2, -321661.88, 95300.64, -12471.695, 0.16674529, -0.7524562, 95673.35, 95673.35, 0.0, 9.996726, 10.002228 
2.8060344e+3, 1.3083893e+2, -1238519.6, -1702821.6, 28573.846, -0.109075114, -0.7832125, -1236767.8, 420934.25, 0.000099928584, 10.00422, 9.99805 
2.8059328e+3, 1.4083676e+2, -1161760.9, -1576403.9, 53584.746, -0.029679311, -0.75912553, -1154948.0, 404776.4, 0.00003524305, 10.003904, 9.998397 
2.8058308e+3, 1.5083477e+2, -1093950.1, -1438510.1, 88645.305, -0.060979623, -0.7776282, -1072481.9, 389261.75, 0.000006022763, 10.003474, 9.99887 
2.8057298e+3, 1.6083284e+2, -1072598.6, -1409150.1, 75696.53, -0.0649391, -0.79501754, -1056356.9, 307405.1, 0.00000016363987, 10.003084, 9.998588 
2.805629e+3, 1.7083107e+2, -1016091.6, -1333649.4, 109200.83, -0.05389983, -0.7707019, -982164.6, 283616.16, 0.0, 10.002821, 9.998555 
2.8055286e+3, 1.808295e+2, -931135.44, -1190881.8, 126661.42, -0.055555522, -0.7429154, -879597.06, 288200.44, 0.0, 10.002513, 9.999009 
2.8054282e+3, 1.9082838e+2, -892684.94, -1067214.1, 124471.17, -0.060769882, -0.73618966, -827935.75, 241872.05, 0.0, 10.001872, 9.999494 
2.8053287e+3, 2.008272e+2, -909812.6, -1078149.8, 110841.53, -0.05609728, -0.7387097, -854804.4, 117014.68, 0.0, 10.001307, 9.999022 
2.805229e+3, 2.1082522e+2, -839015.8, -1014322.75, 140821.25, -0.04043471, -0.7657012, -760796.56, 113042.64, 0.0, 10.001215, 9.998828 
2.8051293e+3, 2.2082348e+2, -730873.75, -869445.7, 161581.72, -0.028002303, -0.78063256, -624349.6, 151507.63, 0.0, 10.001103, 9.999204 
2.80503e+3, 2.308229e+2, -666968.0, -737616.1, 148133.78, -0.02653974, -0.7358894, -550004.8, 127857.805, 0.0, 10.000652, 9.999653 
2.8049305e+3, 2.4082232e+2, -647912.94, -695751.3, 137447.31, -0.018371623, -0.7032962, -532319.06, 47548.94, 0.0, 10.000186, 9.999494 
2.804831e+3, 2.508207e+2, -590503.8, -611895.25, 137908.66, 0.009025351, -0.7612459, -462876.72, 19006.33, 0.0, 9.999885, 9.99954 
2.8047317e+3, 2.6081923e+2, -537900.5, -532480.8, 144293.02, 0.02895196, -0.8101998, -390872.2, -6975.5103, 0.0, 9.999559, 9.999571 
2.8046316e+3, 2.7081877e+2, -481254.63, -431277.84, 120797.43, 0.013013879, -0.77211547, -332911.3, -47010.652, 0.0, 9.999172, 9.99978 
2.8045315e+3, 2.8081834e+2, -436893.53, -357412.75, 121210.49, 0.029690607, -0.7424548, -269594.2, -81689.81, 0.0, 9.998795, 9.999798 
2.8044325e+3, 2.9081717e+2, -362731.16, -243936.1, 96968.39, 0.14721572, -0.79751945, -189619.36, -99705.3, 0.0, 9.998513, 10.000039 
2.8043324e+3, 3.0081624e+2, -335132.03, -215078.66, 78121.3, 0.16398537, -0.8345364, -176585.61, -176585.61, 0.0, 9.998181, 9.999726 
2.8042293e+3, 3.1081605e+2, -320016.3, -153511.06, 41211.637, 0.0074548046, -0.7848185, -143869.14, -143869.14, 0.0, 9.99781, 9.999997 
2.8041288e+3, 3.2081553e+2, -206889.05, 89633.65, 11309.118, 0.14740323, -0.8004854, 90064.34, 90064.34, 0.0, 9.997781, 10.0016775 
2.8160384e+3, 1.3094205e+2, -1228028.0, -1680072.6, 16271.7, -0.08891496, -0.8074931, -1227443.0, 429246.13, 0.000023984428, 10.004221, 9.998202 
2.815936e+3, 1.4093961e+2, -1178222.3, -1599328.3, 39183.684, -0.040996447, -0.81698304, -1174607.3, 384107.34, 0.0000064487667, 10.003857, 9.998262 
2.8158334e+3, 1.5093808e+2, -1121630.3, -1490875.1, 72680.24, -0.08328524, -0.75840163, -1107839.4, 352891.78, 0.00000052844416, 10.003448, 9.998526 
2.815732e+3, 1.6093655e+2, -1061920.6, -1385996.5, 64200.305, -0.08840354, -0.71822625, -1049665.8, 313081.28, 0.0000000005064632, 10.0030775, 9.998752 
2.8156313e+3, 1.709344e+2, -983690.8, -1264156.5, 100458.35, -0.06308596, -0.7765603, -951421.1, 313346.38, 0.0, 10.002809, 9.999039 
2.8155306e+3, 1.8093239e+2, -946280.25, -1217333.1, 107392.76, -0.050715115, -0.82065576, -908888.75, 257897.81, 0.0, 10.002489, 9.998841 
2.81543e+3, 1.909312e+2, -937766.1, -1161722.8, 99607.37, -0.04279796, -0.7670342, -899875.25, 168924.88, 0.0, 10.001873, 9.998846 
2.8153297e+3, 2.0093013e+2, -897479.25, -1055804.5, 100689.14, -0.03322846, -0.7159519, -848559.75, 122252.34, 0.0, 10.001318, 9.99917 
2.8152296e+3, 2.1092895e+2, -789437.44, -912325.3, 139808.66, -0.043746185, -0.72378093, -698166.56, 174656.02, 0.0, 10.001217, 9.999528 
2.8151298e+3, 2.2092764e+2, -731073.1, -866041.75, 149527.9, -0.055224553, -0.744676, -634506.44, 140327.73, 0.0, 10.001084, 9.999237 
2.81503e+3, 2.3092584e+2, -699141.0, -805016.7, 129422.83, -0.041292056, -0.78741866, -612247.94, 64603.914, 0.0, 10.000652, 9.999191 
2.81493e+3, 2.4092436e+2, -646731.6, -696456.94, 123136.44, -0.02064885, -0.8102183, -545972.9, 32893.46, 0.0, 10.000197, 9.999485 
2.8148305e+3, 2.509241e+2, -569353.75, -569305.6, 126597.61, 0.004009209, -0.75567967, -442732.06, 38136.254, 0.0, 9.9998865, 9.999834 
2.8147304e+3, 2.6092368e+2, -538019.9, -533204.0, 131071.27, 0.020051992, -0.7196914, -404518.56, -21647.0, 0.0, 9.999558, 9.999567 
2.8146303e+3, 2.70922e+2, -497092.44, -464752.78, 106251.54, 0.025738634, -0.7872053, -373447.72, -88560.945, 0.0, 9.999173, 9.999551 
2.81453e+3, 2.8092045e+2, -446381.78, -380500.6, 109600.0, 0.052194122, -0.8482715, -298998.0, -112097.26, 0.0, 9.998806, 9.999635 
2.8144303e+3, 2.9091975e+2, -371526.03, -266760.66, 85708.1, 0.103146315, -0.8408321, -218695.22, -129788.57, 0.0, 9.9985285, 9.999878 
2.814329e+3, 3.0091926e+2, -331991.4, -216223.81, 64197.94, 0.08770359, -0.81957304, -187667.4, -187667.4, 0.0, 9.998212, 9.999705 
2.8142276e+3, 3.1091872e+2, -317278.84, -155051.78, 28293.709, 0.122816354, -0.8043661, -150258.73, -150258.73, 0.0, 9.99784, 9.999973 
2.8141257e+3, 3.2091767e+2, -317052.6, -163247.36, 36357.56, 0.098516814, -0.81874704, -155085.97, -155085.97, 0.0, 9.997869, 9.999906 
2.826042e+3, 1.3104557e+2, -1264789.3, -1683088.0, 11282.129, -0.09067792, -0.8021991, -1264485.3, 391188.9, 0.0000033281458, 10.0039015, 9.998339 
2.825939e+3, 1.4104295e+2, -1223112.1, -1618023.6, 35975.23, -0.04928952, -0.8387256, -1219861.6, 337839.2, 0.00000050691085, 10.003536, 9.998288 
2.8258362e+3, 1.5104146e+2, -1170194.0, -1522113.4, 86513.26, -0.085122526, -0.77244353, -1150076.3, 309641.25, 0.0000000023756648, 10.003155, 9.998448 
2.8257346e+3, 1.6104e+2, -1099468.8, -1396451.8, 86606.93, -0.08560027, -0.72090256, -1076057.8, 285675.4, 0.0, 10.002792, 9.998815 
2.8256333e+3, 1.71038e+2, -1043895.5, -1280394.4, 100521.14, -0.06609936, -0.77221006, -1006943.7, 256808.11, 0.0, 10.00234, 9.999153 
2.8255323e+3, 1.810361e+2, -1022996.4, -1258388.9, 94490.29, -0.056540925, -0.8136011, -989759.5, 176010.44, 0.0, 10.001977, 9.998809 
2.8254315e+3, 1.9103472e+2, -934038.94, -1175347.4, 117215.12, -0.045246888, -0.7678331, -886476.5, 181309.05, 0.0, 10.001969, 9.998703 
2.8253305e+3, 2.0103347e+2, -812339.56, -1007134.6, 138864.02, -0.034096096, -0.72364265, -740121.4, 229677.84, 0.0, 10.001881, 9.9992285 
2.8252304e+3, 2.110324e+2, -772207.25, -885482.0, 144344.69, -0.046052683, -0.7334735, -673786.0, 198021.9, 0.0, 10.001261, 9.999688 
2.8251302e+3, 2.2103123e+2, -784402.5, -885149.3, 130561.15, -0.05440866, -0.75407064, -694834.1, 78983.484, 0.0, 10.000692, 9.999294 
2.82503e+3, 2.3102945e+2, -718263.44, -818226.4, 136157.52, -0.036582686, -0.7949583, -623203.5, 52631.805, 0.0, 10.000542, 9.999152 
2.82493e+3, 2.410279e+2, -626667.4, -687324.75, 147849.39, -0.013237315, -0.8193841, -506068.03, 71782.375, 0.0, 10.000341, 9.9994755 
2.8248298e+3, 2.5102758e+2, -582553.44, -575238.6, 129624.09, 0.007129356, -0.7705791, -449220.38, 30632.367, 0.0, 9.999798, 9.999834 
2.8247294e+3, 2.6102716e+2, -566989.75, -545266.1, 126471.555, 0.020158008, -0.7370953, -429190.8, -47334.836, 0.0, 9.9993515, 9.999584 
2.8246292e+3, 2.7102545e+2, -454497.28, -441713.1, 121616.88, 0.023530615, -0.80695254, -326320.44, -42449.58, 0.0, 9.999458, 9.99957 
2.8245285e+3, 2.8102383e+2, -367492.97, -352343.53, 130364.47, 0.052644517, -0.87197566, -229333.9, -43448.594, 0.0, 9.999399, 9.999539 
2.824428e+3, 2.9102296e+2, -368667.0, -288420.78, 98876.02, 0.10026754, -0.8659146, -221837.13, -133943.25, 0.0, 9.9986515, 9.999669 
2.8243268e+3, 3.0102238e+2, -340019.53, -220006.06, 91981.64, 0.08111119, -0.8377123, -170188.25, -170188.25, 0.0, 9.998156, 9.999707 
2.8242257e+3, 3.1102228e+2, -161628.2, -68416.35, 70918.766, 0.12340278, -0.7885427, -30160.135, -30160.135, 0.0, 9.998863, 10.000073 
2.8241232e+3, 3.2102045e+2, -346996.2, -236364.45, 49269.098, 0.09166581, -0.8674508, -217604.08, -217604.08, 0.0, 9.997927, 9.999371 
2.836045e+3, 1.3114943e+2, -1267636.6, -1665481.9, -5204.2983, -0.101286516, -0.77247477, -1267568.6, 387088.13, 0.00000016214108, 10.003803, 9.998504 
2.8359416e+3, 1.411468e+2, -1216316.5, -1597308.0, 21155.088, -0.06569692, -0.8305566, -1215145.4, 341537.47, 0.0000000020979667, 10.003508, 9.998445 
2.8358388e+3, 1.5114492e+2, -1161730.3, -1505604.5, 73150.52, -0.081230626, -0.8120987, -1146816.3, 311885.9, 0.0, 10.003156, 9.998564 
2.8357372e+3, 1.6114327e+2, -1104484.4, -1406976.0, 71164.54, -0.0677485, -0.7854135, -1088578.5, 272140.84, 0.0, 10.00279, 9.998744 
2.8356352e+3, 1.7114191e+2, -1059239.0, -1312051.4, 83308.29, -0.062841296, -0.75728256, -1034255.6, 228478.2, 0.0, 10.002337, 9.998939 
2.8355333e+3, 1.811405e+2, -1016298.75, -1243897.0, 88124.65, -0.06864653, -0.73625845, -986166.6, 178581.66, 0.0, 10.001973, 9.99891 
2.8354326e+3, 1.9113883e+2, -913287.7, -1132698.0, 118731.47, -0.0673487, -0.7451532, -861337.7, 205427.23, 0.0, 10.001969, 9.998997 
2.835332e+3, 2.0113719e+2, -819522.2, -1018625.0, 123906.45, -0.060724266, -0.760235, -760129.25, 208651.67, 0.0, 10.0018635, 9.999159 
2.835231e+3, 2.1113566e+2, -795959.7, -934358.2, 119086.68, -0.047811892, -0.79067314, -727426.7, 143368.38, 0.0, 10.001256, 9.999356 
2.8351307e+3, 2.2113433e+2, -777720.3, -871061.6, 118612.75, -0.033913802, -0.8052568, -696926.75, 75880.19, 0.0, 10.0006895, 9.999393 
2.8350303e+3, 2.3113376e+2, -692694.7, -765473.1, 132432.88, -0.013722975, -0.75546783, -591742.56, 83069.92, 0.0, 10.000541, 9.9995165 
2.8349298e+3, 2.4113297e+2, -631708.6, -696375.4, 132713.22, 0.0052365605, -0.72867554, -527446.8, 49373.094, 0.0, 10.000333, 9.999418 
2.8348294e+3, 2.5113103e+2, -607444.9, -626375.4, 107136.22, 0.01796078, -0.81221956, -509356.63, -30519.248, 0.0, 9.999794, 9.999486 
2.8347284e+3, 2.6112944e+2, -561184.0, -535923.75, 120706.62, 0.020184018, -0.8740916, -427188.28, -46336.633, 0.0, 9.99936, 9.999645 
2.834628e+3, 2.7112916e+2, -430550.3, -395940.03, 126910.49, 0.0017392588, -0.8271341, -285160.28, -2307.5132, 0.0, 9.999472, 9.999881 
2.8345275e+3, 2.8112867e+2, -365436.4, -354561.2, 112652.57, 0.02286648, -0.7988962, -247215.06, -62358.582, 0.0, 9.999425, 9.999513 
2.8344268e+3, 2.911268e+2, -390258.7, -330556.6, 67072.016, 0.14956379, -0.8695476, -286992.78, -200117.38, 0.0, 9.998639, 9.999386 
2.834325e+3, 3.0112556e+2, -341345.0, -217590.14, 102404.91, 0.16378845, -0.8908514, -159819.83, -159819.83, 0.0, 9.99813, 9.999738 
2.8342223e+3, 3.111267e+2, -134006.94, -29926.412, 105809.36, -0.03828747, -0.7337307, 35947.74, 35947.74, 0.0, 9.99894, 10.000303 
2.8341213e+3, 3.2112443e+2, -280804.44, -77830.85, -153622.7, 0.16923386, -0.9121422, 4800.536, 4800.536, 0.0, 9.997838, 10.000502 
2.846048e+3, 1.3125278e+2, -1366391.1, -1677699.9, -14305.203, -0.096164264, -0.7771937, -1365735.1, 287909.63, 0.00000000032983427, 10.002967, 9.998826 
2.8459445e+3, 1.412508e+2, -1268880.0, -1590236.5, 13229.311, -0.080377944, -0.7999665, -1268336.3, 287327.56, 0.0, 10.003006, 9.998734 
2.8458413e+3, 1.5124887e+2, -1199397.4, -1498524.9, 69145.555, -0.085981496, -0.81401825, -1184187.4, 273495.53, 0.0, 10.00279, 9.998788 
2.845739e+3, 1.6124712e+2, -1137294.9, -1421926.3, 70638.58, -0.05852547, -0.8140618, -1120728.3, 238972.23, 0.0, 10.002562, 9.998752 
2.845637e+3, 1.7124584e+2, -1082861.4, -1337304.8, 87989.52, -0.05512787, -0.76388144, -1055397.9, 206316.89, 0.0, 10.00224, 9.998808 
2.845535e+3, 1.8124455e+2, -1012740.25, -1228262.3, 105102.11, -0.06677666, -0.72612715, -969972.56, 193756.14, 0.0, 10.0019455, 9.999026 
2.845434e+3, 1.9124289e+2, -930183.94, -1115270.5, 134369.92, -0.07168976, -0.7557889, -859572.25, 206172.08, 0.0, 10.001746, 9.999224 
2.8453326e+3, 2.0124124e+2, -869057.9, -1045013.06, 127558.51, -0.065078214, -0.78608906, -802079.9, 165679.86, 0.0, 10.001533, 9.999139 
2.845232e+3, 2.1123968e+2, -818484.2, -965803.0, 125268.25, -0.04432401, -0.80059934, -746823.8, 122950.76, 0.0, 10.001192, 9.99917 
2.845131e+3, 2.2123839e+2, -753866.9, -855064.8, 136550.97, -0.024477165, -0.8026709, -658841.56, 112945.414, 0.0, 10.000838, 9.99943 
2.8450304e+3, 2.3123784e+2, -692378.06, -747973.44, 138613.72, -0.006232279, -0.7630156, -578802.25, 94989.39, 0.0, 10.000472, 9.999667 
2.84493e+3, 2.4123706e+2, -654209.0, -708579.94, 130163.13, 0.01252282, -0.7451015, -548422.7, 27375.656, 0.0, 10.000188, 9.999403 
2.8448287e+3, 2.5123495e+2, -549327.7, -613757.7, 118058.54, 0.018039884, -0.83588135, -459167.75, 18649.943, 0.0, 10.000261, 9.999346 
2.8447276e+3, 2.6123315e+2, -453456.97, -490817.16, 137771.8, 0.017516993, -0.9008986, -333104.66, 46729.094, 0.0, 10.000135, 9.999579 
2.8446266e+3, 2.712331e+2, -447238.97, -406793.7, 118954.63, 0.001277671, -0.8292197, -306354.97, -24521.6, 0.0, 9.999371, 9.999854 
2.844526e+3, 2.8123277e+2, -458820.88, -398234.4, 86900.68, 0.0247278, -0.78223765, -336498.25, -152662.39, 0.0, 9.998774, 9.99953 
2.8444254e+3, 2.9123077e+2, -338084.38, -302256.16, 61578.895, 0.15803446, -0.87363666, -256038.56, -170182.39, 0.0, 9.998984, 9.999414 
2.8443232e+3, 3.0122942e+2, -220729.72, -146185.61, 121045.086, 0.17479007, -0.90674543, -56804.13, -56804.13, 0.0, 9.998911, 9.999848 
2.84422e+3, 3.1123105e+2, -301196.16, -97073.61, 122621.08, -0.04247451, -0.71840787, -39596.7, -39596.7, 0.0, 9.997742, 10.000418 
2.844119e+3, 3.2122883e+2, -137365.28, 56867.383, -195745.56, 0.2058133, -0.9166747, 178263.98, 178263.98, 0.0, 9.998541, 10.001089 
2.8560504e+3, 1.3135585e+2, -1340860.3, -1619272.9, -7127.249, -0.09947517, -0.8049462, -1340677.9, 311958.0, 0.0, 10.00295, 9.999232 
2.8559467e+3, 1.4135501e+2, -1248422.6, -1540112.6, 9655.538, -0.08777581, -0.7537249, -1248103.4, 306540.16, 0.0, 10.002974, 9.999094 
2.8558436e+3, 1.5135321e+2, -1183734.1, -1458697.6, 60462.07, -0.09016567, -0.78558004, -1171026.4, 285633.78, 0.0, 10.002755, 9.99908 
2.855741e+3, 1.6135143e+2, -1137662.0, -1412400.4, 59298.434, -0.056949414, -0.8116722, -1125409.6, 233267.73, 0.0, 10.002516, 9.998839 
2.8556386e+3, 1.7134985e+2, -1087064.9, -1343847.1, 76814.555, -0.049892735, -0.7902937, -1065840.6, 194853.81, 0.0, 10.00223, 9.99877 
2.8555366e+3, 1.8134834e+2, -1005981.44, -1215168.6, 97819.84, -0.060110494, -0.77437204, -967367.0, 195343.48, 0.0, 10.001947, 9.999117 
2.855435e+3, 1.9134693e+2, -920840.2, -1094796.4, 127880.82, -0.06120913, -0.7933481, -853161.56, 211561.88, 0.0, 10.001738, 9.999371 
2.855334e+3, 2.013456e+2, -870552.44, -1043280.8, 116067.195, -0.05239675, -0.8019616, -812243.3, 154492.33, 0.0, 10.001511, 9.999162 
2.8552327e+3, 2.1134451e+2, -822956.56, -974906.9, 112464.266, -0.03663761, -0.76663184, -763209.8, 105536.97, 0.0, 10.00119, 9.999109 
2.8551313e+3, 2.2134332e+2, -759087.4, -863591.06, 123322.13, -0.025678316, -0.7511881, -677404.2, 93354.32, 0.0, 10.000827, 9.999377 
2.8550303e+3, 2.3134163e+2, -697303.3, -759237.0, 124631.77, -0.016072532, -0.8196002, -599848.9, 72924.28, 0.0, 10.000474, 9.99959 
2.8549296e+3, 2.4134013e+2, -648763.3, -701761.75, 127118.03, -0.0050855004, -0.8695023, -545411.8, 29374.29, 0.0, 10.000205, 9.999443 
2.8548282e+3, 2.5133935e+2, -540590.8, -598726.4, 121148.734, 0.005509077, -0.8357589, -445071.44, 31721.727, 0.0, 10.000273, 9.999445 
2.8547272e+3, 2.613385e+2, -466972.34, -523926.06, 118442.59, 0.013364318, -0.8070973, -373631.4, 5169.659, 0.0, 10.000155, 9.999344 
2.854626e+3, 2.7133724e+2, -481153.16, -474518.84, 85935.67, 0.026015745, -0.81419873, -391836.3, -111022.78, 0.0, 9.999357, 9.999397 
2.8545246e+3, 2.8133604e+2, -456925.53, -387511.22, 80044.56, 0.059268516, -0.8306003, -334973.2, -152147.64, 0.0, 9.998741, 9.99962 
2.8544232e+3, 2.9133478e+2, -307862.06, -243165.63, 73113.86, 0.11095006, -0.8764712, -195563.6, -110727.01, 0.0, 9.998999, 9.999814 
2.8543207e+3, 3.0133408e+2, -199934.84, -113376.76, 89848.26, 0.08845035, -0.8822919, -56927.246, -56927.246, 0.0, 9.998956, 10.000052 
2.8542194e+3, 3.113351e+2, -323289.5, -110341.195, 68247.54, 0.15849592, -0.75913507, -90346.09, -90346.09, 0.0, 9.9976015, 10.000396 
2.8541166e+3, 3.2133338e+2, -139784.97, 29419.352, 35191.223, 0.1250221, -0.8947838, 36446.598, 36446.598, 0.0, 9.998633, 10.000858 
2.8660524e+3, 1.3145977e+2, -1375318.8, -1640702.8, 30182.41, -0.119412206, -0.81927335, -1371929.4, 279686.88, 0.0, 10.002727, 9.999195 
2.865949e+3, 1.4145902e+2, -1328145.9, -1563516.8, 24578.64, -0.069800764, -0.759998, -1325606.6, 228017.1, 0.0, 10.00236, 9.9992285 
2.8658456e+3, 1.5145743e+2, -1270240.4, -1476512.4, 67329.17, -0.08039607, -0.79060495, -1250208.8, 205429.44, 0.0, 10.002063, 9.999289 
2.865743e+3, 1.6145582e+2, -1220928.3, -1428914.3, 68057.766, -0.057078272, -0.81815284, -1200637.6, 157015.7, 0.0, 10.001845, 9.999047 
2.8656405e+3, 1.7145437e+2, -1128635.5, -1342868.5, 98673.664, -0.051101744, -0.8042691, -1090114.0, 169555.03, 0.0, 10.001855, 9.998957 
2.8655377e+3, 1.8145296e+2, -1025108.9, -1223731.8, 123052.91, -0.058021355, -0.7922077, -966291.3, 195392.67, 0.0, 10.001811, 9.999125 
2.8654364e+3, 1.914515e+2, -967831.06, -1128254.5, 136800.34, -0.05472204, -0.8042043, -889460.8, 174236.69, 0.0, 10.001465, 9.99927 
2.865335e+3, 2.014502e+2, -909946.0, -1047037.0, 120501.54, -0.04480639, -0.80885077, -839858.5, 125851.25, 0.0, 10.001179, 9.999292 
2.865233e+3, 2.1144925e+2, -810124.9, -942769.1, 135071.47, -0.033652004, -0.7804353, -725971.3, 141747.64, 0.0, 10.001171, 9.999337 
2.8651318e+3, 2.2144815e+2, -717105.75, -848716.8, 157266.02, -0.023318192, -0.76877546, -612432.6, 157296.88, 0.0, 10.00114, 9.999328 
2.8650305e+3, 2.3144625e+2, -648284.3, -760332.25, 147660.05, -0.0195954, -0.83814675, -546377.4, 125369.28, 0.0, 10.000919, 9.999368 
2.864929e+3, 2.4144462e+2, -592781.9, -676964.0, 143300.19, -0.011441759, -0.8864187, -485518.97, 88242.46, 0.0, 10.000604, 9.999419 
2.864828e+3, 2.5144407e+2, -566141.25, -603473.25, 133172.45, 0.0053544, -0.83443284, -450333.03, 25433.31, 0.0, 10.000069, 9.99951 
2.8647265e+3, 2.6144335e+2, -547810.06, -572665.2, 128979.12, 0.0212228, -0.79271936, -430661.2, -52888.21, 0.0, 9.999642, 9.999256 
2.864625e+3, 2.7144167e+2, -441139.84, -476988.63, 112372.27, 0.04055224, -0.82209074, -345271.4, -65481.816, 0.0, 9.999728, 9.9992 
2.8645232e+3, 2.8144017e+2, -330573.22, -326958.0, 122537.766, 0.074095234, -0.85428816, -206214.52, -24409.807, 0.0, 9.9996195, 9.999609 
2.8644213e+3, 2.9143918e+2, -298606.4, -228495.17, 99851.67, 0.073594354, -0.88158786, -157724.27, -73911.375, 0.0, 9.999023, 9.999902 
2.8643185e+3, 3.014386e+2, -254540.7, -154468.06, 76544.07, 0.036393505, -0.87444955, -113056.97, -113056.97, 0.0, 9.998646, 9.999922 
2.864218e+3, 3.1143916e+2, -145781.69, -61395.168, 24463.697, 0.25157648, -0.76956975, -54816.063, -54816.063, 0.0, 9.998983, 10.000065 
2.8641146e+3, 3.2143715e+2, -100441.83, 15696.289, 116057.04, 0.09269762, -0.903468, 87401.08, 87401.08, 0.0, 9.999053, 10.000558 
2.8760543e+3, 1.3156432e+2, -1405309.8, -1686167.6, 13539.7705, -0.14446332, -0.82229877, -1404658.5, 245930.5, 0.0, 10.00266, 9.998913 
2.875951e+3, 1.4156297e+2, -1332175.8, -1565328.6, 14620.856, -0.043649122, -0.804049, -1331262.5, 221341.0, 0.0, 10.002333, 9.9992285 
2.8758472e+3, 1.5156162e+2, -1261285.8, -1457171.3, 57596.75, -0.069914594, -0.8235286, -1245605.6, 209010.66, 0.0, 10.002057, 9.999425 
2.875744e+3, 1.6156034e+2, -1202227.5, -1390596.5, 65267.348, -0.06331195, -0.8345978, -1181823.4, 174805.0, 0.0, 10.001846, 9.9993105 
2.8756416e+3, 1.7155938e+2, -1105958.9, -1295354.0, 99357.516, -0.05531633, -0.8058301, -1063399.3, 195239.55, 0.0, 10.00185, 9.999286 
2.875539e+3, 1.8155827e+2, -1032663.0, -1235361.0, 113178.99, -0.058275074, -0.7819944, -982087.4, 178562.94, 0.0, 10.001794, 9.999054 
2.875437e+3, 1.9155657e+2, -988318.3, -1171166.6, 123401.81, -0.05344, -0.7937096, -926163.9, 136503.19, 0.0, 10.001465, 9.998976 
2.8753355e+3, 2.01555e+2, -895020.0, -1015499.3, 117040.81, -0.0458248, -0.81168956, -823626.2, 141056.06, 0.0, 10.001175, 9.999512 
2.875234e+3, 2.1155395e+2, -776048.2, -873078.4, 135891.6, -0.03717822, -0.83901113, -680271.06, 186419.92, 0.0, 10.001172, 9.999817 
2.8751323e+3, 2.215529e+2, -723472.4, -858998.06, 151093.63, -0.028394366, -0.85137165, -625642.1, 143057.89, 0.0, 10.001126, 9.999264 
2.8750306e+3, 2.3155172e+2, -674120.75, -813262.75, 138632.88, -0.016323715, -0.8168884, -588581.5, 82130.41, 0.0, 10.0009165, 9.999006 
2.8749293e+3, 2.4155048e+2, -599718.44, -691697.4, 126624.99, -0.002476258, -0.7972282, -510989.97, 61734.34, 0.0, 10.000604, 9.999319 
2.8748277e+3, 2.5154904e+2, -567410.25, -606112.44, 111382.59, 0.016002553, -0.83515936, -473710.28, 1027.2947, 0.0, 10.000066, 9.999494 
2.8747258e+3, 2.6154763e+2, -542039.8, -561426.75, 124583.45, 0.027860474, -0.86298186, -426773.3, -50023.195, 0.0, 9.999643, 9.999333 
2.874624e+3, 2.7154648e+2, -431305.28, -459526.7, 117335.47, 0.039804485, -0.8534212, -327235.1, -48474.14, 0.0, 9.99974, 9.999314 
2.8745222e+3, 2.8154528e+2, -333264.5, -344770.06, 106486.78, 0.059640024, -0.85274404, -232375.22, -51603.17, 0.0, 9.999668, 9.999465 
2.8744194e+3, 2.915439e+2, -321496.1, -275745.63, 76832.44, 0.046629447, -0.89179516, -218455.4, -135670.33, 0.0, 9.999019, 9.999581 
2.8743166e+3, 3.0154297e+2, -299281.4, -238665.58, 77410.586, 0.02204122, -0.88239205, -185841.25, -185841.25, 0.0, 9.9986105, 9.99936 
2.874216e+3, 3.1154338e+2, -185932.06, -164264.89, 43703.27, 0.20369063, -0.72196186, -130072.45, -130072.45, 0.0, 9.999075, 9.999311 
2.874114e+3, 3.2154018e+2, -133576.36, -46495.477, 57634.094, 0.18017837, -0.9172788, -17803.94, -17803.94, 0.0, 9.999019, 10.00015 
2.886056e+3, 1.3166884e+2, -1497821.8, -1702376.4, 15914.999, -0.15638351, -0.83369255, -1496590.9, 152972.05, 0.0, 10.001895, 9.999173 
2.8859526e+3, 1.4166735e+2, -1386131.6, -1578915.5, 36150.22, -0.034468736, -0.8483234, -1379575.8, 172002.6, 0.0, 10.001908, 9.99934 
2.8858486e+3, 1.516663e+2, -1308131.4, -1479668.4, 71171.85, -0.06954294, -0.83914775, -1282447.4, 171141.67, 0.0, 10.001737, 9.999424 
2.8857455e+3, 1.6166529e+2, -1232739.8, -1397449.5, 75122.85, -0.06801628, -0.82688403, -1203623.8, 151975.67, 0.0, 10.001603, 9.99938 
2.885643e+3, 1.7166431e+2, -1136190.1, -1298462.4, 98169.12, -0.048347484, -0.8085808, -1089967.6, 167641.89, 0.0, 10.001594, 9.999387 
2.8855404e+3, 1.8166322e+2, -1054870.6, -1224486.0, 101921.375, -0.0460227, -0.7967972, -1007087.56, 152532.89, 0.0, 10.00155, 9.999244 
2.8854382e+3, 1.9166172e+2, -988212.56, -1145622.0, 137806.39, -0.05477304, -0.81160647, -908219.4, 153415.75, 0.0, 10.001358, 9.999202 
2.8853363e+3, 2.0166028e+2, -896834.56, -1018971.4, 154109.03, -0.052513644, -0.82804495, -792135.2, 171513.58, 0.0, 10.001173, 9.99949 
2.8852344e+3, 2.1165915e+2, -808394.8, -904015.8, 136408.97, -0.03722287, -0.8495307, -711660.3, 153998.56, 0.0, 10.001017, 9.99968 
2.8851327e+3, 2.216581e+2, -756299.75, -862917.1, 123474.03, -0.024995653, -0.85781354, -675118.1, 92550.305, 0.0, 10.000852, 9.999369 
2.885031e+3, 2.3165715e+2, -699901.5, -800590.06, 145003.83, -0.017937237, -0.82203454, -596751.0, 72926.914, 0.0, 10.000633, 9.9992285 
2.8849295e+3, 2.4165606e+2, -619940.8, -700731.06, 163926.55, -0.0035233872, -0.7997369, -491505.6, 80182.984, 0.0, 10.000463, 9.999324 
2.8848273e+3, 2.5165445e+2, -515886.38, -595169.25, 140015.45, 0.019802839, -0.8425782, -410008.84, 63694.992, 0.0, 10.0004835, 9.999366 
2.8847253e+3, 2.6165292e+2, -437402.63, -504380.22, 148215.6, 0.03569192, -0.875494, -318939.56, 56778.25, 0.0, 10.000343, 9.999382 
2.8846234e+3, 2.716519e+2, -434276.66, -450623.2, 135372.69, 0.03153879, -0.8653442, -306830.72, -29103.691, 0.0, 9.999682, 9.999398 
2.884521e+3, 2.8165072e+2, -427029.34, -388335.6, 122388.87, 0.043638073, -0.86505204, -283773.88, -104036.73, 0.0, 9.999021, 9.999475 
2.884418e+3, 2.9164922e+2, -314544.97, -296450.5, 119357.28, 0.060506124, -0.902949, -185798.06, -104046.84, 0.0, 9.999177, 9.999358 
2.8843156e+3, 3.0164793e+2, -184225.45, -245072.25, 142460.92, 0.051892318, -0.89598995, -68975.59, -68975.59, 0.0, 9.999673, 9.998803 
2.8842145e+3, 3.1164718e+2, -85569.94, -214423.27, 108528.38, 0.16014235, -0.77002, -23785.646, -23785.646, 0.0, 10.000199, 9.998434 
2.884113e+3, 3.2164395e+2, -40282.71, 34000.953, 27662.357, 0.23168506, -0.91269773, 43170.26, 43170.26, 0.0, 9.999499, 10.000488 
2.896057e+3, 1.3177337e+2, -1461095.1, -1614959.9, 18180.676, -0.16579065, -0.854471, -1458976.1, 189561.2, 0.0, 10.001855, 9.999788 
2.895954e+3, 1.4177214e+2, -1380054.3, -1560078.0, 30898.707, -0.039167494, -0.8893623, -1374898.5, 175650.52, 0.0, 10.001883, 9.99948 
2.8958496e+3, 1.5177146e+2, -1315312.8, -1496719.9, 62981.734, -0.07475765, -0.8377065, -1295590.6, 156966.56, 0.0, 10.001743, 9.999305 
2.8957462e+3, 1.617706e+2, -1236372.9, -1407909.5, 73135.86, -0.06995884, -0.7983775, -1209424.5, 145142.28, 0.0, 10.001615, 9.999304 
2.895644e+3, 1.7176919e+2, -1141638.5, -1308594.4, 99080.7, -0.036235593, -0.81720245, -1095557.4, 161023.58, 0.0, 10.001588, 9.999321 
2.8955415e+3, 1.8176785e+2, -1030226.75, -1167914.1, 97791.09, -0.030316807, -0.83713675, -979477.1, 179116.58, 0.0, 10.001525, 9.999644 
2.895439e+3, 1.9176693e+2, -944470.94, -1053023.9, 129575.84, -0.059676845, -0.85306966, -858263.1, 202338.28, 0.0, 10.001348, 9.999844 
2.8953367e+3, 2.01766e+2, -917910.1, -1059096.9, 145885.86, -0.06859479, -0.854845, -826435.25, 136174.75, 0.0, 10.001158, 9.999222 
2.895235e+3, 2.1176483e+2, -857765.5, -1005925.5, 130836.266, -0.033676162, -0.81543076, -781492.6, 83130.44, 0.0, 10.001014, 9.998981 
2.8951332e+3, 2.2176369e+2, -737459.1, -821640.44, 116747.266, -0.013728706, -0.79722, -655446.8, 111188.44, 0.0, 10.000841, 9.999658 
2.895031e+3, 2.317625e+2, -645283.8, -687072.3, 137118.05, -0.02867582, -0.85518956, -527477.2, 141167.38, 0.0, 10.000631, 10.00001 
2.894929e+3, 2.4176137e+2, -613766.25, -689044.0, 161312.23, -0.028924583, -0.8929731, -485759.94, 84894.11, 0.0, 10.000466, 9.999403 
2.8948274e+3, 2.5176033e+2, -532667.2, -631634.7, 141460.06, 0.016542066, -0.8549405, -432285.66, 40379.21, 0.0, 10.000491, 9.999112 
2.8947252e+3, 2.6175925e+2, -433021.0, -502110.75, 132321.33, 0.043160945, -0.8282569, -330809.6, 43866.348, 0.0, 10.000372, 9.999384 
2.8946224e+3, 2.7175787e+2, -433526.2, -448221.03, 104069.94, 0.012508926, -0.85626054, -336544.63, -59856.83, 0.0, 9.999675, 9.999418 
2.8945193e+3, 2.8175646e+2, -416419.53, -363247.3, 108706.836, 0.021969108, -0.89196444, -277922.75, -99222.81, 0.0, 9.999003, 9.999657 
2.8944173e+3, 2.9175517e+2, -322469.5, -307470.4, 141650.25, 0.12461841, -0.9173853, -173121.31, -92410.58, 0.0, 9.999164, 9.999282 
2.8943154e+3, 3.0175343e+2, -212639.69, -311959.75, 166993.86, 0.12915687, -0.9344228, -88078.4, -88078.4, 0.0, 9.999712, 9.998322 
2.8942138e+3, 3.1174988e+2, -151366.16, -358818.56, 127452.03, 0.11184194, -1.0085787, -90766.016, -90766.016, 0.0, 10.000239, 9.997423 
2.894112e+3, 3.217483e+2, 46920.2, 227480.5, -55158.297, 0.22486715, -0.9417187, 242997.06, 242997.06, 0.0, 9.999452, 10.0018425 
2.906058e+3, 1.3187791e+2, -1520615.0, -1630031.5, 23491.69, -0.16324483, -0.8776359, -1515784.6, 131726.67, 0.0, 10.00138, 9.999918 
2.905955e+3, 1.4187716e+2, -1439934.8, -1579430.4, 17150.607, -0.048398696, -0.876471, -1437857.0, 111661.41, 0.0, 10.001428, 9.999568 
2.9058507e+3, 1.5187632e+2, -1337762.0, -1501906.8, 55055.684, -0.088613935, -0.8480265, -1321006.1, 130521.91, 0.0, 10.001565, 9.999354 
2.9057473e+3, 1.6187535e+2, -1230037.1, -1388103.0, 71703.484, -0.084216565, -0.82890385, -1202357.4, 151181.17, 0.0, 10.001585, 9.999454 
2.9056448e+3, 1.7187414e+2, -1172945.6, -1300773.6, 110655.68, -0.04217821, -0.847146, -1109072.0, 146478.4, 0.0, 10.001274, 9.999526 
2.9055426e+3, 1.8187298e+2, -1102235.5, -1200724.9, 115269.59, -0.02651319, -0.8615546, -1026132.2, 131429.05, 0.0, 10.00102, 9.999663 
2.9054397e+3, 1.9187221e+2, -997428.9, -1085185.6, 104320.36, -0.051649146, -0.8588789, -928134.6, 131434.11, 0.0, 10.00101, 9.999786 
2.9053372e+3, 2.018714e+2, -932287.2, -1047618.9, 99008.695, -0.060815845, -0.8504995, -875375.2, 86201.51, 0.0, 10.000977, 9.999389 
2.9052353e+3, 2.1187034e+2, -867507.06, -979860.7, 144039.06, -0.033186473, -0.82747334, -769077.7, 94510.45, 0.0, 10.0008135, 9.999258 
2.9051337e+3, 2.2186929e+2, -758350.7, -823351.06, 170210.47, -0.0156107, -0.8178859, -617565.4, 148033.5, 0.0, 10.00066, 9.999734 
2.905031e+3, 2.3186822e+2, -656361.1, -689635.94, 139425.2, -0.03024656, -0.8653961, -532584.2, 135023.75, 0.0, 10.000543, 10.000035 
2.904929e+3, 2.4186724e+2, -615840.7, -670208.44, 131518.19, -0.027836908, -0.8953365, -508726.4, 60889.902, 0.0, 10.000369, 9.999578 
2.9048273e+3, 2.518665e+2, -570241.6, -615580.94, 147102.0, 0.017769374, -0.85616505, -444072.75, 27551.18, 0.0, 10.000087, 9.999416 
2.9047248e+3, 2.6186568e+2, -503630.1, -513633.9, 163592.0, 0.04447808, -0.8309497, -344963.53, 28668.658, 0.0, 9.999791, 9.999583 
2.9046214e+3, 2.718643e+2, -421321.66, -416662.66, 137340.19, 0.018097064, -0.8752862, -281632.22, -5988.2607, 0.0, 9.999651, 9.999643 
2.904518e+3, 2.8186306e+2, -337472.9, -298973.16, 158070.5, 0.04067796, -0.91256475, -158984.72, 18669.777, 0.0, 9.999448, 9.999876 
2.9044154e+3, 2.9186255e+2, -469828.3, -315115.06, 177973.25, 0.119073, -0.8939408, -198413.64, -118755.055, 0.0, 9.997886, 9.999844 
2.9160592e+3, 1.3198256e+2, -1537004.9, -1656431.6, 22023.785, -0.15602781, -0.89569265, -1533072.9, 113411.61, 0.0, 10.001353, 9.999746 
2.9159558e+3, 1.419824e+2, -1439463.0, -1571460.5, 23006.867, -0.0638258, -0.8274235, -1435567.9, 112918.94, 0.0, 10.001399, 9.999637 
2.9158515e+3, 1.5198097e+2, -1329475.3, -1480083.8, 60537.113, -0.11189296, -0.8715738, -1308159.3, 142341.86, 0.0, 10.001543, 9.9995165 
2.915748e+3, 1.619797e+2, -1211532.9, -1343705.6, 65249.03, -0.112089135, -0.90456665, -1184749.3, 167764.3, 0.0, 10.001558, 9.999771 
2.9156455e+3, 1.7197919e+2, -1145408.3, -1242054.8, 97376.3, -0.0620598, -0.8905867, -1085024.1, 169493.53, 0.0, 10.001266, 9.999934 
2.9155427e+3, 1.8197858e+2, -1126039.1, -1249225.3, 110235.625, -0.03323126, -0.8694727, -1061356.3, 95167.58, 0.0, 10.001017, 9.999332 
2.9154405e+3, 1.9197749e+2, -1043015.3, -1179919.0, 105338.13, -0.034025162, -0.83545166, -985841.6, 72695.61, 0.0, 10.00101, 9.999137 
2.915338e+3, 2.0197651e+2, -892699.6, -962832.8, 96343.195, -0.035130527, -0.82355034, -825239.75, 135308.7, 0.0, 10.000964, 9.999977 
2.9152355e+3, 2.1197568e+2, -787398.0, -812110.9, 137458.6, -0.039169468, -0.88261795, -661741.56, 200812.03, 0.0, 10.000806, 10.000414 
2.9151332e+3, 2.2197492e+2, -773200.1, -850662.25, 163992.0, -0.038860388, -0.91305214, -643427.56, 121131.76, 0.0, 10.000645, 9.999555 
2.9150313e+3, 2.3197429e+2, -706771.7, -794484.94, 134412.69, -0.020887904, -0.85032284, -609241.7, 57326.375, 0.0, 10.000543, 9.999316 
2.914929e+3, 2.4197367e+2, -592897.2, -624299.9, 121857.15, -0.0011693963, -0.80880904, -485733.97, 82841.74, 0.0, 10.000377, 9.999889 
2.9148266e+3, 2.519729e+2, -510154.9, -487524.2, 135702.17, 0.018073328, -0.8471113, -362666.47, 107914.35, 0.0, 10.000074, 10.000299 
2.914724e+3, 2.6197213e+2, -477179.28, -462236.63, 154927.31, 0.028252425, -0.8875448, -314600.6, 57986.01, 0.0, 9.999801, 9.999934 
2.914621e+3, 2.719711e+2, -391272.53, -360965.6, 133008.17, 0.04905749, -0.9254872, -242250.47, 32345.217, 0.0, 9.999672, 10.00002 
2.9145175e+3, 2.8197056e+2, -325755.8, -277558.28, 142494.17, 0.083795875, -0.9249234, -157139.44, 19461.803, 0.0, 9.99947, 10.000011 
2.9144117e+3, 2.9197147e+2, -398709.03, -161146.14, 72256.08, 0.024714863, -0.8201932, -140895.31, -62300.438, 0.0, 9.997869, 10.00091 
2.92606e+3, 1.3208728e+2, -1579423.0, -1669592.9, 11405.866, -0.15737244, -0.89528644, -1578002.6, 67454.49, 0.0, 10.001029, 9.999811 
2.9259565e+3, 1.4208685e+2, -1494391.9, -1580088.1, 29123.982, -0.059599288, -0.8620056, -1485431.0, 62030.695, 0.0, 10.000942, 9.999799 
2.9258522e+3, 1.5208572e+2, -1385850.9, -1483713.4, 69962.89, -0.10574428, -0.8975665, -1349406.1, 100066.55, 0.0, 10.001054, 9.999728 
2.925749e+3, 1.6208468e+2, -1273613.0, -1366621.9, 63651.668, -0.104552016, -0.92202187, -1241287.3, 110195.18, 0.0, 10.001099, 9.999838 
2.925646e+3, 1.7208424e+2, -1182676.9, -1258204.8, 67292.06, -0.06996281, -0.90347534, -1143276.4, 110210.02, 0.0, 10.000998, 9.999954 
2.925543e+3, 1.8208371e+2, -1137295.5, -1243439.5, 79767.58, -0.049269658, -0.8800423, -1094557.8, 60934.395, 0.0, 10.000884, 9.999438 
2.9254407e+3, 1.9208272e+2, -1057812.1, -1169742.9, 126449.05, -0.030356633, -0.85265166, -975497.06, 82007.65, 0.0, 10.000831, 9.999294 
2.9253384e+3, 2.0208184e+2, -915951.7, -958945.44, 137758.67, -0.01876882, -0.8419973, -798022.75, 161492.0, 0.0, 10.000737, 10.000114 
2.9252356e+3, 2.1208128e+2, -823498.7, -814044.75, 110514.15, -0.043762606, -0.8874942, -708156.5, 153361.1, 0.0, 10.000488, 10.000555 
2.925133e+3, 2.2208077e+2, -815449.4, -861759.75, 104760.79, -0.054010447, -0.9093872, -731315.25, 32206.137, 0.0, 10.000311, 9.99964 
2.9250312e+3, 2.3208018e+2, -727629.2, -793246.8, 130471.98, -0.015934413, -0.85140175, -625904.1, 39625.81, 0.0, 10.000348, 9.99942 
2.924929e+3, 2.4207965e+2, -589282.25, -598458.8, 147098.78, 0.014741988, -0.81294745, -446700.22, 120836.49, 0.0, 10.000293, 10.000111 
2.924826e+3, 2.5207913e+2, -499538.72, -442419.9, 120495.164, 0.013326895, -0.85899556, -347145.84, 122393.6, 0.0, 9.999968, 10.000665 
2.924723e+3, 2.6207864e+2, -482588.2, -437560.6, 119847.15, 0.017282065, -0.9005938, -338130.94, 33411.105, 0.0, 9.999637, 10.000189 
2.9246202e+3, 2.7207816e+2, -390223.28, -318584.06, 101310.484, 0.06570291, -0.9177876, -246947.36, 26599.238, 0.0, 9.99949, 10.000403 
2.9245165e+3, 2.8207806e+2, -340693.97, -255553.53, 106142.26, 0.112105384, -0.90945756, -183762.9, -8214.532, 0.0, 9.999219, 10.0003 
2.9244095e+3, 2.9207903e+2, -183282.03, -35428.445, -26452.688, -0.012501586, -0.8238022, -30838.262, 46704.176, 0.0, 9.999225, 10.0011425 
2.93606e+3, 1.3219196e+2, -1563261.1, -1636583.8, 5786.447, -0.16604878, -0.8891327, -1562807.3, 81622.625, 0.0, 10.001038, 10.0000305 
2.935957e+3, 1.4219077e+2, -1475705.3, -1545544.8, 32892.344, -0.043427877, -0.9552924, -1462653.3, 83787.875, 0.0, 10.000962, 10.000025 
2.935853e+3, 1.5219054e+2, -1369877.8, -1449029.3, 73295.54, -0.079042464, -0.9245313, -1326156.0, 122287.11, 0.0, 10.001045, 9.99997 
2.93575e+3, 1.6219012e+2, -1288149.6, -1390051.9, 61611.57, -0.072588585, -0.8970684, -1259150.8, 91296.516, 0.0, 10.001069, 9.999691 
2.9356465e+3, 1.7218922e+2, -1203357.5, -1301019.9, 63789.19, -0.07121038, -0.8959469, -1171854.8, 80602.3, 0.0, 10.000997, 9.9996605 
2.9355434e+3, 1.8218845e+2, -1101232.0, -1170649.9, 78184.24, -0.07412537, -0.8948972, -1050398.6, 104066.77, 0.0, 10.000892, 9.999935 
2.9354408e+3, 1.9218788e+2, -998374.1, -1046922.2, 124158.36, -0.04051385, -0.9045985, -896139.2, 160331.95, 0.0, 10.000831, 10.000138 
2.9353386e+3, 2.021874e+2, -939627.4, -1004969.0, 128794.33, -0.017675623, -0.89924043, -839424.7, 119051.555, 0.0, 10.000723, 9.999805 
2.9352355e+3, 2.1218711e+2, -877392.75, -926641.4, 100410.95, -0.046386532, -0.8453694, -798630.8, 61849.727, 0.0, 10.00049, 9.999781 
2.9351327e+3, 2.2218674e+2, -787765.44, -803880.3, 104503.45, -0.06144645, -0.8170641, -691009.25, 71476.02, 0.0, 10.000309, 10.000039 
2.935031e+3, 2.3218587e+2, -665675.0, -661814.9, 131960.72, -0.019739801, -0.8699388, -531770.1, 132723.13, 0.0, 10.000336, 10.000328 
2.9349288e+3, 2.421852e+2, -583157.8, -587194.3, 138263.13, 0.012989532, -0.9067112, -446898.22, 119601.055, 0.0, 10.000296, 10.000189 
2.9348254e+3, 2.5218514e+2, -510814.25, -470049.25, 107071.484, 0.0037493955, -0.8893655, -381437.5, 87062.48, 0.0, 9.999982, 10.000471 
2.9347223e+3, 2.621853e+2, -462858.56, -402958.34, 111124.86, 0.002146942, -0.8628256, -317818.3, 52680.047, 0.0, 9.999664, 10.000412 
2.934619e+3, 2.7218556e+2, -360426.78, -259041.38, 95201.43, 0.059656247, -0.84159, -201877.4, 70618.33, 0.0, 9.999502, 10.000802 
2.9345152e+3, 2.8218558e+2, -294194.38, -185047.28, 87196.27, 0.10721437, -0.8623954, -136754.61, 37741.47, 0.0, 9.999317, 10.000744 
2.9344082e+3, 2.9218563e+2, -183668.3, -51793.19, -7541.099, 0.00044040938, -0.87815, -51363.367, 25133.436, 0.0, 9.999289, 10.001 
2.9460606e+3, 1.3229655e+2, -1567700.0, -1646110.6, 5714.003, -0.15948386, -0.9002011, -1567285.8, 76117.07, 0.0, 10.001029, 9.999977 
2.9459575e+3, 1.4229529e+2, -1455696.4, -1519922.4, 23738.82, -0.041426986, -0.97512597, -1447874.8, 97540.04, 0.0, 10.001029, 10.00017 
2.9458532e+3, 1.522953e+2, -1398581.0, -1444897.5, 53758.652, -0.091010705, -0.9375554, -1363204.6, 84209.73, 0.0, 10.000769, 10.0001335 
2.94575e+3, 1.6229501e+2, -1351514.8, -1414319.4, 50937.348, -0.09383149, -0.909566, -1323077.9, 26339.44, 0.0, 10.000604, 9.999751 
2.9456466e+3, 1.7229407e+2, -1216403.3, -1298738.4, 76601.04, -0.07173254, -0.9203513, -1170608.3, 80819.664, 0.0, 10.000866, 9.999743 
2.9455438e+3, 1.8229331e+2, -1083453.3, -1143993.9, 91307.05, -0.06578633, -0.9289979, -1017529.6, 135906.64, 0.0, 10.000933, 10.000101 
2.945441e+3, 1.9229299e+2, -1009116.2, -1031052.06, 95070.48, -0.058893185, -0.9317914, -924383.06, 131055.836, 0.0, 10.000659, 10.000334 
2.9453385e+3, 2.0229273e+2, -969259.1, -1020645.7, 84879.83, -0.045975093, -0.91966754, -906269.06, 51172.777, 0.0, 10.000515, 9.999803 
2.9452357e+3, 2.1229236e+2, -860006.8, -930619.3, 99986.92, -0.041199945, -0.8667899, -789275.75, 70172.27, 0.0, 10.000654, 9.99968 
2.9451331e+3, 2.2229198e+2, -720614.06, -749058.8, 125165.01, -0.038712576, -0.8364445, -608866.0, 152587.17, 0.0, 10.000663, 10.00025 
2.9450306e+3, 2.3229147e+2, -665387.9, -622102.1, 111799.66, -0.027269641, -0.88766074, -529869.75, 133587.03, 0.0, 10.000156, 10.000691 
2.944928e+3, 2.4229105e+2, -654395.0, -618117.06, 100961.625, -0.008970105, -0.9254632, -533677.9, 31782.129, 0.0, 9.999784, 10.000225 
2.944825e+3, 2.5229102e+2, -504399.44, -475205.84, 82121.055, 0.004183171, -0.89799285, -406394.4, 61067.0, 0.0, 10.000053, 10.000405 
2.9447216e+3, 2.6229137e+2, -386934.16, -341512.84, 80550.9, 0.0123667, -0.8560832, -280532.28, 88926.5, 0.0, 10.000074, 10.000641 
2.9446176e+3, 2.7229205e+2, -349611.63, -229095.05, 55530.36, 0.043773808, -0.8240735, -207410.17, 64042.254, 0.0, 9.999456, 10.00104 
2.9445136e+3, 2.822919e+2, -300163.7, -179375.14, 47659.785, 0.081030026, -0.8724409, -162834.88, 10618.783, 0.0, 9.999235, 10.000817 
2.944408e+3, 2.9229224e+2, -22132.457, 38730.316, -31368.596, 0.043810993, -0.86379856, 52003.145, 127453.695, 0.0, 10.000331, 10.001113 
2.9560614e+3, 1.3240112e+2, -1596713.6, -1680442.9, 6619.1855, -0.14931418, -0.9134641, -1596193.6, 46182.03, 0.0, 10.000925, 9.999789 
2.9559577e+3, 1.4240031e+2, -1456916.4, -1511087.0, 22258.27, -0.051691294, -0.93623185, -1448943.9, 95440.15, 0.0, 10.000983, 10.000252 
2.9558533e+3, 1.5240008e+2, -1391887.8, -1431367.0, 41451.813, -0.13286299, -0.93446565, -1365715.4, 80670.65, 0.0, 10.00077, 10.000227 
2.9557493e+3, 1.6239953e+2, -1333855.8, -1380217.9, 55075.94, -0.15595838, -0.9428919, -1297281.3, 51109.848, 0.0, 10.000614, 9.999981 
2.955647e+3, 1.723988e+2, -1190303.9, -1242002.6, 84773.36, -0.07381022, -0.9681209, -1127526.4, 122872.5, 0.0, 10.000853, 10.000139 
2.9555443e+3, 1.8239821e+2, -1097524.4, -1167138.9, 81026.61, -0.036718037, -0.9794989, -1044145.1, 108260.33, 0.0, 10.000906, 9.999954 
2.955441e+3, 1.9239804e+2, -1034456.3, -1082198.0, 84455.82, -0.08545882, -0.9367519, -970562.7, 83845.39, 0.0, 10.000653, 9.999985 
2.9553378e+3, 2.0239785e+2, -948827.75, -977375.44, 86893.7, -0.09719846, -0.90536207, -875043.3, 81367.305, 0.0, 10.000511, 10.000102 
2.9552358e+3, 2.1239705e+2, -826173.7, -858604.75, 104662.12, -0.030592225, -0.9442983, -736478.4, 121940.92, 0.0, 10.000645, 10.000179 
2.9551336e+3, 2.2239655e+2, -723773.3, -750230.9, 112737.3, 0.0024863733, -0.9580851, -623491.3, 136933.42, 0.0, 10.00064, 10.000254 
2.95503e+3, 2.3239699e+2, -677991.06, -645770.56, 89780.88, -0.040022783, -0.9009824, -570665.94, 91754.516, 0.0, 10.000145, 10.000534 
2.954927e+3, 2.423972e+2, -648771.0, -608872.7, 101626.055, -0.052668575, -0.86770326, -525256.25, 39162.49, 0.0, 9.999793, 10.000285 
2.9548246e+3, 2.5239685e+2, -495160.47, -458187.13, 93426.95, 0.012842612, -0.8847945, -381435.4, 84988.12, 0.0, 10.000061, 10.000521 
2.9547215e+3, 2.6239696e+2, -367415.72, -305872.2, 63889.63, 0.044900287, -0.8825333, -265730.0, 102693.1, 0.0, 10.000093, 10.000876 
2.9546165e+3, 2.7239758e+2, -339686.03, -209755.31, 37907.668, 0.010517441, -0.8742521, -199504.39, 70912.18, 0.0, 9.999463, 10.001169 
2.9545116e+3, 2.8239718e+2, -315062.06, -222229.84, 66191.11, 0.009926816, -0.9445052, -187802.16, -15382.19, 0.0, 9.999277, 10.000507 
2.9544082e+3, 2.923979e+2, 3627.9, 66993.97, 24880.625, 0.08439414, -0.8688702, 75595.67, 150008.77, 0.0, 10.000436, 10.001258 
2.966061e+3, 1.3250482e+2, -1661959.6, -1665197.3, 5004.5747, -0.16696481, -1.0034747, -1658318.6, -16961.596, 0.0, 10.000276, 10.000205 
2.965958e+3, 1.425049e+2, -1518403.8, -1553917.5, 35178.59, -0.06583458, -0.95820236, -1496754.5, 46602.79, 0.0, 10.000613, 10.00014 
2.9658535e+3, 1.5250435e+2, -1408430.6, -1460925.9, 25417.582, -0.12240553, -0.9668127, -1398140.6, 47221.883, 0.0, 10.000745, 10.000039 
2.96575e+3, 1.6250381e+2, -1319061.9, -1361459.9, 35259.34, -0.11455838, -0.9705768, -1299119.5, 48248.363, 0.0, 10.00066, 10.000092 
2.9656473e+3, 1.725035e+2, -1235959.6, -1253928.3, 50812.81, -0.064443395, -0.9665005, -1193343.0, 56028.45, 0.0, 10.000489, 10.000237 
2.9655445e+3, 1.8250321e+2, -1168734.1, -1199320.1, 36461.965, -0.0473389, -0.95497864, -1144487.9, 6887.05, 0.0, 10.000399, 9.999984 
2.965441e+3, 1.9250289e+2, -1035502.06, -1082582.9, 62681.63, -0.0712406, -0.9293875, -992086.25, 61293.063, 0.0, 10.000639, 9.999993 
2.9653382e+3, 2.025025e+2, -911457.44, -951831.6, 67469.45, -0.076225534, -0.9194604, -861219.8, 94164.22, 0.0, 10.0007305, 10.0001745 
2.9652357e+3, 2.1250194e+2, -860867.1, -853596.75, 61203.367, -0.045279976, -0.9507343, -795920.7, 61469.04, 0.0, 10.000309, 10.000378 
2.9651332e+3, 2.2250164e+2, -797609.5, -784829.9, 63242.28, -0.027978044, -0.96090454, -727655.44, 31737.648, 0.0, 10.000123, 10.000267 
2.9650298e+3, 2.3250185e+2, -638025.44, -637941.3, 42772.113, -0.05163618, -0.9207996, -595211.25, 66179.96, 0.0, 10.000458, 10.000443 
2.9649267e+3, 2.4250203e+2, -533521.94, -530127.06, 60391.535, -0.053650405, -0.8954014, -471409.13, 91980.75, 0.0, 10.000471, 10.000508 
2.9648238e+3, 2.5250196e+2, -502638.75, -441264.53, 62613.664, 0.0038574303, -0.90662485, -402222.4, 63168.965, 0.0, 9.999906, 10.00072 
2.9647207e+3, 2.6250222e+2, -428376.25, -338261.56, 31062.943, 0.033200487, -0.9020877, -328591.66, 38797.766, 0.0, 9.999677, 10.000862 
2.9646155e+3, 2.725028e+2, -246850.72, -186540.58, -15358.314, -0.010088426, -0.88857335, -182854.75, 86529.04, 0.0, 10.000193, 10.00098 
2.9645106e+3, 2.8250232e+2, -163342.25, -163109.72, 11505.827, -0.012712816, -0.95391065, -151719.58, 19668.605, 0.0, 10.000387, 10.000385 
2.964408e+3, 2.925027e+2, -90851.28, 17692.01, -8243.8, 0.10021277, -0.8857076, 18314.553, 91698.08, 0.0, 9.999835, 10.00121 
2.9760605e+3, 1.3260779e+2, -1654369.8, -1580357.0, 1070.227, -0.19924843, -1.1586766, -1580341.5, 60004.176, 0.0, 9.999982, 10.000926 
2.9759577e+3, 1.4260885e+2, -1529571.8, -1587349.9, 34599.75, -0.08736639, -1.0436486, -1513386.1, 28950.154, 0.0, 10.000661, 9.9998865 
2.9758543e+3, 1.5260799e+2, -1402983.6, -1497955.5, 15754.097, -0.07390123, -1.0472455, -1400438.5, 43906.92, 0.0, 10.000954, 9.999685 
2.9757512e+3, 1.626077e+2, -1281697.4, -1339658.6, 23225.53, 0.0024154575, -1.0125372, -1273539.0, 72809.85, 0.0, 10.000901, 10.000124 
2.9756474e+3, 1.7260808e+2, -1225226.5, -1263471.9, 41801.84, -0.047539365, -0.932282, -1198381.0, 49964.867, 0.0, 10.000627, 10.000105 
2.975544e+3, 1.826083e+2, -1147442.9, -1170843.8, 39071.27, -0.08616058, -0.86656815, -1118357.8, 31986.674, 0.0, 10.000465, 10.000147 
2.9754415e+3, 1.9260749e+2, -1011456.1, -1038582.9, 71469.45, -0.02511103, -0.9175981, -952274.44, 100078.5, 0.0, 10.000665, 10.000282 
2.975339e+3, 2.0260659e+2, -921148.9, -972734.1, 55999.637, -0.00511439, -0.96731967, -885287.5, 69075.2, 0.0, 10.000734, 10.000029 
2.975235e+3, 2.1260698e+2, -861962.6, -858292.6, 43445.234, -0.085530765, -0.8960328, -816643.6, 39716.242, 0.0, 10.000319, 10.00034 
2.975132e+3, 2.2260718e+2, -795224.06, -778877.3, 71129.47, -0.12122395, -0.8555969, -715453.2, 42905.34, 0.0, 10.000118, 10.000311 
2.9750296e+3, 2.326061e+2, -637977.3, -638636.2, 55534.484, -0.060622916, -0.94640714, -582771.3, 77597.02, 0.0, 10.000459, 10.00044 
2.9749268e+3, 2.4260564e+2, -508701.75, -477679.4, 43757.63, -0.019378947, -1.0017427, -446765.1, 115607.2, 0.0, 10.000466, 10.000871 
2.974823e+3, 2.5260645e+2, -484350.1, -402973.1, 43020.258, -0.028659033, -0.95980257, -384447.63, 79916.73, 0.0, 9.999905, 10.000983 
2.974719e+3, 2.6260725e+2, -446627.22, -377862.34, 39930.125, -0.03205119, -0.90798765, -359551.63, 6805.4443, 0.0, 9.999683, 10.000587 
2.974615e+3, 2.7260768e+2, -276009.0, -257141.39, 7977.5728, -0.018988537, -0.8603021, -254220.52, 14133.299, 0.0, 10.000233, 10.000478 
2.974511e+3, 2.8260738e+2, -145896.19, -142231.19, -7353.043, 0.0068484824, -0.8833393, -136485.73, 33871.563, 0.0, 10.000468, 10.000487 
2.9744074e+3, 2.9260692e+2, -126447.82, -46558.21, -24430.547, 0.10733383, -0.9105163, -39679.527, 32681.139, 0.0, 9.999823, 10.000763 
2.9860604e+3, 1.3271432e+2, -1842336.0, -1733528.6, 25102.367, -0.098663546, -0.8487996, -1728016.6, -88717.0, 0.0, 9.998956, 10.0003805 
2.9859582e+3, 1.4271367e+2, -1455105.8, -1523915.0, -7127.1064, -0.0853794, -0.8863943, -1454375.3, 86932.664, 0.0, 10.0010605, 10.000128 
2.9858544e+3, 1.5271248e+2, -1272469.0, -1422848.6, -20799.418, -0.13708366, -0.94503605, -1269645.1, 173675.3, 0.0, 10.001804, 9.999786 
2.98575e+3, 1.6271129e+2, -1184677.1, -1295391.9, -48406.176, -0.18120769, -1.0004996, -1166498.3, 178834.8, 0.0, 10.001589, 10.000092 
2.9856467e+3, 1.7271109e+2, -1153557.4, -1198253.6, -13626.185, -0.15676545, -0.99642724, -1149730.9, 97604.72, 0.0, 10.000998, 10.000368 
2.9855433e+3, 1.8271056e+2, -1103887.0, -1132274.8, 10798.616, -0.13141431, -1.0308361, -1100246.1, 49095.457, 0.0, 10.0007, 10.000294 
2.985441e+3, 1.9270991e+2, -1037218.7, -1044604.2, 34339.87, -0.07934182, -1.071589, -1006373.56, 44975.1, 0.0, 10.0004635, 10.000338 
2.9853392e+3, 2.0271008e+2, -917776.25, -949326.0, 32115.455, -0.036993008, -1.0304722, -897770.56, 55577.438, 0.0, 10.000663, 10.000228 
2.9852355e+3, 2.1271074e+2, -769326.1, -815271.8, 14720.871, -0.059057273, -0.937302, -765014.25, 90328.266, 0.0, 10.000955, 10.000336 
2.985132e+3, 2.2271091e+2, -718705.7, -730809.3, 38633.254, -0.07088624, -0.90143865, -685653.1, 71688.234, 0.0, 10.000587, 10.00042 
2.9850298e+3, 2.3271038e+2, -681790.7, -634826.56, 45920.14, -0.0234014, -0.95856655, -606732.75, 52612.965, 0.0, 10.0000515, 10.000663 
2.9849267e+3, 2.4271019e+2, -578027.44, -506340.13, 27610.197, 0.0015291575, -0.99890715, -496939.0, 64407.453, 0.0, 9.99997, 10.000913 
2.9848224e+3, 2.527107e+2, -465589.0, -395384.4, -2004.2148, -0.02582003, -0.9890874, -395327.25, 68013.055, 0.0, 10.000038, 10.000972 
2.9847184e+3, 2.6271126e+2, -386409.6, -349507.63, 13562.989, -0.03535966, -0.962864, -345058.97, 20275.7, 0.0, 10.000091, 10.000593 
2.984615e+3, 2.7271166e+2, -256410.02, -253584.45, 23554.059, -0.0067492793, -0.92046547, -231400.84, 35930.8, 0.0, 10.000374, 10.000448 
2.984511e+3, 2.8271168e+2, -130554.82, -127368.21, -1763.5742, 0.0235447, -0.913329, -126584.8, 42747.28, 0.0, 10.000536, 10.000584 
2.9844072e+3, 2.9271054e+2, -87347.19, -101111.8, -29276.58, 0.1525935, -0.99166834, -64154.85, 7187.8174, 0.0, 10.000342, 10.000221 
2.996058e+3, 1.3281406e+2, -1510475.8, -1695953.5, 15388.452, -0.21408574, -1.128037, -1509207.8, 129112.03, 0.0, 10.00176, 9.999288 
2.995958e+3, 1.4281398e+2, -1555671.0, -1491337.8, -5401.091, -0.14127429, -1.0873879, -1490887.5, 49436.625, 0.0, 10.000008, 10.000865 
2.9958564e+3, 1.5281515e+2, -1599168.5, -1537430.8, 16791.143, -0.037220743, -0.9730433, -1533159.5, -90846.05, 0.0, 9.999342, 10.000203 
2.9957512e+3, 1.6281416e+2, -1581810.6, -1501628.3, 61885.73, -0.156644, -1.0124421, -1467982.4, -123658.336, 0.0, 9.9988985, 9.999987 
2.9956478e+3, 1.7281412e+2, -1312640.1, -1224374.6, 81277.375, -0.07301453, -1.0179577, -1176021.0, 70303.79, 0.0, 9.99966, 10.000846 
2.9955444e+3, 1.8281499e+2, -1194471.8, -1171981.5, 27891.434, -0.03373594, -0.94872355, -1153153.6, -4836.4087, 0.0, 10.000025, 10.000364 
2.995441e+3, 1.9281495e+2, -1070626.0, -1074901.1, 46711.707, -0.10382201, -0.9202252, -1026002.94, 24316.424, 0.0, 10.000263, 10.00024 
2.995338e+3, 2.0281555e+2, -1012333.56, -954195.6, 41846.836, -0.14200345, -0.86209655, -932312.06, 20002.588, 0.0, 9.999809, 10.000618 
2.9952356e+3, 2.1281444e+2, -876040.56, -869468.2, 26690.943, -0.07917298, -0.9577214, -845861.9, 8463.993, 0.0, 10.0002165, 10.000325 
2.9951325e+3, 2.2281365e+2, -701661.2, -708157.94, -15836.488, -0.042303436, -1.0179023, -688743.3, 67590.44, 0.0, 10.000635, 10.000554 
2.9950294e+3, 2.3281498e+2, -718271.75, -603753.0, -40940.58, -0.020378372, -0.9254895, -590622.25, 67698.086, 0.0, 9.999587, 10.001101 
2.994926e+3, 2.4281558e+2, -595521.06, -544861.94, 2454.973, -0.010137046, -0.89982045, -544743.25, 15570.252, 0.0, 9.999979, 10.000642 
2.9948223e+3, 2.5281477e+2, -474396.56, -426629.75, -5101.6133, 0.010139407, -0.9996519, -426090.94, 36228.27, 0.0, 10.000095, 10.000725 
2.9947186e+3, 2.6281425e+2, -358721.0, -303515.97, 21657.963, 0.031089574, -1.0754695, -296033.34, 68288.84, 0.0, 10.000131, 10.000894 
2.994615e+3, 2.7281454e+2, -219304.63, -190262.23, 41175.496, 0.018972497, -1.0859683, -161122.39, 105195.67, 0.0, 10.000418, 10.000869 
2.9945108e+3, 2.8281492e+2, -139422.19, -121251.03, -8822.193, 0.013585678, -1.0736486, -117672.53, 50641.6, 0.0, 10.000475, 10.000632 
2.994407e+3, 2.9281494e+2, -119281.16, -118992.836, -7040.922, 0.2096031, -1.0382318, -112094.6, -41778.918, 0.0, 10.000199, 10.000139 
