coord_x,coord_y,stress_xx,stress_yy,tau_xy,velocity_x,velocity_y,stress_1,eps,damage,lx,ly
5.0008476e+0, 1.2466812e+2, -1518347.4, -1598736.8, 4608.234, 0.022934759, -0.14224818, -1518084.0, 200150.48, 0.0027102246, 10.001037, 10.000293 
5.000524e+0, 1.3466692e+2, -1501119.5, -1728861.8, -39613.082, -0.021668352, -0.23814303, -1494426.0, 125817.89, 0.0016001622, 10.001378, 9.998546 
5.0005686e+0, 1.4466292e+2, -1383069.6, -1612798.4, -31678.291, -0.024042493, -0.48355734, -1378781.4, 143500.63, 0.00071385584, 10.001502, 9.998594 
5.0009906e+0, 1.5466478e+2, -1291720.6, -1517468.3, -18319.057, 0.021036047, -0.24364991, -1290243.8, 134020.36, 0.00020880907, 10.001459, 9.998598 
5.0010234e+0, 1.646649e+2, -1219931.6, -1432031.8, 9257.894, 0.033350263, -0.085103124, -1219528.4, 106735.15, 0.00003056022, 10.001287, 9.998595 
5.00057e+0, 1.7466192e+2, -1185127.9, -1381627.0, -2719.9087, 0.005949708, -0.31010193, -1185090.3, 43203.344, 0.0000010193884, 10.000926, 9.998444 
5.000209e+0, 1.8466099e+2, -1058014.6, -1142495.4, 7055.8125, -0.013776401, -0.29538265, -1057429.4, 72874.46, 0.0, 10.000593, 9.999569 
4.9999374e+0, 1.9466208e+2, -1009517.6, -1080546.8, -24920.406, -0.026089173, -0.21306105, -1001646.6, 30647.941, 0.0, 10.000303, 9.999468 
4.999927e+0, 2.046627e+2, -937409.56, -1014040.6, -2670.3193, -0.022400167, -0.082464136, -937316.6, -3026.2659, 0.0, 10.00021, 9.999289 
5.0001645e+0, 2.1466209e+2, -821759.5, -922305.6, -1450.1161, -0.007906006, -0.13956112, -821738.6, 14559.629, 0.0, 10.000392, 9.999161 
5.00033e+0, 2.2466207e+2, -711665.94, -826968.75, 10298.212, 0.0028944775, -0.04620437, -710753.4, 27547.08, 0.0, 10.000517, 9.999083 
5.0004566e+0, 2.3466228e+2, -613505.1, -738440.7, -29995.932, 0.013117324, -0.004321313, -606676.56, 33623.582, 0.0, 10.000557, 9.999 
5.0003076e+0, 2.4466173e+2, -540273.9, -643456.4, -30863.975, 0.009254821, 0.043013643, -531746.56, 10558.924, 0.0, 10.000345, 9.999079 
4.9998266e+0, 2.5465956e+2, -530078.56, -610963.9, -23056.557, -0.014187553, -0.14722523, -523967.84, -79643.36, 0.000000000017365094, 9.999837, 9.998878 
4.9996227e+0, 2.6465827e+2, -493659.9, -576075.06, 29011.617, -0.020258961, -0.13976637, -484471.7, -138133.55, 0.000000288742, 9.999561, 9.9985695 
4.99976e+0, 2.7465802e+2, -406263.78, -489599.88, 42815.35, -0.0049304483, -0.09111373, -388187.53, -139842.64, 0.0000033591298, 9.999516, 9.998511 
4.999972e+0, 2.8465855e+2, -257963.56, -250772.38, 55849.824, 0.024453051, 0.0639548, -198402.52, -48062.22, 0.000018802597, 9.999361, 9.999547 
5.0001764e+0, 2.9465786e+2, -162138.58, -125944.98, 22487.023, 0.051012594, -0.037723146, -115177.26, -62834.117, 0.000081046455, 9.9992, 9.999816 
4.9998555e+0, 3.046569e+2, -30625.846, 55322.23, -5883.868, 0.012390706, -0.17648418, 55723.16, 55723.16, 0.0003038914, 9.99936, 10.000648 
4.9992546e+0, 3.1465745e+2, -47047.13, -16587.6, -78552.695, -0.05705522, -0.23206122, 48198.082, 48198.082, 0.00078894256, 9.999418, 10.000154 
1.5002525e+1, 1.2466709e+2, -1623532.6, -1707549.5, -32287.566, 0.07191664, -0.23348689, -1612558.1, 105689.99, 0.0026043395, 10.000641, 9.999758 
1.500167e+1, 1.3466895e+2, -1561540.9, -1791360.5, -10759.699, -0.049939428, 0.08343587, -1561038.3, 59195.26, 0.0015429672, 10.001168, 9.998244 
1.5001693e+1, 1.4466606e+2, -1358170.0, -1492190.9, -48650.44, -0.07181143, -0.081566036, -1342371.9, 179889.6, 0.0006869522, 10.001237, 9.999566 
1.5002954e+1, 1.5466529e+2, -1258876.8, -1391424.8, -1302.889, 0.06312095, -0.15932009, -1258863.9, 165399.92, 0.0001968844, 10.0012455, 9.999579 
1.5003084e+1, 1.6466463e+2, -1239801.0, -1409300.4, -19411.098, 0.10425211, -0.14407617, -1237606.5, 88661.93, 0.000026649353, 10.001049, 9.99888 
1.5001751e+1, 1.7466354e+2, -1195793.9, -1348519.0, -367.0246, 0.023278276, -0.16724375, -1195793.0, 32487.787, 0.00000066228677, 10.000713, 9.998792 
1.500059e+1, 1.846627e+2, -1121533.3, -1199981.8, -19597.344, -0.040983688, -0.15047067, -1116910.0, 13380.362, 0.0, 10.00032, 9.999313 
1.4999796e+1, 1.94662e+2, -1070983.8, -1137350.5, -18503.105, -0.0749736, -0.18168436, -1066173.6, -33875.082, 0.0, 10.00004, 9.999215 
1.499976e+1, 2.0466186e+2, -938529.3, -950373.8, -9773.685, -0.06835617, -0.14024107, -933023.6, 1276.2338, 0.0, 9.999964, 9.999853 
1.500047e+1, 2.1466216e+2, -817196.0, -846419.44, 22778.768, -0.025300168, -0.12961084, -804745.3, 31550.072, 0.0, 10.00014, 9.999812 
1.5000984e+1, 2.2466128e+2, -782763.9, -906906.3, -5951.3174, 0.012510667, -0.13998589, -782479.25, -44174.35, 0.0, 10.000267, 9.998666 
1.5001346e+1, 2.3465885e+2, -687992.1, -823943.44, -11598.449, 0.040357728, -0.2717896, -687009.7, -46677.79, 0.0, 10.000298, 9.998548 
1.500093e+1, 2.4465857e+2, -529045.44, -562438.5, -65107.773, 0.030146029, -0.207805, -478527.4, 63808.793, 0.0, 10.000132, 9.999751 
1.4999466e+1, 2.5466043e+2, -513285.53, -503929.0, -27341.926, -0.04045031, -0.035190634, -480868.0, -36550.53, 0.0, 9.999563, 9.999758 
1.4998879e+1, 2.6466024e+2, -462244.8, -452224.47, 12102.669, -0.057914596, -0.0119409785, -444135.94, -97818.27, 0.00000013049092, 9.99935, 9.999536 
1.4999299e+1, 2.7465782e+2, -386527.66, -378041.28, 53490.92, -0.011649186, -0.23510312, -328625.53, -80286.37, 0.0000024373799, 9.999247, 9.99942 
1.4999877e+1, 2.8465718e+2, -318612.53, -319376.9, 35488.79, 0.072489865, -0.22608684, -283503.88, -133158.86, 0.000015368285, 9.999154, 9.999191 
1.5000515e+1, 2.9465738e+2, -240077.06, -207017.64, 43048.87, 0.15183909, -0.16249678, -177434.05, -125089.75, 0.000069496324, 9.998878, 9.999432 
1.4999656e+1, 3.0465668e+2, -160783.28, -131638.9, -14584.188, 0.054466948, -0.18375441, -125594.42, -125594.42, 0.00026841622, 9.999098, 9.999514 
1.499774e+1, 3.1465656e+2, -163650.11, -113270.06, -26556.797, -0.1627684, -0.13483551, -101856.8, -101856.8, 0.0007052667, 9.998889, 9.999771 
2.5003684e+1, 1.2466711e+2, -1597588.1, -1702260.4, 38617.582, 0.13142996, -0.2036471, -1584882.9, 133366.53, 0.0024837567, 10.000888, 9.999644 
2.500325e+1, 1.3466913e+2, -1548344.8, -1775796.1, 56149.586, 0.00376988, 0.102545306, -1535238.6, 84994.414, 0.0014731403, 10.001262, 9.998288 
2.5003397e+1, 1.4466691e+2, -1363323.5, -1503786.0, 39760.297, -0.013793386, 0.008105842, -1352849.6, 169405.1, 0.00065158884, 10.001284, 9.99944 
2.5004682e+1, 1.5466523e+2, -1296138.0, -1429288.5, -19495.906, 0.13012321, -0.15865593, -1293342.1, 130925.13, 0.0001815959, 10.0011015, 9.999375 
2.5004444e+1, 1.6466455e+2, -1250204.3, -1374023.8, -29339.977, 0.1576371, -0.14913546, -1243603.8, 82668.484, 0.000022322774, 10.000814, 9.999223 
2.5002465e+1, 1.7466456e+2, -1211103.5, -1308149.9, -19352.547, 0.04870031, -0.11567529, -1207386.8, 20886.246, 0.00000035252413, 10.000428, 9.9991865 
2.5001174e+1, 1.84664e+2, -1097304.6, -1200294.6, 37757.363, -0.014814265, -0.08583345, -1084945.5, 45333.313, 0.0, 10.000531, 9.9992 
2.5000837e+1, 1.9466268e+2, -931515.8, -1080505.8, 36485.39, -0.0138393855, -0.17958845, -923060.9, 109231.17, 0.0, 10.001045, 9.999103 
2.5000787e+1, 2.0466219e+2, -803776.06, -914470.56, 60072.434, -0.0059555764, -0.156624, -777440.94, 156855.66, 0.0, 10.001024, 9.999582 
2.5000983e+1, 2.1466231e+2, -808693.9, -877492.94, 10098.445, 0.010779648, -0.14328781, -807242.25, 29051.746, 0.0, 10.000359, 9.999488 
2.5001243e+1, 2.2466134e+2, -809724.7, -906265.1, 25428.832, 0.031908847, -0.14953686, -803436.3, -65132.355, 0.0, 10.000028, 9.998764 
2.500166e+1, 2.3465885e+2, -718818.3, -830894.5, 49846.285, 0.062920995, -0.31332877, -699856.94, -59526.523, 0.0, 10.000048, 9.998605 
2.5001168e+1, 2.4465868e+2, -550207.8, -568897.4, 31432.63, 0.056178633, -0.23997891, -526760.3, 15573.27, 0.0, 9.999998, 9.999749 
2.4999571e+1, 2.546608e+2, -466976.25, -481894.53, -5437.1963, 0.007957449, -0.04899883, -465204.9, -20891.615, 0.0, 9.999897, 9.999728 
2.499896e+1, 2.6466078e+2, -379015.75, -380595.4, 33166.93, 0.0023906212, -0.022971112, -346629.25, -317.629, 0.00000003137998, 9.99981, 9.99979 
2.4999468e+1, 2.7465823e+2, -290864.97, -303947.16, 5917.5938, 0.06402518, -0.2903879, -288585.4, -40253.73, 0.0000016497497, 9.9998, 9.999654 
2.499978e+1, 2.8465754e+2, -254278.52, -341875.88, 7877.924, 0.124000385, -0.27522328, -253575.67, -103237.2, 0.000012071121, 9.999838, 9.998694 
2.49999e+1, 2.9465812e+2, -158575.67, -236724.58, -13899.88, 0.17296535, -0.13348168, -156177.0, -103839.39, 0.00005739791, 9.999767, 9.998781 
2.4999006e+1, 3.0465692e+2, -121313.734, -184684.92, 6057.7217, 0.067929745, -0.13409938, -120739.87, -120739.87, 0.00023072664, 9.999702, 9.998856 
2.4997884e+1, 3.1465623e+2, -45697.22, -38212.598, -8770.688, -0.046608783, -0.11443796, -32419.191, -32419.191, 0.000617959, 9.999664, 9.99988 
3.500387e+1, 1.24667995e+2, -1592638.0, -1641370.6, -3191.9592, -0.016527968, -0.13459843, -1592429.8, 125810.33, 0.0023583595, 10.000687, 10.000158 
3.5004795e+1, 1.3466752e+2, -1498393.5, -1646720.6, 81364.78, -0.007469433, -0.14657335, -1462464.1, 157777.83, 0.0013953737, 10.001174, 9.999209 
3.5005218e+1, 1.4466536e+2, -1451157.5, -1649642.8, 14116.535, -0.0069591776, -0.23749219, -1450158.5, 72104.76, 0.0006105934, 10.001132, 9.998509 
3.500572e+1, 1.5466453e+2, -1374872.8, -1566113.0, -9901.322, 0.083841525, -0.21587491, -1374361.5, 49913.59, 0.00016453842, 10.001003, 9.998476 
3.500478e+1, 1.6466454e+2, -1211911.9, -1267548.4, -62354.816, 0.07100162, -0.13304287, -1171451.5, 154824.64, 0.000017966355, 10.000692, 10.00002 
3.5002324e+1, 1.7466474e+2, -1167307.6, -1198401.6, -16146.481, -0.047166433, -0.1528861, -1160439.9, 67832.055, 0.00000014192928, 10.000344, 9.999986 
3.500159e+1, 1.8466462e+2, -1092696.3, -1150445.4, 40237.86, -0.061593916, -0.13848561, -1072044.8, 58226.47, 0.0, 10.000368, 9.999615 
3.500268e+1, 1.9466408e+2, -925167.1, -1029176.3, 71880.08, 0.029803207, -0.18789338, -888451.75, 143823.55, 0.0, 10.000889, 9.999528 
3.5002655e+1, 2.0466353e+2, -885364.94, -1041803.5, 18001.451, 0.047833145, -0.15454544, -883320.25, 50961.145, 0.0, 10.000852, 9.998791 
3.5001346e+1, 2.1466255e+2, -893259.7, -1008208.6, 1545.0458, -0.021308271, -0.16090108, -893238.94, -56945.26, 0.0, 10.000174, 9.998678 
3.500074e+1, 2.246622e+2, -774969.25, -779922.8, 13779.197, -0.05323458, -0.10945269, -763446.0, -25148.1, 0.0, 9.999809, 9.999732 
3.5000974e+1, 2.3466241e+2, -676835.9, -687309.4, 67400.58, -0.04528365, -0.099637166, -614468.94, 25825.21, 0.0, 9.999823, 9.999692 
3.5000706e+1, 2.4466208e+2, -606790.0, -649083.1, 13049.891, -0.021003949, -0.07493044, -603087.5, -60790.285, 0.0, 9.999836, 9.999281 
3.499979e+1, 2.5466082e+2, -532425.56, -570584.4, 7882.9897, 0.005737695, -0.16346669, -530861.2, -86549.95, 0.0, 9.999701, 9.999213 
3.4999496e+1, 2.6465994e+2, -407521.25, -416195.5, 18247.754, 0.043149147, -0.18608555, -393102.28, -46783.094, 0.0000000045955626, 9.999705, 9.999595 
3.4999806e+1, 2.746594e+2, -322244.3, -333142.34, 25268.93, 0.08036071, -0.23328152, -301843.56, -53522.44, 0.0000011896407, 9.999644, 9.999526 
3.4999344e+1, 2.8465965e+2, -292302.44, -395218.03, -8871.07, 0.06101759, -0.097444154, -291543.38, -141223.2, 0.000009641755, 9.999738, 9.998376 
3.4997916e+1, 2.9466015e+2, -220058.22, -324499.4, -2460.6184, -0.04608497, 0.07600889, -220000.28, -167677.16, 0.0000464018, 9.999605, 9.99826 
3.499734e+1, 3.046574e+2, -112709.98, -156319.9, -8423.838, -0.1011915, -0.05723526, -111139.37, -111139.37, 0.00019513248, 9.999637, 9.999078 
3.4998855e+1, 3.1465706e+2, -9075.254, 59692.855, 42926.9, 0.004980854, -0.03967579, 80308.63, 80308.63, 0.00053834624, 9.999546, 10.00061 
4.50057e+1, 1.2466817e+2, -1573952.4, -1631742.8, 66904.38, 0.12320396, -0.12611802, -1529970.1, 188268.05, 0.0022337737, 10.000845, 10.000122 
4.5006627e+1, 1.3466685e+2, -1453297.1, -1602731.6, 24814.414, 0.07107089, -0.24382652, -1449284.4, 170963.3, 0.0013153872, 10.001404, 9.999386 
4.5006728e+1, 1.446655e+2, -1415264.4, -1642242.4, -17732.848, 0.037330937, -0.25918907, -1413887.3, 108374.51, 0.00056916923, 10.001395, 9.998451 
4.5006374e+1, 1.5466507e+2, -1390020.1, -1585399.9, -13866.682, 0.0691879, -0.18652423, -1389040.9, 35231.145, 0.00014812649, 10.000929, 9.9984 
4.500519e+1, 1.646653e+2, -1211208.8, -1237509.9, -14607.088, 0.063094996, -0.088140935, -1204704.8, 121566.73, 0.000013959289, 10.000585, 10.000274 
4.5003232e+1, 1.7466547e+2, -1139852.8, -1155245.9, -44866.97, 0.018870823, -0.13648823, -1102027.0, 126239.56, 0.000000037538413, 10.00041, 10.00025 
4.5002738e+1, 1.8466538e+2, -1082697.3, -1142132.3, 31634.621, 0.027272208, -0.13306406, -1069011.1, 61253.707, 0.0, 10.00042, 9.99966 
4.5003772e+1, 1.9466501e+2, -979613.94, -1053923.9, 7780.0186, 0.08306428, -0.1676851, -978808.1, 53458.355, 0.0, 10.000502, 9.999555 
4.5003685e+1, 2.0466428e+2, -917812.5, -1086908.5, -23773.025, 0.08359681, -0.13920105, -914533.9, 19740.549, 0.0, 10.000746, 9.998536 
4.500231e+1, 2.1466282e+2, -778658.06, -980542.6, -29891.945, 0.027489444, -0.1690515, -774325.1, 61967.56, 0.0, 10.001077, 9.998432 
4.5001388e+1, 2.2466262e+2, -601416.4, -657499.6, 7480.7324, -0.006314097, -0.10835068, -600435.7, 137859.52, 0.0, 10.000823, 10.000096 
4.500103e+1, 2.3466362e+2, -648300.06, -634249.9, -16505.578, -0.009499604, -0.053215433, -623336.56, 16945.014, 0.0, 9.9998455, 10.00006 
4.5000657e+1, 2.4466334e+2, -666891.7, -705133.0, -32258.783, 0.018485565, -0.031078223, -648512.6, -106229.11, 0.0, 9.99954, 9.999035 
4.5000175e+1, 2.546611e+2, -508806.2, -595786.5, -48887.95, 0.07086779, -0.18966971, -486863.75, -42555.844, 0.0, 10.000005, 9.998897 
4.4999808e+1, 2.6465994e+2, -359536.0, -399134.7, -4084.4626, 0.097195, -0.21953598, -359119.1, -12799.67, 0.000000013083459, 10.000068, 9.999533 
4.4999725e+1, 2.7466005e+2, -302480.38, -332258.16, -17356.74, 0.11324118, -0.19682999, -294501.5, -46185.2, 0.0000010541644, 9.999815, 9.999455 
4.4999132e+1, 2.8466055e+2, -274959.88, -390410.66, 6006.528, 0.071160786, -0.03476815, -274648.22, -124334.71, 0.000008106713, 9.999882, 9.998342 
4.4997656e+1, 2.9466078e+2, -121742.81, -284482.94, -833.5633, -0.05363397, 0.119277954, -121738.54, -69420.76, 0.000037622078, 10.00032, 9.998191 
4.4996917e+1, 3.0465674e+2, -70386.51, -117818.77, 18845.361, -0.10271135, -0.14405954, -63810.684, -63810.684, 0.00016443121, 9.999847, 9.999231 
4.4998783e+1, 3.1465802e+2, -196062.66, -16087.15, 8781.413, 0.12816542, 0.010899045, -15659.7, -15659.7, 0.00047154687, 9.9981985, 10.000729 
5.500756e+1, 1.2466792e+2, -1626058.9, -1756488.5, 31397.133, 0.12175067, -0.17552906, -1618894.5, 99346.12, 0.0021078985, 10.000888, 9.999253 
5.500815e+1, 1.3466705e+2, -1484786.4, -1687605.6, 61516.047, 0.026270214, -0.1890696, -1467586.8, 152663.9, 0.0012334009, 10.0014715, 9.998775 
5.5007476e+1, 1.4466725e+2, -1358197.5, -1521435.4, -59636.332, -0.087913625, -0.060785666, -1338731.5, 183519.3, 0.00052778376, 10.001381, 9.9992895 
5.500609e+1, 1.5466692e+2, -1333114.9, -1466228.6, -15273.597, -0.099082224, -0.06453613, -1331384.9, 92872.34, 0.00013278752, 10.000918, 9.999225 
5.500496e+1, 1.6466695e+2, -1250728.1, -1297702.4, -38441.9, -0.060762305, -0.009290986, -1229166.1, 97091.13, 0.0000106646075, 10.000496, 9.999896 
5.500454e+1, 1.7466672e+2, -1172769.5, -1209487.5, -35992.555, 0.06413248, -0.06120226, -1150724.1, 77532.83, 0.000000007551507, 10.000356, 9.999894 
5.5004126e+1, 1.8466626e+2, -1120239.3, -1194340.0, 16624.188, 0.08516658, -0.065393046, -1116680.5, 13578.607, 0.0, 10.000307, 9.999356 
5.50036e+1, 1.9466542e+2, -1014345.75, -1103206.1, 24842.871, -0.023924896, -0.11433305, -1007872.0, 24393.564, 0.0, 10.000406, 9.999262 
5.5003333e+1, 2.0466448e+2, -918940.6, -1048666.1, -25579.643, -0.059641514, -0.10995633, -914079.0, 20196.01, 0.0, 10.000581, 9.998875 
5.5003333e+1, 2.1466313e+2, -775733.6, -938988.6, -1936.557, -0.015457559, -0.16270044, -775710.7, 60580.156, 0.0, 10.000928, 9.998789 
5.500267e+1, 2.2466256e+2, -637730.44, -697960.9, -41572.277, 0.004474161, -0.14757618, -616511.7, 121784.43, 0.0, 10.000677, 9.999888 
5.5001354e+1, 2.3466264e+2, -687013.44, -679514.3, -36670.914, 0.003080461, -0.1610447, -646401.75, -6110.3926, 0.0, 9.999697, 9.999821 
5.500044e+1, 2.4466248e+2, -686481.44, -719735.44, -28422.93, 0.0057376544, -0.11176444, -670179.44, -127886.984, 0.0, 9.999432, 9.998986 
5.500007e+1, 2.546617e+2, -538248.06, -608166.4, -15263.538, 0.019229019, -0.12099988, -535061.2, -90758.164, 0.0, 9.999813, 9.998896 
5.499948e+1, 2.6466095e+2, -364039.84, -398042.2, -28529.795, 0.01755416, -0.113252, -347829.75, -1518.433, 0.000000016276152, 10.00001, 9.999576 
5.4998815e+1, 2.7466017e+2, -315012.25, -336305.25, -9183.445, 0.00010948633, -0.1843643, -311598.75, -63281.02, 0.00000094951764, 9.999707, 9.999488 
5.4998523e+1, 2.8466e+2, -264197.5, -355073.66, 7412.6606, -0.017233439, -0.09837162, -263596.8, -113277.65, 0.0000068871877, 9.99983, 9.998603 
5.49985e+1, 2.946599e+2, -112989.34, -243192.58, 33348.387, -0.050558407, -0.005425699, -104944.97, -52622.93, 0.00003070153, 10.000213, 9.998527 
5.499722e+1, 3.0465487e+2, -62456.344, -81631.82, -50079.703, -0.093984716, -0.40605155, -21054.852, -21054.852, 0.00013855331, 9.999777, 9.999515 
5.499669e+1, 3.1465882e+2, -251480.44, -93203.03, -8088.267, 0.01922585, 0.006838133, -92790.78, -92790.78, 0.0004144919, 9.998051, 10.000266 
6.500898e+1, 1.2466866e+2, -1592288.9, -1768701.5, 44335.44, 0.18410118, -0.1021208, -1581773.5, 136463.75, 0.0019834668, 10.001204, 9.999043 
6.500979e+1, 1.346673e+2, -1537988.4, -1722723.9, 62101.87, 0.07893249, -0.1468869, -1519052.8, 101199.93, 0.001149572, 10.001116, 9.998726 
6.500895e+1, 1.4466834e+2, -1413289.1, -1486021.0, -25931.863, -0.032560598, 0.037593376, -1404990.4, 117253.87, 0.00048384682, 10.000763, 9.999818 
6.500695e+1, 1.5466803e+2, -1362231.3, -1415855.8, -49846.344, -0.06826417, -0.015104525, -1332443.5, 91804.1, 0.00011744106, 10.000472, 9.999764 
6.500563e+1, 1.6466777e+2, -1263879.1, -1345164.1, -30375.871, -0.034616627, -0.0008625561, -1253782.0, 72467.5, 0.000008467286, 10.000574, 9.999537 
6.500532e+1, 1.746668e+2, -1115287.9, -1230928.0, -61596.164, 0.08823011, -0.08308205, -1088625.8, 139630.92, 0.000000004638606, 10.000959, 9.999465 
6.5005004e+1, 1.8466611e+2, -988595.0, -1138524.9, 27822.313, 0.10823249, -0.08386948, -983598.5, 146663.19, 0.0, 10.001249, 9.999281 
6.5004563e+1, 1.9466554e+2, -880100.44, -1046680.7, 19293.213, -0.004397715, -0.100905165, -877895.06, 154370.94, 0.0, 10.001365, 9.999188 
6.500422e+1, 2.0466481e+2, -849752.6, -999101.8, -17243.164, -0.037769582, -0.07779553, -847787.7, 86485.62, 0.0, 10.000977, 9.999023 
6.500394e+1, 2.146637e+2, -921768.94, -989021.56, -34428.223, 0.017557124, -0.12434892, -907270.1, -70984.06, 0.0, 9.999841, 9.998963 
6.500323e+1, 2.2466287e+2, -792590.2, -799337.06, -38889.78, 0.05209464, -0.13114841, -756927.8, -18634.09, 0.0, 9.999714, 9.99966 
6.500211e+1, 2.346622e+2, -556388.06, -642057.4, -64920.65, 0.07031562, -0.20102727, -521444.2, 118853.28, 0.0, 10.000686, 9.999602 
6.500106e+1, 2.44662e+2, -449613.84, -570661.9, -17120.367, 0.06302173, -0.15939264, -447239.03, 95059.375, 0.0, 10.000895, 9.999326 
6.500015e+1, 2.5466213e+2, -451917.22, -528683.6, -6207.229, 0.038177136, -0.11186828, -451418.56, -7120.106, 0.0, 10.000225, 9.999266 
6.4999384e+1, 2.6466152e+2, -391593.72, -464251.88, 15989.558, 0.0145418, -0.081439994, -388230.66, -41924.74, 0.00000000394634, 10.000057, 9.999102 
6.499885e+1, 2.7466017e+2, -218848.3, -338724.3, -37139.43, 0.00012738102, -0.16113886, -208274.58, 40047.203, 0.0000007712445, 10.000603, 9.999026 
6.499862e+1, 2.8465995e+2, -162600.73, -256815.66, -20917.957, -0.002373405, -0.08263476, -158165.27, -7840.7847, 0.000006042053, 10.000309, 9.999052 
6.4998734e+1, 2.946603e+2, -247418.86, -237973.98, -10926.6, 0.026300946, 0.009133495, -230792.98, -178473.95, 0.000026519589, 9.999005, 9.999135 
6.499722e+1, 3.046552e+2, -157290.92, -131530.33, -48412.242, -0.023236757, -0.43537253, -94314.24, -94314.24, 0.00012024143, 9.999126, 9.999496 
6.4996386e+1, 3.1465942e+2, 76937.59, 26691.242, -96014.51, 0.08587866, 0.025985664, 151061.38, 151061.38, 0.00036921015, 10.000433, 9.999975 
7.5009024e+1, 1.2467013e+2, -1539301.5, -1661258.4, -20743.49, -0.024962233, 0.09882848, -1535869.8, 182360.3, 0.0018629195, 10.001226, 9.999763 
7.501087e+1, 1.3466755e+2, -1494134.5, -1637585.3, 65517.14, 0.028045904, -0.13144861, -1468715.5, 151538.89, 0.0010666472, 10.001145, 9.999294 
7.5010324e+1, 1.4466871e+2, -1409111.8, -1464580.6, -55701.11, -0.023002934, 0.031975012, -1374622.4, 147619.34, 0.0004391749, 10.000707, 9.999994 
7.500843e+1, 1.5466829e+2, -1348871.9, -1397073.5, -42991.95, -0.015786199, -0.050195504, -1323686.3, 100558.53, 0.00010226521, 10.000497, 9.99989 
7.500665e+1, 1.6466762e+2, -1301229.8, -1406253.8, -34999.145, -0.03065627, -0.06638026, -1290635.1, 35614.68, 0.000007138289, 10.000506, 9.999149 
7.5005126e+1, 1.7466572e+2, -1151476.1, -1297274.0, -33031.773, -0.06834976, -0.20265047, -1144341.6, 83924.34, 0.00000003688298, 10.000917, 9.999031 
7.5004876e+1, 1.8466488e+2, -995445.9, -1133383.5, 17890.16, -0.06707573, -0.1996203, -993163.3, 137109.64, 0.0, 10.001159, 9.999366 
7.500615e+1, 1.9466515e+2, -878996.2, -1032286.75, 38707.457, -0.021670215, -0.14283906, -869776.7, 162493.14, 0.0, 10.0013075, 9.999319 
7.5005877e+1, 2.0466514e+2, -868492.8, -1007037.8, -71746.234, -0.0049593695, -0.055168234, -838034.7, 96235.76, 0.0, 10.000848, 9.999029 
7.500368e+1, 2.1466447e+2, -942091.3, -1000598.0, -62116.664, -0.02986863, -0.06007389, -902684.3, -66405.65, 0.0, 9.999703, 9.998952 
7.500258e+1, 2.2466357e+2, -828160.9, -841752.25, -17994.457, -0.017700449, -0.06304993, -815721.7, -77433.65, 0.0, 9.9995775, 9.999434 
7.500283e+1, 2.3466223e+2, -596869.7, -690646.94, -10686.032, 0.03677213, -0.17780393, -595667.44, 44633.01, 0.0, 10.0005245, 9.999351 
7.500198e+1, 2.4466194e+2, -416136.16, -475408.47, -54383.406, 0.033137232, -0.16758583, -383838.0, 158463.31, 0.0, 10.000785, 10.000029 
7.499995e+1, 2.5466248e+2, -424527.72, -437908.56, -15580.683, -0.040577084, -0.153634, -414261.75, 30031.23, 0.0, 10.0000725, 9.999963 
7.4998903e+1, 2.646619e+2, -478828.72, -619108.5, 21502.15, -0.07345908, -0.11049529, -475606.88, -129305.4, 0.00000000015133415, 9.999952, 9.998085 
7.499923e+1, 2.7466005e+2, -316759.72, -509354.0, 2473.9678, -0.062572464, -0.12920105, -316727.97, -68399.4, 0.00000065427645, 10.0004635, 9.997921 
7.499899e+1, 2.8466025e+2, -115881.664, -151436.47, -82335.18, -0.034725875, 0.014876867, -49426.547, 100902.95, 0.0000058927376, 10.000268, 9.999799 
7.4997854e+1, 2.9466194e+2, -203948.4, -122663.69, -38816.023, -0.007532843, 0.15528125, -107105.65, -54796.58, 0.000025865007, 9.99888, 9.999997 
7.4996346e+1, 3.0465764e+2, -196720.9, -189930.08, -3370.6453, -0.06019046, -0.237383, -188541.14, -188541.14, 0.00011203884, 9.999041, 9.999124 
7.499682e+1, 3.146596e+2, 47899.16, 12198.442, -22221.5, 0.010705041, 0.040344015, 58551.965, 58551.965, 0.00034091447, 10.000243, 9.999957 
8.501056e+1, 1.2467061e+2, -1441031.1, -1567183.5, 55444.355, -0.000028681685, 0.109282926, -1420127.1, 298100.03, 0.0017451695, 10.001716, 10.000162 
8.5012054e+1, 1.3466807e+2, -1600848.8, -1660936.4, 51331.49, 0.09202848, -0.13803558, -1571415.3, 48834.785, 0.0009891815, 10.000308, 9.999526 
8.501127e+1, 1.4466943e+2, -1529117.9, -1531334.8, -11020.91, 0.056264516, 0.03477584, -1519149.8, 3084.7996, 0.000399723, 9.999899, 9.999939 
8.5009605e+1, 1.5466861e+2, -1306788.1, -1386008.6, -47786.633, 0.047688954, -0.077724084, -1284329.6, 139911.47, 0.00008899464, 10.000824, 9.999812 
8.5007966e+1, 1.6466783e+2, -1176335.4, -1371143.1, -10039.006, 0.011875233, -0.085726604, -1175819.5, 150427.56, 0.000006071428, 10.001487, 9.99891 
8.500652e+1, 1.7466617e+2, -1053343.1, -1271959.3, -30004.002, -0.048937008, -0.17629871, -1049300.0, 178962.13, 0.000000076650345, 10.001704, 9.998814 
8.500617e+1, 1.8466516e+2, -966648.44, -1138921.9, 23381.508, -0.055559784, -0.16917284, -963531.4, 166739.98, 0.0, 10.00143, 9.999204 
8.500721e+1, 1.9466498e+2, -1015396.2, -1116691.5, -5935.518, 0.0073711327, -0.1407459, -1015049.56, 17224.021, 0.0, 10.0004425, 9.999158 
8.5006773e+1, 2.04665e+2, -924771.06, -983249.06, -79072.51, 0.04057607, -0.0638384, -869704.8, 64568.52, 0.0, 10.000244, 9.999484 
8.5004514e+1, 2.1466494e+2, -734695.4, -850187.56, -67502.37, 0.03315304, -0.052155133, -703609.1, 132664.36, 0.0, 10.00091, 9.999409 
8.50032e+1, 2.2466426e+2, -674763.8, -788588.4, 26965.002, 0.037379324, -0.046402525, -668699.0, 69581.82, 0.0, 10.000743, 9.999228 
8.5003066e+1, 2.3466279e+2, -751993.25, -785912.75, 2958.975, 0.06608554, -0.14931604, -751737.06, -111440.01, 0.0, 9.999579, 9.999137 
8.500217e+1, 2.4466252e+2, -600922.75, -544775.7, -20346.75, 0.05193537, -0.13464795, -538177.7, 4121.2217, 0.0, 9.999426, 10.000196 
8.5000455e+1, 2.5466335e+2, -355601.1, -380287.16, -53356.906, -0.004406116, -0.11045009, -313178.16, 131108.83, 0.0, 10.000456, 10.000158 
8.4999293e+1, 2.6466304e+2, -367435.03, -529815.44, 27882.982, -0.04730999, -0.065945566, -362780.53, -16488.928, 0.0000000019213902, 10.000523, 9.99844 
8.499905e+1, 2.7466136e+2, -468442.72, -543647.9, 85102.22, -0.05383054, -0.10786443, -413005.84, -164689.75, 0.0000006294421, 9.999218, 9.998302 
8.499865e+1, 2.846616e+2, -319286.4, -253212.25, 69952.484, -0.014912051, 0.017797532, -208887.84, -58570.918, 0.0000062489003, 9.998884, 9.999765 
8.499799e+1, 2.9466328e+2, -48967.15, -53026.258, 18500.219, 0.07741247, 0.16612177, -32385.49, 19911.83, 0.000027811611, 9.999967, 9.999949 
8.499662e+1, 3.0465972e+2, -41749.49, -170597.61, 58794.543, 0.014466866, -0.120810404, -18953.953, -18953.953, 0.00011222166, 10.000318, 9.998659 
8.4996444e+1, 3.1465948e+2, -70688.34, -1930.826, -19565.186, 0.01901689, -0.027962893, 3246.648, 3246.648, 0.00032900518, 9.999246, 10.000329 
9.501253e+1, 1.2467028e+2, -1446523.0, -1565369.0, -51123.395, -0.06021193, -0.056857705, -1427557.9, 290668.53, 0.0016362383, 10.00166, 10.000196 
9.50127e+1, 1.3466884e+2, -1600934.5, -1685081.5, 11464.763, 0.079160795, -0.17668426, -1599400.5, 20839.385, 0.0009229167, 10.000399, 9.999317 
9.501131e+1, 1.4467047e+2, -1551892.0, -1571905.0, 3945.4182, 0.023009287, 0.043852426, -1551142.3, -28919.371, 0.00036888671, 9.999873, 9.999671 
9.5009977e+1, 1.5466908e+2, -1329312.3, -1434680.8, 5412.738, -0.041262895, -0.09362225, -1329034.9, 95200.35, 0.00007923838, 10.000829, 9.9994755 
9.500917e+1, 1.6466856e+2, -1194512.8, -1394667.3, -14583.483, -0.05492313, -0.0518943, -1193455.8, 132784.2, 0.0000051224774, 10.001421, 9.998782 
9.500893e+1, 1.7466815e+2, -1062206.3, -1288641.1, -4400.9155, -0.020087045, -0.006474654, -1062120.8, 166123.73, 0.00000007826353, 10.001691, 9.998708 
9.5008355e+1, 1.84667e+2, -1010170.06, -1209893.9, -27541.518, -0.015347013, 0.012007731, -1006441.75, 123814.98, 0.0, 10.001342, 9.998757 
9.5007294e+1, 1.9466503e+2, -1059700.3, -1189957.6, -26846.047, -0.06746641, -0.09935776, -1054384.3, -22106.818, 0.0, 10.000356, 9.998696 
9.5006484e+1, 2.0466442e+2, -887164.3, -875886.3, -70416.445, -0.04699372, -0.099681765, -810883.44, 123398.21, 0.0, 10.000113, 10.000286 
9.5005935e+1, 2.14665e+2, -695037.75, -737105.1, -25292.443, 0.048482265, -0.11101701, -683175.8, 153095.56, 0.0, 10.000772, 10.000254 
9.500455e+1, 2.246648e+2, -711510.6, -832755.5, -27496.363, 0.06367152, -0.087079585, -705566.3, 32706.635, 0.0, 10.000605, 9.998987 
9.5002306e+1, 2.3466359e+2, -790623.8, -839488.75, -27359.674, -0.0050365194, -0.1384112, -778375.25, -138085.27, 0.0, 9.9994545, 9.998833 
9.500116e+1, 2.4466352e+2, -640641.9, -602031.5, 764.56494, -0.026961768, -0.072070345, -602016.4, -59723.348, 0.0, 9.999312, 9.99986 
9.500125e+1, 2.5466454e+2, -392570.0, -439117.2, 5356.857, -0.009812836, 0.00094652286, -391961.44, 52321.02, 0.0, 10.0003605, 9.999807 
9.5000124e+1, 2.6466477e+2, -257640.98, -274399.88, -33440.703, -0.04909256, 0.030482186, -231545.88, 114733.24, 0.0000000017799018, 10.000422, 10.000233 
9.4997734e+1, 2.7466395e+2, -361027.06, -283431.44, 49221.348, -0.14439045, -0.11345108, -259555.4, -11269.412, 0.0000005677249, 9.999065, 10.000156 
9.499708e+1, 2.846639e+2, -388302.5, -382347.2, 91051.17, -0.09805026, -0.06869637, -294225.0, -143938.31, 0.0000064583187, 9.99882, 9.998907 
9.4998544e+1, 2.9466426e+2, -145413.22, -221927.33, 84811.41, 0.090784796, 0.040036254, -90629.555, -38344.88, 0.000029725905, 9.999825, 9.998859 
9.4997543e+1, 3.0466157e+2, -81451.41, -235175.03, 14576.218, 0.04155837, -0.084545605, -80081.484, -80081.484, 0.0001135958, 10.000246, 9.9982395 
9.499425e+1, 3.1465927e+2, -47297.414, 81496.2, 94.8774, -0.20302299, -0.16689841, 81496.266, 81496.266, 0.00032168903, 9.999094, 10.000974 
1.0501356e+2, 1.2467106e+2, -1730041.0, -1729692.9, -20355.732, -0.00900512, -0.10715852, -1709510.5, 8705.368, 0.0015480418, 9.999812, 9.999969 
1.0501406e+2, 1.3466981e+2, -1460140.1, -1646496.6, -23375.236, 0.13525347, -0.17229523, -1457252.8, 162975.44, 0.00087241904, 10.001498, 9.999055 
1.0501281e+2, 1.4467098e+2, -1270177.4, -1471288.5, -373.98, 0.09230604, 0.027382718, -1270176.6, 252039.92, 0.0003471946, 10.001974, 9.999339 
1.0501121e+2, 1.5466909e+2, -1297790.6, -1470962.4, -40370.13, -0.009278222, -0.11671475, -1288841.9, 135392.47, 0.000073446034, 10.00126, 9.999025 
1.0501042e+2, 1.6466841e+2, -1271844.1, -1434338.6, -21790.764, -0.03522249, -0.068357766, -1268972.8, 57268.758, 0.000004420773, 10.000906, 9.9987545 
1.0501077e+2, 1.746683e+2, -1171631.1, -1346982.4, -36127.51, 0.041563652, 0.011561347, -1164479.5, 63764.59, 0.000000050630582, 10.000971, 9.998654 
1.0501e+2, 1.8466732e+2, -1071278.0, -1219844.1, -37398.72, 0.04785352, 0.040722724, -1062394.8, 67860.35, 0.0, 10.000857, 9.99891 
1.0500783e+2, 1.946653e+2, -1053021.1, -1166056.0, -29955.914, -0.037940376, -0.09034346, -1045573.06, -13297.545, 0.0, 10.000338, 9.998854 
1.05006516e+2, 2.0466468e+2, -895254.3, -869344.06, -11049.841, -0.040069215, -0.10595792, -865271.75, 69008.28, 0.0, 10.000014, 10.000381 
1.05006255e+2, 2.1466528e+2, -838740.8, -792943.7, -53048.56, 0.06603288, -0.12107286, -758062.56, 78206.96, 0.0, 9.999731, 10.000372 
1.05004944e+2, 2.246654e+2, -804230.7, -868083.44, -58429.82, 0.08548528, -0.07927036, -769573.75, -31305.268, 0.0, 9.999914, 9.999096 
1.0500249e+2, 2.346648e+2, -613563.3, -741579.4, -58122.215, 0.020479001, -0.0765703, -591112.0, 49167.656, 0.0, 10.000614, 9.998958 
1.0500113e+2, 2.4466473e+2, -483391.97, -535461.5, 29784.502, -0.008733607, -0.010153642, -469867.56, 72415.1, 0.0, 10.000435, 9.999781 
1.05001144e+2, 2.5466508e+2, -568858.4, -530301.9, 23832.457, 0.010208144, 0.0048906333, -518926.63, -74647.7, 0.0, 9.999194, 9.99974 
1.0500006e+2, 2.646653e+2, -448586.38, -314996.63, -32449.232, -0.013137275, 0.015111826, -307531.78, 38742.973, 0.00000000014537505, 9.998909, 10.000674 
1.04997896e+2, 2.7466524e+2, -223097.38, -165962.19, -86997.48, -0.06102867, -0.098597795, -102961.945, 145310.2, 0.00000042821608, 9.999815, 10.000595 
1.04997255e+2, 2.8466517e+2, -175802.67, -279694.5, -16736.504, -0.025446253, -0.0753922, -173173.06, -22901.252, 0.0000059800022, 10.000261, 9.998929 
1.0499844e+2, 2.946649e+2, -125328.82, -219782.0, 11099.069, 0.10264078, -0.03628398, -124042.11, -71765.04, 0.000029321069, 9.999986, 9.998805 
1.04997836e+2, 3.0466297e+2, -141659.16, -264310.9, 3996.108, 0.08017895, -0.07300365, -141529.1, -141529.1, 0.000109980174, 9.9998455, 9.998227 
1.0499473e+2, 3.146608e+2, 79560.98, 135642.22, -28843.03, -0.09403078, -0.1510916, 147828.42, 147828.42, 0.0003078243, 9.999993, 10.0009165 
1.1501264e+2, 1.2467277e+2, -1759377.5, -1807721.0, -17579.428, -0.17099485, -0.04738656, -1753661.0, -35463.93, 0.0014882531, 9.999875, 9.999408 
1.15015596e+2, 1.3467088e+2, -1481164.1, -1699428.0, 50094.71, 0.09664638, -0.13520382, -1470215.9, 150000.33, 0.000840427, 10.001532, 9.998675 
1.1501532e+2, 1.4467077e+2, -1315117.5, -1544083.6, -43661.566, 0.101087436, -0.022463651, -1307074.3, 215143.27, 0.00033535642, 10.001884, 9.998883 
1.15012534e+2, 1.5466858e+2, -1331387.8, -1536807.0, -47542.832, -0.045077916, -0.15489955, -1320917.9, 103320.93, 0.0000716502, 10.001255, 9.9985695 
1.150112e+2, 1.6466735e+2, -1275237.3, -1434609.9, -34687.152, -0.08837015, -0.13446909, -1268015.0, 58236.49, 0.0000041980056, 10.000869, 9.9987755 
1.15011685e+2, 1.746666e+2, -1169753.9, -1336853.1, -17574.678, -0.004340352, -0.1297109, -1167925.5, 60335.57, 0.000000024917117, 10.000944, 9.998735 
1.1501081e+2, 1.846661e+2, -1045494.94, -1134332.8, -71570.086, 0.008761711, -0.08664897, -1005680.1, 124586.445, 0.0, 10.000724, 9.999564 
1.15008265e+2, 1.9466572e+2, -1017706.94, -1072397.5, -34907.43, -0.06969677, -0.1197312, -1000709.3, 31559.795, 0.0, 10.000251, 9.99954 
1.15006335e+2, 2.0466568e+2, -960406.8, -972238.94, -38800.08, -0.09174914, -0.07988415, -927074.4, 7194.65, 0.0, 9.999874, 9.999743 
1.1500501e+2, 2.1466568e+2, -907852.75, -902783.0, -51178.066, -0.06420613, -0.09105492, -854077.06, -17807.646, 0.0, 9.999583, 9.999691 
1.1500393e+2, 2.2466595e+2, -794442.75, -810355.6, -48747.563, -0.035500035, -0.01939074, -753006.56, -14738.651, 0.0, 9.999759, 9.999562 
1.1500315e+2, 2.3466632e+2, -599996.4, -678186.1, -15164.441, -0.009331853, 0.026921026, -597158.3, 43108.11, 0.0, 10.000455, 9.999471 
1.1500169e+2, 2.4466608e+2, -491834.47, -521094.97, -29417.406, -0.02880612, 0.042102214, -473610.06, 68658.26, 0.0, 10.000307, 9.999939 
1.1499956e+2, 2.5466493e+2, -582384.6, -520855.44, -10210.218, -0.10164588, -0.10608773, -519205.4, -74928.64, 0.0, 9.999036, 9.999882 
1.1499862e+2, 2.6466465e+2, -524832.5, -455260.4, -13577.383, -0.08035689, -0.10927561, -452704.6, -106426.1, 0.0, 9.998828, 9.999756 
1.1499909e+2, 2.7466518e+2, -308594.72, -316026.13, -31435.113, 0.039496385, -0.06434463, -280656.47, -32381.713, 0.0000002594802, 9.999684, 9.999636 
1.1499864e+2, 2.846654e+2, -129173.99, -157476.75, -37674.168, 0.05226278, -0.0092668235, -103081.06, 47191.816, 0.000005001763, 10.000164, 9.999813 
1.1499718e+2, 2.94665e+2, -89820.89, -106577.22, 14613.663, -0.06429875, -0.06785365, -81354.09, -29078.787, 0.000026475647, 9.999822, 9.999663 
1.14997044e+2, 3.0466393e+2, -126447.08, -209679.22, 4373.885, -0.017052436, -0.08303065, -126217.87, -126217.87, 0.000100772006, 9.999767, 9.998633 
1.1499685e+2, 3.146639e+2, 7807.9043, 23938.574, 41264.777, 0.040168274, 0.0056409133, 57918.83, 57918.83, 0.00028477798, 9.999844, 10.000218 
1.2501377e+2, 1.2467262e+2, -1563438.0, -1709927.4, -88968.77, -0.09830978, -0.0038183022, -1521442.8, 196758.08, 0.0014562852, 10.001217, 9.999425 
1.2501705e+2, 1.346707e+2, -1534461.5, -1702810.0, -26438.07, 0.1299274, -0.11619744, -1530407.1, 89811.78, 0.0008261713, 10.001058, 9.998886 
1.2501697e+2, 1.4467026e+2, -1446456.3, -1604426.1, -66136.305, 0.13934241, -0.050734203, -1422423.5, 99799.87, 0.00033346904, 10.00097, 9.998907 
1.2501428e+2, 1.546687e+2, -1308386.8, -1523230.6, -75809.64, 0.006465331, -0.11869715, -1284330.3, 139909.33, 0.00007407354, 10.001404, 9.998583 
1.2501271e+2, 1.6466774e+2, -1175942.3, -1340147.1, -7984.831, -0.03883636, -0.09766948, -1175554.9, 150695.1, 0.000004716059, 10.001332, 9.999214 
1.2501255e+2, 1.7466682e+2, -1197200.0, -1303792.1, 8044.904, 0.018843798, -0.14806066, -1196596.3, 31663.0, 0.000000012759114, 10.000527, 9.99918 
1.2501137e+2, 1.8466657e+2, -1089168.5, -1121471.9, 1211.5922, 0.027735747, -0.115695514, -1089123.1, 41137.895, 0.0, 10.000273, 9.999867 
1.2500907e+2, 1.9466707e+2, -948707.2, -1008709.94, -22132.35, -0.01910148, -0.09183426, -941426.9, 90827.63, 0.0, 10.0005865, 9.999819 
1.25007e+2, 2.0466708e+2, -909150.94, -1004577.75, -22643.535, -0.032462403, -0.036739714, -904050.56, 30204.092, 0.0, 10.000477, 9.999224 
1.2500514e+2, 2.1466632e+2, -918623.56, -969311.0, -56896.324, -0.009622983, -0.06872395, -881681.7, -45416.6, 0.0, 9.999778, 9.999133 
1.2500384e+2, 2.2466615e+2, -812669.4, -780003.7, 8049.19, 0.0038519152, -0.029604392, -778127.94, -39860.52, 0.0, 9.999465, 9.999903 
1.2500328e+2, 2.3466656e+2, -702146.2, -679775.2, 861.4679, 0.013783251, -0.01914732, -679742.06, -39480.11, 0.0, 9.999572, 9.999866 
1.2500177e+2, 2.4466637e+2, -571721.9, -558390.25, -27651.258, -0.013563156, -0.021246439, -536612.7, 5648.883, 0.0, 9.99976, 9.999942 
1.24999374e+2, 2.5466526e+2, -435104.1, -453070.16, -52228.945, -0.064497344, -0.1611393, -391091.28, 53178.61, 0.0, 10.000056, 9.999857 
1.24998495e+2, 2.6466483e+2, -363718.63, -437421.53, 14918.362, -0.03337631, -0.15418425, -360813.47, -14539.103, 0.0, 10.000195, 9.999216 
1.2499949e+2, 2.7466488e+2, -281692.4, -361705.25, -4153.789, 0.100336604, -0.09896953, -281477.34, -33200.48, 0.00000012209664, 10.000144, 9.999089 
1.24998786e+2, 2.8466502e+2, -172974.5, -180920.22, -23661.41, 0.07651545, -0.022167463, -152954.73, -2677.6406, 0.000003888246, 9.999885, 9.999783 
1.2499637e+2, 2.946651e+2, -152074.8, -127326.73, -77655.234, -0.09152187, -0.035281714, -61065.832, -8790.409, 0.00002250982, 9.99937, 9.999728 
1.24996595e+2, 3.0466405e+2, -150001.48, -124079.4, -40436.266, 0.007789581, -0.09772552, -94577.75, -94577.75, 0.000088219014, 9.999134, 9.999558 
1.24997675e+2, 3.14665e+2, -120733.836, -42365.49, -1791.3815, 0.20031048, -0.0027556294, -42324.56, -42324.56, 0.00025421134, 9.998971, 10.000193 
1.3501596e+2, 1.2467045e+2, -1531646.9, -1634046.0, -155487.61, -0.082491904, 0.0081389425, -1419146.1, 299083.1, 0.0014504807, 10.001174, 9.999967 
1.3501784e+2, 1.3466933e+2, -1465795.8, -1566454.5, -20974.523, 0.060728475, -0.116735734, -1461600.1, 158635.83, 0.0008289551, 10.001093, 9.9998 
1.3501728e+2, 1.4466956e+2, -1415703.0, -1548106.3, -71422.58, 0.023689624, -0.04881448, -1384519.6, 137713.16, 0.0003411424, 10.000988, 9.99929 
1.3501601e+2, 1.546695e+2, -1287150.1, -1470843.3, -43792.6, -0.0011890029, -0.0065900646, -1277244.1, 146992.66, 0.00008049032, 10.00136, 9.998968 
1.3501444e+2, 1.6466947e+2, -1134590.0, -1221041.5, -54459.777, -0.03206268, 0.04678265, -1108286.4, 217951.02, 0.0000062176173, 10.0012, 10.00009 
1.3501269e+2, 1.74669e+2, -1145615.5, -1180952.5, -4753.169, -0.05853271, -0.047439698, -1144987.3, 83251.67, 0.000000017143847, 10.000474, 10.000042 
1.3501108e+2, 1.8466899e+2, -1103319.3, -1137938.9, -2762.913, -0.06831396, -0.033655714, -1103100.1, 27136.65, 0.0, 10.0002, 9.999793 
1.3500966e+2, 1.9466935e+2, -966409.2, -1028733.06, 7742.922, -0.06021043, -0.013145731, -965461.6, 66769.875, 0.0, 10.000506, 9.999721 
1.3500804e+2, 2.0466888e+2, -957113.0, -1077100.3, -64274.613, -0.009085706, 0.01943399, -929183.6, 5053.2266, 0.0, 10.000355, 9.998789 
1.3500607e+2, 2.1466716e+2, -972651.7, -1043815.7, -65658.164, 0.07115519, -0.06560839, -933553.9, -97296.96, 0.0, 9.999612, 9.998703 
1.350042e+2, 2.2466606e+2, -819936.06, -765594.56, -4270.203, 0.058594417, -0.10635246, -765261.06, -26994.467, 0.0, 9.999327, 10.000072 
1.3500232e+2, 2.3466544e+2, -709166.0, -661075.2, 20832.299, -0.075293146, -0.21898738, -653306.06, -13039.463, 0.0, 9.999419, 10.000068 
1.350009e+2, 2.4466547e+2, -597948.5, -588626.6, -31283.045, -0.11035807, -0.20404486, -561659.2, -19395.773, 0.0, 9.999653, 9.9997835 
1.3500008e+2, 2.5466603e+2, -469783.28, -489565.5, -23373.12, -0.035480656, -0.16348772, -454294.53, -10035.68, 0.0, 9.999902, 9.999678 
1.3499929e+2, 2.6466575e+2, -393462.53, -476396.0, -2890.39, -0.008531231, -0.1188574, -393361.9, -47098.88, 0.0, 10.0001, 9.99899 
1.3499852e+2, 2.746642e+2, -317855.03, -400646.3, 9017.378, -0.047962554, -0.20649704, -316884.28, -68604.125, 0.000000046518082, 9.999993, 9.998889 
1.3499726e+2, 2.846639e+2, -239629.69, -309314.44, -57305.258, -0.10094137, -0.12190399, -207405.8, -57119.715, 0.0000029362805, 9.999836, 9.998924 
1.349955e+2, 2.946649e+2, -223455.3, -251244.56, -78853.39, -0.16005439, 0.041950602, -157281.72, -105001.82, 0.000019015239, 9.999252, 9.998939 
1.3499594e+2, 3.046632e+2, -56492.832, 95465.98, -57676.05, 0.00011320994, -0.12154014, 114877.33, 114877.33, 0.000075927965, 9.999041, 10.001104 
1.3499627e+2, 3.1466395e+2, -102779.625, 30939.244, 66345.26, 0.085270055, -0.19179142, 58270.45, 58270.45, 0.0002226974, 9.998819, 10.00077 
1.4501885e+2, 1.2467086e+2, -1416126.0, -1634442.8, 96038.836, 0.05736608, -0.02762057, -1379891.8, 338331.5, 0.0014659849, 10.002228, 9.999453 
1.4501956e+2, 1.3466993e+2, -1380558.1, -1539069.1, 92178.09, 0.10429652, -0.11821571, -1338247.9, 281982.0, 0.0008466132, 10.001752, 9.999659 
1.4501855e+2, 1.4467023e+2, -1369082.8, -1517083.1, 42643.816, 0.048094083, -0.041395027, -1357675.0, 164552.03, 0.00035647568, 10.001265, 9.999374 
1.4501722e+2, 1.5467021e+2, -1347171.3, -1486358.8, 18390.648, 0.020187104, -0.00459477, -1344782.3, 79447.61, 0.00008921642, 10.000884, 9.999096 
1.4501545e+2, 1.646703e+2, -1214839.1, -1262063.3, -11492.303, -0.012682493, 0.05622122, -1212190.9, 114038.305, 0.000008328298, 10.000669, 10.000056 
1.4501339e+2, 1.7467017e+2, -1123394.8, -1173390.6, -66694.85, -0.03440238, -0.0029675667, -1077167.0, 151061.27, 0.0000000715251, 10.000644, 10.000008 
1.4501171e+2, 1.8467008e+2, -1072895.5, -1125814.6, -61338.863, -0.02866761, 0.0048965537, -1032552.6, 97674.49, 0.0, 10.000422, 9.99978 
1.4501032e+2, 1.946698e+2, -1056771.9, -1078072.6, -77143.66, -0.0041514537, -0.03254708, -989546.9, 42680.95, 0.0, 9.9999, 9.99969 
1.4500862e+2, 2.046692e+2, -997459.56, -1078164.3, -89610.22, 0.04033713, -0.018818488, -939535.25, -5301.4375, 0.0, 9.999995, 9.998953 
1.4500648e+2, 2.1466802e+2, -804468.25, -944999.4, -79509.95, 0.1074712, -0.06833694, -768625.0, 67622.875, 0.0, 10.000692, 9.998859 
1.4500447e+2, 2.2466697e+2, -613431.5, -687250.44, 16800.357, 0.086384505, -0.1019287, -609787.75, 128468.96, 0.0, 10.000852, 9.999875 
1.450026e+2, 2.346658e+2, -576430.3, -626913.94, -25656.295, -0.03087915, -0.24365605, -565680.56, 74581.836, 0.0, 10.000457, 9.999814 
1.4500114e+2, 2.4466564e+2, -558871.6, -611609.0, -66837.734, -0.06410337, -0.21681108, -513389.13, 28873.064, 0.0, 10.000087, 9.999427 
1.450002e+2, 2.546664e+2, -512570.44, -549885.1, -104236.305, 0.003427675, -0.1166918, -425334.9, 18922.38, 0.0, 9.999774, 9.999331 
1.4499915e+2, 2.6466614e+2, -437791.66, -453260.34, -36264.934, 0.0018022492, -0.07163232, -408445.47, -62184.742, 0.0, 9.9995985, 9.999394 
1.4499792e+2, 2.7466446e+2, -342146.72, -369966.94, -8662.568, -0.076679215, -0.21434096, -339669.9, -91393.734, 0.00000002138944, 9.999621, 9.999296 
1.4499682e+2, 2.8466412e+2, -279589.34, -353949.47, -2330.6396, -0.11075172, -0.14205526, -279516.38, -129235.016, 0.0000023054517, 9.999667, 9.998698 
1.4499588e+2, 2.946653e+2, -152324.64, -231313.75, -16279.929, -0.06348878, 0.06449835, -149100.86, -96826.16, 0.000016570593, 9.999814, 9.998792 
1.4499576e+2, 3.0466288e+2, 7285.526, 140172.36, -5433.588, 0.07387003, -0.17895703, 140394.16, 140394.16, 0.0000664134, 9.999443, 10.001201 
1.4499491e+2, 3.1466463e+2, -198038.9, -12814.797, -19970.057, 0.1194074, -0.1456719, -10686.175, -10686.175, 0.0001967113, 9.9981785, 10.000766 
1.5502167e+2, 1.2467428e+2, -1518321.0, -1873097.4, 16203.918, 0.027754417, -0.069181144, -1517582.5, 200596.38, 0.0014879738, 10.00232, 9.997786 
1.5502174e+2, 1.3467258e+2, -1470576.3, -1728088.6, 81623.74, 0.10580225, -0.10567136, -1446883.8, 173316.75, 0.0008684092, 10.001755, 9.99837 
1.550202e+2, 1.4467224e+2, -1383478.3, -1530341.8, 7319.3223, 0.04310807, -0.021040997, -1383114.4, 139091.75, 0.00037251608, 10.001202, 9.99931 
1.5501733e+2, 1.5467098e+2, -1356371.3, -1490778.3, 20390.973, -0.09951252, -0.10528079, -1353345.9, 70871.86, 0.00009664872, 10.0008335, 9.999082 
1.5501527e+2, 1.6467048e+2, -1292060.6, -1408936.9, -28023.906, -0.13480952, -0.057692282, -1285688.5, 40534.836, 0.000009881803, 10.000605, 9.999085 
1.5501428e+2, 1.7467049e+2, -1204763.1, -1324425.1, -49106.363, -0.046492312, -0.0025399886, -1187191.4, 41034.582, 0.00000020107916, 10.000565, 9.999014 
1.5501277e+2, 1.8466988e+2, -1089046.9, -1134844.3, -96352.91, 0.0026339134, 0.007753455, -1012909.0, 117322.82, 0.0, 10.000316, 9.999768 
1.5501057e+2, 1.9466837e+2, -1071822.9, -1082528.5, -79578.19, -0.0040558814, -0.15696403, -997417.7, 34826.074, 0.0, 9.999795, 9.999706 
1.550083e+2, 2.0466806e+2, -965288.44, -981013.8, -78749.75, -0.023962643, -0.14984226, -894009.8, 40235.617, 0.0, 9.99986, 9.99969 
1.5500581e+2, 2.1466894e+2, -774612.6, -842253.2, -37759.08, -0.06326283, -0.06591838, -757742.1, 78495.13, 0.0, 10.000521, 9.999646 
1.5500425e+2, 2.2466893e+2, -681464.1, -800831.2, -13156.856, -0.054081418, -0.0032794364, -680031.2, 58206.176, 0.0, 10.000724, 9.999161 
1.5500373e+2, 2.3466757e+2, -652363.1, -749772.06, -23868.32, 0.0029914405, -0.088934936, -646829.06, -6579.2163, 0.0, 10.000299, 9.999048 
1.5500206e+2, 2.4466681e+2, -611099.5, -695023.56, -94843.72, -0.014355126, -0.058736965, -549349.7, -7091.376, 0.0, 9.999977, 9.998907 
1.5499921e+2, 2.5466636e+2, -572561.75, -640716.3, -98158.79, -0.10773161, -0.028629044, -502733.25, -58467.56, 0.0, 9.999619, 9.998789 
1.5499756e+2, 2.6466605e+2, -380023.5, -309886.1, -49763.402, -0.14943238, -0.010707302, -284076.16, 62191.254, 0.0, 9.999502, 10.0004225 
1.5499724e+2, 2.7466565e+2, -293377.13, -234217.77, 12348.872, -0.14129786, -0.13095331, -231743.55, 16521.676, 0.000000019825112, 9.999472, 10.0003 
1.5499698e+2, 2.846657e+2, -264237.5, -308084.66, -9935.166, -0.09784068, -0.087107025, -262091.36, -111828.17, 0.0000019865888, 9.999603, 9.999044 
1.5499699e+2, 2.9466617e+2, -140515.92, -181164.31, 9482.33, 0.018175451, 0.0133268675, -138412.73, -86150.695, 0.000014949104, 9.999693, 9.9992 
1.549956e+2, 3.0466297e+2, -100547.6, -57019.926, -63551.84, 0.08211088, -0.26695472, -11608.612, -11608.612, 0.000059797247, 9.999354, 9.999871 
1.5499257e+2, 3.1466702e+2, -270406.28, -113566.54, 6878.558, -0.0038450276, 0.13556825, -113265.445, -113265.445, 0.00017773658, 9.997988, 10.000151 
1.6502444e+2, 1.24676675e+2, -1549339.0, -1943677.9, -35049.65, 0.0874019, -0.11513552, -1546248.0, 171901.56, 0.0014964563, 10.002354, 9.9972725 
1.6502392e+2, 1.3467446e+2, -1402247.3, -1750671.3, 47445.81, 0.1282125, -0.16251239, -1395902.0, 224277.08, 0.0008776996, 10.0024395, 9.997894 
1.6502224e+2, 1.4467421e+2, -1264614.8, -1480419.1, 35744.973, 0.094270624, -0.0389823, -1258848.3, 263336.22, 0.00037921302, 10.002077, 9.999219 
1.6501908e+2, 1.5467264e+2, -1241964.0, -1446198.0, 5677.853, -0.038632244, -0.14537218, -1241806.3, 182391.44, 0.00009882513, 10.001671, 9.998982 
1.650167e+2, 1.6467175e+2, -1208715.1, -1399980.1, 21190.158, -0.07683986, -0.1174829, -1206395.6, 119811.26, 0.000009884257, 10.001294, 9.998816 
1.6501525e+2, 1.7467144e+2, -1181823.4, -1344425.8, 20825.57, -0.009392174, -0.067342535, -1179198.4, 49014.66, 0.0000002904704, 10.000839, 9.998745 
1.6501357e+2, 1.8467076e+2, -1064571.4, -1149095.4, 30036.152, 0.0458152, -0.040066626, -1054985.0, 75235.87, 0.0, 10.000612, 9.999508 
1.650116e+2, 1.9466937e+2, -959995.9, -1055727.3, -2768.323, 0.085233346, -0.16990721, -959915.9, 72317.39, 0.0, 10.000683, 9.999446 
1.6500902e+2, 2.046691e+2, -865135.7, -922352.0, 8880.013, 0.037589993, -0.14901839, -863789.2, 70445.83, 0.0, 10.000527, 9.9997635 
1.6500567e+2, 2.1467e+2, -823871.1, -857552.4, -34170.01, -0.10096898, -0.07251855, -802617.2, 33608.73, 0.0, 10.0001545, 9.999717 
1.6500412e+2, 2.2467002e+2, -807430.56, -893196.25, -2473.0898, -0.093377106, 0.006763676, -807359.3, -69133.15, 0.0, 9.999993, 9.998878 
1.6500449e+2, 2.3466897e+2, -710797.4, -805162.7, -10878.452, 0.07368543, -0.020157762, -709559.5, -69321.31, 0.0, 10.000026, 9.9987955 
1.65003e+2, 2.4466805e+2, -584607.5, -687454.6, -6047.5283, 0.08157532, 0.010616959, -584253.1, -42004.14, 0.0, 10.000196, 9.998847 
1.6499951e+2, 2.54667e+2, -433867.44, -570372.94, -8615.232, -0.07663591, -0.014863739, -433325.84, 10934.68, 0.0, 10.00058, 9.998791 
1.6499746e+2, 2.6466635e+2, -294848.72, -303854.22, 20145.668, -0.1358579, -0.0188706, -278708.75, 67556.62, 0.0, 10.000214, 10.00013 
1.6499712e+2, 2.7466583e+2, -378230.2, -298407.44, -54193.324, -0.06568107, -0.1276395, -271014.78, -22749.314, 0.000000024295247, 9.998993, 10.000077 
1.6499686e+2, 2.8466594e+2, -405627.5, -336722.22, -54374.918, -0.0015248903, -0.081063055, -306803.94, -156542.02, 0.0000019697127, 9.998456, 9.999408 
1.6499698e+2, 2.946667e+2, -231840.83, -176997.88, -60387.547, 0.10317456, 0.011652071, -138097.47, -85842.31, 0.000013995548, 9.998839, 9.999655 
1.6499446e+2, 3.0466318e+2, -136714.14, -145320.4, -90326.38, 0.04635595, -0.2976283, -50588.45, -50588.45, 0.000055183133, 9.999374, 9.999275 
1.6499186e+2, 3.1466708e+2, -21325.324, -37411.38, -4406.5967, 0.05126832, 0.15427414, -20197.29, -20197.29, 0.00016346599, 9.999846, 9.999795 
1.7502604e+2, 1.24678016e+2, -1509398.6, -1856043.9, -87384.49, -0.06882873, -0.17125101, -1488616.1, 229519.27, 0.0014785845, 10.002326, 9.997883 
1.7502548e+2, 1.3467571e+2, -1382489.0, -1692279.0, 58626.156, 0.0037904521, -0.277312, -1371765.5, 248398.19, 0.00086354057, 10.002383, 9.998306 
1.7502423e+2, 1.4467628e+2, -1287365.3, -1519762.9, 2143.4417, 0.041833244, -0.07844116, -1287345.5, 234814.88, 0.00037008742, 10.002026, 9.998984 
1.7502196e+2, 1.5467511e+2, -1259310.4, -1475242.9, 8635.7295, 0.042041562, -0.12778905, -1258965.6, 165205.05, 0.000094032526, 10.001639, 9.9988 
1.7501922e+2, 1.6467413e+2, -1181627.9, -1335326.9, -12580.259, 0.008729488, -0.12071863, -1180604.9, 145574.48, 0.000008393363, 10.001246, 9.9992895 
1.750158e+2, 1.7467315e+2, -1156426.1, -1276370.1, 19645.135, -0.075130165, -0.18620925, -1153290.5, 74898.3, 0.00000020811186, 10.000775, 9.999243 
1.7501363e+2, 1.8467283e+2, -1108872.0, -1223314.5, 18209.486, -0.045372147, -0.12585786, -1106044.5, 24148.816, 0.0, 10.000527, 9.9990425 
1.7501289e+2, 1.9467297e+2, -1011235.44, -1132600.0, 15708.5625, 0.10898102, -0.054182258, -1009235.2, 22959.793, 0.0, 10.000559, 9.998977 
1.7501028e+2, 2.0467249e+2, -929595.6, -1028020.56, -22841.98, 0.08116225, -0.00080052624, -924552.9, 9648.366, 0.0, 10.000397, 9.999104 
1.750056e+2, 2.14671e+2, -894949.75, -968504.0, -31840.156, -0.15581262, -0.094455235, -883081.7, -46866.5, 0.0, 9.999997, 9.99903 
1.7500356e+2, 2.2467022e+2, -814188.0, -873869.5, -16837.453, -0.1801459, -0.073567525, -809765.5, -71541.83, 0.0, 9.999847, 9.999081 
1.7500438e+2, 2.3466994e+2, -717461.94, -784438.94, 5629.451, 0.028176706, -0.044733595, -716992.1, -76763.945, 0.0, 9.999872, 9.999012 
1.7500351e+2, 2.4466938e+2, -574036.06, -643289.56, -6740.56, 0.08033474, -0.00632542, -573386.06, -31152.336, 0.0, 10.000099, 9.999194 
1.7500064e+2, 2.5466827e+2, -435169.78, -534553.5, 20847.898, -0.056273725, -0.07324641, -430973.66, 13268.7295, 0.0, 10.000415, 9.999116 
1.7499854e+2, 2.6466691e+2, -406565.5, -525253.94, -41307.473, -0.08396395, -0.093070164, -393604.5, -47348.863, 0.0, 10.00016, 9.998635 
1.7499712e+2, 2.7466488e+2, -502507.25, -531494.25, -85947.914, -0.0014323592, -0.19778149, -429839.38, -181561.8, 0.000000035492793, 9.998879, 9.998535 
1.7499593e+2, 2.846649e+2, -379041.1, -269678.16, -58788.75, 0.023251008, -0.10746453, -244071.52, -93794.29, 0.0000021240596, 9.998414, 9.999881 
1.749951e+2, 2.946671e+2, -216268.0, -109409.836, -26518.215, -0.009564758, 0.072537385, -103190.93, -50938.02, 0.000013429294, 9.998706, 10.000171 
1.7499188e+2, 3.0466354e+2, -123621.84, -117172.15, -80693.93, -0.18061145, -0.27272937, -39638.652, -39638.652, 0.000050919698, 9.999361, 9.999479 
1.7499174e+2, 3.1466526e+2, -42153.652, -44745.438, 73334.805, -0.021081908, -0.05679545, 29896.705, 29896.705, 0.00014908816, 9.999714, 9.999798 
1.8502809e+2, 1.2467929e+2, -1625192.3, -1809986.1, -74939.31, -0.021252964, -0.19057997, -1598622.4, 119502.64, 0.0014297328, 10.001095, 9.998786 
1.8502785e+2, 1.3467762e+2, -1392075.6, -1633707.8, 23277.762, 0.03126251, -0.28999123, -1389853.6, 230290.84, 0.00082590414, 10.002049, 9.998861 
1.8502687e+2, 1.4467861e+2, -1268949.8, -1520634.8, -12169.34, 0.10678323, -0.074799664, -1268362.8, 253772.95, 0.00034715154, 10.002184, 9.998896 
1.8502411e+2, 1.5467687e+2, -1266235.1, -1488007.5, -29403.24, 0.10480308, -0.17245857, -1262403.0, 161748.56, 0.0000844504, 10.001617, 9.998725 
1.8502086e+2, 1.6467585e+2, -1172595.5, -1300337.0, -15722.803, 0.057801012, -0.18059184, -1170688.8, 155471.56, 0.000006352812, 10.0012245, 9.9995165 
1.8501702e+2, 1.7467521e+2, -1083897.8, -1214329.5, -34227.477, -0.044042308, -0.23354746, -1075461.5, 152703.28, 0.000000056960435, 10.001182, 9.999458 
1.8501465e+2, 1.8467498e+2, -1049599.4, -1216455.9, -3073.8552, -0.012626165, -0.16848746, -1049542.8, 80625.58, 0.0, 10.001042, 9.998842 
1.8501395e+2, 1.9467498e+2, -1009118.25, -1155142.6, -17672.232, 0.1627008, -0.085625626, -1007009.94, 25162.098, 0.0, 10.000685, 9.998766 
1.8501131e+2, 2.0467424e+2, -888214.06, -1038700.7, 8464.033, 0.13137686, -0.03360721, -887739.5, 46441.77, 0.0, 10.000799, 9.998839 
1.8500634e+2, 2.1467239e+2, -704863.5, -907146.1, -282.40845, -0.14501639, -0.14041677, -704863.1, 131335.94, 0.0, 10.001415, 9.998774 
1.8500401e+2, 2.2467133e+2, -598285.94, -782851.56, 32422.041, -0.18709128, -0.12705392, -592756.2, 145454.1, 0.0, 10.001383, 9.998972 
1.8500465e+2, 2.3467098e+2, -618852.25, -751023.94, 40.4986, 0.039918706, -0.09672176, -618852.2, 21364.115, 0.0, 10.000602, 9.998895 
1.8500382e+2, 2.4467047e+2, -574068.56, -629925.25, 11460.621, 0.11307408, -0.050049793, -571808.5, -29587.186, 0.0, 10.0000305, 9.999324 
1.8500134e+2, 2.546696e+2, -531538.7, -565666.4, -4953.0146, 0.01888245, -0.10802448, -530834.44, -86607.35, 0.0, 9.999667, 9.99927 
1.849991e+2, 2.6466838e+2, -511565.06, -600981.94, -16475.604, -0.006759143, -0.11137728, -508625.94, -162386.25, 0.0, 9.999576, 9.998387 
1.8499702e+2, 2.7466634e+2, -361651.72, -492830.25, 2151.825, 0.056300584, -0.18515582, -361616.44, -113353.25, 0.000000044067633, 9.999983, 9.99827 
1.8499546e+2, 2.8466594e+2, -162829.94, -200567.55, 92268.77, 0.062371686, -0.10734658, -87520.41, 62747.152, 0.000002141611, 10.000031, 9.999584 
1.8499437e+2, 2.9466745e+2, -114568.75, -98252.81, 24141.086, 0.014436783, 0.03162571, -80928.55, -28678.348, 0.000012353572, 9.999552, 9.999847 
1.8499035e+2, 3.0466476e+2, -117736.46, -87419.74, -15129.761, -0.2540192, -0.22037125, -81161.16, -81161.16, 0.00004451732, 9.999272, 9.999729 
1.849916e+2, 3.146655e+2, -147147.55, -140893.2, 78956.13, 0.037858944, -0.124941126, -65002.336, -65002.336, 0.00012893318, 9.999121, 9.999458 
1.9502969e+2, 1.2468074e+2, -1560812.9, -1651296.6, -97887.12, -0.053541247, -0.14652218, -1498218.3, 219897.75, 0.0013506947, 10.001006, 9.999915 
1.950306e+2, 1.3468017e+2, -1357446.9, -1543053.4, 68094.64, 0.0651362, -0.19905885, -1335144.4, 284976.78, 0.00077082973, 10.001991, 9.999507 
1.950296e+2, 1.4468116e+2, -1271203.0, -1505179.9, -51627.93, 0.115631185, -0.023588078, -1260317.5, 261792.95, 0.0003170448, 10.002094, 9.999045 
1.9502504e+2, 1.5467818e+2, -1265644.5, -1471870.8, -37405.195, -0.0033992154, -0.26102564, -1259069.6, 165068.58, 0.000073711046, 10.001559, 9.99886 
1.9502118e+2, 1.646771e+2, -1184447.5, -1314477.9, -31863.451, -0.06909605, -0.2766204, -1177059.3, 149088.22, 0.0000047225935, 10.0011635, 9.999459 
1.950184e+2, 1.7467771e+2, -1096762.5, -1225130.1, -17326.133, -0.060055424, -0.20073746, -1094465.0, 133675.3, 0.0000000036456946, 10.001109, 9.999424 
1.9501618e+2, 1.8467721e+2, -1062002.4, -1219077.6, -32048.979, 0.0028650644, -0.16020754, -1055714.9, 74430.61, 0.0, 10.000937, 9.99888 
1.950144e+2, 1.9467534e+2, -1024170.94, -1160531.1, -15337.933, 0.10704587, -0.26942122, -1022467.0, 9698.353, 0.0, 10.000569, 9.99879 
1.9501154e+2, 2.0467441e+2, -902764.56, -1027265.06, 17747.584, 0.0441958, -0.24397941, -900284.06, 33890.934, 0.0, 10.000627, 9.998997 
1.9500741e+2, 2.146742e+2, -717796.25, -893909.8, 38141.68, -0.21042606, -0.20114289, -709890.56, 126286.07, 0.0, 10.001245, 9.998945 
1.9500507e+2, 2.2467352e+2, -655607.9, -859384.44, -12209.043, -0.24497497, -0.13752064, -654879.0, 83305.82, 0.0, 10.00121, 9.998526 
1.9500479e+2, 2.346721e+2, -678562.56, -828490.2, -15061.5205, -0.036985427, -0.16588701, -677064.5, -36862.145, 0.0, 10.000413, 9.998449 
1.9500354e+2, 2.4467134e+2, -596392.56, -644988.94, -17142.754, 0.052285794, -0.12123566, -590954.0, -48742.297, 0.0, 9.999898, 9.999286 
1.950011e+2, 2.5467113e+2, -559374.3, -581802.7, -3197.1565, -0.005242954, -0.1130488, -558927.44, -114713.9, 0.0, 9.999493, 9.999243 
1.9499867e+2, 2.6467094e+2, -453690.44, -468845.1, -16741.69, -0.04029594, -0.056157246, -442891.16, -96675.69, 0.0, 9.999515, 9.999332 
1.9499637e+2, 2.7467024e+2, -309072.66, -365532.22, 37492.453, -0.043823697, -0.08932973, -290370.5, -42148.434, 0.000000036761158, 9.999892, 9.999199 
1.9499502e+2, 2.8466907e+2, -251208.36, -367824.63, 63365.098, -0.018823735, -0.0841047, -223406.23, -73172.27, 0.0000018181237, 9.999966, 9.998465 
1.9499438e+2, 2.946678e+2, -223266.86, -284611.03, 25638.59, 0.015956497, -0.10047453, -213962.53, -161715.89, 0.000010151812, 9.999393, 9.998639 
1.9498937e+2, 3.0466688e+2, -102035.76, -37413.91, -32092.607, -0.31361368, -0.13416548, -24184.4, -24184.4, 0.00003534469, 9.999214, 10.000091 
1.9499053e+2, 3.1466824e+2, -197509.72, -199471.14, 84031.38, -0.05302256, -0.021900486, -114453.33, -114453.33, 0.000103030594, 9.99896, 9.999112 
2.050322e+2, 1.2468292e+2, -1439356.4, -1580435.0, 2902.425, 0.07441417, -0.11680677, -1439296.8, 278799.4, 0.0012481128, 10.001799, 10.000028 
2.0503221e+2, 1.3468228e+2, -1503938.6, -1650772.4, 44714.598, 0.086548306, -0.14322506, -1491393.8, 128709.25, 0.0007037624, 10.00113, 9.999204 
2.050313e+2, 1.4468297e+2, -1457501.9, -1532376.3, -70971.34, 0.1651872, -0.0065245507, -1414699.0, 107396.555, 0.00028324383, 10.000557, 9.999603 
2.050265e+2, 1.5468091e+2, -1387146.9, -1465991.1, -67582.43, 0.054629132, -0.20594546, -1348329.1, 75784.41, 0.000063005726, 10.000455, 9.999434 
2.0502259e+2, 1.646801e+2, -1283327.6, -1392907.6, -4813.79, -0.0070760017, -0.21199259, -1283116.6, 43003.652, 0.0000035155435, 10.000611, 9.999193 
2.050199e+2, 1.7468019e+2, -1149248.4, -1289076.9, -42272.105, -0.00023621427, -0.15467894, -1137462.4, 90657.07, 0.0000000004928599, 10.000902, 9.999097 
2.0501737e+2, 1.8467943e+2, -1053727.6, -1196374.5, -45806.082, 0.039837033, -0.13140701, -1040285.4, 89841.42, 0.0, 10.000907, 9.999045 
2.0501485e+2, 1.9467762e+2, -1004778.3, -1132326.8, -50593.54, 0.103505455, -0.25290552, -987147.06, 44997.29, 0.0, 10.00061, 9.998958 
2.0501202e+2, 2.0467676e+2, -928379.9, -1019085.5, 41601.29, 0.052961674, -0.24158685, -912189.6, 21962.361, 0.0, 10.000358, 9.999186 
2.0500895e+2, 2.1467662e+2, -878158.06, -949667.75, 37530.844, -0.111487366, -0.20967916, -862076.9, -25925.463, 0.0, 10.000054, 9.999137 
2.0500652e+2, 2.2467592e+2, -820858.9, -949940.7, 20664.39, -0.15833026, -0.15269122, -817631.44, -79472.46, 0.0, 10.000114, 9.998426 
2.0500489e+2, 2.3467435e+2, -663970.6, -836452.5, 13771.797, -0.06773286, -0.187941, -662877.94, -22699.645, 0.0, 10.000564, 9.998323 
2.050031e+2, 2.4467352e+2, -532170.0, -625453.9, 32805.78, 0.0023666066, -0.13820426, -521788.38, 20400.527, 0.0, 10.0004015, 9.999168 
2.050011e+2, 2.5467336e+2, -554073.0, -590994.1, 6862.9297, 0.049144357, -0.10979403, -552838.56, -108647.14, 0.0, 9.999599, 9.999118 
2.0499878e+2, 2.6467335e+2, -466017.06, -463546.78, 25794.115, 0.035559203, -0.034955975, -438958.25, -92766.16, 0.0, 9.999376, 9.999437 
2.0499627e+2, 2.746729e+2, -318440.2, -354180.2, -17223.826, -0.024535459, -0.059678502, -311490.9, -63295.004, 0.00000002096579, 9.999764, 9.999333 
2.0499484e+2, 2.846715e+2, -294597.84, -416132.97, 16140.811, -0.012905024, -0.06883664, -292490.75, -142280.98, 0.0000012828043, 9.999792, 9.99822 
2.0499413e+2, 2.9466975e+2, -223638.78, -314925.25, 19244.729, 0.059818614, -0.110105686, -219747.55, -167519.53, 0.000007381431, 9.999514, 9.998381 
2.0498864e+2, 3.046694e+2, -70450.28, 4239.4287, 33714.945, -0.29791096, -0.080464154, 17206.955, 17206.955, 0.00002618385, 9.999318, 10.0003395 
2.0498994e+2, 3.1467032e+2, -208304.02, -195553.66, 25927.197, 0.012984259, -0.041408964, -175229.34, -175229.34, 0.000078949044, 9.998878, 9.999173 
2.1503441e+2, 1.2468579e+2, -1512197.1, -1716583.0, -79972.49, 0.039722115, -0.09861202, -1484625.0, 233440.95, 0.0011286415, 10.001723, 9.999134 
2.1503228e+2, 1.3468401e+2, -1580029.5, -1819858.3, 33305.168, -0.05730971, -0.12238418, -1575490.3, 44599.098, 0.00062779407, 10.001168, 9.998027 
2.150315e+2, 1.4468423e+2, -1407630.1, -1417771.5, -94793.14, 0.08499594, -0.012147978, -1317772.1, 204316.92, 0.00024660726, 10.000504, 10.000413 
2.1502809e+2, 1.5468518e+2, -1322328.6, -1334893.8, -53998.586, 0.1262433, -0.002615213, -1274248.4, 149828.13, 0.000052325075, 10.000461, 10.000332 
2.1502456e+2, 1.6468482e+2, -1334197.9, -1479204.0, -9735.879, 0.09610938, 0.016275838, -1333547.1, -7468.0522, 0.000002586899, 10.000528, 9.998637 
2.1502104e+2, 1.7468256e+2, -1203513.3, -1379207.1, -13705.53, -0.012164502, -0.105655625, -1202450.5, 25652.068, 0.000000000052014764, 10.000812, 9.998514 
2.1501775e+2, 1.846816e+2, -1053283.4, -1167525.0, -69807.45, -0.047150977, -0.0861161, -1020205.1, 109907.38, 0.0, 10.000779, 9.999307 
2.1501485e+2, 1.9468181e+2, -992739.4, -1090152.6, -44214.098, 0.0033695041, -0.03899276, -975664.4, 56445.344, 0.0, 10.000528, 9.999289 
2.1501237e+2, 2.0468123e+2, -927926.3, -989078.25, 15060.742, 0.020956317, -0.027233988, -924418.3, 9694.384, 0.0, 10.000233, 9.999451 
2.1501046e+2, 2.1467952e+2, -881672.94, -920405.94, 39157.234, 0.001534072, -0.18063249, -857354.75, -21230.262, 0.0, 9.999895, 9.999412 
2.1500787e+2, 2.2467843e+2, -832402.1, -926840.25, 21634.402, -0.0640904, -0.19096625, -827681.94, -89547.945, 0.0, 9.999921, 9.998673 
2.1500447e+2, 2.3467776e+2, -676021.9, -811851.44, 47685.902, -0.19596767, -0.16021371, -660952.56, -20809.213, 0.0, 10.000357, 9.998586 
2.1500209e+2, 2.4467713e+2, -567481.7, -674283.56, -11515.682, -0.16940698, -0.090938434, -566254.1, -24102.34, 0.0, 10.000293, 9.998887 
2.1500087e+2, 2.5467637e+2, -595713.44, -641486.2, -7220.311, 0.03187236, -0.091289, -594601.5, -150441.05, 0.0, 9.999446, 9.998846 
2.1499896e+2, 2.6467556e+2, -531233.1, -577342.8, 22696.92, 0.08415141, -0.04359635, -521935.6, -175765.78, 0.0, 9.999283, 9.998696 
2.1499628e+2, 2.7467415e+2, -395298.4, -478124.2, 13459.323, -0.035876825, -0.09519987, -393166.13, -144980.27, 0.00000000626477, 9.99961, 9.998554 
2.1499448e+2, 2.8467312e+2, -248906.55, -307447.72, -10404.736, -0.06391575, -0.06254781, -247112.28, -96916.03, 0.00000075455597, 9.999738, 9.99899 
2.1499336e+2, 2.9467326e+2, -188488.14, -217600.64, 25832.316, -0.010367016, 0.0076668044, -173393.2, -121199.26, 0.0000049684672, 9.9994135, 9.999096 
2.1498789e+2, 3.0467242e+2, -73058.67, -1403.2767, 7875.8506, -0.336988, -0.046219926, -547.832, -547.832, 0.000019575336, 9.999311, 10.000309 
2.1498908e+2, 3.1467158e+2, -213950.11, -180525.45, 3442.9512, -0.034926265, -0.1826251, -180174.48, -180174.48, 0.00006230811, 9.998762, 9.999338 
2.2503679e+2, 1.2468795e+2, -1514835.9, -1698407.5, -108698.11, 0.12956554, -0.079166345, -1464354.6, 253692.17, 0.0009987325, 10.001598, 9.999318 
2.2503293e+2, 1.3468632e+2, -1613258.6, -1808859.9, 29566.488, -0.078202166, -0.11545012, -1608887.1, 11180.051, 0.0005469882, 10.000835, 9.998249 
2.2503217e+2, 1.4468615e+2, -1405414.8, -1422496.0, 46.334396, 0.10773858, -0.054637447, -1405414.5, 116656.26, 0.00020906689, 10.000542, 10.000373 
2.2502913e+2, 1.5468787e+2, -1246906.5, -1306144.0, -60148.285, 0.16562815, 0.03940729, -1209479.8, 214572.92, 0.000042237294, 10.001012, 10.000271 
2.2502583e+2, 1.6468784e+2, -1226925.0, -1388832.1, 4147.15, 0.14885691, 0.078989625, -1226818.9, 99233.4, 0.0000020119714, 10.001111, 9.998961 
2.2502227e+2, 1.7468537e+2, -1188211.1, -1335098.6, 31272.832, 0.041730106, -0.09751671, -1181830.3, 46245.94, 0.0, 10.0007715, 9.998821 
2.2501881e+2, 1.8468443e+2, -1080024.4, -1189352.1, 22089.174, -0.0036140159, -0.08837591, -1075730.1, 54355.62, 0.0, 10.000631, 9.999234 
2.2501554e+2, 1.9468503e+2, -996317.44, -1100977.3, -15609.461, 0.02524056, 0.0076734796, -994039.0, 38041.477, 0.0, 10.000558, 9.999205 
2.2501309e+2, 2.0468444e+2, -883156.8, -979304.7, 43777.004, 0.059572104, 0.02798924, -866211.3, 67872.81, 0.0, 10.000582, 9.999365 
2.2501163e+2, 2.1468216e+2, -786356.06, -888713.5, 14327.703, 0.10195627, -0.16824551, -784388.3, 51712.64, 0.0, 10.000597, 9.999307 
2.2500889e+2, 2.2468098e+2, -745965.2, -849460.7, 18659.105, 0.032778554, -0.19829279, -742703.94, -4593.665, 0.0, 10.000345, 9.999008 
2.2500478e+2, 2.3468074e+2, -742772.1, -804813.5, 18778.451, -0.16026765, -0.15973951, -737531.06, -97417.66, 0.0, 9.999727, 9.99894 
2.2500214e+2, 2.4468006e+2, -663986.25, -759967.5, -5639.7695, -0.16032328, -0.0954971, -663656.0, -121534.75, 0.0, 9.99979, 9.998544 
2.2500111e+2, 2.5467867e+2, -442888.94, -615306.44, -39047.605, 0.06002202, -0.12586223, -434458.03, 9678.701, 0.0, 10.000672, 9.998447 
2.2499907e+2, 2.6467744e+2, -351482.97, -515076.0, 27352.688, 0.10750477, -0.09086027, -347030.75, -879.92957, 0.0, 10.0006275, 9.998471 
2.2499599e+2, 2.7467597e+2, -399574.72, -502794.16, 27022.932, -0.020575676, -0.123996764, -392928.1, -144760.63, 0.00000000006385136, 9.999676, 9.998348 
2.2499406e+2, 2.8467527e+2, -322258.4, -313086.47, 40676.098, -0.03651292, -0.06481581, -276738.63, -126563.79, 0.00000032397858, 9.999104, 9.999254 
2.2499305e+2, 2.9467592e+2, -248624.78, -220187.31, 2173.6309, 0.05596178, 0.02639237, -220022.13, -167854.98, 0.000003287384, 9.9988985, 9.999315 
2.2498783e+2, 3.0467406e+2, -140266.48, -63377.793, 2931.3647, -0.24231973, -0.12046797, -63266.2, -63266.2, 0.00001601569, 9.998981, 10.000032 
2.2498828e+2, 3.14674e+2, -164238.3, -172677.55, -116010.195, 0.008118517, -0.1648635, -52371.02, -52371.02, 0.000054019332, 9.999157, 9.999199 
2.350386e+2, 1.2468938e+2, -1439282.3, -1532394.5, -172908.34, 0.06787378, -0.075193, -1306772.0, 411267.22, 0.0008678289, 10.001567, 10.000477 
2.3503365e+2, 1.346891e+2, -1501813.8, -1587164.4, 4480.884, -0.12751973, -0.11727371, -1501579.1, 118458.62, 0.00046623294, 10.00086, 9.999769 
2.3503265e+2, 1.4468852e+2, -1479150.6, -1541993.0, -2845.0085, 0.06529921, -0.14026135, -1479022.1, 43020.72, 0.00017258529, 10.00041, 9.999616 
2.3502915e+2, 1.5468892e+2, -1315685.5, -1437527.9, -23347.928, 0.027933901, -0.08639099, -1311364.8, 112677.65, 0.000033446406, 10.000968, 9.9993925 
2.3502594e+2, 1.6468905e+2, -1166498.8, -1239929.5, -24486.865, 0.011331233, -0.03479371, -1159082.3, 166958.39, 0.0000017722703, 10.001012, 10.000034 
2.3502328e+2, 1.7468844e+2, -1112045.3, -1165162.5, 33768.324, 0.02515336, -0.14291018, -1095642.8, 132399.42, 0.0000000001389195, 10.000714, 10.000022 
2.350201e+2, 1.8468787e+2, -1133336.4, -1268277.5, 3237.6125, 0.030384652, -0.13608214, -1133258.8, -3211.6792, 0.0, 10.000502, 9.998755 
2.3501636e+2, 1.9468716e+2, -1047938.7, -1187650.3, -5302.805, 0.020575, -0.11291655, -1047737.7, -15680.257, 0.0, 10.000466, 9.998655 
2.3501359e+2, 2.0468621e+2, -938949.75, -1050367.0, 29205.133, 0.026461432, -0.083153546, -931758.5, 2309.0762, 0.0, 10.000396, 9.998961 
2.3501195e+2, 2.1468453e+2, -840983.25, -958071.06, 33177.35, 0.044083517, -0.18345207, -832235.8, 3845.4248, 0.0, 10.000408, 9.99892 
2.3500922e+2, 2.2468361e+2, -747813.9, -809077.2, -15834.415, 0.0014760968, -0.18387212, -743963.3, -5875.6177, 0.0, 10.000161, 9.999374 
2.3500533e+2, 2.346833e+2, -738489.4, -759875.5, 12352.014, -0.110485844, -0.18610224, -732844.94, -92756.78, 0.0, 9.999571, 9.999328 
2.3500265e+2, 2.4468227e+2, -708012.6, -826845.75, 10742.305, -0.12147078, -0.15917186, -707049.3, -164951.16, 0.0, 9.99968, 9.99814 
2.3500128e+2, 2.546802e+2, -496338.22, -687005.44, 9842.748, -0.025578395, -0.21673404, -495831.47, -51710.51, 0.0, 10.000502, 9.998037 
2.3499867e+2, 2.6467896e+2, -345201.72, -478697.03, -22200.623, -0.028118988, -0.17161724, -341606.53, 4527.7656, 0.0, 10.000531, 9.998769 
2.3499495e+2, 2.7467838e+2, -396599.28, -464815.22, 9714.438, -0.12763071, -0.14468774, -395242.84, -147102.25, 0.0, 9.999537, 9.99868 
2.3499307e+2, 2.8467798e+2, -345571.06, -347369.6, 18377.598, -0.08258131, -0.065854706, -328070.75, -177926.0, 0.00000009734078, 9.999043, 9.999048 
2.3499271e+2, 2.9467764e+2, -286653.06, -272845.78, 12980.352, 0.08342432, -0.04603077, -265047.38, -212899.95, 0.0000024854203, 9.998775, 9.999022 
2.3498793e+2, 3.0467442e+2, -167658.52, -111062.1, 980.9838, -0.16529126, -0.29829875, -111045.1, -111045.1, 0.000014818684, 9.998947, 9.999722 
2.3498675e+2, 3.146781e+2, -202268.36, -229452.98, -100464.29, -0.13761507, 0.06466633, -114481.07, -114481.07, 0.00005156838, 9.999053, 9.998866 
2.4504134e+2, 1.2469283e+2, -1398112.9, -1505137.0, 1062.993, 0.18900993, -0.056282774, -1398102.3, 319905.78, 0.00074233726, 10.001854, 10.000514 
2.4503477e+2, 1.3469306e+2, -1487431.3, -1545095.5, 7016.263, -0.085065, -0.076868474, -1486589.9, 133409.16, 0.00038816038, 10.000832, 10.000068 
2.4503352e+2, 1.4469208e+2, -1502054.6, -1587027.5, 61653.598, 0.1251943, -0.14160602, -1469666.1, 52340.984, 0.00013769997, 10.000384, 9.999314 
2.4503005e+2, 1.546915e+2, -1362673.9, -1496408.8, 47159.09, 0.042266753, -0.1581471, -1347716.9, 76300.05, 0.000025817635, 10.0008135, 9.99905 
2.4502683e+2, 1.6469158e+2, -1177144.0, -1216474.3, 38645.105, 0.019841647, -0.10476223, -1153448.4, 172567.8, 0.0000016011192, 10.000798, 10.0003195 
2.4502431e+2, 1.746921e+2, -1177036.0, -1160857.9, 1396.3354, 0.098727174, -0.12988566, -1160738.3, 67268.45, 0.0000000006420841, 10.000111, 10.000356 
2.4502118e+2, 1.8469183e+2, -1172283.4, -1298836.5, 19778.977, 0.10839025, -0.10272591, -1169264.1, -39255.69, 0.0, 10.000296, 9.998636 
2.4501735e+2, 1.9469048e+2, -926882.5, -1144598.5, 14106.229, 0.036609888, -0.13369168, -925972.4, 106052.89, 0.0, 10.001376, 9.998501 
2.4501419e+2, 2.0468938e+2, -801074.1, -1015484.7, 57040.117, 0.0028747919, -0.09352015, -786844.0, 147193.94, 0.0, 10.001483, 9.998669 
2.4501206e+2, 2.1468833e+2, -874527.56, -1005148.75, 32329.613, 0.029403416, -0.10392611, -866963.8, -30915.115, 0.0, 10.000325, 9.998626 
2.4500936e+2, 2.2468746e+2, -781483.5, -824840.1, 19235.975, 0.020186266, -0.08246671, -774179.56, -36124.35, 0.0, 9.999937, 9.999371 
2.4500613e+2, 2.3468663e+2, -616825.7, -697127.6, -6298.264, -0.02066655, -0.14038028, -616334.7, 23724.336, 0.0, 10.000404, 9.9993515 
2.450035e+2, 2.446854e+2, -583182.75, -751715.75, 40394.527, -0.0357817, -0.14171872, -574001.06, -31931.732, 0.0, 10.000467, 9.998286 
2.4500154e+2, 2.5468346e+2, -552739.44, -695626.2, 52865.5, -0.0158254, -0.19722944, -535306.94, -91217.88, 0.0, 10.00004, 9.998204 
2.4499866e+2, 2.6468205e+2, -442369.9, -530606.56, 36884.55, -0.041072167, -0.1765679, -428982.6, -82879.64, 0.0, 9.999868, 9.998741 
2.44995e+2, 2.7468112e+2, -330288.47, -433219.4, 10016.851, -0.08904086, -0.1863471, -329322.72, -81210.64, 0.0, 9.999994, 9.998679 
2.4499276e+2, 2.8468072e+2, -265839.25, -311422.97, 43026.707, -0.03480155, -0.10345738, -239940.6, -89824.875, 0.00000009803459, 9.999594, 9.999041 
2.4499151e+2, 2.9468057e+2, -307613.8, -279966.06, 22381.492, 0.10657781, -0.067715116, -267483.47, -215366.33, 0.0000023443192, 9.998614, 9.999053 
2.4498716e+2, 3.0467734e+2, -233646.28, -121560.99, 113656.24, -0.095079325, -0.33026883, -50881.426, -50881.426, 0.000014153015, 9.998407, 9.999912 
2.4498643e+2, 3.146817e+2, -229833.66, -196761.02, -34732.07, -0.03926212, 0.08385815, -174829.61, -174829.61, 0.00004937861, 9.998708, 9.999243 
2.5504392e+2, 1.2469834e+2, -1486386.0, -1673745.6, -54671.98, 0.18473871, -0.02239552, -1471599.6, 246353.48, 0.00062344765, 10.00179, 9.999391 
2.550359e+2, 1.3469803e+2, -1539603.4, -1653367.3, -20815.703, -0.08880303, -0.014236093, -1535914.3, 84038.4, 0.0003143659, 10.000834, 9.999324 
2.550345e+2, 1.4469668e+2, -1508667.9, -1579603.6, 55330.6, 0.13950004, -0.08015725, -1478413.3, 43551.277, 0.00010539114, 10.000299, 9.9994 
2.5503123e+2, 1.5469544e+2, -1360454.6, -1477399.5, 78468.42, 0.0398695, -0.17980975, -1321068.4, 102909.555, 0.000019009012, 10.000757, 9.999202 
2.5502798e+2, 1.6469537e+2, -1223419.8, -1286917.8, -2866.7563, 0.02445481, -0.13080817, -1223290.6, 102688.484, 0.0000013062046, 10.000691, 9.999886 
2.550249e+2, 1.7469642e+2, -1218985.9, -1232690.0, -5780.698, 0.11262788, -0.054051425, -1216873.3, 11095.535, 0.000000000635992, 10.00005, 9.999888 
2.550216e+2, 1.8469639e+2, -1171059.3, -1272010.0, 45687.344, 0.08576731, 0.011157912, -1153453.1, -23484.012, 0.0, 10.000186, 9.998875 
2.55018e+2, 1.9469482e+2, -920012.7, -1108795.1, 72115.1, -0.0739236, -0.07232228, -895617.1, 136367.81, 0.0, 10.001277, 9.998795 
2.550146e+2, 2.0469388e+2, -849139.44, -1071673.3, 3112.086, -0.13669395, -0.018033884, -849095.94, 84900.195, 0.0, 10.001299, 9.998371 
2.5501153e+2, 2.1469343e+2, -918042.7, -1059470.8, 3445.9226, -0.088219024, 0.062629424, -917958.75, -81954.32, 0.0, 10.000171, 9.998326 
2.5500888e+2, 2.2469245e+2, -827226.2, -882902.9, 18847.0, -0.05360159, 0.10299636, -821446.4, -83432.49, 0.0, 9.999778, 9.999049 
2.5500664e+2, 2.3469059e+2, -664324.4, -755688.56, 27393.973, -0.039211966, -0.027408019, -656740.3, -16713.197, 0.0, 10.00023, 9.999034 
2.550043e+2, 2.4468933e+2, -554136.94, -659942.0, 9184.039, -0.036178, -0.04964558, -553345.6, -11309.789, 0.0, 10.000339, 9.998975 
2.550015e+2, 2.5468838e+2, -528366.3, -605593.44, 49850.2, -0.05808821, -0.07649907, -503923.97, -59881.418, 0.0, 9.999871, 9.998903 
2.5499853e+2, 2.6468667e+2, -482454.63, -584568.56, 24483.188, -0.073555015, -0.106708504, -476887.94, -130830.305, 0.0, 9.999753, 9.998421 
2.5499564e+2, 2.7468395e+2, -375370.3, -493970.9, 30233.111, -0.06048905, -0.2570529, -368108.1, -120024.31, 0.0, 9.999851, 9.998332 
2.549927e+2, 2.8468338e+2, -264598.38, -286409.7, -9576.275, -0.03405899, -0.18579145, -260990.64, -110901.41, 0.00000013920514, 9.999507, 9.999248 
2.5498894e+2, 2.946846e+2, -317057.4, -254128.3, 1612.5726, -0.051976807, -0.036097057, -254087.0, -202010.02, 0.0000022917138, 9.998431, 9.999313 
2.5498506e+2, 3.0468267e+2, -194175.94, -24634.596, 114339.88, -0.17815761, -0.2191827, 32931.223, 32931.223, 0.0000129202135, 9.998343, 10.000604 
2.5498626e+2, 3.1468418e+2, -188492.75, -87751.52, 18835.992, -0.0006774594, -0.1560892, -84344.88, -84344.88, 0.000045825393, 9.998607, 10.000041 
2.6504558e+2, 1.247033e+2, -1710104.9, -1843159.6, 13473.813, 0.25551835, -0.015123639, -1708754.1, 9149.607, 0.00051409315, 10.000462, 9.998883 
2.650379e+2, 1.3470241e+2, -1355991.3, -1618711.6, -18547.727, -0.02832867, -0.028676443, -1354688.3, 265223.28, 0.0002486299, 10.002276, 9.998885 
2.6503634e+2, 1.4470145e+2, -1228474.4, -1420418.0, 78370.664, 0.2125141, -0.04446261, -1200540.8, 321379.4, 0.00007773356, 10.002126, 9.999613 
2.6503208e+2, 1.5470055e+2, -1399625.1, -1475899.4, 70546.836, 0.07771676, -0.1300219, -1357566.9, 66361.34, 0.000013419433, 10.0003805, 9.999407 
2.6502854e+2, 1.6470037e+2, -1332306.4, -1388468.6, 65931.164, 0.047476612, -0.08142851, -1288725.3, 37205.285, 0.0000010267595, 10.000162, 9.9994335 
2.6502582e+2, 1.7470089e+2, -1030041.56, -1194820.4, 29145.83, 0.13130839, -0.014756982, -1025038.25, 202889.47, 0.0000000012219834, 10.001576, 9.999402 
2.6502264e+2, 1.8470055e+2, -920905.9, -1136265.6, 91108.64, 0.09971504, 0.03700326, -887533.5, 242397.75, 0.0, 10.001842, 9.999013 
2.6501906e+2, 1.9469899e+2, -999292.44, -1129688.3, 71572.54, -0.052368894, -0.055940293, -967674.0, 64270.656, 0.0, 10.000661, 9.998954 
2.6501557e+2, 2.0469804e+2, -983398.75, -1139098.1, 31273.62, -0.11325336, -0.010772631, -977352.0, -43396.926, 0.0, 10.000378, 9.998362 
2.650122e+2, 2.1469755e+2, -807660.7, -1010307.5, 23357.84, -0.06888424, 0.070508815, -805003.25, 30960.922, 0.0, 10.000943, 9.9983 
2.6500943e+2, 2.2469641e+2, -676616.1, -840101.5, 89465.96, -0.023430446, 0.109710164, -637172.94, 100802.92, 0.0, 10.000922, 9.9988 
2.6500744e+2, 2.3469433e+2, -689348.0, -800971.6, 66647.8, 0.028282944, -0.016889509, -658229.44, -18237.012, 0.0, 10.000183, 9.998755 
2.6500487e+2, 2.4469307e+2, -638956.44, -690445.56, 53818.02, 0.03261914, -0.026735568, -605042.3, -63040.625, 0.0, 9.999727, 9.999054 
2.6500154e+2, 2.5469247e+2, -554378.6, -604259.75, 19572.59, -0.019628212, -0.02956161, -547615.56, -103610.62, 0.0, 9.999647, 9.999012 
2.6499844e+2, 2.6469085e+2, -500898.22, -575396.4, 29559.809, -0.037075587, -0.062312692, -490594.44, -144575.78, 0.0, 9.999543, 9.998589 
2.6499602e+2, 2.7468815e+2, -423820.7, -491944.78, 40677.113, 0.024969352, -0.22906832, -404827.56, -156783.5, 0.0, 9.999426, 9.998545 
2.649928e+2, 2.8468743e+2, -295030.03, -311503.9, 23427.705, 0.04499446, -0.17707784, -278433.44, -128383.3, 0.00000017298198, 9.999334, 9.999156 
2.649879e+2, 2.9468828e+2, -193612.77, -201473.98, -20040.623, -0.033348497, -0.057557892, -177120.94, -125079.35, 0.000002277503, 9.999293, 9.999265 
2.64984e+2, 3.046871e+2, -101394.805, -24131.012, 91172.3, -0.14161925, -0.14610057, 36256.34, 36256.34, 0.000011809922, 9.999147, 10.000238 
2.649852e+2, 3.146871e+2, -213980.6, -58360.16, -126066.66, 0.06719223, -0.19374084, 11975.602, 11975.602, 0.000042458643, 9.998208, 10.00045 
2.750457e+2, 1.24707595e+2, -1703694.6, -1825620.5, 64395.063, 0.13309824, -0.050969075, -1675982.9, 41878.22, 0.00042131313, 10.000434, 9.999022 
2.7503997e+2, 1.347063e+2, -1355276.0, -1619905.9, 55419.58, -0.089378946, -0.104791455, -1344138.6, 275735.84, 0.0001952308, 10.002289, 9.998869 
2.7503836e+2, 1.4470643e+2, -1215898.1, -1382115.0, -8051.366, 0.15712874, -0.024072558, -1215509.0, 306363.97, 0.000056360343, 10.002073, 9.999904 
2.750322e+2, 1.5470697e+2, -1383904.3, -1430263.0, 22963.986, 0.012826278, 0.0027764596, -1374455.0, 49411.613, 0.000009372096, 10.000332, 9.999743 
2.7502814e+2, 1.6470672e+2, -1373140.3, -1457444.6, 101110.414, -0.046939667, 0.048643455, -1305747.4, 20122.02, 0.0000008660051, 10.000093, 9.998992 
2.7502647e+2, 1.7470542e+2, -1074388.6, -1272404.8, 98556.88, -0.0022146055, -0.017097585, -1033696.75, 194187.61, 0.000000004874734, 10.001516, 9.998899 
2.7502388e+2, 1.8470418e+2, -943946.06, -1152169.6, 32900.098, 0.0037406348, -0.02562559, -938871.4, 191024.73, 0.0, 10.001707, 9.998966 
2.7502015e+2, 1.9470288e+2, -1017166.6, -1139539.1, 44421.316, -0.046960764, -0.091312855, -1002742.0, 29163.545, 0.0, 10.000549, 9.998938 
2.750167e+2, 2.0470184e+2, -986067.1, -1108941.4, 35327.992, -0.06822905, -0.06682912, -976634.0, -42719.17, 0.0, 10.000228, 9.998638 
2.750135e+2, 2.1470068e+2, -814598.5, -979383.3, 61794.117, -0.06260365, -0.08448212, -794000.5, 41927.582, 0.0, 10.000751, 9.998601 
2.7501062e+2, 2.246994e+2, -724800.75, -892126.5, 48412.465, -0.025775226, -0.0648379, -711803.2, 26138.066, 0.0, 10.000717, 9.998544 
2.7500802e+2, 2.3469771e+2, -735482.9, -855179.25, 53500.74, 0.03671759, -0.12176049, -715055.7, -75099.22, 0.0, 10.0, 9.998474 
2.7500492e+2, 2.4469653e+2, -694026.56, -773291.56, 36074.727, 0.032367323, -0.08340387, -680066.9, -138099.22, 0.0, 9.999594, 9.9985485 
2.7500117e+2, 2.5469556e+2, -612370.4, -692783.56, 33229.414, -0.0572707, -0.07124592, -600416.0, -156438.39, 0.0, 9.9995, 9.99848 
2.7499798e+2, 2.6469454e+2, -472777.75, -489235.47, 6074.896, -0.06957452, -0.05029768, -470778.3, -124791.484, 0.0, 9.999434, 9.999228 
2.7499568e+2, 2.7469346e+2, -402509.97, -410578.4, 51027.766, 0.01482138, -0.12201738, -355357.22, -107361.805, 0.00000000009324417, 9.999271, 9.999175 
2.7499264e+2, 2.8469262e+2, -328238.38, -365108.63, 4038.8699, 0.059276767, -0.09559598, -327801.13, -177799.31, 0.00000023612336, 9.999269, 9.9988165 
2.7498782e+2, 2.9469147e+2, -233056.0, -262089.66, -88.38121, -0.015697913, -0.14240137, -233055.73, -181043.1, 0.0000024951785, 9.999189, 9.998901 
2.7498347e+2, 3.0469078e+2, -202343.63, -205417.31, 50999.566, -0.14059785, -0.104750074, -152857.75, -152857.75, 0.0000116764495, 9.999061, 9.999018 
2.7498218e+2, 3.1469074e+2, -252332.33, -73333.74, -97514.914, -0.1321324, -0.025911994, -30472.611, -30472.611, 0.000040637482, 9.997961, 10.000456 
2.8504735e+2, 1.2471157e+2, -1515785.6, -1667080.1, 88990.11, 0.2238298, -0.036257863, -1474635.0, 243189.08, 0.00034670465, 10.001477, 9.999586 
2.850418e+2, 1.3471061e+2, -1581341.0, -1686899.1, 8102.522, -0.035569675, -0.08870765, -1580722.6, 39110.73, 0.00015383656, 10.000593, 9.999208 
2.850397e+2, 1.4471093e+2, -1471340.5, -1517874.1, -44644.574, 0.17917413, -0.0015330536, -1444263.6, 77566.44, 0.00004093297, 10.000375, 9.999788 
2.8503335e+2, 1.5471129e+2, -1257503.9, -1377928.5, -81585.35, 0.06543425, 0.017699458, -1216317.5, 207508.36, 0.0000066741927, 10.001232, 9.999668 
2.850292e+2, 1.6471092e+2, -1187037.3, -1368468.5, 61787.22, -0.0017186544, 0.054703332, -1167994.1, 157835.61, 0.00000074756446, 10.001374, 9.998997 
2.850275e+2, 1.7470954e+2, -1187284.4, -1331243.4, 63146.313, -0.0015380969, -0.013585016, -1163511.6, 64333.133, 0.000000006090155, 10.000748, 9.998881 
2.8502494e+2, 1.8470828e+2, -1108707.1, -1233842.4, 23176.361, 0.006698252, -0.024359453, -1104552.5, 25304.057, 0.0, 10.000588, 9.99894 
2.850214e+2, 1.9470689e+2, -969506.9, -1121341.6, 3227.6697, 0.016561106, -0.0949763, -969438.25, 62428.703, 0.0, 10.000888, 9.9988985 
2.8501785e+2, 2.0470583e+2, -891230.44, -1029212.75, 32718.95, 0.0077296672, -0.086149506, -883865.2, 50010.773, 0.0, 10.000754, 9.9989195 
2.8501424e+2, 2.147048e+2, -903794.0, -989191.56, 23440.691, -0.017284852, -0.11844502, -897782.94, -61896.5, 0.0, 10.00001, 9.998885 
2.8501108e+2, 2.2470368e+2, -841341.6, -936923.6, 55713.96, -0.00013788026, -0.09857485, -815729.44, -77832.07, 0.0, 9.999881, 9.998632 
2.8500843e+2, 2.3470235e+2, -667237.75, -808346.94, 56890.746, 0.06384089, -0.13188131, -647158.44, -7248.211, 0.0, 10.000428, 9.99858 
2.850053e+2, 2.447012e+2, -541623.25, -706497.4, 102351.984, 0.06927458, -0.09324991, -492638.06, 49283.64, 0.0, 10.000647, 9.998501 
2.8500172e+2, 2.547001e+2, -474890.16, -629242.6, 103363.25, 0.015230409, -0.09285813, -423069.75, 20863.844, 0.0, 10.000462, 9.998446 
2.8499824e+2, 2.6469934e+2, -369045.66, -452272.53, 96832.125, -0.016908707, -0.03941443, -305263.94, 40677.44, 0.0, 10.000194, 9.999122 
2.8499514e+2, 2.7469873e+2, -334247.56, -390941.44, 51834.684, 0.020501124, -0.04855547, -303515.03, -55568.387, 0.0000000018932573, 9.999769, 9.999082 
2.8499192e+2, 2.8469777e+2, -289441.53, -332933.1, 42776.164, 0.058323927, -0.038501628, -263201.06, -113246.41, 0.00000028816427, 9.999486, 9.998933 
2.8498766e+2, 2.9469606e+2, -164156.63, -206766.25, 42633.22, 0.042597044, -0.1523702, -137801.33, -85832.09, 0.0000027347362, 9.999594, 9.999073 
2.8498322e+2, 3.046954e+2, -163940.77, -226985.39, 138500.17, -0.07765131, -0.10776222, -53420.996, -53420.996, 0.000012525966, 9.999464, 9.998682 
2.8498036e+2, 3.1469548e+2, -221725.06, -53837.17, 6861.0127, -0.09634635, 0.013453688, -53557.25, -53557.25, 0.00004059471, 9.998137, 10.0005 
2.950494e+2, 1.2471549e+2, -1445984.4, -1537116.4, 32094.74, 0.18872061, 0.05366108, -1435815.9, 281974.22, 0.00028489743, 10.001524, 10.00046 
2.9504293e+2, 1.3471533e+2, -1540217.6, -1607245.0, -17045.805, -0.023036275, 0.015296717, -1536131.8, 83656.914, 0.000121053716, 10.000612, 9.999746 
2.9503992e+2, 1.4471485e+2, -1506119.6, -1587137.5, -37928.105, 0.114680886, 0.018726531, -1491135.1, 30657.229, 0.000029834508, 10.000353, 9.999329 
2.9503503e+2, 1.5471342e+2, -1297556.1, -1452958.6, -35423.863, 0.06979621, -0.09405197, -1289862.3, 133944.63, 0.000004731658, 10.001199, 9.999171 
2.950312e+2, 1.6471297e+2, -1170670.8, -1309979.8, 25271.92, 0.025515703, -0.059520762, -1166227.9, 159583.8, 0.00000054097734, 10.001284, 9.999432 
2.9502842e+2, 1.7471349e+2, -1163647.3, -1260823.3, 59073.934, -0.022006728, 0.009846217, -1135746.6, 92060.44, 0.0000000012704189, 10.000673, 9.99939 
2.9502547e+2, 1.84713e+2, -1123351.3, -1243113.0, 16476.898, -0.034341317, 0.05158682, -1121125.8, 8685.42, 0.0, 10.000489, 9.998931 
2.950223e+2, 1.9471104e+2, -987737.1, -1133635.8, 29753.756, -0.018368136, -0.07382823, -981902.6, 49926.37, 0.0, 10.000779, 9.998867 
2.9501855e+2, 2.0470999e+2, -899438.6, -1008456.9, -8787.392, -0.026814237, -0.072977535, -898734.9, 35103.594, 0.0, 10.000587, 9.999145 
2.9501387e+2, 2.1470976e+2, -914533.3, -969695.6, 13005.738, -0.08487148, -0.046019163, -911620.7, -75780.12, 0.0, 9.999826, 9.999107 
2.950104e+2, 2.2470923e+2, -839530.44, -885896.25, 58259.48, -0.088322505, -0.001371256, -800010.75, -62165.633, 0.0, 9.999683, 9.999074 
2.950082e+2, 2.3470815e+2, -664295.44, -757073.56, 93999.98, -0.03069069, -0.052965295, -605861.1, 33993.266, 0.0, 10.00024, 9.999019 
2.950058e+2, 2.4470711e+2, -527116.9, -648660.4, 78608.48, 0.017804842, -0.048467886, -488528.2, 53335.188, 0.0, 10.000525, 9.99896 
2.9500285e+2, 2.547059e+2, -465082.97, -575243.06, 110380.18, 0.040295918, -0.10168454, -396803.4, 47070.81, 0.0, 10.000314, 9.998894 
2.9499874e+2, 2.6470497e+2, -435549.44, -568536.9, 67112.85, -0.018856196, -0.04905203, -407568.06, -61683.44, 0.0, 10.000103, 9.998365 
2.9499382e+2, 2.7470407e+2, -410917.6, -514634.28, 50715.926, -0.12675564, -0.012304347, -390240.47, -142342.78, 0.0000000016821552, 9.999622, 9.998302 
2.9499012e+2, 2.8470314e+2, -256263.95, -252756.97, 30300.738, -0.10853451, 0.010716183, -224159.03, -74252.52, 0.00000022409213, 9.999432, 9.999514 
2.9498693e+2, 2.9470202e+2, -141567.42, -143776.58, 75337.57, -0.03865746, -0.09740583, -67326.336, -15414.465, 0.0000026534976, 9.999506, 9.999561 
2.9498273e+2, 3.0470076e+2, -127902.46, -130783.05, 89139.32, -0.10754216, -0.1647808, -40191.797, -40191.797, 0.00001292508, 9.999386, 9.999371 
2.9497868e+2, 3.1470102e+2, -231220.95, -45438.59, 8603.289, -0.1633993, -0.10633931, -45041.035, -45041.035, 0.000040888393, 9.998019, 10.000609 
3.0505127e+2, 1.2471894e+2, -1595149.4, -1621852.6, 131942.22, 0.28974378, 0.015188105, -1475885.0, 241870.11, 0.00023189843, 10.000566, 10.000347 
3.0504414e+2, 1.3471909e+2, -1514643.6, -1617861.1, -54113.598, 0.037679683, 0.031570267, -1491474.4, 128278.34, 0.000094942065, 10.000881, 9.999548 
3.050402e+2, 1.4471833e+2, -1440067.5, -1538909.0, -19781.469, 0.10051281, 0.011983083, -1436255.5, 85504.484, 0.000021738364, 10.000757, 9.9994545 
3.0503646e+2, 1.5471713e+2, -1380848.5, -1481085.4, -14099.968, 0.13454065, -0.08911667, -1378902.9, 44869.254, 0.0000030875526, 10.000571, 9.999279 
3.0503282e+2, 1.6471681e+2, -1273699.8, -1350347.6, 71910.43, 0.110443145, -0.053451963, -1230538.5, 95236.96, 0.0000002653173, 10.000505, 9.999537 
3.0502927e+2, 1.7471732e+2, -1184223.5, -1258992.3, 45230.42, 0.016940376, 0.0047524567, -1162927.5, 64842.71, 0.0, 10.000462, 9.999512 
3.0502605e+2, 1.847171e+2, -1121267.9, -1207121.4, 44079.55, -0.009768747, 0.049537107, -1102666.5, 27105.32, 0.0, 10.000358, 9.99924 
3.0502313e+2, 1.9471563e+2, -1066508.8, -1147695.8, 46523.41, 0.028429208, -0.052968297, -1045358.8, -13573.632, 0.0, 10.000114, 9.999105 
3.0501923e+2, 2.0471482e+2, -952526.1, -1027321.25, 41478.55, 0.012445655, -0.04371678, -934075.25, -282.46313, 0.0, 10.000189, 9.999209 
3.050142e+2, 2.1471457e+2, -797152.4, -912739.6, 16865.705, -0.06530935, -0.023167647, -794741.7, 41053.547, 0.0, 10.000614, 9.999125 
3.0501047e+2, 2.2471406e+2, -698541.7, -803176.25, 83323.6, -0.08367635, 0.015073207, -652472.4, 85326.766, 0.0, 10.000578, 9.999218 
3.0500826e+2, 2.3471303e+2, -688635.4, -754544.56, 65969.75, -0.025723191, -0.04625755, -647847.1, -8040.486, 0.0, 9.999999, 9.999163 
3.0500585e+2, 2.4471216e+2, -656703.3, -687773.25, 57354.355, 0.03147228, -0.041126125, -612817.25, -71003.6, 0.0, 9.9995775, 9.999136 
3.0500305e+2, 2.5471118e+2, -564804.3, -597537.2, 35369.395, 0.08075631, -0.088428125, -542198.3, -98375.484, 0.0, 9.999551, 9.999097 
3.0499902e+2, 2.6471037e+2, -513845.6, -605441.3, 37252.56, 0.033013117, -0.03705447, -500607.9, -154775.55, 0.0, 9.999567, 9.998367 
3.049939e+2, 2.7470943e+2, -397685.16, -506859.38, 48523.19, -0.07540745, -0.0003421666, -379236.3, -131391.05, 0.00000000014964384, 9.999719, 9.9983015 
3.049899e+2, 2.847086e+2, -247565.06, -240672.88, 66780.36, -0.061572783, 0.025812572, -177249.75, -27395.94, 0.00000013461268, 9.999479, 9.999566 
3.0498654e+2, 2.9470778e+2, -258551.63, -190204.23, 38297.95, 0.022160275, -0.060171727, -173049.83, -121192.7, 0.0000024184974, 9.998694, 9.999615 
3.0498236e+2, 3.047065e+2, -137172.44, -72187.48, 79290.77, -0.049148392, -0.15752418, -18989.889, -18989.889, 0.00001259153, 9.999026, 9.999971 
3.0497792e+2, 3.1470674e+2, 39130.88, 50520.34, -79289.984, -0.1206849, -0.1553628, 124319.836, 124319.836, 0.000039642433, 9.999993, 10.000352 
3.150523e+2, 1.2472212e+2, -1668194.1, -1767325.6, 87650.234, 0.25401646, -0.120225966, -1617065.6, 100651.38, 0.0001887222, 10.00055, 9.999351 
3.1504482e+2, 1.3472208e+2, -1591822.3, -1756990.3, -32955.387, -0.01665118, -0.029058252, -1585489.6, 34233.996, 0.00007509751, 10.000818, 9.998616 
3.1504e+2, 1.4472151e+2, -1405316.6, -1460363.5, -46565.566, -0.04716402, -0.009661569, -1378748.5, 142983.4, 0.00001598166, 10.000716, 10.000013 
3.150371e+2, 1.5472238e+2, -1343092.0, -1395961.6, -5356.001, 0.10019892, 0.031929146, -1342554.9, 81167.64, 0.00000170519, 10.000543, 9.999873 
3.1503382e+2, 1.6472237e+2, -1297570.9, -1383455.9, 46681.35, 0.122256644, 0.077219285, -1277084.6, 48637.453, 0.000000057148895, 10.00043, 9.9993515 
3.1502965e+2, 1.7472103e+2, -1207200.9, -1290560.4, 55873.883, -0.026352143, -0.027313342, -1179173.4, 48561.156, 0.0, 10.000393, 9.999329 
3.1502613e+2, 1.8472058e+2, -1099977.5, -1135381.1, 19003.137, -0.07157611, -0.022485599, -1091708.8, 38029.387, 0.0, 10.000236, 9.999792 
3.1502333e+2, 1.9472073e+2, -1040012.75, -1064049.8, 53077.332, 0.0013925108, -0.025513051, -997610.25, 34124.766, 0.0, 9.999995, 9.999734 
3.1501952e+2, 2.0472044e+2, -990041.9, -1060071.1, 40112.344, -0.0056857555, 0.011842617, -971811.56, -38074.04, 0.0, 10.000003, 9.999075 
3.1501472e+2, 2.147194e+2, -836905.0, -946478.0, 50148.53, -0.10838722, -0.031423517, -817418.75, 18329.992, 0.0, 10.000413, 9.998988 
3.1501085e+2, 2.2471836e+2, -727526.1, -826432.25, 47594.62, -0.1337556, -0.033208888, -708343.56, 29413.96, 0.0, 10.000415, 9.999143 
3.15008e+2, 2.3471713e+2, -719418.1, -777271.4, 60709.957, -0.07805413, -0.10473923, -681095.6, -41329.992, 0.0, 9.99982, 9.999099 
3.150051e+2, 2.4471632e+2, -682635.56, -721720.94, 40054.527, -0.03859453, -0.080118194, -657610.5, -115837.92, 0.0, 9.999484, 9.99895 
3.150019e+2, 2.5471586e+2, -602118.75, -636450.0, 48085.77, -0.019692704, -0.057735458, -568226.56, -124446.7, 0.0, 9.99938, 9.998915 
3.1499857e+2, 2.6471552e+2, -470597.06, -494091.2, 27064.406, -0.0025632624, 0.0106041655, -452840.3, -107056.266, 0.0, 9.999472, 9.999179 
3.14995e+2, 2.747149e+2, -356272.34, -395734.6, 70978.74, 0.024503859, -0.011404143, -302333.25, -54543.61, 0.00000000001473293, 9.9996, 9.999126 
3.1499085e+2, 2.8471398e+2, -294230.88, -321042.06, 21699.62, 0.04860559, -0.001872327, -282129.94, -132332.16, 0.000000108201135, 9.99941, 9.999043 
3.1498578e+2, 2.9471296e+2, -319420.38, -286462.53, 29581.697, 0.03126793, -0.055160813, -269079.5, -217271.48, 0.0000023186144, 9.998557, 9.9990225 
3.1498167e+2, 3.0471233e+2, -98213.53, 19421.248, 106803.61, -0.05556263, -0.091501854, 82532.1, 82532.1, 0.000012381474, 9.998979, 10.000624 
3.1497747e+2, 3.147125e+2, -3572.8325, -24697.662, -18586.412, -0.24468052, -0.16823593, 7242.763, 7242.763, 0.000038038284, 9.9999275, 9.9998665 
3.2505286e+2, 1.2472533e+2, -1717838.5, -1763908.3, -5860.968, 0.2947973, -0.093218915, -1717104.6, 585.46094, 0.0001575099, 10.000064, 9.999617 
3.250457e+2, 1.3472591e+2, -1653747.3, -1737265.1, -68646.11, 0.0402024, 0.0111479955, -1615156.4, 4533.3696, 0.00006189271, 10.000138, 9.999095 
3.2504022e+2, 1.4472565e+2, -1482615.9, -1495413.3, -976.72003, -0.054748632, 0.037180938, -1482541.8, 39152.816, 0.000012633238, 10.000166, 10.000049 
3.2503787e+2, 1.5472685e+2, -1319559.8, -1378367.4, -33296.504, 0.12818597, 0.10996389, -1304542.4, 119139.53, 0.0000008198343, 10.000668, 9.999939 
3.250347e+2, 1.6472676e+2, -1280978.5, -1362693.0, 22944.908, 0.17316024, 0.13882522, -1274976.6, 50705.254, 0.000000004124255, 10.000525, 9.999431 
3.2503012e+2, 1.7472497e+2, -1310279.6, -1337853.6, 11228.475, 0.025716063, -0.01761636, -1306285.8, -78587.35, 0.0, 9.999684, 9.999344 
3.250263e+2, 1.8472447e+2, -1206692.5, -1161033.1, 16222.037, -0.023738898, -0.026749814, -1155856.5, -26154.875, 0.0, 9.99939, 10.00002 
3.2502347e+2, 1.9472525e+2, -1079163.5, -1051701.1, -10048.512, 0.04625635, 0.008100275, -1048417.1, -16724.852, 0.0, 9.99961, 9.999994 
3.2501984e+2, 2.0472522e+2, -1004419.75, -1069877.3, 9761.222, 0.0409013, 0.0572417, -1002995.1, -69302.85, 0.0, 9.999892, 9.999067 
3.2501543e+2, 2.1472408e+2, -886594.4, -971066.56, 1177.8759, -0.05171892, 0.002757068, -886577.94, -50872.703, 0.0, 10.000066, 9.998991 
3.2501164e+2, 2.2472303e+2, -758468.94, -832025.94, 20820.094, -0.07440847, -0.006205378, -752984.75, -15270.493, 0.0, 10.000169, 9.999215 
3.250086e+2, 2.3472178e+2, -654894.94, -737556.0, 13720.268, -0.014580046, -0.08854618, -652677.1, -12955.528, 0.0, 10.000229, 9.999164 
3.2500517e+2, 2.4472085e+2, -618047.3, -706434.6, 32432.172, 0.008939632, -0.07471216, -607423.75, -65694.18, 0.0, 9.9999695, 9.998832 
3.2500136e+2, 2.5472012e+2, -596411.5, -645863.56, 21732.732, -0.0036763647, -0.06894846, -588218.1, -144478.5, 0.0, 9.999443, 9.998825 
3.24998e+2, 2.6471975e+2, -443297.75, -420528.06, 50767.395, 0.007191585, -0.025710545, -379884.63, -34141.7, 0.0, 9.9994, 9.999723 
3.2499507e+2, 2.747193e+2, -266361.0, -286811.8, 42063.883, 0.064410344, -0.08252694, -233297.5, 14446.04, 0.00000000010851988, 9.99994, 9.999709 
3.249909e+2, 2.8471866e+2, -214425.88, -324370.5, -9627.998, 0.092154086, -0.061316, -213589.11, -63839.543, 0.00000014604628, 10.000119, 9.998691 
3.249855e+2, 2.94718e+2, -151307.9, -242625.17, -19199.709, 0.09636258, -0.042847216, -147435.34, -95675.86, 0.0000023415487, 9.9998665, 9.998696 
3.249822e+2, 3.0471775e+2, -541.2082, 61329.758, 107624.94, 0.08201871, -0.020028446, 142377.0, 142377.0, 0.000012312151, 9.999719, 10.000528 
3.2497767e+2, 3.1471777e+2, -117749.984, -129169.2, -150609.06, -0.17468193, -0.1052238, 27257.65, 27257.65, 0.000036624067, 9.999411, 9.999368 
3.350519e+2, 1.2472852e+2, -1625270.0, -1552927.9, -87025.17, 0.11257063, 0.10272843, -1494856.0, 222818.36, 0.00013854062, 9.999995, 10.00109 
3.350463e+2, 1.3473073e+2, -1529719.9, -1461634.1, -62984.168, 0.04641304, 0.17959623, -1424081.5, 195568.17, 0.000055370125, 10.000089, 10.000992 
3.3504057e+2, 1.4473087e+2, -1518506.0, -1554798.4, -6774.1875, -0.08128129, 0.16755846, -1517282.9, 4364.0796, 0.000011804474, 10.000101, 9.999673 
3.350383e+2, 1.5473083e+2, -1350872.0, -1431105.1, 2607.6768, 0.0650879, 0.1560734, -1350787.4, 72860.46, 0.00000057438905, 10.000622, 9.999597 
3.3503494e+2, 1.6473025e+2, -1276117.4, -1340881.4, -23516.371, 0.11071084, 0.14333725, -1268479.3, 57173.14, 0.00000000201948, 10.000465, 9.999615 
3.3503017e+2, 1.7472899e+2, -1302494.6, -1314942.3, -3168.5564, 0.024565766, 0.020982066, -1301734.5, -74072.164, 0.0, 9.999648, 9.999522 
3.3502614e+2, 1.8472864e+2, -1235965.3, -1189430.6, 4178.273, -0.013223457, 0.023682587, -1189058.4, -59394.758, 0.0, 9.999251, 9.999893 
3.350231e+2, 1.94729e+2, -1105158.6, -1077870.3, 12917.112, 0.01255932, 0.029621597, -1072725.8, -41067.145, 0.0, 9.999493, 9.999869 
3.3501965e+2, 2.0472905e+2, -1019353.1, -1059348.9, 274.2306, 0.008589474, 0.086647145, -1019351.25, -85693.02, 0.0, 9.99972, 9.999222 
3.3501586e+2, 2.1472852e+2, -903589.1, -957909.7, 24093.773, -0.041274868, 0.07464043, -894442.5, -58777.04, 0.0, 9.999861, 9.99918 
3.350124e+2, 2.2472787e+2, -773472.6, -818510.1, 5997.489, -0.040223837, 0.0906001, -772687.6, -35017.21, 0.0, 9.999982, 9.999396 
3.3500952e+2, 2.3472694e+2, -671648.3, -721132.0, 28080.252, 0.02436801, 0.017008824, -658964.75, -19289.818, 0.0, 10.000019, 9.999374 
3.3500576e+2, 2.4472572e+2, -622917.0, -697063.1, -2840.8555, 0.038114298, -0.014647275, -622808.3, -81123.85, 0.0, 9.999876, 9.998943 
3.3500108e+2, 2.54724e+2, -613532.5, -642870.2, 16182.055, -0.014668847, -0.11899888, -606360.25, -162658.72, 0.0, 9.999279, 9.998923 
3.3499697e+2, 2.6472315e+2, -440060.28, -394904.22, 53360.63, -0.06343247, -0.13972834, -359541.56, -13833.597, 0.0, 9.999322, 9.999933 
3.349936e+2, 2.7472275e+2, -273283.88, -264799.28, 78449.48, -0.11431241, -0.2128482, -190477.48, 57229.81, 0.000000000044508567, 9.999786, 9.999931 
3.3498976e+2, 2.8472263e+2, -221714.34, -332360.34, -34678.297, -0.07225021, -0.15222405, -211744.02, -62035.32, 0.00000018851506, 10.000072, 9.998665 
3.349853e+2, 2.9472303e+2, -166907.89, -260830.19, -9278.6045, 0.04292713, -0.020918135, -166000.03, -114289.984, 0.0000023038672, 9.9997835, 9.998623 
3.3498356e+2, 3.0472267e+2, -83519.71, -97092.94, 85514.734, 0.21034859, 0.046588026, -4522.7153, -4522.7153, 0.000011796056, 9.999667, 9.999461 
3.3497745e+2, 3.1472212e+2, -192243.61, -243666.22, -108102.18, -0.21346071, 0.015350088, -106837.17, -106837.17, 0.000034748333, 9.999233, 9.998674 
3.4505138e+2, 1.247333e+2, -1640253.0, -1548401.6, 157823.42, 0.08992639, 0.13340585, -1429957.6, 287670.78, 0.00012841672, 9.999847, 10.001188 
3.4504694e+2, 1.3473564e+2, -1487358.0, -1416537.3, 43974.047, 0.1101924, 0.19575723, -1395488.6, 224112.11, 0.00005393956, 10.000241, 10.00125 
3.4504136e+2, 1.4473577e+2, -1504105.3, -1556642.0, 95833.81, -0.008095382, 0.17298396, -1431004.9, 90592.75, 0.00001321429, 10.000254, 9.999575 
3.4503886e+2, 1.5473498e+2, -1428409.3, -1490756.8, 77024.836, 0.09011627, 0.103537746, -1376488.9, 47117.11, 0.00000089811203, 10.000186, 9.999396 
3.4503546e+2, 1.6473427e+2, -1302823.1, -1369439.0, 62015.777, 0.1328143, 0.09340142, -1265736.6, 59875.855, 0.0000000015154811, 10.000332, 9.999491 
3.450308e+2, 1.7473353e+2, -1163212.8, -1257583.4, 30580.387, 0.084412806, 0.035418272, -1154169.9, 73447.74, 0.0, 10.000648, 9.999434 
3.450266e+2, 1.8473323e+2, -1052199.5, -1130830.4, 59222.484, 0.046375666, 0.05890232, -1020430.44, 109188.734, 0.0, 10.000641, 9.999629 
3.4502304e+2, 1.9473296e+2, -1022752.8, -1072208.6, 26891.64, 0.034241475, 0.032315474, -1010948.2, 20672.68, 0.0, 10.000197, 9.999575 
3.450197e+2, 2.0473276e+2, -970198.56, -1025817.9, 41404.625, 0.0312323, 0.07379839, -948131.2, -14508.303, 0.0, 10.000017, 9.999303 
3.4501645e+2, 2.1473233e+2, -871582.75, -934369.3, 25378.418, 0.032892674, 0.06538933, -862607.7, -26979.826, 0.0, 10.000044, 9.9992485 
3.4501317e+2, 2.2473188e+2, -757098.3, -807044.5, 26642.18, 0.0409946, 0.091311336, -745554.8, -7923.357, 0.0, 10.0000725, 9.999439 
3.450099e+2, 2.347311e+2, -659141.8, -710832.7, 8559.427, 0.06862943, 0.03252753, -657761.4, -18125.367, 0.0, 10.000071, 9.999431 
3.45006e+2, 2.4473028e+2, -579740.9, -633320.6, -4604.9272, 0.0727916, 0.020070123, -579348.0, -37706.227, 0.0, 10.000001, 9.999317 
3.4500125e+2, 2.547291e+2, -496426.53, -551865.9, 441.66638, 0.054018505, -0.06619843, -496423.03, -52770.492, 0.0, 9.999919, 9.999251 
3.449971e+2, 2.6472822e+2, -414496.13, -426939.94, 70571.24, 0.0065427823, -0.08331976, -349873.06, -4213.5615, 0.0, 9.9997, 9.999531 
3.4499353e+2, 2.747273e+2, -367760.25, -354893.88, 15687.81, -0.06392303, -0.16164124, -344371.44, -96705.41, 0.0, 9.999346, 9.999526 
3.449894e+2, 2.8472713e+2, -311817.84, -328483.2, -77390.21, -0.06578984, -0.108429104, -242313.02, -92644.83, 0.00000016974016, 9.999283, 9.999053 
3.4498462e+2, 2.9472777e+2, -159941.9, -211756.58, -54025.137, 0.015611594, 0.012023815, -125933.42, -74269.375, 0.0000020169734, 9.999655, 9.999012 
3.4498394e+2, 3.0472693e+2, -51447.035, -107101.12, 127057.62, 0.28485844, 0.019905174, 50795.07, 50795.07, 0.0000103175025, 9.999965, 9.999266 
3.4497824e+2, 3.1472647e+2, -79863.34, -160437.67, -12018.919, -0.067829244, 0.010660105, -78108.74, -78108.74, 0.000031962787, 9.99986, 9.998942 
3.5505038e+2, 1.2473958e+2, -1741701.9, -1745274.8, 64716.695, -0.0825105, -0.0059436252, -1678747.0, 38806.38, 0.00012227354, 9.999792, 9.999862 
3.5504708e+2, 1.3474064e+2, -1568466.4, -1581382.5, 72918.11, 0.063365534, 0.052413616, -1501720.9, 117822.52, 0.00005490219, 10.000248, 10.000106 
3.5504198e+2, 1.4474048e+2, -1509957.5, -1568823.5, 73836.48, -0.016422141, 0.06050643, -1459903.9, 61641.445, 0.000015641235, 10.000243, 9.999505 
3.5503903e+2, 1.5473929e+2, -1435007.0, -1509707.6, 89545.87, 0.047261465, -0.039542694, -1375334.1, 48223.1, 0.0000017221555, 10.000201, 9.999266 
3.550357e+2, 1.6473876e+2, -1336547.5, -1419396.3, 53571.754, 0.08447969, -0.008616033, -1310252.5, 15310.125, 0.000000007086625, 10.000246, 9.999186 
3.550315e+2, 1.7473868e+2, -1191212.0, -1302600.8, 59153.96, 0.050805163, 0.027913094, -1165659.5, 61904.22, 0.0, 10.000588, 9.999153 
3.5502717e+2, 1.8473828e+2, -1104698.5, -1207598.3, 30420.814, 0.0036731407, 0.07920821, -1096377.8, 33189.934, 0.0, 10.0005045, 9.999167 
3.550229e+2, 1.9473733e+2, -1073128.3, -1147631.5, 27571.041, -0.03191753, 0.029755373, -1064035.0, -32457.926, 0.0, 10.000071, 9.999118 
3.5501948e+2, 2.0473652e+2, -998156.1, -1044603.0, 26091.79, -0.01922054, 0.036562376, -986449.5, -52865.09, 0.0, 9.999845, 9.999261 
3.5501686e+2, 2.1473561e+2, -897631.8, -950027.6, 42373.016, 0.035767995, -0.018194234, -874012.06, -38420.234, 0.0, 9.999876, 9.999225 
3.5501346e+2, 2.2473502e+2, -786114.94, -829570.2, 13690.398, 0.03566469, 0.0003303972, -782161.5, -44564.457, 0.0, 9.999911, 9.99936 
3.5500932e+2, 2.3473445e+2, -693839.9, -738507.0, 24301.703, -0.028730407, -0.027806737, -683168.0, -43565.125, 0.0, 9.999882, 9.9993305 
3.5500523e+2, 2.4473464e+2, -565905.56, -568888.44, -20925.32, -0.029191785, 0.040868793, -546418.56, -4817.923, 0.0, 9.999853, 9.999826 
3.5500148e+2, 2.5473535e+2, -483804.0, -487187.78, 13508.412, 0.049434762, 0.091154024, -471881.94, -28289.22, 0.0, 9.999762, 9.999767 
3.5499787e+2, 2.64735e+2, -494157.25, -575071.7, 43239.64, 0.083720535, 0.14818226, -475399.16, -129802.24, 0.0, 9.99962, 9.998553 
3.5499442e+2, 2.747332e+2, -460341.4, -517998.13, 21634.436, 0.05687178, 0.07458596, -453126.4, -205508.11, 0.0, 9.999219, 9.9984665 
3.5498938e+2, 2.847321e+2, -272882.2, -231749.47, -78211.16, -0.031993512, 0.06751359, -171445.8, -21817.752, 0.00000011654808, 9.999217, 9.99975 
3.5498294e+2, 2.9473212e+2, -125154.664, -111460.72, -20224.78, -0.16744825, 0.04240516, -96955.34, -45332.23, 0.0000016052002, 9.999539, 9.999756 
3.5498297e+2, 3.0473047e+2, 14793.188, 28812.756, 111785.07, 0.15543021, -0.111621074, 133807.61, 133807.61, 0.000008325357, 9.999957, 10.000212 
3.5497883e+2, 3.1473193e+2, -11839.36, 7548.2393, 88690.016, -0.07901188, -0.025862243, 87072.65, 87072.65, 0.000028551576, 9.999737, 10.000162 
3.650507e+2, 1.2474474e+2, -1692275.1, -1798312.3, -56297.03, -0.045201708, -0.08798869, -1667961.1, 49534.88, 0.000118926524, 10.000443, 9.9992 
3.650474e+2, 1.3474502e+2, -1505247.0, -1636016.5, -28122.934, 0.04674393, -0.029327804, -1499455.5, 120041.53, 0.000056465244, 10.001042, 9.9993515 
3.650431e+2, 1.4474492e+2, -1391273.5, -1512170.0, 5166.4307, 0.037175927, 0.021170907, -1391053.1, 130446.43, 0.00001794202, 10.001052, 9.999511 
3.6503962e+2, 1.5474391e+2, -1374696.8, -1473590.0, -3521.8223, 0.07515214, -0.06201354, -1374571.5, 48937.254, 0.000002788093, 10.000585, 9.999331 
3.6503613e+2, 1.6474345e+2, -1312525.0, -1400250.9, 35861.684, 0.10690202, -0.028289067, -1299730.9, 25782.285, 0.00000008230677, 10.000395, 9.99924 
3.650321e+2, 1.7474338e+2, -1214906.4, -1305978.3, 27025.092, 0.07177634, 0.0026835962, -1207490.6, 20024.125, 0.0, 10.000406, 9.99921 
3.6502787e+2, 1.8474285e+2, -1125422.8, -1257761.6, 33375.66, 0.03197972, 0.05577555, -1117481.9, 12038.727, 0.0, 10.000536, 9.99881 
3.6502364e+2, 1.9474158e+2, -1009749.06, -1158133.0, 8748.546, 0.012670667, 0.011749044, -1009235.0, 22299.1, 0.0, 10.000686, 9.998752 
3.650202e+2, 2.047405e+2, -864895.0, -987307.25, 50648.484, 0.0279989, 0.013298944, -846656.44, 86887.74, 0.0, 10.00079, 9.999202 
3.6501747e+2, 2.1473934e+2, -769231.94, -893388.7, 30689.729, 0.07611206, -0.06177262, -762060.2, 73493.14, 0.0, 10.00078, 9.999181 
3.650138e+2, 2.2473864e+2, -708384.9, -786579.5, 21191.309, 0.060755104, -0.051858485, -703011.2, 34547.977, 0.0, 10.000426, 9.999408 
3.6500916e+2, 2.3473822e+2, -719852.4, -744243.2, 10753.611, -0.012017724, -0.0705618, -715788.4, -76224.33, 0.0, 9.999682, 9.999384 
3.650051e+2, 2.447385e+2, -600096.75, -595870.5, 5541.108, -0.009746954, 0.008621047, -592053.25, -50491.703, 0.0, 9.999642, 9.999759 
3.6500174e+2, 2.547394e+2, -404392.44, -449096.9, -32365.502, 0.085292794, 0.081778735, -387410.88, 56141.88, 0.0, 10.000311, 9.999765 
3.6499837e+2, 2.6473925e+2, -386556.3, -528755.3, 9486.869, 0.1443499, 0.15899263, -385926.2, -40370.324, 0.0, 10.000392, 9.998489 
3.6499494e+2, 2.7473748e+2, -372421.03, -482743.25, 26960.059, 0.16515428, 0.1024427, -366185.16, -118608.0, 0.0, 9.999855, 9.998398 
3.6498967e+2, 2.8473628e+2, -193054.48, -209418.55, 6044.7856, 0.055494875, 0.0858394, -191063.75, -41475.21, 0.000000055764154, 9.999808, 9.999635 
3.6498266e+2, 2.947358e+2, -35646.08, -82329.445, -33423.42, -0.1683036, 0.02153026, -18220.625, 33366.53, 0.0000011855267, 10.00021, 9.999639 
3.649827e+2, 3.047337e+2, -14928.344, 5923.244, 17098.887, 0.15432951, -0.16081733, 15524.16, 15524.16, 0.0000067298934, 9.999821, 10.000104 
3.6497906e+2, 3.147355e+2, -177931.17, -17855.99, -84359.125, 0.056326766, -0.035041608, 18392.607, 18392.607, 0.00002565761, 9.998385, 10.000633 
3.75051e+2, 1.2474901e+2, -1688413.0, -1789919.9, -118865.94, -0.14027306, -0.06594139, -1609918.6, 107535.83, 0.0001191897, 10.000435, 9.999256 
3.7504736e+2, 1.3474883e+2, -1521949.4, -1671625.6, 3897.8906, -0.103318684, -0.03587456, -1521847.9, 97613.06, 0.00005856906, 10.001045, 9.9991 
3.7504405e+2, 1.4474912e+2, -1392041.1, -1491849.8, -33280.496, -0.019228347, 0.05599621, -1381961.9, 139498.1, 0.000020069963, 10.000961, 9.999693 
3.7504002e+2, 1.5474886e+2, -1358292.8, -1440277.8, -2649.5269, 0.017695788, 0.028867712, -1358207.3, 65253.453, 0.0000038584762, 10.000586, 9.999561 
3.7503633e+2, 1.6474842e+2, -1300997.0, -1359804.4, 21293.076, 0.049741272, 0.03407328, -1294096.8, 31367.098, 0.00000020238203, 10.000324, 9.999548 
3.7503216e+2, 1.7474769e+2, -1204710.1, -1272453.9, 44811.52, 0.00068634015, -0.029334258, -1182409.3, 45060.797, 0.0, 10.000346, 9.999471 
3.7502822e+2, 1.8474688e+2, -1159129.6, -1294898.1, 23384.656, -0.017618202, -0.009600651, -1155214.8, -25736.33, 0.0, 10.000397, 9.99862 
3.7502474e+2, 1.9474562e+2, -1043343.2, -1195034.4, 31538.086, 0.021261021, -0.032757714, -1037047.4, -5554.8613, 0.0, 10.000548, 9.998561 
3.7502134e+2, 2.0474458e+2, -897763.75, -1017438.75, 35602.875, 0.033629984, -0.009329019, -887973.0, 45529.93, 0.0, 10.000624, 9.999077 
3.750178e+2, 2.1474352e+2, -807114.5, -923885.8, 44747.54, -0.0007530934, -0.06012017, -791939.1, 43572.934, 0.0, 10.000576, 9.999068 
3.750137e+2, 2.2474283e+2, -721969.1, -776239.75, -24208.445, -0.019298017, -0.054077346, -712740.0, 24777.41, 0.0, 10.000251, 9.999567 
3.75009e+2, 2.3474224e+2, -730764.9, -731826.1, -3033.4917, -0.025136298, -0.10881844, -728215.94, -88694.695, 0.0, 9.999521, 9.99955 
3.7500504e+2, 2.4474181e+2, -657411.56, -685494.9, 14628.246, -0.009425417, -0.08219454, -651176.3, -109651.21, 0.0, 9.9995165, 9.999205 
3.750016e+2, 2.5474125e+2, -469956.0, -550364.7, 10154.081, 0.0077727973, -0.092602275, -468693.56, -25161.434, 0.0, 10.000156, 9.999147 
3.7499818e+2, 2.6474082e+2, -338255.25, -410795.16, -23733.027, 0.04783847, -0.053971924, -331180.47, 14356.889, 0.0, 10.000313, 9.999339 
3.7499458e+2, 2.7474016e+2, -321753.25, -355617.38, 25139.154, 0.106165625, -0.089257635, -308375.72, -60831.824, 0.0, 9.999755, 9.999323 
3.7498966e+2, 2.8473955e+2, -255911.6, -329809.22, 7366.241, 0.03932593, -0.052613, -255184.47, -105635.01, 0.00000003400916, 9.999759, 9.998835 
3.7498328e+2, 2.947389e+2, -120183.95, -232049.98, 468.79895, -0.17127714, -0.044883523, -120181.984, -68627.01, 0.000000899484, 10.000087, 9.998675 
3.7498254e+2, 3.047367e+2, -115822.516, -183579.45, -42628.945, 0.12594, -0.12439601, -95249.375, -95249.375, 0.000005766145, 9.999744, 9.9988365 
3.7497798e+2, 3.147367e+2, -233553.67, -103940.76, -28742.078, 0.033415746, -0.055906437, -97853.04, -97853.04, 0.000023929499, 9.998262, 10.000101 
3.850522e+2, 1.24753274e+2, -1591869.5, -1728869.1, -41144.63, -0.07847701, -0.07877273, -1580462.4, 136949.11, 0.00012316402, 10.001057, 9.99937 
3.850479e+2, 1.3475294e+2, -1540948.8, -1698685.4, 30354.52, -0.13469185, -0.050755993, -1535309.0, 84110.26, 0.000061385945, 10.000982, 9.998951 
3.8504556e+2, 1.4475301e+2, -1425462.0, -1510934.3, 4128.804, 0.06016231, 0.030344287, -1425263.0, 96157.45, 0.000022093489, 10.000758, 9.99965 
3.8504052e+2, 1.5475303e+2, -1382078.6, -1455789.0, -33549.76, 0.028021153, 0.03372946, -1369095.1, 54324.137, 0.000004863891, 10.000458, 9.999507 
3.8503644e+2, 1.6475253e+2, -1326316.5, -1382654.9, 4195.4546, 0.04635838, 0.04059134, -1326005.8, -582.4001, 0.00000029520132, 10.000167, 9.999491 
3.8503253e+2, 1.7475149e+2, -1285952.9, -1314200.0, -24087.174, 0.037418984, -0.04918481, -1272153.9, -44721.504, 0.0, 9.999785, 9.999465 
3.850288e+2, 1.8475083e+2, -1198003.6, -1268177.6, 20451.4, 0.034383222, -0.03613448, -1192478.4, -63039.543, 0.0, 9.999923, 9.999035 
3.8502574e+2, 1.9475006e+2, -1011529.5, -1137765.8, 40223.1, 0.07138126, -0.053537853, -999802.44, 31644.656, 0.0, 10.000565, 9.998955 
3.8502216e+2, 2.0474936e+2, -908019.8, -1031236.9, 74534.69, 0.06664547, -0.013459569, -872927.6, 60526.703, 0.0, 10.000589, 9.999001 
3.8501796e+2, 2.1474849e+2, -914541.06, -989593.7, 57045.79, 0.005474365, -0.03491794, -883785.25, -48322.63, 0.0, 9.999886, 9.99896 
3.850138e+2, 2.2474772e+2, -783292.25, -833767.1, 27305.574, -0.008894312, -0.020003824, -771347.4, -33877.805, 0.0, 9.999949, 9.9993105 
3.8500968e+2, 2.347468e+2, -546351.7, -670138.75, -15641.131, 0.029474255, -0.08271272, -544405.94, 95071.086, 0.0, 10.00091, 9.9993 
3.8500565e+2, 2.4474601e+2, -491200.88, -624241.06, 12064.843, 0.04878643, -0.07234348, -490115.63, 51368.926, 0.0, 10.000758, 9.999005 
3.8500163e+2, 2.5474498e+2, -592447.8, -637726.8, 3332.4897, 0.038440824, -0.11323224, -592203.9, -148707.66, 0.0, 9.999432, 9.998892 
3.8499773e+2, 2.647443e+2, -501483.38, -452684.66, 12768.713, 0.04564705, -0.09780915, -449545.53, -104042.78, 0.0, 9.999033, 9.999673 
3.8499406e+2, 2.7474394e+2, -305594.94, -304445.78, -11554.516, 0.08995162, -0.14015557, -293451.56, -45946.586, 0.0, 9.999687, 9.999703 
3.849897e+2, 2.8474385e+2, -226313.95, -327143.34, 8885.521, 0.06807067, -0.07096464, -225536.9, -76030.555, 0.000000026095549, 10.000022, 9.99872 
3.8498458e+2, 2.947436e+2, -152511.64, -260527.16, 26480.648, -0.029055292, -0.007380152, -146369.06, -94859.055, 0.00000066980994, 9.999929, 9.998549 
3.8498262e+2, 3.0474097e+2, -147356.45, -270844.25, 43186.875, 0.17048956, -0.0911341, -133751.73, -133751.73, 0.000005131084, 9.999824, 9.998203 
3.849769e+2, 3.1474036e+2, -52981.438, 10955.835, 83570.19, 0.062274083, -0.026521206, 68463.29, 68463.29, 0.000023471404, 9.999386, 10.000348 
3.9505357e+2, 1.24757886e+2, -1605212.6, -1729279.9, -73781.2, -0.13298738, -0.10849005, -1570852.0, 146511.83, 0.0001272644, 10.000973, 9.999401 
3.9504865e+2, 1.3475741e+2, -1557304.4, -1714659.0, 43201.355, -0.2002935, -0.083140396, -1546223.9, 73147.41, 0.00006380605, 10.000931, 9.99886 
3.9504713e+2, 1.4475669e+2, -1472257.3, -1589345.5, -26259.332, 0.09447963, -0.05078443, -1466637.9, 54742.63, 0.000023677207, 10.000665, 9.999161 
3.9504048e+2, 1.5475635e+2, -1415076.1, -1524157.4, -28500.48, -0.063475996, -0.040822014, -1408078.5, 15306.922, 0.000005569423, 10.000452, 9.999041 
3.95036e+2, 1.6475566e+2, -1356466.0, -1424442.4, -29988.004, -0.047347307, -0.014473317, -1345127.9, -19734.836, 0.00000035120044, 10.000085, 9.999243 
3.950327e+2, 1.7475472e+2, -1316207.0, -1353062.8, -20589.713, 0.045476023, -0.06829143, -1307003.0, -79600.55, 0.0, 9.99969, 9.999245 
3.9502928e+2, 1.847546e+2, -1149079.3, -1136183.9, 28627.137, 0.053878687, -0.037829753, -1113287.3, 16115.679, 0.0, 9.999784, 10.000011 
3.95026e+2, 1.9475499e+2, -960085.1, -995868.0, 79520.625, 0.010742505, -0.037612457, -896468.06, 134928.97, 0.0, 10.000418, 9.999997 
3.9502224e+2, 2.0475495e+2, -933267.56, -1040606.0, 32856.453, -0.012249249, 0.013385651, -924008.75, 9388.12, 0.0, 10.000406, 9.999025 
3.950176e+2, 2.1475421e+2, -947687.75, -1003129.6, 49422.387, -0.04811671, 0.0037580673, -918742.75, -83337.555, 0.0, 9.999656, 9.998973 
3.9501375e+2, 2.2475329e+2, -854725.1, -939682.06, 49176.387, -0.038868207, 0.03765125, -832221.0, -94805.32, 0.0, 9.999764, 9.998675 
3.950107e+2, 2.3475191e+2, -618615.8, -778344.44, 39026.824, 0.009851555, -0.004648016, -609590.3, 29841.266, 0.0, 10.000731, 9.998643 
3.950066e+2, 2.4475107e+2, -497943.38, -610526.4, -50451.43, 0.032562762, 0.029148923, -478643.34, 62797.203, 0.0, 10.000635, 9.999166 
3.9500126e+2, 2.5475052e+2, -598691.3, -616793.06, -30999.682, 0.022854462, 0.019901622, -575448.25, -132002.86, 0.0, 9.99928, 9.999113 
3.9499664e+2, 2.6474988e+2, -527948.1, -487819.16, 21224.764, 0.003847804, 0.031961747, -478676.22, -133224.81, 0.0, 9.99894, 9.999482 
3.9499283e+2, 2.7474886e+2, -338867.22, -348600.84, 30628.15, -0.035670843, -0.050829966, -312721.63, -65260.824, 0.0, 9.999566, 9.999467 
3.9498937e+2, 2.8474897e+2, -198142.22, -240812.39, -8592.815, -0.0010112871, 0.024945227, -196476.81, -47016.617, 0.000000010243951, 9.999919, 9.999356 
3.9498612e+2, 2.9474992e+2, -127656.73, -167640.84, 43964.65, 0.08979667, 0.140819, -99352.07, -47899.64, 0.0000005130985, 9.999764, 9.999264 
3.9498252e+2, 3.0474657e+2, -146393.77, -262940.63, 17702.248, 0.14554507, -0.053995553, -143764.31, -143764.31, 0.0000059963604, 9.999792, 9.998276 
3.9497492e+2, 3.1474587e+2, -1328.488, 151300.05, 133678.69, -0.14879246, 0.0046544843, 228913.88, 228913.88, 0.000027747768, 9.999249, 10.001378 
4.0505543e+2, 1.2476261e+2, -1588363.3, -1702452.5, -15089.846, -0.017634414, -0.10366346, -1586401.3, 130916.82, 0.0001282802, 10.0009775, 9.999594 
4.0504938e+2, 1.3476233e+2, -1664682.6, -1743338.8, 4150.776, -0.15860288, -0.08239006, -1664464.1, -45143.027, 0.00006493345, 10.000085, 9.999076 
4.050485e+2, 1.4476132e+2, -1585303.8, -1652053.1, 37995.363, 0.2172916, -0.0879662, -1568106.5, -46774.12, 0.00002457309, 9.999916, 9.999096 
4.0504092e+2, 1.5476076e+2, -1404691.8, -1528559.0, 29044.535, -0.060669035, -0.092375435, -1398219.6, 25120.389, 0.000005781208, 10.000548, 9.998972 
4.0503627e+2, 1.647601e+2, -1243519.3, -1376699.6, 73853.89, -0.057458535, -0.05585154, -1210667.8, 114680.016, 0.0000003430959, 10.000894, 9.999169 
4.0503353e+2, 1.7475942e+2, -1136128.3, -1277037.4, 58316.57, 0.106584236, -0.079538725, -1115124.3, 112230.99, 0.0, 10.000963, 9.999147 
4.0503007e+2, 1.847593e+2, -1020619.7, -1092692.5, 110307.2, 0.1184356, -0.032550618, -940611.7, 188744.61, 0.0, 10.000768, 9.999828 
4.0502626e+2, 1.9475943e+2, -1003607.56, -1039410.3, 45064.895, 0.012275605, -0.036649235, -973018.7, 58335.652, 0.0, 10.000226, 9.999792 
4.0502226e+2, 2.0475939e+2, -947865.56, -1005933.8, -17245.934, -0.024800519, 0.0066556362, -943129.9, -9775.719, 0.0, 10.00013, 9.999386 
4.05018e+2, 2.1475892e+2, -795697.44, -891077.75, -8230.02, -0.0089396695, -0.015767181, -794992.5, 40365.89, 0.0, 10.00053, 9.999315 
4.0501434e+2, 2.2475822e+2, -744737.1, -885565.06, 75625.336, 0.015547941, 0.020469775, -711819.94, 25546.838, 0.0, 10.000516, 9.998688 
4.0501142e+2, 2.3475696e+2, -723539.9, -836104.06, 86429.24, 0.051178344, -0.0054957788, -676682.8, -37300.105, 0.0, 10.000027, 9.998595 
4.0500718e+2, 2.4475634e+2, -572418.75, -631587.5, 31857.275, 0.06609046, 0.046548087, -558527.6, -17137.91, 0.0, 10.000056, 9.999301 
4.0500152e+2, 2.5475627e+2, -379638.38, -486202.47, 19807.688, 0.059971444, 0.069484115, -376075.7, 67312.836, 0.0, 10.000703, 9.999314 
4.0499663e+2, 2.6475546e+2, -319062.88, -442431.88, 97936.7, 0.034907293, 0.07751831, -265003.78, 80392.055, 0.0, 10.000599, 9.998989 
4.049926e+2, 2.747535e+2, -369582.0, -424246.75, 56151.54, -0.0028189695, -0.053859144, -334463.97, -87048.26, 0.0, 9.999599, 9.99893 
4.0498918e+2, 2.8475347e+2, -297758.63, -289241.28, 32232.447, 0.036925893, 0.03475432, -260987.38, -111569.91, 0.0000000008315615, 9.999222, 9.999363 
4.0498647e+2, 2.947551e+2, -143621.44, -163699.61, 4561.1074, 0.17096294, 0.21517834, -142633.88, -91230.05, 0.0000007104038, 9.999595, 9.999369 
4.049821e+2, 3.047514e+2, -89653.445, -228093.97, -13230.402, 0.12035745, -0.02881947, -88400.39, -88400.39, 0.000009515816, 10.000145, 9.998346 
4.049756e+2, 3.1475058e+2, 170561.48, 226555.16, 45797.766, -0.046335474, 0.0154920155, 252235.67, 252235.67, 0.000039448827, 10.000414, 10.001347 
4.1505685e+2, 1.2476717e+2, -1550147.5, -1632243.4, -15237.807, -0.060772844, -0.07783227, -1547410.4, 169866.22, 0.00012596608, 10.000999, 10.000066 
4.1504958e+2, 1.3476773e+2, -1609723.4, -1652361.1, -18457.775, -0.18746419, -0.03941496, -1602843.3, 16425.553, 0.00006410072, 10.000155, 9.999671 
4.1504925e+2, 1.4476684e+2, -1563517.6, -1591628.4, 44320.91, 0.2523166, -0.08564506, -1531076.9, -9800.044, 0.00002430965, 9.999868, 9.999529 
4.1504145e+2, 1.5476634e+2, -1385390.0, -1468232.6, 72251.19, -0.10184597, -0.122758836, -1343528.9, 79753.27, 0.0000053776803, 10.000476, 9.999416 
4.1503683e+2, 1.647659e+2, -1259087.4, -1384497.8, 61631.83, -0.13062799, -0.08757355, -1233869.8, 91417.39, 0.0000002359893, 10.000786, 9.999166 
4.1503444e+2, 1.7476569e+2, -1147268.3, -1281371.8, 77894.78, 0.060272206, -0.06593696, -1111540.9, 115748.81, 0.0, 10.000884, 9.999153 
4.150307e+2, 1.84765e+2, -1128418.1, -1291796.1, 73890.65, 0.069397576, -0.013049736, -1099957.5, 29341.258, 0.0, 10.000664, 9.998508 
4.150259e+2, 1.9476339e+2, -1118192.4, -1244002.4, 39473.74, -0.07860374, -0.056969784, -1106832.9, -75513.89, 0.0, 10.0000925, 9.998445 
4.1502187e+2, 2.0476265e+2, -925364.5, -927951.6, -17904.438, -0.10863479, -0.0434343, -908706.94, 24619.496, 0.0, 9.999981, 10.000003 
4.1501862e+2, 2.1476263e+2, -777077.6, -801416.44, 21246.416, -0.030037146, -0.0876975, -764762.25, 70559.98, 0.0, 10.000311, 10.000037 
4.150151e+2, 2.247625e+2, -731572.25, -810118.06, 43216.742, 0.011166119, -0.061515536, -712449.56, 24872.955, 0.0, 10.000311, 9.999305 
4.1501126e+2, 2.3476192e+2, -705697.3, -756130.3, 83953.55, 0.002018318, -0.08414683, -643254.94, -3923.9011, 0.0, 9.9998455, 9.999229 
4.1500685e+2, 2.4476187e+2, -578129.44, -614599.56, 42118.766, -0.007240549, -0.018703036, -550467.8, -9135.835, 0.0, 9.999929, 9.999477 
4.1500184e+2, 2.547621e+2, -388798.78, -472696.63, 61919.43, -0.015670922, 0.018795196, -355956.47, 87370.734, 0.0, 10.000559, 9.9994755 
4.149972e+2, 2.647609e+2, -385708.47, -554155.2, 48602.223, -0.0006063776, 0.016631823, -372691.13, -27352.795, 0.0, 10.000496, 9.998267 
4.1499293e+2, 2.7475795e+2, -442963.1, -540719.5, 34026.598, 0.02699982, -0.1404098, -432285.53, -184916.55, 0.0, 9.999461, 9.998189 
4.1498882e+2, 2.8475744e+2, -340673.06, -380620.03, 26846.572, 0.03504975, -0.031131575, -327184.97, -177807.9, 0.00000000001177225, 9.99921, 9.998752 
4.1498494e+2, 2.947592e+2, -199324.33, -255421.34, 37500.953, 0.01008372, 0.22429733, -180542.94, -129178.805, 0.0000013022876, 9.999478, 9.998803 
4.1498068e+2, 3.0475542e+2, -80400.25, -193608.08, -7580.703, -0.07130513, -0.015971007, -79894.88, -79894.88, 0.000014575742, 10.0000925, 9.998599 
4.1497815e+2, 3.147552e+2, 86935.69, 94504.11, 71894.6, 0.09025532, 0.06244196, 162714.02, 162714.02, 0.000055427667, 10.0002575, 10.000503 
4.2505845e+2, 1.24772266e+2, -1567104.6, -1643117.8, 108560.52, 0.020490104, -0.0419312, -1490089.9, 227138.88, 0.00012015749, 10.000883, 10.000047 
4.2504978e+2, 1.347728e+2, -1673360.4, -1675509.8, -80550.81, -0.14875835, -0.01634158, -1593877.1, 25343.291, 0.00006079175, 9.99968, 9.999737 
4.2504922e+2, 1.44772e+2, -1614565.0, -1581144.8, 54813.62, 0.29991582, -0.07411109, -1540550.8, -19324.06, 0.00002257458, 9.999365, 9.99984 
4.2504215e+2, 1.5477169e+2, -1461455.4, -1465521.5, 29627.283, -0.03155202, -0.12917802, -1433791.5, -10562.303, 0.0000044461326, 9.999793, 9.999757 
4.2503777e+2, 1.6477153e+2, -1347165.9, -1422104.3, 41458.742, -0.07315278, -0.082314596, -1328753.4, -3522.5352, 0.00000009724189, 10.000176, 9.999198 
4.2503524e+2, 1.747715e+2, -1201746.9, -1302770.5, 28807.924, 0.08000477, -0.040502265, -1194109.4, 33122.36, 0.0, 10.0005, 9.999194 
4.2503133e+2, 1.8477076e+2, -1162698.0, -1332061.1, 72870.62, 0.08472261, 0.014335112, -1135660.8, -6418.8384, 0.0, 10.000507, 9.998318 
4.2502633e+2, 1.9476883e+2, -1127949.0, -1273763.5, 95348.055, -0.032554675, -0.045079693, -1080828.3, -49561.918, 0.0, 10.000108, 9.998241 
4.250224e+2, 2.0476799e+2, -946886.2, -922477.5, 112956.07, -0.03810668, -0.039793886, -821068.4, 112206.84, 0.0, 9.999778, 10.0001335 
4.2501932e+2, 2.1476804e+2, -889804.4, -845642.1, 79357.195, 0.060047295, -0.08618717, -785351.25, 49918.74, 0.0, 9.999492, 10.000133 
4.250156e+2, 2.2476803e+2, -844092.56, -817755.4, 91193.53, 0.08796748, -0.07405959, -738784.56, -1516.6208, 0.0, 9.999345, 9.999709 
4.25011e+2, 2.3476775e+2, -754119.6, -729129.7, 81071.62, 0.030199053, -0.10773302, -659595.8, -20324.857, 0.0, 9.99931, 9.999666 
4.2500672e+2, 2.4476759e+2, -632099.2, -678179.9, 79789.16, 0.008309435, -0.05804029, -572090.4, -30817.902, 0.0, 9.999717, 9.999149 
4.2500284e+2, 2.5476718e+2, -402945.16, -523351.88, 29683.684, 0.03577835, -0.047528207, -396025.0, 47250.934, 0.0, 10.000636, 9.9991 
4.2499846e+2, 2.647658e+2, -312059.94, -549648.75, -3558.6455, 0.055350684, -0.03565502, -312006.66, 33283.453, 0.0, 10.001134, 9.998003 
4.249936e+2, 2.7476308e+2, -217525.45, -460272.5, -12882.391, 0.07346596, -0.1360108, -216843.7, 30474.455, 0.0, 10.001136, 9.997943 
4.2498899e+2, 2.847621e+2, -131763.3, -320538.9, 54639.746, 0.05777503, -0.04120034, -117088.914, 32241.596, 0.0000000012455732, 10.00086, 9.998346 
4.249849e+2, 2.9476267e+2, -104724.4, -255997.92, 41666.324, 0.023928564, 0.13235861, -94007.23, -42677.816, 0.0000019825331, 10.000342, 9.998375 
4.2498055e+2, 3.0475956e+2, -68955.38, -164082.47, 41422.668, -0.073238626, -0.02960536, -53446.527, -53446.527, 0.000019679212, 10.000079, 9.998807 
4.2497942e+2, 3.147597e+2, -9644.263, 2114.641, 7705.844, 0.23413508, 0.066798635, 5927.866, 5927.866, 0.00007104561, 9.999786, 10.0001 
4.3505955e+2, 1.2477792e+2, -1610996.5, -1710924.5, 114571.41, -0.04134863, -0.00022398241, -1535968.5, 181205.84, 0.00011272219, 10.000815, 9.999607 
4.350495e+2, 1.3477765e+2, -1703984.6, -1733692.8, -107213.76, -0.18586946, -0.0155941965, -1610600.8, 8574.506, 0.00005585788, 9.999675, 9.999338 
4.3504792e+2, 1.4477669e+2, -1613564.6, -1569050.0, 57001.09, 0.18382102, -0.06772742, -1530114.9, -8931.838, 0.000019900395, 9.999312, 9.999953 
4.350424e+2, 1.5477672e+2, -1448013.9, -1441599.0, 62439.85, -0.026338091, -0.1051332, -1382284.3, 40896.973, 0.0000034951138, 9.999797, 9.999924 
4.3503857e+2, 1.6477686e+2, -1354334.8, -1412260.5, 36187.348, -0.045971602, -0.045706246, -1336947.0, -11766.986, 0.000000032016867, 10.000081, 9.999307 
4.3503547e+2, 1.7477688e+2, -1209008.1, -1293492.9, 57109.605, 0.013612651, -0.00969323, -1180215.9, 46965.688, 0.0, 10.000403, 9.999298 
4.3503153e+2, 1.8477666e+2, -1118085.6, -1206583.4, 43197.906, 0.019113729, 0.04604976, -1100495.9, 28689.748, 0.0, 10.000366, 9.999249 
4.3502715e+2, 1.9477588e+2, -1081119.0, -1142006.9, 96244.16, 0.003945994, 0.0075735864, -1010618.56, 20576.613, 0.0, 9.999965, 9.999215 
4.3502325e+2, 2.0477545e+2, -1001440.44, -997760.75, 85457.66, 0.040325746, 0.025189625, -914123.1, 19076.752, 0.0, 9.999609, 9.999698 
4.350196e+2, 2.1477507e+2, -948859.1, -928967.4, 83762.61, 0.10999677, -0.019953627, -854562.25, -19359.793, 0.0, 9.999319, 9.999643 
4.3501532e+2, 2.2477484e+2, -859791.6, -806639.1, 74650.95, 0.09829878, -0.010407276, -753974.9, -16772.63, 0.0, 9.99916, 9.999874 
4.3501025e+2, 2.3477446e+2, -768124.6, -713531.25, 95864.14, -0.008615348, -0.07363064, -641153.25, -1951.1451, 0.0, 9.999119, 9.999864 
4.3500644e+2, 2.447735e+2, -717460.3, -821921.3, 98087.14, -0.020901244, -0.068568215, -658564.25, -117352.86, 0.0, 9.999579, 9.998222 
4.3500406e+2, 2.5477165e+2, -493451.47, -672324.1, 80235.695, 0.060776044, -0.11367526, -462735.3, -19501.62, 0.0, 10.000476, 9.998148 
4.3499997e+2, 2.6477027e+2, -306393.0, -523263.25, -16105.296, 0.060606007, -0.062902346, -305203.53, 40046.105, 0.0, 10.001062, 9.998221 
4.3499395e+2, 2.74769e+2, -212506.56, -427295.28, 5785.2124, -0.038381048, -0.04506274, -212350.84, 34911.47, 0.0, 10.00103, 9.998222 
4.3498906e+2, 2.8476754e+2, -162986.23, -366024.88, 22947.865, -0.056755584, -0.0028978826, -160424.92, -11147.158, 0.000000012355592, 10.00079, 9.998062 
4.3498594e+2, 2.9476562e+2, -148938.9, -319464.22, 42782.05, 0.047278516, -0.045134816, -138807.52, -87509.59, 0.0000027662056, 10.00023, 9.99799 
4.3498138e+2, 3.0476385e+2, -69153.125, -158880.69, 19603.213, -0.03326545, -0.055659372, -65057.28, -65057.28, 0.000024180765, 10.0000515, 9.998858 
4.349784e+2, 3.1476387e+2, -45312.72, -34443.277, -14878.557, 0.07177082, 0.020924073, -24037.934, -24037.934, 0.00008333817, 9.999634, 9.999921 
4.450604e+2, 1.2478332e+2, -1768417.4, -1781577.6, 228296.6, 0.039083894, 0.0044421465, -1546606.0, 170514.36, 0.00010688196, 9.999756, 9.999619 
4.4505072e+2, 1.3478272e+2, -1609208.6, -1676143.1, -98563.02, -0.044702377, -0.05005692, -1538585.9, 80538.22, 0.000051033883, 10.0003, 9.999432 
4.4504753e+2, 1.4478174e+2, -1459221.5, -1524814.5, 130784.69, 0.16531822, -0.09510027, -1357183.9, 163948.5, 0.000017295639, 10.000495, 9.999687 
4.4504255e+2, 1.5478186e+2, -1415404.4, -1456146.6, 61147.383, 0.00031034142, -0.10014333, -1371324.1, 51806.91, 0.0000027656245, 10.000142, 9.999659 
4.4503894e+2, 1.6478187e+2, -1355515.1, -1402630.3, 64215.258, -0.0034185548, -0.0445199, -1310672.8, 14458.393, 0.000000035556127, 9.999996, 9.999432 
4.4503567e+2, 1.747816e+2, -1246492.3, -1300422.1, 57818.83, 0.02344872, -0.052313495, -1209659.6, 17475.05, 0.0, 10.0000725, 9.999426 
4.4503182e+2, 1.8478158e+2, -1133810.8, -1165403.0, 42357.137, 0.036946483, -0.0018854729, -1104400.1, 24735.814, 0.0, 10.000083, 9.999651 
4.4502783e+2, 1.9478147e+2, -1052415.0, -1082403.9, 16896.379, 0.082630664, -0.013609822, -1044819.1, -13680.683, 0.0, 9.999988, 9.9996 
4.4502378e+2, 2.047814e+2, -956032.1, -994019.56, 30847.465, 0.11962216, 0.032851122, -938799.75, -5659.592, 0.0, 10.000028, 9.99951 
4.4501957e+2, 2.1478117e+2, -837323.2, -893798.44, 16338.928, 0.13566121, 0.02188858, -832936.9, 2207.0127, 0.0, 10.000186, 9.999455 
4.4501525e+2, 2.247808e+2, -690438.75, -743304.56, 40863.504, 0.12182224, 0.034104723, -668204.1, 68941.51, 0.0, 10.000398, 9.999713 
4.4501093e+2, 2.3477995e+2, -561944.3, -636719.1, 5037.1123, 0.08170356, -0.056609675, -561606.5, 77542.336, 0.0, 10.000623, 9.999669 
4.4500723e+2, 2.4477874e+2, -580201.06, -772985.8, 57942.445, 0.05877086, -0.062236156, -564126.5, -22965.52, 0.0, 10.000592, 9.998075 
4.4500428e+2, 2.5477687e+2, -537871.44, -708200.56, 69512.836, 0.05680719, -0.09225531, -513104.03, -69919.164, 0.0, 10.000234, 9.998019 
4.4500044e+2, 2.647758e+2, -404478.97, -528816.4, 38249.727, 0.05075211, -0.019983398, -393654.6, -48456.688, 0.0, 10.000221, 9.998577 
4.4499543e+2, 2.7477527e+2, -235761.28, -399408.38, 32266.91, 0.03078044, 0.03013201, -229628.89, 17574.34, 0.0, 10.000707, 9.998564 
4.4499046e+2, 2.847737e+2, -123869.98, -335948.66, 76185.73, 0.0041296654, 0.044002224, -99339.0, 49878.734, 0.00000003062236, 10.000991, 9.998185 
4.449863e+2, 2.9477096e+2, -52437.75, -254995.3, 90244.64, 0.048108768, -0.09119995, -18064.451, 33179.01, 0.0000032986038, 10.000822, 9.998149 
4.4498187e+2, 3.0476967e+2, -37662.156, -170778.27, 114745.62, 0.009401333, -0.050470922, 28431.705, 28431.705, 0.000027227657, 10.000373, 9.998614 
4.449786e+2, 3.1476948e+2, -27800.367, -21992.225, -32575.48, 0.14487895, 0.019986888, 7808.375, 7808.375, 0.000091368296, 9.999733, 9.999949 
4.5506012e+2, 1.2478835e+2, -1746539.3, -1733808.1, 253029.28, -0.05177063, -0.048846655, -1487064.4, 230003.86, 0.000102696926, 9.999742, 9.999953 
4.5505276e+2, 1.34788e+2, -1568044.8, -1607055.9, -61522.566, 0.089280345, -0.123982266, -1523009.8, 96057.26, 0.000047349753, 10.000354, 9.999885 
4.550475e+2, 1.44787e+2, -1510601.4, -1617590.1, 107011.67, 0.06505014, -0.16426404, -1444458.1, 76617.71, 0.000015080613, 10.000443, 9.999071 
4.5504212e+2, 1.5478699e+2, -1469388.1, -1555555.4, 66581.28, -0.10106649, -0.11598725, -1433166.9, -10087.56, 0.0000021144335, 10.000096, 9.998996 
4.550384e+2, 1.647866e+2, -1351926.4, -1377250.3, 48550.03, -0.09536123, -0.077190444, -1314414.4, 10669.608, 0.00000004449902, 9.999914, 9.999644 
4.5503548e+2, 1.7478572e+2, -1237759.6, -1273670.6, 78485.4, -0.03882767, -0.16959932, -1175202.1, 51888.76, 0.0, 10.000032, 9.999628 
4.550318e+2, 1.8478556e+2, -1164080.8, -1204751.0, 22517.74, -0.007630361, -0.13352297, -1154075.0, -24981.898, 0.0, 9.999981, 9.999428 
4.550278e+2, 1.9478567e+2, -1093387.3, -1128610.1, 27178.979, 0.04581539, -0.09976934, -1078612.6, -47517.363, 0.0, 9.999826, 9.999355 
4.550234e+2, 2.04786e+2, -978663.5, -1003370.0, 19675.553, 0.05065926, -0.003979676, -967784.6, -34689.77, 0.0, 9.999859, 9.99953 
4.5501855e+2, 2.1478634e+2, -865067.1, -899042.3, 37602.22, -0.014985683, 0.038662463, -840793.25, -5699.425, 0.0, 9.999963, 9.999524 
4.550149e+2, 2.2478588e+2, -752951.3, -832069.7, 34624.53, 0.020663625, 0.06369346, -739938.75, -2840.748, 0.0, 10.000213, 9.999201 
4.5501253e+2, 2.3478423e+2, -620519.9, -721868.1, 30521.283, 0.1482421, -0.05816887, -612038.1, 27073.148, 0.0, 10.000459, 9.999167 
4.550086e+2, 2.4478331e+2, -557471.75, -686828.6, 31077.152, 0.10495198, -0.03737807, -550393.0, -9272.218, 0.0, 10.000435, 9.998745 
4.5500305e+2, 2.5478286e+2, -511006.47, -613107.5, 74143.4, -0.12162635, 0.008616364, -472038.1, -28908.607, 0.0, 10.000066, 9.998757 
4.549994e+2, 2.647824e+2, -396066.06, -483353.97, 43708.57, -0.10738506, 0.08313827, -377942.44, -32806.504, 0.0, 10.000107, 9.998937 
4.5499757e+2, 2.747817e+2, -235551.38, -366165.34, 71942.81, 0.13479331, 0.08083448, -203694.73, 43447.402, 0.0, 10.000569, 9.998852 
4.5499277e+2, 2.8478068e+2, -92380.55, -258140.94, 56344.98, 0.098539636, 0.10389226, -75041.56, 74108.805, 0.000000022691747, 10.000926, 9.9987545 
4.5498556e+2, 2.9477865e+2, -14069.409, -165696.84, 102071.336, -0.1574593, -0.014401801, 37263.547, 88429.836, 0.0000033720132, 10.000758, 9.998803 
4.549814e+2, 3.0477697e+2, -78848.39, -242098.84, 83737.484, -0.11351861, -0.027982453, -43534.984, -43534.984, 0.000028360193, 10.000327, 9.998134 
4.5497933e+2, 3.1477594e+2, -29950.137, 3864.9773, -27348.2, 0.16449814, 0.008112311, 19110.016, 19110.016, 0.00009465621, 9.999607, 10.00018 
4.6506023e+2, 1.2479262e+2, -1773659.8, -1708529.1, 190297.08, 0.023404492, -0.029531134, -1548031.1, 168997.05, 0.00009773488, 9.999347, 10.000321 
4.650542e+2, 1.347927e+2, -1553496.3, -1553862.0, -166171.08, 0.22007859, -0.11328533, -1387507.9, 231513.89, 0.000043477085, 10.000211, 10.000334 
4.6504697e+2, 1.4479199e+2, -1499646.0, -1599931.6, 33781.047, -0.021484632, -0.15204069, -1489328.4, 31699.13, 0.000012657647, 10.000468, 9.999182 
4.6504265e+2, 1.5479234e+2, -1467259.0, -1540881.1, 6243.5664, -0.04123151, -0.07827835, -1466733.3, -43705.613, 0.0000014631825, 10.00006, 9.999114 
4.650392e+2, 1.6479202e+2, -1350952.4, -1359318.8, 69889.38, 0.005458713, -0.046135064, -1285121.1, 39910.043, 0.000000030371112, 9.999858, 9.999789 
4.6503583e+2, 1.7479078e+2, -1249208.9, -1261024.3, 59943.676, 0.007239075, -0.18965328, -1194882.5, 32157.797, 0.0, 9.999881, 9.999784 
4.6503183e+2, 1.8479042e+2, -1157519.9, -1215435.5, 37615.484, 0.0033388794, -0.17681141, -1139006.9, -9962.9375, 0.0, 10.000059, 9.999332 
4.6502763e+2, 1.9479059e+2, -1022403.56, -1109087.1, 23328.342, 0.03231951, -0.12780884, -1016524.2, 14521.57, 0.0, 10.00034, 9.999263 
4.650234e+2, 2.0479085e+2, -906982.25, -972048.5, 49216.13, 0.050942678, -0.03322789, -880518.5, 52527.41, 0.0, 10.000352, 9.999512 
4.6501908e+2, 2.1479096e+2, -849189.56, -899713.75, 27416.963, 0.04744495, -0.008645416, -837170.8, -2124.0222, 0.0, 10.0000925, 9.999466 
4.6501565e+2, 2.2479045e+2, -768700.56, -854632.75, 83659.16, 0.08408579, 0.022671586, -717619.1, 19433.11, 0.0, 10.0001955, 9.999032 
4.6501318e+2, 2.3478903e+2, -590569.3, -725640.3, 70442.39, 0.15960103, -0.059306566, -560518.06, 78547.33, 0.0, 10.000768, 9.998978 
4.65009e+2, 2.447885e+2, -498377.3, -620527.25, 65027.684, 0.10045307, -0.008148662, -470240.44, 70831.48, 0.0, 10.000672, 9.999077 
4.6500322e+2, 2.5478864e+2, -521993.63, -579822.5, 47658.973, -0.08888323, 0.058220837, -495163.8, -52089.49, 0.0, 9.999826, 9.99909 
4.649995e+2, 2.647882e+2, -426122.6, -474161.25, 70756.06, -0.08053095, 0.10804921, -375420.13, -30340.557, 0.0, 9.999771, 9.999181 
4.649978e+2, 2.74787e+2, -235387.95, -338825.88, 66379.445, 0.12088917, 0.03358283, -202957.75, 44131.824, 0.0, 10.000441, 9.999115 
4.6499327e+2, 2.847862e+2, -143788.94, -251422.52, 40054.156, 0.08957659, 0.054227717, -130519.35, 18575.37, 0.00000001636591, 10.0004425, 9.999029 
4.6498644e+2, 2.9478514e+2, -128266.266, -174686.72, 12461.168, -0.08543949, -0.00047758722, -125132.695, -74031.85, 0.0000038591365, 9.999789, 9.999193 
4.649826e+2, 3.047831e+2, -116430.984, -261915.19, 58022.902, 0.0015431531, -0.07151196, -96124.336, -96124.336, 0.000029778155, 10.000036, 9.998176 
4.6497947e+2, 3.1478176e+2, 183358.03, 101740.555, -68974.81, 0.16104807, -0.057536278, 222692.16, 222692.16, 0.00009717631, 10.001073, 10.000174 
4.7505987e+2, 1.2479601e+2, -1757656.5, -1635190.1, 115704.28, -0.036740243, 0.06612466, -1565515.0, 151485.95, 0.00009217974, 9.999208, 10.000876 
4.7505453e+2, 1.3479674e+2, -1514158.9, -1460036.0, -113588.03, 0.1892111, -0.01638721, -1370330.3, 248658.53, 0.00003847725, 10.000185, 10.000975 
4.7504538e+2, 1.447967e+2, -1445931.1, -1484085.4, 1235.7524, -0.27897498, -0.059367616, -1445891.1, 75095.87, 0.000009911169, 10.00043, 10.000004 
4.750437e+2, 1.5479784e+2, -1401615.0, -1412210.8, 6374.2485, 0.014116602, 0.0069501703, -1398624.4, 24352.295, 0.0000009593812, 10.000079, 9.999994 
4.7504088e+2, 1.6479802e+2, -1354624.8, -1350057.0, 54005.1, 0.15487623, 0.038638104, -1298287.5, 26686.43, 0.000000014696447, 9.999786, 9.99989 
4.7503617e+2, 1.7479673e+2, -1255559.4, -1256188.5, 78802.42, 0.018806169, -0.11165822, -1177070.9, 49912.6, 0.0, 9.999806, 9.999858 
4.7503135e+2, 1.8479621e+2, -1166572.9, -1209361.3, 33907.723, -0.085617, -0.12182642, -1147874.1, -18886.148, 0.0, 9.999948, 9.999432 
4.750269e+2, 1.9479622e+2, -1031931.9, -1103514.4, 50984.71, -0.10711459, -0.097130045, -1005429.8, 25559.928, 0.0, 10.000227, 9.99936 
4.750234e+2, 2.0479599e+2, -936375.56, -995443.0, 24681.576, -0.0192039, -0.05303617, -927420.06, 5573.066, 0.0, 10.000194, 9.999423 
4.750207e+2, 2.1479516e+2, -884064.7, -923183.44, 34583.516, 0.1687717, -0.11512842, -863892.6, -28891.115, 0.0, 9.999891, 9.999395 
4.75017e+2, 2.2479463e+2, -783244.0, -853685.2, 89323.28, 0.16529956, -0.08820102, -722448.25, 14559.145, 0.0, 10.000046, 9.999121 
4.750123e+2, 2.3479421e+2, -608512.9, -722741.56, 107997.54, -0.039225593, -0.07664557, -543457.2, 95555.37, 0.0, 10.000588, 9.999088 
4.7500795e+2, 2.447941e+2, -521625.78, -637918.9, 20065.945, -0.102177426, 0.010768221, -518260.84, 22755.38, 0.0, 10.000531, 9.999028 
4.750043e+2, 2.5479394e+2, -549391.94, -606901.75, 33259.637, -0.005576721, 0.050270572, -534180.4, -91158.74, 0.0, 9.999682, 9.99898 
4.7500026e+2, 2.647931e+2, -427056.34, -447116.78, 78914.63, -0.014037577, 0.053491727, -357537.06, -12506.845, 0.0, 9.999654, 9.999418 
4.7499567e+2, 2.7479118e+2, -231488.42, -302454.5, 109592.805, -0.1736326, -0.117137425, -151777.6, 95267.94, 0.0, 10.000328, 9.999413 
4.7499144e+2, 2.8479028e+2, -158578.84, -276256.53, -193.48637, -0.17068759, -0.11425793, -158578.53, -9527.14, 0.0000000367379, 10.000407, 9.99888 
4.7498846e+2, 2.9479012e+2, -157464.64, -209713.36, 4248.1514, 0.088701375, -0.065854564, -157121.5, -106071.16, 0.000004901276, 9.999657, 9.999027 
4.7498503e+2, 3.047879e+2, -90090.7, -172902.61, 80152.6, 0.2171838, -0.18170439, -41280.848, -41280.848, 0.000032907166, 9.999911, 9.9988365 
4.7497788e+2, 3.1478706e+2, 158466.48, 76502.33, 24866.44, -0.18480723, -0.17563719, 165420.52, 165420.52, 0.00010232853, 10.000981, 10.000032 
4.850594e+2, 1.2479969e+2, -1846161.5, -1693404.6, 227830.39, 0.04521839, 0.0040336526, -1529490.9, 187470.38, 0.00008688649, 9.998669, 10.000746 
4.8505527e+2, 1.3480094e+2, -1566331.1, -1491888.6, -13895.359, 0.27866927, -0.018370379, -1489379.5, 129567.99, 0.000032757685, 9.999846, 10.000934 
4.8504493e+2, 1.4480129e+2, -1446012.9, -1455636.0, 56099.598, -0.3498466, -0.031668566, -1394518.9, 126424.09, 0.000007215262, 10.000321, 10.000243 
4.850444e+2, 1.5480219e+2, -1339952.8, -1360804.4, -27784.727, 0.071465224, -0.0119842775, -1320702.1, 102231.74, 0.00000059770906, 10.000406, 10.00019 
4.850417e+2, 1.6480254e+2, -1288718.5, -1329624.0, 23534.432, 0.24406746, 0.031939585, -1277991.4, 46938.645, 0.0000000048834687, 10.000302, 9.999772 
4.8503628e+2, 1.7480195e+2, -1238688.8, -1256320.9, 4283.889, 0.05010716, -0.041797962, -1237703.0, -10767.505, 0.0, 9.999985, 9.999751 
4.8503128e+2, 1.8480158e+2, -1179571.8, -1189129.8, -3333.9734, -0.0667907, -0.042663828, -1178523.6, -49584.938, 0.0, 9.999759, 9.999647 
4.8502716e+2, 1.9480123e+2, -1109062.5, -1108035.1, -3027.6377, -0.06306436, -0.08210044, -1105477.9, -74535.98, 0.0, 9.99958, 9.999619 
4.850238e+2, 2.048008e+2, -963739.5, -1024533.75, 18137.096, 0.02033505, -0.06384501, -958739.75, -25793.537, 0.0, 10.000063, 9.999299 
4.8502138e+2, 2.1479994e+2, -718696.4, -855280.06, -1019.8965, 0.19741817, -0.11424931, -718688.8, 116266.05, 0.0, 10.001072, 9.9993 
4.8501754e+2, 2.2479947e+2, -629829.56, -772723.7, 55176.324, 0.17199792, -0.08034001, -611004.25, 125956.06, 0.0, 10.0010605, 9.999196 
4.850121e+2, 2.3479913e+2, -700300.6, -763861.75, 39187.395, -0.07171567, -0.06664368, -681626.7, -42661.46, 0.0, 9.999923, 9.999138 
4.8500782e+2, 2.4479905e+2, -629286.6, -649504.5, 2952.914, -0.1160267, 0.0037157787, -628864.1, -87896.3, 0.0, 9.999618, 9.99939 
4.8500478e+2, 2.54799e+2, -456249.88, -519932.75, 12511.93, 0.06368307, 0.021995753, -453879.8, -10909.781, 0.0, 10.000153, 9.999349 
4.850009e+2, 2.647984e+2, -340701.2, -415633.44, 108227.95, 0.06277201, 0.034314185, -263637.84, 81338.195, 0.0, 10.000292, 9.999324 
4.8499593e+2, 2.747967e+2, -286491.94, -344890.1, 77036.49, -0.15249063, -0.10359087, -233306.53, 13684.451, 0.0, 10.000008, 9.999283 
4.8499182e+2, 2.8479567e+2, -195908.23, -307669.6, -19887.418, -0.15718204, -0.09892337, -192474.83, -43475.55, 0.00000008825205, 10.000207, 9.998758 
4.849893e+2, 2.9479548e+2, 15898.499, -142364.22, -54744.74, 0.15715595, -0.043923255, 32989.582, 83989.74, 0.0000056092463, 10.0009165, 9.998881 
4.8498628e+2, 3.047935e+2, 65620.305, -88365.05, 48047.543, 0.31433457, -0.12909606, 79382.45, 79382.45, 0.000035389916, 10.000932, 9.9989195 
4.8497847e+2, 3.1479278e+2, 9521.907, -33745.094, -96639.7, -0.16214523, -0.119353846, 86919.92, 86919.92, 0.00010599746, 10.000116, 9.999686 
4.9505755e+2, 1.2480356e+2, -1900177.8, -1813248.5, 66487.73, -0.0973886, -0.21395415, -1777278.9, -60368.92, 0.00007926606, 9.9987, 9.999907 
4.9505588e+2, 1.3480526e+2, -1609742.9, -1586015.1, 42827.965, 0.31935218, -0.1250377, -1553438.3, 65459.848, 0.000026309035, 9.999861, 10.000278 
4.9504513e+2, 1.4480576e+2, -1488240.4, -1525619.5, 40651.254, -0.40858737, -0.07121273, -1462188.3, 58707.434, 0.0000047383246, 10.000248, 9.999797 
4.9504423e+2, 1.548055e+2, -1378867.9, -1430138.5, -7407.264, -0.028423639, -0.122701794, -1377819.1, 45078.96, 0.0000002991547, 10.000363, 9.999733 
4.9504113e+2, 1.6480576e+2, -1317607.8, -1374457.8, -4935.9194, 0.11940059, -0.05039938, -1317182.4, 7715.4497, 0.0000000005507737, 10.000232, 9.999501 
4.9503583e+2, 1.7480633e+2, -1267813.5, -1300913.4, 6061.3765, -0.03177827, 0.020787278, -1266738.5, -39841.62, 0.0, 9.999913, 9.999483 
4.950313e+2, 1.8480638e+2, -1169953.0, -1138171.5, -24880.74, -0.07431495, 0.0557203, -1124540.0, 4357.469, 0.0, 9.999633, 10.000053 
4.9502784e+2, 1.9480552e+2, -1098544.9, -1056405.5, 4639.4233, 0.008924255, -0.07702886, -1055900.8, -24997.576, 0.0, 9.999453, 10.000035 
4.9502423e+2, 2.0480527e+2, -993428.0, -1047758.8, 38507.82, 0.030346235, -0.059152722, -973467.94, -40562.82, 0.0, 9.999891, 9.999226 
4.9502066e+2, 2.148054e+2, -749835.44, -884134.4, 53691.75, -0.014573239, -0.0030703854, -731009.0, 103896.875, 0.0, 10.000905, 9.999188 
4.9501666e+2, 2.2480497e+2, -660616.9, -790361.5, 35.55632, -0.04949168, 0.041892495, -660616.9, 76294.45, 0.0, 10.00087, 9.999162 
4.9501222e+2, 2.3480366e+2, -729637.9, -779331.94, 15339.801, -0.08469056, -0.041052915, -725284.2, -86359.87, 0.0, 9.999729, 9.999124 
4.9500805e+2, 2.4480335e+2, -599874.5, -550749.56, 7371.062, -0.08629467, -0.027172731, -549667.44, -8741.074, 0.0, 9.999464, 10.00014 
4.9500424e+2, 2.5480375e+2, -421473.53, -417349.8, 51051.754, -0.04192144, -0.037553377, -368318.28, 74601.95, 0.0, 10.000021, 10.000117 
4.95001e+2, 2.6480392e+2, -389955.34, -490249.4, 81130.445, 0.005231267, 0.036070578, -344724.84, 194.10944, 0.0, 10.000182, 9.998858 
4.949981e+2, 2.748035e+2, -350182.16, -431971.2, 84337.63, 0.028434355, 0.07117142, -297347.28, -50420.93, 0.0, 9.999825, 9.998766 
4.9499375e+2, 2.8480262e+2, -216732.08, -326733.97, -5601.7466, -0.02182783, 0.11859955, -216447.56, -67511.23, 0.00000018947561, 10.000107, 9.9986725 
4.949885e+2, 2.9480118e+2, -2011.9323, -163199.03, -6387.4443, -0.06155326, 0.063083306, -1759.21, 49190.816, 0.000005650319, 10.000853, 9.998765 
4.9498594e+2, 3.047999e+2, 32436.924, -160328.39, 8587.934, 0.14986804, 0.080756575, 32818.77, 32818.77, 0.00003451672, 10.000932, 9.998427 
4.9498016e+2, 3.1479898e+2, -50300.457, -130561.48, -69820.14, -0.08639347, 0.10632587, -9899.544, -9899.544, 0.00010176044, 9.999991, 9.999079 
5.050573e+2, 1.248081e+2, -1833140.1, -1819811.1, -73541.74, -0.014936591, -0.26209897, -1752632.5, -35770.76, 0.000066640154, 9.999351, 9.999536 
5.050562e+2, 1.3480963e+2, -1521320.0, -1586979.8, 6071.581, 0.34430245, -0.15135512, -1520763.3, 98090.97, 0.0000195532, 10.000654, 9.999889 
5.050461e+2, 1.4481013e+2, -1430682.8, -1516487.5, 8397.621, -0.3478585, -0.06741318, -1429868.6, 90984.38, 0.0000028130235, 10.000733, 9.999625 
5.050445e+2, 1.5480942e+2, -1457191.6, -1481230.3, -59228.16, 0.0005074584, -0.14701864, -1408775.5, 14084.047, 0.00000011765629, 9.999903, 9.999598 
5.0504106e+2, 1.6480955e+2, -1424804.4, -1433466.8, 5668.4463, 0.13079095, -0.07721579, -1422001.9, -97141.016, 0.000000000026416515, 9.999509, 9.999454 
5.0503576e+2, 1.7481032e+2, -1326538.8, -1336112.4, 3316.2651, 0.0012779356, 0.018222502, -1325502.3, -98642.93, 0.0, 9.999517, 9.999441 
5.0503135e+2, 1.8481064e+2, -1160401.5, -1120681.4, 9077.88, -0.02295706, 0.075616, -1118705.0, 10153.122, 0.0, 9.999634, 10.00018 
5.0502807e+2, 1.9481015e+2, -1034641.0, -1010495.06, -11836.148, 0.08040105, -0.027755618, -1005660.9, 25199.762, 0.0, 9.9998255, 10.0001745 
5.050244e+2, 2.0481019e+2, -979497.5, -1021194.9, 62832.06, 0.060101736, 0.0032498739, -934145.44, -1285.4359, 0.0, 9.999923, 9.999377 
5.050202e+2, 2.1481049e+2, -902300.56, -939561.3, 59236.824, -0.08515006, 0.06116167, -858833.5, -23974.639, 0.0, 9.999806, 9.999323 
5.0501645e+2, 2.2481e+2, -786706.25, -841249.7, 20966.246, -0.10308727, 0.091703966, -779578.4, -42714.434, 0.0, 9.999952, 9.999262 
5.0501317e+2, 2.3480849e+2, -652021.1, -724804.9, 9888.926, 0.020262292, -0.022831416, -650701.44, -11823.874, 0.0, 10.000207, 9.99926 
5.0500894e+2, 2.4480791e+2, -493121.88, -525639.56, 29959.936, 0.023491506, -0.03333881, -475293.38, 65588.3, 0.0, 10.000306, 9.999906 
5.050039e+2, 2.5480795e+2, -398654.94, -429538.9, -30916.512, -0.07894794, -0.05878417, -379538.47, 63340.58, 0.0, 10.000281, 9.999904 
5.050007e+2, 2.6480806e+2, -357131.4, -470171.34, 2032.9095, -0.039273225, 0.01605281, -357094.84, -12216.523, 0.0, 10.000373, 9.998921 
5.049992e+2, 2.7480793e+2, -252868.77, -377900.66, 7490.3906, 0.13731861, 0.07438691, -252421.63, -5538.7417, 0.00000000061010413, 10.000446, 9.998847 
5.049949e+2, 2.8480718e+2, -175714.39, -298312.94, -4817.909, 0.08478119, 0.12910078, -175525.36, -26633.908, 0.00000027597625, 10.000347, 9.998762 
5.0498813e+2, 2.948058e+2, -119404.55, -214549.86, -31469.553, -0.13180754, 0.06958401, -109937.83, -59032.723, 0.0000049916057, 10.000026, 9.99882 
5.049862e+2, 3.048048e+2, -74323.02, -211875.05, 31905.223, 0.13432771, 0.116457954, -67282.92, -67282.92, 0.000030276777, 10.000204, 9.998421 
5.04982e+2, 3.148038e+2, 58148.41, -63653.316, -49363.18, 0.07915626, 0.12937744, 75641.67, 75641.67, 0.000090633286, 10.000674, 9.999209 
5.1505715e+2, 1.2481338e+2, -1826628.4, -1815880.9, -223394.08, -0.050105695, -0.13365938, -1597795.9, 119019.945, 0.000052165007, 9.999378, 9.999553 
5.150558e+2, 1.3481411e+2, -1529007.4, -1608918.8, 69773.74, 0.19779213, -0.09506959, -1488558.9, 130256.125, 0.000013925394, 10.000675, 9.999729 
5.150474e+2, 1.4481445e+2, -1431189.5, -1510268.8, -44468.336, -0.3492167, -0.018376749, -1411224.4, 109589.9, 0.000001645238, 10.000696, 9.99969 
5.1504487e+2, 1.5481386e+2, -1457480.1, -1473663.5, -73189.04, 0.0068896874, -0.094196275, -1391936.9, 30882.031, 0.00000003629146, 9.999866, 9.999671 
5.150409e+2, 1.6481383e+2, -1426149.3, -1413339.4, -8819.048, 0.13102423, -0.05523049, -1408844.8, -84024.586, 0.0, 9.999414, 9.999632 
5.150355e+2, 1.74814e+2, -1327001.9, -1316606.1, 20698.066, -0.013067322, -0.042113528, -1300463.3, -73641.086, 0.0, 9.999439, 9.999606 
5.150309e+2, 1.8481454e+2, -1184512.8, -1147675.4, 834.51697, -0.06551222, 0.036098182, -1147656.5, -18837.287, 0.0, 9.999528, 10.000045 
5.1502746e+2, 1.9481519e+2, -1055761.8, -1037894.2, 12289.995, -0.0049557937, 0.05647908, -1031634.0, -819.8778, 0.0, 9.999742, 10.000029 
5.150237e+2, 2.0481545e+2, -990138.4, -1001484.2, 43088.63, -0.032750145, 0.107865274, -952350.8, -19538.912, 0.0, 9.9997425, 9.999599 
5.150196e+2, 2.1481502e+2, -908005.3, -912354.06, 70171.34, -0.15824988, 0.06574781, -839974.7, -5159.1357, 0.0, 9.999633, 9.999595 
5.150165e+2, 2.2481446e+2, -791469.5, -816920.6, 12700.426, -0.11910066, 0.06017894, -786216.2, -49396.59, 0.0, 9.999796, 9.99951 
5.150143e+2, 2.3481348e+2, -657238.1, -702677.06, 35798.742, 0.08218971, -0.022908654, -637558.0, 1268.4714, 0.0, 10.000057, 9.99949 
5.150099e+2, 2.4481258e+2, -589179.0, -698578.6, 14035.831, 0.05451573, -0.02003572, -587406.94, -46572.215, 0.0, 10.000195, 9.998769 
5.1500326e+2, 2.5481147e+2, -504299.9, -612092.1, -14089.771, -0.2139067, -0.049039952, -502488.63, -59641.434, 0.0, 10.0001135, 9.998733 
5.1499957e+2, 2.6481074e+2, -334499.63, -394372.06, -11170.301, -0.22093868, -0.027941184, -332483.47, 12370.98, 0.0, 10.000255, 9.9995 
5.149989e+2, 2.7480984e+2, -224221.72, -296770.66, 33516.95, 0.026648456, -0.09767614, -211107.7, 35753.504, 0.0000000018853024, 10.000345, 9.99946 
5.1499486e+2, 2.8480932e+2, -165607.14, -265589.16, -33185.887, 0.0062213116, -0.064526156, -155594.78, -6729.712, 0.00000034894228, 10.000301, 9.999004 
5.1498747e+2, 2.9480913e+2, -125642.53, -200268.28, -21463.578, -0.24418822, -0.031416066, -119909.664, -69042.98, 0.000004315403, 9.999901, 9.998978 
5.1498646e+2, 3.0480808e+2, -51209.85, -138414.23, 40923.13, 0.10388295, -0.029399978, -35013.6, -35013.6, 0.000026122347, 10.00012, 9.998961 
5.1498306e+2, 3.148066e+2, 94518.03, 54700.055, 55905.246, 0.04079208, -0.10962404, 133953.5, 133953.5, 0.000081293096, 10.000518, 10.0000925 
5.250572e+2, 1.24818474e+2, -1880564.8, -1793892.8, -219754.44, 0.06509205, -0.051914226, -1613242.1, 103530.27, 0.000041919076, 9.998793, 9.999983 
5.250549e+2, 1.3481902e+2, -1677107.5, -1656075.3, 121756.96, 0.10643759, -0.052126456, -1544381.1, 74388.78, 0.000010470756, 9.999554, 9.999945 
5.2504885e+2, 1.4481936e+2, -1548149.0, -1572297.4, 19094.932, -0.22047561, 0.016365787, -1537631.1, -16863.447, 0.0000009776196, 9.999915, 9.999639 
5.25045e+2, 1.5481885e+2, -1388196.8, -1446006.8, -55598.254, 0.021919563, -0.048696663, -1354438.6, 68333.6, 0.000000005050013, 10.000356, 9.999622 
5.2504045e+2, 1.6481861e+2, -1284325.5, -1322018.3, 36174.01, 0.1121712, -0.036606964, -1262382.9, 62391.547, 0.0, 10.000296, 9.999835 
5.250354e+2, 1.7481829e+2, -1272486.4, -1269543.9, 29979.998, 0.030679703, -0.08848688, -1240999.0, -14220.889, 0.0, 9.999713, 9.9998045 
5.250309e+2, 1.8481877e+2, -1206306.9, -1189659.5, 51366.156, -0.011860302, -0.012645686, -1145947.0, -17171.633, 0.0, 9.999528, 9.999761 
5.2502704e+2, 1.948198e+2, -1093307.3, -1086624.4, 15849.365, -0.0030998245, 0.081146374, -1073768.0, -42999.58, 0.0, 9.999646, 9.999738 
5.2502346e+2, 2.048199e+2, -969858.7, -981040.44, 64632.613, -0.024300817, 0.1270347, -910575.6, 22192.543, 0.0, 9.999819, 9.999708 
5.2502006e+2, 2.1481873e+2, -849450.25, -874976.3, 53174.914, -0.0790848, -0.00092022866, -807528.1, 27249.697, 0.0, 9.999978, 9.999691 
5.2501714e+2, 2.2481826e+2, -751122.75, -771091.56, 19388.512, -0.03722974, -0.012340349, -739298.9, -2518.6194, 0.0, 9.999989, 9.999713 
5.2501446e+2, 2.3481818e+2, -666972.2, -687402.94, 4152.9844, 0.10620712, -0.02549118, -666160.3, -27381.701, 0.0, 9.999911, 9.99966 
5.2501e+2, 2.4481748e+2, -621366.0, -746483.75, 42785.445, 0.059122577, 0.0019395079, -608134.4, -67348.875, 0.0, 10.000104, 9.998495 
5.2500385e+2, 2.548159e+2, -463030.72, -624657.4, 49583.777, -0.17645162, -0.040191665, -449031.88, -6228.55, 0.0, 10.000536, 9.99845 
5.250001e+2, 2.648148e+2, -312991.72, -396353.28, 80227.766, -0.19410951, -0.036187105, -264263.53, 80550.91, 0.0, 10.000464, 9.999372 
5.249989e+2, 2.7481374e+2, -306613.7, -339214.84, 34447.016, 0.025960594, -0.11468918, -284805.16, -37983.29, 0.00000000009174081, 9.99983, 9.999389 
5.2499485e+2, 2.8481305e+2, -218994.98, -289650.28, -13152.099, 0.007698821, -0.09926302, -216626.2, -67799.46, 0.00000033351301, 9.999933, 9.999008 
5.2498806e+2, 2.9481253e+2, 3718.0317, -134984.77, -58030.465, -0.21116473, -0.10075373, 24794.234, 75625.06, 0.0000041082662, 10.00078, 9.998994 
5.2498734e+2, 3.048116e+2, 41898.813, -65705.53, 2606.752, 0.1760879, -0.09877768, 41961.92, 41961.92, 0.000024723933, 10.000623, 9.999236 
5.249834e+2, 3.148106e+2, -119354.164, -27518.883, -30093.068, 0.121728405, -0.15244888, -18536.41, -18536.41, 0.00007789345, 9.998945, 10.0003 
5.35056e+2, 1.248233e+2, -1807723.8, -1654475.3, -288037.4, -0.029077746, -0.023766685, -1433044.4, 283687.6, 0.000035694404, 9.998849, 10.000912 
5.350529e+2, 1.348244e+2, -1644318.5, -1582734.9, 157214.56, -0.079896666, -0.018015217, -1453325.1, 165393.23, 0.000008273398, 9.999529, 10.000465 
5.3505e+2, 1.4482495e+2, -1569563.5, -1599664.0, 16402.225, -0.1426094, 0.050389927, -1562353.0, -41640.645, 0.00000061502607, 9.99984, 9.999482 
5.3504443e+2, 1.5482447e+2, -1409649.8, -1479976.4, -22082.99, -0.107457265, 0.0009765241, -1403290.6, 19428.068, 0.00000000036285042, 10.000309, 9.999409 
5.350393e+2, 1.6482393e+2, -1283548.6, -1304853.1, -3988.593, -0.068329744, -0.014345332, -1282826.4, 41896.992, 0.0, 10.000226, 9.999989 
5.350351e+2, 1.7482316e+2, -1268489.9, -1251268.3, 24671.344, -0.00802808, -0.12592167, -1233748.3, -7020.1455, 0.0, 9.999666, 9.999957 
5.3503084e+2, 1.8482327e+2, -1253814.9, -1268654.0, 40641.383, -0.007378738, -0.06991404, -1219921.4, -91194.055, 0.0, 9.99944, 9.999259 
5.3502643e+2, 1.9482392e+2, -1146820.5, -1176344.6, 36666.6, -0.06043184, 0.034697574, -1122055.9, -91331.2, 0.0, 9.999543, 9.999176 
5.350232e+2, 2.0482355e+2, -995606.5, -985735.8, 55955.746, -0.060195897, 0.058982756, -934498.2, -1769.3031, 0.0, 9.999621, 9.9997635 
5.3502125e+2, 2.1482185e+2, -874900.6, -881001.25, 73374.84, 0.004459356, -0.12743853, -804512.7, 30230.602, 0.0, 9.999781, 9.999741 
5.350179e+2, 2.2482158e+2, -773097.7, -780530.4, 1274.189, 0.008479188, -0.12134706, -772885.3, -36141.004, 0.0, 9.999823, 9.999733 
5.350131e+2, 2.3482256e+2, -690939.6, -691917.4, 18886.854, -0.056892183, -0.034293316, -672535.3, -33801.42, 0.0, 9.999712, 9.999724 
5.3500885e+2, 2.4482252e+2, -604036.1, -675009.3, 45116.58, -0.09547745, 0.027513677, -582122.3, -41387.844, 0.0, 9.99996, 9.999052 
5.3500533e+2, 2.5482106e+2, -443936.25, -554506.56, 85296.08, -0.11730303, -0.0585472, -397575.6, 45173.965, 0.0, 10.000408, 9.998992 
5.350019e+2, 2.648202e+2, -378999.6, -513932.75, 39949.13, -0.09727203, -0.018090568, -368059.06, -23300.18, 0.0, 10.00038, 9.998606 
5.349985e+2, 2.7481952e+2, -381292.47, -467789.0, 29116.9, -0.03735161, 0.016941935, -372404.3, -125638.3, 0.0, 9.999702, 9.998578 
5.349944e+2, 2.8481808e+2, -241000.08, -319697.84, 5342.611, -0.067989774, 0.010116524, -240639.05, -91860.125, 0.00000019037492, 9.999869, 9.998831 
5.349895e+2, 2.9481578e+2, -23759.9, -169256.7, -647.27344, -0.19571277, -0.15047675, -23757.021, 27042.113, 0.0000040138116, 10.000677, 9.998813 
5.349886e+2, 3.048152e+2, 31665.12, -83671.2, -67684.08, 0.1961351, -0.09684747, 62916.87, 62916.87, 0.000024880646, 10.000603, 9.999121 
5.3498167e+2, 3.148158e+2, -157104.55, -106849.984, 24397.707, -0.026403636, 0.014952608, -96954.01, -96954.01, 0.00007745561, 9.998931, 9.999766 
5.4505646e+2, 1.2482879e+2, -1656690.5, -1589907.1, -173372.81, 0.092693396, 0.018139927, -1446739.6, 269941.88, 0.00003031358, 9.999913, 10.000876 
5.450515e+2, 1.3482931e+2, -1599398.4, -1575630.0, 121344.086, -0.17413633, -0.013176765, -1465589.5, 153081.69, 0.000006366235, 9.999908, 10.000338 
5.450511e+2, 1.4482947e+2, -1619171.4, -1604113.3, 6110.823, 0.015735997, 0.017516376, -1601945.5, -81278.04, 0.00000037085837, 9.999418, 9.999664 
5.4504436e+2, 1.5482947e+2, -1562600.9, -1528548.9, -42373.96, -0.07785495, -0.0020048197, -1499908.3, -77239.76, 0.00000000007720086, 9.999149, 9.999639 
5.450389e+2, 1.648291e+2, -1424242.8, -1403145.9, 16075.843, -0.08506942, 0.0025410925, -1394466.6, -69794.97, 0.0, 9.999422, 9.999684 
5.4503536e+2, 1.7482825e+2, -1214021.6, -1256388.5, -28770.742, 0.029755948, -0.08567506, -1199477.0, 27201.063, 0.0, 10.000209, 9.999646 
5.450313e+2, 1.848278e+2, -1095139.5, -1211295.9, 10933.324, 0.052174073, -0.06109796, -1094119.3, 34562.91, 0.0, 10.000593, 9.99911 
5.4502684e+2, 1.948275e+2, -1003070.2, -1119185.8, 4638.0464, -0.016498927, -0.039493762, -1002885.2, 27801.488, 0.0, 10.00057, 9.999078 
5.450234e+2, 2.0482698e+2, -914376.7, -973074.25, 51489.145, -0.026817443, -0.014015472, -884459.25, 48233.113, 0.0, 10.000285, 9.999543 
5.450212e+2, 2.1482593e+2, -923128.06, -924779.06, 18872.154, 0.041936122, -0.11175623, -905063.3, -70360.77, 0.0, 9.999546, 9.999554 
5.450176e+2, 2.2482587e+2, -823050.9, -778344.2, -11044.585, 0.030616464, -0.087109774, -775764.56, -39062.348, 0.0, 9.999356, 9.999972 
5.450126e+2, 2.3482655e+2, -669121.94, -657700.4, -12620.344, -0.0673051, -0.053827938, -649558.9, -10864.815, 0.0, 9.999755, 9.999943 
5.450088e+2, 2.4482659e+2, -567845.7, -625379.56, 49906.805, -0.0919836, -0.009861006, -539008.56, 1684.4547, 0.0, 10.000063, 9.999348 
5.4500633e+2, 2.5482565e+2, -444745.38, -521776.03, 34602.434, -0.039133564, -0.07579641, -431484.66, 11217.766, 0.0, 10.0002575, 9.999293 
5.45003e+2, 2.6482502e+2, -376102.97, -517880.9, 20529.629, -0.013576783, -0.02294946, -373190.1, -28481.287, 0.0, 10.000427, 9.998553 
5.449989e+2, 2.7482426e+2, -251367.34, -408398.97, 29670.26, -0.0005202451, 0.00837739, -245948.31, 768.1473, 0.0, 10.000611, 9.998547 
5.449948e+2, 2.848227e+2, -158517.67, -298775.13, 86477.81, -0.04867696, -0.0030563641, -117307.055, 31424.297, 0.00000011177434, 10.000527, 9.998661 
5.4499036e+2, 2.9482025e+2, -111681.234, -223971.27, 47140.926, -0.13910644, -0.15796627, -94515.07, -43761.273, 0.0000045059896, 10.000158, 9.998675 
5.4498893e+2, 3.0481973e+2, -60993.492, -141208.97, -22981.123, 0.21616013, -0.08539706, -54876.098, -54876.098, 0.000026381855, 10.000025, 9.998991 
5.449816e+2, 3.1481975e+2, -46119.29, -20391.6, 70645.01, 0.052165348, -0.024369115, 38551.21, 38551.21, 0.00007890932, 9.999577, 10.000024 
5.550574e+2, 1.248353e+2, -1715452.0, -1704376.1, -142643.2, 0.124916, 0.122471385, -1567163.4, 149454.27, 0.000026661766, 9.999891, 10.000097 
5.550503e+2, 1.3483375e+2, -1663551.3, -1704012.6, 125104.22, -0.3229086, -0.025807148, -1557052.5, 61575.71, 0.0000052899522, 9.999884, 9.999477 
5.5505174e+2, 1.4483285e+2, -1589047.0, -1519383.0, -27697.04, 0.098565504, -0.088798665, -1509713.4, 10920.394, 0.00000021782215, 9.999335, 10.000279 
5.5504423e+2, 1.5483387e+2, -1525144.5, -1441500.6, -32165.184, -0.039858915, -0.06552574, -1430562.0, -7940.285, 0.00000000000011946363, 9.999112, 10.000257 
5.550386e+2, 1.6483425e+2, -1486503.3, -1522922.1, 28160.533, -0.091910735, 0.020172013, -1471177.6, -146559.13, 0.0, 9.999381, 9.998883 
5.550356e+2, 1.7483352e+2, -1284872.6, -1386754.4, 15631.475, 0.0011732832, 0.030520333, -1282528.3, -55899.59, 0.0, 10.000135, 9.998791 
5.5503196e+2, 1.8483236e+2, -1092935.1, -1177254.5, -5619.3335, 0.031497154, 0.013213113, -1092562.3, 36077.824, 0.0, 10.000466, 9.999407 
5.550278e+2, 1.9483049e+2, -999357.6, -1086359.4, 21039.736, -0.015307121, -0.14989808, -994536.7, 36118.793, 0.0, 10.000455, 9.999365 
5.5502355e+2, 2.048301e+2, -968456.06, -1045207.94, 8794.02, -0.06731294, -0.10532305, -967461.4, -34801.57, 0.0, 10.000117, 9.999126 
5.550195e+2, 2.1483095e+2, -982161.44, -1003663.56, 8061.104, -0.11554481, 0.030577, -979475.0, -144819.13, 0.0, 9.999353, 9.999107 
5.550158e+2, 2.2483106e+2, -825391.56, -737268.6, -11243.294, -0.11349122, 0.07486473, -735856.75, 798.10187, 0.0, 9.999162, 10.000349 
5.5501264e+2, 2.3483008e+2, -672514.8, -614984.4, 19045.404, -0.0704726, -0.09532703, -609250.8, 29408.855, 0.0, 9.999542, 10.000338 
5.550095e+2, 2.4482968e+2, -586912.25, -631889.3, 44072.055, -0.06483656, -0.11403629, -559922.7, -19261.514, 0.0, 9.999912, 9.999383 
5.5500627e+2, 2.5482962e+2, -463724.13, -525473.25, 62139.395, -0.10267458, -0.09504296, -425211.78, 17450.326, 0.0, 10.000096, 9.9993515 
5.5500305e+2, 2.6482916e+2, -345677.25, -427422.16, 12941.285, -0.08405656, -0.061079945, -343677.4, 987.4546, 0.0, 10.000319, 9.999221 
5.5499977e+2, 2.7482787e+2, -226719.95, -328712.75, 55041.46, -0.015535064, -0.14820766, -202681.73, 43992.703, 0.0, 10.00049, 9.999153 
5.549954e+2, 2.848267e+2, -177158.47, -324435.63, 55370.848, -0.06299318, -0.14121479, -158663.61, -9978.1875, 0.00000024371042, 10.000465, 9.998519 
5.5499e+2, 2.948257e+2, -137184.45, -259456.45, 53185.363, -0.2366827, -0.13772841, -117287.78, -66590.24, 0.0000058589785, 10.000068, 9.998483 
5.5498785e+2, 3.04825e+2, -78253.59, -152267.83, -48837.457, 0.07227127, -0.06937265, -53985.723, -53985.723, 0.000029984647, 9.999934, 9.99895 
5.549821e+2, 3.1482232e+2, -3659.859, 102708.82, 153245.14, 0.066672295, -0.27750757, 211736.22, 211736.22, 0.00008416486, 9.999423, 10.000947 
5.650586e+2, 1.2484002e+2, -1598740.1, -1694546.1, -40011.934, 0.22359224, 0.10047176, -1584227.9, 132340.95, 0.000022362967, 10.00089, 9.999665 
5.6505007e+2, 1.348384e+2, -1758675.6, -1778757.6, 72158.33, -0.29070574, -0.030804027, -1695863.0, -77281.85, 0.000004259607, 9.999365, 9.999189 
5.650523e+2, 1.4483704e+2, -1646224.3, -1563114.6, 6972.452, 0.24828884, -0.12166898, -1562533.8, -41942.227, 0.00000013010742, 9.99898, 10.000167 
5.650443e+2, 1.5483767e+2, -1369084.1, -1372256.1, -79658.305, 0.007918522, -0.12881252, -1290996.0, 131586.56, 0.0, 10.000199, 10.000215 
5.6503856e+2, 1.6483799e+2, -1314968.3, -1467577.1, 5574.545, -0.088500805, -0.034533627, -1314764.9, 9815.076, 0.0, 10.000653, 9.998662 
5.65036e+2, 1.7483748e+2, -1261782.0, -1396760.8, 9454.551, 0.025892586, 0.01491595, -1261123.0, -34533.74, 0.0, 10.000369, 9.998609 
5.650326e+2, 1.8483645e+2, -1139843.0, -1197422.9, 21269.9, 0.067331694, 0.016462332, -1132838.1, -4237.8457, 0.0, 10.000145, 9.999409 
5.650282e+2, 1.948346e+2, -1090530.0, -1123567.0, -2320.7466, 0.022270307, -0.1469589, -1090367.8, -59752.445, 0.0, 9.999816, 9.999398 
5.650236e+2, 2.0483428e+2, -999584.2, -1035180.75, 29284.72, -0.043858647, -0.108540244, -983113.4, -50494.957, 0.0, 9.999808, 9.999334 
5.650192e+2, 2.1483533e+2, -858905.06, -915022.4, 45300.867, -0.10951457, 0.025549365, -833677.1, 933.9264, 0.0, 10.000091, 9.999349 
5.6501555e+2, 2.2483532e+2, -703902.9, -728834.3, 68533.555, -0.09932766, 0.06833175, -646710.5, 89900.836, 0.0, 10.000215, 9.999903 
5.65013e+2, 2.3483387e+2, -621729.8, -638785.0, 6242.974, -0.0009615654, -0.104764625, -619688.8, 18934.188, 0.0, 10.000104, 9.999902 
5.650101e+2, 2.448334e+2, -556282.94, -591859.0, 35903.934, 0.01205883, -0.119857244, -534002.2, 6623.594, 0.0, 10.000042, 9.999573 
5.6500673e+2, 2.5483358e+2, -449155.56, -496888.75, 28092.352, -0.058008272, -0.092138134, -436160.3, 6462.335, 0.0, 10.00012, 9.999521 
5.650034e+2, 2.648331e+2, -347875.0, -419699.38, -1932.6195, -0.06670779, -0.07779868, -347823.03, -3197.5542, 0.0, 10.000257, 9.999308 
5.650002e+2, 2.748315e+2, -229121.06, -314606.28, -32511.36, -0.0034659668, -0.20445725, -218161.55, 28475.992, 0.0, 10.000412, 9.999283 
5.6499624e+2, 2.848306e+2, -183359.39, -319178.63, -21922.4, -0.017005771, -0.18440935, -179908.6, -31262.158, 0.00000046127252, 10.000357, 9.998617 
5.6499135e+2, 2.9483038e+2, -128607.05, -249751.44, -34871.957, -0.10350632, -0.1134054, -119286.15, -68634.195, 0.000007820285, 10.000081, 9.998553 
5.649877e+2, 3.0482924e+2, -55731.94, -150746.83, -79640.6, 0.071706586, -0.087341145, -10505.453, -10505.453, 0.00003595913, 10.000107, 9.998889 
5.649817e+2, 3.148272e+2, 105218.01, 188863.45, 85919.01, 0.06959699, -0.2331838, 242598.13, 242598.13, 0.000094486146, 10.000013, 10.001258 
5.750596e+2, 1.2484269e+2, -1605912.9, -1692729.3, 2857.2974, 0.1473078, -0.07556242, -1605819.0, 110718.94, 0.000015098279, 10.00083, 9.999695 
5.750502e+2, 1.3484307e+2, -1749274.1, -1753253.4, 18830.373, -0.25789928, -0.033360593, -1732328.6, -113796.25, 0.0000026568694, 9.999335, 9.999376 
5.750522e+2, 1.4484186e+2, -1700932.9, -1662115.6, 24711.361, 0.2985315, -0.08432124, -1650102.1, -129559.7, 0.000000050157187, 9.998923, 9.999514 
5.7504404e+2, 1.548408e+2, -1427261.6, -1479283.6, -17192.115, -0.07639791, -0.18870507, -1422093.4, 458.20737, 0.0, 10.000142, 9.999512 
5.7503825e+2, 1.648403e+2, -1293318.6, -1400452.5, -23827.164, -0.21761946, -0.16469873, -1288258.4, 36298.117, 0.0, 10.000557, 9.999165 
5.75036e+2, 1.7484012e+2, -1236995.1, -1329528.9, 14534.136, -0.04867289, -0.13594219, -1234766.0, -8206.185, 0.0, 10.0002985, 9.9991045 
5.7503253e+2, 1.8484008e+2, -1169946.9, -1233528.0, -5518.2373, 0.015304038, -0.047555964, -1169471.5, -40909.6, 0.0, 10.000036, 9.999212 
5.750276e+2, 1.9483986e+2, -1126478.9, -1163427.4, 1178.3678, -0.05404787, -0.027830407, -1126441.4, -95875.16, 0.0, 9.999669, 9.999195 
5.750233e+2, 2.0483962e+2, -968429.06, -925318.25, 22223.848, -0.08823664, -0.014361629, -915913.44, 16654.04, 0.0, 9.999611, 10.000184 
5.750197e+2, 2.1483913e+2, -830569.25, -807280.1, 71712.71, -0.089803234, -0.11814385, -746272.7, 88294.914, 0.0, 9.999881, 10.00019 
5.750164e+2, 2.2483869e+2, -810982.56, -911734.3, 48086.426, -0.067990065, -0.10269959, -791716.25, -55144.484, 0.0, 10.000038, 9.9987335 
5.750132e+2, 2.3483796e+2, -733107.25, -826818.7, 19544.373, -0.022723181, -0.08188429, -729194.5, -90610.91, 0.0, 9.999914, 9.998703 
5.7501024e+2, 2.4483767e+2, -555974.8, -568312.75, 21872.809, -0.013461401, -0.028996767, -539417.7, 1169.386, 0.0, 9.999928, 9.999797 
5.7500726e+2, 2.5483745e+2, -454239.84, -472303.88, 50224.316, -0.05718667, -0.068870276, -412241.88, 30343.518, 0.0, 9.999958, 9.999774 
5.750038e+2, 2.648367e+2, -387442.7, -485397.78, -12980.775, -0.09417612, -0.074260935, -385751.72, -41160.637, 0.0, 10.0001745, 9.998903 
5.7499975e+2, 2.7483502e+2, -268209.97, -379475.9, -11617.016, -0.12873724, -0.16760316, -267010.0, -20402.574, 0.0, 10.0003195, 9.998894 
5.749964e+2, 2.848343e+2, -162573.42, -253663.44, -48740.688, -0.06780888, -0.13393436, -141410.1, 7205.177, 0.0000006054728, 10.000267, 9.999109 
5.7499367e+2, 2.9483423e+2, -115306.87, -192672.94, -22509.434, 0.079885334, -0.09656038, -109234.44, -58616.7, 0.000009307056, 9.999959, 9.999002 
5.749882e+2, 3.0483255e+2, -71942.43, -164908.33, -90094.875, 0.07301094, -0.14293778, -17046.137, -17046.137, 0.000040671366, 10.000031, 9.998829 
5.7497954e+2, 3.1483364e+2, 63174.32, 128707.44, 140176.0, -0.22947012, 0.03638288, 239895.58, 239895.58, 0.000103750725, 9.999899, 10.000904 
5.850607e+2, 1.2484643e+2, -1677729.4, -1728662.3, 73554.45, 0.22521767, -0.087522484, -1625357.5, 91143.555, 0.000008007214, 10.0003, 9.999726 
5.850503e+2, 1.3484703e+2, -1708581.6, -1707709.3, -93039.27, -0.17153881, -0.04159725, -1615105.1, 3388.354, 0.0000012151539, 9.999491, 9.999624 
5.850512e+2, 1.4484622e+2, -1693008.6, -1659778.1, 57818.05, 0.3166919, -0.062691875, -1616235.3, -95735.016, 0.000000012980553, 9.999024, 9.999452 
5.8504444e+2, 1.5484528e+2, -1529420.5, -1530967.5, 21395.62, -0.0032459775, -0.15323101, -1508784.4, -86275.555, 0.0, 9.999477, 9.999448 
5.850391e+2, 1.6484468e+2, -1387817.6, -1422494.0, 33729.41, -0.14733146, -0.14921778, -1367231.1, -42716.797, 0.0, 9.999796, 9.999387 
5.8503616e+2, 1.7484426e+2, -1268344.5, -1316547.3, 20919.523, -0.0367968, -0.16430926, -1260531.9, -34013.83, 0.0, 9.999951, 9.999367 
5.8503264e+2, 1.8484429e+2, -1165264.5, -1251633.3, 22054.074, 0.02467041, -0.07693479, -1159959.0, -31439.484, 0.0, 10.000148, 9.999043 
5.850282e+2, 1.9484432e+2, -1044744.6, -1148362.1, -2655.3542, 0.019117232, -0.010021154, -1044676.6, -14153.723, 0.0, 10.000321, 9.999 
5.8502394e+2, 2.0484397e+2, -866874.4, -884753.06, 24109.463, -0.012017987, 0.00607237, -850100.4, 82425.195, 0.0, 10.000338, 10.000111 
5.8501995e+2, 2.1484296e+2, -790494.3, -800307.94, -25963.227, -0.064315856, -0.14463392, -768978.3, 65551.75, 0.0, 10.000191, 10.000095 
5.8501655e+2, 2.2484243e+2, -797122.25, -915086.3, -15024.914, -0.052589145, -0.12962253, -795238.6, -58703.586, 0.0, 10.000184, 9.998645 
5.8501375e+2, 2.3484206e+2, -682688.75, -817882.6, 4201.3047, 0.027091287, -0.061064042, -682558.3, -44014.324, 0.0, 10.0003195, 9.99858 
5.8501095e+2, 2.4484172e+2, -503842.22, -554411.44, 70333.28, 0.052261494, -0.00028536303, -454386.72, 86161.37, 0.0, 10.00034, 9.999684 
5.85008e+2, 2.5484112e+2, -401550.97, -456494.88, 36137.125, 0.012135247, -0.07000703, -383629.1, 58920.85, 0.0, 10.000373, 9.99967 
5.850044e+2, 2.6484036e+2, -378247.47, -486551.94, 8259.062, -0.046947815, -0.06424144, -377621.28, -33064.945, 0.0, 10.00028, 9.9988365 
5.850001e+2, 2.748392e+2, -303707.3, -398680.34, 2769.3105, -0.10405756, -0.099595666, -303626.63, -57056.836, 0.0, 10.000115, 9.998846 
5.849968e+2, 2.848387e+2, -177456.7, -233400.31, -3426.9702, -0.03394925, -0.052684594, -177247.56, -28671.824, 0.00000055145284, 10.000052, 9.999343 
5.8499444e+2, 2.9483846e+2, -95707.49, -153458.23, -33479.266, 0.17404793, -0.059259083, -80371.46, -29793.004, 0.000008783807, 9.999967, 9.999262 
5.8498794e+2, 3.0483675e+2, -31090.303, -135515.06, -47292.15, 0.045493383, -0.1266763, -12856.394, -12856.394, 0.000039667964, 10.000272, 9.998909 
5.849803e+2, 3.1483868e+2, 119769.69, 96562.55, 115151.305, -0.15972255, 0.12680325, 223900.58, 223900.58, 0.00010388018, 10.00055, 10.0003605 
5.950618e+2, 1.2485108e+2, -1655757.9, -1675684.9, 91062.59, 0.21392512, 0.058920935, -1574115.4, 142344.47, 0.0000033727015, 10.000295, 10.00008 
5.950501e+2, 1.3485037e+2, -1688744.4, -1661688.8, -116669.06, -0.1767203, -0.058094308, -1557765.9, 60698.254, 0.00000044999516, 9.999482, 9.999942 
5.9504896e+2, 1.4485018e+2, -1662669.5, -1585821.0, 50512.38, 0.1403047, -0.061847907, -1560779.3, -40314.92, 0.000000014541682, 9.998979, 9.999978 
5.95045e+2, 1.5485103e+2, -1501300.6, -1463189.9, 54062.63, 0.06342504, -0.023803229, -1424922.6, -2467.6973, 0.0, 9.999436, 9.999935 
5.950404e+2, 1.648511e+2, -1399026.6, -1425042.3, 22274.125, -0.02831232, 0.022122832, -1386240.3, -61786.992, 0.0, 9.99972, 9.9994 
5.9503603e+2, 1.7484996e+2, -1277648.6, -1316482.3, 43030.453, -0.08299685, -0.06779004, -1249857.0, -23393.719, 0.0, 9.999878, 9.999397 
5.950324e+2, 1.84849e+2, -1194894.8, -1286448.5, 9779.765, -0.04759589, -0.070172034, -1193861.8, -65388.63, 0.0, 10.000033, 9.998861 
5.950295e+2, 1.9484791e+2, -1080434.9, -1185516.8, 19442.467, 0.07742095, -0.09857538, -1076953.0, -46467.188, 0.0, 10.000167, 9.9988165 
5.9502506e+2, 2.0484732e+2, -958265.75, -1033885.5, 3451.489, 0.034377735, -0.050125126, -958108.5, -25615.645, 0.0, 10.000161, 9.999172 
5.950193e+2, 2.1484692e+2, -886291.3, -951669.2, -14715.771, -0.17921728, -0.045739654, -883131.7, -48634.254, 0.0, 9.99999, 9.99915 
5.9501565e+2, 2.2484663e+2, -753725.06, -789612.44, -27811.14, -0.19113901, -0.004673365, -738571.4, -2071.2595, 0.0, 10.000022, 9.99959 
5.950141e+2, 2.3484613e+2, -645190.25, -693955.0, 26417.158, 0.000261789, -0.046313476, -633623.1, 4881.1836, 0.0, 10.000115, 9.999534 
5.950117e+2, 2.4484552e+2, -556010.0, -631190.8, 56979.07, 0.062102105, -0.03785879, -525338.75, 15170.115, 0.0, 10.000199, 9.999229 
5.9500843e+2, 2.5484458e+2, -454917.66, -533329.5, 52058.355, -0.018806865, -0.09490626, -428953.22, 13563.086, 0.0, 10.000223, 9.999216 
5.9500474e+2, 2.648442e+2, -370701.25, -448876.6, -15836.529, -0.07099725, -0.0442856, -367615.0, -23094.38, 0.0, 10.000187, 9.999144 
5.9500074e+2, 2.7484414e+2, -302705.5, -368205.63, 15479.091, -0.09244659, -0.0007799963, -299231.7, -52707.12, 0.0, 9.999993, 9.999119 
5.94997e+2, 2.8484386e+2, -192388.72, -242035.6, -19702.994, -0.060824275, 0.05582884, -185519.72, -36991.543, 0.0000003359344, 9.999962, 9.999324 
5.949931e+2, 2.94843e+2, -111789.36, -153668.72, -15456.604, -0.004834292, -0.011156416, -106702.57, -56167.367, 0.000006914508, 9.999832, 9.999321 
5.9498644e+2, 3.0484176e+2, -24837.662, -110422.055, -45925.65, -0.15929003, -0.04780118, -4857.753, -4857.753, 0.000035638073, 10.000212, 9.999113 
5.9498286e+2, 3.1484255e+2, 60409.34, 2284.5588, 138328.28, -0.043344025, 0.07790177, 172695.22, 172695.22, 0.00009897654, 10.000428, 9.999767 
6.0506153e+2, 1.24855116e+2, -1700528.0, -1695129.6, 204977.08, 0.19314298, 0.06662126, -1492834.0, 223586.97, 0.0000011596172, 9.999974, 10.0001135 
6.05051e+2, 1.3485453e+2, -1702936.3, -1656839.6, -136683.36, -0.013613715, -0.041872717, -1541274.9, 77150.43, 0.00000014603442, 9.999356, 10.000024 
6.050478e+2, 1.448545e+2, -1609149.5, -1569384.5, 99325.63, 0.122649446, -0.028011275, -1487970.9, 32453.412, 0.0000000031309833, 9.999353, 9.999939 
6.050454e+2, 1.5485525e+2, -1350097.4, -1395364.4, 22703.543, 0.11555175, 0.007564337, -1340672.8, 81743.16, 0.0, 10.000476, 9.999921 
6.0504127e+2, 1.6485527e+2, -1272571.3, -1390330.3, -42137.117, 0.04942433, 0.06098671, -1259046.8, 65368.305, 0.0, 10.000679, 9.999193 
6.050362e+2, 1.7485414e+2, -1300393.4, -1352106.0, -70703.22, -0.03794148, -0.0069659688, -1250967.0, -24541.121, 0.0, 9.999816, 9.999195 
6.050325e+2, 1.8485302e+2, -1217802.4, -1280613.8, -36751.543, -0.012140549, -0.023858361, -1200865.6, -72428.63, 0.0, 9.99982, 9.998995 
6.0503036e+2, 1.9485156e+2, -983517.3, -1120938.8, -37111.563, 0.13186015, -0.10248111, -974135.56, 56315.883, 0.0, 10.000768, 9.998966 
6.050261e+2, 2.04851e+2, -884651.56, -1033399.25, -25532.492, 0.09708933, -0.04373022, -880390.94, 52067.523, 0.0, 10.000817, 9.99887 
6.050197e+2, 2.1485095e+2, -932958.8, -1010827.1, -29374.436, -0.119937025, 0.031041753, -923120.8, -88659.05, 0.0, 9.999824, 9.998835 
6.05016e+2, 2.2485064e+2, -794055.3, -786989.06, 24445.695, -0.12917136, 0.077455, -765822.5, -29357.63, 0.0, 9.999676, 9.999756 
6.0501504e+2, 2.3484972e+2, -581076.8, -635092.56, -15565.1455, 0.076703124, -0.025428275, -576912.56, 61558.41, 0.0, 10.000467, 9.999746 
6.050126e+2, 2.4484889e+2, -518333.6, -618419.7, 4669.6787, 0.12204797, -0.048450153, -518116.2, 22360.604, 0.0, 10.000493, 9.999176 
6.0500854e+2, 2.5484788e+2, -532817.6, -578185.56, 350.87955, 0.0023448204, -0.10198569, -532814.9, -90330.01, 0.0, 9.999728, 9.999152 
6.050047e+2, 2.6484767e+2, -444035.56, -458866.75, -5291.834, -0.051918086, -0.042911828, -442341.03, -97853.48, 0.0, 9.999575, 9.999368 
6.0500133e+2, 2.7484792e+2, -279336.06, -331861.47, -17396.008, -0.020684335, 0.010683579, -274097.16, -27609.281, 0.0, 10.000033, 9.99935 
6.049976e+2, 2.848476e+2, -164145.45, -234933.17, -29887.613, 0.0021605748, 0.054267313, -153214.42, -4723.1787, 0.00000016006682, 10.000185, 9.999273 
6.04993e+2, 2.948465e+2, -80735.11, -141984.22, -60733.26, 0.00085330085, -0.03024874, -43342.074, 7157.7397, 0.0000052467194, 10.000061, 9.999297 
6.0498625e+2, 3.048454e+2, 7178.434, -125950.0, -53933.035, -0.203236, -0.038398944, 26285.49, 26285.49, 0.000031333126, 10.000577, 9.998831 
6.0498464e+2, 3.1484455e+2, 148720.92, 7367.1357, -12405.863, 0.06685504, -0.04030655, 149801.47, 149801.47, 0.00009226463, 10.001175, 9.999466 
6.1505944e+2, 1.24858566e+2, -1708533.5, -1700246.8, 127741.34, -0.08918161, -0.05213672, -1576581.6, 139802.84, 0.000000319301, 9.999937, 10.000087 
6.150524e+2, 1.3485944e+2, -1721581.1, -1693154.8, -148862.64, 0.1558538, 0.008065616, -1557828.4, 60549.414, 0.000000018009526, 9.999354, 9.999774 
6.150473e+2, 1.448592e+2, -1653288.0, -1662800.6, 113123.29, 0.083961874, 0.045673165, -1544821.1, -24440.58, 0.0, 9.999355, 9.999295 
6.1504513e+2, 1.5485792e+2, -1393746.9, -1489574.8, 78006.945, 0.0047674268, -0.058681827, -1350113.9, 72277.98, 0.0, 10.000476, 9.999279 
6.1504126e+2, 1.6485725e+2, -1307935.3, -1447526.0, -91445.15, -0.05615267, -0.026287379, -1262693.3, 61706.0, 0.0, 10.00061, 9.998836 
6.150363e+2, 1.7485683e+2, -1336404.6, -1416465.4, -86072.984, -0.045746926, 0.012876699, -1281508.8, -55103.004, 0.0, 9.999763, 9.998784 
6.150327e+2, 1.8485631e+2, -1207350.3, -1227787.4, -16061.843, -0.015953813, 0.05874322, -1198532.0, -70120.71, 0.0, 9.999687, 9.999417 
6.150305e+2, 1.9485539e+2, -970865.75, -1070109.3, 17660.318, 0.036750615, -0.009885687, -967816.75, 62601.72, 0.0, 10.000657, 9.999371 
6.1502653e+2, 2.0485513e+2, -884479.7, -993996.1, -77120.266, 0.0301661, 0.040899813, -844654.6, 87766.35, 0.0, 10.000653, 9.999216 
6.150207e+2, 2.1485515e+2, -941747.9, -979417.06, -50834.266, -0.032746848, 0.086502135, -906371.2, -71948.95, 0.0, 9.999611, 9.999153 
6.150172e+2, 2.2485451e+2, -866431.75, -893872.8, 40990.184, -0.011967594, 0.1160029, -836926.75, -100497.98, 0.0, 9.99949, 9.99911 
6.15016e+2, 2.3485287e+2, -655704.75, -743715.3, 32455.768, 0.09679598, 0.0050684432, -645030.56, -6586.793, 0.0, 10.000269, 9.999095 
6.15013e+2, 2.448518e+2, -511233.0, -574000.0, -41634.84, 0.08002801, -0.027929991, -490478.38, 49973.59, 0.0, 10.000361, 9.999546 
6.1500776e+2, 2.5485104e+2, -528956.0, -538289.94, -12203.021, -0.08221427, -0.09730138, -520557.97, -78102.04, 0.0, 9.999583, 9.999499 
6.1500376e+2, 2.6485074e+2, -452079.44, -452354.28, -4005.5693, -0.13434047, -0.068108834, -448208.94, -103751.49, 0.0, 9.999474, 9.99946 
6.150013e+2, 2.7485055e+2, -293285.1, -328233.16, 18180.457, -0.06088949, -0.07088849, -285542.63, -39082.555, 0.0, 9.999893, 9.999439 
6.149981e+2, 2.8485e+2, -180561.06, -253696.4, -52969.973, 0.0022222304, -0.05090363, -152762.5, -4297.8027, 0.00000012615395, 10.0001135, 9.999178 
6.149935e+2, 2.948491e+2, -102736.94, -160740.16, -42470.93, 0.00023292682, -0.10969527, -80310.22, -29839.033, 0.000004351736, 9.9999485, 9.999217 
6.1498684e+2, 3.048477e+2, -59598.887, -257058.38, -39374.953, -0.2418419, -0.10259711, -52036.82, -52036.82, 0.000027327982, 10.000537, 9.99796 
6.149845e+2, 3.1484473e+2, 125844.23, -7709.9136, 17090.697, -0.14021973, -0.2219973, 127996.61, 127996.61, 0.00008384043, 10.0010395, 9.999432 
6.25058e+2, 1.2486221e+2, -2052347.9, -1863574.9, 109038.38, -0.09110652, -0.07804938, -1813745.6, -97396.33, 0.00000004128188, 9.997556, 10.000128 
6.2505394e+2, 1.3486367e+2, -1488046.3, -1584712.6, -169961.55, 0.31032908, 0.047527026, -1359679.0, 258658.63, 0.000000000001578113, 10.000953, 9.999764 
6.250475e+2, 1.4486319e+2, -1359075.4, -1559441.5, 95926.83, 0.070491955, 0.08038666, -1320555.1, 199788.25, 0.0, 10.001536, 9.998959 
6.250456e+2, 1.5486147e+2, -1518225.4, -1577073.4, 55887.227, 0.051696412, -0.039763127, -1484489.6, -62129.97, 0.0, 9.999764, 9.999007 
6.25042e+2, 1.6486053e+2, -1444463.0, -1502227.4, -25148.365, 0.014816455, -0.023127364, -1435048.8, -110679.234, 0.0, 9.9996605, 9.998896 
6.250373e+2, 1.7486009e+2, -1118922.5, -1296043.0, -31764.83, 0.014923837, 0.0074254354, -1113398.1, 112977.83, 0.0, 10.001235, 9.998877 
6.250335e+2, 1.8485981e+2, -956770.0, -1109320.9, 51841.234, 0.024416722, 0.07345748, -940820.4, 187558.22, 0.0, 10.001383, 9.999432 
6.250307e+2, 1.9485936e+2, -1077255.0, -1117186.3, 27704.762, 0.038465217, 0.045555823, -1063071.3, -32690.19, 0.0, 9.9998865, 9.999426 
6.250268e+2, 2.0485894e+2, -1013778.7, -1053125.9, -47295.777, 0.049075037, 0.07626849, -982227.9, -49843.516, 0.0, 9.999736, 9.999263 
6.25022e+2, 2.148582e+2, -732828.1, -866584.8, -73983.984, 0.072575495, 0.041003063, -699975.1, 134416.89, 0.0, 10.000992, 9.999264 
6.250184e+2, 2.2485748e+2, -655314.2, -811250.2, 42956.88, 0.09899126, 0.06387505, -644263.6, 92135.82, 0.0, 10.00101, 9.998955 
6.2501633e+2, 2.3485643e+2, -749033.7, -811958.4, 42801.47, 0.14133583, 0.031398606, -727375.0, -88964.93, 0.0, 9.999709, 9.998912 
6.2501305e+2, 2.4485555e+2, -630393.7, -625558.75, 21708.887, 0.10124578, 0.026110021, -606133.1, -65716.2, 0.0, 9.999505, 9.999611 
6.2500817e+2, 2.5485465e+2, -384641.38, -458338.6, -8111.6675, -0.03338907, -0.065481625, -383759.13, 58663.383, 0.0, 10.000527, 9.999592 
6.2500435e+2, 2.648541e+2, -265580.16, -372051.44, 5160.6724, -0.084917456, -0.063011326, -265330.6, 79095.21, 0.0, 10.000782, 9.999383 
6.250016e+2, 2.748535e+2, -262201.84, -325522.84, -20663.758, -0.025999004, -0.097522065, -256055.22, -9624.019, 0.0, 10.000145, 9.999342 
6.2499845e+2, 2.8485283e+2, -189490.19, -282733.06, -50940.88, 0.033205014, -0.06918583, -167057.06, -18620.496, 0.000000116905284, 10.000164, 9.998954 
6.2499446e+2, 2.948521e+2, 9758.774, -142093.34, -90118.66, 0.061610676, -0.08329348, 51672.17, 102114.66, 0.000004287332, 10.000854, 9.998924 
6.2498814e+2, 3.0485016e+2, 21393.398, -236244.75, -35717.313, -0.17951788, -0.103852734, 26253.344, 26253.344, 0.000025852014, 10.001193, 9.997772 
6.249858e+2, 3.148475e+2, 101272.97, -11392.931, -23673.78, -0.08029603, -0.18344149, 106045.25, 106045.25, 0.00007870898, 10.0008545, 9.999481 
6.350562e+2, 1.2486607e+2, -2034010.6, -1844870.3, 77644.02, -0.11204395, -0.000009113973, -1817079.9, -100764.82, 0.000000010756334, 9.997632, 10.000226 
6.350552e+2, 1.3486709e+2, -1478927.3, -1571795.0, -40865.254, 0.29920822, 0.07209031, -1463505.9, 154800.86, 0.0, 10.000965, 9.999858 
6.3504803e+2, 1.4486651e+2, -1356090.9, -1532240.0, 6104.2266, -0.074656196, 0.07999339, -1355879.6, 164433.34, 0.0, 10.001454, 9.999181 
6.3504636e+2, 1.5486594e+2, -1508260.6, -1556009.3, 10056.6, 0.11371373, 0.056083627, -1506229.0, -83910.57, 0.0, 9.999759, 9.999158 
6.35043e+2, 1.6486509e+2, -1425082.6, -1455921.6, 14718.816, 0.11730392, 0.05941014, -1419185.4, -94859.33, 0.0, 9.999624, 9.999235 
6.350388e+2, 1.7486382e+2, -1098818.5, -1250338.0, 44112.137, 0.0015996823, -0.029133612, -1086911.8, 139425.95, 0.0, 10.001201, 9.999217 
6.350346e+2, 1.8486333e+2, -993680.1, -1156750.5, -19887.06, -0.038273077, 0.009984479, -991289.8, 137051.75, 0.0, 10.001264, 9.99916 
6.350304e+2, 1.9486323e+2, -1118008.1, -1171605.6, -14623.457, -0.015923819, 0.048488922, -1114277.9, -83936.48, 0.0, 9.999755, 9.999116 
6.350265e+2, 2.0486227e+2, -1058141.3, -1101090.3, -18013.23, 0.012605978, 0.0540902, -1051586.6, -119236.375, 0.0, 9.999546, 9.9990225 
6.3502294e+2, 2.1486008e+2, -779189.44, -913634.6, -9040.921, 0.04511262, -0.10723483, -778584.2, 55787.36, 0.0, 10.000778, 9.999042 
6.3501936e+2, 2.2485954e+2, -661363.25, -774732.9, -20256.18, 0.06359848, -0.07154987, -657852.7, 78524.44, 0.0, 10.000805, 9.999301 
6.3501555e+2, 2.3486036e+2, -757022.25, -778140.3, 11900.753, 0.061882026, 0.04621394, -751671.5, -113301.375, 0.0, 9.999495, 9.999246 
6.3501227e+2, 2.4486019e+2, -673873.5, -681932.2, 44775.457, 0.041290697, 0.108050786, -632946.44, -92574.8, 0.0, 9.999362, 9.99929 
6.350094e+2, 2.5485867e+2, -430778.8, -517763.7, 46563.973, -0.0058189393, -0.0095156245, -410554.72, 31830.125, 0.0, 10.000371, 9.999261 
6.3500583e+2, 2.648577e+2, -300026.8, -414104.9, -35322.715, -0.04261429, -0.020464735, -289975.28, 54417.633, 0.0, 10.000665, 9.9991455 
6.350017e+2, 2.7485687e+2, -300258.06, -369663.06, -25419.492, -0.070474565, -0.059537243, -291944.13, -45543.906, 0.0, 10.000001, 9.9991045 
6.3499814e+2, 2.848562e+2, -226833.7, -339234.06, -43799.33, -0.051020335, -0.0049348385, -211781.94, -63375.367, 0.0000001448745, 10.000079, 9.998608 
6.3499504e+2, 2.9485565e+2, -45452.418, -214185.13, -40310.734, -0.0059179617, 0.042683747, -36316.703, 14095.679, 0.000005079309, 10.000693, 9.9985 
6.349896e+2, 3.0485314e+2, 42625.156, -196737.77, -54840.473, -0.19182533, -0.023277475, 54591.44, 54591.44, 0.000027855136, 10.001183, 9.998064 
6.3498753e+2, 3.148527e+2, 77406.625, -34094.086, -390.9671, -0.08105308, 0.07553309, 77408.0, 77408.0, 0.00008149468, 10.000726, 9.999393 
6.45056e+2, 1.2486913e+2, -1614694.6, -1646459.4, 13737.796, -0.020207917, 0.0846885, -1609577.5, 106712.59, 0.0000000047013002, 10.000528, 10.000189 
6.4505583e+2, 1.3486968e+2, -1566169.3, -1593479.5, -63848.633, 0.3199607, 0.096690156, -1514531.9, 103752.89, 0.0, 10.0003195, 9.999997 
6.450483e+2, 1.4486912e+2, -1498598.0, -1571180.9, -49546.297, -0.117939286, 0.085251026, -1473473.6, 46816.74, 0.0, 10.000353, 9.999437 
6.4504695e+2, 1.548694e+2, -1318852.8, -1435208.4, -83590.25, 0.14370866, 0.11977803, -1275187.6, 147100.61, 0.0, 10.000928, 9.999421 
6.4504385e+2, 1.6486892e+2, -1245922.1, -1352732.0, -12519.334, 0.1872823, 0.13929592, -1244474.4, 79817.55, 0.0, 10.000785, 9.999387 
6.4504e+2, 1.748675e+2, -1276901.3, -1316431.0, -26411.072, 0.077132486, 0.022069188, -1263678.3, -37374.727, 0.0, 9.999899, 9.999389 
6.450358e+2, 1.8486668e+2, -1186093.3, -1245392.8, -77490.21, 0.030900778, 0.019670151, -1132774.1, -4464.4478, 0.0, 9.999925, 9.999196 
6.4503115e+2, 1.9486617e+2, -965271.0, -1090216.6, -83684.81, 0.038880177, 0.010280553, -923312.0, 107001.53, 0.0, 10.00079, 9.999168 
6.4502704e+2, 2.048653e+2, -852805.56, -985558.1, -5881.098, 0.056875315, 0.016299803, -852545.5, 79775.27, 0.0, 10.000892, 9.999157 
6.450238e+2, 2.1486373e+2, -869025.9, -946140.1, -5371.669, 0.093583085, -0.0955293, -868653.5, -34318.02, 0.0, 10.0001135, 9.999133 
6.4502e+2, 2.2486332e+2, -760597.6, -820471.2, -170.57397, 0.094479874, -0.05447334, -760597.2, -24257.605, 0.0, 10.000083, 9.999341 
6.450156e+2, 2.348638e+2, -556193.5, -672476.75, -25148.998, 0.0651303, 0.01890473, -550987.56, 87348.27, 0.0, 10.000819, 9.9993305 
6.450124e+2, 2.4486351e+2, -473549.66, -613267.5, 52190.516, 0.052984927, 0.07862328, -456206.97, 84131.9, 0.0, 10.00088, 9.999031 
6.4501035e+2, 2.548621e+2, -464709.6, -559544.75, 28855.934, 0.07033201, 0.0012110501, -456619.6, -14267.613, 0.0, 10.000265, 9.999022 
6.450069e+2, 2.648611e+2, -375161.5, -470025.78, -20735.441, 0.026055003, 0.008955939, -370827.16, -26466.098, 0.0, 10.000228, 9.9989805 
6.450021e+2, 2.7486014e+2, -191639.38, -335800.13, -44782.8, -0.054953277, -0.02278797, -178860.56, 67509.37, 0.000000000000000000046744374, 10.000826, 9.998948 
6.449986e+2, 2.8485936e+2, -105543.55, -300331.25, -13942.341, -0.050105486, 0.03255206, -104550.66, 43827.39, 0.00000034821963, 10.000986, 9.99844 
6.4499587e+2, 2.9485843e+2, -77742.17, -257512.5, -33031.098, 0.023604907, 0.05889644, -71865.16, -21477.26, 0.0000068469953, 10.000571, 9.998265 
6.44991e+2, 3.04856e+2, -26625.697, -201115.92, -1601.702, -0.13236296, 0.0025165898, -26610.996, -26610.996, 0.00003364889, 10.000611, 9.998286 
6.449893e+2, 3.1485602e+2, 106398.37, -33088.996, -47573.035, 0.030584773, 0.1232268, 121078.46, 121078.46, 0.000093661416, 10.000987, 9.999263 
6.5505606e+2, 1.248713e+2, -1618266.9, -1648775.6, -154170.38, -0.14713195, 0.15921189, -1478598.0, 237677.61, 0.000000001405694, 10.000509, 10.000179 
6.550554e+2, 1.3487156e+2, -1542498.6, -1549538.4, -62253.457, 0.20738417, 0.11677114, -1483665.6, 134605.16, 0.0, 10.000345, 10.00028 
6.5504813e+2, 1.4487112e+2, -1491214.8, -1547458.1, -49860.285, -0.21756034, 0.09189573, -1462092.5, 58182.22, 0.0, 10.000313, 9.999627 
6.550467e+2, 1.548719e+2, -1312278.3, -1412757.9, -45489.32, -0.012385964, 0.16040434, -1294744.1, 127524.42, 0.0, 10.000882, 9.999606 
6.5504384e+2, 1.6487192e+2, -1253492.8, -1349880.5, -65326.313, 0.06859594, 0.2184501, -1220506.6, 103761.31, 0.0, 10.000705, 9.999441 
6.5504026e+2, 1.74871e+2, -1281796.1, -1314537.8, -42805.49, 0.08243065, 0.14728637, -1252337.8, -26062.977, 0.0, 9.999848, 9.999423 
6.550366e+2, 1.8486992e+2, -1177554.6, -1201201.3, -63293.06, 0.086452715, 0.097945675, -1124990.0, 3292.8682, 0.0, 9.999814, 9.999552 
6.550324e+2, 1.9486824e+2, -955973.94, -1040475.1, -32988.816, 0.054435607, -0.065589994, -944620.7, 85675.664, 0.0, 10.000662, 9.99957 
6.5502816e+2, 2.0486805e+2, -845879.44, -933787.7, -50971.883, 0.04578124, -0.035613082, -822527.56, 109768.59, 0.0, 10.000729, 9.999598 
6.5502393e+2, 2.1486904e+2, -867339.75, -893168.9, -18194.021, 0.06436902, 0.067524284, -857942.7, -23657.293, 0.0, 9.999905, 9.9995985 
6.5501994e+2, 2.2486877e+2, -808023.5, -866294.9, 11327.754, 0.053597137, 0.10903851, -805898.9, -69611.56, 0.0, 9.999864, 9.999126 
6.550161e+2, 2.3486681e+2, -603465.44, -719356.25, 18364.89, -0.006085322, -0.038346693, -600624.9, 37681.44, 0.0, 10.000606, 9.999106 
6.5501297e+2, 2.4486561e+2, -509662.7, -653134.06, 11748.61, -0.009743675, -0.04716929, -508707.0, 31610.709, 0.0, 10.00073, 9.998829 
6.550106e+2, 2.5486487e+2, -502985.1, -597617.75, 24215.887, 0.03174073, -0.041517425, -497148.4, -54823.867, 0.0, 10.000091, 9.99884 
6.55007e+2, 2.648643e+2, -397122.5, -495345.22, -15737.1045, -0.019817581, 0.01977886, -394662.72, -50332.25, 0.0, 10.000134, 9.998854 
6.5500236e+2, 2.7486345e+2, -218118.98, -366795.22, -461.88986, -0.15619978, 0.018355599, -218117.55, 28221.41, 0.0000000002377775, 10.000712, 9.998795 
6.5499896e+2, 2.8486237e+2, -118672.52, -299717.16, -44831.668, -0.14765978, 0.052638706, -108179.16, 40170.6, 0.0000008000927, 10.000878, 9.998488 
6.549964e+2, 2.9486057e+2, -98063.65, -259490.4, -28405.408, -0.027866082, -0.023610057, -93211.164, -42843.76, 0.000010270006, 10.000408, 9.998323 
6.549917e+2, 3.0485883e+2, -28811.387, -199640.08, 3602.5105, -0.15974581, -0.013743678, -28735.45, -28735.45, 0.00004390313, 10.000577, 9.99832 
6.549904e+2, 3.1485733e+2, 74387.89, -69167.484, 1603.9071, -0.047591187, -0.048927188, 74405.81, 74405.81, 0.00011355634, 10.000858, 9.999079 
6.650571e+2, 1.2487426e+2, -1731242.8, -1704727.8, -88060.08, -0.032244954, 0.19668984, -1628932.9, 87316.586, 0.00000000035571668, 9.999748, 10.000149 
6.6505545e+2, 1.3487445e+2, -1494055.5, -1529996.4, 2621.6245, 0.1744626, 0.14036804, -1493865.3, 124379.086, 0.0, 10.000668, 10.000273 
6.6504914e+2, 1.4487402e+2, -1450380.6, -1527925.3, 25788.523, -0.15511182, 0.11897553, -1442587.5, 77660.2, 0.0, 10.000604, 9.999615 
6.6504747e+2, 1.5487453e+2, -1427597.9, -1469295.6, -23104.697, 0.032096554, 0.15721548, -1417326.0, 4918.5933, 0.0, 10.000108, 9.999581 
6.650444e+2, 1.6487458e+2, -1332566.3, -1368033.8, -13342.676, 0.10473796, 0.21029125, -1328107.4, -3863.6938, 0.0, 10.0000725, 9.999622 
6.6504085e+2, 1.7487396e+2, -1191277.4, -1253067.5, -18264.719, 0.13179883, 0.15030499, -1186282.3, 39965.074, 0.0, 10.000376, 9.999595 
6.650372e+2, 1.8487325e+2, -1085865.9, -1133003.0, 16461.916, 0.15160118, 0.12100053, -1080686.0, 47565.6, 0.0, 10.000361, 9.99975 
6.650335e+2, 1.9487207e+2, -1033705.2, -1060551.4, -2238.0764, 0.14005859, -0.011479405, -1033519.9, -3259.02, 0.0, 10.00005, 9.999729 
6.6502917e+2, 2.0487204e+2, -915569.06, -957313.9, -24371.164, 0.11088814, 0.02135623, -904353.94, 27905.219, 0.0, 10.000208, 9.999693 
6.650243e+2, 2.148729e+2, -735964.1, -820654.56, -54316.574, 0.07427541, 0.102978624, -709436.94, 124812.23, 0.0, 10.0007715, 9.999684 
6.6502035e+2, 2.2487238e+2, -685043.3, -832721.25, 843.3477, 0.061352555, 0.12852415, -685038.5, 51215.055, 0.0, 10.000835, 9.998894 
6.650172e+2, 2.3487014e+2, -659752.7, -775882.75, -25122.754, 0.066049546, -0.018716754, -654550.8, -16274.645, 0.0, 10.000359, 9.998844 
6.650141e+2, 2.4486883e+2, -546441.0, -658688.0, 5055.66, 0.060770474, -0.030836686, -546213.75, -5925.212, 0.0, 10.000391, 9.998963 
6.650111e+2, 2.5486818e+2, -380655.84, -529916.6, 3164.1067, 0.047786534, -0.030499103, -380588.8, 61704.77, 0.0, 10.000855, 9.998951 
6.650074e+2, 2.6486757e+2, -315995.97, -468692.38, 8736.473, -0.016182618, 0.03007871, -315497.72, 28801.436, 0.0, 10.000736, 9.998748 
6.6500306e+2, 2.748668e+2, -325015.66, -425594.63, -9663.469, -0.11478366, 0.04049706, -324095.63, -77788.06, 0.0000000023427176, 10.00002, 9.998714 
6.649999e+2, 2.8486547e+2, -248977.7, -370054.4, -6572.663, -0.091295116, 0.061006933, -248621.95, -100301.07, 0.0000014418595, 10.000006, 9.998432 
6.649976e+2, 2.9486313e+2, -68902.57, -242579.08, -36569.28, 0.046656672, -0.06617113, -61516.65, -11172.182, 0.000014823799, 10.000605, 9.998341 
6.649929e+2, 3.048621e+2, 20119.84, -148239.89, 31094.97, -0.08825184, 0.0008410373, 25679.3, 25679.3, 0.000057815294, 10.000784, 9.998571 
6.6499096e+2, 3.1486115e+2, 12719.31, -26104.236, -46837.383, -0.019870736, -0.007719266, 44008.2, 44008.2, 0.00014076945, 10.000103, 9.999739 
6.750582e+2, 1.24878176e+2, -1751145.6, -1743023.3, -159750.4, 0.010451297, 0.19263643, -1587282.4, 128927.63, 0.0000000023126079, 9.999746, 9.999885 
6.7505544e+2, 1.3487835e+2, -1517121.4, -1572165.8, 46346.176, 0.0654942, 0.16143045, -1490741.5, 127464.305, 0.0, 10.000654, 9.999986 
6.750507e+2, 1.4487791e+2, -1473063.8, -1560705.5, -15221.101, -0.11067336, 0.16429587, -1470495.5, 49713.836, 0.0, 10.000542, 9.999419 
6.750487e+2, 1.5487745e+2, -1436788.9, -1488078.1, -22356.572, 0.099472485, 0.12857318, -1428412.0, -6197.1987, 0.0, 10.000111, 9.999448 
6.750454e+2, 1.6487712e+2, -1315833.4, -1325171.8, -19595.475, 0.1472561, 0.13143112, -1300358.5, 23858.504, 0.0, 10.00003, 9.999942 
6.750411e+2, 1.7487657e+2, -1177557.4, -1207521.6, 9713.884, 0.08059539, 0.04414149, -1174683.9, 51535.266, 0.0, 10.000303, 9.999942 
6.750372e+2, 1.8487686e+2, -1101416.1, -1140654.1, -15765.948, 0.08249079, 0.09546466, -1095866.3, 32348.617, 0.0, 10.000252, 9.999755 
6.750338e+2, 1.9487777e+2, -1057924.5, -1070570.8, 2012.6875, 0.13755853, 0.1783889, -1057611.9, -27405.678, 0.0, 9.999884, 9.999742 
6.750296e+2, 2.048774e+2, -964601.3, -1021664.44, -19428.422, 0.1052176, 0.19547664, -958614.56, -26405.877, 0.0, 10.000032, 9.999343 
6.7502433e+2, 2.1487536e+2, -787633.7, -882190.25, -17279.74, -0.024775079, 0.017771438, -784574.9, 49651.445, 0.0, 10.000571, 9.999359 
6.7502064e+2, 2.2487426e+2, -734369.25, -886868.0, -33078.688, -0.014724061, 0.014446589, -727503.25, 8734.217, 0.0, 10.000628, 9.998622 
6.750185e+2, 2.3487379e+2, -710629.6, -827624.7, -23573.568, 0.1310862, 0.0719288, -706058.3, -67813.02, 0.0, 10.000133, 9.998596 
6.750155e+2, 2.4487321e+2, -545652.4, -613892.75, 9368.775, 0.12769175, 0.12505698, -544389.5, -4138.7095, 0.0, 10.000209, 9.999357 
6.750114e+2, 2.548721e+2, -381046.63, -489520.8, 38779.04, -0.04260458, 0.042399835, -368609.3, 73648.586, 0.0, 10.000675, 9.999315 
6.750075e+2, 2.6487115e+2, -342512.5, -488133.75, -35674.516, -0.11099099, 0.052423898, -334242.56, 10023.043, 0.0, 10.000589, 9.998685 
6.7500377e+2, 2.7487007e+2, -348782.97, -444078.34, -16800.572, -0.0785506, 0.037848074, -345907.78, -99631.17, 0.0000000015372758, 9.999887, 9.998655 
6.75001e+2, 2.848686e+2, -265238.94, -386581.53, 271.03186, -0.01349358, 0.04935346, -265238.3, -116946.18, 0.0000017821444, 9.999936, 9.998348 
6.7499864e+2, 2.948663e+2, -96729.54, -264674.25, 10947.918, 0.05016371, -0.05977458, -96018.88, -45701.61, 0.000019076204, 10.000454, 9.99826 
6.749939e+2, 3.0486584e+2, 34327.62, -96552.57, -2157.6997, -0.1049368, 0.04348615, 34363.184, 34363.184, 0.000073988194, 10.000694, 9.998967 
6.7499006e+2, 3.1486714e+2, 99510.09, 191281.7, -47999.223, -0.20400175, 0.22705778, 211799.47, 211799.47, 0.00017626988, 9.999954, 10.001299 
6.850591e+2, 1.24882e+2, -1645794.8, -1715161.0, -95726.875, 0.110176764, 0.14708349, -1578661.6, 137507.25, 0.0000000036242784, 10.00053, 9.99972 
6.8505555e+2, 1.3488184e+2, -1546398.5, -1613552.3, 57404.55, 0.030316802, 0.11261798, -1513472.1, 104696.93, 0.0, 10.000591, 9.999723 
6.8505216e+2, 1.4488162e+2, -1472810.8, -1567756.9, 30089.469, -0.00068852963, 0.1553986, -1464078.3, 56092.516, 0.0, 10.000569, 9.99936 
6.850495e+2, 1.5488109e+2, -1336327.3, -1449171.0, -3244.8394, 0.14148559, 0.11684684, -1336234.1, 85943.055, 0.0, 10.000828, 9.999383 
6.850457e+2, 1.6488059e+2, -1228581.6, -1287627.5, 17713.777, 0.16680594, 0.10740837, -1223675.3, 100506.06, 0.0, 10.000642, 9.99991 
6.8504137e+2, 1.7487983e+2, -1236016.1, -1244999.9, -15700.61, 0.10986875, 0.005768809, -1224177.5, 2008.5381, 0.0, 9.999935, 9.999872 
6.8503755e+2, 1.8488014e+2, -1131231.6, -1160389.0, -2441.584, 0.110069975, 0.06673968, -1131028.5, -2846.6853, 0.0, 10.000056, 9.999713 
6.850342e+2, 1.948812e+2, -908349.56, -1002242.4, -18037.4, 0.1491584, 0.16304626, -905003.7, 125168.17, 0.0, 10.000911, 9.999713 
6.850302e+2, 2.0488077e+2, -823671.4, -969785.1, -10642.773, 0.11966031, 0.1822944, -822900.25, 109275.44, 0.0, 10.001106, 9.999155 
6.8502533e+2, 2.1487841e+2, -783336.0, -904944.56, -33109.836, 0.016337788, -0.0038539325, -774905.75, 59292.01, 0.0, 10.000715, 9.999124 
6.850216e+2, 2.2487745e+2, -707417.94, -859923.2, -1529.8058, 0.027708132, 0.012982335, -707402.6, 28805.51, 0.0, 10.000735, 9.998759 
6.850193e+2, 2.3487769e+2, -555680.3, -738273.2, 4689.1206, 0.16059348, 0.12676908, -555559.94, 82648.875, 0.0, 10.001113, 9.998741 
6.850162e+2, 2.4487723e+2, -472365.34, -596057.3, 58748.59, 0.16104549, 0.19143651, -448909.97, 91303.51, 0.0, 10.0008, 9.999185 
6.8501216e+2, 2.5487572e+2, -513015.4, -568681.56, 13672.488, 0.01704892, 0.084020264, -509838.53, -67613.05, 0.0, 9.999861, 9.999151 
6.8500835e+2, 2.6487446e+2, -436038.88, -533837.94, -28160.996, -0.043710303, 0.07167864, -428509.63, -84272.984, 0.0, 9.999938, 9.998685 
6.8500495e+2, 2.748731e+2, -196892.38, -371065.6, -41021.99, 0.008630492, 0.03260834, -187714.34, 58535.582, 0.00000000039754933, 10.000916, 9.998665 
6.85002e+2, 2.8487208e+2, -108496.64, -292204.78, 11633.563, 0.05380019, 0.07411856, -107762.86, 40498.582, 0.000001935021, 10.000927, 9.998517 
6.849991e+2, 2.948708e+2, -130145.625, -259919.88, 4822.144, 0.07945794, 0.053237967, -129966.69, -79690.41, 0.000022833043, 10.000114, 9.99846 
6.849947e+2, 3.0486953e+2, -62912.867, -152590.69, 24612.043, -0.049833104, 0.07227186, -56602.188, -56602.188, 0.00009092674, 10.000089, 9.998871 
6.849903e+2, 3.148706e+2, 141205.9, 206451.77, -130783.836, -0.16800985, 0.2524696, 308620.03, 308620.03, 0.00021663251, 10.000249, 10.001277 
6.95059e+2, 1.2488576e+2, -1638814.5, -1697005.5, -114069.984, -0.038128357, 0.06280554, -1550187.9, 165938.03, 0.00000000017840025, 10.000541, 9.999822 
6.9505537e+2, 1.3488506e+2, -1561291.6, -1644543.9, 71229.04, -0.082368985, 0.00022468214, -1520417.4, 97715.336, 0.0, 10.000603, 9.999497 
6.9505334e+2, 1.4488517e+2, -1472158.5, -1561537.5, 19268.926, 0.014025053, 0.07881319, -1468181.4, 51951.156, 0.0, 10.000541, 9.99942 
6.950495e+2, 1.5488526e+2, -1336300.6, -1450536.9, 24712.084, 0.013369828, 0.10013606, -1331183.9, 90949.06, 0.0, 10.000821, 9.999383 
6.950452e+2, 1.6488487e+2, -1269725.5, -1354427.6, -24388.402, 0.010225762, 0.123788334, -1263205.3, 60932.28, 0.0, 10.000571, 9.999479 
6.9504124e+2, 1.7488386e+2, -1278005.5, -1314745.8, -20961.465, 0.07263797, 0.040780216, -1268503.8, -42356.832, 0.0, 9.999862, 9.999429 
6.950377e+2, 1.848832e+2, -1152799.0, -1173562.4, 15049.297, 0.08635379, 0.029294208, -1144897.9, -16746.203, 0.0, 9.999927, 9.999679 
6.950343e+2, 1.948825e+2, -934287.94, -1019829.7, 29992.705, 0.026666366, -0.050156828, -924819.9, 105336.46, 0.0, 10.000768, 9.999652 
6.950305e+2, 2.0488217e+2, -853791.9, -999518.8, -42801.668, 0.009895133, -0.010131884, -842150.5, 90009.05, 0.0, 10.000955, 9.999026 
6.9502664e+2, 2.1488197e+2, -824554.6, -938923.3, -32219.463, 0.043154925, 0.033489622, -816102.5, 18061.732, 0.0, 10.000493, 9.998996 
6.950228e+2, 2.2488199e+2, -700428.1, -796326.56, -3877.297, 0.047544807, 0.12667976, -700271.6, 35893.836, 0.0, 10.000522, 9.999296 
6.950192e+2, 2.3488185e+2, -547417.1, -672864.4, 33748.777, 0.0072631817, 0.14534532, -538914.06, 99252.6, 0.0, 10.000912, 9.999281 
6.9501585e+2, 2.4488097e+2, -540231.5, -706945.25, 9280.634, 0.016173914, 0.17599694, -539716.5, 459.26944, 0.0, 10.000663, 9.99849 
6.950129e+2, 2.548789e+2, -579161.75, -678053.75, -2760.9883, 0.07073927, 0.081760585, -579084.75, -136887.77, 0.0, 9.999729, 9.998466 
6.950096e+2, 2.6487738e+2, -451348.47, -535739.9, -5623.99, 0.051728234, 0.07375471, -450975.34, -106762.28, 0.0, 9.999817, 9.998727 
6.9500583e+2, 2.7487603e+2, -217954.2, -378412.06, 14188.6455, -0.03349668, 0.029356986, -216709.22, 29517.83, 0.0000000054780975, 10.000764, 9.998684 
6.9500226e+2, 2.8487593e+2, -91897.086, -238332.67, -36312.875, -0.053993884, 0.14471237, -83386.85, 64841.53, 0.000002364329, 10.000843, 9.998925 
6.949984e+2, 2.9487666e+2, -117274.43, -202850.27, -1402.0764, -0.05211514, 0.27961925, -117251.47, -67030.56, 0.000027093956, 9.999987, 9.99891 
6.949949e+2, 3.0487323e+2, -115279.46, -251334.06, 24357.24, -0.0698533, 0.08710977, -111050.35, -111050.35, 0.00010798756, 10.000039, 9.998215 
6.949911e+2, 3.148717e+2, 5219.5483, -44024.383, -71628.49, -0.1979729, 0.07403284, 56339.793, 56339.793, 0.00025661878, 10.000111, 9.999618 
7.0506e+2, 1.2488951e+2, -1576538.1, -1676343.1, -91416.73, 0.0012213611, 0.025874069, -1522290.4, 193797.89, 0.0, 10.000981, 9.999772 
7.0505565e+2, 1.34889e+2, -1647194.0, -1719204.4, -10768.569, -0.074114196, 0.013151951, -1645618.3, -27523.547, 0.0, 10.000133, 9.999221 
7.050542e+2, 1.4488898e+2, -1601480.0, -1585227.1, 14103.151, 0.110550985, 0.074827746, -1577076.6, -56981.37, 0.0, 9.99949, 9.999758 
7.050496e+2, 1.5488899e+2, -1470900.9, -1471108.3, 6659.3423, 0.0073189717, 0.051936865, -1464344.4, -42249.97, 0.0, 9.9997225, 9.999755 
7.0504516e+2, 1.6488892e+2, -1350742.0, -1410158.5, 4771.895, -0.012801165, 0.09694853, -1350361.1, -26265.615, 0.0, 10.000103, 9.999309 
7.0504194e+2, 1.7488849e+2, -1199605.8, -1289675.4, -10096.573, 0.1327735, 0.08919257, -1198487.9, 27613.418, 0.0, 10.000472, 9.999287 
7.050384e+2, 1.8488768e+2, -1084706.8, -1170612.5, 76673.195, 0.15010534, 0.07967769, -1039774.8, 88333.79, 0.0, 10.000517, 9.999419 
7.050346e+2, 1.9488597e+2, -1031371.75, -1096445.9, 42473.883, 0.02138889, -0.07065301, -1010404.7, 19717.992, 0.0, 10.000218, 9.9994 
7.050309e+2, 2.0488544e+2, -954916.6, -1050367.4, -11669.346, 0.0041418513, -0.038557794, -953510.7, -21382.725, 0.0, 10.00024, 9.999039 
7.0502764e+2, 2.1488589e+2, -822036.56, -935532.75, -20138.754, 0.10787955, 0.06768025, -818569.06, 15557.457, 0.0, 10.000476, 9.999039 
7.0502394e+2, 2.2488594e+2, -709907.56, -784114.8, 35261.676, 0.11908531, 0.1543809, -695824.6, 40302.285, 0.0, 10.000401, 9.999428 
7.0501965e+2, 2.3488516e+2, -659991.56, -713244.3, 7050.349, 0.015316277, 0.097208045, -659073.94, -20941.018, 0.0, 10.000082, 9.999399 
7.050162e+2, 2.4488424e+2, -620555.8, -761184.7, 7973.1235, 0.011016521, 0.121525146, -620105.2, -79962.24, 0.0, 10.0001745, 9.998358 
7.050136e+2, 2.5488275e+2, -451168.53, -629917.75, 6636.1406, 0.122144625, 0.099208646, -450922.53, -8761.911, 0.0, 10.000668, 9.998348 
7.050103e+2, 2.6488146e+2, -330755.78, -470676.2, 71779.45, 0.11768231, 0.12163557, -300482.66, 43692.453, 0.0, 10.000617, 9.998791 
7.050065e+2, 2.748801e+2, -324906.1, -418800.9, 55695.504, 0.0053479914, 0.06811297, -299010.88, -52821.355, 0.000000016182126, 9.9999895, 9.998775 
7.050026e+2, 2.848801e+2, -209130.75, -279243.78, 21798.178, -0.04379148, 0.18021277, -202906.28, -54716.934, 0.0000030357212, 9.999955, 9.9990835 
7.049986e+2, 2.948811e+2, -50085.316, -151335.25, 1550.0009, -0.039442737, 0.32813057, -50061.594, 115.93164, 0.000031540207, 10.000353, 9.999099 
7.04996e+2, 3.0487743e+2, -29666.97, -222505.66, 89553.36, 0.013273315, 0.10639926, 5505.8354, 5505.8354, 0.00012311795, 10.000672, 9.998102 
7.049923e+2, 3.1487483e+2, 27050.482, -123072.695, -27911.799, -0.10052512, -0.007645188, 32072.041, 32072.041, 0.0002906225, 10.000651, 9.9988 
7.1506125e+2, 1.248933e+2, -1573883.0, -1668528.8, -122141.125, -0.054617453, 0.061652653, -1490217.8, 225837.77, 0.0, 10.000976, 9.999822 
7.150559e+2, 1.3489348e+2, -1656006.4, -1751644.6, -35358.31, -0.104388416, 0.13480425, -1644353.8, -26297.25, 0.0, 10.000183, 9.998978 
7.150543e+2, 1.44893e+2, -1556877.9, -1491523.4, -141.48592, 0.11364929, 0.13334373, -1491523.0, 28536.658, 0.0, 9.999493, 10.000392 
7.150494e+2, 1.5489239e+2, -1429352.6, -1378973.5, 34002.43, -0.030643612, -0.020185038, -1361846.6, 60213.22, 0.0, 9.999698, 10.000396 
7.1504533e+2, 1.6489275e+2, -1357450.8, -1402135.1, 266.90652, -0.04397067, 0.030620825, -1357449.3, -33394.023, 0.0, 10.000017, 9.999402 
7.150429e+2, 1.748937e+2, -1205962.4, -1285648.5, 18374.28, 0.14314722, 0.15239766, -1201929.6, 24119.807, 0.0, 10.000409, 9.999342 
7.150394e+2, 1.8489346e+2, -1129907.4, -1243389.1, 47258.547, 0.15512846, 0.21961927, -1112804.5, 15249.073, 0.0, 10.000425, 9.998968 
7.150348e+2, 1.9489163e+2, -1088507.5, -1175005.8, 48109.273, -0.018958803, 0.1041382, -1067065.1, -36994.21, 0.0, 10.0000515, 9.998943 
7.15031e+2, 2.0489067e+2, -969796.3, -1032892.8, -18784.95, -0.04634879, 0.10607812, -964627.1, -32547.287, 0.0, 10.000042, 9.999251 
7.15028e+2, 2.1489026e+2, -845046.0, -921921.4, 3743.862, 0.07132812, 0.10263721, -844864.1, -10780.447, 0.0, 10.000229, 9.999246 
7.150245e+2, 2.248894e+2, -757164.25, -841717.25, 5562.5693, 0.10348125, 0.105312966, -756799.9, -20708.541, 0.0, 10.000219, 9.999125 
7.150202e+2, 2.348877e+2, -713312.8, -773770.8, 11350.701, 0.03515914, -0.011938966, -711252.0, -73145.3, 0.0, 9.999866, 9.999091 
7.150166e+2, 2.4488707e+2, -620614.7, -716139.75, 9367.906, 0.0052374895, 0.038563583, -619704.6, -79590.56, 0.0, 9.999982, 9.998763 
7.1501344e+2, 2.5488722e+2, -450568.4, -583393.5, 43038.24, 0.011516091, 0.13979897, -437842.34, 4273.8555, 0.0, 10.000483, 9.998755 
7.1501017e+2, 2.6488677e+2, -332773.25, -461977.1, 31104.617, 0.0042943717, 0.22236729, -325675.06, 18447.508, 0.0, 10.000553, 9.998887 
7.150066e+2, 2.7488536e+2, -337230.88, -415225.22, 52227.063, -0.027408449, 0.14900117, -311047.94, -64910.31, 0.000000020828322, 9.999858, 9.998867 
7.1500295e+2, 2.8488448e+2, -228717.17, -293509.16, 21161.066, -0.04822017, 0.17543754, -222418.33, -74273.125, 0.0000037854625, 9.999855, 9.999028 
7.14999e+2, 2.9488406e+2, -79603.67, -174272.42, 42593.55, -0.078892596, 0.18735905, -63261.098, -13114.308, 0.000035842306, 10.000207, 9.999003 
7.149971e+2, 3.0488223e+2, -6393.7085, -173224.39, 77262.01, 0.023621922, 0.13765442, 23890.275, 23890.275, 0.000135526, 10.000653, 9.99846 
7.1499306e+2, 3.148798e+2, -6838.534, -161921.22, 33216.91, -0.17746092, 0.00512081, -23.353878, -23.353878, 0.00031586387, 10.000502, 9.998617 
7.2506195e+2, 1.2489796e+2, -1804099.4, -1816078.4, 81147.734, 0.014427485, 0.054668352, -1728720.4, -12711.508, 0.0, 9.99951, 9.999547 
7.2505707e+2, 1.3489841e+2, -1504954.0, -1697216.9, 44544.59, -0.049787723, 0.1808102, -1495135.1, 122873.22, 0.0, 10.001315, 9.998803 
7.250553e+2, 1.4489733e+2, -1288646.6, -1417005.9, 44468.39, 0.17395392, 0.15176104, -1274746.4, 245271.8, 0.0, 10.00156, 9.999926 
7.250498e+2, 1.5489613e+2, -1352940.9, -1390335.4, -38171.082, 0.017149953, -0.010220001, -1329133.9, 92890.66, 0.0, 10.000426, 9.999979 
7.250457e+2, 1.6489612e+2, -1332814.3, -1386265.9, -42397.684, -0.0033795983, 0.023151921, -1309421.9, 14601.073, 0.0, 10.000128, 9.999486 
7.2504365e+2, 1.7489697e+2, -1161417.9, -1252124.3, -54900.684, 0.17064539, 0.12389404, -1135560.1, 90456.95, 0.0, 10.000643, 9.999475 
7.250402e+2, 1.8489699e+2, -1061985.8, -1200239.5, 2151.047, 0.18567069, 0.2053811, -1061952.3, 66066.09, 0.0, 10.000844, 9.999059 
7.250353e+2, 1.9489577e+2, -992260.8, -1118401.4, 8716.149, 0.013964443, 0.14179179, -991661.4, 38369.492, 0.0, 10.000662, 9.999039 
7.2503155e+2, 2.0489489e+2, -888287.06, -985112.5, 3377.9612, -0.013272575, 0.14366405, -888169.4, 43869.56, 0.0, 10.000589, 9.999313 
7.250288e+2, 2.1489392e+2, -784748.6, -887536.06, -18070.621, 0.11548065, 0.08285766, -781664.25, 52382.39, 0.0, 10.000628, 9.99929 
7.2502524e+2, 2.2489282e+2, -709632.3, -843773.6, 4323.3228, 0.14050512, 0.06982902, -709493.1, 26563.613, 0.0, 10.000646, 9.998916 
7.250207e+2, 2.3489125e+2, -617439.6, -752627.7, -16092.79, 0.06754656, -0.012979264, -615550.3, 22522.11, 0.0, 10.000621, 9.998884 
7.250169e+2, 2.4489069e+2, -544505.5, -654403.9, 25638.951, 0.026028713, 0.044278145, -538818.3, 1260.9482, 0.0, 10.000416, 9.998965 
7.250136e+2, 2.5489083e+2, -486798.06, -580812.75, 8904.967, 0.004086182, 0.12457143, -485962.03, -43881.734, 0.0, 10.000146, 9.998934 
7.250104e+2, 2.648905e+2, -417042.97, -504960.3, 742.6233, 0.007602438, 0.20864823, -417036.7, -72951.42, 0.0, 9.999999, 9.998854 
7.2500724e+2, 2.7488926e+2, -312380.6, -408528.03, -26332.766, 0.056395408, 0.16152671, -305641.0, -59542.44, 0.000000011844985, 10.000045, 9.998828 
7.250036e+2, 2.8488797e+2, -204810.73, -299133.16, -3262.0864, 0.03668791, 0.15733516, -204698.06, -56587.2, 0.000004675658, 10.000118, 9.998852 
7.249993e+2, 2.9488647e+2, -89510.664, -196594.81, -34709.77, -0.05521072, 0.07883515, -79244.26, -29120.297, 0.000040333267, 10.000233, 9.998829 
7.24998e+2, 3.0488583e+2, -39513.984, -116657.805, 29142.715, 0.08242837, 0.1273777, -29742.434, -29742.434, 0.00014552829, 10.000119, 9.999115 
7.24994e+2, 3.1488523e+2, -84814.664, -101517.164, -27282.336, -0.06323505, 0.11061346, -64634.016, -64634.016, 0.00033116215, 9.999541, 9.999502 
7.3506165e+2, 1.2490363e+2, -1840303.3, -1886897.9, 143768.06, -0.040032197, 0.030413602, -1717957.1, -2009.8103, 0.0, 9.999504, 9.999055 
7.3505867e+2, 1.3490376e+2, -1531316.6, -1751633.5, 117832.77, -0.06031592, 0.15717424, -1480169.6, 137780.58, 0.0, 10.001301, 9.998441 
7.350567e+2, 1.4490171e+2, -1411646.5, -1643489.8, -20022.936, 0.11681627, 0.12154873, -1409929.9, 110042.92, 0.0, 10.001451, 9.998412 
7.350504e+2, 1.5489998e+2, -1468592.0, -1626793.3, -60554.934, -0.008456375, 0.060369387, -1448074.3, -26084.03, 0.0, 10.000413, 9.998361 
7.3504585e+2, 1.6489898e+2, -1322383.1, -1359841.3, -42524.08, -0.041293945, 0.067621075, -1294646.4, 29352.906, 0.0, 10.000107, 9.999675 
7.350437e+2, 1.7489842e+2, -1161400.1, -1229450.3, -15944.603, 0.07989828, 0.007297269, -1157849.4, 68152.93, 0.0, 10.000542, 9.999681 
7.3504055e+2, 1.848984e+2, -1045162.75, -1125294.8, -20324.06, 0.09487614, 0.04576916, -1040302.7, 87698.98, 0.0, 10.00068, 9.999647 
7.3503596e+2, 1.9489853e+2, -975405.9, -1044058.94, 16092.942, -0.026155429, 0.056683578, -971820.75, 58180.145, 0.0, 10.000505, 9.999618 
7.350322e+2, 2.0489821e+2, -918711.44, -1013743.8, -12979.389, -0.030686336, 0.091973945, -916970.6, 15033.1, 0.0, 10.000433, 9.999195 
7.350294e+2, 2.1489705e+2, -824478.06, -916584.4, 593.6391, 0.081755206, 0.0202543, -824474.25, 9539.744, 0.0, 10.000399, 9.9992 
7.350256e+2, 2.2489636e+2, -752714.4, -876254.0, -13782.321, 0.085099466, 0.059008252, -751195.44, -15173.97, 0.0, 10.000405, 9.998806 
7.350206e+2, 2.3489584e+2, -659088.4, -783602.94, 1210.3425, -0.033967737, 0.0909942, -659076.56, -21047.082, 0.0, 10.000392, 9.998776 
7.350166e+2, 2.4489507e+2, -562790.5, -665047.7, 84.42745, -0.07518916, 0.13454486, -562790.44, -22752.111, 0.0, 10.00029, 9.998955 
7.350136e+2, 2.5489366e+2, -517058.3, -596816.3, 15406.979, -0.044341817, 0.058749665, -514185.6, -72133.625, 0.0, 9.999944, 9.998921 
7.350106e+2, 2.648928e+2, -453370.2, -545625.0, -11314.491, 0.0032337299, 0.10031032, -452002.8, -107941.625, 0.0, 9.999851, 9.998642 
7.350079e+2, 2.74892e+2, -349017.78, -451984.0, 91.33622, 0.07868035, 0.12193669, -349017.7, -102947.06, 0.000000051096855, 9.999909, 9.998592 
7.350041e+2, 2.8489065e+2, -223329.02, -339784.53, -15395.597, 0.035481293, 0.1355428, -221328.08, -73242.805, 0.0000058850314, 10.000113, 9.998579 
7.349991e+2, 2.9488844e+2, -128224.69, -255363.81, -6914.713, -0.14999844, 0.009845977, -127849.73, -77741.445, 0.000044056193, 10.00013, 9.998479 
7.34998e+2, 3.0488834e+2, 16243.223, 8024.1646, -667.63196, 0.037014924, 0.08978465, 16297.101, 16297.101, 0.00015023243, 10.00008, 9.999989 
7.349938e+2, 3.1489015e+2, 21588.643, 158204.13, 57092.41, -0.11824792, 0.22406387, 178921.61, 178921.61, 0.0003329124, 9.99938, 10.001363 
7.450621e+2, 1.24907084e+2, -1596783.3, -1768034.6, 17008.277, -0.013841344, 0.08463684, -1595110.4, 120803.73, 0.0, 10.001202, 9.999023 
7.4505955e+2, 1.349066e+2, -1656710.4, -1772033.0, -58930.34, -0.02827997, 0.115607455, -1631924.0, -14002.67, 0.0, 10.000302, 9.99876 
7.450572e+2, 1.4490455e+2, -1596953.3, -1739895.5, -92123.16, 0.10810263, 0.067174315, -1551827.6, -31883.686, 0.0, 10.000205, 9.998343 
7.450517e+2, 1.5490375e+2, -1357528.6, -1574701.3, -65675.68, 0.056250658, 0.10149207, -1339212.3, 82742.125, 0.0, 10.001194, 9.998323 
7.450469e+2, 1.6490288e+2, -1170807.6, -1288121.4, 30797.648, 0.020866873, 0.12312248, -1163214.1, 160747.98, 0.0, 10.001158, 9.9996605 
7.4504364e+2, 1.7490152e+2, -1227742.0, -1261842.5, 4902.8076, 0.056659456, -0.017232494, -1227051.1, -1080.1493, 0.0, 10.000077, 9.999687 
7.4504036e+2, 1.8490113e+2, -1191305.4, -1202025.4, 21277.465, 0.07151355, -0.0128570255, -1174723.1, -46750.066, 0.0, 9.999697, 9.9996 
7.450368e+2, 1.9490133e+2, -1048675.5, -1087497.1, -20399.912, 0.04659459, 0.010962271, -1039927.25, -9954.716, 0.0, 10.000028, 9.999554 
7.4503314e+2, 2.0490126e+2, -949609.7, -999872.3, -33455.492, 0.043237112, 0.05978228, -932897.8, -924.40393, 0.0, 10.000089, 9.999441 
7.450292e+2, 2.1490055e+2, -883675.0, -920985.44, -30151.016, 0.05979328, 0.010247432, -866874.56, -32895.535, 0.0, 9.99988, 9.999415 
7.450253e+2, 2.2490019e+2, -820794.5, -915165.94, 15492.938, 0.049896475, 0.07002658, -818316.1, -82332.06, 0.0, 9.999965, 9.998744 
7.4502116e+2, 2.3489974e+2, -676988.56, -803134.5, -3309.6418, 0.006022062, 0.1170087, -676901.75, -38909.746, 0.0, 10.000295, 9.998694 
7.450176e+2, 2.4489889e+2, -560174.3, -666299.56, 15821.944, -0.0034015477, 0.15477957, -557865.7, -17863.65, 0.0, 10.000317, 9.99894 
7.450143e+2, 2.5489715e+2, -479038.06, -577210.56, -4089.674, 0.02793613, 0.04961557, -478868.0, -36850.137, 0.0, 10.000195, 9.998938 
7.4501103e+2, 2.6489612e+2, -401357.6, -504573.7, 26799.938, 0.052357383, 0.068209425, -394813.9, -50786.07, 0.0, 10.000142, 9.998784 
7.450079e+2, 2.7489546e+2, -307086.4, -407275.47, 29963.252, 0.08670084, 0.08379496, -298809.2, -52773.75, 0.00000017449423, 10.000115, 9.998789 
7.450042e+2, 2.848944e+2, -212275.53, -336253.66, 77682.0, 0.030781228, 0.11800146, -174880.81, -26833.537, 0.0000070145306, 10.0001955, 9.998566 
7.449997e+2, 2.948926e+2, -81637.71, -230083.97, 66656.375, -0.11118399, 0.035262655, -56100.402, -6033.5093, 0.00004543542, 10.000427, 9.998512 
7.449985e+2, 3.0489224e+2, 23443.658, -9591.332, 57893.79, 0.087395385, 0.09416246, 67130.14, 67130.14, 0.00014809403, 10.000218, 9.999799 
7.449941e+2, 3.1489393e+2, -8561.644, 145288.45, 16796.477, -0.0043597636, 0.23635761, 147100.84, 147100.84, 0.00032280377, 9.999181, 10.001353 
7.550625e+2, 1.2490821e+2, -1575046.0, -1706123.0, -52142.406, -0.17445451, 0.17965329, -1556834.1, 159076.34, 0.0, 10.001132, 9.999483 
7.550596e+2, 1.3490687e+2, -1592839.6, -1644917.5, -78569.19, -0.10324628, 0.037428476, -1536106.9, 81815.2, 0.0, 10.000317, 9.999634 
7.5505674e+2, 1.4490585e+2, -1505062.9, -1537734.8, -78393.38, -0.009661599, -0.020081703, -1441321.5, 78610.305, 0.0, 10.000164, 9.999748 
7.550533e+2, 1.5490764e+2, -1269961.4, -1374018.0, -13274.35, 0.050274983, 0.13498971, -1268294.6, 153620.33, 0.0, 10.001118, 9.99974 
7.550486e+2, 1.6490786e+2, -1191196.9, -1314132.4, -29889.285, 0.027221698, 0.20058751, -1184315.1, 139596.0, 0.0, 10.001083, 9.999518 
7.55043e+2, 1.7490625e+2, -1250141.5, -1294494.9, -19170.719, -0.053219084, 0.05423443, -1243004.0, -17081.027, 0.0, 10.00002, 9.999489 
7.550394e+2, 1.8490519e+2, -1246554.5, -1296416.6, 13276.512, -0.031346306, 0.030876717, -1243239.8, -115306.94, 0.0, 9.999606, 9.999001 
7.5503755e+2, 1.9490422e+2, -1112482.1, -1181680.5, 9627.191, 0.0848074, 0.0010841264, -1111167.6, -81222.47, 0.0, 9.9998665, 9.998985 
7.5503373e+2, 2.0490406e+2, -941053.2, -936881.9, -58041.867, 0.0680611, 0.045486882, -880888.2, 51059.215, 0.0, 9.999889, 9.999975 
7.5502783e+2, 2.1490446e+2, -878412.5, -853377.25, -21796.309, -0.09294418, 0.05014558, -840759.9, -6817.8477, 0.0, 9.999648, 9.999989 
7.550241e+2, 2.2490431e+2, -849737.44, -931090.1, 12024.755, -0.09954207, 0.103858314, -847997.25, -112053.04, 0.0, 9.99977, 9.998733 
7.5502217e+2, 2.3490317e+2, -712583.2, -823265.94, 26209.99, 0.04501922, 0.08463186, -706690.3, -68731.914, 0.0, 10.000065, 9.998668 
7.550192e+2, 2.4490233e+2, -586061.94, -684467.75, -4458.48, 0.09707255, 0.12859376, -585860.4, -45892.11, 0.0, 10.000157, 9.998892 
7.550151e+2, 2.549013e+2, -503399.5, -596065.0, 8579.145, 0.054073412, 0.09557609, -502611.94, -60633.4, 0.0, 10.000056, 9.998875 
7.5501096e+2, 2.6490048e+2, -374181.4, -427638.03, 10248.081, -0.00023562222, 0.111825205, -372284.13, -28298.385, 0.0, 10.000056, 9.999352 
7.550068e+2, 2.7489963e+2, -290295.7, -339129.75, 48986.785, -0.07143162, 0.0531289, -259977.94, -13985.01, 0.0000002213921, 9.99997, 9.999329 
7.550033e+2, 2.8489926e+2, -208209.14, -309276.84, 71824.6, -0.11069535, 0.11796395, -170922.48, -22926.213, 0.000006961638, 10.000109, 9.998798 
7.5500035e+2, 2.9489893e+2, -76971.64, -198152.53, 100429.875, -0.13201477, 0.16280448, -20270.309, 29729.898, 0.00004401986, 10.0003195, 9.998793 
7.5499874e+2, 3.0489728e+2, -78621.77, -193234.39, 9856.741, 0.05558195, 0.13437483, -77780.266, -77780.266, 0.0001416952, 10.000117, 9.9985695 
7.5499314e+2, 3.1489733e+2, -161203.77, -128904.31, 72299.06, -0.10269928, 0.23674385, -70973.21, -70973.21, 0.0003069929, 9.999016, 9.999535 
7.65064e+2, 1.2490952e+2, -1752345.8, -1757916.5, 43368.574, -0.04916073, 0.19581383, -1711673.1, 4227.7173, 0.00000000032551553, 9.999707, 9.999833 
7.650603e+2, 1.349089e+2, -1557516.5, -1561511.1, -65110.9, -0.040668625, 0.061978366, -1494372.3, 123532.016, 0.0, 10.000247, 10.000244 
7.650565e+2, 1.4490865e+2, -1479523.6, -1473383.1, -36156.414, -0.03403572, 0.024838325, -1440166.9, 79738.31, 0.0, 10.000082, 10.00025 
7.650538e+2, 1.5491027e+2, -1426105.0, -1393802.5, -70753.016, 0.07838154, 0.11230791, -1337380.6, 84508.09, 0.0, 9.999774, 10.000273 
7.6504946e+2, 1.6491073e+2, -1333268.6, -1372635.8, -83459.69, 0.071022175, 0.17044951, -1267202.8, 56679.773, 0.0, 10.000077, 9.999591 
7.650436e+2, 1.7490971e+2, -1102883.4, -1216078.5, -89805.805, -0.03344316, 0.075227864, -1053328.4, 172561.47, 0.0, 10.001009, 9.999544 
7.650397e+2, 1.8490894e+2, -1040922.3, -1171402.6, 3419.6812, -0.020091869, 0.064431265, -1040832.75, 87064.195, 0.0, 10.0009165, 9.999217 
7.650374e+2, 1.9490792e+2, -1112109.9, -1162408.8, 23690.762, 0.10007628, 0.008030593, -1102708.6, -72800.24, 0.0, 9.999776, 9.999165 
7.650336e+2, 2.0490776e+2, -1003280.8, -995826.3, 18714.69, 0.086674444, 0.054874707, -980471.3, -48560.105, 0.0, 9.999599, 9.999712 
7.65028e+2, 2.1490803e+2, -783208.2, -845722.75, -37169.11, -0.07423161, 0.0766373, -765900.44, 68008.76, 0.0, 10.000443, 9.999672 
7.6502436e+2, 2.2490782e+2, -704681.3, -820570.06, -7396.884, -0.07635469, 0.12269851, -704211.06, 31701.055, 0.0, 10.000614, 9.99908 
7.650225e+2, 2.3490678e+2, -676098.7, -760851.56, -1366.47, 0.081916064, 0.07731523, -676076.7, -38153.766, 0.0, 10.000148, 9.9990425 
7.6501966e+2, 2.4490602e+2, -596016.3, -682396.94, 25576.475, 0.14132898, 0.108195655, -589011.4, -49080.31, 0.0, 10.000058, 9.998955 
7.650156e+2, 2.549052e+2, -467640.6, -572224.06, 16213.512, 0.10039804, 0.09355858, -465184.7, -23244.791, 0.0, 10.000277, 9.998932 
7.6501155e+2, 2.649045e+2, -335654.16, -431417.66, 22005.01, 0.03961332, 0.128006, -330839.78, 13107.158, 0.0, 10.000419, 9.999153 
7.6500726e+2, 2.7490363e+2, -234134.05, -335841.38, -34300.984, -0.0341108, 0.088446595, -223647.25, 22307.92, 0.00000016204108, 10.000459, 9.99912 
7.6500386e+2, 2.8490314e+2, -177232.92, -281905.0, -9847.654, -0.065255426, 0.14765882, -176314.5, -28355.217, 0.000006290961, 10.000274, 9.998896 
7.650011e+2, 2.9490277e+2, -149838.05, -210825.05, -29918.037, -0.05226591, 0.17060505, -137612.2, -87649.805, 0.000041719115, 9.999758, 9.998949 
7.6499873e+2, 3.049009e+2, -103989.39, -246039.73, -54517.973, 0.054998763, 0.13107458, -85478.07, -85478.07, 0.00013461517, 10.000094, 9.998236 
7.6499367e+2, 3.148999e+2, 36945.19, -99771.2, 45678.98, -0.02271587, 0.1663391, 50802.64, 50802.64, 0.00029005748, 10.000637, 9.998977 
7.7506554e+2, 1.2491087e+2, -1735236.5, -1706351.4, -27035.5, 0.044184506, 0.12229596, -1690142.6, 25744.406, 0.0000000023621072, 9.99965, 10.000215 
7.7506125e+2, 1.3491258e+2, -1540096.8, -1514961.8, -38904.01, -0.010794748, 0.19507219, -1486645.8, 131223.02, 0.0, 10.000212, 10.000582 
7.75056e+2, 1.4491282e+2, -1492121.9, -1494954.4, -72262.984, -0.1459191, 0.19618629, -1421261.3, 98603.84, 0.0, 10.000055, 10.000115 
7.750531e+2, 1.5491179e+2, -1441493.1, -1423433.9, -61833.656, -0.01977945, 0.03774015, -1369974.0, 51900.266, 0.0, 9.999762, 10.000074 
7.7504927e+2, 1.6491167e+2, -1321665.5, -1331473.3, -67945.95, 0.006979777, 0.032027643, -1258446.8, 65428.11, 0.0, 10.00001, 9.9999075 
7.7504504e+2, 1.7491205e+2, -1088779.5, -1166590.4, -34670.52, -0.03158693, 0.044976693, -1075572.9, 150297.56, 0.0, 10.000929, 9.999922 
7.750406e+2, 1.849125e+2, -989353.8, -1038268.94, -54051.52, -0.04680478, 0.08959373, -954484.0, 173380.38, 0.0, 10.000793, 10.0002 
7.7503604e+2, 1.9491261e+2, -1063432.8, -1028268.8, -1896.827, -0.054788027, 0.048642747, -1028166.8, 1693.6444, 0.0, 9.999628, 10.000161 
7.750321e+2, 2.0491242e+2, -1108239.5, -1165996.1, 33026.156, -0.050450813, 0.09585663, -1093246.6, -161382.84, 0.0, 9.9994, 9.998637 
7.750292e+2, 2.1491154e+2, -895434.94, -1019777.94, 10028.08, -0.029574044, 0.10869403, -894631.4, -60752.9, 0.0, 10.000202, 9.998588 
7.7502584e+2, 2.2491097e+2, -691874.7, -743389.7, -42596.676, -0.021553975, 0.14660484, -667853.44, 68031.65, 0.0, 10.000393, 9.9997225 
7.7502185e+2, 2.3491044e+2, -658386.7, -677720.06, -1688.9974, -0.033723895, 0.08495737, -658240.25, -20353.367, 0.0, 9.999946, 9.999717 
7.7501845e+2, 2.4490987e+2, -609320.4, -664112.44, 16641.8, -0.016019331, 0.089248545, -604661.9, -64770.31, 0.0, 9.99987, 9.999169 
7.750155e+2, 2.5490898e+2, -482498.88, -554246.56, 42308.855, 0.02489722, 0.047099035, -462902.28, -21000.572, 0.0, 10.000076, 9.999148 
7.750123e+2, 2.6490828e+2, -423814.53, -587446.3, 7600.637, 0.044724993, 0.121219285, -423462.22, -79551.37, 0.0, 10.000302, 9.998141 
7.750088e+2, 2.749073e+2, -323604.56, -491403.03, -13966.576, 0.03332245, 0.17429347, -322450.03, -76525.805, 0.00000014054619, 10.000326, 9.998119 
7.750051e+2, 2.8490588e+2, -197228.55, -293742.5, -43837.25, 0.003152208, 0.19095305, -180290.13, -32351.686, 0.0000059856334, 10.000153, 9.998867 
7.750014e+2, 2.9490384e+2, -168843.38, -228819.34, -24757.701, -0.048768345, 0.048169572, -159944.05, -109988.24, 0.0000396548, 9.999661, 9.998872 
7.7499807e+2, 3.0490297e+2, -69672.945, -150075.53, -43137.26, -0.05107177, 0.08213209, -50908.42, -50908.42, 0.00012692052, 10.000006, 9.998936 
7.749945e+2, 3.1490228e+2, 46425.72, -34667.55, 131555.98, -0.08159257, 0.08230363, 143541.75, 143541.75, 0.00027215088, 10.000445, 9.999521 
7.8506655e+2, 1.2491292e+2, -1555379.3, -1592476.5, 39088.3, 0.13891774, 0.044177525, -1530661.9, 185202.48, 0.0000000040597263, 10.00081, 10.000416 
7.850618e+2, 1.3491547e+2, -1618002.1, -1542708.3, -33164.6, 0.066925324, 0.19467339, -1530183.6, 87655.66, 0.0, 9.999663, 10.000638 
7.85056e+2, 1.4491628e+2, -1603534.9, -1541337.9, -8111.4365, -0.105214424, 0.24425969, -1540297.5, -20466.332, 0.0, 9.999273, 10.000167 
7.850533e+2, 1.5491478e+2, -1412032.4, -1404339.3, -22258.016, 0.02497476, 0.037848856, -1385597.9, 36247.258, 0.0, 9.99996, 10.000103 
7.850497e+2, 1.6491461e+2, -1299956.1, -1297638.8, 16279.976, 0.058924783, 0.018314926, -1282476.4, 41370.164, 0.0, 10.000058, 10.00011 
7.850457e+2, 1.7491548e+2, -1293818.5, -1242151.5, -1180.9482, 0.02202374, 0.057690762, -1242124.5, -16286.134, 0.0, 9.999428, 10.000119 
7.850413e+2, 1.8491626e+2, -1140016.4, -1092354.8, -29389.63, 0.0031748482, 0.11752953, -1078348.4, 49480.74, 0.0, 9.999682, 10.000361 
7.850365e+2, 1.9491658e+2, -893088.3, -925164.1, -72012.336, -0.014092643, 0.079100974, -835349.56, 194472.97, 0.0, 10.000723, 10.000332 
7.850326e+2, 2.0491634e+2, -876884.75, -1071171.1, 10458.968, -0.018008651, 0.119129844, -876323.4, 55502.707, 0.0, 10.001048, 9.998503 
7.850297e+2, 2.1491511e+2, -864031.4, -1018014.5, 26083.066, 0.0024780626, 0.116726145, -859733.1, -25889.426, 0.0, 10.000476, 9.99847 
7.850263e+2, 2.2491443e+2, -729485.6, -745959.4, 7146.4463, 0.02023939, 0.13841186, -726817.56, 9033.892, 0.0, 10.000065, 9.999857 
7.850222e+2, 2.3491393e+2, -676372.75, -674564.25, -26368.563, 0.027597025, 0.0675976, -649084.44, -11232.008, 0.0, 9.999769, 9.999824 
7.850187e+2, 2.4491362e+2, -610987.2, -666348.6, 24366.814, 0.03669533, 0.0949323, -601790.2, -61935.152, 0.0, 9.999866, 9.999152 
7.850158e+2, 2.5491318e+2, -442762.28, -540754.4, -1223.0079, 0.04746225, 0.10042988, -442747.0, -884.4934, 0.0, 10.000359, 9.999109 
7.850128e+2, 2.649125e+2, -399066.72, -581671.7, 8087.6387, 0.062826715, 0.17694499, -398709.22, -54836.766, 0.0, 10.000512, 9.998074 
7.850095e+2, 2.74911e+2, -329911.88, -501922.9, 19523.77, 0.089372724, 0.18765207, -327723.7, -81833.84, 0.0000001311964, 10.000322, 9.998043 
7.85006e+2, 2.8490928e+2, -199629.06, -312617.38, 49658.207, 0.07921792, 0.18682119, -180906.69, -32999.75, 0.0000058891046, 10.000207, 9.99872 
7.850021e+2, 2.9490736e+2, -124320.03, -230836.2, 18993.057, 0.047037844, 0.07586362, -121034.68, -71110.734, 0.000037489564, 10.000056, 9.998681 
7.849982e+2, 3.0490664e+2, -51678.74, -144979.9, 36802.824, -0.03004649, 0.13562788, -38909.42, -38909.42, 0.00011865352, 10.000126, 9.998912 
7.849957e+2, 3.1490588e+2, 6452.405, -8449.512, 77560.37, 0.034438163, 0.120446816, 76918.89, 76918.89, 0.00025448482, 9.999963, 9.999925 
7.9506576e+2, 1.2491618e+2, -1548844.9, -1599602.1, -88948.46, -0.1118382, -0.009950725, -1481725.4, 234102.6, 0.0000000034592607, 10.00089, 10.000334 
7.950614e+2, 1.3491765e+2, -1626150.1, -1576073.8, -64914.52, 0.016883673, 0.05732101, -1531536.0, 86279.195, 0.0, 9.999727, 10.000379 
7.950559e+2, 1.4491901e+2, -1596006.6, -1516390.6, -7455.6895, -0.08704498, 0.16840123, -1515698.4, 4104.449, 0.0, 9.999242, 10.000348 
7.9505396e+2, 1.549192e+2, -1397461.3, -1369250.0, 24235.748, 0.051461063, 0.10442934, -1355313.9, 66487.41, 0.0, 9.999946, 10.000344 
7.950502e+2, 1.6491961e+2, -1298978.6, -1291641.6, -24929.23, 0.06685299, 0.12634197, -1270112.4, 53684.9, 0.0, 10.000029, 10.000173 
7.95045e+2, 1.7492e+2, -1290811.1, -1236383.9, -8226.937, -0.025558574, 0.111967705, -1235167.6, -9373.974, 0.0, 9.999416, 10.000169 
7.950411e+2, 1.8492019e+2, -1209204.1, -1203610.8, -7057.652, -0.02319527, 0.14592703, -1198815.9, -71024.414, 0.0, 9.999551, 9.999657 
7.9503834e+2, 1.9491976e+2, -958686.25, -1030678.9, -15862.155, 0.059020914, 0.099506855, -955346.25, 74448.83, 0.0, 10.000598, 9.999662 
7.950344e+2, 2.0491944e+2, -843321.44, -959822.3, -28614.654, 0.030877942, 0.12266603, -836672.6, 95125.61, 0.0, 10.000867, 9.999352 
7.950292e+2, 2.1491876e+2, -834269.7, -908515.4, 21370.549, -0.12415411, 0.083907165, -828557.94, 5247.628, 0.0, 10.000269, 9.99932 
7.950255e+2, 2.2491816e+2, -793567.4, -823825.2, -18466.625, -0.0939381, 0.09263886, -784823.7, -49012.406, 0.0, 9.999827, 9.999437 
7.950232e+2, 2.3491731e+2, -734183.2, -750068.56, -18300.174, 0.11728665, 0.031855885, -722176.4, -84357.74, 0.0, 9.999574, 9.9994 
7.9502004e+2, 2.4491733e+2, -655300.94, -715881.0, 26110.23, 0.151067, 0.12611288, -645600.56, -105779.58, 0.0, 9.999686, 9.9988985 
7.9501605e+2, 2.5491783e+2, -489577.6, -592309.9, 35261.324, -0.00093558367, 0.25227883, -478639.3, -36816.996, 0.0, 10.000166, 9.998847 
7.9501235e+2, 2.649171e+2, -352508.16, -462748.22, -13529.439, -0.06340165, 0.29562706, -350872.0, -7040.6313, 0.0, 10.000405, 9.998942 
7.95009e+2, 2.7491474e+2, -287476.03, -389505.44, 36573.145, -0.028061045, 0.1298119, -275720.56, -29868.555, 0.000000103459534, 10.000211, 9.998869 
7.950059e+2, 2.8491348e+2, -230237.38, -358607.6, 29908.371, 0.016005209, 0.14832883, -223611.2, -75747.625, 0.0000054454867, 10.000132, 9.998441 
7.950026e+2, 2.9491326e+2, -166441.1, -285577.66, 40396.902, 0.03662983, 0.23714297, -154035.14, -104167.88, 0.00003447301, 9.999912, 9.998377 
7.9499835e+2, 3.0491197e+2, -119142.34, -261075.45, 27538.96, -0.0564352, 0.2876677, -113986.33, -113986.33, 0.0001104858, 10.00002, 9.998162 
7.9499626e+2, 3.149087e+2, -17494.951, -20081.164, 99307.06, 0.010789221, 0.09971797, 80527.43, 80527.43, 0.000240168, 9.999796, 9.999924 
8.050659e+2, 1.24921076e+2, -1669683.9, -1676863.5, -9423.706, -0.13000403, -0.016102355, -1663189.4, 52587.832, 0.0000000057252847, 10.00015, 10.000176 
8.0506194e+2, 1.349215e+2, -1545591.9, -1587067.8, -31889.791, 0.07713139, -0.0053956443, -1528290.0, 89485.375, 0.0, 10.000483, 9.999963 
8.050566e+2, 1.4492269e+2, -1432819.1, -1428440.6, 85762.53, 0.015506704, 0.10639699, -1344839.4, 174925.78, 0.0, 10.000335, 10.0004225 
8.0505395e+2, 1.5492356e+2, -1376203.5, -1357947.6, 59788.535, 0.06696946, 0.106034525, -1306594.3, 115162.5, 0.0, 10.000082, 10.000362 
8.050502e+2, 1.6492404e+2, -1304065.0, -1296709.1, 20796.436, 0.06354939, 0.13638797, -1279267.9, 44484.066, 0.0, 10.000027, 10.000138 
8.0504525e+2, 1.7492391e+2, -1172690.9, -1187761.5, -7581.753, 0.022682153, 0.080044106, -1169536.8, 56216.54, 0.0, 10.000277, 10.000094 
8.050416e+2, 1.849238e+2, -1081119.0, -1161983.3, 68270.7, 0.03837429, 0.09881421, -1042206.0, 85548.73, 0.0, 10.000536, 9.999461 
8.050392e+2, 1.9492333e+2, -963429.4, -1062031.0, 57172.645, 0.09775005, 0.0733515, -937236.6, 92523.555, 0.0, 10.000699, 9.999405 
8.050353e+2, 2.0492311e+2, -862401.94, -935517.1, 28312.953, 0.05723181, 0.1068463, -852720.1, 79042.15, 0.0, 10.00059, 9.999656 
8.0502975e+2, 2.1492274e+2, -841802.2, -878178.56, -1773.0023, -0.089024514, 0.07040013, -841716.0, -7950.933, 0.0, 10.000075, 9.9996195 
8.0502576e+2, 2.2492218e+2, -783181.8, -848523.4, -1731.6095, -0.051413383, 0.08019949, -783135.94, -47365.633, 0.0, 10.000022, 9.999169 
8.0502355e+2, 2.349211e+2, -640626.75, -734749.3, -21790.807, 0.1665221, 0.02084107, -635826.6, 1954.7052, 0.0, 10.00035, 9.999125 
8.050203e+2, 2.4492097e+2, -559884.4, -684668.1, 69397.13, 0.1811389, 0.119892746, -528955.8, 10830.115, 0.0, 10.00039, 9.99878 
8.0501604e+2, 2.549214e+2, -509208.2, -615393.4, 52339.484, -0.0040519033, 0.2495131, -487747.16, -45958.85, 0.0, 10.000077, 9.998739 
8.050125e+2, 2.649208e+2, -386234.4, -434350.44, 20907.34, -0.056650646, 0.29152325, -378419.16, -34623.656, 0.0, 9.9999695, 9.999357 
8.0500984e+2, 2.7491874e+2, -272531.25, -331714.78, 3973.849, 0.041679118, 0.11442842, -272265.63, -26454.188, 0.00000004701224, 10.000077, 9.999338 
8.050068e+2, 2.8491774e+2, -224502.66, -366678.4, 29819.771, 0.09576087, 0.13942954, -218501.6, -70681.35, 0.000004093495, 10.000216, 9.998347 
8.050031e+2, 2.9491764e+2, -92167.2, -257400.78, 14525.323, 0.087401375, 0.24325056, -90900.03, -41075.492, 0.000029631305, 10.000464, 9.998302 
8.049985e+2, 3.04916e+2, -65445.637, -265114.66, 53953.03, -0.051832937, 0.27928925, -51799.492, -51799.492, 0.00010221737, 10.000512, 9.997914 
8.04997e+2, 3.1491372e+2, -31508.69, -52178.055, 69740.48, 0.117097504, 0.21572155, 28658.682, 28658.682, 0.00023173698, 9.999811, 9.999709 
8.150656e+2, 1.2492778e+2, -1682345.5, -1719698.4, -72771.56, -0.2563193, 0.04665056, -1625892.0, 89818.09, 0.000000004999778, 10.000216, 9.999851 
8.150628e+2, 1.3492718e+2, -1576167.6, -1659563.5, -8193.427, 0.06932019, 0.004412397, -1575370.3, 42348.46, 0.0, 10.000529, 9.999435 
8.150575e+2, 1.4492747e+2, -1441815.9, -1456160.6, 53317.656, 0.018765979, 0.06480303, -1395190.4, 124526.195, 0.0, 10.000365, 10.000224 
8.15053e+2, 1.5492792e+2, -1386779.6, -1379194.1, 66589.0, -0.088003024, 0.043468803, -1316289.9, 105420.734, 0.0, 10.000078, 10.00022 
8.150489e+2, 1.6492796e+2, -1329823.3, -1336947.5, 11422.414, -0.10356563, 0.04916399, -1321420.5, 2289.0742, 0.0, 9.9999695, 9.999887 
8.150457e+2, 1.7492725e+2, -1194023.5, -1219562.1, 20265.729, 0.0064158593, -0.046501398, -1182839.6, 42877.105, 0.0, 10.000228, 9.999892 
8.1504244e+2, 1.8492715e+2, -1082793.4, -1145045.4, 59024.805, 0.032983806, -0.025746316, -1047190.4, 80527.734, 0.0, 10.000437, 9.99963 
8.1503874e+2, 1.9492732e+2, -968797.06, -1046731.06, 81854.57, -0.054999176, -0.005066532, -917107.56, 112609.7, 0.0, 10.000576, 9.999569 
8.150348e+2, 2.0492744e+2, -918411.56, -1002941.6, -8261.387, -0.076759815, 0.072426476, -917611.7, 14105.599, 0.0, 10.000381, 9.999295 
8.150306e+2, 2.1492715e+2, -897062.44, -940491.06, -2357.4631, -0.037083153, 0.07719744, -896934.9, -63213.1, 0.0, 9.999851, 9.999299 
8.1502664e+2, 2.2492656e+2, -825447.25, -876844.2, -7958.9976, -0.00041613184, 0.103727356, -824243.0, -88514.77, 0.0, 9.999774, 9.999093 
8.150227e+2, 2.3492524e+2, -682087.1, -761817.56, 8282.362, 0.016860666, 0.029537315, -681235.8, -43495.008, 0.0, 10.000103, 9.999054 
8.15019e+2, 2.4492449e+2, -590773.25, -701630.94, 40778.234, -0.018241623, 0.06955476, -577389.2, -37638.93, 0.0, 10.000187, 9.998763 
8.1501544e+2, 2.5492394e+2, -539060.1, -635570.75, 58723.36, -0.10701789, 0.102367975, -511308.8, -69548.83, 0.0, 9.999897, 9.998689 
8.150128e+2, 2.6492357e+2, -400560.47, -434225.94, 8787.3545, -0.05628223, 0.17115313, -398404.84, -54640.24, 0.0, 9.999847, 9.999414 
8.1501114e+2, 2.7492303e+2, -301724.53, -339648.28, 29610.35, 0.13331227, 0.14115687, -285525.0, -39756.86, 0.000000004527389, 9.999862, 9.999385 
8.15008e+2, 2.849221e+2, -234873.44, -364572.66, 22985.898, 0.16060485, 0.16060086, -230920.25, -83142.7, 0.0000024308686, 10.000108, 9.998415 
8.150033e+2, 2.9492047e+2, -115480.34, -270470.66, 50678.78, 0.009884454, 0.11509741, -100380.48, -50585.168, 0.00002455122, 10.000316, 9.998284 
8.1499815e+2, 3.0491862e+2, -56221.895, -234525.05, 17291.127, -0.17422, 0.12057084, -54560.55, -54560.55, 0.00009685274, 10.000472, 9.998137 
8.1499654e+2, 3.1491992e+2, -86433.85, -103113.95, 64879.313, 0.0030166558, 0.38870764, -29360.746, -29360.746, 0.00023260372, 9.999561, 9.999475 
8.250677e+2, 1.2493368e+2, -1729099.3, -1760019.8, -15453.715, -0.03949741, 0.025607714, -1722700.0, -7048.551, 0.0000000017683296, 9.999962, 9.999697 
8.250634e+2, 1.3493301e+2, -1499040.0, -1665840.4, 15473.923, 0.06092129, 0.008688824, -1497616.6, 120043.5, 0.0, 10.001228, 9.999065 
8.2505804e+2, 1.4493264e+2, -1338205.3, -1440247.8, 77654.39, 0.0059814183, 0.03729139, -1296310.5, 223353.92, 0.0, 10.001231, 9.99991 
8.2505333e+2, 1.5493271e+2, -1372965.3, -1410733.0, 35405.32, -0.058515154, 0.009503297, -1351722.6, 69940.51, 0.0, 10.000348, 9.999865 
8.250493e+2, 1.6493265e+2, -1309567.0, -1339315.3, 47331.203, -0.060030572, 0.026279854, -1274827.8, 48835.53, 0.0, 10.000137, 9.999795 
8.2504624e+2, 1.7493215e+2, -1166281.6, -1224559.5, 30182.336, 0.035342626, -0.036815863, -1153467.6, 72200.45, 0.0, 10.000465, 9.999757 
8.25043e+2, 1.8493213e+2, -1064939.4, -1138508.5, 90425.87, 0.05570047, -0.0018604257, -1004102.56, 123566.39, 0.0, 10.000557, 9.999621 
8.250394e+2, 1.949322e+2, -997666.0, -1063137.8, 63511.68, -0.030303478, 0.008837325, -958950.0, 70719.7, 0.0, 10.00038, 9.999551 
8.250355e+2, 2.0493217e+2, -923157.44, -1014881.56, 6109.565, -0.03414505, 0.07756328, -922752.25, 8919.062, 0.0, 10.000392, 9.999198 
8.2503164e+2, 2.1493176e+2, -802932.75, -911391.25, -8904.563, 0.054680623, 0.083248034, -802206.56, 31470.592, 0.0, 10.000561, 9.999161 
8.250275e+2, 2.2493118e+2, -689649.0, -833394.75, 43765.27, 0.07337275, 0.12656711, -677372.56, 58311.57, 0.0, 10.00078, 9.998925 
8.250231e+2, 2.3492996e+2, -559958.75, -726101.6, 17129.373, 0.017325196, 0.080236584, -558211.06, 79485.62, 0.0, 10.001016, 9.998878 
8.250193e+2, 2.449289e+2, -493378.63, -633152.2, 59923.89, -0.021743843, 0.090016805, -471205.47, 68502.4, 0.0, 10.000774, 9.998946 
8.250159e+2, 2.5492766e+2, -490639.28, -586205.9, 56684.438, -0.04495883, 0.03541556, -464285.06, -22564.113, 0.0, 10.000137, 9.998905 
8.2501334e+2, 2.6492724e+2, -391630.6, -469930.66, 61343.414, 0.015152536, 0.10413401, -358008.78, -14282.588, 0.0, 10.000088, 9.999049 
8.250117e+2, 2.7492723e+2, -220536.47, -338466.72, 13598.626, 0.17066994, 0.16096169, -218988.7, 26739.209, 0.0, 10.000593, 9.999032 
8.2500845e+2, 2.8492644e+2, -175844.86, -322432.6, 12781.37, 0.18298171, 0.21001537, -174738.77, -27001.674, 0.000001518397, 10.000454, 9.998541 
8.250036e+2, 2.949245e+2, -208841.95, -299993.56, 7139.4805, 0.05928195, 0.11742365, -208286.14, -158528.52, 0.000022026383, 9.999584, 9.998439 
8.249987e+2, 3.0492282e+2, -160631.69, -210488.66, 50719.094, -0.10528022, 0.09993358, -129045.96, -129045.96, 0.00009707927, 9.999447, 9.998785 
8.249965e+2, 3.149236e+2, -15761.101, -28642.795, 36413.313, 0.044880692, 0.24550696, 14776.612, 14776.612, 0.00024343749, 9.999848, 9.999845 
8.3507067e+2, 1.2493936e+2, -1738385.8, -1767305.5, -23631.82, 0.18291408, -0.023130558, -1725140.9, -9545.302, 0.000000000051048894, 9.999922, 9.999663 
8.3506346e+2, 1.3493916e+2, -1494794.4, -1656266.5, 78068.02, -0.09889342, 0.009169558, -1463223.1, 154375.11, 0.0, 10.00124, 9.999118 
8.3505774e+2, 1.4493828e+2, -1385590.4, -1536606.3, 21445.06, -0.19656587, 0.0153362835, -1382604.1, 137004.11, 0.0, 10.001216, 9.999258 
8.350545e+2, 1.5493788e+2, -1415714.0, -1498403.4, 19292.316, -0.022621024, 0.0010946472, -1411434.4, 10179.833, 0.0, 10.00034, 9.999265 
8.3505064e+2, 1.6493805e+2, -1317932.0, -1335822.6, 40605.61, 0.030277055, 0.067296796, -1285298.1, 38315.305, 0.0, 10.00005, 9.999865 
8.350465e+2, 1.749387e+2, -1168359.6, -1214452.5, 61795.008, -0.027502485, 0.111781634, -1125453.4, 100153.09, 0.0, 10.000412, 9.999847 
8.3504313e+2, 1.849388e+2, -1097898.5, -1182975.3, 65856.01, -0.028106462, 0.169867, -1062037.1, 65569.1, 0.0, 10.000453, 9.99937 
8.3504057e+2, 1.9493787e+2, -1034967.44, -1100189.1, 74302.13, 0.015397446, 0.10409961, -986434.75, 43182.89, 0.0, 10.000216, 9.999373 
8.3503693e+2, 2.0493726e+2, -946750.25, -1018998.1, -5315.4053, 0.03552541, 0.11822326, -946361.3, -14736.621, 0.0, 10.000189, 9.999271 
8.3503217e+2, 2.1493663e+2, -828022.94, -912022.06, 16153.997, 0.024292553, 0.09028982, -825023.44, 8607.396, 0.0, 10.00034, 9.999259 
8.35028e+2, 2.2493611e+2, -740395.44, -888937.56, 34970.008, 0.0211093, 0.14868332, -732574.5, 3062.9014, 0.0, 10.00056, 9.998652 
8.350244e+2, 2.3493531e+2, -612070.1, -783987.4, 44680.33, 0.014153758, 0.17239973, -601151.44, 36496.633, 0.0, 10.000793, 9.9985895 
8.350208e+2, 2.4493434e+2, -492866.03, -591845.56, 20033.438, 0.016090296, 0.18551686, -488965.0, 50692.516, 0.0, 10.000593, 9.999319 
8.350171e+2, 2.549327e+2, -490547.8, -548189.9, 52580.953, 0.0236663, 0.053345136, -459407.13, -17736.92, 0.0, 9.999967, 9.999251 
8.3501375e+2, 2.6493183e+2, -464102.44, -591488.8, 64076.863, 0.01496436, 0.09824626, -437448.13, -93768.26, 0.0, 9.999959, 9.99828 
8.3501077e+2, 2.7493137e+2, -298539.94, -466668.63, 54351.65, -0.017849015, 0.18733418, -282499.75, -36809.402, 0.0, 10.000443, 9.998227 
8.3500737e+2, 2.849309e+2, -169934.7, -286353.06, -35942.37, 0.00065249857, 0.29466838, -159732.17, -12033.532, 0.0000012583888, 10.000355, 9.998836 
8.350037e+2, 2.9492992e+2, -217862.88, -273495.75, -2780.4988, 0.0594089, 0.2714735, -217724.27, -168014.72, 0.000022671806, 9.999393, 9.998717 
8.349994e+2, 3.049287e+2, -93077.61, -47023.22, 60813.4, -0.009585719, 0.22408025, -5023.333, -5023.333, 0.0001036696, 9.9993515, 9.99995 
8.349959e+2, 3.149276e+2, 19318.945, 97839.45, 88270.38, -0.07864892, 0.06941835, 155186.8, 155186.8, 0.00026239955, 9.999635, 10.000811 
8.450726e+2, 1.2494544e+2, -1484905.0, -1634548.8, -35112.465, 0.32039493, 0.05131775, -1477075.8, 238464.08, 0.0, 10.001598, 9.999769 
8.4506416e+2, 1.349452e+2, -1625708.5, -1698084.9, 8044.8413, -0.08932037, 0.057107564, -1624825.1, -7283.6704, 0.0, 10.000241, 9.999315 
8.450584e+2, 1.4494407e+2, -1592921.4, -1655616.9, 27772.643, -0.17184415, 0.036997646, -1582388.4, -62834.99, 0.0, 9.999885, 9.999078 
8.450554e+2, 1.5494354e+2, -1334871.3, -1484460.8, 17460.234, 0.013694408, 0.028912386, -1332860.4, 88700.68, 0.0, 10.001004, 9.999043 
8.4505165e+2, 1.6494352e+2, -1140348.9, -1262733.8, 77636.19, 0.069453396, 0.09249426, -1102688.4, 220873.42, 0.0, 10.001341, 9.999736 
8.450472e+2, 1.7494385e+2, -1131914.4, -1212374.0, 42951.33, -0.0038373747, 0.12261435, -1113294.8, 112262.48, 0.0, 10.00075, 9.999693 
8.450437e+2, 1.8494383e+2, -1112169.3, -1185649.1, 73123.445, 0.0030298822, 0.17353664, -1067074.9, 60482.93, 0.0, 10.000336, 9.999403 
8.450412e+2, 1.9494294e+2, -1062623.9, -1118378.6, 67217.78, 0.08171241, 0.109131865, -1017731.94, 11836.857, 0.0, 10.0000305, 9.999343 
8.4503764e+2, 2.0494236e+2, -914079.7, -986051.9, 60934.18, 0.092762165, 0.12033833, -879298.75, 52276.26, 0.0, 10.000355, 9.999414 
8.4503293e+2, 2.1494173e+2, -693312.25, -835942.44, 46264.492, 0.032936975, 0.08255635, -679620.0, 153960.22, 0.0, 10.001226, 9.999354 
8.45029e+2, 2.2494116e+2, -634746.2, -840473.2, 80806.234, 0.032393806, 0.13488957, -606802.44, 128784.37, 0.0, 10.00131, 9.9986105 
8.450258e+2, 2.3494044e+2, -654521.6, -804034.9, 67644.94, 0.0897224, 0.16898997, -628459.7, 9137.269, 0.0, 10.000528, 9.998565 
8.45022e+2, 2.4493957e+2, -529521.6, -627885.56, 75499.82, 0.09788951, 0.202196, -488597.6, 51007.977, 0.0, 10.000414, 9.999164 
8.4501785e+2, 2.5493804e+2, -360944.6, -498647.13, 33747.707, 0.06136673, 0.097980075, -353118.56, 88498.75, 0.0, 10.000917, 9.99913 
8.4501404e+2, 2.6493686e+2, -339954.9, -540123.75, 89474.5, 0.012509176, 0.120599456, -305791.16, 37838.61, 0.0, 10.000836, 9.998209 
8.4501076e+2, 2.749357e+2, -337941.13, -495668.2, 97198.85, -0.04014576, 0.14674471, -291636.47, -45989.94, 0.0000000050987805, 10.000194, 9.998158 
8.450073e+2, 2.8493527e+2, -205531.84, -287781.72, 58099.11, -0.016635595, 0.25580907, -175475.55, -27821.307, 0.0000017149706, 10.00004, 9.998971 
8.450037e+2, 2.9493517e+2, -70590.53, -173951.9, 38739.02, 0.09156159, 0.29873717, -57683.254, -8025.978, 0.0000255943, 10.000297, 9.998949 
8.45e+2, 3.0493423e+2, 25080.928, -3436.897, 98901.35, 0.08839304, 0.27353716, 110745.95, 110745.95, 0.000114914044, 10.000203, 9.999851 
8.449962e+2, 3.1493223e+2, -14680.589, 97597.625, -24808.904, 0.022578755, 0.03820812, 102835.07, 102835.07, 0.00028702893, 9.999289, 10.000988 
8.550725e+2, 1.2495182e+2, -1486399.1, -1621649.5, -125227.44, 0.06506286, 0.21979156, -1411704.0, 303780.88, 0.0, 10.001544, 9.99988 
8.5506475e+2, 1.3495134e+2, -1602446.0, -1635763.4, -32312.123, -0.08646328, 0.15911195, -1582751.1, 34737.066, 0.0, 10.000208, 9.999743 
8.550595e+2, 1.4495027e+2, -1576166.6, -1622278.9, 47863.168, -0.0976791, 0.11180848, -1546095.9, -26598.2, 0.0, 9.999878, 9.999321 
8.5505575e+2, 1.5494977e+2, -1316488.4, -1444334.1, 82614.92, -0.1020472, 0.08538909, -1275953.9, 145548.42, 0.0, 10.0009985, 9.999322 
8.550518e+2, 1.6494903e+2, -1183297.5, -1339779.9, 35798.684, -0.0861369, 0.09093862, -1175496.6, 148011.81, 0.0, 10.001286, 9.999235 
8.550478e+2, 1.7494762e+2, -1171155.0, -1280046.1, 37264.49, -0.04874501, -0.010198612, -1159623.6, 65896.77, 0.0, 10.000694, 9.999252 
8.5504425e+2, 1.8494727e+2, -1106545.4, -1153136.6, 44543.383, -0.012641061, 0.014261235, -1079573.8, 47949.59, 0.0, 10.000229, 9.999686 
8.550409e+2, 1.949476e+2, -1053150.6, -1078209.0, 72571.586, 0.009727346, 0.04346621, -992034.6, 37486.27, 0.0, 9.999932, 9.999668 
8.5503733e+2, 2.0494767e+2, -936381.4, -991814.9, 75162.82, -0.0033323783, 0.10096884, -883987.8, 47532.383, 0.0, 10.000178, 9.999465 
8.550335e+2, 2.1494699e+2, -721004.9, -836146.44, 97592.78, -0.063734554, 0.051037174, -665267.44, 168258.36, 0.0, 10.000985, 9.999467 
8.550299e+2, 2.2494628e+2, -658793.44, -837540.6, 34160.05, -0.03284232, 0.07636065, -652487.6, 83045.17, 0.0, 10.001076, 9.998747 
8.5502654e+2, 2.3494527e+2, -673244.5, -797433.9, 57732.78, 0.08924651, 0.065083556, -650552.25, -13008.307, 0.0, 10.000327, 9.998708 
8.550225e+2, 2.4494459e+2, -606854.25, -740508.25, 77336.51, 0.07476241, 0.14417712, -571471.7, -31919.7, 0.0, 10.000216, 9.998484 
8.5501766e+2, 2.5494367e+2, -440770.2, -613293.1, 70318.38, -0.078406006, 0.16787241, -415740.5, 25821.813, 0.0, 10.000702, 9.9984455 
8.550139e+2, 2.649423e+2, -315515.8, -455991.03, 47151.746, -0.11453886, 0.17056516, -301156.7, 42419.793, 0.0, 10.000688, 9.998864 
8.5501117e+2, 2.749401e+2, -314318.75, -411990.1, 95856.53, -0.049874976, 0.030280478, -255574.69, -9977.229, 0.0000001292932, 10.000048, 9.998805 
8.5500765e+2, 2.8493965e+2, -215140.34, -288590.4, 54171.125, -0.024598278, 0.09871814, -186418.92, -38815.48, 0.0000031613251, 9.99995, 9.999009 
8.550032e+2, 2.9494014e+2, -86469.055, -184061.84, 70871.76, -0.04563739, 0.20270401, -49219.566, 381.87946, 0.000030116835, 10.000184, 9.9989395 
8.5499984e+2, 3.049393e+2, -85420.39, -192942.94, 54977.8, 0.023918888, 0.24880624, -62286.715, -62286.715, 0.00012742863, 10.000063, 9.998605 
8.549968e+2, 3.149374e+2, -124147.4, -68797.82, 19051.115, 0.069836296, 0.15964311, -62874.41, -62874.41, 0.00031382052, 9.999053, 9.999953 
8.65073e+2, 1.2495719e+2, -1793712.4, -1788553.6, -4478.3467, 0.080754876, 0.17961839, -1785964.9, -70533.43, 0.00000000000000000000885557, 9.999506, 9.99972 
8.6506546e+2, 1.3495702e+2, -1556839.3, -1628836.1, -16583.418, -0.041567847, 0.15735771, -1553203.1, 64230.45, 0.0, 10.000551, 9.999641 
8.650606e+2, 1.449563e+2, -1428374.4, -1520137.9, 114660.12, -0.0070764893, 0.13533857, -1350756.9, 168683.06, 0.0, 10.000747, 9.999606 
8.650567e+2, 1.5495615e+2, -1379208.5, -1457113.3, 107306.22, -0.063223585, 0.11833953, -1304003.5, 117436.47, 0.0, 10.000457, 9.999517 
8.650527e+2, 1.6495526e+2, -1329819.0, -1428466.6, 89044.86, -0.07018647, 0.109877944, -1277349.8, 46097.19, 0.0, 10.000362, 9.999065 
8.6504865e+2, 1.7495331e+2, -1206780.1, -1324316.1, 73659.69, -0.023318077, -0.02633888, -1171317.4, 54147.27, 0.0, 10.00055, 9.999022 
8.6504495e+2, 1.8495262e+2, -1048982.4, -1131566.6, 113688.49, 0.018122694, -0.019697478, -969319.5, 158151.06, 0.0, 10.0006895, 9.999593 
8.6504143e+2, 1.9495292e+2, -938160.9, -1035741.6, 76263.5, 0.036896538, 0.018443724, -896416.06, 133051.45, 0.0, 10.000807, 9.999526 
8.650381e+2, 2.0495287e+2, -850853.3, -967485.75, 102630.42, 0.028964765, 0.07944318, -791128.06, 140339.5, 0.0, 10.000836, 9.999312 
8.6503464e+2, 2.1495202e+2, -782929.9, -890883.5, 69892.164, -0.01696839, 0.027987538, -748598.06, 84877.086, 0.0, 10.0006485, 9.999261 
8.650312e+2, 2.2495115e+2, -669635.1, -829005.8, 19997.867, -0.0006145872, 0.041123178, -667164.1, 68319.164, 0.0, 10.000967, 9.998852 
8.650275e+2, 2.3494996e+2, -446862.4, -676140.7, 949.588, 0.079986475, 0.005321597, -446858.47, 190636.03, 0.0, 10.001844, 9.998804 
8.650233e+2, 2.4494918e+2, -408737.63, -666315.5, 53454.0, 0.07272756, 0.077328436, -398085.1, 141418.6, 0.0, 10.001678, 9.9982815 
8.6501867e+2, 2.5494826e+2, -487983.06, -660812.56, 46002.625, -0.025837664, 0.124556266, -476501.2, -34985.71, 0.0, 10.000491, 9.998221 
8.6501485e+2, 2.6494703e+2, -393646.34, -448581.56, 74185.68, -0.043781903, 0.13342732, -342006.53, 1521.2877, 0.0000000005766255, 9.999972, 9.999251 
8.6501193e+2, 2.7494505e+2, -268250.03, -346712.75, 57050.004, 0.023464695, -0.023323363, -238244.11, 7300.1406, 0.000000514823, 10.000188, 9.99918 
8.65008e+2, 2.849444e+2, -193503.0, -292494.5, 41716.438, 0.012876387, 0.01642049, -178267.84, -30716.979, 0.0000054394536, 10.000169, 9.998887 
8.65003e+2, 2.9494455e+2, -141308.23, -219068.44, 9999.272, -0.056056403, 0.09897486, -140043.02, -90490.125, 0.000035908153, 9.999854, 9.998865 
8.649998e+2, 3.0494356e+2, -99612.64, -227809.27, 65439.617, 0.024867631, 0.1490379, -72108.9, -72108.9, 0.00014009468, 10.000065, 9.998371 
8.649975e+2, 3.1494346e+2, 31626.148, -12716.089, 66504.48, 0.1856425, 0.25590208, 79557.836, 79557.836, 0.00033844914, 10.000236, 9.999755 
8.7507296e+2, 1.2496183e+2, -1827510.6, -1855801.0, -4119.768, 0.043024153, -0.031244619, -1826923.0, -111545.87, 0.0000000055054987, 9.999493, 9.99926 
8.7506574e+2, 1.3496229e+2, -1591483.0, -1683082.8, 35545.85, -0.103206754, 0.04511798, -1579307.6, 38069.887, 0.0, 10.000497, 9.999281 
8.7506133e+2, 1.4496233e+2, -1424374.8, -1506668.6, 81325.055, -0.06297012, 0.111216016, -1374379.8, 144999.0, 0.0, 10.000718, 9.999716 
8.750579e+2, 1.5496282e+2, -1371753.6, -1429965.5, 113285.95, -0.035970017, 0.14212985, -1283894.4, 137477.97, 0.0, 10.000421, 9.999713 
8.750537e+2, 1.649625e+2, -1325431.3, -1414756.9, 76258.85, -0.045980025, 0.16937438, -1281718.9, 41655.88, 0.0, 10.000325, 9.999186 
8.7504905e+2, 1.7496115e+2, -1204705.8, -1311286.1, 96662.9, -0.07460812, 0.08546891, -1147616.8, 77770.73, 0.0, 10.000507, 9.999133 
8.750453e+2, 1.8496013e+2, -1104307.8, -1224769.0, 101565.16, -0.050005134, 0.08362991, -1046457.0, 80940.086, 0.0, 10.000596, 9.999001 
8.7504244e+2, 1.9495885e+2, -998254.5, -1124041.4, 100361.305, 0.014832859, 0.020705093, -942708.2, 86700.73, 0.0, 10.000655, 9.99899 
8.7503934e+2, 2.0495796e+2, -906398.0, -1040458.0, 79804.164, 0.042140186, 0.04180739, -869208.4, 62208.96, 0.0, 10.000647, 9.998906 
8.75036e+2, 2.149571e+2, -842520.0, -965619.25, 78351.586, 0.02182158, 0.031893644, -804433.7, 28992.084, 0.0, 10.000435, 9.998851 
8.750323e+2, 2.2495608e+2, -704274.9, -851354.75, 34453.62, -0.013231045, 0.0554218, -696604.1, 38830.934, 0.0, 10.000747, 9.998808 
8.75028e+2, 2.3495454e+2, -484866.3, -697860.4, 53062.418, -0.07782835, -0.015709901, -472379.16, 165069.72, 0.0, 10.0015955, 9.998776 
8.75024e+2, 2.4495323e+2, -416747.97, -641947.4, -8296.066, -0.049018178, -0.004614713, -416442.78, 123018.695, 0.0, 10.001491, 9.998543 
8.750203e+2, 2.5495186e+2, -496509.16, -635070.9, 21325.059, 0.061634846, -0.029043619, -493301.44, -51825.418, 0.0, 10.000304, 9.998486 
8.750164e+2, 2.6495114e+2, -404945.47, -457137.94, 65151.305, 0.079781346, 0.0184002, -360858.34, -17375.473, 0.0000000691861, 9.999892, 9.999237 
8.750124e+2, 2.7495053e+2, -289255.25, -357169.38, 84986.11, 0.009225115, -0.004465753, -231693.34, 13793.329, 0.000001269736, 10.000039, 9.999181 
8.7500787e+2, 2.8494975e+2, -222961.84, -335078.06, 13275.907, -0.04714884, 0.032505225, -221411.27, -73916.39, 0.000008255043, 10.000081, 9.998643 
8.750028e+2, 2.949482e+2, -172807.38, -261062.02, 23338.447, -0.105473705, -0.030433439, -167015.73, -117502.484, 0.000042714033, 9.999746, 9.998634 
8.7499934e+2, 3.0494702e+2, -58723.164, -118167.09, 63959.96, -0.05156086, -0.02941466, -17916.61, -17916.61, 0.00015288098, 9.999962, 9.999169 
8.749971e+2, 3.1494808e+2, 40182.86, 28799.537, 144941.02, 0.032064043, 0.12036388, 179543.92, 179543.92, 0.00035815634, 10.000119, 10.000103 
8.850725e+2, 1.2496647e+2, -1821518.4, -1795642.3, -59619.266, 0.07612293, -0.0661684, -1747573.4, -32241.572, 0.00000006865043, 9.999295, 9.999771 
8.850662e+2, 1.3496761e+2, -1692482.6, -1684217.8, -37971.42, -0.04403934, 0.034178946, -1650154.5, -32830.957, 0.0, 9.999591, 9.999718 
8.850622e+2, 1.4496782e+2, -1585162.6, -1601894.9, 52105.508, 0.012194187, 0.10658025, -1540755.9, -21433.213, 0.0, 9.999732, 9.999517 
8.850584e+2, 1.5496771e+2, -1413868.9, -1472633.8, 13871.145, -0.0020436537, 0.098592035, -1410759.3, 10563.92, 0.0, 10.000253, 9.999483 
8.8505435e+2, 1.6496733e+2, -1317708.5, -1401205.9, -8560.196, -0.0072172787, 0.13004027, -1316840.0, 6486.8833, 0.0, 10.000342, 9.999269 
8.8504994e+2, 1.7496665e+2, -1278207.0, -1338710.0, -27184.729, -0.0035397655, 0.102678, -1267787.1, -42452.69, 0.0, 9.999969, 9.9992075 
8.850462e+2, 1.8496594e+2, -1156150.5, -1238739.8, 55018.477, 0.013010752, 0.12514582, -1128653.6, -1312.7072, 0.0, 10.000185, 9.999104 
8.8504326e+2, 1.9496468e+2, -942964.44, -1088765.6, 68060.21, 0.028051058, 0.0537081, -916131.94, 113219.766, 0.0, 10.000992, 9.999072 
8.850403e+2, 2.0496356e+2, -833104.94, -1031884.44, 87399.84, 0.0505535, 0.06071918, -800142.7, 131219.16, 0.0, 10.00127, 9.998665 
8.850373e+2, 2.1496229e+2, -773853.1, -961162.0, 67545.38, 0.08488289, 0.036897816, -752036.6, 81337.42, 0.0, 10.001033, 9.998598 
8.850335e+2, 2.2496109e+2, -724178.3, -868034.7, 76878.75, 0.05107117, 0.056341648, -690825.9, 44559.46, 0.0, 10.00063, 9.998742 
8.8502896e+2, 2.3495953e+2, -714175.6, -821731.6, 52922.023, -0.05999498, -0.00871109, -692502.9, -55103.395, 0.0, 10.000058, 9.998667 
8.850251e+2, 2.4495822e+2, -595474.9, -713057.4, 13997.663, -0.023181476, -0.00038401855, -593831.44, -54419.348, 0.0, 10.0002, 9.998668 
8.8502187e+2, 2.5495672e+2, -357730.94, -555187.44, -4214.5146, 0.15191965, -0.05611609, -357641.03, 83786.38, 0.00000000006372724, 10.001179, 9.998612 
8.850177e+2, 2.64956e+2, -237822.17, -388346.72, 53065.176, 0.17045271, -0.0085339425, -220995.78, 122438.305, 0.00000025387644, 10.001098, 9.999124 
8.850126e+2, 2.749556e+2, -296346.72, -371552.84, 25705.43, 0.042355288, 0.0041807047, -288400.25, -42963.953, 0.0000021793016, 10.000036, 9.999082 
8.8500804e+2, 2.849548e+2, -241771.31, -341153.4, 29376.748, -0.019235505, 0.042253233, -233737.2, -86292.375, 0.000011106664, 9.999962, 9.998635 
8.85004e+2, 2.9495305e+2, 2839.0188, -177525.72, 15785.956, -0.014204616, -0.036678556, 4210.219, 53674.746, 0.000049522223, 10.00097, 9.998606 
8.850001e+2, 3.049519e+2, 132477.39, -38563.957, 48770.094, -0.025615951, -0.02895032, 145406.23, 145406.23, 0.00016467013, 10.001321, 9.999068 
8.849974e+2, 3.1495276e+2, 68440.16, 5290.8174, 2433.6929, 0.054179847, 0.11478119, 68533.81, 68533.81, 0.00037312726, 10.000471, 9.99978 
8.9507043e+2, 1.24971084e+2, -1734372.4, -1594852.4, -89821.305, -0.13886154, 0.0735087, -1550883.3, 164412.44, 0.00000033567557, 9.99923, 10.001168 
8.950664e+2, 1.3497329e+2, -1601771.3, -1490607.1, -18841.527, -0.020284254, 0.15071216, -1487500.5, 129768.16, 0.00000000007521531, 9.99958, 10.001044 
8.9506257e+2, 1.4497317e+2, -1629941.9, -1688936.8, 48613.082, 0.03220024, 0.1502526, -1602576.9, -83309.266, 0.0, 9.999706, 9.998935 
8.95058e+2, 1.54971e+2, -1464042.4, -1565861.1, 55056.78, -0.112390704, 0.001237997, -1439965.0, -18674.92, 0.0, 10.00021, 9.998864 
8.9505404e+2, 1.6496995e+2, -1327573.6, -1408505.5, -41910.363, -0.11274655, -0.0007899929, -1309781.8, 13520.018, 0.0, 10.000287, 9.999241 
8.950507e+2, 1.7496979e+2, -1290845.9, -1342083.5, -21701.217, 0.0490225, 0.021296352, -1282889.9, -57584.848, 0.0, 9.999881, 9.999221 
8.9504725e+2, 1.8497014e+2, -1120342.3, -1138702.8, 67613.65, 0.06187542, 0.10913689, -1061288.5, 66012.56, 0.0, 10.000065, 9.999851 
8.9504343e+2, 1.9497058e+2, -918280.1, -991862.75, 113683.805, -0.08355748, 0.13459115, -835582.5, 193711.48, 0.0, 10.0008, 9.9998255 
8.950404e+2, 2.0496988e+2, -863030.44, -1053703.3, 60633.613, -0.09624131, 0.14797741, -845382.5, 85916.62, 0.0, 10.001089, 9.998606 
8.9503795e+2, 2.1496762e+2, -809961.6, -979966.8, 79018.13, 0.022888131, 0.028314019, -778906.9, 54413.324, 0.0, 10.000799, 9.998577 
8.950345e+2, 2.2496618e+2, -768789.7, -912576.75, 39307.28, 0.055142574, 0.036192056, -758745.75, -23411.652, 0.0, 10.000411, 9.99855 
8.9502966e+2, 2.3496519e+2, -757801.5, -858342.4, 48589.637, -0.019345883, 0.04433424, -738157.2, -100812.78, 0.0, 9.999826, 9.9985285 
8.950258e+2, 2.4496426e+2, -620737.06, -724844.94, 31528.87, -0.000531965, 0.09626906, -611933.1, -72578.85, 0.0, 10.000023, 9.998676 
8.9502287e+2, 2.549629e+2, -392208.66, -572315.7, 50403.504, 0.10114918, 0.056567773, -379062.6, 62305.68, 0.0000000002378373, 10.000947, 9.9986105 
8.950184e+2, 2.6496175e+2, -269862.3, -423799.06, -2643.6382, 0.09057002, 0.07067335, -269816.94, 73562.46, 0.00000030747992, 10.000964, 9.998943 
8.9501226e+2, 2.7496034e+2, -337223.6, -417782.6, 9520.812, -0.03553444, 0.0026520165, -336113.7, -90721.43, 0.0000026197797, 9.99988, 9.9988365 
8.95008e+2, 2.8495944e+2, -241508.39, -329506.3, 49150.715, -0.06072121, 0.0423854, -219539.94, -72138.53, 0.000013171274, 9.999897, 9.998753 
8.9500576e+2, 2.9495892e+2, -4323.104, -165103.55, 74269.15, 0.01664634, 0.06831775, 24732.984, 74141.805, 0.000055655084, 10.000839, 9.998758 
8.9500153e+2, 3.0495813e+2, 41155.508, -183094.4, 5004.5806, -0.04956664, 0.14807841, 41267.14, 41267.14, 0.00017580122, 10.001154, 9.998144 
8.949972e+2, 3.149562e+2, -35695.49, -135367.53, 6310.3877, -0.09057599, 0.104828596, -35297.56, -35297.56, 0.00038747952, 10.000184, 9.998931 
9.050694e+2, 1.249755e+2, -1728038.9, -1577248.1, 23196.643, -0.14325805, 0.13256776, -1573760.4, 141495.14, 0.0000010657902, 9.999163, 10.001336 
9.050665e+2, 1.3497746e+2, -1538948.0, -1455086.4, -63927.613, 0.025543882, 0.17672358, -1420565.0, 196664.42, 0.000000007369457, 9.999968, 10.001104 
9.0506303e+2, 1.449773e+2, -1558517.8, -1636894.6, 14091.714, 0.1009705, 0.15768653, -1556061.1, -36833.305, 0.0, 10.000086, 9.999118 
9.050582e+2, 1.5497492e+2, -1511172.1, -1569646.5, 37997.105, -0.07356115, -0.035473675, -1492465.6, -71214.01, 0.0, 9.999772, 9.999063 
9.050542e+2, 1.6497406e+2, -1368725.4, -1403299.8, 22636.635, -0.08878601, -0.039660532, -1357529.9, -34269.055, 0.0, 9.999897, 9.999474 
9.050511e+2, 1.7497428e+2, -1187110.5, -1264697.9, 18287.477, 0.07590893, 0.00089483906, -1183016.1, 42243.3, 0.0, 10.000474, 9.999467 
9.0504783e+2, 1.8497463e+2, -1045504.2, -1126789.8, 122732.31, 0.096733816, 0.08461951, -956860.25, 170395.14, 0.0, 10.000669, 9.999647 
9.0504444e+2, 1.9497466e+2, -977422.0, -1051585.6, 65898.45, -0.043342397, 0.09064326, -938888.56, 90364.24, 0.0, 10.000485, 9.999585 
9.0504146e+2, 2.0497388e+2, -928888.6, -1078729.5, 7573.1167, -0.064889826, 0.108306296, -928506.8, 2752.229, 0.0, 10.00062, 9.998648 
9.050389e+2, 2.1497184e+2, -759794.4, -954324.94, -10606.598, 0.028125029, 0.008527903, -759217.8, 74060.805, 0.0, 10.001134, 9.99859 
9.050354e+2, 2.2497058e+2, -644023.5, -834139.9, -21443.338, 0.0734826, 0.02479176, -641634.9, 93656.234, 0.0, 10.001214, 9.998696 
9.050308e+2, 2.3496972e+2, -583811.56, -760147.94, -22900.742, 0.058495916, 0.03557535, -580886.0, 56414.02, 0.0, 10.000973, 9.99865 
9.0502685e+2, 2.4496898e+2, -509371.56, -654628.3, 39241.582, 0.07141867, 0.09400714, -499448.25, 39859.684, 0.0, 10.000725, 9.998815 
9.0502363e+2, 2.54968e+2, -448893.94, -582429.6, 30623.926, 0.11274857, 0.07661086, -442205.88, -887.61707, 0.0, 10.000491, 9.9987545 
9.050191e+2, 2.6496682e+2, -350360.4, -495114.1, -10670.876, 0.09898621, 0.09742018, -349578.03, -6247.77, 0.0000002007212, 10.00057, 9.998641 
9.050133e+2, 2.7496496e+2, -195377.66, -379015.66, -45249.945, 0.038458895, 0.017309595, -184833.16, 60515.473, 0.0000025589381, 10.000996, 9.99856 
9.0500915e+2, 2.8496394e+2, -91444.69, -258115.89, 51065.402, 0.019370858, 0.053993095, -77043.41, 70316.21, 0.000014749117, 10.000924, 9.998763 
9.050065e+2, 2.9496357e+2, -82942.266, -196413.36, 28559.67, 0.055523477, 0.099761404, -76159.49, -26795.533, 0.00006245814, 10.000279, 9.998818 
9.050024e+2, 3.0496287e+2, -24155.361, -237013.42, 26456.303, -0.03421294, 0.1951296, -20916.371, -20916.371, 0.00018874744, 10.000788, 9.997966 
9.049988e+2, 3.1496003e+2, 231693.7, -10732.1, -6855.176, -0.022259135, 0.088068046, 231887.39, 231887.39, 0.0004049675, 10.001989, 9.998956 
9.150681e+2, 1.24979995e+2, -1800140.8, -1718206.6, -1394.1627, -0.26960018, 0.13062581, -1718182.9, -2974.111, 0.000002613721, 9.999151, 10.000365 
9.15066e+2, 1.349801e+2, -1621337.1, -1617031.0, -20952.803, -0.06459401, 0.10035978, -1598120.9, 19085.273, 0.00000007607973, 9.999941, 10.0 
9.1506296e+2, 1.4497998e+2, -1498461.6, -1498385.4, -21041.979, 0.03758551, 0.09375591, -1477381.5, 41823.844, 0.0, 10.000027, 10.000096 
9.150586e+2, 1.5497954e+2, -1444627.9, -1423790.5, 43851.582, -0.05365643, -0.0061016954, -1389136.9, 32070.016, 0.0, 9.999745, 10.000072 
9.150544e+2, 1.6497982e+2, -1340422.1, -1341560.0, 22798.318, -0.09910331, 0.030532565, -1318185.6, 5016.42, 0.0, 9.999878, 9.999909 
9.150504e+2, 1.7498036e+2, -1163979.3, -1206804.5, 57289.16, -0.07858751, 0.06013298, -1124231.9, 100963.36, 0.0, 10.000427, 9.999887 
9.150475e+2, 1.8497953e+2, -1138934.6, -1297591.3, 99087.67, -0.0411814, 0.062058978, -1091332.4, 35869.973, 0.0, 10.0005665, 9.998526 
9.150457e+2, 1.94977e+2, -1084027.4, -1229962.4, 78430.91, 0.0007221405, -0.07549294, -1049870.4, -20643.477, 0.0, 10.000308, 9.9984455 
9.1504306e+2, 2.0497574e+2, -956311.6, -1091157.5, 10955.685, -0.005418299, -0.049526375, -955427.3, -24187.234, 0.0, 10.000426, 9.998653 
9.150395e+2, 2.1497528e+2, -795487.2, -970709.44, 24739.889, -0.053024743, 0.00448337, -792061.1, 41185.36, 0.0, 10.000893, 9.998589 
9.150357e+2, 2.2497448e+2, -639529.8, -784853.4, -49450.49, -0.045556612, 0.04647813, -624299.1, 110955.26, 0.0, 10.001026, 9.999133 
9.150316e+2, 2.349731e+2, -585646.0, -712741.8, -12218.861, 0.019013287, -0.039601937, -584481.94, 52784.453, 0.0, 10.000751, 9.999082 
9.1502756e+2, 2.4497247e+2, -517432.72, -630790.9, 14210.27, 0.04301156, -0.0035643463, -515678.5, 23593.379, 0.0, 10.000544, 9.999068 
9.1502357e+2, 2.5497213e+2, -458643.13, -562533.94, 40390.44, 0.025334837, 0.017038157, -444787.97, -3512.1475, 0.0, 10.000312, 9.998981 
9.1501945e+2, 2.649713e+2, -397756.13, -562433.2, -11931.633, 0.044736683, 0.08011586, -396896.13, -53610.438, 0.00000011562638, 10.000442, 9.998239 
9.1501534e+2, 2.7496955e+2, -244313.78, -444889.53, -8214.393, 0.10193941, 0.05107352, -243977.94, 1327.5789, 0.0000025826089, 10.000843, 9.998182 
9.1501087e+2, 2.8496823e+2, -113016.19, -272927.72, 9269.649, 0.06490187, 0.08189723, -112480.64, 34838.434, 0.000017159802, 10.000805, 9.998713 
9.15006e+2, 2.9496714e+2, -114076.24, -227688.05, 29763.717, -0.07375014, 0.0563956, -106751.11, -57422.484, 0.00007135739, 10.000143, 9.998667 
9.150025e+2, 3.0496615e+2, -9668.21, -177793.28, 63098.527, -0.141287, 0.11326706, 11378.409, 11378.409, 0.00020564985, 10.00067, 9.99842 
9.150012e+2, 3.1496423e+2, 272095.78, 139038.27, 74626.0, -0.05931817, 0.04168325, 305542.6, 305542.6, 0.00042848263, 10.001736, 10.000087 
9.250678e+2, 1.2498437e+2, -1852416.4, -1788062.6, 67208.375, -0.18909714, 0.11482821, -1745725.6, -30562.852, 0.0000053718704, 9.998979, 9.99998 
9.2506564e+2, 1.3498399e+2, -1715732.8, -1706383.9, 36965.99, -0.053448133, 0.07463617, -1673798.0, -56630.574, 0.00000033393198, 9.999472, 9.999635 
9.250628e+2, 1.4498389e+2, -1536398.5, -1486141.3, 60039.496, 0.048758924, 0.076664336, -1446183.9, 72983.52, 0.0, 9.999651, 10.00036 
9.25059e+2, 1.5498434e+2, -1395586.3, -1374559.9, 26815.305, 0.0131266005, 0.043139867, -1356270.5, 64889.27, 0.0, 9.99998, 10.000293 
9.25055e+2, 1.6498473e+2, -1298285.9, -1341196.3, 8653.618, -0.023571137, 0.08612859, -1296606.5, 26547.277, 0.0, 10.000255, 9.999722 
9.250509e+2, 1.7498468e+2, -1165013.1, -1232025.0, -42334.285, -0.06270348, 0.07755482, -1144529.8, 80622.664, 0.0, 10.000524, 9.999671 
9.250482e+2, 1.8498349e+2, -1092088.1, -1291125.9, 36569.59, -0.04698571, 0.06265626, -1085581.8, 41581.563, 0.0, 10.000973, 9.998368 
9.250467e+2, 1.9498071e+2, -913403.4, -1161357.9, 47082.62, 0.017856563, -0.08493605, -904764.1, 124426.46, 0.0, 10.001551, 9.998308 
9.2504406e+2, 2.0497951e+2, -832915.6, -1004672.06, 38219.043, 0.03037225, -0.05864933, -824795.06, 106408.14, 0.0, 10.001161, 9.998901 
9.250403e+2, 2.1497947e+2, -923875.3, -1002824.3, 41998.582, -0.0029352957, 0.016699309, -905712.0, -72506.766, 0.0, 9.999877, 9.998864 
9.250364e+2, 2.2497892e+2, -806125.6, -843137.94, 34328.055, -0.007408268, 0.058684837, -785633.1, -50422.742, 0.0, 9.999784, 9.999328 
9.2503226e+2, 2.3497759e+2, -553522.75, -680670.44, 12174.959, 0.0131168235, -0.04215199, -552367.44, 84853.97, 0.0, 10.000881, 9.999244 
9.250284e+2, 2.4497682e+2, -430675.16, -605062.0, 22875.232, 0.043207385, -0.019392954, -427724.4, 111503.58, 0.0, 10.001208, 9.998934 
9.2502457e+2, 2.5497627e+2, -391377.34, -542548.4, -18163.785, 0.08110315, -0.0021862285, -389225.53, 52008.406, 0.0, 10.000835, 9.998871 
9.250207e+2, 2.6497534e+2, -307529.44, -560207.56, -5045.9966, 0.093283266, 0.07662777, -307428.72, 35816.613, 0.00000007319143, 10.001205, 9.997897 
9.250167e+2, 2.749736e+2, -53427.01, -390330.0, -29024.865, 0.098487265, 0.076821685, -50944.75, 194322.05, 0.0000027897247, 10.002289, 9.997868 
9.2501223e+2, 2.8497204e+2, 92509.43, -194990.16, -34600.996, 0.055582695, 0.108352266, 96615.086, 243898.16, 0.000020180585, 10.002306, 9.998521 
9.250071e+2, 2.9497042e+2, 37909.324, -178562.52, -67476.586, -0.022582171, 0.05128599, 57219.883, 106516.65, 0.00008285034, 10.001274, 9.998457 
9.25004e+2, 3.049688e+2, 9621.341, -154718.95, 37946.367, -0.043055743, 0.045607388, 17960.088, 17960.088, 0.0002292469, 10.000705, 9.99857 
9.2500275e+2, 3.1496742e+2, 75873.055, 74596.75, -44017.863, 0.015049378, 0.011918195, 119257.39, 119257.39, 0.0004645645, 10.000212, 10.00039 
9.350673e+2, 1.24988474e+2, -1841614.3, -1740672.0, 34394.363, -0.22226691, 0.06553142, -1730066.9, -14948.018, 0.000009857008, 9.9988985, 10.000334 
9.350649e+2, 1.3498934e+2, -1680851.3, -1637420.6, 67439.875, -0.10730634, 0.10119863, -1588286.3, 28825.055, 0.0000009955157, 9.999508, 10.00008 
9.3506205e+2, 1.449892e+2, -1574738.3, -1572795.8, 51139.938, -0.039832897, 0.11232827, -1522617.9, -3505.2908, 0.00000000002439963, 9.999679, 9.999755 
9.350591e+2, 1.5498935e+2, -1440678.8, -1456972.8, 56947.406, -0.023785554, 0.105337895, -1391298.5, 29811.69, 0.0, 9.999935, 9.999748 
9.3505585e+2, 1.6498879e+2, -1361938.5, -1459818.8, -3036.6787, -0.013168387, 0.11944168, -1361844.4, -38728.82, 0.0, 10.000188, 9.998945 
9.3505216e+2, 1.7498733e+2, -1224045.5, -1349001.5, -13422.179, -0.02346435, 0.048475772, -1222620.0, 2510.21, 0.0, 10.000492, 9.998888 
9.350492e+2, 1.8498656e+2, -1057880.4, -1197913.5, 43693.258, -0.07224793, 0.08104575, -1045365.6, 81771.91, 0.0, 10.000878, 9.999057 
9.3504685e+2, 1.9498585e+2, -889073.5, -1073833.8, 85214.375, -0.15217748, 0.07189307, -855773.2, 173370.03, 0.0, 10.001394, 9.998987 
9.350441e+2, 2.0498525e+2, -815726.25, -929697.2, -28590.877, -0.11172577, 0.093606256, -808956.1, 122191.99, 0.0, 10.000986, 9.9995 
9.3504083e+2, 2.1498445e+2, -914809.44, -936901.8, 12305.92, 0.03909767, 0.03448626, -909319.2, -76164.33, 0.0, 9.999668, 9.999421 
9.35037e+2, 2.249839e+2, -847465.25, -879902.25, 58956.26, 0.044530887, 0.055766717, -802537.4, -67378.22, 0.0, 9.999569, 9.999181 
9.3503237e+2, 2.3498315e+2, -595874.5, -716943.7, 70010.74, -0.10285528, 0.026970455, -563856.75, 73308.49, 0.0, 10.000657, 9.999106 
9.350287e+2, 2.4498205e+2, -496886.72, -696721.0, -9407.587, -0.07895193, 0.050376575, -496444.8, 42730.914, 0.0, 10.001014, 9.998397 
9.350261e+2, 2.549803e+2, -457801.47, -638841.8, -12747.577, 0.12237466, 0.002065233, -456908.28, -15714.262, 0.0, 10.000649, 9.998303 
9.3502235e+2, 2.649789e+2, -345215.66, -595976.4, 21161.57, 0.107963406, 0.06796348, -343442.38, -231.60066, 0.00000003612581, 10.001034, 9.997729 
9.3501717e+2, 2.7497733e+2, -98028.72, -435650.3, 34645.215, -0.12893854, 0.10388068, -94510.25, 150720.84, 0.0000027030533, 10.002099, 9.997642 
9.350128e+2, 2.849756e+2, 53984.223, -254726.72, -89228.914, -0.15870033, 0.14764516, 77918.99, 225168.69, 0.000022488803, 10.002205, 9.998163 
9.350093e+2, 2.9497355e+2, -2658.2625, -240139.13, -81321.04, 0.017590277, 0.081739604, 22519.344, 71787.15, 0.00009525127, 10.001167, 9.998089 
9.350065e+2, 3.0497086e+2, -15904.571, -183224.58, 9132.45, 0.09526645, -0.0035702337, -15407.592, -15407.592, 0.00025879213, 10.000614, 9.998413 
9.350026e+2, 3.1496996e+2, 18627.324, 10475.683, 1072.8464, -0.096703894, 0.0210434, 18766.158, 18766.158, 0.0005142612, 9.999997, 10.000045 
9.450677e+2, 1.24991834e+2, -1827638.0, -1722130.0, 55611.87, -0.05794157, 0.0008568568, -1698231.1, 16850.121, 0.000016753027, 9.998919, 10.00046 
9.4506484e+2, 1.34993e+2, -1633055.4, -1607803.8, 1624.7983, -0.06970031, 0.059284106, -1607699.6, 9371.392, 0.000002343361, 9.999796, 10.000144 
9.450619e+2, 1.4499281e+2, -1536275.6, -1592899.6, 7095.026, -0.030295921, 0.076388516, -1535400.1, -16326.476, 0.0000000053592455, 10.0000925, 9.999423 
9.450593e+2, 1.5499273e+2, -1431035.5, -1501087.1, -11739.234, 0.0070890295, 0.08340632, -1429120.6, -8045.4556, 0.0, 10.000182, 9.999345 
9.4505656e+2, 1.649919e+2, -1336948.9, -1467307.9, 5864.92, 0.040582072, 0.09969891, -1336685.5, -13601.194, 0.0, 10.000449, 9.998761 
9.450535e+2, 1.7499006e+2, -1174295.3, -1346059.3, -104.121376, 0.04971746, 0.007704671, -1174295.1, 50808.137, 0.0, 10.000932, 9.99869 
9.4505036e+2, 1.8498951e+2, -1068777.8, -1148740.8, 78170.08, -0.021145344, 0.051042423, -1020957.9, 106150.22, 0.0, 10.00059, 9.999518 
9.4504714e+2, 1.9498977e+2, -1133470.3, -1138748.6, 69465.14, -0.16221172, 0.092336036, -1066594.3, -37490.273, 0.0, 9.999509, 9.999438 
9.450441e+2, 2.0498948e+2, -1013936.94, -1016693.3, -30755.44, -0.12695575, 0.11584649, -984528.8, -53423.395, 0.0, 9.999576, 9.999584 
9.4504136e+2, 2.1498832e+2, -764332.94, -853670.5, -62088.594, 0.086572334, 0.011563959, -732514.5, 100600.59, 0.0, 10.0006485, 9.999516 
9.4503784e+2, 2.2498766e+2, -659531.6, -805063.5, 20472.13, 0.110641465, 0.024228478, -656706.6, 78414.12, 0.0, 10.000952, 9.999019 
9.450333e+2, 2.3498704e+2, -618367.06, -744503.7, -6720.2686, -0.053674866, 0.026882002, -618010.0, 19116.25, 0.0, 10.000591, 9.998941 
9.450298e+2, 2.4498573e+2, -539240.5, -743884.44, -45862.758, -0.054218892, 0.05005938, -529432.3, 9707.058, 0.0, 10.0008335, 9.998156 
9.450273e+2, 2.5498345e+2, -323279.3, -594493.56, -59700.383, 0.12920019, -0.029524144, -310719.53, 130443.56, 0.0, 10.001664, 9.998108 
9.450236e+2, 2.6498199e+2, -223681.08, -505864.47, 33121.984, 0.111027375, 0.025218586, -219845.44, 123334.45, 0.000000027783642, 10.001719, 9.998025 
9.450188e+2, 2.749809e+2, -251303.22, -479077.34, 41740.5, -0.10213304, 0.081149876, -243895.06, 1299.6232, 0.000002329391, 10.000898, 9.997932 
9.4501454e+2, 2.849794e+2, -150257.9, -384146.0, -27341.25, -0.13165039, 0.1505302, -147104.27, 106.70932, 0.000023981273, 10.00095, 9.997881 
9.4501084e+2, 2.949773e+2, 70020.08, -237634.66, -56985.4, 0.036433328, 0.1111381, 80235.984, 129466.89, 0.00010679835, 10.001809, 9.997805 
9.450081e+2, 3.0497414e+2, 178074.16, -122642.12, 59126.39, 0.14083374, 0.011743459, 189281.8, 189281.8, 0.00028981623, 10.002117, 9.998105 
9.4500434e+2, 3.1497318e+2, 206189.03, 28621.39, -15239.793, 0.01395345, 0.063497454, 207487.48, 207487.48, 0.00057081727, 10.001616, 9.999393 
9.550677e+2, 1.2499464e+2, -1855434.1, -1760743.0, 32383.744, -0.02733646, -0.07078329, -1750727.3, -35679.12, 0.00002677623, 9.998871, 10.000195 
9.550648e+2, 1.3499515e+2, -1664218.6, -1650679.3, 47254.46, -0.089822546, -0.054469507, -1609712.0, 7333.0313, 0.0000047533053, 9.999728, 9.999864 
9.55062e+2, 1.4499472e+2, -1556554.0, -1619392.0, -14483.438, -0.09011257, -0.041469432, -1553376.4, -34325.43, 0.000000046136613, 10.000016, 9.999283 
9.550593e+2, 1.5499473e+2, -1437579.1, -1518811.5, 8933.356, -0.060821276, -0.01362829, -1436608.3, -15555.612, 0.0, 10.0002, 9.999213 
9.550568e+2, 1.6499427e+2, -1315640.5, -1422698.9, 5641.4346, -0.025703715, 0.03450399, -1315344.0, 7713.8896, 0.0, 10.000442, 9.999073 
9.550545e+2, 1.7499292e+2, -1159131.6, -1302981.0, 34744.81, 0.015424446, -0.04191186, -1151179.1, 73891.7, 0.0, 10.000877, 9.999012 
9.550511e+2, 1.8499245e+2, -1064596.5, -1121892.6, 19963.58, -0.03412706, -0.020757874, -1058326.6, 68747.95, 0.0, 10.000499, 9.999753 
9.550469e+2, 1.9499244e+2, -1132031.4, -1111785.3, 45487.97, -0.1739418, -0.030857606, -1075307.5, -46234.188, 0.0, 9.999395, 9.999681 
9.550437e+2, 2.0499213e+2, -1066901.9, -1085126.4, -9141.296, -0.15881853, 0.0009361167, -1063106.9, -132031.28, 0.0, 9.999398, 9.999201 
9.550415e+2, 2.1499117e+2, -829266.9, -929134.3, -5289.6074, 0.0012198655, -0.047457967, -828987.5, 4097.8945, 0.0, 10.000396, 9.99912 
9.550385e+2, 2.2499031e+2, -708639.94, -851472.4, -10632.599, 0.0579586, -0.022329517, -707852.75, 27241.148, 0.0, 10.0007105, 9.998815 
9.5503485e+2, 2.3498918e+2, -669063.25, -795295.6, 367.00082, 0.0083872145, -0.04770907, -669062.2, -31957.3, 0.0, 10.000356, 9.998707 
9.5503116e+2, 2.4498779e+2, -562401.25, -740895.1, -29220.314, -0.03109508, -0.029330373, -557739.44, -18620.244, 0.0, 10.000623, 9.99827 
9.550274e+2, 2.5498572e+2, -345647.9, -597242.1, -7099.9355, -0.059755083, -0.10023824, -345447.72, 95693.22, 0.0, 10.00148, 9.998171 
9.550241e+2, 2.649847e+2, -197727.61, -413077.03, -15834.485, -0.041096423, -0.038751822, -196569.53, 146582.64, 0.000000030362223, 10.001559, 9.998735 
9.550212e+2, 2.7498427e+2, -224845.05, -383568.34, 32612.506, 0.0073018176, 0.010876267, -218405.48, 26752.094, 0.000002140531, 10.000731, 9.998663 
9.550169e+2, 2.8498337e+2, -184339.23, -425970.97, -12277.704, -0.02413912, 0.11226797, -183716.98, -36549.063, 0.000025889522, 10.000825, 9.997652 
9.5501137e+2, 2.9498172e+2, 32435.2, -282892.56, 1734.3824, -0.13989896, 0.13989049, 32444.738, 81630.28, 0.00011778403, 10.001671, 9.997557 
9.550087e+2, 3.0497888e+2, 124530.97, -204138.83, 34640.125, -0.04927196, 0.105847724, 128142.19, 128142.19, 0.00031950467, 10.001994, 9.997603 
9.5500666e+2, 3.1497714e+2, 107852.234, -127164.14, 40979.094, 0.005132001, 0.13459447, 114792.67, 114792.67, 0.00062882464, 10.001416, 9.998414 
9.6506745e+2, 1.24997474e+2, -1773480.9, -1781027.0, 23390.479, 0.044233073, -0.070007846, -1753561.1, -38543.293, 0.000040530904, 9.999639, 9.999717 
9.650652e+2, 1.3499738e+2, -1683987.9, -1707298.1, -23453.02, 0.0009105633, -0.06855912, -1669453.6, -52432.254, 0.000008656152, 9.999765, 9.999482 
9.650628e+2, 1.449967e+2, -1597650.1, -1615823.3, -37794.008, 0.024935069, -0.06973326, -1567865.8, -48835.406, 0.00000019058375, 9.999674, 9.999446 
9.650596e+2, 1.5499684e+2, -1482767.5, -1521300.9, -40250.43, -0.020478107, -0.04277743, -1457410.1, -36379.168, 0.0, 9.99985, 9.999341 
9.650569e+2, 1.6499673e+2, -1359079.4, -1391962.1, 9550.661, -0.026206495, 0.011484804, -1356506.8, -33474.25, 0.0, 9.999944, 9.9995165 
9.650548e+2, 1.74996e+2, -1261688.0, -1306127.9, 7835.519, 0.0115087135, -0.04661729, -1260346.9, -35308.227, 0.0, 9.999985, 9.999416 
9.650518e+2, 1.8499565e+2, -1124288.1, -1165857.6, -7036.767, -0.00029690764, -0.02691427, -1123129.3, 3912.194, 0.0, 10.000123, 9.999651 
9.650477e+2, 1.949953e+2, -1005261.9, -1066496.5, -38629.85, -0.0690552, -0.059117913, -986587.4, 42457.367, 0.0, 10.000307, 9.999571 
9.650444e+2, 2.0499492e+2, -914334.56, -999423.44, -17228.633, -0.07192482, -0.034459285, -910978.5, 20069.9, 0.0, 10.000426, 9.999279 
9.650418e+2, 2.149941e+2, -803254.5, -907368.44, -20327.367, -0.0010080307, -0.07469135, -799426.5, 33629.758, 0.0, 10.000554, 9.999183 
9.6503913e+2, 2.249935e+2, -694278.94, -820791.7, 19779.82, 0.056882873, -0.03958464, -691258.56, 43803.65, 0.0, 10.000691, 9.999043 
9.650364e+2, 2.3499268e+2, -581886.8, -722353.6, 28900.986, 0.11117838, -0.05913983, -576172.9, 60897.23, 0.0, 10.00081, 9.998988 
9.650327e+2, 2.4499154e+2, -500326.5, -695266.56, 75881.04, 0.057419937, -0.037699115, -474271.88, 64809.86, 0.0, 10.000961, 9.998437 
9.650283e+2, 2.5498983e+2, -386686.3, -603026.7, 66305.95, -0.093243994, -0.08385012, -367981.47, 73118.43, 0.0, 10.001124, 9.998322 
9.650249e+2, 2.649888e+2, -261108.83, -455413.53, 33302.355, -0.08954552, -0.024197882, -255559.55, 87551.62, 0.000000012060779, 10.00118, 9.998624 
9.650225e+2, 2.7498794e+2, -183716.56, -378652.75, -24199.72, 0.06317103, -0.0047886968, -180757.3, 64363.254, 0.0000023356135, 10.001081, 9.998527 
9.650187e+2, 2.8498673e+2, -89470.3, -365901.88, -353.36407, 0.0503673, 0.06499733, -89469.84, 57663.527, 0.000028869204, 10.001421, 9.997759 
9.650134e+2, 2.94985e+2, 113919.16, -230339.17, -11810.966, -0.115692, 0.07053273, 114323.9, 163474.97, 0.00012892728, 10.0021925, 9.997648 
9.6501064e+2, 3.0498275e+2, 172509.97, -195409.5, 35711.453, -0.05339712, 0.10102808, 175944.17, 175944.17, 0.00034703137, 10.002346, 9.997506 
9.650085e+2, 3.1498113e+2, 65832.92, -183069.63, 21987.504, 0.077428736, 0.14794207, 67760.32, 67760.32, 0.0006841425, 10.001246, 9.998121 
9.7506595e+2, 1.2499997e+2, -1807873.1, -1837484.0, -38141.69, -0.15918155, -0.016605824, -1781764.1, -66770.64, 0.000058506626, 9.99958, 9.999354 
9.7506565e+2, 1.3499984e+2, -1697886.1, -1738630.9, -8214.516, 0.038172204, 0.0079876045, -1696292.4, -79293.76, 0.00001444443, 9.9997835, 9.999253 
9.75064e+2, 1.4499907e+2, -1578947.9, -1578696.6, -49759.434, 0.12387134, -0.0060905092, -1529062.6, -10053.716, 0.0000005546723, 9.999677, 9.999703 
9.7505987e+2, 1.5499921e+2, -1469033.6, -1483738.9, -12598.085, -0.017300433, -0.00662843, -1461799.5, -40790.355, 0.0, 9.999815, 9.999615 
9.7505647e+2, 1.6499937e+2, -1328863.5, -1320349.1, -10300.514, -0.1007625, 0.033381656, -1313460.8, 9546.83, 0.0, 9.999897, 10.000037 
9.75054e+2, 1.7499925e+2, -1229236.3, -1233667.3, 24939.906, -0.10394014, -0.011176227, -1206413.6, 18593.39, 0.0, 9.999954, 9.999934 
9.750515e+2, 1.8499911e+2, -1171373.3, -1235107.8, -14740.095, -0.06617604, 0.02471096, -1168129.4, -41120.645, 0.0, 10.000005, 9.99923 
9.750491e+2, 1.9499852e+2, -1057217.5, -1135789.3, -12618.616, 0.004140999, 0.0063868538, -1055240.6, -26223.746, 0.0, 10.000148, 9.999165 
9.7504586e+2, 2.04998e+2, -911512.4, -953417.56, -30930.672, -0.00026980328, 0.018518021, -895105.7, 35916.258, 0.0, 10.00024, 9.999692 
9.750419e+2, 2.1499717e+2, -804067.7, -862397.6, 1697.593, -0.07661877, -0.06467595, -804018.3, 29009.357, 0.0, 10.000346, 9.999597 
9.7503906e+2, 2.2499713e+2, -677476.94, -731693.9, 4107.0527, -0.046151705, -0.029140964, -677167.56, 57858.914, 0.0, 10.00046, 9.9997635 
9.750373e+2, 2.3499745e+2, -572803.25, -637202.5, 48566.574, 0.09439548, -0.007503866, -546731.7, 90290.586, 0.0, 10.000535, 9.999701 
9.750341e+2, 2.4499713e+2, -513375.97, -680083.94, 63659.55, 0.0686112, 0.04880132, -491847.06, 47178.69, 0.0, 10.0007715, 9.998639 
9.7502935e+2, 2.5499576e+2, -394970.2, -581183.06, 92393.46, -0.12889475, 0.016675603, -356907.4, 84133.02, 0.0, 10.000954, 9.998556 
9.7502553e+2, 2.6499417e+2, -348631.44, -606039.1, 12387.562, -0.18251091, 0.054359164, -348036.66, -4978.3994, 0.0000000034767167, 10.001043, 9.997654 
9.750224e+2, 2.7499187e+2, -270922.94, -528889.2, -4099.865, -0.09651889, 0.025910608, -270857.78, -25774.047, 0.0000028342504, 10.000945, 9.9975605 
9.7501934e+2, 2.8498957e+2, -79965.54, -319830.4, 13490.8, -0.064065196, 0.016532155, -79209.16, 67897.016, 0.000032313746, 10.001311, 9.99813 
9.750163e+2, 2.9498696e+2, 118306.38, -188612.58, 47249.46, -0.098661505, -0.09959985, 125415.65, 174543.98, 0.0001399921, 10.002055, 9.998 
9.7501326e+2, 3.0498552e+2, 169589.05, -165447.61, -17307.463, -0.05384754, -0.019863706, 170480.75, 170480.75, 0.00037284024, 10.002198, 9.997779 
9.750086e+2, 3.1498468e+2, 54252.797, -151287.19, 52981.406, -0.12238968, 0.07127703, 67105.9, 67105.9, 0.00073526404, 10.00102, 9.998436 
9.8506635e+2, 1.2500145e+2, -1769310.3, -1758267.4, -26064.889, -0.058819998, -0.03255206, -1737145.5, -22165.213, 0.00008108169, 9.999591, 9.9998865 
9.8506564e+2, 1.3500176e+2, -1703278.8, -1691682.1, -161.55272, 0.08134084, -0.012426226, -1691679.9, -74701.12, 0.000022462764, 9.999515, 9.999712 
9.85064e+2, 1.4500129e+2, -1589981.6, -1579176.3, 33183.574, 0.173877, -0.022078417, -1550958.5, -31972.934, 0.0000013019285, 9.999562, 9.99976 
9.850601e+2, 1.5500152e+2, -1413756.4, -1454662.4, 10892.423, 0.023828471, -0.021545673, -1411036.8, 9948.934, 0.0, 10.00016, 9.999653 
9.850567e+2, 1.6500191e+2, -1301634.4, -1292093.4, 9495.312, -0.06469111, 0.0345921, -1286237.5, 36745.23, 0.0, 10.000027, 10.000163 
9.850537e+2, 1.7500228e+2, -1320256.3, -1258602.4, -21143.477, -0.08467775, 0.024415141, -1252048.3, -27069.64, 0.0, 9.9992695, 10.000082 
9.8505133e+2, 1.8500236e+2, -1261723.0, -1265749.0, 6365.064, -0.04192085, 0.06787583, -1257060.3, -130081.5, 0.0, 9.999344, 9.9993305 
9.850496e+2, 1.9500169e+2, -1057361.9, -1127360.9, 6444.694, 0.0516226, 0.037060462, -1056773.5, -27786.033, 0.0, 10.000123, 9.999233 
9.850466e+2, 2.0500124e+2, -881977.4, -932306.75, 8856.806, 0.057659473, 0.04812183, -880464.25, 50527.473, 0.0, 10.000389, 9.999776 
9.850425e+2, 2.1500058e+2, -843188.3, -871481.25, -16375.568, -0.02696916, -0.027846517, -835694.94, -2699.5457, 0.0, 10.000028, 9.999692 
9.850395e+2, 2.2500047e+2, -731457.4, -762352.4, -1399.4854, -0.019123977, -0.0013929289, -731394.1, 3600.4563, 0.0, 10.000093, 9.999734 
9.850377e+2, 2.350006e+2, -569922.6, -640412.0, -44162.91, 0.08768867, 0.0024091369, -548664.7, 88328.055, 0.0, 10.000565, 9.999669 
9.850349e+2, 2.4500045e+2, -507021.88, -656021.0, -31310.498, 0.0825266, 0.071064346, -500709.75, 38285.08, 0.0, 10.0007515, 9.998798 
9.8503095e+2, 2.5499955e+2, -424026.44, -579031.9, -48834.055, -0.0447386, 0.06827688, -409924.38, 31081.473, 0.0, 10.000691, 9.998691 
9.8502713e+2, 2.6499802e+2, -376901.8, -615352.5, -57575.402, -0.101991564, 0.10410591, -363727.72, -20704.88, 0.00000001775074, 10.000838, 9.997694 
9.850236e+2, 2.749955e+2, -229752.98, -506507.16, -40490.727, -0.07020852, 0.056216314, -223950.61, 21098.406, 0.000003544514, 10.001215, 9.997593 
9.850208e+2, 2.8499296e+2, -57575.492, -310488.38, 44643.055, -0.04529666, 0.020622825, -49926.625, 97146.62, 0.00003520851, 10.001451, 9.998154 
9.850187e+2, 2.9498997e+2, 28168.594, -232166.36, 14242.621, -0.020997105, -0.13483706, 28945.47, 78044.516, 0.00014922032, 10.001414, 9.998031 
9.8501533e+2, 3.0498892e+2, 103207.37, -144752.23, -41727.418, -0.0188631, -0.040355247, 110041.055, 110041.055, 0.00039592202, 10.001535, 9.998226 
9.8500985e+2, 3.1498858e+2, 156439.23, -30255.164, -22218.244, -0.106434196, 0.060339432, 159046.98, 159046.98, 0.0007798097, 10.001428, 9.999066 
9.9506736e+2, 1.2500198e+2, -1687269.9, -1580085.8, -89330.945, 0.0033088387, -0.114138275, -1529504.3, 185473.34, 0.000108580556, 9.999572, 10.001106 
9.950646e+2, 1.3500328e+2, -1626516.5, -1518741.8, 9167.234, -0.008762183, -0.12101263, -1517967.6, 98993.23, 0.000033028722, 9.999473, 10.000907 
9.950626e+2, 1.4500342e+2, -1602432.8, -1605435.0, 29003.049, 0.01802494, -0.11762749, -1574892.0, -55932.297, 0.0000026281716, 9.999555, 9.999591 
9.9506e+2, 1.5500383e+2, -1419228.1, -1468765.1, 49134.92, -0.052269764, -0.08247301, -1388971.9, 31988.635, 0.00000000019976186, 10.000169, 9.999557 
9.950569e+2, 1.6500452e+2, -1327373.4, -1333249.5, -38056.285, -0.08295322, 0.020875402, -1292141.9, 30814.992, 0.0, 9.999981, 9.9999 
9.9505347e+2, 1.7500511e+2, -1342491.0, -1297630.5, -31175.574, -0.07156945, 0.058460616, -1281654.6, -56701.754, 0.0, 9.999239, 9.999829 
9.950508e+2, 1.8500526e+2, -1241240.6, -1200046.3, 16197.825, -0.071201935, 0.09889677, -1194440.1, -67487.88, 0.0, 9.999248, 9.999828 
9.9504876e+2, 1.9500467e+2, -1040292.0, -1059161.4, 53044.7, -0.07599948, 0.022917813, -995849.44, 33108.617, 0.0, 9.999983, 9.999768 
9.9504626e+2, 2.0500445e+2, -930628.6, -978320.3, -24926.295, -0.047178425, 0.04199203, -919978.9, 10980.632, 0.0, 10.000162, 9.999563 
9.950432e+2, 2.1500422e+2, -891923.4, -914326.75, -13798.702, 0.008750918, 0.028671699, -885352.0, -52391.64, 0.0, 9.999788, 9.999506 
9.950402e+2, 2.2500362e+2, -818261.5, -882348.7, -1258.2002, 0.0071835257, 0.04856829, -818236.8, -83271.01, 0.0, 9.99984, 9.999031 
9.9503714e+2, 2.3500226e+2, -656581.8, -759471.0, -7735.049, -0.056546845, -0.024438828, -656003.56, -19023.887, 0.0, 10.000312, 9.99897 
9.9503464e+2, 2.450016e+2, -534027.44, -668497.06, -50454.953, -0.05384742, 0.027473142, -517201.44, 21786.764, 0.0, 10.000558, 9.998807 
9.950325e+2, 2.550012e+2, -451802.5, -588080.1, -31520.203, 0.00893763, 0.071667746, -444865.22, -3869.3535, 0.0, 10.000478, 9.998731 
9.950295e+2, 2.6500046e+2, -339748.1, -493930.66, -60164.246, 0.014137481, 0.13677493, -319049.8, 23953.9, 0.000000028595345, 10.000656, 9.998611 
9.950255e+2, 2.749989e+2, -190408.02, -387035.78, -4132.2964, -0.03569495, 0.09161747, -190321.22, 54695.07, 0.000003781716, 10.001063, 9.998483 
9.950225e+2, 2.849968e+2, -94034.79, -359773.44, 27436.29, -0.059803203, 0.07517985, -91231.69, 55803.83, 0.000036350866, 10.001333, 9.997871 
9.9502015e+2, 2.9499403e+2, -4886.6313, -273131.9, 39566.55, -0.059122004, -0.03625181, 827.7567, 49890.7, 0.00015456251, 10.001294, 9.997806 
9.950164e+2, 3.0499306e+2, 117920.86, -83522.91, -53946.72, -0.097361125, 0.051900662, 131458.1, 131458.1, 0.00041193186, 10.001416, 9.998699 
9.9501073e+2, 3.149924e+2, 182407.1, 85307.09, 31664.492, -0.23880911, 0.07365582, 191820.39, 191820.39, 0.0008105773, 10.001183, 9.99997 
1.0050682e+3, 1.2500472e+2, -1720520.8, -1608195.1, 51089.383, 0.14630824, -0.112831935, -1588434.4, 126517.39, 0.00014134821, 9.999394, 10.001003 
1.0050641e+3, 1.3500617e+2, -1556902.9, -1496876.5, -419.94644, -0.02024294, -0.09260492, -1496873.5, 120060.695, 0.000046426092, 10.000003, 10.000798 
1.0050621e+3, 1.4500639e+2, -1540026.1, -1557500.6, 31232.43, 0.004248499, -0.08163162, -1516331.9, 2600.5828, 0.00000474816, 9.999945, 9.999712 
1.0050603e+3, 1.550067e+2, -1478679.3, -1486885.3, 19462.393, -0.00293613, -0.0626347, -1462892.1, -41958.754, 0.000000004412824, 9.999734, 9.999638 
1.0050574e+3, 1.6500722e+2, -1354503.1, -1355938.3, -30807.406, -0.01797973, 0.020968253, -1324404.9, -1473.6748, 0.0, 9.999809, 9.99984 
1.0050534e+3, 1.7500752e+2, -1219445.8, -1245503.5, -43036.086, -0.041630197, 0.034171317, -1187509.5, 37420.43, 0.0, 10.0000925, 9.999785 
1.0050506e+3, 1.8500775e+2, -1098807.6, -1121349.4, 55847.418, -0.050056886, 0.08046502, -1053105.1, 73823.47, 0.0, 10.000193, 9.999906 
1.0050491e+3, 1.9500756e+2, -1006767.06, -1035043.44, 22932.537, -0.041042328, 0.038628966, -993964.8, 34965.605, 0.0, 10.000188, 9.999827 
1.005047e+3, 2.050074e+2, -931001.8, -1000005.4, -53871.914, 0.0077360864, 0.06741475, -901530.5, 29401.338, 0.0, 10.000242, 9.99938 
1.0050439e+3, 2.1500681e+2, -833079.2, -913706.4, -79881.55, 0.08920846, 0.040086705, -783915.1, 49021.71, 0.0, 10.000285, 9.999287 
1.00504085e+3, 2.2500603e+2, -736521.75, -834054.3, 15378.383, 0.07643225, 0.04927432, -734154.44, 789.667, 0.0, 10.000379, 9.999103 
1.00503765e+3, 2.3500457e+2, -614674.5, -734932.8, 23550.086, -0.034018066, -0.036849793, -610227.2, 26730.701, 0.0, 10.00058, 9.999015 
1.0050352e+3, 2.4500386e+2, -514806.97, -662357.8, 29093.203, -0.050330076, 0.009713151, -509277.75, 29688.934, 0.0, 10.000704, 9.998779 
1.00503325e+3, 2.5500357e+2, -412929.16, -565832.8, 6878.573, 0.034905814, 0.06897004, -412620.3, 28353.035, 0.0, 10.000753, 9.998739 
1.0050308e+3, 2.6500297e+2, -252475.22, -440711.16, 6334.518, 0.07084246, 0.14111984, -252262.28, 90717.61, 0.000000017098808, 10.001194, 9.998721 
1.00502774e+3, 2.7500147e+2, -63921.492, -308271.16, -33847.51, 0.05725511, 0.085605256, -59319.574, 185671.9, 0.000003428396, 10.001848, 9.998642 
1.0050247e+3, 2.8499964e+2, -24302.03, -328935.72, -13113.695, 0.018235177, 0.08729593, -23738.56, 123270.21, 0.00003625069, 10.001839, 9.997825 
1.0050216e+3, 2.9499725e+2, -35506.484, -294572.1, -30402.484, -0.02584137, 0.021779537, -31986.447, 17047.506, 0.00015744341, 10.001108, 9.997744 
1.0050175e+3, 3.0499613e+2, 76781.07, -121116.27, -78981.46, -0.1000054, 0.10065738, 104437.734, 104437.734, 0.00042211023, 10.001172, 9.998589 
1.0050128e+3, 3.1499508e+2, 263094.84, 137684.47, -102120.29, -0.15575594, 0.10317641, 320224.94, 320224.94, 0.0008305699, 10.001617, 10.000164 
1.0150675e+3, 1.2500972e+2, -1819359.8, -1799104.5, 2266.332, 0.055218663, -0.031651746, -1798854.0, -83951.6, 0.0001798155, 9.999353, 9.999702 
1.01506345e+3, 1.3501051e+2, -1649392.1, -1691597.6, 36540.617, -0.12032689, 0.055963106, -1628298.4, -11399.853, 0.000062927356, 10.000017, 9.99945 
1.0150617e+3, 1.4501022e+2, -1529991.5, -1526595.8, -2378.7842, -0.07180593, 0.069145285, -1525371.1, -6467.521, 0.000007860604, 9.9999075, 9.999937 
1.0150606e+3, 1.5501022e+2, -1468455.0, -1458784.4, 29904.344, 0.014669074, 0.035375286, -1433326.9, -12423.083, 0.000000028517778, 9.999713, 9.999834 
1.01505764e+3, 1.650101e+2, -1347580.4, -1333694.1, -39487.51, -0.017348856, 0.037967443, -1300544.0, 22360.973, 0.0, 9.999774, 10.0000105 
1.0150528e+3, 1.7500956e+2, -1210467.9, -1222074.9, -15480.111, -0.14358555, -0.050784342, -1199739.1, 25170.238, 0.0, 10.00007, 9.999958 
1.01505026e+3, 1.8500985e+2, -1141309.3, -1185417.3, 35968.785, -0.1332858, 0.012556997, -1121171.6, 5735.7373, 0.0, 10.000089, 9.9995165 
1.0150502e+3, 1.9501051e+2, -1054230.5, -1099603.3, 39073.67, 0.007867979, 0.09218386, -1031734.75, -2831.5088, 0.0, 10.000044, 9.999452 
1.0150482e+3, 2.0501018e+2, -969966.25, -1041615.6, -71109.51, 0.07376855, 0.13446555, -926167.0, 4740.4937, 0.0, 10.000072, 9.999177 
1.0150442e+3, 2.1500851e+2, -876680.3, -952840.94, -62640.62, 0.063779086, 0.015119416, -841453.4, -8529.929, 0.0, 10.000071, 9.999116 
1.0150412e+3, 2.2500785e+2, -723056.1, -749341.6, 2109.855, 0.040380206, 0.009514796, -722887.9, 12040.241, 0.0, 10.000134, 9.999802 
1.0150389e+3, 2.3500767e+2, -598405.5, -645338.56, 46608.23, -0.00008030658, -0.02130984, -569689.6, 67236.54, 0.0, 10.000342, 9.999742 
1.0150361e+3, 2.450074e+2, -551840.94, -689299.6, 9935.489, -0.05061206, 0.036049176, -551126.5, -12197.795, 0.0, 10.000489, 9.9987 
1.0150328e+3, 2.5500664e+2, -443119.06, -590304.94, 26891.875, -0.11859703, 0.054480504, -438359.63, 2579.6716, 0.0, 10.000584, 9.998657 
1.0150308e+3, 2.650054e+2, -316441.38, -535988.2, 16357.802, -0.079989016, 0.10028425, -315229.28, 27723.709, 0.000000011022683, 10.001036, 9.99814 
1.01503e+3, 2.7500328e+2, -127239.766, -398967.4, 15261.158, 0.054099523, 0.04103587, -126385.33, 118588.45, 0.0000031084232, 10.001675, 9.9981 
1.0150272e+3, 2.8500146e+2, -36824.617, -323528.22, -57845.65, 0.04567545, 0.06289515, -25593.568, 121399.1, 0.000035475467, 10.001705, 9.997924 
1.0150223e+3, 2.949996e+2, -56368.477, -297056.5, -34012.277, -0.11116396, 0.04011246, -51654.438, -2641.6704, 0.00015874387, 10.000939, 9.997804 
1.0150181e+3, 3.04998e+2, 11626.595, -225480.94, -71500.15, -0.19639012, 0.10566749, 31518.729, 31518.729, 0.00042931808, 10.001047, 9.997928 
1.0150148e+3, 3.149964e+2, 181948.69, 51979.332, -34858.426, -0.19045113, 0.111814745, 190707.61, 190707.61, 0.00084597926, 10.001289, 9.99972 
1.0250669e+3, 1.2501344e+2, -1782195.3, -1844184.1, -37957.188, 0.061468333, 0.040176205, -1764185.6, -49317.727, 0.00022439056, 9.99986, 9.999159 
1.0250641e+3, 1.3501348e+2, -1602857.6, -1730502.6, 1135.4951, -0.07314026, 0.11178662, -1602847.5, 14027.255, 0.0000828242, 10.000607, 9.998903 
1.0250623e+3, 1.4501315e+2, -1445266.1, -1465439.9, -6717.2793, -0.021196319, 0.13677964, -1443234.1, 75646.61, 0.000012107546, 10.0003605, 10.000169 
1.0250602e+3, 1.5501341e+2, -1493486.3, -1445053.8, -9683.18, 0.024701659, 0.102981985, -1443189.5, -22313.246, 0.00000009714164, 9.999402, 10.000093 
1.0250571e+3, 1.6501333e+2, -1434718.1, -1353571.0, -71.84568, 0.007238757, 0.08908206, -1353570.9, -30695.598, 0.0, 9.999114, 10.00017 
1.0250533e+3, 1.7501266e+2, -1258360.3, -1222831.4, -19148.268, -0.062420223, -0.026830673, -1214476.3, 10403.621, 0.0, 9.999679, 10.000122 
1.02505125e+3, 1.850127e+2, -1167739.9, -1221397.6, 56803.023, -0.036427386, 0.011289327, -1131748.6, -4868.84, 0.0, 9.99999, 9.999321 
1.02505066e+3, 1.95013e+2, -1079481.4, -1135261.6, 42699.113, 0.0656927, 0.07548333, -1056370.8, -27491.85, 0.0, 9.999961, 9.999255 
1.0250487e+3, 2.050126e+2, -938409.8, -1033167.75, -9257.106, 0.114872135, 0.1252088, -937513.94, -6629.9814, 0.0, 10.00034, 9.9991045 
1.02504514e+3, 2.150111e+2, -731343.3, -894610.2, -32559.691, 0.11219717, 0.03560736, -725089.6, 107809.016, 0.0, 10.001137, 9.9990015 
1.0250422e+3, 2.2501041e+2, -576717.44, -706183.6, 14969.01, 0.093404815, 0.046741042, -575009.25, 159894.98, 0.0, 10.001255, 9.999555 
1.0250398e+3, 2.3501012e+2, -578238.2, -663501.7, -44759.2, 0.050349783, 0.029581547, -559056.9, 77847.65, 0.0, 10.0006075, 9.999486 
1.025037e+3, 2.4500966e+2, -514453.5, -630456.06, -49178.34, -0.0042104367, 0.063822396, -496411.0, 42496.887, 0.0, 10.000596, 9.999032 
1.02503404e+3, 2.550086e+2, -336900.16, -505580.8, -43426.133, -0.075156316, 0.023293113, -326376.8, 114541.48, 0.0, 10.001178, 9.998946 
1.0250321e+3, 2.6500735e+2, -262078.52, -506337.38, 15600.097, -0.057445142, 0.051181547, -261086.2, 81845.46, 0.00000001218603, 10.001404, 9.998162 
1.02503136e+3, 2.750055e+2, -187057.27, -422038.2, 18515.775, 0.06058137, 0.01265471, -185607.23, 59344.543, 0.0000027111198, 10.001255, 9.998139 
1.0250287e+3, 2.8500414e+2, -55717.543, -306325.84, -2103.2554, 0.045308217, 0.06937446, -55699.89, 91266.56, 0.00003356842, 10.001457, 9.99817 
1.0250237e+3, 2.9500297e+2, 98534.52, -194466.67, -8910.38, -0.09963367, 0.092733346, 98805.24, 147784.58, 0.00015737157, 10.001882, 9.998062 
1.0250198e+3, 3.0500072e+2, 138332.72, -209020.22, 20955.303, -0.16524106, 0.10216783, 139592.34, 139592.34, 0.00043278775, 10.002125, 9.997505 
1.0250176e+3, 3.1499794e+2, 228596.89, 28139.46, -381.78265, -0.0422388, 0.02754332, 228597.63, 228597.63, 0.00085735595, 10.001796, 9.999302 
1.0350654e+3, 1.2501562e+2, -1764809.9, -1813017.4, -78409.39, -0.16735438, 0.078483574, -1706883.0, 7967.668, 0.00027553758, 9.99988, 9.999362 
1.0350654e+3, 1.350151e+2, -1596075.9, -1713092.5, 36951.613, -0.039777946, 0.07831669, -1585384.1, 31478.477, 0.000106410545, 10.000591, 9.999033 
1.0350631e+3, 1.4501518e+2, -1421081.8, -1412178.3, -68499.03, -0.022087442, 0.1231984, -1347986.5, 170877.44, 0.000017580353, 10.000353, 10.000536 
1.0350585e+3, 1.5501627e+2, -1464555.3, -1386209.5, -29058.934, -0.1267104, 0.13248076, -1376608.0, 44242.676, 0.00000023822265, 9.999403, 10.0005 
1.0350555e+3, 1.6501687e+2, -1439469.1, -1349616.3, -2205.0256, -0.11139861, 0.16473167, -1349562.3, -26719.762, 0.0, 9.9990635, 10.0002165 
1.0350547e+3, 1.7501678e+2, -1264747.0, -1220078.6, 18790.932, 0.059314016, 0.09686565, -1213225.3, 11616.538, 0.0, 9.999616, 10.000168 
1.0350528e+3, 1.8501633e+2, -1181827.8, -1226429.8, 33554.594, 0.09223738, 0.08495408, -1163839.3, -36994.184, 0.0, 9.999889, 9.999334 
1.03505015e+3, 1.950151e+2, -1097644.5, -1143670.1, 53857.52, -0.013798654, -0.00651004, -1062089.1, -33232.63, 0.0, 9.999833, 9.99926 
1.035048e+3, 2.0501463e+2, -973742.7, -1059520.6, 61.24692, -0.014139504, 0.04073653, -973742.7, -42881.387, 0.0, 10.000133, 9.999024 
1.0350465e+3, 2.1501447e+2, -759703.75, -915101.3, 15893.92, 0.09891091, 0.08878365, -758094.8, 74768.85, 0.0, 10.000962, 9.998948 
1.0350438e+3, 2.2501364e+2, -689787.75, -887655.7, -26918.115, 0.09170673, 0.1459957, -686191.2, 48682.18, 0.0, 10.001032, 9.998413 
1.0350398e+3, 2.3501188e+2, -689779.3, -843449.8, -50915.7, -0.035970982, 0.09368615, -674440.44, -37547.22, 0.0, 10.000386, 9.998355 
1.03503734e+3, 2.4501063e+2, -508580.56, -562611.8, -39932.367, -0.065293305, 0.079778664, -487383.75, 51520.457, 0.0, 10.000361, 9.99961 
1.0350364e+3, 2.550096e+2, -323858.38, -429899.97, 83.76762, 0.0081953565, -0.022014683, -323858.3, 117051.32, 0.0, 10.000976, 9.99956 
1.0350344e+3, 2.650089e+2, -243098.34, -430249.4, -7085.021, 0.0017383074, 0.00090480916, -242830.5, 100084.46, 0.00000000560088, 10.001248, 9.998758 
1.0350316e+3, 2.7500808e+2, -172896.44, -348429.34, 33903.445, -0.08436994, 0.004699841, -166575.73, 78349.47, 0.0000022721786, 10.001077, 9.998725 
1.0350287e+3, 2.8500766e+2, -46463.063, -255775.67, -3754.6267, -0.13410388, 0.10533998, -46395.734, 100534.52, 0.000031172072, 10.001321, 9.998583 
1.0350254e+3, 2.950075e+2, 98899.7, -148574.72, 35496.02, -0.1674082, 0.18933502, 103890.37, 152822.22, 0.00015322318, 10.001691, 9.998469 
1.0350222e+3, 3.0500436e+2, 98302.67, -255354.28, -242.30959, -0.15985966, 0.10008872, 98302.836, 98302.836, 0.00043103905, 10.001978, 9.9972515 
1.0350201e+3, 3.1499973e+2, 159014.47, -37289.383, 40158.242, -0.051354393, -0.13246469, 166911.98, 166911.98, 0.00086192216, 10.00149, 9.998984 
1.0450655e+3, 1.2501761e+2, -1853043.8, -1794087.6, -45614.645, -0.07770137, 0.1135438, -1769255.0, -54420.277, 0.0003338259, 9.998985, 9.999931 
1.0450655e+3, 1.3501714e+2, -1798197.1, -1747487.0, 52018.043, 0.020035919, 0.058557402, -1714973.6, -98130.625, 0.00013404706, 9.9989, 9.999618 
1.0450628e+3, 1.4501745e+2, -1636558.6, -1512973.0, -19064.043, -0.008742635, 0.09365679, -1510099.1, 8741.848, 0.000024406929, 9.998885, 10.000533 
1.0450582e+3, 1.5501854e+2, -1473074.9, -1382696.4, -56719.082, -0.0796738, 0.104488574, -1355365.9, 65462.41, 0.0000004785213, 9.999347, 10.000531 
1.04505554e+3, 1.6501915e+2, -1368301.0, -1368914.3, 2542.9312, -0.039688773, 0.15867978, -1366046.3, -43225.266, 0.0, 9.999761, 9.999766 
1.0450552e+3, 1.7501898e+2, -1212945.5, -1246778.8, -47258.01, 0.13828707, 0.13003916, -1179667.6, 45154.8, 0.0, 10.000175, 9.999729 
1.04505345e+3, 1.8501836e+2, -1114027.3, -1198886.8, -33432.992, 0.14966205, 0.124802835, -1102438.0, 24389.803, 0.0, 10.000394, 9.999277 
1.0450503e+3, 1.9501683e+2, -1004956.4, -1104581.8, -60710.99, -0.008873941, 0.0109704165, -976238.0, 52603.62, 0.0, 10.000502, 9.999205 
1.0450483e+3, 2.0501623e+2, -905187.94, -1012808.7, -61073.777, -0.007688059, 0.04041473, -877600.75, 53246.277, 0.0, 10.000553, 9.999132 
1.0450477e+3, 2.150161e+2, -824861.06, -928736.7, -69426.414, 0.1555425, 0.08169708, -790095.0, 42753.137, 0.0, 10.000462, 9.999081 
1.0450452e+3, 2.2501539e+2, -756061.9, -913271.4, -51382.188, 0.15587991, 0.14016268, -740758.0, -5901.5176, 0.0, 10.0005455, 9.99848 
1.0450406e+3, 2.3501366e+2, -625438.6, -807608.44, -23914.4, -0.008276673, 0.08871094, -622351.56, 14524.404, 0.0, 10.0007925, 9.998417 
1.0450381e+3, 2.4501248e+2, -435918.84, -534321.7, 60941.332, -0.03989219, 0.08017255, -406796.4, 132090.19, 0.0, 10.000868, 9.9995775 
1.0450377e+3, 2.550116e+2, -355240.6, -445735.63, 19447.986, 0.07116145, -0.005779306, -351238.13, 89653.016, 0.0, 10.000758, 9.999562 
1.0450359e+3, 2.6501098e+2, -298862.25, -428859.88, -3611.0193, 0.056654714, 0.013089992, -298762.0, 44132.93, 0.0000000009945924, 10.000716, 9.999046 
1.0450324e+3, 2.7501014e+2, -220025.36, -346268.1, -20526.701, -0.0776968, -0.008717795, -216771.64, 28132.115, 0.0000020282196, 10.000596, 9.998999 
1.0450295e+3, 2.8500968e+2, -126984.21, -288453.7, -23819.453, -0.13526739, 0.07206299, -123543.75, 23364.736, 0.00002862313, 10.000748, 9.998629 
1.0450272e+3, 2.950095e+2, 24656.162, -171508.6, -57724.637, -0.11449384, 0.14502396, 40381.9, 89292.41, 0.00014660136, 10.001138, 9.998568 
1.0450248e+3, 3.0500644e+2, 96884.56, -234412.25, -54542.44, -0.08957259, 0.047398437, 105633.04, 105633.04, 0.00042212423, 10.001866, 9.997451 
1.045023e+3, 3.1500265e+2, 315180.47, 46612.258, -58893.227, 0.05368808, -0.115124404, 327527.3, 327527.3, 0.00085377786, 10.00249, 9.999094 
1.0550663e+3, 1.250193e+2, -1776808.6, -1633430.4, -98209.05, 0.0086966185, 0.11410086, -1583528.6, 131292.55, 0.00039971265, 9.998988, 10.001024 
1.0550642e+3, 1.3501976e+2, -1727267.8, -1589284.0, 64556.137, -0.047938578, 0.0449891, -1563791.1, 53023.125, 0.00016604259, 9.998862, 10.000718 
1.0550608e+3, 1.4502014e+2, -1674962.4, -1584796.5, -27180.873, -0.1521581, 0.05695176, -1577236.6, -58427.105, 0.000032768716, 9.998852, 10.000057 
1.0550588e+3, 1.550203e+2, -1512263.0, -1459979.9, -23133.479, 0.012164213, 0.02067198, -1451213.9, -30405.695, 0.0000008393984, 9.999325, 10.000015 
1.05505675e+3, 1.6502024e+2, -1434742.0, -1496499.3, -2243.865, 0.05964532, 0.07715136, -1434660.6, -111850.53, 0.0, 9.999719, 9.998907 
1.0550547e+3, 1.7501955e+2, -1279841.5, -1376977.9, -14620.398, 0.024754751, 0.080119595, -1277688.6, -52869.313, 0.0, 10.000138, 9.998853 
1.0550526e+3, 1.85019e+2, -1144722.0, -1235940.8, -50710.945, -0.016773552, 0.13675846, -1122127.1, 4698.812, 0.0, 10.000277, 9.999082 
1.0550504e+3, 1.9501823e+2, -1035369.5, -1139819.6, -38869.504, -0.067364976, 0.115996934, -1022492.4, 6340.8477, 0.0, 10.000374, 9.999026 
1.0550491e+3, 2.0501743e+2, -916887.44, -991079.56, -84009.11, -0.01017186, 0.12302842, -862148.56, 68691.45, 0.0, 10.000357, 9.999378 
1.0550483e+3, 2.1501611e+2, -839645.25, -910829.75, -56596.582, 0.15142903, 0.020431198, -808379.56, 24471.352, 0.0, 10.000246, 9.999312 
1.0550459e+3, 2.2501561e+2, -711048.44, -761025.6, -58776.344, 0.15025829, 0.03129866, -672169.3, 62684.46, 0.0, 10.000298, 9.999639 
1.0550416e+3, 2.3501548e+2, -575531.56, -649728.9, 2885.2434, -0.010078916, 0.017762803, -575419.56, 61433.31, 0.0, 10.000565, 9.999605 
1.05503894e+3, 2.4501525e+2, -512389.22, -644247.7, 37250.195, -0.0733402, 0.07531181, -502593.7, 36260.973, 0.0, 10.00066, 9.998921 
1.05503775e+3, 2.5501457e+2, -431278.1, -556222.44, 30344.018, -0.03732888, 0.075817056, -424298.63, 16563.953, 0.0, 10.000557, 9.998898 
1.0550359e+3, 2.6501355e+2, -326516.13, -444305.8, -25661.275, -0.03476645, 0.086519115, -321168.44, 21703.414, 0.000000000012280949, 10.00054, 9.99902 
1.05503336e+3, 2.750118e+2, -247041.38, -359936.56, -1767.0531, -0.07662266, -0.024652664, -247013.72, -2127.9314, 0.0000016155456, 10.000417, 9.998985 
1.0550309e+3, 2.850105e+2, -173940.77, -350063.94, -24021.877, -0.1081875, -0.013222429, -170723.14, -23824.773, 0.000025306648, 10.000596, 9.99828 
1.05502866e+3, 2.9500908e+2, -24982.076, -238200.33, -14350.048, -0.121960066, -0.029646924, -24020.623, 24893.66, 0.00013793015, 10.000984, 9.998189 
1.0550266e+3, 3.0500686e+2, 124156.09, -151504.73, -38833.06, -0.1251628, -0.048915595, 129522.16, 129522.16, 0.00040720604, 10.001749, 9.9980755 
1.055025e+3, 3.1500667e+2, 301396.1, 85051.93, 16582.047, -0.06695125, 0.0802455, 302659.66, 302659.66, 0.0008331317, 10.002205, 9.999496 
1.0650656e+3, 1.2502103e+2, -1725433.4, -1581371.9, -42320.668, 0.058982268, 0.11696395, -1569859.4, 144946.56, 0.00047318285, 9.999249, 10.001252 
1.06506385e+3, 1.3502197e+2, -1706960.5, -1542713.9, -30895.738, 0.038496625, 0.07003819, -1537094.4, 79698.125, 0.00020250746, 9.998874, 10.001025 
1.0650599e+3, 1.4502251e+2, -1661268.9, -1606941.8, -56535.836, -0.117128976, 0.09574997, -1571382.4, -52596.586, 0.000042863663, 9.999057, 9.999819 
1.0650589e+3, 1.5502232e+2, -1400125.8, -1429722.4, -78062.69, 0.057838958, 0.047219735, -1335471.1, 85317.945, 0.0000013547858, 10.000192, 9.999809 
1.06505714e+3, 1.6502188e+2, -1308264.5, -1463540.6, -4190.4272, 0.08939463, 0.088026136, -1308151.5, 14643.477, 0.0, 10.000696, 9.998672 
1.0650548e+3, 1.7502081e+2, -1232280.0, -1379867.8, -11104.961, 0.011788729, 0.08153896, -1231449.0, -6641.552, 0.0, 10.000568, 9.998636 
1.0650528e+3, 1.8502012e+2, -1141344.6, -1245142.0, 12761.022, -0.0113592, 0.13912681, -1139798.8, -12983.165, 0.0, 10.000334, 9.998993 
1.0650514e+3, 1.9501947e+2, -1088479.6, -1175328.8, -4055.7217, 0.01124305, 0.13812065, -1088290.6, -59468.09, 0.0, 10.000043, 9.998944 
1.0650501e+3, 2.0501873e+2, -946938.8, -991646.56, -8000.7544, 0.06769275, 0.147357, -945550.2, -14721.258, 0.0, 10.000087, 9.999501 
1.0650488e+3, 2.150175e+2, -791361.9, -872787.94, -28804.357, 0.1642954, 0.042318627, -782202.6, 50635.605, 0.0, 10.000513, 9.999443 
1.0650463e+3, 2.2501695e+2, -632222.3, -724035.6, -39008.918, 0.14297038, 0.04155166, -617886.8, 116954.2, 0.0, 10.000827, 9.999641 
1.0650425e+3, 2.3501669e+2, -514099.5, -616906.9, -96163.65, 0.011663957, 0.013442445, -456462.9, 180378.19, 0.0, 10.000971, 9.99963 
1.06504e+3, 2.4501649e+2, -493613.13, -667777.94, -74823.58, -0.03231476, 0.08590905, -465883.03, 72960.664, 0.0, 10.000927, 9.99863 
1.0650387e+3, 2.5501588e+2, -434713.44, -598175.5, -90684.45, 0.008230046, 0.12978116, -394364.06, 46489.18, 0.0, 10.000686, 9.99856 
1.0650369e+3, 2.650148e+2, -287278.0, -401917.88, -81711.805, 0.002592409, 0.14375931, -244786.16, 98077.15, 0.0, 10.000717, 9.999213 
1.0650342e+3, 2.7501306e+2, -160302.67, -287904.06, -92225.46, -0.043740943, 0.005967455, -111960.32, 132915.75, 0.00000091217555, 10.000908, 9.999228 
1.06503226e+3, 2.8501165e+2, -93035.92, -318479.97, -42805.258, -0.056682657, 0.0014521817, -85182.055, 61706.258, 0.000020761427, 10.001171, 9.998228 
1.0650309e+3, 2.9501006e+2, 48577.074, -208467.05, -49652.652, -0.021857003, -0.021353174, 57834.934, 106740.516, 0.00012637535, 10.001491, 9.998156 
1.0650292e+3, 3.0500796e+2, 131663.97, -124810.445, -38193.215, -0.027354065, -0.04521993, 137230.73, 137230.73, 0.00038601994, 10.001703, 9.99827 
1.0650275e+3, 3.1500807e+2, 209122.02, 54293.76, -83333.2, 0.001145776, 0.08961533, 245450.44, 245450.44, 0.0008001297, 10.001512, 9.999601 
1.07506335e+3, 1.250225e+2, -1778378.9, -1680050.8, -59545.297, -0.18727046, 0.091734976, -1651996.0, 62795.633, 0.00055371417, 9.999222, 10.000578 
1.0750637e+3, 1.3502382e+2, -1754003.8, -1632362.9, -38492.418, 0.103496306, 0.13993444, -1621205.6, -4428.2754, 0.00024334127, 9.998851, 10.000414 
1.0750597e+3, 1.4502457e+2, -1653134.4, -1597208.9, -42740.38, -0.0931637, 0.21356733, -1574096.6, -55326.797, 0.00005483326, 9.99907, 9.999886 
1.075058e+3, 1.5502459e+2, -1393311.6, -1419616.8, -19187.445, -0.10359885, 0.1779234, -1383201.6, 37569.215, 0.000002073113, 10.000197, 9.999882 
1.0750564e+3, 1.650241e+2, -1291024.3, -1411546.3, -31116.219, -0.09569067, 0.1934754, -1283464.9, 39310.445, 0.0000000000166348, 10.000636, 9.999053 
1.07505515e+3, 1.7502281e+2, -1212970.1, -1323881.4, 2699.933, -0.036977783, 0.12152032, -1212904.5, 11882.189, 0.0, 10.0005045, 9.999047 
1.0750538e+3, 1.850218e+2, -1160164.0, -1257344.3, -16999.545, 0.018978165, 0.12841305, -1157276.1, -30479.756, 0.0, 10.000221, 9.998961 
1.0750524e+3, 1.9502056e+2, -1111625.3, -1186414.0, 504.90466, 0.072453864, 0.069733754, -1111621.9, -82812.31, 0.0, 9.999889, 9.998937 
1.0750505e+3, 2.0502011e+2, -977644.9, -1014323.5, -13908.049, 0.08409217, 0.11358455, -972967.6, -42154.137, 0.0, 9.999905, 9.999439 
1.07504845e+3, 2.150201e+2, -822581.5, -891036.0, 4047.1804, 0.053668723, 0.13255984, -822343.0, 10468.576, 0.0, 10.000306, 9.999422 
1.0750459e+3, 2.2501935e+2, -745797.8, -897170.2, -49255.24, -0.0022082853, 0.16408901, -731181.9, 3637.1028, 0.0, 10.000565, 9.998577 
1.07504286e+3, 2.3501739e+2, -627264.1, -790552.56, -69130.28, -0.08464422, 0.07343113, -601928.1, 34911.305, 0.0, 10.000711, 9.998562 
1.075041e+3, 2.4501626e+2, -533523.0, -691654.94, -98334.33, -0.061139654, 0.11068812, -486410.25, 52442.477, 0.0, 10.00068, 9.998578 
1.07504025e+3, 2.5501555e+2, -461469.1, -609203.4, -79460.734, 0.064131975, 0.14330187, -426844.9, 14017.774, 0.0, 10.000499, 9.998566 
1.07503824e+3, 2.650149e+2, -295064.84, -371966.88, -91971.68, 0.041011382, 0.17908709, -233830.02, 109038.63, 0.000000000031670343, 10.000524, 9.999516 
1.0750345e+3, 2.7501377e+2, -167558.36, -263640.44, -59803.176, -0.13486856, 0.07736561, -138889.81, 105985.14, 0.00000057346807, 10.000739, 9.999482 
1.0750328e+3, 2.8501317e+2, -87037.61, -280243.0, -50334.133, -0.143338, 0.12677981, -74710.945, 72167.68, 0.000016841232, 10.001058, 9.998544 
1.0750332e+3, 2.9501274e+2, 48694.973, -168750.25, -12006.103, 0.015267747, 0.18270378, 49355.87, 98238.664, 0.000114238224, 10.001318, 9.998512 
1.075032e+3, 3.0500972e+2, 93745.78, -176078.16, -50470.52, 0.046214778, 0.066038795, 102877.26, 102877.26, 0.0003625103, 10.001588, 9.997972 
1.07502915e+3, 3.1500658e+2, 139922.17, -37931.26, -28236.432, -0.060296793, -0.10069144, 144297.42, 144297.42, 0.00076317973, 10.001289, 9.999079 
1.08506225e+3, 1.2502371e+2, -1842518.1, -1766920.3, 45287.066, -0.18333444, 0.047095865, -1745730.4, -30954.668, 0.00064071716, 9.9989805, 10.000122 
1.08506285e+3, 1.3502473e+2, -1624706.4, -1620544.4, -39233.484, 0.09943024, 0.109194085, -1583336.8, 33428.6, 0.00028839763, 9.999926, 9.999995 
1.0850592e+3, 1.4502504e+2, -1547095.3, -1573064.1, 4237.0537, -0.08443775, 0.17489521, -1546421.4, -27658.152, 0.00006873226, 9.999956, 9.9995985 
1.085058e+3, 1.5502495e+2, -1498740.6, -1501195.3, -48509.95, -0.082194746, 0.15876308, -1451442.4, -30675.836, 0.0000030594845, 9.999632, 9.999579 
1.0850567e+3, 1.6502458e+2, -1395718.1, -1425145.5, -45011.188, -0.062883206, 0.18066846, -1363076.8, -40306.72, 0.000000000186287, 9.999755, 9.999381 
1.0850558e+3, 1.750236e+2, -1209341.1, -1287973.5, -56121.574, -0.011470956, 0.10621393, -1180134.4, 44642.582, 0.0, 10.000376, 9.999352 
1.0850544e+3, 1.8502268e+2, -1095352.9, -1235427.3, -57459.04, 0.04924496, 0.11127119, -1074798.9, 51986.52, 0.0, 10.000702, 9.998891 
1.085053e+3, 1.950214e+2, -999583.1, -1139039.9, -80343.59, 0.11631087, 0.05998553, -962929.44, 65870.125, 0.0, 10.0007, 9.998875 
1.085051e+3, 2.0502096e+2, -879717.06, -979225.25, -51317.47, 0.10810291, 0.11278805, -857994.25, 72810.32, 0.0, 10.000646, 9.999312 
1.0850485e+3, 2.150209e+2, -801370.7, -896077.3, -81685.32, 0.022092067, 0.1382632, -754305.6, 78498.9, 0.0, 10.000533, 9.99927 
1.08504616e+3, 2.2502019e+2, -769571.2, -913017.5, -72987.086, -0.017837424, 0.18698572, -738964.9, -4152.5645, 0.0, 10.000419, 9.9985485 
1.0850439e+3, 2.3501849e+2, -695492.25, -828962.4, -59071.547, -0.010561551, 0.1276257, -673103.7, -36272.258, 0.0, 10.000261, 9.998528 
1.0850422e+3, 2.4501728e+2, -546035.75, -666112.2, 4239.3716, 0.023377787, 0.14307743, -545886.25, -7041.6133, 0.0, 10.000434, 9.998896 
1.085041e+3, 2.5501618e+2, -397229.16, -543139.44, 15392.121, 0.08665196, 0.10833187, -395623.1, 45232.33, 0.0, 10.000785, 9.998898 
1.0850389e+3, 2.6501554e+2, -258199.22, -369575.28, 31896.393, 0.05922751, 0.13818735, -249711.42, 93149.195, 0.000000020287489, 10.000844, 9.999368 
1.0850359e+3, 2.7501482e+2, -195323.8, -295881.22, -12695.955, -0.057646308, 0.09153496, -193745.63, 51119.3, 0.0000009682407, 10.00062, 9.999313 
1.0850345e+3, 2.8501427e+2, -115450.05, -303003.8, 24292.787, -0.07031552, 0.16055693, -112354.625, 34514.145, 0.000016002106, 10.0009165, 9.998447 
1.08503476e+3, 2.9501367e+2, 85786.836, -151017.14, -17721.14, 0.042463295, 0.20346038, 87105.65, 135980.3, 0.00010691048, 10.0015955, 9.998489 
1.08503394e+3, 3.050107e+2, 144361.86, -162810.92, -42839.19, 0.08189227, 0.09838311, 150224.45, 150224.45, 0.00034615427, 10.001994, 9.997888 
1.0850317e+3, 3.1500798e+2, 196175.17, -35863.2, -76090.6, 0.05447478, -0.0021351152, 218901.19, 218901.19, 0.00073994894, 10.001807, 9.998856 
1.09506235e+3, 1.2502475e+2, -1847013.5, -1772303.1, 92425.54, -0.15550557, -0.013867824, -1709969.4, 4787.898, 0.000734217, 9.998959, 10.000101 
1.0950609e+3, 1.3502495e+2, -1629650.3, -1639957.4, 6139.3853, -0.12726928, -0.020033658, -1626788.1, -10034.22, 0.00033773432, 9.999949, 9.999859 
1.0950579e+3, 1.4502409e+2, -1605036.6, -1686460.0, -33898.555, -0.2626817, -0.02489056, -1592771.4, -74007.06, 0.0000845864, 9.999931, 9.998831 
1.0950585e+3, 1.5502346e+2, -1561304.0, -1615366.0, -42171.742, -0.032199156, -0.018693704, -1538243.8, -117467.64, 0.0000043925156, 9.999575, 9.99882 
1.0950579e+3, 1.6502334e+2, -1378695.5, -1387813.9, -43167.21, 0.02982115, 0.053198393, -1339847.4, -17068.586, 0.0000000006358386, 9.999737, 9.999651 
1.09505616e+3, 1.7502318e+2, -1192356.0, -1251561.3, -14798.084, -0.052753545, 0.03412524, -1188863.4, 35914.695, 0.0, 10.000358, 9.999617 
1.09505445e+3, 1.850229e+2, -1115622.0, -1258018.3, -79446.3, -0.06439698, 0.096743666, -1080138.9, 46642.316, 0.0, 10.00062, 9.998774 
1.0950529e+3, 1.9502215e+2, -1027395.7, -1161898.6, -61161.688, 0.0019651093, 0.10767845, -1003743.3, 25048.207, 0.0, 10.000553, 9.998786 
1.0950509e+3, 2.0502126e+2, -928133.56, -1037799.94, -74730.74, -0.002836997, 0.13476859, -890277.1, 40525.15, 0.0, 10.000459, 9.999003 
1.09504834e+3, 2.1501979e+2, -852953.94, -954950.06, -68368.29, -0.07688526, 0.05071706, -818658.2, 14159.207, 0.0, 10.0003195, 9.998972 
1.0950465e+3, 2.2501943e+2, -748282.5, -809074.56, -98908.46, -0.04837237, 0.10597215, -675204.8, 59616.914, 0.0, 10.000166, 9.999381 
1.0950454e+3, 2.3501974e+2, -671107.56, -721605.0, -47304.82, 0.080993, 0.16148347, -642735.0, -5915.6064, 0.0, 10.000017, 9.99938 
1.0950434e+3, 2.450193e+2, -531702.6, -576219.4, -750.12897, 0.071604855, 0.17538463, -531690.0, 7131.412, 0.0, 10.000185, 9.999627 
1.0950405e+3, 2.5501776e+2, -381811.38, -453667.38, 49262.04, -0.07037879, 0.017853146, -356767.5, 84063.82, 0.0, 10.000546, 9.999621 
1.0950387e+3, 2.650169e+2, -336756.16, -481466.6, 8802.688, -0.08228165, 0.028722927, -336222.66, 6614.88, 0.00000010014453, 10.000626, 9.998703 
1.0950378e+3, 2.7501628e+2, -262973.78, -401301.88, 4462.796, 0.029228287, 0.054123133, -262829.94, -17984.52, 0.0000018117424, 10.000465, 9.998667 
1.0950365e+3, 2.8501487e+2, -176702.78, -396111.16, 32725.377, 0.0066025006, 0.09480464, -171925.72, -25065.22, 0.000017402066, 10.000772, 9.997873 
1.09503515e+3, 2.9501244e+2, 20227.47, -250002.06, 31517.809, -0.12759705, 0.011579066, 23854.81, 72739.54, 0.00010435712, 10.001432, 9.997887 
1.09503455e+3, 3.0501065e+2, 123136.555, -167884.58, -66561.89, -0.08443238, 0.051945068, 137637.89, 137637.89, 0.00033796718, 10.00184, 9.99792 
1.095034e+3, 3.1501192e+2, 147515.16, -77083.1, -28871.555, 0.033494286, 0.3502919, 151167.14, 151167.14, 0.00073108607, 10.00155, 9.998698 
1.1050625e+3, 1.2502462e+2, -1831176.6, -1756687.5, 77726.914, -0.023476265, -0.018841956, -1707742.6, 7012.684, 0.00083503575, 9.99907, 10.000107 
1.1050602e+3, 1.3502428e+2, -1729293.9, -1688562.8, -113859.39, -0.1445533, -0.08464012, -1593261.9, 23495.89, 0.0003918232, 9.999284, 9.999822 
1.1050586e+3, 1.4502336e+2, -1646181.0, -1705862.8, -86149.59, -0.15850776, -0.09830851, -1584850.5, -66081.75, 0.000102570426, 9.999612, 9.998873 
1.1050591e+3, 1.5502313e+2, -1442449.5, -1556429.0, -69758.5, 0.036144216, -0.05405726, -1409361.0, 11414.87, 0.0000061708192, 10.000349, 9.998869 
1.1050582e+3, 1.6502306e+2, -1273547.9, -1343807.0, -8599.887, 0.0620745, 0.022852696, -1272510.5, 50267.89, 0.0000000015512864, 10.000501, 9.999572 
1.1050564e+3, 1.7502269e+2, -1204080.8, -1258072.5, -47090.59, -0.05205361, -0.011811829, -1176796.9, 47983.78, 0.0, 10.000307, 9.999578 
1.1050547e+3, 1.8502259e+2, -1145171.1, -1230824.3, -77313.484, -0.07499637, 0.051782772, -1099615.0, 27167.074, 0.0, 10.000249, 9.999131 
1.1050531e+3, 1.9502234e+2, -1038797.7, -1126901.1, -64548.355, -0.012648635, 0.0736599, -1004701.8, 24085.24, 0.0, 10.000302, 9.999143 
1.1050511e+3, 2.0502175e+2, -944805.5, -1040947.56, -8746.848, 0.00084379286, 0.11345773, -944016.2, -13221.526, 0.0, 10.000305, 9.999068 
1.10504895e+3, 2.150205e+2, -847365.2, -945663.2, -11743.19, -0.035883553, 0.04518661, -845981.75, -13173.152, 0.0, 10.000308, 9.99905 
1.10504724e+3, 2.2502013e+2, -702297.0, -775174.8, -12193.654, 0.006584125, 0.0898823, -700310.94, 34502.117, 0.0, 10.000442, 9.999468 
1.1050461e+3, 2.3502025e+2, -562973.44, -656658.1, -53985.76, 0.12728871, 0.115886204, -538340.8, 98471.055, 0.0, 10.000721, 9.999474 
1.1050442e+3, 2.4501991e+2, -444299.1, -510636.44, -22291.752, 0.10913572, 0.1261463, -437504.22, 101307.67, 0.0, 10.000696, 9.999817 
1.1050413e+3, 2.5501877e+2, -393673.75, -439192.2, -59137.48, -0.03984678, -0.008714657, -353067.16, 87749.586, 0.0, 10.000372, 9.999795 
1.10503964e+3, 2.6501787e+2, -372548.75, -545263.7, -64380.582, -0.044595305, 0.00305866, -351191.47, -8367.083, 0.00000018749917, 10.000576, 9.998299 
1.10503934e+3, 2.750167e+2, -177687.88, -401651.47, -91882.88, 0.09864064, 0.020431153, -144816.69, 100022.35, 0.0000025365616, 10.001244, 9.998293 
1.1050381e+3, 2.85015e+2, -53754.742, -345149.78, 12211.593, 0.049224593, 0.052976206, -53243.883, 93614.1, 0.000019295574, 10.001642, 9.997822 
1.1050363e+3, 2.9501244e+2, 45912.156, -250131.55, 5716.8643, -0.1618487, -0.028230663, 46022.516, 94905.914, 0.00010487227, 10.001652, 9.997797 
1.1050359e+3, 3.050108e+2, 103082.07, -178270.13, -51616.53, -0.106186375, 0.029804315, 112252.664, 112252.664, 0.00033641586, 10.001654, 9.997942 
1.1050364e+3, 3.150124e+2, 83932.25, -98251.79, -75703.266, 0.1558834, 0.3421077, 111283.22, 111283.22, 0.0007307893, 10.001066, 9.998767 
1.1150613e+3, 1.2502392e+2, -1833819.5, -1769918.1, 20282.877, -0.14891766, 0.03997808, -1764023.9, -49260.285, 0.000944546, 9.999105, 10.000006 
1.1150603e+3, 1.3502276e+2, -1740123.3, -1714805.9, -91253.836, -0.10658127, -0.082639724, -1635337.0, -18561.117, 0.00045159098, 9.99929, 9.999647 
1.1150608e+3, 1.4502281e+2, -1573978.5, -1554367.0, -85804.71, 0.04889442, -0.044744484, -1477809.6, 40966.71, 0.00012308804, 9.99961, 9.999912 
1.1150591e+3, 1.5502414e+2, -1376539.0, -1414237.4, -26866.895, -0.02954553, 0.05401311, -1362568.8, 58195.453, 0.000008505592, 10.00033, 9.999853 
1.1150574e+3, 1.6502394e+2, -1308676.0, -1409677.8, -39456.543, -0.12046068, 0.09428608, -1295089.8, 27676.92, 0.0000000033697685, 10.000461, 9.999148 
1.11505605e+3, 1.750222e+2, -1236599.1, -1318543.6, -36413.543, -0.15998562, -0.034530964, -1222756.5, 2027.4705, 0.0, 10.000262, 9.999197 
1.11505456e+3, 1.8502173e+2, -1101493.0, -1120702.5, -94739.125, -0.13997589, -0.030498603, -1015873.0, 110915.65, 0.0, 10.000163, 9.99993 
1.115053e+3, 1.9502202e+2, -1007730.44, -1025810.25, -46273.965, -0.08025146, -0.032268923, -969621.6, 59163.977, 0.0, 10.000151, 9.999908 
1.1150515e+3, 2.050226e+2, -938182.56, -986461.75, -32700.705, -0.0333286, 0.06420569, -921676.7, 9103.882, 0.0, 10.00013, 9.999522 
1.1150498e+3, 2.1502304e+2, -851508.25, -897832.7, 5961.3804, -0.0016281111, 0.11499736, -850753.4, -17975.354, 0.0, 10.000068, 9.999492 
1.115048e+3, 2.2502233e+2, -778963.0, -882285.0, -20104.893, 0.0013851428, 0.13582055, -775188.8, -40402.77, 0.0, 10.00022, 9.99884 
1.1150458e+3, 2.3502015e+2, -644356.5, -766229.56, -25046.307, -0.011469788, -0.0044326107, -639409.94, -2602.2915, 0.0, 10.000468, 9.998845 
1.1150439e+3, 2.4501923e+2, -508317.03, -589088.5, -50723.203, -0.008407446, -0.00013151928, -483865.66, 54949.535, 0.0, 10.000459, 9.9993925 
1.1150425e+3, 2.550192e+2, -453566.94, -517808.03, -50039.492, 0.015474541, 0.015435854, -426225.9, 14586.799, 0.0, 10.000173, 9.9993515 
1.115041e+3, 2.6501825e+2, -411088.88, -585765.1, -56781.797, 0.010501459, 0.058928486, -394253.47, -51431.547, 0.00000020790911, 10.000403, 9.998103 
1.11503966e+3, 2.7501598e+2, -211835.67, -437771.72, -42108.95, -0.014916892, -0.018793808, -204242.77, 40604.14, 0.0000030041283, 10.001082, 9.998123 
1.11503854e+3, 2.850147e+2, -55289.902, -296959.44, -3878.7964, -0.0942999, 0.04239794, -55227.664, 91633.4, 0.000021785861, 10.001435, 9.998246 
1.1150375e+3, 2.9501382e+2, 46462.67, -201858.73, 38503.824, -0.24025069, 0.08537539, 52295.91, 101165.31, 0.00010887074, 10.001455, 9.99822 
1.1150376e+3, 3.0501127e+2, 79083.58, -188289.53, -81620.63, -0.14057474, 0.031123476, 102030.42, 102030.42, 0.00034133886, 10.001491, 9.99795 
1.1150377e+3, 3.150091e+2, 43888.18, -125413.16, -24952.943, 0.09733578, -0.032924347, 47489.336, 47489.336, 0.0007375019, 10.000821, 9.998701 
1.1250617e+3, 1.2502272e+2, -1874663.5, -1776768.4, 24809.324, 0.027639702, 0.06382773, -1770840.0, -56062.96, 0.0010643419, 9.998767, 10.000141 
1.1250603e+3, 1.3502187e+2, -1612574.1, -1631033.5, -69104.164, -0.057350446, -0.046036698, -1552086.0, 64700.695, 0.00051804923, 10.000078, 9.999847 
1.1250621e+3, 1.4502229e+2, -1451319.0, -1467572.5, -45090.04, 0.19066666, 0.006700544, -1413629.1, 105153.766, 0.00014661087, 10.000328, 10.000158 
1.12505905e+3, 1.5502335e+2, -1430072.6, -1409258.3, -89373.89, -0.03641734, 0.049189426, -1329687.6, 91084.49, 0.00001150662, 9.999833, 10.000118 
1.1250569e+3, 1.6502337e+2, -1407537.9, -1408387.9, -57330.273, -0.15613101, 0.075923495, -1350631.0, -27859.578, 0.0000000061074554, 9.999579, 9.999579 
1.12505615e+3, 1.7502223e+2, -1287750.1, -1293221.8, -30789.803, -0.12636401, -0.035684943, -1259574.9, -34792.727, 0.0, 9.999705, 9.999636 
1.125055e+3, 1.8502194e+2, -1147172.1, -1122419.3, -42885.156, -0.0858178, -0.045315042, -1090160.4, 36623.625, 0.0, 9.999768, 10.000108 
1.1250531e+3, 1.950219e+2, -1043374.75, -1030831.75, -76152.24, -0.055635776, -0.09614731, -960693.25, 68089.484, 0.0, 9.999825, 10.000047 
1.1250516e+3, 2.0502251e+2, -943093.44, -968273.9, -50377.906, -0.012328736, -0.011347401, -903756.3, 27020.531, 0.0, 10.000033, 9.999683 
1.12505056e+3, 2.150234e+2, -771212.06, -835301.56, -77372.29, 0.04703297, 0.06853041, -719511.1, 113259.22, 0.0, 10.000541, 9.999682 
1.1250487e+3, 2.250227e+2, -714219.44, -865690.06, -64968.168, 0.045201592, 0.08806101, -690171.5, 44606.277, 0.0, 10.000708, 9.998734 
1.12504624e+3, 2.350202e+2, -624484.5, -768139.2, -68026.45, -0.010071656, -0.07132641, -597383.75, 39417.742, 0.0, 10.000632, 9.998761 
1.1250447e+3, 2.4501908e+2, -490792.88, -642675.5, -40503.24, 0.0027566345, -0.056863103, -480666.78, 58145.9, 0.0, 10.000859, 9.998831 
1.1250439e+3, 2.5501898e+2, -315449.6, -510618.8, -86868.51, 0.08635583, 0.010935942, -282386.25, 158428.44, 0.0, 10.001403, 9.998807 
1.1250426e+3, 2.65018e+2, -226801.53, -477941.38, -42993.176, 0.077812105, 0.06804982, -219645.34, 123180.336, 0.00000016860811, 10.001594, 9.998269 
1.1250409e+3, 2.7501562e+2, -151616.47, -388990.88, -45841.73, -0.016349375, -0.03380634, -143071.14, 101778.914, 0.0000038179373, 10.001422, 9.998286 
1.1250398e+3, 2.850147e+2, -73612.07, -286136.97, 21046.035, -0.09654682, 0.044297248, -71547.95, 75312.555, 0.000026510976, 10.001208, 9.998427 
1.1250393e+3, 2.9501468e+2, -42269.695, -215232.58, -747.2713, -0.16107047, 0.15038495, -42266.47, 6594.573, 0.00011807009, 10.000728, 9.998466 
1.12503946e+3, 3.0501208e+2, 12923.838, -166534.0, -59980.43, -0.060697153, 0.055493377, 31125.13, 31125.13, 0.0003550206, 10.000827, 9.998421 
1.1250391e+3, 3.15009e+2, 123134.7, -40686.86, -37296.836, 0.15362194, -0.13569625, 131226.31, 131226.31, 0.0007557848, 10.001159, 9.999136 
1.1350608e+3, 1.2502053e+2, -1848568.5, -1724765.9, -81500.1, -0.043677237, 0.0009481171, -1684324.5, 30476.383, 0.0011953667, 9.998789, 10.000482 
1.1350596e+3, 1.3502161e+2, -1568129.4, -1531663.0, -6407.3135, -0.17385651, 0.017942198, -1530570.0, 86220.086, 0.00059164723, 10.000058, 10.000536 
1.1350619e+3, 1.4502208e+2, -1483632.6, -1532445.5, -84136.99, 0.081739955, 0.06131161, -1420433.6, 98352.23, 0.00017336896, 10.000318, 9.999722 
1.1350583e+3, 1.5502112e+2, -1461504.0, -1471715.8, -86049.9, -0.13407016, -0.05183213, -1380408.6, 40387.777, 0.000015247707, 9.999818, 9.9997 
1.1350564e+3, 1.6502157e+2, -1326748.3, -1234707.4, -74437.64, -0.21339251, -0.023639524, -1193213.0, 129577.75, 0.000000009421829, 9.999553, 10.000783 
1.13505654e+3, 1.7502294e+2, -1208925.1, -1124469.8, -10990.023, -0.10602016, -0.0049123107, -1123063.1, 101710.61, 0.0, 9.999683, 10.000803 
1.1350554e+3, 1.8502322e+2, -1185437.3, -1184432.6, -62968.316, -0.062044896, 0.006140392, -1121964.6, 4803.5293, 0.0, 9.999689, 9.999723 
1.135053e+3, 1.9502205e+2, -1094150.8, -1094230.5, -56031.49, -0.09067736, -0.121210545, -1038159.1, -9381.405, 0.0, 9.999642, 9.999701 
1.13505125e+3, 2.0502163e+2, -988061.56, -1018808.94, -52564.066, -0.08360028, -0.110222116, -948669.1, -17887.014, 0.0, 9.999847, 9.999428 
1.13505065e+3, 2.1502163e+2, -825736.7, -889756.9, -43929.492, -0.02429777, -0.091949314, -803391.94, 29392.887, 0.0, 10.000291, 9.999431 
1.1350492e+3, 2.2502135e+2, -717523.5, -820030.8, -90209.41, -0.003454743, -0.038502045, -665024.25, 69763.18, 0.0, 10.000474, 9.99916 
1.135047e+3, 2.3502041e+2, -634280.3, -729202.44, -52980.496, -0.02271621, -0.088472225, -610611.3, 26182.643, 0.0, 10.000372, 9.999156 
1.1350455e+3, 2.4501944e+2, -574545.8, -763504.94, -38506.734, -0.019871186, -0.04105149, -567000.1, -28195.309, 0.0, 10.00063, 9.998111 
1.1350451e+3, 2.5501814e+2, -392977.38, -625572.4, -47486.902, 0.026833152, -0.022605086, -383655.94, 57166.805, 0.0, 10.001199, 9.998118 
1.1350438e+3, 2.6501706e+2, -217713.84, -417705.2, -65480.492, 0.013237048, 0.032348134, -198182.0, 144653.48, 0.00000020663475, 10.001413, 9.998773 
1.1350422e+3, 2.7501556e+2, -143438.81, -336705.5, -26805.12, -0.0649346, -0.0309887, -139789.97, 105058.99, 0.0000055002247, 10.001262, 9.998729 
1.1350411e+3, 2.850148e+2, -103672.92, -303960.3, -16176.387, -0.11790844, 0.048654974, -102374.836, 44482.6, 0.000033703815, 10.00103, 9.998384 
1.1350409e+3, 2.9501468e+2, -72518.21, -233138.36, 5568.8057, -0.11866301, 0.14482017, -72325.37, -23463.441, 0.00013271971, 10.000532, 9.998439 
1.13504075e+3, 3.0501294e+2, 46486.08, -45593.855, -61498.72, -0.03841773, 0.09065109, 77269.09, 77269.09, 0.00037893685, 10.000617, 9.999351 
1.1350392e+3, 3.1501192e+2, 149103.38, 83232.18, 27880.018, -0.03163746, 0.012035747, 159319.25, 159319.25, 0.00079122034, 10.000865, 10.000127 
1.14506066e+3, 1.2502028e+2, -1653077.3, -1640412.0, -12182.52, 0.024790151, -0.011954475, -1633014.5, 81789.11, 0.0013373722, 10.000151, 10.000414 
1.14506006e+3, 1.3502201e+2, -1660225.0, -1568230.9, 49596.14, -0.07459018, 0.059258223, -1546585.4, 70201.0, 0.000672049, 9.999362, 10.00063 
1.1450619e+3, 1.4502247e+2, -1671015.4, -1610669.9, 2324.765, 0.13451204, 0.08946791, -1610580.5, -91798.04, 0.0002032588, 9.999007, 9.9998045 
1.14505835e+3, 1.5502115e+2, -1531950.8, -1496601.9, -15810.095, -0.07696456, -0.060562383, -1490562.5, -69766.42, 0.000019742625, 9.999319, 9.999764 
1.1450564e+3, 1.650216e+2, -1365907.8, -1253797.9, 12465.371, -0.13190909, -0.035282, -1252428.6, 70362.16, 0.000000013934886, 9.999282, 10.000788 
1.14505686e+3, 1.7502333e+2, -1305405.5, -1164946.1, -45121.832, 0.0055069583, 0.018274754, -1151700.1, 73070.375, 0.0, 9.999002, 10.00085 
1.1450558e+3, 1.850236e+2, -1246248.4, -1228738.1, -70276.81, 0.035130765, 0.033014808, -1166673.3, -39908.105, 0.0, 9.999339, 9.999584 
1.1450531e+3, 1.9502208e+2, -1011062.75, -1059158.5, -89371.03, -0.062139712, -0.11847908, -942560.75, 86217.086, 0.0, 10.000263, 9.999624 
1.1450514e+3, 2.0502132e+2, -914669.6, -1041200.94, -60168.016, -0.079730466, -0.11580611, -890627.0, 40159.004, 0.0, 10.000565, 9.998944 
1.14505105e+3, 2.150209e+2, -857769.3, -958163.94, -97968.09, -0.0040426166, -0.09248051, -797887.06, 34906.586, 0.0, 10.000263, 9.998988 
1.1450499e+3, 2.2502059e+2, -713506.1, -788747.4, -111930.05, 0.036837146, -0.03271139, -633043.56, 101752.76, 0.0, 10.000401, 9.999396 
1.1450482e+3, 2.3502001e+2, -518172.56, -638879.4, -131161.13, 0.03608754, -0.07328942, -434145.3, 202652.78, 0.0, 10.001041, 9.999442 
1.1450469e+3, 2.4501906e+2, -499604.3, -732701.9, -67607.62, 0.03117517, -0.035374127, -481414.78, 57393.332, 0.0, 10.001152, 9.998077 
1.14504606e+3, 2.5501755e+2, -452793.8, -649802.3, -61564.375, 0.03733223, -0.03565959, -435137.6, 5690.8804, 0.0, 10.000776, 9.998148 
1.14504494e+3, 2.650166e+2, -297578.56, -442251.8, -27819.064, 0.0202469, 0.020848958, -292413.66, 50426.355, 0.00000038376965, 10.000789, 9.998909 
1.1450438e+3, 2.7501556e+2, -148924.92, -318085.84, -53246.02, -0.016720792, -0.011230015, -133560.44, 111287.46, 0.0000075917305, 10.00113, 9.9989195 
1.14504285e+3, 2.8501475e+2, -88358.95, -292909.1, -24180.645, -0.043018218, 0.048553005, -85539.336, 61317.027, 0.000041535674, 10.001115, 9.998426 
1.1450423e+3, 2.9501396e+2, -54818.97, -217168.38, -39269.418, -0.015124917, 0.079096034, -45819.285, 3047.0408, 0.00014998692, 10.000629, 9.9985 
1.14504226e+3, 3.050122e+2, 82974.1, -49162.668, -61950.496, 0.051753804, 0.029589282, 107475.555, 107475.555, 0.00040888134, 10.000921, 9.999189 
1.1450408e+3, 3.1501207e+2, 228889.95, 115824.92, -127357.08, 0.031408336, 0.044446066, 311697.84, 311697.84, 0.0008408799, 10.001442, 10.000066 
1.155059e+3, 1.2502149e+2, -1667323.9, -1664895.0, -131555.33, -0.24255027, -0.03138239, -1534548.5, 180241.39, 0.001489488, 10.00013, 10.000252 
1.1550614e+3, 1.350233e+2, -1687237.6, -1622148.5, 36051.66, 0.07681686, 0.084892, -1606124.9, 10648.636, 0.00075867696, 9.999361, 10.00025 
1.1550618e+3, 1.4502338e+2, -1642218.4, -1561286.4, -9314.045, 0.16373089, 0.080822855, -1560228.3, -41455.316, 0.0002361324, 9.99903, 10.000147 
1.1550586e+3, 1.5502322e+2, -1498198.6, -1436932.0, 11272.796, -0.028813602, 0.007836808, -1434923.8, -14150.185, 0.000024990082, 9.999347, 10.000171 
1.15505666e+3, 1.6502334e+2, -1440025.6, -1399732.1, -19525.654, -0.08209133, 0.029298438, -1391822.8, -69050.44, 0.000000023716384, 9.999259, 9.99979 
1.1550567e+3, 1.7502348e+2, -1387796.4, -1317240.8, -36495.402, 0.061262134, 0.023999289, -1301759.9, -76988.234, 0.0, 9.998934, 9.99983 
1.1550557e+3, 1.850232e+2, -1261801.9, -1241280.6, -56205.41, 0.051512618, 0.036893405, -1194406.9, -67633.44, 0.0, 9.999253, 9.999538 
1.155053e+3, 1.95022e+2, -1033791.2, -1074433.4, -41139.156, -0.12888217, -0.08047992, -1008227.94, 20554.773, 0.0, 10.000123, 9.999587 
1.1550515e+3, 2.0502152e+2, -975355.2, -1124851.8, -97209.73, -0.16237397, -0.024806853, -927477.9, 3310.8003, 0.0, 10.00038, 9.998459 
1.1550513e+3, 2.1502128e+2, -928526.1, -1049758.5, -91446.95, -0.03998018, 0.06626231, -879429.7, -46633.89, 0.0, 10.000019, 9.998478 
1.15505055e+3, 2.2502051e+2, -749895.75, -807938.56, -106223.23, 0.0224914, 0.10428071, -668800.75, 66002.61, 0.0, 10.000157, 9.999382 
1.1550494e+3, 2.3501888e+2, -554912.94, -661462.94, -88655.6, 0.025498811, -0.037275996, -504756.6, 132058.02, 0.0, 10.000811, 9.9994 
1.1550481e+3, 2.4501789e+2, -481908.56, -642066.3, -104441.984, 0.011607703, -0.038290538, -430379.1, 108444.016, 0.0, 10.000917, 9.998813 
1.1550464e+3, 2.5501716e+2, -433855.25, -564317.8, -58051.43, -0.029090486, -0.033495925, -411764.78, 29067.57, 0.0, 10.0005665, 9.998838 
1.15504526e+3, 2.6501644e+2, -339365.13, -481637.2, -30921.129, -0.046034377, 0.024818689, -332935.38, 9904.731, 0.0000005356376, 10.000589, 9.99873 
1.155045e+3, 2.7501538e+2, -182815.92, -346700.94, -17136.309, -0.041389864, -0.00016945411, -181043.28, 63806.33, 0.000008957139, 10.000947, 9.998811 
1.1550443e+3, 2.8501436e+2, -100155.91, -274674.1, -59087.85, -0.0357562, 0.032676093, -82032.25, 64826.04, 0.000047577858, 10.000933, 9.998637 
1.1550433e+3, 2.950127e+2, -63764.62, -210886.4, -26457.432, -0.040512197, -0.042813092, -59151.344, -10278.88, 0.00016516355, 10.0005045, 9.99861 
1.15504324e+3, 3.0501e+2, -48079.7, -265627.16, -52957.297, 0.03697416, -0.12715739, -35873.266, -35873.266, 0.00043860512, 10.000706, 9.99779 
1.1550426e+3, 3.1500882e+2, 94091.625, -95463.17, -46876.582, -0.010639079, -0.072289556, 105050.55, 105050.55, 0.0008954558, 10.001153, 9.998744 
1.1650581e+3, 1.2502271e+2, -1799731.0, -1766571.5, -52135.836, -0.28928939, -0.06325298, -1728442.6, -13667.642, 0.0016512593, 9.999383, 9.999907 
1.16506204e+3, 1.3502371e+2, -1623696.6, -1669653.8, -2340.4436, 0.17693017, 0.046696596, -1623577.8, -6809.165, 0.0008513687, 10.000147, 9.999544 
1.1650609e+3, 1.4502344e+2, -1489886.9, -1479260.5, -28493.723, 0.1325963, 0.040667653, -1455588.9, 63183.62, 0.00027198074, 10.000057, 10.000197 
1.1650583e+3, 1.5502399e+2, -1487386.0, -1426766.0, -75319.22, 0.019636374, 0.02890256, -1375886.9, 44879.293, 0.00003101119, 9.999406, 10.000201 
1.1650567e+3, 1.6502416e+2, -1430626.6, -1419414.8, -41492.08, -0.007923922, 0.064593986, -1383151.6, -60386.816, 0.00000004774233, 9.999415, 9.999587 
1.1650565e+3, 1.750237e+2, -1231839.4, -1271778.3, -39531.617, 0.09738806, 0.02514081, -1207519.6, 17251.166, 0.0, 10.000101, 9.999599 
1.1650556e+3, 1.8502335e+2, -1113246.4, -1188698.8, 16290.253, 0.08113985, 0.049779143, -1109879.5, 16894.9, 0.0, 10.000345, 9.9993725 
1.1650536e+3, 1.9502269e+2, -1020868.6, -1085637.0, -12007.035, -0.08613701, 0.0017891101, -1018714.4, 10065.147, 0.0, 10.000282, 9.999436 
1.16505235e+3, 2.0502217e+2, -948838.94, -1083337.4, -21628.469, -0.106974445, 0.052446514, -945446.5, -14661.581, 0.0, 10.000474, 9.99868 
1.1650523e+3, 2.150214e+2, -781385.25, -946611.0, -12583.777, 0.024624873, 0.06548896, -780432.4, 52362.207, 0.0, 10.00093, 9.998729 
1.1650515e+3, 2.250205e+2, -643040.8, -779985.06, 36489.75, 0.07507137, 0.08578808, -633924.75, 100878.414, 0.0, 10.000971, 9.999195 
1.1650503e+3, 2.3501901e+2, -602489.4, -705333.3, 11694.921, 0.05284285, -0.020702502, -601176.25, 35638.277, 0.0, 10.000557, 9.999234 
1.1650491e+3, 2.4501814e+2, -511694.38, -642016.94, 6861.3613, 0.03157816, -0.010047733, -511334.13, 27488.06, 0.0, 10.000643, 9.998943 
1.1650475e+3, 2.5501746e+2, -323807.44, -497605.34, -30527.24, 0.004719257, -0.0136624295, -318601.34, 122228.29, 0.0, 10.001249, 9.998971 
1.1650466e+3, 2.650166e+2, -232740.58, -445784.94, 5796.7803, -0.004690873, 0.028598655, -232582.97, 110255.47, 0.00000056359414, 10.001401, 9.99858 
1.1650464e+3, 2.7501523e+2, -183731.98, -364282.88, -23661.125, 0.012484517, -0.007296874, -180682.7, 64168.395, 0.00000928475, 10.001037, 9.998644 
1.1650455e+3, 2.850139e+2, -76531.16, -273641.4, -39968.586, 0.0002859399, 0.010475471, -68734.97, 78127.26, 0.000050789153, 10.001114, 9.998563 
1.16504416e+3, 2.950122e+2, 75052.58, -147862.97, -75905.32, -0.035238877, -0.06993596, 98444.55, 147321.33, 0.00017624088, 10.00148, 9.998567 
1.1650445e+3, 3.0500948e+2, 91665.6, -254007.73, -12946.96, 0.048370507, -0.123198226, 92149.84, 92149.84, 0.00046429865, 10.0018835, 9.99732 
1.1650448e+3, 3.150084e+2, 161221.06, -92384.86, -230.55005, 0.07940893, -0.008721074, 161221.28, 161221.28, 0.0009436127, 10.001728, 9.9985075 
1.1750597e+3, 1.2502424e+2, -1857192.4, -1853463.6, 42962.773, -0.15649241, -0.087215304, -1812324.8, -97569.14, 0.0018234614, 9.999282, 9.9993515 
1.1750616e+3, 1.3502331e+2, -1695974.8, -1819658.4, 40043.24, 0.095991045, -0.061204437, -1684142.5, -67371.74, 0.0009506097, 10.000161, 9.9985075 
1.1750587e+3, 1.4502276e+2, -1510580.4, -1515760.1, -72790.23, -0.13654509, -0.03190794, -1440334.0, 78445.43, 0.00031097958, 10.0000305, 9.999957 
1.17505714e+3, 1.5502355e+2, -1508559.1, -1470064.3, -79794.64, -0.08630143, 0.0061615263, -1407228.5, 13543.929, 0.00003785508, 9.999398, 9.9999075 
1.1750559e+3, 1.65024e+2, -1402128.6, -1354096.4, -36956.848, -0.06970012, 0.0640865, -1334037.8, -11269.553, 0.00000010132158, 9.999389, 10.000045 
1.1750558e+3, 1.7502396e+2, -1205892.1, -1200989.9, 4476.6865, -0.029595591, 0.008773695, -1198337.1, 26431.342, 0.0, 10.00003, 10.000117 
1.1750553e+3, 1.8502416e+2, -1140905.3, -1223872.1, -7418.659, -0.029865025, 0.073062815, -1140247.1, -13480.306, 0.0, 10.00025, 9.999179 
1.17505416e+3, 1.9502419e+2, -1053953.8, -1126621.0, 6845.639, -0.08328398, 0.11619009, -1053314.5, -24546.934, 0.0, 10.000156, 9.999221 
1.1750536e+3, 2.0502335e+2, -921141.75, -982738.6, -25517.242, -0.06727278, 0.105958655, -911944.25, 18829.826, 0.0, 10.000292, 9.999456 
1.1750536e+3, 2.1502127e+2, -759649.9, -851475.9, 21057.717, 0.03763565, -0.09129582, -755051.2, 77738.97, 0.0, 10.000707, 9.999493 
1.1750525e+3, 2.250204e+2, -698001.25, -828519.25, -748.88293, 0.045914676, -0.09319002, -697996.94, 36800.207, 0.0, 10.000696, 9.998992 
1.17505014e+3, 2.3502044e+2, -654909.6, -747890.6, 14701.956, -0.043881174, -0.029173095, -652640.4, -15842.456, 0.0, 10.000285, 9.999067 
1.1750491e+3, 2.4501987e+2, -584024.2, -737342.06, 11260.878, -0.06404494, 0.048141394, -583201.5, -44396.63, 0.0, 10.000399, 9.998412 
1.17504895e+3, 2.5501835e+2, -383848.06, -576802.5, 10285.453, -0.014183607, 0.009142871, -383301.34, 57519.94, 0.0, 10.001051, 9.998522 
1.1750486e+3, 2.6501688e+2, -276958.78, -494150.47, -28579.164, 0.012355188, 0.02575829, -273261.16, 69574.74, 0.0000005132723, 10.001209, 9.998345 
1.17504746e+3, 2.7501497e+2, -222546.17, -411677.3, -15326.345, -0.01584645, -0.04455267, -221312.25, 23541.191, 0.000009286575, 10.000888, 9.998393 
1.1750461e+3, 2.850134e+2, -135638.3, -352938.0, -42713.973, -0.085663445, -0.015700726, -127543.67, 19324.758, 0.000051726838, 10.000931, 9.998106 
1.1750447e+3, 2.9501194e+2, 34541.105, -203681.08, -37318.617, -0.18386804, -0.030207662, 40250.41, 89133.73, 0.00018255804, 10.001347, 9.998252 
1.1750455e+3, 3.0501032e+2, 100394.93, -180860.33, -29315.623, -0.069493175, 0.008717076, 103418.05, 103418.05, 0.00048000744, 10.001672, 9.997915 
1.1750464e+3, 3.1501082e+2, 182037.45, 32169.705, 41290.145, -0.006162756, 0.22278593, 192660.34, 192660.34, 0.0009690781, 10.001401, 9.99951 
1.1850607e+3, 1.2502483e+2, -1756127.6, -1781478.8, 35766.113, 0.0036748017, -0.0065812087, -1730857.4, -16105.205, 0.0020081834, 9.999835, 9.999594 
1.18506104e+3, 1.3502331e+2, -1785426.9, -1832818.5, -17044.203, 0.07363954, -0.07538209, -1779933.8, -163162.25, 0.0010574218, 9.999391, 9.998802 
1.185058e+3, 1.4502315e+2, -1633743.0, -1578479.3, -36294.348, -0.16294302, -0.021618625, -1560495.4, -41719.44, 0.00035351914, 9.999175, 9.999954 
1.1850565e+3, 1.5502387e+2, -1493195.3, -1457173.3, -65978.44, -0.07842134, 0.010848628, -1406791.6, 13978.053, 0.00004562391, 9.999479, 9.999966 
1.1850555e+3, 1.6502437e+2, -1382051.3, -1354928.8, 30569.459, -0.03828487, 0.074532054, -1335047.5, -12282.255, 0.00000019883093, 9.999583, 9.999944 
1.1850557e+3, 1.7502427e+2, -1272724.3, -1238933.6, -12903.483, -0.012741466, 0.021802103, -1234569.8, -9803.752, 0.0, 9.999603, 10.000052 
1.18505545e+3, 1.850244e+2, -1215533.1, -1252681.6, -12036.766, 0.0007570543, 0.07671761, -1211974.0, -85208.555, 0.0, 9.999705, 9.999248 
1.1850548e+3, 1.9502434e+2, -1087423.6, -1131378.6, -20759.352, -0.012236598, 0.10449866, -1079169.4, -50401.984, 0.0, 9.999879, 9.999322 
1.1850543e+3, 2.050236e+2, -967903.1, -975496.56, -18777.412, 0.011668866, 0.086483896, -952542.44, -21769.99, 0.0, 9.999823, 9.999752 
1.1850542e+3, 2.1502183e+2, -905414.44, -881902.94, -38060.35, 0.091175064, -0.10875909, -853824.2, -21040.098, 0.0, 9.999537, 9.999851 
1.1850531e+3, 2.2502118e+2, -815559.3, -901441.2, -26927.943, 0.091096826, -0.0995785, -807814.56, -73025.37, 0.0, 9.999961, 9.998841 
1.1850513e+3, 2.3502122e+2, -556606.75, -718732.56, -51461.15, 0.0041647707, -0.020482332, -541651.75, 95140.14, 0.0, 10.001033, 9.998904 
1.18505016e+3, 2.4502069e+2, -442076.0, -673802.0, -5682.7954, -0.028077573, 0.06951863, -441936.72, 96862.28, 0.0, 10.001405, 9.998365 
1.1850501e+3, 2.550192e+2, -384538.34, -592827.56, -9326.023, -0.0052036247, 0.043767966, -384121.6, 56692.74, 0.0, 10.001107, 9.998398 
1.1850498e+3, 2.6501745e+2, -291420.72, -507534.94, 3106.599, 0.033135846, 0.04544929, -291376.06, 51454.895, 0.0000005059796, 10.001158, 9.998265 
1.1850494e+3, 2.7501503e+2, -133332.77, -384263.44, -20516.404, 0.060882043, -0.06452048, -131666.39, 113186.836, 0.000009353779, 10.001574, 9.998249 
1.1850481e+3, 2.850134e+2, -20734.742, -309374.97, 17520.832, -0.015368021, -0.026831836, -19675.094, 127193.95, 0.000051580555, 10.001804, 9.997967 
1.18504636e+3, 2.9501244e+2, 91757.23, -194684.69, 409.3886, -0.15849172, 0.028966809, 91757.81, 140637.78, 0.00018437536, 10.001846, 9.998063 
1.1850473e+3, 3.0501086e+2, 138925.83, -147101.06, 13080.468, -0.047153883, 0.06988058, 139522.77, 139522.77, 0.00048100852, 10.001841, 9.998076 
1.18504845e+3, 3.150105e+2, 192803.81, 64125.168, -27864.709, 0.08188688, 0.18292625, 198578.63, 198578.63, 0.0009626293, 10.001316, 9.999784 
1.19506106e+3, 1.2502328e+2, -1685164.1, -1633918.4, -10606.956, -0.025991768, 0.049551405, -1631809.6, 82966.03, 0.0022081332, 9.999838, 10.000596 
1.1950594e+3, 1.3502355e+2, -1659593.0, -1574606.0, -21664.844, -0.06957018, -0.020426735, -1569401.9, 47370.375, 0.0011730703, 9.999392, 10.000571 
1.195058e+3, 1.4502443e+2, -1621496.4, -1545431.3, -48581.402, -0.13946752, 0.036684148, -1521765.9, -3002.6082, 0.00040013902, 9.999147, 10.000193 
1.19505614e+3, 1.5502508e+2, -1474647.6, -1423549.5, -36400.17, -0.098446324, 0.0378495, -1404626.9, 16129.912, 0.00005450229, 9.999495, 10.000191 
1.1950553e+3, 1.6502531e+2, -1425187.9, -1446828.3, 8171.8657, -0.06509033, 0.09392324, -1422448.8, -99693.22, 0.00000035173326, 9.999584, 9.999319 
1.1950558e+3, 1.7502478e+2, -1325385.8, -1339560.3, 4524.436, 0.0004105187, 0.064418815, -1324064.8, -99302.3, 0.0, 9.999558, 9.999391 
1.1950557e+3, 1.8502417e+2, -1208682.5, -1218924.8, -26200.863, 0.014574444, 0.067282945, -1187107.0, -60337.785, 0.0, 9.999623, 9.9995165 
1.19505495e+3, 1.9502315e+2, -1087809.0, -1102824.0, 3596.843, -0.025172712, -0.030169683, -1086991.8, -58212.79, 0.0, 9.999747, 9.999583 
1.19505405e+3, 2.0502293e+2, -1000069.9, -995182.3, -50841.05, -0.020367457, -0.0071222745, -946726.3, -15946.403, 0.0, 9.999628, 9.999706 
1.19505346e+3, 2.1502317e+2, -944779.9, -908320.4, -30330.205, 0.038173, 0.0038792891, -891163.06, -58387.6, 0.0, 9.999302, 9.999783 
1.1950531e+3, 2.2502282e+2, -866346.25, -946555.3, -6918.18, 0.06087684, 0.056130555, -865753.9, -130974.58, 0.0, 9.9997015, 9.998654 
1.195053e+3, 2.3502152e+2, -603876.56, -756981.44, 3946.3223, 0.049653485, 0.014141921, -603774.94, 33019.973, 0.0, 10.000781, 9.998758 
1.195052e+3, 2.4502075e+2, -453191.63, -637839.44, -36368.195, -0.011193628, 0.07026759, -446286.75, 92516.18, 0.0, 10.001151, 9.998738 
1.1950502e+3, 2.5502017e+2, -389573.47, -545961.4, 717.92474, -0.1297416, 0.09547073, -389570.2, 51236.87, 0.0, 10.000871, 9.998829 
1.19505e+3, 2.650185e+2, -332116.38, -542883.2, 1293.4419, -0.09411136, 0.08951348, -332108.44, 10713.371, 0.0000006389743, 10.000941, 9.998133 
1.1950517e+3, 2.750154e+2, -163417.08, -402849.34, 16727.355, 0.092280164, -0.074975945, -162254.11, 82596.46, 0.000009301616, 10.001391, 9.998208 
1.19505115e+3, 2.85014e+2, -39489.63, -311810.22, 3343.7747, 0.07261713, -0.017636845, -39448.574, 107415.28, 0.00005191434, 10.001639, 9.9980345 
1.19504884e+3, 2.950138e+2, 69395.72, -203434.2, 29641.172, -0.14694822, 0.10102812, 72578.9, 121445.695, 0.00018470343, 10.001671, 9.998092 
1.1950494e+3, 3.050111e+2, 66937.56, -232196.56, -14887.97, -0.050475925, 0.060613777, 67676.71, 67676.71, 0.00047307427, 10.001585, 9.997603 
1.19505e+3, 3.1500742e+2, 110028.15, -23009.904, 5174.0215, 0.03140623, -0.12339377, 110229.07, 110229.07, 0.0009340255, 10.000973, 9.999336 
1.20506205e+3, 1.2502347e+2, -1756126.1, -1647379.3, 100556.34, 0.1350843, 0.10855448, -1587437.1, 127340.72, 0.0024257244, 9.99928, 10.000779 
1.20505825e+3, 1.350244e+2, -1733099.0, -1534582.0, -24303.592, -0.07564353, 0.048592422, -1531649.9, 85116.08, 0.0012988481, 9.998592, 10.00122 
1.20505795e+3, 1.4502527e+2, -1682790.3, -1567450.3, 0.89440656, -0.014532907, 0.066675454, -1567450.3, -48694.75, 0.00045139206, 9.99868, 10.000272 
1.2050563e+3, 1.5502551e+2, -1404371.5, -1377749.0, -47810.918, -0.04578882, 0.016777307, -1341430.9, 79320.63, 0.00006471426, 9.999917, 10.000303 
1.2050554e+3, 1.6502555e+2, -1343314.9, -1419945.4, 15722.035, -0.03310377, 0.054574165, -1340214.6, -17463.086, 0.00000057087306, 10.0002165, 9.999187 
1.2050558e+3, 1.75025e+2, -1301348.3, -1337478.6, 11146.936, 0.047735266, 0.03695092, -1298186.0, -73426.8, 0.0, 9.999786, 9.999285 
1.20505564e+3, 1.8502463e+2, -1215043.1, -1196100.8, 45747.375, 0.07059753, 0.057735108, -1158854.5, -32090.58, 0.0, 9.999486, 9.999726 
1.205055e+3, 1.9502401e+2, -1127004.4, -1091923.9, 35169.72, 0.027041186, -0.022002801, -1070163.1, -41393.395, 0.0, 9.99937, 9.999824 
1.2050542e+3, 2.0502403e+2, -997890.94, -1035060.9, 19358.164, 0.021101011, 0.02733717, -989640.5, -58870.707, 0.0, 9.999786, 9.999363 
1.2050535e+3, 2.1502425e+2, -764979.4, -865292.25, -21628.234, 0.055414695, 0.06958772, -760514.8, 72253.336, 0.0, 10.000678, 9.99943 
1.2050533e+3, 2.2502379e+2, -674452.44, -844416.94, 47413.848, 0.06707253, 0.12519944, -662120.44, 72653.08, 0.0, 10.000978, 9.998745 
1.20505385e+3, 2.3502234e+2, -602644.1, -750101.1, 41707.188, 0.0631469, 0.06371405, -591665.0, 45124.156, 0.0, 10.000759, 9.998824 
1.20505325e+3, 2.4502139e+2, -481470.5, -632905.44, 19574.006, 0.018415678, 0.0913155, -478981.3, 59816.59, 0.0, 10.000894, 9.998878 
1.20505154e+3, 2.5502053e+2, -313182.1, -497217.6, -6659.3794, -0.089754425, 0.07651284, -312941.44, 127862.664, 0.00000000020898414, 10.00135, 9.998921 
1.20505154e+3, 2.6501912e+2, -251279.19, -495088.94, 26766.252, -0.053305097, 0.08237947, -248375.28, 94441.18, 0.00000074892756, 10.001435, 9.998231 
1.2050531e+3, 2.7501675e+2, -197916.56, -410584.4, 19177.371, 0.13290918, -0.016022153, -196201.08, 48636.766, 0.000009032264, 10.001086, 9.998305 
1.2050529e+3, 2.8501526e+2, -122988.91, -339592.13, 51935.51, 0.12691444, 0.018058753, -111180.0, 35671.473, 0.000052136886, 10.00101, 9.998154 
1.2050508e+3, 2.9501414e+2, -11532.508, -228749.34, 32464.094, -0.073414505, 0.03952853, -6784.383, 42077.484, 0.0001849306, 10.001073, 9.998206 
1.2050514e+3, 3.0501148e+2, 67082.15, -230183.2, 53687.316, 0.0015642394, -0.0046196473, 76481.12, 76481.12, 0.0004665325, 10.0015745, 9.997623 
1.2050514e+3, 3.15008e+2, 254057.8, 52115.26, 30257.613, 0.04546566, -0.16425572, 258493.92, 258493.92, 0.00090609305, 10.001967, 9.999368 
1.2150599e+3, 1.250248e+2, -1779577.9, -1682166.1, -93038.305, -0.08369925, 0.108367175, -1625855.9, 88908.7, 0.0026624324, 9.999243, 10.000549 
1.21505715e+3, 1.3502596e+2, -1771686.8, -1616391.1, -42059.785, -0.07974667, 0.13180278, -1605731.4, 11020.24, 0.0014356553, 9.998606, 10.000652 
1.2150579e+3, 1.4502576e+2, -1677423.4, -1559142.9, 21772.846, 0.05005636, 0.06661604, -1555262.3, -36510.836, 0.0005075534, 9.998698, 10.000316 
1.2150564e+3, 1.5502523e+2, -1409107.1, -1384031.9, 20171.516, -0.07070501, -0.061740126, -1372819.1, 47933.895, 0.000076397075, 9.9999, 10.00027 
1.2150553e+3, 1.6502507e+2, -1322976.5, -1371471.3, -21171.717, -0.11020614, -0.05767315, -1315034.1, 7719.4307, 0.0000008702971, 10.000194, 9.999525 
1.2150553e+3, 1.7502494e+2, -1288503.1, -1294892.4, 12594.949, -0.016302433, -0.06657213, -1278704.0, -53947.824, 0.0, 9.999718, 9.999609 
1.2150549e+3, 1.8502569e+2, -1211481.1, -1165712.3, 21231.627, 0.01680946, 0.036814272, -1157380.0, -30629.799, 0.0, 9.999391, 9.999982 
1.2150543e+3, 1.9502692e+2, -1131650.9, -1069781.4, 49545.92, -0.009990944, 0.116076834, -1042305.94, -13565.962, 0.0, 9.999234, 10.000042 
1.21505395e+3, 2.0502682e+2, -1071869.9, -1142433.5, 31170.613, -0.017122788, 0.17847832, -1060073.0, -129330.23, 0.0, 9.99959, 9.998717 
1.2150538e+3, 2.1502517e+2, -846488.94, -969925.25, 27635.473, -0.009990851, 0.09421264, -840584.25, -7823.175, 0.0, 10.000402, 9.998839 
1.2150536e+3, 2.2502431e+2, -689984.5, -817208.0, 17741.559, -0.03595797, 0.11963895, -687556.75, 47213.266, 0.0, 10.000716, 9.999062 
1.2150532e+3, 2.3502383e+2, -613232.6, -715569.6, 52942.316, -0.09170183, 0.12306772, -590773.0, 46000.17, 0.0, 10.000515, 9.999177 
1.21505335e+3, 2.4502264e+2, -541123.06, -690575.44, 20616.625, -0.092000805, 0.121139444, -538331.2, 452.47394, 0.0, 10.00061, 9.998616 
1.2150538e+3, 2.5502038e+2, -362980.0, -549016.25, 28461.87, -0.033771455, -0.012420976, -358723.0, 82082.18, 0.00000000018849695, 10.001129, 9.998667 
1.2150538e+3, 2.6501936e+2, -261664.28, -464988.66, -4532.2856, 0.008911121, 0.033014785, -261563.31, 81250.766, 0.00000061447383, 10.001208, 9.99855 
1.2150535e+3, 2.7501908e+2, -199604.27, -373000.84, 28796.336, 0.027640125, 0.109148875, -194947.08, 49867.797, 0.000008322687, 10.0009, 9.998658 
1.21505275e+3, 2.8501722e+2, -161992.67, -353763.13, 37797.81, -0.017790807, 0.08688689, -154811.66, -7980.428, 0.000050710027, 10.000743, 9.998178 
1.21505186e+3, 2.950135e+2, -34557.52, -230176.45, 62928.62, -0.11244996, -0.15741104, -16062.63, 32802.688, 0.00018357177, 10.000884, 9.99828 
1.2150528e+3, 3.050118e+2, 64920.402, -191646.95, 55323.336, -0.039121438, -0.123081006, 76341.32, 76341.32, 0.00046227945, 10.0013895, 9.997982 
1.21505186e+3, 3.1501195e+2, 238155.02, 99578.016, 88275.28, -0.18351668, 0.038236286, 281086.94, 281086.94, 0.0008888424, 10.001628, 9.999857 
1.22505955e+3, 1.2502529e+2, -1862066.5, -1736635.5, -95882.98, -0.002219898, 0.055241887, -1684778.9, 29980.004, 0.0029179724, 9.998709, 10.000438 
1.225057e+3, 1.3502648e+2, -1604874.0, -1593089.8, -65016.38, -0.0069249906, 0.1296124, -1533699.1, 83047.375, 0.0015834377, 9.99998, 10.000156 
1.2250571e+3, 1.4502595e+2, -1507023.0, -1514686.3, 27679.154, 0.048728283, 0.0751366, -1482911.5, 35839.145, 0.00056846405, 10.000055, 9.999957 
1.2250564e+3, 1.5502538e+2, -1516602.6, -1461472.9, -51042.895, -0.013926671, -0.028439252, -1431027.5, -10272.728, 0.00008951281, 9.999316, 9.999997 
1.2250555e+3, 1.6502523e+2, -1454278.4, -1411547.0, -66039.164, -0.037595943, -0.020606829, -1363503.3, -40748.586, 0.0000012652538, 9.999144, 9.999789 
1.22505516e+3, 1.7502521e+2, -1284782.0, -1259828.5, -71794.15, 0.011987105, -0.04874991, -1199435.0, 25319.068, 0.0, 9.999572, 9.999938 
1.22505456e+3, 1.8502589e+2, -1166047.9, -1181915.0, -47520.477, 0.030629193, 0.045190383, -1125803.3, 945.13403, 0.0, 9.999833, 9.999676 
1.225054e+3, 1.9502681e+2, -1047964.25, -1066946.0, -98983.32, 0.012126325, 0.12971453, -958017.9, 70724.28, 0.0, 9.999946, 9.999739 
1.225054e+3, 2.0502663e+2, -988190.2, -1074699.6, -43976.598, 0.010647653, 0.1872378, -969760.94, -39015.168, 0.0, 10.0000725, 9.998938 
1.22505434e+3, 2.1502505e+2, -859421.4, -949471.2, -24287.363, 0.019126201, 0.08869004, -853288.5, -20526.486, 0.0, 10.000232, 9.999047 
1.22505434e+3, 2.2502421e+2, -734519.5, -817850.1, 4537.601, -0.0028931336, 0.09802466, -734273.1, 496.377, 0.0, 10.000303, 9.999258 
1.2250538e+3, 2.350237e+2, -640508.4, -712514.9, -14728.7295, -0.064063996, 0.07985499, -637612.1, -839.6128, 0.0, 10.000236, 9.999342 
1.22505404e+3, 2.4502267e+2, -571445.56, -684685.94, 21226.291, -0.05722019, 0.07436959, -567597.56, -28816.266, 0.0, 10.000292, 9.998825 
1.2250551e+3, 2.5502077e+2, -439779.9, -562004.5, 28740.902, 0.016457336, -0.04139374, -433358.88, 7440.038, 0.0, 10.000489, 9.998898 
1.2250555e+3, 2.6501998e+2, -283654.8, -469508.13, 37883.027, 0.06683769, 0.014780004, -276229.66, 66576.266, 0.0000003685213, 10.001065, 9.998569 
1.2250553e+3, 2.7501982e+2, -46469.92, -295366.28, -805.9421, 0.07508879, 0.1022192, -46467.31, 198339.3, 0.0000073761885, 10.001987, 9.998645 
1.2250544e+3, 2.850179e+2, 23652.08, -277882.13, 528.0024, 0.02364373, 0.079443745, 23653.004, 170477.27, 0.000049087277, 10.002033, 9.998084 
1.2250532e+3, 2.95014e+2, -21433.264, -242891.13, -20304.88, -0.06000466, -0.1730014, -19586.957, 29273.967, 0.00018153466, 10.00102, 9.99814 
1.2250542e+3, 3.050129e+2, 34769.676, -187172.33, 44483.813, -0.0083962325, -0.084932834, 43353.566, 43353.566, 0.00045750884, 10.001112, 9.998125 
1.22505374e+3, 3.150135e+2, 269738.1, 100806.51, -29392.85, -0.15000352, 0.10702963, 274706.13, 274706.13, 0.0008772591, 10.00186, 9.999753 
1.2350602e+3, 1.2502545e+2, -1851266.1, -1738716.1, -57350.18, 0.110339716, -0.014889486, -1714642.4, 113.541275, 0.0031899144, 9.998794, 10.000386 
1.23505704e+3, 1.3502596e+2, -1630087.3, -1655447.6, -8992.034, -0.044073094, 0.028744893, -1627222.6, -10472.383, 0.0017411282, 10.000004, 9.99972 
1.235055e+3, 1.4502577e+2, -1558686.9, -1634204.6, -26222.18, -0.21930277, 0.07153139, -1550474.8, -31720.797, 0.0006337289, 10.000095, 9.999128 
1.235056e+3, 1.5502577e+2, -1566859.6, -1577822.5, -66213.9, -0.022597264, 0.11122128, -1505900.6, -85142.51, 0.00010392506, 9.999347, 9.999198 
1.2350558e+3, 1.6502587e+2, -1421878.6, -1347711.3, -77001.7, 0.033092864, 0.16015077, -1299328.8, 23428.01, 0.0000017603737, 9.999156, 10.000218 
1.23505466e+3, 1.7502573e+2, -1258287.6, -1204617.6, -40122.742, -0.023907287, 0.07598882, -1183183.1, 41570.348, 0.0, 9.999559, 10.000325 
1.235054e+3, 1.8502514e+2, -1237935.4, -1316424.0, -62117.22, -0.052068207, 0.07074575, -1203704.0, -76945.43, 0.0, 9.999767, 9.998785 
1.2350536e+3, 1.9502385e+2, -1125830.4, -1199162.8, -75714.24, -0.060568437, 0.018457115, -1078371.3, -49596.285, 0.0, 9.999815, 9.998892 
1.2350537e+3, 2.0502359e+2, -944986.56, -936947.5, -59003.316, -0.042640965, 0.055697113, -881826.94, 48950.66, 0.0, 9.9998665, 9.999985 
1.23505466e+3, 2.1502393e+2, -822271.9, -817845.1, 986.8881, 0.004505331, 0.047398467, -817635.06, 15135.377, 0.0, 9.999994, 10.000067 
1.2350552e+3, 2.2502357e+2, -768986.7, -835555.2, -14526.518, 0.018585855, 0.052991163, -765954.8, -31182.645, 0.0, 10.000065, 9.999258 
1.23505495e+3, 2.3502213e+2, -675631.25, -731154.06, 4812.4326, -0.0026787894, -0.06000199, -675217.2, -38431.105, 0.0, 9.999995, 9.999334 
1.2350548e+3, 2.4502164e+2, -561583.6, -601692.56, 12374.25, -0.04308234, -0.042306278, -558073.2, -19283.957, 0.0, 10.000025, 9.999522 
1.23505466e+3, 2.5502178e+2, -422239.9, -472811.25, 58261.46, -0.0893232, -0.026611045, -384013.66, 56771.28, 0.0, 10.000257, 9.999625 
1.2350558e+3, 2.6502097e+2, -355271.34, -553748.8, 56678.57, -0.03452582, 0.014100667, -340226.28, 2565.8958, 0.00000016286783, 10.000792, 9.998122 
1.2350581e+3, 2.7501887e+2, -110448.336, -378702.66, 57631.938, 0.12016688, -0.051372293, -98590.79, 146224.05, 0.000006622681, 10.001776, 9.998175 
1.2350575e+3, 2.850172e+2, -20803.846, -313705.5, -50574.273, 0.09068832, -0.01675265, -12317.261, 134515.45, 0.000048750662, 10.001799, 9.99795 
1.2350542e+3, 2.950156e+2, -57636.953, -272376.28, -29744.113, -0.10877935, -0.022872565, -53593.164, -4743.906, 0.00018217463, 10.00082, 9.998036 
1.23505495e+3, 3.0501464e+2, -11377.606, -234333.03, 66282.63, -0.090796724, 0.09329389, 6839.199, 6839.199, 0.00045752534, 10.000904, 9.997905 
1.2350563e+3, 3.1501257e+2, 171471.42, -21090.953, 42207.62, -0.16981941, 0.04018592, 180316.6, 180316.6, 0.00087459444, 10.001519, 9.999075 
1.2450591e+3, 1.2502594e+2, -1724997.3, -1667524.6, -21285.764, 0.086806096, 0.05368069, -1660499.8, 54252.625, 0.003475539, 9.999654, 10.000445 
1.2450569e+3, 1.350257e+2, -1764071.4, -1723454.0, -63802.6, 0.0018484059, 0.020540962, -1676805.9, -60051.7, 0.0019075654, 9.999099, 9.999695 
1.2450549e+3, 1.450257e+2, -1705269.3, -1680819.8, 9527.098, -0.1702402, 0.07472887, -1677545.8, -158789.95, 0.0007030745, 9.998985, 9.999339 
1.2450562e+3, 1.5502621e+2, -1498918.0, -1528603.9, 3251.5657, 0.045314144, 0.14659213, -1498566.1, -77811.48, 0.00011956255, 9.999721, 9.99936 
1.24505594e+3, 1.6502634e+2, -1326004.0, -1313480.6, 50612.24, 0.09606158, 0.19485022, -1268744.3, 54008.965, 0.0000023468863, 9.999894, 10.000079 
1.2450546e+3, 1.7502578e+2, -1255045.4, -1217910.3, 2180.7332, 0.0045570093, 0.08529005, -1217782.6, 6971.7393, 0.0, 9.99967, 10.000168 
1.24505386e+3, 1.8502493e+2, -1220866.5, -1285808.5, 40480.543, -0.03654122, 0.052290197, -1201442.9, -74682.01, 0.0, 9.999805, 9.998962 
1.2450537e+3, 1.9502343e+2, -1039351.2, -1139974.8, 69194.81, -0.04475123, -0.03899283, -1004110.7, 24666.174, 0.0, 10.000337, 9.99904 
1.24505386e+3, 2.0502321e+2, -873661.25, -892653.4, 105468.71, -0.025905559, -0.010595302, -777262.0, 153515.86, 0.0, 10.000309, 10.000074 
1.2450547e+3, 2.1502385e+2, -864960.6, -825330.7, 55884.945, 0.027479343, 0.0010200724, -785851.8, 46915.87, 0.0, 9.999643, 10.000183 
1.2450552e+3, 2.250237e+2, -862002.8, -885159.75, 53720.848, 0.055303622, 0.02494789, -818626.9, -83858.65, 0.0, 9.999486, 9.999176 
1.2450553e+3, 2.3502235e+2, -707412.25, -748229.5, 26043.959, 0.05200759, -0.070684426, -694733.1, -57950.168, 0.0, 9.9998255, 9.999276 
1.2450554e+3, 2.4502194e+2, -540408.9, -600274.2, 47675.453, 0.017365761, -0.038696267, -514048.4, 24738.12, 0.0, 10.000212, 9.999435 
1.2450554e+3, 2.550222e+2, -378889.25, -455649.84, -3981.058, -0.04820273, -0.005430872, -378683.34, 62098.375, 0.0, 10.00059, 9.999564 
1.2450568e+3, 2.6502126e+2, -366578.38, -544747.8, 23579.352, -0.0030880645, 0.01869305, -363510.66, -20720.291, 0.000000050542315, 10.000612, 9.998286 
1.2450593e+3, 2.7501887e+2, -328255.8, -470461.3, 35093.164, 0.1530859, -0.09376885, -320067.13, -75250.78, 0.0000061370592, 10.00018, 9.998335 
1.2450591e+3, 2.8501764e+2, -185434.84, -374893.94, -1468.2554, 0.13219565, -0.026231198, -185423.45, -38593.21, 0.000049451548, 10.0006075, 9.998098 
1.245056e+3, 2.950173e+2, 106660.22, -169148.63, -7524.584, -0.057651687, 0.07764692, 106865.35, 155701.16, 0.00018750013, 10.001875, 9.998223 
1.2450566e+3, 3.050164e+2, 140412.94, -148109.88, 140758.61, -0.035066787, 0.17883682, 197706.34, 197706.34, 0.000470274, 10.001867, 9.998052 
1.2450585e+3, 3.1501338e+2, -10757.998, -144721.73, 65483.598, -0.03294111, 0.025141818, 15933.354, 15933.354, 0.0008945071, 10.000414, 9.9987755 
1.2550579e+3, 1.2502621e+2, -1704308.8, -1641830.5, -34758.168, -0.09054053, 0.19727759, -1626336.3, 88417.39, 0.0037739007, 9.999717, 10.000596 
1.2550563e+3, 1.3502589e+2, -1724560.6, -1651501.8, -72248.58, -0.0004332189, 0.11036882, -1607072.8, 9683.038, 0.0020822603, 9.999142, 10.000171 
1.2550566e+3, 1.4502595e+2, -1611755.4, -1498043.1, 15392.628, 0.03267843, 0.08507098, -1495996.4, 22757.318, 0.0007764397, 9.999028, 10.000572 
1.2550561e+3, 1.550269e+2, -1410293.8, -1347365.1, 48593.285, 0.023397882, 0.07271358, -1320938.9, 99803.34, 0.00013646827, 9.99973, 10.000598 
1.2550552e+3, 1.6502678e+2, -1386714.5, -1442363.0, 18350.875, -0.0017984351, 0.08026134, -1381207.9, -58465.523, 0.0000030208696, 9.999899, 9.999199 
1.2550542e+3, 1.750255e+2, -1315716.9, -1341369.4, 9660.532, -0.0331017, -0.0144207915, -1312485.8, -87730.56, 0.0, 9.999653, 9.9993305 
1.2550539e+3, 1.8502523e+2, -1141497.9, -1107312.5, 39180.723, -0.06128498, -0.013624875, -1081658.4, 45097.336, 0.0, 9.999742, 10.000223 
1.255054e+3, 1.9502547e+2, -965796.1, -964438.8, 105567.92, -0.085496485, -0.056534346, -859547.4, 169201.34, 0.0, 10.000232, 10.000297 
1.255054e+3, 2.0502542e+2, -963851.56, -1032831.06, 59166.184, -0.085675694, -0.028366681, -929856.44, 890.7165, 0.0, 10.000108, 9.999213 
1.2550537e+3, 2.1502483e+2, -962032.0, -969183.8, 48722.1, -0.06479192, -0.053518932, -916754.8, -84001.27, 0.0, 9.9993925, 9.999322 
1.2550539e+3, 2.2502452e+2, -918029.4, -932628.94, 47051.355, -0.052557968, 0.010877459, -877714.9, -142956.48, 0.0, 9.999197, 9.998983 
1.2550545e+3, 2.3502418e+2, -755898.1, -793127.6, 58485.293, -0.042404816, 0.0330456, -713136.7, -76371.46, 0.0, 9.999587, 9.999081 
1.2550554e+3, 2.4502343e+2, -635668.56, -738438.8, 43119.5, -0.02841982, 0.07895989, -619973.75, -81199.1, 0.0, 9.999953, 9.998611 
1.2550567e+3, 2.5502187e+2, -474901.88, -602200.06, 28696.371, -0.01128631, 0.017514072, -468732.0, -27941.797, 0.0, 10.000355, 9.998675 
1.2550578e+3, 2.6502076e+2, -346451.53, -443408.75, -12312.091, 0.0022423672, 0.024190718, -344912.53, -2110.8616, 0.00000007625481, 10.000361, 9.999101 
1.2550583e+3, 2.750197e+2, -300646.75, -362788.38, 42007.832, 0.012613944, -0.031133883, -279467.66, -34655.62, 0.0000061507535, 9.999966, 9.999178 
1.2550585e+3, 2.850193e+2, -191490.86, -340282.34, 30745.727, -0.018240301, 0.05575203, -185387.98, -38571.004, 0.000051588533, 10.000405, 9.998428 
1.255058e+3, 2.9501903e+2, 103486.47, -134709.72, 63207.887, -0.07226802, 0.12753184, 119220.09, 168041.25, 0.00020006, 10.0017, 9.99854 
1.2550592e+3, 3.0501792e+2, 150349.67, -95101.086, 70969.04, -0.0016361838, 0.17141566, 169392.14, 169392.14, 0.0005036429, 10.001722, 9.998484 
1.255059e+3, 3.1501582e+2, -60265.043, -174635.53, 56264.13, -0.09638925, 0.056290817, -37226.824, -37226.824, 0.0009532298, 10.000095, 9.998723 
1.2650578e+3, 1.2502505e+2, -1931829.0, -1737979.3, 43719.668, 0.03169309, 0.13650116, -1728575.3, -13810.169, 0.004085261, 9.998105, 10.000733 
1.2650558e+3, 1.3502572e+2, -1635210.9, -1553070.5, -40487.395, 0.03206014, 0.11878292, -1536469.3, 80288.07, 0.0022650692, 9.999551, 10.000643 
1.2650573e+3, 1.4502612e+2, -1467405.1, -1408063.6, 41570.598, 0.17549232, 0.092928655, -1386661.3, 132090.5, 0.00085386867, 9.999933, 10.000755 
1.2650558e+3, 1.5502693e+2, -1409580.1, -1326390.8, -49109.13, 0.038966198, 0.053565733, -1303628.5, 117112.836, 0.00015477135, 9.999663, 10.000773 
1.2650548e+3, 1.65027e+2, -1424985.8, -1440690.9, -44178.035, -0.008478412, 0.06276135, -1387967.9, -65228.22, 0.0000038088367, 9.99957, 9.999356 
1.2650542e+3, 1.7502612e+2, -1272980.9, -1305908.9, -16963.621, -0.0009538664, -0.0063371817, -1265805.4, -41056.8, 0.0, 9.999891, 9.999457 
1.2650542e+3, 1.8502611e+2, -1115743.9, -1085850.4, 42884.895, 0.003779335, 0.010142809, -1055382.1, 71364.45, 0.0, 9.999874, 10.000312 
1.2650545e+3, 1.9502652e+2, -1068784.6, -1003838.3, -17946.7, 0.0010726181, -0.020324042, -999209.0, 29528.893, 0.0, 9.999495, 10.000383 
1.2650543e+3, 2.0502634e+2, -1062648.1, -1096557.0, -51013.44, -0.018134972, -0.0039725164, -1025845.5, -95107.46, 0.0, 9.999493, 9.999068 
1.2650532e+3, 2.1502517e+2, -909062.9, -960718.8, -48919.41, -0.06459256, -0.07225101, -879571.8, -46821.56, 0.0, 9.999822, 9.999168 
1.2650532e+3, 2.2502479e+2, -786700.9, -878685.44, 37906.348, -0.0693555, -0.0068662046, -773093.0, -38336.793, 0.0, 10.00012, 9.9989195 
1.2650545e+3, 2.3502488e+2, -647117.6, -748057.4, 22356.598, -0.025666164, 0.06537591, -642387.6, -5628.8594, 0.0, 10.000352, 9.999032 
1.265056e+3, 2.4502417e+2, -565567.25, -705013.1, 70959.766, 0.01744085, 0.11812133, -535808.6, 2959.401, 0.0, 10.000419, 9.9986315 
1.2650578e+3, 2.5502232e+2, -474898.28, -603658.94, 86288.86, 0.061506223, 0.026962187, -431619.0, 9168.525, 0.0, 10.000338, 9.998692 
1.2650587e+3, 2.6502147e+2, -321419.78, -403759.0, 85135.57, 0.06993748, 0.053702187, -268021.97, 74774.586, 0.00000015326442, 10.000428, 9.999332 
1.2650587e+3, 2.750214e+2, -184623.97, -273986.7, 47867.934, 0.033859804, 0.06757824, -163824.31, 80974.01, 0.0000068361555, 10.000641, 9.999447 
1.2650588e+3, 2.8502116e+2, -154879.83, -296291.88, 71269.18, -0.015002464, 0.1414805, -125193.43, 21607.896, 0.000055437977, 10.000522, 9.99869 
1.2650593e+3, 2.9502025e+2, -91179.15, -204904.81, 59350.68, -0.05114669, 0.13184899, -65847.8, -17037.834, 0.00021969865, 10.000233, 9.998783 
1.2650606e+3, 3.0501845e+2, 57825.285, -131577.1, 71288.89, 0.015231793, 0.09759918, 81658.57, 81658.57, 0.00055763865, 10.001078, 9.99853 
1.265061e+3, 3.1501734e+2, 302877.53, -7050.379, -58608.87, -0.0063107503, 0.08126786, 313590.44, 313590.44, 0.001054668, 10.002655, 9.9986315 
1.2750554e+3, 1.250236e+2, -1894026.1, -1684555.3, -93327.836, -0.09590936, -0.015978869, -1649006.8, 65768.984, 0.0044096503, 9.998207, 10.001048 
1.2750547e+3, 1.3502525e+2, -1615591.8, -1514200.9, 23559.797, -0.06744645, 0.03529658, -1508993.9, 107764.37, 0.0024558255, 9.999548, 10.000912 
1.2750566e+3, 1.4502624e+2, -1521775.6, -1533917.4, 9183.339, 0.056303088, 0.095643125, -1516837.9, 1911.71, 0.00093550276, 9.999982, 9.99987 
1.2750551e+3, 1.5502651e+2, -1466439.8, -1454808.4, -40258.17, -0.04685903, 0.089307606, -1419948.0, 801.9479, 0.00017466526, 9.9997, 9.999875 
1.2750542e+3, 1.6502701e+2, -1335771.1, -1271633.0, -53122.66, -0.07649984, 0.12978704, -1241650.1, 81094.38, 0.0000047674703, 9.999626, 10.000494 
1.275054e+3, 1.7502752e+2, -1192133.4, -1142343.1, 13253.504, -0.042136315, 0.08535041, -1139035.0, 85700.44, 0.0, 9.999896, 10.000582 
1.2750544e+3, 1.8502752e+2, -1210748.8, -1259071.1, 10730.609, -0.00083922653, 0.106352046, -1208473.0, -81738.94, 0.0, 9.999779, 9.999164 
1.2750551e+3, 1.9502667e+2, -1163996.6, -1175801.9, -12525.706, 0.06140965, 0.05920862, -1156052.5, -127308.67, 0.0, 9.999384, 9.999253 
1.2750545e+3, 2.0502594e+2, -1052236.6, -1031496.8, -57902.18, 0.021200962, 0.049880724, -983043.3, -52292.79, 0.0, 9.999309, 9.999605 
1.2750527e+3, 2.1502498e+2, -909225.4, -901906.2, -19358.703, -0.1179911, -0.05250936, -885864.2, -53106.637, 0.0, 9.999569, 9.999696 
1.2750529e+3, 2.2502458e+2, -819085.9, -883114.1, 28004.826, -0.14193264, -0.019675424, -808565.6, -73804.766, 0.0, 9.999853, 9.999018 
1.275055e+3, 2.3502441e+2, -680048.6, -755741.06, 50519.625, -0.051528975, 0.016384974, -654771.4, -18007.436, 0.0, 10.000091, 9.999105 
1.2750565e+3, 2.4502413e+2, -548296.56, -605399.6, 50753.29, -0.0021567177, 0.07030526, -518615.06, 20152.34, 0.0, 10.000152, 9.999439 
1.2750578e+3, 2.550235e+2, -449757.4, -493431.25, 103727.66, 0.01163032, 0.015000187, -365593.03, 75180.49, 0.0, 10.000093, 9.999562 
1.2750591e+3, 2.650236e+2, -387809.7, -484173.78, 75923.016, 0.037176114, 0.109735414, -346070.56, -3296.2537, 0.00000020123079, 10.000183, 9.998898 
1.27506e+3, 2.750239e+2, -249951.88, -358159.28, 77634.984, 0.06493233, 0.20114276, -209427.88, 35347.42, 0.0000077157165, 10.000421, 9.998974 
1.2750599e+3, 2.8502306e+2, -170611.11, -287228.78, 40195.18, -0.010772463, 0.2393481, -158099.23, -11315.531, 0.000060411407, 10.0003395, 9.9988365 
1.2750585e+3, 2.9502103e+2, -114831.61, -195522.48, 76416.94, -0.18062131, 0.091583334, -68763.49, -19962.201, 0.00024271311, 9.999987, 9.998961 
1.2750605e+3, 3.0501813e+2, -16611.99, -238012.6, 120061.41, -0.14894257, -0.029260863, 35995.082, 35995.082, 0.0006225909, 10.000874, 9.997897 
1.2750639e+3, 3.150185e+2, 216666.8, -85358.19, 51084.2, -0.046454925, 0.15914364, 225073.16, 225073.16, 0.0011840137, 10.00225, 9.998276 
1.285055e+3, 1.2502415e+2, -1741011.0, -1643756.8, -2123.8708, -0.0072704623, -0.035696894, -1643710.4, 71056.92, 0.0047468157, 9.999356, 10.000772 
1.2850547e+3, 1.350256e+2, -1611108.1, -1554588.6, 41352.418, -0.015436773, 0.024968106, -1532762.1, 83991.51, 0.0026545508, 9.999728, 10.000543 
1.2850559e+3, 1.4502637e+2, -1604151.9, -1586855.6, 33653.105, 0.02026604, 0.08768773, -1560757.3, -42009.152, 0.0010215283, 9.999504, 9.999731 
1.285055e+3, 1.5502658e+2, -1504523.4, -1480945.9, -610.5585, -0.010360757, 0.090175435, -1480930.1, -60180.49, 0.00019628371, 9.99949, 9.999791 
1.2850544e+3, 1.6502707e+2, -1316884.8, -1260678.8, 33939.21, -0.012822946, 0.1318461, -1244717.6, 78027.03, 0.0000059623408, 9.999727, 10.000536 
1.2850542e+3, 1.7502771e+2, -1138456.5, -1107681.8, -21074.418, -0.024173664, 0.09719532, -1096975.0, 127759.38, 0.0, 10.000226, 10.000664 
1.2850544e+3, 1.8502778e+2, -1163260.9, -1242392.9, -16650.768, 0.016693009, 0.12428611, -1159900.0, -33166.766, 0.0, 10.000152, 9.999088 
1.285055e+3, 1.9502686e+2, -1124655.5, -1163249.3, 448.3809, 0.10988806, 0.07858675, -1124650.3, -95905.445, 0.0, 9.999704, 9.999178 
1.2850545e+3, 2.0502634e+2, -971740.6, -982465.7, 45834.52, 0.07767705, 0.092409074, -930956.0, -206.10924, 0.0, 9.999815, 9.999701 
1.285053e+3, 2.1502587e+2, -772357.0, -819672.94, 17748.62, -0.08130109, 0.029044416, -766439.44, 66312.41, 0.0, 10.000448, 9.999834 
1.2850535e+3, 2.2502533e+2, -708072.44, -812841.56, 66005.96, -0.09810385, 0.030845972, -676190.0, 58565.152, 0.0, 10.00054, 9.9991665 
1.2850557e+3, 2.3502435e+2, -670211.0, -731900.56, 53220.582, 0.025408559, -0.026440145, -639542.94, -2779.7595, 0.0, 10.000082, 9.999268 
1.285057e+3, 2.4502394e+2, -571166.5, -618352.94, 73228.805, 0.06110326, 0.0073958044, -517824.06, 20942.707, 0.0, 10.000007, 9.999415 
1.285058e+3, 2.5502384e+2, -430833.4, -486831.8, 20395.918, 0.01429297, 0.007195889, -424192.3, 16576.281, 0.0, 10.000238, 9.999534 
1.2850592e+3, 2.6502386e+2, -395314.16, -484879.6, 5660.759, 0.029013436, 0.09384903, -394957.8, -52187.613, 0.00000014147287, 10.0001135, 9.998929 
1.2850605e+3, 2.7502355e+2, -342072.8, -400208.88, 428.76544, 0.10410352, 0.12723228, -342069.66, -97293.45, 0.000007879153, 9.999771, 9.999002 
1.2850606e+3, 2.8502285e+2, -207301.19, -324450.66, 23791.451, 0.05408169, 0.18532947, -202653.84, -55869.89, 0.00006527563, 10.000187, 9.998651 
1.2850598e+3, 2.950214e+2, 53005.547, -133017.55, -16617.482, -0.115180716, 0.12051765, 54478.33, 103275.01, 0.000269289, 10.001225, 9.99879 
1.2850618e+3, 3.0501792e+2, 86080.34, -202125.86, 88077.57, -0.12310196, -0.049463462, 110865.85, 110865.85, 0.0006978728, 10.001598, 9.997815 
1.2850665e+3, 3.1501776e+2, 92152.31, -108977.19, -13433.311, 0.038304936, 0.09541093, 93045.55, 93045.55, 0.0013327466, 10.001159, 9.998664 
1.2950538e+3, 1.2502629e+2, -1805146.8, -1767636.0, 38718.86, -0.14075236, 0.0071629654, -1743369.1, -28624.674, 0.0050962004, 9.999338, 9.999929 
1.2950556e+3, 1.3502698e+2, -1688308.6, -1703052.3, 65016.86, 0.068402514, 0.09306581, -1630247.0, -13505.868, 0.0028611089, 9.999691, 9.999543 
1.2950547e+3, 1.450266e+2, -1568661.1, -1512053.3, 5253.152, -0.09479726, 0.07102631, -1511569.9, 7176.5513, 0.00111182, 9.999504, 10.000242 
1.2950549e+3, 1.550272e+2, -1470869.5, -1406890.4, 19659.43, -0.004270353, 0.058151994, -1401332.4, 19407.664, 0.000219555, 9.999475, 10.000308 
1.2950549e+3, 1.6502726e+2, -1382621.1, -1400706.0, 29960.857, 0.01028516, 0.080264054, -1360367.9, -37628.75, 0.0000074533, 9.999735, 9.999571 
1.2950541e+3, 1.7502676e+2, -1210666.0, -1255714.9, 14280.666, -0.09491813, 0.02745887, -1206520.5, 18223.832, 0.0, 10.00021, 9.999658 
1.2950537e+3, 1.8502687e+2, -1105125.4, -1116057.3, -54032.473, -0.10473294, 0.06446376, -1056283.0, 70460.15, 0.0, 10.000121, 9.999971 
1.295054e+3, 1.9502708e+2, -1075534.8, -1042898.06, -617.2789, 0.0067168185, 0.041484736, -1042886.44, -14145.649, 0.0, 9.999613, 10.00005 
1.295054e+3, 2.0502748e+2, -1020819.75, -1039096.56, 49119.945, 0.00383739, 0.11792039, -979995.4, -49258.55, 0.0, 9.999627, 9.999397 
1.2950535e+3, 2.1502775e+2, -829300.7, -879175.94, 57442.46, -0.11085318, 0.15717462, -791616.25, 41117.918, 0.0, 10.000198, 9.999541 
1.2950543e+3, 2.2502692e+2, -738719.9, -807904.0, 29539.793, -0.09681141, 0.1359729, -727823.4, 6916.568, 0.0, 10.000246, 9.999343 
1.2950563e+3, 2.350247e+2, -695111.9, -722022.6, 56655.19, 0.0494351, -0.06612522, -650336.2, -13579.512, 0.0, 9.999816, 9.999463 
1.2950574e+3, 2.4502365e+2, -679178.7, -767553.2, 63410.543, 0.051490527, -0.06256209, -646078.1, -107311.98, 0.0, 9.9997, 9.998533 
1.2950575e+3, 2.5502333e+2, -536451.9, -634304.94, 49586.305, -0.08253926, 0.0032219286, -515717.75, -74944.9, 0.0, 9.99995, 9.998651 
1.2950583e+3, 2.6502237e+2, -396206.56, -444512.2, -27606.389, -0.10270085, 0.017542528, -383678.72, -40895.32, 0.000000052302592, 9.999912, 9.999312 
1.2950595e+3, 2.7502063e+2, -345516.3, -355415.53, 8666.101, -0.009696176, -0.13614216, -340485.94, -95686.72, 0.000007172051, 9.999539, 9.999426 
1.2950607e+3, 2.8502053e+2, -286171.56, -431002.13, 45199.3, 0.012281862, -0.009536538, -273223.2, -126421.8, 0.00006969282, 9.999937, 9.99804 
1.2950622e+3, 2.950215e+2, -31807.572, -247450.1, 49579.324, -0.03282026, 0.22744016, -20954.768, 27840.85, 0.0003009035, 10.000965, 9.998128 
1.2950642e+3, 3.0501786e+2, 93791.33, -149434.36, 55579.188, -0.07269038, 0.0556345, 105889.85, 105889.85, 0.00078697875, 10.001437, 9.998257 
1.2950672e+3, 3.1501558e+2, 119591.01, 41141.824, 26687.086, -0.058595162, -0.06468418, 127808.69, 127808.69, 0.0015033553, 10.000768, 9.99988 
1.3050528e+3, 1.250275e+2, -1821159.3, -1790616.4, 112153.195, -0.15425232, 0.019822607, -1692699.6, 22030.057, 0.0054552136, 9.999318, 9.999773 
1.3050555e+3, 1.3502751e+2, -1790742.9, -1794293.1, 32866.813, 0.11401122, 0.08186572, -1759603.3, -142868.92, 0.003073975, 9.999195, 9.999148 
1.3050546e+3, 1.450268e+2, -1621372.3, -1545034.8, 42114.387, -0.030335354, 0.048978884, -1526366.3, -7623.1396, 0.0012055306, 9.99915, 10.00019 
1.3050546e+3, 1.5502736e+2, -1400074.6, -1375126.3, -22856.64, 0.002445861, 0.031012824, -1361561.4, 59175.027, 0.000244213, 9.99996, 10.000291 
1.3050547e+3, 1.650274e+2, -1341572.9, -1385643.4, 30420.166, 0.021915082, 0.05401852, -1326045.6, -3309.662, 0.000009295233, 10.00008, 9.999495 
1.3050544e+3, 1.7502674e+2, -1278800.3, -1292282.3, 39455.56, -0.05253291, -0.0034344045, -1245514.0, -20770.62, 0.0, 9.999793, 9.999597 
1.3050541e+3, 1.8502687e+2, -1112691.8, -1112539.4, 13405.6875, -0.06941383, 0.03515143, -1099209.8, 27532.426, 0.0, 10.000015, 10.000062 
1.305054e+3, 1.9502741e+2, -911073.9, -949766.94, -27883.494, -0.0055089407, 0.034841042, -896482.56, 132253.23, 0.0, 10.000678, 10.000182 
1.3050541e+3, 2.050277e+2, -895023.7, -1006274.06, 25611.166, 0.013158142, 0.1075585, -889410.9, 41321.797, 0.0, 10.000604, 9.999157 
1.3050543e+3, 2.1502747e+2, -905394.06, -941484.94, -2520.6382, -0.01916022, 0.12112035, -905218.8, -72483.4, 0.0, 9.999793, 9.999311 
1.3050552e+3, 2.2502656e+2, -806077.44, -851678.44, 6977.1504, -0.0017970066, 0.10925296, -805033.8, -70291.55, 0.0, 9.999812, 9.999253 
1.3050565e+3, 2.3502465e+2, -593927.4, -684435.9, -24855.44, 0.06936402, -0.056142516, -587550.8, 49205.566, 0.0, 10.000538, 9.999375 
1.3050574e+3, 2.4502352e+2, -547123.6, -722186.3, 26907.33, 0.043762762, -0.050796565, -543081.25, -4314.5493, 0.0, 10.000668, 9.998385 
1.3050576e+3, 2.5502276e+2, -500059.6, -637395.7, 30283.822, -0.07709563, -0.010116018, -493678.25, -52900.965, 0.0, 10.000268, 9.998489 
1.3050584e+3, 2.6502153e+2, -350528.94, -456297.34, -1831.3546, -0.07869691, 0.0021407143, -350497.25, -7707.056, 0.000000026393016, 10.000372, 9.999013 
1.30506e+3, 2.7501953e+2, -157857.75, -304096.44, -62019.984, 0.026626665, -0.14412214, -135097.39, 109711.15, 0.0000066700077, 10.000975, 9.9991 
1.3050616e+3, 2.8501904e+2, -119862.836, -368448.1, 20464.54, 0.06372302, -0.035067957, -118189.38, 28625.568, 0.00007506801, 10.001156, 9.997872 
1.3050637e+3, 2.9501957e+2, -26451.545, -264901.6, 12526.834, 0.041625965, 0.17146112, -25795.262, 23018.756, 0.00033561388, 10.001079, 9.997947 
1.3050656e+3, 3.0501643e+2, 1571.9523, -175433.33, 28007.777, -0.020354224, 0.052481633, 5897.933, 5897.933, 0.0008838964, 10.000736, 9.998415 
1.3050687e+3, 3.150146e+2, 63153.56, 90495.65, -91779.57, 0.057493776, -0.03303363, 169616.78, 169616.78, 0.0016900786, 10.000043, 10.0005865 
1.3150528e+3, 1.2502748e+2, -1773463.0, -1708114.0, 101770.914, -0.17212626, -0.038944848, -1633901.0, 80825.12, 0.005819013, 9.999377, 10.000316 
1.3150534e+3, 1.3502714e+2, -1777897.6, -1778143.3, 38304.56, -0.050822005, -0.023766158, -1739715.6, -122981.79, 0.0032902497, 9.999226, 9.999249 
1.3150547e+3, 1.4502701e+2, -1650211.5, -1608238.5, 40087.67, 0.021196224, 0.016135104, -1583976.1, -65238.063, 0.0013013786, 9.999178, 9.999741 
1.3150536e+3, 1.5502727e+2, -1438844.8, -1449387.6, 20206.383, -0.12585092, 0.020536602, -1423233.5, -2496.6587, 0.00026992275, 9.999938, 9.999793 
1.3150537e+3, 1.6502748e+2, -1288395.3, -1285190.6, -3245.534, -0.12250309, 0.05227362, -1283173.4, 39561.336, 0.00001153221, 10.000108, 10.000177 
1.3150547e+3, 1.7502746e+2, -1229131.6, -1189584.3, 44844.418, -0.036196288, -0.013887588, -1160347.6, 64385.867, 0.0, 9.999784, 10.000306 
1.3150549e+3, 1.8502767e+2, -1167257.3, -1205411.5, 15987.564, -0.026713978, 0.026665956, -1161443.9, -34712.914, 0.0, 9.999936, 9.999458 
1.3150541e+3, 1.9502772e+2, -973511.3, -1047942.0, 11185.083, -0.07565298, 0.039880514, -971866.8, 56863.977, 0.0, 10.000546, 9.999571 
1.3150543e+3, 2.05027e+2, -939084.94, -1054417.0, -21297.055, -0.047039043, 0.0512754, -935277.94, -4540.4873, 0.0, 10.00042, 9.998915 
1.3150552e+3, 2.1502507e+2, -954382.7, -998513.1, -12946.728, 0.054460704, -0.078604676, -950864.9, -118110.09, 0.0, 9.999592, 9.99902 
1.3150556e+3, 2.2502424e+2, -870530.25, -917582.56, 16256.179, 0.0402179, -0.05290242, -865460.2, -130698.016, 0.0, 9.999534, 9.99893 
1.3150561e+3, 2.350241e+2, -659011.56, -753113.5, 23524.197, -0.069401845, -0.0070432387, -653458.56, -16695.627, 0.0, 10.000261, 9.999036 
1.3150567e+3, 2.4502353e+2, -549733.06, -661072.4, -8654.41, -0.122956626, 0.045624755, -549064.4, -10296.094, 0.0, 10.000381, 9.998943 
1.3150577e+3, 2.5502232e+2, -498138.97, -574726.4, 35178.004, -0.1223026, -0.01888534, -484433.63, -43653.3, 0.0, 10.0000105, 9.999046 
1.3150594e+3, 2.6502135e+2, -459141.72, -623449.3, 2779.102, -0.059236117, 0.044737585, -459094.72, -116303.75, 0.000000066602475, 10.000129, 9.997978 
1.3150615e+3, 2.750203e+2, -269452.03, -471688.1, -14160.997, 0.056041203, 0.09270921, -268465.28, -23660.895, 0.0000067822207, 10.000717, 9.998063 
1.3150631e+3, 2.8501853e+2, -129032.01, -350342.53, 565.892, 0.04994578, 0.11834544, -129030.56, 17792.303, 0.000081610815, 10.000979, 9.99809 
1.3150641e+3, 2.9501572e+2, -54971.08, -255429.11, 35338.094, -0.06842904, -0.03509131, -48923.867, -73.94654, 0.00036944333, 10.000781, 9.998159 
1.3150656e+3, 3.050137e+2, -49962.945, -232723.1, -9679.988, -0.13343708, -0.040381648, -49451.67, -49451.67, 0.0009769672, 10.000526, 9.998118 
1.3150696e+3, 3.1501442e+2, 10545.143, 87998.85, -46448.07, 0.07487804, 0.16180553, 109746.73, 109746.73, 0.0018700527, 9.999609, 10.000768 
1.325054e+3, 1.2502678e+2, -1911890.1, -1740498.1, 32459.154, 0.093147725, -0.026598116, -1734556.9, -19821.45, 0.006183249, 9.998233, 10.000663 
1.3250527e+3, 1.3502663e+2, -1581758.0, -1612293.3, -23199.957, -0.07955704, -0.050703283, -1569252.6, 47486.33, 0.0035072896, 10.000276, 9.999872 
1.325055e+3, 1.450272e+2, -1468042.3, -1528165.6, 21154.979, 0.08367875, 0.031814024, -1461344.8, 57390.445, 0.0013982238, 10.000452, 9.999677 
1.3250533e+3, 1.5502727e+2, -1501086.5, -1485711.3, 1183.585, -0.12732053, 0.01975614, -1485620.8, -64884.15, 0.00029637254, 9.999528, 9.9997425 
1.3250533e+3, 1.6502751e+2, -1395466.3, -1321587.5, 22495.94, -0.12245263, 0.050130676, -1315276.6, 7457.4375, 0.000014169166, 9.999315, 10.000298 
1.3250549e+3, 1.7502774e+2, -1202921.5, -1172172.6, -13295.223, 0.008609568, -0.0010401974, -1167221.3, 57508.582, 0.0, 9.999928, 10.0003605 
1.3250554e+3, 1.8502787e+2, -1146418.3, -1218293.9, -9071.599, 0.02228111, 0.039846297, -1145291.0, -18562.963, 0.0, 10.000184, 9.999247 
1.3250546e+3, 1.9502756e+2, -1037206.4, -1103897.0, -22777.023, -0.06755096, 0.037419375, -1030169.75, -1438.1782, 0.0, 10.000212, 9.999345 
1.3250549e+3, 2.0502643e+2, -915547.06, -1054159.6, -14987.429, -0.032159925, 0.026253877, -913945.06, 16796.64, 0.0, 10.000652, 9.998795 
1.3250563e+3, 2.1502419e+2, -680538.06, -879091.7, -31529.477, 0.117230505, -0.12315106, -675651.6, 157109.81, 0.0, 10.001547, 9.998894 
1.3250567e+3, 2.2502318e+2, -612952.2, -817209.75, 34568.15, 0.09640092, -0.093883656, -607260.56, 127510.07, 0.0, 10.001426, 9.998708 
1.3250561e+3, 2.3502314e+2, -665447.7, -774123.5, 9219.878, -0.077527754, -0.014064121, -664671.06, -27899.209, 0.0, 10.00032, 9.998859 
1.3250569e+3, 2.4502255e+2, -575402.4, -671516.0, 16852.4, -0.11975944, 0.044146795, -572533.2, -33755.563, 0.0, 10.0001955, 9.998958 
1.325059e+3, 2.5502107e+2, -348662.28, -496597.53, -18160.273, -0.039488655, -0.048669245, -346465.6, 94325.37, 0.0, 10.001019, 9.999088 
1.3250609e+3, 2.650201e+2, -286243.25, -575586.9, -2302.4238, 0.024868967, 0.026206167, -286224.9, 56576.965, 0.0000000978673, 10.001476, 9.99765 
1.3250627e+3, 2.7501926e+2, -155878.86, -450058.28, -10027.509, 0.06744232, 0.13016398, -155537.45, 89276.984, 0.000006920427, 10.001647, 9.997759 
1.3250642e+3, 2.8501722e+2, -71281.51, -302219.66, 39328.08, 0.052731365, 0.1336528, -64767.777, 82067.65, 0.000086783395, 10.001324, 9.998246 
1.3250653e+3, 2.9501358e+2, -62198.34, -242586.89, 15821.496, -0.015568062, -0.11119711, -60821.184, -11952.795, 0.0003950438, 10.000671, 9.998299 
1.3250662e+3, 3.0501217e+2, -80652.586, -250966.03, 30048.902, -0.09355032, -0.057745215, -75506.46, -75506.46, 0.0010503886, 10.000355, 9.998064 
1.3250698e+3, 3.1501296e+2, 109736.04, 138397.14, -47329.133, 0.1245637, 0.1523558, 173517.69, 173517.69, 0.002014152, 10.000269, 10.0007925 
1.3350518e+3, 1.2502493e+2, -1890059.8, -1700762.3, -93733.98, -0.04272281, 0.0027491772, -1662202.6, 52559.31, 0.0065457188, 9.998251, 10.000932 
1.335053e+3, 1.3502604e+2, -1510551.8, -1460458.4, 56778.24, -0.11288119, -0.0012790965, -1423447.8, 193301.16, 0.0037237175, 10.00026, 10.000924 
1.3350551e+3, 1.4502728e+2, -1424659.5, -1451700.0, -38319.246, -0.022765012, 0.06935564, -1397545.3, 121190.5, 0.0014951822, 10.000494, 10.000192 
1.3350528e+3, 1.5502748e+2, -1462918.8, -1412975.9, -14193.041, -0.15927461, 0.023138791, -1409224.3, 11510.155, 0.00032323142, 9.999542, 10.00024 
1.335053e+3, 1.6502766e+2, -1437728.6, -1406609.3, 24041.996, -0.1410695, 0.052557167, -1393531.3, -70798.76, 0.000017128494, 9.999302, 9.999721 
1.3350546e+3, 1.7502771e+2, -1249191.4, -1255747.0, 26832.957, -0.06056414, 0.035577703, -1225436.8, -705.4515, 0.00000000003443261, 9.999877, 9.999809 
1.335055e+3, 1.8502764e+2, -1147448.1, -1207424.3, -28110.182, -0.07244797, 0.08000108, -1136333.0, -9601.85, 0.0, 10.000121, 9.999358 
1.3350546e+3, 1.9502704e+2, -1046304.9, -1095139.0, -5452.2334, -0.12522289, 0.036881797, -1045703.56, -16966.785, 0.0, 10.000085, 9.999471 
1.3350552e+3, 2.0502612e+2, -944720.94, -1070826.9, -2651.2112, -0.085781924, 0.04095134, -944665.2, -13920.681, 0.0, 10.000462, 9.9987755 
1.3350572e+3, 2.1502465e+2, -719089.2, -902254.2, 20301.934, 0.02627349, -0.029401314, -716865.94, 115890.92, 0.0, 10.001298, 9.99886 
1.3350573e+3, 2.2502328e+2, -660788.75, -856233.75, -21551.932, 0.007949221, -0.026299462, -658440.4, 76328.55, 0.0, 10.001162, 9.998563 
1.3350564e+3, 2.3502178e+2, -712084.94, -816343.9, -11783.307, -0.11038772, -0.082709074, -710769.8, -73986.45, 0.0, 10.000079, 9.998683 
1.3350575e+3, 2.4502052e+2, -646511.56, -761009.3, 30030.764, -0.110150434, -0.058163136, -639113.06, -100317.8, 0.0, 9.999953, 9.998456 
1.3350606e+3, 2.5501907e+2, -420144.88, -588057.75, 32592.77, 0.0041202065, -0.098213874, -414040.4, 26768.506, 0.0, 10.000777, 9.998573 
1.3350627e+3, 2.6501787e+2, -299093.28, -548064.75, -15413.168, 0.011307718, -0.037620768, -298142.72, 44679.348, 0.00000008871969, 10.001242, 9.997952 
1.335063e+3, 2.7501652e+2, -174456.23, -420150.75, 17779.799, -0.09132404, -0.018651858, -173176.27, 71661.836, 0.000006673535, 10.001364, 9.998096 
1.3350643e+3, 2.8501502e+2, -103745.2, -319398.72, -6322.1323, -0.09189952, 0.025002597, -103560.02, 43293.195, 0.00008871381, 10.001104, 9.998236 
1.3350667e+3, 2.9501313e+2, -103424.35, -264954.6, 17487.283, 0.0189746, -0.046718124, -101552.86, -52682.98, 0.00040777776, 10.0004, 9.99828 
1.335067e+3, 3.0501205e+2, -92925.16, -228209.97, 15810.984, -0.08634407, 0.029203577, -91101.875, -91101.875, 0.0010944825, 10.000151, 9.998313 
1.3350685e+3, 3.1500983e+2, 27166.607, 75595.52, 40898.484, -0.113304, -0.08975852, 98910.28, 98910.28, 0.0021082137, 9.999809, 10.00058 
1.3450515e+3, 1.250253e+2, -1582571.5, -1567445.3, 54876.17, 0.009170591, 0.06991323, -1519613.4, 195147.7, 0.0069055543, 10.00046, 10.000771 
1.345053e+3, 1.3502617e+2, -1763022.4, -1584965.5, 94584.836, -0.04003724, 0.04793856, -1544100.3, 72649.586, 0.0039389143, 9.99857, 10.00087 
1.3450538e+3, 1.4502713e+2, -1759545.4, -1587514.6, -847.8302, -0.061853245, 0.08253703, -1587510.4, -68771.85, 0.0015916337, 9.998097, 10.000412 
1.3450529e+3, 1.5502746e+2, -1395951.5, -1356009.6, -37621.547, -0.11473372, 0.028823854, -1333387.0, 87347.39, 0.0003501717, 9.999907, 10.000454 
1.3450535e+3, 1.6502757e+2, -1270248.8, -1350988.5, 32273.94, -0.07303892, 0.05022445, -1258933.6, 63798.45, 0.000020254476, 10.00054, 9.999519 
1.3450545e+3, 1.7502725e+2, -1251817.8, -1277752.4, 20183.652, -0.042487588, 0.019527202, -1240794.9, -16060.932, 0.0000000014653116, 9.999947, 9.99963 
1.3450551e+3, 1.850268e+2, -1169454.0, -1232267.8, 20646.375, -0.05787592, 0.038779072, -1163275.5, -36538.063, 0.0, 10.000019, 9.999238 
1.3450553e+3, 1.950258e+2, -940362.56, -1058476.3, -10418.66, -0.08666448, -0.032002065, -939450.56, 89296.13, 0.0, 10.000869, 9.999346 
1.3450564e+3, 2.0502512e+2, -854516.56, -1022534.94, 16120.752, -0.047676817, 0.0011833631, -852983.8, 77768.92, 0.0, 10.001047, 9.99882 
1.3450581e+3, 2.1502456e+2, -813857.44, -935546.3, 1874.755, 0.032481924, 0.013559802, -813828.56, 18928.924, 0.0, 10.000589, 9.9989605 
1.3450585e+3, 2.2502331e+2, -733735.0, -918064.0, -16062.472, 0.028792826, 0.03218903, -732345.8, 2423.4377, 0.0, 10.000776, 9.998328 
1.345058e+3, 2.3502104e+2, -498296.25, -736282.56, -45140.754, -0.03642683, -0.07511653, -490021.75, 146769.2, 0.0, 10.001654, 9.998473 
1.3450591e+3, 2.4501936e+2, -415133.13, -670441.0, 44223.13, -0.025005208, -0.07169598, -407690.03, 131116.73, 0.0, 10.001641, 9.998271 
1.345062e+3, 2.5501794e+2, -438674.0, -615010.56, 31188.107, 0.05506594, -0.089824565, -433320.4, 7499.413, 0.0, 10.000744, 9.998408 
1.3450636e+3, 2.6501653e+2, -394955.25, -569319.25, 40810.34, 0.042251963, -0.046492666, -385876.22, -43042.59, 0.000000062099474, 10.000481, 9.998174 
1.3450643e+3, 2.7501473e+2, -224101.16, -422343.53, 22516.117, -0.057364672, -0.094073854, -221575.97, 23276.906, 0.0000065347235, 10.000909, 9.998305 
1.3450658e+3, 2.8501332e+2, -84190.31, -301768.4, 22921.037, -0.047882684, -0.060527813, -81801.89, 65065.04, 0.00008986311, 10.001186, 9.998322 
1.345068e+3, 2.950123e+2, 51592.008, -166588.1, 3635.3962, 0.071117, -0.055359934, 51652.566, 100527.68, 0.00041373618, 10.001369, 9.998481 
1.345068e+3, 3.050115e+2, 67887.66, -171040.25, 32363.264, -0.041617993, 0.043580435, 72193.72, 72193.72, 0.0011153643, 10.001297, 9.998169 
1.3450694e+3, 3.1500843e+2, 127314.445, 57747.36, -24494.857, -0.029622396, -0.14964359, 135073.73, 135073.73, 0.0021561384, 10.000764, 9.999989 
1.3550523e+3, 1.2502766e+2, -1614164.9, -1628152.9, 69927.75, -0.047853794, 0.12363068, -1550882.3, 163852.84, 0.0072628423, 10.000463, 10.000346 
1.3550524e+3, 1.3502719e+2, -1848592.8, -1760552.0, 28043.406, 0.0018696634, 0.09061339, -1752378.3, -135637.75, 0.004152666, 9.998574, 9.9996605 
1.355051e+3, 1.4502682e+2, -1779838.5, -1621087.9, 38833.766, -0.21165971, 0.06979947, -1612097.5, -93354.43, 0.0016872559, 9.998064, 10.000195 
1.355053e+3, 1.5502723e+2, -1407480.9, -1379243.0, 48629.36, -0.14079627, 0.03699004, -1342724.4, 78011.97, 0.0003769789, 9.999902, 10.000295 
1.3550544e+3, 1.6502716e+2, -1255437.5, -1322488.6, -12943.909, -0.06804257, 0.035327327, -1253025.5, 69708.445, 0.000023370363, 10.000544, 9.999717 
1.3550547e+3, 1.7502624e+2, -1248216.8, -1257501.8, 13972.395, -0.06711138, -0.07099448, -1238135.8, -13396.629, 0.0000000068048798, 9.999887, 9.9998 
1.3550551e+3, 1.8502526e+2, -1210580.1, -1292034.4, 32190.82, -0.0894365, -0.09490954, -1199394.4, -72647.28, 0.0, 9.999915, 9.998874 
1.3550565e+3, 1.9502385e+2, -986599.2, -1122249.8, 41040.46, -0.09911931, -0.17153768, -975149.06, 53612.027, 0.0, 10.00073, 9.998974 
1.3550575e+3, 2.0502348e+2, -875367.56, -1023861.7, -21250.4, -0.07152647, -0.09299751, -872386.4, 58379.418, 0.0, 10.000866, 9.998898 
1.3550586e+3, 2.1502388e+2, -844222.6, -943760.3, -147.70268, -0.002454124, 0.006035427, -844222.44, -11458.377, 0.0, 10.000349, 9.999022 
1.3550594e+3, 2.2502312e+2, -796642.0, -979934.44, -7210.85, 0.018474594, 0.086738266, -796358.75, -61586.04, 0.0, 10.000486, 9.998039 
1.35506e+3, 2.350209e+2, -557807.6, -794667.56, 4953.9253, -0.0041696383, 0.011206721, -557704.06, 79090.52, 0.0, 10.001381, 9.998199 
1.3550611e+3, 2.4501917e+2, -447079.66, -674538.56, -9779.175, -0.019426947, 0.018232595, -446660.0, 92150.83, 0.0, 10.001372, 9.998373 
1.3550618e+3, 2.5501755e+2, -466097.7, -614042.9, 17072.799, -0.03746699, -0.030121274, -464153.06, -23328.777, 0.0, 10.000498, 9.998532 
1.3550638e+3, 2.6501596e+2, -421442.4, -574528.75, 38167.883, -0.032458495, -0.020357125, -412454.06, -69614.97, 0.000000036385206, 10.000261, 9.998248 
1.3550662e+3, 2.750139e+2, -260482.27, -434422.88, 62780.12, 0.006780553, -0.099245735, -240190.38, 4669.012, 0.0000068750182, 10.000642, 9.998352 
1.355068e+3, 2.8501222e+2, -106138.49, -293940.75, 10078.876, 0.0022625811, -0.10054386, -105599.13, 41275.805, 0.00009120505, 10.0009575, 9.998485 
1.3550685e+3, 2.950108e+2, 17445.479, -166928.92, 35919.29, -0.05137834, -0.15074621, 24196.012, 73082.6, 0.00041573873, 10.001063, 9.998629 
1.3550688e+3, 3.050102e+2, -12240.359, -262990.3, -4131.224, -0.12347416, -0.015412683, -12172.313, -12172.313, 0.001116627, 10.001007, 9.997665 
1.3550715e+3, 3.150081e+2, -30681.336, -148220.84, 24176.14, 0.032334942, -0.056149684, -25902.922, -25902.922, 0.0021578383, 10.000279, 9.998793 
1.3650507e+3, 1.2502705e+2, -1893673.9, -1788395.9, -3079.7212, -0.14630306, 0.11035297, -1788305.9, -73565.945, 0.0076198755, 9.998615, 10.000142 
1.3650514e+3, 1.3502671e+2, -1615268.9, -1699774.9, -112987.586, -0.018499853, 0.124053404, -1536892.3, 79854.63, 0.004366158, 10.000341, 9.999249 
1.3650507e+3, 1.4502624e+2, -1456054.5, -1453173.1, 6721.1245, -0.14412475, 0.10863903, -1447740.0, 71010.95, 0.0017823466, 10.000231, 10.000298 
1.3650532e+3, 1.5502627e+2, -1521339.3, -1422787.5, 3518.0867, -0.046246767, 0.02885907, -1422662.1, -1916.1017, 0.0004035849, 9.999077, 10.000387 
1.3650551e+3, 1.6502607e+2, -1459648.4, -1415474.1, -15321.435, 0.028352601, 0.0064733587, -1410680.3, -87935.984, 0.000026350568, 9.99912, 9.999764 
1.3650553e+3, 1.7502531e+2, -1163736.5, -1207671.6, -41432.1, -0.009086132, -0.09028904, -1138808.5, 85939.734, 0.000000016360648, 10.000436, 9.999876 
1.3650559e+3, 1.850245e+2, -1097113.1, -1234636.9, 17671.4, -0.03440897, -0.09899011, -1094878.6, 31875.705, 0.0, 10.00071, 9.998871 
1.3650574e+3, 1.9502333e+2, -1089470.8, -1162326.0, 13730.495, -0.030812712, -0.15428488, -1086969.0, -58203.625, 0.0, 10.000023, 9.999019 
1.3650584e+3, 2.0502275e+2, -980826.56, -1112338.1, -2687.094, -0.0252932, -0.085607536, -980771.7, -49999.082, 0.0, 10.000287, 9.998584 
1.3650592e+3, 2.1502243e+2, -699287.5, -909962.1, -44121.492, -0.018205207, -0.023907196, -690420.4, 142358.63, 0.0, 10.001485, 9.99872 
1.3650604e+3, 2.2502162e+2, -585265.06, -845254.44, -7689.528, 0.016382167, 0.051112708, -585037.8, 149750.06, 0.0, 10.00179, 9.998339 
1.365062e+3, 2.3501998e+2, -565672.1, -772575.0, 4141.8105, 0.069968104, 0.0050236, -565589.25, 71213.12, 0.0, 10.001191, 9.998456 
1.365063e+3, 2.450184e+2, -470673.53, -709367.2, 30889.156, 0.05675389, 0.024357716, -466740.97, 72076.22, 0.0, 10.00132, 9.998153 
1.3650632e+3, 2.5501648e+2, -224446.64, -521233.63, -10836.449, -0.036660533, -0.03266099, -224051.5, 216783.92, 0.0, 10.002262, 9.998316 
1.3650648e+3, 2.650149e+2, -145287.9, -439894.5, 20842.098, -0.027623588, -0.011724857, -143820.73, 199030.16, 0.000000033203506, 10.002166, 9.998249 
1.3650678e+3, 2.7501324e+2, -182702.5, -391044.34, -2424.2546, 0.08102884, -0.050021216, -182674.3, 62192.74, 0.0000069323874, 10.001161, 9.998391 
1.3650693e+3, 2.850116e+2, -133232.88, -307585.9, 2387.556, 0.07037206, -0.050526444, -133200.19, 13681.919, 0.00008948749, 10.000801, 9.998455 
1.3650696e+3, 2.950098e+2, 44568.26, -150445.13, -28409.662, -0.047842953, -0.13547026, 48622.703, 97520.02, 0.00040625827, 10.001241, 9.9986515 
1.3650705e+3, 3.050088e+2, 126988.086, -193771.39, -9916.802, -0.09904803, -0.042400505, 127294.38, 127294.38, 0.0010895476, 10.001958, 9.997703 
1.3650739e+3, 3.1500745e+2, 294240.2, -34748.51, -4664.1465, 0.14366092, 0.0051117614, 294306.28, 294306.28, 0.002106843, 10.002651, 9.998483 
1.3750502e+3, 1.2502341e+2, -1913191.1, -1827763.1, -26603.723, -0.13404651, 0.016398396, -1820155.8, -105379.484, 0.0079810945, 9.998625, 9.999855 
1.3750495e+3, 1.3502467e+2, -1579386.3, -1627460.1, -41137.797, -0.29589185, 0.14171886, -1555777.6, 60991.72, 0.0045821774, 10.000346, 9.999737 
1.3750525e+3, 1.4502548e+2, -1424230.6, -1392818.6, -67511.45, -0.032237932, 0.20561127, -1339210.3, 179550.72, 0.0018779465, 10.000251, 10.00071 
1.3750535e+3, 1.5502465e+2, -1496257.9, -1372399.1, -20854.352, 0.026605913, 0.001061859, -1368982.1, 51780.785, 0.00043006244, 9.999077, 10.000737 
1.3750549e+3, 1.6502436e+2, -1468013.4, -1431812.9, 11370.723, 0.05056295, -0.038031235, -1428537.6, -105775.14, 0.000029160963, 9.999108, 9.999662 
1.375056e+3, 1.7502454e+2, -1171953.3, -1220194.1, 26983.695, -0.0136448, -0.03602791, -1159880.9, 64879.426, 0.000000027808229, 10.0004015, 9.999814 
1.375057e+3, 1.8502459e+2, -1081620.1, -1186741.1, -28480.94, -0.051315583, 0.025636362, -1074399.6, 52358.97, 0.0, 10.000652, 9.999223 
1.3750577e+3, 1.9502401e+2, -1090075.4, -1130652.5, 1283.0253, -0.023988198, 0.0016150696, -1090034.8, -61272.863, 0.0, 9.999883, 9.999306 
1.3750587e+3, 2.050227e+2, -1047589.2, -1206729.0, 22707.068, -0.06871223, 0.011332474, -1044412.6, -113637.28, 0.0, 10.000099, 9.998026 
1.3750595e+3, 2.1502037e+2, -778481.75, -1013348.56, 20044.613, -0.17241763, -0.07305848, -776783.3, 56017.64, 0.0, 10.001221, 9.998138 
1.375061e+3, 2.2501905e+2, -574513.75, -747667.8, -48118.254, -0.13776107, -0.05899353, -562040.56, 172771.94, 0.0, 10.001476, 9.999158 
1.375063e+3, 2.3501842e+2, -554589.25, -675069.25, 2001.0182, 0.03387247, -0.08659337, -554556.06, 82257.1, 0.0, 10.000887, 9.999265 
1.3750646e+3, 2.4501707e+2, -553574.56, -821061.3, 42924.5, 0.050665736, -0.049827565, -546855.1, -8029.4653, 0.0, 10.001051, 9.99752 
1.3750653e+3, 2.550148e+2, -306244.03, -631362.2, 42482.992, -0.084353514, -0.08246005, -300784.5, 140067.42, 0.0, 10.002006, 9.997685 
1.3750666e+3, 2.650135e+2, -180639.66, -466205.2, -34861.98, -0.09848771, 0.004093686, -176445.3, 166422.14, 0.000000022673568, 10.001954, 9.99817 
1.3750684e+3, 2.7501267e+2, -223426.11, -418299.72, -19000.172, 0.00957022, 0.051351983, -221590.88, 23286.1, 0.0000066245593, 10.00092, 9.998318 
1.3750698e+3, 2.8501132e+2, -167462.56, -343323.28, -1554.7677, 0.0007209558, 0.094225675, -167448.81, -20559.314, 0.00008473701, 10.000635, 9.998293 
1.3750707e+3, 2.950094e+2, -6874.691, -192513.4, 14815.58, -0.105906986, 0.006632943, -5699.716, 43206.33, 0.0003829078, 10.000959, 9.998501 
1.3750722e+3, 3.0500737e+2, 123924.96, -143632.39, 6810.4717, -0.15451565, -0.02188535, 124098.2, 124098.2, 0.0010286879, 10.001721, 9.998148 
1.3750753e+3, 3.1500608e+2, 247339.48, 6226.8755, 95284.28, -0.046340924, -0.012549236, 280448.13, 280448.13, 0.0019990886, 10.002097, 9.999003 
1.3850506e+3, 1.2502244e+2, -1878491.8, -1781314.4, 76696.34, 0.050444912, 0.049346384, -1739111.1, -24325.166, 0.008351057, 9.998743, 10.000123 
1.3850488e+3, 1.3502319e+2, -1797758.3, -1677820.5, 61657.88, -0.27872717, 0.08081143, -1651778.0, -34997.03, 0.004803759, 9.998619, 10.000232 
1.3850524e+3, 1.4502393e+2, -1689158.6, -1540173.5, 26313.402, 0.021947155, 0.12148713, -1535662.6, -16889.605, 0.0019753822, 9.998516, 10.000537 
1.3850534e+3, 1.5502363e+2, -1454507.3, -1367505.9, -9747.15, 0.09951073, -0.0123644, -1366427.3, 54344.51, 0.00045665295, 9.999436, 10.000599 
1.3850552e+3, 1.6502379e+2, -1354304.8, -1382823.4, 83163.96, 0.12912908, 0.0043889396, -1284186.5, 38582.457, 0.00003186285, 9.999952, 9.999574 
1.3850568e+3, 1.7502427e+2, -1212591.8, -1245887.4, 53958.03, 0.053281907, 0.043334357, -1172771.8, 51993.918, 0.000000039188958, 10.000174, 9.999736 
1.3850579e+3, 1.8502417e+2, -1134092.0, -1244862.8, -21568.762, 0.0014190068, 0.106507674, -1130040.4, -3274.047, 0.0, 10.000397, 9.998973 
1.3850582e+3, 1.9502315e+2, -959575.2, -1088537.4, -60378.984, -0.015822645, 0.05797229, -935719.25, 93055.086, 0.0, 10.000843, 9.999147 
1.3850594e+3, 2.0502159e+2, -903355.7, -1122761.0, 35718.824, -0.053851355, 0.045918014, -897687.1, 33101.973, 0.0, 10.0010395, 9.998141 
1.3850611e+3, 2.1501924e+2, -780666.6, -995371.9, 43814.535, -0.1062023, -0.05306657, -772069.7, 60743.58, 0.0, 10.001139, 9.998293 
1.385063e+3, 2.2501782e+2, -616894.5, -781546.8, -25574.908, -0.06369031, -0.05464875, -613013.5, 121811.72, 0.0, 10.001218, 9.999057 
1.3850644e+3, 2.3501699e+2, -480543.66, -651715.94, -78409.766, 0.06557318, -0.09185719, -450056.22, 186772.14, 0.0, 10.001423, 9.999177 
1.3850658e+3, 2.450157e+2, -502555.56, -758599.3, 23997.768, 0.07447476, -0.06196838, -500325.78, 38513.94, 0.0, 10.001237, 9.997854 
1.385067e+3, 2.550137e+2, -463394.44, -672059.1, 49385.64, -0.048602376, -0.09851905, -452296.38, -11434.726, 0.0, 10.000755, 9.998011 
1.3850683e+3, 2.650124e+2, -330171.28, -570306.56, 30586.361, -0.06638592, -0.012965215, -326336.7, 16540.51, 0.0000000049794013, 10.001061, 9.997892 
1.3850701e+3, 2.7501142e+2, -45419.25, -365738.1, -8620.89, 0.016864901, 0.044996023, -45187.4, 199702.98, 0.0000064670485, 10.002258, 9.998048 
1.3850713e+3, 2.8501004e+2, 57324.797, -264029.1, 20645.229, 0.014820619, 0.11065614, 58645.71, 205550.08, 0.00007994395, 10.002297, 9.998054 
1.3850722e+3, 2.9500803e+2, 42962.523, -184819.02, -14887.864, -0.060674164, 0.04429201, 43931.477, 92852.89, 0.00035497686, 10.001367, 9.998362 
1.385074e+3, 3.0500543e+2, 59246.195, -159285.81, 29165.033, -0.09813556, -0.042726573, 63071.566, 63071.566, 0.0009532209, 10.0012, 9.99829 
1.3850771e+3, 3.1500396e+2, 192677.0, 26291.531, 31986.297, -0.028391894, -0.068291664, 198614.27, 198614.27, 0.0018633218, 10.001484, 9.999435 
1.3950485e+3, 1.250226e+2, -1811503.4, -1639740.0, -120115.76, -0.11266223, 0.07127733, -1577961.8, 136822.38, 0.008733579, 9.998746, 10.001093 
1.3950495e+3, 1.350222e+2, -1762276.4, -1600745.4, 57108.656, -0.10873458, -0.072217196, -1582594.5, 34188.09, 0.005033633, 9.998611, 10.00076 
1.3950495e+3, 1.4502162e+2, -1736117.4, -1645026.3, 29274.635, -0.16185027, -0.14978524, -1636429.4, -117642.94, 0.002076125, 9.998548, 9.999802 
1.3950522e+3, 1.5502328e+2, -1507144.6, -1471304.8, 43087.813, 0.0014343704, -0.019987771, -1442559.0, -21786.504, 0.00048381835, 9.999414, 9.999896 
1.3950552e+3, 1.6502422e+2, -1365775.8, -1406828.4, 66274.01, 0.09217426, 0.11855658, -1316922.1, 5843.207, 0.000034571214, 9.999952, 9.999411 
1.3950574e+3, 1.7502423e+2, -1242979.5, -1287287.8, 74904.984, 0.062373016, 0.13293621, -1187021.1, 37746.176, 0.00000005013657, 10.000082, 9.999497 
1.3950582e+3, 1.8502322e+2, -1179479.9, -1328359.1, -29640.191, -0.034124646, 0.14772905, -1173795.9, -47017.793, 0.0, 10.00035, 9.998421 
1.3950579e+3, 1.9502091e+2, -1022179.4, -1184913.9, -27074.967, -0.15648584, 0.026150351, -1017793.0, 11007.348, 0.0, 10.000694, 9.998561 
1.3950598e+3, 2.0501958e+2, -874559.44, -1023657.0, 19626.805, -0.13673994, 0.028230505, -872019.06, 58793.324, 0.0, 10.000867, 9.998902 
1.395064e+3, 2.1501894e+2, -768434.75, -908255.1, 63221.133, 0.027199348, 0.024007782, -744088.1, 88728.914, 0.0, 10.000875, 9.999015 
1.3950658e+3, 2.2501777e+2, -714090.9, -929661.94, -35208.957, 0.07306271, 0.05757163, -708486.0, 26341.547, 0.0, 10.000974, 9.998158 
1.3950656e+3, 2.3501585e+2, -579536.0, -800842.44, -48235.074, 0.019418884, -0.0029578966, -569479.8, 67366.42, 0.0, 10.001173, 9.998273 
1.3950664e+3, 2.4501447e+2, -455672.28, -599267.9, -12207.072, -0.030628944, 0.0009506875, -454641.94, 84215.34, 0.0, 10.000974, 9.999075 
1.3950677e+3, 2.5501323e+2, -424111.34, -519380.47, 50856.145, -0.06689613, -0.08343409, -402065.22, 38799.74, 0.0, 10.000461, 9.999196 
1.3950695e+3, 2.650117e+2, -401994.84, -666325.06, 57222.06, -0.07169578, -0.05369852, -390139.2, -47258.74, 0.0000000011462398, 10.000828, 9.997348 
1.395072e+3, 2.7500966e+2, -123246.38, -464035.5, 58948.4, -0.040228985, -0.04599011, -113337.805, 131567.89, 0.0000063015364, 10.001983, 9.997508 
1.3950732e+3, 2.850079e+2, -8359.1455, -339088.7, -33224.633, -0.050655134, 0.030029537, -5054.4653, 141870.1, 0.000075522126, 10.002038, 9.99766 
1.3950737e+3, 2.9500583e+2, -32884.23, -271601.22, -22017.523, -0.09202652, -0.002703192, -30870.48, 18072.006, 0.00033167924, 10.001071, 9.997907 
1.3950755e+3, 3.050031e+2, 14625.052, -193473.2, 22098.096, -0.09773157, -0.07099077, 16945.783, 16945.783, 0.0008929241, 10.000952, 9.998174 
1.3950785e+3, 3.1500176e+2, 136063.44, 50531.71, 97624.58, -0.1047314, -0.08001427, 199878.42, 199878.42, 0.0017527872, 10.000908, 9.999869 
1.4050479e+3, 1.25022e+2, -1875685.5, -1653341.5, -66384.36, -0.0060206726, 0.085188255, -1635029.6, 79761.15, 0.009133226, 9.998212, 10.00125 
1.4050499e+3, 1.3502154e+2, -1711635.0, -1586261.3, -58316.51, 0.07050418, -0.061391316, -1563330.0, 53457.21, 0.005275387, 9.998981, 10.000684 
1.4050484e+3, 1.4502062e+2, -1655070.6, -1644648.5, -21619.6, -0.16118827, -0.15470827, -1627620.9, -108826.836, 0.0021822979, 9.999275, 9.9994545 
1.4050518e+3, 1.5502174e+2, -1475973.3, -1497407.8, -28596.428, 0.0037860752, -0.038450338, -1456151.8, -35365.1, 0.00051218417, 9.999808, 9.999529 
1.4050551e+3, 1.6502234e+2, -1380627.6, -1433831.1, 28817.256, 0.10483597, 0.0927112, -1368011.0, -45227.434, 0.000037386584, 9.999923, 9.999242 
1.4050579e+3, 1.7502224e+2, -1265767.6, -1306269.6, 4122.093, 0.10926039, 0.104111455, -1265352.4, -40566.215, 0.00000006103049, 9.999959, 9.999423 
1.4050591e+3, 1.8502131e+2, -1191886.9, -1325947.1, -13442.356, 0.026068611, 0.12504573, -1190552.3, -63755.863, 0.0, 10.000242, 9.99848 
1.4050588e+3, 1.9501925e+2, -981420.25, -1154587.0, -6996.715, -0.1269798, 0.018285878, -981138.0, 47679.004, 0.0, 10.000931, 9.998649 
1.405061e+3, 2.0501822e+2, -868714.3, -1005948.6, 46459.18, -0.09718388, 0.039294817, -854465.5, 76360.7, 0.0, 10.000839, 9.999045 
1.405065e+3, 2.1501796e+2, -854187.94, -924997.75, 10222.967, 0.099326596, 0.057168357, -852741.56, -19914.65, 0.0, 10.000183, 9.999235 
1.405067e+3, 2.2501703e+2, -808277.44, -950046.7, 3439.8362, 0.14264752, 0.0927114, -808194.0, -73358.82, 0.0, 10.000244, 9.998363 
1.405067e+3, 2.3501514e+2, -578394.3, -766458.8, 31865.172, 0.04246781, 0.01286168, -573141.9, 63711.816, 0.0, 10.001058, 9.998552 
1.4050677e+3, 2.4501374e+2, -376346.97, -573589.6, 74544.445, -0.004914745, 0.0072458237, -351343.72, 187521.11, 0.0, 10.001566, 9.998971 
1.4050694e+3, 2.5501254e+2, -231633.9, -430825.9, 6726.5273, -0.010456469, -0.06304098, -231407.02, 209464.98, 0.0, 10.001809, 9.999152 
1.4050713e+3, 2.6501083e+2, -259055.14, -592208.25, 50585.375, -0.0232565, -0.04909812, -251543.7, 91345.04, 0.0000000047036606, 10.001793, 9.997388 
1.4050737e+3, 2.750086e+2, -178401.22, -478799.34, 44735.832, -0.03831257, -0.068482876, -171880.63, 73035.11, 0.000006310061, 10.001578, 9.997591 
1.4050753e+3, 2.8500667e+2, -31029.352, -362246.2, 8376.236, -0.037462257, -0.005549117, -30817.658, 116117.9, 0.00007178299, 10.001928, 9.997551 
1.4050762e+3, 2.9500443e+2, 199017.11, -177253.75, 3906.921, -0.016155358, -0.045211352, 199057.67, 248013.02, 0.0003184308, 10.002732, 9.99776 
1.405078e+3, 3.050021e+2, 183187.89, -185560.45, 65036.082, 0.00060137885, -0.032819882, 194322.11, 194322.11, 0.00086333806, 10.00241, 9.99753 
1.4050797e+3, 3.150007e+2, 129327.5, 15701.614, 17951.799, -0.0630103, 0.016092403, 132096.25, 132096.25, 0.0016972373, 10.000957, 9.999622 
1.4150475e+3, 1.2502131e+2, -1906921.0, -1727541.8, 141236.58, 0.041541725, 0.1367901, -1649923.4, 64875.96, 0.009556688, 9.998248, 10.000729 
1.4150496e+3, 1.3502125e+2, -1761582.6, -1682068.9, -23957.72, 0.09485711, 0.103599265, -1675408.3, -58614.027, 0.0055341963, 9.998952, 10.000041 
1.4150481e+3, 1.4502087e+2, -1647606.1, -1639952.4, -30752.242, -0.16663529, 0.08983162, -1612789.9, -93994.164, 0.0022969088, 9.999319, 9.999466 
1.4150515e+3, 1.5501904e+2, -1488172.6, -1518749.3, 6326.9575, -0.034880746, -0.07521034, -1486915.1, -66100.91, 0.0005425403, 9.99979, 9.9993925 
1.4150545e+3, 1.6501835e+2, -1371121.1, -1422853.0, 4045.3035, 0.009133921, -0.068045236, -1370806.6, -47985.082, 0.000040406845, 9.999956, 9.999307 
1.4150575e+3, 1.7501861e+2, -1275138.5, -1304567.4, 22924.727, 0.044881623, -0.023584101, -1262612.1, -37792.848, 0.00000007226826, 9.999868, 9.999484 
1.4150596e+3, 1.8501863e+2, -1156949.3, -1234843.0, -8241.97, 0.020316016, 0.055515617, -1156086.8, -29267.31, 0.0, 10.000167, 9.999138 
1.4150606e+3, 1.9501802e+2, -961308.8, -1079570.0, 33805.71, -0.07129406, 0.03323787, -952327.4, 76498.04, 0.0, 10.000789, 9.999233 
1.4150622e+3, 2.0501737e+2, -915662.2, -1066257.0, -3639.7896, -0.08930735, 0.08001259, -915574.25, 15257.68, 0.0, 10.000672, 9.998713 
1.4150643e+3, 2.1501642e+2, -919125.8, -1000650.7, 2482.941, -0.016705655, 0.061642237, -919050.25, -86208.27, 0.0, 9.999921, 9.998848 
1.4150663e+3, 2.2501558e+2, -755445.44, -776351.4, 12285.32, 0.007036255, 0.05944456, -749767.9, -14919.767, 0.0, 9.9999695, 9.999683 
1.4150678e+3, 2.3501463e+2, -534107.06, -605291.4, 78006.11, -0.0058983867, -0.052754864, -483956.88, 152895.7, 0.0, 10.000767, 9.999798 
1.4150694e+3, 2.4501349e+2, -500423.3, -777696.3, 66294.81, -0.021288965, -0.03201118, -485387.8, 53474.8, 0.0, 10.0013275, 9.997684 
1.4150712e+3, 2.5501174e+2, -352861.75, -634302.75, 35604.137, -0.03630846, -0.029583922, -348427.47, 92454.39, 0.0, 10.0015955, 9.997857 
1.4150728e+3, 2.6500997e+2, -255840.23, -533159.2, 21664.008, -0.07244907, 0.013899332, -254158.05, 88743.14, 0.000000079284355, 10.001568, 9.997902 
1.4150748e+3, 2.7500793e+2, -185340.78, -431488.8, 60218.402, -0.13209859, -0.032708466, -171398.48, 73524.125, 0.000007370644, 10.001311, 9.998046 
1.4150767e+3, 2.8500608e+2, -41540.723, -331875.13, 20398.158, -0.122520536, -0.00430323, -40114.605, 106825.74, 0.00007207351, 10.0017, 9.997868 
1.4150794e+3, 2.9500368e+2, 171101.1, -164367.17, 61479.457, -0.009173401, -0.09263396, 182013.16, 230974.34, 0.00031949472, 10.0024185, 9.998002 
1.4150809e+3, 3.0500212e+2, 42208.41, -399339.47, -313.1615, 0.019899162, 0.05516801, 42208.633, 42208.633, 0.00086619053, 10.002098, 9.996193 
1.41508e+3, 3.1500086e+2, -34490.656, -189126.73, 14705.226, -0.19455934, 0.23714423, -33104.676, -33104.676, 0.0016971829, 10.000421, 9.998447 
1.4250463e+3, 1.2501825e+2, -1790639.0, -1682240.4, 90973.6, 0.073475264, 0.14782807, -1630544.6, 84284.6, 0.010011913, 9.999133, 10.00061 
1.4250481e+3, 1.3501829e+2, -1748008.0, -1648780.3, -117557.93, 0.06824817, 0.11208727, -1570795.5, 46029.68, 0.0058154534, 9.998969, 10.000257 
1.425049e+3, 1.4501846e+2, -1656714.4, -1621107.0, -32063.04, -0.0008164202, 0.13031986, -1602236.3, -83414.72, 0.002423067, 9.999163, 9.999662 
1.4250517e+3, 1.5501703e+2, -1550703.6, -1529646.4, -23161.816, 0.03461273, -0.01364159, -1514732.5, -93897.2, 0.00057589856, 9.999283, 9.999551 
1.425054e+3, 1.6501614e+2, -1441974.0, -1442673.0, 27467.396, 0.0031704362, -0.041505095, -1414853.9, -92010.84, 0.00004378684, 9.999402, 9.999431 
1.4250572e+3, 1.7501567e+2, -1254600.1, -1277990.0, 11810.959, 0.02705321, -0.08917092, -1249673.6, -24827.469, 0.00000008454083, 9.999923, 9.999635 
1.4250599e+3, 1.8501571e+2, -1141425.6, -1193673.9, 16579.402, 0.034363545, -0.03123751, -1136608.8, -9763.766, 0.0, 10.000117, 9.999451 
1.4250617e+3, 1.9501606e+2, -1030087.1, -1069977.4, 1233.1635, -0.019059788, 0.008472204, -1030049.06, -1207.5286, 0.0, 10.000135, 9.999612 
1.4250632e+3, 2.0501567e+2, -959753.0, -1074648.5, -6437.9487, -0.03573658, 0.054854117, -959393.4, -28547.963, 0.0, 10.000307, 9.998833 
1.4250648e+3, 2.150141e+2, -786748.7, -925151.2, -4255.471, 0.0024391776, -0.034036517, -786618.0, 46242.734, 0.0, 10.00075, 9.998975 
1.4250666e+3, 2.2501327e+2, -634825.1, -732139.56, 26423.96, 0.01576054, -0.03621981, -628113.1, 106754.3, 0.0, 10.000849, 9.9995775 
1.4250685e+3, 2.35013e+2, -543144.6, -619695.94, -47740.914, -0.004936899, -0.070010066, -520230.25, 116637.055, 0.0, 10.000731, 9.999731 
1.4250708e+3, 2.450121e+2, -568560.8, -825215.0, -25486.594, 0.0020085832, -0.0139268525, -566054.4, -27177.807, 0.0, 10.000929, 9.99755 
1.4250733e+3, 2.5501022e+2, -358632.25, -652572.75, -11718.578, 0.03355782, -0.0114714885, -358165.8, 82732.85, 0.00000000006254562, 10.001614, 9.997729 
1.4250752e+3, 2.6500848e+2, -198678.44, -501724.03, 14711.654, -0.0044372533, 0.039414007, -197965.92, 144952.11, 0.00000036239143, 10.001937, 9.997937 
1.4250763e+3, 2.7500674e+2, -91159.836, -376994.75, -17740.88, -0.11559546, 0.017674617, -90062.92, 154872.84, 0.000010087366, 10.001911, 9.99813 
1.4250782e+3, 2.85005e+2, -36356.71, -314203.03, -22967.742, -0.12526858, 0.046311736, -34470.914, 112481.72, 0.00007872079, 10.001662, 9.998016 
1.4250812e+3, 2.9500264e+2, 36909.94, -207501.98, -53244.465, -0.0039696246, -0.054138515, 48005.406, 96980.01, 0.00033532444, 10.0014, 9.998194 
1.4250833e+3, 3.050015e+2, 4735.622, -411010.13, -39805.14, 0.07358518, 0.11979406, 8512.414, 8512.414, 0.00089838944, 10.001771, 9.996296 
1.4250821e+3, 3.1499955e+2, 260763.4, -57569.08, 9244.15, -0.096126616, 0.22164187, 261031.63, 261031.63, 0.0017503061, 10.0024605, 9.998394 
1.4350456e+3, 1.250131e+2, -1760650.4, -1648209.9, -131096.42, -0.012362743, 0.12230792, -1561787.3, 153091.13, 0.010506618, 9.999219, 10.000815 
1.4350452e+3, 1.3501297e+2, -1686413.9, -1519278.0, -89301.805, -0.15803799, -0.017358264, -1480541.4, 136335.58, 0.006123269, 9.998959, 10.001147 
1.4350502e+3, 1.4501354e+2, -1606625.1, -1534220.3, -46945.55, 0.15246771, -0.037602358, -1511139.4, 7730.8115, 0.002563054, 9.9992285, 10.000235 
1.4350517e+3, 1.5501592e+2, -1524426.0, -1465784.8, -1280.9733, 0.054821804, 0.15082984, -1465756.8, -44909.383, 0.0006133788, 9.999239, 10.000015 
1.435053e+3, 1.6501582e+2, -1431481.9, -1420141.0, 21506.535, -0.08433621, 0.17347318, -1403569.9, -80723.41, 0.000047750204, 9.999399, 9.999588 
1.4350563e+3, 1.7501311e+2, -1251876.9, -1263835.8, 46004.41, -0.08859262, -0.11041201, -1211465.0, 13404.396, 0.00000010052836, 9.99988, 9.999758 
1.435059e+3, 1.8501244e+2, -1142665.1, -1177833.9, -6072.0234, -0.08712282, -0.13586251, -1141646.3, -14772.275, 0.0, 10.000041, 9.999594 
1.4350611e+3, 1.9501348e+2, -1046918.4, -1067231.4, 18554.178, -0.1198622, -0.041890047, -1035922.75, -7058.643, 0.0, 9.999973, 9.999709 
1.4350632e+3, 2.0501313e+2, -942541.9, -998467.44, -12088.417, -0.10442421, -0.02842743, -940040.8, -9174.806, 0.0, 10.000127, 9.999441 
1.4350659e+3, 2.1501105e+2, -787692.94, -866800.56, 29591.09, 0.0012757716, -0.22918265, -777849.0, 55034.09, 0.0, 10.0004835, 9.999504 
1.4350677e+3, 2.250102e+2, -782241.25, -966383.75, 2789.385, 0.0050123525, -0.182887, -782199.0, -47306.633, 0.0, 10.000551, 9.998105 
1.4350685e+3, 2.3501037e+2, -691980.94, -854482.6, -32159.182, -0.094719395, -0.027156832, -685848.06, -48951.848, 0.0, 10.000428, 9.998258 
1.4350712e+3, 2.4500965e+2, -538088.94, -702236.5, -21013.309, -0.08311011, 0.070609994, -535441.6, 3464.3894, 0.0, 10.000666, 9.998525 
1.4350754e+3, 2.5500777e+2, -337612.88, -537553.06, 33695.613, 0.05316595, -0.022019852, -332086.94, 108837.03, 0.000000006122379, 10.001309, 9.998665 
1.435078e+3, 2.6500633e+2, -253861.4, -563744.75, -3655.8462, 0.028779749, 0.029429808, -253818.28, 89121.05, 0.0000008787704, 10.001703, 9.99763 
1.4350782e+3, 2.7500504e+2, -150273.98, -444329.94, 4050.878, -0.14675856, 0.08469308, -150218.2, 94736.68, 0.000014147242, 10.001669, 9.997792 
1.4350793e+3, 2.8500348e+2, -78320.58, -347663.75, -51983.47, -0.21374872, 0.15349065, -68635.945, 78336.47, 0.000090681104, 10.00143, 9.997897 
1.4350814e+3, 2.9500112e+2, -26294.738, -269814.34, -36130.082, -0.16947548, 0.065203205, -21047.326, 27949.746, 0.0003649261, 10.001094, 9.99792 
1.4350843e+3, 3.0500013e+2, 83494.56, -175049.11, -30285.734, -0.019060796, 0.18380933, 86994.836, 86994.836, 0.000963626, 10.001488, 9.998039 
1.4350854e+3, 3.149969e+2, 266775.03, 83685.72, 85083.234, -0.074216396, -0.02027031, 300208.7, 300208.7, 0.0018674937, 10.001923, 9.999623 
1.4450455e+3, 1.2500925e+2, -1805106.3, -1717212.5, 9181.117, 0.083659515, -0.00496143, -1716263.8, -1353.2449, 0.011047917, 9.999085, 10.000405 
1.4450443e+3, 1.350103e+2, -1717744.9, -1558473.8, 1635.1328, -0.11350039, -0.014970454, -1558457.0, 58444.0, 0.00646129, 9.998822, 10.000944 
1.4450492e+3, 1.4501035e+2, -1626990.0, -1529832.6, 40166.41, 0.15609889, -0.07855658, -1515377.8, 3522.9238, 0.0027186894, 9.999049, 10.000334 
1.4450514e+3, 1.5501282e+2, -1408974.4, -1391190.6, 4303.933, 0.09024383, 0.10175321, -1390203.8, 30672.666, 0.0006559602, 9.999955, 10.000179 
1.4450532e+3, 1.6501309e+2, -1365163.0, -1381023.8, 32985.83, -0.021473069, 0.15041767, -1339167.6, -16295.682, 0.000052490832, 9.999835, 9.999647 
1.4450562e+3, 1.7501101e+2, -1357469.0, -1300445.3, 16335.345, -0.04460919, -0.07968938, -1296097.3, -71207.84, 0.00000012546444, 9.999114, 9.999868 
1.4450587e+3, 1.8501039e+2, -1308245.8, -1244662.3, 11232.546, -0.054006066, -0.1123046, -1242736.4, -115842.82, 0.0, 9.9988365, 9.999723 
1.4450607e+3, 1.9501096e+2, -1165283.8, -1103045.1, -52.343372, -0.09868481, -0.07993616, -1103045.0, -74157.74, 0.0, 9.999068, 9.999898 
1.4450632e+3, 2.0501074e+2, -1036147.0, -1034298.1, 2006.3666, -0.07037612, -0.06618252, -1033013.5, -102125.54, 0.0, 9.999463, 9.999514 
1.4450666e+3, 2.1500944e+2, -835224.3, -870811.0, -35525.324, 0.059278633, -0.19733888, -813285.44, 19612.768, 0.0, 10.000106, 9.99965 
1.4450687e+3, 2.2500858e+2, -780036.7, -1015471.56, -8304.718, 0.05711288, -0.13766435, -779744.06, -44835.72, 0.0, 10.000768, 9.997672 
1.4450695e+3, 2.3500785e+2, -568414.56, -841658.6, -1169.5933, -0.08537678, -0.030126888, -568409.56, 68512.164, 0.0, 10.001461, 9.997852 
1.4450721e+3, 2.4500689e+2, -402090.7, -624515.3, 49969.082, -0.0784304, 0.05675008, -391380.53, 147553.73, 0.0, 10.001547, 9.9986315 
1.4450769e+3, 2.5500533e+2, -346556.34, -531746.9, 3197.1663, 0.07913914, -0.012387755, -346501.16, 94447.984, 0.000000012932129, 10.001179, 9.998776 
1.4450797e+3, 2.65004e+2, -337279.7, -581720.9, -8301.515, 0.08694016, 0.03289668, -336998.06, 5964.977, 0.0000016431604, 10.0010395, 9.997824 
1.4450806e+3, 2.750026e+2, -185869.98, -435116.1, -8250.378, -0.054799758, 0.056870084, -185597.19, 59381.285, 0.000019343763, 10.001313, 9.998019 
1.4450814e+3, 2.8500104e+2, -65475.688, -349067.97, -5735.9014, -0.14591339, 0.11844923, -65359.723, 81636.46, 0.000107424436, 10.001565, 9.997813 
1.4450826e+3, 2.9499912e+2, 63332.68, -226430.97, -21367.951, -0.1730879, 0.0797263, 64899.934, 113918.305, 0.00041044338, 10.001729, 9.997896 
1.445086e+3, 3.049983e+2, 184335.3, -46994.156, 21175.25, -0.0056660036, 0.18822402, 186257.66, 186257.66, 0.0010681947, 10.001826, 9.998769 
1.4450885e+3, 3.1499535e+2, 266891.28, 120028.15, -38954.008, 0.06586108, -0.06446869, 276583.78, 276583.78, 0.0020588713, 10.001772, 9.999938 
1.4550447e+3, 1.2500708e+2, -1861137.3, -1858271.9, -36335.98, 0.013839538, -0.23698172, -1823340.4, -108418.1, 0.011640448, 9.999191, 9.999387 
1.4550453e+3, 1.3501042e+2, -1824093.9, -1762781.1, 13962.879, 0.07382176, 0.10675347, -1759751.0, -142855.06, 0.0068325973, 9.9987545, 9.999576 
1.4550453e+3, 1.4500909e+2, -1658789.5, -1600500.5, 54886.133, -0.20098825, 0.008753696, -1567500.9, -48589.598, 0.0028915813, 9.999067, 9.999838 
1.4550507e+3, 1.5500772e+2, -1432865.8, -1435017.4, 53745.418, -0.021636251, -0.16454859, -1380185.4, 40737.074, 0.00070428615, 9.999932, 9.999887 
1.4550541e+3, 1.6500801e+2, -1352534.8, -1364883.1, -21825.97, 0.0324402, -0.10572705, -1336026.5, -13107.685, 0.000058062662, 9.999874, 9.999742 
1.4550562e+3, 1.7500943e+2, -1363969.3, -1297722.1, 6809.9253, 0.014550498, 0.009082668, -1297029.3, -72124.016, 0.00000016567238, 9.999046, 9.999922 
1.4550583e+3, 1.8500961e+2, -1300929.5, -1219973.4, -684.614, -0.026530543, 0.043358408, -1219967.6, -93064.98, 0.0, 9.998789, 9.999922 
1.4550601e+3, 1.9500847e+2, -1172376.3, -1090886.8, 25180.736, -0.1008968, -0.11037808, -1083733.8, -54822.17, 0.0, 9.998941, 10.000052 
1.455063e+3, 2.0500842e+2, -1098804.6, -1114502.5, 4790.737, -0.0888381, -0.062214617, -1097458.0, -166546.02, 0.0, 9.99926, 9.999055 
1.4550668e+3, 2.150091e+2, -908975.94, -957227.7, 6093.035, 0.030849839, 0.049307533, -908218.44, -75310.94, 0.0, 9.999828, 9.999188 
1.4550693e+3, 2.2500817e+2, -769898.94, -928776.8, -2542.5427, 0.016726533, 0.08712834, -769858.25, -34940.813, 0.0, 10.000484, 9.998403 
1.4550708e+3, 2.3500545e+2, -570777.2, -765928.06, 44774.152, -0.12927045, -0.07587697, -560994.8, 75948.91, 0.0, 10.001122, 9.998533 
1.4550734e+3, 2.4500383e+2, -494857.4, -753094.75, 19416.154, -0.14997588, -0.04808244, -493405.72, 45555.52, 0.0, 10.001263, 9.9978895 
1.4550771e+3, 2.5500304e+2, -435048.53, -658594.6, 11208.547, -0.032919038, 0.031262897, -434487.94, 6484.9766, 0.000000017460069, 10.000932, 9.998029 
1.4550804e+3, 2.6500162e+2, -325056.66, -504361.13, -15411.748, 0.011292593, 0.072473325, -323741.63, 19245.904, 0.000002726617, 10.000813, 9.998463 
1.4550826e+3, 2.7499923e+2, -184901.45, -366343.84, 24323.21, -0.0085869245, -0.06632477, -181697.39, 63310.508, 0.000025176965, 10.001033, 9.998621 
1.455084e+3, 2.8499758e+2, -98565.625, -350850.34, -18869.008, -0.08107765, -0.04973001, -97162.17, 49862.58, 0.00012773158, 10.001281, 9.997938 
1.4550845e+3, 2.9499647e+2, 34176.707, -221255.86, 12052.03, -0.196135, -0.022387268, 34744.098, 83783.84, 0.00046832126, 10.001443, 9.998074 
1.4550877e+3, 3.0499616e+2, 116846.51, -121658.46, 5417.187, -0.054968975, 0.14032257, 116969.49, 116969.49, 0.0012042039, 10.001548, 9.998388 
1.4550906e+3, 3.149946e+2, 121813.086, -70204.95, 4885.73, 0.028205734, 0.06957454, 121937.32, 121937.32, 0.0023127608, 10.001292, 9.998862 
1.4650431e+3, 1.2500499e+2, -2030652.1, -1970125.8, -42617.973, -0.01080472, -0.22364144, -1948119.0, -233178.03, 0.012283002, 9.998178, 9.999104 
1.4650454e+3, 1.3500771e+2, -1687319.9, -1674922.6, -77791.73, 0.17250504, 0.035879817, -1603083.0, 13837.0205, 0.00723705, 9.999606, 9.999763 
1.4650446e+3, 1.4500721e+2, -1641017.9, -1649966.0, 84911.1, -0.17202376, 0.043960877, -1560463.0, -41535.645, 0.0030819494, 9.9994135, 9.99935 
1.4650501e+3, 1.5500501e+2, -1526553.8, -1514110.8, 42426.156, -0.029323107, -0.18003209, -1477452.4, -56503.72, 0.0007585455, 9.999415, 9.999603 
1.465054e+3, 1.650051e+2, -1423070.6, -1402475.0, -23270.127, 0.07211344, -0.12865727, -1387325.9, -64377.76, 0.00006440502, 9.999393, 9.999715 
1.4650562e+3, 1.750069e+2, -1295707.8, -1270216.3, -42823.145, 0.09919402, 0.027247429, -1238282.3, -13350.535, 0.00000022299002, 9.999516, 9.999887 
1.4650583e+3, 1.8500714e+2, -1193941.8, -1178579.9, -4109.0884, 0.0701731, 0.077801555, -1177549.9, -50621.215, 0.0, 9.999606, 9.999789 
1.4650603e+3, 1.9500582e+2, -1024117.0, -1026116.8, -40794.594, -0.018470429, -0.08805505, -984310.06, 44628.95, 0.0, 10.000013, 9.999963 
1.4650631e+3, 2.0500557e+2, -969388.94, -1082474.0, -19589.834, -0.018707467, -0.04109282, -966091.5, -35149.49, 0.0, 10.00027, 9.998794 
1.4650673e+3, 2.1500613e+2, -826085.25, -940546.94, -33925.074, 0.07516656, 0.08452666, -816785.8, 16154.569, 0.0, 10.000498, 9.998979 
1.4650702e+3, 2.2500542e+2, -724717.2, -833102.56, -7592.7954, 0.07237234, 0.11875952, -724187.9, 10759.67, 0.0, 10.000476, 9.99906 
1.4650723e+3, 2.3500308e+2, -638562.8, -724512.9, -6086.1157, -0.02899725, -0.07068908, -638134.0, -1167.4098, 0.0, 10.00032, 9.999206 
1.465075e+3, 2.450016e+2, -606867.56, -815959.7, 29366.988, -0.07140703, -0.058818996, -602821.25, -63839.598, 0.0, 10.000541, 9.997805 
1.4650778e+3, 2.5500077e+2, -393402.6, -639584.44, 30258.27, -0.06270099, 0.024589628, -389738.1, 51256.664, 0.000000044837254, 10.001243, 9.997999 
1.4650811e+3, 2.649994e+2, -208148.3, -423839.38, 44467.156, -0.020528195, 0.061666872, -199340.56, 143668.3, 0.0000038968087, 10.00151, 9.998684 
1.4650844e+3, 2.7499717e+2, -117746.21, -311329.47, 20323.623, 0.058142945, -0.08191894, -115635.52, 129391.54, 0.000030518888, 10.001376, 9.998844 
1.465086e+3, 2.8499568e+2, -76972.83, -301923.38, 13486.061, 0.013987389, -0.0754747, -76167.2, 70873.83, 0.00014669458, 10.001255, 9.99829 
1.4650862e+3, 2.9499495e+2, 23281.336, -182216.86, -1006.5653, -0.14533812, -0.03812477, 23286.268, 72336.76, 0.0005255453, 10.001188, 9.998458 
1.4650895e+3, 3.049941e+2, 142900.31, -139009.55, 65916.62, -0.026524413, 0.061098196, 157551.6, 157551.6, 0.0013467413, 10.001873, 9.998093 
1.4650938e+3, 3.149927e+2, 346198.47, -6783.5034, -794.791, 0.13830885, 0.045939792, 346200.25, 346200.25, 0.0025879922, 10.003033, 9.99845 
1.4750414e+3, 1.2500286e+2, -1990694.9, -1896470.4, 173807.94, -0.09522711, 0.049056645, -1763502.8, -48535.223, 0.012969953, 9.998241, 9.9995575 
1.4750433e+3, 1.3500203e+2, -1574406.6, -1428701.0, -45611.11, -0.030215107, -0.22045754, -1415601.0, 201373.05, 0.0076708426, 9.999565, 10.001471 
1.4750472e+3, 1.4500469e+2, -1640124.3, -1675679.1, 45559.137, 0.06880169, 0.026247356, -1608997.0, -90047.44, 0.0032881629, 9.999514, 9.999133 
1.4750494e+3, 1.5500474e+2, -1549915.1, -1555629.9, 58127.453, -0.083682284, 0.05566654, -1494574.9, -73621.08, 0.00081847684, 9.999381, 9.999341 
1.4750524e+3, 1.6500443e+2, -1425182.5, -1414025.4, -39954.758, -0.080477804, 0.08435255, -1379261.6, -56302.527, 0.000071419374, 9.999419, 9.999621 
1.4750557e+3, 1.750036e+2, -1315755.9, -1293920.3, -22515.852, 0.057595488, -0.01350033, -1279814.9, -54848.0, 0.0000002932695, 9.999446, 9.999752 
1.4750585e+3, 1.850032e+2, -1228388.8, -1250777.8, -11730.315, 0.07869337, 0.004518202, -1223368.6, -96398.99, 0.0, 9.999595, 9.999305 
1.4750607e+3, 1.950029e+2, -1075269.6, -1104833.9, -8278.71, -0.0038226072, -0.010532493, -1073109.3, -44138.86, 0.0, 9.999887, 9.999487 
1.4750637e+3, 2.0500211e+2, -991080.94, -1086480.6, -34136.113, -0.025446903, 0.0031201143, -980124.6, -49146.13, 0.0, 10.000092, 9.998849 
1.4750674e+3, 2.150007e+2, -864856.8, -956909.8, -10042.858, 0.02981412, -0.0777893, -863773.9, -30778.664, 0.0, 10.000228, 9.998992 
1.475071e+3, 2.2500038e+2, -722928.8, -772765.25, -34081.758, 0.063755706, -0.028674819, -705627.56, 29370.264, 0.0, 10.000216, 9.999609 
1.475074e+3, 2.350008e+2, -633649.94, -660383.2, 6282.7056, 0.06747469, -0.00078041776, -632247.06, 4742.8984, 0.0, 10.00008, 9.999768 
1.4750764e+3, 2.4500021e+2, -602766.5, -749607.9, 33377.977, -0.0126962215, 0.040770665, -595535.56, -56540.086, 0.0, 10.000293, 9.998379 
1.4750783e+3, 2.5499833e+2, -396528.2, -581667.7, 73968.14, -0.16508098, -0.037194263, -370605.56, 70411.2, 0.000000082863835, 10.000965, 9.998531 
1.4750814e+3, 2.6499715e+2, -257132.56, -461349.25, 24036.617, -0.1663801, 0.00078395964, -254341.56, 88687.53, 0.0000048986644, 10.00123, 9.998558 
1.4750855e+3, 2.7499628e+2, -164778.1, -343997.66, 43132.06, -0.014992842, -0.0011497707, -154937.95, 90098.336, 0.00003489947, 10.001102, 9.998744 
1.4750871e+3, 2.8499535e+2, -96701.32, -282821.84, -9583.034, -0.036342394, 0.052491188, -96209.21, 50835.043, 0.00016199093, 10.000994, 9.998547 
1.4750871e+3, 2.9499435e+2, -1216.7313, -163732.75, 19804.766, -0.2180398, 0.026681397, 1161.9308, 50215.277, 0.0005774686, 10.00089, 9.998727 
1.475091e+3, 3.0499184e+2, 91824.47, -174392.33, 92850.4, -0.10323219, -0.044864483, 121009.15, 121009.15, 0.0014808617, 10.001566, 9.997995 
1.4750966e+3, 3.1498942e+2, 288034.47, -2410.643, 98056.68, 0.056683607, -0.1650274, 318039.5, 318039.5, 0.0028432787, 10.002499, 9.998734 
1.4850417e+3, 1.2499898e+2, -1941640.8, -1873216.5, 243950.2, 0.12517983, 0.11372692, -1661091.1, 53916.188, 0.013700781, 9.998566, 9.999571 
1.4850411e+3, 1.349973e+2, -1500503.3, -1335436.6, -104400.484, -0.20769246, -0.28742123, -1284886.5, 332134.7, 0.00813248, 9.999779, 10.002034 
1.485048e+3, 1.4500178e+2, -1628741.6, -1633086.3, -41065.727, 0.2079592, 0.09669877, -1589790.8, -70812.086, 0.0035089266, 9.999479, 9.999423 
1.4850491e+3, 1.5500204e+2, -1634217.1, -1561082.4, -34074.36, 0.0025655548, 0.118152335, -1547667.4, -126685.93, 0.0008836724, 9.998678, 9.999626 
1.4850518e+3, 1.6500157e+2, -1547459.1, -1476242.5, -31659.275, -0.036848206, 0.122552045, -1464203.5, -141215.05, 0.00007901186, 9.998646, 9.999554 
1.4850554e+3, 1.7500034e+2, -1269935.1, -1274798.5, -54452.633, 0.07409944, -0.007086698, -1217859.9, 7140.2993, 0.00000037325287, 9.999808, 9.999705 
1.4850587e+3, 1.8499991e+2, -1136971.9, -1205681.9, 167.13884, 0.112226896, 0.008247379, -1136971.5, -9968.067, 0.0, 10.000203, 9.999328 
1.4850613e+3, 1.9499998e+2, -1044975.75, -1084161.1, 2688.341, 0.059621654, 0.026897922, -1044792.2, -15791.463, 0.0, 10.000063, 9.999547 
1.4850643e+3, 2.0499927e+2, -998940.2, -1066139.0, 38490.098, 0.039206967, 0.034517333, -981447.44, -50439.96, 0.0, 9.999944, 9.999057 
1.4850678e+3, 2.149976e+2, -897235.25, -946097.7, 35535.336, 0.061035078, -0.08981046, -878542.9, -45517.586, 0.0, 9.9998865, 9.999234 
1.4850713e+3, 2.249973e+2, -750581.5, -782572.5, 44612.3, 0.089100234, -0.053912785, -719183.8, 15844.193, 0.0, 10.00003, 9.9996195 
1.4850745e+3, 2.3499812e+2, -564267.9, -624732.4, 4558.4688, 0.09731395, 0.016128965, -563926.1, 73091.734, 0.0, 10.000559, 9.999778 
1.4850773e+3, 2.4499778e+2, -500693.7, -650338.8, 45182.586, 0.036637433, 0.060196895, -488109.84, 50910.727, 0.0, 10.0007715, 9.998835 
1.48508e+3, 2.5499612e+2, -409368.8, -533983.44, 38110.016, -0.08369202, -0.042728163, -398637.97, 42399.836, 0.00000011463164, 10.000648, 9.999011 
1.485083e+3, 2.6499513e+2, -315834.2, -479637.88, 21436.78, -0.09354125, -0.0138923675, -313075.25, 29972.63, 0.000005857849, 10.000801, 9.9986315 
1.4850865e+3, 2.7499446e+2, -134360.28, -321958.22, 2094.849, -0.004890482, 0.0032410643, -134336.89, 110717.305, 0.000039275426, 10.001292, 9.998801 
1.4850886e+3, 2.849936e+2, 2775.0337, -243638.55, -14517.887, -0.014681135, 0.062013008, 3627.4316, 150689.1, 0.00017769585, 10.001713, 9.998471 
1.4850895e+3, 2.9499236e+2, 160115.27, -98407.62, -52650.836, -0.10667341, 0.031697884, 170426.86, 219497.97, 0.00063044037, 10.002035, 9.99864 
1.4850937e+3, 3.0498943e+2, 182114.61, -154976.22, 63964.92, -0.016010815, -0.069697775, 193844.19, 193844.19, 0.0016053733, 10.002253, 9.99782 
1.485099e+3, 3.1498703e+2, 259381.69, 16652.734, -32860.598, 0.09782039, -0.16661297, 263751.7, 263751.7, 0.0030593355, 10.002132, 9.99905 
1.4950404e+3, 1.24992736e+2, -1908169.1, -1840914.1, -118198.48, 0.018620973, -0.08392732, -1751652.8, -36586.734, 0.014485426, 9.998712, 9.99972 
1.4950381e+3, 1.3499413e+2, -1548622.3, -1415999.1, -46639.26, -0.5277084, -0.124985255, -1401240.1, 215815.52, 0.008627366, 9.999714, 10.001499 
1.4950465e+3, 1.4499883e+2, -1551310.1, -1513712.5, -102999.97, 0.051439676, 0.2637427, -1427809.9, 91201.984, 0.0037456865, 9.999629, 10.000182 
1.495049e+3, 1.5499713e+2, -1589822.6, -1474079.1, -48548.105, 0.06523088, 0.02407268, -1456412.4, -35382.91, 0.0009542572, 9.998687, 10.000228 
1.4950515e+3, 1.649967e+2, -1537062.1, -1475993.9, -13089.698, 0.019621737, 0.004727744, -1473306.4, -150271.66, 0.00008722728, 9.998727, 9.9995165 
1.4950548e+3, 1.7499709e+2, -1281906.1, -1287354.0, 4512.2725, 0.0063351225, 0.041771255, -1279359.4, -54326.996, 0.0000004647829, 9.999756, 9.999641 
1.4950581e+3, 1.849973e+2, -1100471.3, -1127920.8, -27303.652, 0.0045525166, 0.09572008, -1083637.0, 43392.895, 0.0, 10.000188, 9.999874 
1.4950612e+3, 1.9499712e+2, -1031906.1, -1022322.5, 10997.351, 0.009348807, 0.03642405, -1015118.4, 13910.824, 0.0, 9.999916, 10.000044 
1.4950643e+3, 2.0499708e+2, -995282.06, -1018113.8, 15128.817, 0.013828932, 0.06447472, -987745.25, -56716.75, 0.0, 9.999764, 9.9994755 
1.4950678e+3, 2.1499686e+2, -904959.06, -903242.7, 49271.62, 0.039111037, 0.042688, -854821.8, -21790.994, 0.0, 9.999639, 9.999644 
1.4950708e+3, 2.249962e+2, -830217.7, -889511.1, 43008.355, 0.0061883326, 0.053045295, -807627.94, -72590.2, 0.0, 9.999767, 9.999019 
1.4950734e+3, 2.3499493e+2, -644443.4, -728767.44, 42720.055, -0.08842675, -0.030179957, -626583.44, 10467.738, 0.0, 10.00029, 9.999194 
1.4950772e+3, 2.4499436e+2, -519419.38, -622194.4, 25652.64, -0.084351376, 0.004029311, -513372.28, 25684.27, 0.0, 10.000481, 9.999167 
1.4950821e+3, 2.549941e+2, -425083.63, -508012.66, 56413.156, 0.029807197, 0.005787118, -396535.63, 44522.098, 0.00000015644366, 10.000388, 9.999318 
1.4950855e+3, 2.649932e+2, -354490.97, -488753.6, 20784.086, 0.03543146, 0.026386002, -351347.16, -8281.434, 0.000006865855, 10.0005045, 9.998707 
1.4950876e+3, 2.749915e+2, -173650.0, -331922.94, 42507.563, -0.074208036, -0.066156395, -162956.22, 82126.234, 0.00004412461, 10.000999, 9.998868 
1.49509e+3, 2.849902e+2, -62079.004, -317073.38, -21625.895, -0.09616983, -0.034871634, -60257.934, 86836.44, 0.00019465707, 10.001442, 9.998099 
1.495093e+3, 2.9498902e+2, 94686.49, -169914.48, -8368.038, -0.0047373525, -0.032421865, 94950.87, 144054.84, 0.00068079715, 10.001749, 9.99829 
1.4950967e+3, 3.0498683e+2, 95838.68, -249075.08, 44459.04, 0.038255963, -0.0155635765, 101477.23, 101477.23, 0.0017061009, 10.001909, 9.99733 
1.4951004e+3, 3.1498542e+2, 178541.14, -28908.574, 19187.824, -0.076873384, 0.031096056, 180300.97, 180300.97, 0.003210883, 10.001617, 9.998981 
1.5050389e+3, 1.2498918e+2, -1824662.1, -1752956.4, -133235.19, 0.01632523, -0.12257181, -1650834.5, 64266.977, 0.015336173, 9.999084, 10.000157 
1.5050383e+3, 1.3499142e+2, -1762444.8, -1569561.3, 33174.11, -0.39621204, -0.039224148, -1564015.1, 53068.055, 0.0091627855, 9.99845, 10.001057 
1.5050456e+3, 1.449944e+2, -1696649.5, -1550450.1, -4860.9077, 0.0597707, 0.1868909, -1550288.8, -31233.643, 0.0040015904, 9.99851, 10.000464 
1.5050483e+3, 1.5499282e+2, -1429507.5, -1356260.3, -21748.557, 0.10622037, -0.07061503, -1350289.5, 70779.65, 0.001031135, 9.999628, 10.00058 
1.5050511e+3, 1.6499275e+2, -1362391.1, -1388326.6, 61705.73, 0.06578063, -0.07494742, -1312305.3, 10764.469, 0.000096309515, 9.999878, 9.9995775 
1.5050548e+3, 1.7499365e+2, -1283238.0, -1273816.1, 50642.35, 0.035343826, 0.0030342792, -1227666.0, -2603.852, 0.000000575819, 9.999661, 9.9997835 
1.5050583e+3, 1.84994e+2, -1213272.0, -1184969.5, 25899.861, 0.04617021, 0.06582931, -1169607.0, -42548.133, 0.0, 9.999443, 9.999826 
1.5050612e+3, 1.9499362e+2, -1089560.4, -1053007.0, -13747.214, 0.04982477, -0.010638644, -1048413.94, -19352.15, 0.0, 9.999534, 10.000009 
1.5050644e+3, 2.0499372e+2, -990520.2, -981702.0, 11207.757, 0.051753666, 0.019364202, -974067.25, -43007.42, 0.0, 9.999667, 9.999766 
1.5050676e+3, 2.1499409e+2, -833462.94, -838310.2, -6782.3647, 0.058168937, 0.02940861, -828684.2, 4371.432, 0.0, 10.000003, 9.999914 
1.5050708e+3, 2.2499372e+2, -777527.3, -860512.44, 45976.082, 0.024784418, 0.054657362, -757089.0, -22029.059, 0.0, 10.000132, 9.999032 
1.5050738e+3, 2.3499243e+2, -677580.2, -742945.4, 47977.05, -0.06363998, -0.03143371, -652211.5, -15137.044, 0.0, 10.000061, 9.999201 
1.5050778e+3, 2.4499184e+2, -537276.75, -598219.4, 83600.0, -0.047513787, -0.013693119, -478767.94, 60311.85, 0.0, 10.000231, 9.999446 
1.5050827e+3, 2.5499165e+2, -357459.78, -442023.6, 66644.26, 0.06366508, -0.031524293, -320816.3, 120262.29, 0.00000020302433, 10.00072, 9.999603 
1.5050866e+3, 2.6499093e+2, -280747.3, -461406.13, 70341.31, 0.079427876, -0.0037904652, -256589.61, 86494.84, 0.0000077496, 10.001034, 9.998646 
1.5050893e+3, 2.7498955e+2, -149676.42, -331876.94, 47308.51, -0.002178076, -0.062217925, -138125.08, 106974.42, 0.000048509926, 10.00118, 9.998798 
1.5050922e+3, 2.8498784e+2, -39254.047, -343168.53, 38659.01, -0.019593604, -0.048009813, -34413.58, 112702.47, 0.00020995413, 10.001773, 9.997752 
1.5050955e+3, 2.9498568e+2, 249640.4, -124874.96, -8548.77, 0.03974598, -0.10468359, 249835.44, 298971.0, 0.00072207913, 10.002981, 9.997976 
1.5050991e+3, 3.049839e+2, 275792.44, -185345.08, 53449.234, 0.042477906, -0.027128508, 281906.53, 281906.53, 0.0017713133, 10.003223, 9.997151 
1.5051024e+3, 3.1498277e+2, 227392.77, -6270.6187, -13495.759, -0.0325691, 0.07830938, 228169.66, 228169.66, 0.0032800343, 10.001937, 9.999004 
1.5150374e+3, 1.249885e+2, -1737678.9, -1628248.0, -141320.38, -0.15264551, -0.02674313, -1531420.6, 183691.16, 0.016257107, 9.9993105, 10.000923 
1.5150414e+3, 1.3498946e+2, -1821314.5, -1667794.3, 39416.48, 0.044702917, -0.0220867, -1658265.5, -41164.9, 0.009740974, 9.998371, 10.000411 
1.5150441e+3, 1.4498892e+2, -1687473.1, -1571039.4, 10358.172, 0.013026949, -0.09698678, -1570125.1, -51021.06, 0.0042781597, 9.998658, 10.0002575 
1.515047e+3, 1.5498917e+2, -1435243.0, -1374408.8, 36110.074, -0.033837277, -0.16037512, -1357612.1, 63487.684, 0.0011151112, 9.999647, 10.000448 
1.5150502e+3, 1.6498972e+2, -1326842.1, -1339298.0, 27427.889, -0.073559135, -0.11049492, -1304944.0, 18149.285, 0.000106548556, 9.999973, 9.999869 
1.5150547e+3, 1.7499015e+2, -1268979.8, -1239328.0, 57206.797, 0.020113401, -0.11403198, -1195057.1, 30031.693, 0.0000007145684, 9.999629, 10.000041 
1.5150583e+3, 1.8499017e+2, -1252362.5, -1264137.8, 7388.2935, 0.067625634, -0.069272175, -1248802.9, -121713.37, 0.0, 9.999435, 9.999287 
1.515061e+3, 1.9498955e+2, -1148029.1, -1142810.0, 5011.953, 0.034991547, -0.11396078, -1139769.0, -110671.086, 0.0, 9.999405, 9.999451 
1.5150638e+3, 2.049894e+2, -1011237.5, -984616.56, 2402.888, -0.007046205, -0.08445444, -984401.44, -53301.55, 0.0, 9.999489, 9.999836 
1.515067e+3, 2.1498951e+2, -863550.0, -841135.9, 23483.17, -0.031058395, -0.110278174, -826322.56, 6775.119, 0.0, 9.9997425, 10.000022 
1.5150708e+3, 2.2499001e+2, -781399.75, -800203.6, 24297.7, -0.024347417, -0.03316771, -764748.4, -29655.475, 0.0, 9.999834, 9.999593 
1.515075e+3, 2.3499061e+2, -677336.1, -682832.44, 64707.24, 0.022259478, 0.017035138, -615318.7, 21769.244, 0.0, 9.999805, 9.999738 
1.5150785e+3, 2.4499023e+2, -566315.06, -599078.25, 80478.984, -0.021798197, 0.022136118, -500567.38, 38522.754, 0.0, 9.999965, 9.999573 
1.5150818e+3, 2.549886e+2, -384391.0, -438796.03, 103876.25, -0.14130281, -0.15384881, -304214.5, 136887.23, 0.00000026346208, 10.000455, 9.999757 
1.515086e+3, 2.6498806e+2, -334503.84, -497921.13, 59066.24, -0.122447796, -0.11160896, -315390.25, 27716.01, 0.000008336701, 10.000721, 9.998545 
1.5150912e+3, 2.7498844e+2, -201201.36, -367354.44, 78480.79, 0.04675331, 0.016200084, -169993.4, 75112.18, 0.00005112129, 10.000888, 9.998693 
1.5150948e+3, 2.8498656e+2, -119672.26, -440517.84, 63403.68, 0.025808245, 0.04286058, -107597.234, 39528.242, 0.00022272031, 10.001471, 9.997227 
1.515097e+3, 2.9498222e+2, 163626.27, -231152.56, 64270.96, -0.1658596, -0.18636051, 173826.2, 222993.88, 0.0007570034, 10.002667, 9.997395 
1.5151004e+3, 3.0498028e+2, 235257.52, -175416.1, -9492.581, -0.18440245, -0.104205266, 235476.81, 235476.81, 0.0018118907, 10.0028515, 9.997384 
1.5151043e+3, 3.1497905e+2, 166369.08, 5555.6704, 12264.835, -0.09311223, -0.04191933, 167299.11, 167299.11, 0.0032889545, 10.001387, 9.999331 
1.5250354e+3, 1.249865e+2, -1966737.6, -1695019.8, -88744.49, -0.18402258, 0.023723632, -1668603.5, 46530.11, 0.017244658, 9.997589, 10.001265 
1.525042e+3, 1.3498701e+2, -1750877.9, -1636272.1, -4822.495, 0.24012652, -0.018165646, -1636069.5, -18946.566, 0.010359608, 9.99889, 10.00036 
1.5250434e+3, 1.4498493e+2, -1638280.1, -1571642.0, 56640.234, 0.06261269, -0.22824676, -1539247.4, -20107.037, 0.0045741852, 9.999123, 10.000017 
1.5250464e+3, 1.5498656e+2, -1475333.8, -1400751.1, 34856.594, -0.03384408, -0.14585388, -1386997.1, 34126.85, 0.0012060112, 9.999396, 10.000381 
1.5250498e+3, 1.6498734e+2, -1426884.1, -1368129.3, 34051.24, -0.052505717, -0.07776517, -1352534.3, -29418.94, 0.000118081814, 9.999242, 10.000014 
1.5250544e+3, 1.749872e+2, -1319434.3, -1240529.0, 13828.694, 0.0625957, -0.14818652, -1238175.6, -13060.459, 0.0000008766353, 9.99921, 10.000226 
1.5250582e+3, 1.84987e+2, -1250544.9, -1285577.3, 30830.309, 0.1034475, -0.12541112, -1232602.3, -105484.33, 0.0, 9.999534, 9.999106 
1.5250608e+3, 1.9498646e+2, -1002757.6, -1095925.3, 16181.143, 0.033277396, -0.13950424, -1000027.4, 29098.896, 0.0, 10.000486, 9.9992695 
1.525064e+3, 2.0498614e+2, -842905.25, -954574.2, 27829.896, 0.0054660006, -0.09545924, -836353.9, 94777.17, 0.0, 10.000834, 9.999402 
1.5250677e+3, 2.1498589e+2, -760993.2, -840070.5, -25512.537, 0.018582005, -0.11941271, -753476.6, 79657.33, 0.0, 10.000629, 9.999608 
1.5250716e+3, 2.2498612e+2, -664785.5, -741313.44, -22923.246, 0.03771646, -0.04847795, -658444.44, 76686.84, 0.0, 10.000606, 9.999636 
1.5250754e+3, 2.3498663e+2, -533336.2, -606237.94, -57258.01, 0.056408092, -0.010742545, -501911.13, 135214.19, 0.0, 10.000754, 9.999809 
1.5250792e+3, 2.4498624e+2, -473981.72, -553044.4, -28416.469, 0.013622745, -0.011435172, -464828.13, 74299.2, 0.0, 10.000612, 9.999562 
1.5250826e+3, 2.549847e+2, -415873.53, -450499.03, -56039.16, -0.09004585, -0.1763929, -374533.75, 66605.54, 0.0000003530132, 10.000241, 9.999765 
1.525087e+3, 2.649842e+2, -342049.47, -493508.72, -41216.04, -0.05826074, -0.13798352, -331559.97, 11583.873, 0.000008619123, 10.000603, 9.998641 
1.5250929e+3, 2.7498457e+2, -78878.125, -286984.4, -51138.773, 0.10296461, -0.023341406, -66990.63, 178152.08, 0.000051931653, 10.001642, 9.99887 
1.5250967e+3, 2.84983e+2, -10798.607, -341535.16, 12786.696, 0.06658766, 0.0051388685, -10304.994, 136853.89, 0.00023518385, 10.001999, 9.997675 
1.5250991e+3, 2.949793e+2, 40659.098, -249664.34, 44528.535, -0.15220162, -0.19617054, 47335.17, 96530.05, 0.000791527, 10.001605, 9.997818 
1.5251029e+3, 3.0497792e+2, 115186.85, -201612.56, 34153.98, -0.1499737, -0.09232077, 118827.14, 118827.14, 0.0018473582, 10.00187, 9.997691 
1.5251073e+3, 3.1497616e+2, 335338.5, 73018.18, -24567.152, 0.025923718, -0.11078926, 337619.47, 337619.47, 0.0032843088, 10.0025835, 9.999234 
1.5350349e+3, 1.2498468e+2, -1966962.9, -1731728.1, -22473.73, -0.082419805, 0.16603355, -1729600.3, -14448.017, 0.018294634, 9.997734, 10.000939 
1.5350391e+3, 1.3498428e+2, -1715933.6, -1568446.3, 45622.74, 0.017750042, -0.017002858, -1555474.5, 61673.996, 0.011016667, 9.998911, 10.00082 
1.5350427e+3, 1.4498268e+2, -1623220.6, -1586406.8, 34240.445, 0.010203561, -0.18612929, -1565939.3, -46777.67, 0.0048880493, 9.999308, 9.999834 
1.535046e+3, 1.5498516e+2, -1488898.5, -1412600.4, 57077.754, -0.050714955, -0.010223137, -1382096.5, 39043.004, 0.0013030368, 9.999336, 10.000331 
1.5350498e+3, 1.6498578e+2, -1416404.8, -1368499.9, 6376.03, -0.037213176, 0.045829825, -1367665.8, -44532.14, 0.00013086536, 9.999322, 9.999979 
1.5350534e+3, 1.7498483e+2, -1328734.3, -1251029.9, 25700.088, 0.019181218, -0.10083414, -1243299.0, -18158.059, 0.0000010420176, 9.999174, 10.000171 
1.535057e+3, 1.8498449e+2, -1241990.9, -1272159.4, 41288.223, -0.011102498, -0.09177301, -1213117.8, -85973.734, 0.0, 9.999544, 9.999196 
1.5350603e+3, 1.9498432e+2, -1006752.6, -1082283.9, 65538.53, -0.09780902, -0.087285325, -968877.4, 60270.043, 0.0, 10.000385, 9.999414 
1.5350643e+3, 2.0498389e+2, -935256.6, -1098581.6, 340.8135, -0.07448882, -0.018028727, -935255.94, -4101.9897, 0.0, 10.000632, 9.9985075 
1.5350689e+3, 2.1498308e+2, -867485.9, -996133.9, -16978.879, 0.057637434, -0.0047962693, -865282.7, -32117.629, 0.0, 10.000357, 9.998663 
1.5350723e+3, 2.2498204e+2, -742045.75, -829744.7, -36251.81, 0.042190585, 0.009428117, -729000.9, 6174.2173, 0.0, 10.000293, 9.999178 
1.535075e+3, 2.349805e+2, -601704.3, -686659.2, -31249.406, -0.10315017, -0.11799146, -591447.94, 45738.625, 0.0, 10.000484, 9.999389 
1.5350789e+3, 2.4497978e+2, -537900.6, -606334.1, -59424.18, -0.10500411, -0.11815965, -503546.13, 35645.727, 0.0, 10.000283, 9.999349 
1.5350845e+3, 2.5497976e+2, -474747.0, -508027.22, -48629.145, 0.060331233, -0.11187138, -439989.78, 1202.5846, 0.0000004707298, 9.999978, 9.999493 
1.5350896e+3, 2.649792e+2, -356538.72, -462845.34, -22403.51, 0.09205288, -0.07911182, -352010.2, -8812.589, 0.0000086272985, 10.000339, 9.998978 
1.5350938e+3, 2.7497786e+2, -90821.34, -256267.33, 5497.2964, -0.00784323, -0.168987, -90638.88, 154571.69, 0.000052741245, 10.001403, 9.999196 
1.5350978e+3, 2.8497708e+2, 43460.86, -162363.27, -20788.492, -0.07590213, -0.15042078, 45539.53, 192757.05, 0.00024875673, 10.001709, 9.999048 
1.5351015e+3, 2.9497686e+2, 91009.31, -72006.12, 59813.234, -0.10482682, -0.14774776, 110601.21, 159819.47, 0.00082812813, 10.001293, 9.9991865 
1.5351062e+3, 3.0497682e+2, 80003.15, -198670.33, 42373.945, -0.04880582, 0.013385587, 86303.9, 86303.9, 0.0018930162, 10.001552, 9.997859 
1.53511e+3, 3.1497386e+2, 214373.22, -38350.62, 66169.39, -0.028472394, -0.14881954, 230649.73, 230649.73, 0.0033105733, 10.0020075, 9.998732 
1.5450346e+3, 1.24979906e+2, -1993722.0, -1769625.5, 5025.398, 0.13958028, 0.095943175, -1769512.9, -54316.17, 0.019406972, 9.997659, 10.000711 
1.5450379e+3, 1.3498043e+2, -1724368.1, -1565012.1, -44637.137, 0.03302913, -0.012386942, -1553360.8, 63825.914, 0.0117135905, 9.998771, 10.000923 
1.5450422e+3, 1.4497933e+2, -1788007.0, -1644662.0, -42459.965, 0.095194474, -0.14305846, -1633029.1, -113833.21, 0.0052204016, 9.998099, 10.00002 
1.5450452e+3, 1.5498178e+2, -1704967.5, -1487999.0, -29264.42, 0.030571118, 0.007052091, -1484121.1, -62947.137, 0.0014059248, 9.997714, 10.0006075 
1.5450493e+3, 1.6498245e+2, -1586550.9, -1449471.0, 9739.61, 0.049445547, 0.053031173, -1448782.4, -125614.5, 0.00014487762, 9.998164, 9.999971 
1.5450534e+3, 1.7498162e+2, -1253608.1, -1217886.9, -9561.337, 0.075100005, -0.08406719, -1215488.6, 9686.075, 0.000001197513, 9.999698, 10.000145 
1.5450571e+3, 1.8498139e+2, -1139955.0, -1215499.6, 34858.082, 0.021604791, -0.0644454, -1126328.5, 848.26196, 0.0, 10.000238, 9.999235 
1.5450604e+3, 1.9498149e+2, -1042968.56, -1087717.6, 18277.098, -0.09749536, -0.036584098, -1036452.4, -7275.5776, 0.0, 10.000114, 9.999493 
1.5450647e+3, 2.0498098e+2, -982633.25, -1143601.3, 5298.5215, -0.06910552, 0.030261554, -982459.0, -51275.098, 0.0, 10.000418, 9.998301 
1.54507e+3, 2.1497972e+2, -753816.7, -965759.3, 507.82373, 0.092534296, 0.022695124, -753815.44, 79384.02, 0.0, 10.001246, 9.998446 
1.5450737e+3, 2.2497827e+2, -602089.6, -773951.75, 38888.145, 0.10150765, 0.013812523, -593699.75, 141513.48, 0.0, 10.001334, 9.999042 
1.545076e+3, 2.3497643e+2, -565473.25, -678662.1, 19207.234, -0.048537172, -0.13073345, -562302.75, 74924.46, 0.0, 10.00081, 9.9992695 
1.5450798e+3, 2.4497561e+2, -493361.94, -622733.06, 40560.254, -0.044270173, -0.11751562, -481697.28, 57536.758, 0.000000000009610117, 10.000732, 9.999035 
1.5450856e+3, 2.549757e+2, -330836.25, -474122.0, 12621.89, 0.119996555, -0.06515599, -329732.88, 111502.24, 0.0000005675007, 10.001098, 9.999205 
1.5450905e+3, 2.6497522e+2, -223246.42, -377494.16, 85208.836, 0.13100027, -0.021846315, -185441.45, 157798.77, 0.000008574752, 10.001189, 9.999152 
1.5450947e+3, 2.7497375e+2, -130257.234, -266614.9, 59949.42, -0.028532926, -0.13440226, -107649.03, 137604.36, 0.00005426492, 10.001083, 9.999292 
1.5450992e+3, 2.8497314e+2, -33708.78, -179232.94, -4490.732, -0.067943506, -0.10898048, -33570.336, 113687.92, 0.00026286932, 10.001125, 9.999179 
1.5451038e+3, 2.9497355e+2, 105936.02, -48104.234, -69797.0, -0.0024159271, -0.056466226, 132856.84, 182110.83, 0.0008685198, 10.001356, 9.999291 
1.5451087e+3, 3.049733e+2, 203340.22, -98974.58, -40325.496, 0.045613125, 0.0608376, 208626.77, 208626.77, 0.001960017, 10.002206, 9.99824 
1.5451127e+3, 3.1497058e+2, 408375.88, 27208.465, -89501.04, -0.017365666, -0.10457691, 428345.22, 428345.22, 0.0033962065, 10.003434, 9.998507 
1.555031e+3, 1.2497189e+2, -1955310.6, -1730301.9, -72595.39, -0.09054888, -0.19470064, -1708913.3, 6356.616, 0.020587768, 9.997846, 10.00089 
1.5550376e+3, 1.3497572e+2, -1741838.4, -1580902.6, -31927.771, 0.09841534, 0.044565972, -1574800.0, 42434.24, 0.012455585, 9.998702, 10.00085 
1.5550412e+3, 1.4497483e+2, -1722837.6, -1537123.6, -92777.87, 0.12925938, -0.10010144, -1498716.9, 20526.885, 0.0055746003, 9.998201, 10.000716 
1.5550436e+3, 1.5497662e+2, -1662538.1, -1399998.5, -24802.803, 0.05027879, -0.081218764, -1397675.9, 23549.984, 0.001515748, 9.997721, 10.001207 
1.5550478e+3, 1.6497768e+2, -1563191.0, -1429454.9, 46751.484, 0.033638876, -0.028103163, -1414732.3, -91517.13, 0.00016035176, 9.998277, 10.00006 
1.5550536e+3, 1.7497765e+2, -1256705.8, -1212614.0, 60655.008, 0.09198683, -0.089160144, -1170122.6, 55092.82, 0.0000013687348, 9.999648, 10.000208 
1.5550579e+3, 1.8497781e+2, -1146618.1, -1215237.5, 8150.4976, 0.039717115, -0.035209544, -1145663.4, -18448.766, 0.0, 10.000185, 9.99926 
1.5550606e+3, 1.9497809e+2, -1072904.6, -1105105.5, 30453.87, -0.11993804, 0.01141792, -1054557.1, -25343.414, 0.0, 9.999937, 9.999454 
1.5550648e+3, 2.049775e+2, -973668.7, -1093942.5, 16139.665, -0.14353186, 0.05294049, -971540.56, -40320.047, 0.0, 10.000265, 9.998725 
1.5550704e+3, 2.1497588e+2, -754522.44, -917556.1, 50300.67, -0.013335039, -0.032747827, -740252.25, 92984.34, 0.0, 10.001018, 9.998898 
1.5550749e+3, 2.249749e+2, -640944.9, -785527.4, 392.71558, 0.048407964, -0.020906907, -640943.8, 94301.21, 0.0, 10.001036, 9.999105 
1.5550782e+3, 2.3497428e+2, -600837.3, -699009.1, 16953.014, 0.06250679, -0.04944543, -597992.2, 39256.582, 0.0, 10.000573, 9.99925 
1.5550816e+3, 2.4497354e+2, -556920.5, -689422.94, 38521.64, 0.015939029, -0.01060387, -546535.3, -7279.523, 0.0, 10.000448, 9.998715 
1.555085e+3, 2.5497258e+2, -386882.13, -534601.44, 45344.043, -0.06385712, -0.036243066, -374073.84, 67193.93, 0.0000005355393, 10.0008545, 9.998908 
1.5550897e+3, 2.6497212e+2, -270620.7, -411826.44, 65750.48, -0.10532193, 0.030187368, -244746.14, 98526.57, 0.000008556659, 10.000919, 9.999041 
1.5550953e+3, 2.7497202e+2, -180138.36, -304577.44, 81471.06, -0.10377197, 0.060594037, -139845.44, 105426.91, 0.000056489618, 10.000809, 9.999156 
1.5551005e+3, 2.849711e+2, -165394.95, -383902.0, -12858.988, -0.079524085, 0.12486378, -164640.81, -17358.834, 0.00027893353, 10.0008335, 9.997911 
1.5551053e+3, 2.949692e+2, -22229.875, -240927.5, -36419.836, -0.0318733, 0.0712252, -16324.329, 32978.77, 0.0009153457, 10.001051, 9.998107 
1.5551102e+3, 3.0496737e+2, 180508.27, -64076.215, -12894.701, -0.051944166, 0.06398431, 181186.2, 181186.2, 0.0020539248, 10.001874, 9.99863 
1.5551144e+3, 3.1496593e+2, 310160.38, -13115.164, 3163.1833, -0.25515288, -0.018465437, 310191.34, 310191.34, 0.0035508792, 10.002776, 9.998526 
1.56503e+3, 1.249672e+2, -1865501.4, -1714990.9, 18740.498, 0.0139654325, -0.2589446, -1712692.6, 2621.1072, 0.021849003, 9.998584, 10.000653 
1.5650362e+3, 1.3497192e+2, -1915797.5, -1660664.3, 5589.302, 0.1492177, 0.0836667, -1660541.9, -43269.68, 0.013250772, 9.997492, 10.000891 
1.5650395e+3, 1.4497088e+2, -1771770.5, -1555450.1, 19367.717, 0.16621275, -0.08955485, -1553729.8, -34445.04, 0.0059556314, 9.997856, 10.000748 
1.5650423e+3, 1.5497257e+2, -1367368.4, -1272803.5, -11016.647, 0.064483404, -0.07187336, -1271537.0, 149730.88, 0.0016345053, 9.999813, 10.001066 
1.5650469e+3, 1.6497365e+2, -1302302.5, -1324351.3, 45839.582, 0.030520642, -0.003342077, -1266180.3, 57077.44, 0.00017771397, 10.000142, 9.999894 
1.5650536e+3, 1.7497364e+2, -1301921.5, -1251347.9, 15118.432, 0.1408697, -0.04451253, -1247173.1, -21914.283, 0.0000016137079, 9.999382, 10.000082 
1.5650585e+3, 1.8497388e+2, -1240391.1, -1228882.3, 6802.8105, 0.12839445, 0.00572809, -1225726.5, -98469.23, 0.0, 9.99939, 9.999557 
1.5650614e+3, 1.9497427e+2, -983144.0, -1033010.2, 16915.447, -0.051613506, 0.033321027, -977947.56, 51306.348, 0.0, 10.000397, 9.99974 
1.5650657e+3, 2.049738e+2, -897276.9, -1017629.6, 43183.414, -0.095110625, 0.05874758, -883385.7, 47872.47, 0.0, 10.000674, 9.999025 
1.5650713e+3, 2.1497238e+2, -795042.9, -891915.4, 25101.2, 0.002948568, -0.040715534, -788925.1, 44345.87, 0.0, 10.000602, 9.999247 
1.5650758e+3, 2.2497159e+2, -706823.6, -840618.44, -19541.604, 0.07226817, -0.018375957, -704027.9, 31250.05, 0.0, 10.00065, 9.998933 
1.5650792e+3, 2.3497126e+2, -576643.94, -697681.06, -45079.316, 0.11348595, -0.002629169, -561699.6, 75580.99, 0.0, 10.000771, 9.999165 
1.5650827e+3, 2.4497053e+2, -475445.44, -662172.9, 35628.137, 0.063708015, 0.04514934, -468878.44, 70409.164, 0.0, 10.001042, 9.998622 
1.5650861e+3, 2.549692e+2, -302642.47, -501712.75, 23106.398, -0.079235524, -0.0054433662, -299995.66, 141305.55, 0.00000039469393, 10.001461, 9.998837 
1.5650907e+3, 2.6496828e+2, -195439.66, -421930.03, 51645.832, -0.12481922, 0.034067385, -184218.94, 159091.28, 0.000008163994, 10.001632, 9.998631 
1.5650965e+3, 2.7496746e+2, -107564.01, -314772.56, 541.07947, -0.07680078, 0.04045159, -107562.6, 137754.05, 0.000058543963, 10.001499, 9.9987545 
1.5651022e+3, 2.8496608e+2, -66078.95, -387897.75, -11752.705, -0.024313776, 0.102707915, -65650.32, 81680.91, 0.00029613846, 10.001729, 9.9974785 
1.5651076e+3, 2.9496396e+2, 147045.97, -209916.4, -24665.217, 0.032817367, 0.077654935, 148742.22, 198097.63, 0.00096601876, 10.002409, 9.997692 
1.5651128e+3, 3.0496126e+2, 243339.9, -30906.81, 45879.266, 0.011216747, 0.002522814, 250811.58, 250811.58, 0.0021664368, 10.002276, 9.998663 
1.5651171e+3, 3.1496072e+2, 75572.42, -134956.1, -49506.2, -0.16192639, 0.015827972, 86632.83, 86632.83, 0.0037575373, 10.001128, 9.998505 
1.5750308e+3, 1.2496532e+2, -1879693.6, -1781239.5, -72706.79, 0.13897642, -0.13484365, -1742662.4, -27328.953, 0.023204513, 9.998719, 10.000142 
1.5750325e+3, 1.3496916e+2, -1897799.3, -1624872.4, -16999.12, -0.0039136815, 0.120993525, -1623817.8, -6518.31, 0.014108494, 9.997503, 10.001124 
1.5750366e+3, 1.4496787e+2, -1783710.4, -1622414.6, 68757.055, 0.03697009, -0.07987021, -1597083.1, -77768.195, 0.0063687824, 9.99803, 10.000209 
1.5750413e+3, 1.5496959e+2, -1442779.3, -1417419.9, 71832.45, -0.0585348, 0.039503187, -1357156.6, 64143.82, 0.00176415, 9.99977, 10.000093 
1.5750459e+3, 1.6497025e+2, -1313651.5, -1362245.4, -8231.462, -0.1294776, 0.13160883, -1312295.0, 11001.109, 0.00019721544, 10.000195, 9.999609 
1.5750526e+3, 1.7496963e+2, -1324537.9, -1290852.6, 3559.6743, 0.06983362, 0.050738797, -1290480.6, -65176.406, 0.0000019795527, 9.99935, 9.999825 
1.5750583e+3, 1.8496972e+2, -1191774.0, -1130980.6, 23923.055, 0.12139428, 0.06474778, -1122695.6, 4607.454, 0.0, 9.999393, 10.00023 
1.5750623e+3, 1.9497031e+2, -962724.5, -952310.25, 68550.98, -0.03971602, 0.048576318, -888768.94, 140526.0, 0.0, 10.000233, 10.000373 
1.5750667e+3, 2.049701e+2, -920623.56, -1023430.4, 18334.568, -0.09856821, 0.06573482, -917451.6, 13843.348, 0.0, 10.000479, 9.999082 
1.575072e+3, 2.1496896e+2, -832253.44, -911033.25, 36392.125, -0.01267078, -0.008986211, -818015.44, 15289.719, 0.0, 10.000349, 9.99924 
1.5750761e+3, 2.2496812e+2, -757266.3, -884655.8, -30862.877, 0.0048214444, 0.01589878, -750183.0, -14869.209, 0.0, 10.00039, 9.998753 
1.5750788e+3, 2.3496737e+2, -630445.4, -748133.9, -25221.32, -0.038778562, 0.009830969, -625268.06, 12054.81, 0.0, 10.000507, 9.998945 
1.5750827e+3, 2.449666e+2, -513781.22, -668841.3, 32541.338, -0.06490655, 0.057424173, -507228.88, 32100.643, 0.0, 10.000728, 9.998725 
1.5750879e+3, 2.549656e+2, -337514.7, -511884.16, 56263.62, -0.065749824, 0.027185515, -320936.38, 120399.305, 0.00000029448665, 10.001193, 9.998892 
1.5750931e+3, 2.6496366e+2, -293629.72, -561528.4, 27466.854, -0.077910066, 0.0044135554, -290842.6, 52510.164, 0.000007127328, 10.001352, 9.99781 
1.575098e+3, 2.7496025e+2, -196137.4, -442098.22, 16860.133, -0.10959481, -0.17503428, -194987.06, 50398.36, 0.000059012113, 10.001262, 9.997994 
1.5751037e+3, 2.849582e+2, -82731.66, -369910.38, -5894.9697, -0.083522536, -0.15173708, -82610.695, 64794.78, 0.00030982727, 10.001495, 9.997715 
1.5751101e+3, 2.9495788e+2, 110695.25, -203445.56, 31368.678, 0.016309675, -0.027799267, 113796.96, 163207.16, 0.0010139579, 10.002059, 9.997902 
1.5751158e+3, 3.0495504e+2, 163178.7, -108209.32, -11251.866, 0.04386742, -0.10555548, 163644.4, 163644.4, 0.002282277, 10.001915, 9.998288 
1.5751196e+3, 3.1495488e+2, -15805.64, -170510.16, -31768.242, -0.08106728, -0.033021245, -9536.172, -9536.172, 0.0039791334, 10.000505, 9.998531 
1.585029e+3, 1.2496196e+2, -2142250.5, -1883379.1, -86065.266, 0.19949597, -0.029801287, -1857377.3, -142006.58, 0.024665277, 9.996821, 10.000335 
1.5850307e+3, 1.3496482e+2, -1709661.9, -1526245.4, -86497.23, 0.009273466, 0.12066547, -1491889.4, 125453.89, 0.0150364665, 9.998744, 10.001208 
1.5850353e+3, 1.4496365e+2, -1592933.5, -1573446.5, 18859.078, 0.03349867, -0.06029515, -1561962.6, -42605.277, 0.0068181083, 9.99951, 9.999838 
1.5850408e+3, 1.5496504e+2, -1624912.1, -1558960.1, 11714.601, -0.01332321, 0.07493469, -1556941.1, -135593.19, 0.0019058621, 9.998723, 9.999635 
1.5850456e+3, 1.6496573e+2, -1541984.4, -1432057.8, -4914.1245, -0.08565, 0.17527242, -1431838.5, -108494.875, 0.0002187055, 9.998477, 9.999949 
1.5850517e+3, 1.7496555e+2, -1308181.5, -1237586.9, 9049.711, 0.05961391, 0.10185472, -1236445.3, -11099.11, 0.000002466339, 9.999291, 10.000212 
1.5850577e+3, 1.8496573e+2, -1173883.6, -1114663.0, 78572.94, 0.13921493, 0.103085265, -1060306.3, 67037.41, 0.0, 9.999495, 10.000289 
1.5850629e+3, 1.94966e+2, -1073341.3, -996781.9, 43813.414, 0.045540754, 0.05111569, -976881.25, 52457.39, 0.0, 9.999436, 10.000447 
1.5850677e+3, 2.0496589e+2, -1014638.75, -1038574.5, 17204.678, -0.006369222, 0.056204107, -1005648.75, -74311.35, 0.0, 9.999666, 9.999387 
1.5850726e+3, 2.1496521e+2, -806236.25, -865831.3, 27278.094, 0.019469218, -0.00518915, -795635.94, 37706.023, 0.0, 10.000335, 9.999574 
1.5850767e+3, 2.2496442e+2, -709729.1, -895149.1, 5985.252, 0.016704213, 0.024718098, -709536.1, 25814.2, 0.0, 10.0009, 9.99843 
1.5850799e+3, 2.3496336e+2, -489272.7, -721423.4, -37385.055, -0.035476208, 0.028060788, -483400.8, 153963.5, 0.0, 10.001657, 9.9985895 
1.585084e+3, 2.4496229e+2, -369602.03, -592313.5, 23943.986, -0.042987615, 0.06342178, -367056.88, 172316.98, 0.0, 10.001709, 9.998768 
1.5850894e+3, 2.5496116e+2, -346700.5, -515369.72, 1063.6437, -0.016991992, 0.02063593, -346693.78, 94685.55, 0.00000023115544, 10.001132, 9.998902 
1.5850948e+3, 2.6495892e+2, -338303.44, -621303.9, 42706.516, -0.015218925, -0.011657341, -331999.2, 11399.789, 0.0000061293663, 10.001218, 9.997456 
1.5851003e+3, 2.749551e+2, -90250.83, -427610.22, 20846.275, -0.052803546, -0.19330704, -88967.56, 156469.28, 0.000060026516, 10.002159, 9.99765 
1.5851057e+3, 2.8495315e+2, 31353.824, -290413.22, 24209.031, -0.04520055, -0.16026463, 33165.063, 180621.34, 0.0003212461, 10.00218, 9.997915 
1.5851116e+3, 2.9495314e+2, 5714.5513, -231374.61, 7996.8447, 0.012823639, -0.022693083, 5983.9727, 55439.99, 0.0010570007, 10.001225, 9.998103 
1.5851174e+3, 3.049502e+2, 86402.336, -172793.31, 27461.654, 0.05568411, -0.11197722, 89279.94, 89279.94, 0.0023875397, 10.00147, 9.998083 
1.585123e+3, 3.1495008e+2, 325103.78, 35848.93, -71982.13, 0.10826427, -0.000116484705, 342026.72, 342026.72, 0.004173247, 10.002648, 9.99894 
1.595025e+3, 1.2495752e+2, -2046315.0, -1753983.5, -61432.85, 0.018466275, 0.03559512, -1741598.3, -26176.447, 0.026239868, 9.997074, 10.001121 
1.5950306e+3, 1.3495934e+2, -1734827.3, -1579081.4, 25742.594, 0.09442035, 0.093906075, -1574936.8, 42463.492, 0.016040104, 9.9987545, 10.00083 
1.5950345e+3, 1.4495805e+2, -1582106.4, -1598793.1, -31509.527, -0.06291418, -0.050817806, -1557854.4, -38440.73, 0.0073062, 9.999695, 9.999582 
1.5950406e+3, 1.5495923e+2, -1612473.6, -1547200.4, -4576.4307, 0.035718005, 0.05350891, -1546881.0, -125473.53, 0.002060233, 9.998774, 9.999696 
1.5950453e+3, 1.6496052e+2, -1462028.4, -1291734.1, -1189.579, -0.007043597, 0.16549541, -1291725.8, 31670.361, 0.00024185247, 9.998581, 10.000865 
1.5950505e+3, 1.7496155e+2, -1255970.5, -1119548.4, 53777.16, -0.019598661, 0.12729956, -1100899.0, 124484.15, 0.0000030340082, 9.999251, 10.00104 
1.5950564e+3, 1.8496189e+2, -1209217.0, -1187613.0, 55818.277, 0.012247126, 0.12562494, -1141561.1, -14182.132, 0.0, 9.999487, 9.999792 
1.5950626e+3, 1.9496137e+2, -1133772.1, -1083545.6, 58437.797, 0.053850383, 0.04477071, -1045053.44, -15668.519, 0.0, 9.99928, 9.999924 
1.5950678e+3, 2.0496128e+2, -992639.7, -952732.56, 24805.725, 0.020230578, 0.04768723, -940851.06, -9467.108, 0.0, 9.999492, 10.000058 
1.5950724e+3, 2.149614e+2, -801658.9, -787156.6, 67739.266, -0.045554694, -0.004507551, -726281.5, 107097.14, 0.0, 10.000046, 10.000251 
1.5950772e+3, 2.249608e+2, -787333.94, -996823.1, 15948.27, -0.060021497, 0.03769537, -786126.75, -50741.953, 0.0, 10.000628, 9.997866 
1.5950818e+3, 2.3495932e+2, -572729.44, -830931.1, 13622.773, -0.023834253, 0.05262428, -572012.7, 65391.46, 0.0, 10.001375, 9.997974 
1.595086e+3, 2.4495777e+2, -424933.25, -636582.94, -10405.12, -0.03982721, 0.07890173, -424422.94, 114996.1, 0.0, 10.001409, 9.998604 
1.59509e+3, 2.549559e+2, -399596.72, -551340.6, -1894.7896, -0.085030414, -0.026530927, -399573.06, 41858.867, 0.00000009760233, 10.0008335, 9.998786 
1.5950957e+3, 2.6495403e+2, -379324.38, -647403.9, 61930.137, -0.09176772, -0.011865554, -365709.13, -22260.23, 0.0000054247644, 10.000954, 9.997405 
1.5951027e+3, 2.7495208e+2, -136503.75, -459602.38, 80002.99, -0.05903077, -0.013137373, -117779.23, 127692.09, 0.0000627863, 10.001875, 9.997567 
1.5951079e+3, 2.8495064e+2, -14116.263, -299680.34, -31091.816, -0.082449414, 0.073512726, -10770.236, 136715.6, 0.0003316825, 10.001826, 9.998019 
1.5951115e+3, 2.949493e+2, -34128.242, -232542.2, 1614.8099, -0.16628034, 0.06474736, -34115.1, 15381.632, 0.0010854213, 10.000888, 9.998255 
1.5951172e+3, 3.049464e+2, 16758.264, -228147.64, 52946.863, -0.14537351, -0.016504142, 27714.816, 27714.816, 0.002452569, 10.001108, 9.9978695 
1.595126e+3, 3.1494656e+2, 272305.06, 81283.93, 30370.102, 0.08907386, 0.13869938, 277017.3, 277017.3, 0.0042847013, 10.002022, 9.999543 
1.6050225e+3, 1.249529e+2, -1812782.6, -1585166.4, 33458.94, 0.017472971, 0.07248736, -1580349.9, 135119.8, 0.027939666, 9.998455, 10.001646 
1.6050293e+3, 1.3495372e+2, -1819188.0, -1643043.3, 40785.22, 0.12241898, 0.053236414, -1634058.0, -16600.88, 0.01712635, 9.998305, 10.000604 
1.6050337e+3, 1.4495301e+2, -1817907.8, -1673166.4, 31317.266, -0.010716936, -0.028671598, -1666680.9, -147217.88, 0.007836914, 9.9979515, 9.999892 
1.6050394e+3, 1.5495393e+2, -1542360.4, -1454159.3, 38882.215, 0.05027601, 0.00031961253, -1439466.3, -18009.232, 0.0022287087, 9.999031, 10.000194 
1.6050446e+3, 1.6495511e+2, -1370827.3, -1269104.5, 64513.3, 0.03396146, 0.083783336, -1237814.5, 85631.52, 0.00026665046, 9.999307, 10.000662 
1.6050497e+3, 1.7495617e+2, -1267952.3, -1145311.8, 4602.802, -0.019568447, 0.069628544, -1145139.3, 80294.695, 0.0000036433328, 9.999259, 10.000854 
1.6050556e+3, 1.8495671e+2, -1273982.9, -1219600.9, 3901.6497, 0.013108489, 0.098991364, -1219322.4, -91893.875, 0.0, 9.999038, 9.999789 
1.6050622e+3, 1.9495647e+2, -1172778.4, -1099360.9, 9138.608, 0.09615989, 0.03925831, -1098240.4, -68808.125, 0.0, 9.998974, 9.999967 
1.6050678e+3, 2.0495647e+2, -1010628.1, -964599.8, 41118.043, 0.078079596, 0.049533688, -940493.44, -9061.828, 0.0, 9.999404, 10.000016 
1.6050728e+3, 2.1495658e+2, -727480.44, -749020.75, -9450.598, -0.041267496, 0.006207968, -723921.94, 109505.586, 0.0, 10.000572, 10.000249 
1.605078e+3, 2.2495613e+2, -671246.06, -892385.06, -30278.7, -0.06076654, 0.04111611, -667175.2, 68256.664, 0.0, 10.001204, 9.998303 
1.6050835e+3, 2.3495498e+2, -537058.44, -750489.6, 7786.3237, 0.012246323, 0.04081365, -536774.75, 100670.63, 0.0, 10.001358, 9.998514 
1.6050881e+3, 2.4495354e+2, -429076.75, -685893.06, 28109.547, 0.021493528, 0.06800894, -426036.06, 113423.664, 0.0, 10.00159, 9.998183 
1.605092e+3, 2.549514e+2, -256133.42, -530524.1, -18697.402, -0.02132535, -0.013303681, -254865.22, 186612.84, 0.000000007673713, 10.002017, 9.998367 
1.6050977e+3, 2.6494956e+2, -220207.38, -557094.06, 87028.56, -0.03439019, 0.016384088, -199053.42, 144442.64, 0.0000049768487, 10.001979, 9.997542 
1.6051047e+3, 2.7494806e+2, -191565.4, -476791.28, 65632.14, -0.022388417, 0.056193016, -177187.81, 68325.45, 0.00006482946, 10.001438, 9.997683 
1.6051099e+3, 2.8494644e+2, -42114.664, -311370.78, -1782.4631, -0.04918528, 0.11959711, -42102.863, 105425.445, 0.00033743004, 10.001575, 9.998084 
1.6051134e+3, 2.9494438e+2, 203841.16, -108100.57, -22261.438, -0.12809929, 0.034016233, 205421.81, 254966.55, 0.0010902435, 10.002461, 9.998367 
1.605119e+3, 3.0494174e+2, 194598.25, -192134.95, 73594.74, -0.12362272, -0.0077962955, 208129.77, 208129.77, 0.0024558213, 10.002549, 9.997421 
1.6051283e+3, 3.1494102e+2, 223572.73, 39400.223, -58930.902, 0.1617894, 0.113724805, 240815.02, 240815.02, 0.004284109, 10.001719, 9.999419 
1.6150217e+3, 1.2494847e+2, -1767961.0, -1569155.4, 38223.484, -0.006753903, 0.12140687, -1562059.5, 153451.28, 0.02978273, 9.998765, 10.001619 
1.615026e+3, 1.3494831e+2, -1812775.8, -1644862.8, 13853.867, -0.07601217, 0.01909107, -1643727.4, -26216.754, 0.018308382, 9.998364, 10.000567 
1.6150323e+3, 1.4494911e+2, -1737094.9, -1538528.9, 44568.047, -0.008800226, 0.044980425, -1528984.4, -9483.996, 0.008418617, 9.99808, 10.00076 
1.6150372e+3, 1.5494919e+2, -1483549.3, -1339270.8, 96820.18, -0.11821155, -0.08682153, -1290669.6, 130826.69, 0.0024150687, 9.999058, 10.000974 
1.6150427e+3, 1.6494939e+2, -1434608.3, -1440662.4, 37938.227, -0.1422731, -0.079036355, -1399576.5, -76081.71, 0.0002938315, 9.999462, 9.999413 
1.6150486e+3, 1.749495e+2, -1356836.0, -1331419.0, 15747.097, -0.07718006, -0.065053165, -1323892.0, -98394.19, 0.000004294035, 9.999251, 9.999586 
1.6150548e+3, 1.8495023e+2, -1237954.0, -1143909.6, -18391.768, -0.027624598, 0.022602148, -1140440.8, -12948.554, 0.0, 9.999035, 10.000307 
1.6150607e+3, 1.9495131e+2, -1151202.3, -1033432.1, 22086.734, 0.031229211, 0.042400543, -1029426.2, 54.36146, 0.0, 9.99888, 10.000466 
1.6150668e+3, 2.0495151e+2, -1094072.6, -1092784.1, 61959.754, -0.0013669988, 0.08555034, -1031465.3, -99985.92, 0.0, 9.999211, 9.999227 
1.615073e+3, 2.149507e+2, -823258.0, -888750.9, 49772.168, -0.104266346, 0.027001906, -796425.94, 37063.652, 0.0, 10.000323, 9.999408 
1.6150787e+3, 2.2495036e+2, -620047.4, -702302.75, -42844.676, -0.13415769, 0.04436917, -601785.2, 133706.81, 0.0, 10.000856, 9.999769 
1.6150841e+3, 2.349503e+2, -480604.56, -557862.2, 32249.055, -0.08179018, 0.0027404076, -468912.53, 168576.22, 0.0, 10.001046, 9.999983 
1.6150895e+3, 2.4494942e+2, -517820.2, -810368.2, 24112.072, -0.036154047, 0.049909253, -515846.2, 23651.021, 0.0, 10.001317, 9.997464 
1.6150948e+3, 2.5494757e+2, -347525.75, -657582.0, 19740.078, 0.019943407, 0.058233317, -346274.03, 95244.6, 0.00000000987263, 10.001741, 9.997626 
1.6151e+3, 2.6494548e+2, -259575.05, -560832.94, 47513.54, -0.011198953, 0.091460906, -252259.02, 91281.195, 0.000004852571, 10.001652, 9.997665 
1.6151054e+3, 2.749428e+2, -219878.53, -471621.75, 70214.66, -0.11813244, -0.003942012, -201619.1, 43946.004, 0.00006465758, 10.00118, 9.99783 
1.615111e+3, 2.8494048e+2, -91390.66, -344271.53, 9582.028, -0.13494706, -0.009408448, -91028.1, 56556.063, 0.0003366383, 10.001277, 9.998002 
1.6151169e+3, 2.9493862e+2, 151592.16, -139456.17, 38474.668, -0.06412739, -0.07899097, 156592.36, 206189.75, 0.0010768002, 10.002126, 9.998315 
1.6151223e+3, 3.0493596e+2, 77456.98, -339733.6, 20215.729, -0.07878789, -0.076648034, 78434.27, 78434.27, 0.0024103972, 10.002162, 9.9965725 
1.6151288e+3, 3.149336e+2, 68512.97, -112490.16, -13082.237, -0.030628892, -0.04535938, 69453.62, 69453.62, 0.004189569, 10.001051, 9.998658 
1.6250207e+3, 1.2494328e+2, -2120153.8, -1790471.1, 53967.387, 0.13076216, 0.11438003, -1781861.8, -66302.87, 0.03179242, 9.996602, 10.00108 
1.6250244e+3, 1.3494274e+2, -1813464.5, -1668775.1, -13441.491, -0.054858368, -0.016578468, -1667537.0, -49971.137, 0.019603958, 9.998439, 10.000359 
1.6250314e+3, 1.4494468e+2, -1663968.0, -1488017.3, 19532.691, 0.0826416, 0.12835668, -1485875.0, 33670.43, 0.009062119, 9.998543, 10.00087 
1.6250359e+3, 1.5494455e+2, -1614111.6, -1381654.3, -6872.7466, -0.10355642, -0.039856482, -1381451.3, 40090.96, 0.002624408, 9.998088, 10.001139 
1.6250415e+3, 1.6494441e+2, -1625357.3, -1546838.0, -6088.9194, -0.13402465, -0.06568549, -1546368.6, -222825.38, 0.00032476612, 9.9982195, 9.999285 
1.6250484e+3, 1.7494428e+2, -1374488.6, -1346482.3, 16780.568, -0.024710929, -0.06759122, -1338629.6, -113080.95, 0.000005034694, 9.999169, 9.999516 
1.6250545e+3, 1.8494472e+2, -1141646.8, -1127132.0, 33103.65, 0.011980988, 0.008687585, -1100499.5, 27046.219, 0.0, 9.999828, 10.000047 
1.6250598e+3, 1.9494557e+2, -928917.94, -943104.7, -18454.39, -0.028507426, 0.02962171, -916240.6, 113295.55, 0.0, 10.00051, 10.000293 
1.625066e+3, 2.0494583e+2, -927906.0, -1018408.6, 49564.2, -0.053614005, 0.0883511, -906043.3, 25491.234, 0.0, 10.000357, 9.999195 
1.6250733e+3, 2.1494524e+2, -957024.6, -959710.25, 62629.613, -0.059037354, 0.056306854, -895723.44, -62180.035, 0.0, 9.999405, 9.999377 
1.6250797e+3, 2.24945e+2, -824976.7, -771403.7, 4315.0063, -0.05349943, 0.071205065, -771058.3, -35512.793, 0.0, 9.999312, 10.000039 
1.625085e+3, 2.3494488e+2, -595402.6, -584969.44, -49975.566, -0.053304084, -0.0006631543, -539938.94, 97604.086, 0.0, 10.000124, 10.000243 
1.6250908e+3, 2.4494429e+2, -542415.7, -795146.7, -27812.775, -0.0026278202, 0.051183626, -539391.1, 157.84726, 0.0, 10.00103, 9.997705 
1.6250972e+3, 2.5494307e+2, -282209.1, -601935.94, -5623.3213, 0.086674385, 0.102973394, -282110.22, 159454.69, 0.000000011745934, 10.002073, 9.997852 
1.6251028e+3, 2.649411e+2, -141248.03, -488707.1, 53311.195, 0.0666033, 0.13044101, -133252.4, 210332.33, 0.0000048598445, 10.0024, 9.997806 
1.6251074e+3, 2.7493796e+2, -84925.52, -393657.4, 31451.662, -0.05791513, -0.016890768, -81754.01, 163857.89, 0.00006306325, 10.002044, 9.997951 
1.6251132e+3, 2.849354e+2, -7779.474, -327941.53, 42488.195, -0.06786305, -0.043912154, -2236.8855, 145396.55, 0.00033149842, 10.001976, 9.997762 
1.6251197e+3, 2.9493344e+2, 155165.3, -169682.4, -7104.505, 0.019140942, -0.09342577, 155320.6, 204970.23, 0.0010554205, 10.002295, 9.998017 
1.6251251e+3, 3.049311e+2, 165955.25, -276317.28, 23962.133, -0.031360354, -0.05878865, 167249.72, 167249.72, 0.002341055, 10.002649, 9.996791 
1.6251309e+3, 3.1492856e+2, 337497.38, -5991.9766, -8326.93, -0.013972807, -0.056431673, 337699.13, 337699.13, 0.004036234, 10.002936, 9.998516 
1.6350159e+3, 1.2493673e+2, -2144269.0, -1882034.3, -99434.13, -0.10360093, -0.023505587, -1848594.9, -132975.48, 0.03398967, 9.996772, 10.000371 
1.635024e+3, 1.3493687e+2, -1839456.0, -1725866.0, 60465.68, 0.013251753, -0.062223718, -1699704.5, -82080.82, 0.02102759, 9.998461, 9.999952 
1.6350307e+3, 1.4493965e+2, -1673505.4, -1560233.6, -33759.082, 0.09071394, 0.22090335, -1550935.5, -31336.553, 0.009775217, 9.998744, 10.00029 
1.6350347e+3, 1.5494011e+2, -1641119.1, -1449505.3, -11981.917, -0.07135275, 0.15861328, -1448758.9, -27165.188, 0.002860367, 9.998131, 10.000659 
1.6350403e+3, 1.6494028e+2, -1537603.8, -1387091.0, 6503.403, -0.12220823, 0.13326111, -1386810.5, -63219.836, 0.00036087315, 9.998305, 10.000344 
1.6350481e+3, 1.7494036e+2, -1307733.8, -1206319.6, 63543.91, -0.0033218435, 0.05756627, -1175730.8, 49857.188, 0.000005927034, 9.999159, 10.000484 
1.6350542e+3, 1.8494008e+2, -1201549.8, -1258054.4, 35850.37, -0.03361512, 0.055780564, -1184157.4, -56567.2, 0.0, 9.999853, 9.999139 
1.6350585e+3, 1.9493912e+2, -1011010.3, -1086868.5, 22386.459, -0.22355507, -0.013659752, -1004896.56, 24703.637, 0.0, 10.000392, 9.999367 
1.6350648e+3, 2.0493919e+2, -904321.1, -922920.3, -3519.2788, -0.23572342, 0.03680535, -903677.5, 27922.12, 0.0, 10.000155, 9.999951 
1.635073e+3, 2.149401e+2, -936982.9, -866934.56, 46806.875, -0.050480455, 0.07813671, -843498.7, -9908.191, 0.0, 9.999178, 10.000128 
1.6350797e+3, 2.2493999e+2, -946020.25, -943673.1, 17953.553, 0.003423109, 0.12181931, -926854.9, -191261.97, 0.0, 9.998979, 9.999012 
1.6350853e+3, 2.3493874e+2, -707057.7, -750730.3, -1625.202, -0.048529305, 0.0327375, -706997.3, -69389.234, 0.0, 9.999846, 9.999232 
1.6350918e+3, 2.449381e+2, -519754.47, -665868.4, -8761.7705, -0.0387947, 0.077721514, -519230.97, 20384.623, 0.0, 10.000684, 9.998756 
1.635099e+3, 2.5493792e+2, -243931.64, -457394.97, 53382.625, 0.02956793, 0.12528224, -231326.16, 210290.98, 0.000000006263202, 10.00181, 9.998964 
1.6351052e+3, 2.6493657e+2, -173223.22, -501279.22, 20921.133, 0.035444412, 0.15798815, -171894.39, 171734.02, 0.000005059976, 10.002151, 9.997847 
1.6351104e+3, 2.7493376e+2, -117103.3, -402210.2, 46321.555, -0.001026574, 0.027018394, -109766.21, 135885.88, 0.000060994436, 10.0017805, 9.998021 
1.6351157e+3, 2.8493112e+2, -101298.87, -440050.75, 35203.23, -0.040456027, 0.016979823, -97679.21, 49997.32, 0.0003219481, 10.00164, 9.997146 
1.6351216e+3, 2.9492858e+2, 56501.06, -287046.88, 36131.31, -0.073443174, -0.025091331, 60259.9, 109963.04, 0.0010251604, 10.001942, 9.997373 
1.6351266e+3, 3.049268e+2, 183720.5, -140381.19, 13186.23, -0.17701177, 0.049173944, 184256.11, 184256.11, 0.0022564982, 10.002238, 9.997919 
1.6351338e+3, 3.1492558e+2, 290268.44, 45387.336, 83000.586, -0.07978998, 0.05354247, 315749.44, 315749.44, 0.0038541702, 10.002316, 9.999159 
1.6450132e+3, 1.2493091e+2, -1926833.5, -1760312.3, -62824.96, -0.116274625, -0.02534257, -1739269.0, -23592.186, 0.036383986, 9.998227, 10.000504 
1.6450226e+3, 1.3493088e+2, -1934317.0, -1753408.9, 40867.684, 0.09190627, -0.09869763, -1744605.3, -126924.06, 0.022584815, 9.997732, 10.000125 
1.6450292e+3, 1.4493369e+2, -1852502.8, -1662002.9, 22774.771, 0.14462714, 0.18615416, -1659318.0, -139662.39, 0.010560797, 9.99758, 10.000157 
1.6450338e+3, 1.5493397e+2, -1555098.1, -1422101.5, 35702.027, 0.010181765, 0.117895134, -1413123.6, 8529.188, 0.0031241647, 9.998774, 10.000538 
1.6450399e+3, 1.6493425e+2, -1382079.3, -1318855.8, 74995.52, -0.043512028, 0.10930055, -1269081.9, 54567.44, 0.0004029895, 9.999421, 10.000271 
1.6450477e+3, 1.7493466e+2, -1217948.4, -1174328.1, 14899.496, 0.0038279928, 0.07790732, -1169724.6, 55918.95, 0.0000070009137, 9.999835, 10.000381 
1.6450539e+3, 1.8493444e+2, -1211013.3, -1248774.8, -3059.1838, -0.036500182, 0.08201316, -1210767.0, -83121.836, 0.0, 9.999734, 9.9992485 
1.6450587e+3, 1.9493322e+2, -1153576.5, -1142993.1, 21015.465, -0.19516659, -0.022599788, -1126613.4, -96956.3, 0.0, 9.999363, 9.999467 
1.6450652e+3, 2.0493309e+2, -992864.2, -955264.9, 38748.977, -0.17411852, -0.0035908713, -930995.9, 662.1527, 0.0, 9.999512, 10.000027 
1.6450733e+3, 2.1493386e+2, -764930.8, -767169.4, -66.14972, 0.017190568, 0.01153105, -764928.9, 68720.33, 0.0, 10.000309, 10.000247 
1.6450801e+3, 2.2493382e+2, -708830.1, -880665.06, 28647.816, 0.06485888, 0.078032345, -704179.9, 31471.51, 0.0, 10.0008135, 9.99858 
1.645086e+3, 2.3493281e+2, -570466.56, -738180.2, 16679.463, -0.02927626, 0.061368424, -568823.9, 68842.945, 0.0, 10.001, 9.998785 
1.6450928e+3, 2.4493222e+2, -437517.4, -589160.94, 44526.816, -0.021018453, 0.11769647, -425409.78, 114264.91, 0.0, 10.001086, 9.999088 
1.6451007e+3, 2.549318e+2, -320446.78, -463808.1, 8980.98, 0.057808213, 0.11154215, -319886.34, 121791.25, 0.000000005166704, 10.001143, 9.999248 
1.6451073e+3, 2.649306e+2, -280092.34, -529346.44, -36147.973, 0.083037525, 0.13913748, -274955.84, 68731.28, 0.000005473011, 10.00134, 9.998026 
1.6451125e+3, 2.7492845e+2, -96547.65, -365941.25, -58491.543, 0.043104358, 0.056745056, -84395.92, 161309.4, 0.000058881178, 10.001844, 9.998218 
1.6451178e+3, 2.8492612e+2, -32430.705, -422135.47, 639.6553, 0.0049790605, 0.07162008, -32429.656, 115298.17, 0.0003079229, 10.00217, 9.997037 
1.645124e+3, 2.9492345e+2, 70520.84, -295719.4, -11097.493, -0.020243052, 0.03888411, 70856.805, 120612.85, 0.0009851817, 10.002097, 9.997251 
1.6451293e+3, 3.049214e+2, 273253.4, -75856.75, 29984.584, -0.13105258, 0.077191874, 275810.03, 275810.03, 0.002165473, 10.002726, 9.99814 
1.6451369e+3, 3.1492034e+2, 496274.34, 129239.625, -65457.996, -0.03673897, 0.08195185, 507598.9, 507598.9, 0.0036801414, 10.003815, 9.999007 
1.6550134e+3, 1.2492638e+2, -1842810.0, -1642254.4, 83893.484, -0.008632138, 0.16579328, -1611789.0, 103936.33, 0.03897044, 9.998443, 10.0012455 
1.6550203e+3, 1.349252e+2, -1872850.8, -1628882.6, 23375.637, 0.04296882, -0.085542925, -1626663.1, -8929.321, 0.024272982, 9.997741, 10.000981 
1.6550264e+3, 1.4492698e+2, -1813012.4, -1600938.6, 38395.72, 0.046757195, 0.027847176, -1594201.1, -74487.39, 0.0114189135, 9.99767, 10.000531 
1.6550328e+3, 1.5492631e+2, -1538373.0, -1394466.5, 95072.76, -0.01202025, -0.15347043, -1347188.5, 74529.77, 0.0034161112, 9.998809, 10.000711 
1.6550395e+3, 1.6492647e+2, -1447239.6, -1484360.3, 67318.36, -0.071568646, -0.12136289, -1395969.9, -72251.914, 0.00045137366, 9.999539, 9.999082 
1.6550463e+3, 1.7492725e+2, -1300830.3, -1335794.5, 44310.883, -0.13893437, -0.0072362158, -1270677.5, -44962.754, 0.000008273259, 9.999794, 9.999289 
1.655053e+3, 1.8492778e+2, -1137041.3, -1100273.9, -33638.902, -0.15279199, 0.077221915, -1080323.0, 47387.656, 0.0, 9.9997425, 10.00027 
1.6550595e+3, 1.9492787e+2, -1098427.0, -1004574.0, 19234.422, -0.090938225, 0.0011197373, -1000785.06, 28922.457, 0.0, 9.99925, 10.000477 
1.6550665e+3, 2.0492752e+2, -1062079.0, -1054688.0, 51156.727, -0.04558923, -0.021284273, -1007093.44, -75383.66, 0.0, 9.999322, 9.999434 
1.6550738e+3, 2.1492645e+2, -840741.2, -866816.25, 45527.9, 0.0033737551, -0.13427243, -806420.9, 27299.113, 0.0, 10.000063, 9.9996805 
1.6550803e+3, 2.2492632e+2, -741602.0, -878836.56, 14854.045, -0.031043923, -0.05883817, -740012.6, -4289.558, 0.0, 10.000511, 9.99874 
1.655086e+3, 2.3492697e+2, -598106.25, -731940.6, 44580.39, -0.14413257, 0.07545555, -584616.2, 53104.297, 0.0, 10.000727, 9.998962 
1.6550931e+3, 2.4492656e+2, -520191.7, -683450.4, 33268.0, -0.13482425, 0.16578698, -513672.78, 26054.193, 0.0, 10.000758, 9.998596 
1.6551018e+3, 2.549248e+2, -399556.25, -554792.4, 29639.027, 0.027071632, 0.06768902, -394089.8, 47655.684, 0.00000000856411, 10.000848, 9.998754 
1.6551086e+3, 2.6492321e+2, -315842.88, -543517.56, -37259.914, 0.051721, 0.08213762, -309900.25, 33860.547, 0.0000057188686, 10.001067, 9.998066 
1.6551135e+3, 2.749218e+2, -123232.36, -367228.53, -14982.292, -0.07594563, 0.06567836, -122315.836, 123457.92, 0.00005720022, 10.001598, 9.998332 
1.6551192e+3, 2.8492016e+2, -57513.004, -392444.97, -24542.582, -0.108027704, 0.12212306, -55724.168, 92064.875, 0.0002952708, 10.001815, 9.997413 
1.6551265e+3, 2.949179e+2, 55476.5, -263561.5, 18964.9, -0.009778833, 0.08677306, 56599.895, 106410.34, 0.00095047243, 10.001813, 9.997613 
1.6551326e+3, 3.0491456e+2, 146669.33, -229863.27, 50812.684, -0.11709172, 0.02100234, 153405.92, 153405.92, 0.0020977922, 10.002288, 9.99728 
1.6551398e+3, 3.149121e+2, 321416.5, -84379.39, 48564.45, -0.21284242, -0.02767762, 327147.63, 327147.63, 0.003564112, 10.003173, 9.997844 
1.6650131e+3, 1.24919906e+2, -1997255.0, -1755709.5, 188122.03, 0.1792292, 0.14704855, -1652929.3, 62856.508, 0.041736465, 9.997547, 10.000888 
1.6650173e+3, 1.349193e+2, -1718852.6, -1527805.0, -15674.903, -0.054797072, -0.07478364, -1526527.5, 91260.81, 0.026087236, 9.998657, 10.00125 
1.6650246e+3, 1.4492013e+2, -1695273.9, -1568171.6, 18961.566, 0.07156263, -0.056650598, -1565403.3, -45625.043, 0.012349877, 9.998605, 10.000288 
1.665032e+3, 1.5491983e+2, -1477566.6, -1384047.8, 14744.927, 0.023735832, -0.18260212, -1381778.0, 40002.645, 0.003737191, 9.99932, 10.0005245 
1.6650394e+3, 1.6492024e+2, -1452424.1, -1460893.4, 28697.928, -0.023804946, -0.12441807, -1427650.0, -103872.21, 0.00050616945, 9.999408, 9.999298 
1.6650455e+3, 1.7492081e+2, -1401506.1, -1365608.1, 65499.453, -0.14445767, -0.054328974, -1315642.9, -89867.36, 0.000009797576, 9.999001, 9.999473 
1.6650523e+3, 1.8492132e+2, -1278706.9, -1166630.0, 39138.227, -0.13288726, 0.02156768, -1154315.6, -26544.36, 0.0, 9.998789, 10.00026 
1.6650596e+3, 1.9492184e+2, -1091117.3, -996374.06, -19559.254, 0.0069627212, -0.015259789, -992494.94, 37269.938, 0.0, 9.9993, 10.000494 
1.665067e+3, 2.049216e+2, -1003110.7, -1072057.5, 43878.69, 0.05543553, -0.007563965, -981783.06, -50015.78, 0.0, 9.999931, 9.999024 
1.6650741e+3, 2.1492043e+2, -762434.94, -876334.25, 16507.203, 0.006685314, -0.08531317, -760090.8, 73689.51, 0.0, 10.000803, 9.999261 
1.6650808e+3, 2.2491999e+2, -654203.5, -816268.56, -6760.781, -0.04067853, -0.026703779, -653922.0, 81863.92, 0.0, 10.001037, 9.998897 
1.665087e+3, 2.3492017e+2, -591501.44, -705206.75, -21772.975, -0.10042923, 0.04146134, -587474.8, 50310.07, 0.0, 10.000679, 9.9991455 
1.6650943e+3, 2.4491943e+2, -541647.94, -738141.3, 18437.965, -0.07645779, 0.10438495, -539932.75, -138.61661, 0.0, 10.000772, 9.998241 
1.6651028e+3, 2.5491744e+2, -353259.94, -574599.2, -6634.389, 0.034085665, 0.028216692, -353061.25, 88755.305, 0.0000000057748837, 10.001321, 9.998413 
1.6651098e+3, 2.64916e+2, -222991.84, -471628.3, -20876.404, 0.046756547, 0.062262185, -221251.17, 122580.8, 0.0000055479773, 10.001593, 9.998303 
1.665115e+3, 2.749151e+2, -102064.42, -345724.16, -36340.586, -0.06908684, 0.07797069, -96759.89, 149081.13, 0.000055377644, 10.00167, 9.998461 
1.6651218e+3, 2.8491375e+2, -7782.8857, -349786.9, -9124.188, -0.05536786, 0.15168847, -7539.638, 140313.98, 0.00028510438, 10.002074, 9.99756 
1.6651297e+3, 2.9491183e+2, 201178.92, -170136.56, -45470.97, 0.08852802, 0.13696413, 206666.17, 256537.17, 0.000926934, 10.002757, 9.997769 
1.665136e+3, 3.049079e+2, 232876.61, -227563.28, 46610.94, -0.014838133, 0.017587444, 237547.72, 237547.72, 0.00206355, 10.003024, 9.996949 
1.6651432e+3, 3.1490546e+2, 195874.5, -165199.4, 519.30066, -0.119652845, 0.0052053174, 195875.25, 195875.25, 0.0035217702, 10.002378, 9.997669 
1.6750109e+3, 1.24910735e+2, -2057905.1, -1927051.1, 4542.861, 0.10049138, -0.18640713, -1926893.6, -211028.33, 0.044670317, 9.997731, 9.999615 
1.6750135e+3, 1.3491318e+2, -1738693.0, -1585931.1, 9465.318, -0.3508134, -0.076404445, -1585346.9, 32497.262, 0.028026333, 9.998729, 10.000811 
1.6750233e+3, 1.4491314e+2, -1737830.8, -1679646.1, 9734.327, 0.025740739, -0.07597979, -1678060.8, -158212.42, 0.013357116, 9.9987, 9.999479 
1.6750312e+3, 1.5491457e+2, -1517837.6, -1471571.8, 60851.99, -0.03277159, 0.03225012, -1429604.0, -7764.945, 0.004090086, 9.999331, 9.999922 
1.6750388e+3, 1.6491547e+2, -1325245.5, -1223721.0, -6970.742, -0.07856418, 0.088543214, -1223244.6, 100585.38, 0.0005678562, 9.999513, 10.000881 
1.6750447e+3, 1.749154e+2, -1299526.5, -1144491.8, 61043.496, -0.15232542, -0.05472657, -1123341.8, 102483.35, 0.000011659807, 9.998961, 10.001011 
1.6750515e+3, 1.8491532e+2, -1348863.3, -1316945.0, 35714.773, -0.1528197, -0.0652862, -1293785.9, -165961.34, 0.0, 9.998798, 9.999232 
1.6750588e+3, 1.9491515e+2, -1182019.3, -1157103.4, 13126.252, -0.04269448, -0.066771254, -1151464.4, -121635.375, 0.0, 9.999175, 9.999456 
1.6750664e+3, 2.0491531e+2, -1039890.25, -1115428.0, 57626.758, -0.030430095, 0.045625657, -1008758.25, -76927.6, 0.0, 9.99978, 9.998804 
1.675074e+3, 2.1491568e+2, -815307.7, -931174.44, 68044.69, -0.12108195, 0.14389136, -783874.6, 49956.605, 0.0, 10.000556, 9.999009 
1.6750813e+3, 2.2491479e+2, -701131.1, -831288.3, -36304.344, -0.13745877, 0.16762966, -691689.75, 44150.434, 0.0, 10.000681, 9.998962 
1.6750886e+3, 2.3491248e+2, -627146.2, -718561.44, -20042.047, -0.04833368, -0.021690622, -622945.2, 14914.255, 0.0, 10.000419, 9.999177 
1.675096e+3, 2.449109e+2, -601545.8, -786350.56, 18013.596, -0.023110736, -0.035686906, -599806.4, -59930.773, 0.0, 10.000448, 9.998061 
1.6751035e+3, 2.5490987e+2, -407711.63, -616470.44, 36999.965, -0.068389095, 0.000042019685, -401347.8, 40542.14, 0.0000000017385277, 10.001019, 9.998265 
1.6751103e+3, 2.6490906e+2, -253393.19, -458693.38, -36993.6, -0.102649644, 0.0858914, -246930.64, 96969.44, 0.0000048816705, 10.001256, 9.99856 
1.6751167e+3, 2.749081e+2, -121126.54, -332347.2, -8165.028, -0.09992603, 0.07371259, -120811.38, 125097.95, 0.000051551386, 10.001428, 9.998678 
1.6751243e+3, 2.8490666e+2, -86753.16, -422683.25, -70.93771, -0.045432776, 0.14703964, -86753.14, 61170.305, 0.0002714196, 10.001692, 9.997241 
1.6751328e+3, 2.9490486e+2, 136365.5, -226939.39, 11858.59, 0.081147395, 0.1644254, 136752.16, 186693.8, 0.0008994481, 10.002406, 9.997555 
1.6751392e+3, 3.0490094e+2, 167338.4, -234223.81, 3640.4995, -0.028998828, 0.044456314, 167371.4, 167371.4, 0.002033432, 10.002498, 9.997145 
1.6751464e+3, 3.1489968e+2, 170051.5, -93295.62, 44889.797, -0.11815597, 0.1314978, 177493.08, 177493.08, 0.0035096947, 10.001865, 9.998398 
1.6850096e+3, 1.2490297e+2, -2030265.5, -1920121.6, -56561.742, 0.20895681, -0.22290348, -1896249.6, -180307.56, 0.04776628, 9.997988, 9.99951 
1.6850126e+3, 1.3490608e+2, -1814950.5, -1621242.1, -99145.984, -0.2781101, -0.05770875, -1579493.8, 38421.406, 0.030093629, 9.998221, 10.000799 
1.6850223e+3, 1.4490628e+2, -1836139.5, -1719533.9, 2468.7703, 0.10508028, -0.034869418, -1719481.6, -199564.2, 0.0144471, 9.997977, 9.999563 
1.68503e+3, 1.5490812e+2, -1639344.5, -1515843.9, 79059.47, -0.029746147, 0.10305129, -1477277.3, -55372.64, 0.004479329, 9.998437, 10.000056 
1.6850378e+3, 1.6490887e+2, -1466723.9, -1302812.0, -8176.6187, -0.08492291, 0.14367922, -1302405.1, 21491.727, 0.0006375465, 9.998587, 10.000785 
1.6850442e+3, 1.7490828e+2, -1326569.4, -1161738.3, -94776.07, -0.09467704, -0.048630517, -1118556.0, 107340.516, 0.00001399049, 9.998797, 10.000961 
1.6850513e+3, 1.84908e+2, -1259346.9, -1291968.6, -77610.59, -0.07249882, -0.070462905, -1196351.8, -68454.38, 0.0, 9.999485, 9.999071 
1.6850588e+3, 1.9490793e+2, -939963.94, -1061970.4, -65589.06, -0.029763483, -0.04434672, -911394.2, 118506.39, 0.0, 10.000915, 9.999277 
1.6850665e+3, 2.0490795e+2, -876601.3, -1044308.06, 1659.6953, -0.032712024, 0.06737881, -876584.9, 55318.68, 0.0, 10.000932, 9.998736 
1.6850741e+3, 2.149081e+2, -970017.8, -1009507.8, -17572.969, -0.094132155, 0.14784576, -963330.3, -129423.72, 0.0, 9.999515, 9.998971 
1.6850819e+3, 2.249071e+2, -860427.25, -909985.9, -41321.99, -0.070492476, 0.1614113, -837024.4, -101107.836, 0.0, 9.999574, 9.99898 
1.6850899e+3, 2.3490472e+2, -521540.22, -670747.5, -56873.793, 0.03009141, -0.028549016, -502333.78, 135602.0, 0.0, 10.001138, 9.9991865 
1.6850974e+3, 2.4490331e+2, -421615.88, -681764.2, 2114.402, 0.032579836, -0.030561784, -421598.7, 118351.055, 0.0, 10.001609, 9.998202 
1.685104e+3, 2.5490272e+2, -399745.6, -603605.94, -4834.745, -0.088892505, 0.02983439, -399631.0, 42328.695, 0.0000000018399801, 10.0010195, 9.998349 
1.6851112e+3, 2.6490188e+2, -292944.03, -491376.4, -25763.963, -0.1156863, 0.115438014, -289653.47, 54316.75, 0.0000039092515, 10.001032, 9.998448 
1.6851188e+3, 2.749006e+2, -76279.19, -308182.47, -65942.43, -0.040908094, 0.079679996, -58839.72, 187143.56, 0.000046409757, 10.001762, 9.998661 
1.6851269e+3, 2.8489912e+2, -18410.422, -370821.44, -12454.572, 0.04126619, 0.1384877, -17970.813, 130027.17, 0.00025645504, 10.0020485, 9.997455 
1.6851352e+3, 2.9489753e+2, 55834.58, -242468.28, -13718.869, 0.13767289, 0.16194247, 56464.176, 106477.58, 0.0008664291, 10.001728, 9.997798 
1.6851419e+3, 3.0489385e+2, 139909.33, -231766.73, 50504.65, 0.027264114, 0.04723099, 146649.83, 146649.83, 0.0019907402, 10.00219, 9.997343 
1.68515e+3, 3.148925e+2, 402102.38, 75942.75, 8438.927, 0.018814327, 0.12259969, 402320.56, 402320.56, 0.0034830796, 10.003149, 9.998998 
1.6950062e+3, 1.24897085e+2, -1943382.4, -1772320.4, 82203.43, -0.028476883, 0.083872184, -1739221.9, -23210.492, 0.051028147, 9.99813, 10.000453 
1.6950136e+3, 1.3489777e+2, -1784105.3, -1559625.6, -98325.68, -0.02503976, -0.029815841, -1522648.5, 95355.15, 0.032295942, 9.998221, 10.001236 
1.6950212e+3, 1.4489941e+2, -1742043.0, -1560245.8, -9005.728, 0.12509456, 0.05547831, -1559800.8, -39813.66, 0.015627254, 9.998119, 10.000592 
1.6950281e+3, 1.5490064e+2, -1576361.1, -1399977.8, 108318.195, -0.11508175, 0.05075043, -1348489.0, 73486.79, 0.004910431, 9.998497, 10.000826 
1.6950354e+3, 1.6490057e+2, -1562132.8, -1525813.0, -22481.148, -0.22508347, 0.052017424, -1515073.4, -191096.1, 0.0007170378, 9.998691, 9.999204 
1.6950431e+3, 1.7489952e+2, -1440834.0, -1393846.1, -71039.695, -0.11336287, -0.02960115, -1342516.3, -116527.48, 0.000016975888, 9.998777, 9.999376 
1.6950513e+3, 1.8489945e+2, -1206583.6, -1192760.5, -45382.383, -0.06892202, 0.015126851, -1153766.4, -25777.326, 0.0, 9.99952, 9.999738 
1.6950594e+3, 1.9490013e+2, -909523.25, -971226.06, -928.1291, -0.11236946, 0.04973267, -909509.25, 120470.98, 0.0, 10.000794, 9.999955 
1.6950668e+3, 2.0489961e+2, -907944.75, -1056072.1, -72506.336, -0.11930537, 0.06758712, -878361.94, 53623.55, 0.0, 10.000697, 9.9987755 
1.6950743e+3, 2.1489768e+2, -999080.94, -1024876.2, -54102.293, -0.065882534, -0.056313638, -956360.2, -122353.64, 0.0, 9.999307, 9.998974 
1.6950822e+3, 2.2489682e+2, -903338.1, -918384.4, -1917.2646, -0.031657845, -0.035096925, -903097.7, -167082.0, 0.0, 9.999241, 9.999075 
1.695091e+3, 2.3489684e+2, -563950.2, -678528.06, 24738.498, -0.010818275, 0.0015423849, -558837.06, 79177.71, 0.0, 10.000807, 9.999285 
1.6950983e+3, 2.4489652e+2, -457235.38, -663855.1, -34379.316, -0.06969937, 0.0894473, -451665.2, 88353.16, 0.0, 10.001218, 9.998518 
1.6951045e+3, 2.5489575e+2, -417310.78, -577774.06, -6130.265, -0.1754683, 0.10581664, -417076.94, 24950.945, 0.0000000033657745, 10.000752, 9.998659 
1.695112e+3, 2.648944e+2, -377417.1, -585542.4, -14982.19, -0.1816292, 0.1478441, -376344.1, -32301.008, 0.0000030031388, 10.000693, 9.997958 
1.6951208e+3, 2.7489236e+2, -152208.52, -397646.34, -14443.306, -0.052661095, 0.081731744, -151361.48, 94703.4, 0.000041455987, 10.001477, 9.998178 
1.695129e+3, 2.848908e+2, -21945.139, -291451.03, -47236.984, 0.027880287, 0.117116705, -13905.615, 134174.25, 0.00024337543, 10.001678, 9.998179 
1.6951367e+3, 2.9488948e+2, 66069.03, -159842.1, -765.208, 0.069781326, 0.09666695, 66071.62, 116161.95, 0.0008331997, 10.001444, 9.998512 
1.6951436e+3, 3.0488634e+2, 66988.6, -254153.92, 68173.164, -0.05916958, -0.0032696761, 80861.34, 80861.34, 0.0019314516, 10.0016775, 9.997415 
1.6951531e+3, 3.1488457e+2, 346955.75, 141954.97, 109281.85, -0.05824307, 0.010668206, 394284.78, 394284.78, 0.0034112176, 10.00241, 9.9997835 
1.7050032e+3, 1.2488914e+2, -2026584.9, -1713642.5, 172125.34, -0.06162559, 0.20357068, -1637497.4, 78597.77, 0.054460447, 9.997133, 10.001374 
1.7050117e+3, 1.3488863e+2, -1860245.3, -1564733.1, -132299.05, 0.0065272376, -0.04364328, -1514159.0, 103937.76, 0.034638863, 9.997563, 10.001532 
1.7050196e+3, 1.4489174e+2, -1729655.5, -1521305.5, -46942.254, 0.17750625, 0.15335192, -1511217.6, 8846.706, 0.016903277, 9.9980955, 10.000866 
1.7050269e+3, 1.54892e+2, -1627684.5, -1402939.6, -18133.658, -0.041195765, 0.033468008, -1401486.0, 20575.426, 0.00538814, 9.998069, 10.000999 
1.7050345e+3, 1.6489176e+2, -1578898.6, -1532182.9, -53431.336, -0.15485339, 0.009162637, -1497226.9, -173162.92, 0.0008082668, 9.998568, 9.999217 
1.705043e+3, 1.7489152e+2, -1254676.3, -1296624.0, -16470.928, -0.060656764, 0.0025827764, -1248981.9, -22913.832, 0.000020835996, 10.000019, 9.999454 
1.7050515e+3, 1.8489155e+2, -1109885.5, -1155754.5, 61428.3, -0.014892114, 0.06127739, -1067250.0, 60817.44, 0.0, 10.00023, 9.999661 
1.7050597e+3, 1.9489162e+2, -1113513.6, -1083439.6, 15631.593, -0.07760319, 0.045145676, -1076786.6, -46721.38, 0.0, 9.999448, 9.999851 
1.7050675e+3, 2.0489092e+2, -1055579.8, -1089372.6, -52324.324, -0.07359474, 0.035728503, -1017491.44, -85420.03, 0.0, 9.999533, 9.99909 
1.7050748e+3, 2.1488942e+2, -778152.0, -882513.0, -50550.938, -0.011174816, -0.07876716, -757681.25, 76405.02, 0.0, 10.000691, 9.999269 
1.7050828e+3, 2.2488877e+2, -627184.0, -818204.9, 62230.723, 0.013834501, -0.03667383, -608699.25, 127394.164, 0.0, 10.001268, 9.998784 
1.7050917e+3, 2.3488882e+2, -531291.3, -691076.2, 20410.252, -0.0044205636, 0.029343536, -528725.44, 109368.91, 0.0, 10.001153, 9.9990225 
1.7050995e+3, 2.4488844e+2, -462187.34, -652706.8, -56063.023, -0.050574765, 0.11693549, -446914.38, 93184.625, 0.0, 10.001127, 9.998645 
1.7051058e+3, 2.5488746e+2, -335818.7, -515363.66, -77796.8, -0.13838679, 0.09904623, -306799.6, 135309.56, 0.0000000026261497, 10.001233, 9.998848 
1.7051134e+3, 2.64886e+2, -258495.4, -530344.4, -9017.906, -0.13112605, 0.11952543, -258196.6, 85928.03, 0.0000021613648, 10.001506, 9.997957 
1.7051227e+3, 2.7488393e+2, -93632.27, -375999.56, -14647.064, -0.023299355, 0.054825347, -92874.53, 153271.8, 0.000036656253, 10.001888, 9.998145 
1.7051314e+3, 2.8488237e+2, 52819.89, -254205.69, -32590.031, 0.07245497, 0.094634764, 56241.12, 204402.92, 0.00022921336, 10.002197, 9.998174 
1.7051391e+3, 2.9488102e+2, 203007.22, -93708.16, -92421.266, 0.1324248, 0.080095775, 229439.95, 279613.72, 0.00079328316, 10.002419, 9.998479 
1.705146e+3, 3.0487853e+2, 174876.7, -200878.9, -1502.6377, 0.00070802565, 0.0456719, 174882.7, 174882.7, 0.0018438259, 10.002395, 9.997426 
1.7051558e+3, 3.1487653e+2, 255186.1, 113073.65, -70506.72, 0.027450295, 0.035051294, 284230.75, 284230.75, 0.0032717832, 10.001722, 9.999884 
1.7150024e+3, 1.2487879e+2, -1919655.1, -1553469.4, 16288.596, 0.02195811, 0.09306406, -1552746.3, 163450.52, 0.058051143, 9.997316, 10.002451 
1.7150064e+3, 1.3487925e+2, -1860592.4, -1562604.5, -69125.85, -0.3255593, -0.055638906, -1547349.9, 70839.29, 0.037118543, 9.997558, 10.001544 
1.7150173e+3, 1.4488347e+2, -1728388.4, -1568009.1, -60496.48, 0.060717877, 0.27150366, -1547748.8, -27601.484, 0.018276531, 9.998291, 10.000455 
1.7150262e+3, 1.5488215e+2, -1655634.8, -1469933.6, -2392.4875, 0.031465143, 0.037690368, -1469902.8, -47740.867, 0.005915651, 9.998099, 10.000526 
1.7150348e+3, 1.6488251e+2, -1456382.0, -1294557.6, -24135.553, -0.048873007, 0.018366441, -1291034.6, 33122.043, 0.0009130136, 9.998639, 10.000811 
1.7150432e+3, 1.7488438e+2, -1146904.0, -1060289.6, 51288.023, -0.07964857, 0.060606882, -1036470.25, 189662.7, 0.000025810483, 9.99997, 10.001095 
1.7150515e+3, 1.8488446e+2, -1168507.1, -1275284.8, 13884.715, -0.08583232, 0.07838926, -1166731.1, -38599.793, 0.0, 10.0002165, 9.998849 
1.7150596e+3, 1.9488242e+2, -1186265.4, -1210935.5, 1509.6537, -0.07074628, -0.06429603, -1186173.4, -156018.48, 0.0, 9.999347, 9.999023 
1.7150673e+3, 2.0488194e+2, -1047123.56, -1028609.1, -27899.469, -0.0757152, -0.03524537, -1008471.2, -76310.51, 0.0, 9.999348, 9.9995985 
1.715075e+3, 2.1488303e+2, -781961.56, -823113.94, 7960.5205, -0.07741633, 0.05497549, -780475.4, 53673.305, 0.0, 10.000406, 9.999814 
1.7150834e+3, 2.2488268e+2, -722625.6, -937299.5, 41341.59, -0.088831685, 0.12977329, -714939.4, 21213.182, 0.0, 10.00092, 9.99814 
1.7150924e+3, 2.3488067e+2, -617051.06, -811793.0, 33895.945, -0.09666149, 0.061196048, -611319.94, 26854.873, 0.0, 10.000896, 9.998324 
1.7151004e+3, 2.448791e+2, -517472.28, -679184.1, -70871.01, -0.11291539, 0.06300517, -490809.0, 49382.586, 0.0, 10.000759, 9.998633 
1.7151074e+3, 2.548777e+2, -382262.63, -543364.7, -54435.473, -0.12605678, 0.0042613703, -365593.84, 76611.09, 0.0000000000058928205, 10.000938, 9.998798 
1.7151153e+3, 2.6487634e+2, -275524.5, -490078.25, -13590.369, -0.1356738, 0.01867604, -274667.06, 69550.625, 0.0000014626683, 10.001182, 9.998389 
1.715124e+3, 2.7487496e+2, -102613.46, -328992.16, 19451.62, -0.11943602, -0.018438328, -100954.24, 145275.77, 0.000032258973, 10.001601, 9.998607 
1.7151327e+3, 2.848736e+2, -64615.4, -408934.6, -45292.09, -0.0287903, 0.05857369, -58757.297, 89487.79, 0.00021422842, 10.001811, 9.997299 
1.715142e+3, 2.9487202e+2, 97327.56, -239386.77, -50892.895, 0.1293376, 0.09348498, 104851.67, 155116.94, 0.00074612966, 10.00209, 9.997639 
1.7151488e+3, 3.048701e+2, 73098.195, -284078.5, -43894.55, 0.0034998597, 0.17470847, 78413.44, 78413.44, 0.001733619, 10.0018835, 9.997087 
1.7151573e+3, 3.1486765e+2, 110045.055, -3413.944, -33857.32, -0.061016135, 0.14565396, 119380.33, 119380.33, 0.0030849238, 10.000976, 9.999421 
1.725e+3, 1.24869354e+2, -1996910.4, -1563699.3, 42243.633, 0.105959155, 0.07206913, -1559618.4, 156669.55, 0.06177432, 9.996662, 10.002686 
1.725005e+3, 1.3487013e+2, -1841124.0, -1591985.0, -61552.688, -0.21186888, -0.036513556, -1577607.4, 40671.766, 0.039721623, 9.997857, 10.00117 
1.7250149e+3, 1.4487393e+2, -1769138.1, -1601708.1, -44944.54, 0.017034091, 0.27756152, -1590406.3, -70164.63, 0.019743169, 9.998052, 10.000354 
1.7250246e+3, 1.548723e+2, -1597670.0, -1427764.5, 3591.4644, 0.050909128, 0.0077985595, -1427688.6, -5430.5586, 0.006494274, 9.998406, 10.000694 
1.7250341e+3, 1.64873e+2, -1472907.9, -1268444.0, 23020.52, 0.04320685, -0.0006675016, -1265884.1, 58364.574, 0.001032908, 9.99837, 10.001129 
1.7250429e+3, 1.7487526e+2, -1336893.4, -1116426.3, -34890.117, -0.024494657, 0.046145797, -1111036.4, 115184.71, 0.00003215152, 9.998502, 10.001419 
1.7250513e+3, 1.8487552e+2, -1375550.8, -1369843.6, -85389.38, -0.04439244, 0.06379111, -1287260.1, -159041.77, 0.0, 9.998769, 9.998897 
1.7250592e+3, 1.9487382e+2, -1148504.4, -1183799.1, -68704.74, -0.0399036, -0.048436098, -1095216.8, -64976.688, 0.0, 9.999574, 9.999099 
1.7250673e+3, 2.0487358e+2, -924129.25, -972794.1, -19621.598, -0.036181603, 0.0017804055, -917203.5, 15040.792, 0.0, 10.000198, 9.999584 
1.725076e+3, 2.1487455e+2, -715953.2, -797416.44, -54362.25, -0.038831368, 0.087309085, -688756.0, 145477.05, 0.0, 10.000867, 9.999783 
1.7250846e+3, 2.2487411e+2, -687707.44, -886108.56, -12167.271, -0.050091773, 0.14162114, -686964.0, 49273.133, 0.0, 10.001048, 9.998409 
1.7250931e+3, 2.3487215e+2, -611117.06, -779230.7, 5437.883, -0.09266041, 0.051615324, -610941.4, 27316.219, 0.0, 10.000835, 9.998561 
1.7251013e+3, 2.4487051e+2, -503243.7, -697743.44, -19384.307, -0.09511012, 0.046962224, -501330.63, 38943.953, 0.0, 10.0009365, 9.998425 
1.725109e+3, 2.548691e+2, -342853.53, -543693.7, -46269.66, -0.06479101, 0.0037223315, -332706.53, 109582.61, 0.0000000000049057277, 10.001277, 9.998631 
1.7251171e+3, 2.6486787e+2, -225687.98, -445522.0, 16168.641, -0.06314264, 0.027409293, -224505.16, 119795.86, 0.0000011502509, 10.001457, 9.998553 
1.7251256e+3, 2.7486655e+2, -112222.32, -321454.13, -16075.244, -0.08525847, -0.01100572, -110994.46, 135317.3, 0.000029351942, 10.001488, 9.998715 
1.7251347e+3, 2.848652e+2, -95356.97, -427294.66, -20177.463, 0.0012986852, 0.06716594, -94134.945, 54191.855, 0.00020332959, 10.001644, 9.997232 
1.7251442e+3, 2.9486355e+2, 81288.11, -254735.14, -33355.48, 0.17589304, 0.10749513, 84567.16, 134915.86, 0.00070578046, 10.002047, 9.99753 
1.7251511e+3, 3.048621e+2, 151220.73, -245249.13, 37054.715, 0.040597204, 0.23818503, 154654.19, 154654.19, 0.0016366786, 10.00236, 9.997157 
1.7251591e+3, 3.1485978e+2, 269034.9, 12083.997, -12331.569, -0.013742005, 0.22963059, 269625.34, 269625.34, 0.002919125, 10.00224, 9.9989805 
1.7349938e+3, 1.2485984e+2, -2057531.4, -1708151.1, 74755.54, -0.27476028, 0.0094317375, -1692828.0, 23550.822, 0.06561491, 9.996795, 10.001559 
1.7350078e+3, 1.3486114e+2, -1903189.4, -1724870.1, -37868.15, 0.22978166, 0.00023977204, -1717161.6, -98793.6, 0.042436883, 9.997876, 10.00024 
1.7350116e+3, 1.4486279e+2, -1735538.6, -1558919.6, -60738.05, -0.18168497, 0.15767357, -1540048.5, -19697.508, 0.021297567, 9.998167, 10.0005865 
1.7350213e+3, 1.548625e+2, -1540666.8, -1317979.5, 29040.436, -0.14816955, -0.05421019, -1314254.6, 108095.33, 0.0071235094, 9.99844, 10.001434 
1.735032e+3, 1.6486336e+2, -1511581.1, -1386651.1, 4807.3706, -0.05927514, -0.042429555, -1386466.4, -62126.92, 0.0011691477, 9.998518, 10.00025 
1.7350417e+3, 1.7486414e+2, -1405928.0, -1266920.4, -16894.318, -0.03005544, -0.044341233, -1264896.6, -38564.105, 0.00004011834, 9.998521, 10.0003805 
1.7350502e+3, 1.8486482e+2, -1315967.3, -1248378.1, -78844.57, -0.073761515, 0.029101886, -1196390.8, -68063.164, 0.0, 9.998776, 9.999726 
1.7350581e+3, 1.948657e+2, -1110441.5, -1069701.4, -26189.09, -0.1362622, 0.08653708, -1056893.0, -26571.021, 0.0, 9.999417, 9.999958 
1.735067e+3, 2.048657e+2, -991902.75, -1063105.9, -12823.192, -0.13149463, 0.13977046, -989663.8, -57340.215, 0.0, 9.999977, 9.999068 
1.7350769e+3, 2.1486425e+2, -787067.75, -895006.4, -12101.37, -0.0501143, 0.033475123, -785727.6, 48609.617, 0.0, 10.000649, 9.999214 
1.7350858e+3, 2.2486332e+2, -661822.06, -759750.7, -36339.06, -0.063600175, 0.018532386, -649810.7, 86534.01, 0.0, 10.000736, 9.999425 
1.7350937e+3, 2.3486295e+2, -575172.2, -643322.44, 16144.785, -0.14758083, -0.02022517, -571540.94, 66804.55, 0.0, 10.000563, 9.999626 
1.7351018e+3, 2.4486245e+2, -578399.3, -762613.3, -21696.088, -0.16903152, 0.047391176, -575878.56, -35527.9, 0.0, 10.000559, 9.9981575 
1.7351101e+3, 2.5486168e+2, -406014.97, -602270.56, -10127.362, -0.115088835, 0.095605545, -405493.75, 36867.996, 0.000000000000012544113, 10.000976, 9.998369 
1.7351186e+3, 2.6486045e+2, -298368.63, -505646.75, 347.092, -0.09427306, 0.14388467, -298368.06, 46007.12, 0.0000010511417, 10.001075, 9.998321 
1.7351273e+3, 2.7485865e+2, -175596.63, -374526.9, 11310.834, -0.08788641, 0.07333281, -174955.58, 71435.81, 0.000029114979, 10.001169, 9.998492 
1.7351365e+3, 2.84857e+2, -124038.11, -404921.47, -28015.037, -0.028628802, 0.115386195, -121271.18, 27137.191, 0.00019954766, 10.001287, 9.9975605 
1.7351457e+3, 2.948551e+2, 46078.117, -233667.16, 9623.495, 0.07252721, 0.0913322, 46408.78, 96838.44, 0.0006844002, 10.001645, 9.997868 
1.7351523e+3, 3.0485407e+2, 97289.195, -231362.11, 7178.254, -0.11960571, 0.23053391, 97445.91, 97445.91, 0.0015865881, 10.001849, 9.997479 
1.7351602e+3, 3.148517e+2, 137054.27, -59069.766, 48862.676, -0.20878465, 0.1672344, 148553.73, 148553.73, 0.0028417592, 10.0014305, 9.998845 
1.7449914e+3, 1.2485164e+2, -2053612.1, -1805033.6, 134966.98, -0.20568699, 0.078094855, -1745845.6, -29388.082, 0.06957688, 9.997296, 10.000632 
1.7450076e+3, 1.3485207e+2, -1804641.8, -1681888.4, 3509.4653, 0.41016752, -0.0019296958, -1681788.1, -63332.78, 0.045260757, 9.99859, 10.00019 
1.7450103e+3, 1.4485253e+2, -1568034.3, -1491819.9, 30334.203, -0.15996869, 0.042226207, -1481220.5, 39229.652, 0.022935338, 9.999389, 10.000444 
1.7450204e+3, 1.548535e+2, -1520599.0, -1326130.8, -5104.3184, -0.09080889, -0.029529618, -1325996.9, 96440.61, 0.0078018596, 9.998667, 10.001245 
1.7450307e+3, 1.6485439e+2, -1578010.1, -1464301.3, 8549.697, -0.0041659554, 0.011586518, -1463662.0, -139233.69, 0.0013223152, 9.998264, 9.999846 
1.7450407e+3, 1.7485425e+2, -1369280.5, -1288469.4, -796.5839, -0.0034272487, -0.04002247, -1288461.5, -62029.56, 0.000049909977, 9.998949, 10.000033 
1.7450495e+3, 1.848549e+2, -1228037.8, -1169863.6, -17743.928, -0.039934643, 0.030824201, -1164878.6, -36451.027, 0.0000000000000006446772, 9.999247, 10.000019 
1.7450577e+3, 1.9485639e+2, -1093659.8, -1026892.8, -45553.195, -0.10786601, 0.11612793, -1003800.2, 26614.188, 0.0, 9.999397, 10.000239 
1.7450671e+3, 2.0485643e+2, -1021639.56, -1079973.8, 10325.547, -0.09897323, 0.16236322, -1019865.8, -87451.23, 0.0, 9.999771, 9.999059 
1.7450778e+3, 2.148547e+2, -800564.75, -895885.7, 13298.889, -0.022187462, 0.028374087, -798744.1, 35687.207, 0.0, 10.000535, 9.999264 
1.7450869e+3, 2.2485395e+2, -644080.5, -729243.3, -20907.168, -0.016335748, 0.014779204, -639224.7, 97212.76, 0.0, 10.00073, 9.99966 
1.7450947e+3, 2.3485416e+2, -594225.4, -623218.25, -58572.355, -0.08903687, 0.014016842, -548382.2, 90050.49, 0.0, 10.000299, 9.999899 
1.7451029e+3, 2.448539e+2, -586392.56, -732483.9, -48492.37, -0.101466924, 0.07746505, -571761.7, -31326.836, 0.0, 10.000398, 9.998427 
1.7451115e+3, 2.5485283e+2, -380238.06, -560769.0, -42806.063, -0.06911009, 0.07420824, -370602.5, 71844.734, 0.0, 10.001064, 9.998603 
1.7451203e+3, 2.6485148e+2, -255097.53, -507049.7, 5216.6973, -0.03435473, 0.11066541, -254989.56, 89471.836, 0.0000010008785, 10.001438, 9.998142 
1.7451294e+3, 2.748498e+2, -130196.15, -375455.22, -23696.12, -0.010184421, 0.07153643, -127927.69, 118550.25, 0.000030147008, 10.001548, 9.998308 
1.7451386e+3, 2.8484812e+2, -13145.022, -331269.88, -6728.167, 0.026386477, 0.10942128, -13002.789, 135491.8, 0.00019899277, 10.001922, 9.997782 
1.7451474e+3, 2.9484594e+2, 174671.95, -164745.6, -33650.29, 0.046839207, 0.041153327, 177975.92, 228492.08, 0.00068156485, 10.002433, 9.997995 
1.7451541e+3, 3.0484444e+2, 217772.47, -155553.14, -11787.488, -0.14482221, 0.121330075, 218144.28, 218144.28, 0.0015937911, 10.002579, 9.997667 
1.7451632e+3, 3.1484273e+2, 321084.3, 8269.852, -77315.13, -0.094911456, 0.10494296, 339150.16, 339150.16, 0.0028815179, 10.00274, 9.9986925 
1.7549911e+3, 1.2484373e+2, -2050368.5, -1841676.0, 6032.531, -0.056999233, 0.20008437, -1841501.8, -124967.664, 0.07366958, 9.997467, 10.000305 
1.7550032e+3, 1.3484265e+2, -1738307.8, -1547876.0, 83141.055, 0.061128326, -0.07064645, -1516685.8, 101857.695, 0.048192136, 9.998596, 10.001132 
1.7550112e+3, 1.4484373e+2, -1576644.0, -1543556.5, -2719.8467, -0.08154502, -0.025014699, -1543334.4, -22800.838, 0.024652572, 9.999529, 10.000023 
1.7550212e+3, 1.5484539e+2, -1596895.3, -1498205.1, -21579.998, 0.08525931, 0.089209035, -1493692.6, -71172.4, 0.008527423, 9.998715, 10.000046 
1.7550299e+3, 1.6484576e+2, -1557796.1, -1440029.3, -224.91882, 0.0129495, 0.14072363, -1440028.9, -115510.625, 0.0014925194, 9.998346, 9.999972 
1.7550391e+3, 1.748455e+2, -1354547.0, -1245595.9, 40854.563, -0.092959605, 0.04839079, -1231978.3, -5457.472, 0.00006156021, 9.998907, 10.000344 
1.7550485e+3, 1.8484575e+2, -1244454.1, -1201778.8, -31192.719, -0.11420126, 0.07167934, -1185323.8, -56805.473, 0.0000000010737394, 9.999236, 9.999805 
1.7550574e+3, 1.948459e+2, -1130232.9, -1081591.3, -26479.379, -0.10313344, 0.051576726, -1069958.5, -39441.832, 0.0, 9.999304, 9.99991 
1.755067e+3, 2.0484583e+2, -1016594.7, -1029364.0, 19765.104, -0.114682995, 0.08184295, -1002208.6, -69691.61, 0.0, 9.999598, 9.999488 
1.7550777e+3, 2.1484557e+2, -802589.2, -843199.5, 56140.527, -0.09346128, 0.045672722, -763194.6, 71323.98, 0.0, 10.000284, 9.999748 
1.7550872e+3, 2.2484566e+2, -727304.25, -823403.25, -54059.434, -0.078476824, 0.11600455, -703026.9, 33491.32, 0.0, 10.000394, 9.999174 
1.7550953e+3, 2.3484585e+2, -668051.8, -718229.75, -56552.52, -0.073083624, 0.15913896, -631272.8, 7245.391, 0.0, 10.000042, 9.9993725 
1.7551036e+3, 2.4484481e+2, -595790.06, -671668.6, -38171.945, -0.08981001, 0.14306171, -579910.3, -39383.05, 0.0, 10.000054, 9.99901 
1.7551126e+3, 2.5484234e+2, -378177.94, -490691.75, 1905.7085, -0.092622444, -0.06409999, -378145.7, 64401.867, 0.0, 10.000784, 9.999217 
1.7551216e+3, 2.6484066e+2, -318723.9, -566001.1, -12650.784, -0.06797445, -0.07753795, -318078.38, 26484.533, 0.00000094846536, 10.001118, 9.997895 
1.7551312e+3, 2.748399e+2, -189553.44, -424458.7, 2736.8403, -0.017340159, -0.0055886735, -189521.55, 57050.895, 0.000030605133, 10.001235, 9.998119 
1.7551403e+3, 2.8483862e+2, -62480.773, -348589.66, -5281.618, -0.036270943, 0.07137634, -62383.305, 86202.28, 0.00020047408, 10.001557, 9.997836 
1.7551486e+3, 2.948362e+2, 110842.28, -194565.75, 10378.277, -0.108948424, -0.028848484, 111194.55, 161802.13, 0.00069770816, 10.002007, 9.997988 
1.7551558e+3, 3.048336e+2, 122165.71, -233796.63, -38912.48, -0.27231264, -0.03782497, 126369.83, 126369.83, 0.001653074, 10.002072, 9.997363 
1.7551672e+3, 3.1483322e+2, 153055.75, -129790.484, 9649.105, -0.03388001, 0.08077958, 153384.55, 153384.55, 0.0030124856, 10.001888, 9.998124 
1.7649892e+3, 1.2483249e+2, -1947985.5, -1788391.3, -43885.664, -0.013663011, 0.08864599, -1777119.5, -60472.785, 0.07790593, 9.998117, 10.000367 
1.765001e+3, 1.3483314e+2, -1832923.9, -1501419.9, 56575.543, 0.053956352, -0.083157204, -1492030.5, 126605.76, 0.05123237, 9.997515, 10.001993 
1.7650096e+3, 1.448352e+2, -1825482.5, -1689534.8, -27361.957, -0.10037, 0.021973358, -1684234.3, -163617.94, 0.026445003, 9.997938, 9.999796 
1.7650206e+3, 1.5483601e+2, -1599080.9, -1533704.6, -43225.938, 0.16081487, 0.08699361, -1512198.8, -89584.81, 0.009296644, 9.998885, 9.999715 
1.7650291e+3, 1.6483632e+2, -1424743.6, -1360216.9, 60402.36, 0.094433956, 0.14377698, -1324001.3, 611.9425, 0.0016790463, 9.99921, 10.000092 
1.7650382e+3, 1.748367e+2, -1304135.4, -1211429.8, 50945.31, -0.07144379, 0.10177196, -1188905.8, 37702.883, 0.000074904594, 9.999211, 10.000425 
1.7650479e+3, 1.8483673e+2, -1244285.1, -1229632.8, 7460.8525, -0.09004058, 0.11015627, -1226502.5, -97895.05, 0.000000009428086, 9.999345, 9.999574 
1.7650574e+3, 1.9483587e+2, -1037643.0, -1058689.1, -18245.68, -0.05510499, 0.012679482, -1027103.3, 3511.3787, 0.0, 10.00003, 9.999732 
1.7650676e+3, 2.0483553e+2, -906649.3, -946359.7, 52430.62, -0.052494213, 0.015201056, -870440.25, 62176.332, 0.0, 10.000234, 9.999748 
1.7650783e+3, 2.148358e+2, -827144.94, -825880.75, 39819.824, -0.054594386, 0.008783866, -786688.0, 47924.387, 0.0, 10.000001, 10.0 
1.7650877e+3, 2.2483608e+2, -787753.5, -854730.4, -39419.14, -0.049910046, 0.08798172, -769518.25, -32907.777, 0.0, 10.0000105, 9.999131 
1.7650956e+3, 2.3483616e+2, -617517.44, -694961.44, -52539.355, -0.0650708, 0.12801333, -590972.44, 47640.45, 0.0, 10.000419, 9.99934 
1.7651044e+3, 2.4483529e+2, -466155.06, -598994.06, 17919.377, -0.054574434, 0.12315524, -463780.28, 76840.7, 0.0, 10.000853, 9.999149 
1.7651142e+3, 2.5483328e+2, -299209.88, -442201.66, -5459.9067, -0.014426698, -0.049434, -299001.7, 143634.56, 0.0, 10.00124, 9.9993515 
1.7651238e+3, 2.648317e+2, -267550.9, -533223.44, -2380.8987, 0.017665546, -0.063588925, -267529.56, 77120.92, 0.0000007067664, 10.001457, 9.997945 
1.7651328e+3, 2.7483052e+2, -143703.33, -395356.63, -16491.48, 0.015091743, -0.03860877, -142627.2, 104037.266, 0.000029110019, 10.001535, 9.998165 
1.7651418e+3, 2.8482923e+2, -40020.71, -325088.3, 31083.883, -0.01330356, 0.035503007, -36670.684, 112006.69, 0.0002034409, 10.00168, 9.997933 
1.765151e+3, 2.948275e+2, 114823.695, -187612.34, -11166.339, -0.054247804, 0.0042581432, 115235.41, 165928.13, 0.0007263894, 10.002033, 9.998019 
1.7651583e+3, 3.0482423e+2, 179772.64, -206149.44, -1535.7004, -0.21940662, -0.07258779, 179778.75, 179778.75, 0.0017327985, 10.002435, 9.997389 
1.7651698e+3, 3.1482312e+2, 259189.97, -74945.19, -15053.84, 0.020399936, -0.0155134, 259866.81, 259866.81, 0.0031529672, 10.002537, 9.998218 
1.7749865e+3, 1.2482112e+2, -1899636.8, -1767012.5, -118103.21, -0.18607043, 0.0110659255, -1697878.5, 18885.592, 0.08231803, 9.998391, 10.000425 
1.7750017e+3, 1.348243e+2, -1784009.1, -1418935.0, 72740.7, 0.33924893, 0.0059759268, -1404975.3, 213750.94, 0.054393712, 9.997565, 10.002573 
1.7750046e+3, 1.4482647e+2, -1816798.8, -1699485.9, -11582.275, -0.4643819, 0.12237, -1698353.3, -177650.0, 0.02831169, 9.998053, 9.999676 
1.7750181e+3, 1.5482531e+2, -1559845.6, -1463283.1, 5479.0635, -0.035002664, -0.050467625, -1462973.3, -40254.39, 0.010105246, 9.998918, 10.000189 
1.7750289e+3, 1.6482612e+2, -1410746.9, -1345267.0, 38945.883, 0.07476439, 0.020929195, -1327127.9, -2415.001, 0.0018804772, 9.999271, 10.000163 
1.7750376e+3, 1.7482784e+2, -1316583.8, -1231742.3, 65640.03, -0.08457616, 0.12321575, -1196008.4, 30687.295, 0.00008970714, 9.999193, 10.000292 
1.7750472e+3, 1.8482777e+2, -1261099.9, -1266552.8, 13821.212, -0.15440443, 0.14452668, -1249738.8, -121043.266, 0.000000028818846, 9.999354, 9.999315 
1.7750573e+3, 1.948261e+2, -1065764.5, -1093273.4, 23491.545, -0.113951184, -0.015536551, -1052296.9, -21586.662, 0.0, 9.999925, 9.999546 
1.7750677e+3, 2.0482537e+2, -932303.94, -951879.9, 24126.64, -0.08665757, -0.046874613, -916055.44, 16659.834, 0.0, 10.000036, 9.999799 
1.7750785e+3, 2.1482533e+2, -867981.2, -845452.94, 45118.23, -0.049323358, -0.08941971, -810214.0, 24499.313, 0.0, 9.99973, 9.999988 
1.7750876e+3, 2.2482523e+2, -818803.4, -849680.06, -40741.066, -0.095703706, -0.05657265, -790673.7, -53959.527, 0.0, 9.999701, 9.999317 
1.7750949e+3, 2.3482496e+2, -629503.2, -676867.7, -17867.05, -0.20868123, -0.081364416, -623519.25, 15199.5625, 0.0, 10.000216, 9.999567 
1.7751044e+3, 2.4482504e+2, -530314.4, -652597.6, 13704.651, -0.1732589, 0.008778416, -528797.25, 11921.709, 0.0, 10.000521, 9.998935 
1.775116e+3, 2.548255e+2, -357254.63, -495008.16, 28885.73, 0.022124229, 0.10615211, -351442.75, 91271.45, 0.0, 10.000958, 9.99912 
1.775126e+3, 2.6482448e+2, -306148.6, -529208.2, -14333.334, 0.0523457, 0.14505027, -305231.34, 39493.355, 0.00000032366296, 10.001104, 9.998139 
1.7751336e+3, 2.7482164e+2, -182794.61, -390291.94, 10367.613, -0.08052855, -0.01413484, -182277.88, 64475.496, 0.00002512301, 10.001187, 9.998357 
1.775143e+3, 2.8482005e+2, -106060.07, -375952.47, 17365.29, -0.10893922, 0.02807589, -104947.35, 43822.125, 0.00020101898, 10.001304, 9.9977665 
1.7751539e+3, 2.948197e+2, 53671.703, -226670.36, 27873.475, -0.00052014424, 0.1409815, 56416.203, 107188.766, 0.0007432089, 10.001662, 9.997924 
1.7751613e+3, 3.0481622e+2, 121027.92, -209931.4, -17192.209, -0.21297672, 0.031079538, 121918.6, 121918.6, 0.0017748435, 10.0019455, 9.997592 
1.7751704e+3, 3.1481436e+2, 171495.56, -19715.79, 75183.87, -0.24066222, -0.0064019654, 197516.61, 197516.61, 0.0031990055, 10.0016, 9.999013 
1.7849855e+3, 1.2481248e+2, -1934672.9, -1827653.3, 32625.32, -0.122946836, 0.15385419, -1818491.6, -101640.31, 0.08696164, 9.998403, 9.999953 
1.7850006e+3, 1.3481438e+2, -1569809.8, -1335628.4, 3379.6565, 0.40219936, 0.03440886, -1335579.6, 283247.53, 0.057701517, 9.9991865, 10.00237 
1.7850031e+3, 1.4481701e+2, -1778099.9, -1639693.1, -4675.861, -0.41683778, 0.19637597, -1639535.4, -118736.0, 0.030258754, 9.99815, 10.000036 
1.7850164e+3, 1.5481597e+2, -1555359.3, -1402754.8, -11767.342, -0.07059256, -0.016039653, -1401852.6, 20958.955, 0.0109521225, 9.998692, 10.000711 
1.7850275e+3, 1.6481696e+2, -1467225.9, -1390386.0, 23511.576, 0.055735897, 0.04784355, -1383762.8, -58959.156, 0.0020959692, 9.998967, 9.99999 
1.7850372e+3, 1.7481841e+2, -1355763.9, -1271928.0, -3889.3723, -0.028823454, 0.14239512, -1271748.0, -44957.67, 0.000105867584, 9.999029, 10.000085 
1.7850472e+3, 1.8481827e+2, -1277270.3, -1261136.9, 16265.547, -0.058147296, 0.16454154, -1251047.6, -122256.586, 0.0000000562377, 9.999187, 9.999439 
1.7850578e+3, 1.9481696e+2, -1066407.6, -1073677.1, 24405.139, -0.046623617, 0.024813905, -1045368.06, -14566.214, 0.0, 9.999829, 9.999725 
1.7850682e+3, 2.0481643e+2, -955656.06, -967187.6, 30717.535, -0.027837528, 0.0070356303, -930167.9, 2637.3083, 0.0, 9.999901, 9.999758 
1.7850785e+3, 2.1481639e+2, -895724.06, -864009.7, 6399.811, -0.008353188, -0.031157382, -862766.94, -27962.723, 0.0, 9.999559, 9.999947 
1.7850876e+3, 2.2481619e+2, -782676.25, -810089.94, -3998.0894, -0.058590587, -0.014142764, -782105.06, -45299.723, 0.0, 9.999859, 9.999519 
1.7850956e+3, 2.348158e+2, -520047.97, -602147.06, -20956.09, -0.18585098, -0.06472158, -515008.22, 123800.37, 0.0, 10.000883, 9.999764 
1.7851053e+3, 2.4481577e+2, -457640.3, -643634.8, 5895.4785, -0.14443274, 0.016510762, -457453.66, 83356.11, 0.0, 10.001155, 9.998674 
1.7851172e+3, 2.54816e+2, -418705.38, -554298.56, -23425.66, 0.057139654, 0.11711916, -414772.3, 28036.979, 0.0, 10.0006895, 9.998826 
1.7851274e+3, 2.6481506e+2, -337771.25, -533911.2, -24185.338, 0.11400665, 0.17790519, -334833.06, 9986.447, 0.00000018370703, 10.000807, 9.998271 
1.7851356e+3, 2.7481258e+2, -116855.14, -355735.03, -39912.207, -0.009614023, 0.045341425, -110363.02, 136481.42, 0.000020759246, 10.001573, 9.998443 
1.7851454e+3, 2.8481096e+2, -10481.079, -320987.13, 12721.663, -0.020086322, 0.08344897, -9960.735, 138899.81, 0.00019262578, 10.001936, 9.997828 
1.7851567e+3, 2.9481047e+2, 101957.125, -200879.11, -20057.521, 0.106212065, 0.17605291, 103279.805, 154146.0, 0.00073903677, 10.001975, 9.997949 
1.785164e+3, 3.048072e+2, 178637.88, -147984.69, -12661.81, -0.11359307, 0.06977505, 179127.98, 179127.98, 0.0017591724, 10.002202, 9.997887 
1.7851727e+3, 3.1480533e+2, 310491.72, 77582.875, -15500.499, -0.18059745, 0.022217827, 311518.78, 311518.78, 0.0031190799, 10.00237, 9.999341 
1.7949857e+3, 1.248036e+2, -1980358.3, -1968640.9, 189286.33, -0.037199818, 0.20420697, -1785122.5, -68184.98, 0.09190124, 9.9986105, 9.998884 
1.7949963e+3, 1.3480306e+2, -1603025.8, -1450889.4, -30198.559, -0.0034277032, -0.033213593, -1445114.3, 173827.78, 0.06119029, 9.999351, 10.001478 
1.7950046e+3, 1.4480695e+2, -1717025.6, -1520349.3, -31193.326, -0.12389363, 0.24551736, -1515520.5, 5382.515, 0.03230053, 9.998194, 10.000831 
1.7950152e+3, 1.5480812e+2, -1523970.9, -1331815.4, 26530.951, -0.08305391, 0.20016062, -1328219.6, 94671.6, 0.011841973, 9.998678, 10.001205 
1.7950252e+3, 1.648087e+2, -1479006.0, -1445987.6, 5965.1475, -0.1393344, 0.22659552, -1444943.0, -120056.45, 0.0023264778, 9.9990835, 9.999563 
1.7950365e+3, 1.7480816e+2, -1373129.3, -1317528.5, 8606.787, -0.041041452, 0.15956281, -1316226.6, -89332.4, 0.00012352158, 9.999055, 9.99977 
1.7950477e+3, 1.8480809e+2, -1233575.4, -1173466.1, 17057.283, 0.020599015, 0.17038585, -1168963.1, -40067.89, 0.000000085167756, 9.999208, 10.000025 
1.7950584e+3, 1.9480842e+2, -1047037.6, -1007116.06, 59807.73, -0.0040447423, 0.14122345, -964026.1, 66863.46, 0.0, 9.999718, 10.000234 
1.7950682e+3, 2.0480877e+2, -993163.7, -1000339.4, -1843.0706, -0.055343207, 0.19055939, -992718.0, -59832.38, 0.0, 9.999699, 9.999633 
1.7950776e+3, 2.1480899e+2, -934772.4, -896805.0, 9648.233, -0.07644779, 0.19091475, -894493.9, -59609.117, 0.0, 9.999342, 9.999833 
1.7950873e+3, 2.2480887e+2, -826224.4, -822261.06, 15290.743, -0.10865837, 0.21818383, -808824.1, -71939.36, 0.0, 9.999529, 9.999593 
1.795097e+3, 2.3480846e+2, -559603.4, -612240.94, 35482.582, -0.1424705, 0.15444362, -541744.2, 97140.64, 0.0, 10.000577, 9.999839 
1.795107e+3, 2.4480715e+2, -542697.9, -734284.1, -25669.541, -0.1360696, 0.12745048, -539318.2, 1577.9673, 0.0, 10.000785, 9.998232 
1.795117e+3, 2.5480476e+2, -490181.56, -637072.9, -22517.395, -0.055240188, 0.005393382, -486807.3, -43886.043, 0.0, 10.000415, 9.998385 
1.7951275e+3, 2.6480338e+2, -384328.9, -554174.06, -14074.656, 0.019413596, 0.04613575, -383170.47, -38234.516, 0.00000013255313, 10.000477, 9.998291 
1.7951381e+3, 2.7480322e+2, -158000.9, -360618.8, 7588.0503, 0.057626676, 0.13414654, -157717.13, 89221.66, 0.0000188634, 10.0012455, 9.998555 
1.7951484e+3, 2.848022e+2, -60421.563, -335429.2, -7889.076, 0.05305304, 0.21493267, -60195.438, 88754.41, 0.00018772876, 10.001548, 9.997919 
1.7951587e+3, 2.9480007e+2, 45891.35, -205469.44, 13715.337, 0.06602049, 0.13691863, 46637.504, 97608.53, 0.00073121197, 10.001517, 9.998126 
1.7951663e+3, 3.047973e+2, 102164.38, -195405.38, -28411.736, -0.15827857, 0.07585098, 104852.83, 104852.83, 0.0017175064, 10.0017, 9.997813 
1.7951754e+3, 3.1479645e+2, 232459.13, 87992.39, 74976.305, -0.21671316, 0.112905316, 264336.78, 264336.78, 0.002974606, 10.001672, 9.9997225 
1.8049857e+3, 1.2479322e+2, -1927575.9, -1962275.3, 223452.48, 0.09096933, 0.20238262, -1720800.6, -3760.4631, 0.097200245, 9.999114, 9.998667 
1.804994e+3, 1.3479339e+2, -1700056.4, -1478711.5, -64994.266, -0.11288804, 0.039454326, -1461038.1, 158000.75, 0.06490086, 9.998629, 10.001623 
1.805005e+3, 1.447962e+2, -1675755.0, -1500816.1, 8880.239, 0.10721684, 0.19172408, -1500366.5, 20643.701, 0.034457777, 9.998448, 10.000854 
1.8050149e+3, 1.5479784e+2, -1537699.4, -1347282.5, -4851.138, 0.017451013, 0.19886242, -1347159.0, 75832.69, 0.0127833225, 9.998607, 10.001137 
1.8050241e+3, 1.6479823e+2, -1529227.0, -1468549.6, 14320.149, -0.11580911, 0.21132737, -1465339.9, -140352.13, 0.0025744103, 9.998733, 9.99958 
1.8050359e+3, 1.7479749e+2, -1336958.9, -1288097.0, 9558.678, -0.0057752742, 0.11618358, -1286293.6, -59296.156, 0.00014305822, 9.999261, 9.999862 
1.8050475e+3, 1.8479766e+2, -1188543.1, -1147941.9, 46297.32, 0.085625045, 0.14163044, -1117690.0, 11306.999, 0.00000010953618, 9.99949, 10.00007 
1.8050584e+3, 1.9479851e+2, -1071042.9, -1011206.94, 15504.934, 0.047048282, 0.16075233, -1007427.94, 23559.875, 0.0, 9.999531, 10.000297 
1.8050684e+3, 2.047991e+2, -986335.6, -1006619.3, -31639.922, -0.0033210872, 0.23687565, -963251.9, -30269.277, 0.0, 9.999775, 9.999568 
1.8050778e+3, 2.1479937e+2, -786322.25, -830102.4, -48771.797, -0.032923114, 0.24880686, -754753.3, 80228.76, 0.0, 10.00038, 9.999796 
1.8050878e+3, 2.2479917e+2, -688869.2, -760235.94, -6277.0415, -0.039883014, 0.27108943, -688321.3, 48661.54, 0.0, 10.000498, 9.99954 
1.8050984e+3, 2.3479842e+2, -614980.44, -645824.6, -32369.756, -0.04442599, 0.18216023, -594546.7, 44438.777, 0.0, 10.000239, 9.99976 
1.8051083e+3, 2.4479692e+2, -551687.9, -735675.2, -49220.063, -0.053223625, 0.13768005, -539348.2, 1649.7572, 0.0, 10.000683, 9.998299 
1.8051179e+3, 2.5479436e+2, -283756.97, -538380.0, -45237.246, -0.06278556, 0.0032602998, -275958.78, 167065.3, 0.0, 10.001796, 9.998433 
1.8051286e+3, 2.6479298e+2, -139910.23, -431886.8, 9217.671, -0.0021881834, 0.038095962, -139619.52, 205419.2, 0.00000007008213, 10.00215, 9.998319 
1.8051398e+3, 2.747928e+2, -80717.99, -332542.3, -23580.057, 0.083606154, 0.13147894, -78529.055, 168512.36, 0.000018211349, 10.0018015, 9.998491 
1.8051504e+3, 2.847917e+2, -29105.053, -298960.2, -3066.1147, 0.108774826, 0.20265889, -29070.22, 119982.66, 0.00018396454, 10.001658, 9.99812 
1.8051606e+3, 2.9478952e+2, 126196.78, -149600.8, -28346.225, 0.10409103, 0.1048187, 129080.03, 180155.1, 0.0007180549, 10.001973, 9.9983015 
1.8051691e+3, 3.0478743e+2, 215678.9, -149937.45, -13461.267, -0.05977505, 0.10427085, 216173.84, 216173.84, 0.0016647228, 10.002548, 9.997702 
1.8051793e+3, 3.147871e+2, 413246.7, 134810.94, -29035.283, -0.058803763, 0.23090798, 416242.28, 416242.28, 0.0028336896, 10.003, 9.999449 
1.8149836e+3, 1.24780945e+2, -1870842.5, -1911279.6, 39946.28, -0.12534755, 0.14068642, -1846289.5, -129127.01, 0.10291468, 9.999353, 9.998925 
1.8149936e+3, 1.3478504e+2, -1616410.1, -1319581.9, -57313.188, -0.05521386, 0.25239745, -1308900.0, 310220.72, 0.06887483, 9.998638, 10.002796 
1.8150039e+3, 1.4478435e+2, -1690623.3, -1556562.0, -13393.267, 0.077621475, 0.016489498, -1555237.0, -34112.39, 0.036753505, 9.998552, 10.000418 
1.8150143e+3, 1.5478489e+2, -1563988.5, -1416357.8, 13213.271, 0.065483324, -0.034904383, -1415184.4, 7931.1206, 0.01378539, 9.998663, 10.000634 
1.8150239e+3, 1.6478552e+2, -1478377.4, -1386341.8, 9898.5205, -0.070033155, -0.003044478, -1385289.1, -60181.605, 0.002842686, 9.998828, 10.000098 
1.815035e+3, 1.7478636e+2, -1306738.9, -1231124.5, 44014.363, -0.058072537, 0.015229106, -1210908.9, 16191.294, 0.00016504708, 9.999271, 10.000253 
1.8150464e+3, 1.8478699e+2, -1221133.6, -1214163.9, 27524.76, -0.025980264, 0.0906408, -1189904.3, -60808.426, 0.00000012908751, 9.999481, 9.99962 
1.8150574e+3, 1.9478722e+2, -1108683.4, -1076782.8, 29666.85, -0.033579182, 0.089701355, -1059050.3, -27953.96, 0.0, 9.999469, 9.999879 
1.815068e+3, 2.047874e+2, -1016471.1, -1022717.44, -26138.762, -0.046300493, 0.14564301, -993269.56, -60173.14, 0.0, 9.999582, 9.999547 
1.8150786e+3, 2.1478742e+2, -826243.7, -852896.5, -8367.771, -0.014730979, 0.13575013, -823834.4, 11262.986, 0.0, 10.000121, 9.999763 
1.8150888e+3, 2.2478695e+2, -758473.75, -822240.6, -31850.285, -0.015782176, 0.14432605, -745290.6, -8189.5825, 0.0, 10.000143, 9.999285 
1.8150988e+3, 2.3478583e+2, -673864.6, -707007.1, -24160.67, -0.040502418, 0.043682326, -661138.3, -22029.344, 0.0, 9.999973, 9.99947 
1.815109e+3, 2.4478501e+2, -569959.6, -697136.2, -20784.014, -0.086269364, 0.06285887, -566649.1, -25533.479, 0.0, 10.000355, 9.998715 
1.8151194e+3, 2.547846e+2, -287259.16, -478646.84, 16957.982, -0.122021675, 0.08652527, -285768.22, 157352.03, 0.0, 10.001513, 9.99897 
1.8151298e+3, 2.6478353e+2, -211690.42, -492453.38, -20988.652, -0.12285557, 0.13593487, -210130.08, 135000.56, 0.0000000874347, 10.001767, 9.998087 
1.8151401e+3, 2.7478144e+2, -151490.03, -392132.3, -13208.517, -0.090293825, 0.05423983, -150767.2, 96383.65, 0.00001648955, 10.001443, 9.998243 
1.8151508e+3, 2.8477985e+2, -79526.54, -322135.84, -13673.868, -0.062168237, 0.089018874, -78758.29, 70408.45, 0.00017264318, 10.001291, 9.998143 
1.8151622e+3, 2.9477888e+2, 88334.3, -150853.2, 12440.076, 0.008266205, 0.090315826, 88979.56, 140156.97, 0.000683164, 10.001631, 9.998459 
1.815172e+3, 3.0477753e+2, 103166.86, -266497.3, -19168.254, -0.06901552, 0.18328935, 104158.14, 104158.14, 0.0015936061, 10.002063, 9.997129 
1.8151814e+3, 3.14775e+2, 245838.53, 22373.951, 38650.484, -0.19674072, 0.13479908, 252334.69, 252334.69, 0.002724428, 10.00207, 9.999079 
1.8249826e+3, 1.24770425e+2, -2198365.8, -2043079.5, 158981.14, -0.025144093, 0.0545126, -1943794.8, -226533.0, 0.10907774, 9.996978, 9.999164 
1.8249922e+3, 1.347769e+2, -1514043.6, -1270579.6, 9590.3545, -0.082959816, 0.39729762, -1270202.5, 348995.7, 0.07313931, 9.999331, 10.00285 
1.8250044e+3, 1.4477342e+2, -1567669.9, -1536903.5, 40841.71, 0.22666708, -0.107985206, -1508644.0, 12586.667, 0.039204508, 9.9996, 10.000039 
1.825014e+3, 1.5477446e+2, -1400640.5, -1394282.5, 31911.11, 0.11072129, -0.05682662, -1365392.4, 57825.14, 0.014855209, 10.000056, 10.000109 
1.8250234e+3, 1.6477509e+2, -1282023.9, -1286599.6, 37007.008, -0.054066084, -0.00045766402, -1247234.1, 77975.53, 0.0031336718, 10.000155, 10.000137 
1.8250348e+3, 1.747758e+2, -1213064.5, -1176263.1, 5744.97, -0.033444546, -0.0021137008, -1175387.1, 51814.637, 0.00019006866, 9.999888, 10.000328 
1.8250461e+3, 1.8477637e+2, -1215141.8, -1223714.9, 18958.465, 0.009329234, 0.07185078, -1199991.3, -70793.72, 0.00000015151502, 9.9995775, 9.999506 
1.8250568e+3, 1.9477649e+2, -1112335.3, -1087307.9, 8910.275, -0.03363451, 0.07249587, -1084459.8, -53259.9, 0.0, 9.999512, 9.999774 
1.8250677e+3, 2.0477651e+2, -1012759.06, -1025606.1, 12164.996, -0.0267434, 0.117756814, -1005425.8, -72223.77, 0.0, 9.999636, 9.99948 
1.8250792e+3, 2.1477617e+2, -846249.8, -866228.06, -5440.284, 0.053906173, 0.07434923, -844864.44, -9658.509, 0.0, 10.000016, 9.9997 
1.8250899e+3, 2.2477569e+2, -724079.25, -806086.06, 1077.8344, 0.073558204, 0.08292214, -724065.06, 13144.693, 0.0, 10.000349, 9.999313 
1.8250994e+3, 2.3477493e+2, -572847.44, -648173.4, -1602.7838, 0.004281333, 0.01301684, -572813.4, 66401.27, 0.0, 10.00061, 9.999573 
1.8251097e+3, 2.4477445e+2, -509557.47, -669232.9, 54592.008, -0.048043877, 0.057971988, -492677.28, 48541.117, 0.0, 10.000771, 9.998701 
1.8251209e+3, 2.547742e+2, -391945.22, -531588.06, 18333.188, -0.0761967, 0.104110114, -389578.44, 53643.063, 0.0, 10.0008, 9.998939 
1.8251316e+3, 2.64773e+2, -319456.3, -538379.5, -19907.715, -0.06907175, 0.13827132, -317660.75, 27572.143, 0.00000011582431, 10.001016, 9.998128 
1.8251419e+3, 2.747704e+2, -142589.52, -388386.28, -41554.29, -0.05900188, 0.011249594, -135754.44, 111502.5, 0.000015405387, 10.001502, 9.998246 
1.8251523e+3, 2.8476858e+2, -20976.006, -298591.25, 14706.566, -0.04082867, 0.023424543, -20199.104, 129075.586, 0.00016033741, 10.001732, 9.998084 
1.8251634e+3, 2.947677e+2, 90716.555, -169664.83, -26647.346, -0.015016005, 0.054338664, 93415.66, 144699.77, 0.00064014964, 10.001725, 9.99829 
1.8251744e+3, 3.047664e+2, 124289.67, -246034.75, 18204.273, -0.02042288, 0.15619022, 125182.4, 125182.4, 0.0015227208, 10.002145, 9.997241 
1.8251851e+3, 3.147637e+2, 374468.25, 65224.992, -25497.623, -0.057859294, 0.09532915, 376556.47, 376556.47, 0.0026626869, 10.002963, 9.998999 
1.834982e+3, 1.2476165e+2, -2158200.5, -1991680.3, 98563.75, 0.11561238, -0.05654737, -1945916.9, -228578.6, 0.11569034, 9.997115, 9.999444 
1.8349892e+3, 1.3476907e+2, -1555762.3, -1382890.0, 62378.7, -0.35958225, 0.48492327, -1362732.0, 256538.23, 0.07769921, 9.999428, 10.001986 
1.8350056e+3, 1.4476347e+2, -1575630.0, -1586249.6, 17534.309, 0.33134702, -0.17995211, -1562619.1, -41291.535, 0.04181763, 9.999733, 9.999635 
1.8350135e+3, 1.5476649e+2, -1438325.8, -1487091.5, 65857.66, 0.00039937792, 0.12818123, -1392482.1, 30816.49, 0.015997248, 10.000105, 9.99945 
1.8350223e+3, 1.647668e+2, -1295537.1, -1339861.6, 8407.599, -0.23570085, 0.21356177, -1293995.9, 31298.861, 0.0034491862, 10.000259, 9.999723 
1.8350345e+3, 1.7476551e+2, -1224750.5, -1214860.6, 6485.0713, -0.07529508, 0.04299859, -1211650.3, 15654.667, 0.00021871291, 9.999933, 10.000046 
1.8350461e+3, 1.8476546e+2, -1204646.5, -1197833.0, -4528.216, -0.0030545131, 0.055939548, -1195573.1, -66267.82, 0.00000018976193, 9.999565, 9.999687 
1.8350561e+3, 1.9476612e+2, -1118210.0, -1078503.4, 19383.682, -0.09948717, 0.0958043, -1070610.0, -39309.133, 0.0, 9.999416, 9.999883 
1.8350668e+3, 2.0476614e+2, -1043538.06, -1045710.4, 8190.3745, -0.11349741, 0.13962778, -1036362.1, -103060.26, 0.0, 9.999446, 9.999435 
1.8350792e+3, 2.1476549e+2, -881559.3, -887873.4, 20973.389, 0.022041995, 0.070107915, -863506.7, -28197.88, 0.0, 9.999792, 9.99966 
1.8350904e+3, 2.2476529e+2, -746721.4, -778481.5, -4661.048, 0.047941774, 0.09308473, -746051.5, -8741.864, 0.0, 10.000025, 9.999664 
1.8350999e+3, 2.3476544e+2, -583520.2, -610699.1, 25232.816, -0.046528786, 0.07556077, -568450.1, 70855.04, 0.0, 10.000351, 9.999963 
1.8351103e+3, 2.447649e+2, -590807.94, -755947.2, 36820.066, -0.10057734, 0.115105495, -582970.4, -41660.754, 0.0, 10.000414, 9.9982815 
1.8351218e+3, 2.5476336e+2, -474354.63, -628278.7, 38981.805, -0.077293545, 0.07859944, -465045.38, -21719.154, 0.0, 10.000485, 9.998428 
1.8351333e+3, 2.647617e+2, -363392.25, -558111.2, -17770.594, -0.04373087, 0.09103947, -361783.75, -16441.137, 0.000000090536304, 10.000696, 9.998152 
1.8351442e+3, 2.7475965e+2, -167470.03, -383323.78, 1128.4984, 0.0003878455, 0.0057282844, -167464.14, 79896.32, 0.00001528185, 10.001253, 9.998402 
1.8351546e+3, 2.8475764e+2, -97747.625, -374790.78, -12444.919, -0.038087506, 0.0038422323, -97189.72, 52189.566, 0.00015301355, 10.00137, 9.997735 
1.8351641e+3, 2.9475573e+2, 8774.547, -245044.08, 1335.2357, -0.15769994, -0.03250661, 8781.57, 60179.266, 0.0006077412, 10.001331, 9.997951 
1.8351756e+3, 3.0475414e+2, 62556.61, -250343.69, 24008.588, -0.14885502, 0.04928217, 64388.05, 64388.05, 0.0014712461, 10.001617, 9.997462 
1.8351875e+3, 3.1475344e+2, 254016.72, -9529.009, 40711.613, -0.1715283, 0.13638462, 260162.4, 260162.4, 0.0026389663, 10.002239, 9.998814 
1.8449819e+3, 1.24749996e+2, -2033759.1, -1951495.0, -43291.082, 0.36401495, -0.2287981, -1932911.4, -215462.61, 0.12272786, 9.99809, 9.9992485 
1.8449885e+3, 1.3475904e+2, -1807464.1, -1526594.8, -26250.738, -0.29150957, 0.51170146, -1524162.4, 95204.39, 0.08254445, 9.997857, 10.001663 
1.8450044e+3, 1.447524e+2, -1694285.9, -1636501.3, -33223.27, 0.30546674, -0.24052025, -1621364.5, -99928.68, 0.04459436, 9.998876, 9.999709 
1.8450134e+3, 1.5475674e+2, -1501399.1, -1500243.9, 34771.074, 0.013731815, 0.18742613, -1466045.6, -42650.746, 0.017215712, 9.999601, 9.999598 
1.8450229e+3, 1.6475742e+2, -1402107.6, -1400354.6, 30116.17, -0.16986905, 0.30424106, -1371102.3, -45714.434, 0.0037916328, 9.999587, 9.999636 
1.8450347e+3, 1.747552e+2, -1296394.5, -1256619.0, 7019.731, -0.028640974, 0.052627597, -1255416.5, -28010.191, 0.00025177147, 9.999495, 9.999971 
1.845046e+3, 1.847547e+2, -1204098.8, -1201499.8, 40272.95, 0.04938484, 0.027302954, -1162505.3, -33095.26, 0.00000025167606, 9.999585, 9.99965 
1.8450563e+3, 1.947555e+2, -1018787.2, -1036392.1, 19082.332, -0.038063064, 0.08325518, -1006574.94, 24828.385, 0.0, 10.000116, 9.999832 
1.8450673e+3, 2.047554e+2, -923234.94, -1012795.1, 28424.967, -0.056084037, 0.12818593, -914975.06, 18430.107, 0.0, 10.000383, 9.999217 
1.8450794e+3, 2.1475439e+2, -777459.0, -862592.9, -6176.1216, 0.02237789, 0.049948875, -777013.3, 58402.543, 0.0, 10.000628, 9.999439 
1.8450907e+3, 2.2475412e+2, -638671.4, -771916.7, -26271.068, 0.052316777, 0.09526811, -633678.75, 103740.0, 0.0, 10.000971, 9.999243 
1.8451011e+3, 2.347543e+2, -449829.6, -597614.2, -89552.55, -0.009965019, 0.124104135, -407619.66, 231796.7, 0.0, 10.001479, 9.999498 
1.8451118e+3, 2.4475364e+2, -436739.22, -646475.0, -80592.805, -0.035331022, 0.15848793, -409347.97, 132074.23, 0.0, 10.001344, 9.998569 
1.8451229e+3, 2.5475198e+2, -439695.88, -578924.94, -65102.598, -0.027854554, 0.08179733, -413997.6, 29440.758, 0.0, 10.000584, 9.998715 
1.8451345e+3, 2.6475024e+2, -368689.6, -576557.2, -14712.086, 0.023110861, 0.07976804, -367653.5, -22198.672, 0.00000009817215, 10.00073, 9.99801 
1.8451467e+3, 2.7474827e+2, -85893.55, -366179.38, -53298.06, 0.09989667, 0.023288734, -76100.74, 171372.45, 0.000013983738, 10.001909, 9.998201 
1.8451573e+3, 2.847462e+2, 32201.363, -322393.94, -74471.24, 0.06615622, 0.03189329, 47206.656, 196699.89, 0.00014297613, 10.002301, 9.997655 
1.845166e+3, 2.947442e+2, 83509.54, -213611.48, -103656.37, -0.11100876, -0.0008985029, 116097.766, 167610.31, 0.0005747027, 10.001856, 9.997926 
1.8451777e+3, 3.0474198e+2, 128941.555, -229999.2, 16543.713, -0.10343998, 0.020837517, 129702.445, 129702.445, 0.0014161514, 10.0021105, 9.9973755 
1.8451904e+3, 3.1474102e+2, 380126.06, 28392.527, -134888.75, -0.14547187, 0.11775854, 425898.84, 425898.84, 0.0025925788, 10.003172, 9.998634 
1.854978e+3, 1.24738865e+2, -2066278.4, -2104954.3, -188828.4, 0.068371594, -0.14841826, -1895800.3, -178240.39, 0.13014582, 9.998384, 9.998092 
1.8549891e+3, 1.347467e+2, -1808202.8, -1532385.1, 25949.727, -0.045240898, 0.44855925, -1529964.9, 89523.68, 0.08765755, 9.997863, 10.001626 
1.8550007e+3, 1.4474027e+2, -1627746.9, -1538215.5, -12522.134, -0.019299226, -0.30071324, -1536497.1, -14942.426, 0.04753598, 9.999042, 10.00031 
1.855013e+3, 1.5474527e+2, -1425640.4, -1367923.9, 71661.62, -0.0077378196, 0.11162113, -1319528.1, 103978.0, 0.01851746, 9.999699, 10.000474 
1.855024e+3, 1.6474685e+2, -1376014.8, -1366163.0, -2428.606, -0.06660405, 0.26350737, -1365596.9, -40107.598, 0.0041650403, 9.999675, 9.9998255 
1.8550345e+3, 1.7474478e+2, -1293151.5, -1248341.3, 18582.592, -0.032414336, 0.015025127, -1241638.0, -14131.471, 0.00029041685, 9.99948, 10.000037 
1.8550457e+3, 1.84744e+2, -1221100.1, -1235241.6, 39005.445, -0.0040300256, -0.02840576, -1188529.8, -59016.945, 0.0000003514084, 9.99958, 9.999422 
1.8550572e+3, 1.9474462e+2, -1048494.2, -1073540.4, 49279.836, 0.0034971924, 0.0318796, -1010171.2, 21336.451, 0.0, 10.000009, 9.99963 
1.8550682e+3, 2.0474428e+2, -985777.0, -1094610.3, 18530.752, -0.03162267, 0.086965784, -982708.4, -49196.367, 0.0, 10.000179, 9.998754 
1.8550792e+3, 2.1474285e+2, -845093.94, -948849.7, 18690.09, -0.07553409, 0.011419315, -841829.9, -6302.4077, 0.0, 10.000397, 9.998956 
1.8550907e+3, 2.2474201e+2, -761102.3, -955830.8, -22787.486, -0.08105131, 0.07946876, -758471.25, -20932.611, 0.0, 10.000661, 9.998134 
1.8551025e+3, 2.3474157e+2, -570028.3, -787002.25, -51218.926, -0.037124254, 0.16096325, -558545.25, 81002.02, 0.0, 10.001215, 9.998329 
1.8551134e+3, 2.447409e+2, -430760.63, -554396.3, -122448.73, -0.03627114, 0.2179927, -355410.22, 186143.56, 0.0, 10.000999, 9.999365 
1.8551233e+3, 2.5473997e+2, -412672.2, -461032.94, -75337.195, -0.063314974, 0.12120696, -357729.97, 85828.26, 0.0, 10.000325, 9.999643 
1.855135e+3, 2.6473853e+2, -442016.72, -651628.3, 7168.187, -0.026962314, 0.11579268, -441771.88, -96200.875, 0.00000008466028, 10.000403, 9.997649 
1.8551488e+3, 2.7473617e+2, -163664.75, -450396.56, 15864.365, 0.08710743, 0.057804495, -162789.67, 84806.42, 0.000011476472, 10.001589, 9.997772 
1.85516e+3, 2.8473425e+2, -35950.535, -371735.1, -111357.516, 0.072253056, 0.11468572, -2377.3982, 147238.81, 0.00012753624, 10.001899, 9.997517 
1.8551686e+3, 2.9473302e+2, 38670.082, -222522.47, -93472.11, -0.07187622, 0.15750398, 68674.0, 120302.38, 0.0005324824, 10.001498, 9.998036 
1.85518e+3, 3.047299e+2, 9818.059, -362872.28, 27750.605, -0.13483751, 0.11053702, 11873.044, 11873.044, 0.0013398622, 10.001622, 9.996693 
1.8551934e+3, 3.1472835e+2, 239265.83, -54411.824, -66462.72, -0.2249713, 0.21436076, 253606.81, 253606.81, 0.002484606, 10.00231, 9.998458 
1.8649754e+3, 1.24728054e+2, -2086623.4, -2022690.1, -119011.516, 0.007127653, -0.07275901, -1931426.9, -213759.3, 0.1378835, 9.997915, 9.998841 
1.8649893e+3, 1.3473423e+2, -1520580.5, -1382434.1, 79958.45, 0.10310329, 0.31620455, -1345845.4, 273764.0, 0.09301642, 9.999845, 10.001787 
1.8649991e+3, 1.447297e+2, -1569610.4, -1512693.8, 46547.01, -0.086091526, -0.2436148, -1486594.8, 35060.723, 0.050644647, 9.999465, 10.000283 
1.8650128e+3, 1.5473387e+2, -1543771.6, -1417712.4, 23549.664, 0.04829591, 0.07879967, -1413456.6, 10159.863, 0.01991141, 9.998866, 10.0005245 
1.8650243e+3, 1.6473539e+2, -1469942.6, -1413572.9, -35164.656, 0.054681137, 0.22331703, -1396691.8, -71090.41, 0.0045744055, 9.999025, 9.999809 
1.8650346e+3, 1.7473394e+2, -1182229.0, -1188843.5, -51002.76, 0.0044534854, 0.029132064, -1134426.4, 93186.82, 0.0003360051, 10.000223, 10.0000725 
1.8650457e+3, 1.8473323e+2, -1090301.0, -1187109.5, -8011.6987, 0.018531153, -0.0034741408, -1089642.5, 39976.36, 0.00000050835786, 10.000539, 9.999294 
1.8650576e+3, 1.9473335e+2, -1021416.25, -1075273.3, -25616.975, 0.054437157, 0.020994706, -1011177.9, 20440.102, 0.0, 10.00025, 9.999511 
1.8650693e+3, 2.0473297e+2, -929460.1, -1080040.4, 19718.871, 0.04354744, 0.078947, -926920.7, 6702.029, 0.0, 10.000607, 9.998651 
1.8650806e+3, 2.1473177e+2, -639151.94, -863247.7, 15563.787, -0.033343356, 0.036161784, -638076.2, 197559.8, 0.0, 10.001848, 9.998848 
1.8650922e+3, 2.2473066e+2, -573158.9, -871142.9, 21191.135, -0.04672635, 0.08580568, -571659.4, 165990.03, 0.0, 10.001993, 9.998075 
1.8651037e+3, 2.3472956e+2, -604270.0, -807883.75, 30022.822, -0.013147698, 0.11324431, -599935.44, 39728.574, 0.0, 10.001022, 9.9982815 
1.8651149e+3, 2.4472864e+2, -447435.6, -611504.3, 4670.2383, 0.009522019, 0.16974632, -447302.75, 94371.01, 0.0, 10.001086, 9.9989395 
1.8651253e+3, 2.5472778e+2, -160106.08, -392746.97, -75840.28, 0.003599332, 0.12698665, -137566.19, 306113.8, 0.0, 10.002285, 9.999175 
1.865137e+3, 2.6472634e+2, -114342.305, -469937.28, 9092.308, 0.039603643, 0.13772832, -114109.97, 231583.88, 0.000000065173005, 10.002554, 9.997863 
1.8651505e+3, 2.7472413e+2, -110267.23, -400994.03, 14727.226, 0.102407336, 0.07643004, -109523.1, 138194.2, 0.000009433609, 10.001853, 9.997989 
1.865162e+3, 2.8472272e+2, -28061.379, -373788.9, -40778.61, 0.09637117, 0.17371322, -23316.652, 126416.11, 0.00011541344, 10.001987, 9.997446 
1.8651712e+3, 2.9472214e+2, 264042.34, -126757.336, -81949.35, -0.014131752, 0.29272836, 280531.13, 332271.1, 0.0004967766, 10.003107, 9.99791 
1.8651825e+3, 3.0471814e+2, 258331.17, -235181.44, 93683.516, -0.10551785, 0.16495173, 275516.66, 275516.66, 0.0012631787, 10.003284, 9.99676 
1.8651964e+3, 3.1471637e+2, 283174.94, -11283.744, -72068.98, -0.13520998, 0.24132594, 299867.6, 299867.6, 0.0023412905, 10.002462, 9.998686 
1.874975e+3, 1.2471813e+2, -1863002.4, -1598175.4, -50203.297, 0.06557635, -0.036075108, -1588977.8, 128788.39, 0.14588223, 9.998023, 10.001841 
1.8749888e+3, 1.3472179e+2, -1510019.3, -1379521.3, 108598.484, 0.026434794, 0.10250996, -1318077.5, 301649.5, 0.0986057, 9.999929, 10.001787 
1.874999e+3, 1.4472076e+2, -1599448.8, -1605280.6, -1098.348, -0.124037206, -0.0742216, -1599248.8, -77510.74, 0.053927336, 9.999588, 9.999582 
1.8750119e+3, 1.5472245e+2, -1591130.6, -1524423.6, 19501.36, 0.031190466, 0.07774888, -1519140.9, -95413.76, 0.021407956, 9.998894, 9.999783 
1.8750237e+3, 1.6472305e+2, -1458026.0, -1412073.6, -6735.967, 0.023919737, 0.16904604, -1411106.6, -85382.9, 0.0050250688, 9.999126, 9.999774 
1.8750346e+3, 1.7472266e+2, -1186454.4, -1198292.5, 7891.7207, -0.067903414, 0.09179731, -1182508.6, 45217.652, 0.00038988978, 10.000215, 10.000023 
1.8750457e+3, 1.8472221e+2, -1092687.0, -1185339.8, -40839.363, -0.08871635, 0.086371124, -1077255.9, 52474.004, 0.000000733184, 10.000514, 9.999319 
1.8750574e+3, 1.947217e+2, -1040281.8, -1086240.8, -23291.795, -0.02615223, 0.049084578, -1030541.8, 1193.0792, 0.0, 10.000135, 9.999492 
1.8750699e+3, 2.0472136e+2, -928382.4, -1046765.44, 44152.47, -0.0047672275, 0.10043631, -913728.94, 20009.45, 0.0, 10.0004635, 9.998954 
1.875083e+3, 2.1472114e+2, -655290.1, -839247.7, 75244.45, -0.002830173, 0.12614469, -628433.6, 207307.55, 0.0, 10.0016, 9.999134 
1.8750946e+3, 2.2472009e+2, -570919.6, -785511.0, -32795.242, -0.03247192, 0.13126828, -566019.56, 171731.22, 0.0, 10.001634, 9.998841 
1.8751043e+3, 2.3471808e+2, -586117.56, -706718.75, 8552.722, -0.08172077, -0.017756399, -585514.0, 54254.54, 0.0, 10.00075, 9.999104 
1.8751155e+3, 2.4471653e+2, -609578.44, -870531.1, 29080.47, -0.07155881, 0.009584442, -606377.0, -64591.12, 0.0, 10.000746, 9.997332 
1.8751279e+3, 2.5471523e+2, -321729.16, -654972.6, -9626.027, 0.014562027, 0.09027009, -321451.3, 122353.79, 0.0, 10.001977, 9.997521 
1.87514e+3, 2.6471373e+2, -122412.7, -411689.44, -30947.207, 0.03687966, 0.15285997, -119138.98, 226683.58, 0.00000004605578, 10.002214, 9.998436 
1.8751515e+3, 2.7471218e+2, -106136.664, -324727.78, 13585.703, -0.009692246, 0.09188953, -105295.53, 142540.86, 0.000008319171, 10.0015545, 9.998664 
1.8751627e+3, 2.847115e+2, -96816.37, -426924.94, -18656.523, -0.07770859, 0.23494309, -95765.32, 54078.37, 0.00010877433, 10.001601, 9.99727 
1.8751737e+3, 2.947111e+2, 175462.47, -202622.58, -6525.053, -0.12517057, 0.39660266, 175575.05, 227425.58, 0.00047285456, 10.002655, 9.997604 
1.8751846e+3, 3.0470622e+2, 224739.39, -174606.17, 38708.79, -0.26863715, 0.16123538, 228456.86, 228456.86, 0.0011966277, 10.002744, 9.997431 
1.8752004e+3, 3.1470415e+2, 192951.25, 17237.438, -39628.387, -0.047461838, 0.13197257, 201475.08, 201475.08, 0.002193649, 10.001592, 9.999282 
1.8849735e+3, 1.24708086e+2, -1776495.1, -1460864.5, -14753.81, 0.13585863, -0.0002041475, -1460176.4, 257685.95, 0.15411249, 9.998002, 10.003001 
1.8849877e+3, 1.347093e+2, -1990507.8, -1701096.1, 40218.996, 0.083105564, -0.019002916, -1695610.9, -75762.54, 0.10442951, 9.996976, 10.000838 
1.8849988e+3, 1.447104e+2, -1797944.0, -1690281.4, -35871.223, -0.0022787359, 0.059712123, -1679424.6, -157585.94, 0.057399224, 9.998221, 9.999629 
1.8850113e+3, 1.5471053e+2, -1431392.5, -1428838.5, 2345.8735, 0.03714332, 0.043257073, -1427444.5, -3602.7405, 0.023018045, 9.999969, 9.999884 
1.8850231e+3, 1.6471072e+2, -1311844.5, -1368466.9, 26355.236, 0.012955431, 0.0970054, -1301476.0, 24366.8, 0.005521801, 10.00024, 9.999537 
1.8850347e+3, 1.7471093e+2, -1288685.5, -1273734.5, -3782.8335, -0.019538332, 0.10417793, -1272831.9, -44990.527, 0.0004532519, 9.999615, 9.999799 
1.8850465e+3, 1.8471059e+2, -1199071.6, -1264174.5, -15297.4375, -0.023752917, 0.13165723, -1195656.3, -65811.03, 0.0000010252129, 9.999894, 9.999069 
1.885058e+3, 1.9470948e+2, -853561.75, -1019888.7, -39215.316, -0.03858276, 0.05398422, -844779.56, 187077.14, 0.0, 10.001511, 9.999272 
1.8850705e+3, 2.0470907e+2, -732619.75, -928381.44, 23589.244, -0.023914598, 0.096586645, -729817.4, 204043.7, 0.0, 10.001707, 9.999169 
1.8850842e+3, 2.1470919e+2, -792257.4, -881466.75, 12734.761, 0.01486394, 0.13965267, -790475.06, 45384.71, 0.0, 10.000544, 9.999362 
1.8850961e+3, 2.2470851e+2, -726914.44, -810687.1, -71393.414, 0.028032519, 0.1468648, -686027.06, 51838.14, 0.0, 10.000374, 9.999254 
1.8851061e+3, 2.3470676e+2, -451777.1, -600495.2, -92529.09, -0.02028314, -0.011714596, -407431.03, 232448.31, 0.0, 10.001505, 9.999463 
1.8851171e+3, 2.447054e+2, -424560.53, -779063.9, 15583.529, -0.015170022, 0.01775528, -423876.8, 118017.68, 0.0, 10.002021, 9.997334 
1.8851298e+3, 2.547043e+2, -339112.13, -669554.3, 48897.566, 0.021091575, 0.1190293, -332028.28, 111884.49, 0.0, 10.001886, 9.997461 
1.885142e+3, 2.647028e+2, -177306.25, -443136.38, 71870.766, 0.04513805, 0.1863684, -159119.28, 186811.11, 0.000000017635879, 10.001887, 9.998358 
1.8851535e+3, 2.747011e+2, -22278.773, -281082.28, 23234.314, 0.011984544, 0.11368279, -20209.44, 227735.94, 0.000007223604, 10.002158, 9.998643 
1.885165e+3, 2.8470004e+2, 918.4823, -379865.53, 45765.0, -0.03410153, 0.22416738, 6341.57, 156296.89, 0.00010058898, 10.002292, 9.997254 
1.8851767e+3, 2.9469895e+2, 137823.8, -232492.97, 20593.832, -0.05360207, 0.31804976, 138965.53, 190934.0, 0.00044370364, 10.002428, 9.997516 
1.8851873e+3, 3.0469444e+2, 236711.92, -144728.05, 72651.414, -0.2562244, 0.119391605, 250080.98, 250080.98, 0.0011208182, 10.002659, 9.997719 
1.8852043e+3, 3.1469294e+2, 306873.94, 34454.617, -130028.805, 0.15112971, 0.11754673, 358974.03, 358974.03, 0.0020397787, 10.002486, 9.999001 
1.8949698e+3, 1.24696605e+2, -1806388.1, -1588117.6, -143580.6, -0.1488508, -0.082798496, -1516903.5, 201065.22, 0.16258536, 9.998357, 10.001886 
1.8949848e+3, 1.34697e+2, -2096097.0, -1926759.5, 65743.75, 0.06418828, -0.013077043, -1904232.0, -284260.72, 0.110513955, 9.996991, 9.999298 
1.8949986e+3, 1.4469862e+2, -1718536.6, -1542139.1, 24104.14, 0.08223344, 0.14452793, -1538904.6, -16946.807, 0.06108175, 9.998301, 10.000605 
1.8950105e+3, 1.54698e+2, -1373987.9, -1315751.6, 77718.13, -0.078924395, -0.027575402, -1261875.9, 162085.69, 0.024752133, 9.999991, 10.00067 
1.895022e+3, 1.6469817e+2, -1310264.4, -1403799.0, -19935.684, -0.18004434, 0.0027115855, -1306192.5, 19767.807, 0.0060684755, 10.000397, 9.999221 
1.895035e+3, 1.7469858e+2, -1308377.0, -1320384.3, -16732.943, 0.0029001315, 0.060044944, -1296603.3, -68643.48, 0.0005270964, 9.999636, 9.99947 
1.8950474e+3, 1.8469818e+2, -1218994.4, -1310431.6, 24530.848, 0.038304657, 0.11285239, -1212828.9, -82862.16, 0.0000013718216, 9.999927, 9.998729 
1.8950589e+3, 1.9469692e+2, -898338.2, -1082540.8, 31230.184, -0.13756107, 0.055319246, -893187.4, 138793.98, 0.0, 10.001389, 9.998896 
1.895071e+3, 2.0469624e+2, -753862.2, -932718.5, -34328.97, -0.20502901, 0.08769721, -747499.56, 186489.56, 0.0, 10.001521, 9.999238 
1.8950838e+3, 2.1469608e+2, -815149.5, -879643.4, -13398.641, -0.11312187, 0.08740207, -812476.7, 23514.002, 0.0, 10.000324, 9.999485 
1.8950962e+3, 2.2469586e+2, -777357.7, -836143.94, -50300.96, -0.037922647, 0.13794653, -748491.5, -10498.757, 0.0, 10.000032, 9.999244 
1.8951082e+3, 2.3469564e+2, -493743.03, -621006.75, -29625.553, 0.011233645, 0.13059542, -487184.53, 152810.73, 0.0, 10.001222, 9.9994545 
1.8951197e+3, 2.4469537e+2, -382578.1, -615823.7, -7329.747, -0.01666991, 0.20365648, -382348.0, 159650.47, 0.0, 10.0016775, 9.998628 
1.8951306e+3, 2.5469482e+2, -286490.16, -493382.7, 58770.19, -0.11135424, 0.22335851, -270961.38, 173042.86, 0.0, 10.001596, 9.998812 
1.8951426e+3, 2.6469314e+2, -276422.13, -572216.8, 60492.06, -0.10461251, 0.2420986, -264529.25, 81491.516, 0.0000000071100716, 10.001553, 9.997632 
1.8951558e+3, 2.746904e+2, -123446.164, -410377.7, 52136.633, -0.00490287, 0.13744982, -114266.414, 133781.52, 0.0000064443307, 10.00182, 9.997912 
1.8951681e+3, 2.846881e+2, -48744.746, -394436.5, 24082.867, 0.0032220413, 0.1487503, -47075.06, 102995.22, 0.0000894982, 10.001899, 9.997347 
1.89518e+3, 2.946854e+2, 72585.82, -270784.34, 57689.387, -0.0042534685, 0.07265781, 82019.02, 134114.66, 0.00040238924, 10.002004, 9.997461 
1.8951894e+3, 3.046828e+2, 145505.4, -205060.19, 50583.637, -0.34733328, 0.07896994, 152658.25, 152658.25, 0.0010279405, 10.002139, 9.997534 
1.895207e+3, 3.1468266e+2, 54831.53, -246936.66, -13631.844, 0.11091977, 0.21666004, 55446.074, 55446.074, 0.0018812018, 10.001534, 9.997487 
1.9049677e+3, 1.2468469e+2, -1859932.3, -1655110.5, -189660.2, -0.16414768, -0.07684455, -1541977.9, 176107.95, 0.1713416, 9.998306, 10.001368 
1.9049817e+3, 1.34685e+2, -1794196.6, -1848082.9, 49555.043, -0.046622787, 0.025809892, -1764733.8, -144642.77, 0.11689223, 9.999423, 9.998625 
1.9049987e+3, 1.4468557e+2, -1605847.8, -1491359.8, 49808.95, 0.23894462, 0.119089, -1472723.5, 49364.277, 0.06499328, 9.999024, 10.000657 
1.9050102e+3, 1.5468523e+2, -1536815.8, -1359048.1, 28817.62, -0.03923781, -0.054893516, -1354493.3, 69592.91, 0.026617203, 9.998652, 10.001047 
1.9050217e+3, 1.6468583e+2, -1535840.4, -1515563.3, -46802.188, -0.17477433, 0.0015103167, -1477814.1, -151734.31, 0.0066676727, 9.998875, 9.999189 
1.9050351e+3, 1.7468597e+2, -1216237.9, -1276832.4, -55701.78, 0.019016545, 0.036430728, -1183126.9, 44955.92, 0.0006122247, 10.00029, 9.999445 
1.905048e+3, 1.8468556e+2, -1120372.4, -1254723.9, 43086.48, 0.075959876, 0.08803612, -1107742.0, 22348.59, 0.0000017786746, 10.000586, 9.998799 
1.9050598e+3, 1.9468494e+2, -1085566.0, -1166188.1, 46549.066, -0.10447754, 0.09402441, -1064299.5, -32199.621, 0.0, 10.000086, 9.998962 
1.9050717e+3, 2.0468444e+2, -975443.8, -1027641.0, 73.03995, -0.17095563, 0.1405861, -975443.7, -41337.547, 0.0, 9.999992, 9.999294 
1.9050841e+3, 2.146838e+2, -767546.56, -850942.0, -26002.605, -0.116445, 0.08818731, -760103.25, 76008.586, 0.0, 10.000659, 9.9995 
1.9050966e+3, 2.2468348e+2, -644813.9, -804468.9, -8238.008, -0.04112792, 0.13800327, -644389.94, 93725.766, 0.0, 10.001048, 9.998986 
1.9051094e+3, 2.3468351e+2, -515380.06, -668909.4, -37167.1, 0.027863115, 0.18308383, -506855.78, 133261.52, 0.0, 10.001191, 9.999158 
1.9051215e+3, 2.4468331e+2, -404276.3, -565109.94, -37666.395, 0.03490447, 0.25317064, -395892.13, 146226.69, 0.0, 10.001291, 9.999149 
1.9051327e+3, 2.5468248e+2, -254859.1, -412837.7, -67779.17, -0.040360224, 0.19240198, -229765.14, 214358.56, 0.0, 10.001545, 9.999381 
1.9051449e+3, 2.6468083e+2, -238362.9, -551872.94, -23393.395, -0.040215872, 0.18236674, -236626.97, 109511.49, 0.000000016068412, 10.001785, 9.997666 
1.9051576e+3, 2.7467847e+2, -79635.99, -402248.78, -22613.896, -0.0022709745, 0.12088354, -78058.555, 170104.36, 0.000006020835, 10.002113, 9.997854 
1.9051705e+3, 2.846761e+2, 48990.69, -324760.34, 22616.545, 0.04497184, 0.11976495, 50354.293, 200540.3, 0.00007835106, 10.002456, 9.997565 
1.905184e+3, 2.9467317e+2, 231745.22, -160482.19, 10844.053, 0.15187946, -0.0043050647, 232044.8, 284258.06, 0.00035568743, 10.002958, 9.997751 
1.9051932e+3, 3.0467194e+2, 336176.75, -93212.25, 65106.875, -0.22675176, 0.11161487, 345831.63, 345831.63, 0.0009266064, 10.003375, 9.997712 
1.9052102e+3, 3.146706e+2, 330242.8, -166162.83, -52060.816, 0.1933499, 0.13187799, 335643.97, 335643.97, 0.0017278214, 10.00357, 9.9971075 
1.9149686e+3, 1.24672316e+2, -1901555.4, -1750208.3, -179294.34, -0.006951705, 0.0016877265, -1631272.0, 86942.195, 0.18042894, 9.998388, 10.000571 
1.9149786e+3, 1.3467258e+2, -1789315.4, -1843838.0, 71670.336, -0.34480396, 0.046776947, -1739896.8, -119682.055, 0.12358676, 9.999459, 9.9986315 
1.9149983e+3, 1.4467093e+2, -1623279.9, -1575670.8, 2700.387, 0.23007624, -0.012431664, -1575518.1, -53286.957, 0.069141634, 9.999232, 9.999961 
1.9150095e+3, 1.5467219e+2, -1526569.6, -1342612.3, 23677.521, -0.017332278, -0.030260036, -1339613.5, 84602.414, 0.028615344, 9.998674, 10.001151 
1.9150212e+3, 1.6467379e+2, -1497203.4, -1466980.5, -16302.212, -0.15616131, 0.10047672, -1459863.1, -133663.02, 0.0073205116, 9.999005, 9.999459 
1.9150344e+3, 1.746732e+2, -1208699.1, -1256283.6, 7949.72, -0.11736771, 0.044350393, -1207406.1, 20803.002, 0.00070924795, 10.00027, 9.999592 
1.9150473e+3, 1.8467286e+2, -1087934.8, -1196189.1, 1782.5159, -0.09446357, 0.07826127, -1087905.5, 42310.227, 0.0000023137907, 10.000613, 9.999194 
1.9150604e+3, 1.9467358e+2, -1069095.1, -1106282.1, 39942.543, -0.079098225, 0.17465037, -1043630.44, -11418.573, 0.0, 9.999972, 9.999432 
1.915073e+3, 2.0467353e+2, -1010635.25, -1061816.4, 5505.104, -0.104502924, 0.24602562, -1010049.8, -75836.125, 0.0, 9.999817, 9.999147 
1.9150847e+3, 2.1467222e+2, -811666.1, -890567.1, 11791.644, -0.1432773, 0.14185533, -809941.6, 26283.652, 0.0, 10.000428, 9.99934 
1.9150968e+3, 2.2467119e+2, -727854.06, -892952.75, -16939.932, -0.15197308, 0.14998311, -726133.9, 12101.619, 0.0, 10.000687, 9.998555 
1.9151095e+3, 2.346705e+2, -591570.4, -753042.44, -15515.778, -0.104924634, 0.1697813, -590093.0, 50151.02, 0.0, 10.00089, 9.998721 
1.9151223e+3, 2.446693e+2, -474766.3, -629680.4, -45434.4, -0.04052869, 0.1783731, -462424.25, 79830.87, 0.0, 10.000936, 9.99888 
1.9151355e+3, 2.5466743e+2, -314776.22, -465206.28, -38517.984, 0.06152177, 0.036474288, -305487.2, 138782.8, 0.0, 10.001241, 9.999166 
1.9151479e+3, 2.646662e+2, -246925.95, -488016.56, -32141.37, 0.036112178, 0.045092758, -242714.53, 103566.234, 0.000000038925435, 10.001425, 9.998287 
1.9151586e+3, 2.746655e+2, -80938.445, -332449.22, 9291.894, -0.14682992, 0.08733668, -80595.63, 167693.06, 0.0000054500297, 10.001811, 9.998478 
1.9151717e+3, 2.8466415e+2, 11237.14, -320941.88, 18096.963, -0.117011584, 0.14889425, 12220.1455, 162522.6, 0.00006657065, 10.002102, 9.997765 
1.9151878e+3, 2.94662e+2, 174427.64, -164960.69, 56776.52, 0.21101958, 0.0773016, 183673.92, 235997.77, 0.00030471265, 10.002479, 9.997951 
1.9151978e+3, 3.0466178e+2, 281393.16, -84303.79, 41867.824, -0.14782861, 0.2730411, 286125.28, 286125.28, 0.00081498816, 10.002847, 9.99802 
1.9152105e+3, 3.1465876e+2, 244769.56, -108783.55, 64382.51, -0.20221302, 0.06463752, 256128.75, 256128.75, 0.0015623597, 10.002633, 9.997912 
1.92497e+3, 1.24659956e+2, -1895635.1, -1747804.3, -64836.992, 0.29625666, 0.2340302, -1723397.1, -5057.6216, 0.18987963, 9.998419, 10.000498 
1.9249797e+3, 1.3465865e+2, -1777760.5, -1741336.8, -12130.502, -0.13747653, 0.005322009, -1737666.6, -117314.14, 0.13060497, 9.999084, 9.999534 
1.9249965e+3, 1.446582e+2, -1733290.9, -1641374.4, 15196.908, 0.18592508, 0.039268482, -1638927.0, -116570.54, 0.07352615, 9.998577, 9.999801 
1.9250083e+3, 1.5465961e+2, -1527318.3, -1327563.4, 2553.0667, 0.012908949, 0.025854718, -1327530.8, 96810.445, 0.030745408, 9.9986315, 10.001262 
1.9250208e+3, 1.6466084e+2, -1505181.6, -1456589.9, 36856.05, -0.07437917, 0.10641483, -1436742.1, -110412.984, 0.008026891, 9.998901, 9.999573 
1.9250344e+3, 1.7466024e+2, -1247145.3, -1265480.9, 22619.24, -0.115124546, 0.037728265, -1231906.5, -3569.69, 0.0008187495, 9.999967, 9.999678 
1.9250478e+3, 1.8466003e+2, -1147154.3, -1232240.5, -18306.582, -0.090295516, 0.083625615, -1143382.8, -13041.503, 0.0000031359323, 10.000208, 9.999144 
1.9250607e+3, 1.9466075e+2, -1063422.0, -1106100.1, -47767.035, -0.0302334, 0.17760503, -1032444.25, -106.65419, 0.0, 9.999987, 9.999422 
1.9250736e+3, 2.0466065e+2, -982790.2, -1042664.4, -26622.787, -0.010977829, 0.23975301, -972664.8, -38325.688, 0.0, 9.999976, 9.999205 
1.925086e+3, 2.1465938e+2, -790813.5, -871745.25, -32625.033, -0.05165083, 0.13262777, -779299.8, 57049.535, 0.0, 10.000537, 9.999415 
1.9250984e+3, 2.2465819e+2, -683001.25, -886296.56, -15639.824, -0.074870266, 0.12910381, -681805.1, 56555.38, 0.0, 10.001087, 9.9984 
1.9251107e+3, 2.3465696e+2, -483706.97, -717417.44, -31993.06, -0.105597176, 0.113430634, -479406.53, 160967.89, 0.0, 10.001714, 9.998569 
1.9251235e+3, 2.4465553e+2, -373167.38, -591938.94, -34742.6, -0.041077074, 0.10967733, -367782.53, 174605.75, 0.0, 10.0016575, 9.9987955 
1.9251369e+3, 2.5465387e+2, -362167.2, -509627.2, -52941.625, 0.10331308, 0.0031612064, -345128.63, 99273.3, 0.0, 10.000968, 9.99901 
1.9251497e+3, 2.6465297e+2, -264121.6, -461929.66, 22101.857, 0.100537926, 0.0335233, -261682.16, 84728.03, 0.000000047147957, 10.001175, 9.99858 
1.9251609e+3, 2.7465242e+2, 37521.68, -241367.39, -1714.8182, -0.11541521, 0.06653929, 37532.223, 285947.88, 0.0000044268, 10.002484, 9.998779 
1.9251741e+3, 2.8465134e+2, 122892.55, -255301.94, -4270.4976, -0.10528362, 0.131287, 122940.766, 273367.84, 0.000054025306, 10.002842, 9.997843 
1.9251898e+3, 2.9464966e+2, 161846.03, -175281.89, -30107.172, 0.18031622, 0.11095536, 164513.64, 216957.86, 0.00025237876, 10.00239, 9.997924 
1.9252011e+3, 3.0464843e+2, 252243.5, -83128.25, 25266.393, -0.06805059, 0.19871198, 254136.36, 254136.36, 0.00069601834, 10.002566, 9.998167 
1.9252148e+3, 3.1464678e+2, 399353.66, 40759.406, -43251.25, -0.03427193, 0.12934637, 404496.56, 404496.56, 0.0013738653, 10.003268, 9.998679 
1.9349653e+3, 1.2464271e+2, -1831482.5, -1669225.5, 117293.336, -0.11040409, 0.12745579, -1607737.1, 110772.375, 0.1997211, 9.998585, 10.001118 
1.9349837e+3, 1.3464347e+2, -1654240.0, -1491849.1, -12429.351, 0.31010765, -0.079553746, -1490903.4, 129598.625, 0.13795441, 9.999037, 10.001406 
1.934993e+3, 1.4464757e+2, -1677946.1, -1580388.8, -5643.317, -0.10024597, 0.28668076, -1580063.4, -57601.934, 0.07814733, 9.998791, 10.000124 
1.9350064e+3, 1.5464754e+2, -1516856.3, -1326901.1, 14662.41, -0.08434809, 0.12395892, -1325776.0, 98685.336, 0.033007, 9.998704, 10.001242 
1.9350198e+3, 1.6464691e+2, -1486691.1, -1446201.4, 52370.24, -0.13615532, 0.024680037, -1410299.1, -83831.93, 0.008786739, 9.999012, 9.999596 
1.9350347e+3, 1.746469e+2, -1238383.0, -1252737.5, 74429.336, -0.12156656, 0.008863493, -1170785.6, 57681.54, 0.00094156526, 9.999984, 9.999763 
1.9350484e+3, 1.84647e+2, -1164429.8, -1280268.4, -43890.227, -0.10626895, 0.09222432, -1149678.5, -19210.6, 0.0000044945964, 10.000257, 9.998792 
1.9350605e+3, 1.9464663e+2, -1110904.0, -1182492.3, -43200.668, -0.101277485, 0.12097738, -1090595.4, -58120.227, 0.0, 9.999883, 9.998954 
1.9350734e+3, 2.0464604e+2, -989428.06, -1014535.1, -26772.13, -0.07766756, 0.14644581, -972412.44, -37931.598, 0.0, 9.999791, 9.99949 
1.9350874e+3, 2.1464536e+2, -808604.44, -847654.44, 2600.3135, 0.01014102, 0.069069624, -808432.0, 28051.262, 0.0, 10.000278, 9.999705 
1.9351004e+3, 2.2464433e+2, -737045.75, -906997.8, -8895.851, -0.0049641943, 0.06479752, -736581.4, 1910.7809, 0.0, 10.000698, 9.998442 
1.9351123e+3, 2.346428e+2, -522845.28, -729283.2, 7424.539, -0.13218817, 0.013789799, -522578.63, 117930.89, 0.0, 10.00142, 9.998623 
1.9351244e+3, 2.4464191e+2, -422643.75, -612775.44, -78901.086, -0.1626095, 0.06063611, -394166.5, 148352.69, 0.0, 10.0013, 9.998831 
1.9351366e+3, 2.5464168e+2, -397652.3, -522219.06, -63333.332, -0.054558363, 0.08940213, -371108.16, 73413.1, 0.0, 10.0007105, 9.999047 
1.9351499e+3, 2.6464084e+2, -328543.03, -506032.63, 47815.97, -0.019469654, 0.13585675, -316481.03, 30048.084, 0.00000001782158, 10.000801, 9.998453 
1.935164e+3, 2.7463916e+2, -27990.184, -277538.78, 65327.914, -0.07574096, 0.06136454, -11922.861, 236622.1, 0.0000033385966, 10.002086, 9.998708 
1.9351771e+3, 2.8463775e+2, 50120.793, -315610.72, -50220.547, -0.13646662, 0.10864508, 56891.5, 207450.16, 0.00004416703, 10.002439, 9.997631 
1.9351894e+3, 2.946363e+2, 98321.984, -214882.42, -24930.363, -0.15015885, 0.12721306, 100293.97, 152867.06, 0.00021030588, 10.002009, 9.9978285 
1.9352025e+3, 3.046324e+2, 164347.19, -156936.28, 23239.629, -0.22845532, -0.042079534, 166019.5, 166019.5, 0.00059174973, 10.002099, 9.997886 
1.9352205e+3, 3.1463286e+2, 298682.4, 74386.125, 65781.11, 0.15563947, 0.11938384, 316551.03, 316551.03, 0.0011892852, 10.002305, 9.999337 
1.944961e+3, 1.246266e+2, -1932182.4, -1740547.4, 205456.88, -0.34632194, 0.002350545, -1609663.5, 109004.91, 0.20999403, 9.998009, 10.000905 
1.9449846e+3, 1.3462873e+2, -1666189.8, -1407643.6, 18783.668, 0.5413803, -0.15235609, -1406286.1, 214360.88, 0.14565058, 9.998461, 10.002393 
1.9449899e+3, 1.4463498e+2, -1561362.4, -1527992.1, -2120.514, -0.32010335, 0.36798573, -1527857.9, -5272.3027, 0.083007626, 9.999577, 10.000129 
1.9450058e+3, 1.546344e+2, -1476167.9, -1340753.0, -59882.34, -0.018151872, 0.17602356, -1318071.3, 106521.12, 0.03539992, 9.999113, 10.000963 
1.9450201e+3, 1.6463315e+2, -1508897.3, -1450020.6, 50980.582, 0.022838684, 0.02678433, -1420589.3, -93984.664, 0.009600047, 9.998835, 9.999658 
1.9450349e+3, 1.7463347e+2, -1239693.4, -1239741.1, 46711.21, -0.076942116, 0.034390822, -1193006.0, 35594.35, 0.0010784023, 9.999923, 9.999877 
1.9450487e+3, 1.8463358e+2, -1137816.8, -1268820.0, -73214.74, -0.08693214, 0.11424927, -1105079.6, 25520.008, 0.0000066792873, 10.000466, 9.998771 
1.9450608e+3, 1.9463247e+2, -1000376.7, -1129299.3, -79824.15, -0.09074831, 0.07521888, -962236.06, 70376.15, 0.0, 10.000682, 9.998926 
1.9450739e+3, 2.046316e+2, -861458.5, -971121.7, -16673.809, -0.034648042, 0.080893405, -858979.4, 75641.04, 0.0, 10.000756, 9.999326 
1.9450888e+3, 2.1463102e+2, -724296.8, -825669.25, -54364.16, 0.09756329, 0.037322495, -700655.7, 135967.2, 0.0, 10.0009365, 9.999542 
1.9451022e+3, 2.2463024e+2, -687493.8, -854392.06, -44767.023, 0.09842167, 0.05160721, -676244.25, 62385.66, 0.0, 10.000889, 9.998714 
1.9451138e+3, 2.3462898e+2, -605491.1, -743948.6, -41183.1, -0.08770044, 0.0022572149, -594167.6, 46476.54, 0.0, 10.0007105, 9.998881 
1.9451258e+3, 2.4462847e+2, -453997.1, -628965.25, -82859.414, -0.14011805, 0.07534533, -420985.75, 121664.86, 0.0, 10.001116, 9.998804 
1.9451381e+3, 2.546287e+2, -157055.98, -414122.94, -114207.414, -0.061276983, 0.15670791, -113647.06, 331002.66, 0.0, 10.00241, 9.998968 
1.9451515e+3, 2.6462758e+2, -79061.92, -412789.84, 11898.417, -0.011942925, 0.19141635, -78638.24, 268022.66, 0.000000002142629, 10.002605, 9.998234 
1.9451661e+3, 2.74625e+2, -118971.12, -357845.2, -19008.646, -0.03829349, 0.05591554, -117467.945, 131217.14, 0.0000030022966, 10.00157, 9.99843 
1.9451796e+3, 2.8462338e+2, -63949.52, -354477.22, -71124.01, -0.0798917, 0.0900045, -47472.184, 103228.26, 0.00003904193, 10.001571, 9.997791 
1.9451918e+3, 2.9462266e+2, 240629.67, -124740.84, -72673.375, -0.14006136, 0.16528665, 254553.98, 307261.25, 0.00018459432, 10.00286, 9.998057 
1.9452058e+3, 3.0461752e+2, 317117.3, -111332.73, 18835.395, -0.14128454, -0.12259496, 317943.75, 317943.75, 0.0005147773, 10.0033, 9.997598 
1.9452237e+3, 3.1461802e+2, 385876.0, 96595.586, -52603.28, 0.22902186, 0.09423064, 395144.5, 395144.5, 0.0010277403, 10.002932, 9.9992075 
1.9549623e+3, 1.2461492e+2, -1917339.3, -1815449.4, -199519.88, -0.12627435, 0.14811456, -1660473.0, 58311.086, 0.22070916, 9.998418, 10.000156 
1.9549821e+3, 1.3461466e+2, -1645124.5, -1396349.5, 94329.95, 0.4134906, -0.2147205, -1364626.9, 256158.19, 0.15369554, 9.998598, 10.002451 
1.9549866e+3, 1.4462063e+2, -1555595.9, -1564115.0, -15449.128, -0.68044734, 0.2828448, -1543829.9, -21102.83, 0.08810495, 9.999784, 9.99978 
1.955006e+3, 1.5462022e+2, -1510852.9, -1425866.3, -67874.22, 0.04868318, 0.16704443, -1388280.9, 36453.164, 0.037922986, 9.99917, 10.00034 
1.9550212e+3, 1.6461957e+2, -1481141.0, -1430606.3, 61099.59, 0.19164652, 0.10735982, -1389755.6, -63014.29, 0.010466628, 9.998993, 9.999718 
1.9550349e+3, 1.7462002e+2, -1231363.6, -1234697.6, 100724.68, -0.116255656, 0.122575246, -1132292.1, 96443.43, 0.0012294218, 9.999966, 9.999896 
1.9550484e+3, 1.8461978e+2, -1112053.3, -1225403.6, -79866.2, -0.2221744, 0.15606791, -1070796.5, 59939.797, 0.000009908067, 10.000515, 9.99904 
1.9550611e+3, 1.9461823e+2, -995022.7, -1094833.1, -61255.543, -0.14803301, 0.044329014, -965916.7, 66832.66, 0.0, 10.000584, 9.999208 
1.9550747e+3, 2.04617e+2, -936914.3, -1079916.3, -29664.592, -0.06917268, 0.031077415, -931004.8, 3756.0618, 0.0, 10.000547, 9.998679 
1.9550896e+3, 2.1461625e+2, -810755.5, -938245.75, -33322.37, 0.06141298, 0.033752665, -802571.3, 34198.08, 0.0, 10.000659, 9.998897 
1.9551028e+3, 2.2461578e+2, -704282.2, -806947.7, -66496.64, 0.047604162, 0.08742281, -671609.8, 67165.02, 0.0, 10.000524, 9.999221 
1.9551145e+3, 2.3461546e+2, -608667.94, -682914.06, -32749.01, -0.11982512, 0.07455213, -596287.25, 44491.438, 0.0, 10.00043, 9.999431 
1.9551267e+3, 2.4461518e+2, -529511.06, -696578.56, -51436.348, -0.17869294, 0.15711729, -514944.9, 27837.53, 0.0, 10.000732, 9.998523 
1.9551405e+3, 2.5461483e+2, -221780.28, -474070.88, -46805.45, -0.07746227, 0.20761625, -213376.77, 231411.05, 0.0, 10.002099, 9.998698 
1.955154e+3, 2.6461324e+2, -160740.16, -496975.47, -44286.777, -0.07177069, 0.22736384, -155004.81, 191799.05, 0.00000003752054, 10.00223, 9.99784 
1.9551668e+3, 2.7461007e+2, -187900.58, -435421.7, -38670.145, -0.16372679, 0.064547405, -181999.83, 66834.78, 0.0000033251551, 10.001294, 9.998026 
1.9551808e+3, 2.8460842e+2, -105371.26, -338845.25, -46413.082, -0.15547374, 0.104026094, -96483.016, 54366.656, 0.000036409245, 10.001141, 9.998102 
1.9551964e+3, 2.946089e+2, 204916.28, -80397.09, 5716.8257, 0.000015684684, 0.2537569, 205030.78, 257874.55, 0.00016708692, 10.002376, 9.998582 
1.9552103e+3, 3.04604e+2, 201358.98, -234811.06, -24542.295, -0.07418782, -0.013304006, 202735.58, 202735.58, 0.00045041234, 10.002771, 9.997019 
1.9552247e+3, 3.1460202e+2, 238745.1, -36037.027, -29403.242, -0.030033307, 0.01150542, 241856.19, 241856.19, 0.00087258307, 10.002241, 9.998603 
1.964963e+3, 1.2460318e+2, -1799557.1, -1729334.6, -145067.42, 0.07202456, 0.22755097, -1615189.9, 103708.95, 0.23177752, 9.999209, 10.000367 
1.9649784e+3, 1.3460219e+2, -1776499.5, -1556471.0, 61067.254, 0.20399131, -0.07586836, -1540658.6, 80249.53, 0.1620495, 9.998303, 10.001251 
1.964987e+3, 1.4460522e+2, -1849080.6, -1712749.5, -34525.152, -0.49383435, 0.19339918, -1704504.8, -181625.63, 0.093428105, 9.997833, 9.999672 
1.9650055e+3, 1.5460554e+2, -1357669.0, -1355422.0, -88665.24, 0.053578857, 0.15457757, -1267873.1, 157004.88, 0.04057487, 10.000275, 10.0002775 
1.965021e+3, 1.6460522e+2, -1215947.5, -1319314.4, 50902.313, 0.19338426, 0.12968461, -1195089.8, 131792.44, 0.011385711, 10.000892, 9.999567 
1.9650353e+3, 1.7460553e+2, -1291146.1, -1279362.6, 43776.004, -0.047630303, 0.1490974, -1241083.8, -12205.138, 0.0013940044, 9.999626, 9.999749 
1.965049e+3, 1.8460527e+2, -1237035.3, -1271341.3, -76106.28, -0.14214525, 0.1794823, -1176173.0, -45293.406, 0.000014255441, 9.999588, 9.999174 
1.9650623e+3, 1.9460365e+2, -858661.56, -1012213.1, -96553.91, -0.13420601, 0.045781627, -812079.44, 220812.75, 0.0, 10.00144, 9.999364 
1.9650757e+3, 2.0460252e+2, -783706.5, -1013224.3, -82151.414, -0.06287711, 0.037440576, -757332.6, 177570.16, 0.0, 10.0016165, 9.99862 
1.9650899e+3, 2.1460201e+2, -921068.3, -1006083.5, -76548.39, 0.07509226, 0.068854645, -876017.06, -39106.42, 0.0, 9.999923, 9.998797 
1.9651033e+3, 2.2460169e+2, -831457.9, -846993.7, -14895.03, 0.09497224, 0.13439602, -822426.94, -83512.04, 0.0, 9.999578, 9.999398 
1.9651155e+3, 2.3460141e+2, -500417.8, -611975.6, -47960.004, -0.07187928, 0.11333398, -482634.2, 158282.72, 0.0, 10.001092, 9.9995985 
1.9651285e+3, 2.446007e+2, -400719.3, -667518.1, -59087.17, -0.11781732, 0.15436165, -388219.1, 154705.52, 0.0, 10.001713, 9.998276 
1.9651425e+3, 2.5459954e+2, -370208.75, -582322.9, -89073.98, -0.04413884, 0.15824716, -337765.72, 107172.39, 0.0, 10.001205, 9.99841 
1.9651559e+3, 2.64598e+2, -277497.9, -513803.78, -39759.28, -0.0360363, 0.18607375, -270987.63, 75965.836, 0.00000006167767, 10.001281, 9.998173 
1.9651686e+3, 2.7459574e+2, -39865.313, -326318.4, -31198.951, -0.13414145, 0.083794296, -36506.668, 212467.84, 0.000003603985, 10.002166, 9.998343 
1.965183e+3, 2.8459415e+2, 50695.563, -260346.7, 26483.686, -0.08918187, 0.11085713, 52934.4, 203923.4, 0.00003430298, 10.002207, 9.998125 
1.9651993e+3, 2.9459393e+2, 56926.355, -162020.31, -3398.2134, 0.11923581, 0.20580877, 56979.086, 109969.41, 0.00015136057, 10.001398, 9.998506 
1.9652134e+3, 3.0459046e+2, 83512.92, -299376.56, 26388.447, 0.012877388, 0.08407776, 85323.03, 85323.03, 0.00039140973, 10.001974, 9.996981 
1.9652265e+3, 3.1458744e+2, 472365.0, 79753.71, -97240.73, -0.1300186, 0.027793307, 495129.34, 495129.34, 0.00072701665, 10.003775, 9.998701 
1.9749619e+3, 1.24590576e+2, -1666750.4, -1558566.0, 130235.27, -0.06799658, 0.14721778, -1471636.3, 247384.34, 0.24301729, 9.999616, 10.001586 
1.974973e+3, 1.345913e+2, -1921726.9, -1894269.0, -9172.152, -0.2208733, 0.2682353, -1891486.9, -270470.47, 0.17062773, 9.998486, 9.998758 
1.9749907e+3, 1.4458863e+2, -1805647.6, -1659803.3, 16153.231, 0.00020848784, 0.08192644, -1658035.6, -134992.2, 0.09895461, 9.997981, 9.99997 
1.9750042e+3, 1.5459038e+2, -1319940.8, -1287114.1, 11577.086, -0.15240683, 0.14038111, -1283442.0, 141582.66, 0.04335473, 10.000319, 10.000749 
1.9750191e+3, 1.6459e+2, -1207444.4, -1337811.6, -8572.249, -0.15107378, 0.09832666, -1206883.1, 120145.06, 0.012356995, 10.001058, 9.999358 
1.9750355e+3, 1.7458998e+2, -1307047.4, -1317396.8, 6231.07, -0.015869427, 0.11358971, -1304122.5, -75092.62, 0.0015709848, 9.999655, 9.999474 
1.9750503e+3, 1.8458988e+2, -1227474.4, -1267102.0, -32476.885, -0.03635962, 0.17708653, -1209244.3, -78213.2, 0.000019593592, 9.999645, 9.999183 
1.9750632e+3, 1.9458863e+2, -871110.06, -1011593.8, -13670.945, -0.2070947, 0.07753539, -869792.06, 163249.69, 0.0, 10.0013275, 9.999424 
1.9750763e+3, 2.0458804e+2, -784191.2, -959655.8, -154413.77, -0.20890597, 0.09566091, -694326.8, 240720.67, 0.0, 10.001383, 9.999099 
1.9750893e+3, 2.145884e+2, -921258.56, -948859.4, -126635.87, -0.0028079862, 0.16285294, -807673.4, 29371.854, 0.0, 9.999677, 9.999307 
1.9751027e+3, 2.2458817e+2, -906268.7, -921090.7, 18162.021, 0.04022674, 0.22398138, -894063.8, -155016.3, 0.0, 9.999224, 9.999063 
1.9751167e+3, 2.3458683e+2, -561976.1, -681047.6, 29098.693, -0.082178645, 0.12945068, -555245.44, 85813.33, 0.0, 10.000834, 9.999248 
1.9751303e+3, 2.4458508e+2, -476423.78, -741104.4, -94331.6, -0.14309254, 0.09781467, -446245.13, 96831.02, 0.0, 10.001347, 9.997949 
1.9751433e+3, 2.545829e+2, -422685.94, -639195.8, -92556.92, -0.11338996, 0.02979764, -388512.22, 56587.297, 0.0, 10.000978, 9.998128 
1.9751568e+3, 2.645819e+2, -274624.56, -425217.3, -28682.363, -0.11011798, 0.07914406, -269346.63, 77763.08, 0.000000055759365, 10.000924, 9.998951 
1.9751713e+3, 2.7458197e+2, -26406.738, -215653.38, 21894.73, -0.11590218, 0.1200293, -23906.674, 225198.83, 0.0000036492006, 10.001818, 9.999262 
1.9751856e+3, 2.8458065e+2, -42320.863, -366980.6, -27781.889, -0.085700765, 0.14715256, -39960.664, 111156.92, 0.00003270768, 10.001819, 9.99759 
1.9752e+3, 2.9457778e+2, -20950.473, -265856.97, -3710.4705, 0.025289942, 0.027585452, -20894.27, 32253.154, 0.00013942833, 10.001144, 9.997914 
1.9752142e+3, 3.045768e+2, -12618.341, -361795.88, 65708.2, -0.14931807, 0.19926605, -662.72797, -662.72797, 0.00034788318, 10.001418, 9.996805 
1.9752306e+3, 3.1457436e+2, 397788.72, 163957.94, 11423.84, -0.1659329, 0.1824851, 398345.5, 398345.5, 0.0006200004, 10.002812, 9.999708 
1.9849628e+3, 1.24571614e+2, -1945622.4, -1698855.5, 75948.66, 0.16087861, -0.15590051, -1677354.0, 41851.492, 0.25424254, 9.997675, 10.001302 
1.9849712e+3, 1.3457611e+2, -1573783.1, -1700090.0, -129738.75, -0.3504437, 0.33470657, -1492643.5, 128520.99, 0.17932345, 10.000876, 9.999013 
1.984992e+3, 1.4457238e+2, -1421847.1, -1486387.4, 16757.13, 0.23593014, 0.026683161, -1417755.8, 105446.31, 0.104643695, 10.000761, 9.999858 
1.9850044e+3, 1.5457441e+2, -1399009.3, -1342058.1, -44091.188, -0.13297279, 0.13268481, -1318046.6, 107133.88, 0.046255346, 9.999827, 10.000606 
1.985019e+3, 1.6457422e+2, -1420731.4, -1447190.9, -86587.59, -0.18840118, 0.11816225, -1346368.8, -19186.117, 0.013380272, 9.999622, 9.999291 
1.985036e+3, 1.7457391e+2, -1199591.5, -1275586.6, -90407.445, 0.029387834, 0.1138643, -1139521.1, 89666.836, 0.0017591557, 10.0004425, 9.99938 
1.985051e+3, 1.8457393e+2, -1119746.5, -1175855.1, -54282.33, 0.054999296, 0.1764024, -1086697.5, 44491.164, 0.0000256483, 10.000209, 9.999536 
1.9850639e+3, 1.9457325e+2, -1159605.4, -1112437.4, -41912.0, -0.16119623, 0.09456731, -1087929.6, -54735.594, 0.0, 9.999148, 9.999792 
1.985077e+3, 2.0457296e+2, -1043711.5, -1053941.6, -146068.42, -0.1763933, 0.11199161, -902668.6, 32527.553, 0.0, 9.999467, 9.999382 
1.9850901e+3, 2.145735e+2, -598808.3, -761685.7, -172628.77, 0.008878246, 0.17151693, -489372.84, 347818.03, 0.0, 10.001767, 9.999584 
1.9851035e+3, 2.2457303e+2, -508896.5, -780238.2, -28374.422, 0.06900614, 0.21727853, -505961.13, 233234.2, 0.0, 10.002155, 9.998618 
1.9851176e+3, 2.3457108e+2, -681696.9, -795912.06, -60109.29, -0.03106154, 0.11051816, -655892.44, -14678.11, 0.0, 10.000249, 9.998741 
1.9851315e+3, 2.4456935e+2, -665003.7, -774382.6, -100778.234, -0.07072518, 0.085772894, -605031.94, -61800.66, 0.0, 9.999855, 9.99841 
1.9851446e+3, 2.5456774e+2, -319161.8, -536351.5, -80133.586, -0.082201265, 0.028558437, -292796.53, 152450.27, 0.0, 10.001484, 9.998579 
1.9851585e+3, 2.6456675e+2, -147204.03, -382854.56, -16543.873, -0.07246092, 0.06926862, -146048.23, 201207.72, 0.00000004684117, 10.001882, 9.998778 
1.9851731e+3, 2.7456647e+2, -182674.73, -316757.9, -90851.484, -0.05613977, 0.0980796, -136806.77, 112450.64, 0.000003631824, 10.000861, 9.999023 
1.9851877e+3, 2.845652e+2, -118751.04, -385413.3, -96454.68, -0.019784318, 0.13943787, -87520.04, 63749.55, 0.000030883682, 10.001236, 9.997731 
1.9852023e+3, 2.9456252e+2, 283088.88, -110435.875, -82812.07, 0.028835503, 0.034173865, 299805.47, 353102.53, 0.00012822116, 10.003233, 9.997959 
1.9852163e+3, 3.0456153e+2, 270906.22, -213934.75, 28403.373, -0.14383183, 0.19595471, 272564.5, 272564.5, 0.0003141248, 10.003275, 9.996932 
1.9852343e+3, 3.1455988e+2, 103199.945, 5286.715, -118993.1, 0.048726916, 0.25806907, 182913.88, 182913.88, 0.00054966006, 10.000774, 9.999621 
1.9949605e+3, 1.2455305e+2, -2078286.6, -2034998.3, -87142.41, 0.05360215, 0.031905968, -1966852.3, -247464.94, 0.26535824, 9.997969, 9.998769 
1.9949724e+3, 1.3455611e+2, -1377854.4, -1304710.4, -46866.145, -0.35160363, 0.09006543, -1281835.4, 339521.8, 0.18805622, 10.000953, 10.002142 
1.9949913e+3, 1.4455631e+2, -1423768.5, -1533978.6, -53892.27, 0.012655917, 0.027196845, -1401796.0, 121559.98, 0.11045076, 10.000968, 9.99942 
1.9950056e+3, 1.5455742e+2, -1449057.5, -1444445.9, -69197.9, -0.033870883, 0.12128241, -1377515.4, 47832.125, 0.04926506, 9.999849, 9.999869 
1.99502e+3, 1.6455762e+2, -1392893.0, -1416784.1, -74607.78, -0.09976417, 0.1761677, -1329280.5, -1932.5853, 0.014456319, 9.999737, 9.999446 
1.995036e+3, 1.7455728e+2, -1188837.1, -1249480.8, -51323.285, -0.0466741, 0.15046825, -1159547.8, 69805.62, 0.0019582892, 10.000434, 9.9995575 
1.9950508e+3, 1.845573e+2, -1068335.0, -1078640.5, -108902.88, -0.045238636, 0.17439969, -964463.0, 166890.23, 0.000032105352, 10.000249, 10.000185 
1.9950636e+3, 1.9455743e+2, -1126405.4, -1017229.1, -71482.914, -0.13319385, 0.10179719, -981874.6, 51475.04, 0.0, 9.999044, 10.00049 
1.9950771e+3, 2.0455742e+2, -1070234.0, -1069128.6, -85510.92, -0.14800605, 0.11009755, -984168.56, -48820.83, 0.0, 9.999287, 9.999365 
1.9950917e+3, 2.1455716e+2, -634892.4, -783876.06, -71442.12, -0.035587225, 0.09259428, -606170.8, 231177.89, 0.0, 10.001537, 9.999539 
1.9951053e+3, 2.245562e+2, -602463.5, -891811.56, -106538.9, -0.009461942, 0.116572134, -567468.06, 171891.11, 0.0, 10.001796, 9.998026 
1.9951178e+3, 2.3455426e+2, -757949.8, -901095.7, -112106.21, -0.0647816, 0.06794229, -696517.2, -55134.867, 0.0, 10.000014, 9.998132 
1.9951314e+3, 2.445534e+2, -647786.5, -655497.6, -62526.285, -0.100709066, 0.113623284, -588997.06, -45606.285, 0.0, 9.999494, 9.999404 
1.9951463e+3, 2.5455382e+2, -282408.97, -393117.25, 177.73071, -0.08700904, 0.14493993, -282408.7, 162973.16, 0.0, 10.001198, 9.999698 
1.9951604e+3, 2.645525e+2, -297177.1, -602993.3, -67675.734, -0.09919682, 0.15758474, -282870.1, 64523.742, 0.000000042002604, 10.001493, 9.997453 
1.9951737e+3, 2.745492e+2, -321048.38, -537964.6, -108477.98, -0.11527397, 0.021717107, -276109.53, -26679.576, 0.0000035134383, 10.000592, 9.997625 
1.9951883e+3, 2.8454763e+2, -149732.25, -364215.7, -49075.945, -0.119052805, 0.08886092, -139036.55, 12409.892, 0.00002820436, 10.000861, 9.998058 
1.9952048e+3, 2.9454768e+2, 254534.25, -72718.93, 15425.371, -0.07916244, 0.19740096, 255259.73, 308703.8, 0.00011358975, 10.002809, 9.99842 
1.9952193e+3, 3.0454448e+2, 182699.31, -231498.44, -82065.375, -0.22716077, 0.1054887, 198366.39, 198366.39, 0.00027761882, 10.0026, 9.997121 
1.9952358e+3, 3.1454423e+2, -113015.586, -260608.36, -100754.484, 0.04242073, 0.2660715, -61922.527, -61922.527, 0.0004902181, 10.000054, 9.998107 
2.0049587e+3, 1.2453613e+2, -1915748.3, -2132206.5, -24054.693, -0.004770448, 0.24688673, -1913107.3, -193554.22, 0.27641812, 9.999838, 9.997181 
2.004974e+3, 1.3453786e+2, -1481291.9, -1154008.1, 9313.925, -0.17636302, -0.06383984, -1153743.3, 467790.97, 0.1968332, 9.999006, 10.004383 
2.0049904e+3, 1.4454104e+2, -1751747.3, -1712942.5, -10178.563, -0.053039823, 0.055147838, -1710434.8, -186931.69, 0.11636926, 9.998699, 9.999264 
2.0050061e+3, 1.545411e+2, -1405419.3, -1466986.8, -3809.5605, 0.018626325, 0.07571931, -1405184.4, 20321.506, 0.05238356, 10.000308, 9.999493 
2.0050208e+3, 1.6454111e+2, -1268041.9, -1348050.8, 26614.836, -0.018176172, 0.12681311, -1259997.4, 67511.16, 0.015589432, 10.000524, 9.999554 
2.0050363e+3, 1.7454112e+2, -1292161.0, -1286130.5, 15506.148, -0.01420894, 0.11495324, -1273349.1, -43838.914, 0.0021699998, 9.999608, 9.999725 
2.005051e+3, 1.8454143e+2, -1219107.9, -1122160.5, -29427.69, 0.016300187, 0.1450188, -1113927.1, 17579.99, 0.00003871999, 9.999118, 10.000417 
2.0050639e+3, 1.9454211e+2, -996273.9, -931572.7, -61326.055, -0.043410737, 0.109503835, -894587.56, 138910.56, 0.0, 9.999866, 10.000675 
2.0050776e+3, 2.0454216e+2, -932991.06, -998632.1, -16339.302, -0.05983469, 0.112599805, -929148.8, 6346.617, 0.0, 10.000236, 9.999387 
2.0050927e+3, 2.1454121e+2, -802447.0, -865525.56, -27111.281, -0.017190097, 0.029706573, -792396.06, 45106.28, 0.0, 10.000395, 9.999536 
2.0051067e+3, 2.2454017e+2, -748816.06, -959323.75, -75419.836, 0.009498642, 0.049067535, -724584.3, 14929.504, 0.0, 10.000807, 9.99803 
2.0051189e+3, 2.34539e+2, -512408.25, -777995.2, -82043.85, -0.026621707, 0.081033595, -489107.84, 152422.88, 0.0, 10.001723, 9.998141 
2.0051326e+3, 2.4453844e+2, -309147.28, -500719.4, 12183.506, -0.03327097, 0.15955319, -308375.56, 235161.5, 0.0, 10.00182, 9.999357 
2.0051476e+3, 2.5453848e+2, -336400.16, -425814.7, -43374.777, -0.026870573, 0.15827404, -318816.9, 126715.41, 0.0, 10.000841, 9.999642 
2.0051621e+3, 2.6453704e+2, -372828.5, -636538.1, -74634.61, -0.04022463, 0.15862887, -353170.88, -5625.666, 0.000000029896977, 10.000942, 9.997496 
2.0051754e+3, 2.7453363e+2, -47287.04, -413644.2, -46331.773, -0.09138838, 0.0145161515, -41518.47, 208063.31, 0.0000031274246, 10.002459, 9.997606 
2.0051906e+3, 2.8453198e+2, 130222.27, -251988.02, 93820.73, -0.06570725, 0.0834595, 152010.31, 303609.03, 0.000025154262, 10.002876, 9.997864 
2.0052078e+3, 2.94532e+2, 108921.06, -177166.48, 44201.58, -0.0014893928, 0.22672862, 115594.69, 169191.16, 0.00009776422, 10.0019455, 9.998123 
2.0052226e+3, 3.0452785e+2, 211645.27, -120484.87, -35285.39, -0.11859956, 0.01203128, 215352.6, 215352.6, 0.00024035286, 10.002353, 9.998026 
2.0052388e+3, 3.145272e+2, 466790.75, -45283.59, -61008.023, 0.14630708, 0.06560714, 473958.84, 473958.84, 0.000433908, 10.004258, 9.997609 
2.0149574e+3, 1.2451775e+2, -1959687.4, -2248243.0, -139553.23, -0.20882668, 0.09075794, -1903238.5, -183505.45, 0.28771394, 9.999975, 9.996306 
2.0149754e+3, 1.3452163e+2, -1421050.9, -1047709.9, -17000.338, 0.02093351, -0.12464879, -1046937.4, 574755.06, 0.20582092, 9.999086, 10.005318 
2.0149888e+3, 1.4452627e+2, -1714947.3, -1686908.1, 17553.088, -0.14859165, 0.093424976, -1678463.1, -154817.28, 0.12247417, 9.998904, 9.999349 
2.0150054e+3, 1.5452538e+2, -1395056.5, -1445818.8, 61039.543, -0.122347966, 0.0056825713, -1354331.4, 71324.65, 0.055639356, 10.000321, 9.9996395 
2.0150207e+3, 1.6452488e+2, -1238998.1, -1311600.3, -22516.547, -0.14216848, -0.0116496645, -1232581.9, 95080.79, 0.016791714, 10.000628, 9.999759 
2.0150363e+3, 1.7452553e+2, -1279135.1, -1251969.4, -7584.078, 0.00071275583, 0.02098082, -1249995.5, -20337.7, 0.0023981123, 9.999586, 9.999971 
2.015051e+3, 1.8452643e+2, -1224624.3, -1155618.9, -30302.223, 0.05567962, 0.10549269, -1144201.5, -12552.129, 0.000045425786, 9.999199, 10.000155 
2.015064e+3, 1.9452728e+2, -1033371.94, -989422.56, -24684.547, -0.037606355, 0.12313445, -978348.56, 55291.164, 0.0, 9.999781, 10.000321 
2.0150779e+3, 2.0452717e+2, -959351.06, -1009397.5, -26575.623, -0.098853484, 0.1284969, -947871.9, -12232.713, 0.0, 10.000043, 9.999409 
2.0150928e+3, 2.1452565e+2, -839835.4, -883850.44, -6220.2495, -0.07307511, -0.012670879, -838973.25, -1321.3192, 0.0, 10.000142, 9.999532 
2.0151071e+3, 2.2452487e+2, -774296.3, -932466.56, -58696.242, -0.064011455, 0.015088413, -754894.4, -15234.079, 0.0, 10.000451, 9.99839 
2.0151205e+3, 2.3452498e+2, -516150.16, -735640.06, -30844.816, -0.052854367, 0.13407828, -511897.94, 129765.16, 0.0, 10.00149, 9.998549 
2.0151345e+3, 2.4452403e+2, -444245.97, -690177.7, -34601.637, -0.058848605, 0.20470195, -439470.38, 104204.23, 0.0, 10.00144, 9.998236 
2.0151486e+3, 2.5452167e+2, -458902.56, -616045.44, -64705.99, -0.05344211, 0.08245527, -435688.28, 10010.041, 0.0, 10.000577, 9.998461 
2.0151629e+3, 2.6452014e+2, -337134.94, -479658.16, -41258.64, -0.09688438, 0.07546119, -326052.8, 21659.402, 0.0000000091701935, 10.000588, 9.998745 
2.0151775e+3, 2.7451962e+2, 4058.037, -227904.31, 30892.668, -0.15053613, 0.079352595, 8101.817, 257816.1, 0.0000023642951, 10.002131, 9.999034 
2.0151936e+3, 2.8451833e+2, -7436.9404, -432497.4, 38127.27, -0.10337855, 0.15557066, -4044.0654, 147681.92, 0.000021595964, 10.00243, 9.996836 
2.0152107e+3, 2.945155e+2, -17381.17, -372017.13, 34313.99, 0.060338087, 0.120331675, -14091.5205, 39664.13, 0.000083873885, 10.001636, 9.996942 
2.0152254e+3, 3.0451122e+2, 201017.1, 620.4852, 4126.525, -0.09992835, -0.09487057, 201102.03, 201102.03, 0.00020823602, 10.001775, 9.999114 
2.0152408e+3, 3.145112e+2, 353558.22, -993.61993, 126469.58, -0.15082979, -0.12659292, 394046.63, 394046.63, 0.00038362973, 10.003153, 9.998398 
2.0249575e+3, 1.24504045e+2, -2077371.9, -2235520.8, 44684.516, -0.1283654, 0.10002775, -2065619.8, -345754.1, 0.29983783, 9.998889, 9.996896 
2.024976e+3, 1.3450739e+2, -1444353.4, -1151774.6, 50291.92, 0.16898228, -0.10468683, -1143371.1, 478461.1, 0.21537028, 9.999397, 10.004301 
2.0249881e+3, 1.445119e+2, -1463104.4, -1552084.0, 65497.137, -0.17622358, 0.14900795, -1428415.8, 95371.26, 0.12892798, 10.000661, 9.999446 
2.0250052e+3, 1.5451074e+2, -1485057.5, -1466749.8, 68360.61, -0.11532606, 0.014998276, -1406932.9, 18865.29, 0.05909158, 9.999608, 9.999826 
2.025021e+3, 1.6450988e+2, -1491282.1, -1429014.1, -277.52692, -0.07618451, -0.044580467, -1429012.9, -101205.81, 0.018083457, 9.998916, 9.999752 
2.0250365e+3, 1.7451057e+2, -1223754.6, -1220801.9, -30479.557, 0.04911563, -0.0064597875, -1191763.0, 38038.617, 0.0026487417, 10.000006, 9.999956 
2.0250511e+3, 1.8451133e+2, -1071936.1, -1122551.6, -28817.873, 0.104668625, 0.08374077, -1058890.9, 72903.48, 0.000052423693, 10.000414, 9.999793 
2.0250644e+3, 1.9451152e+2, -979277.4, -1012400.06, -55817.813, -0.0018003668, 0.07197796, -937615.8, 96175.914, 0.0, 10.000342, 9.999895 
2.0250784e+3, 2.0451117e+2, -917153.9, -1003773.44, -31496.002, -0.05214107, 0.07966584, -906912.44, 28881.807, 0.0, 10.000403, 9.999263 
2.0250934e+3, 2.1451002e+2, -739483.06, -853487.4, -58625.07, -0.05671428, -0.009021123, -714716.4, 123088.055, 0.0, 10.000908, 9.999363 
2.0251079e+3, 2.2450931e+2, -673929.4, -851511.06, -84688.77, -0.036763243, 0.01948078, -640017.3, 99794.22, 0.0, 10.000995, 9.998678 
2.025122e+3, 2.3450916e+2, -603782.3, -742668.2, -91267.766, -0.014773769, 0.08085622, -558542.5, 83271.88, 0.0, 10.000732, 9.998858 
2.025136e+3, 2.4450807e+2, -571056.44, -785509.3, -63374.387, -0.0020676441, 0.13456595, -553728.4, -9901.4375, 0.0, 10.00073, 9.997915 
2.0251495e+3, 2.5450557e+2, -399288.94, -632678.1, -67103.164, -0.03312016, 0.04275951, -381371.28, 64482.563, 0.0, 10.001185, 9.998056 
2.0251644e+3, 2.6450405e+2, -189240.22, -402582.75, 16847.584, -0.044513904, 0.05562891, -187917.97, 159950.77, 0.000000001074916, 10.001589, 9.998788 
2.0251803e+3, 2.7450377e+2, -28043.227, -234916.78, -50219.902, -0.05670541, 0.079451784, -16496.502, 233372.03, 0.0000018159459, 10.001901, 9.999084 
2.0251964e+3, 2.8450254e+2, -25952.19, -415423.56, -61253.504, -0.018065507, 0.14969851, -16545.82, 135333.6, 0.000018189116, 10.002164, 9.997089 
2.0252123e+3, 2.944997e+2, 96955.21, -273629.2, -13708.345, 0.035736963, 0.08886199, 97461.61, 151370.63, 0.000072171526, 10.002245, 9.997312 
2.0252286e+3, 3.0449596e+2, 295727.06, -569.4297, 61358.883, 0.009394639, -0.079178445, 307931.0, 307931.0, 0.00017993047, 10.002554, 9.998768 
2.0252433e+3, 3.1449595e+2, 304707.4, 20078.379, -62526.086, -0.1505005, -0.049227387, 317837.2, 317837.2, 0.00033599298, 10.002533, 9.998876 
2.0349588e+3, 1.24492936e+2, -1889834.8, -1934597.0, -92421.086, -0.012304044, 0.048909478, -1817123.4, -97152.625, 0.3135409, 9.999223, 9.998826 
2.0349753e+3, 1.3449503e+2, -1584310.8, -1465101.5, 120070.31, 0.114121415, 0.0016528199, -1390655.4, 231298.66, 0.22593072, 9.999563, 10.001526 
2.0349875e+3, 1.4449768e+2, -1419219.6, -1510661.4, 36500.97, -0.37010592, 0.20954919, -1406436.5, 117492.42, 0.13594478, 10.000921, 9.999598 
2.0350054e+3, 1.544971e+2, -1454652.8, -1425205.8, 30516.014, -0.10446656, 0.1016225, -1406047.0, 19885.48, 0.06282382, 9.999696, 10.000066 
2.0350212e+3, 1.64496e+2, -1492690.3, -1464053.3, 3993.8428, -0.019221503, 0.019080156, -1463506.8, -135564.08, 0.019494196, 9.999053, 9.999443 
2.0350362e+3, 1.7449616e+2, -1236245.4, -1256582.9, 23006.184, -0.013697884, 0.031811006, -1221260.8, 8681.639, 0.0029308582, 10.000045, 9.999688 
2.0350508e+3, 1.8449612e+2, -1098579.6, -1185496.9, -44888.402, -0.027655758, 0.0721517, -1079559.3, 52383.66, 0.00006041413, 10.000447, 9.999347 
2.0350644e+3, 1.944949e+2, -1026204.44, -1084380.4, -47444.676, -0.07624707, -0.031848174, -999640.75, 34312.805, 0.0, 10.000237, 9.999451 
2.0350786e+3, 2.0449421e+2, -969255.8, -1067125.3, -32816.824, -0.12117302, -0.01910224, -959270.7, -23310.54, 0.0, 10.0002165, 9.998918 
2.035094e+3, 2.1449421e+2, -797458.9, -915392.3, -24747.309, -0.108820036, 0.039764155, -792476.4, 45484.574, 0.0, 10.000661, 9.999056 
2.0351087e+3, 2.2449349e+2, -713859.44, -841148.0, -104909.99, -0.09953494, 0.069185786, -654798.0, 85169.805, 0.0, 10.000609, 9.998926 
2.0351225e+3, 2.3449162e+2, -631488.25, -728917.94, -80361.57, -0.05544, -0.06599977, -586229.06, 55754.715, 0.0, 10.000441, 9.999086 
2.0351365e+3, 2.4449049e+2, -599857.06, -763870.75, -63885.836, -0.065418065, -0.043361142, -577909.5, -33914.906, 0.0, 10.0003805, 9.998233 
2.0351502e+3, 2.5449014e+2, -406667.2, -597963.25, -34724.336, -0.11251675, 0.040396325, -400559.0, 45441.04, 0.0, 10.000967, 9.998403 
2.0351657e+3, 2.644887e+2, -338246.53, -621012.5, 13040.582, -0.09821828, 0.10491405, -337646.38, 10369.867, 0.000000023664393, 10.001214, 9.997459 
2.0351833e+3, 2.7448577e+2, -165379.16, -457760.0, -16887.389, 0.023320705, -0.0021469446, -164407.0, 85639.76, 0.0000019634658, 10.00163, 9.997681 
2.035199e+3, 2.8448433e+2, 364.32376, -246357.38, -78730.51, -0.02259189, 0.05196271, 23346.88, 175408.11, 0.000016146072, 10.001694, 9.998467 
2.035212e+3, 2.944845e+2, 156460.1, -56402.215, 16128.04, -0.25067514, 0.13267912, 157675.14, 211733.0, 0.00006227005, 10.001838, 9.999003 
2.0352302e+3, 3.0448171e+2, 49231.184, -335692.84, 39602.02, -0.116317734, 0.063446485, 53263.31, 53263.31, 0.00015437642, 10.001829, 9.996794 
2.0352468e+3, 3.1447938e+2, 201089.53, 22706.693, -27787.457, -0.116533816, 0.0551153, 205317.88, 205317.88, 0.00029131802, 10.001662, 9.999279 
2.0449589e+3, 1.2447874e+2, -1965056.0, -1845081.5, -147841.4, 0.16402785, -0.043368746, -1745520.8, -25412.361, 0.3294151, 9.99818, 9.999971 
2.044973e+3, 1.3448116e+2, -1781368.4, -1655185.4, 73619.76, -0.018838365, 0.094843365, -1621321.1, 767.8649, 0.23787552, 9.99871, 10.000304 
2.0449887e+3, 1.4448121e+2, -1637734.6, -1591872.5, 44402.395, -0.2436379, 0.09573952, -1564829.5, -40739.668, 0.14372098, 9.999181, 9.999866 
2.0450057e+3, 1.5448205e+2, -1339438.4, -1337857.9, -27387.121, -0.060297914, 0.09954027, -1311249.6, 114830.17, 0.06692591, 10.000377, 10.000375 
2.045021e+3, 1.6448171e+2, -1287944.5, -1356290.4, -4160.56, 0.015813364, 0.07007151, -1287692.1, 40390.23, 0.021061258, 10.000404, 9.999544 
2.045036e+3, 1.7448162e+2, -1283674.8, -1274325.0, 11985.741, -0.014006581, 0.04878337, -1266134.8, -36050.793, 0.003256253, 9.999681, 9.999754 
2.0450507e+3, 1.8448122e+2, -1234376.3, -1273643.9, 6671.953, -0.022319706, 0.06286722, -1233273.6, -101186.1, 0.00007088071, 9.9996195, 9.999144 
2.0450649e+3, 1.9447961e+2, -951940.2, -1068227.9, -8181.9946, -0.07055419, -0.0613647, -951367.4, 82734.8, 0.0, 10.000847, 9.999265 
2.0450793e+3, 2.0447879e+2, -822377.6, -1014872.06, 37817.727, -0.09548761, -0.040845007, -815214.5, 120895.8, 0.0, 10.001286, 9.99877 
2.0450948e+3, 2.1447912e+2, -746606.06, -897064.7, 27411.926, -0.09463887, 0.05983865, -741767.56, 96341.195, 0.0, 10.001045, 9.998992 
2.0451096e+3, 2.2447844e+2, -676343.7, -831009.56, -34191.54, -0.07813745, 0.09840483, -669122.2, 70992.875, 0.0, 10.000888, 9.998877 
2.0451231e+3, 2.3447606e+2, -564673.9, -701993.3, -63336.277, -0.057716526, -0.080920145, -539922.44, 102212.875, 0.0, 10.000915, 9.999051 
2.0451373e+3, 2.4447465e+2, -468131.56, -696645.3, -6879.4634, -0.05195367, -0.08563335, -467924.66, 76222.82, 0.0, 10.001259, 9.998279 
2.0451519e+3, 2.5447443e+2, -247120.56, -513065.78, -32436.262, -0.09285598, 0.007870934, -243221.61, 202928.52, 0.0, 10.002026, 9.998473 
2.0451677e+3, 2.6447287e+2, -217622.2, -610666.8, 44357.457, -0.05352137, 0.07663284, -212678.38, 135489.13, 0.00000011200642, 10.002215, 9.997052 
2.0451854e+3, 2.7446958e+2, -172734.78, -516116.25, 40471.586, 0.07835977, -0.018614186, -168029.2, 82174.83, 0.000002326167, 10.001794, 9.997203 
2.0452008e+3, 2.8446785e+2, -21760.127, -246704.97, 4432.856, 0.018152542, 0.025646267, -21672.805, 130550.07, 0.000014696717, 10.001475, 9.998575 
2.0452128e+3, 2.9446787e+2, 65334.117, -82118.32, -59983.46, -0.29694003, 0.09016037, 86653.0, 140874.1, 0.00005375532, 10.001142, 9.999161 
2.0452324e+3, 3.0446658e+2, 32120.229, -336209.78, 58021.918, -0.043858394, 0.15383752, 41044.043, 41044.043, 0.00013254509, 10.001666, 9.996862 
2.0452507e+3, 3.1446397e+2, 435725.2, 127338.06, -78497.195, 0.025261773, 0.13790931, 454556.1, 454556.1, 0.00025431596, 10.003235, 9.99926 
2.0549574e+3, 1.2446181e+2, -1884758.8, -1770067.4, 56339.863, 0.0786238, -0.09028923, -1747022.1, -26746.918, 0.3476065, 9.998557, 10.000308 
2.0549677e+3, 1.3446593e+2, -1722933.4, -1572289.5, 86471.625, -0.43622193, 0.21298169, -1532934.9, 89300.836, 0.2513395, 9.998804, 10.0009985 
2.0549907e+3, 1.4446232e+2, -1580732.1, -1523081.3, 62660.117, -0.04713565, -0.21768449, -1482934.4, 41337.285, 0.15236652, 9.99939, 10.000272 
2.0550056e+3, 1.5446569e+2, -1306697.1, -1285432.1, 25402.457, -0.14993443, 0.008536798, -1268526.8, 157712.7, 0.071473114, 10.000447, 10.000732 
2.0550203e+3, 1.6446704e+2, -1235752.6, -1292319.5, -50284.54, -0.17124024, 0.11244472, -1206343.0, 121883.09, 0.022826005, 10.000588, 9.999908 
2.0550351e+3, 1.7446691e+2, -1253737.1, -1220264.1, -7204.485, -0.09627576, 0.051677488, -1218779.4, 11446.913, 0.0036400491, 9.999709, 10.000115 
2.0550503e+3, 1.844665e+2, -1224902.3, -1275003.5, 29305.162, -0.08743373, 0.04999314, -1211399.9, -79170.35, 0.00008593674, 9.999697, 9.999105 
2.0550655e+3, 1.9446531e+2, -958274.94, -1067446.4, 47730.26, -0.13450485, -0.033068165, -940350.1, 93890.47, 0.0, 10.000774, 9.9993105 
2.0550804e+3, 2.0446464e+2, -853200.2, -1026441.44, 15188.908, -0.17051248, -0.004302336, -851878.56, 84368.945, 0.0, 10.0010605, 9.998798 
2.0550954e+3, 2.1446456e+2, -783262.44, -912515.44, 32884.02, -0.16722377, 0.048789058, -775377.25, 62872.594, 0.0, 10.000781, 9.999012 
2.0551096e+3, 2.2446385e+2, -759389.56, -911154.8, -50875.707, -0.17569265, 0.102220915, -743912.94, -3656.2036, 0.0, 10.000498, 9.998512 
2.0551233e+3, 2.3446222e+2, -627441.4, -770288.1, -46287.125, -0.16927856, 0.030812746, -613754.25, 28516.967, 0.0, 10.000651, 9.998709 
2.0551379e+3, 2.4446036e+2, -542287.6, -761615.4, 4364.3745, -0.15590556, 0.009108382, -542200.8, 2086.6558, 0.0, 10.000885, 9.998008 
2.0551538e+3, 2.5445816e+2, -312277.4, -573303.4, 15293.971, -0.1167263, -0.06971317, -311384.38, 134922.33, 0.0, 10.001717, 9.998204 
2.05517e+3, 2.6445636e+2, -256032.42, -587752.44, 13456.292, -0.097259425, -0.029755801, -255487.47, 92837.38, 0.00000017468948, 10.001783, 9.997413 
2.0551863e+3, 2.7445483e+2, -189374.92, -487186.53, 44072.137, -0.05143191, 0.014178553, -182989.73, 67354.195, 0.0000023499456, 10.001515, 9.99754 
2.0552012e+3, 2.8445268e+2, -191941.16, -480426.94, -23609.594, -0.13349646, 0.0667766, -190021.72, -37653.395, 0.000012296112, 10.000985, 9.997194 
2.0552143e+3, 2.9444966e+2, -84781.46, -317781.16, -44661.324, -0.31716934, -0.048493054, -76514.13, -22113.86, 0.000044415407, 10.000822, 9.997688 
2.0552343e+3, 3.0444953e+2, 47229.203, -150667.39, 82781.805, -0.054141738, 0.13427725, 77290.95, 77290.95, 0.00011238728, 10.001048, 9.998413 
2.0552534e+3, 3.1444904e+2, 221679.1, -65950.03, -74406.984, -0.09675082, 0.14357051, 239787.44, 239787.44, 0.00022372513, 10.00221, 9.998403 
2.0649573e+3, 1.2444303e+2, -1931310.1, -1872173.4, 101546.74, 0.23259467, -0.14531057, -1795977.8, -75518.61, 0.36771804, 9.998579, 9.99956 
2.0649663e+3, 1.3445002e+2, -1506004.8, -1343129.0, 34534.727, -0.48528004, 0.2809386, -1336109.1, 286281.44, 0.26616043, 9.999731, 10.002629 
2.064991e+3, 1.4444579e+2, -1765687.3, -1595743.3, 99277.94, 0.127936, -0.31044906, -1550038.8, -25606.715, 0.1618756, 9.998027, 10.000404 
2.0650053e+3, 1.544499e+2, -1544835.8, -1377022.9, 37678.9, -0.122030266, -0.028695922, -1368951.1, 57442.234, 0.07651462, 9.998642, 10.0009365 
2.06502e+3, 1.6445188e+2, -1378197.9, -1342059.0, -35219.383, -0.18512997, 0.118627794, -1320544.3, 7829.3936, 0.024829434, 9.999546, 10.000042 
2.0650357e+3, 1.7445135e+2, -1113263.0, -1143282.6, -51863.063, -0.064716615, 0.010990754, -1074281.4, 156095.61, 0.0041003036, 10.000662, 10.000168 
2.065051e+3, 1.8445094e+2, -1068788.3, -1190985.9, 13687.504, -0.025324373, 0.004308303, -1067273.9, 65106.56, 0.000108260756, 10.000749, 9.999155 
2.065066e+3, 1.944507e+2, -1020672.06, -1082091.9, 5038.0137, -0.12368875, 0.0039969017, -1020261.56, 14121.91, 0.0, 10.000289, 9.99943 
2.065081e+3, 2.0445023e+2, -1003048.4, -1085624.3, -8061.808, -0.14503312, 0.04043237, -1002268.6, -65880.43, 0.0, 9.9999695, 9.998918 
2.0650965e+3, 2.1444935e+2, -879116.0, -950544.0, -19069.178, -0.106492884, 0.0065186424, -874343.9, -35947.355, 0.0, 10.000091, 9.999089 
2.0651111e+3, 2.244483e+2, -749103.2, -929260.7, -34693.832, -0.093497515, 0.034050286, -742653.0, -2246.7607, 0.0, 10.000653, 9.99832 
2.0651248e+3, 2.3444693e+2, -476326.97, -721470.6, -52586.344, -0.12886298, 0.010833696, -465522.75, 176896.23, 0.0, 10.001785, 9.998499 
2.0651397e+3, 2.4444515e+2, -356898.66, -688619.8, 21417.39, -0.11178399, 0.014714914, -355521.56, 188913.38, 0.0, 10.002223, 9.997866 
2.065156e+3, 2.5444263e+2, -300036.4, -580440.06, 2237.1768, -0.06383185, -0.082338065, -300018.56, 146438.56, 0.0, 10.001854, 9.998085 
2.0651719e+3, 2.6444057e+2, -277154.06, -590142.75, 17069.71, -0.056539197, -0.06716307, -276225.88, 72251.54, 0.00000012472299, 10.001588, 9.997505 
2.0651872e+3, 2.744391e+2, -176544.36, -460059.53, -8887.581, -0.106738046, -0.02603884, -176266.03, 74229.47, 0.0000018192295, 10.001522, 9.997724 
2.0652024e+3, 2.8443724e+2, -52322.12, -443316.44, 15827.052, -0.13557298, 0.056210667, -51682.504, 100834.63, 0.000008845643, 10.002053, 9.996954 
2.0652178e+3, 2.9443437e+2, 232885.28, -207385.53, 17047.258, -0.16306576, -0.0016170524, 233544.36, 288093.0, 0.000033872344, 10.003181, 9.99732 
2.0652369e+3, 3.0443305e+2, 408681.1, 60120.29, 174383.92, -0.004324704, 0.05983752, 480943.63, 480943.63, 0.00009226976, 10.003295, 9.998823 
2.0652564e+3, 3.1443304e+2, 159788.77, -120807.984, -245669.8, 0.019118687, 0.08485086, 302399.0, 302399.0, 0.0001939828, 10.001829, 9.998245 
2.0749548e+3, 1.2442532e+2, -2071399.0, -2240760.0, -47518.867, -0.00020663816, 0.009150672, -2058977.3, -338345.78, 0.38886976, 9.998907, 9.99688 
2.0749678e+3, 1.3443302e+2, -1385745.6, -1119313.0, 2578.535, -0.36790475, 0.23908162, -1119288.0, 503269.66, 0.28190908, 9.999866, 10.004771 
2.0749892e+3, 1.4443174e+2, -1741311.4, -1589865.5, 56517.645, 0.07012349, -0.15210101, -1571099.3, -46529.023, 0.17213808, 9.998215, 10.000357 
2.0750044e+3, 1.5443467e+2, -1522189.0, -1344893.4, 75427.164, -0.13728715, -0.0030026527, -1317146.6, 109395.01, 0.08207624, 9.998704, 10.001151 
2.0750198e+3, 1.6443615e+2, -1358990.8, -1340982.4, -8242.887, -0.2341625, 0.079809636, -1337779.1, -9252.962, 0.027111659, 9.999708, 9.999972 
2.0750366e+3, 1.7443499e+2, -1126467.8, -1173881.6, -2323.163, -0.05905578, -0.0702868, -1126354.1, 104181.734, 0.0046569863, 10.000683, 9.999943 
2.0750526e+3, 1.8443467e+2, -1050529.5, -1174866.3, -21315.648, -0.022310235, -0.058042992, -1046976.75, 85562.3, 0.00014131474, 10.000839, 9.999222 
2.075066e+3, 1.944357e+2, -1024818.06, -1076328.5, -4639.0557, -0.17547941, 0.059041083, -1024403.6, 10127.755, 0.0000000002137382, 10.000223, 9.999503 
2.0750809e+3, 2.0443541e+2, -1015923.5, -1075475.0, -26675.969, -0.21404965, 0.100655094, -1005721.75, -69187.984, 0.0, 9.9998, 9.999071 
2.0750971e+3, 2.144333e+2, -896845.6, -940203.94, 251.76839, -0.06425264, -0.07168023, -896844.1, -58293.63, 0.0, 9.999879, 9.999263 
2.0751128e+3, 2.2443156e+2, -814930.9, -973847.4, -5925.554, -0.017684469, -0.11944958, -814710.25, -74144.914, 0.0, 10.000269, 9.998192 
2.0751272e+3, 2.3443016e+2, -532409.0, -761835.2, 5902.183, -0.08200041, -0.13465878, -532257.25, 110321.73, 0.0, 10.001476, 9.998363 
2.0751423e+3, 2.4442889e+2, -426530.44, -731520.56, -5352.432, -0.1196899, -0.0698436, -426436.53, 118154.805, 0.0, 10.001791, 9.997776 
2.0751579e+3, 2.5442755e+2, -346196.22, -613212.56, 4222.9863, -0.088799946, -0.03978612, -346129.44, 100474.73, 0.0, 10.001589, 9.997984 
2.0751731e+3, 2.6442537e+2, -355823.16, -649531.6, -7553.932, -0.13605408, -0.023790509, -355629.0, -7002.4126, 0.000000021824269, 10.001159, 9.997299 
2.0751876e+3, 2.744221e+2, -231552.58, -499099.44, 6817.2456, -0.24550012, -0.14250058, -231378.98, 19281.615, 0.00000084431264, 10.001218, 9.997597 
2.0752041e+3, 2.844209e+2, -81850.766, -387518.56, 31230.32, -0.22458564, -0.021403026, -78692.57, 73982.28, 0.000005133315, 10.001569, 9.99756 
2.0752227e+3, 2.944214e+2, 207426.94, -172103.42, 83858.61, -0.03366106, 0.19155695, 225130.03, 279802.47, 0.000023723636, 10.002788, 9.997753 
2.075239e+3, 3.0441692e+2, 220958.27, -124454.63, 96480.54, -0.16292599, -0.035441607, 246080.05, 246080.05, 0.00007270888, 10.0024805, 9.997912 
2.0752576e+3, 3.1441712e+2, 2105.5862, -181240.89, -220557.95, -0.10534301, 0.064563446, 149283.33, 149283.33, 0.00016093491, 10.000793, 9.998276 
2.0849526e+3, 1.2440972e+2, -2097190.5, -2224971.0, 47297.582, -0.087921895, 0.003140427, -2081588.4, -360804.16, 0.40993002, 9.998641, 9.997101 
2.0849682e+3, 1.3441615e+2, -1498934.6, -1194062.6, 42595.457, -0.2513045, 0.10090927, -1188223.1, 434499.03, 0.29801235, 9.998883, 10.004623 
2.0849884e+3, 1.4441769e+2, -1561835.1, -1520400.0, 63995.395, 0.10052753, 0.00056971214, -1473852.3, 50855.008, 0.18298064, 9.999563, 10.000218 
2.0850037e+3, 1.544186e+2, -1417451.0, -1336107.0, 30348.8, -0.102651946, -0.017651593, -1326032.0, 100666.42, 0.088167645, 9.999608, 10.000779 
2.08502e+3, 1.6441959e+2, -1408514.8, -1357305.5, -30725.488, -0.14080448, 0.03339403, -1342914.5, -14226.5205, 0.029713616, 9.99931, 10.000075 
2.0850374e+3, 1.7441908e+2, -1295955.5, -1236501.1, -32501.695, 0.019733435, -0.068200335, -1222182.1, 8508.595, 0.005333032, 9.999397, 10.000157 
2.0850532e+3, 1.844189e+2, -1243546.8, -1273331.8, -20754.512, 0.04904367, -0.05397328, -1232894.4, -100201.7, 0.00018960002, 9.999539, 9.999186 
2.0850664e+3, 1.9441947e+2, -1002887.56, -1077005.8, -43237.258, -0.14899151, 0.030814394, -983000.75, 51689.156, 0.000000020895914, 10.000436, 9.999397 
2.0850813e+3, 2.0441917e+2, -858591.2, -984394.4, -51131.09, -0.17678712, 0.07225369, -840431.1, 96261.75, 0.0, 10.000865, 9.99916 
2.0850982e+3, 2.1441744e+2, -720806.75, -840497.7, -67557.1, -0.007934953, -0.070348874, -690400.1, 148305.31, 0.0, 10.001054, 9.999361 
2.085114e+3, 2.244158e+2, -690009.6, -928148.4, -30554.611, 0.062639825, -0.10939809, -686151.75, 54567.867, 0.0, 10.001172, 9.99808 
2.0851292e+3, 2.3441409e+2, -568394.0, -793084.6, -48212.64, -0.026114987, -0.14011447, -558485.8, 84251.14, 0.0, 10.001268, 9.998256 
2.0851442e+3, 2.4441276e+2, -488192.47, -747727.75, -44833.43, -0.065167576, -0.08275209, -480666.0, 64084.36, 0.0, 10.0013075, 9.997893 
2.0851594e+3, 2.544116e+2, -368801.44, -613536.0, -54020.547, -0.064654484, -0.04044688, -357407.84, 89353.79, 0.0, 10.001387, 9.998078 
2.0851746e+3, 2.6440966e+2, -246477.33, -569737.06, 7256.542, -0.10677995, -0.0137929935, -246314.52, 102466.15, 0.0, 10.001787, 9.997547 
2.0851895e+3, 2.7440667e+2, -19994.184, -372886.1, 14826.06, -0.22944, -0.13075416, -19372.39, 231437.8, 0.000000115745564, 10.002558, 9.997819 
2.0852065e+3, 2.8440517e+2, 66307.46, -317644.0, 55276.316, -0.16715296, -0.052368615, 74106.984, 226933.17, 0.0000020138657, 10.002564, 9.997566 
2.0852256e+3, 2.9440516e+2, 20765.123, -251324.98, 7737.5947, 0.07075857, 0.115093686, 20984.984, 75813.625, 0.000014504671, 10.001472, 9.997839 
2.0852408e+3, 3.0440217e+2, 124538.484, -145645.64, 104049.99, -0.17962955, 0.012514296, 159964.06, 159964.06, 0.000053405533, 10.001637, 9.998206 
2.0852605e+3, 3.1440142e+2, 344348.53, -72234.59, -194596.13, 0.0147151565, 0.022092199, 421106.13, 421106.13, 0.000125829, 10.003244, 9.997903 
2.0949519e+3, 1.2439506e+2, -1833170.9, -1710784.1, -194942.52, -0.14482026, -0.28352484, -1567656.1, 153272.78, 0.42994058, 9.998824, 10.00106 
2.0949675e+3, 1.343996e+2, -1603554.4, -1430406.3, 78743.75, -0.27353486, -0.108855695, -1399952.0, 222930.64, 0.31401625, 9.999023, 10.002296 
2.0949873e+3, 1.4440343e+2, -1551634.0, -1551937.5, 51357.586, -0.029183425, 0.14153542, -1500428.0, 24416.922, 0.19429262, 9.999785, 9.99987 
2.095003e+3, 1.544016e+2, -1473587.9, -1466169.1, 40272.87, -0.19261949, -0.06805578, -1429435.1, -2570.1865, 0.094824284, 9.999692, 9.999786 
2.0950203e+3, 1.6440211e+2, -1358969.1, -1300838.8, -53751.72, -0.119356394, -0.014850997, -1268797.3, 60062.59, 0.032688897, 9.999501, 10.000383 
2.0950374e+3, 1.7440373e+2, -1242863.5, -1136736.3, -21743.69, 0.028825317, 0.031315196, -1132454.1, 98387.16, 0.0061590113, 9.999437, 10.000829 
2.0950525e+3, 1.8440373e+2, -1237943.4, -1287211.3, -10195.196, -0.014822152, 0.032581393, -1235917.0, -103076.39, 0.00026052183, 9.999645, 9.999041 
2.0950669e+3, 1.9440222e+2, -1034087.5, -1124505.9, -70.78554, -0.19517072, -0.06515058, -1034087.44, 770.12537, 0.00000016154512, 10.000361, 9.999106 
2.0950821e+3, 2.0440157e+2, -901301.3, -1023618.2, -58938.902, -0.22668628, -0.036110036, -877523.56, 59341.066, 0.0, 10.000651, 9.998993 
2.0950986e+3, 2.1440169e+2, -771402.1, -880524.9, -48792.145, -0.073622, 0.019271959, -752767.8, 86094.305, 0.0, 10.000784, 9.99921 
2.0951147e+3, 2.2440082e+2, -750302.0, -967521.5, -41936.566, -0.03833142, 0.06828709, -742486.9, -1616.2992, 0.0, 10.0008, 9.99799 
2.0951296e+3, 2.3439859e+2, -616181.2, -825434.1, -28456.404, -0.1163404, -0.0068493425, -612380.44, 30513.348, 0.0, 10.000981, 9.998172 
2.095145e+3, 2.4439664e+2, -534676.44, -744561.4, -57764.414, -0.15956046, -0.01734288, -519828.88, 25083.975, 0.0, 10.000879, 9.998122 
2.0951603e+3, 2.543948e+2, -386652.66, -592523.3, -34649.707, -0.13654079, -0.0742615, -380977.28, 65952.14, 0.0, 10.001131, 9.998346 
2.095176e+3, 2.643934e+2, -266099.25, -511252.03, 15463.039, -0.17798372, -0.03763818, -265127.75, 83813.016, 0.0, 10.001376, 9.998141 
2.0951924e+3, 2.7439243e+2, -33205.844, -319596.84, 60765.77, -0.23623008, -0.012473575, -20846.113, 230101.55, 0.0, 10.002222, 9.998342 
2.0952095e+3, 2.8438988e+2, -67242.96, -458002.63, -5374.672, -0.18360005, -0.02930252, -67169.055, 85803.34, 0.00000039293647, 10.001988, 9.996878 
2.0952263e+3, 2.9438582e+2, -65476.9, -341614.03, -4046.4043, -0.033575382, -0.20084138, -65417.613, -10402.773, 0.000007667558, 10.001092, 9.997403 
2.0952407e+3, 3.0438718e+2, 75735.14, -40958.227, 131952.0, -0.3890578, 0.09132151, 161664.81, 161664.81, 0.000037309022, 10.000814, 9.999294 
2.0952651e+3, 3.1438532e+2, 167836.06, -152862.78, 95639.86, 0.06771921, -0.11319655, 194192.08, 194192.08, 0.0000961441, 10.002117, 9.9978485 
2.1049526e+3, 1.2438448e+2, -1850164.1, -1563155.1, -230135.8, 0.11391927, 0.13635622, -1435447.5, 285587.16, 0.44859928, 9.997713, 10.0033045 
2.1049665e+3, 1.3438363e+2, -1742606.0, -1604321.5, 45125.164, -0.2360585, -0.1279104, -1590899.0, 32140.219, 0.3298663, 9.998725, 10.000748 
2.1049866e+3, 1.443865e+2, -1558704.5, -1582383.9, -3515.0408, -0.054834034, 0.12935194, -1558193.8, -33183.727, 0.20615475, 9.999847, 9.999604 
2.1050031e+3, 1.5438503e+2, -1524485.5, -1477775.5, -11941.455, -0.11261218, -0.054305002, -1474899.6, -47873.098, 0.10215144, 9.999316, 9.999869 
2.1050203e+3, 1.6438521e+2, -1458590.6, -1363046.9, -8405.804, -0.024549935, -0.032810498, -1362313.0, -33287.79, 0.036114734, 9.998903, 10.000211 
2.1050368e+3, 1.7438686e+2, -1170072.0, -1117581.3, -58418.637, 0.016347203, 0.031799812, -1079783.3, 151224.19, 0.007176738, 10.000011, 10.00067 
2.1050525e+3, 1.843871e+2, -1136355.1, -1218934.4, -60256.52, -0.018916158, 0.054392878, -1104599.0, 28405.625, 0.0003661867, 10.00026, 9.999211 
2.1050674e+3, 1.9438541e+2, -1103217.5, -1136190.4, -50260.504, -0.13126098, -0.0789854, -1066808.5, -31786.72, 0.00000091193453, 9.999797, 9.999294 
2.1050833e+3, 2.0438464e+2, -1018832.3, -1094645.3, -42322.188, -0.13418859, -0.06690445, -999922.7, -62892.965, 0.0, 9.999849, 9.998922 
2.1050996e+3, 2.1438475e+2, -775250.3, -905669.7, -53849.04, -0.050585147, 0.00029052552, -755890.4, 83138.36, 0.0, 10.000786, 9.999079 
2.1051155e+3, 2.2438426e+2, -697249.9, -917364.1, -26185.318, -0.02574371, 0.08781051, -694177.6, 46857.004, 0.0, 10.001082, 9.998183 
2.1051306e+3, 2.3438284e+2, -610267.06, -798555.75, -32089.229, -0.1106476, 0.074858755, -604948.44, 38102.563, 0.0, 10.000937, 9.9983635 
2.1051462e+3, 2.4438097e+2, -508887.63, -740922.06, -25050.596, -0.11548707, 0.06650004, -506213.94, 38855.594, 0.0, 10.001067, 9.998074 
2.1051623e+3, 2.543784e+2, -350541.56, -585169.1, -57381.574, -0.06965843, -0.049008075, -337259.9, 109832.13, 0.0, 10.001414, 9.998271 
2.1051785e+3, 2.6437676e+2, -233678.64, -499908.88, -4640.982, -0.08352243, -0.03286241, -233597.77, 115507.53, 0.0, 10.001593, 9.998125 
2.1051946e+3, 2.7437592e+2, -130171.93, -375038.06, -39789.86, -0.1802576, 0.012694909, -123868.484, 127242.31, 0.0, 10.001573, 9.998285 
2.1052116e+3, 2.843734e+2, -58177.613, -384808.03, -67601.27, -0.13126403, -0.022156227, -44739.35, 108394.49, 0.00000006547354, 10.001798, 9.997442 
2.1052283e+3, 2.9436907e+2, 151480.63, -180860.08, -44315.008, 0.001912957, -0.27112463, 157288.19, 212465.22, 0.000004738257, 10.002384, 9.997863 
2.105244e+3, 3.0437085e+2, 306123.0, 1681.1287, 140956.03, -0.22618811, 0.07096244, 361362.47, 361362.47, 0.00002905632, 10.002662, 9.998702 
2.1052676e+3, 3.1436816e+2, 273660.56, 19839.492, -68965.47, 0.10477639, -0.15000641, 291188.66, 291188.66, 0.00007991688, 10.002287, 9.998953 
2.11495e+3, 1.2437027e+2, -1883828.0, -1676980.5, -59839.984, -0.072343424, 0.5004223, -1660916.6, 60260.32, 0.46656317, 9.997974, 10.00152 
2.1149644e+3, 1.3436772e+2, -1764873.1, -1664337.6, 112518.195, -0.37742323, 0.012445395, -1591369.1, 31828.338, 0.34608045, 9.998832, 10.000259 
2.1149859e+3, 1.4436692e+2, -1527389.0, -1590168.5, -6370.501, -0.20585313, -0.04136758, -1526749.1, -1546.2852, 0.21890919, 10.00015, 9.999409 
2.1150039e+3, 1.5436892e+2, -1418893.6, -1310111.1, -29327.72, -0.017843187, 0.030062877, -1302708.1, 124474.56, 0.110347085, 9.999479, 10.00104 
2.1150196e+3, 1.6436866e+2, -1471731.0, -1435881.0, -1.1917657, -0.061960302, -0.038515855, -1435881.0, -106695.086, 0.040102176, 9.999091, 9.999624 
2.1150354e+3, 1.7436847e+2, -1234436.8, -1261649.1, -6310.9185, -0.16118649, -0.06318892, -1233044.4, -1854.903, 0.008443992, 10.000044, 9.999663 
2.1150517e+3, 1.8436888e+2, -1098526.8, -1152242.3, -94834.13, -0.1643173, 0.012655578, -1026820.56, 106365.07, 0.00052604213, 10.000309, 9.999644 
2.1150678e+3, 1.9436888e+2, -1076458.0, -1056887.6, -59791.402, -0.102570094, -0.008197024, -1006086.0, 29097.926, 0.0000034897541, 9.9997, 9.99988 
2.1150838e+3, 2.043682e+2, -1054486.1, -1111435.0, -29081.684, -0.09630085, -0.020294644, -1042259.94, -105070.23, 0.0, 9.999606, 9.998922 
2.1151003e+3, 2.143668e+2, -820973.1, -928873.44, -6936.7993, -0.088865615, -0.10478606, -820529.0, 18674.984, 0.0, 10.000503, 9.999046 
2.1151163e+3, 2.243663e+2, -735977.75, -905534.3, -45038.5, -0.11169284, -0.029014008, -724756.94, 16453.498, 0.0, 10.000681, 9.998459 
2.1151313e+3, 2.343667e+2, -624519.94, -773200.5, -21635.35, -0.15308675, 0.10956737, -621435.6, 21774.535, 0.0, 10.000696, 9.998654 
2.1151474e+3, 2.4436553e+2, -593075.25, -824799.7, -28211.9, -0.1459233, 0.17078109, -589690.0, -44467.402, 0.0, 10.00068, 9.997677 
2.1151645e+3, 2.5436223e+2, -415014.3, -665316.44, -29421.328, -0.020729989, 0.01799997, -411602.53, 35649.652, 0.0, 10.001188, 9.997821 
2.115181e+3, 2.6435953e+2, -348758.8, -632349.75, -17659.338, -0.039539505, -0.014539322, -347663.4, 1613.2008, 0.0, 10.001149, 9.99742 
2.115196e+3, 2.743573e+2, -208394.89, -476608.03, -14969.2295, -0.23186034, -0.047841165, -207562.03, 43735.46, 0.0, 10.001312, 9.997706 
2.1152124e+3, 2.843554e+2, -37314.957, -230465.58, -64697.59, -0.2827087, -0.05666919, -17646.69, 135666.9, 0.00000005479561, 10.00132, 9.9987335 
2.1152307e+3, 2.9435405e+2, 178251.6, -48665.652, 10114.224, -0.045263715, -0.15700799, 178701.52, 234024.42, 0.0000044706885, 10.002036, 9.998944 
2.1152487e+3, 3.043528e+2, -11994.572, -412167.72, 97047.77, -0.048212472, -0.04454583, 10298.952, 10298.952, 0.000027145721, 10.001675, 9.996298 
2.1152675e+3, 3.143501e+2, 177914.78, 105044.79, 42157.234, -0.2089222, -0.06762769, 197200.0, 197200.0, 0.00007500438, 10.001151, 10.0000515 
2.1249473e+3, 1.2434599e+2, -1921540.8, -1672798.3, -124947.12, -0.11535164, -0.33464414, -1620874.4, 100541.17, 0.48543465, 9.997444, 10.002047 
2.1249634e+3, 1.3435079e+2, -1614888.0, -1638051.9, 92932.32, -0.40097487, 0.042418912, -1532818.6, 90545.4, 0.3637423, 10.000275, 9.999792 
2.1249865e+3, 1.4434853e+2, -1687786.1, -1658134.5, 31638.283, -0.07127318, -0.12946399, -1638020.5, -112637.0, 0.23315269, 9.998998, 9.999498 
2.1250036e+3, 1.5435176e+2, -1396717.1, -1279457.6, -73627.94, 0.027864927, 0.04431388, -1243967.6, 183383.48, 0.1197026, 9.99951, 10.001301 
2.1250188e+3, 1.6435185e+2, -1387628.0, -1404326.1, -27450.133, -0.045842126, -0.0020151443, -1367285.4, -37934.59, 0.044803485, 9.999682, 9.999577 
2.1250357e+3, 1.7435113e+2, -1309169.9, -1317976.1, 417.43112, -0.12561935, -0.06306579, -1309150.1, -77789.89, 0.01004214, 9.999612, 9.999496 
2.1250522e+3, 1.8435149e+2, -1180561.3, -1174577.8, -45944.12, -0.08857184, 0.011132367, -1131528.1, 1829.0684, 0.0007722133, 9.999668, 9.999796 
2.1250686e+3, 1.943519e+2, -931915.1, -972864.06, -70545.36, -0.041020803, 0.013717544, -878933.1, 156418.52, 0.000010944595, 10.000608, 10.000033 
2.1250847e+3, 2.0435147e+2, -861201.8, -990443.7, -22383.611, -0.021056324, 0.0094109, -857434.94, 79919.78, 0.0, 10.000836, 9.9991455 
2.1251011e+3, 2.143501e+2, -813600.8, -894339.94, -16786.719, -0.049844015, -0.09471237, -810249.7, 29117.842, 0.0, 10.000452, 9.999282 
2.1251172e+3, 2.2434941e+2, -742154.3, -926082.25, -15570.899, -0.071428224, -0.047019552, -740845.44, 530.3145, 0.0, 10.000701, 9.998312 
2.1251325e+3, 2.3434938e+2, -481026.7, -723625.9, -53753.277, -0.15087536, 0.06782281, -469649.94, 173730.28, 0.0, 10.001762, 9.998484 
2.1251489e+3, 2.443483e+2, -353271.22, -691751.9, -47655.51, -0.126194, 0.14107567, -346689.66, 198702.3, 0.0, 10.002278, 9.99781 
2.1251665e+3, 2.5434566e+2, -263479.56, -579987.25, -48958.88, 0.016135478, 0.049848206, -256079.4, 191335.78, 0.0, 10.002193, 9.997925 
2.125183e+3, 2.6434302e+2, -199911.4, -544052.0, 31705.236, 0.031813227, 0.013330591, -197014.83, 152423.94, 0.0, 10.00212, 9.997547 
2.125198e+3, 2.7434e+2, -109890.66, -415560.9, 39228.535, -0.1957109, -0.10095836, -104936.51, 146530.06, 0.0, 10.001965, 9.997798 
2.125214e+3, 2.843384e+2, 47987.59, -207928.45, 16391.693, -0.25355682, -0.082150236, 49033.223, 202513.3, 0.000000117451826, 10.001937, 9.998623 
2.1252327e+3, 2.943383e+2, 169105.56, -70006.93, -68864.445, -0.032466516, -0.033573925, 187520.36, 242998.67, 0.0000050467984, 10.00202, 9.99882 
2.1252525e+3, 3.0433518e+2, 88817.266, -439586.38, 82970.516, 0.13468505, -0.07214466, 101539.09, 101539.09, 0.00002697455, 10.002579, 9.995746 
2.12527e+3, 3.143338e+2, 400146.53, 197000.02, -13384.283, -0.121263444, 0.123143695, 401024.56, 401024.56, 0.00007158717, 10.002603, 10.0000725 
2.1349642e+3, 1.3433413e+2, -1627376.5, -1704745.8, 47473.758, -0.4146919, 0.13588102, -1604821.8, 18704.516, 0.38411817, 10.000377, 9.999115 
2.134988e+3, 1.4433083e+2, -1647497.6, -1624699.9, -18210.348, 0.09476189, -0.16311887, -1614615.0, -89057.83, 0.24951555, 9.999199, 9.999628 
2.135002e+3, 1.5433335e+2, -1414037.5, -1344222.3, -46670.484, -0.13506834, -0.014935362, -1320848.9, 106684.85, 0.13052814, 9.999642, 10.000736 
2.1350178e+3, 1.6433483e+2, -1318975.3, -1314249.6, -44671.21, -0.19065067, 0.079377756, -1271878.8, 57641.0, 0.050404422, 9.999909, 10.000096 
2.1350366e+3, 1.7433481e+2, -1259764.1, -1224119.8, 4755.2495, -0.025743114, 0.028650906, -1223496.3, 8023.5107, 0.012084308, 9.999648, 10.000122 
2.1350534e+3, 1.8433478e+2, -1182887.1, -1199964.4, -30831.6, 0.0028540632, 0.037219565, -1159433.6, -25913.234, 0.001155736, 9.999754, 9.999581 
2.1350688e+3, 1.9433445e+2, -964270.25, -1023368.94, -23274.816, -0.09274249, -0.0069538276, -956204.7, 79320.32, 0.000030850606, 10.000532, 9.999725 
2.135085e+3, 2.0433432e+2, -871686.4, -951967.94, -50384.81, -0.12767452, 0.018523207, -847407.4, 90118.33, 0.0, 10.000584, 9.99953 
2.1351016e+3, 2.1433437e+2, -819861.2, -845193.56, -18717.135, -0.062078964, 0.015075934, -809927.3, 29595.145, 0.0, 10.000193, 9.999742 
2.135118e+3, 2.2433347e+2, -840992.0, -1030529.5, 8565.225, -0.10213526, 0.038503196, -840605.75, -99074.27, 0.0, 10.000284, 9.997788 
2.1351336e+3, 2.3433095e+2, -568561.6, -840254.4, 1031.7566, -0.24752997, -0.033352315, -568557.7, 75002.38, 0.0, 10.001488, 9.997814 
2.1351501e+3, 2.4432927e+2, -387901.53, -665550.7, -63944.242, -0.27536196, -0.003058362, -373882.63, 171695.23, 0.0, 10.001861, 9.998188 
2.1351677e+3, 2.5432852e+2, -262907.2, -522856.9, -35764.16, -0.09944555, 0.041296855, -258076.48, 189506.28, 0.0, 10.001951, 9.998429 
2.1351843e+3, 2.643268e+2, -219004.7, -483574.2, 9759.088, -0.073870726, 0.03863089, -218645.22, 130950.945, 0.0, 10.001706, 9.998156 
2.1351999e+3, 2.7432352e+2, -113398.42, -359082.9, 49724.54, -0.22879563, -0.16537592, -103716.15, 147907.72, 0.00000000014169585, 10.001689, 9.99832 
2.1352158e+3, 2.843216e+2, -149919.13, -477363.2, -4393.394, -0.31501454, -0.12790154, -149860.19, 3781.2954, 0.000000256191, 10.001367, 9.997026 
2.1352339e+3, 2.943214e+2, 14899.435, -311225.25, -28826.11, -0.15055183, 0.06624159, 17427.77, 73074.445, 0.0000052967753, 10.001682, 9.997319 
2.1352538e+3, 3.0431688e+2, 19552.955, -351208.25, 78684.43, -0.046132877, -0.09005278, 35560.55, 35560.55, 0.000025200057, 10.00167, 9.996751 
2.1352722e+3, 3.143152e+2, 127027.555, -12817.552, 23344.63, -0.25237194, -0.036965434, 130821.586, 130821.586, 0.00006359548, 10.001194, 9.99925 
2.1449655e+3, 1.3431697e+2, -1730893.3, -1649822.1, 85280.72, -0.19301012, 0.18671994, -1595933.4, 27760.754, 0.40760165, 9.9991045, 10.000153 
2.1449873e+3, 1.4431384e+2, -1749789.4, -1689712.8, 12487.69, 0.14456196, -0.14618756, -1687220.5, -161499.17, 0.26811564, 9.998576, 9.999478 
2.1450017e+3, 1.5431522e+2, -1410308.1, -1381816.9, -10310.793, -0.12736438, -0.08011732, -1378477.0, 49232.87, 0.14296411, 9.999885, 10.000317 
2.1450186e+3, 1.6431683e+2, -1257826.8, -1284999.0, -25901.191, -0.111705765, 0.056527343, -1242164.8, 87530.67, 0.057087187, 10.000386, 10.000066 
2.145037e+3, 1.7431743e+2, -1127688.6, -1150237.6, -55576.586, 0.033785988, 0.05979128, -1082254.5, 149435.81, 0.014719365, 10.000559, 10.000182 
2.1450537e+3, 1.8431748e+2, -1157491.8, -1190760.6, -84651.87, 0.051915262, 0.07463936, -1087855.5, 45835.484, 0.0017550356, 9.999939, 9.999555 
2.1450688e+3, 1.9431695e+2, -1197562.5, -1137061.0, -84426.08, -0.05872559, 0.012877554, -1077629.6, -41931.832, 0.00008036648, 9.998943, 9.9997015 
2.1450849e+3, 2.043169e+2, -1077790.9, -1055121.5, -46562.844, -0.08269375, 0.046218883, -1018533.56, -80835.09, 0.000000018813253, 9.999178, 9.999507 
2.1451023e+3, 2.1431719e+2, -646582.3, -767989.94, -72908.59, -0.052878335, 0.069791086, -612414.56, 227278.81, 0.0, 10.001382, 9.999716 
2.1451192e+3, 2.2431625e+2, -576342.3, -874792.1, -49487.207, -0.066566214, 0.08058245, -568350.7, 173351.39, 0.0, 10.001988, 9.998041 
2.1451353e+3, 2.3431344e+2, -666300.4, -853941.2, -28157.625, -0.17636077, -0.04164515, -662166.1, -18435.035, 0.0, 10.000696, 9.9981 
2.1451518e+3, 2.4431172e+2, -577152.6, -748948.94, -12603.977, -0.20028564, -0.032212324, -576232.8, -30484.627, 0.0, 10.00052, 9.998268 
2.145169e+3, 2.5431126e+2, -278892.1, -523918.78, -44314.02, -0.1413873, 0.038249653, -271124.03, 176627.27, 0.0, 10.001808, 9.998491 
2.145186e+3, 2.6430973e+2, -136138.73, -449920.03, -44752.23, -0.10787289, 0.050878357, -129880.875, 219882.78, 0.0, 10.002262, 9.998138 
2.1452022e+3, 2.743066e+2, -125187.81, -365556.88, -89032.35, -0.15223762, -0.12953141, -95802.69, 155987.45, 0.00000000016893417, 10.0015955, 9.998331 
2.1452187e+3, 2.843048e+2, -94056.17, -500305.56, -39499.81, -0.18463875, -0.064447805, -90251.23, 63556.004, 0.0000002738674, 10.001923, 9.996612 
2.1452361e+3, 2.9430416e+2, 260907.58, -224668.81, -26641.1, -0.17130993, 0.1369379, 262364.88, 318182.66, 0.0000047479944, 10.003519, 9.997022 
2.1452558e+3, 3.0429974e+2, 423494.13, -36956.664, 106572.33, -0.08005948, -0.065191664, 446964.22, 446964.22, 0.000021563434, 10.003818, 9.99792 
2.1452756e+3, 3.1429762e+2, 155271.92, -63781.434, -112647.95, -0.006288434, -0.14725095, 202861.94, 202861.94, 0.000054127682, 10.001564, 9.998739 
2.1549673e+3, 1.3429858e+2, -1558045.8, -1405581.8, 11027.875, -0.059776396, 0.15877973, -1404788.3, 219086.52, 0.43279883, 9.999361, 10.00274 
2.154983e+3, 1.4429744e+2, -1707394.6, -1707681.9, 4914.346, -0.26597244, -0.111557655, -1702621.9, -176744.58, 0.28823382, 9.999007, 9.999153 
2.1550022e+3, 1.5429741e+2, -1422219.5, -1434706.4, 37436.33, -0.11003715, -0.14672302, -1390509.6, 37369.33, 0.15688464, 10.000027, 9.999852 
2.1550205e+3, 1.6429782e+2, -1272667.1, -1368394.6, -36615.258, -0.03737024, -0.07813316, -1260268.0, 69609.984, 0.06501248, 10.000626, 9.999359 
2.1550366e+3, 1.7429885e+2, -1168838.9, -1236390.6, -46834.863, -0.10493682, 0.034609936, -1144871.3, 87001.93, 0.018139776, 10.000572, 9.999571 
2.1550523e+3, 1.8429945e+2, -1129152.3, -1155458.5, -139844.69, -0.14566454, 0.12789384, -1001843.5, 132026.77, 0.0026903055, 10.000032, 9.999759 
2.1550679e+3, 1.9429941e+2, -1184043.0, -1094155.4, -113943.65, -0.09519683, 0.08478008, -1016612.06, 19258.625, 0.00019736934, 9.998885, 10.000021 
2.1550845e+3, 2.0429918e+2, -1133223.6, -1129710.9, 9528.915, -0.10157273, 0.10289287, -1121777.9, -183904.61, 0.0000007869328, 9.998998, 9.999084 
2.1551028e+3, 2.1429849e+2, -715942.2, -857992.0, 21566.713, -0.1729988, 0.07465127, -712740.0, 127140.8, 0.0, 10.001142, 9.999216 
2.1551204e+3, 2.242977e+2, -573343.2, -775401.0, -104373.586, -0.1864897, 0.08585628, -529111.4, 212776.44, 0.0, 10.001584, 9.998917 
2.1551369e+3, 2.3429662e+2, -628924.56, -720492.75, -60930.57, -0.09628217, 0.032168247, -598493.7, 45401.805, 0.0, 10.000451, 9.999133 
2.1551536e+3, 2.4429539e+2, -658302.56, -818987.2, 13640.804, -0.11499906, 0.047000673, -657152.8, -111246.86, 0.0, 10.000111, 9.997978 
2.1551701e+3, 2.542937e+2, -343933.44, -602862.94, 18589.033, -0.2474678, 0.034280546, -342605.7, 105316.95, 0.0, 10.001566, 9.998065 
2.1551868e+3, 2.642916e+2, -243557.63, -570420.5, -77107.34, -0.289422, 0.04382174, -226281.06, 123661.77, 0.0, 10.001831, 9.997514 
2.1552041e+3, 2.7428904e+2, -204691.36, -470954.84, -95223.92, -0.13817756, -0.028817149, -174141.53, 77826.57, 0.0, 10.001332, 9.997735 
2.1552217e+3, 2.842874e+2, -144528.77, -463128.5, -1781.3534, -0.119468786, 0.060759053, -144518.8, 9465.203, 0.000000100631844, 10.001357, 9.99712 
2.155239e+3, 2.9428643e+2, 225161.19, -183368.69, 70120.34, -0.2859846, 0.17120771, 236861.6, 292855.2, 0.0000031808167, 10.003031, 9.997536 
2.1552573e+3, 3.0428246e+2, 324201.94, 17932.297, 7911.741, -0.3975726, -0.048382174, 324406.2, 324406.2, 0.000016664693, 10.002762, 9.998771 
2.1552788e+3, 3.1428218e+2, -70231.086, -290390.88, -22371.996, 0.050321758, -0.07848355, -67980.71, -67980.71, 0.000045618737, 10.000571, 9.99764 
2.164968e+3, 1.3427879e+2, -1576082.1, -1427584.4, 13020.234, 0.103483744, 0.032311134, -1426451.4, 197618.55, 0.45757636, 9.999285, 10.002677 
2.1649815e+3, 1.442789e+2, -1542790.9, -1577711.5, -98110.875, -0.3385991, -0.0874701, -1460598.8, 65461.36, 0.3088363, 10.000034, 9.999643 
2.1650027e+3, 1.5427919e+2, -1464926.0, -1439157.3, -55315.63, -0.046343725, -0.12859662, -1395245.3, 32812.598, 0.17204043, 9.999646, 10.000004 
2.1650213e+3, 1.6427943e+2, -1555277.0, -1526387.0, -94516.09, 0.086464785, -0.07251134, -1445218.5, -115159.98, 0.07433442, 9.998704, 9.999212 
2.1650364e+3, 1.742801e+2, -1434260.0, -1372574.3, -74307.4, -0.100574285, 0.0071519683, -1322963.0, -90905.164, 0.022589553, 9.998731, 9.999549 
2.1650517e+3, 1.842806e+2, -1241374.0, -1195297.4, -110004.234, -0.15094353, 0.08956252, -1105944.9, 28110.662, 0.00413868, 9.999245, 9.999855 
2.1650681e+3, 1.9428071e+2, -883723.06, -947451.75, -140087.03, -0.043098286, 0.061530054, -771922.1, 264131.0, 0.00045452762, 10.000964, 10.000032 
2.1650852e+3, 2.042805e+2, -824825.0, -980672.5, 9257.118, -0.01201471, 0.08144849, -824277.06, 113778.125, 0.000007502901, 10.001099, 9.999093 
2.1651033e+3, 2.1427982e+2, -949200.1, -966584.94, 28170.02, -0.14736803, 0.054154564, -928411.94, -88348.125, 0.0, 9.999534, 9.999237 
2.1651211e+3, 2.2427928e+2, -855849.5, -875698.5, -61234.594, -0.16215673, 0.07679175, -803740.4, -61672.03, 0.0, 9.999491, 9.999233 
2.1651384e+3, 2.3427872e+2, -434032.97, -595056.4, -95841.63, -0.044196896, 0.040274322, -389373.78, 254696.0, 0.0, 10.001631, 9.999434 
2.1651557e+3, 2.442775e+2, -319555.75, -668107.2, -22802.037, -0.025309535, 0.04730651, -318070.38, 228009.3, 0.0, 10.002468, 9.997889 
2.1651721e+3, 2.542753e+2, -341005.06, -602247.3, -26739.426, -0.19669461, -0.008260253, -338296.25, 109806.25, 0.0, 10.001615, 9.998035 
2.1651888e+3, 2.642734e+2, -308479.66, -611928.4, -71966.164, -0.24448298, 0.022698257, -292277.22, 57844.57, 0.0, 10.001421, 9.997428 
2.1652061e+3, 2.742715e+2, -95536.414, -429937.66, -88588.99, -0.11738967, 0.037293606, -73517.44, 178623.66, 0.0, 10.002142, 9.997623 
2.1652241e+3, 2.842693e+2, 10439.423, -379898.28, 60735.043, -0.0443524, 0.069084, 19671.223, 173833.7, 0.0000000029805467, 10.002354, 9.997225 
2.1652421e+3, 2.9426667e+2, 48291.42, -254949.7, 49033.332, -0.17641537, 0.014938678, 56022.867, 112210.34, 0.000001345268, 10.0017605, 9.997653 
2.1652605e+3, 3.0426553e+2, 226258.81, 36758.375, -28992.37, -0.27143225, 0.030982187, 230595.23, 230595.23, 0.000010778314, 10.001791, 9.999366 
2.16528e+3, 3.1426463e+2, 256309.42, -157625.44, -170405.81, 0.018223984, -0.086636335, 317434.63, 317434.63, 0.00003608632, 10.002926, 9.997417 
2.174969e+3, 1.342597e+2, -1740453.4, -1707279.8, -113576.414, 0.17283125, 0.049543034, -1609085.4, 15173.524, 0.48078975, 9.999691, 9.999316 
2.1749829e+3, 1.4425886e+2, -1466029.3, -1487143.8, -62837.08, -0.31531692, -0.08255344, -1412868.8, 113395.02, 0.32934, 10.000436, 10.00014 
2.1750024e+3, 1.5426071e+2, -1429183.0, -1387073.5, -66663.766, -0.081338726, -0.011453248, -1338218.6, 90026.99, 0.18832743, 9.999733, 10.0003805 
2.17502e+3, 1.6426152e+2, -1497418.9, -1456459.6, -117942.56, 0.021846697, 0.073653206, -1357231.9, -26993.154, 0.0852701, 9.99891, 9.999591 
2.1750353e+3, 1.742613e+2, -1371762.8, -1260280.3, -58753.223, -0.11358082, -0.009943653, -1235033.6, -2790.5332, 0.028395085, 9.998805, 10.000275 
2.1750516e+3, 1.8426105e+2, -1247498.5, -1233696.4, -67357.5, -0.17204422, -0.03325903, -1172887.4, -38641.41, 0.006367479, 9.999352, 9.999536 
2.1750693e+3, 1.9426069e+2, -923165.7, -1014689.8, -66782.75, -0.050873928, -0.06755367, -887970.3, 148276.67, 0.0009868387, 10.000904, 9.999592 
2.1750867e+3, 2.0426063e+2, -826762.06, -945066.94, -56649.7, -0.033572596, -0.02074105, -804010.94, 134235.58, 0.000047582707, 10.000916, 9.999433 
2.1751033e+3, 2.1426103e+2, -946807.2, -907428.7, -21837.336, -0.12525591, 0.008914449, -897714.94, -57471.023, 0.00000000032497088, 9.999297, 9.999759 
2.1751206e+3, 2.2426082e+2, -941482.0, -951015.1, -4524.149, -0.18648839, 0.048614923, -939676.8, -197430.95, 0.0, 9.999061, 9.99892 
2.1751392e+3, 2.3425949e+2, -506923.94, -671486.9, -556.9006, -0.16379654, -0.027067898, -506922.06, 137334.55, 0.0, 10.001323, 9.999049 
2.1751572e+3, 2.4425784e+2, -390371.1, -693893.06, -64050.67, -0.15605024, -0.048021603, -377408.4, 168863.38, 0.0, 10.00196, 9.997947 
2.1751745e+3, 2.5425577e+2, -373870.66, -601900.2, -43618.934, -0.14251539, -0.10310586, -365811.75, 82481.11, 0.0, 10.001323, 9.998173 
2.1751912e+3, 2.642547e+2, -361046.94, -601135.0, -64762.223, -0.19058044, -0.013894087, -344691.88, 5611.6724, 0.0, 10.000932, 9.9977255 
2.175207e+3, 2.7425393e+2, -121565.055, -409182.34, -40130.906, -0.24438697, 0.08051857, -116070.6, 136239.7, 0.0, 10.001846, 9.997895 
2.1752253e+3, 2.8425038e+2, -97971.195, -476800.63, 24677.492, -0.2184354, -0.02062393, -96370.43, 57974.813, 0.0, 10.001825, 9.996804 
2.1752451e+3, 2.942446e+2, -43611.92, -360671.47, 47953.0, -0.09192711, -0.35689142, -36518.086, 19884.025, 0.00000028754212, 10.001398, 9.997096 
2.175265e+3, 3.042474e+2, 85229.23, -49198.73, -29234.924, -0.07315981, 0.108528554, 91311.9, 91311.9, 0.0000061263827, 10.000971, 9.999135 
2.1752803e+3, 3.1424773e+2, 125738.75, -143354.36, 17141.38, -0.33397162, 0.08958296, 126826.27, 126826.27, 0.000027574106, 10.001762, 9.998042 
2.1849844e+3, 1.4424282e+2, -1696066.5, -1523756.9, 76653.09, -0.06535491, -0.023707833, -1494593.3, 31830.93, 0.34983045, 9.998213, 10.000893 
2.1850015e+3, 1.5424371e+2, -1427433.4, -1485209.0, -12795.773, -0.14465795, 0.08328784, -1424726.3, 3689.578, 0.2059314, 10.000151, 9.999435 
2.18502e+3, 1.6424347e+2, -1448878.8, -1401949.1, -46282.297, 0.1265642, 0.0956229, -1373523.1, -43104.402, 0.09816949, 9.999134, 9.999847 
2.1850353e+3, 1.7424369e+2, -1216763.3, -1151584.4, -31548.977, -0.029706636, 0.02895584, -1138815.1, 93601.87, 0.036017943, 9.999777, 10.00055 
2.1850513e+3, 1.8424338e+2, -1130125.9, -1209245.3, -7473.2686, -0.14548226, -0.0038060194, -1129426.1, 4992.826, 0.009796201, 10.000244, 9.999292 
2.1850698e+3, 1.9424243e+2, -991269.75, -1078935.9, -17653.504, -0.05837192, -0.07252704, -987848.4, 48577.137, 0.0020521113, 10.00052, 9.999346 
2.1850877e+3, 2.0424202e+2, -910186.25, -1020047.3, -41352.477, 0.016517114, -0.037022863, -896360.75, 42068.168, 0.00020967671, 10.000507, 9.999114 
2.1851042e+3, 2.1424219e+2, -754984.44, -853330.44, -105190.43, -0.0352829, 0.0055515114, -688041.06, 152388.08, 0.00000086887735, 10.000775, 9.999427 
2.1851213e+3, 2.2424184e+2, -686184.5, -815195.7, -20172.4, -0.08420093, 0.04477119, -683103.9, 59328.918, 0.0, 10.000737, 9.999055 
2.1851401e+3, 2.3424062e+2, -618583.3, -699287.56, 852.89716, -0.13878599, -0.034508824, -618574.3, 25868.191, 0.0, 10.000459, 9.99927 
2.1851584e+3, 2.4423935e+2, -557763.5, -718423.5, -31116.262, -0.13711403, -0.054068636, -551947.5, -5494.1626, 0.0, 10.00056, 9.998454 
2.185176e+3, 2.5423792e+2, -345652.97, -535413.5, -21521.834, -0.1125796, -0.09643767, -343242.7, 105224.18, 0.0, 10.001264, 9.998666 
2.1851932e+3, 2.642372e+2, -231562.95, -549960.6, 6089.4966, -0.11331109, 0.0010764861, -231446.53, 119027.45, 0.0, 10.001839, 9.997657 
2.1852097e+3, 2.7423623e+2, -45201.707, -388243.06, -32817.887, -0.18089119, 0.10094858, -42090.324, 210393.5, 0.0, 10.00242, 9.997778 
2.185228e+3, 2.8423268e+2, 36970.4, -371909.38, 28611.146, -0.1461208, -0.016697584, 38962.742, 193481.63, 0.0, 10.002541, 9.9972 
2.1852475e+3, 2.9422656e+2, 60687.29, -288648.28, 52077.75, -0.02689478, -0.4097334, 68285.59, 124863.13, 0.000000027227998, 10.0019865, 9.997326 
2.1852675e+3, 3.0422962e+2, 221178.28, -60681.754, 94662.54, 0.077309676, 0.09792969, 250019.48, 250019.48, 0.0000044959556, 10.0021515, 9.99853 
2.1852824e+3, 3.1422907e+2, 400165.28, 169518.1, -56300.344, -0.29773217, 0.07671115, 413174.3, 413174.3, 0.000025056477, 10.002722, 9.999809 
2.1949852e+3, 1.4422858e+2, -1481686.5, -1229441.8, -14229.754, 0.069154926, 0.0720726, -1228641.6, 297921.8, 0.371045, 9.998418, 10.0039 
2.1949995e+3, 1.5422752e+2, -1533094.3, -1746325.5, -35413.145, -0.40094316, 0.15531418, -1527366.8, -98791.28, 0.22535217, 10.000325, 9.997564 
2.1950203e+3, 1.6422513e+2, -1409502.1, -1357950.4, -76550.49, 0.159274, 0.0034834736, -1302952.6, 27647.602, 0.113554515, 9.999306, 10.000081 
2.1950358e+3, 1.7422688e+2, -1242553.1, -1201528.1, 2956.0146, 0.009874716, 0.12022349, -1201316.3, 31266.691, 0.046104282, 9.999771, 10.000198 
2.195051e+3, 1.8422711e+2, -1118639.1, -1200211.5, -4220.619, -0.27144763, 0.16159913, -1118421.3, 16158.426, 0.015073848, 10.000312, 9.999324 
2.1950693e+3, 1.9422598e+2, -991614.4, -1060252.8, -2438.467, -0.2099127, 0.061853975, -991527.9, 45060.836, 0.004138987, 10.000446, 9.999508 
2.1950877e+3, 2.0422472e+2, -1015284.2, -1190807.1, -54383.52, -0.09469761, 0.05249634, -999800.1, -61198.688, 0.00072646124, 10.000309, 9.9980345 
2.1951053e+3, 2.1422313e+2, -881678.9, -1050030.5, -85207.6, -0.036511578, 0.03932626, -846080.3, -5459.542, 0.000022642807, 10.000502, 9.9981985 
2.1951228e+3, 2.2422223e+2, -708253.7, -764581.25, -41468.695, -0.06594745, 0.06377489, -686289.06, 56340.96, 0.000000000011542125, 10.000319, 9.999603 
2.1951412e+3, 2.3422201e+2, -601657.5, -608485.2, 4906.518, -0.12669767, 0.007258765, -599094.0, 45534.32, 0.0, 10.000217, 10.000008 
2.1951587e+3, 2.4422191e+2, -575952.4, -640449.7, -24737.955, -0.20345518, 0.027455496, -567556.94, -20931.197, 0.0, 10.000077, 9.999216 
2.195176e+3, 2.5422147e+2, -329555.44, -443968.22, 17337.543, -0.2593617, 0.0067804926, -326985.9, 121640.52, 0.0, 10.001015, 9.999413 
2.195194e+3, 2.642204e+2, -349936.25, -674920.94, 8421.671, -0.24768059, 0.059458166, -349718.16, 918.8125, 0.0, 10.001343, 9.997022 
2.1952131e+3, 2.7421802e+2, -144750.42, -506384.63, 7911.3726, -0.10872434, 0.075126104, -144577.42, 108087.47, 0.0, 10.002065, 9.997118 
2.1952315e+3, 2.8421542e+2, 18458.22, -276743.28, -8582.261, -0.09350847, 0.047755864, 18707.518, 173398.19, 0.0, 10.001996, 9.998103 
2.1952486e+3, 2.942123e+2, 63341.652, -189207.22, 57152.395, -0.15611571, -0.15056257, 75673.24, 132389.45, 0.000000020729713, 10.0016, 9.998185 
2.1952678e+3, 3.0421144e+2, 12117.74, -293009.66, 106725.19, -0.19220975, -0.012703697, 45741.977, 45741.977, 0.0000055230016, 10.001334, 9.997295 
2.1952862e+3, 3.1420693e+2, 272854.72, 217355.69, -4977.5015, -0.2964434, -0.33551753, 273297.6, 273297.6, 0.000029811183, 10.001485, 10.000678 
2.2049838e+3, 1.4421025e+2, -1477768.0, -1229315.8, -65324.707, 0.11475187, -0.02726412, -1213187.1, 313554.6, 0.39437363, 9.998471, 10.00398 
2.204999e+3, 1.5420908e+2, -1686628.0, -1777057.6, -62279.63, -0.41490057, 0.07435932, -1654881.0, -226125.06, 0.24751917, 9.999125, 9.997921 
2.2050205e+3, 1.6420794e+2, -1214108.5, -1285011.8, -73789.21, 0.20554844, 0.023054816, -1167696.4, 163072.42, 0.13222682, 10.000837, 9.999903 
2.2050358e+3, 1.7420878e+2, -1230196.6, -1277568.0, -46068.03, 0.030687291, 0.10909412, -1202082.0, 30678.193, 0.059555795, 10.000144, 9.9995365 
2.2050515e+3, 1.8420869e+2, -1234040.0, -1248412.9, -13331.488, -0.18007782, 0.15654649, -1226081.4, -91321.24, 0.023171267, 9.999471, 9.999413 
2.2050701e+3, 1.9420812e+2, -1027533.7, -1057946.6, -39156.703, -0.14404352, 0.094172634, -1000734.44, 36030.047, 0.008108057, 10.00011, 9.99971 
2.2050884e+3, 2.0420712e+2, -977640.94, -1157704.9, -26825.506, -0.038671326, 0.0953383, -973729.5, -34955.24, 0.0021629941, 10.000501, 9.998176 
2.2051062e+3, 2.1420519e+2, -810325.7, -1008132.25, 13651.966, 0.01202902, 0.039710898, -809387.9, 31407.266, 0.00023583506, 10.000936, 9.998288 
2.2051238e+3, 2.2420394e+2, -647426.4, -781746.56, 79433.414, -0.0053090123, 0.045487933, -610566.56, 132241.47, 0.0000019906881, 10.000935, 9.999194 
2.2051413e+3, 2.342039e+2, -590127.1, -658954.75, 3.7608001, -0.12761332, 0.054034866, -590127.1, 54680.418, 0.0, 10.000523, 9.999531 
2.2051589e+3, 2.4420366e+2, -508718.72, -595135.06, -32944.125, -0.19235864, 0.08463267, -497592.2, 49215.0, 0.0, 10.000466, 9.999351 
2.205177e+3, 2.5420293e+2, -314662.8, -401459.97, -62743.49, -0.2390987, 0.014911872, -281771.28, 167037.45, 0.0, 10.001021, 9.999682 
2.2051959e+3, 2.6420167e+2, -303968.06, -622322.8, -41906.953, -0.19292077, 0.02202291, -298544.0, 52275.92, 0.0, 10.00151, 9.9973135 
2.2052155e+3, 2.7419928e+2, -128980.18, -481522.53, -2362.4756, -0.05869412, 0.014737645, -128964.34, 123883.81, 0.0, 10.0020485, 9.997318 
2.2052343e+3, 2.8419778e+2, 75994.93, -208838.66, 1858.2373, 0.0030346564, 0.06497024, 76007.05, 230870.8, 0.0, 10.002223, 9.998457 
2.2052512e+3, 2.9419613e+2, 192579.42, -84525.04, -45461.215, -0.07566526, -0.0040772664, 199847.08, 256722.84, 0.00000007580395, 10.002311, 9.998567 
2.2052693e+3, 3.041938e+2, 127998.44, -278484.22, 89709.71, -0.17170757, -0.03075726, 146916.67, 146916.67, 0.0000083740215, 10.002258, 9.996984 
2.2052898e+3, 3.1418976e+2, 345085.75, 255619.53, -112638.49, -0.07447066, -0.23169981, 421548.7, 421548.7, 0.000042885644, 10.001888, 10.000763 
2.2149824e+3, 1.4419338e+2, -1673945.6, -1516117.9, -97194.46, 0.007075193, 0.24233787, -1469835.3, 57069.883, 0.4221777, 9.99844, 10.000936 
2.2149992e+3, 1.5418793e+2, -1537697.4, -1461788.5, 75265.125, -0.35029757, -0.1768376, -1415449.5, 13512.271, 0.27423543, 9.999111, 10.000124 
2.2150205e+3, 1.6419153e+2, -1218869.6, -1338269.4, -95590.33, 0.051277462, 0.16190226, -1165868.3, 165059.7, 0.15564767, 10.001075, 9.999414 
2.215035e+3, 1.7418931e+2, -1276120.9, -1379810.0, -77253.7, -0.12753806, 0.0053319614, -1234927.9, -1978.7537, 0.07778218, 10.000175, 9.998803 
2.2150525e+3, 1.841882e+2, -1224132.6, -1242075.6, -19330.791, -0.09911841, -0.012410415, -1211792.9, -76833.414, 0.035576556, 9.999527, 9.999433 
2.2150718e+3, 1.9418879e+2, -1037112.1, -1044768.0, -5391.276, -0.007878925, 0.030114952, -1034328.0, 2625.22, 0.0154146915, 9.999976, 9.999859 
2.2150896e+3, 2.0418902e+2, -917157.2, -984062.8, -21331.896, -0.025916219, 0.08246254, -910934.56, 28014.791, 0.005714695, 10.000289, 9.999469 
2.215107e+3, 2.1418819e+2, -748131.5, -822906.44, 40927.1, -0.050971627, -0.00081673707, -730085.7, 110868.6, 0.0013616167, 10.000695, 9.999671 
2.2151238e+3, 2.2418717e+2, -823009.9, -1038904.3, 47772.758, -0.13577372, 0.02288261, -812911.2, -69945.95, 0.00013056793, 10.000476, 9.997649 
2.2151406e+3, 2.3418602e+2, -751992.7, -929912.2, -1004.8077, -0.28478488, 0.094024025, -751987.0, -107004.29, 0.0000045921656, 10.000243, 9.997803 
2.2151585e+3, 2.4418451e+2, -623463.0, -707119.44, -35956.88, -0.3311426, 0.11822118, -610132.4, -63134.008, 0.000000030624218, 9.999949, 9.998817 
2.2151788e+3, 2.5418225e+2, -390089.53, -477893.03, -26901.43, -0.20645481, -0.07240433, -382502.94, 66511.3, 0.0, 10.000696, 9.999302 
2.215198e+3, 2.6418066e+2, -311431.66, -511473.8, -42205.734, -0.16819797, -0.12112957, -302891.5, 48134.883, 0.0, 10.00099, 9.998315 
2.2152168e+3, 2.7418002e+2, -102321.85, -336294.66, 31352.53, -0.18488841, -0.07492672, -98193.44, 154840.6, 0.0, 10.001687, 9.998475 
2.2152358e+3, 2.841797e+2, -57753.07, -335558.53, -17560.838, -0.13349152, 0.057350047, -56647.402, 98391.04, 0.0, 10.001596, 9.997875 
2.2152546e+3, 2.9417786e+2, 94494.875, -186803.8, -14969.626, 0.005823296, 0.023180356, 95289.26, 152346.95, 0.00000027397763, 10.001897, 9.99805 
2.2152717e+3, 3.041762e+2, 58056.895, -248457.73, 56070.586, -0.21937603, 0.058201462, 67991.84, 67991.84, 0.000015050563, 10.001556, 9.997498 
2.2152902e+3, 3.1417534e+2, 60511.984, -35680.06, 52266.24, -0.27449992, 0.113462314, 83444.03, 83444.03, 0.00007034586, 10.00069, 9.999298 
2.2249834e+3, 1.441648e+2, -1995108.5, -2210378.8, -122327.586, 0.21792583, -0.16200039, -1939803.9, -412614.75, 0.45833316, 9.99859, 9.995798 
2.2250012e+3, 1.5416963e+2, -1287828.4, -1219176.5, -19477.766, -0.105374105, -0.0463828, -1214035.3, 215108.6, 0.30885017, 10.000453, 10.001738 
2.2250201e+3, 1.6417253e+2, -1496736.0, -1491349.5, -156763.06, 0.0027972017, 0.16289927, -1337256.6, -6141.614, 0.18666483, 9.999038, 9.999301 
2.225035e+3, 1.741704e+2, -1172779.9, -1275885.6, -98263.44, -0.15610106, -0.017562268, -1113367.0, 119766.87, 0.103338934, 10.00075, 9.999254 
2.2250535e+3, 1.8416952e+2, -1054893.0, -1177197.0, -1801.5641, -0.006440903, -0.036552783, -1054866.5, 80275.17, 0.054786276, 10.000783, 9.999282 
2.2250722e+3, 1.9416977e+2, -1075447.3, -1092134.0, -38676.527, 0.055876, -0.0025966337, -1044224.4, -7085.5654, 0.028543482, 9.999809, 9.999611 
2.2250897e+3, 2.0416981e+2, -1033845.7, -1019161.6, -52317.96, 0.020906065, 0.031987596, -973673.06, -34536.11, 0.013685946, 9.999387, 9.999668 
2.2251071e+3, 2.1416935e+2, -844388.56, -843395.3, -105224.53, -0.050223023, -0.03392328, -738666.25, 102472.016, 0.005262215, 9.999928, 9.999909 
2.2251245e+3, 2.241686e+2, -815660.06, -1034220.6, -68730.01, -0.10634817, 0.0020076167, -795843.5, -52697.277, 0.001420654, 10.000487, 9.997687 
2.2251417e+3, 2.3416744e+2, -620849.2, -862099.94, -13342.951, -0.21801332, 0.0673264, -620113.5, 25049.533, 0.0002619265, 10.001089, 9.997873 
2.2251599e+3, 2.4416578e+2, -477325.44, -684144.94, 49014.02, -0.23131001, 0.094190106, -466297.63, 80883.08, 0.000035642544, 10.00115, 9.998404 
2.22518e+3, 2.5416335e+2, -402412.1, -537296.9, 30018.605, -0.14907742, -0.06533598, -396033.13, 53167.28, 0.0000011567587, 10.000791, 9.998877 
2.225199e+3, 2.6416174e+2, -333623.8, -460751.56, 34481.74, -0.1154823, -0.11798013, -324873.4, 26339.787, 0.0, 10.000565, 9.998878 
2.225218e+3, 2.7416134e+2, -164823.06, -281441.13, 26510.717, -0.17317626, -0.10826792, -159079.3, 94136.11, 0.0, 10.000936, 9.999211 
2.225237e+3, 2.8416133e+2, -112626.75, -356412.44, 2726.6345, -0.113031656, 0.008420206, -112596.26, 42619.934, 0.0, 10.001167, 9.997963 
2.2252564e+3, 2.9415944e+2, 78446.734, -193503.9, 11734.176, 0.007405831, -0.010659246, 78952.1, 136190.06, 0.00000073017384, 10.0017805, 9.998065 
2.2252746e+3, 3.0415896e+2, 216881.28, -143682.17, 107312.3, -0.110963464, 0.105188824, 246402.88, 246402.88, 0.00002755439, 10.002498, 9.997792 
2.225292e+3, 3.1415606e+2, 374976.63, 99405.49, -53634.387, -0.2816065, 0.0008071982, 385047.44, 385047.44, 0.000118261974, 10.002839, 9.99925 
2.2350049e+3, 1.541548e+2, -1281828.5, -1146123.3, -141375.31, 0.1617939, 0.563617, -1057160.9, 372135.4, 0.35698506, 10.000187, 10.002739 
2.235018e+3, 1.641503e+2, -1495925.0, -1491352.3, -134963.61, -0.19827536, -0.03222277, -1358655.6, -27319.143, 0.23053116, 9.999038, 9.9993 
2.2350356e+3, 1.7415176e+2, -1093691.0, -1080841.9, -34703.125, -0.20681229, 0.017601434, -1051973.6, 181343.86, 0.14104874, 10.000646, 10.00078 
2.2350535e+3, 1.8415248e+2, -1084265.9, -1230809.9, -51350.48, -0.13630106, 0.071984336, -1068063.5, 67244.195, 0.08532412, 10.000761, 9.998926 
2.2350708e+3, 1.94151e+2, -1137041.1, -1194000.4, -68485.39, -0.09604793, -0.00067408785, -1091349.8, -54027.824, 0.05187056, 9.999698, 9.998968 
2.2350882e+3, 2.041497e+2, -1135171.9, -1171756.5, -53721.59, -0.12243724, -0.021748103, -1096713.8, -157378.42, 0.030293982, 9.999143, 9.998738 
2.2351064e+3, 2.1414861e+2, -941367.75, -985172.25, -75146.23, -0.1285158, -0.0645936, -884997.0, -43649.266, 0.015773455, 9.999671, 9.999057 
2.235125e+3, 2.2414808e+2, -784043.9, -843307.7, -58208.445, -0.13092549, -0.028529279, -748359.06, -5006.571, 0.0069356123, 9.999963, 9.999241 
2.2351442e+3, 2.3414809e+2, -532657.94, -615444.25, 25386.838, -0.10206724, -0.032636616, -525493.0, 119856.01, 0.002541045, 10.00082, 9.999688 
2.2351624e+3, 2.4414745e+2, -586992.56, -787522.1, 16576.277, -0.14145878, 0.022911146, -585631.56, -38277.336, 0.00075579167, 10.000634, 9.9979315 
2.2351801e+3, 2.5414622e+2, -485837.88, -629368.8, 29471.125, -0.222365, 0.02433881, -480022.22, -30653.78, 0.00014769337, 10.000452, 9.998398 
2.2351985e+3, 2.641448e+2, -439590.88, -532016.56, 16627.508, -0.2758183, 0.028665535, -436690.56, -85308.914, 0.000007045108, 9.999952, 9.998666 
2.235219e+3, 2.74143e+2, -218485.22, -309679.97, 53601.855, -0.20072012, -0.10066579, -193710.17, 59684.26, 0.00000000065814787, 10.000586, 9.99917 
2.2352378e+3, 2.8414205e+2, -181538.66, -337803.38, -13341.139, -0.20011757, -0.102788806, -180407.83, -25005.395, 0.0, 10.000522, 9.998376 
2.2352557e+3, 2.9414082e+2, 4906.373, -197216.25, 54410.875, -0.27123597, -0.11733333, 18622.813, 76041.03, 0.0000012574419, 10.001193, 9.998292 
2.2352768e+3, 3.041412e+2, 10909.825, -333318.75, 93756.61, -0.21609104, 0.12336065, 34789.49, 34789.49, 0.000044073433, 10.001527, 9.996935 
2.2352949e+3, 3.141355e+2, 210539.6, 100538.14, 62016.863, -0.33188593, -0.20231527, 238431.39, 238431.39, 0.00018419352, 10.001478, 9.999876 
2.2450037e+3, 1.541345e+2, -1338591.0, -1619405.0, -24581.23, -0.123862535, 0.14010376, -1336455.5, 93035.0, 0.42759266, 10.002241, 9.9972925 
2.2450188e+3, 1.6413087e+2, -1345689.5, -1421470.5, 42835.258, -0.059512716, -0.12671669, -1326391.4, 5133.062, 0.29616648, 10.000083, 9.99929 
2.2450364e+3, 1.7413335e+2, -1186364.0, -1151257.9, 944.53534, -0.12749922, 0.031034019, -1151232.5, 82265.67, 0.19952731, 10.000032, 10.000571 
2.2450542e+3, 1.8413413e+2, -1186701.6, -1282657.3, -79408.86, -0.09801408, 0.109860025, -1141902.1, -6413.1484, 0.13536815, 10.000028, 9.998908 
2.2450711e+3, 1.941324e+2, -907139.9, -1076422.4, -74795.31, -0.12490137, 0.0068760007, -878827.7, 158676.69, 0.09319166, 10.001356, 9.999 
2.2450884e+3, 2.0413122e+2, -810549.5, -1046485.56, 1839.1088, -0.11012187, 0.006599406, -810535.1, 128981.58, 0.06306426, 10.001536, 9.99847 
2.2451074e+3, 2.1413033e+2, -876336.44, -993187.6, -15638.204, -0.011028929, 0.024716135, -874279.8, -32750.896, 0.0400799, 10.000264, 9.9987335 
2.2451265e+3, 2.2412957e+2, -755724.3, -781929.25, 53499.39, 0.032774445, 0.040205743, -713746.3, 29789.434, 0.023131557, 9.999917, 9.999708 
2.2451454e+3, 2.3412916e+2, -512788.66, -540210.8, 8698.429, -0.029924478, -0.06336638, -510262.25, 135271.25, 0.011994159, 10.000669, 10.000301 
2.2451638e+3, 2.4412861e+2, -523253.72, -769869.4, -43680.285, -0.05925156, -0.024617987, -515745.7, 31791.162, 0.0054928027, 10.001052, 9.997888 
2.245182e+3, 2.5412822e+2, -420400.5, -604209.94, -28426.092, -0.10025284, 0.07034353, -416104.78, 33439.832, 0.002050329, 10.0009, 9.998373 
2.2452001e+3, 2.641269e+2, -359983.8, -529201.8, 19800.871, -0.11464007, 0.10772174, -357697.72, -6140.155, 0.0004876709, 10.000627, 9.998375 
2.2452202e+3, 2.7412426e+2, -159678.1, -303179.9, 28080.246, -0.12675813, -0.080144525, -154379.06, 99199.305, 0.000047167257, 10.001056, 9.999007 
2.245239e+3, 2.8412303e+2, -83497.19, -263799.6, -32715.633, -0.13950121, -0.1172321, -77744.52, 77844.336, 0.00000034188096, 10.001064, 9.9986315 
2.2452575e+3, 2.941222e+2, 154634.39, -116933.89, -24542.256, -0.22700147, -0.089647174, 156834.5, 214435.02, 0.0000013302117, 10.002138, 9.998416 
2.2452796e+3, 3.0412227e+2, 122975.27, -291134.34, 62043.66, -0.09504983, 0.09851151, 132071.13, 132071.13, 0.0000584347, 10.002282, 9.99687 
2.245298e+3, 3.1411734e+2, 232503.45, 242884.98, -72663.55, -0.12814605, -0.103681795, 310542.94, 310542.94, 0.00025945, 10.000951, 10.001112 
2.2550207e+3, 1.6411527e+2, -1491837.6, -1624348.9, 8827.611, 0.0070563224, -0.02224995, -1491252.1, -159583.38, 0.39765337, 9.9996395, 9.998084 
2.2550379e+3, 1.7411488e+2, -1316232.6, -1411970.6, -20351.629, -0.07200011, 0.013855138, -1312086.0, -78407.34, 0.29298013, 9.999967, 9.998656 
2.2550549e+3, 1.841142e+2, -1235512.8, -1314157.8, -91518.586, -0.13981128, 0.058288157, -1175226.5, -39538.926, 0.21888196, 9.999738, 9.998813 
2.255072e+3, 1.941135e+2, -923401.4, -1014485.4, -25114.701, -0.2001635, -0.0064401734, -916935.44, 120755.55, 0.16615056, 10.001029, 9.999574 
2.2550899e+3, 2.0411398e+2, -857131.5, -1039405.4, -46407.81, -0.19278547, 0.09546387, -845996.1, 93689.1, 0.12546477, 10.001133, 9.998694 
2.2551094e+3, 2.1411417e+2, -907273.8, -994421.7, -51061.71, 0.11337979, 0.19894671, -883721.06, -42035.777, 0.0914258, 10.000009, 9.998823 
2.2551279e+3, 2.2411293e+2, -899553.0, -958987.2, 63304.344, 0.13784173, 0.20465066, -859337.6, -115640.266, 0.062582165, 9.999395, 9.998739 
2.2551455e+3, 2.3411046e+2, -609078.3, -667945.25, 48586.848, -0.12683961, -0.032531444, -581705.0, 64013.18, 0.039919913, 10.000355, 9.999569 
2.2551636e+3, 2.4410914e+2, -632717.75, -800731.44, -74537.71, -0.22305927, -0.03646317, -604416.94, -56687.37, 0.023601582, 10.000239, 9.998049 
2.2551844e+3, 2.5410938e+2, -451452.63, -568708.56, -26320.357, 0.03180647, 0.06963832, -445815.53, 3913.0073, 0.012405956, 10.0005, 9.998789 
2.2552034e+3, 2.6410794e+2, -499667.7, -666101.6, -5712.7227, 0.100942716, 0.11106364, -499471.84, -147729.33, 0.005154125, 10.000005, 9.99772 
2.2552215e+3, 2.7410504e+2, -261449.4, -380062.88, 53291.35, -0.14559726, -0.08251743, -241023.73, 12744.558, 0.0013586987, 10.000512, 9.998723 
2.2552395e+3, 2.8410408e+2, -252511.16, -396485.4, -50591.375, -0.23936406, -0.055327557, -236511.73, -80734.336, 0.00015517221, 10.000173, 9.998128 
2.2552615e+3, 2.9410392e+2, 55354.637, -171904.06, 42523.9, -0.08254093, 0.07544686, 63050.926, 120832.77, 0.0000026982873, 10.001566, 9.998272 
2.2552823e+3, 3.0410254e+2, 17074.14, -312152.7, -14947.693, -0.15084879, 0.08865986, 17751.41, 17751.41, 0.000065484004, 10.001496, 9.997076 
2.2552979e+3, 3.1409794e+2, 139627.11, 326115.22, 89756.96, -0.32862332, -0.077551775, 362295.94, 362295.94, 0.00034262822, 9.999866, 10.002179 
2.2650345e+3, 1.7409298e+2, -1335242.8, -1286548.3, -183214.8, -0.34292856, 0.13215514, -1126070.0, 107831.61, 0.44342524, 9.998581, 10.000709 
2.2650555e+3, 1.8409686e+2, -726448.8, -1015424.4, -66474.01, -0.33371416, 0.21744382, -711891.0, 423973.03, 0.3585124, 10.004529, 9.999069 
2.2650732e+3, 1.9409528e+2, -1083872.9, -1055825.3, -130496.03, -0.1043368, 0.078015395, -938601.7, 99268.484, 0.29413474, 9.99964, 10.000028 
2.2650911e+3, 2.0409405e+2, -1232701.8, -1183563.8, -53945.04, -0.017641189, -0.04559183, -1148856.3, -208978.5, 0.24160613, 9.998123, 9.999225 
2.2651072e+3, 2.1409358e+2, -772325.6, -893563.75, -58645.934, -0.1252866, -0.03392123, -748600.06, 93284.91, 0.1940874, 10.000851, 9.9991865 
2.2651255e+3, 2.2409275e+2, -541381.56, -830686.5, 67319.53, -0.18422875, 0.012637067, -526483.9, 217410.44, 0.14888066, 10.002298, 9.998261 
2.2651453e+3, 2.3409183e+2, -553650.75, -725114.9, 20093.357, -0.22595704, 0.026109958, -551327.5, 94575.195, 0.108788945, 10.001189, 9.998779 
2.2651646e+3, 2.4409042e+2, -527949.56, -762820.4, -59804.84, -0.17700607, 0.06680918, -513598.4, 34317.293, 0.07581198, 10.0009365, 9.998003 
2.2651851e+3, 2.5408903e+2, -224645.34, -476323.94, -77229.44, -0.0056008263, 0.017168319, -202836.7, 247091.48, 0.048806984, 10.002093, 9.998739 
2.2652031e+3, 2.640869e+2, -193270.39, -577026.5, -82447.336, -0.008883439, 0.033016697, -176307.0, 175640.86, 0.026684597, 10.002293, 9.997278 
2.2652212e+3, 2.7408466e+2, -146425.2, -367432.2, -72559.46, -0.23565325, -0.057395153, -124732.266, 129237.21, 0.010897145, 10.001394, 9.998439 
2.2652395e+3, 2.8408375e+2, -342619.5, -417200.84, -103102.375, -0.20854363, -0.01942438, -270271.25, -114292.45, 0.002788968, 9.9994, 9.998394 
2.265264e+3, 2.9408363e+2, 102721.8, -108930.98, 70969.266, 0.015950436, 0.10281705, 124315.42, 182296.22, 0.0003034348, 10.0017395, 9.998634 
2.2652851e+3, 3.040812e+2, 273590.6, -254853.92, -29935.988, -0.079363234, -0.023960872, 275281.03, 275281.03, 0.000074942734, 10.003581, 9.9964905 
2.2653015e+3, 3.140762e+2, 570271.56, 254912.6, -105644.97, -0.14421701, 0.027252581, 602391.1, 602391.1, 0.00045627946, 10.003853, 9.999901 
2.2750911e+3, 2.0407428e+2, -1091679.8, -1264037.8, 167579.64, 0.08976601, -0.07750189, -989418.5, -49351.48, 0.4526298, 9.99978, 9.997799 
2.2751069e+3, 2.1407382e+2, -730927.7, -813724.44, -46404.76, -0.28527138, -0.12514608, -710139.0, 131936.88, 0.38963944, 10.001336, 9.999487 
2.2751316e+3, 2.2407493e+2, -912913.7, -1127581.1, -306997.53, 0.13499677, 0.08235056, -695027.44, 49041.207, 0.32267725, 10.000081, 9.997275 
2.2751494e+3, 2.340739e+2, -965397.06, -1021995.3, -118968.24, 0.046705257, 0.14586496, -871408.44, -225327.61, 0.25840095, 9.998739, 9.997839 
2.2751662e+3, 2.4407081e+2, -876730.0, -1105916.0, -11260.954, -0.21279201, 0.14281416, -876178.0, -328066.94, 0.20062341, 9.99931, 9.996394 
2.2751845e+3, 2.5406682e+2, -402428.56, -619825.25, -14232.25, -0.33201182, -0.15716395, -401500.78, 48645.85, 0.14660953, 10.001152, 9.998141 
2.2751999e+3, 2.6406443e+2, -561787.0, -925178.1, -156426.95, -0.64097357, -0.065555625, -503727.1, -151558.72, 0.09444842, 10.000504, 9.995704 
2.2752202e+3, 2.7406412e+2, -268397.8, -466081.47, -114857.88, -0.5361905, 0.048245333, -215707.33, 38465.41, 0.04983968, 10.000773, 9.99801 
2.2752383e+3, 2.8406277e+2, -529137.94, -484391.34, -187623.33, -0.32187155, 0.057252396, -317812.06, -161626.53, 0.019500945, 9.998089, 9.9985285 
2.275264e+3, 2.9406145e+2, 2750.252, -91416.93, 170500.77, -0.19075605, -0.052689973, 132549.05, 190745.25, 0.004786881, 10.000842, 9.999146 
2.2752869e+3, 3.0405816e+2, -100280.016, -676015.94, -84457.516, -0.32759717, -0.23494445, -88146.25, -88146.25, 0.0007184054, 10.002171, 9.994222 
2.2753061e+3, 3.140537e+2, -154396.94, -728080.3, 46844.508, -0.12918898, 0.11937122, -150596.98, -150596.98, 0.0007782504, 10.001845, 9.994002 
2.2851674e+3, 2.4404715e+2, -122999.555, 1247.2861, 312310.2, -0.2920732, -0.21167324, 257552.77, 805889.56, 0.45869297, 10.001396, 10.006841 
2.285196e+3, 2.540453e+2, -438287.22, -915270.75, -354900.25, 0.6358088, 0.13021682, -249189.81, 201168.05, 0.36361384, 10.002618, 9.995748 
2.2852147e+3, 2.6403993e+2, -82652.04, -438997.66, -294396.34, 0.5576856, -0.08526847, 83289.62, 435702.1, 0.26167566, 10.003289, 9.9980545 
2.2852305e+3, 2.7404028e+2, 210331.63, -135900.73, -207271.69, 0.29238927, 0.011352912, 307272.4, 561680.25, 0.1640845, 10.004161, 9.9989395 
2.2852397e+3, 2.8403813e+2, -307416.25, -461250.5, -330458.1, -0.04611285, -0.01187777, -45041.766, 111385.45, 0.0825175, 9.999828, 9.997959 
2.2852656e+3, 2.9403698e+2, 291149.53, 79983.23, 159071.61, -0.1698503, -0.09858873, 376489.38, 434925.38, 0.030766664, 10.0025215, 9.99966 
2.285293e+3, 3.0403766e+2, 561010.44, 158292.61, -66182.766, -0.016081562, -0.11933006, 571608.06, 571608.06, 0.009050835, 10.004294, 9.9990425 
2.2853066e+3, 3.1403628e+2, -151102.7, -73581.12, 104873.73, -0.14104436, 0.11722398, -534.49554, -534.49554, 0.0039691683, 9.998991, 9.999863 
2.2952248e+3, 2.7402174e+2, -373335.22, -358414.28, 879028.9, -0.7386424, 0.59230155, 513185.8, 767776.25, 0.4346626, 10.000789, 10.000652 
2.2952415e+3, 2.840092e+2, -1732181.1, -1887204.4, -538479.06, 0.014167181, -0.34851384, -1265663.5, -1108953.8, 0.25425494, 9.993321, 9.991182 
2.295269e+3, 2.940144e+2, 68227.555, -25140.174, 379671.25, -0.19513305, -0.018649975, 404074.25, 462733.56, 0.12198448, 10.001276, 9.999525 
2.2953025e+3, 3.0402362e+2, -208197.11, 152515.66, -215618.58, 0.33853108, 0.6946199, 253263.88, 253263.88, 0.054474823, 9.997593, 10.002139 
2.2953054e+3, 3.1402236e+2, 221738.9, 1568340.1, -335758.94, -0.37476403, -0.5195249, 1647414.4, 1647414.4, 0.03234745, 9.995484, 10.012953 
2.3052773e+3, 2.9399133e+2, -72433.54, 999603.3, -494423.25, 0.3637199, -0.13082904, 1192810.6, 1251703.8, 0.36499813, 9.992935, 10.015341 
2.3052955e+3, 3.040037e+2, 62190.582, -310318.6, 128795.64, -1.1025338, -0.20571932, 102384.86, 102384.86, 0.22040714, 10.001599, 9.9971895 
2.3053162e+3, 3.1400153e+2, 190625.98, -1375598.9, -22091.912, 0.2948256, 0.25661787, 190937.53, 190937.53, 0.1742969, 10.006945, 9.988051 
2.3454365e+3, 2.8757074e+2, -529035.94, -754248.94, -884120.0, -0.16668087, 1.042608, 249619.83, 371459.0, 0.4792424, 9.999983, 9.995753 
2.3591113e+3, 1.7795306e+2, -815065.8, -388153.4, 424989.94, -0.16131036, -0.49411947, -126025.77, 1070023.5, 0.43663895, 9.998847, 10.00974 
2.3587736e+3, 1.8795203e+2, -927449.4, -1435455.5, -22384.527, -0.45098513, -0.056663554, -926464.94, 171590.03, 0.37774786, 10.003504, 9.995214 
2.35844e+3, 1.979398e+2, -678223.44, -1271538.0, 250360.9, 0.280778, -0.4747561, -586697.6, 413477.44, 0.33363855, 10.004833, 9.995334 
2.3580982e+3, 2.079256e+2, -531938.7, -555195.8, 37856.977, -0.62147045, -1.2329775, -503964.53, 398352.0, 0.3010985, 10.002181, 10.001521 
2.3577729e+3, 2.1793291e+2, -1627147.4, -1252126.5, -156858.89, 0.1928932, -0.27020177, -1195168.4, -390920.5, 0.27833992, 9.993476, 9.999643 
2.357437e+3, 2.2793488e+2, -698185.06, -959835.3, -103154.33, -0.09196076, 0.58092993, -662408.8, 43828.72, 0.2613125, 10.000413, 9.9975395 
2.3571001e+3, 2.3792067e+2, -1130082.3, -923310.9, 201213.25, -0.5733043, -0.27790093, -800476.8, -192088.86, 0.24582523, 9.9954605, 9.999704 
2.3567803e+3, 2.4792142e+2, -139498.75, 269203.3, 244329.6, 0.6134838, -0.07168359, 383374.34, 893747.25, 0.23021871, 9.999181, 10.0068 
2.3564504e+3, 2.579231e+2, -365914.66, -203608.14, -96202.67, 0.69430524, -0.060240623, -158901.13, 253441.02, 0.21018556, 9.998188, 10.002357 
2.356107e+3, 2.679181e+2, 390166.9, -76937.2, -115662.27, 0.09514574, -0.058749426, 417237.8, 731636.0, 0.17676406, 10.005415, 9.998997 
2.3557757e+3, 2.7790737e+2, -246886.23, -1153832.5, 380553.2, -0.25062725, -0.2642627, -108363.93, 108154.36, 0.13598177, 10.003051, 9.991743 
2.3554409e+3, 2.8790286e+2, 1087668.5, 752629.1, 242023.7, -0.17735554, 0.038425136, 1214492.8, 1333050.8, 0.12726559, 10.007358, 10.0029335 
2.3551154e+3, 2.97908e+2, -233204.78, 101871.68, 1050512.4, -0.12396673, 0.25002897, 998121.7, 1018619.6, 0.18638092, 9.997441, 10.0031185 
2.3547913e+3, 3.078908e+2, -567172.8, -673460.44, -707892.75, 0.5298663, -0.5888476, 89568.18, 89568.18, 0.3108426, 9.9987335, 9.996375 
2.3697524e+3, 1.5829974e+2, -1189358.0, -738292.7, -101727.78, -0.7528358, -0.39383256, -716411.7, 672248.25, 0.4091861, 9.997254, 10.008357 
2.3694463e+3, 1.6830562e+2, -1279301.6, -1585641.5, 118610.04, 1.614437, 0.65961444, -1238746.5, 51847.98, 0.319146, 10.001056, 9.996848 
2.3691083e+3, 1.7829192e+2, -1843453.9, -1912192.0, 1889.2751, 0.30668145, 0.020995626, -1843402.0, -650674.5, 0.25440267, 9.996513, 9.996306 
2.3687734e+3, 1.8828653e+2, -1237348.0, -1026426.0, -176781.44, 0.21040887, 0.14674653, -926038.25, 168740.06, 0.20803185, 9.997938, 10.0011 
2.3684402e+3, 1.9828784e+2, -845560.25, -985948.5, -90641.24, 0.66332936, 0.68360895, -801111.25, 195652.89, 0.17323136, 10.000831, 9.99928 
2.3681028e+3, 2.0828092e+2, -676635.94, -856376.7, 60755.676, 0.31845507, 0.64992416, -658026.2, 240808.98, 0.14628568, 10.001587, 9.998999 
2.3677666e+3, 2.1827127e+2, -529753.1, -758546.2, 40840.67, 0.2075984, 0.28133425, -522681.47, 278252.53, 0.12553912, 10.001797, 9.999013 
2.3674336e+3, 2.2826526e+2, -322880.88, -320797.63, 108025.37, 0.22730634, 0.16276929, -213808.86, 489186.72, 0.108313076, 10.001334, 10.0017395 
2.3670976e+3, 2.3825794e+2, -493502.47, -506882.3, 67203.58, -0.009353235, -0.18732552, -432656.66, 172412.66, 0.092006706, 9.999846, 10.000359 
2.3667634e+3, 2.4825643e+2, -318419.2, -32084.99, 11458.178, -0.22013855, -0.0050308662, -31627.203, 475456.1, 0.07587349, 9.999072, 10.003447 
2.3664355e+3, 2.5825545e+2, -651112.56, -675416.56, -51534.69, -0.078086466, 0.23237704, -610316.5, -201225.69, 0.059167173, 9.998354, 9.998455 
2.3661008e+3, 2.6825115e+2, -68471.555, 46483.723, -132626.45, -0.2708502, 0.29568458, 133551.77, 444689.13, 0.040480375, 10.00021, 10.001825 
2.3657702e+3, 2.782446e+2, -283801.84, -413757.75, 190940.22, -0.5177378, 0.04279619, -147086.2, 66120.78, 0.022793092, 9.999935, 9.9980135 
2.36544e+3, 2.8823692e+2, 167303.7, 452415.78, -159669.33, -0.10311227, -0.36161092, 523907.7, 639180.75, 0.01805213, 9.999983, 10.003186 
2.365113e+3, 2.982329e+2, -685143.44, -213819.56, 82837.46, 0.44973853, -0.96568954, -199684.4, -182384.61, 0.038635835, 9.994815, 10.000853 
2.3647788e+3, 3.0824572e+2, -105754.03, -383418.53, -277136.53, -0.0066708615, 1.0795138, 65379.918, 65379.918, 0.08557521, 10.001193, 9.99642 
2.3800851e+3, 1.486326e+2, -2431009.0, -1808644.6, 239125.28, -0.05641146, -0.23091412, -1727379.0, -243976.5, 0.3896837, 9.992602, 10.000593 
2.3797534e+3, 1.5862909e+2, -1682438.1, -1706762.1, -112490.914, -0.12745152, -0.28136313, -1581453.6, -196026.88, 0.27836242, 9.998258, 9.998128 
2.3794262e+3, 1.6862322e+2, -1448205.1, -1335940.5, 69911.74, 0.026454354, -0.23958553, -1302415.1, -14930.333, 0.19862524, 9.998492, 9.999712 
2.3790976e+3, 1.7861865e+2, -1813900.1, -1596078.4, -11188.0205, -0.058203593, -0.27378166, -1595505.3, -405972.56, 0.1461588, 9.995692, 9.998786 
2.3787625e+3, 1.886149e+2, -1281502.1, -914624.3, -96747.14, -0.26677543, -0.21058173, -890675.06, 200889.75, 0.11113541, 9.997173, 10.002095 
2.3784275e+3, 1.9861002e+2, -1172619.4, -1051342.8, -95763.82, -0.28215668, -0.44077587, -998633.3, -5026.637, 0.08556882, 9.998099, 10.000055 
2.3780954e+3, 2.0860614e+2, -921541.6, -868950.3, 5618.31, -0.10050087, -0.30269718, -868356.8, 27288.135, 0.065839775, 9.999291, 9.999914 
2.3777607e+3, 2.1860132e+2, -1024685.3, -1056812.5, 16214.053, -0.17799644, -0.28662273, -1017924.94, -220230.8, 0.050802168, 9.998519, 9.998458 
2.3774275e+3, 2.2859776e+2, -713718.0, -546142.56, 3610.5935, -0.07254092, -0.1321801, -546064.8, 153664.23, 0.03888462, 9.998789, 10.001069 
2.3770975e+3, 2.3859389e+2, -1067100.5, -1043352.6, -24980.229, 0.30534878, -0.05764755, -1027567.9, -425800.56, 0.028499532, 9.997195, 9.997856 
2.376763e+3, 2.4858677e+2, -737532.1, -681744.9, -59153.652, 0.18894653, -0.10253034, -644238.1, -140394.78, 0.019239584, 9.998341, 9.998973 
2.3764306e+3, 2.5857797e+2, -945103.8, -958557.06, -57518.82, -0.04402566, -0.3075755, -893919.6, -487982.78, 0.01143259, 9.997153, 9.997042 
2.376099e+3, 2.6857635e+2, -99694.516, 167931.94, -175863.6, -0.03714994, -0.055026256, 255102.83, 563056.8, 0.005417436, 9.999603, 10.00279 
2.3757695e+3, 2.7857506e+2, -355986.6, -255236.02, -6811.3037, -0.14996256, 0.035867915, -254777.63, -44811.61, 0.0017240121, 9.998662, 9.999729 
2.3754355e+3, 2.8856993e+2, 78703.7, 221139.33, -306033.3, -0.11784335, -0.015027293, 464132.22, 576144.4, 0.0009965353, 10.000169, 10.001495 
2.3751079e+3, 2.9856986e+2, -408171.13, -192245.52, -2204.232, 0.2925907, 0.027728956, -192223.02, -178214.95, 0.0037784507, 9.997124, 9.999972 
2.3747835e+3, 3.0856255e+2, 853383.8, 492013.47, 199749.38, -0.074705325, 0.057322264, 942044.0, 942044.0, 0.011109938, 10.005891, 10.000344 
2.390415e+3, 1.3897112e+2, -1516825.8, -1135903.4, 58410.19, 0.26937073, 0.48617265, -1127148.0, 450946.75, 0.42782918, 9.997195, 10.005848 
2.3900859e+3, 1.489698e+2, -1284241.0, -1264060.0, -91079.586, 0.55897343, 0.57282835, -1182513.6, 297585.75, 0.29985446, 10.000742, 10.001204 
2.3897497e+3, 1.5896049e+2, -1278658.8, -1393896.4, -51924.97, -0.05412147, 0.03028768, -1258713.9, 123473.695, 0.19614406, 10.000466, 9.999363 
2.3894201e+3, 1.6895545e+2, -1187820.0, -1105882.5, 11724.033, -0.047812596, 0.0010510487, -1104238.0, 179999.1, 0.12585048, 9.999599, 10.001069 
2.3890918e+3, 1.7895153e+2, -1328964.9, -1213988.8, -30846.621, 0.09144738, -0.014984273, -1206235.8, -19959.639, 0.083471425, 9.998226, 10.000245 
2.388757e+3, 1.8894596e+2, -1101674.5, -868277.4, -143112.9, -0.07273921, -0.16496384, -800314.5, 288012.38, 0.057587944, 9.998547, 10.001735 
2.3884211e+3, 1.9893964e+2, -1017139.6, -939006.5, -188684.8, -0.27580255, -0.46084318, -785386.4, 204997.61, 0.03970386, 9.998822, 10.000558 
2.388088e+3, 2.0893666e+2, -874085.25, -715435.8, -157821.75, -0.23381327, -0.35101107, -618125.0, 274285.38, 0.026570952, 9.998897, 10.001247 
2.387755e+3, 2.1893394e+2, -882266.5, -880192.44, -118542.27, -0.13311815, -0.20976941, -762682.7, 31752.805, 0.017417854, 9.998952, 9.999477 
2.3874238e+3, 2.2892967e+2, -637391.9, -627253.5, -150192.28, 0.13329132, -0.09068329, -482044.88, 214433.67, 0.011141793, 9.999872, 9.999971 
2.3870938e+3, 2.3892419e+2, -514686.56, -772341.3, -142025.05, 0.47593313, -0.053934522, -451765.13, 146769.16, 0.0065593217, 10.0009775, 9.997859 
2.386759e+3, 2.4891703e+2, -218148.11, -442733.84, -27373.816, 0.25981697, -0.11548918, -214859.78, 285750.38, 0.0032030866, 10.001869, 9.9989395 
2.3864257e+3, 2.589091e+2, -290831.53, -577534.8, 151809.1, -0.029156933, -0.22384956, -225387.36, 177306.63, 0.0011282732, 10.001309, 9.99763 
2.3860948e+3, 2.689063e+2, -110420.17, 3340.561, -4822.991, 0.046558477, -0.00038967657, 3544.67, 308266.47, 0.00023273825, 10.000146, 10.001405 
2.3857659e+3, 2.7890363e+2, -472978.94, -277470.38, -8785.527, 0.14605057, 0.07544926, -277076.38, -70330.664, 0.000018977813, 9.9975815, 10.000096 
2.3854317e+3, 2.8889802e+2, 147431.45, 171778.36, -180965.47, -0.040983118, -0.019615697, 340979.38, 449776.44, 0.000039610317, 10.000955, 10.000742 
2.3851036e+3, 2.9889783e+2, 226294.8, -153091.11, 71711.26, 0.40096813, 0.26916462, 239397.11, 250192.81, 0.00031053094, 10.002577, 9.997562 
2.3847839e+3, 3.088835e+2, -187353.72, 94997.85, -156861.4, 0.301062, -0.3540765, 164857.84, 164857.84, 0.0010092406, 9.998423, 10.000937 
2.4007402e+3, 1.2929615e+2, -2324860.3, -1878633.0, 385129.8, 0.2199341, -0.2053999, -1656657.1, 16238.3545, 0.4904386, 9.995198, 9.999891 
2.4004036e+3, 1.3929269e+2, -2012048.3, -1889622.4, -20420.602, -0.30364722, -0.29186064, -1886306.1, -311369.47, 0.36336115, 9.9971695, 9.998594 
2.4000748e+3, 1.4929238e+2, -1453763.0, -1223324.5, 37707.88, -0.0824067, 0.046422027, -1217311.1, 259631.0, 0.24041095, 9.99875, 10.002149 
2.3997459e+3, 1.5929185e+2, -1590549.0, -1429774.6, 29335.756, 0.07115858, 0.23870382, -1424589.1, -45640.707, 0.14389461, 9.997919, 10.000174 
2.3994166e+3, 1.6928945e+2, -1297135.6, -1035381.2, 68121.63, 0.16136874, 0.36775666, -1018713.8, 262256.7, 0.08188297, 9.998447, 10.002014 
2.3990867e+3, 1.7928521e+2, -1522589.0, -1370815.5, -13298.25, 0.2702476, 0.26593015, -1369659.1, -186649.05, 0.047678713, 9.997287, 9.999635 
2.3987524e+3, 1.892791e+2, -1315582.5, -1073201.3, -69845.57, 0.14954801, 0.14267989, -1054514.9, 30553.607, 0.028905774, 9.997693, 10.000586 
2.398417e+3, 1.9927324e+2, -1401345.4, -1218565.6, -129801.03, -0.04160852, -0.013095513, -1151209.1, -164085.33, 0.017015342, 9.996813, 9.99953 
2.3980832e+3, 2.092702e+2, -925188.75, -593365.6, -124015.69, -0.045225598, 0.036460254, -552138.25, 337010.06, 0.00915297, 9.998131, 10.002369 
2.3977509e+3, 2.1926688e+2, -1097940.8, -1041984.5, -117450.89, 0.109207965, 0.03214641, -949225.4, -158049.27, 0.0045936005, 9.997924, 9.998847 
2.3974194e+3, 2.2926015e+2, -817412.2, -868986.6, -109171.97, 0.259705, 0.0021962621, -731023.25, -37776.84, 0.0022051786, 9.999423, 9.998476 
2.3970877e+3, 2.3925208e+2, -790134.5, -918686.8, -105460.26, 0.3013456, -0.12896335, -730906.44, -135575.28, 0.0009056362, 9.999262, 9.997679 
2.3967539e+3, 2.4924935e+2, -180823.52, -89020.17, -38584.84, 0.11256585, 0.03946827, -74957.24, 422401.47, 0.00023937336, 10.000914, 10.001712 
2.3964216e+3, 2.592465e+2, -510532.8, -660815.9, 61837.7, -0.1021017, 0.16815789, -488359.63, -88972.43, 0.000025130046, 9.9998, 9.997793 
2.3960891e+3, 2.692403e+2, -266942.56, -335588.63, -82295.625, -0.03149089, 0.22550057, -212099.23, 89348.97, 0.00000030344088, 10.000299, 9.998974 
2.395758e+3, 2.792337e+2, -596884.0, -473879.44, -27240.723, 0.0073809465, 0.069930494, -468116.66, -264604.5, 0.0000000068303647, 9.997377, 9.998875 
2.3954275e+3, 2.8922474e+2, 126188.59, 149775.98, 15556.541, -0.082375206, -0.33211377, 157504.0, 263096.4, 0.0000039429096, 10.000964, 10.000556 
2.3951001e+3, 2.9921937e+2, -78997.6, -643009.3, 129531.43, -0.12174756, -0.37517336, -50671.875, -43033.473, 0.00006190627, 10.001995, 9.994471 
2.3947798e+3, 3.0921397e+2, -219558.75, -198955.03, 13761.83, 0.112669334, 0.13536438, -192066.3, -192066.3, 0.0002690841, 9.999119, 9.99863 
2.4107327e+3, 1.2963395e+2, -1638206.0, -1573863.4, -42312.586, -0.067135036, 0.17605487, -1552880.8, 116704.61, 0.44510007, 9.999316, 10.00092 
2.4103999e+3, 1.3962713e+2, -1745712.1, -1662409.0, 50695.426, -0.04943518, -0.15879162, -1638449.0, -66793.21, 0.31930807, 9.998183, 9.999902 
2.4100703e+3, 1.4962472e+2, -1442403.6, -1172867.8, 111629.29, 0.07474951, -0.08455692, -1132640.0, 341036.94, 0.20041417, 9.998485, 10.002692 
2.4097402e+3, 1.5962209e+2, -1474597.4, -1314868.8, 148997.95, 0.10906772, -0.10032209, -1225680.6, 150019.16, 0.110025235, 9.998302, 10.000916 
2.4094097e+3, 1.6961925e+2, -1247078.0, -1051708.9, 135247.58, 0.10297102, 0.006671964, -982557.7, 295171.06, 0.054970514, 9.998921, 10.001681 
2.4090783e+3, 1.7961578e+2, -1262990.8, -1203525.8, 28520.355, 0.0803022, 0.04516533, -1192058.4, -12294.193, 0.027314784, 9.998733, 10.000118 
2.4087447e+3, 1.8961138e+2, -1217397.0, -1048682.6, -15734.819, 0.104690224, 0.083731495, -1047227.75, 34580.37, 0.013986388, 9.998301, 10.000541 
2.4084109e+3, 1.9960636e+2, -1256905.4, -1147153.1, 27500.916, 0.08723957, 0.06947441, -1140647.8, -156790.56, 0.006556314, 9.997646, 9.99966 
2.4080786e+3, 2.0960142e+2, -739163.4, -632050.25, 3005.8462, 0.11274646, 0.018617997, -631966.0, 253936.0, 0.002469395, 9.999915, 10.001271 
2.407747e+3, 2.1959622e+2, -440075.78, -732485.56, -63519.473, 0.14954874, -0.042133287, -426873.66, 361075.72, 0.00078321603, 10.002278, 9.998924 
2.4074143e+3, 2.2958991e+2, -434904.34, -682732.75, -72113.33, 0.17309737, -0.049653634, -415448.2, 274568.0, 0.00023610769, 10.001795, 9.998711 
2.4070817e+3, 2.3958306e+2, -529258.7, -716498.2, 21003.12, 0.17984937, -0.06821199, -526931.7, 65157.664, 0.000047296035, 10.0005045, 9.998517 
2.4067493e+3, 2.4958032e+2, -301738.84, -155631.83, -22272.404, 0.108370915, 0.09359117, -152312.08, 341805.03, 0.0000020598873, 10.000071, 10.001689 
2.406418e+3, 2.5957763e+2, -487159.22, -560011.44, -29664.26, 0.042103637, 0.23544051, -476608.44, -80465.07, 0.0, 9.999503, 9.9986315 
2.4060857e+3, 2.6957044e+2, -119691.28, -340751.6, -89705.03, 0.028688729, 0.20761742, -87870.086, 210344.31, 0.0, 10.001607, 9.998335 
2.4057539e+3, 2.7956277e+2, 178163.13, -140723.86, 2972.2893, 0.04141566, 0.04716729, 178190.83, 378480.13, 0.0, 10.002752, 9.998587 
2.4054253e+3, 2.895544e+2, 435402.2, 227688.4, 27367.717, -0.00485129, -0.26287225, 438947.56, 541312.3, 0.00000028208012, 10.003299, 10.000002 
2.4050994e+3, 2.99549e+2, -190916.72, -686830.3, 135773.63, 0.102552935, -0.21960847, -156177.47, -151765.69, 0.000017512673, 10.001089, 9.994624 
2.4047767e+3, 3.0954224e+2, -266151.72, -229964.94, -64145.027, 0.33591318, 0.16123144, -181410.33, -181410.33, 0.0001005609, 9.998876, 9.998563 
2.4207282e+3, 1.2996233e+2, -1832599.6, -1508909.4, -6599.055, 0.12641005, -0.047838774, -1508774.9, 157596.97, 0.41411307, 9.997017, 10.002571 
2.4203973e+3, 1.399627e+2, -1857644.9, -1697989.8, -53754.54, 0.3678771, 0.103573, -1681578.1, -113212.67, 0.28877336, 9.997448, 9.99996 
2.4200659e+3, 1.4995831e+2, -1551559.0, -1154431.3, 76191.09, 0.3471775, -0.0953291, -1140315.4, 330083.9, 0.17287979, 9.997432, 10.0032625 
2.4197344e+3, 1.5995266e+2, -1835255.6, -1599706.0, 81660.09, 0.22420904, -0.44282418, -1574165.5, -201718.92, 0.08747846, 9.996337, 9.999859 
2.4194023e+3, 1.6994898e+2, -1397379.5, -1174784.5, 107615.586, 0.04237578, -0.37136483, -1131265.3, 143221.31, 0.038149297, 9.998243, 10.001003 
2.4190703e+3, 1.7994602e+2, -1398833.6, -1352655.1, -23050.803, -0.07872121, -0.24261141, -1343118.4, -166597.73, 0.01570925, 9.998318, 9.999223 
2.4187373e+3, 1.8994315e+2, -1096563.6, -958440.44, -88217.79, 0.056343842, -0.073846675, -915466.9, 163084.08, 0.0064830934, 9.99909, 10.000703 
2.4184048e+3, 1.9993909e+2, -1351749.8, -1364003.3, -10423.338, 0.23775211, 0.0034427051, -1345785.9, -365194.03, 0.0021827125, 9.99786, 9.998037 
2.418074e+3, 2.0993151e+2, -911462.4, -946179.9, 65592.7, 0.17569993, -0.13995191, -860970.4, 21694.566, 0.00044835047, 9.999785, 9.999126 
2.4177432e+3, 2.1992399e+2, -870822.6, -1068874.6, -63192.746, 0.06859441, -0.2800908, -852377.44, -67639.8, 0.000068581576, 10.000037, 9.997657 
2.417409e+3, 2.2992027e+2, -541271.6, -574486.1, -139981.69, 0.0065281726, -0.09743581, -416915.5, 269862.38, 0.0000096515805, 10.000643, 9.999883 
2.4170755e+3, 2.3991631e+2, -854508.3, -940196.9, -54406.207, 0.015161392, 0.06505402, -828101.9, -239280.4, 0.00000040342232, 9.998763, 9.997775 
2.416744e+3, 2.4991135e+2, -482933.94, -417264.5, -56144.707, 0.099514455, 0.11685784, -385058.13, 105815.33, 0.0, 9.999692, 10.000014 
2.4164136e+3, 2.5990596e+2, -731979.3, -789117.0, -47764.31, 0.12426771, 0.10709598, -704892.0, -311963.28, 0.0, 9.998411, 9.997594 
2.4160823e+3, 2.6989907e+2, -178060.8, -302892.7, -12842.993, 0.06395275, 0.06774516, -176753.19, 118243.45, 0.0, 10.001063, 9.998781 
2.4157517e+3, 2.7989203e+2, -139755.84, -486306.8, 35450.813, -0.065418474, -0.01090964, -136166.53, 60898.766, 0.0, 10.001493, 9.996818 
2.4154238e+3, 2.898872e+2, 276731.94, 33804.21, 29978.152, -0.024440734, 0.17603673, 280376.66, 379488.3, 0.0000000009564638, 10.00287, 9.998804 
2.4150996e+3, 2.998835e+2, -292949.25, -611785.6, 76363.414, 0.15758152, 0.41705865, -275603.38, -274456.4, 0.0000015325257, 9.999978, 9.995668 
2.4147692e+3, 3.0987126e+2, -188136.55, -51778.363, -167599.75, -0.093668476, -0.06352926, 60979.18, 60979.18, 0.000021924814, 9.998726, 9.999921 
2.4307214e+3, 1.3029885e+2, -1779427.8, -1619213.4, 53038.367, 0.06946614, 0.18621477, -1603246.5, 59831.37, 0.3927152, 9.998148, 10.00085 
2.4303912e+3, 1.4029422e+2, -1596027.5, -1543173.9, -29124.28, 0.3106271, 0.07982237, -1530273.8, 34848.004, 0.26710206, 9.998972, 10.000409 
2.4300577e+3, 1.5029027e+2, -1477944.0, -1137096.1, -29799.318, 0.2258075, -0.0718062, -1134510.5, 332639.97, 0.15331793, 9.997868, 10.003253 
2.4297243e+3, 1.6028608e+2, -1814113.8, -1519370.5, 52360.906, 0.06995531, -0.23770916, -1510345.0, -141162.42, 0.07196278, 9.996044, 10.000593 
2.4293955e+3, 1.702825e+2, -1354196.6, -1184547.8, 129960.57, -0.002420525, -0.15681581, -1114179.0, 157043.8, 0.027363949, 9.998611, 10.000773 
2.4290659e+3, 1.8027855e+2, -1004927.2, -1162891.3, -25211.275, -0.081499785, -0.08646439, -1001001.0, 172266.64, 0.009079448, 10.000899, 9.999283 
2.428733e+3, 1.902743e+2, -691431.75, -826648.3, -164567.7, 0.026316466, -0.007990066, -581126.0, 494183.6, 0.002868925, 10.00206, 10.000221 
2.4283999e+3, 2.0026948e+2, -673462.0, -1018273.9, -96337.68, 0.13542409, 0.048482828, -648371.7, 328984.8, 0.00059867656, 10.002283, 9.998317 
2.4280691e+3, 2.1026175e+2, -711671.0, -916515.8, -1941.0522, 0.10951588, -0.08242643, -711652.6, 167779.86, 0.000045539302, 10.001254, 9.998719 
2.427738e+3, 2.2025427e+2, -828187.3, -961811.25, -68611.68, 0.046382185, -0.1787277, -799231.9, -17725.717, 0.0000022398012, 9.999818, 9.998518 
2.4274036e+3, 2.3025107e+2, -598092.8, -535535.8, -161022.06, -0.011099743, -0.0045509203, -402782.47, 280757.25, 0.000000052409952, 9.999902, 10.000551 
2.4270698e+3, 2.4024771e+2, -618339.2, -744008.6, -87541.47, -0.0138117885, 0.17574206, -573416.25, 12158.736, 0.0, 9.999949, 9.998552 
2.4267387e+3, 2.502409e+2, -457747.6, -538002.2, -77778.21, 0.08323146, 0.11386446, -410355.47, 77288.31, 0.0, 10.000311, 9.998959 
2.4264087e+3, 2.6023376e+2, -384573.0, -546226.75, -33160.438, 0.18719378, 0.026342705, -378035.13, 11680.019, 0.0, 10.000301, 9.998369 
2.4260789e+3, 2.7022785e+2, -87858.51, -171261.6, 15041.255, 0.11726326, -0.0034019875, -85228.82, 206543.4, 0.0, 10.001154, 9.999684 
2.4257497e+3, 2.8022227e+2, -75730.52, -337072.72, 103079.15, 0.083676815, 0.004706817, -39967.715, 153858.13, 0.0, 10.001283, 9.997972 
2.4254219e+3, 2.9021767e+2, 162790.22, -9210.07, 171433.25, 0.029123396, 0.1897909, 268585.22, 364454.9, 0.0, 10.001825, 9.999125 
2.4250962e+3, 3.0021337e+2, -82536.49, -361883.84, 256040.81, 0.18427467, 0.349024, 69449.96, 69449.96, 0.000000086511356, 10.000612, 9.997136 
2.4247676e+3, 3.102039e+2, 198013.44, 105478.71, -461037.5, 0.22516571, 0.12151514, 615099.4, 615099.4, 0.0000026170453, 10.001284, 9.999871 
2.4410479e+3, 1.20634094e+2, -2268683.8, -1772584.0, -22854.455, 0.07519487, -0.16994356, -1771533.4, -13737.517, 0.49458465, 9.995172, 10.001575 
2.4407148e+3, 1.3063534e+2, -1760985.3, -1783608.1, 64458.273, 0.057382356, 0.47863957, -1706853.4, -47069.953, 0.3775347, 9.999565, 9.998743 
2.4403852e+3, 1.4062487e+2, -1757283.0, -1744824.4, -46087.06, 0.34288675, -0.010695031, -1704547.5, -142661.22, 0.25111946, 9.998639, 9.999044 
2.4400494e+3, 1.5062194e+2, -1376294.4, -1130391.9, -99680.84, 0.1294504, -0.01955982, -1095060.8, 368844.97, 0.13882844, 9.999043, 10.00259 
2.4397151e+3, 1.6061945e+2, -1688951.9, -1551073.9, 7478.0425, -0.0020298627, 0.047924962, -1550669.5, -184747.16, 0.060861234, 9.997465, 9.999634 
2.4393894e+3, 1.7061575e+2, -1356356.1, -1203102.0, 154663.2, 0.019598233, 0.11337902, -1107124.3, 160840.64, 0.02025213, 9.998781, 10.000502 
2.4390627e+3, 1.8061118e+2, -1372389.5, -1448172.3, -44489.332, 0.040788326, 0.15295127, -1351842.4, -181826.44, 0.0052852775, 9.998956, 9.998266 
2.4387293e+3, 1.906054e+2, -927293.8, -999495.94, -158882.13, 0.005646195, 0.118583575, -800462.94, 271607.47, 0.0012089658, 10.000811, 9.999598 
2.4383958e+3, 2.0059952e+2, -991979.2, -1236743.9, -96047.6, 0.03266959, 0.12761122, -958789.75, 15336.056, 0.00012403581, 10.000579, 9.99759 
2.4380639e+3, 2.1059294e+2, -848762.5, -927985.2, -30867.857, 0.0347729, 0.068024285, -838155.5, 38036.56, 0.000001917801, 10.000282, 9.9989805 
2.4377324e+3, 2.2058637e+2, -1125840.5, -1168094.3, -75250.15, 0.04650358, 0.042236928, -1068807.8, -290549.4, 0.000000018702426, 9.998212, 9.997814 
2.437398e+3, 2.3058243e+2, -634939.6, -545501.1, -140526.92, -0.014428016, 0.13056016, -442749.6, 237547.77, 0.0, 9.999674, 10.000531 
2.4370639e+3, 2.4057794e+2, -840657.5, -958593.4, -93668.23, -0.06712077, 0.19532695, -788941.44, -206600.17, 0.0, 9.9990015, 9.997522 
2.4367331e+3, 2.5056994e+2, -535804.25, -646029.7, -64522.953, 0.024000285, 0.07221544, -506060.47, -21642.262, 0.0, 10.000236, 9.998196 
2.4364033e+3, 2.6056197e+2, -577343.6, -716943.7, -10767.423, 0.085998826, -0.03178948, -576518.0, -190023.52, 0.0, 9.999459, 9.997585 
2.4360749e+3, 2.7055758e+2, -78493.66, -74799.69, 46135.637, 0.08498054, 0.028379008, -30474.078, 258061.03, 0.0, 10.000915, 10.000432 
2.4357471e+3, 2.8055298e+2, -161152.23, -254336.72, 84023.52, 0.109153196, 0.031462368, -111667.48, 78909.22, 0.0, 10.000264, 9.999042 
2.4354185e+3, 2.9054585e+2, 166293.4, 173908.1, 183769.78, -0.013040556, -0.23449492, 353909.97, 446550.5, 0.0, 10.001175, 10.0006695 
2.4350898e+3, 3.0053976e+2, -401603.25, -616090.06, 262171.34, -0.2563668, -0.31117183, -225588.9, -225588.9, 0.0, 9.998961, 9.996191 
2.4347666e+3, 3.1053704e+2, -3306.2188, -156526.03, -1507.3479, 0.19426033, 0.1861838, -3291.391, -3291.391, 0.00000012758136, 10.000767, 9.998233 
2.45104e+3, 1.2096749e+2, -1824494.9, -1464393.6, 260392.38, -0.047399882, -0.13094074, -1327865.0, 426664.72, 0.48542795, 9.996892, 10.005258 
2.4507134e+3, 1.309682e+2, -1556100.0, -1720120.5, 23919.54, 0.28300118, 0.457087, -1552683.0, 103835.016, 0.3659335, 10.001401, 9.998453 
2.4503791e+3, 1.409567e+2, -1474904.0, -1669363.5, -6294.1475, 0.13653284, -0.065062314, -1474700.5, 83930.234, 0.23856215, 10.000925, 9.998511 
2.4500442e+3, 1.5095225e+2, -1154705.6, -1210548.0, -94996.79, 0.03733694, -0.05106848, -1083611.8, 377058.28, 0.1275105, 10.001569, 10.000778 
2.4497111e+3, 1.6094808e+2, -1184667.5, -1385144.5, -22271.62, 0.0082510095, 0.019558992, -1182223.1, 180484.36, 0.052560914, 10.001197, 9.999003 
2.4493843e+3, 1.7094328e+2, -1207091.4, -1230128.0, 67132.6, 0.026100233, 0.06071431, -1150496.1, 114263.125, 0.01541553, 10.000055, 9.999786 
2.4490567e+3, 1.8093842e+2, -1297871.1, -1244629.1, -94021.516, 0.012864994, 0.09916136, -1173532.6, -6722.2695, 0.0031067657, 9.998612, 9.9998665 
2.4487247e+3, 1.9093394e+2, -888936.8, -784276.75, -98783.734, 0.036658965, 0.022507478, -724818.3, 344030.3, 0.00048131414, 10.000091, 10.001515 
2.4483924e+3, 2.009291e+2, -796058.25, -953597.94, -3668.667, 0.06172531, -0.017459234, -795972.9, 174918.56, 0.000015932997, 10.000975, 9.9993515 
2.448059e+3, 2.1092412e+2, -810289.5, -845812.8, 3325.1523, 0.016264742, 0.01983428, -809980.94, 62961.71, 0.0000000054715246, 10.000199, 9.999629 
2.4477261e+3, 2.2091873e+2, -887245.2, -1006049.0, 26357.123, -0.023844222, 0.08938873, -881660.3, -106662.16, 0.0, 9.999485, 9.998345 
2.4473932e+3, 2.3091274e+2, -501722.47, -617953.0, -48449.754, -0.020078259, 0.070215106, -484175.56, 192882.28, 0.0, 10.001043, 9.999443 
2.4470608e+3, 2.4090642e+2, -306207.88, -672927.8, -61106.313, -0.009465786, 0.051590975, -296293.8, 282825.75, 0.0, 10.002337, 9.997931 
2.4467303e+3, 2.508982e+2, -112282.62, -413675.16, -1088.6216, 0.08320139, -0.1124188, -112278.68, 368915.8, 0.0, 10.002832, 9.99865 
2.4464004e+3, 2.608907e+2, -73936.67, -432729.9, 89683.85, 0.13468131, -0.18776397, -52768.242, 330495.5, 0.0, 10.002581, 9.998078 
2.4460708e+3, 2.7088627e+2, -13559.753, -157434.23, 40403.793, 0.041484505, -0.051627338, -2989.8242, 282318.25, 0.0, 10.001742, 9.999518 
2.4457426e+3, 2.8088176e+2, -20796.668, -144663.0, -2101.71, 0.047107346, 0.029608287, -20761.018, 166590.8, 0.0, 10.000862, 9.9995365 
2.4454153e+3, 2.9087442e+2, 266422.8, 261528.36, -30845.875, 0.034665618, -0.30918178, 294918.38, 384335.97, 0.0, 10.001483, 10.001198 
2.4450879e+3, 3.0086833e+2, -82190.91, -396073.13, 27817.346, -0.035806533, -0.4341403, -79744.7, -79744.7, 0.0, 10.000664, 9.996922 
2.444764e+3, 3.108677e+2, 142277.06, 20293.678, -60645.3, 0.24893291, 0.30182186, 167296.06, 167296.06, 0.000000000000427524, 10.001112, 9.999337 
2.4610327e+3, 1.213004e+2, -1662310.5, -1234583.4, 389670.28, -0.121066585, 0.07947337, -1003946.56, 747320.0, 0.47724345, 9.997496, 10.007844 
2.4607116e+3, 1.3129981e+2, -1835180.1, -1841783.8, -133871.13, 0.55796945, 0.4263053, -1704570.1, -51304.973, 0.3557266, 9.999015, 9.998716 
2.4603735e+3, 1.4128806e+2, -1888496.8, -2006686.9, -124146.43, 0.05926594, -0.09594648, -1810098.0, -254717.78, 0.22774403, 9.9985895, 9.997297 
2.4600406e+3, 1.5128219e+2, -1392457.6, -1489276.8, -144267.81, 0.06276053, -0.09514048, -1288694.0, 168744.78, 0.11809006, 10.00071, 9.9990015 
2.4597088e+3, 1.6127649e+2, -1372487.5, -1651848.4, -59240.37, 0.15736948, -0.0049325973, -1360444.4, -948.7818, 0.04605504, 10.000731, 9.997355 
2.4593794e+3, 1.7127064e+2, -1318811.9, -1348449.8, 49410.688, 0.065357715, -0.015333585, -1282045.8, -20491.914, 0.012013259, 9.999683, 9.999088 
2.4590501e+3, 1.8126558e+2, -1457568.3, -1246831.8, -39295.496, 0.0145869935, 0.024972359, -1239742.9, -76139.99, 0.0018483637, 9.997346, 10.00043 
2.4587198e+3, 1.9126235e+2, -942214.9, -567404.94, -50205.773, 0.10175759, -0.14174378, -560796.44, 504829.94, 0.00018026956, 9.998759, 10.003592 
2.4583887e+3, 2.0125896e+2, -1143638.5, -1068018.5, -71133.07, 0.16290706, -0.20916426, -1025271.0, -57618.082, 0.0000007906511, 9.998528, 9.999729 
2.4580535e+3, 2.1125525e+2, -881570.6, -831718.7, -89835.25, 0.0016965611, -0.11054801, -763415.5, 106275.445, 0.0, 9.999628, 9.999981 
2.4577194e+3, 2.2125047e+2, -1108594.3, -1252949.6, -19230.277, -0.11652447, 0.029245678, -1106076.4, -334336.0, 0.0, 9.998805, 9.996946 
2.457389e+3, 2.3124264e+2, -686679.6, -851196.75, -25895.941, -0.026489295, -0.061334632, -682699.75, -8879.851, 0.0, 10.000674, 9.997899 
2.4570589e+3, 2.4123468e+2, -615082.06, -896120.44, -59780.574, 0.07991004, -0.12245718, -602894.5, -26996.807, 0.0, 10.000736, 9.997123 
2.4567282e+3, 2.512266e+2, -154137.58, -343164.97, -27330.045, 0.14559394, -0.35587433, -150265.45, 327701.2, 0.0, 10.002215, 9.99939 
2.456398e+3, 2.6121914e+2, -401129.03, -760821.9, 13916.785, 0.12469589, -0.44631398, -400591.38, -20558.97, 0.0, 10.001188, 9.99647 
2.4560665e+3, 2.712139e+2, -243037.03, -496531.4, -4383.347, -0.078210816, -0.22972864, -242961.25, 39130.4, 0.0, 10.001251, 9.997375 
2.4557365e+3, 2.812092e+2, -334345.56, -493736.7, 7733.3755, -0.21154812, 0.039353006, -333971.25, -149826.84, 0.0, 9.999719, 9.997664 
2.4554119e+3, 2.912038e+2, 107420.414, 97505.84, -283.1698, -0.00094762497, -0.043084376, 107428.5, 193624.13, 0.0, 10.000882, 10.000312 
2.4550891e+3, 3.0119684e+2, -420585.75, -636530.75, -2619.0588, 0.35682374, -0.1410011, -420554.0, -420554.0, 0.0, 9.998853, 9.996111 
2.4547598e+3, 3.1119207e+2, 15524.59, 220993.31, 89411.484, 0.0014067009, 0.01929139, 254452.8, 254452.8, 0.0, 9.999384, 10.001441 
2.4710289e+3, 1.216244e+2, -1538229.8, -1308020.5, 184626.95, -0.106631644, -0.17938182, -1205556.4, 542532.25, 0.46785307, 9.999384, 10.005612 
2.4707034e+3, 1.3162656e+2, -1873696.6, -1785352.4, -231457.27, 0.38738886, 0.44839716, -1593890.0, 56174.957, 0.34520847, 9.998343, 9.999586 
2.4703692e+3, 1.4161488e+2, -1901712.8, -1917304.4, -165541.88, 0.22650285, -0.14637634, -1743783.3, -191601.33, 0.21743059, 9.997944, 9.998245 
2.470037e+3, 1.516115e+2, -1311347.5, -1391276.4, -98409.54, 0.14076819, 0.04580503, -1245097.1, 209123.78, 0.109704144, 10.000991, 9.999555 
2.4697061e+3, 1.6160795e+2, -965266.9, -1212103.3, -39328.156, 0.110083, 0.2551012, -959152.25, 397105.9, 0.040704507, 10.002521, 9.999556 
2.4693747e+3, 1.7160185e+2, -1036753.2, -1014346.44, 48905.043, 0.047465675, 0.05093318, -975377.94, 282931.34, 0.00953522, 10.000682, 10.000987 
2.4690433e+3, 1.8159637e+2, -1282681.5, -1122805.4, 51487.39, -0.019171713, -0.05217616, -1107659.0, 52696.56, 0.0011160366, 9.998266, 10.000858 
2.4687122e+3, 1.9159304e+2, -1194418.8, -850958.44, -43899.324, 0.062742576, -0.088827886, -845436.25, 216949.19, 0.00006263998, 9.997656, 10.002218 
2.4683811e+3, 2.0158958e+2, -1253225.9, -1083622.0, -100489.484, 0.10724464, -0.06161071, -1036934.44, -72517.63, 0.0000000031066179, 9.997499, 10.000138 
2.4680488e+3, 2.1158475e+2, -701659.7, -720858.44, -110006.53, 0.034424286, -0.09220489, -600834.5, 265628.53, 0.0, 10.000632, 10.000324 
2.4677165e+3, 2.2157934e+2, -467882.1, -887413.2, -82253.06, -0.04422247, -0.04220359, -452331.97, 316184.4, 0.0, 10.002779, 9.997605 
2.467386e+3, 2.3157237e+2, -451527.88, -783496.44, -78857.625, 0.016494239, -0.021020165, -433747.9, 236841.16, 0.0, 10.002294, 9.997706 
2.4670556e+3, 2.4156506e+2, -421859.47, -797413.5, -60043.79, 0.08724873, 0.018770864, -412493.22, 160169.6, 0.0, 10.001877, 9.997292 
2.4667251e+3, 2.5155696e+2, -141919.36, -437721.9, -120306.33, 0.09286101, -0.13946123, -99168.07, 375568.2, 0.0, 10.002595, 9.99862 
2.4663946e+3, 2.6154914e+2, -101538.73, -527968.1, -138488.89, 0.074686766, -0.23252194, -60510.08, 316297.6, 0.0, 10.002679, 9.997391 
2.4660636e+3, 2.7154282e+2, -85563.836, -355971.03, -69420.11, 0.011402328, -0.19236676, -68783.336, 210086.89, 0.0, 10.001916, 9.998083 
2.4657336e+3, 2.8153756e+2, -148330.75, -383792.97, 93977.65, -0.07448071, -0.009425451, -115421.85, 65502.527, 0.0, 10.0008135, 9.997898 
2.4654073e+3, 2.915321e+2, 58349.324, -66790.69, 57883.66, -0.047870774, 0.023999458, 81017.36, 163998.7, 0.0, 10.0010395, 9.999182 
2.4650861e+3, 3.015244e+2, -113644.46, -416492.4, 74151.97, 0.49703136, -0.04435853, -96463.17, -96463.17, 0.0, 10.000505, 9.9968605 
2.4647549e+3, 3.115166e+2, 140371.4, 377715.1, -18744.69, -0.02128922, -0.22281988, 379186.38, 379186.38, 0.0, 9.999545, 10.002554 
2.4810255e+3, 1.21951446e+2, -1838856.0, -1642954.9, 108361.875, 0.053261396, -0.16317913, -1594834.9, 150048.52, 0.45571712, 9.997971, 10.002049 
2.4806952e+3, 1.3195322e+2, -1776476.5, -1682379.3, -158151.2, 0.2516995, 0.40932155, -1564426.8, 82439.69, 0.33319858, 9.998833, 10.000068 
2.480365e+3, 1.4194207e+2, -1832604.1, -1840070.3, -8853.42, 0.49638978, -0.16746768, -1826728.9, -277748.78, 0.20679392, 9.998406, 9.998512 
2.4800336e+3, 1.5194137e+2, -1446175.1, -1386701.1, 32884.203, 0.22408071, 0.21090588, -1372102.4, 78894.55, 0.10179194, 9.999676, 10.000214 
2.4797028e+3, 1.619398e+2, -1355054.9, -1253741.6, -59972.805, 0.11714704, 0.52816546, -1225894.6, 127120.94, 0.036105353, 9.9992485, 10.000808 
2.4793701e+3, 1.7193356e+2, -1082625.3, -804781.1, -91269.234, 0.08312474, 0.10021423, -777482.2, 477576.66, 0.0076701324, 9.999541, 10.002914 
2.479037e+3, 1.819278e+2, -1410613.1, -1343238.9, -89550.09, 0.045425426, -0.11116805, -1281249.3, -124147.03, 0.000687035, 9.998245, 9.999306 
2.4787042e+3, 1.9192438e+2, -1292764.6, -1147473.0, -122756.5, 0.019513791, 0.022487992, -1077477.4, -18337.752, 0.000019881356, 9.998217, 9.999825 
2.478373e+3, 2.0192023e+2, -1384159.0, -1268570.0, -57686.125, 0.057147954, 0.17385903, -1244707.4, -283524.4, 0.0, 9.997284, 9.998903 
2.4780446e+3, 2.1191381e+2, -810370.9, -742490.94, -20635.1, 0.08463112, -0.046200413, -736710.25, 126531.31, 0.0, 9.999906, 10.000405 
2.4777153e+3, 2.2190775e+2, -812633.5, -1104712.5, -107205.67, 0.09509688, -0.062107235, -777508.44, -12209.378, 0.0, 10.000773, 9.997018 
2.477383e+3, 2.3190235e+2, -560564.0, -819358.7, -131533.27, 0.038395602, 0.08122039, -505449.34, 161908.72, 0.0, 10.001529, 9.997782 
2.4770513e+3, 2.4189635e+2, -770221.75, -1137604.4, -79385.59, -0.011359645, 0.28990233, -753801.6, -184378.77, 0.0, 10.000411, 9.995619 
2.4767207e+3, 2.5188845e+2, -387169.03, -726195.6, -80187.31, -0.06863303, 0.282827, -369159.66, 102344.61, 0.0, 10.001811, 9.99692 
2.4763909e+3, 2.6188043e+2, -334477.75, -593722.94, -146896.45, -0.0630229, 0.26668862, -268190.7, 105391.2, 0.0, 10.00107, 9.997684 
2.4760617e+3, 2.7187276e+2, -61163.156, -89295.03, -95654.9, 0.13522454, -0.034747344, 21454.46, 297097.5, 0.0, 10.001148, 10.00024 
2.475732e+3, 2.8186575e+2, -401656.47, -616222.9, 56014.51, 0.11068474, -0.13016823, -387913.6, -210210.2, 0.0, 9.99965, 9.99686 
2.4754013e+3, 2.9185858e+2, -151939.23, -311463.3, 68612.36, -0.26051885, -0.16364051, -126488.92, -46706.137, 0.0, 10.000364, 9.997761 
2.4750793e+3, 3.018524e+2, -415364.06, -618861.9, 35180.83, 0.16441444, 0.01811797, -409453.66, -409453.66, 0.0, 9.998809, 9.996282 
2.4747515e+3, 3.118478e+2, -69388.37, 287143.56, -23695.941, -0.02459338, 0.084515214, 288711.53, 288711.53, 0.0, 9.998119, 10.00263 
2.4910218e+3, 1.2228278e+2, -1962340.4, -1959876.9, 1355.3745, 0.18567578, 0.056259405, -1959277.1, -217632.48, 0.43991777, 9.998406, 9.998983 
2.490689e+3, 1.3228393e+2, -1501134.5, -1401978.0, -36052.273, 0.13628058, 0.44903913, -1390255.6, 253374.08, 0.31901658, 10.000107, 10.002033 
2.4903582e+3, 1.4227362e+2, -1548533.0, -1651099.0, 67116.96, 0.2604189, -0.1539206, -1515349.3, 30379.885, 0.19536594, 10.000058, 9.99906 
2.4900264e+3, 1.5227193e+2, -1607323.4, -1537145.1, 73273.51, 0.08518949, 0.20946072, -1490992.4, -43237.586, 0.094030365, 9.998776, 9.999633 
2.4896958e+3, 1.622691e+2, -1612268.5, -1432350.9, -19782.563, 0.05700281, 0.47237918, -1430201.4, -80415.41, 0.032013185, 9.997611, 10.000368 
2.4893658e+3, 1.7226242e+2, -1157525.8, -974251.2, -101600.32, 0.21229428, 0.12241893, -929067.4, 322770.94, 0.0062260167, 9.999501, 10.0018015 
2.4890342e+3, 1.822564e+2, -1021369.06, -1115637.4, -188527.13, 0.23819104, -0.052926563, -874173.3, 279713.47, 0.00043419475, 10.000593, 9.999758 
2.4886997e+3, 1.9225237e+2, -918341.5, -955342.2, -185239.28, 0.09192605, 0.0013906327, -750681.0, 305245.06, 0.0000058323185, 10.0005665, 10.0000725 
2.4883673e+3, 2.0224768e+2, -959219.1, -1068823.0, -20304.072, 0.003924237, 0.10217217, -955578.75, 2393.1028, 0.000000000090419006, 10.000091, 9.998947 
2.4880397e+3, 2.1224087e+2, -765803.06, -819446.3, -8079.898, 0.070936866, -0.0715976, -764612.5, 95423.09, 0.0, 10.000466, 9.999692 
2.4877115e+3, 2.2223428e+2, -729717.06, -969297.7, -130191.086, 0.10237974, -0.11167897, -672590.94, 89507.61, 0.0, 10.000815, 9.997927 
2.4873804e+3, 2.3222855e+2, -454711.22, -722134.8, -144079.89, 0.11350637, -0.04246651, -391857.88, 272300.16, 0.0, 10.001976, 9.99829 
2.4870493e+3, 2.4222276e+2, -354372.78, -800958.56, -67563.61, 0.0992991, 0.1367526, -344374.97, 221844.22, 0.0, 10.002567, 9.996877 
2.4867183e+3, 2.522165e+2, -316767.84, -652785.75, -13856.933, -0.012304168, 0.23666833, -316197.38, 152090.16, 0.0, 10.001999, 9.997374 
2.4863875e+3, 2.6220956e+2, -220988.36, -463409.0, -32867.36, -0.03447058, 0.30528364, -216611.23, 153745.31, 0.0, 10.001326, 9.998493 
2.4860576e+3, 2.7220154e+2, -22938.898, -81148.4, -91782.375, 0.13669014, -0.032070536, 44242.85, 316664.03, 0.0, 10.001233, 10.000362 
2.4857283e+3, 2.821938e+2, -170337.2, -490841.25, 42323.473, 0.17654282, -0.19334738, -164842.47, 9645.657, 0.0, 10.000984, 9.99713 
2.4853985e+3, 2.9218653e+2, 39003.83, -277439.8, 76627.0, -0.16719575, -0.19502285, 56582.58, 133152.28, 0.0, 10.001743, 9.997403 
2.4850754e+3, 3.021811e+2, 61851.965, -325296.0, 88342.23, 0.19080605, 0.07106859, 81057.766, 81057.766, 0.0, 10.001752, 9.996866 
2.4847473e+3, 3.121772e+2, 173146.97, 323879.63, -161622.22, 0.12506844, 0.27453288, 426843.97, 426843.97, 0.0, 9.999894, 10.00213 
2.501015e+3, 1.2261546e+2, -2281495.5, -2242266.5, 40576.355, 0.194156, 0.39808214, -2216812.5, -478423.1, 0.42027465, 9.996951, 9.997737 
2.500684e+3, 1.3261436e+2, -1543170.0, -1303881.0, -64491.043, 0.1747673, 0.45295912, -1287606.8, 352785.6, 0.30251706, 9.99915, 10.003357 
2.5003517e+3, 1.4260548e+2, -1742927.0, -1806489.1, -96924.06, 0.11328481, -0.060284737, -1672706.6, -130232.516, 0.18302314, 9.99898, 9.998501 
2.5000194e+3, 1.5260187e+2, -1511383.4, -1581833.5, -92727.53, -0.006306328, 0.13627745, -1447415.8, -2898.8567, 0.08629053, 9.999836, 9.998807 
2.499689e+3, 1.6259767e+2, -1548644.4, -1591597.1, -84265.234, 0.09132467, 0.37271369, -1483161.8, -136599.95, 0.028287582, 9.998956, 9.998584 
2.4993618e+3, 1.7259073e+2, -1335766.0, -1266982.0, -92514.914, 0.37764004, 0.11579602, -1202673.4, 45950.18, 0.0050760456, 9.99915, 9.999928 
2.4990317e+3, 1.8258429e+2, -1359705.1, -1316667.3, -186027.64, 0.48975345, 0.03454074, -1150918.1, -238.18127, 0.00028139996, 9.9986315, 9.999274 
2.4986959e+3, 1.9257964e+2, -956787.1, -865854.6, -233043.56, 0.17949942, -0.06585398, -673883.56, 378835.6, 0.0000014559199, 10.000047, 10.000868 
2.498362e+3, 2.0257436e+2, -1092790.1, -1249891.0, -70979.12, 0.000034732988, -0.03271158, -1065471.6, -110705.05, 0.0, 9.999861, 9.997787 
2.498035e+3, 2.1256743e+2, -916258.5, -979723.7, -34246.57, 0.0367436, -0.15115169, -901302.94, -44468.688, 0.0, 10.000041, 9.99872 
2.497707e+3, 2.2256061e+2, -984040.9, -1126282.1, -140818.64, 0.09632734, -0.13641407, -897402.06, -138501.9, 0.0, 9.999395, 9.997521 
2.497378e+3, 2.3255348e+2, -565571.44, -693608.44, -112125.375, 0.19890644, -0.28122035, -500475.78, 160492.14, 0.0, 10.000998, 9.998907 
2.4970478e+3, 2.4254729e+2, -599730.4, -840501.2, -94544.73, 0.22911106, -0.21191357, -567042.75, -4014.1218, 0.0, 10.000655, 9.997513 
2.4967158e+3, 2.525428e+2, -392887.94, -525795.3, -51697.91, 0.07503462, -0.08457954, -375146.8, 89930.27, 0.0, 10.000895, 9.998735 
2.4963835e+3, 2.6253766e+2, -495236.13, -682048.25, -77558.54, -0.057552416, 0.10314295, -467233.72, -100104.22, 0.0, 9.999959, 9.997623 
2.4960522e+3, 2.725299e+2, -169811.47, -280672.7, -91288.69, -0.032678522, -0.1222075, -118442.38, 150757.77, 0.0, 10.000828, 9.999178 
2.4957232e+3, 2.8252262e+2, -365162.6, -640653.8, 35618.934, 0.008502993, -0.13869101, -360631.88, -189362.48, 0.0, 10.000031, 9.996528 
2.4953975e+3, 2.9251647e+2, -59423.023, -291998.25, 124429.27, 0.01748637, -0.06986916, -5400.762, 67935.914, 0.0, 10.001018, 9.997608 
2.4950728e+3, 3.025106e+2, -167065.34, -475630.13, 18160.668, 0.15308641, 0.15411265, -166000.17, -166000.17, 0.0, 10.000517, 9.996397 
2.4947417e+3, 3.1250376e+2, -163259.88, -27403.104, -72067.414, -0.11872828, 0.09524657, 3703.7476, 3703.7476, 0.0, 9.998662, 10.000227 
2.5110072e+3, 1.2294545e+2, -1888222.9, -1652048.0, 180565.95, -0.044893198, 0.3341488, -1554383.9, 180754.3, 0.39734322, 9.997556, 10.002174 
2.5106803e+3, 1.3293728e+2, -1675135.4, -1610444.8, -85780.016, 0.38160512, -0.087848306, -1551114.4, 86104.38, 0.28406283, 9.999383, 10.000357 
2.510347e+3, 1.4293285e+2, -1635790.9, -1750713.8, -127635.06, 0.13836446, 0.039475407, -1553279.0, -14015.3125, 0.16993596, 9.999618, 9.998575 
2.510016e+3, 1.5292834e+2, -1180414.8, -1355673.5, -81705.47, 0.013250778, 0.094659455, -1148233.1, 293080.3, 0.078587286, 10.001879, 9.999466 
2.5096852e+3, 1.6292378e+2, -1043700.8, -1264475.0, -165016.72, 0.029371487, 0.22393149, -955553.75, 387807.4, 0.024857625, 10.002006, 9.999393 
2.5093555e+3, 1.7291823e+2, -1257382.4, -1207496.9, -147103.05, 0.3052447, 0.10494678, -1083236.9, 162175.03, 0.0041356636, 9.999488, 10.000234 
2.5090244e+3, 1.8291236e+2, -1435955.8, -1365129.5, -114546.87, 0.38131103, 0.08057963, -1280646.6, -133181.2, 0.00018434241, 9.998046, 9.999256 
2.5086907e+3, 1.929065e+2, -876963.2, -947258.44, -153806.27, 0.12388446, -0.025619628, -754339.75, 295178.84, 0.00000026313862, 10.00099, 9.999937 
2.5083587e+3, 2.0290042e+2, -688420.8, -1071856.8, -139443.6, -0.04399222, 0.005254332, -643072.75, 308503.4, 0.0, 10.002601, 9.997723 
2.508031e+3, 2.1289365e+2, -727601.3, -973691.25, -139512.94, 0.062327024, -0.01334504, -664625.0, 189021.55, 0.0, 10.001597, 9.998088 
2.507703e+3, 2.2288725e+2, -616697.8, -792301.9, -182230.13, 0.13619204, 0.034177333, -502220.3, 253489.11, 0.0, 10.000994, 9.99912 
2.5073734e+3, 2.3288119e+2, -423363.22, -483060.53, -137811.73, 0.15056738, -0.13499337, -312204.72, 345556.63, 0.0, 10.001143, 10.000372 
2.5070432e+3, 2.4287547e+2, -435424.5, -614607.9, -113357.875, 0.14757629, -0.15246364, -380528.53, 179283.95, 0.0, 10.001036, 9.998912 
2.5067118e+3, 2.5286976e+2, -352326.9, -449596.9, -127225.52, 0.090228155, -0.19444968, -264757.28, 197111.97, 0.0, 10.000788, 9.999398 
2.5063804e+3, 2.628641e+2, -359860.0, -631385.8, -133814.11, 0.054368652, -0.08381949, -304998.2, 58928.04, 0.0, 10.000868, 9.997542 
2.5060496e+3, 2.728577e+2, -81919.61, -369131.94, -193406.0, 0.07995591, -0.061206587, 15365.511, 281357.44, 0.0, 10.001951, 9.998064 
2.5057203e+3, 2.8285113e+2, -1493.414, -388947.97, -54662.137, 0.07866705, 0.050333872, 6070.6577, 174129.05, 0.0, 10.0020685, 9.997293 
2.505393e+3, 2.9284453e+2, -32166.717, -238239.19, 3584.3074, -0.01911823, 0.0037676569, -32104.393, 38021.684, 0.0, 10.000809, 9.998176 
2.5050676e+3, 3.028387e+2, -249020.14, -468159.6, -28538.355, 0.12147417, 0.18927056, -245364.58, -245364.58, 0.0, 9.999599, 9.996915 
2.5047398e+3, 3.1283188e+2, -99880.06, -48876.023, -135063.33, 0.30115056, 0.11559088, 63071.793, 63071.793, 0.0, 9.999125, 9.999881 
2.5210035e+3, 1.23269e+2, -1823607.6, -1535342.4, 86749.45, 0.27652812, -0.37232155, -1511249.9, 220703.25, 0.3720952, 9.997523, 10.00309 
2.5206754e+3, 1.3326149e+2, -1801628.8, -1959787.9, -89626.914, 0.4478869, -0.5205656, -1761181.9, -127147.29, 0.26429757, 9.999882, 9.997478 
2.520344e+3, 1.4326128e+2, -1626196.5, -1738796.9, 11403.412, 0.35407287, 0.20622812, -1625053.3, -89009.836, 0.15642525, 9.999869, 9.9984255 
2.5200135e+3, 1.5325528e+2, -1377256.0, -1370439.9, 26884.117, 0.11162106, 0.019926958, -1346748.6, 91356.91, 0.071005836, 10.000274, 10.0 
2.519682e+3, 1.6325018e+2, -1378531.3, -1409749.4, -165639.22, 0.071809754, 0.083128676, -1227767.3, 112389.96, 0.021693112, 9.999803, 9.999406 
2.5193492e+3, 1.7324609e+2, -1169505.3, -1079748.5, -229051.44, 0.251089, 0.051860154, -891220.3, 350975.78, 0.00335279, 10.000008, 10.000783 
2.519017e+3, 1.8324113e+2, -1353221.8, -1492785.1, -51107.01, 0.31572133, 0.15590586, -1336508.4, -192265.14, 0.00011963712, 9.999435, 9.997669 
2.518686e+3, 1.9323383e+2, -994501.75, -1169826.1, -26119.951, 0.07209095, 0.013338343, -990693.1, 55620.703, 0.00000002568285, 10.000946, 9.998367 
2.5183558e+3, 2.0322698e+2, -1017663.4, -1399154.5, -92198.734, -0.029764595, 0.120767884, -996549.4, -48166.207, 0.0, 10.001141, 9.996152 
2.5180277e+3, 2.1321997e+2, -915297.3, -1158615.6, -122880.59, 0.108222835, 0.13467497, -864038.6, -13577.941, 0.0, 10.000736, 9.9972 
2.517699e+3, 2.2321431e+2, -813974.06, -791357.75, -128610.31, 0.16776688, 0.2800985, -673559.44, 78958.414, 0.0, 9.999436, 9.999797 
2.5173676e+3, 2.3321064e+2, -489515.53, -328142.0, -118951.63, 0.0030084986, 0.16161783, -265093.44, 389448.56, 0.0, 10.000045, 10.001897 
2.5170368e+3, 2.4320558e+2, -705840.1, -756274.44, -153987.39, -0.06530726, 0.14102495, -575018.75, -18436.492, 0.0, 9.999399, 9.998694 
2.5167066e+3, 2.5319704e+2, -474338.06, -480748.97, -140983.98, 0.035763536, -0.23258084, -336523.1, 122139.35, 0.0, 9.999965, 9.999532 
2.5163767e+3, 2.6319003e+2, -657247.25, -955189.3, -124065.19, 0.120790794, -0.19096234, -612350.94, -251618.17, 0.0, 9.999768, 9.995802 
2.516048e+3, 2.7318498e+2, -279203.2, -613412.06, -130203.68, 0.24321221, 0.08098427, -234465.95, 28326.994, 0.0, 10.001393, 9.996572 
2.515718e+3, 2.8317878e+2, -120558.234, -381248.66, -90988.58, 0.11685601, 0.28794295, -91941.836, 72918.55, 0.0, 10.001163, 9.997728 
2.5153857e+3, 2.9317063e+2, -28446.705, -85082.78, -8835.64, -0.38956946, -0.044254195, -27100.29, 39837.523, 0.0, 10.000345, 9.99939 
2.515059e+3, 3.0316582e+2, -288020.2, -418194.72, -61443.695, -0.2748565, 0.1541755, -263599.47, -263599.47, 0.0, 9.999167, 9.997431 
2.514735e+3, 3.1315884e+2, -166229.52, -33908.453, 9172.163, 0.1668483, -0.0075144386, -33275.688, -33275.688, 0.0, 9.998594, 10.000206 
2.5309977e+3, 1.2359865e+2, -1752785.8, -1560610.5, -120008.25, 0.15684402, -0.1497122, -1502961.9, 225770.1, 0.34545994, 9.998357, 10.002378 
2.530667e+3, 1.3359421e+2, -1533936.3, -1583829.5, 22872.25, 0.018730832, -0.17163871, -1525038.0, 105742.09, 0.24384509, 10.000717, 9.999833 
2.5303414e+3, 1.4359426e+2, -1451362.3, -1550962.0, 74649.555, 0.42355832, 0.43217626, -1411426.0, 121355.81, 0.14280653, 10.000671, 9.999381 
2.530009e+3, 1.5358491e+2, -1453175.1, -1378924.5, 88312.68, 0.16346486, -0.083136305, -1320251.0, 114619.52, 0.06363834, 9.999527, 10.000344 
2.5296775e+3, 1.635781e+2, -1453409.9, -1519977.5, -41349.63, 0.11206025, -0.17626578, -1433612.6, -96675.65, 0.0187796, 9.999457, 9.998849 
2.529346e+3, 1.7357455e+2, -884178.4, -1095243.1, -114816.23, 0.29849198, -0.00461193, -833762.5, 405212.53, 0.0026956536, 10.002431, 9.999589 
2.5290146e+3, 1.8357001e+2, -708590.6, -1124223.9, -33100.277, 0.3027643, 0.19139954, -705971.06, 435050.28, 0.00007576087, 10.0035305, 9.998223 
2.5286832e+3, 1.935629e+2, -759074.7, -1042126.7, 16520.834, 0.083110735, 0.07527837, -758113.7, 284976.72, 0.00000000011876218, 10.002373, 9.998606 
2.528353e+3, 2.0355582e+2, -887700.44, -1233302.0, 15670.112, 0.00730064, 0.121013254, -886991.4, 58169.723, 0.0, 10.001456, 9.997157 
2.5280246e+3, 2.1354827e+2, -737106.44, -1039077.56, 42949.58, 0.16973665, 0.07639296, -731116.5, 116123.35, 0.0, 10.001637, 9.997649 
2.527695e+3, 2.2354208e+2, -567516.1, -702288.6, 19604.45, 0.20877631, 0.16767003, -564722.3, 184579.81, 0.0, 10.0011425, 9.999595 
2.5273633e+3, 2.335378e+2, -534791.9, -501586.78, -89689.266, 0.053321943, 0.14903596, -426976.34, 224362.39, 0.0, 10.000213, 10.00071 
2.527032e+3, 2.4353273e+2, -571278.0, -623534.44, -145376.8, -0.014914303, 0.17733443, -449700.1, 103683.07, 0.0, 9.999866, 9.999404 
2.5267023e+3, 2.5352567e+2, -319504.5, -374832.6, -144255.31, 0.06127785, -0.05723816, -200284.61, 255163.89, 0.0, 10.000779, 9.999902 
2.5263727e+3, 2.6351908e+2, -271560.7, -648101.6, -38248.063, 0.11370438, -0.04034354, -267714.8, 89798.28, 0.0, 10.001706, 9.997029 
2.5260442e+3, 2.7351266e+2, -43374.31, -443325.38, 32967.184, 0.1682844, 0.0512504, -40675.105, 218907.22, 0.0, 10.002555, 9.997269 
2.525715e+3, 2.8350616e+2, 74515.7, -250858.52, 77463.54, 0.11500928, 0.19975618, 92016.54, 253668.03, 0.0, 10.002292, 9.998065 
2.5253826e+3, 2.9349893e+2, 7439.7085, -106691.766, -16122.552, -0.25714198, 0.012014131, 9673.508, 73397.53, 0.0, 10.000702, 9.999091 
2.5250554e+3, 3.0349392e+2, -130723.875, -246272.03, -21584.494, -0.10461851, 0.19345787, -126823.53, -126823.53, 0.0, 9.999807, 9.998306 
2.5247318e+3, 3.1348938e+2, 54538.184, 179483.45, -14126.252, 0.40710548, 0.22992751, 181060.66, 181060.66, 0.0, 9.99961, 10.00123 
2.5409928e+3, 1.2393003e+2, -1785802.9, -1622553.8, -93729.79, 0.30092323, 0.28454337, -1579888.9, 145603.22, 0.31815657, 9.998684, 10.001425 
2.5406605e+3, 1.3392727e+2, -1671339.4, -1427671.4, 42578.62, -0.09501561, 0.16830054, -1420445.4, 207075.11, 0.22319712, 9.998497, 10.002205 
2.5403374e+3, 1.4392641e+2, -1727170.9, -1667656.0, 18757.783, 0.5431503, 0.53907007, -1662237.4, -132709.84, 0.12934339, 9.998674, 9.9994955 
2.5400043e+3, 1.5391493e+2, -1270198.1, -1309947.9, -29045.16, 0.24844182, -0.2063659, -1254878.8, 176753.86, 0.05657354, 10.000967, 10.000154 
2.5396731e+3, 1.6390711e+2, -1305827.9, -1599867.0, -48583.242, 0.21093267, -0.31668553, -1298008.5, 35699.29, 0.016116831, 10.001277, 9.997357 
2.539344e+3, 1.7390385e+2, -1085850.8, -1348517.5, -71843.71, 0.35463044, -0.032226678, -1067484.6, 168262.33, 0.0021455006, 10.001792, 9.998101 
2.5390133e+3, 1.838995e+2, -1027778.0, -1305082.3, -72612.75, 0.35417885, 0.2851192, -1009914.9, 127878.805, 0.000046550977, 10.001551, 9.99792 
2.538681e+3, 1.9389258e+2, -870702.4, -1056346.5, -74933.484, 0.15023363, 0.123830594, -844230.9, 195629.98, 0.0, 10.001522, 9.9989 
2.5383502e+3, 2.0388556e+2, -993433.4, -1225960.3, -41950.645, 0.10263829, 0.15258926, -986096.5, -44168.32, 0.0, 10.000678, 9.997498 
2.5380215e+3, 2.1387747e+2, -847690.2, -984161.9, -6528.6934, 0.21128844, -0.07782537, -847378.56, -3373.118, 0.0, 10.000591, 9.998451 
2.5376913e+3, 2.238702e+2, -924774.4, -1124149.6, -53985.35, 0.25852415, -0.032186255, -911095.1, -165017.63, 0.0, 9.999916, 9.997258 
2.537359e+3, 2.3386367e+2, -781576.44, -875265.4, -115636.65, 0.13898262, -0.07699305, -703656.2, -55509.742, 0.0, 9.999771, 9.998298 
2.5370276e+3, 2.4385896e+2, -748821.6, -746888.6, -121981.78, 0.06916925, 0.1527098, -625869.5, -75675.31, 0.0, 9.99901, 9.998901 
2.5366974e+3, 2.5385544e+2, -463963.6, -413964.66, -90780.29, 0.02524225, 0.21425183, -344804.5, 107422.32, 0.0, 9.999776, 10.000059 
2.5363678e+3, 2.638498e+2, -393492.6, -533465.75, -18945.18, -0.0562889, 0.2686865, -390973.72, -36695.316, 0.0, 10.000277, 9.998457 
2.5360388e+3, 2.7384076e+2, -30228.111, -192284.08, 76909.016, -0.14483476, -0.14886323, 460.20316, 256821.11, 0.0, 10.001699, 9.999371 
2.5357103e+3, 2.8383428e+2, -191183.2, -575878.1, -5655.034, -0.09284262, -0.025659455, -191100.1, -32673.766, 0.0, 10.001422, 9.996233 
2.5353822e+3, 2.9382953e+2, -210671.92, -425813.56, -45867.957, 0.11066587, 0.1980935, -201301.08, -140815.38, 0.0, 10.000209, 9.997114 
2.5350544e+3, 3.038229e+2, -172260.14, -123772.53, -24547.225, 0.26915917, 0.2836777, -113515.2, -113515.2, 0.0, 9.999055, 9.99947 
2.534725e+3, 3.1381878e+2, 160851.2, 574492.3, 106979.82, 0.13339913, 0.18163346, 600522.44, 600522.44, 0.0, 9.998942, 10.004257 
2.5509885e+3, 1.2425536e+2, -1652629.0, -1673952.4, 294321.4, 0.20155637, -0.37924, -1368776.3, 353518.6, 0.29081753, 10.00045, 10.000393 
2.550657e+3, 1.3425568e+2, -1815914.4, -1599032.8, 33190.133, 0.2313843, -0.030900676, -1594067.3, 30226.473, 0.2027681, 9.998035, 10.000976 
2.5503308e+3, 1.4425215e+2, -1784675.6, -1785206.5, 115633.94, 0.45359877, 0.19126616, -1669306.8, -142975.98, 0.11625642, 9.998567, 9.998771 
2.5500008e+3, 1.5424486e+2, -978826.44, -1285052.8, 67829.17, 0.10830321, -0.03115037, -964474.9, 463929.94, 0.04988728, 10.003451, 9.999183 
2.54967e+3, 1.6423851e+2, -758177.94, -1256422.3, -170321.77, -0.033400595, 0.026264686, -705519.8, 624948.7, 0.013707004, 10.004684, 9.99811 
2.5493383e+3, 1.7423317e+2, -1005836.4, -1278082.5, -147670.58, 0.0899162, 0.09183001, -941121.0, 291401.44, 0.0016894786, 10.002119, 9.998486 
2.5490078e+3, 1.842271e+2, -1108370.3, -1367405.0, -50790.223, 0.17979568, 0.2274806, -1098767.5, 35816.816, 0.000027889511, 10.000993, 9.997787 
2.5486788e+3, 1.9421932e+2, -831285.0, -1134379.9, -82362.32, 0.2518057, 0.07670541, -810350.06, 226313.72, 0.0, 10.002091, 9.998151 
2.5483486e+3, 2.0421281e+2, -656952.7, -911096.75, -121242.37, 0.24302481, 0.12571397, -608391.56, 330335.4, 0.0, 10.002217, 9.998949 
2.548017e+3, 2.1420695e+2, -637383.56, -795801.94, -93538.54, 0.14734691, 0.04653659, -594022.1, 246757.5, 0.0, 10.001491, 9.999379 
2.5476858e+3, 2.2420052e+2, -654145.06, -938945.7, -68218.02, 0.10128848, 0.09325403, -638648.1, 104194.445, 0.0, 10.001461, 9.997813 
2.5473547e+3, 2.3419292e+2, -372476.97, -721145.94, -55635.004, 0.085691825, -0.002288083, -363814.8, 281108.1, 0.0, 10.002669, 9.9980135 
2.5470236e+3, 2.4418725e+2, -193485.16, -437617.03, -57367.918, 0.07885866, 0.12902883, -180676.45, 366303.56, 0.0, 10.002436, 9.999471 
2.5466925e+3, 2.5418335e+2, -419050.72, -430565.5, -76187.81, 0.06269034, 0.19872893, -348403.06, 100611.266, 0.0, 9.999992, 9.99998 
2.546363e+3, 2.6417774e+2, -506886.2, -501675.84, 70601.64, -0.025584659, 0.23599724, -433631.3, -82566.75, 0.0, 9.999086, 9.99926 
2.5460345e+3, 2.741694e+2, -143716.56, -225898.89, 12631.426, -0.19109097, -0.11278518, -141818.92, 111321.45, 0.0, 10.000776, 9.999627 
2.5457063e+3, 2.84163e+2, -149945.53, -500479.72, -128208.87, -0.13167897, -0.025818346, -108058.14, 47145.492, 0.0, 10.001291, 9.996888 
2.5453782e+3, 2.941582e+2, -193450.23, -415964.72, -106371.29, 0.19721276, 0.19516781, -150782.1, -93519.484, 0.0, 10.000188, 9.997276 
2.5450504e+3, 3.0415145e+2, 19434.219, 141517.42, 49105.527, 0.4540229, 0.18071845, 158817.58, 158817.58, 0.0, 9.999434, 10.001204 
2.5447154e+3, 3.1414467e+2, -89788.16, 266058.44, -60734.918, -0.2015284, -0.26220217, 276138.97, 276138.97, 0.0, 9.99777, 10.002822 
2.5609824e+3, 1.2459115e+2, -1825947.8, -1805995.4, -296910.38, 0.031954028, -0.03053576, -1518893.6, 200104.53, 0.26403108, 9.999472, 9.999686 
2.5606537e+3, 1.3458376e+2, -1522005.6, -1693228.4, -123322.39, 0.49837717, -0.2815558, -1457491.3, 163580.17, 0.18292536, 10.001481, 9.99864 
2.5603256e+3, 1.4457843e+2, -1528650.9, -1773842.0, 209362.17, 0.45459828, -0.045872092, -1408631.1, 114498.73, 0.1037245, 10.001001, 9.997637 
2.5599977e+3, 1.5457489e+2, -1391882.5, -1617307.1, 174269.19, -0.0069862613, 0.15430847, -1297052.5, 128124.26, 0.043632858, 10.00111, 9.997947 
2.5596666e+3, 1.6456985e+2, -1225939.9, -1411406.1, -222926.88, -0.20578717, 0.38745782, -1077227.8, 250002.38, 0.011545959, 10.001289, 9.998609 
2.5593328e+3, 1.7456232e+2, -1067233.3, -1251114.5, -229568.23, -0.1371034, 0.141683, -911879.2, 317420.03, 0.0013158798, 10.001592, 9.998865 
2.5590023e+3, 1.845546e+2, -1144751.3, -1473317.0, -7512.5093, 0.049967613, 0.14723034, -1144579.5, -13203.935, 0.000016496271, 10.001333, 9.996836 
2.558677e+3, 1.9454566e+2, -1027457.94, -1362994.5, -26012.158, 0.37534148, -0.052016594, -1025453.4, 8017.7295, 0.0, 10.001467, 9.996853 
2.558347e+3, 2.0453985e+2, -797547.3, -887623.75, -119914.37, 0.4105359, 0.123902395, -714492.25, 221037.17, 0.0, 10.00105, 9.999624 
2.558012e+3, 2.1453705e+2, -773211.44, -771279.3, -112515.234, 0.034789525, 0.23244907, -659726.0, 177825.45, 0.0, 10.000354, 10.000048 
2.5576797e+3, 2.2453225e+2, -818316.2, -988440.0, -39990.434, -0.10753556, 0.4161981, -809384.7, -69787.48, 0.0, 10.000348, 9.997949 
2.5573507e+3, 2.345238e+2, -586402.8, -792625.9, -13708.874, -0.04489638, 0.15534844, -585495.5, 56188.332, 0.0, 10.001164, 9.9981985 
2.5570202e+3, 2.445167e+2, -461021.4, -587821.8, -156180.16, 0.03863341, 0.14556256, -355863.53, 187888.39, 0.0, 10.000838, 9.999149 
2.5566876e+3, 2.5451025e+2, -543580.06, -538048.5, -160687.67, 0.09056856, -0.047138453, -380102.78, 65704.31, 0.0, 9.999472, 9.99945 
2.5563574e+3, 2.6450455e+2, -693641.0, -729681.56, 105425.5, 0.027259065, 0.08505597, -604706.8, -256847.67, 0.0, 9.998594, 9.997841 
2.5560305e+3, 2.7449834e+2, -355570.78, -488874.78, 109854.06, -0.17524955, 0.05433624, -293729.97, -43809.367, 0.0, 10.000137, 9.998081 
2.5557017e+3, 2.8449172e+2, -163603.06, -324015.53, -192311.08, -0.23768716, 0.12812679, -35442.813, 116543.68, 0.0, 10.000524, 9.998421 
2.5553703e+3, 2.944847e+2, -162424.67, -234836.95, -133652.47, -0.13226745, -0.06620761, -60161.08, -6104.0474, 0.0, 9.999741, 9.9987 
2.5550425e+3, 3.0447835e+2, -79335.58, 32701.979, -34593.203, 0.19701055, -0.086814545, 42522.348, 42522.348, 0.0, 9.999208, 10.000463 
2.554711e+3, 3.1447712e+2, -357239.38, -261583.2, -23039.646, -0.07358346, 0.08017409, -256323.14, -256323.14, 0.0, 9.99786, 9.999057 
2.5709817e+3, 1.2491877e+2, -1624341.4, -1685400.3, 88289.83, 0.3107891, -0.014906061, -1561451.6, 154349.08, 0.23823552, 10.000589, 9.999906 
2.570651e+3, 1.3491318e+2, -1109571.1, -1469569.0, -81264.81, 0.3115922, -0.07798531, -1092076.8, 525773.2, 0.16394834, 10.0046, 9.998863 
2.5703222e+3, 1.4490663e+2, -1141997.3, -1489684.6, 78073.07, 0.2613579, -0.020442173, -1125270.6, 394644.88, 0.09188186, 10.003402, 9.998473 
2.569993e+3, 1.5490192e+2, -1591742.3, -1672465.8, 97746.305, -0.0006597869, 0.051677603, -1526352.4, -104382.625, 0.03784501, 9.999384, 9.998473 
2.5696632e+3, 1.6489686e+2, -1506714.3, -1463982.1, -115459.305, -0.05971715, 0.21346153, -1367928.6, -43906.848, 0.009625426, 9.99893, 9.9994 
2.5693318e+3, 1.7489038e+2, -913410.6, -1148545.1, -91636.016, 0.052136946, 0.072838314, -881916.75, 344164.66, 0.0010124295, 10.002424, 9.999218 
2.5690013e+3, 1.8488385e+2, -746844.0, -1188155.5, 3726.0403, 0.12698875, 0.13842683, -746812.56, 381334.38, 0.000009793076, 10.003549, 9.9977665 
2.568673e+3, 1.9487652e+2, -832858.9, -1207416.6, 48692.676, 0.24303782, 0.08618662, -826632.3, 203593.63, 0.0, 10.002385, 9.997539 
2.5683418e+3, 2.0487055e+2, -679227.8, -838829.56, -26993.914, 0.23107922, 0.20162898, -674785.9, 257501.1, 0.0, 10.001762, 9.999659 
2.5680086e+3, 2.1486577e+2, -558864.2, -742474.3, -63099.004, 0.0693514, 0.21026562, -539270.6, 295060.2, 0.0, 10.001976, 9.999542 
2.567677e+3, 2.2486039e+2, -532057.5, -758157.7, -10497.177, -0.009016041, 0.3150766, -531571.25, 204811.45, 0.0, 10.001743, 9.9988985 
2.5673476e+3, 2.3485322e+2, -582398.56, -755980.4, 3841.0535, 0.03951352, 0.16136894, -582313.6, 56140.906, 0.0, 10.000822, 9.998693 
2.5670165e+3, 2.4484637e+2, -378819.7, -568058.06, -103593.8, 0.051042344, 0.15805383, -333137.53, 207382.75, 0.0, 10.001383, 9.99903 
2.5666833e+3, 2.5483942e+2, 33521.22, -330843.03, -156097.52, 0.0069724927, 0.0013542518, 91248.99, 533832.5, 0.0, 10.003626, 9.9988985 
2.5663528e+3, 2.6483318e+2, -11976.372, -332895.5, 101984.86, -0.06508667, 0.07109285, 17690.818, 362331.3, 0.0, 10.002862, 9.998517 
2.5660256e+3, 2.7482677e+2, -473272.16, -520395.9, 151532.89, -0.13254324, 0.009517769, -343480.25, -96778.734, 0.0, 9.999082, 9.998375 
2.565697e+3, 2.848206e+2, -476386.53, -441384.4, -46731.95, -0.118477106, 0.105060816, -408983.94, -260221.64, 0.0, 9.998182, 9.998716 
2.5653663e+3, 2.9481423e+2, -83052.36, -218128.83, -132414.3, -0.006395118, 0.0070530227, -1946.857, 48879.836, 0.0, 10.0002775, 9.998564 
2.5650358e+3, 3.0480626e+2, 18468.93, -65391.85, -105367.37, 0.05542752, -0.10812765, 89942.414, 89942.414, 0.0, 10.000366, 9.999265 
2.564706e+3, 3.148028e+2, -262769.47, -53080.617, -43328.582, 0.09658795, 0.0041223066, -44480.258, -44480.258, 0.0, 9.997538, 10.000717 
2.5809786e+3, 1.2524833e+2, -1735960.5, -1771139.8, -24749.754, 0.36304805, 0.43917096, -1723186.6, -10603.827, 0.21373183, 9.9998865, 9.999441 
2.5806484e+3, 1.3524222e+2, -1382743.4, -1544304.6, -82585.5, 0.18814053, 0.15300725, -1347999.6, 266633.3, 0.14603193, 10.002089, 9.999394 
2.5803193e+3, 1.4523481e+2, -1329479.4, -1500082.5, -87519.11, 0.1878074, 0.057334986, -1292568.3, 224134.11, 0.080827504, 10.00172, 9.999155 
2.5799888e+3, 1.5522863e+2, -1445074.4, -1574352.6, -126259.01, 0.10730994, -0.10005903, -1367870.1, 50895.35, 0.032553293, 10.000415, 9.998601 
2.5796595e+3, 1.6522357e+2, -1312235.9, -1336787.1, -78700.67, 0.17201374, 0.041924343, -1244859.3, 75955.99, 0.007938516, 10.000236, 9.999564 
2.5793314e+3, 1.7521834e+2, -1120969.3, -1263533.6, -66235.84, 0.3309191, -0.039510824, -1094946.1, 127918.14, 0.00076767127, 10.001163, 9.998969 
2.579001e+3, 1.852136e+2, -983048.56, -1191895.0, -97640.39, 0.28716776, 0.1745416, -944510.75, 180401.81, 0.000005913737, 10.001635, 9.998576 
2.5786677e+3, 1.9520865e+2, -1056490.8, -1236165.8, -73202.31, 0.071843185, 0.22913635, -1030443.1, -3476.6453, 0.0, 10.000714, 9.998056 
2.5783363e+3, 2.052023e+2, -967330.06, -1105923.4, -75106.35, 0.049740218, 0.34383515, -934435.75, -5404.2197, 0.0, 10.000444, 9.998407 
2.5780058e+3, 2.1519369e+2, -923810.25, -1074110.9, -84318.766, 0.15831164, 0.038350772, -886012.7, -54896.633, 0.0, 10.000224, 9.998074 
2.5776753e+3, 2.2518748e+2, -762024.06, -792259.75, -58743.957, 0.19431041, 0.110068895, -716483.9, 16692.568, 0.0, 10.000089, 9.999378 
2.5773445e+3, 2.3518232e+2, -763549.06, -803289.8, -29932.975, 0.16236542, 0.071556315, -747491.5, -112265.21, 0.0, 9.999628, 9.998876 
2.5770125e+3, 2.451769e+2, -617277.9, -772835.94, -35091.805, 0.024233956, 0.25566226, -609728.06, -72447.914, 0.0, 10.000325, 9.998059 
2.5766793e+3, 2.5517014e+2, -306641.84, -622140.25, -49814.22, -0.24705055, 0.17923698, -298963.53, 140384.5, 0.0, 10.001982, 9.9976425 
2.576348e+3, 2.6516318e+2, -140963.69, -250626.86, -44598.117, -0.31921503, 0.17838305, -125116.45, 216294.63, 0.0, 10.001458, 9.99974 
2.5760192e+3, 2.751555e+2, -511369.72, -433329.56, 23556.928, -0.20873588, -0.16243939, -426770.1, -183295.19, 0.0, 9.99847, 9.999244 
2.5756922e+3, 2.851503e+2, -605769.7, -627220.75, 23564.867, 0.037415694, 0.049889073, -590604.25, -445077.9, 0.0, 9.997937, 9.997523 
2.5753656e+3, 2.951459e+2, -255250.89, -469659.25, 10579.492, 0.31563395, 0.2516807, -254730.14, -207149.6, 0.0, 9.99991, 9.997002 
2.5750288e+3, 3.051372e+2, -144251.13, -291707.3, -185736.97, -0.19687732, 0.21196193, -18144.152, -18144.152, 0.0, 9.999985, 9.997864 
2.574694e+3, 3.151284e+2, -371638.4, -82631.05, -203186.47, -0.50351197, -0.07645143, 22196.48, 22196.48, 0.0, 9.996836, 10.000826 
2.590975e+3, 1.255712e+2, -1590295.8, -1567040.4, -49915.04, 0.2944811, 0.12352284, -1527416.6, 181999.78, 0.19077115, 10.000324, 10.0009165 
2.5906453e+3, 1.3556811e+2, -1503795.6, -1580812.9, -59635.992, 0.20988673, 0.17262872, -1471315.8, 140127.44, 0.12932457, 10.000877, 9.999752 
2.5903156e+3, 1.4556149e+2, -1380159.6, -1541659.4, -104623.19, 0.14611799, 0.14142096, -1328748.4, 184758.58, 0.07062259, 10.001304, 9.999116 
2.5899857e+3, 1.5555528e+2, -1104196.9, -1412555.3, -126296.86, 0.056599855, 0.034241807, -1059072.0, 356496.8, 0.027766839, 10.0027075, 9.998657 
2.5896558e+3, 1.655498e+2, -917623.2, -1097530.9, -176773.38, 0.05928407, 0.08952026, -809232.56, 508387.44, 0.0064744665, 10.002596, 10.000148 
2.5893268e+3, 1.7554429e+2, -1086348.3, -1203112.9, -150047.97, 0.20410408, -0.029485095, -983724.75, 235944.38, 0.0005723583, 10.001006, 9.99954 
2.588996e+3, 1.8553962e+2, -1084638.1, -1140114.8, -185022.19, 0.2026435, 0.101460196, -925286.56, 196429.16, 0.0000035552432, 10.000392, 9.999579 
2.5886634e+3, 1.955349e+2, -1012825.25, -1134018.9, -154378.38, 0.0567665, 0.13486448, -907576.75, 116190.29, 0.0, 10.0004635, 9.998963 
2.5883317e+3, 2.0552905e+2, -916667.2, -1003458.06, -153048.97, 0.046177782, 0.19761054, -800980.44, 124846.43, 0.0, 10.00034, 9.999216 
2.5880015e+3, 2.1552166e+2, -887985.44, -1013031.8, -110764.93, 0.19343871, 0.013545209, -823315.75, 4583.9805, 0.0, 10.000087, 9.99865 
2.587671e+3, 2.2551614e+2, -627453.1, -633633.56, -28812.254, 0.21101198, 0.06915382, -601565.8, 128387.97, 0.0, 10.000495, 10.000302 
2.58734e+3, 2.3551174e+2, -424408.88, -584060.3, -9255.468, 0.1313012, 0.08168256, -423874.1, 208122.36, 0.0, 10.001574, 9.999498 
2.587008e+3, 2.4550661e+2, -431336.47, -647759.4, -25692.742, -0.042536203, 0.24239373, -428328.16, 105720.01, 0.0, 10.001356, 9.998462 
2.5866744e+3, 2.555002e+2, -583236.4, -740688.06, -24975.049, -0.2919108, 0.22779272, -579369.8, -143255.38, 0.0, 9.999914, 9.997866 
2.586344e+3, 2.654929e+2, -297265.66, -331736.9, -12513.045, -0.2946112, 0.17762165, -293202.38, 44979.297, 0.0, 10.000268, 9.999814 
2.586016e+3, 2.7548456e+2, -15387.024, -230098.6, -67499.625, -0.025313908, -0.16935436, 4069.9033, 244322.22, 0.0, 10.001873, 9.999089 
2.5856888e+3, 2.8547978e+2, 19059.03, -185451.92, -19749.26, 0.23265061, 0.013008858, 20948.719, 163247.86, 0.0, 10.001523, 9.998866 
2.5853607e+3, 2.9547682e+2, -318205.28, -433622.28, 36089.645, 0.39100304, 0.28354853, -307849.6, -263511.25, 0.0, 9.999052, 9.997722 
2.5850222e+3, 3.0546921e+2, -274422.6, -302290.38, -34045.645, -0.25645453, 0.31029165, -251569.81, -251569.81, 0.0, 9.998872, 9.998348 
2.5846937e+3, 3.1545827e+2, -112506.47, 95239.03, 33797.316, 0.20327415, -0.15180631, 100599.09, 100599.09, 0.0, 9.998282, 10.001422 
2.600972e+3, 1.2589674e+2, -1674450.3, -1737732.0, -10241.092, 0.43461213, -0.029353328, -1672834.3, 33390.31, 0.16949552, 10.0004225, 9.999432 
2.600642e+3, 1.3589399e+2, -1525464.8, -1708927.3, -63128.45, 0.30414832, 0.09223954, -1505841.5, 102411.82, 0.11391175, 10.001295, 9.998628 
2.6003125e+3, 1.4588875e+2, -1359726.3, -1508243.5, 4458.973, 0.19232227, 0.25240532, -1359592.5, 150712.58, 0.061296463, 10.001525, 9.999111 
2.5999835e+3, 1.5588242e+2, -1265222.5, -1555974.1, -11641.493, 0.059931114, 0.12074416, -1264757.1, 147609.86, 0.023481611, 10.0019865, 9.9979515 
2.5996524e+3, 1.6587661e+2, -1034130.56, -1113835.1, -128784.83, 0.017597346, 0.17654273, -939172.9, 375246.4, 0.005220199, 10.001718, 10.00044 
2.5993213e+3, 1.7587076e+2, -1281609.8, -1314639.5, -144076.19, 0.0932672, -0.0149866855, -1153105.0, 63364.24, 0.00041937284, 9.999842, 9.999336 
2.5989902e+3, 1.8586548e+2, -1211318.4, -1142782.6, -124641.88, 0.13067478, 0.04765722, -1047783.8, 70737.13, 0.0000020172258, 9.99937, 10.000001 
2.5986588e+3, 1.9585982e+2, -1267949.6, -1251932.9, -139418.67, 0.10993849, -0.081192784, -1120292.8, -99711.25, 0.0, 9.998804, 9.998911 
2.5983274e+3, 2.05855e+2, -1030604.6, -939605.0, -143809.55, 0.13829567, 0.040674992, -834269.06, 88361.805, 0.0, 9.99923, 10.000116 
2.5979963e+3, 2.1585007e+2, -1038478.25, -1017922.6, -92078.24, 0.22014087, -0.01878433, -935550.4, -110871.32, 0.0, 9.998956, 9.999094 
2.5976652e+3, 2.258459e+2, -734137.25, -633284.25, 13772.307, 0.145105, 0.1387099, -631437.3, 95282.96, 0.0, 9.999671, 10.000652 
2.5973344e+3, 2.3584147e+2, -717322.25, -732051.94, 12822.428, -0.030180322, 0.07837604, -709900.06, -81135.48, 0.0, 9.999718, 9.999333 
2.5970024e+3, 2.4583633e+2, -623371.94, -697756.7, -92266.93, -0.16249011, 0.23739424, -561083.3, -30267.33, 0.0, 9.999979, 9.99874 
2.5966692e+3, 2.5582993e+2, -722754.44, -818175.3, -51026.574, -0.30114186, 0.15653294, -700607.94, -267727.28, 0.0, 9.999088, 9.997716 
2.5963405e+3, 2.6582235e+2, -481049.6, -563040.5, 40226.13, -0.16748732, 0.1610224, -464610.13, -129656.84, 0.0, 9.999763, 9.998423 
2.5960153e+3, 2.758131e+2, -257817.22, -511517.7, 13690.115, 0.19693452, -0.16836964, -257080.63, -20040.91, 0.0, 10.00099, 9.997576 
2.595686e+3, 2.8580856e+2, 35500.203, 55470.887, -128266.14, 0.2772754, 0.0063485624, 174139.77, 313222.63, 0.0, 10.000739, 10.000875 
2.5953513e+3, 2.9580712e+2, -320377.34, -240635.73, -57708.414, -0.0023187401, 0.2103867, -210364.23, -169265.4, 0.0, 9.99832, 9.999379 
2.595017e+3, 3.0579937e+2, -216222.84, -90534.23, -40241.1, -0.15878111, 0.056284245, -78754.45, -78754.45, 0.0, 9.998637, 9.9998455 
2.5946823e+3, 3.1579518e+2, -347534.06, -311745.03, 71702.61, -0.4268745, 0.10370936, -255737.73, -255737.73, 0.0, 9.998074, 9.998685 
2.6109675e+3, 1.2622729e+2, -1498142.6, -1576112.9, -27201.059, 0.21003278, 0.22297372, -1489591.0, 213398.81, 0.14988421, 10.001349, 10.000288 
2.6106396e+3, 1.362221e+2, -1352259.4, -1599208.3, 10192.113, 0.31560528, 0.1340411, -1351839.4, 253200.13, 0.09979623, 10.002368, 9.998933 
2.610311e+3, 1.4621706e+2, -1127117.8, -1216511.1, 77569.7, 0.2510942, 0.2024259, -1082288.8, 424797.56, 0.05285716, 10.0022955, 10.000895 
2.6099816e+3, 1.5621133e+2, -1097714.9, -1320369.9, 118470.52, 0.11787157, 0.020639464, -1046472.2, 362666.6, 0.019694533, 10.002336, 9.999478 
2.60965e+3, 1.6620606e+2, -1021157.25, -1130084.6, -58870.016, 0.07131277, 0.06831935, -995421.4, 315764.97, 0.004163879, 10.001793, 10.000315 
2.6093167e+3, 1.7620069e+2, -1201419.8, -1300182.3, -61633.18, 0.084788285, -0.01411695, -1171825.4, 41408.645, 0.00030229846, 10.000372, 9.999211 
2.6089847e+3, 1.8619502e+2, -1202009.6, -1201208.6, -39584.004, 0.121705115, 0.04899498, -1162023.1, -46731.035, 0.0000010444409, 9.999566, 9.999576 
2.6086533e+3, 1.9618867e+2, -1253084.5, -1272444.0, -65353.66, 0.15334742, -0.050298773, -1196697.6, -179336.19, 0.0, 9.998835, 9.998823 
2.6083222e+3, 2.0618425e+2, -854483.56, -737795.7, -27895.197, 0.15672028, 0.045089286, -731470.0, 187935.75, 0.0, 9.999783, 10.001282 
2.607991e+3, 2.1618055e+2, -583506.8, -696759.75, 15587.756, 0.15251124, 0.040114433, -581400.5, 240038.64, 0.0, 10.001467, 10.00013 
2.6076603e+3, 2.2617608e+2, -530427.75, -607422.06, 24623.205, 0.082918465, 0.1485492, -523226.63, 200257.52, 0.0, 10.001229, 10.000142 
2.6073292e+3, 2.361708e+2, -754273.8, -792350.7, -21643.64, -0.016637132, 0.103823744, -744486.75, -118947.086, 0.0, 9.999438, 9.999123 
2.6069978e+3, 2.4616575e+2, -466847.66, -452454.47, -20852.219, -0.13377441, 0.18410243, -437591.9, 89996.445, 0.0, 10.000233, 10.000314 
2.6066658e+3, 2.561603e+2, -74411.23, -381648.13, 36479.625, -0.24915843, 0.10305412, -70139.234, 359499.84, 0.0, 10.002839, 9.998959 
2.6063374e+3, 2.6615316e+2, -61056.34, -362959.03, 135206.39, -0.07491218, 0.095799685, -9357.549, 322350.06, 0.0, 10.00253, 9.998521 
2.6060122e+3, 2.761446e+2, -402883.7, -579474.7, 136952.8, 0.33923292, -0.11163641, -328230.84, -94439.086, 0.0, 9.999864, 9.997691 
2.6056805e+3, 2.861401e+2, -189399.7, -63652.098, -2538.5786, 0.2680798, 0.07289128, -63600.87, 72235.0, 0.0, 9.999203, 10.000794 
2.605343e+3, 2.9613832e+2, -149299.84, -162313.08, -88658.58, -0.21020785, 0.3001564, -66909.445, -29055.729, 0.0, 9.999413, 9.9994135 
2.6050124e+3, 3.0612874e+2, 161127.28, 236890.36, -46688.6, -0.043424666, -0.13304739, 259132.33, 259132.33, 0.0, 10.000393, 10.001301 
2.6046848e+3, 3.1612894e+2, -98866.945, -342422.16, -75204.875, 0.42886677, 0.25061852, -77516.78, -77516.78, 0.0, 10.000327, 9.997369 
2.6209638e+3, 1.265561e+2, -1550565.8, -1516349.6, 1310.6245, 0.15438792, 0.33492267, -1516299.5, 183472.92, 0.13183987, 10.000746, 10.000917 
2.620637e+3, 1.3655098e+2, -1576510.4, -1661476.3, -2664.2551, 0.38299072, 0.16485916, -1576427.0, 25390.256, 0.08692974, 10.000617, 9.999257 
2.6203087e+3, 1.4654611e+2, -1284213.6, -1166119.8, 70320.16, 0.36886215, 0.16594912, -1133343.6, 370515.7, 0.045284748, 10.000579, 10.002078 
2.61998e+3, 1.5654103e+2, -1363692.6, -1360212.0, 28447.748, 0.25957692, -0.09584671, -1333451.4, 72451.914, 0.01638905, 10.000141, 10.000267 
2.619647e+3, 1.6653661e+2, -1222600.3, -1242596.1, -136473.86, 0.18788177, 0.006818007, -1095758.6, 212184.22, 0.0032885466, 10.000606, 10.000057 
2.6193124e+3, 1.7653188e+2, -1316190.6, -1434506.1, -118111.49, 0.14522617, -0.0044203172, -1243250.1, -33263.098, 0.00021471751, 10.000028, 9.998438 
2.6189798e+3, 1.865259e+2, -1187890.9, -1279861.9, -58858.23, 0.18438394, 0.09914104, -1159184.0, -47133.035, 0.00000047553752, 10.000108, 9.998738 
2.6186478e+3, 1.965191e+2, -1322969.5, -1418224.4, -74048.54, 0.24752718, 0.014514106, -1282554.0, -268427.16, 0.0, 9.9989605, 9.997741 
2.618317e+3, 2.0651495e+2, -839545.8, -640276.94, 13876.466, 0.1639726, 0.1433447, -639315.25, 276852.06, 0.0, 9.999634, 10.0019655 
2.6179862e+3, 2.165118e+2, -879373.56, -832220.2, 606.4977, 0.014916793, 0.09354018, -832212.44, -14019.87, 0.0, 9.999553, 10.000093 
2.6176554e+3, 2.2650672e+2, -789542.2, -811098.1, -74966.484, 0.005067339, 0.19097595, -724582.8, -4338.37, 0.0, 9.999974, 9.999276 
2.617324e+3, 2.3650032e+2, -1016178.7, -1009321.1, -54150.555, 0.035613578, 0.091512576, -958490.9, -336176.66, 0.0, 9.998218, 9.998173 
2.6169932e+3, 2.4649559e+2, -477600.38, -271196.44, 80262.53, -0.09701692, 0.15202627, -243659.27, 280697.66, 0.0, 9.99951, 10.001841 
2.616663e+3, 2.564913e+2, -299600.53, -387909.78, 101613.11, -0.31111652, 0.017233605, -232963.22, 193426.28, 0.0, 10.000997, 9.999757 
2.6163343e+3, 2.664857e+2, -210977.94, -361088.2, 15586.871, -0.11839833, 0.08722363, -209376.53, 119066.33, 0.0, 10.001286, 9.999068 
2.6160067e+3, 2.764788e+2, -537326.3, -650742.6, 67268.06, 0.25693762, -0.04070864, -506052.6, -275539.6, 0.0, 9.999063, 9.997551 
2.615673e+3, 2.8647417e+2, -356633.1, -321585.72, 3127.5344, 0.0667295, 0.22627302, -321308.8, -188746.83, 0.0, 9.998957, 9.999087 
2.6153356e+3, 2.9647037e+2, -331993.7, -428633.0, -31910.854, -0.4693054, 0.40116158, -322407.47, -287804.03, 0.0, 9.999012, 9.997768 
2.615007e+3, 3.06459e+2, 136776.52, 341672.63, -28741.754, -0.15035589, -0.20088242, 345628.0, 345628.0, 0.0, 9.999797, 10.002295 
2.6146755e+3, 3.1646055e+2, -89269.77, -223010.86, 38500.895, -0.194314, 0.21619052, -78978.23, -78978.23, 0.0, 10.000001, 9.99835 
2.6309636e+3, 1.268822e+2, -1404299.3, -1339812.4, -76566.71, 0.39016187, 0.15114433, -1288977.0, 407602.84, 0.11528824, 10.001192, 10.002105 
2.6306307e+3, 1.3687956e+2, -1537505.8, -1530152.6, 5790.5767, 0.12895489, 0.11906062, -1526970.0, 71626.03, 0.07524984, 10.00021, 10.000464 
2.6303014e+3, 1.4687598e+2, -1433163.6, -1298885.5, 63090.39, 0.10917029, 0.22446467, -1273893.9, 226734.75, 0.038529176, 9.999694, 10.001594 
2.6299745e+3, 1.5687141e+2, -1442082.9, -1394131.4, -2635.7458, 0.22874297, 0.08459325, -1393986.9, 8686.955, 0.013527696, 9.999444, 10.000426 
2.629643e+3, 1.6686736e+2, -1133951.8, -1049047.8, -143698.03, 0.23217618, 0.124589525, -941662.2, 363047.06, 0.0025719018, 10.000437, 10.001539 
2.629309e+3, 1.7686327e+2, -981288.75, -1138579.5, -70141.766, 0.17053474, 0.06528084, -954554.06, 252189.27, 0.00015054179, 10.001583, 9.999776 
2.6289764e+3, 1.8685725e+2, -883512.7, -1203665.5, -47302.215, 0.18154995, 0.13880542, -876670.1, 232135.64, 0.0000001940375, 10.002372, 9.998203 
2.6286438e+3, 1.9685e+2, -850128.06, -1233576.0, -45904.055, 0.18705282, 0.08278166, -844709.3, 166175.86, 0.0, 10.002186, 9.997513 
2.6283118e+3, 2.0684499e+2, -682744.25, -716865.4, -22743.059, 0.08547114, 0.2013759, -671374.0, 241563.67, 0.0, 10.001251, 10.000734 
2.62798e+3, 2.168409e+2, -832750.3, -867512.2, -87217.37, -0.066279784, 0.21306711, -761198.9, 53778.996, 0.0, 9.999932, 9.999742 
2.6276496e+3, 2.2683614e+2, -616072.44, -559647.4, -105852.76, -0.042350326, 0.24652421, -478311.94, 238711.19, 0.0, 10.000293, 10.000909 
2.6273194e+3, 2.3683085e+2, -438159.63, -565825.25, -2150.1394, 0.07000533, 0.1338797, -438123.44, 180950.83, 0.0, 10.001268, 9.999814 
2.6269892e+3, 2.4682613e+2, -309983.28, -245243.53, 97250.63, -0.0061077606, 0.1424287, -175117.1, 345998.97, 0.0, 10.00075, 10.0014925 
2.6266593e+3, 2.568216e+2, -535201.75, -480161.63, 23216.043, -0.17296745, 0.045216177, -471677.0, -48523.496, 0.0, 9.999121, 10.000089 
2.62633e+3, 2.6681668e+2, -420442.22, -327562.66, -69276.42, -0.049753647, 0.08685206, -290600.53, 34598.02, 0.0, 9.999187, 10.000335 
2.6260003e+3, 2.7681124e+2, -339200.3, -429873.9, -22600.236, 0.2246242, 0.01489076, -333879.47, -106628.43, 0.0, 9.999745, 9.998779 
2.625667e+3, 2.86806e+2, -148108.61, -279180.72, 15551.096, 0.039242648, 0.17740615, -146288.81, -16982.445, 0.0, 10.000517, 9.998679 
2.6253313e+3, 2.9680067e+2, -72711.3, -306622.72, 16259.379, -0.36139748, 0.26850873, -71586.51, -40222.24, 0.0, 10.000709, 9.997832 
2.6250026e+3, 3.067906e+2, 211280.77, 278459.3, -36569.805, -0.06335827, -0.18009762, 294524.75, 294524.75, 0.0, 10.000652, 10.001483 
2.6246786e+3, 3.167857e+2, -176329.39, -22750.66, -34803.313, 0.70317954, -0.29261795, -15231.798, -15231.798, 0.0, 9.998222, 10.000627 
2.640963e+3, 1.2721148e+2, -1286937.1, -1239246.0, 103629.51, 0.64332896, 0.09690287, -1156754.0, 536599.5, 0.10017185, 10.00194, 10.002452 
2.6406246e+3, 1.3720953e+2, -1413499.9, -1469604.1, 32051.92, -0.0028375352, 0.08574832, -1398958.0, 196403.02, 0.06469282, 10.001215, 10.000401 
2.640295e+3, 1.472066e+2, -1381400.0, -1352759.1, 125991.35, -0.023829728, 0.29853135, -1240277.0, 257113.95, 0.032530583, 10.000547, 10.0007105 
2.6399693e+3, 1.5720214e+2, -1536841.5, -1536124.9, 47614.1, 0.25145254, 0.24204098, -1488867.6, -89426.39, 0.011066901, 9.999331, 9.9994545 
2.6396388e+3, 1.6719837e+2, -1091569.9, -873573.9, -56523.48, 0.2951892, 0.26320598, -859789.7, 441683.72, 0.0019930317, 10.000136, 10.002838 
2.639306e+3, 1.7719477e+2, -1159370.1, -1191067.1, -64033.348, 0.22811691, 0.11965566, -1109253.1, 94246.15, 0.00010503105, 10.000291, 10.000031 
2.638973e+3, 1.8718886e+2, -1108322.0, -1310852.5, -51019.797, 0.17655335, 0.19192404, -1096195.5, 9362.741, 0.00000008640195, 10.001084, 9.997949 
2.6386398e+3, 1.9718154e+2, -1175610.5, -1506811.1, -49177.926, 0.12504362, 0.14089313, -1168462.6, -160826.53, 0.0, 10.000664, 9.996302 
2.638307e+3, 2.0717545e+2, -887296.4, -1011980.44, -17813.658, 0.0139859915, 0.3033165, -884801.3, 24902.803, 0.0, 10.000753, 9.998918 
2.6379743e+3, 2.171698e+2, -1129231.8, -1179023.6, -49850.594, -0.10634387, 0.3147528, -1098406.3, -286638.16, 0.0, 9.998709, 9.99819 
2.6376444e+3, 2.271657e+2, -586086.4, -290600.53, -21628.027, -0.07238997, 0.33647513, -289025.88, 424775.84, 0.0, 9.999509, 10.003071 
2.6373148e+3, 2.3716208e+2, -670928.94, -578135.7, 26782.719, 0.035464097, 0.15610145, -570960.3, 44864.207, 0.0, 9.999351, 10.000633 
2.6369852e+3, 2.4715725e+2, -548344.1, -498017.56, 25036.277, 0.05208066, 0.1953024, -487684.28, 30184.416, 0.0, 9.99983, 10.000148 
2.6366547e+3, 2.5715157e+2, -803729.1, -738160.7, -11214.027, -0.016147722, 0.085741274, -736295.8, -316371.38, 0.0, 9.997944, 9.99887 
2.6363245e+3, 2.671469e+2, -422593.0, -154364.6, -54982.656, 0.016087519, 0.103233464, -143531.52, 178433.64, 0.0, 9.998552, 10.0017805 
2.6359943e+3, 2.771424e+2, -484630.9, -425340.6, 7520.375, 0.08274046, -0.03491637, -424401.56, -200399.34, 0.0, 9.998538, 9.999384 
2.6356626e+3, 2.8713608e+2, -246663.61, -300043.06, 14268.402, 0.05713651, -0.0100545045, -243089.03, -117023.945, 0.0, 9.999821, 9.998839 
2.6353297e+3, 2.9712903e+2, -221169.6, -429746.84, 31315.123, -0.1367186, -0.12017367, -216569.5, -188430.88, 0.0, 9.999987, 9.997332 
2.6349986e+3, 3.0712342e+2, 20876.15, -70690.9, -85612.22, -0.016950872, 0.013853307, 72178.07, 72178.07, 0.0, 10.000537, 9.999093 
2.634668e+3, 3.171201e+2, -449146.25, -574437.3, -37244.496, 0.18558918, 0.28910765, -438910.97, -438910.97, 0.0, 9.998231, 9.996814 
2.6509574e+3, 1.2755178e+2, -1308953.3, -1574439.5, 190877.45, 0.14763108, 0.35437775, -1209199.1, 480810.78, 0.08643013, 10.003141, 9.9993515 
2.650626e+3, 1.375436e+2, -1285465.0, -1661140.5, 135187.56, 0.29731846, 0.07904782, -1241875.3, 350211.34, 0.055199515, 10.003083, 9.998223 
2.6502943e+3, 1.4753859e+2, -1190418.4, -1297195.4, 171920.42, 0.22761291, 0.17953444, -1063787.5, 430349.03, 0.027235242, 10.001952, 10.000466 
2.6499638e+3, 1.5753372e+2, -1397183.9, -1497389.3, 142913.56, 0.13785529, 0.14276914, -1295844.9, 100342.12, 0.0089680515, 10.000278, 9.9993 
2.6496324e+3, 1.6752979e+2, -1151340.4, -1051159.3, 19045.31, 0.11667474, 0.23879369, -1047660.75, 250563.66, 0.0015322798, 10.000362, 10.00151 
2.6493e+3, 1.7752588e+2, -1152639.8, -1231267.6, -57067.62, 0.065665156, 0.22011459, -1122655.1, 77604.3, 0.00007382683, 10.000397, 9.99974 
2.6489684e+3, 1.8751946e+2, -1032241.3, -1104403.0, -35595.67, 0.1083778, 0.16042726, -1017638.0, 84681.99, 0.000000036839044, 10.000787, 9.99957 
2.648636e+3, 1.9751208e+2, -975294.8, -1218498.6, 36457.46, 0.137659, -0.016196294, -969947.25, 34444.22, 0.0, 10.001058, 9.9981365 
2.6483032e+3, 2.0750694e+2, -775110.25, -940068.25, 86974.984, 0.054033376, 0.15448107, -737725.06, 168723.9, 0.0, 10.001304, 9.999193 
2.6479697e+3, 2.1750252e+2, -750816.7, -944688.56, 139718.06, -0.09648661, 0.30423552, -677700.56, 130801.39, 0.0, 10.000925, 9.998768 
2.6476392e+3, 2.2749738e+2, -469662.97, -342353.6, 135310.84, -0.08361251, 0.26572788, -256472.53, 454073.53, 0.0, 10.000655, 10.00223 
2.64731e+3, 2.3749208e+2, -517163.9, -540393.6, 66118.99, 0.0047987904, 0.03907408, -461647.38, 150938.27, 0.0, 10.000383, 10.000455 
2.6469806e+3, 2.4748722e+2, -476624.63, -510431.6, 48181.55, 0.07180072, 0.10018989, -442467.47, 72165.09, 0.0, 10.00039, 9.999861 
2.6466507e+3, 2.574821e+2, -437326.6, -558413.9, 24415.473, 0.1260201, 0.121323526, -432588.94, -15902.826, 0.0, 10.000245, 9.999056 
2.6463187e+3, 2.6747695e+2, -313713.72, -101240.21, -52485.04, 0.058835644, 0.07625709, -88982.55, 229748.84, 0.0, 9.999175, 10.001879 
2.6459867e+3, 2.7747184e+2, -588359.25, -417659.1, -66954.68, 0.03867393, -0.11114936, -394530.75, -173757.44, 0.0, 9.99741, 10.000014 
2.6456568e+3, 2.874665e+2, -353213.0, -298386.88, 11530.359, 0.07167825, -0.06258096, -296060.66, -173234.27, 0.0, 9.998754, 9.999388 
2.6453263e+3, 2.9746088e+2, -92351.45, -304743.0, 12739.715, 0.013404668, -0.058604725, -91590.03, -66704.6, 0.0, 10.000473, 9.997965 
2.6449943e+3, 3.0745545e+2, 99853.14, -62237.664, -55117.383, 0.007982121, 0.0735353, 116819.39, 116819.39, 0.0, 10.001117, 9.998903 
2.6446614e+3, 3.174492e+2, -18576.066, -269355.0, 122260.52, 0.06399004, 0.10128947, 31163.43, 31163.43, 0.0, 10.000598, 9.997807 
2.6609525e+3, 1.2789011e+2, -1912192.1, -2118395.5, 54181.83, -0.082829, 0.51912564, -1898822.3, -212135.95, 0.073999934, 9.999957, 9.996967 
2.660627e+3, 1.37878e+2, -1543622.9, -2063647.9, 66058.59, 0.65893066, 0.0267669, -1535362.6, 53444.863, 0.04671151, 10.002477, 9.995695 
2.660294e+3, 1.4787152e+2, -1160615.6, -1277782.1, 122223.54, 0.5007658, 0.07752866, -1083660.8, 407210.0, 0.022592498, 10.002314, 10.000373 
2.659959e+3, 1.578665e+2, -1501602.1, -1649358.1, 81787.12, 0.12169401, 0.03924548, -1465266.3, -72347.484, 0.0071954923, 10.000143, 9.998313 
2.6596263e+3, 1.6786177e+2, -1235132.8, -1307033.5, 62196.363, 0.00059760176, 0.21147548, -1199244.4, 95723.734, 0.001170623, 10.00081, 9.9994955 
2.6592943e+3, 1.778571e+2, -1254675.1, -1427094.8, -11407.825, -0.020094458, 0.2931732, -1253923.6, -56906.07, 0.00005271245, 10.000501, 9.998306 
2.6589635e+3, 1.8785013e+2, -908483.44, -848847.6, -6190.69, 0.08161345, 0.11016536, -848211.75, 250868.78, 0.000000014947995, 10.0008745, 10.001248 
2.658633e+3, 1.9784266e+2, -1180642.6, -1219020.3, 23942.19, 0.2455187, -0.24692565, -1169148.6, -168002.73, 0.0, 9.999364, 9.998938 
2.6582998e+3, 2.0783925e+2, -849640.9, -855593.0, 46039.273, 0.13444528, -0.008413925, -806481.56, 96701.32, 0.0, 10.000513, 10.00002 
2.6579657e+3, 2.1783684e+2, -984797.06, -1118633.9, 79429.58, -0.07391764, 0.24650694, -947854.4, -142640.28, 0.0, 9.999813, 9.998027 
2.6576343e+3, 2.2783005e+2, -699775.2, -668275.75, 90060.37, -0.10321206, 0.17916282, -592598.3, 114678.5, 0.0, 10.000175, 10.000112 
2.657304e+3, 2.3782182e+2, -966106.44, -989215.25, 37474.332, -0.06803333, -0.16393681, -938445.7, -329096.1, 0.0, 9.99848, 9.99824 
2.656975e+3, 2.4781719e+2, -661496.0, -590767.1, 29502.322, 0.049129516, -0.01005651, -580076.9, -68680.29, 0.0, 9.999204, 9.999824 
2.6566458e+3, 2.5781345e+2, -803419.0, -818871.2, 14835.6455, 0.1296481, 0.13309401, -794418.25, -380980.2, 0.0, 9.99826, 9.998183 
2.656312e+3, 2.6780733e+2, -507056.44, -271954.25, -103670.37, 0.010401329, 0.06601531, -232770.53, 82723.61, 0.0, 9.998371, 10.000998 
2.6559776e+3, 2.778005e+2, -760132.75, -593474.8, -49417.637, -0.1305887, -0.2305149, -579923.4, -362368.25, 0.0, 9.996799, 9.999052 
2.6556495e+3, 2.8779775e+2, -330935.94, -175442.81, 97504.27, -0.07067767, 0.04681062, -128483.266, -8899.152, 0.0, 9.998584, 10.000232 
2.655321e+3, 2.9779613e+2, -179828.36, -297566.7, 82838.414, -0.14485173, 0.36230883, -137071.83, -115467.49, 0.0, 9.99981, 9.998297 
2.6549888e+3, 3.0778575e+2, 123849.48, 81325.836, -84146.8, -0.13714223, -0.0968961, 189379.06, 189379.06, 0.0, 10.000796, 9.999988 
2.6546556e+3, 3.1777754e+2, 2255.456, -64335.3, 245992.44, -0.19974212, -0.41475558, 217195.56, 217195.56, 0.0, 9.999998, 9.9994755 
2.670949e+3, 1.2821577e+2, -1814097.6, -1650930.5, -4415.234, 0.007915292, 0.025112778, -1650811.1, 32680.365, 0.062782116, 9.998716, 10.000855 
2.670622e+3, 1.3821007e+2, -1293852.1, -1623999.6, 143242.4, 0.2691245, -0.13816927, -1240367.6, 345174.56, 0.039146993, 10.002797, 9.998624 
2.67029e+3, 1.4820507e+2, -1091491.9, -1276263.0, 90117.766, 0.3000186, -0.024224358, -1054818.1, 432773.5, 0.018543638, 10.002922, 10.000099 
2.6699567e+3, 1.5820013e+2, -1299599.3, -1558724.0, 103325.37, 0.23653503, 0.007996774, -1263443.4, 126199.086, 0.005710664, 10.001461, 9.998325 
2.6696244e+3, 1.6819419e+2, -1027168.94, -1281031.8, 150713.08, 0.106505066, 0.088875405, -957057.2, 334648.25, 0.0008890518, 10.002419, 9.998933 
2.669292e+3, 1.7818807e+2, -839891.1, -1244447.3, 91930.99, -0.050974052, 0.099913426, -819980.7, 373789.78, 0.000037964888, 10.003254, 9.99825 
2.6689595e+3, 1.8818243e+2, -757634.6, -824739.1, -20000.785, 0.04129698, 0.08289039, -752125.56, 343698.75, 0.0000000057994387, 10.001973, 10.000947 
2.6686272e+3, 1.9817682e+2, -1098211.9, -1138348.5, -8564.994, 0.19850896, -0.043478873, -1096460.5, -98584.77, 0.0, 9.999578, 9.999425 
2.6682946e+3, 2.0817287e+2, -761938.0, -790834.6, 62856.254, 0.06816428, 0.110044785, -711890.9, 188025.03, 0.0, 10.000986, 10.000276 
2.667962e+3, 2.1816906e+2, -451409.94, -832102.2, 15225.224, -0.15664338, 0.2370187, -450802.0, 351154.28, 0.0, 10.003157, 9.998442 
2.66763e+3, 2.2816196e+2, -571293.8, -758847.8, -51822.902, -0.104150526, 0.19989805, -557927.25, 146097.2, 0.0, 10.0015545, 9.998906 
2.6672992e+3, 2.3815383e+2, -898628.56, -973343.94, -52900.348, 0.042808056, 0.006550915, -871224.8, -265123.97, 0.0, 9.99882, 9.998239 
2.6669693e+3, 2.4814872e+2, -733069.0, -510611.94, 25656.922, 0.13764513, 0.039335694, -507691.2, 458.23022, 0.0, 9.998102, 10.000949 
2.6666394e+3, 2.5814462e+2, -759517.8, -668007.0, 55192.43, 0.18966818, 0.066140234, -642070.3, -231880.98, 0.0, 9.9978485, 9.999449 
2.6663056e+3, 2.681391e+2, -403597.03, -290250.13, -3178.789, 0.03015088, 0.045718517, -290161.03, 22080.746, 0.0, 9.999217, 10.0005455 
2.6659718e+3, 2.781329e+2, -199712.94, -306912.16, 41396.99, -0.09868664, -0.111193076, -185587.89, 28712.512, 0.0, 10.000431, 9.999318 
2.6656437e+3, 2.8812924e+2, -210763.6, -105438.54, 156106.36, -0.027454339, 0.06107851, 6648.8643, 122985.555, 0.0, 9.999208, 10.000509 
2.6653156e+3, 2.981265e+2, -601428.8, -456017.38, 94417.88, -0.008412496, 0.26824352, -409555.72, -391190.4, 0.0, 9.996555, 9.998845 
2.6649827e+3, 3.0811736e+2, -171975.66, -64937.63, -86527.27, -0.18273295, -0.082571246, -16715.531, -16715.531, 0.0, 9.998764, 9.999979 
2.664651e+3, 3.1811127e+2, 128623.2, 160676.78, 67360.414, -0.19021122, -0.17914931, 213890.75, 213890.75, 0.0, 10.000025, 10.001052 
2.6809463e+3, 1.2854345e+2, -1321327.3, -1107843.5, 243777.38, 0.25067827, -0.25589892, -948462.75, 731814.44, 0.05267765, 10.000942, 10.003683 
2.6806167e+3, 1.3854258e+2, -1434306.1, -1517811.3, 95602.0, 0.034529097, -0.24594423, -1371737.0, 210538.27, 0.03242507, 10.0011425, 10.00009 
2.6802853e+3, 1.4853875e+2, -1323163.9, -1430853.3, -42038.06, 0.14541085, -0.0725511, -1308697.1, 175617.75, 0.015032841, 10.001525, 9.999607 
2.6799545e+3, 1.5853369e+2, -1499909.0, -1739028.8, 3037.5828, 0.3955275, -0.034411583, -1499870.4, -113500.25, 0.0044764117, 10.000554, 9.997481 
2.6796225e+3, 1.6852689e+2, -1225924.8, -1357888.0, 153729.38, 0.25083175, -0.025703665, -1124615.4, 163825.67, 0.00066900725, 10.00116, 9.998941 
2.6792902e+3, 1.785199e+2, -1307239.6, -1540341.4, 86643.77, 0.016259493, -0.103255145, -1278562.3, -88048.69, 0.000027210404, 10.000506, 9.997521 
2.6789558e+3, 1.8851592e+2, -925097.5, -996374.0, -86092.53, 0.028797839, 0.114400804, -867558.44, 224998.2, 0.000000001728097, 10.001344, 10.00002 
2.678621e+3, 1.9851267e+2, -1147564.6, -1298246.0, -41550.53, 0.13115686, 0.31154007, -1136866.5, -142274.73, 0.0, 9.999988, 9.998096 
2.6782894e+3, 2.0850697e+2, -781622.2, -827641.0, 129962.7, -0.021273114, 0.33202374, -672647.75, 223999.4, 0.0, 10.00104, 9.999952 
2.6779586e+3, 2.1850066e+2, -940390.6, -1181390.1, 16874.916, -0.23419617, 0.23657481, -939214.75, -140506.92, 0.0, 10.000412, 9.997356 
2.6776263e+3, 2.2849388e+2, -783719.1, -951847.0, -154616.17, -0.07833471, 0.2963587, -691791.9, 8983.627, 0.0, 10.000559, 9.998015 
2.677294e+3, 2.3848706e+2, -1123394.8, -1173581.8, -96727.58, 0.1790677, 0.30276787, -1048558.75, -445715.03, 0.0, 9.997821, 9.997322 
2.676963e+3, 2.4848115e+2, -661873.1, -302243.8, 25961.738, 0.22100136, 0.16665319, -300379.3, 204515.64, 0.0, 9.998006, 10.002315 
2.6766318e+3, 2.584758e+2, -930896.1, -724076.94, 61656.55, 0.1550779, -0.0823449, -707091.06, -300151.72, 0.0, 9.996705, 9.999574 
2.6762995e+3, 2.6847205e+2, -500455.03, -381920.13, 28102.943, 0.015107989, 0.081757344, -375594.84, -66618.06, 0.0, 9.998843, 10.000046 
2.6759672e+3, 2.7846807e+2, -417622.34, -519548.16, 36044.664, -0.104482226, 0.18540314, -406163.8, -195145.56, 0.0, 9.999484, 9.99831 
2.6756388e+3, 2.884603e+2, -294449.4, -170634.2, 33980.26, 0.058906794, -0.020842921, -161921.63, -48830.816, 0.0, 9.99881, 10.000209 
2.6753092e+3, 2.9845262e+2, -761165.4, -637048.25, 58497.41, 0.134497, -0.2935648, -613823.7, -598661.0, 0.0, 9.995998, 9.997861 
2.6749766e+3, 3.0845144e+2, -279474.94, -275383.8, 26988.383, -0.18223146, 0.26414585, -250363.6, -250363.6, 0.0, 9.998768, 9.99851 
2.6746476e+3, 3.1844315e+2, -4052.2798, 81042.68, -20162.299, -0.15518038, 0.067306146, 85578.17, 85578.17, 0.0, 9.9993105, 10.000828 
2.6909444e+3, 1.2888148e+2, -1288979.8, -1540761.1, 170205.2, 0.13674137, 0.09725306, -1203167.3, 473795.94, 0.043619167, 10.003113, 9.999472 
2.690616e+3, 1.3887537e+2, -1676761.1, -1873903.4, -18527.986, 0.31077623, -0.025831692, -1675034.9, -96007.55, 0.02648621, 10.000346, 9.998049 
2.6902816e+3, 1.4887075e+2, -1406964.4, -1455195.9, -104220.33, 0.13896973, 0.11191597, -1324106.1, 156970.52, 0.012009438, 10.000744, 9.999884 
2.6899475e+3, 1.5886617e+2, -1268968.6, -1476391.0, -60912.074, 0.016594734, 0.16327934, -1252403.9, 130721.19, 0.003455713, 10.001305, 9.998969 
2.6896173e+3, 1.6886088e+2, -1126354.3, -1068898.0, 94376.38, 0.13623056, 0.109716564, -998974.2, 286198.6, 0.00049606664, 10.000623, 10.001274 
2.689287e+3, 1.7885543e+2, -1377537.1, -1452170.4, 136881.63, 0.19960499, 0.00020102596, -1272976.6, -85755.09, 0.00001910138, 9.9993105, 9.998758 
2.688953e+3, 1.8884964e+2, -911132.9, -1167573.5, 18947.566, 0.11574774, 0.10533771, -909740.5, 179542.89, 0.0000000002885943, 10.00203, 9.998593 
2.6886183e+3, 1.9884425e+2, -499602.94, -1059633.8, -1549.5105, 0.0071964995, 0.24033956, -499598.66, 491743.88, 0.0, 10.004583, 9.997557 
2.6882863e+3, 2.0883776e+2, -581792.1, -799282.2, 62704.54, -0.034319103, 0.23994838, -565008.94, 328396.03, 0.0, 10.002577, 9.999458 
2.6879552e+3, 2.1883096e+2, -1011463.5, -1154399.4, -15423.827, -0.07007349, 0.14818944, -1009818.06, -214349.23, 0.0, 9.999501, 9.998007 
2.6876226e+3, 2.2882415e+2, -690423.7, -795806.75, -71481.35, 0.02816363, 0.12312143, -654312.2, 43221.59, 0.0, 10.000581, 9.999171 
2.6872894e+3, 2.3881774e+2, -386719.34, -692164.2, 31479.9, 0.18440144, 0.095249444, -383508.7, 216086.89, 0.0, 10.002164, 9.9985895 
2.6869574e+3, 2.488121e+2, -237814.2, -231251.27, 51837.426, 0.19746554, 0.028297853, -182591.55, 319056.16, 0.0, 10.001354, 10.00128 
2.6866257e+3, 2.5880662e+2, -473510.66, -563005.8, -9835.016, 0.16455227, -0.09725323, -472442.6, -68744.93, 0.0, 9.999938, 9.999167 
2.6862943e+3, 2.688029e+2, -314050.53, -384761.56, -40188.08, 0.04857277, 0.13669896, -295879.47, 9860.036, 0.0, 10.000426, 9.999326 
2.6859635e+3, 2.7879924e+2, -219564.2, -421054.3, -87251.195, -0.021812651, 0.34993502, -187033.83, 20748.441, 0.0, 10.000726, 9.998401 
2.6856333e+3, 2.887907e+2, 21772.318, 3887.85, -120505.914, 0.06787975, 0.032597627, 133667.33, 243526.98, 0.0, 10.000815, 10.000459 
2.6853025e+3, 2.987819e+2, -175393.5, -371369.63, -61714.625, 0.15889782, -0.3485496, -157578.47, -145640.17, 0.0, 9.999987, 9.997769 
2.684971e+3, 3.0878216e+2, -270133.47, -391775.63, -19796.21, -0.0952385, 0.41424695, -266992.9, -266992.9, 0.0, 9.999278, 9.99749 
2.684644e+3, 3.187709e+2, -115769.81, 196797.22, -194348.9, 0.075423755, -0.017815212, 289905.03, 289905.03, 0.0, 9.997745, 10.00237 
2.7009428e+3, 1.2921877e+2, -1667292.3, -2160073.0, 16208.058, 0.157841, 0.4152257, -1666759.8, 6897.513, 0.03555016, 10.002433, 9.995434 
2.7006146e+3, 1.3920793e+2, -1740453.6, -2198788.5, -42728.64, 0.6509312, 0.1708934, -1736504.3, -160722.78, 0.021269776, 10.001257, 9.995373 
2.7002776e+3, 1.4920284e+2, -1281766.5, -1351469.0, -20730.463, 0.19567715, 0.29915577, -1276067.0, 201770.47, 0.009415533, 10.0015, 10.000211 
2.6999408e+3, 1.591987e+2, -1369667.0, -1449184.1, -40002.4, -0.23957379, 0.36377585, -1353025.8, 26853.818, 0.0026134893, 10.000403, 9.999574 
2.6996118e+3, 1.6919501e+2, -1020128.0, -756002.1, -8068.513, 0.063325204, 0.27513453, -755755.9, 526147.9, 0.0003600524, 10.000344, 10.003481 
2.6992837e+3, 1.7919105e+2, -1507861.0, -1483537.8, 47842.414, 0.43096694, 0.123499274, -1446335.4, -262405.75, 0.000012952271, 9.9984455, 9.998917 
2.6989508e+3, 1.8918319e+2, -1150129.9, -1410738.3, 83874.555, 0.22762655, 0.08154011, -1125469.3, -39457.88, 0.000000000007316074, 10.001144, 9.997255 
2.6986167e+3, 1.9917496e+2, -972875.1, -1460313.1, 20231.537, -0.061425235, 0.06259246, -972036.9, 16062.925, 0.0, 10.002213, 9.995938 
2.6982838e+3, 2.0916803e+2, -777713.0, -956968.0, -58652.47, 0.009958121, 0.08277059, -760227.5, 129939.18, 0.0, 10.001614, 9.998791 
2.6979518e+3, 2.1916133e+2, -1216420.9, -1284822.6, -54780.44, 0.14119308, 0.052810416, -1186041.6, -393812.97, 0.0, 9.998418, 9.997592 
2.6976186e+3, 2.2915445e+2, -681660.2, -574686.5, -10465.079, 0.13135557, -0.12069392, -573672.3, 120616.18, 0.0, 9.999926, 10.000876 
2.6972854e+3, 2.39148e+2, -762175.25, -932647.5, 32031.883, 0.08712922, -0.2967778, -756355.1, -160010.19, 0.0, 10.000002, 9.997941 
2.6969525e+3, 2.491427e+2, -498548.47, -616028.5, -22302.742, 0.101724595, -0.16984192, -494456.97, 3944.0244, 0.0, 10.000787, 9.998847 
2.6966202e+3, 2.5913772e+2, -830919.7, -1014969.4, -20842.53, 0.10743545, -0.022285001, -828588.94, -428132.63, 0.0, 9.998862, 9.996539 
2.6962897e+3, 2.6913285e+2, -460443.44, -554919.06, 10721.925, 0.05566911, 0.22321928, -459241.9, -156725.84, 0.0, 9.999994, 9.998281 
2.6959592e+3, 2.7912802e+2, -430498.6, -592313.7, -39267.465, -0.04610396, 0.3980802, -421473.03, -216899.08, 0.0, 9.999733, 9.997674 
2.6956278e+3, 2.891215e+2, -4221.2734, 77460.95, -115006.45, -0.069278926, 0.25245157, 158662.8, 265293.22, 0.0, 10.00043, 10.001092 
2.695295e+3, 2.991146e+2, -326754.72, -499957.6, -57969.656, -0.16191252, 0.02986582, -309143.44, -300454.78, 0.0, 9.999311, 9.9972 
2.694965e+3, 3.0910897e+2, -382520.28, -543360.9, -51856.277, -0.13815494, 0.26167506, -367251.0, -367251.0, 0.0, 9.998999, 9.996576 
2.6946378e+3, 3.1910032e+2, -46228.773, 438534.6, -69783.586, 0.079818815, 0.11620805, 448380.25, 448380.25, 0.0, 9.997446, 10.004184 
2.7109414e+3, 1.2954748e+2, -1495744.6, -1958151.1, -103459.375, 0.061237562, 0.11189306, -1473652.1, 196780.95, 0.028415078, 10.003014, 9.996612 
2.7106088e+3, 1.3953874e+2, -1354043.6, -1901272.8, 3622.1816, 0.2119119, 0.0033842812, -1354019.6, 218517.25, 0.016713178, 10.003373, 9.996417 
2.7102745e+3, 1.4953494e+2, -1090052.9, -1261246.8, 21012.744, 0.13182607, 0.22796331, -1087511.4, 387069.16, 0.0071980846, 10.002716, 10.000306 
2.70994e+3, 1.5953144e+2, -1250406.9, -1408766.9, 5492.8564, 0.031936355, 0.3791558, -1250216.6, 126400.8, 0.0019202423, 10.001171, 9.999516 
2.7096084e+3, 1.6952614e+2, -1047274.0, -925153.2, -38729.97, 0.15656574, 0.23857868, -913906.0, 364753.47, 0.00025324232, 10.000789, 10.002144 
2.709277e+3, 1.7952076e+2, -1256212.6, -1325841.0, -47785.316, 0.26892427, 0.06229004, -1231904.4, -51202.8, 0.000008369746, 9.999898, 9.999319 
2.7089456e+3, 1.8951465e+2, -1125715.9, -1232226.9, 80055.805, 0.14601338, 0.07576893, -1082820.1, -56.22132, 0.0, 10.000542, 9.998805 
2.708614e+3, 1.9950832e+2, -1041640.8, -1371830.4, 63562.02, -0.02560327, 0.1256729, -1029827.6, -44996.79, 0.0, 10.001062, 9.99714 
2.7082804e+3, 2.0950083e+2, -783773.7, -1044322.4, -46431.848, 0.027737144, 0.121223055, -775746.44, 111159.22, 0.0, 10.001752, 9.998225 
2.707947e+3, 2.1949363e+2, -660399.3, -950306.06, -51185.81, 0.10563176, 0.091597974, -651627.44, 137348.5, 0.0, 10.001772, 9.998321 
2.707614e+3, 2.2948733e+2, -527900.75, -490632.34, -42996.625, 0.14137788, -0.042430546, -462405.66, 228624.23, 0.0, 10.000793, 10.001128 
2.707281e+3, 2.3948134e+2, -712261.44, -827974.94, -25504.28, 0.14163183, -0.18000567, -706889.44, -113808.2, 0.0, 9.999831, 9.998767 
2.7069476e+3, 2.4947624e+2, -369637.75, -558336.06, 20636.963, 0.040051877, -0.05046779, -367407.16, 127728.945, 0.0, 10.001591, 9.998904 
2.7066153e+3, 2.5947136e+2, -148715.8, -610856.8, 94415.19, -0.02116858, 0.12928072, -130170.99, 267020.9, 0.0, 10.003103, 9.997275 
2.706285e+3, 2.6946548e+2, -180184.3, -420423.8, 151308.19, 0.03207029, 0.25973085, -107112.625, 192146.06, 0.0, 10.001795, 9.998388 
2.7059558e+3, 2.7945927e+2, -408414.72, -550434.3, 153938.36, 0.12815684, 0.3257208, -309897.5, -108569.76, 0.0, 9.999589, 9.998057 
2.7056232e+3, 2.8945318e+2, -54731.305, 7076.3447, 74380.766, 0.006924333, 0.2583713, 56717.82, 160099.88, 0.0, 10.000207, 10.00076 
2.7052894e+3, 2.9944706e+2, -160997.75, -411663.66, 59970.586, -0.1695633, 0.17217147, -147388.92, -141953.17, 0.0, 10.000299, 9.997356 
2.704961e+3, 3.0943972e+2, -168090.69, -430572.06, 92107.555, 0.036576528, 0.25233153, -138994.48, -138994.48, 0.0, 10.000374, 9.996712 
2.704633e+3, 3.1943345e+2, 180053.55, 559273.0, 133906.39, 0.2699804, 0.36448017, 601789.9, 601789.9, 0.0, 9.998915, 10.004298 
2.7209395e+3, 1.2987629e+2, -1713762.5, -1816640.1, -33629.88, 0.15082455, -0.16729148, -1703744.6, -36533.39, 0.02219124, 10.000618, 9.998666 
2.7206036e+3, 1.3987087e+2, -1707414.6, -2009277.6, 22577.996, -0.07059849, -0.1203233, -1705735.3, -136456.89, 0.01278431, 10.000716, 9.996956 
2.7202716e+3, 1.49868e+2, -1221729.9, -1321729.0, 14985.18, 0.13773024, 0.16675523, -1219532.5, 251779.95, 0.00532732, 10.001938, 10.000206 
2.7199402e+3, 1.5986463e+2, -1375590.9, -1600470.5, -15512.124, 0.42604777, 0.3681569, -1374526.0, -1177.5463, 0.0013580795, 10.001054, 9.99823 
2.7196053e+3, 1.6985711e+2, -1198708.8, -1213550.9, -45773.598, 0.31866106, 0.16145845, -1159758.6, 115657.34, 0.00016970174, 10.000807, 10.000107 
2.7192706e+3, 1.7984982e+2, -1468510.8, -1513081.0, -7124.429, 0.15181296, -0.02534675, -1467399.6, -289919.22, 0.0000049540654, 9.998925, 9.998495 
2.71894e+3, 1.8984605e+2, -1007956.4, -952112.8, 115382.39, 0.078492306, 0.07336174, -861321.8, 218195.52, 0.0, 10.0004425, 10.000723 
2.7186105e+3, 1.9984229e+2, -1207446.5, -1433937.8, 70242.97, 0.06392502, 0.22162108, -1187430.5, -205874.25, 0.0, 10.000025, 9.997159 
2.718277e+3, 2.0983472e+2, -931042.4, -1145433.6, -32048.346, 0.042136364, 0.21626268, -926354.1, -42719.125, 0.0, 10.001102, 9.997728 
2.7179426e+3, 2.1982707e+2, -1026830.1, -1243475.6, -48156.42, 0.034826715, 0.19962214, -1016608.1, -230894.17, 0.0, 9.999927, 9.997173 
2.717609e+3, 2.2982138e+2, -601117.44, -563272.06, -65142.656, 0.14708154, 0.15865591, -514359.4, 173405.0, 0.0, 10.000588, 10.00066 
2.7172762e+3, 2.3981631e+2, -915068.1, -960463.3, 7504.82, 0.19869325, 0.15322559, -913859.6, -324051.1, 0.0, 9.998801, 9.998295 
2.716943e+3, 2.4981153e+2, -420480.94, -445505.5, 102003.695, -0.06166703, 0.21235092, -330225.0, 161633.89, 0.0, 10.000799, 9.999979 
2.7166104e+3, 2.5980663e+2, -444204.06, -730665.06, 82687.14, -0.3097347, 0.2941497, -422049.72, -28138.174, 0.0, 10.001086, 9.997436 
2.716281e+3, 2.6979992e+2, -248568.77, -371513.94, 56409.113, -0.04513261, 0.26850662, -226609.53, 69369.12, 0.0, 10.001099, 9.999024 
2.7159518e+3, 2.797928e+2, -574812.06, -713245.8, 107116.984, 0.24405932, 0.2085062, -516494.53, -318445.0, 0.0, 9.998915, 9.997259 
2.7156195e+3, 2.897855e+2, -193781.73, -220493.13, 83934.53, 0.10613961, 0.11523013, -122146.96, -22027.479, 0.0, 9.999996, 9.999266 
2.7152854e+3, 2.9977897e+2, -298521.88, -557749.9, 52657.418, -0.19938308, 0.1132498, -288233.8, -286051.4, 0.0, 9.999791, 9.996574 
2.7149597e+3, 3.0977458e+2, -143297.56, -290302.7, 57066.055, 0.36011618, 0.4037958, -123745.516, -123745.516, 0.0, 10.000053, 9.997774 
2.7146235e+3, 3.1976578e+2, -174665.88, -105574.555, 201925.95, -0.1796286, 0.2702308, 64739.473, 64739.473, 0.0, 9.998724, 9.999767 
2.7309364e+3, 1.3020912e+2, -1562430.8, -1398442.6, -109360.8, 0.2114607, -0.105712526, -1343751.6, 320213.4, 0.016854309, 10.000084, 10.00183 
2.7306002e+3, 1.4020927e+2, -1676873.3, -1829111.3, 64383.58, -0.016900936, 0.2414123, -1653296.0, -87331.805, 0.009467287, 10.000117, 9.998495 
2.730267e+3, 1.5020359e+2, -1290013.5, -1428066.4, 93379.05, 0.01694718, 0.2712071, -1242918.0, 225103.58, 0.0037924994, 10.001767, 9.999551 
2.7299353e+3, 1.6019687e+2, -1154356.1, -1529813.1, -2954.1934, 0.16239835, 0.20832968, -1154332.9, 215755.38, 0.0009170214, 10.00264, 9.997946 
2.7296013e+3, 1.7018896e+2, -1117756.4, -1274299.9, -49189.08, 0.29665753, 0.047312204, -1103583.4, 168577.73, 0.0001065257, 10.001655, 9.999337 
2.7292675e+3, 1.8018186e+2, -1239619.5, -1356423.3, 70890.89, 0.32245165, -0.056239933, -1206172.1, -31946.191, 0.0000025959862, 10.000165, 9.998993 
2.7289367e+3, 1.9017826e+2, -833348.75, -817119.6, 203763.97, 0.122809954, 0.035754476, -621308.7, 454952.38, 0.0, 10.0013, 10.001317 
2.728606e+3, 2.0017476e+2, -821428.5, -1102797.6, 78526.336, -0.05581611, 0.15858512, -800996.56, 177299.9, 0.0, 10.001922, 9.99853 
2.7282727e+3, 2.1016775e+2, -762384.7, -996685.75, 1537.0343, -0.0047211135, 0.14059153, -762374.6, 117994.51, 0.0, 10.001861, 9.998454 
2.727939e+3, 2.2016066e+2, -694034.75, -1013064.44, 42820.84, 0.06018207, 0.145947, -688387.25, 94054.914, 0.0, 10.001739, 9.997902 
2.7276054e+3, 2.3015496e+2, -345741.44, -525771.56, 19924.459, 0.10783791, 0.15285164, -343562.7, 340932.66, 0.0, 10.002582, 9.999995 
2.727272e+3, 2.4014977e+2, -307072.7, -686429.0, 42484.695, 0.14990398, 0.21151188, -302373.0, 284170.66, 0.0, 10.002898, 9.998226 
2.7269393e+3, 2.501438e+2, -417537.5, -540415.2, 47110.445, 0.009460548, 0.2357256, -401554.6, 87051.8, 0.0, 10.00111, 9.999248 
2.7266073e+3, 2.6013792e+2, -634515.25, -744917.7, -18799.705, -0.10901409, 0.2719192, -631401.8, -240733.75, 0.0, 9.999316, 9.9982 
2.7262774e+3, 2.7013174e+2, -176419.55, -257369.7, -26079.578, 0.011520013, 0.22762881, -168745.11, 123982.06, 0.0, 10.001162, 9.999824 
2.7259478e+3, 2.8012514e+2, 5983.2217, -408394.94, 15483.899, 0.22497423, 0.1732071, 6560.9966, 201351.0, 0.0, 10.002667, 9.99757 
2.7256158e+3, 2.9011732e+2, 120684.5, -211955.45, -23509.492, 0.13916326, 0.10781473, 122337.82, 219208.03, 0.0, 10.002648, 9.998093 
2.7252826e+3, 3.0011064e+2, -5675.438, -321736.53, -58426.754, -0.03059487, 0.16143881, 4779.443, 4779.443, 0.0, 10.001296, 9.997483 
2.7249548e+3, 3.101082e+2, -53835.047, -46739.11, -26482.436, 0.4339376, 0.4738298, -23568.031, -23568.031, 0.0, 9.999648, 9.999735 
2.724614e+3, 3.200993e+2, -505746.28, -437750.28, 197764.16, -0.408116, 0.25178894, -271083.06, -271083.06, 0.0, 9.996958, 9.998429 
2.740934e+3, 1.3054357e+2, -1472798.8, -1091956.6, -46216.813, 0.42922544, 0.12443342, -1086428.3, 574273.0, 0.012358647, 9.999736, 10.004023 
2.740597e+3, 1.4054652e+2, -1601120.6, -1750094.3, -48010.645, 0.15172425, 0.56616205, -1586988.6, -24327.021, 0.0067449408, 10.000575, 9.998754 
2.740263e+3, 1.505384e+2, -1281509.1, -1483047.1, 29247.553, -0.058672506, 0.33854035, -1277350.4, 187388.81, 0.0025850076, 10.00209, 9.9989805 
2.7399307e+3, 1.6052917e+2, -1365724.4, -1713744.8, -83515.39, -0.04522175, 0.0736806, -1346720.6, 20108.01, 0.0005889778, 10.001629, 9.997145 
2.7395976e+3, 1.7052156e+2, -1169566.1, -1335687.6, -127088.17, 0.3111849, -0.048578847, -1100803.0, 168096.1, 0.00006228534, 10.001519, 9.99895 
2.739265e+3, 1.8051487e+2, -1373588.3, -1492366.4, 84118.68, 0.5671, -0.05310844, -1330006.4, -159045.45, 0.0000011486238, 9.9997015, 9.998246 
2.738933e+3, 1.905111e+2, -963578.06, -863624.25, 232484.27, 0.19981818, -0.0014954571, -675805.8, 397192.63, 0.0, 10.000495, 10.001288 
2.7386013e+3, 2.0050746e+2, -1143533.0, -1258604.9, 56637.883, -0.15120183, 0.104145385, -1120333.4, -145298.06, 0.0, 9.999874, 9.998411 
2.7382684e+3, 2.1050084e+2, -864303.75, -948723.3, -40751.57, -0.04758687, 0.02350078, -847841.94, 29259.95, 0.0, 10.0007925, 9.999254 
2.7379355e+3, 2.204942e+2, -1048594.6, -1256482.6, 29162.533, 0.070719495, 0.029745946, -1044581.2, -265412.75, 0.0, 9.999752, 9.997159 
2.7376017e+3, 2.3048829e+2, -551856.7, -710469.06, 10025.6, 0.038276594, 0.05445501, -551225.5, 130000.68, 0.0, 10.001673, 9.999094 
2.7372682e+3, 2.4048235e+2, -721118.75, -1118190.3, -11332.073, 0.004797048, 0.16044831, -720795.6, -137510.95, 0.0, 10.001188, 9.996061 
2.7369365e+3, 2.5047448e+2, -608613.5, -812751.6, -34676.582, 0.14399357, 0.13230444, -602883.9, -117516.92, 0.0, 10.000684, 9.997514 
2.736605e+3, 2.6046726e+2, -853463.75, -947788.06, 1332.969, 0.20323825, 0.17564751, -853444.9, -466002.47, 0.0, 9.998388, 9.9972105 
2.7362734e+3, 2.7046221e+2, -202364.28, -173888.81, 67719.08, 0.036457893, 0.16509487, -118926.93, 170563.6, 0.0, 10.000652, 10.000587 
2.7359426e+3, 2.804568e+2, -234604.3, -611222.44, 42895.723, -0.09388307, 0.19494385, -229780.39, -38237.316, 0.0, 10.001545, 9.99668 
2.7356127e+3, 2.904489e+2, -26844.674, -383156.53, -28951.975, 0.07829719, 0.19013067, -24507.523, 69122.57, 0.0, 10.002194, 9.997089 
2.7352807e+3, 3.0044222e+2, -59034.414, -261194.06, -114474.72, 0.09135326, 0.3055918, -7400.1523, -7400.1523, 0.0, 10.000684, 9.998175 
2.7349445e+3, 3.1044117e+2, 82303.664, 353383.9, -92356.63, -0.036056034, 0.46994916, 381858.63, 381858.63, 0.0, 9.999279, 10.002583 
2.7346107e+3, 3.204338e+2, -506805.28, -280135.88, 174521.78, -0.060166463, 0.15349266, -185377.8, -185377.8, 0.0, 9.996409, 9.999717 
2.750928e+3, 1.3087931e+2, -1493734.0, -1405870.3, -15905.175, 0.17891528, 0.44299766, -1403079.6, 254334.69, 0.00868548, 10.000704, 10.001481 
2.7505937e+3, 1.4087366e+2, -1307395.1, -1633493.6, -72960.164, -0.0055513554, 0.23983829, -1291815.6, 267641.44, 0.0045926278, 10.002592, 9.9986105 
2.7502623e+3, 1.5086824e+2, -1102875.9, -1310430.5, -14743.91, 0.08851284, 0.21697791, -1101833.8, 359676.6, 0.0016782226, 10.002807, 9.999914 
2.749931e+3, 1.6086224e+2, -1173458.8, -1444334.6, -118827.875, 0.23153925, 0.18733911, -1128720.4, 234848.58, 0.0003582281, 10.002101, 9.998783 
2.749594e+3, 1.7085575e+2, -999855.2, -1103666.1, -126128.766, 0.24045733, 0.043181177, -915369.1, 350257.1, 0.000033741435, 10.002019, 10.000319 
2.7492577e+3, 1.8084979e+2, -1100539.3, -1325431.4, 115826.5, 0.2048723, 0.020918883, -1051554.5, 116125.266, 0.00000040337267, 10.001316, 9.998622 
2.7489284e+3, 1.9084528e+2, -1040514.1, -1076129.4, 219231.02, 0.15620048, 0.118210986, -838368.7, 231359.98, 0.0, 10.000565, 9.99986 
2.7485988e+3, 2.0084096e+2, -1125765.1, -1227740.3, 4666.943, 0.055970132, 0.26640224, -1125552.0, -153776.73, 0.0, 9.999748, 9.998712 
2.7482632e+3, 2.1083458e+2, -863208.94, -880606.06, -77262.164, -0.089219205, 0.16170901, -794157.25, 79679.375, 0.0, 10.000336, 10.000016 
2.7479288e+3, 2.2082801e+2, -822580.1, -1090105.4, -1077.6893, -0.15088739, 0.10610938, -822575.75, -46675.934, 0.0, 10.000876, 9.997816 
2.7475983e+3, 2.3082109e+2, -517623.03, -775554.3, 7.2592993, 0.03000281, 0.09950717, -517623.03, 160345.5, 0.0, 10.002116, 9.998532 
2.7472672e+3, 2.4081434e+2, -360247.47, -828157.3, -37339.574, 0.174857, 0.15102144, -357286.47, 222749.11, 0.0, 10.003013, 9.997213 
2.746933e+3, 2.5080687e+2, -226594.86, -548416.2, -5513.692, 0.13849337, 0.100240976, -226500.42, 255609.72, 0.0, 10.002839, 9.998386 
2.7466e+3, 2.6079988e+2, -240945.63, -587442.5, 148554.95, 0.121056706, 0.1323155, -185975.75, 198204.28, 0.0, 10.002163, 9.997915 
2.7462697e+3, 2.7079436e+2, -205813.88, -264437.13, 138497.44, 0.08753693, 0.14625798, -93560.29, 192675.58, 0.0, 10.000881, 9.999915 
2.7459395e+3, 2.8078902e+2, -488630.72, -626971.2, 60034.04, 0.07708887, 0.22138837, -466211.63, -277920.8, 0.0, 9.999226, 9.997697 
2.7456084e+3, 2.907833e+2, -354095.25, -392528.8, 94502.99, 0.10664167, 0.3330119, -276875.0, -186519.22, 0.0, 9.999276, 9.998452 
2.7452752e+3, 3.0077755e+2, -274268.9, -334709.06, 94133.375, 0.053142227, 0.47470772, -205623.7, -205623.7, 0.0, 9.998988, 9.998514 
2.744937e+3, 3.10772e+2, 204991.5, 306240.22, -155573.53, -0.23132679, 0.28139365, 419218.88, 419218.88, 0.0, 10.000486, 10.001724 
2.7446106e+3, 3.207665e+2, 185536.25, 231809.0, -109441.984, 0.58865964, 0.16629365, 320533.44, 320533.44, 0.0, 10.000306, 10.001334 
2.7609235e+3, 1.3121372e+2, -1469029.0, -1580730.3, 66528.06, 0.08127448, 0.6346597, -1438016.1, 216121.52, 0.0058229626, 10.001891, 9.99958 
2.7605906e+3, 1.4120193e+2, -1617011.1, -1872521.6, 15551.119, -0.037238855, -0.0366613, -1616068.1, -59827.953, 0.0029696852, 10.001006, 9.99769 
2.7602616e+3, 1.5119886e+2, -1271324.3, -1273333.0, 39364.797, 0.30744672, 0.11072371, -1232951.0, 225322.39, 0.0010279784, 10.0013275, 10.000789 
2.7599308e+3, 1.6119593e+2, -1407979.5, -1489088.3, -90218.12, 0.59376967, 0.31631526, -1349619.9, 10684.08, 0.0002033788, 10.000287, 9.999335 
2.7595896e+3, 1.7119046e+2, -945192.8, -953870.9, -154991.02, 0.1861037, 0.15417464, -794480.06, 467869.16, 0.000016580547, 10.001903, 10.00138 
2.7592504e+3, 1.8118507e+2, -1156604.4, -1444545.3, 41548.99, -0.13290071, 0.13316998, -1150728.9, 13667.393, 0.00000009587778, 10.001483, 9.997691 
2.7589238e+3, 1.9117951e+2, -1164932.5, -1310346.8, 127753.11, 0.16253668, 0.244285, -1090645.8, -24185.99, 0.0, 10.000594, 9.998192 
2.758596e+3, 2.0117426e+2, -1343064.3, -1430909.6, -2308.9539, 0.33956978, 0.453211, -1343003.6, -374484.7, 0.0, 9.998809, 9.997755 
2.7582577e+3, 2.1116836e+2, -823096.2, -779307.6, -73650.68, -0.12235749, 0.32971093, -724365.9, 146207.25, 0.0, 10.000387, 10.000629 
2.7579215e+3, 2.2116213e+2, -1005698.6, -1225786.4, 11429.087, -0.40919936, 0.27764305, -1005106.7, -232475.67, 0.0, 10.00007, 9.997202 
2.7575952e+3, 2.3115401e+2, -707406.8, -920247.6, 47091.69, 0.057248272, 0.17107669, -697453.1, -22740.672, 0.0, 10.001209, 9.997901 
2.7572668e+3, 2.4114658e+2, -710227.0, -959853.9, -28158.201, 0.38353902, 0.19813588, -707090.1, -130304.08, 0.0, 10.000656, 9.997382 
2.756929e+3, 2.5114042e+2, -281243.9, -373020.16, -34062.97, -0.001734407, 0.09166531, -269983.06, 208857.84, 0.0, 10.00169, 10.000083 
2.7565926e+3, 2.611343e+2, -534850.6, -829038.0, 84695.35, -0.29004598, 0.1054979, -512209.63, -131311.66, 0.0, 10.000716, 9.996937 
2.7562657e+3, 2.7112746e+2, -455921.25, -581253.56, 65979.734, 0.12827949, 0.13075277, -427590.84, -144619.17, 0.0, 10.000176, 9.998032 
2.7559376e+3, 2.8112176e+2, -602116.2, -610006.56, 10344.779, 0.43158296, 0.28799024, -594989.9, -409956.0, 0.0, 9.998273, 9.998253 
2.7556017e+3, 2.9112002e+2, -221084.9, -11254.609, 79598.234, 0.03634039, 0.5319827, 15523.319, 102575.96, 0.0, 9.998869, 10.001254 
2.7552652e+3, 3.011158e+2, -505286.34, -666222.6, 83472.38, -0.36479226, 0.6956445, -469811.56, -469811.56, 0.0, 9.998448, 9.996486 
2.7549335e+3, 3.1109977e+2, -184581.8, -421225.47, -120680.4, -0.08686043, -0.1389045, -133895.3, -133895.3, 0.0, 10.000191, 9.996862 
2.754607e+3, 3.2109833e+2, 227260.92, 428496.78, 683.6751, 0.562351, 0.43206, 428499.1, 428499.1, 0.0, 9.999997, 10.00279 
2.7709225e+3, 1.3154192e+2, -1099066.5, -1149236.0, -85114.36, 0.010510717, 0.13875797, -1035417.4, 615497.56, 0.0036893375, 10.003257, 10.001918 
2.7705878e+3, 1.415381e+2, -1539165.4, -1710213.9, 63054.0, 0.04215786, 0.112631164, -1518434.3, 34505.477, 0.001804221, 10.000971, 9.998813 
2.7702558e+3, 1.515342e+2, -1424862.3, -1384430.8, 102485.69, 0.17075428, 0.18898118, -1300186.0, 154798.48, 0.00058557204, 10.000392, 10.0004835 
2.7699238e+3, 1.615298e+2, -1453503.5, -1594520.3, -20494.877, 0.33066377, 0.30530503, -1450585.3, -93552.26, 0.00010501939, 10.0002, 9.9986725 
2.7695882e+3, 1.7152391e+2, -909118.9, -1111843.6, -96926.53, 0.31938317, 0.24684328, -870234.75, 388852.88, 0.0000068884756, 10.002732, 9.999984 
2.7692527e+3, 1.815179e+2, -791930.7, -1265839.6, -60507.23, 0.22915316, 0.2659919, -784327.3, 376816.56, 0.00000000965895, 10.003869, 9.997794 
2.7689198e+3, 1.9151044e+2, -969349.9, -1202734.0, 29202.31, 0.10876558, 0.18876581, -965751.4, 97468.56, 0.0, 10.001775, 9.998428 
2.7685875e+3, 2.0150383e+2, -1092691.9, -1233227.6, 26150.879, -0.0010409731, 0.23040366, -1087983.5, -122695.82, 0.0, 10.000073, 9.998538 
2.768254e+3, 2.1149898e+2, -550062.5, -675608.2, -1236.6011, -0.14516562, 0.24481751, -550050.4, 317283.7, 0.0, 10.00227, 10.000518 
2.767921e+3, 2.2149403e+2, -405466.28, -806812.5, -37928.496, -0.19625758, 0.30815786, -401913.38, 367468.34, 0.0, 10.0035, 9.9984455 
2.7675924e+3, 2.3148732e+2, -621148.44, -804222.06, 8279.475, 0.1684708, 0.27321857, -620774.8, 50675.313, 0.0, 10.001275, 9.9987755 
2.767262e+3, 2.4148054e+2, -814909.8, -941547.3, 34735.156, 0.4093979, 0.30241033, -806008.06, -232490.52, 0.0, 9.999461, 9.998135 
2.766925e+3, 2.5147393e+2, -412414.38, -497814.4, -35088.082, 0.0105193, 0.20985155, -399847.2, 75730.29, 0.0, 10.000932, 9.99965 
2.7665892e+3, 2.614673e+2, -319890.1, -654838.44, -49085.043, -0.25085068, 0.19393232, -312845.1, 64793.36, 0.0, 10.001799, 9.997601 
2.766261e+3, 2.7146012e+2, -336310.66, -508458.22, -21065.602, 0.12066921, 0.16760291, -333770.38, -54057.133, 0.0, 10.000848, 9.998259 
2.7659318e+3, 2.8145397e+2, -326850.13, -404191.06, 53043.535, 0.4295769, 0.2620565, -299877.44, -118100.45, 0.0, 9.999709, 9.998995 
2.7655956e+3, 2.9145166e+2, 36281.605, 104104.28, -31728.557, -0.0044895443, 0.42806765, 116633.016, 200431.28, 0.0, 10.000427, 10.00139 
2.7652597e+3, 3.0144727e+2, -245814.75, -626694.44, -104798.445, -0.3660003, 0.57708466, -218883.83, -218883.83, 0.0, 10.000501, 9.995757 
2.764931e+3, 3.1143168e+2, -194221.42, -626032.5, -136651.61, 0.13491642, -0.06337489, -154610.11, -154610.11, 0.0, 10.000944, 9.995076 
2.7646002e+3, 3.2143068e+2, 146643.08, 477270.6, -65987.92, 0.43119758, 0.65364873, 489954.16, 489954.16, 0.0, 9.998997, 10.003576 
2.7809206e+3, 1.3187231e+2, -1516999.6, -1110341.9, -86525.91, 0.11937831, -0.15835631, -1092697.1, 554974.6, 0.0021714207, 9.999483, 10.003936 
2.7805847e+3, 1.4187479e+2, -1786822.0, -1861353.6, -11223.335, 0.18005274, 0.28359303, -1785168.6, -235533.0, 0.0010072395, 9.999395, 9.998569 
2.7802497e+3, 1.518696e+2, -1303732.3, -1389966.3, 38094.406, 0.036705155, 0.2511527, -1289314.4, 162380.06, 0.00030058212, 10.0014515, 9.999981 
2.779917e+3, 1.618636e+2, -1370389.4, -1714114.4, 113.04791, 0.11490889, 0.29233372, -1370389.4, -16627.846, 0.000046417692, 10.00157, 9.99718 
2.7795875e+3, 1.7185718e+2, -1084318.0, -1367764.4, -16739.793, 0.5556197, 0.31030357, -1083332.9, 172494.78, 0.0000020738605, 10.002382, 9.998356 
2.7792555e+3, 1.8185045e+2, -1142305.8, -1499500.5, -24856.578, 0.702771, 0.40876037, -1140584.3, 17310.13, 0.00000000000031198744, 10.0018835, 9.997101 
2.7789152e+3, 1.9184127e+2, -940010.2, -1107262.0, -29971.908, 0.02779105, 0.07784856, -934801.4, 125178.32, 0.0, 10.00176, 9.999015 
2.7785784e+3, 2.0183347e+2, -1116327.4, -1317136.8, 68628.74, -0.4120907, -0.015054231, -1095113.8, -133060.48, 0.0, 10.0004, 9.997751 
2.778251e+3, 2.118291e+2, -772745.6, -850074.3, 74680.0, -0.11751422, 0.0837008, -727314.56, 136783.61, 0.0, 10.001188, 9.999772 
2.7779227e+3, 2.2182529e+2, -849712.44, -1019789.06, -79383.42, 0.1649035, 0.3222728, -818418.3, -52280.215, 0.0, 10.000559, 9.998365 
2.777589e+3, 2.3182072e+2, -671030.06, -670282.94, -116154.12, 0.28774765, 0.35213342, -554501.75, 113683.836, 0.0, 10.000365, 10.000062 
2.7772555e+3, 2.418156e+2, -1001867.56, -1138444.4, -1338.0491, 0.31879514, 0.48820305, -1001854.44, -431616.75, 0.0, 9.998821, 9.997045 
2.7769214e+3, 2.5180754e+2, -621884.5, -770480.7, 11963.536, 0.0962464, 0.37081036, -620927.44, -148612.03, 0.0, 10.000371, 9.998009 
2.7765876e+3, 2.6179972e+2, -581784.06, -788426.9, -62341.78, -0.08937729, 0.35966793, -564433.1, -190043.16, 0.0, 10.0002, 9.997391 
2.776255e+3, 2.7179247e+2, -355974.03, -363218.6, -64213.793, -0.031819824, 0.18456398, -295280.44, -18822.967, 0.0, 10.000138, 9.999538 
2.7759227e+3, 2.8178564e+2, -528913.0, -594704.0, 29056.94, 0.01499704, 0.14961448, -517917.47, -339395.63, 0.0, 9.998887, 9.99804 
2.7755904e+3, 2.9177892e+2, -180817.48, -181695.77, 375.51712, -0.07637588, 0.012209027, -180678.83, -100092.72, 0.0, 9.999887, 9.999612 
2.7752572e+3, 3.017736e+2, -370727.7, -705847.2, -99825.234, -0.2185769, 0.21165253, -343245.53, -343245.53, 0.0, 9.999886, 9.99548 
2.7749273e+3, 3.1176925e+2, -205723.88, -498372.13, -109388.29, 0.16771895, 0.5851045, -169355.5, -169355.5, 0.0, 10.000393, 9.996206 
2.774592e+3, 3.2175982e+2, -195484.52, 5444.8154, -240949.03, 0.12773852, 0.49442345, 166034.9, 166034.9, 0.0, 9.998101, 10.000773 
2.7909154e+3, 1.322102e+2, -1779668.4, -1355781.8, -105085.08, 0.17051178, 0.16309069, -1331160.5, 313202.3, 0.0011689387, 9.997981, 10.0030985 
2.7905777e+3, 1.4220817e+2, -1727515.5, -1841947.3, 42123.766, -0.05969613, 0.27681753, -1713681.6, -167308.06, 0.0005049565, 9.999742, 9.998576 
2.7902466e+3, 1.5220174e+2, -1091697.1, -1290311.0, 132492.9, -0.030611144, 0.12485342, -1025425.56, 423013.16, 0.00013439951, 10.002845, 10.000043 
2.7899164e+3, 1.6219547e+2, -923650.0, -1442354.8, -18033.559, 0.13143905, 0.13235876, -923023.75, 427480.34, 0.000016423304, 10.004297, 9.997753 
2.7895835e+3, 1.7219038e+2, -1024520.6, -1315266.6, -14958.658, 0.37553224, 0.26919553, -1023753.0, 228807.98, 0.0000003300107, 10.002573, 9.998667 
2.7892497e+3, 1.8218495e+2, -1164008.1, -1432153.9, 61673.91, 0.43408877, 0.44897497, -1150503.1, 4115.179, 0.0, 10.001248, 9.997926 
2.7889132e+3, 1.9217683e+2, -699907.2, -994858.9, 95380.12, 0.0653021, 0.25409776, -671751.3, 384942.97, 0.0, 10.003239, 9.999197 
2.7885783e+3, 2.0216918e+2, -634365.94, -1077295.6, 75126.42, -0.2076415, 0.18364254, -621970.44, 336795.78, 0.0, 10.003604, 9.997845 
2.7882472e+3, 2.1216272e+2, -941778.75, -1051928.6, 48807.785, -0.078671634, 0.18836355, -923263.94, -62435.09, 0.0, 10.000473, 9.998753 
2.7879164e+3, 2.2215682e+2, -1123845.8, -1198398.5, -30074.213, 0.08717239, 0.30391085, -1113226.6, -350338.63, 0.0, 9.998707, 9.99807 
2.787584e+3, 2.3215127e+2, -542228.0, -712663.25, -119126.08, 0.19509165, 0.33975977, -480976.97, 183970.7, 0.0, 10.001526, 9.999287 
2.7872512e+3, 2.4214575e+2, -286094.3, -712798.2, -112862.984, 0.23986194, 0.45613268, -258081.17, 308924.03, 0.0, 10.003278, 9.997842 
2.7869177e+3, 2.5213826e+2, -324117.44, -571756.44, -57049.15, 0.11309615, 0.36072686, -311606.9, 157469.72, 0.0, 10.002066, 9.998612 
2.7865842e+3, 2.6213104e+2, -438025.44, -656322.25, -64495.29, 0.007714364, 0.353986, -420394.44, -49249.16, 0.0, 10.000789, 9.998047 
2.7862498e+3, 2.7212435e+2, -279614.2, -366634.34, -149086.95, -0.05306005, 0.27213025, -167817.97, 105391.07, 0.0, 10.000669, 9.999339 
2.7859166e+3, 2.8211758e+2, -339537.47, -499793.8, -72337.0, -0.033668537, 0.2533862, -311715.8, -136442.3, 0.0, 10.000103, 9.998102 
2.785586e+3, 2.9210958e+2, -210488.69, -262201.5, -66589.414, 0.031761687, 0.053195592, -164911.88, -87561.23, 0.0, 9.999918, 9.999053 
2.7852535e+3, 3.021035e+2, -339124.28, -508296.6, -91716.67, -0.002504095, 0.15575098, -298943.56, -298943.56, 0.0, 9.999182, 9.997201 
2.78492e+3, 3.1210253e+2, -320349.22, -328420.2, -61291.188, 0.036186524, 0.6806377, -262960.8, -262960.8, 0.0, 9.998482, 9.998367 
2.7845868e+3, 3.2209057e+2, -98868.26, -31727.613, -122338.375, 0.27790138, 0.2503524, 61562.793, 61562.793, 0.0, 9.999005, 10.0001135 
2.8009105e+3, 1.3254754e+2, -1549755.6, -1444711.3, -14206.581, 0.32375523, 0.45622054, -1442823.8, 198232.22, 0.0005685035, 10.00055, 10.001151 
2.800572e+3, 1.4254126e+2, -1576038.0, -1848702.5, 116538.18, -0.17045908, 0.24060167, -1533016.9, 10097.887, 0.00022583413, 10.001282, 9.997701 
2.8002447e+3, 1.5253395e+2, -1113767.1, -1296322.9, 204268.78, 0.008951647, -0.010489517, -981309.94, 463872.38, 0.00005282333, 10.002788, 9.9999485 
2.7999163e+3, 1.6252753e+2, -1182935.5, -1560485.4, -49409.348, 0.23924628, -0.0035156824, -1176576.5, 170668.77, 0.000004777361, 10.002678, 9.997615 
2.7995783e+3, 1.7252356e+2, -1045172.7, -1274147.5, -135719.28, 0.16736132, 0.17457156, -982101.4, 267192.22, 0.00000002399446, 10.002338, 9.99897 
2.799243e+3, 1.825195e+2, -1172979.4, -1474971.8, 33442.855, 0.13589725, 0.49052662, -1169320.1, -17980.027, 0.0, 10.001522, 9.997438 
2.7989125e+3, 1.9251324e+2, -758237.7, -1023376.75, 72467.445, 0.20327672, 0.45662042, -739723.75, 313677.3, 0.0, 10.002989, 9.999052 
2.7985802e+3, 2.025063e+2, -868747.1, -1332283.4, -69450.19, 0.18571515, 0.51864755, -858565.3, 96901.766, 0.0, 10.00272, 9.996489 
2.7982426e+3, 2.1249692e+2, -914248.9, -1155503.4, -116459.33, -0.034682654, 0.2956098, -867204.7, -9650.652, 0.0, 10.001233, 9.99764 
2.7979076e+3, 2.2248839e+2, -1217765.0, -1431823.3, 6856.647, -0.13336445, 0.29086354, -1217545.6, -457909.2, 0.0, 9.99911, 9.9962015 
2.7975783e+3, 2.3248078e+2, -797622.3, -1005657.1, -378.39102, 0.04109354, 0.25170502, -797621.6, -135902.17, 0.0, 10.000683, 9.997629 
2.7972478e+3, 2.4247405e+2, -634238.06, -860561.4, -98859.87, 0.14407621, 0.37155625, -597137.1, -33347.004, 0.0, 10.000975, 9.997884 
2.7969137e+3, 2.524678e+2, -443209.25, -467617.97, -90408.164, 0.0663628, 0.24489175, -364185.44, 101660.98, 0.0, 10.000678, 9.999941 
2.7965793e+3, 2.624621e+2, -724342.7, -870797.56, -91856.11, -0.03020443, 0.3377687, -680097.56, -312197.3, 0.0, 9.999314, 9.997242 
2.7962452e+3, 2.7245608e+2, -497106.53, -589645.1, -128469.04, -0.058941476, 0.39854303, -406828.63, -136864.69, 0.0, 9.999813, 9.998174 
2.795912e+3, 2.8245014e+2, -504348.44, -640547.44, -75331.61, -0.020725798, 0.57107395, -470898.0, -298872.25, 0.0, 9.999361, 9.9974575 
2.7955824e+3, 2.924429e+2, -276602.1, -276631.03, -60356.93, 0.14075756, 0.41839054, -216259.64, -142162.69, 0.0, 9.999472, 9.99915 
2.7952483e+3, 3.0243626e+2, -297894.06, -228824.88, -154009.81, -0.007911886, 0.3812056, -105525.18, -105525.18, 0.0, 9.998513, 9.99937 
2.7949083e+3, 3.124306e+2, -198679.2, 100986.19, -73134.95, -0.4672391, 0.11538759, 117882.484, 117882.484, 0.0, 9.997843, 10.001554 
2.794585e+3, 3.2242757e+2, -95339.695, 70293.836, 200462.42, 0.56578666, 0.3274756, 204372.89, 204372.89, 0.0, 9.998834, 10.000793 
2.810908e+3, 1.3287841e+2, -1470375.3, -1895706.0, -28913.623, 0.21528958, 0.014551836, -1468418.6, 169378.61, 0.00025074946, 10.0030155, 9.996974 
2.810572e+3, 1.4287263e+2, -1200167.0, -1615606.1, 69945.33, -0.014471672, 0.11987687, -1188706.9, 351161.06, 0.00009142473, 10.003558, 9.998245 
2.810244e+3, 1.5286909e+2, -1034356.75, -1149409.0, 210680.47, 0.10359842, 0.15907228, -873489.8, 568409.75, 0.000018191195, 10.0027685, 10.001035 
2.8099135e+3, 1.6286385e+2, -1246889.0, -1613832.3, -44337.77, 0.202405, 0.23563488, -1241607.6, 102343.37, 0.000001253609, 10.002251, 9.997475 
2.8095752e+3, 1.7285614e+2, -1003154.4, -1379848.5, -130072.484, 0.041852593, 0.16807504, -962605.25, 283429.2, 0.0000000065346386, 10.003068, 9.997949 
2.8092396e+3, 1.8284944e+2, -916279.3, -1408886.1, -16222.365, -0.040066432, 0.3098321, -915745.6, 232360.92, 0.0, 10.003461, 9.996957 
2.80891e+3, 1.928432e+2, -692748.9, -1124954.3, 3457.6733, 0.10424313, 0.3977549, -692721.25, 357449.4, 0.0, 10.003901, 9.997963 
2.808579e+3, 2.0283636e+2, -553952.2, -1065512.5, -182134.13, 0.14941646, 0.48927355, -495731.84, 456504.7, 0.0, 10.0043, 9.99756 
2.808241e+3, 2.1282719e+2, -239360.66, -750315.2, -166982.6, -0.0822351, 0.2246621, -189630.1, 664687.8, 0.0, 10.005402, 9.998481 
2.8079048e+3, 2.2281896e+2, -298527.22, -912523.2, -41603.41, -0.21805765, 0.17313072, -295721.06, 460673.66, 0.0, 10.004985, 9.996958 
2.8075734e+3, 2.3281197e+2, -639681.7, -940711.94, 4040.0715, -0.07565023, 0.22088806, -639627.44, 18842.05, 0.0, 10.001691, 9.997631 
2.807242e+3, 2.4280545e+2, -790709.25, -869080.8, -146.2488, 0.050524846, 0.33612788, -790709.0, -230171.45, 0.0, 9.999456, 9.998588 
2.806909e+3, 2.5279936e+2, -503969.78, -491263.03, -38050.18, 0.0810935, 0.23920417, -459039.44, 3555.6904, 0.0, 10.000072, 10.000141 
2.8065753e+3, 2.6279384e+2, -468093.8, -635666.4, -41813.992, 0.07161431, 0.30456758, -458239.56, -93591.33, 0.0, 10.00043, 9.998384 
2.8062406e+3, 2.727879e+2, -357272.8, -451542.16, -3894.293, 0.041683186, 0.3263319, -357112.22, -90402.53, 0.0, 10.000273, 9.998997 
2.8059074e+3, 2.8278223e+2, -373810.8, -487768.4, 152214.25, 0.070632294, 0.4558403, -268260.38, -99491.39, 0.0, 9.999705, 9.998409 
2.8055763e+3, 2.9277605e+2, -279275.3, -274425.34, 148960.67, 0.13463782, 0.42761156, -127869.92, -57037.305, 0.0, 9.999251, 9.999377 
2.8052413e+3, 3.0277005e+2, -172131.25, -33030.945, 50648.49, -0.010654875, 0.4233684, -16543.355, -16543.355, 0.0, 9.998733, 10.000596 
2.8049025e+3, 3.127637e+2, 123287.875, 368156.75, -65442.195, -0.37305236, 0.00702958, 384549.06, 384549.06, 0.0, 9.999486, 10.00263 
2.80458e+3, 3.2276314e+2, -179190.33, 41221.613, 96293.54, 0.72375286, 0.39589256, 77363.86, 77363.86, 0.0, 9.998098, 10.000995 
2.8209066e+3, 1.3320917e+2, -1705784.9, -2309266.0, -88267.125, 0.2765805, -0.2962261, -1693139.6, -58593.266, 0.000107460386, 10.002991, 9.994022 
2.8205723e+3, 1.4320436e+2, -1445940.0, -1711767.5, 24873.945, 0.20824586, 0.08400925, -1443632.5, 92985.78, 0.00003510944, 10.001967, 9.998267 
2.820242e+3, 1.5320398e+2, -1113108.5, -1083176.1, 75700.484, 0.2027686, 0.32350293, -1020976.56, 417644.03, 0.0000055355054, 10.001935, 10.00183 
2.8199103e+3, 1.6319996e+2, -1427713.0, -1793219.9, -111322.484, 0.2101868, 0.5161946, -1396477.0, -55816.51, 0.0000002527922, 10.001545, 9.996566 
2.8195724e+3, 1.7318869e+2, -1108405.9, -1533204.4, -141503.31, 0.024526423, 0.16091947, -1065586.4, 177190.23, 0.0, 10.002938, 9.996943 
2.819237e+3, 1.8317935e+2, -1086150.5, -1622735.6, 42140.652, -0.09146161, 0.15890944, -1082861.3, 62012.496, 0.0, 10.002994, 9.995683 
2.8189078e+3, 1.9317234e+2, -986592.06, -1395557.8, 89867.65, 0.015704898, 0.25892812, -967715.5, 79231.945, 0.0, 10.002528, 9.996741 
2.8185764e+3, 2.0316531e+2, -905474.44, -1190147.3, -64973.727, 0.04834128, 0.4133759, -891346.06, 57669.957, 0.0, 10.001887, 9.997789 
2.81824e+3, 2.1315677e+2, -520237.53, -755757.44, -90313.14, -0.11589488, 0.07560812, -489593.06, 361495.88, 0.0, 10.003087, 9.9994755 
2.8179038e+3, 2.2314967e+2, -633281.5, -1035137.25, -113249.484, -0.24914256, 0.08472821, -603563.7, 149588.0, 0.0, 10.0026865, 9.997168 
2.8175685e+3, 2.3314397e+2, -758232.06, -910553.1, -94652.125, -0.189162, 0.16314879, -712904.1, -57694.566, 0.0, 10.000678, 9.998247 
2.8172347e+3, 2.4313858e+2, -959007.8, -989684.0, 13332.604, -0.09888205, 0.38214293, -954023.1, -396757.94, 0.0, 9.998651, 9.998087 
2.8169036e+3, 2.5313196e+2, -690644.94, -627421.0, 18876.12, 0.06390936, 0.24098475, -622214.2, -162880.92, 0.0, 9.999109, 9.9996195 
2.816571e+3, 2.6312608e+2, -613558.56, -583707.7, -35125.688, 0.14418052, 0.27579206, -560467.9, -199076.25, 0.0, 9.999097, 9.999309 
2.8162366e+3, 2.7311993e+2, -362022.0, -237726.88, 9607.395, 0.1170039, 0.069166176, -236988.66, 26459.043, 0.0, 9.999456, 10.00079 
2.815902e+3, 2.8311464e+2, -477742.03, -493115.2, 110922.74, 0.024978641, 0.13266017, -374239.84, -208740.63, 0.0, 9.998974, 9.998661 
2.815568e+3, 2.9310948e+2, -350771.9, -255804.77, 141035.84, -0.12055577, 0.13480999, -154473.7, -86917.63, 0.0, 9.998663, 9.99973 
2.8152338e+3, 3.0310538e+2, -319873.6, -231075.48, 44658.86, -0.20236205, 0.34993693, -212500.81, -212500.81, 0.0, 9.998354, 9.999402 
2.814903e+3, 3.13102e+2, -90073.57, 98554.04, -25166.906, 0.22298728, 0.3568979, 101854.1, 101854.1, 0.0, 9.998781, 10.00111 
2.8145662e+3, 3.230932e+2, -379884.66, -165262.4, 63295.844, -0.10133895, 0.0525319, -147986.05, -147986.05, 0.0, 9.997387, 9.999849 
2.8309056e+3, 1.3354486e+2, -1418494.5, -1867833.8, -320395.25, 0.23939484, 0.24014568, -1251846.4, 379430.38, 0.000050640916, 10.003411, 9.996963 
2.8305674e+3, 1.4353673e+2, -1420428.5, -1677560.6, -4711.8604, -0.048031278, 0.15067846, -1420342.1, 113024.94, 0.00001538915, 10.001967, 9.998528 
2.8302354e+3, 1.5353355e+2, -1248184.6, -1323404.4, 21400.379, -0.18607746, 0.24562797, -1242522.4, 192876.36, 0.0000020566958, 10.001637, 10.000384 
2.8299043e+3, 1.6352935e+2, -1249312.6, -1527606.9, -151859.0, -0.12363451, 0.43138832, -1182491.1, 154950.1, 0.00000005936716, 10.0018835, 9.998259 
2.8295717e+3, 1.7352216e+2, -871623.1, -1257830.5, -74522.02, 0.093963325, 0.3367032, -857742.3, 381773.03, 0.0, 10.003735, 9.998507 
2.8292385e+3, 1.8351491e+2, -790434.06, -1279040.0, 50830.547, 0.16607934, 0.3737039, -785202.1, 356386.25, 0.0, 10.004057, 9.997568 
2.8289056e+3, 1.9350696e+2, -991232.2, -1271667.0, 153611.48, 0.080701776, 0.28126642, -923465.44, 120199.85, 0.0, 10.001856, 9.997964 
2.828572e+3, 2.0349956e+2, -1089909.0, -1292310.8, 95502.42, 0.015063906, 0.33458468, -1051961.3, -106224.83, 0.0, 10.000512, 9.997828 
2.828237e+3, 2.1349184e+2, -888542.7, -1059875.3, 47330.89, -0.08037429, 0.22355047, -876337.0, -28528.184, 0.0, 10.000933, 9.998507 
2.8279015e+3, 2.2348472e+2, -677392.44, -876511.3, -47706.188, -0.13685809, 0.21751824, -666552.8, 83320.586, 0.0, 10.001465, 9.998898 
2.827565e+3, 2.3347767e+2, -476435.66, -657111.44, -14230.364, -0.12363705, 0.06691226, -475321.72, 176614.16, 0.0, 10.001917, 9.999483 
2.82723e+3, 2.4347192e+2, -466056.97, -655286.44, 116406.13, -0.08891668, 0.14665635, -410663.94, 143326.23, 0.0, 10.001518, 9.999028 
2.8268972e+3, 2.5346673e+2, -569428.2, -597722.1, 128901.695, 0.0015891863, 0.1873643, -453899.47, 2147.3943, 0.0, 9.999923, 9.999499 
2.8265643e+3, 2.6346138e+2, -595618.06, -543542.4, 115256.04, 0.10493313, 0.28110018, -451419.66, -93317.08, 0.0, 9.998977, 9.999658 
2.8262308e+3, 2.734551e+2, -408413.16, -316325.34, 15487.995, 0.15195389, 0.1155254, -313790.25, -53626.363, 0.0, 9.999302, 10.000344 
2.825897e+3, 2.834499e+2, -368846.13, -343639.25, 58866.773, 0.14274856, 0.16634257, -296041.8, -133826.58, 0.0, 9.999225, 9.999565 
2.8255624e+3, 2.9344544e+2, -277794.1, -192177.75, 56651.344, -0.037589617, 0.20068842, -163979.48, -99716.695, 0.0, 9.998941, 10.000042 
2.8252277e+3, 3.0344132e+2, -260266.63, -253236.98, 36018.39, -0.12930068, 0.4009929, -220562.33, -220562.33, 0.0, 9.99887, 9.999035 
2.8248987e+3, 3.1343699e+2, -55573.92, -73656.57, -45529.598, 0.4013669, 0.4274877, -18196.611, -18196.611, 0.0, 9.999681, 9.999538 
2.824558e+3, 3.234253e+2, 131679.66, 101883.45, 12371.928, -0.2714016, -0.0915833, 136146.94, 136146.94, 0.0, 10.000685, 10.000149 
2.840904e+3, 1.3387996e+2, -1529812.6, -1587488.3, -224867.39, 0.32226428, 0.6810539, -1331941.5, 296069.53, 0.000026719768, 10.001229, 9.999943 
2.8405625e+3, 1.4386976e+2, -1360072.3, -1717408.9, 64599.234, -0.21816769, 0.24790776, -1348752.6, 181355.78, 0.000008259606, 10.002755, 9.997828 
2.8402287e+3, 1.5386346e+2, -1332500.6, -1522011.5, 88034.93, -0.48005792, 0.1459285, -1297916.4, 134256.36, 0.0000013335809, 10.0018015, 9.9988985 
2.8398985e+3, 1.6385904e+2, -1280324.5, -1381801.9, 7098.298, -0.34681398, 0.3459841, -1279830.4, 54387.973, 0.000000073245815, 10.0011425, 9.999541 
2.8395712e+3, 1.73856e+2, -986387.0, -1131216.9, 24149.16, 0.24631888, 0.48015067, -982466.5, 253783.23, 0.0, 10.002283, 10.000023 
2.83924e+3, 1.838513e+2, -935936.06, -1191809.4, 8910.695, 0.48970968, 0.63791496, -935626.1, 202667.89, 0.0, 10.002522, 9.998834 
2.838903e+3, 1.9384244e+2, -910177.06, -1095700.0, 26901.717, 0.19475323, 0.27261508, -906354.94, 134018.5, 0.0, 10.001924, 9.999078 
2.8385672e+3, 2.0383497e+2, -1104989.4, -1392357.4, 49198.313, 0.0032431828, 0.29507563, -1096799.9, -154355.3, 0.0, 10.000959, 9.996867 
2.838233e+3, 2.1382852e+2, -1149984.9, -1343943.8, 49799.37, -0.002575294, 0.3927741, -1137946.0, -293432.06, 0.0, 9.999963, 9.996964 
2.8378987e+3, 2.238215e+2, -895179.3, -860822.8, -20579.67, -0.010567876, 0.44751474, -851194.06, -104614.12, 0.0, 9.999614, 9.999844 
2.8375626e+3, 2.3381221e+2, -611159.3, -586349.75, -3795.3223, -0.018216047, -0.10414273, -585782.1, 62872.707, 0.0, 10.000532, 10.000596 
2.8372264e+3, 2.4380597e+2, -646262.4, -731697.9, 44731.082, -0.07349044, -0.1264457, -627128.06, -76419.51, 0.0, 10.000385, 9.999028 
2.8368905e+3, 2.5380275e+2, -739161.3, -699944.56, 49769.914, -0.12785156, 0.079061404, -666059.6, -213313.11, 0.0, 9.998985, 9.9992285 
2.8365564e+3, 2.637987e+2, -846482.0, -805764.8, 84765.96, -0.09300539, 0.3841423, -738946.94, -384152.9, 0.0, 9.998041, 9.998241 
2.8362244e+3, 2.7379212e+2, -657669.0, -630274.4, 38240.29, 0.10018639, 0.30940506, -603352.3, -346484.13, 0.0, 9.998545, 9.998512 
2.835892e+3, 2.8378713e+2, -446597.9, -344660.56, 46181.996, 0.22370411, 0.48247784, -326850.0, -167928.69, 0.0, 9.998662, 9.999788 
2.8355587e+3, 2.9378325e+2, -342563.66, -187638.6, 60958.203, 0.18903856, 0.50207245, -166529.6, -105572.23, 0.0, 9.998453, 10.000293 
2.8352228e+3, 3.037776e+2, -372860.38, -356040.25, 40448.953, -0.06063318, 0.56732124, -323136.3, -323136.3, 0.0, 9.998475, 9.99846 
2.834888e+3, 3.1376818e+2, -246955.95, -277748.0, 1730.7777, -0.13146794, 0.14846015, -246858.97, -246858.97, 0.0, 9.998979, 9.998444 
2.8345603e+3, 3.2376298e+2, 189712.88, 320760.72, 225198.9, 0.273309, 0.21137892, 489774.5, 489774.5, 0.0, 10.00044, 10.001685 
2.850901e+3, 1.3421081e+2, -1489603.5, -1428523.3, 5504.566, 0.3317351, 0.34928027, -1428031.1, 196738.83, 0.000013315561, 10.000703, 10.00141 
2.8505626e+3, 1.4420481e+2, -1073228.5, -1455886.9, 82903.89, -0.15707518, 0.26406732, -1056039.3, 470782.1, 0.0000038169696, 10.004079, 9.999039 
2.8502283e+3, 1.5420003e+2, -1206825.3, -1435064.1, 166398.45, -0.28796467, 0.28267813, -1119173.3, 309699.06, 0.0000005153316, 10.002407, 9.999273 
2.8498968e+3, 1.6419493e+2, -1184131.5, -1310740.9, 130848.195, -0.18310829, 0.3917466, -1102079.0, 228844.86, 0.00000002542409, 10.001599, 9.99984 
2.8495672e+3, 1.7418934e+2, -1074819.3, -1197581.8, 139029.92, 0.13228111, 0.31641632, -984223.6, 248753.14, 0.0, 10.00167, 9.99991 
2.8492355e+3, 1.8418397e+2, -960128.6, -1226448.4, 74341.6, 0.2715427, 0.42597476, -940782.06, 194246.48, 0.0, 10.002342, 9.998708 
2.8489012e+3, 1.9417727e+2, -629294.1, -1017607.9, 55463.945, 0.14637755, 0.3555453, -621527.4, 415566.34, 0.0, 10.003931, 9.998693 
2.8485656e+3, 2.0417076e+2, -598337.44, -996680.2, -67147.61, 0.06557246, 0.41540617, -587323.06, 351834.6, 0.0, 10.003647, 9.998339 
2.848229e+3, 2.1416368e+2, -963392.8, -1121626.6, 7570.3643, 0.07694974, 0.35705394, -963031.44, -121802.516, 0.0, 10.000485, 9.998312 
2.8478932e+3, 2.2415695e+2, -921499.75, -851766.6, 88735.9, 0.04513272, 0.3550173, -791293.06, -48001.117, 0.0, 9.999286, 10.000067 
2.847557e+3, 2.3414938e+2, -569847.8, -611577.5, 38733.055, -0.104198605, 0.060885586, -546717.3, 98638.266, 0.0, 10.000882, 10.0002985 
2.8472215e+3, 2.441434e+2, -438462.97, -610296.4, -37187.78, -0.12488943, 0.05259828, -430760.2, 116648.336, 0.0, 10.001551, 9.999365 
2.8468862e+3, 2.54139e+2, -476564.3, -570773.4, -56212.35, -0.013355396, 0.1667585, -450329.47, -875.6136, 0.0, 10.000605, 9.999399 
2.8465512e+3, 2.6413402e+2, -578520.56, -644129.5, 67398.42, 0.040882982, 0.34012166, -536367.1, -184859.83, 0.0, 9.999665, 9.998605 
2.846218e+3, 2.7412724e+2, -493756.94, -541880.56, 78423.016, 0.071619846, 0.28989542, -435787.4, -182206.05, 0.0, 9.9995365, 9.998691 
2.8458855e+3, 2.8412205e+2, -266971.84, -263718.0, 139385.89, 0.15852828, 0.42318672, -125949.52, 29687.137, 0.0, 9.999827, 9.999834 
2.8455532e+3, 2.941177e+2, -78732.84, -107196.18, 57143.8, 0.22530492, 0.46743956, -34075.17, 23602.13, 0.0, 10.000371, 9.999974 
2.845218e+3, 3.0411136e+2, -7244.927, -172075.83, 72164.16, 0.03288132, 0.47044352, 19884.008, 19884.008, 0.0, 10.000819, 9.99865 
2.844883e+3, 3.1410182e+2, 85030.29, -139121.6, 43031.22, -0.16138925, 0.05708231, 93007.266, 93007.266, 0.0, 10.001268, 9.998339 
2.8445587e+3, 3.24101e+2, -103751.93, 105443.36, 93566.29, 0.6201457, 0.5722098, 141185.72, 141185.72, 0.0, 9.998558, 10.001181 
2.860898e+3, 1.3454276e+2, -1261288.3, -1248665.5, 212784.61, 0.42370316, 0.11644114, -1042098.7, 579417.3, 0.0000059672575, 10.002187, 10.001829 
2.860563e+3, 1.4454038e+2, -1377566.5, -1536187.9, -8854.923, 0.08025012, 0.3456038, -1377073.6, 146456.73, 0.0000015122073, 10.001845, 9.9994955 
2.8602284e+3, 1.5453693e+2, -1240760.3, -1411500.1, 12988.3545, 0.024558693, 0.40983042, -1239777.9, 185790.4, 0.0000000966577, 10.002106, 9.99953 
2.8598955e+3, 1.6453108e+2, -1173304.6, -1335638.0, 46965.055, 0.059425794, 0.43943217, -1160696.4, 166929.1, 0.00000000026919006, 10.001914, 9.999491 
2.8595626e+3, 1.7452247e+2, -1189526.6, -1327708.3, 57226.4, 0.048380993, 0.06777277, -1168904.6, 60799.984, 0.0, 10.001297, 9.99917 
2.85923e+3, 1.8451656e+2, -1193900.4, -1404187.1, 100700.805, 0.037158363, 0.202037, -1153456.1, -21692.809, 0.0, 10.001183, 9.998003 
2.858899e+3, 1.945125e+2, -1077086.5, -1328152.8, 117892.23, 0.11915136, 0.4315382, -1030407.1, 3404.008, 0.0, 10.0014305, 9.997726 
2.8585646e+3, 2.0450719e+2, -820157.4, -920608.4, -121734.86, 0.18842947, 0.60119706, -738693.94, 197171.2, 0.0, 10.001441, 9.999887 
2.8582254e+3, 2.1449876e+2, -956885.2, -965349.75, -100360.25, 0.21119824, 0.20456287, -860668.0, -22725.744, 0.0, 9.999932, 9.999652 
2.8578874e+3, 2.2449243e+2, -1029098.5, -1030732.7, 135343.4, 0.06958888, 0.2306902, -894569.75, -154567.84, 0.0, 9.99924, 9.998776 
2.857551e+3, 2.3448762e+2, -849707.0, -928404.44, 101577.26, -0.2558066, 0.3086504, -780123.3, -138074.06, 0.0, 9.999922, 9.998503 
2.857216e+3, 2.4448241e+2, -660401.8, -702396.3, -61935.195, -0.25001228, 0.47991687, -616001.4, -71902.61, 0.0, 10.000198, 9.999238 
2.8568828e+3, 2.5447538e+2, -686837.94, -699342.8, -74012.01, 0.16016144, 0.27589667, -618814.75, -172650.48, 0.0, 9.999443, 9.998976 
2.8565478e+3, 2.644688e+2, -629450.7, -603681.75, 55165.324, 0.24550012, 0.29276076, -559916.2, -211689.69, 0.0, 9.999126, 9.999092 
2.856211e+3, 2.744614e+2, -566460.4, -542325.94, 81357.25, -0.041253198, 0.07716726, -472145.84, -221847.89, 0.0, 9.998931, 9.998967 
2.8558773e+3, 2.8445512e+2, -443942.47, -450729.7, 136593.38, -0.13202839, 0.14215724, -310700.53, -158340.48, 0.0, 9.99924, 9.998752 
2.855546e+3, 2.9444894e+2, -293034.84, -362671.22, 93537.97, -0.04488258, 0.09573555, -228044.92, -173622.56, 0.0, 9.999686, 9.998495 
2.8552133e+3, 3.0444324e+2, -51593.363, -120750.55, 65167.473, -0.027325278, 0.21125948, -12398.797, -12398.797, 0.0, 10.000355, 9.99916 
2.854882e+3, 3.144378e+2, -57259.023, -184546.3, 82020.72, 0.11982836, 0.12840106, -17085.94, -17085.94, 0.0, 10.000327, 9.998435 
2.8545484e+3, 3.2443553e+2, -391524.88, -283648.63, -36035.56, 0.1906789, 0.60259473, -272718.56, -272718.56, 0.0, 9.99783, 9.998818 
2.870894e+3, 1.3487934e+2, -1224941.9, -1510997.1, -78597.94, 0.08023782, 0.32869747, -1204768.5, 413449.25, 0.0000021514043, 10.0034, 9.999555 
2.8705633e+3, 1.448752e+2, -1498326.1, -1615279.8, -6401.1714, 0.4726011, 0.5378797, -1497976.8, 22280.49, 0.00000043033984, 10.000977, 9.999418 
2.870226e+3, 1.5486866e+2, -1197059.3, -1444397.4, 18298.146, -0.022049181, 0.34473658, -1195712.9, 226607.66, 0.000000019645139, 10.002504, 9.999165 
2.8698927e+3, 1.6486268e+2, -952687.7, -1165942.9, -76967.15, -0.01955123, 0.33597797, -927811.0, 396566.13, 0.0, 10.003092, 10.000113 
2.869561e+3, 1.7485687e+2, -1052617.5, -1218210.8, -31184.742, 0.20652047, 0.24197055, -1046939.5, 179490.47, 0.0, 10.001951, 9.999649 
2.8692275e+3, 1.8485144e+2, -1037326.6, -1079797.1, 39562.05, 0.1856379, 0.26585257, -1013660.94, 114819.375, 0.0, 10.000969, 10.000428 
2.868893e+3, 1.9484554e+2, -1202048.9, -1170791.1, 178305.52, 0.01863061, 0.13619134, -1007430.9, 23106.352, 0.0, 9.999372, 9.999926 
2.8685585e+3, 2.0484106e+2, -1002999.0, -934638.06, 12819.485, 0.058192577, 0.24725264, -932313.1, 268.81592, 0.0, 9.999852, 10.000551 
2.868222e+3, 2.1483675e+2, -557479.2, -730072.06, -9455.803, 0.22022977, 0.27824113, -556962.7, 277663.44, 0.0, 10.00241, 10.000099 
2.867885e+3, 2.2483115e+2, -456051.63, -781064.75, 144878.44, 0.15497535, 0.35693252, -400847.03, 335834.03, 0.0, 10.0030575, 9.998741 
2.8675482e+3, 2.3482433e+2, -636185.5, -856607.75, 150065.02, -0.13579972, 0.29961956, -560208.5, 78538.445, 0.0, 10.0012865, 9.998426 
2.8672123e+3, 2.4481797e+2, -583935.06, -652338.9, 35494.824, -0.14570361, 0.34666646, -568845.44, -28038.2, 0.0, 10.000503, 9.999484 
2.866878e+3, 2.5481087e+2, -428660.06, -567822.4, -1156.5754, 0.15837534, 0.18648452, -428650.47, 14222.713, 0.0, 10.00103, 9.999166 
2.8665426e+3, 2.6480424e+2, -312931.8, -507325.53, 116750.586, 0.2123665, 0.20337687, -258214.45, 86721.89, 0.0, 10.00138, 9.998732 
2.8662062e+3, 2.74797e+2, -253787.28, -467957.0, 37063.96, -0.030702936, 0.09677588, -247554.42, -547.78467, 0.0, 10.001205, 9.998448 
2.865872e+3, 2.8478998e+2, -309857.84, -425442.4, 83095.766, -0.12245368, 0.11718749, -266433.28, -117357.11, 0.0, 10.000273, 9.998427 
2.8655398e+3, 2.9478255e+2, -432353.03, -486593.75, 46911.35, -0.07032185, 0.017417736, -405286.78, -354135.53, 0.0, 9.998891, 9.998047 
2.8652078e+3, 3.0477744e+2, -222167.77, -54587.78, 111955.58, -0.015074284, 0.14242211, 1460.7588, 1460.7588, 0.0, 9.998496, 10.000533 
2.8648776e+3, 3.1477445e+2, -187357.55, -135074.67, 115816.84, 0.21239156, 0.22149105, -42485.67, -42485.67, 0.0, 9.998837, 9.999536 
2.864541e+3, 3.2476956e+2, 31664.225, -94326.16, 15015.731, 0.05362071, 0.38260213, 33429.1, 33429.1, 0.0, 10.000692, 9.998755 
2.8808907e+3, 1.3521552e+2, -1438416.5, -1817705.4, -227276.27, -0.03851618, 0.5176443, -1332055.0, 282867.16, 0.00000033823923, 10.002991, 9.997557 
2.8805628e+3, 1.4521003e+2, -1253519.3, -1498023.8, 111579.45, 0.8144107, 0.7041899, -1210255.4, 306727.06, 0.000000039050374, 10.002787, 9.999289 
2.8802228e+3, 1.5520038e+2, -1279270.8, -1555358.8, 139765.0, -0.037816808, 0.22731316, -1220870.3, 198201.16, 0.0000000006124831, 10.002327, 9.998478 
2.87989e+3, 1.6519466e+2, -1086206.4, -1191016.3, -485.22592, -0.056540605, 0.27408287, -1086204.1, 234920.3, 0.0, 10.0021305, 10.000314 
2.8795603e+3, 1.7519182e+2, -1171786.0, -1286346.8, 5928.9087, 0.46515897, 0.418749, -1171480.0, 51671.1, 0.0, 10.001273, 9.999451 
2.8792253e+3, 1.8518671e+2, -933072.7, -732408.9, 32642.559, 0.40647757, 0.36179072, -727232.4, 397961.47, 0.0, 10.000636, 10.002878 
2.8788865e+3, 1.9517852e+2, -1106154.6, -888488.44, 67423.375, -0.053930793, -0.2770067, -869295.9, 157965.61, 0.0, 9.9992075, 10.001884 
2.878551e+3, 2.0517538e+2, -1103951.3, -1025774.1, 43309.766, -0.09793993, -0.105619036, -1006521.9, -77229.37, 0.0, 9.999515, 10.000032 
2.878219e+3, 2.1517581e+2, -858359.06, -973341.44, 38441.34, 0.21226946, 0.4107388, -846691.25, -15391.325, 0.0, 10.000946, 9.999083 
2.8778833e+3, 2.251708e+2, -673522.3, -826218.9, 52524.24, 0.2590797, 0.57786983, -657199.94, 76150.85, 0.0, 10.001509, 9.999105 
2.877546e+3, 2.3516035e+2, -889692.94, -1004094.7, 70147.25, 0.099251166, 0.09501647, -856381.0, -220934.84, 0.0, 9.999846, 9.998061 
2.877209e+3, 2.4515264e+2, -713156.2, -734761.4, 40393.934, 0.013561768, 0.04424775, -682145.3, -144627.42, 0.0, 9.999826, 9.9992285 
2.876872e+3, 2.5514644e+2, -643724.4, -757745.6, 17797.76, 0.0031931845, -0.019834146, -641010.9, -201433.77, 0.0, 10.000051, 9.99833 
2.8765365e+3, 2.6514053e+2, -527439.2, -750866.6, 97688.71, -0.00862693, 0.18129781, -490751.28, -149114.36, 0.0, 10.000666, 9.997352 
2.8762025e+3, 2.7513382e+2, -546423.7, -818834.75, 48071.176, -0.02861715, 0.24149916, -538189.7, -294481.6, 0.0, 10.0002365, 9.996475 
2.875868e+3, 2.851266e+2, -379147.1, -457793.22, 26425.375, -0.03153629, 0.33966503, -371092.9, -225310.97, 0.0, 9.999853, 9.998383 
2.8755343e+3, 2.9511815e+2, -579955.25, -625724.25, 27025.107, -0.044780213, 0.124728836, -567427.1, -519560.88, 0.0, 9.998234, 9.997413 
2.8752008e+3, 3.051133e+2, -189894.98, 142595.2, 94104.61, -0.08867009, 0.22181079, 167381.81, 167381.81, 0.0, 9.998088, 10.002057 
2.8748694e+3, 3.151108e+2, -349910.4, -155322.27, 144982.81, 0.0012557626, 0.20712934, -78013.49, -78013.49, 0.0, 9.997594, 9.999993 
2.874537e+3, 3.25104e+2, 56241.86, 228058.33, 300228.47, -0.02089436, -0.05270757, 454427.78, 454427.78, 0.0, 9.999851, 10.001234 
2.8908896e+3, 1.3554788e+2, -1397596.3, -1891384.3, -142752.75, -0.08706622, 0.21426766, -1359297.4, 252355.6, 0.0000000032251708, 10.003478, 9.996901 
2.890558e+3, 1.4554316e+2, -893752.9, -1182761.0, 99469.12, 0.36326793, 0.45466146, -862827.4, 650882.4, 0.0, 10.004553, 10.000641 
2.8902206e+3, 1.5553585e+2, -1154636.9, -1376848.6, 199806.64, -0.0846958, 0.13231304, -1037122.5, 378651.38, 0.0, 10.002516, 9.9996805 
2.8898874e+3, 1.6553074e+2, -1071581.0, -1159153.6, 108095.03, -0.006881642, 0.16705357, -998740.7, 319081.4, 0.0, 10.00199, 10.000657 
2.8895563e+3, 1.7552742e+2, -999544.94, -1173969.0, 134428.61, 0.34752932, 0.28717986, -926516.6, 293340.78, 0.0, 10.002146, 9.999876 
2.889221e+3, 1.855226e+2, -785035.4, -800457.44, 57258.01, 0.31327787, 0.29778326, -734971.5, 386930.88, 0.0, 10.002093, 10.001776 
2.8888825e+3, 1.9551612e+2, -860979.6, -879399.06, -9854.439, -0.0368554, -0.0068665417, -856701.25, 167257.9, 0.0, 10.00119, 10.001057 
2.8885463e+3, 2.0551232e+2, -833110.6, -837046.56, -33339.5, -0.096700504, 0.08702966, -801681.06, 124315.055, 0.0, 10.000929, 10.000708 
2.8882128e+3, 2.1551038e+2, -775475.94, -849860.94, 13026.961, 0.052728828, 0.33365947, -773260.5, 54760.223, 0.0, 10.000946, 9.999991 
2.8878787e+3, 2.2550517e+2, -628683.4, -691659.56, 1029.5436, 0.1697084, 0.36936995, -628666.5, 101402.914, 0.0, 10.001236, 10.000207 
2.8875428e+3, 2.3549652e+2, -551154.44, -702950.5, 37783.086, 0.232454, 0.006745415, -542269.94, 89875.03, 0.0, 10.001403, 9.999443 
2.8872064e+3, 2.4548936e+2, -474952.28, -715604.06, 51274.57, 0.1890277, -0.02878728, -464482.9, 69730.32, 0.0, 10.001811, 9.998447 
2.8868684e+3, 2.5548267e+2, -352320.1, -707031.1, -14718.19, 0.040355355, -0.0122974105, -351710.44, 84571.86, 0.0, 10.002277, 9.997677 
2.8865328e+3, 2.6547644e+2, -232419.77, -616477.4, 73470.65, -0.026485749, 0.17886603, -218844.6, 119503.484, 0.0, 10.002673, 9.997321 
2.886199e+3, 2.7547002e+2, -112694.96, -611340.2, 54122.54, -0.03843553, 0.32729042, -106888.17, 133528.52, 0.0, 10.003133, 9.996539 
2.8858644e+3, 2.8546274e+2, -48337.37, -332603.63, 9472.141, 0.026120545, 0.41874143, -48022.094, 94468.74, 0.0, 10.002059, 9.998274 
2.8855294e+3, 2.9545414e+2, -404946.84, -542332.7, 194.04942, 0.13640468, 0.23250327, -404946.56, -360371.5, 0.0, 9.999227, 9.997594 
2.8851953e+3, 3.0544794e+2, -147800.31, 69806.17, 104585.16, 0.077023305, 0.22493272, 111920.79, 111920.79, 0.0, 9.998735, 10.001309 
2.8848636e+3, 3.154439e+2, -88858.71, -71602.08, -41792.246, 0.07740708, 0.177643, -37556.754, -37556.754, 0.0, 9.999434, 9.999821 
2.884535e+3, 3.2543853e+2, 161357.02, 342661.28, -72658.73, 0.23682693, 0.09985179, 368186.16, 368186.16, 0.0, 10.000092, 10.002215 
2.9008883e+3, 1.3588098e+2, -1538660.4, -1998821.5, 9613.954, -0.023442592, -0.066905506, -1538459.6, 69919.36, 0.000000008553674, 10.002775, 9.996497 
2.9005522e+3, 1.4587703e+2, -1243865.6, -1229112.5, 122141.83, -0.05178104, 0.1980967, -1114124.6, 396304.38, 0.0, 10.001734, 10.001648 
2.9002184e+3, 1.5587233e+2, -1346538.1, -1387009.3, 165976.48, 0.0057429643, 0.019441491, -1199568.3, 212897.63, 0.0, 10.0009775, 10.000309 
2.8998852e+3, 1.6586798e+2, -1191087.9, -1202748.1, 136236.31, 0.126414, 0.10185637, -1060557.0, 253951.42, 0.0, 10.00128, 10.000627 
2.8995517e+3, 1.7586342e+2, -1203490.4, -1331882.6, 135443.95, 0.2305966, 0.077263, -1117799.3, 98760.46, 0.0, 10.001123, 9.999258 
2.899216e+3, 1.8585941e+2, -1073258.8, -1138650.3, 60110.418, 0.19115476, 0.29436538, -1037527.3, 81075.67, 0.0, 10.001086, 9.999868 
2.898879e+3, 1.9585526e+2, -1221953.8, -1275117.3, 37255.848, 0.084930204, 0.37522557, -1202768.9, -182122.84, 0.0, 9.999797, 9.998937 
2.8985426e+3, 2.0585003e+2, -901690.7, -794579.75, 50192.61, -0.03704275, 0.3936167, -774735.75, 147959.81, 0.0, 10.000262, 10.001238 
2.8982064e+3, 2.1584353e+2, -866776.94, -878105.1, 45806.934, -0.119607404, 0.102426894, -826285.25, -1529.7319, 0.0, 10.000383, 10.000014 
2.897873e+3, 2.2583842e+2, -633954.75, -557600.5, 8111.941, 0.02585742, 0.0833029, -556748.2, 170050.27, 0.0, 10.000813, 10.001229 
2.8975394e+3, 2.3583348e+2, -764806.4, -781751.06, 14988.987, 0.3206962, -0.039804634, -756061.0, -127223.65, 0.0, 9.999966, 9.99955 
2.897204e+3, 2.4582724e+2, -725686.6, -950813.8, 33189.8, 0.3193373, 0.07132733, -720895.5, -189995.13, 0.0, 10.000781, 9.997204 
2.896866e+3, 2.5581932e+2, -703261.7, -1054909.0, 8534.325, 0.120753735, 0.04878124, -703054.7, -270066.53, 0.0, 10.000817, 9.995908 
2.8965303e+3, 2.6581222e+2, -355522.5, -637202.7, 108777.84, -0.030029835, 0.22146055, -318406.0, 16657.941, 0.0, 10.001784, 9.997551 
2.8961957e+3, 2.7580544e+2, -338419.25, -746026.2, 102311.734, -0.16279174, 0.28527316, -314179.88, -77045.945, 0.0, 10.00179, 9.996246 
2.8958604e+3, 2.857983e+2, -179039.22, -377766.16, -99631.48, -0.055140954, 0.3967994, -137691.89, 1512.0652, 0.0, 10.00125, 9.998298 
2.8955248e+3, 2.9579014e+2, -590161.5, -716863.44, -52928.78, 0.22675829, 0.2495077, -570960.7, -529678.8, 0.0, 9.998465, 9.996718 
2.8951895e+3, 3.0578324e+2, -270380.94, -296670.06, 157722.52, 0.11155259, 0.32352066, -125256.195, -125256.195, 0.0, 9.999432, 9.998235 
2.8948548e+3, 3.1577808e+2, -410756.84, -857278.9, 59831.715, -0.30288026, 0.4683907, -402878.7, -402878.7, 0.0, 10.000131, 9.993971 
2.8945327e+3, 3.2576436e+2, -480872.0, -271729.25, -52034.67, 0.43639916, -0.15079115, -259498.31, -259498.31, 0.0, 9.997518, 9.998841 
2.910888e+3, 1.3622035e+2, -1419065.3, -1716107.3, -273248.88, 0.08004353, 0.06788553, -1256582.4, 348473.88, 0.000000011355019, 10.002394, 9.9987335 
2.9105458e+3, 1.4621563e+2, -1502955.1, -1360876.6, 192952.77, -0.25094488, 0.1652134, -1226301.4, 280806.6, 0.0, 9.999837, 10.001738 
2.9102153e+3, 1.562117e+2, -1371036.6, -1383750.3, 228365.89, 0.09507779, 0.078770265, -1148939.1, 260199.55, 0.0, 10.000603, 10.00057 
2.909882e+3, 1.662073e+2, -1236331.1, -1304536.6, 152687.63, 0.18682225, 0.1739109, -1113984.3, 197200.47, 0.0, 10.0012245, 9.999981 
2.9095456e+3, 1.7620224e+2, -1184473.1, -1353993.6, 136679.27, -0.025372433, 0.18972066, -1108405.8, 104838.2, 0.0, 10.001223, 9.999105 
2.9092103e+3, 1.8619806e+2, -992234.6, -988012.44, 54623.344, 0.019002503, 0.32627004, -935459.4, 179827.16, 0.0, 10.001017, 10.001005 
2.9088753e+3, 1.9619438e+2, -1118888.3, -1109620.4, 149637.72, 0.19259866, 0.38932157, -964544.9, 52774.617, 0.0, 9.9998455, 10.000107 
2.90854e+3, 2.0618802e+2, -880178.0, -959777.0, 231586.88, 0.15743607, 0.32955918, -684995.56, 234384.52, 0.0, 10.001025, 9.999788 
2.9082048e+3, 2.1617961e+2, -518848.78, -825087.5, 142479.92, -0.04039736, 0.032758895, -462812.53, 358648.6, 0.0, 10.003092, 9.999126 
2.9078698e+3, 2.2617428e+2, -398887.0, -575981.1, -68851.19, 0.04708453, 0.08670963, -375268.7, 348243.28, 0.0, 10.002826, 10.000204 
2.9075345e+3, 2.361705e+2, -645737.3, -780281.5, -129864.516, 0.28606313, 0.20000964, -566755.06, 58792.504, 0.0, 10.000814, 9.999221 
2.9071987e+3, 2.4616468e+2, -573872.25, -783684.25, 1730.0879, 0.24112476, 0.30383822, -573858.0, -46251.58, 0.0, 10.001168, 9.998269 
2.906862e+3, 2.561572e+2, -289623.44, -688687.3, 59237.934, 0.028456343, 0.2423951, -281015.7, 148669.05, 0.0, 10.002699, 9.997579 
2.906527e+3, 2.6615053e+2, -282377.13, -486736.28, 162058.13, 0.007356479, 0.3162756, -192975.13, 138777.11, 0.0, 10.00159, 9.998745 
2.9061928e+3, 2.7614415e+2, -698364.0, -768994.44, 190216.3, 0.067369714, 0.32786894, -540212.44, -306396.7, 0.0, 9.998485, 9.997726 
2.9058555e+3, 2.861355e+2, -539318.2, -517235.97, 104642.69, 0.034412578, 0.21645735, -423053.5, -287155.44, 0.0, 9.998598, 9.998619 
2.9055166e+3, 2.961272e+2, -303655.38, -370735.72, 96708.88, 0.054776385, 0.06326743, -234835.64, -196860.63, 0.0, 9.999322, 9.9986925 
2.920886e+3, 1.3656063e+2, -1564339.9, -1572021.6, -430000.7, 0.2651053, 0.27857167, -1138162.9, 463562.44, 0.00000000463828, 10.000652, 10.000459 
2.92054e+3, 1.465553e+2, -1293715.6, -1279265.4, 202131.53, -0.29799998, 0.21814421, -1084229.9, 419548.97, 0.0, 10.001482, 10.001415 
2.9202127e+3, 1.565515e+2, -1384145.1, -1467116.8, 187270.06, 0.25981107, 0.16648066, -1233820.8, 171989.5, 0.0, 10.000945, 9.999794 
2.9198787e+3, 1.6654675e+2, -1325391.8, -1439393.4, 117414.12, 0.24778333, 0.29417995, -1251873.8, 55988.297, 0.0, 10.001029, 9.99915 
2.9195398e+3, 1.7654102e+2, -1438768.4, -1564836.3, 109125.93, -0.18182792, 0.30645418, -1375779.5, -165849.75, 0.0, 9.999958, 9.998261 
2.9192045e+3, 1.8653686e+2, -956428.0, -786370.6, 2135.7117, -0.08539768, 0.37196162, -786343.8, 325624.22, 0.0, 10.000637, 10.002471 
2.9188716e+3, 1.9653298e+2, -1048521.6, -1053165.4, 55241.87, 0.37487206, 0.24614143, -995552.9, 18442.918, 0.0, 10.000314, 10.000254 
2.9185382e+3, 2.0652592e+2, -1006227.2, -1222137.9, 257535.13, 0.3880568, 0.21194835, -834935.9, 81127.66, 0.0, 10.001199, 9.997842 
2.918204e+3, 2.1651666e+2, -1008022.06, -1328086.5, 194224.11, 0.14071575, 0.0022425447, -916393.2, -98235.195, 0.0, 10.001038, 9.996639 
2.9178673e+3, 2.2651096e+2, -729155.75, -923672.06, -103658.08, 0.091801055, 0.21366781, -684272.6, 35949.008, 0.0, 10.001502, 9.998389 
2.9175287e+3, 2.3650697e+2, -948070.56, -1124813.8, -119935.914, 0.16090828, 0.46513784, -887465.1, -265195.0, 0.0, 9.999767, 9.997312 
2.9171923e+3, 2.4650185e+2, -519762.6, -505863.66, 107858.12, 0.039170355, 0.58949906, -404731.34, 119588.85, 0.0, 10.000613, 10.000365 
2.916857e+3, 2.5649565e+2, -470250.75, -600989.1, 136248.75, -0.20321658, 0.42128363, -384501.25, 41874.68, 0.0, 10.00084, 9.999048 
2.9165232e+3, 2.6649058e+2, -311881.84, -269509.72, 52765.51, 0.016149662, 0.47040322, -233835.86, 94586.45, 0.0, 10.000613, 10.000581 
2.9161894e+3, 2.7648547e+2, -742971.7, -655435.56, 113564.25, 0.39403948, 0.40073657, -577497.06, -347027.34, 0.0, 9.997744, 9.998817 
2.915849e+3, 2.8647405e+2, -549968.3, -490485.75, 173286.83, 0.0708795, -0.062277675, -344406.47, -211829.94, 0.0, 9.9985075, 9.998779 
2.9155082e+3, 2.9646903e+2, -181596.61, 183174.6, -91292.695, -0.26226372, -0.023947526, 204746.98, 239365.48, 0.0, 9.998171, 10.003019 
2.930882e+3, 1.3689849e+2, -1711360.6, -1750489.6, -257723.67, 0.2823564, 0.19067587, -1472459.9, 125959.07, 0.0, 9.999948, 9.999644 
2.9305387e+3, 1.4689328e+2, -1125359.6, -1324242.5, 124707.24, -0.23005827, 0.24434781, -1065300.3, 435172.2, 0.0, 10.00303, 10.000443 
2.930208e+3, 1.5688923e+2, -1254895.4, -1476450.8, 103248.31, 0.09793705, 0.2899727, -1214240.1, 188271.06, 0.0, 10.001965, 9.99931 
2.9298747e+3, 1.6688414e+2, -1211476.9, -1303060.8, 36570.617, 0.21979976, 0.34800106, -1198665.9, 105896.45, 0.0, 10.001314, 10.000025 
2.929537e+3, 1.7687823e+2, -1345546.0, -1415062.8, 109197.305, -0.009422229, 0.28427204, -1265708.6, -59085.793, 0.0, 9.999985, 9.999334 
2.929202e+3, 1.8687312e+2, -928332.2, -933345.56, 23659.912, 0.034512244, 0.2842516, -907046.56, 201625.92, 0.0, 10.001409, 10.001141 
2.9288685e+3, 1.968681e+2, -605842.8, -885076.6, -23678.227, 0.2792574, 0.19800077, -603849.2, 406869.5, 0.0, 10.003382, 9.999983 
2.928535e+3, 2.068629e+2, -607537.6, -866925.06, 113932.55, 0.34483448, 0.2524151, -564601.44, 348167.8, 0.0, 10.003069, 9.999467 
2.9282013e+3, 2.1685706e+2, -892818.8, -1094604.5, 180745.7, 0.2408421, 0.25378558, -786713.2, 28114.61, 0.0, 10.0008135, 9.998438 
2.927864e+3, 2.2685103e+2, -696263.6, -903224.5, 55416.945, 0.14256516, 0.35870162, -682359.06, 34533.465, 0.0, 10.001465, 9.998698 
2.9275241e+3, 2.3684505e+2, -358416.56, -742434.25, 120478.91, 0.03263273, 0.43489963, -323748.2, 295210.72, 0.0, 10.003123, 9.998437 
2.9271886e+3, 2.4683934e+2, -197255.84, -288662.06, 280238.75, -0.00458654, 0.42795405, 40982.13, 561994.06, 0.0, 10.002411, 10.001062 
2.9268545e+3, 2.5683343e+2, -447315.1, -491542.2, 215328.81, -0.0063581318, 0.26771495, -252967.31, 170094.58, 0.0, 10.000349, 10.00012 
2.926519e+3, 2.6682916e+2, -310869.03, -331006.16, 91765.69, 0.073941134, 0.3851184, -228621.19, 96481.23, 0.0, 10.0006895, 10.00022 
2.9261824e+3, 2.768252e+2, -20936.223, -261822.4, -318.70422, 0.18814406, 0.47324935, -20935.8, 206207.16, 0.0, 10.002274, 9.999417 
2.9258445e+3, 2.8681487e+2, -147417.64, -192352.88, 26688.701, 0.17533237, 0.025832474, -134998.58, -5758.912, 0.0, 10.000629, 9.999929 
2.925507e+3, 2.9681468e+2, -204508.36, 362111.06, -373824.8, 0.44089168, 0.45311072, 547852.94, 579086.5, 0.0, 9.996925, 10.004951 
2.940878e+3, 1.3723634e+2, -1832757.5, -1852631.0, -51186.39, 0.3966901, 0.21688595, -1790552.3, -195438.89, 0.0, 9.999395, 9.9991865 
2.940537e+3, 1.4723071e+2, -1390003.6, -1541371.3, 111165.94, -0.095923975, 0.27942702, -1331203.5, 165968.16, 0.0, 10.00178, 9.999475 
2.9402044e+3, 1.5722668e+2, -1480807.5, -1674723.9, 67526.914, 0.040950246, 0.40923795, -1459610.0, -60394.38, 0.0, 10.000961, 9.998392 
2.9398707e+3, 1.6722147e+2, -1143855.8, -1121328.8, 16585.592, 0.24335071, 0.41546178, -1112543.5, 188718.97, 0.0, 10.0013075, 10.001187 
2.9395348e+3, 1.7721538e+2, -1305450.8, -1378561.1, 94652.73, 0.2930606, 0.20170385, -1240539.5, -37224.645, 0.0, 10.000346, 9.999338 
2.9391998e+3, 1.8720926e+2, -1105465.1, -1242321.5, 123980.13, 0.21353503, 0.21549867, -1032282.94, 73095.56, 0.0, 10.001275, 9.999037 
2.9388654e+3, 1.9720294e+2, -1044120.1, -1258981.9, 77067.36, 0.20063101, 0.187278, -1019336.1, -11888.087, 0.0, 10.001243, 9.998408 
2.9385316e+3, 2.0720011e+2, -683661.25, -616012.7, 73296.25, 0.26645982, 0.37056968, -569112.6, 340363.13, 0.0, 10.00147, 10.001878 
2.9381976e+3, 2.1719824e+2, -1057908.5, -1035394.7, 124137.16, 0.3526066, 0.53515047, -922005.1, -110514.34, 0.0, 9.99922, 9.999593 
2.9378602e+3, 2.271921e+2, -780525.4, -807139.4, 126599.75, 0.19417448, 0.5021077, -666535.2, 47015.566, 0.0, 10.000502, 9.999684 
2.9375204e+3, 2.3718397e+2, -680499.5, -869042.9, 174861.53, -0.08553474, 0.23276581, -576116.44, 39515.152, 0.0, 10.000999, 9.998505 
2.9371855e+3, 2.4717714e+2, -397854.2, -400088.97, 196338.19, 0.020155214, 0.11073067, -202630.2, 315062.38, 0.0, 10.001318, 10.000717 
2.9368526e+3, 2.571709e+2, -722796.8, -739207.6, 166469.77, 0.30460167, -0.0653982, -564330.4, -144585.34, 0.0, 9.999172, 9.998935 
2.936514e+3, 2.6716697e+2, -483281.6, -591838.2, 158387.66, 0.03880395, 0.21604334, -370129.94, -48341.504, 0.0, 10.000362, 9.998572 
2.9361728e+3, 2.7716362e+2, -333609.5, -549089.2, 64847.68, -0.49757725, 0.51218045, -315599.2, -91767.805, 0.0, 10.000867, 9.998098 
2.9358408e+3, 2.871575e+2, -123805.76, 36000.16, -98418.82, 0.29614413, 0.4143681, 82867.65, 208758.11, 0.0, 10.000049, 10.0016985 
2.935497e+3, 2.9715398e+2, -450876.2, 26052.922, -54616.82, 0.18661284, 0.39281097, 32227.574, 60146.777, 0.0, 9.996475, 10.002757 
2.9508707e+3, 1.375754e+2, -1558471.6, -1345825.5, -13944.003, 0.120959006, 0.52397513, -1344915.0, 246884.83, 0.0, 9.999494, 10.002687 
2.9505324e+3, 1.4756769e+2, -1522462.3, -1698795.8, 71673.97, -0.19617896, 0.29056534, -1497004.5, -3132.6191, 0.0, 10.001204, 9.998723 
2.950201e+3, 1.5756391e+2, -1474744.5, -1664452.1, 47769.188, 0.061923437, 0.5427595, -1463395.0, -67478.164, 0.0, 10.000823, 9.998595 
2.9498675e+3, 1.6755866e+2, -974598.3, -925977.44, 14921.945, 0.27149606, 0.46017238, -921763.1, 376198.13, 0.0, 10.001798, 10.002393 
2.9495314e+3, 1.7755283e+2, -892574.7, -1063381.6, 90375.69, 0.20344087, 0.19036278, -853633.8, 346372.63, 0.0, 10.002464, 10.000563 
2.9491958e+3, 1.8754792e+2, -992219.3, -1227003.1, 118211.9, 0.15490521, 0.29068905, -943013.2, 159047.97, 0.0, 10.002052, 9.998843 
2.9488608e+3, 1.9754325e+2, -1095010.6, -1231336.0, 135107.58, 0.1506856, 0.46768934, -1011845.1, -7725.17, 0.0, 10.000491, 9.999013 
2.9485267e+3, 2.075395e+2, -732295.9, -541662.75, 129261.805, 0.23161156, 0.49081975, -476374.63, 429778.88, 0.0, 10.00054, 10.002931 
2.948192e+3, 2.1753596e+2, -714066.2, -698403.1, 131568.06, 0.29409063, 0.41543877, -574433.75, 233745.58, 0.0, 10.00063, 10.00129 
2.9478562e+3, 2.2753116e+2, -671871.06, -674326.94, 144659.47, 0.28862703, 0.40245265, -528434.3, 181791.27, 0.0, 10.000761, 10.000536 
2.9475194e+3, 2.3752545e+2, -623369.7, -729732.8, 158624.8, 0.2220664, 0.31772506, -509248.8, 103034.414, 0.0, 10.000701, 9.999664 
2.947183e+3, 2.4751887e+2, -386573.75, -499767.9, 183009.81, 0.13314386, 0.22693524, -251609.31, 262734.1, 0.0, 10.001631, 10.000018 
2.9468468e+3, 2.5751182e+2, -123057.05, -429114.47, 123951.336, 0.121302724, 0.062676676, -79155.01, 337250.78, 0.0, 10.002978, 9.999321 
2.946509e+3, 2.6750705e+2, -109255.7, -275993.75, 197761.33, -0.052458443, 0.16562068, 21991.053, 340443.56, 0.0, 10.002234, 9.999882 
2.946169e+3, 2.775032e+2, -289885.25, -379891.3, 210534.81, -0.3868826, 0.3254444, -119597.35, 100896.54, 0.0, 10.000362, 9.999552 
2.9458365e+3, 2.874988e+2, -157501.86, 12479.415, 19875.568, 0.46266228, 0.3474658, 14772.492, 137309.48, 0.0, 9.999641, 10.001848 
2.945482e+3, 2.9749262e+2, -174656.97, -113093.914, 190867.22, -0.55634606, 0.13509934, 49457.945, 74055.55, 0.0, 9.999211, 10.000579 
2.9608643e+3, 1.3791254e+2, -1535684.9, -1055039.3, 117287.05, 0.04201218, 0.6927768, -1027946.06, 560555.44, 0.00000000001490612, 9.998592, 10.005094 
2.9605287e+3, 1.4790349e+2, -1605504.5, -1789820.3, 29850.916, -0.14573729, 0.26449525, -1600790.5, -110208.16, 0.0, 10.000949, 9.998194 
2.960197e+3, 1.5789977e+2, -1629968.3, -1777131.9, 44951.633, 0.15844548, 0.5744337, -1617324.0, -224695.14, 0.0, 10.000013, 9.998189 
2.9598638e+3, 1.6789484e+2, -1068477.3, -867573.7, 23344.314, 0.28654453, 0.46304795, -864896.8, 429772.13, 0.0, 10.000818, 10.003204 
2.9595277e+3, 1.7788957e+2, -1155279.3, -1142561.8, 51512.34, 0.14332008, 0.15362655, -1097017.1, 99689.63, 0.0, 10.000603, 10.000877 
2.9591915e+3, 1.8788669e+2, -1089932.6, -1204731.9, 37436.066, 0.0859669, 0.39098173, -1078803.6, 19940.033, 0.0, 10.001277, 9.999269 
2.9588565e+3, 1.9788405e+2, -1216352.6, -1310963.1, 108511.03, 0.1993967, 0.7328597, -1145283.8, -144498.7, 0.0, 9.999916, 9.998699 
2.9585218e+3, 2.0787886e+2, -723902.25, -468936.4, 139620.2, 0.23064242, 0.5722935, -407354.0, 495474.9, 0.0, 10.000513, 10.003325 
2.958187e+3, 2.1787265e+2, -895653.5, -792265.9, 120861.51, 0.21620011, 0.16507278, -712507.2, 92368.51, 0.0, 9.999646, 10.001034 
2.9578525e+3, 2.2786942e+2, -710382.7, -624557.8, 104512.28, 0.39740834, 0.2665943, -554491.06, 152416.44, 0.0, 10.000316, 10.001031 
2.9575187e+3, 2.3786743e+2, -919029.0, -919563.7, 126355.305, 0.63847053, 0.48996988, -792940.75, -184008.84, 0.0, 9.999026, 9.999147 
2.9571795e+3, 2.4786183e+2, -551558.9, -645267.56, 204000.88, 0.19816346, 0.53469795, -389100.8, 121885.26, 0.0, 10.000917, 9.999284 
2.9568395e+3, 2.5785458e+2, -413611.88, -606054.56, 159615.13, -0.40355057, 0.39498624, -323458.5, 89595.33, 0.0, 10.001316, 9.998845 
2.9565045e+3, 2.6784867e+2, -88401.164, 38638.21, 120516.164, -0.21252449, 0.20984179, 111349.56, 426450.53, 0.0, 10.001208, 10.002444 
2.956169e+3, 2.7784333e+2, -451931.84, -340432.78, 107778.68, 0.060988717, -0.028533775, -274838.78, -57697.645, 0.0, 9.9989, 10.000483 
2.9558304e+3, 2.8783923e+2, -291608.28, -151848.34, -23525.605, 0.43581843, 0.0049315514, -147994.56, -28814.428, 0.0, 9.999306, 10.000799 
2.955481e+3, 2.9783309e+2, -522543.1, -629508.2, 93949.74, -0.14439422, -0.08699842, -467919.5, -446673.72, 0.0, 9.998475, 9.997363 
2.970858e+3, 1.3824615e+2, -1632918.0, -1316164.3, 216586.86, -0.06869539, 0.5643632, -1206225.8, 379000.47, 0.00000010737005, 9.998702, 10.003301 
2.9705298e+3, 1.4823674e+2, -1559556.9, -1678961.1, -7965.4365, 0.38439393, 0.114066996, -1559027.9, -71713.6, 0.0, 10.000766, 9.999093 
2.970189e+3, 1.5823254e+2, -1501526.9, -1640405.3, 30873.799, -0.23097664, 0.31174806, -1494972.6, -105611.77, 0.0, 10.000425, 9.998972 
2.969856e+3, 1.6822867e+2, -1147464.5, -1016799.7, 9408.492, -0.047669824, 0.3278318, -1016125.75, 275271.56, 0.0, 10.000632, 10.002339 
2.969523e+3, 1.7822455e+2, -1115978.1, -1098887.6, -26875.596, 0.11108101, 0.22479035, -1079231.5, 114202.195, 0.0, 10.000593, 10.001226 
2.969188e+3, 1.8822181e+2, -873988.4, -860523.25, -22201.672, 0.12912895, 0.32151288, -844055.75, 251408.1, 0.0, 10.001552, 10.001576 
2.9688525e+3, 1.9821914e+2, -755419.7, -871692.75, 86465.484, 0.14353754, 0.44589257, -709363.44, 288132.78, 0.0, 10.00192, 10.000806 
2.9685175e+3, 2.0821466e+2, -534991.6, -490851.0, 94379.3, 0.15970504, 0.351783, -415995.8, 483538.28, 0.0, 10.002176, 10.002427 
2.9681823e+3, 2.1820988e+2, -526070.8, -616568.94, 17901.479, 0.13296625, 0.18116426, -522658.4, 278912.88, 0.0, 10.0020075, 10.00117 
2.9678464e+3, 2.2820649e+2, -504511.2, -538022.9, -30029.516, 0.19916393, 0.26903343, -486879.1, 216726.56, 0.0, 10.001606, 10.001128 
2.9675102e+3, 2.3820347e+2, -569827.9, -651610.2, -5880.6772, 0.26830232, 0.3912556, -569407.2, 36232.285, 0.0, 10.000816, 10.000167 
2.9671738e+3, 2.4819872e+2, -402531.13, -464984.63, 161960.0, 0.03481334, 0.41876647, -268815.0, 238870.16, 0.0, 10.00132, 10.000374 
2.9668373e+3, 2.5819328e+2, -220489.1, -382433.97, 103343.836, -0.27720392, 0.37605155, -170173.73, 239561.67, 0.0, 10.001862, 10.000153 
2.9665008e+3, 2.681876e+2, -191000.5, -36580.12, -71239.234, -0.09018359, 0.17861316, -8735.838, 303044.63, 0.0, 10.000432, 10.002409 
2.9661635e+3, 2.7818182e+2, -452018.63, -290693.56, -176792.97, 0.17327027, -0.090015166, -177031.11, 36793.332, 0.0, 9.998502, 10.001081 
2.9658237e+3, 2.8817928e+2, -121222.555, -40333.992, -217578.48, 0.38281852, 0.0433108, 140527.25, 256375.31, 0.0, 10.000249, 10.001175 
2.96548e+3, 2.9817384e+2, -2885.7808, -249261.14, -162497.06, 0.25519422, 0.004947546, 77839.51, 95746.195, 0.0, 10.001351, 9.998636 
2.9808542e+3, 1.3857935e+2, -1954560.1, -1655698.8, 217771.17, 0.16447261, 0.50931865, -1541020.0, 40937.71, 0.00000019973128, 9.997419, 10.001594 
2.9805288e+3, 1.4857091e+2, -1603922.9, -1531379.4, -30439.656, 0.7635853, 0.119494975, -1520299.1, -36261.563, 0.000000000008976791, 9.999873, 10.000522 
2.9801825e+3, 1.5856645e+2, -1445669.4, -1565902.4, 39766.38, -0.42474315, 0.14158833, -1433707.0, -47625.797, 0.0, 10.000727, 9.999359 
2.9798493e+3, 1.6856357e+2, -1230379.5, -1158285.5, 33496.863, -0.24567549, 0.29768068, -1145124.5, 142990.7, 0.0, 10.000649, 10.001328 
2.979519e+3, 1.7856038e+2, -1461253.6, -1345828.6, 49672.016, 0.1844179, 0.39135793, -1327396.3, -137243.55, 0.0, 9.998723, 10.000437 
2.9791847e+3, 1.8855713e+2, -998343.7, -659134.25, 22182.26, 0.22676179, 0.3123979, -657689.8, 434491.78, 0.0, 9.999719, 10.003817 
2.9788494e+3, 1.9855401e+2, -1096782.5, -938838.4, 65994.445, 0.17464268, 0.16837366, -914893.7, 79313.305, 0.0, 9.999313, 10.001587 
2.9785135e+3, 2.085498e+2, -886334.3, -823305.2, 53682.9, 0.1128251, 0.1412133, -792570.06, 103675.07, 0.0, 10.000494, 10.000955 
2.9781786e+3, 2.1854676e+2, -1008994.44, -995800.6, -9499.075, 0.13489176, 0.26138207, -990832.44, -192560.03, 0.0, 9.999461, 9.999789 
2.9778397e+3, 2.2854325e+2, -744007.8, -624596.3, -53910.582, -0.059329968, 0.34732655, -603858.75, 96448.99, 0.0, 10.000062, 10.001192 
2.9774994e+3, 2.3853804e+2, -916644.8, -830233.1, 18158.885, -0.3493214, 0.25381058, -826572.25, -224211.22, 0.0, 9.998691, 9.999933 
2.977168e+3, 2.4853352e+2, -462193.63, -275088.66, 188635.33, -0.15858099, 0.17664684, -158081.5, 346321.44, 0.0, 10.000191, 10.00216 
2.9768378e+3, 2.5852972e+2, -555922.7, -572291.94, 85095.37, 0.1467714, 0.17461403, -478619.25, -72182.52, 0.0, 9.999855, 9.999803 
2.9764977e+3, 2.6852465e+2, -389433.38, -274854.75, -149005.66, 0.1067698, 0.1174407, -172504.63, 135977.88, 0.0, 9.999866, 10.000985 
2.9761544e+3, 2.7851915e+2, -693118.4, -540204.2, -166216.84, -0.099132515, 0.0043081194, -433703.0, -223170.61, 0.0, 9.997626, 9.999769 
2.9758176e+3, 2.8851888e+2, -156941.27, 68083.234, -129651.84, 0.29092917, 0.33179963, 127235.22, 239771.27, 0.0, 9.999655, 10.002172 
2.9754725e+3, 2.985155e+2, 175771.42, 415435.3, -8212.97, -0.21428666, 0.3159877, 415716.44, 430286.2, 0.0, 10.000395, 10.003599 
2.990845e+3, 1.3890669e+2, -2121142.3, -1790346.3, 117452.14, -0.11633085, 0.15886946, -1752886.0, -174126.4, 0.000000019519112, 9.996444, 10.001257 
2.990516e+3, 1.4890812e+2, -1464591.6, -1084081.5, 20505.496, 0.008611051, 0.5457851, -1082979.8, 397758.6, 0.0, 9.999184, 10.00404 
2.990187e+3, 1.5890506e+2, -1188646.4, -1214344.8, 79668.38, 0.29452315, 0.41679585, -1120797.6, 261962.7, 0.0, 10.00143, 10.001484 
2.9898497e+3, 1.6890307e+2, -1295510.3, -1215025.0, -41424.035, 0.23647015, 0.63271147, -1197514.5, 87271.55, 0.0, 10.000284, 10.001146 
2.9895106e+3, 1.7890164e+2, -1490711.5, -1258536.9, 33704.63, -0.07030154, 0.91394144, -1253743.0, -66934.46, 0.0, 9.998005, 10.001401 
2.9891765e+3, 1.8889874e+2, -1194219.8, -741720.6, 56290.793, 0.01208076, 0.84842706, -734823.2, 354010.88, 0.0, 9.998256, 10.004039 
2.988844e+3, 1.9889587e+2, -1348697.0, -1044514.4, 9475.452, 0.2758083, 0.75755835, -1044219.5, -53362.83, 0.0, 9.997404, 10.001835 
2.9885107e+3, 2.0889059e+2, -1197271.4, -989188.44, 29126.633, 0.4146477, 0.64971864, -985188.3, -92280.94, 0.0, 9.998365, 10.000917 
2.9881755e+3, 2.1888351e+2, -939991.4, -861205.3, -27880.133, 0.36861998, 0.3887811, -852337.44, -57360.813, 0.0, 9.9993, 10.000849 
2.9878363e+3, 2.2887914e+2, -765898.94, -525736.4, -47818.844, 0.18335135, 0.29994082, -516565.34, 180451.22, 0.0, 9.99928, 10.002347 
2.987498e+3, 2.3887722e+2, -674833.2, -571758.9, 81631.94, 0.07906653, 0.44685733, -526756.6, 72275.92, 0.0, 9.999531, 10.0014 
2.9871684e+3, 2.4887523e+2, -408543.53, -259073.2, 202852.58, 0.39907202, 0.605442, -117626.695, 383427.3, 0.0, 10.000523, 10.002197 
2.9868397e+3, 2.5887161e+2, -304983.3, -313922.78, 20281.502, 0.77163184, 0.612451, -288684.88, 114406.445, 0.0, 10.000815, 10.001201 
2.9864976e+3, 2.6886472e+2, -35200.39, 4825.3174, -107057.93, 0.57833374, 0.29584247, 93724.88, 398881.0, 0.0, 10.001748, 10.002136 
2.9861516e+3, 2.7885854e+2, 66786.58, -98590.09, -39229.875, 0.1638058, 0.064263366, 75620.61, 282834.6, 0.0, 10.002308, 10.000725 
2.985811e+3, 2.8885624e+2, -162270.03, -52726.504, -59896.164, 0.21636292, 0.2511474, -26334.873, 82908.38, 0.0, 10.000012, 10.001435 
2.9854634e+3, 2.9885218e+2, -226142.33, 282420.88, -53718.145, -0.4611552, 0.29824734, 288033.03, 299320.03, 0.0, 9.997091, 10.004595 
3.00085e+3, 1.3924345e+2, -1152144.9, -1434490.0, -35432.09, 0.9387132, 0.69380784, -1147766.3, 427705.3, 0.000000013810121, 10.00344, 10.0003395 
3.0005038e+3, 1.492416e+2, -1130194.6, -738034.8, 30202.006, -0.57985973, 0.6283077, -735722.44, 741755.5, 0.0, 10.00074, 10.005529 
3.0001807e+3, 1.5923773e+2, -1555374.4, -1356695.5, -188405.53, 0.09717211, 0.2320884, -1243044.4, 136457.11, 0.0, 9.998697, 10.001743 
2.9998434e+3, 1.692338e+2, -1260749.8, -1184631.0, -268322.38, 0.13299778, 0.15493408, -951682.25, 329863.03, 0.0, 10.000484, 10.001065 
2.999503e+3, 1.7923044e+2, -934395.8, -1091279.3, -58959.09, -0.24525581, 0.19781761, -914708.7, 268877.88, 0.0, 10.002168, 10.000511 
2.9991704e+3, 1.8922934e+2, -731084.25, -577223.6, -63307.887, 0.047718972, 0.27810597, -554523.8, 531070.94, 0.0, 10.001664, 10.003383 
2.9988378e+3, 1.9922428e+2, -906741.1, -1100703.5, -51824.074, 0.3043623, 0.084980205, -893762.9, 93877.39, 0.0, 10.0015745, 9.999375 
2.9985034e+3, 2.0922421e+2, -248429.42, -517283.0, 54065.203, 0.2726671, 0.5039983, -237964.5, 651678.06, 0.0, 10.004922, 10.000797 
2.998167e+3, 2.1922126e+2, 11147.356, -519224.84, -145091.42, -0.036057986, 0.6805697, 48244.55, 839917.56, 0.0, 10.006373, 9.999713 
2.997826e+3, 2.2920951e+2, -372331.75, -239168.22, -272059.34, -0.23589703, -0.24257194, -25661.748, 668118.1, 0.0, 10.001693, 10.0029335 
2.997493e+3, 2.3921132e+2, -951907.6, -845851.1, -122688.86, 0.15305561, 0.19416268, -765221.06, -169466.9, 0.0, 9.9983, 10.000001 
2.9971614e+3, 2.4920991e+2, -208330.06, -302165.47, -70607.61, 0.17645785, 0.4339254, -170473.33, 327303.22, 0.0, 10.002582, 10.0006895 
2.9968286e+3, 2.5920635e+2, -1024669.25, -676025.94, -199728.06, 0.08201762, 0.4481624, -585245.1, -185423.97, 0.0, 9.996075, 10.000851 
2.9964876e+3, 2.6920125e+2, 303254.56, 436455.0, -189121.83, -0.02424882, 0.0703961, 570360.75, 872226.3, 0.0, 10.003162, 10.004138 
2.9961467e+3, 2.7920184e+2, -425726.8, -395137.3, -189481.22, -0.04406678, 0.3223115, -220334.55, -16481.05, 0.0, 9.9992895, 10.000021 
2.9958025e+3, 2.8920528e+2, -176776.63, -340049.3, 355194.97, 0.004641655, 1.2177773, 106042.72, 211876.27, 0.0, 10.001451, 9.998502 
2.995457e+3, 2.991912e+2, -226920.17, -198030.5, -158851.63, -0.28221285, 0.61628985, -52968.305, -44981.004, 0.0, 9.999489, 9.99991 
