coord_x,coord_y,stress_xx,stress_yy,tau_xy,velocity_x,velocity_y,stress_1,eps,damage,lx,ly
5.001186e+0, 1.2444433e+2, -1459479.6, -1612543.5, -50694.16, 0.026966773, -0.18978772, -1444212.6, 276217.66, 0.0026923823, 10.001728, 9.999866 
5.000486e+0, 1.3444315e+2, -1500735.0, -1740372.0, -77487.39, -0.029233195, -0.21814707, -1477862.4, 144580.47, 0.0015911749, 10.001498, 9.998416 
5.000442e+0, 1.4444381e+2, -1432943.5, -1697944.9, -52449.676, -0.03268531, 0.030869478, -1422940.1, 101500.07, 0.0007108368, 10.001481, 9.998033 
5.001175e+0, 1.5444168e+2, -1304465.0, -1587071.9, -20049.201, 0.029916445, -0.034282077, -1303049.8, 123418.96, 0.00020845741, 10.0017, 9.998017 
5.001296e+0, 1.6444035e+2, -1091449.5, -1271783.9, -3548.9646, 0.03759834, -0.033198383, -1091379.8, 237103.17, 0.000030560106, 10.001794, 9.999465 
5.0006187e+0, 1.7443909e+2, -1003633.7, -1177490.8, -31360.87, -0.026343012, -0.15368749, -998149.7, 232339.08, 0.0000010193884, 10.001718, 9.999476 
5.000423e+0, 1.844385e+2, -1032293.7, -1265433.5, -21798.225, -0.030177785, -0.10487041, -1030273.1, 102222.11, 0.0, 10.001398, 9.99835 
5.000807e+0, 1.944386e+2, -1038931.5, -1235350.5, 22953.713, 0.040782876, 0.04096796, -1036284.75, -1781.2819, 0.0, 10.0007515, 9.998199 
5.0009316e+0, 2.0443772e+2, -810509.5, -830289.94, 64336.56, 0.060480863, 0.032270063, -755307.44, 181205.34, 0.0, 10.000604, 10.000373 
5.00067e+0, 2.1443531e+2, -640492.44, -691108.75, 22130.148, 0.011038505, -0.29784268, -632181.5, 206344.23, 0.0, 10.001067, 10.000435 
5.00044e+0, 2.2443539e+2, -604318.1, -723404.2, -9207.215, -0.012064821, -0.28572923, -603610.5, 136910.28, 0.0, 10.001077, 9.999535 
5.000279e+0, 2.3443837e+2, -592523.75, -677473.5, -25903.463, -0.0009865117, 0.02109126, -585248.2, 57247.477, 0.0, 10.000528, 9.999444 
5.00024e+0, 2.4443856e+2, -576400.0, -710658.6, 5913.313, 0.0040411386, 0.13737585, -576140.06, -31644.275, 0.0, 10.000358, 9.998624 
5.000374e+0, 2.5443488e+2, -442939.2, -613531.75, 30066.857, 0.00088859716, -0.12542517, -437795.06, 8735.892, 0.000000000017365094, 10.000677, 9.998466 
5.0004375e+0, 2.6443297e+2, -316729.44, -456258.7, 51021.387, 0.00764278, -0.17964111, -300063.25, 48488.164, 0.000000288742, 10.000677, 9.998868 
5.0004226e+0, 2.744333e+2, -279974.03, -387360.1, 57649.9, 0.026845295, -0.071028486, -254886.02, -4334.071, 0.0000032414011, 10.000253, 9.998873 
5.000335e+0, 2.844334e+2, -119477.484, -105083.75, 61246.26, 0.029796412, -0.017400384, -50612.965, 101937.25, 0.00001724438, 10.000023, 10.000242 
5.0000703e+0, 2.9443157e+2, -11896.097, 6361.3228, 16539.947, 0.0016569695, -0.2746163, 16124.494, 70684.13, 0.000074921634, 10.000035, 10.000333 
5.0000024e+0, 3.0443016e+2, -143761.61, -347400.3, 7566.527, -0.010309597, -0.31654206, -143480.86, -143480.86, 0.0002850154, 10.000153, 9.997513 
5.0002944e+0, 3.1443256e+2, 153591.89, 226700.55, 13448.842, 0.008651627, 0.14286752, 229096.06, 229096.06, 0.0007432572, 10.000285, 10.001407 
1.5003513e+1, 1.2444494e+2, -1513708.3, -1673480.5, -87751.09, 0.07818912, -0.0018511529, -1474926.6, 245507.1, 0.0025889925, 10.00154, 9.999549 
1.5001494e+1, 1.3444135e+2, -1534941.3, -1785390.5, -79188.08, -0.08288765, -0.20548506, -1512003.9, 110465.0, 0.0015350278, 10.001411, 9.998162 
1.5001325e+1, 1.444415e+2, -1372441.0, -1540744.4, -53566.938, -0.096881084, -0.048614282, -1356838.4, 167630.38, 0.00068435894, 10.001359, 9.999182 
1.5003528e+1, 1.5444112e+2, -1237401.9, -1420718.1, -3481.6223, 0.09067375, -0.031792022, -1237335.8, 189139.45, 0.00019662973, 10.001598, 9.999217 
1.5003903e+1, 1.6444078e+2, -1135046.3, -1333555.9, -12982.35, 0.11528767, 0.020834833, -1134200.8, 194278.95, 0.000026649353, 10.001682, 9.9991045 
1.5001898e+1, 1.744397e+2, -1044354.4, -1241010.6, -25886.486, -0.07615044, -0.017223, -1041003.94, 189485.4, 0.00000066228677, 10.001632, 9.999094 
1.500124e+1, 1.8443918e+2, -956477.8, -1071360.6, -51160.9, -0.091549575, -0.008513232, -936997.5, 195496.7, 0.0, 10.001261, 9.999754 
1.5002432e+1, 1.9443944e+2, -951379.9, -1023202.56, 7583.118, 0.12371125, 0.0219125, -950587.94, 83904.46, 0.0, 10.000632, 9.999722 
1.5002769e+1, 2.044394e+2, -885787.75, -946912.06, 73501.43, 0.18111986, 0.05425047, -836747.75, 99744.29, 0.0, 10.000457, 9.999646 
1.5001991e+1, 2.1443886e+2, -722260.0, -821491.44, 49901.78, 0.0325503, 0.015213083, -701505.94, 136989.03, 0.0, 10.0009165, 9.999617 
1.5001318e+1, 2.2443798e+2, -633267.75, -749122.56, -36751.41, -0.034792677, -0.021740086, -622593.06, 117908.305, 0.0, 10.000946, 9.999428 
1.5000813e+1, 2.344368e+2, -619702.7, -696752.0, -36936.23, -0.0039064665, -0.10063105, -604856.6, 37654.906, 0.0, 10.000387, 9.999385 
1.5000732e+1, 2.444359e+2, -537742.94, -602402.0, 8766.052, 0.012974034, -0.12585819, -536575.56, 7943.259, 0.0, 10.00025, 9.999427 
1.5001103e+1, 2.544352e+2, -398960.4, -482132.06, 49697.81, 0.0012578544, -0.16208352, -375744.6, 70779.95, 0.0, 10.000521, 9.999449 
1.5001322e+1, 2.6443496e+2, -297997.38, -387218.84, 28580.26, 0.024628317, -0.12573418, -289627.47, 58900.293, 0.00000013049092, 10.0005665, 9.999402 
1.5001293e+1, 2.744355e+2, -270277.56, -330403.4, 48108.586, 0.08303639, -0.0328276, -243611.17, 6915.4775, 0.0000023602508, 10.000106, 9.999345 
1.5000966e+1, 2.8443584e+2, -198241.52, -237568.5, 54709.44, 0.08667998, 0.07111137, -159769.17, -7245.586, 0.000014211254, 9.999911, 9.9993925 
1.5000203e+1, 2.944351e+2, -99680.664, -131392.56, 30472.639, 0.0027367834, 0.03205261, -81185.586, -26657.986, 0.0000647229, 9.999853, 9.999482 
1.5000036e+1, 3.0443263e+2, -141046.36, -295577.28, 7054.8555, -0.024405405, -0.09255366, -140724.94, -140724.94, 0.00025372737, 10.000007, 9.997947 
1.500087e+1, 3.144295e+2, 87465.32, 170544.22, 51920.605, 0.02786401, -0.19530125, 195497.44, 195497.44, 0.0006708774, 9.999987, 10.001172 
2.500633e+1, 1.2444553e+2, -1387082.1, -1616017.0, 3308.3425, 0.16940445, 0.10526956, -1387034.3, 333398.5, 0.002469872, 10.002448, 9.999486 
2.500368e+1, 1.3444144e+2, -1395286.0, -1726769.1, 11992.824, -0.048727926, -0.15143806, -1394852.6, 227619.75, 0.001465867, 10.002433, 9.998063 
2.500299e+1, 1.4444132e+2, -1222757.5, -1422828.1, 51709.207, -0.102137975, -0.03567033, -1210183.3, 314289.94, 0.0006493342, 10.002207, 9.999568 
2.500501e+1, 1.5444121e+2, -1184267.5, -1353272.6, 33327.59, 0.07518742, -0.039785452, -1177932.8, 248541.08, 0.00018140074, 10.001791, 9.999577 
2.5005448e+1, 1.6444112e+2, -1155553.3, -1353423.5, 34607.445, 0.11087512, 0.024821911, -1149675.0, 178800.22, 0.000022322774, 10.001601, 9.998992 
2.500395e+1, 1.7444034e+2, -1054468.3, -1257297.8, 34311.85, -0.030114613, 0.02306308, -1048821.1, 181663.06, 0.00000035252413, 10.00164, 9.998958 
2.5003228e+1, 1.8443967e+2, -868695.2, -1014283.3, -9986.892, -0.040814623, 0.018274564, -868013.3, 264476.88, 0.0, 10.001791, 9.999886 
2.5003642e+1, 1.9443932e+2, -749951.3, -905533.94, -59215.25, 0.12161911, -0.03618058, -729977.94, 304513.03, 0.0, 10.00193, 9.999893 
2.5003633e+1, 2.0443934e+2, -742735.9, -943953.6, -9981.747, 0.16341174, 0.019991085, -742241.94, 194248.33, 0.0, 10.001711, 9.999061 
2.5003102e+1, 2.1443965e+2, -763040.8, -914409.8, -23421.12, 0.055205442, 0.123482026, -759499.75, 78990.06, 0.0, 10.000946, 9.99896 
2.500253e+1, 2.2443855e+2, -655394.6, -766439.56, -66851.56, 0.0019344395, 0.10171029, -624015.56, 116484.33, 0.0, 10.000818, 9.999361 
2.5001964e+1, 2.3443569e+2, -471966.78, -633535.7, -71437.59, 0.024343263, -0.14822993, -444911.25, 197612.06, 0.0, 10.001426, 9.9993105 
2.5001705e+1, 2.4443461e+2, -366083.66, -479414.88, -29624.738, 0.037821267, -0.20562382, -358806.97, 185724.42, 0.0, 10.0012665, 9.999771 
2.50018e+1, 2.544355e+2, -427468.84, -459229.38, -38136.664, 0.0417468, -0.12195272, -402038.22, 44484.324, 0.0, 10.000164, 9.999772 
2.5001794e+1, 2.644359e+2, -388072.63, -411706.56, -51631.64, 0.054292273, -0.050727095, -346922.94, 1596.7496, 0.00000003137998, 9.999877, 9.9995575 
2.5001633e+1, 2.744357e+2, -188477.58, -273084.8, -67362.47, 0.08700271, -0.04501963, -151236.89, 99285.766, 0.0000016165861, 10.000604, 9.999487 
2.5001281e+1, 2.8443563e+2, -104957.28, -250601.23, -48540.156, 0.08822981, 0.030796597, -90262.48, 62261.49, 0.000011342512, 10.000797, 9.998873 
2.500074e+1, 2.94435e+2, -78492.75, -179463.72, -56516.535, 0.057384323, 0.051479395, -53196.293, 1333.7375, 0.00005395602, 10.000266, 9.998944 
2.5000465e+1, 3.0443332e+2, -118974.68, -253238.81, -27389.928, 0.026192298, 0.024791716, -113602.11, -113602.11, 0.00022021512, 10.000028, 9.998234 
2.5000846e+1, 3.144291e+2, 52436.26, 91845.88, -13298.967, 0.040220346, -0.22952317, 95913.79, 95913.79, 0.00059438485, 10.000027, 10.0006075 
3.5009438e+1, 1.244461e+2, -1381481.5, -1582221.5, -21110.67, 0.1887573, 0.09525256, -1379285.5, 341142.13, 0.0023442989, 10.002365, 9.999759 
3.5006797e+1, 1.3444343e+2, -1370973.3, -1670825.9, 16759.004, -0.004993174, -0.03955239, -1370039.5, 252413.56, 0.0013882996, 10.002426, 9.998446 
3.5005152e+1, 1.4444321e+2, -1242924.4, -1453453.0, 28497.969, -0.13351567, 0.052712042, -1239135.0, 285319.38, 0.0006086515, 10.00216, 9.999378 
3.5005364e+1, 1.5444195e+2, -1200509.9, -1378099.5, 27701.244, -0.09429265, -0.043921206, -1196289.3, 230175.36, 0.00016439817, 10.001761, 9.999415 
3.500581e+1, 1.6444136e+2, -1142494.5, -1316019.6, 24718.658, -0.035532795, -0.0363299, -1139042.0, 189427.55, 0.000017966355, 10.001552, 9.999281 
3.5006574e+1, 1.7444085e+2, -1038522.6, -1218254.1, 44802.8, 0.04522299, -0.03302025, -1027973.5, 202501.52, 0.00000014192928, 10.001613, 9.999246 
3.500617e+1, 1.844398e+2, -946676.2, -1154285.0, -10708.2, 0.053244904, -0.047726907, -946125.4, 186359.77, 0.0, 10.001702, 9.998963 
3.500422e+1, 1.944381e+2, -828366.5, -1052770.8, -44068.85, -0.03684372, -0.13445866, -820022.44, 214478.02, 0.0, 10.0018635, 9.998914 
3.5003334e+1, 2.044374e+2, -775644.0, -984732.7, -46976.957, -0.05597712, -0.08835652, -765574.44, 170934.05, 0.0, 10.0016, 9.998833 
3.5003796e+1, 2.1443775e+2, -792014.1, -946841.2, -43498.13, 0.008881319, 0.044218067, -780630.5, 57879.074, 0.0, 10.0008335, 9.998791 
3.5003895e+1, 2.2443709e+2, -663968.06, -752329.8, -53368.664, 0.03715031, 0.06634689, -638865.75, 101650.734, 0.0, 10.000688, 9.999521 
3.5003498e+1, 2.3443514e+2, -475365.66, -609471.1, -39690.426, 0.015186137, -0.10538451, -464499.2, 178031.31, 0.0, 10.001301, 9.999535 
3.5002977e+1, 2.4443465e+2, -380367.22, -489484.28, -75515.91, 0.02031184, -0.112864055, -341763.06, 202770.56, 0.0, 10.001181, 9.999746 
3.5002273e+1, 2.5443584e+2, -446923.53, -472134.6, -71064.1, 0.05199301, 0.008336368, -387355.63, 59169.086, 0.0, 10.0000515, 9.999737 
3.50017e+1, 2.6443574e+2, -401274.75, -427649.2, -34892.688, 0.03887497, 0.037040923, -377160.47, -28634.307, 0.0000000045955626, 9.999822, 9.999478 
3.5001186e+1, 2.7443403e+2, -207138.06, -289033.8, -29050.566, -0.04130525, -0.098386385, -197879.72, 52659.914, 0.0000011861115, 10.000503, 9.999429 
3.5001084e+1, 2.8443268e+2, -116213.16, -257272.94, -74722.234, -0.032266863, -0.14539497, -83991.516, 68559.96, 0.000009324045, 10.000732, 9.998857 
3.5001418e+1, 2.9443118e+2, -96203.05, -194764.63, -68253.1, 0.07342045, -0.20473568, -61299.023, -6731.71, 0.00004426637, 10.000177, 9.998883 
3.5000977e+1, 3.044321e+2, -98259.164, -205820.92, -35066.74, 0.05630676, 0.012514811, -87836.78, -87836.78, 0.00018818198, 9.999996, 9.998574 
3.499977e+1, 3.1443146e+2, -12697.7, -31365.477, 17513.629, -0.11410167, 0.081701934, -2185.968, -2185.968, 0.00052315294, 9.999957, 9.999796 
4.5011953e+1, 1.24445654e+2, -1449260.6, -1601771.0, 42776.727, 0.24924122, -0.057863336, -1438081.9, 282345.56, 0.0022184679, 10.001868, 9.999855 
4.5008937e+1, 1.3444465e+2, -1468115.4, -1703216.8, 21517.15, 0.016254656, -0.038430005, -1466162.3, 156275.84, 0.0013082918, 10.001703, 9.998573 
4.500708e+1, 1.444444e+2, -1326177.0, -1529975.5, 43185.44, -0.12524664, 0.063666314, -1317403.6, 207036.39, 0.00056754425, 10.00174, 9.999068 
4.5007315e+1, 1.544423e+2, -1184678.0, -1412835.9, 10212.354, -0.079706036, -0.081558436, -1184221.8, 242236.69, 0.00014805637, 10.002047, 9.999055 
4.50078e+1, 1.6444124e+2, -1094794.6, -1325464.0, -5770.8354, -0.0070097465, -0.08606279, -1094650.4, 233817.7, 0.000013959289, 10.002023, 9.998986 
4.5008677e+1, 1.7444083e+2, -1058793.3, -1262661.8, -48052.516, 0.1018516, -0.043442924, -1048034.8, 182438.84, 0.000000037538413, 10.001614, 9.998945 
4.5007977e+1, 1.8443961e+2, -1018148.25, -1211426.1, -80050.92, 0.09117308, -0.045221068, -989299.2, 143186.53, 0.0, 10.00131, 9.99877 
4.500521e+1, 1.9443762e+2, -966979.6, -1140015.4, -67429.48, -0.07382479, -0.14246319, -943806.7, 90697.44, 0.0, 10.001009, 9.998729 
4.500414e+1, 2.0443654e+2, -829463.75, -1013997.44, -11281.678, -0.10971651, -0.12296762, -828776.56, 107739.305, 0.0, 10.00124, 9.99881 
4.5005262e+1, 2.1443643e+2, -620782.3, -867004.7, -11297.212, 0.021585055, -0.035216566, -620265.06, 218256.36, 0.0, 10.002016, 9.998772 
4.5005476e+1, 2.2443593e+2, -499103.56, -653188.3, -11483.407, 0.082328245, -0.0022073, -498252.47, 242274.25, 0.0, 10.001737, 9.999697 
4.5004544e+1, 2.3443492e+2, -636145.6, -667761.25, -14243.507, 0.056061223, -0.09811733, -630675.2, 11856.825, 0.0, 10.000117, 9.999707 
4.5003548e+1, 2.4443479e+2, -617870.9, -634825.7, -25086.13, 0.041316144, -0.0666224, -599868.5, -55335.973, 0.0, 9.99969, 9.999461 
4.500245e+1, 2.544355e+2, -366762.75, -471838.06, -54670.703, 0.03428186, 0.038168095, -343477.63, 103052.086, 0.0, 10.000765, 9.999394 
4.5001915e+1, 2.64435e+2, -234373.14, -357957.72, -15808.619, 0.024430936, 0.05352128, -232382.98, 116151.92, 0.000000013083459, 10.001026, 9.99937 
4.5002133e+1, 2.7443314e+2, -240508.64, -318846.25, -27721.74, 0.018968973, -0.08895298, -231691.1, 18858.012, 0.0000010541644, 10.000335, 9.999309 
4.500223e+1, 2.844315e+2, -225662.08, -309703.13, -62689.465, 0.053929046, -0.15896693, -192212.78, -39648.94, 0.000008050424, 9.999985, 9.998863 
4.5002067e+1, 2.9442972e+2, -105694.89, -201731.31, -71073.586, 0.13024119, -0.24421553, -67938.96, -13355.441, 0.00003666787, 10.000129, 9.998864 
4.5001334e+1, 3.0443156e+2, -78608.82, -146494.69, -22911.008, 0.104491614, 0.045616303, -71600.11, -71600.11, 0.00016032506, 9.999906, 9.999024 
4.50001e+1, 3.144312e+2, -165875.55, -105725.9, 16462.33, -0.0126135275, 0.090158224, -101515.11, -101515.11, 0.00046162336, 9.998901, 9.999792 
5.50129e+1, 1.2444445e+2, -1449411.8, -1640406.4, 5399.375, 0.09208155, -0.3448088, -1449259.3, 271170.4, 0.0020911084, 10.0020075, 9.99953 
5.5009776e+1, 1.3444509e+2, -1466351.5, -1728242.8, 24340.479, -0.10546753, -0.14587502, -1464108.5, 158319.0, 0.0012261746, 10.00181, 9.998356 
5.500858e+1, 1.4444496e+2, -1352738.8, -1595786.3, 42113.77, -0.18305899, 0.0005199976, -1345648.4, 178781.73, 0.0005263589, 10.001784, 9.998596 
5.5010515e+1, 1.5444227e+2, -1217483.6, -1487011.8, 30175.379, 0.0066549415, -0.14980756, -1214146.6, 212308.22, 0.00013276051, 10.002071, 9.998534 
5.501095e+1, 1.6444078e+2, -1163751.6, -1462372.5, -27657.146, 0.0799495, -0.12581748, -1161211.8, 167258.67, 0.0000106646075, 10.001999, 9.998056 
5.500984e+1, 1.7444016e+2, -1125374.1, -1399516.8, -55238.453, 0.029397644, -0.012105116, -1114662.4, 115818.76, 0.000000007551507, 10.001612, 9.998005 
5.500837e+1, 1.844392e+2, -986288.2, -1136702.4, -101450.06, -0.024040306, 0.032353487, -935209.0, 197282.86, 0.0, 10.001272, 9.999301 
5.5006295e+1, 1.9443788e+2, -927977.4, -1051366.3, -71667.195, -0.09199031, -0.056005236, -895107.6, 139394.28, 0.0, 10.0009775, 9.9993515 
5.500576e+1, 2.0443675e+2, -827834.4, -991164.6, 9229.174, -0.09382136, -0.085982054, -827314.56, 109197.9, 0.0, 10.001161, 9.9990015 
5.500714e+1, 2.1443562e+2, -618856.9, -846384.06, 26606.502, -0.01612695, -0.115130395, -615787.0, 222738.61, 0.0, 10.001949, 9.998943 
5.5006945e+1, 2.2443508e+2, -493267.25, -627067.56, -75802.48, 0.032014206, -0.108326234, -459065.25, 281465.56, 0.0, 10.001673, 9.999908 
5.5004835e+1, 2.3443517e+2, -632769.7, -642986.6, -67379.76, 0.050664503, -0.11654413, -570305.06, 72221.59, 0.0, 10.000037, 9.999916 
5.500308e+1, 2.4443504e+2, -667232.94, -722283.7, 3813.1167, 0.003593915, -0.06784358, -666970.06, -122442.26, 0.0, 9.99963, 9.998887 
5.50019e+1, 2.5443447e+2, -425912.8, -564715.3, -5950.132, -0.121631175, -0.030221593, -425658.22, 20879.123, 0.0, 10.000646, 9.998807 
5.500212e+1, 2.644338e+2, -251375.4, -387994.53, -46685.53, -0.08150851, 0.0052708564, -236946.0, 111599.445, 0.000000016276152, 10.000996, 9.999182 
5.500418e+1, 2.7443296e+2, -259284.52, -346470.13, -46760.535, 0.16671167, -0.01840371, -238948.61, 11603.2, 0.00000094951764, 10.000276, 9.999152 
5.5004424e+1, 2.8443196e+2, -227875.67, -305870.13, -68563.664, 0.25299913, -0.017494481, -187994.77, -35432.81, 0.0000068870954, 9.999953, 9.998902 
5.500238e+1, 2.944305e+2, -117043.375, -206362.33, -54201.094, 0.11990562, -0.07568175, -91473.03, -36893.2, 0.00003048685, 10.000044, 9.998874 
5.5001223e+1, 3.0443162e+2, -40595.875, -49197.96, -60589.293, 0.081028916, 0.111565076, 15844.841, 15844.841, 0.0001366128, 9.999838, 9.999724 
5.500117e+1, 3.144282e+2, -116013.32, 14349.982, -1938.2108, 0.1569382, -0.22317658, 14378.793, 14378.793, 0.00040785797, 9.998837, 10.000643 
6.501444e+1, 1.2444588e+2, -1455880.0, -1715677.6, -40936.95, 0.046519436, -0.28459418, -1449582.1, 270833.53, 0.0019647046, 10.002249, 9.998908 
6.5012765e+1, 1.344456e+2, -1317142.9, -1701498.0, -63473.246, -0.03936592, -0.13281345, -1306932.0, 315490.84, 0.0011417874, 10.003016, 9.997962 
6.5011925e+1, 1.4444451e+2, -1189792.6, -1550687.0, -37488.29, -0.082618184, -0.049893904, -1185939.6, 338495.4, 0.0004823996, 10.0030575, 9.998285 
6.501313e+1, 1.5444198e+2, -1173397.6, -1496970.1, -54015.406, 0.04755585, -0.14996153, -1164618.8, 261838.48, 0.00011742101, 10.002515, 9.998243 
6.5012896e+1, 1.6444026e+2, -1129651.8, -1455513.9, -57935.89, 0.06745229, -0.13297477, -1119657.8, 208816.7, 0.000008467286, 10.002271, 9.997975 
6.5011156e+1, 1.744389e+2, -1033720.6, -1363569.5, -35209.883, -0.027791753, -0.08599095, -1030004.06, 200486.77, 0.000000004638606, 10.002281, 9.99793 
6.500967e+1, 1.8443793e+2, -875853.75, -1086616.3, -60376.387, -0.052944575, -0.034463894, -859783.3, 272718.53, 0.0, 10.002055, 9.99926 
6.500836e+1, 1.9443749e+2, -855583.94, -1022742.7, -99082.555, -0.002636611, -0.031961072, -809537.5, 224968.53, 0.0, 10.001496, 9.9993 
6.500778e+1, 2.0443672e+2, -855265.44, -972207.9, -15102.102, 0.015445633, -0.034341197, -853346.6, 83166.59, 0.0, 10.000827, 9.999297 
6.500813e+1, 2.1443549e+2, -895585.44, -944165.6, 288.65915, -0.0041819094, -0.106051736, -895583.7, -57058.74, 0.0, 9.999896, 9.999263 
6.500746e+1, 2.244349e+2, -762152.75, -794097.06, -105865.586, 0.00659626, -0.10342076, -671061.25, 69469.53, 0.0, 9.999988, 9.999578 
6.5005517e+1, 2.3443505e+2, -469897.66, -604486.06, -159416.19, 0.056254685, -0.06637181, -364154.2, 278375.22, 0.0, 10.001327, 9.999565 
6.500378e+1, 2.4443457e+2, -360047.75, -561310.25, -64091.984, 0.015444381, -0.041510735, -341370.88, 203163.4, 0.0, 10.001664, 9.999032 
6.500237e+1, 2.5443318e+2, -406122.72, -536151.06, -31932.97, -0.13411678, -0.10035127, -398703.78, 47843.88, 0.0, 10.00069, 9.998999 
6.500256e+1, 2.6443243e+2, -365851.22, -444785.28, -29040.79, -0.09136218, -0.081817284, -356318.13, -7762.768, 0.00000000394634, 10.00021, 9.999179 
6.500485e+1, 2.744324e+2, -237181.63, -333479.13, -33743.605, 0.20513284, -0.022815358, -226534.69, 24021.252, 0.0000007712445, 10.000427, 9.999164 
6.5004927e+1, 2.84432e+2, -203126.56, -273124.13, -39272.746, 0.31236473, 0.028034147, -185520.56, -32959.246, 0.000006042053, 10.0000305, 9.999089 
6.500236e+1, 2.9443094e+2, -297134.7, -271092.38, -31635.486, 0.18946262, -0.010593232, -249903.1, -195328.16, 0.000026514133, 9.998716, 9.999065 
6.500113e+1, 3.0443153e+2, -219158.08, -130570.49, -9117.345, 0.15926087, 0.10898366, -129641.875, -129641.875, 0.00011960156, 9.998589, 9.999769 
6.500167e+1, 3.1442723e+2, 78432.55, 164145.13, -35989.688, 0.2800602, -0.31457743, 177252.39, 177252.39, 0.000365328, 9.999925, 10.0011635 
7.501607e+1, 1.2444974e+2, -1494907.9, -1810279.5, -45632.24, -0.071513675, 0.12151326, -1488437.9, 231949.47, 0.0018421272, 10.002316, 9.99822 
7.501746e+1, 1.3444608e+2, -1349929.8, -1779409.6, -32932.273, 0.098609895, -0.0049102125, -1347419.3, 275005.7, 0.0010580781, 10.003067, 9.9974 
7.501661e+1, 1.44443e+2, -1192892.1, -1566025.0, -64420.438, 0.04963314, -0.08707475, -1182083.1, 342371.38, 0.0004375462, 10.003091, 9.998166 
7.5014824e+1, 1.5444143e+2, -1174962.4, -1514028.3, -64179.754, -0.06551008, -0.085835986, -1163220.8, 263245.56, 0.00010224, 10.002566, 9.998106 
7.5013316e+1, 1.6443968e+2, -1076423.0, -1344349.3, -66320.086, -0.14298691, -0.09880132, -1060905.5, 267574.5, 0.000007138289, 10.002266, 9.99874 
7.501235e+1, 1.7443708e+2, -974983.25, -1244514.0, -27495.496, -0.16218697, -0.2597007, -972207.0, 258295.3, 0.00000003688298, 10.00229, 9.998743 
7.50116e+1, 1.8443581e+2, -923878.4, -1185195.4, -87314.1, -0.088682994, -0.2478047, -897389.2, 235126.47, 0.0, 10.002043, 9.998593 
7.5011086e+1, 1.9443631e+2, -909933.75, -1132875.4, -112030.95, 0.0945516, -0.07821621, -863364.44, 171153.16, 0.0, 10.001482, 9.998553 
7.500994e+1, 2.0443648e+2, -837272.4, -920371.7, -56051.83, 0.12790695, 0.032624178, -809049.7, 127468.63, 0.0, 10.000768, 9.99968 
7.5007963e+1, 2.1443604e+2, -873993.56, -883197.25, -27156.662, -0.032113567, -0.0074943984, -851051.6, -12532.276, 0.0, 9.999822, 9.999719 
7.50067e+1, 2.244354e+2, -838530.75, -934177.06, -66111.37, -0.088020965, 0.011395108, -804758.75, -64232.453, 0.0, 9.999909, 9.998651 
7.50063e+1, 2.3443452e+2, -554543.8, -759373.5, -98477.61, -0.018278604, 0.040704634, -514879.0, 127662.2, 0.0, 10.001234, 9.998545 
7.500531e+1, 2.4443334e+2, -310777.88, -443833.94, -103080.55, -0.017110566, 0.011845155, -254621.03, 289931.16, 0.0, 10.001603, 9.999864 
7.500357e+1, 2.5443166e+2, -352833.28, -408612.47, -62448.62, -0.104922935, -0.1724159, -312329.47, 134230.94, 0.0, 10.000611, 9.999912 
7.500293e+1, 2.6443097e+2, -361395.75, -419382.25, -29824.33, -0.094925545, -0.203956, -348794.56, -230.75632, 0.00000000015133415, 10.000149, 9.999379 
7.500378e+1, 2.7443153e+2, -241532.86, -319463.75, -12502.35, 0.030609932, -0.104740135, -239576.25, 10984.771, 0.00000065427645, 10.000332, 9.999304 
7.500348e+1, 2.8443167e+2, -182118.38, -223602.8, -91284.7, 0.14114347, -0.023309382, -109248.96, 43312.465, 0.0000058927376, 10.000001, 9.999445 
7.5001687e+1, 2.9443103e+2, -283248.3, -227164.4, -73236.22, 0.22472064, -0.057890296, -176785.1, -122216.08, 0.000025865007, 9.998641, 9.999409 
7.500078e+1, 3.0443108e+2, -275908.53, -237729.44, 34641.0, 0.24350092, 0.029851332, -217266.36, -217266.36, 0.00011192772, 9.9985485, 9.999046 
7.500103e+1, 3.1442788e+2, 73157.086, 183832.9, 40595.496, 0.18256389, -0.21874508, 197126.47, 197126.47, 0.00033923058, 9.999793, 10.001357 
8.5018265e+1, 1.24449104e+2, -1496932.4, -1775078.9, -60017.844, -0.065033145, 0.14740866, -1484534.5, 235862.05, 0.0017237901, 10.002158, 9.99853 
8.502047e+1, 1.3444631e+2, -1414846.6, -1751227.6, -134.39716, 0.13873005, 0.055050187, -1414846.6, 207576.92, 0.0009802121, 10.0023775, 9.997919 
8.501955e+1, 1.4444302e+2, -1302814.6, -1626163.3, 1883.4847, 0.07855281, -0.07056679, -1302803.6, 221650.4, 0.00039778455, 10.002357, 9.998115 
8.5016936e+1, 1.5444134e+2, -1250317.9, -1558518.6, -16959.35, -0.08107187, -0.07160255, -1249387.5, 177080.02, 0.000088897265, 10.0020895, 9.998029 
8.501509e+1, 1.644395e+2, -1167781.5, -1361429.9, -22468.018, -0.14876579, -0.10002814, -1165208.9, 163272.6, 0.000006071428, 10.001528, 9.998979 
8.501435e+1, 1.7443681e+2, -1217523.4, -1329908.6, -42365.64, -0.09559784, -0.29294378, -1203342.4, 27160.174, 0.000000076650345, 10.000493, 9.999021 
8.501355e+1, 1.8443546e+2, -1152571.6, -1332261.6, -61792.33, -0.021689171, -0.2912803, -1133373.5, -856.80347, 0.0, 10.000634, 9.998265 
8.501277e+1, 1.9443592e+2, -835648.44, -1136028.6, -68771.58, 0.08628354, -0.087102205, -820652.0, 213868.6, 0.0, 10.002168, 9.9981985 
8.5011244e+1, 2.0443594e+2, -587192.7, -799187.44, -55324.797, 0.102058426, 0.027498329, -573623.0, 362900.0, 0.0, 10.002477, 9.999692 
8.5008705e+1, 2.1443523e+2, -678695.94, -786131.0, -79916.96, 0.00009839866, -0.040453024, -636120.75, 202404.47, 0.0, 10.001145, 9.999751 
8.500709e+1, 2.2443454e+2, -782337.75, -917774.7, -31896.645, -0.05604504, -0.026060201, -775201.75, -34669.0, 0.0, 10.000349, 9.998548 
8.5006696e+1, 2.3443384e+2, -714176.2, -850125.5, -10670.373, -0.044904333, 0.03629723, -713343.75, -70796.75, 0.0, 10.000201, 9.998416 
8.5005957e+1, 2.4443279e+2, -541136.2, -548076.5, -34018.813, -0.026573362, 0.023613894, -510411.0, 34146.51, 0.0, 9.999989, 9.99992 
8.500483e+1, 2.5443125e+2, -470377.97, -454210.84, -75855.64, 0.008286136, -0.15540893, -386009.28, 60554.766, 0.0, 9.999766, 9.999999 
8.5003775e+1, 2.6443058e+2, -429955.34, -424678.2, -41874.55, 0.011395118, -0.20204107, -385359.2, -36792.547, 0.0000000019213902, 9.999545, 9.9996395 
8.500301e+1, 2.7443093e+2, -389845.22, -361782.94, -33185.125, -0.014815415, -0.14591904, -339784.56, -89219.64, 0.0000006294421, 9.999177, 9.999575 
8.500216e+1, 2.844311e+2, -283818.63, -238006.89, -104646.57, 0.057537943, -0.09336382, -153788.61, -1224.4441, 0.0000062489003, 9.999152, 9.999755 
8.5001177e+1, 2.9443076e+2, -108574.32, -106123.06, -108711.73, 0.2650784, -0.12931453, 1369.9447, 55936.785, 0.000027811611, 9.999685, 9.999734 
8.5000336e+1, 3.0443034e+2, -187010.0, -281547.44, 34053.574, 0.30397537, -0.06833401, -176020.86, -176020.86, 0.000112212314, 9.999521, 9.998284 
8.49998e+1, 3.1442803e+2, -166521.77, 49721.516, 6652.8857, 0.17129001, -0.14566505, 49926.004, 49926.004, 0.00032853556, 9.998224, 10.001183 
9.502045e+1, 1.2444423e+2, -1407015.3, -1593690.5, -77585.04, -0.11604947, -0.18552588, -1378980.1, 341460.56, 0.0016162735, 10.002184, 9.999759 
9.5021385e+1, 1.3444619e+2, -1297465.1, -1528631.5, 14987.941, -0.03703452, 0.042959295, -1296497.5, 325921.44, 0.000914127, 10.002463, 9.999404 
9.5020455e+1, 1.4444454e+2, -1297706.3, -1619233.5, -15590.755, -0.093750246, -0.00023411075, -1296952.0, 227481.66, 0.00036652523, 10.002376, 9.998149 
9.501924e+1, 1.5444177e+2, -1251515.6, -1566823.1, -17336.71, -0.087033324, -0.103374675, -1250565.3, 175895.27, 0.00007896126, 10.002115, 9.997957 
9.501801e+1, 1.644398e+2, -1190360.8, -1407295.5, -67266.586, -0.031972505, -0.12611905, -1171196.0, 157282.33, 0.000005121987, 10.001519, 9.998669 
9.5016813e+1, 1.7443812e+2, -1235706.4, -1373616.8, -73550.73, 0.076465376, -0.18805148, -1203842.3, 26649.451, 0.00000007826353, 10.000514, 9.998712 
9.5015234e+1, 1.8443686e+2, -1158180.9, -1336473.6, -15905.163, 0.06439242, -0.1609498, -1156773.1, -24268.473, 0.0, 10.000602, 9.998251 
9.501316e+1, 1.9443627e+2, -840053.06, -1137709.0, -1505.9865, -0.11480646, -0.065571085, -840045.44, 194470.06, 0.0, 10.002135, 9.998201 
9.5011437e+1, 2.0443511e+2, -624283.4, -860901.44, -106575.84, -0.14651003, -0.049182333, -583358.5, 353169.03, 0.0, 10.002409, 9.999302 
9.501004e+1, 2.1443304e+2, -717403.5, -852893.44, -120388.55, -0.0031750628, -0.21298304, -647008.0, 191535.36, 0.0, 10.001081, 9.999326 
9.5008355e+1, 2.2443219e+2, -746875.2, -828883.4, -46423.953, 0.014737138, -0.22028247, -725939.7, 14611.397, 0.0, 10.000281, 9.999189 
9.5006347e+1, 2.3443285e+2, -673858.5, -751359.94, -9772.587, -0.12114265, -0.096532196, -672645.2, -30096.238, 0.0, 10.000132, 9.999128 
9.5005447e+1, 2.4443282e+2, -599446.5, -651230.1, -51250.188, -0.09574691, -0.013663628, -567919.06, -23368.184, 0.0, 9.999917, 9.999245 
9.500588e+1, 2.5443184e+2, -534196.4, -571636.0, -74093.97, 0.11564168, -0.059534892, -476494.03, -29935.127, 0.0, 9.999699, 9.999227 
9.5004904e+1, 2.644311e+2, -418377.25, -389380.0, -62254.21, 0.15086208, -0.08608583, -339958.38, 8606.554, 0.0000000017799018, 9.999498, 9.999904 
9.500222e+1, 2.744305e+2, -377885.97, -317811.56, -39116.773, -0.033602387, -0.16059, -298529.84, -47960.594, 0.0000005677249, 9.999094, 9.999915 
9.5000684e+1, 2.8443024e+2, -272280.28, -204665.22, -94724.64, -0.025411645, -0.18188125, -137895.88, 14674.093, 0.0000064583187, 9.999111, 10.000003 
9.500053e+1, 2.9443008e+2, -104826.97, -77992.97, -74928.62, 0.20549771, -0.22425531, -15289.583, 39278.82, 0.000029725905, 9.999596, 9.99997 
9.4999486e+1, 3.0442935e+2, -242449.52, -391141.56, -15193.737, 0.24697714, -0.17605068, -240912.86, -240912.86, 0.00011359201, 9.999492, 9.997544 
9.4997275e+1, 3.144279e+2, -224849.64, -45819.465, -8512.096, 0.04938757, -0.085844085, -45415.66, -45415.66, 0.00032159366, 9.998109, 10.000583 
1.050228e+2, 1.24442555e+2, -1403785.1, -1600067.5, 15098.655, -0.08825615, -0.30951524, -1402630.5, 317821.56, 0.0015309328, 10.002202, 9.99972 
1.0502324e+2, 1.3444525e+2, -1350546.3, -1532769.8, -16381.92, -0.066080876, -0.027229361, -1349085.1, 273338.7, 0.0008642909, 10.001978, 9.999621 
1.0502246e+2, 1.44444e+2, -1349222.3, -1597769.0, -68750.97, -0.09786113, -0.06255249, -1331472.5, 192963.05, 0.00034447288, 10.001842, 9.998546 
1.0502219e+2, 1.5444188e+2, -1268998.8, -1538117.3, -57274.75, 0.018698217, -0.13337667, -1257316.4, 169140.66, 0.00007296801, 10.001841, 9.99829 
1.0502083e+2, 1.644404e+2, -1137306.3, -1401728.8, -74730.88, 0.080612764, -0.11677962, -1117647.4, 210824.45, 0.000004414203, 10.001976, 9.998481 
1.05018355e+2, 1.7443913e+2, -997792.0, -1285919.0, -93039.41, 0.096441224, -0.11452366, -970360.25, 260123.44, 0.000000050630582, 10.002275, 9.998458 
1.05016336e+2, 1.844378e+2, -924548.06, -1189410.0, 15193.928, 0.04577509, -0.09807278, -923679.3, 208817.55, 0.0, 10.00205, 9.99856 
1.05014786e+2, 1.9443643e+2, -987776.8, -1170633.6, 39057.484, -0.10052751, -0.11445185, -979783.7, 54726.695, 0.0, 10.000952, 9.998545 
1.05012916e+2, 2.0443486e+2, -948908.3, -1068768.6, -69225.52, -0.13309084, -0.13664618, -917275.4, 19249.988, 0.0, 10.000411, 9.998834 
1.05010696e+2, 2.1443285e+2, -842406.94, -968192.6, -110274.125, -0.009407236, -0.24344377, -778351.4, 60192.574, 0.0, 10.000473, 9.998822 
1.0500867e+2, 2.24432e+2, -696514.5, -765789.75, -18189.25, 0.014512792, -0.23950306, -692029.06, 48522.42, 0.0, 10.00045, 9.999553 
1.0500696e+2, 2.3443261e+2, -618516.25, -677395.3, -17245.576, -0.07557953, -0.15846357, -613836.94, 28708.74, 0.0, 10.000308, 9.9995575 
1.0500596e+2, 2.4443263e+2, -591943.5, -694812.6, -49063.074, -0.043959975, -0.074684605, -572295.7, -27748.588, 0.0, 10.00017, 9.998822 
1.0500593e+2, 2.5443178e+2, -526064.44, -622849.2, -66117.85, 0.14107186, -0.05900442, -492521.53, -45962.746, 0.0, 9.999995, 9.998731 
1.0500443e+2, 2.6443118e+2, -432515.1, -356485.47, -51235.1, 0.1723914, -0.06136492, -330702.44, 17862.418, 0.00000000014537505, 9.999241, 10.000246 
1.0500123e+2, 2.7443078e+2, -533253.3, -352084.94, -44582.51, 0.026282659, -0.15675908, -341708.28, -91143.586, 0.00000042821608, 9.997852, 10.000278 
1.0499953e+2, 2.844305e+2, -452936.84, -292933.34, -20587.84, 0.015545061, -0.19369261, -290326.75, -137763.03, 0.0000059800022, 9.997857, 10.000013 
1.0499956e+2, 2.9443038e+2, -114833.9, -82895.29, -36186.66, 0.1598174, -0.23573698, -59310.918, -4748.3486, 0.000029321069, 9.999511, 9.999988 
1.04998566e+2, 3.0442977e+2, -172557.95, -328955.44, -16948.21, 0.19492719, -0.18511976, -170742.42, -170742.42, 0.000109979665, 9.999861, 9.997791 
1.04996495e+2, 3.1442824e+2, -163179.98, -16504.404, 34995.5, 0.14866011, -0.1282983, -8582.632, -8582.632, 0.000307793, 9.998534, 10.000582 
1.15024604e+2, 1.2444375e+2, -1484452.8, -1785313.4, -29154.9, -0.1852763, -0.2433813, -1481653.5, 238780.34, 0.001474528, 10.00228, 9.998408 
1.1502579e+2, 1.3444342e+2, -1411601.6, -1671579.3, -19547.5, -0.036200713, -0.160767, -1410140.1, 212298.97, 0.00083337264, 10.002032, 9.998638 
1.1502537e+2, 1.4444146e+2, -1302657.0, -1499599.8, -77497.33, -0.016258623, -0.25043425, -1275819.0, 248640.52, 0.00033260565, 10.001832, 9.999226 
1.1502534e+2, 1.5444162e+2, -1206753.3, -1419892.4, -44928.434, 0.12176912, -0.17117892, -1197669.8, 228787.95, 0.0000710648, 10.001891, 9.999074 
1.1502322e+2, 1.6444126e+2, -1145229.4, -1421491.1, -71493.7, 0.09686174, -0.076710895, -1127824.1, 200638.33, 0.0000041843605, 10.001985, 9.998345 
1.1501876e+2, 1.744398e+2, -1004848.7, -1307709.8, -72983.31, -0.11597914, -0.0784819, -988178.75, 242300.33, 0.000000024917117, 10.002303, 9.998297 
1.1501666e+2, 1.8443821e+2, -888864.2, -1100196.1, -29608.15, -0.1467924, -0.10631467, -884794.4, 247699.05, 0.0, 10.001986, 9.9992075 
1.1501732e+2, 1.944364e+2, -942292.7, -1070190.9, 4731.2617, 0.031479597, -0.2356717, -942117.9, 92387.5, 0.0, 10.000926, 9.999248 
1.1501544e+2, 2.0443518e+2, -998997.9, -1160156.4, -77668.93, 0.05997641, -0.23137926, -967659.9, -31143.352, 0.0, 10.000353, 9.998238 
1.1501037e+2, 2.1443453e+2, -898941.4, -1069387.3, -101391.34, -0.107827, -0.13725172, -851713.75, -13185.785, 0.0, 10.000399, 9.998166 
1.1500779e+2, 2.2443388e+2, -702214.5, -759136.3, -31502.389, -0.13435441, -0.0840028, -688220.44, 52314.508, 0.0, 10.000373, 9.999635 
1.1500827e+2, 2.3443313e+2, -621485.8, -662536.2, -13454.545, 0.0037993472, -0.15358375, -617469.06, 25068.219, 0.0, 10.000216, 9.999703 
1.15007326e+2, 2.4443224e+2, -617738.94, -730769.8, -63109.543, 0.054810856, -0.15878387, -589538.3, -44992.336, 0.0, 10.000095, 9.998613 
1.1500464e+2, 2.54431e+2, -551716.44, -659268.4, -67587.26, -0.007154878, -0.15852848, -519121.72, -72557.695, 0.0, 9.999923, 9.998516 
1.150021e+2, 2.644308e+2, -409437.5, -303025.8, -108276.94, -0.0043611093, -0.12954095, -235588.56, 112978.21, 0.0, 9.999213, 10.000631 
1.1499979e+2, 2.744317e+2, -514753.7, -298171.78, -87304.69, 0.076011166, -0.13488391, -267361.9, -16810.38, 0.0000002594802, 9.997779, 10.00069 
1.1499838e+2, 2.8443196e+2, -478458.8, -331436.88, 29183.443, 0.09685232, -0.12727523, -325855.9, -173310.56, 0.000005001763, 9.997804, 9.999771 
1.1499795e+2, 2.9443163e+2, -154223.9, -132631.72, 35708.01, 0.02546309, -0.15946728, -106123.43, -51574.16, 0.000026475647, 9.99938, 9.999707 
1.1499728e+2, 3.044317e+2, -96824.91, -154745.3, -62270.094, 0.0621903, -0.08697825, -57110.09, -57110.09, 0.000100772006, 9.999803, 9.99901 
1.149969e+2, 3.1442893e+2, -137660.23, 63080.613, 6630.767, 0.28818208, -0.282917, 63299.402, 63299.402, 0.00028477213, 9.998426, 10.001178 
1.2502794e+2, 1.2444514e+2, -1303138.3, -1778223.3, -33326.945, -0.15301284, -0.1568016, -1300811.9, 419608.6, 0.0014451224, 10.003888, 9.997679 
1.2502873e+2, 1.3444321e+2, -1273807.8, -1661271.8, -13282.778, 0.004618736, -0.1801291, -1273353.0, 349089.38, 0.000820366, 10.003229, 9.998134 
1.2502773e+2, 1.4444084e+2, -1177139.6, -1401230.9, -32735.102, 0.011120683, -0.29989284, -1172455.6, 352011.0, 0.00033115427, 10.002523, 9.999569 
1.2502709e+2, 1.54442e+2, -1165097.1, -1358109.6, -52815.508, 0.10724036, -0.16227105, -1151590.0, 274864.16, 0.00007354598, 10.001989, 9.999449 
1.250249e+2, 1.6444205e+2, -1175961.9, -1418526.4, -57041.5, 0.0863865, -0.053116195, -1163217.6, 165236.61, 0.0000047036624, 10.00169, 9.998515 
1.2502107e+2, 1.7444041e+2, -1110169.9, -1342384.5, -47069.703, -0.070048474, -0.08623773, -1100991.6, 129481.266, 0.000000012759114, 10.001499, 9.998456 
1.2501891e+2, 1.844388e+2, -983857.6, -1141027.5, -23263.453, -0.08086789, -0.12628429, -980486.6, 152000.94, 0.0, 10.001314, 9.9992485 
1.2501875e+2, 1.9443725e+2, -923527.44, -1061634.6, -57171.46, 0.08179299, -0.2295257, -902931.8, 131565.05, 0.0, 10.001058, 9.999245 
1.2501635e+2, 2.0443621e+2, -906549.1, -1110556.4, -104995.63, 0.089543425, -0.20978138, -862166.9, 74339.266, 0.0, 10.000964, 9.998279 
1.2501118e+2, 2.1443568e+2, -812067.06, -1022528.94, -89538.49, -0.0923872, -0.10764128, -779128.94, 59387.344, 0.0, 10.000976, 9.998205 
1.2500837e+2, 2.2443475e+2, -682258.75, -777330.2, -6630.342, -0.12093414, -0.074334994, -681798.56, 58727.06, 0.0, 10.000629, 9.99938 
1.2500858e+2, 2.3443322e+2, -700227.5, -731260.25, -38489.56, 0.040628575, -0.19467656, -674244.44, -31709.535, 0.0, 9.999815, 9.999418 
1.250072e+2, 2.444321e+2, -723150.1, -724198.6, -57911.89, 0.08785277, -0.23049623, -665760.1, -121215.945, 0.0, 9.999125, 9.999127 
1.2500395e+2, 2.5443143e+2, -700335.5, -671132.44, -17185.135, 0.0009687872, -0.23106009, -663183.25, -216628.8, 0.0, 9.998635, 9.999061 
1.2500116e+2, 2.6443145e+2, -497446.25, -385561.66, -36955.063, 0.005844322, -0.18793435, -374457.6, -25903.762, 0.0, 9.998789, 10.000264 
1.2499907e+2, 2.7443215e+2, -256194.27, -218072.66, -94494.27, 0.13153972, -0.17093275, -140735.94, 109805.5, 0.00000012209664, 9.999763, 10.000276 
1.24997266e+2, 2.8443182e+2, -280412.22, -263967.78, 2337.735, 0.13736898, -0.19476661, -263641.9, -111098.875, 0.000003888246, 9.999293, 9.99951 
1.2499586e+2, 2.9443058e+2, -511575.66, -329540.38, -5821.7915, 0.001832416, -0.29360402, -329354.38, -274796.75, 0.00002250982, 9.997044, 9.999472 
1.2499512e+2, 3.0443224e+2, -518013.06, -264847.2, -81057.805, 0.041217707, -0.08738571, -241118.4, -241118.4, 0.000088219014, 9.996475, 9.99988 
1.24995634e+2, 3.144306e+2, -215361.9, 72014.0, -76889.83, 0.36783448, -0.26305664, 91293.14, 91293.14, 0.00025421128, 9.99769, 10.001602 
1.350322e+2, 1.2444654e+2, -1317404.8, -1801544.0, -90726.18, -0.16479382, -0.06130658, -1300961.4, 419452.06, 0.0014399097, 10.003878, 9.997518 
1.3503172e+2, 1.344446e+2, -1262922.4, -1646244.9, -31919.049, -0.04776067, -0.092731334, -1260282.6, 362151.03, 0.0008240123, 10.00328, 9.998203 
1.3502926e+2, 1.444422e+2, -1172323.6, -1409788.9, -63117.023, -0.11785967, -0.21273156, -1156589.9, 367866.7, 0.00033951883, 10.002587, 9.999484 
1.3502716e+2, 1.5444301e+2, -1165981.9, -1367463.4, -63422.945, -0.11089155, -0.10475551, -1147679.9, 278766.44, 0.00008018549, 10.002011, 9.999378 
1.3502558e+2, 1.644428e+2, -1152674.3, -1353525.6, -73273.89, -0.034056664, -0.03933784, -1128784.4, 199662.7, 0.0000062149566, 10.00163, 9.998985 
1.3502485e+2, 1.7444097e+2, -1076988.5, -1270462.5, -43715.664, 0.13490944, -0.1429295, -1067569.5, 162895.78, 0.000000017143847, 10.001499, 9.998942 
1.350227e+2, 1.844396e+2, -1029438.1, -1234747.4, -40536.355, 0.14337398, -0.15331158, -1021724.44, 110754.195, 0.0, 10.001298, 9.998617 
1.350187e+2, 1.9443896e+2, -974109.8, -1161036.4, -57971.406, -0.05225404, -0.101128355, -957590.94, 76894.11, 0.0, 10.00103, 9.998575 
1.3501537e+2, 2.0443793e+2, -870082.06, -1020217.6, -113075.74, -0.12350696, -0.074764915, -809424.75, 127069.664, 0.0, 10.0009, 9.998932 
1.3501273e+2, 2.1443628e+2, -774108.94, -919685.8, -79470.71, -0.055243872, -0.15782009, -739130.3, 99378.555, 0.0, 10.000875, 9.998958 
1.3501015e+2, 2.2443463e+2, -736092.56, -875699.3, -44570.07, -0.028121509, -0.20648827, -723076.9, 17446.377, 0.0, 10.00056, 9.998743 
1.3500756e+2, 2.3443282e+2, -758782.75, -838708.4, -62843.133, -0.06350339, -0.28330737, -724272.2, -81733.18, 0.0, 9.999749, 9.998713 
1.3500534e+2, 2.4443221e+2, -643071.06, -547601.8, -85621.27, -0.030456668, -0.29132164, -497307.88, 47234.242, 0.0, 9.999079, 10.000363 
1.3500361e+2, 2.5443307e+2, -618448.9, -479276.9, -27830.002, 0.083513245, -0.27348945, -473918.13, -27388.436, 0.0, 9.998541, 10.000422 
1.3500139e+2, 2.6443323e+2, -586377.3, -557135.44, -9552.345, 0.13074903, -0.2326186, -554291.6, -205766.2, 0.0, 9.998735, 9.999109 
1.3499871e+2, 2.7443215e+2, -359553.75, -410572.1, -48985.152, 0.096848235, -0.2671875, -329833.75, -79298.56, 0.000000046518082, 9.999669, 9.998996 
1.3499594e+2, 2.844299e+2, -301778.88, -299671.1, -84149.12, 0.053993214, -0.40097147, -216569.25, -64011.44, 0.0000029362805, 9.999255, 9.999285 
1.3499303e+2, 2.9442695e+2, -533821.4, -360957.38, -80534.34, -0.009989377, -0.65362304, -329252.72, -274663.06, 0.000019015239, 9.996975, 9.999294 
1.3499169e+2, 3.0443135e+2, -485820.4, -183624.4, -45978.723, 0.035762656, -0.19450098, -176783.66, -176783.66, 0.000075927965, 9.996419, 10.00046 
1.3499208e+2, 3.1443325e+2, -213936.53, 95788.61, -8280.819, 0.19844003, -0.07628716, 96009.85, 96009.85, 0.00022269739, 9.997596, 10.001813 
1.4503619e+2, 1.2444829e+2, -1425661.1, -1833778.8, -19457.959, -0.09892857, -0.015962876, -1424735.6, 295664.4, 0.0014542761, 10.003038, 9.997708 
1.4503486e+2, 1.3444698e+2, -1270405.8, -1606895.1, 31210.04, -0.039742973, -0.023903871, -1267535.4, 354876.13, 0.0008417685, 10.003033, 9.998595 
1.4503197e+2, 1.4444461e+2, -1177877.9, -1469412.0, 13143.688, -0.111266956, -0.13864219, -1177286.5, 347146.8, 0.0003553583, 10.002795, 9.99898 
1.4502971e+2, 1.5444387e+2, -1159307.3, -1425403.6, -41376.336, -0.065184765, -0.12528943, -1153021.9, 273417.13, 0.00008912462, 10.002324, 9.998834 
1.4502773e+2, 1.6444325e+2, -1072503.6, -1274492.5, -42580.97, 0.0054170657, -0.09349966, -1063894.1, 264549.7, 0.000008328298, 10.002009, 9.999339 
1.4502628e+2, 1.7444232e+2, -1011472.94, -1198925.1, -39876.297, 0.11884915, -0.14473422, -1003342.75, 227108.39, 0.0000000715251, 10.001767, 9.999307 
1.4502373e+2, 1.8444134e+2, -1018636.94, -1238899.9, -12620.74, 0.11601988, -0.1314698, -1017916.1, 114544.34, 0.0, 10.001417, 9.998532 
1.450197e+2, 1.9444032e+2, -1000597.2, -1189817.6, -5333.7324, -0.044606723, -0.1037613, -1000446.94, 34025.28, 0.0, 10.000907, 9.998446 
1.450163e+2, 2.0443921e+2, -899578.75, -995639.8, -25927.715, -0.0980472, -0.09341257, -893027.44, 43454.906, 0.0, 10.000544, 9.999265 
1.450136e+2, 2.1443793e+2, -833209.4, -913662.56, -40875.15, -0.022606513, -0.17613241, -816086.5, 22404.883, 0.0, 10.000324, 9.999264 
1.4501078e+2, 2.2443643e+2, -794776.44, -904264.1, 6361.8203, 0.005744453, -0.22219062, -794408.06, -53904.77, 0.0, 10.000169, 9.998734 
1.4500788e+2, 2.344346e+2, -708141.2, -821272.25, 21456.652, -0.020812854, -0.2964761, -704208.4, -61688.67, 0.0, 10.000125, 9.998657 
1.4500532e+2, 2.4443379e+2, -497592.9, -484688.38, 357.50604, 0.010962784, -0.3176057, -484678.47, 59845.836, 0.0, 10.0001135, 10.000295 
1.4500318e+2, 2.5443432e+2, -388482.0, -373384.97, -66996.91, 0.11258178, -0.32739896, -313512.66, 133000.94, 0.0, 10.000154, 10.000367 
1.4500053e+2, 2.644344e+2, -501653.9, -532985.5, -60442.266, 0.14604583, -0.28598553, -454880.25, -106370.14, 0.0, 9.999379, 9.998971 
1.4499734e+2, 2.7443358e+2, -675090.3, -580810.9, -29220.334, 0.10623944, -0.27608618, -572489.06, -321969.88, 0.00000002138944, 9.997575, 9.998845 
1.4499426e+2, 2.844314e+2, -621460.9, -451527.28, 863.96826, 0.07891863, -0.4000898, -451522.88, -298980.66, 0.0000023054517, 9.997037, 9.999318 
1.449913e+2, 2.9442826e+2, -371823.0, -275533.8, 2212.2385, 0.06923633, -0.67461044, -275483.03, -220908.5, 0.000016570593, 9.998053, 9.99936 
1.4498965e+2, 3.0443284e+2, -255882.92, -75601.54, 61919.82, 0.117478296, -0.19933932, -56383.152, -56383.152, 0.0000664134, 9.998022, 10.000416 
1.4498855e+2, 3.144339e+2, -378886.84, 6575.8936, 19617.316, 0.150412, -0.16018401, 7571.703, 7571.703, 0.0001967113, 9.996519, 10.001706 
1.550394e+2, 1.2445067e+2, -1371262.4, -1749976.4, -55731.137, -0.13538104, 0.0024333342, -1363231.4, 357145.97, 0.0014746141, 10.0031595, 9.998229 
1.5503792e+2, 1.3445044e+2, -1220351.9, -1508846.0, 34717.22, -0.06372858, 0.038359184, -1216232.9, 406142.16, 0.00086313457, 10.003051, 9.999266 
1.5503544e+2, 1.44448e+2, -1242924.4, -1598389.1, -14143.252, -0.067371964, -0.07762414, -1242362.5, 282034.78, 0.00037152023, 10.002775, 9.998101 
1.5503436e+2, 1.5444462e+2, -1225930.8, -1566452.8, -48146.77, 0.14173223, -0.2307991, -1219254.1, 207178.33, 0.00009663115, 10.002341, 9.997853 
1.5503106e+2, 1.6444343e+2, -1061386.9, -1245720.0, -59433.504, 0.11604737, -0.21270524, -1043885.7, 284558.22, 0.000009881803, 10.0019865, 9.999551 
1.5502512e+2, 1.7444465e+2, -994673.4, -1156848.5, -39194.875, -0.19465706, -0.07704767, -985697.44, 244731.69, 0.00000020107916, 10.00174, 9.999608 
1.5502173e+2, 1.8444408e+2, -993835.1, -1182566.6, -39502.89, -0.24568887, -0.056217477, -985900.44, 146532.02, 0.0, 10.001395, 9.998932 
1.5502143e+2, 1.9444135e+2, -981696.06, -1134518.9, -15409.206, 0.0157021, -0.24016224, -980157.9, 54300.477, 0.0, 10.00085, 9.99885 
1.550189e+2, 2.044401e+2, -909882.4, -1008540.75, -42679.54, 0.08560713, -0.26174116, -893981.9, 42487.797, 0.0, 10.000496, 9.9992075 
1.5501343e+2, 2.1444064e+2, -847462.0, -925486.5, -42095.43, -0.0917586, -0.15423211, -829081.06, 9382.6, 0.0, 10.000248, 9.99922 
1.5501007e+2, 2.2444025e+2, -765021.5, -828300.8, -3335.9524, -0.10243113, -0.11530102, -764846.1, -24381.148, 0.0, 10.000104, 9.999289 
1.550093e+2, 2.3443857e+2, -678022.56, -742090.2, 29374.596, 0.08977249, -0.23474842, -666593.4, -24116.248, 0.0, 10.00005, 9.999238 
1.5500684e+2, 2.4443686e+2, -600965.1, -690400.25, -5784.256, 0.13249375, -0.3111707, -600592.56, -56101.695, 0.0, 10.000069, 9.998905 
1.5500239e+2, 2.5443503e+2, -504279.84, -601367.7, -55669.203, -0.004176598, -0.40382108, -478961.9, -32454.49, 0.0, 10.000088, 9.998838 
1.5499832e+2, 2.6443487e+2, -446862.72, -408039.2, -132374.97, -0.032046076, -0.34909624, -293660.28, 54848.453, 0.0, 9.999337, 9.999846 
1.5499476e+2, 2.744364e+2, -618762.75, -445018.75, -87717.28, 0.07071849, -0.20618834, -408436.03, -157941.63, 0.000000019825112, 9.997491, 9.999818 
1.5499197e+2, 2.844362e+2, -606184.0, -408236.63, 27594.654, 0.12670854, -0.19782212, -404461.8, -251965.03, 0.0000019865888, 9.99699, 9.999635 
1.5499029e+2, 2.944344e+2, -362192.4, -238143.88, 52488.84, 0.13615067, -0.36636662, -218914.9, -164401.45, 0.000014949104, 9.997973, 9.999657 
1.5498874e+2, 3.0443677e+2, -309301.25, -172330.89, 7204.5503, 0.20571, -0.09988174, -171952.98, -171952.98, 0.000059797247, 9.9979725, 9.999766 
1.5498456e+2, 3.1443274e+2, -424222.63, -64617.613, -11621.032, 0.055288427, -0.4988912, -64242.46, -64242.46, 0.0001777337, 9.996428, 10.001255 
1.6504315e+2, 1.2445276e+2, -1249907.3, -1695494.5, -3156.8738, -0.111588135, -0.09027664, -1249884.9, 470466.8, 0.0014821975, 10.004004, 9.998194 
1.6504118e+2, 1.344524e+2, -1243276.8, -1526414.6, 13864.422, -0.028007496, -0.06307796, -1242599.4, 379753.22, 0.0008719991, 10.002915, 9.999211 
1.6503833e+2, 1.4445068e+2, -1327354.6, -1629414.1, 2061.6501, -0.01749886, -0.108642064, -1327340.5, 197028.77, 0.0003781117, 10.002179, 9.99816 
1.6503713e+2, 1.544479e+2, -1260110.0, -1578832.5, 25338.799, 0.20148033, -0.20777117, -1258108.1, 168291.22, 0.000098805474, 10.002098, 9.997879 
1.6503334e+2, 1.6444664e+2, -1108583.3, -1297039.8, 49369.78, 0.16235049, -0.183524, -1096433.3, 231978.52, 0.000009884257, 10.001771, 9.999303 
1.6502658e+2, 1.744471e+2, -1108895.4, -1237643.8, 14779.604, -0.18402918, -0.102157675, -1107220.5, 123183.56, 0.0000002904704, 10.00106, 9.999381 
1.6502279e+2, 1.844463e+2, -1072005.1, -1208775.6, 12862.907, -0.24609159, -0.097972356, -1070806.0, 61603.523, 0.0, 10.000825, 9.999015 
1.6502266e+2, 1.9444391e+2, -927547.3, -1098680.9, -1632.825, 0.044265904, -0.25849384, -927531.75, 106899.95, 0.0, 10.001176, 9.998933 
1.6502011e+2, 2.0444271e+2, -832262.56, -992367.6, -37168.645, 0.13178517, -0.27127782, -824054.56, 112388.37, 0.0, 10.001128, 9.999012 
1.650144e+2, 2.1444297e+2, -806426.75, -929897.8, -64493.38, -0.0336783, -0.16846982, -778883.7, 59557.07, 0.0, 10.000631, 9.999007 
1.6501075e+2, 2.2444266e+2, -709131.7, -776097.75, -17635.309, -0.053230785, -0.12122425, -704771.4, 35670.625, 0.0, 10.000395, 9.999499 
1.6500962e+2, 2.3444164e+2, -604889.06, -676193.8, -30480.514, 0.10316114, -0.19730957, -593635.6, 48811.863, 0.0, 10.000443, 9.99949 
1.6500674e+2, 2.4444008e+2, -652072.94, -725294.2, -44255.86, 0.13687938, -0.26506972, -631247.4, -86787.414, 0.0, 9.999769, 9.998808 
1.6500181e+2, 2.544379e+2, -783616.25, -744932.6, -8311.133, 0.028852709, -0.3837799, -743222.56, -296741.66, 0.0, 9.99822, 9.998746 
1.6499731e+2, 2.6443747e+2, -643117.25, -495243.8, -22129.576, 0.0074985623, -0.35255444, -492003.1, -143518.33, 0.0, 9.99795, 9.999918 
1.649934e+2, 2.7443898e+2, -349147.75, -298532.63, -61697.004, 0.10382182, -0.22701411, -257154.4, -6684.1226, 0.000000024295247, 9.999276, 9.999952 
1.6499037e+2, 2.8443915e+2, -281299.28, -266285.0, 20520.756, 0.159255, -0.17737406, -251941.31, -99473.31, 0.0000019697127, 9.999293, 9.999496 
1.649887e+2, 2.944383e+2, -405992.94, -267635.06, -6429.1226, 0.20076568, -0.23750365, -267336.94, -212861.63, 0.000013995548, 9.997716, 9.999578 
1.6498683e+2, 3.0443907e+2, -513779.25, -273644.0, -51430.527, 0.29676926, -0.12624158, -263092.6, -263092.6, 0.00005518299, 9.996565, 9.999762 
1.6498117e+2, 3.1443435e+2, -511628.56, -111820.305, -45388.19, 0.11171411, -0.589701, -106732.37, -106732.37, 0.00016337763, 9.995841, 10.00122 
1.750468e+2, 1.244545e+2, -1285809.6, -1768685.0, -73194.46, -0.19501391, -0.3061096, -1274958.6, 445365.3, 0.001464911, 10.004006, 9.997685 
1.7504436e+2, 1.34453e+2, -1295153.8, -1629937.6, -22849.613, -0.023670658, -0.32204667, -1293601.4, 328741.63, 0.0008580161, 10.002914, 9.998492 
1.7504054e+2, 1.444527e+2, -1259483.8, -1496131.0, -12039.589, -0.039925992, -0.22724628, -1258872.9, 265475.7, 0.00036898247, 10.002201, 9.999072 
1.7503774e+2, 1.5445365e+2, -1185282.6, -1427497.5, 32525.049, 0.026401768, -0.057051044, -1180991.3, 245349.22, 0.00009401229, 10.002111, 9.998914 
1.750343e+2, 1.6445285e+2, -1155355.6, -1388007.6, 15096.333, 0.058798216, -0.012072295, -1154380.1, 173967.42, 0.000008393363, 10.001745, 9.998692 
1.750303e+2, 1.7444976e+2, -1163261.5, -1344611.6, -4252.5977, 0.059641793, -0.21272546, -1163161.8, 67213.71, 0.00000020811186, 10.001042, 9.998652 
1.750266e+2, 1.844481e+2, -1088599.9, -1244397.3, 17810.748, 0.030281795, -0.24623473, -1086589.8, 45800.938, 0.0, 10.000816, 9.998779 
1.7502314e+2, 1.944481e+2, -946008.4, -1127765.6, 19986.326, -0.047622558, -0.14653292, -943836.56, 90554.62, 0.0, 10.001134, 9.9987545 
1.7501967e+2, 2.0444715e+2, -865001.5, -1049012.8, -64090.547, -0.042985905, -0.109929755, -844879.4, 91521.555, 0.0, 10.001074, 9.998651 
1.7501622e+2, 2.1444489e+2, -846249.5, -994718.75, -74887.88, 0.06647795, -0.22196142, -815037.6, 23385.432, 0.0, 10.000556, 9.998598 
1.7501257e+2, 2.244437e+2, -729223.8, -804641.3, -24749.598, 0.07081655, -0.23074317, -721827.25, 18606.434, 0.0, 10.000331, 9.999336 
1.750086e+2, 2.3444375e+2, -622745.8, -702317.94, -20736.527, -0.06296795, -0.18615589, -617666.1, 24765.055, 0.0, 10.000386, 9.999341 
1.7500478e+2, 2.4444348e+2, -578318.56, -560498.5, -107416.6, -0.05410557, -0.17461823, -461623.03, 82808.29, 0.0, 9.999721, 9.999961 
1.750012e+2, 2.5444275e+2, -710682.7, -574269.75, -60447.03, 0.12668766, -0.26921177, -551339.1, -104904.26, 0.0, 9.998137, 9.999957 
1.7499734e+2, 2.6444212e+2, -692652.94, -592549.4, 14450.837, 0.19762431, -0.29652497, -590505.0, -242065.98, 0.0, 9.997924, 9.999262 
1.7499304e+2, 2.7444115e+2, -412828.53, -416797.8, -3337.4395, 0.11791409, -0.33750543, -410930.22, -160483.0, 0.000000035492793, 9.999213, 9.999172 
1.749892e+2, 2.8444025e+2, -324750.97, -352772.5, -43424.21, 0.091791466, -0.3267835, -293133.2, -140677.36, 0.0000021240596, 9.999277, 9.998908 
1.7498614e+2, 2.9443985e+2, -453049.6, -347786.53, -57128.91, 0.15085724, -0.28902328, -322740.56, -268279.66, 0.000013429294, 9.997646, 9.999057 
1.7498371e+2, 3.0443963e+2, -466092.88, -176006.14, -86877.88, 0.3102443, -0.28337795, -151977.5, -151977.5, 0.000050917075, 9.996564, 10.00044 
1.749777e+2, 3.1443876e+2, -499870.94, -63789.684, -30613.104, 0.13754623, -0.4270161, -61651.117, -61651.117, 0.00014886881, 9.995751, 10.00159 
1.850505e+2, 1.2445863e+2, -1538356.3, -1916109.0, -57087.15, -0.1329892, -0.31552586, -1529917.6, 190363.25, 0.0014182838, 10.00237, 9.997466 
1.8504745e+2, 1.3445671e+2, -1398097.9, -1724597.8, -10048.555, 0.028013546, -0.33194238, -1397789.0, 224517.5, 0.00082149997, 10.002398, 9.998091 
1.8504295e+2, 1.4445661e+2, -1221434.4, -1472487.3, 30513.354, -0.024290362, -0.20161694, -1217778.9, 306532.22, 0.00034638878, 10.002426, 9.9991255 
1.8503936e+2, 1.5445761e+2, -1089370.8, -1368654.0, -9380.474, -0.04656836, -0.033939984, -1089056.0, 337245.2, 0.000084445885, 10.002711, 9.99903 
1.8503575e+2, 1.6445668e+2, -1059170.4, -1361132.3, -62302.176, -0.0041366476, -0.0017520837, -1046821.0, 281488.34, 0.000006352812, 10.0025015, 9.998507 
1.8503243e+2, 1.7445308e+2, -1084810.5, -1332141.5, -60715.68, 0.13952017, -0.23184696, -1070709.6, 159632.98, 0.000000056960435, 10.001686, 9.998428 
1.850288e+2, 1.8445136e+2, -1023476.6, -1195187.0, 42074.016, 0.15534456, -0.26867345, -1013721.5, 118637.15, 0.0, 10.001195, 9.998932 
1.8502462e+2, 1.944519e+2, -943262.75, -1104864.4, 57843.2, -0.004974119, -0.13276951, -924692.5, 109660.96, 0.0, 10.001066, 9.998943 
1.8502082e+2, 2.0445111e+2, -866630.75, -1046300.5, 5802.2197, -0.030466864, -0.09079761, -866443.56, 69917.74, 0.0, 10.001045, 9.998682 
1.8501748e+2, 2.144486e+2, -762097.75, -951957.25, 9491.082, 0.11353417, -0.22873326, -761624.44, 76761.35, 0.0, 10.001114, 9.998626 
1.8501359e+2, 2.2444728e+2, -704111.2, -787451.1, 81641.47, 0.13713363, -0.2576277, -654120.25, 86277.984, 0.0, 10.000474, 9.999391 
1.8500896e+2, 2.3444732e+2, -825445.0, -795977.94, 83689.305, 0.010679416, -0.21824111, -725735.1, -83338.75, 0.0, 9.998965, 9.999388 
1.8500458e+2, 2.4444738e+2, -720921.06, -618915.6, 1799.0237, 0.008440891, -0.17804986, -618883.9, -74489.99, 0.0, 9.998691, 10.000057 
1.8500058e+2, 2.544475e+2, -444267.9, -434371.0, -50970.582, 0.16674246, -0.20115837, -388109.22, 58281.41, 0.0, 9.999916, 10.000062 
1.8499665e+2, 2.6444668e+2, -403233.63, -485133.84, 13679.793, 0.23335375, -0.23231457, -401009.1, -52612.953, 0.0, 10.000047, 9.998979 
1.849927e+2, 2.7444455e+2, -487753.47, -489143.44, 14659.043, 0.1867236, -0.35851058, -473772.94, -223358.22, 0.000000044067633, 9.998845, 9.998861 
1.8498828e+2, 2.8444332e+2, -500346.03, -445337.44, -5104.384, 0.13597035, -0.36268607, -444867.78, -292441.63, 0.000002141611, 9.998094, 9.99885 
1.8498342e+2, 2.944435e+2, -419630.16, -340213.53, -2264.4673, 0.10743292, -0.25871402, -340149.03, -285722.97, 0.000012353572, 9.997898, 9.998996 
1.8498029e+2, 3.0444235e+2, -332093.13, -74148.99, -8011.0327, 0.28033105, -0.35909772, -73900.43, -73900.43, 0.0000445169, 9.997326, 10.000762 
1.849746e+2, 3.1444353e+2, -464795.44, -108470.06, 10603.458, 0.23720986, -0.32827523, -108154.805, -108154.805, 0.00012870552, 9.996216, 10.001076 
1.9505382e+2, 1.24465175e+2, -1527504.4, -1896778.1, -91008.805, -0.08871775, -0.10619296, -1506293.4, 213928.75, 0.0013429979, 10.002394, 9.997583 
1.9505021e+2, 1.3446344e+2, -1408187.1, -1737389.1, -7499.7764, 0.04219524, -0.09731246, -1408016.3, 214227.6, 0.0007683095, 10.0023775, 9.998006 
1.9504532e+2, 1.4446229e+2, -1270489.1, -1576901.6, 29214.145, -0.05863377, -0.034565594, -1267728.6, 256529.16, 0.00031677555, 10.002427, 9.998411 
1.9504167e+2, 1.5445991e+2, -1142201.9, -1479039.5, 9803.967, -0.10880677, -0.12963857, -1141916.8, 284363.8, 0.000073711046, 10.002712, 9.998273 
1.9503741e+2, 1.6445826e+2, -1043732.8, -1328617.5, -96003.76, -0.10748864, -0.13966523, -1014400.5, 313895.16, 0.0000047225935, 10.00249, 9.99874 
1.9503276e+2, 1.7445718e+2, -1064802.6, -1289581.5, -80863.91, -0.017236676, -0.1494219, -1038735.06, 191569.5, 0.0000000036456946, 10.001677, 9.998729 
1.950292e+2, 1.8445615e+2, -991184.75, -1120821.0, 27160.426, 0.055505805, -0.15575223, -985724.3, 146588.19, 0.0, 10.001159, 9.999464 
1.9502683e+2, 1.9445522e+2, -912567.44, -1032021.0, 62233.3, 0.09025412, -0.2215371, -886037.25, 148281.8, 0.0, 10.001022, 9.999468 
1.950232e+2, 2.0445459e+2, -847625.8, -987174.06, 1715.8982, 0.08519472, -0.21237405, -847604.75, 88719.36, 0.0, 10.000964, 9.999124 
1.9501795e+2, 2.1445414e+2, -742609.1, -891802.56, 20302.25, 0.0280233, -0.18983182, -739895.75, 98433.27, 0.0, 10.001031, 9.999076 
1.950136e+2, 2.244534e+2, -699376.94, -759955.5, 18596.232, 0.07279426, -0.1950387, -694123.8, 46211.523, 0.0, 10.000401, 9.999614 
1.950104e+2, 2.3445223e+2, -821489.94, -768219.0, 33790.777, 0.23898289, -0.29572836, -751828.1, -109484.6, 0.0, 9.998884, 9.999616 
1.9500586e+2, 2.4445175e+2, -799563.6, -766600.3, 34080.098, 0.25039893, -0.27704552, -745225.7, -200877.78, 0.0, 9.998623, 9.999076 
1.9499964e+2, 2.5445202e+2, -529225.7, -590956.75, 3572.4365, 0.061753314, -0.18199667, -529019.6, -82671.23, 0.0, 9.999832, 9.999023 
1.9499497e+2, 2.6445132e+2, -401106.78, -474995.3, -34463.55, 0.04298537, -0.1518051, -387527.63, -39172.44, 0.0, 10.000019, 9.999064 
1.9499213e+2, 2.7444923e+2, -485119.06, -471776.03, -20578.32, 0.22427478, -0.2885972, -456814.78, -206442.69, 0.000000036761158, 9.998789, 9.999013 
1.9498736e+2, 2.8444836e+2, -477488.25, -387448.94, -20625.52, 0.21510068, -0.28461757, -382949.06, -230570.19, 0.0000018181237, 9.9980545, 9.999263 
1.949803e+2, 2.9444936e+2, -404756.72, -285236.97, 3601.57, -0.016584774, -0.13823651, -285128.56, -230758.97, 0.000010151812, 9.997807, 9.999413 
1.949763e+2, 3.044474e+2, -334729.6, -76584.76, -51699.277, 0.12941183, -0.34475332, -66615.8, -66615.8, 0.00003534469, 9.997312, 10.000751 
1.9497128e+2, 3.144491e+2, -559781.25, -282142.5, 11651.6455, 0.24161391, -0.2626071, -281654.38, -281654.38, 0.0001028295, 9.996129, 9.999914 
2.0505737e+2, 1.24469906e+2, -1310941.8, -1735538.6, -94936.82, -0.02766017, -0.065425254, -1290681.4, 429496.63, 0.0012444656, 10.0036545, 9.998078 
2.0505321e+2, 1.3446827e+2, -1249923.6, -1636514.5, -9568.597, 0.06358662, -0.0720056, -1249686.9, 372508.22, 0.00070293987, 10.003348, 9.99824 
2.050482e+2, 1.4446674e+2, -1250190.9, -1588258.3, 73310.984, -0.018388785, -0.0473834, -1234977.8, 289233.3, 0.00028321997, 10.002669, 9.998216 
2.050445e+2, 1.544634e+2, -1293564.3, -1575314.9, 69961.05, -0.044008434, -0.21838152, -1277148.8, 149095.61, 0.000063005726, 10.001775, 9.998062 
2.0503977e+2, 1.644618e+2, -1170019.5, -1351321.5, 11027.765, -0.06700512, -0.22789599, -1169351.3, 158908.17, 0.0000035155435, 10.001469, 9.999072 
2.0503409e+2, 1.7446212e+2, -1010260.44, -1221592.1, 14103.913, -0.0585876, -0.13145997, -1009323.3, 220931.25, 0.0000000004928599, 10.001881, 9.999095 
2.0503001e+2, 1.8446149e+2, -927650.6, -1081722.6, 107305.82, 0.005203901, -0.12277483, -872591.7, 259666.9, 0.0, 10.001559, 9.999538 
2.0502779e+2, 1.9445966e+2, -1012902.0, -1074318.5, 87129.43, 0.124616295, -0.28302974, -951227.7, 83045.67, 0.0, 10.000305, 9.999522 
2.050241e+2, 2.0445903e+2, -978478.2, -1008540.44, 58848.535, 0.1378636, -0.2926939, -932771.5, 3506.6533, 0.0, 9.999884, 9.999501 
2.050186e+2, 2.1445976e+2, -804732.8, -877400.3, 62544.902, 0.027342018, -0.19167517, -768733.94, 69537.766, 0.0, 10.000417, 9.999473 
2.0501395e+2, 2.2445947e+2, -680428.8, -765522.8, 18629.488, 0.06226799, -0.16497068, -676529.0, 63744.734, 0.0, 10.000593, 9.999479 
2.0501035e+2, 2.3445787e+2, -626261.75, -695673.4, -12985.814, 0.2811449, -0.294146, -623911.9, 18375.047, 0.0, 10.000315, 9.999426 
2.0500554e+2, 2.4445699e+2, -636433.7, -716636.8, 54204.54, 0.298453, -0.29433757, -609109.25, -64813.39, 0.0, 9.999866, 9.998817 
2.0499912e+2, 2.5445688e+2, -631132.3, -674868.8, 68527.36, 0.059417635, -0.20882182, -581068.5, -134767.8, 0.0, 9.999273, 9.998721 
2.0499428e+2, 2.6445624e+2, -525927.06, -507813.84, 51430.426, 0.024243308, -0.16559881, -464648.7, -116341.586, 0.0, 9.999056, 9.999297 
2.0499128e+2, 2.744548e+2, -391347.75, -395437.28, 49996.895, 0.24067406, -0.2656545, -343353.84, -93036.11, 0.00000002096579, 9.999314, 9.999274 
2.0498614e+2, 2.8445408e+2, -348325.03, -330852.1, 50043.375, 0.24905808, -0.25576034, -288788.3, -136465.19, 0.0000012828043, 9.998969, 9.999211 
2.0497845e+2, 2.9445478e+2, -389242.7, -283771.2, 26962.19, 0.018724086, -0.13733175, -277278.4, -222961.17, 0.000007381431, 9.997939, 9.999358 
2.0497377e+2, 3.0445296e+2, -288499.78, 1611.0054, -14517.752, 0.14761868, -0.3503978, 2335.6938, 2335.6938, 0.000026183789, 9.997401, 10.001248 
2.0496799e+2, 3.1445536e+2, -399926.66, -217392.36, 77908.2, 0.24901332, -0.24763398, -188662.1, -188662.1, 0.00007851838, 9.997313, 9.99978 
2.1506055e+2, 1.2447291e+2, -1255166.8, -1612715.1, -145910.63, -0.12187441, -0.18874046, -1203181.0, 516966.94, 0.0011273269, 10.003628, 9.998936 
2.1505623e+2, 1.3447134e+2, -1207678.4, -1552431.8, -13949.3545, 0.007896182, -0.24582712, -1207114.9, 415044.22, 0.0006276391, 10.003368, 9.998808 
2.1505132e+2, 1.4447019e+2, -1233012.1, -1553733.6, 29115.463, 0.00034087445, -0.2226258, -1230390.4, 293778.9, 0.0002466057, 10.00267, 9.998454 
2.1504758e+2, 1.5446813e+2, -1272219.9, -1536471.6, 44357.48, 0.060405757, -0.29095313, -1264972.8, 161219.3, 0.000052325075, 10.001795, 9.998321 
2.150425e+2, 1.644673e+2, -1143390.8, -1289681.6, 15067.672, 0.03911471, -0.25946712, -1141855.0, 186345.73, 0.000002586899, 10.00144, 9.999509 
2.1503611e+2, 1.7446783e+2, -984236.3, -1159418.3, 38040.277, -0.06456577, -0.18578488, -976332.56, 253860.86, 0.000000000052014764, 10.001849, 9.999534 
2.1503094e+2, 1.8446723e+2, -964752.44, -1148010.4, 56694.53, -0.07483168, -0.17516577, -948631.06, 183566.69, 0.0, 10.001508, 9.99911 
2.1502727e+2, 1.9446512e+2, -1047630.9, -1140651.4, 48431.94, 0.019872103, -0.31940475, -1026993.1, 7224.3813, 0.0, 10.0002775, 9.99908 
2.1502334e+2, 2.0446442e+2, -963141.7, -964040.9, 66371.52, 0.05785041, -0.3291155, -897218.25, 39005.67, 0.0, 9.999828, 9.999833 
2.150192e+2, 2.1446541e+2, -788255.06, -825054.0, 89695.28, 0.024759546, -0.23854375, -715091.56, 123122.81, 0.0, 10.000338, 9.999869 
2.1501434e+2, 2.2446547e+2, -729481.8, -845530.2, 2274.662, 0.025901632, -0.17540959, -729437.25, 10776.734, 0.0, 10.000501, 9.998973 
2.1500863e+2, 2.3446423e+2, -679998.0, -781366.2, -13319.476, 0.060222283, -0.21513584, -678277.06, -36050.883, 0.0, 10.000207, 9.998886 
2.150034e+2, 2.4446307e+2, -614422.06, -660526.06, 25089.182, 0.07809141, -0.23079377, -603402.6, -59165.285, 0.0, 9.999823, 9.999226 
2.1499878e+2, 2.5446206e+2, -611771.25, -610854.9, 53486.484, 0.07783329, -0.27747113, -557824.6, -111577.64, 0.0, 9.999175, 9.9992075 
2.1499433e+2, 2.644615e+2, -511211.06, -466681.66, 52258.543, 0.10509167, -0.27119684, -432142.53, -83891.17, 0.0, 9.999009, 9.999601 
2.1498992e+2, 2.7446115e+2, -385571.3, -363131.47, 69054.78, 0.14984514, -0.29150453, -304391.03, -54138.47, 0.00000000626477, 9.999226, 9.999538 
2.149844e+2, 2.8446043e+2, -380440.3, -388441.44, 4453.6333, 0.15773493, -0.27840462, -378454.28, -226194.78, 0.00000075455597, 9.998932, 9.998834 
2.1497777e+2, 2.944598e+2, -432085.34, -359961.94, -2607.9094, 0.13400513, -0.24921907, -359867.75, -305599.7, 0.0000049684672, 9.997884, 9.998863 
2.1497254e+2, 3.0445904e+2, -225874.38, 128880.78, -23783.291, 0.26565093, -0.366283, 130468.15, 130468.15, 0.000019548965, 9.997407, 10.002126 
2.1496433e+2, 3.144623e+2, -362806.97, -126845.35, 124110.73, 0.10801423, -0.2761343, -73586.73, -73586.73, 0.00006122242, 9.997248, 10.000441 
2.2506468e+2, 1.2447743e+2, -1371261.1, -1620385.9, -42866.406, -0.0072687613, -0.28233445, -1364091.5, 356010.16, 0.0009979393, 10.002606, 9.99938 
2.2505924e+2, 1.3447651e+2, -1273220.6, -1555787.1, 36761.875, 0.009186696, -0.3033896, -1268516.3, 353589.5, 0.0005469221, 10.002806, 9.999049 
2.2505358e+2, 1.4447571e+2, -1253734.6, -1532366.0, 61778.66, -0.024236735, -0.27023202, -1240651.3, 283460.78, 0.00020906674, 10.002398, 9.998737 
2.2504896e+2, 1.5447442e+2, -1301805.8, -1518613.5, 62321.957, 0.04257256, -0.28784028, -1285168.0, 140959.03, 0.000042237294, 10.001453, 9.998613 
2.2504374e+2, 1.6447376e+2, -1214644.6, -1328063.3, 73460.94, 0.048684943, -0.25592485, -1178550.6, 149583.55, 0.0000020119714, 10.000957, 9.999482 
2.2503798e+2, 1.7447366e+2, -1128776.5, -1239117.9, 42750.78, -0.009495382, -0.23891327, -1114151.5, 115981.49, 0.0, 10.000888, 9.9994545 
2.2503251e+2, 1.8447301e+2, -1064996.1, -1192875.4, 43403.98, -0.03100281, -0.23038952, -1051655.9, 80482.61, 0.0, 10.00081, 9.999134 
2.2502732e+2, 1.944716e+2, -996781.2, -1113999.0, 53729.113, -0.015546484, -0.3064081, -975880.25, 58272.164, 0.0, 10.000631, 9.99909 
2.25023e+2, 2.0447107e+2, -889557.94, -924379.56, 119995.56, 0.020038282, -0.30128124, -785716.7, 150440.69, 0.0, 10.00031, 9.99988 
2.2501978e+2, 2.1447153e+2, -872047.1, -859894.6, 105090.4, 0.084452525, -0.2695026, -760704.94, 77447.01, 0.0, 9.999733, 9.999926 
2.2501497e+2, 2.244714e+2, -857910.06, -910614.25, 38854.0, 0.085825406, -0.22622263, -837314.7, -97161.25, 0.0, 9.99963, 9.998948 
2.250082e+2, 2.344704e+2, -705906.25, -796066.06, 44366.797, 0.010124406, -0.24022868, -687735.75, -45570.96, 0.0, 10.00004, 9.998864 
2.250027e+2, 2.4446942e+2, -588297.9, -627583.7, 85503.44, 0.026114944, -0.24610524, -520210.06, 23964.295, 0.0, 9.999911, 9.999413 
2.249988e+2, 2.5446847e+2, -595133.3, -580504.0, 77531.67, 0.16674782, -0.30865565, -509942.72, -63760.684, 0.0, 9.999187, 9.999414 
2.2499412e+2, 2.6446792e+2, -570972.3, -485006.8, 95942.07, 0.2114522, -0.31455767, -422859.2, -74673.38, 0.0, 9.998552, 9.999694 
2.2498842e+2, 2.7446765e+2, -537985.8, -427709.44, 83206.766, 0.13813375, -0.33484438, -383029.88, -132842.61, 0.00000000006385136, 9.998133, 9.999623 
2.2498274e+2, 2.8446704e+2, -431059.25, -414698.8, 52380.07, 0.12200552, -0.3168283, -369864.06, -217670.34, 0.00000032397858, 9.998584, 9.998823 
2.249773e+2, 2.944664e+2, -129693.7, -224971.06, 55121.06, 0.19779491, -0.282993, -104477.91, -50276.15, 0.000003287384, 10.000005, 9.998768 
2.249716e+2, 3.044661e+2, 61023.46, 196597.64, -32308.771, 0.32721755, -0.32102343, 203903.47, 203903.47, 0.00001589248, 9.99968, 10.001493 
2.2496153e+2, 3.1446794e+2, -365907.88, -161077.45, -10235.888, 0.109260164, -0.31868726, -160567.2, -160567.2, 0.000052100033, 9.997357, 10.000155 
2.350693e+2, 1.24483526e+2, -1362033.3, -1613664.9, -72969.62, 0.14525846, -0.3438352, -1342404.4, 377634.28, 0.0008671324, 10.002663, 9.9994 
2.3506193e+2, 1.3448368e+2, -1274427.0, -1574080.8, 42604.86, -0.024315877, -0.24219106, -1268487.1, 353548.94, 0.0004662031, 10.002859, 9.998905 
2.3505458e+2, 1.4448309e+2, -1232551.4, -1477592.3, 16858.607, -0.18229276, -0.19879152, -1231397.0, 292644.3, 0.00017258529, 10.0023575, 9.999131 
2.3504844e+2, 1.5448217e+2, -1271234.6, -1457545.9, 36441.184, -0.17945884, -0.22022374, -1264360.6, 161689.72, 0.000033446406, 10.001467, 9.999025 
2.3504326e+2, 1.6448106e+2, -1258064.3, -1411339.9, 59695.02, -0.11685072, -0.22476985, -1237558.6, 90501.984, 0.0000017722703, 10.000928, 9.998927 
2.3503949e+2, 1.7447953e+2, -1166135.5, -1316154.3, 48046.723, 0.031818718, -0.29550657, -1152066.9, 78007.29, 0.0000000001389195, 10.000883, 9.998931 
2.3503442e+2, 1.8447883e+2, -1044534.5, -1134488.1, 28943.324, 0.062308397, -0.2857725, -1036026.5, 96053.89, 0.0, 10.000744, 9.99957 
2.3502766e+2, 1.944791e+2, -968355.3, -1045654.25, 54227.07, -0.06584807, -0.24117927, -940413.8, 93664.47, 0.0, 10.000591, 9.999579 
2.3502271e+2, 2.0447892e+2, -916004.94, -960237.3, 91330.65, -0.055170044, -0.21670063, -844150.8, 91928.28, 0.0, 10.000229, 9.999672 
2.3502012e+2, 2.1447809e+2, -903122.25, -902760.1, 91990.84, 0.12505, -0.28949365, -810950.1, 27134.504, 0.0, 9.999638, 9.999679 
2.3501562e+2, 2.244773e+2, -846385.7, -859430.94, 45684.02, 0.17098245, -0.3183059, -806761.0, -66669.19, 0.0, 9.99952, 9.9993515 
2.350088e+2, 2.3447639e+2, -688588.44, -737909.0, 68140.89, 0.04558922, -0.36281192, -640782.8, 1319.6583, 0.0, 9.999948, 9.99931 
2.3500311e+2, 2.4447592e+2, -594757.75, -629518.5, 51089.242, 0.054340962, -0.34236917, -558173.44, -14065.814, 0.0, 9.999862, 9.999422 
2.3499884e+2, 2.5447598e+2, -610401.25, -588933.25, 58050.777, 0.23371376, -0.3036575, -540632.44, -94526.11, 0.0, 9.999088, 9.999403 
2.3499344e+2, 2.6447555e+2, -584995.56, -503687.7, 71836.28, 0.26947445, -0.29097724, -461799.56, -113689.76, 0.0, 9.998508, 9.999588 
2.3498654e+2, 2.7447435e+2, -555890.9, -448160.56, 77470.016, 0.117002755, -0.3923656, -407669.72, -157548.13, 0.0, 9.998057, 9.999522 
2.3498082e+2, 2.8447393e+2, -410496.8, -363643.6, 95152.164, 0.050440907, -0.36747634, -289076.63, -136950.86, 0.00000009734078, 9.998547, 9.999192 
2.3497671e+2, 2.944746e+2, -117509.22, -185023.36, 115190.1, 0.1145693, -0.24186368, -31231.71, 22887.406, 0.0000024854203, 9.999934, 9.999081 
2.3497069e+2, 3.04474e+2, -83761.58, -103096.586, -119422.84, 0.24811709, -0.21977323, 26384.424, 26384.424, 0.00001465121, 9.999669, 9.999443 
2.349591e+2, 3.1447223e+2, -458556.66, -343935.7, -53780.46, 0.08779377, -0.3697939, -322653.34, -322653.34, 0.000049295926, 9.997304, 9.998932 
2.4507208e+2, 1.2449153e+2, -1393899.5, -1682647.0, 17655.3, 0.16576491, -0.3160821, -1392824.0, 327132.8, 0.0007416808, 10.002677, 9.998922 
2.4506463e+2, 1.344912e+2, -1363301.5, -1672395.9, 82617.53, -0.014066475, -0.21092413, -1342604.6, 279357.53, 0.00038814702, 10.002493, 9.998411 
2.4505703e+2, 1.4449e+2, -1233178.1, -1464528.8, 37667.77, -0.1625652, -0.20936084, -1227199.6, 296774.9, 0.00013769997, 10.002281, 9.999256 
2.450499e+2, 1.5448955e+2, -1156803.3, -1387439.4, 19729.057, -0.21043451, -0.20269927, -1155127.8, 270850.16, 0.000025817635, 10.00219, 9.999155 
2.4504413e+2, 1.6448845e+2, -1101310.1, -1315769.0, 82053.75, -0.16752851, -0.2206499, -1073517.4, 254468.84, 0.0000016011192, 10.001926, 9.999101 
2.4504046e+2, 1.7448634e+2, -1089629.1, -1261403.3, 109309.586, 0.024254572, -0.36421013, -1036501.2, 193501.64, 0.0000000006420841, 10.001337, 9.999088 
2.4503545e+2, 1.844855e+2, -1035992.94, -1150819.3, 113505.21, 0.0891882, -0.3680836, -966206.6, 165803.66, 0.0, 10.000891, 9.999383 
2.4502863e+2, 1.9448611e+2, -991908.2, -1081511.0, 71109.25, -0.019104019, -0.26875657, -952663.8, 81343.664, 0.0, 10.000535, 9.999356 
2.450232e+2, 2.0448598e+2, -927368.5, -962688.6, 91864.08, -0.018799938, -0.22954875, -851482.4, 84526.62, 0.0, 10.000144, 9.999693 
2.4501972e+2, 2.1448489e+2, -911066.0, -903119.94, 95065.96, 0.13129409, -0.33132613, -811944.0, 26072.072, 0.0, 9.999579, 9.999701 
2.4501511e+2, 2.244841e+2, -891235.5, -872089.25, 87289.21, 0.19391192, -0.36267647, -793849.75, -53826.65, 0.0, 9.99917, 9.9994335 
2.4500921e+2, 2.3448361e+2, -833350.6, -795757.94, 71967.125, 0.15031, -0.3752397, -740173.0, -98141.93, 0.0, 9.998906, 9.999413 
2.4500355e+2, 2.4448346e+2, -715665.56, -682669.8, 52640.113, 0.15992914, -0.3310847, -644002.8, -99968.57, 0.0, 9.999008, 9.999473 
2.4499828e+2, 2.5448367e+2, -534475.2, -547989.94, 45748.07, 0.24888031, -0.28034562, -494988.1, -48955.906, 0.0, 9.99959, 9.999446 
2.4499238e+2, 2.6448327e+2, -416215.44, -450394.1, 62518.277, 0.2521319, -0.2578533, -368492.88, -20456.338, 0.0, 9.9997835, 9.999342 
2.4498564e+2, 2.7448198e+2, -359077.34, -377928.4, 42102.41, 0.15280885, -0.33940503, -325358.3, -75308.66, 0.0, 9.999528, 9.999291 
2.4498008e+2, 2.8448156e+2, -286033.28, -256818.52, 106732.68, 0.09669153, -0.32254186, -163698.28, -11645.108, 0.00000009803459, 9.999201, 9.999614 
2.449761e+2, 2.9448208e+2, -254897.77, -198987.0, 113933.84, 0.12326534, -0.25805283, -109629.016, -55583.574, 0.0000023443192, 9.998769, 9.999546 
2.449695e+2, 3.0448154e+2, -281459.53, -275530.75, -97112.77, 0.21918035, -0.22406486, -181337.14, -181337.14, 0.000014050109, 9.998659, 9.998737 
2.4495783e+2, 3.1447953e+2, -218613.06, -228918.31, 54358.62, 0.15822774, -0.32423365, -169163.4, -169163.4, 0.000047419504, 9.998989, 9.99889 
2.5507247e+2, 1.24501415e+2, -1458581.0, -1817854.5, -17190.814, -0.10735156, -0.19877706, -1457760.3, 262096.3, 0.000622871, 10.002686, 9.997989 
2.5506717e+2, 1.3449898e+2, -1413648.3, -1776975.9, 79275.08, -0.029510632, -0.22652686, -1397104.4, 224780.58, 0.00031436078, 10.002503, 9.997684 
2.5506082e+2, 1.4449641e+2, -1246705.0, -1492865.9, 24490.363, -0.037830222, -0.3133681, -1244292.1, 279619.9, 0.00010539114, 10.002276, 9.999065 
2.550529e+2, 1.5449654e+2, -1163016.1, -1404290.8, 25092.955, -0.15339065, -0.23565502, -1160434.0, 265475.56, 0.000019009012, 10.002201, 9.999035 
2.5504598e+2, 1.6449589e+2, -1049730.4, -1193896.9, 53512.668, -0.19505367, -0.2446427, -1032038.4, 295872.63, 0.0000013062046, 10.001871, 9.99996 
2.5504065e+2, 1.7449415e+2, -1027846.44, -1129227.6, 96935.97, -0.11553274, -0.44264597, -969147.3, 260771.19, 0.000000000635992, 10.001327, 9.999996 
2.5503534e+2, 1.8449302e+2, -1101939.4, -1276909.0, 92513.445, -0.031177897, -0.4800163, -1062096.5, 69831.38, 0.0, 10.000841, 9.998543 
2.5502998e+2, 1.9449258e+2, -1060145.4, -1214300.0, 65646.805, 0.039734934, -0.39658302, -1035978.3, -2037.5504, 0.0, 10.000494, 9.998465 
2.5502428e+2, 2.044922e+2, -930009.3, -944245.6, 64199.53, 0.0588247, -0.34466422, -872534.5, 63412.863, 0.0, 10.000042, 9.999867 
2.5501832e+2, 2.1449175e+2, -903119.94, -872080.6, 82245.79, 0.014445393, -0.4052807, -803903.0, 34044.48, 0.0, 9.999515, 9.999944 
2.5501323e+2, 2.2449172e+2, -914508.06, -903297.9, 68573.61, 0.06953711, -0.36685756, -840100.7, -100152.39, 0.0, 9.999096, 9.999257 
2.5500914e+2, 2.3449203e+2, -859869.94, -831368.06, 70838.51, 0.23637621, -0.28044006, -773361.25, -131410.27, 0.0, 9.998818, 9.999212 
2.550038e+2, 2.4449205e+2, -720254.9, -679858.44, 65196.66, 0.2669825, -0.21228386, -631802.9, -87848.53, 0.0, 9.998957, 9.999516 
2.5499684e+2, 2.544915e+2, -543649.2, -547115.9, 74152.695, 0.1253913, -0.2404942, -471209.56, -25249.363, 0.0, 9.9995, 9.9994955 
2.5499064e+2, 2.64491e+2, -447774.63, -504317.94, 47034.49, 0.081607305, -0.21350355, -421168.88, -73202.66, 0.0, 9.999736, 9.998995 
2.5498542e+2, 2.7449048e+2, -394412.03, -436625.03, 42054.094, 0.15730049, -0.18509391, -368465.03, -118492.15, 0.0, 9.999456, 9.998927 
2.549803e+2, 2.8448987e+2, -261598.02, -189709.27, 81508.31, 0.17709781, -0.18995988, -136571.64, 15405.473, 0.00000013920514, 9.999141, 10.000097 
2.549751e+2, 2.9448894e+2, -232533.75, -122920.51, 102947.91, 0.1270424, -0.32839295, -61099.35, -7118.5254, 0.0000022917138, 9.99865, 10.00012 
2.5496775e+2, 3.0448854e+2, -241136.69, -186056.89, -92281.266, 0.15951888, -0.33793324, -117293.734, -117293.734, 0.000012885881, 9.998634, 9.999365 
2.5495726e+2, 3.1448942e+2, -156428.45, -88990.32, 107266.64, 0.15537791, -0.2012258, -10267.81, -10267.81, 0.000044516015, 9.99894, 9.999881 
2.6507458e+2, 1.2450843e+2, -1513841.8, -1828759.6, -114318.39, -0.13117744, -0.20839375, -1476719.0, 243069.2, 0.0005136847, 10.00222, 9.998134 
2.6506987e+2, 1.3450661e+2, -1407284.5, -1731783.3, 36484.957, 0.008795859, -0.22057076, -1403232.9, 218576.45, 0.0002486243, 10.0023365, 9.99808 
2.65064e+2, 1.4450403e+2, -1294932.0, -1521199.8, 45389.93, 0.07280304, -0.32765314, -1286166.3, 237669.84, 0.00007773356, 10.001983, 9.999009 
2.6505545e+2, 1.5450391e+2, -1264173.5, -1459598.8, 30582.934, -0.07994713, -0.26734358, -1259499.3, 166337.53, 0.000013419433, 10.001544, 9.99897 
2.6504788e+2, 1.645033e+2, -1141380.5, -1232024.5, 44853.5, -0.15047857, -0.26958275, -1122937.9, 204900.34, 0.0000010267595, 10.0012045, 10.000027 
2.650418e+2, 1.7450206e+2, -1093818.0, -1151170.3, 9252.262, -0.09919269, -0.42578378, -1092362.4, 137479.53, 0.0000000012219834, 10.00083, 10.000084 
2.65036e+2, 1.8450114e+2, -1156437.3, -1297667.4, 20788.879, -0.026236977, -0.4506317, -1153440.6, -21591.1, 0.0, 10.0004425, 9.998594 
2.6503038e+2, 1.9450055e+2, -1142228.5, -1251178.5, 47405.71, 0.067645654, -0.38398, -1124489.8, -90626.5, 0.0, 9.999916, 9.998494 
2.6502454e+2, 2.0450011e+2, -949984.7, -974558.0, 105875.055, 0.08704207, -0.3309445, -855685.75, 80185.28, 0.0, 9.999998, 9.99968 
2.650184e+2, 2.1449971e+2, -747781.94, -822599.7, 73875.56, 0.017037375, -0.3654058, -702383.6, 135489.13, 0.0, 10.000693, 9.999716 
2.6501292e+2, 2.2449967e+2, -682118.0, -784486.7, 38676.08, 0.05497714, -0.31738058, -669148.8, 70725.16, 0.0, 10.000657, 9.999322 
2.650083e+2, 2.3450007e+2, -728650.0, -763395.56, 40862.64, 0.22897819, -0.23148899, -701620.44, -59745.7, 0.0, 9.999694, 9.999262 
2.6500285e+2, 2.4450004e+2, -652614.9, -658107.56, 102482.945, 0.25339252, -0.16134664, -552841.5, -8963.384, 0.0, 9.99948, 9.999408 
2.6499635e+2, 2.544994e+2, -444238.47, -506762.5, 89021.58, 0.097082905, -0.18867818, -381149.25, 64736.727, 0.0, 10.000233, 9.999411 
2.6499042e+2, 2.644988e+2, -356811.8, -457849.44, 43321.76, 0.058140777, -0.16779387, -340780.47, 7112.687, 0.0, 10.000342, 9.999028 
2.649852e+2, 2.7449834e+2, -357351.4, -410112.2, 48692.938, 0.18280661, -0.13631257, -328351.94, -78453.53, 0.0, 9.999683, 9.998999 
2.6497996e+2, 2.8449774e+2, -266618.03, -211400.83, 100635.76, 0.23378348, -0.14001065, -134655.27, 17247.777, 0.00000017298198, 9.999181, 9.999928 
2.6497445e+2, 2.9449648e+2, -209889.95, -123011.05, 52990.082, 0.1934135, -0.28910342, -97930.91, -44020.35, 0.000002277503, 9.99884, 10.000031 
2.649664e+2, 3.0449617e+2, -178979.61, -149449.95, -132557.19, 0.15262781, -0.2978225, -30837.84, -30837.84, 0.000011802607, 9.999013, 9.999452 
2.6495686e+2, 3.144974e+2, -43626.445, -3451.8674, 12326.024, 0.19946764, -0.122953765, 28.407347, 28.407347, 0.000041814666, 9.9995575, 10.000185 
2.7507797e+2, 1.2451255e+2, -1425643.3, -1653497.6, -141222.66, -0.06791576, -0.35903132, -1358122.8, 361629.2, 0.00042107303, 10.002245, 9.999328 
2.750723e+2, 1.345142e+2, -1292400.6, -1501935.5, 40342.344, -0.0067892405, -0.17959979, -1284901.8, 336832.34, 0.00019522583, 10.00237, 9.999642 
2.7506623e+2, 1.4451289e+2, -1293136.5, -1515456.4, 15122.29, 0.06915295, -0.24178447, -1292112.5, 231633.67, 0.000056360343, 10.001979, 9.999047 
2.7505738e+2, 1.545116e+2, -1267166.5, -1463829.3, 23968.734, -0.06664878, -0.29416847, -1264287.4, 161472.2, 0.000009372096, 10.001544, 9.998939 
2.7504975e+2, 1.6451068e+2, -1188988.0, -1328564.4, 22705.94, -0.10863594, -0.29738498, -1185387.1, 142381.25, 0.0000008660051, 10.001194, 9.999366 
2.7504367e+2, 1.7451003e+2, -1144162.0, -1256862.8, 3029.93, -0.021264823, -0.32434675, -1144080.6, 85692.79, 0.000000004874734, 10.000834, 9.999354 
2.7503705e+2, 1.8450977e+2, -1104983.6, -1175072.1, -6858.6377, 0.017130416, -0.28513208, -1104318.8, 27457.064, 0.0, 10.00038, 9.999464 
2.7502963e+2, 1.9451003e+2, -1077658.9, -1108690.6, 36848.39, -0.02218956, -0.23306844, -1053193.0, -19418.072, 0.0, 9.999886, 9.999483 
2.7502373e+2, 2.0450978e+2, -1002818.94, -1067393.4, 121962.59, -0.010706606, -0.18082055, -908942.25, 26836.898, 0.0, 9.999927, 9.999079 
2.7501965e+2, 2.1450871e+2, -809013.94, -925857.44, 108868.086, 0.053885467, -0.21651588, -743882.6, 93909.44, 0.0, 10.000591, 9.999056 
2.7501398e+2, 2.2450796e+2, -684377.3, -760642.6, -1987.5435, 0.077045396, -0.21699089, -684325.56, 55474.88, 0.0, 10.000537, 9.999544 
2.750063e+2, 2.3450755e+2, -724328.1, -729630.75, 10655.018, 0.044012807, -0.23613846, -715999.5, -74195.87, 0.0, 9.999588, 9.999544 
2.750004e+2, 2.4450734e+2, -677157.25, -694566.6, 119413.07, 0.043364767, -0.18974519, -566132.0, -22325.406, 0.0, 9.999419, 9.999186 
2.7499655e+2, 2.5450724e+2, -473645.2, -552719.5, 125289.34, 0.071364835, -0.14084737, -381802.72, 64008.137, 0.0, 10.000161, 9.999133 
2.749914e+2, 2.645066e+2, -337229.53, -404190.28, 10046.812, 0.103893906, -0.12424918, -335754.6, 12063.39, 0.0, 10.000289, 9.999421 
2.7498466e+2, 2.7450544e+2, -340053.47, -357776.3, 31902.244, 0.14131913, -0.20764613, -315804.8, -65976.47, 0.00000000009324417, 9.99961, 9.999395 
2.7497888e+2, 2.8450486e+2, -326456.25, -325297.63, 78549.52, 0.18646409, -0.19036408, -247325.28, -95491.38, 0.00000023612336, 9.99914, 9.999163 
2.7497378e+2, 2.945047e+2, -271838.6, -238147.5, 49688.848, 0.21453999, -0.14970005, -202526.36, -148690.05, 0.0000024951785, 9.998778, 9.9992695 
2.7496502e+2, 3.0450442e+2, -207139.47, -197360.75, -120878.266, 0.09806357, -0.098865606, -81273.0, -81273.0, 0.000011675634, 9.998981, 9.999128 
2.7495593e+2, 3.1450367e+2, -93289.93, -75019.69, 52292.008, 0.10787643, -0.08985791, -31070.871, -31070.871, 0.000040361934, 9.999429, 9.999751 
2.8508115e+2, 1.24519914e+2, -1466134.9, -1634195.4, 45303.92, 0.0565352, -0.4023279, -1454700.4, 264978.44, 0.00034660724, 10.001812, 9.999661 
2.8507406e+2, 1.3452196e+2, -1367310.3, -1461665.5, 116911.36, -0.017905008, -0.24747123, -1288416.5, 333238.8, 0.00015383559, 10.001546, 10.000303 
2.8506786e+2, 1.4452131e+2, -1374917.8, -1534974.8, 81596.69, 0.07909924, -0.2864793, -1340654.6, 183005.48, 0.00004093297, 10.00133, 9.9992285 
2.8505942e+2, 1.5452045e+2, -1281798.8, -1454141.4, 85705.305, 0.00031212342, -0.3117896, -1246434.5, 179235.4, 0.0000066741927, 10.001359, 9.999101 
2.8505158e+2, 1.6451965e+2, -1224009.1, -1417646.8, 105985.78, -0.042807408, -0.2778379, -1177277.0, 150403.06, 0.00000074756446, 10.001275, 9.998717 
2.8504464e+2, 1.7451876e+2, -1156723.5, -1344474.5, 67939.62, -0.014245226, -0.25530806, -1134718.0, 94974.85, 0.000000006090155, 10.001097, 9.998636 
2.850377e+2, 1.8451835e+2, -979028.06, -1071417.5, 62789.457, 0.015031778, -0.21277858, -947271.1, 184426.69, 0.0, 10.001063, 9.999844 
2.8503063e+2, 1.945185e+2, -869256.94, -962542.44, 47264.008, 0.032971267, -0.20990272, -849496.1, 184197.17, 0.0, 10.001119, 9.999895 
2.8502473e+2, 2.0451824e+2, -890892.56, -1054945.6, 138356.19, 0.0519557, -0.16518326, -812075.1, 123621.38, 0.0, 10.0008745, 9.998701 
2.8502014e+2, 2.1451731e+2, -902722.5, -1019058.7, 126620.19, 0.07168689, -0.14803788, -821548.6, 16162.149, 0.0, 10.00016, 9.99862 
2.8501418e+2, 2.2451621e+2, -766737.25, -828163.56, 23613.15, 0.0723119, -0.14538589, -758709.25, -18986.365, 0.0, 10.000097, 9.9992895 
2.8500652e+2, 2.3451494e+2, -566335.94, -680315.3, -17954.896, 0.053934846, -0.2272351, -563574.44, 78158.58, 0.0, 10.000791, 9.999303 
2.850005e+2, 2.4451423e+2, -509855.66, -626993.0, 88707.516, 0.05675052, -0.21371992, -462126.1, 81614.04, 0.0, 10.000613, 9.999076 
2.8499645e+2, 2.5451422e+2, -591195.3, -620543.44, 87505.29, 0.09047691, -0.1456442, -517142.25, -71398.664, 0.0, 9.999406, 9.999028 
2.849911e+2, 2.6451382e+2, -518270.56, -461911.88, -7000.2407, 0.1186911, -0.11419037, -461055.4, -113306.94, 0.0, 9.998931, 9.999669 
2.8498426e+2, 2.7451283e+2, -369004.3, -339202.97, -13573.775, 0.16315746, -0.20622912, -333947.3, -84190.836, 0.0000000018932573, 9.999273, 9.999679 
2.8497815e+2, 2.8451222e+2, -303688.72, -345696.25, 66571.58, 0.19209985, -0.1945155, -254886.08, -103123.09, 0.00000028816427, 9.999424, 9.998897 
2.8497255e+2, 2.9451212e+2, -189171.6, -225477.78, 63128.418, 0.18389459, -0.120144166, -141638.06, -87870.65, 0.0000027347362, 9.999468, 9.999026 
2.8496316e+2, 3.0451214e+2, -141471.95, -176793.6, -60153.18, -0.001644162, -0.02340593, -96440.59, -96440.59, 0.000012525966, 9.999463, 9.999035 
2.84955e+2, 3.1451112e+2, -190931.55, -114881.83, 87343.28, 0.1184155, -0.03322232, -57645.26, -57645.26, 0.000040482082, 9.998725, 9.999807 
2.9508337e+2, 1.245306e+2, -1493478.6, -1711153.9, 19868.768, 0.03900694, -0.33153337, -1491680.0, 227888.22, 0.00028487924, 10.001889, 9.999099 
2.9507488e+2, 1.345299e+2, -1384347.4, -1505623.1, 108373.47, -0.1155252, -0.42200214, -1320800.9, 300771.94, 0.000121053716, 10.001587, 9.999979 
2.9506886e+2, 1.4452924e+2, -1346018.3, -1486019.3, 66200.03, 0.013072038, -0.4637372, -1319673.0, 203905.61, 0.000029834508, 10.001366, 9.999554 
2.950612e+2, 1.5453038e+2, -1256644.8, -1404752.9, 91588.66, 0.018154252, -0.3222811, -1212917.3, 212650.92, 0.000004731658, 10.0013685, 9.999435 
2.9505306e+2, 1.6453025e+2, -1275003.1, -1517417.0, 91835.305, -0.038381677, -0.20706448, -1244141.5, 83432.016, 0.00000054097734, 10.001252, 9.998041 
2.9504448e+2, 1.745284e+2, -1204725.5, -1441786.0, 73049.484, -0.16256484, -0.21150614, -1184023.4, 45575.707, 0.0000000012704189, 10.001096, 9.997963 
2.9503772e+2, 1.84527e+2, -994243.56, -1096473.0, 56566.96, -0.11243187, -0.22838226, -969118.3, 162496.39, 0.0, 10.001029, 9.999693 
2.9503304e+2, 1.9452597e+2, -885050.94, -987879.6, 58391.332, 0.14119558, -0.3284153, -858664.3, 174954.9, 0.0, 10.001085, 9.999738 
2.9502714e+2, 2.0452543e+2, -916562.1, -1088482.9, 106054.95, 0.1892469, -0.29429, -866005.7, 69618.29, 0.0, 10.00079, 9.99851 
2.9501957e+2, 2.1452537e+2, -929493.1, -1050111.5, 109490.99, -0.023585184, -0.16679087, -864800.4, -27170.834, 0.0, 10.000058, 9.998452 
2.950133e+2, 2.2452442e+2, -833925.56, -940148.25, 38897.836, -0.040729083, -0.10963734, -821204.9, -81563.28, 0.0, 9.99998, 9.998576 
2.9500875e+2, 2.3452227e+2, -633558.94, -795015.75, 17792.037, 0.18052231, -0.20491932, -631621.56, 10040.796, 0.0, 10.000688, 9.998563 
2.9500303e+2, 2.4452086e+2, -516969.38, -628744.6, 38571.1, 0.22677459, -0.22298963, -504951.5, 38725.434, 0.0, 10.000552, 9.9991 
2.9499578e+2, 2.5452033e+2, -596266.6, -616939.3, 49848.42, 0.06227234, -0.20796247, -555694.2, -110009.7, 0.0, 9.999339, 9.999093 
2.9498923e+2, 2.6452026e+2, -514419.25, -446372.6, -4015.1533, 0.019640848, -0.15460697, -446136.5, -98450.22, 0.0, 9.998894, 9.999796 
2.949836e+2, 2.7452052e+2, -369297.06, -324659.25, 4549.464, 0.14360167, -0.13667046, -324200.28, -74516.914, 0.0000000016821552, 9.999204, 9.999813 
2.949775e+2, 2.8451994e+2, -290593.63, -307862.88, 57247.24, 0.16083503, -0.1415366, -241333.48, -89643.77, 0.00000022409213, 9.999381, 9.999177 
2.9497042e+2, 2.9451865e+2, -179259.22, -193935.1, 80526.7, -0.0009865692, -0.20915718, -105736.805, -52032.613, 0.0000026534976, 9.999416, 9.999271 
2.949605e+2, 3.045192e+2, -135681.89, -155952.81, -86943.84, -0.23626494, -0.07941345, -58284.734, -58284.734, 0.00001292508, 9.999426, 9.999195 
2.9495332e+2, 3.145193e+2, -156424.73, -35672.156, 65705.13, 0.025155092, 0.0010893375, -6815.825, -6815.825, 0.00004085486, 9.998684, 10.00037 
3.0508488e+2, 1.2454035e+2, -1542546.9, -1780306.1, 29431.346, 0.017749632, -0.32774258, -1538957.8, 180513.31, 0.00023189351, 10.001757, 9.9987 
3.050767e+2, 1.3453914e+2, -1423113.5, -1560892.4, 63284.297, -0.08055756, -0.4342034, -1398458.0, 223024.8, 0.000094942065, 10.001458, 9.99968 
3.050709e+2, 1.4453873e+2, -1341381.9, -1465858.9, 57467.76, 0.08743727, -0.4416265, -1318908.1, 204578.38, 0.000021738364, 10.001352, 9.999682 
3.0506277e+2, 1.545397e+2, -1177354.9, -1354454.4, 42748.793, 0.023077589, -0.32813686, -1167576.0, 257900.4, 0.0000030875526, 10.001873, 9.999531 
3.0505458e+2, 1.6453946e+2, -1176134.9, -1466319.6, 54520.402, -0.039996132, -0.23141341, -1166229.6, 161252.25, 0.0000002653173, 10.001912, 9.99807 
3.0504623e+2, 1.7453763e+2, -1171995.8, -1420710.6, 70717.6, -0.1025736, -0.23755512, -1153294.6, 76212.25, 0.0, 10.001301, 9.998004 
3.0503947e+2, 1.8453597e+2, -1019813.25, -1203832.1, 97524.12, -0.04553183, -0.23986162, -977745.5, 153780.64, 0.0, 10.001265, 9.998844 
3.0503458e+2, 1.9453438e+2, -838203.06, -1069157.1, 27832.885, 0.1511196, -0.30693793, -834896.25, 198643.61, 0.0, 10.001844, 9.99882 
3.050283e+2, 2.0453335e+2, -748140.7, -983162.9, 41060.77, 0.17633955, -0.28263173, -741173.5, 194375.92, 0.0, 10.00184, 9.998733 
3.0502027e+2, 2.1453299e+2, -759356.44, -941514.06, 57979.81, -0.005302544, -0.21301031, -742467.6, 95086.66, 0.0, 10.001099, 9.998705 
3.0501398e+2, 2.2453195e+2, -728727.94, -904348.0, 84138.52, -0.0057808617, -0.17190193, -694924.3, 44641.453, 0.0, 10.000763, 9.998447 
3.050098e+2, 2.3453e+2, -614248.44, -801562.06, 93129.58, 0.21584426, -0.23298666, -575826.8, 65759.195, 0.0, 10.000893, 9.998417 
3.050037e+2, 2.445287e+2, -522586.0, -619602.56, 103660.555, 0.24970844, -0.23667057, -456645.34, 86954.45, 0.0, 10.000476, 9.999193 
3.0499506e+2, 2.5452816e+2, -564002.1, -583669.56, 104126.96, 0.05269849, -0.23437266, -469245.6, -23639.518, 0.0, 9.9995, 9.999234 
3.04988e+2, 2.6452804e+2, -481140.03, -462154.97, 112640.13, -0.006002655, -0.17903669, -358608.1, -10999.689, 0.0, 9.999252, 9.99952 
3.0498293e+2, 2.7452824e+2, -282617.53, -318645.0, 76004.85, 0.1283156, -0.13770977, -222520.88, 27087.506, 0.00000000014964384, 9.999947, 9.999503 
3.0497673e+2, 2.8452778e+2, -221229.03, -229737.02, 90264.42, 0.1417095, -0.13478969, -135118.42, 16495.895, 0.00000013461268, 9.999678, 9.999561 
3.049688e+2, 2.9452693e+2, -336436.97, -225817.27, 105887.07, -0.035465717, -0.19870512, -161664.78, -108041.74, 0.0000024184974, 9.99817, 9.999641 
3.049587e+2, 3.0452722e+2, -321655.75, -238261.27, -4133.041, -0.28685656, -0.11510482, -238056.92, -238056.92, 0.00001259153, 9.998119, 9.999267 
3.049528e+2, 3.1452686e+2, -12545.993, 81429.83, 89245.805, 0.07564611, -0.08446497, 135301.61, 135301.61, 0.000039631555, 9.999465, 10.0008135 
3.150852e+2, 1.245493e+2, -1543927.3, -1797576.5, 9693.281, -0.17028725, -0.36687747, -1543557.4, 175828.69, 0.00018871382, 10.001824, 9.998545 
3.15079e+2, 1.3454989e+2, -1441636.4, -1590766.8, 52757.77, -0.014940282, -0.27272406, -1424859.6, 196523.23, 0.00007509751, 10.001445, 9.999471 
3.1507364e+2, 1.4455e+2, -1350572.5, -1494345.9, 63471.184, 0.19997902, -0.20664516, -1326561.9, 196819.77, 0.00001598166, 10.001379, 9.999477 
3.150639e+2, 1.5454844e+2, -1188068.5, -1382797.8, 72046.1, -0.077610575, -0.33091974, -1164311.3, 261082.95, 0.00000170519, 10.001897, 9.999323 
3.1505588e+2, 1.6454726e+2, -1128321.8, -1367571.3, 20298.676, -0.124783866, -0.3462521, -1126611.9, 200793.42, 0.000000057148895, 10.001906, 9.998755 
3.150496e+2, 1.745464e+2, -1121393.1, -1314911.0, 51925.426, 0.0805535, -0.32915506, -1108340.6, 121075.63, 0.0, 10.001297, 9.9987335 
3.1504261e+2, 1.8454531e+2, -1130888.5, -1430629.5, 108075.54, 0.124582246, -0.24029416, -1095984.9, 35447.16, 0.0, 10.001242, 9.997301 
3.1503484e+2, 1.9454376e+2, -957327.7, -1305240.6, 58336.957, -0.026716622, -0.1408593, -947806.5, 85648.13, 0.0, 10.001795, 9.997224 
3.150279e+2, 2.0454212e+2, -722646.3, -904021.2, 6635.0693, -0.06224946, -0.12464269, -722403.94, 213068.02, 0.0, 10.001734, 9.999324 
3.1502196e+2, 2.1454021e+2, -728081.8, -849664.6, 39018.848, 0.03920326, -0.27799037, -716637.06, 120847.03, 0.0, 10.000989, 9.999386 
3.1501585e+2, 2.2453888e+2, -705746.9, -838392.0, 79553.46, 0.08734238, -0.32270944, -668496.1, 70998.266, 0.0, 10.000682, 9.998941 
3.150095e+2, 2.3453814e+2, -592181.8, -736883.25, 106157.01, 0.07241347, -0.31028232, -536064.9, 105439.01, 0.0, 10.00081, 9.998904 
3.1500226e+2, 2.445377e+2, -514809.1, -594447.0, 59161.44, 0.03732787, -0.26346454, -483314.5, 60194.664, 0.0, 10.000437, 9.999383 
3.1499395e+2, 2.545377e+2, -564539.1, -563468.44, 71814.01, -0.026416877, -0.22713159, -492187.78, -46679.11, 0.0, 9.999407, 9.999418 
3.1498715e+2, 2.645373e+2, -531741.4, -557486.56, 128446.234, -0.035023585, -0.18093197, -415524.3, -68009.91, 0.0, 9.99921, 9.998888 
3.149821e+2, 2.7453604e+2, -337959.84, -419265.0, 111827.77, 0.02870178, -0.21298051, -259624.69, -10093.344, 0.00000000001473293, 9.999883, 9.998844 
3.1497568e+2, 2.845357e+2, -196847.14, -167399.78, 28774.314, 0.04811487, -0.18413575, -149800.9, 1736.1649, 0.000000108201135, 9.99963, 10.000011 
3.149673e+2, 2.9453686e+2, -316754.88, -168872.56, 58808.758, -0.028205829, -0.10000291, -148337.45, -94812.28, 0.0000023186144, 9.998094, 10.000072 
3.1495747e+2, 3.0453613e+2, -325727.13, -238902.28, 39996.492, -0.2411458, -0.13787687, -223286.25, -223286.25, 0.000012381474, 9.998085, 9.99928 
3.149529e+2, 3.145337e+2, 13878.146, 145065.19, 143874.2, 0.0940584, -0.3210312, 237592.83, 237592.83, 0.000038035574, 9.999417, 10.001278 
3.250874e+2, 1.2455845e+2, -1604149.4, -1796028.6, -2766.7327, -0.0983857, -0.31572926, -1604109.5, 115191.07, 0.00015750076, 10.001264, 9.998824 
3.2508034e+2, 1.345591e+2, -1429437.4, -1587773.0, 3475.0874, -0.022353815, -0.21805082, -1429361.1, 191934.58, 0.00006189271, 10.001508, 9.999474 
3.2507476e+2, 1.4455935e+2, -1376501.4, -1518902.0, 53269.496, 0.18973805, -0.13330188, -1358779.6, 164512.58, 0.000012633238, 10.001239, 9.999383 
3.2506573e+2, 1.5455674e+2, -1350239.9, -1469412.3, 52681.324, -0.025561063, -0.35406816, -1330290.9, 95023.12, 0.0000008198343, 10.000809, 9.999258 
3.2505807e+2, 1.6455531e+2, -1221542.5, -1397322.3, 18667.252, -0.053609546, -0.39962426, -1219582.0, 107744.805, 0.000000004124255, 10.001217, 9.998876 
3.2505178e+2, 1.7455518e+2, -925942.44, -1211925.8, -12225.904, 0.11298078, -0.3205298, -925420.7, 303909.66, 0.0, 10.002596, 9.9988165 
3.2504442e+2, 1.8455435e+2, -906154.6, -1324268.5, 62355.28, 0.11064997, -0.20529294, -897053.4, 234289.72, 0.0, 10.002802, 9.99727 
3.2503587e+2, 1.945527e+2, -994636.9, -1324726.5, 108350.555, -0.087679215, -0.11565388, -962249.1, 71118.03, 0.0, 10.001559, 9.997193 
3.2502866e+2, 2.0455092e+2, -830724.2, -962807.25, 113459.59, -0.11950869, -0.1090432, -765485.25, 169900.7, 0.0, 10.001011, 9.999274 
3.2502314e+2, 2.1454892e+2, -703493.1, -842475.7, 76574.19, 0.05171607, -0.2665126, -669579.2, 167820.03, 0.0, 10.001177, 9.999348 
3.2501674e+2, 2.2454773e+2, -680442.4, -815312.1, 86740.016, 0.10570104, -0.30122122, -638007.8, 101400.89, 0.0, 10.000808, 9.99904 
3.250093e+2, 2.3454736e+2, -724064.7, -788885.7, 69461.33, 0.02323049, -0.26105967, -679824.6, -38409.656, 0.0, 9.999849, 9.999011 
3.2500184e+2, 2.44547e+2, -612316.25, -644811.2, 31122.092, -0.012695763, -0.21092924, -593455.8, -50036.258, 0.0, 9.999772, 9.999363 
3.2499436e+2, 2.5454667e+2, -357116.7, -467756.88, 15758.836, 0.008233798, -0.20522375, -354915.9, 90506.08, 0.0, 10.000834, 9.999394 
3.2498744e+2, 2.6454598e+2, -323962.38, -476229.03, 80514.164, 0.0011428795, -0.17808062, -289285.88, 58144.477, 0.0, 10.0007305, 9.998709 
3.249811e+2, 2.7454454e+2, -440832.4, -488888.28, 83187.82, -0.024163557, -0.21203355, -378271.9, -128822.445, 0.00000000010851988, 9.999278, 9.998651 
3.2497424e+2, 2.8454435e+2, -321907.16, -239195.34, 14299.5625, -0.012070401, -0.15140545, -236792.95, -85338.92, 0.00000014604628, 9.998809, 9.999921 
3.2496652e+2, 2.9454604e+2, -132795.34, -90499.08, -16912.475, 0.026827246, -0.0040563946, -84568.16, -31130.854, 0.0000023415487, 9.999402, 9.999978 
3.2495707e+2, 3.0454448e+2, -113945.29, -111516.39, -1882.1504, -0.1484418, -0.13190289, -110490.89, -110490.89, 0.000012312151, 9.99945, 9.999485 
3.249525e+2, 3.14542e+2, -91494.94, 107629.25, 58834.96, 0.16053946, -0.35022894, 123713.875, 123713.875, 0.000036624067, 9.9986725, 10.00136 
3.3509073e+2, 1.245678e+2, -1558753.3, -1704476.5, -5509.1035, 0.058014728, -0.17333978, -1558545.3, 160669.05, 0.00013853858, 10.001286, 9.999438 
3.3508042e+2, 1.3456689e+2, -1416773.8, -1551065.1, 10571.798, -0.18543684, -0.25789958, -1415946.6, 205274.14, 0.000055370125, 10.001492, 9.999718 
3.3507413e+2, 1.4456688e+2, -1373891.4, -1512067.1, 22198.07, -0.025043271, -0.21283692, -1370412.9, 152804.73, 0.000011804474, 10.001229, 9.999436 
3.3506787e+2, 1.5456483e+2, -1340780.8, -1451381.3, 43990.75, 0.08569926, -0.3845814, -1325417.6, 99816.08, 0.00000057438905, 10.000818, 9.999377 
3.3506086e+2, 1.6456376e+2, -1256389.4, -1468466.8, 60059.742, 0.08081783, -0.37950534, -1240561.9, 86682.86, 0.00000000201948, 10.001209, 9.998395 
3.3505264e+2, 1.7456393e+2, -961911.5, -1285656.8, 49516.516, -0.08745607, -0.21734866, -954507.3, 274741.4, 0.0, 10.00259, 9.998316 
3.350447e+2, 1.8456315e+2, -819631.06, -1127108.3, 9697.869, -0.16402413, -0.13972612, -819325.5, 311933.63, 0.0, 10.002727, 9.998661 
3.3503732e+2, 1.9456108e+2, -899319.8, -1114119.4, 68353.516, -0.12099702, -0.23821491, -879413.25, 153865.13, 0.0, 10.001506, 9.998665 
3.350302e+2, 2.0455973e+2, -886275.94, -1060795.5, 107453.58, -0.07883389, -0.234616, -835114.1, 100177.914, 0.0, 10.000937, 9.998637 
3.3502343e+2, 2.1455908e+2, -769559.3, -953778.7, 90615.2, -0.049785126, -0.18413672, -732458.6, 104841.7, 0.0, 10.001067, 9.998636 
3.3501637e+2, 2.2455841e+2, -717653.06, -869457.2, 42710.75, -0.028797844, -0.113621034, -706461.3, 32848.02, 0.0, 10.000709, 9.998715 
3.350089e+2, 2.3455769e+2, -759350.7, -837082.9, 38901.074, -0.01714735, -0.08157094, -743227.06, -101907.83, 0.0, 9.999743, 9.99873 
3.3500206e+2, 2.4455665e+2, -630473.06, -674923.0, 60457.094, 0.01913304, -0.07519972, -588285.25, -44954.453, 0.0, 9.999735, 9.999176 
3.3499607e+2, 2.5455517e+2, -380670.78, -500223.1, 63093.977, 0.07538042, -0.16778271, -353532.94, 91812.4, 0.0, 10.000765, 9.999204 
3.3498868e+2, 2.6455417e+2, -314366.56, -449883.63, 21512.813, 0.035112675, -0.16986325, -311033.47, 36322.426, 0.0, 10.000702, 9.998904 
3.349796e+2, 2.745536e+2, -436773.28, -460115.34, 36340.406, -0.12366206, -0.1380807, -410275.75, -160912.28, 0.000000000044508567, 9.99919, 9.998889 
3.349721e+2, 2.8455368e+2, -364821.44, -323440.16, 25804.412, -0.12525165, -0.040302042, -311055.6, -159690.42, 0.00000018851506, 9.998778, 9.999361 
3.3496615e+2, 2.945546e+2, -183837.81, -188988.4, 14451.133, 0.0233731, 0.08821484, -171734.3, -118375.43, 0.0000023038672, 9.999357, 9.9993305 
3.3495715e+2, 3.0455214e+2, -99500.29, -72998.055, -35026.35, -0.10442911, -0.103578076, -48800.04, -48800.04, 0.000011796056, 9.999416, 9.9997635 
3.3495095e+2, 3.1455147e+2, -139431.05, 35137.863, 35821.64, 0.09472264, -0.17265709, 42202.58, 42202.58, 0.000034748333, 9.99855, 10.000926 
3.450927e+2, 1.2457653e+2, -1521040.6, -1687723.9, 6565.682, 0.12364679, -0.0679232, -1520782.5, 198349.81, 0.00012841672, 10.001568, 9.9994135 
3.4508172e+2, 1.3457397e+2, -1589164.3, -1686648.6, -90049.78, -0.14339148, -0.2764577, -1535511.3, 85643.79, 0.00005393956, 10.000518, 9.999271 
3.4507486e+2, 1.445735e+2, -1496449.4, -1549032.0, -43050.555, -0.019974018, -0.26188827, -1472296.8, 50859.207, 0.00001321429, 10.000304, 9.999621 
3.4506887e+2, 1.5457259e+2, -1254461.5, -1392596.0, -37061.39, 0.08384815, -0.33895865, -1245146.1, 180014.25, 0.00000089811203, 10.001337, 9.99953 
3.4506223e+2, 1.6457187e+2, -1189691.0, -1447543.6, 17231.457, 0.07822839, -0.30041096, -1188544.6, 138623.27, 0.0000000015154811, 10.001707, 9.998301 
3.4505442e+2, 1.7457151e+2, -1158968.0, -1387438.6, 20346.209, -0.09647517, -0.18159094, -1157170.3, 72007.66, 0.0, 10.001275, 9.998247 
3.4504664e+2, 1.8457061e+2, -1006758.0, -1147648.3, -49667.164, -0.16092376, -0.1426303, -991009.5, 140178.86, 0.0, 10.001138, 9.999288 
3.4503913e+2, 1.9456883e+2, -885668.94, -1036786.5, -65648.55, -0.07486227, -0.27787066, -861133.44, 172067.88, 0.0, 10.001285, 9.99931 
3.4503162e+2, 2.0456778e+2, -876805.8, -1068264.1, -17105.344, -0.032005005, -0.27234048, -875289.56, 59921.836, 0.0, 10.001047, 9.998534 
3.4502408e+2, 2.1456744e+2, -894014.5, -1032584.3, -8257.462, -0.047921587, -0.17627712, -893524.2, -56304.44, 0.0, 10.000281, 9.998477 
3.450167e+2, 2.2456697e+2, -749680.9, -848578.3, 18638.965, -0.041603915, -0.09554224, -746284.7, -7057.1885, 0.0, 10.000336, 9.999038 
3.4500954e+2, 2.3456626e+2, -499103.4, -675479.5, 45686.566, -0.0013910814, -0.09412217, -487971.8, 153263.08, 0.0, 10.001372, 9.999058 
3.4500286e+2, 2.4456531e+2, -420156.34, -630035.4, 89752.86, 0.04392206, -0.072759844, -387009.38, 156237.08, 0.0, 10.001435, 9.998662 
3.4499675e+2, 2.5456384e+2, -479691.0, -614041.25, 47975.598, 0.09206751, -0.1025063, -464318.22, -19053.121, 0.0, 10.000369, 9.998617 
3.449889e+2, 2.645629e+2, -380997.13, -431634.16, -1432.6606, 0.02723561, -0.088932015, -380956.63, -33680.76, 0.0, 10.0000305, 9.9993515 
3.4497908e+2, 2.7456248e+2, -198832.52, -291129.4, 17778.926, -0.15919732, -0.09105014, -195526.23, 53752.082, 0.0, 10.000588, 9.99938 
3.449716e+2, 2.8456226e+2, -186484.11, -272366.5, 40471.813, -0.1188504, -0.030651696, -170417.56, -19136.602, 0.00000016974016, 10.000176, 9.999031 
3.4496656e+2, 2.9456222e+2, -308063.34, -290316.97, 27650.035, 0.1653606, 0.04045895, -270151.25, -216866.44, 0.0000020169734, 9.9986925, 9.998957 
3.4495738e+2, 3.0455998e+2, -216896.11, -122977.96, 29694.406, 0.02633139, -0.11408919, -114377.05, -114377.05, 0.0000103175025, 9.998561, 9.99984 
3.4494942e+2, 3.1456074e+2, -6825.349, 34958.2, 43644.617, 0.040453333, -0.05836274, 62453.6, 62453.6, 0.00003196276, 9.999716, 10.0003605 
3.550928e+2, 1.24584734e+2, -1562702.0, -1789695.5, -34196.07, -0.081610575, 0.012039981, -1557662.4, 161390.98, 0.00012227354, 10.001622, 9.9986925 
3.5508385e+2, 1.3458042e+2, -1651490.1, -1825428.3, -123356.04, -0.0053671733, -0.2666874, -1587527.6, 33569.67, 0.00005490219, 10.000566, 9.998293 
3.550766e+2, 1.4457944e+2, -1477027.8, -1521424.6, -17198.816, 0.093250945, -0.264899, -1471144.8, 51960.29, 0.000015641235, 10.000352, 9.999793 
3.5506848e+2, 1.5458e+2, -1236523.4, -1365872.9, 10467.62, -0.115138896, -0.21022715, -1235681.8, 189411.75, 0.0000017221555, 10.00138, 9.999695 
3.5506198e+2, 1.6457957e+2, -1168195.1, -1398840.9, -7882.9927, -0.14132601, -0.16842572, -1167926.0, 159170.94, 0.000000007086625, 10.001687, 9.998643 
3.5505682e+2, 1.7457795e+2, -1134889.1, -1336016.9, 12849.139, -0.005736635, -0.21342924, -1134071.6, 95046.13, 0.0, 10.001267, 9.998604 
3.5504982e+2, 1.845768e+2, -1023488.0, -1169123.0, -50646.98, 0.025516411, -0.21361125, -1007606.56, 123523.96, 0.0, 10.0010805, 9.999168 
3.55041e+2, 1.9457605e+2, -901110.06, -1059164.4, -50797.625, -0.036922794, -0.23013434, -886192.06, 146942.88, 0.0, 10.001243, 9.999175 
3.5503262e+2, 2.045752e+2, -861532.56, -1018536.06, -52099.332, -0.052621126, -0.21626565, -845817.2, 89325.82, 0.0, 10.000967, 9.998916 
3.5502478e+2, 2.1457411e+2, -877264.4, -977288.3, -27928.705, -0.024499843, -0.2387014, -869994.5, -32838.023, 0.0, 10.000192, 9.998899 
3.550175e+2, 2.2457343e+2, -696817.7, -721892.25, 48670.617, -0.008039841, -0.24220061, -659095.5, 80066.96, 0.0, 10.000261, 9.999945 
3.5501102e+2, 2.3457316e+2, -447133.84, -549486.25, 92392.1, -0.0061481604, -0.2912477, -392691.38, 248469.6, 0.0, 10.001293, 9.999961 
3.550039e+2, 2.4457294e+2, -493963.13, -767629.3, 43994.08, -0.01286992, -0.19827116, -487064.6, 56101.91, 0.0, 10.00137, 9.997746 
3.5499606e+2, 2.545727e+2, -562667.94, -763420.5, 13532.833, -0.031029396, -0.011607824, -561759.75, -116578.06, 0.0, 10.000277, 9.997632 
3.5498783e+2, 2.645722e+2, -338738.28, -333524.44, 11104.942, -0.09966412, 0.065586194, -324724.53, 22465.734, 0.0, 9.999985, 10.000046 
3.5497925e+2, 2.745713e+2, -157319.47, -187902.28, 48310.137, -0.21841483, -0.0627401, -121938.43, 127254.305, 0.0, 10.000518, 10.00012 
3.5497242e+2, 2.8457016e+2, -203386.84, -301285.66, -20881.398, -0.071678266, -0.12068876, -199118.98, -47917.953, 0.00000011654808, 10.000151, 9.998843 
3.5496742e+2, 2.945688e+2, -332134.53, -322960.2, -17335.44, 0.35789365, -0.16118746, -309615.28, -256399.16, 0.0000016052002, 9.998621, 9.998765 
3.549575e+2, 3.0456793e+2, -218255.06, -123496.94, 66822.56, 0.16458808, -0.17258458, -88961.22, -88961.22, 0.000008325357, 9.998545, 9.999848 
3.5494724e+2, 3.145703e+2, -69900.93, -74680.35, 101152.164, -0.2010369, 0.048949093, 28889.75, 28889.75, 0.000028550077, 9.999628, 9.999651 
3.6509445e+2, 1.2459134e+2, -1738245.5, -1855314.5, 22300.479, -0.0034665589, -0.090463646, -1734141.4, -15153.647, 0.000118926524, 10.000335, 9.998865 
3.6508572e+2, 1.345887e+2, -1517512.0, -1761566.8, -43037.29, 0.088828966, -0.20141476, -1510145.1, 110871.66, 0.000056465244, 10.0014925, 9.998276 
3.6507776e+2, 1.4458768e+2, -1285931.0, -1474214.4, 109932.625, 0.10247288, -0.18566366, -1235339.0, 287687.25, 0.00001794202, 10.001863, 9.99939 
3.6506927e+2, 1.545872e+2, -1275816.6, -1428037.9, 73600.88, -0.16274466, -0.19355124, -1246050.3, 178975.72, 0.000002788093, 10.001298, 9.99931 
3.6506295e+2, 1.6458645e+2, -1261774.9, -1401198.4, 34925.97, -0.16625874, -0.17872031, -1253515.1, 73517.07, 0.00000008230677, 10.000866, 9.999023 
3.650584e+2, 1.7458539e+2, -1208707.3, -1324274.4, 38134.156, 0.065948986, -0.2090898, -1197258.3, 31787.684, 0.0, 10.000556, 9.999028 
3.6505142e+2, 1.8458463e+2, -1087116.0, -1194792.8, 22535.697, 0.10657078, -0.1937154, -1082589.8, 48464.72, 0.0, 10.000628, 9.999209 
3.6504194e+2, 1.9458404e+2, -921925.06, -1064985.6, 21096.732, -0.051797453, -0.19476055, -918878.9, 114179.74, 0.0, 10.001089, 9.999209 
3.6503333e+2, 2.045833e+2, -787113.56, -961258.1, 11026.508, -0.09680483, -0.18163887, -786418.2, 148647.53, 0.0, 10.001396, 9.9991 
3.6502564e+2, 2.1458222e+2, -675780.94, -858322.06, -1443.7866, -0.01765019, -0.22095618, -675769.5, 161307.88, 0.0, 10.001493, 9.999086 
3.6501834e+2, 2.245814e+2, -562931.8, -683095.9, 59872.39, 0.0001878723, -0.23723085, -538193.1, 200891.47, 0.0, 10.0012865, 9.99972 
3.650116e+2, 2.345808e+2, -554033.9, -626998.3, 4108.8535, -0.043686006, -0.29342127, -553803.25, 87284.37, 0.0, 10.000668, 9.999731 
3.6500424e+2, 2.4458061e+2, -595355.75, -749237.1, -43731.06, -0.061910458, -0.215073, -583796.3, -40704.21, 0.0, 10.000364, 9.998369 
3.6499617e+2, 2.545809e+2, -497555.53, -656385.6, 33338.707, -0.048188034, -0.04345145, -490841.5, -45742.285, 0.0, 10.000388, 9.99832 
3.649882e+2, 2.6458067e+2, -317405.97, -339483.78, 99730.695, -0.065151736, 0.030528003, -228105.1, 118999.42, 0.0, 10.000203, 9.9999 
3.6498052e+2, 2.7457964e+2, -275216.1, -264889.0, 49358.88, -0.10046903, -0.08666927, -220424.31, 28685.81, 0.0, 9.999797, 9.999937 
3.6497352e+2, 2.845785e+2, -203544.27, -299014.78, -39167.797, 0.029273957, -0.13979822, -189531.89, -38412.57, 0.000000055764154, 10.000122, 9.998878 
3.6496708e+2, 2.9457733e+2, 58497.96, -125743.01, -33430.09, 0.33834168, -0.17053913, 64376.223, 117507.77, 0.0000011855267, 10.001263, 9.998845 
3.64957e+2, 3.0457702e+2, 127554.58, 7363.1885, 61057.54, 0.14333144, -0.11442066, 153129.86, 153129.86, 0.0000067298934, 10.001098, 9.999513 
3.649474e+2, 3.1457773e+2, -167037.19, -176056.25, 33819.48, -0.11604321, -0.015336001, -137427.9, -137427.9, 0.000025648078, 9.999204, 9.999167 
3.750969e+2, 1.2459672e+2, -1653382.8, -1698129.1, 42891.023, 0.15771323, -0.3323891, -1627380.4, 91551.86, 0.0001191897, 10.000405, 9.999908 
3.7508708e+2, 1.3459887e+2, -1441287.5, -1618131.6, 6147.7437, 0.044741653, -0.069417626, -1441074.0, 179839.27, 0.00005856906, 10.001548, 9.999233 
3.75078e+2, 1.445981e+2, -1353658.8, -1608912.4, 79564.81, -0.088270366, -0.031941023, -1330888.9, 192032.0, 0.000020069963, 10.001842, 9.998473 
3.7507093e+2, 1.545941e+2, -1339753.3, -1567637.6, 62101.5, -0.15331222, -0.29240406, -1323928.6, 101029.625, 0.0000038584762, 10.0013275, 9.998338 
3.750648e+2, 1.6459255e+2, -1237822.0, -1347258.1, 14591.378, -0.090057015, -0.32838914, -1235909.9, 91063.52, 0.00000020238203, 10.000848, 9.9994 
3.7505886e+2, 1.745939e+2, -1179750.0, -1266424.1, 36306.637, 0.036264163, -0.1615237, -1166551.5, 62410.51, 0.0, 10.000559, 9.999427 
3.7505117e+2, 1.8459408e+2, -1078338.1, -1164089.4, 30725.428, -0.0016398886, -0.08196725, -1068465.6, 62495.176, 0.0, 10.000579, 9.999439 
3.7504175e+2, 1.9459277e+2, -916673.94, -1037582.44, 47563.4, -0.19997631, -0.17914724, -900206.2, 132766.64, 0.0, 10.001024, 9.999424 
3.7503347e+2, 2.0459199e+2, -803294.2, -980203.75, 6991.755, -0.23892699, -0.17550556, -803018.3, 131961.89, 0.0, 10.0013275, 9.999005 
3.7502638e+2, 2.1459174e+2, -695414.0, -878319.94, 9409.062, -0.11068265, -0.121427596, -694931.25, 142051.75, 0.0, 10.001404, 9.998992 
3.7501886e+2, 2.2459087e+2, -668199.44, -881658.06, 27919.184, -0.09103525, -0.07601701, -664608.2, 74385.74, 0.0, 10.001195, 9.998402 
3.750109e+2, 2.3458913e+2, -659360.25, -828668.1, -12040.397, -0.1963803, -0.111158274, -658508.3, -17492.768, 0.0, 10.0005865, 9.998386 
3.7500358e+2, 2.4458835e+2, -453894.44, -436354.44, -49781.06, -0.1803925, -0.12906961, -394576.75, 148446.58, 0.0, 10.000288, 10.000553 
3.7499684e+2, 2.545885e+2, -348122.4, -327237.13, 43696.45, -0.0396087, -0.19587348, -292752.84, 152263.94, 0.0, 10.000307, 10.00062 
3.7498984e+2, 2.645883e+2, -394723.6, -491695.66, 77610.33, 0.056763064, -0.19174765, -351698.66, -4680.1787, 0.0, 10.000169, 9.99887 
3.7498257e+2, 2.7458745e+2, -366085.2, -437427.06, 43276.31, 0.10358977, -0.17500353, -345673.56, -96642.18, 0.0, 9.999725, 9.998788 
3.749745e+2, 2.845873e+2, -187996.13, -255110.05, -5660.3203, 0.09467295, -0.08851733, -187522.08, -36486.277, 0.00000003400916, 10.000072, 9.999206 
3.7496525e+2, 2.9458788e+2, 74951.54, -77175.125, 19763.832, 0.0038896308, 0.023828456, 77477.266, 130507.2, 0.000000899484, 10.001197, 9.999215 
3.7495553e+2, 3.0458722e+2, 68681.38, -104261.45, -10112.83, -0.13156745, 0.06424743, 69270.73, 69270.73, 0.000005766145, 10.001057, 9.998766 
3.749494e+2, 3.1458274e+2, -204805.56, -227253.38, -7698.6133, 0.12128948, -0.27993834, -202419.0, -202419.0, 0.000023919054, 9.999092, 9.998867 
3.85098e+2, 1.2460379e+2, -1558991.1, -1641519.3, 75458.414, 0.20936976, -0.37768215, -1514251.1, 204611.48, 0.00012316402, 10.00102, 9.999996 
3.850884e+2, 1.3460651e+2, -1436256.9, -1601481.0, -55341.676, 0.029721467, -0.06897674, -1419433.3, 201404.81, 0.000061385945, 10.001517, 9.999371 
3.8507897e+2, 1.4460574e+2, -1387418.5, -1635115.4, -11766.179, -0.15622015, -0.033319496, -1386860.8, 135986.11, 0.000022093489, 10.001653, 9.998382 
3.8507313e+2, 1.5460232e+2, -1371886.3, -1593407.0, 4545.8438, -0.051196042, -0.22745766, -1371793.0, 53088.06, 0.000004863891, 10.0011635, 9.998234 
3.8506678e+2, 1.6460077e+2, -1224670.4, -1333757.5, 9361.287, 0.028225373, -0.2626167, -1223872.9, 103023.74, 0.00000029520132, 10.000887, 9.999485 
3.8505897e+2, 1.7460145e+2, -1136658.8, -1231998.3, -6475.7383, -0.018848501, -0.17269169, -1136220.9, 92668.49, 0.0, 10.000787, 9.999555 
3.8505086e+2, 1.8460165e+2, -1038140.2, -1135173.5, 6118.1284, -0.09646022, -0.10443052, -1037755.94, 93131.38, 0.0, 10.000801, 9.999538 
3.8504294e+2, 1.94601e+2, -928610.0, -1036386.25, -3446.445, -0.169311, -0.14666116, -928499.94, 104394.06, 0.0, 10.000891, 9.999505 
3.8503516e+2, 2.0460027e+2, -878787.9, -1018254.1, -40186.695, -0.17150983, -0.13934754, -868037.0, 66863.45, 0.0, 10.000814, 9.998993 
3.8502735e+2, 2.1459942e+2, -826007.3, -946746.0, -46516.35, -0.104252376, -0.14499864, -810164.94, 26742.738, 0.0, 10.000516, 9.998959 
3.8501942e+2, 2.2459845e+2, -786951.4, -945265.6, 33807.965, -0.111784205, -0.10267942, -780033.94, -41114.62, 0.0, 10.000418, 9.998333 
3.8501137e+2, 2.3459731e+2, -664476.44, -838353.9, 69670.49, -0.20197992, -0.07073153, -640004.56, 932.38715, 0.0, 10.000599, 9.998308 
3.85004e+2, 2.4459673e+2, -411650.44, -374000.2, 25157.791, -0.1628565, -0.08189234, -361404.0, 181538.53, 0.0, 10.0004015, 10.000917 
3.8499737e+2, 2.5459665e+2, -405252.13, -314951.56, -42416.42, 0.017382264, -0.2121715, -298152.7, 146782.84, 0.0, 9.999741, 10.000974 
3.8499022e+2, 2.6459643e+2, -475127.0, -536182.7, -18574.785, 0.10877371, -0.22488049, -469920.1, -122984.016, 0.0, 9.99963, 9.99883 
3.849826e+2, 2.7459595e+2, -307415.44, -412515.34, 13615.319, 0.11614346, -0.17175479, -305680.28, -56733.938, 0.0, 10.000143, 9.998758 
3.8497427e+2, 2.845958e+2, -183530.72, -238163.81, 24418.57, 0.07514467, -0.085342765, -174207.66, -23256.904, 0.000000026095549, 10.000043, 9.999336 
3.84965e+2, 2.9459614e+2, -213128.45, -201920.33, 17558.883, -0.032652613, -0.013300293, -189092.9, -136145.06, 0.00000066980994, 9.9991665, 9.999334 
3.8495553e+2, 3.0459577e+2, -179537.36, -211144.19, 9852.03, -0.13890228, 0.04349855, -176717.92, -176717.92, 0.000005131084, 9.999284, 9.998881 
3.8495013e+2, 3.1459174e+2, 27176.293, -52476.5, 58446.246, 0.23255697, -0.269875, 58075.46, 58075.46, 0.000023468077, 10.00041, 9.99943 
3.9509746e+2, 1.24612555e+2, -1630164.0, -1781014.9, 59330.69, -0.000017082795, -0.23219754, -1609625.3, 109153.484, 0.0001272644, 10.001011, 9.999039 
3.9508945e+2, 1.3461168e+2, -1486124.5, -1701247.0, -26378.832, -0.039840307, -0.2100195, -1482937.0, 137853.83, 0.00006380605, 10.001518, 9.998681 
3.950805e+2, 1.4461072e+2, -1347620.6, -1552151.9, -34989.313, -0.19754632, -0.18676563, -1341800.5, 181002.72, 0.000023677207, 10.001636, 9.998968 
3.950755e+2, 1.5461178e+2, -1318996.4, -1496736.8, -3883.4822, 0.042350553, 0.0014067886, -1318911.6, 105883.57, 0.000005569423, 10.001208, 9.99888 
3.9506862e+2, 1.6461092e+2, -1238412.6, -1350074.8, -7435.7837, 0.098827586, 0.0073065683, -1237919.6, 88883.91, 0.00000035120044, 10.000847, 9.99939 
3.950584e+2, 1.7460802e+2, -1150815.1, -1250568.6, -1771.2999, -0.17305867, -0.2474967, -1150783.8, 78044.914, 0.0, 10.00075, 9.999444 
3.9505038e+2, 1.8460727e+2, -1049723.0, -1145137.1, 1837.1681, -0.24479802, -0.265407, -1049687.8, 81147.02, 0.0, 10.000737, 9.999503 
3.9504528e+2, 1.9460882e+2, -939877.7, -1041657.7, 7809.369, -0.045918778, -0.08365106, -939282.0, 93538.984, 0.0, 10.000817, 9.999503 
3.950381e+2, 2.0460826e+2, -886345.8, -1010546.75, -60369.3, 0.025502987, -0.06574731, -861838.4, 72987.03, 0.0, 10.000716, 9.999092 
3.9502826e+2, 2.1460524e+2, -837747.4, -936592.8, -48264.258, -0.07931266, -0.2972503, -818090.1, 18760.922, 0.0, 10.000377, 9.99909 
3.950198e+2, 2.2460419e+2, -723128.9, -791308.9, 32543.865, -0.1329383, -0.32444078, -710088.94, 28771.545, 0.0, 10.000322, 9.999439 
3.9501283e+2, 2.3460527e+2, -598711.3, -678866.8, 85408.586, -0.13625959, -0.18283328, -544444.7, 96408.14, 0.0, 10.000501, 9.999451 
3.9500543e+2, 2.4460568e+2, -519989.5, -587368.4, -6199.898, -0.08394912, -0.08423575, -519423.75, 23427.143, 0.0, 10.00035, 9.999481 
3.949975e+2, 2.546052e+2, -522240.34, -542350.1, -59124.746, 0.034348898, -0.10027058, -472321.6, -27464.957, 0.0, 9.999667, 9.999452 
3.949891e+2, 2.6460508e+2, -415637.2, -397678.63, -7622.1846, 0.017567497, -0.07434583, -394879.75, -48022.184, 0.0, 9.999565, 9.999813 
3.9498025e+2, 2.7460504e+2, -242002.94, -262441.3, 42902.426, -0.15240014, -0.07876275, -208119.4, 40735.805, 0.0, 10.000075, 9.9998255 
3.949726e+2, 2.8460404e+2, -192712.38, -243152.34, -13934.855, -0.115538314, -0.13290782, -189118.69, -38254.434, 0.000000010243951, 9.999992, 9.999324 
3.9496607e+2, 2.94602e+2, -234980.72, -220341.31, -3042.8384, 0.13803518, -0.28606978, -219734.05, -166848.69, 0.0000005130985, 9.999056, 9.999261 
3.9495686e+2, 3.0460256e+2, -115123.445, -65768.23, 46849.516, 0.044124793, -0.18279755, -37494.336, -37494.336, 0.0000059963604, 9.999232, 9.999905 
3.949491e+2, 3.146047e+2, 116507.19, 153944.38, 133916.02, 0.04576144, 0.010645976, 270443.7, 270443.7, 0.000027743677, 10.000329, 10.000883 
4.05098e+2, 1.2462127e+2, -1622974.4, -1788847.4, 62685.047, -0.038027503, -0.08975599, -1601950.0, 116749.516, 0.0001282802, 10.001085, 9.998956 
4.0509143e+2, 1.3461961e+2, -1583133.8, -1724946.4, 35726.977, 0.0562911, -0.1699845, -1574641.6, 46075.387, 0.00006493345, 10.000746, 9.998893 
4.0508226e+2, 1.446184e+2, -1466182.6, -1576264.9, 67834.23, -0.1311618, -0.19580643, -1433868.1, 88862.14, 0.00002457309, 10.000686, 9.999253 
4.0507683e+2, 1.5461981e+2, -1359665.5, -1485661.4, 47508.33, 0.082545824, -0.004503267, -1343759.8, 80958.734, 0.000005781208, 10.000792, 9.999156 
4.0506965e+2, 1.6461933e+2, -1239069.8, -1345163.8, 59919.816, 0.12650162, 0.023380328, -1212089.5, 114633.54, 0.0000003430959, 10.000814, 9.999437 
4.050591e+2, 1.7461692e+2, -1158421.6, -1252271.0, 57648.914, -0.16597216, -0.18701197, -1131013.9, 97729.86, 0.0, 10.00068, 9.999467 
4.0505102e+2, 1.846161e+2, -1092530.4, -1190359.1, 78706.38, -0.23608303, -0.20200601, -1048777.0, 81973.72, 0.0, 10.000558, 9.999276 
4.0504625e+2, 1.9461685e+2, -1020749.4, -1108159.9, 55950.637, -0.0017495016, -0.073094495, -993457.3, 39287.758, 0.0, 10.000385, 9.999256 
4.0503922e+2, 2.0461614e+2, -888468.6, -980288.7, 5661.79, 0.07883142, -0.07104702, -888120.8, 46630.0, 0.0, 10.000568, 9.999369 
4.050294e+2, 2.1461363e+2, -710578.1, -846969.2, 11257.275, -0.036703195, -0.2801268, -709655.25, 127115.45, 0.0, 10.001121, 9.99935 
4.0502083e+2, 2.2461277e+2, -606018.75, -697751.8, 68749.04, -0.08823287, -0.31640485, -569240.44, 169536.16, 0.0, 10.00097, 9.999769 
4.050137e+2, 2.346137e+2, -642994.94, -666006.4, 45774.42, -0.0685216, -0.221954, -607302.4, 33465.355, 0.0, 10.000041, 9.9997635 
4.05006e+2, 2.4461392e+2, -634183.9, -712146.25, -15704.579, -0.033882212, -0.12893659, -631139.3, -88371.56, 0.0, 9.999873, 9.998852 
4.0499747e+2, 2.5461334e+2, -425799.8, -561872.6, -19206.584, 0.024027336, -0.0931648, -423140.78, 21637.094, 0.0, 10.000639, 9.998839 
4.0498888e+2, 2.6461306e+2, -258290.81, -285691.2, 45090.4, -0.0006228342, -0.06380482, -224865.22, 121914.58, 0.0, 10.000483, 10.000141 
4.0498024e+2, 2.746129e+2, -338473.1, -268882.47, 29053.16, -0.11064515, -0.11879128, -258347.88, -9573.073, 0.0, 9.999234, 10.000185 
4.0497276e+2, 2.846117e+2, -336228.4, -340569.97, -27178.738, -0.04724544, -0.2035918, -311133.9, -160349.38, 0.0000000008315615, 9.999117, 9.999077 
4.049664e+2, 2.946092e+2, -67192.836, -165733.22, -49613.727, 0.21176285, -0.38321277, -46541.117, 6270.316, 0.0000007104038, 10.000312, 9.999026 
4.049568e+2, 3.0460966e+2, 118788.6, 30407.117, -15501.539, 0.03904593, -0.26802823, 121428.61, 121428.61, 0.000009515816, 10.000908, 9.999763 
4.0494913e+2, 3.146128e+2, 161436.19, 163711.23, -44971.734, 0.008313263, 0.04022953, 207559.83, 207559.83, 0.0000394484, 10.000667, 10.000796 
4.1509917e+2, 1.2462978e+2, -1556866.5, -1666202.4, -13408.4, -0.082504384, 0.03619866, -1555246.1, 163379.84, 0.0001259659, 10.001139, 9.999772 
4.1509393e+2, 1.3463034e+2, -1485591.3, -1546479.3, 31747.96, 0.20778249, 0.05457786, -1472049.1, 148566.94, 0.00006410072, 10.000833, 10.000077 
4.1508386e+2, 1.4462875e+2, -1466621.8, -1578155.5, 65162.227, -0.06381897, -0.070431195, -1436621.1, 86007.83, 0.00002430965, 10.000702, 9.99923 
4.1507697e+2, 1.546264e+2, -1364647.3, -1489852.1, 62860.914, -0.007386747, -0.24461144, -1338533.5, 86117.47, 0.0000053776803, 10.000775, 9.999131 
4.1506973e+2, 1.6462605e+2, -1235573.0, -1326626.3, 46913.36, 0.033237662, -0.21067627, -1215727.4, 110927.08, 0.0000002359893, 10.000764, 9.999588 
4.150608e+2, 1.7462818e+2, -1147632.3, -1228631.6, 61645.258, -0.092003606, 0.017148146, -1114373.1, 114260.945, 0.0, 10.000672, 9.999633 
4.1505253e+2, 1.8462807e+2, -1128583.1, -1253505.0, 63863.418, -0.16430955, 0.082725056, -1101713.8, 28922.303, 0.0, 10.00051, 9.998863 
4.1504556e+2, 1.9462517e+2, -1059332.0, -1171607.1, 56947.17, -0.12903744, -0.1139616, -1035504.5, -2838.853, 0.0, 10.000321, 9.998845 
4.150383e+2, 2.0462397e+2, -875286.25, -935278.56, 16921.654, -0.08717167, -0.15529759, -870842.44, 63833.86, 0.0, 10.000484, 9.999724 
4.150304e+2, 2.1462463e+2, -698126.06, -793758.25, 37550.35, -0.06401193, -0.0869188, -685144.06, 151522.22, 0.0, 10.001005, 9.99977 
4.1502225e+2, 2.2462428e+2, -651967.0, -770880.8, 27450.541, -0.060553208, -0.07291571, -645936.06, 92731.06, 0.0, 10.000871, 9.999316 
4.1501376e+2, 2.3462267e+2, -689349.8, -741328.7, 18877.68, -0.08697871, -0.18670794, -683217.3, -42535.906, 0.0, 9.999951, 9.9992895 
4.150054e+2, 2.4462155e+2, -627053.06, -687970.06, 2627.5757, -0.10174337, -0.2115324, -626939.94, -84247.64, 0.0, 9.999827, 9.999039 
4.1499698e+2, 2.546209e+2, -420164.5, -535942.5, 17829.76, -0.10769689, -0.20318231, -417480.94, 27219.41, 0.0, 10.000571, 9.999051 
4.149893e+2, 2.646203e+2, -282325.3, -325397.13, -5521.827, -0.025678506, -0.20420292, -281628.7, 65075.367, 0.0, 10.000445, 9.999883 
4.1498235e+2, 2.7461967e+2, -371376.6, -317106.4, -8726.839, 0.15274286, -0.2834195, -315737.63, -67033.37, 0.0, 9.999153, 9.999891 
4.1497454e+2, 2.8461877e+2, -368871.63, -409771.1, 5412.9272, 0.19752021, -0.29478076, -368167.34, -217456.27, 0.00000000001177225, 9.999111, 9.99861 
4.1496557e+2, 2.9461756e+2, -109531.055, -239623.22, 3939.7983, 0.071149826, -0.29839614, -109411.85, -56685.55, 0.0000013022876, 10.000243, 9.998555 
4.14955e+2, 3.0461702e+2, 30537.15, -147415.47, -26391.57, -0.25243622, -0.20422666, 34368.7, 34368.7, 0.000014575742, 10.000893, 9.998544 
4.1494972e+2, 3.1461617e+2, 35757.344, -66628.84, -40224.227, -0.043912616, -0.16552605, 49669.71, 49669.71, 0.000055427667, 10.000547, 9.999266 
4.251003e+2, 1.2463815e+2, -1579589.5, -1680581.6, 32766.96, -0.0680881, 0.052154396, -1569889.8, 148654.78, 0.000120138786, 10.000979, 9.999753 
4.2509526e+2, 1.3463861e+2, -1369985.4, -1482720.9, 22584.635, 0.22367589, 0.047618095, -1365629.3, 254906.4, 0.00006079175, 10.001567, 10.00017 
4.2508498e+2, 1.4463739e+2, -1292019.0, -1484284.4, 25790.414, -0.07611136, -0.04979016, -1288619.5, 233925.4, 0.00002257458, 10.001851, 9.999326 
4.250782e+2, 1.5463515e+2, -1267735.5, -1432345.5, 7658.3154, 0.016403701, -0.2258018, -1267380.0, 157186.23, 0.0000044461326, 10.001392, 9.999231 
4.2507118e+2, 1.6463488e+2, -1213979.6, -1318186.0, 9180.859, 0.097282365, -0.18304768, -1213177.0, 113391.67, 0.00000009724189, 10.000931, 9.999562 
4.2506254e+2, 1.7463703e+2, -1174734.4, -1244671.0, -7412.1323, 0.028252268, 0.048641402, -1173957.5, 54591.266, 0.0, 10.0005045, 9.999604 
4.2505395e+2, 1.8463683e+2, -1156064.6, -1253585.1, 25306.297, -0.0534503, 0.09943466, -1149888.8, -19337.34, 0.0, 10.000258, 9.998986 
4.2504597e+2, 1.9463368e+2, -1076398.4, -1170315.5, 45278.023, -0.10874105, -0.13190262, -1058125.0, -25542.701, 0.0, 10.000152, 9.99894 
4.2503828e+2, 2.0463265e+2, -957392.4, -982927.8, 35400.81, -0.10643922, -0.1579855, -932527.25, 2064.4692, 0.0, 9.99996, 9.999643 
4.250307e+2, 2.1463396e+2, -907713.0, -907691.2, 4288.9414, -0.058991533, -0.016236356, -903413.1, -66835.305, 0.0, 9.99962, 9.999655 
4.2502272e+2, 2.2463365e+2, -834922.9, -867411.2, -10674.544, -0.032961674, 0.011330514, -831729.44, -93150.57, 0.0, 9.999657, 9.999233 
4.2501426e+2, 2.3463143e+2, -676314.0, -744895.7, -9763.987, -0.034658104, -0.15113159, -674950.94, -34353.266, 0.0, 10.000087, 9.999198 
4.2500573e+2, 2.4463011e+2, -579977.4, -637853.3, 16681.408, -0.051160675, -0.20411912, -575513.6, -32904.33, 0.0, 10.000036, 9.999283 
4.2499718e+2, 2.546296e+2, -562300.2, -577163.4, 18384.496, -0.08280941, -0.2043886, -549902.06, -105287.87, 0.0, 9.999475, 9.999297 
4.2498937e+2, 2.6462883e+2, -470992.5, -471662.78, -15576.258, -0.004754032, -0.21637902, -455747.78, -109127.695, 0.0, 9.999388, 9.999393 
4.249824e+2, 2.7462748e+2, -306448.9, -340540.38, -52827.168, 0.21235518, -0.3095874, -267985.5, -19357.012, 0.0, 9.999836, 9.999404 
4.249746e+2, 2.846267e+2, -245096.83, -338739.34, 21568.086, 0.25589943, -0.2942536, -240367.98, -89733.375, 0.0000000012455732, 9.999929, 9.998694 
4.2496577e+2, 2.9462627e+2, -188623.31, -266689.22, 45736.46, 0.10088392, -0.22524633, -167528.11, -114888.164, 0.0000019825331, 9.999656, 9.998653 
4.2495507e+2, 3.0462518e+2, -184781.64, -317330.5, 66052.25, -0.26342794, -0.1579753, -157486.84, -157486.84, 0.000019679212, 9.999701, 9.9979515 
4.249506e+2, 3.1462157e+2, -85189.984, -182428.52, 33177.223, 0.03069749, -0.33935955, -74948.73, -74948.73, 0.00007104561, 9.999964, 9.998749 
4.3510073e+2, 1.24646455e+2, -1645676.6, -1803931.5, -25226.646, -0.16891605, -0.03944594, -1641752.6, 76701.91, 0.000112459136, 10.000955, 9.998908 
4.3509522e+2, 1.346446e+2, -1439652.5, -1620122.6, 59865.207, 0.038340043, -0.18242507, -1421600.0, 198874.16, 0.000055857796, 10.0015545, 9.999227 
4.3508533e+2, 1.4464435e+2, -1283851.9, -1465172.3, 6377.303, -0.25249767, -0.13705586, -1283627.8, 238850.27, 0.000019900395, 10.001831, 9.999471 
4.350802e+2, 1.5464593e+2, -1246386.6, -1398476.0, -336.74023, 0.04806117, 0.048120786, -1246385.9, 178078.67, 0.0000034951138, 10.001427, 9.999453 
4.3507355e+2, 1.6464572e+2, -1231334.3, -1346595.6, -16622.547, 0.22092862, 0.09064306, -1228984.9, 97482.24, 0.000000032016867, 10.000903, 9.999379 
4.3506405e+2, 1.7464346e+2, -1192463.0, -1275583.9, -13931.889, 0.109516814, -0.09637987, -1190190.1, 38297.52, 0.0, 10.000481, 9.999402 
4.3505505e+2, 1.8464237e+2, -1122070.9, -1166544.3, 13683.33, 0.010605746, -0.15298285, -1118198.1, 12298.658, 0.0, 10.000192, 9.999616 
4.3504712e+2, 1.9464244e+2, -1038849.4, -1075636.4, 49624.098, -0.028338395, -0.12950277, -1004319.56, 28175.105, 0.0, 10.000086, 9.99962 
4.3503883e+2, 2.0464227e+2, -1010136.75, -1068853.9, 14731.753, -0.0606786, -0.08022141, -1006647.94, -72151.24, 0.0, 9.999861, 9.9991 
4.3503004e+2, 2.146417e+2, -961650.7, -998903.94, -401.84024, -0.10853176, -0.06747284, -961646.4, -125141.86, 0.0, 9.999533, 9.999068 
4.35022e+2, 2.2464104e+2, -838170.75, -846665.8, -3779.8562, -0.087580845, -0.053767998, -836732.44, -98221.88, 0.0, 9.999539, 9.999433 
4.350149e+2, 2.3464012e+2, -673939.4, -714799.5, 14182.867, 0.005360742, -0.11285245, -669498.94, -28982.924, 0.0, 9.999981, 9.999454 
4.350069e+2, 2.4463965e+2, -572760.5, -608897.4, -11546.051, 0.04413516, -0.10327683, -569386.44, -26867.986, 0.0, 9.999974, 9.999511 
4.3499783e+2, 2.546396e+2, -557506.8, -549191.75, 4537.9365, 0.011874404, -0.08503794, -547194.75, -102676.25, 0.0, 9.999399, 9.999525 
4.3498883e+2, 2.6463863e+2, -521451.9, -572747.0, -7543.285, -0.01483414, -0.09125846, -520365.63, -173838.48, 0.0, 9.999369, 9.998711 
4.3497992e+2, 2.7463642e+2, -364200.56, -447713.22, -26145.018, -0.039074212, -0.20085396, -356690.75, -108143.45, 0.0, 9.999775, 9.998699 
4.3497247e+2, 2.8463534e+2, -209670.78, -252585.05, 4957.508, 0.03326243, -0.20506322, -209105.52, -58550.19, 0.000000012355592, 9.999885, 9.999303 
4.3496674e+2, 2.9463544e+2, -157552.97, -183002.31, 47376.438, 0.20987198, -0.15403779, -121222.12, -68671.17, 0.0000027662056, 9.999581, 9.999261 
4.3495685e+2, 3.046343e+2, -181266.42, -316126.53, 71530.89, -0.07937939, -0.122298986, -150393.48, -150393.48, 0.000024180765, 9.999711, 9.997958 
4.3495107e+2, 3.1462893e+2, -68382.836, -130805.18, 23227.947, 0.038182534, -0.4795917, -60688.035, -60688.035, 0.00008333817, 9.999887, 9.999141 
4.451016e+2, 1.2465401e+2, -1769276.9, -1883256.8, -123391.414, -0.12963954, -0.09592317, -1690350.4, 28027.262, 0.00010599228, 10.000211, 9.99872 
4.4509682e+2, 1.3465188e+2, -1567241.3, -1710574.5, 38247.6, 0.09284637, -0.23465471, -1557673.8, 62728.7, 0.00005101591, 10.000826, 9.998957 
4.450871e+2, 1.4465214e+2, -1424395.0, -1533763.1, -13347.103, -0.202566, -0.12447914, -1422789.8, 99613.84, 0.000017295639, 10.000873, 9.999458 
4.450805e+2, 1.5465428e+2, -1448128.0, -1491688.6, -62339.94, 0.011627475, 0.11157805, -1403873.0, 20512.764, 0.0000027656245, 10.00003, 9.999482 
4.4507343e+2, 1.6465402e+2, -1367799.5, -1390430.5, -26153.393, 0.17499274, 0.13780199, -1350618.6, -24230.004, 0.000000035556127, 9.99986, 9.999586 
4.4506472e+2, 1.7465106e+2, -1184622.5, -1246095.8, -7142.3633, 0.13704658, -0.14180024, -1183803.5, 44611.223, 0.0, 10.000427, 9.999628 
4.45056e+2, 1.8465018e+2, -1041059.94, -1104787.8, 30548.752, 0.06872414, -0.19901039, -1028781.6, 101639.91, 0.0, 10.0006485, 9.999818 
4.4504777e+2, 1.9465147e+2, -982746.75, -1026269.2, 14309.414, 0.01999823, -0.07302502, -978463.56, 53944.598, 0.0, 10.000371, 9.999822 
4.4503924e+2, 2.0465155e+2, -955142.1, -1048765.3, -3323.2827, -0.024293728, -0.0065465425, -955024.3, -20616.303, 0.0, 10.00028, 9.99903 
4.450302e+2, 2.1465006e+2, -848380.94, -953985.06, 767.13666, -0.078485146, -0.07323303, -848375.4, -11950.898, 0.0, 10.000361, 9.998976 
4.4502208e+2, 2.2464919e+2, -725733.3, -765459.3, 37491.1, -0.060096126, -0.08966713, -703168.5, 35263.477, 0.0, 10.000185, 9.999679 
4.45015e+2, 2.3464881e+2, -701939.06, -703544.2, 40098.266, 0.04076318, -0.12027223, -662635.3, -22204.4, 0.0, 9.999671, 9.999683 
4.4500706e+2, 2.4464853e+2, -640132.94, -674049.9, 13268.081, 0.08342263, -0.09200315, -635559.3, -93127.56, 0.0, 9.999649, 9.999219 
4.44998e+2, 2.5464824e+2, -464736.34, -541915.25, -26962.393, 0.05276251, -0.06721118, -456250.16, -11814.156, 0.0, 10.00019, 9.999195 
4.4498867e+2, 2.646474e+2, -405297.06, -496404.06, -20928.25, 0.0028582315, -0.05226469, -400719.63, -54275.582, 0.0, 10.000088, 9.9988785 
4.4497916e+2, 2.7464578e+2, -420383.72, -454883.2, 8949.879, -0.06397645, -0.11808814, -418200.13, -169742.25, 0.0, 9.999316, 9.998864 
4.449719e+2, 2.846445e+2, -295185.44, -325261.06, 78797.84, 0.014607832, -0.13849963, -230003.31, -79535.22, 0.00000003062236, 9.999424, 9.99903 
4.449673e+2, 2.9464337e+2, -52471.813, -156468.8, 31758.639, 0.27233097, -0.18286926, -43540.39, 8935.3545, 0.0000032986038, 10.000411, 9.99904 
4.4495788e+2, 3.0464217e+2, -24975.752, -204766.52, 35618.73, 0.017377641, -0.1621215, -18176.389, -18176.389, 0.000027227657, 10.000635, 9.998275 
4.4495144e+2, 3.1463832e+2, 1385.2278, -6153.992, -55370.91, 0.08992884, -0.40105727, 53114.695, 53114.695, 0.000091368296, 9.9999695, 9.999958 
4.5510224e+2, 1.2466068e+2, -1728759.5, -1807361.0, -183803.0, -0.14101076, -0.1302556, -1580102.6, 138212.08, 0.00010140695, 10.00025, 9.999219 
4.5509967e+2, 1.3466035e+2, -1532561.3, -1654408.3, 73629.734, 0.2690976, -0.12643997, -1497917.9, 122404.09, 0.00004730018, 10.000889, 9.999314 
4.550899e+2, 1.4466056e+2, -1431853.0, -1550883.9, -45652.625, -0.037777256, -0.032579914, -1416360.1, 105963.125, 0.000015080613, 10.000887, 9.999332 
4.550789e+2, 1.5466021e+2, -1459835.4, -1515254.4, -81959.01, -0.17827056, -0.0288671, -1401028.5, 23300.787, 0.0000021144335, 10.000033, 9.999316 
4.5507056e+2, 1.646599e+2, -1322906.6, -1299272.5, -16278.285, -0.11983947, -0.02934654, -1290974.3, 35358.13, 0.00000004449902, 9.99986, 10.000216 
4.550643e+2, 1.7465973e+2, -1133787.4, -1149421.3, 23012.014, 0.028346766, -0.09605892, -1117300.9, 111030.3, 0.0, 10.000455, 10.000283 
4.5505655e+2, 1.846601e+2, -1065750.0, -1139837.4, 13975.286, 0.042088185, -0.051209122, -1063201.4, 67125.58, 0.0, 10.0005865, 9.999602 
4.5504764e+2, 1.9466081e+2, -1012143.75, -1069132.0, 11402.068, -0.05242545, 0.03974537, -1009947.1, 22375.146, 0.0, 10.000301, 9.999555 
4.550391e+2, 2.0466052e+2, -942622.0, -1002398.56, -10536.243, -0.08188999, 0.06819777, -940819.25, -6493.9683, 0.0, 10.000187, 9.999396 
4.5503098e+2, 2.1465907e+2, -835908.8, -899526.9, 13237.614, -0.05706958, -0.039139684, -833264.25, 3073.4114, 0.0, 10.000237, 9.999408 
4.5502272e+2, 2.2465809e+2, -723812.75, -735612.6, 13039.744, -0.030853601, -0.099273704, -715400.3, 22942.912, 0.0, 10.0000725, 9.999943 
4.5501438e+2, 2.3465751e+2, -693846.6, -667565.9, 31086.46, -0.0094631985, -0.17497696, -646956.6, -6614.1797, 0.0, 9.999586, 9.999973 
4.550059e+2, 2.4465673e+2, -709407.8, -794753.06, 24344.117, -0.0141000105, -0.1733749, -702952.2, -160602.94, 0.0, 9.999559, 9.998433 
4.5499733e+2, 2.5465548e+2, -534665.5, -663876.4, 2282.5476, -0.04690776, -0.15538181, -534625.2, -90258.76, 0.0, 10.000093, 9.998405 
4.5498872e+2, 2.6465508e+2, -347140.3, -363790.7, -54450.027, -0.023269476, -0.10193644, -300382.72, 45987.934, 0.0, 10.000036, 9.999815 
4.5497987e+2, 2.7465558e+2, -363320.78, -319017.9, -9004.308, 0.052873943, -0.063947454, -317257.75, -68897.16, 0.0, 9.99924, 9.999834 
4.5497257e+2, 2.846541e+2, -379589.13, -489439.9, 107018.03, 0.12051093, -0.09657013, -314224.63, -163851.69, 0.000000022691747, 9.9993725, 9.997931 
4.5496714e+2, 2.946501e+2, -137900.67, -322096.03, 80182.875, 0.18935552, -0.30863947, -107886.62, -55472.6, 0.0000033720132, 10.00035, 9.997937 
4.54958e+2, 3.046488e+2, 18728.1, -110197.43, 10690.32, -0.06187638, -0.28170538, 19608.514, 19608.514, 0.000028360193, 10.0006275, 9.998923 
4.549513e+2, 3.1464973e+2, 72568.08, 163931.42, -92113.52, 0.033647783, -0.106115684, 221068.61, 221068.61, 0.00009465621, 9.999879, 10.00117 
4.6510318e+2, 1.2466901e+2, -1616039.9, -1718201.1, -114327.23, -0.0915963, -0.11798203, -1541900.9, 176335.98, 0.000096649455, 10.000853, 9.99954 
4.651004e+2, 1.3466951e+2, -1474094.4, -1615464.9, 153124.05, 0.24602671, -0.046875685, -1376128.0, 244107.14, 0.00004344866, 10.001214, 9.9994335 
4.650915e+2, 1.446697e+2, -1372582.0, -1507695.4, 14484.858, 0.021382798, 0.03122234, -1371046.6, 151188.77, 0.000012657647, 10.001226, 9.999467 
4.6507946e+2, 1.546683e+2, -1345172.6, -1443200.9, -23423.957, -0.149613, -0.08392525, -1339863.0, 84386.78, 0.0000014631825, 10.000742, 9.999473 
4.6507052e+2, 1.6466811e+2, -1253830.9, -1248747.3, 87128.17, -0.12573886, -0.08764789, -1164123.9, 162127.3, 0.000000030371112, 10.000279, 10.000355 
4.6506423e+2, 1.7466928e+2, -1209029.8, -1170452.1, 68938.97, 0.008440917, -0.032982737, -1118154.4, 110083.25, 0.0, 9.999882, 10.000414 
4.650567e+2, 1.846699e+2, -1167118.3, -1196864.1, 61192.96, 0.037242904, 0.030305862, -1119016.8, 11214.985, 0.0, 9.999918, 9.999537 
4.6504822e+2, 1.9466957e+2, -1007191.25, -1077945.0, 59860.39, -0.019344676, 0.029456541, -973035.5, 59201.547, 0.0, 10.000369, 9.999472 
4.6503997e+2, 2.0466915e+2, -870513.5, -920340.75, 56674.76, -0.022987282, 0.025497459, -833518.2, 100722.38, 0.0, 10.000471, 9.999823 
4.6503183e+2, 2.1466847e+2, -819825.94, -847100.1, 62677.45, 0.01805212, -0.0450299, -769319.2, 66923.805, 0.0, 10.00015, 9.999812 
4.6502334e+2, 2.2466764e+2, -725027.25, -795216.94, 59605.906, 0.018195191, -0.0864453, -690951.94, 47295.89, 0.0, 10.000332, 9.999398 
4.650145e+2, 2.3466645e+2, -511132.47, -644072.5, -3774.6067, -0.03013549, -0.1653514, -511025.4, 129231.36, 0.0, 10.001134, 9.999382 
4.650056e+2, 2.4466549e+2, -495632.84, -659015.94, -9042.672, -0.06019201, -0.16600794, -495133.9, 47132.13, 0.0, 10.00087, 9.998739 
4.6499684e+2, 2.546646e+2, -615720.4, -664390.5, 41233.22, -0.06258157, -0.15032613, -592176.7, -147899.63, 0.0, 9.999365, 9.998754 
4.6498844e+2, 2.646641e+2, -471415.0, -453128.84, 31018.691, -0.010254795, -0.10895651, -429933.78, -83652.625, 0.0, 9.999295, 9.999567 
4.6498024e+2, 2.7466404e+2, -156299.1, -251725.8, -34854.414, 0.09842029, -0.1021022, -144924.44, 103354.04, 0.0, 10.000786, 9.999561 
4.64973e+2, 2.8466275e+2, -171577.23, -378638.63, 71650.266, 0.1620648, -0.10631106, -149201.75, 1088.9718, 0.00000001636591, 10.000745, 9.998034 
4.6496695e+2, 2.9465985e+2, -316855.22, -386448.25, 118722.17, 0.20915225, -0.22241522, -227935.33, -175612.19, 0.0000038591365, 9.999022, 9.998135 
4.6495798e+2, 3.046585e+2, -291938.47, -207934.14, 114187.836, 0.0022762264, -0.23013455, -128268.54, -128268.54, 0.000029778155, 9.998267, 9.9994 
4.649505e+2, 3.1466037e+2, -113169.51, 121912.14, -68216.37, 0.052468758, -0.006709919, 140273.19, 140273.19, 0.00009717631, 9.998407, 10.001594 
4.7510362e+2, 1.2467887e+2, -1603504.6, -1681034.1, -169826.97, -0.1853908, -0.055721905, -1468074.4, 250071.11, 0.000091564856, 10.000825, 9.999796 
4.7509885e+2, 1.346794e+2, -1477934.4, -1615133.3, 178280.02, -0.05423136, 0.016979713, -1355511.1, 264630.06, 0.000038474074, 10.001199, 9.99943 
4.750917e+2, 1.446796e+2, -1341404.0, -1446713.9, -8490.721, -0.10917646, 0.07737379, -1340723.9, 181415.27, 0.000009911169, 10.001226, 9.999893 
4.7508192e+2, 1.546785e+2, -1302819.0, -1369119.5, -32468.662, -0.0061142924, -0.05641175, -1289567.1, 134580.84, 0.0000009593812, 10.000791, 9.999965 
4.7507292e+2, 1.6467853e+2, -1280506.0, -1301837.9, 63303.32, 0.064724654, -0.04591483, -1226976.4, 99169.97, 0.000000014696447, 10.000268, 9.999997 
4.750642e+2, 1.746796e+2, -1237513.6, -1229747.9, 63753.92, -0.0059946724, 0.041648697, -1169758.6, 58376.492, 0.0, 9.999884, 10.000007 
4.750561e+2, 1.8467948e+2, -1162880.3, -1177995.8, 70539.26, -0.03237622, 0.044883415, -1099495.0, 30641.266, 0.0, 9.999871, 9.999693 
4.750493e+2, 1.946778e+2, -1000668.3, -1055639.5, 86431.664, 0.03053569, -0.10829299, -937457.2, 94695.27, 0.0, 10.000326, 9.999649 
4.7504154e+2, 2.0467745e+2, -854649.94, -865574.4, 38342.563, 0.06792609, -0.13493678, -821382.5, 112771.336, 0.0, 10.0003805, 10.000241 
4.750326e+2, 2.1467838e+2, -803747.06, -791142.06, 58915.92, 0.06052381, -0.08578431, -738192.5, 97947.445, 0.0, 10.000053, 10.000241 
4.7502372e+2, 2.2467783e+2, -831510.6, -1001406.4, 80897.92, 0.0011804224, -0.05474348, -799152.8, -61006.836, 0.0, 10.000257, 9.998027 
4.75015e+2, 2.3467553e+2, -626065.94, -860663.2, 35602.617, -0.109003104, -0.10161745, -620781.9, 19393.252, 0.0, 10.001031, 9.99795 
4.7500587e+2, 2.4467473e+2, -406230.28, -454948.72, -69609.12, -0.13917401, -0.079486474, -356841.28, 185341.69, 0.0, 10.0007925, 10.000176 
4.7499624e+2, 2.5467548e+2, -524124.88, -456464.38, -6577.013, -0.081175014, -0.052608237, -455831.0, -11662.537, 0.0, 9.999282, 10.000223 
4.749877e+2, 2.646744e+2, -579553.06, -663819.1, 77566.734, -0.035681684, -0.078266405, -533414.94, -187238.45, 0.0, 9.999237, 9.998147 
4.7498006e+2, 2.7467108e+2, -270200.5, -473305.0, 31281.447, -0.022129, -0.23832509, -265491.8, -17279.754, 0.0, 10.000726, 9.998066 
4.7497287e+2, 2.8467038e+2, -83472.72, -192158.95, 715.60815, 0.055931933, -0.17311221, -83468.01, 66753.945, 0.0000000367379, 10.000726, 9.999325 
4.7496647e+2, 2.946725e+2, -233139.47, -195703.27, 63253.273, 0.23249966, 0.070690535, -148456.64, -96252.4, 0.000004901276, 9.998936, 9.999492 
4.749576e+2, 3.046713e+2, -281124.3, -167835.1, 111057.164, 0.12299933, -0.00904409, -99810.92, -99810.92, 0.000032907166, 9.998193, 9.99971 
4.7494847e+2, 3.146698e+2, -148924.14, 54784.05, -54355.58, -0.037975665, -0.13854969, 68380.31, 68380.31, 0.00010232853, 9.998371, 10.001152 
4.851049e+2, 1.2468932e+2, -1562468.5, -1644008.3, -127208.945, -0.14005856, 0.008041453, -1469655.9, 248389.36, 0.00008660855, 10.001017, 9.999968 
4.8509854e+2, 1.346893e+2, -1505959.9, -1623300.5, 214343.81, -0.18180692, 0.01860282, -1342401.8, 277642.47, 0.000032757685, 10.000959, 9.999505 
4.850927e+2, 1.4468917e+2, -1420427.5, -1489139.4, 22664.469, -0.09989908, 0.04621944, -1413625.1, 108418.76, 0.000007215262, 10.000719, 9.999837 
4.8508272e+2, 1.5468858e+2, -1365896.8, -1409039.0, -67525.6, 0.021089979, -0.02820676, -1316580.5, 107467.1, 0.00000059770906, 10.000407, 9.99987 
4.850735e+2, 1.6468835e+2, -1297662.6, -1356246.5, 34634.633, 0.100639075, -0.020902783, -1281594.0, 44454.758, 0.0000000048834687, 10.000349, 9.999583 
4.8506492e+2, 1.7468825e+2, -1168363.8, -1242679.8, 21173.295, 0.049645234, -0.009821091, -1162754.6, 65294.95, 0.0, 10.000565, 9.999584 
4.8505667e+2, 1.8468782e+2, -1087981.0, -1116779.6, 39932.43, 0.01954184, -0.025281375, -1059931.1, 70122.31, 0.0, 10.000278, 9.999911 
4.8504922e+2, 1.946869e+2, -1124519.8, -1083462.8, 46198.047, 0.044284843, -0.13159826, -1053437.5, -21376.139, 0.0, 9.999352, 9.999916 
4.8504123e+2, 2.0468676e+2, -1030326.5, -969569.06, 13362.639, 0.061779957, -0.14266065, -966760.0, -32699.246, 0.0, 9.99925, 10.00008 
4.8503265e+2, 2.1468727e+2, -820373.5, -815449.0, -19498.021, 0.07039715, -0.12008212, -798258.4, 37793.9, 0.0, 10.00001, 10.000099 
4.85024e+2, 2.2468695e+2, -834272.06, -966026.7, 48624.348, 0.018318996, -0.074738175, -818270.5, -80213.93, 0.0, 10.000082, 9.998354 
4.850153e+2, 2.3468553e+2, -844096.75, -929297.9, 120254.66, -0.09599752, -0.06702294, -759119.94, -119042.945, 0.0, 9.9993725, 9.998278 
4.850063e+2, 2.4468498e+2, -584032.94, -537337.94, 42555.055, -0.107180424, -0.039725278, -512146.38, 29935.838, 0.0, 9.999557, 10.000204 
4.8499703e+2, 2.546853e+2, -311821.13, -348825.88, -24757.275, 0.0046781213, -0.055283338, -299416.22, 144654.88, 0.0, 10.000725, 10.000263 
4.8498836e+2, 2.64684e+2, -375490.1, -596836.06, 72381.36, 0.03965057, -0.09619421, -353922.5, -7840.448, 0.0, 10.000776, 9.99786 
4.8498026e+2, 2.7468044e+2, -453807.84, -594989.9, 103660.586, -0.013982862, -0.2468598, -398985.13, -150864.13, 0.0, 9.999605, 9.997769 
4.8497224e+2, 2.8467992e+2, -320173.97, -272852.7, 62186.44, 0.009742414, -0.16213621, -229977.78, -79847.56, 0.00000008825205, 9.998968, 9.999611 
4.849646e+2, 2.9468292e+2, -221112.92, -155646.44, 18018.545, 0.1616327, 0.14332095, -151014.81, -98910.586, 0.0000056092463, 9.998886, 9.999782 
4.8495662e+2, 3.046821e+2, -130346.32, -92236.96, 86556.99, 0.16782944, 0.08324944, -22662.11, -22662.11, 0.000035389916, 9.9992075, 9.999731 
4.8494875e+2, 3.1468007e+2, 40919.082, 87121.51, -124108.67, 0.08900555, -0.10425788, 190260.66, 190260.66, 0.00010599746, 9.999926, 10.000614 
4.9510616e+2, 1.2470032e+2, -1556702.5, -1633743.1, -166296.88, -0.16556697, 0.07454806, -1424522.9, 293413.6, 0.00007902746, 10.001033, 10.000029 
4.9509916e+2, 1.3469915e+2, -1490319.3, -1593819.4, 219509.7, -0.23751289, -0.048117075, -1316542.0, 303402.4, 0.000026309019, 10.000973, 9.9997 
4.9509412e+2, 1.4469841e+2, -1470306.6, -1583228.6, 496.93118, -0.059966646, -0.06251234, -1470304.5, 51645.387, 0.0000047383246, 10.000683, 9.999207 
4.950816e+2, 1.546986e+2, -1413582.0, -1507003.1, -71315.14, -0.15544046, 0.006848279, -1375041.6, 48906.81, 0.0000002991547, 10.000407, 9.999194 
4.9507216e+2, 1.6469763e+2, -1329321.3, -1417372.8, 32817.44, -0.0925114, -0.0029756844, -1318435.6, 7522.1377, 0.0000000005507737, 10.000325, 9.999178 
4.950662e+2, 1.7469524e+2, -1197000.5, -1299456.6, 37000.39, 0.099243335, -0.18315023, -1185035.6, 42945.0, 0.0, 10.000553, 9.9992 
4.9505812e+2, 1.8469493e+2, -1074757.5, -1076928.1, -1612.9702, 0.11294385, -0.17980418, -1073898.6, 56084.56, 0.0, 10.000226, 10.000211 
4.9504772e+2, 1.946968e+2, -1106643.1, -1039050.6, 16030.879, -0.06089187, -0.041242637, -1035441.4, -3476.5488, 0.0, 9.999315, 10.000242 
4.9503887e+2, 2.04697e+2, -1082916.8, -1063460.9, 30579.988, -0.11382171, -0.0039979136, -1041098.9, -107136.41, 0.0, 9.999179, 9.9994755 
4.950318e+2, 2.1469522e+2, -876312.2, -916339.3, 17654.473, -0.033653934, -0.14635761, -869638.25, -33658.92, 0.0, 9.999931, 9.999452 
4.9502388e+2, 2.2469497e+2, -712892.9, -688318.8, 17969.855, -0.018963423, -0.1551494, -678836.94, 59143.3, 0.0, 9.999978, 10.000307 
4.9501503e+2, 2.3469631e+2, -718156.25, -638354.1, 102175.39, -0.080921635, -0.073487714, -568565.1, 71398.97, 0.0, 9.999252, 10.000331 
4.9500668e+2, 2.4469614e+2, -687499.44, -736969.4, 76959.914, -0.046331424, -0.05171404, -631397.25, -89432.53, 0.0, 9.999494, 9.998865 
4.9499893e+2, 2.5469404e+2, -423509.0, -564505.4, 27340.266, 0.0990457, -0.1648706, -418393.13, 25592.559, 0.0, 10.000655, 9.998816 
4.9499032e+2, 2.6469272e+2, -322440.72, -473957.25, 21676.23, 0.13575234, -0.16799574, -319400.66, 26598.049, 0.0, 10.000723, 9.998731 
4.9498045e+2, 2.746921e+2, -402702.38, -464170.44, 69382.836, 0.026800469, -0.12861855, -357551.22, -109545.836, 0.0, 9.999504, 9.998714 
4.9497062e+2, 2.8469154e+2, -382804.7, -386315.13, 52349.863, -0.067601524, -0.06107519, -332180.63, -182166.64, 0.00000018947561, 9.9989, 9.998862 
4.9496108e+2, 2.9469115e+2, -286175.25, -278144.5, 27714.291, -0.10443978, -0.0069421437, -254156.22, -202132.83, 0.000005650319, 9.998838, 9.9989605 
4.94955e+2, 3.0469087e+2, -142942.05, -126414.14, 106859.87, 0.05956647, 0.041160587, -27499.158, -27499.158, 0.00003451672, 9.999226, 9.999493 
4.9495068e+2, 3.1469133e+2, -10050.929, -9603.265, -63058.77, 0.23753178, 0.115494095, 53232.07, 53232.07, 0.00010174547, 9.999879, 9.99997 
5.051078e+2, 1.2471019e+2, -1715706.5, -1729151.9, -161186.56, -0.042276103, 0.055258203, -1561102.5, 156734.52, 0.00006639799, 10.0000515, 9.999838 
5.050995e+2, 1.3470866e+2, -1694461.5, -1705064.3, 152011.03, -0.22691661, -0.08831885, -1547659.5, 72188.34, 0.00001955312, 9.999631, 9.999586 
5.050956e+2, 1.447075e+2, -1618890.6, -1655631.1, -12771.821, 0.07808999, -0.13840449, -1614887.1, -93029.74, 0.0000028130235, 9.99967, 9.9992 
5.05082e+2, 1.547078e+2, -1403372.3, -1501033.0, -57471.617, -0.15046161, -0.055113107, -1376787.9, 47066.992, 0.00000011765629, 10.0004835, 9.999197 
5.0507224e+2, 1.6470695e+2, -1275365.5, -1411971.1, 87095.81, -0.13155837, -0.04694776, -1232984.3, 92879.484, 0.000000000026416515, 10.000778, 9.998997 
5.05067e+2, 1.7470457e+2, -1232119.4, -1341013.3, 87756.695, 0.13640445, -0.20522676, -1183291.5, 44596.023, 0.0, 10.000405, 9.998991 
5.0505877e+2, 1.8470426e+2, -1073133.5, -1103642.0, 46390.313, 0.15453309, -0.1787601, -1039553.8, 90337.56, 0.0, 10.000363, 9.999961 
5.0504726e+2, 1.9470614e+2, -923975.5, -978798.06, 6594.6216, -0.10155903, -0.0070469202, -923193.4, 108681.0, 0.0, 10.000703, 9.999983 
5.0503826e+2, 2.0470643e+2, -837084.6, -930742.25, 56859.117, -0.16875298, 0.046270546, -810252.75, 123619.33, 0.0, 10.000815, 9.999588 
5.050321e+2, 2.1470478e+2, -778833.44, -854736.6, 80226.96, -0.01938759, -0.09562191, -728034.3, 107853.16, 0.0, 10.000556, 9.999563 
5.050244e+2, 2.2470449e+2, -633094.06, -600567.75, 44170.9, 0.022081656, -0.13651124, -569761.2, 168125.98, 0.0, 10.000303, 10.000758 
5.0501484e+2, 2.347056e+2, -574247.5, -515897.0, -4673.204, -0.050500646, -0.12633832, -515525.1, 124345.04, 0.0, 10.000009, 10.000808 
5.050066e+2, 2.4470529e+2, -646008.6, -762578.2, 6963.2515, -0.017457655, -0.12125021, -645594.1, -103722.22, 0.0, 9.999979, 9.998454 
5.049999e+2, 2.547032e+2, -498105.78, -649892.0, 20172.848, 0.1452688, -0.19062589, -495470.5, -51573.633, 0.0, 10.000357, 9.998375 
5.049914e+2, 2.647023e+2, -301188.84, -409426.84, 8516.573, 0.18612853, -0.15449454, -300522.84, 45384.074, 0.0, 10.000636, 9.999218 
5.04981e+2, 2.7470258e+2, -188403.6, -306263.56, -2909.494, 0.07148127, -0.07171788, -188331.81, 59570.41, 0.00000000061010413, 10.00074, 9.999206 
5.049705e+2, 2.847016e+2, -162188.33, -337995.66, 3354.8035, -0.048451066, -0.045847345, -162124.33, -12210.642, 0.00000027597625, 10.000661, 9.998352 
5.049604e+2, 2.9469937e+2, -107615.125, -258925.39, -18686.297, -0.12667742, -0.12390596, -105341.59, -53399.98, 0.0000049916057, 10.000348, 9.998374 
5.049548e+2, 3.0469918e+2, -63903.598, -102965.62, 96901.17, 0.0917972, -0.022209281, 15415.268, 15415.268, 0.000030276777, 9.999855, 9.999349 
5.049504e+2, 3.147002e+2, -120860.52, -57946.38, -80134.414, 0.26742893, 0.11791162, -3315.8723, -3315.8723, 0.000090525835, 9.999096, 10.00003 
5.1510894e+2, 1.24718875e+2, -1742729.0, -1797493.5, -167467.38, 0.013044644, -0.049644206, -1600420.0, 117327.15, 0.0000519356, 10.0001, 9.999344 
5.150992e+2, 1.3471791e+2, -1714831.0, -1761790.3, 144575.0, -0.23476824, -0.101875186, -1591841.5, 27912.555, 0.000013925394, 9.999687, 9.999171 
5.1509696e+2, 1.4471649e+2, -1574712.0, -1567974.0, 2843.3354, 0.22150466, -0.18206224, -1566934.5, -45168.68, 0.000001645238, 9.999683, 9.999799 
5.150837e+2, 1.5471624e+2, -1357018.5, -1407940.8, -16872.898, -0.05659651, -0.21853256, -1351935.1, 71831.664, 0.00000003629146, 10.000495, 9.999834 
5.150734e+2, 1.647162e+2, -1285121.8, -1417539.9, 67963.72, -0.11139824, -0.15867974, -1256448.3, 69319.266, 0.0, 10.000722, 9.99898 
5.15067e+2, 1.747162e+2, -1239025.6, -1349666.1, 82566.48, 0.07310343, -0.07818323, -1194960.0, 32810.207, 0.0, 10.000388, 9.998934 
5.1505834e+2, 1.8471588e+2, -1131755.9, -1221740.0, 48729.6, 0.058078222, -0.01232459, -1110424.0, 19352.875, 0.0, 10.000343, 9.999158 
5.1504755e+2, 1.9471504e+2, -984747.1, -1100975.6, 28391.535, -0.16655496, -0.033416074, -978182.56, 53606.883, 0.0, 10.000676, 9.99916 
5.1503915e+2, 2.0471504e+2, -803800.1, -835990.8, 39971.574, -0.18410924, -0.0016717297, -776805.0, 156985.06, 0.0, 10.000709, 10.000288 
5.1503336e+2, 2.1471581e+2, -740614.25, -751974.6, 78353.555, 0.03164537, 0.019792289, -667735.25, 168043.27, 0.0, 10.000451, 10.0003195 
5.150253e+2, 2.2471535e+2, -716197.3, -750659.3, 23241.475, 0.06764735, -0.027371055, -704496.1, 33283.066, 0.0, 10.000206, 9.999775 
5.150146e+2, 2.3471342e+2, -660252.25, -672088.4, -8698.195, -0.09733532, -0.21670368, -655649.75, -15855.456, 0.0, 9.999915, 9.999779 
5.150059e+2, 2.4471258e+2, -614530.5, -686625.5, 12304.416, -0.11013842, -0.23876917, -612488.4, -70685.74, 0.0, 9.999932, 9.999 
5.149994e+2, 2.547128e+2, -467631.75, -566844.25, 45533.47, 0.04421417, -0.13670292, -449902.44, -6098.008, 0.0, 10.00027, 9.998987 
5.149914e+2, 2.6471272e+2, -307925.25, -410592.97, 5649.451, 0.102859825, -0.05537886, -307615.3, 38191.18, 0.0, 10.0005865, 9.999234 
5.1498157e+2, 2.7471188e+2, -198065.84, -310259.5, 12517.323, 0.03565976, -0.07756522, -196686.27, 51125.73, 0.0000000018853024, 10.000673, 9.999211 
5.149717e+2, 2.8471014e+2, -186002.47, -380348.75, -16302.87, -0.017282378, -0.11286438, -184644.38, -34814.76, 0.00000034894228, 10.000629, 9.9980755 
5.14962e+2, 2.9470757e+2, -138594.4, -311351.13, -19603.01, -0.02052995, -0.20444547, -136397.95, -84538.984, 0.000004315403, 10.000295, 9.998036 
5.1495564e+2, 3.0470705e+2, -77346.66, -122084.59, 64120.77, 0.16997719, -0.11061284, -31805.068, -31805.068, 0.000026122347, 9.999829, 9.999231 
5.1494753e+2, 3.1470641e+2, -90160.65, 44265.293, -52763.08, 0.02849793, -0.1227505, 62501.285, 62501.285, 0.00008115159, 9.998952, 10.000795 
5.2511007e+2, 1.24727964e+2, -1604839.3, -1735777.5, -148415.83, 0.07235959, -0.05861101, -1508094.1, 209562.78, 0.000041741634, 10.001056, 9.999307 
5.2509874e+2, 1.3472666e+2, -1610794.6, -1701559.3, 98474.81, -0.2777617, -0.15452184, -1547747.9, 71917.63, 0.000010470756, 10.000353, 9.999262 
5.250977e+2, 1.4472525e+2, -1545555.9, -1559058.8, 21228.977, 0.32404226, -0.23602797, -1530030.6, -8353.569, 0.0000009776196, 9.999908, 9.999747 
5.2508473e+2, 1.5472525e+2, -1409901.4, -1438834.0, -67326.22, 0.022954479, -0.24301654, -1355504.8, 68172.055, 0.000000005050013, 10.000151, 9.999785 
5.250741e+2, 1.6472556e+2, -1315961.3, -1396235.8, -698.9932, -0.0905801, -0.16399963, -1315955.1, 9719.404, 0.0, 10.000347, 9.999316 
5.250667e+2, 1.7472598e+2, -1201597.4, -1293747.9, 22419.008, 0.004663305, -0.073371165, -1196432.6, 31239.389, 0.0, 10.000474, 9.999285 
5.2505803e+2, 1.847256e+2, -1142630.4, -1266106.1, 40110.383, -0.0072116815, -0.011199778, -1130744.9, -1065.6143, 0.0, 10.000439, 9.998813 
5.250482e+2, 1.947242e+2, -1091400.4, -1189212.4, 33407.88, -0.13230476, -0.052552365, -1081079.0, -49380.05, 0.0, 10.000116, 9.998821 
5.2504e+2, 2.0472392e+2, -939550.94, -876646.9, 46360.74, -0.11095352, -0.041078914, -852076.2, 81625.98, 0.0, 9.999661, 10.000516 
5.250336e+2, 2.1472478e+2, -929693.94, -813528.8, 31138.092, 0.08111836, -0.033342656, -805708.7, 29979.44, 0.0, 9.999024, 10.000582 
5.250254e+2, 2.2472453e+2, -874482.8, -854459.56, 32255.238, 0.11472861, -0.062018454, -830697.94, -93011.16, 0.0, 9.999244, 9.999523 
5.2501535e+2, 2.3472281e+2, -609320.0, -680619.75, 40395.57, -0.027198957, -0.20366499, -591093.0, 48609.027, 0.0, 10.000408, 9.999487 
5.250067e+2, 2.4472211e+2, -479336.03, -607823.1, 69455.414, -0.059196796, -0.20068417, -448968.34, 92741.43, 0.0, 10.000798, 9.999125 
5.249995e+2, 2.547225e+2, -449861.8, -543440.1, 48686.402, 0.031564105, -0.0949084, -429126.25, 14583.512, 0.0, 10.000328, 9.99912 
5.2499133e+2, 2.6472223e+2, -400673.78, -473915.34, 4337.8076, 0.06789746, -0.0302276, -400417.75, -54703.906, 0.0, 10.000031, 9.9990635 
5.2498186e+2, 2.7472088e+2, -317965.75, -383979.53, -16937.238, 0.039432, -0.088102765, -313873.78, -66148.65, 0.00000000009174081, 9.999931, 9.999054 
5.2497256e+2, 2.8471938e+2, -254754.36, -381461.1, -12754.419, 0.038597576, -0.10812113, -253483.25, -103743.04, 0.00000033351301, 10.000023, 9.998354 
5.249635e+2, 2.947177e+2, -123791.15, -279473.1, 941.7717, 0.100421965, -0.1364865, -123785.45, -72026.336, 0.0000041082662, 10.000281, 9.998263 
5.249564e+2, 3.0471662e+2, -88396.14, -160262.8, 87164.59, 0.27351728, -0.098674044, -30048.664, -30048.664, 0.000024723933, 9.999888, 9.99894 
5.249454e+2, 3.1471476e+2, -117585.99, 51616.42, -55580.113, -0.0511789, -0.20153941, 68240.27, 68240.27, 0.000077842684, 9.998657, 10.000994 
5.351105e+2, 1.2473721e+2, -1558808.1, -1654626.6, -127170.75, -0.04545469, 0.0029924032, -1470821.5, 246746.77, 0.000035627574, 10.001124, 9.999827 
5.3509766e+2, 1.3473494e+2, -1569556.8, -1614475.1, 71514.805, -0.44404933, -0.24566488, -1517057.4, 102524.836, 0.000008273398, 10.000347, 9.999866 
5.350975e+2, 1.4473382e+2, -1597148.8, -1661574.5, 19499.686, 0.27939928, -0.29737884, -1591706.5, -70115.555, 0.00000061502607, 9.999887, 9.999051 
5.350849e+2, 1.5473488e+2, -1461667.0, -1549003.0, -48021.613, 0.0053920513, -0.12881537, -1440427.6, -16842.709, 0.00000000036285042, 10.000158, 9.999026 
5.350741e+2, 1.6473497e+2, -1273404.9, -1300918.0, -5862.46, -0.14699852, -0.062643394, -1272207.8, 53377.05, 0.0, 10.000319, 9.999987 
5.350658e+2, 1.7473392e+2, -1151195.5, -1191537.0, 36646.8, -0.14269406, -0.18764734, -1129535.0, 98057.375, 0.0, 10.00048, 9.9999895 
5.350575e+2, 1.8473347e+2, -1142645.3, -1257155.9, 21082.865, -0.12668495, -0.17559882, -1138887.0, -9288.616, 0.0, 10.0004015, 9.998889 
5.3504896e+2, 1.9473349e+2, -1097853.5, -1193421.9, 31457.67, -0.088270165, -0.07805566, -1088428.4, -56824.508, 0.0, 10.00007, 9.998818 
5.350406e+2, 2.0473303e+2, -965113.7, -910320.44, 14642.493, -0.036316562, -0.0748118, -906652.94, 26955.885, 0.0, 9.999579, 10.000321 
5.350324e+2, 2.1473192e+2, -955813.56, -850034.06, 14764.313, 0.043763027, -0.24624434, -848012.0, -12397.604, 0.0, 9.998943, 10.000371 
5.350245e+2, 2.2473215e+2, -858729.44, -801300.9, 65803.25, 0.08183871, -0.23533909, -758219.75, -20610.621, 0.0, 9.999156, 9.99993 
5.35017e+2, 2.347337e+2, -592688.44, -623523.8, 91977.62, 0.073748164, -0.094539225, -514845.25, 124748.38, 0.0, 10.000313, 9.999923 
5.3500885e+2, 2.447338e+2, -512487.88, -662442.3, 46724.555, 0.0572936, -0.018441986, -499120.5, 42473.92, 0.0, 10.00074, 9.998777 
5.35e+2, 2.5473216e+2, -485398.22, -603754.0, 40872.0, 0.023597544, -0.07758165, -472655.7, -29041.5, 0.0, 10.00027, 9.998734 
5.3499085e+2, 2.647308e+2, -426631.25, -519242.28, -6691.965, -0.0012451783, -0.08376321, -426150.2, -80520.62, 0.0, 9.999993, 9.99877 
5.3498137e+2, 2.7472958e+2, -347766.72, -430261.53, -8467.079, -0.02289253, -0.10667578, -346906.63, -99264.625, 0.0, 9.99986, 9.998773 
5.3497267e+2, 2.847292e+2, -204983.44, -269323.97, -9722.531, 0.026874281, -0.034497272, -203546.36, -53900.227, 0.00000019037492, 9.9999895, 9.99914 
5.349647e+2, 2.9472977e+2, -79276.12, -166745.19, 22995.123, 0.16063571, 0.078816645, -73599.266, -21957.12, 0.0000040138116, 10.000197, 9.999077 
5.34957e+2, 3.0472785e+2, -127834.836, -241436.4, 40790.152, 0.31983534, 0.020473287, -114705.91, -114705.91, 0.000024880646, 9.999871, 9.998395 
5.349433e+2, 3.1472507e+2, -141107.36, -970.96875, -40483.496, -0.1771399, -0.124036126, 9883.426, 9883.426, 0.000077454766, 9.998656, 10.000635 
5.451124e+2, 1.2474553e+2, -1677219.8, -1705203.0, -41461.215, 0.07884797, -0.017542137, -1647453.0, 70035.195, 0.000030309948, 10.000289, 9.999906 
5.450977e+2, 1.3474411e+2, -1573032.3, -1603748.3, -10680.827, -0.4565978, -0.18456592, -1569683.4, 49811.008, 0.000006366235, 10.000276, 9.999979 
5.4509735e+2, 1.4474326e+2, -1590800.0, -1648187.8, -10647.575, 0.28539702, -0.21642447, -1588888.1, -67388.445, 0.00000037085837, 9.99988, 9.999154 
5.4508495e+2, 1.5474372e+2, -1523519.1, -1564264.3, -35847.13, 0.023151949, -0.120323375, -1502660.0, -79162.336, 0.00000000007720086, 9.999673, 9.999155 
5.4507405e+2, 1.6474351e+2, -1386408.8, -1373674.4, 33411.613, -0.14737555, -0.08397569, -1346028.6, -20528.004, 0.0, 9.999637, 9.9998045 
5.450655e+2, 1.7474249e+2, -1280795.8, -1271525.5, -8870.143, -0.17934509, -0.18740673, -1266152.5, -38642.41, 0.0, 9.999685, 9.999813 
5.450573e+2, 1.8474218e+2, -1210119.6, -1225193.5, -35124.273, -0.1399801, -0.17910321, -1181732.8, -52219.03, 0.0, 9.999643, 9.999484 
5.450494e+2, 1.9474258e+2, -1131729.4, -1137263.4, 1626.4731, -0.016139673, -0.11026776, -1131286.8, -99774.78, 0.0, 9.999516, 9.999473 
5.4504114e+2, 2.0474233e+2, -945619.75, -939995.2, 33925.863, 0.051520072, -0.102055974, -908765.25, 24748.842, 0.0, 9.999883, 9.999977 
5.4503244e+2, 2.147412e+2, -723600.1, -777226.1, 7385.5107, 0.07181411, -0.23659585, -722601.56, 112920.73, 0.0, 10.000711, 10.00002 
5.4502445e+2, 2.247412e+2, -631487.94, -696510.4, 51409.465, 0.08736953, -0.22670005, -603172.25, 134347.88, 0.0, 10.000734, 9.99989 
5.4501736e+2, 2.3474236e+2, -661506.44, -662334.56, 25272.895, 0.1008807, -0.12153059, -636644.25, 2864.0217, 0.0, 9.999864, 9.999876 
5.4500926e+2, 2.4474241e+2, -651721.7, -703795.9, -5328.9194, 0.084873416, -0.05925595, -651181.94, -109673.03, 0.0, 9.999669, 9.99901 
5.4500026e+2, 2.547411e+2, -473672.8, -570321.44, 15294.518, 0.031391874, -0.111112796, -471310.22, -27785.41, 0.0, 10.000235, 9.9989805 
5.449911e+2, 2.6473993e+2, -330233.34, -455513.1, 23514.184, 0.0007348445, -0.116785705, -325965.28, 19572.623, 0.0, 10.0005865, 9.9989195 
5.449819e+2, 2.7473873e+2, -208212.11, -345728.34, 36974.457, 0.004670562, -0.1504637, -198901.1, 48648.96, 0.0, 10.000742, 9.99893 
5.4497313e+2, 2.847386e+2, -118894.52, -229706.72, 33674.45, 0.054242123, -0.06722618, -109463.875, 40089.008, 0.00000011177434, 10.000594, 9.999123 
5.449648e+2, 2.9473943e+2, -83664.29, -164357.53, -13832.921, 0.16573197, 0.07992484, -81358.836, -29812.27, 0.0000045059896, 10.000166, 9.9991045 
5.44957e+2, 3.0473718e+2, -94304.47, -205543.3, 1240.2661, 0.33214605, -0.021180987, -94290.64, -94290.64, 0.000026381855, 10.000029, 9.998556 
5.4494375e+2, 3.147354e+2, 38602.97, 83914.305, -37625.66, -0.049718853, -0.078447424, 105178.67, 105178.67, 0.00007890932, 9.999927, 10.000592 
5.551148e+2, 1.24753214e+2, -1689228.5, -1736377.8, 23524.836, 0.25579205, -0.07632409, -1679498.8, 37914.895, 0.000026661139, 10.000329, 9.999665 
5.5509883e+2, 1.3475417e+2, -1600854.6, -1658810.3, -12821.066, -0.397731, 0.031505127, -1598145.0, 21256.72, 0.0000052899522, 10.000276, 9.999599 
5.550972e+2, 1.4475359e+2, -1523683.0, -1513040.5, -33435.21, 0.26343772, 0.00026439963, -1484505.8, 36897.652, 0.00000021782215, 9.999891, 10.000079 
5.550845e+2, 1.5475181e+2, -1451844.0, -1424391.5, -32181.332, -0.01068867, -0.22034657, -1403131.4, 20283.951, 0.00000000000011946363, 9.999699, 10.000111 
5.550735e+2, 1.6475117e+2, -1459998.4, -1522016.3, 27362.146, -0.18576969, -0.22584534, -1449652.3, -124230.18, 0.0, 9.999624, 9.998789 
5.5506533e+2, 1.7475158e+2, -1359796.6, -1431117.6, 1951.7584, -0.1874881, -0.0784802, -1359743.3, -132317.58, 0.0, 9.999667, 9.998727 
5.550573e+2, 1.8475173e+2, -1135633.1, -1057274.9, -47006.402, -0.12108367, -0.026250206, -1035260.8, 94164.82, 0.0, 9.999586, 10.000665 
5.5504936e+2, 1.9475144e+2, -1052331.0, -965742.06, 5480.3867, 0.007359088, -0.14771901, -965396.56, 66026.73, 0.0, 9.999478, 10.000675 
5.550414e+2, 2.0475173e+2, -987002.4, -1007697.9, 57391.008, 0.07113482, -0.12664153, -939033.75, -5615.201, 0.0, 9.999809, 9.999544 
5.550334e+2, 2.1475248e+2, -773740.2, -858932.94, 48010.133, 0.07771568, -0.022743417, -752153.9, 83258.984, 0.0, 10.00061, 9.99951 
5.5502504e+2, 2.2475159e+2, -686122.9, -780749.0, 13166.51, 0.050805315, -0.052935556, -684325.0, 53096.063, 0.0, 10.000615, 9.999367 
5.550161e+2, 2.3474878e+2, -715268.2, -746615.3, 3157.3271, -0.022152824, -0.2901716, -714953.3, -75507.76, 0.0, 9.999747, 9.9993515 
5.5500776e+2, 2.4474801e+2, -606838.7, -595297.44, 8994.711, -0.05486028, -0.31930307, -590381.4, -48929.01, 0.0, 9.9996, 9.999792 
5.55e+2, 2.5474933e+2, -427629.1, -456165.7, 46673.66, -0.03908375, -0.1910371, -393091.5, 50349.938, 0.0, 10.000153, 9.9998045 
5.549919e+2, 2.647495e+2, -294953.66, -373052.25, 22371.857, -0.0019097509, -0.13423935, -288999.1, 56440.586, 0.0, 10.000549, 9.999501 
5.549832e+2, 2.7474833e+2, -180202.72, -272958.22, 52052.516, 0.043932416, -0.22304437, -156864.19, 90585.72, 0.0, 10.000682, 9.999458 
5.549739e+2, 2.8474733e+2, -178920.44, -351065.78, 9651.851, 0.047030196, -0.206188, -178380.97, -28919.877, 0.00000024371042, 10.000574, 9.9983015 
5.5496365e+2, 2.947465e+2, -146582.31, -287406.1, -18273.38, 0.005084054, -0.14552692, -144249.78, -92775.37, 0.0000058589785, 10.000125, 9.998283 
5.54956e+2, 3.0474445e+2, -40446.234, -90356.43, -6032.8354, 0.21299496, -0.22590989, -39727.38, -39727.38, 0.000029984647, 10.000013, 9.999353 
5.5494636e+2, 3.147454e+2, 45159.973, 107495.195, -585.8913, 0.17153491, -0.092077315, 107500.7, 107500.7, 0.00008416486, 9.999872, 10.000786 
5.651161e+2, 1.2476108e+2, -1456951.6, -1623709.0, 112355.51, 0.28296378, -0.12107621, -1400416.9, 316918.47, 0.000022362587, 10.001903, 9.999674 
5.651002e+2, 1.3476288e+2, -1632489.8, -1680140.1, -35112.63, -0.26248464, 0.06791874, -1613882.3, 5434.5947, 0.000004259607, 10.000066, 9.99955 
5.650976e+2, 1.447624e+2, -1624504.4, -1550920.8, -6297.516, 0.3517707, 0.04557615, -1550385.8, -29067.936, 0.00000013010742, 9.999161, 10.00017 
5.650844e+2, 1.5476003e+2, -1433787.9, -1397888.8, -83670.39, 0.013399893, -0.24166009, -1330264.3, 93069.47, 0.0, 9.999763, 10.000256 
5.650735e+2, 1.6475937e+2, -1422295.4, -1498466.1, -11367.947, -0.15265608, -0.26254237, -1420635.0, -95294.445, 0.0, 9.999844, 9.998857 
5.6506616e+2, 1.7476027e+2, -1399827.6, -1440101.9, 30234.56, -0.049969245, -0.07541598, -1383638.0, -156297.97, 0.0, 9.999338, 9.998826 
5.65058e+2, 1.8476062e+2, -1145511.9, -1038371.25, 27279.283, 0.001234185, -0.017568488, -1031825.56, 97511.88, 0.0, 9.999422, 10.000868 
5.650488e+2, 1.9476026e+2, -947403.5, -885686.7, -7902.4053, -0.021410061, -0.16767956, -884690.9, 146643.0, 0.0, 10.000085, 10.000921 
5.650408e+2, 2.0476049e+2, -935984.94, -1017171.56, 26901.451, 0.01566927, -0.15167128, -927880.1, 5449.9844, 0.0, 10.000306, 9.999239 
5.6503433e+2, 2.1476123e+2, -883975.56, -943312.94, 13131.47, 0.14248885, -0.019113475, -881199.44, -45872.21, 0.0, 9.999998, 9.999219 
5.6502587e+2, 2.2476041e+2, -781747.7, -802229.25, 6824.156, 0.12053826, -0.038073026, -779682.25, -42346.78, 0.0, 9.9998455, 9.999591 
5.6501544e+2, 2.3475775e+2, -687259.75, -702221.9, 39227.68, -0.05963784, -0.28684208, -654806.1, -15448.682, 0.0, 9.999807, 9.999621 
5.6500703e+2, 2.4475719e+2, -569083.25, -525275.5, 101392.15, -0.08862432, -0.33075842, -443448.25, 97912.81, 0.0, 9.999664, 10.000226 
5.650007e+2, 2.547587e+2, -496083.7, -442411.9, 91130.21, 0.057982888, -0.22428218, -374248.44, 69098.6, 0.0, 9.999495, 10.000211 
5.6499285e+2, 2.647593e+2, -450351.1, -427653.16, 50946.387, 0.105318256, -0.15424435, -386806.97, -41465.84, 0.0, 9.9993925, 9.999683 
5.6498307e+2, 2.7475885e+2, -357737.97, -333163.8, 34830.633, 0.037157986, -0.1885536, -308516.56, -61171.656, 0.0, 9.999362, 9.999673 
5.6497324e+2, 2.8475773e+2, -351240.22, -437458.63, 20454.486, -0.0097160265, -0.19635782, -346633.7, -197276.14, 0.00000046127252, 9.999394, 9.99828 
5.6496316e+2, 2.947558e+2, -237516.38, -335764.78, 39331.527, -0.015274624, -0.2402596, -223710.8, -172330.25, 0.000007820285, 9.999511, 9.998251 
5.649559e+2, 3.0475408e+2, -68788.12, -99557.984, 85352.195, 0.21327184, -0.2885329, 2554.648, 2554.648, 0.00003595913, 9.999802, 9.9993925 
5.6494725e+2, 3.1475627e+2, 46352.52, 74533.28, 2998.4348, 0.27791142, -0.035721563, 74848.78, 74848.78, 0.000094486146, 10.000034, 10.000476 
5.751158e+2, 1.2476899e+2, -1434873.4, -1580688.3, 94502.8, 0.0127226515, -0.1705339, -1388423.0, 328831.7, 0.000015098279, 10.001918, 9.999953 
5.7510155e+2, 1.3477018e+2, -1612105.9, -1640365.5, -107296.13, -0.15376571, -0.07099706, -1518013.1, 101227.055, 0.0000026568694, 10.000073, 9.999816 
5.7509804e+2, 1.4476973e+2, -1673488.1, -1652182.5, -1716.1263, 0.45681077, -0.069945, -1652045.1, -130802.86, 0.000000050157187, 9.999164, 9.999474 
5.750844e+2, 1.5476836e+2, -1485515.8, -1505080.9, -51179.605, 0.01413501, -0.1859771, -1443192.1, -19938.334, 0.0, 9.999765, 9.999521 
5.750738e+2, 1.6476797e+2, -1337067.5, -1319748.3, -40016.434, -0.1259295, -0.20125024, -1287465.3, 37792.016, 0.0, 9.99983, 10.00009 
5.7506764e+2, 1.7476846e+2, -1314519.9, -1261331.5, 19135.93, 0.1454137, -0.18124782, -1255162.4, -27908.729, 0.0, 9.999325, 10.000061 
5.75059e+2, 1.847689e+2, -1198233.0, -1137789.0, 44855.08, 0.14016691, -0.14624254, -1113924.5, 15324.067, 0.0, 9.999386, 10.0002 
5.750475e+2, 1.9476905e+2, -1007453.6, -995586.7, 26528.11, -0.18813132, -0.16966633, -974336.56, 56907.496, 0.0, 10.000024, 10.000197 
5.750393e+2, 2.0476863e+2, -961529.94, -1046945.4, 7253.16, -0.1866942, -0.17412867, -960918.4, -27669.484, 0.0, 10.000206, 9.999081 
5.7503486e+2, 2.1476743e+2, -911631.9, -975377.5, 9737.231, 0.18068828, -0.22074021, -910177.7, -74912.42, 0.0, 9.999888, 9.999052 
5.750269e+2, 2.2476766e+2, -718804.0, -650467.94, -2697.4233, 0.21779253, -0.17947425, -650361.6, 86901.836, 0.0, 9.999753, 10.000677 
5.75015e+2, 2.3476928e+2, -625193.2, -550248.1, 47335.113, -0.10431184, -0.10902846, -527348.5, 111895.16, 0.0, 9.999706, 10.000715 
5.750067e+2, 2.4476984e+2, -572022.9, -527225.6, 86464.99, -0.104009986, -0.0985528, -460305.2, 80930.78, 0.0, 9.999633, 10.000234 
5.7500225e+2, 2.547691e+2, -506475.03, -448946.47, 94206.586, 0.24138658, -0.21524279, -379210.66, 64032.27, 0.0, 9.999425, 10.000202 
5.749939e+2, 2.6476926e+2, -463978.22, -454463.72, 41797.555, 0.2509977, -0.18017186, -417153.56, -71910.984, 0.0, 9.999374, 9.999513 
5.749812e+2, 2.747703e+2, -374610.44, -361820.13, 39918.89, -0.11560157, -0.050716396, -327787.38, -80551.41, 0.0, 9.999318, 9.999504 
5.7497084e+2, 2.8476974e+2, -300436.84, -316713.9, 15289.302, -0.20680681, -0.033633403, -291254.9, -142012.27, 0.0000006054728, 9.999332, 9.999139 
5.7496315e+2, 2.9476744e+2, -186582.83, -213414.48, 56532.926, 0.009059623, -0.20198551, -141895.67, -90631.09, 0.000009307056, 9.999447, 9.999119 
5.749563e+2, 3.0476618e+2, -121795.945, -213204.28, 91775.414, 0.25637078, -0.210193, -64974.027, -64974.027, 0.000040671366, 9.999802, 9.998623 
5.74946e+2, 3.1476772e+2, -14899.944, -51304.582, 34781.883, 0.09862013, 0.057888556, 6154.631, 6154.631, 0.000103750725, 10.000009, 9.999636 
5.85116e+2, 1.2477789e+2, -1641619.0, -1675384.5, 170385.28, -0.06946267, -0.1575409, -1487282.1, 229881.83, 0.000008007214, 10.000448, 10.000025 
5.851027e+2, 1.3477808e+2, -1498574.5, -1572108.5, -139415.31, -0.08487655, -0.16527905, -1391159.5, 227998.72, 0.0000012151539, 10.0007925, 9.999941 
5.8509773e+2, 1.4477746e+2, -1454560.4, -1564073.3, 44871.93, 0.43558988, -0.1776157, -1438523.1, 82639.47, 0.000000012980553, 10.000749, 9.999303 
5.8508474e+2, 1.54777e+2, -1349865.0, -1459446.3, 17920.262, 0.02352349, -0.18794891, -1347008.9, 76158.914, 0.0, 10.000779, 9.999336 
5.8507425e+2, 1.6477686e+2, -1248890.3, -1245972.5, -4279.443, -0.08418922, -0.1838653, -1242910.0, 82258.57, 0.0, 10.000301, 10.000364 
5.850677e+2, 1.7477691e+2, -1295878.0, -1215425.1, -34238.9, 0.22159767, -0.23873125, -1202826.6, 24339.387, 0.0, 9.999296, 10.000384 
5.850589e+2, 1.8477714e+2, -1254942.9, -1204959.0, 38611.145, 0.20441289, -0.2247234, -1183957.3, -54794.39, 0.0, 9.9991665, 9.99985 
5.850474e+2, 1.9477735e+2, -1045040.9, -1054579.0, 29909.58, -0.18032596, -0.2045588, -1019522.56, 11638.274, 0.0, 9.999939, 9.999838 
5.8503914e+2, 2.04777e+2, -945094.94, -1002314.75, 22150.758, -0.21110228, -0.19992174, -937522.25, -4356.772, 0.0, 10.000154, 9.999414 
5.8503443e+2, 2.1477589e+2, -902829.4, -931963.0, 48060.656, 0.15622379, -0.27521136, -867176.44, -31997.723, 0.0, 9.999772, 9.999412 
5.850266e+2, 2.2477642e+2, -767876.94, -663139.6, 40053.547, 0.23869486, -0.22754942, -649578.3, 87595.45, 0.0, 9.999383, 10.00077 
5.850154e+2, 2.347785e+2, -721751.2, -591005.2, -6344.2417, 0.00951914, -0.11694565, -590698.06, 48452.965, 0.0, 9.999016, 10.000775 
5.8500683e+2, 2.4477912e+2, -672677.0, -583313.5, 19966.818, -0.013585467, -0.09633694, -579055.1, -37912.004, 0.0, 9.998967, 10.000171 
5.8500105e+2, 2.5477815e+2, -514192.28, -459089.84, 8890.095, 0.18739328, -0.23378694, -457691.03, -14538.876, 0.0, 9.9993925, 10.000146 
5.849926e+2, 2.6477826e+2, -442592.7, -422774.9, -25795.861, 0.18445258, -0.21095675, -405050.28, -59897.66, 0.0, 9.999443, 9.999692 
5.8498114e+2, 2.747794e+2, -381887.97, -346108.66, -17084.89, -0.04122088, -0.082631014, -339261.0, -92115.586, 0.0, 9.999195, 9.999669 
5.849712e+2, 2.847793e+2, -227350.11, -252978.22, -1957.0269, -0.11782085, -0.04408264, -227201.53, -78053.305, 0.00000055145284, 9.999717, 9.999386 
5.849631e+2, 2.9477775e+2, 50860.332, -74377.375, -26616.963, -0.012400156, -0.16116853, 56282.523, 107444.75, 0.000008783807, 10.000976, 9.999334 
5.8495617e+2, 3.0477655e+2, 81690.234, -149548.8, -13543.655, 0.1925708, -0.15798894, 82480.78, 82480.78, 0.000039667964, 10.0013485, 9.998303 
5.8494586e+2, 3.1477702e+2, 73748.875, -31220.256, -65433.87, 0.0580588, 0.027829703, 105146.5, 105146.5, 0.00010388018, 10.00072, 9.999415 
5.951167e+2, 1.24787554e+2, -1631847.1, -1656573.1, 196882.28, -0.10406566, -0.09000728, -1446940.1, 270125.16, 0.0000033726953, 10.000474, 10.000134 
5.9510314e+2, 1.3478656e+2, -1500018.4, -1572686.9, -127607.97, -0.13174902, -0.2178915, -1403672.6, 215398.36, 0.00000044999516, 10.000791, 9.999937 
5.9509635e+2, 1.4478561e+2, -1430954.1, -1510295.6, 31801.266, 0.19791259, -0.28377262, -1419781.1, 101297.5, 0.000000014541682, 10.000729, 9.99968 
5.9508497e+2, 1.5478599e+2, -1328740.4, -1412627.0, 26062.941, -0.05065385, -0.24519442, -1321302.3, 101773.5, 0.0, 10.000765, 9.999665 
5.9507453e+2, 1.6478612e+2, -1297147.8, -1336689.8, -51080.75, -0.10868347, -0.19893683, -1262145.3, 62928.945, 0.0, 10.000267, 9.999758 
5.9506595e+2, 1.7478567e+2, -1339152.1, -1303415.6, -63107.715, 0.10127289, -0.2411243, -1255695.3, -28618.516, 0.0, 9.999292, 9.999783 
5.950573e+2, 1.8478535e+2, -1259163.9, -1210700.9, 56861.164, 0.11395918, -0.24923857, -1173123.4, -44043.223, 0.0, 9.999151, 9.999819 
5.950485e+2, 1.9478509e+2, -1056597.6, -1064011.3, 66993.5, -0.09552879, -0.2775034, -993208.5, 37876.582, 0.0, 9.999876, 9.9998045 
5.9504014e+2, 2.0478557e+2, -893177.5, -875511.2, 659.42053, -0.14522591, -0.23261869, -875486.6, 57593.84, 0.0, 10.000071, 10.000326 
5.9503263e+2, 2.1478663e+2, -852150.2, -804658.8, 43175.266, -0.010738942, -0.17856127, -779130.2, 55937.145, 0.0, 9.999678, 10.000333 
5.950248e+2, 2.2478668e+2, -844062.3, -806513.8, 16975.33, 0.10460356, -0.17981945, -799977.3, -62911.316, 0.0, 9.999313, 9.999822 
5.950165e+2, 2.3478536e+2, -806572.3, -745062.56, -11558.022, 0.19368394, -0.30972493, -742962.44, -103882.78, 0.0, 9.998916, 9.999769 
5.950071e+2, 2.4478509e+2, -685816.06, -603332.4, 27771.697, 0.095320955, -0.3252826, -594853.44, -53770.758, 0.0, 9.998927, 10.000056 
5.9499675e+2, 2.5478584e+2, -529947.6, -475548.9, 31684.371, -0.2002151, -0.2782505, -460990.6, -17915.793, 0.0, 9.999318, 10.000072 
5.9498864e+2, 2.647863e+2, -412980.34, -350250.6, -43149.336, -0.17641953, -0.24240011, -328271.1, 16799.832, 0.0, 9.9994, 10.000211 
5.949827e+2, 2.7478626e+2, -355011.84, -275731.22, -15269.169, 0.17287292, -0.29004318, -272892.13, -25818.473, 0.0, 9.999133, 10.000183 
5.9497404e+2, 2.8478637e+2, -260928.63, -314112.25, 36209.06, 0.17440754, -0.23429562, -242595.83, -93521.12, 0.0000003359344, 9.999681, 9.9989805 
5.949626e+2, 2.9478663e+2, 11646.144, -139150.83, 28048.21, -0.18046485, -0.13052137, 16694.123, 67768.65, 0.000006914508, 10.000908, 9.998917 
5.949552e+2, 3.047851e+2, 81504.34, -142499.25, -42651.305, -0.061676353, -0.14165437, 89350.516, 89350.516, 0.000035638073, 10.001315, 9.998372 
5.9494627e+2, 3.1478417e+2, 90088.16, 23651.73, -60484.734, -0.022329403, -0.1045412, 125876.12, 125876.12, 0.00009897654, 10.000633, 9.999834 
6.051175e+2, 1.2479585e+2, -1790918.3, -1751700.9, 256043.14, -0.012952193, -0.17142114, -1514516.6, 202459.86, 0.0000011578151, 9.99945, 9.9999895 
6.051041e+2, 1.3479483e+2, -1644452.1, -1641512.1, -126476.16, -0.06440668, -0.29529187, -1516497.4, 102487.72, 0.00000014603442, 9.999818, 9.999922 
6.050954e+2, 1.4479429e+2, -1537123.3, -1518174.5, 43132.34, 0.08036136, -0.3383746, -1483488.3, 37501.887, 0.0000000031309833, 9.9998045, 10.000084 
6.0508555e+2, 1.5479563e+2, -1445519.0, -1420769.6, 20083.703, -0.0075524473, -0.24104892, -1409554.4, 13423.295, 0.0, 9.999755, 10.000104 
6.050753e+2, 1.647958e+2, -1349330.0, -1401764.0, -29773.113, -0.04174101, -0.19724804, -1335876.3, -10900.781, 0.0, 10.000067, 9.9994135 
6.050652e+2, 1.747944e+2, -1157952.1, -1259275.6, -39745.242, 0.03073924, -0.29892322, -1144222.1, 82765.125, 0.0, 10.000712, 9.999409 
6.050566e+2, 1.8479373e+2, -1078980.3, -1170760.3, 92925.09, 0.056230307, -0.3024372, -1021231.6, 107763.52, 0.0, 10.000596, 9.999393 
6.050493e+2, 1.9479373e+2, -1116627.1, -1138987.4, 56552.223, 0.021819439, -0.26151127, -1070160.5, -39160.527, 0.0, 9.999662, 9.99939 
6.050409e+2, 2.047942e+2, -989016.4, -881176.94, -28912.846, -0.032270033, -0.21373214, -873914.2, 59080.777, 0.0, 9.999243, 10.00069 
6.0503125e+2, 2.1479496e+2, -878900.25, -774651.8, -44572.195, -0.09752189, -0.22816859, -758193.1, 76788.516, 0.0, 9.999309, 10.000716 
6.050232e+2, 2.2479476e+2, -799458.75, -859344.94, -41970.047, -0.013965823, -0.24165606, -777845.3, -40862.45, 0.0, 9.999939, 9.999155 
6.050168e+2, 2.3479329e+2, -520540.94, -677178.44, -62824.945, 0.23168409, -0.31976008, -498456.5, 140545.17, 0.0, 10.001194, 9.999128 
6.0500765e+2, 2.447929e+2, -415097.7, -474034.53, -37756.965, 0.16008863, -0.31223002, -396670.66, 144336.94, 0.0, 10.000817, 10.000026 
6.049953e+2, 2.547935e+2, -616717.2, -518665.78, -46913.176, -0.24613266, -0.27613047, -499836.0, -56834.984, 0.0, 9.998743, 10.00005 
6.0498697e+2, 2.647938e+2, -528918.7, -407180.25, -62791.434, -0.23700443, -0.2553528, -380597.63, -35599.17, 0.0, 9.998592, 10.000218 
6.0498285e+2, 2.7479365e+2, -157662.28, -180773.45, -90079.42, 0.2165201, -0.31275782, -78400.28, 168601.47, 0.0, 10.000472, 10.000199 
6.049748e+2, 2.8479406e+2, -112609.016, -219443.7, -54831.31, 0.24313596, -0.23811315, -89476.47, 59523.234, 0.00000016006682, 10.000591, 9.999198 
6.0496265e+2, 2.9479507e+2, -272338.06, -251716.5, -34800.406, -0.15640846, -0.08215292, -225731.55, -174739.11, 0.0000052467194, 9.998838, 9.999148 
6.049552e+2, 3.0479318e+2, -281919.06, -292083.16, -27571.424, -0.051146947, -0.15216118, -258965.22, -258965.22, 0.000031333126, 9.998718, 9.998596 
6.049467e+2, 3.1479168e+2, 39781.742, -471.3388, -63813.484, -0.018935192, -0.18661572, 86567.375, 86567.375, 0.000092264556, 10.000286, 9.999849 
6.15118e+2, 1.24802984e+2, -1802781.6, -1780127.6, 228528.66, 0.048963986, -0.3822859, -1562645.5, 154250.23, 0.00000031033701, 9.999478, 9.999771 
6.15105e+2, 1.3480294e+2, -1653242.5, -1660431.1, -109177.4, 0.025148606, -0.39328536, -1547600.3, 71300.055, 0.000000018009526, 9.999832, 9.99978 
6.1509454e+2, 1.4480343e+2, -1501876.9, -1455401.1, 23591.135, -0.011360307, -0.34567016, -1445525.0, 75372.766, 0.0, 9.999837, 10.000503 
6.150863e+2, 1.5480587e+2, -1406969.9, -1355235.8, 25124.55, 0.06257486, -0.18520033, -1345042.4, 77831.62, 0.0, 9.9998, 10.000539 
6.1507624e+2, 1.6480586e+2, -1358459.4, -1411913.0, -15811.85, 0.025674356, -0.17882311, -1354132.5, -29259.465, 0.0, 10.000037, 9.999355 
6.1506516e+2, 1.74803e+2, -1164611.9, -1274977.1, -7061.0117, -0.064515956, -0.41576844, -1164162.0, 62736.414, 0.0, 10.000717, 9.9993 
6.1505634e+2, 1.8480219e+2, -1143750.1, -1290940.6, 50489.902, -0.045783043, -0.3897538, -1128095.8, 813.02625, 0.0, 10.000537, 9.998594 
6.1504984e+2, 1.9480339e+2, -1182492.3, -1265035.3, 30728.252, 0.089050226, -0.14769888, -1172309.3, -141404.67, 0.0, 9.999616, 9.998549 
6.15041e+2, 2.0480306e+2, -1010670.56, -908734.1, -35411.785, 0.043173093, -0.12814456, -897639.9, 35268.01, 0.0, 9.999169, 10.000534 
6.150299e+2, 2.1480094e+2, -905664.3, -807554.2, -34485.027, -0.18716335, -0.4190596, -796645.8, 38275.26, 0.0, 9.999208, 10.00054 
6.1502147e+2, 2.2480069e+2, -837364.06, -917364.8, -2017.4208, -0.19349535, -0.40917087, -837313.25, -100389.46, 0.0, 9.999846, 9.998802 
6.150163e+2, 2.3480234e+2, -559506.0, -735832.9, -6035.535, 0.040640507, -0.1410261, -559299.6, 79616.766, 0.0, 10.001095, 9.998775 
6.15008e+2, 2.4480255e+2, -422578.13, -477669.13, -123011.74, 0.09850531, -0.056776017, -324065.53, 216852.77, 0.0, 10.000763, 10.000027 
6.149963e+2, 2.54801e+2, -628001.94, -528186.75, -118235.266, -0.03581465, -0.23757288, -449757.5, -6825.535, 0.0, 9.998678, 10.000016 
6.149874e+2, 2.648007e+2, -570051.2, -482560.78, -2413.5698, -0.07407213, -0.2514526, -482494.25, -137558.58, 0.0, 9.998551, 9.999718 
6.149812e+2, 2.748016e+2, -206016.36, -260071.14, -8075.3887, -0.015683996, -0.15357947, -204835.75, 42094.21, 0.0, 10.000387, 9.999691 
6.149731e+2, 2.8480244e+2, -60499.45, -102120.555, -128729.63, -0.0066177216, -0.051315907, 49090.914, 198013.83, 0.00000012615395, 10.00055, 10.000023 
6.149629e+2, 2.9480314e+2, -222764.9, -124859.92, -93171.84, -0.040999398, -0.0151676135, -68563.48, -17648.389, 0.000004351736, 9.998741, 10.000062 
6.149561e+2, 3.048009e+2, -266984.97, -254112.72, 23744.094, 0.13869905, -0.18297896, -235947.9, -235947.9, 0.000027327982, 9.998682, 9.998883 
6.1494637e+2, 3.1479967e+2, 550.10187, -61196.066, 36659.816, -0.12179375, -0.2109976, 17604.979, 17604.979, 0.00008383067, 10.0002, 9.999476 
6.2511784e+2, 1.2481111e+2, -1733017.5, -1773894.8, 223713.33, 0.06913909, -0.48463076, -1528811.1, 187999.42, 0.000000031381585, 10.000057, 9.99955 
6.2510604e+2, 1.3481162e+2, -1538229.9, -1623347.5, -116365.984, 0.11038618, -0.42093676, -1456884.3, 161928.2, 0.000000000001578113, 10.000677, 9.999644 
6.250941e+2, 1.448123e+2, -1406561.9, -1406393.6, -2524.0615, -0.064369336, -0.3491624, -1403952.3, 116856.78, 0.0, 10.000485, 10.000521 
6.2508637e+2, 1.5481436e+2, -1387955.9, -1338785.0, -46665.5, 0.09009268, -0.23001178, -1310624.8, 112163.08, 0.0, 9.999925, 10.000575 
6.250767e+2, 1.6481432e+2, -1354009.5, -1438278.3, -48099.45, 0.066518925, -0.21782877, -1332199.6, -7411.8975, 0.0, 10.000193, 9.999101 
6.250659e+2, 1.7481183e+2, -1116156.8, -1273243.6, -74509.85, -0.085204355, -0.3951042, -1086437.6, 140374.5, 0.0, 10.001166, 9.999086 
6.250568e+2, 1.848109e+2, -1038749.25, -1240502.8, -40195.863, -0.07966949, -0.36832246, -1031035.9, 97787.54, 0.0, 10.001238, 9.998611 
6.250497e+2, 1.9481146e+2, -1086117.0, -1213358.5, -12242.195, 0.08350039, -0.1960328, -1084949.9, -54127.266, 0.0, 10.000247, 9.998601 
6.250409e+2, 2.0481081e+2, -917240.1, -949986.5, 1804.709, 0.06435861, -0.1749367, -917140.94, 15688.8125, 0.0, 10.000176, 9.999768 
6.2503046e+2, 2.1480861e+2, -687974.06, -784419.8, -58396.688, -0.134308, -0.39388528, -660463.06, 174384.67, 0.0, 10.001061, 9.9998045 
6.250219e+2, 2.2480835e+2, -703054.56, -814354.8, -36828.695, -0.17383575, -0.3658785, -691971.7, 44879.66, 0.0, 10.000608, 9.99914 
6.250154e+2, 2.3480995e+2, -882112.94, -852708.75, -4500.053, -0.03637983, -0.13661858, -852035.5, -213194.13, 0.0, 9.998712, 9.999122 
6.250071e+2, 2.4481024e+2, -742943.1, -667813.3, -77516.17, 0.03946418, -0.04695557, -619239.5, -78397.04, 0.0, 9.998698, 9.999726 
6.249969e+2, 2.5480893e+2, -348113.78, -425983.78, -111254.586, 0.05279562, -0.17061792, -269178.03, 173678.89, 0.0, 10.000734, 9.999731 
6.2498796e+2, 2.6480862e+2, -223445.2, -317264.34, 27222.568, 0.019689402, -0.17263958, -216118.48, 128742.93, 0.0, 10.000936, 9.999704 
6.249804e+2, 2.748091e+2, -390137.16, -349778.47, 39836.33, -0.06498815, -0.11725724, -325302.03, -78444.66, 0.0, 9.999121, 9.999683 
6.249719e+2, 2.8480956e+2, -317871.38, -231110.61, -83010.234, -0.08522968, -0.04654159, -180829.06, -31975.975, 0.000000116905284, 9.998809, 9.999978 
6.249625e+2, 2.9481e+2, -21518.457, -38070.477, -137373.31, -0.014053882, -0.030150184, 107827.914, 158677.28, 0.000004287332, 10.000152, 9.9999895 
6.249562e+2, 3.0480838e+2, 54149.83, -21489.082, 1941.7129, 0.20136657, -0.16777647, 54199.64, 54199.64, 0.000025852014, 10.0005665, 9.999564 
6.249469e+2, 3.148076e+2, -29116.455, -50080.434, 29564.078, -0.06348999, -0.22020906, -8231.155, -8231.155, 0.00007867894, 9.999887, 9.999696 
6.3511676e+2, 1.2482e+2, -1736799.1, -1794231.0, 161800.19, -0.10196318, -0.49432528, -1601186.4, 115536.336, 0.0000000061075784, 10.000116, 9.99938 
6.351068e+2, 1.3482086e+2, -1550810.8, -1649612.8, -95095.086, 0.10501907, -0.3825232, -1493050.5, 125671.64, 0.0, 10.000675, 9.999468 
6.350938e+2, 1.4482099e+2, -1429493.6, -1448498.5, -35611.387, -0.16814834, -0.34203088, -1402138.8, 118584.695, 0.0, 10.000465, 10.00024 
6.3508564e+2, 1.5482116e+2, -1403421.6, -1383735.4, -54913.277, 0.00085941, -0.37983352, -1337790.0, 84928.68, 0.0, 9.99997, 10.00025 
6.3507646e+2, 1.648211e+2, -1386709.8, -1502673.9, -22134.55, -0.00059895456, -0.32887965, -1382628.5, -57908.18, 0.0, 10.000179, 9.998663 
6.3506705e+2, 1.7482074e+2, -1146870.9, -1340279.9, -29269.598, -0.11358869, -0.24911356, -1142538.4, 84191.19, 0.0, 10.001169, 9.998631 
6.3505775e+2, 1.8481974e+2, -984275.4, -1115489.3, -83459.01, -0.13494194, -0.25025362, -943723.56, 185016.75, 0.0, 10.001192, 9.999489 
6.350485e+2, 1.9481786e+2, -1030713.4, -1088500.4, -42032.332, -0.07669091, -0.41111773, -1008601.5, 22153.395, 0.0, 10.000202, 9.99948 
6.3504016e+2, 2.048173e+2, -1024824.94, -1148829.3, 24723.945, -0.040520016, -0.35950384, -1020077.25, -87315.59, 0.0, 10.000073, 9.998452 
6.350328e+2, 2.1481799e+2, -800173.94, -987835.9, -15461.768, -0.02504168, -0.15468568, -798908.56, 35853.176, 0.0, 10.000936, 9.998468 
6.35024e+2, 2.2481768e+2, -647532.8, -675772.1, -113707.72, -0.037643418, -0.114148386, -547071.44, 189694.8, 0.0, 10.000504, 10.000144 
6.3501376e+2, 2.3481604e+2, -823592.8, -708534.4, -65437.38, -0.08672518, -0.3146143, -678933.44, -40156.035, 0.0, 9.99861, 10.000163 
6.350046e+2, 2.4481595e+2, -794139.56, -758883.94, -10421.279, -0.09912701, -0.28575367, -756033.94, -215253.64, 0.0, 9.998635, 9.999129 
6.3499665e+2, 2.5481737e+2, -403282.97, -523677.13, -26209.936, -0.06772502, -0.07640297, -397824.5, 44951.19, 0.0, 10.00066, 9.999098 
6.349886e+2, 2.6481757e+2, -200578.44, -253436.44, -47796.926, -0.033356436, -0.015211317, -172390.23, 172385.42, 0.0, 10.000873, 10.000169 
6.3498026e+2, 2.748162e+2, -373320.34, -287337.88, -19410.256, -0.014150086, -0.1952325, -283159.16, -36375.824, 0.0, 9.999011, 10.000162 
6.349711e+2, 2.8481552e+2, -386984.88, -365076.1, -45215.69, -0.071559206, -0.22171316, -329506.75, -180716.61, 0.0000001448745, 9.998768, 9.99908 
6.3496125e+2, 2.9481566e+2, -102769.664, -183718.13, -75071.8, -0.18611926, -0.13341248, -57956.51, -7161.5283, 0.000005079309, 10.000069, 9.999023 
6.349553e+2, 3.0481574e+2, 122161.75, 111769.945, -26921.889, 0.028702555, -0.094712056, 144384.55, 144384.55, 0.000027855136, 10.000581, 10.000481 
6.3494754e+2, 3.1481546e+2, -2015.9443, 32505.316, 53614.23, -0.040537048, -0.20383549, 71568.88, 71568.88, 0.00008145653, 9.999768, 10.000323 
6.451162e+2, 1.24828964e+2, -1824207.0, -1793693.4, 68792.74, -0.11345063, -0.39839858, -1738485.9, -21844.31, 0.0000000021671396, 9.999326, 9.999768 
6.451077e+2, 1.3483018e+2, -1623789.0, -1632534.8, -114732.94, 0.16787298, -0.2939407, -1513345.6, 105287.98, 0.0, 9.999978, 9.999902 
6.4509416e+2, 1.4483002e+2, -1455144.0, -1510986.1, -35960.44, -0.17426482, -0.2821735, -1437537.6, 83098.11, 0.0, 10.000505, 9.999797 
6.4508647e+2, 1.5482856e+2, -1289892.1, -1376960.6, -88136.9, 0.04283196, -0.4361636, -1235124.0, 187523.25, 0.0, 10.000959, 9.999822 
6.450774e+2, 1.6482835e+2, -1271607.9, -1415158.1, -11429.736, 0.047926087, -0.39448065, -1270703.6, 53946.992, 0.0, 10.000831, 9.998953 
6.4506763e+2, 1.7482936e+2, -1280626.3, -1367958.3, 23564.309, -0.1064701, -0.20681798, -1274673.8, -48027.945, 0.0, 10.000097, 9.998957 
6.450581e+2, 1.8482867e+2, -1143259.0, -1191113.5, -25297.254, -0.15335175, -0.19401261, -1132365.8, -3713.3105, 0.0, 10.000095, 9.999498 
6.4504874e+2, 1.9482592e+2, -943332.7, -1043479.8, -68027.734, -0.09617174, -0.44278562, -908936.5, 121737.42, 0.0, 10.0008, 9.999496 
6.450405e+2, 2.0482512e+2, -936661.94, -1119178.8, 30801.875, -0.039155565, -0.41130325, -931603.94, 1078.8815, 0.0, 10.000735, 9.998334 
6.450336e+2, 2.1482624e+2, -982349.25, -1094023.0, 62570.766, 0.027061986, -0.15077624, -954324.0, -119643.984, 0.0, 9.99976, 9.998305 
6.450245e+2, 2.2482584e+2, -754213.8, -707594.5, -20281.523, 0.008317882, -0.11645164, -700006.25, 36678.17, 0.0, 9.999678, 10.000327 
6.450131e+2, 2.3482364e+2, -526919.75, -543281.44, -57434.24, -0.10213012, -0.39650303, -477086.66, 161611.7, 0.0, 10.000545, 10.000365 
6.450036e+2, 2.4482323e+2, -569061.94, -704451.44, 23540.879, -0.14703594, -0.38514382, -565085.56, -24381.719, 0.0, 10.000421, 9.998645 
6.449961e+2, 2.5482467e+2, -642675.1, -691013.8, 4772.102, -0.11111756, -0.123092405, -642208.5, -199507.36, 0.0, 9.9992485, 9.998628 
6.449884e+2, 2.6482487e+2, -499120.72, -405817.5, -52488.58, -0.03356023, -0.034543358, -382245.03, -37543.066, 0.0, 9.998849, 10.000103 
6.449805e+2, 2.7482346e+2, -332757.56, -274946.9, -85082.33, 0.09666869, -0.21253549, -213993.89, 32715.639, 0.000000000000000000046744374, 9.99931, 10.000111 
6.449714e+2, 2.8482231e+2, -303572.34, -388972.13, -48084.566, 0.04468467, -0.25371656, -281965.13, -133244.05, 0.00000034821963, 9.999615, 9.998507 
6.449611e+2, 2.948215e+2, -205192.45, -305383.75, -72128.32, -0.17934273, -0.2066873, -167469.72, -116732.65, 0.0000068469953, 9.999656, 9.998394 
6.44955e+2, 3.0482227e+2, -32066.158, 52378.016, -62159.254, 0.0042625936, -0.06840007, 85298.98, 85298.98, 0.00003364889, 9.999478, 10.000588 
6.4494777e+2, 3.1482214e+2, -56560.85, 58237.277, -72756.36, 0.049699616, -0.18156607, 93510.43, 93510.43, 0.000093640454, 9.9991865, 10.000764 
6.5511584e+2, 1.2483796e+2, -1748236.3, -1633785.4, -11054.526, -0.12736736, -0.20734532, -1632727.5, 83839.586, 0.0000000012982254, 9.999323, 10.000863 
6.551083e+2, 1.3483955e+2, -1545325.9, -1479679.9, -85798.58, 0.20714557, -0.16306522, -1420640.3, 197906.78, 0.0, 10.000025, 10.000926 
6.5509504e+2, 1.4483932e+2, -1494240.9, -1598046.5, -31903.713, -0.16542761, -0.18393187, -1485219.5, 35327.47, 0.0, 10.000528, 9.999191 
6.550885e+2, 1.5483655e+2, -1337327.1, -1475934.0, -62780.344, 0.1231366, -0.40307587, -1313119.4, 109454.734, 0.0, 10.000955, 9.99915 
6.550792e+2, 1.6483599e+2, -1199390.0, -1259714.1, -48926.95, 0.118473426, -0.4139073, -1172075.1, 152503.88, 0.0, 10.000806, 10.000027 
6.550675e+2, 1.748377e+2, -1202415.4, -1210771.1, 4114.4707, -0.14934145, -0.26790577, -1200729.5, 25831.39, 0.0, 10.000114, 10.000027 
6.5505785e+2, 1.8483767e+2, -1204926.0, -1309940.3, -9221.91, -0.21101703, -0.20286421, -1204122.4, -75562.18, 0.0, 10.000059, 9.9987 
6.550501e+2, 1.9483562e+2, -1007174.75, -1162878.4, -31839.963, -0.06274636, -0.2997075, -1000915.44, 29664.49, 0.0, 10.000747, 9.998702 
6.550417e+2, 2.0483424e+2, -879367.56, -980993.56, -12679.958, -0.012522586, -0.33457628, -877809.4, 54784.14, 0.0, 10.000649, 9.999326 
6.550326e+2, 2.1483335e+2, -923970.56, -948632.2, 33916.34, -0.0683177, -0.3791249, -900213.06, -65610.19, 0.0, 9.999656, 9.999352 
6.550231e+2, 2.248329e+2, -819763.5, -814296.94, 2068.384, -0.115175754, -0.3700774, -813602.56, -76996.63, 0.0, 9.999558, 9.999648 
6.550132e+2, 2.3483273e+2, -595933.3, -654272.5, -16781.29, -0.16521819, -0.37531644, -591450.6, 47153.715, 0.0, 10.000414, 9.999661 
6.5500385e+2, 2.4483208e+2, -605210.9, -758665.56, -29748.104, -0.18164651, -0.33748057, -599645.9, -59032.72, 0.0, 10.000332, 9.998315 
6.549949e+2, 2.5483078e+2, -677462.5, -741454.4, -30166.277, -0.16810001, -0.31907362, -665484.06, -222849.98, 0.0, 9.999161, 9.99832 
6.5498716e+2, 2.6483047e+2, -542742.3, -491843.4, -45969.477, -0.05648061, -0.23818222, -464748.9, -120108.016, 0.0, 9.998821, 9.99953 
6.5498066e+2, 2.7483103e+2, -381802.06, -364982.06, -56636.836, 0.16305567, -0.15841328, -316134.25, -69499.55, 0.0000000002377775, 9.999251, 9.999526 
6.549723e+2, 2.8483018e+2, -328707.97, -423600.03, -55399.324, 0.15651192, -0.12968723, -303214.22, -154569.63, 0.0000008000927, 9.999549, 9.998295 
6.549618e+2, 2.9482764e+2, -240120.73, -345790.4, -60550.984, -0.09479306, -0.2368706, -212594.25, -161920.22, 0.000010270006, 9.999535, 9.998168 
6.54955e+2, 3.0482817e+2, -85159.03, -62779.383, -79577.3, 0.038995042, -0.07499723, 6390.972, 6390.972, 0.00004390313, 9.999483, 9.999807 
6.5494716e+2, 3.1482735e+2, -52275.598, 79005.875, -44142.668, 0.019450948, -0.16784026, 92468.12, 92468.12, 0.00011355579, 9.999131, 10.000942 
6.6511565e+2, 1.2484678e+2, -1813200.1, -1641342.6, 52802.117, -0.041722283, -0.12341016, -1626416.0, 90068.164, 0.00000000035571668, 9.998769, 10.001076 
6.6510874e+2, 1.3484734e+2, -1490978.1, -1452377.8, -52350.76, 0.2399649, -0.19162047, -1415882.8, 202589.48, 0.0, 10.000374, 10.000957 
6.650956e+2, 1.4484718e+2, -1472138.4, -1602144.3, -45358.83, -0.1579218, -0.19805339, -1457877.1, 62594.36, 0.0, 10.000754, 9.999049 
6.650892e+2, 1.5484554e+2, -1462398.9, -1551080.3, -59977.625, 0.14576402, -0.29354495, -1432151.3, -9661.233, 0.0, 10.000169, 9.999008 
6.650799e+2, 1.6484497e+2, -1290590.0, -1305278.8, -39988.83, 0.15366511, -0.2960083, -1257276.6, 67218.234, 0.0, 10.00019, 10.0000105 
6.650684e+2, 1.7484543e+2, -1102883.6, -1161729.9, -88499.78, -0.10206825, -0.27374175, -1039044.06, 187442.25, 0.0, 10.0007925, 10.000033 
6.65059e+2, 1.8484502e+2, -1109660.8, -1295486.0, -101655.04, -0.13923289, -0.2355992, -1064854.5, 63634.86, 0.0, 10.00086, 9.998408 
6.6505164e+2, 1.9484344e+2, -1083074.4, -1235758.3, -104127.234, 0.041832075, -0.25225306, -1030301.75, 204.9438, 0.0, 10.000378, 9.998381 
6.6504264e+2, 2.048422e+2, -933833.9, -958065.75, -96065.11, 0.052666847, -0.28131568, -849123.7, 83395.37, 0.0, 10.000064, 9.999766 
6.6503185e+2, 2.1484104e+2, -858749.9, -868858.75, -111558.945, -0.110503756, -0.39493233, -752130.94, 82397.29, 0.0, 9.999897, 9.999785 
6.650224e+2, 2.248407e+2, -800777.94, -832358.9, -97678.48, -0.14534488, -0.38589743, -717621.8, 18908.06, 0.0, 9.999804, 9.999409 
6.650143e+2, 2.348411e+2, -717204.94, -744468.1, -97795.195, -0.051854454, -0.30708244, -632095.9, 6429.0537, 0.0, 9.999714, 9.999386 
6.650052e+2, 2.448403e+2, -636051.25, -734308.5, -75668.41, -0.0524275, -0.286885, -594961.6, -54428.004, 0.0, 9.999937, 9.998675 
6.649949e+2, 2.5483802e+2, -459976.25, -601667.75, -48622.582, -0.15175352, -0.4015091, -444896.03, -2337.1711, 0.0, 10.000478, 9.998655 
6.6498655e+2, 2.6483724e+2, -335950.7, -486204.16, -16142.027, -0.09023306, -0.3414228, -334236.1, 10333.562, 0.0, 10.00065, 9.998686 
6.649803e+2, 2.7483797e+2, -264835.56, -401251.63, -66982.69, 0.14621954, -0.15879153, -237445.4, 9120.787, 0.0000000023427176, 10.000464, 9.998685 
6.6497236e+2, 2.84837e+2, -186099.22, -334592.38, -38727.625, 0.16741553, -0.1124617, -176605.83, -28027.97, 0.0000014418595, 10.000438, 9.998478 
6.649625e+2, 2.948338e+2, -75366.94, -238231.75, -34318.797, -0.03396337, -0.30755907, -68430.7, -17821.533, 0.000014823799, 10.000548, 9.998412 
6.649554e+2, 3.0483374e+2, -39224.633, -168716.94, -49812.82, 0.08687388, -0.15903938, -22280.02, -22280.02, 0.000057815294, 10.000367, 9.998649 
6.6494733e+2, 3.1483302e+2, -7659.069, 38427.34, -75099.71, 0.1018183, -0.123856276, 93939.57, 93939.57, 0.00014076727, 9.999709, 10.000387 
6.751151e+2, 1.2485544e+2, -1854978.3, -1741244.3, 17767.47, -0.023395931, -0.15576011, -1738533.3, -22140.13, 0.0000000023126079, 9.998833, 10.000357 
6.7510873e+2, 1.3485356e+2, -1556622.8, -1587827.5, 10725.896, 0.17966281, -0.37701777, -1553291.5, 65117.383, 0.0, 10.000379, 10.000022 
6.7509574e+2, 1.4485379e+2, -1449725.0, -1553667.0, -78745.33, -0.24773626, -0.31334552, -1407346.6, 113061.01, 0.0, 10.000744, 9.999388 
6.750883e+2, 1.5485564e+2, -1430569.6, -1491670.5, -71215.82, 0.008465523, -0.092935115, -1383628.0, 38765.87, 0.0, 10.0001955, 9.999404 
6.7507946e+2, 1.6485533e+2, -1360953.0, -1455546.3, -27468.762, 0.06747398, -0.040719163, -1353555.0, -29157.139, 0.0, 10.000203, 9.998976 
6.7507e+2, 1.7485262e+2, -1178975.9, -1316200.3, -56471.844, -0.042328205, -0.22946236, -1158724.6, 67696.93, 0.0, 10.000777, 9.998981 
6.7506117e+2, 1.8485072e+2, -1101728.9, -1272362.9, -128210.08, -0.023198685, -0.29507074, -1033043.3, 95396.38, 0.0, 10.000826, 9.998585 
6.7505306e+2, 1.9484948e+2, -1079143.5, -1211524.0, -112778.445, 0.12317332, -0.2980654, -1014566.25, 15887.28, 0.0, 10.00031, 9.99858 
6.750431e+2, 2.0484906e+2, -959662.25, -992443.7, -109814.67, 0.074481085, -0.24308772, -865021.8, 67436.734, 0.0, 9.999973, 9.9995775 
6.7503124e+2, 2.1484931e+2, -883622.7, -899561.8, -108598.99, -0.17998527, -0.1996266, -782701.25, 51754.836, 0.0, 9.999803, 9.999621 
6.750223e+2, 2.2484928e+2, -803256.0, -807262.8, -107808.39, -0.15767726, -0.16175021, -697432.4, 39023.254, 0.0, 9.999679, 9.99964 
6.750162e+2, 2.3484883e+2, -718233.5, -716601.4, -89297.75, 0.14777024, -0.19216761, -628115.94, 10343.003, 0.0, 9.999592, 9.999633 
6.750074e+2, 2.4484804e+2, -582096.75, -602283.9, -62022.418, 0.15616868, -0.23156346, -529351.94, 11112.134, 0.0, 9.999853, 9.99962 
6.7499554e+2, 2.5484663e+2, -407837.94, -471837.6, -19487.695, -0.15254933, -0.35667345, -402371.0, 40102.742, 0.0, 10.000383, 9.99959 
6.7498606e+2, 2.6484543e+2, -423226.03, -653115.7, -31358.664, -0.21907002, -0.33015847, -419025.22, -74538.695, 0.0, 10.000588, 9.99757 
6.7497915e+2, 2.7484438e+2, -354210.25, -571909.25, -62710.402, -0.040858336, -0.21173666, -337438.06, -90934.02, 0.0000000015372758, 10.0004015, 9.997545 
6.749714e+2, 2.848427e+2, -140840.33, -240933.39, -43605.94, 0.0011763766, -0.2057333, -124508.14, 24013.068, 0.0000017821444, 10.000437, 9.999123 
6.749625e+2, 2.9484013e+2, -40235.785, -143045.83, -18978.594, -0.10540166, -0.40533233, -36844.246, 13696.806, 0.000019076204, 10.000453, 9.999112 
6.749554e+2, 3.0483904e+2, -161427.58, -409150.6, -79717.22, 0.03847146, -0.3156425, -137991.75, -137991.75, 0.000073988194, 10.000312, 9.997019 
6.7494744e+2, 3.1483895e+2, -114030.44, -154499.67, -75434.18, 0.09828016, -0.050786942, -56164.125, -56164.125, 0.00017626329, 9.9996, 9.9991045 
6.851151e+2, 1.2486308e+2, -1718108.4, -1731600.3, -43215.332, 0.04424399, -0.2159289, -1681115.6, 35199.555, 0.0000000036242784, 10.000004, 9.999866 
6.8510866e+2, 1.3486104e+2, -1644440.5, -1695947.1, -7184.432, 0.16115706, -0.3906835, -1643457.1, -25121.06, 0.0, 10.0000725, 9.999419 
6.8509626e+2, 1.4486127e+2, -1509876.6, -1544910.9, -91807.766, -0.23430647, -0.31340966, -1433929.8, 86405.664, 0.0, 10.000155, 9.999735 
6.850885e+2, 1.5486357e+2, -1370923.9, -1421729.0, -103334.08, 0.012762766, -0.08738834, -1289915.9, 132399.5, 0.0, 10.000417, 9.9997835 
6.8508e+2, 1.6486332e+2, -1327620.6, -1473977.6, 684.09644, 0.08560219, -0.034342974, -1327617.4, -3298.5042, 0.0, 10.000579, 9.998672 
6.850712e+2, 1.7486025e+2, -1220967.4, -1375130.4, 8109.5986, 0.007525031, -0.22502255, -1220542.0, 5806.5293, 0.0, 10.00065, 9.998643 
6.850623e+2, 1.8485849e+2, -1125355.8, -1237536.5, -39582.273, 0.032226957, -0.27939823, -1112795.6, 15570.4795, 0.0, 10.000466, 9.998996 
6.850534e+2, 1.9485782e+2, -1103345.5, -1173867.8, -23928.32, 0.15364121, -0.26885024, -1095993.1, -65619.586, 0.0, 9.999933, 9.999017 
6.850432e+2, 2.0485765e+2, -990049.4, -1012224.56, 31130.377, 0.1034028, -0.20817137, -968091.06, -35715.61, 0.0, 9.999799, 9.999517 
6.8503165e+2, 2.1485786e+2, -848063.9, -889556.7, 23403.582, -0.12897927, -0.16065143, -837535.06, -3162.005, 0.0, 10.000083, 9.999551 
6.850227e+2, 2.248577e+2, -724043.44, -775566.4, 29085.352, -0.10381478, -0.13133454, -710951.2, 25423.082, 0.0, 10.000236, 9.999596 
6.8501645e+2, 2.3485698e+2, -635579.25, -683730.94, 7364.6343, 0.19398348, -0.1827395, -634478.06, 3902.8809, 0.0, 10.000174, 9.999584 
6.8500775e+2, 2.4485618e+2, -552973.4, -596333.2, 15379.047, 0.20142354, -0.21646993, -548072.6, -7686.6177, 0.0, 10.000087, 9.999544 
6.849961e+2, 2.548551e+2, -465281.66, -505567.22, -33767.555, -0.10330915, -0.30049032, -446105.5, -3714.3064, 0.0, 10.000027, 9.999524 
6.849868e+2, 2.6485375e+2, -443249.75, -658723.44, -17798.146, -0.19347736, -0.2902101, -441789.53, -97384.83, 0.0, 10.000435, 9.9976015 
6.8497986e+2, 2.7485192e+2, -221569.53, -504380.47, 19653.639, -0.045031607, -0.2533538, -220210.25, 26218.383, 0.00000000039754933, 10.001292, 9.997578 
6.8497187e+2, 2.8485024e+2, -79720.3, -250901.38, 26633.93, -0.013019161, -0.23375943, -75672.08, 72773.95, 0.000001935021, 10.001021, 9.998774 
6.849626e+2, 2.9484844e+2, -173815.27, -244462.83, -44361.25, -0.10317002, -0.3182554, -152432.0, -101972.5, 0.000022833043, 9.999683, 9.998791 
6.8495524e+2, 3.0484638e+2, -218371.88, -420025.34, -17363.715, 0.023142828, -0.3192819, -216887.67, -216887.67, 0.00009092674, 9.999837, 9.997176 
6.849482e+2, 3.148451e+2, 114157.43, -37351.355, 89200.49, 0.14764129, -0.18656215, 155430.63, 155430.63, 0.00021663119, 10.001097, 9.999205 
6.95115e+2, 1.24869876e+2, -1722659.4, -1753196.0, -113725.13, -0.020077165, -0.29486027, -1623182.3, 93066.33, 0.00000000017840025, 10.000069, 9.999675 
6.951083e+2, 1.348698e+2, -1663319.1, -1740591.3, 2824.0686, 0.09582195, -0.23886693, -1663216.1, -44962.785, 0.0, 10.000102, 9.999095 
6.9509697e+2, 1.4486955e+2, -1476149.9, -1483280.5, -90363.31, -0.20683818, -0.21506515, -1389281.6, 130974.305, 0.0, 10.000188, 10.000145 
6.9508976e+2, 1.5486929e+2, -1339469.6, -1367295.4, -81528.26, 0.07411044, -0.2841852, -1270675.6, 151578.92, 0.0, 10.000455, 10.000145 
6.950811e+2, 1.6486895e+2, -1301881.0, -1419162.4, -4852.8154, 0.11573757, -0.2747735, -1301680.5, 22577.168, 0.0, 10.000577, 9.999044 
6.950716e+2, 1.7486846e+2, -1198085.0, -1322677.8, 21763.139, -0.037009206, -0.24738917, -1194393.0, 31873.105, 0.0, 10.0006275, 9.999014 
6.950621e+2, 1.8486838e+2, -1086748.0, -1144700.6, -66150.95, -0.0566811, -0.18531682, -1043505.3, 84763.016, 0.0, 10.000415, 9.999656 
6.9505256e+2, 1.9486846e+2, -1065921.3, -1083005.8, -34442.645, 0.051408157, -0.16545142, -1038977.4, -8710.666, 0.0, 9.999883, 9.999661 
6.950427e+2, 2.0486791e+2, -997371.94, -1011217.4, 31596.293, 0.057494737, -0.17711237, -971948.9, -39678.684, 0.0, 9.999726, 9.99956 
6.950328e+2, 2.1486661e+2, -860561.1, -892812.06, 42327.598, -0.045116372, -0.28518966, -831391.4, 2888.7712, 0.0, 9.999987, 9.999574 
6.950235e+2, 2.2486587e+2, -763774.44, -832648.8, 18461.613, -0.06047658, -0.2977656, -759138.0, -22851.506, 0.0, 10.000128, 9.999254 
6.9501495e+2, 2.3486549e+2, -674040.94, -739494.2, 13494.999, 0.008321183, -0.28034398, -671367.75, -33076.402, 0.0, 10.0000725, 9.999248 
6.95006e+2, 2.4486478e+2, -636180.4, -751069.94, 5390.5103, 0.0033812858, -0.23835023, -635928.0, -95628.98, 0.0, 10.000009, 9.998522 
6.949966e+2, 2.548635e+2, -545474.2, -659298.25, -26066.879, -0.08717338, -0.23964496, -539788.6, -97477.2, 0.0, 9.999968, 9.9985 
6.9498855e+2, 2.6486218e+2, -368560.7, -491909.3, 7485.838, -0.0822392, -0.23030457, -368108.06, -23783.736, 0.0, 10.000388, 9.998767 
6.949822e+2, 2.7486065e+2, -150178.28, -339575.25, 61517.418, 0.03386459, -0.2816542, -131951.14, 114388.695, 0.0000000054780975, 10.001222, 9.998744 
6.949735e+2, 2.848596e+2, -182857.44, -450770.56, -31348.83, 0.024868961, -0.19342051, -179238.17, -30885.89, 0.000002364329, 10.000963, 9.997425 
6.9496214e+2, 2.948588e+2, -281410.03, -448329.5, -78196.89, -0.1407621, -0.03710888, -250500.72, -200137.1, 0.000027093956, 9.999606, 9.997425 
6.9495463e+2, 3.048557e+2, -79956.164, -131818.58, 27141.77, -0.04688381, -0.17168549, -68349.35, -68349.35, 0.00010798756, 9.99983, 9.99916 
6.949493e+2, 3.1485167e+2, 202497.47, 166396.13, 155590.16, 0.108310744, -0.510024, 341080.53, 341080.53, 0.00025661878, 10.001014, 10.000648 
7.051145e+2, 1.24877706e+2, -1698777.8, -1705308.1, -81798.14, -0.06075298, -0.32325834, -1620179.6, 95993.336, 0.0, 10.000064, 10.000021 
7.0510846e+2, 1.3487874e+2, -1567778.0, -1656474.1, 85331.29, 0.08695383, -0.18619953, -1515958.6, 102204.93, 0.0, 10.000586, 9.999441 
7.0509833e+2, 1.4487791e+2, -1404946.3, -1489515.9, 13168.14, -0.115745835, -0.21935453, -1402943.4, 117227.06, 0.0, 10.000864, 9.999769 
7.0509046e+2, 1.5487619e+2, -1240456.3, -1355450.6, -55588.91, 0.055685233, -0.39763337, -1217978.1, 204206.06, 0.0, 10.001311, 9.999798 
7.050815e+2, 1.6487585e+2, -1226319.5, -1342225.5, -22046.77, 0.09292253, -0.3875348, -1222267.6, 101920.04, 0.0, 10.000926, 9.999402 
7.050725e+2, 1.7487681e+2, -1326679.6, -1338474.1, -14511.173, 0.054303758, -0.25252202, -1316913.3, -90731.055, 0.0, 9.999556, 9.999416 
7.050629e+2, 1.8487729e+2, -1197595.8, -1177345.8, -60317.027, 0.034270525, -0.16511738, -1126309.8, 1868.9663, 0.0, 9.999558, 9.999849 
7.050526e+2, 1.9487695e+2, -887400.4, -977116.2, -79896.22, 0.022921344, -0.20437872, -840630.56, 189549.88, 0.0, 10.001011, 9.999852 
7.05043e+2, 2.048762e+2, -737472.75, -889453.2, -37391.668, 0.031243445, -0.24483745, -728771.44, 203414.36, 0.0, 10.00153, 9.999529 
7.0503426e+2, 2.148749e+2, -715484.7, -827988.4, -48934.41, 0.06179102, -0.34782326, -697178.9, 137017.27, 0.0, 10.001003, 9.999534 
7.050248e+2, 2.248742e+2, -706157.6, -843641.3, -56960.7, 0.03184507, -0.33781412, -685624.8, 50578.45, 0.0, 10.000702, 9.998895 
7.050145e+2, 2.348739e+2, -612097.7, -749188.44, -79920.984, -0.072492465, -0.2753936, -575353.8, 62855.277, 0.0, 10.000681, 9.998882 
7.0500547e+2, 2.4487291e+2, -554432.7, -730860.7, -41493.242, -0.07782956, -0.2337725, -545161.3, -4941.317, 0.0, 10.000658, 9.998346 
7.049979e+2, 2.5487098e+2, -464161.03, -637152.3, -23997.56, 0.02241422, -0.28340986, -460893.75, -18655.791, 0.0, 10.0006075, 9.99834 
7.049903e+2, 2.6486975e+2, -350479.88, -464889.38, 32449.66, 0.063797556, -0.268475, -341917.13, 2332.9844, 0.0, 10.000434, 9.998936 
7.04983e+2, 2.74869e+2, -304029.53, -388825.66, -9783.484, 0.057808984, -0.2573842, -302915.4, -56657.414, 0.000000016182126, 10.000067, 9.998959 
7.049741e+2, 2.8486806e+2, -281024.7, -495896.25, -88205.99, 0.033525314, -0.16742, -249454.2, -101184.83, 0.0000030357212, 10.000262, 9.997464 
7.0496356e+2, 2.948669e+2, -79948.51, -345122.88, -42374.676, -0.019641334, -0.061173078, -73341.68, -23056.1, 0.000031540207, 10.000953, 9.997491 
7.049556e+2, 3.0486432e+2, 33468.293, -28648.148, 79122.74, 0.042756066, -0.16770618, 87410.2, 87410.2, 0.00012311795, 10.000411, 9.99958 
7.0494837e+2, 3.1486127e+2, -168294.34, 17154.604, 42823.52, 0.052108422, -0.45179385, 26565.736, 26565.736, 0.00029061802, 9.998354, 10.000886 
7.15113e+2, 1.24886625e+2, -1612869.9, -1543210.3, -105405.47, -0.27121598, -0.27985057, -1467029.1, 249058.9, 0.0, 10.000134, 10.001094 
7.1510893e+2, 1.348878e+2, -1487557.9, -1507802.3, 106984.914, 0.047984846, -0.23745768, -1390217.4, 227850.31, 0.0, 10.000651, 10.000435 
7.151001e+2, 1.4488637e+2, -1480953.6, -1652970.4, 15494.663, -0.057449043, -0.32370073, -1479569.1, 40510.18, 0.0, 10.0008955, 9.998627 
7.1509016e+2, 1.5488426e+2, -1324432.4, -1526579.8, -28973.38, -0.12599601, -0.42515752, -1320361.8, 101742.336, 0.0, 10.001296, 9.9986315 
7.1508116e+2, 1.6488394e+2, -1203857.9, -1286055.9, -80771.25, -0.061245237, -0.37522623, -1154330.6, 169778.92, 0.0, 10.000891, 9.999802 
7.150737e+2, 1.7488526e+2, -1299144.3, -1284088.9, -57630.38, 0.20015892, -0.24510281, -1233496.6, -7399.2964, 0.0, 9.999569, 9.999784 
7.150645e+2, 1.8488514e+2, -1216337.4, -1212714.9, -14680.056, 0.22000644, -0.22164366, -1199734.8, -71636.76, 0.0, 9.999542, 9.999614 
7.150534e+2, 1.948834e+2, -916449.9, -1017774.5, -15088.624, -0.021683311, -0.37973657, -914250.7, 115862.984, 0.0, 10.00093, 9.99961 
7.1504384e+2, 2.0488267e+2, -763017.4, -916209.8, -64468.316, -0.05903113, -0.40116063, -739497.94, 192622.81, 0.0, 10.00142, 9.999396 
7.15036e+2, 2.1488276e+2, -745042.44, -856979.06, -62835.047, 0.11427715, -0.3496505, -716863.9, 117256.84, 0.0, 10.000872, 9.999393 
7.150263e+2, 2.2488269e+2, -747435.2, -904254.25, -66789.125, 0.09499213, -0.25019762, -722845.5, 13278.872, 0.0, 10.00059, 9.998533 
7.150147e+2, 2.3488227e+2, -651884.0, -809646.2, -71611.86, -0.13457045, -0.16618368, -624226.44, 13907.169, 0.0, 10.000585, 9.998513 
7.1500593e+2, 2.4488063e+2, -519979.34, -641172.0, -52318.754, -0.12218072, -0.20178907, -500518.4, 39630.21, 0.0, 10.000578, 9.999003 
7.149998e+2, 2.5487754e+2, -426775.25, -543357.3, -17969.367, 0.13657457, -0.43295366, -424068.4, 18103.098, 0.0, 10.000538, 9.99902 
7.149919e+2, 2.6487637e+2, -411864.3, -584167.06, 9351.147, 0.15822421, -0.40430778, -411358.28, -67175.836, 0.0, 10.000397, 9.998135 
7.1498203e+2, 2.7487695e+2, -373108.03, -516999.03, -12676.371, -0.067363456, -0.18127656, -371999.8, -125816.266, 0.000000020828322, 9.999999, 9.998113 
7.149736e+2, 2.848757e+2, -179974.05, -276043.06, -71581.14, -0.06297027, -0.15709148, -141804.3, 6393.597, 0.0000037854625, 10.000225, 9.998991 
7.149666e+2, 2.9487255e+2, 14148.8125, -133208.39, -3344.9133, 0.15982874, -0.3939577, 14224.7, 64450.406, 0.000035842306, 10.00089, 9.998975 
7.1495765e+2, 3.0487216e+2, -46031.73, -196689.8, -1861.5669, 0.18866166, -0.3014446, -46008.734, -46008.734, 0.00013552594, 10.000413, 9.99843 
7.149445e+2, 3.1487364e+2, -261238.45, -154119.81, -19092.621, -0.22188708, -0.021452535, -150818.52, -150818.52, 0.00031582415, 9.99825, 9.999766 
7.251143e+2, 1.2489558e+2, -1585852.0, -1559457.5, -68245.53, -0.16155487, -0.23926994, -1503145.0, 212854.86, 0.0, 10.000401, 10.000886 
7.251096e+2, 1.348956e+2, -1420536.8, -1474883.1, 33527.69, 0.031247193, -0.3028091, -1404553.4, 213435.47, 0.0, 10.001117, 10.000438 
7.251016e+2, 1.4489405e+2, -1487947.0, -1691186.5, -73006.52, 0.00046653007, -0.38630015, -1464440.8, 55561.824, 0.0, 10.000982, 9.998334 
7.2509134e+2, 1.5489334e+2, -1517761.5, -1647427.6, -71269.695, -0.07284441, -0.31952798, -1486247.8, -64229.93, 0.0, 10.000082, 9.998389 
7.250818e+2, 1.6489312e+2, -1332432.8, -1333728.0, -83968.51, -0.028639803, -0.25405765, -1249109.4, 74913.68, 0.0, 9.999929, 9.999947 
7.2507375e+2, 1.7489319e+2, -1142783.4, -1188578.1, -97907.35, 0.19362707, -0.2646105, -1065131.6, 160888.47, 0.0, 10.000551, 9.999967 
7.250645e+2, 1.8489267e+2, -1053124.6, -1132325.8, -8209.887, 0.2139164, -0.29293647, -1052282.5, 75740.83, 0.0, 10.00065, 9.999634 
7.250542e+2, 1.9489135e+2, -1027974.44, -1070395.4, -5319.5884, 0.00907227, -0.40814117, -1027317.5, 2717.5703, 0.0, 10.000152, 9.999629 
7.2504485e+2, 2.048911e+2, -978839.06, -1036349.4, -49793.563, -0.02399742, -0.37546444, -950094.1, -18055.129, 0.0, 9.999997, 9.999265 
7.250365e+2, 2.1489167e+2, -854623.1, -927599.3, -63031.277, 0.124137655, -0.26128244, -818280.44, 15756.887, 0.0, 10.00018, 9.99925 
7.2502685e+2, 2.2489165e+2, -777427.1, -895483.9, -19891.543, 0.11199634, -0.16128503, -774165.7, -38124.652, 0.0, 10.000284, 9.998741 
7.250159e+2, 2.3489082e+2, -675562.2, -800760.06, -563.82587, -0.06241906, -0.13625082, -675559.6, -37507.79, 0.0, 10.000329, 9.998702 
7.250072e+2, 2.4488917e+2, -515903.03, -634505.25, 43298.035, -0.047097046, -0.18449591, -501778.38, 38287.74, 0.0, 10.000588, 9.99904 
7.250008e+2, 2.548865e+2, -338601.8, -499392.06, 13537.243, 0.15298337, -0.37769532, -337470.06, 104615.78, 0.0, 10.00113, 9.999037 
7.249922e+2, 2.6488525e+2, -378333.38, -554848.94, 18793.473, 0.13840422, -0.36359593, -376354.63, -32257.29, 0.0, 10.00058, 9.998241 
7.249813e+2, 2.7488527e+2, -519555.4, -576240.94, 46194.14, -0.0812967, -0.2087871, -493702.13, -247599.34, 0.000000011844985, 9.998942, 9.998216 
7.249731e+2, 2.8488407e+2, -336852.47, -283619.84, 89946.81, -0.06447191, -0.2123663, -216433.94, -68318.34, 0.000004675658, 9.998876, 9.9995775 
7.249675e+2, 2.9488158e+2, -12388.652, -82134.62, 66042.27, 0.18991254, -0.4431181, 27422.414, 77559.016, 0.000040333267, 10.00044, 9.999538 
7.2495854e+2, 3.0488178e+2, -31586.629, -191740.78, -14643.383, 0.239822, -0.31435615, -30258.75, -30258.75, 0.00014552726, 10.000528, 9.998411 
7.249432e+2, 3.1488404e+2, -134902.25, -61687.047, 10914.859, -0.19491985, 0.043132756, -60094.508, -60094.508, 0.0003310756, 9.998983, 10.00005 
7.351176e+2, 1.24904536e+2, -1675048.9, -1746071.3, -63010.813, 0.09741428, -0.19188242, -1638231.6, 77676.93, 0.0, 10.000424, 9.99958 
7.3511016e+2, 1.3490212e+2, -1501153.8, -1643109.0, 62930.414, -0.046215568, -0.3863105, -1477273.3, 140653.53, 0.0, 10.001114, 9.999284 
7.351024e+2, 1.4490081e+2, -1452788.8, -1605130.0, -116971.59, -0.03289603, -0.42076313, -1389373.1, 130568.39, 0.0, 10.000937, 9.998938 
7.350936e+2, 1.549033e+2, -1479207.5, -1570645.8, -92289.51, 0.11813935, -0.09421091, -1421933.5, -6.8647604, 0.0, 10.000097, 9.998908 
7.350832e+2, 1.6490334e+2, -1331503.0, -1337109.6, -71016.68, 0.099817544, -0.026428951, -1263234.3, 60694.223, 0.0, 9.99995, 9.99991 
7.3507214e+2, 1.7490067e+2, -1146062.5, -1195070.5, -64348.754, -0.0401451, -0.30734575, -1101710.1, 124239.516, 0.0, 10.0005455, 9.999927 
7.350626e+2, 1.8489987e+2, -1044009.75, -1100094.9, -33759.965, -0.057234947, -0.3734628, -1028164.7, 99789.695, 0.0, 10.000597, 9.999879 
7.350548e+2, 1.9490084e+2, -1021308.3, -1038959.75, -15605.941, 0.03570719, -0.28589702, -1012205.3, 17738.95, 0.0, 10.000084, 9.999873 
7.350458e+2, 2.0490152e+2, -995827.7, -1053787.4, -51106.766, 0.057209995, -0.16534294, -966056.06, -34115.664, 0.0, 9.999918, 9.999184 
7.3503566e+2, 2.1490175e+2, -874015.0, -941476.06, -46288.12, 0.00005413608, -0.08269119, -850471.25, -16526.23, 0.0, 10.000072, 9.999203 
7.3502624e+2, 2.249012e+2, -743621.6, -801728.7, -27600.951, 0.005971533, -0.066477865, -732601.2, 3350.7825, 0.0, 10.000178, 9.999439 
7.3501766e+2, 2.348996e+2, -640486.2, -701538.25, 9695.896, 0.06844691, -0.1913026, -638983.3, -1019.6084, 0.0, 10.000215, 9.999438 
7.350091e+2, 2.4489859e+2, -566623.7, -723283.6, 56521.89, 0.06367616, -0.18411028, -548360.1, -8387.702, 0.0, 10.000516, 9.998465 
7.350005e+2, 2.5489795e+2, -394670.22, -593610.7, 42652.73, -0.0090671005, -0.11402131, -385911.16, 56069.11, 0.0, 10.001038, 9.998434 
7.3499095e+2, 2.6489654e+2, -316991.25, -414674.7, -48845.18, -0.058989488, -0.13534842, -296757.9, 47235.438, 0.0, 10.000523, 9.999233 
7.3498046e+2, 2.7489397e+2, -457356.9, -433967.1, -2295.2734, -0.08023518, -0.33535355, -433744.0, -187729.11, 0.000000051096855, 9.998883, 9.999224 
7.349721e+2, 2.8489318e+2, -359574.84, -331408.53, 140091.63, -0.07261578, -0.33680865, -204693.95, -56671.36, 0.0000058850314, 9.998873, 9.999251 
7.349659e+2, 2.9489407e+2, -47678.71, -144144.02, 137554.86, -0.03749563, -0.19924778, 49854.637, 99871.71, 0.000044056193, 10.000388, 9.999138 
7.34958e+2, 3.0489337e+2, 38838.918, -46938.71, -74633.695, 0.10976061, -0.18780679, 82029.36, 82029.36, 0.00015023218, 10.000526, 9.999411 
7.3494416e+2, 3.1489205e+2, -39458.7, 158118.83, -19567.361, -0.056776017, -0.29198673, 160038.06, 160038.06, 0.00033283475, 9.998887, 10.001608 
7.451197e+2, 1.249116e+2, -1591775.0, -1730625.4, -81483.04, 0.23521414, -0.24923837, -1554151.9, 161687.16, 0.0, 10.001124, 9.999333 
7.451105e+2, 1.3491017e+2, -1562172.5, -1668597.8, 77662.7, -0.08643681, -0.3438313, -1521241.3, 96610.016, 0.0, 10.000706, 9.999291 
7.451027e+2, 1.4490935e+2, -1480887.8, -1520559.4, -54254.49, -0.052910212, -0.373224, -1442956.8, 76904.086, 0.0, 10.000317, 9.999816 
7.450938e+2, 1.5491189e+2, -1403252.8, -1431849.8, -30833.213, 0.13951929, -0.13076198, -1383564.0, 38277.05, 0.0, 10.000182, 9.999813 
7.450837e+2, 1.649121e+2, -1269435.5, -1329216.9, 63658.293, 0.12291562, -0.08203242, -1228999.6, 94840.305, 0.0, 10.000471, 9.999721 
7.4507284e+2, 1.7490964e+2, -1060553.8, -1174230.5, 41839.227, -0.051219314, -0.32085407, -1046815.06, 179045.56, 0.0, 10.001217, 9.999751 
7.4506336e+2, 1.8490903e+2, -971409.75, -1081069.4, 19170.93, -0.067125, -0.35346794, -968154.9, 159709.84, 0.0, 10.001162, 9.999739 
7.450552e+2, 1.949101e+2, -1004095.0, -1047185.3, -7773.062, 0.063171536, -0.24170074, -1002735.7, 27118.352, 0.0, 10.000268, 9.999727 
7.4504596e+2, 2.049105e+2, -991043.0, -1047113.4, -3729.6753, 0.08417808, -0.14414306, -990796.0, -58943.344, 0.0, 9.99994, 9.9992075 
7.4503565e+2, 2.1491008e+2, -857347.0, -934694.8, -10192.275, -0.0037050545, -0.1267942, -856026.44, -22163.795, 0.0, 10.000192, 9.99919 
7.4502647e+2, 2.2490938e+2, -683895.8, -736305.3, 11256.301, 0.0061549894, -0.14011295, -681580.5, 54289.22, 0.0, 10.000433, 9.999765 
7.450183e+2, 2.3490822e+2, -556642.4, -625080.1, -323.9035, 0.10227082, -0.25601113, -556640.9, 81234.875, 0.0, 10.000627, 9.999768 
7.450096e+2, 2.449077e+2, -623229.2, -757471.7, 53730.418, 0.08915178, -0.21396548, -604372.44, -64491.67, 0.0, 10.0001545, 9.998409 
7.450003e+2, 2.5490767e+2, -683094.75, -739301.06, 59547.242, -0.026417006, -0.076266855, -645352.2, -203465.67, 0.0, 9.999083, 9.998379 
7.449908e+2, 2.6490647e+2, -489680.28, -462144.8, -14136.457, -0.050107747, -0.08812116, -456179.6, -112281.29, 0.0, 9.999179, 9.9995575 
7.4498117e+2, 2.7490383e+2, -199674.9, -268087.34, -36909.977, 0.0236254, -0.3289135, -183558.05, 62360.28, 0.00000017449423, 10.0004835, 9.999587 
7.449721e+2, 2.8490338e+2, -189331.52, -271907.78, 100051.0, -0.019303689, -0.30636588, -122384.2, 25538.74, 0.0000070145306, 10.000137, 9.999053 
7.449639e+2, 2.9490492e+2, -388260.4, -326632.9, 87934.086, -0.16564178, -0.08289121, -264270.0, -214356.69, 0.00004543542, 9.99813, 9.998971 
7.449565e+2, 3.0490354e+2, -288193.6, -178696.2, -104918.94, 0.031109698, -0.1423567, -115100.47, -115100.47, 0.00014809403, 9.998171, 9.999638 
7.449452e+2, 3.149016e+2, 152939.36, 270596.4, -132338.56, 0.115517415, -0.33267456, 356592.9, 356592.9, 0.0003227844, 10.000125, 10.001781 
7.551199e+2, 1.2491684e+2, -1536331.4, -1610457.5, -101183.08, 0.10127723, -0.41097733, -1465636.9, 250153.63, 0.0, 10.001115, 10.000158 
7.551106e+2, 1.3491961e+2, -1489745.0, -1514689.6, 67013.695, -0.17496473, -0.19255024, -1434052.9, 183710.44, 0.0, 10.000697, 10.00035 
7.551024e+2, 1.4491953e+2, -1399995.8, -1352931.9, -72996.164, -0.14414306, -0.25635773, -1299768.4, 219993.64, 0.0, 10.000314, 10.00097 
7.5509185e+2, 1.549193e+2, -1319318.9, -1257258.6, -27528.322, -0.09940096, -0.40724376, -1246807.8, 174952.2, 0.0, 10.000177, 10.001017 
7.550827e+2, 1.6491953e+2, -1291412.4, -1373561.5, 80009.14, -0.040879216, -0.40513107, -1242550.4, 81206.26, 0.0, 10.000465, 9.99942 
7.550755e+2, 1.7492007e+2, -1089157.4, -1228984.5, 78210.19, 0.075283475, -0.30712754, -1054167.5, 171586.17, 0.0, 10.001201, 9.999384 
7.5506634e+2, 1.8492004e+2, -1009486.94, -1149915.6, -23615.525, 0.09554348, -0.23862995, -1005621.94, 122133.31, 0.0, 10.001116, 9.9992895 
7.5505507e+2, 1.9491917e+2, -1045698.56, -1114763.9, -31820.582, 0.0013764652, -0.2751903, -1033273.25, -3509.1033, 0.0, 10.000191, 9.9993 
7.5504506e+2, 2.0491812e+2, -1000376.2, -1049066.6, -4038.9558, -0.018575111, -0.30423728, -1000043.44, -68268.28, 0.0, 9.999857, 9.99924 
7.550364e+2, 2.149167e+2, -871385.5, -932485.4, 7583.034, 0.037871547, -0.38999712, -870458.44, -36668.44, 0.0, 10.000063, 9.999267 
7.5502735e+2, 2.2491632e+2, -704576.06, -750212.44, 11631.294, 0.033602815, -0.3745899, -701782.6, 34010.72, 0.0, 10.000311, 9.999728 
7.5501764e+2, 2.3491678e+2, -578967.9, -641554.9, 18219.545, -0.044933897, -0.3212954, -574050.4, 63736.465, 0.0, 10.000504, 9.999714 
7.5500846e+2, 2.4491663e+2, -604117.9, -703782.25, 4962.2573, -0.055483267, -0.26043054, -603871.44, -64081.66, 0.0, 10.00009, 9.99881 
7.5499994e+2, 2.5491554e+2, -661660.6, -682810.4, 27991.168, 0.0082678, -0.27175173, -642313.4, -200508.08, 0.0, 9.999025, 9.998796 
7.549915e+2, 2.64915e+2, -516308.94, -507656.78, 26864.504, 0.07563008, -0.2258083, -484772.25, -140959.64, 0.0, 9.999141, 9.999262 
7.54983e+2, 2.7491486e+2, -235793.72, -323614.13, 24849.889, 0.14418696, -0.18532391, -229249.75, 16563.088, 0.0000002213921, 10.0004015, 9.999248 
7.549728e+2, 2.8491467e+2, -201422.81, -287142.44, 17142.87, 0.02142785, -0.10944567, -198121.6, -50305.695, 0.000006961638, 10.000091, 9.998975 
7.5496095e+2, 2.9491407e+2, -400816.1, -336857.8, 23658.191, -0.29507443, -0.09262956, -329057.88, -279232.1, 0.00004401986, 9.998052, 9.998945 
7.5495356e+2, 3.0491212e+2, -339228.28, -261538.66, -36042.77, -0.10030081, -0.18788674, -247392.9, -247392.9, 0.0001416952, 9.998087, 9.9991 
7.5494593e+2, 3.1491315e+2, 57226.47, 94880.805, -11821.648, 0.12063769, -0.021332493, 98284.555, 98284.555, 0.00030699253, 10.000038, 10.000608 
7.6512086e+2, 1.2492645e+2, -1524077.4, -1609640.8, 51037.188, 0.08542212, -0.34932855, -1500262.8, 215436.16, 0.00000000032551553, 10.0011635, 10.0001545 
7.651108e+2, 1.3492942e+2, -1739425.1, -1619354.8, 90039.19, -0.12369489, -0.13261902, -1571171.3, 46499.566, 0.0, 9.998875, 10.000521 
7.651026e+2, 1.4492927e+2, -1663994.5, -1475220.1, -4406.792, -0.05871015, -0.21452034, -1475117.3, 44551.656, 0.0, 9.998477, 10.001021 
7.650918e+2, 1.549282e+2, -1271660.1, -1230625.4, -61315.68, -0.13401346, -0.45246032, -1186485.4, 235186.44, 0.0, 10.00048, 10.001063 
7.6508296e+2, 1.6492842e+2, -1221756.4, -1351327.9, -9551.838, -0.08177012, -0.4480693, -1221056.0, 102611.8, 0.0, 10.001003, 9.999305 
7.650767e+2, 1.749298e+2, -1273086.4, -1327336.1, -14033.055, 0.13913499, -0.25920692, -1269671.4, -44012.95, 0.0, 9.999991, 9.999283 
7.650677e+2, 1.8492973e+2, -1218091.4, -1283760.3, -80023.44, 0.18561515, -0.17554712, -1164428.1, -36766.57, 0.0, 9.999826, 9.998992 
7.650557e+2, 1.9492796e+2, -1017957.3, -1138648.6, -93501.46, 0.037712082, -0.27234256, -967019.0, 62661.223, 0.0, 10.000529, 9.99898 
7.6504534e+2, 2.049266e+2, -882928.56, -971671.44, -41359.746, -0.0045551113, -0.32619265, -866641.5, 65051.883, 0.0, 10.000582, 9.999424 
7.6503664e+2, 2.1492538e+2, -873497.9, -917085.6, -38136.89, 0.059293132, -0.40880358, -851366.9, -17663.316, 0.0, 9.999964, 9.999428 
7.6502734e+2, 2.249252e+2, -839088.6, -833758.7, -13498.275, 0.048995126, -0.37247214, -822664.8, -86959.9, 0.0, 9.999477, 9.999555 
7.6501745e+2, 2.3492597e+2, -785307.1, -759658.5, -36336.86, -0.044279087, -0.2713522, -733949.3, -96250.81, 0.0, 9.999177, 9.999537 
7.650084e+2, 2.4492563e+2, -693982.0, -697727.44, -43855.12, -0.032406446, -0.23956005, -651959.6, -112256.59, 0.0, 9.9992695, 9.999245 
7.650001e+2, 2.54924e+2, -524469.3, -565316.06, -35990.824, 0.08971398, -0.34876835, -503510.9, -61790.234, 0.0, 9.999762, 9.999244 
7.6499146e+2, 2.6492366e+2, -407006.9, -454154.1, 20045.889, 0.13080278, -0.3028161, -399636.16, -55910.71, 0.0, 9.999891, 9.9992695 
7.649825e+2, 2.7492452e+2, -347256.13, -374314.53, 22351.678, 0.09758789, -0.16355947, -334658.0, -88939.59, 0.00000016204108, 9.999628, 9.999269 
7.649722e+2, 2.849245e+2, -266866.6, -319071.63, 1575.9906, -0.023012275, -0.07531046, -266819.06, -119098.62, 0.000006290961, 9.999641, 9.998972 
7.649605e+2, 2.9492322e+2, -129840.125, -197443.83, -5259.758, -0.229819, -0.12767851, -129433.34, -79698.49, 0.000041719115, 9.999888, 9.99901 
7.64953e+2, 3.0492097e+2, -64380.875, -175998.97, 33772.016, -0.055888873, -0.233697, -54958.035, -54958.035, 0.00013461517, 10.000167, 9.998691 
7.649455e+2, 3.1492183e+2, -6422.3506, -42489.29, 49455.855, 0.077950336, -0.04079154, 28185.299, 28185.299, 0.00029005748, 10.000066, 9.999649 
7.7512157e+2, 1.2494011e+2, -1580024.4, -1712190.3, -42880.902, -0.0068450943, -0.085533805, -1567330.9, 148236.44, 0.00000000045588486, 10.001112, 9.999474 
7.7511084e+2, 1.3493958e+2, -1775995.5, -1703629.3, 2343.0413, -0.035193954, -0.15384726, -1703553.5, -85979.734, 0.0, 9.998913, 9.999923 
7.75103e+2, 1.449386e+2, -1723603.9, -1611767.0, 53563.168, 0.10409044, -0.24497163, -1590252.4, -70670.945, 0.0, 9.9985285, 10.000062 
7.7509326e+2, 1.5493864e+2, -1339878.3, -1376945.5, 24213.531, -0.055899993, -0.27022094, -1327919.4, 93656.695, 0.0, 10.000497, 10.000052 
7.7508414e+2, 1.6493881e+2, -1217879.1, -1337701.5, -56560.27, -0.08624423, -0.22304784, -1195398.5, 128174.29, 0.0, 10.000978, 9.999411 
7.750761e+2, 1.7493887e+2, -1264900.3, -1307203.5, -41542.49, 0.060043808, -0.17880124, -1239434.6, -13860.626, 0.0, 9.999978, 9.999427 
7.750671e+2, 1.849382e+2, -1234226.4, -1309240.6, -61518.926, 0.122147575, -0.15642804, -1199682.4, -72099.695, 0.0, 9.999787, 9.998841 
7.7505696e+2, 1.9493659e+2, -1039034.44, -1165097.0, -58518.816, 0.08657153, -0.22123417, -1016057.6, 13543.341, 0.0, 10.000454, 9.998836 
7.750465e+2, 2.0493597e+2, -878107.8, -936334.8, -73767.69, 0.038236536, -0.20699838, -827916.4, 103690.61, 0.0, 10.000472, 9.99972 
7.750359e+2, 2.1493615e+2, -872674.6, -883677.8, -53193.707, -0.024013164, -0.17940488, -824698.75, 8904.01, 0.0, 9.999834, 9.999718 
7.750262e+2, 2.2493613e+2, -880507.94, -892884.0, -34998.31, -0.03158023, -0.12515622, -851154.8, -115551.26, 0.0, 9.999359, 9.999208 
7.750174e+2, 2.3493563e+2, -824999.5, -817534.6, -38777.49, 0.016557273, -0.11469903, -782310.3, -144698.4, 0.0, 9.999066, 9.999196 
7.7500886e+2, 2.4493466e+2, -673229.2, -634235.25, -35086.684, 0.07075954, -0.15355222, -613592.4, -73971.266, 0.0, 9.999184, 9.99972 
7.750005e+2, 2.549331e+2, -503683.38, -503819.6, -7569.3784, 0.1339953, -0.30330068, -496181.8, -54549.49, 0.0, 9.999684, 9.999702 
7.749907e+2, 2.649325e+2, -391354.34, -415187.38, 2986.7817, 0.04106034, -0.31738776, -390985.72, -47349.043, 0.0, 9.999858, 9.999557 
7.7497923e+2, 2.749327e+2, -334295.78, -335600.88, 21442.318, -0.21538973, -0.27588433, -313496.06, -67859.06, 0.00000014054619, 9.999569, 9.999569 
7.749698e+2, 2.8493264e+2, -266739.88, -302985.34, 3069.4182, -0.2529355, -0.21400395, -266481.78, -118843.54, 0.0000059856334, 9.99958, 9.999107 
7.7496237e+2, 2.9493216e+2, -125998.48, -183449.97, 17702.846, -0.061699677, -0.19955431, -120981.68, -71339.555, 0.0000396548, 9.999858, 9.999121 
7.749548e+2, 3.0493006e+2, -88523.4, -216014.0, 27059.188, 0.08880982, -0.28507712, -83017.98, -83017.98, 0.00012692052, 10.00013, 9.998434 
7.749432e+2, 3.1492773e+2, -85378.734, -185469.84, 82886.44, -0.21168774, -0.37877223, -38601.152, -38601.152, 0.00027215088, 9.999967, 9.998723 
7.851217e+2, 1.2495065e+2, -1911472.8, -1912002.5, -42403.45, 0.008698168, -0.055481825, -1869333.4, -153869.06, 0.0000000009851104, 9.999026, 9.999101 
7.8511155e+2, 1.349492e+2, -1469463.1, -1591890.5, -41844.293, 0.041502744, -0.18092231, -1456527.9, 160951.98, 0.0, 10.001196, 9.999578 
7.85104e+2, 1.4494827e+2, -1316921.0, -1468302.3, 68164.75, 0.20860149, -0.22710215, -1290751.5, 228736.34, 0.0, 10.001551, 9.999586 
7.8509426e+2, 1.5494846e+2, -1418395.9, -1469999.8, 56888.758, 0.013314799, -0.18920362, -1381731.3, 39750.758, 0.0, 10.000205, 9.999551 
7.850847e+2, 1.6494817e+2, -1396862.5, -1427367.1, -11351.417, -0.05771453, -0.16121274, -1393102.0, -69618.81, 0.0, 9.999765, 9.999374 
7.850759e+2, 1.7494713e+2, -1237795.3, -1298287.1, -30391.469, 0.03760144, -0.2220848, -1225164.0, 329.9709, 0.0, 10.000183, 9.999385 
7.850669e+2, 1.8494628e+2, -1127260.3, -1237436.3, -3198.8406, 0.09898629, -0.22384925, -1127167.4, 336.37128, 0.0, 10.000441, 9.999015 
7.8505754e+2, 1.9494542e+2, -1030095.9, -1138412.3, 7072.6465, 0.11138737, -0.23166052, -1029636.0, -121.089615, 0.0, 10.000435, 9.999022 
7.8504723e+2, 2.0494528e+2, -884907.7, -918198.56, -10524.054, 0.0748548, -0.1885594, -881859.8, 49656.17, 0.0, 10.000333, 9.9999075 
7.850359e+2, 2.149457e+2, -835433.25, -844902.6, -16398.188, -0.0076622525, -0.15539111, -823099.94, 10408.768, 0.0, 10.000002, 9.9999 
7.8502613e+2, 2.2494553e+2, -763027.94, -846781.5, 52427.285, -0.008705156, -0.120121785, -737805.7, -2294.7542, 0.0, 10.000202, 9.999119 
7.850179e+2, 2.3494454e+2, -560600.75, -699384.94, 50277.99, 0.07049094, -0.15171884, -544300.75, 93224.266, 0.0, 10.000917, 9.999116 
7.8500915e+2, 2.4494377e+2, -427048.97, -498682.63, 53511.51, 0.10736972, -0.17326725, -398473.8, 141058.55, 0.0, 10.000804, 9.9998665 
7.8499997e+2, 2.5494307e+2, -463246.5, -467053.13, 36712.35, 0.105882175, -0.25026602, -428388.16, 13146.357, 0.0, 9.999882, 9.999857 
7.849899e+2, 2.649426e+2, -463791.8, -457782.9, 40711.434, 0.003018797, -0.26246384, -419965.22, -76426.97, 0.0, 9.999399, 9.999483 
7.8497875e+2, 2.7494198e+2, -370632.88, -362036.6, 11796.867, -0.20372029, -0.2894156, -353779.25, -108232.82, 0.0000001311964, 9.999359, 9.999487 
7.849696e+2, 2.8494155e+2, -245890.2, -288718.5, 18347.135, -0.22317746, -0.26176885, -239105.36, -91554.31, 0.0000058891046, 9.999698, 9.999151 
7.849627e+2, 2.9494137e+2, -56768.59, -146026.02, 7306.2827, -0.029281784, -0.21983662, -56174.477, -6623.2207, 0.000037489564, 10.000321, 9.999154 
7.849551e+2, 3.0494e+2, -30187.857, -140709.39, 28672.02, 0.10641734, -0.2559253, -23192.402, -23192.402, 0.00011865352, 10.000306, 9.998869 
7.8494316e+2, 3.1493703e+2, -116314.945, -133658.84, 113079.13, -0.16916911, -0.46613947, -11575.723, -11575.723, 0.0002544846, 9.999454, 9.999323 
7.9512066e+2, 1.2495835e+2, -1905979.6, -1926470.8, 33343.625, -0.049200106, -0.25208327, -1881343.0, -165956.03, 0.0000000034592607, 9.999137, 9.998953 
7.951127e+2, 1.349584e+2, -1468045.1, -1598361.4, 42637.39, 0.008723193, -0.21827367, -1455334.5, 162053.8, 0.0, 10.001242, 9.99951 
7.951054e+2, 1.4495833e+2, -1324816.5, -1478799.3, 4885.845, 0.16646686, -0.17185377, -1324661.6, 194726.2, 0.0, 10.001526, 9.999526 
7.9509443e+2, 1.5495768e+2, -1418239.8, -1471949.8, 18321.67, -0.016173238, -0.21468866, -1412585.1, 8804.239, 0.0, 10.000215, 9.99953 
7.950845e+2, 1.6495652e+2, -1414736.1, -1461877.5, -4963.407, -0.085415855, -0.26212415, -1414219.1, -90820.37, 0.0, 9.99975, 9.999149 
7.950759e+2, 1.7495465e+2, -1251674.4, -1330837.4, -6115.7744, -0.008028206, -0.3836592, -1251204.8, -25786.893, 0.0, 10.000192, 9.999162 
7.9506683e+2, 1.8495405e+2, -1103313.5, -1170877.3, -11750.592, 0.031826958, -0.37532777, -1101328.1, 26096.7, 0.0, 10.00037, 9.999502 
7.9505724e+2, 1.9495445e+2, -1001659.25, -1067769.4, 16651.465, 0.01624849, -0.30676383, -997702.0, 31720.273, 0.0, 10.000385, 9.999525 
7.950471e+2, 2.0495455e+2, -893903.0, -912752.4, -32568.53, 0.016637342, -0.27150017, -869422.9, 61997.453, 0.0, 10.000232, 9.999995 
7.9503644e+2, 2.14954e+2, -845495.6, -840358.4, -20452.346, 0.029089589, -0.34277654, -822314.0, 11107.792, 0.0, 9.999892, 9.999985 
7.950269e+2, 2.2495347e+2, -769788.6, -830254.6, 72044.71, 0.036311705, -0.35735112, -721890.5, 13536.244, 0.0, 10.000072, 9.999295 
7.950186e+2, 2.3495275e+2, -564065.0, -683919.7, 87536.516, 0.032228988, -0.37746316, -517907.78, 119529.21, 0.0, 10.000816, 9.999272 
7.9500896e+2, 2.4495298e+2, -452016.94, -531923.4, 9329.594, -0.008935207, -0.29943457, -450942.13, 88494.54, 0.0, 10.000724, 9.999678 
7.9499805e+2, 2.5495392e+2, -490761.7, -503000.4, 11092.785, -0.08843275, -0.19258489, -484212.34, -42784.59, 0.0, 9.999789, 9.999657 
7.949887e+2, 2.6495376e+2, -499471.6, -524125.5, 29620.898, -0.07054947, -0.1383747, -479715.03, -136284.55, 0.0, 9.999358, 9.999049 
7.9498076e+2, 2.749523e+2, -411499.25, -435381.16, 22759.186, 0.043172237, -0.20792957, -397738.72, -152291.39, 0.000000103459534, 9.999306, 9.99901 
7.949717e+2, 2.8495127e+2, -254087.73, -298098.1, 34682.934, -0.011936045, -0.21188954, -235018.17, -87559.75, 0.0000054454867, 9.999666, 9.999102 
7.9496104e+2, 2.9495072e+2, -72407.6, -162255.63, 45443.88, -0.2488561, -0.20236017, -53430.805, -3967.3962, 0.00003447301, 10.00025, 9.99908 
7.9495347e+2, 3.0495074e+2, 47812.105, 29559.43, -6487.122, -0.10980448, -0.1537819, 49882.766, 49882.766, 0.0001104858, 10.000267, 10.000057 
7.949451e+2, 3.149487e+2, 1293.4562, 133261.6, 118785.05, 0.02990212, -0.3916421, 203159.03, 203159.03, 0.000240168, 9.999349, 10.00121 
8.0512214e+2, 1.2496717e+2, -1499965.4, -1700841.8, 20376.258, 0.059233353, -0.2445785, -1497919.4, 217384.13, 0.0000000057252847, 10.001816, 9.999214 
8.05113e+2, 1.3496731e+2, -1583018.4, -1644799.4, -6241.3857, -0.028825095, -0.21143082, -1582394.1, 34908.664, 0.0, 10.000403, 9.999614 
8.051052e+2, 1.449675e+2, -1570110.6, -1547514.8, -32298.66, 0.101684324, -0.16366589, -1524595.0, -5296.675, 0.0, 9.999635, 9.999963 
8.05095e+2, 1.5496688e+2, -1461110.1, -1449654.9, -13134.373, 0.051925085, -0.2475989, -1441053.6, -19754.941, 0.0, 9.999734, 9.999918 
8.050853e+2, 1.649658e+2, -1384011.0, -1437186.4, 47843.223, 0.027395627, -0.31016508, -1355864.1, -32557.27, 0.0, 9.999917, 9.999248 
8.0507666e+2, 1.7496416e+2, -1253704.1, -1323117.9, 52619.645, 0.05747199, -0.41399628, -1225376.1, -52.13962, 0.0, 10.000143, 9.999245 
8.050673e+2, 1.84964e+2, -1094904.0, -1118172.5, 56163.113, 0.05734127, -0.3849813, -1049182.8, 78143.6, 0.0, 10.000226, 9.999931 
8.050574e+2, 1.9496511e+2, -1019331.25, -1034320.06, 57823.465, 0.012870249, -0.28735214, -968518.56, 60797.81, 0.0, 10.000082, 9.999909 
8.0504745e+2, 2.0496519e+2, -912741.06, -960878.1, 8976.831, 0.025999257, -0.2526678, -911121.5, 20193.385, 0.0, 10.000264, 9.999654 
8.0503744e+2, 2.14964e+2, -752711.8, -832567.3, -31303.117, 0.10016842, -0.35379252, -741903.9, 91420.49, 0.0, 10.000692, 9.999653 
8.050279e+2, 2.2496316e+2, -720023.1, -805659.94, 46321.324, 0.11458061, -0.38365677, -699761.56, 35571.13, 0.0, 10.000417, 9.999291 
8.050189e+2, 2.3496246e+2, -776673.5, -785593.56, 32361.299, 0.06379398, -0.40030864, -748466.4, -111124.984, 0.0, 9.999365, 9.999267 
8.0500895e+2, 2.4496278e+2, -646995.7, -627887.8, -18020.275, -0.007184264, -0.31285384, -617045.5, -77705.305, 0.0, 9.999382, 9.999672 
8.049981e+2, 2.5496385e+2, -395141.97, -459162.9, -20317.453, -0.09102288, -0.19497675, -389238.47, 52093.05, 0.0, 10.000443, 9.999652 
8.049889e+2, 2.6496378e+2, -281319.28, -441986.38, 30390.295, -0.05848665, -0.122080386, -275763.06, 67571.07, 0.0, 10.000955, 9.998842 
8.0498147e+2, 2.749623e+2, -183276.2, -345359.84, 23348.496, 0.097600125, -0.17182024, -179979.84, 65370.938, 0.00000004701224, 10.000951, 9.998836 
8.0497223e+2, 2.849611e+2, -150064.97, -272506.72, 56481.62, 0.043209046, -0.17660698, -127990.17, 19373.963, 0.000004093495, 10.000491, 9.998879 
8.049612e+2, 2.9496e+2, -174652.45, -237000.72, 30986.68, -0.22689597, -0.20063113, -161872.06, -112497.02, 0.000029631305, 9.999657, 9.998851 
8.0495334e+2, 3.0495986e+2, -110787.07, -111954.13, -78999.3, -0.10609928, -0.12441304, -32369.154, -32369.154, 0.00010221737, 9.999471, 9.999475 
8.0494523e+2, 3.1495887e+2, 63924.18, 167514.31, -112546.05, 0.09401752, -0.20163761, 239611.7, 239611.7, 0.00023173695, 9.999791, 10.00123 
8.151253e+2, 1.2497729e+2, -1463203.5, -1635968.6, -44303.406, 0.14211807, -0.03148461, -1452505.0, 262706.7, 0.000000004999778, 10.00186, 9.99964 
8.151123e+2, 1.3497603e+2, -1557015.5, -1598155.8, -52697.16, -0.1674434, -0.16929735, -1521016.0, 96206.09, 0.0, 10.000438, 9.999912 
8.1510335e+2, 1.4497595e+2, -1516492.3, -1438332.3, -40134.24, -0.07945814, -0.20051868, -1421394.4, 97823.695, 0.0, 9.999641, 10.000713 
8.150957e+2, 1.5497603e+2, -1400984.0, -1329464.3, 789.5032, 0.121582516, -0.28883567, -1329455.5, 91753.85, 0.0, 9.999755, 10.000732 
8.150871e+2, 1.6497599e+2, -1359903.6, -1384131.4, 45326.246, 0.18687744, -0.3077657, -1325100.4, -1893.5175, 0.0, 9.999905, 9.999615 
8.1507784e+2, 1.7497562e+2, -1227709.8, -1266243.5, 69955.87, 0.13810986, -0.32579207, -1174416.0, 50796.55, 0.0, 10.000132, 9.999636 
8.1506807e+2, 1.8497615e+2, -1084068.1, -1083554.0, 42826.98, 0.085894994, -0.26057348, -1040983.3, 86225.2, 0.0, 10.000169, 10.000199 
8.150577e+2, 1.9497736e+2, -1007277.0, -998384.4, 62293.906, 0.012478779, -0.18041451, -940378.3, 88818.77, 0.0, 10.0000305, 10.00018 
8.150478e+2, 2.0497726e+2, -988860.06, -1092113.0, 14364.797, 0.02395912, -0.13405995, -986898.9, -55699.734, 0.0, 10.000148, 9.998812 
8.1503844e+2, 2.1497571e+2, -827434.9, -961515.9, -6135.547, 0.12155024, -0.19114038, -827154.7, 6061.7886, 0.0, 10.000578, 9.998823 
8.150287e+2, 2.2497457e+2, -750317.3, -837772.1, -2650.7195, 0.13993824, -0.19828124, -750237.0, -15008.135, 0.0, 10.000284, 9.999135 
8.1501853e+2, 2.3497364e+2, -803308.06, -815131.25, 1913.1208, 0.07107895, -0.22674333, -803006.2, -165767.38, 0.0, 9.999252, 9.999118 
8.1500894e+2, 2.4497312e+2, -648309.6, -608529.0, 12570.094, 0.02765935, -0.22075902, -604889.94, -65646.36, 0.0, 9.999288, 9.99985 
8.149998e+2, 2.549729e+2, -395246.56, -441171.88, 28272.406, 0.016362285, -0.24860181, -381786.53, 59458.598, 0.0, 10.000366, 9.999813 
8.149902e+2, 2.649726e+2, -280886.34, -431314.6, 22580.514, -0.038634613, -0.21127303, -277569.94, 65678.836, 0.0, 10.000915, 9.998934 
8.1498015e+2, 2.7497205e+2, -194828.47, -341644.97, 35106.28, -0.14390852, -0.17927536, -186865.83, 58390.79, 0.000000004527389, 10.000839, 9.998913 
8.1497097e+2, 2.8497097e+2, -182092.06, -333961.13, 13774.275, -0.15482074, -0.15459345, -180852.88, -33584.39, 0.0000024308686, 10.000462, 9.998474 
8.1496274e+2, 2.949692e+2, -220855.03, -315457.2, 9125.534, -0.061966088, -0.20185658, -219982.8, -170696.92, 0.00002455122, 9.999581, 9.99835 
8.1495434e+2, 3.0496737e+2, -279392.88, -461576.44, -71381.03, 0.032354336, -0.14640321, -254756.67, -254756.67, 0.00009685274, 9.999468, 9.99707 
8.1494254e+2, 3.1496665e+2, -85985.35, -114837.58, -67698.63, -0.20309278, 0.037877027, -31192.842, -31192.842, 0.00023260323, 9.999671, 9.999347 
8.2512677e+2, 1.2498755e+2, -1703589.6, -1732208.9, 96919.85, 0.20520988, -0.0033473715, -1619928.8, 95182.49, 0.0000000017683296, 10.0001, 9.999824 
8.2511336e+2, 1.3498613e+2, -1678731.6, -1660533.0, 23902.965, -0.056580435, -0.1612281, -1644056.0, -26933.236, 0.0, 9.999605, 9.999886 
8.2510364e+2, 1.4498594e+2, -1533691.0, -1467502.4, 70889.67, -0.0020407846, -0.19200915, -1422362.5, 96757.93, 0.0, 9.999618, 10.000521 
8.2509583e+2, 1.5498586e+2, -1340099.4, -1325032.0, 18000.879, 0.13676037, -0.2763834, -1313051.9, 108063.66, 0.0, 10.000282, 10.000505 
8.25087e+2, 1.6498598e+2, -1279702.0, -1338163.9, 13358.316, 0.17400435, -0.27013904, -1276794.4, 46318.332, 0.0, 10.000429, 9.999668 
8.250778e+2, 1.7498617e+2, -1243576.4, -1273184.0, -8360.739, 0.1325196, -0.23664856, -1241378.6, -16265.237, 0.0, 10.000013, 9.999645 
8.25068e+2, 1.849868e+2, -1140157.8, -1085477.1, -35756.73, 0.0930197, -0.17473876, -1067805.9, 59302.117, 0.0, 9.99968, 10.00042 
8.250576e+2, 1.949876e+2, -1091328.3, -1014146.56, -40372.715, 0.037707116, -0.15634327, -996887.5, 32211.713, 0.0, 9.999356, 10.000392 
8.25048e+2, 2.049875e+2, -1035777.56, -1114352.3, -189.882, 0.05193684, -0.12175018, -1035777.1, -104676.02, 0.0, 9.99983, 9.998801 
8.250394e+2, 2.1498637e+2, -761167.3, -933573.8, 19801.021, 0.13993156, -0.13277423, -758922.4, 74192.625, 0.0, 10.001049, 9.998788 
8.2502973e+2, 2.249853e+2, -588839.8, -785418.7, 14578.543, 0.15963408, -0.121832386, -587764.56, 147362.88, 0.0, 10.001494, 9.998921 
8.2501906e+2, 2.3498401e+2, -543510.7, -714847.56, -6085.0386, 0.10800548, -0.1620124, -543294.8, 93846.23, 0.0, 10.001138, 9.998906 
8.2500935e+2, 2.4498333e+2, -442956.13, -491784.13, 53315.734, 0.08124485, -0.17126307, -408730.44, 130416.59, 0.0, 10.00063, 10.000004 
8.250006e+2, 2.549831e+2, -431962.2, -436584.13, 49149.07, 0.08173622, -0.21473883, -385069.8, 56077.313, 0.0, 10.000037, 9.999998 
8.249909e+2, 2.6498276e+2, -429800.25, -501327.34, 52277.406, -0.009645476, -0.19289649, -402223.78, -59073.34, 0.0, 9.999884, 9.998953 
8.249801e+2, 2.7498206e+2, -294639.9, -387131.38, 41760.207, -0.19200605, -0.17953669, -278575.28, -33415.707, 0.0, 10.000139, 9.9989395 
8.2497114e+2, 2.8498104e+2, -166539.27, -356251.38, 40356.01, -0.19169527, -0.13190368, -158311.47, -11140.67, 0.000001518397, 10.000706, 9.998203 
8.24964e+2, 2.949795e+2, 48720.49, -212502.69, 25990.031, 0.012500663, -0.13060893, 51281.23, 100468.195, 0.000022026383, 10.001551, 9.998108 
8.249552e+2, 3.0497667e+2, -55312.992, -363394.1, 36870.313, 0.09630054, -0.15757786, -50961.902, -50961.902, 0.00009707927, 10.001045, 9.996979 
8.2494205e+2, 3.1497568e+2, -178656.7, -185282.73, 181682.22, -0.18127207, 0.000846261, -257.2947, -257.2947, 0.00024343694, 9.999127, 9.999119 
8.3512604e+2, 1.24997996e+2, -1708499.0, -1740431.6, 54227.918, 0.07007943, -0.15400377, -1667935.8, 47066.465, 0.000000000051048894, 10.000094, 9.999771 
8.351159e+2, 1.3499767e+2, -1675188.9, -1669713.0, 12851.524, 0.20807509, -0.1860212, -1659311.0, -42306.617, 0.0, 9.99968, 9.999785 
8.3510584e+2, 1.4499754e+2, -1617452.8, -1650463.3, 83513.85, 0.22595479, -0.142594, -1548828.8, -29823.553, 0.0, 9.999655, 9.999248 
8.35095e+2, 1.5499634e+2, -1424093.0, -1501633.5, 52028.668, -0.0043523265, -0.21723998, -1397977.9, 23039.309, 0.0, 10.000292, 9.999287 
8.3508503e+2, 1.649958e+2, -1308520.5, -1383533.0, -11476.706, -0.09462091, -0.20282374, -1306803.9, 16219.991, 0.0, 10.000371, 9.999387 
8.3507633e+2, 1.7499596e+2, -1264213.5, -1311197.1, -11228.103, -0.03315749, -0.1436119, -1261668.1, -36643.06, 0.0, 10.000001, 9.999389 
8.35067e+2, 1.8499605e+2, -1135081.1, -1070245.6, -58231.223, 0.0010666822, -0.12589662, -1036016.7, 91007.2, 0.0, 9.999654, 10.000541 
8.350568e+2, 1.9499579e+2, -1087772.1, -994015.1, -42774.61, -0.0028191314, -0.2271462, -977432.94, 51590.246, 0.0, 9.999301, 10.000558 
8.350477e+2, 2.0499589e+2, -997090.25, -1010169.94, 35979.74, 0.019220226, -0.22160281, -967060.9, -36039.883, 0.0, 9.999724, 9.999568 
8.3503985e+2, 2.149961e+2, -722688.4, -827682.56, 75259.02, 0.06614958, -0.17863096, -683425.6, 149593.8, 0.0, 10.000937, 9.999564 
8.3503073e+2, 2.2499542e+2, -627527.5, -837715.6, -10240.557, 0.09415081, -0.15118729, -627029.75, 107997.88, 0.0, 10.001369, 9.998625 
8.350202e+2, 2.3499368e+2, -580353.6, -767970.0, -9692.387, 0.0932454, -0.20630285, -579854.25, 57193.355, 0.0, 10.001031, 9.998596 
8.3501e+2, 2.4499343e+2, -445222.63, -478502.16, 21878.668, 0.06847889, -0.16236384, -434375.0, 104675.0, 0.0, 10.00055, 10.0001335 
8.3500016e+2, 2.5499448e+2, -436141.28, -427783.78, 37705.74, 0.018741112, -0.092916965, -394025.94, 47011.258, 0.0, 9.999956, 10.000099 
8.349905e+2, 2.649942e+2, -440988.94, -509880.94, 54674.074, -0.050880097, -0.067266546, -410814.66, -67775.21, 0.0, 9.999821, 9.998924 
8.34981e+2, 2.7499244e+2, -309341.28, -400176.34, 63717.03, -0.13918358, -0.15797973, -276511.7, -31452.945, 0.0, 10.000065, 9.998887 
8.349723e+2, 2.8499147e+2, -178314.89, -371857.53, 64195.465, -0.15693782, -0.09654961, -158958.08, -11887.985, 0.0000012583888, 10.0006695, 9.998112 
8.349646e+2, 2.94991e+2, 27867.121, -233156.63, 69957.96, -0.103912674, 0.019156931, 45434.5, 94512.14, 0.000022671806, 10.001455, 9.9980135 
8.3495545e+2, 3.0498773e+2, 100661.29, -33723.46, -38131.5, -0.0042074807, -0.16324094, 110727.09, 110727.09, 0.0001036696, 10.001019, 9.99926 
8.349432e+2, 3.149872e+2, -88037.95, 23924.06, 152199.28, -0.036222752, -0.17375556, 130111.16, 130111.16, 0.0002623637, 9.999046, 10.000596 
8.45125e+2, 1.2500799e+2, -1739906.0, -1756064.9, 10924.917, -0.019234182, -0.22970863, -1734397.5, -19496.344, 0.0, 9.999901, 9.999756 
8.4511733e+2, 1.3500778e+2, -1475178.0, -1595758.5, -74070.484, 0.31809217, -0.22739625, -1439962.5, 176941.0, 0.0, 10.001168, 9.999573 
8.451075e+2, 1.4500779e+2, -1423877.6, -1605477.3, 24380.43, 0.3544248, -0.13989705, -1420661.5, 98244.06, 0.0, 10.001198, 9.998807 
8.450954e+2, 1.5500693e+2, -1460688.3, -1573096.9, 27357.477, 0.022185493, -0.13366951, -1454383.6, -33466.3, 0.0, 10.000276, 9.998805 
8.4508485e+2, 1.6500628e+2, -1379866.3, -1386632.4, 28439.06, -0.10988636, -0.11840033, -1354609.8, -31684.479, 0.0, 9.999741, 9.999674 
8.45076e+2, 1.7500585e+2, -1329689.9, -1313195.1, 49682.98, -0.031091806, -0.14595255, -1271079.6, -46149.984, 0.0, 9.999421, 9.999658 
8.450667e+2, 1.8500562e+2, -1121174.3, -1097307.4, 54580.84, 0.0059632068, -0.16059968, -1053370.6, 73560.37, 0.0, 9.999897, 10.000233 
8.4505683e+2, 1.9500531e+2, -840121.0, -915665.56, 16408.97, -0.010161808, -0.23449041, -836710.75, 192221.45, 0.0, 10.001166, 10.000201 
8.450481e+2, 2.0500553e+2, -746822.1, -851213.5, 64539.82, 0.019592404, -0.21606684, -716013.1, 214915.95, 0.0, 10.001282, 9.999913 
8.4504074e+2, 2.1500598e+2, -814114.94, -837155.3, 49280.934, 0.0994051, -0.17783736, -775025.56, 57898.504, 0.0, 10.000162, 9.999878 
8.4503156e+2, 2.2500558e+2, -827147.4, -893790.56, -9374.186, 0.1199244, -0.15598214, -825853.9, -90925.484, 0.0, 9.999842, 9.998961 
8.4502065e+2, 2.3500422e+2, -663781.5, -766500.9, 15702.3955, 0.07681494, -0.20969929, -661434.75, -24491.73, 0.0, 10.000301, 9.998943 
8.4501016e+2, 2.4500388e+2, -515310.38, -586257.7, 41654.387, 0.039170448, -0.16057423, -496071.44, 42875.086, 0.0, 10.000384, 9.999473 
8.45e+2, 2.550043e+2, -467376.44, -512584.44, -22341.986, 0.00870054, -0.08847961, -458198.28, -17256.518, 0.0, 10.000048, 9.999464 
8.449906e+2, 2.6500356e+2, -423975.56, -505573.9, 11664.317, -0.024767295, -0.07211221, -422340.9, -79392.27, 0.0, 9.999959, 9.998881 
8.4498197e+2, 2.7500162e+2, -295530.0, -393619.88, 2449.1252, -0.047576886, -0.17648542, -295468.88, -50500.215, 0.0000000050987805, 10.000166, 9.9988785 
8.4497327e+2, 2.850009e+2, -266811.06, -363296.5, 34249.152, -0.08870967, -0.12005237, -255889.92, -108912.24, 0.0000017149706, 9.99983, 9.998576 
8.4496427e+2, 2.9500085e+2, -309950.3, -334042.78, 62988.605, -0.14440036, -0.0074217077, -257866.39, -208885.98, 0.0000255943, 9.998864, 9.998564 
8.4495485e+2, 3.0499852e+2, -132634.9, -46560.23, -61259.35, -0.05741168, -0.17488794, -14731.551, -14731.551, 0.000114907256, 9.998989, 10.0001545 
8.4494424e+2, 3.1499854e+2, 78586.62, 135994.72, -5653.348, 0.11959813, -0.21585985, 136546.14, 136546.14, 0.00028673265, 10.000031, 10.000904 
8.5512316e+2, 1.2501794e+2, -1749903.6, -1787701.5, 27734.635, -0.24406263, -0.21127158, -1735241.0, -20437.197, 0.0, 9.999945, 9.999521 
8.551174e+2, 1.3501662e+2, -1502294.9, -1649438.4, -23593.82, 0.18549341, -0.2848181, -1498604.3, 118214.21, 0.0, 10.00117, 9.999197 
8.551084e+2, 1.4501676e+2, -1396296.0, -1553992.3, -21533.35, 0.29687738, -0.18139313, -1393408.5, 125411.65, 0.0, 10.001209, 9.999163 
8.5509694e+2, 1.5501769e+2, -1428169.6, -1515058.3, 7395.543, 0.119491205, -0.031316526, -1427544.8, -6729.2134, 0.0, 10.000315, 9.999184 
8.550863e+2, 1.6501752e+2, -1328887.8, -1281495.8, 5108.1426, 0.036718354, -0.023049269, -1280951.4, 41865.26, 0.0, 9.999739, 10.000401 
8.550765e+2, 1.7501591e+2, -1274837.4, -1199789.8, 45170.355, 0.04777074, -0.24492368, -1178590.5, 46236.42, 0.0, 9.999422, 10.000436 
8.550669e+2, 1.8501556e+2, -1181669.9, -1213062.9, 93771.195, 0.012846581, -0.2720525, -1102290.6, 24538.578, 0.0, 9.999849, 9.999465 
8.5505754e+2, 1.9501626e+2, -899090.6, -1028713.3, 73209.8, -0.07489808, -0.16836609, -866125.75, 162699.55, 0.0, 10.001122, 9.999447 
8.5504913e+2, 2.0501654e+2, -769839.5, -880827.4, 11914.179, -0.024602234, -0.097055785, -768574.94, 162249.25, 0.0, 10.001195, 9.999757 
8.550416e+2, 2.1501608e+2, -836325.94, -860123.2, 17540.424, 0.15781854, -0.13711087, -827029.2, 5799.636, 0.0, 10.000056, 9.999774 
8.5503185e+2, 2.2501577e+2, -784142.06, -770010.1, -625.8726, 0.15422672, -0.14734165, -769982.44, -35152.656, 0.0, 9.999697, 9.999882 
8.5502005e+2, 2.3501551e+2, -614264.3, -638861.06, 43596.203, -0.031188024, -0.18170218, -581265.0, 55563.19, 0.0, 10.000195, 9.99987 
8.550094e+2, 2.4501456e+2, -630527.9, -803726.94, 18356.246, -0.08971182, -0.1693501, -628603.8, -89766.5, 0.0, 10.000292, 9.998026 
8.5499996e+2, 2.550125e+2, -582938.2, -730665.6, -26887.693, -0.02376234, -0.19720733, -578196.6, -137335.9, 0.0, 9.999951, 9.998015 
8.54991e+2, 2.6501086e+2, -434202.1, -512055.13, 9274.642, 0.0068390565, -0.20394762, -433112.47, -90234.11, 0.0, 9.999893, 9.998872 
8.549828e+2, 2.7500948e+2, -311330.28, -404940.34, 21636.516, -0.0043285396, -0.24539255, -306571.28, -61680.31, 0.0000001292932, 10.000073, 9.99885 
8.549734e+2, 2.8500915e+2, -199084.38, -202847.61, -8891.244, -0.07737558, -0.20351349, -191877.83, -44983.59, 0.0000031613251, 9.999752, 9.999712 
8.549627e+2, 2.950093e+2, -242895.77, -174812.25, 38260.613, -0.21379368, -0.19143254, -157641.55, -108747.46, 0.000030116835, 9.998779, 9.999699 
8.54953e+2, 3.0500898e+2, -173636.84, -116860.2, -28142.977, -0.15511023, -0.186029, -105274.484, -105274.484, 0.0001273879, 9.998937, 9.999696 
8.5494465e+2, 3.150103e+2, -27031.691, -42650.637, 52480.742, 0.11762816, -0.039803494, 18217.447, 18217.447, 0.00031292601, 9.999872, 9.999753 
8.6512446e+2, 1.2502672e+2, -1669210.3, -1713870.4, 4078.1768, -0.11696875, -0.21599913, -1668840.9, 45881.227, 0.00000000000000000000885557, 10.000342, 9.99983 
8.6511683e+2, 1.3502653e+2, -1554931.9, -1652158.8, -29316.299, 0.046677392, -0.2025182, -1546776.4, 69948.18, 0.0, 10.00068, 9.999425 
8.651076e+2, 1.4502674e+2, -1456975.4, -1550515.9, -30769.133, 0.13110985, -0.11755009, -1447761.8, 70962.84, 0.0, 10.000664, 9.999447 
8.6509794e+2, 1.5502717e+2, -1392292.4, -1473081.1, -31056.016, 0.19145504, -0.04396022, -1381734.0, 38990.363, 0.0, 10.000447, 9.999417 
8.650877e+2, 1.6502696e+2, -1239361.6, -1238987.9, -26529.63, 0.17882442, -0.047975186, -1212644.5, 110081.125, 0.0, 10.000366, 10.000375 
8.650768e+2, 1.7502595e+2, -1125636.1, -1135317.9, -68368.13, 0.090167336, -0.209282, -1061937.8, 162793.13, 0.0, 10.000478, 10.000364 
8.6506706e+2, 1.8502599e+2, -1143270.8, -1168363.9, 12041.857, 0.042795297, -0.20634598, -1138427.0, -11697.891, 0.0, 10.000013, 9.999684 
8.650586e+2, 1.950269e+2, -1204767.1, -1150441.5, 49148.703, 0.028986184, -0.10080553, -1121449.1, -92727.09, 0.0, 9.998933, 9.999657 
8.650502e+2, 2.0502691e+2, -1108749.5, -1068680.5, 34103.88, 0.07580705, -0.05453107, -1049161.8, -118438.47, 0.0, 9.998988, 9.999518 
8.650418e+2, 2.1502575e+2, -851062.06, -894735.56, 8631.091, 0.17569743, -0.143815, -849418.2, -16682.506, 0.0, 10.000086, 9.999512 
8.650318e+2, 2.2502543e+2, -653050.8, -681558.25, -17898.969, 0.14423707, -0.15385692, -644423.5, 90312.984, 0.0, 10.000476, 10.000123 
8.6502033e+2, 2.3502584e+2, -610539.0, -611875.44, -40769.902, -0.01158322, -0.14499079, -570431.8, 66295.1, 0.0, 10.000103, 10.000106 
8.6501e+2, 2.4502467e+2, -658619.94, -829285.9, -23474.006, -0.044153225, -0.15808953, -655450.1, -116713.02, 0.0, 10.00016, 9.997907 
8.6500084e+2, 2.5502166e+2, -482351.22, -694824.0, 10613.541, 0.04109598, -0.2715433, -481822.38, -41052.637, 0.0, 10.000706, 9.997895 
8.649919e+2, 2.650199e+2, -337307.56, -479430.63, 98333.65, 0.066785, -0.27540037, -287046.2, 55742.05, 0.0000000005766255, 10.000614, 9.998746 
8.649831e+2, 2.750193e+2, -344532.0, -434113.56, 80373.14, 0.038450696, -0.23276791, -297311.6, -52517.72, 0.000000514823, 9.999896, 9.998732 
8.649732e+2, 2.8501883e+2, -262813.06, -261689.83, 2450.3184, -0.043507412, -0.18409146, -259737.6, -112938.7, 0.0000054394536, 9.999423, 9.999476 
8.6496216e+2, 2.9501814e+2, -198315.47, -173452.81, -68915.164, -0.16551289, -0.22985911, -115856.734, -67049.09, 0.000035908153, 9.9991665, 9.999527 
8.6495245e+2, 3.0501828e+2, -62893.336, -126292.44, -95715.73, -0.14677611, -0.14577897, 6235.4956, 6235.4956, 0.00014004746, 9.999963, 9.999128 
8.6494535e+2, 3.1501922e+2, 163621.03, -2452.3809, -63713.727, 0.13725762, 0.01337716, 185248.23, 185248.23, 0.00033713353, 10.001413, 9.999269 
8.751279e+2, 1.250346e+2, -1602045.5, -1587946.1, -12444.922, 0.14538275, -0.22166559, -1580692.9, 133959.9, 0.0000000055054987, 10.000389, 10.000673 
8.7511533e+2, 1.3503766e+2, -1488496.4, -1508922.5, -7781.8677, -0.18926224, 0.014769882, -1485869.5, 130751.055, 0.0, 10.000662, 10.000409 
8.7510496e+2, 1.4503789e+2, -1453392.5, -1543699.3, -50650.66, -0.2276537, 0.050576095, -1430690.8, 87926.96, 0.0, 10.000662, 9.999497 
8.750983e+2, 1.5503548e+2, -1385337.0, -1456394.9, -28725.139, 0.15149367, -0.16782446, -1375177.5, 45465.22, 0.0, 10.000447, 9.999527 
8.7508875e+2, 1.6503486e+2, -1294003.3, -1357515.0, -31017.4, 0.22486131, -0.18016998, -1281368.8, 41281.504, 0.0, 10.000377, 9.999562 
8.750767e+2, 1.7503603e+2, -1179718.3, -1252323.8, -54362.7, 0.013735155, -0.03973229, -1150651.3, 73989.2, 0.0, 10.000494, 9.999555 
8.75067e+2, 1.8503697e+2, -1065065.1, -1000726.56, -37295.383, 0.013629729, 0.037222706, -983643.4, 142986.36, 0.0, 9.999988, 10.000851 
8.7505955e+2, 1.9503728e+2, -1124953.3, -977238.06, 18477.35, 0.21547717, -0.0392468, -974961.9, 53660.08, 0.0, 9.998896, 10.000864 
8.750509e+2, 2.0503666e+2, -1151791.3, -1134406.3, 66377.2, 0.23469287, -0.09746862, -1076154.8, -145528.25, 0.0, 9.998885, 9.999118 
8.75041e+2, 2.15035e+2, -894562.44, -960154.75, 57849.074, 0.070329174, -0.19441614, -860859.7, -28215.3, 0.0, 9.999978, 9.999115 
8.750311e+2, 2.2503461e+2, -700071.0, -752165.06, -41921.336, 0.01390868, -0.17002873, -676763.75, 57883.906, 0.0, 10.000358, 9.999696 
8.750213e+2, 2.3503521e+2, -657293.4, -678863.9, -44877.785, 0.059130467, -0.0998825, -621923.06, 14715.687, 0.0, 9.999973, 9.999708 
8.750118e+2, 2.4503429e+2, -591638.5, -668101.25, -12262.735, 0.094973356, -0.129096, -589720.0, -51074.535, 0.0, 10.00006, 9.9990635 
8.7500244e+2, 2.5503168e+2, -418017.1, -534853.6, 42419.59, 0.1143437, -0.31719333, -404240.38, 36428.785, 0.0, 10.000593, 9.999046 
8.749927e+2, 2.6503068e+2, -363667.22, -522831.53, 62986.402, 0.07735711, -0.29007968, -341757.47, 921.3327, 0.0000000691861, 10.000562, 9.998474 
8.749827e+2, 2.7503097e+2, -376320.5, -480176.63, 63695.055, -0.015797114, -0.12879854, -346068.38, -101391.05, 0.000001269736, 9.999811, 9.998456 
8.749726e+2, 2.8503e+2, -372708.13, -483419.97, -18160.334, -0.06945138, -0.044457767, -369805.34, -223114.86, 0.000008255043, 9.999392, 9.9979725 
8.749623e+2, 2.950274e+2, -314905.94, -400165.13, -66429.234, -0.09116226, -0.12509042, -278604.38, -229882.7, 0.000042714033, 9.999099, 9.998007 
8.7495285e+2, 3.0502632e+2, -116019.89, -222099.89, -42334.727, -0.11502501, -0.054913167, -101196.27, -101196.27, 0.00015286829, 9.999901, 9.998497 
8.7494594e+2, 3.1502417e+2, 142464.25, -32540.34, 4493.6216, -0.009675847, -0.14355956, 142579.55, 142579.55, 0.00035722472, 10.00135, 9.999094 
8.8512903e+2, 1.2504517e+2, -1569587.9, -1536653.4, 93828.0, 0.21693337, -0.12555836, -1457858.5, 256695.08, 0.00000006865043, 10.000474, 10.000987 
8.8511574e+2, 1.3504764e+2, -1696745.5, -1572257.0, 30948.918, -0.1340615, 0.022159165, -1564987.4, 51536.535, 0.0, 9.999069, 10.0007515 
8.851049e+2, 1.4504743e+2, -1693300.4, -1664141.0, 34340.434, -0.20706326, 0.00073762017, -1641413.4, -122889.52, 0.0, 9.99905, 9.999437 
8.850984e+2, 1.5504514e+2, -1356813.9, -1451556.1, 19491.145, 0.11776054, -0.20119794, -1352960.6, 67587.234, 0.0, 10.000685, 9.999437 
8.85089e+2, 1.6504465e+2, -1232393.5, -1348318.8, 7243.255, 0.19256146, -0.18583854, -1231942.8, 90612.016, 0.0, 10.000903, 9.999372 
8.850769e+2, 1.7504604e+2, -1302685.9, -1331732.9, 12159.608, 0.029013805, -0.0010819711, -1298267.6, -73723.63, 0.0, 9.999748, 9.999369 
8.8506705e+2, 1.8504675e+2, -1133662.4, -1036158.06, 36303.836, 0.04395208, 0.063667856, -1024125.8, 102409.86, 0.0, 9.999529, 10.000828 
8.850592e+2, 1.9504644e+2, -941591.4, -892460.75, -20370.87, 0.22501734, -0.07093133, -885113.25, 143419.77, 0.0, 10.000177, 10.000829 
8.850505e+2, 2.0504577e+2, -901641.6, -1005781.56, 48192.055, 0.22303373, -0.13615198, -882762.6, 47774.71, 0.0, 10.000555, 9.999204 
8.85041e+2, 2.1504463e+2, -797963.9, -906572.75, 61483.75, 0.044037566, -0.18847048, -770236.5, 62313.29, 0.0, 10.0006, 9.999192 
8.8503134e+2, 2.2504424e+2, -725051.8, -781616.1, -35099.027, 0.009501132, -0.16063507, -708258.25, 26295.465, 0.0, 10.000269, 9.999527 
8.8502157e+2, 2.3504427e+2, -731444.7, -735565.5, -44670.492, 0.11390714, -0.13016987, -688787.1, -52235.137, 0.0, 9.999557, 9.9995165 
8.850122e+2, 2.450437e+2, -633981.9, -638760.1, 34145.28, 0.16498634, -0.13513853, -602142.25, -63586.75, 0.0, 9.999551, 9.99951 
8.8500327e+2, 2.5504228e+2, -425699.94, -490368.84, 14254.711, 0.15867372, -0.2486282, -422697.25, 17869.242, 0.00000000006372724, 10.000313, 9.999491 
8.849935e+2, 2.6504144e+2, -375921.84, -533509.75, -6544.0547, 0.100450575, -0.2264413, -375650.56, -33076.81, 0.00000025387644, 10.000496, 9.998435 
8.8498276e+2, 2.7504086e+2, -324183.53, -457895.16, -7471.518, -0.001986819, -0.14867249, -323767.34, -79187.51, 0.0000021793016, 10.0001745, 9.998436 
8.849727e+2, 2.8503937e+2, -262430.25, -508416.63, 4473.969, -0.043704044, -0.081206314, -262348.9, -115750.58, 0.000011106664, 10.000513, 9.997246 
8.849633e+2, 2.950366e+2, -8189.3047, -334991.22, -6251.189, -0.020237666, -0.101073675, -8069.773, 40562.31, 0.000049522223, 10.001567, 9.997261 
8.849538e+2, 3.0503505e+2, 82874.58, -170236.52, 63765.418, -0.08700269, -0.021847496, 98031.19, 98031.19, 0.00016466355, 10.001455, 9.998115 
8.8494617e+2, 3.1503224e+2, -59375.656, -119307.016, 83915.29, -0.038861364, -0.12811041, -236.24364, -236.24364, 0.00037254568, 9.999914, 9.9992075 
8.9512706e+2, 1.2505813e+2, -1592732.8, -1572811.4, 3840.4387, -0.06902349, 0.057385232, -1572096.6, 142330.56, 0.00000033567557, 10.000439, 10.000749 
8.951176e+2, 1.3505672e+2, -1709012.0, -1599887.5, -18199.547, 0.12553763, -0.16050436, -1596932.3, 19500.34, 0.00000000007521531, 9.999094, 10.000544 
8.951071e+2, 1.4505579e+2, -1703673.1, -1694958.9, 84355.11, 0.08294176, -0.23492567, -1614848.5, -96409.12, 0.0, 9.999083, 9.999214 
8.950982e+2, 1.5505624e+2, -1374506.4, -1488422.6, 92994.836, 0.0046573705, -0.13452944, -1322412.8, 98025.74, 0.0, 10.000683, 9.999188 
8.950882e+2, 1.6505638e+2, -1206731.3, -1295760.1, -46639.387, -0.006186302, -0.062468357, -1186772.6, 135666.03, 0.0, 10.000899, 9.999735 
8.950772e+2, 1.7505598e+2, -1275139.3, -1275150.1, -21021.412, 0.06078275, -0.09644729, -1254123.3, -29681.676, 0.0, 9.999748, 9.999759 
8.9506686e+2, 1.850554e+2, -1225897.6, -1219964.3, 51932.46, 0.054165654, -0.11914795, -1170913.8, -44467.44, 0.0, 9.999491, 9.999586 
8.95057e+2, 1.9505443e+2, -1038092.4, -1080081.9, 13089.638, -0.028675439, -0.19403379, -1034346.1, -5891.3345, 0.0, 10.000117, 9.999571 
8.9504856e+2, 2.0505427e+2, -874732.2, -927037.5, 41359.984, -0.04145193, -0.17431973, -851950.06, 78505.6, 0.0, 10.000457, 9.999791 
8.9504147e+2, 2.1505469e+2, -775862.3, -827906.25, 74130.59, 0.013312993, -0.13340038, -723319.1, 109132.22, 0.0, 10.000463, 9.999796 
8.950322e+2, 2.2505435e+2, -746061.0, -794906.94, -70928.84, 0.0518553, -0.12750876, -695468.06, 38985.957, 0.0, 10.000133, 9.999505 
8.9502084e+2, 2.3505309e+2, -749626.25, -745395.75, -62037.824, 0.06533836, -0.22609471, -685437.1, -48971.543, 0.0, 9.999436, 9.999507 
8.950111e+2, 2.4505295e+2, -663525.9, -683959.3, 52781.277, 0.07843377, -0.17426138, -619981.56, -81514.83, 0.0, 9.999476, 9.999238 
8.950031e+2, 2.5505364e+2, -461571.84, -538381.06, 52520.117, 0.08719112, -0.05180901, -434912.8, 5547.76, 0.0000000002378373, 10.0002, 9.999217 
8.949937e+2, 2.6505247e+2, -366967.9, -501186.5, -27255.002, 0.05498962, -0.06276152, -361644.5, -19173.768, 0.00000030747992, 10.00044, 9.998682 
8.9498305e+2, 2.7504912e+2, -325968.4, -435936.28, -7733.919, -0.017304968, -0.28132546, -325427.16, -80927.25, 0.0000026197797, 10.0000725, 9.998633 
8.9497334e+2, 2.850469e+2, -268193.3, -515298.78, 35099.61, -0.05708544, -0.2912458, -263304.4, -116781.96, 0.000013171274, 10.00048, 9.997215 
8.9496464e+2, 2.9504567e+2, -13784.373, -337879.3, 45406.48, -0.066729255, -0.1613553, -7543.0117, 40996.516, 0.000055655084, 10.001523, 9.997261 
8.949548e+2, 3.050445e+2, 65039.09, -195447.72, -1018.40826, -0.15128872, -0.0405723, 65043.074, 65043.074, 0.00017577781, 10.001411, 9.997959 
8.9494556e+2, 3.150417e+2, -49701.15, -59537.4, 40521.785, -0.13613506, -0.13707726, -13800.123, -13800.123, 0.0003866523, 9.999758, 9.999683 
9.051261e+2, 1.2506926e+2, -1889162.1, -1778032.0, 101.10785, -0.111024275, 0.10266476, -1778031.9, -63714.402, 0.0000010657902, 9.998649, 10.000213 
9.051184e+2, 1.3506676e+2, -1515756.3, -1559807.8, -67743.78, 0.23086905, -0.17741056, -1466547.5, 149788.36, 0.000000007369457, 10.000642, 10.000073 
9.051083e+2, 1.4506581e+2, -1434484.1, -1520525.1, 59731.32, 0.21209423, -0.24993047, -1403893.5, 114449.46, 0.0, 10.000731, 9.999616 
9.05098e+2, 1.5506731e+2, -1569677.4, -1536986.5, 92095.914, 0.0016253737, -0.0889454, -1459796.8, -39466.645, 0.0, 9.999142, 9.9995985 
9.0508777e+2, 1.6506752e+2, -1452706.6, -1400652.3, -592.57336, -0.03900218, -0.034957603, -1400645.6, -78317.96, 0.0, 9.999151, 9.999863 
9.0507776e+2, 1.750662e+2, -1126556.0, -1188738.8, -14790.873, 0.0987607, -0.1730074, -1123217.1, 101120.81, 0.0, 10.000704, 9.99989 
9.050675e+2, 1.850653e+2, -1026495.5, -1184527.1, 83953.13, 0.09828568, -0.20847091, -990222.0, 136124.6, 0.0, 10.001116, 9.999046 
9.0505713e+2, 1.950646e+2, -1023772.1, -1134750.6, 83806.38, -0.043427713, -0.20158811, -978749.8, 49605.504, 0.0, 10.000462, 9.999036 
9.0504843e+2, 2.0506464e+2, -960322.0, -945942.06, 128555.35, -0.061551772, -0.14562349, -824375.75, 105979.49, 0.0, 9.999777, 9.999984 
9.0504146e+2, 2.150651e+2, -966167.44, -899427.6, 107618.26, 0.04395862, -0.11739617, -820124.4, 12224.83, 0.0, 9.999067, 9.999974 
9.050323e+2, 2.250647e+2, -846326.9, -857471.06, -7407.0386, 0.08786223, -0.12200143, -842630.06, -108277.85, 0.0, 9.99951, 9.999376 
9.05021e+2, 2.3506318e+2, -511401.1, -646975.1, -25540.783, 0.0666171, -0.22896475, -506749.1, 129617.14, 0.0, 10.001141, 9.999363 
9.050114e+2, 2.4506284e+2, -424001.6, -609300.06, 71528.74, 0.07263797, -0.17276825, -399602.8, 138767.7, 0.0, 10.001308, 9.998861 
9.050033e+2, 2.5506335e+2, -502542.66, -598085.7, 42873.96, 0.10163816, -0.027860535, -486124.66, -45757.414, 0.0, 10.000097, 9.998851 
9.0499413e+2, 2.6506206e+2, -437508.78, -552275.25, -14951.045, 0.078501835, -0.024691407, -435593.03, -93213.19, 0.0000002007212, 10.000041, 9.998522 
9.049839e+2, 2.750586e+2, -179779.77, -383195.34, -46972.543, 0.013899822, -0.23988625, -169456.78, 74954.4, 0.0000025589381, 10.001154, 9.998477 
9.0497476e+2, 2.8505635e+2, -106654.055, -389602.06, 17062.371, -0.0027342509, -0.2639922, -105628.875, 40803.52, 0.000014749117, 10.001373, 9.997659 
9.0496665e+2, 2.950554e+2, -109117.65, -329650.3, 39902.16, 0.03165204, -0.15529986, -102119.98, -53676.38, 0.00006245814, 10.000641, 9.9977455 
9.049564e+2, 3.0505362e+2, -59595.395, -268227.84, 4513.5645, -0.07992672, -0.10992722, -59497.793, -59497.793, 0.00018870574, 10.000617, 9.997842 
9.0494573e+2, 3.1505096e+2, 127748.266, 7259.293, -7419.629, -0.14465185, -0.17058408, 128203.445, 128203.445, 0.00040376265, 10.001046, 9.999532 
9.1512513e+2, 1.2507904e+2, -1937554.3, -1884848.0, 41831.55, -0.12084078, 0.047701735, -1861760.6, -147541.0, 0.000002613721, 9.9986925, 9.999452 
9.15118e+2, 1.3507776e+2, -1567583.6, -1659701.0, 12907.723, 0.10286909, -0.04032216, -1565809.1, 50424.36, 0.00000007607973, 10.000613, 9.999397 
9.151081e+2, 1.450773e+2, -1370347.6, -1377775.3, -11131.39, 0.090065174, -0.08069442, -1362326.9, 155909.77, 0.0, 10.000687, 10.000618 
9.1509753e+2, 1.5507838e+2, -1496805.4, -1388296.9, 44511.477, 0.015188149, -0.061952274, -1372374.3, 47847.508, 0.0, 9.999152, 10.000614 
9.150875e+2, 1.650783e+2, -1461110.4, -1417264.0, 46530.387, -0.0009440311, -0.0843573, -1387750.8, -65531.27, 0.0, 9.999151, 9.999746 
9.150782e+2, 1.7507684e+2, -1141335.4, -1211664.3, 52140.637, 0.054550167, -0.2221447, -1113609.5, 110621.93, 0.0, 10.000672, 9.999747 
9.150688e+2, 1.8507648e+2, -1021356.8, -1161081.8, 50060.555, 0.08958267, -0.20556894, -1005272.7, 120963.14, 0.0, 10.001059, 9.999237 
9.1505915e+2, 1.9507696e+2, -1025293.9, -1115956.4, 70309.45, 0.0956672, -0.10001797, -986969.0, 41265.61, 0.0, 10.000371, 9.999209 
9.150498e+2, 2.0507689e+2, -993510.25, -991728.4, 92861.8, 0.07757703, -0.048549477, -899753.25, 30482.531, 0.0, 9.999676, 9.999716 
9.1504073e+2, 2.1507604e+2, -1003479.0, -947470.3, 88839.305, 0.044674948, -0.12523858, -882326.06, -50084.17, 0.0, 9.998944, 9.999701 
9.150314e+2, 2.2507535e+2, -876371.1, -900926.56, 42603.035, 0.02821979, -0.13320687, -844311.94, -110064.61, 0.0, 9.999419, 9.999126 
9.1502196e+2, 2.350746e+2, -546423.1, -692827.0, 44804.94, 0.03150442, -0.14000481, -533799.6, 102454.164, 0.0, 10.001024, 9.999105 
9.150128e+2, 2.4507345e+2, -469480.4, -685840.2, 18132.354, 0.058426008, -0.12599005, -467971.34, 70294.26, 0.0, 10.001226, 9.998378 
9.150037e+2, 2.550716e+2, -550645.5, -679005.25, 7889.029, 0.110359244, -0.1679069, -550162.5, -109876.92, 0.0, 10.000011, 9.998341 
9.149944e+2, 2.6507032e+2, -485307.22, -640707.8, 18954.154, 0.08666507, -0.10851211, -483028.8, -140727.97, 0.00000011562638, 9.999995, 9.997936 
9.1498506e+2, 2.7506927e+2, -229307.97, -469150.38, 7138.5244, -0.0038271833, -0.024756305, -229095.69, 15218.333, 0.0000025826089, 10.0010805, 9.997922 
9.1497666e+2, 2.8506777e+2, -50133.38, -258158.45, -20856.871, 0.031570286, 0.0037463133, -48062.85, 98264.984, 0.000017159802, 10.001314, 9.998589 
9.14969e+2, 2.9506573e+2, -60111.004, -210162.4, 24891.947, 0.18202512, -0.082928434, -56089.477, -7746.0205, 0.00007135739, 10.000565, 9.998604 
9.149584e+2, 3.0506238e+2, -84310.86, -301352.84, 17489.297, 0.039070766, -0.2268763, -82910.6, -82910.6, 0.00020552066, 10.000542, 9.997647 
9.1494614e+2, 3.150597e+2, 76532.01, -71500.945, 26270.066, -0.25721687, -0.28183404, 81055.68, 81055.68, 0.00042645857, 10.0009365, 9.999036 
9.251252e+2, 1.250878e+2, -1812250.8, -1817911.9, 62327.953, -0.0131733, -0.069307506, -1752689.1, -38559.02, 0.0000053718704, 9.999511, 9.999523 
9.251176e+2, 1.3508797e+2, -1796445.0, -1751459.1, 63145.145, 0.09442423, -0.032694943, -1706920.4, -90787.56, 0.00000033393198, 9.998958, 9.9995775 
9.2510754e+2, 1.4508814e+2, -1633123.3, -1490597.3, 18675.621, 0.070406586, -0.024466887, -1488190.8, 29940.158, 0.0, 9.998823, 10.000748 
9.2509705e+2, 1.5508892e+2, -1459551.1, -1358075.5, -15697.453, 0.046350647, -0.047296487, -1355702.8, 64415.684, 0.0, 9.9993515, 10.000729 
9.2508715e+2, 1.6508862e+2, -1409868.4, -1394617.9, 23086.525, 0.04001705, -0.09618184, -1377929.9, -55811.742, 0.0, 9.999497, 9.999735 
9.2507815e+2, 1.7508714e+2, -1343565.6, -1311177.3, 18925.352, 0.05499116, -0.23767962, -1302463.3, -78332.28, 0.0, 9.999285, 9.999736 
9.2506886e+2, 1.8508719e+2, -1225491.9, -1233445.1, 17945.164, 0.07509381, -0.18966709, -1211088.0, -84956.67, 0.0, 9.999548, 9.999468 
9.250594e+2, 1.9508848e+2, -1028114.94, -1088810.9, 17115.102, 0.09549774, -0.027945656, -1023621.5, 4500.7363, 0.0, 10.000235, 9.999455 
9.2505e+2, 2.050881e+2, -877508.6, -991282.4, 46207.08, 0.0903807, 0.0041196006, -861107.0, 69019.41, 0.0, 10.000709, 9.99923 
9.250409e+2, 2.150859e+2, -731807.6, -869457.4, 13421.744, 0.07018629, -0.1592471, -730511.2, 101634.414, 0.0, 10.001031, 9.999239 
9.2503184e+2, 2.2508483e+2, -650299.4, -812488.56, 13504.137, 0.055010952, -0.1713068, -649182.7, 84971.945, 0.0, 10.001065, 9.998932 
9.2502296e+2, 2.3508468e+2, -586372.56, -734450.1, -2307.1123, 0.043365814, -0.098599605, -586336.6, 49818.96, 0.0, 10.000842, 9.998904 
9.250138e+2, 2.4508329e+2, -530501.5, -768855.06, -45428.504, 0.05593298, -0.07599204, -522136.7, 16034.114, 0.0, 10.001038, 9.997904 
9.2500436e+2, 2.5508037e+2, -336624.78, -625193.2, -72777.45, 0.093316585, -0.17594244, -319309.2, 120893.02, 0.0, 10.001699, 9.997898 
9.249951e+2, 2.6507884e+2, -249114.56, -533560.06, -4374.9106, 0.07521502, -0.11248219, -249047.3, 93173.08, 0.00000007319143, 10.001633, 9.997888 
9.249862e+2, 2.7507842e+2, -268513.03, -489913.38, 7748.8076, 0.019287039, 0.032283127, -268242.16, -24013.883, 0.0000027897247, 10.000814, 9.997905 
9.249778e+2, 2.8507724e+2, -158507.38, -282654.84, -21532.021, 0.062396538, 0.079816006, -154878.94, -8639.558, 0.000020180585, 10.000457, 9.998827 
9.249698e+2, 2.9507524e+2, -40749.73, -175712.33, -50566.086, 0.20531096, -0.024655309, -23906.332, 24348.195, 0.00008284934, 10.000586, 9.998828 
9.249595e+2, 3.0507225e+2, -8724.151, -222330.78, -14306.303, 0.08224887, -0.16447517, -7770.2466, -7770.2466, 0.00022869528, 10.000845, 9.998052 
9.2494774e+2, 3.150705e+2, 83772.12, -67118.69, -9682.432, -0.17802735, -0.16636917, 84390.89, 84390.89, 0.00046065266, 10.000957, 9.999064 
9.351255e+2, 1.2509519e+2, -1756760.6, -1684903.4, 8460.806, 0.020004557, -0.29688647, -1683920.6, 30132.072, 0.000009857008, 9.999447, 10.000463 
9.351169e+2, 1.3509752e+2, -1714851.6, -1595738.6, 47588.863, 0.107391275, -0.1505912, -1579060.8, 36971.977, 0.0000009955157, 9.999021, 10.000612 
9.3510646e+2, 1.450985e+2, -1683129.4, -1606543.3, 24963.783, 0.052494228, -0.06790901, -1599124.8, -81100.6, 0.00000000002439963, 9.998875, 9.999928 
9.3509626e+2, 1.5509887e+2, -1518734.5, -1474677.5, 13826.886, 0.010193369, -0.050045855, -1470697.6, -50677.164, 0.0, 9.999328, 9.999941 
9.3508655e+2, 1.6509843e+2, -1402031.1, -1370358.4, 3212.3762, -0.00033476934, -0.08371234, -1370035.9, -48011.88, 0.0, 9.999463, 9.999919 
9.3507725e+2, 1.7509712e+2, -1329804.4, -1285016.1, 20957.656, 0.017082173, -0.22635347, -1276739.1, -52703.3, 0.0, 9.999295, 9.999911 
9.350676e+2, 1.8509753e+2, -1217684.1, -1208129.8, 36113.79, -0.03171928, -0.15970966, -1176478.5, -50446.266, 0.0, 9.999511, 9.999661 
9.350575e+2, 1.9509928e+2, -1027104.7, -1067845.1, 51329.555, -0.13842136, 0.028404593, -992251.1, 35766.063, 0.0, 10.000157, 9.999638 
9.3504894e+2, 2.0509835e+2, -927769.8, -1081234.3, 46101.074, -0.11106001, 0.025881102, -914985.9, 15040.238, 0.0, 10.000641, 9.998647 
9.350417e+2, 2.1509469e+2, -792318.6, -968592.0, 34422.32, 0.041548878, -0.2218815, -785835.2, 46224.52, 0.0, 10.000911, 9.998621 
9.350334e+2, 2.2509319e+2, -682351.9, -848326.3, -2214.6768, 0.08469188, -0.23719773, -682322.3, 51751.242, 0.0, 10.000934, 9.998749 
9.350238e+2, 2.3509349e+2, -618644.3, -773967.3, -394.6942, 0.024943318, -0.10202467, -618643.3, 17427.986, 0.0, 10.00072, 9.998694 
9.350143e+2, 2.4509235e+2, -574857.6, -840421.75, -30607.166, -0.020063307, -0.020170026, -571375.75, -33289.984, 0.0, 10.000949, 9.997455 
9.3500495e+2, 2.5508958e+2, -379895.72, -699517.94, -38226.168, -0.036507223, -0.061270807, -375387.53, 64730.81, 0.0, 10.001625, 9.997428 
9.3499583e+2, 2.6508763e+2, -219583.66, -454063.16, -41651.934, -0.031807043, -0.04635857, -212404.6, 129734.84, 0.00000003612581, 10.001559, 9.998465 
9.34987e+2, 2.750862e+2, -244956.84, -418595.6, -10951.479, -0.005627695, -0.05953139, -244268.86, -116.19398, 0.0000027030533, 10.000725, 9.998435 
9.349778e+2, 2.8508493e+2, -196760.47, -353689.0, -24406.104, 0.0003299905, -0.021092257, -193052.36, -46887.29, 0.000022488803, 10.000412, 9.9983635 
9.349686e+2, 2.9508388e+2, -78111.555, -249663.61, -30372.395, -0.0045912573, 0.015505107, -72893.03, -24716.572, 0.000095232324, 10.00056, 9.998337 
9.349592e+2, 3.0508313e+2, 52942.156, -84317.555, -13662.837, -0.051123027, 0.073777296, 54288.94, 54288.94, 0.0002574787, 10.000809, 9.999013 
9.3495005e+2, 3.1508407e+2, 107365.81, 9335.097, 16481.254, -0.090041175, 0.24225062, 110062.516, 110062.516, 0.0005076496, 10.000847, 9.999638 
9.4512606e+2, 1.2510565e+2, -1810314.1, -1690913.4, 60884.543, 0.16314876, -0.27357012, -1665343.3, 48606.82, 0.000016753027, 9.998977, 10.000656 
9.451161e+2, 1.3510786e+2, -1750804.6, -1594022.9, 2830.8984, 0.15121408, -0.15564145, -1593971.8, 21957.984, 0.000002343361, 9.998687, 10.000788 
9.4510543e+2, 1.451085e+2, -1699372.3, -1645199.9, 31473.332, 0.063545264, -0.10382944, -1630762.3, -112838.2, 0.0000000053592455, 9.998898, 9.999649 
9.4509566e+2, 1.55108e+2, -1476436.9, -1490550.0, 36500.617, 0.0032405818, -0.14539737, -1446317.0, -26388.23, 0.0, 9.999764, 9.999624 
9.450863e+2, 1.6510771e+2, -1336682.1, -1366189.8, 17994.438, 0.0064525707, -0.13587879, -1328166.4, -6233.9204, 0.0, 10.000037, 9.999663 
9.450772e+2, 1.7510748e+2, -1277002.6, -1286717.3, -19403.926, 0.067062125, -0.14402688, -1261857.3, -37920.78, 0.0, 9.999782, 9.999658 
9.450676e+2, 1.8510774e+2, -1176354.0, -1179931.3, 17777.107, 0.0147638405, -0.08494257, -1160275.8, -34341.28, 0.0, 9.999766, 9.9997225 
9.450575e+2, 1.9510815e+2, -1044487.2, -1070092.4, 9129.747, -0.14244957, -0.038621817, -1041565.4, -13635.656, 0.0, 10.000013, 9.999687 
9.4504905e+2, 2.0510699e+2, -984101.4, -1119745.4, 30972.705, -0.14130785, -0.0596281, -977363.8, -47423.863, 0.0, 10.000308, 9.998537 
9.4504225e+2, 2.1510428e+2, -842605.44, -1000320.94, 33586.746, 0.016080208, -0.20605327, -835750.8, -3785.0637, 0.0, 10.000605, 9.99854 
9.4503397e+2, 2.2510286e+2, -732981.25, -884173.5, 21047.607, 0.071693756, -0.2031359, -730105.9, 3873.5356, 0.0, 10.000638, 9.998648 
9.450245e+2, 2.3510252e+2, -663124.4, -802024.3, 12632.374, 0.035589214, -0.1228786, -661984.9, -26001.422, 0.0, 10.000452, 9.998628 
9.45015e+2, 2.4510145e+2, -626761.25, -840317.75, 55670.176, -0.009788321, -0.039343048, -613120.4, -75123.71, 0.0, 10.000482, 9.997681 
9.4500583e+2, 2.550995e+2, -501099.88, -726559.6, 80485.164, -0.048235875, -0.021992406, -475316.63, -35296.145, 0.0, 10.000663, 9.9977 
9.4499695e+2, 2.6509762e+2, -345397.38, -524379.25, 62190.703, -0.03163895, -0.014179736, -325909.8, 16131.093, 0.000000027783642, 10.000731, 9.998387 
9.449881e+2, 2.750954e+2, -254096.8, -430599.9, 24878.242, 0.04488129, -0.09268009, -250657.22, -6595.9976, 0.000002329391, 10.00069, 9.998378 
9.4497865e+2, 2.850938e+2, -159096.36, -352252.63, 41330.46, 0.02613964, -0.07544264, -150624.3, -4547.1895, 0.000023981273, 10.000747, 9.998217 
9.449685e+2, 2.9509282e+2, -53252.25, -249994.84, 38356.457, -0.073168755, -0.021118756, -46038.844, 2050.073, 0.000106754764, 10.000796, 9.9982195 
9.449595e+2, 3.0509242e+2, 39373.258, -63950.02, 51705.223, -0.081580035, 0.07358019, 60803.035, 60803.035, 0.00028782972, 10.000611, 9.999254 
9.449514e+2, 3.1509304e+2, 3657.8757, -30997.99, -8141.7437, 0.008458655, 0.18515535, 5475.3145, 5475.3145, 0.0005617916, 10.000094, 9.999732 
9.55126e+2, 1.2511931e+2, -1858225.8, -1787055.9, 22340.348, 0.20773658, 0.005690878, -1780624.4, -66803.89, 0.00002677623, 9.99898, 9.999982 
9.551149e+2, 1.3511913e+2, -1803619.8, -1692308.5, -3209.2844, 0.14388902, -0.051994123, -1692216.0, -76393.445, 0.0000047533053, 9.9986515, 10.000119 
9.551041e+2, 1.4511806e+2, -1685909.1, -1613017.3, 50584.816, 0.01674311, -0.15028927, -1587116.4, -69285.56, 0.000000046136613, 9.998873, 9.9998865 
9.550949e+2, 1.5511638e+2, -1453323.0, -1453336.6, 77239.19, -0.07672106, -0.33286247, -1376090.6, 43752.11, 0.0, 9.999809, 9.99986 
9.550861e+2, 1.651166e+2, -1384030.5, -1470434.8, -1823.6072, -0.038238503, -0.24715143, -1383992.0, -62149.82, 0.0, 10.00006, 9.9989395 
9.550778e+2, 1.7511834e+2, -1327867.4, -1391168.0, -19578.621, 0.12742905, 0.014540061, -1322301.3, -98469.1, 0.0, 9.999773, 9.998948 
9.550687e+2, 1.8511787e+2, -1180044.6, -1183618.5, 18056.12, 0.13067722, 0.036022864, -1163687.3, -37849.668, 0.0, 9.999745, 9.999709 
9.5505893e+2, 1.9511506e+2, -1053114.0, -1075634.5, 27262.71, -0.016887162, -0.23389615, -1034877.7, -7017.978, 0.0, 9.999961, 9.999675 
9.550501e+2, 2.0511411e+2, -970946.4, -1073872.8, 31326.734, -0.08480211, -0.25558767, -962161.56, -32294.096, 0.0, 10.000225, 9.998896 
9.55042e+2, 2.1511464e+2, -839929.3, -961418.06, 53240.15, -0.0829217, -0.1097131, -819900.0, 11963.789, 0.0, 10.000461, 9.99888 
9.550334e+2, 2.2511388e+2, -748176.56, -885042.2, 4406.2974, -0.059161983, -0.060945626, -748034.9, -14163.11, 0.0, 10.000508, 9.998703 
9.550246e+2, 2.3511165e+2, -678641.1, -807528.56, 16921.584, -0.012340641, -0.17201465, -676456.5, -40563.29, 0.0, 10.000334, 9.9986515 
9.550157e+2, 2.4511053e+2, -577177.7, -710434.5, 54647.7, -0.0042699235, -0.14474237, -557633.5, -19728.879, 0.0, 10.000374, 9.998619 
9.5500696e+2, 2.551102e+2, -451875.97, -604388.94, 96514.87, -0.029833483, -0.057021383, -405127.72, 34780.848, 0.0, 10.000576, 9.998579 
9.549982e+2, 2.6510876e+2, -409003.06, -635696.25, 51483.85, 0.0005205906, -0.008792133, -397858.53, -55933.902, 0.000000030362223, 10.000648, 9.997662 
9.549893e+2, 2.7510595e+2, -316551.88, -543775.7, 36295.336, 0.0780019, -0.07379058, -310895.1, -66940.16, 0.000002140531, 10.00062, 9.997635 
9.549797e+2, 2.8510374e+2, -156859.05, -329971.03, 34697.324, 0.04645049, -0.095231324, -150163.53, -4186.405, 0.000025889522, 10.000674, 9.998401 
9.5496935e+2, 2.9510194e+2, -51797.152, -231188.95, 51524.883, -0.08860346, -0.13839385, -38051.438, 9940.751, 0.000117742304, 10.000729, 9.99838 
9.549602e+2, 3.0510032e+2, -1716.1691, -132442.11, 30478.986, -0.08417438, -0.15595125, 5040.8057, 5040.8057, 0.00031737162, 10.000542, 9.998817 
9.5495147e+2, 3.1509793e+2, -38007.016, -96752.38, 3097.7468, -0.041847013, -0.29880467, -37844.117, -37844.117, 0.0006187205, 10.000004, 9.999326 
9.651246e+2, 1.2512964e+2, -2110987.8, -1939653.8, -1245.6691, 0.26890615, 0.071600415, -1939644.8, -225923.47, 0.000040530904, 9.997365, 9.999718 
9.651142e+2, 1.3512847e+2, -1623297.9, -1629826.6, -26839.107, 0.14963879, -0.06355044, -1599525.4, 16206.809, 0.000008656152, 9.999986, 9.9999075 
9.6510404e+2, 1.4512737e+2, -1455843.3, -1502107.6, 14333.587, 0.048891164, -0.15389189, -1451762.4, 65978.555, 0.00000019058375, 10.000475, 9.999861 
9.6509486e+2, 1.5512641e+2, -1542037.1, -1497138.0, -5933.359, -0.026740469, -0.26075763, -1496367.1, -76620.14, 0.0, 9.999231, 9.9998255 
9.65086e+2, 1.651265e+2, -1525262.3, -1552488.4, -33648.727, -0.0036942232, -0.17853202, -1502577.3, -180829.77, 0.0, 9.999163, 9.998808 
9.650777e+2, 1.7512733e+2, -1270243.1, -1380044.8, -26512.484, 0.11553775, 0.004522058, -1264176.6, -40431.35, 0.0, 10.000242, 9.9988 
9.6506906e+2, 1.8512645e+2, -1090932.4, -1169709.0, 18888.564, 0.15353265, 0.005768804, -1086637.5, 39117.04, 0.0, 10.000472, 9.999464 
9.650602e+2, 1.9512373e+2, -1077311.0, -1115110.0, -5930.838, 0.115527436, -0.23008123, -1076402.4, -48625.48, 0.0, 9.999905, 9.999438 
9.650513e+2, 2.051231e+2, -1025191.8, -1052880.8, 24194.799, 0.044605266, -0.22712694, -1011160.56, -81379.15, 0.0, 9.999674, 9.999291 
9.6504235e+2, 2.1512423e+2, -907362.06, -949419.56, 28635.676, -0.05822629, -0.0632887, -892863.2, -61092.008, 0.0, 9.99982, 9.999261 
9.6503353e+2, 2.2512348e+2, -806442.25, -922906.9, -5540.2163, -0.07963384, -0.028233353, -806179.3, -72400.34, 0.0, 10.000143, 9.998625 
9.65025e+2, 2.3512071e+2, -639382.56, -789448.94, -19493.904, -0.0112615805, -0.18540542, -636891.6, -1085.8406, 0.0, 10.000608, 9.998641 
9.6501654e+2, 2.4511947e+2, -497942.84, -623896.7, 9805.252, 0.030223602, -0.1941744, -497184.1, 40632.977, 0.0, 10.000702, 9.999062 
9.650083e+2, 2.551195e+2, -436366.47, -546566.9, -1230.6205, 0.057118226, -0.114227585, -436352.72, 3462.005, 0.0, 10.000474, 9.999025 
9.6499926e+2, 2.6511845e+2, -432606.44, -656311.9, -13084.957, 0.06360161, -0.044724327, -431843.7, -90017.35, 0.000000012060779, 10.000516, 9.997581 
9.6498966e+2, 2.7511603e+2, -304126.66, -546749.06, -1336.6401, 0.04858282, -0.06518591, -304119.28, -60264.906, 0.0000023356135, 10.000736, 9.997556 
9.649802e+2, 2.8511372e+2, -151236.16, -341945.44, 25080.594, 0.024733653, -0.08502423, -147992.9, -2114.861, 0.000028869204, 10.000778, 9.998262 
9.649708e+2, 2.9511142e+2, -73147.16, -258378.27, -6206.4297, -0.00033790345, -0.16230485, -72939.43, -25041.566, 0.00012890252, 10.00066, 9.998222 
9.6496165e+2, 3.0510977e+2, -3339.1833, -147072.8, -19755.324, 0.009288698, -0.16828443, -673.3747, -673.3747, 0.00034520676, 10.00058, 9.998698 
9.649512e+2, 3.1510708e+2, 3471.5366, -57057.746, -55476.51, -0.06746263, -0.33374164, 36401.77, 36401.77, 0.0006746772, 10.00022, 9.99948 
9.7512144e+2, 1.2513651e+2, -2080938.9, -1887981.0, 66583.38, 0.161874, -0.09114602, -1867235.6, -153582.03, 0.000058506626, 9.99741, 10.00005 
9.7511363e+2, 1.3513607e+2, -1593876.6, -1573094.0, 73182.96, 0.075827055, -0.18846633, -1509568.3, 106088.34, 0.00001444443, 10.000008, 10.000282 
9.7510487e+2, 1.4513665e+2, -1482524.5, -1561488.8, -42889.78, 0.055428296, -0.1092287, -1463711.0, 53940.785, 0.0000005546723, 10.00049, 9.999449 
9.750953e+2, 1.5513813e+2, -1573733.4, -1559701.4, -40369.86, 0.07169266, 0.068842836, -1525742.4, -106101.76, 0.0, 9.999217, 9.999404 
9.7508574e+2, 1.651374e+2, -1493365.6, -1486293.1, -6278.3516, 0.028535469, 0.066331595, -1482623.6, -160975.13, 0.0, 9.999156, 9.999268 
9.750765e+2, 1.7513445e+2, -1238042.1, -1316727.6, 19193.803, -0.05106997, -0.17402199, -1233609.9, -9934.151, 0.0, 10.000253, 9.999231 
9.7506815e+2, 1.8513352e+2, -1126524.4, -1237637.4, -10193.812, -0.0000024861836, -0.17664763, -1125597.0, 88.19187, 0.0, 10.000446, 9.999009 
9.750609e+2, 1.9513421e+2, -1117976.8, -1184107.6, -16425.105, 0.17439593, -0.029282773, -1114121.9, -86441.555, 0.0, 9.999839, 9.998995 
9.7505236e+2, 2.0513406e+2, -1010096.7, -1002760.75, 19041.715, 0.16972679, 0.027547592, -987036.94, -57355.984, 0.0, 9.999588, 9.99968 
9.750428e+2, 2.1513298e+2, -897044.75, -903941.75, 41926.54, -0.0044635287, -0.069080815, -858425.1, -26736.457, 0.0, 9.999712, 9.999628 
9.750338e+2, 2.2513159e+2, -834624.6, -951764.6, 1092.2916, -0.079874866, -0.10724942, -834614.44, -100912.984, 0.0, 10.000018, 9.998484 
9.7502536e+2, 2.3512973e+2, -674707.44, -823152.1, 6130.8647, -0.05535136, -0.16319107, -674454.6, -38733.453, 0.0, 10.0004425, 9.998486 
9.7501725e+2, 2.4512838e+2, -511475.53, -631566.5, -9200.117, 0.013343322, -0.1725762, -510774.8, 26958.49, 0.0, 10.00061, 9.999056 
9.7500956e+2, 2.551273e+2, -446271.7, -550945.0, 1285.7034, 0.11876778, -0.20430905, -446255.9, -6515.8535, 0.0, 10.0004015, 9.999032 
9.750001e+2, 2.6512647e+2, -401932.84, -575686.2, -13658.986, 0.067824796, -0.14501508, -400865.66, -59117.633, 0.0000000034767167, 10.000445, 9.998166 
9.749888e+2, 2.7512556e+2, -273941.66, -467951.4, 18203.084, -0.13254708, -0.071012355, -272248.5, -28488.732, 0.0000028342504, 10.000668, 9.998129 
9.7497976e+2, 2.8512385e+2, -190401.36, -414520.8, 11868.179, -0.12013587, -0.034852773, -189774.64, -43995.496, 0.000032313746, 10.00074, 9.997786 
9.7497267e+2, 2.9512122e+2, -115417.86, -333455.75, 4106.8364, 0.08686995, -0.0982175, -115340.53, -67533.55, 0.00013997531, 10.000605, 9.997737 
9.749633e+2, 3.0512065e+2, -10656.935, -136139.16, -39319.574, 0.10436651, 0.022701358, 645.6978, 645.6978, 0.00037147623, 10.000476, 9.998819 
9.7494996e+2, 3.1512013e+2, 15877.647, 6152.6357, -34012.95, -0.25689757, 0.06005972, 45373.906, 45373.906, 0.00072750956, 10.000069, 9.999981 
9.8512036e+2, 1.2514395e+2, -1786583.9, -1686347.3, 94686.01, 0.23060575, -0.150915, -1629333.5, 84248.65, 0.00008108169, 9.999175, 10.000586 
9.8511267e+2, 1.3514458e+2, -1727042.0, -1585362.3, 76239.04, 0.043072157, -0.18887848, -1552131.5, 63441.707, 0.000022462764, 9.998857, 10.000763 
9.851045e+2, 1.4514571e+2, -1730422.4, -1693094.3, -58062.59, 0.056421712, -0.07131225, -1650769.8, -133206.08, 0.0000013019285, 9.998826, 9.999352 
9.850952e+2, 1.5514742e+2, -1565458.1, -1562979.8, -52675.22, 0.14534467, 0.13356957, -1511529.1, -91975.99, 0.0, 9.999297, 9.999341 
9.8508567e+2, 1.6514654e+2, -1424436.6, -1422850.6, 47826.504, 0.09990219, 0.10780166, -1375810.5, -54248.13, 0.0, 9.999506, 9.99953 
9.8507625e+2, 1.7514315e+2, -1327147.0, -1326795.0, 39481.098, -0.05841869, -0.2021906, -1287489.5, -63897.984, 0.0, 9.999513, 9.999512 
9.8506796e+2, 1.8514247e+2, -1208673.9, -1274024.4, 17680.77, -0.02728375, -0.19401012, -1204196.9, -78599.0, 0.0, 9.999868, 9.99904 
9.8506093e+2, 1.951441e+2, -1025214.25, -1136535.1, 25355.025, 0.17281604, 0.04504954, -1019711.25, 7874.1274, 0.0, 10.000464, 9.9990225 
9.8505265e+2, 2.05144e+2, -892412.9, -973928.4, 68903.875, 0.20089892, 0.11413639, -853114.8, 76472.19, 0.0, 10.000494, 9.999454 
9.850434e+2, 2.1514203e+2, -877357.75, -918041.9, 29406.146, 0.06856043, -0.04794474, -861943.44, -30339.387, 0.0, 9.999939, 9.999429 
9.8503435e+2, 2.2514074e+2, -863341.56, -929520.1, 18888.55, -0.0055425847, -0.085211106, -858329.94, -124713.72, 0.0, 9.99966, 9.998809 
9.850257e+2, 2.3513986e+2, -772924.5, -835150.8, 40549.227, -0.016292088, -0.07276615, -752927.3, -117301.4, 0.0, 9.999611, 9.998806 
9.850176e+2, 2.4513875e+2, -615624.2, -661012.0, 68270.9, 0.02463586, -0.08243347, -566374.2, -28739.443, 0.0, 9.999822, 9.999228 
9.850098e+2, 2.5513712e+2, -444662.94, -534665.94, 68988.25, 0.10966047, -0.18617366, -407296.28, 32349.29, 0.0, 10.000339, 9.999178 
9.850005e+2, 2.6513597e+2, -353765.97, -529033.6, 62969.887, 0.06325865, -0.17154446, -333488.28, 8166.5015, 0.00000001775074, 10.00068, 9.99838 
9.849899e+2, 2.751352e+2, -231052.78, -423911.47, 45887.145, -0.09517408, -0.10578879, -220691.45, 22972.498, 0.000003544514, 10.000866, 9.998342 
9.849808e+2, 2.8513357e+2, -184195.25, -441380.03, 40779.73, -0.08738826, -0.054988444, -177884.0, -32202.045, 0.00003520851, 10.000906, 9.997529 
9.8497313e+2, 2.95131e+2, -108465.914, -359050.0, 30955.326, 0.07891869, -0.08776991, -104698.56, -56988.3, 0.00014919741, 10.0007715, 9.997483 
9.849642e+2, 3.0513e+2, 73437.96, -199926.27, 6417.1304, 0.096937135, 0.049497396, 73588.516, 73588.516, 0.00039500848, 10.001491, 9.997893 
9.8495185e+2, 3.1512904e+2, 379774.13, 113873.42, -96355.77, -0.20521227, 0.13100496, 411019.47, 411019.47, 0.0007743357, 10.002825, 9.999408 
9.951205e+2, 1.251521e+2, -1745084.4, -1597903.9, 52717.367, 0.28133243, -0.09591621, -1580969.8, 132535.39, 0.000108580556, 9.999177, 10.001185 
9.9511117e+2, 1.35154e+2, -1691023.0, -1503921.3, 69469.85, -0.01720665, -0.066746235, -1480948.1, 134533.6, 0.000033028722, 9.9988365, 10.001328 
9.951027e+2, 1.4515465e+2, -1712351.0, -1656178.5, -55335.953, -0.032223526, -0.03796063, -1622209.1, -104733.47, 0.0000026281716, 9.998823, 9.99961 
9.950943e+2, 1.5515438e+2, -1538796.6, -1518681.0, -26554.361, 0.10267946, -0.054954674, -1500343.5, -80860.1, 0.00000000019976186, 9.999338, 9.999629 
9.9508566e+2, 1.6515407e+2, -1417772.1, -1412106.5, 37481.508, 0.11426222, -0.044675525, -1377351.0, -55862.79, 0.0, 9.999521, 9.999595 
9.950767e+2, 1.751534e+2, -1320065.8, -1315605.0, 47774.516, 0.017496284, -0.08850788, -1270008.9, -46515.918, 0.0, 9.999522, 9.999586 
9.9506825e+2, 1.8515323e+2, -1181785.8, -1209281.0, 27997.805, -0.0104727615, -0.057818465, -1164342.5, -38848.395, 0.0, 9.999832, 9.999503 
9.9506015e+2, 1.9515336e+2, -1001033.4, -1072571.3, 54545.473, 0.025461152, -0.014797492, -971574.8, 55918.277, 0.0, 10.000404, 9.999491 
9.9505186e+2, 2.0515281e+2, -964276.6, -1095852.5, 35446.535, 0.05608704, 0.028981976, -955335.0, -25834.95, 0.0, 10.0003805, 9.998671 
9.9504364e+2, 2.1515143e+2, -949149.94, -1036015.3, 17100.568, 0.08257851, 0.0038677896, -945904.75, -114387.984, 0.0, 9.999806, 9.998684 
9.9503493e+2, 2.2515096e+2, -829775.0, -822934.25, 7788.0645, 0.06738433, 0.044461016, -817848.56, -84326.12, 0.0, 9.999505, 9.999614 
9.9502575e+2, 2.3515116e+2, -736386.9, -726753.1, 47749.52, 0.01270413, 0.08303817, -683578.1, -48058.58, 0.0, 9.999477, 9.999611 
9.9501705e+2, 2.4515055e+2, -609484.8, -627153.56, 76249.94, -0.02680592, 0.07084242, -541559.2, -4037.4546, 0.0, 9.999726, 9.999508 
9.9500865e+2, 2.5514898e+2, -439610.63, -499694.78, 96722.86, -0.053046398, -0.05741437, -368371.72, 71159.266, 0.0, 10.000232, 9.99947 
9.950005e+2, 2.651472e+2, -380051.6, -565906.56, 61433.188, -0.022802478, -0.11195642, -361580.9, -20035.715, 0.000000028595345, 10.000604, 9.998165 
9.949925e+2, 2.75145e+2, -259930.89, -463031.5, 65159.91, 0.054972474, -0.1652476, -240823.5, 2742.9482, 0.000003781716, 10.000777, 9.9981165 
9.94983e+2, 2.8514287e+2, -197423.67, -447470.63, 26195.682, 0.021703802, -0.15138513, -194708.81, -49121.68, 0.000036350866, 10.000816, 9.997528 
9.949722e+2, 2.9514083e+2, -118426.81, -361591.72, 39454.9, -0.1160239, -0.13529329, -112185.234, -64577.516, 0.00015454051, 10.000701, 9.997496 
9.9496406e+2, 3.0513796e+2, -73697.66, -496718.8, 53316.945, -0.085706905, -0.08353535, -67081.16, -67081.16, 0.00041140616, 10.001454, 9.995875 
9.94956e+2, 3.1513348e+2, 236344.05, -137945.84, -14551.788, -0.117161915, -0.14744346, 236908.94, 236908.94, 0.00080725906, 10.0026455, 9.997758 
1.005119e+3, 1.2516014e+2, -1857854.0, -1622692.9, 20818.639, 0.2702684, -0.010763071, -1620864.1, 92565.984, 0.00014134821, 9.998277, 10.001447 
1.0051098e+3, 1.3516201e+2, -1855168.0, -1548186.9, -12372.156, 0.03810518, -0.012887497, -1547689.0, 67717.086, 0.000046426092, 9.997574, 10.001621 
1.00510195e+3, 1.4516255e+2, -1797628.9, -1645610.0, -50406.266, 0.05222792, -0.034678172, -1630415.1, -113014.85, 0.00000474816, 9.998033, 10.000057 
1.0050936e+3, 1.551622e+2, -1448031.3, -1427754.5, -37908.63, 0.0806089, -0.09987668, -1398652.0, 20755.666, 0.000000004412824, 9.999766, 10.00005 
1.00508526e+3, 1.651624e+2, -1319890.0, -1392336.4, -12891.108, 0.09212818, -0.046165213, -1317664.5, 3744.1262, 0.0, 10.000296, 9.999371 
1.005077e+3, 1.7516284e+2, -1310643.3, -1333422.8, -40830.61, 0.0923588, 0.041586637, -1279643.5, -56237.555, 0.0, 9.999679, 9.999394 
1.0050684e+3, 1.8516271e+2, -1228566.5, -1178743.8, -30978.016, 0.06087095, 0.062037215, -1163903.3, -38496.707, 0.0, 9.999295, 9.99996 
1.00505956e+3, 1.9516183e+2, -1152393.0, -1096106.4, -25494.34, -0.0007753238, -0.039749134, -1086275.9, -58864.156, 0.0, 9.999165, 9.999919 
1.00505136e+3, 2.0516132e+2, -1091280.5, -1124246.6, 4262.7544, 0.02338613, -0.031872913, -1090738.1, -161321.08, 0.0, 9.999367, 9.99896 
1.0050438e+3, 2.1516088e+2, -931190.3, -996647.8, 43549.82, 0.12704356, 0.008266384, -909441.94, -78017.08, 0.0, 9.999799, 9.998954 
1.0050352e+3, 2.2516079e+2, -743464.25, -758322.44, 70773.305, 0.12847562, 0.065307476, -679731.2, 53695.035, 0.0, 9.999998, 9.999823 
1.00502566e+3, 2.3516083e+2, -647472.4, -665083.2, 45830.348, 0.033406153, 0.06760791, -609609.25, 25814.684, 0.0, 9.999997, 9.999791 
1.00501694e+3, 2.451603e+2, -564178.6, -615996.75, 69311.18, -0.014847699, 0.058360655, -516092.28, 21333.404, 0.0, 10.000074, 9.999416 
1.0050092e+3, 2.5515905e+2, -449143.72, -508900.3, 43315.508, -0.0127552925, -0.027574308, -426401.25, 13031.759, 0.0, 10.000197, 9.999415 
1.00500144e+3, 2.6515728e+2, -373020.13, -551571.44, 26799.389, 0.017461209, -0.083779186, -369084.47, -27637.139, 0.000000017098808, 10.000616, 9.998249 
1.0049936e+3, 2.751547e+2, -181975.77, -414912.03, 30860.037, 0.07018894, -0.18321109, -177956.7, 65514.508, 0.000003428396, 10.001272, 9.9982 
1.0049844e+3, 2.8515264e+2, -13921.607, -349495.3, 28192.8, 0.02234005, -0.17618515, -11569.511, 133921.44, 0.00003625069, 10.002025, 9.997622 
1.0049741e+3, 2.9515094e+2, 190689.05, -205390.1, 26480.445, -0.10259471, -0.13499212, 192451.6, 239959.5, 0.00015742959, 10.0027685, 9.997581 
1.004966e+3, 3.0514786e+2, 33577.684, -419973.75, 119750.75, -0.06129593, -0.12038073, 63253.652, 63253.652, 0.0004215928, 10.002084, 9.996101 
1.004958e+3, 3.1514344e+2, -138133.89, -290748.9, 186469.94, -0.03931417, -0.19734032, -12962.173, -12962.173, 0.0008275706, 9.99993, 9.99803 
1.0151152e+3, 1.2516807e+2, -1850374.6, -1615916.9, -44904.504, 0.013034244, 0.09298332, -1607610.9, 105746.19, 0.0001798155, 9.998311, 10.001472 
1.0151083e+3, 1.351687e+2, -1845556.3, -1544860.6, -30839.838, 0.10744794, -0.03767159, -1541730.3, 73615.44, 0.000062927356, 9.997632, 10.001617 
1.0151017e+3, 1.4516945e+2, -1758178.6, -1566543.0, 1588.1425, 0.20131841, -0.06639071, -1566529.9, -49192.555, 0.000007860604, 9.998048, 10.000589 
1.0150927e+3, 1.5517089e+2, -1416249.3, -1357650.9, 35324.484, -0.002452506, -0.004979222, -1341056.0, 78269.91, 0.000000028517778, 9.999754, 10.000533 
1.0150844e+3, 1.6517164e+2, -1350277.1, -1457618.6, -47377.55, -0.04586394, 0.102120966, -1332357.5, -11034.353, 0.0, 10.0003, 9.9989195 
1.01507686e+3, 1.7517155e+2, -1338119.9, -1397281.1, -54759.24, 0.08558837, 0.1816567, -1305462.3, -82132.54, 0.0, 9.9997, 9.998949 
1.01506844e+3, 1.85171e+2, -1203310.6, -1120008.5, -45577.87, 0.104211524, 0.16099261, -1099916.9, 25417.602, 0.0, 9.999269, 10.000378 
1.01505905e+3, 1.9516967e+2, -1131735.6, -1037750.9, -20934.674, 0.010361552, -0.028038006, -1033298.7, -5958.555, 0.0, 9.999095, 10.000354 
1.01505086e+3, 2.0516954e+2, -1014679.1, -940293.6, 10580.05, 0.014709825, -0.06938529, -938818.06, -9480.659, 0.0, 9.999263, 10.000271 
1.0150436e+3, 2.1517032e+2, -855604.75, -815435.25, 65969.62, 0.114095025, -0.038084168, -766560.7, 64768.055, 0.0, 9.999697, 10.000246 
1.0150351e+3, 2.251702e+2, -792681.9, -827262.5, 59433.9, 0.09441988, -0.028227137, -748074.4, -14746.154, 0.0, 9.999858, 9.999415 
1.01502515e+3, 2.3516902e+2, -693041.75, -731068.0, 54522.023, -0.03807944, -0.10878358, -654312.8, -18975.188, 0.0, 9.999874, 9.999394 
1.0150172e+3, 2.4516815e+2, -615712.06, -691912.7, 63286.27, -0.018192785, -0.10848608, -579942.3, -42597.703, 0.0, 9.999945, 9.998958 
1.0150111e+3, 2.551674e+2, -494807.28, -582209.0, 57724.58, 0.13828029, -0.1006946, -466107.22, -26755.885, 0.0, 10.000108, 9.998955 
1.015003e+3, 2.651662e+2, -356423.4, -501951.44, 43857.34, 0.095574655, -0.09560953, -344228.22, -2866.1765, 0.000000011022683, 10.000546, 9.998625 
1.014993e+3, 2.751644e+2, -164761.5, -360087.16, 69268.25, -0.13802496, -0.15896891, -142690.8, 100687.35, 0.0000031084232, 10.001189, 9.998617 
1.0149848e+3, 2.851629e+2, -11029.7295, -329656.16, 47810.223, -0.15929332, -0.12347312, -4010.3918, 141382.66, 0.000035475467, 10.001969, 9.997781 
1.0149782e+3, 2.951615e+2, 183341.11, -188030.08, 66087.84, 0.012213018, -0.06673037, 194751.28, 242160.16, 0.00015859005, 10.002642, 9.997753 
1.0149696e+3, 3.0515975e+2, 193501.63, -69914.195, 32311.635, 0.06733486, -0.04878229, 197407.19, 197407.19, 0.00042792913, 10.002004, 9.998547 
1.01495706e+3, 3.151588e+2, -2689.3662, 37985.367, 143278.98, -0.1711083, -0.026606891, 162363.16, 162363.16, 0.00084075227, 9.999745, 10.000369 
1.0251145e+3, 1.25176e+2, -1852442.9, -1664094.9, 41814.836, 0.10916791, 0.06613533, -1655228.9, 58049.04, 0.00022439056, 9.998493, 10.001063 
1.0251065e+3, 1.3517651e+2, -1741527.6, -1544882.4, 2524.1545, 0.12446512, -0.025373455, -1544850.0, 70420.93, 0.0000828242, 9.99856, 10.001179 
1.02510035e+3, 1.4517722e+2, -1670659.3, -1522083.8, 71090.9, 0.233078, -0.03943845, -1493548.5, 23715.568, 0.000012107546, 9.998628, 10.00062 
1.0250924e+3, 1.5517887e+2, -1543368.0, -1414725.5, 48634.81, 0.038387425, 0.038627394, -1398408.3, 20841.193, 0.00000009714164, 9.99885, 10.000578 
1.0250841e+3, 1.651798e+2, -1485798.1, -1455470.9, -27861.512, -0.042739943, 0.13425274, -1438913.9, -117670.07, 0.0, 9.999095, 9.999508 
1.0250757e+3, 1.7518e+2, -1325919.3, -1322279.4, 20285.738, 0.012731935, 0.18233363, -1303732.1, -80485.0, 0.0, 9.999501, 9.999552 
1.0250674e+3, 1.8517973e+2, -1137416.6, -1083896.8, 70669.86, 0.0620753, 0.15666169, -1035090.06, 90158.56, 0.0, 9.999688, 10.000427 
1.0250592e+3, 1.9517872e+2, -1045467.8, -990674.94, 51732.074, 0.090495154, -0.0074290796, -959532.75, 67718.25, 0.0, 9.999655, 10.000412 
1.0250512e+3, 2.0517863e+2, -970605.06, -918517.5, 47235.824, 0.10688359, -0.044671852, -890621.5, 38626.18, 0.0, 9.999575, 10.000273 
1.0250432e+3, 2.1517926e+2, -890598.1, -834028.4, -15645.426, 0.12127748, -0.024983069, -829989.7, 1250.9856, 0.0, 9.999473, 10.00023 
1.0250349e+3, 2.2517899e+2, -811001.8, -848781.0, -34883.58, 0.105624616, -0.024517298, -790221.75, -56979.81, 0.0, 9.99979, 9.999299 
1.02502614e+3, 2.3517767e+2, -627045.0, -712733.8, -38113.176, 0.059058763, -0.10434918, -612546.06, 22706.773, 0.0, 10.0004, 9.999267 
1.0250183e+3, 2.4517657e+2, -527239.7, -657187.1, -1707.6953, 0.072049074, -0.11713155, -527217.25, 10045.665, 0.0, 10.000597, 9.998873 
1.02501124e+3, 2.5517544e+2, -465122.6, -579481.94, -2707.8774, 0.13474329, -0.13734692, -465058.53, -25783.982, 0.0, 10.000361, 9.998851 
1.02500305e+3, 2.6517484e+2, -338658.06, -437541.6, 42568.703, 0.053676326, -0.093055196, -322857.34, 18422.574, 0.00000001218603, 10.000419, 9.999132 
1.0249938e+3, 2.751745e+2, -197919.2, -316762.66, 56947.47, -0.15187667, -0.06123468, -175036.88, 68244.45, 0.0000027111198, 10.000707, 9.999145 
1.02498606e+3, 2.8517327e+2, -210774.38, -406832.16, 42069.81, -0.14806587, -0.033321586, -202128.38, -56834.57, 0.00003356273, 10.000534, 9.997933 
1.0249799e+3, 2.9517093e+2, -204824.81, -357018.6, 33053.52, 0.052816503, -0.08288971, -197956.22, -150636.83, 0.00015687123, 9.999905, 9.997909 
1.02497086e+3, 3.0516943e+2, -2708.9063, -39762.57, -51166.44, 0.09497361, -0.10640943, 33181.613, 33181.613, 0.00042992222, 10.000134, 9.999644 
1.02495775e+3, 3.1517056e+2, 250372.27, 268779.6, -79500.13, -0.1294989, 0.014659109, 339607.03, 339607.03, 0.0008482756, 10.001001, 10.001352 
1.0351161e+3, 1.2518394e+2, -1905770.8, -1785629.5, -10180.108, 0.36303866, -0.08473996, -1784773.0, -71580.14, 0.00027553758, 9.99854, 10.000208 
1.0351041e+3, 1.3518551e+2, -1807751.1, -1685560.8, 9848.863, 0.0106585, 0.027798038, -1684772.0, -69590.766, 0.000106410545, 9.998578, 10.000207 
1.03509754e+3, 1.4518587e+2, -1690876.0, -1576259.1, 65602.67, 0.056916166, 0.049032707, -1546458.6, -29278.346, 0.000017580353, 9.998676, 10.000226 
1.0350922e+3, 1.5518616e+2, -1565287.4, -1463424.6, 64607.258, 0.11116789, 0.027220055, -1432087.5, -12908.992, 0.00000023822265, 9.9988575, 10.000245 
1.035084e+3, 1.6518705e+2, -1379347.8, -1225220.8, -25762.215, 0.010068534, 0.050693016, -1221028.6, 100141.52, 0.0, 9.999063, 10.001101 
1.03507325e+3, 1.7518826e+2, -1224158.8, -1101870.5, 43572.22, -0.20226486, 0.043800134, -1087933.8, 135224.06, 0.0, 9.999467, 10.0010805 
1.0350652e+3, 1.8518895e+2, -1162925.4, -1128610.3, 57590.37, -0.14709547, 0.056772556, -1085675.9, 39472.707, 0.0, 9.999651, 10.00014 
1.0350597e+3, 1.9518892e+2, -1075431.9, -1040591.75, 55814.332, 0.15254828, 0.018897407, -999542.2, 27602.46, 0.0, 9.999597, 10.0001 
1.035052e+3, 2.0518859e+2, -1079937.1, -1120099.9, 31595.959, 0.21656887, 0.039078068, -1062581.0, -133433.02, 0.0, 9.999465, 9.99894 
1.0350423e+3, 2.1518771e+2, -994375.5, -1028317.4, -8281.815, 0.07083139, 0.038499635, -992462.56, -161301.92, 0.0, 9.999375, 9.998942 
1.0350346e+3, 2.2518714e+2, -823572.75, -840634.8, -21237.531, 0.08253993, 0.0658789, -809216.8, -76049.29, 0.0, 9.999647, 9.999423 
1.0350285e+3, 2.3518671e+2, -633895.06, -699150.94, -5949.9, 0.23450926, 0.06185763, -633357.0, 1813.3779, 0.0, 10.000282, 9.9994135 
1.03502005e+3, 2.4518543e+2, -532379.75, -637639.44, -18726.324, 0.16477668, 0.014734902, -529147.44, 8034.1973, 0.0, 10.000469, 9.999069 
1.0350094e+3, 2.5518322e+2, -462087.34, -552545.9, 367.56503, -0.10832732, -0.13747264, -462085.84, -22883.37, 0.0, 10.000274, 9.999077 
1.0350012e+3, 2.651833e+2, -303042.72, -345755.63, 43883.2, -0.18298882, -0.06906797, -275595.16, 65604.97, 0.00000000560088, 10.000347, 9.999794 
1.0349955e+3, 2.751852e+2, -172159.83, -232936.3, 78124.82, -0.07405974, 0.120963305, -118721.26, 124458.19, 0.0000022721786, 10.00059, 9.99977 
1.03498794e+3, 2.8518382e+2, -213450.23, -396223.78, 8796.053, -0.039154522, 0.09713824, -213027.9, -67834.85, 0.000031159278, 10.000461, 9.998044 
1.0349786e+3, 2.951794e+2, -210599.33, -344732.84, 26280.045, -0.08249987, -0.17549242, -205634.22, -158396.02, 0.00015252481, 9.999806, 9.998037 
1.0349695e+3, 3.0517688e+2, -36841.414, -102529.55, -24435.615, -0.06591324, -0.2833089, -28748.553, -28748.553, 0.00042681763, 10.000095, 9.999231 
1.03495926e+3, 3.1517887e+2, 187532.69, 194230.03, -16007.36, -0.12895526, -0.040813833, 207235.23, 207235.23, 0.00084848254, 10.000791, 10.000925 
1.04511485e+3, 1.2519117e+2, -2010916.8, -1881331.9, -96786.195, 0.4188738, -0.11911736, -1829652.8, -116534.17, 0.0003338259, 9.998002, 9.999811 
1.0451037e+3, 1.3519269e+2, -1496552.3, -1589130.0, -48265.617, -0.010236952, 0.034560688, -1475966.5, 139144.13, 0.00013404706, 10.000931, 9.99973 
1.0450969e+3, 1.4519301e+2, -1360535.6, -1369866.4, -19494.12, 0.041000407, 0.05409186, -1345156.4, 171953.67, 0.000024406929, 10.00075, 10.000643 
1.0450911e+3, 1.5519351e+2, -1675554.8, -1462407.0, 13143.955, 0.16198103, 0.01346601, -1461599.5, -42495.99, 0.0000004785213, 9.997891, 10.00071 
1.0450827e+3, 1.6519445e+2, -1621531.4, -1303948.6, 9048.003, 0.08042136, 0.0018982375, -1303691.0, 17401.545, 0.0, 9.997229, 10.001447 
1.0450725e+3, 1.7519552e+2, -1320770.9, -1110680.4, -29897.297, -0.16910706, -0.057444256, -1106508.6, 116571.414, 0.0, 9.998633, 10.001422 
1.0450647e+3, 1.8519635e+2, -1227646.8, -1179002.0, -69400.93, -0.13710876, -0.037611917, -1129784.9, -4714.727, 0.0, 9.9993, 9.999962 
1.0450591e+3, 1.9519684e+2, -1127371.8, -1081627.3, -82891.305, 0.15496205, -0.0058183093, -1018510.44, 8553.471, 0.0, 9.999326, 9.999944 
1.0450514e+3, 2.0519641e+2, -1093154.1, -1132336.9, -35914.715, 0.2234345, 0.014631856, -1071834.8, -142765.9, 0.0, 9.999392, 9.998895 
1.0450419e+3, 2.1519485e+2, -992250.7, -1031272.4, 781.705, 0.09331621, -0.048424054, -992235.06, -161148.25, 0.0, 9.99941, 9.998905 
1.04503445e+3, 2.2519448e+2, -810306.5, -830269.1, 69121.46, 0.10235151, -0.000728351, -750449.4, -17356.893, 0.0, 9.999706, 9.999472 
1.0450287e+3, 2.3519504e+2, -637157.7, -699770.06, 57645.594, 0.23475018, 0.08851527, -602865.94, 32222.78, 0.0, 10.000234, 9.999443 
1.0450203e+3, 2.4519424e+2, -541169.1, -615446.0, 31041.236, 0.15363443, 0.07531593, -529904.8, 7191.224, 0.0, 10.00028, 9.999321 
1.0450093e+3, 2.5519204e+2, -498729.2, -542290.2, 33895.785, -0.12247817, -0.09945196, -480219.3, -41103.88, 0.0, 9.999893, 9.999335 
1.0450016e+3, 2.651919e+2, -365741.0, -367202.78, 92180.56, -0.16333455, -0.06863391, -274288.44, 66826.81, 0.0000000009945924, 9.999886, 9.999872 
1.0449967e+3, 2.751933e+2, -226090.08, -255503.53, 61319.414, 0.016116122, 0.065318726, -177738.44, 65362.492, 0.0000020282196, 10.000183, 9.9998255 
1.04498886e+3, 2.8519246e+2, -151404.36, -305804.78, -1318.7177, 0.02021382, 0.0665115, -151393.11, -6283.7803, 0.00002862002, 10.000611, 9.9986 
1.0449785e+3, 2.9518956e+2, 20481.191, -173450.42, 23706.855, -0.13703834, -0.111244276, 23337.139, 70476.06, 0.00014590684, 10.001119, 9.9985895 
1.0449697e+3, 3.051869e+2, 117594.95, -128878.76, 13094.786, -0.120570265, -0.2158841, 118288.71, 118288.71, 0.0004168189, 10.001597, 9.998322 
1.0449613e+3, 3.151874e+2, 280301.0, 118928.94, -53550.1, -0.036912814, -0.025262462, 296454.25, 296454.25, 0.0008363063, 10.0019045, 9.99989 
1.05511e+3, 1.2519775e+2, -1994427.6, -1854763.4, -45986.883, 0.08466114, -0.04783241, -1840981.4, -127927.28, 0.00039971265, 9.998045, 9.999966 
1.0551045e+3, 1.3519816e+2, -1502216.0, -1588039.4, 66027.73, -0.03487661, -0.0044587757, -1466380.9, 148676.44, 0.00016604259, 10.00088, 9.999762 
1.0550984e+3, 1.4519882e+2, -1279131.1, -1198671.9, -141089.31, 0.08226981, -0.0131130265, -1092188.9, 424862.44, 0.000032768716, 10.000735, 10.001827 
1.05508864e+3, 1.5520102e+2, -1595255.0, -1302207.6, -82995.09, 0.10957301, -0.004382704, -1280334.8, 138689.33, 0.0000008393984, 9.997909, 10.001806 
1.0550802e+3, 1.6520205e+2, -1678389.0, -1419900.8, 50678.42, 0.07696033, -0.017341468, -1410320.0, -89308.88, 0.0, 9.997227, 10.000648 
1.0550732e+3, 1.7520182e+2, -1376894.1, -1227122.1, 28674.43, 0.02265108, -0.1274989, -1221820.0, 1193.4453, 0.0, 9.998634, 10.000621 
1.0550657e+3, 1.8520206e+2, -1239336.4, -1193311.6, -80115.22, 0.0027309584, -0.12367274, -1132969.3, -7957.588, 0.0, 9.999259, 9.999882 
1.0550571e+3, 1.9520251e+2, -1140814.5, -1094835.8, -72460.66, 0.010936113, -0.08821102, -1041805.06, -14796.993, 0.0, 9.999261, 9.999884 
1.0550492e+3, 2.0520216e+2, -1024655.8, -966584.56, -45759.91, 0.046785686, -0.11814693, -941425.75, -12416.177, 0.0, 9.999289, 10.000083 
1.0550416e+3, 2.1520081e+2, -925704.7, -872139.7, 10037.391, 0.11182267, -0.2816666, -870320.6, -39302.31, 0.0, 9.999313, 10.000047 
1.055034e+3, 2.2520112e+2, -834961.0, -850847.7, 79740.49, 0.08405368, -0.21825542, -762769.2, -29752.688, 0.0, 9.999575, 9.999391 
1.0550265e+3, 2.3520273e+2, -657561.94, -714387.25, 86194.98, -0.02512247, -0.018432237, -595217.5, 39789.52, 0.0, 10.000114, 9.999396 
1.0550187e+3, 2.4520308e+2, -538098.4, -584171.2, 5316.904, -0.05036736, 0.07124078, -537492.75, -487.67447, 0.0, 10.000172, 9.999589 
1.0550106e+3, 2.5520205e+2, -494794.03, -512780.75, 26699.18, 0.004653829, -0.015878718, -475614.25, -36601.785, 0.0, 9.9998, 9.999581 
1.05500355e+3, 2.6520067e+2, -418803.97, -454821.94, 95342.04, 0.033389643, -0.09119222, -339785.0, 1240.3486, 0.000000000012280949, 9.999793, 9.9993105 
1.0549972e+3, 2.7519888e+2, -276281.25, -337255.2, 87565.65, 0.030207261, -0.22503251, -214047.14, 28997.807, 0.0000016155456, 10.0000925, 9.999303 
1.054989e+3, 2.8519934e+2, -91388.87, -170221.7, 8052.0986, -0.055615712, -0.11517133, -90574.82, 54466.582, 0.000025303238, 10.000561, 9.999558 
1.0549791e+3, 2.9520163e+2, 66850.75, -52102.863, 56325.004, -0.20963743, 0.13143301, 89288.516, 136307.94, 0.000137169, 10.001016, 9.999474 
1.0549711e+3, 3.0519956e+2, 6915.5244, -341376.7, 20983.627, -0.16695835, 0.11315736, 8175.1733, 8175.1733, 0.0004008363, 10.001522, 9.996898 
1.0549638e+3, 3.1519642e+2, 143083.13, -118200.164, -11190.497, -0.04054327, 0.08110496, 143561.53, 143561.53, 0.00081260194, 10.001717, 9.998346 
1.06510915e+3, 1.2520355e+2, -1602550.5, -1581751.0, -56318.273, 0.08216437, -0.069013245, -1534880.3, 178116.92, 0.00047318285, 10.000376, 10.000721 
1.0651038e+3, 1.3520455e+2, -2070294.3, -1780820.4, 97019.77, 0.021545842, -0.034437668, -1751311.5, -136320.08, 0.00020250746, 9.996653, 10.000474 
1.0650969e+3, 1.4520548e+2, -1937402.5, -1506089.1, -87397.19, 0.08881758, -0.05419346, -1489052.8, 27928.668, 0.000042863663, 9.996171, 10.001921 
1.0650866e+3, 1.5520735e+2, -1454375.5, -1222076.0, -132740.14, 0.07402641, -0.08930464, -1161843.5, 257114.7, 0.0000013547858, 9.998822, 10.001914 
1.0650784e+3, 1.6520837e+2, -1351728.6, -1291483.6, 20638.615, 0.06344263, -0.096131615, -1285091.5, 35854.38, 0.0, 9.999579, 10.000404 
1.06507264e+3, 1.7520852e+2, -1397254.5, -1259183.5, 20171.695, 0.09868196, -0.1422616, -1256296.8, -33351.64, 0.0, 9.998589, 10.000428 
1.0650652e+3, 1.852089e+2, -1364440.1, -1223112.3, -36261.89, 0.086407155, -0.13014843, -1214351.3, -89408.78, 0.0, 9.998256, 10.000164 
1.0650562e+3, 1.9520923e+2, -1222931.0, -1104400.8, -20630.021, 0.019337807, -0.1353406, -1100912.8, -73971.96, 0.0, 9.998552, 10.000165 
1.0650481e+3, 2.0520923e+2, -1004881.9, -897079.0, 23090.049, 0.024877867, -0.17220412, -892341.56, 36596.49, 0.0, 9.99917, 10.000612 
1.0650413e+3, 2.1520875e+2, -774856.44, -739630.44, 9121.553, 0.10373516, -0.29878694, -737408.6, 93527.23, 0.0, 10.000101, 10.000571 
1.0650337e+3, 2.2520898e+2, -755560.7, -839174.06, 49043.027, 0.062897556, -0.25806615, -732923.5, 10.998045, 0.0, 10.000228, 9.999161 
1.0650256e+3, 2.3520961e+2, -752093.56, -782398.5, 24697.914, -0.0840989, -0.13326114, -738270.44, -103334.33, 0.0, 9.999564, 9.999195 
1.0650184e+3, 2.4521007e+2, -586213.0, -572107.3, -32136.47, -0.05634775, -0.03983629, -546258.9, -9325.164, 0.0, 9.999697, 9.999899 
1.065012e+3, 2.5521007e+2, -360948.84, -417857.44, -29980.795, 0.12769432, -0.04846947, -348069.2, 90861.19, 0.0, 10.0005865, 9.99986 
1.0650049e+3, 2.65209e+2, -304219.88, -419776.28, 55502.348, 0.14731078, -0.10216289, -281880.47, 59060.895, 0.0, 10.000652, 9.999139 
1.06499694e+3, 2.7520674e+2, -320862.75, -373055.47, 51888.742, 0.018197678, -0.26349565, -288877.6, -45910.914, 0.00000091217555, 9.999847, 9.999171 
1.06498905e+3, 2.8520727e+2, -141493.9, -187748.81, 16812.27, -0.090874456, -0.14543076, -136028.86, 8934.203, 0.000020741376, 10.000203, 9.999603 
1.0649807e+3, 2.9521e+2, 163913.39, -1767.9161, -26521.457, -0.17277811, 0.14099012, 168055.27, 214991.78, 0.00012515363, 10.001662, 9.999507 
1.0649732e+3, 3.052079e+2, 135899.6, -284518.7, -45276.17, -0.14499839, 0.122894466, 140720.25, 140720.25, 0.00037813088, 10.002415, 9.99686 
1.0649654e+3, 3.152044e+2, 233091.95, -81470.95, -14954.818, -0.05937622, 0.055636205, 233801.33, 233801.33, 0.0007771597, 10.002345, 9.998293 
1.0751112e+3, 1.2520836e+2, -1515159.1, -1385781.0, -242729.5, 0.2103317, -0.20377512, -1199268.4, 513681.38, 0.00055371417, 10.000336, 10.002074 
1.07510105e+3, 1.3521184e+2, -1984181.0, -1597107.3, -35053.96, 0.06286647, -0.05571069, -1593958.3, 20954.82, 0.00024334127, 9.996646, 10.001728 
1.0750922e+3, 1.4521298e+2, -1992207.3, -1636733.3, -3260.7925, -0.031157952, -0.068580724, -1636703.4, -119802.6, 0.00005483326, 9.99623, 10.001002 
1.0750845e+3, 1.552125e+2, -1513382.4, -1350952.5, -27132.973, -0.036172796, -0.2461963, -1346540.0, 72365.72, 0.000002073113, 9.998841, 10.001023 
1.0750771e+3, 1.6521353e+2, -1331100.8, -1243708.6, -28438.395, -0.041376527, -0.22615716, -1235269.4, 85626.22, 0.0000000000166348, 9.999563, 10.000737 
1.0750703e+3, 1.7521569e+2, -1374280.1, -1211089.9, -7464.181, -0.012994027, -0.107768714, -1210749.1, 12125.278, 0.0, 9.998584, 10.00076 
1.0750631e+3, 1.852169e+2, -1327727.0, -1133351.0, -35848.99, 0.034275603, -0.06070595, -1126950.1, -2087.4011, 0.0, 9.998205, 10.000802 
1.0750557e+3, 1.9521701e+2, -1189581.9, -1017520.94, -721.65424, 0.0949133, -0.15081468, -1017517.94, 9344.003, 0.0, 9.998482, 10.0007925 
1.075048e+3, 2.0521766e+2, -1030046.2, -926946.0, 45908.918, 0.076915145, -0.1431752, -909466.8, 19386.78, 0.0, 9.999075, 10.000455 
1.0750404e+3, 2.1521865e+2, -803379.56, -769123.6, 52403.254, -0.011504909, -0.114138275, -731120.2, 99719.91, 0.0, 9.999971, 10.000432 
1.0750331e+3, 2.2521803e+2, -802288.5, -902203.6, 15849.209, -0.040231157, -0.1299336, -799834.7, -66987.56, 0.0, 10.000084, 9.998799 
1.0750261e+3, 2.3521577e+2, -795565.5, -842471.6, 11974.986, -0.013712323, -0.25684607, -792685.2, -157810.25, 0.0, 9.999437, 9.998845 
1.07501954e+3, 2.4521525e+2, -585199.0, -542725.94, -5104.504, 0.057096325, -0.2563181, -542121.06, -5239.9854, 0.0, 9.999582, 10.000154 
1.0750132e+3, 2.5521612e+2, -352362.22, -381951.44, 14976.276, 0.16504017, -0.20837659, -346105.25, 92764.27, 0.0, 10.000509, 10.000142 
1.0750052e+3, 2.652168e+2, -306620.7, -400149.16, 15024.805, 0.10483122, -0.10975373, -304266.3, 36597.27, 0.000000000031670343, 10.000548, 9.999326 
1.0749957e+3, 2.7521703e+2, -325076.3, -358201.97, 35347.74, -0.10806864, -0.043080725, -302603.4, -59738.18, 0.00000057346807, 9.999747, 9.999325 
1.07498854e+3, 2.8521636e+2, -211084.36, -317815.56, 61624.145, -0.17636323, -0.0056899283, -182930.5, -38057.184, 0.000016659129, 10.000139, 9.998741 
1.0749832e+3, 2.952147e+2, 96911.25, -120600.305, 44012.996, -0.122912936, -0.07073672, 105479.65, 152368.4, 0.000111912384, 10.001578, 9.998731 
1.0749757e+3, 3.0521205e+2, 219378.72, -100284.03, -51289.742, -0.15016021, -0.17988586, 227406.53, 227406.53, 0.0003521945, 10.002367, 9.998151 
1.074966e+3, 3.152114e+2, 294438.3, 81668.87, 14651.909, -0.28588584, -0.091709346, 295442.53, 295442.53, 0.0007370222, 10.002193, 9.999492 
1.0851091e+3, 1.2521589e+2, -1982902.5, -1580111.9, -134965.22, 0.14070745, -0.23307113, -1539070.3, 173805.13, 0.00064071716, 9.9969635, 10.002381 
1.0850997e+3, 1.3521951e+2, -1673510.0, -1413519.6, -25878.775, 0.18194345, -0.1033351, -1410968.8, 203864.77, 0.00028839763, 9.998603, 10.00206 
1.0850901e+3, 1.4522079e+2, -1643503.0, -1528145.9, 83973.19, 0.008471058, -0.09108151, -1483950.4, 32869.563, 0.00006873226, 9.998911, 10.000437 
1.0850827e+3, 1.5521996e+2, -1645428.8, -1477251.5, 52978.457, -0.06741618, -0.2444586, -1461954.0, -43122.375, 0.0000030594845, 9.998218, 10.000451 
1.0850756e+3, 1.6522089e+2, -1537020.9, -1305481.6, 33674.973, -0.07309668, -0.22475205, -1300683.4, 20139.996, 0.000000000186287, 9.997995, 10.0010605 
1.0850689e+3, 1.7522322e+2, -1399172.3, -1188205.8, 32782.99, 0.0034076304, -0.118981056, -1183228.9, 39569.81, 0.0, 9.998273, 10.0010605 
1.0850618e+3, 1.8522455e+2, -1269930.1, -1092967.3, 26678.19, 0.07382498, -0.0805063, -1089032.9, 35752.36, 0.0, 9.998541, 10.000925 
1.0850546e+3, 1.9522478e+2, -1147016.8, -983378.8, 4464.592, 0.1385521, -0.17000087, -983257.06, 43526.332, 0.0, 9.99872, 10.000915 
1.0850475e+3, 2.0522559e+2, -1049682.9, -972932.56, 64464.027, 0.12062625, -0.13709116, -936285.94, -7510.6445, 0.0, 9.999096, 10.000125 
1.0850405e+3, 2.1522662e+2, -871882.7, -840180.3, 32026.291, 0.024720257, -0.06853892, -820297.1, 10467.168, 0.0, 9.9996605, 10.000093 
1.0850336e+3, 2.2522613e+2, -778474.25, -860463.06, 408.53592, 0.0032366845, -0.06820875, -778472.2, -45701.12, 0.0, 10.000137, 9.999053 
1.0850267e+3, 2.3522404e+2, -611183.6, -725761.4, 19210.58, 0.05263033, -0.2009546, -608048.5, 26747.615, 0.0, 10.000598, 9.999082 
1.08502e+3, 2.4522352e+2, -439357.8, -483698.4, 41055.633, 0.11354354, -0.20839854, -414868.84, 121933.08, 0.0, 10.000622, 10.00007 
1.0850137e+3, 2.5522423e+2, -413732.8, -422423.38, 17541.848, 0.18554658, -0.16486087, -400006.1, 38785.9, 0.0, 10.000134, 10.000051 
1.0850056e+3, 2.652246e+2, -349565.3, -473892.9, -3091.4766, 0.1033945, -0.06579357, -349488.47, -8699.316, 0.000000020287489, 10.000486, 9.998842 
1.0849963e+3, 2.752244e+2, -87815.47, -299626.53, -58847.688, -0.11775647, 0.0038736763, -72563.945, 170231.78, 0.0000009638229, 10.001613, 9.998827 
1.0849895e+3, 2.8522325e+2, -38758.805, -243180.03, -11539.266, -0.15084496, 0.019709054, -38109.496, 106698.56, 0.00001551447, 10.001352, 9.998669 
1.08498484e+3, 2.9522106e+2, -176084.98, -257547.4, 1389.3918, -0.010958168, -0.09094835, -176061.3, -129234.15, 0.000103287646, 9.9997225, 9.998685 
1.08497776e+3, 3.0521813e+2, -76904.21, -203946.69, -36709.14, -0.066559836, -0.2369831, -67059.87, -67059.87, 0.00033301808, 10.000191, 9.998484 
1.0849683e+3, 3.1521773e+2, 350845.3, 138891.9, -88412.54, -0.2820578, -0.1535173, 382882.53, 382882.53, 0.00070935563, 10.002478, 9.999742 
1.09510265e+3, 1.2522586e+2, -2020858.0, -1664897.4, -81355.664, -0.2412266, -0.1839921, -1647184.8, 65591.836, 0.000734217, 9.996988, 10.001787 
1.0950996e+3, 1.3522783e+2, -1704614.0, -1483286.8, 38069.742, 0.28733757, -0.174249, -1476921.5, 137828.6, 0.00033773432, 9.998621, 10.0015745 
1.0950902e+3, 1.4522907e+2, -1669140.3, -1579986.6, 45035.605, 0.104279004, -0.12341441, -1561197.1, -44459.79, 0.0000845864, 9.998909, 10.000079 
1.0950807e+3, 1.5522963e+2, -1673282.0, -1528342.8, 38367.43, -0.10739761, -0.10046343, -1518812.9, -100076.375, 0.0000043925156, 9.9981985, 10.000105 
1.0950734e+3, 1.652304e+2, -1512993.5, -1262557.9, 31523.234, -0.11842636, -0.09430493, -1258650.9, 62078.34, 0.0000000006358386, 9.998017, 10.001349 
1.095068e+3, 1.7523105e+2, -1374309.5, -1147065.8, 53025.93, 0.06680384, -0.1858213, -1135301.5, 87417.3, 0.0, 9.998305, 10.001332 
1.095061e+3, 1.8523188e+2, -1299540.0, -1146842.0, 21877.254, 0.121380165, -0.19199453, -1143769.5, -19059.705, 0.0, 9.998517, 10.000561 
1.0950529e+3, 1.9523261e+2, -1183866.3, -1041747.56, 22272.828, 0.070405126, -0.1959196, -1038338.75, -11634.331, 0.0, 9.998646, 10.000546 
1.0950464e+3, 2.0523296e+2, -1101663.4, -1061562.4, 74115.87, 0.07725128, -0.16264679, -1004832.75, -76129.41, 0.0, 9.999009, 9.999562 
1.0950414e+3, 2.1523277e+2, -925458.0, -925129.56, 61208.52, 0.13379298, -0.15763156, -864085.06, -33377.316, 0.0, 9.999545, 9.999568 
1.0950349e+3, 2.2523335e+2, -744656.4, -758620.8, 6921.4346, 0.11059954, -0.065353364, -741807.1, -9101.48, 0.0, 10.000004, 9.999813 
1.09502725e+3, 2.3523432e+2, -579497.9, -628170.94, 45364.414, 0.02123931, 0.026974097, -552354.4, 82346.234, 0.0, 10.000462, 9.999814 
1.0950199e+3, 2.4523473e+2, -484756.16, -548470.9, 12851.932, 0.022941854, 0.0977931, -482261.47, 54435.875, 0.0, 10.000493, 9.999686 
1.0950132e+3, 2.5523448e+2, -454006.06, -486475.25, 11720.479, 0.10793797, 0.079956196, -450217.4, -11520.105, 0.0, 10.000047, 9.999655 
1.09500594e+3, 2.6523253e+2, -449361.88, -658294.75, 32722.875, 0.06447013, 0.03244395, -444356.75, -103639.56, 0.00000010014453, 10.000388, 9.997624 
1.0949983e+3, 2.7522886e+2, -178279.36, -472889.66, -2189.883, -0.10388431, -0.123064294, -178263.08, 64494.85, 0.0000018004142, 10.001546, 9.99767 
1.0949915e+3, 2.8522775e+2, -2411.668, -152245.33, -84500.05, -0.1033953, -0.080544144, 35599.75, 180368.42, 0.000016749305, 10.0012865, 9.999325 
1.0949856e+3, 2.9522884e+2, -146772.69, -175450.64, -44246.92, 0.06160485, 0.066111125, -114599.34, -67845.93, 0.00010005187, 9.999632, 9.999292 
1.0949789e+3, 3.0522624e+2, -137935.55, -312445.47, 43010.074, 0.008093765, -0.04199361, -127911.05, -127911.05, 0.00032272984, 10.000111, 9.997777 
1.0949717e+3, 3.1522346e+2, 278889.44, 13352.853, 22562.738, -0.24173653, -0.12323676, 280792.94, 280792.94, 0.0006960898, 10.002369, 9.998935 
1.1051004e+3, 1.2523524e+2, -1833973.8, -1658642.0, -75421.79, -0.25488445, -0.060422458, -1630663.0, 82023.43, 0.00083503575, 9.998647, 10.001013 
1.10509835e+3, 1.3523544e+2, -1737414.1, -1568866.8, -52157.875, 0.30783126, -0.16673476, -1554031.9, 60647.06, 0.0003918232, 9.998688, 10.000953 
1.1050886e+3, 1.4523627e+2, -1711558.9, -1545037.6, -43553.395, 0.09504371, -0.15465824, -1534334.3, -17665.117, 0.000102570426, 9.998363, 10.000592 
1.1050796e+3, 1.5523772e+2, -1679976.5, -1474566.4, -3124.0754, -0.0116331875, -0.09423153, -1474518.9, -55862.656, 0.0000061708192, 9.997897, 10.000623 
1.10507205e+3, 1.6523863e+2, -1541188.1, -1286646.4, 66104.695, -0.038346294, -0.09343715, -1270502.9, 50143.23, 0.0000000015512864, 9.997878, 10.001247 
1.1050658e+3, 1.7523885e+2, -1372445.3, -1154902.5, 34139.336, 0.022462385, -0.22115164, -1149670.9, 72969.75, 0.0, 9.998367, 10.001243 
1.10505894e+3, 1.8523945e+2, -1284697.0, -1199372.8, -303.1458, 0.044935904, -0.21720058, -1199371.6, -74736.31, 0.0, 9.998884, 10.000019 
1.1050514e+3, 1.9524017e+2, -1105920.1, -1058262.0, -33952.41, 0.035913397, -0.17017443, -1040611.06, -13978.3125, 0.0, 9.999429, 10.000048 
1.1050457e+3, 2.0524049e+2, -967206.94, -957275.8, 72007.086, 0.07627856, -0.13226739, -890063.3, 38568.85, 0.0, 9.999766, 9.999914 
1.10504135e+3, 2.1524028e+2, -841416.6, -845468.0, 106219.97, 0.16162772, -0.16573578, -737203.0, 93432.125, 0.0, 9.999954, 9.999919 
1.10503525e+3, 2.2524105e+2, -747594.56, -763127.0, 65038.28, 0.14801972, -0.07065334, -689860.44, 42770.066, 0.0, 9.999989, 9.999792 
1.1050276e+3, 2.3524243e+2, -669908.6, -677132.6, 25517.516, 0.050659664, 0.06834037, -647748.75, -13127.095, 0.0, 9.999856, 9.999776 
1.1050203e+3, 2.4524271e+2, -576640.4, -629291.75, -18972.959, 0.037610963, 0.14768665, -570515.9, -33895.258, 0.0, 10.000036, 9.999337 
1.10501334e+3, 2.5524187e+2, -406036.53, -498644.0, -45480.816, 0.09898326, 0.10549225, -387436.2, 51192.215, 0.0, 10.0005455, 9.999316 
1.10500686e+3, 2.6523978e+2, -357159.63, -572624.1, 77937.734, 0.09217502, 0.03590449, -331923.72, 8725.494, 0.00000018749917, 10.000836, 9.998003 
1.10500075e+3, 2.7523634e+2, -262737.9, -473567.6, 140533.7, 0.024626331, -0.13230163, -192476.88, 50207.17, 0.0000025324416, 10.000799, 9.998028 
1.10499404e+3, 2.8523514e+2, -8942.788, -223972.36, 64335.53, 0.008180198, -0.082290806, 8836.041, 153531.44, 0.000018771152, 10.001548, 9.998706 
1.1049867e+3, 2.9523584e+2, 294955.4, -31610.662, -18733.65, 0.056501497, 0.09070731, 296026.53, 342713.56, 0.00010057408, 10.002973, 9.998672 
1.1049799e+3, 3.0523318e+2, 212386.94, -122446.34, 83318.29, -0.012958358, 0.0012592309, 231973.69, 231973.69, 0.0003198817, 10.002406, 9.997981 
1.1049738e+3, 3.1523073e+2, -80255.73, -124079.12, 90192.87, -0.12386853, -0.07981766, -9351.062, -9351.062, 0.0006923279, 9.999757, 9.999238 
1.11510165e+3, 1.2524411e+2, -1905965.6, -1802792.8, -39158.727, -0.036337934, 0.10598652, -1789613.8, -77009.57, 0.000944546, 9.998644, 10.000022 
1.1150959e+3, 1.3524255e+2, -1803535.3, -1698821.6, -42220.582, 0.17587571, -0.07508278, -1683919.1, -69301.16, 0.00045159098, 9.998664, 10.000074 
1.1150853e+3, 1.4524254e+2, -1607742.5, -1331447.3, -75544.484, -0.10280975, -0.17703983, -1312141.0, 204472.81, 0.00012308804, 9.998367, 10.002057 
1.1150792e+3, 1.5524448e+2, -1578824.6, -1269250.1, -10395.316, 0.12695612, -0.21583822, -1268901.5, 149686.72, 0.000008505592, 9.997912, 10.002027 
1.11507125e+3, 1.6524585e+2, -1575427.9, -1360146.4, 69905.04, 0.07033135, -0.21225727, -1339439.0, -18867.316, 0.0000000033697685, 9.997887, 10.000742 
1.11506216e+3, 1.7524661e+2, -1408564.8, -1231088.8, 60780.824, -0.20671406, -0.22985554, -1212268.6, 10295.443, 0.0, 9.998365, 10.000728 
1.11505516e+3, 1.8524724e+2, -1335620.8, -1300560.9, 8382.382, -0.23683359, -0.1639425, -1298659.8, -174097.52, 0.0, 9.998867, 9.999333 
1.1150502e+3, 1.9524755e+2, -1162536.1, -1160367.1, -4613.3096, -0.05081242, -0.089064084, -1156712.5, -130144.914, 0.0, 9.999364, 9.99938 
1.1150452e+3, 2.0524825e+2, -888967.6, -777584.94, 64870.543, 0.029362043, -0.04468114, -747779.44, 180781.98, 0.0, 9.999689, 10.001183 
1.11504e+3, 2.1524902e+2, -778453.5, -682148.7, 123439.625, 0.020420779, -0.10742482, -597802.0, 232745.58, 0.0, 9.999811, 10.001109 
1.11503415e+3, 2.2524913e+2, -824125.6, -887943.5, 50788.113, 0.028482163, -0.09378819, -796054.44, -63508.0, 0.0, 9.999847, 9.9990015 
1.11502774e+3, 2.352485e+2, -742832.0, -798022.8, 31881.52, 0.063840546, -0.07681895, -728261.8, -93703.72, 0.0, 9.999729, 9.999007 
1.1150209e+3, 2.4524765e+2, -623925.4, -700008.1, -8344.059, 0.074756816, -0.0548867, -623021.06, -86450.34, 0.0, 9.999917, 9.998909 
1.1150138e+3, 2.552463e+2, -445550.25, -561127.7, -14875.783, 0.06728006, -0.101722665, -443666.3, -5079.8022, 0.0, 10.00046, 9.998929 
1.1150079e+3, 2.6524612e+2, -230550.47, -290473.5, 65722.53, 0.10023831, -0.062041156, -188282.19, 152304.31, 0.00000020790911, 10.000754, 9.999979 
1.11500315e+3, 2.7524674e+2, -143109.84, -203013.56, 153551.34, 0.16981839, -0.025292909, -16616.414, 225957.92, 0.0000030041272, 10.000704, 9.99993 
1.1149966e+3, 2.8524545e+2, -161504.42, -514737.2, 109971.27, 0.09083863, 0.021947706, -130065.45, 14522.049, 0.000021469468, 10.001438, 9.99676 
1.1149882e+3, 2.9524222e+2, 155074.1, -307586.78, 50057.4, -0.12527727, -0.007266215, 160428.08, 207054.34, 0.00010458993, 10.002912, 9.996803 
1.1149805e+3, 3.052391e+2, 280303.94, 26998.959, -21697.012, -0.21727225, -0.10317587, 282148.97, 282148.97, 0.00032358713, 10.002368, 9.999026 
1.1149741e+3, 3.1523916e+2, -17660.584, 35538.99, 22182.438, -0.12139463, -0.037822135, 43574.574, 43574.574, 0.00069615606, 9.999627, 10.000398 
1.1251022e+3, 1.2525204e+2, -1846766.1, -1763208.3, 73199.125, 0.15023398, 0.096130826, -1720704.4, -8178.2754, 0.0010643419, 9.999003, 10.000125 
1.12509415e+3, 1.3525078e+2, -2032787.0, -1802054.5, 49765.676, 0.21585943, -0.061761625, -1791778.4, -177240.28, 0.00051804923, 9.99707, 10.00013 
1.1250825e+3, 1.4525062e+2, -1845004.4, -1451150.4, 79912.55, -0.13219354, -0.17763962, -1435553.8, 80981.945, 0.00014661087, 9.996768, 10.002002 
1.1250766e+3, 1.5525241e+2, -1549841.4, -1261660.9, 3594.4185, 0.079618685, -0.2292083, -1261616.0, 156895.36, 0.00001150662, 9.998143, 10.001965 
1.12506956e+3, 1.6525374e+2, -1477627.8, -1358767.4, 51961.195, 0.077357076, -0.20570365, -1339255.1, -18758.795, 0.0000000061074554, 9.998744, 10.000342 
1.12506166e+3, 1.7525454e+2, -1381558.6, -1254839.8, 33841.227, -0.09472228, -0.18373187, -1246368.5, -23877.918, 0.0, 9.998712, 10.000394 
1.12505496e+3, 1.8525518e+2, -1331047.1, -1269180.9, 49871.445, -0.13677014, -0.112882204, -1241428.3, -116940.305, 0.0, 9.998773, 9.999594 
1.1250492e+3, 1.9525541e+2, -1202010.4, -1155601.6, 87056.195, -0.067646414, -0.07017296, -1088710.4, -62219.63, 0.0, 9.998967, 9.999612 
1.1250441e+3, 2.0525597e+2, -987102.2, -862093.8, 144665.38, -0.022539008, -0.03426777, -767007.25, 161478.34, 0.0, 9.9991865, 10.000843 
1.1250395e+3, 2.1525653e+2, -844717.4, -743095.56, 57745.055, 0.010352988, -0.085920736, -716989.4, 113486.36, 0.0, 9.999497, 10.0008335 
1.1250342e+3, 2.2525632e+2, -811401.94, -887028.9, -18760.469, 0.039218914, -0.090991706, -807003.9, -74526.016, 0.0, 9.999948, 9.998963 
1.1250278e+3, 2.3525529e+2, -619831.5, -740769.4, -231.28284, 0.06993844, -0.11344694, -619831.06, 14660.987, 0.0, 10.000573, 9.998991 
1.1250212e+3, 2.4525432e+2, -525008.4, -664459.56, 11920.218, 0.08919839, -0.0947338, -523996.78, 12508.557, 0.0, 10.000649, 9.998806 
1.1250144e+3, 2.5525326e+2, -486383.63, -593156.94, 12766.925, 0.099214144, -0.10311445, -484878.28, -46358.51, 0.0, 10.000232, 9.998827 
1.1250087e+3, 2.6525345e+2, -301017.13, -285873.63, 61268.56, 0.14337128, -0.035885736, -231710.72, 108804.9, 0.00000016860811, 10.000121, 10.000306 
1.12500414e+3, 2.7525455e+2, -174879.08, -183468.14, -4195.9873, 0.21823516, 0.016597478, -173169.5, 69327.695, 0.0000038179373, 10.000345, 10.000229 
1.124998e+3, 2.8525314e+2, -285340.34, -582618.0, 17008.053, 0.14210851, 0.040042073, -284370.44, -139859.23, 0.000026281929, 10.000612, 9.996694 
1.1249905e+3, 2.9524925e+2, -155518.33, -460253.13, 71724.07, -0.06986008, -0.046531033, -139480.95, -92924.16, 0.00011359424, 10.0007925, 9.996771 
1.1249827e+3, 3.052462e+2, 109297.9, -35853.13, -17546.275, -0.1638409, -0.14461495, 111388.82, 111388.82, 0.00033605486, 10.001128, 9.999187 
1.12497546e+3, 3.1524682e+2, 257342.95, 185765.34, -82308.945, -0.025494257, -0.031324323, 311307.16, 311307.16, 0.0007117771, 10.001426, 10.00058 
1.13510184e+3, 1.252592e+2, -1751576.1, -1563725.4, 37593.06, 0.15666486, -0.07528655, -1556481.5, 155969.22, 0.0011953667, 9.999014, 10.00148 
1.1350924e+3, 1.3526015e+2, -1953740.3, -1640694.9, -15366.341, 0.31262246, -0.12941843, -1639942.4, -25502.912, 0.00059164723, 9.99708, 10.001233 
1.13507986e+3, 1.4526059e+2, -1952389.1, -1674741.9, 118150.72, -0.10353871, -0.16213292, -1631270.3, -114835.83, 0.00017336896, 9.996776, 10.000465 
1.1350719e+3, 1.5526156e+2, -1653448.8, -1481240.9, 65477.563, -0.23252003, -0.13555832, -1459172.6, -40747.656, 0.000015247707, 9.998162, 10.000451 
1.1350667e+3, 1.6526236e+2, -1491509.1, -1390866.6, 38659.66, -0.111378476, -0.08055819, -1377730.8, -57311.715, 0.000000009421829, 9.998758, 10.0001135 
1.1350642e+3, 1.7526272e+2, -1393494.4, -1284889.8, 41387.035, 0.25698605, -0.079559594, -1270916.0, -48497.215, 0.0, 9.998733, 10.000177 
1.1350577e+3, 1.8526334e+2, -1243375.9, -1091173.1, 44001.43, 0.24604933, -0.06587748, -1079368.1, 45043.8, 0.0, 9.998783, 10.000813 
1.135048e+3, 1.9526389e+2, -1133813.6, -996020.5, 101754.71, -0.107491754, -0.11266593, -942031.94, 84369.81, 0.0, 9.998884, 10.000751 
1.135042e+3, 2.0526378e+2, -1138761.6, -1157239.1, 143432.48, -0.165326, -0.0967121, -1004270.7, -75866.805, 0.0, 9.999099, 9.998861 
1.1350397e+3, 2.1526287e+2, -998081.0, -1031449.5, 76980.34, 0.052252393, -0.09467415, -935997.6, -105578.73, 0.0, 9.999365, 9.998921 
1.1350348e+3, 2.252626e+2, -774776.94, -779936.3, -8230.528, 0.09393527, -0.0534254, -768731.3, -36306.746, 0.0, 9.999814, 9.999761 
1.1350277e+3, 2.3526266e+2, -588067.3, -642346.06, 33095.367, -0.01802872, -0.046566002, -572406.56, 62017.4, 0.0, 10.000432, 9.999735 
1.13502115e+3, 2.4526276e+2, -527157.6, -641955.56, -14346.981, -0.013434378, 0.030990427, -525391.75, 11032.73, 0.0, 10.000532, 9.999016 
1.1350149e+3, 2.5526276e+2, -484374.13, -568220.3, 8121.176, 0.10941483, 0.10520237, -483594.78, -45167.56, 0.0, 10.000141, 9.999042 
1.1350089e+3, 2.652618e+2, -406571.9, -491936.38, 63461.543, 0.13809282, 0.11589987, -372774.47, -32338.666, 0.00000020663475, 10.000057, 9.998928 
1.1350033e+3, 2.752597e+2, -277810.44, -384702.25, 19749.982, 0.07781159, -0.009335439, -274278.03, -31825.273, 0.0000055002247, 10.000286, 9.99888 
1.13499805e+3, 2.8525805e+2, -172345.97, -326489.78, 11316.85, 0.06749932, -0.035373844, -171519.55, -27051.934, 0.00003348711, 10.000529, 9.9984865 
1.1349934e+3, 2.9525676e+2, -49638.79, -213055.33, 90285.8, 0.11665335, -0.04280094, -9577.74, 36903.19, 0.00012808957, 10.000676, 9.998521 
1.13498606e+3, 3.0525437e+2, 38061.992, -152961.78, -12395.0, 0.05235472, -0.12815656, 38862.91, 38862.91, 0.0003591798, 10.0009985, 9.9984455 
1.1349773e+3, 3.1525367e+2, 186289.88, 71246.87, -44740.754, -0.022694733, -0.06991912, 201641.27, 201641.27, 0.0007452587, 10.001289, 9.999854 
1.1451e+3, 1.252668e+2, -2027918.0, -1724507.9, 65926.37, 0.17348266, -0.16920416, -1710802.3, 1570.1615, 0.0013373722, 9.997205, 10.001271 
1.1450896e+3, 1.3526852e+2, -1785982.5, -1595625.3, -174196.48, 0.268494, -0.11350152, -1492301.0, 122057.195, 0.000672049, 9.998352, 10.000952 
1.1450784e+3, 1.4526938e+2, -1694546.3, -1561540.6, 22875.652, -0.009625913, -0.08847757, -1557716.1, -41364.88, 0.0002032588, 9.998593, 10.000365 
1.1450708e+3, 1.5527011e+2, -1667246.4, -1499037.8, 49084.848, -0.14751647, -0.07346411, -1485762.1, -67417.695, 0.000019742625, 9.998125, 10.000344 
1.14506565e+3, 1.6527084e+2, -1577121.5, -1435620.0, 95762.43, -0.057354014, -0.017711725, -1387307.3, -66968.28, 0.000000013934886, 9.998191, 10.000078 
1.145063e+3, 1.7527126e+2, -1393607.6, -1289580.8, 94167.34, 0.26364553, -0.00828537, -1234016.9, -11679.169, 0.0, 9.998753, 10.000134 
1.14505686e+3, 1.8527143e+2, -1199048.4, -1084509.1, 69727.516, 0.26361105, -0.028413191, -1051547.3, 72786.984, 0.0, 9.999156, 10.000675 
1.1450477e+3, 1.9527116e+2, -1056338.6, -965748.06, 3954.0732, -0.035812415, -0.14493942, -965575.75, 60754.867, 0.0, 9.999472, 10.00066 
1.1450419e+3, 2.0527086e+2, -1091271.1, -1167228.4, 81378.9, -0.10225758, -0.12993696, -1039445.0, -111110.4, 0.0, 9.99956, 9.998573 
1.145039e+3, 2.1527031e+2, -1007838.94, -1067213.5, 125398.38, 0.052803654, -0.064023964, -908661.56, -78314.4, 0.0, 9.999426, 9.998651 
1.1450343e+3, 2.2527015e+2, -802966.3, -781614.56, 108761.664, 0.084923714, -0.0022998457, -683006.06, 49345.848, 0.0, 9.99957, 9.999867 
1.1450281e+3, 2.3527013e+2, -648711.8, -654507.44, 74775.195, 0.006195996, -0.015533448, -576778.3, 57573.438, 0.0, 9.999948, 9.999883 
1.1450217e+3, 2.4527018e+2, -536583.06, -622761.94, 8030.3813, 0.01195729, 0.03748688, -535841.2, 509.63892, 0.0, 10.000369, 9.999221 
1.1450153e+3, 2.5527006e+2, -363910.78, -484160.47, 8750.604, 0.103201814, 0.08057066, -363277.3, 75073.56, 0.0, 10.000873, 9.999252 
1.1450094e+3, 2.652686e+2, -279877.66, -544569.2, 108955.28, 0.11681607, 0.07739696, -240798.05, 99567.76, 0.00000038376965, 10.001397, 9.997931 
1.1450042e+3, 2.7526557e+2, -106969.86, -409837.16, 77050.33, 0.059186388, -0.04206074, -88494.99, 153901.94, 0.0000075917305, 10.001904, 9.997938 
1.14499904e+3, 2.852639e+2, 25070.129, -172121.17, 33185.31, 0.066611715, -0.052252784, 30505.084, 174918.48, 0.0000412879, 10.00162, 9.999028 
1.14499435e+3, 2.9526347e+2, -33199.715, -147819.89, -6710.4814, 0.15934715, -0.027008422, -32808.184, 13608.288, 0.00014511992, 10.000537, 9.9990425 
1.1449874e+3, 3.052614e+2, 48669.594, -169168.61, -50274.066, 0.09447348, -0.091984056, 59712.367, 59712.367, 0.00038843177, 10.001133, 9.998277 
1.1449799e+3, 3.1526035e+2, 428967.9, 178477.1, -84751.19, 0.023435201, -0.05671408, 454948.1, 454948.1, 0.0007935078, 10.003004, 9.999757 
1.15509585e+3, 1.2527469e+2, -2149287.8, -1967320.8, 89205.92, -0.004084142, -0.20285021, -1930884.9, -218592.42, 0.001489488, 9.997179, 9.999609 
1.1550854e+3, 1.3527603e+2, -1896461.5, -1828497.9, -124310.11, -0.0018773413, -0.017695611, -1733608.5, -119315.99, 0.00075867696, 9.998371, 9.999339 
1.15507804e+3, 1.4527701e+2, -1605441.0, -1383068.1, -6881.8057, 0.056864575, 0.035438076, -1382855.4, 133430.52, 0.0002361324, 9.998612, 10.001586 
1.155073e+3, 1.5527803e+2, -1575695.0, -1319468.0, 41135.5, 0.22411792, -0.04624928, -1313026.0, 105243.5, 0.000024990082, 9.998161, 10.001562 
1.15506604e+3, 1.6527912e+2, -1560274.3, -1403380.0, 103431.29, 0.13178432, -0.025397938, -1352012.0, -31755.611, 0.000000023716384, 9.998206, 10.000292 
1.15505785e+3, 1.7528011e+2, -1384785.5, -1266497.5, 122409.9, -0.14576061, 0.021133153, -1189692.3, 32555.24, 0.0, 9.998737, 10.000298 
1.1550521e+3, 1.8527955e+2, -1309815.8, -1310683.3, 69950.58, -0.15647814, -0.00065788353, -1240297.6, -116043.66, 0.0, 9.999138, 9.999133 
1.1550483e+3, 1.952773e+2, -1164665.4, -1181500.8, 22897.014, 0.052319173, -0.16373156, -1148687.8, -122411.11, 0.0, 9.999427, 9.999205 
1.1550433e+3, 2.052772e+2, -997881.06, -956268.94, 60935.887, 0.068565935, -0.13450193, -912685.0, 15592.537, 0.0, 9.999485, 10.000056 
1.15503736e+3, 2.1527877e+2, -927252.94, -872232.94, 129722.32, -0.07489882, -0.005388801, -767135.7, 63125.37, 0.0, 9.999297, 10.000053 
1.15503244e+3, 2.2527896e+2, -866552.8, -881075.56, 112863.195, -0.07046892, 0.05354632, -760717.6, -28457.447, 0.0, 9.999433, 9.999249 
1.1550288e+3, 2.352777e+2, -707420.56, -749641.1, 98913.6, 0.060647685, -0.021169288, -627389.6, 6885.542, 0.0, 9.999834, 9.999285 
1.155023e+3, 2.452765e+2, -538262.6, -597530.4, 13071.552, 0.08225486, -0.07466585, -535507.75, 777.05475, 0.0, 10.000246, 9.999453 
1.1550152e+3, 2.552752e+2, -369277.28, -468518.5, 35645.86, 0.00053453026, -0.17711568, -357801.0, 80490.21, 0.0, 10.000755, 9.999415 
1.1550098e+3, 2.6527372e+2, -336842.78, -637245.25, 117227.1, -0.0015971868, -0.15221107, -296511.6, 43794.69, 0.0000005356376, 10.00129, 9.997345 
1.1550064e+3, 2.7527195e+2, -155949.97, -486536.13, 105631.69, 0.06329559, -0.09112305, -125080.21, 117250.945, 0.000008957139, 10.0018015, 9.997457 
1.1550007e+3, 2.8527066e+2, -35118.363, -272545.0, -16063.2295, 0.04687737, -0.01176012, -34036.523, 110311.75, 0.00004724257, 10.001513, 9.998393 
1.1549932e+3, 2.9526946e+2, -86049.266, -252219.7, -26117.105, -0.04623604, 0.0045589497, -82041.11, -35679.38, 0.00015981888, 10.000502, 9.998349 
1.1549865e+3, 3.052674e+2, 47961.793, -139899.22, 14070.183, -0.14387949, -0.03737753, 49009.758, 49009.758, 0.00041743313, 10.001016, 9.998524 
1.15498215e+3, 3.1526652e+2, 430615.88, 220956.22, 17131.408, -0.10078865, -0.017537007, 432006.47, 432006.47, 0.0008473706, 10.002841, 10.000121 
1.1650927e+3, 1.2528183e+2, -2173935.3, -1956204.6, 21850.834, -0.0073855175, -0.16226168, -1954033.4, -241807.84, 0.0016512593, 9.996904, 9.999813 
1.1650829e+3, 1.352834e+2, -1915661.3, -1795343.6, -52338.4, -0.07275777, 0.01598153, -1775762.9, -161540.83, 0.0008513687, 9.998082, 9.999692 
1.16507754e+3, 1.452845e+2, -1650798.6, -1419361.1, 45659.426, 0.16269463, 0.06820342, -1410678.9, 105534.945, 0.00027198074, 9.998365, 10.001453 
1.16507165e+3, 1.5528497e+2, -1655485.9, -1373467.3, -31738.19, 0.31232065, -0.053828597, -1369939.5, 48263.44, 0.00003101119, 9.99768, 10.001425 
1.1650642e+3, 1.652858e+2, -1606912.5, -1387607.6, 51162.36, 0.1623589, -0.06837185, -1376259.0, -56068.086, 0.00000004774233, 9.997729, 10.000627 
1.1650558e+3, 1.7528677e+2, -1388318.4, -1236805.6, 55596.04, -0.20812291, -0.05324106, -1218594.1, 3585.134, 0.0, 9.998577, 10.000584 
1.1650508e+3, 1.8528631e+2, -1325161.0, -1397851.0, 54781.375, -0.20070323, -0.042534832, -1295764.4, -171578.6, 0.0, 9.999365, 9.998427 
1.1650487e+3, 1.9528437e+2, -1111172.4, -1232521.3, 50812.73, 0.11688477, -0.105980285, -1092705.6, -66495.17, 0.0, 10.000114, 9.998528 
1.1650439e+3, 2.0528415e+2, -850774.3, -851813.1, 65691.93, 0.1399222, -0.07045409, -785599.75, 142613.05, 0.0, 10.000353, 10.000352 
1.16503686e+3, 2.1528532e+2, -782523.25, -765782.44, 20392.818, -0.08809603, -0.0154628595, -752109.0, 78087.76, 0.0, 10.000144, 10.000368 
1.165032e+3, 2.2528529e+2, -813115.4, -883398.25, 8810.086, -0.092738114, 0.019144319, -812027.9, -79831.234, 0.0, 9.999928, 9.998993 
1.16502896e+3, 2.352839e+2, -746039.7, -796748.6, 3692.8835, 0.106896065, -0.042425428, -745772.2, -111558.5, 0.0, 9.999697, 9.999029 
1.1650237e+3, 2.4528247e+2, -540721.3, -607046.25, -31339.684, 0.1308524, -0.10062504, -528255.7, 7969.7363, 0.0, 10.000247, 9.999393 
1.1650162e+3, 2.5528094e+2, -271721.2, -431581.44, -51402.77, -0.009479778, -0.21948218, -256619.36, 181614.2, 0.0, 10.001443, 9.9993515 
1.165011e+3, 2.6527968e+2, -303712.06, -607205.9, 27666.805, -0.016517987, -0.17701024, -301210.56, 39036.758, 0.00000056359414, 10.001468, 9.997458 
1.1650077e+3, 2.752785e+2, -352590.97, -572240.06, 39488.57, 0.10032727, -0.06540676, -345707.44, -103439.2, 0.00000928475, 10.000423, 9.997532 
1.165002e+3, 2.8527746e+2, -200351.17, -356230.94, -13106.44, 0.08159236, 0.040355347, -199256.86, -54973.453, 0.000050363375, 10.0004, 9.998349 
1.1649938e+3, 2.952764e+2, 18435.121, -202626.73, -3159.826, -0.06148434, 0.070085, 18480.277, 64775.996, 0.00017050822, 10.001244, 9.998322 
1.1649875e+3, 3.052741e+2, 166408.81, -98796.93, 115699.95, -0.16831541, 0.014280012, 209788.9, 209788.9, 0.00044292747, 10.001894, 9.998393 
1.1649851e+3, 3.1527206e+2, 300198.38, 149369.97, 54121.688, -0.036073603, -0.05866638, 317609.03, 317609.03, 0.00089617184, 10.001974, 10.000062 
1.17508896e+3, 1.252878e+2, -2040470.9, -1666293.5, -27738.13, -0.11768336, -0.10093067, -1664248.4, 47926.895, 0.0018234614, 9.996855, 10.001826 
1.17508166e+3, 1.352907e+2, -1757613.5, -1473687.5, -1408.8322, -0.028609177, -0.019871272, -1473680.5, 140466.13, 0.0009506097, 9.998107, 10.00189 
1.1750765e+3, 1.4529186e+2, -1751667.1, -1627407.3, 8381.442, 0.20962772, 0.0052854773, -1626844.5, -110709.39, 0.00031097958, 9.998364, 10.000023 
1.1750669e+3, 1.5529105e+2, -1755016.8, -1582320.4, -46855.457, 0.043957006, -0.09913462, -1570426.8, -152283.1, 0.00003785508, 9.99769, 9.999985 
1.17506005e+3, 1.6529092e+2, -1583157.5, -1339297.4, 71374.695, -0.05152103, -0.15354262, -1319943.1, 199.01001, 0.00000010132158, 9.997735, 10.000953 
1.17505655e+3, 1.7529133e+2, -1364620.3, -1184811.4, 96689.195, -0.014377715, -0.2356707, -1142687.0, 79445.35, 0.0, 9.998567, 10.000943 
1.17505275e+3, 1.8529189e+2, -1316831.5, -1377839.1, 70671.516, 0.034310747, -0.14868942, -1270361.6, -146233.2, 0.0, 9.999351, 9.998574 
1.1750486e+3, 1.9529232e+2, -1111535.3, -1222627.6, 89527.61, 0.07661483, 0.012385749, -1061722.3, -35589.97, 0.0, 10.00006, 9.998627 
1.17504336e+3, 2.0529176e+2, -927346.1, -989407.75, 46228.137, 0.030127604, 0.05486774, -902699.75, 25440.127, 0.0, 10.000264, 9.999449 
1.17503725e+3, 2.1529008e+2, -861802.25, -902995.06, 21113.896, -0.07612785, -0.08377028, -852902.75, -22749.982, 0.0, 10.000023, 9.999487 
1.1750323e+3, 2.2528914e+2, -825310.75, -874501.44, -11708.496, -0.06342496, -0.10457046, -822666.06, -90504.7, 0.0, 9.9997835, 9.999124 
1.1750283e+3, 2.3528868e+2, -758243.8, -786031.0, 7747.9863, 0.051981464, -0.08636849, -756229.44, -122062.04, 0.0, 9.999547, 9.999171 
1.1750235e+3, 2.4528813e+2, -587158.25, -671625.06, 4438.559, 0.06350783, -0.04574053, -586925.6, -50753.28, 0.0, 10.000108, 9.999021 
1.1750178e+3, 2.5528732e+2, -302685.3, -475534.56, 2237.86, -0.015370129, -0.058755707, -302656.34, 135521.75, 0.0, 10.001357, 9.999088 
1.1750128e+3, 2.6528645e+2, -267219.0, -512784.63, -22708.98, -0.0009216066, -0.0051254146, -265136.63, 75052.6, 0.0000005132723, 10.001382, 9.998153 
1.17500804e+3, 2.7528515e+2, -315150.06, -481477.22, 15632.697, 0.07543015, 0.029158069, -313693.53, -71485.32, 0.000009286575, 10.000363, 9.998185 
1.17500246e+3, 2.8528437e+2, -182308.9, -300149.72, 10018.234, 0.0746342, 0.10669323, -181463.28, -37244.918, 0.00005131962, 10.000319, 9.998774 
1.1749961e+3, 2.952839e+2, 52345.89, -127563.586, 41641.62, 0.015591838, 0.15045781, 61516.727, 107738.01, 0.0001770123, 10.001211, 9.998855 
1.17499076e+3, 3.052812e+2, 116671.35, -168283.3, 115603.875, -0.06044166, 0.040907215, 157671.66, 157671.66, 0.0004593758, 10.00177, 9.997968 
1.17498815e+3, 3.1527725e+2, 253564.83, 95012.54, 85156.7, 0.032915886, -0.1770335, 290634.6, 290634.6, 0.0009233706, 10.001813, 9.999755 
1.18508644e+3, 1.2529415e+2, -2155664.8, -1638484.8, -31781.252, 0.0067541683, 0.012959259, -1636539.1, 75580.055, 0.0020081834, 9.995692, 10.002578 
1.18507944e+3, 1.3529694e+2, -1891882.6, -1439089.3, -67432.24, 0.02185296, -0.016363913, -1429260.3, 184825.14, 0.0010574218, 9.996733, 10.002801 
1.1850746e+3, 1.4529808e+2, -1859655.9, -1721311.0, -74406.75, 0.21059932, -0.020746443, -1688890.3, -172817.14, 0.00035351914, 9.9978075, 9.999643 
1.1850645e+3, 1.5529762e+2, -1597059.0, -1544345.1, -79617.19, -0.023895636, -0.05235553, -1486835.6, -68754.76, 0.00004562391, 9.998948, 9.999633 
1.1850585e+3, 1.6529725e+2, -1417871.5, -1316009.4, 65832.586, -0.048742104, -0.08925809, -1283706.4, 36377.12, 0.00000019883093, 9.9991045, 10.00046 
1.1850568e+3, 1.7529683e+2, -1410818.0, -1253978.0, 11189.296, 0.1662312, -0.2075646, -1253183.8, -31100.79, 0.0, 9.998446, 10.000525 
1.1850534e+3, 1.8529747e+2, -1364769.0, -1296337.1, 31854.254, 0.20313412, -0.14006336, -1283804.5, -159728.06, 0.0, 9.998583, 9.999498 
1.1850482e+3, 1.9529882e+2, -1130926.4, -1127128.5, 80578.39, 0.061774727, 0.01931088, -1048426.6, -22360.031, 0.0, 9.999493, 9.999547 
1.1850427e+3, 2.052983e+2, -1029090.0, -1103293.3, 63778.586, -0.025512794, 0.05227758, -992406.5, -64333.234, 0.0, 9.9998455, 9.998876 
1.18503734e+3, 2.1529584e+2, -951066.94, -1003586.1, 47888.27, -0.04542284, -0.10608064, -922711.06, -92613.75, 0.0, 9.999666, 9.998968 
1.1850326e+3, 2.252948e+2, -779954.3, -819514.4, 70681.19, -0.016754325, -0.12698857, -726337.6, 5769.347, 0.0, 9.999934, 9.999433 
1.1850282e+3, 2.3529485e+2, -583920.6, -670266.6, 79425.27, 0.046397474, -0.09082664, -536692.94, 97412.46, 0.0, 10.000587, 9.99947 
1.1850237e+3, 2.4529439e+2, -512996.6, -676761.5, 116600.84, 0.04715633, -0.039125472, -452399.25, 83710.83, 0.0, 10.000803, 9.998646 
1.18501894e+3, 2.552932e+2, -428512.84, -582259.25, 88727.9, -0.0021021557, -0.046446335, -387988.75, 50134.21, 0.0, 10.000692, 9.99868 
1.185014e+3, 2.6529253e+2, -319691.56, -461569.66, 38647.027, 0.031167885, 0.01656616, -309847.3, 30284.436, 0.0000005059796, 10.000714, 9.998814 
1.185009e+3, 2.752921e+2, -201717.22, -358931.1, 47551.664, 0.11343523, 0.067987345, -188453.53, 53685.96, 0.000009353779, 10.000864, 9.998779 
1.1850037e+3, 2.85291e+2, -54152.188, -267758.75, 81741.11, 0.12423186, 0.10197942, -26461.79, 117689.03, 0.000051335024, 10.001336, 9.998501 
1.1849985e+3, 2.9528937e+2, 155094.92, -108686.875, 33636.15, 0.097987615, 0.059568267, 159316.47, 205481.58, 0.00017979782, 10.002065, 9.998569 
1.1849935e+3, 3.0528682e+2, 187609.66, -159143.22, 69042.48, 0.023626914, -0.0051708072, 200851.16, 200851.16, 0.0004625388, 10.002328, 9.997779 
1.184991e+3, 3.1528348e+2, 254343.78, 69823.836, 17205.158, 0.13384716, -0.14516658, 255934.33, 255934.33, 0.00092024915, 10.001884, 9.999564 
1.1950835e+3, 1.2530051e+2, -2181577.5, -1690788.8, -90493.8, 0.09198517, 0.12678541, -1674634.8, 37425.703, 0.0022081332, 9.995687, 10.002219 
1.1950762e+3, 1.3530225e+2, -1907507.6, -1470050.8, -18860.355, -0.009533884, 0.012157186, -1469239.1, 144798.47, 0.0011730703, 9.996728, 10.002587 
1.1950712e+3, 1.4530315e+2, -1818804.3, -1636609.6, -41979.85, 0.058730863, -0.032099925, -1627402.3, -111375.266, 0.00040013902, 9.997805, 10.000229 
1.1950642e+3, 1.5530477e+2, -1552880.6, -1464229.5, -27392.758, 0.023986585, 0.0856074, -1456448.3, -38435.03, 0.00005450229, 9.998985, 10.000172 
1.19505905e+3, 1.6530485e+2, -1497690.4, -1487144.1, 25696.654, 0.07986249, 0.12687093, -1466185.1, -146170.83, 0.00000035173326, 9.999127, 9.999275 
1.1950564e+3, 1.7530335e+2, -1495188.8, -1423286.4, -3522.1453, 0.26054102, 0.023991887, -1423114.3, -201083.83, 0.0, 9.998422, 9.999378 
1.19505234e+3, 1.8530314e+2, -1253751.9, -1063446.0, 55655.133, 0.2196504, -0.020476071, -1048364.7, 75664.23, 0.0, 9.998571, 10.001103 
1.1950471e+3, 1.9530389e+2, -1031374.5, -907969.75, 122802.234, -0.01804527, -0.08192446, -832240.06, 193773.17, 0.0, 9.999433, 10.001084 
1.1950418e+3, 2.0530371e+2, -1055241.5, -1134980.8, 42695.016, -0.11478162, -0.07938275, -1036694.94, -108681.12, 0.0, 9.999752, 9.998699 
1.19503684e+3, 2.1530253e+2, -981455.6, -1036108.0, 50390.05, -0.07757626, -0.0955813, -951459.25, -121428.266, 0.0, 9.999537, 9.998805 
1.19503245e+3, 2.2530219e+2, -766583.0, -760711.3, 83915.01, -0.03848646, -0.060910873, -679680.8, 52353.418, 0.0, 9.999801, 9.9999 
1.1950286e+3, 2.3530246e+2, -570051.75, -612555.94, 111478.484, 0.005240704, -0.05169806, -477817.7, 156209.1, 0.0, 10.000466, 9.999922 
1.195024e+3, 2.453013e+2, -560022.1, -749030.7, 99533.195, -0.0067251585, -0.068122424, -517275.16, 18762.557, 0.0, 10.0006895, 9.998209 
1.195019e+3, 2.5529867e+2, -472827.06, -645941.25, 93935.07, -0.06583326, -0.1764464, -431650.34, 6416.4917, 0.0, 10.000573, 9.998298 
1.1950145e+3, 2.652981e+2, -303686.34, -405543.28, 34486.03, -0.013013711, -0.108024195, -293108.75, 46964.9, 0.0000006389743, 10.00061, 9.999254 
1.19501024e+3, 2.7529916e+2, -179106.94, -293339.8, 65424.707, 0.13159122, 0.047347832, -149374.77, 92687.766, 0.000009301616, 10.000789, 9.999267 
1.1950056e+3, 2.8529733e+2, -137048.39, -425207.66, 99366.02, 0.15459606, 0.033262253, -106106.46, 37974.43, 0.000051838055, 10.001266, 9.997456 
1.1950006e+3, 2.9529265e+2, 72203.23, -268756.06, 75356.97, 0.077322304, -0.21234292, 88115.59, 134243.44, 0.00018153801, 10.002001, 9.997503 
1.1949955e+3, 3.0529103e+2, 159980.78, -180171.02, 48120.246, -0.02129828, -0.12611486, 166657.16, 166657.16, 0.0004580292, 10.002186, 9.997695 
1.1949928e+3, 3.1529063e+2, 225517.89, 58885.707, 40447.438, 0.089809455, 0.029449688, 234816.95, 234816.95, 0.0008969489, 10.001689, 9.999574 
1.2050802e+3, 1.253052e+2, -2072866.9, -1694766.1, -32859.91, 0.15338653, 0.040154416, -1691931.5, 20079.25, 0.0024257244, 9.996696, 10.001712 
1.2050732e+3, 1.3530733e+2, -1913877.6, -1546891.3, -16409.764, 0.022932015, 0.04262116, -1546159.0, 67829.26, 0.0012988481, 9.997033, 10.001906 
1.2050681e+3, 1.4530782e+2, -1839080.0, -1613698.8, -30702.281, -0.009036334, -0.023469908, -1609591.3, -93608.52, 0.00045139206, 9.997509, 10.000534 
1.2050637e+3, 1.5530957e+2, -1634824.3, -1464585.6, -61958.227, 0.1269881, 0.06982512, -1444423.9, -26457.625, 0.00006471426, 9.998256, 10.000521 
1.2050591e+3, 1.6531e+2, -1562511.6, -1538807.5, 5183.23, 0.1931053, 0.13807069, -1537723.6, -217759.61, 0.00000057087306, 9.998771, 9.999088 
1.2050547e+3, 1.7530891e+2, -1398416.5, -1392628.6, 29582.041, 0.21993773, 0.09335588, -1365799.4, -143821.27, 0.0, 9.999162, 9.999225 
1.2050506e+3, 1.8530844e+2, -1145659.9, -1012155.7, 107555.67, 0.15266864, 0.031608783, -952321.6, 171657.55, 0.0, 9.999321, 10.001088 
1.2050466e+3, 1.9530833e+2, -1047591.7, -911168.0, 36977.816, -0.00096561667, -0.11717771, -901789.8, 124180.67, 0.0, 9.999308, 10.001113 
1.205042e+3, 2.0530845e+2, -1083976.8, -1104820.0, -70857.4, -0.057189137, -0.108893655, -1022778.7, -94810.94, 0.0, 9.999355, 9.999097 
1.2050369e+3, 2.1530852e+2, -961562.06, -985880.7, -43571.664, -0.021201553, -0.03766919, -928484.9, -98512.18, 0.0, 9.999478, 9.999184 
1.2050326e+3, 2.2530836e+2, -809616.56, -802754.44, 19668.555, 0.005831639, 0.0071233814, -786219.94, -54245.234, 0.0, 9.999605, 9.999707 
1.2050288e+3, 2.3530783e+2, -690509.9, -690477.3, -22721.227, 0.030679049, -0.042164546, -667772.4, -33796.492, 0.0, 9.999734, 9.999741 
1.20502464e+3, 2.4530672e+2, -631909.7, -740096.9, -17804.969, 0.024283515, -0.06451423, -629054.75, -93068.79, 0.0, 10.000007, 9.998593 
1.2050199e+3, 2.5530484e+2, -473445.97, -607429.3, 15459.755, -0.026498253, -0.13571858, -471685.28, -33678.703, 0.00000000020898414, 10.000392, 9.99865 
1.2050155e+3, 2.6530406e+2, -296854.7, -414706.4, -13269.324, 0.022735514, -0.1041598, -295379.13, 44635.195, 0.00000074892756, 10.000709, 9.999139 
1.2050114e+3, 2.7530396e+2, -159993.03, -298580.25, -48658.234, 0.16370946, -0.05013712, -144615.34, 97397.11, 0.000009032264, 10.000973, 9.999138 
1.2050072e+3, 2.85302e+2, -73682.52, -395223.06, 46915.9, 0.17482519, -0.0699842, -66976.88, 77054.45, 0.000052112464, 10.001704, 9.997453 
1.2050028e+3, 2.9529813e+2, 178778.67, -220414.2, 70812.95, 0.0684644, -0.23268947, 190968.0, 237039.16, 0.00018292993, 10.00275, 9.997475 
1.20499805e+3, 3.0529693e+2, 287364.2, -142753.1, 52639.195, -0.028935492, -0.09100176, 293712.66, 293712.66, 0.000455038, 10.003182, 9.997458 
1.2049959e+3, 3.1529564e+2, 344755.78, 77749.984, -8113.875, 0.17683212, -0.0017610079, 345002.13, 345002.13, 0.0008751653, 10.002715, 9.99919 
1.2150758e+3, 1.2530817e+2, -2117305.8, -1775435.3, -3104.0525, 0.010600992, -0.2681104, -1775407.0, -63436.04, 0.0026624324, 9.996677, 10.001154 
1.2150708e+3, 1.3531227e+2, -2008184.6, -1746367.8, 2376.803, 0.051844876, 0.07265046, -1746346.3, -132409.56, 0.0014356553, 9.997047, 10.000535 
1.2150652e+3, 1.4531215e+2, -1827401.5, -1583315.9, -16671.545, -0.07534206, -0.001552679, -1582182.4, -66242.49, 0.0005075534, 9.997493, 10.000745 
1.21506296e+3, 1.5531208e+2, -1623084.9, -1439302.5, -22326.229, 0.19860663, -0.10907622, -1436629.1, -18690.01, 0.000076397075, 9.99825, 10.000698 
1.2150581e+3, 1.6531266e+2, -1507835.1, -1424365.4, 9072.692, 0.19367781, -0.07029141, -1423390.6, -103457.59, 0.0000008702971, 9.998771, 9.999869 
1.2150516e+3, 1.7531352e+2, -1350565.3, -1291209.3, 52603.47, -0.03025819, 0.0012216294, -1260489.4, -38563.688, 0.0, 9.999148, 9.999929 
1.2150478e+3, 1.8531339e+2, -1249655.9, -1226590.9, 94255.27, -0.07871364, 0.012781991, -1143165.3, -19238.094, 0.0, 9.999315, 9.9996195 
1.2150464e+3, 1.953122e+2, -1155592.1, -1124150.9, 46587.73, 0.023664333, -0.095171355, -1090702.9, -64764.97, 0.0, 9.999254, 9.9996805 
1.2150426e+3, 2.0531254e+2, -1035286.7, -977611.94, -78172.13, 0.05390716, -0.041503534, -923127.8, 4806.7886, 0.0, 9.9992485, 10.000017 
1.2150371e+3, 2.1531403e+2, -922559.3, -869121.75, -30750.676, 0.029997384, 0.07649078, -855103.6, -25182.717, 0.0, 9.999326, 10.000054 
1.21503256e+3, 2.2531348e+2, -891122.1, -940309.2, 11867.851, 0.030111313, 0.08554066, -888408.4, -156481.42, 0.0, 9.999464, 9.998834 
1.2150289e+3, 2.3531103e+2, -763844.7, -814789.0, -6453.8955, 0.052318834, -0.068281285, -763039.75, -129087.93, 0.0, 9.999611, 9.998948 
1.2150251e+3, 2.4531066e+2, -573425.94, -581033.0, -10569.611, 0.0516105, -0.03922158, -565996.3, -30041.516, 0.0, 9.999852, 9.999755 
1.2150211e+3, 2.5531185e+2, -410424.22, -454283.97, 40652.16, 0.036784545, 0.07709227, -386164.1, 51777.133, 0.00000000018849695, 10.0003, 9.9997425 
1.2150167e+3, 2.6531044e+2, -360584.9, -526409.9, -13063.162, 0.053939115, 0.03331662, -359562.13, -19609.225, 0.00000061447383, 10.000615, 9.998421 
1.2150121e+3, 2.753065e+2, -217858.77, -400472.2, -26016.99, 0.109399006, -0.2290429, -214224.44, 27764.715, 0.000008322687, 10.000887, 9.998482 
1.2150082e+3, 2.8530508e+2, -31378.336, -271192.97, 77517.03, 0.08169846, -0.20868029, -8503.81, 135498.08, 0.000050693892, 10.001558, 9.998372 
1.21500485e+3, 2.9530585e+2, 232404.73, -88318.25, 125535.61, -0.022219831, -0.0014485541, 275697.34, 321691.94, 0.00018223259, 10.002666, 9.998419 
1.215001e+3, 3.0530447e+2, 229188.42, -238271.98, 27938.682, -0.07965389, 0.106467694, 230852.31, 230852.31, 0.00045375043, 10.003075, 9.996858 
1.2149991e+3, 3.1529805e+2, 259397.69, -57349.715, 11732.021, 0.1961939, -0.25466466, 259831.64, 259831.64, 0.0008639957, 10.002546, 9.998339 
1.2250716e+3, 1.2531231e+2, -2171349.3, -1805901.6, -19426.2, -0.050280325, -0.28289515, -1804871.9, -92943.375, 0.0029179724, 9.996263, 10.001164 
1.2250687e+3, 1.3531554e+2, -2014720.6, -1803705.1, -45484.785, 0.14714459, 0.013010625, -1794318.4, -180415.78, 0.0015834377, 9.997214, 10.000063 
1.2250632e+3, 1.4531551e+2, -1818757.5, -1589083.9, -23845.512, -0.017472008, -0.023479497, -1586634.3, -70728.695, 0.00056846405, 9.997597, 10.000655 
1.22506104e+3, 1.5531579e+2, -1698837.6, -1474933.9, -74391.414, 0.2128041, -0.09208977, -1452471.1, -34568.254, 0.00008951281, 9.997738, 10.000691 
1.22505665e+3, 1.6531627e+2, -1568636.8, -1444611.0, -42595.18, 0.19223222, -0.07108064, -1431391.3, -111493.77, 0.0000012652538, 9.998287, 9.999983 
1.2250507e+3, 1.753166e+2, -1338383.5, -1272049.5, -65345.15, -0.035273768, -0.06477018, -1231935.9, -10042.853, 0.0, 9.999159, 10.000068 
1.22504696e+3, 1.8531665e+2, -1280425.3, -1279129.6, -13491.083, -0.086168624, -0.02312052, -1266270.8, -142376.73, 0.0, 9.999262, 9.999291 
1.2250453e+3, 1.9531627e+2, -1248441.9, -1200422.9, -867.3016, 0.017719828, -0.017715145, -1200407.3, -174505.8, 0.0, 9.998758, 9.999398 
1.225042e+3, 2.0531666e+2, -1056697.6, -947879.06, -58800.574, 0.0808273, 0.036030896, -922176.7, 5721.276, 0.0, 9.998915, 10.000388 
1.22503735e+3, 2.1531756e+2, -856125.7, -794159.5, -70473.44, 0.11204661, 0.059318267, -748159.1, 81727.625, 0.0, 9.999601, 10.000436 
1.22503296e+3, 2.2531705e+2, -803893.0, -886304.44, 5348.2827, 0.10241326, 0.0439819, -803547.4, -71655.45, 0.0, 10.0000105, 9.998938 
1.2250288e+3, 2.3531502e+2, -675426.94, -761409.2, 31703.6, 0.04939065, -0.07767269, -665001.25, -31087.5, 0.0, 10.000164, 9.999048 
1.22502506e+3, 2.45315e+2, -488516.6, -520126.97, 49891.37, 0.03905278, -0.027831398, -451986.78, 83926.69, 0.0, 10.00034, 9.999948 
1.22502185e+3, 2.553166e+2, -357510.97, -403393.34, 10972.512, 0.07189813, 0.108765796, -355021.97, 82873.42, 0.0, 10.000565, 9.999964 
1.225018e+3, 2.6531523e+2, -315155.8, -516770.0, -30638.81, 0.09720333, 0.06814865, -310602.53, 29303.563, 0.0000003685213, 10.000981, 9.998311 
1.2250132e+3, 2.7531105e+2, -139411.58, -373810.22, -21585.182, 0.11251796, -0.20353739, -137440.44, 104504.414, 0.0000073761885, 10.001487, 9.998372 
1.2250098e+3, 2.8530964e+2, 19855.654, -220475.28, 103080.04, 0.08481107, -0.19413929, 58010.227, 201967.61, 0.00004908337, 10.001775, 9.998618 
1.22500755e+3, 2.9531053e+2, 115414.586, -122427.69, 75799.02, 0.022823656, 0.0025740252, 137517.31, 183464.98, 0.00018069774, 10.001754, 9.998631 
1.22500405e+3, 3.0530947e+2, 119714.95, -257114.83, -3519.5667, -0.018665941, 0.11480349, 119747.82, 119747.82, 0.00045143487, 10.002173, 9.997159 
1.2250024e+3, 3.153031e+2, 274843.22, -78448.37, 9793.527, 0.2696475, -0.2677661, 275114.5, 275114.5, 0.0008578977, 10.002719, 9.998133 
1.23506874e+3, 1.2531768e+2, -2109605.5, -1685139.4, 74391.04, -0.017912474, 0.004282197, -1672479.4, 39403.35, 0.0031899144, 9.996298, 10.00197 
1.23506665e+3, 1.3531698e+2, -1969598.5, -1724146.9, -13855.003, 0.18727496, -0.15154982, -1723367.4, -109480.234, 0.0017411282, 9.997258, 10.00059 
1.2350619e+3, 1.4531781e+2, -1840729.4, -1644633.9, -31692.85, 0.052606445, -0.108329214, -1639639.0, -123758.32, 0.0006337289, 9.997632, 10.000261 
1.23505786e+3, 1.5532058e+2, -1717887.6, -1529270.0, -60709.89, 0.09363582, 0.113799214, -1511418.9, -93560.59, 0.00010392506, 9.997784, 10.000307 
1.2350543e+3, 1.6532065e+2, -1589918.6, -1492076.0, -24426.988, 0.11111658, 0.12765573, -1486316.6, -166458.14, 0.0000017603737, 9.998303, 9.999645 
1.2350515e+3, 1.7531818e+2, -1360645.9, -1321382.6, -26228.607, 0.11110938, -0.11290684, -1308252.4, -86372.59, 0.0, 9.999166, 9.999728 
1.2350476e+3, 1.8531826e+2, -1234266.5, -1177246.4, -44005.902, 0.0338131, -0.08653411, -1153322.3, -29442.7, 0.0, 9.999238, 10.000002 
1.23504296e+3, 1.9532043e+2, -1208714.9, -1104785.1, -8520.0, -0.10471809, 0.10499304, -1104091.4, -78229.27, 0.0, 9.998698, 10.000086 
1.2350397e+3, 2.0532075e+2, -1077227.5, -965624.44, -47682.113, -0.058047812, 0.117895395, -948027.1, -20168.234, 0.0, 9.99881, 10.000316 
1.23503745e+3, 2.1531923e+2, -877663.4, -811847.3, -36540.86, 0.14825442, -0.09346567, -795580.44, 34289.32, 0.0, 9.999479, 10.000376 
1.2350334e+3, 2.2531903e+2, -752815.75, -750042.7, 552.33545, 0.13724183, -0.1230038, -749936.75, -18067.299, 0.0, 9.999877, 9.999939 
1.235028e+3, 2.3531976e+2, -630055.25, -637545.8, 48610.17, -0.06523436, -0.0701293, -585046.3, 48815.445, 0.0, 10.000034, 9.999964 
1.235024e+3, 2.4531975e+2, -558261.1, -634087.9, 47076.723, -0.11144632, -0.023284376, -535729.1, 132.4322, 0.0, 10.00021, 9.999227 
1.2350219e+3, 2.5531894e+2, -415994.13, -507056.25, 30363.676, -0.008906734, -0.05343622, -406798.3, 31071.309, 0.0, 10.000478, 9.999298 
1.2350187e+3, 2.6531833e+2, -306728.7, -463186.13, -19684.96, 0.061354, -0.015685417, -304290.0, 35585.043, 0.00000016286783, 10.000834, 9.998746 
1.2350148e+3, 2.7531764e+2, -127666.664, -323802.78, 10994.27, 0.092810534, 0.015410456, -127052.31, 114827.945, 0.000006622681, 10.001381, 9.998764 
1.2350118e+3, 2.8531554e+2, -28107.52, -292279.63, 94526.76, 0.09567457, -0.03385926, 2231.896, 146130.67, 0.00004875032, 10.001658, 9.998181 
1.23501025e+3, 2.9531205e+2, 77451.02, -185520.08, 91897.805, 0.092950314, -0.23322101, 106382.6, 152313.94, 0.00018165374, 10.001681, 9.998236 
1.23500705e+3, 3.0531174e+2, 184375.9, -99714.086, 15186.838, 0.03899802, -0.08423622, 185185.45, 185185.45, 0.00045300575, 10.002072, 9.998292 
1.2350051e+3, 3.1531072e+2, 290157.13, -6584.3257, 66572.875, 0.21190012, -0.046148147, 304408.1, 304408.1, 0.0008590856, 10.002552, 9.998703 
1.24506705e+3, 1.2532026e+2, -1966434.4, -1555363.4, 49218.164, 0.15060185, 0.14890148, -1549552.5, 162311.14, 0.003475539, 9.99705, 10.002489 
1.245063e+3, 1.35319e+2, -1978560.3, -1642348.9, -95699.89, 0.1268431, -0.1388992, -1617017.3, -3147.8704, 0.0019075654, 9.996839, 10.001358 
1.2450598e+3, 1.4532022e+2, -1897257.1, -1698806.4, -62271.65, 0.101833485, -0.080111325, -1680884.6, -165027.63, 0.0007030745, 9.997371, 10.000012 
1.24505624e+3, 1.5532236e+2, -1622531.3, -1512317.8, -106625.52, 0.12757635, 0.10424282, -1447400.5, -29559.193, 0.00011956255, 9.998572, 10.000039 
1.2450531e+3, 1.6532242e+2, -1465546.8, -1398757.5, -32253.129, 0.13367797, 0.116209924, -1385725.1, -65883.28, 0.0000023468863, 9.99903, 9.9999275 
1.2450508e+3, 1.753206e+2, -1376151.8, -1293803.0, -12092.553, 0.13995524, -0.08408124, -1292064.0, -70207.164, 0.0, 9.998931, 10.000017 
1.245047e+3, 1.8532093e+2, -1274903.1, -1167613.5, -31807.516, 0.06891838, -0.064093105, -1158892.6, -35038.848, 0.0, 9.998819, 10.000271 
1.245042e+3, 1.9532284e+2, -1196967.6, -1072357.1, -43090.14, -0.06736527, 0.07310699, -1058908.1, -33070.516, 0.0, 9.998649, 10.000336 
1.2450386e+3, 2.0532325e+2, -1083268.6, -964297.5, -38560.22, -0.03591344, 0.081716366, -952892.9, -25059.197, 0.0, 9.998754, 10.000349 
1.24503665e+3, 2.1532212e+2, -932761.44, -831314.7, -44006.09, 0.14872575, -0.093999416, -814886.0, 14955.934, 0.0, 9.999074, 10.000434 
1.2450331e+3, 2.2532229e+2, -813196.7, -758735.25, -26624.63, 0.14419802, -0.10029299, -747882.06, -16044.153, 0.0, 9.999378, 10.000117 
1.2450281e+3, 2.3532332e+2, -673316.25, -637720.3, -61110.387, -0.02702334, -0.036734823, -591868.9, 41956.992, 0.0, 9.999652, 10.000143 
1.2450245e+3, 2.4532296e+2, -608338.1, -690364.0, -45638.14, -0.07370382, -0.021718992, -587992.3, -52163.43, 0.0, 9.999994, 9.998947 
1.2450222e+3, 2.5532123e+2, -451574.3, -552846.25, -50839.91, -0.008054893, -0.11545956, -430455.84, 7390.5815, 0.0, 10.000359, 9.999039 
1.2450194e+3, 2.6532066e+2, -297367.47, -439817.9, -71309.445, 0.055395186, -0.06983515, -267805.44, 72045.98, 0.000000050542315, 10.000801, 9.998926 
1.2450162e+3, 2.7532083e+2, -130399.94, -308845.88, -81723.734, 0.1132773, 0.032537382, -98629.08, 143218.4, 0.0000061370592, 10.001272, 9.998929 
1.2450139e+3, 2.853189e+2, -34216.88, -280364.8, 22841.176, 0.1446514, -0.01795846, -32115.29, 111749.08, 0.000049451537, 10.001566, 9.998307 
1.2450126e+3, 2.9531476e+2, 87210.234, -162096.9, 35446.37, 0.1652922, -0.29206708, 92152.02, 138054.73, 0.00018703903, 10.001683, 9.998391 
1.2450097e+3, 3.0531433e+2, 283103.5, 1505.4222, 11103.592, 0.08064588, -0.18945019, 283540.63, 283540.63, 0.00046630288, 10.0025, 9.998795 
1.245008e+3, 3.1531447e+2, 490233.38, 103675.29, -18086.4, 0.19809443, -0.08013679, 491077.78, 491077.78, 0.0008809238, 10.003866, 9.998838 
1.2550662e+3, 1.2532009e+2, -1945626.1, -1537473.0, -36866.566, 0.32613406, 0.1469903, -1534169.8, 177701.08, 0.0037739007, 9.997131, 10.002587 
1.2550578e+3, 1.3532166e+2, -1901121.8, -1496726.1, -92681.17, -0.10213886, 0.043761335, -1476497.0, 137351.63, 0.0020822603, 9.996889, 10.002341 
1.2550572e+3, 1.4532287e+2, -1898276.0, -1710405.9, -28783.736, 0.06165103, 0.056802668, -1706094.9, -190261.16, 0.0007764397, 9.997407, 9.999916 
1.255056e+3, 1.5532124e+2, -1625876.3, -1526204.1, -53818.96, 0.21854502, -0.1231662, -1502690.9, -84840.52, 0.00013646827, 9.998597, 9.999933 
1.2550528e+3, 1.6532162e+2, -1409523.5, -1286202.8, -49938.46, 0.17186102, -0.111959696, -1268516.8, 51330.086, 0.0000030208696, 9.999042, 10.000695 
1.2550484e+3, 1.7532389e+2, -1321763.5, -1183195.3, -8464.148, -0.017460696, 0.01469316, -1182680.1, 39144.355, 0.0, 9.998935, 10.000775 
1.2550448e+3, 1.8532458e+2, -1279373.8, -1174010.5, -50833.387, -0.052456588, 0.037367623, -1153484.3, -29666.72, 0.0, 9.998805, 10.000234 
1.2550418e+3, 1.9532356e+2, -1204696.3, -1079614.9, -39948.234, 0.037200037, -0.11571672, -1067945.0, -42117.72, 0.0, 9.998606, 10.000305 
1.2550384e+3, 2.0532426e+2, -1093188.5, -957413.3, -38312.902, 0.061289977, -0.08091542, -947348.3, -19526.865, 0.0, 9.998639, 10.000454 
1.2550347e+3, 2.1532628e+2, -947650.9, -832635.4, -22538.01, 0.029268684, 0.04908105, -828376.6, 1426.7992, 0.0, 9.998946, 10.00049 
1.2550315e+3, 2.2532673e+2, -878452.8, -858330.44, -28554.264, 0.03194292, 0.10064799, -838116.6, -106318.21, 0.0, 9.999226, 9.999506 
1.255029e+3, 2.3532563e+2, -730294.3, -730811.6, -41015.426, 0.077230975, 0.012863001, -689536.75, -55730.11, 0.0, 9.999537, 9.999561 
1.255026e+3, 2.453246e+2, -616410.1, -673799.06, -41920.2, 0.06472394, -0.021468334, -594304.25, -58489.234, 0.0, 9.999854, 9.999126 
1.2550227e+3, 2.5532338e+2, -461260.56, -545560.2, -25843.285, -0.005346489, -0.08281432, -453968.66, -16142.648, 0.0, 10.0002365, 9.999147 
1.2550198e+3, 2.6532212e+2, -324321.97, -463377.63, -62968.668, -0.0023688595, -0.1039731, -300045.88, 39790.39, 0.00000007625481, 10.000664, 9.99883 
1.2550172e+3, 2.7532068e+2, -149470.55, -323508.72, -50389.42, 0.07560417, -0.1548782, -135934.1, 105912.79, 0.0000061507535, 10.0011635, 9.998881 
1.2550154e+3, 2.8531972e+2, -921.63574, -194189.13, 18157.094, 0.12622261, -0.1421054, 769.3911, 144623.2, 0.000051588533, 10.001486, 9.998939 
1.2550144e+3, 2.953187e+2, 118325.05, -83204.086, 56544.17, 0.15291868, -0.16660692, 133105.89, 178966.81, 0.00019968531, 10.001614, 9.998968 
1.2550117e+3, 3.053171e+2, 255425.34, -34343.29, 55730.133, 0.016374815, -0.19911818, 265774.13, 265774.13, 0.00050037476, 10.002412, 9.998585 
1.2550107e+3, 3.1531432e+2, 426851.5, 19972.219, 71298.79, 0.026330812, -0.36814132, 438983.66, 438983.66, 0.00094181777, 10.003665, 9.998358 
1.2650636e+3, 1.2532006e+2, -2119686.8, -1698457.1, 30560.143, 0.39184642, 0.033850428, -1696251.6, 15618.334, 0.004085261, 9.996304, 10.001867 
1.2650551e+3, 1.3532358e+2, -1776340.9, -1446395.8, -67884.086, -0.0968152, 0.14898522, -1432975.0, 180858.53, 0.0022650692, 9.997824, 10.002216 
1.2650557e+3, 1.4532499e+2, -1737175.0, -1560705.8, -9197.802, 0.14850374, 0.15117517, -1560227.6, -44411.188, 0.00085386867, 9.998203, 10.00056 
1.2650539e+3, 1.553224e+2, -1735874.1, -1510703.3, -5338.394, 0.20807965, -0.18435974, -1510576.8, -92739.15, 0.00015477135, 9.997556, 10.000541 
1.2650505e+3, 1.653229e+2, -1642267.0, -1407468.9, 15678.33, 0.12114359, -0.1864379, -1406426.6, -86594.125, 0.0000038088367, 9.99748, 10.000613 
1.2650463e+3, 1.7532614e+2, -1448639.9, -1254077.3, -27185.43, -0.06958047, 0.04654677, -1250350.1, -28545.838, 0.0, 9.998098, 10.000697 
1.2650432e+3, 1.853272e+2, -1299607.3, -1141111.9, -73275.375, -0.06920219, 0.08938177, -1112426.8, 11367.503, 0.0, 9.998491, 10.000609 
1.2650411e+3, 1.9532607e+2, -1165502.9, -1020616.94, -58758.934, 0.08097418, -0.10991029, -999782.94, 26019.97, 0.0, 9.99872, 10.000651 
1.2650377e+3, 2.0532677e+2, -1057952.6, -967295.6, -25862.469, 0.10925887, -0.08000641, -960436.6, -32639.873, 0.0, 9.998992, 10.000216 
1.2650336e+3, 2.1532886e+2, -925568.25, -848258.06, -56147.81, 0.026856221, 0.07996621, -818745.75, 11033.716, 0.0, 9.999209, 10.000253 
1.265031e+3, 2.2532907e+2, -769344.7, -806469.7, -7725.389, 0.01866165, 0.11940059, -767801.3, -36024.76, 0.0, 9.999964, 9.999514 
1.2650293e+3, 2.3532756e+2, -498216.78, -615868.5, 4783.119, 0.08664515, -0.009609949, -498022.63, 135764.31, 0.0, 10.001118, 9.999591 
1.265027e+3, 2.4532643e+2, -420005.13, -610558.75, -8404.725, 0.09872709, -0.041114233, -419635.13, 116161.17, 0.0, 10.001339, 9.998844 
1.2650238e+3, 2.5532535e+2, -411255.22, -552323.44, -46197.535, 0.059555516, -0.05878684, -397472.8, 40334.71, 0.0, 10.000711, 9.998872 
1.2650211e+3, 2.6532376e+2, -274707.9, -436227.44, -37990.523, 0.055764146, -0.097764246, -266218.47, 73602.19, 0.00000015326442, 10.00099, 9.998862 
1.2650189e+3, 2.7532163e+2, -24303.494, -256162.5, -43912.934, 0.09019484, -0.22312072, -16265.279, 225571.55, 0.0000068361555, 10.001997, 9.9989395 
1.265017e+3, 2.8532088e+2, 58021.332, -170324.52, -19275.547, 0.11078868, -0.18497084, 59637.02, 203478.23, 0.000055437977, 10.001912, 9.998891 
1.2650153e+3, 2.953211e+2, 28545.418, -129512.95, -55317.95, 0.12372985, -0.086797014, 45982.223, 91820.44, 0.00021948728, 10.001014, 9.99893 
1.2650134e+3, 3.0531916e+2, 77342.266, -94508.63, 11598.717, 0.004915002, -0.16094013, 78121.56, 78121.56, 0.0005556111, 10.001085, 9.9988 
1.265014e+3, 3.153164e+2, 165845.33, -81942.62, 22932.502, 0.09674892, -0.34857857, 167949.83, 167949.83, 0.0010464599, 10.001776, 9.998553 
1.2750567e+3, 1.2532057e+2, -2208797.5, -1913232.0, -63558.266, 0.024439251, -0.17605594, -1900144.0, -188287.11, 0.0044096503, 9.996409, 10.00035 
1.2750547e+3, 1.3532501e+2, -1869882.9, -1648998.5, -2057.5667, 0.059498563, 0.18049482, -1648979.4, -35157.586, 0.0024558255, 9.997846, 10.000819 
1.2750551e+3, 1.453266e+2, -1634611.3, -1358679.4, -44287.555, 0.2442407, 0.19618821, -1351745.4, 164059.52, 0.00093550276, 9.998248, 10.001925 
1.2750497e+3, 1.5532587e+2, -1643917.3, -1325881.1, -18727.555, 0.0174075, -0.08815675, -1324782.3, 93020.42, 0.00017466526, 9.997579, 10.001799 
1.275046e+3, 1.6532624e+2, -1697577.5, -1534435.1, 25338.283, -0.100219086, -0.11957435, -1530590.4, -210791.17, 0.0000047674703, 9.997524, 9.999725 
1.2750444e+3, 1.7532746e+2, -1502417.3, -1373090.0, 4754.5557, -0.10524297, 0.0012780365, -1372915.4, -151119.86, 0.0, 9.998124, 9.99987 
1.2750418e+3, 1.8532892e+2, -1254201.9, -1046094.56, -74941.305, -0.074951865, 0.08904404, -1021916.56, 101866.41, 0.0, 9.998486, 10.001266 
1.2750389e+3, 1.9533032e+2, -1126465.1, -934433.94, -39419.266, -0.017779386, 0.07658238, -926657.06, 99107.625, 0.0, 9.998691, 10.00126 
1.275036e+3, 2.0533067e+2, -1112469.5, -1058131.3, -30413.043, 0.023365084, 0.07341943, -1044519.1, -116758.96, 0.0, 9.998897, 9.999638 
1.2750334e+3, 2.153299e+2, -981617.6, -933661.56, -38173.16, 0.055448078, 0.0025862919, -912560.4, -82790.77, 0.0, 9.999073, 9.999733 
1.275031e+3, 2.2532944e+2, -745904.75, -718906.5, 25672.957, 0.019298935, -0.035933916, -703400.0, 28370.93, 0.0, 9.999803, 10.00019 
1.2750289e+3, 2.3532909e+2, -476760.8, -540975.2, 58195.016, -0.07938975, -0.1164756, -442403.5, 191363.6, 0.0, 10.000986, 10.000169 
1.275027e+3, 2.4532835e+2, -498947.6, -738676.06, -41996.754, -0.05258974, -0.09132408, -491803.3, 43970.426, 0.0, 10.001188, 9.998036 
1.275025e+3, 2.5532714e+2, -478165.1, -664123.06, -55037.984, 0.090012506, -0.045300443, -463096.53, -25305.74, 0.0, 10.000594, 9.99816 
1.275023e+3, 2.6532573e+2, -282342.03, -424427.2, -9332.38, 0.12924503, -0.046194408, -281731.7, 58072.246, 0.00000020123079, 10.0008745, 9.998996 
1.2750208e+3, 2.7532375e+2, -38191.25, -255228.63, 5225.807, 0.06632006, -0.1694256, -38065.496, 203751.2, 0.0000077157165, 10.001875, 9.999002 
1.2750182e+3, 2.8532252e+2, -10602.8, -290236.28, -66009.04, 0.011767512, -0.14263767, 4195.834, 148022.67, 0.000060411407, 10.001814, 9.998114 
1.2750152e+3, 2.9532176e+2, -40746.707, -243887.39, -72275.805, -0.021490604, -0.06074485, -17656.203, 28179.596, 0.0002426435, 10.00089, 9.998205 
1.275014e+3, 3.0532044e+2, 100771.31, -23737.896, 31689.914, -0.053046405, -0.06689901, 108372.89, 108372.89, 0.0006215773, 10.000989, 9.9993305 
1.2750174e+3, 3.1532142e+2, 188176.92, 14423.351, 87183.74, 0.22322497, 0.053665657, 224379.7, 224379.7, 0.0011780667, 10.001579, 9.999302 
1.2850536e+3, 1.2532386e+2, -1909102.1, -1762970.0, -42344.168, -0.024989545, -0.16023596, -1751586.8, -39765.703, 0.0047468157, 9.998407, 10.000426 
1.2850535e+3, 1.3532682e+2, -1985037.0, -1726767.5, 131085.39, 0.19656216, 0.06724594, -1671893.6, -58094.258, 0.0026545508, 9.997148, 10.000614 
1.2850524e+3, 1.4532812e+2, -1835270.6, -1463840.0, 100842.86, 0.22250094, 0.06764866, -1438227.5, 77559.625, 0.0010215283, 9.996918, 10.001845 
1.285047e+3, 1.5532945e+2, -1564418.6, -1288918.9, 862.10095, -0.04525746, -0.0037605702, -1288916.1, 128852.56, 0.00019628371, 9.998133, 10.001785 
1.2850441e+3, 1.6533013e+2, -1538805.0, -1453114.4, 54645.125, -0.10200376, -0.006489291, -1426520.5, -106757.35, 0.0000059623408, 9.998599, 9.999767 
1.2850435e+3, 1.7533006e+2, -1460562.4, -1349420.5, 80352.07, -0.005783388, -0.016573295, -1307295.1, -85525.01, 0.0, 9.998407, 9.999894 
1.2850414e+3, 1.8533121e+2, -1254394.8, -1086504.4, 19765.385, 0.024398148, 0.060063098, -1084208.9, 39551.76, 0.0, 9.998666, 10.000897 
1.2850381e+3, 1.9533323e+2, -1051041.3, -937322.75, -41955.742, -0.0012465104, 0.1437577, -923519.0, 102219.49, 0.0, 9.999388, 10.000902 
1.2850355e+3, 2.0533322e+2, -992436.94, -1022883.06, -42370.637, 0.04112874, 0.13537769, -962637.6, -34900.48, 0.0, 9.999815, 9.999437 
1.2850337e+3, 2.1533132e+2, -864043.1, -895568.25, -42607.01, 0.14519545, -0.030129788, -834376.44, -4620.7954, 0.0, 9.999964, 9.999564 
1.2850317e+3, 2.2533064e+2, -737903.94, -714325.25, 33465.43, 0.11108995, -0.08198424, -690633.3, 41125.668, 0.0, 9.999863, 10.000189 
1.2850295e+3, 2.3533088e+2, -689876.56, -641779.94, -7411.4453, -0.04526653, -0.1016984, -640663.8, -6912.9487, 0.0, 9.999526, 10.000175 
1.2850277e+3, 2.4533036e+2, -643136.1, -796582.4, -70374.3, -0.03107582, -0.061526336, -615748.8, -79993.28, 0.0, 10.0001335, 9.998153 
1.2850265e+3, 2.5532904e+2, -336808.38, -584533.2, -40427.86, 0.14020346, -0.03802449, -330377.63, 107395.09, 0.0, 10.001512, 9.998269 
1.2850247e+3, 2.653278e+2, -165262.47, -382107.8, 34752.652, 0.18224707, -0.016252348, -159828.98, 179955.0, 0.00000014147287, 10.001736, 9.998871 
1.2850226e+3, 2.7532637e+2, -169463.23, -333209.16, 5923.63, 0.10559074, -0.07428278, -169249.22, 72543.75, 0.000007879153, 10.001031, 9.998873 
1.28502e+3, 2.8532442e+2, -103491.33, -371184.1, -32059.293, 0.04217617, -0.09472365, -99705.4, 44104.25, 0.00006527563, 10.001328, 9.997798 
1.285017e+3, 2.9532185e+2, 156088.7, -185902.64, -33494.547, 0.0051367003, -0.16777451, 159338.27, 205173.45, 0.00026928063, 10.002391, 9.997886 
1.2850156e+3, 3.0532032e+2, 290552.13, 20523.7, 71586.086, -0.052115194, -0.15475251, 308356.13, 308356.13, 0.0006972263, 10.002487, 9.998926 
1.2850186e+3, 3.1532344e+2, 213625.77, 15178.943, 19311.533, 0.19291125, 0.2279914, 215487.56, 215487.56, 0.0013269355, 10.00176, 9.999241 
1.2950519e+3, 1.2533002e+2, -1787438.6, -1508970.4, -79250.23, -0.079126194, 0.07092804, -1487996.1, 223765.31, 0.0050962004, 9.998411, 10.002171 
1.2950514e+3, 1.353291e+2, -1926734.0, -1598660.3, 86367.805, 0.25158, -0.19285972, -1577312.4, 36453.063, 0.0028611089, 9.997127, 10.001503 
1.2950474e+3, 1.4532961e+2, -1938708.4, -1681287.6, 128616.89, -0.012079953, -0.22909251, -1628040.1, -112277.68, 0.00111182, 9.99693, 10.000345 
1.295045e+3, 1.5533333e+2, -1656941.8, -1484285.1, 55896.383, -0.068252735, 0.07704217, -1467769.0, -50034.973, 0.000219555, 9.998146, 10.000439 
1.2950441e+3, 1.6533467e+2, -1469806.6, -1315209.4, 32804.926, 0.018915914, 0.15780964, -1308536.4, 11186.891, 0.0000074533, 9.998616, 10.000707 
1.2950437e+3, 1.7533389e+2, -1399085.1, -1227190.3, 80831.95, 0.1509957, -0.01731697, -1195151.4, 26576.896, 0.0, 9.998425, 10.000725 
1.2950414e+3, 1.8533407e+2, -1351665.4, -1289973.1, 35510.727, 0.14203867, -0.004785521, -1273782.1, -150054.81, 0.0, 9.998669, 9.999503 
1.295038e+3, 1.953348e+2, -1148540.0, -1133644.6, -6140.418, 0.04547948, 0.09057613, -1131439.6, -105715.99, 0.0, 9.999354, 9.999575 
1.295036e+3, 2.0533444e+2, -994261.06, -1002584.5, -46966.08, 0.07483339, 0.09991826, -951272.7, -23545.361, 0.0, 9.999716, 9.999622 
1.2950346e+3, 2.1533303e+2, -875845.75, -885831.0, -29103.443, 0.20971413, -0.034264095, -851309.8, -21571.277, 0.0, 9.999818, 9.9997 
1.2950327e+3, 2.253326e+2, -810220.25, -829399.2, 10034.014, 0.2087271, -0.030523997, -805930.25, -74188.75, 0.0, 9.999709, 9.999474 
1.2950306e+3, 2.353329e+2, -753068.4, -743252.0, -4707.544, 0.09117081, 0.025556667, -741359.4, -107620.58, 0.0, 9.9993925, 9.999545 
1.295029e+3, 2.4533243e+2, -597051.56, -659665.1, -28945.367, 0.064623855, 0.04674228, -585720.94, -49978.69, 0.0, 9.999966, 9.999168 
1.295028e+3, 2.5533104e+2, -292516.88, -456192.3, 20477.582, 0.122288816, -0.03722886, -289993.8, 147759.52, 0.0, 10.001367, 9.999216 
1.2950264e+3, 2.6533014e+2, -207114.55, -452601.0, -1604.9178, 0.13669775, -0.004771505, -207104.06, 132656.63, 0.000000052302592, 10.001652, 9.998434 
1.2950239e+3, 2.753296e+2, -212090.98, -396167.44, -4472.7563, 0.10993006, 0.06777371, -211982.38, 29782.822, 0.000007172051, 10.000916, 9.9985 
1.295022e+3, 2.8532675e+2, -115093.21, -364342.16, -697.5289, 0.09436722, -0.03261953, -115091.266, 28697.842, 0.00006969282, 10.001194, 9.997908 
1.2950204e+3, 2.9532143e+2, 138699.4, -191674.38, 20465.574, 0.091379285, -0.38838923, 139962.36, 185796.7, 0.00030090305, 10.002265, 9.997902 
1.295018e+3, 3.0531892e+2, 173721.0, -198260.05, 33832.79, -0.0853241, -0.3983344, 176773.16, 176773.16, 0.0007862506, 10.002392, 9.997468 
1.2950176e+3, 3.1532288e+2, 117396.56, -121762.79, 34106.957, -0.14835861, 0.20391114, 122165.52, 122165.52, 0.0014963577, 10.001511, 9.998414 
1.3050507e+3, 1.253333e+2, -1959109.1, -1611298.1, -7300.2646, 0.017038034, 0.056471493, -1611144.9, 100581.336, 0.0054552136, 9.9973345, 10.001982 
1.305049e+3, 1.3533162e+2, -1948437.6, -1669702.3, -108329.664, 0.31378257, -0.22747162, -1632551.8, -18812.67, 0.003073975, 9.997236, 10.000969 
1.3050434e+3, 1.4533204e+2, -1939414.5, -1707930.8, 26776.436, -0.08783762, -0.23451692, -1704873.9, -189135.02, 0.0012055306, 9.997023, 10.000118 
1.3050434e+3, 1.553356e+2, -1737968.4, -1541887.5, 28859.889, -0.024560438, 0.073951125, -1537728.0, -120014.016, 0.000244213, 9.997664, 10.000274 
1.3050434e+3, 1.6533713e+2, -1468332.9, -1261043.5, 30960.518, 0.10739558, 0.15634473, -1256518.1, 63182.56, 0.000009295233, 9.998408, 10.001174 
1.3050427e+3, 1.7533682e+2, -1244702.0, -1103630.1, 20961.248, 0.1723206, -0.018839909, -1100581.5, 121116.42, 0.0, 9.999281, 10.001158 
1.3050407e+3, 1.8533674e+2, -1209349.3, -1264410.3, 25365.2, 0.14960325, -0.031734023, -1199445.5, -75746.98, 0.0, 9.999823, 9.9991255 
1.3050382e+3, 1.9533668e+2, -1067457.4, -1133389.1, 36665.277, 0.08280217, 0.020993182, -1051117.1, -25413.139, 0.0, 10.000075, 9.999228 
1.305036e+3, 2.0533632e+2, -930119.8, -973963.75, 27299.521, 0.10411008, 0.0462235, -917029.8, 10678.664, 0.0, 10.000171, 9.999601 
1.3050343e+3, 2.1533558e+2, -832140.56, -867245.6, 12623.823, 0.19308822, -0.017414533, -828072.5, 1640.5427, 0.0, 10.000139, 9.999674 
1.3050327e+3, 2.2533521e+2, -747594.9, -849814.1, 77049.25, 0.20754848, 0.01672401, -706244.9, 25471.992, 0.0, 10.000354, 9.999019 
1.3050312e+3, 2.3533499e+2, -585234.56, -707397.7, 58653.05, 0.16223414, 0.063860536, -561633.5, 72088.29, 0.0, 10.000742, 9.999133 
1.3050301e+3, 2.4533437e+2, -436106.88, -531559.5, 63444.023, 0.14666869, 0.06567603, -404442.1, 131283.84, 0.0, 10.000852, 9.9996195 
1.3050294e+3, 2.5533316e+2, -350011.7, -437452.0, 50259.08, 0.16139041, -0.04671188, -327117.8, 110613.77, 0.0, 10.000758, 9.9996395 
1.3050278e+3, 2.653321e+2, -332096.06, -552523.1, 3412.3635, 0.14409596, -0.0314358, -332043.25, 7696.9243, 0.000000026393016, 10.000972, 9.998076 
1.3050249e+3, 2.75331e+2, -154427.75, -409627.88, -20816.607, 0.093899034, 0.025580982, -152740.9, 89012.01, 0.0000066700077, 10.001484, 9.99814 
1.3050236e+3, 2.8532857e+2, 5940.2744, -271120.44, 46248.906, 0.10695317, -0.033957846, 13456.558, 157229.73, 0.00007506801, 10.0018835, 9.99821 
1.3050236e+3, 2.9532462e+2, 157761.83, -154518.08, 51219.56, 0.18214743, -0.28102487, 165948.16, 211750.88, 0.00033560226, 10.0022745, 9.998152 
1.305021e+3, 3.0532125e+2, 115346.37, -309193.2, 82163.86, -0.021879243, -0.3478323, 130693.28, 130693.28, 0.0008828964, 10.002339, 9.996733 
1.3050184e+3, 3.15322e+2, 175117.06, -130879.734, 101774.96, -0.22373697, 0.010281046, 205875.7, 205875.7, 0.0016816291, 10.002044, 9.998107 
1.3150488e+3, 1.2533341e+2, -2108620.8, -1919721.9, 134180.23, 0.054652564, -0.23795053, -1850082.8, -138364.28, 0.005819013, 9.997343, 9.999849 
1.3150463e+3, 1.3533434e+2, -2083842.8, -1954398.3, -117109.695, 0.28040376, -0.05471139, -1885316.0, -271595.38, 0.0032902497, 9.99725, 9.99901 
1.3150406e+3, 1.4533544e+2, -1859846.9, -1546480.1, 27834.076, -0.10703095, 0.043117143, -1544027.0, -28311.22, 0.0013013786, 9.997042, 10.001218 
1.3150416e+3, 1.5533644e+2, -1666944.3, -1392945.4, 61176.78, 0.012176917, -0.010784747, -1379906.8, 37800.723, 0.00026992275, 9.997657, 10.001302 
1.315042e+3, 1.6533764e+2, -1468593.5, -1267557.5, 51610.12, 0.07745675, -0.008243978, -1255082.3, 64612.15, 0.00001153221, 9.998424, 10.001126 
1.3150403e+3, 1.753389e+2, -1242411.9, -1103594.8, 60605.81, -0.013537943, -0.02366584, -1080858.9, 140819.42, 0.0, 9.999293, 10.001154 
1.315039e+3, 1.8533933e+2, -1170122.6, -1177761.6, 22424.455, -0.03735991, -0.018701209, -1151194.8, -27521.428, 0.0, 9.999799, 9.999733 
1.3150379e+3, 1.9533883e+2, -1034217.2, -1052365.5, 52591.816, 0.031101556, -0.06936527, -989922.44, 35757.32, 0.0, 10.00002, 9.999812 
1.3150358e+3, 2.053388e+2, -957436.0, -1006562.4, 14459.015, 0.04790812, -0.029833442, -953496.3, -25815.588, 0.0, 10.000071, 9.999424 
1.3150328e+3, 2.15339e+2, -862950.56, -904907.1, 21424.451, 0.014720958, 0.020280713, -853943.94, -24265.46, 0.0, 10.000021, 9.999475 
1.3150313e+3, 2.2533849e+2, -782403.44, -886715.5, 82130.77, 0.022470942, 0.058020413, -737267.56, -5582.9497, 0.0, 10.000207, 9.998837 
1.3150313e+3, 2.3533715e+2, -620930.5, -747347.5, 84960.96, 0.08001703, 0.014184082, -578244.4, 55455.367, 0.0, 10.000598, 9.99893 
1.315031e+3, 2.4533619e+2, -464017.97, -554587.0, 49078.313, 0.1267933, -0.0018675664, -442523.97, 93182.52, 0.0, 10.000699, 9.999537 
1.3150305e+3, 2.553355e+2, -377460.8, -459782.75, 58739.652, 0.16803195, -0.053673096, -346896.13, 90810.125, 0.0, 10.0006075, 9.999561 
1.3150284e+3, 2.6533374e+2, -375603.9, -612327.4, 12064.992, 0.11114777, -0.08871199, -374990.6, -35268.387, 0.000000066602475, 10.00084, 9.997728 
1.3150252e+3, 2.753307e+2, -198307.38, -465739.97, 13423.339, -0.036932953, -0.19344619, -197635.3, 44120.168, 0.0000067822207, 10.001348, 9.997814 
1.3150246e+3, 2.8533e+2, 27797.797, -215524.69, 52391.934, -0.0067466376, -0.080784656, 38599.277, 182359.53, 0.000081610815, 10.001821, 9.998634 
1.3150261e+3, 2.9533124e+2, 170891.8, -102558.56, 83285.984, 0.18591782, 0.14441815, 194261.38, 240002.38, 0.0003693925, 10.002156, 9.998576 
1.315024e+3, 3.0532724e+2, 90289.76, -327851.88, 65460.887, 0.030190349, -0.006668574, 100298.23, 100298.23, 0.00097559066, 10.002208, 9.996657 
1.3150208e+3, 3.1532082e+2, 154285.2, -104829.33, 137665.17, -0.24266167, -0.36052594, 213769.7, 213769.7, 0.0018605303, 10.001772, 9.998404 
1.3250467e+3, 1.2533449e+2, -2093013.1, -1931896.5, 109086.88, 0.1199609, -0.24203175, -1876846.6, -165136.88, 0.006183249, 9.997487, 9.99971 
1.3250427e+3, 1.3533664e+2, -1992281.5, -1874859.1, -107168.055, 0.19175582, 0.0380808, -1811373.8, -197671.72, 0.0035072896, 9.997732, 9.99931 
1.3250388e+3, 1.4533831e+2, -1761513.4, -1467034.9, 128010.54, -0.014175802, 0.1611333, -1419168.8, 96521.89, 0.0013982238, 9.997578, 10.001508 
1.3250393e+3, 1.5533845e+2, -1667455.3, -1367396.4, 86942.57, 0.030468384, -0.0041684895, -1344025.0, 73661.836, 0.00029637254, 9.997539, 10.001538 
1.3250397e+3, 1.6533932e+2, -1619283.0, -1382383.8, 65475.12, 0.0724727, -0.025746694, -1365491.9, -45814.652, 0.000014169166, 9.997581, 10.000737 
1.3250391e+3, 1.7534076e+2, -1499392.9, -1271423.5, 23120.47, 0.014509427, 0.015729273, -1269102.3, -47438.85, 0.0, 9.997721, 10.00076 
1.3250381e+3, 1.853414e+2, -1382179.8, -1225747.0, -15871.646, -0.010516354, 0.03873986, -1224152.9, -100495.94, 0.0, 9.998117, 10.000209 
1.3250372e+3, 1.9534121e+2, -1182069.8, -1071541.0, -16891.639, 0.016534735, -0.02929089, -1069017.1, -43358.535, 0.0, 9.998794, 10.000266 
1.3250352e+3, 2.053413e+2, -1019818.94, -1031442.2, -33204.37, 0.019775322, -0.00323398, -991921.44, -64263.918, 0.0, 9.999613, 9.9994755 
1.3250329e+3, 2.1534146e+2, -785877.25, -861880.3, -27661.174, -0.0049006515, 0.03773971, -776876.06, 52779.516, 0.0, 10.000521, 9.999529 
1.3250317e+3, 2.2534087e+2, -670353.9, -833233.8, 60421.73, 0.0032765376, 0.06600714, -650387.44, 81274.38, 0.0, 10.00099, 9.998824 
1.3250318e+3, 2.3533945e+2, -546870.6, -709207.8, 54508.3, 0.051531218, 0.013465135, -530266.56, 103410.23, 0.0, 10.001108, 9.998942 
1.3250317e+3, 2.4533841e+2, -427480.8, -570636.1, 27819.69, 0.11825468, 0.0054562697, -422264.63, 113420.13, 0.0, 10.001093, 9.999241 
1.3250314e+3, 2.5533763e+2, -349243.0, -474369.9, 128.12868, 0.19773611, -0.028311078, -349242.88, 88444.79, 0.0, 10.000931, 9.999303 
1.32503e+3, 2.6533568e+2, -248013.66, -536563.1, 27331.623, 0.14125325, -0.07179397, -245447.61, 94257.52, 0.0000000978673, 10.001661, 9.997848 
1.3250275e+3, 2.7533248e+2, 79984.44, -321457.94, 36741.1, -0.041617937, -0.2050077, 83319.38, 325057.88, 0.000006920427, 10.003206, 9.997913 
1.325027e+3, 2.8533173e+2, 229278.23, -163439.05, 35822.223, -0.018652823, -0.08381649, 232519.06, 376264.25, 0.000086783395, 10.003418, 9.998215 
1.3250284e+3, 2.9533303e+2, 208263.36, -124732.75, -30164.957, 0.18468714, 0.19146317, 210973.83, 256702.75, 0.00039491727, 10.002598, 9.998202 
1.3250266e+3, 3.0532947e+2, 76461.11, -287022.53, -37935.594, 0.0896702, 0.08061787, 80378.11, 80378.11, 0.0010484561, 10.0019045, 9.997088 
1.3250233e+3, 3.153227e+2, 106876.914, -68416.875, 33611.617, -0.12063317, -0.35274103, 113100.78, 113100.78, 0.0020034304, 10.00117, 9.998947 
1.3350438e+3, 1.253361e+2, -1955155.1, -1640308.9, 94949.06, 0.033025566, 0.000622325, -1613891.4, 97812.0, 0.0065457188, 9.997466, 10.001725 
1.3350384e+3, 1.3533857e+2, -1813877.8, -1505128.8, -103247.92, -0.041386884, 0.0563374, -1473784.1, 139898.97, 0.0037237175, 9.99773, 10.001852 
1.3350376e+3, 1.4534055e+2, -1783977.3, -1521244.0, 108357.49, 0.1004497, 0.10035434, -1482321.0, 33343.703, 0.0014951822, 9.997603, 10.001129 
1.3350363e+3, 1.5534171e+2, -1697549.0, -1436792.1, 95531.664, -0.051028285, 0.08527337, -1405538.8, 12113.093, 0.00032323142, 9.997559, 10.001058 
1.3350368e+3, 1.6534232e+2, -1678523.1, -1504269.9, 58634.55, -0.0037540318, 0.104902446, -1486377.1, -166728.89, 0.000017128494, 9.997576, 9.999903 
1.3350385e+3, 1.7534244e+2, -1553012.8, -1384659.6, 38625.44, 0.1766198, 0.096037544, -1376220.8, -154568.03, 0.00000000003443261, 9.997727, 9.999979 
1.335038e+3, 1.8534303e+2, -1359424.3, -1181559.3, -1941.9523, 0.1430939, 0.13452017, -1181538.1, -57889.09, 0.0, 9.998125, 10.000513 
1.3350356e+3, 1.9534382e+2, -1164768.0, -1031559.8, 16945.916, -0.0439088, 0.13389425, -1029437.9, -3797.5425, 0.0, 9.998766, 10.000558 
1.3350344e+3, 2.0534381e+2, -1013576.2, -995699.94, -10180.187, -0.06631073, 0.1210298, -991090.9, -63452.355, 0.0, 9.999515, 9.999768 
1.335034e+3, 2.1534292e+2, -786324.1, -834341.9, 15113.833, 0.050675537, 0.02812626, -781963.06, 47681.38, 0.0, 10.00039, 9.999786 
1.3350335e+3, 2.2534229e+2, -680073.7, -818652.44, 56697.965, 0.059227157, 0.03271892, -659832.75, 71816.32, 0.0, 10.000838, 9.998995 
1.3350324e+3, 2.3534183e+2, -555134.9, -697546.2, 70780.836, -0.015084773, 0.057524774, -525940.5, 107712.555, 0.0, 10.00098, 9.999084 
1.3350321e+3, 2.4534096e+2, -480351.1, -650433.56, 10881.879, 0.018313315, 0.08229914, -479657.72, 56003.617, 0.0, 10.000965, 9.998753 
1.3350321e+3, 2.553395e+2, -400143.53, -552972.8, 6145.132, 0.15032995, 0.031346813, -399896.84, 37778.723, 0.0, 10.000815, 9.9988165 
1.3350318e+3, 2.6533797e+2, -222495.17, -465762.13, 75576.41, 0.13756955, 0.025548033, -200927.77, 138761.23, 0.00000008871969, 10.001575, 9.99838 
1.3350311e+3, 2.753362e+2, 97239.46, -258039.89, 105572.2, -0.0095292, -0.019943649, 126242.82, 367946.38, 0.000006673535, 10.003083, 9.99841 
1.3350305e+3, 2.8533354e+2, 119402.76, -365843.78, -8911.685, -0.033400603, -0.041781384, 119566.37, 263295.66, 0.00008871381, 10.003304, 9.99688 
1.3350302e+3, 2.9533002e+2, 96139.125, -321647.9, -43949.344, 0.07372857, -0.12346477, 100712.34, 146478.42, 0.00040757706, 10.002439, 9.996929 
1.3350283e+3, 3.053282e+2, 127724.83, -146294.77, -67858.945, 0.047938425, -0.051394377, 143608.86, 143608.86, 0.0010919488, 10.001771, 9.998113 
1.3350257e+3, 3.1532705e+2, 118887.81, 18916.318, 48088.023, -0.036102865, -0.019304989, 138263.67, 138263.67, 0.002095802, 10.000916, 9.999669 
1.34504e+3, 1.2533613e+2, -2305703.5, -1744909.6, 134528.44, 0.044726446, 0.039792266, -1714307.6, -2600.9985, 0.0069055543, 9.994804, 10.00228 
1.345035e+3, 1.353388e+2, -1808356.3, -1416749.4, -149911.36, -0.12623036, 0.037350725, -1365951.1, 247729.61, 0.0039389143, 9.997409, 10.002621 
1.3450374e+3, 1.4534062e+2, -1663559.3, -1473343.4, -34676.594, 0.2647055, 0.032138333, -1467219.0, 48443.926, 0.0015916337, 9.998484, 10.001025 
1.3450344e+3, 1.5534212e+2, -1608635.8, -1407373.9, -49249.78, -0.02482895, 0.064273745, -1395968.5, 21679.615, 0.0003501717, 9.998244, 10.000918 
1.3450345e+3, 1.653431e+2, -1559148.0, -1419679.8, 6694.994, -0.01807819, 0.11673854, -1419359.1, -99717.34, 0.000020254476, 9.998285, 10.000141 
1.3450374e+3, 1.7534356e+2, -1407212.8, -1283467.4, 44138.047, 0.23949704, 0.11857149, -1269337.5, -47694.01, 0.0000000014653116, 9.998613, 10.00024 
1.3450372e+3, 1.853444e+2, -1260498.0, -1127738.0, 51353.47, 0.23143053, 0.16459608, -1110192.5, 13445.444, 0.0, 9.998784, 10.000562 
1.3450347e+3, 1.9534533e+2, -1148023.1, -1019529.1, 32238.15, -0.0059606973, 0.17517914, -1011894.5, 13733.986, 0.0, 9.99887, 10.00059 
1.3450341e+3, 2.053453e+2, -1018994.7, -988911.5, 27763.1, -0.029974854, 0.15923944, -972377.2, -44750.48, 0.0, 9.999439, 9.999849 
1.3450351e+3, 2.1534438e+2, -777716.94, -810822.6, 12650.879, 0.1304822, 0.050639436, -773436.1, 56196.582, 0.0, 10.000389, 9.999932 
1.3450348e+3, 2.2534375e+2, -681979.44, -792006.75, 35944.992, 0.13043599, 0.03325791, -671277.44, 60358.72, 0.0, 10.000694, 9.999255 
1.3450333e+3, 2.3534322e+2, -619733.3, -701143.5, 40515.055, -0.004160501, 0.025088634, -603006.94, 30631.916, 0.0, 10.000413, 9.999336 
1.3450326e+3, 2.4534239e+2, -542212.5, -705367.44, 26418.43, -0.0012354434, 0.056022428, -538041.4, -2394.476, 0.0, 10.000666, 9.998516 
1.3450329e+3, 2.5534114e+2, -331284.53, -545157.4, 20098.65, 0.12164806, 0.051257323, -329412.16, 108249.31, 0.0, 10.001407, 9.998588 
1.3450332e+3, 2.6534003e+2, -222127.08, -452687.34, 113744.8, 0.124622375, 0.09009961, -175458.48, 164213.84, 0.000000062099474, 10.001534, 9.998484 
1.3450335e+3, 2.7533877e+2, -164072.05, -368690.78, 82457.01, 0.018536035, 0.0868315, -134979.88, 106702.07, 0.0000065347235, 10.001231, 9.998533 
1.345033e+3, 2.853359e+2, -144802.92, -458122.7, 12463.146, -0.0022982901, 0.02093957, -144307.94, -598.16876, 0.00008986311, 10.001323, 9.997206 
1.3450322e+3, 2.9533172e+2, 19364.719, -312349.4, 71008.586, 0.064957224, -0.15887116, 33926.016, 79678.72, 0.00041353333, 10.001711, 9.997342 
1.3450304e+3, 3.0533075e+2, 202962.98, -99800.54, 103201.7, 0.068378486, -0.029367572, 234794.28, 234794.28, 0.0011124206, 10.002217, 9.998236 
1.345028e+3, 3.1533098e+2, 369783.47, 118208.05, 108054.9, 0.010739853, 0.12944405, 409822.22, 409822.22, 0.0021418033, 10.002732, 9.999478 
1.3550346e+3, 1.2533464e+2, -2364236.3, -1872429.5, 36048.016, -0.03048669, -0.1555498, -1869801.4, -158082.27, 0.0072628423, 9.994831, 10.001397 
1.3550326e+3, 1.3533749e+2, -1880881.5, -1565496.8, -39564.996, -0.13638522, -0.032508504, -1560609.1, 53084.035, 0.004152666, 9.997416, 10.001588 
1.3550372e+3, 1.4533876e+2, -1660389.9, -1468812.3, -54481.03, 0.36856502, -0.04125329, -1454402.8, 61280.047, 0.0016872559, 9.998489, 10.001055 
1.3550334e+3, 1.553398e+2, -1595615.4, -1389956.5, -47764.418, 0.016555585, -0.0635216, -1379404.5, 38269.793, 0.0003769789, 9.998274, 10.001027 
1.3550328e+3, 1.6534165e+2, -1462714.8, -1227492.9, 4119.0107, -0.05545695, 0.00037246087, -1227420.8, 92237.28, 0.000023370363, 9.998312, 10.001452 
1.3550352e+3, 1.7534404e+2, -1320883.6, -1105978.1, 63678.543, 0.13363731, 0.06723632, -1088526.8, 133109.61, 0.0000000068048798, 9.998607, 10.00147 
1.3550355e+3, 1.8534543e+2, -1282199.8, -1163780.1, 42315.64, 0.15735258, 0.121839985, -1150213.5, -26589.098, 0.0, 9.998749, 10.000327 
1.3550341e+3, 1.953457e+2, -1170274.9, -1057023.6, 47029.535, 0.041239385, 0.08887478, -1040040.56, -14417.35, 0.0, 9.998827, 10.000353 
1.3550344e+3, 2.0534585e+2, -1044033.3, -1016744.6, 52333.24, 0.042645786, 0.10759287, -976306.3, -48684.57, 0.0, 9.999338, 9.999705 
1.355036e+3, 2.1534581e+2, -804894.0, -838401.0, 55101.047, 0.15373503, 0.102426715, -764055.8, 65565.0, 0.0, 10.00026, 9.999808 
1.3550358e+3, 2.2534509e+2, -679815.44, -745573.25, 11888.835, 0.13509697, 0.06213684, -677732.0, 53892.53, 0.0, 10.00052, 9.999657 
1.355034e+3, 2.3534364e+2, -614204.9, -656141.94, 39967.043, 0.00246678, -0.078531496, -590039.8, 43593.977, 0.0, 10.000272, 9.999712 
1.3550332e+3, 2.4534285e+2, -560159.8, -714070.75, 44110.055, -0.027109703, -0.060963657, -548414.44, -12774.092, 0.0, 10.000537, 9.998522 
1.3550335e+3, 2.5534254e+2, -349806.72, -553459.56, 59040.387, 0.027382286, 0.025066843, -333928.5, 103717.445, 0.0, 10.001277, 9.998594 
1.3550338e+3, 2.6534167e+2, -264352.38, -516589.3, 90917.914, 0.013749467, 0.11170982, -234997.58, 104658.92, 0.000000036385206, 10.00143, 9.998096 
1.3550343e+3, 2.753401e+2, -208902.14, -429727.66, 85887.8, -0.046771575, 0.116072506, -179430.34, 62243.664, 0.0000068750182, 10.001092, 9.998185 
1.3550343e+3, 2.853388e+2, -25107.771, -179632.0, 18443.521, -0.03361677, 0.1193014, -22936.91, 120749.164, 0.00009120505, 10.001197, 9.999177 
1.3550338e+3, 2.9533774e+2, 132089.16, -51636.844, 101910.62, 0.04832046, 0.05976266, 177428.88, 223121.8, 0.00041554915, 10.001591, 9.999196 
1.3550326e+3, 3.0533674e+2, 129825.6, -212704.72, 110740.16, 0.046436448, 0.13272189, 162509.31, 162509.31, 0.00111335, 10.002071, 9.9975195 
1.3550292e+3, 3.1533408e+2, 237945.66, -83438.36, 158938.78, -0.18454267, 0.07500223, 303270.16, 303270.16, 0.002141611, 10.002442, 9.998222 
1.3650312e+3, 1.253362e+2, -1931426.8, -1652642.3, 3442.608, 0.007859298, -0.05857363, -1652599.8, 59108.94, 0.0076198755, 9.997727, 10.001517 
1.3650304e+3, 1.3533817e+2, -1934752.1, -1626666.0, 58383.668, -0.07289626, -0.00065769645, -1615973.1, -2285.4302, 0.004366158, 9.997184, 10.001282 
1.3650347e+3, 1.453388e+2, -1885828.8, -1593218.1, 54255.574, 0.36023912, -0.047145586, -1583482.1, -67799.25, 0.0017823466, 9.997019, 10.000906 
1.3650313e+3, 1.5533985e+2, -1711107.6, -1454466.9, 27190.588, 0.03726641, -0.055825982, -1451617.8, -33941.164, 0.0004035849, 9.9975395, 10.000931 
1.3650307e+3, 1.6534196e+2, -1546353.3, -1228212.4, 50087.773, -0.039076842, 0.021679774, -1220513.0, 99144.8, 0.000026350568, 9.997562, 10.001804 
1.3650326e+3, 1.7534496e+2, -1494887.0, -1148434.9, 17482.06, 0.09807747, 0.1082218, -1147555.0, 74073.69, 0.000000016360648, 9.997239, 10.00183 
1.3650334e+3, 1.8534638e+2, -1435547.0, -1237175.8, 20838.592, 0.12960333, 0.14873666, -1235010.4, -111395.01, 0.0, 9.997689, 10.000338 
1.3650334e+3, 1.9534625e+2, -1169170.3, -1048095.2, 23146.928, 0.07414381, 0.072453044, -1043820.9, -18203.252, 0.0, 9.998812, 10.000416 
1.3650341e+3, 2.0534644e+2, -1013348.44, -1005866.8, 63931.684, 0.081818454, 0.09145721, -945566.56, -17950.277, 0.0, 9.999559, 9.9996805 
1.365036e+3, 2.1534675e+2, -847181.5, -863282.56, 56631.273, 0.14460774, 0.12668402, -798031.4, 31581.824, 0.0, 9.999984, 9.999778 
1.365036e+3, 2.2534633e+2, -705246.56, -738201.25, 2642.7227, 0.13077556, 0.10817748, -705036.0, 26578.947, 0.0, 10.000258, 9.999828 
1.3650346e+3, 2.3534514e+2, -591536.44, -630963.75, -9386.253, 0.04494154, -0.022521565, -589415.94, 44206.13, 0.0, 10.000356, 9.99985 
1.3650341e+3, 2.4534422e+2, -481069.1, -668446.4, 48001.633, -0.00073657656, -0.027536778, -469488.0, 66141.11, 0.0, 10.001054, 9.998581 
1.3650347e+3, 2.553434e+2, -189042.6, -467258.78, 40163.785, -0.021526273, 0.00005499867, -183360.53, 254277.23, 0.0, 10.002347, 9.998666 
1.3650353e+3, 2.6534235e+2, -136144.16, -446396.56, 49885.02, -0.020428525, 0.059747055, -128320.51, 211328.75, 0.000000033203506, 10.002276, 9.998174 
1.3650359e+3, 2.7534097e+2, -209568.36, -412451.56, 58964.086, 0.0055726357, 0.07335403, -193676.4, 47988.3, 0.0000069323874, 10.00102, 9.998332 
1.365036e+3, 2.8534013e+2, -41562.746, -180611.84, 20977.3, 0.019972008, 0.11178879, -38466.98, 105205.71, 0.000089487476, 10.001079, 9.999219 
1.3650356e+3, 2.9533973e+2, 262071.86, 26355.473, -59866.31, 0.036450293, 0.113120906, 276404.94, 322078.9, 0.00040599194, 10.002441, 9.9993105 
1.3650355e+3, 3.0533853e+2, 300383.72, -108408.07, -77363.41, 0.07533242, 0.14923033, 314534.78, 314534.78, 0.0010855788, 10.0031395, 9.99773 
1.365033e+3, 3.153356e+2, 303723.75, -73786.35, -14037.515, -0.06612534, 0.051415194, 304245.0, 304245.0, 0.0020884634, 10.002949, 9.99807 
1.37503e+3, 1.2534095e+2, -1861722.4, -1507933.0, -79551.2, 0.055388086, 0.32472652, -1490868.6, 220805.33, 0.0079810945, 9.997741, 10.002503 
1.3750282e+3, 1.3534078e+2, -1906401.5, -1572192.8, 41922.47, -0.031153232, 0.123345174, -1567014.3, 46650.47, 0.0045821774, 9.997199, 10.001649 
1.37503e+3, 1.4534074e+2, -1905654.0, -1639226.6, 55868.09, 0.14276817, 0.011784045, -1627985.8, -112322.195, 0.0018779465, 9.99704, 10.000581 
1.3750283e+3, 1.553422e+2, -1731513.3, -1498269.6, 56894.242, -0.046798017, 0.0725586, -1485131.6, -67476.125, 0.00043006244, 9.997545, 10.0006275 
1.3750283e+3, 1.653441e+2, -1583023.1, -1311177.9, 24029.734, -0.06251367, 0.17458647, -1309070.0, 10570.583, 0.000029160963, 9.997585, 10.001229 
1.3750297e+3, 1.7534633e+2, -1527482.6, -1224721.4, 15720.322, 0.047966506, 0.24129677, -1223907.3, -2287.0518, 0.000000027808229, 9.99726, 10.001307 
1.3750306e+3, 1.8534726e+2, -1415401.6, -1193335.6, 50287.355, 0.060956422, 0.24313627, -1182478.8, -58867.934, 0.0, 9.997686, 10.000637 
1.3750318e+3, 1.9534689e+2, -1158996.6, -1013490.6, 70787.414, 0.012929365, 0.11457395, -984735.7, 40876.863, 0.0, 9.998753, 10.000685 
1.3750331e+3, 2.0534694e+2, -1016036.75, -990059.06, 68656.625, -0.004762141, 0.09957753, -933173.44, -5561.662, 0.0, 9.999468, 9.999832 
1.3750347e+3, 2.1534722e+2, -859541.94, -855631.75, 83768.945, 0.010098412, 0.11571724, -773795.06, 55814.84, 0.0, 9.999839, 9.999901 
1.3750353e+3, 2.2534755e+2, -739461.06, -765573.6, -2257.2834, 0.019964408, 0.1734632, -739267.4, -7660.875, 0.0, 10.000074, 9.999727 
1.3750349e+3, 2.3534775e+2, -621204.8, -654565.7, 6879.7236, 0.030580856, 0.19162692, -619841.75, 13761.679, 0.0, 10.000198, 9.99976 
1.3750353e+3, 2.4534644e+2, -498344.16, -672800.3, 83174.53, -0.014828936, 0.14970975, -465045.3, 70568.54, 0.0, 10.000914, 9.998622 
1.3750364e+3, 2.5534374e+2, -204420.73, -466450.4, 94913.68, -0.10239959, -0.016459288, -173653.33, 263983.47, 0.0, 10.002204, 9.998743 
1.3750373e+3, 2.6534218e+2, -112556.99, -367079.72, -6897.0303, -0.06406222, -0.04472343, -112370.234, 227278.94, 0.000000022673568, 10.002149, 9.998777 
1.3750379e+3, 2.7534127e+2, -194522.58, -348252.7, 26658.504, 0.08282857, -0.041115277, -190030.94, 51624.4, 0.0000066245593, 10.000889, 9.998833 
1.3750377e+3, 2.853398e+2, -173918.7, -440496.84, 58699.36, 0.06675536, 0.0008356422, -161565.77, -17894.723, 0.000084736, 10.001006, 9.997471 
1.3750373e+3, 2.9533783e+2, 122418.24, -227576.56, 6624.4683, -0.07233961, 0.018447189, 122543.586, 168238.2, 0.00038240635, 10.002278, 9.99765 
1.3750385e+3, 3.0533615e+2, 352946.53, 40065.09, -85827.94, 0.04796735, 0.028652871, 374943.84, 374943.84, 0.0010235131, 10.002982, 9.998818 
1.3750386e+3, 3.1533518e+2, 314661.44, 24126.398, 814.8493, 0.16124624, 0.02452988, 314663.72, 314663.72, 0.001977613, 10.002656, 9.998869 
1.3850276e+3, 1.2534167e+2, -1949874.3, -1504272.1, -107328.95, 0.10445905, 0.37558234, -1479768.1, 231903.4, 0.008351057, 9.996933, 10.002923 
1.3850258e+3, 1.3534163e+2, -1927309.0, -1554330.4, -53772.566, 0.03248807, 0.16138355, -1546732.8, 66927.29, 0.004803759, 9.996932, 10.0019045 
1.3850263e+3, 1.4534189e+2, -1941860.9, -1655046.4, 34225.344, 0.090578154, 0.068547495, -1651018.9, -135364.5, 0.0019753822, 9.996783, 10.000595 
1.3850264e+3, 1.5534316e+2, -1749362.8, -1503586.6, 35504.594, 0.032780156, 0.10246005, -1498560.4, -80913.77, 0.00045665295, 9.997403, 10.00066 
1.3850272e+3, 1.6534452e+2, -1574573.9, -1373232.8, 22566.982, 0.054089822, 0.18237261, -1370734.4, -51097.348, 0.00003186285, 9.997945, 10.000629 
1.3850278e+3, 1.7534603e+2, -1401138.9, -1223249.1, -12342.884, 0.093191646, 0.23767252, -1222396.9, -771.4187, 0.000000039188958, 9.998407, 10.000759 
1.385029e+3, 1.8534675e+2, -1275251.0, -1129279.8, 50840.582, 0.072829954, 0.24557453, -1113317.9, 10300.688, 0.0, 9.998655, 10.000616 
1.3850304e+3, 1.9534668e+2, -1136509.5, -997153.44, 31605.326, 0.014259892, 0.14492978, -990320.5, 35296.383, 0.0, 9.998883, 10.000732 
1.3850322e+3, 2.0534694e+2, -1082346.5, -977056.8, 31981.457, -0.00052768056, 0.12823814, -968103.8, -40490.766, 0.0, 9.99882, 10.00023 
1.385034e+3, 2.153474e+2, -1020454.3, -887819.06, 43004.43, 0.024570169, 0.11944618, -875096.1, -45487.734, 0.0, 9.998537, 10.000305 
1.3850352e+3, 2.2534785e+2, -885932.8, -878363.3, 9569.209, 0.04578624, 0.1861383, -871857.56, -140252.73, 0.0, 9.999234, 9.999371 
1.3850358e+3, 2.3534808e+2, -540556.4, -651192.5, -20220.127, 0.066890076, 0.24432263, -536976.7, 96627.63, 0.0, 10.000895, 9.999454 
1.385037e+3, 2.4534692e+2, -437815.63, -596964.9, 60750.78, 0.053966537, 0.21239464, -417276.4, 118337.016, 0.0, 10.001137, 9.999025 
1.3850386e+3, 2.5534457e+2, -465483.56, -545681.4, 72527.81, 0.007466392, 0.038849063, -422707.84, 14923.359, 0.0, 10.000216, 9.999147 
1.3850397e+3, 2.6534283e+2, -291548.8, -464241.56, -13906.856, 0.021400772, -0.022123855, -290436.06, 49207.64, 0.0000000049794013, 10.000968, 9.998677 
1.38504e+3, 2.7534133e+2, 144686.42, -200437.14, -52477.707, 0.08593282, -0.06890785, 152489.5, 394144.1, 0.0000064670485, 10.003271, 9.998709 
1.3850398e+3, 2.8533933e+2, 175846.56, -340280.34, 5655.39, 0.043189146, -0.03987116, 175908.53, 319583.84, 0.00007993784, 10.0036955, 9.996874 
1.3850394e+3, 2.9533687e+2, 126246.74, -280630.84, 11789.005, -0.083602205, -0.012558482, 126588.04, 172292.67, 0.00035406946, 10.002536, 9.997161 
1.3850415e+3, 3.053346e+2, 313491.16, -12075.587, -48152.4, 0.0735886, -0.023509983, 320463.72, 320463.72, 0.00094634306, 10.002845, 9.9985285 
1.3850427e+3, 3.153343e+2, 544052.8, 112018.19, -110868.34, 0.24124888, 0.06407832, 570842.56, 570842.56, 0.0018380386, 10.004317, 9.998675 
1.3950244e+3, 1.2533759e+2, -1967669.6, -1520362.3, -86145.41, 0.02758162, 0.028058644, -1504345.4, 207363.72, 0.008733579, 9.996873, 10.002827 
1.3950229e+3, 1.353407e+2, -1909712.8, -1520570.0, -61988.41, 0.017881656, 0.10656972, -1510934.1, 102739.54, 0.005033633, 9.996944, 10.002129 
1.3950236e+3, 1.4534241e+2, -1909080.5, -1595138.6, 33327.152, 0.11320731, 0.12601762, -1591639.8, -75985.71, 0.002076125, 9.996815, 10.000993 
1.3950256e+3, 1.5534274e+2, -1725730.5, -1454245.6, 68826.57, 0.16921867, 0.030539166, -1437793.8, -20144.371, 0.00048381835, 9.997398, 10.001003 
1.3950269e+3, 1.6534327e+2, -1618751.9, -1470288.4, 25719.227, 0.1983214, 0.043681324, -1465959.1, -146312.6, 0.000034571214, 9.997965, 9.999956 
1.395027e+3, 1.7534395e+2, -1454272.6, -1327265.0, 11058.562, 0.15691622, 0.08546997, -1326309.3, -104663.84, 0.00000005013657, 9.998378, 10.000061 
1.3950278e+3, 1.8534479e+2, -1285236.5, -1153119.6, 43783.152, 0.07800648, 0.1502521, -1139927.4, -16288.019, 0.0, 9.998664, 10.00045 
1.3950294e+3, 1.9534566e+2, -1155546.3, -1026144.7, 47914.277, -0.005575468, 0.16251947, -1010334.8, 15295.293, 0.0, 9.998829, 10.000565 
1.3950314e+3, 2.0534654e+2, -1050074.1, -887051.75, 10041.713, 0.0055957013, 0.18106046, -886435.56, 41183.87, 0.0, 9.998724, 10.000892 
1.3950334e+3, 2.153473e+2, -1000121.56, -812039.6, 42909.867, 0.09667718, 0.13952255, -802712.5, 26896.121, 0.0, 9.998397, 10.000893 
1.3950352e+3, 2.2534719e+2, -939528.94, -965177.75, 60270.21, 0.110869095, 0.15172276, -890733.9, -159123.69, 0.0, 9.99912, 9.998833 
1.3950369e+3, 2.3534623e+2, -594406.0, -734922.4, 50512.504, 0.07173637, 0.1397234, -578132.5, 55491.047, 0.0, 10.000766, 9.998943 
1.395039e+3, 2.4534588e+2, -406787.5, -499645.25, 16016.816, 0.11103236, 0.17245023, -404102.44, 131523.6, 0.0, 10.000998, 9.99976 
1.3950412e+3, 2.5534585e+2, -445020.22, -464825.03, 52631.625, 0.2200493, 0.16140667, -401367.56, 36253.64, 0.0, 10.00006, 9.999774 
1.3950421e+3, 2.6534423e+2, -363056.47, -588759.3, 61761.934, 0.15020865, 0.12603301, -347261.2, -7627.542, 0.0000000011462398, 10.000859, 9.997875 
1.3950418e+3, 2.7534118e+2, 68606.64, -322341.44, 43544.754, -0.067862056, -0.00013628023, 73398.04, 315059.72, 0.0000063015364, 10.00311, 9.997952 
1.3950418e+3, 2.8533888e+2, 187010.02, -280527.34, -47241.96, -0.14998546, 0.009717189, 191735.78, 335419.6, 0.00007549819, 10.003544, 9.997354 
1.3950421e+3, 2.9533678e+2, 128835.29, -241271.13, -12331.149, -0.10413434, 0.028906317, 129245.69, 174950.34, 0.0003302392, 10.002396, 9.997498 
1.3950443e+3, 3.0533376e+2, 194427.45, -234799.89, -3091.5496, 0.045508333, 0.0067215185, 194449.72, 194449.72, 0.0008840725, 10.002737, 9.997048 
1.395045e+3, 3.153333e+2, 419412.03, -71727.67, -41135.184, 0.001062001, 0.22143723, 422833.47, 422833.47, 0.0017240661, 10.004004, 9.99756 
1.4050213e+3, 1.2533797e+2, -2131175.0, -1744170.6, 112356.83, 0.07536915, -0.03684067, -1713916.0, -2216.1453, 0.009133226, 9.996355, 10.001536 
1.4050205e+3, 1.3534096e+2, -1852810.1, -1586619.4, -12588.057, 0.055983763, 0.11834609, -1586025.4, 27649.883, 0.005275387, 9.9977255, 10.001301 
1.405022e+3, 1.4534302e+2, -1654083.3, -1403154.8, 73530.695, 0.19881895, 0.17567642, -1383195.3, 132458.66, 0.0021822979, 9.998249, 10.001629 
1.4050233e+3, 1.553438e+2, -1579222.8, -1323927.8, 99179.74, 0.1823577, 0.066036835, -1289926.0, 127714.02, 0.00051218417, 9.998136, 10.001553 
1.4050247e+3, 1.6534418e+2, -1617901.6, -1499972.5, 109753.984, 0.1820922, 0.053417727, -1434346.6, -114710.56, 0.000037386584, 9.998105, 9.999675 
1.4050257e+3, 1.7534414e+2, -1462941.4, -1359717.1, 104253.41, 0.18636642, 0.04600766, -1294999.6, -73357.77, 0.00000006103049, 9.998434, 9.9998045 
1.4050269e+3, 1.8534468e+2, -1313546.0, -1183778.6, 167669.69, 0.1343499, 0.09902471, -1068876.3, 54762.39, 0.0, 9.998555, 10.000286 
1.4050284e+3, 1.9534566e+2, -1204023.1, -1065639.4, 148894.05, 0.034049913, 0.1371871, -970645.56, 54982.63, 0.0, 9.998572, 10.000412 
1.4050305e+3, 2.0534639e+2, -1023643.0, -921432.94, 100716.59, 0.04342231, 0.16904296, -859597.5, 68022.086, 0.0, 9.999108, 10.000473 
1.4050332e+3, 2.1534678e+2, -759900.75, -734682.44, 36651.24, 0.14709377, 0.1315096, -708532.06, 121081.51, 0.0, 10.00022, 10.000541 
1.4050357e+3, 2.253464e+2, -734336.8, -860482.5, 71518.1, 0.17638473, 0.13289145, -702052.3, 29565.69, 0.0, 10.000532, 9.9988575 
1.4050381e+3, 2.3534526e+2, -678399.5, -764151.7, 77882.984, 0.14268677, 0.099550456, -632370.5, 1262.1041, 0.0, 10.000165, 9.99902 
1.40504e+3, 2.453449e+2, -517882.22, -591409.5, 15993.895, 0.15789084, 0.1441678, -514553.84, 21082.37, 0.0, 10.000391, 9.99943 
1.4050417e+3, 2.55345e+2, -302646.9, -429931.9, -41600.824, 0.20677257, 0.18050647, -290256.56, 147375.86, 0.0, 10.001177, 9.999482 
1.4050432e+3, 2.6534358e+2, -233415.81, -528128.4, 38866.72, 0.13686043, 0.1793595, -228376.23, 111268.25, 0.0000000047036606, 10.001752, 9.997865 
1.4050448e+3, 2.7534094e+2, -56404.234, -376494.97, 44831.1, -0.030070143, 0.09565652, -50243.863, 191425.33, 0.000006310061, 10.002233, 9.997999 
1.4050452e+3, 2.8533864e+2, 63806.656, -345940.47, -73867.51, -0.10633858, 0.1089528, 76716.44, 220406.6, 0.00007173929, 10.002731, 9.997288 
1.405045e+3, 2.953362e+2, 244198.19, -194278.19, -96589.13, -0.09265455, 0.09803636, 264532.2, 310245.0, 0.0003165935, 10.0032425, 9.997405 
1.4050473e+3, 3.0533227e+2, 332864.44, -246973.2, 5045.62, 0.025881672, 0.027931413, 332908.34, 332908.34, 0.00085306494, 10.004018, 9.996354 
1.4050493e+3, 3.1533086e+2, 550595.0, -33410.82, -37679.2, -0.022229506, 0.21583296, 553015.94, 553015.94, 0.0016667417, 10.004994, 9.997356 
1.4150174e+3, 1.2534241e+2, -2292461.0, -2083310.4, 83044.0, 0.00916861, 0.12365799, -2054348.0, -342700.3, 0.009556688, 9.996371, 9.9992075 
1.4150183e+3, 1.3534242e+2, -1986132.5, -1858507.9, 46547.13, 0.046950962, 0.18560767, -1843335.1, -229670.66, 0.0055341963, 9.99771, 9.999442 
1.4150208e+3, 1.4534357e+2, -1585886.5, -1269553.0, 52895.766, 0.23156503, 0.188341, -1260942.4, 254713.02, 0.0022969088, 9.998281, 10.002534 
1.4150198e+3, 1.5534636e+2, -1526349.4, -1214527.6, 103492.28, -0.009410877, 0.2032717, -1183305.3, 234312.48, 0.0005425403, 9.9981365, 10.002304 
1.4150204e+3, 1.6534741e+2, -1599516.4, -1468482.8, 106356.66, -0.08101937, 0.21180032, -1409082.8, -89478.766, 0.000040406845, 9.998129, 9.999884 
1.4150235e+3, 1.753468e+2, -1453364.8, -1332962.6, 124658.14, 0.10021025, 0.12853114, -1254730.3, -33117.36, 0.00000007226826, 9.9984, 10.00001 
1.4150259e+3, 1.8534659e+2, -1327986.1, -1210539.8, 155443.14, 0.14771838, 0.10479172, -1103097.4, 20517.434, 0.0, 9.998543, 10.000107 
1.4150274e+3, 1.9534664e+2, -1229269.5, -1106104.1, 158699.4, 0.045365535, 0.070160806, -997457.75, 28153.865, 0.0, 9.998524, 10.000157 
1.4150296e+3, 2.0534644e+2, -1128704.4, -1127996.1, 125531.81, 0.026698181, 0.09331863, -1002817.94, -75203.76, 0.0, 9.999051, 9.999085 
1.4150332e+3, 2.1534586e+2, -875307.7, -942148.1, 84938.35, 0.10065722, 0.09676931, -817451.25, 12171.79, 0.0, 10.000073, 9.999191 
1.4150363e+3, 2.2534545e+2, -716232.4, -786365.56, 45291.785, 0.15738915, 0.12836394, -694018.9, 37609.832, 0.0, 10.000374, 9.999439 
1.4150389e+3, 2.353451e+2, -671526.2, -708362.0, 76378.53, 0.1923256, 0.11874658, -611376.3, 22255.955, 0.0, 9.999994, 9.99948 
1.41504e+3, 2.4534403e+2, -624116.3, -790446.6, 35746.383, 0.09434425, 0.13922293, -616759.4, -81115.555, 0.0, 10.000287, 9.998116 
1.4150397e+3, 2.553421e+2, -405094.06, -618762.7, 237.05861, -0.11524836, 0.100246474, -405093.8, 32570.473, 0.0, 10.001065, 9.998241 
1.4150427e+3, 2.6534095e+2, -204915.61, -437962.13, 47202.348, -0.101626255, 0.1509353, -195718.02, 143957.3, 0.000000079284355, 10.001623, 9.998542 
1.4150484e+3, 2.7534038e+2, -37392.19, -302575.13, 77645.63, 0.10290635, 0.20775363, -16330.341, 225348.64, 0.000007370644, 10.00209, 9.998572 
1.4150499e+3, 2.8533846e+2, 20334.928, -419409.38, -65311.91, 0.06762275, 0.2550029, 29830.186, 173526.64, 0.00007202747, 10.002649, 9.996825 
1.4150478e+3, 2.9533502e+2, 187267.72, -281893.1, -58499.246, -0.15020357, 0.18876636, 194451.94, 240181.55, 0.0003176136, 10.003091, 9.996886 
1.4150505e+3, 3.0532998e+2, 294709.78, -272984.25, 35937.41, -0.09739773, 0.03818644, 296975.72, 296975.72, 0.0008555333, 10.003815, 9.996255 
1.4150546e+3, 3.1532687e+2, 536668.8, 12401.759, 19306.982, -0.012779902, 0.0543091, 537378.9, 537378.9, 0.0016666559, 10.004707, 9.997789 
1.4250144e+3, 1.2534283e+2, -2208934.0, -2012831.0, -114591.28, 0.057129376, 0.15783072, -1960067.3, -248421.66, 0.010011913, 9.996825, 9.999473 
1.4250162e+3, 1.3534307e+2, -2098943.0, -1885412.4, 31645.223, 0.115572326, 0.22556745, -1880821.4, -267163.28, 0.0058154534, 9.996856, 9.99966 
1.4250189e+3, 1.4534368e+2, -1778715.1, -1414006.3, 57497.645, 0.27243075, 0.18578954, -1405156.3, 110498.734, 0.002423067, 9.997205, 10.002048 
1.4250173e+3, 1.5534621e+2, -1664841.9, -1331475.5, -19804.691, -0.03500842, 0.22631851, -1330303.1, 87318.92, 0.00057589856, 9.997423, 10.001829 
1.425018e+3, 1.6534746e+2, -1601076.6, -1402517.9, -4621.579, -0.1164768, 0.24267423, -1402410.4, -82804.64, 0.00004378684, 9.997818, 10.000491 
1.4250222e+3, 1.7534743e+2, -1386937.1, -1234626.3, 23186.836, 0.12766656, 0.15517445, -1231174.8, -9569.879, 0.00000008454083, 9.998566, 10.000607 
1.425025e+3, 1.85347e+2, -1263419.0, -1234262.8, 72376.234, 0.1758683, 0.10690096, -1175011.1, -51403.62, 0.0, 9.999225, 9.999615 
1.425026e+3, 1.9534615e+2, -1063699.3, -1081493.9, 33190.902, 0.004291857, 0.030071156, -1038233.8, -12619.694, 0.0, 9.999899, 9.999664 
1.4250287e+3, 2.0534545e+2, -1014058.4, -1128612.5, 50999.28, -0.026216898, 0.05527019, -994643.94, -67021.08, 0.0, 10.00008, 9.998585 
1.4250329e+3, 2.1534471e+2, -931623.75, -1023432.44, 52658.43, 0.08358732, 0.092632055, -907670.25, -78034.914, 0.0, 9.999907, 9.998717 
1.4250363e+3, 2.2534446e+2, -771196.8, -804699.75, 27175.945, 0.15937197, 0.15896496, -756024.25, -24384.219, 0.0, 9.999957, 9.999518 
1.4250389e+3, 2.3534462e+2, -621816.3, -678707.4, 1130.4791, 0.18919, 0.19154099, -621793.9, 11844.72, 0.0, 10.000295, 9.999548 
1.4250404e+3, 2.4534328e+2, -551647.0, -785576.25, 41102.273, 0.08667561, 0.19883218, -544635.4, -8982.969, 0.0, 10.000932, 9.997834 
1.4250411e+3, 2.5534052e+2, -289229.6, -589208.4, 51146.12, -0.12937137, 0.10458203, -280749.0, 156931.95, 0.00000000006254562, 10.001984, 9.997998 
1.4250444e+3, 2.6533902e+2, -157742.98, -442241.94, 81536.65, -0.11368574, 0.14351137, -136031.67, 203664.33, 0.00000036239143, 10.002059, 9.998306 
1.42505e+3, 2.753386e+2, -173111.81, -390791.8, 29472.701, 0.1028815, 0.23391588, -169191.95, 72507.82, 0.000010087366, 10.0012455, 9.998373 
1.4250524e+3, 2.853366e+2, -142797.31, -491938.8, -58318.3, 0.12330714, 0.28321108, -133313.8, 10404.602, 0.00007869426, 10.001504, 9.996885 
1.4250521e+3, 2.9533306e+2, 165547.02, -280092.97, -51733.668, -0.006737571, 0.20344076, 171473.88, 217226.16, 0.00033370158, 10.002896, 9.996992 
1.4250548e+3, 3.053284e+2, 267805.56, -301477.3, 79541.09, -0.02218672, 0.08590391, 278710.28, 278710.28, 0.00088811334, 10.003669, 9.996147 
1.4250581e+3, 3.1532496e+2, 402170.3, -38769.484, 20208.52, -0.08337083, 0.07897483, 403094.53, 403094.53, 0.0017196501, 10.003702, 9.997933 
1.4350113e+3, 1.2534001e+2, -1989213.8, -1577426.6, -168443.0, 0.012662169, 0.111714564, -1517302.9, 194382.75, 0.010506618, 9.996883, 10.002449 
1.435014e+3, 1.353433e+2, -1952665.8, -1576654.9, 56576.88, 0.19768742, 0.25007927, -1568326.4, 45326.04, 0.006123269, 9.996835, 10.001783 
1.4350158e+3, 1.4534359e+2, -1898192.4, -1676224.8, 56648.684, 0.21235445, 0.17336327, -1662603.3, -146953.42, 0.002563054, 9.99726, 10.000226 
1.4350155e+3, 1.5534353e+2, -1785512.4, -1581668.5, -2514.8933, 0.019662563, 0.13490063, -1581637.4, -163985.78, 0.0006133788, 9.9974165, 10.000121 
1.435017e+3, 1.6534437e+2, -1528247.0, -1254503.5, 8161.7744, -0.025396714, 0.14259776, -1254260.4, 65380.168, 0.000047750204, 9.997829, 10.001504 
1.4350216e+3, 1.753459e+2, -1319395.1, -1098441.4, 58983.72, 0.18060678, 0.1109464, -1083681.6, 137937.31, 0.00000010052836, 9.998576, 10.001538 
1.435024e+3, 1.8534584e+2, -1318593.9, -1345531.6, 82330.2, 0.1311775, 0.095082864, -1248638.1, -125020.74, 0.0, 9.999212, 9.998858 
1.4350244e+3, 1.9534425e+2, -1127099.8, -1193600.9, 66016.19, -0.17411998, 0.020785116, -1086433.1, -60798.3, 0.0, 9.999816, 9.998937 
1.4350271e+3, 2.0534353e+2, -1001151.94, -1080670.3, 30917.535, -0.2133309, 0.058145206, -990545.56, -62900.77, 0.0, 9.999986, 9.99896 
1.4350322e+3, 2.1534343e+2, -935101.0, -992232.1, 56559.285, 0.006032012, 0.122439675, -900302.94, -70653.39, 0.0, 9.999743, 9.999009 
1.4350358e+3, 2.2534359e+2, -824812.06, -878650.56, 27464.035, 0.09175663, 0.23839068, -813274.56, -81623.37, 0.0, 9.999798, 9.999086 
1.435038e+3, 2.353439e+2, -673243.25, -744825.56, 24020.549, 0.0537471, 0.32960433, -665929.94, -32279.37, 0.0, 10.000128, 9.999172 
1.4350411e+3, 2.4534272e+2, -523322.13, -696996.75, 66296.2, 0.044274993, 0.3334647, -500907.88, 34753.867, 0.0, 10.0007925, 9.998514 
1.4350452e+3, 2.553401e+2, -272372.94, -516565.4, 98095.17, 0.06546926, 0.18764052, -237848.13, 199836.11, 0.000000006122379, 10.001822, 9.998575 
1.4350478e+3, 2.653378e+2, -241663.44, -590951.75, 39512.97, 0.008915551, 0.16867632, -237249.34, 102457.43, 0.0000008787704, 10.001943, 9.997345 
1.4350493e+3, 2.7533564e+2, -255482.05, -534752.75, 16240.231, -0.11767191, 0.18662035, -254540.81, -12810.2705, 0.000014147242, 10.001123, 9.99745 
1.4350526e+3, 2.8533313e+2, -125884.44, -434563.9, -17411.18, -0.037084162, 0.20488262, -124905.45, 18849.787, 0.000090676054, 10.001399, 9.99733 
1.4350577e+3, 2.953301e+2, 168519.0, -246828.95, 15055.373, 0.22794938, 0.12884821, 169064.0, 214847.56, 0.00036367134, 10.002768, 9.997288 
1.4350604e+3, 3.0532724e+2, 256375.06, -287424.06, 71889.98, 0.1390742, 0.17657481, 265718.34, 265718.34, 0.00095384644, 10.003529, 9.996302 
1.435059e+3, 3.15325e+2, 347378.44, -68913.125, 54084.84, -0.39176515, 0.2728605, 354290.4, 354290.4, 0.0018355994, 10.00335, 9.997898 
1.4450078e+3, 1.2533817e+2, -2000431.4, -1499291.3, -56015.598, 0.0017211931, 0.12974511, -1493106.4, 218603.11, 0.011047917, 9.99643, 10.003208 
1.4450112e+3, 1.3534175e+2, -1829741.1, -1492598.5, -40955.574, 0.19980377, 0.2594146, -1487694.6, 125974.03, 0.00646129, 9.997548, 10.00202 
1.445013e+3, 1.453419e+2, -1793538.0, -1651991.8, -44023.703, 0.15422815, 0.17635332, -1639416.8, -123751.26, 0.0027186894, 9.998103, 9.999976 
1.445015e+3, 1.5534124e+2, -1665312.4, -1540058.9, -10911.365, 0.19026017, 0.09286127, -1539115.4, -121441.59, 0.0006559602, 9.998321, 9.999966 
1.445017e+3, 1.653418e+2, -1444583.4, -1247988.1, 43574.305, 0.1494144, 0.09708788, -1238763.0, 80903.305, 0.000052490832, 9.998567, 10.001183 
1.4450198e+3, 1.7534333e+2, -1264316.3, -1103139.8, -25201.22, 0.1170099, 0.09892535, -1099291.3, 122354.76, 0.00000012546444, 9.999106, 10.001241 
1.4450224e+3, 1.8534355e+2, -1272902.1, -1314524.4, 480.03284, 0.0381278, 0.118519805, -1272896.6, -149253.86, 0.0, 9.999472, 9.998949 
1.4450246e+3, 1.9534248e+2, -1133795.4, -1181790.8, 25823.637, -0.117485784, 0.083894394, -1122540.4, -96884.734, 0.0, 9.9997, 9.99907 
1.4450277e+3, 2.0534188e+2, -1020011.25, -1063382.3, 13716.139, -0.14020024, 0.11364058, -1016037.56, -88374.3, 0.0, 9.999747, 9.999192 
1.4450315e+3, 2.1534152e+2, -925725.0, -960766.9, 8133.5874, -0.027096791, 0.12905276, -923929.1, -94261.19, 0.0, 9.999695, 9.9992485 
1.4450352e+3, 2.2534126e+2, -824181.1, -920411.75, 28573.436, 0.04395381, 0.2121757, -816336.44, -84664.0, 0.0, 9.999974, 9.99872 
1.4450385e+3, 2.3534097e+2, -628078.0, -761945.1, 8173.1343, 0.06525609, 0.27803403, -627580.9, 6097.0273, 0.0, 10.000589, 9.9988365 
1.4450422e+3, 2.4533986e+2, -550536.56, -693454.9, 44402.76, 0.092014015, 0.2962701, -537864.75, -2175.8662, 0.0, 10.000543, 9.998652 
1.4450467e+3, 2.5533783e+2, -522839.25, -627936.25, 17655.059, 0.118786335, 0.19764598, -519952.72, -82246.28, 0.000000012932129, 10.000041, 9.998677 
1.4450495e+3, 2.653356e+2, -462128.0, -689627.9, 1549.8915, 0.058215722, 0.17993172, -462117.44, -122389.17, 0.0000016431604, 10.000405, 9.997399 
1.445051e+3, 2.7533317e+2, -172608.25, -484300.8, 23401.988, -0.0811486, 0.16158907, -170861.02, 70893.305, 0.000019343763, 10.001658, 9.997528 
1.4450547e+3, 2.8533062e+2, 66382.805, -376013.78, 57958.07, -0.03661931, 0.18657392, 73849.82, 217630.63, 0.00010742276, 10.002871, 9.997018 
1.4450604e+3, 2.9532784e+2, 324069.25, -198892.31, 17319.785, 0.17550263, 0.16650909, 324642.22, 370451.72, 0.00040939415, 10.003955, 9.997035 
1.445063e+3, 3.053258e+2, 295775.9, -185238.52, 29602.86, 0.09103629, 0.27048853, 297590.9, 297590.9, 0.0010584168, 10.003425, 9.997068 
1.445062e+3, 3.153237e+2, 125294.586, -108167.99, 1772.2913, -0.336897, 0.3018295, 125308.04, 125308.04, 0.002024874, 10.001537, 9.998495 
1.4550051e+3, 1.2533791e+2, -2106227.8, -1727513.5, 73442.945, 0.034042224, 0.24173738, -1713769.6, -2058.0767, 0.011640448, 9.99649, 10.00159 
1.4550075e+3, 1.353385e+2, -1951909.6, -1739964.5, 6948.857, 0.04224982, 0.24582832, -1739737.0, -126031.18, 0.0068325973, 9.997521, 10.000334 
1.4550096e+3, 1.4533874e+2, -1703567.0, -1463813.4, -48202.75, -0.013701755, 0.19259611, -1454485.1, 61215.203, 0.0028915813, 9.998101, 10.001264 
1.4550154e+3, 1.5533933e+2, -1576953.1, -1350885.6, 5126.018, 0.3784287, 0.09199232, -1350769.4, 66919.1, 0.00070428615, 9.9983015, 10.001269 
1.4550175e+3, 1.653398e+2, -1548620.9, -1476839.1, 48343.5, 0.31188223, 0.105910435, -1452520.0, -132837.28, 0.000058062662, 9.998616, 9.99959 
1.4550164e+3, 1.7533988e+2, -1372216.3, -1326317.1, 5421.3335, -0.13480999, 0.120960884, -1325685.5, -104000.66, 0.00000016567238, 9.999099, 9.999715 
1.4550197e+3, 1.8534023e+2, -1207114.1, -1175676.0, -2137.3406, -0.19400783, 0.17835747, -1175531.4, -51848.832, 0.0, 9.999464, 9.999905 
1.4550264e+3, 1.9534084e+2, -1081183.9, -1058258.1, 43206.184, 0.08367397, 0.219633, -1025020.06, 656.08014, 0.0, 9.999637, 9.999952 
1.45503e+3, 2.053404e+2, -1030071.25, -1056549.4, -745.7875, 0.09788427, 0.22111297, -1030050.3, -102371.35, 0.0, 9.999635, 9.9992895 
1.4550306e+3, 2.1533892e+2, -940048.75, -953876.94, 16291.086, -0.10151633, 0.11180691, -929265.3, -99574.27, 0.0, 9.999544, 9.999366 
1.455034e+3, 2.2533748e+2, -858253.25, -958704.5, 39466.777, -0.08115957, 0.08036936, -844602.1, -112898.01, 0.0, 9.999831, 9.998526 
1.4550398e+3, 2.3533602e+2, -674793.1, -811211.56, 41358.47, 0.13079205, 0.05091109, -663233.75, -29514.875, 0.0, 10.000392, 9.99859 
1.4550434e+3, 2.4533485e+2, -595182.8, -760863.94, 15238.812, 0.13299784, 0.09825306, -593792.9, -58060.22, 0.0, 10.000419, 9.998256 
1.4550452e+3, 2.5533387e+2, -562078.3, -683924.44, 12724.866, -0.048706934, 0.14073792, -560763.6, -123017.3, 0.000000017460069, 9.999928, 9.998349 
1.4550489e+3, 2.653326e+2, -409687.66, -557681.6, 39487.87, -0.05617079, 0.18630041, -399810.66, -60051.36, 0.000002726617, 10.000297, 9.998362 
1.4550547e+3, 2.7533102e+2, -131668.88, -365988.84, 82372.14, 0.09986126, 0.15507309, -105610.03, 136162.84, 0.000025176965, 10.001515, 9.998408 
1.4550585e+3, 2.8532895e+2, -15656.805, -512418.72, 88524.6, 0.026571734, 0.2304572, -352.90314, 143443.53, 0.00012772917, 10.002725, 9.996153 
1.4550604e+3, 2.953264e+2, 246178.34, -323558.22, 71094.63, -0.24954721, 0.31957424, 254915.9, 300745.56, 0.0004671954, 10.003792, 9.996263 
1.4550632e+3, 3.053243e+2, 362577.28, -7557.2886, -50633.78, -0.25805503, 0.3846234, 369378.9, 369378.9, 0.0011937756, 10.003258, 9.998366 
1.455066e+3, 3.153209e+2, 143670.4, -13074.628, -39703.54, -0.12521197, 0.16072911, 153153.58, 153153.58, 0.0022758725, 10.001295, 9.999264 
1.4650017e+3, 1.2533548e+2, -2015941.3, -1710319.1, 6910.9556, 0.017416608, 0.33877757, -1710162.9, 1573.8794, 0.012283002, 9.997216, 10.001365 
1.4650044e+3, 1.3533503e+2, -2095709.6, -1813864.8, -36848.23, 0.045776974, 0.24480052, -1809126.9, -195384.75, 0.00723705, 9.996559, 10.000289 
1.4650078e+3, 1.4533558e+2, -1855328.1, -1515070.0, 3688.9788, 0.060383353, 0.21887876, -1515030.0, 702.8377, 0.0030819494, 9.996937, 10.001491 
1.4650136e+3, 1.5533662e+2, -1431485.8, -1246886.8, -49389.258, 0.33305287, 0.13147902, -1234503.5, 183211.66, 0.0007585455, 9.999128, 10.001599 
1.4650162e+3, 1.6533688e+2, -1431337.5, -1485270.4, -26468.68, 0.27663755, 0.13648692, -1420517.9, -100806.22, 0.00006440502, 9.9997, 9.999013 
1.465016e+3, 1.753361e+2, -1420413.5, -1410345.8, -17213.313, -0.090853974, 0.12342723, -1397445.4, -175720.86, 0.00000022299002, 9.999029, 9.999173 
1.4650196e+3, 1.8533649e+2, -1242608.4, -1143192.0, 30914.807, -0.12549424, 0.19032432, -1134362.8, -10640.889, 0.0, 9.999021, 10.000335 
1.4650267e+3, 1.9533795e+2, -1033372.3, -984207.44, 16042.457, 0.13549067, 0.2706998, -979435.9, 46269.51, 0.0, 9.999755, 10.000395 
1.4650303e+3, 2.0533742e+2, -978013.2, -1078624.4, -52374.434, 0.14054208, 0.26255655, -955698.3, -27989.678, 0.0, 10.000186, 9.998879 
1.4650309e+3, 2.1533504e+2, -835517.9, -943502.06, -91619.41, -0.07713963, 0.102844, -783164.94, 46565.344, 0.0, 10.000433, 9.999011 
1.4650343e+3, 2.2533336e+2, -764466.94, -886820.5, -49007.47, -0.06380456, 0.05169091, -747257.94, -15512.377, 0.0, 10.000376, 9.998755 
1.4650401e+3, 2.353321e+2, -692925.56, -795556.6, -36836.47, 0.15058108, 0.0225267, -681073.0, -47316.12, 0.0, 10.000156, 9.998816 
1.4650439e+3, 2.4533105e+2, -627324.44, -788346.5, -20534.844, 0.15851027, 0.076534845, -624746.94, -88977.15, 0.0, 10.000258, 9.998142 
1.4650457e+3, 2.5533012e+2, -445740.97, -633814.75, -25432.049, -0.021989757, 0.1378774, -442362.63, -4578.3345, 0.000000044837254, 10.000764, 9.998284 
1.46505e+3, 2.6532918e+2, -223653.98, -430807.47, 41908.707, -0.023671022, 0.20217313, -215496.75, 124297.53, 0.0000038968087, 10.00142, 9.998691 
1.4650568e+3, 2.753282e+2, -3962.4749, -271020.66, 21996.896, 0.13141204, 0.19769557, -2162.7751, 239638.64, 0.000030518888, 10.002239, 9.99872 
1.4650609e+3, 2.853263e+2, -86194.06, -504207.9, 42251.734, 0.036067028, 0.25764567, -81966.13, 61856.72, 0.00014669269, 10.002055, 9.996534 
1.4650624e+3, 2.953238e+2, -124991.84, -453111.2, 75337.04, -0.2815201, 0.31394023, -108521.06, -62665.473, 0.0005242596, 10.001039, 9.996693 
1.4650655e+3, 3.0532178e+2, 171563.97, -57961.17, -9655.964, -0.27331337, 0.34782723, 171969.48, 171969.48, 0.0013356343, 10.001773, 9.998721 
1.4650697e+3, 3.1531894e+2, 520352.03, 146039.67, -97688.86, -0.019333238, 0.1487658, 544313.25, 544313.25, 0.002548591, 10.003956, 9.999085 
1.4749973e+3, 1.253296e+2, -1926245.4, -1521628.1, -68124.016, -0.2046534, 0.31910977, -1510466.3, 201331.5, 0.012969953, 9.997221, 10.002656 
1.4750014e+3, 1.3533124e+2, -1984574.5, -1576971.6, -70401.195, 0.066216804, 0.2609095, -1565154.6, 48623.637, 0.0076708426, 9.996537, 10.001921 
1.4750074e+3, 1.4533238e+2, -1891920.3, -1610403.6, 62184.266, 0.27638343, 0.24753574, -1597279.6, -81515.82, 0.0032881629, 9.997008, 10.000807 
1.4750095e+3, 1.5533331e+2, -1483857.0, -1349757.9, 38136.867, -0.022892052, 0.22174264, -1339670.8, 78080.79, 0.00081847684, 9.9991, 10.000909 
1.4750127e+3, 1.653332e+2, -1394704.4, -1421849.3, -66462.14, -0.058042258, 0.20056386, -1340443.0, -20691.006, 0.000071419374, 9.999743, 9.999429 
1.4750177e+3, 1.7533202e+2, -1396523.9, -1357934.4, -33765.234, 0.15076852, 0.10945116, -1338339.8, -116575.18, 0.0000002932695, 9.999015, 9.999539 
1.4750217e+3, 1.8533234e+2, -1243804.5, -1151975.6, 45547.504, 0.14614344, 0.15526716, -1133216.3, -9455.482, 0.0, 9.999039, 10.000271 
1.475025e+3, 1.9533381e+2, -1046107.44, -999604.94, 51713.688, -0.042598736, 0.24079537, -966155.9, 59587.75, 0.0, 9.9997015, 10.0003195 
1.4750282e+3, 2.0533296e+2, -1046097.3, -1203433.3, -58252.344, -0.10396345, 0.24558447, -1026877.7, -99125.305, 0.0, 10.000112, 9.998058 
1.4750317e+3, 2.1533002e+2, -916527.94, -1075056.5, -76655.19, -0.043960243, 0.113479294, -885525.06, -55740.484, 0.0, 10.000278, 9.998181 
1.4750355e+3, 2.2532892e+2, -743877.5, -810890.4, -68842.234, 0.0062417076, 0.13310565, -700820.6, 30975.545, 0.0, 10.000224, 9.999353 
1.4750394e+3, 2.3532933e+2, -667887.94, -716315.75, -33262.13, 0.040082853, 0.20445274, -650959.6, -17168.572, 0.0, 10.000037, 9.999418 
1.4750434e+3, 2.453285e+2, -631636.1, -776893.5, -14324.216, 0.06867268, 0.24516267, -630237.06, -94437.28, 0.0, 10.000162, 9.99827 
1.4750479e+3, 2.553265e+2, -459894.2, -630228.7, 3607.632, 0.10612507, 0.18705596, -459817.8, -21996.29, 0.000000082863835, 10.000621, 9.998379 
1.4750525e+3, 2.6532534e+2, -261265.19, -476771.22, 65167.25, 0.056538954, 0.2342471, -243091.72, 96741.984, 0.0000048986644, 10.001281, 9.99844 
1.4750573e+3, 2.753247e+2, -39400.18, -308153.8, 67512.76, -0.07580737, 0.28864887, -23393.816, 218445.3, 0.00003489947, 10.002087, 9.998533 
1.4750618e+3, 2.8532276e+2, -8789.137, -316666.53, -8502.854, -0.10803205, 0.28006124, -8554.487, 135304.27, 0.00016199038, 10.001925, 9.997891 
1.4750661e+3, 2.953198e+2, -53706.707, -272653.6, 52883.29, -0.047299903, 0.15199038, -41602.7, 4286.8335, 0.0005762134, 10.000892, 9.998006 
1.4750695e+3, 3.0531803e+2, 114486.875, -133641.31, 63701.758, -0.07330009, 0.17057326, 129885.37, 129885.37, 0.0014700064, 10.001602, 9.998274 
1.4750722e+3, 3.1531775e+2, 394216.7, -20726.69, 18049.018, -0.1966817, 0.26777744, 395000.28, 395000.28, 0.0028040595, 10.003579, 9.998102 
1.4849946e+3, 1.2532347e+2, -2196129.5, -1625284.0, -62842.188, -0.082510695, 0.24816808, -1618447.8, 93410.77, 0.013700781, 9.995238, 10.002909 
1.4849982e+3, 1.3532622e+2, -1750616.4, -1406206.8, -122759.95, 0.023510454, 0.25153062, -1366929.9, 246896.31, 0.00813248, 9.997861, 10.002481 
1.4850055e+3, 1.453279e+2, -1664762.0, -1553683.5, 13316.303, 0.31368876, 0.28828824, -1552109.4, -36301.484, 0.0035089266, 9.998827, 10.000302 
1.4850074e+3, 1.5532853e+2, -1544442.4, -1428618.3, -22225.096, -0.10638463, 0.28179258, -1424500.0, -6696.7847, 0.0008836724, 9.9989195, 10.000437 
1.4850113e+3, 1.653284e+2, -1447886.6, -1378388.4, -131416.31, -0.14964624, 0.25275618, -1277204.6, 42598.918, 0.00007901186, 9.999108, 10.000024 
1.485017e+3, 1.7532751e+2, -1269904.9, -1230675.9, -107308.92, 0.15237968, 0.13021366, -1141203.6, 80605.805, 0.00000037325287, 9.999609, 10.000125 
1.4850214e+3, 1.8532763e+2, -1137389.4, -1138198.8, 16703.617, 0.18562967, 0.14580306, -1121085.5, 2720.6948, 0.0, 9.999929, 9.999938 
1.4850248e+3, 1.9532855e+2, -977750.7, -999165.9, -20732.133, -0.03562991, 0.20820417, -965124.3, 60671.617, 0.0, 10.000309, 10.000031 
1.4850283e+3, 2.0532784e+2, -1017138.4, -1154016.6, -102164.95, -0.097222716, 0.22428592, -962607.56, -34803.324, 0.0, 10.000167, 9.998366 
1.485032e+3, 2.1532562e+2, -990004.6, -1074895.6, -55193.973, -0.010825294, 0.1352577, -962822.6, -132993.03, 0.0, 9.999617, 9.998502 
1.4850357e+3, 2.25325e+2, -792512.2, -823540.1, 20340.572, 0.02283971, 0.18037547, -782444.44, -50607.36, 0.0, 9.999841, 9.999448 
1.4850393e+3, 2.3532574e+2, -541894.6, -641990.9, -6278.6904, -0.006606128, 0.27695078, -541502.3, 92326.96, 0.0, 10.000848, 9.999535 
1.485044e+3, 2.4532492e+2, -407186.1, -639742.9, 20202.188, 0.042111333, 0.29808554, -405444.16, 130392.41, 0.0, 10.001583, 9.998527 
1.4850499e+3, 2.553226e+2, -226130.67, -491448.6, 26353.795, 0.16385606, 0.18321626, -223538.3, 214319.8, 0.00000011463164, 10.002112, 9.998616 
1.4850545e+3, 2.6532105e+2, -213566.36, -505160.16, 81605.52, 0.10173821, 0.20648864, -192281.86, 147592.42, 0.000005857849, 10.001836, 9.997976 
1.485058e+3, 2.7532008e+2, -237088.39, -451263.2, 35086.027, -0.13192824, 0.2749889, -231487.11, 10399.913, 0.000039275426, 10.000939, 9.998103 
1.4850627e+3, 2.8531834e+2, -99815.02, -283491.1, -51066.484, -0.14495231, 0.27845266, -86572.086, 57331.996, 0.00017769578, 10.000988, 9.998558 
1.4850682e+3, 2.953161e+2, 143029.89, -106056.1, -62453.35, 0.03940537, 0.1582401, 157811.63, 203735.94, 0.0006294966, 10.00193, 9.998652 
1.4850725e+3, 3.0531397e+2, 282426.13, -62957.72, 16793.746, 0.009625596, 0.110238016, 283240.78, 283240.78, 0.0015962292, 10.002773, 9.998217 
1.4850757e+3, 3.1531432e+2, 365288.63, -50728.02, -53507.91, -0.18426678, 0.2790155, 372060.56, 372060.56, 0.0030239006, 10.003425, 9.99798 
1.4949913e+3, 1.2531775e+2, -2213071.8, -1677725.5, -155323.73, 0.0029760236, 0.18697532, -1635924.3, 75988.555, 0.014485426, 9.995307, 10.002519 
1.4949943e+3, 1.3532044e+2, -1799653.9, -1490632.3, -23266.05, -0.17117083, 0.24475197, -1488890.4, 124990.96, 0.008627366, 9.997803, 10.001919 
1.4950022e+3, 1.4532235e+2, -1674125.0, -1597291.6, -4937.8696, 0.068295754, 0.3470262, -1596975.6, -81112.38, 0.0037456865, 9.998908, 9.999975 
1.4950076e+3, 1.5532245e+2, -1571314.1, -1485710.0, -9612.285, -0.018400162, 0.32726905, -1484643.9, -66775.87, 0.0009542572, 9.998916, 10.000055 
1.4950112e+3, 1.6532268e+2, -1381045.8, -1253493.3, -128275.21, -0.1119884, 0.30843347, -1174014.6, 145850.19, 0.00008722728, 9.999166, 10.000851 
1.4950137e+3, 1.7532259e+2, -1221938.3, -1123385.4, -81794.98, -0.1603848, 0.18443464, -1077170.5, 144688.14, 0.0000004647829, 9.99958, 10.000873 
1.4950188e+3, 1.8532246e+2, -1173530.9, -1223663.8, 15992.638, -0.09988069, 0.16922672, -1168863.6, -45005.984, 0.0, 9.999964, 9.999339 
1.4950264e+3, 1.9532228e+2, -1026428.8, -1087394.6, -641.34717, 0.055474423, 0.1841392, -1026422.06, -560.6376, 0.0, 10.000249, 9.999456 
1.4950304e+3, 2.0532212e+2, -925962.0, -946280.8, -135928.83, 0.0604742, 0.20748669, -799813.44, 128050.086, 0.0, 10.000081, 9.999835 
1.4950314e+3, 2.1532185e+2, -909727.1, -877593.56, -65581.26, -0.053133246, 0.16399774, -826139.6, 3725.6426, 0.0, 9.999488, 9.999916 
1.4950345e+3, 2.2532162e+2, -840918.56, -897499.94, 44098.965, -0.09544769, 0.2025892, -816815.7, -84947.89, 0.0, 9.999718, 9.999005 
1.4950396e+3, 2.3532134e+2, -594142.5, -715292.75, 40202.836, -0.074648775, 0.24112958, -582015.4, 51856.367, 0.0, 10.000693, 9.999109 
1.4950453e+3, 2.4532028e+2, -407119.1, -599871.06, 30389.678, -0.02033959, 0.2411417, -402441.3, 133438.94, 0.0, 10.0014105, 9.998883 
1.4950511e+3, 2.5531837e+2, -226024.72, -457636.94, 56376.348, 0.069189906, 0.12611523, -213031.19, 224863.0, 0.00000015644366, 10.001967, 9.998918 
1.4950559e+3, 2.6531637e+2, -290531.22, -632459.0, 37022.47, 0.024559662, 0.1302455, -286568.5, 53347.47, 0.000006865855, 10.001694, 9.99717 
1.4950591e+3, 2.753142e+2, -314856.84, -577288.06, 15454.231, -0.13334036, 0.1641496, -313949.88, -72004.3, 0.00004412461, 10.000792, 9.997309 
1.4950636e+3, 2.8531304e+2, -119211.84, -294871.84, -25296.586, -0.18203197, 0.2608341, -115641.484, 28318.021, 0.00019465707, 10.000855, 9.9985485 
1.4950687e+3, 2.9531273e+2, 119713.766, -116451.125, -6922.4014, -0.12626588, 0.3322566, 119916.5, 165876.34, 0.00068026775, 10.001765, 9.998662 
1.495074e+3, 3.0530965e+2, 270631.03, -40577.05, 32916.19, -0.132735, 0.17655928, 274074.47, 274074.47, 0.0016995047, 10.002584, 9.998454 
1.4950794e+3, 3.1530875e+2, 353231.44, -1923.9918, 7000.8706, -0.19916025, 0.19673946, 353369.38, 353369.38, 0.0031810992, 10.003123, 9.998455 
1.504988e+3, 1.2531261e+2, -1843653.3, -1573608.4, -137855.63, 0.0066997707, 0.20534919, -1515666.5, 196295.53, 0.015336173, 9.998178, 10.001843 
1.504993e+3, 1.3531433e+2, -1775280.9, -1546098.3, 7848.1284, -0.079797305, 0.21846895, -1545829.9, 68111.15, 0.0091627855, 9.998253, 10.00132 
1.505e+3, 1.453159e+2, -1822890.4, -1631522.3, 12709.408, 0.012790006, 0.30038342, -1630681.9, -114755.45, 0.0040015904, 9.997748, 10.00029 
1.5050063e+3, 1.5531626e+2, -1800996.4, -1556245.6, 36512.96, 0.054455865, 0.27149513, -1550914.6, -132986.69, 0.001031135, 9.997173, 10.00041 
1.5050101e+3, 1.6531694e+2, -1567258.8, -1326823.8, -1571.5853, -0.046566226, 0.27305055, -1326813.5, -6893.5244, 0.000096309515, 9.997794, 10.00102 
1.5050125e+3, 1.7531747e+2, -1187378.8, -1083479.0, -26574.559, -0.23214906, 0.18858922, -1077076.5, 144831.45, 0.000000575819, 9.999698, 10.001093 
1.5050179e+3, 1.8531752e+2, -1159241.3, -1204801.8, 48046.293, -0.18406409, 0.17603095, -1128848.3, -4942.551, 0.0, 10.000029, 9.999425 
1.5050259e+3, 1.953172e+2, -1181479.8, -1146836.5, 63783.95, 0.049706534, 0.16773635, -1098064.0, -72152.04, 0.0, 9.999134, 9.999575 
1.5050304e+3, 2.0531735e+2, -1016169.1, -963157.6, -47872.566, 0.10468108, 0.20455223, -934942.8, -7031.7783, 0.0, 9.999362, 10.000064 
1.505032e+3, 2.1531779e+2, -720643.6, -765617.9, -95228.7, 0.003194837, 0.21050186, -645283.0, 184622.16, 0.0, 10.000698, 10.000105 
1.5050356e+3, 2.2531721e+2, -645764.6, -859135.94, -7187.4395, -0.031356115, 0.2340875, -645522.75, 86388.37, 0.0, 10.001321, 9.998484 
1.5050413e+3, 2.3531573e+2, -532014.94, -740606.9, -44131.766, -0.016019354, 0.20177425, -523062.22, 110865.836, 0.0, 10.0013685, 9.998601 
1.505047e+3, 2.4531448e+2, -442610.75, -619697.9, -64897.047, 0.015866686, 0.21227208, -421374.56, 114564.664, 0.0, 10.001184, 9.998851 
1.5050523e+3, 2.5531346e+2, -392028.66, -536114.1, -94799.65, 0.056087036, 0.18812786, -345003.63, 92942.164, 0.00000020302433, 10.0008335, 9.998914 
1.505057e+3, 2.653116e+2, -370418.16, -653919.25, -73725.44, 0.01664244, 0.19923043, -352391.8, -12425.457, 0.0000077496, 10.001078, 9.997316 
1.505061e+3, 2.7530888e+2, -141872.06, -479504.47, -43232.64, -0.092588134, 0.16345602, -136424.19, 105576.36, 0.000048509926, 10.001903, 9.99745 
1.5050653e+3, 2.853078e+2, 41972.367, -227278.36, -19688.475, -0.15050837, 0.26845208, 43404.438, 187417.39, 0.00020995413, 10.002016, 9.99845 
1.50507e+3, 2.953082e+2, 94040.555, -132863.02, -46212.957, -0.15875658, 0.41881418, 103091.61, 149097.78, 0.0007218437, 10.001631, 9.998601 
1.505076e+3, 3.0530453e+2, 135848.63, -154730.56, 3874.5886, -0.15415733, 0.22776029, 135900.27, 135900.27, 0.0017668722, 10.001848, 9.998038 
1.505083e+3, 3.1530306e+2, 237446.63, -55787.043, -104064.74, -0.09956006, 0.24116871, 270624.03, 270624.03, 0.0032563144, 10.002293, 9.998503 
1.5149842e+3, 1.2530896e+2, -1896926.0, -1717707.1, -103600.69, -0.24335119, 0.34017324, -1670338.8, 41658.664, 0.016257107, 9.998315, 10.000784 
1.5149945e+3, 1.3530828e+2, -1837330.5, -1659720.6, 24995.03, 0.2107442, 0.17641418, -1656270.0, -42268.367, 0.009740974, 9.998206, 10.000554 
1.5149981e+3, 1.4530888e+2, -1749899.0, -1503485.8, -27412.96, 0.010754288, 0.16650194, -1500472.9, 15521.114, 0.0042781597, 9.997833, 10.001134 
1.5150031e+3, 1.5531e+2, -1734310.3, -1419284.1, 27204.865, 0.013260621, 0.11709989, -1416952.0, 1030.4305, 0.0011151112, 9.997174, 10.001349 
1.5150082e+3, 1.6531129e+2, -1584077.6, -1378187.4, 54010.43, -0.055963706, 0.15328652, -1364879.3, -44911.203, 0.000106548556, 9.997857, 10.000639 
1.5150133e+3, 1.7531231e+2, -1214294.4, -1136710.0, 50391.984, -0.14869809, 0.15406738, -1111908.4, 110047.14, 0.0000007145684, 9.999681, 10.000738 
1.5150185e+3, 1.8531297e+2, -1098811.8, -1085536.3, 2065.084, -0.16773784, 0.17675689, -1085222.4, 38726.52, 0.0, 10.000049, 10.000237 
1.5150234e+3, 1.9531333e+2, -1136468.3, -1041699.6, 40809.77, -0.13474837, 0.15668067, -1026548.25, -600.8331, 0.0, 9.9990835, 10.000321 
1.5150285e+3, 2.0531356e+2, -1100989.1, -1122115.6, -12502.379, -0.05682219, 0.22005053, -1095185.0, -167238.34, 0.0, 9.999283, 9.999015 
1.5150334e+3, 2.1531357e+2, -813671.56, -925437.5, -37315.406, 0.074150376, 0.28678393, -802358.2, 27589.457, 0.0, 10.00055, 9.999082 
1.5150386e+3, 2.2531195e+2, -715163.2, -962879.44, -15327.44, 0.11411436, 0.2872626, -714218.4, 17746.803, 0.0, 10.001145, 9.997858 
1.5150437e+3, 2.3530887e+2, -598731.75, -845116.5, -30040.963, 0.07973174, 0.16124815, -595121.9, 38875.926, 0.0, 10.001223, 9.997954 
1.5150486e+3, 2.4530758e+2, -494980.47, -696919.2, -90369.29, 0.050888773, 0.22163944, -460445.5, 75567.29, 0.0, 10.001041, 9.998394 
1.515053e+3, 2.5530785e+2, -439126.06, -604435.7, -95209.86, 0.034013886, 0.3736556, -395698.63, 42314.168, 0.00000026346208, 10.000701, 9.998512 
1.5150578e+3, 2.6530662e+2, -313455.22, -502631.88, -51106.895, -0.020757085, 0.41038832, -300531.38, 39494.98, 0.000008336701, 10.000934, 9.998427 
1.5150629e+3, 2.7530408e+2, -90203.836, -333742.22, 2208.2485, -0.10669172, 0.276628, -90183.81, 151867.98, 0.00005112129, 10.001747, 9.998523 
1.5150674e+3, 2.8530273e+2, 686.7877, -286851.2, -45857.133, -0.16112559, 0.32011876, 7823.063, 151886.67, 0.00022272031, 10.001889, 9.998105 
1.5150718e+3, 2.953024e+2, 45452.35, -200429.36, -42069.832, -0.1732345, 0.4275443, 52451.19, 98515.336, 0.000756888, 10.001481, 9.998208 
1.515078e+3, 3.052984e+2, 31972.916, -312421.94, 12082.741, -0.16611129, 0.27431387, 32396.305, 32396.305, 0.0018087787, 10.001626, 9.997048 
1.515086e+3, 3.1529728e+2, 166333.27, -105385.46, -56384.58, -0.0827021, 0.40987453, 177569.06, 177569.06, 0.0032696738, 10.001925, 9.998312 
1.5249836e+3, 1.253047e+2, -1742766.3, -1697281.9, 64095.51, -0.19366033, 0.30847475, -1652013.5, 60021.31, 0.017244658, 9.999634, 10.00028 
1.5249935e+3, 1.3530365e+2, -2006601.3, -1820357.5, 42665.336, 0.3475603, 0.17351831, -1811048.9, -197002.77, 0.010359608, 9.997379, 9.999854 
1.5249954e+3, 1.4530373e+2, -1869257.0, -1542466.3, 75227.68, 0.014592668, 0.14209415, -1525980.4, -9936.693, 0.0045741852, 9.996952, 10.001283 
1.5250014e+3, 1.5530498e+2, -1438273.4, -1249293.5, 48628.75, 0.019858396, 0.07958472, -1237514.4, 180513.53, 0.0012060112, 9.999088, 10.001592 
1.5250072e+3, 1.6530627e+2, -1378590.1, -1292961.0, 69344.336, -0.006775185, 0.112617545, -1254278.8, 65734.56, 0.000118081814, 9.999364, 10.00049 
1.525013e+3, 1.7530742e+2, -1429931.9, -1251502.8, 55593.7, -0.06585795, 0.14320119, -1235598.9, -13597.241, 0.0000008766353, 9.998281, 10.00062 
1.5250179e+3, 1.8530817e+2, -1364686.1, -1217705.6, -9973.077, -0.114916496, 0.18382894, -1217032.0, -93036.48, 0.0, 9.998242, 10.000207 
1.5250222e+3, 1.9530858e+2, -1105008.0, -1034931.6, -55155.016, -0.17030887, 0.17277528, -1004626.5, 21367.785, 0.0, 9.999325, 10.000263 
1.5250278e+3, 2.0530857e+2, -954229.5, -1071057.5, -42500.74, -0.10399583, 0.22698538, -940404.25, -12408.694, 0.0, 10.000356, 9.998847 
1.5250343e+3, 2.1530822e+2, -707878.4, -889455.8, -24405.64, 0.06629441, 0.26759908, -704655.25, 125344.23, 0.0, 10.001332, 9.998945 
1.52504e+3, 2.2530647e+2, -652345.7, -945343.2, 26791.117, 0.11255462, 0.26737964, -649916.1, 82101.72, 0.0, 10.001618, 9.997757 
1.5250447e+3, 2.3530349e+2, -592615.5, -852619.0, 33855.195, 0.048137803, 0.16153948, -588279.5, 45769.97, 0.0, 10.001305, 9.997867 
1.5250495e+3, 2.4530214e+2, -461329.13, -725384.8, 26571.965, 0.027073285, 0.23791367, -458681.72, 77385.47, 0.0, 10.001481, 9.997976 
1.5250546e+3, 2.553021e+2, -254771.56, -559472.56, 274.41223, 0.041669074, 0.40240014, -254771.31, 183302.23, 0.0000003530132, 10.002157, 9.9981165 
1.5250596e+3, 2.6530102e+2, -121142.734, -374266.6, 31393.963, 0.0009058914, 0.4567793, -117307.19, 222778.9, 0.000008619123, 10.002097, 9.99875 
1.5250644e+3, 2.75299e+2, -116084.67, -307109.28, -761.9187, -0.0944403, 0.34484512, -116081.63, 126022.555, 0.000051931653, 10.001409, 9.998862 
1.5250693e+3, 2.8529742e+2, -59384.875, -336697.88, -39599.496, -0.13895944, 0.35419002, -53841.01, 90276.48, 0.00023518385, 10.001574, 9.997919 
1.5250741e+3, 2.9529604e+2, 181577.28, -162131.39, -50938.16, -0.13764705, 0.38165662, 188967.5, 235095.56, 0.0007914608, 10.002522, 9.997984 
1.5250802e+3, 3.052922e+2, 116179.3, -352324.03, 27459.004, -0.12637416, 0.28919262, 117783.18, 117783.18, 0.001844471, 10.0025215, 9.996362 
1.5250881e+3, 3.1529135e+2, 90479.36, -175327.11, -70948.38, -0.016509347, 0.52726024, 108231.17, 108231.17, 0.0032658095, 10.00148, 9.998077 
1.5349877e+3, 1.2529966e+2, -1742214.1, -1703675.8, 121826.49, 0.17917916, 0.09046393, -1599604.0, 112471.766, 0.018294634, 9.99967, 10.000218 
1.5349899e+3, 1.353007e+2, -2045214.9, -1901590.4, -45472.52, 0.2130819, 0.22379993, -1888404.1, -274332.22, 0.011016667, 9.997387, 9.999291 
1.5349919e+3, 1.4530084e+2, -1889221.5, -1613273.4, 133269.28, -0.081411146, 0.2548781, -1559420.5, -43349.023, 0.0048880493, 9.997066, 10.000752 
1.5350002e+3, 1.5530144e+2, -1478440.3, -1318048.8, 132031.03, -0.018365989, 0.17627598, -1243766.3, 174296.13, 0.0013030368, 9.999035, 10.001147 
1.5350069e+3, 1.6530213e+2, -1366785.0, -1284208.0, 12446.008, 0.0038708642, 0.16792211, -1282372.9, 37680.7, 0.00013086536, 9.999419, 10.000529 
1.5350115e+3, 1.753029e+2, -1432153.3, -1255188.5, 25136.883, -0.06683936, 0.15951754, -1251687.1, -29641.62, 0.0000010420176, 9.998276, 10.000598 
1.5350163e+3, 1.8530318e+2, -1423243.3, -1350202.1, 16889.75, -0.1261661, 0.20367843, -1346485.8, -222440.72, 0.0, 9.998283, 9.999279 
1.535022e+3, 1.9530293e+2, -1169755.4, -1160408.5, -6823.6987, -0.14726263, 0.21750079, -1156811.3, -130758.96, 0.0, 9.999283, 9.999422 
1.5350279e+3, 2.0530245e+2, -920477.1, -971137.25, -15197.577, -0.13887194, 0.22315691, -916267.75, 11789.6045, 0.0, 10.000233, 9.99959 
1.535034e+3, 2.1530168e+2, -682407.06, -798432.6, 20931.834, -0.108671255, 0.15379584, -678746.3, 151314.44, 0.0, 10.001169, 9.999648 
1.5350392e+3, 2.2530074e+2, -645160.25, -889832.75, 3010.255, -0.13180828, 0.17527425, -645123.2, 86946.266, 0.0, 10.001439, 9.998226 
1.5350437e+3, 2.3529957e+2, -580182.1, -794051.6, 35594.79, -0.18945718, 0.20103806, -574413.6, 59669.945, 0.0, 10.00116, 9.998341 
1.5350494e+3, 2.4529803e+2, -519131.6, -800114.25, 42211.555, -0.15203342, 0.25900495, -512927.22, 23176.195, 0.0, 10.001293, 9.99755 
1.5350564e+3, 2.5529617e+2, -310432.7, -636526.94, 36542.348, -0.01470858, 0.2799526, -306387.9, 131740.58, 0.0000004707298, 10.002002, 9.997658 
1.5350616e+3, 2.6529476e+2, -172296.7, -451710.88, -7837.339, -0.023212818, 0.34850436, -172077.05, 168069.03, 0.0000086272985, 10.001967, 9.9982815 
1.5350655e+3, 2.752937e+2, -165516.84, -381294.3, -15657.867, -0.1592536, 0.37774834, -164386.56, 77771.34, 0.000052741245, 10.001287, 9.998411 
1.5350705e+3, 2.852918e+2, -86670.28, -361665.47, -14111.776, -0.19759709, 0.37884793, -85948.016, 58227.82, 0.00024875673, 10.001428, 9.997824 
1.5350766e+3, 2.9528904e+2, 151908.08, -191740.27, 1607.5011, -0.15392612, 0.27685893, 151915.6, 198114.8, 0.0008280687, 10.002383, 9.997848 
1.5350828e+3, 3.0528584e+2, 55685.03, -433269.34, -21923.887, -0.14265116, 0.287504, 56666.094, 56666.094, 0.001889822, 10.002342, 9.995884 
1.5350892e+3, 3.1528527e+2, 30580.418, -208679.36, -73533.22, -0.10642799, 0.5868772, 51372.91, 51372.91, 0.003290945, 10.001128, 9.997997 
1.5449871e+3, 1.2529445e+2, -2309356.0, -1936763.9, 64507.46, 0.3865273, 0.067810625, -1925911.8, -213784.08, 0.019406972, 9.995607, 10.000563 
1.5449871e+3, 1.3529561e+2, -1636749.1, -1647127.6, -112216.58, 0.07490777, 0.16186985, -1529601.9, 84518.95, 0.0117135905, 9.999926, 9.999815 
1.544991e+3, 1.4529635e+2, -1434912.1, -1441756.4, 113262.68, -0.034803186, 0.24335384, -1325019.9, 191094.8, 0.0052204016, 10.000395, 10.000328 
1.544999e+3, 1.5529685e+2, -1605686.4, -1435343.8, 94277.63, -0.0070537115, 0.20333023, -1393462.3, 24645.715, 0.0014059248, 9.998374, 10.000676 
1.5450057e+3, 1.6529717e+2, -1576274.9, -1403353.8, -1287.5969, 0.014352759, 0.19051166, -1403344.3, -83240.88, 0.00014487762, 9.998071, 10.000347 
1.5450108e+3, 1.7529747e+2, -1264183.0, -1196638.5, -25635.346, -0.016066058, 0.1511931, -1188011.1, 34088.465, 0.000001197513, 9.999512, 10.0004 
1.5450162e+3, 1.8529746e+2, -1174315.1, -1235862.8, 25985.867, -0.06357417, 0.1784144, -1164811.3, -40710.016, 0.0, 10.00003, 9.999215 
1.5450218e+3, 1.9529717e+2, -1082001.8, -1120752.1, 46484.926, -0.11579595, 0.19232972, -1051015.8, -24907.967, 0.0, 9.99991, 9.999388 
1.545028e+3, 2.0529665e+2, -966732.06, -980436.25, 64852.36, -0.13201989, 0.18943805, -908370.8, 19741.604, 0.0, 9.999877, 9.999698 
1.5450345e+3, 2.152959e+2, -849889.25, -866214.3, 30566.77, -0.12444211, 0.114324644, -826413.94, 3701.3105, 0.0, 9.999982, 9.999754 
1.54504e+3, 2.2529514e+2, -797805.5, -940346.56, -14161.706, -0.13567223, 0.13844873, -796412.1, -64289.84, 0.0, 10.000304, 9.99842 
1.5450448e+3, 2.352943e+2, -613813.0, -785994.06, -31838.96, -0.16928262, 0.17749266, -608114.1, 26019.57, 0.0, 10.000841, 9.998543 
1.5450507e+3, 2.4529296e+2, -507829.25, -766542.4, 25128.883, -0.13867159, 0.23488681, -505411.06, 30739.771, 0.000000000009610117, 10.00123, 9.997825 
1.5450577e+3, 2.552912e+2, -365934.25, -634746.0, 53894.688, -0.04627953, 0.24146563, -355531.34, 82642.2, 0.0000005675007, 10.001486, 9.9979315 
1.5450631e+3, 2.6528987e+2, -250253.11, -524507.25, 33611.24, -0.046789326, 0.32030788, -246193.95, 93997.016, 0.000008574752, 10.001594, 9.997963 
1.545067e+3, 2.752888e+2, -139630.64, -412288.4, 11800.614, -0.14685878, 0.3834744, -139120.88, 103084.34, 0.00005426492, 10.001636, 9.998045 
1.5450725e+3, 2.8528678e+2, 4848.3975, -304887.56, 84918.266, -0.16506499, 0.3919829, 26602.057, 170826.97, 0.00026286932, 10.002027, 9.997904 
1.5450795e+3, 2.95284e+2, 207769.97, -159215.45, 81654.48, -0.12642051, 0.28017265, 225118.06, 271367.28, 0.0008684361, 10.002757, 9.997878 
1.5450856e+3, 3.0528134e+2, 213258.25, -310129.28, 78246.484, -0.13469224, 0.31978223, 224705.73, 224705.73, 0.0019566913, 10.00322, 9.996312 
1.5450911e+3, 3.152801e+2, 376956.03, -11214.69, 40267.715, -0.12433875, 0.51952076, 381089.28, 381089.28, 0.0033753177, 10.003359, 9.998297 
1.5549815e+3, 1.2528962e+2, -2238994.0, -1818010.4, 72325.07, 0.18798706, 0.31411657, -1805931.5, -93746.33, 0.020587768, 9.995714, 10.001333 
1.5549845e+3, 1.352884e+2, -1519721.1, -1388262.8, 28467.332, -0.18966211, 0.0032465244, -1382362.9, 231830.13, 0.012455585, 9.99986, 10.00164 
1.5549925e+3, 1.4529017e+2, -1443522.9, -1472148.4, 15631.893, 0.04650215, 0.099202655, -1436641.0, 79533.19, 0.0055746003, 10.000439, 10.000099 
1.5549973e+3, 1.5529138e+2, -1638948.4, -1499004.4, 32616.82, -0.047402732, 0.17233282, -1491775.8, -73612.95, 0.001515748, 9.9983635, 10.000238 
1.5550032e+3, 1.6529167e+2, -1589894.4, -1452343.5, 40092.215, -0.07880023, 0.19898394, -1441510.8, -121351.03, 0.00016035176, 9.998149, 9.99998 
1.5550107e+3, 1.7529126e+2, -1288978.3, -1241945.9, 32745.816, 0.009075846, 0.12451052, -1225147.1, -2984.0422, 0.0000013687348, 9.999487, 10.000102 
1.5550168e+3, 1.852912e+2, -1118064.3, -1118258.0, 9480.238, -0.01766641, 0.11754874, -1108680.4, 15482.328, 0.0, 10.000027, 10.000024 
1.5550216e+3, 1.9529134e+2, -1041013.06, -1018709.4, 51793.62, -0.1653844, 0.09719702, -976880.6, 49279.582, 0.0, 9.999843, 10.000118 
1.5550275e+3, 2.0529123e+2, -1013529.9, -1065512.6, 56044.434, -0.18214932, 0.12981603, -977743.2, -49582.81, 0.0, 9.999812, 9.999152 
1.5550351e+3, 2.1529087e+2, -901477.4, -949972.5, 44801.77, -0.06542738, 0.14813502, -874782.4, -44619.598, 0.0, 9.999867, 9.999243 
1.5550418e+3, 2.2528964e+2, -833383.7, -977315.56, -3714.571, -0.004076817, 0.1581184, -833287.94, -101111.57, 0.0, 10.000145, 9.998243 
1.5550476e+3, 2.3528755e+2, -645189.6, -821543.56, -535.33826, 0.012405384, 0.09203082, -645188.0, -10987.563, 0.0, 10.0007105, 9.9983635 
1.5550531e+3, 2.4528684e+2, -460633.84, -631056.3, 25290.006, -0.04082824, 0.16555451, -456960.1, 79250.34, 0.0, 10.001067, 9.998834 
1.5550585e+3, 2.5528726e+2, -316181.56, -498632.9, 73998.32, -0.1378976, 0.2877779, -289942.88, 148265.67, 0.0000005355393, 10.001346, 9.998934 
1.5550637e+3, 2.6528636e+2, -290036.6, -574263.75, 27168.47, -0.16943777, 0.3727709, -287462.94, 52758.004, 0.000008556659, 10.00145, 9.99769 
1.5550688e+3, 2.7528423e+2, -179249.42, -463786.44, 30094.863, -0.13954677, 0.35807672, -176101.19, 66145.055, 0.000056489618, 10.001507, 9.997749 
1.555075e+3, 2.8528243e+2, -8860.597, -300035.5, 103329.81, -0.13730612, 0.3957302, 24081.377, 168346.77, 0.00027893353, 10.001883, 9.998007 
1.5550822e+3, 2.9528084e+2, 197799.2, -138730.5, 123725.26, -0.16064982, 0.38661355, 238390.75, 284670.06, 0.00091525615, 10.002588, 9.9980955 
1.5550882e+3, 3.052786e+2, 254011.31, -161748.95, 71692.14, -0.2159367, 0.395663, 266026.4, 266026.4, 0.0020505092, 10.002976, 9.997436 
1.5550935e+3, 3.1527555e+2, 365751.0, 76361.34, 76634.55, -0.24857286, 0.29503724, 384792.06, 384792.06, 0.0035280038, 10.002939, 9.999076 
1.5649796e+3, 1.2528549e+2, -1735892.1, -1585716.1, 189653.47, 0.27263683, 0.40567446, -1456827.1, 255402.2, 0.021849003, 9.999229, 10.001261 
1.5649828e+3, 1.3528447e+2, -1902027.1, -1525851.4, 122553.66, -0.19870508, 0.08079857, -1489447.6, 124786.04, 0.013250772, 9.997026, 10.002068 
1.5649916e+3, 1.4528587e+2, -1903857.6, -1694581.8, 58405.18, 0.07497736, 0.116352715, -1679385.4, -163168.05, 0.0059556314, 9.997295, 10.000083 
1.5649961e+3, 1.5528686e+2, -1441772.3, -1417277.4, 72385.89, -0.06394488, 0.17672096, -1356110.1, 62097.54, 0.0016345053, 9.9997835, 10.000108 
1.565002e+3, 1.6528685e+2, -1309444.1, -1364191.4, 111606.06, -0.11260437, 0.2000177, -1221903.8, 98303.76, 0.00017771397, 10.000273, 9.99957 
1.5650102e+3, 1.7528602e+2, -1345352.9, -1313573.6, 83098.38, 0.024744844, 0.12787506, -1244859.4, -22644.396, 0.0000016137079, 9.999279, 9.999721 
1.5650168e+3, 1.8528573e+2, -1244122.8, -1197181.0, 47740.863, 0.029414177, 0.124203466, -1167453.5, -43236.664, 0.0, 9.999237, 9.999862 
1.5650217e+3, 1.9528584e+2, -996073.5, -1018498.0, -895.6645, -0.13709222, 0.115915544, -996037.75, 30176.666, 0.0, 10.000231, 9.999937 
1.5650281e+3, 2.0528564e+2, -902844.6, -1026835.6, -9653.787, -0.15240526, 0.15608819, -902097.5, 26118.383, 0.0, 10.000652, 9.998999 
1.5650357e+3, 2.152852e+2, -779375.1, -900588.06, -12142.899, -0.024126032, 0.1785947, -778170.6, 52049.504, 0.0, 10.0007715, 9.999129 
1.5650427e+3, 2.2528403e+2, -736411.5, -906868.44, -7921.6772, 0.046324678, 0.18747166, -736044.1, -3811.0437, 0.0, 10.000699, 9.998461 
1.5650487e+3, 2.3528208e+2, -667612.8, -806276.9, 9134.66, 0.06330408, 0.11107839, -667013.6, -32758.87, 0.0, 10.000431, 9.998602 
1.565054e+3, 2.4528134e+2, -558296.75, -651382.94, 37880.59, -0.0054226294, 0.15975654, -544829.8, -8566.375, 0.0, 10.000277, 9.999078 
1.565059e+3, 2.552817e+2, -456748.63, -537772.0, 7647.1436, -0.15934098, 0.2514252, -456033.22, -17772.525, 0.00000039469393, 10.000258, 9.999185 
1.5650648e+3, 2.6528063e+2, -327097.13, -600849.8, -13801.289, -0.17860854, 0.3129758, -326403.1, 13870.502, 0.000008163994, 10.001241, 9.997604 
1.5650716e+3, 2.7527818e+2, 44775.813, -363114.97, -23830.402, -0.08213248, 0.27450708, 46163.348, 288465.03, 0.000058543963, 10.003087, 9.997672 
1.565078e+3, 2.8527632e+2, 169251.61, -227821.1, 21993.746, -0.08175652, 0.32118955, 170466.13, 314788.2, 0.00029613846, 10.003159, 9.997904 
1.5650842e+3, 2.952751e+2, 59503.527, -218377.16, -7297.929, -0.17046632, 0.36341107, 59695.06, 106030.42, 0.00096595153, 10.001678, 9.998002 
1.56509e+3, 3.0527344e+2, 95425.83, -161824.9, -23949.994, -0.23694171, 0.39957067, 97636.57, 97636.57, 0.0021626693, 10.00152, 9.998138 
1.5650967e+3, 3.1527087e+2, 315323.2, 74282.75, -94701.23, -0.1964065, 0.28277707, 348078.7, 348078.7, 0.0037320128, 10.0024185, 9.999336 
1.5749793e+3, 1.252815e+2, -1782007.6, -1706478.8, -42811.977, 0.2599162, 0.26366463, -1687155.4, 25109.895, 0.023204513, 9.999314, 10.000379 
1.5749815e+3, 1.352845e+2, -1981750.3, -1683241.3, 58175.63, -0.041032393, 0.44636786, -1672304.4, -58068.313, 0.014108494, 9.997012, 10.000976 
1.5749879e+3, 1.4528388e+2, -1874914.1, -1666348.6, 138484.88, -0.054549262, 0.32559344, -1597273.5, -81033.266, 0.0063687824, 9.9974165, 10.000227 
1.5749954e+3, 1.552833e+2, -1437346.1, -1403863.8, 167657.56, -0.13310015, 0.21936698, -1252113.6, 166128.55, 0.00176415, 9.999765, 10.000213 
1.5750018e+3, 1.652827e+2, -1331707.0, -1420663.3, 59085.125, -0.18577006, 0.19889913, -1302230.0, 18016.377, 0.00019721544, 10.000311, 9.999165 
1.575009e+3, 1.7528188e+2, -1379257.4, -1380751.8, 56972.203, -0.059945714, 0.16512771, -1323027.4, -100772.8, 0.0000019795527, 9.999267, 9.999264 
1.575016e+3, 1.8528123e+2, -1311977.6, -1352693.6, 73546.37, -0.025167592, 0.20520373, -1256023.6, -131761.28, 0.0, 9.99929, 9.998773 
1.5750223e+3, 1.9528079e+2, -1080286.6, -1179954.8, 43317.27, -0.11363263, 0.25370535, -1064091.8, -37822.406, 0.0, 10.000172, 9.99886 
1.575029e+3, 2.0528002e+2, -900130.1, -1003953.0, -14960.996, -0.14075308, 0.27751938, -898017.25, 30260.422, 0.0, 10.000571, 9.999195 
1.5750362e+3, 2.1527885e+2, -787331.6, -884656.7, 898.3147, -0.08837309, 0.20870163, -787323.3, 42964.203, 0.0, 10.000631, 9.999305 
1.5750423e+3, 2.2527815e+2, -709109.6, -815706.75, -25567.273, -0.07771673, 0.22121224, -703294.56, 28999.102, 0.0, 10.000547, 9.999159 
1.5750477e+3, 2.3527777e+2, -644297.6, -722018.25, 7984.1064, -0.09977358, 0.23181212, -643485.9, -9188.672, 0.0, 10.0002775, 9.999254 
1.5750533e+3, 2.4527657e+2, -622358.94, -745195.2, 26960.227, -0.13458343, 0.2285745, -616702.2, -80392.88, 0.0, 10.000105, 9.998515 
1.5750591e+3, 2.5527456e+2, -514940.47, -631754.0, 18994.475, -0.18372893, 0.13981976, -511929.5, -73600.12, 0.00000029448665, 10.000138, 9.998596 
1.5750666e+3, 2.6527268e+2, -347366.06, -611564.9, 48930.37, -0.15861437, 0.14734392, -338595.2, 1754.0752, 0.000007127328, 10.001102, 9.9976 
1.5750751e+3, 2.752706e+2, 27379.172, -365299.7, 56882.227, -0.06988757, 0.14254218, 35452.95, 277824.3, 0.000059012113, 10.002943, 9.997726 
1.5750812e+3, 2.8526852e+2, 119294.734, -304708.78, -44840.59, -0.10739373, 0.18388243, 123984.984, 268379.94, 0.00030982727, 10.003033, 9.997438 
1.5750852e+3, 2.9526675e+2, 3251.5176, -301039.47, -40823.773, -0.25240904, 0.21928902, 8633.266, 55050.117, 0.0010138974, 10.001526, 9.99751 
1.5750909e+3, 3.0526584e+2, 84647.85, -123800.92, 4606.37, -0.31877062, 0.3385143, 84749.59, 84749.59, 0.0022779866, 10.001294, 9.998487 
1.5750997e+3, 3.1526613e+2, 247713.61, 39939.242, -28752.377, -0.17864914, 0.46228778, 251619.03, 251619.03, 0.003951804, 10.00201, 9.999266 
1.5849765e+3, 1.2527534e+2, -2182927.0, -1885706.5, -197549.17, 0.1939627, 0.1591719, -1787111.0, -74785.484, 0.024665277, 9.996512, 10.000487 
1.5849814e+3, 1.3527942e+2, -1649650.0, -1590492.1, -75573.79, 0.108012415, 0.5063383, -1538915.0, 75371.09, 0.0150364665, 9.999578, 10.000375 
1.5849864e+3, 1.4527793e+2, -1501542.4, -1500715.9, 19016.639, -0.06599602, 0.33651695, -1482108.0, 34191.184, 0.0068181083, 10.000055, 10.000082 
1.5849943e+3, 1.5527675e+2, -1686367.4, -1540661.6, -1920.4937, -0.11824124, 0.18617848, -1540636.4, -122328.65, 0.0019058621, 9.998122, 10.000065 
1.5850013e+3, 1.6527636e+2, -1617944.8, -1527580.3, -60074.707, -0.15957995, 0.1818139, -1497593.3, -177283.34, 0.0002187055, 9.998222, 9.99943 
1.5850088e+3, 1.7527643e+2, -1185920.1, -1252157.1, -32829.363, -0.05076455, 0.20688999, -1172406.0, 49903.46, 0.000002466339, 10.000462, 9.999558 
1.5850161e+3, 1.8527581e+2, -1083960.5, -1277115.9, 39740.99, -0.012606539, 0.24985507, -1076103.5, 48213.414, 0.0, 10.001014, 9.998459 
1.5850227e+3, 1.952746e+2, -1085109.3, -1210942.1, 48347.555, -0.10060584, 0.25475284, -1068678.6, -42347.66, 0.0, 10.000267, 9.998595 
1.5850294e+3, 2.0527355e+2, -990135.9, -1034341.25, 36974.402, -0.119974025, 0.25718436, -969161.5, -40819.86, 0.0, 9.999883, 9.9993305 
1.5850368e+3, 2.1527249e+2, -881626.8, -918908.56, 30984.682, -0.051652484, 0.1841536, -864107.9, -33757.152, 0.0, 9.999902, 9.99944 
1.5850426e+3, 2.2527204e+2, -772411.1, -819808.9, 5359.371, -0.07409691, 0.2056523, -771812.7, -39458.914, 0.0, 10.000016, 9.999392 
1.5850471e+3, 2.3527221e+2, -608757.8, -682666.75, -18150.896, -0.19038442, 0.25203696, -604540.8, 29810.346, 0.0, 10.00043, 9.999463 
1.585053e+3, 2.4527097e+2, -529682.0, -737711.0, 17249.023, -0.20371233, 0.25524366, -528261.44, 8102.471, 0.0, 10.000929, 9.998153 
1.5850604e+3, 2.5526845e+2, -335798.03, -586254.25, -1508.279, -0.13455333, 0.15422605, -335788.97, 102601.336, 0.00000023115544, 10.001555, 9.998218 
1.5850684e+3, 2.6526636e+2, -267578.5, -542703.56, 78254.79, -0.09433232, 0.14633003, -246877.77, 93534.19, 0.0000061293663, 10.001522, 9.997864 
1.5850767e+3, 2.7526447e+2, -234873.17, -459880.06, 79250.1, -0.08304284, 0.13378768, -209762.66, 32667.846, 0.000060026516, 10.001017, 9.997995 
1.5850832e+3, 2.8526264e+2, -100503.8, -423486.47, -6462.3496, -0.13089672, 0.19054556, -100374.55, 44076.38, 0.0003212461, 10.001578, 9.997317 
1.5850875e+3, 2.95261e+2, 214073.14, -206954.73, -7861.914, -0.23898049, 0.25250003, 214219.89, 260691.11, 0.0010568721, 10.003, 9.997441 
1.5850934e+3, 3.05259e+2, 373615.6, -3113.095, 65006.883, -0.2950984, 0.27155238, 384517.44, 384517.44, 0.0023826924, 10.003317, 9.998384 
1.5851024e+3, 3.1525853e+2, 297711.34, 29869.563, -54993.805, -0.11456443, 0.34324306, 308563.1, 308563.1, 0.004144855, 10.002469, 9.999009 
1.5949717e+3, 1.2526836e+2, -2087614.4, -1725206.4, 15758.88, 0.008267676, 0.1990839, -1724522.4, -12125.491, 0.026239868, 9.996639, 10.001538 
1.5949818e+3, 1.352692e+2, -1660791.3, -1618396.8, 50446.26, 0.18104616, 0.23598863, -1584875.3, 29509.045, 0.016040104, 9.999594, 10.000172 
1.5949868e+3, 1.4526804e+2, -1520300.3, -1572739.1, -66535.016, -0.070007995, 0.13986911, -1475004.9, 41389.406, 0.0073062, 10.000179, 9.999537 
1.5949927e+3, 1.5526743e+2, -1713395.8, -1605506.3, -63416.55, -0.110637, 0.092372425, -1576194.1, -157792.22, 0.002060233, 9.99815, 9.999612 
1.5950002e+3, 1.6526814e+2, -1543490.3, -1388198.6, 8153.8335, -0.1329431, 0.17355712, -1387771.6, -67376.37, 0.00024185247, 9.998284, 10.000358 
1.5950097e+3, 1.7526981e+2, -1125150.0, -1121545.6, 55654.92, -0.01869094, 0.2663293, -1067663.8, 154714.66, 0.0000030340082, 10.000443, 10.0004635 
1.5950172e+3, 1.8526946e+2, -1044174.4, -1202036.3, -1349.6243, -0.02738553, 0.26536578, -1044162.9, 80217.55, 0.0, 10.00104, 9.9989605 
1.5950222e+3, 1.9526733e+2, -1062472.1, -1147103.1, 30389.248, -0.18490511, 0.12593414, -1052690.5, -26291.71, 0.0, 10.000199, 9.9990635 
1.595029e+3, 2.0526631e+2, -995458.06, -1027838.2, 27285.9, -0.1822949, 0.10512039, -979920.56, -51512.84, 0.0, 9.9998045, 9.999413 
1.5950373e+3, 2.1526615e+2, -899506.3, -916759.4, 39526.58, -0.0023306787, 0.11348519, -867675.9, -37266.766, 0.0, 9.99974, 9.99953 
1.5950431e+3, 2.252659e+2, -813943.4, -872091.44, 10631.097, -0.04421028, 0.16125523, -812060.6, -79649.125, 0.0, 9.99986, 9.99911 
1.5950467e+3, 2.3526552e+2, -653971.2, -740246.06, 11629.432, -0.2926145, 0.17943037, -652431.06, -18015.744, 0.0, 10.00027, 9.9991455 
1.5950531e+3, 2.4526465e+2, -577627.3, -793412.44, 35609.605, -0.31107917, 0.25151658, -571902.8, -35476.574, 0.0, 10.000745, 9.997856 
1.5950625e+3, 2.5526327e+2, -378582.5, -631377.5, 32756.65, -0.10487513, 0.2898667, -374406.94, 64037.406, 0.00000009760233, 10.001381, 9.997984 
1.5950704e+3, 2.652616e+2, -255440.44, -489729.44, 47915.234, -0.07423851, 0.3157912, -246019.92, 94442.18, 0.0000054247644, 10.001393, 9.998293 
1.5950768e+3, 2.7525973e+2, -228062.8, -413131.03, 76106.69, -0.20927261, 0.25585648, -200785.44, 41693.78, 0.0000627863, 10.00087, 9.998388 
1.5950836e+3, 2.852584e+2, -113695.16, -407257.9, 38042.8, -0.25960752, 0.33790126, -108845.305, 35646.492, 0.0003316825, 10.001392, 9.997519 
1.5950906e+3, 2.9525745e+2, 200782.56, -187233.34, 61973.39, -0.2422786, 0.44200104, 210440.48, 256942.61, 0.0010852148, 10.002795, 9.997678 
1.595097e+3, 3.0525267e+2, 286717.34, -114162.49, 20308.258, -0.2822304, 0.20561203, 287743.5, 287743.5, 0.0024471504, 10.003052, 9.997737 
1.5951045e+3, 3.1524837e+2, 194845.42, -79247.516, -44757.887, -0.1825502, -0.038810465, 201969.02, 201969.02, 0.004255502, 10.002068, 9.998437 
1.6049692e+3, 1.2526038e+2, -1743807.8, -1542889.3, 80475.164, 0.0007614803, 0.25222972, -1514630.6, 197845.78, 0.027939666, 9.99895, 10.001696 
1.60498e+3, 1.3526033e+2, -1794192.1, -1651916.4, 34817.9, 0.09623706, 0.17745653, -1643852.8, -29379.705, 0.01712635, 9.998573, 10.000421 
1.6049859e+3, 1.4525992e+2, -1790307.8, -1663587.0, -92278.44, -0.08201796, 0.12888488, -1615010.6, -98534.64, 0.007836914, 9.998185, 9.999855 
1.604992e+3, 1.5526028e+2, -1684796.5, -1548548.3, -54325.59, -0.0045179413, 0.1417174, -1529539.4, -111065.67, 0.0022287087, 9.99818, 9.99997 
1.6049995e+3, 1.6526131e+2, -1546499.9, -1390741.4, 120808.41, -0.020097436, 0.23476061, -1324885.3, -4420.662, 0.00026665046, 9.998272, 10.000345 
1.6050088e+3, 1.752627e+2, -1363931.4, -1237592.6, 75823.64, -0.057167456, 0.30344352, -1202072.6, 20379.055, 0.0000036433328, 9.998796, 10.000468 
1.6050167e+3, 1.8526244e+2, -1277998.9, -1238406.0, -49275.66, -0.0821254, 0.27656808, -1205098.9, -80647.05, 0.0, 9.999102, 9.999645 
1.6050224e+3, 1.9526061e+2, -1125288.9, -1103494.5, -24315.043, -0.13696384, 0.09687541, -1087746.4, -61282.145, 0.0, 9.999433, 9.999736 
1.6050291e+3, 2.0525995e+2, -995230.56, -1039327.3, 11910.215, -0.12877904, 0.08599021, -992219.3, -63750.176, 0.0, 9.999871, 9.999298 
1.6050367e+3, 2.1526033e+2, -790343.8, -873705.3, -14042.933, -0.05803833, 0.16003837, -788041.75, 42425.207, 0.0, 10.000547, 9.99943 
1.605043e+3, 2.2525977e+2, -706488.5, -846768.06, -40381.64, -0.07804054, 0.19523303, -695694.56, 36778.305, 0.0, 10.000717, 9.99886 
1.6050479e+3, 2.3525836e+2, -635744.56, -749264.0, -59381.71, -0.19356227, 0.13543917, -610358.94, 24126.857, 0.0, 10.000486, 9.998958 
1.6050549e+3, 2.4525742e+2, -585032.1, -785830.75, 21849.766, -0.19579941, 0.20012493, -582682.06, -46184.89, 0.0, 10.000629, 9.997981 
1.6050638e+3, 2.552568e+2, -404692.22, -632962.75, 32450.379, -0.07918955, 0.30674967, -400168.78, 38338.86, 0.000000007673713, 10.001136, 9.998109 
1.6050716e+3, 2.6525533e+2, -271177.22, -500395.6, 30010.598, -0.082920045, 0.3489013, -267313.2, 73210.0, 0.0000049768487, 10.001305, 9.998266 
1.6050778e+3, 2.7525318e+2, -192118.8, -404759.8, -9519.936, -0.2049512, 0.26933432, -191693.44, 50849.625, 0.00006482946, 10.001141, 9.998331 
1.6050851e+3, 2.8525153e+2, -125105.63, -389585.72, 8837.094, -0.22802612, 0.31225264, -124810.69, 19746.865, 0.00033743004, 10.001201, 9.997735 
1.6050935e+3, 2.952503e+2, 40020.996, -239474.83, 122.22599, -0.16806698, 0.37162083, 40021.05, 86588.945, 0.001089985, 10.001584, 9.997899 
1.6051002e+3, 3.0524537e+2, 141937.83, -252370.4, -36931.42, -0.21410507, 0.13145444, 145367.05, 145367.05, 0.0024499798, 10.00234, 9.997119 
1.605108e+3, 3.1524125e+2, 357092.88, -33193.22, -143921.88, -0.10020036, -0.034858238, 404425.22, 404425.22, 0.0042540943, 10.003283, 9.998171 
1.61497e+3, 1.2525082e+2, -1784056.9, -1679532.5, 55101.566, 0.11444247, 0.2449847, -1655850.5, 56719.258, 0.02978273, 9.999164, 10.000644 
1.6149753e+3, 1.3525331e+2, -1747551.0, -1560447.0, 21043.129, -0.24720676, 0.36816704, -1558109.6, 56437.875, 0.018308382, 9.998585, 10.001056 
1.614983e+3, 1.4525394e+2, -1693757.6, -1485348.3, -103789.71, -0.21942903, 0.3311817, -1442478.4, 74061.984, 0.008418617, 9.998269, 10.001043 
1.6149916e+3, 1.5525535e+2, -1604189.1, -1386235.1, -46544.438, 0.11288559, 0.33325356, -1376711.6, 41811.168, 0.0024150687, 9.998203, 10.001074 
1.614999e+3, 1.6525578e+2, -1590532.9, -1515085.1, 123667.35, 0.07699506, 0.35921493, -1423515.9, -102997.2, 0.0002938315, 9.998396, 9.999439 
1.615006e+3, 1.7525516e+2, -1423649.4, -1367398.4, 102042.96, -0.24395995, 0.31813094, -1289675.8, -67147.09, 0.000004294035, 9.998807, 9.999578 
1.6150142e+3, 1.8525477e+2, -1217699.9, -1118303.5, -48624.563, -0.27207673, 0.28174287, -1098472.9, 26058.158, 0.0, 9.999126, 10.000455 
1.615023e+3, 1.9525453e+2, -1077693.9, -993115.9, -3257.5315, -0.041130222, 0.17714955, -992990.6, 33536.09, 0.0, 9.999386, 10.000515 
1.61503e+3, 2.0525461e+2, -1034014.44, -1095293.4, 22837.04, -0.061883673, 0.22030167, -1026439.94, -97915.39, 0.0, 9.999765, 9.998963 
1.6150351e+3, 2.1525502e+2, -833656.5, -933439.9, 18170.33, -0.29116073, 0.32891566, -830450.7, 73.36811, 0.0, 10.00042, 9.999078 
1.6150421e+3, 2.2525361e+2, -752829.8, -899527.1, -59674.613, -0.25851896, 0.31340438, -731621.1, 916.67, 0.0, 10.000535, 9.998585 
1.6150507e+3, 2.3525059e+2, -675198.94, -793610.75, -56307.023, 0.010035177, 0.11572762, -652699.1, -18134.666, 0.0, 10.000331, 9.998727 
1.615058e+3, 2.4524914e+2, -565748.6, -714025.8, 28655.637, 0.034640025, 0.11154068, -560403.44, -23825.291, 0.0, 10.000484, 9.998546 
1.6150644e+3, 2.552491e+2, -388934.66, -566052.1, 63412.402, -0.15127377, 0.21472722, -368572.38, 70007.2, 0.00000000987263, 10.000989, 9.998637 
1.6150716e+3, 2.6524758e+2, -343644.4, -607077.0, 12593.73, -0.2193553, 0.25699827, -343043.72, -2448.7788, 0.000004852571, 10.001121, 9.997619 
1.6150793e+3, 2.752446e+2, -259772.69, -502775.22, 352.43936, -0.17685382, 0.15848558, -259772.19, -17148.008, 0.00006465758, 10.000979, 9.997725 
1.6150875e+3, 2.85242e+2, -135057.38, -380360.97, 9825.908, -0.14401163, 0.12850992, -134664.4, 9983.708, 0.0003366383, 10.001065, 9.997868 
1.6150957e+3, 2.9523984e+2, 25380.953, -234724.23, 34005.473, -0.12886836, 0.07186324, 29753.242, 76419.875, 0.0010765177, 10.001426, 9.9980135 
1.6151027e+3, 3.0523676e+2, 70306.51, -343281.84, -14952.827, -0.21855634, 0.047080528, 70846.41, 70846.41, 0.0024046022, 10.002117, 9.996583 
1.6151115e+3, 3.1523713e+2, 302850.97, -32056.219, -57543.94, -0.09698555, 0.3739466, 312462.38, 312462.38, 0.004159513, 10.002851, 9.998354 
1.6249697e+3, 1.2524197e+2, -1875053.6, -1765441.6, 76694.05, 0.20389222, 0.22346579, -1725983.8, -13327.51, 0.03179242, 9.998724, 10.000242 
1.624973e+3, 1.352459e+2, -1917477.0, -1613946.5, 10901.162, -0.26442653, 0.46128237, -1613555.5, 1066.9038, 0.019603958, 9.997282, 10.001308 
1.624981e+3, 1.4524648e+2, -1831860.1, -1521889.5, -61748.426, -0.17498691, 0.39371514, -1510041.5, 6574.3945, 0.009062119, 9.997206, 10.001302 
1.6249903e+3, 1.5524778e+2, -1414121.3, -1259508.0, -86549.31, 0.10345174, 0.35573086, -1220766.8, 197830.47, 0.002624408, 9.999364, 10.001385 
1.6249979e+3, 1.652479e+2, -1430087.4, -1468378.9, 42431.688, 0.06618949, 0.3506078, -1402682.0, -82086.43, 0.00032476612, 9.99965, 9.999145 
1.6250046e+3, 1.752467e+2, -1511590.9, -1437138.6, 45195.48, -0.25042185, 0.2799351, -1415812.1, -193200.2, 0.000005034694, 9.998343, 9.9993105 
1.6250129e+3, 1.8524662e+2, -1340558.8, -1143619.3, -41209.285, -0.25189564, 0.27250117, -1135344.0, -10731.918, 0.0, 9.998138, 10.000762 
1.6250229e+3, 1.9524762e+2, -1096493.6, -960053.3, -51199.434, 0.02016813, 0.25778598, -942977.7, 83619.08, 0.0, 9.999092, 10.000878 
1.6250303e+3, 2.0524792e+2, -1042801.0, -1095703.4, -12518.832, 0.014422793, 0.30254003, -1039988.1, -111395.766, 0.0, 9.999688, 9.998998 
1.6250357e+3, 2.1524753e+2, -891624.94, -959541.56, -8662.558, -0.23902848, 0.32906547, -890537.5, -59938.734, 0.0, 10.000007, 9.999104 
1.6250432e+3, 2.25246e+2, -731959.8, -891449.3, -50626.695, -0.21550013, 0.30008507, -717246.7, 15367.016, 0.0, 10.000671, 9.998578 
1.625052e+3, 2.3524342e+2, -484768.72, -708200.0, -50469.875, 0.04067507, 0.15023157, -473897.25, 160739.4, 0.0, 10.001648, 9.998688 
1.6250597e+3, 2.4524187e+2, -328255.3, -611211.56, 32980.715, 0.07480653, 0.14561372, -324462.0, 212189.16, 0.0, 10.002171, 9.998433 
1.6250664e+3, 2.552412e+2, -200897.44, -490555.38, -12203.77, -0.11005381, 0.19767061, -200384.19, 238274.14, 0.000000011745934, 10.002336, 9.998508 
1.6250739e+3, 2.652395e+2, -132583.22, -489908.66, -45616.824, -0.17547782, 0.2218651, -126851.62, 213823.31, 0.0000048598445, 10.002504, 9.997757 
1.6250816e+3, 2.752368e+2, -328.2161, -367215.28, -26063.04, -0.13106899, 0.14199461, 1514.008, 244214.78, 0.00006306325, 10.002701, 9.997829 
1.62509e+3, 2.8523436e+2, 109598.086, -297058.5, 29998.094, -0.089795284, 0.13917622, 111799.06, 256522.77, 0.00033149842, 10.00291, 9.997545 
1.6250984e+3, 2.9523215e+2, 260182.27, -159796.3, -22332.729, -0.07964271, 0.113769315, 261366.48, 308110.78, 0.0010551804, 10.003207, 9.997668 
1.6251059e+3, 3.0522922e+2, 209706.45, -297621.4, -46973.895, -0.17240597, 0.12615639, 214019.14, 214019.14, 0.0023358958, 10.003156, 9.996415 
1.6251151e+3, 3.1522888e+2, 302123.28, -30880.492, -109752.12, -0.012405698, 0.4103001, 335041.56, 335041.56, 0.0040083933, 10.002777, 9.998439 
1.6349667e+3, 1.2523426e+2, -1831302.0, -1698770.4, -107191.336, -0.030777827, 0.2072228, -1639015.8, 73715.695, 0.03398967, 9.998821, 10.000666 
1.6349728e+3, 1.3523808e+2, -1931013.9, -1648192.8, -44230.445, -0.033481784, 0.45070863, -1641436.9, -26738.809, 0.02102759, 9.997313, 10.001057 
1.6349798e+3, 1.4523743e+2, -1851920.9, -1598277.8, -7541.2324, -0.054941483, 0.3075976, -1598053.8, -81350.02, 0.009775217, 9.99734, 10.000719 
1.6349874e+3, 1.5523778e+2, -1446155.0, -1327263.3, -968.6243, -0.13313323, 0.2231071, -1327255.4, 91439.73, 0.002860367, 9.999368, 10.000917 
1.6349956e+3, 1.6523789e+2, -1402101.5, -1424430.0, -18423.045, -0.15744878, 0.22239988, -1391724.0, -71030.84, 0.00036087315, 9.999702, 9.999426 
1.635004e+3, 1.7523733e+2, -1495934.6, -1405234.8, 2109.801, -0.15714979, 0.19420967, -1405185.6, -182484.13, 0.000005927034, 9.998345, 9.999529 
1.6350126e+3, 1.8523794e+2, -1336467.9, -1149162.3, -17991.145, -0.117443, 0.24958621, -1147449.9, -22754.172, 0.0, 9.998193, 10.000703 
1.6350216e+3, 1.9523978e+2, -1104413.1, -970211.2, -8393.585, -0.03250314, 0.32449755, -969688.25, 56987.22, 0.0, 9.99906, 10.00083 
1.6350302e+3, 2.0523968e+2, -1028933.94, -1046117.06, -10976.208, 0.0062525887, 0.31181264, -1023586.6, -94911.99, 0.0, 9.999597, 9.999385 
1.6350384e+3, 2.1523774e+2, -882645.75, -915464.75, 15074.716, 0.010291511, 0.1467795, -876772.56, -46080.277, 0.0, 9.999889, 9.999468 
1.6350454e+3, 2.2523682e+2, -748940.8, -880603.1, -22264.844, -0.061758377, 0.153561, -745277.6, -12576.357, 0.0, 10.000473, 9.998746 
1.6350514e+3, 2.352369e+2, -496803.78, -695450.5, -3966.4006, -0.18486619, 0.24606559, -496724.63, 137977.36, 0.0, 10.001487, 9.998849 
1.6350596e+3, 2.452356e+2, -419536.0, -753512.8, 28819.834, -0.17280127, 0.30445138, -417067.3, 119649.016, 0.0, 10.001969, 9.997552 
1.6350695e+3, 2.5523305e+2, -279444.4, -618809.1, 6476.8535, -0.046847373, 0.2569775, -279320.84, 159422.9, 0.000000006263202, 10.002193, 9.997691 
1.6350777e+3, 2.6523116e+2, -89596.68, -374885.72, -48035.816, -0.05056297, 0.26039082, -81725.75, 259036.02, 0.000005059976, 10.0023775, 9.998617 
1.6350842e+3, 2.7522993e+2, 37743.23, -256365.53, 14.4234915, -0.16449709, 0.2305546, 37743.234, 280514.72, 0.000060994436, 10.002554, 9.998667 
1.635092e+3, 2.8522858e+2, 16536.328, -443691.47, 30471.35, -0.18854, 0.34315425, 18545.047, 163329.94, 0.0003219481, 10.002722, 9.996623 
1.6351013e+3, 2.9522714e+2, 165251.45, -307457.88, 8833.287, -0.13976018, 0.48991913, 165416.45, 212218.52, 0.0010249827, 10.003011, 9.996741 
1.6351089e+3, 3.0522263e+2, 179630.48, -303509.97, -74024.875, -0.19588599, 0.38823637, 190717.86, 190717.86, 0.0022521797, 10.002921, 9.996485 
1.6351181e+3, 3.1521645e+2, 255374.56, -34102.156, -78688.17, -0.027435571, 0.07060058, 275381.53, 275381.53, 0.0038299796, 10.002396, 9.998589 
1.6449639e+3, 1.2522675e+2, -2095128.4, -1846197.9, -116736.34, -0.08797647, 0.24785608, -1800020.3, -87214.8, 0.036383986, 9.997126, 10.0004635 
1.6449727e+3, 1.3522927e+2, -1725180.3, -1556407.4, -85900.14, 0.14901154, 0.37232912, -1520378.3, 94403.4, 0.022584815, 9.998758, 10.001007 
1.6449785e+3, 1.4522824e+2, -1685169.8, -1591927.8, 21270.887, 0.013180364, 0.22866407, -1587304.5, -70512.57, 0.010560797, 9.998803, 10.000056 
1.6449855e+3, 1.5522854e+2, -1582717.8, -1466151.3, -2206.2847, -0.22304834, 0.20352447, -1466109.5, -47321.34, 0.0031241647, 9.998727, 10.000277 
1.6449945e+3, 1.6522887e+2, -1468452.5, -1378573.0, -39955.336, -0.19625108, 0.21886753, -1363379.5, -42595.574, 0.0004029895, 9.998912, 10.000122 
1.6450043e+3, 1.7522892e+2, -1292620.6, -1236918.9, -4888.312, -0.012681897, 0.1852345, -1236493.1, -13711.141, 0.0000070009137, 9.999429, 10.00017 
1.6450128e+3, 1.8522958e+2, -1164506.0, -1129213.4, 25133.146, 0.011769001, 0.24443184, -1116150.3, 8625.365, 0.0, 9.9996605, 10.000118 
1.6450204e+3, 1.9523092e+2, -1027863.94, -995416.25, -28644.678, -0.10291178, 0.32548788, -978720.06, 48044.063, 0.0, 9.999861, 10.000261 
1.6450293e+3, 2.052306e+2, -931968.94, -961285.06, -40726.426, -0.061724845, 0.30039334, -903343.06, 25423.313, 0.0, 10.000097, 9.9997225 
1.6450396e+3, 2.1522877e+2, -781535.5, -822763.5, -36452.008, 0.11153911, 0.11016798, -760272.5, 70508.44, 0.0, 10.000408, 9.999841 
1.645047e+3, 2.2522847e+2, -714881.0, -856986.06, -47631.68, 0.050836574, 0.156721, -700392.7, 32391.18, 0.0, 10.000682, 9.998816 
1.6450523e+3, 2.3522948e+2, -572441.25, -726333.2, -58823.87, -0.21881166, 0.34103668, -552532.0, 82245.16, 0.0, 10.000944, 9.998909 
1.6450605e+3, 2.4522819e+2, -539436.0, -803816.9, 7470.6455, -0.21875574, 0.39293584, -539225.06, -2433.2012, 0.0, 10.001117, 9.997617 
1.6450718e+3, 2.5522473e+2, -419631.63, -687014.9, 31946.662, -0.00007270418, 0.2560502, -415867.66, 22958.998, 0.000000005166704, 10.001228, 9.997697 
1.6450801e+3, 2.6522273e+2, -240910.77, -475022.22, -9002.962, 0.0076035867, 0.25815904, -240565.05, 100281.24, 0.000005473011, 10.00146, 9.998359 
1.6450861e+3, 2.7522194e+2, -70111.734, -331010.78, -80738.734, -0.1866928, 0.30134594, -47147.367, 195705.27, 0.000058881178, 10.001928, 9.998438 
1.6450945e+3, 2.852205e+2, 2667.3193, -423420.4, -14929.088, -0.19937107, 0.39997157, 3189.758, 148057.13, 0.0003079229, 10.002514, 9.996865 
1.6451052e+3, 2.952185e+2, 181992.56, -274899.97, 18005.154, -0.045930523, 0.4742482, 182701.02, 229589.86, 0.0009850244, 10.003029, 9.996954 
1.645113e+3, 3.0521467e+2, 268528.72, -226750.84, -54.271965, -0.098772496, 0.41322073, 268528.72, 268528.72, 0.0021618162, 10.003342, 9.996824 
1.6451207e+3, 3.1520852e+2, 397335.34, 49675.93, -43839.047, -0.041262448, 0.06067707, 402778.16, 402778.16, 0.0036592754, 10.003294, 9.998731 
1.6549611e+3, 1.2521945e+2, -2131453.5, -1949667.3, 28834.73, -0.13264701, 0.35690904, -1945203.1, -232325.4, 0.03897044, 9.997254, 9.999681 
1.654972e+3, 1.3521981e+2, -1714626.1, -1533314.0, -43286.246, 0.18693623, 0.2511954, -1523510.0, 91360.03, 0.024272982, 9.998743, 10.001177 
1.6549768e+3, 1.4521916e+2, -1731957.5, -1699167.6, -5412.9463, -0.07882676, 0.16892032, -1698297.3, -181418.92, 0.0114189135, 9.998842, 9.999304 
1.654984e+3, 1.5522015e+2, -1641793.3, -1592178.9, 4175.731, -0.25249538, 0.30483103, -1591830.0, -172954.44, 0.0034161112, 9.998743, 9.999405 
1.654994e+3, 1.6522093e+2, -1370766.3, -1205050.3, -32642.39, -0.16269866, 0.35150498, -1198852.3, 122014.86, 0.00045137366, 9.9990225, 10.001265 
1.655005e+3, 1.752216e+2, -1210066.0, -1065231.4, 20706.01, 0.10462272, 0.2546715, -1062329.4, 160522.95, 0.000008273259, 9.999428, 10.001346 
1.6550131e+3, 1.8522161e+2, -1240593.5, -1300538.3, 23169.982, 0.04947279, 0.25169882, -1232682.0, -107830.71, 0.0, 9.999706, 9.998925 
1.6550186e+3, 1.95221e+2, -1115624.1, -1172286.6, -14444.487, -0.27335057, 0.26052648, -1112154.4, -85291.39, 0.0, 9.9998255, 9.999071 
1.6550273e+3, 2.052207e+2, -925532.4, -923435.56, -37953.1, -0.29001987, 0.2817604, -886516.44, 42350.535, 0.0, 9.999995, 10.00003 
1.6550387e+3, 2.1522065e+2, -778265.6, -785196.75, -16304.138, -0.015053849, 0.2327797, -765062.8, 65801.414, 0.0, 10.000276, 10.000161 
1.6550475e+3, 2.2522075e+2, -739346.3, -874247.94, -49266.445, 0.021852009, 0.3065514, -723269.9, 9593.231, 0.0, 10.000534, 9.998771 
1.655054e+3, 2.3522104e+2, -596637.94, -742298.4, -36670.363, -0.15091103, 0.42373428, -587927.0, 46936.58, 0.0, 10.000795, 9.998874 
1.6550624e+3, 2.4521948e+2, -501991.2, -685329.4, 6272.026, -0.17577545, 0.40682262, -501776.88, 35101.83, 0.0, 10.000942, 9.998512 
1.6550726e+3, 2.5521624e+2, -380910.88, -569170.44, 48433.09, -0.04956004, 0.19509374, -369181.4, 69725.92, 0.00000000856411, 10.001081, 9.998567 
1.6550809e+3, 2.6521406e+2, -365222.6, -706039.75, -2461.206, -0.08975462, 0.21363708, -365204.8, -24275.6, 0.0000057188686, 10.001332, 9.99684 
1.6550873e+3, 2.752127e+2, -185431.6, -545419.3, -47266.17, -0.29038242, 0.35149437, -179329.02, 63616.785, 0.00005720022, 10.001811, 9.997026 
1.6550969e+3, 2.8521e+2, 70127.9, -239906.2, -7785.7, -0.23052812, 0.32394347, 70323.29, 215295.22, 0.0002952708, 10.002322, 9.99822 
1.6551098e+3, 2.952061e+2, 253849.8, -92054.91, 55915.68, 0.08537903, 0.064077936, 262664.0, 309670.6, 0.00095027586, 10.002874, 9.998289 
1.6551173e+3, 3.0520502e+2, 257558.8, -174621.7, -16142.173, -0.017466681, 0.19009967, 258160.88, 258160.88, 0.0020945515, 10.003046, 9.997314 
1.6551225e+3, 3.1520444e+2, 341691.38, 21984.732, 11003.301, -0.2416721, 0.34409663, 342069.63, 342069.63, 0.003546205, 10.00292, 9.998716 
1.664959e+3, 1.2520875e+2, -2206775.3, -1929721.4, 11934.944, -0.039942857, 0.34621206, -1929208.3, -216222.03, 0.041736465, 9.9964695, 10.000208 
1.664969e+3, 1.3520987e+2, -1776550.8, -1473221.3, -128845.695, 0.0666443, 0.2318606, -1425880.0, 189087.58, 0.026087236, 9.997898, 10.002021 
1.6649751e+3, 1.4521015e+2, -1816969.3, -1734807.6, -63432.83, -0.0916102, 0.19992542, -1700314.9, -183349.27, 0.012349877, 9.998245, 9.999342 
1.664984e+3, 1.552114e+2, -1716909.4, -1619635.6, 2309.7188, -0.11710636, 0.35719255, -1619580.8, -200618.78, 0.003737191, 9.998205, 9.999468 
1.6649938e+3, 1.6521235e+2, -1497783.3, -1263223.0, -9941.272, -0.03854208, 0.41809762, -1262802.4, 58150.387, 0.00050616945, 9.998158, 10.001272 
1.6650037e+3, 1.7521293e+2, -1373254.4, -1144193.3, -71418.125, 0.08357838, 0.31263468, -1123750.5, 99188.516, 0.000009797576, 9.998304, 10.001347 
1.6650122e+3, 1.8521264e+2, -1389885.3, -1341180.0, -31619.2, 0.038306594, 0.26632354, -1325622.4, -200682.67, 0.0, 9.998558, 9.999191 
1.6650192e+3, 1.9521166e+2, -1183338.0, -1169313.9, 23062.951, -0.16785003, 0.20911166, -1152220.6, -125268.0, 0.0, 9.99923, 9.99936 
1.665028e+3, 2.0521146e+2, -936172.06, -966654.6, 56721.215, -0.21396565, 0.23989473, -892680.1, 36275.684, 0.0, 10.000082, 9.999693 
1.6650386e+3, 2.1521191e+2, -675603.0, -772462.0, 10516.792, -0.11062082, 0.27962562, -674474.25, 156476.11, 0.0, 10.001137, 9.999835 
1.665048e+3, 2.2521181e+2, -579936.75, -788642.6, -44973.5, -0.049089827, 0.3426771, -570658.06, 162293.94, 0.0, 10.0015955, 9.998836 
1.6650563e+3, 2.3521116e+2, -483011.56, -675716.1, -47754.2, -0.03339794, 0.35760388, -471826.75, 163133.22, 0.0, 10.001527, 9.998963 
1.6650648e+3, 2.4520971e+2, -384613.28, -649389.94, -10997.905, -0.06189598, 0.35250068, -384157.28, 152817.16, 0.0, 10.001818, 9.998354 
1.6650735e+3, 2.5520742e+2, -186189.33, -491990.1, -65211.707, -0.13163796, 0.25397927, -172863.69, 266131.9, 0.0000000057748837, 10.002479, 9.998435 
1.6650821e+3, 2.6520523e+2, -138896.3, -599742.8, -76267.5, -0.1772967, 0.28415957, -126602.42, 214414.95, 0.0000055479773, 10.002913, 9.996803 
1.6650903e+3, 2.7520314e+2, 9430.601, -468112.38, -41961.184, -0.21993382, 0.35250542, 13089.648, 256129.81, 0.000055377644, 10.0032015, 9.996902 
1.6651003e+3, 2.8520006e+2, 113224.55, -213710.02, -9742.779, -0.12953497, 0.2956813, 113514.625, 258584.72, 0.00028510438, 10.002589, 9.998266 
1.6651116e+3, 2.951964e+2, 371.96472, -203777.2, -81793.195, 0.078344174, 0.060611468, 29100.086, 76204.164, 0.00092673383, 10.001109, 9.998358 
1.6651195e+3, 3.0519614e+2, 139621.48, -168067.02, -96358.22, -0.028799256, 0.23229778, 167306.73, 167306.73, 0.0020606113, 10.00195, 9.997883 
1.6651268e+3, 3.151968e+2, 595600.56, 164654.27, -121242.414, -0.16590029, 0.4582397, 627369.0, 627369.0, 0.003506679, 10.004592, 9.998887 
1.674957e+3, 1.2519518e+2, -2051295.8, -1616211.4, 53155.78, 0.063287385, 0.2795447, -1609811.3, 103314.64, 0.044670317, 9.9964905, 10.002378 
1.6749634e+3, 1.3519953e+2, -1668342.3, -1259017.6, -79789.2, -0.3175089, 0.331255, -1244014.3, 371058.84, 0.028026333, 9.997918, 10.003523 
1.6749732e+3, 1.4520112e+2, -1734825.0, -1586883.0, -81777.16, -0.12361894, 0.30366483, -1550585.3, -33530.098, 0.013357116, 9.998335, 10.000315 
1.6749847e+3, 1.5520236e+2, -1651313.3, -1486431.1, 9852.005, 0.10149168, 0.3616865, -1485844.5, -66797.44, 0.004090086, 9.99821, 10.000384 
1.6749933e+3, 1.6520305e+2, -1569519.8, -1428720.3, -17605.908, 0.070974395, 0.4116614, -1426552.1, -105510.23, 0.0005678562, 9.998227, 10.000106 
1.6749999e+3, 1.7520297e+2, -1459008.0, -1314338.1, -59615.707, -0.15228201, 0.36210188, -1292937.4, -69895.59, 0.000011659807, 9.998276, 10.000193 
1.6750094e+3, 1.8520285e+2, -1260510.8, -1086826.0, -18169.314, -0.12763228, 0.30139238, -1084945.6, 40093.855, 0.0, 9.998606, 10.000922 
1.6750216e+3, 1.9520281e+2, -1072278.5, -931862.7, 55116.15, 0.12367924, 0.16758561, -912812.9, 114221.06, 0.0, 9.999192, 10.001016 
1.6750312e+3, 2.0520271e+2, -1009487.2, -1104844.6, 84832.45, 0.07091946, 0.17546163, -959853.0, -30818.771, 0.0, 10.000018, 9.998776 
1.6750385e+3, 2.152025e+2, -761739.4, -922009.94, 58242.24, -0.2557402, 0.24132264, -742809.94, 88230.65, 0.0, 10.001002, 9.998878 
1.6750476e+3, 2.2520153e+2, -600911.4, -783737.25, -56396.348, -0.25957665, 0.26072353, -584914.5, 148136.89, 0.0, 10.001389, 9.998966 
1.6750588e+3, 2.351999e+2, -497942.5, -671464.94, -42042.99, 0.04829368, 0.16182865, -488292.5, 146773.66, 0.0, 10.001376, 9.9990635 
1.6750677e+3, 2.4519882e+2, -487807.38, -826550.6, 1208.5901, 0.017929604, 0.24701256, -487803.06, 49276.285, 0.0, 10.001655, 9.997217 
1.6750741e+3, 2.5519827e+2, -286523.97, -662754.0, -28017.818, -0.3299872, 0.4359511, -284448.94, 154642.1, 0.0000000017385277, 10.0023155, 9.997339 
1.6750833e+3, 2.6519632e+2, -73829.29, -423773.22, -73425.56, -0.35874286, 0.47382373, -59047.46, 282062.84, 0.0000048816705, 10.00273, 9.998104 
1.6750953e+3, 2.7519295e+2, 75984.53, -300931.72, -14234.976, -0.077787615, 0.2882522, 76521.38, 319659.38, 0.000051551386, 10.003071, 9.998118 
1.6751042e+3, 2.8519046e+2, -13980.919, -432608.13, -73793.555, -0.021747062, 0.30421954, -1353.8235, 143809.7, 0.0002714196, 10.002394, 9.996859 
1.6751106e+3, 2.9518917e+2, -105259.47, -397229.78, -109590.28, -0.1758215, 0.43784112, -68702.305, -21518.244, 0.00089928973, 10.000977, 9.997102 
1.6751194e+3, 3.0518773e+2, 129598.06, -108176.32, -4572.3027, -0.2593396, 0.52274495, 129685.95, 129685.95, 0.0020308413, 10.00163, 9.998437 
1.675133e+3, 3.1518516e+2, 563773.44, 178637.92, 11051.996, -0.055786148, 0.370105, 564090.4, 564090.4, 0.0034965475, 10.004269, 9.999126 
1.6849555e+3, 1.2518531e+2, -1816291.1, -1542881.0, 213739.25, 0.19429374, 0.3407506, -1425868.3, 287353.47, 0.04776628, 9.998295, 10.002046 
1.6849607e+3, 1.3518935e+2, -1852872.6, -1360262.5, -30157.498, -0.30360925, 0.3746213, -1358423.1, 256752.97, 0.030093629, 9.996736, 10.003371 
1.684973e+3, 1.4519104e+2, -1853018.4, -1573006.3, -54151.918, 0.062144924, 0.32902423, -1562898.6, -45742.273, 0.0144471, 9.997216, 10.00095 
1.6849835e+3, 1.5519199e+2, -1496671.6, -1346972.5, -19723.27, 0.14887978, 0.29625615, -1344417.5, 74728.39, 0.004479329, 9.998989, 10.000971 
1.684992e+3, 1.651923e+2, -1434494.5, -1441549.1, -51591.848, 0.051702257, 0.31890836, -1386309.5, -65165.836, 0.0006375465, 9.999503, 9.9994 
1.6849987e+3, 1.7519188e+2, -1350592.3, -1330203.0, -69619.08, -0.13314581, 0.29966486, -1270036.1, -46885.313, 0.00001399049, 9.99933, 9.999563 
1.6850089e+3, 1.8519214e+2, -1124224.3, -1002704.06, -31099.086, -0.066161364, 0.29547969, -995207.7, 129939.35, 0.0, 9.99947, 10.001079 
1.6850218e+3, 1.9519304e+2, -938570.4, -854315.0, -91223.46, 0.18975429, 0.2441287, -795961.5, 231171.34, 0.0, 10.000044, 10.0011425 
1.685032e+3, 2.051931e+2, -978308.5, -1067235.9, -68153.414, 0.14027295, 0.2522519, -941397.1, -12265.65, 0.0, 10.00014, 9.998979 
1.6850394e+3, 2.1519244e+2, -922355.75, -971095.06, -30988.814, -0.18407398, 0.25471616, -907302.25, -76161.44, 0.0, 9.999789, 9.999124 
1.6850488e+3, 2.2519134e+2, -760352.2, -872035.25, -75649.234, -0.22098812, 0.2519369, -722166.7, 10985.764, 0.0, 10.000325, 9.99889 
1.6850597e+3, 2.3518978e+2, -462982.3, -664704.5, -92484.73, -0.003515473, 0.17028046, -426999.03, 208167.67, 0.0, 10.001652, 9.998992 
1.6850689e+3, 2.451886e+2, -384997.75, -773671.6, -5260.241, -0.036666214, 0.24928676, -384926.6, 152253.64, 0.0, 10.002354, 9.99723 
1.6850767e+3, 2.5518775e+2, -257503.05, -653134.06, 22465.504, -0.3158639, 0.4054239, -256231.45, 182962.03, 0.0000000018399801, 10.002517, 9.997309 
1.6850863e+3, 2.651857e+2, -130058.96, -428030.9, -21967.604, -0.31610805, 0.4263957, -128448.13, 212764.97, 0.0000039092515, 10.002248, 9.998307 
1.6850978e+3, 2.7518252e+2, -110312.195, -356551.3, -67919.195, -0.056397967, 0.24038675, -92820.79, 150418.2, 0.000046409757, 10.00168, 9.998388 
1.6851062e+3, 2.8518054e+2, -99990.62, -490355.44, -96785.62, -0.023952503, 0.2994566, -77311.54, 67948.26, 0.00025645504, 10.001865, 9.996726 
1.685112e+3, 2.9518002e+2, 142427.17, -287057.88, -72833.46, -0.20816487, 0.52673995, 154442.38, 201714.92, 0.0008662299, 10.002719, 9.997023 
1.6851214e+3, 3.051776e+2, 297600.6, -47672.21, 123590.8, -0.27084208, 0.5197522, 337280.03, 337280.03, 0.0019879541, 10.002834, 9.9983015 
1.6851369e+3, 3.1517342e+2, 208861.5, -41726.25, 32027.385, 0.030258289, 0.24422804, 212890.13, 212890.13, 0.0034694332, 10.001971, 9.998764 
1.6949531e+3, 1.2517801e+2, -2002934.6, -1965719.6, -14111.0625, 0.060550913, 0.37970182, -1960974.1, -247688.97, 0.051028147, 9.99844, 9.999012 
1.6949609e+3, 1.3517928e+2, -1997605.9, -1636403.5, -62787.547, 0.020045727, 0.34028363, -1625800.4, -10523.13, 0.032295942, 9.996669, 10.001452 
1.6949736e+3, 1.4518002e+2, -1822230.3, -1527163.4, 10553.551, 0.36007822, 0.27743557, -1526786.4, -9518.049, 0.015627254, 9.997283, 10.001239 
1.6949806e+3, 1.5518053e+2, -1479840.4, -1320823.0, 52947.082, -0.06496112, 0.18331505, -1304806.8, 114449.33, 0.004910431, 9.9990225, 10.001141 
1.6949892e+3, 1.6518024e+2, -1431688.5, -1456295.6, -74040.36, -0.20482153, 0.14494537, -1368936.4, -47679.23, 0.0007170378, 9.999584, 9.999261 
1.6950002e+3, 1.7517975e+2, -1361438.1, -1354024.8, -68668.19, 0.058589965, 0.13238965, -1288963.4, -65698.02, 0.000016975888, 9.999329, 9.999402 
1.6950107e+3, 1.8518053e+2, -1215306.9, -1205600.4, -21647.414, 0.12025897, 0.26087883, -1188268.9, -63006.836, 0.0, 9.999523, 9.999662 
1.6950196e+3, 1.9518232e+2, -1042876.1, -1058559.3, -64134.16, -0.057203125, 0.43907157, -986105.94, 41143.74, 0.0, 9.9999895, 9.999766 
1.6950299e+3, 2.0518267e+2, -907200.44, -887634.06, -93830.18, -0.100464, 0.47830236, -803078.44, 126168.086, 0.0, 10.000003, 10.0002775 
1.6950414e+3, 2.1518178e+2, -851354.2, -797013.1, -34054.01, 0.010710988, 0.3278826, -780618.6, 50632.27, 0.0, 9.999669, 10.00038 
1.695051e+3, 2.2518118e+2, -799148.4, -910667.1, -35838.594, -0.04847574, 0.3217293, -788624.2, -55368.54, 0.0, 10.00015, 9.998707 
1.6950588e+3, 2.3518075e+2, -503392.16, -704941.56, -29433.508, -0.2726463, 0.37396365, -499181.78, 136079.88, 0.0, 10.001466, 9.998803 
1.6950688e+3, 2.451789e+2, -349080.6, -642242.9, -7966.4565, -0.3186973, 0.34182334, -348864.28, 188413.86, 0.0, 10.00211, 9.998252 
1.6950807e+3, 2.5517574e+2, -211444.73, -518497.22, 39650.957, -0.17824773, 0.16751702, -206407.1, 232896.75, 0.0000000033657745, 10.002354, 9.998311 
1.6950902e+3, 2.6517338e+2, -220376.17, -571396.7, -52866.266, -0.16267966, 0.15180667, -212586.97, 128739.02, 0.0000030031388, 10.002058, 9.997414 
1.6950977e+3, 2.7517173e+2, -191827.34, -490131.5, -73884.36, -0.24682778, 0.2041057, -174530.5, 68814.21, 0.000041455987, 10.001531, 9.997541 
1.6951062e+3, 2.851701e+2, -55106.203, -352693.22, -77952.82, -0.23842843, 0.28316435, -35923.08, 109438.055, 0.0002433747, 10.001671, 9.997768 
1.6951156e+3, 2.9516858e+2, 191557.77, -151742.34, -26467.979, -0.13967004, 0.31010482, 193586.42, 240960.75, 0.0008327765, 10.002563, 9.9980345 
1.6951251e+3, 3.0516526e+2, 189950.98, -190874.44, 80549.93, -0.20007709, 0.20476851, 206287.63, 206287.63, 0.0019274647, 10.002516, 9.9974575 
1.6951378e+3, 3.1516212e+2, 108097.14, -153384.86, 35413.543, -0.11378603, 0.11139203, 112808.45, 112808.45, 0.0033941052, 10.001584, 9.998162 
1.7049526e+3, 1.2516908e+2, -2049712.8, -2080262.9, -119867.086, 0.1656476, 0.33603334, -1944151.4, -230782.2, 0.054460447, 9.998505, 9.998202 
1.7049596e+3, 1.3517016e+2, -1646611.6, -1587670.1, -60030.273, 0.083203375, 0.38791332, -1550266.6, 65100.375, 0.034638863, 9.99958, 10.000401 
1.7049718e+3, 1.4516965e+2, -1504151.4, -1415309.9, 67868.01, 0.350009, 0.2685704, -1378617.9, 138754.98, 0.016903277, 9.999674, 10.000858 
1.7049803e+3, 1.5517032e+2, -1495339.3, -1367384.6, 36308.957, -0.01193434, 0.22747643, -1357799.5, 61560.387, 0.00538814, 9.999098, 10.000773 
1.7049894e+3, 1.6517009e+2, -1438050.5, -1404703.0, -72340.81, -0.12700872, 0.18714413, -1347139.3, -25780.33, 0.0008082668, 9.999285, 9.999764 
1.7050005e+3, 1.751697e+2, -1172104.9, -1207064.5, -32045.895, 0.097147904, 0.134819, -1153081.5, 70280.99, 0.000020835996, 10.000373, 9.999919 
1.7050104e+3, 1.8517032e+2, -1126994.9, -1238341.6, 69209.555, 0.102275126, 0.25678065, -1093845.5, 31515.576, 0.0, 10.000455, 9.998999 
1.7050186e+3, 1.9517162e+2, -1117618.3, -1167112.9, 63368.313, -0.15250185, 0.4541806, -1074336.4, -46979.598, 0.0, 9.999784, 9.999131 
1.7050289e+3, 2.0517182e+2, -938366.9, -879489.3, 46274.68, -0.16488856, 0.4989243, -854083.0, 75272.92, 0.0, 9.999691, 10.000473 
1.7050417e+3, 2.1517116e+2, -756120.1, -731431.3, 5129.8535, 0.055432927, 0.34826347, -730407.9, 100948.695, 0.0, 10.000242, 10.000545 
1.7050518e+3, 2.2517076e+2, -733813.7, -896850.1, 6275.0854, 0.0102413995, 0.36318204, -733572.56, -212.91183, 0.0, 10.000678, 9.998542 
1.7050599e+3, 2.3517056e+2, -587808.56, -759821.94, -11285.121, -0.28763628, 0.4520101, -587071.3, 48294.457, 0.0, 10.000954, 9.998668 
1.7050701e+3, 2.4516878e+2, -452335.9, -622033.94, -6107.578, -0.32045788, 0.40460348, -452116.38, 85264.266, 0.0, 10.001103, 9.998878 
1.705083e+3, 2.5516555e+2, -341361.38, -506203.28, -9617.715, -0.11860503, 0.1594263, -340802.13, 98601.35, 0.0000000026261497, 10.001157, 9.998966 
1.7050925e+3, 2.6516333e+2, -287588.06, -625801.56, -65192.3, -0.112525456, 0.13426435, -275457.03, 65966.93, 0.0000021613648, 10.001682, 9.997224 
1.7050992e+3, 2.7516204e+2, -40799.465, -442470.8, -61379.27, -0.2945798, 0.24653886, -31629.465, 211812.28, 0.000036656253, 10.002663, 9.997329 
1.705108e+3, 2.8516015e+2, 148927.78, -227932.6, -42128.12, -0.2736993, 0.29907477, 153579.73, 299039.47, 0.00022920681, 10.002971, 9.997992 
1.7051187e+3, 2.9515758e+2, 214715.16, -120210.18, -81295.234, -0.08085906, 0.20328745, 233404.73, 280883.3, 0.00079251203, 10.002646, 9.99821 
1.7051281e+3, 3.0515426e+2, 208788.97, -234617.34, 22058.527, -0.15490694, 0.1150907, 209883.63, 209883.63, 0.0018379622, 10.002856, 9.996991 
1.7051403e+3, 3.151527e+2, 359099.56, -58082.83, -58555.215, -0.089902125, 0.2253542, 367162.47, 367162.47, 0.0032495619, 10.003424, 9.997916 
1.7149535e+3, 1.2515856e+2, -1936775.9, -1841730.0, -50065.758, 0.34599054, 0.19328336, -1820223.9, -106749.92, 0.058051143, 9.998499, 9.999833 
1.7149566e+3, 1.3516273e+2, -1664767.1, -1614313.8, -12597.217, -0.19791862, 0.5704476, -1611343.4, 4095.7744, 0.037118543, 9.999553, 10.000214 
1.7149673e+3, 1.4516011e+2, -1560779.5, -1564246.4, 35719.04, -0.097223476, 0.31256202, -1526751.9, -9283.727, 0.018276531, 9.999791, 9.999777 
1.7149818e+3, 1.5516114e+2, -1565596.4, -1515623.1, 25057.324, 0.21177538, 0.41302434, -1505223.4, -85764.13, 0.005915651, 9.999103, 9.999755 
1.7149922e+3, 1.6516183e+2, -1345965.9, -1221151.9, -45670.47, 0.18970072, 0.4507469, -1206225.6, 115223.49, 0.0009130136, 9.999322, 10.001001 
1.7149991e+3, 1.7516191e+2, -1091455.6, -1032323.7, 14593.445, -0.098784044, 0.31809083, -1028918.25, 194522.8, 0.000025810483, 10.00035, 10.001123 
1.7150079e+3, 1.8516159e+2, -1118872.9, -1228774.9, 32646.988, -0.21829274, 0.28600347, -1109906.5, 15536.8545, 0.0, 10.000477, 9.999057 
1.7150182e+3, 1.95161e+2, -1117904.1, -1159065.3, 46995.83, -0.185385, 0.28412345, -1087180.1, -59725.81, 0.0, 9.999745, 9.999206 
1.7150289e+3, 2.0516063e+2, -1014303.3, -1017988.2, 58270.625, -0.16025573, 0.31339628, -957846.0, -28386.584, 0.0, 9.999607, 9.999565 
1.7150404e+3, 2.1516043e+2, -840334.3, -871415.06, 35044.855, -0.13023724, 0.30254084, -817538.75, 13920.551, 0.0, 10.000091, 9.999658 
1.7150514e+3, 2.2515994e+2, -777002.06, -937910.44, 8000.118, -0.12796804, 0.35890466, -776605.3, -43139.258, 0.0, 10.000464, 9.998367 
1.7150624e+3, 2.3515917e+2, -620836.2, -796479.56, 11024.569, -0.14414306, 0.41311014, -620146.94, 15332.129, 0.0, 10.000808, 9.998492 
1.715073e+3, 2.4515815e+2, -465572.9, -599903.6, -14016.224, -0.17577888, 0.43727937, -464126.03, 73362.4, 0.0, 10.000896, 9.9991255 
1.7150833e+3, 2.5515687e+2, -348138.16, -483978.28, 5954.3394, -0.2194395, 0.3598156, -347877.66, 91617.12, 0.0000000000058928205, 10.000999, 9.999194 
1.715093e+3, 2.651552e+2, -284926.78, -574149.75, -40324.97, -0.26447532, 0.35515875, -279409.7, 62100.344, 0.0000014626683, 10.00149, 9.99767 
1.715102e+3, 2.7515325e+2, -34735.06, -387678.47, -13311.8125, -0.30090052, 0.35763445, -34233.695, 209298.38, 0.000032258973, 10.002482, 9.997792 
1.7151114e+3, 2.8515056e+2, 70293.1, -341665.66, -63856.465, -0.25631896, 0.34012297, 79964.26, 225521.11, 0.00021422074, 10.002752, 9.997318 
1.715121e+3, 2.95147e+2, 147572.72, -222930.0, -69375.28, -0.1521584, 0.20231329, 160136.9, 207722.44, 0.0007452291, 10.002485, 9.99758 
1.7151302e+3, 3.0514437e+2, 134407.86, -311450.9, 30309.988, -0.25514787, 0.23635423, 136458.94, 136458.94, 0.0017263927, 10.002547, 9.996605 
1.7151442e+3, 3.1514433e+2, 296689.47, -56162.47, 7133.795, -0.09604153, 0.52672166, 296833.63, 296833.63, 0.0030576272, 10.002907, 9.9981575 
1.7249519e+3, 1.2514742e+2, -1841676.6, -1730106.5, -71737.12, 0.32647043, 0.14662495, -1695017.0, 18568.756, 0.06177432, 9.998852, 10.000441 
1.7249556e+3, 1.3515206e+2, -1724173.9, -1623152.9, -89913.3, -0.21639273, 0.539659, -1570533.8, 45009.945, 0.039721623, 9.999047, 10.000401 
1.7249666e+3, 1.4514983e+2, -1687305.0, -1657017.9, 5454.6436, -0.091234796, 0.3270905, -1656065.5, -138496.58, 0.019743169, 9.999048, 9.999502 
1.7249812e+3, 1.551509e+2, -1535514.9, -1521044.6, 33998.086, 0.23669246, 0.4530728, -1493520.3, -73958.64, 0.006494274, 9.999374, 9.999601 
1.7249916e+3, 1.6515179e+2, -1363473.4, -1243280.5, -11685.381, 0.22463688, 0.5252682, -1242155.0, 79396.375, 0.001032908, 9.999268, 10.00088 
1.7249988e+3, 1.7515187e+2, -1295235.5, -1144010.8, -77314.03, -0.08812706, 0.403952, -1111481.3, 112063.19, 0.00003215152, 9.999006, 10.001008 
1.7250079e+3, 1.8515134e+2, -1290958.0, -1267282.9, -89711.03, -0.18442932, 0.3375687, -1188631.8, -63084.508, 0.0, 9.999117, 9.999437 
1.7250186e+3, 1.9515057e+2, -1069168.3, -1092994.0, -73744.51, -0.11164545, 0.28091204, -1006380.56, 21175.652, 0.0, 9.999907, 9.999573 
1.7250295e+3, 2.0514995e+2, -969099.7, -1066729.6, -17865.82, -0.09160877, 0.2991086, -965933.0, -36369.51, 0.0, 10.000218, 9.998944 
1.7250404e+3, 2.1514937e+2, -874828.4, -958545.2, -38778.945, -0.118801974, 0.31483775, -859626.0, -28055.879, 0.0, 10.000151, 9.999042 
1.7250517e+3, 2.251486e+2, -781168.3, -892767.7, -9818.97, -0.124136865, 0.35675734, -780311.0, -46731.613, 0.0, 10.000251, 9.998768 
1.7250632e+3, 2.3514783e+2, -625622.7, -754218.2, 12508.091, -0.1269037, 0.36933154, -624417.4, 11172.236, 0.0, 10.000604, 9.998867 
1.7250742e+3, 2.4514721e+2, -455709.47, -594610.3, 13974.316, -0.1328489, 0.41432542, -454317.5, 83277.68, 0.0, 10.000957, 9.999128 
1.7250851e+3, 2.5514674e+2, -309767.4, -461313.78, -1105.6909, -0.14824992, 0.41777247, -309759.34, 129837.17, 0.0000000000049057277, 10.001251, 9.999221 
1.7250952e+3, 2.651455e+2, -238572.31, -508682.78, -16607.072, -0.18629828, 0.43820566, -237555.11, 104052.89, 0.0000011502509, 10.001624, 9.998054 
1.7251047e+3, 2.7514362e+2, -73502.44, -366121.2, -20819.236, -0.2428374, 0.40614173, -72028.62, 171599.7, 0.000029351942, 10.002039, 9.998155 
1.7251144e+3, 2.8514096e+2, 54002.473, -345867.7, -43379.68, -0.20682845, 0.37565526, 58654.37, 204306.55, 0.00020332911, 10.00263, 9.997342 
1.7251241e+3, 2.9513744e+2, 281244.63, -160593.48, -41392.715, -0.11959136, 0.2406702, 285088.97, 332770.3, 0.00070499646, 10.0034275, 9.997544 
1.7251334e+3, 3.0513495e+2, 249770.97, -275927.1, 100137.266, -0.23513524, 0.29999295, 268199.53, 268199.53, 0.0016286817, 10.003389, 9.996468 
1.7251472e+3, 3.1513426e+2, 222094.31, -111886.305, 50494.805, -0.038024005, 0.54616696, 229561.69, 229561.69, 0.0028877526, 10.002377, 9.998089 
1.7349474e+3, 1.2513685e+2, -1870709.4, -1800005.5, -62632.49, -0.07020258, 0.31542933, -1763436.8, -49744.11, 0.06561491, 9.998914, 9.999912 
1.7349562e+3, 1.351378e+2, -1696143.0, -1555267.3, -91450.61, -0.08506091, 0.2681214, -1510272.5, 105411.93, 0.042436883, 9.999003, 10.000902 
1.7349696e+3, 1.451385e+2, -1639529.5, -1569388.0, 694.2873, 0.2627929, 0.29967326, -1569381.1, -51703.06, 0.021297567, 9.999098, 10.000076 
1.734978e+3, 1.551397e+2, -1480185.9, -1410133.3, 52432.203, -0.04276853, 0.357773, -1382104.1, 37562.336, 0.0071235094, 9.999393, 10.00035 
1.7349876e+3, 1.6514012e+2, -1450328.6, -1449340.3, -33821.387, -0.14339545, 0.41959456, -1416009.5, -94345.45, 0.0011691477, 9.999365, 9.999425 
1.7349994e+3, 1.7513956e+2, -1395154.5, -1359443.0, -79556.414, 0.05118205, 0.38619947, -1295763.1, -72090.57, 0.00004011834, 9.999031, 9.999521 
1.7350101e+3, 1.8513955e+2, -1240830.4, -1174873.4, -74557.516, 0.100757115, 0.4146944, -1126326.4, -653.6671, 0.0, 9.999163, 10.0000515 
1.7350198e+3, 1.9514023e+2, -1039358.9, -1013039.1, -38011.4, -0.018164212, 0.43933558, -985974.0, 41689.645, 0.0, 9.9998255, 10.00016 
1.7350303e+3, 2.0513974e+2, -1010758.4, -1125995.1, -32234.62, -0.059700698, 0.45955083, -1002354.4, -72685.76, 0.0, 10.000101, 9.998593 
1.7350419e+3, 2.1513805e+2, -916245.9, -1016179.8, -31772.451, -0.0062889755, 0.39655393, -906999.75, -75311.72, 0.0, 10.000028, 9.998703 
1.7350523e+3, 2.2513688e+2, -746783.8, -778023.25, -6196.8296, -0.10164092, 0.3676007, -745599.44, -11900.736, 0.0, 10.000066, 9.999643 
1.7350619e+3, 2.3513629e+2, -585545.2, -635112.25, 36086.203, -0.32922634, 0.30874765, -566551.56, 69148.2, 0.0, 10.000444, 9.999761 
1.7350739e+3, 2.4513571e+2, -503843.2, -639349.1, 15542.174, -0.29146928, 0.32311603, -502083.4, 35619.867, 0.0, 10.000726, 9.998932 
1.735088e+3, 2.551352e+2, -348620.97, -496658.63, 23349.258, -0.004965762, 0.34050015, -345025.53, 94683.055, 0.000000000000012544113, 10.001066, 9.9990635 
1.735099e+3, 2.651343e+2, -250270.2, -485172.0, -9680.647, 0.007361666, 0.38906142, -249871.92, 91846.05, 0.0000010511417, 10.001416, 9.998316 
1.7351072e+3, 2.7513316e+2, -79908.74, -338330.06, 10052.334, -0.2283329, 0.40113708, -79518.305, 164211.98, 0.000029114979, 10.001867, 9.998424 
1.7351171e+3, 2.8513125e+2, 52991.117, -298908.1, -30101.533, -0.24257286, 0.40857798, 55547.438, 201294.75, 0.00019954717, 10.002416, 9.997772 
1.735128e+3, 2.9512843e+2, 274554.66, -116651.6, 3921.1858, -0.091374055, 0.30062228, 274593.97, 322364.4, 0.00068326393, 10.0031805, 9.997967 
1.7351368e+3, 3.0512568e+2, 198626.22, -294752.06, 46881.566, -0.24298675, 0.30858064, 203041.47, 203041.47, 0.0015767281, 10.003038, 9.99649 
1.7351489e+3, 3.151217e+2, 140642.77, -149585.06, 66762.67, -0.14879814, 0.2111907, 155263.94, 155263.94, 0.0028061315, 10.001865, 9.998047 
1.744947e+3, 1.2512682e+2, -1782859.1, -1801177.9, -36465.938, -0.024435673, 0.4643412, -1754419.9, -40624.33, 0.06957688, 9.999712, 9.999528 
1.744956e+3, 1.3512664e+2, -1500584.6, -1437786.3, -70810.2, -0.06832172, 0.28649345, -1391725.9, 224072.69, 0.045260757, 10.000266, 10.001138 
1.7449702e+3, 1.4512804e+2, -1442759.6, -1434582.4, 10707.482, 0.36163425, 0.35696998, -1427209.4, 90574.48, 0.022935338, 10.000308, 10.000416 
1.7449771e+3, 1.5512884e+2, -1481080.4, -1371745.9, -3748.9478, -0.061197776, 0.3404684, -1371617.5, 48155.688, 0.0078018596, 9.999238, 10.000672 
1.7449865e+3, 1.6512893e+2, -1523285.1, -1526711.1, -18355.71, -0.18311562, 0.37245098, -1506562.6, -184788.97, 0.0013223152, 9.99905, 9.999046 
1.7449994e+3, 1.751284e+2, -1250347.4, -1330784.1, 2035.9784, 0.08835688, 0.38087526, -1250295.9, -26511.174, 0.000049909977, 10.000213, 9.999148 
1.7450106e+3, 1.851285e+2, -1037110.2, -1073451.5, 35242.73, 0.16504173, 0.43513447, -1015629.56, 110155.46, 0.0000000000000006446772, 10.000559, 10.000068 
1.7450199e+3, 1.9512913e+2, -990874.3, -988398.4, 5945.749, 0.0021371653, 0.45478475, -983563.06, 44212.645, 0.0, 10.000159, 10.00016 
1.7450306e+3, 2.0512879e+2, -952670.75, -1079114.8, 41977.996, -0.039563373, 0.48069018, -940003.56, -10224.798, 0.0, 10.000415, 9.99876 
1.745043e+3, 2.1512753e+2, -696845.25, -886478.94, 57864.953, 0.03966927, 0.4437065, -680582.94, 151210.08, 0.0, 10.001439, 9.998907 
1.7450535e+3, 2.2512642e+2, -556962.25, -690431.2, 56334.56, -0.056887593, 0.4117027, -536363.6, 197438.45, 0.0, 10.0013685, 9.999631 
1.7450623e+3, 2.3512547e+2, -618406.2, -654599.44, 14039.311, -0.3270526, 0.31989416, -613598.9, 22206.836, 0.0, 10.000226, 9.999744 
1.7450742e+3, 2.4512456e+2, -621317.75, -700271.8, 13041.923, -0.28548607, 0.30462477, -619219.25, -81407.266, 0.0, 9.999953, 9.9988785 
1.745089e+3, 2.5512365e+2, -426570.6, -543404.1, 2074.5518, 0.033454496, 0.29082045, -426533.78, 13287.274, 0.0, 10.000575, 9.99898 
1.7451008e+3, 2.6512268e+2, -282204.34, -481437.4, -9803.42, 0.069384605, 0.32748798, -281723.13, 60108.066, 0.0000010008785, 10.001117, 9.998483 
1.7451096e+3, 2.7512166e+2, -95492.03, -331360.2, -23894.643, -0.16941173, 0.34324738, -93095.73, 150746.4, 0.000030147008, 10.001689, 9.998558 
1.7451197e+3, 2.8512028e+2, 11873.276, -300736.16, -55722.453, -0.19129042, 0.38748574, 21508.777, 167364.69, 0.00019895253, 10.00206, 9.997925 
1.745131e+3, 2.9511836e+2, 120794.21, -185819.84, -84552.83, -0.04825749, 0.35553634, 142564.95, 190438.66, 0.0006793162, 10.002081, 9.998028 
1.7451398e+3, 3.0511612e+2, 176970.25, -228357.25, -8492.195, -0.21086732, 0.3825626, 177148.1, 177148.1, 0.001580627, 10.002535, 9.9972 
1.7451517e+3, 3.1511176e+2, 458212.0, 61159.66, 8130.8135, -0.13932106, 0.17065865, 458378.44, 458378.44, 0.0028399522, 10.00379, 9.998563 
1.7549494e+3, 1.2511562e+2, -1796963.6, -1826158.8, -244340.67, 0.19325496, 0.42641896, -1566784.9, 147126.36, 0.07366958, 9.999719, 9.999393 
1.7549543e+3, 1.3511887e+2, -1505773.4, -1439986.5, -27502.682, -0.2786742, 0.6103857, -1430003.6, 185879.48, 0.048192136, 10.000239, 10.001131 
1.7549682e+3, 1.4511892e+2, -1422344.8, -1415954.0, -33705.89, 0.08406094, 0.5340159, -1385292.4, 132589.0, 0.024652572, 10.000403, 10.000508 
1.7549782e+3, 1.551184e+2, -1490871.1, -1398219.3, -36974.734, 0.10069776, 0.40475842, -1385272.8, 34608.043, 0.008527423, 9.999254, 10.00049 
1.7549877e+3, 1.6511808e+2, -1471473.9, -1428323.6, 4114.5596, 0.0015245497, 0.37241006, -1427934.8, -106052.77, 0.0014925194, 9.99909, 9.999702 
1.7549983e+3, 1.751183e+2, -1205625.3, -1227389.9, 52394.98, -0.06377348, 0.3842959, -1162994.4, 60887.05, 0.00006156021, 10.000174, 9.999873 
1.7550088e+3, 1.8511812e+2, -1075301.4, -1153937.5, 10944.522, -0.0950526, 0.40247545, -1073806.5, 52077.406, 0.0000000010737394, 10.000565, 9.999512 
1.7550188e+3, 1.9511728e+2, -1038250.75, -1076400.0, -362.0189, -0.14232077, 0.3317182, -1038247.3, -10355.278, 0.0, 10.000115, 9.9995775 
1.7550303e+3, 2.0511703e+2, -918445.75, -990488.44, 68066.836, -0.14281352, 0.3649973, -877456.5, 52437.34, 0.0, 10.000334, 9.999408 
1.7550436e+3, 2.1511759e+2, -670424.56, -801297.7, 102942.67, -0.06656068, 0.439116, -613881.06, 218006.38, 0.0, 10.001302, 9.999559 
1.7550547e+3, 2.2511706e+2, -646621.9, -833942.0, 4250.711, -0.089233294, 0.47824764, -646525.5, 87366.2, 0.0, 10.001188, 9.998732 
1.7550637e+3, 2.3511545e+2, -701919.9, -795298.9, -15690.504, -0.21946587, 0.40951824, -699353.94, -63447.438, 0.0, 10.000086, 9.998845 
1.7550749e+3, 2.4511376e+2, -653252.44, -723809.06, 29731.887, -0.24198662, 0.36317065, -642394.6, -104473.62, 0.0, 9.999764, 9.99881 
1.7550881e+3, 2.5511205e+2, -451712.66, -558852.5, 35984.023, -0.13455892, 0.27143246, -440748.97, -814.40125, 0.0, 10.000421, 9.998944 
1.7551003e+3, 2.6511046e+2, -307203.03, -502626.75, -1339.3698, -0.10458815, 0.25288418, -307193.84, 34755.645, 0.00000094846536, 10.000972, 9.998412 
1.7551114e+3, 2.7510917e+2, -121220.41, -341605.88, 12715.105, -0.16747743, 0.23648281, -120489.234, 123475.086, 0.000030605133, 10.001507, 9.99857 
1.7551222e+3, 2.851081e+2, -33181.715, -349567.9, -64199.754, -0.17572486, 0.3217807, -20650.871, 125326.78, 0.00020031627, 10.001859, 9.997689 
1.7551325e+3, 2.9510713e+2, 70826.125, -243269.1, -67197.23, -0.12747782, 0.40944788, 84598.36, 132589.48, 0.0006943286, 10.0018835, 9.997727 
1.7551418e+3, 3.051064e+2, 203729.56, -97353.766, 15442.266, -0.30465525, 0.5550716, 204519.5, 204519.5, 0.0016369632, 10.002219, 9.998244 
1.7551552e+3, 3.151046e+2, 422124.53, 110800.74, 119502.56, -0.21902433, 0.46832204, 462706.06, 462706.06, 0.0029652813, 10.0032835, 9.999132 
1.7649496e+3, 1.251059e+2, -1750278.1, -1767259.4, -159545.63, 0.24298157, 0.37011275, -1598997.4, 115011.15, 0.07790593, 9.999852, 9.999725 
1.7649545e+3, 1.3510965e+2, -1727982.9, -1620854.6, 51269.08, -0.20997474, 0.67913854, -1600272.6, 15703.009, 0.05123237, 9.9990015, 10.000432 
1.7649662e+3, 1.4510925e+2, -1684430.9, -1553988.9, 20918.656, -0.04698762, 0.59647334, -1550716.3, -32737.518, 0.026445003, 9.998642, 10.0004 
1.7649783e+3, 1.5510832e+2, -1464820.9, -1400580.1, -4076.5461, 0.18457781, 0.44032323, -1400322.5, 19660.137, 0.009296644, 9.999514, 10.000348 
1.7649885e+3, 1.6510788e+2, -1331543.0, -1348677.8, 69038.8, 0.14139755, 0.3979597, -1270542.0, 51442.09, 0.0016790463, 10.000015, 9.999789 
1.7649983e+3, 1.7510803e+2, -1207018.3, -1222019.4, 44537.97, -0.06810459, 0.39416268, -1169353.6, 54628.37, 0.000074904594, 10.000132, 9.999927 
1.7650087e+3, 1.8510775e+2, -1138589.8, -1214882.5, -11606.158, -0.13107707, 0.41399437, -1136863.3, -10877.786, 0.000000009428086, 10.000251, 9.999252 
1.7650196e+3, 1.95107e+2, -964353.44, -1065296.8, -19892.934, -0.10421681, 0.3754733, -960574.56, 67420.36, 0.0, 10.000724, 9.999369 
1.765031e+3, 2.051067e+2, -822837.25, -886034.7, 84523.78, -0.122118376, 0.3888258, -764198.75, 165796.94, 0.0, 10.000751, 9.99992 
1.7650433e+3, 2.1510704e+2, -773169.4, -796146.5, 89058.93, -0.16749492, 0.39586443, -694861.06, 137125.4, 0.0, 10.000372, 10.000041 
1.7650549e+3, 2.251064e+2, -761328.56, -956258.8, -1002.1509, -0.15442477, 0.4309676, -761323.44, -27331.814, 0.0, 10.000697, 9.99812 
1.7650655e+3, 2.3510478e+2, -499184.4, -762594.56, -26541.549, -0.11245341, 0.42119634, -496536.66, 139474.22, 0.0, 10.001765, 9.998253 
1.7650767e+3, 2.4510294e+2, -362349.13, -596837.6, 40911.734, -0.11931529, 0.39372185, -355416.13, 182612.45, 0.0, 10.001792, 9.998723 
1.7650884e+3, 2.5510094e+2, -395430.56, -548274.06, 29703.086, -0.16800956, 0.28513524, -389861.1, 50183.375, 0.0, 10.000845, 9.998833 
1.7651005e+3, 2.6509944e+2, -387703.47, -526040.3, 34883.83, -0.15783541, 0.27657998, -379404.78, -37345.973, 0.0000007067664, 10.000372, 9.998534 
1.7651127e+3, 2.750985e+2, -278317.3, -407140.56, 27646.027, -0.121263094, 0.29103714, -272635.0, -28563.916, 0.000029110019, 10.000387, 9.998664 
1.7651242e+3, 2.8509745e+2, -137815.92, -381932.56, 2577.9395, -0.11291073, 0.3623578, -137788.69, 8296.367, 0.00020317562, 10.001069, 9.99785 
1.7651348e+3, 2.9509616e+2, 169905.34, -185082.27, -12753.685, -0.11618438, 0.41209427, 170362.97, 218463.84, 0.00072254677, 10.002524, 9.997822 
1.7651446e+3, 3.0509523e+2, 310843.72, -47553.773, 61113.676, -0.2537463, 0.5294535, 320978.22, 320978.22, 0.0017154174, 10.0029545, 9.998236 
1.7651585e+3, 3.1509364e+2, 236333.89, -15415.641, 43068.492, -0.15134448, 0.48221236, 243498.03, 243498.03, 0.0031026104, 10.002117, 9.99885 
1.7749475e+3, 1.250996e+2, -1677141.8, -1638974.0, -143051.34, -0.0110454485, 0.46376052, -1513739.1, 200329.4, 0.08231803, 9.999942, 10.0006075 
1.7749566e+3, 1.3509914e+2, -1826437.3, -1824500.1, 20242.139, 0.069306575, 0.48843527, -1805203.4, -189128.48, 0.054393712, 9.998994, 9.999035 
1.7749642e+3, 1.4509876e+2, -1706100.0, -1605641.9, 32074.701, -0.15349497, 0.50608873, -1596274.4, -78195.805, 0.02831169, 9.998664, 10.000037 
1.774977e+3, 1.5509863e+2, -1473274.9, -1416321.8, 39663.39, 0.08592364, 0.4423428, -1395971.0, 24107.209, 0.010105246, 9.999503, 10.000244 
1.7749886e+3, 1.6509841e+2, -1365538.1, -1427882.3, 64386.45, 0.1305516, 0.45188436, -1325174.8, -3095.6003, 0.0018804772, 10.000049, 9.99923 
1.7749992e+3, 1.750976e+2, -1253593.0, -1312558.4, 57284.336, -0.0083724065, 0.41193482, -1218649.5, 5436.8535, 0.00008970714, 10.000111, 9.999312 
1.7750102e+3, 1.8509744e+2, -1129936.8, -1209099.4, -6740.515, -0.048881043, 0.4746569, -1129367.0, -3277.8276, 0.000000028818846, 10.000297, 9.999272 
1.7750217e+3, 1.9509819e+2, -964772.1, -1058739.3, 6264.509, 0.020875558, 0.58313537, -964356.3, 63728.51, 0.0, 10.000688, 9.9994335 
1.7750323e+3, 2.050977e+2, -811947.9, -842198.9, 59741.727, -0.08456846, 0.5542185, -765446.6, 164638.31, 0.0, 10.000668, 10.000255 
1.775042e+3, 2.1509592e+2, -776500.2, -763999.75, 82201.69, -0.34477395, 0.31437126, -687811.0, 144279.02, 0.0, 10.000214, 10.00033 
1.7750539e+3, 2.2509445e+2, -819067.9, -1038374.44, 29606.527, -0.34578228, 0.27799004, -815141.25, -81039.26, 0.0, 10.000521, 9.997648 
1.7750677e+3, 2.3509337e+2, -546396.25, -833579.9, 22754.738, -0.089097045, 0.36094496, -544604.5, 91515.46, 0.0, 10.001637, 9.997831 
1.7750795e+3, 2.4509193e+2, -396714.7, -623411.2, -6755.7495, -0.024081036, 0.39883518, -396513.56, 141623.05, 0.0, 10.001601, 9.99863 
1.7750895e+3, 2.5509033e+2, -426469.5, -572112.75, 4713.286, -0.14777385, 0.33823025, -426317.16, 13833.228, 0.0, 10.000681, 9.998742 
1.7751007e+3, 2.6508963e+2, -406052.4, -520796.3, 27388.256, -0.18685246, 0.40530068, -399850.3, -57691.61, 0.00000032366296, 10.000184, 9.998664 
1.775113e+3, 2.750898e+2, -301884.3, -402866.47, 43748.69, -0.14202969, 0.5163345, -285567.47, -41405.22, 0.00002512301, 10.0001745, 9.998788 
1.7751254e+3, 2.850883e+2, -152954.11, -363896.28, 41026.523, -0.13155447, 0.53023297, -145255.73, 922.4587, 0.0002007502, 10.000847, 9.998087 
1.7751373e+3, 2.9508534e+2, 167191.06, -145808.78, 56124.957, -0.13492411, 0.37334946, 176950.69, 225154.92, 0.0007396981, 10.002332, 9.998183 
1.7751485e+3, 3.050824e+2, 187463.06, -226399.44, 20313.166, -0.20117341, 0.32216504, 188457.67, 188457.67, 0.0017576203, 10.002635, 9.997154 
1.775161e+3, 3.1508076e+2, 80832.09, -188607.98, 68738.35, -0.14097211, 0.38140586, 97355.07, 97355.07, 0.0031470445, 10.001536, 9.997909 
1.7849459e+3, 1.2509015e+2, -1864759.9, -1610969.4, -153279.2, -0.06255384, 0.50416434, -1538874.9, 175285.45, 0.08696164, 9.998138, 10.001666 
1.7849569e+3, 1.350879e+2, -1771273.8, -1844357.5, -122899.04, 0.18309501, 0.3896637, -1679599.0, -63417.227, 0.057701517, 9.999606, 9.998593 
1.7849632e+3, 1.4508747e+2, -1606862.3, -1587780.8, -22348.8, -0.15581235, 0.4419109, -1573021.4, -54834.62, 0.030258754, 9.9994755, 9.999768 
1.7849763e+3, 1.5508807e+2, -1429783.6, -1417771.8, -31429.783, 0.042990565, 0.46952543, -1391779.3, 28403.49, 0.0109521225, 9.999886, 10.000055 
1.7849886e+3, 1.650881e+2, -1327001.6, -1410819.3, 20015.814, 0.11009758, 0.51150197, -1322467.1, -285.32678, 0.0020959692, 10.000305, 9.999228 
1.7849998e+3, 1.7508678e+2, -1159088.5, -1269188.4, 29771.33, 0.007596162, 0.42002636, -1151553.9, 72637.79, 0.000105867584, 10.000764, 9.999296 
1.7850111e+3, 1.8508606e+2, -1072264.0, -1228858.9, -8587.572, -0.0074723903, 0.45073527, -1071794.5, 54404.656, 0.0000000562377, 10.000906, 9.998847 
1.7850229e+3, 1.9508635e+2, -950001.2, -1094500.1, -46351.848, 0.06739315, 0.552915, -936410.8, 91789.29, 0.0, 10.000972, 9.999052 
1.7850336e+3, 2.0508552e+2, -798357.6, -879719.3, -38948.086, -0.028888375, 0.5291093, -782718.94, 147485.17, 0.0, 10.000937, 9.999882 
1.785043e+3, 2.1508351e+2, -695874.4, -769053.25, -89006.66, -0.29607427, 0.30677584, -636229.9, 195982.16, 0.0, 10.000937, 9.999962 
1.7850551e+3, 2.2508179e+2, -760474.2, -997653.3, -96755.66, -0.29203343, 0.25953463, -726011.0, 8215.668, 0.0, 10.000886, 9.997748 
1.7850696e+3, 2.3508045e+2, -659564.06, -878054.0, -90106.89, -0.031458046, 0.3101961, -627197.94, 9048.9375, 0.0, 10.0008335, 9.997911 
1.7850813e+3, 2.4507943e+2, -518233.4, -652864.44, -114386.17, 0.033463735, 0.3771511, -452825.25, 85434.78, 0.0, 10.000668, 9.998862 
1.7850903e+3, 2.5507882e+2, -446388.53, -559193.5, -104197.99, -0.11318181, 0.39628616, -384307.0, 55958.62, 0.0, 10.000461, 9.998928 
1.7851014e+3, 2.6507857e+2, -366028.8, -484181.66, -29548.752, -0.1366886, 0.4897155, -359051.06, -16780.902, 0.00000018370703, 10.000369, 9.998831 
1.7851141e+3, 2.7507854e+2, -248064.48, -368130.0, -32964.297, -0.06257525, 0.5653106, -239609.45, 4665.7017, 0.000020759246, 10.000464, 9.998904 
1.7851268e+3, 2.8507695e+2, -150149.94, -343242.75, 33927.984, -0.0617384, 0.55812883, -144362.02, 1929.2119, 0.00019246842, 10.000807, 9.998231 
1.7851394e+3, 2.9507425e+2, 56468.043, -183317.22, 1183.0094, -0.111968376, 0.4171729, 56473.88, 104787.9, 0.0007361142, 10.0015135, 9.998309 
1.7851517e+3, 3.0507097e+2, 130425.66, -247640.28, -27114.203, -0.105756894, 0.3215709, 132360.33, 132360.33, 0.001742138, 10.0022135, 9.997208 
1.7851646e+3, 3.15069e+2, 234645.56, -116359.125, 25877.736, 0.035753977, 0.36159813, 236543.14, 236543.14, 0.0030649356, 10.0025625, 9.997928 
1.7949454e+3, 1.2507638e+2, -1781955.9, -1460315.5, 78505.22, 0.01710336, 0.3499625, -1442177.1, 272118.44, 0.09190124, 9.998165, 10.002772 
1.7949551e+3, 1.3507605e+2, -1730563.3, -1774590.8, -101948.97, 0.0086518945, 0.38143814, -1648278.4, -31982.85, 0.06119029, 9.999651, 9.999061 
1.7949629e+3, 1.4507551e+2, -1625459.8, -1631839.3, -40025.117, -0.15814638, 0.4183759, -1588497.4, -70195.67, 0.03230053, 9.999501, 9.9994545 
1.7949757e+3, 1.5507674e+2, -1455472.6, -1461817.6, -6158.6885, -0.028023956, 0.53622115, -1451717.3, -31422.072, 0.011841973, 9.999855, 9.999762 
1.7949879e+3, 1.6507697e+2, -1278923.5, -1326239.4, 25660.893, -0.021021213, 0.5858546, -1267679.0, 54612.816, 0.0023264778, 10.000358, 9.99979 
1.7949997e+3, 1.750755e+2, -1113972.1, -1181318.8, 50793.6, -0.098646715, 0.4234549, -1086703.8, 137594.88, 0.00012352158, 10.00078, 9.999898 
1.7950113e+3, 1.8507358e+2, -1125987.9, -1348261.5, -17783.549, -0.10973636, 0.3440536, -1124574.0, 1741.74, 0.000000085167756, 10.000942, 9.998008 
1.795023e+3, 1.9507144e+2, -1023157.56, -1231222.1, -37002.313, -0.050875533, 0.29118207, -1016773.0, 11567.839, 0.0, 10.000907, 9.998145 
1.7950344e+3, 2.0507026e+2, -885915.0, -1040691.8, -51052.324, -0.059651557, 0.32924572, -870592.56, 59759.895, 0.0, 10.000842, 9.998824 
1.795046e+3, 2.1506998e+2, -784134.94, -927943.9, -79418.57, -0.11200756, 0.38428074, -748906.0, 83444.83, 0.0, 10.000824, 9.998931 
1.7950581e+3, 2.2506846e+2, -748447.75, -935059.7, -107232.836, -0.098085485, 0.383006, -699609.8, 34755.055, 0.0, 10.000723, 9.998257 
1.7950706e+3, 2.3506592e+2, -648852.56, -816619.44, -80721.61, -0.020848991, 0.2624715, -616321.2, 20071.049, 0.0, 10.000667, 9.998411 
1.7950813e+3, 2.4506529e+2, -516554.8, -604962.4, -128974.48, -0.044878464, 0.32002676, -424419.34, 113980.945, 0.0, 10.000472, 9.9992895 
1.7950906e+3, 2.5506648e+2, -437687.44, -505634.8, -99777.61, -0.15168202, 0.47541556, -366258.16, 74131.484, 0.0, 10.000314, 9.999365 
1.7951022e+3, 2.6506627e+2, -379353.66, -474008.0, -35300.598, -0.118919745, 0.543323, -367638.53, -25245.34, 0.00000013255313, 10.000201, 9.998984 
1.7951155e+3, 2.7506474e+2, -259251.9, -345295.53, -18111.658, 0.014693445, 0.4471898, -255594.94, -11185.549, 0.0000188634, 10.000281, 9.999143 
1.7951281e+3, 2.8506356e+2, -187216.58, -374537.66, 45216.074, -0.026146969, 0.47305176, -176873.31, -30451.367, 0.00018763817, 10.000598, 9.998123 
1.7951407e+3, 2.9506302e+2, 10998.056, -211867.78, 50694.586, -0.17398384, 0.5568084, 21987.506, 70416.07, 0.0007283647, 10.001243, 9.998237 
1.795154e+3, 3.050608e+2, 131193.11, -171527.61, -27427.246, -0.1121371, 0.5387129, 133658.02, 133658.02, 0.0016996954, 10.001878, 9.997902 
1.7951685e+3, 3.1505835e+2, 266321.38, 57444.58, 72255.5, 0.11414033, 0.43649578, 288879.97, 288879.97, 0.002917638, 10.002138, 9.999306 
1.8049447e+3, 1.250635e+2, -1729178.0, -1388487.8, 133658.66, 0.12793262, 0.3778784, -1342310.1, 372114.34, 0.097200245, 9.9983225, 10.003258 
1.8049535e+3, 1.3506316e+2, -1828918.5, -1834811.5, -211350.2, -0.070197664, 0.41684437, -1620494.3, -4069.7449, 0.06490086, 9.999017, 9.998962 
1.8049638e+3, 1.4506307e+2, -1652202.1, -1612041.0, -133908.66, 0.0011378438, 0.48496658, -1496715.6, 21709.287, 0.034457777, 9.999175, 9.999743 
1.8049757e+3, 1.5506348e+2, -1528897.1, -1470270.0, -75588.17, 0.033471733, 0.4938164, -1418510.4, 1913.5234, 0.0127833225, 9.999232, 9.999999 
1.8049878e+3, 1.6506357e+2, -1384432.9, -1353891.0, 4615.2266, -0.027204657, 0.5115547, -1353208.9, -30788.139, 0.0025744103, 9.999559, 9.99998 
1.8050003e+3, 1.7506292e+2, -1153499.5, -1169604.0, -21644.596, -0.0865254, 0.40877697, -1138457.9, 85962.25, 0.00014305822, 10.000405, 10.000147 
1.8050122e+3, 1.8506119e+2, -1141460.1, -1377322.0, -80301.125, -0.10886802, 0.3438619, -1116716.8, 9719.07, 0.00000010953618, 10.000914, 9.997823 
1.8050231e+3, 1.950586e+2, -996028.4, -1239416.6, -67567.99, -0.14186531, 0.26323354, -978528.75, 49936.68, 0.0, 10.001185, 9.9979515 
1.8050347e+3, 2.0505723e+2, -863856.44, -1073075.9, -18383.29, -0.11444865, 0.31428456, -862253.44, 68226.79, 0.0, 10.00118, 9.998444 
1.8050478e+3, 2.1505708e+2, -791709.94, -969469.25, -16012.353, -0.0066842576, 0.4173222, -790279.06, 42201.477, 0.0, 10.000945, 9.998582 
1.8050599e+3, 2.250558e+2, -685809.9, -844123.75, 4366.7935, 0.019314272, 0.4291694, -685689.5, 48802.285, 0.0, 10.000904, 9.998786 
1.8050712e+3, 2.3505352e+2, -543674.9, -712778.6, 11486.928, -0.053615388, 0.28798038, -542898.2, 93614.664, 0.0, 10.001159, 9.998886 
1.8050818e+3, 2.4505267e+2, -413559.47, -610808.4, -57709.99, -0.09260852, 0.32122204, -397915.72, 140607.05, 0.0, 10.001396, 9.998822 
1.8050921e+3, 2.5505313e+2, -287463.3, -491947.56, -118643.19, -0.092117146, 0.45536062, -233085.97, 207435.95, 0.0, 10.001569, 9.998879 
1.8051037e+3, 2.650525e+2, -205327.89, -393405.38, -81990.35, -0.030379888, 0.510926, -174604.05, 167925.7, 0.00000007008213, 10.00142, 9.998947 
1.8051164e+3, 2.7505085e+2, -152174.63, -305484.16, -110859.4, 0.03999089, 0.41431776, -94048.984, 150496.38, 0.000018211349, 10.001061, 9.999048 
1.805129e+3, 2.8504974e+2, -116473.13, -299332.9, 2755.9111, -0.00920933, 0.43417662, -116431.61, 30124.695, 0.0001838329, 10.000895, 9.998498 
1.8051422e+3, 2.9504934e+2, 9981.24, -180262.73, 11595.538, -0.12419508, 0.5023859, 10685.393, 59246.504, 0.0007150246, 10.001067, 9.998552 
1.8051565e+3, 3.0504784e+2, 134786.83, -134665.39, -24802.45, -0.038121365, 0.528943, 137050.81, 137050.81, 0.0016464369, 10.001772, 9.998197 
1.805171e+3, 3.1504655e+2, 367394.34, 141170.36, -55720.535, 0.1544019, 0.5305412, 380373.97, 380373.97, 0.0027767506, 10.002611, 9.999697 
1.8149415e+3, 1.2505189e+2, -1736049.5, -1417517.6, 21612.45, -0.0697198, 0.6405811, -1416057.9, 298485.78, 0.10291468, 9.99835, 10.003037 
1.8149516e+3, 1.3504905e+2, -1871358.5, -1911009.4, -183122.19, -0.17898495, 0.48992062, -1706991.6, -90421.0, 0.06887483, 9.9989805, 9.998451 
1.8149656e+3, 1.4505012e+2, -1570852.8, -1460531.0, -147068.7, 0.22386028, 0.63848555, -1358618.9, 159937.69, 0.036753505, 9.999231, 10.000792 
1.8149763e+3, 1.5504819e+2, -1462867.0, -1346601.8, -63719.598, 0.13658915, 0.33127522, -1318481.4, 102088.36, 0.01378539, 9.99927, 10.000847 
1.8149875e+3, 1.6504797e+2, -1393209.3, -1382257.5, 22842.602, -0.032473877, 0.28699553, -1364243.6, -41675.594, 0.002842686, 9.999602, 9.9997635 
1.8150015e+3, 1.7504907e+2, -1169475.6, -1205707.1, 19254.389, -0.029230032, 0.37893265, -1161154.5, 63401.61, 0.00016504708, 10.000407, 9.999903 
1.8150136e+3, 1.8504891e+2, -1102902.9, -1299274.5, -80610.07, -0.09407479, 0.4564947, -1074051.5, 52507.504, 0.00000012908751, 10.00092, 9.998358 
1.815023e+3, 1.9504777e+2, -961732.75, -1163084.5, -49338.586, -0.29408008, 0.4688256, -950292.94, 78281.38, 0.0, 10.00116, 9.998489 
1.8150344e+3, 2.0504636e+2, -859637.44, -1042609.1, -35669.18, -0.29338142, 0.47529522, -852929.9, 77658.86, 0.0, 10.001089, 9.998694 
1.8150485e+3, 2.1504465e+2, -795880.6, -944672.44, -15745.927, -0.053871285, 0.39661658, -794232.56, 38370.21, 0.0, 10.000801, 9.99882 
1.8150605e+3, 2.2504361e+2, -681683.1, -788909.1, 3070.1865, -0.028322421, 0.39466584, -681595.25, 53014.23, 0.0, 10.0007, 9.999266 
1.8150708e+3, 2.3504326e+2, -535431.3, -658757.94, 31822.936, -0.21960454, 0.39822036, -527704.0, 108904.87, 0.0, 10.000999, 9.999333 
1.815082e+3, 2.4504153e+2, -544887.3, -840578.4, -59410.586, -0.22359481, 0.40116617, -533396.94, 5230.5864, 0.0, 10.001206, 9.997335 
1.8150945e+3, 2.5503862e+2, -406211.94, -703422.25, -100922.14, -0.023123063, 0.33245528, -375182.0, 65481.64, 0.0, 10.001417, 9.997496 
1.8151061e+3, 2.6503715e+2, -260617.42, -465052.9, -104794.375, 0.0285913, 0.38897023, -216444.14, 126237.31, 0.0000000874347, 10.001228, 9.99855 
1.8151164e+3, 2.7503693e+2, -208216.73, -374949.38, -108227.54, -0.0810864, 0.4726762, -154969.94, 89712.61, 0.00001648955, 10.000873, 9.998653 
1.8151289e+3, 2.850356e+2, -100599.54, -223631.9, -1006.229, -0.13932717, 0.46212026, -100591.305, 46101.527, 0.00017253889, 10.000699, 9.999116 
1.8151437e+3, 2.9503343e+2, 35363.29, -87604.47, 39116.027, -0.10044792, 0.27241662, 46751.43, 95461.33, 0.000680335, 10.000895, 9.999268 
1.8151584e+3, 3.050324e+2, 55719.875, -225592.27, -5448.4155, -0.043582138, 0.33322957, 55825.36, 55825.36, 0.0015763064, 10.001468, 9.997716 
1.8151708e+3, 3.1503153e+2, 259187.11, 90853.29, -18805.338, -0.18703088, 0.4151712, 261262.36, 261262.36, 0.0026708827, 10.001941, 9.999631 
1.8249398e+3, 1.2503976e+2, -1745166.5, -1432049.4, 110888.51, -0.07007467, 0.7138736, -1396756.8, 317902.8, 0.10907774, 9.99834, 10.002945 
1.824951e+3, 1.3503565e+2, -1975273.9, -2011933.3, -48056.31, -0.11271992, 0.47762835, -1942170.3, -325470.78, 0.07313931, 9.998454, 9.998019 
1.8249656e+3, 1.450355e+2, -1553879.3, -1450951.6, -27344.89, 0.31151462, 0.51952755, -1444137.9, 74559.46, 0.039204508, 9.999365, 10.00077 
1.8249765e+3, 1.5503418e+2, -1310893.8, -1290236.1, -49891.242, 0.19252421, 0.28655455, -1249615.8, 171088.19, 0.014855209, 10.000417, 10.000679 
1.8249875e+3, 1.6503422e+2, -1307924.5, -1366061.9, -6184.698, -0.022206208, 0.2890478, -1307273.9, 15427.578, 0.0031336718, 10.00028, 9.99955 
1.8250012e+3, 1.7503534e+2, -1350032.9, -1308468.4, -22259.854, -0.030697804, 0.39967364, -1298797.4, -74104.914, 0.00019006866, 9.999234, 9.99976 
1.8250139e+3, 1.850355e+2, -1324943.5, -1371546.9, -79272.77, -0.052106462, 0.4989039, -1265618.6, -138925.08, 0.00000015151502, 9.99925, 9.998664 
1.8250245e+3, 1.9503489e+2, -1046303.06, -1168670.6, -86627.945, -0.2084629, 0.53802836, -1001430.94, 27271.434, 0.0, 10.000447, 9.998789 
1.8250361e+3, 2.0503347e+2, -869067.56, -1040406.6, -105476.91, -0.22425772, 0.52429765, -818852.44, 111863.97, 0.0, 10.001002, 9.998738 
1.825049e+3, 2.1503107e+2, -767922.44, -926772.2, -118940.24, -0.073942125, 0.37305668, -704326.0, 128410.94, 0.0, 10.0009775, 9.99885 
1.8250611e+3, 2.2503005e+2, -616226.2, -749372.75, -86256.45, -0.047325067, 0.36754888, -573839.94, 160903.33, 0.0, 10.001091, 9.999359 
1.8250723e+3, 2.350305e+2, -480491.66, -616109.8, -104991.07, -0.16730773, 0.43863848, -423315.97, 213418.66, 0.0, 10.001304, 9.999481 
1.8250842e+3, 2.4502893e+2, -525915.3, -840572.4, -143105.2, -0.1279972, 0.4532284, -470567.2, 68184.28, 0.0, 10.001386, 9.997238 
1.8250966e+3, 2.5502545e+2, -422507.25, -723387.0, -108625.85, 0.07005596, 0.3415499, -387389.22, 53403.547, 0.0, 10.001364, 9.997374 
1.8251081e+3, 2.6502356e+2, -221811.25, -471467.63, -42774.973, 0.09728729, 0.37385118, -214685.75, 128128.78, 0.00000011582431, 10.001618, 9.998312 
1.825118e+3, 2.7502307e+2, -32040.652, -323852.16, -70476.03, -0.06424807, 0.4583166, -15911.35, 228907.27, 0.000015405387, 10.002215, 9.998366 
1.8251304e+3, 2.8502136e+2, 89743.37, -154283.63, 22606.207, -0.115967214, 0.4350249, 91819.9, 238652.16, 0.00016027999, 10.002115, 9.998909 
1.8251452e+3, 2.9501882e+2, 85840.02, -94454.91, -35793.637, -0.06375736, 0.24589829, 92686.11, 141537.94, 0.00063771853, 10.001372, 9.998997 
1.8251598e+3, 3.050179e+2, -6112.8223, -271135.44, -47020.04, -0.025307085, 0.33024898, 1982.1671, 1982.1671, 0.0015065027, 10.001086, 9.997592 
1.8251728e+3, 3.1501648e+2, 133173.53, -25049.77, -160727.27, -0.11527399, 0.38768604, 233204.03, 233204.03, 0.0026113694, 10.001208, 9.999243 
1.8349385e+3, 1.2502526e+2, -1743338.9, -1443907.3, 96501.5, -0.08860763, 0.38777044, -1415501.3, 299289.06, 0.11569034, 9.998382, 10.002857 
1.8349515e+3, 1.3502337e+2, -1991439.5, -2042038.8, -15687.267, 0.056198478, 0.40023547, -1986970.6, -370163.75, 0.07769921, 9.998448, 9.9978075 
1.8349634e+3, 1.4501932e+2, -1632350.5, -1627155.8, 6821.7734, 0.12154238, 0.123233475, -1622453.6, -103607.33, 0.04181763, 9.999428, 9.999512 
1.8349764e+3, 1.550214e+2, -1396711.1, -1475494.8, -2845.8828, 0.10186698, 0.35667247, -1396608.4, 24219.064, 0.015997248, 10.000437, 9.999387 
1.8349874e+3, 1.6502234e+2, -1309217.3, -1378332.3, -62168.152, -0.090039715, 0.5214121, -1272647.4, 50173.117, 0.0034491862, 10.000323, 9.999446 
1.8349993e+3, 1.750216e+2, -1351366.9, -1318339.9, -55125.984, -0.17171381, 0.4560798, -1277307.1, -52476.22, 0.00021871291, 9.999256, 9.999686 
1.8350129e+3, 1.8502069e+2, -1321742.8, -1366562.5, -44347.242, -0.104360364, 0.45012045, -1294464.8, -167622.83, 0.00000018976193, 9.999265, 9.998688 
1.8350275e+3, 1.9501987e+2, -1055750.8, -1175821.8, -33509.57, 0.027014721, 0.4655709, -1047032.0, -18181.111, 0.0, 10.000393, 9.998765 
1.8350396e+3, 2.0501848e+2, -890213.94, -1063363.9, -116271.02, -0.0066381525, 0.4619293, -831826.25, 99037.84, 0.0, 10.000912, 9.998624 
1.8350494e+3, 2.1501641e+2, -795386.8, -954111.6, -112520.16, -0.16134521, 0.35694534, -737056.9, 95825.68, 0.0, 10.000852, 9.998721 
1.8350615e+3, 2.2501525e+2, -662821.06, -803170.5, -85763.625, -0.1512118, 0.3611585, -622181.1, 112710.74, 0.0, 10.000904, 9.999083 
1.8350756e+3, 2.3501518e+2, -521302.53, -660110.56, -84220.63, 0.018056694, 0.40194866, -481573.47, 155317.38, 0.0, 10.001131, 9.999265 
1.835088e+3, 2.4501468e+2, -471831.56, -677021.1, -153399.28, 0.09785192, 0.47137442, -389880.88, 149015.48, 0.0, 10.001164, 9.998472 
1.8350986e+3, 2.5501373e+2, -367380.13, -564583.9, -95858.18, 0.1001542, 0.4945873, -328464.28, 112444.43, 0.0, 10.001184, 9.9985485 
1.8351094e+3, 2.6501194e+2, -271079.47, -538209.2, -28144.34, 0.05819137, 0.49921805, -268146.4, 74781.164, 0.000000090536304, 10.001453, 9.997938 
1.8351209e+3, 2.7500919e+2, -74900.39, -376598.78, -32294.629, -0.022956682, 0.38555098, -71482.21, 173471.7, 0.00001528185, 10.002058, 9.998078 
1.8351331e+3, 2.8500682e+2, -19850.717, -337993.25, -23277.201, -0.0758804, 0.36812726, -18156.64, 128819.09, 0.00015297614, 10.001918, 9.997746 
1.8351461e+3, 2.950054e+2, -24481.313, -267121.3, -42695.094, -0.12032803, 0.39996943, -17187.887, 31800.613, 0.000605686, 10.0011425, 9.997913 
1.8351601e+3, 3.0500436e+2, -68804.41, -323802.03, -50901.914, -0.13037954, 0.5408603, -59019.016, -59019.016, 0.001455701, 10.000754, 9.997389 
1.8351753e+3, 3.1500217e+2, -3138.1472, -190762.38, -149273.6, -0.024409616, 0.51690227, 79354.36, 79354.36, 0.002587497, 10.000738, 9.99831 
1.8449377e+3, 1.2501001e+2, -1674910.9, -1420609.9, 37197.94, -0.03380287, 0.21296643, -1415280.4, 299656.03, 0.12272786, 9.998914, 10.002798 
1.8449509e+3, 1.3501036e+2, -1763724.5, -1917285.0, -136129.22, 0.10267537, 0.43857905, -1684215.4, -67283.63, 0.08254445, 9.999981, 9.997919 
1.844962e+3, 1.4500524e+2, -1553234.9, -1608627.4, -62438.313, 0.0019089973, 0.061468057, -1512625.8, 6356.7485, 0.04459436, 10.000038, 9.999359 
1.8449762e+3, 1.5500778e+2, -1585039.0, -1574583.6, -13374.957, 0.12197915, 0.35204816, -1565451.0, -144491.02, 0.017215712, 9.999173, 9.999322 
1.844988e+3, 1.6500898e+2, -1490883.8, -1487831.0, -10033.733, 0.0016142236, 0.5531565, -1479208.3, -156256.39, 0.0037916328, 9.999187, 9.999242 
1.844999e+3, 1.7500794e+2, -1204962.9, -1271147.3, -34055.348, -0.17683887, 0.48183948, -1190569.8, 34396.594, 0.00025177147, 10.0003805, 9.999467 
1.8450128e+3, 1.8500675e+2, -1089824.0, -1217293.6, 12477.265, -0.12547287, 0.44350305, -1088614.3, 38365.254, 0.00000025167606, 10.00069, 9.999026 
1.8450283e+3, 1.9500576e+2, -1044170.56, -1131143.9, 30054.045, 0.08217335, 0.4047664, -1034795.75, -5808.0034, 0.0, 10.000293, 9.999122 
1.845041e+3, 2.0500465e+2, -949569.94, -1107170.9, -18013.395, 0.07369832, 0.41849393, -947537.3, -16539.297, 0.0, 10.000563, 9.998501 
1.8450508e+3, 2.1500337e+2, -687674.8, -914733.5, -32623.648, -0.13382815, 0.40574992, -683080.44, 149930.25, 0.0, 10.001651, 9.998612 
1.8450627e+3, 2.2500211e+2, -596122.6, -800717.7, -24266.195, -0.13669744, 0.41623193, -593283.9, 141739.14, 0.0, 10.001513, 9.998792 
1.8450765e+3, 2.3500079e+2, -675212.7, -769261.94, -48916.07, 0.038902737, 0.36614537, -654383.8, -17348.477, 0.0, 10.000228, 9.9989395 
1.845089e+3, 2.4500033e+2, -557841.7, -653236.9, -79351.15, 0.124123655, 0.42398095, -512956.0, 26084.22, 0.0, 10.000302, 9.999043 
1.8451e+3, 2.5500074e+2, -240419.67, -440358.3, -94560.74, 0.103849895, 0.5269621, -202782.31, 238254.97, 0.0, 10.001776, 9.999117 
1.8451113e+3, 2.6499936e+2, -200995.06, -536264.4, -53273.094, 0.054736335, 0.55559385, -192733.72, 150318.84, 0.00000009817215, 10.00208, 9.997647 
1.8451224e+3, 2.749961e+2, -212464.53, -479487.3, -76805.95, -0.031756468, 0.42448255, -191948.5, 53137.996, 0.000013983738, 10.001275, 9.9977455 
1.8451348e+3, 2.8499374e+2, -133307.33, -381743.53, -5070.5664, -0.060428727, 0.42308578, -133203.89, 13905.191, 0.00014295103, 10.001109, 9.997831 
1.8451478e+3, 2.9499292e+2, 54189.695, -213306.4, 18537.82, -0.08159474, 0.5110563, 55468.277, 104583.25, 0.00057309034, 10.00161, 9.998071 
1.8451609e+3, 3.0499157e+2, 36058.777, -208174.05, 104738.164, -0.13734499, 0.5804077, 74822.76, 74822.76, 0.0014018475, 10.001205, 9.997971 
1.8451762e+3, 3.1498873e+2, -78803.17, -223193.13, -32502.338, 0.047288287, 0.4525499, -71824.18, -71824.18, 0.0025416533, 10.000188, 9.998352 
1.8549377e+3, 1.2499558e+2, -1672394.4, -1446946.5, 134790.77, 0.024239313, 0.32833982, -1383956.9, 331126.22, 0.13014582, 9.999056, 10.002554 
1.8549496e+3, 1.3499644e+2, -1740157.9, -1871296.6, -95548.91, -0.058207087, 0.56442773, -1689844.0, -72768.086, 0.08765755, 9.999985, 9.998235 
1.8549606e+3, 1.4499336e+2, -1482821.6, -1468900.0, -100224.28, -0.16013493, 0.3331228, -1375395.1, 143709.86, 0.04753598, 10.000074, 10.00033 
1.8549761e+3, 1.5499336e+2, -1500469.0, -1411079.5, -37903.805, 0.15408109, 0.2627636, -1397171.3, 23930.352, 0.01851746, 9.999214, 10.000432 
1.8549888e+3, 1.6499403e+2, -1505579.9, -1531501.8, 20849.514, 0.12905441, 0.37007132, -1493991.1, -170895.03, 0.0041650403, 9.999242, 9.998914 
1.8550001e+3, 1.7499429e+2, -1235240.9, -1336154.6, 20054.79, -0.13060182, 0.4679885, -1231401.4, -6302.021, 0.00029041685, 10.00038, 9.999024 
1.8550128e+3, 1.8499362e+2, -1039615.2, -1117111.3, -14352.84, -0.21307111, 0.47215393, -1037042.4, 90064.4, 0.0000003514084, 10.0007105, 9.999703 
1.8550268e+3, 1.9499256e+2, -1003980.1, -1034059.0, 20726.213, -0.13274188, 0.3580286, -993411.75, 35701.355, 0.0, 10.000233, 9.999818 
1.8550402e+3, 2.0499197e+2, -973803.2, -1134173.1, 12818.384, -0.090610705, 0.39833954, -972785.06, -41666.848, 0.0, 10.0004635, 9.9983635 
1.8550532e+3, 2.1499185e+2, -718176.06, -943093.7, 17084.846, -0.066147216, 0.5129598, -716885.7, 116236.79, 0.0, 10.001502, 9.998488 
1.8550648e+3, 2.2499034e+2, -644341.2, -860124.2, -81108.53, -0.09711996, 0.51940507, -617254.25, 117884.69, 0.0, 10.00133, 9.998476 
1.8550746e+3, 2.349874e+2, -722043.6, -832918.8, -85954.0, -0.1903772, 0.3423458, -675200.2, -38032.28, 0.0, 10.000081, 9.998576 
1.8550867e+3, 2.4498612e+2, -596111.9, -689252.0, -33817.613, -0.1588764, 0.3453462, -585128.5, -45947.266, 0.0, 10.000111, 9.99889 
1.8551008e+3, 2.5498655e+2, -273841.25, -463438.44, -28303.055, 0.0009656091, 0.45912614, -269706.38, 171471.77, 0.0, 10.001586, 9.999043 
1.8551128e+3, 2.6498577e+2, -244839.25, -581799.06, -95021.95, -0.0047583077, 0.5641917, -219890.48, 123299.15, 0.00000008466028, 10.001883, 9.997432 
1.8551224e+3, 2.7498367e+2, -260848.69, -531436.5, -88662.08, -0.1727978, 0.5731308, -234385.34, 10831.574, 0.000011476472, 10.001075, 9.997483 
1.8551348e+3, 2.8498206e+2, -98678.58, -259657.81, 1743.5997, -0.18530017, 0.60786104, -98659.695, 48572.836, 0.00012752597, 10.000879, 9.998788 
1.8551497e+3, 2.9498133e+2, 101098.51, -61684.758, 54759.43, -0.069105685, 0.5995794, 117804.76, 167036.81, 0.0005311809, 10.001374, 9.999228 
1.8551616e+3, 3.049794e+2, 68794.42, -69699.766, 44284.957, -0.21291758, 0.49235505, 81744.15, 81744.15, 0.0013273064, 10.000906, 9.9990635 
1.8551767e+3, 3.149779e+2, -95220.41, -128014.8, -33288.97, 0.033748716, 0.40077966, -74509.336, -74509.336, 0.0024360365, 9.999666, 9.999246 
1.8649378e+3, 1.249809e+2, -1669988.6, -1565193.0, 136151.2, 0.11332958, 0.443678, -1471704.9, 243525.16, 0.1378835, 9.9997015, 10.001322 
1.8649492e+3, 1.3498197e+2, -1711514.0, -1722380.1, -46104.184, -0.059935708, 0.5825849, -1670523.9, -53302.03, 0.09301642, 9.999599, 9.999436 
1.8649605e+3, 1.4498067e+2, -1484270.1, -1444440.8, -29530.783, -0.1730127, 0.45411325, -1428737.1, 90496.9, 0.050644647, 9.9999695, 10.00053 
1.8649757e+3, 1.5498054e+2, -1227613.3, -1264285.1, -62692.313, 0.11077229, 0.35572657, -1180630.5, 240601.3, 0.01991141, 10.001063, 10.000554 
1.864989e+3, 1.6498077e+2, -1237591.1, -1389737.8, -8395.009, 0.13161032, 0.4068277, -1237129.4, 86099.71, 0.0045744055, 10.001031, 9.999019 
1.8650007e+3, 1.749806e+2, -1292464.9, -1347269.1, 9782.376, -0.07232894, 0.44736728, -1290771.0, -65537.61, 0.0003360051, 9.999927, 9.999152 
1.8650134e+3, 1.8497992e+2, -1228702.9, -1221067.1, -14715.285, -0.14672765, 0.44882828, -1209682.5, -82442.516, 0.00000050835786, 9.999467, 9.999591 
1.8650268e+3, 1.949792e+2, -1059774.8, -1070549.9, -54720.78, -0.11895951, 0.3802818, -1010177.0, 19067.307, 0.0, 9.999895, 9.999731 
1.8650404e+3, 2.0497882e+2, -990534.9, -1100944.1, -27770.203, -0.089407675, 0.424882, -983943.6, -52695.406, 0.0, 10.00018, 9.998723 
1.8650542e+3, 2.1497862e+2, -845496.4, -966424.94, -6534.193, -0.06804271, 0.49673694, -845144.4, -11891.208, 0.0, 10.000454, 9.998836 
1.8650657e+3, 2.249775e+2, -728791.0, -869798.2, -93688.71, -0.106616795, 0.5106162, -682041.3, 53224.65, 0.0, 10.000618, 9.998759 
1.8650746e+3, 2.3497558e+2, -609014.56, -747859.1, -72745.31, -0.22584741, 0.40750906, -577881.7, 59403.58, 0.0, 10.000724, 9.998861 
1.8650867e+3, 2.4497442e+2, -515432.75, -666415.8, 69089.89, -0.19320169, 0.42031607, -488589.63, 50707.84, 0.0, 10.000734, 9.998745 
1.8651018e+3, 2.549741e+2, -418642.13, -555069.7, 52369.07, -0.02971396, 0.4725328, -400858.0, 40444.492, 0.0, 10.000679, 9.998856 
1.865114e+3, 2.649731e+2, -379924.03, -633694.56, -15287.135, -0.01601302, 0.5631225, -379006.44, -35690.445, 0.000000065173005, 10.000898, 9.997544 
1.8651238e+3, 2.7497157e+2, -198268.3, -488326.03, -16976.57, -0.15763724, 0.6175021, -197278.08, 48059.4, 0.000009433609, 10.001444, 9.9976015 
1.8651365e+3, 2.8497016e+2, -34936.75, -201944.23, 84655.76, -0.113967635, 0.6505153, 469.0227, 147819.67, 0.00011541126, 10.001208, 9.999013 
1.8651517e+3, 2.94969e+2, -45772.973, -105698.53, 45071.87, 0.058287315, 0.57690114, -21613.281, 27740.33, 0.0004957237, 10.000254, 9.999445 
1.8651623e+3, 3.049669e+2, -47620.88, -127178.555, -4056.537, -0.1871972, 0.44100645, -47414.574, -47414.574, 0.0012524537, 10.000094, 9.999055 
1.8651763e+3, 3.1496707e+2, 127630.37, 15256.315, -185594.69, -0.037428703, 0.5155901, 265356.66, 265356.66, 0.0022969444, 10.000996, 9.999598 
1.8749368e+3, 1.2496529e+2, -1825891.4, -1917768.3, -46773.613, -0.026687674, 0.46859238, -1806269.8, -90885.945, 0.14588223, 9.999812, 9.998678 
1.8749496e+3, 1.3496703e+2, -1564474.0, -1431338.0, -36409.92, -0.00637884, 0.48681888, -1422031.1, 195337.53, 0.0986057, 9.999618, 10.00157 
1.874961e+3, 1.4496721e+2, -1514778.1, -1522419.5, -862.5231, -0.15235984, 0.41608053, -1514682.0, 4687.1465, 0.053927336, 10.00003, 9.99994 
1.8749748e+3, 1.5496932e+2, -1284749.4, -1389885.9, -10271.405, -0.10035659, 0.6285038, -1283755.4, 137595.52, 0.021407956, 10.001087, 9.999666 
1.874988e+3, 1.649692e+2, -1188199.9, -1298952.4, -60874.95, -0.0982792, 0.66193235, -1161282.3, 162068.36, 0.0050250688, 10.001083, 9.99962 
1.8750006e+3, 1.7496681e+2, -1248155.9, -1257018.3, -25765.234, -0.09681588, 0.42056614, -1226443.6, -1074.7483, 0.00038988978, 9.999924, 9.999781 
1.8750142e+3, 1.8496552e+2, -1281382.9, -1334721.8, -11738.88, -0.052038625, 0.36812216, -1278913.6, -151533.34, 0.000000733184, 9.999491, 9.9988 
1.8750285e+3, 1.9496566e+2, -1126197.3, -1194060.6, -30725.592, 0.035049263, 0.47003898, -1114353.1, -84971.49, 0.0, 9.999838, 9.998913 
1.8750416e+3, 2.0496508e+2, -939510.9, -980434.1, -31039.807, -0.02676919, 0.49312145, -922795.25, 8593.632, 0.0, 10.000111, 9.999586 
1.875053e+3, 2.1496378e+2, -809897.4, -858025.44, 12805.241, -0.23159762, 0.36923915, -806702.44, 26699.494, 0.0, 10.000303, 9.999654 
1.8750647e+3, 2.2496372e+2, -699072.5, -764999.56, -99426.09, -0.28207088, 0.41166505, -627288.06, 108114.55, 0.0, 10.000423, 9.999576 
1.875076e+3, 2.3496515e+2, -574319.5, -634598.9, -58310.89, -0.1630278, 0.557345, -538819.56, 98569.484, 0.0, 10.000549, 9.999719 
1.8750887e+3, 2.4496499e+2, -556515.06, -708597.94, 58349.953, -0.091512114, 0.63265663, -536707.56, 2684.4978, 0.0, 10.000543, 9.998553 
1.8751019e+3, 2.5496322e+2, -457840.34, -594294.2, 63840.21, -0.07988283, 0.56095207, -432630.22, 8781.745, 0.0, 10.0005045, 9.99867 
1.8751144e+3, 2.649614e+2, -384695.56, -603141.0, -4885.5254, -0.08633963, 0.5611257, -384586.38, -41154.773, 0.00000004605578, 10.00071, 9.997855 
1.8751259e+3, 2.749598e+2, -200342.61, -449889.3, 17708.605, -0.09541015, 0.5756067, -199092.22, 46356.598, 0.000008319171, 10.001255, 9.997962 
1.8751392e+3, 2.8495803e+2, -99149.76, -288265.7, 34883.016, 0.0059883525, 0.5813521, -92920.66, 54543.633, 0.00010877432, 10.001001, 9.998525 
1.8751536e+3, 2.9495582e+2, -127689.92, -216406.66, 28090.342, 0.19652148, 0.45672852, -119543.695, -70062.75, 0.0004720907, 10.00001, 9.998803 
1.8751624e+3, 3.0495384e+2, -158954.94, -289832.28, 8799.846, -0.21985303, 0.42272517, -158365.9, -158365.9, 0.0011878542, 9.999805, 9.998076 
1.875176e+3, 3.1495515e+2, 38019.55, -27595.07, -43362.43, -0.20986043, 0.69577813, 59587.05, 59587.05, 0.002155699, 10.000413, 9.999572 
1.8849368e+3, 1.2495153e+2, -1876604.1, -1932137.4, 42807.508, 0.039067138, 0.4295334, -1853346.5, -137827.11, 0.15411249, 9.9994, 9.998781 
1.8849494e+3, 1.3495316e+2, -1624410.0, -1426154.6, 27912.34, 0.042334963, 0.38531712, -1422299.8, 195204.14, 0.10442951, 9.999003, 10.001909 
1.8849611e+3, 1.449548e+2, -1653824.4, -1661730.5, 49174.305, -0.10461686, 0.48174596, -1608444.5, -88953.76, 0.057399224, 9.99939, 9.999292 
1.8849757e+3, 1.5495592e+2, -1408771.1, -1497172.3, 48227.625, -0.092236035, 0.64483696, -1387553.0, 33932.125, 0.023018045, 10.000451, 9.999222 
1.8849887e+3, 1.6495547e+2, -1222376.1, -1314656.4, -47025.707, -0.10435228, 0.664217, -1202635.1, 120854.32, 0.005521801, 10.000833, 9.999636 
1.8850005e+3, 1.7495361e+2, -1130142.8, -1199473.9, -76359.07, -0.14440252, 0.47424576, -1080948.9, 144552.9, 0.0004532519, 10.000721, 9.999799 
1.8850137e+3, 1.849525e+2, -1157823.6, -1260236.0, -8359.68, -0.0699393, 0.4327054, -1157145.8, -29634.922, 0.0000010252129, 10.000277, 9.998928 
1.885029e+3, 1.9495219e+2, -1127186.3, -1178484.4, 29081.963, 0.11204075, 0.4717308, -1114058.6, -84542.25, 0.0, 9.999758, 9.999055 
1.885042e+3, 2.0495184e+2, -1016647.9, -961741.5, 70473.555, 0.07098826, 0.4848856, -913562.7, 17958.445, 0.0, 9.999339, 10.000087 
1.885053e+3, 2.1495153e+2, -931958.44, -856898.5, 69594.055, -0.20748329, 0.41004157, -815359.94, 18164.617, 0.0, 9.999211, 10.000184 
1.8850648e+3, 2.2495191e+2, -809844.56, -803813.5, -41678.52, -0.26377445, 0.4613867, -765041.56, -29520.828, 0.0, 9.99961, 9.99969 
1.8850772e+3, 2.3495294e+2, -556393.75, -618642.94, -74324.42, -0.10679195, 0.5604987, -506940.06, 130570.24, 0.0, 10.000629, 9.999791 
1.8850899e+3, 2.4495263e+2, -490294.03, -691507.56, 10732.47, -0.035446085, 0.62706715, -489723.2, 49791.523, 0.0, 10.001076, 9.998407 
1.8851028e+3, 2.5495103e+2, -397760.0, -586806.6, -9442.533, -0.071678974, 0.5902883, -397289.53, 44244.297, 0.0, 10.001009, 9.998478 
1.8851155e+3, 2.6494932e+2, -291355.5, -479821.94, -25567.36, -0.058137614, 0.57273453, -287948.6, 55602.13, 0.000000017635879, 10.001037, 9.998534 
1.885128e+3, 2.749477e+2, -143576.45, -341558.3, -351.50638, -0.015998945, 0.5178535, -143575.83, 101987.12, 0.000007223604, 10.00132, 9.998663 
1.8851408e+3, 2.849458e+2, -76916.69, -333508.8, 23446.96, 0.064181454, 0.5030672, -74791.74, 72787.375, 0.00010058898, 10.001422, 9.998002 
1.8851542e+3, 2.9494324e+2, 38067.258, -210971.0, -20627.23, 0.18599299, 0.4008873, 39764.195, 89367.23, 0.00044321027, 10.001463, 9.998146 
1.8851627e+3, 3.0494156e+2, -16836.006, -252425.95, 19032.527, -0.20524438, 0.4408308, -15308.337, -15308.337, 0.0011140355, 10.000885, 9.997835 
1.8851769e+3, 3.149423e+2, -39922.87, 12082.705, -185.84052, -0.10791748, 0.6753891, 12083.369, 12083.369, 0.0020103257, 9.999527, 10.00028 
1.8949378e+3, 1.2494113e+2, -1631043.4, -1473843.0, -62300.75, 0.11787015, 0.4391599, -1452146.8, 263475.1, 0.16258536, 9.999543, 10.002191 
1.894948e+3, 1.3494053e+2, -1743812.5, -1652503.8, 34102.523, -0.01944356, 0.2889551, -1641173.0, -23547.455, 0.110513955, 9.998987, 10.000222 
1.8949603e+3, 1.449434e+2, -1695425.1, -1745205.4, 76440.88, -0.14958932, 0.645156, -1639924.1, -120324.93, 0.06108175, 9.999387, 9.998716 
1.8949778e+3, 1.5494029e+2, -1415651.9, -1509939.6, 96759.336, 0.048797954, 0.3964841, -1355162.5, 66472.72, 0.024752133, 10.000448, 9.99914 
1.894991e+3, 1.6493942e+2, -1244200.8, -1376905.3, -59501.336, -0.001817996, 0.39978394, -1221429.4, 102217.625, 0.0060684755, 10.000903, 9.999175 
1.8949999e+3, 1.7494099e+2, -1168569.0, -1277959.4, -72666.27, -0.29652914, 0.6050342, -1132313.9, 93318.37, 0.0005270964, 10.000714, 9.999265 
1.8950121e+3, 1.8494083e+2, -1076141.1, -1099491.5, -37729.48, -0.29678094, 0.63031083, -1048321.75, 79310.62, 0.0000013718216, 10.000317, 10.000009 
1.8950279e+3, 1.9493891e+2, -1059746.4, -1025241.5, 15285.689, 0.012605416, 0.40003935, -1019444.0, 10202.942, 0.0, 9.999704, 10.000129 
1.8950419e+3, 2.0493916e+2, -1016689.94, -949317.9, 56142.58, 0.084498346, 0.4130309, -917530.75, 14113.384, 0.0, 9.999273, 10.000209 
1.8950537e+3, 2.1494177e+2, -937389.94, -843644.1, 73030.266, -0.077633016, 0.6150978, -803738.7, 29883.252, 0.0, 9.999096, 10.000335 
1.8950656e+3, 2.2494175e+2, -880384.1, -906810.5, -13321.467, -0.15054931, 0.64706326, -874834.3, -139211.16, 0.0, 9.999423, 9.999074 
1.8950775e+3, 2.3493907e+2, -625419.44, -720270.44, -23412.908, -0.14960602, 0.43486246, -619955.0, 17692.736, 0.0, 10.000456, 9.999173 
1.8950902e+3, 2.4493767e+2, -535255.25, -741712.56, -2514.3667, -0.1341175, 0.43383396, -535224.6, 4438.2373, 0.0, 10.000876, 9.998166 
1.8951038e+3, 2.5493765e+2, -440155.56, -632501.4, -440.89883, -0.0897477, 0.5779729, -440154.56, 1513.029, 0.0, 10.000831, 9.99825 
1.895117e+3, 2.6493675e+2, -246588.33, -348479.78, -24920.92, -0.041780327, 0.6074971, -240819.69, 102854.74, 0.0000000071100716, 10.000864, 9.999521 
1.8951295e+3, 2.7493513e+2, -101349.01, -204537.63, 24063.807, -0.017996972, 0.45041105, -96013.19, 149668.06, 0.0000064443307, 10.00112, 9.999695 
1.8951413e+3, 2.8493333e+2, -148476.05, -438597.56, 8746.569, -0.058800723, 0.42185915, -148212.6, -516.35114, 0.0000894982, 10.001217, 9.997386 
1.895153e+3, 2.9493102e+2, -58084.957, -348422.13, 1129.9944, -0.097488225, 0.40436116, -58080.56, -8357.864, 0.00040204544, 10.001189, 9.997338 
1.8951626e+3, 3.0492976e+2, -51029.145, -237198.48, -41771.715, -0.3306212, 0.52072257, -42086.21, -42086.21, 0.0010230613, 10.000542, 9.998092 
1.8951784e+3, 3.1492814e+2, -82433.14, 75895.445, 61614.406, 0.051081914, 0.47844043, 97047.26, 97047.26, 0.0018604677, 9.998946, 10.000974 
1.9049379e+3, 1.24931015e+2, -1590406.4, -1373374.9, -110089.02, 0.19057454, 0.5223099, -1327309.6, 388411.97, 0.1713416, 9.999485, 10.00306 
1.9049467e+3, 1.3492852e+2, -1619439.8, -1740420.1, 4129.404, -0.105296604, 0.27888513, -1619298.9, -1553.6322, 0.11689223, 10.000515, 9.998864 
1.9049616e+3, 1.4493154e+2, -1544156.8, -1678543.4, 117653.54, -0.0041403007, 0.73691857, -1475861.0, 43856.004, 0.06499328, 10.000457, 9.998668 
1.9049783e+3, 1.5492757e+2, -1433885.6, -1476844.5, 149617.88, 0.07298533, 0.36546817, -1304213.3, 117545.9, 0.026617203, 10.000127, 9.999534 
1.904991e+3, 1.6492668e+2, -1404574.9, -1449252.1, 36764.59, -0.032266956, 0.34409615, -1383894.4, -60123.605, 0.0066676727, 9.999776, 9.999222 
1.905e+3, 1.7492881e+2, -1292529.0, -1328237.6, 48656.992, -0.30486816, 0.60100317, -1258554.0, -32801.63, 0.0006122247, 9.999834, 9.999332 
1.9050121e+3, 1.8492903e+2, -1121571.3, -1085040.0, 87821.336, -0.2965556, 0.6436176, -1013604.94, 114143.86, 0.0000017786746, 9.999847, 10.000339 
1.9050273e+3, 1.9492736e+2, -986403.56, -955662.9, 64971.406, -0.026016906, 0.40701333, -904268.44, 125490.89, 0.0, 10.000055, 10.000446 
1.9050415e+3, 2.0492764e+2, -923307.2, -953161.06, 79592.72, 0.08356823, 0.4317108, -857253.75, 74502.664, 0.0, 10.000154, 9.999744 
1.9050545e+3, 2.1492995e+2, -796404.5, -830086.7, 27495.426, 0.026438052, 0.6523554, -781002.44, 52736.832, 0.0, 10.000311, 9.999836 
1.9050668e+3, 2.2492969e+2, -704502.94, -840010.1, -15369.645, -0.045707114, 0.6944135, -702781.56, 32962.7, 0.0, 10.000697, 9.998923 
1.9050784e+3, 2.3492691e+2, -501492.97, -680288.7, -11474.404, -0.15607363, 0.48678622, -500759.6, 137010.98, 0.0, 10.001383, 9.999004 
1.9050911e+3, 2.449253e+2, -423232.28, -658313.06, 26565.307, -0.1617111, 0.46140295, -420267.66, 119518.94, 0.0, 10.001534, 9.998408 
1.9051048e+3, 2.549248e+2, -358667.03, -563826.4, 40884.58, -0.066904, 0.52985305, -350819.63, 90973.7, 0.0, 10.001263, 9.9985075 
1.9051182e+3, 2.6492393e+2, -200226.25, -325951.63, 36834.37, -0.009064114, 0.5488952, -190229.58, 153569.1, 0.000000016068412, 10.0011835, 9.999518 
1.9051306e+3, 2.749229e+2, -54920.656, -192226.6, -14458.461, -0.031902507, 0.4556783, -53414.684, 192385.9, 0.000006020835, 10.001445, 9.999638 
1.9051425e+3, 2.8492132e+2, -72033.414, -372051.72, -17391.121, -0.07442811, 0.43674645, -71028.67, 76785.48, 0.00007835106, 10.00161, 9.997657 
1.9051546e+3, 2.9491907e+2, 55644.156, -259048.63, 1419.294, -0.080533616, 0.39841148, 55650.56, 105490.78, 0.00035541624, 10.001825, 9.99764 
1.9051646e+3, 3.0491826e+2, 98891.13, -166417.83, -16112.414, -0.2323788, 0.54925805, 99866.07, 99866.07, 0.000923281, 10.001588, 9.998076 
1.9051789e+3, 3.1491494e+2, 163099.48, 147888.52, 13087.517, 0.12015234, 0.34865302, 170630.92, 170630.92, 0.0017138104, 10.000756, 10.000641 
1.9149369e+3, 1.2491995e+2, -1727497.4, -1627211.0, -142313.61, 0.07900424, 0.55183333, -1526465.1, 189365.55, 0.18042894, 9.999456, 10.00102 
1.9149454e+3, 1.3491698e+2, -1694854.3, -1898369.1, 26498.602, -0.32281515, 0.34348363, -1691460.6, -73596.28, 0.12358676, 10.000527, 9.997771 
1.9149646e+3, 1.4491893e+2, -1488962.4, -1586940.4, 92470.055, 0.21756308, 0.73078674, -1433306.1, 86540.766, 0.069141634, 10.00057, 9.9992485 
1.9149767e+3, 1.5491775e+2, -1373167.0, -1350861.6, 142980.95, -0.11885491, 0.5543387, -1218599.1, 203257.86, 0.028615344, 10.000128, 10.00041 
1.9149883e+3, 1.6491738e+2, -1352285.1, -1357861.0, 24098.293, -0.31365177, 0.5098334, -1330814.1, -6954.6055, 0.0073205116, 9.999849, 9.999811 
1.9150005e+3, 1.749172e+2, -1256210.6, -1246584.8, 55230.543, -0.26074615, 0.47765076, -1195957.9, 29902.96, 0.00070924795, 9.999812, 9.9999 
1.9150135e+3, 1.8491717e+2, -1143322.6, -1142048.1, 84199.51, -0.1754708, 0.48685893, -1058483.5, 69376.414, 0.0000023137907, 9.99989, 9.999932 
1.915027e+3, 1.9491756e+2, -1023771.25, -1019270.94, 80673.836, -0.08092581, 0.50031024, -940815.9, 89037.55, 0.0, 9.999994, 10.000041 
1.9150408e+3, 2.0491722e+2, -1015897.0, -1130970.4, 76888.54, -0.029307969, 0.54069686, -977400.75, -45542.063, 0.0, 10.00008, 9.998561 
1.9150548e+3, 2.149161e+2, -895990.5, -1010319.8, 41412.11, 0.012011869, 0.5336394, -882566.5, -48690.22, 0.0, 10.000191, 9.998655 
1.9150676e+3, 2.2491577e+2, -711335.3, -810033.8, 3969.0376, -0.046883985, 0.61511916, -711175.94, 24707.645, 0.0, 10.000504, 9.999226 
1.9150794e+3, 2.3491645e+2, -507280.06, -646259.3, 26727.105, -0.2090903, 0.7236545, -502317.38, 135561.48, 0.0, 10.001194, 9.999329 
1.915092e+3, 2.4491529e+2, -405017.3, -574530.94, 7910.6934, -0.23517643, 0.6957726, -404648.94, 135239.6, 0.0, 10.001329, 9.999085 
1.915106e+3, 2.5491238e+2, -334367.97, -472211.97, 41250.223, -0.105356, 0.45252937, -322966.75, 118945.4, 0.0, 10.00109, 9.999216 
1.915119e+3, 2.6491097e+2, -296110.63, -485365.88, 33149.066, -0.07312557, 0.42994586, -290472.34, 53450.332, 0.000000038925435, 10.001003, 9.998517 
1.9151309e+3, 2.7491108e+2, -156190.64, -355942.44, 8366.447, -0.16674039, 0.54881895, -155840.83, 90079.6, 0.0000054500297, 10.001252, 9.998603 
1.9151439e+3, 2.8490973e+2, -33042.805, -247231.92, -21873.664, -0.12935358, 0.5632463, -30831.82, 117100.81, 0.00006657065, 10.001416, 9.9986105 
1.9151585e+3, 2.9490718e+2, 88465.87, -130032.58, 27735.115, 0.10435866, 0.39765662, 91931.46, 141888.52, 0.00030457476, 10.0015745, 9.998646 
1.915168e+3, 3.049073e+2, 44315.195, -222697.98, -64478.51, -0.066546775, 0.5968095, 59070.156, 59070.156, 0.00081276876, 10.001333, 9.9978075 
1.9151749e+3, 3.149049e+2, 11318.671, -25808.71, 9041.823, -0.39127615, 0.50203186, 13403.593, 13403.593, 0.0015532185, 10.000197, 9.999681 
1.9249368e+3, 1.249077e+2, -1851756.5, -1789346.0, -149524.7, 0.15762441, 0.5781748, -1667805.1, 48147.97, 0.18987963, 9.9990425, 9.9999695 
1.9249462e+3, 1.349048e+2, -1576400.1, -1810814.4, 56208.297, -0.3316088, 0.34730905, -1563619.3, 54367.4, 0.13060497, 10.001258, 9.99803 
1.9249667e+3, 1.4490694e+2, -1356027.6, -1515516.9, 102659.14, 0.32729754, 0.7371557, -1305779.5, 214187.9, 0.07352615, 10.001526, 9.999288 
1.9249767e+3, 1.5490662e+2, -1387684.0, -1349726.9, 74388.01, -0.11696696, 0.6418172, -1291934.6, 130033.91, 0.030745408, 9.999986, 10.000482 
1.9249877e+3, 1.6490619e+2, -1451183.0, -1364763.1, -32915.36, -0.31532657, 0.5712917, -1353654.4, -29684.066, 0.008026891, 9.999017, 10.000157 
1.9250007e+3, 1.7490533e+2, -1343371.8, -1252460.6, -37582.105, -0.16635537, 0.43416017, -1238936.4, -12960.251, 0.0008187495, 9.999059, 10.000227 
1.9250143e+3, 1.849052e+2, -1219722.4, -1217335.1, 30766.48, -0.05492128, 0.43534198, -1187739.1, -59763.21, 0.0000031359323, 9.999537, 9.9995775 
1.9250277e+3, 1.9490598e+2, -934870.6, -1013111.06, 13557.547, -0.04530845, 0.51897675, -932587.94, 97379.96, 0.0, 10.000761, 9.999706 
1.9250412e+3, 2.0490524e+2, -839899.25, -1049575.8, 49677.098, -0.034735467, 0.5368885, -828725.1, 103251.39, 0.0, 10.001299, 9.998538 
1.9250552e+3, 2.14903e+2, -731027.44, -931359.56, 82787.49, -0.017478231, 0.42155084, -701243.5, 132758.34, 0.0, 10.001333, 9.998648 
1.9250683e+3, 2.2490282e+2, -618380.4, -783401.2, 96911.33, -0.059216067, 0.5232763, -573612.44, 162396.02, 0.0, 10.001238, 9.999046 
1.9250806e+3, 2.3490468e+2, -542796.56, -683749.8, 60922.016, -0.18786155, 0.77064246, -520114.97, 117881.445, 0.0, 10.001035, 9.999147 
1.9250937e+3, 2.449039e+2, -445706.0, -560642.4, 16657.773, -0.18738374, 0.7713087, -443340.47, 96662.74, 0.0, 10.000895, 9.999394 
1.9251072e+3, 2.549006e+2, -332936.47, -444656.03, 1799.5938, -0.06241077, 0.46397066, -332907.5, 109119.81, 0.0, 10.000961, 9.999484 
1.9251205e+3, 2.648991e+2, -249094.83, -460846.8, 59394.25, -0.03798757, 0.41917944, -233573.11, 110464.76, 0.000000047147957, 10.001323, 9.998531 
1.9251324e+3, 2.748993e+2, -42820.04, -296563.25, 81031.016, -0.16293062, 0.5449694, -19151.184, 226885.22, 0.0000044268, 10.002012, 9.998646 
1.9251457e+3, 2.8489792e+2, 48568.105, -206751.3, 54643.47, -0.118323416, 0.5508219, 59771.313, 207820.75, 0.000054025306, 10.001996, 9.998594 
1.9251603e+3, 2.9489535e+2, 81145.54, -146358.1, 1104.2886, 0.13870756, 0.39350522, 81150.91, 131223.83, 0.0002523582, 10.00156, 9.998546 
1.9251704e+3, 3.0489475e+2, 146621.56, -169412.0, -69229.58, 0.009351587, 0.52652943, 161121.56, 161121.56, 0.00069489033, 10.002009, 9.997852 
1.9251773e+3, 3.148938e+2, 424503.7, 138693.94, -76988.95, -0.3047347, 0.5806332, 443922.88, 443922.88, 0.0013683941, 10.00311, 9.999446 
1.9349355e+3, 1.2489291e+2, -1823492.9, -1762790.3, -73346.27, 0.052036937, 0.47451967, -1713763.5, 2338.379, 0.1997211, 9.999156, 10.000061 
1.9349486e+3, 1.3489169e+2, -1481171.4, -1583748.4, 122370.76, -0.23895201, 0.2727568, -1399775.6, 218339.2, 0.13795441, 10.001234, 9.999671 
1.9349672e+3, 1.4489588e+2, -1372519.5, -1566255.8, 42774.73, 0.18057725, 0.7917614, -1363495.6, 156579.95, 0.07814733, 10.001595, 9.998889 
1.9349779e+3, 1.5489432e+2, -1435683.0, -1456446.1, 24864.277, -0.011278478, 0.64169645, -1419120.0, 2972.8916, 0.033007, 10.000006, 9.999728 
1.9349886e+3, 1.6489306e+2, -1431211.1, -1338812.4, -45490.516, -0.15073715, 0.52010953, -1320175.3, 3928.9111, 0.008786739, 9.99908, 10.000309 
1.9350007e+3, 1.7489317e+2, -1332833.4, -1231615.9, -28312.467, -0.10059545, 0.46837026, -1224234.6, 1863.8674, 0.00094156526, 9.999061, 10.000375 
1.9350143e+3, 1.8489316e+2, -1232757.0, -1254383.5, 68215.34, -0.046817146, 0.4865012, -1174503.3, -46406.43, 0.0000044945964, 9.999577, 9.999306 
1.935029e+3, 1.948927e+2, -962143.56, -1061833.0, 67893.67, -0.008635508, 0.4754441, -927762.1, 102339.875, 0.0, 10.000719, 9.999397 
1.9350427e+3, 2.0489174e+2, -770554.9, -889952.0, 40102.395, -0.04689564, 0.431807, -758336.0, 173773.83, 0.0, 10.001228, 9.999671 
1.9350554e+3, 2.148906e+2, -676444.94, -780261.9, 91259.2, -0.14102271, 0.31501442, -623364.2, 210752.8, 0.0, 10.001171, 9.999765 
1.9350684e+3, 2.2489052e+2, -699297.56, -895569.4, 81436.734, -0.19041742, 0.4056856, -669908.56, 66213.13, 0.0, 10.001005, 9.998384 
1.9350816e+3, 2.3489155e+2, -616540.44, -793829.44, 63061.6, -0.19323094, 0.6373988, -596397.94, 41725.996, 0.0, 10.000859, 9.99847 
1.9350952e+3, 2.4489115e+2, -479568.0, -588811.8, 6026.4204, -0.14261603, 0.715732, -479236.56, 60893.625, 0.0, 10.00071, 9.999294 
1.9351088e+3, 2.548894e+2, -361813.25, -466013.0, 13174.563, -0.02648208, 0.57075936, -360173.3, 81965.94, 0.0, 10.000803, 9.999412 
1.9351222e+3, 2.6488817e+2, -219212.67, -344019.13, 73605.07, -0.011049844, 0.5109589, -185117.88, 159027.94, 0.00000001782158, 10.001096, 9.99944 
1.935135e+3, 2.7488747e+2, -14716.284, -174125.67, 115633.96, -0.120493196, 0.4571683, 46021.367, 292171.03, 0.0000033385966, 10.001762, 9.999596 
1.9351475e+3, 2.8488594e+2, -50035.945, -371520.1, 15129.226, -0.16578665, 0.44891497, -49325.523, 98838.09, 0.00004416703, 10.001804, 9.997564 
1.9351597e+3, 2.9488358e+2, -19833.375, -302688.0, 1891.6611, -0.10385642, 0.40770847, -19820.725, 30367.037, 0.00021030295, 10.001342, 9.997574 
1.9351712e+3, 3.0488086e+2, 109473.51, -182717.19, -36825.44, -0.15714915, 0.3774274, 114043.234, 114043.234, 0.0005914415, 10.001738, 9.997892 
1.9351837e+3, 3.148804e+2, 365429.38, 164981.73, -41920.445, 0.003671909, 0.46698233, 373843.2, 373843.2, 0.0011864149, 10.002542, 9.999868 
1.9449356e+3, 1.2487947e+2, -1642221.3, -1723790.3, 80750.26, 0.080490544, 0.51446855, -1592540.4, 123697.94, 0.20999403, 10.000776, 9.999608 
1.944951e+3, 1.3487956e+2, -1807417.8, -1595559.8, 86373.68, 0.03731075, 0.33378914, -1564809.0, 53426.84, 0.14565058, 9.998145, 10.001077 
1.9449653e+3, 1.4488402e+2, -1893367.8, -1775687.5, 56907.105, 0.030510494, 0.77615774, -1752670.6, -232478.48, 0.083007626, 9.99771, 9.999336 
1.9449776e+3, 1.5488227e+2, -1515940.4, -1481353.4, 69208.14, 0.00039182798, 0.58868736, -1427310.8, -5100.1445, 0.03539992, 9.99938, 9.999865 
1.9449894e+3, 1.6488099e+2, -1307927.3, -1314773.1, 38369.754, -0.029492607, 0.4723346, -1272828.1, 51394.5, 0.009600047, 10.000072, 10.000004 
1.9450012e+3, 1.7488182e+2, -1184797.8, -1188851.0, 7728.883, -0.0015951057, 0.5205026, -1178834.3, 47377.516, 0.0010784023, 10.000201, 10.0001135 
1.9450147e+3, 1.8488188e+2, -1127621.4, -1210186.6, 137085.78, 0.026881574, 0.56113666, -1025737.1, 102472.984, 0.0000066792873, 10.000327, 9.99925 
1.94503e+3, 1.9488063e+2, -972467.9, -1070605.9, 140343.34, 0.017815506, 0.47661573, -872862.7, 157360.19, 0.0, 10.000677, 9.999354 
1.9450437e+3, 2.0487987e+2, -829663.6, -882437.9, 76261.805, -0.04505017, 0.43835682, -775352.94, 156875.1, 0.0, 10.000675, 9.999984 
1.9450559e+3, 2.1487983e+2, -755482.94, -784539.0, 49360.813, -0.16725963, 0.4025043, -718556.56, 115666.64, 0.0, 10.000478, 10.00007 
1.9450691e+3, 2.2487965e+2, -786916.44, -955915.56, 54999.117, -0.18558928, 0.47479227, -770594.0, -34365.926, 0.0, 10.000466, 9.998234 
1.9450834e+3, 2.3487929e+2, -641086.0, -825252.8, 59080.668, -0.104385205, 0.5833493, -623762.5, 14481.087, 0.0, 10.000762, 9.998314 
1.9450969e+3, 2.4487872e+2, -417742.03, -534833.3, 58380.816, -0.046071853, 0.6432788, -393608.1, 146642.98, 0.0, 10.001053, 9.9994955 
1.9451098e+3, 2.5487792e+2, -250574.67, -394086.0, 62665.523, -0.0325272, 0.57687676, -227063.11, 215187.34, 0.0, 10.001491, 9.999575 
1.9451232e+3, 2.648768e+2, -234059.6, -409933.72, 86067.98, -0.025350211, 0.5459858, -198949.42, 145308.23, 0.000000002142629, 10.001236, 9.99892 
1.9451368e+3, 2.7487555e+2, -257596.67, -363013.9, -1446.0336, -0.04654589, 0.49144185, -257576.83, -11305.505, 0.0000030022966, 10.00036, 9.998995 
1.9451495e+3, 2.8487405e+2, -197008.67, -376634.84, -53052.9, -0.07207419, 0.4911424, -182509.72, -34224.676, 0.00003904193, 10.000513, 9.998156 
1.945161e+3, 2.9487237e+2, 95605.91, -169283.2, 12678.284, -0.11211805, 0.46123347, 96211.336, 146509.22, 0.0001845939, 10.001784, 9.998283 
1.9451725e+3, 3.0486864e+2, 195715.8, -204124.4, 59313.63, -0.20643216, 0.3163583, 204329.05, 204329.05, 0.0005147042, 10.002616, 9.997314 
1.9451877e+3, 3.1486836e+2, 448917.06, 134930.48, -58873.938, 0.11920547, 0.501831, 459593.2, 459593.2, 0.0010263091, 10.00337, 9.999283 
1.9549368e+3, 1.2486833e+2, -1702988.1, -1882116.3, 246893.42, 0.077422224, 0.8021538, -1529915.4, 186437.73, 0.22070916, 10.000947, 9.998511 
1.954953e+3, 1.3486849e+2, -1706397.4, -1429870.3, 2383.2017, 0.42155445, 0.5385316, -1429849.8, 188499.31, 0.15369554, 9.998196, 10.002375 
1.9549604e+3, 1.4487131e+2, -1787361.6, -1575704.0, 111830.555, -0.24888279, 0.6748765, -1527565.9, -7248.1685, 0.08810495, 9.997795, 10.000665 
1.9549754e+3, 1.5487042e+2, -1447474.5, -1346987.1, 134986.31, -0.18036446, 0.4768632, -1253197.0, 169125.06, 0.037922986, 9.999405, 10.000809 
1.9549894e+3, 1.6487001e+2, -1345396.0, -1412715.0, 31694.764, -0.07455642, 0.4345303, -1332822.1, -8496.918, 0.010466628, 10.0001545, 9.99929 
1.9550022e+3, 1.7487124e+2, -1233678.9, -1299577.8, 18627.275, 0.044518124, 0.5939373, -1228778.1, -2461.8525, 0.0012294218, 10.000231, 9.999342 
1.9550158e+3, 1.8487123e+2, -1104723.0, -1173806.4, 140101.78, 0.04911647, 0.6591548, -994967.6, 133349.56, 0.000009908067, 10.000381, 9.999471 
1.9550301e+3, 1.9486977e+2, -963421.2, -1041139.7, 159678.75, -0.0513827, 0.53009725, -837941.4, 192389.38, 0.0, 10.000633, 9.999578 
1.9550437e+3, 2.0486945e+2, -881902.75, -964659.75, 58781.895, -0.13500497, 0.5504578, -851396.0, 80937.17, 0.0, 10.000563, 9.999473 
1.9550563e+3, 2.1487059e+2, -812481.9, -865322.3, 49739.25, -0.19067803, 0.6829973, -782581.4, 51740.074, 0.0, 10.000324, 9.999583 
1.95507e+3, 2.2487007e+2, -786415.1, -916001.25, 58860.035, -0.15749408, 0.7262223, -763671.6, -27342.87, 0.0, 10.000288, 9.998598 
1.9550851e+3, 2.3486787e+2, -640471.94, -781191.3, 79986.11, -0.017914452, 0.6121171, -604303.44, 34051.953, 0.0, 10.000587, 9.998695 
1.9550985e+3, 2.4486654e+2, -424588.75, -498626.16, 65806.87, -0.021948813, 0.55711657, -386102.97, 154263.67, 0.0, 10.0008335, 9.99985 
1.9551101e+3, 2.548661e+2, -249983.19, -348429.63, 89530.76, -0.16842116, 0.48972353, -197036.55, 245325.05, 0.0, 10.001312, 9.999966 
1.9551231e+3, 2.6486516e+2, -393564.88, -703222.3, 43498.5, -0.18617299, 0.5511566, -387570.56, -43198.688, 0.00000003752054, 10.0010605, 9.996998 
1.9551374e+3, 2.7486363e+2, -414507.03, -655668.94, -18799.912, -0.04690374, 0.65963477, -413050.28, -166650.53, 0.0000033251551, 10.00022, 9.997052 
1.9551511e+3, 2.848624e+2, -97241.75, -117048.94, -17949.264, 0.020827482, 0.6935079, -86645.17, 61766.18, 0.000036409245, 10.000287, 10.000049 
1.9551642e+3, 2.9486197e+2, 207665.56, 124280.73, 74771.96, 0.00021838173, 0.5872244, 251583.33, 301985.13, 0.00016708692, 10.001537, 10.000413 
1.9551747e+3, 3.0485827e+2, 70590.76, -403748.5, 59962.85, -0.30199015, 0.3906646, 78053.45, 78053.45, 0.00045037686, 10.0023365, 9.996088 
1.9551903e+3, 3.1485698e+2, 280881.7, -98287.86, 33241.676, 0.0036415467, 0.6069102, 283773.94, 283773.94, 0.00087169104, 10.002914, 9.997881 
1.9649348e+3, 1.24853194e+2, -2317636.0, -2241953.8, 206940.53, -0.029035253, 0.8405212, -2069423.0, -352919.38, 0.23177752, 9.99683, 9.997871 
1.9649525e+3, 1.3485534e+2, -1453506.1, -1142044.8, -39323.44, 0.49080923, 0.6065008, -1137156.6, 481323.78, 0.1620495, 9.999314, 10.004178 
1.964959e+3, 1.4485863e+2, -1474443.6, -1378487.4, 49626.35, -0.27258688, 0.66883236, -1357438.9, 163005.44, 0.093428105, 9.999756, 10.001151 
1.9649746e+3, 1.5485856e+2, -1573863.1, -1354785.0, 16439.354, -0.15399578, 0.5097843, -1353558.3, 68880.84, 0.04057487, 9.99833, 10.001237 
1.9649892e+3, 1.6485843e+2, -1601739.8, -1539371.9, -32974.473, -0.011315997, 0.4708728, -1525171.3, -200732.48, 0.011385711, 9.998405, 9.999266 
1.9650023e+3, 1.7485915e+2, -1250999.6, -1310559.1, -7778.638, 0.03625513, 0.58414596, -1250000.5, -23565.998, 0.0013940044, 10.000128, 9.999316 
1.9650158e+3, 1.8485902e+2, -1084495.4, -1205675.4, 98992.56, 0.024710873, 0.65480137, -1029022.1, 99415.48, 0.000014255441, 10.000693, 9.999103 
1.9650307e+3, 1.948578e+2, -1047528.0, -1124924.9, 55481.87, -0.026994903, 0.5880487, -1018581.75, 11868.964, 0.0, 10.000237, 9.999192 
1.9650444e+3, 2.0485733e+2, -966836.94, -1023435.8, -36570.84, -0.073677175, 0.62071556, -948894.8, -16438.729, 0.0, 10.000047, 9.999321 
1.965057e+3, 2.148578e+2, -841508.56, -898212.3, -36606.023, -0.13556187, 0.69998115, -823558.94, 10893.131, 0.0, 10.000185, 9.999433 
1.9650711e+3, 2.2485732e+2, -714728.9, -792729.7, 31032.611, -0.09131583, 0.71571434, -703889.0, 32567.633, 0.0, 10.000412, 9.999383 
1.9650863e+3, 2.3485577e+2, -538815.44, -648873.56, 61276.023, 0.04017056, 0.592268, -511485.84, 126985.055, 0.0, 10.000913, 9.999453 
1.9650999e+3, 2.4485457e+2, -435587.38, -540241.9, 39719.137, 0.04301856, 0.5292607, -422220.25, 118259.58, 0.0, 10.0008955, 9.999541 
1.9651115e+3, 2.5485396e+2, -416745.6, -468822.88, -9446.967, -0.10981567, 0.47990057, -415084.84, 27395.973, 0.0, 10.000324, 9.999621 
1.9651243e+3, 2.6485306e+2, -426160.72, -703951.25, 27619.176, -0.14455786, 0.55402505, -423441.3, -78948.78, 0.00000006167767, 10.000785, 9.997124 
1.9651385e+3, 2.7485156e+2, -87360.055, -482100.75, 87118.06, -0.06128729, 0.66146433, -68988.4, 177529.14, 0.000003603985, 10.002418, 9.997176 
1.9651528e+3, 2.8485003e+2, 216746.13, -42355.688, 89693.63, 0.04515516, 0.6883739, 244765.48, 393299.3, 0.00003430298, 10.002779, 9.999359 
1.9651671e+3, 2.9484907e+2, 208996.28, 42742.832, -43520.934, 0.13685843, 0.60878944, 219699.86, 270234.06, 0.00015136057, 10.001887, 9.999697 
1.9651778e+3, 3.0484673e+2, 98925.02, -257646.23, -30077.773, -0.19783366, 0.5253979, 101444.37, 101444.37, 0.0003913985, 10.001955, 9.997283 
1.965192e+3, 3.1484574e+2, 270278.3, -101495.8, 72177.96, -0.11345841, 0.6686986, 283799.53, 283799.53, 0.0007264333, 10.002781, 9.997952 
1.9749293e+3, 1.2483507e+2, -2312672.8, -2277541.0, -33241.8, -0.31656754, 0.6869183, -2257509.3, -540829.2, 0.24301729, 9.997003, 9.997559 
1.9749483e+3, 1.3484026e+2, -1328387.3, -895365.4, 50394.273, 0.12172455, 0.52915674, -889577.94, 729051.4, 0.17062773, 9.999364, 10.006247 
1.9749603e+3, 1.4484602e+2, -1483745.4, -1423171.8, -11363.455, -0.1479926, 0.7563478, -1421110.1, 99461.37, 0.09895461, 9.99986, 10.000775 
1.9749746e+3, 1.5484658e+2, -1580156.4, -1379743.4, -31728.592, -0.0074521853, 0.6826101, -1374840.1, 47723.01, 0.04335473, 9.998376, 10.001044 
1.9749886e+3, 1.6484606e+2, -1535027.5, -1414462.1, 20107.018, 0.049742617, 0.57717586, -1411197.3, -86632.266, 0.012356995, 9.998472, 10.000088 
1.9750011e+3, 1.7484552e+2, -1195106.1, -1193570.3, 64201.777, -0.10644219, 0.48744896, -1130131.8, 96435.28, 0.0015709848, 10.000131, 10.000117 
1.9750153e+3, 1.8484512e+2, -1149503.0, -1346347.6, 72389.79, -0.14481351, 0.53904486, -1125748.3, 2824.1545, 0.000019593592, 10.000715, 9.998131 
1.9750313e+3, 1.9484463e+2, -1125160.5, -1273087.1, 47152.145, -0.009786837, 0.64544016, -1111408.9, -80824.984, 0.0, 10.000185, 9.9982 
1.9750457e+3, 2.0484342e+2, -971710.1, -1007574.06, -37769.55, 0.015308599, 0.6450741, -947831.9, -15233.748, 0.0, 9.999939, 9.999478 
1.9750579e+3, 2.1484168e+2, -852556.3, -883675.4, -23561.086, -0.0872098, 0.48530927, -839880.7, -5267.822, 0.0, 10.000028, 9.999606 
1.9750716e+3, 2.248415e+2, -667132.0, -650810.2, 38608.67, -0.09938905, 0.4698144, -619509.4, 117101.15, 0.0, 10.000215, 10.000456 
1.975087e+3, 2.3484291e+2, -482354.94, -499906.13, 90304.26, -0.0043606856, 0.5286789, -400400.88, 238190.06, 0.0, 10.00077, 10.0005455 
1.9751011e+3, 2.4484289e+2, -533325.7, -703038.8, 8679.622, 0.046431925, 0.57632685, -532882.94, 7707.4023, 0.0, 10.000716, 9.998513 
1.9751135e+3, 2.5484157e+2, -508919.3, -629397.6, -21713.176, 0.049437635, 0.5582634, -505125.53, -62517.645, 0.0, 10.000192, 9.998583 
1.9751264e+3, 2.6484036e+2, -322697.94, -439359.8, 74536.82, -0.032905318, 0.56560314, -286380.94, 58239.094, 0.000000055759365, 10.000572, 9.99904 
1.9751398e+3, 2.7483937e+2, 24514.906, -199596.03, 157486.81, -0.1833944, 0.51680064, 105742.98, 352368.94, 0.0000036492006, 10.002213, 9.999205 
1.9751543e+3, 2.8483707e+2, -40905.617, -533129.0, 39414.89, -0.11008612, 0.52103156, -37769.44, 110882.195, 0.00003270768, 10.002573, 9.996097 
1.9751696e+3, 2.9483366e+2, -39772.02, -440005.53, -53528.383, 0.18011586, 0.5261854, -32736.646, 17958.512, 0.00013942833, 10.0017395, 9.996453 
1.9751811e+3, 3.048341e+2, 251781.8, 148776.9, -15849.536, -0.06934877, 0.73507404, 254165.44, 254165.44, 0.00034788088, 10.001596, 10.000241 
1.9751945e+3, 3.1483418e+2, 301963.22, 88582.13, 210276.27, -0.17476635, 0.6763246, 431067.03, 431067.03, 0.0006196411, 10.002287, 9.999481 
1.9849278e+3, 1.2482203e+2, -2205294.3, -2065901.0, 45913.156, -0.16076477, 0.5983444, -2052137.3, -335331.8, 0.25424254, 9.997026, 9.9990225 
1.9849452e+3, 1.3482745e+2, -1754003.1, -1156056.8, 181145.19, 0.020234514, 0.5087742, -1105460.9, 513291.88, 0.17932345, 9.996405, 10.005585 
1.9849598e+3, 1.4483277e+2, -1934063.3, -1668783.1, 37014.94, -0.03287512, 0.7525954, -1663715.1, -143014.98, 0.104643695, 9.996907, 10.000444 
1.9849747e+3, 1.5483308e+2, -1418220.1, -1317352.6, 9315.589, 0.1195225, 0.6688729, -1316499.5, 106197.28, 0.046255346, 9.999548, 10.000934 
1.9849887e+3, 1.6483283e+2, -1233967.6, -1244710.8, 54014.08, 0.1317273, 0.58079123, -1185058.8, 139638.27, 0.013380272, 10.000441, 10.000308 
1.9850007e+3, 1.7483273e+2, -1245122.1, -1194708.8, 38618.36, -0.1405152, 0.5150813, -1173798.8, 52894.887, 0.0017591557, 9.999685, 10.000325 
1.9850148e+3, 1.8483248e+2, -1327080.3, -1417053.0, 64951.36, -0.18215072, 0.5627656, -1293057.4, -164360.53, 0.0000256483, 9.999424, 9.998267 
1.9850318e+3, 1.9483174e+2, -1154099.4, -1273748.3, 106403.2, 0.040604003, 0.629463, -1091855.8, -61145.31, 0.0, 9.999912, 9.998332 
1.9850466e+3, 2.0483045e+2, -947323.1, -1008710.56, 78249.17, 0.11155065, 0.62169415, -893963.06, 38762.156, 0.0, 10.000167, 9.999363 
1.9850588e+3, 2.1482883e+2, -814307.75, -881354.7, 49614.535, -0.0036573992, 0.48682314, -787952.8, 46786.387, 0.0, 10.000365, 9.99946 
1.9850722e+3, 2.2482848e+2, -644519.5, -656009.25, 76689.37, -0.0533964, 0.46835625, -573360.1, 163378.39, 0.0, 10.000443, 10.000305 
1.9850871e+3, 2.3482941e+2, -547886.0, -548585.06, 15361.102, -0.038301826, 0.49692905, -532870.5, 105852.586, 0.0, 10.0004, 10.000383 
1.9851014e+3, 2.4482934e+2, -538601.3, -727011.2, -68138.734, 0.013138432, 0.5618344, -516541.66, 24182.19, 0.0, 10.000803, 9.99829 
1.9851148e+3, 2.548283e+2, -289172.78, -552026.44, -60960.77, 0.07471249, 0.5960198, -275723.03, 167018.61, 0.0, 10.001832, 9.998322 
1.9851282e+3, 2.6482722e+2, -73301.64, -273515.75, 39882.68, 0.020497128, 0.6064767, -65649.47, 279103.47, 0.00000004684117, 10.002086, 9.99945 
1.9851418e+3, 2.7482626e+2, -50052.816, -195691.83, -19034.156, -0.15915777, 0.5255905, -47606.266, 199149.34, 0.000003631824, 10.0015135, 9.999576 
1.9851564e+3, 2.8482407e+2, -174755.44, -614643.5, -77863.305, -0.11042586, 0.53728586, -161379.8, -12599.8955, 0.000030883682, 10.001744, 9.995927 
1.9851717e+3, 2.9482067e+2, 112319.11, -396777.75, 17981.314, 0.15317595, 0.56681603, 112953.42, 163779.97, 0.00012822116, 10.002939, 9.996159 
1.9851844e+3, 3.048213e+2, 508136.2, 253294.39, 67914.555, 0.02323261, 0.82078797, 525105.3, 525105.3, 0.00031412422, 10.003415, 10.00008 
1.9851969e+3, 3.1481984e+2, 379058.8, 136550.86, 15452.521, -0.16136046, 0.62572026, 380039.47, 380039.47, 0.0005494113, 10.002724, 9.999602 
1.9949284e+3, 1.2481422e+2, -1934447.6, -1573426.8, -279205.38, 0.13831122, 0.5725532, -1421462.1, 295416.47, 0.26535824, 9.997167, 10.002907 
1.9949426e+3, 1.3481694e+2, -1987501.0, -1581420.3, 165830.19, 0.094278134, 0.54472965, -1522306.0, 96544.1, 0.18805622, 9.996453, 10.002064 
1.9949569e+3, 1.4481881e+2, -1938197.4, -1704052.5, 120664.65, -0.05118076, 0.646615, -1653000.3, -132168.78, 0.11045076, 9.997017, 10.000152 
1.9949748e+3, 1.5481801e+2, -1418622.3, -1319317.6, 114091.5, 0.13627267, 0.45655856, -1244542.4, 178298.36, 0.04926506, 9.999574, 10.0009165 
1.9949895e+3, 1.6481858e+2, -1250045.3, -1293935.0, 16162.934, 0.13233061, 0.47396743, -1244735.5, 80100.18, 0.014456319, 10.000505, 9.999936 
1.9950005e+3, 1.7482072e+2, -1268526.1, -1247144.6, 12819.482, -0.14680849, 0.66486734, -1241143.1, -14328.358, 0.0019582892, 9.999698, 9.999959 
1.9950144e+3, 1.8482094e+2, -1236128.3, -1236159.0, 74562.69, -0.19132422, 0.7187088, -1161580.9, -32768.26, 0.000032105352, 9.999462, 9.99949 
1.995032e+3, 1.948191e+2, -1071169.8, -1088030.1, 131409.1, 0.04701158, 0.5489339, -947920.7, 82910.15, 0.0, 9.999865, 9.999625 
1.9950472e+3, 2.0481843e+2, -991726.8, -1079721.4, 73492.27, 0.123253204, 0.55704373, -950068.56, -17230.588, 0.0, 10.00007, 9.998925 
1.9950597e+3, 2.1481906e+2, -864184.9, -958060.75, 65401.586, 0.029853076, 0.6958703, -830621.0, 4211.8403, 0.0, 10.000249, 9.998989 
1.9950728e+3, 2.2481807e+2, -767868.7, -873283.8, 69225.125, -0.06566908, 0.70612025, -733569.3, 3272.6428, 0.0, 10.000275, 9.998895 
1.9950865e+3, 2.3481537e+2, -670766.6, -765723.4, 26598.553, -0.15032072, 0.5096465, -663823.7, -24957.727, 0.0, 10.000234, 9.99897 
1.9951005e+3, 2.4481396e+2, -545100.06, -686404.4, -40961.426, -0.17384596, 0.48969224, -534084.8, 6795.5874, 0.0, 10.000565, 9.998689 
1.9951148e+3, 2.5481412e+2, -277753.1, -491668.2, -13432.01, -0.11140436, 0.59852463, -276912.97, 165969.89, 0.0, 10.001674, 9.998812 
1.9951296e+3, 2.6481348e+2, -185785.42, -456060.94, 9424.12, -0.08137364, 0.6837709, -185457.22, 159434.58, 0.000000042002604, 10.001871, 9.998299 
1.9951442e+3, 2.7481213e+2, -162553.83, -379992.22, -27458.236, -0.09127526, 0.68035746, -159139.98, 87766.195, 0.0000035134383, 10.001316, 9.9984 
1.9951585e+3, 2.8481087e+2, -41887.79, -283980.6, -46484.297, -0.104520254, 0.7257242, -33269.156, 115650.9, 0.00002820436, 10.001504, 9.998315 
1.9951728e+3, 2.9480973e+2, 244380.45, -71620.734, 80368.0, -0.0698322, 0.7214423, 263645.75, 314579.03, 0.00011358975, 10.002713, 9.998503 
1.9951873e+3, 3.0480817e+2, 213972.89, -252735.48, 27938.432, -0.07398555, 0.8059258, 215639.42, 215639.42, 0.00027761376, 10.002986, 9.996798 
1.9951977e+3, 3.1480378e+2, 202633.66, -124669.73, 15415.439, -0.4084818, 0.61576855, 203358.1, 203358.1, 0.0004898738, 10.002305, 9.997988 
2.004927e+3, 1.248043e+2, -1803852.3, -1423208.6, -365342.6, 0.25899267, 0.58305454, -1201586.8, 515386.78, 0.27641812, 9.997683, 10.004093 
2.0049407e+3, 1.3480397e+2, -1724685.6, -1752923.1, 23910.063, 0.1148523, 0.5198558, -1711037.0, -92060.38, 0.1968332, 9.9995985, 9.999224 
2.004955e+3, 1.4480497e+2, -1607953.4, -1561141.1, 45263.984, -0.057788827, 0.6850436, -1533589.6, -12621.797, 0.11636926, 9.999364, 9.99999 
2.0049734e+3, 1.5480398e+2, -1687415.5, -1461157.8, 21374.582, 0.15382674, 0.48591152, -1459156.3, -36176.293, 0.05238356, 9.997779, 10.000763 
2.004989e+3, 1.6480456e+2, -1647548.4, -1463027.3, -45874.594, 0.1676604, 0.5036987, -1452251.5, -127276.516, 0.015589432, 9.997665, 10.000145 
2.0050007e+3, 1.7480686e+2, -1280157.9, -1224872.4, -18840.059, -0.07576971, 0.68572265, -1219062.6, 7889.221, 0.0021699998, 9.999489, 10.000215 
2.005015e+3, 1.8480718e+2, -1123998.8, -1138062.9, 33073.86, -0.10877558, 0.7165411, -1097217.6, 31730.09, 0.00003871999, 10.000061, 9.999865 
2.0050319e+3, 1.9480544e+2, -1079241.6, -1053830.5, 3376.3286, 0.06578527, 0.52372354, -1053389.5, -22426.768, 0.0, 9.999657, 9.999955 
2.005047e+3, 2.0480502e+2, -988779.06, -1089204.8, -29937.932, 0.11451547, 0.5431308, -980531.6, -47564.26, 0.0, 10.000138, 9.998825 
2.0050605e+3, 2.1480599e+2, -659835.3, -870754.0, -27276.273, 0.01390604, 0.72491866, -656365.0, 178595.58, 0.0, 10.001697, 9.998894 
2.0050739e+3, 2.2480494e+2, -595570.8, -846770.5, -26721.926, -0.048380263, 0.7600688, -592759.7, 144212.42, 0.0, 10.001712, 9.998382 
2.0050873e+3, 2.3480174e+2, -714354.56, -842814.44, -27738.799, -0.08773243, 0.5713151, -708620.75, -69617.89, 0.0, 10.000194, 9.998457 
2.0051014e+3, 2.4480006e+2, -600237.44, -686091.9, 24802.473, -0.10828217, 0.536386, -593587.4, -52567.293, 0.0, 10.000037, 9.998959 
2.0051162e+3, 2.5480002e+2, -315658.25, -481840.03, 22577.715, -0.11687327, 0.59962696, -312645.44, 130376.73, 0.0, 10.001271, 9.99908 
2.0051311e+3, 2.6479945e+2, -238245.75, -516845.72, 24651.234, -0.08502984, 0.690543, -236081.36, 108949.4, 0.000000029896977, 10.001667, 9.997973 
2.0051458e+3, 2.7479813e+2, -185004.23, -433810.38, 23354.469, -0.03957938, 0.72550195, -182831.03, 64216.715, 0.0000031274246, 10.001328, 9.998027 
2.0051602e+3, 2.8479716e+2, -7127.19, -169057.16, 47813.06, -0.05696903, 0.7750495, 5936.6377, 154994.08, 0.000025154262, 10.001314, 9.999202 
2.005174e+3, 2.947966e+2, 116627.19, -50869.832, 18339.97, -0.1297764, 0.75130564, 118611.8, 169671.06, 0.00009776422, 10.001481, 9.999239 
2.0051903e+3, 3.0479363e+2, 116509.43, -416589.03, 29743.611, -0.04208045, 0.7153654, 118163.805, 118163.805, 0.0002403355, 10.002791, 9.9957905 
2.0052025e+3, 3.1478798e+2, 615725.06, 81512.72, 42831.15, -0.28858644, 0.507392, 619137.3, 619137.3, 0.00043342356, 10.005089, 9.998093 
2.0149228e+3, 1.24791496e+2, -1897805.3, -1627892.3, -24260.494, 0.0024275142, 0.5594894, -1625729.0, 91369.195, 0.28771394, 9.997745, 10.00191 
2.0149393e+3, 1.3478833e+2, -1855946.5, -2034502.5, 70883.805, 0.002146895, 0.42548937, -1831228.5, -212094.03, 0.20582092, 9.999634, 9.997283 
2.0149536e+3, 1.4479122e+2, -1596655.4, -1558469.0, -24574.488, -0.1721363, 0.8718675, -1546442.1, -25332.148, 0.12247417, 9.999445, 9.999973 
2.0149706e+3, 1.5479092e+2, -1701980.3, -1493892.0, -35280.85, 0.074102044, 0.76322854, -1488073.0, -64958.008, 0.055639356, 9.99779, 10.000531 
2.0149864e+3, 1.6479082e+2, -1575296.8, -1331901.1, 9293.784, 0.12012669, 0.6795502, -1331546.8, -6432.392, 0.016791714, 9.997744, 10.001011 
2.015001e+3, 1.7479119e+2, -1216141.8, -1090020.3, 56212.37, -0.0014661875, 0.581265, -1068603.3, 158501.86, 0.0023981123, 9.999481, 10.001147 
2.0150161e+3, 1.8479119e+2, -1153623.6, -1213228.3, 4239.851, -0.038303778, 0.55890447, -1153323.5, -24221.322, 0.000045425786, 10.00011, 9.999331 
2.0150311e+3, 1.947908e+2, -1127721.0, -1143413.4, -7451.108, 0.0062265345, 0.55876863, -1124746.8, -93640.14, 0.0, 9.99961, 9.999364 
2.015046e+3, 2.0479031e+2, -987354.8, -1058824.1, 17745.547, -0.029674796, 0.59062093, -983191.25, -50078.67, 0.0, 10.000023, 9.999088 
2.0150608e+3, 2.1478972e+2, -669791.75, -848830.75, 39937.137, -0.12924139, 0.5931697, -661287.2, 173833.55, 0.0, 10.001519, 9.999129 
2.0150752e+3, 2.2478901e+2, -608284.5, -827471.4, -90775.17, -0.10727178, 0.64012486, -575572.44, 161556.66, 0.0, 10.001502, 9.998621 
2.0150891e+3, 2.3478834e+2, -708741.5, -810566.3, -75372.06, 0.059881937, 0.67644507, -668697.75, -29561.842, 0.0, 10.000091, 9.998734 
2.0151035e+3, 2.4478734e+2, -619830.44, -678987.2, 62759.02, 0.08095187, 0.68908006, -580028.9, -38882.887, 0.0, 9.999841, 9.999097 
2.0151183e+3, 2.5478595e+2, -335373.0, -477635.38, 76380.125, -0.04107169, 0.6047578, -302131.94, 141027.95, 0.0, 10.001091, 9.99919 
2.0151328e+3, 2.647848e+2, -242788.45, -480214.78, 2704.224, -0.112951994, 0.6199005, -242757.66, 102414.58, 0.0000000091701935, 10.001463, 9.998327 
2.0151469e+3, 2.7478415e+2, -177109.72, -382308.03, 24005.914, -0.1038802, 0.6788297, -174338.7, 72842.42, 0.0000023642951, 10.001178, 9.998456 
2.015161e+3, 2.847831e+2, -95212.55, -296953.44, 36449.992, -0.12005387, 0.7310015, -88828.86, 60362.094, 0.000021595964, 10.001085, 9.998427 
2.0151755e+3, 2.9478118e+2, 34213.094, -192232.44, 36980.527, -0.1536232, 0.6495766, 40099.33, 91305.43, 0.000083873885, 10.001336, 9.998341 
2.0151931e+3, 3.0477738e+2, 118207.92, -320674.84, 102709.055, -0.07104779, 0.5355326, 141054.94, 141054.94, 0.00020822523, 10.002426, 9.996608 
2.0152089e+3, 3.1477436e+2, 641305.0, 313811.5, 42007.227, -0.19581492, 0.48202997, 646607.4, 646607.4, 0.0003832048, 10.004393, 9.999989 
2.0249203e+3, 1.2477601e+2, -1926956.4, -1730455.6, -4556.6763, -0.020261496, 0.6593039, -1730350.1, -13100.241, 0.29983783, 9.998102, 10.000769 
2.0249392e+3, 1.3477074e+2, -1972374.1, -2019696.3, 5551.3164, 0.08625049, 0.27400398, -1971731.6, -352424.44, 0.21537028, 9.998544, 9.997899 
2.0249534e+3, 1.4477625e+2, -1569551.3, -1512622.4, -27363.686, -0.1210828, 0.9218033, -1501602.6, 19654.148, 0.12892798, 9.999473, 10.0002985 
2.0249692e+3, 1.547759e+2, -1473127.5, -1388234.1, -51739.473, 0.06921184, 0.8064784, -1363757.8, 59504.09, 0.05909158, 9.9993725, 10.000517 
2.0249847e+3, 1.647753e+2, -1389273.6, -1271021.6, 42898.652, 0.10478841, 0.68891746, -1257098.5, 68168.086, 0.018083457, 9.999159, 10.000743 
2.0250008e+3, 1.7477532e+2, -1250552.9, -1138122.9, -12445.393, 0.01970118, 0.58305293, -1136761.6, 90500.66, 0.0026487417, 9.999408, 10.000841 
2.0250161e+3, 1.8477528e+2, -1233579.6, -1230534.5, -114201.1, 0.0018311617, 0.5639358, -1117845.9, 11414.182, 0.000052423693, 9.999462, 9.999523 
2.0250307e+3, 1.9477499e+2, -1125757.5, -1125132.3, -84248.71, 0.008362216, 0.5515868, -1041195.6, -9933.304, 0.0, 9.99953, 9.999533 
2.0250458e+3, 2.0477463e+2, -1019441.25, -1038672.06, 31981.547, -0.023504615, 0.57146615, -995660.94, -62394.633, 0.0, 9.999654, 9.999399 
2.0250617e+3, 2.1477424e+2, -870449.3, -912537.6, 39332.297, -0.10898534, 0.56329703, -846885.3, -11613.116, 0.0, 9.999999, 9.999418 
2.0250766e+3, 2.2477365e+2, -728122.1, -894487.56, -117419.61, -0.068264514, 0.6116679, -667406.56, 69872.91, 0.0, 10.000723, 9.998529 
2.0250905e+3, 2.3477302e+2, -447623.06, -695014.3, -146160.52, 0.092811435, 0.6633297, -379841.5, 259445.11, 0.0, 10.001935, 9.998631 
2.0251048e+3, 2.447721e+2, -358517.25, -590434.5, -27683.08, 0.12238808, 0.7048715, -355258.63, 186038.58, 0.0, 10.001815, 9.998742 
2.0251192e+3, 2.5477073e+2, -472895.94, -587031.56, -68306.74, -0.01798043, 0.6613778, -440955.06, 2357.5454, 0.0, 10.000341, 9.998795 
2.025134e+3, 2.647696e+2, -363746.8, -506294.06, -109765.83, -0.088332936, 0.6839313, -304144.66, 41179.7, 0.000000001074916, 10.000486, 9.998624 
2.0251487e+3, 2.74769e+2, 885.2176, -260841.3, -117047.4, -0.07866779, 0.72350305, 45593.277, 292923.03, 0.0000018159459, 10.002262, 9.998761 
2.0251636e+3, 2.8476715e+2, 131353.34, -254811.06, -115670.91, -0.058829494, 0.7100288, 163350.0, 312696.4, 0.000018189116, 10.00291, 9.997842 
2.025178e+3, 2.947637e+2, 147823.1, -180125.55, -130280.9, -0.08248435, 0.5325238, 193278.2, 244655.84, 0.000072171526, 10.0023155, 9.997942 
2.0251949e+3, 3.047613e+2, 208120.97, -188795.55, 56444.426, -0.118326575, 0.53000784, 215991.7, 215991.7, 0.00017992307, 10.002594, 9.997469 
2.025213e+3, 3.1476092e+2, 461643.75, 198719.27, -169555.53, -0.14704497, 0.68792367, 544730.8, 544730.8, 0.0003355793, 10.003211, 9.999796 
2.0349199e+3, 1.24757744e+2, -1920262.5, -1755786.0, 30127.564, 0.060515724, 0.858603, -1750441.3, -33011.402, 0.3135409, 9.998247, 10.000535 
2.0349395e+3, 1.3475099e+2, -1741402.4, -1570177.8, 60295.05, 0.23618667, 0.05138446, -1551076.4, 68420.516, 0.22593072, 9.998601, 10.001082 
2.0349543e+3, 1.4475994e+2, -1499839.5, -1416040.9, -31122.502, -0.025399067, 0.83017, -1405746.6, 115663.46, 0.13594478, 9.999639, 10.00098 
2.0349687e+3, 1.5475889e+2, -1449345.6, -1346972.4, -55225.297, 0.056268558, 0.6157734, -1322860.3, 100560.914, 0.06282382, 9.999404, 10.000797 
2.034983e+3, 1.64758e+2, -1481404.4, -1481176.4, 35546.016, -0.0033091994, 0.52719593, -1445744.1, -120312.195, 0.019494196, 9.999237, 9.999257 
2.0349991e+3, 1.7475918e+2, -1347076.1, -1349814.6, 3366.4778, -0.10508563, 0.68692034, -1344811.0, -117386.93, 0.0029308582, 9.999448, 9.999368 
2.035015e+3, 1.8475941e+2, -1164056.1, -1099370.0, -117199.5, -0.1031593, 0.7226662, -1010132.6, 119288.62, 0.00006041413, 9.999517, 10.000401 
2.0350303e+3, 1.9475798e+2, -1066005.0, -990242.6, -73591.24, -0.011280787, 0.5078375, -945355.1, 86074.76, 0.0, 9.999485, 10.000482 
2.035046e+3, 2.0475784e+2, -1007818.1, -993844.0, 33909.96, 0.005686875, 0.48346353, -966208.75, -32779.523, 0.0, 9.999567, 9.999747 
2.0350628e+3, 2.1475938e+2, -862805.75, -866006.8, 60091.56, -0.019081721, 0.6317157, -804293.4, 31122.709, 0.0, 9.999866, 9.999804 
2.0350778e+3, 2.247588e+2, -793232.56, -969284.2, -79528.06, -0.050311092, 0.6788119, -762627.6, -25203.975, 0.0, 10.000475, 9.998131 
2.0350909e+3, 2.3475584e+2, -509035.75, -776386.9, -87917.875, -0.068404905, 0.5405953, -482715.34, 156739.39, 0.0, 10.001745, 9.998159 
2.0351046e+3, 2.4475425e+2, -451981.75, -738162.1, -88815.98, -0.0946425, 0.58461416, -426658.53, 114816.05, 0.0, 10.001613, 9.997829 
2.0351186e+3, 2.547543e+2, -547381.1, -722884.1, -113050.55, -0.12888925, 0.7735824, -492021.66, -48540.992, 0.0, 10.000251, 9.997912 
2.035134e+3, 2.6475382e+2, -384281.0, -497015.2, -52165.46, -0.14183855, 0.89402014, -363846.53, -18359.355, 0.000000023664393, 10.000278, 9.998779 
2.0351513e+3, 2.7475247e+2, -15255.974, -253549.5, -37602.797, -0.07358213, 0.8350877, -9463.064, 238033.05, 0.0000019634658, 10.002086, 9.998895 
2.0351674e+3, 2.84749e+2, 54025.895, -342307.06, -148113.63, -0.0031614061, 0.68011016, 103261.12, 252788.27, 0.000016146072, 10.002607, 9.997383 
2.0351812e+3, 2.9474407e+2, 116794.52, -205174.66, -130395.016, -0.018968215, 0.39753443, 162978.7, 214552.7, 0.00006227005, 10.002134, 9.997864 
2.0351951e+3, 3.047453e+2, 186385.55, -116678.28, 69092.44, -0.3927713, 0.7083181, 201393.97, 201393.97, 0.00015436458, 10.002126, 9.998168 
2.0352158e+3, 3.1474486e+2, 246962.53, -100418.72, -97135.43, -0.23118572, 0.8051071, 272278.75, 272278.75, 0.00029086813, 10.002633, 9.99799 
2.0449193e+3, 1.24739274e+2, -1786444.3, -1800666.4, 113758.914, 0.11574503, 0.8088765, -1679574.4, 38035.58, 0.3294151, 9.999677, 9.999621 
2.0449388e+3, 1.3473386e+2, -1662068.4, -1397974.9, 122544.016, 0.3186876, -0.013718479, -1349873.4, 269788.84, 0.23787552, 9.998433, 10.002728 
2.0449528e+3, 1.4474398e+2, -1687785.3, -1515712.1, -12704.096, -0.06882838, 0.8099322, -1514779.3, 6784.3076, 0.14372098, 9.998435, 10.000766 
2.044968e+3, 1.547424e+2, -1367569.3, -1339787.3, -101725.47, 0.013651014, 0.571667, -1251008.8, 172572.63, 0.06692591, 10.000132, 10.000507 
2.0449826e+3, 1.6474144e+2, -1339505.0, -1415610.9, -13866.685, -0.0068570203, 0.48972908, -1337057.1, -11463.26, 0.021061258, 10.000226, 9.999228 
2.0449983e+3, 1.7474298e+2, -1438900.6, -1402971.1, 39583.84, -0.094679266, 0.6887669, -1377466.3, -149883.19, 0.003256253, 9.998857, 9.999288 
2.0450144e+3, 1.8474331e+2, -1299443.9, -1175113.9, -5157.75, -0.068267725, 0.7464188, -1174900.3, -45320.535, 0.00007088071, 9.998647, 10.000298 
2.0450304e+3, 1.9474173e+2, -1004897.2, -970041.75, -55981.277, 0.03250086, 0.5249491, -928838.2, 102752.87, 0.0, 9.999963, 10.0003805 
2.0450465e+3, 2.0474157e+2, -899562.5, -938603.5, -13566.193, 0.0658531, 0.5033108, -895311.4, 38279.836, 0.0, 10.000289, 9.999789 
2.045063e+3, 2.1474335e+2, -888067.0, -867831.25, -30682.232, 0.03244298, 0.6711802, -845641.7, -10066.164, 0.0, 9.999659, 9.999889 
2.0450781e+3, 2.2474295e+2, -881025.8, -1002634.2, -98768.65, -0.015106583, 0.72806543, -825845.56, -88264.27, 0.0, 9.999824, 9.998222 
2.045092e+3, 2.3473987e+2, -624876.25, -823516.2, -85656.82, -0.09402813, 0.57015467, -593041.56, 46571.85, 0.0, 10.000903, 9.998244 
2.045106e+3, 2.4473788e+2, -441529.8, -776804.56, -80565.14, -0.12012649, 0.5885433, -423175.16, 118461.43, 0.0, 10.001858, 9.997449 
2.0451201e+3, 2.5473735e+2, -223153.16, -606813.2, -85247.43, -0.12137058, 0.7570063, -205064.44, 238582.97, 0.0, 10.00265, 9.997548 
2.0451352e+3, 2.6473653e+2, -87196.24, -350961.06, 22901.121, -0.13628547, 0.8626774, -85222.64, 260433.53, 0.00000011200642, 10.002289, 9.99882 
2.045152e+3, 2.747352e+2, -215588.03, -345560.06, 2225.8357, -0.11377535, 0.8024273, -215549.92, 32114.959, 0.000002326167, 10.000686, 9.998939 
2.0451692e+3, 2.8473204e+2, -187204.05, -485116.1, -48228.77, 0.009565727, 0.6866611, -179590.89, -29897.0, 0.000014696717, 10.001052, 9.997154 
2.0451851e+3, 2.9472768e+2, 277205.8, -151334.89, -54248.88, 0.098265976, 0.49385262, 283966.5, 335703.9, 0.00005375532, 10.0033455, 9.997648 
2.0451973e+3, 3.0472898e+2, 391652.44, -6046.9316, 83542.63, -0.4265589, 0.81079644, 408489.0, 408489.0, 0.00013253847, 10.003481, 9.998265 
2.0452185e+3, 3.147269e+2, 178197.73, -91951.09, -138282.84, -0.17502378, 0.7465063, 236429.4, 236429.4, 0.00025389736, 10.001929, 9.998393 
2.0549177e+3, 1.24721386e+2, -1867024.3, -2030237.4, -212612.6, -0.08242631, 0.5530783, -1720894.6, -3111.8489, 0.3476065, 9.999876, 9.9979 
2.0549366e+3, 1.3471997e+2, -1653610.8, -1396312.0, 97920.62, 0.22049536, 0.11618496, -1363285.4, 256511.48, 0.2513395, 9.9984665, 10.0027485 
2.0549482e+3, 1.4472842e+2, -1762417.1, -1688353.8, 36128.023, -0.41359696, 0.84520173, -1673649.8, -151932.78, 0.15236652, 9.998514, 9.9995365 
2.0549665e+3, 1.5472662e+2, -1415544.9, -1451255.5, -32055.25, -0.16840956, 0.6748958, -1396707.6, 27033.398, 0.071473114, 10.000171, 9.999681 
2.0549832e+3, 1.6472577e+2, -1239560.0, -1232158.9, -71572.375, -0.022529433, 0.5830322, -1164191.5, 161559.7, 0.022826005, 10.000328, 10.00046 
2.054998e+3, 1.7472667e+2, -1351448.5, -1223886.1, -7367.669, -0.028661372, 0.59682804, -1223462.0, 4277.1255, 0.0036400491, 9.998861, 10.000519 
2.0550136e+3, 1.8472682e+2, -1368835.0, -1333524.9, 32700.63, -0.01551298, 0.6282161, -1314017.8, -184280.64, 0.00008593674, 9.998698, 9.99919 
2.0550305e+3, 1.9472596e+2, -1083455.9, -1134247.6, 414.76678, 0.041397594, 0.59328043, -1083452.5, -51704.5, 0.0, 9.999954, 9.999265 
2.0550466e+3, 2.0472564e+2, -931697.56, -988221.0, -43124.406, 0.035036918, 0.62388, -908399.2, 25354.318, 0.0, 10.0002165, 9.999483 
2.055062e+3, 2.1472599e+2, -926834.7, -921256.3, -44016.87, -0.03720094, 0.67688435, -879940.4, -44188.56, 0.0, 9.9995365, 9.999583 
2.0550774e+3, 2.2472574e+2, -877483.5, -941383.44, -67679.33, -0.085367456, 0.7381905, -834591.7, -96836.18, 0.0, 9.999602, 9.998745 
2.055093e+3, 2.3472485e+2, -609011.3, -750426.06, -35207.418, -0.083337426, 0.74360734, -600730.75, 39034.363, 0.0, 10.000734, 9.998826 
2.0551084e+3, 2.4472283e+2, -472324.06, -774043.1, -60611.742, -0.081888355, 0.7199817, -460603.2, 81181.79, 0.0, 10.001585, 9.997594 
2.0551233e+3, 2.547196e+2, -245275.52, -602418.2, -45431.293, -0.08885362, 0.6039846, -239586.92, 204228.66, 0.0, 10.002448, 9.997671 
2.0551375e+3, 2.647176e+2, -130008.805, -383405.5, -43725.67, -0.18387024, 0.5901851, -122675.79, 223158.08, 0.00000017468948, 10.002048, 9.998713 
2.0551512e+3, 2.747171e+2, -241029.08, -371187.84, -43326.207, -0.2979226, 0.6253104, -227926.08, 19911.727, 0.0000023499456, 10.000561, 9.998826 
2.0551687e+3, 2.8471607e+2, -249287.03, -540836.25, 24376.479, -0.16143535, 0.73801893, -247262.97, -97413.75, 0.000012296112, 10.000757, 9.996907 
2.055189e+3, 2.9471418e+2, 216514.25, -227323.69, 44926.23, 0.13425206, 0.8046774, 221016.13, 272887.63, 0.000044415407, 10.003136, 9.997223 
2.0552012e+3, 3.047112e+2, 266720.6, -152034.5, -6050.299, -0.41607645, 0.76554984, 266808.0, 266808.0, 0.00011238554, 10.003022, 9.99747 
2.0552209e+3, 3.147075e+2, 221550.94, 141174.27, -19811.896, -0.16949114, 0.57923925, 226169.0, 226169.0, 0.00022330374, 10.001328, 10.00028 
2.0649189e+3, 1.2470766e+2, -1783540.6, -1957618.4, -79155.47, 0.03976453, 0.57660437, -1752930.3, -35009.83, 0.36771804, 10.000315, 9.998159 
2.0649353e+3, 1.3470602e+2, -1523943.3, -1478789.1, 34627.133, 0.17106262, 0.2535091, -1460029.0, 159908.31, 0.26616043, 10.000313, 10.0011015 
2.0649458e+3, 1.4471237e+2, -1709126.1, -1696234.0, 25313.738, -0.5261064, 0.8776842, -1676558.5, -154680.81, 0.1618756, 9.999011, 9.999246 
2.0649661e+3, 1.5471044e+2, -1582047.6, -1529396.5, 15201.22, -0.16804056, 0.692494, -1525322.9, -101421.305, 0.07651462, 9.999005, 9.999702 
2.0649837e+3, 1.6470982e+2, -1399041.8, -1305687.8, -62311.09, 0.07089202, 0.61992264, -1274509.6, 51398.953, 0.024829434, 9.999213, 10.000479 
2.0649983e+3, 1.7471044e+2, -1237080.4, -1167598.4, -108788.0, 0.07058689, 0.60397047, -1088138.9, 139760.52, 0.0041003036, 9.999649, 10.000523 
2.0650136e+3, 1.8471053e+2, -1215745.5, -1254507.1, -14376.723, 0.05573245, 0.62707806, -1210995.4, -81097.29, 0.000108260756, 9.999738, 9.999222 
2.0650303e+3, 1.9471022e+2, -1102868.5, -1133814.6, 24976.691, 0.03570553, 0.64145905, -1088960.4, -57056.664, 0.0, 9.99979, 9.99934 
2.0650469e+3, 2.0470986e+2, -941558.3, -1023809.4, 24637.121, 0.021932893, 0.678392, -934743.3, -833.4983, 0.0, 10.00028, 9.999202 
2.0650627e+3, 2.1470936e+2, -682394.06, -837949.7, 3625.1997, -0.015778543, 0.67789316, -682309.6, 153607.14, 0.0, 10.001368, 9.9992695 
2.0650783e+3, 2.24709e+2, -570566.75, -798176.94, -15837.023, -0.05166103, 0.7466152, -569470.1, 168452.06, 0.0, 10.001709, 9.998726 
2.065094e+3, 2.3470889e+2, -547062.6, -720427.56, -42745.926, -0.076418154, 0.8323442, -537095.94, 102828.77, 0.0, 10.001159, 9.99883 
2.0651099e+3, 2.4470702e+2, -528891.8, -749067.25, -52670.09, -0.07196887, 0.79990804, -516940.8, 25000.45, 0.0, 10.000968, 9.998065 
2.065125e+3, 2.5470296e+2, -392831.84, -616597.6, -34998.133, -0.0801281, 0.5530079, -387485.7, 56489.46, 0.0, 10.00119, 9.998177 
2.0651394e+3, 2.6470047e+2, -253968.92, -519334.22, -60714.797, -0.14888544, 0.49567726, -240737.31, 105260.14, 0.00000012472299, 10.001524, 9.99803 
2.0651531e+3, 2.7469996e+2, -78105.03, -371309.56, -122976.914, -0.24544722, 0.60536796, -33355.406, 214649.73, 0.0000018192295, 10.002024, 9.998116 
2.0651709e+3, 2.846992e+2, 43056.094, -363503.34, 34665.87, -0.094984874, 0.7641361, 45990.746, 196005.44, 0.000008845643, 10.002597, 9.997246 
2.0651923e+3, 2.9469755e+2, 212342.55, -204560.45, 49156.047, 0.17623602, 0.8232752, 218060.0, 270092.44, 0.000033872344, 10.003004, 9.997443 
2.0652053e+3, 3.046933e+2, 214858.95, -215560.66, -22505.248, -0.2883051, 0.6678993, 216032.48, 216032.48, 0.00009226444, 10.002775, 9.997189 
2.065224e+3, 3.146901e+2, 345331.72, 204747.44, 11500.521, -0.013821552, 0.56212074, 346266.3, 346266.3, 0.00019349625, 10.002118, 10.000369 
2.0749216e+3, 1.24697916e+2, -1669809.3, -1660413.9, 190560.5, 0.20685817, 0.8543223, -1474493.1, 243531.66, 0.38886976, 10.000395, 10.000699 
2.0749345e+3, 1.346918e+2, -1698664.4, -1901235.6, -10270.295, 0.039507266, 0.3856569, -1698145.0, -78059.21, 0.28190908, 10.00046, 9.997791 
2.0749451e+3, 1.446957e+2, -1647577.0, -1590635.0, -6899.8154, -0.5277186, 0.9079711, -1589810.9, -67763.625, 0.17213808, 9.999103, 9.999928 
2.0749661e+3, 1.5469371e+2, -1511898.5, -1394237.4, 23065.834, -0.08617292, 0.6251252, -1389877.1, 34187.344, 0.08207624, 9.999041, 10.00063 
2.0749842e+3, 1.646934e+2, -1467040.1, -1462182.6, -57411.31, 0.14733358, 0.5904924, -1407148.8, -81080.5, 0.027111659, 9.999279, 9.999367 
2.0749985e+3, 1.7469421e+2, -1314383.5, -1332977.6, -88229.11, 0.11696457, 0.71045095, -1234963.0, -6898.6978, 0.0046569863, 9.999669, 9.999375 
2.0750137e+3, 1.8469442e+2, -1126756.5, -1089267.9, -20299.918, 0.041518137, 0.75063884, -1080381.8, 49680.742, 0.00014131474, 9.999819, 10.000318 
2.0750293e+3, 1.9469433e+2, -1027621.8, -971674.0, 32633.809, -0.06278409, 0.6702463, -956665.3, 75394.29, 0.0000000002137382, 9.999762, 10.000469 
2.0750462e+3, 2.0469396e+2, -975087.0, -1071056.5, 54564.12, -0.08461609, 0.661945, -950409.6, -16346.973, 0.0, 10.000181, 9.998924 
2.0750645e+3, 2.1469319e+2, -723900.9, -892700.1, 53980.195, 0.0002786941, 0.6654621, -708114.9, 127958.484, 0.0, 10.001225, 9.998962 
2.0750806e+3, 2.2469254e+2, -645833.9, -893018.8, -38789.31, -0.024288148, 0.74244356, -639889.8, 98193.53, 0.0, 10.001457, 9.998188 
2.0750944e+3, 2.34692e+2, -614874.25, -816998.9, -51267.242, -0.15746269, 0.840324, -602614.4, 37477.867, 0.0, 10.000979, 9.998249 
2.0751096e+3, 2.4469027e+2, -511596.1, -660138.75, -51554.742, -0.21508814, 0.81809056, -495456.56, 46650.523, 0.0, 10.000745, 9.99878 
2.0751253e+3, 2.5468725e+2, -360318.7, -516422.72, -18273.795, -0.18906109, 0.59758943, -358208.06, 85919.914, 0.0, 10.001051, 9.998929 
2.075141e+3, 2.6468498e+2, -379507.7, -721220.94, -55179.105, -0.15650897, 0.58478767, -370818.44, -24669.865, 0.000000021824269, 10.001282, 9.9967575 
2.075157e+3, 2.7468354e+2, -193721.34, -569026.8, -89695.375, -0.06787796, 0.7295004, -173386.55, 74782.945, 0.00000084431264, 10.001856, 9.996836 
2.0751753e+3, 2.8468105e+2, 51778.484, -277947.38, 36560.914, 0.041447602, 0.74711597, 55783.805, 205978.23, 0.000005133315, 10.002312, 9.997968 
2.0751949e+3, 2.946776e+2, 229297.36, -127739.4, 75770.24, 0.09924753, 0.5474273, 244711.81, 296934.56, 0.000023723636, 10.002802, 9.9980755 
2.0752092e+3, 3.046753e+2, 126685.664, -249719.44, -70937.72, -0.2169381, 0.5643199, 139610.83, 139610.83, 0.00007269625, 10.002194, 9.997206 
2.0752263e+3, 3.1467575e+2, 100667.51, -114387.3, 87318.234, -0.05337341, 0.79546297, 131655.86, 131655.86, 0.0001604348, 10.001398, 9.998483 
2.0849214e+3, 1.24683514e+2, -1779480.1, -1615406.5, 229487.9, 0.22027841, 0.92348105, -1453732.9, 264433.94, 0.40993002, 9.99892, 10.002013 
2.0849358e+3, 1.3467759e+2, -1790040.3, -2048794.5, -51939.52, 0.131119, 0.5570989, -1780003.9, -159777.34, 0.29801235, 10.000282, 9.996866 
2.0849463e+3, 1.4467828e+2, -1430664.9, -1479194.9, 19760.762, -0.39724612, 0.80054975, -1423636.4, 98582.54, 0.18298064, 10.000729, 9.999967 
2.0849666e+3, 1.5467711e+2, -1426646.1, -1363107.6, -33387.188, 0.013185005, 0.60129464, -1348790.1, 75437.13, 0.088167645, 9.999667, 10.00057 
2.0849836e+3, 1.6467725e+2, -1487410.6, -1469284.1, -58963.457, 0.18815777, 0.615929, -1418691.5, -92465.586, 0.029713616, 9.999119, 9.999403 
2.0849977e+3, 1.7467777e+2, -1328023.1, -1330752.3, -16831.588, 0.08689073, 0.70064336, -1312500.9, -84276.625, 0.005333032, 9.999528, 9.999463 
2.0850132e+3, 1.8467776e+2, -1094236.4, -1090076.5, 72537.25, 0.019848326, 0.7194152, -1019589.4, 110635.36, 0.00018960002, 10.000111, 10.00018 
2.0850301e+3, 1.9467752e+2, -829281.7, -893925.5, 13823.809, -0.039749112, 0.6410075, -826449.56, 205774.06, 0.000000020895914, 10.0012, 10.000313 
2.085047e+3, 2.0467721e+2, -832071.7, -1012143.9, -11709.217, -0.047006823, 0.65436333, -831313.5, 102912.89, 0.0, 10.001227, 9.99882 
2.085065e+3, 2.1467683e+2, -868339.1, -969418.06, -16269.892, 0.0024443986, 0.7057546, -865784.8, -29551.006, 0.0, 10.00028, 9.998882 
2.0850815e+3, 2.2467588e+2, -840983.4, -987900.1, -65708.69, 0.0008225183, 0.75733286, -815883.4, -77637.35, 0.0, 10.000106, 9.998199 
2.0850962e+3, 2.3467425e+2, -635493.2, -825163.3, -53965.348, -0.075366706, 0.74192554, -621213.9, 19050.09, 0.0, 10.00081, 9.998286 
2.0851113e+3, 2.4467258e+2, -421949.44, -624269.7, -27888.709, -0.12378791, 0.726714, -418175.53, 124102.73, 0.0, 10.001386, 9.998719 
2.085127e+3, 2.546709e+2, -239461.28, -470742.0, -70154.32, -0.15985475, 0.6510918, -219845.14, 224443.39, 0.0, 10.001924, 9.99883 
2.0851433e+3, 2.646688e+2, -220370.05, -677462.4, -78183.57, -0.11227497, 0.67743677, -207367.0, 138941.06, 0.0, 10.002518, 9.996461 
2.0851605e+3, 2.7466616e+2, -25415.494, -522983.7, -66167.06, 0.024161879, 0.7370061, -16766.867, 231572.42, 0.000000115745564, 10.003169, 9.996515 
2.0851782e+3, 2.84663e+2, 121477.91, -233218.92, 50384.57, 0.10197017, 0.6932397, 128496.15, 278866.84, 0.0000020138657, 10.002731, 9.998072 
2.0851961e+3, 2.946595e+2, -23304.191, -227065.3, 8333.702, 0.04660112, 0.482626, -22963.916, 29435.139, 0.000014504671, 10.000994, 9.998253 
2.0852117e+3, 3.046584e+2, -943.0686, -287140.1, -63372.785, -0.118761756, 0.59267217, 12461.755, 12461.755, 0.000053401807, 10.001163, 9.997466 
2.085229e+3, 3.1465954e+2, 333773.6, -44583.19, -6207.4165, 0.016217574, 0.8869462, 333875.4, 333875.4, 0.00012548068, 10.003072, 9.998194 
2.0949163e+3, 1.24662094e+2, -1783511.1, -1636864.5, 230077.7, -0.25287032, 0.58548975, -1468709.0, 249660.58, 0.42994058, 9.999023, 10.001821 
2.0949385e+3, 1.3466328e+2, -1659947.5, -1784478.5, 14674.683, 0.3315501, 0.77573836, -1658241.6, -37881.703, 0.31401625, 10.000317, 9.998662 
2.0949487e+3, 1.4466001e+2, -1456565.3, -1560387.3, -19386.494, -0.27118182, 0.5531097, -1453063.4, 69330.48, 0.19429262, 10.000829, 9.99931 
2.0949666e+3, 1.5466052e+2, -1487569.3, -1504830.4, -70475.695, 0.026631605, 0.62390983, -1425197.6, -807.0231, 0.094824284, 9.999739, 9.999526 
2.094982e+3, 1.6466124e+2, -1387482.4, -1292413.4, -57295.57, 0.061866943, 0.6973309, -1265501.1, 60881.285, 0.032688897, 9.999243, 10.000568 
2.0949957e+3, 1.7466111e+2, -1232785.5, -1141646.6, 2046.6348, -0.107154176, 0.5866724, -1141600.6, 86778.71, 0.0061590113, 9.999557, 10.000753 
2.0950122e+3, 1.8466052e+2, -1179386.6, -1280383.9, 100726.12, -0.12643433, 0.5439488, -1117209.4, 13175.533, 0.00026052183, 10.000167, 9.998847 
2.095032e+3, 1.9465981e+2, -935176.06, -1106850.3, 60666.12, 0.008932142, 0.5636731, -915901.9, 116493.92, 0.00000016154512, 10.00117, 9.998864 
2.0950493e+3, 2.046597e+2, -846157.3, -1020071.06, -55180.895, 0.020987784, 0.6694139, -830126.7, 104273.86, 0.0, 10.001137, 9.998806 
2.0950645e+3, 2.146602e+2, -889484.06, -978702.4, -44342.824, -0.08913466, 0.8065563, -871194.4, -34795.688, 0.0, 10.000136, 9.998884 
2.0950808e+3, 2.2465886e+2, -832536.5, -921840.44, -48743.78, -0.08429546, 0.7921014, -811084.3, -72672.555, 0.0, 9.999896, 9.998754 
2.0950986e+3, 2.3465551e+2, -619674.7, -752125.5, -18281.104, 0.06371312, 0.54898435, -617197.8, 23243.018, 0.0, 10.000638, 9.998871 
2.095115e+3, 2.446538e+2, -513060.0, -755156.56, -16596.258, 0.06356047, 0.5363917, -511927.6, 30528.547, 0.0, 10.001135, 9.997941 
2.09513e+3, 2.546538e+2, -319499.1, -605575.6, -39511.996, -0.087903745, 0.71462333, -314142.16, 130315.08, 0.0, 10.001784, 9.9979725 
2.0951457e+3, 2.6465183e+2, -218734.28, -618361.4, -62206.97, -0.14938569, 0.76748276, -209274.89, 137202.23, 0.0, 10.002287, 9.996974 
2.0951629e+3, 2.746477e+2, -18800.514, -462086.06, -28675.41, -0.07009442, 0.6223813, -16953.248, 231563.64, 0.0, 10.002966, 9.99703 
2.09518e+3, 2.8464484e+2, 25758.482, -338896.7, -23763.273, -0.040755324, 0.6080571, 27300.53, 177845.8, 0.00000039293647, 10.00234, 9.997532 
2.0951961e+3, 2.9464325e+2, -78759.44, -291325.28, -34464.402, -0.088565975, 0.6377233, -73311.195, -20749.783, 0.000007667558, 10.000781, 9.997912 
2.0952122e+3, 3.0464107e+2, -66879.086, -282000.25, -3646.5195, -0.22088307, 0.63523215, -66817.29, -66817.29, 0.000037309004, 10.000605, 9.997748 
2.0952325e+3, 3.1464028e+2, 325150.16, 153397.66, 31337.498, -0.01266278, 0.72330827, 330689.25, 330689.25, 0.00009604867, 10.002238, 9.999918 
2.1049136e+3, 1.2464082e+2, -1871981.8, -1622352.6, 126383.875, -0.3415598, 0.39349672, -1569539.5, 149034.2, 0.44859928, 9.997825, 10.002359 
2.1049388e+3, 1.3464612e+2, -1756046.1, -1614405.4, 1681.4679, 0.41590396, 0.78878826, -1614385.4, 6137.622, 0.3298663, 9.998694, 10.000648 
2.1049495e+3, 1.4464247e+2, -1634849.6, -1650008.4, -54138.84, -0.20654435, 0.4260996, -1587762.1, -65200.85, 0.20615475, 9.999492, 9.999321 
2.1049668e+3, 1.5464447e+2, -1438714.9, -1479184.4, -53139.844, 0.07616008, 0.64328563, -1402087.6, 22458.291, 0.10215144, 10.000105, 9.999509 
2.1049817e+3, 1.6464514e+2, -1264730.9, -1258070.1, -16444.662, 0.06943417, 0.7216205, -1244622.0, 81916.99, 0.036114734, 10.00021, 10.000338 
2.1049948e+3, 1.7464383e+2, -1171133.9, -1136663.1, -83617.07, -0.1519564, 0.51513577, -1068523.6, 160022.81, 0.007176738, 10.000094, 10.000524 
2.105012e+3, 1.8464312e+2, -1212556.6, -1315233.8, 29469.568, -0.14786023, 0.48079732, -1204699.8, -74146.586, 0.0003661867, 10.00003, 9.998671 
2.105033e+3, 1.9464311e+2, -1079288.0, -1194975.8, 64842.58, 0.043182697, 0.5909765, -1050238.4, -17679.844, 0.00000091193453, 10.000274, 9.998687 
2.1050505e+3, 2.0464289e+2, -931219.06, -1075547.1, -21780.146, 0.06573967, 0.7004511, -928003.94, 6560.3555, 0.0, 10.000571, 9.998715 
2.105065e+3, 2.146423e+2, -763232.25, -933556.44, -34872.12, -0.107233874, 0.7368545, -756369.06, 80202.74, 0.0, 10.001032, 9.998785 
2.1050812e+3, 2.2464068e+2, -613539.94, -827669.8, -14383.892, -0.09445588, 0.70775837, -612578.06, 126008.82, 0.0, 10.001474, 9.99862 
2.1051003e+3, 2.3463786e+2, -409679.47, -664811.2, -58228.906, 0.10492791, 0.52892905, -397018.16, 243593.03, 0.0, 10.002155, 9.998722 
2.1051171e+3, 2.4463621e+2, -364929.44, -731449.4, -79423.04, 0.13310808, 0.55225176, -348459.0, 194168.83, 0.0, 10.0023575, 9.9975195 
2.1051319e+3, 2.5463587e+2, -327647.8, -653516.75, -91223.95, -0.06064481, 0.74016684, -303848.66, 140787.56, 0.0, 10.001941, 9.997561 
2.105148e+3, 2.646339e+2, -247045.4, -538360.75, -63051.297, -0.11757903, 0.7739996, -233984.39, 112671.19, 0.0, 10.001659, 9.99784 
2.1051656e+3, 2.7463013e+2, -171162.39, -436183.1, -25512.357, -0.011361205, 0.5775358, -168728.78, 79957.555, 0.0, 10.001472, 9.997936 
2.1051824e+3, 2.8462768e+2, -116516.37, -468951.22, -9842.359, 0.03391777, 0.58931834, -116241.72, 34468.168, 0.00000006547354, 10.001647, 9.996962 
2.1051978e+3, 2.946264e+2, 97753.87, -282251.25, -72591.91, -0.0671026, 0.7210327, 111148.84, 163877.81, 0.000004738257, 10.002336, 9.997223 
2.1052131e+3, 3.0462384e+2, 230562.33, -95341.21, 13492.489, -0.23788631, 0.69101715, 231119.95, 231119.95, 0.00002905632, 10.002409, 9.9981785 
2.1052344e+3, 3.146215e+2, 229418.42, 162078.28, -54488.4, 0.033119965, 0.5870565, 259800.36, 259800.36, 0.00007990105, 10.001294, 10.000446 
2.1149148e+3, 1.2462013e+2, -1781169.1, -1530492.1, -79422.44, -0.10185495, 0.3473252, -1507447.1, 211328.33, 0.46656317, 9.997915, 10.0034 
2.114936e+3, 1.34626e+2, -1611647.4, -1419711.6, 31672.016, 0.25560763, 0.56966054, -1414620.4, 206096.52, 0.34608045, 9.998751, 10.002655 
2.114948e+3, 1.446255e+2, -1580354.9, -1574959.4, -31542.693, -0.33993778, 0.40669742, -1545999.3, -23276.256, 0.21890919, 9.999644, 9.999766 
2.1149671e+3, 1.5462886e+2, -1354186.8, -1327642.3, -25101.926, 0.054792345, 0.66355896, -1312519.8, 112174.125, 0.110347085, 10.000214, 10.000572 
2.1149825e+3, 1.646289e+2, -1355211.9, -1469489.0, -32131.186, 0.08521195, 0.6886915, -1346797.1, -20101.254, 0.040102176, 10.000303, 9.998823 
2.1149954e+3, 1.7462595e+2, -1289640.1, -1389053.4, -82598.984, -0.13767841, 0.4914579, -1242944.8, -14219.788, 0.008443992, 10.000118, 9.998775 
2.1150123e+3, 1.8462539e+2, -1144165.0, -1184184.5, 27076.406, -0.166466, 0.5191435, -1130506.9, 224.18944, 0.00052604213, 10.000076, 9.999546 
2.1150327e+3, 1.9462724e+2, -1018173.5, -1056744.6, 80239.01, -0.026448011, 0.7196377, -954934.94, 77778.63, 0.0000034897541, 10.000227, 9.999656 
2.1150506e+3, 2.0462663e+2, -957631.9, -1101939.6, -13650.204, -0.02796151, 0.74330103, -956352.0, -21632.283, 0.0, 10.00045, 9.998594 
2.1150656e+3, 2.1462318e+2, -798361.2, -965598.4, -12034.757, -0.14400215, 0.51205266, -797499.6, 39253.11, 0.0, 10.000874, 9.998634 
2.1150826e+3, 2.2462133e+2, -709211.44, -971433.1, 5337.329, -0.15536617, 0.50511414, -709102.9, 29668.904, 0.0, 10.001234, 9.997748 
2.1151014e+3, 2.346211e+2, -499333.06, -813574.0, -20815.557, -0.03210934, 0.6793134, -497960.22, 142816.28, 0.0, 10.001989, 9.997782 
2.1151182e+3, 2.4461961e+2, -412356.25, -767669.75, -100102.85, -0.039685376, 0.7731226, -386095.13, 156699.72, 0.0, 10.002097, 9.99739 
2.1151328e+3, 2.5461683e+2, -357907.1, -680064.06, -96240.836, -0.17009492, 0.7202472, -331346.1, 113481.45, 0.0, 10.00179, 9.997444 
2.1151493e+3, 2.6461476e+2, -205809.11, -387581.1, -75848.99, -0.1470445, 0.6959707, -178317.17, 168528.38, 0.0, 10.001388, 9.999002 
2.1151683e+3, 2.7461332e+2, -99117.16, -257170.42, -19197.875, 0.08472397, 0.60504526, -96818.72, 152029.7, 0.0, 10.001341, 9.999229 
2.1151853e+3, 2.8461105e+2, -223945.92, -624514.5, 1582.554, 0.12833436, 0.61014605, -223939.67, -73069.984, 0.00000005479561, 10.001362, 9.996028 
2.1152008e+3, 2.946084e+2, -16113.154, -474703.1, -19392.781, -0.033391345, 0.7022123, -15294.537, 37612.45, 0.0000044706885, 10.0021305, 9.996005 
2.1152143e+3, 3.0460644e+2, 144819.08, -77788.84, -40917.7, -0.42281213, 0.7781836, 152101.92, 152101.92, 0.000027145721, 10.001636, 9.998638 
2.1152356e+3, 3.1460327e+2, 11679.328, -88133.23, 28972.93, -0.04522626, 0.5076398, 19479.785, 19479.785, 0.00007500409, 10.000489, 9.999092 
2.1249123e+3, 1.2460563e+2, -1767607.8, -1771551.8, -263009.2, -0.22972478, 0.53265697, -1506563.3, 212352.38, 0.48543465, 10.000059, 10.000249 
2.1249339e+3, 1.346091e+2, -1680734.8, -1497419.5, 129752.25, 0.1642998, 0.5288427, -1430216.3, 190664.5, 0.3637423, 9.998774, 10.001936 
2.1249488e+3, 1.4460815e+2, -1621161.8, -1600922.9, -23879.44, -0.20364538, 0.36935574, -1585107.1, -62215.938, 0.23315269, 9.999373, 9.999724 
2.1249668e+3, 1.5461153e+2, -1487788.8, -1378731.6, -105310.26, 0.05557303, 0.6158356, -1314670.0, 110191.7, 0.1197026, 9.999169, 10.000743 
2.1249825e+3, 1.6461182e+2, -1462679.3, -1526773.1, -70384.59, 0.09757283, 0.65884674, -1417389.3, -90527.71, 0.044803485, 9.999578, 9.998792 
2.1249968e+3, 1.7460956e+2, -1130533.3, -1327500.5, -10772.214, -0.056410942, 0.54490143, -1129945.9, 98939.31, 0.01004214, 10.001273, 9.998649 
2.1250135e+3, 1.8460897e+2, -947322.5, -1095912.3, 93356.125, -0.09110825, 0.57856876, -902306.5, 228584.92, 0.0007722133, 10.001439, 9.999493 
2.1250325e+3, 1.9460982e+2, -1039900.94, -1073169.8, 53979.766, -0.0461947, 0.67874813, -1000050.7, 32831.285, 0.000010944595, 10.00009, 9.999609 
2.1250506e+3, 2.0460872e+2, -1054557.1, -1179592.4, -16177.296, -0.039163224, 0.6713135, -1052498.0, -117605.78, 0.0, 9.999958, 9.998281 
2.1250674e+3, 2.1460535e+2, -734639.75, -970008.94, -48289.793, -0.09204682, 0.4814244, -725117.56, 111807.65, 0.0, 10.001489, 9.998293 
2.1250847e+3, 2.246035e+2, -632138.44, -955019.5, -35288.426, -0.08669927, 0.5030661, -628326.6, 110618.67, 0.0, 10.001835, 9.997584 
2.1251023e+3, 2.3460339e+2, -689266.44, -917741.0, -22070.08, -0.056677587, 0.7051228, -687154.06, -46203.03, 0.0, 10.000751, 9.9976635 
2.125119e+3, 2.4460201e+2, -612467.0, -828715.06, -23546.64, -0.07368364, 0.79650176, -609932.75, -66964.01, 0.0, 10.000572, 9.997705 
2.1251345e+3, 2.5459912e+2, -380702.1, -656532.44, -9127.645, -0.15920213, 0.7092075, -380400.38, 64599.86, 0.0, 10.001477, 9.997765 
2.1251513e+3, 2.6459718e+2, -145743.47, -372978.03, -18203.205, -0.113177, 0.684636, -144294.5, 202722.83, 0.0, 10.001879, 9.998857 
2.1251695e+3, 2.745958e+2, -70248.75, -259484.63, -95761.664, 0.06589665, 0.62386805, -30245.55, 218776.53, 0.0, 10.001642, 9.999059 
2.125187e+3, 2.845938e+2, -122228.2, -527947.9, -29325.705, 0.14382233, 0.6380557, -120119.484, 30922.283, 0.000000117451826, 10.001826, 9.996489 
2.125204e+3, 2.9459152e+2, 59878.723, -385300.75, 27648.445, 0.0827443, 0.72947323, 61589.293, 114662.35, 0.0000050467984, 10.002422, 9.996478 
2.1252173e+3, 3.045898e+2, 160740.86, -81269.375, -13326.8545, -0.25635234, 0.80830646, 161472.52, 161472.52, 0.00002697455, 10.001711, 9.998627 
2.125235e+3, 3.1458753e+2, -204177.38, -144412.72, -36033.84, -0.02039615, 0.639709, -127482.75, -127482.75, 0.00007158717, 9.998716, 9.999609 
2.1349318e+3, 1.345955e+2, -1901228.3, -1919450.1, 193010.5, 0.051704075, 0.71202147, -1717113.8, -96099.79, 0.38411817, 9.998798, 9.998419 
2.1349514e+3, 1.4459048e+2, -1645793.8, -1680480.3, -36554.273, 0.05927085, 0.33791682, -1622677.1, -99611.38, 0.24951555, 9.999496, 9.999113 
2.1349654e+3, 1.545924e+2, -1523214.9, -1464147.8, -115911.58, -0.017345116, 0.50226206, -1374066.4, 50983.582, 0.13052814, 9.999236, 10.000076 
2.1349812e+3, 1.6459359e+2, -1352711.8, -1325794.8, -23218.324, -0.019646406, 0.6079746, -1312416.4, 14622.702, 0.050404422, 9.99969, 10.000122 
2.134999e+3, 1.7459449e+2, -1027161.7, -1113370.1, 56332.008, 0.00044184225, 0.6619193, -999334.44, 229694.05, 0.012084308, 10.001284, 10.000121 
2.1350159e+3, 1.8459378e+2, -1005557.8, -1232839.4, 39772.96, -0.041316412, 0.6533987, -998798.8, 132235.84, 0.001155736, 10.001505, 9.998523 
2.1350323e+3, 1.9459087e+2, -1116963.8, -1231616.8, 8496.843, -0.10788929, 0.48326492, -1116337.5, -83274.195, 0.000030850606, 10.000077, 9.998531 
2.13505e+3, 2.0458901e+2, -1111096.1, -1270136.1, 25011.904, -0.10756788, 0.48333123, -1107255.4, -172172.19, 0.0, 9.999844, 9.997715 
2.1350695e+3, 2.1458843e+2, -795092.0, -1060429.3, 17890.8, -0.031673424, 0.6296991, -793891.1, 43201.34, 0.0, 10.001337, 9.997747 
2.1350874e+3, 2.2458711e+2, -631881.9, -890017.06, -76017.63, -0.01853505, 0.70135206, -611159.2, 127949.75, 0.0, 10.001569, 9.998153 
2.1351033e+3, 2.3458473e+2, -669907.75, -846877.25, -53153.074, -0.06283227, 0.61609197, -655170.44, -14035.203, 0.0, 10.000616, 9.998218 
2.1351194e+3, 2.4458314e+2, -598582.0, -749845.94, -313.45056, -0.10467397, 0.63027865, -598581.4, -55429.434, 0.0, 10.000363, 9.998343 
2.1351367e+3, 2.5458255e+2, -352686.3, -567656.5, 34680.99, -0.119862095, 0.7018833, -347229.75, 97927.09, 0.0, 10.001344, 9.998438 
2.1351531e+3, 2.6458073e+2, -293574.1, -617473.8, -33106.477, -0.14509465, 0.72806996, -290224.84, 56950.094, 0.0, 10.001625, 9.9972925 
2.1351689e+3, 2.745772e+2, -215982.0, -522446.97, -89524.39, -0.15969244, 0.61737627, -191746.7, 57463.887, 0.00000000014169585, 10.001473, 9.997333 
2.1351868e+3, 2.8457522e+2, -62189.004, -309110.53, -15918.847, -0.08855782, 0.6481887, -61166.957, 90064.26, 0.000000256191, 10.001449, 9.998155 
2.1352075e+3, 2.945753e+2, 151379.52, -145557.06, 78004.12, 0.16323042, 0.77702737, 170623.7, 223855.19, 0.0000052967753, 10.002193, 9.998238 
2.1352217e+3, 3.0457252e+2, 13579.891, -208020.13, -122140.836, -0.03561211, 0.6916733, 67689.02, 67689.02, 0.000025200057, 10.001018, 9.998056 
2.1352316e+3, 3.1457105e+2, -186212.7, 113121.35, -18262.16, -0.30787215, 0.65117544, 114231.4, 114231.4, 0.00006359548, 9.997852, 10.001759 
2.1449307e+3, 1.3457708e+2, -1784944.1, -1920312.6, 45454.07, 0.037919533, 0.7079887, -1771097.9, -149903.02, 0.40760165, 9.999781, 9.997947 
2.1449521e+3, 1.445726e+2, -1722816.4, -1685346.9, -133171.92, 0.2288416, 0.39244187, -1569598.4, -46357.605, 0.26811564, 9.99883, 9.999402 
2.1449646e+3, 1.5457411e+2, -1580082.4, -1471095.1, -148685.25, 0.009670256, 0.49631074, -1367232.0, 57996.49, 0.14296411, 9.998756, 10.000272 
2.1449804e+3, 1.645753e+2, -1463592.8, -1350785.5, -7186.5747, -0.01074282, 0.57888025, -1350329.5, -23112.334, 0.057087187, 9.998821, 10.0003605 
2.1449992e+3, 1.745763e+2, -1342165.3, -1228958.1, -33748.793, 0.030163655, 0.61188155, -1219660.6, 9543.867, 0.014719365, 9.998973, 10.000425 
2.1450168e+3, 1.8457562e+2, -1313109.4, -1400518.9, -87072.08, 0.018989548, 0.60281, -1259389.0, -128178.84, 0.0017550356, 9.999494, 9.99834 
2.1450336e+3, 1.9457285e+2, -1007108.56, -1205312.5, -72350.39, -0.014022696, 0.47000307, -983508.5, 49730.25, 0.00008036648, 10.000957, 9.998287 
2.1450515e+3, 2.0457107e+2, -878036.1, -1128448.5, 34559.605, -0.00032575335, 0.48138803, -873354.06, 61903.836, 0.000000018813253, 10.001304, 9.997985 
2.145071e+3, 2.145706e+2, -891543.3, -1075529.9, 74512.53, 0.025819778, 0.6047873, -865152.1, -27887.025, 0.0, 10.000526, 9.998034 
2.1450886e+3, 2.2456948e+2, -784704.7, -937762.1, -4061.8105, 0.021401199, 0.6728619, -784596.94, -45317.668, 0.0, 10.000413, 9.998381 
2.1451043e+3, 2.3456751e+2, -571115.4, -774987.2, -26755.59, -0.037935477, 0.6082867, -567662.56, 73640.51, 0.0, 10.001195, 9.998434 
2.1451208e+3, 2.4456622e+2, -392779.0, -613962.3, 38223.45, -0.060104966, 0.6265284, -386359.78, 156956.55, 0.0, 10.001615, 9.998679 
2.1451387e+3, 2.5456578e+2, -288733.4, -496207.38, 32381.59, -0.0575178, 0.6778439, -283796.9, 161520.69, 0.0, 10.001613, 9.998795 
2.1451552e+3, 2.6456386e+2, -327680.38, -684647.06, -14020.83, -0.080784455, 0.6990867, -327130.53, 20206.604, 0.0, 10.001593, 9.996857 
2.1451704e+3, 2.7456024e+2, -237323.88, -583201.6, -9544.381, -0.1492595, 0.62563187, -237060.69, 12317.987, 0.00000000016893417, 10.001537, 9.996887 
2.145188e+3, 2.8455868e+2, -60490.5, -238463.1, 95362.63, -0.09145655, 0.686842, -19044.467, 132351.17, 0.0000002738674, 10.001119, 9.998815 
2.1452083e+3, 2.945591e+2, -91265.06, -166082.61, 73305.67, 0.12196055, 0.7821541, -46374.758, 7013.799, 0.0000047479944, 10.000123, 9.999086 
2.1452236e+3, 3.0455568e+2, -57349.105, -313626.47, -128216.94, 0.0846712, 0.61015326, -4216.9854, -4216.9854, 0.000021563434, 10.000741, 9.997507 
2.1452336e+3, 3.1455445e+2, 477254.84, 376779.5, -160641.2, -0.11047133, 0.6702536, 595330.6, 595330.6, 0.000054127435, 10.002595, 10.001294 
2.1549304e+3, 1.3455401e+2, -1595332.9, -1559616.9, 15629.716, -0.058444325, 0.56529236, -1553743.1, 67678.29, 0.43279883, 9.999909, 10.000672 
2.1549499e+3, 1.4455412e+2, -1619316.6, -1523687.8, -167927.23, 0.07037359, 0.4890274, -1396900.4, 126519.766, 0.28823382, 9.999065, 10.000628 
2.1549639e+3, 1.5455672e+2, -1501409.4, -1341634.1, -135247.4, 0.032758813, 0.59710443, -1264442.5, 160954.53, 0.15688464, 9.998861, 10.001221 
2.1549797e+3, 1.6455708e+2, -1502540.3, -1466580.0, -6455.896, -0.013083561, 0.5892958, -1465456.1, -138062.25, 0.06501248, 9.998978, 9.999486 
2.1549976e+3, 1.7455496e+2, -1405215.9, -1364275.3, -25822.08, -0.06835156, 0.40276754, -1351793.9, -122380.85, 0.018139776, 9.998998, 9.999476 
2.155016e+3, 1.8455435e+2, -1265951.4, -1321299.3, -47139.742, -0.036540657, 0.42513743, -1238962.6, -107543.38, 0.0026903055, 9.999567, 9.99885 
2.1550363e+3, 1.9455566e+2, -963629.5, -1111085.8, -10388.943, 0.13324444, 0.63651115, -962901.1, 70508.305, 0.00019736934, 10.000944, 9.998934 
2.1550547e+3, 2.045549e+2, -820853.56, -987298.7, 511.2497, 0.14967555, 0.66560775, -820852.0, 114564.56, 0.0000007869328, 10.001207, 9.999001 
2.1550713e+3, 2.1455176e+2, -836612.0, -933835.8, 50295.62, -0.012256844, 0.4164759, -815275.56, 22168.305, 0.0, 10.000402, 9.999065 
2.1550882e+3, 2.2455049e+2, -828977.5, -977916.56, 13190.351, -0.0981126, 0.42218176, -827818.4, -88360.29, 0.0, 10.000191, 9.99821 
2.1551052e+3, 2.3455147e+2, -606023.5, -813813.8, 10864.447, -0.07764296, 0.6727203, -605457.0, 35999.977, 0.0, 10.001047, 9.998237 
2.1551226e+3, 2.4455097e+2, -431492.84, -630182.2, 32312.512, -0.067441314, 0.77587736, -426370.0, 117094.5, 0.0, 10.0013485, 9.99869 
2.1551403e+3, 2.545486e+2, -312539.63, -509030.06, 40679.977, -0.057317793, 0.635446, -304450.56, 141033.11, 0.0, 10.001452, 9.998784 
2.1551575e+3, 2.6454633e+2, -325211.56, -620268.25, -23587.72, -0.05682359, 0.59407175, -323337.8, 24168.553, 0.0, 10.001346, 9.997415 
2.1551736e+3, 2.7454442e+2, -216277.61, -508251.94, -171.69565, -0.015205781, 0.62594604, -216277.5, 33253.97, 0.0, 10.001397, 9.997473 
2.15519e+3, 2.845433e+2, -137305.06, -311024.84, 49696.074, -0.029485663, 0.72144955, -124093.27, 27450.447, 0.000000100631844, 10.000778, 9.998464 
2.1552058e+3, 2.9454252e+2, -150549.34, -230660.25, 58180.875, -0.14591683, 0.73652405, -119968.73, -66421.33, 0.0000031808167, 9.999873, 9.998761 
2.1552218e+3, 3.0453822e+2, -223999.4, -467935.97, -69552.54, -0.20210567, 0.51815784, -205561.78, -205561.78, 0.000016664693, 9.999975, 9.996784 
2.1552394e+3, 3.145385e+2, 90810.09, -261168.47, -89761.55, 0.14210956, 0.7950085, 112379.32, 112379.32, 0.00004561872, 10.001911, 9.997228 
2.1649314e+3, 1.3453406e+2, -1372611.4, -1399326.6, 37203.86, -0.04794937, 0.41769686, -1346439.9, 275176.9, 0.45757636, 10.002385, 10.001529 
2.1649477e+3, 1.4453639e+2, -1874948.3, -1619812.8, -62699.715, 0.052128684, 0.52712405, -1605237.0, -81644.37, 0.3088363, 9.997191, 10.00064 
2.1649633e+3, 1.545384e+2, -1440811.1, -1342845.8, -97429.195, 0.081389, 0.5925319, -1282779.1, 142798.1, 0.17204043, 9.999447, 10.000904 
2.16498e+3, 1.6453841e+2, -1354768.3, -1426880.6, -30837.248, 0.072512574, 0.5797755, -1343379.9, -15801.694, 0.07433442, 10.000104, 9.999226 
2.1649973e+3, 1.7453602e+2, -1262867.6, -1323381.5, -5735.8, -0.036852937, 0.39148733, -1262328.8, -32729.828, 0.022589553, 10.000067, 9.999257 
2.1650164e+3, 1.8453543e+2, -1164206.6, -1244736.8, 38551.8, -0.002159784, 0.41436848, -1148726.6, -17121.918, 0.00413868, 10.000157, 9.999089 
2.1650375e+3, 1.9453698e+2, -990874.4, -1103028.3, 23647.951, 0.18672825, 0.63392305, -986092.06, 47500.44, 0.00045452762, 10.000668, 9.999131 
2.1650562e+3, 2.0453653e+2, -902655.9, -1001996.56, -56052.75, 0.20567895, 0.6708298, -877432.6, 58164.457, 0.000007502901, 10.000527, 9.999231 
2.1650712e+3, 2.1453366e+2, -893943.25, -936830.7, -85130.86, -0.021011587, 0.4310091, -827596.9, 10025.0205, 0.0, 9.999908, 9.999287 
2.1650879e+3, 2.2453263e+2, -853869.4, -950469.25, -66760.36, -0.11848756, 0.43460023, -819768.9, -80135.766, 0.0, 9.999855, 9.998557 
2.165106e+3, 2.3453377e+2, -644389.8, -792835.8, -44371.1, -0.08209547, 0.6631845, -632138.3, 9490.413, 0.0, 10.000613, 9.998587 
2.1651238e+3, 2.4453327e+2, -516487.47, -673265.25, -26114.66, -0.03482689, 0.7506883, -512251.94, 31384.313, 0.0, 10.000765, 9.998677 
2.1651416e+3, 2.545307e+2, -494846.25, -591139.7, -35774.887, -0.019124215, 0.5934933, -483010.06, -37350.395, 0.0, 10.0001955, 9.998813 
2.1651584e+3, 2.6452902e+2, -399489.16, -575741.8, -45205.27, -0.0375174, 0.5725115, -388571.22, -40894.03, 0.0, 10.000492, 9.998126 
2.1651746e+3, 2.7452838e+2, -101869.164, -365209.63, -30159.873, -0.06547805, 0.663623, -98459.164, 151228.98, 0.0, 10.001833, 9.998227 
2.1651912e+3, 2.8452742e+2, 37655.45, -265516.6, -13615.733, -0.028425863, 0.7489305, 38265.715, 189964.58, 0.0000000029805467, 10.002135, 9.998126 
2.165207e+3, 2.945257e+2, 2204.837, -185162.55, -40837.656, -0.061833177, 0.72046494, 10718.739, 64432.74, 0.000001345268, 10.001056, 9.998501 
2.1652226e+3, 3.0452293e+2, 23741.314, -204779.67, 24754.078, -0.15809345, 0.5889143, 26392.004, 26392.004, 0.000010778314, 10.001023, 9.998094 
2.1652417e+3, 3.1452364e+2, 135249.83, -290318.78, 39892.996, 0.17037733, 0.8003779, 138957.13, 138957.13, 0.00003608632, 10.0024395, 9.996764 
2.1749341e+3, 1.3451831e+2, -1457810.1, -1566279.4, -315397.3, -0.09081319, 0.34803107, -1192018.5, 429751.88, 0.48078975, 10.002822, 9.999929 
2.1749456e+3, 1.4452006e+2, -1964528.4, -1848894.4, 26894.885, 0.03173794, 0.53132343, -1842945.1, -319193.56, 0.32934, 9.997398, 9.998961 
2.1749632e+3, 1.5451916e+2, -1559247.3, -1590663.6, -27694.832, 0.06501444, 0.48652396, -1543116.0, -117347.08, 0.18832743, 9.999468, 9.999044 
2.1749806e+3, 1.6451892e+2, -1315154.0, -1376673.1, -41477.97, 0.081058756, 0.53731555, -1294274.6, 33498.594, 0.0852701, 10.000255, 9.9995 
2.1749982e+3, 1.745195e+2, -1212591.0, -1233661.1, 1194.1119, 0.02167578, 0.58611304, -1212523.6, 17238.213, 0.028395085, 10.000135, 9.999833 
2.1750169e+3, 1.845188e+2, -1170881.8, -1277136.9, 47459.973, -0.0042369864, 0.5771328, -1152770.4, -21003.83, 0.006367479, 10.000236, 9.998828 
2.1750371e+3, 1.9451667e+2, -1016897.3, -1154492.0, 46552.605, 0.05401478, 0.45946768, -1002627.1, 31162.582, 0.0009868387, 10.000654, 9.998781 
2.1750551e+3, 2.0451571e+2, -955546.44, -1094213.9, -87638.96, 0.028045654, 0.49128005, -913131.5, 22670.217, 0.000047582707, 10.000444, 9.998642 
2.1750708e+3, 2.1451613e+2, -954574.2, -1027791.1, -102679.98, -0.08587425, 0.6362637, -882171.9, -44371.06, 0.00000000032497088, 9.999757, 9.998736 
2.1750876e+3, 2.245157e+2, -839194.25, -857123.06, -45796.84, -0.15449019, 0.69163716, -801492.7, -61686.48, 0.0, 9.999592, 9.999321 
2.1751063e+3, 2.345142e+2, -616911.0, -687904.25, -6066.054, -0.14190993, 0.5752638, -616396.44, 25423.463, 0.0, 10.000417, 9.999395 
2.1751243e+3, 2.4451293e+2, -566109.9, -700561.7, -53252.63, -0.103376605, 0.54181457, -547573.5, -3740.1248, 0.0, 10.00045, 9.998634 
2.1751419e+3, 2.5451186e+2, -523205.72, -609436.8, -48215.535, -0.03890381, 0.53988266, -501639.8, -55792.688, 0.0, 10.00003, 9.998763 
2.175158e+3, 2.6451167e+2, -385257.88, -477130.4, -6852.177, -0.15004514, 0.6314809, -384749.63, -36898.004, 0.0, 10.000209, 9.998934 
2.1751733e+3, 2.745121e+2, -73727.83, -259713.98, 32739.584, -0.39030957, 0.74240583, -68132.914, 181716.4, 0.0, 10.0016365, 9.9990425 
2.1751913e+3, 2.8451076e+2, -51016.3, -353430.9, -60575.234, -0.26398715, 0.76720905, -39334.05, 112530.375, 0.0, 10.001741, 9.9977045 
2.1752109e+3, 2.945082e+2, -56201.95, -265090.34, -65987.38, 0.19381689, 0.6849208, -37102.938, 16789.924, 0.00000028754212, 10.000875, 9.998037 
2.1752252e+3, 3.045083e+2, 135139.92, 164153.03, 42543.17, -0.05162603, 0.74671847, 194594.9, 194594.9, 0.0000061263827, 10.0005, 10.000848 
2.1752417e+3, 3.1451046e+2, 212837.56, 61336.48, 198001.02, -0.1330911, 0.7922206, 349083.6, 349083.6, 0.000027574106, 10.00166, 9.999539 
2.1849449e+3, 1.4450435e+2, -1879675.1, -1804349.0, -53040.977, 0.20184965, 0.6246052, -1776959.4, -253049.7, 0.34983045, 9.997905, 9.99902 
2.1849614e+3, 1.5450223e+2, -1461366.0, -1623324.1, 52321.848, -0.081151634, 0.5511984, -1445933.5, -19997.43, 0.2059314, 10.000459, 9.998361 
2.1849826e+3, 1.6450068e+2, -1293381.8, -1407849.3, 10572.33, 0.24184206, 0.5268784, -1292413.5, 35538.418, 0.09816949, 10.000624, 9.9991 
2.1849993e+3, 1.7450131e+2, -1169153.5, -1243721.9, -22889.113, 0.095867276, 0.61665016, -1162688.1, 67252.914, 0.036017943, 10.000633, 9.999512 
2.1850166e+3, 1.8450047e+2, -1172583.4, -1292958.5, 3434.9414, -0.048645135, 0.61392653, -1172485.5, -40537.73, 0.009796201, 10.000264, 9.998712 
2.1850368e+3, 1.9449793e+2, -1186243.8, -1251650.4, 5734.541, 0.03000017, 0.46581984, -1185744.8, -151769.94, 0.0020521113, 9.999542, 9.998648 
2.1850555e+3, 2.0449696e+2, -1102977.5, -1151000.9, -66773.45, 0.06342642, 0.49869883, -1056029.8, -120042.28, 0.00020967671, 9.999385, 9.998765 
2.1850708e+3, 2.1449779e+2, -875095.4, -972608.2, -51700.727, -0.06821271, 0.6701925, -852787.3, -14804.024, 0.00000086887735, 10.000226, 9.998894 
2.1850877e+3, 2.2449745e+2, -713376.06, -769006.8, 32189.945, -0.13953021, 0.71530724, -698648.6, 41338.63, 0.0, 10.00032, 9.999586 
2.1851061e+3, 2.344957e+2, -706169.6, -693089.75, 16933.678, -0.113915555, 0.5472672, -681477.0, -39475.88, 0.0, 9.999652, 9.999726 
2.1851245e+3, 2.4449472e+2, -678578.44, -731933.75, -22992.787, -0.06643687, 0.5141415, -670037.25, -126025.74, 0.0, 9.999569, 9.998848 
2.1851416e+3, 2.5449464e+2, -480199.47, -573004.44, -22540.979, -0.048197057, 0.59272414, -475014.3, -28996.262, 0.0, 10.00023, 9.998931 
2.1851584e+3, 2.6449496e+2, -330383.1, -425331.1, 37165.14, -0.13703142, 0.71372455, -317565.9, 30452.379, 0.0, 10.000447, 9.999192 
2.1851748e+3, 2.7449512e+2, -262389.0, -326598.16, 12807.1045, -0.3344111, 0.7814843, -259928.77, -9911.221, 0.0, 10.000213, 9.999291 
2.1851929e+3, 2.8449354e+2, -196645.81, -383963.3, -73223.35, -0.22325112, 0.74616903, -171419.66, -19385.758, 0.0, 10.000542, 9.998086 
2.1852116e+3, 2.9449067e+2, 81725.46, -171358.84, -54567.227, 0.13797079, 0.61396205, 92989.33, 147052.69, 0.000000027227998, 10.001692, 9.998294 
2.185227e+3, 3.0449212e+2, 433790.2, 207951.11, 12298.8545, -0.007301086, 0.8318842, 434458.0, 434458.0, 0.0000044959556, 10.002926, 10.000015 
2.1852441e+3, 3.1449303e+2, 514873.94, 242878.31, -163709.42, -0.12051709, 0.86510706, 591705.1, 591705.1, 0.000025056477, 10.003473, 9.9999695 
2.194944e+3, 1.4448778e+2, -1671277.9, -1423847.6, -147065.2, 0.27532232, 0.7866041, -1355381.6, 168699.97, 0.371045, 9.99797, 10.002146 
2.194958e+3, 1.5448716e+2, -1416074.4, -1520635.1, 100546.99, -0.50041527, 0.79418164, -1355028.1, 71054.74, 0.22535217, 10.000538, 9.999069 
2.1949856e+3, 1.6448374e+2, -1343050.3, -1542534.9, -18675.28, 0.437422, 0.5753747, -1341317.0, -13202.997, 0.113554515, 10.000728, 9.998124 
2.1950002e+3, 1.7448118e+2, -1258992.1, -1433298.3, -14010.409, 0.10677444, 0.47672543, -1257873.1, -27733.762, 0.046104282, 10.000633, 9.998207 
2.1950151e+3, 1.8448e+2, -1152968.8, -1267928.3, -25224.773, -0.26016843, 0.5040404, -1147677.4, -15524.959, 0.015073848, 10.000331, 9.998854 
2.1950366e+3, 1.9448072e+2, -1171702.0, -1218994.5, -17299.293, 0.025743816, 0.66083926, -1166049.6, -131901.2, 0.004138987, 9.999539, 9.998872 
2.1950561e+3, 2.0448028e+2, -1065523.6, -1056353.0, -48237.203, 0.17179789, 0.7026619, -1012483.7, -76329.57, 0.00072646124, 9.999312, 9.999448 
2.195071e+3, 2.1447854e+2, -846225.06, -872336.4, -16185.096, -0.07301305, 0.54131657, -838486.3, -315.64517, 0.000022642807, 10.00006, 9.999654 
2.1950874e+3, 2.2447783e+2, -763536.5, -814315.2, 1404.6008, -0.20375419, 0.5151152, -763497.7, -23320.584, 0.000000000011542125, 10.000061, 9.999399 
2.1951061e+3, 2.3447813e+2, -737294.4, -730987.0, -610.3681, -0.09715122, 0.57212466, -730928.44, -88754.914, 0.0, 9.999532, 9.999523 
2.1951243e+3, 2.444785e+2, -696169.0, -702794.44, -11246.877, -0.074140996, 0.6669331, -687757.1, -143584.98, 0.0, 9.999296, 9.999174 
2.1951412e+3, 2.5447878e+2, -481533.9, -538294.2, 8727.752, -0.1468725, 0.74622315, -480222.2, -34047.727, 0.0, 10.00007, 9.999245 
2.1951589e+3, 2.644785e+2, -412812.22, -511558.4, 19167.854, -0.1522248, 0.81279707, -409222.03, -61041.566, 0.0, 10.000102, 9.998753 
2.1951783e+3, 2.744771e+2, -319055.94, -397025.0, 14327.033, -0.037368126, 0.7595921, -316506.66, -66310.805, 0.0, 10.000028, 9.998882 
2.1951951e+3, 2.8447512e+2, -175771.83, -267526.7, -46942.215, -0.096192315, 0.66007537, -156011.55, -3798.3994, 0.0, 10.000245, 9.999021 
2.195209e+3, 2.944732e+2, 104516.984, -75715.72, 7253.1973, -0.31861025, 0.5248994, 104808.414, 159034.61, 0.000000020729713, 10.001488, 9.999047 
2.1952276e+3, 3.0447385e+2, 48529.477, -449001.28, 36034.727, -0.2938062, 0.8385352, 51125.82, 51125.82, 0.0000055230016, 10.002356, 9.995745 
2.1952492e+3, 3.144699e+2, 146261.56, -300174.44, -53268.996, -0.022410374, 0.7967645, 152529.64, 152529.64, 0.000029811183, 10.0026, 9.996616 
2.2049412e+3, 1.4446531e+2, -1491850.1, -1303749.6, -25912.56, 0.15640803, 0.5237364, -1300245.3, 224061.03, 0.39437363, 9.998836, 10.002974 
2.204958e+3, 1.5446755e+2, -1503904.9, -1528684.1, -69549.41, -0.5053601, 0.82970065, -1445650.1, -19372.938, 0.24751917, 9.999675, 9.999393 
2.2049858e+3, 1.6446443e+2, -1532398.0, -1626740.4, -191944.88, 0.46934336, 0.60541517, -1381913.0, -53607.777, 0.13222682, 9.9993725, 9.998219 
2.2050005e+3, 1.744614e+2, -1310555.4, -1503508.4, -96826.3, 0.077846594, 0.48768786, -1270345.9, -40008.188, 0.059555795, 10.000407, 9.997871 
2.2050156e+3, 1.8446034e+2, -1069251.8, -1162197.0, -77675.59, -0.24352275, 0.52175856, -1025208.1, 107142.086, 0.023171267, 10.000636, 9.999443 
2.2050366e+3, 1.9446202e+2, -1049749.3, -1083645.5, -60350.926, 0.06456579, 0.7073517, -1004011.9, 30323.414, 0.008108057, 10.000041, 9.999576 
2.205056e+3, 2.0446219e+2, -994257.56, -989626.1, -31147.055, 0.20297961, 0.7604551, -960708.8, -24374.895, 0.0021629941, 9.999658, 9.999744 
2.2050709e+3, 2.1446045e+2, -854056.75, -852063.7, -46251.227, -0.08761816, 0.5766839, -806798.25, 31551.498, 0.00023583506, 9.999885, 9.999887 
2.2050874e+3, 2.244596e+2, -773107.9, -828249.5, -56909.098, -0.20399779, 0.5318079, -737442.7, 2914.9265, 0.0000019906881, 10.000038, 9.999316 
2.2051062e+3, 2.3446007e+2, -654830.7, -707029.56, -76472.51, -0.07752626, 0.6143112, -600126.5, 42226.95, 0.0, 10.000152, 9.999403 
2.2051242e+3, 2.4446034e+2, -577660.7, -642128.2, -59610.867, -0.030069152, 0.7119724, -542126.7, 2225.7998, 0.0, 10.000083, 9.999219 
2.2051412e+3, 2.544605e+2, -500631.8, -525114.1, -79345.5, -0.13095464, 0.7717646, -432588.78, 13765.359, 0.0, 9.999896, 9.9993925 
2.2051594e+3, 2.6446e+2, -421499.9, -537958.5, -51340.68, -0.100260794, 0.8108608, -402098.56, -53736.105, 0.0, 10.000134, 9.99856 
2.2051796e+3, 2.7445805e+2, -199267.64, -370288.4, -57703.92, 0.08188999, 0.733564, -181619.08, 68764.945, 0.0, 10.000971, 9.998618 
2.205197e+3, 2.8445637e+2, 82754.54, -132971.42, -91700.13, 0.009313122, 0.6688926, 116466.055, 268864.72, 0.0, 10.001984, 9.9991045 
2.2052106e+3, 2.944548e+2, 371829.2, 53552.086, -139701.84, -0.39168066, 0.5752227, 424449.2, 478856.06, 0.00000007580395, 10.003326, 9.999054 
2.20523e+3, 3.0445385e+2, 96061.19, -599064.06, -68546.26, -0.3181669, 0.79730815, 102756.05, 102756.05, 0.0000083740215, 10.003382, 9.994248 
2.2052526e+3, 3.1444913e+2, 136179.11, -221249.36, -49963.4, 0.09854241, 0.8433841, 143031.89, 143031.89, 0.000042885644, 10.002116, 9.997399 
2.2149384e+3, 1.4443988e+2, -1674461.5, -1511548.5, 406734.4, -0.06018374, 0.15237018, -1178194.1, 346361.16, 0.4221777, 9.998817, 10.001605 
2.214962e+3, 1.5444298e+2, -1522746.8, -1559846.3, -68907.52, -0.09351573, 0.6417309, -1469935.9, -43412.176, 0.27423543, 9.999651, 9.999198 
2.2149824e+3, 1.6444239e+2, -1436799.1, -1440811.1, -180923.02, 0.15419239, 0.6140311, -1257871.0, 70658.73, 0.15564767, 9.99946, 9.99949 
2.2149992e+3, 1.7444201e+2, -1256012.6, -1388396.5, -55606.836, -0.10341337, 0.66312397, -1235755.1, -5219.461, 0.07778218, 10.000405, 9.998654 
2.2150178e+3, 1.844416e+2, -998416.0, -1029058.94, -100262.46, -0.11784325, 0.68187785, -912311.1, 220229.0, 0.035576556, 10.000702, 10.000353 
2.2150369e+3, 1.9444183e+2, -982097.8, -927498.6, -77888.37, 0.06287996, 0.61633605, -872264.2, 162271.67, 0.0154146915, 9.999977, 10.000688 
2.2150539e+3, 2.0444253e+2, -1016468.94, -1012990.1, -31200.434, 0.026888682, 0.6668542, -983480.6, -46952.082, 0.005714695, 9.9995575, 9.999633 
2.2150698e+3, 2.144434e+2, -888695.0, -893147.94, -28843.219, -0.21499233, 0.76536417, -861992.44, -23470.404, 0.0013616167, 9.999756, 9.999662 
2.215087e+3, 2.24443e+2, -826440.9, -875774.8, -60928.98, -0.28830925, 0.7880362, -785375.06, -44848.43, 0.00013056793, 9.999768, 9.99912 
2.2151059e+3, 2.3444131e+2, -687756.75, -737302.25, -63011.45, -0.14243785, 0.66807145, -644823.25, -2281.0183, 0.0000045921656, 9.999983, 9.999276 
2.215124e+3, 2.4444021e+2, -648951.9, -705066.3, -78243.04, -0.07727172, 0.648409, -593887.6, -49334.6, 0.000000030624218, 9.999734, 9.998947 
2.2151417e+3, 2.5443983e+2, -544434.2, -566636.4, -76953.164, -0.10044346, 0.66912115, -477785.53, -31227.678, 0.0, 9.999694, 9.999199 
2.2151597e+3, 2.6443908e+2, -473770.2, -570594.56, -36463.977, -0.11428735, 0.7030489, -461574.13, -113006.9, 0.0, 9.999826, 9.998477 
2.2151795e+3, 2.7443787e+2, -237140.08, -395796.94, -18291.18, -0.06645378, 0.70073885, -235058.63, 15524.376, 0.0, 10.000755, 9.998538 
2.2151983e+3, 2.84437e+2, -50586.617, -303354.53, -52953.21, -0.09833063, 0.76755387, -39941.574, 112650.805, 0.0, 10.001551, 9.998127 
2.2152159e+3, 2.944352e+2, 255964.2, -124648.66, -72703.01, -0.23128156, 0.73835087, 269378.8, 323986.34, 0.00000027397763, 10.003074, 9.997938 
2.2152336e+3, 3.044318e+2, 97165.84, -471942.03, -121856.08, -0.33838525, 0.72320664, 122159.71, 122159.71, 0.000015050563, 10.002896, 9.995324 
2.2152518e+3, 3.1442955e+2, 263394.8, 253611.34, -13878.564, -0.25511667, 0.87127143, 273218.5, 273218.5, 0.00007034586, 10.001269, 10.001043 
2.2249444e+3, 1.4442644e+2, -1486064.0, -1825412.1, 498147.47, 0.40348187, 1.3123665, -1129487.0, 395202.47, 0.45833316, 10.00303, 9.9971285 
2.224964e+3, 1.5442005e+2, -1478263.3, -1449023.6, -45775.727, 0.15946667, 0.56979764, -1415589.8, 11164.666, 0.30885017, 9.999583, 9.999988 
2.2249803e+3, 1.6442157e+2, -1206997.8, -1225433.9, -91338.14, -0.072284944, 0.6738456, -1124413.8, 204326.45, 0.18666483, 10.000691, 10.000492 
2.224999e+3, 1.744227e+2, -1306555.5, -1262299.6, -4657.0303, -0.097562775, 0.74770707, -1261814.9, -31086.605, 0.103338934, 9.999426, 9.999989 
2.225019e+3, 1.8442301e+2, -1311262.5, -1161309.3, -25442.979, 0.057995263, 0.7589434, -1157109.9, -24385.545, 0.054786276, 9.998427, 10.000528 
2.2250366e+3, 1.9442275e+2, -1040457.94, -946851.1, -79437.12, 0.06906342, 0.63376063, -901454.7, 133271.2, 0.028543482, 9.999503, 10.000795 
2.2250532e+3, 2.0442337e+2, -905831.1, -939618.0, -45810.88, -0.041311745, 0.65592206, -873898.06, 62821.78, 0.013685946, 10.000242, 9.999799 
2.2250696e+3, 2.1442485e+2, -791549.25, -833892.44, -42483.26, -0.22548518, 0.80582386, -765254.4, 73452.234, 0.005262215, 10.000381, 9.99977 
2.2250871e+3, 2.2442465e+2, -730580.75, -838757.9, -39311.977, -0.25551623, 0.84620416, -717803.75, 22904.898, 0.001420654, 10.00044, 9.999059 
2.2251059e+3, 2.3442262e+2, -629011.25, -711690.75, -50390.97, -0.1525091, 0.69778204, -605172.6, 37554.43, 0.0002619265, 10.000385, 9.999266 
2.2251241e+3, 2.4442124e+2, -586835.56, -688417.6, -50032.242, -0.07686553, 0.6566248, -566331.75, -21591.8, 0.000035642544, 10.000201, 9.998845 
2.2251417e+3, 2.5442067e+2, -494322.78, -559583.56, -49078.473, -0.061375543, 0.66874117, -468017.28, -21271.354, 0.0000011567587, 10.0000515, 9.999104 
2.2251599e+3, 2.644196e+2, -445179.22, -560443.06, 38257.42, -0.074437775, 0.6745428, -433636.97, -84878.42, 0.0, 10.00003, 9.998452 
2.2251792e+3, 2.7441815e+2, -263353.03, -402238.66, 31122.164, -0.13367607, 0.65590876, -256697.94, -5921.3228, 0.0, 10.000575, 9.998578 
2.2251992e+3, 2.8441796e+2, -124322.81, -355226.6, 54617.62, -0.11298581, 0.79440427, -112055.38, 40725.133, 0.0, 10.001104, 9.998002 
2.2252198e+3, 2.9441714e+2, 75267.58, -224699.89, 64178.91, -0.073353656, 0.8933803, 88421.984, 143210.66, 0.00000073017384, 10.001918, 9.997794 
2.2252375e+3, 3.044123e+2, 32930.813, -401724.44, -10768.262, -0.1750746, 0.6802875, 33197.426, 33197.426, 0.00002755439, 10.001986, 9.996271 
2.2252516e+3, 3.1441015e+2, 301626.88, 363370.25, -5642.2524, -0.35448426, 0.7865668, 363881.63, 363881.63, 0.000118261974, 10.001085, 10.001925 
2.2349629e+3, 1.5439919e+2, -1388968.5, -1251447.8, -30220.234, 0.06635921, 0.69701207, -1245099.9, 181865.56, 0.35698506, 9.999367, 10.002056 
2.2349793e+3, 1.6440159e+2, -1180219.6, -1161922.0, -92436.73, -0.31168908, 0.7499609, -1078182.4, 250758.14, 0.23053116, 10.000684, 10.001114 
2.2349997e+3, 1.7440313e+2, -1197357.8, -1037836.7, -55081.87, 0.012519538, 0.7126863, -1020665.5, 210253.56, 0.14104874, 9.999339, 10.00179 
2.2350186e+3, 1.8440439e+2, -1354543.8, -1247899.1, -9722.196, 0.12846254, 0.73559797, -1247020.1, -114114.99, 0.08532412, 9.998413, 9.999938 
2.2350356e+3, 1.9440474e+2, -1105427.4, -1069475.9, -30948.871, -0.014498684, 0.75540227, -1051661.1, -16755.13, 0.05187056, 9.999451, 9.999959 
2.2350527e+3, 2.0440485e+2, -901851.9, -902388.56, -43576.426, -0.1407556, 0.7568511, -858542.94, 78363.16, 0.030293982, 10.000123, 10.000118 
2.2350703e+3, 2.1440469e+2, -781869.94, -778379.8, -32089.611, -0.20869617, 0.7002419, -747987.8, 90916.69, 0.015773455, 10.000229, 10.00023 
2.2350879e+3, 2.2440436e+2, -774361.4, -853680.1, -49044.227, -0.24523948, 0.7008639, -750947.75, -10042.189, 0.0069356123, 10.000125, 9.999097 
2.235106e+3, 2.3440385e+2, -644612.75, -709822.94, -43854.586, -0.21746367, 0.68982786, -622570.6, 20338.686, 0.002541045, 10.000234, 9.999345 
2.2351232e+3, 2.444033e+2, -639899.3, -720686.8, -69487.49, -0.18108934, 0.7341727, -599917.9, -55003.383, 0.00075579167, 9.99988, 9.998771 
2.2351414e+3, 2.5440297e+2, -523388.2, -567335.94, -47992.625, -0.11956083, 0.75884914, -492578.16, -45658.902, 0.00014769337, 9.999831, 9.999152 
2.2351594e+3, 2.6440144e+2, -525311.3, -625321.4, 35657.58, -0.15005039, 0.73427844, -513900.03, -164963.86, 0.000007045108, 9.999618, 9.99819 
2.235179e+3, 2.743987e+2, -306572.0, -442150.72, 62461.797, -0.23338139, 0.59841233, -282182.88, -31216.746, 0.00000000065814787, 10.000364, 9.998394 
2.2351997e+3, 2.8439876e+2, -155387.17, -317506.84, 59810.688, -0.2041702, 0.73991865, -135709.66, 17258.098, 0.0, 10.0007, 9.998435 
2.2352219e+3, 2.9440033e+2, 41569.28, -196772.45, 103655.37, -0.056394987, 1.024293, 80341.85, 135295.42, 0.0000012574419, 10.001525, 9.998157 
2.2352408e+3, 3.043943e+2, -58926.703, -413442.97, -61756.95, -0.10724319, 0.6638621, -48476.64, -48476.64, 0.000044073433, 10.001269, 9.996507 
2.2352536e+3, 3.143932e+2, -4988.6343, -52160.074, 111815.5, -0.3075734, 0.84547246, 85701.59, 85701.59, 0.00018419352, 10.00022, 9.999454 
2.2449651e+3, 1.5438406e+2, -1180918.8, -1411589.8, 73538.695, 0.076775454, 1.0482036, -1159469.0, 267647.8, 0.42759266, 10.003738, 9.998191 
2.244981e+3, 1.6438144e+2, -1241360.1, -1158803.4, -83111.945, -0.13986246, 0.76751214, -1107283.6, 221856.92, 0.29616648, 9.999957, 10.001637 
2.2449985e+3, 1.7438406e+2, -1269561.1, -1015908.75, -138768.84, -0.0071896687, 0.7675148, -954741.1, 276369.66, 0.19952731, 9.998546, 10.002494 
2.2450161e+3, 1.8438585e+2, -1355085.4, -1211284.0, -18551.73, 0.052828882, 0.78505003, -1208929.1, -75836.89, 0.13536815, 9.998238, 10.000276 
2.2450355e+3, 1.9438624e+2, -1057802.3, -1019148.6, 29711.824, 0.009309833, 0.7844448, -1003030.8, 32059.904, 0.09319166, 9.999647, 10.000244 
2.245054e+3, 2.0438632e+2, -874238.6, -938358.94, 17118.215, -0.03860798, 0.78400713, -869954.8, 67135.56, 0.06306426, 10.000486, 9.999732 
2.2450718e+3, 2.1438558e+2, -757847.44, -820205.3, -55210.945, -0.10541426, 0.72092295, -725619.94, 113475.055, 0.0400799, 10.0006, 9.999798 
2.2450888e+3, 2.2438487e+2, -716350.44, -788728.4, -95444.02, -0.16080175, 0.69453424, -650464.9, 90634.46, 0.023131557, 10.000355, 9.999455 
2.2451057e+3, 2.3438437e+2, -738686.2, -709284.3, -98448.984, -0.19660728, 0.6442546, -624444.7, 18656.588, 0.011994159, 9.999386, 9.999765 
2.2451231e+3, 2.4438405e+2, -725538.56, -749572.2, -61557.24, -0.16948585, 0.688067, -674836.2, -129732.58, 0.0054928027, 9.999211, 9.998903 
2.2451414e+3, 2.5438437e+2, -466731.88, -513970.53, -45767.223, -0.11933495, 0.7635218, -438848.66, 8253.681, 0.002050329, 10.000113, 9.999385 
2.2451596e+3, 2.6438308e+2, -411768.25, -603033.0, 55839.137, -0.117594086, 0.76860744, -396659.66, -47542.84, 0.0004876709, 10.000521, 9.99792 
2.2451802e+3, 2.7438e+2, -223873.95, -424645.38, 72021.67, -0.16325556, 0.6237648, -200710.44, 50438.707, 0.000047167257, 10.001031, 9.998197 
2.2452015e+3, 2.8437978e+2, -126746.07, -279541.7, 54929.1, -0.10299275, 0.7322462, -109049.08, 44104.152, 0.00000034188096, 10.00077, 9.998674 
2.2452237e+3, 2.9438132e+2, -30807.148, -212870.42, 54124.402, -0.013330003, 1.0142037, -15932.177, 39207.863, 0.0000013302117, 10.000892, 9.998385 
2.2452429e+3, 3.0437654e+2, 90575.44, -279617.16, -59037.426, -0.03800682, 0.7141143, 99762.586, 99762.586, 0.0000584347, 10.001966, 9.997106 
2.2452566e+3, 3.143759e+2, 370079.25, 43248.74, -45841.617, -0.1772997, 0.93506396, 376387.28, 376387.28, 0.00025945, 10.00307, 9.998745 
2.2549851e+3, 1.6436166e+2, -1357782.0, -1260563.8, -163208.3, 0.20494887, 0.7987372, -1138879.6, 190455.28, 0.39765337, 9.999373, 10.001272 
2.2549948e+3, 1.7436534e+2, -1316203.9, -1093572.8, -190548.4, -0.2663802, 0.9094514, -984207.9, 247097.3, 0.29298013, 9.9984865, 10.002122 
2.2550115e+3, 1.8436714e+2, -1318486.0, -1096897.5, -10214.388, -0.30714485, 0.90450364, -1096427.6, 36860.64, 0.21888196, 9.998037, 10.001214 
2.2550353e+3, 1.943668e+2, -1007020.06, -876607.25, 66646.57, 0.02853702, 0.6953095, -848573.94, 186711.03, 0.16615056, 9.999416, 10.001515 
2.2550562e+3, 2.043673e+2, -987690.25, -1119755.9, 19480.945, 0.09615112, 0.7050042, -984876.56, -47599.023, 0.12546477, 10.00022, 9.998594 
2.255073e+3, 2.1436732e+2, -869110.94, -1022008.94, -45878.56, -0.04483251, 0.8385389, -856401.1, -17121.012, 0.0914258, 10.000453, 9.998457 
2.2550896e+3, 2.2436622e+2, -736940.8, -760382.4, -128244.0, -0.15156762, 0.8261129, -619883.06, 121406.52, 0.062582165, 10.000061, 9.999814 
2.2551057e+3, 2.3436423e+2, -725138.44, -638542.7, -124141.24, -0.16470046, 0.56517845, -550365.25, 92937.39, 0.039919913, 9.999186, 10.000371 
2.255122e+3, 2.4436356e+2, -802791.25, -769706.5, -50679.004, -0.19514355, 0.541364, -732938.4, -187631.94, 0.023601582, 9.998628, 9.999036 
2.2551408e+3, 2.5436497e+2, -476316.53, -475584.4, -6880.2573, -0.17944957, 0.68663824, -469060.47, -21765.982, 0.012405956, 9.999876, 9.99975 
2.2551602e+3, 2.643644e+2, -502582.34, -700721.94, 44728.92, -0.13621135, 0.77050287, -492953.03, -143651.03, 0.005154125, 10.000153, 9.997419 
2.2551826e+3, 2.743619e+2, -295082.94, -488186.66, 94394.2, -0.06275367, 0.70797074, -256606.92, -5279.899, 0.0013586987, 10.000685, 9.997919 
2.2552031e+3, 2.843608e+2, -247953.23, -371744.53, 20447.285, -0.027334688, 0.7554479, -244663.28, -91324.0, 0.00015517221, 10.00013, 9.998327 
2.2552241e+3, 2.943604e+2, -93864.83, -237731.13, 80473.23, -0.06528361, 0.8755971, -57861.336, -2516.2163, 0.0000026982873, 10.000514, 9.998355 
2.2552437e+3, 3.0435908e+2, 48890.984, -230511.45, -21843.564, -0.22055194, 0.8632498, 50588.395, 50588.395, 0.000065484004, 10.001435, 9.997678 
2.2552575e+3, 3.143554e+2, 290873.7, 62387.375, -34645.12, -0.45952895, 0.7609698, 296011.38, 296011.38, 0.00034262822, 10.002355, 9.999203 
2.2649997e+3, 1.7434509e+2, -1485150.8, -1955543.6, 461363.3, 0.29073983, 0.15017141, -1202492.5, 28986.678, 0.44342524, 10.000348, 9.995008 
2.265015e+3, 1.8435547e+2, -826510.75, -1118147.8, 172854.88, -0.06985919, 1.315827, -746183.6, 387215.6, 0.3585124, 10.003846, 9.998496 
2.2650364e+3, 1.9435064e+2, -1190376.3, -1178385.3, 13415.32, 0.20058188, 0.9201254, -1169686.6, -134242.2, 0.29413474, 9.999163, 9.999306 
2.2650562e+3, 2.0434819e+2, -1287851.6, -1210781.1, -6717.911, 0.20010512, 0.7234168, -1210199.9, -272731.5, 0.24160613, 9.997836, 9.99915 
2.265073e+3, 2.1434878e+2, -870569.4, -973599.0, 40682.758, -0.07801077, 0.8685079, -856442.25, -16976.959, 0.1940874, 10.00017, 9.998956 
2.2650899e+3, 2.2434822e+2, -612852.9, -715179.1, -55707.32, -0.17942533, 0.8894807, -588378.9, 153090.33, 0.14888066, 10.001073, 9.999664 
2.2651057e+3, 2.3434669e+2, -743563.94, -671829.06, -154878.11, -0.07170143, 0.7090321, -548719.44, 94757.99, 0.108788945, 9.999169, 10.000188 
2.2651224e+3, 2.4434592e+2, -704246.94, -712324.9, 22232.363, -0.05251686, 0.68123066, -685689.6, -140207.8, 0.07581198, 9.999162, 9.99921 
2.265142e+3, 2.5434697e+2, -196817.73, -350540.9, 36604.98, -0.14632791, 0.78232414, -188546.31, 258926.83, 0.048806984, 10.001818, 9.999775 
2.2651614e+3, 2.6434582e+2, -112993.57, -555622.6, 18565.541, -0.16177312, 0.84425426, -112216.23, 237268.14, 0.026684597, 10.002974, 9.997091 
2.2651841e+3, 2.7434242e+2, 17386.791, -347253.38, 54010.58, -0.07477487, 0.7005481, 25218.633, 276734.53, 0.010897145, 10.002791, 9.997921 
2.265204e+3, 2.843406e+2, -115740.21, -315997.22, -6913.423, 0.014780404, 0.67689353, -115501.83, 38033.074, 0.002788968, 10.001034, 9.998296 
2.2652256e+3, 2.943403e+2, 87759.414, -160777.52, 100359.55, -0.022099227, 0.825554, 123224.14, 178766.22, 0.0003034348, 10.001823, 9.998256 
2.2652453e+3, 3.0433977e+2, 160069.88, -212673.16, -4063.732, -0.21594155, 0.8742972, 160114.17, 160114.17, 0.000074942734, 10.002409, 9.997334 
2.2652608e+3, 3.1433406e+2, 276126.38, -39666.617, -178934.61, -0.39467126, 0.76495284, 356869.56, 356869.56, 0.00045627946, 10.002538, 9.9985075 
2.275053e+3, 2.043312e+2, -1147759.3, -1058622.0, 43166.8, 0.046521954, 1.0843439, -1041144.44, -103502.83, 0.4526298, 9.998457, 9.999848 
2.275072e+3, 2.143307e+2, -712043.3, -701909.2, 83588.31, -0.21483237, 0.8924349, -623234.5, 216409.48, 0.38963944, 10.000791, 10.001065 
2.2750928e+3, 2.2433023e+2, -914075.7, -1002913.3, -126730.46, -0.05449497, 0.8320667, -824205.1, -82559.96, 0.32267725, 9.999462, 9.998391 
2.2751069e+3, 2.3432992e+2, -1054266.9, -936009.06, -201075.6, 0.11055987, 0.8697746, -785548.75, -141904.98, 0.25840095, 9.997546, 9.999055 
2.2751233e+3, 2.4432953e+2, -880830.06, -882275.5, 109221.69, 0.044662353, 0.97287524, -772328.75, -226683.5, 0.20062341, 9.998348, 9.998403 
2.2751445e+3, 2.5432986e+2, -337171.16, -454066.13, 133636.73, -0.119461685, 0.9837002, -249759.52, 197882.81, 0.14660953, 10.0011215, 9.999389 
2.2751631e+3, 2.643277e+2, -403080.7, -812033.3, -15395.571, -0.3466486, 1.0179679, -402501.94, -52840.73, 0.09444842, 10.001466, 9.996019 
2.275185e+3, 2.743223e+2, -59377.69, -350662.13, 35598.316, -0.27928817, 0.65312415, -55090.273, 196618.52, 0.04983968, 10.002221, 9.998132 
2.2752039e+3, 2.8431958e+2, -268196.72, -404211.13, -99242.875, -0.14335346, 0.53053564, -215895.44, -62159.656, 0.019500945, 10.0001, 9.99811 
2.2752269e+3, 2.9432103e+2, -27741.684, -247978.08, 129809.26, -0.08546016, 0.84057957, 32364.852, 88094.54, 0.004786881, 10.001229, 9.997908 
2.2752465e+3, 3.0431885e+2, -108140.65, -508780.44, -63128.34, -0.3689689, 0.77908915, -98429.01, -98429.01, 0.0007184054, 10.001376, 9.995755 
2.2752637e+3, 3.1431422e+2, -111419.53, -492831.22, 35770.79, -0.38516816, 0.99635065, -108093.76, -108093.76, 0.0007782504, 10.001223, 9.995934 
2.2851238e+3, 2.4430375e+2, -267112.88, -590341.6, 82430.91, -0.15463294, 0.28322732, -247304.92, 298587.75, 0.45869297, 10.003897, 9.998322 
2.2851475e+3, 2.5430942e+2, -750323.2, -875715.56, -310573.3, 0.17333, 1.2537314, -496180.94, -48334.934, 0.36361384, 9.99901, 9.997574 
2.2851627e+3, 2.642976e+2, -831983.8, -637732.0, -130026.57, -0.3457202, 0.2386771, -572560.8, -222598.27, 0.26167566, 9.996676, 9.999591 
2.2851896e+3, 2.743003e+2, 84080.65, -101559.83, 118924.016, -0.024841819, 0.4615602, 142119.67, 394046.75, 0.1640845, 10.002662, 9.999936 
2.2852068e+3, 2.8430125e+2, -12611.583, -440667.88, -166709.03, 0.028489687, 0.7331305, 44653.38, 198569.34, 0.0825175, 10.002567, 9.996739 
2.2852275e+3, 2.9430047e+2, 207259.45, -200194.39, 135982.38, -0.22266658, 0.89455503, 248473.06, 304404.75, 0.030766618, 10.0030365, 9.997455 
2.28525e+3, 3.0429673e+2, 257276.17, -21508.623, -30514.232, -0.21471825, 0.5816726, 260577.02, 260577.02, 0.009050316, 10.002399, 9.998666 
2.2852637e+3, 3.1429613e+2, -138659.27, 148031.4, 259535.56, -0.35556573, 0.8890704, 301176.53, 301176.53, 0.0039658803, 9.998164, 10.001802 
2.2951902e+3, 2.7428207e+2, 278074.4, 227837.92, 241407.75, -0.2947373, 0.6661475, 495667.16, 747781.9, 0.434636, 10.004632, 10.003461 
2.2952114e+3, 2.842865e+2, -1085546.6, -1506816.6, -484881.44, 0.13917664, 1.2682624, -767525.6, -613459.56, 0.25417694, 9.997522, 9.991771 
2.2952278e+3, 2.9428196e+2, -8773.426, -351489.84, 211212.73, -0.58102953, 1.0862582, 91850.82, 147965.8, 0.12176305, 10.001975, 9.996819 
2.295255e+3, 3.0427632e+2, -307304.47, 138117.66, -186096.22, -0.064550556, 0.41573048, 205634.13, 205634.13, 0.053979736, 9.9967785, 10.002428 
2.295263e+3, 3.142777e+2, 432684.63, 1674001.0, 4407.8306, -0.38866806, 0.11623881, 1674016.6, 1674016.6, 0.031384613, 9.996869, 10.013138 
2.3052314e+3, 2.9425627e+2, -459236.2, 1191413.4, -4974.1377, -0.13341387, 0.3805198, 1191428.4, 1247792.3, 0.3610188, 9.987517, 10.019827 
2.3052692e+3, 3.0427545e+2, 377224.53, -211148.98, 178487.33, 0.64196146, 1.0404929, 427135.97, 427135.97, 0.21448565, 10.005013, 9.996136 
2.3052637e+3, 3.142646e+2, -493816.3, -1828536.6, -189808.94, -0.46169582, 1.5437552, -467348.7, -467348.7, 0.1663574, 10.002855, 9.986547 
2.3511522e+3, 2.7468142e+2, -663426.2, -507428.9, 399791.47, 0.45676622, 0.057216495, -178098.44, 70049.79, 0.45016885, 9.996643, 9.9992075 
2.3507342e+3, 2.846769e+2, 50505.664, -777848.1, -621998.3, 0.3663603, 0.6821115, 383606.75, 533802.06, 0.3538688, 10.005148, 9.99312 
2.3503166e+3, 2.9466337e+2, 291496.88, 124223.34, 553973.4, -0.7733242, -0.19188972, 768111.44, 820448.25, 0.27755305, 10.003359, 10.000079 
2.349943e+3, 3.0466774e+2, -175014.23, 476660.4, -244282.48, 0.8979533, 1.3023111, 558062.44, 558062.44, 0.2234836, 9.997162, 10.005956 
2.3651697e+3, 1.7517546e+2, -2291637.3, -1570118.0, -126097.97, -0.2902028, 0.33326253, -1548715.1, -325453.5, 0.43641, 9.991258, 10.001082 
2.3647717e+3, 1.851539e+2, -1073931.4, -1451924.4, 103515.72, -0.18197542, -0.8384831, -1047439.7, 78042.2, 0.37759894, 10.001851, 9.996003 
2.3643708e+3, 1.9515423e+2, -679842.8, -1219873.8, 225914.98, -0.1934538, 0.23742928, -597798.7, 429696.0, 0.33353588, 10.004984, 9.995643 
2.3639692e+3, 2.0514406e+2, 60337.76, -697845.9, -87029.4, -0.09320094, 0.44632357, 70199.31, 999800.06, 0.30097756, 10.010726, 9.996268 
2.3635645e+3, 2.1512856e+2, -1079237.1, -1275749.6, 175204.23, 0.31876236, -0.012138848, -976618.25, -144868.48, 0.27814174, 9.998957, 9.996763 
2.3631573e+3, 2.2512175e+2, -602232.94, -806542.4, 80502.48, 0.07283459, 0.34068382, -574325.2, 159488.55, 0.261044, 10.001253, 9.9981985 
2.3627478e+3, 2.3510683e+2, -260497.8, -522684.84, -9380.085, -0.7845449, -0.29031694, -260162.63, 375794.28, 0.24562602, 10.0030985, 9.998844 
2.3623462e+3, 2.4510147e+2, 408690.25, -332880.03, 51418.72, -0.21577136, 0.19279927, 412238.53, 950252.9, 0.23008443, 10.00916, 9.996705 
2.3619412e+3, 2.5509107e+2, -363564.63, -510832.78, 201191.7, -0.11027358, 0.26577792, -222955.67, 217173.89, 0.20982926, 10.000501, 9.998729 
2.361534e+3, 2.6508552e+2, 241931.19, 796016.44, -34074.926, 0.008609101, -0.0059005236, 798104.1, 1140294.1, 0.17457218, 9.999523, 10.00914 
2.3611304e+3, 2.7508453e+2, -846973.25, -502706.6, 151188.66, -0.6377346, 0.07907386, -445737.56, -201538.53, 0.12478935, 9.995217, 9.999814 
2.3607248e+3, 2.850795e+2, 141895.7, -187453.02, -586977.0, -0.23405668, 0.48575345, 586860.3, 733105.9, 0.08186127, 10.00233, 9.998128 
2.3603289e+3, 2.9507798e+2, 282926.66, 357451.2, 117631.79, 0.81583035, 0.7501208, 443581.44, 491837.72, 0.055282656, 10.001125, 10.002084 
2.3599212e+3, 3.0505216e+2, -475104.8, -1015087.2, -221722.11, -0.11939245, -0.55740595, -395730.97, -395730.97, 0.039652485, 10.000592, 9.99288 
2.3759744e+3, 1.5556754e+2, -848506.0, -1200861.9, 109383.836, 0.31273606, -1.1477405, -817311.1, 598120.94, 0.40916276, 10.006198, 9.998813 
2.3755561e+3, 1.6557413e+2, -588387.3, -861299.56, -114499.27, -1.1416626, 0.27630633, -546713.25, 770659.94, 0.31914037, 10.00616, 10.000907 
2.3751682e+3, 1.7556722e+2, -1037315.94, -1077111.9, -226834.34, 0.19952948, 0.20417176, -829508.5, 389928.34, 0.25440004, 10.000749, 10.000405 
2.3747696e+3, 1.8555743e+2, -1260853.3, -1098715.8, -201546.69, 0.53738767, -0.033422828, -962544.5, 158990.23, 0.20803122, 9.998152, 10.000534 
2.374365e+3, 1.9555104e+2, -1362327.1, -1165995.6, -77700.93, 0.23030517, 0.03395081, -1138965.8, -115361.62, 0.17323056, 9.996894, 9.99991 
2.3739617e+3, 2.0554334e+2, -1107171.4, -1037309.4, -86600.164, 0.09878707, 0.097630024, -978860.75, -53182.08, 0.14628343, 9.998188, 9.999457 
2.3735605e+3, 2.1553455e+2, -443622.5, -650432.56, -10706.774, 0.52234125, 0.041986547, -443069.66, 384687.78, 0.1255341, 10.00235, 9.999635 
2.3731616e+3, 2.2552496e+2, -522429.5, -734883.6, 83088.516, 1.1437165, -0.012692299, -493794.1, 236058.45, 0.10829949, 10.001451, 9.998635 
2.372759e+3, 2.3551252e+2, -1138383.6, -956147.0, 23435.367, 1.4082968, -0.28210172, -953181.5, -321200.06, 0.09199208, 9.996214, 9.998959 
2.372347e+3, 2.4550563e+2, -946425.56, -632917.8, -5692.8965, 0.9471973, -0.1686928, -632814.44, -98756.83, 0.07586676, 9.99607, 10.000592 
2.371934e+3, 2.5550172e+2, -565071.7, -684524.44, 103344.6, 0.085142754, 0.34845248, -505435.8, -69329.44, 0.059159193, 9.9993305, 9.997944 
2.3715241e+3, 2.6549545e+2, 114694.56, 182469.61, -56464.04, -0.21260938, 0.47902396, 214434.6, 552606.44, 0.04041217, 10.001231, 10.00249 
2.3711245e+3, 2.754865e+2, -556581.8, -486676.2, 165995.58, -0.15799123, 0.2505621, -351993.4, -111734.78, 0.02171852, 9.997893, 9.998546 
2.3707195e+3, 2.8547823e+2, -295229.22, -460097.06, -270241.47, -0.043567672, 0.45489314, -95128.54, 47210.902, 0.009489369, 9.99973, 9.997115 
2.3703201e+3, 2.9547292e+2, 369173.9, 255830.45, 87537.01, 0.41662505, 0.64545727, 416782.63, 461174.44, 0.0043437975, 10.002459, 10.000363 
2.3699202e+3, 3.0545244e+2, 271091.66, -425227.94, -219925.34, 0.2201824, -0.16990331, 334735.7, 334735.7, 0.0025758175, 10.004499, 9.994688 
2.3863716e+3, 1.4599964e+2, -1435799.8, -2012361.5, -99338.63, -0.08803185, 0.19909656, -1419164.3, 90027.72, 0.38968232, 10.0028715, 9.994439 
2.3859641e+3, 1.55991e+2, -1479490.3, -2116710.5, -2481.3787, -0.37093508, 0.61847866, -1479480.6, -68191.59, 0.27836236, 10.001826, 9.99369 
2.3855583e+3, 1.6597636e+2, -1173105.9, -1211869.8, 151690.47, -0.4803798, 0.27921522, -1039564.2, 273872.1, 0.19862524, 10.000588, 9.999899 
2.3851545e+3, 1.7596267e+2, -1197187.1, -1232928.4, 66962.84, -0.44187847, -0.3182804, -1145751.3, 69815.8, 0.1461588, 9.999749, 9.999394 
2.384751e+3, 1.8595633e+2, -1048944.4, -904242.9, 125934.984, -0.44976112, -0.18080659, -831355.0, 286273.38, 0.11113541, 9.999203, 10.0013485 
2.3843487e+3, 1.9595271e+2, -1068851.6, -904913.6, 78232.01, -0.43248013, 0.0855257, -873572.56, 146092.25, 0.08556882, 9.998405, 10.001042 
2.3839478e+3, 2.059448e+2, -1044330.44, -797001.7, 74705.49, -0.3351547, -0.037597287, -776188.44, 145548.75, 0.065839775, 9.997762, 10.0013485 
2.3835441e+3, 2.1593407e+2, -1067687.5, -825493.4, 17996.02, -0.39986652, -0.46894807, -824163.5, -330.32184, 0.050802168, 9.997215, 10.000718 
2.3831369e+3, 2.2592925e+2, -881816.94, -809317.9, -93082.96, -0.5945548, -0.18280241, -745675.1, -19790.594, 0.038884565, 9.99845, 9.999503 
2.3827295e+3, 2.35927e+2, -696272.4, -831259.25, -141482.02, -0.5939136, 0.49656582, -607009.56, 20910.316, 0.028499383, 9.999722, 9.99812 
2.3823218e+3, 2.4591917e+2, -346215.75, -415980.75, -20980.162, -0.5988549, 0.5844237, -340392.53, 189614.06, 0.019239577, 10.000658, 9.999827 
2.3819189e+3, 2.559066e+2, -662466.2, -828852.3, 57803.754, -0.6140575, 0.2644611, -644355.94, -212218.56, 0.011432521, 9.999219, 9.996978 
2.3815176e+3, 2.6589805e+2, -106675.08, -204650.83, -183186.14, -0.20144226, 0.32788262, 33960.297, 368184.63, 0.005416997, 10.001046, 9.999688 
2.3811203e+3, 2.7588978e+2, -309651.97, -475823.34, -41061.945, 0.33712694, 0.31725606, -300059.1, -63754.336, 0.001679893, 10.000081, 9.997579 
2.3807123e+3, 2.8587782e+2, -60714.645, -361310.1, -135000.92, -0.022580864, 0.21602862, -8985.993, 129438.94, 0.00032890253, 10.001407, 9.997007 
2.3803073e+3, 2.958709e+2, -279385.56, -390915.34, 169908.27, -0.37120488, 0.3687596, -156325.0, -115825.87, 0.000101582686, 9.9993515, 9.997487 
2.379924e+3, 3.058627e+2, -112312.914, -130262.0, 21086.455, 0.8865718, 0.6950673, -98370.625, -98370.625, 0.00014345827, 9.999786, 9.998999 
2.396771e+3, 1.364008e+2, -1746792.8, -1966210.8, 173110.72, -0.12348414, -0.1977419, -1651554.4, -48288.195, 0.42782584, 9.999824, 9.99681 
2.396366e+3, 1.4639474e+2, -1069225.9, -1048926.3, -201166.94, -0.22268692, -0.103669636, -857653.25, 647679.7, 0.2998544, 10.002217, 10.002801 
2.3959602e+3, 1.5639073e+2, -1067342.4, -1142654.8, -13803.918, -0.19270344, 0.041403137, -1064892.0, 342476.94, 0.19614406, 10.001716, 10.000923 
2.3955545e+3, 1.6638197e+2, -1188996.1, -1381394.6, 81689.94, -0.1897976, 0.02404999, -1158991.0, 150463.63, 0.12585048, 10.000996, 9.998436 
2.3951489e+3, 1.763704e+2, -1249559.1, -1403880.6, 33370.34, -0.20943901, -0.18552777, -1242652.3, -31083.027, 0.083471425, 9.999912, 9.998144 
2.3947453e+3, 1.8636303e+2, -999014.8, -929181.3, 100398.51, -0.17910524, -0.08225568, -857801.1, 255840.06, 0.057587944, 9.9997635, 10.000818 
2.394343e+3, 1.963579e+2, -959900.75, -907686.94, 82449.195, -0.1485017, 0.11695633, -847310.06, 168380.02, 0.03970386, 9.999418, 10.000479 
2.3939404e+3, 2.0634933e+2, -961755.8, -773373.5, 24851.166, -0.103374325, -0.036526944, -770150.3, 147618.95, 0.026570952, 9.998435, 10.001136 
2.3935369e+3, 2.1633849e+2, -1057714.5, -826725.5, 18824.977, -0.08681044, -0.4274278, -825201.4, -5333.2114, 0.017417854, 9.997322, 10.000645 
2.3931323e+3, 2.2633256e+2, -727796.75, -718525.56, 10307.164, -0.14944705, -0.25041306, -711859.56, 10070.704, 0.011141793, 9.999409, 9.999679 
2.3927277e+3, 2.3632818e+2, -129093.555, -539161.2, -10869.71, -0.24613337, 0.21391702, -128805.63, 495178.97, 0.0065593217, 10.003555, 9.998252 
2.3923208e+3, 2.4631877e+2, 64502.332, -356861.6, -124773.3, -0.23136815, 0.2129544, 98678.016, 624762.6, 0.0032030866, 10.004085, 9.998546 
2.391917e+3, 2.5630623e+2, -427242.13, -771243.4, -19787.814, -0.1265563, -0.005992238, -426107.6, 2105.465, 0.0011282732, 10.001097, 9.996421 
2.3915134e+3, 2.662974e+2, -213715.44, -442196.4, -96636.74, 0.02341903, 0.17014115, -178324.55, 151979.16, 0.00023273825, 10.001151, 9.997966 
2.3911119e+3, 2.7628937e+2, -35571.367, -260616.9, -28753.084, 0.071639165, 0.31440037, -31955.799, 200429.02, 0.000018051116, 10.001608, 9.99827 
2.3907036e+3, 2.8627804e+2, 90948.01, 14736.113, -121443.01, -0.27786967, 0.079936616, 180123.13, 314621.13, 0.000004039042, 10.001131, 9.999693 
2.3902996e+3, 2.962721e+2, -215293.05, -224037.14, 170586.66, -0.27057704, 0.204456, -49022.414, -12463.233, 0.00001362104, 9.999086, 9.998771 
2.3899134e+3, 3.0626482e+2, -102518.05, 137919.67, 10549.807, 0.77477205, 0.59178525, 138381.69, 138381.69, 0.00005414364, 9.998616, 10.001479 
2.4071653e+3, 1.2681828e+2, -1424897.1, -1815273.1, 94502.75, -0.18820846, -0.007776145, -1403223.1, 293934.66, 0.49043512, 10.005046, 9.995977 
2.406762e+3, 1.368052e+2, -2169006.8, -2239568.0, 222296.73, -0.15448616, -0.20401096, -1979208.4, -379903.75, 0.36336103, 9.997163, 9.996358 
2.4063593e+3, 1.4679785e+2, -1571839.4, -1174586.6, 150801.95, -0.030069191, -0.21365131, -1123826.4, 377556.38, 0.24041095, 9.997253, 10.003609 
2.4059553e+3, 1.567945e+2, -1136380.1, -1047326.44, -11577.095, 0.016998157, -0.1032883, -1045846.0, 357567.7, 0.14389461, 10.000488, 10.002038 
2.4055488e+3, 1.6678777e+2, -1115641.0, -1333047.8, -37154.05, -0.077613845, 0.020607486, -1109466.8, 196012.36, 0.08188297, 10.001529, 9.998471 
2.4051416e+3, 1.7677788e+2, -1104155.3, -1338380.5, -11401.694, -0.18419135, -0.008208369, -1103601.5, 103975.23, 0.047678713, 10.000976, 9.998111 
2.4047382e+3, 1.8676962e+2, -953351.7, -910635.8, 122255.48, -0.083173364, 0.0017911914, -807886.7, 301767.88, 0.028905774, 10.000138, 10.000721 
2.4043366e+3, 1.96763e+2, -1134201.4, -1062136.5, 102426.234, 0.105497696, 0.08057651, -989589.6, 22125.01, 0.017015342, 9.998587, 9.999789 
2.4039328e+3, 2.0675386e+2, -967163.3, -894759.4, 31293.775, 0.06871693, -0.030297922, -883108.6, 30692.887, 0.00915297, 9.999, 9.999992 
2.4035285e+3, 2.16743e+2, -819451.1, -858233.0, -64714.395, 0.06927661, -0.30568206, -771284.94, 44620.715, 0.0045936005, 9.999669, 9.9993 
2.4031262e+3, 2.2673577e+2, -664808.06, -674632.06, 8314.165, 0.085749745, -0.23082182, -660063.3, 57917.418, 0.0022051786, 9.99984, 9.99976 
2.4027246e+3, 2.367289e+2, -774231.25, -870857.8, -18148.867, 0.031896643, -0.0410131, -770934.9, -150879.16, 0.0009056362, 9.99924, 9.998055 
2.4023189e+3, 2.4671963e+2, -377591.72, -605419.9, -203580.69, 0.075537235, -0.02043943, -258221.61, 263930.38, 0.00023937336, 10.0013, 9.998119 
2.401914e+3, 2.5670835e+2, -385871.5, -835653.0, -97638.06, 0.24359433, -0.10374615, -365590.8, 58675.63, 0.000025130046, 10.001772, 9.995674 
2.4015078e+3, 2.6669887e+2, -171547.23, -512393.16, -17579.81, 0.114033125, 0.10103274, -170642.9, 155719.98, 0.00000030344088, 10.001912, 9.997091 
2.4011017e+3, 2.7669075e+2, -389479.7, -404867.25, 23866.27, -0.2479395, 0.26870587, -372097.72, -143651.92, 0.000000006555133, 9.999084, 9.998526 
2.4006955e+3, 2.8668106e+2, 40107.055, 250020.44, -89857.2, -0.3683563, 0.019795012, 283231.13, 413772.63, 0.00000087941476, 9.999734, 10.001961 
2.4002932e+3, 2.9667428e+2, -392196.2, -343391.47, 97738.52, -0.09899503, -0.041166686, -267055.1, -234448.02, 0.0000072209577, 9.998108, 9.998406 
2.3999012e+3, 3.0666816e+2, -22709.016, 249491.2, 131794.48, 0.34490272, 0.3838519, 302845.63, 302845.63, 0.00003484927, 9.999011, 10.001941 
2.4171592e+3, 1.2722163e+2, -1457108.0, -1421978.3, -143892.56, -0.4685581, -0.12410467, -1294582.5, 398627.47, 0.44509998, 10.001356, 10.002003 
2.4167542e+3, 1.3721523e+2, -1845320.3, -1676825.0, 44005.53, 0.084079444, -0.18806414, -1666024.5, -70747.62, 0.31930807, 9.997644, 10.000022 
2.4163516e+3, 1.4720884e+2, -1736191.0, -1639427.9, 268674.88, 0.20877443, 0.010925292, -1414813.1, 82535.66, 0.20041417, 9.998153, 9.999345 
2.415949e+3, 1.5720172e+2, -1305949.9, -1440549.5, 85252.56, 0.042631794, 0.15729235, -1264634.4, 134794.58, 0.110025235, 10.000664, 9.998851 
2.4155413e+3, 1.671936e+2, -992625.4, -1123972.6, -64212.477, -0.20637272, 0.18397386, -966449.8, 335059.38, 0.054970514, 10.001706, 9.999871 
2.4151321e+3, 1.7718457e+2, -980897.1, -1130685.1, -17174.166, -0.49065194, 0.10234219, -978953.25, 224641.14, 0.027314784, 10.001181, 9.999447 
2.414729e+3, 1.871757e+2, -909778.9, -877908.4, 69649.1, -0.24422854, -0.013609768, -822394.9, 283277.56, 0.013986388, 10.000364, 10.000828 
2.4143283e+3, 1.9716689e+2, -1105438.0, -1093715.5, 95324.79, 0.15155946, -0.14886637, -1004071.94, 3676.5461, 0.006556314, 9.99895, 9.999399 
2.4139243e+3, 2.071573e+2, -1060964.1, -1255208.8, 72497.586, 0.06454074, -0.11760151, -1036889.7, -127044.2, 0.002469395, 9.999699, 9.997203 
2.4135187e+3, 2.1714708e+2, -730201.0, -1039381.06, -22309.328, -0.23718505, -0.042402014, -728599.5, 83354.195, 0.00078321603, 10.001189, 9.997343 
2.413116e+3, 2.2713912e+2, -528534.8, -549340.6, -59553.426, -0.1933582, 0.0065384237, -478482.5, 235553.44, 0.00023610769, 10.000478, 10.0003195 
2.4127148e+3, 2.3713148e+2, -770904.7, -771370.94, -25902.229, -0.06473127, 0.051865578, -745234.56, -129120.55, 0.000047296035, 9.9987955, 9.998953 
2.4123105e+3, 2.471229e+2, -468177.47, -602722.75, -93438.88, -0.01705917, 0.0992192, -420313.53, 97888.02, 0.0000020598873, 10.000454, 9.998563 
2.4119067e+3, 2.5711337e+2, -110582.11, -520408.03, -17223.252, 0.00060016965, 0.12860599, -109859.56, 310438.75, 0.0, 10.002843, 9.997308 
2.4115013e+3, 2.671034e+2, -99891.7, -351965.44, -49047.22, 0.04511229, 0.15836081, -90684.64, 231710.81, 0.0, 10.001881, 9.998201 
2.4110955e+3, 2.7709386e+2, -359574.88, -299805.13, 13291.739, -0.0073458524, 0.11554787, -296982.56, -72496.21, 0.0, 9.998794, 9.999415 
2.4106897e+3, 2.870841e+2, -131290.53, -11990.099, -56310.49, -0.06883258, -0.076140344, 10390.284, 136971.69, 0.0000001537889, 9.999184, 10.000511 
2.4102879e+3, 2.970768e+2, 12924.573, -281295.56, 65488.41, 0.04614639, -0.0069896136, 26842.775, 55495.69, 0.000003139397, 10.001278, 9.997349 
2.409897e+3, 3.0706537e+2, 376139.5, 152258.86, 62457.855, 0.5627731, 0.06984923, 392385.06, 392385.06, 0.000017282315, 10.002726, 9.999578 
2.4271531e+3, 1.2762514e+2, -1858626.8, -1539851.0, 6523.8003, -0.09548809, -0.5063423, -1539717.6, 149534.19, 0.4141129, 9.996933, 10.002581 
2.4267451e+3, 1.3762297e+2, -1358331.8, -1466139.6, -50486.316, 0.019246936, -0.16848622, -1338381.0, 252895.92, 0.28877336, 10.001612, 9.999938 
2.4263425e+3, 1.4761603e+2, -1346217.6, -1603518.5, 176403.0, 0.074133664, 0.05184753, -1256535.9, 236818.81, 0.17287979, 10.001667, 9.997939 
2.4259412e+3, 1.576072e+2, -1458530.8, -1648257.5, 130468.73, 0.029146932, 0.18179123, -1392083.4, 3369.715, 0.08747846, 9.999947, 9.997829 
2.425534e+3, 1.6759838e+2, -1291104.4, -1214080.0, -25526.07, -0.17146249, 0.1431273, -1206388.6, 91151.73, 0.038149297, 9.999219, 10.000438 
2.4251248e+3, 1.775898e+2, -1328161.5, -1259471.1, -31613.938, -0.3836112, 0.057624914, -1247136.3, -47515.53, 0.01570925, 9.9985695, 9.999804 
2.4247211e+3, 1.875807e+2, -973724.4, -969456.1, 25268.719, -0.23206347, -0.084069416, -946231.56, 155469.5, 0.0064830934, 10.000148, 10.000276 
2.4243203e+3, 1.9757095e+2, -799689.25, -1056680.0, -9241.388, 0.1237374, -0.26068643, -799357.3, 204428.78, 0.0021827125, 10.001542, 9.998402 
2.4239156e+3, 2.0756094e+2, -930905.3, -1312226.9, 88401.5, -0.03271213, -0.18037638, -911408.2, -5519.604, 0.00044835047, 10.001156, 9.996088 
2.4235098e+3, 2.1755078e+2, -1064729.5, -1317820.6, 103066.01, -0.38202688, 0.008677447, -1028068.56, -220069.8, 0.000068581576, 9.999474, 9.996249 
2.4231067e+3, 2.2754247e+2, -743570.1, -678157.7, -801.7013, -0.3151946, 0.09532451, -678147.9, 31937.377, 0.0000096515805, 9.999244, 9.999989 
2.4227057e+3, 2.3753436e+2, -883435.7, -858825.5, -46387.938, -0.02169319, 0.11737559, -823138.4, -210971.25, 0.00000040342232, 9.998258, 9.9986105 
2.422302e+3, 2.4752623e+2, -659284.75, -616662.5, -10073.544, -0.05496865, 0.16920961, -614401.56, -100152.74, 0.0, 9.99886, 9.999214 
2.4218982e+3, 2.575178e+2, -703124.0, -724698.5, 9037.488, -0.19255379, 0.2189819, -699838.56, -283505.16, 0.0, 9.998467, 9.998036 
2.4214937e+3, 2.6750788e+2, -322148.13, -329846.5, -101870.06, -0.024366949, 0.12611288, -224054.56, 94372.164, 0.0, 9.999851, 9.999296 
2.4210888e+3, 2.7749744e+2, -372914.0, -434764.72, -53877.277, 0.23698546, -0.072565846, -341717.4, -121194.58, 0.0, 9.999309, 9.998252 
2.4206834e+3, 2.8748712e+2, -131609.8, -260564.7, 30717.914, 0.1219213, -0.12522773, -124666.445, -2043.6582, 0.0000000009564638, 10.000408, 9.998137 
2.4202825e+3, 2.974783e+2, -486027.88, -713942.25, 228374.17, 0.12816964, -0.02508855, -344757.7, -320047.3, 0.0000004799063, 9.998823, 9.995548 
2.4198909e+3, 3.0746475e+2, -403968.03, -473213.28, 104644.38, 0.42830145, -0.13748033, -328367.38, -328367.38, 0.0000055147566, 9.998525, 9.997286 
2.4371445e+3, 1.2803298e+2, -1929086.5, -1825604.4, 108719.5, 0.052697282, -0.58019954, -1756941.6, -71693.336, 0.39271495, 9.99803, 9.999363 
2.4367349e+3, 1.3802786e+2, -1498437.4, -1716040.6, 38696.75, -0.42849818, -0.22378683, -1491760.6, 95547.69, 0.26710206, 10.001182, 9.998066 
2.4363323e+3, 1.4801982e+2, -1335177.4, -1531687.1, 92319.99, -0.35090914, -0.0862024, -1298610.1, 190784.25, 0.15331793, 10.001419, 9.998518 
2.4359319e+3, 1.580109e+2, -1461057.4, -1594380.4, 77563.16, -0.14972664, -0.019916076, -1425445.8, -33957.367, 0.07196278, 9.999727, 9.9983 
2.4355264e+3, 1.6800223e+2, -1288175.8, -1235470.8, -53569.58, -0.050636686, -0.048087176, -1202122.8, 91450.805, 0.027363949, 9.999358, 10.000216 
2.4351192e+3, 1.7799345e+2, -1340072.4, -1314654.6, -5770.7227, -0.054584533, -0.12567389, -1313405.9, -117748.4, 0.009079448, 9.998733, 9.999323 
2.4347146e+3, 1.8798466e+2, -1027069.94, -1129133.3, 95643.87, -0.14074214, -0.13435058, -969695.06, 128045.555, 0.002868925, 10.000379, 9.999054 
2.4343112e+3, 1.9797543e+2, -717093.2, -1051328.8, 31910.553, -0.23913783, -0.14156802, -714073.8, 285753.6, 0.00059867656, 10.002238, 9.998104 
2.4339065e+3, 2.0796473e+2, -747481.0, -1042022.2, 31173.71, -0.29839054, -0.21775709, -744217.75, 157712.7, 0.000045539302, 10.001585, 9.997751 
2.433502e+3, 2.179536e+2, -949014.6, -1168104.5, 96378.305, -0.38614875, -0.2718494, -912652.5, -108612.836, 0.0000022398012, 9.999826, 9.997093 
2.4330996e+3, 2.2794458e+2, -887469.7, -1004935.5, 20477.152, -0.15541928, -0.13302934, -884002.4, -177866.38, 0.000000052409952, 9.999343, 9.997705 
2.4326989e+3, 2.3793606e+2, -806148.8, -892656.4, -33461.184, 0.15834555, 0.055191938, -794716.75, -186488.08, 0.0, 9.999054, 9.997994 
2.4322937e+3, 2.4792735e+2, -646739.9, -472093.53, -23307.695, 0.05577973, 0.0051202183, -469036.5, 41276.91, 0.0, 9.998298, 10.000509 
2.4318877e+3, 2.5791863e+2, -744389.5, -547766.0, 30134.662, -0.21684909, -0.09936918, -543251.2, -130856.03, 0.0, 9.997251, 9.999844 
2.4314831e+3, 2.679105e+2, -369726.56, -306009.1, -13432.499, -0.21458007, -0.097093835, -303293.1, 11179.312, 0.0, 9.999214, 9.999815 
2.4310793e+3, 2.7790242e+2, 75884.21, -148633.14, 24898.836, -0.068277776, -0.08060971, 78612.32, 295162.28, 0.0, 10.00197, 9.998951 
2.4306765e+3, 2.878925e+2, 247525.44, -76191.19, 110252.66, 0.016782383, -0.1041757, 281508.28, 400157.16, 0.0, 10.002879, 9.998268 
2.4302766e+3, 2.9788285e+2, 164368.25, -118787.305, 294489.13, 0.16036391, -0.121384926, 349544.38, 370290.5, 0.000000008678429, 10.001946, 9.998149 
2.429878e+3, 3.0787715e+2, -479057.3, -168303.2, -44898.53, 0.21143885, 0.2868526, -161946.2, -161946.2, 0.0000009202062, 9.9962015, 10.000659 
2.4475388e+3, 1.184537e+2, -1814489.5, -1712703.5, -228506.28, -0.42303497, 0.081289865, -1529491.4, 249636.89, 0.4945417, 9.999099, 10.001357 
2.4471347e+3, 1.284397e+2, -1676462.9, -1917060.9, -16544.336, -0.09383929, -0.44084218, -1675330.5, 5938.833, 0.3775347, 10.000772, 9.997464 
2.4467282e+3, 1.3843317e+2, -1784078.8, -1922551.1, -28856.473, -0.2803505, -0.059961155, -1778305.9, -194962.38, 0.25111946, 9.999212, 9.997595 
2.446325e+3, 1.4842397e+2, -1583716.5, -1601751.4, 15054.12, -0.30350974, -0.07224089, -1575185.8, -89749.83, 0.13882844, 9.999251, 9.999049 
2.4459228e+3, 1.5841383e+2, -1515666.0, -1574105.9, -34401.152, -0.1595767, -0.17744827, -1499750.1, -112214.65, 0.060861234, 9.999186, 9.998675 
2.4455178e+3, 1.6840571e+2, -1313097.1, -1278688.4, -151620.34, -0.027989086, -0.15867819, -1143299.5, 146315.67, 0.02025213, 9.999427, 9.999837 
2.4451116e+3, 1.7839774e+2, -1287556.0, -1357883.8, -101674.945, 0.088330574, -0.11835002, -1215136.0, -23442.68, 0.0052852775, 9.999414, 9.998699 
2.4447075e+3, 1.883888e+2, -1138695.9, -1286663.4, 66180.68, -0.06980331, -0.08023491, -1113415.0, -19632.203, 0.0012089658, 10.000068, 9.998145 
2.4443044e+3, 1.9837949e+2, -976995.4, -1189222.4, 295.90778, -0.26107025, -0.01830439, -976995.0, 18880.107, 0.00012403581, 10.000557, 9.997964 
2.4438994e+3, 2.083693e+2, -700839.9, -833976.1, -51729.45, -0.3282048, -0.1714723, -683103.5, 214865.13, 0.000001917801, 10.001156, 9.999339 
2.4434951e+3, 2.1835843e+2, -786964.4, -1056291.8, 13126.352, -0.28351814, -0.34837645, -786326.2, 13741.495, 0.000000018702426, 10.000822, 9.997365 
2.4430928e+3, 2.2834858e+2, -698328.9, -1053434.5, 52608.227, -0.03377555, -0.2370634, -690699.0, 11473.097, 0.0, 10.001229, 9.996443 
2.4426916e+3, 2.3833898e+2, -649437.8, -901550.2, 74300.77, 0.2811525, -0.048304845, -629169.8, -24892.08, 0.0, 10.000532, 9.997213 
2.4422851e+3, 2.483303e+2, -374468.03, -226962.36, 53996.73, 0.120018326, -0.13938722, -209308.81, 297050.34, 0.0, 9.9997835, 10.001424 
2.4418777e+3, 2.5832182e+2, -653115.8, -493200.28, 98876.85, -0.19122763, -0.29930186, -445997.22, -37562.84, 0.0, 9.997918, 9.999884 
2.4414732e+3, 2.6831466e+2, -356087.25, -310544.88, 110121.56, -0.34802583, -0.19888477, -220864.8, 89640.164, 0.0, 9.99942, 9.999666 
2.4410705e+3, 2.7830777e+2, -197581.7, -298932.16, 67675.43, -0.32263902, -0.060707886, -163711.42, 48863.945, 0.0, 10.000239, 9.998769 
2.4406704e+3, 2.8829834e+2, -18604.338, -117372.33, 94055.81, -0.03693119, -0.12310238, 38243.84, 152915.23, 0.0, 10.000746, 9.998984 
2.44027e+3, 2.9828912e+2, -439591.7, -288724.97, 185867.11, 0.13887163, -0.17538132, -163567.27, -146802.02, 0.0, 9.997382, 9.99919 
2.4398613e+3, 3.0828762e+2, -280242.03, 394019.75, -90352.55, -0.3252964, 0.26291493, 405917.25, 405917.25, 0.00000009984614, 9.995972, 10.004459 
2.4575324e+3, 1.188532e+2, -1883000.4, -1742464.1, -114032.76, -0.25551245, -0.31628618, -1678787.9, 96436.875, 0.48539782, 9.9983835, 10.00097 
2.4571255e+3, 1.2884454e+2, -1711799.4, -1970520.3, -106824.016, -0.3123745, -0.25943175, -1673393.6, 3920.6355, 0.36593348, 10.000725, 9.997099 
2.4567235e+3, 1.3883932e+2, -1762586.5, -1933172.5, -43394.016, 0.03475791, 0.2876568, -1752182.4, -172808.45, 0.23856215, 9.999518, 9.997348 
2.4563186e+3, 1.4882839e+2, -1518327.4, -1509055.3, 27307.521, -0.08959885, 0.06842263, -1485993.0, -4515.6665, 0.1275105, 9.999454, 9.999566 
2.455914e+3, 1.5881619e+2, -1510066.4, -1545677.6, -30478.314, -0.2343925, -0.29288954, -1492573.6, -108982.61, 0.052560914, 9.999156, 9.998861 
2.4555081e+3, 1.6880873e+2, -1319122.8, -1345441.5, -145136.03, -0.17215906, -0.17780039, -1186550.8, 99114.75, 0.01541553, 9.999659, 9.999259 
2.4551016e+3, 1.7880191e+2, -1297714.4, -1417951.0, -69790.89, -0.110347025, 0.042030994, -1265718.8, -77983.16, 0.0031067657, 9.999585, 9.998201 
2.4547002e+3, 1.8879247e+2, -1135040.9, -1315390.5, 96454.99, -0.043310214, 0.07254276, -1093173.8, -3340.0469, 0.00048131414, 10.000227, 9.997866 
2.4543001e+3, 1.987824e+2, -911700.4, -1096639.4, 29663.363, -0.019157792, 0.0712316, -907059.0, 84878.08, 0.000015932997, 10.000735, 9.998492 
2.453895e+3, 2.0877418e+2, -573343.94, -618907.44, -42401.66, -0.112150095, 0.013523689, -547991.4, 346018.72, 0.0000000054715246, 10.001363, 10.000718 
2.4534898e+3, 2.1876593e+2, -517985.28, -734642.25, 22278.297, -0.22105537, -0.040461075, -515718.16, 280363.7, 0.0, 10.001787, 9.999124 
2.4530864e+3, 2.2875565e+2, -487179.4, -796171.44, 68593.55, -0.07019186, -0.11339266, -472636.7, 225548.3, 0.0, 10.001933, 9.997919 
2.4526839e+3, 2.3874508e+2, -379259.66, -617058.75, 97740.695, 0.11577118, -0.15151453, -344242.53, 256051.0, 0.0, 10.0016365, 9.998656 
2.4522768e+3, 2.4873771e+2, -263973.16, -201814.77, 48364.887, 0.024589242, -0.12659761, -175404.14, 326956.34, 0.0, 10.000593, 10.001251 
2.4518691e+3, 2.587308e+2, -451578.06, -427888.25, 109625.875, -0.17027593, -0.091157906, -329469.22, 74951.76, 0.0, 9.999326, 9.999684 
2.4514672e+3, 2.687214e+2, -406993.7, -519089.0, 149024.73, -0.11173567, -0.09038345, -303825.44, 2691.246, 0.0, 9.999748, 9.9981365 
2.4510671e+3, 2.787119e+2, -134255.33, -267882.7, 51154.516, 0.035025664, -0.08120194, -116921.2, 91694.8, 0.0, 10.000553, 9.998856 
2.4506636e+3, 2.887037e+2, -55314.336, 59.491673, 1801.055, 0.057074565, -0.096001185, 118.00984, 110816.53, 0.0, 9.999784, 10.000307 
2.4502598e+3, 2.986958e+2, -213993.6, -136246.06, 89874.875, 0.0221572, -0.1072356, -77198.11, -64421.023, 0.0, 9.998523, 9.999731 
2.4498564e+3, 3.0868995e+2, 413949.3, 572445.9, -88949.516, -0.0010628878, 0.08130948, 612329.06, 612329.06, 0.000000000000427524, 10.001116, 10.003296 
2.467524e+3, 1.1925664e+2, -2183801.8, -1819202.8, 95201.92, -0.054682303, -0.15012875, -1795841.1, -24558.934, 0.47722325, 9.996034, 10.001148 
2.4671163e+3, 1.2924929e+2, -1743458.0, -1889163.9, -126022.35, -0.4650365, -0.01681015, -1670745.9, 2609.3403, 0.3557266, 9.999984, 9.998069 
2.4667156e+3, 1.3924173e+2, -1533671.9, -1757176.0, -53079.24, 0.031595904, 0.22830835, -1521706.9, 53725.54, 0.22774403, 10.000865, 9.997944 
2.4663109e+3, 1.4923103e+2, -1488467.3, -1511397.5, -28314.008, -0.03811361, 0.022937968, -1469385.3, 8147.545, 0.11809006, 9.999747, 9.999415 
2.4659057e+3, 1.5921974e+2, -1625013.8, -1613561.0, -88109.46, -0.1354916, -0.23311791, -1530992.0, -151354.16, 0.04605504, 9.998391, 9.998777 
2.4654998e+3, 1.6921215e+2, -1275581.6, -1349194.6, -138301.36, -0.14598265, -0.12819612, -1169272.9, 112441.26, 0.012013259, 10.000049, 9.99905 
2.4650942e+3, 1.7920516e+2, -980070.4, -1259644.4, -58974.195, -0.108305454, 0.08728846, -968139.3, 215646.47, 0.0018483637, 10.001723, 9.998272 
2.4646929e+3, 1.8919557e+2, -1063029.4, -1236147.5, 112178.27, -0.020401139, 0.062367085, -1007897.06, 77986.81, 0.00018026956, 10.000485, 9.998304 
2.464293e+3, 1.991856e+2, -1226977.4, -1223876.8, 118372.13, 0.10566811, 0.037542287, -1107044.8, -119059.37, 0.0000007906511, 9.998505, 9.998705 
2.4638887e+3, 2.0917822e+2, -786854.2, -715532.44, 17683.014, -0.012867547, 0.049148064, -711389.0, 178663.83, 0.0, 9.999889, 10.000788 
2.463484e+3, 2.1917109e+2, -635680.94, -738954.06, -41095.293, -0.13292746, 0.08911029, -621323.9, 170792.03, 0.0, 10.000859, 9.99953 
2.4630795e+3, 2.2916165e+2, -648533.8, -702625.25, -47935.25, -0.0632946, -0.03350293, -620540.8, 73666.24, 0.0, 10.000256, 9.999295 
2.4626757e+3, 2.3915169e+2, -809649.4, -813715.8, -28360.07, 0.06539191, -0.13911474, -783249.7, -186945.14, 0.0, 9.998727, 9.9986925 
2.4622686e+3, 2.4914412e+2, -258439.67, -333847.28, -112736.44, -0.06412825, -0.0832234, -177269.25, 321104.78, 0.0, 10.001232, 10.000032 
2.4618615e+3, 2.591369e+2, -121316.234, -436593.13, -116350.48, -0.18346018, 0.018905345, -83027.875, 317412.16, 0.0, 10.002383, 9.998148 
2.4614617e+3, 2.6912594e+2, -348421.9, -597184.25, -5948.098, 0.09708794, -0.06429123, -348279.78, -45727.47, 0.0, 10.00068, 9.9971 
2.4610627e+3, 2.791152e+2, -579989.1, -537948.2, -10846.027, 0.4051605, -0.09608418, -535315.0, -330650.28, 0.0, 9.997834, 9.998296 
2.460655e+3, 2.8910866e+2, -69322.53, 105327.43, -59995.996, 0.030694501, -0.03542684, 123951.36, 230680.77, 0.0, 9.999274, 10.001253 
2.4602503e+3, 2.9910037e+2, -452426.47, -509446.84, 47504.133, -0.049776033, -0.08355304, -425533.8, -416723.8, 0.0, 9.998183, 9.997303 
2.459854e+3, 3.0908853e+2, -208817.0, -37453.348, 52345.957, 0.40583792, -0.22131564, -22728.629, -22728.629, 0.0, 9.998581, 10.000159 
2.4775149e+3, 1.19663455e+2, -2061475.6, -1804161.9, 330761.78, 0.08449551, 0.43341035, -1577916.0, 189389.23, 0.4678463, 9.997226, 10.001383 
2.4771062e+3, 1.2965387e+2, -1682994.1, -1717916.3, -38284.45, -0.69867206, 0.25309148, -1658376.9, 11017.655, 0.34520847, 9.99991, 9.999231 
2.4767064e+3, 1.3964142e+2, -1547296.3, -1725334.6, -39200.996, -0.23633376, -0.08740062, -1539047.1, 32465.615, 0.21743059, 10.000599, 9.998273 
2.4763018e+3, 1.4963235e+2, -1508627.9, -1568936.5, -69862.164, -0.13545932, -0.108526066, -1462690.1, 10909.3545, 0.109704144, 9.99988, 9.998923 
2.4758972e+3, 1.5962374e+2, -1609419.8, -1620849.4, -60593.52, -0.07069837, -0.05246679, -1554272.1, -178589.69, 0.040704507, 9.998601, 9.9986105 
2.4754931e+3, 1.6961512e+2, -1224164.1, -1305679.0, -46172.86, -0.05899939, -0.055824522, -1203333.4, 74434.85, 0.00953522, 10.000311, 9.999229 
2.4750887e+3, 1.7960659e+2, -904073.4, -1123257.6, -34136.215, -0.090896115, -0.02100104, -898880.0, 280972.97, 0.0011160366, 10.00182, 9.99916 
2.474685e+3, 1.8959773e+2, -949256.7, -1010910.0, 39298.082, -0.093289465, -0.10052421, -930137.2, 151798.31, 0.00006263998, 10.000537, 9.999828 
2.474282e+3, 1.9958882e+2, -1176269.1, -1141946.3, 117040.836, -0.10985298, -0.1418622, -1040815.4, -56796.42, 0.0000000031066179, 9.998607, 9.999214 
2.4738796e+3, 2.0958039e+2, -850626.25, -913518.94, 101375.46, -0.12831578, -0.13569619, -775931.9, 110171.24, 0.0, 10.000136, 9.999346 
2.4734771e+3, 2.1957208e+2, -542436.06, -706803.44, -34169.168, -0.1687409, -0.08518109, -535615.9, 252570.08, 0.0, 10.001507, 9.99945 
2.473072e+3, 2.2956502e+2, -592459.06, -570867.9, -127041.67, -0.039751783, -0.02746678, -454163.9, 236089.56, 0.0, 10.000142, 10.000282 
2.4726668e+3, 2.3955731e+2, -805007.6, -856697.94, -26622.904, 0.056205563, 0.0355655, -793748.2, -201420.81, 0.0, 9.998884, 9.998332 
2.472261e+3, 2.4954556e+2, -338871.6, -701085.2, -28319.904, -0.1978586, -0.10146843, -336670.75, 157772.5, 0.0, 10.002041, 9.997148 
2.471856e+3, 2.5953367e+2, 241405.97, -329297.0, -190740.17, -0.43364692, -0.22447176, 299285.16, 695845.8, 0.0, 10.005074, 9.997597 
2.4714535e+3, 2.6952484e+2, -74423.65, -298987.9, -232952.89, -0.08207204, -0.18921408, 71894.93, 370544.3, 0.0, 10.001774, 9.998648 
2.471051e+3, 2.7951753e+2, -413202.97, -261909.94, -90162.74, 0.20972607, -0.031906396, -219863.14, -19139.568, 0.0, 9.998053, 10.000086 
2.470646e+3, 2.8951168e+2, 110687.89, 233736.81, -6158.219, -0.075361796, 0.020846033, 234044.23, 336825.7, 0.0, 10.000155, 10.001802 
2.4702466e+3, 2.995031e+2, 252331.55, -135837.42, 53912.984, 0.16200794, -0.0849664, 259680.42, 264546.03, 0.0, 10.00267, 9.997764 
2.469843e+3, 3.0949086e+2, 241278.08, 132651.52, 25967.701, 0.009748183, -0.18852334, 247166.58, 247166.58, 0.0, 10.001515, 10.000053 
2.4875051e+3, 1.20063886e+2, -1768358.0, -1673210.0, 221445.06, -0.022589348, 0.046404447, -1494286.4, 269081.75, 0.45571515, 9.999289, 10.001507 
2.4870993e+3, 1.3005576e+2, -1713233.0, -1710753.8, 94778.586, -0.55344546, -0.0020373256, -1617206.8, 48237.77, 0.33319858, 9.999501, 9.999609 
2.4867019e+3, 1.4004451e+2, -1445340.5, -1629306.6, 46285.363, 0.054570317, -0.2500757, -1434351.6, 133201.14, 0.20679392, 10.001278, 9.998639 
2.4862954e+3, 1.5003632e+2, -1332888.3, -1534347.8, -24596.877, -0.019314347, -0.1512663, -1329928.6, 139707.28, 0.10179194, 10.001377, 9.998487 
2.4858892e+3, 1.6002822e+2, -1314377.0, -1506175.8, 11088.307, -0.04421652, 0.008440971, -1313738.1, 57980.426, 0.036105353, 10.000764, 9.998358 
2.4854855e+3, 1.700188e+2, -1233239.0, -1345865.4, 34853.33, -0.033809695, -0.03190672, -1223325.8, 50487.234, 0.0076701324, 10.000426, 9.9989 
2.4850823e+3, 1.8000929e+2, -1151685.0, -1241275.8, 8569.7, -0.01588081, -0.05887178, -1150872.8, 25034.514, 0.000687035, 10.000147, 9.999132 
2.484678e+3, 1.9000058e+2, -785614.2, -872405.8, -29673.81, -0.06654889, -0.17684063, -776438.75, 301545.9, 0.000019881356, 10.001472, 10.000278 
2.4842742e+3, 1.9999188e+2, -715865.0, -944422.94, -721.4844, -0.095401555, -0.23708053, -715862.7, 264199.8, 0.0, 10.001915, 9.998945 
2.4838719e+3, 2.0998326e+2, -900830.2, -1023763.75, 44272.39, -0.1371032, -0.20305066, -886546.0, -4394.1196, 0.0, 10.000245, 9.998465 
2.4834695e+3, 2.199747e+2, -1055177.4, -1034500.9, -71024.266, -0.13680357, -0.10316311, -973066.4, -188825.1, 0.0, 9.998355, 9.998707 
2.4830638e+3, 2.2996758e+2, -672284.4, -623081.5, -236569.98, -0.05327449, -0.04401317, -409837.22, 276471.53, 0.0, 9.999625, 10.000183 
2.4826577e+3, 2.3996009e+2, -699195.1, -901828.9, -112277.79, 0.013277196, 0.053105384, -649279.06, -60899.465, 0.0, 10.000107, 9.997422 
2.4822539e+3, 2.4994676e+2, -651676.56, -991952.06, 91583.57, -0.2695888, -0.14943166, -628593.2, -138078.56, 0.0, 10.000566, 9.995822 
2.4818511e+3, 2.5993297e+2, -506201.22, -759017.1, -31566.482, -0.47991738, -0.33707556, -502319.44, -109664.59, 0.0, 10.000333, 9.996927 
2.4814458e+3, 2.6992556e+2, -83064.58, -194172.28, -238836.0, -0.1911049, -0.20690344, 106593.445, 401320.22, 0.0, 10.001318, 9.999574 
2.48104e+3, 2.799197e+2, -75811.414, -113765.016, -83508.336, 0.009788041, 0.035004802, -9150.831, 187632.84, 0.0, 10.000504, 9.999927 
2.4806374e+3, 2.89913e+2, 34595.24, 193358.19, 498.47098, -0.1596113, -0.006045307, 193359.75, 292211.1, 0.0, 9.9998255, 10.001603 
2.4802423e+3, 2.9990596e+2, -409550.1, -435094.8, -65355.81, 0.3240168, 0.033398144, -355730.28, -354808.66, 0.0, 9.99819, 9.997842 
2.4798323e+3, 3.098971e+2, 124962.25, 192257.56, -174754.77, -0.5017642, 0.09293881, 336574.5, 336574.5, 0.0, 10.000296, 10.001053 
2.4974948e+3, 1.2046268e+2, -1749758.1, -1621732.3, 54659.727, -0.2727446, -0.5322409, -1601570.8, 157867.94, 0.43991756, 9.998861, 10.001829 
2.4970943e+3, 1.3045682e+2, -1666194.5, -1648674.4, 159868.4, -0.24616008, -0.41038653, -1497326.3, 164170.03, 0.31901658, 9.999828, 10.000041 
2.4967e+3, 1.404496e+2, -1481543.3, -1672938.6, 54781.863, 0.46906966, -0.28368306, -1466972.6, 96597.82, 0.19536594, 10.00111, 9.998391 
2.4962905e+3, 1.5044153e+2, -1387081.3, -1603010.1, -36545.188, 0.13547668, -0.14005925, -1381063.8, 84593.9, 0.094030365, 10.001164, 9.998096 
2.4958809e+3, 1.604328e+2, -1378176.3, -1600545.4, 4834.9126, -0.19759846, 0.004845394, -1378071.3, -10320.298, 0.032013185, 10.000612, 9.997766 
2.4954773e+3, 1.704229e+2, -1262421.1, -1433671.1, 36350.89, -0.120906286, -0.026779875, -1255024.4, 14827.888, 0.0062260167, 10.000556, 9.998211 
2.4950747e+3, 1.8041295e+2, -1177540.1, -1307785.5, 48284.21, -0.046305776, -0.03389835, -1161593.0, 10359.073, 0.00043419475, 10.000211, 9.99863 
2.4946728e+3, 1.9040346e+2, -775946.3, -931577.56, 40512.164, 0.012574005, -0.17242704, -766032.2, 308006.78, 0.0000058323185, 10.001793, 9.99972 
2.4942702e+3, 2.0039427e+2, -628487.1, -928825.8, -27909.564, 0.019052597, -0.22350684, -625915.6, 350207.94, 0.000000000090419006, 10.0026, 9.998718 
2.4938652e+3, 2.1038675e+2, -845708.3, -997490.94, -53160.785, -0.073460184, -0.07215868, -828941.3, 49260.45, 0.0, 10.000563, 9.998502 
2.4934597e+3, 2.2037862e+2, -1056887.9, -1089298.5, -98419.805, -0.19835295, 0.07790471, -973348.2, -193062.22, 0.0, 9.998535, 9.998234 
2.4930537e+3, 2.3036732e+2, -725400.9, -831842.4, -184095.4, -0.2286075, -0.13777402, -586987.7, 95405.92, 0.0, 10.0000105, 9.998582 
2.4926484e+3, 2.4035662e+2, -415513.88, -634936.4, -130386.53, -0.24497157, -0.26658377, -354822.06, 229673.44, 0.0, 10.00144, 9.99861 
2.4922478e+3, 2.503497e+2, -462298.28, -556998.3, 59684.95, -0.15419629, -0.09011614, -433462.22, 53104.02, 0.0, 10.000301, 9.998968 
2.4918467e+3, 2.6034197e+2, -540330.5, -629224.3, 48384.44, -0.0694375, 0.08324624, -519076.72, -130431.86, 0.0, 9.999385, 9.9982815 
2.491442e+3, 2.7033207e+2, -55768.164, -305747.34, -74273.51, 0.038813427, 0.02957475, -35365.348, 255377.23, 0.0, 10.001969, 9.998527 
2.4910356e+3, 2.803221e+2, 291804.34, -176037.64, -71129.16, 0.029275991, 0.009673956, 302379.53, 495220.63, 0.0, 10.003922, 9.997881 
2.4906294e+3, 2.9031244e+2, -142947.05, -307182.56, -182669.48, -0.19568121, 0.027995223, -24786.342, 70156.3, 0.0, 10.000286, 9.997995 
2.490231e+3, 3.0030406e+2, -471457.47, -447412.3, -136946.05, 0.18332148, 0.17446186, -321962.13, -321962.13, 0.0, 9.997568, 9.998084 
2.4898289e+3, 3.1029534e+2, 626199.5, 604731.44, -132995.83, -0.2671933, 0.15432867, 748893.75, 748893.75, 0.0, 10.002713, 10.002838 
2.5074884e+3, 1.2086876e+2, -1692902.8, -1651111.9, 355.47083, -0.07279921, -0.44622394, -1651108.9, 104349.445, 0.42027465, 9.999787, 10.001035 
2.507088e+3, 1.3086051e+2, -1656982.4, -1787267.5, 123586.93, -0.10548971, -0.41168866, -1582420.8, 75121.195, 0.30251706, 10.000518, 9.998593 
2.5066882e+3, 1.408522e+2, -1486155.4, -1707473.4, -103783.25, 0.0071655186, -0.2784936, -1445102.9, 114525.45, 0.18302314, 10.00107, 9.998237 
2.506281e+3, 1.5084486e+2, -1412728.9, -1564522.4, -190922.05, -0.06598139, -0.12922764, -1283171.1, 178535.55, 0.08629053, 10.000658, 9.998682 
2.505874e+3, 1.6083694e+2, -1426545.3, -1622585.9, -71288.195, -0.11499243, 0.037681237, -1403363.3, -39572.184, 0.028287582, 10.000229, 9.997812 
2.5054708e+3, 1.7082661e+2, -1165866.8, -1460641.8, -21672.885, -0.06055154, -0.01207524, -1164281.9, 101615.625, 0.0050760456, 10.00145, 9.997632 
2.5050685e+3, 1.808162e+2, -958231.3, -1246661.0, 5021.6694, 0.017324306, -0.019720728, -958143.9, 209859.03, 0.00028139996, 10.001938, 9.998232 
2.5046661e+3, 1.9080722e+2, -1002482.8, -1086352.9, -3189.0266, 0.03842645, -0.068985716, -1002361.75, 67725.875, 0.0000014559199, 10.000514, 9.999277 
2.5042638e+3, 2.0079817e+2, -1148012.5, -1214201.3, -68946.266, 0.06054861, -0.059042126, -1104629.3, -132456.48, 0.0, 9.99922, 9.998404 
2.5038573e+3, 2.1079014e+2, -923758.25, -1005950.1, -107053.48, -0.06455998, 0.02494374, -850183.7, 24069.11, 0.0, 9.9999895, 9.998706 
2.5034508e+3, 2.2078155e+2, -863982.1, -1065071.8, -82505.99, -0.1860779, 0.1372686, -834463.5, -58124.977, 0.0, 10.000209, 9.997604 
2.5030455e+3, 2.307684e+2, -716552.7, -922873.0, -62069.223, -0.28098235, -0.19008155, -699319.25, -20855.13, 0.0, 10.000537, 9.997686 
2.5026408e+3, 2.4075642e+2, -577781.1, -663828.44, -14943.92, -0.3038459, -0.38209888, -575259.7, 5318.605, 0.0, 10.000147, 9.999033 
2.5022408e+3, 2.5075293e+2, -414771.34, -300453.94, 9385.457, -0.050083667, -0.038454358, -299688.53, 182924.31, 0.0, 9.999685, 10.000999 
2.5018406e+3, 2.6074898e+2, -610702.0, -633558.9, -27465.79, 0.19735985, 0.34875393, -592381.8, -207729.34, 0.0, 9.998826, 9.998524 
2.5014365e+3, 2.7073723e+2, -394176.13, -561214.25, -33186.395, 0.16957565, 0.14009242, -387824.34, -101054.984, 0.0, 10.000062, 9.997699 
2.5010315e+3, 2.8072456e+2, -369497.75, -759188.5, -79952.92, 0.09561451, -0.021682365, -353731.66, -164834.95, 0.0, 10.000624, 9.995444 
2.500623e+3, 2.9071262e+2, -180271.73, -686303.4, -147404.77, -0.13206124, 0.04427876, -140464.8, -49441.25, 0.0, 10.00164, 9.994711 
2.5002193e+3, 3.007015e+2, -54026.516, -300010.25, 142166.28, -0.07828435, 0.19270982, 10966.325, 10966.325, 0.0, 10.000831, 9.997484 
2.4998261e+3, 3.106921e+2, 105830.8, 429579.4, 246503.89, -0.046917107, -0.050635356, 562607.56, 562607.56, 0.0, 9.9991255, 10.003248 
2.5174868e+3, 1.21277645e+2, -1789043.0, -1784614.3, -69707.305, 0.5036382, 0.031450346, -1717086.1, 34373.32, 0.39734322, 9.999613, 9.99971 
2.5170797e+3, 1.3126403e+2, -1784557.4, -2095415.4, 184250.13, -0.21270016, -0.28188238, -1698933.9, -45335.684, 0.28406283, 10.000615, 9.99632 
2.5166717e+3, 1.4125262e+2, -1563407.6, -1766110.5, -86022.79, -1.022014, -0.2845793, -1531822.9, 23892.92, 0.16993596, 10.000564, 9.998021 
2.5162697e+3, 1.512468e+2, -1319857.3, -1361079.6, -174226.1, -0.49817777, -0.101770945, -1165027.4, 292747.13, 0.078587286, 10.000657, 10.000087 
2.515868e+3, 1.6124028e+2, -1387885.3, -1575547.1, -35680.965, -0.0012498872, 0.1113947, -1381330.0, -21489.055, 0.024857625, 10.000393, 9.998044 
2.515466e+3, 1.7122947e+2, -1152374.1, -1468313.5, 47271.703, 0.045556355, 0.025660625, -1145452.9, 116499.85, 0.0041356636, 10.001623, 9.997487 
2.5150627e+3, 1.8121895e+2, -956407.2, -1254715.5, -27743.484, 0.004458787, 0.024096772, -953848.9, 210211.83, 0.00018434241, 10.002002, 9.998128 
2.5146577e+3, 1.9121161e+2, -1024178.6, -1134246.3, -56770.31, -0.08237426, 0.17021902, -1000145.44, 65988.08, 0.00000026313862, 10.000521, 9.998947 
2.5142527e+3, 2.012035e+2, -1115196.3, -1156644.8, -72215.125, -0.17927389, 0.2901759, -1060790.5, -92578.664, 0.0, 9.999267, 9.998769 
2.5138482e+3, 2.1119262e+2, -837718.56, -920945.1, -51567.402, -0.20088819, 0.059799906, -813068.25, 57244.65, 0.0, 10.000368, 9.999132 
2.513444e+3, 2.2118208e+2, -635285.3, -865794.5, -61002.895, -0.2100937, -0.06522608, -620136.8, 152274.55, 0.0, 10.0013275, 9.998453 
2.51304e+3, 2.3117271e+2, -580522.4, -774513.5, -48157.414, -0.113280766, -0.08234833, -569225.44, 105274.44, 0.0, 10.001042, 9.998494 
2.512636e+3, 2.411633e+2, -510411.53, -646728.0, 7994.043, -0.077297546, -0.0652505, -509944.3, 66644.3, 0.0, 10.000617, 9.998923 
2.512232e+3, 2.5115418e+2, -438850.6, -470040.1, -13922.028, -0.16368209, -0.16102576, -433540.34, 45134.32, 0.0, 10.000111, 9.999668 
2.5118285e+3, 2.6114574e+2, -456093.53, -517936.28, -89008.35, -0.17427449, -0.14012033, -392788.5, -12033.429, 0.0, 9.999615, 9.998964 
2.511427e+3, 2.7113757e+2, -410647.44, -456517.53, -58820.414, 0.056301016, -0.07164679, -370448.84, -87611.42, 0.0, 9.999359, 9.998812 
2.5110248e+3, 2.8112805e+2, -324359.88, -554565.7, 23156.553, 0.19338864, -0.035612404, -322053.66, -137120.48, 0.0, 10.000037, 9.997153 
2.51062e+3, 2.9111502e+2, 311324.5, -295195.28, 106701.13, 0.038549576, -0.22122827, 329548.2, 416611.3, 0.0, 10.00418, 9.99624 
2.5102177e+3, 3.011034e+2, 700010.94, 57071.74, 235763.33, 0.06684347, -0.21380517, 777197.94, 777197.94, 0.0, 10.005915, 9.997515 
2.50982e+3, 3.1109604e+2, -218010.03, -11049.9795, 153051.2, 0.24083637, -0.04528235, 70220.61, 70220.61, 0.0, 9.997938, 10.000843 
2.527479e+3, 1.216794e+2, -1597639.4, -1721823.8, -76076.88, 0.44010848, 0.012093533, -1561532.1, 185998.84, 0.3720952, 10.00155, 9.999284 
2.5270736e+3, 1.3166857e+2, -1649564.5, -1936087.4, 125210.445, -0.1159013, -0.09489156, -1602559.0, 47082.902, 0.26429757, 10.00115, 9.997196 
2.5266668e+3, 1.4165877e+2, -1648637.4, -1727188.5, 17221.773, -0.7003197, -0.019990806, -1645027.5, -93285.484, 0.15642525, 9.999614, 9.998716 
2.526263e+3, 1.516503e+2, -1321261.6, -1377412.8, -109651.836, -0.41088033, -0.09389365, -1236148.1, 217673.9, 0.071005836, 10.000732, 9.999907 
2.525861e+3, 1.6164187e+2, -1217877.0, -1499336.9, 5533.328, -0.012622599, -0.044804152, -1217768.3, 138135.64, 0.021693112, 10.00165, 9.997967 
2.5254598e+3, 1.7163204e+2, -1146427.6, -1455755.6, 62710.47, 0.049022615, -0.019771019, -1134197.8, 123808.83, 0.00335279, 10.001744, 9.997496 
2.525057e+3, 1.8162252e+2, -1035840.75, -1337976.0, -32174.965, 0.053269427, 0.090719655, -1032452.4, 127653.59, 0.00011963712, 10.001602, 9.997763 
2.5246504e+3, 1.9161472e+2, -908330.9, -1145934.5, -94268.63, -0.09848032, 0.22770286, -875473.7, 186711.83, 0.00000002568285, 10.001526, 9.998399 
2.5242442e+3, 2.0160638e+2, -894483.6, -1069842.9, -71613.92, -0.21069017, 0.35906202, -868954.25, 95313.0, 0.0, 10.000838, 9.998613 
2.52384e+3, 2.1159461e+2, -962482.25, -973063.1, -62832.074, -0.21543081, 0.011621857, -904718.25, -38344.61, 0.0, 9.999424, 9.999238 
2.5234368e+3, 2.2158347e+2, -1078696.5, -1088544.0, -66167.15, -0.14598252, -0.17848155, -1017270.1, -248795.33, 0.0, 9.998396, 9.998306 
2.5230342e+3, 2.3157603e+2, -741945.75, -844733.5, -123681.61, 0.04709896, -0.03061698, -659405.06, 11140.593, 0.0, 9.999947, 9.998521 
2.5226304e+3, 2.4156764e+2, -597540.56, -763330.3, -114486.15, 0.1237126, 0.10000055, -539089.6, 33534.93, 0.0, 10.000413, 9.998219 
2.522223e+3, 2.5155467e+2, -630397.2, -661218.2, -93097.46, -0.22760785, -0.32312575, -551443.4, -76699.13, 0.0, 9.999295, 9.998736 
2.5218177e+3, 2.615433e+2, -639506.75, -616187.94, -75667.59, -0.4162305, -0.5196985, -551286.75, -174436.4, 0.0, 9.998492, 9.998807 
2.521418e+3, 2.715381e+2, -163128.16, -228487.2, -60396.195, -0.013107905, -0.252698, -127137.08, 151767.11, 0.0, 10.000697, 9.999673 
2.5210184e+3, 2.8153107e+2, 6801.7305, -264188.28, 53551.234, 0.27213594, -0.064399414, 17000.346, 197975.03, 0.0, 10.00187, 9.9982395 
2.5206167e+3, 2.9151753e+2, 104622.67, -177367.31, 138446.14, 0.11418164, -0.49811432, 161230.63, 244333.13, 0.0, 10.001949, 9.998081 
2.5202164e+3, 3.0150682e+2, -45855.414, -410069.5, 1803.8988, 0.22674042, -0.5075403, -45846.48, -45846.48, 0.0, 10.001371, 9.996457 
2.5198075e+3, 3.1149805e+2, -289828.84, -334812.0, -80999.24, -0.049859196, -0.3067995, -228256.47, -228256.47, 0.0, 9.998908, 9.998072 
2.5374675e+3, 1.2207887e+2, -1649800.8, -1734605.4, 69527.11, -0.16787778, -0.11323575, -1610766.1, 132858.44, 0.34545994, 10.000928, 9.999437 
2.53707e+3, 1.3207403e+2, -1567611.0, -1622148.5, 64402.793, 0.13450654, 0.16111663, -1524941.9, 120732.836, 0.24384509, 10.00063, 9.999644 
2.5366676e+3, 1.4206743e+2, -1706655.0, -1726801.5, 5798.562, 0.18237595, 0.38609496, -1705105.3, -157365.0, 0.14280653, 9.999189, 9.998883 
2.5362584e+3, 1.520539e+2, -1376628.9, -1489676.4, -57531.555, -0.14376855, -0.12360195, -1352500.3, 97365.375, 0.06363834, 10.000782, 9.999035 
2.5358522e+3, 1.6204181e+2, -1237015.1, -1557722.8, 19401.768, -0.27627605, -0.35955963, -1235845.6, 116134.5, 0.0187796, 10.001739, 9.997512 
2.5354522e+3, 1.7203383e+2, -1136062.4, -1466383.4, 73699.766, -0.10687938, -0.1359657, -1120364.9, 133699.73, 0.0026956536, 10.001837, 9.997391 
2.5350502e+3, 1.8202549e+2, -1041074.0, -1350849.9, -38162.066, -0.018354356, 0.107588716, -1036442.0, 119710.05, 0.00007576087, 10.001641, 9.997633 
2.5346446e+3, 1.9201541e+2, -902679.44, -1183122.0, -85685.586, -0.07101413, 0.053569686, -878571.7, 179681.84, 0.00000000011876218, 10.001724, 9.998047 
2.5342384e+3, 2.0200557e+2, -830747.3, -1015246.0, -117008.22, -0.13113058, 0.055559292, -773997.1, 186352.19, 0.0, 10.001165, 9.998812 
2.5338325e+3, 2.1199614e+2, -913470.75, -931024.44, -110812.375, -0.13051943, -0.066283435, -811088.2, 51344.598, 0.0, 9.999655, 9.999413 
2.533428e+3, 2.2198628e+2, -1080768.0, -1167185.6, -49613.105, -0.11175496, -0.11427376, -1058185.8, -293663.13, 0.0, 9.998683, 9.997626 
2.5330266e+3, 2.3197578e+2, -789070.3, -1023483.7, -70987.055, 0.064794734, -0.12560235, -769249.4, -102622.5, 0.0, 10.000246, 9.997173 
2.5326237e+3, 2.419655e+2, -441843.1, -614407.06, -178592.25, 0.13859887, -0.12327732, -329782.5, 238943.42, 0.0, 10.0010805, 9.998943 
2.532216e+3, 2.519553e+2, -518843.63, -483172.38, -159036.31, -0.0818273, -0.35992035, -340974.7, 129839.64, 0.0, 9.999461, 9.999907 
2.5318104e+3, 2.619458e+2, -504616.66, -487956.06, 11858.966, -0.2317468, -0.46556357, -481794.0, -108894.26, 0.0, 9.999071, 9.999429 
2.5314122e+3, 2.7193868e+2, 83696.86, -133301.48, 68375.29, 0.013147401, -0.36685735, 103444.52, 378418.66, 0.0, 10.002405, 9.99954 
2.5310132e+3, 2.8193137e+2, 395149.63, -10821.743, -9674.253, 0.16773313, -0.21896759, 395380.03, 572430.25, 0.0, 10.004205, 9.998851 
2.5306088e+3, 2.9192242e+2, -13637.899, -185560.22, -36081.855, -0.012171346, -0.21861525, -6372.339, 72765.945, 0.0, 10.000855, 9.99859 
2.5302064e+3, 3.019133e+2, -291396.1, -438979.84, -52883.336, 0.045165587, -0.12889574, -274403.13, -274403.13, 0.0, 9.999168, 9.99738 
2.5298002e+3, 3.1190193e+2, 433788.7, 91168.44, 1200.726, -0.1865998, -0.2236749, 433792.9, 433792.9, 0.0, 10.003284, 9.999021 
2.5474665e+3, 1.22480474e+2, -1655210.8, -1592704.8, 124606.01, 0.42218187, -0.07656076, -1495492.1, 244194.2, 0.31815657, 9.99994, 10.001262 
2.5470605e+3, 1.324747e+2, -1674686.3, -1614546.1, -53016.293, 0.033377547, 0.03956836, -1583665.9, 58080.33, 0.22319712, 9.999392, 10.000326 
2.546659e+3, 1.4246854e+2, -1635315.9, -1730883.0, -110245.42, 0.21502955, 0.2661263, -1562944.0, -19136.346, 0.12934339, 9.999747, 9.9986315 
2.546253e+3, 1.5245603e+2, -1345422.0, -1576153.0, -156182.75, -0.016084723, -0.079657316, -1266616.8, 179309.03, 0.05657354, 10.001367, 9.998236 
2.5458473e+3, 1.6244443e+2, -1180658.4, -1508492.6, -95253.55, -0.15674935, -0.23488873, -1154991.5, 193045.45, 0.016116831, 10.001992, 9.997736 
2.545445e+3, 1.7243627e+2, -1205347.3, -1468734.9, -54217.02, -0.15668564, -0.0952011, -1194623.5, 55497.277, 0.0021455006, 10.001151, 9.997722 
2.5450423e+3, 1.8242757e+2, -1214595.8, -1436908.3, -92006.875, -0.12710582, 0.08218104, -1181457.3, -29248.055, 0.000046550977, 10.00045, 9.99763 
2.5446373e+3, 1.924165e+2, -1040510.3, -1267541.6, -121751.01, -0.11584641, -0.06998152, -987565.44, 66752.52, 0.0, 10.000866, 9.997891 
2.544232e+3, 2.0240621e+2, -875688.56, -1065564.3, -153891.83, -0.081505634, -0.09313328, -789806.4, 166611.06, 0.0, 10.00103, 9.998515 
2.5438255e+3, 2.1239808e+2, -718131.44, -867116.2, -213445.95, -0.06406419, -0.073939495, -566552.4, 291939.2, 0.0, 10.001177, 9.999097 
2.5434205e+3, 2.2238876e+2, -818742.0, -1108829.5, -87334.375, -0.011042105, -0.025540814, -794478.4, -33899.883, 0.0, 10.0008, 9.997016 
2.5430194e+3, 2.3237617e+2, -838787.75, -1103878.0, -9809.163, 0.10251992, -0.21225527, -838425.25, -175722.03, 0.0, 10.000198, 9.996633 
2.5426167e+3, 2.4236496e+2, -636297.5, -685642.1, -112274.21, 0.18249439, -0.26123726, -546016.7, 18794.043, 0.0, 9.999761, 9.999044 
2.5422087e+3, 2.5235683e+2, -369043.34, -343255.3, -178433.81, 0.041836645, -0.36242276, -177250.23, 289626.9, 0.0, 10.000275, 10.000432 
2.5418037e+3, 2.6234838e+2, -379277.97, -453641.34, 51229.984, -0.053020757, -0.38014472, -353158.88, 15792.463, 0.0, 10.000138, 9.999121 
2.5414068e+3, 2.7233922e+2, -302838.5, -351570.06, 127470.95, 0.03678395, -0.48602718, -197425.47, 73621.79, 0.0, 9.999963, 9.999196 
2.5410074e+3, 2.8233206e+2, -245564.64, -347103.97, -84865.164, 0.07987975, -0.2839828, -197442.17, -24318.16, 0.0, 10.000013, 9.998541 
2.5406e+3, 2.9232785e+2, -36377.402, -163453.25, -152242.52, -0.14696054, 0.14054608, 65053.92, 140225.28, 0.0, 10.000675, 9.998782 
2.5401956e+3, 3.0231845e+2, -108748.3, -296490.1, -5514.3115, -0.2067942, 0.19261952, -108586.48, -108586.48, 0.0, 10.000336, 9.997758 
2.5397938e+3, 3.123037e+2, 45745.168, 203864.7, 72215.24, -0.35576585, -0.3871374, 231881.95, 231881.95, 0.0, 9.99952, 10.001563 
2.5574532e+3, 1.2287942e+2, -1975930.9, -1964907.8, -45485.656, -0.17831649, -0.2310744, -1924601.0, -188830.14, 0.29081753, 9.998747, 9.998761 
2.5570488e+3, 1.3287209e+2, -1625645.8, -1581625.5, -44711.758, -0.33658275, -0.27950302, -1553800.0, 84046.11, 0.2027681, 9.999775, 10.000362 
2.5566462e+3, 1.428653e+2, -1604655.9, -1759834.9, -80925.586, -0.33088356, -0.08820187, -1570133.5, -30217.955, 0.11625642, 10.000205, 9.998182 
2.5562465e+3, 1.5285741e+2, -1368366.9, -1626138.1, -80620.04, -0.0022299327, 0.050922643, -1345229.3, 96766.414, 0.04988728, 10.001378, 9.997849 
2.5558445e+3, 1.6284865e+2, -1167467.0, -1431829.8, -97829.44, 0.108481035, 0.19070038, -1135202.3, 208880.63, 0.013707004, 10.001805, 9.998348 
2.5554383e+3, 1.728384e+2, -1136876.6, -1327724.8, -59910.04, -0.20410773, 0.042074535, -1119628.8, 126554.48, 0.0016894786, 10.001168, 9.998683 
2.5550324e+3, 1.8282826e+2, -1144362.3, -1333278.9, -83351.76, -0.40876594, -0.004541974, -1112844.8, 35436.707, 0.000027889511, 10.000648, 9.998229 
2.5546286e+3, 1.9281782e+2, -987228.4, -1207006.0, -81692.83, -0.33340788, -0.12617405, -960189.2, 90191.23, 0.0, 10.001093, 9.998192 
2.554224e+3, 2.0280813e+2, -846184.75, -1103320.9, -140894.13, -0.23857735, -0.090245664, -784015.0, 168459.36, 0.0, 10.00143, 9.998072 
2.5538188e+3, 2.1279982e+2, -675329.5, -955820.9, -184780.3, -0.10501134, 0.010230392, -583599.75, 270958.9, 0.0, 10.001883, 9.998175 
2.5534144e+3, 2.2279064e+2, -584313.75, -855562.7, -111099.734, 0.017475506, 0.08240997, -544618.1, 212030.08, 0.0, 10.001784, 9.998281 
2.553012e+3, 2.3277934e+2, -648436.2, -832071.4, -13988.105, 0.11930147, -0.119080216, -647376.75, 11376.695, 0.0, 10.000699, 9.998266 
2.5526083e+3, 2.4276863e+2, -552530.2, -651306.9, -60949.05, 0.1392967, -0.21997719, -523471.13, 37380.973, 0.0, 10.000298, 9.999038 
2.5522012e+3, 2.527591e+2, -293301.38, -434257.4, -117530.3, -0.025537554, -0.34438616, -226737.34, 236199.23, 0.0, 10.001262, 9.999367 
2.5517967e+3, 2.6275e+2, -206271.47, -389352.44, 10341.387, -0.10357928, -0.35829604, -205689.19, 159332.27, 0.0, 10.001322, 9.999027 
2.5513986e+3, 2.7274173e+2, -429615.28, -452331.44, 52673.254, 0.062329445, -0.32332617, -387089.44, -119979.78, 0.0, 9.9991665, 9.998943 
2.5509983e+3, 2.8273442e+2, -395243.06, -367916.88, -33767.094, 0.06439698, -0.1399285, -345153.38, -175966.44, 0.0, 9.998651, 9.99909 
2.550592e+3, 2.9272822e+2, 165343.28, -47099.652, -56282.176, -0.30517852, 0.075694025, 179332.81, 250583.45, 0.0, 10.001852, 9.999069 
2.5501898e+3, 3.0271778e+2, 323476.53, 2033.4407, -108559.32, -0.2048989, -0.04606367, 356704.84, 356704.84, 0.0, 10.002795, 9.998675 
2.5497857e+3, 3.1270397e+2, -281664.97, -90222.08, -169766.13, -0.18995245, -0.50463367, 8949.094, 8949.094, 0.0, 9.997641, 10.00053 
2.567445e+3, 1.2328022e+2, -1956742.6, -1823997.1, -148793.55, -0.018600518, -0.034277268, -1727444.0, 4405.3457, 0.26403108, 9.998199, 10.000064 
2.5670418e+3, 1.3327199e+2, -1440704.5, -1503186.9, -78814.79, -0.2964375, -0.17534487, -1387164.9, 246764.22, 0.18292536, 10.001321, 10.000299 
2.5666398e+3, 1.4326468e+2, -1242639.6, -1506136.3, -141752.16, -0.34674108, -0.061392985, -1180864.5, 355135.28, 0.1037245, 10.002579, 9.998841 
2.566239e+3, 1.5325637e+2, -1325111.6, -1563423.5, -145789.03, -0.08809266, -0.036971815, -1255979.0, 182101.77, 0.043632858, 10.001417, 9.998305 
2.5658372e+3, 1.6324803e+2, -1340233.5, -1502870.4, -109039.766, 0.062050384, 0.10629346, -1285528.5, 54636.082, 0.011545959, 10.000574, 9.998424 
2.5654313e+3, 1.7323896e+2, -1181935.8, -1371878.8, -161902.05, -0.19250268, 0.07919482, -1089205.8, 153052.36, 0.0013158798, 10.000985, 9.998441 
2.5650257e+3, 1.8322922e+2, -1040992.7, -1237417.1, -210224.17, -0.36140227, 0.056691367, -907170.8, 237183.34, 0.000016496271, 10.001209, 9.99861 
2.5646216e+3, 1.9321856e+2, -976466.1, -1170644.6, -205281.19, -0.3057122, -0.14512402, -846472.4, 199980.22, 0.0, 10.001039, 9.998489 
2.5642172e+3, 2.0320913e+2, -978784.56, -1122112.4, -216917.81, -0.20457305, -0.11855821, -821999.2, 126543.71, 0.0, 10.000377, 9.99845 
2.5638115e+3, 2.1320158e+2, -1088736.4, -1142188.4, -179709.73, -0.0836682, 0.024979971, -933776.1, -83152.95, 0.0, 9.999042, 9.998272 
2.5634074e+3, 2.2319318e+2, -922408.56, -908791.7, -21384.86, 0.05756911, 0.14279467, -893157.6, -140450.8, 0.0, 9.999046, 9.999205 
2.5630048e+3, 2.3318294e+2, -562476.9, -664302.9, 16401.943, 0.13188007, -0.08380814, -559900.1, 94897.66, 0.0, 10.000783, 9.999359 
2.562601e+3, 2.4317266e+2, -462892.0, -685840.9, -37220.37, 0.13151401, -0.17342755, -456842.38, 100048.64, 0.0, 10.001297, 9.998302 
2.5621936e+3, 2.5316203e+2, -552075.56, -700306.94, -89114.39, -0.06470813, -0.31707767, -510283.9, -51292.363, 0.0, 10.00013, 9.99808 
2.5617895e+3, 2.6315272e+2, -553112.75, -608497.44, 21164.367, -0.0982987, -0.24942058, -545951.2, -184868.5, 0.0, 9.999287, 9.998438 
2.56139e+3, 2.7314505e+2, -422023.78, -484915.84, 41710.992, 0.08583523, -0.1412035, -401233.25, -138069.14, 0.0, 9.999477, 9.998516 
2.5609887e+3, 2.8313676e+2, -320918.28, -335678.78, 61753.594, 0.011473427, -0.02305966, -266105.47, -100855.516, 0.0, 9.999247, 9.999 
2.5605837e+3, 2.9312736e+2, -189191.06, -211115.0, 75011.72, -0.48251086, -0.15921526, -124344.58, -57003.67, 0.0, 9.999443, 9.999071 
2.560185e+3, 3.0311778e+2, -68781.914, -217074.3, -184895.88, -0.079708815, -0.18179248, 56280.69, 56280.69, 0.0, 10.000361, 9.998267 
2.5597823e+3, 3.1311274e+2, -161775.4, -279600.4, -89179.51, 0.41184396, 0.21948738, -113806.36, -113806.36, 0.0, 9.999796, 9.998065 
2.5774345e+3, 1.2368009e+2, -1842257.1, -1726214.4, 23638.271, -0.20427465, 0.21131393, -1721584.0, 6356.3726, 0.23823552, 9.998864, 10.000376 
2.5770372e+3, 1.3367268e+2, -1480113.6, -1499209.4, 20829.498, -0.12414233, 0.1157872, -1466748.0, 163259.19, 0.16394834, 10.000887, 10.000466 
2.576636e+3, 1.4366493e+2, -1309068.5, -1424537.0, -153092.16, -0.20810015, 0.13511173, -1203186.0, 328889.88, 0.09188186, 10.001565, 9.999901 
2.5762302e+3, 1.5365297e+2, -1307889.6, -1411599.4, -157442.8, -0.33394986, -0.32640174, -1193982.1, 240201.34, 0.03784501, 10.000935, 9.99959 
2.5758263e+3, 1.636437e+2, -1405598.8, -1596749.1, -103840.98, -0.3164107, -0.31921908, -1360044.4, -23769.607, 0.009625426, 10.000446, 9.997811 
2.575425e+3, 1.7363808e+2, -1257365.4, -1526550.4, -116037.35, -0.18206078, 0.09732635, -1214250.8, 24095.059, 0.0010124295, 10.000996, 9.997362 
2.5750217e+3, 1.8363012e+2, -993239.5, -1142841.6, -215092.61, -0.123814076, 0.29485482, -840312.6, 300117.8, 0.000009793076, 10.001246, 9.999224 
2.574617e+3, 1.936184e+2, -910376.3, -1054774.6, -183871.28, -0.08986346, -0.07339606, -785037.25, 257500.55, 0.0, 10.001123, 9.999238 
2.574211e+3, 2.0360893e+2, -831592.9, -850013.1, -266421.44, -0.076189294, -0.17572948, -574222.44, 370404.06, 0.0, 10.00048, 10.0002775 
2.5738028e+3, 2.1360299e+2, -927528.75, -857819.06, -197808.06, -0.073344864, -0.046533443, -691818.5, 154868.2, 0.0, 9.999209, 10.00016 
2.573398e+3, 2.2359574e+2, -816625.1, -756034.1, 73493.28, -0.047003523, 0.03608297, -706837.0, 41919.586, 0.0, 9.999278, 10.000145 
2.5729975e+3, 2.3358603e+2, -399165.78, -531995.94, 134797.88, 0.022140007, -0.17645526, -315309.66, 335534.28, 0.0, 10.001587, 9.999903 
2.5725946e+3, 2.4357669e+2, -326729.66, -648693.44, -77599.75, 0.047120716, -0.19411446, -309002.6, 243929.33, 0.0, 10.002301, 9.99809 
2.5721863e+3, 2.5356773e+2, -557254.44, -768133.4, -124651.414, -0.010747208, -0.09098885, -499428.94, -44405.95, 0.0, 10.000299, 9.997568 
2.5717813e+3, 2.6355824e+2, -531609.44, -598391.9, 83148.47, -0.06644927, -0.010051907, -475397.97, -118279.516, 0.0, 9.999366, 9.998475 
2.5713807e+3, 2.7354786e+2, -290238.78, -447094.9, 114680.31, -0.090660855, -0.14160286, -229733.28, 29489.094, 0.0, 10.0004015, 9.998355 
2.5709793e+3, 2.835387e+2, -110599.16, -176624.11, 54769.89, -0.1696675, -0.11972478, -79661.93, 81650.54, 0.0, 10.000362, 9.999573 
2.5705764e+3, 2.935311e+2, -291810.06, -232389.86, 70836.66, -0.29076988, -0.085952416, -185285.11, -121900.53, 0.0, 9.9985075, 9.999416 
2.5701785e+3, 3.0352092e+2, -237812.39, -280661.5, -1109.9534, 0.13648452, -0.18509097, -237783.66, -237783.66, 0.0, 9.9990225, 9.998502 
2.5697756e+3, 3.1351212e+2, 409316.28, 4326.157, 221837.92, 0.26944658, -0.121693216, 507181.53, 507181.53, 0.0, 10.003489, 9.998285 
2.5874278e+3, 1.2407658e+2, -1507795.1, -1625893.4, 49103.715, -0.20803761, -0.0164455, -1490046.0, 233999.48, 0.21373183, 10.001697, 9.999888 
2.5870305e+3, 1.3407062e+2, -1606798.0, -1581474.0, 6666.9033, -0.053000767, 0.03859867, -1579826.1, 46274.395, 0.14603193, 9.999847, 10.000316 
2.5866285e+3, 1.4406267e+2, -1690368.4, -1572761.5, -177733.69, -0.13275239, 0.0286915, -1444356.1, 83816.3, 0.080827504, 9.998652, 10.000233 
2.586222e+3, 1.5405166e+2, -1560920.5, -1503011.6, -239155.34, -0.33773416, -0.3681098, -1291064.4, 139206.66, 0.032553293, 9.999049, 9.999853 
2.5858176e+3, 1.6404243e+2, -1556671.4, -1668886.3, -146853.47, -0.36992007, -0.38358793, -1455572.0, -123209.5, 0.007938516, 9.999371, 9.997838 
2.585417e+3, 1.740363e+2, -1508558.4, -1661270.3, -118408.0, -0.16139255, -0.025749804, -1444021.9, -209582.47, 0.00076767127, 9.999317, 9.997255 
2.5850147e+3, 1.8402901e+2, -1255148.4, -1187517.9, -168086.13, -0.030569887, 0.21077102, -1049879.4, 86639.57, 0.000005913737, 9.999087, 9.999958 
2.5846094e+3, 1.9401902e+2, -1296454.4, -1161612.9, -157106.28, -0.023186646, -0.06450198, -1058071.8, -19460.42, 0.0, 9.998158, 9.999916 
2.584203e+3, 2.0401058e+2, -1085674.4, -884298.2, -229083.4, -0.0133971665, -0.13072996, -734751.75, 205938.9, 0.0, 9.998365, 10.00105 
2.5837943e+3, 2.1400473e+2, -805571.4, -713267.44, -251997.8, -0.034016367, -0.09346921, -503230.22, 339518.13, 0.0, 9.999672, 10.000928 
2.5833893e+3, 2.2399794e+2, -733855.94, -665721.3, 31250.428, -0.046975, -0.030202832, -653559.06, 91253.73, 0.0, 9.999744, 10.000518 
2.5829893e+3, 2.3398913e+2, -864844.4, -727053.5, 60533.35, -0.04101839, -0.20194623, -704238.2, -57344.727, 0.0, 9.998364, 10.000101 
2.5825867e+3, 2.4398084e+2, -871648.0, -915445.7, -179146.88, 0.015121843, -0.12732899, -713066.5, -164092.86, 0.0, 9.998667, 9.997969 
2.5821793e+3, 2.539729e+2, -562720.1, -793821.25, -180766.13, 0.082765095, 0.05205508, -463728.56, -12670.846, 0.0, 10.000437, 9.997293 
2.581774e+3, 2.6396304e+2, -371255.4, -557721.0, 107343.414, 0.011078028, 0.13502988, -322308.88, 30848.633, 0.0, 10.0006695, 9.998129 
2.5813717e+3, 2.7395076e+2, -506654.84, -591470.8, 128895.77, -0.24683316, -0.18164097, -413369.94, -158092.61, 0.0, 9.999177, 9.9979315 
2.5809702e+3, 2.8394172e+2, -324955.78, -239638.39, 32264.043, -0.26953566, -0.13959225, -228811.27, -71447.516, 0.0, 9.998805, 9.99985 
2.58057e+3, 2.9393595e+2, -192462.75, -166405.13, 22776.143, -0.016627446, 0.014383528, -153194.61, -93777.85, 0.0, 9.999203, 9.999501 
2.5801706e+3, 3.0392423e+2, -97524.445, -179192.78, 105339.04, 0.20868513, -0.24013805, -25381.88, -25381.88, 0.0, 9.999928, 9.998738 
2.5797713e+3, 3.1391707e+2, 337704.0, 400647.2, 63770.29, 0.26404858, -0.09129986, 440288.97, 440288.97, 0.0, 10.001241, 10.002098 
2.597424e+3, 1.2447358e+2, -1696688.8, -1749103.3, -84908.484, -0.023890035, -0.2584501, -1634035.1, 86103.46, 0.19077115, 10.000323, 9.999565 
2.5970224e+3, 1.3446698e+2, -1689811.3, -1665132.5, -21347.77, -0.094923556, -0.22764477, -1652814.5, -30610.39, 0.12932457, 9.9995165, 9.999849 
2.596619e+3, 1.444589e+2, -1700871.0, -1588840.3, -160472.11, -0.17502709, -0.21122032, -1474887.9, 49394.29, 0.07062259, 9.998678, 10.000078 
2.596214e+3, 1.544514e+2, -1573695.5, -1532118.9, -174359.11, -0.26445183, -0.23202206, -1377313.3, 49039.363, 0.027766839, 9.999087, 9.999609 
2.5958097e+3, 1.6444269e+2, -1487700.5, -1530510.4, -119894.4, -0.32075363, -0.21585341, -1387315.4, -58875.246, 0.0064744665, 9.999412, 9.998758 
2.595408e+3, 1.7443283e+2, -1420311.1, -1507243.3, -74480.375, -0.25473315, -0.32329342, -1377541.4, -146995.19, 0.0005723583, 9.999422, 9.998272 
2.5950038e+3, 1.844255e+2, -1176362.8, -1025708.3, -197740.48, -0.21986073, -0.19822356, -889433.3, 243190.06, 0.0000035552432, 9.999101, 10.00106 
2.5945973e+3, 1.9442022e+2, -1219996.9, -1020992.6, -158332.47, -0.24318922, -0.08744633, -933492.5, 101182.016, 0.0, 9.99821, 10.000868 
2.5941917e+3, 2.0441388e+2, -1056635.5, -874447.4, -161188.17, -0.19134438, 0.0044670743, -780393.5, 156343.84, 0.0, 9.998575, 10.001025 
2.5937867e+3, 2.1440658e+2, -706431.25, -701935.56, -165414.78, -0.03976909, -0.051284425, -538753.4, 300058.13, 0.0, 10.000457, 10.000662 
2.5933823e+3, 2.2439955e+2, -628480.5, -603797.75, -37287.664, 0.003970725, -0.0030667053, -576862.2, 164018.52, 0.0, 10.000395, 10.000631 
2.5929794e+3, 2.3439237e+2, -879480.4, -732293.56, -10382.261, -0.07453355, -0.0034311176, -731564.8, -88616.4, 0.0, 9.998195, 10.000163 
2.5925767e+3, 2.4438404e+2, -822783.75, -753490.06, -108297.74, -0.030502658, 0.0033239883, -674432.0, -129404.32, 0.0, 9.99833, 9.999263 
2.5921732e+3, 2.5437415e+2, -320203.0, -524977.56, -60681.76, 0.1591985, -0.12854223, -303571.66, 143551.28, 0.0, 10.001353, 9.99873 
2.591769e+3, 2.6436463e+2, -187969.36, -461585.63, 48205.16, 0.13220693, -0.10107421, -179725.08, 169491.72, 0.0, 10.001875, 9.998209 
2.591364e+3, 2.7435526e+2, -493845.22, -600791.4, 57791.72, -0.1224287, -0.06981883, -468582.97, -217272.1, 0.0, 9.999272, 9.99784 
2.590962e+3, 2.843462e+2, -344750.84, -278742.25, 75739.24, -0.1730755, -0.027202154, -229128.66, -75730.195, 0.0, 9.998736, 9.999625 
2.5905624e+3, 2.9433706e+2, 544.37555, -114995.76, 38015.008, -0.019991228, -0.14548431, 11930.085, 67412.09, 0.0, 10.000609, 9.999209 
2.5901634e+3, 3.0432677e+2, 123373.42, -129255.9, 35175.816, 0.1551475, -0.22439708, 128179.81, 128179.81, 0.0, 10.001619, 9.998312 
2.589756e+3, 3.143168e+2, 196409.88, 101358.3, 146622.16, -0.5954747, -0.2780597, 303016.34, 303016.34, 0.0, 10.001177, 10.000102 
2.6074147e+3, 1.24874614e+2, -1939872.5, -1925174.1, -3572.916, -0.08194341, -0.24858005, -1924351.6, -208151.38, 0.16949552, 9.99876, 9.999092 
2.6070133e+3, 1.3486497e+2, -1638109.5, -1675256.1, 5000.322, -0.17609741, -0.47842416, -1637448.1, -19152.133, 0.11391175, 9.99999, 9.999574 
2.6066104e+3, 1.4485732e+2, -1427689.3, -1402750.4, -77287.26, -0.202214, -0.43216112, -1336933.1, 183438.86, 0.061296463, 10.000332, 10.000578 
2.606207e+3, 1.548527e+2, -1397508.8, -1409110.9, -66898.555, -0.116680585, -0.20064688, -1336160.1, 86257.445, 0.023481611, 10.000122, 9.9999485 
2.6058033e+3, 1.648452e+2, -1341061.8, -1358537.6, 26261.855, -0.14595912, -0.11182676, -1322122.4, 2371.0352, 0.005220199, 9.999968, 9.999699 
2.6053998e+3, 1.7483458e+2, -1349485.6, -1386139.8, 44181.066, -0.22409423, -0.3684326, -1319981.3, -93379.29, 0.00041937284, 9.999511, 9.999089 
2.6049945e+3, 1.848266e+2, -1126174.1, -1017832.3, -94790.58, -0.29664147, -0.33546713, -962825.6, 165858.28, 0.0000020172258, 9.999495, 10.000935 
2.6045868e+3, 1.9482154e+2, -1049463.9, -978912.06, -163406.98, -0.3728921, -0.17644201, -847016.7, 183719.73, 0.0, 9.999541, 10.000523 
2.6041818e+3, 2.0481594e+2, -940659.1, -816870.56, -132387.81, -0.26585975, 0.005925426, -732623.0, 200171.48, 0.0, 9.999424, 10.000979 
2.6037788e+3, 2.1480916e+2, -983673.9, -855819.0, -127545.0, 0.030400876, -0.00353016, -777077.44, 57787.273, 0.0, 9.998727, 10.000401 
2.603375e+3, 2.2480202e+2, -819722.9, -734778.4, -39066.445, 0.09599099, 0.07112372, -719543.8, 17392.781, 0.0, 9.999269, 10.000272 
2.6029706e+3, 2.3479454e+2, -677085.56, -683347.8, -68585.77, -0.052157853, 0.057356063, -611559.5, 27450.45, 0.0, 9.999833, 9.999697 
2.6025677e+3, 2.4478595e+2, -518388.16, -505315.8, -73832.34, -0.030475955, 0.022318315, -437730.88, 103360.195, 0.0, 10.000037, 10.000138 
2.6021665e+3, 2.5477555e+2, -496329.8, -512895.22, -59172.203, 0.17376433, -0.27806738, -444863.44, -1676.9636, 0.0, 9.999794, 9.999555 
2.601763e+3, 2.6476672e+2, -438059.66, -610835.1, -79565.164, 0.17675848, -0.21515109, -407001.84, -61730.324, 0.0, 10.000339, 9.997916 
2.6013568e+3, 2.7475932e+2, -356849.84, -597460.94, -64160.723, -0.02098296, 0.011070024, -340810.16, -93461.63, 0.0, 10.000521, 9.99727 
2.6009545e+3, 2.8474933e+2, -194618.1, -297132.66, 58087.227, -0.07167339, 0.032723196, -168406.45, -18961.186, 0.0, 10.000221, 9.998776 
2.6005548e+3, 2.9473692e+2, -288226.84, -381405.4, 690.0587, -0.03388647, -0.34943357, -288221.72, -236661.27, 0.0, 9.999271, 9.998008 
2.6001555e+3, 3.0472866e+2, -236162.14, -400237.3, -26912.85, 0.0737607, -0.123675615, -231860.47, -231860.47, 0.0, 9.999688, 9.99732 
2.5997534e+3, 3.1472102e+2, -222440.36, -180617.75, 390052.38, -0.19068234, 0.11906577, 189083.47, 189083.47, 0.0, 9.998812, 9.999252 
2.617405e+3, 1.25277e+2, -1918153.9, -1785096.3, 87916.625, -0.21261443, -0.12053855, -1741373.4, -29121.244, 0.14988421, 9.998426, 10.000181 
2.617004e+3, 1.3526398e+2, -1717045.9, -1742283.6, 89521.695, -0.34519354, -0.68642116, -1639258.1, -24877.957, 0.09979623, 9.999604, 9.999285 
2.6166022e+3, 1.4525686e+2, -1432382.1, -1292344.1, -66140.32, -0.28976187, -0.6208086, -1266044.9, 250406.4, 0.05285716, 9.999825, 10.001601 
2.616201e+3, 1.5525478e+2, -1396365.3, -1335794.0, -47405.82, -0.005652656, -0.22233558, -1309825.4, 108648.96, 0.019694533, 9.999807, 10.00062 
2.6157972e+3, 1.652493e+2, -1292462.3, -1223459.3, 11519.697, 0.004400062, -0.011083325, -1221586.9, 98942.73, 0.004163879, 9.999843, 10.000663 
2.6153916e+3, 1.7524049e+2, -1290693.5, -1262140.5, 48588.637, -0.23048553, -0.17939514, -1225774.4, -3157.3887, 0.00030229846, 9.999527, 9.999909 
2.614985e+3, 1.8523145e+2, -1179311.0, -1174087.5, -84942.8, -0.38527465, -0.23798403, -1091716.4, 32992.625, 0.0000010444409, 9.999676, 9.999775 
2.6145777e+3, 1.952223e+2, -1083044.8, -1143668.6, -124248.75, -0.49380296, -0.34684017, -985463.9, 41339.56, 0.0, 9.999889, 9.999241 
2.614173e+3, 2.0521629e+2, -859199.94, -733880.3, -150384.84, -0.32787323, -0.16590603, -633623.44, 295242.38, 0.0, 9.999768, 10.001384 
2.6137704e+3, 2.1521251e+2, -895175.44, -783193.44, -126945.57, 0.058631115, 0.10254488, -700439.44, 130465.71, 0.0, 9.999162, 10.000691 
2.6133674e+3, 2.2520462e+2, -795582.9, -799199.6, 25567.012, 0.16349176, 0.118782096, -771760.4, -38776.4, 0.0, 9.999706, 9.999639 
2.6129642e+3, 2.3519322e+2, -522580.6, -686219.4, 1465.8613, 0.02189678, -0.1971956, -522567.47, 112528.57, 0.0, 10.001132, 9.999085 
2.6125607e+3, 2.4518462e+2, -337179.53, -392623.84, -125919.21, -0.053819254, -0.22082509, -235966.95, 301212.9, 0.0, 10.001138, 10.000391 
2.6121557e+3, 2.5517797e+2, -457996.22, -481528.88, -109435.51, -0.07699851, -0.14284906, -359696.3, 79546.93, 0.0, 9.999934, 9.999724 
2.6117527e+3, 2.651697e+2, -384979.0, -541948.5, -39960.066, -0.082466826, -0.055112287, -375391.8, -34069.348, 0.0, 10.000436, 9.998375 
2.6113504e+3, 2.7516013e+2, -46443.617, -398162.47, -13607.802, -0.08340093, -0.06317048, -45917.926, 197497.61, 0.0, 10.002328, 9.997804 
2.610949e+3, 2.8514913e+2, -29268.875, -351823.5, -30230.863, -0.010339311, -0.12003171, -26460.002, 119062.68, 0.0, 10.0019, 9.997598 
2.6105475e+3, 2.9513696e+2, -334062.3, -535687.1, -78831.05, 0.078096256, -0.32016313, -306900.2, -259259.33, 0.0, 9.999469, 9.996866 
2.610146e+3, 3.051288e+2, -327376.84, -373594.88, -6148.2227, 0.013560774, -0.070691146, -326572.94, -326572.94, 0.0, 9.998615, 9.998062 
2.6097476e+3, 3.151179e+2, -296513.94, -277071.28, 101247.25, 0.14239044, -0.20170876, -185079.73, -185079.73, 0.0, 9.998357, 9.998838 
2.6273954e+3, 1.2567843e+2, -1723573.1, -1696395.1, 138991.48, -0.32989246, -0.29705724, -1570329.9, 137985.64, 0.13183987, 9.999782, 10.000202 
2.6269966e+3, 1.3566948e+2, -1852517.3, -1807836.9, 110154.734, -0.17792627, -0.4399764, -1717779.8, -107371.414, 0.08692974, 9.998636, 9.999316 
2.6265946e+3, 1.4566164e+2, -1696866.5, -1517129.0, -38877.664, -0.12490746, -0.4015515, -1509080.1, 3406.6646, 0.045284748, 9.9983225, 10.000765 
2.6261914e+3, 1.5565538e+2, -1616505.8, -1513660.8, -116701.35, -0.033824317, -0.33384725, -1437554.9, -23006.813, 0.01638905, 9.998532, 10.000055 
2.6257876e+3, 1.6564952e+2, -1403896.1, -1206675.9, -78598.336, -0.06056685, -0.18264903, -1179184.3, 137420.88, 0.0032885466, 9.998758, 10.00132 
2.625383e+3, 1.7564324e+2, -1357971.5, -1235924.0, -77447.74, -0.20789926, -0.17065303, -1198347.3, 20318.826, 0.00021471751, 9.998787, 10.000475 
2.624977e+3, 1.8563491e+2, -1250021.3, -1205265.8, -141709.52, -0.3307945, -0.1995096, -1084178.0, 36570.95, 0.00000047553752, 9.999199, 9.999779 
2.6245698e+3, 1.9562504e+2, -1191365.1, -1225240.3, -110978.96, -0.41769093, -0.38385674, -1096038.8, -73189.57, 0.0, 9.999322, 9.99894 
2.6241654e+3, 2.0561752e+2, -830428.8, -857484.56, -137471.0, -0.27053276, -0.26827028, -705821.7, 219104.27, 0.0, 10.000567, 10.000155 
2.623763e+3, 2.1561235e+2, -601435.56, -777246.6, -240370.17, 0.08866548, -0.038222462, -433401.25, 393578.03, 0.0, 10.001797, 9.999469 
2.6233602e+3, 2.2560412e+2, -542314.44, -690912.25, -99091.96, 0.18551925, -0.008911362, -492760.44, 236302.17, 0.0, 10.001559, 9.999474 
2.6229575e+3, 2.3559265e+2, -821536.0, -873631.06, -84022.83, 0.0822776, -0.33737618, -759615.9, -128438.85, 0.0, 9.999342, 9.998647 
2.6225528e+3, 2.4558482e+2, -622596.5, -535903.4, -192152.97, -0.06893559, -0.264542, -382268.5, 150987.0, 0.0, 9.999277, 10.000272 
2.622146e+3, 2.5557998e+2, -561025.8, -582971.44, -193862.6, -0.24175526, -0.0069072032, -377825.75, 57478.58, 0.0, 9.999507, 9.999221 
2.6217434e+3, 2.6557153e+2, -416631.1, -511377.72, -46218.65, -0.24610548, 0.058830734, -397819.84, -60435.063, 0.0, 10.000068, 9.998725 
2.6213437e+3, 2.755601e+2, -366341.97, -555745.06, -36290.97, -0.11636143, -0.19699965, -359626.47, -120135.01, 0.0, 10.0002165, 9.997711 
2.6209423e+3, 2.85549e+2, -311595.4, -544690.8, -120137.49, -0.002600629, -0.23582757, -260762.16, -119161.664, 0.0, 10.000291, 9.997018 
2.6205397e+3, 2.955377e+2, -454853.47, -700998.3, -63725.387, 0.11546148, -0.30639556, -439333.88, -395618.13, 0.0, 9.999172, 9.995867 
2.6201373e+3, 3.0552986e+2, -271807.97, -255844.52, 73019.51, 0.049555473, -0.0049845395, -190371.78, -190371.78, 0.0, 9.998704, 9.9988 
2.6197332e+3, 3.155156e+2, -369083.28, -208514.16, 202005.42, -0.43062422, -0.559758, -71423.92, -71423.92, 0.0, 9.997589, 9.999657 
2.6373866e+3, 1.2608044e+2, -1891666.8, -1773916.0, 68281.71, -0.47835037, -0.44184607, -1742632.1, -38257.08, 0.11528824, 9.998685, 10.000093 
2.6369905e+3, 1.3607776e+2, -1879794.0, -1863432.8, 71569.734, 0.07558234, 0.035186388, -1799577.6, -193164.3, 0.07524984, 9.998656, 9.998921 
2.636587e+3, 1.4606819e+2, -1771860.3, -1716977.0, -25186.52, 0.037707742, 0.00006873442, -1707170.8, -198662.16, 0.038529176, 9.998588, 9.999232 
2.63618e+3, 1.560543e+2, -1674742.6, -1676957.3, -66859.23, -0.30214447, -0.5481372, -1608981.6, -198342.1, 0.013527696, 9.998773, 9.9987955 
2.6357758e+3, 1.660468e+2, -1322715.6, -1094726.1, -57738.05, -0.34694433, -0.5403602, -1080937.9, 231772.66, 0.0025719018, 9.999012, 10.001966 
2.635374e+3, 1.7604317e+2, -1300038.5, -1134130.3, -43123.19, -0.24868454, -0.3204191, -1123591.0, 91154.16, 0.00015054179, 9.9988575, 10.001139 
2.6349694e+3, 1.8603727e+2, -1158316.3, -1035575.25, -122998.94, -0.22232398, -0.19726655, -959486.4, 157314.73, 0.0000001940375, 9.999291, 10.000898 
2.6345628e+3, 1.9602965e+2, -1101376.0, -1097330.5, -63829.668, -0.287019, -0.25943473, -1035491.56, -16617.963, 0.0, 9.999537, 9.999725 
2.6341593e+3, 2.0601863e+2, -994111.3, -1269466.3, -63492.668, -0.18817702, -0.3685651, -980176.06, -59191.96, 0.0, 10.000895, 9.997152 
2.6337567e+3, 2.1600592e+2, -614066.9, -1072600.5, -166937.06, -0.0039425436, -0.5850402, -559729.6, 263384.47, 0.0, 10.002918, 9.996904 
2.6333532e+3, 2.2599857e+2, -361861.34, -502323.47, -205874.72, 0.038524043, -0.40188023, -214568.16, 510624.4, 0.0, 10.002317, 10.000421 
2.632948e+3, 2.3599418e+2, -675455.8, -691578.3, -162347.52, -0.05693715, -0.10233623, -520969.53, 106272.87, 0.0, 9.999796, 9.999695 
2.6325437e+3, 2.4598756e+2, -628873.3, -576689.6, -166804.02, -0.088772416, 0.057225402, -433949.1, 95361.05, 0.0, 9.999347, 9.999969 
2.6321396e+3, 2.5597984e+2, -456545.78, -538015.25, -156938.31, -0.09740645, 0.063667946, -335141.84, 96244.73, 0.0, 10.000179, 9.999211 
2.631737e+3, 2.6596963e+2, -363232.0, -474318.1, -77449.1, -0.14203273, -0.055000473, -323468.22, 10015.768, 0.0, 10.000328, 9.998878 
2.6313353e+3, 2.7595776e+2, -367131.28, -496464.7, -72813.87, -0.19191903, -0.3515145, -334414.0, -98818.53, 0.0, 9.999867, 9.998304 
2.6309338e+3, 2.859492e+2, -166428.77, -179974.72, -114559.195, -0.054030392, -0.31517732, -58442.508, 79237.95, 0.0, 9.999904, 9.99975 
2.630532e+3, 2.959424e+2, -104622.47, -220968.1, 20347.357, 0.18082748, -0.17619345, -101166.625, -61414.62, 0.0, 10.000116, 9.998746 
2.6301295e+3, 3.0593485e+2, -181311.55, -339028.72, 121908.95, 0.11684738, 0.081904024, -114978.984, -114978.984, 0.0, 9.999773, 9.997773 
2.6297265e+3, 3.1592607e+2, -25173.84, 421552.03, -1269.9961, -0.06804447, 0.2161793, 421555.66, 421555.66, 0.0, 9.997748, 10.003985 
2.6473793e+3, 1.2648173e+2, -1958776.6, -1819907.0, 44118.35, -0.24856663, -0.52229744, -1807076.3, -106631.38, 0.10017185, 9.998189, 10.000075 
2.6469803e+3, 1.3647987e+2, -1606163.4, -1693347.3, 5714.39, -0.106019266, 0.051321708, -1605790.5, -3314.639, 0.06469282, 10.0004, 9.999239 
2.6465777e+3, 1.4647092e+2, -1333439.6, -1455654.3, -29709.758, -0.10396295, 0.01982119, -1326600.1, 177962.66, 0.032530583, 10.00142, 9.99966 
2.6461732e+3, 1.564571e+2, -1277508.6, -1462324.0, 6546.0166, -0.20359279, -0.55082554, -1277277.1, 129412.59, 0.011066901, 10.001397, 9.998999 
2.6457688e+3, 1.6644886e+2, -1089482.6, -1069578.4, -253.04228, -0.25927067, -0.5810364, -1069575.1, 239192.5, 0.0019930317, 10.000974, 10.001195 
2.6453653e+3, 1.7644425e+2, -1237893.8, -1199304.9, -86876.516, -0.24371046, -0.37305096, -1129606.0, 81207.336, 0.00010503105, 9.999667, 10.000324 
2.6449612e+3, 1.8643828e+2, -987882.5, -916862.2, -165760.22, -0.21248908, -0.24778685, -782851.2, 330017.97, 0.00000008640195, 10.000376, 10.001146 
2.6445565e+3, 1.9643137e+2, -796266.1, -953332.1, -192614.81, -0.18547665, -0.2763182, -666789.75, 348142.72, 0.0, 10.001681, 9.999676 
2.644153e+3, 2.0641996e+2, -807615.06, -1167446.1, -29671.086, -0.13568825, -0.44541508, -805184.9, 111860.484, 0.0, 10.00214, 9.99726 
2.6437506e+3, 2.1640554e+2, -865078.75, -1227013.0, 79004.72, -0.041544992, -0.81675965, -848584.9, -29393.799, 0.0, 10.001339, 9.996633 
2.6433456e+3, 2.263987e+2, -535144.9, -561760.8, 8502.881, -0.06454635, -0.55634373, -532660.44, 188604.63, 0.0, 10.001037, 10.000608 
2.6429388e+3, 2.3639683e+2, -722013.1, -725076.56, -18582.027, -0.1512788, -0.013186134, -704899.8, -81607.96, 0.0, 9.999556, 9.999578 
2.6425353e+3, 2.4638988e+2, -555209.6, -588503.5, 40956.844, -0.100278966, 0.15583725, -527645.94, -2282.2522, 0.0, 10.000091, 9.999519 
2.6421332e+3, 2.5637966e+2, -471579.5, -623160.06, 17974.055, 0.037883777, -0.034022003, -469477.34, -42013.055, 0.0, 10.000459, 9.998499 
2.6417303e+3, 2.6636866e+2, -349338.53, -440303.3, 48753.848, -0.048512395, -0.20124193, -328145.7, 1425.3021, 0.0, 10.000387, 9.999047 
2.6413265e+3, 2.7635697e+2, -523404.28, -572756.3, 51249.063, -0.24461298, -0.49248928, -491199.97, -259516.86, 0.0, 9.998874, 9.998256 
2.6409256e+3, 2.863508e+2, -162416.75, 51216.086, -37233.33, -0.057939034, -0.3152483, 57519.37, 191265.47, 0.0, 9.999021, 10.001729 
2.640525e+3, 2.963479e+2, -178073.63, -101597.125, -28067.861, 0.26615766, -0.007604311, -92401.54, -56621.117, 0.0, 9.999029, 10.000073 
2.64012e+3, 3.0633903e+2, -287222.06, -496509.97, 25994.889, 0.011706238, 0.0900264, -284041.66, -284041.66, 0.0, 9.999606, 9.996701 
2.639717e+3, 3.163269e+2, -13237.686, 403735.38, -32470.07, -0.08631859, -0.05415184, 406248.7, 406248.7, 0.0, 9.9980755, 10.003645 
2.657372e+3, 1.2688285e+2, -1936304.3, -1789576.4, 139812.61, -0.075996764, -0.5401856, -1705048.5, -8531.056, 0.086430125, 9.998392, 10.000128 
2.656968e+3, 1.3687885e+2, -1602286.4, -1669226.5, 120882.6, -0.6169228, -0.2083088, -1510325.8, 88241.65, 0.055199515, 10.000375, 9.999419 
2.656568e+3, 1.468719e+2, -1266369.6, -1252479.8, -6496.2656, -0.4431587, -0.14021944, -1249915.0, 250716.64, 0.027235242, 10.001176, 10.001189 
2.6561695e+3, 1.5686277e+2, -1253928.6, -1349629.4, 30233.447, 0.05406697, -0.38640183, -1245177.6, 157532.34, 0.0089680515, 10.001137, 9.999892 
2.6557642e+3, 1.668541e+2, -1223806.4, -1326802.0, -34006.71, -0.019168317, -0.39447737, -1213591.3, 91201.73, 0.0015322798, 10.000943, 9.99941 
2.6553562e+3, 1.7684594e+2, -1324148.3, -1410959.1, -85400.91, -0.37281233, -0.3609865, -1271755.3, -64879.395, 0.00007382683, 9.999816, 9.998791 
2.654952e+3, 1.8683767e+2, -1005412.4, -1008808.25, -86344.88, -0.38712403, -0.3576149, -920748.75, 188207.52, 0.000000036839044, 10.000604, 10.00041 
2.6545498e+3, 1.9682936e+2, -717139.25, -894965.2, -121048.64, -0.28229025, -0.45249563, -655858.06, 355177.63, 0.0, 10.002113, 9.9998665 
2.6541469e+3, 2.0682222e+2, -457916.72, -507448.28, -36424.55, -0.21211746, -0.45522028, -438636.03, 474467.6, 0.0, 10.0024395, 10.001633 
2.653743e+3, 2.1681522e+2, -520868.94, -652052.2, 119397.445, -0.19266313, -0.5057607, -450232.75, 364938.2, 0.0, 10.001904, 10.000308 
2.653337e+3, 2.2680758e+2, -570858.9, -688080.8, 43474.617, -0.20833096, -0.4211942, -556495.3, 160752.16, 0.0, 10.001221, 9.999667 
2.6529303e+3, 2.3680027e+2, -628293.94, -764373.56, 48291.91, -0.25839385, -0.31282592, -612898.0, 6424.8325, 0.0, 10.000485, 9.998878 
2.652527e+3, 2.4679066e+2, -475406.1, -611203.2, 148682.28, -0.18183142, -0.33666563, -379852.4, 141566.36, 0.0, 10.000859, 9.999013 
2.652126e+3, 2.5677988e+2, -300673.34, -553459.56, 131701.34, -0.06297819, -0.50816065, -244527.52, 178997.78, 0.0, 10.001618, 9.998428 
2.651723e+3, 2.6677135e+2, -225278.58, -333990.78, 88326.664, -0.089849025, -0.44347236, -175922.66, 149689.92, 0.0, 10.000969, 9.999523 
2.6513192e+3, 2.767637e+2, -390421.6, -455032.0, 111619.79, -0.14163344, -0.3506837, -306526.1, -78834.305, 0.0, 9.999453, 9.998811 
2.6509175e+3, 2.867572e+2, -281613.94, -280952.16, 34390.324, 0.022900457, -0.08599418, -246891.13, -117128.11, 0.0, 9.999286, 9.999375 
2.6505157e+3, 2.9675165e+2, -176731.67, -270270.88, -54488.797, 0.16981629, 0.21001221, -151693.03, -119866.56, 0.0, 9.999659, 9.998637 
2.6501116e+3, 3.0673766e+2, -172780.27, -300386.56, -32164.926, -0.01272025, -0.21886878, -165131.16, -165131.16, 0.0, 9.999711, 9.998032 
2.64971e+3, 3.1672707e+2, 265453.25, 462205.88, 101517.09, 0.0441319, -0.30218273, 505193.0, 505193.0, 0.0, 10.00016, 10.003087 
2.6673636e+3, 1.2728894e+2, -1526886.8, -1650018.5, 204754.53, -0.19432767, -0.25338715, -1374642.5, 317900.72, 0.07399981, 10.00147, 9.99965 
2.6669627e+3, 1.3728024e+2, -1507886.4, -1686254.9, 124697.055, -0.4358999, -0.32748055, -1443763.1, 150870.56, 0.046711504, 10.001232, 9.998912 
2.6665625e+3, 1.4727314e+2, -1302857.5, -1309451.4, -62833.824, -0.28480384, -0.23385356, -1243234.3, 253466.0, 0.022592498, 10.001041, 10.000888 
2.6661628e+3, 1.5726659e+2, -1351206.4, -1434553.6, -135284.53, 0.12227211, -0.19566734, -1251322.3, 147434.9, 0.0071954923, 10.000579, 9.99962 
2.6657572e+3, 1.6725719e+2, -1207471.3, -1390708.9, -156671.94, -0.0025499864, -0.24828874, -1117596.0, 183250.77, 0.001170623, 10.001331, 9.998816 
2.6653492e+3, 1.772468e+2, -1046304.06, -1318028.8, -149561.1, -0.35705936, -0.38705716, -980109.2, 222839.47, 0.00005271245, 10.001911, 9.998431 
2.6649448e+3, 1.872383e+2, -975401.8, -944544.75, -59510.895, -0.37937695, -0.4279675, -898494.94, 206536.1, 0.000000014947995, 10.000585, 10.000877 
2.6645428e+3, 1.9723065e+2, -1303452.6, -1123735.5, -17631.879, -0.21241297, -0.48754978, -1122022.0, -114916.97, 0.0, 9.997885, 10.000341 
2.6641393e+3, 2.0722584e+2, -1012049.25, -597358.75, -45591.23, -0.19134445, -0.3677931, -592405.56, 316745.38, 0.0, 9.997923, 10.003151 
2.6637352e+3, 2.172224e+2, -1029459.5, -778991.56, -123142.36, -0.21370934, -0.23695698, -728590.75, 82592.16, 0.0, 9.997992, 10.001287 
2.6633292e+3, 2.272139e+2, -723982.1, -789765.25, -172097.25, -0.24960974, -0.2960581, -581661.44, 131601.44, 0.0, 10.000368, 9.9993305 
2.6629233e+3, 2.3720308e+2, -442251.78, -744513.3, -120245.51, -0.25312176, -0.5334296, -400251.78, 215114.19, 0.0, 10.00213, 9.998211 
2.66252e+3, 2.4719256e+2, -382772.97, -588094.4, 8435.461, -0.21504226, -0.62803954, -382427.0, 135042.16, 0.0, 10.001645, 9.998782 
2.6621178e+3, 2.571821e+2, -693434.3, -791654.8, 23377.4, -0.16542278, -0.76062506, -688154.1, -268580.9, 0.0, 9.999218, 9.997937 
2.661715e+3, 2.6717544e+2, -380553.53, -351544.84, -9472.14, -0.14207552, -0.5309697, -348725.88, -27081.74, 0.0, 9.999778, 9.999916 
2.6613116e+3, 2.7717057e+2, -335840.84, -480677.75, 19565.928, -0.07949052, -0.21530828, -333244.25, -109544.31, 0.0, 10.00017, 9.998261 
2.6609093e+3, 2.8716317e+2, -237989.03, -488366.5, 30869.506, 0.031445686, 0.096002005, -234239.23, -108456.4, 0.0, 10.000699, 9.997207 
2.660506e+3, 2.971546e+2, -290732.63, -555843.6, 20713.932, -0.0049911044, 0.30105302, -289123.94, -261245.6, 0.0, 9.999997, 9.996488 
2.660104e+3, 3.071362e+2, -49495.07, -133547.81, -2127.5571, 0.04858136, -0.53895384, -49441.25, -49441.25, 0.0, 10.0001745, 9.99891 
2.6596993e+3, 3.171289e+2, 6882.0405, 84888.586, 189980.6, -0.26670808, -0.39335865, 239828.3, 239828.3, 0.0, 9.999616, 10.000727 
2.677355e+3, 1.2769626e+2, -1531785.3, -1713575.1, 161647.83, -0.48898652, 0.15434295, -1437229.6, 251327.63, 0.06278203, 10.001811, 9.998983 
2.6769608e+3, 1.3768202e+2, -1611795.0, -1851070.4, 118652.5, 0.002397967, -0.41120043, -1562934.6, 27760.71, 0.039146993, 10.00102, 9.99787 
2.6765585e+3, 1.4767416e+2, -1402661.9, -1490559.5, -57758.01, 0.019295778, -0.278518, -1374033.3, 118739.79, 0.018543638, 10.000993, 9.999608 
2.676154e+3, 1.576686e+2, -1398343.1, -1559621.9, -92186.52, -0.07797979, -0.013350937, -1356503.6, 38324.46, 0.005710664, 10.000711, 9.998688 
2.675749e+3, 1.6765837e+2, -1164269.0, -1314461.6, -92665.805, -0.18863961, -0.14427388, -1120090.8, 176833.19, 0.0008890518, 10.0014105, 9.999278 
2.6753435e+3, 1.7764662e+2, -966457.4, -1175172.5, -109208.375, -0.35555783, -0.466258, -919762.06, 279271.2, 0.000037964888, 10.002016, 9.999343 
2.6749384e+3, 1.8764013e+2, -838436.3, -670839.94, -140099.02, -0.28050295, -0.45880964, -591390.25, 509703.63, 0.0000000057994387, 10.000641, 10.0027275 
2.674534e+3, 1.9763556e+2, -1223256.0, -975037.9, -51804.137, -0.13123704, -0.37586066, -964660.06, 38477.06, 0.0, 9.997939, 10.001336 
2.67413e+3, 2.0763034e+2, -1194409.1, -938548.44, -13705.988, -0.11631283, -0.18956605, -937816.3, -32622.824, 0.0, 9.997753, 10.0008955 
2.6737258e+3, 2.1762483e+2, -1054131.9, -941638.6, -90221.79, -0.18388209, -0.043794017, -891566.6, -84312.27, 0.0, 9.998405, 9.999982 
2.673323e+3, 2.2761552e+2, -602284.2, -640913.1, -88992.32, -0.18837915, -0.18461303, -530534.44, 178804.7, 0.0, 10.000774, 10.000181 
2.6729196e+3, 2.3760483e+2, -150279.92, -497282.03, -81506.445, -0.18176857, -0.47536355, -132088.73, 479344.94, 0.0, 10.003609, 9.999214 
2.6725143e+3, 2.4759673e+2, -228483.44, -438492.3, -132679.28, -0.20089775, -0.4127868, -164284.67, 349229.6, 0.0, 10.002313, 9.999522 
2.6721084e+3, 2.5758946e+2, -598476.3, -636012.3, -53133.78, -0.26292554, -0.29030874, -560893.3, -145302.58, 0.0, 9.999302, 9.998991 
2.6717052e+3, 2.6758122e+2, -331381.25, -305600.16, 42607.746, -0.28448954, -0.27399674, -273975.7, 43696.71, 0.0, 9.999962, 10.00017 
2.6713035e+3, 2.775729e+2, -29393.096, -260088.72, 46814.418, -0.24897014, -0.3146398, -20255.135, 199499.38, 0.0, 10.001888, 9.998955 
2.6709014e+3, 2.875646e+2, 29817.574, -269673.22, 26714.22, -0.16062924, -0.17039849, 32181.787, 154023.48, 0.0, 10.002118, 9.99805 
2.6704976e+3, 2.97556e+2, -13366.496, -369992.38, 80638.6, -0.18167198, -0.013461759, 4019.5386, 27953.178, 0.0, 10.001573, 9.997038 
2.6700965e+3, 3.075412e+2, 24224.54, -297103.66, 51412.543, -0.018939301, -0.38997105, 32250.102, 32250.102, 0.0, 10.001454, 9.997215 
2.669692e+3, 3.175361e+2, 174776.72, 139574.95, 116990.7, -0.3128638, 0.14680983, 275483.13, 275483.13, 0.0, 10.000675, 10.000643 
2.687353e+3, 1.2809801e+2, -1011960.06, -1520821.3, 39263.85, -0.33988184, 0.07634365, -1008948.25, 675677.06, 0.052677616, 10.005635, 9.998601 
2.6869568e+3, 1.3808504e+2, -1431090.1, -1753510.0, 6955.1084, 0.21473305, -0.32206064, -1430940.1, 155809.22, 0.03242507, 10.002211, 9.997976 
2.686552e+3, 1.4807698e+2, -1243403.6, -1389308.3, 819.9466, 0.010788043, -0.23925644, -1243399.0, 245429.11, 0.015032841, 10.00197, 9.999828 
2.6861453e+3, 1.580705e+2, -1123794.9, -1383097.5, 11689.077, -0.31530946, -0.07845518, -1123269.0, 267623.22, 0.0044764117, 10.002416, 9.999073 
2.6857415e+3, 1.6806085e+2, -1058608.0, -1166227.1, 50402.73, -0.29603925, -0.20446578, -1038689.0, 254291.58, 0.00066900725, 10.001751, 10.000124 
2.6853383e+3, 1.7805015e+2, -1193869.8, -1246023.9, 32724.438, -0.18887883, -0.4789613, -1178103.0, 16974.346, 0.000027210404, 10.000291, 9.999698 
2.684932e+3, 1.8804377e+2, -937362.2, -810666.3, -147394.38, -0.14709839, -0.40516385, -713583.4, 383556.63, 0.000000001728097, 10.000363, 10.001914 
2.6845253e+3, 1.9803941e+2, -990322.7, -959985.7, -222115.75, -0.06751067, -0.23088808, -752521.1, 246664.36, 0.0, 9.999976, 10.000469 
2.6841214e+3, 2.0803306e+2, -795536.9, -881862.2, -93686.59, -0.08204838, -0.0773904, -735548.25, 165706.95, 0.0, 10.001048, 9.999717 
2.6837182e+3, 2.1802592e+2, -699989.9, -872481.7, -84190.2, -0.11195175, 0.021278523, -665710.5, 137622.86, 0.0, 10.0012865, 9.999089 
2.6833162e+3, 2.2801664e+2, -547363.56, -520236.28, -31633.422, -0.13237862, -0.1499274, -499381.22, 206033.83, 0.0, 10.000773, 10.001004 
2.682914e+3, 2.3800677e+2, -804434.44, -781631.6, -63182.926, -0.12170551, -0.43500042, -728829.6, -121332.23, 0.0, 9.999059, 9.999445 
2.6825073e+3, 2.4800016e+2, -635147.8, -593382.56, -219764.36, -0.18967147, -0.26760045, -393510.94, 116054.08, 0.0, 9.999455, 9.999754 
2.682099e+3, 2.579947e+2, -681843.0, -693732.2, -150842.6, -0.29261786, -0.003516758, -536827.9, -125201.83, 0.0, 9.998898, 9.998761 
2.6816964e+3, 2.6798543e+2, -346310.13, -311594.0, 22650.115, -0.36060607, -0.100270905, -300415.6, 13299.466, 0.0, 9.999919, 10.000113 
2.681296e+3, 2.7797464e+2, -290831.78, -404710.06, -15832.782, -0.36211184, -0.40466115, -288671.47, -72855.6, 0.0, 10.000234, 9.998753 
2.6808935e+3, 2.8796554e+2, -199126.34, -268914.88, -106881.62, -0.2957762, -0.41443354, -121587.12, -3681.4146, 0.0, 10.000104, 9.999002 
2.6804894e+3, 2.979572e+2, -462603.66, -595359.4, -39222.94, -0.2755695, -0.3343081, -451881.2, -431890.97, 0.0, 9.998613, 9.996901 
2.6800886e+3, 3.0794728e+2, -266401.72, -591930.94, 37553.51, -0.11322155, -0.14766364, -262125.66, -262125.66, 0.0, 10.000249, 9.995704 
2.6796865e+3, 3.1793717e+2, 33810.953, 116308.97, 33443.797, -0.12755796, -0.0042796447, 128163.33, 128163.33, 0.0, 9.999746, 10.000863 
2.6973525e+3, 1.2849768e+2, -1318663.1, -1661786.8, -90371.53, -0.16795292, -0.14011344, -1296316.5, 384397.28, 0.043619078, 10.003498, 9.998512 
2.696951e+3, 1.3848901e+2, -1526926.5, -1754965.9, -14069.781, 0.16621187, -0.13803534, -1526061.8, 56734.086, 0.026486209, 10.001399, 9.998322 
2.6965436e+3, 1.4848061e+2, -1237470.8, -1265801.1, 68825.75, -0.22479181, -0.17675364, -1181367.6, 303507.0, 0.012009438, 10.001514, 10.000894 
2.6961365e+3, 1.5847225e+2, -1115711.5, -1264015.9, 36063.22, -0.69089115, -0.30365273, -1107407.0, 279545.3, 0.003455713, 10.00199, 10.000084 
2.6957345e+3, 1.684644e+2, -1001235.9, -1018583.94, 19118.322, -0.3970519, -0.36567533, -988915.9, 300105.13, 0.00049606664, 10.001604, 10.001202 
2.695333e+3, 1.7845662e+2, -1200394.9, -1302763.6, 24678.1, 0.003344939, -0.42698336, -1194756.3, -3667.2324, 0.00001910138, 10.00046, 9.999223 
2.6949254e+3, 1.8844853e+2, -1159915.9, -1300902.0, -135064.11, -0.05279159, -0.2862571, -1078055.4, 15121.864, 0.0000000002885943, 10.000479, 9.998474 
2.6945165e+3, 1.9844088e+2, -1055068.1, -1229506.5, -180506.94, -0.21614644, -0.11249535, -941813.06, 53451.67, 0.0, 10.000519, 9.998352 
2.6941139e+3, 2.0843278e+2, -654978.0, -757436.9, -33964.855, -0.20067783, -0.09453227, -644741.5, 252605.05, 0.0, 10.001706, 10.0002775 
2.6937127e+3, 2.1842474e+2, -426719.25, -636662.9, -55994.97, -0.16652752, -0.14144525, -412718.3, 386706.56, 0.0, 10.002664, 10.000044 
2.6933086e+3, 2.2841667e+2, -434124.6, -364133.8, -93153.85, -0.19770972, -0.28276312, -299618.8, 401873.7, 0.0, 10.0010805, 10.001944 
2.692904e+3, 2.384086e+2, -780777.5, -688938.7, -88075.734, -0.24936648, -0.46477163, -635530.75, -31972.96, 0.0, 9.998818, 10.000199 
2.692498e+3, 2.4840023e+2, -743204.7, -749156.56, -177313.77, -0.21327502, -0.4315382, -568841.9, -63200.266, 0.0, 9.999093, 9.998895 
2.692092e+3, 2.5839198e+2, -530484.4, -662886.94, -123017.63, -0.19508745, -0.35045636, -456986.16, -49257.195, 0.0, 10.000016, 9.998455 
2.6916903e+3, 2.6838428e+2, -275087.84, -317429.34, 12789.754, -0.2163486, -0.25614387, -271524.44, 38280.766, 0.0, 10.000497, 9.999839 
2.69129e+3, 2.7837637e+2, -225507.42, -356087.56, -61696.594, -0.2184426, -0.23284297, -200968.4, 10913.38, 0.0, 10.000514, 9.998963 
2.690887e+3, 2.883667e+2, -283111.84, -264942.13, -213132.77, -0.09011026, -0.33787277, -60700.676, 53273.06, 0.0, 9.9992485, 9.999458 
2.6904824e+3, 2.983571e+2, -474781.1, -448486.63, -103657.336, 0.00500794, -0.4458121, -357146.1, -341080.4, 0.0, 9.997774, 9.998313 
2.6900795e+3, 3.0834848e+2, -136923.28, -247143.2, 143153.66, -0.21402365, -0.33912385, -38638.07, -38638.07, 0.0, 9.999802, 9.998337 
2.6896784e+3, 3.1833988e+2, 150141.9, 37803.87, -160248.03, -0.22210532, -0.22216131, 263779.8, 263779.8, 0.0, 10.000927, 9.999801 
2.7073473e+3, 1.2890127e+2, -1644714.9, -1506300.5, -45128.797, 0.0010197603, -0.1495626, -1492886.6, 183878.72, 0.035549942, 9.999675, 10.001483 
2.7069432e+3, 1.3889612e+2, -1510452.1, -1602216.8, 118378.28, 0.10351219, -0.015393933, -1429375.4, 149429.31, 0.021269772, 10.000781, 9.999735 
2.7065367e+3, 1.4888696e+2, -1482064.9, -1503496.3, 157563.25, -0.22153941, -0.087163575, -1334853.4, 146039.25, 0.009415533, 10.000271, 9.999899 
2.7061304e+3, 1.5887703e+2, -1532562.4, -1512018.4, 24339.412, -0.54820836, -0.27134672, -1495872.3, -112883.29, 0.0026134893, 9.999274, 9.999713 
2.7057278e+3, 1.6886921e+2, -1199537.6, -1084341.9, -45816.133, -0.30672258, -0.34609422, -1068342.0, 216715.1, 0.0003600524, 10.000057, 10.0015135 
2.7053258e+3, 1.7886208e+2, -1181841.6, -1313155.9, -67919.05, 0.05230873, -0.37193978, -1153032.6, 34086.05, 0.000012952271, 10.0006895, 9.999037 
2.704918e+3, 1.8885359e+2, -961062.6, -1313810.8, -59668.914, -0.09428359, -0.20776519, -951242.75, 137969.4, 0.000000000007316074, 10.002368, 9.997455 
2.704509e+3, 1.9884464e+2, -743898.6, -1192738.5, 41413.293, -0.32744288, -0.03969432, -740109.5, 251204.81, 0.0, 10.003166, 9.997335 
2.7041072e+3, 2.0883527e+2, -754734.56, -827116.4, 116570.52, -0.22163193, -0.08580952, -668866.2, 224540.47, 0.0, 10.001167, 10.000039 
2.7037066e+3, 2.1882628e+2, -1102792.9, -979401.56, 21896.316, -0.056713805, -0.19577806, -975631.2, -180140.13, 0.0, 9.998161, 9.999844 
2.7033007e+3, 2.2881883e+2, -740384.75, -465125.4, -77038.266, -0.16949777, -0.3021573, -445031.22, 252521.13, 0.0, 9.998846, 10.00227 
2.7028942e+3, 2.3881173e+2, -786380.44, -742750.5, -87548.336, -0.29750773, -0.41230893, -674340.2, -74730.86, 0.0, 9.999045, 9.999712 
2.70249e+3, 2.4880157e+2, -494227.94, -677754.6, -88988.8, -0.19545367, -0.51888716, -458165.16, 43542.95, 0.0, 10.00105, 9.998414 
2.7020866e+3, 2.5879112e+2, -348372.0, -669931.1, -7544.024, -0.044814773, -0.6079616, -348195.1, 55618.47, 0.0, 10.001781, 9.997526 
2.7016845e+3, 2.6878443e+2, -212294.73, -339060.06, 72922.62, -0.09005428, -0.35378793, -179059.23, 126824.16, 0.0, 10.001228, 9.999298 
2.701283e+3, 2.7877846e+2, -438662.78, -508324.9, -43615.438, -0.13577202, -0.089325264, -417677.1, -209732.1, 0.0, 9.999373, 9.998453 
2.70088e+3, 2.8876823e+2, -212873.19, -186031.17, -214121.14, 0.07307089, -0.26115534, 15089.155, 125128.59, 0.0, 9.999648, 9.999767 
2.700475e+3, 2.9875728e+2, -262503.84, -249202.52, -42313.773, 0.22682294, -0.5379433, -213019.94, -200880.98, 0.0, 9.998913, 9.999127 
2.7000698e+3, 3.0874962e+2, 22424.055, 156792.6, 235218.14, -0.39101002, -0.5797471, 334233.16, 334233.16, 0.0, 9.999581, 10.001189 
2.699671e+3, 3.1874406e+2, -261062.5, -432904.03, -487568.13, -0.2171027, -0.36369905, 148097.6, 148097.6, 0.0, 9.99946, 9.997258 
2.7173406e+3, 1.2930682e+2, -1315908.9, -901342.6, 13200.352, 0.07182545, -0.004268067, -900922.75, 771873.7, 0.028414954, 10.000131, 10.005503 
2.7169347e+3, 1.3930432e+2, -1439627.3, -1431189.0, 99219.4, -0.08515002, 0.035550352, -1336099.0, 238700.36, 0.016713178, 10.00075, 10.000904 
2.7165297e+3, 1.4929463e+2, -1650133.0, -1818356.5, 113727.52, -0.1461419, 0.021967731, -1592792.5, -115894.95, 0.0071980846, 10.000184, 9.997738 
2.7161255e+3, 1.5928376e+2, -1654594.0, -1713416.3, 42911.668, -0.1982991, -0.06224082, -1631981.9, -252971.03, 0.0019202423, 9.999095, 9.998401 
2.7157214e+3, 1.692748e+2, -1225633.5, -1114643.5, 18033.51, -0.17436972, -0.19948767, -1111786.9, 169304.72, 0.00025324232, 9.999991, 10.001327 
2.715317e+3, 1.7926647e+2, -1147556.5, -1249085.0, -5614.547, -0.17065491, -0.32446533, -1147247.0, 35918.24, 0.000008369746, 10.0007105, 9.999468 
2.7149102e+3, 1.8925902e+2, -846047.06, -1085498.9, 26459.059, -0.3314006, -0.17520101, -843158.2, 242084.78, 0.0, 10.002426, 9.998991 
2.714503e+3, 1.9925147e+2, -652887.9, -1080039.6, 68401.78, -0.50596356, 0.006991978, -642201.7, 345122.72, 0.0, 10.003485, 9.997958 
2.714101e+3, 2.0924143e+2, -837013.75, -1016074.8, 29869.54, -0.16218491, -0.026764449, -832162.56, 57263.35, 0.0, 10.001235, 9.998724 
2.7136993e+3, 2.1923144e+2, -1111097.5, -1049371.3, 1659.9489, 0.1733666, -0.10610589, -1049326.6, -257802.1, 0.0, 9.99834, 9.999291 
2.7132928e+3, 2.2922403e+2, -761176.44, -536115.1, 1598.7144, -0.043949503, -0.14768307, -536103.75, 157485.56, 0.0, 9.998916, 10.001785 
2.7128863e+3, 2.3921695e+2, -580751.06, -620249.75, -2957.7844, -0.331503, -0.19947118, -580530.8, 15118.373, 0.0, 10.000287, 9.99996 
2.7124843e+3, 2.4920677e+2, -267580.47, -476038.1, 20775.488, -0.15798956, -0.36129496, -265530.1, 232212.78, 0.0, 10.0021715, 9.999276 
2.712083e+3, 2.5919625e+2, -51685.734, -483159.06, 60611.984, 0.049675405, -0.5081341, -43332.86, 356509.34, 0.0, 10.003571, 9.997943 
2.7116778e+3, 2.6918763e+2, -183705.34, -478937.22, 38088.625, -0.14540371, -0.36109066, -178870.6, 123062.75, 0.0, 10.002009, 9.997992 
2.711273e+3, 2.7917945e+2, -353529.1, -476655.88, -53471.344, -0.351871, -0.19710042, -333549.66, -129529.65, 0.0, 9.999938, 9.998395 
2.71087e+3, 2.8916952e+2, -32866.313, -36421.742, -140234.22, -0.14042366, -0.36070195, 105601.46, 211711.1, 0.0, 10.000596, 10.000356 
2.7104658e+3, 2.9915968e+2, 185686.9, 87348.04, 10533.801, 0.015341692, -0.581718, 186802.6, 194999.42, 0.0, 10.001382, 10.000266 
2.710062e+3, 3.0915383e+2, 128275.55, 297375.22, 185192.66, -0.37516657, -0.50937986, 416405.8, 416405.8, 0.0, 9.99984, 10.0020895 
2.7096644e+3, 3.1914878e+2, -238595.17, -548033.44, -327971.44, 0.015042861, -0.25248984, -30680.506, -30680.506, 0.0, 10.000034, 9.996231 
2.727333e+3, 1.2971243e+2, -1007112.06, -1220456.6, 69758.445, -0.15652604, -0.11231511, -986327.6, 682481.7, 0.022191074, 10.0042305, 10.001328 
2.7269277e+3, 1.3970618e+2, -1299709.9, -1510285.0, -191524.3, -0.10703405, -0.07014708, -1186440.8, 384425.22, 0.012784307, 10.00226, 9.999674 
2.7265233e+3, 1.4969873e+2, -1407925.4, -1499825.0, -65373.527, -0.044428278, 0.008954076, -1373968.5, 98972.234, 0.00532732, 10.000926, 9.999608 
2.7261192e+3, 1.5969056e+2, -1553153.1, -1582720.4, 76843.53, 0.04492597, 0.049183134, -1489684.1, -114660.43, 0.0013580795, 9.999432, 9.999152 
2.7257136e+3, 1.6968107e+2, -1402019.9, -1258477.3, 87019.03, -0.08976536, -0.12165156, -1217450.4, 59661.074, 0.00016970174, 9.9990835, 10.00077 
2.725308e+3, 1.7967184e+2, -1453533.5, -1398330.1, 48431.824, -0.24463993, -0.2808928, -1370186.9, -190990.89, 0.0000049540654, 9.998628, 9.9994545 
2.7249023e+3, 1.8966444e+2, -1226802.4, -1160814.4, 70089.29, -0.37245464, -0.19874218, -1116341.5, -35071.797, 0.0, 9.999308, 9.999983 
2.7244976e+3, 1.9965728e+2, -1185391.4, -1291940.6, 55650.406, -0.40862557, -0.07078626, -1161626.0, -178283.11, 0.0, 9.999656, 9.998336 
2.724095e+3, 2.0964758e+2, -823017.5, -1026614.2, 48418.543, -0.06452123, -0.07674497, -812089.4, 73351.49, 0.0, 10.001449, 9.99852 
2.723692e+3, 2.196377e+2, -652667.25, -927119.1, 126505.484, 0.29491588, -0.09786442, -603252.9, 184287.22, 0.0, 10.00197, 9.998381 
2.7232853e+3, 2.2962984e+2, -423540.84, -500414.88, 116427.445, 0.003925753, -0.06731523, -339369.75, 350245.94, 0.0, 10.001864, 10.000589 
2.7228788e+3, 2.396223e+2, -604465.5, -713377.06, 67968.91, -0.31850713, -0.04389593, -571828.2, 19857.297, 0.0, 10.000595, 9.999149 
2.7224782e+3, 2.4961226e+2, -436503.9, -498080.16, 61414.098, -0.13028926, -0.2155977, -398592.7, 95182.55, 0.0, 10.000836, 9.999733 
2.722078e+3, 2.5960192e+2, -564082.5, -789469.4, 29472.123, 0.10054795, -0.37189224, -560292.4, -164423.69, 0.0, 10.000368, 9.997394 
2.721671e+3, 2.6959184e+2, -459991.34, -699256.56, -2845.5645, -0.21089505, -0.31465706, -459957.5, -161982.5, 0.0, 10.000556, 9.997161 
2.7212635e+3, 2.7958187e+2, -487619.34, -630447.2, -7803.561, -0.5154191, -0.24180442, -487194.28, -287113.63, 0.0, 9.999464, 9.997572 
2.7208605e+3, 2.8957206e+2, -90711.18, -42965.684, -61852.023, -0.30631325, -0.40663046, -539.2529, 101629.94, 0.0, 10.0001335, 10.00051 
2.720457e+3, 2.995632e+2, -46668.766, -33839.16, 13213.483, -0.18016711, -0.5438711, -25565.674, -21320.063, 0.0, 9.999907, 10.000126 
2.7200547e+3, 3.0955884e+2, 156112.7, 351006.06, 90752.83, -0.29609793, -0.37589702, 386720.7, 386720.7, 0.0, 9.999919, 10.002359 
2.7196556e+3, 3.1955153e+2, -361703.4, -712046.9, -2851.0032, -0.085855395, -0.3568699, -361680.22, -361680.22, 0.0, 9.999793, 9.9951515 
2.7373248e+3, 1.3011731e+2, -1694356.1, -2394296.3, -75134.41, -0.62159395, -0.26649514, -1686381.8, -21556.55, 0.016853949, 10.003179, 9.993642 
2.7369216e+3, 1.4010505e+2, -1602062.6, -1869382.1, -183500.84, -0.15710151, -0.23584513, -1508703.6, 58263.527, 0.009467282, 10.001151, 9.997705 
2.7365163e+3, 1.5010124e+2, -1161329.1, -906499.1, -65141.105, -0.011513746, -0.058004037, -890812.94, 578187.1, 0.0037924994, 10.000633, 10.003802 
2.7361113e+3, 1.6009729e+2, -1423987.4, -1335993.6, 58133.195, 0.067439236, 0.05288884, -1307085.1, 63946.4, 0.0009170214, 9.999562, 10.000758 
2.7357045e+3, 1.7008774e+2, -1449094.6, -1373724.5, 97114.195, -0.12028621, -0.09861417, -1307239.9, -34118.406, 0.0001065257, 9.999193, 9.999908 
2.735298e+3, 1.8007793e+2, -1440506.1, -1393030.8, 78361.53, -0.336234, -0.2417484, -1334890.4, -159675.97, 0.0000025959862, 9.998735, 9.999427 
2.734895e+3, 1.9006956e+2, -1174918.6, -1073055.1, 116825.445, -0.2658367, -0.29841602, -996541.9, 80753.875, 0.0, 9.999374, 10.000569 
2.734492e+3, 2.0006159e+2, -1067111.3, -1103342.5, 116991.29, -0.177699, -0.30974984, -966841.4, 12531.944, 0.0, 9.999877, 9.9995165 
2.734089e+3, 2.1005358e+2, -660155.0, -780248.06, 155966.61, -0.06009266, -0.28760722, -553075.3, 328374.63, 0.0, 10.001813, 10.000044 
2.733685e+3, 2.200455e+2, -431350.53, -842602.56, 194626.17, 0.013159699, -0.22684845, -353848.66, 429680.03, 0.0, 10.00354, 9.998203 
2.7332783e+3, 2.3003635e+2, -439289.34, -785995.5, 117496.05, -0.16870019, -0.1299428, -403222.72, 282403.0, 0.0, 10.002901, 9.998145 
2.732872e+3, 2.4002728e+2, -521517.84, -809383.06, 57582.934, -0.35809916, -0.036510844, -510426.63, 77294.16, 0.0, 10.001695, 9.997958 
2.7324703e+3, 2.5001737e+2, -458851.56, -572493.0, 50919.3, -0.20791492, -0.112969786, -439374.38, 50438.65, 0.0, 10.000889, 9.9992285 
2.7320686e+3, 2.6000762e+2, -528535.25, -688120.9, 26259.543, -0.057982966, -0.17954907, -524325.3, -132422.2, 0.0, 10.000186, 9.998176 
2.731663e+3, 2.699988e+2, -387006.4, -528292.56, 34609.58, -0.2504133, -0.09465921, -378983.94, -84989.71, 0.0, 10.000418, 9.998425 
2.731257e+3, 2.7998972e+2, -275524.56, -468337.38, 61722.793, -0.38984218, -0.022602782, -257458.7, -61370.535, 0.0, 10.000538, 9.998195 
2.7308556e+3, 2.8997952e+2, -110349.87, -174710.0, -12075.217, -0.022972865, -0.14641483, -108158.91, -9973.859, 0.0, 10.0004, 9.99954 
2.7304527e+3, 2.999702e+2, -17655.043, -51627.324, 58738.18, 0.16842306, -0.23566346, 26503.748, 26774.402, 0.0, 10.000158, 9.99989 
2.7300465e+3, 3.0996403e+2, 229945.36, 312147.7, 112904.88, -0.39153475, -0.19163305, 391199.84, 391199.84, 0.0, 10.000654, 10.001777 
2.7296472e+3, 3.1995544e+2, -136766.8, -451712.34, -27765.535, -0.19335164, -0.24310043, -134337.73, -134337.73, 0.0, 10.000488, 9.996655 
2.747322e+3, 1.3052344e+2, -1611042.1, -2146095.5, -259395.28, -0.3802309, -0.12266506, -1505934.4, 154916.39, 0.012358384, 10.002766, 9.9955635 
2.7469155e+3, 1.4051099e+2, -1791041.6, -1864526.9, 20097.57, 0.05794192, -0.23056214, -1785904.4, -222917.11, 0.006744914, 9.999402, 9.998568 
2.7465093e+3, 1.5050556e+2, -1137501.9, -948474.0, 52137.91, 0.028877333, -0.18494341, -935047.0, 529986.75, 0.0025850076, 10.000968, 10.003354 
2.7461034e+3, 1.6050074e+2, -1025277.75, -1156246.4, -60355.355, 0.010370162, -0.12900162, -1001706.06, 365366.25, 0.0005889778, 10.00231, 10.000667 
2.745697e+3, 1.7049225e+2, -1112127.0, -1226826.8, -34185.91, -0.09056855, -0.18882094, -1102711.0, 166442.67, 0.00006228534, 10.001494, 9.999832 
2.745291e+3, 1.8048331e+2, -1257487.9, -1355713.3, 32206.281, -0.1935941, -0.22982903, -1247869.9, -76629.375, 0.0000011486238, 10.000196, 9.9989805 
2.744888e+3, 1.904744e+2, -958375.0, -1011479.6, 29435.42, -0.18147938, -0.31518227, -945285.56, 128041.92, 0.0, 10.0010605, 10.000161 
2.7444854e+3, 2.0046602e+2, -852948.94, -968006.56, -24980.49, -0.11972142, -0.3651191, -847759.4, 127649.03, 0.0, 10.001264, 9.999769 
2.744082e+3, 2.104588e+2, -737398.9, -707562.56, -25546.943, -0.087272435, -0.37462804, -692897.0, 184576.06, 0.0, 10.000816, 10.001022 
2.743678e+3, 2.2045138e+2, -1004067.44, -1182188.1, -9110.5, -0.07325236, -0.32201934, -1003602.6, -224060.39, 0.0, 9.999922, 9.997602 
2.743272e+3, 2.3044156e+2, -773978.9, -1115826.4, -34347.527, -0.22092512, -0.19978382, -770561.94, -88910.79, 0.0, 10.001374, 9.996588 
2.7428663e+3, 2.4043168e+2, -601076.56, -998149.9, -10821.869, -0.33344245, -0.044234473, -600781.8, -17021.805, 0.0, 10.001826, 9.996601 
2.7424634e+3, 2.504219e+2, -336993.6, -562536.0, -576.51984, -0.22482505, -0.067581475, -336992.13, 148861.45, 0.0, 10.001957, 9.998764 
2.7420604e+3, 2.604127e+2, -436901.1, -650775.4, -4011.1501, -0.13596484, -0.054043163, -436825.9, -48885.207, 0.0, 10.000931, 9.998051 
2.741655e+3, 2.7040473e+2, -351531.03, -392781.3, -15388.282, -0.27036154, 0.020052705, -346423.0, -56403.125, 0.0, 10.000211, 9.999416 
2.74125e+3, 2.8039655e+2, -533490.3, -647821.7, -8560.906, -0.29307207, 0.110698044, -532852.8, -340750.56, 0.0, 9.999116, 9.997617 
2.7408504e+3, 2.9038638e+2, -173361.33, -332297.66, -83931.89, 0.23091412, 0.06456681, -137245.11, -43039.824, 0.0, 10.000616, 9.998314 
2.740448e+3, 3.0037665e+2, -25201.656, -179361.27, -9846.082, 0.47241062, 0.045168508, -24575.336, -24575.336, 0.0, 10.000763, 9.998703 
2.740037e+3, 3.103686e+2, 68213.12, 181986.64, 72488.96, -0.574424, -0.06430996, 217245.16, 217245.16, 0.0, 9.999898, 10.001179 
2.739641e+3, 3.2035863e+2, -232638.52, -279562.0, -100373.18, -0.049501225, -0.26453397, -153021.5, -153021.5, 0.0, 9.999068, 9.998469 
2.7573207e+3, 1.309302e+2, -1470807.1, -1411812.0, -411637.47, -0.0065985997, 0.14281578, -1028616.56, 628260.0, 0.008685295, 10.000951, 10.001468 
2.756909e+3, 1.4092003e+2, -1665457.0, -1717372.5, 4789.099, 0.24149059, -0.20536609, -1665018.9, -106048.54, 0.004592608, 9.9999485, 9.999295 
2.7565023e+3, 1.5091054e+2, -1331098.8, -1379889.1, 135328.58, -0.008942343, -0.35018504, -1217984.1, 243072.9, 0.0016782222, 10.001145, 10.000284 
2.756096e+3, 1.6090196e+2, -1144056.0, -1320213.5, -44521.55, -0.21247745, -0.4178028, -1133443.1, 229692.72, 0.0003582281, 10.001992, 9.999679 
2.7556908e+3, 1.7089511e+2, -1087810.3, -1135998.8, -64083.535, -0.055872347, -0.344654, -1043441.1, 221761.97, 0.000033741435, 10.001345, 10.000513 
2.7552855e+3, 1.8088803e+2, -1268672.3, -1400653.8, 48153.36, 0.0063549182, -0.23243584, -1252971.4, -85697.53, 0.00000040337267, 10.000283, 9.998621 
2.7548805e+3, 1.90879e+2, -1033015.1, -1196981.0, 87984.95, -0.25588885, -0.21796635, -994737.7, 74628.34, 0.0, 10.001175, 9.9988365 
2.754476e+3, 2.0087029e+2, -793782.75, -957391.5, -32252.814, -0.45018834, -0.19545807, -787654.2, 183798.66, 0.0, 10.001711, 9.999638 
2.7540737e+3, 2.108623e+2, -684188.3, -639620.44, -56962.88, -0.18886381, -0.30840924, -600737.9, 272784.8, 0.0, 10.000942, 10.00146 
2.7536714e+3, 2.2085416e+2, -924257.4, -1091246.9, -5457.7813, 0.012131026, -0.36470854, -924079.2, -148482.31, 0.0, 10.000223, 9.998074 
2.7532664e+3, 2.3084436e+2, -719382.8, -1066907.6, 25950.633, -0.14848237, -0.25417754, -717455.7, -39751.723, 0.0, 10.00161, 9.996837 
2.7528614e+3, 2.4083449e+2, -395390.0, -827253.6, 14548.558, -0.29322597, -0.12596406, -394900.47, 184910.31, 0.0, 10.002855, 9.997295 
2.7524593e+3, 2.5082457e+2, -206246.27, -488582.72, 4850.5137, -0.113274515, -0.1732701, -206162.95, 275742.25, 0.0, 10.002768, 9.998904 
2.7520558e+3, 2.608149e+2, -206347.08, -480502.4, -30473.615, -0.0076292646, -0.2132582, -203000.64, 180994.81, 0.0, 10.00219, 9.998623 
2.7516472e+3, 2.708057e+2, -272068.47, -348049.7, -71800.79, -0.28634182, -0.26556054, -228827.06, 57254.418, 0.0, 10.000664, 9.999543 
2.75124e+3, 2.8079662e+2, -505493.56, -689948.1, -15166.011, -0.44922838, -0.24591386, -504254.9, -316085.53, 0.0, 9.999495, 9.997148 
2.7508417e+3, 2.90787e+2, -173560.67, -512757.25, -57392.566, 0.013935827, -0.08348361, -164112.92, -73837.79, 0.0, 10.001373, 9.996731 
2.7504402e+3, 3.007776e+2, 270358.0, -2743.854, -86807.87, 0.23674037, 0.040284045, 295614.84, 295614.84, 0.0, 10.002549, 9.999092 
2.7500305e+3, 3.1076887e+2, 179129.22, 333667.03, -53398.305, -0.45585164, -0.21482804, 350322.9, 350322.9, 0.0, 10.0001, 10.002203 
2.7496344e+3, 3.2075876e+2, -203908.7, -289343.34, 45305.945, 0.13326123, -0.47887197, -184357.27, -184357.27, 0.0, 9.999188, 9.99838 
2.7673122e+3, 1.31334e+2, -1768446.6, -1435148.3, -213722.98, 0.0921847, -0.009149909, -1330781.8, 322138.34, 0.005822692, 9.998293, 10.002631 
2.7669013e+3, 1.4132641e+2, -970399.6, -1412829.9, -115218.97, 0.009232306, -0.14330138, -942192.3, 612792.4, 0.0029696804, 10.004835, 9.999057 
2.766495e+3, 1.513161e+2, -1171114.1, -1473137.6, -16057.865, -0.107758425, -0.26175648, -1170262.8, 286822.28, 0.0010279784, 10.002981, 9.998767 
2.7660897e+3, 1.6130641e+2, -1351399.0, -1482422.4, -112535.836, -0.16180107, -0.31855547, -1286695.1, 72484.3, 0.0002033788, 10.000795, 9.999173 
2.765684e+3, 1.7129979e+2, -1079154.1, -1115313.3, -154882.86, -0.04570404, -0.2318754, -941299.2, 319943.66, 0.000016580547, 10.001304, 10.0007 
2.7652785e+3, 1.8129301e+2, -1119220.8, -1349872.0, -35373.484, 0.01658801, -0.102495685, -1113917.8, 49391.273, 0.00000009587778, 10.001435, 9.998413 
2.7648735e+3, 1.9128329e+2, -1084086.8, -1275673.0, 40858.625, -0.2689992, -0.127607, -1075736.9, -10329.226, 0.0, 10.001081, 9.998347 
2.764469e+3, 2.0127381e+2, -1025213.2, -1127049.1, -40868.367, -0.4658849, -0.12375053, -1010840.5, -43338.633, 0.0, 10.000386, 9.999121 
2.7640668e+3, 2.1126544e+2, -798168.3, -721600.06, -139236.44, -0.14900482, -0.2572443, -615480.4, 254095.98, 0.0, 10.000303, 10.001197 
2.7636644e+3, 2.2125715e+2, -973518.0, -1081549.9, -52906.16, 0.11459832, -0.3225983, -951924.5, -180272.72, 0.0, 9.999811, 9.998333 
2.76326e+3, 2.3124795e+2, -683551.2, -928377.56, 73930.54, -0.13228744, -0.26556355, -662958.4, 10790.237, 0.0, 10.00139, 9.997875 
2.7628556e+3, 2.4123855e+2, -576081.6, -903609.8, 66467.516, -0.2945363, -0.15661356, -563106.94, 12739.846, 0.0, 10.001666, 9.997315 
2.762454e+3, 2.5122848e+2, -572102.7, -677814.94, 7995.7637, -0.035069812, -0.23047517, -571501.3, -93557.39, 0.0, 10.000358, 9.998741 
2.7620503e+3, 2.6121825e+2, -718315.06, -784173.4, -36904.53, 0.12381726, -0.29804078, -701784.4, -321744.56, 0.0, 9.998989, 9.998083 
2.76164e+3, 2.712076e+2, -293980.88, -367167.9, -102324.17, -0.26567757, -0.4835514, -221903.69, 60231.668, 0.0, 10.00067, 9.999373 
2.7612314e+3, 2.811974e+2, -400682.28, -773643.94, 8209.512, -0.5331811, -0.52774596, -400501.66, -216269.92, 0.0, 10.0008745, 9.995908 
2.7608323e+3, 2.9118788e+2, -386660.63, -764545.3, 62469.234, -0.21022592, -0.24068491, -376601.4, -290259.9, 0.0, 10.000583, 9.995382 
2.7604318e+3, 3.0117872e+2, -162706.98, -223472.0, -11042.719, -0.017518094, 0.011496582, -160762.44, -160762.44, 0.0, 9.999723, 9.998915 
2.7600253e+3, 3.11169e+2, 217389.95, 446953.88, -90884.164, -0.19345845, -0.41527304, 478578.28, 478578.28, 0.0, 10.000053, 10.002961 
2.759624e+3, 3.211587e+2, -292449.44, -401239.44, 262825.3, -0.07252405, -0.74013215, -78449.27, -78449.27, 0.0, 9.999119, 9.997564 
2.7773014e+3, 1.3173658e+2, -1814648.6, -1560369.5, 54599.305, -0.075985804, -0.23423865, -1549141.6, 99829.766, 0.0036891415, 9.998536, 10.001585 
2.776893e+3, 1.4173135e+2, -1235049.1, -1638875.0, -50175.527, -0.52816683, -0.05734801, -1228908.3, 322108.22, 0.001804215, 10.003507, 9.998108 
2.7764887e+3, 1.5172209e+2, -1297824.1, -1594996.3, -76744.19, -0.28326416, -0.016633477, -1279175.4, 173939.83, 0.00058557204, 10.002411, 9.9981785 
2.776084e+3, 1.6171297e+2, -1362978.1, -1514944.5, -107449.82, -0.06555244, 0.03305951, -1307360.0, 47850.01, 0.00010501939, 10.000839, 9.998922 
2.7756763e+3, 1.7170574e+2, -1058447.3, -1110657.3, -95181.29, -0.17123795, 0.06588841, -985856.06, 271419.97, 0.0000068884756, 10.001468, 10.000654 
2.7752697e+3, 1.8169801e+2, -1097676.0, -1316012.4, -19280.701, -0.27507135, 0.10916513, -1095986.5, 63360.965, 0.00000000965895, 10.001505, 9.998599 
2.7748668e+3, 1.9168697e+2, -1059467.1, -1228779.3, 57252.363, -0.26136956, -0.07067192, -1041924.9, 19529.842, 0.0, 10.001095, 9.998669 
2.774464e+3, 2.0167658e+2, -1037176.7, -1166121.3, -40519.18, -0.24312916, -0.16673444, -1025501.25, -61945.492, 0.0, 10.000465, 9.998792 
2.77406e+3, 2.1166827e+2, -866711.7, -888553.5, -118520.64, -0.038477294, -0.1813005, -758609.9, 107024.72, 0.0, 10.00043, 9.999981 
2.7736562e+3, 2.2166039e+2, -742902.44, -806101.7, -10606.515, 0.03512868, -0.16096282, -741169.9, 26538.744, 0.0, 10.000642, 9.999841 
2.7732518e+3, 2.3165277e+2, -425207.63, -506588.9, 155829.47, -0.32423946, -0.17322077, -304843.75, 364935.88, 0.0, 10.001834, 10.000597 
2.7728477e+3, 2.4164483e+2, -418542.5, -700438.7, 56140.316, -0.53776073, -0.13025266, -407773.44, 164082.64, 0.0, 10.002176, 9.998454 
2.7724448e+3, 2.5163543e+2, -649039.5, -776545.25, -37955.625, -0.13012747, -0.09582731, -638596.25, -164643.98, 0.0, 10.000059, 9.998233 
2.7720413e+3, 2.6162544e+2, -742413.4, -812760.6, 28348.219, 0.13965055, -0.088583834, -732411.75, -356360.53, 0.0, 9.998828, 9.997978 
2.7716342e+3, 2.7161375e+2, -190759.69, -379832.72, 27571.89, -0.17080037, -0.315908, -186821.02, 91335.83, 0.0, 10.001575, 9.998885 
2.7712277e+3, 2.8160256e+2, 15421.8955, -470051.34, 27099.365, -0.38574204, -0.44216272, 16929.912, 197190.86, 0.0, 10.003202, 9.996875 
2.7708253e+3, 2.915929e+2, -260308.05, -581571.2, 58661.09, -0.17798348, -0.27047953, -249931.95, -167567.69, 0.0, 10.000778, 9.996598 
2.7704227e+3, 3.0158332e+2, -273409.88, -305553.22, 128023.09, -0.024522744, -0.124928325, -160453.6, -160453.6, 0.0, 9.998976, 9.998716 
2.7700216e+3, 3.1157258e+2, 221724.88, 249023.34, 50001.355, 0.16900793, -0.49163112, 287204.97, 287204.97, 0.0, 10.00086, 10.001221 
2.7696168e+3, 3.2156387e+2, -38541.695, -294965.94, 152334.84, -0.0853717, -0.49611452, 32354.826, 32354.826, 0.0, 10.000789, 9.9975 
2.7872926e+3, 1.3213925e+2, -1441369.5, -1381249.3, 84520.266, -0.19552478, -0.37122074, -1321602.8, 323419.13, 0.0021708824, 10.001026, 10.001634 
2.7868876e+3, 1.4213546e+2, -1681497.9, -1785713.8, -45106.375, -0.40163288, -0.06143121, -1664686.9, -117633.67, 0.001007235, 10.000021, 9.998834 
2.7864823e+3, 1.521271e+2, -1386399.3, -1554421.0, -26751.182, -0.25032184, -0.008916924, -1382243.0, 66901.53, 0.00030058212, 10.001313, 9.999059 
2.7860773e+3, 1.6211838e+2, -1134280.8, -1389605.9, 34728.332, -0.06338217, 0.03403477, -1129641.4, 221594.2, 0.000046417692, 10.002322, 9.999082 
2.7856705e+3, 1.7210986e+2, -837653.1, -1050711.0, 24930.383, -0.17859052, -0.02391018, -834774.8, 418536.6, 0.0000020738605, 10.003183, 10.00025 
2.7852643e+3, 1.8210101e+2, -865897.56, -1259946.4, 65740.516, -0.2693178, -0.03110927, -855219.2, 300173.22, 0.00000000000031198744, 10.003332, 9.9981 
2.7848613e+3, 1.920901e+2, -841644.9, -1150280.5, 57382.06, -0.18720089, -0.17029604, -831321.6, 226178.83, 0.0, 10.002732, 9.998393 
2.7844584e+3, 2.0207989e+2, -903871.0, -1186308.9, -35660.47, -0.076378144, -0.20313042, -899438.1, 60163.13, 0.0, 10.001797, 9.998003 
2.7840537e+3, 2.1207146e+2, -725799.9, -919767.5, -93792.3, 0.020579023, -0.14756687, -687865.75, 173819.23, 0.0, 10.001886, 9.999047 
2.7836487e+3, 2.2206347e+2, -681055.25, -738764.8, 31588.137, 0.008260267, -0.08214762, -667126.75, 96634.85, 0.0, 10.000939, 10.000144 
2.7832443e+3, 2.3205596e+2, -654556.3, -475587.75, 57595.434, -0.39708987, -0.20675398, -458654.6, 207170.64, 0.0, 9.999679, 10.001824 
2.7828398e+3, 2.4204856e+2, -920469.6, -937955.1, -139823.05, -0.5938754, -0.2069339, -789116.25, -221224.39, 0.0, 9.99877, 9.998465 
2.782437e+3, 2.5204015e+2, -525590.1, -718618.75, -202336.64, -0.13253604, -0.092560075, -397927.88, 72053.3, 0.0, 10.000996, 9.998158 
2.7820337e+3, 2.620309e+2, -399393.25, -722168.3, -13170.365, 0.18884934, 0.015617357, -398856.75, -26780.588, 0.0, 10.00163, 9.997205 
2.7816287e+3, 2.72019e+2, -248808.14, -480530.1, 8593.722, -0.090440564, -0.19733985, -248489.88, 25697.273, 0.0, 10.001553, 9.998177 
2.7812237e+3, 2.8200755e+2, -279843.8, -556194.4, -103046.66, -0.2661102, -0.32739434, -245650.25, -69356.305, 0.0, 10.001027, 9.997311 
2.7808186e+3, 2.9199758e+2, -119796.63, -343111.88, -119544.39, -0.12251734, -0.3443536, -67874.66, 10516.228, 0.0, 10.001127, 9.998 
2.7804142e+3, 3.0198786e+2, -170420.3, -374774.2, 53509.65, -0.0053253514, -0.27628765, -157256.83, -157256.83, 0.0, 10.000338, 9.997549 
2.780017e+3, 3.1197694e+2, -49389.242, -101352.87, 30707.805, 0.44318497, -0.51313746, -35146.387, -35146.387, 0.0, 10.000065, 9.999163 
2.7796093e+3, 3.2197022e+2, -286751.2, -374910.75, -55654.39, -0.123475075, -0.17720255, -259834.94, -259834.94, 0.0, 9.999057, 9.997781 
2.797285e+3, 1.325424e+2, -1381506.6, -1296552.4, 39111.742, -0.3195404, -0.42450562, -1281288.4, 359779.28, 0.001167345, 10.00129, 10.002053 
2.796883e+3, 1.4253955e+2, -1659059.1, -1661210.1, -11730.82, -0.06474753, -0.07787271, -1648354.6, -105266.53, 0.00050489604, 9.999754, 9.999788 
2.7964762e+3, 1.5253182e+2, -1302843.8, -1304157.0, 45254.9, -0.20856889, -0.13914151, -1258240.8, 186929.63, 0.00013439951, 10.001049, 10.000871 
2.7960706e+3, 1.6252308e+2, -1176155.1, -1413054.5, 65219.313, -0.23057108, -0.20567204, -1159386.9, 187870.61, 0.000016423304, 10.002087, 9.999022 
2.795666e+3, 1.7251234e+2, -910434.4, -1164850.4, 74208.555, -0.15318687, -0.418184, -890371.25, 358979.44, 0.0000003300107, 10.003053, 9.9995165 
2.7952608e+3, 1.8250223e+2, -923760.44, -1375757.9, 63022.465, -0.14944324, -0.47129413, -915137.6, 236305.83, 0.0, 10.003297, 9.997327 
2.7948567e+3, 1.9249247e+2, -895307.06, -1269065.5, 56113.016, -0.16530582, -0.40205666, -887064.5, 166482.34, 0.0, 10.0027485, 9.997587 
2.794452e+3, 2.024833e+2, -865495.4, -1184123.4, -41232.99, -0.15613459, -0.26718327, -860246.0, 95396.664, 0.0, 10.002143, 9.997835 
2.794047e+3, 2.124748e+2, -693635.4, -935728.4, -56463.582, -0.07514976, -0.18283358, -681113.94, 176613.1, 0.0, 10.002249, 9.998765 
2.7936417e+3, 2.2246581e+2, -615306.9, -808869.25, 4198.3, -0.08656114, -0.15817101, -615215.8, 144597.25, 0.0, 10.001773, 9.999264 
2.7932367e+3, 2.3245528e+2, -755796.1, -699209.0, -18693.422, -0.33248973, -0.4353869, -693591.4, -31683.48, 0.0, 9.999674, 10.000301 
2.7928326e+3, 2.4244602e+2, -833240.94, -820605.1, -116662.56, -0.41802955, -0.54845685, -710089.5, -146096.63, 0.0, 9.998981, 9.999179 
2.792432e+3, 2.524386e+2, -256272.22, -454888.66, -93303.164, -0.0113215, -0.43831462, -219317.45, 246750.34, 0.0, 10.002174, 9.999452 
2.7920297e+3, 2.6243055e+2, -62175.055, -564036.1, -38200.285, 0.19976352, -0.29376513, -59284.01, 308866.5, 0.0, 10.0038805, 9.997217 
2.791622e+3, 2.7242017e+2, -233883.63, -597382.8, -78028.78, -0.14009264, -0.250532, -217841.89, 52414.906, 0.0, 10.002097, 9.997146 
2.791216e+3, 2.824096e+2, -230424.6, -440326.6, -127526.97, -0.31221586, -0.25362015, -170215.55, 2145.7512, 0.0, 10.0009365, 9.998137 
2.7908128e+3, 2.9239866e+2, 141820.33, -95932.37, -126731.43, -0.09593237, -0.46128526, 196703.7, 271165.63, 0.0, 10.002356, 9.99911 
2.790409e+3, 3.02389e+2, 195574.39, -226428.1, -44287.27, 0.025202971, -0.46151766, 200172.06, 200172.06, 0.0, 10.002843, 9.997399 
2.790008e+3, 3.12382e+2, -13134.814, -236198.47, -96715.9, 0.2814876, -0.17680115, 22958.945, 22958.945, 0.0, 10.000811, 9.997963 
2.7895993e+3, 3.223712e+2, -151022.86, -148969.66, -84068.31, -0.21147975, -0.20845766, -65921.68, -65921.68, 0.0, 9.999123, 9.999356 
2.8072807e+3, 1.3295117e+2, -965285.6, -1239974.1, -21325.582, -0.25520796, -0.21062014, -963639.9, 673421.25, 0.0005663186, 10.004634, 10.000884 
2.8068742e+3, 1.429437e+2, -1489933.9, -1650996.8, 20176.334, -0.18970565, -0.20731524, -1487444.9, 51682.26, 0.00022570654, 10.001191, 9.999164 
2.8064695e+3, 1.5293613e+2, -1225123.3, -1319430.0, -1327.045, -0.18156525, -0.20279722, -1225104.5, 216101.67, 0.00005282333, 10.001779, 10.000417 
2.8060654e+3, 1.6292764e+2, -1164284.3, -1426168.4, -44966.703, -0.13368653, -0.22414233, -1156778.4, 186511.05, 0.000004777361, 10.002268, 9.998806 
2.8056607e+3, 1.729167e+2, -930258.2, -1209378.8, -39379.496, -0.14968431, -0.4585289, -924808.75, 320576.2, 0.00000002399446, 10.003027, 9.99921 
2.8052562e+3, 1.8290633e+2, -1019090.3, -1449211.1, -50134.16, -0.14858466, -0.5200283, -1013324.06, 134157.03, 0.0, 10.002791, 9.997064 
2.804851e+3, 1.9289695e+2, -1125069.5, -1401152.6, -44334.547, -0.13432288, -0.40810502, -1118124.9, -68542.49, 0.0, 10.001266, 9.997404 
2.804446e+3, 2.0288785e+2, -1124266.4, -1319238.3, -16361.091, -0.10480519, -0.24983253, -1122903.0, -171225.4, 0.0, 10.000389, 9.997773 
2.804041e+3, 2.1287888e+2, -767642.3, -963314.75, -4344.9287, -0.059568793, -0.22883184, -767545.94, 86218.06, 0.0, 10.0016775, 9.998862 
2.8036356e+3, 2.228693e+2, -712423.0, -953501.9, 47629.758, -0.06933332, -0.22873385, -703354.0, 52500.984, 0.0, 10.001635, 9.998306 
2.8032294e+3, 2.328574e+2, -770788.1, -838954.25, 3194.1238, -0.22319949, -0.5281142, -770638.8, -112673.016, 0.0, 10.000216, 9.999068 
2.8028256e+3, 2.4284695e+2, -824008.44, -797182.5, 61078.598, -0.22498004, -0.66630864, -748061.44, -187998.28, 0.0, 9.9990425, 9.999296 
2.8024265e+3, 2.5283962e+2, -473162.2, -449944.47, 61970.5, 0.093199395, -0.63680863, -398504.88, 63628.387, 0.0, 10.0002985, 10.000354 
2.8020242e+3, 2.6283205e+2, -570129.25, -864461.3, -319.5651, 0.20434655, -0.4674504, -570128.9, -205918.66, 0.0, 10.000689, 9.996694 
2.8016156e+3, 2.7282274e+2, -471272.5, -769717.8, -21929.064, -0.1705902, -0.27889112, -469669.8, -203356.34, 0.0, 10.000764, 9.996598 
2.8012088e+3, 2.828128e+2, -325018.06, -457247.47, 31660.53, -0.34161887, -0.1730469, -317828.3, -149412.75, 0.0, 10.000243, 9.998341 
2.8008068e+3, 2.9280084e+2, -70876.48, -107423.734, 23592.926, -0.084600195, -0.5557445, -59307.992, 11214.082, 0.0, 10.000583, 9.99987 
2.800403e+3, 3.0279145e+2, -193295.33, -488223.75, 11219.073, 0.002899885, -0.53505135, -192869.16, -192869.16, 0.0, 10.000632, 9.996608 
2.7999982e+3, 3.127876e+2, -91439.47, -366114.88, -31537.234, 0.051866636, 0.1466105, -87864.99, -87864.99, 0.0, 10.000813, 9.996993 
2.7995896e+3, 3.2277066e+2, -154096.38, 62351.215, 46130.434, -0.33695713, -0.51385677, 71772.68, 71772.68, 0.0, 9.99848, 10.000998 
2.8172767e+3, 1.3336179e+2, -1344535.5, -1620007.6, -239254.17, -0.31644908, 0.11366332, -1206203.1, 426834.75, 0.00024930632, 10.002983, 9.999034 
2.816863e+3, 1.4334768e+2, -1600475.8, -1872979.9, 12661.15, -0.64013904, -0.3906271, -1599888.8, -64718.848, 0.00009135431, 10.001234, 9.997597 
2.816463e+3, 1.5334044e+2, -1361535.0, -1555029.5, 59579.996, -0.20664102, -0.2094813, -1344661.0, 92584.78, 0.000018191195, 10.001617, 9.998868 
2.8160614e+3, 1.633324e+2, -1200758.1, -1453691.3, -3039.4797, 0.006215312, -0.08066979, -1200721.6, 138603.89, 0.000001253609, 10.00208, 9.99871 
2.815655e+3, 1.733227e+2, -941111.75, -1187198.9, 27805.254, -0.2826936, -0.2031206, -938009.2, 303404.53, 0.0000000065346386, 10.002857, 9.999444 
2.8152487e+3, 1.833132e+2, -1003755.94, -1369447.3, -98130.9, -0.40815878, -0.20391217, -979087.25, 164417.39, 0.0, 10.002643, 9.997645 
2.8148437e+3, 1.933034e+2, -1105218.1, -1331368.5, -77106.48, -0.19105063, -0.18066058, -1081430.6, -35823.008, 0.0, 10.001163, 9.997921 
2.8144392e+3, 2.0329386e+2, -1021835.25, -1151425.8, 22845.393, -0.035298653, -0.13828826, -1017925.8, -70222.016, 0.0, 10.000572, 9.998828 
2.814035e+3, 2.132843e+2, -659979.56, -818523.0, 88183.984, -0.008981602, -0.25527802, -620674.6, 229116.52, 0.0, 10.001977, 9.999725 
2.81363e+3, 2.2327496e+2, -605717.1, -906973.3, 33200.254, -0.04884048, -0.27308652, -602101.7, 149776.9, 0.0, 10.002364, 9.998277 
2.813223e+3, 2.3326519e+2, -687936.5, -860068.9, 4113.0303, -0.17276716, -0.29551414, -687838.3, -33864.676, 0.0, 10.000992, 9.998572 
2.812818e+3, 2.4325582e+2, -656091.7, -712004.06, 114176.07, -0.18400058, -0.29518914, -566499.06, -10435.0, 0.0, 10.000128, 9.999358 
2.8124183e+3, 2.532473e+2, -480457.06, -484424.0, 120882.24, 0.036691133, -0.3464361, -361542.03, 96603.49, 0.0, 10.000325, 10.000124 
2.812016e+3, 2.6323885e+2, -480930.16, -676593.4, 43380.2, 0.107580446, -0.2939241, -471743.7, -111514.86, 0.0, 10.000581, 9.99807 
2.8116086e+3, 2.7322975e+2, -328813.28, -550874.9, 69298.47, -0.12576675, -0.20275022, -308962.0, -46637.133, 0.0, 10.000973, 9.998063 
2.8112024e+3, 2.8322047e+2, -169238.67, -296991.34, 131938.4, -0.24180774, -0.14690876, -86527.4, 77890.125, 0.0, 10.000853, 9.999173 
2.8107986e+3, 2.9321024e+2, -110631.85, -122580.58, 117259.14, -0.1367064, -0.34144482, 805.0207, 67313.63, 0.0, 10.000198, 9.999996 
2.8103945e+3, 3.0320084e+2, -176269.6, -392191.16, 177583.4, -0.08093525, -0.3411643, -76404.98, -76404.98, 0.0, 10.000316, 9.997423 
2.809993e+3, 3.1319332e+2, 202188.92, -155570.56, 197358.83, 0.14811724, -0.056672607, 289670.72, 289670.72, 0.0, 10.00245, 9.997686 
2.8095835e+3, 3.231796e+2, -31907.662, 22831.033, -138537.44, -0.057376426, -0.39050108, 136676.77, 136676.77, 0.0, 9.999534, 10.000298 
2.8272712e+3, 1.337669e+2, -1577456.4, -1760981.1, -214553.55, -0.22118163, -0.025341034, -1435865.9, 193201.13, 0.00010698143, 10.00149, 9.998786 
2.82686e+3, 1.4375412e+2, -1237050.1, -1739477.4, 12907.152, -0.4137762, -0.32846218, -1236718.8, 294468.78, 0.000035101017, 10.003903, 9.997226 
2.826458e+3, 1.5374486e+2, -1238884.6, -1575969.6, 55765.027, -0.13829161, -0.27656317, -1229898.8, 203381.67, 0.0000055355054, 10.002822, 9.998143 
2.8260556e+3, 1.6373609e+2, -1251358.3, -1503756.5, 54746.824, 0.03321265, -0.16241501, -1239994.9, 95372.37, 0.0000002527922, 10.001861, 9.998485 
2.8256497e+3, 1.737274e+2, -1190732.4, -1333657.3, 33810.12, -0.18920888, -0.15286757, -1183137.9, 54313.117, 0.0, 10.001302, 9.999209 
2.8252435e+3, 1.8371862e+2, -1198761.0, -1419846.4, -96115.62, -0.28864977, -0.07626508, -1162818.6, -23281.094, 0.0, 10.001081, 9.998076 
2.8248376e+3, 1.93709e+2, -995297.6, -1228938.3, -88147.59, -0.08823061, -0.09452689, -965772.5, 75864.29, 0.0, 10.001659, 9.998413 
2.8244328e+3, 2.0369948e+2, -878920.9, -1054303.4, 51772.918, 0.025157955, -0.086081564, -864778.0, 78952.69, 0.0, 10.001504, 9.998999 
2.824028e+3, 2.1368964e+2, -778970.44, -863646.5, 37026.195, -0.08126967, -0.26369172, -765063.94, 80756.16, 0.0, 10.00116, 9.999775 
2.823623e+3, 2.2368048e+2, -791075.9, -1033157.8, -51006.594, -0.13707805, -0.254725, -780767.75, -32862.207, 0.0, 10.001304, 9.9979 
2.823217e+3, 2.3367184e+2, -519422.63, -796571.0, -71406.664, -0.11370834, -0.16644534, -502106.75, 147884.53, 0.0, 10.002305, 9.998339 
2.822812e+3, 2.4366318e+2, -430572.66, -674205.94, 65819.086, -0.10379955, -0.05665773, -413928.3, 138148.61, 0.0, 10.002071, 9.998658 
2.82241e+3, 2.536537e+2, -453260.6, -540342.9, 33395.176, -0.041855276, -0.16024606, -441928.53, 12240.432, 0.0, 10.00087, 9.999458 
2.8220072e+3, 2.6364487e+2, -488321.9, -573831.75, -26350.197, -0.0066389893, -0.14769281, -480854.2, -124599.37, 0.0, 10.000198, 9.998905 
2.8216022e+3, 2.7363607e+2, -228603.8, -329698.56, -4368.1353, -0.055202693, -0.19891934, -228415.4, 29925.38, 0.0, 10.001022, 9.999502 
2.8211963e+3, 2.8362763e+2, -166411.13, -312065.25, 9241.774, -0.14150931, -0.1389804, -165827.08, -5405.1274, 0.0, 10.001058, 9.998936 
2.8207904e+3, 2.9361904e+2, -34376.047, -104676.46, -39459.19, -0.20840394, -0.18534042, -16681.531, 45818.816, 0.0, 10.000893, 9.99975 
2.820386e+3, 3.0360967e+2, -130009.516, -312932.2, 88112.5, -0.18531348, -0.19186346, -94470.9, -94470.9, 0.0, 10.000462, 9.997883 
2.8199884e+3, 3.135986e+2, -53629.547, -163919.64, 142812.61, 0.24055451, -0.39887187, 44314.984, 44314.984, 0.0, 10.00026, 9.998665 
2.8195772e+3, 3.2359084e+2, -25482.893, -43974.844, -525147.25, 0.15271239, -0.19101077, 490499.78, 490499.78, 0.0, 10.000068, 9.99952 
2.8372663e+3, 1.3417071e+2, -1641781.1, -1751780.0, -88270.18, -0.10100013, -0.20733058, -1592777.9, 32331.035, 0.000050519644, 10.000928, 9.999102 
2.8368604e+3, 1.4416172e+2, -1335923.5, -1795684.5, -7087.5083, 0.022682745, -0.15092364, -1335814.4, 191378.5, 0.000015386411, 10.003321, 9.99709 
2.8364527e+3, 1.5414926e+2, -1306906.9, -1645427.0, 41201.086, -0.16133183, -0.401538, -1301964.4, 127348.445, 0.0000020566958, 10.002562, 9.997771 
2.836048e+3, 1.641389e+2, -1302341.9, -1580165.5, 33350.27, -0.13377334, -0.39925426, -1298394.6, 33019.965, 0.00000005936716, 10.001757, 9.9979925 
2.835645e+3, 1.7413063e+2, -1254135.5, -1448149.0, 41637.08, 0.0054399534, -0.28579774, -1245577.4, -12078.595, 0.0, 10.001219, 9.998461 
2.83524e+3, 1.8412241e+2, -1135237.8, -1301641.8, -78897.83, 0.05306418, -0.14845608, -1103777.5, 31804.4, 0.0, 10.001122, 9.9988785 
2.834833e+3, 1.9411357e+2, -932654.8, -1110855.0, -30440.777, 0.057884306, -0.16568464, -927598.3, 110072.65, 0.0, 10.001697, 9.999215 
2.834426e+3, 2.0410466e+2, -869751.44, -1095188.6, 52651.773, -0.077683404, -0.12114084, -858060.7, 81698.26, 0.0, 10.001772, 9.998589 
2.834018e+3, 2.1409494e+2, -806847.9, -981592.06, 49684.758, -0.46179587, -0.1834144, -793708.94, 48142.43, 0.0, 10.001401, 9.998864 
2.8336132e+3, 2.2408532e+2, -680620.75, -925882.0, -10722.751, -0.511691, -0.18951328, -680152.8, 63789.273, 0.0, 10.00181, 9.998395 
2.8332117e+3, 2.3407541e+2, -367329.6, -695529.1, -1350.5927, -0.11810413, -0.24827175, -367324.03, 278710.94, 0.0, 10.003184, 9.998633 
2.8328082e+3, 2.4406594e+2, -286637.2, -679268.75, 20321.313, -0.0013915077, -0.20635095, -285588.22, 262539.2, 0.0, 10.003329, 9.998031 
2.832402e+3, 2.540564e+2, -403833.3, -655059.06, -17392.846, -0.20494363, -0.19430822, -402634.9, 47590.16, 0.0, 10.001721, 9.998293 
2.8319982e+3, 2.640473e+2, -279600.56, -342045.5, -13953.22, -0.21726094, -0.1977132, -276624.56, 75687.63, 0.0, 10.001022, 10.000104 
2.831596e+3, 2.7403843e+2, -36089.324, -128215.95, 1050.345, -0.010918441, -0.35071647, -36077.348, 218313.27, 0.0, 10.001841, 10.000506 
2.831192e+3, 2.8402948e+2, -24986.93, -318289.63, -32434.623, 0.009731171, -0.3741159, -21442.996, 135030.92, 0.0, 10.002284, 9.9983225 
2.830784e+3, 2.9402006e+2, 106626.35, -195906.38, -110078.38, -0.23852359, -0.3631111, 142439.55, 201006.53, 0.0, 10.002458, 9.998403 
2.8303778e+3, 3.0401108e+2, 157555.8, -16052.381, -53840.07, -0.34843805, -0.33288065, 172897.2, 172897.2, 0.0, 10.001648, 9.999381 
2.829978e+3, 3.1400242e+2, -63821.367, -44027.86, -17971.836, 0.029990854, -0.43354002, -33407.973, -33407.973, 0.0, 9.999517, 9.999894 
2.8295684e+3, 3.2399315e+2, 584571.3, 330078.0, -310820.97, -0.12049347, -0.48107916, 793183.8, 793183.8, 0.0, 10.003738, 10.000401 
2.8472608e+3, 1.345757e+2, -1474077.5, -1577438.5, -45369.508, 0.019244622, -0.13361967, -1456988.4, 164157.05, 0.000026715617, 10.001492, 10.000118 
2.8468555e+3, 1.4456631e+2, -1306581.4, -1716434.9, -38032.504, 0.038099702, -0.18067886, -1303082.1, 220146.77, 0.000008259592, 10.003183, 9.9977255 
2.846448e+3, 1.5455547e+2, -1066148.5, -1499953.5, 2891.4138, -0.15269473, -0.30469832, -1066129.3, 359204.97, 0.0000013335809, 10.004015, 9.998098 
2.8460428e+3, 1.6454527e+2, -1046854.06, -1479583.8, 1365.3788, -0.13634185, -0.29458207, -1046849.75, 280584.9, 0.000000073245815, 10.003633, 9.997759 
2.845639e+3, 1.7453565e+2, -1173560.3, -1462490.8, -1985.6338, 0.049941033, -0.2723877, -1173546.6, 55985.44, 0.0, 10.002012, 9.997972 
2.8452334e+3, 1.8452683e+2, -1142740.1, -1314675.9, -73109.87, 0.10371582, -0.16586123, -1115856.3, 15765.089, 0.0, 10.001128, 9.9987755 
2.8448257e+3, 1.9451824e+2, -1007663.0, -1170963.5, -123559.336, 0.016434327, -0.16018039, -941213.06, 92494.38, 0.0, 10.001285, 9.998996 
2.8444186e+3, 2.0450936e+2, -906167.3, -1151003.9, -30489.34, -0.13927504, -0.09363957, -902427.6, 33366.938, 0.0, 10.0017, 9.998241 
2.8440118e+3, 2.144996e+2, -710675.44, -991595.06, -19877.375, -0.4365605, -0.1471151, -709275.94, 128612.984, 0.0, 10.002348, 9.998325 
2.8436074e+3, 2.2448967e+2, -559552.06, -841158.44, -448.7559, -0.4641304, -0.16361046, -559551.3, 180430.66, 0.0, 10.0025425, 9.998643 
2.8432068e+3, 2.3447908e+2, -421169.25, -705813.2, 2600.9656, -0.08838882, -0.33912185, -421145.5, 220932.83, 0.0, 10.002733, 9.998809 
2.8428033e+3, 2.4446924e+2, -455827.84, -817789.5, -7607.4653, 0.011759226, -0.31400618, -455668.0, 88505.24, 0.0, 10.002463, 9.997502 
2.8423953e+3, 2.544597e+2, -495187.22, -773496.4, -15624.82, -0.23542203, -0.2571364, -494312.75, -48040.387, 0.0, 10.001489, 9.997585 
2.8419906e+3, 2.644505e+2, -323382.6, -334295.44, 61906.684, -0.25050867, -0.23533663, -266692.34, 81667.94, 0.0, 10.000698, 10.000278 
2.8415906e+3, 2.7444097e+2, -203180.38, -184393.86, -6372.6143, 0.061719358, -0.49755123, -182436.19, 68004.086, 0.0, 10.000684, 10.000641 
2.8411865e+3, 2.844314e+2, -308643.1, -553954.2, -54361.355, 0.09283103, -0.54517853, -297136.28, -144607.78, 0.0, 10.000832, 9.997383 
2.840778e+3, 2.944211e+2, -170347.34, -450048.88, -63696.555, -0.25679052, -0.5546081, -156524.8, -101890.52, 0.0, 10.001137, 9.997286 
2.84037e+3, 3.044127e+2, 30573.285, 23521.33, -80714.586, -0.47421286, -0.43626884, 107838.87, 107838.87, 0.0, 10.000486, 10.000161 
2.8399667e+3, 3.1440625e+2, -166481.22, -827.6409, -124210.94, -0.18516111, -0.42911237, 65639.35, 65639.35, 0.0, 9.99856, 10.000597 
2.8395596e+3, 3.2439348e+2, 241196.78, 316205.06, 81020.53, -0.54824585, -0.96708244, 367980.75, 367980.75, 0.0, 10.000963, 10.001523 
2.8572536e+3, 1.3498044e+2, -1477872.3, -1392544.0, 48101.457, -0.07362752, -0.0082088085, -1370912.1, 246273.34, 0.000013313222, 10.00073, 10.00174 
2.856848e+3, 1.449699e+2, -1368392.9, -1661766.6, 7011.9927, -0.23860046, -0.27469015, -1368225.4, 151050.42, 0.0000038169696, 10.002443, 9.998429 
2.8564438e+3, 1.5496333e+2, -1136713.6, -1472978.9, 74341.39, -0.18631892, -0.046293058, -1121011.5, 300332.0, 0.0000005153316, 10.003301, 9.9986105 
2.8560382e+3, 1.6495416e+2, -1103811.6, -1512797.9, -53911.414, -0.13090628, 0.045282625, -1096824.5, 226610.42, 0.00000002542409, 10.003286, 9.9976845 
2.855631e+3, 1.7494223e+2, -1211670.5, -1508277.4, -26523.611, -0.1474351, -0.14721137, -1209317.3, 16234.889, 0.0, 10.001893, 9.997701 
2.8552237e+3, 1.8493202e+2, -1189852.1, -1437168.1, -54312.05, -0.21947837, -0.116137385, -1178450.5, -50796.066, 0.0, 10.001247, 9.997865 
2.8548157e+3, 1.9492297e+2, -1076409.6, -1326445.4, -79698.336, -0.33765242, -0.040231008, -1053166.6, -23419.875, 0.0, 10.001324, 9.997912 
2.8544122e+3, 2.0491347e+2, -857428.3, -1086914.4, 10305.412, -0.22072278, -0.00030926385, -856966.44, 74872.984, 0.0, 10.00184, 9.998606 
2.854012e+3, 2.1490294e+2, -633760.3, -920050.5, 33745.637, 0.09854232, -0.15155256, -629836.44, 204101.69, 0.0, 10.002695, 9.998649 
2.853608e+3, 2.2489314e+2, -400871.34, -682571.75, 9595.709, 0.09035916, -0.2127046, -400544.84, 335483.78, 0.0, 10.003263, 9.999374 
2.853201e+3, 2.3488343e+2, -294191.84, -585627.5, 39087.063, -0.20606863, -0.33928892, -289040.56, 349076.53, 0.0, 10.003286, 9.99938 
2.852796e+3, 2.4487416e+2, -303118.88, -629359.1, -19782.115, -0.19766149, -0.33764714, -301923.72, 238280.53, 0.0, 10.002942, 9.998587 
2.8523922e+3, 2.5486508e+2, -316323.94, -578958.2, 17519.578, 0.053943068, -0.31084538, -315160.4, 127132.95, 0.0, 10.002159, 9.998628 
2.8519878e+3, 2.6485553e+2, -339392.3, -533166.6, 89704.055, 0.12193118, -0.29590258, -304241.8, 40144.375, 0.0, 10.001351, 9.998619 
2.851583e+3, 2.7484524e+2, -294778.47, -438784.5, -7306.941, 0.0399583, -0.40799505, -294408.66, -47924.504, 0.0, 10.000889, 9.998821 
2.8511783e+3, 2.848358e+2, -177411.47, -314817.28, -38076.402, -0.031920232, -0.43633288, -167565.66, -18991.807, 0.0, 10.000872, 9.999047 
2.8507718e+3, 2.948267e+2, -24458.176, -193520.1, 11852.455, -0.16131172, -0.4617204, -23631.28, 27029.494, 0.0, 10.001257, 9.999024 
2.8503653e+3, 3.048184e+2, -20504.387, -176248.1, -66014.664, -0.19706438, -0.34830305, 3711.77, 3711.77, 0.0, 10.000796, 9.998684 
2.8499615e+3, 3.148109e+2, -132187.89, -186758.47, -176385.73, 0.15360963, -0.23079626, 19010.473, 19010.473, 0.0, 9.999573, 9.998884 
2.849552e+3, 3.2479927e+2, 30896.168, 205324.84, 71396.11, -0.4887339, -0.5659397, 230821.4, 230821.4, 0.0, 9.999303, 10.001675 
2.8672448e+3, 1.3538408e+2, -1420698.5, -1279328.4, 236172.64, -0.24180962, -0.20239368, -1103489.8, 509734.72, 0.000005962988, 10.00069, 10.002557 
2.8668424e+3, 1.4537671e+2, -1429622.0, -1665406.8, 52238.902, -0.1736648, -0.1744321, -1418566.6, 96718.74, 0.0000015122073, 10.001896, 9.998676 
2.8664395e+3, 1.5536913e+2, -1451136.4, -1618127.4, 71132.72, -0.0076263454, -0.056563925, -1424944.4, -7577.9106, 0.0000000966577, 10.001076, 9.998696 
2.866034e+3, 1.6535968e+2, -1327288.8, -1604503.6, -21846.564, -0.000010021332, -0.004826805, -1325577.6, -6115.8438, 0.00000000026919006, 10.001621, 9.997898 
2.8656247e+3, 1.7534824e+2, -1018360.4, -1411959.1, -1960.3462, -0.22122745, -0.16029987, -1018350.6, 203222.94, 0.0, 10.003129, 9.997808 
2.8652164e+3, 1.8533804e+2, -888420.4, -1283135.1, 20001.16, -0.3582987, -0.12818857, -887409.44, 236264.6, 0.0, 10.003359, 9.997873 
2.8648087e+3, 1.9532868e+2, -935077.1, -1263025.9, 47519.15, -0.3871566, -0.06699879, -928330.5, 97436.805, 0.0, 10.002412, 9.997781 
2.8644064e+3, 2.0531867e+2, -818320.94, -1092748.4, 210357.44, -0.1647955, -0.039406702, -704381.6, 223482.73, 0.0, 10.002194, 9.998417 
2.8640088e+3, 2.1530762e+2, -702202.75, -988225.75, 169878.06, 0.3238671, -0.21752606, -623153.8, 206815.19, 0.0, 10.002328, 9.998394 
2.8636047e+3, 2.2529797e+2, -648252.56, -808901.44, 76783.01, 0.29928276, -0.23682918, -617457.06, 114603.21, 0.0, 10.001626, 9.999265 
2.863195e+3, 2.3528905e+2, -777716.5, -830144.06, 31492.814, -0.21050423, -0.2914014, -762955.2, -128810.59, 0.0, 10.000112, 9.999178 
2.8627893e+3, 2.4528034e+2, -650640.6, -673061.4, -174.17906, -0.2221134, -0.2726919, -650639.25, -114414.18, 0.0, 10.000166, 9.9995365 
2.862388e+3, 2.552712e+2, -418010.34, -551572.3, 13527.189, 0.2646153, -0.3756854, -416654.1, 21654.951, 0.0, 10.001234, 9.999198 
2.8619832e+3, 2.6526144e+2, -389832.38, -727498.5, 128085.53, 0.32655203, -0.3220321, -346744.47, -6339.579, 0.0, 10.001793, 9.997044 
2.8615758e+3, 2.752507e+2, -295043.3, -633434.1, 102831.6, 0.0035435248, -0.34074548, -266245.22, -23729.475, 0.0, 10.001751, 9.997064 
2.8611705e+3, 2.8524157e+2, -67748.29, -98247.66, 81844.9, -0.10454574, -0.29655263, 255.49582, 144859.13, 0.0, 10.001052, 10.000396 
2.860766e+3, 2.9523337e+2, -174831.55, -134369.64, 55056.83, -0.034596536, -0.38393047, -95944.43, -49267.91, 0.0, 9.999763, 10.000117 
2.8603607e+3, 3.0522478e+2, -250429.16, -490086.16, -44968.035, 0.08356521, -0.2521483, -242269.39, -242269.39, 0.0, 10.000205, 9.996761 
2.8599566e+3, 3.152161e+2, -96487.84, -422920.97, -81942.516, 0.48001096, -0.08017615, -77073.02, -77073.02, 0.0, 10.001024, 9.996516 
2.859545e+3, 3.25206e+2, 157670.81, 312811.9, 216500.44, -0.39836755, -0.17258434, 465218.8, 465218.8, 0.0, 10.00015, 10.001936 
2.8772357e+3, 1.3578875e+2, -1533666.5, -1281611.6, 292543.78, -0.46874, -0.33986437, -1089103.8, 520145.38, 0.0000021473002, 9.999746, 10.002979 
2.8768378e+3, 1.4578481e+2, -1548545.0, -1715971.4, 8053.3, -0.016900998, 0.012250383, -1548158.5, -36878.457, 0.00000043033984, 10.001083, 9.998704 
2.8764346e+3, 1.5577322e+2, -1544962.5, -1682492.9, 57335.125, 0.17763087, -0.2668049, -1524195.8, -110793.46, 0.000000019645139, 10.000536, 9.998513 
2.8760287e+3, 1.6576323e+2, -1339084.0, -1548324.8, 30005.123, 0.11725799, -0.2872832, -1334866.3, -19362.5, 0.0, 10.001304, 9.998425 
2.8756192e+3, 1.7575414e+2, -1050328.6, -1383125.3, 79334.5, -0.3055702, -0.24205574, -1032383.9, 185208.5, 0.0, 10.002733, 9.998193 
2.8752115e+3, 1.8574476e+2, -837158.56, -1155576.5, -11426.044, -0.39616078, -0.19787113, -836749.06, 282931.8, 0.0, 10.003244, 9.998811 
2.8748053e+3, 1.9573474e+2, -890803.9, -1171784.6, 67032.3, -0.21205992, -0.27882347, -875631.56, 146142.2, 0.0, 10.002377, 9.9984455 
2.8744015e+3, 2.0572466e+2, -808882.5, -1113760.0, 239081.89, -0.14691469, -0.27561125, -677776.3, 246094.48, 0.0, 10.002401, 9.998146 
2.873999e+3, 2.1571407e+2, -675686.7, -1024007.94, 221253.81, -0.17516223, -0.34830162, -568271.1, 257703.78, 0.0, 10.002704, 9.997966 
2.8735945e+3, 2.257052e+2, -665961.3, -902879.8, 38044.977, -0.112928376, -0.22873774, -660001.9, 68063.82, 0.0, 10.001847, 9.998518 
2.873189e+3, 2.3569734e+2, -822166.25, -925013.5, 12903.893, -0.04005186, -0.07605572, -820572.0, -190422.95, 0.0, 10.000067, 9.9985695 
2.8727835e+3, 2.4568833e+2, -572239.7, -529177.2, 83425.99, -0.01835651, -0.112168625, -464548.75, 67684.68, 0.0, 10.000188, 10.000544 
2.8723788e+3, 2.556781e+2, -258573.89, -379148.3, 108109.945, -0.0032446922, -0.38493377, -195077.8, 239245.33, 0.0, 10.001829, 10.0001335 
2.8719747e+3, 2.6566875e+2, -148527.33, -482573.25, 190530.67, -0.009239748, -0.39713836, -62175.863, 274236.0, 0.0, 10.002817, 9.998259 
2.87157e+3, 2.7565974e+2, 15748.659, -362043.03, 214071.77, -0.07880834, -0.31642178, 112349.5, 350853.13, 0.0, 10.003277, 9.998216 
2.8711647e+3, 2.8565076e+2, 22941.545, -142174.89, 105905.836, -0.03100345, -0.27123934, 74666.26, 215257.53, 0.0, 10.0020075, 9.999644 
2.8707588e+3, 2.956415e+2, -222346.9, -248099.4, 58351.793, 0.08010398, -0.34893283, -175467.58, -132789.78, 0.0, 9.999746, 9.999365 
2.8703535e+3, 3.056323e+2, -55207.06, -303974.25, 160796.23, 0.09577494, -0.2820462, 23699.06, 23699.06, 0.0, 10.001069, 9.997643 
2.86995e+3, 3.156234e+2, 591482.5, 10601.806, 171080.58, 0.22773802, -0.16312462, 638124.0, 638124.0, 0.0, 10.005206, 9.997513 
2.869541e+3, 3.256122e+2, 425702.0, 181444.34, 136426.06, -0.23641513, -0.27777582, 486678.38, 486678.38, 0.0, 10.002963, 9.99972 
2.887226e+3, 1.361925e+2, -1689923.9, -1460004.0, 216766.08, -0.5807262, -0.40341422, -1329600.3, 275688.16, 0.0000003382392, 9.999, 10.002132 
2.8868312e+3, 1.461884e+2, -1700955.9, -1736694.0, -67721.46, 0.11348088, -0.057554614, -1648785.6, -141459.22, 0.000000039050374, 9.99975, 9.999227 
2.8864256e+3, 1.5617761e+2, -1445956.1, -1592289.5, -25288.785, 0.021415584, -0.29173747, -1441709.0, -32270.195, 0.0000000006124831, 10.000982, 9.998947 
2.8860205e+3, 1.6616873e+2, -1310347.3, -1406423.0, -183.9035, 0.0036179018, -0.29079124, -1310346.9, 1180.6234, 0.0, 10.000966, 9.99952 
2.8856137e+3, 1.7616089e+2, -1362912.6, -1435064.0, 61088.133, -0.15006895, -0.24546193, -1328043.1, -114440.33, 0.0, 10.000148, 9.9990635 
2.8852066e+3, 1.8615143e+2, -1065304.4, -1256454.9, 3815.4094, -0.25470465, -0.2558142, -1065228.3, 50462.344, 0.0, 10.00167, 9.998889 
2.8848004e+3, 1.961407e+2, -598480.4, -1031902.4, -6563.5615, -0.19003278, -0.42930606, -598381.0, 419407.38, 0.0, 10.0043955, 9.998464 
2.8843957e+3, 2.0613094e+2, -675870.2, -1059635.5, 114585.516, -0.19613457, -0.39550486, -644260.56, 275622.13, 0.0, 10.003444, 9.998007 
2.8839913e+3, 2.1612133e+2, -1041001.7, -1235737.6, 98896.54, -0.29017997, -0.3645588, -999585.5, -177606.33, 0.0, 10.000441, 9.997587 
2.8835866e+3, 2.2611253e+2, -955016.44, -1077398.5, -6269.991, -0.17883793, -0.20391926, -954696.0, -230623.84, 0.0, 10.000082, 9.998168 
2.8831828e+3, 2.3610435e+2, -772521.56, -954389.2, -4380.6465, 0.13580768, -0.053316187, -772416.1, -146254.2, 0.0, 10.000731, 9.998045 
2.882777e+3, 2.4609531e+2, -472728.5, -488468.66, 102742.69, 0.0889446, -0.061034303, -377554.9, 150693.52, 0.0, 10.000917, 10.000492 
2.88237e+3, 2.560851e+2, -493043.56, -512341.22, 43293.063, -0.20119083, -0.3497807, -458337.13, -27998.85, 0.0, 10.000361, 9.999934 
2.8819662e+3, 2.660764e+2, -485732.84, -501466.9, 78356.19, -0.22528459, -0.3638514, -414849.75, -82431.59, 0.0, 9.999984, 9.999459 
2.8815645e+3, 2.760684e+2, -560504.0, -559552.3, 87737.48, -0.042467736, -0.33289477, -472289.4, -237793.7, 0.0, 9.999072, 9.998862 
2.881159e+3, 2.860594e+2, -339292.3, -436383.53, -44186.082, 0.06594234, -0.26556605, -322194.3, -185610.45, 0.0, 10.000094, 9.998517 
2.8807518e+3, 2.9604933e+2, -136638.28, -362754.7, -59210.875, 0.1516018, -0.34920362, -122071.7, -83388.18, 0.0, 10.001079, 9.99792 
2.880346e+3, 3.060396e+2, 50284.957, -155036.06, 166810.31, 0.014038282, -0.31473616, 143493.94, 143493.94, 0.0, 10.001477, 9.998452 
2.8799433e+3, 3.160303e+2, -7274.359, -280624.9, 134965.56, -0.10269223, -0.33469453, 48133.246, 48133.246, 0.0, 10.001202, 9.997437 
2.8795367e+3, 3.2601768e+2, -171725.17, -351014.44, -125962.97, -0.09804671, -0.5539276, -106764.41, -106764.41, 0.0, 10.000211, 9.997252 
2.8972173e+3, 1.3659553e+2, -1848215.8, -1673399.0, 167972.45, -0.63952154, -0.42503121, -1571453.3, 29885.38, 0.0000000028010363, 9.998576, 10.0008545 
2.896823e+3, 1.4658993e+2, -1664303.5, -1629671.8, -12055.338, 0.095829494, -0.21653076, -1625888.5, -122492.08, 0.0, 9.999665, 9.999973 
2.896414e+3, 1.5658264e+2, -1479477.3, -1510228.0, 47658.996, -0.46580508, -0.17812946, -1444774.9, -39304.105, 0.0, 10.000349, 9.999807 
2.8960106e+3, 1.6657548e+2, -1249879.5, -1195769.6, -19289.307, -0.30477685, -0.14406854, -1189597.4, 117942.414, 0.0, 10.000602, 10.001136 
2.8956088e+3, 1.765681e+2, -1296984.5, -1274844.5, 67941.234, 0.0980757, -0.1998758, -1217077.4, -7469.1587, 0.0, 10.000047, 10.000211 
2.8952023e+3, 1.8655795e+2, -1078783.5, -1330020.6, 109550.38, -0.08813455, -0.29054692, -1037724.75, 73979.36, 0.0, 10.001839, 9.998307 
2.894794e+3, 1.9654633e+2, -609518.2, -1095022.0, 86885.73, -0.53689253, -0.47811323, -594437.56, 419377.1, 0.0, 10.004526, 9.997983 
2.89439e+3, 2.0653719e+2, -637089.6, -1012644.56, -15390.248, -0.35636365, -0.3791669, -636460.0, 279445.03, 0.0, 10.003548, 9.998284 
2.8939876e+3, 2.1652897e+2, -1003331.1, -1172883.0, 22888.969, 0.07788693, -0.234319, -1000295.56, -182306.52, 0.0, 10.000443, 9.998032 
2.8935823e+3, 2.2651878e+2, -882531.0, -998215.9, 44291.547, 0.15797009, -0.2580463, -867520.94, -147430.2, 0.0, 10.000346, 9.998596 
2.8931752e+3, 2.3650776e+2, -602386.6, -841388.6, 65448.31, 0.055001054, -0.4151008, -585637.94, 36562.633, 0.0, 10.001682, 9.998388 
2.8927687e+3, 2.4649948e+2, -485294.63, -695177.06, 74028.72, -0.069078416, -0.27061787, -461811.1, 62473.36, 0.0, 10.001629, 9.998751 
2.8923622e+3, 2.564921e+2, -515835.75, -649540.7, 1302.3029, -0.25674468, -0.08734472, -515823.06, -89463.9, 0.0, 10.000655, 9.998878 
2.8919592e+3, 2.6648316e+2, -475254.22, -355892.63, 1019.3571, -0.091965295, -0.16180149, -355883.9, -27443.068, 0.0, 9.99941, 10.0007515 
2.8915575e+3, 2.7647322e+2, -609164.4, -466541.7, 33625.094, 0.2521228, -0.41943058, -459011.72, -228482.9, 0.0, 9.99817, 9.999948 
2.8911522e+3, 2.864641e+2, -404116.97, -561669.06, 38556.06, 0.19945852, -0.3788941, -395187.63, -262568.47, 0.0, 9.999965, 9.9977455 
2.8907445e+3, 2.96455e+2, 193117.47, -260175.33, 6700.5313, -0.057520863, -0.26722488, 193216.5, 227930.33, 0.0, 10.003499, 9.9974785 
2.8903374e+3, 3.0644366e+2, 200999.45, -129787.734, 26327.178, -0.26613685, -0.36402902, 203081.7, 203081.7, 0.0, 10.002664, 9.998102 
2.889933e+3, 3.1643116e+2, -276619.78, -415582.6, -38998.004, -0.30680096, -0.6286998, -266423.66, -266423.66, 0.0, 9.999276, 9.99751 
2.8895265e+3, 3.264225e+2, -80821.18, -204102.55, -172130.73, -0.30309245, -0.44019914, 40372.938, 40372.938, 0.0, 10.000174, 9.998445 
2.9072142e+3, 1.3700049e+2, -1612021.4, -1699916.1, 313477.78, -0.17007187, -0.274845, -1339425.4, 257947.17, 0.00000000011876347, 10.000716, 9.999695 
2.9068142e+3, 1.4699297e+2, -1242627.6, -1240943.3, -26068.998, -0.053662844, -0.3024109, -1215702.9, 283745.28, 0.0, 10.001745, 10.001667 
2.906407e+3, 1.5698789e+2, -1565605.4, -1414335.6, 72845.32, -0.29966503, -0.19636008, -1384960.6, 16534.205, 0.0, 9.999152, 10.001053 
2.9060033e+3, 1.6698097e+2, -1471452.1, -1379177.0, 1823.3416, -0.21526486, -0.14013952, -1379140.9, -75577.92, 0.0, 9.999428, 10.000447 
2.9056004e+3, 1.7697294e+2, -1244707.0, -1311399.3, -49598.664, 0.015276887, -0.20628564, -1218287.0, -12644.377, 0.0, 10.000665, 9.999685 
2.9051954e+3, 1.8696345e+2, -1226442.8, -1373694.4, 21426.549, -0.13979483, -0.24143417, -1223388.4, -115653.48, 0.0, 10.000688, 9.998552 
2.904789e+3, 1.9695298e+2, -1253508.0, -1379511.0, 35549.645, -0.472761, -0.3634411, -1244170.3, -234333.95, 0.0, 10.000003, 9.998173 
2.904384e+3, 2.0694426e+2, -1010661.0, -1144597.0, -82411.555, -0.29251304, -0.26947787, -971438.7, -59516.297, 0.0, 10.000783, 9.998681 
2.9039815e+3, 2.1693611e+2, -847164.5, -1074707.9, -32886.902, 0.20794825, -0.1671946, -842506.7, -28502.545, 0.0, 10.001441, 9.998207 
2.903576e+3, 2.2692557e+2, -614215.94, -841297.3, 70271.96, 0.23327063, -0.25415143, -594228.94, 121877.445, 0.0, 10.002142, 9.99876 
2.9031688e+3, 2.3691358e+2, -541442.3, -846855.6, 45153.285, 0.0053877877, -0.5400988, -534906.56, 83314.92, 0.0, 10.002288, 9.998036 
2.9027617e+3, 2.469055e+2, -567470.44, -816329.4, 53257.28, -0.13178732, -0.31745872, -556552.06, -36246.55, 0.0, 10.001539, 9.997871 
2.902355e+3, 2.5689918e+2, -745188.0, -852801.06, 57685.68, -0.20273128, 0.044133194, -720109.94, -297733.75, 0.0, 9.999592, 9.9979315 
2.901952e+3, 2.6689e+2, -423679.78, -255984.27, 72026.555, 0.042086788, -0.042728208, -229295.73, 95164.22, 0.0, 9.9995, 10.001362 
2.90155e+3, 2.7687904e+2, -465383.88, -393274.16, 57578.99, 0.45494542, -0.48109463, -361393.1, -134839.13, 0.0, 9.999199, 9.999948 
2.9011443e+3, 2.8686988e+2, -568388.1, -641799.4, 178526.81, 0.23864701, -0.42356166, -422832.6, -294188.16, 0.0, 9.998955, 9.997653 
2.9007366e+3, 2.968614e+2, -591472.4, -696294.0, 198515.52, -0.25512844, -0.22363716, -438565.63, -407830.3, 0.0, 9.998492, 9.996853 
2.900333e+3, 3.0685237e+2, -175334.7, -329078.03, 102289.02, -0.061616037, -0.053858526, -124252.09, -124252.09, 0.0, 10.000324, 9.99772 
2.899931e+3, 3.1684214e+2, -116048.76, -514039.44, 107287.46, 0.33902988, -0.020536711, -88969.46, -88969.46, 0.0, 10.001331, 9.995734 
2.899519e+3, 3.2683134e+2, 654640.4, 358825.0, 288852.75, -0.44048813, -0.117760114, 831251.7, 831251.7, 0.0, 10.004579, 9.999974 
2.9172117e+3, 1.3740608e+2, -1692648.6, -1786040.1, 478147.06, 0.2070325, -0.017697556, -1258922.6, 334478.34, 0.0000000000007792345, 10.000441, 9.9992285 
2.9168057e+3, 1.4739686e+2, -1259647.5, -1009072.44, -117239.555, -0.265797, -0.3277949, -962773.0, 532716.0, 0.0, 10.000634, 10.003778 
2.916403e+3, 1.5739313e+2, -1547571.6, -1310581.5, 4526.8896, 0.15638575, -0.28591904, -1310495.1, 87020.68, 0.0, 9.998879, 10.001898 
2.915997e+3, 1.6738532e+2, -1624334.0, -1688269.4, 34972.992, -0.025125602, -0.22439879, -1608919.9, -309322.25, 0.0, 9.999403, 9.998325 
2.915588e+3, 1.7737584e+2, -1375176.4, -1536499.1, -5942.08, -0.5245407, -0.22808659, -1374957.8, -173256.52, 0.0, 10.000456, 9.998246 
2.9151857e+3, 1.8736807e+2, -1138680.5, -1180449.0, -9833.941, -0.39987648, -0.121663, -1136481.1, -32700.4, 0.0, 10.000622, 9.999912 
2.914785e+3, 1.973607e+2, -1189972.8, -1215276.5, 32204.861, -0.08412939, -0.06195647, -1168023.8, -162170.45, 0.0, 9.999825, 9.999398 
2.9143792e+3, 2.073519e+2, -949237.2, -1034932.25, -41748.223, -0.10707136, -0.06846529, -932261.44, -24323.836, 0.0, 10.000792, 9.999459 
2.913971e+3, 2.1734247e+2, -698945.25, -925518.94, 22845.25, -0.26066023, -0.15667786, -696664.75, 113363.1, 0.0, 10.002054, 9.998964 
2.9135665e+3, 2.2733353e+2, -523827.4, -809211.44, 77507.16, -0.17653401, -0.1090865, -504136.0, 207979.69, 0.0, 10.002773, 9.998698 
2.913163e+3, 2.373243e+2, -391637.6, -733881.25, 49383.02, -0.06501511, -0.094886295, -384654.53, 229552.55, 0.0, 10.003055, 9.998472 
2.9127565e+3, 2.4731466e+2, -413854.7, -593376.3, 391.0429, -0.037322752, -0.13210997, -413853.84, 102446.516, 0.0, 10.001873, 9.99926 
2.9123485e+3, 2.5730512e+2, -568694.1, -633542.75, 64848.37, -0.060054798, -0.20956704, -528615.7, -110222.7, 0.0, 10.000106, 9.999216 
2.9119435e+3, 2.672971e+2, -406581.1, -349352.84, 145567.06, 0.025077187, -0.18155332, -229614.2, 90854.734, 0.0, 9.999957, 10.000543 
2.9115394e+3, 2.772894e+2, -266737.44, -279108.78, 97150.414, 0.1396628, -0.20074843, -175575.97, 46964.02, 0.0, 10.00039, 10.000179 
2.9111332e+3, 2.8728068e+2, -408107.03, -286093.6, 186059.1, 0.03908787, -0.25736463, -151294.8, -26671.799, 0.0, 9.998798, 10.000189 
2.910728e+3, 2.9727212e+2, -800876.25, -491128.66, 321113.44, 0.026278084, -0.29243925, -289491.94, -262785.75, 0.0, 9.995601, 9.99967 
2.9272017e+3, 1.3781011e+2, -1486989.1, -1589951.6, 273402.7, -0.1459914, -0.14935775, -1260263.0, 329176.06, 0.0, 10.0013685, 10.0001335 
2.9267988e+3, 1.4780198e+2, -1624917.8, -1316240.0, -50737.965, -0.06041668, -0.30900437, -1308114.0, 183403.83, 0.0, 9.99863, 10.002653 
2.9263946e+3, 1.5779693e+2, -1337859.4, -1291808.9, -95687.94, 0.14586616, -0.2910782, -1216414.9, 177147.56, 0.0, 10.000626, 10.001198 
2.9259884e+3, 1.6778941e+2, -1355022.1, -1520210.0, -1330.327, -0.065099, -0.20999964, -1355011.5, -59369.168, 0.0, 10.001054, 9.9987 
2.9255804e+3, 1.777806e+2, -1306806.0, -1446930.0, 80916.76, -0.52133864, -0.17632847, -1269834.3, -72095.305, 0.0, 10.00067, 9.99877 
2.925178e+3, 1.8777372e+2, -1155626.6, -1082298.6, 74207.76, -0.36315605, -0.05441144, -1036191.56, 63616.97, 0.0, 10.000109, 10.000806 
2.9247785e+3, 1.9776721e+2, -1257548.3, -1194042.0, 82947.53, 0.11654142, 0.020133529, -1136977.5, -135106.02, 0.0, 9.999111, 9.999908 
2.924372e+3, 2.0775837e+2, -1009786.3, -1030264.0, 57874.863, -0.074019656, -0.024183527, -961251.56, -57295.15, 0.0, 10.000283, 9.999717 
2.9239622e+3, 2.1774857e+2, -799888.6, -962279.6, 47326.34, -0.5112502, -0.18414497, -787102.75, 18947.207, 0.0, 10.001365, 9.999037 
2.9235584e+3, 2.277406e+2, -838708.94, -947326.44, 63658.2, -0.37444812, -0.05229383, -809340.9, -101210.9, 0.0, 10.000582, 9.998801 
2.9231566e+3, 2.3773313e+2, -1014148.06, -1005223.5, 47359.625, -0.012481052, 0.11037845, -962116.4, -351910.06, 0.0, 9.998722, 9.998686 
2.9227504e+3, 2.4772303e+2, -570686.3, -537618.8, 6432.7896, 0.060969435, -0.05476962, -536411.5, -24111.752, 0.0, 10.000291, 10.000396 
2.9223424e+3, 2.5771186e+2, -312839.44, -476339.84, 34336.063, 0.059913706, -0.4150053, -305921.38, 108479.695, 0.0, 10.0018015, 9.999474 
2.9219356e+3, 2.6770467e+2, -309870.06, -434200.16, 73869.25, -0.01964937, -0.24108171, -275488.97, 40985.047, 0.0, 10.001344, 9.99921 
2.9215285e+3, 2.7769902e+2, -447570.1, -421655.94, -28110.023, -0.14044626, 0.03146427, -403660.5, -185126.34, 0.0, 9.999493, 9.999605 
2.9211223e+3, 2.8769073e+2, -195232.53, 49229.855, -67641.17, -0.13241121, -0.11138294, 66697.59, 187307.14, 0.0, 9.999378, 10.002154 
2.9207203e+3, 2.9768315e+2, -350353.5, 27619.766, 8658.767, 0.43098348, -0.34105748, 27818.02, 50492.6, 0.0, 9.997496, 10.002316 
2.9371902e+3, 1.3821454e+2, -1678757.8, -1545861.3, -205058.0, -0.6251272, -0.31851885, -1396754.1, 188716.36, 0.0, 9.999552, 10.001285 
2.9367924e+3, 1.4820717e+2, -1814641.5, -1694603.8, 30551.271, 0.21678294, -0.28711158, -1687275.5, -199728.77, 0.0, 9.9985695, 10.000081 
2.9363832e+3, 1.5819986e+2, -1488531.9, -1512920.9, -12265.33, -0.30936033, -0.25338894, -1483430.6, -93805.34, 0.0, 10.000235, 9.99987 
2.9359797e+3, 1.6819365e+2, -1228533.0, -1219924.9, 2765.475, -0.26140437, -0.1318922, -1219113.0, 72576.62, 0.0, 10.0008955, 10.000832 
2.935577e+3, 1.7818731e+2, -1209582.5, -1207712.8, 72163.914, -0.20480914, -0.05580991, -1136477.6, 57276.594, 0.0, 10.000498, 10.000499 
2.935172e+3, 1.8818018e+2, -1137120.3, -1029215.94, 34430.31, -0.18234958, -0.052154332, -1019165.9, 76654.69, 0.0, 10.000026, 10.00122 
2.9347676e+3, 1.9817255e+2, -1245173.1, -1156135.9, 88172.84, -0.12903255, -0.11761103, -1101880.3, -103990.21, 0.0, 9.9990425, 10.000204 
2.934362e+3, 2.0816368e+2, -1022012.7, -1067296.6, 113438.74, -0.28203186, -0.15610315, -928978.4, -29001.42, 0.0, 10.000351, 9.999427 
2.9339555e+3, 2.181543e+2, -736264.6, -931230.0, 67047.84, -0.55908465, -0.23597257, -715432.94, 86637.14, 0.0, 10.001738, 9.999088 
2.9335517e+3, 2.2814585e+2, -793559.1, -874789.25, -28751.363, -0.30053988, -0.18600556, -784412.5, -80257.38, 0.0, 10.000551, 9.9993725 
2.9331478e+3, 2.3813777e+2, -971298.6, -882979.44, 25746.02, 0.060516734, -0.13304333, -876022.2, -269785.72, 0.0, 9.998448, 9.999709 
2.9327428e+3, 2.4812965e+2, -501023.88, -446859.13, 115626.555, 0.061633106, -0.18072033, -355185.63, 153123.48, 0.0, 10.000419, 10.001015 
2.9323363e+3, 2.58121e+2, -90082.64, -406516.8, 73433.73, -0.05462401, -0.31583285, -73871.64, 336513.72, 0.0, 10.003366, 9.999245 
2.9319286e+3, 2.681114e+2, -380077.75, -806766.5, -63498.363, -0.113388166, -0.18306215, -370828.66, -58340.293, 0.0, 10.002218, 9.99627 
2.9315203e+3, 2.7810195e+2, -476673.84, -657886.9, -178673.44, -0.19480704, -0.014314649, -366946.28, -152351.86, 0.0, 10.000078, 9.997755 
2.931115e+3, 2.8809258e+2, -153065.38, -96121.055, -209645.64, -0.061397918, -0.13368948, 86977.01, 203658.08, 0.0, 10.000177, 10.00088 
2.930711e+3, 2.9808524e+2, 316341.78, 414395.13, -190314.7, 0.26467192, -0.23615673, 561896.56, 580636.5, 0.0, 10.001492, 10.003152 
2.9471833e+3, 1.3862269e+2, -1742620.5, -1455736.4, -210585.72, -0.37535912, -0.13350147, -1344380.5, 237095.64, 0.0, 9.998456, 10.002489 
2.9467824e+3, 1.4861238e+2, -1624229.8, -1669504.1, 166978.5, 0.09410129, -0.3833713, -1478361.0, 5215.0854, 0.0, 10.000124, 9.999533 
2.9463762e+3, 1.5860602e+2, -1404764.5, -1511482.1, 172697.3, -0.26557714, -0.18526357, -1277370.6, 108274.96, 0.0, 10.000954, 9.999555 
2.9459736e+3, 1.6859955e+2, -1165173.5, -1185015.6, 95273.62, -0.19534694, -0.062450226, -1079305.8, 208406.77, 0.0, 10.001347, 10.0008545 
2.945571e+3, 1.7859286e+2, -1076964.1, -1121102.8, 22694.525, -0.083035216, -0.027344055, -1067377.5, 122401.85, 0.0, 10.00132, 10.000683 
2.9451644e+3, 1.8858527e+2, -984783.8, -920604.7, -45222.52, -0.16986421, -0.10780753, -897243.25, 194603.95, 0.0, 10.000904, 10.001536 
2.944758e+3, 1.985772e+2, -1099440.6, -1064160.0, 14612.51, -0.2271171, -0.26141092, -1058893.8, -64975.457, 0.0, 9.999971, 10.000375 
2.9443538e+3, 2.0856898e+2, -1131361.6, -1102390.8, 114478.8, -0.3021182, -0.268796, -1001484.56, -105485.02, 0.0, 9.99952, 9.99958 
2.94395e+3, 2.185604e+2, -1192512.0, -1189382.1, 78265.47, -0.36629647, -0.27012515, -1112666.0, -314579.4, 0.0, 9.998776, 9.99876 
2.943545e+3, 2.2855166e+2, -774398.7, -834806.25, -44669.367, -0.20947409, -0.25391495, -750680.1, -50505.15, 0.0, 10.000671, 9.999508 
2.9431394e+3, 2.385429e+2, -508431.63, -682929.8, -8959.147, 0.03193325, -0.299204, -507972.84, 94289.97, 0.0, 10.001836, 9.999398 
2.9427353e+3, 2.4853565e+2, -376455.94, -406788.44, 68593.89, 0.005730063, -0.24171437, -321371.66, 182956.6, 0.0, 10.001509, 10.000695 
2.9423305e+3, 2.585287e+2, -598752.94, -743109.56, -75908.66, -0.075170554, -0.1970893, -566184.75, -159795.11, 0.0, 10.000405, 9.998329 
2.9419222e+3, 2.6851773e+2, -697488.8, -1104363.0, -128513.9, -0.12125795, -0.10240558, -660296.6, -351787.8, 0.0, 10.000683, 9.994974 
2.9415125e+3, 2.7850547e+2, -621657.56, -910797.56, -28584.217, -0.15494312, -0.07850065, -618858.8, -408213.75, 0.0, 9.999973, 9.996051 
2.941108e+3, 2.8849465e+2, -323319.66, -340591.28, 17142.81, 0.02908258, -0.1675264, -312760.34, -200012.97, 0.0, 9.999849, 9.999301 
2.9406995e+3, 2.9848582e+2, -176386.66, 201238.63, 99148.35, -0.19107752, -0.26515493, 225687.81, 240507.72, 0.0, 9.99828, 10.003143 
2.9571763e+3, 1.3903132e+2, -1573851.5, -1222587.5, -134068.52, -0.16705549, 0.12070803, -1177264.8, 400215.47, 0.0, 9.998984, 10.003846 
2.9567713e+3, 1.4901827e+2, -1559204.8, -1597390.1, 164913.53, -0.2623473, -0.47930413, -1412282.4, 67315.66, 0.0, 10.000425, 9.999869 
2.956372e+3, 1.5901427e+2, -1470478.4, -1594875.9, 163107.23, -0.026202902, -0.065395355, -1358112.9, 23526.004, 0.0, 10.000725, 9.999102 
2.9559684e+3, 1.6900608e+2, -1297433.3, -1406156.6, 78612.38, -0.05710523, -0.009767938, -1256217.3, 27506.78, 0.0, 10.001109, 9.99945 
2.9555625e+3, 1.7899717e+2, -1168916.9, -1233878.8, 10620.26, -0.3032985, -0.06697631, -1167224.6, 18590.787, 0.0, 10.000969, 10.000082 
2.9551554e+3, 1.8898895e+2, -970878.6, -875766.9, -83712.555, -0.36192706, -0.22675477, -827045.25, 260843.58, 0.0, 10.000808, 10.001896 
2.9547495e+3, 1.9898091e+2, -1054310.4, -988669.9, -10249.459, -0.33942086, -0.40415677, -987106.75, 2851.9568, 0.0, 9.999993, 10.000901 
2.9543468e+3, 2.0897426e+2, -1043267.9, -966764.56, 75115.57, -0.16653958, -0.33215293, -920721.9, -28697.855, 0.0, 9.999608, 10.00052 
2.9539442e+3, 2.1896744e+2, -1100846.0, -1087037.9, 83275.59, -0.06495599, -0.23536786, -1010380.6, -216287.19, 0.0, 9.999071, 9.999349 
2.9535377e+3, 2.2895853e+2, -745808.94, -894763.7, 42436.17, -0.23255381, -0.2116173, -734567.56, -38383.0, 0.0, 10.0011635, 9.998875 
2.9531303e+3, 2.3894908e+2, -322144.3, -704766.9, -1996.944, -0.41244772, -0.24532133, -322133.88, 276147.2, 0.0, 10.003507, 9.99846 
2.9527274e+3, 2.4894023e+2, -429286.3, -700213.25, -62162.918, -0.19628437, -0.16440135, -415704.22, 84665.87, 0.0, 10.002197, 9.9984045 
2.9523242e+3, 2.5893173e+2, -551498.2, -666895.6, -194216.16, 0.061308783, -0.08213928, -406591.25, -4136.879, 0.0, 10.000366, 9.998923 
2.9519168e+3, 2.6892382e+2, -346306.44, -421981.16, -125719.8, 0.088464454, -0.028064135, -252853.55, 51679.05, 0.0, 10.000766, 9.999674 
2.9515073e+3, 2.7891535e+2, -212532.08, -436949.38, 51132.08, 0.010894209, -0.0225706, -201431.08, 5186.582, 0.0, 10.0014515, 9.998636 
2.9511005e+3, 2.889032e+2, -325480.1, -532661.44, 80088.33, 0.08920029, -0.20941843, -298131.22, -189394.53, 0.0, 10.000505, 9.997732 
2.9506898e+3, 2.9889384e+2, -248121.36, 162244.95, -66857.24, -0.118865915, -0.19415459, 172862.67, 183683.81, 0.0, 9.997548, 10.003282 
2.9671693e+3, 1.3943367e+2, -1129030.9, -1157425.8, -54282.27, -0.18612331, -0.14958577, -1087120.1, 486416.3, 0.0, 10.002695, 10.002493 
2.9667658e+3, 1.494247e+2, -1118059.1, -1403718.0, 56858.207, -0.2531151, -0.2902449, -1107158.0, 368456.94, 0.0, 10.003568, 9.999687 
2.9663655e+3, 1.5941805e+2, -1204297.3, -1431642.9, 16485.648, -0.020309525, -0.13356368, -1203108.0, 174570.27, 0.0, 10.002366, 9.999445 
2.9659617e+3, 1.6940983e+2, -1261517.3, -1305693.3, 29518.436, -0.021918746, -0.1639838, -1246737.8, 33023.63, 0.0, 10.000925, 10.000256 
2.9655552e+3, 1.794013e+2, -1349929.0, -1267567.3, 100230.44, -0.22453362, -0.25784057, -1200387.6, -18539.92, 0.0, 9.99947, 10.00059 
2.9651475e+3, 1.8939425e+2, -1075260.3, -916824.75, 26414.072, -0.39627138, -0.30708393, -912537.1, 171375.08, 0.0, 10.000107, 10.00194 
2.9647413e+3, 1.9938706e+2, -996582.5, -997582.75, 65920.016, -0.37740698, -0.3852232, -931160.7, 54816.387, 0.0, 10.000594, 10.000549 
2.9643396e+3, 2.0938006e+2, -850691.5, -874517.0, 68897.95, -0.13883476, -0.32042295, -792684.0, 95361.24, 0.0, 10.0010395, 10.000427 
2.9639372e+3, 2.1937299e+2, -909114.7, -1024096.8, 16379.856, 0.07311843, -0.24966803, -906826.8, -116710.61, 0.0, 10.000612, 9.999006 
2.9635307e+3, 2.2936426e+2, -848760.1, -975965.7, 49490.965, -0.19904968, -0.18997566, -831773.44, -139566.23, 0.0, 10.000616, 9.99857 
2.963124e+3, 2.3935512e+2, -868673.7, -1050115.1, -2461.3276, -0.47702384, -0.16473426, -868640.25, -274337.7, 0.0, 10.000153, 9.997718 
2.96272e+3, 2.4934523e+2, -803099.5, -966785.25, -1213.1958, -0.23228806, -0.115968004, -803090.5, -306684.97, 0.0, 10.000036, 9.997591 
2.962317e+3, 2.5933558e+2, -726523.0, -687394.5, 24225.977, 0.14955129, -0.087956786, -675819.44, -277314.5, 0.0, 9.998973, 9.999424 
2.96191e+3, 2.6933023e+2, -287877.16, 11177.791, 20039.277, 0.216231, -0.03074654, 12514.621, 313063.94, 0.0, 9.999517, 10.0032 
2.9615012e+3, 2.7932474e+2, -441840.66, -416573.75, 27341.814, 0.15197943, -0.03677471, -399087.78, -196493.58, 0.0, 9.999448, 9.999706 
2.9610926e+3, 2.8931174e+2, -496842.13, -741260.7, 46295.387, 0.08663905, -0.27062938, -488367.16, -383641.25, 0.0, 9.999993, 9.996485 
2.9606825e+3, 2.9930198e+2, -62310.875, 236409.84, -318413.2, 0.14323522, -0.23024367, 438753.16, 445574.66, 0.0, 9.999064, 10.003025 
2.9771632e+3, 1.3983682e+2, -1417987.3, -1564715.4, 69641.27, -0.32224196, -0.2642455, -1390197.0, 179384.66, 0.0, 10.001984, 9.999998 
2.9767624e+3, 1.4983079e+2, -1263636.9, -1528402.0, 46368.52, -0.12832685, -0.008805456, -1255751.3, 215883.58, 0.0, 10.00284, 9.999163 
2.9763573e+3, 1.5981905e+2, -1246622.9, -1355484.1, -12210.519, -0.31107762, -0.33443397, -1245270.0, 128475.98, 0.0, 10.001679, 10.000293 
2.9759538e+3, 1.6981213e+2, -1136349.1, -969856.25, -15305.684, -0.10582868, -0.44202098, -968460.9, 307350.06, 0.0, 10.0006075, 10.002713 
2.9755488e+3, 1.7980586e+2, -1276393.8, -1107717.1, 66468.42, -0.061520033, -0.51307106, -1084672.9, 93197.87, 0.0, 9.999419, 10.001721 
2.9751405e+3, 1.8980138e+2, -1061915.5, -952556.0, 35747.285, -0.341224, -0.3179038, -941907.8, 138008.45, 0.0, 10.000315, 10.001624 
2.9747325e+3, 1.9979613e+2, -1012768.1, -1092270.9, 67208.39, -0.57161903, -0.15540533, -974435.3, 7533.6694, 0.0, 10.00079, 9.999829 
2.9743302e+3, 2.0978603e+2, -933463.6, -1091434.6, 55003.496, -0.39996022, -0.2660078, -916199.0, -32131.953, 0.0, 10.00121, 9.998874 
2.973928e+3, 2.1977592e+2, -830495.44, -1033710.9, -20504.334, -0.21638882, -0.3657921, -828447.2, -42280.824, 0.0, 10.001253, 9.99867 
2.9735255e+3, 2.2976868e+2, -767338.56, -897556.6, 5570.2036, -0.035911236, -0.181353, -767100.75, -78855.266, 0.0, 10.0008745, 9.999051 
2.9731217e+3, 2.3976146e+2, -704333.0, -780957.44, -34404.91, 0.05507382, -0.028945006, -691152.25, -100827.945, 0.0, 10.000355, 9.999504 
2.972714e+3, 2.4975193e+2, -611353.2, -578851.6, 12617.215, -0.042138338, -0.18940383, -574528.56, -82111.984, 0.0, 9.999962, 10.000338 
2.972306e+3, 2.597424e+2, -510390.47, -420023.63, 75492.93, -0.096801, -0.37227744, -377225.66, 17281.145, 0.0, 9.9996, 10.000994 
2.9719e+3, 2.6973686e+2, -315242.97, -96733.49, 54216.555, 0.07679658, -0.3099735, -84020.89, 212532.5, 0.0, 9.999625, 10.002482 
2.971493e+3, 2.7973104e+2, -348911.03, -348356.0, 17308.191, 0.14511657, -0.2629308, -331323.1, -132719.7, 0.0, 9.99982, 10.000059 
2.9710838e+3, 2.8971916e+2, -334720.72, -547156.44, 74218.93, -0.022743694, -0.472747, -311359.72, -210631.38, 0.0, 10.000482, 9.997661 
2.9706752e+3, 2.9971316e+2, 390656.8, 340548.13, -150153.06, 0.074919835, -0.08747075, 517831.44, 520625.63, 0.0, 10.002536, 10.002124 
2.987157e+3, 1.4024141e+2, -1480663.6, -1653206.8, 187522.33, -0.3668691, -0.34902102, -1360519.5, 205095.05, 0.0, 10.001696, 9.999564 
2.9867575e+3, 1.5023682e+2, -1387577.4, -1484884.0, 118054.54, 0.008572738, 0.002791425, -1308543.5, 159111.36, 0.0, 10.001466, 10.000158 
2.9863495e+3, 1.6022265e+2, -1431049.1, -1376914.6, 130727.81, -0.36927623, -0.64854693, -1270481.4, 99306.53, 0.0, 10.000081, 10.000958 
2.9859456e+3, 1.7021807e+2, -1169352.5, -954327.8, 56215.45, -0.15225442, -0.5354279, -940517.94, 331312.34, 0.0, 10.00026, 10.00302 
2.9855418e+3, 1.8021375e+2, -1163215.5, -1154438.3, 67935.36, 0.02725724, -0.40071672, -1090749.9, 83121.69, 0.0, 10.000623, 10.00085 
2.9851344e+3, 1.9020794e+2, -906260.94, -1037687.94, -29348.49, -0.2286699, -0.20340103, -900005.0, 175929.48, 0.0, 10.002074, 10.000211 
2.984727e+3, 2.0020178e+2, -752018.06, -1039186.6, -76546.88, -0.48269486, -0.041768473, -732888.25, 245111.86, 0.0, 10.002895, 9.999189 
2.9843235e+3, 2.1019001e+2, -733434.06, -1049075.6, -17877.162, -0.45621672, -0.2994077, -732424.75, 147686.81, 0.0, 10.002755, 9.998448 
2.9839203e+3, 2.2017907e+2, -796276.94, -1004739.56, -8998.513, -0.2898475, -0.4710111, -795889.25, -13673.212, 0.0, 10.001468, 9.998779 
2.983518e+3, 2.301738e+2, -813724.0, -816502.6, 26147.65, -0.034638725, -0.15952596, -788928.8, -104651.805, 0.0, 10.0001955, 9.999919 
2.9831144e+3, 2.4016792e+2, -908799.6, -772512.9, 5566.9907, 0.18436302, 0.05614963, -772285.8, -185942.55, 0.0, 9.998573, 10.000408 
2.9827052e+3, 2.5015908e+2, -633252.25, -368725.5, -22602.668, -0.03376917, -0.20123173, -366808.13, 121616.63, 0.0, 9.998995, 10.002206 
2.982296e+3, 2.6015022e+2, -634841.8, -505058.06, -30869.232, -0.20077054, -0.45446417, -498089.9, -107585.96, 0.0, 9.998967, 10.000705 
2.981891e+3, 2.7014342e+2, -295765.38, -217761.17, -71213.89, 0.019856025, -0.44223806, -175568.55, 116995.73, 0.0, 10.000394, 10.001254 
2.9814848e+3, 2.8013667e+2, -276358.0, -319964.66, -106947.29, 0.12909201, -0.42984027, -189014.16, 5611.874, 0.0, 10.000477, 9.999923 
2.9810742e+3, 2.9012704e+2, -339608.1, -324116.7, -5462.269, -0.18157658, -0.5814302, -322384.4, -225654.73, 0.0, 9.999627, 9.999561 
2.9806682e+3, 3.0012447e+2, -129533.43, -48523.664, 72450.49, -0.012574687, 0.025863841, -6024.212, -6024.212, 0.0, 9.999802, 10.000706 
2.997151e+3, 1.4064571e+2, -1665701.3, -1633795.4, 297081.1, -0.41350418, -0.46508142, -1352239.3, 209412.16, 0.0, 10.000064, 10.000485 
2.996752e+3, 1.5064198e+2, -1376203.6, -1263855.1, 32171.215, 0.09088538, -0.19571336, -1255295.0, 208388.1, 0.0, 10.000673, 10.002057 
2.9963413e+3, 1.6062747e+2, -1467456.6, -1385817.1, 76523.836, -0.40365776, -1.0203708, -1339906.5, 25911.525, 0.0, 9.999808, 10.001032 
2.9959375e+3, 1.706253e+2, -1269872.9, -1149946.3, 19623.973, -0.17306876, -0.5702507, -1146816.8, 121024.164, 0.0, 10.000212, 10.001701 
2.995534e+3, 1.806233e+2, -1290195.9, -1388752.3, 75608.95, -0.07126511, -0.06367459, -1249224.1, -79359.664, 0.0, 10.000541, 9.999261 
2.9951292e+3, 1.9061305e+2, -1054969.6, -1349309.4, 34984.72, -0.1979313, -0.10563507, -1050868.5, 21106.576, 0.0, 10.00214, 9.998016 
2.994725e+3, 2.0060234e+2, -825995.56, -1108983.3, -80040.41, -0.24988183, -0.20648861, -804925.7, 169161.8, 0.0, 10.002525, 9.998878 
2.994321e+3, 2.105927e+2, -631927.0, -803388.9, -42421.555, -0.20711266, -0.37042207, -622005.56, 254167.34, 0.0, 10.002612, 10.0001955 
2.9939145e+3, 2.2058323e+2, -582413.6, -736678.4, -63487.19, -0.3119221, -0.5404842, -559645.94, 218612.16, 0.0, 10.002172, 10.000281 
2.9935047e+3, 2.3057812e+2, -714587.3, -658177.7, -52879.723, -0.5907251, -0.31563118, -626451.06, 53864.348, 0.0, 10.000322, 10.000984 
2.993097e+3, 2.4057409e+2, -782469.75, -626354.8, -13270.324, -0.6910477, -0.015454895, -625234.9, -42872.273, 0.0, 9.999012, 10.00121 
2.9926935e+3, 2.5056782e+2, -589065.9, -417666.38, -29663.854, -0.3194052, 0.014899694, -412677.7, 71746.055, 0.0, 9.999559, 10.001636 
2.9922897e+3, 2.605602e+2, -551617.25, -574722.75, -47281.313, -0.022354627, -0.030438721, -514497.72, -128001.086, 0.0, 9.999903, 9.999834 
2.9918852e+3, 2.7055067e+2, -312350.3, -432025.75, -86108.664, 0.14099844, -0.1161181, -267329.75, 21259.86, 0.0, 10.001118, 9.999496 
2.991478e+3, 2.8054184e+2, 69639.266, 28419.736, -219797.83, 0.0870235, -0.21256666, 269791.47, 460466.1, 0.0, 10.001956, 10.001675 
2.9910636e+3, 2.9053515e+2, -57658.035, 238685.14, -154756.6, -0.37281653, -0.40604213, 304766.72, 397503.72, 0.0, 9.99961, 10.003572 
2.99066e+3, 3.0053222e+2, -298495.3, -297498.75, 308232.38, 0.040636886, -0.050702024, 10235.745, 10235.745, 0.0, 9.999095, 9.999532 
3.0071455e+3, 1.4105666e+2, -2110553.3, -1826986.6, 376634.0, -0.09235571, -0.16121103, -1566332.8, -8714.117, 0.0, 9.996661, 10.000885 
3.0067465e+3, 1.5105516e+2, -1413566.5, -1441338.1, 103991.03, 0.29063308, 0.4246342, -1322538.3, 137101.95, 0.0, 10.001058, 10.0006275 
3.0063358e+3, 1.6104317e+2, -1100474.3, -1478954.9, -56310.54, -0.38330734, 0.0039662872, -1092274.0, 269485.44, 0.0, 10.003379, 9.998647 
3.0059296e+3, 1.7103224e+2, -745427.5, -1238104.6, -226136.3, -0.45191276, -0.18308787, -657370.6, 606499.56, 0.0, 10.005177, 9.998658 
3.0055273e+3, 1.8102384e+2, -421601.5, -981897.25, -198814.89, -0.31263027, -0.17151923, -358223.25, 807733.06, 0.0, 10.006407, 9.999252 
3.0051243e+3, 1.9102125e+2, -451363.13, -826443.3, -25255.281, -0.27181596, 0.30509895, -449670.25, 618315.5, 0.0, 10.005132, 10.000164 
3.00472e+3, 2.0101255e+2, -652625.75, -992052.94, 102124.914, -0.274118, 0.28081572, -624268.1, 345804.03, 0.0, 10.003439, 9.99924 
3.0043122e+3, 2.1100132e+2, -1138778.9, -871443.1, 106844.04, -0.33682722, -0.15864475, -833989.0, 38178.613, 0.0, 9.998357, 10.0016985 
3.0039045e+3, 2.2099154e+2, -1507318.3, -1104332.8, 132072.27, -0.45357543, -0.45647892, -1064905.5, -290653.72, 0.0, 9.995445, 10.000962 
3.003499e+3, 2.3098625e+2, -589808.75, -463912.53, 231065.89, -0.33161476, -0.36619473, -287373.88, 388934.4, 0.0, 10.000594, 10.002088 
3.0030945e+3, 2.409824e+2, -292687.53, -537509.1, 223632.72, -0.19547412, -0.11363655, -160155.2, 418197.84, 0.0, 10.003013, 9.999834 
3.0026916e+3, 2.509739e+2, -303631.4, -575459.06, 47289.13, 0.20608017, -0.07808797, -295639.6, 184803.05, 0.0, 10.002866, 9.998822 
3.0022863e+3, 2.6096562e+2, -316059.13, -503277.4, -43849.953, 0.35974148, -0.029116012, -306297.63, 76231.93, 0.0, 10.001749, 9.999356 
3.0018762e+3, 2.7095953e+2, -516432.25, -373594.03, 248843.34, 0.01617352, 0.10756876, -186123.8, 98469.35, 0.0, 9.999155, 10.000701 
3.0014652e+3, 2.809524e+2, -603748.2, -425053.06, 246059.97, -0.4445315, 0.16343012, -252621.14, -65956.56, 0.0, 9.997951, 10.000411 
3.0010533e+3, 2.9094243e+2, 24073.938, 134498.75, -309428.38, -0.5232301, -0.20520832, 393602.0, 482354.6, 0.0, 10.000954, 10.002059 
3.0006576e+3, 3.0093777e+2, 375179.9, -286470.0, 2453.2412, 0.48367354, 0.07788098, 375189.0, 375189.0, 0.0, 10.005318, 9.996447 
