coord_x,coord_y,stress_xx,stress_yy,tau_xy,velocity_x,velocity_y,stress_1,eps,damage,lx,ly
5.000347e+0, 1.2479579e+2, -1513241.1, -1468391.1, 22140.268, -0.001095991, 0.19248232, -1459303.1, 257707.3, 0.0027102246, 10.000516, 10.001442 
5.000387e+0, 1.3479309e+2, -1536847.0, -1663068.5, -34439.664, -0.005151368, -0.12786356, -1528061.5, 90968.195, 0.0016001622, 10.0007715, 9.9992895 
5.000365e+0, 1.4479381e+2, -1465684.6, -1640375.8, -27876.102, -0.013393266, 0.054607853, -1461344.1, 59678.9, 0.00071385584, 10.00088, 9.998705 
5.000262e+0, 1.5479486e+2, -1364497.0, -1539659.8, -14257.959, -0.0239806, 0.20131075, -1363344.0, 59676.715, 0.00020880907, 10.000903, 9.998714 
5.000401e+0, 1.6479465e+2, -1285711.9, -1494904.8, 30824.617, -0.013011514, 0.33503866, -1281264.5, 43763.324, 0.00003056022, 10.000969, 9.998317 
5.0007594e+0, 1.7479205e+2, -1188447.5, -1414633.9, 41363.06, 0.019321928, 0.17498505, -1181120.8, 45934.426, 0.0000010193884, 10.001037, 9.998163 
5.000763e+0, 1.847906e+2, -1037985.75, -1150824.9, 46178.652, 0.030835735, 0.16149727, -1021496.94, 107570.98, 0.0, 10.000807, 9.999409 
5.0003636e+0, 1.9479011e+2, -1026691.44, -1107163.3, 5236.5513, 0.01844885, 0.10052579, -1026352.1, 4715.8423, 0.0, 10.000263, 9.999304 
5.0001067e+0, 2.0478933e+2, -994020.56, -1068031.6, 18171.04, 0.009174407, 0.112411626, -989799.94, -56726.594, 0.0, 9.999936, 9.999049 
4.9999508e+0, 2.147876e+2, -911571.06, -991499.5, 6262.0044, -0.0040312703, -0.035692524, -911083.44, -75992.72, 0.0, 9.999886, 9.998929 
4.9998957e+0, 2.2478713e+2, -803080.3, -870122.44, 19351.447, -0.009017402, 0.025263853, -797895.56, -60799.15, 0.0, 9.999885, 9.99909 
4.9999896e+0, 2.3478763e+2, -705695.06, -780599.7, -11962.13, -0.0014565383, 0.09345441, -703831.1, -64737.83, 0.0, 9.999912, 9.999021 
5.0000817e+0, 2.4478766e+2, -606127.3, -661967.94, -18868.514, 0.012116165, 0.19197793, -600349.5, -59256.43, 0.0, 9.999835, 9.999197 
5.000154e+0, 2.5478646e+2, -551447.0, -607437.9, -46732.492, 0.02895091, 0.08429458, -524966.1, -81863.01, 0.000000000017365094, 9.999628, 9.999002 
5.0000346e+0, 2.6478553e+2, -455142.8, -519524.16, -26197.785, 0.015813442, 0.1060435, -445829.72, -100717.695, 0.000000288742, 9.9996605, 9.998911 
4.9997193e+0, 2.7478492e+2, -323047.97, -409895.13, -40425.55, -0.029037321, 0.08355437, -307143.38, -60024.063, 0.0000033591298, 9.999915, 9.998867 
4.9997553e+0, 2.8478482e+2, -253726.78, -370933.22, -35429.8, -0.024939882, 0.21068887, -243849.28, -94728.055, 0.000018802597, 9.999914, 9.998455 
5.000085e+0, 2.9478326e+2, -160921.81, -251153.06, -44118.418, 0.014342734, 0.1303062, -142935.5, -91798.52, 0.000081046455, 9.999748, 9.998691 
4.9999914e+0, 3.0478168e+2, -16706.516, -50852.344, -37922.32, -0.0030306636, 0.03841748, 7808.8726, 7808.8726, 0.0003038914, 9.99994, 9.999639 
4.9997568e+0, 3.1478196e+2, -21780.684, -117181.18, -68871.15, -0.039602056, 0.053310703, 14295.849, 14295.849, 0.00078894256, 10.000073, 9.999146 
1.5001023e+1, 1.24794975e+2, -1646603.3, -1635086.6, -14645.088, -0.00050183357, 0.0782333, -1625108.5, 91906.62, 0.0026043395, 10.000117, 10.000509 
1.5001261e+1, 1.3479316e+2, -1615705.0, -1763789.6, -8844.683, -0.000071409464, -0.02021762, -1615178.6, 3854.1992, 0.0015429672, 10.000562, 9.998726 
1.500108e+1, 1.4479353e+2, -1440079.4, -1516455.6, -42926.8, -0.040171914, 0.10815803, -1420812.8, 100217.1, 0.0006869522, 10.000608, 9.999702 
1.5000768e+1, 1.5479283e+2, -1331448.0, -1412541.3, 5172.953, -0.07214778, 0.023461726, -1331119.4, 91918.56, 0.0001968844, 10.000687, 9.999703 
1.5001217e+1, 1.647926e+2, -1265369.4, -1388030.1, 17560.496, -0.03470922, 0.06288808, -1262904.9, 62136.16, 0.000026649353, 10.000728, 9.999181 
1.500232e+1, 1.7479241e+2, -1157749.0, -1294654.8, 59994.5, 0.06335613, 0.09733697, -1135179.1, 91864.62, 0.00000066228677, 10.000821, 9.99911 
1.5002254e+1, 1.8479168e+2, -1116446.5, -1238666.3, 10148.961, 0.093300685, 0.12612993, -1115609.5, 13442.172, 0.0, 10.000531, 9.998947 
1.5001078e+1, 1.9479021e+2, -1103950.0, -1196302.1, 2360.1614, 0.058958407, 0.05569433, -1103889.8, -72822.81, 0.0, 9.999999, 9.998831 
1.5000297e+1, 2.047897e+2, -1018612.5, -1051553.0, 2462.076, 0.026428355, 0.10809166, -1018429.5, -85357.016, 0.0, 9.999684, 9.999293 
1.4999829e+1, 2.1479008e+2, -931165.75, -965205.1, 22074.48, -0.013660236, 0.18212599, -920311.56, -85242.01, 0.0, 9.999632, 9.999242 
1.499968e+1, 2.2478966e+2, -859176.0, -918452.56, 2218.356, -0.023208322, 0.23732387, -859093.1, -122018.625, 0.0, 9.999632, 9.998893 
1.4999945e+1, 2.3478821e+2, -763486.1, -831054.5, 6169.5864, -0.0032958733, 0.17633905, -762927.4, -123837.98, 0.0, 9.999653, 9.99881 
1.5000251e+1, 2.4478693e+2, -658695.06, -712388.06, -42247.01, 0.038886443, 0.16579916, -635486.1, -94384.11, 0.0, 9.999619, 9.998969 
1.5000452e+1, 2.5478554e+2, -601255.4, -638341.56, -39161.504, 0.08930478, 0.09677154, -576468.7, -133353.64, 0.0, 9.999353, 9.998937 
1.5000108e+1, 2.6478457e+2, -476021.47, -502645.53, -31827.867, 0.05017515, 0.102152, -454833.9, -109709.016, 0.00000013049092, 9.999444, 9.999144 
1.4999174e+1, 2.7478412e+2, -355464.5, -405572.13, -18080.27, -0.0837472, 0.113744676, -349621.88, -102490.92, 0.0000024373799, 9.999643, 9.999041 
1.4999229e+1, 2.8478387e+2, -270397.6, -347782.8, -55891.906, -0.075588144, 0.20782635, -241112.1, -91977.43, 0.000015368285, 9.999706, 9.99873 
1.5000242e+1, 2.947828e+2, -192219.6, -234940.13, -23487.09, 0.041923445, 0.1848313, -181832.34, -130685.54, 0.000069496324, 9.999425, 9.998976 
1.5000066e+1, 3.0478176e+2, -69659.81, -77052.11, -43944.26, 0.0084913485, 0.14966819, -29256.531, -29256.531, 0.00026841622, 9.999676, 9.999611 
1.4999259e+1, 3.147824e+2, -60086.14, -51747.54, -12974.674, -0.10939939, 0.2646054, -42288.734, -42288.734, 0.0007052667, 9.999545, 9.99988 
2.5002125e+1, 1.2479483e+2, -1607082.3, -1692356.5, 58117.53, 0.08581272, 0.037104797, -1577639.1, 139374.7, 0.0024837567, 10.00076, 9.999774 
2.5002074e+1, 1.3479358e+2, -1632272.3, -1806768.4, 44706.617, 0.037847504, 0.006977145, -1621485.1, -2455.3926, 0.0014731403, 10.000646, 9.998372 
2.5001886e+1, 1.4479382e+2, -1430086.4, -1491719.9, 55764.527, -0.0076318495, 0.1337493, -1397190.1, 123838.47, 0.00065158884, 10.000631, 9.999839 
2.5002193e+1, 1.5479238e+2, -1296171.9, -1384302.4, 18114.17, 0.0024196694, -0.04874082, -1292594.0, 130446.95, 0.0001815959, 10.000905, 9.99978 
2.5002497e+1, 1.6479225e+2, -1217472.1, -1309613.5, 31007.729, 0.026437325, -0.02646534, -1208009.1, 117032.266, 0.000022322774, 10.00083, 9.999657 
2.50028e+1, 1.7479306e+2, -1183681.0, -1245936.8, 28391.35, 0.061383534, 0.04512523, -1172678.0, 54354.754, 0.00000035252413, 10.000404, 9.999624 
2.500255e+1, 1.8479282e+2, -1165425.1, -1298227.8, 18893.988, 0.08985224, 0.111842595, -1162789.4, -33752.797, 0.0, 10.000344, 9.998617 
2.500187e+1, 1.9479127e+2, -1049206.3, -1204657.0, 7917.9585, 0.12317028, 0.05442817, -1048804.0, -17748.555, 0.0, 10.000527, 9.9985 
2.5001168e+1, 2.0479059e+2, -897034.44, -1047126.44, 50139.875, 0.10067204, 0.12887363, -881825.75, 51238.723, 0.0, 10.000763, 9.998796 
2.500038e+1, 2.1479057e+2, -767436.5, -946049.0, -3476.7378, 0.018497141, 0.20631519, -767368.8, 67696.94, 0.0, 10.001023, 9.998696 
2.5000042e+1, 2.247898e+2, -694661.94, -857941.06, -18338.693, -0.0024156442, 0.2642969, -692627.56, 44446.723, 0.0, 10.000848, 9.9987 
2.500027e+1, 2.3478797e+2, -704427.94, -827722.4, -25706.797, 0.04729364, 0.16732977, -699282.75, -60189.875, 0.0, 10.000163, 9.99857 
2.5000274e+1, 2.4478662e+2, -651023.3, -703753.3, -10042.826, 0.08508713, 0.16421382, -649175.3, -108069.35, 0.0, 9.999678, 9.998977 
2.4999966e+1, 2.547855e+2, -589727.5, -630459.06, -8477.258, 0.11205655, 0.11280041, -588033.6, -144917.34, 0.0, 9.999439, 9.998928 
2.4999727e+1, 2.6478457e+2, -466033.25, -520578.4, 61306.57, 0.06857918, 0.12934434, -426206.72, -81080.16, 0.00000003137998, 9.999635, 9.998913 
2.499957e+1, 2.747837e+2, -271647.97, -392381.72, 24400.969, -0.0328124, 0.11550323, -266902.9, -19765.414, 0.0000016497497, 10.000353, 9.99878 
2.4999577e+1, 2.847835e+2, -158425.25, -262338.56, -13523.295, -0.032636218, 0.21494511, -156694.16, -7553.423, 0.000012071121, 10.000353, 9.998992 
2.49998e+1, 2.9478335e+2, -184249.73, -211299.9, -1985.4435, 0.07008317, 0.24511062, -184104.78, -132961.75, 0.00005739791, 9.999429, 9.999119 
2.4999614e+1, 3.0478212e+2, -181161.22, -163737.39, 56051.84, 0.044653587, 0.20446438, -115724.47, -115724.47, 0.00023072664, 9.999076, 9.9993 
2.4999927e+1, 3.147823e+2, -60498.348, 5893.0874, 25748.791, 0.04241545, 0.26347527, 14708.748, 14708.748, 0.000617959, 9.999341, 10.000338 
3.5003188e+1, 1.24795236e+2, -1661772.8, -1754586.0, -180.39433, 0.038486697, -0.009870334, -1661772.4, 55235.547, 0.0023583595, 10.000555, 9.999443 
3.5002342e+1, 1.3479437e+2, -1621077.6, -1757801.1, 51530.516, -0.039167657, -0.013027522, -1603831.4, 15188.644, 0.0013953737, 10.000556, 9.998745 
3.5002318e+1, 1.4479451e+2, -1482458.3, -1563114.6, 46307.617, -0.07466544, 0.10650189, -1461380.0, 59640.59, 0.0006105934, 10.000477, 9.99942 
3.5004085e+1, 1.5479349e+2, -1336573.0, -1440363.3, 45086.434, 0.060818266, 0.010170688, -1319723.0, 103307.83, 0.00016453842, 10.000803, 9.999436 
3.5003924e+1, 1.6479346e+2, -1201270.9, -1248389.4, -3251.5332, 0.04665114, 0.033771038, -1201047.6, 123982.47, 0.000017966355, 10.000705, 10.000144 
3.5001805e+1, 1.7479381e+2, -1164758.8, -1187538.5, 30463.793, -0.11787228, 0.021347484, -1143625.3, 83398.91, 0.00000014192928, 10.0003195, 10.000072 
3.5001278e+1, 1.8479382e+2, -1176766.4, -1281337.3, 9561.256, -0.10725084, 0.08095735, -1175899.4, -46874.535, 0.0, 10.000179, 9.998807 
3.5002345e+1, 1.9479327e+2, -1058022.9, -1184454.9, 31087.236, 0.08204467, 0.11486643, -1050792.6, -19758.854, 0.0, 10.00037, 9.998712 
3.500237e+1, 2.0479189e+2, -987555.56, -1192738.0, 41298.336, 0.1135146, 0.15090507, -979555.2, -46504.906, 0.0, 10.000588, 9.99788 
3.5001242e+1, 2.1478914e+2, -859260.4, -1092050.5, 23088.229, -0.030306885, 0.05680348, -856992.56, -21913.623, 0.0, 10.000838, 9.997782 
3.500061e+1, 2.2478752e+2, -715899.9, -847173.7, -55225.754, -0.06284812, 0.07028713, -695757.5, 41338.758, 0.0, 10.0006275, 9.998876 
3.5000542e+1, 2.3478703e+2, -721178.44, -805634.44, -34725.297, 0.022861289, 0.094821796, -708734.2, -69631.89, 0.0, 9.999936, 9.998824 
3.4999824e+1, 2.4478678e+2, -642613.5, -649000.1, -34326.027, 0.04091624, 0.16505443, -611332.56, -70227.88, 0.0, 9.999516, 9.999434 
3.4998325e+1, 2.547865e+2, -586022.4, -575732.9, -240.95044, -0.030571844, 0.1571209, -575727.2, -132621.11, 0.0, 9.999244, 9.999397 
3.499852e+1, 2.6478556e+2, -510420.22, -588319.06, 73030.76, -0.048187423, 0.17281349, -466601.6, -121485.18, 0.0000000045955626, 9.999528, 9.998498 
3.5000437e+1, 2.747838e+2, -321220.75, -458261.94, 71522.77, -0.018611291, 0.11323767, -290693.0, -43555.453, 0.0000011896407, 10.000194, 9.998402 
3.500046e+1, 2.8478378e+2, -133229.63, -185234.78, -61573.508, -0.015781282, 0.21899231, -92393.36, 56745.57, 0.000009641755, 10.000256, 9.999569 
3.4998333e+1, 2.9478496e+2, -180593.34, -164806.33, -22572.031, -0.06363979, 0.3390328, -148787.4, -97661.766, 0.0000464018, 9.9992695, 9.999518 
3.4998065e+1, 3.0478257e+2, -199744.77, -192001.95, 52726.777, -0.05124416, 0.17187285, -143004.64, -143004.64, 0.00019513248, 9.999012, 9.999132 
3.500092e+1, 3.1478214e+2, -54274.066, 40649.85, 89408.62, 0.12694876, 0.17986664, 94413.08, 94413.08, 0.00053834624, 9.999223, 10.000633 
4.5004493e+1, 1.247956e+2, -1600256.9, -1720115.9, 2840.427, 0.12510008, 0.020091966, -1600189.5, 116817.63, 0.0022337737, 10.000989, 9.999445 
4.500347e+1, 1.3479541e+2, -1502906.5, -1631798.6, -2615.2412, 0.016120046, 0.021723386, -1502853.5, 116157.54, 0.0013153872, 10.001084, 9.99934 
4.500337e+1, 1.4479554e+2, -1447204.6, -1563407.6, 57733.445, -0.011990578, 0.11614594, -1423398.1, 97612.73, 0.00056916923, 10.000771, 9.999293 
4.500507e+1, 1.5479451e+2, -1434486.0, -1508380.8, 36325.23, 0.12618978, 0.03959259, -1419620.0, 3401.2073, 0.00014812649, 10.0002, 9.999278 
4.5004705e+1, 1.6479433e+2, -1310373.3, -1307595.8, 14514.367, 0.10461561, 0.060499236, -1294403.9, 30618.225, 0.000013959289, 9.999998, 10.000075 
4.5002258e+1, 1.7479429e+2, -1185704.4, -1204577.4, -26873.924, -0.08583348, 0.016050607, -1166658.4, 60361.99, 0.000000037538413, 10.000211, 10.000008 
4.5001733e+1, 1.8479414e+2, -1098157.6, -1231185.0, -18149.105, -0.090762876, 0.06286542, -1095725.9, 33296.14, 0.0, 10.000665, 9.99893 
4.500314e+1, 1.9479388e+2, -921543.4, -1107664.9, -30103.592, 0.09400611, 0.11122379, -916795.5, 114232.24, 0.0, 10.001251, 9.998825 
4.5003426e+1, 2.0479251e+2, -852088.8, -1119166.3, 34737.207, 0.12903908, 0.1422838, -847644.7, 85398.37, 0.0, 10.0014715, 9.997966 
4.5002487e+1, 2.1478966e+2, -799713.06, -1051959.9, 61222.875, 0.0069856676, 0.026262943, -785638.9, 49432.938, 0.0, 10.001196, 9.997885 
4.500163e+1, 2.2478798e+2, -693395.94, -844937.2, 27284.713, -0.019096117, 0.030306945, -688633.06, 48456.508, 0.0, 10.000808, 9.998816 
4.500091e+1, 2.347874e+2, -682812.8, -798426.44, -1541.8004, 0.06468252, 0.057468656, -682792.25, -43695.254, 0.0, 10.000242, 9.998742 
4.4999897e+1, 2.4478737e+2, -531131.2, -606359.25, 33076.668, 0.06936688, 0.15765792, -518656.47, 22441.643, 0.0, 10.000327, 9.999334 
4.499847e+1, 2.5478747e+2, -320988.34, -466173.22, -6655.2, -0.02268057, 0.19702344, -320683.9, 122412.95, 0.0, 10.001125, 9.999247 
4.4998634e+1, 2.6478645e+2, -314932.5, -490330.7, 71802.88, -0.044152528, 0.21106865, -289287.94, 55819.754, 0.000000013083459, 10.00086, 9.998525 
4.5000672e+1, 2.7478418e+2, -409628.94, -500549.38, 74599.19, 0.029967448, 0.101161726, -367729.72, -120597.69, 0.0000010541644, 9.999581, 9.998412 
4.5000595e+1, 2.84784e+2, -288902.78, -263861.53, -27043.275, 0.037027366, 0.19268242, -246581.06, -97447.04, 0.000008106713, 9.999211, 9.999533 
4.4997936e+1, 2.9478544e+2, -102542.67, -133968.06, -71419.85, -0.0442446, 0.34344342, -45127.5, 5990.235, 0.000037622078, 9.999844, 9.999453 
4.4997543e+1, 3.0478165e+2, -54670.66, -134740.48, 39732.426, -0.041419573, 0.04923226, -38301.14, -38301.14, 0.00016443121, 10.000061, 9.999011 
4.500137e+1, 3.1478208e+2, 3233.0393, 51239.027, 26286.662, 0.24442033, 0.14454265, 62832.836, 62832.836, 0.00047154687, 9.999692, 10.00047 
5.50044e+1, 1.24796204e+2, -1588340.5, -1710367.1, -47570.637, -0.08619408, 0.12720872, -1571987.3, 145021.58, 0.0021078985, 10.001025, 9.999503 
5.500486e+1, 1.3479665e+2, -1437104.8, -1514416.3, 16780.744, -0.010159544, 0.11320255, -1433619.6, 185383.31, 0.0012334009, 10.00115, 10.000118 
5.500459e+1, 1.4479685e+2, -1436474.0, -1538182.8, 10939.502, -0.027427722, 0.1613385, -1435310.6, 85689.01, 0.00052778376, 10.000753, 9.999476 
5.50046e+1, 1.5479556e+2, -1428880.3, -1495275.6, 31250.094, 0.012073026, 0.04824099, -1416485.6, 6525.3545, 0.00013278752, 10.000188, 9.999376 
5.5004126e+1, 1.6479497e+2, -1373290.3, -1415619.5, 5018.298, 0.0040748958, 0.05882645, -1372703.5, -47687.19, 0.0000106646075, 9.999907, 9.999371 
5.500351e+1, 1.7479447e+2, -1240398.9, -1303177.5, -3276.2805, -0.026156565, 0.033975665, -1240228.4, -13206.828, 0.000000007551507, 10.000154, 9.999349 
5.5003405e+1, 1.8479389e+2, -1109802.6, -1228721.4, -14448.268, -0.028752059, 0.06157808, -1108072.4, 20955.75, 0.0, 10.000548, 9.999004 
5.500373e+1, 1.9479305e+2, -929229.2, -1100355.8, 6192.171, -0.01203992, 0.04789181, -929005.44, 102032.07, 0.0, 10.001154, 9.998921 
5.500379e+1, 2.0479256e+2, -797451.6, -964061.2, 10836.155, -0.015120375, 0.10360029, -796749.8, 136292.3, 0.0, 10.001302, 9.999108 
5.5003554e+1, 2.1479215e+2, -741226.6, -893758.0, 66275.45, -0.043778595, 0.11904503, -716453.25, 118591.09, 0.0, 10.001041, 9.999043 
5.5002576e+1, 2.2479112e+2, -734047.7, -894282.3, -7924.7813, -0.04040577, 0.14223143, -733656.75, 3397.7817, 0.0, 10.000661, 9.998548 
5.50009e+1, 2.3478924e+2, -726360.1, -853861.3, -5840.7246, 0.003909115, 0.06861258, -726093.1, -87017.695, 0.0, 10.000093, 9.998433 
5.4999906e+1, 2.447884e+2, -596012.44, -714125.0, 50138.195, 0.0002550643, 0.13908996, -577599.5, -36513.414, 0.0, 10.0002165, 9.998647 
5.4999745e+1, 2.547884e+2, -396890.7, -574195.2, 40033.887, -0.04923139, 0.23895738, -388270.47, 54817.793, 0.0, 10.00093, 9.99859 
5.4999655e+1, 2.647873e+2, -291819.06, -431508.22, 9074.525, -0.068602726, 0.25421828, -291232.03, 53867.387, 0.000000016276152, 10.000801, 9.998963 
5.499984e+1, 2.747848e+2, -392698.75, -443732.5, 44324.473, -0.052148234, 0.07652246, -367071.03, -119949.49, 0.00000094951764, 9.999476, 9.998861 
5.499936e+1, 2.8478408e+2, -340516.22, -358000.72, -19046.795, -0.047992222, 0.12428702, -328301.2, -179174.4, 0.0000068871877, 9.999161, 9.998904 
5.499799e+1, 2.947847e+2, -159156.2, -227926.14, -29741.213, -0.07312731, 0.25536773, -148078.38, -96958.445, 0.00003070153, 9.999734, 9.998859 
5.499755e+1, 3.0477935e+2, -57935.96, -122018.79, 16531.514, -0.084118366, -0.17486201, -53922.65, -53922.65, 0.00013855331, 9.999991, 9.999133 
5.5000263e+1, 3.1478184e+2, -61685.64, -46216.65, 57944.53, 0.084488444, 0.12785998, 4507.31, 4507.31, 0.0004144919, 9.999547, 9.9998665 
6.500532e+1, 1.24796264e+2, -1673926.9, -1797042.0, -13650.357, -0.050900873, 0.18515748, -1672431.6, 44580.375, 0.0019834668, 10.000593, 9.999144 
6.5006346e+1, 1.3479671e+2, -1433944.3, -1489805.3, -49252.43, 0.047172032, 0.15899558, -1405254.0, 213751.92, 0.001149572, 10.001043, 10.0003605 
6.5005964e+1, 1.4479712e+2, -1406356.5, -1489089.5, -57772.402, 0.045655526, 0.20002125, -1376667.8, 144332.08, 0.00048384682, 10.000838, 9.99976 
6.500516e+1, 1.5479611e+2, -1397639.6, -1445789.4, -71260.836, 0.058400966, 0.08762385, -1346496.8, 76510.52, 0.00011744106, 10.000284, 9.999649 
6.5004563e+1, 1.6479555e+2, -1337455.3, -1434306.9, -6959.592, 0.05054513, 0.10060414, -1336957.6, -11945.405, 0.000008467286, 10.0003, 9.999058 
6.500443e+1, 1.7479472e+2, -1175583.3, -1313687.4, -21535.879, 0.030972257, 0.08085519, -1172302.9, 54718.72, 0.000000004638606, 10.000777, 9.998984 
6.500446e+1, 1.8479389e+2, -1065268.8, -1207534.8, -1876.6616, 0.019375687, 0.10396366, -1065244.0, 63786.92, 0.0, 10.000863, 9.998992 
6.500456e+1, 1.9479282e+2, -1031749.75, -1151012.3, -23448.295, 0.0019549425, 0.0662034, -1027305.25, 3736.5637, 0.0, 10.00046, 9.998907 
6.5004563e+1, 2.0479238e+2, -916032.2, -978866.7, -30565.604, -0.006731879, 0.109979555, -903616.8, 29428.146, 0.0, 10.000296, 9.999491 
6.500443e+1, 2.147924e+2, -833751.3, -892182.8, -58666.887, -0.007442817, 0.12873015, -797428.06, 37613.8, 0.0, 10.00021, 9.999451 
6.500332e+1, 2.2479168e+2, -768401.44, -899901.3, -115447.56, -0.0060695894, 0.15519202, -701293.56, 35754.688, 0.0, 10.000367, 9.998652 
6.500122e+1, 2.3478992e+2, -620324.0, -789330.8, -114878.07, 0.0048016016, 0.081767, -562216.75, 76850.38, 0.0, 10.0007515, 9.998556 
6.5000206e+1, 2.4478877e+2, -549204.3, -726083.06, 8002.2524, -0.0024902776, 0.12870356, -548843.0, -7762.3545, 0.0, 10.000672, 9.998365 
6.500042e+1, 2.5478807e+2, -540334.94, -677745.9, -3981.9492, -0.018443389, 0.18835558, -540219.6, -97128.97, 0.0, 10.000075, 9.998314 
6.5000266e+1, 2.647868e+2, -410710.75, -451656.25, -14021.82, -0.027657863, 0.18995133, -406369.28, -61266.75, 0.00000000394634, 9.999827, 9.999302 
6.499982e+1, 2.7478492e+2, -277219.0, -340925.97, -19209.113, -0.020154731, 0.03504242, -271875.25, -24758.463, 0.0000007712445, 10.000086, 9.999264 
6.499926e+1, 2.8478426e+2, -229904.95, -345737.3, -16423.453, -0.007919546, 0.086596094, -227621.36, -78500.61, 0.000006042053, 10.000091, 9.998547 
6.4998597e+1, 2.9478443e+2, -171612.94, -259992.47, -36981.496, 0.026819488, 0.20633642, -158180.08, -107060.52, 0.000026519589, 9.999779, 9.9986105 
6.4998007e+1, 3.0477872e+2, -77136.414, -113063.79, 47940.703, -0.010123838, -0.2609387, -43904.348, -43904.348, 0.00012024143, 9.9997635, 9.999314 
6.499999e+1, 3.1478193e+2, -47897.355, -52896.09, 26535.158, 0.11811732, 0.113239914, -23744.115, -23744.115, 0.00036921015, 9.999657, 9.999802 
7.500629e+1, 1.2479557e+2, -1707669.1, -1869027.9, -53795.484, -0.106454074, 0.20014584, -1691378.8, 25639.945, 0.0018629195, 10.000613, 9.998632 
7.500725e+1, 1.3479552e+2, -1447220.9, -1523210.5, -25394.047, -0.015019118, 0.14412493, -1439516.0, 179504.86, 0.0010666472, 10.001073, 10.000114 
7.500665e+1, 1.4479636e+2, -1390628.9, -1443075.1, -96994.27, -0.021120936, 0.2260464, -1316375.4, 204636.17, 0.0004391749, 10.000779, 10.000106 
7.5006205e+1, 1.5479603e+2, -1370877.6, -1398885.4, -74139.06, 0.08613306, 0.14546205, -1309431.5, 113579.87, 0.00010226521, 10.000307, 9.999969 
7.500548e+1, 1.6479589e+2, -1345217.4, -1434447.9, -8320.872, 0.07084264, 0.18263012, -1344448.1, -19436.58, 0.000007138289, 10.000234, 9.999087 
7.5004554e+1, 1.7479506e+2, -1181725.5, -1317558.4, 10651.559, -0.07599826, 0.15646404, -1180895.3, 46125.402, 0.00000003688298, 10.000733, 9.9989805 
7.5004387e+1, 1.847941e+2, -1090362.6, -1239460.3, -31270.809, -0.11236712, 0.17864743, -1084069.8, 44961.19, 0.0, 10.00077, 9.998825 
7.50051e+1, 1.9479297e+2, -1049886.3, -1176377.1, -23246.96, -0.02923199, 0.14989845, -1045749.1, -14706.48, 0.0, 10.000402, 9.998765 
7.500526e+1, 2.0479186e+2, -958690.8, -1035274.75, -47025.863, -0.0016961718, 0.14838757, -936338.7, -3285.8865, 0.0, 10.000161, 9.999166 
7.500466e+1, 2.147904e+2, -877485.56, -951360.7, -46183.566, -0.042849366, 0.050030958, -855285.06, -20220.535, 0.0, 10.000069, 9.999113 
7.5003374e+1, 2.2478965e+2, -753925.06, -838733.2, -114849.914, -0.07220883, 0.06532515, -673901.2, 63169.56, 0.0, 10.000231, 9.999138 
7.5001407e+1, 2.347894e+2, -609755.5, -730870.5, -82836.77, -0.08950065, 0.091463596, -567701.4, 71371.35, 0.0, 10.000586, 9.999042 
7.5000244e+1, 2.447885e+2, -557828.5, -718078.0, -28267.332, -0.098361805, 0.13251713, -552988.44, -11906.323, 0.0, 10.000562, 9.998469 
7.500003e+1, 2.5478652e+2, -557484.9, -679837.6, -10715.313, -0.10163349, 0.053973008, -556553.56, -113450.4, 0.0, 9.999925, 9.998373 
7.499987e+1, 2.6478517e+2, -409775.63, -423430.84, -18918.4, -0.08516059, 0.032128233, -396490.5, -51375.066, 0.00000000015133415, 9.999723, 9.999541 
7.5e+1, 2.7478448e+2, -283568.2, -320574.2, 9641.7, -0.050907232, -0.02549376, -281206.78, -34088.88, 0.00000065427645, 9.999945, 9.99947 
7.499987e+1, 2.8478456e+2, -233230.75, -345571.06, -42561.88, 0.004549342, 0.08268377, -218926.8, -69810.93, 0.0000058927376, 10.000053, 9.998569 
7.499924e+1, 2.9478458e+2, -182396.17, -258885.69, -27154.033, 0.065951556, 0.1913684, -173736.73, -122620.11, 0.000025865007, 9.99966, 9.998686 
7.499833e+1, 3.0477965e+2, -75940.71, -88286.74, 42417.81, 0.0077098813, -0.21328193, -39249.098, -39249.098, 0.00011203884, 9.999683, 9.999511 
7.49995e+1, 3.1478217e+2, -34964.81, 20797.186, 47636.047, 0.02719107, 0.07112455, 48111.684, 48111.684, 0.00034091447, 9.999465, 10.00039 
8.500817e+1, 1.24795094e+2, -1518204.0, -1808630.0, 36991.715, -0.033445578, 0.14971115, -1513566.4, 203454.2, 0.0017451695, 10.002064, 9.998335 
8.500869e+1, 1.3479489e+2, -1496426.5, -1572869.6, -3471.8782, 0.05135008, 0.10770317, -1496269.1, 122756.945, 0.0009891815, 10.000861, 9.999864 
8.5007566e+1, 1.447959e+2, -1457753.5, -1484338.4, -37003.453, 0.029135603, 0.21844788, -1431727.5, 89289.14, 0.000399723, 10.000334, 10.0000515 
8.5006887e+1, 1.5479536e+2, -1313609.4, -1378888.1, -78243.76, 0.11502513, 0.12688828, -1261470.1, 161548.36, 0.00008899464, 10.000731, 9.999906 
8.500622e+1, 1.6479525e+2, -1230549.9, -1368493.9, 18653.348, 0.09435131, 0.1658572, -1228072.0, 96946.56, 0.000006071428, 10.00099, 9.9991665 
8.500567e+1, 1.7479458e+2, -1143519.3, -1284677.0, 7927.651, -0.03700824, 0.14959316, -1143075.4, 83950.58, 0.000000076650345, 10.000952, 9.999089 
8.5005563e+1, 1.8479376e+2, -1074248.3, -1230471.5, -13419.697, -0.06469717, 0.17837727, -1073103.9, 55930.984, 0.0, 10.000862, 9.998847 
8.500604e+1, 1.9479282e+2, -1023657.4, -1161912.1, -21308.016, 0.027045913, 0.16711661, -1020447.8, 10596.988, 0.0, 10.000565, 9.998788 
8.500595e+1, 2.0479168e+2, -927116.6, -1021502.7, 7803.594, 0.050096482, 0.16285025, -926475.8, 6579.4595, 0.0, 10.000386, 9.999153 
8.50051e+1, 2.1479e+2, -846533.9, -941194.4, -2134.7493, -0.007487092, 0.046449367, -846485.75, -11416.245, 0.0, 10.0003, 9.999078 
8.5003716e+1, 2.2478923e+2, -752511.7, -808659.3, -36411.777, -0.046250112, 0.052778944, -734607.7, 2467.7104, 0.0, 10.0001335, 9.999383 
8.500186e+1, 2.3478936e+2, -702940.0, -743011.1, -55335.527, -0.054452747, 0.09129358, -664124.5, -25051.23, 0.0, 9.999832, 9.99931 
8.5000765e+1, 2.4478866e+2, -643548.44, -713418.06, 23466.281, -0.053376615, 0.11983986, -636398.75, -95319.52, 0.0, 9.999771, 9.998871 
8.500053e+1, 2.5478685e+2, -515491.84, -610026.0, 33079.113, -0.036152508, 0.014684158, -505066.6, -61970.125, 0.0, 10.000015, 9.998792 
8.500018e+1, 2.647856e+2, -359379.03, -430037.56, 62327.13, -0.036561202, -0.008428246, -323064.53, 22042.947, 0.0000000019213902, 10.000164, 9.999298 
8.4999985e+1, 2.7478483e+2, -296651.34, -357038.97, 21636.732, -0.035989568, -0.051862143, -289699.3, -42586.36, 0.0000006294421, 9.999949, 9.999231 
8.4999967e+1, 2.8478485e+2, -243867.73, -337414.16, -10311.292, 0.027290354, 0.05951518, -242744.64, -93632.47, 0.0000062489003, 9.999917, 9.99869 
8.5000086e+1, 2.947851e+2, -66436.53, -188343.55, -17894.902, 0.16280685, 0.17788635, -63864.0, -12753.418, 0.000027811611, 10.00039, 9.998817 
8.499913e+1, 3.0478123e+2, -5893.6924, -112130.66, 38977.492, 0.099588946, -0.10282485, 6872.709, 6872.709, 0.00011222166, 10.000386, 9.999026 
8.499898e+1, 3.1478187e+2, -36341.945, 60443.152, -64680.78, 0.05853143, 0.035855465, 92830.81, 92830.81, 0.00032900518, 9.999282, 10.00074 
9.5009893e+1, 1.24794975e+2, -1535774.5, -1830781.8, -60856.84, -0.15279147, 0.04305075, -1523713.5, 193302.66, 0.0016362383, 10.002005, 9.998208 
9.5010066e+1, 1.3479485e+2, -1507130.6, -1618586.0, -35371.27, 0.054832615, 0.040187888, -1496853.0, 122168.88, 0.0009229167, 10.00095, 9.999508 
9.5008224e+1, 1.4479572e+2, -1493195.0, -1549248.5, -40495.12, 0.013980562, 0.1762733, -1471973.9, 49040.92, 0.00036888671, 10.0003, 9.9996195 
9.500672e+1, 1.5479425e+2, -1348117.8, -1451570.1, -44633.477, -0.019574588, 0.036380418, -1331523.0, 91504.305, 0.00007923838, 10.000732, 9.999406 
9.5006365e+1, 1.6479371e+2, -1233645.6, -1360236.1, 3991.4673, -0.028378204, 0.05697743, -1233520.0, 91512.26, 0.0000051224774, 10.000922, 9.999258 
9.5007217e+1, 1.7479335e+2, -1136883.8, -1268892.0, 24173.23, -0.019496415, 0.05777416, -1132596.5, 94440.54, 0.00000007826353, 10.000937, 9.999207 
9.500746e+1, 1.8479289e+2, -1074473.8, -1211102.5, -39737.38, 0.0032904847, 0.10799452, -1063757.0, 65285.355, 0.0, 10.0007715, 9.999023 
9.500692e+1, 1.9479235e+2, -1024001.44, -1142779.0, -16000.349, 0.01932664, 0.11336935, -1021883.8, 9164.596, 0.0, 10.000473, 9.998963 
9.5006204e+1, 2.0479189e+2, -932958.7, -1003070.56, -10336.805, 0.0016953096, 0.15726602, -931466.44, 1585.779, 0.0, 10.00025, 9.999348 
9.5005226e+1, 2.1479109e+2, -853326.0, -923175.5, 11893.371, -0.060292974, 0.107976474, -851356.44, -16298.811, 0.0, 10.000158, 9.999272 
9.500383e+1, 2.247904e+2, -775345.06, -823671.25, -60294.137, -0.08342035, 0.11254708, -734552.5, 2510.7434, 0.0, 9.999993, 9.999344 
9.5002043e+1, 2.3478957e+2, -725225.44, -762697.0, -52868.82, -0.055957742, 0.06053068, -687870.75, -48799.54, 0.0, 9.999707, 9.999238 
9.5001256e+1, 2.4478912e+2, -607785.5, -614601.6, 16901.748, -0.016904369, 0.08013234, -593951.6, -52878.004, 0.0, 9.999661, 9.999604 
9.500151e+1, 2.5478885e+2, -476520.7, -510818.72, 62361.67, 0.01998252, 0.053036034, -428993.06, 14079.386, 0.0, 9.99992, 9.999526 
9.500081e+1, 2.6478782e+2, -421103.2, -532237.6, 39481.215, -0.024851315, 0.047224645, -408505.28, -63423.867, 0.0000000017799018, 10.000068, 9.998632 
9.499918e+1, 2.747857e+2, -367521.06, -468700.97, 27183.025, -0.14923823, -0.059300773, -360680.53, -113577.0, 0.0000005677249, 9.999803, 9.998529 
9.4999015e+1, 2.8478518e+2, -239383.03, -314601.53, -10375.687, -0.09755986, 0.02294315, -237978.05, -88868.42, 0.0000064583187, 9.999857, 9.998874 
9.5000577e+1, 2.9478592e+2, -82237.02, -189894.95, 25295.344, 0.12762873, 0.16337194, -76589.836, -25487.395, 0.000029725905, 10.000249, 9.998876 
9.4999933e+1, 3.0478337e+2, -88111.45, -265221.84, -7858.0366, 0.10637106, 0.070958555, -87763.49, -87763.49, 0.0001135958, 10.000317, 9.997997 
9.49974e+1, 3.1478125e+2, -58556.574, 48723.176, -45437.746, -0.107497886, 0.023701541, 65381.414, 65381.414, 0.00032168903, 9.999133, 10.000729 
1.0501173e+2, 1.2479551e+2, -1750775.4, -1885417.5, -70769.53, -0.06270131, 0.05292739, -1720421.3, -3410.7776, 0.0015480418, 10.000297, 9.998668 
1.0501125e+2, 1.3479528e+2, -1429361.9, -1559055.6, -66402.805, 0.07116623, 0.027801223, -1401394.6, 217620.39, 0.00087241904, 10.001397, 9.999704 
1.0500917e+2, 1.4479604e+2, -1301087.9, -1479192.9, -2387.0464, 0.019473922, 0.15193838, -1301055.9, 219952.69, 0.0003471946, 10.00173, 9.999402 
1.0500795e+2, 1.547946e+2, -1273970.1, -1454732.8, -27643.934, 0.010309738, 0.046685115, -1269837.0, 153185.5, 0.000073446034, 10.001401, 9.999068 
1.05007544e+2, 1.64794e+2, -1229790.1, -1363671.0, 48414.313, 0.005947534, 0.078355886, -1214117.3, 110912.016, 0.000004420773, 10.000975, 9.9992075 
1.0500823e+2, 1.7479354e+2, -1214973.0, -1315328.0, 24416.049, 0.022204539, 0.077042006, -1209348.0, 17687.107, 0.000000050630582, 10.000445, 9.9991255 
1.0500835e+2, 1.8479317e+2, -1109119.3, -1186360.6, -165.57954, 0.0427383, 0.12067253, -1109118.9, 19920.531, 0.0, 10.000374, 9.9993725 
1.0500774e+2, 1.9479284e+2, -981585.94, -1080059.9, -1515.9978, 0.057387333, 0.11007673, -981562.6, 49479.777, 0.0, 10.000604, 9.999315 
1.0500691e+2, 2.0479244e+2, -883570.9, -973828.56, 26708.05, 0.04224528, 0.14226827, -876259.94, 56785.098, 0.0, 10.00057, 9.999395 
1.050059e+2, 2.1479167e+2, -860122.7, -918590.5, 4680.823, 0.0056703165, 0.09178499, -859750.4, -24699.918, 0.0, 10.000083, 9.999338 
1.05004385e+2, 2.2479099e+2, -772852.7, -832092.8, -31643.832, -0.020457257, 0.09790001, -759129.0, -22072.666, 0.0, 10.000039, 9.999283 
1.05002396e+2, 2.3479022e+2, -617479.4, -717290.44, -53790.637, -0.020477137, 0.06284875, -594009.2, 45054.945, 0.0, 10.000474, 9.999191 
1.05001554e+2, 2.447898e+2, -474542.63, -547143.9, 16026.576, 0.010345588, 0.08604113, -471162.2, 69904.24, 0.0, 10.000564, 9.999637 
1.0500211e+2, 2.5478947e+2, -430245.47, -481746.72, -22555.227, 0.08139558, 0.050938856, -421764.03, 21301.146, 0.0, 10.000223, 9.999577 
1.0500149e+2, 2.6478857e+2, -408705.16, -519632.03, -16932.865, 0.04240439, 0.055115327, -406177.97, -61105.2, 0.00000000014537505, 10.000148, 9.9986725 
1.0499977e+2, 2.747869e+2, -271552.66, -417836.7, -5611.28, -0.09265267, -0.015604818, -271337.72, -24245.738, 0.00000042821608, 10.000467, 9.998549 
1.0499957e+2, 2.847861e+2, -103180.08, -244359.77, 17942.135, -0.063623875, 0.03774264, -100935.55, 48164.96, 0.0000059800022, 10.000757, 9.998934 
1.0500112e+2, 2.9478598e+2, 2604.2952, -150385.22, 3985.048, 0.14147672, 0.08797354, 2708.0266, 53808.44, 0.000029321069, 10.000829, 9.998876 
1.0500073e+2, 3.04784e+2, -54312.375, -285345.63, 379.20712, 0.14843994, 0.0681793, -54311.754, -54311.754, 0.000109980174, 10.000715, 9.9976635 
1.04997754e+2, 3.147815e+2, 115188.87, 89442.97, -31887.232, -0.038002547, 0.014642331, 136703.53, 136703.53, 0.0003078243, 10.00051, 10.000349 
1.1501264e+2, 1.2479651e+2, -1674159.3, -1741109.9, -90098.336, -0.090643995, 0.17311975, -1611518.5, 105486.9, 0.0014882531, 10.000348, 9.999637 
1.150117e+2, 1.3479605e+2, -1376355.9, -1458060.4, -14878.696, -0.06551438, 0.05839891, -1373730.8, 245276.08, 0.000840427, 10.001429, 10.000382 
1.1500996e+2, 1.4479667e+2, -1318581.9, -1494285.5, -32661.863, -0.11947469, 0.13499461, -1312706.8, 208293.16, 0.00033535642, 10.001637, 9.999344 
1.1500983e+2, 1.5479638e+2, -1280803.9, -1464538.9, -20169.818, 0.014483111, 0.14877222, -1278615.8, 144389.2, 0.0000716502, 10.001394, 9.998998 
1.1500925e+2, 1.6479608e+2, -1251932.1, -1401883.6, 13861.7, 0.037150487, 0.23048505, -1250661.5, 74348.125, 0.0000041980056, 10.000934, 9.99897 
1.15008324e+2, 1.7479515e+2, -1232956.3, -1345846.0, 21007.408, -0.05329101, 0.19936748, -1229173.8, -2153.1575, 0.000000024917117, 10.000416, 9.998929 
1.150079e+2, 1.8479456e+2, -1100253.8, -1134136.1, -7385.482, -0.07344416, 0.21100794, -1098713.9, 30312.44, 0.0, 10.000234, 9.999801 
1.15007915e+2, 1.9479415e+2, -963584.0, -1020795.5, 22001.316, -0.026307883, 0.15193503, -956101.75, 74926.03, 0.0, 10.000512, 9.999767 
1.1500754e+2, 2.047933e+2, -912530.25, -1002425.75, -8376.305, 0.016463881, 0.12189381, -911756.4, 21277.707, 0.0, 10.000433, 9.999267 
1.1500664e+2, 2.1479161e+2, -890935.8, -949340.1, -1028.5864, 0.038117435, -0.00984389, -890917.7, -55868.31, 0.0, 9.999935, 9.999202 
1.15004934e+2, 2.2479099e+2, -800496.6, -851919.5, -31834.617, 0.0015651003, 0.013760467, -785287.2, -48232.094, 0.0, 9.999884, 9.999217 
1.150024e+2, 2.347913e+2, -644354.0, -737526.06, -20550.137, -0.10110304, 0.08876707, -640022.75, -970.1244, 0.0, 10.000314, 9.999131 
1.15001276e+2, 2.4479066e+2, -542155.7, -655841.7, -10895.264, -0.10775799, 0.12823117, -541120.94, -62.85855, 0.0, 10.000437, 9.99895 
1.1500176e+2, 2.547887e+2, -502955.5, -594997.8, -22172.133, -0.011199885, 0.0026668156, -497892.9, -54818.055, 0.0, 10.000064, 9.998876 
1.1500175e+2, 2.6478797e+2, -368660.7, -418841.84, -18433.578, 0.02130209, 0.02047824, -362617.16, -17535.932, 0.0, 10.000069, 9.999408 
1.1500131e+2, 2.747883e+2, -236899.39, -318231.66, 27849.75, -0.02329378, 0.07857624, -228277.16, 18801.316, 0.0000002594802, 10.000338, 9.999305 
1.15001105e+2, 2.847875e+2, -123841.24, -263166.28, 8437.447, -0.021443252, 0.096937366, -123332.13, 25753.32, 0.000005001763, 10.000665, 9.998847 
1.1500119e+2, 2.9478526e+2, -34699.61, -189371.4, 20751.338, 0.022610318, -0.05085821, -31963.918, 19141.178, 0.000026475647, 10.000669, 9.998688 
1.1500104e+2, 3.0478296e+2, -39650.914, -233943.03, -11722.965, 0.07379802, -0.10570203, -38946.145, -38946.145, 0.000100772006, 10.000644, 9.998045 
1.1499904e+2, 3.1478247e+2, 45145.04, -21216.248, 25208.229, -0.040487066, -0.0071458886, 53634.65, 53634.65, 0.00028477798, 10.000369, 9.999654 
1.2501371e+2, 1.24796376e+2, -1556926.9, -1636206.3, -17859.432, -0.034607526, 0.14073503, -1553089.4, 163917.19, 0.0014562852, 10.000959, 10.000053 
1.250127e+2, 1.347964e+2, -1488893.5, -1499166.6, -37096.94, -0.049211025, 0.06285204, -1456579.3, 162422.39, 0.0008261713, 10.00059, 10.000508 
1.2501103e+2, 1.4479657e+2, -1469526.4, -1579845.9, -33288.344, -0.11187587, 0.09034004, -1460260.1, 60739.105, 0.00033346904, 10.000656, 9.999228 
1.2501153e+2, 1.5479623e+2, -1257727.5, -1465884.5, -65066.45, 0.04517743, 0.115505755, -1239062.5, 183943.16, 0.00007407354, 10.00161, 9.998878 
1.2501092e+2, 1.6479598e+2, -1122577.4, -1318262.0, -25649.064, 0.0813519, 0.19355714, -1119271.3, 205738.64, 0.000004716059, 10.001716, 9.999178 
1.250092e+2, 1.7479518e+2, -1168930.5, -1295349.1, -18696.898, -0.012881558, 0.15798335, -1166223.4, 60794.37, 0.000000012759114, 10.000745, 9.999133 
1.2500833e+2, 1.8479453e+2, -1102585.3, -1143722.5, 17835.906, -0.042254347, 0.15976357, -1095929.1, 33094.406, 0.0, 10.000247, 9.999727 
1.2500843e+2, 1.9479406e+2, -1013766.3, -1056734.6, -23057.883, 0.000005497906, 0.102290444, -1003734.9, 27292.367, 0.0, 10.000211, 9.99967 
1.25008e+2, 2.0479353e+2, -933517.25, -983888.1, -46750.117, 0.04223386, 0.096825354, -905600.2, 27431.164, 0.0, 10.000172, 9.999511 
1.2500696e+2, 2.1479268e+2, -859721.94, -906448.1, -42367.098, 0.08127799, 0.025685292, -834703.1, 335.4612, 0.0, 10.000034, 9.99944 
1.2500548e+2, 2.247921e+2, -746229.75, -853889.7, -1009.7231, 0.05292393, 0.05339587, -746220.25, -9176.286, 0.0, 10.000375, 9.998958 
1.2500365e+2, 2.3479168e+2, -532144.3, -707447.94, -36173.785, -0.041049372, 0.08066875, -524973.25, 114075.38, 0.0, 10.001209, 9.998887 
1.2500234e+2, 2.4479067e+2, -443614.53, -629728.56, -33083.793, -0.07330955, 0.10332138, -437908.47, 103149.5, 0.0, 10.001213, 9.998752 
1.2500176e+2, 2.5478873e+2, -477604.78, -606597.7, -38899.645, -0.020756435, -0.00031873528, -466782.06, -23706.744, 0.0, 10.000339, 9.998666 
1.2500171e+2, 2.64788e+2, -387757.7, -407125.03, 20694.021, 0.031803034, 0.01893262, -374593.7, -29512.246, 0.0, 9.999847, 9.999592 
1.2500241e+2, 2.7478826e+2, -307420.56, -327425.75, -7146.2305, 0.094318695, 0.053885292, -305130.03, -58052.168, 0.00000012209664, 9.999764, 9.999508 
1.2500234e+2, 2.8478768e+2, -232751.45, -292243.34, -1726.1913, 0.08869835, 0.07584086, -232701.4, -83619.15, 0.000003888246, 9.99983, 9.9990425 
1.2500161e+2, 2.9478613e+2, -107719.07, -191645.34, -715.1728, 0.041341864, -0.027419342, -107712.98, -56617.15, 0.00002250982, 10.000045, 9.99896 
1.2500158e+2, 3.0478403e+2, -19120.043, -180361.6, 34087.676, 0.08419052, -0.10307546, -12209.801, -12209.801, 0.000088219014, 10.0005455, 9.998493 
1.2500018e+2, 3.147846e+2, 115949.02, -47938.234, 33817.945, 0.018770749, 0.058914136, 122653.08, 122653.08, 0.00025421134, 10.001109, 9.9991255 
1.3501398e+2, 1.24794945e+2, -1577183.3, -1668062.5, -89863.09, -0.18647124, -0.056031156, -1521924.6, 195090.88, 0.0014504807, 10.000912, 9.999859 
1.3501364e+2, 1.347964e+2, -1506435.6, -1542103.4, -40051.684, -0.055131648, 0.039741687, -1480426.8, 138572.0, 0.0008289551, 10.000626, 10.000191 
1.3501185e+2, 1.4479585e+2, -1487141.9, -1622102.3, -19876.12, -0.14314954, 0.027363267, -1484275.5, 36729.047, 0.0003411424, 10.000667, 9.998938 
1.3501264e+2, 1.5479422e+2, -1282903.6, -1508752.9, -13544.043, -0.04612519, -0.051694736, -1282094.3, 140930.22, 0.00008049032, 10.001562, 9.9986105 
1.3501209e+2, 1.647936e+2, -1097060.3, -1231072.3, -78560.016, -0.008284124, -0.027877077, -1060811.8, 264218.84, 0.0000062176173, 10.001579, 9.999837 
1.3501018e+2, 1.747936e+2, -1132648.9, -1203715.3, -37638.016, -0.027402248, -0.0504518, -1116420.9, 110605.805, 0.000000017143847, 10.000689, 9.999782 
1.35009e+2, 1.847933e+2, -1153139.6, -1235186.1, 967.2296, -0.038359065, -0.019170657, -1153128.3, -24098.969, 0.0, 10.000174, 9.999138 
1.3500865e+2, 1.9479255e+2, -1067669.4, -1151071.5, -6162.1294, -0.03976461, -0.0446665, -1067216.6, -36176.023, 0.0, 10.000128, 9.999063 
1.350078e+2, 2.0479313e+2, -910721.94, -909854.5, -68505.02, -0.029297085, 0.063004114, -841781.8, 91254.77, 0.0, 10.000049, 10.000083 
1.350063e+2, 2.1479483e+2, -840804.2, -829309.1, -29857.01, -0.02437512, 0.18626018, -804651.44, 30367.299, 0.0, 9.999867, 10.0000515 
1.3500555e+2, 2.2479439e+2, -800032.0, -935674.25, 14073.977, -0.012063234, 0.21995598, -798587.06, -61564.4, 0.0, 10.000236, 9.9984665 
1.3500556e+2, 2.3479137e+2, -588562.56, -791033.75, 11360.387, -0.006633366, 0.03468476, -587927.2, 51125.26, 0.0, 10.001056, 9.998387 
1.3500427e+2, 2.4478976e+2, -438928.1, -595965.5, -79908.625, -0.035893045, 0.008624201, -405417.44, 135649.58, 0.0, 10.001106, 9.999033 
1.350016e+2, 2.5478947e+2, -479429.53, -574968.56, -54211.203, -0.10545253, 0.03792643, -454944.1, -11876.819, 0.0, 10.000184, 9.998955 
1.3500094e+2, 2.6478857e+2, -431089.5, -473914.84, 701.0136, -0.06325073, 0.049993206, -431078.03, -86003.805, 0.0, 9.999752, 9.999175 
1.350025e+2, 2.7478668e+2, -357799.38, -395750.75, 5413.857, 0.08828021, -0.09272879, -357042.2, -109950.6, 0.000000046518082, 9.999614, 9.999106 
1.3500282e+2, 2.8478658e+2, -199648.63, -214263.61, -8454.875, 0.1155904, -0.0313289, -195780.95, -46688.77, 0.0000029362805, 9.999784, 9.9996 
1.3500185e+2, 2.9478836e+2, -76455.43, -103121.92, 26081.982, 0.01587667, 0.13954839, -60496.266, -9421.32, 0.000019015239, 9.99993, 9.999627 
1.3500184e+2, 3.04787e+2, 9165.836, -96490.734, 44604.05, 0.026203727, 0.071735285, 25477.62, 25477.62, 0.000075927965, 10.000454, 9.999105 
1.3500024e+2, 3.1478766e+2, 63953.617, -120248.05, 130327.46, -0.16432925, 0.19806364, 131439.16, 131439.16, 0.0002226974, 10.00096, 9.998701 
1.4501525e+2, 1.2479561e+2, -1631659.3, -1750798.5, -9219.782, -0.12244133, -0.09340946, -1630950.0, 86057.734, 0.0014659849, 10.000796, 9.999344 
1.4501517e+2, 1.347975e+2, -1388644.4, -1525838.8, -22860.572, -0.003013222, 0.08266077, -1384935.4, 234054.0, 0.0008466132, 10.00162, 9.999814 
1.4501336e+2, 1.447965e+2, -1346836.1, -1555512.0, 41622.094, -0.09729649, 0.045006745, -1338840.6, 182159.78, 0.00035647568, 10.00163, 9.998934 
1.4501393e+2, 1.5479483e+2, -1381751.6, -1553509.0, 36525.55, -0.024171459, -0.03911754, -1374306.9, 48712.598, 0.00008921642, 10.000864, 9.998643 
1.4501323e+2, 1.647942e+2, -1210329.3, -1267646.5, -6258.303, 0.0040541305, -0.026365906, -1209653.9, 115370.97, 0.000008328298, 10.000733, 9.999986 
1.4501132e+2, 1.7479432e+2, -1032576.2, -1137691.6, -39929.6, -0.0035549665, -0.05439151, -1019128.7, 207890.39, 0.0000000715251, 10.001301, 9.999936 
1.4500995e+2, 1.8479408e+2, -989425.06, -1157310.4, 20477.342, -0.00907949, -0.022265816, -986963.5, 142056.94, 0.0, 10.001306, 9.999135 
1.450091e+2, 1.9479331e+2, -997007.3, -1121331.6, 24810.064, -0.022522299, -0.045197304, -992239.1, 38792.49, 0.0, 10.000624, 9.9990425 
1.4500815e+2, 2.047937e+2, -857283.1, -918261.44, 4720.603, -0.01576675, 0.05947304, -856919.9, 76109.95, 0.0, 10.000559, 9.999779 
1.4500703e+2, 2.147951e+2, -687981.0, -791703.25, -59918.508, 0.012979781, 0.18312536, -660596.94, 174419.27, 0.0, 10.001073, 9.999728 
1.4500655e+2, 2.2479454e+2, -675389.94, -854672.44, 910.3879, 0.03418012, 0.2126362, -675385.3, 61636.156, 0.0, 10.001019, 9.998644 
1.4500678e+2, 2.3479153e+2, -673781.5, -817291.25, 13205.782, 0.051284958, 0.014844037, -672576.44, -33526.33, 0.0, 10.000406, 9.99853 
1.4500554e+2, 2.4479012e+2, -542245.44, -641821.3, -39602.434, 0.026204813, -0.00034781863, -528415.8, 12646.684, 0.0, 10.000365, 9.999086 
1.4500274e+2, 2.5479025e+2, -360994.9, -511932.47, -63984.28, -0.039371528, 0.065971546, -337521.66, 105537.52, 0.0, 10.000964, 9.999019 
1.4500172e+2, 2.647891e+2, -267081.56, -421402.38, 13375.264, -0.013519547, 0.060464654, -265930.88, 79137.61, 0.0, 10.000987, 9.998944 
1.4500263e+2, 2.747863e+2, -256434.22, -379091.34, -2063.2178, 0.11266196, -0.14853673, -256399.52, -9305.309, 0.00000002138944, 10.000426, 9.998845 
1.4500266e+2, 2.8478608e+2, -159034.63, -225099.33, 10468.048, 0.11247357, -0.07339607, -157415.63, -8318.81, 0.0000023054517, 10.000189, 9.999333 
1.4500177e+2, 2.9478866e+2, -23569.902, -95392.45, -58349.62, 0.004531076, 0.20575155, 9033.769, 60107.617, 0.000016570593, 10.000377, 9.999455 
1.450018e+2, 3.0478668e+2, 14028.265, -15304.07, -46377.52, 0.0063009225, 0.044390686, 48003.34, 48003.34, 0.0000664134, 10.000173, 9.999782 
1.4500114e+2, 3.1478792e+2, -148263.73, -154906.05, 20208.082, -0.06485182, 0.17353404, -131105.72, -131105.72, 0.0001967113, 9.999232, 9.999283 
1.5501676e+2, 1.2479885e+2, -1683085.3, -1883367.8, -47186.598, -0.14026166, 0.07242979, -1672524.9, 44453.43, 0.0014879738, 10.000884, 9.998408 
1.5501672e+2, 1.3479978e+2, -1425649.4, -1603731.1, 15904.861, -0.050071012, 0.20695233, -1424240.0, 194732.72, 0.0008684092, 10.001618, 9.99929 
1.5501495e+2, 1.4479853e+2, -1328735.9, -1499218.9, -6998.2603, -0.14620967, 0.15176396, -1328449.0, 192537.45, 0.00037251608, 10.001557, 9.999351 
1.5501486e+2, 1.5479822e+2, -1358949.6, -1490972.6, 24153.83, -0.060822178, 0.16034439, -1354669.4, 68319.98, 0.00009664872, 10.000812, 9.999089 
1.5501393e+2, 1.6479798e+2, -1247399.3, -1330669.6, -1569.7247, -0.038510777, 0.20820092, -1247369.8, 77620.92, 0.000009881803, 10.000666, 9.999593 
1.5501219e+2, 1.7479745e+2, -1072767.0, -1202662.9, 258.42563, -0.08257565, 0.15714842, -1072766.5, 154227.45, 0.00000020107916, 10.001219, 9.999534 
1.5501067e+2, 1.8479694e+2, -968812.8, -1089523.8, -20652.416, -0.10114738, 0.15840036, -965377.2, 163619.4, 0.0, 10.001197, 9.999654 
1.5500925e+2, 1.9479631e+2, -975776.7, -1050599.5, 16156.401, -0.10230169, 0.09367331, -972437.1, 58563.56, 0.0, 10.000518, 9.999576 
1.550086e+2, 2.0479526e+2, -960905.9, -1102754.9, 8651.87, -0.05888913, 0.0874632, -960380.1, -27369.055, 0.0, 10.0004225, 9.998583 
1.550086e+2, 2.147936e+2, -798562.06, -979766.1, -25051.166, 0.028480066, 0.02765667, -795162.56, 39867.508, 0.0, 10.000898, 9.99852 
1.5500803e+2, 2.2479263e+2, -644863.44, -763647.3, -37942.92, 0.04796034, 0.045534972, -633777.94, 103261.76, 0.0, 10.000891, 9.999335 
1.5500689e+2, 2.3479214e+2, -644829.94, -722368.25, 6872.8257, -0.0129611725, 0.025311872, -644225.44, -5183.359, 0.0, 10.000249, 9.99926 
1.550057e+2, 2.4479172e+2, -567954.94, -669736.4, -34101.0, -0.027836261, 0.076663084, -557586.0, -16541.115, 0.0, 10.000254, 9.998948 
1.5500459e+2, 2.54791e+2, -396362.38, -550816.44, -23147.24, 0.015532787, 0.07663422, -392968.0, 50083.492, 0.0, 10.000807, 9.998833 
1.550035e+2, 2.6478955e+2, -285187.66, -436956.6, -21052.924, 0.03220226, 0.05286342, -282321.4, 62742.75, 0.0, 10.000895, 9.9988785 
1.550024e+2, 2.74787e+2, -286930.72, -409081.25, -3016.3428, 0.01124855, -0.12186557, -286856.28, -39770.203, 0.000000019825112, 10.00028, 9.99871 
1.5500142e+2, 2.8478608e+2, -248610.38, -396758.34, 3673.7695, -0.06656795, -0.054800197, -248519.33, -99422.78, 0.0000019865888, 10.000124, 9.998186 
1.5500082e+2, 2.947868e+2, -116356.34, -262026.58, -30429.123, -0.17564867, 0.15252152, -110255.51, -59160.83, 0.000014949104, 10.000256, 9.998375 
1.5500097e+2, 3.0478293e+2, 52682.766, 91370.64, -92536.74, -0.12543274, -0.18164897, 166563.66, 166563.66, 0.000059797247, 10.000085, 10.00054 
1.5500183e+2, 3.1478533e+2, -67032.945, 62228.84, 60669.605, 0.007691337, -0.015106682, 86243.05, 86243.05, 0.00017773658, 9.999047, 10.000849 
1.6501838e+2, 1.2480066e+2, -1683182.0, -1923903.4, -36690.793, -0.060387593, 0.15359515, -1677713.8, 39247.777, 0.0014964563, 10.001073, 9.998024 
1.650188e+2, 1.3480058e+2, -1413550.5, -1610213.1, 17846.791, 0.003981749, 0.19175212, -1411944.0, 207022.06, 0.0008776996, 10.001736, 9.999195 
1.6501711e+2, 1.4479928e+2, -1290118.9, -1469751.5, -5533.0205, -0.08599032, 0.13124284, -1289948.5, 231031.58, 0.00037921302, 10.001802, 9.999424 
1.6501643e+2, 1.547996e+2, -1231838.9, -1423743.1, -41963.773, -0.014940292, 0.19692072, -1223063.9, 199911.75, 0.00009882513, 10.001665, 9.99914 
1.6501512e+2, 1.647993e+2, -1182373.9, -1338907.4, -32134.162, -0.0037558358, 0.255654, -1176033.9, 148943.66, 0.000009884257, 10.0012665, 9.999247 
1.6501316e+2, 1.7479815e+2, -1204072.3, -1305382.1, -60864.383, -0.06059223, 0.17609039, -1175541.4, 51446.93, 0.0000002904704, 10.000472, 9.999188 
1.6501158e+2, 1.8479744e+2, -1117222.0, -1150813.5, -63349.086, -0.06715048, 0.1679738, -1068480.0, 60513.082, 0.0, 10.000149, 9.99972 
1.6501044e+2, 1.9479695e+2, -992274.75, -1048406.25, -90165.66, -0.019696588, 0.107958205, -925907.8, 105086.125, 0.0, 10.000362, 9.99965 
1.6500965e+2, 2.0479563e+2, -966210.06, -1119696.9, -26218.902, 0.008518835, 0.07646151, -961854.9, -28848.664, 0.0, 10.000473, 9.998434 
1.6500916e+2, 2.1479324e+2, -867857.56, -1030970.3, -11651.198, 0.02366613, -0.038272757, -867029.5, -31997.436, 0.0, 10.000507, 9.998356 
1.6500853e+2, 2.2479229e+2, -670754.4, -751947.6, 10849.0205, 0.03162879, -0.021305852, -669329.75, 67711.695, 0.0, 10.000606, 9.999553 
1.6500764e+2, 2.3479274e+2, -558566.3, -650134.0, -16161.054, 0.025248308, 0.030403782, -555797.7, 83236.36, 0.0, 10.000718, 9.999526 
1.6500671e+2, 2.4479248e+2, -516041.66, -665698.8, -26873.328, 0.03632201, 0.0959818, -511362.4, 29673.436, 0.0, 10.000716, 9.998745 
1.6500586e+2, 2.5479117e+2, -432620.8, -582787.2, -54413.418, 0.08046755, 0.056549083, -414976.94, 28072.91, 0.0, 10.000645, 9.998673 
1.650045e+2, 2.6478976e+2, -335249.72, -476338.75, -42466.996, 0.06676843, 0.04773373, -323453.66, 21609.863, 0.0, 10.000594, 9.998761 
1.6500266e+2, 2.7478787e+2, -247376.23, -392505.0, -61583.832, 0.006326379, -0.057430577, -224766.27, 22313.596, 0.000000024295247, 10.000569, 9.998672 
1.6500157e+2, 2.8478688e+2, -215947.47, -399634.06, 35279.594, -0.06709561, 0.017029086, -209404.6, -60314.203, 0.0000019697127, 10.000422, 9.99803 
1.6500165e+2, 2.9478684e+2, -118271.22, -275349.94, 46117.332, -0.108270876, 0.16410181, -105732.375, -54637.39, 0.000013995548, 10.000277, 9.998287 
1.6500083e+2, 3.0478218e+2, 14110.253, 52428.926, -7383.2314, -0.12179077, -0.23740028, 53802.3, 53802.3, 0.000055183133, 9.999872, 10.000394 
1.650019e+2, 3.147847e+2, -70012.0, 71444.34, 32052.305, 0.13503107, -0.04639939, 78368.12, 78368.12, 0.00016346599, 9.99894, 10.000978 
1.7501894e+2, 1.2480104e+2, -1677987.0, -1908563.9, -72061.664, -0.19468874, 0.14500533, -1657318.4, 59639.01, 0.0014785845, 10.001044, 9.998138 
1.7502075e+2, 1.348001e+2, -1394778.9, -1554153.3, 51519.12, -0.011679148, 0.048992164, -1379575.3, 239392.36, 0.00086354057, 10.001679, 9.999592 
1.7501943e+2, 1.447989e+2, -1325149.5, -1532748.4, -29263.678, -0.08013686, 0.000568089, -1321103.3, 199876.31, 0.00037008742, 10.001744, 9.99903 
1.7501818e+2, 1.5479891e+2, -1260479.0, -1475022.3, -28573.713, -0.048139922, 0.069062054, -1256738.8, 166240.28, 0.000094032526, 10.001629, 9.998806 
1.7501636e+2, 1.6479823e+2, -1207844.8, -1381660.3, -78247.81, -0.045494597, 0.120263256, -1177809.5, 147175.56, 0.000008393363, 10.001212, 9.998986 
1.7501372e+2, 1.7479654e+2, -1232159.3, -1347312.0, -74645.914, -0.090769276, 0.015229211, -1195464.5, 31536.588, 0.00000020811186, 10.000404, 9.998933 
1.750122e+2, 1.8479568e+2, -1152947.6, -1206592.8, -70169.695, -0.05474544, 0.020473776, -1104648.8, 24359.893, 0.0, 10.000062, 9.999382 
1.7501204e+2, 1.9479543e+2, -1033306.7, -1102763.1, -66253.27, 0.06787848, 0.015772305, -993231.56, 37778.316, 0.0, 10.000234, 9.999337 
1.7501074e+2, 2.0479493e+2, -927564.7, -1009367.25, -43482.523, 0.041054875, 0.04263187, -908769.75, 24244.158, 0.0, 10.000335, 9.999262 
1.7500822e+2, 2.1479392e+2, -832865.44, -920540.25, 6140.2324, -0.15254916, -0.020959273, -832437.5, 2585.874, 0.0, 10.000346, 9.999189 
1.7500748e+2, 2.2479342e+2, -706534.3, -792002.94, -180.83807, -0.16463974, 0.009931618, -706533.9, 30493.123, 0.0, 10.000456, 9.999349 
1.7500855e+2, 2.3479328e+2, -597197.56, -696190.0, 3565.0095, 0.01179303, 0.022895208, -597069.3, 41957.258, 0.0, 10.000566, 9.999284 
1.7500812e+2, 2.4479245e+2, -552485.4, -719075.0, -44530.74, 0.07400516, 0.0600354, -541329.06, -294.0567, 0.0, 10.00062, 9.998422 
1.7500606e+2, 2.5479072e+2, -481060.88, -644810.0, -41904.184, 0.0012675293, 0.00871953, -470960.4, -27905.65, 0.0, 10.000481, 9.998326 
1.7500441e+2, 2.6478958e+2, -345567.22, -488705.2, -61156.56, -0.03810897, 0.04870234, -322996.72, 22070.85, 0.0, 10.000547, 9.9987 
1.7500298e+2, 2.747887e+2, -265512.53, -406417.3, -48119.66, -0.055684403, 0.049533643, -250647.64, -3571.3323, 0.000000035492793, 10.000461, 9.9986315 
1.7500257e+2, 2.847885e+2, -157340.97, -267120.7, 12829.024, -0.04579913, 0.15652648, -155861.69, -6783.4365, 0.0000021240596, 10.000383, 9.998951 
1.7500347e+2, 2.947889e+2, -74241.555, -149035.0, 59807.598, 0.003963559, 0.25374776, -41101.313, 9972.429, 0.000013429294, 10.000145, 9.999207 
1.7500094e+2, 3.0478448e+2, -54615.074, -91178.51, -50119.598, -0.131066, -0.12441499, -19547.045, -19547.045, 0.000050919698, 9.999865, 9.999417 
1.7500035e+2, 3.1478637e+2, -174058.77, -110968.445, 57520.793, 0.008621239, 0.11292564, -76910.72, -76910.72, 0.00014908816, 9.9988165, 9.999776 
1.850213e+2, 1.2480133e+2, -1599000.4, -1865936.4, -12286.181, -0.07553277, 0.09226553, -1598436.0, 118516.62, 0.0014297328, 10.001568, 9.998175 
1.8502271e+2, 1.3480042e+2, -1384875.3, -1544765.9, 32286.82, 0.026391571, -0.0057098903, -1378601.6, 240361.16, 0.00082590414, 10.001728, 9.999627 
1.850213e+2, 1.4479977e+2, -1363841.1, -1571195.8, -30085.639, -0.04624638, 0.009475284, -1359564.1, 161405.28, 0.00034715154, 10.001554, 9.998852 
1.8501994e+2, 1.547991e+2, -1326919.5, -1524931.8, -47312.07, -0.0050755246, 0.02428143, -1316195.8, 106779.9, 0.0000844504, 10.001234, 9.998655 
1.8501787e+2, 1.6479813e+2, -1229069.3, -1400405.0, -53593.39, -0.0036554725, 0.057208814, -1213686.5, 111298.25, 0.000006352812, 10.001149, 9.998866 
1.8501493e+2, 1.7479645e+2, -1089416.3, -1291788.4, -71456.68, -0.05330442, -0.035431713, -1066728.8, 160271.75, 0.000000056960435, 10.001465, 9.998791 
1.8501325e+2, 1.8479554e+2, -980281.25, -1156565.1, -28723.451, -0.016495693, -0.0123619735, -975719.2, 153290.25, 0.0, 10.001404, 9.999081 
1.8501288e+2, 1.9479534e+2, -970264.9, -1106268.3, -56305.23, 0.10823859, 0.021101931, -949980.06, 81032.31, 0.0, 10.000822, 9.999036 
1.8501148e+2, 2.047951e+2, -871113.3, -932643.44, -9813.257, 0.08216268, 0.06704449, -869586.1, 63427.926, 0.0, 10.000495, 9.999712 
1.8500884e+2, 2.1479459e+2, -789158.7, -848987.75, -20952.674, -0.11976459, 0.0048995274, -782550.7, 52466.0, 0.0, 10.00041, 9.999657 
1.8500808e+2, 2.2479418e+2, -707508.7, -800033.06, 2121.844, -0.1436907, 0.02256209, -707460.06, 29558.572, 0.0, 10.000481, 9.999288 
1.8500926e+2, 2.3479368e+2, -581415.4, -699188.25, -11620.12, 0.028431019, 0.0085956305, -580279.8, 58742.15, 0.0, 10.000713, 9.999197 
1.8500893e+2, 2.4479266e+2, -548135.1, -726534.25, -27997.932, 0.09680272, 0.035981707, -543844.3, -2811.724, 0.0, 10.000682, 9.998345 
1.8500696e+2, 2.5479087e+2, -506820.34, -666234.3, -36463.715, 0.059483416, -0.014088168, -498875.7, -55822.61, 0.0, 10.000324, 9.998261 
1.8500507e+2, 2.6478976e+2, -402987.53, -500083.56, -745.92065, 0.0028267747, 0.028111113, -402981.78, -57916.273, 0.0, 10.000114, 9.998819 
1.8500312e+2, 2.7478907e+2, -288441.03, -403972.03, -8838.419, -0.06740287, 0.038769856, -287768.78, -40696.48, 0.000000044067633, 10.0002575, 9.998747 
1.8500292e+2, 2.847888e+2, -185853.22, -277036.0, 40743.598, -0.029317865, 0.13041976, -170300.39, -21225.547, 0.000002141611, 10.000154, 9.999001 
1.8500462e+2, 2.9478902e+2, -141954.02, -180932.28, -18229.121, 0.13942721, 0.2039247, -134757.44, -83684.945, 0.000012353572, 9.999663, 9.999227 
1.8500093e+2, 3.0478585e+2, -80845.47, -139977.38, -89957.23, -0.10302041, -0.032947227, -15720.094, -15720.094, 0.00004451732, 9.999828, 9.999101 
1.8499984e+2, 3.1478703e+2, 28643.22, -125462.26, 3152.4727, 0.000051381114, 0.16639066, 28707.684, 28707.684, 0.00012893318, 10.000625, 9.99884 
1.9502458e+2, 1.2480167e+2, -1621762.1, -1885796.3, -73305.34, 0.012959721, 0.016680252, -1602775.4, 114170.48, 0.0013506947, 10.001468, 9.998083 
1.9502427e+2, 1.3480149e+2, -1420740.1, -1599849.9, 47459.84, -0.027460469, 0.02973001, -1408941.6, 210010.2, 0.00077082973, 10.001668, 9.999273 
1.9502218e+2, 1.4480191e+2, -1367741.5, -1559639.0, -61518.152, -0.15993853, 0.16294223, -1349713.8, 171235.78, 0.0003170448, 10.001466, 9.998974 
1.950212e+2, 1.5480042e+2, -1325696.0, -1508143.5, -45728.4, -0.04187267, 0.08087198, -1314876.4, 108087.13, 0.000073711046, 10.001179, 9.998794 
1.950192e+2, 1.6479923e+2, -1238431.8, -1409255.5, -56438.813, -0.021653313, 0.086435445, -1221469.3, 103505.12, 0.0000047225935, 10.001088, 9.998845 
1.9501637e+2, 1.7479792e+2, -1100075.8, -1297216.5, -40727.555, -0.09425615, 0.032194957, -1091993.1, 134992.78, 0.0000000036456946, 10.001389, 9.9987955 
1.950142e+2, 1.8479708e+2, -1016654.0, -1207865.5, -65965.555, -0.09496428, 0.07643232, -996105.0, 132890.0, 0.0, 10.001293, 9.998788 
1.9501254e+2, 1.9479664e+2, -1009379.6, -1160806.0, -61874.906, -0.039859705, 0.1166614, -987312.5, 43689.863, 0.0, 10.000703, 9.998724 
1.9501132e+2, 2.0479617e+2, -891489.9, -931958.3, -26193.926, -0.014552557, 0.15192682, -878625.06, 54381.62, 0.0, 10.000318, 9.999798 
1.9501056e+2, 2.1479532e+2, -806690.06, -845606.75, -8720.8, -0.022202883, 0.0485342, -804825.2, 30186.143, 0.0, 10.00024, 9.99976 
1.9500987e+2, 2.2479464e+2, -729996.94, -804198.75, -6663.2607, -0.038686145, 0.033152014, -729403.3, 7611.7515, 0.0, 10.000307, 9.999339 
1.9500928e+2, 2.34794e+2, -604546.06, -700700.0, 11902.328, -0.072370514, -0.0014964816, -603094.6, 35925.086, 0.0, 10.000524, 9.999273 
1.9500868e+2, 2.447931e+2, -553195.6, -705404.94, -55419.133, -0.025370942, 0.023325747, -535155.75, 5872.8013, 0.0, 10.000547, 9.998557 
1.9500802e+2, 2.5479174e+2, -517245.28, -647792.4, -34059.938, 0.099445276, -0.005641108, -508893.34, -65849.56, 0.0, 10.0001545, 9.998469 
1.95006e+2, 2.6479053e+2, -394272.1, -470937.16, -11056.634, 0.051247817, 0.0036128096, -392709.34, -47653.984, 0.0, 10.000056, 9.999056 
1.950026e+2, 2.74789e+2, -287486.63, -384371.44, 16574.467, -0.1819064, -0.088423446, -284729.63, -37662.008, 0.000000036761158, 10.000168, 9.998936 
1.9500218e+2, 2.847877e+2, -256904.44, -408930.6, 10514.342, -0.1550898, -0.06306719, -256180.7, -107099.59, 0.0000018181237, 10.000092, 9.998121 
1.9500469e+2, 2.947872e+2, -229890.17, -324973.7, -17117.895, 0.13702291, 0.026290214, -226902.33, -175811.58, 0.000010151812, 9.999509, 9.998306 
1.9500037e+2, 3.047863e+2, -62359.926, -85037.82, -72457.07, -0.17882647, 0.04357289, -359.94446, -359.94446, 0.00003534469, 9.999773, 9.999495 
1.9499944e+2, 3.1478697e+2, -20707.166, -182359.83, 44170.188, -0.17476489, 0.14182028, -9425.399, -9425.399, 0.000103030594, 10.000464, 9.998505 
2.0502713e+2, 1.2480218e+2, -1644459.1, -1827804.9, -108345.61, 0.16178808, 0.029387502, -1594207.0, 122735.41, 0.0012481128, 10.001029, 9.998699 
2.0502557e+2, 1.3480207e+2, -1527376.9, -1642249.5, 5377.253, -0.0061819223, 0.04255034, -1527125.6, 91820.5, 0.0007037624, 10.000883, 9.99938 
2.0502353e+2, 1.4480278e+2, -1408434.4, -1554741.4, -28011.49, -0.14121991, 0.19048132, -1403254.8, 117685.66, 0.00028324383, 10.001089, 9.999194 
2.0502293e+2, 1.548011e+2, -1191064.9, -1419516.3, -49563.56, -0.01675028, 0.07011184, -1180775.3, 242181.13, 0.000063005726, 10.002007, 9.999007 
2.0502101e+2, 1.648001e+2, -1070389.5, -1308005.8, -39328.95, 0.006656068, 0.073653355, -1064049.1, 260916.16, 0.0000035155435, 10.00215, 9.999035 
2.0501788e+2, 1.7479934e+2, -1101264.6, -1282700.0, -44141.105, -0.067199156, 0.060639657, -1091095.5, 135875.81, 0.0000000004928599, 10.001304, 9.998947 
2.0501545e+2, 1.8479858e+2, -1069423.6, -1223833.8, -14618.373, -0.06743873, 0.10275962, -1068051.9, 60926.953, 0.0, 10.000883, 9.998868 
2.0501363e+2, 1.9479778e+2, -967004.8, -1133545.5, -14677.845, -0.0040544746, 0.098132946, -965721.1, 65267.465, 0.0, 10.000951, 9.998786 
2.0501223e+2, 2.0479703e+2, -829147.9, -954735.44, 56087.477, 0.021836927, 0.1232016, -807746.25, 125249.99, 0.0, 10.00097, 9.9993305 
2.0501146e+2, 2.1479602e+2, -752561.44, -872192.2, 3246.3413, 0.023661654, 0.052701958, -752473.44, 82531.125, 0.0, 10.000846, 9.999287 
2.050107e+2, 2.2479528e+2, -676215.7, -772847.6, 17111.479, 0.0033637953, 0.05114621, -673275.06, 63735.19, 0.0, 10.000647, 9.999386 
2.0500995e+2, 2.3479459e+2, -628144.4, -708452.25, 4334.174, -0.038661957, 0.004726331, -627911.1, 11104.463, 0.0, 10.000334, 9.999311 
2.0500931e+2, 2.447939e+2, -556763.3, -657781.75, -27398.7, 0.0043121953, 0.026747787, -549810.6, -8788.917, 0.0, 10.000319, 9.998986 
2.0500876e+2, 2.5479305e+2, -412058.7, -547068.94, -21273.545, 0.1411819, 0.006866588, -408785.97, 34244.555, 0.0, 10.000678, 9.998901 
2.050068e+2, 2.6479203e+2, -293629.6, -457081.34, 24820.19, 0.09260043, 0.02698037, -289943.75, 55096.66, 0.0, 10.00089, 9.998752 
2.0500346e+2, 2.7479026e+2, -201571.36, -375676.16, -22621.295, -0.1388356, -0.05954337, -198680.2, 48376.434, 0.00000002096579, 10.000901, 9.998637 
2.0500275e+2, 2.8478846e+2, -176686.78, -398412.16, -3858.5427, -0.12942111, -0.05686244, -176619.66, -27543.648, 0.0000012828043, 10.00077, 9.99787 
2.0500451e+2, 2.947873e+2, -88503.47, -285960.06, -11642.1875, 0.12744327, -0.0084479945, -87819.41, -36727.43, 0.000007381431, 10.000598, 9.998056 
2.0499997e+2, 3.0478722e+2, 66886.734, 31072.383, 16451.107, -0.21411495, 0.08465971, 73296.34, 73296.34, 0.00002618385, 10.000427, 9.99999 
2.0500048e+2, 3.147881e+2, -80948.85, -175131.58, 27060.725, -0.07425065, 0.15479973, -73727.42, -73727.42, 0.000078949044, 9.999923, 9.998812 
2.1502776e+2, 1.2480283e+2, -1564286.3, -1645682.1, -188122.2, 0.04495725, 0.13412498, -1412510.0, 304432.5, 0.0011286415, 10.000951, 9.999993 
2.1502624e+2, 1.3480225e+2, -1476944.0, -1548559.9, 14225.886, -0.065696985, 0.03290121, -1474221.6, 144723.8, 0.00062779407, 10.00092, 10.000008 
2.1502484e+2, 1.4480257e+2, -1404922.0, -1534483.9, -13860.828, -0.16343884, 0.10449711, -1403455.6, 117484.805, 0.00024660726, 10.001029, 9.99936 
2.150247e+2, 1.5480125e+2, -1178368.0, -1393063.3, 2676.5137, -0.08234084, -0.0011453766, -1178334.6, 244618.52, 0.000052325075, 10.001998, 9.999191 
2.1502276e+2, 1.6480069e+2, -1062538.8, -1269743.8, -85520.45, -0.06664316, 0.02427285, -1031801.25, 293156.5, 0.000002586899, 10.002056, 9.999339 
2.1501899e+2, 1.748006e+2, -1092126.4, -1239547.8, -58406.324, -0.12186159, 0.04074063, -1071791.5, 155165.98, 0.000000000052014764, 10.001207, 9.999282 
2.1501654e+2, 1.8480004e+2, -1058079.4, -1172673.9, -26810.25, -0.08168354, 0.063649654, -1052117.1, 76844.125, 0.0, 10.000756, 9.999283 
2.1501565e+2, 1.9479875e+2, -946104.94, -1072911.8, 5522.6807, 0.06434482, -0.03638572, -945864.9, 85106.94, 0.0, 10.000868, 9.999243 
2.1501383e+2, 2.0479767e+2, -915849.06, -1105309.3, 35878.355, 0.051360063, -0.01860245, -909282.3, 23700.8, 0.0, 10.000843, 9.998358 
2.1501106e+2, 2.1479659e+2, -844536.75, -1026941.3, 11897.463, -0.13378412, 0.0023506696, -843764.0, -8766.463, 0.0, 10.000687, 9.998298 
2.1501003e+2, 2.2479592e+2, -703915.94, -782069.8, -9771.173, -0.15622957, 0.057064652, -702712.9, 34292.71, 0.0, 10.000448, 9.9994135 
2.1501084e+2, 2.3479547e+2, -654214.94, -712897.1, 9618.638, -0.015951665, 0.028373322, -652678.56, -13669.6045, 0.0, 10.000126, 9.999374 
2.1501042e+2, 2.4479513e+2, -532245.3, -582107.5, -30236.568, 0.05049887, 0.05513161, -517987.0, 23024.15, 0.0, 10.00021, 9.99956 
2.1500869e+2, 2.5479484e+2, -391790.0, -468704.8, 8700.541, 0.032717556, 0.030384222, -390818.06, 52195.035, 0.0, 10.000524, 9.999514 
2.1500698e+2, 2.6479423e+2, -366035.63, -586034.06, 9009.885, -0.011647031, 0.10183781, -365667.22, -20646.375, 0.0, 10.000797, 9.997907 
2.150052e+2, 2.747927e+2, -286944.88, -516974.97, -6119.8774, -0.0893216, 0.12596199, -286782.2, -39741.586, 0.00000000626477, 10.000746, 9.99774 
2.1500419e+2, 2.8479087e+2, -148822.75, -326615.06, -27722.506, -0.097428285, 0.1463396, -144600.36, 4460.5503, 0.00000075455597, 10.000715, 9.998387 
2.1500379e+2, 2.947893e+2, -72459.72, -228297.06, -932.96674, -0.04750105, 0.10328879, -72454.13, -21378.31, 0.0000049684672, 10.000498, 9.9985 
2.1499944e+2, 3.0478874e+2, 97370.19, 93772.3, -11698.312, -0.3413788, 0.103182934, 107407.06, 107407.06, 0.000019575336, 10.0004225, 10.000429 
2.1500216e+2, 3.147904e+2, -51349.695, -88271.734, 3120.3801, 0.028049247, 0.20646508, -51087.84, -51087.84, 0.00006230811, 9.999812, 9.999469 
2.2502838e+2, 1.2480349e+2, -1560813.3, -1594312.6, -64508.707, 0.03910987, 0.13012698, -1510915.1, 206022.58, 0.0009987325, 10.000736, 10.000448 
2.2502789e+2, 1.3480316e+2, -1413995.3, -1508632.8, 35294.15, -0.00057987083, 0.041239027, -1402282.3, 216654.83, 0.0005469882, 10.001323, 10.000074 
2.2502708e+2, 1.4480342e+2, -1389057.3, -1503038.1, 20351.402, -0.033444528, 0.09057129, -1385532.5, 135399.7, 0.00020906689, 10.001034, 9.999583 
2.2502558e+2, 1.548024e+2, -1455227.0, -1503459.3, 8053.3833, -0.08346469, -0.0035786754, -1453917.9, -30976.416, 0.000042237294, 9.999996, 9.999408 
2.2502342e+2, 1.6480199e+2, -1362938.5, -1399185.1, -47378.805, -0.09035148, 0.018889418, -1330335.0, -5390.6396, 0.0000020119714, 9.999937, 9.999457 
2.2502059e+2, 1.748018e+2, -1127767.0, -1245196.0, -74180.14, -0.058818772, 0.013913574, -1091876.6, 135068.22, 0.0, 10.000922, 9.999367 
2.2501846e+2, 1.8480112e+2, -958635.44, -1136354.6, -42102.75, 0.0065513873, 0.025003348, -949165.6, 179784.17, 0.0, 10.00149, 9.999183 
2.250172e+2, 1.9479978e+2, -870782.0, -1047919.0, -85050.56, 0.11244642, -0.067325026, -836558.1, 194403.08, 0.0, 10.001453, 9.999136 
2.2501506e+2, 2.0479882e+2, -850768.6, -1071930.0, -22287.662, 0.076903656, -0.03283363, -848544.94, 84426.43, 0.0, 10.001269, 9.998398 
2.2501194e+2, 2.1479796e+2, -825629.4, -1017512.3, 4170.3486, -0.11042448, 0.009672286, -825538.75, 9444.607, 0.0, 10.0008, 9.998324 
2.2501068e+2, 2.2479726e+2, -696370.06, -801172.94, 50149.49, -0.13411245, 0.068602994, -676239.56, 60752.414, 0.0, 10.00058, 9.999227 
2.2501145e+2, 2.3479646e+2, -602600.94, -709270.25, 17948.8, 0.022422934, 0.026115462, -599661.75, 39337.66, 0.0, 10.000568, 9.99919 
2.2501093e+2, 2.447961e+2, -514029.8, -579741.1, -19822.826, 0.0817007, 0.06061202, -508513.1, 32489.59, 0.0, 10.000355, 9.999508 
2.2500889e+2, 2.5479594e+2, -477696.4, -521533.9, -62281.48, 0.037302237, 0.056926914, -433589.28, 9414.543, 0.0, 9.999959, 9.9994335 
2.2500736e+2, 2.6479548e+2, -475248.3, -624722.4, -5729.2383, -0.004841276, 0.14011067, -475029.03, -130017.95, 0.0, 9.999992, 9.998024 
2.2500643e+2, 2.7479422e+2, -293209.3, -504837.03, 22940.75, -0.025264502, 0.17614241, -290751.06, -43721.93, 0.00000000006385136, 10.000634, 9.997873 
2.2500548e+2, 2.8479278e+2, -142541.31, -284156.34, 36682.105, -0.023851052, 0.20965578, -133603.73, 15440.915, 0.00000032397858, 10.000584, 9.99874 
2.2500412e+2, 2.947916e+2, -166995.6, -238863.67, 14116.814, -0.012655005, 0.16942549, -164322.13, -113269.375, 0.000003287384, 9.999707, 9.998797 
2.2499971e+2, 3.0478963e+2, -74980.73, -30494.19, 23473.928, -0.29222846, 0.03535116, -20398.809, -20398.809, 0.00001601569, 9.999423, 10.000046 
2.2500223e+2, 3.1479132e+2, -102534.98, -139203.33, -121824.66, 0.08448335, 0.16383272, 2327.3901, 2327.3901, 0.000054019332, 9.999565, 9.99923 
2.3502818e+2, 1.2480419e+2, -1599316.9, -1664039.4, -99706.586, -0.13524358, 0.0074517145, -1526851.4, 190076.72, 0.0008678289, 10.000701, 9.99999 
2.3502997e+2, 1.348047e+2, -1449962.5, -1592341.0, 61504.273, 0.037015077, 0.07247742, -1427073.6, 191848.84, 0.00046623294, 10.001346, 9.9995 
2.350296e+2, 1.448051e+2, -1381441.6, -1452922.0, -36466.14, 0.07801846, 0.14106138, -1366121.6, 154796.0, 0.00017258529, 10.000897, 9.999992 
2.3502511e+2, 1.5480448e+2, -1435662.4, -1451143.1, -11974.222, -0.16830125, 0.053822137, -1429144.5, -6222.6836, 0.000033446406, 9.999951, 9.99979 
2.3502257e+2, 1.6480385e+2, -1390711.0, -1434424.0, -28876.275, -0.2073579, 0.045125704, -1376352.3, -51425.992, 0.0000017722703, 9.999842, 9.999265 
2.3502232e+2, 1.7480275e+2, -1145611.3, -1270657.8, -21197.248, -0.015572949, -0.032002673, -1142115.8, 84819.51, 0.0000000001389195, 10.000865, 9.999226 
2.3502077e+2, 1.8480177e+2, -1028290.9, -1247500.3, -58678.5, 0.055611033, -0.01070963, -1013571.94, 115373.1, 0.0, 10.001353, 9.9984865 
2.3501776e+2, 1.9480075e+2, -935102.75, -1160147.3, -72972.06, -0.009279074, 0.0032466913, -913512.44, 117445.2, 0.0, 10.001359, 9.998413 
2.3501535e+2, 2.0480028e+2, -802994.4, -926572.7, -54867.86, -0.044851616, 0.07111538, -782149.5, 150812.89, 0.0, 10.001079, 9.999483 
2.350136e+2, 2.1480006e+2, -774532.5, -866201.8, 4811.5635, -0.05398259, 0.06259234, -774280.7, 60681.77, 0.0, 10.000607, 9.9994545 
2.3501226e+2, 2.2479926e+2, -754934.56, -879542.06, 37420.42, -0.06372793, 0.07545484, -744560.6, -7591.0854, 0.0, 10.000398, 9.998777 
2.3501141e+2, 2.347976e+2, -658757.25, -791065.4, 34619.45, -0.07492974, -0.002345149, -650246.25, -11259.7, 0.0, 10.000416, 9.998708 
2.3501027e+2, 2.4479668e+2, -577499.75, -686139.2, -49738.617, -0.05408479, 0.035556905, -558167.8, -17170.494, 0.0, 10.000242, 9.998835 
2.3500878e+2, 2.547964e+2, -548401.1, -629323.7, -61246.336, -0.005216492, 0.08307688, -515457.84, -72454.55, 0.0, 9.999789, 9.998775 
2.350075e+2, 2.647959e+2, -413704.78, -474461.8, 1725.2943, -0.022589898, 0.14623016, -413655.84, -68645.54, 0.0, 9.9999, 9.999102 
2.350067e+2, 2.747948e+2, -234571.0, -351323.03, 65820.27, -0.09808856, 0.09189938, -204969.36, 42052.836, 0.0, 10.000497, 9.998999 
2.3500605e+2, 2.8479424e+2, -135066.52, -254570.28, -8978.444, -0.0625433, 0.1440954, -134395.73, 14630.585, 0.00000009734078, 10.000524, 9.998974 
2.3500498e+2, 2.947942e+2, -174173.19, -227711.75, -296.16003, 0.0544987, 0.19937594, -174171.55, -123149.086, 0.0000024854203, 9.999584, 9.998942 
2.350002e+2, 3.0479002e+2, -150617.33, -178658.81, 19232.273, -0.22005017, -0.11298284, -140837.63, -140837.63, 0.000014818684, 9.99939, 9.999044 
2.3499985e+2, 3.147913e+2, -189480.08, -299190.03, -107294.21, -0.1886098, 0.077418596, -123831.47, -123831.47, 0.00005156838, 9.999469, 9.998186 
2.4502963e+2, 1.2480652e+2, -1489906.3, -1658013.3, -22113.1, -0.09418475, 0.0053671673, -1487046.1, 229857.52, 0.00074233726, 10.001691, 9.999542 
2.450312e+2, 1.3480696e+2, -1552287.3, -1687180.9, 88371.83, 0.064072065, 0.103991196, -1508564.5, 110336.46, 0.00038816038, 10.000864, 9.999077 
2.4503131e+2, 1.4480683e+2, -1438232.9, -1490739.1, 14822.1875, 0.18899766, 0.14872961, -1434337.8, 86564.37, 0.00013769997, 10.000541, 9.999899 
2.4502613e+2, 1.5480646e+2, -1292229.5, -1391604.5, -33153.66, -0.10204573, 0.08761271, -1282184.3, 140719.94, 0.000025817635, 10.000993, 9.999682 
2.4502338e+2, 1.6480576e+2, -1194122.1, -1349980.5, -2699.4197, -0.16897005, 0.083284445, -1194075.4, 130833.766, 0.0000016011192, 10.001223, 9.999197 
2.4502371e+2, 1.7480439e+2, -1123490.3, -1266011.5, -17369.252, 0.039198842, -0.013142591, -1121404.0, 105516.836, 0.0000000006420841, 10.001043, 9.999185 
2.4502227e+2, 1.848034e+2, -1077222.0, -1264004.0, -6305.179, 0.096945524, 0.008117424, -1077009.4, 51921.1, 0.0, 10.000995, 9.998539 
2.4501882e+2, 1.9480263e+2, -984940.5, -1178433.1, 8395.092, -0.012177916, 0.040735703, -984576.94, 46363.355, 0.0, 10.001002, 9.998449 
2.4501632e+2, 2.0480214e+2, -792121.75, -917200.7, 39208.848, -0.049448345, 0.10289642, -780847.1, 152097.95, 0.0, 10.001139, 9.999509 
2.4501505e+2, 2.148017e+2, -679327.56, -814825.9, -18557.027, 0.0075917807, 0.06751003, -676832.06, 158115.02, 0.0, 10.00125, 9.999486 
2.4501362e+2, 2.2480074e+2, -670266.3, -831077.75, 11510.069, 0.013451271, 0.06078235, -669446.7, 67508.305, 0.0, 10.0009575, 9.998836 
2.450121e+2, 2.3479903e+2, -684532.5, -793619.2, 23121.984, -0.028110487, -0.02888534, -679834.0, -40862.71, 0.0, 10.000215, 9.99878 
2.4501058e+2, 2.4479806e+2, -595192.25, -724193.9, 29533.24, -0.036963884, 0.013466685, -588752.44, -47770.043, 0.0, 10.000241, 9.998583 
2.4500912e+2, 2.5479773e+2, -378101.2, -574428.5, 19384.969, -0.0044819177, 0.08239917, -376205.47, 66784.586, 0.0, 10.00108, 9.998534 
2.450078e+2, 2.64797e+2, -261857.66, -380169.78, 73299.03, -0.022091715, 0.124640726, -226821.42, 118177.91, 0.0, 10.000834, 9.999309 
2.4500686e+2, 2.7479565e+2, -372560.66, -389744.53, 37834.605, -0.066831484, 0.02014457, -342354.66, -95342.26, 0.0, 9.999429, 9.999249 
2.4500616e+2, 2.8479558e+2, -315513.56, -309414.75, -15386.356, -0.022304818, 0.09411181, -296778.53, -147767.13, 0.00000009803459, 9.999141, 9.99927 
2.4500509e+2, 2.947965e+2, -76935.836, -143766.58, -31970.676, 0.09270118, 0.2157955, -64105.01, -13106.36, 0.0000023443192, 10.000091, 9.999277 
2.4500084e+2, 3.047922e+2, -12776.257, -135558.22, 55492.523, -0.13414021, -0.11282477, 8587.054, 8587.054, 0.000014153015, 10.000442, 9.9988365 
2.4500018e+2, 3.1479308e+2, -151991.83, -282036.38, -97317.625, -0.09838667, 0.06250511, -99973.02, -99973.02, 0.00004937861, 9.999771, 9.998146 
2.550315e+2, 1.24810584e+2, -1533784.0, -1733664.5, -88513.57, -0.15199094, 0.12577012, -1500222.5, 216641.19, 0.00062344765, 10.001623, 9.99906 
2.550312e+2, 1.3480975e+2, -1561443.1, -1704277.5, 68050.44, -0.05792126, 0.11650874, -1534213.1, 84660.93, 0.0003143659, 10.000858, 9.998962 
2.550319e+2, 1.4480859e+2, -1497953.1, -1591414.1, 9449.458, 0.15164405, 0.09534591, -1497007.4, 23878.78, 0.00010539114, 10.000447, 9.999248 
2.5502798e+2, 1.548082e+2, -1345215.3, -1486129.3, -991.0986, -0.054000326, 0.09582948, -1345208.3, 77681.125, 0.000019009012, 10.000932, 9.999057 
2.5502536e+2, 1.6480766e+2, -1202785.5, -1341886.6, -26122.182, -0.12691014, 0.13370563, -1198041.8, 126851.73, 0.0000013062046, 10.001113, 9.999304 
2.5502428e+2, 1.7480674e+2, -1125994.3, -1254425.4, -5305.5273, -0.045739878, 0.07294105, -1125775.4, 101125.42, 0.000000000635992, 10.000975, 9.999293 
2.5502247e+2, 1.8480606e+2, -1037466.94, -1155344.5, -19311.465, -0.015663505, 0.08050648, -1034383.9, 94521.51, 0.0, 10.000876, 9.999342 
2.5501987e+2, 1.9480531e+2, -939276.8, -1061639.9, 25867.584, -0.044386115, 0.028595166, -934033.06, 96877.164, 0.0, 10.0009, 9.9993 
2.5501764e+2, 2.0480429e+2, -898382.7, -1094699.6, 30558.951, -0.064577535, 0.048537955, -893735.9, 39184.438, 0.0, 10.000957, 9.998379 
2.5501582e+2, 2.1480273e+2, -783096.8, -994035.1, 998.31586, -0.073419675, 0.018189704, -783092.06, 51846.277, 0.0, 10.001094, 9.998331 
2.5501427e+2, 2.2480159e+2, -651893.1, -754587.5, -32158.918, -0.04705049, 0.023326183, -642653.75, 94295.37, 0.0, 10.000794, 9.999439 
2.5501302e+2, 2.3480062e+2, -665038.3, -711812.94, 11145.283, 0.012966541, -0.058274888, -662518.4, -23563.768, 0.0, 10.000035, 9.999428 
2.550115e+2, 2.4480012e+2, -602531.5, -708505.44, 43767.555, -0.002568459, -0.0124117695, -586792.75, -45833.65, 0.0, 10.000114, 9.998749 
2.5500947e+2, 2.547998e+2, -393132.4, -566881.3, 64292.793, -0.110132724, 0.04695015, -371929.4, 71036.09, 0.0, 10.000913, 9.998667 
2.550077e+2, 2.647987e+2, -322692.84, -477352.34, 4952.6147, -0.14677934, 0.07565536, -322534.44, 22444.406, 0.0, 10.00072, 9.998691 
2.5500646e+2, 2.7479658e+2, -437342.38, -491147.03, 357.36945, -0.08777697, -0.045827404, -437340.0, -190338.55, 0.0, 9.999286, 9.998623 
2.5500542e+2, 2.847966e+2, -301808.63, -260260.48, 1514.491, -0.045974184, 0.051553044, -260205.34, -111203.94, 0.00000013920514, 9.999061, 9.999642 
2.5500387e+2, 2.947984e+2, -73694.43, -93941.555, 20195.217, -0.07771427, 0.21970385, -61227.438, -10245.175, 0.0000022917138, 9.999915, 9.999699 
2.550011e+2, 3.0479604e+2, 18663.482, -54123.9, 21716.947, -0.18287371, 0.033746127, 24650.523, 24650.523, 0.0000129202135, 10.000376, 9.999422 
2.5500217e+2, 3.147961e+2, -119293.86, -190122.33, -79916.4, 0.047847476, 0.07316308, -67296.43, -67296.43, 0.000045825393, 9.999669, 9.998825 
2.650333e+2, 1.2481279e+2, -1720856.9, -1840196.6, -92818.625, -0.055150498, 0.15559217, -1670182.9, 46659.68, 0.00051409315, 10.000353, 9.998955 
2.65032e+2, 1.3481179e+2, -1489275.9, -1662024.6, 738.4726, -0.066696905, 0.11202024, -1489272.8, 129581.37, 0.0002486299, 10.001272, 9.99907 
2.6503316e+2, 1.4481065e+2, -1391731.9, -1554790.9, 11587.837, 0.20159689, 0.0941703, -1390912.5, 129953.04, 0.00007773356, 10.001244, 9.999116 
2.650295e+2, 1.5481004e+2, -1376173.4, -1522285.5, 1565.827, 0.022346249, 0.08828479, -1376156.6, 46714.176, 0.000013419433, 10.000789, 9.998893 
2.650268e+2, 1.6480942e+2, -1300765.1, -1395893.3, 18075.324, -0.05184683, 0.1269685, -1297446.4, 27429.658, 0.0000010267595, 10.000477, 9.999229 
2.650251e+2, 1.748086e+2, -1238022.4, -1316831.5, -10175.46, -0.013211865, 0.08128736, -1236729.8, -9846.789, 0.0000000012219834, 10.000243, 9.999206 
2.650233e+2, 1.8480799e+2, -1095333.9, -1152948.3, -6491.457, 0.012866234, 0.0853822, -1094611.5, 34275.348, 0.0, 10.000353, 9.999615 
2.6502132e+2, 1.948073e+2, -952695.06, -1036962.44, -39482.03, 0.03313329, 0.016834456, -937087.3, 93802.82, 0.0, 10.000678, 9.999581 
2.650192e+2, 2.048063e+2, -942218.8, -1135021.1, -60.65402, 0.017950049, 0.031812303, -942218.8, -9318.681, 0.0, 10.000728, 9.99822 
2.6501685e+2, 2.1480472e+2, -907050.75, -1074586.8, 14258.506, -0.0324283, 0.018685667, -905845.9, -70926.31, 0.0, 10.00033, 9.998153 
2.65015e+2, 2.2480369e+2, -723273.94, -769599.9, 29011.908, -0.015319745, 0.03367868, -709312.6, 27617.258, 0.0, 10.0002, 9.999632 
2.6501375e+2, 2.3480299e+2, -612136.0, -668222.2, 2627.5618, 0.079607986, -0.038611967, -612013.2, 26919.102, 0.0, 10.000302, 9.999608 
2.650122e+2, 2.4480255e+2, -564354.9, -675555.1, 73707.24, 0.055025272, -0.000378043, -527628.8, 13306.568, 0.0, 10.000331, 9.998865 
2.650101e+2, 2.5480214e+2, -468925.2, -586112.56, 64107.195, -0.10035352, 0.03497007, -440668.72, 2272.8657, 0.0, 10.000335, 9.998804 
2.6500815e+2, 2.6480094e+2, -387872.47, -523854.0, 12770.233, -0.14499883, 0.054212797, -386683.56, -41728.453, 0.0, 10.000329, 9.998566 
2.650067e+2, 2.747989e+2, -295573.16, -431710.75, 10347.609, -0.03306252, -0.044027478, -294791.16, -47814.35, 0.0, 10.00031, 9.998533 
2.650055e+2, 2.8479877e+2, -196084.33, -218408.42, 72385.25, 0.028329121, 0.047293894, -134005.56, 14973.259, 0.00000017298198, 9.999817, 9.999563 
2.6500377e+2, 2.9480004e+2, -231647.77, -173756.08, 26531.188, -0.011029369, 0.16849041, -163436.61, -112470.11, 0.000002277503, 9.998833, 9.999677 
2.6500157e+2, 3.047988e+2, -143142.27, -117169.58, 46577.445, -0.09989149, 0.082591124, -81801.98, -81801.98, 0.000011809922, 9.999173, 9.999587 
2.650025e+2, 3.1479815e+2, 37356.42, -13230.65, -127311.31, 0.10029242, 0.04106497, 141862.47, 141862.47, 0.000042458643, 10.000259, 9.999773 
2.750343e+2, 1.2481302e+2, -1702830.6, -1798463.3, -79696.52, -0.07832492, 0.07604354, -1657706.4, 59134.676, 0.00042131313, 10.000321, 9.999263 
2.7503288e+2, 1.3481319e+2, -1454832.6, -1595504.9, 41532.574, -0.14918073, 0.10464536, -1443485.6, 175354.34, 0.0001952308, 10.001291, 9.999517 
2.7503434e+2, 1.448131e+2, -1375493.9, -1509148.4, -29078.182, 0.1492077, 0.15330273, -1369441.6, 151398.19, 0.000056360343, 10.001192, 9.999456 
2.750303e+2, 1.5481214e+2, -1358252.1, -1471595.3, 3452.3088, -0.017719641, 0.076659024, -1358147.0, 64699.79, 0.000009372096, 10.000737, 9.999265 
2.7502733e+2, 1.6481115e+2, -1327989.1, -1434484.0, -5536.9536, -0.08215592, 0.07035802, -1327702.0, -2846.5054, 0.0000008660051, 10.000401, 9.999 
2.7502567e+2, 1.748099e+2, -1266828.0, -1361938.5, -2679.0688, -0.022232704, 0.008299174, -1266752.6, -39884.816, 0.000000004874734, 10.000183, 9.998925 
2.7502418e+2, 1.8480906e+2, -1138736.3, -1211221.9, -11583.47, 0.03342183, 0.022589836, -1136930.1, -8054.1646, 0.0, 10.000219, 9.999277 
2.7502275e+2, 1.948085e+2, -992892.3, -1092036.3, -9785.533, 0.07035464, -0.0012963698, -991935.7, 38945.207, 0.0, 10.000562, 9.999256 
2.7502057e+2, 2.0480816e+2, -908181.94, -1028156.5, -30068.238, 0.055409893, 0.05749891, -901068.06, 31816.629, 0.0, 10.000576, 9.999024 
2.7501765e+2, 2.1480763e+2, -876010.44, -964916.06, 16565.22, -0.020606548, 0.063373856, -873024.25, -38132.965, 0.0, 10.000138, 9.998995 
2.7501538e+2, 2.2480698e+2, -773865.94, -826826.56, 17204.184, -0.029098267, 0.08839414, -768767.94, -31870.373, 0.0, 9.999996, 9.99934 
2.7501386e+2, 2.3480597e+2, -661079.1, -728601.6, 20976.947, 0.025797902, 0.016724057, -655093.0, -16187.229, 0.0, 10.00012, 9.999285 
2.7501222e+2, 2.4480523e+2, -577865.25, -671336.75, 59423.574, -0.0034404746, 0.03911209, -549000.8, -8088.7524, 0.0, 10.000195, 9.998958 
2.7501047e+2, 2.548045e+2, -484141.8, -585082.0, 80760.83, -0.13308328, 0.030756678, -439377.78, 3541.8257, 0.0, 10.000185, 9.998887 
2.750087e+2, 2.6480353e+2, -380113.06, -479919.06, -7319.4775, -0.15629166, 0.05188412, -379579.13, -34649.92, 0.0, 10.00022, 9.998915 
2.750071e+2, 2.7480233e+2, -296638.7, -397062.1, 24280.178, -0.057031605, 0.0040831235, -291076.34, -44135.13, 0.00000000009324417, 10.000156, 9.998843 
2.7500594e+2, 2.8480178e+2, -238537.75, -290539.94, 18022.635, 0.055863775, 0.06168687, -232902.28, -83955.2, 0.00000023612336, 9.999749, 9.999097 
2.7500436e+2, 2.948013e+2, -278292.75, -250462.17, 11243.989, 0.11272005, 0.051300682, -246487.17, -195534.08, 0.0000024951785, 9.998734, 9.9992 
2.7500162e+2, 3.048005e+2, -161055.2, -126015.06, 80342.25, -0.04140846, 0.03737371, -61304.79, -61304.79, 0.0000116764495, 9.999087, 9.99955 
2.7500013e+2, 3.147995e+2, 83662.984, 148300.45, -21690.658, -0.2393403, -0.032568596, 154904.53, 154904.53, 0.000040637482, 10.00001, 10.000992 
2.8503612e+2, 1.24813914e+2, -1571842.1, -1706911.0, 20474.166, 0.048413232, 0.042456295, -1568806.8, 148024.64, 0.00034670465, 10.001148, 9.99947 
2.8503385e+2, 1.3481407e+2, -1537434.1, -1620096.8, 9152.188, -0.13483508, 0.06124791, -1536432.9, 82396.91, 0.00015383656, 10.000698, 9.999615 
2.8503513e+2, 1.4481442e+2, -1477648.6, -1537532.6, -48741.78, 0.16174573, 0.13894734, -1450386.8, 70438.65, 0.00004093297, 10.000404, 9.999638 
2.8503117e+2, 1.5481357e+2, -1357947.1, -1444053.3, -62920.81, 0.017028032, 0.052676655, -1324759.8, 98071.625, 0.0000066741927, 10.000621, 9.999508 
2.8502834e+2, 1.6481267e+2, -1271442.5, -1400903.0, -29368.107, -0.029325906, 0.039583735, -1265091.9, 59747.49, 0.00000074756446, 10.000758, 9.999071 
2.850268e+2, 1.748115e+2, -1168987.8, -1311842.1, -34863.27, 0.050516162, -0.017801208, -1160933.6, 65917.66, 0.000000006090155, 10.000828, 9.998976 
2.8502515e+2, 1.8481076e+2, -1073235.4, -1212498.9, 13067.777, 0.091086306, 0.01928623, -1072019.9, 56839.785, 0.0, 10.000811, 9.9989805 
2.8502333e+2, 1.9481029e+2, -1003090.4, -1132712.8, -13419.207, 0.080091305, 0.03423188, -1001715.75, 29150.594, 0.0, 10.000634, 9.998943 
2.8502116e+2, 2.048101e+2, -871924.6, -955324.25, -28382.863, 0.06293537, 0.1000433, -863181.75, 69686.96, 0.0, 10.000609, 9.999496 
2.8501856e+2, 2.148099e+2, -772120.44, -859474.8, -44188.992, 0.043808255, 0.09108759, -753665.8, 81203.836, 0.0, 10.00063, 9.9994755 
2.8501627e+2, 2.2480932e+2, -704358.44, -828385.1, -16015.986, 0.038548358, 0.11787517, -702323.6, 34551.45, 0.0, 10.000637, 9.999013 
2.850143e+2, 2.3480825e+2, -613378.6, -739505.6, -45146.31, 0.04710272, 0.07227865, -598884.44, 40002.37, 0.0, 10.000612, 9.998963 
2.8501257e+2, 2.4480748e+2, -506787.16, -596624.44, 30029.055, 0.004803022, 0.08754664, -497674.06, 43219.73, 0.0, 10.000484, 9.999334 
2.8501102e+2, 2.5480685e+2, -453466.22, -524314.6, 41962.87, -0.08611867, 0.049862258, -433974.5, 8923.031, 0.0, 10.0002, 9.999293 
2.8500944e+2, 2.648061e+2, -390652.0, -485351.9, -5077.2803, -0.09032573, 0.0698295, -390380.56, -45476.523, 0.0, 10.000142, 9.998918 
2.8500822e+2, 2.7480498e+2, -276603.0, -389178.63, -31681.482, 0.0421926, 0.031515907, -268299.53, -21383.984, 0.0000000018932573, 10.000276, 9.99885 
2.8500667e+2, 2.8480405e+2, -200461.3, -303660.4, -27505.703, 0.14372985, 0.061308432, -193587.97, -44662.492, 0.00000028816427, 10.000156, 9.998811 
2.8500405e+2, 2.9480293e+2, -114362.08, -196013.75, -54297.19, 0.16016518, 0.020466527, -87254.61, -36317.434, 0.0000027347362, 9.999993, 9.998955 
2.850014e+2, 3.048021e+2, -43131.137, -119160.16, 74727.086, -0.0057336483, 0.031102153, 2694.9185, 2694.9185, 0.000012525966, 10.00008, 9.9991255 
2.8500056e+2, 3.1480107e+2, 11082.731, 109426.48, -106885.66, -0.15245283, -0.0022764388, 177908.4, 177908.4, 0.00004059471, 9.999517, 10.000957 
2.9503754e+2, 1.2481567e+2, -1565166.0, -1708177.8, -3973.5833, -0.015062197, 0.074686185, -1565055.6, 151755.73, 0.00028489743, 10.001195, 9.999443 
2.950345e+2, 1.348144e+2, -1563585.8, -1679168.3, 452.76157, -0.18098927, -0.020342985, -1563583.9, 55240.19, 0.000121053716, 10.000714, 9.999203 
2.9503515e+2, 1.4481446e+2, -1474901.8, -1527073.9, -65008.957, 0.07346777, 0.04814291, -1430940.4, 89883.03, 0.000029834508, 10.000375, 9.999728 
2.950316e+2, 1.5481418e+2, -1357072.9, -1433502.4, -40949.984, -0.040236607, 0.005744916, -1339276.3, 83549.445, 0.000004731658, 10.000585, 9.999599 
2.950292e+2, 1.6481392e+2, -1259114.5, -1350994.6, -41352.047, -0.05158954, 0.0358069, -1243244.5, 81583.49, 0.00000054097734, 10.000669, 9.999448 
2.9502797e+2, 1.7481355e+2, -1151285.5, -1253386.3, -12669.89, 0.048787497, 0.01598435, -1149736.8, 77094.58, 0.0000000012704189, 10.0007515, 9.999403 
2.9502586e+2, 1.8481326e+2, -1105632.8, -1257164.8, -10409.631, 0.041679483, 0.08611296, -1104921.0, 23915.127, 0.0, 10.000706, 9.998731 
2.950226e+2, 1.9481267e+2, -1038634.94, -1180081.1, -4518.891, -0.0941127, 0.11717148, -1038490.75, -7644.402, 0.0, 10.000523, 9.9986725 
2.950204e+2, 2.0481211e+2, -890525.75, -955991.6, -42516.406, -0.10158745, 0.15525983, -869601.56, 63250.92, 0.0, 10.0004425, 9.999574 
2.950191e+2, 2.1481137e+2, -793596.7, -861678.3, -25600.322, 0.007158271, 0.086946264, -785044.6, 49811.566, 0.0, 10.000444, 9.99955 
2.9501724e+2, 2.2481066e+2, -758782.6, -892623.75, -33594.613, 0.043474156, 0.11213725, -750823.5, -13960.21, 0.0, 10.000434, 9.998665 
2.950148e+2, 2.3480979e+2, -667501.94, -805802.3, -29261.38, 0.0020483267, 0.122497775, -661565.7, -22689.533, 0.0, 10.000421, 9.998597 
2.950129e+2, 2.4480933e+2, -475230.88, -502207.75, 2093.078, -0.04702607, 0.1528433, -475069.44, 65810.67, 0.0, 10.000359, 10.000045 
2.9501122e+2, 2.548091e+2, -425056.4, -430895.16, 45749.715, -0.11930364, 0.08557503, -382133.0, 60743.555, 0.0, 10.000051, 10.000011 
2.9500994e+2, 2.6480842e+2, -421865.63, -528018.1, -14539.803, -0.088812105, 0.08927208, -419910.1, -75028.41, 0.0, 10.00005, 9.998668 
2.9500937e+2, 2.748069e+2, -316452.97, -436705.06, -11456.57, 0.09493747, 0.03496319, -315371.22, -68471.67, 0.0000000016821552, 10.00013, 9.998592 
2.9500717e+2, 2.8480574e+2, -214671.58, -323111.63, -49581.406, 0.13980822, 0.063150875, -195419.66, -46507.844, 0.00000022409213, 10.000107, 9.998705 
2.9500243e+2, 2.9480493e+2, -142222.95, -238265.53, -31787.043, -0.050795477, 0.066889614, -132655.53, -81736.3, 0.0000026534976, 9.999906, 9.998719 
2.950004e+2, 3.0480337e+2, -102741.945, -221418.72, 53084.504, -0.14971086, 0.055394363, -82462.445, -82462.445, 0.00001292508, 10.000002, 9.99845 
2.9500264e+2, 3.1480256e+2, -94295.08, -81844.11, -75628.555, 0.018689785, 0.10335525, -12185.24, -12185.24, 0.000040888393, 9.999403, 9.999691 
3.0503914e+2, 1.2481751e+2, -1563655.8, -1706634.0, 92468.336, 0.040916614, 0.060381614, -1518264.1, 198527.06, 0.00023189843, 10.001209, 9.999455 
3.050358e+2, 1.348158e+2, -1582090.9, -1717102.0, 3794.9016, -0.10724835, -0.050925232, -1581984.3, 36824.453, 0.000094942065, 10.000703, 9.998954 
3.0503577e+2, 1.4481565e+2, -1486212.8, -1526698.6, 7295.5825, 0.11166869, 0.0060011395, -1484938.3, 35872.71, 0.000021738364, 10.00029, 9.9997635 
3.0503246e+2, 1.5481585e+2, -1380255.0, -1443288.3, -16661.346, 0.0058529386, 0.01057927, -1376121.9, 46687.86, 0.0000030875526, 10.000412, 9.999615 
3.0503014e+2, 1.6481586e+2, -1268091.0, -1359853.6, 2127.049, -0.009557592, 0.06687399, -1268041.8, 56768.52, 0.0000002653173, 10.000597, 9.999428 
3.0502883e+2, 1.7481549e+2, -1151019.1, -1255990.8, -33231.832, 0.07108143, 0.050187547, -1141383.1, 85430.65, 0.0, 10.000746, 9.999395 
3.0502665e+2, 1.8481521e+2, -1073706.1, -1219127.0, -7686.4063, 0.05669106, 0.11086596, -1073300.9, 55517.28, 0.0, 10.000835, 9.998926 
3.050234e+2, 1.9481461e+2, -990036.2, -1145078.1, -4685.438, -0.07102354, 0.12406951, -989894.75, 40932.863, 0.0, 10.00079, 9.998796 
3.050212e+2, 2.0481381e+2, -850803.7, -962936.2, 3754.1675, -0.07646423, 0.14590688, -850678.1, 82157.625, 0.0, 10.000819, 9.999349 
3.0502012e+2, 2.1481271e+2, -742438.4, -869218.4, -36152.46, 0.048553325, 0.06501077, -732853.75, 101989.91, 0.0, 10.000916, 9.999278 
3.0501822e+2, 2.2481193e+2, -714053.25, -865564.6, -19927.54, 0.0918104, 0.0919463, -711476.1, 25375.383, 0.0, 10.000707, 9.998729 
3.0501553e+2, 2.3481125e+2, -703801.4, -817586.44, -14960.254, 0.056790274, 0.11534204, -701867.3, -63005.97, 0.0, 10.0001335, 9.998665 
3.0501342e+2, 2.4481083e+2, -598038.4, -565324.06, 36084.703, 0.020795746, 0.15152521, -542062.25, -1197.3666, 0.0, 9.999573, 9.999979 
3.0501175e+2, 2.5481045e+2, -549961.75, -492741.4, -13448.531, -0.02219049, 0.07594965, -489738.22, -46873.984, 0.0, 9.99923, 9.99997 
3.050104e+2, 2.6480985e+2, -511161.1, -568363.9, -33977.395, -0.008624039, 0.08586384, -495349.63, -150479.94, 0.0, 9.999431, 9.998688 
3.0500966e+2, 2.7480865e+2, -288791.72, -418290.8, -40833.375, 0.11291046, 0.06369757, -276991.5, -30106.877, 0.00000000014964384, 10.000312, 9.998623 
3.050072e+2, 2.8480774e+2, -135414.72, -276635.63, -55613.43, 0.115482494, 0.11018474, -116143.64, 32751.262, 0.00000013461268, 10.000635, 9.998763 
3.0500215e+2, 2.948072e+2, -90277.86, -202150.86, -57088.406, -0.07494298, 0.13202953, -66289.53, -15389.823, 0.0000024184974, 10.00025, 9.998783 
3.050008e+2, 3.0480564e+2, -48904.223, -191818.27, 108343.09, -0.10881016, 0.11711392, 9424.473, 9424.473, 0.00001259153, 10.000331, 9.998523 
3.0500412e+2, 3.1480494e+2, -20017.084, -141165.23, -36757.17, 0.19976974, 0.17006052, -9737.026, -9737.026, 0.000039642433, 10.00029, 9.998892 
3.1504017e+2, 1.2481969e+2, -1558771.9, -1687964.4, 45557.633, -0.057196695, 0.032855306, -1544322.8, 172445.77, 0.0001887222, 10.001183, 9.999591 
3.1503713e+2, 1.3481843e+2, -1599666.0, -1733251.5, -6073.536, -0.0792344, -0.021536238, -1599390.5, 19391.574, 0.00007509751, 10.000642, 9.998865 
3.1503633e+2, 1.4481805e+2, -1502519.1, -1553234.1, -9162.1875, 0.08966741, 0.023348108, -1500914.6, 19872.53, 0.00001598166, 10.000247, 9.999601 
3.1503317e+2, 1.5481852e+2, -1396796.0, -1469882.1, 3810.6914, -0.0057361447, 0.06797909, -1396597.9, 26186.2, 0.00000170519, 10.0003805, 9.999444 
3.1503084e+2, 1.648184e+2, -1305713.5, -1421224.9, -16036.786, -0.03553757, 0.13901757, -1303528.5, 21258.203, 0.000000057148895, 10.000521, 9.999048 
3.1502903e+2, 1.7481731e+2, -1186676.5, -1313433.0, -15133.864, -0.024704702, 0.08640953, -1184894.8, 41903.844, 0.0, 10.000676, 9.999035 
3.150271e+2, 1.8481664e+2, -1052266.1, -1146784.6, -25541.844, -0.016547887, 0.101464465, -1045805.5, 82999.79, 0.0, 10.000711, 9.999484 
3.1502518e+2, 1.9481611e+2, -963808.4, -1061645.1, 9371.665, -0.008406074, 0.06197554, -962918.75, 67890.96, 0.0, 10.000668, 9.999425 
3.1502312e+2, 2.0481537e+2, -918707.25, -1057574.6, -9376.002, 0.004979859, 0.0831029, -918077.06, 14740.061, 0.0, 10.0006275, 9.998792 
3.1502104e+2, 2.148141e+2, -811826.9, -964581.25, -15095.006, 0.01720653, 0.044046268, -810349.5, 24480.895, 0.0, 10.000713, 9.998719 
3.1501865e+2, 2.2481331e+2, -700032.6, -798351.0, -56065.5, 0.034570456, 0.07219102, -674626.6, 62211.2, 0.0, 10.00054, 9.999275 
3.150159e+2, 2.3481278e+2, -689903.1, -747126.25, -20011.293, 0.05166197, 0.057609834, -683599.44, -44758.254, 0.0, 9.999954, 9.99924 
3.150137e+2, 2.4481203e+2, -674966.2, -705784.8, 6862.1016, 0.05714025, 0.074663915, -673507.3, -132658.98, 0.0, 9.999481, 9.999061 
3.15012e+2, 2.5481087e+2, -639771.0, -641709.56, -12639.065, 0.04691772, 0.016269937, -628064.1, -185203.02, 0.0, 9.9990635, 9.999031 
3.150103e+2, 2.648104e+2, -500135.28, -525326.44, -17902.16, 0.0062258337, 0.07474745, -490841.7, -145974.42, 0.0, 9.999343, 9.999026 
3.1500867e+2, 2.7481028e+2, -281227.28, -377044.16, 9088.797, -0.055558328, 0.119388655, -280372.78, -33501.72, 0.00000000001473293, 10.000192, 9.99897 
3.150062e+2, 2.8480992e+2, -132662.56, -254326.81, -85847.38, -0.08184242, 0.19312733, -88279.09, 60596.953, 0.000000108201135, 10.0005665, 9.998945 
3.1500256e+2, 2.948094e+2, -98149.86, -190895.13, -50363.035, -0.10779839, 0.20051691, -76061.875, -25180.13, 0.0000023186144, 10.000121, 9.998927 
3.150022e+2, 3.048086e+2, 11929.511, -54293.43, 99142.15, -0.038208347, 0.21070996, 83343.32, 83343.32, 0.000012381474, 10.000282, 9.999488 
3.150043e+2, 3.1480795e+2, -42719.39, -173182.48, -13431.39, 0.11154225, 0.1638875, -41350.96, -41350.96, 0.000038038284, 10.000218, 9.998706 
3.2504126e+2, 1.24821536e+2, -1703890.5, -1734646.6, 55141.098, 0.0081055155, 0.025901582, -1662023.3, 54728.355, 0.0001575099, 10.00006, 9.999819 
3.2503846e+2, 1.3482104e+2, -1555944.9, -1686466.6, -45473.65, -0.002706303, 0.020207088, -1541664.4, 77092.98, 0.00006189271, 10.000794, 9.9991255 
3.250368e+2, 1.4482044e+2, -1418745.3, -1555756.1, 6045.8677, 0.08958691, 0.049181614, -1418479.0, 102285.54, 0.000012633238, 10.000994, 9.999236 
3.250342e+2, 1.5482043e+2, -1309860.9, -1466513.5, -27046.152, 0.032124683, 0.0838301, -1305322.8, 117443.32, 0.0000008198343, 10.001131, 9.99911 
3.2503203e+2, 1.6481997e+2, -1240733.0, -1377295.5, -10511.169, 0.016498582, 0.1339927, -1239928.8, 84843.16, 0.000000004124255, 10.000949, 9.9991255 
3.250298e+2, 1.7481875e+2, -1220622.3, -1326575.9, -16582.332, 0.007194304, 0.06445334, -1218087.6, 8697.243, 0.0, 10.000439, 9.999057 
3.2502782e+2, 1.848182e+2, -1097764.3, -1143146.8, 14440.717, 0.017524509, 0.07635278, -1093558.9, 35231.17, 0.0, 10.000284, 9.999713 
3.250263e+2, 1.9481811e+2, -982242.8, -1040335.7, -11172.87, 0.05933282, 0.056983743, -980168.06, 50620.656, 0.0, 10.000424, 9.9996805 
3.2502446e+2, 2.048175e+2, -931595.7, -1094690.4, 1293.5334, 0.08193965, 0.08988072, -931585.4, 1209.7007, 0.0, 10.00065, 9.998531 
3.250223e+2, 2.1481606e+2, -816527.44, -996446.2, -11547.746, 0.07989932, 0.05974473, -815789.3, 19022.875, 0.0, 10.000801, 9.998463 
3.2501966e+2, 2.2481507e+2, -642694.6, -768491.4, -41295.734, 0.07208244, 0.079454236, -630349.75, 106472.195, 0.0, 10.00093, 9.999285 
3.250164e+2, 2.3481424e+2, -525450.4, -666532.94, -77373.07, 0.062329452, 0.029856004, -491288.9, 147537.75, 0.0, 10.00108, 9.999242 
3.2501394e+2, 2.4481335e+2, -499016.63, -673243.44, -29426.424, 0.073339924, 0.05629468, -494180.78, 46654.566, 0.0, 10.000893, 9.998615 
3.2501227e+2, 2.548123e+2, -468334.75, -608295.9, -36736.53, 0.110356264, 0.04929113, -459278.28, -16428.496, 0.0, 10.000427, 9.998609 
3.2501045e+2, 2.6481193e+2, -390639.6, -427239.44, 34522.24, 0.06548941, 0.11504518, -369866.88, -25011.734, 0.0, 9.999899, 9.999436 
3.2500842e+2, 2.7481177e+2, -374070.38, -371508.94, 34017.176, -0.047420766, 0.11894695, -338748.38, -91892.89, 0.00000000010851988, 9.999341, 9.999415 
3.250059e+2, 2.8481132e+2, -328861.8, -367138.22, -40517.426, -0.09391237, 0.16949782, -303190.06, -154329.5, 0.00000014604628, 9.999279, 9.9988 
3.2500285e+2, 2.948107e+2, -163281.67, -233560.98, -60967.285, -0.05975011, 0.18051705, -128052.26, -77183.664, 0.0000023415487, 9.99972, 9.998829 
3.2500324e+2, 3.0481043e+2, -3854.8196, 20429.67, 94442.586, 0.07700333, 0.20987174, 103507.36, 103507.36, 0.000012312151, 9.999865, 10.000176 
3.2500392e+2, 3.148103e+2, -143307.23, -182258.69, -115379.56, 0.10926822, 0.14585958, -45771.22, -45771.22, 0.000036624067, 9.99941, 9.999003 
3.350414e+2, 1.2482304e+2, -1695200.1, -1697187.0, 20393.78, -0.06350507, 0.05131517, -1675775.6, 40964.992, 0.00013854062, 9.9999895, 10.000103 
3.3503926e+2, 1.3482372e+2, -1521343.4, -1597163.9, -15865.767, -0.04002659, 0.10143131, -1518157.4, 100575.93, 0.000055370125, 10.000748, 9.999743 
3.350369e+2, 1.448229e+2, -1460283.6, -1625252.4, -12868.77, -0.048044622, 0.098234795, -1459285.8, 61455.98, 0.000011804474, 10.000923, 9.998793 
3.3503506e+2, 1.5482184e+2, -1343801.8, -1523774.4, -5054.7, -0.035229217, 0.0701885, -1343659.9, 79093.41, 0.00000057438905, 10.001081, 9.998739 
3.350331e+2, 1.6482085e+2, -1223106.5, -1328495.5, -45621.215, -0.007941123, 0.0639476, -1206101.6, 118661.84, 0.00000000201948, 10.000887, 9.9994955 
3.3503073e+2, 1.7481978e+2, -1200315.3, -1276597.4, -18261.08, 0.016121252, -0.02733075, -1196169.1, 30604.293, 0.0, 10.000397, 9.999423 
3.350284e+2, 1.848197e+2, -1128056.9, -1171241.4, -275.96884, 0.010150708, 0.022952512, -1128055.1, 718.4952, 0.0, 10.000136, 9.999592 
3.3502626e+2, 1.9482037e+2, -1008665.5, -1065853.8, 9201.557, -0.019274531, 0.090030625, -1007221.44, 23545.053, 0.0, 10.000301, 9.999562 
3.3502463e+2, 2.0482008e+2, -953789.4, -1098295.6, -9256.545, 0.009541165, 0.15963465, -953198.9, -20428.096, 0.0, 10.000474, 9.998591 
3.350235e+2, 2.1481852e+2, -841406.25, -998015.0, 10736.273, 0.089570485, 0.10706969, -840673.7, -5883.8145, 0.0, 10.000589, 9.998553 
3.3502084e+2, 2.248171e+2, -710279.8, -863209.3, -53007.086, 0.06945963, 0.108706236, -693703.6, 43101.293, 0.0, 10.000739, 9.998724 
3.3501667e+2, 2.3481561e+2, -594686.4, -759360.9, -59175.832, -0.05205619, 0.047624256, -575627.4, 63190.527, 0.0, 10.00087, 9.998701 
3.3501378e+2, 2.4481489e+2, -499561.25, -655230.44, -62406.35, -0.067290366, 0.10703838, -477632.22, 63193.37, 0.0, 10.000799, 9.998786 
3.3501217e+2, 2.5481477e+2, -479659.6, -594068.5, -39415.96, 0.022838887, 0.17753035, -467394.88, -24565.227, 0.0, 10.000265, 9.998783 
3.350104e+2, 2.6481435e+2, -373133.56, -371986.34, -3206.9443, 0.04180952, 0.21167122, -369302.13, -24469.752, 0.0, 9.999822, 9.999849 
3.3500838e+2, 2.7481315e+2, -366307.88, -319645.06, 29110.525, -0.022647478, 0.06274858, -305669.94, -58831.62, 0.000000000044508567, 9.999191, 9.999841 
3.3500582e+2, 2.8481203e+2, -355467.66, -415736.72, -41224.645, -0.062590964, 0.040007025, -334537.9, -185690.11, 0.00000018851506, 9.999235, 9.998495 
3.3500254e+2, 2.948113e+2, -199516.81, -293992.5, -24697.229, -0.10822912, 0.07522326, -193450.17, -142591.47, 0.0000023038672, 9.999635, 9.9984665 
3.3500347e+2, 3.048109e+2, 1422.975, 45592.566, 67578.516, 0.081772804, 0.10344708, 94603.445, 94603.445, 0.000011796056, 9.999813, 10.000372 
3.350019e+2, 3.1481156e+2, -125824.984, -107277.99, -77227.38, -0.112393096, 0.0953405, -38769.316, -38769.316, 0.000034748333, 9.999239, 9.999608 
3.450421e+2, 1.24824315e+2, -1681229.1, -1706330.3, 58212.02, 0.01990703, 0.062361743, -1634230.0, 82499.945, 0.00012841672, 10.00016, 9.999953 
3.4504062e+2, 1.3482545e+2, -1434803.6, -1553055.0, -50782.77, 0.011163618, 0.14814982, -1415988.8, 202730.42, 0.00005393956, 10.0013, 9.999803 
3.4503785e+2, 1.4482464e+2, -1362280.8, -1540627.1, -34949.254, -0.05694373, 0.1296819, -1355676.6, 165050.94, 0.00001321429, 10.0014515, 9.999108 
3.450365e+2, 1.5482345e+2, -1358736.6, -1505300.0, -22659.277, 0.023339603, 0.062156126, -1355313.4, 67426.12, 0.00000089811203, 10.000872, 9.998966 
3.450345e+2, 1.648227e+2, -1250950.0, -1326129.8, -14830.617, 0.07314675, 0.060604848, -1248130.1, 76616.77, 0.0000000015154811, 10.000608, 9.999654 
3.450316e+2, 1.7482229e+2, -1153430.5, -1233155.3, -32687.0, 0.062643506, 0.017087543, -1141742.5, 85007.68, 0.0, 10.000629, 9.999611 
3.4502903e+2, 1.8482223e+2, -1051250.8, -1146490.3, 23511.875, 0.040511172, 0.065061696, -1045762.6, 82987.46, 0.0, 10.000716, 9.999484 
3.450271e+2, 1.9482216e+2, -947772.3, -1053000.4, 2471.9814, 0.018154735, 0.07184919, -947714.25, 83036.12, 0.0, 10.000784, 9.999423 
3.450254e+2, 2.0482183e+2, -908784.3, -1049578.0, 10180.624, 0.038577728, 0.13187811, -908052.0, 24703.113, 0.0, 10.000667, 9.998828 
3.4502393e+2, 2.1482094e+2, -872781.06, -987915.7, 8802.265, 0.10073669, 0.12462694, -872112.0, -37344.977, 0.0, 10.000263, 9.9987755 
3.450214e+2, 2.2481982e+2, -783336.9, -913296.3, 14625.869, 0.0797787, 0.15121661, -781711.2, -44931.797, 0.0, 10.000296, 9.998601 
3.450177e+2, 2.348182e+2, -617695.1, -785346.3, 11221.637, -0.020264622, 0.09133777, -616947.3, 21847.324, 0.0, 10.000763, 9.998585 
3.450146e+2, 2.4481738e+2, -523256.97, -658545.6, 12773.974, -0.046980347, 0.14399819, -522061.44, 18741.598, 0.0, 10.000614, 9.998848 
3.4501198e+2, 2.5481707e+2, -536181.8, -621868.25, -8477.785, 0.008605295, 0.19298321, -535351.06, -92543.64, 0.0, 9.999866, 9.9987955 
3.4500992e+2, 2.6481625e+2, -428925.9, -419610.72, 46440.01, 0.03511752, 0.1972458, -377595.3, -32782.566, 0.0, 9.999538, 9.999659 
3.4500834e+2, 2.748145e+2, -308643.38, -310899.8, 531.9398, 0.039776202, 0.016072288, -308524.28, -61701.43, 0.0, 9.999684, 9.999664 
3.4500587e+2, 2.8481323e+2, -260786.95, -354333.9, -25963.633, -0.004660919, -0.018445004, -254064.0, -105231.375, 0.00000016974016, 9.999851, 9.998601 
3.450024e+2, 2.948127e+2, -119526.46, -242960.19, -12580.556, -0.09781892, 0.025952742, -118257.28, -67416.65, 0.0000020169734, 10.000151, 9.998558 
3.4500384e+2, 3.0481175e+2, 8085.7344, 13196.972, 84825.23, 0.14315282, 0.007697924, 95505.07, 95505.07, 0.0000103175025, 9.999979, 10.000086 
3.450012e+2, 3.1481245e+2, -155185.94, -100931.0, -110770.55, -0.07214201, 0.026517453, -14014.562, -14014.562, 0.000031962787, 9.998931, 9.999798 
3.550425e+2, 1.24825306e+2, -1734768.1, -1804268.4, -2379.8738, -0.049603682, 0.05255094, -1734686.8, -17966.5, 0.00012227354, 10.000107, 9.999305 
3.5504198e+2, 1.348262e+2, -1457642.4, -1594346.3, 7273.066, -0.019376256, 0.1524538, -1457256.6, 161458.45, 0.00005490219, 10.001293, 9.999513 
3.5503915e+2, 1.4482585e+2, -1308108.4, -1425113.0, -75069.35, -0.120583184, 0.15018238, -1271437.5, 249282.42, 0.000015641235, 10.001429, 9.999921 
3.5503808e+2, 1.5482524e+2, -1304624.0, -1397515.6, -28856.701, 0.049975608, 0.065745674, -1296389.6, 126335.484, 0.0000017221555, 10.000883, 9.999707 
3.5503584e+2, 1.6482547e+2, -1258958.4, -1322771.4, -34492.18, 0.10362237, 0.12443832, -1243878.4, 80844.21, 0.000000007086625, 10.000524, 9.999716 
3.5503185e+2, 1.748263e+2, -1156158.4, -1225759.4, -14957.881, -0.008976672, 0.1962719, -1153079.9, 73634.74, 0.0, 10.00057, 9.999689 
3.550292e+2, 1.8482578e+2, -1083646.4, -1179739.5, 13313.06, -0.045539584, 0.20011508, -1081836.1, 46883.0, 0.0, 10.000572, 9.999325 
3.550283e+2, 1.9482364e+2, -977911.06, -1085047.0, 22543.082, 0.026364412, 0.015655015, -973360.94, 57377.758, 0.0, 10.000652, 9.999267 
3.5502636e+2, 2.048229e+2, -908618.06, -1008733.1, -20868.43, 0.03934167, 0.024808593, -904442.3, 28303.88, 0.0, 10.000489, 9.999197 
3.550233e+2, 2.148234e+2, -870347.44, -944111.4, 9845.938, -0.022379575, 0.11779462, -869055.8, -34312.582, 0.0, 10.000093, 9.999161 
3.5502085e+2, 2.2482328e+2, -785077.6, -878591.7, 18786.582, -0.032957096, 0.21022531, -781444.6, -44699.52, 0.0, 10.000133, 9.998916 
3.5501903e+2, 2.348222e+2, -625224.3, -755754.2, 44598.875, 0.008861989, 0.17477553, -611441.3, 27313.83, 0.0, 10.000571, 9.998879 
3.5501587e+2, 2.4482095e+2, -557541.25, -693752.6, -28437.426, -0.009261176, 0.17756568, -551842.6, -11075.765, 0.0, 10.000465, 9.998674 
3.5501125e+2, 2.5481918e+2, -573311.5, -660377.2, -20630.37, -0.08612195, 0.09744315, -568670.44, -125887.15, 0.0, 9.999707, 9.998603 
3.5500854e+2, 2.6481766e+2, -491781.94, -534194.75, 36883.953, -0.08853578, 0.07712476, -470442.63, -125646.945, 0.0, 9.999464, 9.99891 
3.5500774e+2, 2.74816e+2, -382742.28, -436227.72, 25567.152, -0.021570183, -0.017029764, -372487.0, -125679.52, 0.0, 9.999559, 9.998864 
3.5500547e+2, 2.8481495e+2, -241869.7, -300384.72, -28862.29, -0.06516045, -0.0090395715, -230029.36, -81214.31, 0.00000011654808, 9.99979, 9.999002 
3.5500193e+2, 2.948147e+2, -105939.19, -188995.56, 18586.627, -0.21080822, 0.018863397, -101969.53, -51153.37, 0.0000016052002, 10.000045, 9.9989805 
3.5500383e+2, 3.0481285e+2, -25949.826, -59396.234, 34087.71, 0.110056676, -0.0871592, -4704.1255, -4704.1255, 0.000008325357, 9.999973, 9.999598 
3.5500053e+2, 3.1481406e+2, -189479.83, -145353.97, -45304.875, -0.11587197, 0.03580289, -117025.39, -117025.39, 0.000028551576, 9.998806, 9.999559 
3.6504397e+2, 1.2482761e+2, -1484207.1, -1688809.0, 51556.9, 0.022379609, 0.054090496, -1471949.9, 244748.8, 0.000118926524, 10.001832, 9.999281 
3.6504328e+2, 1.348281e+2, -1612855.3, -1663205.8, 87120.3, 0.050942935, 0.11359225, -1547345.8, 71350.64, 0.000056465244, 10.000198, 9.999571 
3.650403e+2, 1.4482817e+2, -1531435.6, -1511290.4, 58208.34, -0.053753734, 0.14014545, -1462289.6, 58407.27, 0.00001794202, 9.999794, 10.000122 
3.6503875e+2, 1.5482801e+2, -1290521.5, -1363381.5, 28764.035, 0.041749332, 0.07893114, -1280534.8, 142163.3, 0.000002788093, 10.000862, 9.999953 
3.6503655e+2, 1.6482843e+2, -1143340.9, -1274793.8, 25681.38, 0.094783336, 0.14818951, -1138501.8, 186192.64, 0.00000008230677, 10.001366, 9.999634 
3.6503312e+2, 1.748292e+2, -1078571.5, -1195977.8, -7795.8105, 0.04165941, 0.22437447, -1078056.1, 148631.6, 0.0, 10.001151, 9.999607 
3.6503053e+2, 1.8482864e+2, -1054069.5, -1184807.3, 40438.094, 0.021138739, 0.2376732, -1042572.75, 86120.42, 0.0, 10.000859, 9.999154 
3.650291e+2, 1.9482641e+2, -1027696.75, -1127439.3, 20216.455, 0.062680565, 0.06359077, -1023754.94, 6959.223, 0.0, 10.000393, 9.999103 
3.6502686e+2, 2.0482555e+2, -916593.06, -996265.25, 10086.254, 0.055201244, 0.062011722, -915336.0, 17386.34, 0.0, 10.000367, 9.999343 
3.650237e+2, 2.1482584e+2, -764360.94, -875742.25, -12034.472, -0.011824769, 0.11793057, -763075.44, 71644.36, 0.0, 10.000748, 9.999316 
3.6502123e+2, 2.2482574e+2, -700039.75, -820333.94, 9404.236, -0.02347068, 0.1955081, -699309.0, 37411.81, 0.0, 10.000643, 9.999072 
3.6501953e+2, 2.3482496e+2, -696382.25, -771353.75, -6854.958, 0.038718913, 0.1739351, -695760.6, -57032.383, 0.0, 10.000008, 9.9990425 
3.650165e+2, 2.4482363e+2, -623655.75, -740330.5, -48817.56, 0.03673642, 0.16863689, -605924.75, -65184.688, 0.0, 10.000054, 9.998568 
3.65012e+2, 2.5482157e+2, -421646.2, -592991.4, -64266.938, -0.026784541, 0.06714413, -400220.56, 42537.848, 0.0, 10.000775, 9.998554 
3.650092e+2, 2.648199e+2, -308728.3, -493182.75, 32242.625, -0.032570925, 0.05191288, -303254.72, 41517.984, 0.0, 10.000936, 9.99847 
3.6500818e+2, 2.748181e+2, -271923.6, -432246.22, 11529.645, 0.026945729, -0.009037705, -271098.7, -24311.07, 0.0, 10.000537, 9.998415 
3.6500588e+2, 2.8481686e+2, -175990.17, -267475.28, 1728.9683, -0.014007483, 0.005440433, -175957.5, -27160.787, 0.000000055764154, 10.000211, 9.999042 
3.6500248e+2, 2.948165e+2, -127973.766, -195185.22, -12557.966, -0.13750124, 0.012210401, -125704.05, -74906.51, 0.0000011855267, 9.999869, 9.999026 
3.6500403e+2, 3.0481434e+2, -92850.2, -128441.484, 5337.5884, 0.15950441, -0.10692976, -92066.97, -92066.97, 0.0000067298934, 9.999701, 9.999239 
3.6499962e+2, 3.1481573e+2, -72431.49, -63491.016, -62356.98, -0.10012766, 0.06793239, -5444.247, -5444.247, 0.00002565761, 9.999524, 9.999771 
3.7504536e+2, 1.2483129e+2, -1440519.8, -1594900.5, -118086.22, -0.10645516, 0.10867111, -1376633.3, 340030.9, 0.0001191897, 10.00181, 9.99993 
3.7504396e+2, 1.3483116e+2, -1575046.9, -1587376.6, 35161.348, 0.055627145, 0.046237558, -1545514.0, 73149.03, 0.00005856906, 10.000207, 10.000081 
3.750408e+2, 1.4483164e+2, -1564958.6, -1559454.1, 74534.99, -0.0315259, 0.101202264, -1487620.6, 33037.445, 0.000020069963, 9.999706, 9.999833 
3.7503806e+2, 1.5483174e+2, -1310017.8, -1403209.8, 87538.8, -0.15731105, 0.09550136, -1257446.1, 165212.61, 0.0000038584762, 10.000857, 9.999683 
3.7503633e+2, 1.6483156e+2, -1176975.4, -1326503.0, 3631.0964, -0.10399999, 0.13323207, -1176887.3, 147774.89, 0.00000020238203, 10.001289, 9.999311 
3.7503487e+2, 1.7483103e+2, -1113027.0, -1255075.9, 1591.5907, 0.06578691, 0.11372257, -1113009.1, 113659.68, 0.0, 10.00109, 9.999231 
3.7503237e+2, 1.8483078e+2, -1081644.0, -1209807.9, 7071.8525, 0.08963286, 0.1796123, -1081255.0, 47417.906, 0.0, 10.000723, 9.999045 
3.75029e+2, 1.9483043e+2, -1054298.9, -1150111.8, 19847.252, -0.019926643, 0.20248692, -1050350.4, -19672.734, 0.0, 10.0002575, 9.999009 
3.7502643e+2, 2.0482971e+2, -950337.9, -1028123.56, 8688.821, -0.053987607, 0.22814012, -949379.2, -16694.639, 0.0, 10.0002, 9.999206 
3.7502462e+2, 2.1482831e+2, -803048.6, -908238.6, 16698.064, -0.024531372, 0.13051727, -800461.56, 34235.094, 0.0, 10.000545, 9.999189 
3.7502205e+2, 2.2482726e+2, -725344.2, -834081.6, -32692.828, -0.029080953, 0.119020455, -716271.75, 20434.393, 0.0, 10.000467, 9.999065 
3.7501872e+2, 2.3482628e+2, -719455.1, -783601.5, -16700.414, -0.07584731, 0.0769652, -715367.7, -76652.29, 0.0, 9.999844, 9.999041 
3.7501597e+2, 2.448254e+2, -639100.2, -743037.6, -37745.254, -0.0501735, 0.112475, -626839.25, -86116.234, 0.0, 9.999928, 9.998611 
3.7501368e+2, 2.5482425e+2, -443401.38, -603471.56, -19515.656, 0.030935094, 0.104122765, -441056.38, 1675.7153, 0.0, 10.000622, 9.998559 
3.750114e+2, 2.6482278e+2, -330078.53, -519718.8, 3478.3132, 0.06104918, 0.1183133, -330014.75, 14730.067, 0.0, 10.000855, 9.998328 
3.7500912e+2, 2.748206e+2, -293792.16, -455357.72, 14911.216, 0.030152177, 0.029303942, -292427.5, -45662.85, 0.0, 10.000436, 9.998308 
3.750065e+2, 2.848191e+2, -194620.75, -297381.6, -24486.674, -0.009751702, 0.02736554, -189084.17, -40306.805, 0.00000003400916, 10.000166, 9.998862 
3.7500352e+2, 2.9481822e+2, -165380.38, -248233.56, -6384.5615, -0.06604743, 0.011624276, -164891.28, -114107.74, 0.000000899484, 9.999751, 9.998726 
3.7500376e+2, 3.0481628e+2, -128006.26, -181219.06, -8387.242, 0.13335915, -0.049326744, -126715.59, -126715.59, 0.000005766145, 9.999624, 9.99891 
3.7499762e+2, 3.1481698e+2, -60861.55, -11562.603, 41880.63, -0.33169976, 0.081377774, 12384.052, 12384.052, 0.000023929499, 9.999408, 10.000182 
3.850474e+2, 1.24835275e+2, -1594627.6, -1655403.4, -101668.33, -0.012259318, 0.16519733, -1518903.0, 197723.56, 0.00012316402, 10.000713, 10.000038 
3.8504434e+2, 1.3483438e+2, -1406922.3, -1523473.1, -26343.465, 0.027517162, 0.038708497, -1401244.6, 217386.75, 0.000061385945, 10.001426, 9.999938 
3.8504186e+2, 1.4483456e+2, -1342316.8, -1467217.0, 50864.324, 0.035289343, 0.07801111, -1324223.8, 196404.69, 0.000022093489, 10.001312, 9.999682 
3.8503903e+2, 1.5483473e+2, -1393322.6, -1459512.1, 25413.307, -0.10827002, 0.09443908, -1384690.9, 37937.51, 0.000004863891, 10.000373, 9.999522 
3.8503745e+2, 1.648343e+2, -1327072.3, -1443332.8, -11791.252, -0.06699059, 0.13485695, -1325888.4, -1253.4944, 0.00000029520132, 10.000422, 9.998951 
3.8503632e+2, 1.7483328e+2, -1083576.6, -1277430.3, -41331.453, 0.09185259, 0.10053561, -1075132.3, 151515.34, 0.0, 10.001437, 9.99892 
3.850336e+2, 1.8483296e+2, -961887.94, -1154113.0, -38180.94, 0.10691415, 0.17566825, -954581.9, 174070.97, 0.0, 10.001542, 9.999037 
3.8502952e+2, 1.9483288e+2, -1005784.1, -1133051.5, -54983.008, 0.00032903554, 0.22476079, -985320.4, 45334.51, 0.0, 10.000595, 9.998972 
3.8502678e+2, 2.0483218e+2, -939607.56, -1032576.4, 12705.128, -0.033173606, 0.25809327, -937902.56, -5241.1675, 0.0, 10.000313, 9.999125 
3.850254e+2, 2.1483058e+2, -787614.75, -914088.94, -3122.6045, 0.0020329515, 0.14999342, -787537.7, 47137.21, 0.0, 10.000694, 9.999088 
3.850229e+2, 2.2482935e+2, -716959.56, -849896.7, -56636.43, 0.008964152, 0.13561481, -696102.56, 40583.883, 0.0, 10.000612, 9.99888 
3.8501918e+2, 2.3482832e+2, -698771.06, -792483.8, -88496.19, -0.014259369, 0.10363451, -645492.06, -6794.2275, 0.0, 10.000075, 9.998861 
3.850165e+2, 2.4482755e+2, -595460.4, -677651.56, -28867.867, 0.012772479, 0.13971424, -586334.44, -45630.438, 0.0, 10.000055, 9.998977 
3.8501474e+2, 2.548267e+2, -417940.1, -555677.25, -18146.14, 0.0843711, 0.117262915, -415589.56, 27118.982, 0.0, 10.000638, 9.998874 
3.8501254e+2, 2.6482517e+2, -349950.13, -538480.0, 15854.099, 0.103368916, 0.11789972, -348626.2, -3905.0781, 0.0, 10.000758, 9.998253 
3.8500997e+2, 2.7482283e+2, -301582.03, -464159.56, -1693.7572, 0.08266099, 0.02300693, -301564.4, -54820.773, 0.0, 10.000412, 9.998257 
3.8500714e+2, 2.8482166e+2, -182778.23, -294698.16, 4421.528, 0.043421194, 0.05518095, -182603.83, -33849.33, 0.000000026095549, 10.000272, 9.998822 
3.8500386e+2, 2.9482135e+2, -91577.53, -215316.16, 3019.742, -0.018735843, 0.09635316, -91503.88, -40747.848, 0.00000066980994, 10.000279, 9.998691 
3.8500318e+2, 3.0481878e+2, -100604.62, -236947.95, 35456.1, 0.10467602, 0.0080293985, -91935.47, -91935.47, 0.000005131084, 10.000096, 9.998305 
3.8499814e+2, 3.148184e+2, -47437.32, 24931.53, 42835.664, -0.20088387, 0.08696139, 44820.332, 44820.332, 0.000023471404, 9.999373, 10.000451 
3.9504927e+2, 1.24839894e+2, -1648857.1, -1742352.4, -141387.27, 0.021025648, 0.24005775, -1546689.6, 169893.02, 0.0001272644, 10.000637, 9.999474 
3.9504403e+2, 1.3483782e+2, -1475036.8, -1647172.5, 16826.725, -0.18419947, 0.08050436, -1473407.4, 145193.08, 0.00006380605, 10.001375, 9.999109 
3.9504296e+2, 1.4483699e+2, -1372246.6, -1508752.8, -2918.0122, -0.03340403, 0.074526146, -1372184.4, 148422.97, 0.000023677207, 10.001213, 9.999449 
3.9504108e+2, 1.5483691e+2, -1406955.4, -1487273.4, 6174.231, 0.015283705, 0.081860796, -1406483.5, 16124.587, 0.000005569423, 10.000366, 9.999334 
3.9503947e+2, 1.648365e+2, -1355575.1, -1481525.3, 4821.421, 0.0581069, 0.14577594, -1355390.9, -30776.71, 0.00000035120044, 10.000339, 9.998729 
3.9503703e+2, 1.7483585e+2, -1113642.6, -1314217.4, 14873.119, -0.016818319, 0.17162251, -1112545.8, 114079.0, 0.0, 10.001333, 9.998719 
3.950338e+2, 1.8483508e+2, -979646.56, -1157751.5, -88109.16, -0.060584925, 0.2117242, -943425.06, 185208.98, 0.0, 10.001393, 9.999087 
3.9503014e+2, 1.9483386e+2, -1021343.0, -1129979.3, -75449.6, -0.030282961, 0.14410104, -982692.8, 47952.27, 0.0, 10.000447, 9.999062 
3.950275e+2, 2.0483312e+2, -964242.06, -1040903.56, 9871.272, -0.023336528, 0.16555262, -962991.44, -30340.059, 0.0, 10.000131, 9.999156 
3.9502564e+2, 2.1483265e+2, -818856.75, -923166.8, 30654.215, -0.07650032, 0.16672294, -810515.25, 24139.3, 0.0, 10.000463, 9.999133 
3.9502335e+2, 2.2483206e+2, -767449.7, -912064.0, -89269.484, -0.04123538, 0.2313469, -724877.06, 11784.545, 0.0, 10.000425, 9.998547 
3.9502054e+2, 2.3483104e+2, -749131.4, -855453.5, -90098.93, 0.07919779, 0.2396179, -697679.25, -59003.344, 0.0, 9.999897, 9.998514 
3.9501768e+2, 2.4483006e+2, -565968.6, -588106.6, -22369.707, 0.090291105, 0.24040292, -552079.1, -11395.344, 0.0, 9.99993, 9.999659 
3.9501467e+2, 2.5482878e+2, -387656.53, -459005.06, 19857.57, -0.020964203, 0.10745178, -382502.16, 60185.863, 0.0, 10.000487, 9.999615 
3.9501217e+2, 2.6482713e+2, -363818.72, -547183.4, -11470.495, -0.040392116, 0.05561643, -363103.94, -18403.17, 0.0, 10.000665, 9.998243 
3.9501023e+2, 2.7482486e+2, -322667.4, -482637.22, 2879.4568, 0.030157074, -0.028292313, -322615.6, -75890.75, 0.0, 10.00029, 9.998198 
3.950073e+2, 2.848245e+2, -188195.66, -278310.34, -10045.51, 0.00046834475, 0.083193086, -187089.4, -38360.465, 0.000000010243951, 10.00017, 9.998978 
3.950031e+2, 2.9482576e+2, -101020.734, -194730.1, 24638.371, -0.16442467, 0.27258047, -94937.62, -44222.344, 0.0000005130985, 10.000119, 9.998906 
3.9500186e+2, 3.0482185e+2, -161038.66, -357578.88, -769.7313, -0.069743015, 0.07091188, -161035.66, -161035.66, 0.0000059963604, 10.000069, 9.997492 
3.9500022e+2, 3.1481943e+2, -57682.586, 36037.527, 82531.94, -0.002667123, 0.036187455, 84084.72, 84084.72, 0.000027747768, 9.99924, 10.000591 
4.050515e+2, 1.2484326e+2, -1486043.8, -1706204.3, -95707.01, 0.14166825, 0.20733194, -1450256.0, 266292.4, 0.0001282802, 10.001908, 9.99912 
4.0504527e+2, 1.3484128e+2, -1566437.1, -1746041.9, -909.8124, -0.15975879, 0.10213602, -1566432.5, 52134.406, 0.00006493345, 10.000975, 9.998628 
4.050453e+2, 1.4484003e+2, -1453771.5, -1581576.4, 41634.063, 0.11461231, 0.09419612, -1441405.3, 79173.055, 0.00002457309, 10.00079, 9.999158 
4.0504196e+2, 1.5483953e+2, -1274193.3, -1456685.6, 6297.092, 0.027596734, 0.08646752, -1273976.3, 148606.52, 0.000005781208, 10.001407, 9.999051 
4.0504006e+2, 1.648389e+2, -1217988.5, -1415705.3, 54049.477, 0.0463547, 0.14351524, -1204177.9, 120412.664, 0.0000003430959, 10.001288, 9.998712 
4.050383e+2, 1.748382e+2, -1247840.9, -1382968.1, 42394.61, 0.033835728, 0.16439867, -1235641.5, -9040.407, 0.0, 10.00042, 9.998682 
4.0503526e+2, 1.8483728e+2, -1123594.0, -1234930.8, -27871.826, 0.003819826, 0.19494337, -1117006.5, 11604.868, 0.0, 10.00046, 9.999 
4.0503132e+2, 1.9483574e+2, -888527.4, -1077495.1, -53231.992, 0.0041719037, 0.10754046, -874563.8, 156061.38, 0.0, 10.00142, 9.998955 
4.0502843e+2, 2.0483491e+2, -776732.3, -951435.6, 38202.6, 0.0032423707, 0.12850733, -768743.8, 163888.38, 0.0, 10.001426, 9.999136 
4.0502653e+2, 2.1483463e+2, -828286.3, -932948.4, 19326.291, -0.021832412, 0.14761207, -824831.6, 9802.683, 0.0, 10.000419, 9.999082 
4.0502408e+2, 2.2483407e+2, -813196.06, -939180.25, -49262.957, 0.014127682, 0.2195015, -796220.4, -59578.934, 0.0, 10.000136, 9.998502 
4.0502107e+2, 2.3483291e+2, -650456.3, -820792.56, -56856.047, 0.11766552, 0.22041295, -633222.2, 5434.8745, 0.0, 10.000614, 9.998417 
4.050182e+2, 2.4483189e+2, -470150.28, -570149.1, 26749.67, 0.12507477, 0.23586223, -463444.44, 77221.9, 0.0, 10.000707, 9.999409 
4.0501556e+2, 2.548309e+2, -411566.1, -488937.72, -31026.33, 0.03005083, 0.15343629, -400661.3, 42008.977, 0.0, 10.00043, 9.999426 
4.0501288e+2, 2.648295e+2, -405611.38, -534147.75, -70625.414, -0.0041910536, 0.11819912, -374389.5, -29708.068, 0.0, 10.000217, 9.998544 
4.050103e+2, 2.748273e+2, -343220.63, -461996.03, -59646.965, 0.035741653, 0.009480095, -318437.9, -71734.305, 0.0, 9.999996, 9.99848 
4.0500736e+2, 2.8482696e+2, -228919.78, -314865.0, -16522.12, 0.011217018, 0.11755929, -225853.0, -77145.84, 0.0000000008315615, 9.999948, 9.9988365 
4.0500402e+2, 2.948282e+2, -98383.07, -201169.27, -37680.08, -0.07499909, 0.311344, -86049.88, -35354.96, 0.0000007104038, 10.00016, 9.998839 
4.0500194e+2, 3.0482376e+2, -123605.69, -346101.78, -28241.928, -0.067491725, 0.06170427, -120076.84, -120076.84, 0.000009515816, 10.000348, 9.997438 
4.05001e+2, 3.1482178e+2, 53142.813, 67928.99, 54960.184, 0.12886243, 0.08098921, 115991.1, 115991.1, 0.000039448827, 10.000046, 10.000435 
4.1505298e+2, 1.24845184e+2, -1484708.8, -1709717.5, -124583.52, 0.0088634, 0.063176446, -1429349.3, 287176.5, 0.00012596608, 10.001918, 9.999092 
4.1504747e+2, 1.3484477e+2, -1556909.8, -1749761.5, -24339.436, -0.08173285, 0.11385945, -1553885.4, 64645.254, 0.00006410072, 10.001048, 9.998572 
4.150484e+2, 1.4484364e+2, -1479909.5, -1622052.8, 47931.44, 0.29792845, 0.13175793, -1465257.1, 55285.02, 0.00002430965, 10.000748, 9.998897 
4.1504142e+2, 1.5484266e+2, -1303944.4, -1497699.5, 49318.883, -0.20763524, 0.10617509, -1292113.1, 130438.58, 0.0000053776803, 10.001332, 9.998801 
4.150388e+2, 1.6484155e+2, -1228293.9, -1411288.4, 6835.6753, -0.24582416, 0.12447619, -1228038.9, 96524.37, 0.0000002359893, 10.001176, 9.998794 
4.1503957e+2, 1.7484047e+2, -1251997.8, -1372366.3, 27040.43, 0.08104681, 0.09675367, -1246202.1, -19627.152, 0.0, 10.0003395, 9.998791 
4.1503742e+2, 1.8483959e+2, -1153123.9, -1271977.1, -9306.415, 0.13752393, 0.13402653, -1152399.5, -23815.127, 0.0, 10.000357, 9.998792 
4.150325e+2, 1.9483848e+2, -923557.25, -1116269.6, -1987.3741, -0.053053707, 0.10913222, -923536.75, 107058.39, 0.0, 10.001283, 9.998747 
4.1502923e+2, 2.0483756e+2, -808812.94, -985311.06, -13751.492, -0.09180618, 0.13694605, -807748.0, 124856.336, 0.0, 10.00127, 9.998987 
4.1502756e+2, 2.1483655e+2, -867169.2, -961854.8, -4212.231, 0.011192233, 0.09998881, -866982.1, -32368.082, 0.0, 10.000196, 9.99899 
4.1502464e+2, 2.2483546e+2, -828653.94, -924476.0, -47167.918, 0.029883334, 0.111388914, -809331.94, -72706.53, 0.0, 9.999936, 9.9987 
4.1502032e+2, 2.3483388e+2, -660749.2, -800204.3, -22443.348, -0.050897256, 0.048326362, -657226.25, -18584.486, 0.0, 10.000437, 9.998642 
4.1501763e+2, 2.4483308e+2, -566049.2, -740800.9, 3606.0688, -0.040374324, 0.12854277, -565974.8, -25323.334, 0.0, 10.000581, 9.998297 
4.150167e+2, 2.5483286e+2, -511733.22, -664850.75, -23479.648, 0.0689581, 0.23800477, -508213.66, -65556.766, 0.0, 10.000287, 9.998286 
4.1501415e+2, 2.64832e+2, -373459.8, -440049.47, -92002.29, 0.0685754, 0.28242466, -308913.1, 35752.24, 0.0, 10.000113, 9.999236 
4.1500974e+2, 2.7483025e+2, -313611.7, -364499.34, -52013.734, -0.06353917, 0.14526786, -281152.0, -34472.78, 0.0, 9.999859, 9.9992075 
4.150069e+2, 2.8482926e+2, -257968.34, -379212.63, -27297.193, -0.071705855, 0.16935208, -252106.05, -103418.12, 0.00000000001177225, 9.999943, 9.998409 
4.1500586e+2, 2.9482865e+2, -142424.81, -269578.13, -10631.908, 0.04322965, 0.22244285, -141541.95, -90847.195, 0.0000013022876, 10.000047, 9.998433 
4.1500276e+2, 3.0482453e+2, -69794.72, -218517.11, -43933.164, -0.057304792, -0.018243428, -57786.3, -57786.3, 0.000014575742, 10.000295, 9.99833 
4.1499966e+2, 3.1482622e+2, 14332.839, 29378.791, 60285.613, -0.08843635, 0.27898654, 82609.01, 82609.01, 0.000055427667, 9.999887, 10.000234 
4.2505515e+2, 1.2484811e+2, -1550544.3, -1753533.0, 13790.44, 0.07073066, -0.014629868, -1549611.6, 166879.9, 0.00012015749, 10.001506, 9.998987 
4.250488e+2, 1.34848e+2, -1466354.4, -1716957.4, -31161.096, -0.0705057, 0.06977731, -1462537.8, 155956.72, 0.00006079175, 10.001709, 9.998474 
4.2505053e+2, 1.448468e+2, -1366736.9, -1595047.1, 93116.664, 0.40487802, 0.09791547, -1333575.6, 186932.28, 0.00002257458, 10.001638, 9.998651 
4.2504302e+2, 1.5484564e+2, -1357482.5, -1547902.0, 50392.14, -0.15185487, 0.07665274, -1344969.1, 77551.43, 0.0000044461326, 10.001075, 9.998574 
4.2503995e+2, 1.6484451e+2, -1263056.5, -1420883.0, 33999.176, -0.22428547, 0.10233442, -1256043.9, 68488.74, 0.00000009724189, 10.000925, 9.998844 
4.2504045e+2, 1.7484334e+2, -1123254.5, -1302299.8, 18820.75, 0.10095936, 0.06236547, -1121297.5, 105246.85, 0.0, 10.0012, 9.998858 
4.250384e+2, 1.848424e+2, -1038329.44, -1229977.4, 36639.42, 0.16955405, 0.0948019, -1031563.5, 96990.47, 0.0, 10.001178, 9.998695 
4.25034e+2, 1.9484125e+2, -1002359.5, -1168576.8, 23326.85, 0.003634414, 0.07516539, -999147.9, 31417.736, 0.0, 10.000776, 9.998641 
4.250308e+2, 2.0484038e+2, -930170.44, -1056998.9, 14372.193, -0.016078183, 0.11858877, -928562.1, 4013.029, 0.0, 10.0005045, 9.998859 
4.2502862e+2, 2.1483946e+2, -858740.1, -977372.7, -9037.966, 0.102328286, 0.106895775, -858055.5, -23469.953, 0.0, 10.000335, 9.998822 
4.2502546e+2, 2.2483827e+2, -728758.8, -855930.2, 19037.832, 0.09914229, 0.11004444, -725970.0, 10627.515, 0.0, 10.000541, 9.998871 
4.2502108e+2, 2.3483661e+2, -550082.75, -723157.9, 6438.2295, -0.041980445, 0.01897783, -549843.6, 88769.13, 0.0, 10.001107, 9.99884 
4.2501828e+2, 2.4483569e+2, -503401.9, -732552.06, 58699.66, -0.052451536, 0.08623495, -489240.44, 51383.176, 0.0, 10.001101, 9.998109 
4.250172e+2, 2.5483522e+2, -493589.63, -682980.94, 69495.75, 0.086388074, 0.19260174, -470824.97, -28191.564, 0.0, 10.000512, 9.998063 
4.2501473e+2, 2.648345e+2, -337837.8, -425359.88, 59029.258, 0.10976767, 0.2651107, -308117.7, 36524.055, 0.0, 10.000368, 9.999226 
4.2501068e+2, 2.7483332e+2, -196372.13, -307921.06, 13818.936, 0.015196458, 0.18677248, -194685.7, 51965.03, 0.0, 10.000669, 9.999214 
4.2500773e+2, 2.8483212e+2, -188492.58, -365582.53, 44079.875, -0.0017193939, 0.20370367, -178127.25, -29465.633, 0.0000000012455732, 10.000546, 9.998188 
4.2500618e+2, 2.948306e+2, -162243.08, -304255.75, 38057.06, 0.08492336, 0.18918942, -152687.39, -102009.266, 0.0000019825331, 10.000035, 9.998192 
4.250026e+2, 3.0482733e+2, -92282.46, -161078.3, 37215.406, -0.06455682, 0.013888671, -76002.94, -76002.94, 0.000019679212, 9.999858, 9.998934 
4.250002e+2, 3.1482938e+2, -8284.297, 17248.832, 8912.107, 0.00094465545, 0.2864442, 20051.816, 20051.816, 0.00007104561, 9.999734, 10.000229 
4.3505725e+2, 1.2485206e+2, -1571463.9, -1775851.6, 85596.91, 0.047982946, -0.032915916, -1540352.1, 176093.88, 0.00011272219, 10.001445, 9.9988575 
4.3504897e+2, 1.3485101e+2, -1475904.0, -1729740.4, -5545.276, -0.26811886, -0.030768387, -1475782.9, 142675.14, 0.00005585788, 10.001696, 9.99839 
4.3505123e+2, 1.4484942e+2, -1397081.5, -1644844.4, 58403.457, 0.26109606, -0.019195335, -1384004.6, 136471.8, 0.000019900395, 10.001572, 9.998345 
4.350462e+2, 1.5484847e+2, -1375268.1, -1586864.9, 45983.1, 0.013573926, 0.0056245076, -1365707.4, 56782.305, 0.0000034951138, 10.001072, 9.998313 
4.3504292e+2, 1.6484766e+2, -1274692.8, -1419438.3, 26476.832, -0.05625009, 0.07279254, -1270001.6, 54498.273, 0.000000032016867, 10.000826, 9.998897 
4.3504044e+2, 1.7484677e+2, -1134829.9, -1300880.5, 45753.66, -0.058951374, 0.056009736, -1123057.5, 103451.62, 0.0, 10.0011, 9.998911 
4.350378e+2, 1.848457e+2, -1057832.6, -1237789.1, 6590.5713, -0.043727487, 0.07434391, -1057591.6, 70928.44, 0.0, 10.001038, 9.998713 
4.3503538e+2, 1.9484419e+2, -1021387.2, -1172774.4, 24316.982, 0.02696597, 0.01462923, -1017577.06, 12958.089, 0.0, 10.000629, 9.998683 
4.350326e+2, 2.0484349e+2, -967261.8, -1095853.0, -8743.305, 0.08247863, 0.08214711, -966670.06, -34126.06, 0.0, 10.000334, 9.998675 
4.3502927e+2, 2.1484332e+2, -897333.9, -1019428.1, 460.67566, 0.0989225, 0.15961243, -897332.2, -62782.824, 0.0, 10.000166, 9.998614 
4.3502605e+2, 2.2484265e+2, -749702.1, -853514.7, 24727.338, 0.07354337, 0.22103268, -744113.1, -7556.2813, 0.0, 10.000348, 9.998979 
4.3502292e+2, 2.3484112e+2, -570050.94, -717783.06, 44213.316, -0.0017461899, 0.13346864, -557829.75, 80740.09, 0.0, 10.00091, 9.99897 
4.350197e+2, 2.4483971e+2, -479532.06, -648178.44, 21407.809, -0.047398463, 0.110956624, -476857.0, 63725.92, 0.0, 10.000958, 9.99875 
4.3501648e+2, 2.5483808e+2, -472001.34, -598397.6, 63386.777, -0.07135827, 0.033840455, -445690.34, -3091.5754, 0.0, 10.000349, 9.998715 
4.350141e+2, 2.6483712e+2, -395163.8, -530909.1, 56379.402, -0.022078902, 0.083636574, -374801.9, -30192.88, 0.0, 10.0003, 9.998536 
4.3501252e+2, 2.7483648e+2, -258323.64, -414518.0, 44037.93, 0.09556038, 0.13029733, -246763.1, -145.91231, 0.0, 10.000564, 9.998535 
4.350092e+2, 2.848356e+2, -206784.08, -384322.6, 12716.062, 0.055942148, 0.21371385, -205877.92, -57249.89, 0.000000012355592, 10.000476, 9.998087 
4.3500468e+2, 2.9483426e+2, -191684.9, -337312.5, 39842.715, -0.11778833, 0.22634043, -181496.95, -130853.555, 0.0000027662056, 9.999925, 9.9980135 
4.3500108e+2, 3.048322e+2, -80853.4, -132981.0, 21602.607, -0.23714729, 0.1713622, -73064.66, -73064.66, 0.000024180765, 9.999834, 9.999141 
4.3500155e+2, 3.14831e+2, -31752.555, 4191.3193, -6757.562, 0.08319859, 0.094814785, 5419.777, 5419.777, 0.00008333817, 9.999589, 10.000208 
4.4505954e+2, 1.2485428e+2, -1454732.3, -1712261.4, 125488.98, 0.11343017, -0.09371998, -1403697.5, 312724.06, 0.00010688196, 10.002257, 9.998889 
4.4505075e+2, 1.348538e+2, -1538712.9, -1747223.0, -127575.27, -0.2190368, -0.043594792, -1478211.8, 140218.05, 0.000051033883, 10.001237, 9.998492 
4.4505218e+2, 1.4485249e+2, -1485739.1, -1655469.5, 19054.213, 0.24880439, -0.020311581, -1483626.4, 36819.234, 0.000017295639, 10.000822, 9.9986315 
4.4504794e+2, 1.5485165e+2, -1378575.9, -1556155.0, 4345.0435, 0.0996428, -0.018160751, -1378469.6, 43987.375, 0.0000027656245, 10.000903, 9.998606 
4.4504473e+2, 1.6485098e+2, -1252582.6, -1424221.5, 55857.95, 0.047264706, 0.055352464, -1236005.4, 88460.266, 0.000000035556127, 10.001009, 9.9987955 
4.4504163e+2, 1.7485036e+2, -1135594.6, -1317532.8, 33697.805, -0.040768664, 0.073472254, -1129553.8, 96919.734, 0.0, 10.001135, 9.9987955 
4.450387e+2, 1.848494e+2, -1033275.4, -1216958.5, 8066.2593, -0.052940715, 0.10605228, -1032921.8, 95562.3, 0.0, 10.001205, 9.998756 
4.450365e+2, 1.9484773e+2, -941347.4, -1128762.5, -10395.482, 0.060968466, 0.029386988, -940772.56, 89728.51, 0.0, 10.001183, 9.998706 
4.4503376e+2, 2.0484695e+2, -829100.5, -1005471.0, 7260.141, 0.13177878, 0.08169087, -828802.2, 103707.97, 0.0, 10.001214, 9.9988575 
4.4503036e+2, 2.1484686e+2, -723393.2, -910429.06, 9857.715, 0.14432904, 0.15017831, -722875.06, 111638.56, 0.0, 10.001279, 9.998813 
4.4502717e+2, 2.2484633e+2, -647549.0, -829104.1, 71069.85, 0.119996466, 0.22543181, -623037.8, 113482.305, 0.0, 10.00115, 9.998762 
4.4502428e+2, 2.34845e+2, -609385.9, -766092.1, 34151.938, 0.06252493, 0.17995736, -602266.4, 36266.86, 0.0, 10.000756, 9.998716 
4.4502082e+2, 2.4484357e+2, -527444.9, -644018.6, -3591.141, -0.002700457, 0.15684485, -527334.4, 13212.123, 0.0, 10.000509, 9.999 
4.450167e+2, 2.548418e+2, -449272.66, -557107.1, -23667.174, -0.07443289, 0.039407473, -444306.9, -1744.9314, 0.0, 10.000376, 9.998987 
4.4501424e+2, 2.6484078e+2, -406124.0, -552185.8, 25657.934, -0.027475508, 0.07648475, -401747.94, -57175.426, 0.0, 10.000304, 9.998377 
4.450133e+2, 2.748402e+2, -292540.94, -451454.38, 17391.777, 0.13604148, 0.14446624, -290659.8, -44078.004, 0.0, 10.000421, 9.998344 
4.4500995e+2, 2.8483927e+2, -183608.95, -350484.03, 28123.926, 0.08913111, 0.22572741, -178996.63, -30403.62, 0.00000003062236, 10.000518, 9.998314 
4.4500482e+2, 2.948379e+2, -109180.81, -266987.5, 42133.684, -0.10516291, 0.212197, -98635.93, -48028.53, 0.0000032986038, 10.000364, 9.998287 
4.4500166e+2, 3.048364e+2, -44156.87, -139072.89, 76578.82, -0.16592047, 0.21274608, -1522.8232, -1522.8232, 0.000027227657, 10.000176, 9.998926 
4.4500214e+2, 3.1483436e+2, 44848.047, 47892.69, -73983.88, 0.17676659, 0.065167286, 120369.914, 120369.914, 0.000091368296, 10.000079, 10.000264 
4.5506114e+2, 1.24854736e+2, -1452354.1, -1703668.0, 143392.14, -0.03972564, -0.21585141, -1387351.8, 329066.94, 0.000102696926, 10.002236, 9.998958 
4.550535e+2, 1.3485633e+2, -1517785.8, -1720346.5, -149124.42, -0.11214065, 0.024404213, -1438800.3, 179609.44, 0.000047349753, 10.001291, 9.998655 
4.5505285e+2, 1.4485592e+2, -1432292.8, -1530960.1, 10781.592, 0.18526888, 0.08321082, -1431128.4, 89288.13, 0.000015080613, 10.000771, 9.999508 
4.5504785e+2, 1.5485507e+2, -1325202.6, -1433342.9, 26345.139, -0.042609774, 0.0029590835, -1319125.9, 103297.37, 0.0000021144335, 10.000859, 9.999466 
4.5504504e+2, 1.6485451e+2, -1276444.9, -1455667.1, 41939.188, -0.06223614, 0.050815184, -1267116.4, 57313.453, 0.00000004449902, 10.000927, 9.998618 
4.5504358e+2, 1.7485413e+2, -1156756.8, -1352050.4, 56490.734, 0.0046716304, 0.11293104, -1141593.5, 84843.5, 0.0, 10.001092, 9.998579 
4.5504072e+2, 1.8485343e+2, -1050609.5, -1228916.1, -9472.795, -0.0073914765, 0.18527742, -1050107.6, 78338.64, 0.0, 10.0011015, 9.998722 
4.5503688e+2, 1.9485195e+2, -968717.6, -1146013.9, 2971.4548, -0.054353304, 0.12616235, -968667.8, 61794.598, 0.0, 10.001018, 9.998662 
4.5503378e+2, 2.048509e+2, -819004.56, -946278.25, -7811.665, -0.019091537, 0.12873888, -818526.9, 113945.63, 0.0, 10.001042, 9.999351 
4.5503137e+2, 2.1485011e+2, -718262.2, -847036.3, 27562.666, 0.08546237, 0.07715571, -712610.75, 121867.49, 0.0, 10.001054, 9.999354 
4.550284e+2, 2.2484933e+2, -713275.56, -923765.75, 41561.703, 0.09866607, 0.12732084, -705366.3, 31120.824, 0.0, 10.000961, 9.99821 
4.5502472e+2, 2.3484822e+2, -671664.5, -857976.56, 36355.082, -0.0029118948, 0.15828761, -664821.9, -26318.99, 0.0, 10.000587, 9.998171 
4.5502102e+2, 2.4484734e+2, -559491.56, -671446.06, -22871.096, -0.06105667, 0.22557268, -554999.44, -14485.627, 0.0, 10.000351, 9.99889 
4.5501748e+2, 2.5484633e+2, -478351.97, -578029.7, -10464.27, -0.070143946, 0.20035964, -477265.28, -34742.164, 0.0, 10.000208, 9.998929 
4.5501474e+2, 2.648454e+2, -405900.06, -524315.56, 17449.873, -0.04312459, 0.2333653, -403382.2, -58849.188, 0.0, 10.000193, 9.998615 
4.5501262e+2, 2.748443e+2, -299317.1, -433434.94, 43269.79, -0.011353078, 0.2205266, -286568.9, -40023.11, 0.0, 10.000286, 9.998526 
4.5500952e+2, 2.8484315e+2, -149951.63, -269455.25, 8228.89, -0.043517336, 0.24431118, -149387.66, -831.1723, 0.000000022691747, 10.000458, 9.998904 
4.5500606e+2, 2.9484144e+2, -69015.34, -174443.3, 54654.39, -0.06119946, 0.13904199, -45796.023, 4774.3403, 0.0000033720132, 10.000302, 9.998963 
4.5500362e+2, 3.0483994e+2, -92106.99, -224141.66, 65253.35, -0.021235902, 0.12526175, -65300.363, -65300.363, 0.000028360193, 10.000131, 9.998352 
4.5500112e+2, 3.1483895e+2, 35949.176, 60582.926, -47898.42, -0.012223289, 0.14489943, 97722.74, 97722.74, 0.00009465621, 9.999951, 10.000404 
4.650628e+2, 1.24857835e+2, -1581928.9, -1760989.1, 272869.13, -0.03138615, -0.15779199, -1384277.5, 332113.97, 0.00009773488, 10.001288, 9.999024 
4.6505606e+2, 1.348595e+2, -1457316.0, -1682268.0, -123897.12, 0.014556524, 0.07222038, -1402456.0, 215925.75, 0.000043477085, 10.001625, 9.99877 
4.650531e+2, 1.4485903e+2, -1288889.4, -1450114.5, 62613.95, 0.09808608, 0.11525132, -1267429.0, 252959.53, 0.000012657647, 10.001706, 9.999613 
4.6504864e+2, 1.5485844e+2, -1218991.5, -1368821.8, -20990.207, -0.070092365, 0.048828285, -1216106.4, 206285.34, 0.0000014631825, 10.001537, 9.999582 
4.6504632e+2, 1.6485777e+2, -1208684.9, -1408316.9, 15960.304, -0.03781321, 0.07424676, -1207416.9, 116981.15, 0.000000030371112, 10.001342, 9.998736 
4.6504548e+2, 1.7485683e+2, -1145040.5, -1331263.0, 19033.926, 0.090402484, 0.067004286, -1143115.0, 83294.766, 0.0, 10.001115, 9.998707 
4.6504244e+2, 1.8485615e+2, -1051762.5, -1218121.3, 2198.2764, 0.07148476, 0.12681748, -1051733.5, 76684.9, 0.0, 10.001018, 9.998852 
4.6503764e+2, 1.9485532e+2, -959503.0, -1130808.4, -2288.5466, -0.064862855, 0.12322131, -959472.44, 70955.414, 0.0, 10.0009985, 9.998796 
4.6503443e+2, 2.0485441e+2, -837583.3, -981197.06, 5363.778, -0.04748705, 0.14273466, -837383.25, 95053.97, 0.0, 10.001012, 9.999131 
4.650327e+2, 2.1485315e+2, -732782.75, -885491.4, -49939.14, 0.12172442, 0.06839702, -717901.7, 116547.37, 0.0, 10.001074, 9.99909 
4.650297e+2, 2.2485222e+2, -703886.44, -888020.5, -17121.688, 0.14429075, 0.10327546, -702307.9, 34151.926, 0.0, 10.000918, 9.998454 
4.6502534e+2, 2.3485133e+2, -653286.06, -820349.75, 2177.4656, 0.0067900447, 0.1337001, -653257.7, -14785.378, 0.0, 10.000614, 9.998401 
4.6502158e+2, 2.4485078e+2, -536161.6, -670231.3, 18726.592, -0.041497428, 0.22530782, -533595.06, 6885.1997, 0.0, 10.000547, 9.9987955 
4.6501875e+2, 2.5485024e+2, -412834.6, -557540.25, -1794.2148, 0.019969307, 0.2522302, -412812.34, 29674.05, 0.0, 10.000706, 9.998819 
4.650158e+2, 2.6484925e+2, -329459.78, -477226.28, 44217.777, 0.032551996, 0.27873883, -317238.75, 27258.205, 0.0, 10.000649, 9.998735 
4.650126e+2, 2.7484754e+2, -296558.25, -418056.8, 34509.44, -0.028469222, 0.19777639, -287440.66, -40926.727, 0.0, 10.000236, 9.998669 
4.6500945e+2, 2.848465e+2, -193914.52, -261393.64, 28099.486, -0.06098777, 0.21445133, -183745.78, -35223.137, 0.00000001636591, 10.000038, 9.999154 
4.6500728e+2, 2.9484558e+2, -65254.832, -128712.71, -1432.6127, 0.043666426, 0.15675391, -65222.508, -14693.762, 0.0000038591365, 10.000156, 9.999331 
4.650052e+2, 3.048439e+2, -86434.72, -235707.88, 42928.004, 0.12838462, 0.108685456, -74970.0, -74970.0, 0.000029778155, 10.000191, 9.9982815 
4.650008e+2, 3.1484318e+2, 25464.762, 38106.81, -88755.12, -0.019248161, 0.1724607, 120765.7, 120765.7, 0.00009717631, 9.999933, 10.000285 
4.7506377e+2, 1.24863386e+2, -1591728.0, -1741429.6, 238827.47, -0.15076, 0.08019881, -1416296.6, 300045.13, 0.00009217974, 10.001148, 9.999212 
4.7505796e+2, 1.3486324e+2, -1444810.5, -1644393.8, -92450.69, 0.0014693564, 0.104177974, -1408567.3, 209779.52, 0.00003847725, 10.001599, 9.999027 
4.750524e+2, 1.4486186e+2, -1339395.4, -1549516.6, 37689.887, -0.19738713, 0.07919936, -1332839.4, 187522.27, 0.000009911169, 10.001665, 9.99896 
4.750498e+2, 1.5486166e+2, -1258349.1, -1457331.4, -11430.655, -0.15025337, 0.11345482, -1257694.8, 164668.34, 0.0000009593812, 10.001554, 9.998974 
4.7504815e+2, 1.6486068e+2, -1190348.1, -1352515.4, -8678.09, -0.025297908, 0.11588985, -1189885.1, 134486.44, 0.000000014696447, 10.001267, 9.999159 
4.7504675e+2, 1.7485844e+2, -1127181.6, -1275157.8, 28968.309, 0.07199065, -0.060154315, -1121712.8, 104679.13, 0.0, 10.001037, 9.999133 
4.7504336e+2, 1.8485758e+2, -1042965.2, -1175231.5, -13050.012, 0.026896004, -0.055372264, -1041689.94, 86709.74, 0.0, 10.000906, 9.999205 
4.750384e+2, 1.9485791e+2, -951048.75, -1087820.0, 14154.989, -0.121574625, 0.022975622, -949599.1, 80797.76, 0.0, 10.000884, 9.999151 
4.7503525e+2, 2.0485754e+2, -927318.94, -1130084.0, -7441.264, -0.0958336, 0.12601295, -927046.25, 5357.7554, 0.0, 10.0008545, 9.99818 
4.7503382e+2, 2.1485609e+2, -829844.56, -1037080.25, -30119.674, 0.095939845, 0.12761037, -825555.75, 8869.01, 0.0, 10.000867, 9.998143 
4.7503057e+2, 2.2485504e+2, -658700.44, -762365.4, -43758.188, 0.10765731, 0.15195534, -642699.4, 93737.85, 0.0, 10.000765, 9.9994 
4.7502553e+2, 2.348542e+2, -609697.6, -689146.5, 6902.8936, -0.06524459, 0.08857101, -609102.3, 29340.66, 0.0, 10.000432, 9.999393 
4.750219e+2, 2.4485373e+2, -563922.06, -697457.75, 10320.779, -0.09501345, 0.142945, -563129.1, -22681.695, 0.0, 10.000407, 9.998679 
4.7501996e+2, 2.5485328e+2, -445436.3, -596344.4, 22208.074, 0.032727525, 0.19091406, -442235.97, 217.93762, 0.0, 10.000566, 9.998626 
4.75017e+2, 2.6485217e+2, -339757.3, -469921.5, 12637.421, 0.05239892, 0.2125799, -338541.72, 5923.866, 0.0, 10.000533, 9.998837 
4.750127e+2, 2.7484998e+2, -302002.94, -401559.7, 37212.414, -0.07889367, 0.071790285, -289631.1, -43145.023, 0.0, 10.000125, 9.99883 
4.7500935e+2, 2.8484935e+2, -212677.89, -296237.03, 15600.745, -0.115004465, 0.12696385, -209860.2, -61368.195, 0.0000000367379, 10.00001, 9.998934 
4.7500774e+2, 2.9485e+2, -98351.33, -173666.55, 19582.008, 0.02936785, 0.24909109, -93564.26, -43078.523, 0.000004901276, 10.0000305, 9.999094 
4.750058e+2, 3.0484807e+2, -69081.86, -165331.61, 17499.002, 0.14318661, 0.16216539, -65999.125, -65999.125, 0.000032907166, 10.000068, 9.998813 
4.750001e+2, 3.1484702e+2, -8904.774, -5727.022, -43495.543, -0.16255197, 0.14962599, 36208.652, 36208.652, 0.00010232853, 9.999839, 10.000015 
4.8506513e+2, 1.2486691e+2, -1644379.8, -1748543.0, 197163.44, -0.088823535, 0.167996, -1492535.1, 223775.75, 0.00008688649, 10.000708, 9.999384 
4.850606e+2, 1.3486621e+2, -1476399.9, -1624289.6, -136263.56, 0.1421875, 0.108410105, -1395310.5, 223008.44, 0.000032757685, 10.001223, 9.999361 
4.8505297e+2, 1.4486466e+2, -1383962.1, -1579401.9, 48996.676, -0.28094944, 0.05241019, -1372366.6, 147968.02, 0.000007215262, 10.00141, 9.998868 
4.8505202e+2, 1.5486443e+2, -1262614.5, -1476352.0, -4091.5645, -0.07624031, 0.094487, -1262536.3, 159800.75, 0.00000059770906, 10.001596, 9.998822 
4.8505032e+2, 1.6486356e+2, -1157239.4, -1324396.9, 27393.078, 0.06603105, 0.11109326, -1152864.9, 171479.55, 0.0000000048834687, 10.001454, 9.999252 
4.8504737e+2, 1.7486165e+2, -1131147.9, -1260671.5, 10534.604, 0.044351246, -0.043836847, -1130296.6, 96064.31, 0.0, 10.000964, 9.9992485 
4.8504376e+2, 1.8486083e+2, -1055586.6, -1167782.8, -5297.2817, -0.008175504, -0.04864713, -1055337.0, 73030.48, 0.0, 10.000773, 9.999305 
4.8503983e+2, 1.9486089e+2, -949419.8, -1068754.4, -23426.348, -0.057321504, -0.012764305, -944985.8, 85380.266, 0.0, 10.000837, 9.999284 
4.8503676e+2, 2.0486051e+2, -929595.3, -1153262.5, 5241.7373, -0.022288026, 0.09157376, -929472.56, 2900.9102, 0.0, 10.000922, 9.998002 
4.850347e+2, 2.148593e+2, -841646.3, -1060677.8, 14251.03, 0.10799529, 0.13668185, -840722.94, -6329.3384, 0.0, 10.000855, 9.997994 
4.8503134e+2, 2.2485852e+2, -642671.56, -745336.7, 21579.611, 0.11400445, 0.19010021, -638320.06, 98084.086, 0.0, 10.000828, 9.999495 
4.850266e+2, 2.3485789e+2, -546209.25, -652936.25, -27328.66, -0.010337154, 0.14117305, -539618.44, 98788.945, 0.0, 10.000824, 9.999464 
4.85023e+2, 2.4485706e+2, -532310.94, -685107.2, -20391.465, -0.031440537, 0.1578097, -529636.4, 10778.311, 0.0, 10.000639, 9.998652 
4.8502055e+2, 2.548558e+2, -501783.8, -625571.44, -36970.727, 0.064503096, 0.13009374, -491582.7, -49154.313, 0.0, 10.000201, 9.998599 
4.8501748e+2, 2.648547e+2, -373208.56, -459232.94, 2043.2173, 0.0759697, 0.14227974, -373160.06, -28720.816, 0.0, 10.000189, 9.999072 
4.8501357e+2, 2.7485323e+2, -211713.02, -335362.66, 691.53046, -0.021050973, 0.052526407, -211709.14, 34742.797, 0.0, 10.000636, 9.999044 
4.8501012e+2, 2.8485277e+2, -136456.73, -269004.53, 11266.329, -0.056987774, 0.120415546, -135505.94, 12950.29, 0.00000008825205, 10.00057, 9.998849 
4.8500794e+2, 2.9485345e+2, -118080.89, -195480.22, -16607.99, 0.061196953, 0.25183383, -114667.734, -64216.426, 0.0000056092463, 9.999946, 9.998984 
4.8500615e+2, 3.048516e+2, -69612.07, -132348.69, 36439.816, 0.2009567, 0.16375239, -52898.87, -52898.87, 0.000035389916, 9.999913, 9.999106 
4.8500073e+2, 3.1485018e+2, 68832.734, 15872.122, -89093.69, -0.09477574, 0.08611271, 135298.08, 135298.08, 0.00010599746, 10.000433, 9.999875 
4.9506563e+2, 1.2486839e+2, -1633213.1, -1728397.8, 41147.77, -0.19744226, 0.1090085, -1617891.5, 98407.766, 0.00007926606, 10.00072, 9.999515 
4.9506342e+2, 1.3486844e+2, -1441392.8, -1554840.0, -103816.16, 0.26476443, 0.07649243, -1379814.4, 238483.97, 0.000026309035, 10.001232, 9.99983 
4.950544e+2, 1.4486742e+2, -1371646.1, -1535135.6, 37653.254, -0.32972533, 0.030422306, -1363391.0, 156916.73, 0.0000047383246, 10.001332, 9.9992075 
4.950547e+2, 1.5486683e+2, -1246977.8, -1432801.9, 20254.58, -0.009776898, 0.0046964753, -1244795.6, 177516.92, 0.0000002991547, 10.001554, 9.99914 
4.9505228e+2, 1.6486657e+2, -1179042.5, -1354699.1, -8214.01, 0.07927463, 0.07612332, -1178659.3, 145655.88, 0.0000000005507737, 10.001385, 9.999082 
4.95047e+2, 1.7486641e+2, -1153448.6, -1291705.3, 6051.674, -0.12638184, 0.11445867, -1153184.3, 73133.61, 0.0, 10.000894, 9.999074 
4.9504328e+2, 1.8486574e+2, -1080958.4, -1187328.3, -18273.771, -0.16859682, 0.13881262, -1077906.6, 50416.992, 0.0, 10.00064, 9.99923 
4.950413e+2, 1.948642e+2, -974757.4, -1089855.8, -6669.076, -0.028414747, 0.020260325, -974372.2, 55963.867, 0.0, 10.000704, 9.999203 
4.950385e+2, 2.0486332e+2, -907688.1, -1068785.9, -14456.42, 0.032247033, 0.04656561, -906401.1, 25944.432, 0.0, 10.000748, 9.998669 
4.9503487e+2, 2.148629e+2, -819573.25, -978871.56, 28311.691, 0.007908384, 0.10107663, -814691.06, 19663.613, 0.0, 10.000688, 9.998642 
4.9503142e+2, 2.2486262e+2, -729589.75, -880967.3, 7034.3716, 0.007706327, 0.21596111, -729263.56, 7097.3345, 0.0, 10.000643, 9.998649 
4.950281e+2, 2.3486227e+2, -633387.3, -789959.8, -8229.0625, 0.022517484, 0.27883664, -632956.0, 5410.6377, 0.0, 10.000634, 9.998614 
4.950243e+2, 2.4486078e+2, -553144.2, -690108.06, -51419.836, 0.0024153974, 0.27054784, -535988.7, 4393.106, 0.0, 10.0004835, 9.998691 
4.9502003e+2, 2.5485772e+2, -517167.75, -627077.9, -34699.184, -0.045837395, 0.058025815, -507129.78, -64719.21, 0.0, 10.000069, 9.998653 
4.9501684e+2, 2.6485664e+2, -366403.56, -417328.53, 1479.1802, -0.04301578, 0.05241268, -366360.66, -21940.762, 0.0, 10.00008, 9.999408 
4.9501464e+2, 2.7485728e+2, -217639.58, -302240.97, 35715.94, -0.01292199, 0.13675919, -204578.03, 41833.99, 0.0, 10.000453, 9.999353 
4.9501127e+2, 2.848571e+2, -146602.33, -266088.56, -23599.74, -0.04025432, 0.21270277, -142110.03, 6303.2354, 0.00000018947561, 10.000472, 9.998914 
4.9500734e+2, 2.9485592e+2, -125751.06, -195406.06, -18408.021, -0.04160699, 0.16303308, -121185.54, -70760.45, 0.000005650319, 9.999884, 9.99901 
4.9500605e+2, 3.0485445e+2, -63482.848, -124493.914, 45673.336, 0.15902759, 0.10836398, -39064.42, -39064.42, 0.00003451672, 9.999919, 9.999161 
4.9500158e+2, 3.1485268e+2, 49707.543, 729.7582, -10932.033, -0.13828315, -0.022987967, 52036.836, 52036.836, 0.00010176044, 10.000319, 9.999823 
5.050668e+2, 1.24871165e+2, -1786208.5, -1779144.3, 33805.547, -0.07830656, 0.106968164, -1748686.8, -32411.44, 0.000066640154, 9.999594, 9.999696 
5.050655e+2, 1.3487162e+2, -1360808.5, -1482460.5, -42284.516, 0.34890327, 0.08473355, -1347555.0, 270714.16, 0.0000195532, 10.001639, 10.000132 
5.05056e+2, 1.4487098e+2, -1242606.0, -1471469.4, 70680.16, -0.33255732, 0.06540692, -1222537.6, 297736.5, 0.0000028130235, 10.002219, 9.999219 
5.050567e+2, 1.5487018e+2, -1232995.9, -1419824.3, -10391.754, 0.04094444, 0.01716083, -1232419.8, 189861.95, 0.00000011765629, 10.001642, 9.999182 
5.0505406e+2, 1.6487007e+2, -1204222.0, -1367656.6, -16684.246, 0.13535808, 0.10111373, -1202536.3, 121746.875, 0.000000000026416515, 10.001197, 9.999091 
5.0504804e+2, 1.748704e+2, -1160381.5, -1295574.8, -19570.361, -0.09466073, 0.18824486, -1157605.5, 68675.6, 0.0, 10.000829, 9.999087 
5.050442e+2, 1.8486951e+2, -1080332.1, -1227084.4, 9065.63, -0.13092908, 0.20617904, -1079774.3, 48514.97, 0.0, 10.000806, 9.998885 
5.050429e+2, 1.94867e+2, -939310.94, -1111168.1, -28258.482, 0.053223547, 0.0305358, -934783.6, 95527.68, 0.0, 10.001109, 9.998865 
5.0503993e+2, 2.0486589e+2, -812393.2, -970384.06, -39474.85, 0.088660285, 0.027327074, -803079.25, 129242.56, 0.0, 10.001199, 9.99911 
5.050352e+2, 2.1486597e+2, -752104.1, -894546.06, -50614.81, -0.025492452, 0.08701806, -735950.7, 98372.34, 0.0, 10.000956, 9.999078 
5.0503176e+2, 2.248657e+2, -708368.06, -906006.7, -19876.281, -0.029086247, 0.19842222, -706388.94, 29939.516, 0.0, 10.000932, 9.998344 
5.0502944e+2, 2.3486494e+2, -607545.3, -806573.06, -29710.387, 0.08831549, 0.24894106, -603204.9, 35135.313, 0.0, 10.0009575, 9.998336 
5.050257e+2, 2.4486357e+2, -495115.9, -642842.44, -27499.62, 0.087950654, 0.25945088, -490162.84, 50191.938, 0.0, 10.000794, 9.998865 
5.050205e+2, 2.5486124e+2, -443442.72, -568071.6, -30893.39, -0.01359932, 0.09996799, -436205.1, 6171.1147, 0.0, 10.000478, 9.9988575 
5.0501704e+2, 2.648603e+2, -349228.16, -413718.9, 47750.29, -0.026176978, 0.100213036, -323855.34, 20528.27, 0.0, 10.0002, 9.9993925 
5.050152e+2, 2.7486053e+2, -308364.16, -348804.47, 15743.8125, 0.039967526, 0.14545485, -302957.72, -56578.26, 0.00000000061010413, 9.999825, 9.999346 
5.0501186e+2, 2.8485993e+2, -226241.61, -322007.13, -25430.967, 0.0127046285, 0.18752685, -219907.28, -71522.53, 0.00000027597625, 9.999999, 9.998766 
5.050076e+2, 2.948584e+2, -18690.38, -165458.95, -75959.26, -0.033009674, 0.116032206, 13542.861, 63943.664, 0.0000049916057, 10.000716, 9.998823 
5.050068e+2, 3.0485743e+2, 32494.625, -75449.1, -255.46938, 0.22339876, 0.12269099, 32495.23, 32495.23, 0.000030276777, 10.000569, 9.999184 
5.050022e+2, 3.1485647e+2, -95595.38, -51088.23, -99390.766, -0.034793105, 0.063921705, 28509.783, 28509.783, 0.000090633286, 9.999242, 9.999988 
5.1506746e+2, 1.24875195e+2, -1770460.1, -1754592.4, -113858.75, -0.06659488, 0.16422094, -1648391.5, 67847.92, 0.000052165007, 9.999616, 9.999857 
5.1506644e+2, 1.3487577e+2, -1349504.5, -1466702.3, 49533.27, 0.23820214, 0.13693015, -1331374.3, 286856.5, 0.000013925394, 10.001667, 10.000227 
5.150573e+2, 1.4487544e+2, -1271357.5, -1522973.4, 26717.992, -0.47188854, 0.16024734, -1268551.8, 251681.45, 0.000001645238, 10.002179, 9.998889 
5.1505756e+2, 1.5487438e+2, -1262709.9, -1471198.1, -14783.029, -0.07434129, 0.12093181, -1261666.9, 160578.19, 0.00000003629146, 10.001595, 9.998856 
5.150551e+2, 1.6487394e+2, -1206722.3, -1346659.5, -45126.094, 0.086785324, 0.17712383, -1193432.4, 130816.98, 0.0, 10.001089, 9.999282 
5.1505e+2, 1.7487372e+2, -1160939.1, -1275011.9, -16523.496, -0.025167024, 0.18424442, -1158593.9, 67656.17, 0.0, 10.000746, 9.999262 
5.150462e+2, 1.8487231e+2, -1136190.3, -1319397.5, 4678.058, -0.05159982, 0.17165054, -1136070.9, -7808.063, 0.0, 10.000698, 9.998302 
5.150442e+2, 1.948694e+2, -992213.8, -1204178.1, 413.39563, 0.029441802, 0.01000183, -992213.0, 38078.19, 0.0, 10.001023, 9.99827 
5.1504064e+2, 2.0486814e+2, -834612.56, -973630.7, -63897.266, 0.003986743, 0.018977853, -809705.7, 122597.414, 0.0, 10.001014, 9.999178 
5.150354e+2, 2.1486835e+2, -769032.4, -890121.0, -43957.23, -0.13702334, 0.08055965, -754757.9, 79542.47, 0.0, 10.000779, 9.999194 
5.1503193e+2, 2.2486764e+2, -714332.06, -882617.2, -36417.324, -0.1278534, 0.1273416, -706789.3, 29518.793, 0.0, 10.000771, 9.998589 
5.150301e+2, 2.3486574e+2, -613562.06, -784736.56, -12045.63, 0.025418032, 0.04215013, -612718.56, 25610.688, 0.0, 10.000803, 9.998566 
5.150266e+2, 2.4486536e+2, -484778.25, -594150.6, -54661.45, 0.06610468, 0.12084383, -462143.97, 78190.57, 0.0, 10.000679, 9.999252 
5.1502144e+2, 2.548663e+2, -440187.47, -524673.5, -24741.25, -0.007105067, 0.24690302, -433475.38, 8850.742, 0.0, 10.00031, 9.999238 
5.1501757e+2, 2.648657e+2, -394166.22, -477649.22, 17653.19, -0.02554764, 0.28179315, -390586.78, -46255.83, 0.0, 10.000081, 9.999011 
5.150149e+2, 2.7486297e+2, -349669.4, -412612.84, 25280.822, -0.011032703, 0.075444385, -340772.97, -94418.22, 0.0000000018853024, 9.999723, 9.998962 
5.150116e+2, 2.8486133e+2, -259511.86, -381604.84, -15560.234, -0.055148873, 0.05010497, -257559.97, -109189.15, 0.00000034894228, 9.99996, 9.998372 
5.1500803e+2, 2.9486072e+2, -67929.94, -242881.88, -26590.86, -0.10604722, 0.10471801, -63977.69, -13598.011, 0.000004315403, 10.000601, 9.998348 
5.1500773e+2, 3.0486038e+2, 20768.637, -73232.27, -57531.355, 0.22734797, 0.19964203, 48057.48, 48057.48, 0.000026122347, 10.000483, 9.999235 
5.1500183e+2, 3.148609e+2, -93809.7, -3685.5032, -61336.477, -0.07887392, 0.28799498, 27362.555, 27362.555, 0.000081293096, 9.9990835, 10.000383 
5.250685e+2, 1.2487951e+2, -1681113.6, -1716674.1, -119505.375, 0.065632194, 0.21161585, -1578073.1, 138126.03, 0.000041919076, 10.000241, 9.999814 
5.250678e+2, 1.3487948e+2, -1355496.8, -1493228.9, 84650.34, 0.21581009, 0.14687058, -1315238.1, 302957.75, 0.000010470756, 10.001727, 10.000014 
5.2506024e+2, 1.4487922e+2, -1339150.5, -1570836.5, 9996.009, -0.36562017, 0.19515046, -1338720.0, 181477.81, 0.0000009776196, 10.001774, 9.998754 
5.250584e+2, 1.5487841e+2, -1387759.3, -1545146.6, -54708.094, -0.09343043, 0.1896178, -1370611.0, 51597.406, 0.000000005050013, 10.000786, 9.998734 
5.250555e+2, 1.6487767e+2, -1296266.4, -1393416.1, -19608.646, 0.060027037, 0.22425668, -1292457.9, 31757.787, 0.0, 10.000495, 9.999249 
5.250518e+2, 1.748766e+2, -1133043.4, -1267533.8, -44877.402, 0.07683851, 0.1547636, -1119443.8, 106779.77, 0.0, 10.000951, 9.999222 
5.250482e+2, 1.8487523e+2, -1085597.3, -1283092.0, 18164.516, 0.072563395, 0.1431952, -1083940.4, 44295.668, 0.0, 10.001009, 9.998405 
5.2504516e+2, 1.9487326e+2, -1060127.3, -1222529.1, 28870.992, 0.05776922, 0.072673924, -1055147.4, -24891.113, 0.0, 10.000528, 9.99838 
5.250413e+2, 2.0487213e+2, -930505.94, -1038480.1, 18063.213, 0.0023441757, 0.09701051, -927564.25, 4703.1616, 0.0, 10.000417, 9.999026 
5.2503645e+2, 2.1487157e+2, -804105.9, -928250.25, -8947.559, -0.09798909, 0.09827526, -803464.3, 30807.55, 0.0, 10.000612, 9.99902 
5.250329e+2, 2.2487062e+2, -715521.2, -820072.44, 23359.645, -0.08758279, 0.102737434, -710539.4, 25740.637, 0.0, 10.000517, 9.999123 
5.250306e+2, 2.348689e+2, -668344.1, -753726.75, 34445.473, 0.037472244, -0.01617458, -656180.7, -17884.992, 0.0, 10.000184, 9.999073 
5.25027e+2, 2.4486868e+2, -569878.1, -651487.44, 14803.78, 0.07022006, 0.05978624, -567275.7, -26977.45, 0.0, 10.0001545, 9.999123 
5.25022e+2, 2.5486988e+2, -437877.44, -539077.8, -26802.992, 0.02095034, 0.22714289, -431217.0, 11071.803, 0.0, 10.000393, 9.999106 
5.250183e+2, 2.648692e+2, -346749.53, -498800.6, 30365.059, 0.017523345, 0.281538, -340909.8, 3385.9907, 0.0, 10.000603, 9.998601 
5.2501583e+2, 2.7486622e+2, -228140.63, -389672.16, 898.68744, 0.066817276, 0.08350426, -228135.63, 18188.297, 0.00000000009174081, 10.000749, 9.9986 
5.250124e+2, 2.8486437e+2, -151990.56, -317787.7, 24138.283, 0.00088201393, 0.052565496, -148547.78, -206.19025, 0.00000033351301, 10.000653, 9.998468 
5.2500814e+2, 2.948636e+2, -108763.5, -248808.33, 10923.155, -0.13406652, 0.07999986, -107916.64, -57566.473, 0.0000041082662, 10.000264, 9.998461 
5.2500784e+2, 3.048634e+2, -42920.336, -100744.29, 7288.304, 0.22762609, 0.17948179, -42015.844, -42015.844, 0.000024723933, 10.000015, 9.999288 
5.2500194e+2, 3.1486416e+2, -40585.977, 17567.008, -25554.072, 0.030852986, 0.29507932, 27200.373, 27200.373, 0.00007789345, 9.999455, 10.000363 
5.3506845e+2, 1.24883965e+2, -1684794.6, -1735595.1, -221443.8, -0.05681206, 0.23871674, -1487299.0, 228856.72, 0.000035694404, 10.000294, 9.999659 
5.3506905e+2, 1.3488278e+2, -1399212.1, -1579961.0, 147928.9, 0.12982233, 0.11818788, -1316235.8, 301928.28, 0.000008273398, 10.001705, 9.999438 
5.3506416e+2, 1.4488243e+2, -1346714.0, -1566336.8, -45714.625, -0.1996138, 0.18200594, -1337578.4, 182588.6, 0.00000061502607, 10.001687, 9.998821 
5.350588e+2, 1.5488233e+2, -1392219.8, -1544421.4, -74983.86, -0.17308226, 0.2346335, -1361484.6, 60686.027, 0.00000000036285042, 10.000741, 9.998758 
5.3505486e+2, 1.6488124e+2, -1327903.6, -1444226.5, -21859.875, -0.09013289, 0.25051868, -1323931.3, 250.47968, 0.0, 10.000429, 9.998935 
5.3505296e+2, 1.74879e+2, -1162950.4, -1318657.3, -10501.471, 0.069351956, 0.096078224, -1162245.3, 63956.758, 0.0, 10.000899, 9.998899 
5.350498e+2, 1.8487819e+2, -1050017.6, -1187602.9, -14357.897, 0.095010586, 0.12145044, -1048535.25, 79674.38, 0.0, 10.000913, 9.999106 
5.350453e+2, 1.9487847e+2, -1028354.94, -1134388.9, 27155.041, -0.009349362, 0.20407069, -1021805.2, 8402.749, 0.0, 10.000421, 9.999041 
5.350413e+2, 2.0487781e+2, -982681.5, -1096315.3, 10343.43, -0.06349454, 0.25599095, -981747.7, -49532.21, 0.0, 10.000213, 9.998719 
5.350377e+2, 2.1487585e+2, -857169.94, -990308.6, 12854.539, -0.057996005, 0.151243, -855940.2, -21704.873, 0.0, 10.00041, 9.998686 
5.350341e+2, 2.2487482e+2, -690964.5, -732737.0, -4323.358, -0.044156462, 0.12896965, -690521.7, 45720.977, 0.0, 10.00035, 9.999807 
5.3503054e+2, 2.3487443e+2, -644698.7, -659645.0, 39642.953, -0.026310885, 0.06787817, -611830.7, 26409.227, 0.0, 9.999986, 9.999814 
5.350264e+2, 2.4487351e+2, -638670.75, -758876.8, 9530.858, -0.034267973, 0.06937496, -637919.75, -97673.13, 0.0, 10.000011, 9.998451 
5.3502166e+2, 2.548718e+2, -506731.9, -651620.1, 1834.2745, -0.0814563, 0.015246567, -506708.7, -64442.484, 0.0, 10.000265, 9.998393 
5.350186e+2, 2.6487076e+2, -384559.03, -558171.06, 18752.725, -0.03658585, 0.09140868, -382556.56, -38277.754, 0.0, 10.00052, 9.998235 
5.3501725e+2, 2.7487013e+2, -272674.28, -456133.1, 25298.762, 0.09954299, 0.16337988, -269249.56, -22961.441, 0.0, 10.000623, 9.998215 
5.350136e+2, 2.8486887e+2, -116145.805, -228044.84, -2929.3474, 0.021885462, 0.17968246, -116069.17, 32230.23, 0.00000019037492, 10.00059, 9.999113 
5.3500736e+2, 2.9486695e+2, -77952.57, -162465.38, 22088.822, -0.28222346, 0.029441912, -72527.53, -22213.727, 0.0000040138116, 10.000163, 9.999106 
5.3500664e+2, 3.048663e+2, -49746.516, -112439.84, -22079.988, 0.068901636, 0.056984175, -42750.785, -42750.785, 0.000024880646, 9.999998, 9.999214 
5.3500146e+2, 3.148663e+2, -74977.11, -56425.734, 71694.1, -0.055004593, 0.099205226, 6590.224, 6590.224, 0.00007745561, 9.999449, 9.999863 
5.4506993e+2, 1.2488755e+2, -1492292.8, -1655263.3, -229359.33, 0.0075147855, 0.22944766, -1330373.9, 385748.53, 0.00003031358, 10.001669, 9.99958 
5.450698e+2, 1.3488638e+2, -1479518.5, -1646147.3, 114462.39, 0.077433966, 0.14513493, -1421259.8, 196871.06, 0.000006366235, 10.001288, 9.999187 
5.450677e+2, 1.448858e+2, -1461389.0, -1595395.0, -49138.688, 0.048689637, 0.18793562, -1445301.6, 74833.98, 0.00000037085837, 10.00079, 9.999063 
5.450602e+2, 1.5488553e+2, -1350388.5, -1491840.0, -102318.71, -0.09711154, 0.20198391, -1296730.8, 125408.21, 0.00000000007720086, 10.000888, 9.999052 
5.450553e+2, 1.6488445e+2, -1265406.5, -1432743.0, 29581.865, -0.09879328, 0.21073085, -1260331.0, 63819.24, 0.0, 10.000968, 9.998736 
5.4505396e+2, 1.7488237e+2, -1170712.0, -1341485.3, 11125.0625, 0.08165692, 0.09449469, -1169990.4, 56180.594, 0.0, 10.000962, 9.998699 
5.4505086e+2, 1.8488194e+2, -1063520.4, -1167154.0, -382.77316, 0.12748528, 0.15696421, -1063518.9, 64657.004, 0.0, 10.000686, 9.999369 
5.4504603e+2, 1.9488296e+2, -1045455.44, -1108471.9, -22216.979, 0.039395943, 0.2829218, -1038410.3, -8242.85, 0.0, 10.000145, 9.999355 
5.4504186e+2, 2.0488265e+2, -993472.9, -1077976.0, 25900.094, -0.0050330968, 0.3428137, -986166.3, -53994.957, 0.0, 10.000029, 9.998946 
5.4503864e+2, 2.1488059e+2, -872718.75, -968526.94, 40759.867, 0.013025329, 0.20573623, -857724.75, -23533.393, 0.0, 10.000185, 9.998945 
5.45035e+2, 2.248796e+2, -693115.2, -737969.6, 36583.535, 0.018047005, 0.17730339, -672631.6, 63566.03, 0.0, 10.000344, 9.999773 
5.45031e+2, 2.3487937e+2, -571975.2, -632605.3, -11383.225, 0.008513416, 0.14046156, -569908.44, 68284.51, 0.0, 10.000515, 9.999748 
5.450269e+2, 2.4487808e+2, -542466.56, -733024.94, -6028.6577, -0.006833688, 0.11550966, -542276.06, -2073.2026, 0.0, 10.000753, 9.998276 
5.450228e+2, 2.548754e+2, -405070.8, -622885.3, -10533.324, -0.028450618, -0.019141829, -404562.63, 37668.074, 0.0, 10.001047, 9.998219 
5.450197e+2, 2.6487422e+2, -331924.7, -537856.1, 55584.402, 0.006220604, 0.05092969, -317879.47, 26365.305, 0.0, 10.000909, 9.998182 
5.4501784e+2, 2.7487415e+2, -311996.25, -477274.16, 50198.63, 0.116559595, 0.1871638, -297944.47, -51695.65, 0.0, 10.000366, 9.998191 
5.4501414e+2, 2.8487313e+2, -172909.48, -241013.95, 52337.223, 0.047915164, 0.22091784, -144521.83, 3736.0195, 0.00000011177434, 10.00015, 9.999238 
5.450084e+2, 2.9487112e+2, -54227.66, -130232.87, 3473.7173, -0.18738106, 0.049113393, -54069.23, -3797.27, 0.0000045059896, 10.000268, 9.999266 
5.4500717e+2, 3.048703e+2, -47527.08, -146607.61, -45906.277, 0.12318367, 0.06790995, -29527.547, -29527.547, 0.000026381855, 10.00017, 9.998882 
5.450013e+2, 3.1486925e+2, -97531.06, -58302.152, 30918.5, 0.016796652, 0.032098807, -41301.305, -41301.305, 0.00007890932, 9.999279, 9.999907 
5.5507153e+2, 1.24890715e+2, -1484171.0, -1631703.1, -261313.27, -0.07834276, 0.23905802, -1286411.6, 429682.94, 0.000026661766, 10.001647, 9.999749 
5.5506974e+2, 1.348903e+2, -1486597.0, -1657312.5, 105428.17, -0.08732622, 0.23788638, -1436304.3, 181791.69, 0.0000052899522, 10.001265, 9.999132 
5.550707e+2, 1.4488919e+2, -1439264.6, -1524878.3, -68703.16, 0.22146058, 0.20550013, -1401123.6, 118980.78, 0.00000021782215, 10.000697, 9.999584 
5.550623e+2, 1.5488808e+2, -1321731.5, -1421349.5, -77482.2, -0.017595595, 0.08610312, -1279429.5, 142683.31, 0.00000000000011946363, 10.000844, 9.999559 
5.550565e+2, 1.6488735e+2, -1281151.4, -1454900.9, 12714.249, -0.12093673, 0.11182091, -1280226.0, 43894.41, 0.0, 10.000923, 9.998608 
5.550541e+2, 1.7488664e+2, -1193893.5, -1371975.8, 26032.16, -0.028958827, 0.14712858, -1190166.1, 35964.73, 0.0, 10.000884, 9.998531 
5.550509e+2, 1.8488649e+2, -1087753.1, -1186566.5, -36492.59, 0.034808937, 0.2485173, -1075737.3, 52397.957, 0.0, 10.000552, 9.999301 
5.550467e+2, 1.9488667e+2, -1068344.5, -1131461.4, -24843.578, 0.05856352, 0.3024761, -1059739.0, -29603.566, 0.0, 10.000032, 9.999259 
5.550426e+2, 2.0488654e+2, -959986.7, -968983.0, 16286.045, 0.032432243, 0.34565783, -947589.0, -15452.984, 0.0, 9.999864, 9.999771 
5.550387e+2, 2.148857e+2, -842762.94, -862556.06, 63749.645, -0.035599142, 0.24620982, -788146.25, 45994.152, 0.0, 9.99999, 9.999768 
5.5503505e+2, 2.2488485e+2, -780225.06, -872486.44, 28226.076, -0.044907846, 0.23213942, -772274.8, -36128.816, 0.0, 10.000148, 9.998944 
5.5503166e+2, 2.3488374e+2, -662831.94, -770367.8, 11947.977, -0.005383531, 0.19090533, -661520.44, -23364.85, 0.0, 10.0002985, 9.998905 
5.5502826e+2, 2.4488246e+2, -541835.1, -697847.75, -8355.772, 0.016745258, 0.19427589, -541388.9, -1222.142, 0.0, 10.0006, 9.998599 
5.550247e+2, 2.5488067e+2, -402904.78, -582001.8, 21200.164, 0.017441748, 0.119595475, -400429.47, 41753.086, 0.0, 10.000884, 9.998584 
5.550209e+2, 2.6487944e+2, -329470.28, -505854.8, 20995.656, 0.0032892504, 0.14815591, -327005.53, 17188.963, 0.0, 10.000802, 9.998448 
5.5501705e+2, 2.7487823e+2, -315795.25, -457397.0, 48660.215, -0.03667389, 0.14792949, -300685.8, -54478.63, 0.0, 10.000248, 9.998384 
5.550136e+2, 2.84877e+2, -207708.48, -301002.88, 38913.53, -0.052012917, 0.17467883, -193608.47, -45390.203, 0.00000024371042, 10.000091, 9.998859 
5.550106e+2, 2.9487586e+2, -95628.68, -199085.5, 28336.418, -0.046347633, 0.12423575, -88375.9, -38148.508, 0.0000058589785, 10.000179, 9.998843 
5.550086e+2, 3.0487522e+2, -95908.016, -222708.2, -88049.68, 0.22429574, 0.20713727, -50807.797, -50807.797, 0.000029984647, 10.000081, 9.998394 
5.550008e+2, 3.1487286e+2, -85598.234, -281.37836, 97767.85, -0.050298054, 0.087459795, 63729.28, 63729.28, 0.00008416486, 9.999134, 10.000378 
5.6507456e+2, 1.24895096e+2, -1379883.5, -1621012.8, -31895.691, 0.037904005, 0.20093706, -1375735.8, 340312.75, 0.000022362967, 10.002527, 9.999379 
5.650693e+2, 1.3489462e+2, -1547237.8, -1716072.9, 147004.63, -0.22673666, 0.21771835, -1462136.3, 155915.94, 0.000004259607, 10.000986, 9.9988365 
5.6507176e+2, 1.4489338e+2, -1473421.5, -1540168.5, 47224.234, 0.28527126, 0.18394688, -1448968.4, 71094.79, 0.00000013010742, 10.000424, 9.999627 
5.6506425e+2, 1.548927e+2, -1249527.8, -1375005.6, -23668.752, 0.0814331, 0.10130874, -1245211.6, 176856.14, 0.0, 10.001279, 9.999676 
5.6505835e+2, 1.6489235e+2, -1216982.0, -1421983.0, 64752.477, -0.038243376, 0.15591182, -1198242.1, 125829.7, 0.0, 10.001333, 9.998647 
5.65055e+2, 1.7489181e+2, -1222447.5, -1377698.3, 61930.582, -0.010174282, 0.20166841, -1200769.8, 25310.51, 0.0, 10.000638, 9.99861 
5.6505126e+2, 1.8489121e+2, -1117750.8, -1225944.6, 43797.492, 0.029077165, 0.2649213, -1102243.9, 25844.668, 0.0, 10.000464, 9.999059 
5.650471e+2, 1.9489034e+2, -990904.7, -1115770.3, 15150.724, 0.070218146, 0.23267987, -989092.7, 41005.836, 0.0, 10.000671, 9.99904 
5.6504303e+2, 2.0488994e+2, -838905.8, -906775.9, 59362.63, 0.057024498, 0.2589616, -804463.2, 127638.055, 0.0, 10.000691, 9.99979 
5.650392e+2, 2.1488978e+2, -771511.94, -820408.0, 14108.239, 0.010411675, 0.22642854, -767733.25, 66365.43, 0.0, 10.000464, 9.999818 
5.650358e+2, 2.2488908e+2, -774985.9, -903574.56, 4820.046, 0.0151567785, 0.2382942, -774805.44, -38701.445, 0.0, 10.000332, 9.998646 
5.650327e+2, 2.3488748e+2, -691698.1, -815129.56, -56.555378, 0.0804537, 0.17786488, -691698.06, -53577.223, 0.0, 10.000238, 9.998626 
5.650293e+2, 2.4488646e+2, -560911.56, -653887.25, 45069.746, 0.08865867, 0.19955811, -542650.6, -2520.7432, 0.0, 10.000267, 9.999039 
5.650255e+2, 2.548857e+2, -429012.72, -545248.3, 43968.617, 0.044549473, 0.18143491, -414254.47, 27879.848, 0.0, 10.000508, 9.999002 
5.6502163e+2, 2.6488444e+2, -347985.03, -508075.7, 53397.914, 0.011087953, 0.18677156, -331808.78, 12335.733, 0.0, 10.000635, 9.998518 
5.6501764e+2, 2.7488238e+2, -258197.84, -416596.2, 37402.53, -0.0048477943, 0.08935239, -249810.16, -3646.4521, 0.0, 10.000591, 9.998496 
5.650145e+2, 2.848809e+2, -181143.36, -323068.56, 72805.95, 0.020010946, 0.09804773, -150437.88, -2260.6619, 0.00000046127252, 10.000394, 9.998572 
5.6501204e+2, 2.948801e+2, -136299.8, -256460.63, 39119.223, 0.09488417, 0.11129496, -124686.625, -74501.75, 0.000007820285, 10.000041, 9.998526 
5.650086e+2, 3.04879e+2, -152224.58, -243111.05, -34456.26, 0.24946114, 0.160947, -140638.67, -140638.67, 0.00003595913, 9.999639, 9.998481 
5.650004e+2, 3.1487766e+2, -111191.055, 37932.33, 158657.55, 0.036327347, 0.12635426, 138675.13, 138675.13, 0.000094486146, 9.998726, 10.000843 
5.750784e+2, 1.2490038e+2, -1443145.9, -1733198.8, -1538.6326, 0.087485485, 0.08998689, -1443137.8, 272849.84, 0.000015098279, 10.002459, 9.99863 
5.750678e+2, 1.348991e+2, -1594795.8, -1808297.5, 93370.984, -0.5186916, 0.08232411, -1559723.3, 58278.93, 0.0000026568694, 10.000954, 9.998218 
5.7507056e+2, 1.4489813e+2, -1499825.6, -1578754.3, 51514.91, 0.075902835, 0.12066451, -1474396.0, 45617.6, 0.000000050157187, 10.000361, 9.999392 
5.750657e+2, 1.5489927e+2, -1278186.9, -1419704.5, 24926.674, 0.056726746, 0.24715053, -1273924.6, 148080.17, 0.0, 10.001219, 9.999402 
5.750605e+2, 1.6489929e+2, -1206032.6, -1376702.4, 18759.203, 0.0035847912, 0.33606398, -1203995.1, 120010.52, 0.0, 10.001236, 9.999001 
5.750559e+2, 1.7489785e+2, -1208945.0, -1333818.4, 51389.793, -0.017675258, 0.25304997, -1190516.0, 35503.457, 0.0, 10.000567, 9.998945 
5.7505137e+2, 1.8489619e+2, -1156814.1, -1280351.6, 36342.188, -0.036773045, 0.21014947, -1146916.1, -18880.816, 0.0, 10.000355, 9.998737 
5.7504666e+2, 1.9489396e+2, -1035347.6, -1173048.5, 38969.273, -0.07607036, 0.077764526, -1025084.3, 4972.3315, 0.0, 10.000524, 9.998717 
5.750428e+2, 2.0489292e+2, -921752.9, -1031732.5, 33309.203, -0.06336585, 0.09462739, -912451.25, 19614.865, 0.0, 10.000488, 9.99903 
5.750399e+2, 2.1489292e+2, -858724.0, -951081.3, 21718.846, 0.00019302368, 0.15597159, -853871.56, -19805.957, 0.0, 10.00025, 9.999024 
5.750368e+2, 2.2489229e+2, -777687.44, -869722.0, -15158.207, 0.055356566, 0.19911924, -775255.2, -39183.4, 0.0, 10.0001545, 9.998965 
5.750335e+2, 2.3489064e+2, -695493.0, -779828.56, 13957.019, 0.10072053, 0.10177643, -693243.25, -55154.86, 0.0, 10.000049, 9.9989605 
5.7502955e+2, 2.448901e+2, -545758.8, -599517.9, 36878.52, 0.055307094, 0.13121334, -527003.56, 13088.939, 0.0, 10.000153, 9.999475 
5.750249e+2, 2.548903e+2, -421110.6, -493359.78, 72197.17, -0.10026251, 0.16653934, -376504.66, 65582.6, 0.0, 10.000345, 9.999443 
5.7502145e+2, 2.6488918e+2, -361929.97, -519869.72, 34679.9, -0.10423865, 0.16659722, -354650.56, -10555.31, 0.0, 10.000551, 9.998485 
5.750192e+2, 2.748864e+2, -270855.78, -426395.78, 51011.4, 0.045953635, 0.004091913, -255618.58, -9498.557, 0.0, 10.000499, 9.998486 
5.7501614e+2, 2.8488472e+2, -197250.78, -335289.0, 42973.0, 0.10468078, -0.010419223, -184966.03, -36830.457, 0.0000006054728, 10.000308, 9.9985285 
5.750121e+2, 2.9488382e+2, -160435.55, -278998.4, 49128.24, 0.051938016, -0.00031370253, -142724.3, -92579.3, 0.000009307056, 9.999927, 9.998425 
5.7500666e+2, 3.0488175e+2, -116200.11, -149723.55, -75678.0, 0.05427714, -0.07330279, -55449.797, -55449.797, 0.000040671366, 9.999569, 9.999157 
5.7499945e+2, 3.148829e+2, -99936.06, 88354.03, 182625.98, -0.016239194, 0.07685259, 199673.19, 199673.19, 0.000103750725, 9.998612, 10.001247 
5.850816e+2, 1.2490553e+2, -1436194.3, -1749236.0, 11138.479, 0.17472576, 0.09819484, -1435798.4, 280138.03, 0.000008007214, 10.002544, 9.998506 
5.8506876e+2, 1.3490406e+2, -1564205.5, -1781593.1, -36675.797, -0.51239115, 0.06501561, -1558184.6, 59767.047, 0.0000012151539, 10.0011, 9.998342 
5.850708e+2, 1.4490296e+2, -1525895.1, -1625933.4, 74022.74, 0.07508537, 0.1017184, -1486576.3, 33388.285, 0.000000012980553, 10.000371, 9.999035 
5.85067e+2, 1.5490375e+2, -1342098.8, -1485503.4, -1019.1765, 0.08797156, 0.22448596, -1342091.5, 79869.09, 0.0, 10.000957, 9.999046 
5.850619e+2, 1.6490363e+2, -1212617.4, -1365453.0, -24485.855, 0.03695463, 0.3091847, -1208790.3, 115172.76, 0.0, 10.001118, 9.999141 
5.850566e+2, 1.7490238e+2, -1161511.1, -1292077.1, -37695.863, -0.009185077, 0.2328466, -1151409.4, 74564.586, 0.0, 10.000802, 9.999124 
5.85052e+2, 1.8490082e+2, -1090669.9, -1259861.0, 9093.444, -0.02451953, 0.19576865, -1090182.5, 37805.625, 0.0, 10.000849, 9.99865 
5.850479e+2, 1.9489855e+2, -943130.25, -1142900.6, -4738.6304, -0.02441059, 0.071218826, -943017.9, 86992.086, 0.0, 10.001207, 9.99861 
5.850441e+2, 2.0489734e+2, -844395.4, -1018383.44, 27007.803, -0.0084563065, 0.08460124, -840299.44, 91721.96, 0.0, 10.001113, 9.998819 
5.850405e+2, 2.1489698e+2, -830947.1, -965616.94, 27266.031, 0.030926516, 0.12774207, -825636.1, 8388.528, 0.0, 10.000541, 9.998792 
5.8503723e+2, 2.2489634e+2, -733208.7, -823503.06, 58443.35, 0.07914529, 0.17259884, -704505.4, 31525.184, 0.0, 10.000361, 9.999187 
5.850341e+2, 2.348951e+2, -602995.44, -715387.4, 44020.12, 0.1369629, 0.095853046, -587806.8, 50235.766, 0.0, 10.00059, 9.999152 
5.8503026e+2, 2.4489452e+2, -524339.06, -600895.44, 65977.56, 0.1085675, 0.12050639, -486339.75, 53707.332, 0.0, 10.000358, 9.999355 
5.8502567e+2, 2.5489438e+2, -511847.97, -547624.75, 23495.393, -0.017740976, 0.12960927, -500206.22, -58159.72, 0.0, 9.99978, 9.999329 
5.850222e+2, 2.648934e+2, -461759.8, -534508.6, 32423.932, -0.0320103, 0.1326925, -449406.3, -105352.59, 0.0, 9.99974, 9.998768 
5.850199e+2, 2.7489126e+2, -277737.66, -392282.34, 39551.12, 0.09359871, 0.0061454624, -265408.2, -19336.795, 0.0, 10.0003195, 9.998792 
5.850167e+2, 2.8488994e+2, -190885.81, -335758.97, 49488.543, 0.14154492, 0.011991403, -175594.56, -27510.826, 0.00000055145284, 10.000372, 9.998486 
5.850124e+2, 2.948889e+2, -188877.1, -295519.8, 18732.941, 0.11095243, 0.016901337, -185682.17, -135587.02, 0.000008783807, 9.999743, 9.998393 
5.8500564e+2, 3.048866e+2, -74978.86, -125679.98, -72491.41, -0.00040502838, -0.08025798, -23533.223, -23533.223, 0.000039667964, 9.999839, 9.999184 
5.849997e+2, 3.1488803e+2, 95250.6, 117543.18, 56115.586, 0.082524575, 0.09502585, 163608.77, 163608.77, 0.00010388018, 10.000241, 10.000651 
5.9508395e+2, 1.249104e+2, -1385837.8, -1631590.3, 29812.256, 0.06184397, 0.2197435, -1382273.0, 333623.38, 0.0000033727015, 10.002514, 9.999315 
5.950718e+2, 1.3490951e+2, -1506976.6, -1658961.9, -84581.51, -0.36101374, 0.15996921, -1469263.9, 148636.53, 0.00000044999516, 10.001094, 9.999184 
5.9507203e+2, 1.4490786e+2, -1564394.8, -1695107.8, 71061.91, 0.11052859, 0.11966167, -1533204.6, -13289.088, 0.000000014541682, 10.000327, 9.998578 
5.9506756e+2, 1.5490612e+2, -1384973.5, -1563277.9, 37381.906, 0.0115701, 0.03720664, -1377453.4, 44481.79, 0.0, 10.000907, 9.998538 
5.9506214e+2, 1.6490546e+2, -1226590.4, -1371237.8, -52990.223, -0.08623414, 0.09242734, -1209255.4, 114687.8, 0.0, 10.00103, 9.999137 
5.950566e+2, 1.7490551e+2, -1171152.0, -1292967.1, -32685.783, -0.12894496, 0.14671227, -1162935.9, 63006.914, 0.0, 10.000729, 9.999148 
5.9505266e+2, 1.8490516e+2, -1101162.4, -1254140.1, 3775.4731, -0.07982911, 0.22325669, -1101069.3, 26877.703, 0.0, 10.000731, 9.998746 
5.950503e+2, 1.9490406e+2, -960345.7, -1139606.1, 24910.75, 0.05833542, 0.20424023, -956948.4, 73010.89, 0.0, 10.001044, 9.998709 
5.950463e+2, 2.0490311e+2, -843237.25, -973916.6, -9189.809, 0.068918884, 0.22069885, -842594.1, 89373.48, 0.0, 10.00093, 9.999214 
5.950407e+2, 2.14902e+2, -831567.1, -920581.0, 22663.035, -0.044638366, 0.14911224, -826129.3, 7845.993, 0.0, 10.000344, 9.999194 
5.9503657e+2, 2.2490133e+2, -749929.25, -822707.44, 48632.73, -0.05228672, 0.1669786, -725578.7, 10400.826, 0.0, 10.0002, 9.999276 
5.95034e+2, 2.3490082e+2, -628603.1, -721485.3, 70103.56, 0.039611287, 0.15534641, -590953.25, 47030.336, 0.0, 10.000382, 9.999215 
5.950309e+2, 2.4489976e+2, -592387.75, -710009.75, 29744.35, 0.09920638, 0.1623336, -585293.8, -45300.207, 0.0, 10.000216, 9.998679 
5.9502727e+2, 2.5489792e+2, -579702.7, -654331.0, 16559.389, 0.12105337, 0.07098487, -576193.4, -134181.3, 0.0, 9.999631, 9.99867 
5.9502345e+2, 2.6489708e+2, -430801.66, -448644.53, 35773.402, 0.08049882, 0.08807133, -402854.03, -58834.824, 0.0, 9.999648, 9.999405 
5.950194e+2, 2.7489692e+2, -253884.98, -314167.66, 80691.28, -0.02638434, 0.095433906, -197889.33, 48128.33, 0.0, 10.000197, 9.999392 
5.950159e+2, 2.8489646e+2, -206994.17, -347134.4, 12982.092, -0.016212035, 0.16199543, -205801.7, -57779.63, 0.0000003359344, 10.000282, 9.998447 
5.9501237e+2, 2.9489526e+2, -205818.88, -298000.34, 16554.424, 0.08713259, 0.15263724, -202936.1, -152899.63, 0.000006914508, 9.999612, 9.998435 
5.950052e+2, 3.0489343e+2, -127520.84, -224112.95, -66333.04, -0.06466806, 0.12970912, -93764.59, -93764.59, 0.000035638073, 9.9997835, 9.998537 
5.95e+2, 3.1489334e+2, -22173.982, -101137.14, 84889.18, 0.0053209476, 0.22072692, 31965.844, 31965.844, 0.00009897654, 10.0001335, 9.999198 
6.0508466e+2, 1.2491471e+2, -1657080.3, -1741953.3, 167007.56, 0.0026822498, 0.25232807, -1527201.9, 188653.86, 0.0000011596172, 10.0005665, 9.999503 
6.050754e+2, 1.3491401e+2, -1390747.3, -1569456.9, -139714.94, -0.12303673, 0.18977208, -1314257.1, 303600.75, 0.00000014603442, 10.001773, 9.999456 
6.0507375e+2, 1.4491266e+2, -1343713.1, -1562932.6, 61406.56, 0.19219115, 0.1523985, -1327684.3, 192184.94, 0.0000000031309833, 10.001698, 9.998854 
6.0506815e+2, 1.5491082e+2, -1383531.5, -1532767.9, 43388.547, -0.00035339285, 0.035790343, -1371833.8, 50054.387, 0.0, 10.000769, 9.998837 
6.0506266e+2, 1.6491e+2, -1295444.9, -1407780.4, 29657.115, -0.099093, 0.06442154, -1288096.0, 35800.645, 0.0, 10.000548, 9.999137 
6.050581e+2, 1.7490993e+2, -1134029.3, -1276583.3, 17218.986, -0.060120966, 0.10508215, -1131978.9, 93918.87, 0.0, 10.0009775, 9.999153 
6.0505426e+2, 1.8490978e+2, -1063684.1, -1217894.4, 79425.18, 0.010512531, 0.19480407, -1030093.5, 97806.66, 0.0, 10.000928, 9.998891 
6.0505146e+2, 1.9490926e+2, -1044848.1, -1161925.3, 68984.46, 0.11257362, 0.21880001, -1012912.25, 16994.602, 0.0, 10.000395, 9.998864 
6.050472e+2, 2.049084e+2, -904946.1, -987039.6, 65882.86, 0.11034143, 0.22844516, -868369.5, 63544.34, 0.0, 10.000436, 9.999372 
6.0504174e+2, 2.1490678e+2, -728352.75, -855149.1, 46521.492, 0.0074025355, 0.094508335, -713115.25, 120810.07, 0.0, 10.000982, 9.999346 
6.0503745e+2, 2.2490601e+2, -645259.2, -787115.4, 82944.375, -0.009992047, 0.10099891, -607051.75, 128878.516, 0.0, 10.001007, 9.999113 
6.050345e+2, 2.3490578e+2, -617756.8, -725636.25, 50696.863, 0.056975327, 0.13332231, -597671.75, 40259.89, 0.0, 10.00053, 9.999094 
6.050314e+2, 2.4490467e+2, -569356.94, -721851.75, 56883.414, 0.12304498, 0.14918181, -550476.06, -10533.291, 0.0, 10.000482, 9.998471 
6.0502815e+2, 2.5490233e+2, -411185.94, -598183.5, 48383.43, 0.19426437, 0.03206101, -399409.0, 42557.81, 0.0, 10.0009, 9.998451 
6.0502416e+2, 2.6490146e+2, -282059.63, -370487.4, 89692.1, 0.1509744, 0.058837295, -226275.8, 117699.195, 0.0, 10.000642, 9.99946 
6.050195e+2, 2.749018e+2, -327156.47, -343459.06, 53126.043, 0.0026742404, 0.1103634, -281560.03, -35589.83, 0.0, 9.999656, 9.999451 
6.0501575e+2, 2.8490156e+2, -326265.94, -383495.2, 14337.008, -0.0053592194, 0.18503031, -322875.16, -174901.94, 0.00000016006682, 9.999376, 9.998642 
6.0501236e+2, 2.9490042e+2, -152347.0, -247138.86, 2758.444, 0.11962111, 0.16561775, -152266.8, -102280.41, 0.0000052467194, 9.999873, 9.998665 
6.05005e+2, 3.048992e+2, -93685.2, -213226.7, -16178.109, -0.060919054, 0.19309941, -91534.445, -91534.445, 0.000031333126, 10.000051, 9.998484 
6.0500073e+2, 3.1489807e+2, -146554.38, -172888.45, 73628.19, 0.123139374, 0.19588664, -84925.16, -84925.16, 0.00009226463, 9.9993105, 9.999125 
6.1508363e+2, 1.2491843e+2, -1672737.5, -1767473.6, 195410.73, -0.24105483, 0.20154275, -1519035.8, 196779.61, 0.000000319301, 10.000547, 9.9993305 
6.150792e+2, 1.3491757e+2, -1421791.3, -1625804.5, -82948.805, 0.038546976, 0.15751332, -1392322.1, 225502.3, 0.000000018009526, 10.001747, 9.99908 
6.1507535e+2, 1.4491734e+2, -1281642.9, -1429256.3, -1005.7156, 0.14190286, 0.20723113, -1281636.0, 238190.0, 0.0, 10.001671, 9.999783 
6.150684e+2, 1.5491767e+2, -1316565.3, -1396115.1, 21261.824, -0.09804829, 0.21303537, -1311239.1, 110581.61, 0.0, 10.000762, 9.999783 
6.1506313e+2, 1.6491722e+2, -1300667.8, -1401889.6, 26900.041, -0.14874004, 0.22325818, -1293963.1, 29860.912, 0.0, 10.000478, 9.999212 
6.150605e+2, 1.7491554e+2, -1141836.0, -1280138.6, 50290.93, 0.049452346, 0.1001733, -1125482.4, 100357.375, 0.0, 10.000914, 9.999164 
6.150564e+2, 1.8491466e+2, -1072845.4, -1203059.9, 44919.684, 0.09747219, 0.10770818, -1058853.1, 68995.0, 0.0, 10.000784, 9.999059 
6.15051e+2, 1.949143e+2, -1050922.6, -1149652.3, 67803.95, -0.007999469, 0.12971403, -1016416.94, 13434.5625, 0.0, 10.000284, 9.999003 
6.1504656e+2, 2.0491335e+2, -933123.3, -1006296.7, 70427.38, -0.030931374, 0.1266117, -890346.25, 41512.492, 0.0, 10.000272, 9.999315 
6.1504334e+2, 2.149114e+2, -766532.2, -883043.9, 83195.57, 0.039093394, -0.034436326, -723224.06, 110649.88, 0.0, 10.000763, 9.999259 
6.1503947e+2, 2.249104e+2, -704156.25, -864408.56, 52668.402, 0.058677454, -0.025825543, -688396.25, 47485.98, 0.0, 10.000814, 9.998673 
6.1503506e+2, 2.3491004e+2, -677195.9, -802845.4, 50841.24, 0.027315542, 0.035322115, -659201.2, -21314.965, 0.0, 10.000333, 9.998657 
6.1503124e+2, 2.449092e+2, -567949.25, -690117.0, 53761.863, 0.026136098, 0.0858285, -547660.06, -7765.3193, 0.0, 10.000353, 9.998754 
6.150279e+2, 2.5490752e+2, -414574.66, -572544.9, 80795.56, 0.04292811, 0.0061178477, -380570.53, 61340.492, 0.0, 10.0007515, 9.998702 
6.15024e+2, 2.6490656e+2, -337406.72, -461270.75, 37527.93, 0.03363184, 0.03709098, -326923.8, 16997.55, 0.0, 10.000537, 9.998885 
6.150196e+2, 2.7490592e+2, -387936.8, -437009.2, 34320.68, 0.007284294, 0.04627972, -370283.72, -124354.45, 0.0, 9.9995165, 9.998873 
6.150157e+2, 2.8490525e+2, -306426.63, -327613.78, 13933.09, 0.018852113, 0.08882808, -299517.22, -151580.4, 0.00000012615395, 9.999307, 9.999059 
6.1501163e+2, 2.9490456e+2, -137613.13, -190148.31, 44891.637, 0.015147931, 0.06302944, -111868.74, -61925.0, 0.000004351736, 9.9997635, 9.9991045 
6.150046e+2, 3.0490392e+2, -68220.91, -153322.25, -51445.336, -0.1461853, 0.10622495, -44009.45, -44009.45, 0.000027327982, 10.000014, 9.998923 
6.150009e+2, 3.1490234e+2, -75998.18, 4890.4644, 53698.164, 0.1242502, 0.024886033, 31671.404, 31671.404, 0.00008384043, 9.999181, 10.000413 
6.2508446e+2, 1.2492154e+2, -1637344.6, -1723129.8, 200450.06, -0.19759119, 0.13106324, -1475249.4, 240532.5, 0.00000004128188, 10.000656, 9.999598 
6.250818e+2, 1.349213e+2, -1564452.5, -1678646.3, -87657.87, 0.19152303, 0.13493928, -1516936.0, 100850.75, 0.000000000001578113, 10.00067, 9.999257 
6.250758e+2, 1.4492139e+2, -1444342.6, -1463804.1, 5757.1978, 0.09248193, 0.19157794, -1442767.0, 77018.484, 0.0, 10.000362, 10.000178 
6.250693e+2, 1.5492234e+2, -1346532.9, -1354895.6, -40504.543, -0.04170415, 0.2137065, -1309994.5, 111778.7, 0.0, 10.000343, 10.000251 
6.250645e+2, 1.6492222e+2, -1284696.9, -1378351.0, 13954.578, -0.045352165, 0.22953355, -1282661.9, 41111.09, 0.0, 10.000553, 9.999316 
6.2506217e+2, 1.7492068e+2, -1137775.1, -1258091.0, -3679.1597, 0.1426978, 0.1073, -1137662.8, 88125.875, 0.0, 10.000902, 9.999297 
6.2505776e+2, 1.8491977e+2, -1034818.3, -1167487.5, -1829.3452, 0.15502584, 0.096047156, -1034793.1, 93003.72, 0.0, 10.000936, 9.999247 
6.2505114e+2, 1.9491911e+2, -999279.25, -1101352.5, -4561.4985, -0.021444384, 0.0684579, -999075.8, 30725.396, 0.0, 10.000514, 9.999232 
6.250468e+2, 2.0491825e+2, -921770.75, -1029871.8, 57212.023, -0.035366926, 0.07361518, -897115.0, 34692.97, 0.0, 10.000461, 9.999072 
6.25045e+2, 2.1491678e+2, -778753.75, -908821.3, 24866.389, 0.13657197, -0.015758576, -774161.9, 59659.047, 0.0, 10.000766, 9.999081 
6.2504137e+2, 2.2491573e+2, -671263.1, -849140.4, 16486.1, 0.16237833, -0.0031699806, -669748.06, 66082.26, 0.0, 10.001028, 9.998687 
6.2503594e+2, 2.3491475e+2, -546061.44, -743866.56, 19475.893, 0.049647544, -0.001090171, -544162.06, 93677.43, 0.0, 10.001228, 9.998649 
6.250316e+2, 2.4491389e+2, -481125.22, -624890.1, 63909.05, 0.01333749, 0.038360015, -456823.2, 83024.26, 0.0, 10.000836, 9.998973 
6.2502813e+2, 2.5491288e+2, -521660.1, -595892.06, 49978.1, 0.047341224, 0.0010202187, -496523.3, -54666.57, 0.0, 9.999894, 9.998951 
6.250242e+2, 2.64912e+2, -465422.44, -546611.7, 53062.44, 0.04892271, 0.039357375, -439207.3, -95341.06, 0.0, 9.999745, 9.998685 
6.250198e+2, 2.7491087e+2, -283794.75, -413635.66, 42315.504, 0.040134866, 0.018825086, -271221.56, -25341.1, 0.0, 10.00033, 9.998649 
6.2501574e+2, 2.849101e+2, -161571.08, -231445.89, 67590.305, 0.062251545, 0.057680417, -120422.53, 27465.96, 0.000000116905284, 10.000193, 9.999292 
6.250118e+2, 2.9490983e+2, -194056.47, -200506.16, 44193.844, 0.085476846, 0.050221357, -152969.97, -103079.39, 0.000004287332, 9.999282, 9.999279 
6.2500477e+2, 3.0490875e+2, -166133.52, -195712.97, -29879.56, -0.07566265, 0.042326696, -147583.72, -147583.72, 0.000025852014, 9.99934, 9.998945 
6.25001e+2, 3.1490743e+2, 72302.125, 107460.22, -53701.19, 0.19573848, -0.019875448, 146386.4, 146386.4, 0.00007870898, 10.000081, 10.000672 
6.350864e+2, 1.24924116e+2, -1583422.6, -1621883.6, 65960.98, -0.15623826, 0.05709421, -1533946.0, 181808.63, 0.000000010756334, 10.000696, 10.000278 
6.350828e+2, 1.3492502e+2, -1520415.6, -1592386.8, -84660.71, 0.18394269, 0.1173471, -1464409.9, 153336.84, 0.0, 10.000681, 9.999854 
6.350745e+2, 1.4492486e+2, -1446884.1, -1449818.8, -19956.604, -0.11501069, 0.11100713, -1428341.0, 91406.48, 0.0, 10.000287, 10.000307 
6.3507074e+2, 1.5492491e+2, -1344071.4, -1348826.6, -19477.576, 0.022174219, 0.03505692, -1326826.8, 94917.445, 0.0, 10.000334, 10.000301 
6.3506657e+2, 1.649251e+2, -1290337.9, -1380925.4, 9435.009, 0.063375466, 0.077588, -1289365.6, 34377.15, 0.0, 10.0005045, 9.999326 
6.350628e+2, 1.7492521e+2, -1141755.9, -1261347.4, 26647.418, 0.076966844, 0.12097454, -1136087.0, 89658.17, 0.0, 10.000863, 9.999304 
6.350578e+2, 1.8492483e+2, -1030531.0, -1128774.4, -34635.336, 0.034678847, 0.14667073, -1019548.2, 108200.62, 0.0, 10.0008135, 9.999567 
6.3505137e+2, 1.9492349e+2, -997800.5, -1067472.9, -5900.4355, -0.08284164, 0.018500898, -997304.4, 32453.63, 0.0, 10.0003805, 9.999529 
6.3504744e+2, 2.0492293e+2, -979520.44, -1103845.9, 51322.047, -0.046100404, 0.060514532, -961072.0, -29309.053, 0.0, 10.000263, 9.998656 
6.350461e+2, 2.1492282e+2, -838834.8, -983166.1, 54028.32, 0.14759348, 0.14616677, -820850.9, 12915.857, 0.0, 10.000547, 9.998674 
6.350426e+2, 2.2492196e+2, -668278.75, -793064.6, 8490.588, 0.15816556, 0.173234, -667703.7, 68071.33, 0.0, 10.000818, 9.999169 
6.3503677e+2, 2.3491989e+2, -545310.25, -690773.94, 45715.188, -0.025729658, 0.0148459505, -532136.4, 105655.555, 0.0, 10.001008, 9.999118 
6.3503206e+2, 2.4491876e+2, -497740.16, -623440.0, 14497.491, -0.060658388, 0.0004531745, -496089.78, 43711.016, 0.0, 10.000686, 9.999053 
6.350285e+2, 2.549183e+2, -539943.06, -596680.75, 30743.887, 0.051792424, 0.014145173, -526479.1, -84675.02, 0.0, 9.999735, 9.999023 
6.350243e+2, 2.649178e+2, -470415.28, -527419.94, 56977.727, 0.05557847, 0.07258034, -435208.53, -91398.65, 0.0, 9.999628, 9.998868 
6.3501954e+2, 2.749167e+2, -292493.06, -396894.8, 83943.83, -0.055346407, 0.036924127, -245843.05, -20.242867, 0.0, 10.000186, 9.998829 
6.350155e+2, 2.8491622e+2, -169930.17, -228533.58, 15543.862, -0.021945696, 0.087205976, -166062.6, -18234.6, 0.0000001448745, 10.000111, 9.999352 
6.3501203e+2, 2.9491633e+2, -220303.44, -213098.17, 33792.63, 0.13810964, 0.12126848, -182716.67, -132891.11, 0.000005079309, 9.999125, 9.999261 
6.3500494e+2, 3.04914e+2, -206722.38, -284474.38, -9311.141, -0.027674094, 0.02083941, -205622.88, -205622.88, 0.000027855136, 9.99933, 9.998355 
6.35e+2, 3.1491327e+2, -14445.505, -46712.85, 11518.963, 0.0031397273, 0.06132596, -10755.406, -10755.406, 0.00008149468, 9.999956, 9.999679 
6.450885e+2, 1.2492892e+2, -1658854.8, -1646642.5, 136956.25, 0.033421017, 0.053159583, -1515656.4, 200048.78, 0.0000000047013002, 10.000134, 10.000376 
6.4508367e+2, 1.3492985e+2, -1524150.6, -1563078.5, -13657.536, 0.23191075, 0.09538343, -1519837.0, 97859.21, 0.0, 10.000565, 10.000088 
6.45074e+2, 1.4492936e+2, -1418867.0, -1460794.0, 59141.066, -0.19881427, 0.054045465, -1377083.9, 142616.86, 0.0, 10.000588, 10.000082 
6.4507174e+2, 1.549292e+2, -1341621.8, -1372943.5, -6312.38, 0.09361191, -0.02153342, -1340397.5, 81303.94, 0.0, 10.000454, 10.000077 
6.4506775e+2, 1.6492957e+2, -1323065.0, -1376272.9, 56193.1, 0.16070238, 0.04280176, -1287496.3, 36202.71, 0.0, 10.000197, 9.999508 
6.45063e+2, 1.749303e+2, -1278000.3, -1303784.3, 56302.625, 0.066538736, 0.13051668, -1233132.5, -7437.2866, 0.0, 9.999835, 9.999506 
6.45058e+2, 1.849301e+2, -1124906.6, -1192240.5, 29955.252, 0.00976307, 0.17402513, -1113509.4, 14188.294, 0.0, 10.00024, 9.999409 
6.4505273e+2, 1.9492859e+2, -874982.75, -1022149.06, -12823.484, -0.019241152, 0.04416369, -873873.7, 155836.39, 0.0, 10.001303, 9.999387 
6.45049e+2, 2.049281e+2, -806247.8, -993005.25, 58780.04, 0.032079853, 0.08769609, -789287.6, 142426.94, 0.0, 10.001339, 9.998891 
6.450467e+2, 2.1492825e+2, -869423.06, -976471.75, 73722.97, 0.17245221, 0.17531063, -831843.44, 1871.292, 0.0, 10.000239, 9.998865 
6.450429e+2, 2.249276e+2, -798938.5, -838572.8, 98284.5, 0.16747874, 0.20504823, -718493.2, 17227.283, 0.0, 9.999818, 9.999345 
6.450376e+2, 2.3492575e+2, -663736.0, -723517.44, 77977.77, 0.020358426, 0.04592387, -610116.3, 27618.99, 0.0, 10.000077, 9.999337 
6.45033e+2, 2.449247e+2, -553788.75, -648496.6, 47344.45, -0.00072906463, 0.027641878, -534180.8, 5562.8076, 0.0, 10.000315, 9.999062 
6.450292e+2, 2.5492412e+2, -418371.75, -533558.56, 27784.406, 0.119943246, 0.032170556, -412020.06, 29728.072, 0.0, 10.000567, 9.999054 
6.450248e+2, 2.6492348e+2, -357575.4, -461493.34, 95872.63, 0.1124445, 0.07414239, -300487.16, 43267.363, 0.0, 10.000348, 9.9989805 
6.450199e+2, 2.7492237e+2, -359748.1, -416313.16, 78194.09, -0.00013138526, 0.02520237, -304878.84, -59112.066, 0.000000000000000000046744374, 9.999669, 9.998952 
6.4501566e+2, 2.8492185e+2, -256071.66, -303921.4, 23521.22, 0.01826536, 0.0776839, -246445.86, -98673.46, 0.00000034821963, 9.999655, 9.999056 
6.450117e+2, 2.9492167e+2, -84710.57, -190937.45, -22431.74, 0.15273257, 0.11449293, -80167.96, -30394.316, 0.0000068469953, 10.000221, 9.998891 
6.450049e+2, 3.049194e+2, -43545.457, -215016.8, 2594.378, -0.008587793, 0.04710329, -43506.21, -43506.21, 0.00003364889, 10.000518, 9.998236 
6.450008e+2, 3.1491902e+2, 16083.865, -82590.375, -35085.574, 0.07885252, 0.13195685, 27287.219, 27287.219, 0.000093661416, 10.000389, 9.99921 
6.5508956e+2, 1.2493578e+2, -1685181.4, -1694047.1, -11506.115, 0.046544656, 0.10423198, -1677283.8, 38351.32, 0.000000001405694, 10.000103, 10.000064 
6.55084e+2, 1.3493584e+2, -1522560.8, -1564855.0, 11755.28, 0.16655675, 0.06361462, -1519513.1, 98121.85, 0.0, 10.000587, 10.000059 
6.550739e+2, 1.4493494e+2, -1473511.3, -1562578.8, 32296.781, -0.32043034, 0.016093032, -1463032.9, 56612.184, 0.0, 10.000537, 9.9994135 
6.5507185e+2, 1.5493518e+2, -1396035.1, -1476068.8, 5323.982, 0.016742337, 0.05000504, -1395682.5, 25962.264, 0.0, 10.000407, 9.999399 
6.550676e+2, 1.649355e+2, -1303076.0, -1318463.0, 22386.162, 0.08927021, 0.124089986, -1287098.3, 36544.5, 0.0, 10.000124, 9.999937 
6.55062e+2, 1.7493577e+2, -1254567.8, -1245054.6, 59927.496, -0.049643673, 0.121589914, -1189695.3, 35944.97, 0.0, 9.999791, 9.9999275 
6.550578e+2, 1.849356e+2, -1185504.1, -1289743.9, 52005.625, -0.06595929, 0.17453519, -1163996.1, -36352.68, 0.0, 10.000123, 9.998795 
6.550548e+2, 1.949345e+2, -936262.3, -1116360.4, 45854.51, 0.018610075, 0.14718929, -925259.5, 104397.164, 0.0, 10.001165, 9.998806 
6.550508e+2, 2.0493376e+2, -773761.8, -886323.8, 1515.137, 0.05888666, 0.15399186, -773741.44, 157921.66, 0.0, 10.001167, 9.999711 
6.550461e+2, 2.1493296e+2, -840664.44, -866837.94, 49188.24, 0.056610193, 0.06617108, -802851.8, 30814.432, 0.0, 10.000029, 9.999721 
6.550419e+2, 2.2493264e+2, -837806.25, -866477.5, 92014.19, 0.052529465, 0.09007978, -759017.6, -23350.674, 0.0, 9.999598, 9.999253 
6.5503806e+2, 2.3493244e+2, -702366.8, -752213.1, 103707.914, 0.028004633, 0.10455699, -620629.3, 17039.658, 0.0, 9.999863, 9.999238 
6.5503407e+2, 2.4493176e+2, -579747.25, -667871.44, 38635.215, 0.043213245, 0.13351727, -565207.75, -25532.447, 0.0, 10.000165, 9.998999 
6.550298e+2, 2.549303e+2, -446895.38, -551214.56, 56113.59, 0.08631849, 0.046382736, -422443.22, 19246.205, 0.0, 10.000392, 9.999014 
6.550251e+2, 2.6492915e+2, -369785.6, -466161.34, 53296.67, 0.077670455, 0.038637582, -346122.2, -2422.0793, 0.0, 10.000254, 9.998996 
6.5502024e+2, 2.74928e+2, -376470.94, -426734.1, 74588.51, 0.027247785, -0.009134848, -322893.94, -77183.11, 0.0000000002377775, 9.999555, 9.998939 
6.550155e+2, 2.849271e+2, -315337.75, -400729.72, 28572.658, -0.0037935795, 0.039467372, -306659.2, -158938.78, 0.0000008000927, 9.999553, 9.998433 
6.550104e+2, 2.9492602e+2, -151582.53, -291235.84, 19669.979, -0.052905705, 0.040258095, -148864.94, -99131.68, 0.000010270006, 10.000065, 9.998271 
6.5500414e+2, 3.0492514e+2, -31336.645, -183186.92, -10692.754, -0.17784302, 0.1328311, -30587.396, -30587.396, 0.00004390313, 10.000484, 9.998477 
6.550024e+2, 3.149247e+2, -1001.97095, -86937.23, -4404.799, 0.12052273, 0.18449277, -776.78345, -776.78345, 0.00011355634, 10.00026, 9.999244 
6.6508967e+2, 1.2494169e+2, -1867676.4, -1790461.0, -28228.322, 0.12511635, 0.066124864, -1781242.0, -65667.164, 0.00000000035571668, 9.998894, 9.999973 
6.650844e+2, 1.349421e+2, -1583310.8, -1600045.8, 26241.535, 0.1875807, 0.05551497, -1564134.9, 53437.652, 0.0, 10.00017, 10.000031 
6.6507506e+2, 1.4494148e+2, -1475918.9, -1573888.9, 75859.016, -0.23820214, 0.042148486, -1434603.6, 84976.96, 0.0, 10.000573, 9.999312 
6.6507226e+2, 1.549417e+2, -1368214.9, -1473871.4, 52037.402, 0.018864198, 0.08083135, -1346889.9, 74691.08, 0.0, 10.000659, 9.999284 
6.6506773e+2, 1.6494179e+2, -1210764.3, -1285495.0, 111146.39, 0.06258195, 0.14183524, -1130870.5, 192710.3, 0.0, 10.000804, 9.999836 
6.650623e+2, 1.7494152e+2, -1103408.5, -1186249.1, 71069.51, -0.04013624, 0.096857674, -1062570.0, 163012.58, 0.0, 10.000873, 9.999814 
6.650585e+2, 1.8494126e+2, -1126497.6, -1260134.8, 112614.9, -0.020286353, 0.14744863, -1062370.3, 65216.105, 0.0, 10.000546, 9.998788 
6.6505605e+2, 1.9494055e+2, -1130767.9, -1215749.8, 114936.41, 0.10055078, 0.16014956, -1050719.6, -21123.031, 0.0, 9.99985, 9.99876 
6.650519e+2, 2.0493975e+2, -957343.94, -967524.0, 81107.45, 0.11749031, 0.16085793, -881166.94, 50436.453, 0.0, 9.999877, 9.999782 
6.6504616e+2, 2.1493854e+2, -760317.94, -821045.9, 34999.063, 0.039993513, 0.024911176, -744347.2, 89262.68, 0.0, 10.000555, 9.999786 
6.650418e+2, 2.24938e+2, -687694.75, -813690.44, 83304.266, 0.036007274, 0.034584686, -646249.7, 89362.914, 0.0, 10.00073, 9.999075 
6.650388e+2, 2.3493786e+2, -644149.3, -747392.9, 56473.04, 0.09931414, 0.07987258, -619259.56, 18354.941, 0.0, 10.000375, 9.999031 
6.6503495e+2, 2.449373e+2, -580016.5, -683259.5, 24085.93, 0.12255759, 0.1358664, -574673.9, -35052.703, 0.0, 10.000196, 9.998887 
6.650301e+2, 2.5493595e+2, -496179.03, -593668.56, -2687.0623, 0.10839744, 0.072816566, -496105.03, -54468.883, 0.0, 10.000097, 9.998878 
6.6502523e+2, 2.64935e+2, -369643.1, -456350.28, 17919.65, 0.069959454, 0.085431956, -366085.63, -22439.766, 0.0, 10.000202, 9.999091 
6.6502017e+2, 2.7493423e+2, -226575.64, -338924.97, 9734.455, 0.024728743, 0.06215105, -225738.44, 19914.021, 0.0000000023427176, 10.000526, 9.999065 
6.650157e+2, 2.8493324e+2, -154616.44, -338051.34, 47045.484, 0.017837726, 0.10033884, -143254.47, 4408.4233, 0.0000014418595, 10.000711, 9.998311 
6.6501147e+2, 2.9493144e+2, -72870.125, -258178.9, 37223.313, 0.037724476, 0.04422743, -65672.57, -15990.221, 0.000014823799, 10.000636, 9.998219 
6.650055e+2, 3.0493075e+2, -43262.457, -180405.55, 32511.143, -0.070367, 0.15066606, -35945.723, -35945.723, 0.000057815294, 10.000356, 9.998557 
6.6500264e+2, 3.149298e+2, -83910.42, -74438.164, -67690.98, 0.17488432, 0.14609043, -11317.828, -11317.828, 0.00014076945, 9.999445, 9.999724 
6.7508763e+2, 1.2494682e+2, -1875028.0, -1802189.1, -105214.734, -0.04896468, -0.06684074, -1727268.9, -11746.242, 0.0000000023126079, 9.998889, 9.999892 
6.750845e+2, 1.3494864e+2, -1588597.6, -1604334.3, 83166.28, 0.13881145, 0.063519984, -1512928.3, 104580.79, 0.0, 10.000154, 10.000008 
6.7507714e+2, 1.4494899e+2, -1453330.1, -1510735.5, 56123.996, -0.13479102, 0.1269747, -1418995.1, 100512.52, 0.0, 10.000502, 9.999781 
6.750724e+2, 1.5494886e+2, -1332359.3, -1396710.6, 74202.37, -0.07819211, 0.088145286, -1283656.9, 137851.58, 0.0, 10.000649, 9.999816 
6.7506754e+2, 1.6494858e+2, -1261629.0, -1379032.9, 95467.625, -0.06826865, 0.11176568, -1208259.6, 115251.81, 0.0, 10.000747, 9.999226 
6.750635e+2, 1.7494774e+2, -1156775.3, -1278338.1, 89981.11, -0.051909655, 0.067999765, -1108970.4, 116549.805, 0.0, 10.000794, 9.999218 
6.7505956e+2, 1.8494724e+2, -1103819.1, -1188174.8, 65452.363, -0.0010486824, 0.09832097, -1068131.9, 59393.375, 0.0, 10.000435, 9.99934 
6.7505586e+2, 1.9494686e+2, -1116448.3, -1144607.9, 104640.99, 0.06743919, 0.09142231, -1024944.1, 4584.6333, 0.0, 9.999679, 9.999332 
6.7505145e+2, 2.0494622e+2, -1036494.0, -1093132.9, 90137.45, 0.061453536, 0.11921182, -970331.94, -38797.574, 0.0, 9.999697, 9.999014 
6.750463e+2, 2.1494499e+2, -842192.3, -944874.5, 76616.28, -0.027395323, 0.056818657, -801305.6, 32239.78, 0.0, 10.000353, 9.999034 
6.750422e+2, 2.2494373e+2, -737981.9, -869441.9, 53550.324, -0.018174415, 0.046727944, -718929.4, 16627.254, 0.0, 10.000522, 9.998792 
6.7503935e+2, 2.349421e+2, -695950.25, -800290.7, 62802.094, 0.08255004, -0.032001, -666475.9, -28904.26, 0.0, 10.000147, 9.9987755 
6.7503524e+2, 2.4494138e+2, -623328.7, -730749.5, 7214.9663, 0.10095634, 0.034595683, -622846.25, -83265.83, 0.0, 10.000017, 9.998648 
6.750297e+2, 2.5494125e+2, -541452.25, -646913.2, 12011.653, 0.023044622, 0.11936622, -540101.44, -98514.34, 0.0, 9.99992, 9.998598 
6.750244e+2, 2.649412e+2, -377265.63, -436941.25, 12099.265, -0.061366715, 0.22642136, -374905.8, -31315.553, 0.0, 10.000057, 9.999292 
6.750192e+2, 2.7494094e+2, -231257.63, -317413.78, 42116.242, -0.15746272, 0.23313592, -214090.38, 31502.178, 0.0000000015372758, 10.000393, 9.999281 
6.750161e+2, 2.8494006e+2, -133014.58, -276524.53, 28849.5, -0.050710972, 0.25165176, -127432.17, 20168.396, 0.0000017821444, 10.000645, 9.998762 
6.7501456e+2, 2.9493812e+2, -62740.133, -201592.63, 59539.47, 0.22638203, 0.13517392, -40706.266, 8912.908, 0.000019076204, 10.000485, 9.998677 
6.750082e+2, 3.0493617e+2, -67181.13, -208739.58, -9830.864, 0.12402146, 0.09760407, -66501.664, -66501.664, 0.000073988194, 10.000269, 9.998402 
6.7500037e+2, 3.1493407e+2, -35739.254, 61351.64, -76902.26, -0.082558915, -0.0014939652, 103749.13, 103749.13, 0.00017626988, 9.999303, 10.00072 
6.8508726e+2, 1.2495339e+2, -1690132.9, -1735537.1, -80711.51, -0.022459839, -0.053888224, -1628991.5, 86467.29, 0.0000000036242784, 10.000222, 9.999726 
6.850841e+2, 1.3495488e+2, -1631771.9, -1646203.5, 53460.098, 0.11699877, 0.0700975, -1585042.8, 32406.027, 0.0, 9.99997, 9.999797 
6.850786e+2, 1.4495543e+2, -1563615.4, -1550361.4, 41917.555, 0.011840665, 0.15748967, -1514550.1, 4894.6567, 0.0, 9.9996805, 9.999909 
6.850729e+2, 1.54955e+2, -1459860.9, -1446584.9, -1635.4258, -0.033795446, 0.07502138, -1446386.4, -24939.25, 0.0, 9.99971, 9.99994 
6.85068e+2, 1.6495451e+2, -1383192.6, -1456334.3, 61702.383, -0.051248033, 0.07947115, -1348037.5, -24586.11, 0.0, 9.999987, 9.999067 
6.850645e+2, 1.7495362e+2, -1219846.3, -1332535.1, 53479.14, -0.0006020379, 0.04941527, -1198507.3, 26953.7, 0.0, 10.000457, 9.999021 
6.850605e+2, 1.8495308e+2, -1066105.6, -1147741.6, 39672.523, 0.050192494, 0.07710251, -1050002.4, 77462.99, 0.0, 10.000585, 9.999545 
6.8505585e+2, 1.9495253e+2, -1017489.2, -1072745.9, 21578.738, 0.08135015, 0.029575888, -1010060.94, 19407.326, 0.0, 10.000239, 9.999552 
6.8505144e+2, 2.0495185e+2, -986756.2, -1117770.9, 78923.984, 0.07129902, 0.06361448, -949695.44, -18220.668, 0.0, 10.000285, 9.998534 
6.8504727e+2, 2.1495067e+2, -809766.25, -986651.2, 50100.45, 0.016644364, 0.056503642, -796561.7, 36927.293, 0.0, 10.00083, 9.998507 
6.8504333e+2, 2.2494934e+2, -674627.25, -830231.94, 45178.73, 0.029552009, 0.061457023, -662461.1, 73041.11, 0.0, 10.0009, 9.998883 
6.850399e+2, 2.3494759e+2, -646735.9, -767227.94, 47733.65, 0.1151717, -0.037837412, -630117.8, 7399.5303, 0.0, 10.000423, 9.998876 
6.850354e+2, 2.4494676e+2, -577158.6, -706399.6, 70703.84, 0.11134062, 0.008963004, -545993.75, -6467.1934, 0.0, 10.000338, 9.998649 
6.8502986e+2, 2.5494656e+2, -420062.4, -584688.6, 62216.777, 0.008605044, 0.08535564, -399194.22, 42338.645, 0.0, 10.000759, 9.998608 
6.8502456e+2, 2.649463e+2, -295247.4, -415743.6, 83217.93, -0.07246335, 0.18267024, -252757.69, 90780.086, 0.0, 10.000689, 9.999134 
6.8501985e+2, 2.7494574e+2, -304132.97, -371181.72, 47792.086, -0.10512424, 0.17341395, -279279.53, -33735.188, 0.00000000039754933, 9.999956, 9.9991255 
6.850168e+2, 2.8494528e+2, -230226.23, -284454.47, 67650.77, 0.0019368655, 0.22090434, -184458.23, -36909.344, 0.000001935021, 9.999805, 9.999109 
6.8501496e+2, 2.9494444e+2, -41210.54, -150239.52, 53433.883, 0.2382958, 0.18096481, -19390.178, 30166.252, 0.000022833043, 10.000437, 9.999058 
6.8500906e+2, 3.0494198e+2, 21966.72, -167307.58, -882.37286, 0.16526666, 0.07597013, 21970.834, 21970.834, 0.00009092674, 10.000914, 9.998372 
6.850004e+2, 3.1494018e+2, 154815.08, 155636.6, -131073.03, -0.050826646, 0.020854844, 286299.5, 286299.5, 0.00021663251, 10.000589, 10.000764 
6.950874e+2, 1.24961324e+2, -1698906.8, -1748031.3, -125947.836, -0.12188585, 0.095830955, -1595148.5, 120235.45, 0.00000000017840025, 10.000221, 9.999626 
6.95083e+2, 1.34961e+2, -1657360.6, -1701207.9, 55798.535, -0.030598959, 0.080014504, -1619333.3, -1943.0865, 0.0, 9.999989, 9.999405 
6.9507897e+2, 1.4496084e+2, -1580765.0, -1582395.1, 22368.896, 0.038446076, 0.12146949, -1559196.4, -39804.09, 0.0, 9.999659, 9.999702 
6.9507337e+2, 1.5496e+2, -1477047.0, -1486195.9, 18062.797, 0.002295046, 0.02159524, -1462988.4, -41590.75, 0.0, 9.999715, 9.999672 
6.950684e+2, 1.6495954e+2, -1376962.3, -1426803.5, 63438.824, -0.044490475, 0.032399237, -1333724.8, -10323.678, 0.0, 9.999925, 9.999294 
6.95065e+2, 1.7495932e+2, -1216131.9, -1305827.4, 92741.836, -0.034611136, 0.047185544, -1157963.4, 67440.19, 0.0, 10.000376, 9.999242 
6.9506073e+2, 1.8495888e+2, -1092914.0, -1169522.1, 11947.555, -0.015280678, 0.07708527, -1091093.9, 36312.164, 0.0, 10.000444, 9.999455 
6.9505554e+2, 1.9495775e+2, -1047128.6, -1098719.3, 24046.955, -0.008798341, -0.020966789, -1037658.44, -8244.906, 0.0, 10.000099, 9.999432 
6.950513e+2, 2.0495674e+2, -1027448.06, -1171186.1, 80834.11, 0.00013513253, -0.00020201803, -991153.75, -59729.496, 0.0, 10.00014, 9.9982395 
6.950484e+2, 2.1495554e+2, -863223.8, -1044906.7, 86360.41, 0.016572133, 0.021149848, -828724.56, 4716.501, 0.0, 10.000603, 9.998215 
6.9504464e+2, 2.2495487e+2, -673659.7, -777969.06, 10461.666, 0.03750842, 0.08325931, -672620.8, 62828.277, 0.0, 10.000682, 9.999345 
6.9503987e+2, 2.3495437e+2, -644333.94, -713890.0, 44505.805, 0.047953337, 0.060767893, -622629.44, 14822.303, 0.0, 10.000221, 9.999331 
6.9503504e+2, 2.4495348e+2, -575831.06, -674501.6, 71564.586, 0.0065408307, 0.06466323, -538244.2, 1214.5118, 0.0, 10.000204, 9.998934 
6.9503e+2, 2.5495178e+2, -416913.22, -549274.56, 97161.94, -0.09206841, -0.04068592, -365534.03, 75940.03, 0.0, 10.000625, 9.998919 
6.950253e+2, 2.6495028e+2, -351724.44, -503190.13, 41994.324, -0.09813252, -0.057464518, -340860.6, 2628.4575, 0.0, 10.0005665, 9.9985895 
6.9502115e+2, 2.749487e+2, -367142.4, -466138.4, 38750.91, -0.00082912977, -0.111021645, -353777.97, -108270.78, 0.0000000054780975, 9.999806, 9.998542 
6.9501704e+2, 2.849489e+2, -225796.33, -256525.9, 73011.19, 0.008859025, 0.018792868, -166550.73, -19043.396, 0.000002364329, 9.999723, 9.999339 
6.9501233e+2, 2.949504e+2, -40303.34, -119084.234, 102026.97, -0.11470606, 0.19001928, 29673.074, 79166.445, 0.000027093956, 10.000314, 9.999328 
6.950077e+2, 3.0494815e+2, 18496.361, -166619.08, -19185.234, -0.094305485, 0.087315105, 20463.795, 20463.795, 0.00010798756, 10.000871, 9.998395 
6.950022e+2, 3.1494826e+2, 68800.59, 7002.764, -89583.16, -0.017394109, 0.2200884, 132663.94, 132663.94, 0.00025661878, 10.000458, 9.999802 
7.0508736e+2, 1.24967836e+2, -1813535.9, -1790969.4, -67239.92, -0.0850229, 0.119991004, -1734072.5, -18752.057, 0.0, 9.999355, 9.999769 
7.050828e+2, 1.3496687e+2, -1666447.8, -1719225.0, 43496.668, -0.03719339, 0.052698057, -1641960.9, -24630.15, 0.0, 9.999961, 9.999304 
7.0508003e+2, 1.4496626e+2, -1510848.4, -1588504.1, 67408.73, 0.15166384, 0.075121164, -1471884.6, 47451.87, 0.0, 10.000313, 9.999336 
7.050741e+2, 1.5496543e+2, -1305062.8, -1437970.8, 16574.79, 0.042867873, 0.00887323, -1303026.9, 118316.74, 0.0, 10.001062, 9.999334 
7.05069e+2, 1.649649e+2, -1215397.5, -1339797.5, 66808.57, -0.023272123, 0.027028471, -1186316.5, 137031.42, 0.0, 10.001009, 9.999355 
7.050657e+2, 1.7496443e+2, -1268486.5, -1316958.1, 45967.17, 0.033547144, 0.008022723, -1240757.4, -15405.936, 0.0, 9.999972, 9.99934 
7.050615e+2, 1.8496385e+2, -1173640.8, -1238687.6, 12334.047, 0.04787553, 0.030516192, -1171380.5, -44025.105, 0.0, 10.000014, 9.999193 
7.050562e+2, 1.9496267e+2, -912246.94, -1064251.3, -20633.201, 0.0068499884, -0.04500052, -909495.94, 119868.88, 0.0, 10.001143, 9.999176 
7.05052e+2, 2.0496164e+2, -841572.0, -1061248.1, 61110.336, 0.0010743845, -0.020746013, -825716.5, 105659.28, 0.0, 10.001301, 9.998452 
7.05049e+2, 2.1496056e+2, -879433.06, -1028494.7, 73786.73, 0.036568243, -0.011059265, -849086.25, -15695.546, 0.0, 10.000363, 9.998454 
7.050452e+2, 2.249602e+2, -757700.7, -817942.2, 41113.94, 0.070823245, 0.06941426, -736854.6, -1458.6538, 0.0, 10.000118, 9.9993305 
7.050406e+2, 2.3496018e+2, -583427.2, -687202.8, 4639.9155, 0.08414171, 0.098826215, -583220.1, 54175.2, 0.0, 10.000654, 9.999303 
7.050358e+2, 2.4495931e+2, -486169.75, -633720.7, 34783.496, 0.044753365, 0.10579354, -478381.06, 61021.293, 0.0, 10.000827, 9.998918 
7.0503104e+2, 2.5495714e+2, -420287.75, -550877.56, 5306.481, -0.035891775, -0.04098213, -420072.47, 21348.12, 0.0, 10.000603, 9.998921 
7.0502645e+2, 2.6495543e+2, -370902.97, -522998.53, -30858.803, -0.030728092, -0.07818147, -364880.47, -21443.232, 0.0, 10.0004835, 9.998496 
7.05022e+2, 2.749538e+2, -276496.88, -429402.72, -37449.44, 0.07269954, -0.1266762, -267817.5, -22361.945, 0.000000016182126, 10.000467, 9.998471 
7.0501715e+2, 2.8495368e+2, -166162.55, -241733.4, 52818.813, 0.04031274, -0.017335603, -139005.19, 8453.038, 0.0000030357212, 10.000177, 9.999235 
7.0501184e+2, 2.9495475e+2, -176113.28, -195078.0, 20194.467, -0.14307725, 0.11780488, -163285.73, -113837.35, 0.000031540207, 9.9994135, 9.999251 
7.0500827e+2, 3.0495277e+2, -117250.92, -221659.84, -45378.13, -0.061124213, 0.039281964, -100285.445, -100285.445, 0.00012311795, 9.999883, 9.998487 
7.0500386e+2, 3.149536e+2, 158419.31, -15302.4795, -173982.95, 0.07638864, 0.23049344, 266018.9, 266018.9, 0.0002906225, 10.00136, 9.9992 
7.150863e+2, 1.24972984e+2, -1769821.3, -1700522.1, -48799.863, -0.20649235, 0.048004605, -1675321.8, 39946.03, 0.0, 9.999361, 10.000381 
7.150829e+2, 1.3497229e+2, -1640120.3, -1678315.6, 73154.19, -0.06289373, -0.024780678, -1583612.0, 33660.08, 0.0, 10.000009, 9.999565 
7.1508104e+2, 1.449717e+2, -1548439.0, -1660863.0, 72330.5, 0.1758548, 0.009761405, -1513045.9, 6232.1577, 0.0, 10.0002985, 9.998839 
7.150745e+2, 1.5497138e+2, -1346402.4, -1513799.3, 63512.29, -0.06511189, 0.042979874, -1325033.0, 96251.016, 0.0, 10.001021, 9.998831 
7.1506935e+2, 1.6497059e+2, -1236356.4, -1358472.9, 9458.1, -0.12802553, 0.06514814, -1235628.1, 87663.516, 0.0, 10.000912, 9.99927 
7.150663e+2, 1.7496893e+2, -1287096.3, -1338019.6, 21875.432, 0.05553435, -0.06535957, -1278989.6, -53684.586, 0.0, 9.999908, 9.999224 
7.150623e+2, 1.8496792e+2, -1214766.9, -1303219.1, 36331.688, 0.09168692, -0.058147535, -1201757.3, -74443.164, 0.0, 9.999925, 9.998798 
7.150574e+2, 1.949673e+2, -967072.1, -1134981.5, 39311.402, -0.025574524, -0.036992867, -958324.2, 70997.445, 0.0, 10.000965, 9.998777 
7.150528e+2, 2.0496672e+2, -819778.56, -965008.2, 9947.982, -0.07555825, 0.012647568, -819100.3, 112227.74, 0.0, 10.00109, 9.999211 
7.150486e+2, 2.1496582e+2, -864074.2, -935477.44, 53534.465, -0.06458458, -0.036509242, -835428.75, -2091.8806, 0.0, 10.000117, 9.999207 
7.1504486e+2, 2.2496541e+2, -818669.25, -904578.0, 42961.566, -0.011201959, 0.028351542, -800871.9, -65529.895, 0.0, 9.999941, 9.998826 
7.1504146e+2, 2.3496513e+2, -651685.4, -777566.94, 41288.2, 0.07392921, 0.08309857, -639351.6, -2004.4222, 0.0, 10.000432, 9.998792 
7.1503735e+2, 2.4496436e+2, -538915.0, -696644.7, 9667.92, 0.08381363, 0.14414614, -538324.6, 1031.56, 0.0, 10.000628, 9.998584 
7.1503246e+2, 2.5496274e+2, -472003.66, -613205.1, 14977.608, 0.014515938, 0.08748815, -470432.44, -29060.229, 0.0, 10.000419, 9.998581 
7.1502733e+2, 2.6496178e+2, -353766.25, -474799.06, -49184.83, -0.02278563, 0.12575406, -336299.44, 7082.585, 0.0, 10.000421, 9.998862 
7.150217e+2, 2.7496102e+2, -269360.1, -385344.47, -17625.826, -0.037331223, 0.12506789, -266740.7, -21350.97, 0.000000020828322, 10.000337, 9.998841 
7.1501696e+2, 2.849596e+2, -209580.14, -306177.25, 8893.028, -0.036833186, 0.10659639, -208768.23, -61365.797, 0.0000037854625, 10.000079, 9.998834 
7.1501267e+2, 2.9495734e+2, -229386.83, -268042.13, 17737.977, -0.04577296, -0.048327778, -222481.03, -173058.95, 0.000035842306, 9.99927, 9.998812 
7.1501e+2, 3.0495584e+2, -112143.47, -210800.39, -1308.2064, 0.08625956, -0.06206288, -112126.125, -112126.125, 0.000135526, 9.999867, 9.99858 
7.1500456e+2, 3.1495595e+2, 106094.01, -93291.25, -55645.492, -0.073486134, 0.048620075, 120572.484, 120572.484, 0.00031586387, 10.001214, 9.998746 
7.250871e+2, 1.24977574e+2, -1658664.1, -1665191.0, 15620.972, -0.080273315, -0.017337423, -1645969.4, 69252.31, 0.0, 10.000159, 10.000269 
7.2508305e+2, 1.349773e+2, -1551604.0, -1641695.6, -16678.262, -0.063086234, -0.033156905, -1548615.5, 68606.81, 0.0, 10.000659, 9.999499 
7.250814e+2, 1.4497657e+2, -1521831.4, -1655777.8, 7861.124, 0.17773631, -0.005901821, -1521371.6, -2141.5354, 0.0, 10.000503, 9.998797 
7.250753e+2, 1.5497647e+2, -1506250.8, -1591296.3, -567.5402, -0.016463222, 0.056538794, -1506247.0, -85012.59, 0.0, 9.999922, 9.998842 
7.250703e+2, 1.6497576e+2, -1361011.9, -1429296.4, -3903.356, -0.06678146, 0.09048775, -1360789.5, -37547.92, 0.0, 10.000061, 9.999222 
7.250669e+2, 1.7497404e+2, -1145640.9, -1273130.8, -20630.9, 0.08316182, -0.041195374, -1142385.4, 82870.234, 0.0, 10.000874, 9.999219 
7.250629e+2, 1.849731e+2, -1066803.3, -1220396.5, 55998.473, 0.1255766, -0.03606791, -1048554.9, 78709.65, 0.0, 10.000887, 9.9989 
7.250584e+2, 1.9497254e+2, -1094880.3, -1185024.3, 60891.508, 0.03784703, -0.016233634, -1064194.3, -34922.51, 0.0, 10.000031, 9.998885 
7.250538e+2, 2.0497213e+2, -962186.75, -1015090.3, 56138.266, -0.025812328, 0.037564773, -926580.5, 4695.623, 0.0, 10.000059, 9.999362 
7.250491e+2, 2.1497142e+2, -730226.7, -855693.7, 21221.273, -0.06019652, -0.005088256, -726734.56, 106547.15, 0.0, 10.000979, 9.999339 
7.250451e+2, 2.2497062e+2, -654076.56, -863644.75, 30336.299, -0.033979524, 0.031785395, -649773.5, 85516.664, 0.0, 10.001228, 9.998499 
7.250418e+2, 2.3496945e+2, -624755.56, -802256.7, 8414.639, 0.06406017, 0.03078008, -624357.56, 12947.111, 0.0, 10.00077, 9.998472 
7.250381e+2, 2.4496862e+2, -552212.75, -690524.3, 32894.637, 0.10764862, 0.097312555, -544788.0, -5473.1772, 0.0, 10.000502, 9.998675 
7.250336e+2, 2.549678e+2, -447130.56, -594165.6, 34996.33, 0.08387017, 0.10940303, -439225.9, 2098.188, 0.0, 10.000557, 9.998644 
7.2502834e+2, 2.6496714e+2, -348984.44, -483888.44, 1670.8201, 0.036103904, 0.18069743, -348963.75, -5632.168, 0.0, 10.000517, 9.998748 
7.250222e+2, 2.749662e+2, -261526.38, -395972.22, -41528.54, -0.016036859, 0.17797278, -249733.22, -4391.853, 0.000000011844985, 10.000443, 9.998722 
7.250173e+2, 2.849646e+2, -156672.64, -294147.5, 12351.205, -0.013100573, 0.15092772, -155571.78, -8215.313, 0.000004675658, 10.000526, 9.998689 
7.250135e+2, 2.9496202e+2, -20028.88, -180868.16, -3803.539, 0.041156948, -0.020507056, -19938.986, 29439.883, 0.000040333267, 10.000786, 9.998669 
7.2501135e+2, 3.0496094e+2, -15733.433, -142727.78, 49173.242, 0.21818131, 0.009196916, 1080.6559, 1080.6559, 0.00014552829, 10.000443, 9.99878 
7.2500545e+2, 3.1496054e+2, -150839.75, -170582.7, -32911.215, 0.006121938, 0.04633588, -126351.46, -126351.46, 0.00033116215, 9.999247, 9.99917 
7.3508924e+2, 1.24981895e+2, -1711661.9, -1770634.5, 33511.008, 0.035980552, -0.041953377, -1696511.6, 18667.97, 0.0, 10.000149, 9.999541 
7.350828e+2, 1.349819e+2, -1597276.5, -1738100.3, 8715.636, -0.18855673, 0.030543774, -1596739.3, 20441.867, 0.0, 10.00065, 9.998847 
7.350803e+2, 1.4498068e+2, -1507109.1, -1596567.3, -36184.06, -0.017152142, 0.016592937, -1494305.8, 24888.5, 0.0, 10.000395, 9.999243 
7.350761e+2, 1.5498053e+2, -1483965.8, -1540320.0, -1797.5172, 0.026560115, 0.029895151, -1483908.4, -62711.836, 0.0, 9.999904, 9.999199 
7.350715e+2, 1.649804e+2, -1357572.0, -1416051.3, 7328.692, 0.006336389, 0.09775106, -1356667.5, -33469.406, 0.0, 10.000034, 9.999324 
7.3506707e+2, 1.7497993e+2, -1154010.4, -1266643.8, 29766.213, -0.020350516, 0.0806528, -1146627.8, 78574.14, 0.0, 10.000768, 9.999318 
7.3506296e+2, 1.8497942e+2, -1052697.9, -1150203.1, 7762.6465, 0.0015788414, 0.10041319, -1052083.8, 75122.31, 0.0, 10.000719, 9.999456 
7.3505884e+2, 1.9497855e+2, -1080342.0, -1115539.1, 42864.938, 0.04895272, 0.028920278, -1051603.6, -22389.564, 0.0, 9.999874, 9.99943 
7.350545e+2, 2.0497803e+2, -1018187.56, -1096683.6, 72315.96, 0.013409739, 0.07049256, -975155.56, -43936.813, 0.0, 9.999903, 9.998879 
7.3504984e+2, 2.149775e+2, -796360.7, -937778.75, 72860.555, -0.11038663, 0.09361709, -765539.25, 67684.61, 0.0, 10.000743, 9.998887 
7.350455e+2, 2.2497602e+2, -700470.1, -901511.5, -4443.944, -0.14376357, 0.09015082, -700371.94, 34867.008, 0.0, 10.000981, 9.998355 
7.350413e+2, 2.3497322e+2, -668809.1, -837910.25, 9599.182, -0.09352301, -0.061014634, -668265.94, -30998.672, 0.0, 10.000539, 9.998333 
7.3503745e+2, 2.4497214e+2, -534581.3, -626497.56, 18922.094, -0.033384398, -0.03727955, -530838.4, 8439.779, 0.0, 10.000376, 9.999178 
7.3503387e+2, 2.5497237e+2, -441973.0, -535826.44, 53824.19, 0.027690422, 0.031449787, -417491.3, 23784.105, 0.0, 10.000352, 9.999144 
7.35029e+2, 2.649717e+2, -414951.63, -585897.56, -14556.1875, 0.020251855, 0.107121594, -413721.0, -70437.1, 0.0, 10.000368, 9.998116 
7.350228e+2, 2.749696e+2, -327042.06, -500396.28, -18869.45, -0.04483279, 0.04845979, -325011.9, -79703.32, 0.000000051096855, 10.000313, 9.998066 
7.350178e+2, 2.8496876e+2, -146471.31, -276291.4, 5552.125, -0.06618437, 0.12533611, -146234.3, 1084.7341, 0.0000058850314, 10.0005245, 9.9988165 
7.350137e+2, 2.9496887e+2, -30173.398, -180512.77, 29553.96, -0.06406114, 0.20927617, -24572.307, 24745.627, 0.000044056193, 10.000684, 9.998725 
7.3501176e+2, 3.049682e+2, -5407.857, -112627.19, -4103.801, 0.18182409, 0.2679005, -5251.014, -5251.014, 0.00015023243, 10.000405, 9.999003 
7.3500496e+2, 3.149664e+2, -90289.51, -6893.509, 28828.715, -0.049621407, 0.1402566, 2101.8635, 2101.8635, 0.0003329124, 9.99909, 10.000367 
7.4509025e+2, 1.24987304e+2, -1707446.8, -1822554.6, 136071.61, 0.12766132, 0.029200226, -1617257.9, 97868.484, 0.0, 10.000446, 9.999014 
7.4508363e+2, 1.3498703e+2, -1639037.1, -1775396.9, 39519.582, -0.15394501, 0.09146364, -1628411.6, -11278.905, 0.0, 10.000475, 9.998654 
7.4508035e+2, 1.4498532e+2, -1491405.3, -1567229.9, 27880.408, -0.04493189, 0.028634645, -1482257.4, 36893.453, 0.0, 10.000404, 9.999432 
7.4507666e+2, 1.5498497e+2, -1383147.4, -1464470.6, 1647.2379, 0.07153371, -0.0018236481, -1383114.0, 38039.418, 0.0, 10.000489, 9.999419 
7.45072e+2, 1.6498503e+2, -1300104.3, -1379272.5, 60051.188, 0.054318886, 0.070412986, -1267764.5, 55387.793, 0.0, 10.000392, 9.999404 
7.450671e+2, 1.7498508e+2, -1239219.0, -1297280.9, 44695.215, -0.045090493, 0.09692269, -1214954.0, 10197.576, 0.0, 10.000126, 9.99942 
7.45063e+2, 1.8498467e+2, -1148093.6, -1233624.6, 11122.61, -0.031244287, 0.1350186, -1146671.0, -19515.334, 0.0, 10.000221, 9.999131 
7.450593e+2, 1.9498335e+2, -988429.25, -1110413.9, -50647.42, 0.08152964, 0.054392457, -970142.2, 59026.656, 0.0, 10.000666, 9.999088 
7.450553e+2, 2.049826e+2, -912518.0, -1049604.0, 10414.407, 0.07725405, 0.08912419, -911731.3, 19444.947, 0.0, 10.000633, 9.998839 
7.4505085e+2, 2.1498208e+2, -890740.5, -991524.2, 5814.428, -0.04834135, 0.116404206, -890406.2, -57224.89, 0.0, 10.000118, 9.9988165 
7.4504644e+2, 2.2498065e+2, -791370.06, -910841.9, -6053.9565, -0.09781015, 0.107216306, -791064.06, -55869.152, 0.0, 10.000209, 9.998656 
7.45042e+2, 2.3497796e+2, -599893.2, -774836.2, 2832.1118, -0.075651124, -0.06442876, -599847.3, 37373.62, 0.0, 10.000862, 9.998615 
7.450381e+2, 2.449771e+2, -447559.7, -569581.94, 36853.5, -0.028392132, -0.039893404, -437292.9, 101936.09, 0.0, 10.000908, 9.999318 
7.450344e+2, 2.549777e+2, -406225.56, -499609.47, 9135.761, 0.048727598, 0.050114416, -405340.2, 35882.516, 0.0, 10.000512, 9.999316 
7.4502975e+2, 2.6497686e+2, -399334.75, -588485.9, -2842.7773, 0.064322695, 0.10684193, -399292.03, -56059.785, 0.0, 10.00052, 9.998027 
7.450241e+2, 2.7497423e+2, -248276.34, -464137.3, -1826.3715, 0.0359584, -0.0014929345, -248260.89, -2999.199, 0.00000017449423, 10.000884, 9.998029 
7.450191e+2, 2.8497323e+2, -118582.445, -294056.1, 53725.426, 0.0076034553, 0.08186369, -103439.87, 43834.047, 0.0000070145306, 10.000852, 9.998539 
7.4501467e+2, 2.9497367e+2, -78387.63, -231358.3, 6952.3623, -0.0150955105, 0.22356373, -78072.305, -28800.178, 0.00004543542, 10.000461, 9.998487 
7.450123e+2, 3.0497295e+2, -24672.457, -102953.11, -21956.541, 0.2156152, 0.27831405, -18934.563, -18934.563, 0.00014809403, 10.00019, 9.999169 
7.450053e+2, 3.149716e+2, 17268.38, 86463.164, -11243.37, 0.0646699, 0.17872198, 88244.24, 88244.24, 0.00032280377, 9.999664, 10.000715 
7.550896e+2, 1.2499367e+2, -1739494.4, -1870596.6, 104194.18, -0.06373691, 0.16490549, -1681946.4, 33117.082, 0.0, 10.00037, 9.998723 
7.550848e+2, 1.3499255e+2, -1627531.4, -1755687.5, 54054.035, -0.113199495, 0.12995617, -1607777.3, 9301.211, 0.0, 10.0004835, 9.998794 
7.55081e+2, 1.4499044e+2, -1500010.8, -1571159.0, 7350.804, -0.069018826, 0.021702405, -1499259.3, 19841.174, 0.0, 10.000353, 9.999427 
7.550764e+2, 1.5498996e+2, -1395126.9, -1470718.3, 20419.615, -0.041739803, -0.017880453, -1389963.6, 31139.7, 0.0, 10.000414, 9.999415 
7.550715e+2, 1.6498975e+2, -1300782.5, -1364134.1, 29672.82, -0.077544905, 0.020293018, -1289055.1, 34048.563, 0.0, 10.000318, 9.999544 
7.5506663e+2, 1.7498961e+2, -1240608.6, -1286535.8, 51497.85, -0.14706042, 0.017227039, -1207186.5, 17917.541, 0.0, 10.00007, 9.999519 
7.5506264e+2, 1.8498886e+2, -1240587.6, -1404724.8, 7187.585, -0.12155353, 0.07452429, -1240273.5, -113160.5, 0.0, 10.000128, 9.998006 
7.5505936e+2, 1.9498704e+2, -1089353.1, -1280882.1, -16046.869, -0.012716436, 0.05846087, -1088018.0, -58882.74, 0.0, 10.000502, 9.997997 
7.550557e+2, 2.049859e+2, -918596.25, -1016732.75, -25946.244, 0.023897903, 0.092797115, -912158.6, 18989.318, 0.0, 10.000433, 9.9991665 
7.550515e+2, 2.1498513e+2, -900871.4, -955365.7, 3267.2222, -0.019618137, 0.062008746, -900676.2, -67522.45, 0.0, 9.999886, 9.999174 
7.550476e+2, 2.2498459e+2, -767966.6, -818087.7, 2537.2068, -0.03411943, 0.08483175, -767838.5, -32680.67, 0.0, 10.000013, 9.999391 
7.550437e+2, 2.3498385e+2, -583125.94, -685889.6, 44435.99, -0.027916448, 0.037748132, -566576.56, 70587.76, 0.0, 10.00063, 9.999339 
7.550394e+2, 2.449837e+2, -487568.16, -616433.06, 5791.704, -0.024066754, 0.11036665, -487308.4, 51857.254, 0.0, 10.000746, 9.999074 
7.550346e+2, 2.549837e+2, -444030.34, -547028.06, 11546.977, -0.021787407, 0.1627562, -442751.72, -1585.1311, 0.0, 10.000377, 9.999055 
7.550301e+2, 2.649826e+2, -374582.1, -518054.25, -5006.2007, 0.011908518, 0.17985581, -374407.63, -31230.555, 0.0, 10.000441, 9.998548 
7.5502574e+2, 2.7498007e+2, -234938.56, -402989.88, 32125.451, 0.073385485, 0.034125596, -229006.7, 16193.806, 0.0000002213921, 10.000738, 9.99852 
7.550209e+2, 2.8497815e+2, -180531.3, -403855.13, 24508.102, 0.07180681, 0.032981653, -177873.36, -30652.79, 0.000006961638, 10.000764, 9.997832 
7.550156e+2, 2.949764e+2, -139071.44, -335625.38, 17753.086, -0.010078855, 0.031114371, -137480.81, -88239.086, 0.00004401986, 10.000356, 9.99783 
7.5501204e+2, 3.0497497e+2, -29841.955, -87181.72, -50945.402, 0.13964511, 0.035912406, -53.336754, -53.336754, 0.0001416952, 10.000096, 9.999308 
7.550049e+2, 3.149769e+2, -36796.64, 14987.536, 64272.402, -0.033064917, 0.250791, 58387.164, 58387.164, 0.0003069929, 9.999507, 10.000286 
7.6508975e+2, 1.24997064e+2, -1800908.5, -1864907.0, 40331.652, -0.03444616, 0.14605263, -1781423.9, -66393.57, 0.00000000032551553, 9.999734, 9.999086 
7.6508594e+2, 1.3499624e+2, -1661349.1, -1700604.5, -39835.637, -0.008369128, 0.07123863, -1636568.3, -19526.68, 0.0, 9.999919, 9.999447 
7.6508135e+2, 1.4499503e+2, -1559511.8, -1582911.4, -5646.1, -0.026373468, 0.011665159, -1558220.8, -39166.867, 0.0, 9.99984, 9.999613 
7.6507664e+2, 1.549952e+2, -1429525.6, -1466609.1, -11226.443, -0.030598173, 0.017815633, -1426391.9, -5341.782, 0.0, 10.000058, 9.999634 
7.650718e+2, 1.6499494e+2, -1302848.8, -1404145.1, 33261.895, -0.07343521, 0.05484021, -1292903.4, 30148.432, 0.0, 10.000485, 9.999179 
7.6506734e+2, 1.7499392e+2, -1116017.8, -1267374.4, -16542.527, -0.12753543, 0.0001394878, -1114230.9, 110830.99, 0.0, 10.001113, 9.999142 
7.6506346e+2, 1.8499292e+2, -1076320.6, -1314135.8, -6023.3467, -0.09268487, 0.04420276, -1076168.3, 50905.21, 0.0, 10.001212, 9.9980955 
7.650602e+2, 1.9499145e+2, -1044293.1, -1254964.6, 23637.03, 0.0149435885, 0.054422226, -1041673.6, -12582.536, 0.0, 10.000778, 9.998047 
7.650563e+2, 2.0499031e+2, -891850.7, -1005429.8, 74278.68, 0.044786032, 0.087093614, -855139.56, 75963.87, 0.0, 10.000639, 9.999144 
7.650519e+2, 2.1498905e+2, -769208.0, -902417.6, 44420.93, -0.011812062, 0.009878461, -755754.0, 77360.84, 0.0, 10.000813, 9.999103 
7.650481e+2, 2.2498873e+2, -668950.06, -748373.6, 47228.707, -0.0027368048, 0.05044327, -646956.3, 88160.69, 0.0, 10.000622, 9.999572 
7.650449e+2, 2.3498906e+2, -644873.2, -689844.0, 12509.328, 0.0677012, 0.09340483, -641627.75, -4514.998, 0.0, 10.000121, 9.999543 
7.6504064e+2, 2.4498878e+2, -581310.5, -680454.7, -8344.346, 0.06667373, 0.1495648, -580613.1, -41497.813, 0.0, 10.000181, 9.998909 
7.650352e+2, 2.5498754e+2, -406227.3, -547649.25, -27102.305, -0.003288358, 0.09456962, -401211.3, 39916.953, 0.0, 10.000719, 9.998888 
7.650306e+2, 2.6498646e+2, -271935.8, -432883.44, -14547.237, 0.004329927, 0.10713902, -270631.53, 72506.5, 0.0, 10.000996, 9.998866 
7.6502675e+2, 2.7498522e+2, -177312.7, -340441.0, -30520.742, 0.09855916, 0.06217812, -171789.39, 73358.4, 0.00000016204108, 10.000987, 9.998834 
7.650223e+2, 2.8498346e+2, -164450.94, -398534.06, 2085.0183, 0.12989801, 0.06304975, -164432.36, -17266.809, 0.000006290961, 10.00089, 9.997797 
7.650171e+2, 2.9498085e+2, -103569.93, -311546.28, 6559.875, 0.09568548, -0.027527139, -103363.23, -54168.6, 0.000041719115, 10.000605, 9.99785 
7.650125e+2, 3.0497912e+2, 42432.445, -101963.625, -13187.495, 0.15698496, -0.030446278, 43626.96, 43626.96, 0.00013461517, 10.000784, 9.998894 
7.650055e+2, 3.149807e+2, 102125.14, 6140.081, 28321.799, 0.03667309, 0.19246194, 109858.79, 109858.79, 0.00029005748, 10.000761, 9.999646 
7.7508974e+2, 1.24997415e+2, -1732332.1, -1704614.4, -40572.96, -0.10244422, -0.041036762, -1675598.6, 39428.77, 0.0000000023621072, 9.999667, 10.000218 
7.750862e+2, 1.3499808e+2, -1588181.8, -1538494.4, -26634.352, -0.011280559, -0.07360514, -1526915.5, 90106.12, 0.0, 9.999883, 10.000578 
7.75081e+2, 1.4499906e+2, -1518952.3, -1494710.1, -22334.863, -0.0994912, -0.0050056605, -1481419.3, 37592.367, 0.0, 9.999815, 10.000233 
7.7507687e+2, 1.5500084e+2, -1391225.0, -1385329.8, 16964.043, -0.05893137, 0.1061088, -1371059.1, 49933.6, 0.0, 10.000049, 10.000196 
7.750726e+2, 1.6500066e+2, -1371677.5, -1529857.5, 36909.363, -0.082956545, 0.16689628, -1363489.1, -40493.395, 0.0, 10.000417, 9.99835 
7.750687e+2, 1.7499807e+2, -1183058.5, -1385940.8, 27198.172, -0.13635187, 0.039031893, -1179475.6, 45548.8, 0.0, 10.001031, 9.998366 
7.75065e+2, 1.849969e+2, -1007530.1, -1143067.8, -37432.71, -0.09905827, 0.042100623, -997879.2, 129157.016, 0.0, 10.00108, 9.999343 
7.7506137e+2, 1.9499673e+2, -978600.8, -1083461.8, 24860.475, 0.012944045, 0.05835085, -973005.44, 56029.168, 0.0, 10.000622, 9.999304 
7.750567e+2, 2.0499592e+2, -950684.6, -1077282.4, 63548.965, -0.011758608, 0.079438195, -924288.3, 6753.729, 0.0, 10.000428, 9.99875 
7.750514e+2, 2.14994e+2, -833923.1, -975642.5, 66488.586, -0.16915505, -0.02067176, -807613.75, 25448.787, 0.0, 10.000563, 9.998715 
7.750476e+2, 2.2499333e+2, -730688.6, -825336.06, 9706.202, -0.1433582, 0.02551901, -729703.5, 5366.2793, 0.0, 10.000398, 9.999157 
7.750453e+2, 2.3499353e+2, -701829.44, -762933.4, 10950.365, 0.05962788, 0.094467856, -699926.3, -62858.984, 0.0, 9.999924, 9.999142 
7.750414e+2, 2.4499227e+2, -612387.0, -699307.44, -5092.7393, 0.09649908, 0.07479272, -612089.6, -73010.74, 0.0, 9.999994, 9.998867 
7.75036e+2, 2.5498927e+2, -439595.28, -566443.6, 11283.678, -0.0397012, -0.14853826, -438599.38, 2507.7744, 0.0, 10.000512, 9.998855 
7.7503103e+2, 2.649885e+2, -285838.88, -433940.2, -31238.965, -0.08712744, -0.10408259, -279519.3, 63594.984, 0.0, 10.0008745, 9.99892 
7.7502656e+2, 2.7498952e+2, -190668.08, -338802.44, -11737.632, -0.05495366, 0.06801725, -189743.81, 55361.645, 0.00000014054619, 10.000858, 9.998911 
7.750224e+2, 2.8498897e+2, -136918.58, -312874.22, -23670.795, 0.016725171, 0.15587282, -133789.86, 13321.07, 0.0000059856334, 10.000774, 9.998436 
7.750185e+2, 2.9498675e+2, -76117.64, -233160.86, 20479.076, 0.12480703, 0.03715344, -73491.016, -24357.9, 0.0000396548, 10.000509, 9.998434 
7.750133e+2, 3.049853e+2, -30053.38, -228821.27, -22424.813, 0.12866724, 0.076584965, -27554.842, -27554.842, 0.00012692052, 10.000698, 9.998061 
7.750063e+2, 3.1498355e+2, 4750.4253, -152199.53, 94118.63, -0.04997333, 0.059646882, 48817.844, 48817.844, 0.00027215088, 10.000577, 9.998651 
7.8509e+2, 1.250002e+2, -1714637.5, -1648431.3, 95934.48, -0.017813748, -0.12891689, -1580049.3, 134949.2, 0.0000000040597263, 9.999626, 10.000602 
7.8508645e+2, 1.3500212e+2, -1577251.8, -1500001.5, 5377.7915, 0.034211095, -0.06205463, -1499628.9, 117350.85, 0.0, 9.999843, 10.000844 
7.8508073e+2, 1.4500357e+2, -1495920.0, -1493510.4, 104.5685, -0.10205361, 0.04478387, -1493505.9, 25459.484, 0.0, 10.000029, 10.00013 
7.8507715e+2, 1.5500428e+2, -1338550.5, -1372569.4, -53422.504, -0.04414341, 0.059696816, -1299494.9, 121462.97, 0.0, 10.000479, 10.00007 
7.850734e+2, 1.6500391e+2, -1349225.9, -1498339.0, 8858.702, -0.035664935, 0.1009231, -1348701.5, -25738.69, 0.0, 10.000481, 9.998529 
7.8506994e+2, 1.7500216e+2, -1333408.3, -1438333.3, 31789.535, -0.050735842, 0.03587377, -1324528.4, -99544.914, 0.0, 9.999917, 9.998537 
7.850662e+2, 1.8500127e+2, -1144970.8, -1169342.4, 6133.3447, -0.02402464, 0.040683635, -1143514.3, -16522.582, 0.0, 9.999971, 9.999692 
7.8506196e+2, 1.9500086e+2, -968797.6, -1036455.4, -32101.646, 0.028592845, -0.0028846199, -955990.56, 73000.46, 0.0, 10.000527, 9.9996605 
7.850571e+2, 2.0500025e+2, -923796.06, -1066074.3, 15658.768, -0.009857103, 0.022128355, -922093.1, 8903.015, 0.0, 10.000605, 9.998751 
7.85052e+2, 2.1499902e+2, -908274.25, -1009331.44, 15010.578, -0.12906568, -0.0075783525, -906091.75, -73081.07, 0.0, 10.000043, 9.998737 
7.8504837e+2, 2.2499825e+2, -765591.94, -869869.56, 32205.066, -0.091401115, 0.039228126, -756447.6, -21428.137, 0.0, 10.000275, 9.998906 
7.8504616e+2, 2.3499756e+2, -529194.06, -711494.2, 9924.773, 0.0961429, 0.046077795, -528655.3, 108370.78, 0.0, 10.001244, 9.99886 
7.8504235e+2, 2.4499612e+2, -441560.22, -630301.8, 12180.683, 0.14061354, 0.02839798, -440777.38, 98262.45, 0.0, 10.001224, 9.998746 
7.85037e+2, 2.549936e+2, -492712.5, -609841.56, -12578.884, 0.040987357, -0.13679437, -491376.84, -50313.055, 0.0, 10.000207, 9.998708 
7.85032e+2, 2.6499274e+2, -410618.6, -492627.28, -3841.106, -0.02080441, -0.09255392, -410439.1, -67367.5, 0.0, 10.000025, 9.998919 
7.850273e+2, 2.7499315e+2, -216220.67, -351734.3, -28261.303, -0.039360348, 0.022246635, -210563.0, 34505.1, 0.0000001311964, 10.00069, 9.998898 
7.850233e+2, 2.849926e+2, -89567.41, -278162.63, -43162.305, 0.023331532, 0.10268079, -80158.586, 66915.18, 0.0000058891046, 10.001043, 9.998553 
7.850197e+2, 2.9499108e+2, -1335.9133, -190429.42, -78704.62, 0.18367074, 0.04932687, 27135.646, 76224.65, 0.000037489564, 10.000982, 9.998511 
7.850141e+2, 3.0498984e+2, 9690.86, -229292.78, -66651.76, 0.13795978, 0.11277305, 27022.84, 27022.84, 0.00011865352, 10.0010395, 9.997892 
7.85008e+2, 3.149875e+2, 49870.035, -101547.03, 20111.994, 0.07054388, 0.043686796, 52495.88, 52495.88, 0.00025448482, 10.0007515, 9.998904 
7.950894e+2, 1.250058e+2, -1735298.8, -1709500.0, 17161.453, -0.12952825, -0.098128036, -1700930.5, 14009.067, 0.0000000034592607, 9.999698, 10.000152 
7.9508585e+2, 1.3500836e+2, -1612309.0, -1586535.1, 24141.068, -0.047623985, 0.09334966, -1572056.6, 44859.457, 0.0, 9.999897, 10.000224 
7.950802e+2, 1.4500861e+2, -1562423.8, -1620060.0, -8512.591, -0.21014799, 0.1547982, -1561192.8, -42278.137, 0.0, 9.999988, 9.999276 
7.95077e+2, 1.5500559e+2, -1398618.1, -1489953.3, -15762.466, -0.14717452, -0.12381039, -1395974.4, 24970.053, 0.0, 10.000454, 9.99927 
7.9507375e+2, 1.6500486e+2, -1274554.5, -1336795.3, -30273.908, -0.09165056, -0.13621798, -1262258.4, 60693.082, 0.0, 10.000441, 9.999664 
7.950705e+2, 1.7500618e+2, -1255425.1, -1276015.3, 27448.117, -0.024998225, -0.0069092857, -1236404.9, -11466.451, 0.0, 9.999902, 9.999662 
7.9506654e+2, 1.8500595e+2, -1206212.6, -1264309.6, 10083.497, -0.021781044, 0.03884484, -1204512.4, -77572.234, 0.0, 9.99984, 9.999099 
7.950616e+2, 1.9500376e+2, -1026316.6, -1125031.8, 5753.233, -0.09956356, -0.12840512, -1025982.44, 2978.1816, 0.0, 10.000401, 9.999108 
7.950571e+2, 2.0500329e+2, -918451.06, -1012969.56, -23649.404, -0.10268337, -0.086547606, -912864.0, 18101.668, 0.0, 10.0004225, 9.999202 
7.9505324e+2, 2.1500401e+2, -907188.0, -959938.7, 10684.543, -0.04321204, 0.031205773, -905106.0, -72146.195, 0.0, 9.999837, 9.999174 
7.9504985e+2, 2.2500347e+2, -810283.5, -906543.1, 53856.082, 0.004096444, 0.0843281, -786184.8, -51218.61, 0.0, 10.000034, 9.998769 
7.95047e+2, 2.3500125e+2, -567812.3, -744856.25, 65954.98, 0.028195655, -0.0457119, -545943.2, 91045.0, 0.0, 10.001039, 9.998731 
7.95043e+2, 2.4500038e+2, -483981.7, -674309.1, -42760.92, 0.050103836, 0.01094289, -474816.0, 64181.527, 0.0, 10.001038, 9.998532 
7.950378e+2, 2.550004e+2, -536000.1, -655443.75, -32432.672, 0.06812502, 0.12692977, -527761.9, -86763.63, 0.0, 10.000021, 9.998484 
7.9503304e+2, 2.6499915e+2, -428501.3, -508983.9, 6589.6216, 0.0433368, 0.13994148, -427965.38, -84955.625, 0.0, 9.999926, 9.998856 
7.950286e+2, 2.7499622e+2, -239959.25, -376236.5, 21699.59, -0.019177733, -0.07411219, -236587.44, 8448.16, 0.000000103459534, 10.000578, 9.998784 
7.950244e+2, 2.849945e+2, -129987.734, -344819.97, -59407.39, 0.0007805151, -0.08296033, -114654.27, 32398.428, 0.0000054454867, 10.000968, 9.998133 
7.950201e+2, 2.9499388e+2, -51974.082, -263871.88, -53611.67, 0.07278975, -0.0069710785, -39182.168, 9880.383, 0.00003447301, 10.000842, 9.998077 
7.950142e+2, 3.0499282e+2, 29247.182, -165063.17, -80579.234, 0.009757853, 0.07500211, 58314.594, 58314.594, 0.0001104858, 10.000935, 9.998381 
7.950098e+2, 3.149906e+2, 112917.82, 67331.13, 37635.13, 0.08369906, -0.034892336, 134123.8, 134123.8, 0.000240168, 10.000586, 10.000142 
8.050889e+2, 1.2501061e+2, -1756356.8, -1724900.1, -38228.78, -0.13031167, -0.048929714, -1699290.6, 15601.888, 0.0000000057252847, 9.999581, 10.000122 
8.050862e+2, 1.35012e+2, -1649143.9, -1639347.9, -40779.387, 0.010625973, 0.05945447, -1603173.4, 13706.196, 0.0, 9.9997835, 9.999942 
8.0508083e+2, 1.4501186e+2, -1616118.6, -1644701.3, 16204.526, -0.11687635, 0.097501926, -1608803.8, -89921.84, 0.0, 9.999629, 9.999277 
8.050771e+2, 1.5500912e+2, -1541921.1, -1565915.0, 21147.63, -0.124107495, -0.14871329, -1529604.5, -108694.76, 0.0, 9.999499, 9.999215 
8.0507386e+2, 1.6500866e+2, -1350165.8, -1317509.1, 43030.566, -0.07615679, -0.15551087, -1287813.1, 35100.473, 0.0, 9.999704, 10.000152 
8.050713e+2, 1.7501025e+2, -1162426.5, -1181466.4, 14026.854, 0.044265248, -0.040620215, -1154994.1, 69901.65, 0.0, 10.0003395, 10.000107 
8.0506736e+2, 1.8501024e+2, -1113787.8, -1240066.3, 21375.164, 0.053071212, 0.015141714, -1110267.8, 16627.965, 0.0, 10.00058, 9.998903 
8.050622e+2, 1.9500822e+2, -1058089.4, -1168865.4, 5778.2856, -0.06341541, -0.11083269, -1057788.8, -28871.615, 0.0, 10.000313, 9.998856 
8.050577e+2, 2.0500766e+2, -918727.94, -1002157.25, -4847.557, -0.076935485, -0.06815143, -918447.25, 12476.479, 0.0, 10.000373, 9.999303 
8.050539e+2, 2.1500812e+2, -785761.9, -890828.9, -35203.586, 0.010376459, 0.013852653, -775057.25, 57862.027, 0.0, 10.00063, 9.999266 
8.050506e+2, 2.2500743e+2, -729210.5, -872854.75, 49092.17, 0.054292336, 0.051881883, -714035.75, 20890.566, 0.0, 10.000609, 9.998719 
8.0504775e+2, 2.3500526e+2, -692236.0, -809172.5, 34751.137, 0.04588986, -0.071248256, -682688.2, -45740.137, 0.0, 10.000209, 9.998681 
8.050437e+2, 2.4500453e+2, -545976.4, -683751.1, -33555.246, 0.05217637, -0.008648582, -538238.56, 717.12915, 0.0, 10.00051, 9.998728 
8.0503863e+2, 2.5500476e+2, -311737.53, -525980.0, -29842.277, 0.08435201, 0.10724865, -307658.38, 133295.17, 0.0, 10.001458, 9.998689 
8.0503404e+2, 2.6500344e+2, -203189.67, -424042.53, 53525.27, 0.08346975, 0.11427541, -190901.19, 152064.06, 0.0, 10.001562, 9.998661 
8.050301e+2, 2.7500015e+2, -211086.5, -380271.97, 26077.045, 0.06285707, -0.11755376, -207158.38, 37836.215, 0.00000004701224, 10.000835, 9.99864 
8.0502576e+2, 2.8499842e+2, -192273.16, -375102.97, 581.612, 0.07119151, -0.12340221, -192271.31, -45259.082, 0.000004093495, 10.000542, 9.998131 
8.050209e+2, 2.9499793e+2, -64231.2, -266848.84, -2913.8723, 0.09335582, -0.032499544, -64189.3, -15168.381, 0.000029631305, 10.000755, 9.998097 
8.050149e+2, 3.0499652e+2, 49388.934, -158765.77, 1216.5082, -0.005424422, 0.016505182, 49396.043, 49396.043, 0.00010221737, 10.001079, 9.998371 
8.0501163e+2, 3.1499517e+2, 170212.7, 96219.49, -11606.2, 0.21196274, -0.0059769507, 171990.47, 171990.47, 0.00023173698, 10.000973, 10.000169 
8.15087e+2, 1.2501487e+2, -1725366.4, -1676689.9, -107874.664, -0.36212218, 0.04156312, -1590442.0, 124412.16, 0.000000004999778, 9.999646, 10.000422 
8.150865e+2, 1.3501331e+2, -1638237.4, -1622752.8, -21345.713, 0.026983466, -0.15778965, -1607788.6, 9078.884, 0.0, 9.999818, 10.000032 
8.15082e+2, 1.4501359e+2, -1566505.8, -1548219.1, -11372.905, -0.010654157, -0.11431722, -1542769.9, -23905.342, 0.0, 9.999649, 9.999936 
8.150769e+2, 1.5501487e+2, -1492437.1, -1462843.3, 33023.785, -0.13797693, -0.02145914, -1441452.9, -20599.484, 0.0, 9.999496, 9.999925 
8.1507325e+2, 1.6501528e+2, -1377381.4, -1360975.0, 48277.766, -0.14507636, 0.033808045, -1320208.5, 2640.625, 0.0, 9.999647, 9.999877 
8.1507146e+2, 1.750144e+2, -1186151.1, -1217046.4, 56605.996, -0.0038738055, -0.075731784, -1142922.8, 81932.3, 0.0, 10.000286, 9.999882 
8.1506824e+2, 1.8501419e+2, -1124423.8, -1239614.8, -4407.9473, 0.045133177, -0.033081155, -1124255.4, 2602.2056, 0.0, 10.000472, 9.998963 
8.1506324e+2, 1.9501422e+2, -1072115.8, -1169990.0, 14207.901, -0.024457972, 0.039745897, -1070095.0, -41234.484, 0.0, 10.000184, 9.99891 
8.1505835e+2, 2.050134e+2, -976243.56, -1071149.0, -12914.594, -0.07445202, 0.07419332, -974517.56, -43647.953, 0.0, 10.000157, 9.998935 
8.150536e+2, 2.1501139e+2, -840860.5, -953403.94, -6472.178, -0.11257902, -0.0587712, -840489.5, -7601.0835, 0.0, 10.000407, 9.998942 
8.150501e+2, 2.2501025e+2, -760620.44, -878497.6, 15682.485, -0.0861868, -0.05411972, -758569.75, -23670.563, 0.0, 10.0003605, 9.998799 
8.150477e+2, 2.3500955e+2, -722939.1, -813869.3, 37575.453, -0.011753103, -0.03625966, -709421.25, -72515.25, 0.0, 9.999962, 9.998764 
8.150439e+2, 2.450085e+2, -536525.0, -616368.94, -15174.926, -0.0018750164, -0.037771143, -533738.2, 5176.6094, 0.0, 10.000305, 9.99929 
8.15039e+2, 2.550067e+2, -301461.97, -462189.97, 24065.334, -0.056125175, -0.18288171, -297936.1, 142993.0, 0.0, 10.001275, 9.999216 
8.1503475e+2, 2.6500568e+2, -238503.84, -465636.2, 9484.335, -0.03975851, -0.16059695, -238108.5, 104829.266, 0.0, 10.001432, 9.998435 
8.1503105e+2, 2.7500498e+2, -260236.9, -429622.7, 20522.678, 0.041130506, -0.107457176, -257785.86, -12840.76, 0.000000004527389, 10.00062, 9.998402 
8.1502676e+2, 2.8500426e+2, -179844.4, -325574.88, -7619.5894, 0.075466834, -0.018348439, -179447.1, -32494.035, 0.0000024308686, 10.000435, 9.998525 
8.150218e+2, 2.9500335e+2, -64868.555, -232828.23, 32407.822, 0.054933947, -0.0076268637, -58832.395, -9868.613, 0.00002455122, 10.000608, 9.998402 
8.1501573e+2, 3.0500087e+2, 5995.722, -237195.8, -12860.388, -0.06609835, -0.053094946, 6673.9106, 6673.9106, 0.00009685274, 10.001039, 9.997847 
8.150124e+2, 3.1500027e+2, 63807.82, -63206.188, 7028.998, 0.10217737, 0.051312216, 64195.625, 64195.625, 0.00023260372, 10.00073, 9.9991865 
8.2508814e+2, 1.2501976e+2, -1662800.6, -1650436.6, 11144.121, -0.21380876, 0.058906402, -1643874.6, 70932.375, 0.0000000017683296, 10.00008, 10.000392 
8.25086e+2, 1.3501783e+2, -1676421.5, -1672699.6, 26922.617, 0.021186605, -0.15716168, -1647573.6, -30749.107, 0.0, 9.99967, 9.99977 
8.250818e+2, 1.4501798e+2, -1543749.5, -1498224.3, 79622.05, 0.019175814, -0.12930478, -1438175.0, 80647.49, 0.0, 9.999643, 10.000277 
8.2507753e+2, 1.5502028e+2, -1337859.6, -1353018.5, 54048.883, -0.06146185, 0.030804617, -1290861.3, 129939.14, 0.0, 10.000415, 10.000227 
8.2507396e+2, 1.6502073e+2, -1259892.6, -1348594.9, 78072.7, -0.07678275, 0.09643542, -1214453.1, 108342.59, 0.0, 10.00062, 9.999498 
8.2507163e+2, 1.7501906e+2, -1239746.4, -1293069.3, 40066.566, 0.0040056645, -0.05601142, -1218281.4, 6529.7646, 0.0, 10.000102, 9.999461 
8.250683e+2, 1.8501858e+2, -1196442.9, -1252397.1, 8269.981, 0.048429307, -0.03008404, -1195246.3, -68429.95, 0.0, 9.999871, 9.99917 
8.250637e+2, 1.9501884e+2, -1098139.6, -1162018.0, 707.9203, 0.029126143, 0.047335364, -1098131.8, -69316.336, 0.0, 9.999907, 9.999102 
8.25059e+2, 2.0501807e+2, -969163.0, -1078190.8, 46230.277, -0.016616639, 0.08034257, -952199.56, -21375.535, 0.0, 10.000256, 9.998827 
8.2505447e+2, 2.1501592e+2, -781338.7, -942305.06, 29953.367, -0.082188256, -0.0521872, -775945.5, 56899.71, 0.0, 10.000888, 9.99879 
8.250509e+2, 2.2501487e+2, -651634.3, -813383.4, 66952.125, -0.06393198, -0.036811806, -627517.06, 107338.05, 0.0, 10.001034, 9.99894 
8.250483e+2, 2.3501447e+2, -610146.25, -748093.2, 57636.746, 0.03514228, -0.0023235295, -589234.6, 47623.523, 0.0, 10.000661, 9.998898 
8.250447e+2, 2.4501334e+2, -543977.3, -636643.0, 44008.813, 0.051245634, -0.01039323, -526407.8, 12460.043, 0.0, 10.0003395, 9.999128 
8.2504e+2, 2.550111e+2, -473602.56, -557808.06, -7483.4736, -0.01682371, -0.18128121, -472942.66, -32055.018, 0.0, 10.000171, 9.999083 
8.2503575e+2, 2.6501012e+2, -380015.63, -525338.0, -20410.521, -0.014737469, -0.15085666, -377203.38, -34307.016, 0.0, 10.000431, 9.998501 
8.25032e+2, 2.7500993e+2, -190375.61, -384582.75, -24754.52, 0.065154985, -0.05860834, -187269.95, 57628.68, 0.0, 10.001064, 9.9984865 
8.250277e+2, 2.8500924e+2, -79729.94, -274620.72, -18406.688, 0.10381532, 0.028354432, -78006.734, 68898.63, 0.000001518397, 10.001103, 9.998557 
8.250228e+2, 2.9500777e+2, -78148.58, -234863.64, -43422.47, 0.11502259, -0.022419263, -66921.44, -18001.264, 0.000022026383, 10.00047, 9.998461 
8.2501715e+2, 3.050054e+2, -69485.02, -237142.64, -6821.858, 0.017788764, -0.07555723, -69207.91, -69207.91, 0.00009707927, 10.000376, 9.998156 
8.250135e+2, 3.150044e+2, 50147.953, -67232.48, -19080.707, 0.1645738, -0.04964115, 53171.71, 53171.71, 0.00024343749, 10.000603, 9.999216 
8.350909e+2, 1.2502582e+2, -1702644.3, -1714474.1, -61530.895, -0.02902026, 0.060358092, -1646744.6, 68000.85, 0.000000000051048894, 10.000011, 9.999982 
8.350844e+2, 1.3502558e+2, -1698993.8, -1719267.0, 26526.225, -0.1567363, 0.05589254, -1680733.4, -63983.043, 0.0, 9.999684, 9.999435 
8.3507985e+2, 1.4502503e+2, -1557053.0, -1526085.4, 84604.28, -0.19996218, 0.037960365, -1455559.8, 63196.027, 0.0, 9.999637, 10.000091 
8.3507824e+2, 1.550253e+2, -1349871.8, -1373423.8, 100151.05, -0.073737934, 0.0073102927, -1260806.8, 159944.14, 0.0, 10.00039, 10.000097 
8.350754e+2, 1.6502512e+2, -1309540.3, -1424617.6, 39224.0, -0.0351518, 0.036994115, -1297442.6, 25310.291, 0.0, 10.000506, 9.999034 
8.350714e+2, 1.7502432e+2, -1280600.9, -1361806.0, 40054.254, -0.070073366, 0.022081798, -1264169.1, -39406.273, 0.0, 10.000043, 9.999014 
8.3506733e+2, 1.8502349e+2, -1191695.4, -1219651.1, -8725.679, -0.07318304, 0.024168933, -1189195.4, -62424.465, 0.0, 9.999772, 9.999447 
8.3506304e+2, 1.9502212e+2, -1098351.3, -1122161.4, 19799.857, -0.05908199, -0.09417296, -1087153.0, -58371.07, 0.0, 9.9997425, 9.99945 
8.350593e+2, 2.0502166e+2, -995589.94, -1087516.9, 51756.56, -0.053349204, -0.049072012, -972333.56, -41546.664, 0.0, 10.00005, 9.998867 
8.350558e+2, 2.1502173e+2, -810136.25, -948670.8, 72329.984, -0.06357205, 0.033564582, -779255.75, 53533.926, 0.0, 10.000659, 9.998853 
8.350525e+2, 2.2502132e+2, -671048.06, -801712.9, 34864.34, -0.031911068, 0.09996348, -662327.5, 72466.54, 0.0, 10.000804, 9.999133 
8.350493e+2, 2.3502007e+2, -629606.2, -738341.2, 62319.457, 0.030027952, 0.028522592, -601272.1, 35531.527, 0.0, 10.00044, 9.999073 
8.350454e+2, 2.4501915e+2, -631718.5, -779243.25, 21384.672, 0.055472475, 0.077244475, -628681.2, -89867.48, 0.0, 10.000161, 9.998239 
8.350411e+2, 2.550181e+2, -561447.9, -703504.25, 6674.625, 0.04178128, 0.11126194, -561134.94, -120306.45, 0.0, 10.000004, 9.998166 
8.350368e+2, 2.6501685e+2, -372925.47, -481334.25, -12191.563, 0.013292744, 0.14435908, -371571.34, -28730.326, 0.0, 10.000301, 9.998868 
8.350324e+2, 2.7501506e+2, -188169.3, -345967.34, 20961.666, -0.038018323, 0.039808657, -185432.25, 59422.707, 0.0, 10.000915, 9.998826 
8.3502805e+2, 2.850134e+2, -109284.516, -311771.47, -58912.68, -0.0068479474, 0.02302797, -93391.555, 53477.484, 0.0000012583888, 10.001003, 9.99835 
8.350236e+2, 2.9501137e+2, -122188.95, -281917.8, -44311.54, 0.094555646, -0.05582616, -110719.71, -61831.52, 0.000022671806, 10.000282, 9.998233 
8.3501846e+2, 3.050102e+2, 2887.2693, -63686.902, -3374.2466, 0.07906578, -0.044175602, 3057.8525, 3057.8525, 0.0001036696, 10.000282, 9.999389 
8.3501405e+2, 3.1501028e+2, 89768.266, 68192.85, 26443.76, 0.0757374, -0.025295215, 107540.09, 107540.09, 0.00026239955, 10.000393, 10.000242 
8.450916e+2, 1.2502995e+2, -1809024.5, -1781289.3, -100169.336, 0.08848799, 0.0019189715, -1694032.1, 20672.45, 0.0, 9.999331, 9.999856 
8.4508425e+2, 1.3503079e+2, -1633399.1, -1692029.4, -59324.06, -0.14563347, 0.10612638, -1596542.3, 20157.414, 0.0, 10.000146, 9.999403 
8.450798e+2, 1.4503019e+2, -1526503.8, -1518455.1, 50852.77, -0.17067175, 0.08628119, -1471467.8, 47238.22, 0.0, 9.999885, 10.00002 
8.4507805e+2, 1.5502958e+2, -1560972.6, -1488436.8, 31335.104, -0.050956286, -0.021084871, -1476775.0, -56066.266, 0.0, 9.998997, 9.999984 
8.450754e+2, 1.6502927e+2, -1488708.9, -1495141.8, 52166.58, -0.0016332157, -0.0047553205, -1439659.8, -116947.875, 0.0, 9.999228, 9.99916 
8.450721e+2, 1.7502905e+2, -1215720.5, -1317634.4, 55259.746, -0.018527135, 0.02659415, -1191509.3, 33207.652, 0.0, 10.000453, 9.999114 
8.45068e+2, 1.850284e+2, -1024480.7, -1139932.6, 25126.0, -0.028264029, 0.04173771, -1019249.5, 107474.09, 0.0, 10.000922, 9.999433 
8.4506327e+2, 1.9502683e+2, -980874.56, -1076391.4, -4004.5024, -0.040427953, -0.09432856, -980706.94, 48030.066, 0.0, 10.000579, 9.999367 
8.450595e+2, 2.0502639e+2, -937397.56, -1047584.4, 67570.53, -0.038477577, -0.04776789, -905306.94, 25434.918, 0.0, 10.00041, 9.998964 
8.4505665e+2, 2.1502669e+2, -857106.9, -964838.8, 50387.813, -0.024607947, 0.05370216, -837213.3, -4471.39, 0.0, 10.000318, 9.998906 
8.4505343e+2, 2.250263e+2, -721408.3, -810587.94, 33875.367, 0.0058804457, 0.11286828, -710000.0, 24745.988, 0.0, 10.000406, 9.99925 
8.4504986e+2, 2.3502494e+2, -596860.3, -704515.1, 14668.013, 0.05012358, 0.019935815, -594897.6, 41858.7, 0.0, 10.000616, 9.999205 
8.4504604e+2, 2.4502417e+2, -541022.56, -746998.8, 39283.01, 0.07481062, 0.08148927, -533785.0, 4980.214, 0.0, 10.000822, 9.998148 
8.4504193e+2, 2.5502348e+2, -426760.78, -644557.3, 49508.86, 0.08576203, 0.16006279, -416034.8, 24742.576, 0.0, 10.000956, 9.998111 
8.4503776e+2, 2.6502225e+2, -281429.5, -430036.63, 96230.49, 0.061814457, 0.19419786, -234154.58, 108635.14, 0.0, 10.000883, 9.998942 
8.4503365e+2, 2.750202e+2, -220952.9, -357239.03, 71263.65, 0.012509863, 0.058410175, -190495.84, 54310.008, 0.0000000050987805, 10.000641, 9.998894 
8.450293e+2, 2.8501835e+2, -132381.02, -335998.66, 17217.092, 0.03427251, 0.024028117, -130935.47, 15886.044, 0.0000017149706, 10.000904, 9.998221 
8.4502476e+2, 2.950162e+2, 65240.61, -192240.73, -3253.1626, 0.1327054, -0.06158212, 65281.707, 114123.125, 0.0000255943, 10.001592, 9.998198 
8.4501994e+2, 3.0501518e+2, 181493.56, -1963.4999, 16777.559, 0.15045707, -0.026329007, 183015.28, 183015.28, 0.000114914044, 10.0015955, 9.999189 
8.450149e+2, 3.1501502e+2, 109564.15, 82461.48, -116316.38, 0.13955328, -0.011110566, 213115.94, 213115.94, 0.00028702893, 10.0004635, 10.000319 
8.550891e+2, 1.2503214e+2, -1814503.0, -1778798.3, -110253.375, -0.17203921, -0.13710484, -1684961.3, 29722.95, 0.0, 9.999286, 9.99989 
8.550849e+2, 1.3503373e+2, -1616078.5, -1640439.0, -17909.664, -0.12760879, 0.007992629, -1606599.6, 10070.915, 0.0, 10.000107, 9.99976 
8.5508114e+2, 1.4503372e+2, -1527565.3, -1519814.8, -4996.5444, -0.075203456, 0.030805144, -1517366.9, 1303.633, 0.0, 9.999868, 10.000029 
8.5507655e+2, 1.5503328e+2, -1558669.5, -1481959.6, 20501.512, -0.14637452, -0.061195564, -1476824.1, -56151.492, 0.0, 9.998993, 10.00003 
8.550739e+2, 1.6503327e+2, -1457838.3, -1422442.8, 77358.48, -0.12116805, -0.040590316, -1360783.4, -38111.24, 0.0, 9.999185, 9.999681 
8.5507303e+2, 1.7503323e+2, -1184021.9, -1237078.0, 117293.38, -0.0002768046, -0.04810744, -1090294.1, 134379.25, 0.0, 10.000392, 9.999694 
8.5506976e+2, 1.8503332e+2, -1063704.6, -1197020.5, -5507.92, 0.017712427, 0.027440961, -1063477.5, 63196.81, 0.0, 10.000801, 9.999108 
8.550639e+2, 1.9503313e+2, -1015097.1, -1125182.9, 28.363249, -0.0770278, 0.06117834, -1015097.1, 13581.877, 0.0, 10.000474, 9.9990835 
8.5505944e+2, 2.0503242e+2, -964265.06, -1062122.0, 45106.598, -0.11585515, 0.097165845, -946645.8, -15959.028, 0.0, 10.00023, 9.998958 
8.550564e+2, 2.1503077e+2, -888758.0, -973410.0, 65664.11, -0.110186644, 0.0001826434, -852960.6, -20258.363, 0.0, 10.000075, 9.998962 
8.550531e+2, 2.2502977e+2, -756567.3, -829979.8, 24396.553, -0.09070677, -0.004548474, -749199.3, -14488.173, 0.0, 10.000169, 9.999235 
8.5504967e+2, 2.3502909e+2, -627082.6, -720531.06, 42749.97, -0.059182495, -0.032495238, -610476.7, 26239.754, 0.0, 10.000408, 9.999196 
8.55046e+2, 2.4502842e+2, -522890.56, -659428.7, 27286.467, -0.04030799, 0.007335107, -517639.44, 21082.88, 0.0, 10.000616, 9.998846 
8.55042e+2, 2.5502726e+2, -409980.66, -557959.4, 72196.78, -0.03225124, -0.032791674, -380593.03, 60141.074, 0.0, 10.000738, 9.998807 
8.5503846e+2, 2.650263e+2, -315969.47, -468067.88, 68593.09, 0.0075858976, 0.0022617653, -289605.3, 53137.742, 0.0, 10.000733, 9.998759 
8.5503507e+2, 2.750253e+2, -256892.66, -396726.72, 85380.18, 0.060384557, -0.010046347, -216454.97, 28297.184, 0.0000001292932, 10.000493, 9.998696 
8.5503095e+2, 2.8502414e+2, -144199.25, -342439.38, 29444.213, 0.06859925, 0.03626805, -139918.39, 6843.791, 0.0000031613251, 10.000818, 9.9982195 
8.550258e+2, 2.9502216e+2, 46993.42, -208454.4, 45062.92, 0.027004221, -0.03617425, 54709.773, 103490.26, 0.000030116835, 10.001483, 9.998145 
8.55021e+2, 3.0502012e+2, 53567.766, -227128.88, -35689.742, 0.06676036, -0.02191674, 58034.53, 58034.53, 0.00012742863, 10.001455, 9.997699 
8.5501564e+2, 3.1501845e+2, -16218.758, -117671.15, -79756.42, 0.07277803, 0.00016183783, 27576.127, 27576.127, 0.00031382052, 10.000229, 9.99905 
8.650886e+2, 1.2503633e+2, -1790494.0, -1733405.9, -9673.826, -0.13792293, -0.09850682, -1731811.1, -17165.254, 0.00000000000000000000885557, 9.999295, 10.0002 
8.650854e+2, 1.350378e+2, -1560766.3, -1577557.9, 15774.226, -0.073900625, -0.0039841854, -1551292.6, 65337.48, 0.0, 10.000295, 10.000118 
8.650822e+2, 1.4503773e+2, -1464961.9, -1536039.9, 7868.623, 0.030204717, 0.012306824, -1464101.3, 54529.18, 0.0, 10.000489, 9.99962 
8.6507684e+2, 1.5503716e+2, -1401971.4, -1466390.9, -43282.316, -0.07200928, -0.044703346, -1380229.0, 40407.25, 0.0, 10.000293, 9.999531 
8.650738e+2, 1.6503707e+2, -1321056.1, -1318010.5, 64197.203, -0.07774217, -0.024925662, -1255318.0, 67319.01, 0.0, 9.999966, 10.000014 
8.6507314e+2, 1.7503703e+2, -1280986.4, -1253848.8, 47673.027, 0.01611252, -0.06397048, -1217851.1, 6785.193, 0.0, 9.999585, 9.9999695 
8.6507016e+2, 1.8503746e+2, -1229107.5, -1271908.4, -49015.316, 0.0445599, 0.030802384, -1197024.5, -70390.195, 0.0, 9.99968, 9.999117 
8.650648e+2, 1.9503804e+2, -1050899.8, -1143642.5, -56140.34, -0.010037111, 0.14336643, -1024456.06, 4178.062, 0.0, 10.000261, 9.999047 
8.6506045e+2, 2.0503752e+2, -886781.44, -978766.75, 38162.457, -0.049655713, 0.17915171, -873010.44, 57629.547, 0.0, 10.000565, 9.999365 
8.6505675e+2, 2.150355e+2, -805525.1, -896008.56, 48458.734, -0.08500434, 0.0040313983, -784471.56, 48184.594, 0.0, 10.000469, 9.9993105 
8.650534e+2, 2.2503439e+2, -749089.4, -813601.6, 59719.688, -0.07329372, -0.030942764, -713471.4, 21193.412, 0.0, 10.00019, 9.999331 
8.6505014e+2, 2.3503394e+2, -716089.8, -752473.0, 45892.445, -0.014146572, -0.04261569, -684914.94, -48246.535, 0.0, 9.999764, 9.999282 
8.650467e+2, 2.4503337e+2, -576379.2, -639120.5, 81588.52, 0.0072757807, -0.019283373, -520338.16, 18334.32, 0.0, 10.000061, 9.999247 
8.6504304e+2, 2.550322e+2, -328622.97, -476241.72, 66989.98, -0.00931057, -0.096211955, -302755.47, 137926.16, 0.0, 10.00112, 9.999186 
8.6503965e+2, 2.6503125e+2, -251691.84, -463303.25, 49557.117, 0.03707549, -0.06816564, -240661.11, 102029.44, 0.0000000005766255, 10.001306, 9.9985075 
8.650364e+2, 2.7503017e+2, -248608.81, -421285.9, 15510.556, 0.14822625, -0.06293677, -247226.66, -2523.8062, 0.000000514823, 10.000684, 9.998428 
8.650324e+2, 2.850292e+2, -141641.05, -330978.25, 41085.47, 0.14133883, 0.011835573, -133110.03, 13601.985, 0.0000054394536, 10.000799, 9.998319 
8.650274e+2, 2.9502782e+2, 70507.375, -180984.17, 26785.316, 0.039939854, -0.0005173073, 73328.52, 122051.91, 0.000035908153, 10.001586, 9.998293 
8.6502254e+2, 3.0502525e+2, 88071.78, -266389.88, -21829.14, 0.066486284, -0.025966628, 89411.04, 89411.04, 0.00014009468, 10.001907, 9.99722 
8.650169e+2, 3.1502336e+2, 87697.05, -112554.16, -30687.412, 0.14727403, 0.022524955, 92294.19, 92294.19, 0.00033844914, 10.001166, 9.99862 
8.7508863e+2, 1.2504275e+2, -1755952.4, -1657945.6, -10800.518, -0.14084166, 0.14351335, -1656769.5, 57817.934, 0.0000000055054987, 9.99928, 10.000719 
8.750856e+2, 1.3504304e+2, -1528621.5, -1490876.3, 65780.77, -0.13274418, 0.057497483, -1441314.4, 175263.97, 0.0, 10.000232, 10.000727 
8.7508273e+2, 1.4504233e+2, -1540675.9, -1689204.5, -23212.146, -0.019400671, 0.033006255, -1537132.9, -18548.209, 0.0, 10.0004635, 9.998585 
8.7507826e+2, 1.5504149e+2, -1473224.6, -1604906.3, -33109.36, -0.0002527183, 0.041454133, -1465368.5, -44770.977, 0.0, 10.000265, 9.998586 
8.750745e+2, 1.65041e+2, -1316612.1, -1305487.0, 30563.771, -0.03892913, 0.062858276, -1279983.8, 42619.406, 0.0, 9.999932, 10.000125 
8.7507176e+2, 1.7504072e+2, -1279006.1, -1242137.9, 50444.957, -0.11553844, -0.010053307, -1206864.4, 17738.5, 0.0, 9.999545, 10.000071 
8.750688e+2, 1.8504108e+2, -1228133.9, -1247706.5, -43509.51, -0.09345458, 0.06501828, -1193323.6, -66722.83, 0.0, 9.999584, 9.999331 
8.750657e+2, 1.9504155e+2, -1054824.8, -1114060.6, -14025.414, 0.010495862, 0.14156127, -1051671.8, -23069.488, 0.0, 10.000105, 9.999324 
8.7506187e+2, 2.0504166e+2, -861851.7, -883112.9, 18625.377, 0.00998566, 0.18566743, -851036.7, 79564.664, 0.0, 10.000368, 10.00012 
8.750574e+2, 2.1504107e+2, -784606.3, -802798.94, 60653.46, -0.102556475, 0.08138251, -732370.8, 100230.57, 0.0, 10.000251, 10.000058 
8.750537e+2, 2.2504048e+2, -775402.8, -816894.8, 25028.498, -0.08669451, 0.056934677, -763640.0, -29035.979, 0.0, 9.999963, 9.99942 
8.750507e+2, 2.3503952e+2, -744835.56, -755088.4, 49328.543, 0.042097334, -0.01666218, -700367.75, -63755.01, 0.0, 9.999517, 9.999384 
8.7504774e+2, 2.4503893e+2, -595020.44, -638663.4, 103728.234, 0.07301767, -0.0053687897, -510843.22, 27773.484, 0.0, 9.999881, 9.99934 
8.7504447e+2, 2.5503838e+2, -349941.53, -475994.1, 126745.62, -0.00426315, -0.029595567, -271416.53, 169202.7, 0.0, 10.000929, 9.999277 
8.7504095e+2, 2.6503718e+2, -294720.38, -536789.06, 8709.468, 0.0050488715, -0.009753116, -294407.4, 48223.875, 0.0000000691861, 10.001221, 9.998049 
8.7503713e+2, 2.750348e+2, -300485.5, -495638.22, 12103.141, 0.10455474, -0.09024059, -299737.72, -55080.094, 0.000001269736, 10.000535, 9.997991 
8.750332e+2, 2.8503364e+2, -137257.97, -303405.2, 54024.57, 0.10912984, -0.024655655, -121236.266, 25432.941, 0.000008255043, 10.000711, 9.998557 
8.75029e+2, 2.9503316e+2, 72883.13, -152929.3, 82107.99, 0.00406829, 0.02573281, 99581.85, 148253.67, 0.000042714033, 10.001477, 9.998543 
8.750241e+2, 3.0503055e+2, 109977.62, -194360.02, -57473.09, 0.004932014, -0.042663097, 120469.51, 120469.51, 0.00015288098, 10.0018, 9.997761 
8.750177e+2, 3.1502765e+2, 78814.586, -108241.79, 14489.302, 0.02366016, -0.14714603, 79930.266, 79930.266, 0.00035815634, 10.001056, 9.99871 
8.85089e+2, 1.2504648e+2, -1723782.1, -1665901.9, 52888.06, -0.032585632, 0.13279578, -1634553.6, 79995.99, 0.00000006865043, 9.999608, 10.000512 
8.85086e+2, 1.350465e+2, -1571547.4, -1544081.0, -14139.441, -0.08456691, 0.04778971, -1538103.1, 78441.766, 0.0, 10.000068, 10.000451 
8.850834e+2, 1.4504583e+2, -1549314.9, -1671135.1, -61710.176, 0.020637214, 0.036421116, -1523517.5, -4966.4814, 0.0, 10.00035, 9.998744 
8.850791e+2, 1.5504514e+2, -1359632.3, -1532439.8, -32050.396, 0.035637584, 0.045443453, -1353879.5, 66682.29, 0.0, 10.000995, 9.998714 
8.850752e+2, 1.6504471e+2, -1187302.4, -1261332.4, 68651.34, -0.0043080505, 0.074465, -1146323.0, 176243.66, 0.0, 10.000904, 9.999957 
8.8507164e+2, 1.7504446e+2, -1215863.3, -1232385.0, 31466.596, -0.09941293, 0.024791364, -1191591.3, 32975.27, 0.0, 10.000066, 9.999891 
8.850686e+2, 1.8504462e+2, -1167945.0, -1174791.8, 6081.6777, -0.07131983, 0.0663079, -1164389.4, -37823.5, 0.0, 9.999804, 9.999726 
8.8506615e+2, 1.9504456e+2, -1027954.25, -1060137.8, 10135.121, 0.06368525, 0.052860573, -1025028.5, 3541.9946, 0.0, 10.000108, 9.999694 
8.8506263e+2, 2.0504491e+2, -893353.94, -875444.0, 36728.813, 0.07315928, 0.09294254, -846594.25, 83972.63, 0.0, 10.000056, 10.000323 
8.850579e+2, 2.1504538e+2, -855129.9, -815032.7, 6926.5664, -0.03679883, 0.07588077, -813869.9, 18688.094, 0.0, 9.999676, 10.000255 
8.850541e+2, 2.2504517e+2, -783444.1, -809541.25, 919.58215, -0.020603681, 0.074521214, -783411.75, -48854.62, 0.0, 9.999847, 9.999521 
8.850513e+2, 2.3504391e+2, -586850.8, -673945.2, -15051.953, 0.112369865, -0.03989063, -584322.9, 52245.258, 0.0, 10.000559, 9.99944 
8.8504857e+2, 2.4504331e+2, -490392.28, -615519.6, 74398.01, 0.14059009, -0.020464629, -455748.56, 82824.305, 0.0, 10.000719, 9.999087 
8.850457e+2, 2.550429e+2, -434029.34, -545465.1, 33877.273, 0.05487019, -0.008547366, -424538.7, 16037.003, 0.00000000006372724, 10.000453, 9.999028 
8.850422e+2, 2.650418e+2, -389111.97, -557925.56, -55734.24, 0.051001437, 0.024419023, -372371.28, -29784.287, 0.00000025387644, 10.000475, 9.998259 
8.85038e+2, 2.7503958e+2, -235437.92, -439526.5, -42723.867, 0.13948265, -0.061308835, -226855.06, 17755.896, 0.0000021793016, 10.000873, 9.998212 
8.850342e+2, 2.8503838e+2, -107155.7, -246170.11, 78203.266, 0.14835495, -0.028712517, -72034.984, 74587.24, 0.000011106664, 10.000756, 9.998903 
8.8503057e+2, 2.950378e+2, -88891.52, -192044.08, 72783.48, 0.078088, -0.020497331, -51262.72, -2637.208, 0.000049522223, 10.000212, 9.99887 
8.850256e+2, 3.0503586e+2, 50262.97, -196878.45, -8581.172, 0.019827265, -0.052505415, 50560.563, 50560.563, 0.00016467013, 10.001267, 9.998006 
8.850203e+2, 3.15034e+2, 414996.03, 54224.72, -18509.73, 0.07765074, -0.073524185, 415943.22, 415943.22, 0.00037312726, 10.003362, 9.998725 
8.950884e+2, 1.2504758e+2, -1801336.8, -1806681.8, 27901.12, -0.13628826, -0.11445026, -1775980.4, -61448.457, 0.00000033567557, 9.999543, 9.999565 
8.950864e+2, 1.3504854e+2, -1645012.3, -1690332.0, 12372.385, -0.08991579, -0.000037136957, -1641854.5, -25328.684, 0.00000000007521531, 10.000054, 9.999446 
8.950836e+2, 1.450487e+2, -1468143.5, -1495830.4, -60244.1, -0.038932517, 0.05460458, -1420172.8, 98352.35, 0.0, 10.000319, 9.999965 
8.95079e+2, 1.5504833e+2, -1284889.8, -1364123.8, 13802.363, -0.1141676, -0.019200994, -1282554.3, 137972.63, 0.0, 10.000941, 9.999896 
8.950752e+2, 1.6504827e+2, -1233282.0, -1340540.0, 16889.205, -0.13353172, 0.016804853, -1230685.4, 91841.28, 0.0, 10.000836, 9.999442 
8.950723e+2, 1.7504828e+2, -1263550.5, -1306149.8, 19475.883, -0.080733724, 0.036578618, -1255988.6, -31461.563, 0.0, 9.9999695, 9.999424 
8.950692e+2, 1.8504807e+2, -1147905.8, -1107749.3, -788.5159, -0.037134886, 0.039706226, -1107733.8, 18795.283, 0.0, 9.999681, 10.00025 
8.9506584e+2, 1.9504726e+2, -1020040.8, -996861.0, 36714.234, -0.011481549, -0.10304838, -969950.8, 58586.08, 0.0, 9.999909, 10.00022 
8.9506215e+2, 2.050475e+2, -941810.25, -934609.8, 4369.4385, -0.011478441, -0.08323398, -932548.44, -2013.9906, 0.0, 9.99987, 10.0000105 
8.9505786e+2, 2.1504845e+2, -908655.06, -870756.4, 13568.1455, -0.038772892, -0.024557209, -866399.6, -33873.96, 0.0, 9.999444, 9.99998 
8.950544e+2, 2.2504853e+2, -813867.2, -823836.0, 11488.667, -0.013949807, 0.015584346, -806328.25, -71804.46, 0.0, 9.999624, 9.999537 
8.950516e+2, 2.3504739e+2, -616934.75, -680810.7, 28814.016, 0.04460104, -0.09155088, -605857.8, 30674.6, 0.0, 10.00032, 9.999509 
8.9504886e+2, 2.4504668e+2, -556822.5, -711577.4, 45135.105, 0.060489543, -0.056550264, -544620.6, -6081.3145, 0.0, 10.000538, 9.99852 
8.950462e+2, 2.5504595e+2, -508814.1, -646018.2, 42146.07, 0.023031821, -0.017915335, -496901.97, -56352.727, 0.0000000002378373, 10.000221, 9.998454 
8.9504284e+2, 2.650454e+2, -345467.88, -436280.53, -56802.766, 0.03490697, 0.05406779, -318153.56, 24401.633, 0.00000030747992, 10.000341, 9.999157 
8.9503884e+2, 2.750446e+2, -201258.17, -329212.34, -3520.1526, 0.093687564, 0.02301246, -201161.4, 43400.613, 0.0000026197797, 10.000713, 9.999044 
8.950349e+2, 2.8504336e+2, -91004.7, -201481.61, 39684.914, 0.10040966, -0.0047244583, -78227.13, 68344.734, 0.000013171274, 10.000691, 9.9992485 
8.950311e+2, 2.9504162e+2, -79995.92, -146335.81, 72797.94, 0.05862792, -0.15142615, -33167.22, 15419.421, 0.000055655084, 10.000082, 9.999249 
8.950266e+2, 3.0504116e+2, 26332.54, -200901.16, 57834.777, -0.042038605, -0.057850014, 40205.492, 40205.492, 0.00017580122, 10.001101, 9.998048 
8.950233e+2, 3.1504115e+2, 377206.25, 51852.734, 97474.836, -0.034490336, 0.10290512, 404174.06, 404174.06, 0.00038747952, 10.003074, 9.998826 
9.050897e+2, 1.2505111e+2, -1657615.1, -1781969.8, 105397.62, 0.0025314575, -0.15005377, -1597421.4, 117073.26, 0.0000010657902, 10.000672, 9.999204 
9.0508705e+2, 1.3505176e+2, -1603305.6, -1724016.9, 64591.08, -0.038841862, -0.02392358, -1575259.9, 41234.008, 0.000000007369457, 10.000552, 9.998976 
9.050841e+2, 1.4505193e+2, -1467359.1, -1481599.8, 19059.629, -0.012479544, 0.047436796, -1454133.3, 64360.19, 0.0, 10.000231, 10.000113 
9.050798e+2, 1.5505157e+2, -1412862.1, -1411196.1, -26598.883, -0.076142296, -0.045224275, -1385417.3, 35076.83, 0.0, 9.999968, 10.000054 
9.050759e+2, 1.6505152e+2, -1362205.3, -1394264.4, -15490.628, -0.08705519, -0.02027666, -1355943.4, -33450.07, 0.0, 9.999915, 9.999528 
9.050727e+2, 1.7505133e+2, -1241300.3, -1284981.9, -13000.571, -0.026155846, -0.026596373, -1237723.9, -13228.053, 0.0, 10.000074, 9.99952 
9.050693e+2, 1.8505135e+2, -1122121.5, -1086365.6, 11700.806, 0.013059349, -0.012589621, -1082877.0, 43618.637, 0.0, 9.999808, 10.000339 
9.0506554e+2, 1.9505113e+2, -1124157.1, -1045537.3, -15821.097, 0.013436624, -0.099921405, -1042473.0, -13975.813, 0.0, 9.9991455, 10.000273 
9.0506184e+2, 2.050515e+2, -1029877.25, -985839.2, -2978.7527, 0.007923408, -0.06596292, -985638.6, -55144.234, 0.0, 9.999316, 9.999914 
9.0505797e+2, 2.15052e+2, -784028.2, -824407.3, -22680.943, -0.008001723, -0.041022476, -773852.56, 58638.91, 0.0, 10.000358, 9.999856 
9.0505487e+2, 2.2505209e+2, -658774.9, -746005.44, 12958.181, 0.027282506, 0.006948159, -656890.7, 77599.24, 0.0, 10.000701, 9.999549 
9.050524e+2, 2.3505145e+2, -597712.25, -671953.1, -6316.384, 0.10180027, -0.04572247, -597178.7, 39314.336, 0.0, 10.000469, 9.999497 
9.050497e+2, 2.4505055e+2, -573941.6, -731428.6, 50911.184, 0.10586756, -0.024214884, -558916.8, -20414.975, 0.0, 10.000476, 9.998407 
9.0504676e+2, 2.5504905e+2, -441985.66, -624674.9, 44281.305, 0.041125808, -0.054034956, -431818.3, 8701.395, 0.0, 10.000732, 9.998348 
9.0504336e+2, 2.6504844e+2, -286236.8, -372927.7, -23215.79, 0.044753566, 0.00072750926, -280411.13, 62114.95, 0.0000002007212, 10.000621, 9.999454 
9.050395e+2, 2.750482e+2, -256214.05, -317645.53, -52412.484, 0.12522255, -0.000988209, -226180.1, 18345.816, 0.0000025589381, 10.000189, 9.999368 
9.0503573e+2, 2.8504726e+2, -146662.52, -249536.17, 437.43994, 0.13909292, -0.0052271644, -146660.66, -127.14938, 0.000014749117, 10.000394, 9.999077 
9.05032e+2, 2.950456e+2, 65405.02, -90655.89, -44804.25, 0.10205666, -0.12090333, 77353.3, 125902.88, 0.00006245814, 10.001151, 9.999125 
9.0502816e+2, 3.0504543e+2, 114293.21, -166482.16, -4918.9727, -0.01109083, 0.008920877, 114379.36, 114379.36, 0.00018874744, 10.001723, 9.998 
9.0502614e+2, 3.1504497e+2, 181177.31, -33912.688, -63880.293, 0.029245494, 0.13539147, 198718.77, 198718.77, 0.0004049675, 10.0016365, 9.998967 
9.1509163e+2, 1.2505725e+2, -1645405.4, -1745064.6, 44384.78, 0.0473787, 0.03507464, -1628504.1, 85931.7, 0.000002613721, 10.0006485, 9.999459 
9.150875e+2, 1.3505602e+2, -1600309.4, -1706645.3, 71785.64, -0.09052732, -0.039991386, -1564146.4, 52303.87, 0.00000007607973, 10.000518, 9.999105 
9.1508406e+2, 1.4505528e+2, -1535772.0, -1609412.1, -15311.765, -0.08261369, -0.02027794, -1532715.3, -14256.538, 0.0, 10.00017, 9.999266 
9.1508067e+2, 1.5505496e+2, -1473391.0, -1529985.5, -18254.943, -0.02234529, -0.025312254, -1468013.6, -47551.58, 0.0, 9.999944, 9.999248 
9.1507673e+2, 1.6505468e+2, -1321493.6, -1305949.3, -30463.822, -0.032989897, -0.017403994, -1282281.8, 40182.34, 0.0, 9.999892, 10.000148 
9.150725e+2, 1.7505391e+2, -1207380.5, -1201328.0, 10962.666, -0.093419455, -0.14201583, -1192981.5, 31487.99, 0.0, 10.000014, 10.000125 
9.1506857e+2, 1.8505456e+2, -1160909.4, -1142079.4, -29959.447, -0.0813984, -0.07831435, -1120090.4, 6373.5454, 0.0, 9.999699, 10.0000105 
9.150648e+2, 1.9505626e+2, -1174206.3, -1107346.9, -20463.768, -0.010462792, 0.05838174, -1101580.8, -73130.055, 0.0, 9.998972, 9.999931 
9.1506124e+2, 2.0505698e+2, -1058492.3, -1001936.25, 19967.918, -0.01935792, 0.14613774, -995596.9, -65151.22, 0.0, 9.999126, 9.999893 
9.1505766e+2, 2.1505626e+2, -821509.25, -844961.5, 32435.813, -0.09943837, 0.05022525, -798745.0, 33708.03, 0.0, 10.000117, 9.9998255 
9.1505504e+2, 2.2505607e+2, -687078.56, -764860.9, -15216.766, -0.050468344, 0.07053118, -684207.6, 50246.082, 0.0, 10.000513, 9.999517 
9.150534e+2, 2.350561e+2, -632587.2, -692999.7, 4915.44, 0.12675153, 0.08926288, -632189.9, 4260.5347, 0.0, 10.000245, 9.999459 
9.1505075e+2, 2.4505502e+2, -577486.44, -697335.2, 44170.566, 0.12416753, 0.07723805, -562966.4, -24506.96, 0.0, 10.000291, 9.998733 
9.150469e+2, 2.550523e+2, -448269.25, -595534.06, 72492.79, -0.05439488, -0.104206376, -418572.4, 21913.295, 0.0, 10.000545, 9.998643 
9.150431e+2, 2.6505092e+2, -325452.16, -422021.25, -56767.426, -0.07168193, -0.12645486, -299211.94, 43286.695, 0.00000011562638, 10.000486, 9.999179 
9.150395e+2, 2.7505037e+2, -296527.6, -365189.47, -47354.473, 0.07027726, -0.12896097, -272368.7, -27866.078, 0.0000025826089, 10.000033, 9.999118 
9.1503614e+2, 2.8505018e+2, -209979.56, -349821.78, 11106.84, 0.10608828, -0.024348328, -209102.9, -62596.297, 0.000017159802, 10.000272, 9.99844 
9.150329e+2, 2.9504997e+2, -7036.4917, -207059.05, 9640.559, 0.030917538, 0.068133526, -6572.9165, 41940.094, 0.00007135739, 10.001014, 9.998388 
9.1502976e+2, 3.0504873e+2, 79244.17, -209099.39, -16242.004, -0.051053382, 0.14741798, 80156.18, 80156.18, 0.00020564985, 10.001602, 9.997756 
9.1502774e+2, 3.150454e+2, 172475.78, 14515.239, -29997.674, -0.05597934, -0.0016782301, 177980.67, 177980.67, 0.00042848263, 10.00138, 9.999403 
9.2509276e+2, 1.2506148e+2, -1723703.4, -1768328.5, 36962.51, 0.1437685, 0.106156364, -1702841.0, 11555.374, 0.0000053718704, 10.000043, 9.999601 
9.2508817e+2, 1.3505985e+2, -1608295.4, -1697353.6, 125.81495, -0.05298264, -0.024315275, -1608295.3, 8117.4873, 0.00000033393198, 10.000393, 9.999253 
9.2508453e+2, 1.4505889e+2, -1511063.4, -1595615.5, -15740.778, -0.047476947, -0.032588083, -1508228.1, 10194.684, 0.0, 10.000348, 9.999271 
9.250815e+2, 1.5505894e+2, -1410436.1, -1502849.0, -1920.2708, 0.050913576, -0.000016393811, -1410396.3, 10027.443, 0.0, 10.000399, 9.99921 
9.250774e+2, 1.6505879e+2, -1288514.4, -1263859.9, 31171.516, 0.049669642, 0.014407756, -1242666.6, 79757.664, 0.0, 10.00001, 10.000371 
9.250724e+2, 1.7505819e+2, -1307492.3, -1228351.4, 4014.3337, -0.05205862, -0.1174921, -1228148.3, -3720.4941, 0.0, 9.999234, 10.000317 
9.250682e+2, 1.8505886e+2, -1203416.5, -1174282.0, 11898.009, -0.066006534, -0.051624298, -1170040.6, -43619.223, 0.0, 9.999474, 9.999892 
9.250646e+2, 1.9506046e+2, -937566.56, -1002486.94, -4258.864, 0.00047533313, 0.08257541, -937288.4, 91120.78, 0.0, 10.000649, 9.999831 
9.2506135e+2, 2.050608e+2, -839185.3, -939284.4, 61667.68, 0.0095050745, 0.15721275, -809812.8, 120594.766, 0.0, 10.000821, 9.999514 
9.2505836e+2, 2.1505952e+2, -851233.4, -899658.06, 19530.629, -0.030684514, 0.047106046, -844338.06, -11917.707, 0.0, 10.000081, 9.999474 
9.2505586e+2, 2.2505903e+2, -759222.3, -810996.75, -4629.4443, 0.0071255914, 0.060338084, -758811.6, -24387.209, 0.0, 10.000065, 9.999413 
9.250537e+2, 2.3505902e+2, -565753.3, -677521.7, -31557.275, 0.116956994, 0.08479725, -557458.8, 78963.93, 0.0, 10.000757, 9.999325 
9.2505103e+2, 2.4505818e+2, -513853.88, -633831.56, 17762.232, 0.12151425, 0.08992691, -511279.5, 27150.133, 0.0, 10.000588, 9.999033 
9.2504764e+2, 2.550561e+2, -556741.06, -610961.44, 5099.4595, 0.02221201, -0.05370571, -556265.6, -115816.82, 0.0, 9.999653, 9.99897 
9.2504376e+2, 2.6505482e+2, -439863.47, -494759.63, -56134.668, -0.0064689545, -0.07813856, -404825.56, -62364.688, 0.00000007319143, 9.999736, 9.999057 
9.250396e+2, 2.7505374e+2, -195214.38, -328925.78, -68006.56, 0.05351587, -0.12579113, -166704.58, 77765.69, 0.0000027897247, 10.000754, 9.999029 
9.2503643e+2, 2.8505337e+2, -75512.65, -319829.5, 55561.516, 0.06483596, -0.013787526, -63470.613, 83005.46, 0.000020180585, 10.001339, 9.99813 
9.250341e+2, 2.950534e+2, 44766.496, -219469.3, 35030.082, 0.04181173, 0.13442826, 49331.61, 97812.76, 0.00008285034, 10.001511, 9.998062 
9.250318e+2, 3.0505154e+2, 37733.008, -197493.08, 43267.266, 0.02970353, 0.14899826, 45439.094, 45439.094, 0.0002292469, 10.001139, 9.998067 
9.250293e+2, 3.1504792e+2, -12606.149, -24495.354, -1304.0375, 0.059425276, -0.06322276, -12464.801, -12464.801, 0.0004645645, 9.999845, 9.9998865 
9.350919e+2, 1.2506376e+2, -1725033.0, -1745447.4, -1300.5767, -0.02864359, 0.048788782, -1724950.5, -10573.786, 0.000009857008, 9.999962, 9.999786 
9.350885e+2, 1.3506351e+2, -1586457.8, -1652912.8, 25634.322, -0.09636085, 0.02593706, -1577718.8, 38659.836, 0.0000009955157, 10.000421, 9.999532 
9.35085e+2, 1.4506298e+2, -1461937.4, -1500102.6, -35397.65, -0.08625566, 0.016928416, -1440806.4, 77577.016, 0.00000000002439963, 10.00037, 9.999921 
9.350817e+2, 1.5506344e+2, -1369033.9, -1403883.6, 17585.145, -0.0066155707, 0.023958148, -1361702.8, 58676.22, 0.0, 10.000343, 9.999916 
9.350774e+2, 1.6506389e+2, -1309052.4, -1290550.8, -20344.186, 0.010349774, 0.06667471, -1277452.9, 44921.09, 0.0, 9.999931, 10.00023 
9.35072e+2, 1.7506413e+2, -1321610.5, -1252186.4, -5967.4185, -0.049703382, 0.03747159, -1251677.1, -27306.686, 0.0, 9.999204, 10.000173 
9.350677e+2, 1.8506432e+2, -1218051.4, -1183395.1, 40745.824, -0.09459664, 0.06037342, -1156445.9, -30078.137, 0.0, 9.999383, 9.999877 
9.3506444e+2, 1.9506381e+2, -963717.5, -1018982.1, 55723.277, -0.117749825, -0.011110149, -929151.5, 99220.0, 0.0, 10.000489, 9.999799 
9.3506175e+2, 2.0506307e+2, -907941.25, -1041081.75, 14536.949, -0.0635214, -0.012633424, -906372.5, 24006.613, 0.0, 10.000641, 9.998902 
9.3505955e+2, 2.1506183e+2, -928148.7, -1010599.3, 10902.178, 0.056616653, -0.057469804, -926731.5, -94338.4, 0.0, 9.999866, 9.99882 
9.350567e+2, 2.2506103e+2, -810302.8, -866889.06, 4955.999, 0.05475735, -0.027660338, -809872.0, -75470.18, 0.0, 9.999845, 9.999136 
9.3505293e+2, 2.3506026e+2, -618080.4, -732854.0, 10991.446, -0.07183459, -0.056179106, -617037.25, 19372.424, 0.0, 10.000525, 9.99906 
9.350502e+2, 2.4506012e+2, -526142.56, -612265.75, -35895.453, -0.053458773, 0.021210078, -513143.6, 25267.895, 0.0, 10.000389, 9.999277 
9.3504846e+2, 2.550603e+2, -568338.5, -593567.1, -9410.893, 0.11046621, 0.07763165, -565214.75, -124803.8, 0.0, 9.999467, 9.999184 
9.350449e+2, 2.650599e+2, -456050.03, -483733.9, -32768.348, 0.10051873, 0.123283036, -434320.03, -91905.305, 0.00000003612581, 9.999557, 9.999212 
9.3503934e+2, 2.7505833e+2, -217024.47, -327296.75, -6417.942, -0.08530042, 0.014084049, -216652.19, 27775.605, 0.0000027030533, 10.000567, 9.999123 
9.350361e+2, 2.850571e+2, -89650.71, -329487.28, 45985.38, -0.13618101, 0.03796408, -81135.94, 65304.344, 0.000022488803, 10.001239, 9.998116 
9.3503517e+2, 2.9505607e+2, 28322.828, -230642.88, 66911.03, -0.059874628, 0.074976094, 44589.4, 93042.94, 0.00009525127, 10.001401, 9.998042 
9.350336e+2, 3.050539e+2, 81928.37, -78057.24, -15983.75, 0.06310426, 0.019107295, 83509.63, 83509.63, 0.00025879213, 10.001038, 9.99893 
9.3503004e+2, 3.1505293e+2, 4615.8604, 65514.043, 13425.16, 0.07330624, -0.01678039, 68342.305, 68342.305, 0.0005142612, 9.999633, 10.000599 
9.450927e+2, 1.2506635e+2, -1532035.6, -1645140.3, 49309.58, 0.006631721, -0.0021775612, -1513557.3, 200793.56, 0.000016753027, 10.001225, 9.999877 
9.450892e+2, 1.3506673e+2, -1560399.5, -1638165.0, -1310.8239, -0.059744935, 0.035953064, -1560377.4, 55969.805, 0.000002343361, 10.000575, 9.999561 
9.450856e+2, 1.4506638e+2, -1532903.0, -1502521.0, -45808.535, -0.028034365, 0.025144821, -1469450.4, 48899.95, 0.0000000053592455, 9.999733, 10.000216 
9.4508183e+2, 1.5506671e+2, -1536323.5, -1463706.0, -65250.72, 0.043732353, -0.0062442184, -1425342.3, -4996.1924, 0.0, 9.99908, 10.000133 
9.450775e+2, 1.6506726e+2, -1419703.3, -1358948.4, -60606.984, 0.06487507, 0.044463765, -1321532.0, 808.2927, 0.0, 9.999243, 10.000086 
9.4507235e+2, 1.7506778e+2, -1182647.0, -1202352.9, -86976.414, 0.017028611, 0.05688719, -1104967.3, 119368.195, 0.0, 10.000236, 10.0000105 
9.450679e+2, 1.850677e+2, -1120472.1, -1147072.3, -16276.283, -0.039078224, 0.06735644, -1112753.0, 13582.06, 0.0, 10.000118, 9.999758 
9.450643e+2, 1.9506651e+2, -1190583.4, -1140471.1, -42340.03, -0.09422475, -0.061592452, -1116328.8, -87984.51, 0.0, 9.999002, 9.999671 
9.4506174e+2, 2.0506553e+2, -1129285.0, -1152303.9, -20856.223, -0.03924744, -0.07893587, -1116973.3, -186619.95, 0.0, 9.99913, 9.998867 
9.450603e+2, 2.1506456e+2, -859709.6, -979177.5, -16718.596, 0.124983564, -0.096592225, -857414.06, -25049.662, 0.0, 10.0003395, 9.998801 
9.450575e+2, 2.2506382e+2, -713947.8, -824544.06, 36854.805, 0.121091954, -0.057322018, -702791.75, 31581.088, 0.0, 10.000547, 9.99908 
9.450533e+2, 2.3506291e+2, -716915.94, -785062.7, 21734.512, -0.04362937, -0.08914996, -710574.2, -74191.586, 0.0, 9.999884, 9.999004 
9.450502e+2, 2.4506284e+2, -608178.75, -628802.8, 5180.5674, -0.049276568, -0.013398013, -606950.56, -68566.64, 0.0, 9.9997225, 9.999479 
9.4504815e+2, 2.5506324e+2, -468484.8, -517391.94, -4986.6177, 0.118274055, 0.044271402, -467981.56, -27601.424, 0.0, 10.000033, 9.999421 
9.45045e+2, 2.6506296e+2, -341938.63, -449690.34, 30045.031, 0.12233157, 0.10011183, -334127.25, 8255.021, 0.000000027783642, 10.000419, 9.999037 
9.450405e+2, 2.750615e+2, -198795.14, -341203.9, -9123.399, -0.025462782, 0.018893717, -198213.03, 46182.18, 0.000002329391, 10.000772, 9.9989395 
9.450375e+2, 2.8506005e+2, -140887.94, -330438.97, 52729.62, -0.092146516, 0.020727916, -127206.95, 19202.059, 0.000023981273, 10.000802, 9.99832 
9.450359e+2, 2.950584e+2, -96285.016, -268932.66, 45548.832, -0.069299914, -0.017387528, -85005.055, -36579.285, 0.00010679835, 10.000455, 9.998241 
9.450344e+2, 3.0505627e+2, 20266.861, -82360.27, -25552.531, 0.07171072, -0.091053896, 26277.06, 26277.06, 0.00028981623, 10.000531, 9.9991455 
9.45031e+2, 3.1505677e+2, 155738.8, 128434.83, -101293.875, 0.17054099, 0.0040179645, 244296.53, 244296.53, 0.00057081727, 10.000734, 10.000503 
9.550938e+2, 1.2506938e+2, -1557068.9, -1670946.8, -31823.006, -0.085108936, -0.039892364, -1548779.4, 165538.13, 0.00002677623, 10.001149, 9.999713 
9.550898e+2, 1.3506965e+2, -1586639.8, -1666927.9, -12540.928, -0.09204441, 0.002461594, -1584726.5, 31590.873, 0.0000047533053, 10.000491, 9.999385 
9.5508564e+2, 1.4506906e+2, -1554262.5, -1529654.5, -94948.93, -0.041934814, -0.017342174, -1446215.8, 72107.93, 0.000000046136613, 9.999651, 10.000074 
9.5508116e+2, 1.5506893e+2, -1541596.3, -1480396.8, -71309.24, 0.03229749, -0.082107134, -1433399.1, -13075.947, 0.0, 9.999105, 10.000004 
9.5507693e+2, 1.6506915e+2, -1435507.4, -1393440.5, -41116.45, 0.047177076, -0.04444602, -1368289.9, -45968.97, 0.0, 9.999243, 9.999852 
9.550728e+2, 1.7506927e+2, -1206234.6, -1238999.0, -32543.668, 0.0045807716, -0.05262542, -1186182.4, 38138.64, 0.0, 10.000178, 9.999788 
9.5506835e+2, 1.8506919e+2, -1148756.4, -1186175.4, -75220.86, -0.042300213, -0.021121608, -1089953.1, 36368.855, 0.0, 10.000021, 9.999542 
9.550637e+2, 1.9506848e+2, -1220694.5, -1178507.3, -66049.15, -0.092345335, -0.07865152, -1130265.3, -101937.53, 0.0, 9.998888, 9.999468 
9.5506096e+2, 2.0506813e+2, -1115314.5, -1082732.6, 6443.0, -0.06265114, -0.053008076, -1081504.8, -151174.36, 0.0, 9.998957, 9.99943 
9.5506e+2, 2.1506773e+2, -859282.0, -918483.1, 45509.0, 0.034117375, -0.06846009, -834593.9, -2259.9207, 0.0, 10.000083, 9.999344 
9.550578e+2, 2.2506747e+2, -739811.1, -821836.1, -5926.047, 0.070179686, -0.016613925, -739385.2, -5048.476, 0.0, 10.000302, 9.999215 
9.550544e+2, 2.350669e+2, -743829.4, -786236.1, 17989.492, 0.044914626, -0.023577675, -737226.2, -100883.734, 0.0, 9.999647, 9.99911 
9.5505047e+2, 2.4506624e+2, -623894.75, -610535.9, 1818.1572, -0.018363766, -0.025355252, -610292.8, -71945.25, 0.0, 9.999512, 9.999699 
9.5504624e+2, 2.5506502e+2, -483180.88, -504552.2, 27894.322, -0.11700847, -0.15456696, -463995.53, -23639.377, 0.0, 9.999852, 9.99959 
9.550436e+2, 2.6506418e+2, -404545.53, -541052.7, 24743.486, -0.08431657, -0.131868, -400198.88, -57836.086, 0.000000030362223, 10.0002575, 9.998483 
9.550425e+2, 2.7506328e+2, -260648.64, -429189.6, 26085.902, 0.058433246, -0.10675496, -256703.55, -12331.223, 0.000002140531, 10.000606, 9.99841 
9.550399e+2, 2.8506213e+2, -131712.88, -282869.03, 22064.172, 0.03249112, -0.06859636, -128558.03, 17825.104, 0.000025889522, 10.000677, 9.998706 
9.5503587e+2, 2.9506055e+2, -90414.055, -224974.2, 59196.465, -0.16289577, -0.14306188, -68079.234, -19681.727, 0.00011778403, 10.0003195, 9.998606 
9.5503354e+2, 3.0505884e+2, -31584.154, -158257.95, -23644.613, -0.08957902, -0.16764821, -27314.615, -27314.615, 0.00031950467, 10.0004, 9.998685 
9.5503086e+2, 3.1505954e+2, 59698.023, -22905.316, -18537.463, 0.0035577964, -0.005055386, 63667.375, 63667.375, 0.00062882464, 10.000536, 9.999553 
9.650948e+2, 1.250727e+2, -1776763.0, -1768451.5, -24265.332, -0.002258595, -0.046815306, -1747988.6, -33703.996, 0.000040530904, 9.999553, 9.999845 
9.650901e+2, 1.3507329e+2, -1742234.6, -1721033.5, -30177.8, -0.03518106, 0.00857726, -1699648.5, -83367.63, 0.000008656152, 9.999304, 9.99961 
9.6508574e+2, 1.4507273e+2, -1587048.0, -1531928.1, -13094.654, 0.030784596, -0.022677846, -1528975.5, -10689.006, 0.00000019058375, 9.999406, 10.000151 
9.650811e+2, 1.5507244e+2, -1362119.6, -1384672.1, -21687.453, 0.05867991, -0.10885399, -1348952.1, 71335.15, 0.0, 10.0003395, 10.000043 
9.650768e+2, 1.650726e+2, -1291224.6, -1355125.4, 44110.707, 0.05986959, -0.065159, -1268708.6, 53577.78, 0.0, 10.000392, 9.999553 
9.6507293e+2, 1.7507277e+2, -1313119.3, -1326835.5, 6650.936, 0.038785942, -0.03562853, -1310423.9, -86135.81, 0.0, 9.999616, 9.999452 
9.650686e+2, 1.8507272e+2, -1220877.5, -1227753.3, -11464.59, 0.015187248, 0.019103328, -1212346.4, -86056.734, 0.0, 9.999526, 9.999514 
9.6506387e+2, 1.9507205e+2, -1051317.3, -1104081.9, -20891.17, -0.017772103, -0.030568022, -1044047.4, -15752.189, 0.0, 10.000057, 9.999433 
9.650609e+2, 2.0507175e+2, -937449.8, -968459.56, 103928.86, -0.014549785, -0.010910119, -847875.6, 82421.14, 0.0, 10.000084, 9.999656 
9.6505976e+2, 2.1507138e+2, -902750.7, -913763.94, 76517.33, 0.031767916, -0.045565363, -831542.1, 756.1849, 0.0, 9.999691, 9.999554 
9.650578e+2, 2.2507112e+2, -824356.94, -870514.0, 26994.867, 0.07773759, 0.0009888043, -811920.06, -77619.85, 0.0, 9.999742, 9.999159 
9.6505505e+2, 2.3507057e+2, -661949.3, -747589.2, 1889.0121, 0.13314277, -0.003841702, -661907.7, -25601.334, 0.0, 10.000202, 9.999107 
9.650512e+2, 2.450696e+2, -524945.1, -609126.9, -1655.9679, 0.065111645, -0.017335797, -524912.56, 13402.088, 0.0, 10.000367, 9.999315 
9.650463e+2, 2.550679e+2, -456878.5, -539163.5, -56088.89, -0.111231044, -0.14732736, -428460.47, 11867.506, 0.0, 10.000219, 9.999196 
9.6504384e+2, 2.6506677e+2, -384641.8, -522089.94, -6010.379, -0.085329965, -0.13929373, -384379.5, -42042.24, 0.000000012060779, 10.000362, 9.998559 
9.650438e+2, 2.750656e+2, -236755.81, -411895.84, -2993.6301, 0.13097619, -0.1429948, -236704.67, 7643.158, 0.0000023356135, 10.00075, 9.998457 
9.6504134e+2, 2.850645e+2, -124605.22, -260498.56, 15084.02, 0.11741431, -0.11712601, -122951.05, 23406.752, 0.000028869204, 10.000651, 9.998855 
9.650365e+2, 2.9506317e+2, -120475.6, -221574.7, -17524.727, -0.107398264, -0.17667077, -117524.0, -69155.445, 0.00012892728, 10.000056, 9.998736 
9.6503395e+2, 3.0506185e+2, -61012.594, -184614.58, -20405.055, -0.06898244, -0.16757229, -57731.11, -57731.11, 0.00034703137, 10.000209, 9.998609 
9.6503174e+2, 3.1506187e+2, 30266.168, -74691.98, -37280.168, 0.05993603, -0.070167296, 42159.945, 42159.945, 0.0006841425, 10.00046, 9.999244 
9.7509456e+2, 1.2507601e+2, -1734878.6, -1665562.9, -100494.71, -0.06690288, -0.03924387, -1593917.6, 120337.39, 0.000058506626, 9.99949, 10.000578 
9.7508955e+2, 1.350777e+2, -1679542.1, -1592837.6, -29071.639, -0.05392044, 0.04525225, -1583992.4, 32244.582, 0.00001444443, 9.999321, 10.000476 
9.750854e+2, 1.450776e+2, -1580238.0, -1519154.4, 2476.59, -0.0009526342, 0.011380375, -1519054.1, -817.8224, 0.0000005546723, 9.999407, 10.000242 
9.7508097e+2, 1.5507728e+2, -1362118.6, -1372970.5, 33376.773, -0.022424897, -0.08892005, -1333729.6, 86508.06, 0.0, 10.000293, 10.000145 
9.750766e+2, 1.650776e+2, -1328711.5, -1421025.5, -7388.8564, -0.037573062, -0.0154717015, -1328123.9, -5886.821, 0.0, 10.000332, 9.999135 
9.750723e+2, 1.750782e+2, -1346815.0, -1390868.6, -6518.5205, -0.023747958, 0.1012255, -1345870.6, -121633.4, 0.0, 9.999581, 9.999035 
9.7506815e+2, 1.8507825e+2, -1226915.1, -1212475.6, -5841.925, -0.014748664, 0.17808695, -1210408.1, -84169.32, 0.0, 9.99941, 9.999672 
9.750642e+2, 1.950773e+2, -1062664.6, -1089298.5, 18308.02, -0.019863807, 0.08111866, -1053342.6, -25096.621, 0.0, 9.999899, 9.999603 
9.750612e+2, 2.050765e+2, -978525.1, -1013426.8, 70081.664, -0.029216459, 0.05710566, -923754.25, 6496.6416, 0.0, 9.999898, 9.999444 
9.750591e+2, 2.1507551e+2, -947175.1, -959473.94, 79249.44, -0.03956483, -0.020630432, -873836.9, -41579.293, 0.0, 9.999484, 9.999345 
9.7505695e+2, 2.2507474e+2, -869610.3, -911930.75, 23967.191, -0.010098228, -0.0041032266, -858799.0, -124534.875, 0.0, 9.9995165, 9.998981 
9.7505486e+2, 2.3507382e+2, -716645.4, -794732.6, 34900.41, 0.060935684, -0.02871977, -703320.7, -67046.09, 0.0, 9.999926, 9.998912 
9.7505176e+2, 2.4507302e+2, -621496.25, -766550.75, -25229.22, 0.05692007, 0.03414137, -617233.44, -78949.43, 0.0, 10.0001745, 9.998334 
9.7504765e+2, 2.5507194e+2, -546882.6, -688053.3, -40524.9, -0.025374502, 0.05966571, -536076.6, -95780.66, 0.0, 10.000053, 9.998257 
9.75045e+2, 2.650706e+2, -358139.25, -437501.22, -7903.01, -0.03255765, 0.060148716, -357359.9, -15052.877, 0.0000000034767167, 10.000232, 9.999202 
9.7504395e+2, 2.7506852e+2, -210503.73, -327688.84, 36093.92, 0.029275477, -0.0996774, -200278.7, 44043.14, 0.0000028342504, 10.000618, 9.9991 
9.750413e+2, 2.8506717e+2, -153446.02, -293548.1, -22561.08, 0.005968479, -0.11844234, -149902.55, -3570.6008, 0.000032313746, 10.00054, 9.998682 
9.75037e+2, 2.9506624e+2, -153271.48, -258492.08, -9340.795, -0.11360742, -0.12551415, -152448.7, -104108.516, 0.0001399921, 9.999926, 9.998547 
9.7503465e+2, 3.0506495e+2, -63537.61, -153508.28, -22447.648, -0.051279645, -0.11210598, -58247.926, -58247.926, 0.00037284024, 10.000061, 9.998888 
9.7503227e+2, 3.1506312e+2, 15112.792, -50634.53, 46065.46, -0.016394744, -0.23255219, 38831.57, 38831.57, 0.00073526404, 10.0002365, 9.999503 
9.850943e+2, 1.2507993e+2, -1748114.3, -1650174.8, -17332.768, -0.014667746, -0.020314753, -1647197.8, 67018.61, 0.00008108169, 9.999317, 10.000758 
9.850898e+2, 1.3508119e+2, -1566643.0, -1528475.5, -58517.62, 0.015862782, 0.007182358, -1486008.4, 130192.77, 0.000022462764, 10.000034, 10.00058 
9.850859e+2, 1.4508115e+2, -1531150.5, -1523681.5, -27261.072, 0.095492356, -0.013967718, -1499900.4, 18300.238, 0.0000013019285, 9.999848, 10.000002 
9.850812e+2, 1.5508132e+2, -1535181.6, -1486763.1, -65893.29, 0.032070033, -0.04421285, -1440772.6, -20573.049, 0.0, 9.999211, 9.999889 
9.8507655e+2, 1.650817e+2, -1501042.9, -1444408.8, -53840.33, 0.0057345647, 0.024708185, -1411892.9, -89695.39, 0.0, 9.998899, 9.9996605 
9.8507196e+2, 1.750821e+2, -1393259.4, -1350347.9, -20142.314, 0.022974402, 0.06915371, -1342374.6, -118178.35, 0.0, 9.999011, 9.999577 
9.8506814e+2, 1.8508211e+2, -1220394.0, -1220168.5, 72171.22, 0.038608924, 0.119626924, -1148110.0, -21913.018, 0.0, 9.999519, 9.9995575 
9.850648e+2, 1.9508126e+2, -1016721.4, -1083137.9, 34824.29, 0.04149229, 0.047686923, -1001809.8, 26393.756, 0.0, 10.000297, 9.999453 
9.85062e+2, 2.0508032e+2, -892802.6, -1023153.94, 70942.57, 0.037414804, 0.03711967, -861641.8, 68569.41, 0.0, 10.000682, 9.999011 
9.850596e+2, 2.1507888e+2, -816914.44, -944558.7, 29910.592, 0.022774186, -0.04208695, -810253.2, 21970.506, 0.0, 10.000577, 9.998925 
9.850571e+2, 2.2507796e+2, -759784.5, -872625.2, 16404.549, 0.027531723, -0.016223403, -757448.0, -23215.3, 0.0, 10.000316, 9.99887 
9.850546e+2, 2.3507719e+2, -729862.44, -814780.3, 475.4718, 0.057627402, -0.013459458, -729859.75, -93617.95, 0.0, 9.999885, 9.998799 
9.85052e+2, 2.4507633e+2, -650930.8, -776777.6, 26716.688, 0.08116848, 0.049853414, -645493.9, -107242.34, 0.0, 9.999988, 9.998336 
9.8504907e+2, 2.5507486e+2, -462265.28, -648606.6, 41300.75, 0.08903216, 0.036177345, -453521.66, -13254.818, 0.0, 10.000649, 9.998232 
9.850465e+2, 2.6507345e+2, -264929.25, -398440.56, 110996.34, 0.063687414, 0.037206594, -202160.75, 140118.14, 0.00000001775074, 10.000905, 9.999151 
9.850444e+2, 2.7507183e+2, -189966.61, -324449.94, 60457.293, 0.025086772, -0.06962761, -166784.13, 77506.836, 0.000003544514, 10.000788, 9.999048 
9.850418e+2, 2.8507066e+2, -121815.51, -267053.97, 3157.8499, 0.009137, -0.075109094, -121746.875, 24552.963, 0.00003520851, 10.000689, 9.998819 
9.850384e+2, 2.950695e+2, -61359.676, -201162.3, 1622.8154, 0.021109505, -0.11372343, -61340.844, -13031.706, 0.00014922032, 10.000481, 9.9986925 
9.850359e+2, 3.0506843e+2, 33523.027, -107590.04, 66550.305, 0.04821189, -0.0875799, 59957.05, 59957.05, 0.00039592202, 10.000751, 9.998858 
9.8503304e+2, 3.150664e+2, 146059.39, 25456.19, 47072.652, 0.004362588, -0.21823746, 162256.94, 162256.94, 0.0007798097, 10.001092, 9.999611 
9.9509275e+2, 1.2508452e+2, -1788542.3, -1728976.8, -52581.375, -0.1835859, 0.013844961, -1698329.3, 15838.998, 0.000108580556, 9.999306, 10.000215 
9.950903e+2, 1.3508393e+2, -1613449.5, -1612097.3, -19525.295, 0.031231515, -0.094063714, -1593236.4, 22935.6, 0.000033028722, 9.999992, 10.000015 
9.9508685e+2, 1.4508349e+2, -1573887.1, -1611757.1, -77669.32, 0.15635796, -0.09468303, -1512878.0, 5299.778, 0.0000026281716, 9.999836, 9.999411 
9.950812e+2, 1.550846e+2, -1569726.9, -1560662.4, -72931.53, 0.062929004, 0.028532539, -1492122.4, -71950.19, 0.00000000019976186, 9.999219, 9.999383 
9.95076e+2, 1.6508509e+2, -1407120.0, -1237986.5, -68089.664, 0.021851098, 0.06136463, -1213981.9, 108184.55, 0.0, 9.998856, 10.001095 
9.950715e+2, 1.750846e+2, -1297744.6, -1144742.4, 2517.2014, 0.035196707, -0.12844576, -1144701.0, 79463.414, 0.0, 9.998979, 10.001003 
9.950679e+2, 1.850843e+2, -1270105.3, -1299619.1, 81107.78, 0.030204251, -0.15318228, -1202422.9, -76258.48, 0.0, 9.999419, 9.999062 
9.950652e+2, 1.9508386e+2, -1069938.0, -1160231.0, 81150.67, 0.014093488, -0.13763662, -1022220.94, 5948.3867, 0.0, 10.000154, 9.998991 
9.9506295e+2, 2.0508304e+2, -970941.0, -1129530.5, 46502.656, 0.03274365, -0.082151376, -958311.0, -28131.879, 0.0, 10.000452, 9.998386 
9.9506104e+2, 2.1508144e+2, -895195.94, -1047200.9, 42535.08, 0.07720603, -0.115006626, -884103.06, -51905.605, 0.0, 10.000331, 9.998332 
9.9505806e+2, 2.2508085e+2, -796008.06, -887534.25, -17286.148, 0.057887003, -0.029144468, -792852.1, -58646.97, 0.0, 10.00006, 9.998889 
9.9505395e+2, 2.3508082e+2, -764731.56, -827207.3, 3351.6394, -0.027462112, 0.046074618, -764552.25, -128345.83, 0.0, 9.999635, 9.998831 
9.950513e+2, 2.4507959e+2, -618581.9, -666143.9, 34474.56, -0.016326757, 0.028127808, -600481.75, -62264.92, 0.0, 9.999793, 9.999189 
9.9504995e+2, 2.550767e+2, -432662.3, -537171.5, 85515.91, 0.08189432, -0.21322308, -384699.56, 55541.15, 0.0, 10.000431, 9.999102 
9.9504775e+2, 2.6507553e+2, -352421.38, -534978.3, 89014.91, 0.06502755, -0.19219136, -316203.13, 26048.826, 0.000000028595345, 10.000719, 9.9983 
9.9504477e+2, 2.7507558e+2, -274664.78, -461554.66, 78207.13, -0.06016878, -0.046548788, -246256.08, -2000.7955, 0.000003781716, 10.000631, 9.998179 
9.950423e+2, 2.850748e+2, -103990.07, -203886.67, -20894.246, -0.040765565, 0.010979224, -99795.945, 46466.574, 0.000036350866, 10.000572, 9.99931 
9.9504036e+2, 2.9507306e+2, -40172.95, -130344.47, 20971.5, 0.11834577, -0.1413644, -35534.17, 12741.044, 0.00015456251, 10.000364, 9.999235 
9.950373e+2, 3.050724e+2, -19038.11, -186013.98, 70911.87, 0.07843639, -0.080407165, 7012.6597, 7012.6597, 0.00041193186, 10.00063, 9.998373 
9.950324e+2, 3.1507125e+2, 103440.555, -1150.6613, 119189.07, -0.24248794, -0.07352802, 181302.03, 181302.03, 0.0008105773, 10.000845, 9.999539 
1.0050932e+3, 1.2508813e+2, -1811215.1, -1776902.4, -7856.985, -0.05477374, -0.03325495, -1775188.8, -61059.13, 0.00014134821, 9.999313, 9.999884 
1.00509055e+3, 1.3508745e+2, -1611207.8, -1648506.3, -13658.232, 0.058627166, -0.11347129, -1606741.1, 9394.912, 0.000046426092, 10.000171, 9.999676 
1.005087e+3, 1.4508708e+2, -1543327.8, -1578177.6, -37784.36, 0.18445782, -0.09697286, -1519144.0, -1001.4963, 0.00000474816, 10.000005, 9.99954 
1.0050807e+3, 1.5508832e+2, -1545940.9, -1537289.4, -33197.625, 0.10386071, 0.03051012, -1508136.9, -88000.914, 0.000000004412824, 9.9993515, 9.9994755 
1.00507565e+3, 1.650887e+2, -1358783.5, -1243911.9, 4535.669, 0.088005245, 0.05942751, -1243733.1, 78398.18, 0.0, 9.999289, 10.000859 
1.0050718e+3, 1.7508785e+2, -1202339.4, -1124950.8, -83234.0, 0.1356066, -0.14264755, -1071856.4, 152275.84, 0.0, 9.999727, 10.000789 
1.0050684e+3, 1.8508732e+2, -1181853.4, -1256377.9, -1345.0067, 0.12015559, -0.18089384, -1181829.1, -55695.035, 0.0, 10.000029, 9.999059 
1.0050656e+3, 1.9508672e+2, -1056079.8, -1154328.5, -3431.5994, 0.046244718, -0.18144634, -1055960.1, -27820.1, 0.0, 10.000258, 9.998975 
1.0050634e+3, 2.0508605e+2, -979704.0, -1120939.1, 21487.408, 0.049631372, -0.11408744, -976507.25, -46359.188, 0.0, 10.000329, 9.9985075 
1.0050616e+3, 2.1508494e+2, -909138.5, -1047935.1, 32654.023, 0.119838774, -0.10825239, -901839.94, -69677.62, 0.0, 10.000183, 9.998413 
1.00505866e+3, 2.2508433e+2, -770844.75, -858655.06, 39429.598, 0.11598812, -0.034011874, -755738.44, -21568.408, 0.0, 10.000177, 9.999031 
1.0050545e+3, 2.3508377e+2, -650885.9, -760253.9, 25601.621, 0.03736726, -0.023926822, -645189.56, -9013.903, 0.0, 10.000364, 9.998945 
1.0050517e+3, 2.4508263e+2, -524114.94, -619194.7, 79202.39, 0.02002701, -0.038864203, -479280.25, 58905.11, 0.0, 10.000432, 9.999207 
1.0050501e+3, 2.550806e+2, -438355.66, -530863.9, 29247.908, 0.06835969, -0.19745883, -429884.25, 10317.686, 0.0, 10.000375, 9.999161 
1.0050483e+3, 2.6507968e+2, -405377.66, -583466.6, 54781.313, 0.071719304, -0.14489904, -389875.9, -47664.066, 0.000000017098808, 10.000441, 9.998102 
1.0050461e+3, 2.7507928e+2, -309111.94, -495028.22, 57294.832, 0.03179636, -0.028141787, -292873.4, -48652.797, 0.000003428396, 10.000458, 9.998029 
1.0050437e+3, 2.8507838e+2, -98021.09, -217059.02, 7931.1016, 0.04522067, 0.028154975, -97495.0, 48735.336, 0.00003625069, 10.000696, 9.999142 
1.0050411e+3, 2.950767e+2, 55591.695, -103889.516, -47243.516, 0.13068599, -0.09873594, 68536.12, 116779.33, 0.00015744341, 10.0011015, 9.999056 
1.0050378e+3, 3.0507603e+2, 19663.063, -170832.94, 14833.975, 0.072803855, -0.027369052, 20811.268, 20811.268, 0.00042211023, 10.000874, 9.998391 
1.0050339e+3, 3.1507507e+2, -45335.6, -44324.67, 37012.734, -0.1008484, -0.00017219392, -7813.949, -7813.949, 0.0008305699, 9.999638, 9.999867 
1.0150943e+3, 1.2509088e+2, -1823316.8, -1787235.3, -47034.918, 0.043407336, -0.15615247, -1754900.0, -40801.125, 0.0001798155, 9.999266, 9.999826 
1.0150898e+3, 1.3509181e+2, -1619085.4, -1662725.5, 33652.313, -0.06972699, -0.06805181, -1600798.1, 15294.96, 0.000062927356, 10.000163, 9.999577 
1.0150854e+3, 1.4509189e+2, -1506461.0, -1486715.9, -87809.805, -0.021366175, -0.037308164, -1408225.4, 109869.41, 0.000007860604, 9.999947, 10.00019 
1.0150795e+3, 1.550925e+2, -1506938.9, -1450531.8, -38522.5, -0.00041970017, -0.036773562, -1430992.0, -10901.454, 0.000000028517778, 9.999334, 10.000072 
1.015075e+3, 1.6509257e+2, -1489370.5, -1512238.6, 1578.3202, 0.055834085, 0.024519566, -1489262.1, -167170.83, 0.0, 9.999273, 9.999026 
1.01507224e+3, 1.7509188e+2, -1330637.1, -1389518.0, -48608.57, 0.17228274, 0.01642709, -1303248.6, -79149.09, 0.0, 9.999715, 9.99898 
1.0150691e+3, 1.8509114e+2, -1167113.0, -1200318.6, -11647.859, 0.15064296, 0.027488427, -1163434.6, -37329.047, 0.0, 9.999921, 9.999495 
1.0150657e+3, 1.9508992e+2, -1045936.75, -1098253.6, 21962.709, -0.0099942265, -0.078190155, -1037939.3, -9825.257, 0.0, 10.000112, 9.999428 
1.015063e+3, 2.0508951e+2, -948760.06, -1017452.1, -3153.7983, -0.058112845, -0.049339727, -948615.56, -18498.81, 0.0, 10.000157, 9.999302 
1.01506084e+3, 2.150895e+2, -884111.8, -942939.4, 42761.668, 0.0005770968, -0.015473516, -861624.44, -29507.164, 0.0, 9.999962, 9.999236 
1.01505846e+3, 2.2508854e+2, -798974.75, -858496.4, 25094.77, 0.05290788, -0.023833953, -789806.75, -55680.34, 0.0, 9.999925, 9.999153 
1.0150558e+3, 2.3508617e+2, -676330.3, -756528.06, 48673.996, 0.09546874, -0.21009079, -653365.1, -17216.744, 0.0, 10.000124, 9.9990835 
1.01505265e+3, 2.450856e+2, -612254.56, -752011.44, 56253.465, 0.044429418, -0.13241346, -592425.44, -54270.082, 0.0, 10.0002165, 9.998402 
1.0150491e+3, 2.5508642e+2, -518835.25, -659783.6, 46120.06, -0.104618266, 0.07301418, -505085.53, -64934.105, 0.0, 10.000205, 9.998363 
1.0150476e+3, 2.6508567e+2, -389362.44, -511745.44, 40822.945, -0.06652093, 0.15566945, -376995.03, -34834.58, 0.000000011022683, 10.000279, 9.99867 
1.015048e+3, 2.75083e+2, -294171.34, -421205.78, 82936.914, 0.14283356, -0.012323428, -253223.4, -9037.248, 0.0000031084232, 10.000278, 9.998619 
1.0150456e+3, 2.8508133e+2, -181075.38, -358438.63, 5735.698, 0.12110404, -0.015762625, -180890.1, -34687.27, 0.000035475467, 10.000564, 9.998234 
1.01504005e+3, 2.9508036e+2, -36124.09, -251937.27, -8142.5366, -0.13056038, 0.015374069, -35817.313, 12396.412, 0.00015874387, 10.000925, 9.99812 
1.0150369e+3, 3.050793e+2, 39861.21, -97730.96, -40959.26, -0.13647056, 0.07089166, 51131.113, 51131.113, 0.00042931808, 10.000748, 9.998949 
1.0150362e+3, 3.1507763e+2, -40220.996, 50344.383, 43060.074, 0.09254398, -0.0323162, 67549.23, 67549.23, 0.00084597926, 9.999305, 10.000665 
1.02509536e+3, 1.2509502e+2, -1806779.4, -1729728.9, -14301.792, 0.2470476, -0.1564095, -1727159.9, -13102.122, 0.00022439056, 9.999149, 10.000283 
1.0250889e+3, 1.3509606e+2, -1851570.0, -1724953.9, 51878.08, -0.073015735, -0.09891404, -1706413.0, -90363.266, 0.0000828242, 9.998363, 10.000021 
1.0250841e+3, 1.4509627e+2, -1697728.0, -1592584.4, -9666.993, -0.07778452, -0.07205154, -1591702.9, -73654.02, 0.000012107546, 9.99865, 10.000122 
1.0250795e+3, 1.5509665e+2, -1378573.5, -1397557.4, -49711.77, 0.031709537, -0.09031391, -1337455.5, 82590.27, 0.00000009714164, 10.000222, 10.000025 
1.0250757e+3, 1.6509654e+2, -1302307.9, -1489906.1, 40052.152, 0.11845089, -0.011830734, -1294114.5, 27934.78, 0.0, 10.000885, 9.998381 
1.0250726e+3, 1.7509577e+2, -1210394.6, -1398143.8, 34549.766, 0.19548747, 0.03795999, -1204238.6, 19822.65, 0.0, 10.000864, 9.998347 
1.0250696e+3, 1.8509479e+2, -1052846.3, -1175256.9, 117409.15, 0.17503664, 0.067802, -981646.9, 144424.66, 0.0, 10.000819, 9.999237 
1.0250665e+3, 1.9509318e+2, -982775.3, -1098011.5, 68007.53, 0.041621223, -0.049236897, -951259.4, 76824.95, 0.0, 10.000665, 9.999171 
1.0250636e+3, 2.0509267e+2, -894389.6, -957941.7, 17967.082, -0.018062795, -0.03163512, -889661.8, 40425.9, 0.0, 10.00041, 9.999586 
1.02506064e+3, 2.1509278e+2, -853611.44, -899912.06, -15820.389, -0.006143119, -0.009221048, -848722.06, -16636.238, 0.0, 10.000067, 9.999479 
1.0250583e+3, 2.2509202e+2, -774046.6, -845722.3, -164.36821, 0.048676047, -0.007292135, -774046.25, -39953.59, 0.0, 10.0000925, 9.999155 
1.02505624e+3, 2.3509006e+2, -640262.75, -738707.0, -19530.959, 0.13686647, -0.1526028, -636529.5, -417.98657, 0.0, 10.000377, 9.999079 
1.0250535e+3, 2.450895e+2, -548116.94, -711583.2, 42182.79, 0.09599066, -0.07867494, -537873.44, 245.34247, 0.0, 10.000643, 9.998453 
1.0250498e+3, 2.5508988e+2, -424379.28, -612205.3, 53394.758, -0.073182896, 0.080491975, -410261.5, 29857.56, 0.0, 10.000853, 9.998371 
1.02504835e+3, 2.6508912e+2, -268665.7, -428478.97, 99998.74, -0.05352662, 0.14973097, -220569.13, 121558.805, 0.00000001218603, 10.001007, 9.99889 
1.0250488e+3, 2.7508685e+2, -161939.42, -329602.7, 74903.96, 0.16114761, -0.0023478537, -133350.66, 110798.25, 0.0000027111198, 10.001079, 9.998859 
1.0250464e+3, 2.8508523e+2, -142753.13, -353155.6, 50968.188, 0.14045241, -0.004698252, -131056.73, 15107.913, 0.00003356842, 10.000883, 9.998123 
1.0250409e+3, 2.950839e+2, -130930.266, -309242.63, 54181.152, -0.10395003, 0.009806924, -115758.016, -67579.086, 0.00015737157, 10.000324, 9.998023 
1.0250376e+3, 3.0508247e+2, -20007.314, -126950.15, 57580.063, -0.105361536, 0.026817886, 5100.247, 5100.247, 0.00043278775, 10.000353, 9.998922 
1.02503724e+3, 3.1508088e+2, 147278.42, 144313.77, 21743.975, 0.21687038, -0.07065714, 167590.53, 167590.53, 0.00085735595, 10.000564, 10.000693 
1.0350952e+3, 1.2510017e+2, -1738817.3, -1591072.8, -113669.555, 0.2226841, -0.064437255, -1529380.0, 184630.06, 0.00027553758, 9.999158, 10.001231 
1.0350872e+3, 1.3510016e+2, -1791059.1, -1599076.9, 29823.879, -0.11492088, -0.20133346, -1594550.5, 21455.756, 0.000106410545, 9.998362, 10.000887 
1.0350823e+3, 1.4510024e+2, -1741303.5, -1683834.4, 21937.408, -0.1672039, -0.1964927, -1676417.5, -158412.72, 0.000017580353, 9.998658, 9.999491 
1.0350802e+3, 1.5510076e+2, -1420217.6, -1483482.3, 24791.97, 0.041067284, -0.13791278, -1411659.8, 8342.039, 0.00000023822265, 10.000215, 9.999442 
1.03507675e+3, 1.651006e+2, -1284187.0, -1434887.3, 14877.912, 0.10549142, -0.058216285, -1282732.3, 39273.195, 0.0, 10.000818, 9.998786 
1.03507265e+3, 1.750995e+2, -1194494.5, -1345942.9, 50464.348, 0.066082075, -0.08136559, -1179219.8, 44798.332, 0.0, 10.000788, 9.998738 
1.0350696e+3, 1.850983e+2, -1132889.4, -1314973.1, 89171.72, 0.048650045, -0.04606714, -1096494.1, 29537.295, 0.0, 10.000709, 9.998331 
1.03506766e+3, 1.9509657e+2, -1065972.6, -1240290.6, 74928.414, 0.050586555, -0.08988761, -1038192.75, -10142.514, 0.0, 10.000532, 9.99826 
1.0350646e+3, 2.0509551e+2, -948747.1, -1023552.44, -15378.249, 0.018268097, -0.06156391, -945709.06, -15647.966, 0.0, 10.000201, 9.999238 
1.03506066e+3, 2.150947e+2, -899764.2, -958591.5, -9206.062, -0.038902674, -0.10036466, -898357.1, -66288.36, 0.0, 9.999898, 9.999161 
1.03505775e+3, 2.2509477e+2, -811441.75, -871473.8, -6691.9863, -0.04130022, 0.002748839, -810704.8, -76635.66, 0.0, 9.999876, 9.99908 
1.0350557e+3, 2.350954e+2, -677028.6, -762733.25, 9683.182, 0.0074239294, 0.12315179, -675948.25, -39882.754, 0.0, 10.000154, 9.99902 
1.0350537e+3, 2.4509427e+2, -531920.2, -621886.1, 36865.2, 0.019720593, 0.1066492, -518743.8, 19332.385, 0.0, 10.000405, 9.999183 
1.0350518e+3, 2.5509107e+2, -402244.8, -516511.16, 83032.51, 0.002340088, -0.16809474, -358588.13, 81516.1, 0.0, 10.000645, 9.999125 
1.0350498e+3, 2.650901e+2, -301368.84, -458419.7, 85209.68, -0.02851906, -0.14955576, -264019.63, 78093.43, 0.00000000560088, 10.000846, 9.998759 
1.03504784e+3, 2.750908e+2, -199204.25, -361529.78, 98498.734, -0.07384052, 0.009036979, -152737.11, 91371.26, 0.0000022721786, 10.000895, 9.998723 
1.0350457e+3, 2.8509003e+2, -113858.36, -261635.23, 12276.197, -0.04806208, 0.06013493, -112845.484, 33270.453, 0.000031172072, 10.000746, 9.998818 
1.035043e+3, 2.9508764e+2, -111877.49, -225016.8, 62724.64, 0.028847314, -0.10395635, -83981.14, -35844.13, 0.00015322318, 10.000135, 9.9986925 
1.0350394e+3, 3.0508557e+2, -88152.625, -232719.64, 56731.99, 0.0076216175, -0.14641738, -68548.03, -68548.03, 0.00043103905, 10.000212, 9.998258 
1.0350358e+3, 3.1508484e+2, 51644.39, 26466.605, 84173.43, -0.066331446, -0.09047481, 124165.11, 124165.11, 0.00086192216, 10.000253, 10.000019 
1.0450939e+3, 1.2510425e+2, -1828438.1, -1659635.5, -126151.25, 0.218226, -0.009306833, -1592255.0, 121718.56, 0.0003338259, 9.99862, 10.001031 
1.0450869e+3, 1.351043e+2, -1618488.4, -1540285.6, -112105.27, -0.027024146, -0.12395392, -1460658.3, 155311.4, 0.00013404706, 9.99961, 10.000699 
1.04508206e+3, 1.4510421e+2, -1583047.9, -1601901.1, -61479.355, -0.10222378, -0.12880662, -1530276.6, -12307.774, 0.000024406929, 9.999747, 9.999506 
1.0450802e+3, 1.5510404e+2, -1526495.8, -1523827.8, -61782.145, 0.06775814, -0.14274517, -1463365.3, -43394.473, 0.0000004785213, 9.999478, 9.999498 
1.045077e+3, 1.6510373e+2, -1434113.9, -1479579.6, -27551.012, 0.11568126, -0.09498761, -1421127.8, -99153.24, 0.0, 9.999653, 9.999057 
1.0450731e+3, 1.7510293e+2, -1245213.4, -1342881.4, -36951.152, 0.07222395, -0.11367701, -1232809.0, -8825.604, 0.0, 10.000302, 9.999007 
1.0450702e+3, 1.85102e+2, -1170644.0, -1341440.4, 47982.84, 0.06295394, -0.060852166, -1158087.1, -32092.514, 0.0, 10.000504, 9.998245 
1.0450682e+3, 1.951005e+2, -1098394.1, -1264269.0, 51783.73, 0.082699515, -0.07044201, -1083555.4, -55542.9, 0.0, 10.000356, 9.998178 
1.04506515e+3, 2.0509928e+2, -920238.2, -1036719.25, 39286.125, 0.050252594, -0.04158086, -908226.6, 21799.057, 0.0, 10.000524, 9.9989805 
1.0450611e+3, 2.1509796e+2, -770022.2, -919233.3, 13641.238, -0.029889172, -0.10586118, -768785.3, 63252.766, 0.0, 10.000912, 9.998928 
1.0450582e+3, 2.2509785e+2, -661588.4, -816506.7, 45893.633, -0.02761475, -0.0023973, -649013.4, 85027.13, 0.0, 10.000975, 9.998937 
1.0450565e+3, 2.3509848e+2, -603567.3, -745666.2, 17932.46, 0.051914133, 0.13528539, -601339.2, 34698.055, 0.0, 10.000721, 9.998876 
1.0450544e+3, 2.4509741e+2, -508608.75, -590284.1, 56634.84, 0.06768308, 0.12270216, -479623.66, 58423.72, 0.0, 10.000459, 9.999391 
1.0450523e+3, 2.5509438e+2, -455352.38, -515499.97, 27482.074, 0.033446338, -0.15501745, -444686.78, -4613.5444, 0.0, 10.000164, 9.99937 
1.0450503e+3, 2.650936e+2, -410568.13, -479163.13, 58248.73, -0.011220313, -0.14944182, -377269.53, -35189.746, 0.0000000009945924, 9.999936, 9.999075 
1.0450482e+3, 2.7509433e+2, -357377.2, -408850.8, 69035.19, -0.06098736, -0.015478152, -309437.4, -65363.96, 0.0000020282196, 9.99964, 9.999026 
1.0450464e+3, 2.8509378e+2, -183256.38, -270490.47, 38943.86, -0.008124846, 0.035863515, -168400.61, -22323.004, 0.00002862313, 10.000165, 9.999032 
1.0450448e+3, 2.9509193e+2, 96974.03, -92424.37, 7716.1714, 0.1477538, -0.10165064, 97287.87, 145381.08, 0.00014660136, 10.001443, 9.998964 
1.0450412e+3, 3.0508968e+2, 114631.07, -175142.11, 13645.669, 0.10564467, -0.1583918, 115272.234, 115272.234, 0.00042212423, 10.001771, 9.997902 
1.0450365e+3, 3.150888e+2, 100657.07, 4383.884, -14945.387, -0.025781132, -0.07700522, 102923.81, 102923.81, 0.00085377786, 10.000753, 9.999638 
1.05509035e+3, 1.2510723e+2, -1910896.4, -1825082.4, -139703.34, -0.08434588, -0.021107174, -1721845.5, -7896.236, 0.00039971265, 9.99861, 9.999893 
1.0550875e+3, 1.3510866e+2, -1704221.3, -1704534.5, -59064.848, 0.031845983, 0.12005303, -1645312.8, -29374.832, 0.00016604259, 9.999561, 9.999591 
1.05508275e+3, 1.4510848e+2, -1552882.0, -1528627.0, -96732.61, -0.059361055, 0.1330444, -1443264.6, 74673.63, 0.000032768716, 9.999701, 10.000033 
1.05507895e+3, 1.551066e+2, -1496610.5, -1455510.4, -54704.24, -0.03997665, -0.10526084, -1417623.8, 2327.646, 0.0000008393984, 9.999446, 9.999987 
1.0550758e+3, 1.6510601e+2, -1426696.1, -1452067.0, -23480.963, -0.011369455, -0.116660476, -1412693.0, -90737.67, 0.0, 9.999601, 9.999268 
1.0550736e+3, 1.7510626e+2, -1237753.6, -1316862.6, 4613.8857, 0.057282533, -0.05582359, -1237485.5, -13530.373, 0.0, 10.000257, 9.9992075 
1.05507106e+3, 1.8510604e+2, -1143252.0, -1256298.5, 20640.148, 0.057825193, 0.025522381, -1139601.4, -13642.229, 0.0, 10.000378, 9.998892 
1.055068e+3, 1.9510503e+2, -1070501.6, -1177950.4, 64115.297, -0.008982346, -0.0021758967, -1040577.44, -12606.817, 0.0, 10.000226, 9.998835 
1.0550648e+3, 2.0510405e+2, -964448.2, -1082321.3, 33654.555, -0.06394904, 0.028395537, -955516.1, -25535.715, 0.0, 10.000326, 9.998764 
1.0550615e+3, 2.1510264e+2, -819108.06, -970255.4, 44236.39, -0.11058676, -0.022626588, -807113.25, 24879.99, 0.0, 10.000688, 9.99869 
1.05505936e+3, 2.2510122e+2, -719534.0, -877929.75, 19287.174, -0.048042577, -0.021957686, -717219.3, 16788.01, 0.0, 10.000724, 9.998631 
1.05505824e+3, 2.3509935e+2, -656343.25, -801035.56, 26767.648, 0.12275605, -0.10859813, -651550.1, -15523.541, 0.0, 10.000492, 9.9986 
1.0550554e+3, 2.4509902e+2, -562423.9, -652254.44, 26459.521, 0.09138001, -0.016290117, -555209.6, -17178.172, 0.0, 10.000248, 9.999064 
1.05505124e+3, 2.5509986e+2, -508061.2, -576179.8, 32319.197, -0.13244309, 0.11994399, -495167.7, -55141.703, 0.0, 9.999958, 9.999048 
1.0550492e+3, 2.6509944e+2, -384234.25, -382950.06, 29597.639, -0.1441046, 0.14269865, -353987.56, -11958.807, 0.000000000012280949, 9.999762, 9.999814 
1.0550492e+3, 2.7509743e+2, -331189.84, -312240.8, 82125.445, 0.037608888, -0.0738646, -239045.17, 4997.5215, 0.0000016155456, 9.999461, 9.999771 
1.0550481e+3, 2.8509676e+2, -224611.16, -320966.2, 71458.23, 0.10581211, -0.060059775, -186606.6, -40559.59, 0.000025306648, 10.000015, 9.998759 
1.0550459e+3, 2.9509684e+2, 51509.938, -148780.78, 83481.43, 0.07089639, 0.026060332, 81741.88, 129788.64, 0.00013793015, 10.001283, 9.998659 
1.05504245e+3, 3.0509466e+2, 94083.1, -192183.03, -33601.207, 0.017797364, -0.004636432, 97974.24, 97974.24, 0.00040720604, 10.001655, 9.997842 
1.0550382e+3, 3.150927e+2, 43514.82, -50095.59, -1575.6489, -0.008334106, -0.027641682, 43541.336, 43541.336, 0.0008331317, 10.000479, 9.999397 
1.0650885e+3, 1.251101e+2, -1967439.0, -1845916.9, -106827.18, -0.09494707, 0.039859407, -1783779.9, -69855.47, 0.00047318285, 9.998228, 9.9999275 
1.0650878e+3, 1.3511121e+2, -1826441.5, -1748271.3, -29403.424, 0.16158555, 0.14140493, -1738446.3, -122530.47, 0.00020250746, 9.9986925, 9.999701 
1.0650829e+3, 1.451111e+2, -1652000.1, -1573043.6, -14063.538, 0.037913613, 0.15579918, -1570613.5, -52698.313, 0.000042863663, 9.998994, 10.000079 
1.06507875e+3, 1.5510951e+2, -1477036.3, -1438417.8, -51696.24, 0.00440563, -0.058215678, -1402542.4, 17383.213, 0.0000013547858, 9.999542, 10.000061 
1.06507555e+3, 1.651091e+2, -1392303.0, -1416032.1, 11858.529, 0.008752125, -0.06824071, -1387392.9, -65464.664, 0.0, 9.999741, 9.999457 
1.0650736e+3, 1.7510937e+2, -1320116.6, -1334735.6, -2599.738, 0.07981262, -0.019064227, -1319668.1, -95740.61, 0.0, 9.999588, 9.999417 
1.0650713e+3, 1.8510938e+2, -1188775.0, -1239833.4, 46116.77, 0.081673115, 0.055960666, -1161592.8, -35663.973, 0.0, 9.999886, 9.999246 
1.0650685e+3, 1.9510877e+2, -981809.5, -1096959.1, 30661.41, 0.009822668, 0.034669075, -974154.06, 53781.098, 0.0, 10.000656, 9.9991865 
1.0650656e+3, 2.0510799e+2, -895857.94, -1055039.9, 16525.691, -0.035997428, 0.06777734, -894160.44, 35782.555, 0.0, 10.000816, 9.998714 
1.06506266e+3, 2.1510664e+2, -857518.94, -993212.7, -141.17543, -0.05046202, 0.027702304, -857518.8, -25563.08, 0.0, 10.00044, 9.9986515 
1.0650603e+3, 2.2510496e+2, -747636.8, -885516.44, 37567.637, 0.0037771477, 0.0013257108, -738065.3, -4093.755, 0.0, 10.000491, 9.998694 
1.06505886e+3, 2.3510258e+2, -591867.75, -759770.25, 38992.684, 0.13184816, -0.14307342, -583254.2, 52739.875, 0.0, 10.000891, 9.998687 
1.0650559e+3, 2.451023e+2, -488217.3, -632484.1, 71742.375, 0.0879542, -0.04550571, -458614.8, 79383.53, 0.0, 10.000824, 9.99892 
1.0650514e+3, 2.551036e+2, -469104.72, -581164.7, 54999.227, -0.122928865, 0.15654135, -446621.8, -6632.298, 0.0, 10.000306, 9.998858 
1.06504954e+3, 2.6510307e+2, -291838.9, -347300.22, 84600.6, -0.10391927, 0.18462771, -230540.06, 111453.25, 0.0, 10.000442, 9.999721 
1.06505044e+3, 2.751006e+2, -99112.31, -203088.67, 23911.627, 0.14152361, -0.075653225, -93876.92, 150134.53, 0.00000091217555, 10.00109, 9.9997225 
1.0650495e+3, 2.8509954e+2, -83654.445, -306256.44, 25621.893, 0.19369209, -0.07067007, -80743.39, 65276.293, 0.000020761427, 10.001201, 9.998298 
1.06504686e+3, 2.950994e+2, -50451.86, -249522.75, -15800.574, 0.073568664, 0.03968925, -49205.547, -1181.6274, 0.00012637535, 10.000779, 9.998217 
1.0650438e+3, 3.0509713e+2, 51462.527, -191083.6, -97187.33, 0.023627011, 0.013545604, 85600.31, 85600.31, 0.00038601994, 10.001267, 9.998025 
1.0650407e+3, 3.150955e+2, 324652.22, 100431.59, -116157.266, 0.11264379, -0.0015991417, 373976.84, 373976.84, 0.0008001297, 10.002343, 9.999519 
1.0750876e+3, 1.2511265e+2, -1895223.3, -1687051.6, -92908.0, -0.086733095, 0.14344433, -1651617.8, 62283.438, 0.00055371417, 9.998206, 10.001019 
1.07508704e+3, 1.3511205e+2, -1751802.8, -1583042.5, -5469.145, 0.1851979, -0.04584613, -1582865.5, 33036.902, 0.00024334127, 9.998659, 10.000844 
1.07508205e+3, 1.4511217e+2, -1675683.8, -1626136.6, -23172.33, -0.0001350933, -0.047802966, -1616988.4, -99089.25, 0.00005483326, 9.998993, 9.999723 
1.0750791e+3, 1.5511279e+2, -1499932.8, -1489169.1, -14746.881, 0.032858744, -0.0056594117, -1478852.8, -58959.125, 0.000002073113, 9.999544, 9.999718 
1.07507594e+3, 1.6511296e+2, -1388986.5, -1393110.3, -16294.689, 0.023510123, 0.0518035, -1374623.8, -52730.92, 0.0000000000166348, 9.9996805, 9.9996395 
1.0750727e+3, 1.7511232e+2, -1314318.9, -1307068.9, 10612.923, 0.002676561, -0.01389191, -1299479.0, -75578.91, 0.0, 9.999527, 9.999632 
1.0750706e+3, 1.851121e+2, -1203954.6, -1244752.9, 56102.125, -0.010600729, 0.028586091, -1164658.0, -38755.367, 0.0, 9.999773, 9.999265 
1.0750692e+3, 1.9511178e+2, -1002885.94, -1101384.5, 75346.71, -0.017202202, 0.031654265, -962120.7, 65785.33, 0.0, 10.000492, 9.999231 
1.075067e+3, 2.0511115e+2, -921204.9, -1062356.4, -19499.209, -0.011844943, 0.0763662, -918560.75, 11352.132, 0.0, 10.000616, 9.998766 
1.0750639e+3, 2.1510987e+2, -881200.2, -994011.2, 3417.9373, 0.0054785903, 0.034077987, -881096.75, -49170.35, 0.0, 10.000225, 9.998754 
1.0750609e+3, 2.2510904e+2, -752934.1, -832334.2, 36570.574, -0.011100469, 0.06314319, -738657.3, -4723.596, 0.0, 10.000222, 9.999187 
1.0750581e+3, 2.3510824e+2, -598286.56, -708159.25, 75016.44, -0.062114824, 0.026178608, -560241.94, 75697.24, 0.0, 10.000618, 9.999172 
1.0750553e+3, 2.4510722e+2, -531103.06, -661164.3, 36808.566, -0.08495363, 0.030865503, -521408.53, 16539.441, 0.0, 10.000571, 9.998839 
1.0750524e+3, 2.551056e+2, -498281.2, -597777.6, 55766.31, -0.084496334, -0.05379512, -473298.1, -33334.56, 0.0, 10.000122, 9.998825 
1.0750511e+3, 2.651046e+2, -391720.8, -509911.6, 90569.086, -0.022515623, -0.024121618, -342672.66, -699.9823, 0.000000000031670343, 10.000253, 9.998698 
1.0750514e+3, 2.7510366e+2, -198691.34, -370842.16, 72890.43, 0.09249196, -0.025669105, -171974.95, 72005.14, 0.00000057346807, 10.000923, 9.998656 
1.0750501e+3, 2.8510213e+2, -139387.14, -396747.2, -10319.223, 0.09281825, 0.015067668, -138974.05, 7021.828, 0.000016841232, 10.001088, 9.997729 
1.07504725e+3, 2.9509977e+2, -110511.1, -336002.03, -4906.8213, -0.016024802, -0.043944538, -110404.38, -62381.805, 0.000114238224, 10.000612, 9.9977045 
1.07504494e+3, 3.0509722e+2, 60574.496, -145877.67, -61328.44, -0.036028333, -0.09309119, 77418.4, 77418.4, 0.0003625103, 10.001157, 9.998387 
1.07504286e+3, 3.1509697e+2, 301231.94, 105061.43, -13767.669, 0.015392118, -0.012132611, 302193.47, 302193.47, 0.00076317973, 10.002114, 9.999665 
1.0850869e+3, 1.2511377e+2, -1836436.0, -1644658.0, 30925.592, 0.028677026, 0.08357224, -1639794.4, 74093.43, 0.00064071716, 9.998508, 10.001188 
1.0850857e+3, 1.3511346e+2, -1746069.4, -1561796.5, -72908.55, 0.20290308, -0.092564225, -1536439.1, 79446.6, 0.00028839763, 9.998588, 10.001044 
1.08508095e+3, 1.451138e+2, -1735304.9, -1622458.9, -46430.844, 0.026143393, -0.09498402, -1605810.8, -87929.97, 0.00006873226, 9.998488, 9.999966 
1.08507924e+3, 1.5511504e+2, -1599178.4, -1509349.4, -44181.41, 0.14848354, -0.016980829, -1491261.5, -71390.86, 0.0000030594845, 9.99877, 9.999938 
1.0850764e+3, 1.6511545e+2, -1424935.0, -1422694.3, 5294.808, 0.12979425, 0.059004724, -1418402.6, -96534.234, 0.000000000186287, 9.999483, 9.999528 
1.0850726e+3, 1.7511478e+2, -1158410.5, -1247187.6, -31191.395, -0.011222231, -0.00010380127, -1148547.4, 75329.71, 0.0, 10.000654, 9.999498 
1.08507045e+3, 1.8511446e+2, -1060620.4, -1157385.9, 20192.85, -0.042498924, 0.031455517, -1056575.6, 69304.9, 0.0, 10.000676, 9.999437 
1.0850697e+3, 1.951141e+2, -1126112.3, -1139660.0, 12004.869, 0.027645128, 0.0158784, -1119102.0, -91219.125, 0.0, 9.999572, 9.999412 
1.0850678e+3, 2.0511368e+2, -1068987.3, -1096438.0, -15344.4, 0.06452487, 0.056765866, -1062125.4, -132238.19, 0.0, 9.999457, 9.999081 
1.08506456e+3, 2.1511276e+2, -855207.2, -947796.9, -16481.057, 0.06671167, 0.020696046, -852361.06, -20463.643, 0.0, 10.000274, 9.99904 
1.0850615e+3, 2.2511224e+2, -727598.0, -817877.6, 28725.436, 0.033003006, 0.064393006, -719233.1, 14668.892, 0.0, 10.000384, 9.999217 
1.08505845e+3, 2.351117e+2, -719504.0, -766088.94, -11022.391, -0.03485828, 0.05380453, -717027.6, -81122.79, 0.0, 9.999777, 9.999191 
1.08505614e+3, 2.451103e+2, -568280.8, -691324.94, -3809.5718, -0.037159357, 0.025478672, -568163.0, -30246.832, 0.0, 10.000344, 9.998765 
1.08505435e+3, 2.5510773e+2, -246881.3, -487032.0, -20684.646, 0.025152823, -0.14368546, -245112.72, 194826.4, 0.0, 10.001885, 9.998754 
1.0850531e+3, 2.6510638e+2, -153309.83, -462215.22, 41447.434, 0.06598994, -0.1105053, -147845.28, 194106.67, 0.000000020287489, 10.00218, 9.998087 
1.0850523e+3, 2.7510577e+2, -187021.47, -435399.8, 11134.779, 0.08675011, -0.02336, -186523.3, 57436.47, 0.0000009682407, 10.001295, 9.998031 
1.0850506e+3, 2.8510427e+2, -113764.38, -367621.9, 17633.541, 0.056763127, 0.04399055, -112545.375, 33430.926, 0.000016002106, 10.001211, 9.99786 
1.0850485e+3, 2.9510173e+2, 70622.98, -223244.72, 24785.916, -0.00041340134, -0.045992594, 72698.85, 120702.37, 0.00010691048, 10.001772, 9.997907 
1.08504675e+3, 3.050992e+2, 166548.1, -86730.45, 33965.41, 0.015497658, -0.108840875, 171023.88, 171023.88, 0.00034615427, 10.001865, 9.998471 
1.0850453e+3, 3.150994e+2, 161975.67, 32786.855, -13000.349, 0.103469685, 0.020783678, 163270.92, 163270.92, 0.00073994894, 10.001204, 9.999618 
1.0950862e+3, 1.2511362e+2, -1876880.8, -1722899.5, 45189.85, 0.025609015, -0.12886614, -1710617.0, 3265.9934, 0.000734217, 9.998477, 10.000673 
1.0950833e+3, 1.3511573e+2, -1783487.0, -1649949.3, -59093.555, 0.059138577, -0.0018739933, -1627554.6, -11691.258, 0.00033773432, 9.998617, 10.000433 
1.0950791e+3, 1.4511617e+2, -1690418.9, -1523545.8, -61396.734, -0.058829606, 0.0023452935, -1503390.6, 14468.046, 0.0000845864, 9.9984665, 10.000653 
1.0950789e+3, 1.5511625e+2, -1561135.3, -1413560.6, -14297.633, 0.19695947, -0.102558926, -1412188.3, 7668.192, 0.0000043925156, 9.998709, 10.000622 
1.09507665e+3, 1.6511662e+2, -1456304.1, -1484242.5, 27279.068, 0.17052008, -0.042295888, -1439625.6, -117771.15, 0.0000000006358386, 9.999458, 9.999123 
1.0950728e+3, 1.7511676e+2, -1189672.3, -1308151.4, 30225.363, -0.104721844, 0.019949963, -1182407.0, 41451.3, 0.0, 10.000626, 9.999098 
1.0950702e+3, 1.851166e+2, -1052794.1, -1120044.6, -43471.348, -0.16082096, 0.07381454, -1031461.06, 94399.49, 0.0, 10.0005865, 9.999736 
1.0950692e+3, 1.9511588e+2, -1123940.0, -1100989.1, -9497.302, 0.00017122398, -0.012007001, -1097568.8, -69704.336, 0.0, 9.999427, 9.999745 
1.09506726e+3, 2.0511557e+2, -1062308.9, -1041797.7, -4400.2563, 0.04787554, -0.00019730799, -1040893.5, -111027.445, 0.0, 9.999275, 9.999546 
1.09506436e+3, 2.1511526e+2, -853640.2, -895763.3, 30796.479, -0.0133646205, -0.02262747, -837392.06, -5522.4214, 0.0, 10.000058, 9.999503 
1.09506175e+3, 2.2511445e+2, -805543.94, -919733.8, -14955.729, -0.008372684, 0.00033440508, -803617.7, -69740.445, 0.0, 10.00013, 9.998638 
1.09505944e+3, 2.3511277e+2, -792510.3, -862953.06, -15176.566, 0.05751271, -0.07068721, -789379.75, -153487.06, 0.0, 9.99954, 9.998639 
1.0950579e+3, 2.451114e+2, -606635.56, -711003.4, 36268.902, 0.07662465, -0.06758241, -595269.56, -57365.24, 0.0, 10.000095, 9.998744 
1.0950569e+3, 2.5511e+2, -285465.56, -507454.5, 57338.273, 0.05607816, -0.123788, -271530.25, 168385.64, 0.0, 10.001638, 9.998726 
1.0950552e+3, 2.651087e+2, -206543.73, -518020.25, -6430.1016, 0.02113212, -0.070275865, -206411.05, 135518.17, 0.00000010014453, 10.001947, 9.997814 
1.0950529e+3, 2.75107e+2, -227099.1, -482077.38, 4672.8706, -0.03292137, -0.062774934, -227013.48, 16935.973, 0.0000018117424, 10.001135, 9.997789 
1.095051e+3, 2.8510576e+2, -83805.484, -270682.78, 21913.531, -0.0705784, 0.008048005, -81270.266, 64692.254, 0.000017402066, 10.001064, 9.998592 
1.0950499e+3, 2.951049e+2, 94867.32, -134281.31, 69170.52, -0.07053049, 0.0018715584, 114128.11, 162098.88, 0.00010435712, 10.001604, 9.998598 
1.09504886e+3, 3.051028e+2, 122755.59, -139449.44, -7708.6533, 0.010963836, -0.035409845, 122982.03, 122982.03, 0.00033796718, 10.001712, 9.998177 
1.0950468e+3, 3.1510234e+2, 92663.76, -54618.87, 15943.082, 0.0627045, 0.06072186, 94369.805, 94369.805, 0.00073108607, 10.000958, 9.999137 
1.1050853e+3, 1.251147e+2, -1906527.3, -1748519.4, 115811.836, 0.10971822, -0.17393517, -1687330.5, 26539.375, 0.00083503575, 9.998363, 10.000503 
1.10508166e+3, 1.3511717e+2, -1771004.5, -1664502.1, -71593.64, 0.04271263, 0.0028157271, -1628527.0, -12677.714, 0.0003918232, 9.998806, 10.0002165 
1.1050788e+3, 1.4511773e+2, -1591489.5, -1491222.4, -34047.566, 0.04121022, 0.03108429, -1480753.9, 37091.164, 0.000102570426, 9.999175, 10.000555 
1.10507816e+3, 1.5511765e+2, -1409632.9, -1354706.5, -80866.836, 0.20357287, -0.07794004, -1296766.8, 123077.75, 0.0000061708192, 9.999771, 10.000531 
1.1050761e+3, 1.6511801e+2, -1398528.8, -1423862.3, 1189.832, 0.16043945, -0.030444361, -1398473.0, -76630.766, 0.0000000015512864, 9.999728, 9.999395 
1.1050731e+3, 1.7511836e+2, -1361691.8, -1352796.4, 12211.026, -0.05318854, 0.022820646, -1344248.3, -120405.64, 0.0, 9.999306, 9.999411 
1.1050709e+3, 1.8511836e+2, -1194841.8, -1159294.5, -22123.076, -0.08692924, 0.06123679, -1148689.8, -22847.264, 0.0, 9.999496, 9.999984 
1.10506944e+3, 1.951176e+2, -986163.3, -1007634.1, -33030.6, 0.045660194, -0.05196933, -962167.3, 65678.69, 0.0, 10.000258, 9.999983 
1.1050675e+3, 2.0511737e+2, -900698.9, -982070.1, 3570.546, 0.09053314, -0.036793083, -900542.5, 29304.719, 0.0, 10.000446, 9.999403 
1.10506505e+3, 2.1511725e+2, -848941.5, -910667.9, -44373.813, 0.048632298, -0.023722228, -825753.1, 6096.8506, 0.0, 10.000144, 9.999369 
1.10506274e+3, 2.251164e+2, -740465.56, -896153.2, -50889.926, 0.06534251, 0.0058893138, -725307.0, 8551.378, 0.0, 10.000622, 9.998549 
1.10506095e+3, 2.351145e+2, -461144.4, -710806.8, -53555.59, 0.13631983, -0.079313636, -450141.03, 185734.95, 0.0, 10.001866, 9.998549 
1.1050593e+3, 2.4511316e+2, -381872.6, -635873.2, 30820.97, 0.14249697, -0.05547891, -378186.22, 159702.17, 0.0, 10.001793, 9.998428 
1.1050582e+3, 2.55112e+2, -478864.4, -635412.06, -16763.494, 0.094548896, -0.05495493, -477089.47, -37190.113, 0.0, 10.000456, 9.998406 
1.1050566e+3, 2.651106e+2, -409277.44, -570086.3, -27500.736, 0.057823583, -0.01341712, -404704.44, -62791.254, 0.00000018749917, 10.000354, 9.998236 
1.1050547e+3, 2.7510864e+2, -163453.11, -401371.75, -7925.9434, 0.035160683, -0.07243866, -163189.36, 80744.805, 0.0000025365616, 10.001368, 9.998235 
1.10505275e+3, 2.851076e+2, 6129.733, -205356.39, 52167.035, -0.022847401, -0.019872056, 18297.63, 164242.4, 0.000019295574, 10.0015745, 9.998815 
1.1050509e+3, 2.9510722e+2, 3612.062, -160754.33, 17248.594, -0.08504886, 0.0126704015, 5402.622, 53350.176, 0.00010487227, 10.000888, 9.998778 
1.1050501e+3, 3.0510542e+2, 47032.86, -184968.16, -16775.3, 0.0007085663, -0.0025892965, 48239.555, 48239.555, 0.00033641586, 10.001183, 9.998122 
1.10504895e+3, 3.1510502e+2, 221140.9, 8145.585, -38362.29, 0.15715636, 0.09220225, 227839.61, 227839.61, 0.0007307893, 10.001836, 9.999127 
1.11508265e+3, 1.2511754e+2, -1900675.5, -1743899.0, 66580.01, -0.084550604, -0.049329456, -1719439.8, -5596.4473, 0.000944546, 9.998397, 10.0005245 
1.1150804e+3, 1.351179e+2, -1775636.1, -1674693.6, -39842.516, -0.0016386309, -0.07313145, -1660862.6, -45019.91, 0.00045159098, 9.9988, 10.000157 
1.1150796e+3, 1.4511853e+2, -1639903.4, -1587626.6, -39037.598, 0.14615484, -0.001878723, -1566784.8, -48945.36, 0.00012308804, 9.999164, 9.999898 
1.1150764e+3, 1.551195e+2, -1461080.6, -1456202.8, -42943.652, 0.017002454, 0.060612507, -1415628.9, 4203.652, 0.000008505592, 9.999754, 9.999843 
1.1150741e+3, 1.6511986e+2, -1337511.1, -1292710.9, -38109.56, -0.055617422, 0.100029565, -1270905.8, 50923.34, 0.0000000033697685, 9.999697, 10.00032 
1.1150733e+3, 1.7511964e+2, -1300370.9, -1218607.0, 15130.384, -0.011626074, 0.0058184154, -1215897.0, 7932.412, 0.0, 9.999261, 10.000366 
1.1150718e+3, 1.8511963e+2, -1196797.6, -1142332.4, -13232.419, 0.016366921, -0.012969541, -1139287.6, -13460.607, 0.0, 9.999404, 10.000146 
1.1150697e+3, 1.951193e+2, -1000866.9, -1000078.5, 11749.222, 0.0092713395, -0.09672145, -988716.9, 39110.34, 0.0, 10.000101, 10.000109 
1.11506775e+3, 2.051192e+2, -977131.06, -1099343.6, -32094.947, 0.039936963, -0.039023984, -969215.2, -39385.9, 0.0, 10.000268, 9.99868 
1.1150659e+3, 2.1511878e+2, -934091.6, -1031757.25, -36836.055, 0.1043153, 0.0109082125, -921756.4, -89918.54, 0.0, 9.999906, 9.998651 
1.1150641e+3, 2.2511815e+2, -745299.4, -853985.1, -22137.164, 0.105706125, 0.07677415, -740963.44, -7118.523, 0.0, 10.0004, 9.998947 
1.1150622e+3, 2.3511697e+2, -472183.63, -673071.56, 11195.554, 0.059045065, 0.026600247, -471561.6, 164292.33, 0.0, 10.001606, 9.998936 
1.11506015e+3, 2.4511558e+2, -465658.44, -753018.06, -36006.414, 0.015177009, 0.06256437, -461215.5, 76652.36, 0.0, 10.001546, 9.997744 
1.11505784e+3, 2.551136e+2, -556029.44, -749694.75, -43990.46, -0.019275144, 0.049416374, -546505.5, -106615.06, 0.0, 10.000255, 9.99772 
1.1150568e+3, 2.651121e+2, -360670.47, -429046.2, -6629.2964, 0.013703812, 0.057718024, -360033.7, -18128.877, 0.00000020790911, 10.000177, 9.999288 
1.11505724e+3, 2.7511063e+2, -111683.42, -258626.5, 54143.805, 0.120112315, -0.062130947, -93888.22, 150027.23, 0.0000030041283, 10.001204, 9.999296 
1.11505516e+3, 2.8510973e+2, -48065.69, -264966.78, 9399.031, 0.042149335, -0.030559512, -47659.164, 98263.766, 0.000021785861, 10.001362, 9.998501 
1.1150509e+3, 2.951089e+2, -47758.586, -219565.69, 24573.963, -0.22311775, -0.008356384, -44312.824, 3619.349, 0.00010887074, 10.000688, 9.998468 
1.1150498e+3, 3.0510718e+2, 34804.254, -170990.28, -0.7153288, -0.17072478, -0.009209744, 34804.254, 34804.254, 0.00034133886, 10.00102, 9.998294 
1.1150507e+3, 3.151071e+2, 191779.61, 3969.0647, 59727.125, 0.059682872, 0.10226113, 209164.63, 209164.63, 0.0007375019, 10.001588, 9.999222 
1.1250827e+3, 1.2511994e+2, -1883153.3, -1720277.9, 61472.137, 0.08162392, 0.043230016, -1699681.6, 14140.365, 0.0010643419, 9.998447, 10.000682 
1.12507895e+3, 1.3511969e+2, -1737441.4, -1632114.8, -35295.35, -0.016044803, -0.060153827, -1621381.0, -5555.21, 0.00051804923, 9.998966, 10.000376 
1.1250796e+3, 1.4512022e+2, -1633645.0, -1624870.4, 50878.91, 0.23122296, 0.008459469, -1578190.0, -60367.008, 0.00014661087, 9.999375, 9.999537 
1.1250762e+3, 1.5512086e+2, -1453777.0, -1489197.1, 23921.52, 0.018228361, 0.06949068, -1441723.3, -21903.027, 0.00001150662, 9.999965, 9.999505 
1.1250737e+3, 1.6512117e+2, -1305792.0, -1249372.4, 17390.719, -0.056750145, 0.10483575, -1244442.6, 77374.695, 0.0000000061074554, 9.999806, 10.00056 
1.1250729e+3, 1.7512101e+2, -1310208.8, -1195462.8, -21160.783, 0.04461043, -0.0066759437, -1191684.8, 32130.957, 0.0, 9.999084, 10.000605 
1.12507164e+3, 1.8512124e+2, -1257573.1, -1170300.0, 852.8876, 0.092512086, -0.013774781, -1170291.6, -44480.793, 0.0, 9.998987, 10.000155 
1.1250699e+3, 1.9512126e+2, -1084617.1, -1047509.5, -21915.197, 0.06737799, -0.06305007, -1037348.9, -9540.21, 0.0, 9.999526, 10.000075 
1.1250684e+3, 2.0512109e+2, -999720.1, -1102479.1, -18911.03, 0.08605672, -0.010106411, -996350.4, -66539.25, 0.0, 10.000105, 9.998727 
1.1250668e+3, 2.1512033e+2, -791263.4, -952043.5, -11092.8955, 0.14919019, 0.002440111, -790501.7, 41320.277, 0.0, 10.000864, 9.998725 
1.1250651e+3, 2.2511952e+2, -663365.94, -847733.7, 52744.355, 0.13511881, 0.060792055, -649343.25, 84488.01, 0.0, 10.001084, 9.998675 
1.1250634e+3, 2.351184e+2, -592391.75, -759948.44, -1587.915, 0.054154012, 0.044629507, -592376.7, 43464.996, 0.0, 10.000884, 9.998694 
1.12506144e+3, 2.4511708e+2, -513913.56, -741078.56, -29499.805, 0.016571134, 0.081678264, -510145.22, 27710.313, 0.0, 10.001076, 9.998051 
1.12505905e+3, 2.551152e+2, -332534.06, -604574.56, -929.2681, 0.024120266, 0.050634686, -332530.88, 107345.125, 0.0, 10.001654, 9.99804 
1.1250581e+3, 2.6511392e+2, -159771.44, -332288.8, 89221.65, 0.05997882, 0.06851621, -121929.11, 219958.67, 0.00000016860811, 10.001566, 9.999282 
1.1250582e+3, 2.7511284e+2, -167678.78, -284179.63, 26169.807, 0.12927912, -0.013701264, -162070.22, 81825.41, 0.0000038179373, 10.000828, 9.999291 
1.1250564e+3, 2.85112e+2, -146691.25, -318288.75, -17952.828, 0.07161826, 0.026889468, -144833.11, 1069.481, 0.000026510976, 10.000692, 9.998455 
1.1250527e+3, 2.9511106e+2, -15952.671, -200124.11, -28809.629, -0.1045713, 0.035001658, -11551.218, 36361.47, 0.00011807009, 10.000896, 9.998488 
1.125052e+3, 3.0510888e+2, 94431.336, -143112.34, 30036.549, -0.06839252, -0.009689826, 98170.49, 98170.49, 0.0003550206, 10.001454, 9.998279 
1.1250527e+3, 3.1510812e+2, 252135.4, 26195.67, 5257.7363, 0.09716369, 0.043688305, 252257.69, 252257.69, 0.0007557848, 10.002024, 9.999178 
1.13508165e+3, 1.251214e+2, -1864078.9, -1680421.3, -75286.125, 0.052207094, 0.052445233, -1653504.4, 60306.906, 0.0011953667, 9.998458, 10.000945 
1.13507666e+3, 1.3512258e+2, -1697569.6, -1543604.3, -1989.91, -0.17818676, 0.034203578, -1543578.6, 72219.53, 0.00059164723, 9.998953, 10.000986 
1.1350782e+3, 1.451231e+2, -1632331.1, -1621367.0, 52083.367, 0.1085328, 0.06688119, -1574478.0, -56684.742, 0.00017336896, 9.9993725, 9.999565 
1.1350769e+3, 1.551221e+2, -1454313.3, -1485347.8, 67158.805, 0.05162768, -0.03378514, -1400902.4, 18902.19, 0.000015247707, 9.999942, 9.999545 
1.1350745e+3, 1.6512212e+2, -1345915.0, -1326112.9, -32163.719, -0.015387152, -0.0055842907, -1302360.8, 19444.281, 0.000000009421829, 9.999776, 10.000048 
1.1350715e+3, 1.7512259e+2, -1349423.4, -1274147.1, -31917.479, -0.038001396, -0.0024374367, -1262435.9, -38635.88, 0.0, 9.999073, 10.000069 
1.1350701e+3, 1.8512319e+2, -1274251.1, -1189131.8, -926.2936, -0.0065354267, 0.05897953, -1189121.6, -63328.055, 0.0, 9.998916, 10.000064 
1.1350698e+3, 1.951235e+2, -1114896.6, -1067379.6, 17050.816, 0.066501595, 0.044876784, -1061894.4, -34104.656, 0.0, 9.999342, 10.00003 
1.1350686e+3, 2.0512317e+2, -981140.7, -1019850.94, -11929.033, 0.078367926, 0.0520869, -977759.9, -47968.36, 0.0, 9.999913, 9.999389 
1.13506675e+3, 2.1512194e+2, -782932.56, -875646.5, 31722.223, 0.048283257, -0.04871146, -773117.75, 58684.43, 0.0, 10.000613, 9.9993725 
1.1350652e+3, 2.2512062e+2, -760940.6, -996349.25, 22675.654, 0.011550747, -0.0267034, -758776.3, -24959.5, 0.0, 10.000846, 9.997769 
1.1350637e+3, 2.351188e+2, -695413.25, -912300.75, 10316.796, -0.032895356, -0.025363348, -694923.6, -59084.273, 0.0, 10.000614, 9.997782 
1.13506235e+3, 2.4511762e+2, -459692.66, -574357.6, -25756.637, -0.018295798, 0.0085817445, -454172.78, 83678.66, 0.0, 10.000842, 9.999308 
1.1350615e+3, 2.5511673e+2, -273182.16, -435852.8, 39575.168, 0.07412814, -0.051229857, -264065.13, 175791.25, 0.0, 10.0014515, 9.999299 
1.1350598e+3, 2.6511613e+2, -260020.19, -499584.5, 44905.617, 0.048372287, 0.021262905, -251879.39, 89982.87, 0.00000020663475, 10.001388, 9.998222 
1.1350573e+3, 2.7511516e+2, -268132.72, -458246.78, 25133.94, -0.093226925, 0.06560237, -264866.03, -20990.947, 0.0000055002247, 10.0006695, 9.9981785 
1.1350558e+3, 2.8511423e+2, -156652.95, -294830.56, -28923.166, -0.09283752, 0.13972627, -150843.08, -4958.147, 0.000033703815, 10.000515, 9.998695 
1.13505594e+3, 2.9511327e+2, -26372.303, -177921.36, 4035.4512, 0.070955075, 0.118292086, -26264.924, 21627.934, 0.00013271971, 10.000705, 9.998734 
1.13505565e+3, 3.051102e+2, 49006.043, -186321.42, 37596.613, 0.12979463, -0.015846904, 54866.637, 54866.637, 0.00037893685, 10.001245, 9.998081 
1.13505356e+3, 3.151079e+2, 198048.58, -13310.344, 79271.414, -0.088316366, -0.09756097, 224475.53, 224475.53, 0.00079122034, 10.001717, 9.999053 
1.1450815e+3, 1.2512337e+2, -1782905.8, -1689879.3, -54145.07, 0.1832422, 0.038566943, -1665012.0, 48779.254, 0.0013373722, 9.999201, 10.000532 
1.1450763e+3, 1.3512444e+2, -1650211.3, -1550586.1, -14103.933, -0.11444409, 0.0324625, -1548628.0, 67151.61, 0.000672049, 9.999375, 10.000745 
1.1450774e+3, 1.4512482e+2, -1614150.8, -1559856.6, 66323.53, 0.10258931, 0.040614054, -1515339.4, 2435.7595, 0.0002032588, 9.999295, 10.000014 
1.14507675e+3, 1.5512407e+2, -1534659.6, -1475246.6, 57307.008, 0.10010025, -0.07665276, -1440404.1, -20621.922, 0.000019742625, 9.999202, 9.999968 
1.14507474e+3, 1.6512406e+2, -1417458.6, -1418460.3, 9627.674, 0.056661315, -0.042321373, -1408318.8, -86535.67, 0.000000013934886, 9.999531, 9.9995365 
1.1450717e+3, 1.7512436e+2, -1193870.9, -1250741.9, -22509.412, 0.012182661, -0.008043961, -1186040.0, 37741.934, 0.0, 10.00037, 9.999601 
1.14507005e+3, 1.8512465e+2, -1062923.4, -1120984.1, 38043.61, 0.036874175, 0.061170302, -1044099.0, 81680.875, 0.0, 10.000512, 9.999758 
1.1450697e+3, 1.9512457e+2, -1042725.0, -1055673.1, -4498.4897, 0.107655585, 0.036442064, -1041315.56, -13535.168, 0.0, 9.999964, 9.999792 
1.14506885e+3, 2.0512423e+2, -966263.9, -1018653.3, 101.12879, 0.11497514, 0.051933095, -966263.7, -36480.754, 0.0, 10.000005, 9.999369 
1.14506766e+3, 2.1512322e+2, -775485.2, -872554.0, -37415.086, 0.075163335, -0.02610839, -762737.7, 69053.66, 0.0, 10.000629, 9.999398 
1.1450663e+3, 2.2512212e+2, -744180.7, -930402.9, -12603.756, 0.0505783, -0.0077657783, -743331.56, -9528.558, 0.0, 10.000735, 9.998262 
1.1450648e+3, 2.3512056e+2, -688480.9, -846310.8, 36232.9, 0.034252007, -0.032718126, -680560.4, -44738.57, 0.0, 10.000412, 9.998322 
1.1450636e+3, 2.4511962e+2, -473402.0, -567957.7, 84375.47, 0.034735218, -0.008894377, -423961.63, 113869.02, 0.0, 10.000677, 9.999436 
1.1450629e+3, 2.5511903e+2, -245923.31, -400072.75, 28942.178, 0.0655802, -0.05389701, -240668.44, 199163.7, 0.0, 10.001551, 9.999489 
1.145061e+3, 2.651183e+2, -227370.48, -523496.28, 11086.446, 0.03068232, 0.011629117, -226956.02, 114883.39, 0.00000038376965, 10.001765, 9.99788 
1.14505835e+3, 2.7511686e+2, -196914.31, -454911.22, 8082.272, -0.061391495, 0.03800645, -196661.38, 47195.957, 0.0000075917305, 10.00129, 9.997902 
1.14505716e+3, 2.851156e+2, -57248.586, -272405.84, 47451.063, -0.035029534, 0.10688888, -47248.453, 98621.76, 0.000041535674, 10.001306, 9.998475 
1.14505775e+3, 2.951145e+2, 100826.64, -137615.58, 2369.545, 0.14786497, 0.09779098, 100850.19, 148729.33, 0.00014998692, 10.00168, 9.99854 
1.14505775e+3, 3.0511147e+2, 100761.984, -146889.88, 56914.227, 0.2233957, -0.0324112, 113215.51, 113215.51, 0.00040888134, 10.0015, 9.9982395 
1.1450558e+3, 3.1510943e+2, 2159.2844, -76959.46, 49866.27, 0.047657218, -0.11166562, 26252.004, 26252.004, 0.0008408799, 10.000241, 9.999318 
1.1550797e+3, 1.251254e+2, -1838847.8, -1801174.3, -137904.48, -0.0030602682, -0.0518258, -1680826.0, 32940.33, 0.001489488, 9.999183, 9.999772 
1.1550774e+3, 1.351255e+2, -1719755.5, -1690573.1, 9085.379, 0.008830731, -0.057072237, -1687975.6, -72208.05, 0.00075867696, 9.999365, 9.999778 
1.15507655e+3, 1.4512542e+2, -1567982.1, -1471368.9, 39746.15, 0.025949229, -0.08003144, -1457119.3, 60649.45, 0.0002361324, 9.999305, 10.000631 
1.1550754e+3, 1.5512654e+2, -1483165.4, -1377656.9, 69924.32, 0.0022049728, -0.072690316, -1342818.8, 76936.55, 0.000024990082, 9.999224, 10.000637 
1.15507394e+3, 1.6512693e+2, -1445682.6, -1468323.4, 19919.13, -0.009961909, -0.016670836, -1434091.8, -112339.82, 0.000000023716384, 9.999503, 9.999201 
1.15507275e+3, 1.7512637e+2, -1231790.8, -1308500.9, 28327.896, 0.045638863, -0.03434188, -1222463.8, 1297.0188, 0.0, 10.000291, 9.999236 
1.15507126e+3, 1.8512574e+2, -1122913.0, -1223798.5, -3235.8157, 0.06449054, -0.0049122595, -1122809.3, 2959.193, 0.0, 10.000418, 9.999097 
1.1550693e+3, 1.9512455e+2, -1107837.4, -1159950.1, -10322.447, 0.030650364, -0.077421784, -1105867.3, -78086.97, 0.0, 9.999827, 9.999143 
1.15506835e+3, 2.0512424e+2, -1025708.44, -1099591.8, -1495.6653, 0.03302115, -0.004532212, -1025678.2, -95892.94, 0.0, 9.999821, 9.9989 
1.1550686e+3, 2.1512428e+2, -845000.3, -958903.25, 4797.7793, 0.078940056, 0.07014702, -844798.56, -13010.355, 0.0, 10.000375, 9.998929 
1.1550679e+3, 2.2512417e+2, -654813.25, -686891.4, -43552.66, 0.10461516, 0.116546094, -624440.2, 109348.67, 0.0, 10.000485, 10.000054 
1.1550663e+3, 2.3512353e+2, -600207.4, -610221.06, 42348.133, 0.11170647, 0.009371789, -562571.1, 73219.234, 0.0, 10.000184, 10.000054 
1.15506455e+3, 2.4512294e+2, -567682.44, -710949.25, 93580.81, 0.029584797, 0.028676992, -521465.44, 16328.837, 0.0, 10.000447, 9.998565 
1.1550626e+3, 2.55122e+2, -340803.0, -548112.7, 78937.62, -0.1472788, 0.03535182, -314167.88, 125636.055, 0.0, 10.001328, 9.998582 
1.1550615e+3, 2.6512033e+2, -229378.72, -477068.53, -23392.256, -0.13767742, 0.03124412, -227188.88, 114631.016, 0.0000005356376, 10.001553, 9.998297 
1.1550611e+3, 2.7511755e+2, -190203.3, -399234.72, 13682.766, 0.049273957, -0.1194037, -189311.45, 54533.617, 0.000008957139, 10.001107, 9.998372 
1.1550599e+3, 2.8511602e+2, -123667.3, -368930.06, 44386.066, 0.07592997, -0.07978369, -115881.734, 29977.762, 0.000047577858, 10.001128, 9.997895 
1.15505785e+3, 2.95115e+2, 36624.555, -245182.64, 47535.406, -0.061489724, -0.022110747, 44426.84, 92296.68, 0.00016516355, 10.00155, 9.997871 
1.1550578e+3, 3.051127e+2, 91150.625, -109041.23, -1173.6833, 0.042031128, -0.062295943, 91157.51, 91157.51, 0.00043860512, 10.001278, 9.99859 
1.15505785e+3, 3.1511202e+2, -10543.576, -34118.574, 63107.64, 0.1456643, -0.04110632, 41867.984, 41867.984, 0.0008954558, 9.999952, 9.999743 
1.1650783e+3, 1.2512727e+2, -1784311.0, -1772050.1, -97098.82, -0.06969141, -0.111330345, -1680888.4, 32857.97, 0.0016512593, 9.999544, 9.999791 
1.16507776e+3, 1.3512747e+2, -1702184.5, -1719002.1, 2463.1736, 0.10862197, -0.06982064, -1701831.1, -86083.875, 0.0008513687, 9.999659, 9.999441 
1.16507545e+3, 1.4512724e+2, -1561531.4, -1472298.9, 66101.0, -0.007755886, -0.08457586, -1437165.9, 80584.56, 0.00027198074, 9.999386, 10.000569 
1.1650747e+3, 1.5512864e+2, -1517067.5, -1400445.3, 580.3208, 0.02391125, -0.04844139, -1400442.4, 19293.143, 0.00003101119, 9.999027, 10.000563 
1.16507374e+3, 1.6512924e+2, -1460261.6, -1431687.5, 23045.084, 0.039590493, 0.010217406, -1418860.0, -97130.055, 0.00000004774233, 9.999203, 9.999604 
1.16507314e+3, 1.7512879e+2, -1260354.1, -1284798.5, 45085.848, 0.08547307, -0.032399554, -1225863.1, -2127.3855, 0.0, 9.9999, 9.999607 
1.1650719e+3, 1.8512806e+2, -1149844.9, -1255620.0, 68715.3, 0.097413555, -0.020359121, -1116021.0, 9722.586, 0.0, 10.000306, 9.998932 
1.1650696e+3, 1.9512674e+2, -1009567.4, -1129687.6, 63568.223, 0.048302617, -0.091089435, -982173.9, 45582.973, 0.0, 10.000572, 9.998994 
1.1650686e+3, 2.0512629e+2, -919107.0, -1039631.94, 158244.06, 0.05118252, -0.026833335, -810039.2, 119724.06, 0.0, 10.000549, 9.998944 
1.1650691e+3, 2.1512622e+2, -860811.75, -954870.5, 152452.48, 0.10985351, 0.030203808, -748299.56, 83467.41, 0.0, 10.000254, 9.998999 
1.16506845e+3, 2.2512618e+2, -655410.06, -700333.8, 97837.28, 0.13366954, 0.08573559, -577489.3, 156277.45, 0.0, 10.000516, 9.999961 
1.1650671e+3, 2.3512574e+2, -444680.16, -546008.3, 13971.397, 0.13208665, 0.0058906227, -442789.03, 192977.75, 0.0, 10.001281, 9.99998 
1.1650654e+3, 2.4512511e+2, -463476.94, -697167.06, 53090.07, 0.04514653, 0.04251558, -451981.34, 85790.55, 0.0, 10.001311, 9.998243 
1.16506375e+3, 2.55124e+2, -456972.47, -640224.4, 40106.117, -0.12828831, 0.060564335, -448579.34, -8793.896, 0.0, 10.000671, 9.99827 
1.165063e+3, 2.6512203e+2, -326223.8, -516885.34, -14313.288, -0.09513429, 0.043856494, -325155.28, 16648.615, 0.00000056359414, 10.000871, 9.998346 
1.16506346e+3, 2.7511907e+2, -87581.94, -344690.9, -50309.766, 0.14578322, -0.12977548, -78088.14, 165741.42, 0.00000928475, 10.001811, 9.9984045 
1.1650621e+3, 2.851172e+2, 10230.52, -319571.75, 10405.928, 0.14377387, -0.11546571, 10558.521, 156404.63, 0.000050789153, 10.002089, 9.997777 
1.16505906e+3, 2.9511598e+2, 36306.613, -253488.19, -317.57742, -0.08357075, -0.071219414, 36306.96, 84165.72, 0.00017624088, 10.001589, 9.997788 
1.165059e+3, 3.0511382e+2, 127503.44, -134723.33, -21492.793, 0.032963198, -0.071489304, 129253.36, 129253.36, 0.00046429865, 10.001689, 9.998233 
1.16505995e+3, 3.151133e+2, 246379.84, 70975.14, -73892.13, 0.28686184, 0.0067400536, 273358.56, 273358.56, 0.0009436127, 10.001785, 9.999603 
1.17507875e+3, 1.2512928e+2, -1752738.9, -1669315.3, -26307.887, -0.058324818, -0.121058024, -1661711.9, 52016.37, 0.0018234614, 9.999421, 10.000547 
1.1750772e+3, 1.3513035e+2, -1684276.0, -1681483.6, 20550.809, 0.05466325, -0.015379373, -1662281.6, -46563.395, 0.0009506097, 9.999671, 9.999691 
1.17507346e+3, 1.4513041e+2, -1616046.5, -1578703.0, 32569.86, -0.17977597, 0.021976562, -1559832.4, -42112.996, 0.00031097958, 9.999359, 9.999848 
1.175074e+3, 1.5513046e+2, -1571143.6, -1511039.4, 7841.431, 0.005424598, -0.0029158818, -1510033.1, -90311.02, 0.00003785508, 9.999016, 9.999809 
1.1750734e+3, 1.651309e+2, -1394450.3, -1286910.4, 27568.477, 0.040971667, 0.029641908, -1280254.9, 41462.59, 0.00000010132158, 9.999168, 10.000611 
1.1750724e+3, 1.7513153e+2, -1197734.8, -1135234.6, 89013.62, -0.013576746, -0.014670953, -1072144.9, 151562.88, 0.0, 9.99982, 10.0006695 
1.17507145e+3, 1.8513176e+2, -1136048.6, -1203696.5, 56524.582, -0.018808251, 0.016709765, -1104000.8, 21703.168, 0.0, 10.000207, 9.999338 
1.1750702e+3, 1.9513117e+2, -1001910.3, -1084045.8, 94394.15, 0.010672775, -0.018482242, -940037.25, 87672.78, 0.0, 10.000439, 9.999376 
1.1750692e+3, 2.0513035e+2, -918191.2, -993677.6, 124785.375, 0.015369127, -0.026767746, -825565.94, 104150.94, 0.0, 10.000364, 9.999346 
1.1750687e+3, 2.15129e+2, -866817.06, -917378.0, 157761.17, 0.01691899, -0.14203393, -732323.6, 99404.48, 0.0, 10.000032, 9.999365 
1.1750679e+3, 2.2512805e+2, -820123.5, -977620.9, 104266.97, -0.009916852, -0.103299074, -768208.6, -34470.37, 0.0, 10.000245, 9.998185 
1.1750667e+3, 2.3512721e+2, -608466.94, -815911.6, 61184.03, -0.06649394, -0.046515454, -591765.8, 43984.523, 0.0, 10.000992, 9.998259 
1.1750659e+3, 2.4512628e+2, -489746.6, -693950.56, 10746.238, -0.074878715, 0.034233302, -489182.63, 48579.637, 0.0, 10.001054, 9.998395 
1.17506556e+3, 2.5512487e+2, -469223.13, -620817.94, 35375.82, -0.03629366, 0.0088989185, -461374.28, -21596.988, 0.0, 10.000476, 9.998497 
1.17506534e+3, 2.6512334e+2, -381885.5, -590855.94, 386.14722, 0.021684123, 0.04278281, -381884.78, -40092.54, 0.0000005132723, 10.000687, 9.997932 
1.1750648e+3, 2.751212e+2, -140132.53, -418132.16, 6958.4756, 0.067985594, -0.0086886985, -139958.47, 103853.44, 0.000009286575, 10.001653, 9.99798 
1.17506325e+3, 2.8511918e+2, -2327.1003, -299810.66, -25097.121, 0.019309785, -0.0008450077, -224.6475, 145605.67, 0.000051726838, 10.001895, 9.998006 
1.17506094e+3, 2.95117e+2, 41584.83, -213031.02, 6299.6924, -0.108165324, -0.07682629, 41740.598, 89590.55, 0.00018255804, 10.00145, 9.998138 
1.175061e+3, 3.0511454e+2, 32457.842, -277691.28, -28623.824, 0.03567876, -0.09070401, 35077.426, 35077.426, 0.00048000744, 10.001479, 9.997343 
1.1750612e+3, 3.1511346e+2, 160422.86, -25889.38, -23276.41, 0.16480216, 0.02355861, 163286.81, 163286.81, 0.0009690781, 10.001455, 9.999085 
1.1850779e+3, 1.2513138e+2, -1917130.4, -1716220.4, 44259.33, 0.005571387, -0.013690136, -1706902.5, 6807.785, 0.0020081834, 9.998114, 10.000873 
1.1850767e+3, 1.3513173e+2, -1772280.4, -1684432.3, -49814.813, 0.0984088, -0.025452225, -1661942.3, -46237.273, 0.0010574218, 9.99887, 10.000071 
1.1850733e+3, 1.4513208e+2, -1659799.8, -1620234.1, 14335.6875, -0.11532366, 0.030171292, -1615586.0, -97883.18, 0.00035351914, 9.999121, 9.999694 
1.1850729e+3, 1.5513201e+2, -1553900.6, -1514154.6, -8843.109, -0.0072197434, 0.007243492, -1512275.9, -92568.05, 0.00004562391, 9.999181, 9.999719 
1.18507236e+3, 1.6513245e+2, -1385850.1, -1265430.1, 64345.832, 0.03443403, 0.03707405, -1237517.4, 84185.875, 0.00000019883093, 9.999163, 10.000761 
1.1850723e+3, 1.7513305e+2, -1277204.1, -1151258.8, 18883.11, 0.039172426, -0.027830426, -1148488.6, 75204.03, 0.0, 9.999186, 10.000855 
1.1850719e+3, 1.8513349e+2, -1230315.3, -1215372.0, -13726.033, 0.06061594, 0.00005426598, -1207215.8, -81529.7, 0.0, 9.99941, 9.999646 
1.18507095e+3, 1.9513337e+2, -1068955.9, -1078698.3, -26045.07, 0.08313891, -0.017357264, -1047330.4, -19643.18, 0.0, 9.999814, 9.999716 
1.1850698e+3, 2.0513271e+2, -933543.44, -1010056.4, 18365.986, 0.057692263, -0.02655701, -929363.3, 329.12912, 0.0, 10.000278, 9.999294 
1.1850689e+3, 2.151311e+2, -751886.06, -861201.56, -13343.139, 0.0068387995, -0.15914926, -750280.94, 81424.164, 0.0, 10.000819, 9.999375 
1.1850683e+3, 2.2512999e+2, -760131.2, -968346.4, 13135.818, -0.013412155, -0.1302076, -759305.75, -25588.92, 0.0, 10.000745, 9.998003 
1.1850676e+3, 2.3512891e+2, -759183.25, -909465.56, 43988.785, -0.012787375, -0.080559485, -747254.25, -111522.46, 0.0, 10.000043, 9.998072 
1.1850673e+3, 2.4512775e+2, -592005.75, -748793.6, 93577.57, -0.0066561247, -0.010532768, -548324.4, -10578.536, 0.0, 10.000385, 9.998341 
1.185067e+3, 2.5512612e+2, -292911.06, -552371.8, 63761.434, 0.0056099924, -0.04610787, -278088.72, 161674.14, 0.0, 10.001751, 9.998366 
1.1850668e+3, 2.6512474e+2, -186060.77, -495143.9, 59402.074, 0.03778861, 0.008288712, -175037.53, 166739.44, 0.0000005059796, 10.002046, 9.997923 
1.1850662e+3, 2.751231e+2, -189489.9, -449709.5, 46992.37, 0.06387866, 0.010012032, -181263.73, 62529.08, 0.000009353779, 10.00135, 9.997908 
1.18506484e+3, 2.8512114e+2, -99119.17, -339969.22, 58987.56, 0.026983159, 0.030836996, -85448.266, 60362.45, 0.000051580555, 10.001234, 9.998031 
1.185063e+3, 2.951188e+2, 69455.35, -199435.72, 28847.332, -0.034514677, -0.0573865, 72515.34, 120347.39, 0.00018437536, 10.001667, 9.998116 
1.1850632e+3, 3.0511633e+2, 104780.63, -264207.9, 44914.31, 0.095948525, -0.06235161, 110169.04, 110169.04, 0.00048100852, 10.00204, 9.997176 
1.18506275e+3, 3.1511483e+2, 220983.88, -12322.9795, 22956.62, 0.17170356, 0.026022099, 223221.27, 223221.27, 0.0009626293, 10.001897, 9.99898 
1.19507596e+3, 1.2513235e+2, -1922952.0, -1728158.6, 42297.105, -0.100525014, 0.08149936, -1719370.8, -5666.7354, 0.0022081332, 9.998119, 10.000776 
1.1950756e+3, 1.3513148e+2, -1723819.8, -1585686.3, -9412.54, 0.05678797, -0.12072614, -1585047.9, 30660.707, 0.0011730703, 9.998868, 10.000747 
1.1950741e+3, 1.4513212e+2, -1636256.0, -1562845.6, -7305.4385, -0.009020597, -0.09089007, -1562125.8, -44424.152, 0.00040013902, 9.999089, 10.000101 
1.1950709e+3, 1.5513338e+2, -1525003.9, -1458043.9, 12007.976, -0.15452231, -0.021382935, -1455955.6, -36263.82, 0.00005450229, 9.999191, 10.0001 
1.1950703e+3, 1.6513391e+2, -1432085.0, -1362389.0, 42067.4, -0.1308341, 0.031204263, -1342610.6, -20923.938, 0.00000035173326, 9.999158, 10.000103 
1.1950725e+3, 1.7513345e+2, -1332753.1, -1256110.5, 37002.316, 0.09445002, -0.070722766, -1241161.9, -17472.697, 0.0, 9.999133, 10.000167 
1.19507276e+3, 1.8513341e+2, -1231102.0, -1196694.5, -19455.29, 0.17385432, -0.06402107, -1187927.6, -62239.125, 0.0, 9.999325, 9.999814 
1.1950713e+3, 1.9513345e+2, -1076914.1, -1066252.8, 6975.891, 0.11083009, -0.08539277, -1062804.0, -35115.957, 0.0, 9.999684, 9.999866 
1.1950701e+3, 2.0513332e+2, -987439.1, -1075910.9, 17265.584, 0.025527215, -0.02917768, -984189.06, -54499.508, 0.0, 10.000087, 9.998931 
1.1950692e+3, 2.1513267e+2, -814662.25, -932161.9, 25475.1, -0.07074111, -0.029878452, -809376.75, 22319.723, 0.0, 10.000566, 9.99901 
1.1950691e+3, 2.2513197e+2, -709274.8, -799401.2, -33853.285, -0.030287178, -0.0042614597, -697975.44, 35726.65, 0.0, 10.000474, 9.999291 
1.1950695e+3, 2.3513089e+2, -703729.3, -735642.9, 33370.125, 0.14137265, -0.08865312, -682697.1, -46987.1, 0.0, 9.999797, 9.999377 
1.19506896e+3, 2.4512964e+2, -649436.7, -811148.25, 124671.99, 0.09663805, -0.07603321, -581696.5, -43974.82, 0.0, 10.000142, 9.9980345 
1.1950674e+3, 2.5512788e+2, -347488.4, -604874.4, 135493.19, -0.16265182, -0.097966716, -289311.66, 150428.86, 0.0, 10.001499, 9.998122 
1.1950668e+3, 2.6512635e+2, -207087.47, -485604.16, 15560.131, -0.19718939, -0.05496522, -206220.86, 135535.25, 0.0000006389743, 10.001812, 9.998106 
1.195067e+3, 2.7512464e+2, -198160.63, -423987.6, 43549.254, -0.017863223, -0.07853479, -190053.48, 53718.79, 0.000009301616, 10.001169, 9.99817 
1.1950664e+3, 2.8512317e+2, -140391.61, -391139.9, 58870.945, 0.026806995, -0.013009051, -127257.76, 18529.207, 0.00005191434, 10.001079, 9.997759 
1.1950649e+3, 2.9512143e+2, 23472.158, -256429.0, 72273.125, -0.051159166, -0.018915797, 41032.117, 88837.18, 0.00018470343, 10.00149, 9.997814 
1.1950651e+3, 3.0511928e+2, 89124.13, -232002.7, 30279.748, 0.04866405, 0.012944871, 91954.336, 91954.336, 0.00047307427, 10.001783, 9.997508 
1.1950636e+3, 3.151174e+2, 187069.67, 6224.532, 68985.23, -0.0080640465, 0.017475877, 210380.14, 210380.14, 0.0009340255, 10.001538, 9.999265 
1.2050762e+3, 1.2513374e+2, -1811306.0, -1698615.3, 130406.945, 0.08946608, 0.1156566, -1612901.6, 100789.32, 0.0024257244, 9.999003, 10.000561 
1.205074e+3, 1.3513298e+2, -1755068.4, -1570200.8, 17326.615, 0.042236645, -0.09210127, -1568590.9, 47104.25, 0.0012988481, 9.998546, 10.0009985 
1.2050738e+3, 1.4513351e+2, -1688139.6, -1572278.8, 57768.2, 0.09301008, -0.09432773, -1548397.8, -30709.535, 0.00045139206, 9.998654, 10.00025 
1.2050707e+3, 1.5513474e+2, -1440778.5, -1397594.3, 8474.623, -0.116541624, -0.045936026, -1395990.8, 23685.629, 0.00006471426, 9.999679, 10.000279 
1.20506994e+3, 1.6513517e+2, -1360301.9, -1358920.9, 56390.875, -0.102748536, 0.003787734, -1303216.3, 18455.701, 0.00000057087306, 9.999799, 9.999808 
1.2050722e+3, 1.7513454e+2, -1335861.3, -1285074.0, 41100.27, 0.14969319, -0.08640864, -1262155.4, -38477.227, 0.0, 9.999249, 9.999904 
1.2050726e+3, 1.8513443e+2, -1208662.8, -1196705.3, 67266.64, 0.23134178, -0.06839073, -1135152.1, -9472.927, 0.0, 9.999545, 9.999693 
1.2050718e+3, 1.9513443e+2, -935166.5, -1003964.2, 35640.223, 0.14193557, -0.08480623, -920032.5, 107646.99, 0.0, 10.000706, 9.999783 
1.2050707e+3, 2.0513444e+2, -879135.8, -1018203.94, 55237.35, 0.056547042, -0.016067091, -859865.9, 69814.11, 0.0, 10.000772, 9.999003 
1.2050698e+3, 2.1513402e+2, -924876.2, -982104.8, 56227.258, -0.021524746, -0.0009771105, -890401.0, -58715.992, 0.0, 9.999749, 9.999075 
1.2050697e+3, 2.2513336e+2, -765680.06, -817007.4, 37010.285, 0.01975576, 0.02038858, -746306.1, -12615.987, 0.0, 10.000044, 9.999384 
1.2050705e+3, 2.3513214e+2, -428859.53, -596589.1, -21675.236, 0.18176824, -0.08174007, -426103.78, 209594.89, 0.0, 10.001652, 9.999449 
1.2050702e+3, 2.4513097e+2, -414353.5, -676854.94, 53592.574, 0.13968596, -0.074058525, -403833.56, 133875.2, 0.0, 10.001682, 9.998196 
1.2050686e+3, 2.551294e+2, -529311.06, -677404.94, 52490.24, -0.1187475, -0.0915681, -512593.6, -72869.01, 0.00000000020898414, 10.000194, 9.99824 
1.205068e+3, 2.6512772e+2, -431455.63, -593163.2, -3584.8975, -0.16494282, -0.070749395, -431376.2, -89635.32, 0.00000074892756, 10.000245, 9.99813 
1.20506845e+3, 2.7512562e+2, -116490.55, -383647.03, -28504.516, -0.00075878, -0.13837878, -113483.086, 130277.46, 0.000009032264, 10.0016985, 9.998196 
1.2050682e+3, 2.8512406e+2, 38312.566, -311467.44, 13665.813, 0.05656435, -0.08039655, 38845.67, 184621.66, 0.000052136886, 10.002331, 9.997712 
1.20506726e+3, 2.9512262e+2, 101246.9, -223803.61, -6035.1587, 0.008666941, -0.04688084, 101358.914, 149150.73, 0.0001849306, 10.002058, 9.9977665 
1.20506726e+3, 3.0512083e+2, 147153.28, -184361.0, -4362.8853, 0.09549795, 0.01430315, 147210.69, 147210.69, 0.0004665325, 10.002095, 9.997685 
1.2050654e+3, 3.1511867e+2, 244528.05, 47924.688, -59359.086, 0.019743625, -0.02286942, 261059.83, 261059.83, 0.00090609305, 10.001899, 9.999372 
1.2150751e+3, 1.2513497e+2, -1816934.0, -1691205.4, -55126.89, 0.0026740264, 0.02661238, -1670458.1, 43218.758, 0.0026624324, 9.998944, 10.000631 
1.2150717e+3, 1.351363e+2, -1774149.1, -1608464.9, 9054.648, -0.07887018, 0.057345554, -1607971.5, 7692.264, 0.0014356553, 9.9985485, 10.000734 
1.2150724e+3, 1.4513633e+2, -1685956.6, -1569428.8, 71256.82, 0.02970797, 0.013892817, -1535648.0, -17985.863, 0.0005075534, 9.998667, 10.000259 
1.2150714e+3, 1.5513611e+2, -1448653.8, -1409739.6, 68109.03, -0.04789154, -0.077751264, -1358362.9, 61298.387, 0.000076397075, 9.999659, 10.000209 
1.2150707e+3, 1.6513622e+2, -1359731.3, -1351529.9, 14678.811, -0.053952422, -0.06027033, -1340389.8, -18730.3, 0.0000008702971, 9.999776, 9.999865 
1.2150708e+3, 1.7513631e+2, -1343201.6, -1284265.3, 39122.258, 0.05930479, -0.08248855, -1264754.6, -41094.848, 0.0, 9.999182, 9.999941 
1.21507116e+3, 1.8513647e+2, -1243996.3, -1246506.1, 91045.13, 0.082814984, -0.025096143, -1154197.4, -28538.2, 0.0, 9.999449, 9.999398 
1.2150717e+3, 1.9513631e+2, -979873.3, -1061302.3, 98160.336, 0.02150067, -0.025980566, -914318.7, 113342.96, 0.0, 10.000555, 9.999462 
1.2150713e+3, 2.0513599e+2, -875440.6, -961301.94, -4893.287, -0.0038176724, 0.0044784974, -875162.6, 54501.668, 0.0, 10.000564, 9.999492 
1.21507004e+3, 2.1513528e+2, -928774.0, -925031.4, 34968.4, -0.0008647539, -0.065324344, -891884.25, -60214.332, 0.0, 9.999472, 9.999596 
1.2150697e+3, 2.2513433e+2, -880593.4, -996844.1, 76060.35, -0.009673097, -0.043782618, -842991.3, -109312.086, 0.0, 9.999784, 9.998279 
1.2150703e+3, 2.3513283e+2, -539264.44, -767193.9, 58172.29, -0.027719054, -0.06496181, -525276.1, 110419.7, 0.0, 10.001398, 9.998398 
1.2150704e+3, 2.4513176e+2, -425618.56, -631989.1, -17892.88, -0.030910388, -0.016621593, -424078.7, 113627.586, 0.0, 10.00139, 9.998641 
1.2150702e+3, 2.5513074e+2, -529022.0, -627552.1, 16722.023, -0.014904804, -0.028704217, -526261.4, -86546.65, 0.00000000018849695, 9.999982, 9.998679 
1.21507004e+3, 2.6512894e+2, -471386.94, -628291.75, 32990.92, -0.016737066, -0.03205454, -464732.47, -123002.04, 0.00000061447383, 10.000034, 9.997994 
1.2150702e+3, 2.7512598e+2, -150155.02, -412006.1, 48978.87, -0.04331132, -0.17156722, -141293.47, 102463.76, 0.000008322687, 10.001509, 9.998098 
1.2150698e+3, 2.851239e+2, -1625.2432, -324162.44, -12692.131, -0.052979767, -0.16505393, -1126.5673, 144650.31, 0.000050710027, 10.002049, 9.997751 
1.2150694e+3, 2.951224e+2, 76614.64, -225395.22, 13477.224, -0.03238478, -0.14401242, 77214.875, 125007.11, 0.00018357177, 10.001856, 9.997845 
1.2150696e+3, 3.051209e+2, 110756.516, -215506.67, -24203.686, 0.085518815, -0.05423955, 112542.28, 112542.28, 0.00046227945, 10.001906, 9.997567 
1.2150673e+3, 3.151184e+2, 187054.36, 12507.542, -22357.04, -0.058321916, -0.11076231, 189872.48, 189872.48, 0.0008888424, 10.001548, 9.999296 
1.2250736e+3, 1.2513599e+2, -2078609.0, -1817531.6, -23735.193, 0.075026646, -0.07183804, -1815391.3, -101727.734, 0.0029179724, 9.997123, 10.000645 
1.2250714e+3, 1.3513803e+2, -1710136.8, -1620958.6, 4843.7007, 0.025815621, 0.06468511, -1620696.4, -5050.88, 0.0015834377, 9.999161, 10.000359 
1.2250718e+3, 1.4513789e+2, -1544596.1, -1509882.5, 82660.84, 0.06597853, 0.03006254, -1442775.9, 74870.28, 0.00056846405, 9.999696, 10.000165 
1.2250713e+3, 1.5513733e+2, -1523068.0, -1442184.1, 24817.12, 0.016286487, -0.09234627, -1435176.8, -15528.154, 0.00008951281, 9.999171, 10.0002 
1.2250706e+3, 1.6513743e+2, -1456446.3, -1420103.4, 4716.5205, 0.004749168, -0.068306565, -1419501.3, -97853.99, 0.0000012652538, 9.999163, 9.99972 
1.2250702e+3, 1.7513777e+2, -1272044.0, -1261892.1, -20431.416, 0.06331837, -0.051493883, -1245915.5, -22269.482, 0.0, 9.999695, 9.999864 
1.2250703e+3, 1.8513799e+2, -1169179.3, -1199575.9, 98902.47, 0.050445396, 0.007524878, -1084314.1, 41330.793, 0.0, 9.999882, 9.99953 
1.225071e+3, 1.9513763e+2, -1084380.4, -1100669.3, 98342.46, -0.036788102, -0.021857122, -993845.7, 33802.652, 0.0, 9.999764, 9.999593 
1.225071e+3, 2.0513734e+2, -975060.7, -986929.6, 8032.9746, -0.026965436, -0.0058235275, -971007.8, -41357.36, 0.0, 9.999811, 9.999666 
1.2250704e+3, 2.1513677e+2, -838675.44, -860812.6, -16052.146, 0.06765804, -0.07617943, -830245.7, 1408.763, 0.0, 10.000033, 9.999752 
1.2250703e+3, 2.2513594e+2, -821017.6, -969963.2, 137069.1, 0.059836946, -0.05176875, -739496.4, -5833.5522, 0.0, 10.000186, 9.998269 
1.2250708e+3, 2.3513445e+2, -710261.7, -856219.06, 153113.56, -0.055108625, -0.07002257, -613624.2, 22055.201, 0.0, 10.000232, 9.998357 
1.2250714e+3, 2.4513328e+2, -526076.6, -711119.44, 91541.6, -0.037965592, -0.016055124, -488444.0, 49247.5, 0.0, 10.000811, 9.998394 
1.22507215e+3, 2.551321e+2, -263518.13, -526127.7, 40298.547, 0.10561246, -0.016731393, -257473.3, 182229.39, 0.0, 10.001909, 9.99846 
1.2250725e+3, 2.651303e+2, -146660.11, -465919.7, 102423.664, 0.12668182, -0.010519913, -116626.31, 225092.52, 0.0000003685213, 10.002276, 9.998009 
1.2250724e+3, 2.751275e+2, -93019.2, -379886.22, 79100.6, 0.013642405, -0.13480045, -72653.81, 171089.97, 0.0000073761885, 10.001937, 9.998088 
1.2250718e+3, 2.8512537e+2, -7380.5728, -307793.6, 41398.33, -0.03736507, -0.14556299, -1780.0956, 143983.19, 0.000049087277, 10.001882, 9.9979515 
1.2250714e+3, 2.951236e+2, 96844.086, -201394.03, 41600.94, -0.002268916, -0.16948612, 102538.24, 150318.22, 0.00018153466, 10.001898, 9.998003 
1.2250719e+3, 3.0512232e+2, 137674.8, -213150.72, 58731.742, 0.1236211, -0.059941325, 147245.97, 147245.97, 0.00045750884, 10.002144, 9.997451 
1.22507006e+3, 3.1512e+2, 257386.61, -1850.1902, -28930.658, 0.052221835, -0.08957885, 260576.02, 260576.02, 0.0008772591, 10.002187, 9.998891 
1.2350713e+3, 1.251373e+2, -2070432.4, -1827931.1, 42919.848, 0.036030285, -0.14285758, -1820558.9, -106912.875, 0.0031899144, 9.997219, 10.000532 
1.2350724e+3, 1.3513817e+2, -1740453.6, -1692239.3, 88725.46, 0.16403161, -0.08052987, -1624404.3, -8764.444, 0.0017411282, 9.999177, 9.999864 
1.2350714e+3, 1.4513819e+2, -1557631.1, -1547165.0, 36367.5, -0.0038434346, -0.062426306, -1515656.0, 1984.7024, 0.0006337289, 9.999726, 9.999904 
1.2350701e+3, 1.5513827e+2, -1534465.5, -1476085.3, 17875.14, -0.07098807, -0.091438785, -1471047.0, -51407.527, 0.00010392506, 9.999195, 9.9999695 
1.2350693e+3, 1.6513866e+2, -1462336.0, -1435244.8, -3223.663, -0.07641197, -0.02366344, -1434866.4, -113229.38, 0.0000017603737, 9.999172, 9.999609 
1.2350697e+3, 1.751389e+2, -1283464.8, -1284357.6, 14738.867, 0.0026027407, -0.006121297, -1269165.6, -45528.297, 0.0, 9.999677, 9.999721 
1.23506986e+3, 1.8513896e+2, -1143800.9, -1130641.1, 75094.66, -0.033027533, 0.018717747, -1061838.6, 63798.285, 0.0, 9.999809, 10.000039 
1.2350697e+3, 1.9513853e+2, -1067176.8, -1031898.4, 112657.15, -0.18762529, -0.07309447, -935507.9, 92130.8, 0.0, 9.999619, 10.000134 
1.23506986e+3, 2.0513853e+2, -1017135.44, -1023955.56, -6101.48, -0.15965414, -0.04645921, -1013555.75, -83917.984, 0.0, 9.999595, 9.999517 
1.2350705e+3, 2.1513857e+2, -884051.56, -900568.7, 11149.511, 0.04460273, -0.04097344, -878435.1, -46796.82, 0.0, 9.999796, 9.999595 
1.23507105e+3, 2.2513817e+2, -786450.8, -845275.0, 121572.305, 0.078374155, -0.012292333, -690783.4, 42857.598, 0.0, 9.999951, 9.999244 
1.2350713e+3, 2.3513706e+2, -678734.94, -737174.3, 176837.72, -0.05096748, -0.092620805, -528719.1, 106929.92, 0.0, 9.999994, 9.999293 
1.2350724e+3, 2.4513562e+2, -626207.4, -857031.5, 115817.875, -0.04880915, -0.06654372, -578114.94, -40451.117, 0.0, 10.0005455, 9.997519 
1.23507425e+3, 2.5513357e+2, -356320.97, -664493.94, 103615.336, 0.08991728, -0.06951928, -324722.84, 114965.266, 0.0, 10.00167, 9.997628 
1.2350749e+3, 2.651318e+2, -188079.08, -486513.34, 73932.98, 0.1080166, -0.019142274, -170767.4, 170938.89, 0.00000016286783, 10.001999, 9.998 
1.23507455e+3, 2.7512994e+2, -126188.87, -399761.3, 91237.24, 0.01432491, -0.048155926, -98552.75, 145170.02, 0.000006622681, 10.001727, 9.998051 
1.2350739e+3, 2.8512815e+2, -10841.517, -259292.1, 28780.922, -0.056906052, -0.039983127, -7551.0664, 138187.08, 0.000048750662, 10.00165, 9.998396 
1.23507276e+3, 2.9512614e+2, 99017.86, -149013.28, 70189.11, -0.09533411, -0.13565181, 117502.72, 165258.61, 0.00018217463, 10.001687, 9.9984665 
1.23507336e+3, 3.0512506e+2, 89117.01, -263167.53, 53302.645, 0.023299204, -0.016353227, 97005.36, 97005.36, 0.00045752534, 10.001929, 9.997212 
1.235073e+3, 3.1512338e+2, 157443.98, -127699.68, 18280.85, 0.03338637, 0.03848709, 158611.2, 158611.2, 0.00087459444, 10.00185, 9.998183 
1.245069e+3, 1.2513807e+2, -1747547.4, -1649470.1, 28558.4, -0.0076064533, -0.09060187, -1641760.5, 71878.74, 0.003475539, 9.999372, 10.000706 
1.2450711e+3, 1.3513815e+2, -1864358.8, -1743110.3, -3993.0251, 0.17676646, -0.11738839, -1742978.9, -127339.02, 0.0019075654, 9.998285, 9.999953 
1.2450701e+3, 1.4513835e+2, -1776897.8, -1634048.8, 26184.75, -0.0088482825, -0.091973774, -1629400.3, -111761.555, 0.0007030745, 9.998145, 10.000065 
1.24506906e+3, 1.5513895e+2, -1509858.6, -1453947.1, -5948.097, -0.08496679, -0.085021615, -1453321.3, -33688.207, 0.00011956255, 9.999301, 10.000075 
1.24506876e+3, 1.6513953e+2, -1384092.3, -1390438.8, 26273.875, -0.069606796, -0.00628005, -1360800.8, -39171.57, 0.0000023468863, 9.999704, 9.999642 
1.2450697e+3, 1.7513976e+2, -1302240.3, -1288195.9, 11146.108, 0.051776104, 0.0073370617, -1282044.4, -58414.793, 0.0, 9.99955, 9.9997425 
1.2450698e+3, 1.8513982e+2, -1222865.0, -1149725.4, 78631.78, 0.02736881, 0.02458406, -1099575.4, 26053.514, 0.0, 9.999201, 10.000188 
1.24506906e+3, 1.9513935e+2, -1191691.0, -1078329.4, 52180.48, -0.15177187, -0.08760618, -1057967.9, -30336.674, 0.0, 9.998706, 10.000249 
1.24506935e+3, 2.051395e+2, -1087019.4, -1054864.8, 3267.349, -0.13551854, -0.054814994, -1054536.1, -124906.93, 0.0, 9.999102, 9.999541 
1.2450707e+3, 2.1513987e+2, -812080.75, -859039.2, -6338.4463, 0.07391248, -0.018305331, -811240.25, 20386.373, 0.0, 10.000263, 9.999652 
1.2450718e+3, 2.2513959e+2, -649970.2, -763894.2, 90581.6, 0.11879917, 0.011712743, -599928.94, 133699.02, 0.0, 10.000857, 9.999348 
1.24507226e+3, 2.3513831e+2, -538939.06, -650637.2, 40936.73, 0.003397368, -0.09509725, -525542.6, 110094.1, 0.0, 10.00091, 9.999424 
1.2450736e+3, 2.4513696e+2, -523998.13, -793507.44, 54700.617, -0.006597718, -0.07214955, -513319.03, 24331.28, 0.0, 10.001192, 9.997635 
1.2450757e+3, 2.551353e+2, -349517.75, -641412.9, 75285.48, 0.08290742, -0.050701585, -331244.13, 108427.02, 0.0, 10.001656, 9.997774 
1.2450768e+3, 2.651337e+2, -207772.27, -505617.72, 79848.836, 0.10888711, 0.010361788, -187716.25, 153971.77, 0.000000050542315, 10.0018635, 9.9979515 
1.2450769e+3, 2.7513176e+2, -127281.56, -410118.2, 59652.21, 0.0796117, -0.017441606, -115215.266, 128489.89, 0.0000061370592, 10.0017185, 9.998008 
1.2450761e+3, 2.8513002e+2, -1458.4902, -252603.48, 35157.05, 0.01985868, -0.0029505652, 3370.2026, 149090.92, 0.000049451548, 10.001727, 9.998399 
1.2450747e+3, 2.951281e+2, 128743.22, -126089.61, -3979.8086, -0.06402509, -0.089166075, 128805.36, 176543.77, 0.00018750013, 10.001887, 9.998514 
1.2450755e+3, 3.0512694e+2, 213329.9, -146650.16, 54322.953, 0.02553931, -0.011545742, 221348.89, 221348.89, 0.000470274, 10.002514, 9.997748 
1.2450761e+3, 3.1512567e+2, 392351.63, 2057.9063, -1288.9269, 0.115376905, 0.04035413, 392355.88, 392355.88, 0.0008945071, 10.003393, 9.998346 
1.2550686e+3, 1.2513778e+2, -1709394.8, -1584033.0, -5856.9063, -0.07895025, 0.023794895, -1583759.9, 129888.24, 0.0037739007, 9.999418, 10.001139 
1.2550673e+3, 1.3513823e+2, -1805768.4, -1630098.8, -31199.56, -0.064773075, -0.041236643, -1624722.1, -9079.205, 0.0020822603, 9.9983225, 10.000712 
1.2550679e+3, 1.4513865e+2, -1730625.1, -1548890.9, 47706.605, -0.10914709, -0.05905423, -1537128.8, -19491.055, 0.0007764397, 9.998185, 10.000629 
1.2550677e+3, 1.5513955e+2, -1469711.9, -1371090.8, 55616.477, -0.19418573, -0.0810216, -1346072.9, 73554.89, 0.00013646827, 9.999301, 10.000643 
1.2550682e+3, 1.651402e+2, -1384724.6, -1392329.3, -3118.3152, -0.13191682, -0.021598654, -1383609.5, -61987.523, 0.0000030208696, 9.999699, 9.999638 
1.2550698e+3, 1.7514047e+2, -1303278.6, -1285904.1, 21740.906, 0.07709833, -0.0059958086, -1271179.1, -47557.832, 0.0, 9.999524, 9.999772 
1.2550701e+3, 1.8514057e+2, -1243735.9, -1179309.5, 38610.004, 0.09073509, 0.021101909, -1161239.3, -35618.027, 0.0, 9.999136, 10.000021 
1.2550688e+3, 1.9514005e+2, -1216658.4, -1108253.9, 51920.043, -0.080013454, -0.07906908, -1087398.9, -59772.51, 0.0, 9.998606, 10.000093 
1.2550691e+3, 2.0514019e+2, -1103196.4, -1042983.1, 26143.441, -0.106342375, -0.046889655, -1033216.3, -103591.68, 0.0, 9.998907, 9.999721 
1.2550706e+3, 2.1514072e+2, -838021.6, -854464.5, 55339.16, 0.0013237533, -0.011215298, -790296.5, 41322.367, 0.0, 10.00001, 9.999811 
1.2550719e+3, 2.2514011e+2, -746589.8, -894728.06, 72519.71, 0.020472039, 0.018219007, -716999.2, 16625.047, 0.0, 10.000565, 9.998586 
1.255073e+3, 2.3513809e+2, -626488.44, -775329.25, 62709.367, -0.037982307, -0.08848198, -603590.5, 32053.055, 0.0, 10.000665, 9.998684 
1.2550744e+3, 2.4513726e+2, -484727.25, -650411.44, 52713.29, -0.06581155, -0.03695514, -469378.2, 68273.62, 0.0, 10.000926, 9.998746 
1.2550762e+3, 2.5513718e+2, -312960.97, -510352.8, 110306.29, -0.06483361, 0.033291973, -263642.16, 176011.14, 0.0, 10.00141, 9.9987955 
1.2550776e+3, 2.6513582e+2, -246283.89, -525561.06, 53134.996, -0.027369164, 0.0730645, -236516.11, 105149.67, 0.00000007625481, 10.00161, 9.997935 
1.2550785e+3, 2.75133e+2, -158686.86, -424383.97, 76357.914, 0.044497963, -0.04404823, -138305.94, 105385.73, 0.0000061507535, 10.0015, 9.998016 
1.2550783e+3, 2.8513107e+2, -66605.0, -341168.53, 24759.652, 0.021054177, -0.025686132, -64390.082, 81320.69, 0.000051588533, 10.001527, 9.997883 
1.255077e+3, 2.9512945e+2, 67794.98, -213075.84, 26114.1, -0.076608814, -0.034051206, 70202.31, 117930.46, 0.00020006, 10.001718, 9.997993 
1.2550777e+3, 3.051277e+2, 278946.88, 22335.883, 71927.85, -0.03055878, -0.04830723, 297732.9, 297732.9, 0.0005036429, 10.00237, 9.998977 
1.2550786e+3, 3.1512687e+2, 403837.53, 104296.96, 78300.39, -0.06009656, -0.088367805, 423070.47, 423070.47, 0.0009532298, 10.003052, 9.999215 
1.2650679e+3, 1.2513691e+2, -2012740.0, -1712412.4, 61650.906, 0.038801197, 0.016415598, -1700249.4, 13410.37, 0.004085261, 9.997273, 10.0013075 
1.2650652e+3, 1.3513847e+2, -1767315.3, -1553061.9, -30564.766, -0.09847144, 0.028380798, -1548786.9, 66856.89, 0.0022650692, 9.99837, 10.00121 
1.265067e+3, 1.4513932e+2, -1650420.0, -1473370.4, 88279.336, -0.020919535, 0.010418175, -1436875.6, 80758.03, 0.00085386867, 9.998578, 10.00096 
1.2650669e+3, 1.5514019e+2, -1588997.6, -1391476.5, 32276.342, -0.14896818, -0.04395785, -1386336.1, 33286.79, 0.00015477135, 9.998339, 10.000965 
1.2650676e+3, 1.6514072e+2, -1550417.4, -1435842.3, 11581.383, -0.09489612, -0.027568024, -1434683.4, -113066.62, 0.0000038088367, 9.99843, 9.999937 
1.2650694e+3, 1.7514068e+2, -1351819.4, -1279650.0, 16295.868, 0.098544516, -0.070008576, -1276141.0, -52523.99, 0.0, 9.999076, 10.00003 
1.2650695e+3, 1.85141e+2, -1218810.4, -1196395.1, 58976.81, 0.13110138, -0.022567596, -1147570.4, -21955.023, 0.0, 9.999429, 9.999767 
1.2650688e+3, 1.951412e+2, -1108756.1, -1083670.9, 25542.068, 0.0066580204, -0.021456316, -1067758.0, -40141.844, 0.0, 9.999481, 9.999841 
1.2650692e+3, 2.0514126e+2, -960238.75, -1001471.56, 66606.555, -0.023184126, 0.028203147, -911130.9, 18485.295, 0.0, 9.999997, 9.999478 
1.2650712e+3, 2.1514088e+2, -722908.0, -827142.5, 23226.05, 0.026397817, -0.0053447783, -717966.94, 113651.86, 0.0, 10.000909, 9.999563 
1.2650728e+3, 2.2513996e+2, -680361.06, -883160.5, 42103.63, 0.0340626, 0.012167747, -671967.25, 61660.3, 0.0, 10.001089, 9.998423 
1.265074e+3, 2.3513824e+2, -652157.2, -804945.5, 39702.094, 0.008294064, -0.045897163, -642456.5, -6811.4287, 0.0, 10.000551, 9.998546 
1.2650757e+3, 2.4513742e+2, -504340.84, -620986.8, 85956.766, -0.013437949, -0.004852196, -458788.25, 78864.22, 0.0, 10.000601, 9.999122 
1.2650777e+3, 2.5513706e+2, -313401.88, -473058.22, 56042.77, -0.028687932, 0.0052440073, -295693.75, 143960.23, 0.0, 10.001217, 9.999166 
1.2650794e+3, 2.651358e+2, -215429.22, -476413.34, 8219.921, -0.003967126, 0.018909222, -215170.58, 126493.82, 0.00000015326442, 10.00169, 9.998226 
1.2650803e+3, 2.7513334e+2, -64134.184, -340584.22, 4865.1694, 0.04863633, -0.09260736, -64048.586, 179637.78, 0.0000068361555, 10.002004, 9.998334 
1.2650801e+3, 2.851316e+2, -10156.937, -342261.2, 9430.99, 0.030938163, -0.0578358, -9889.334, 135814.27, 0.000055437977, 10.002015, 9.997653 
1.2650791e+3, 2.951301e+2, 77960.086, -238576.11, -7232.191, -0.028221956, -0.025564618, 78125.234, 125845.97, 0.00021969865, 10.001891, 9.997751 
1.2650803e+3, 3.0512753e+2, 273510.44, 10608.708, 65141.82, -0.0095116645, -0.10533956, 288766.03, 288766.03, 0.00055763865, 10.002395, 9.998874 
1.2650819e+3, 3.1512657e+2, 406820.13, 99742.42, -111056.3, -0.01991203, -0.14248945, 442774.5, 442774.5, 0.001054668, 10.003124, 9.999139 
1.2750636e+3, 1.2513664e+2, -1992395.9, -1692894.5, -89108.75, -0.20450996, -0.0015251656, -1668387.9, 45275.02, 0.0044096503, 9.997365, 10.001393 
1.2750639e+3, 1.3513896e+2, -1764622.5, -1547062.9, 20304.852, -0.096869744, 0.08020166, -1545184.1, 70457.39, 0.0024558255, 9.99836, 10.001257 
1.2750667e+3, 1.4514042e+2, -1638987.8, -1461910.9, 56795.316, 0.046014614, 0.11462425, -1445260.1, 72366.04, 0.00093550276, 9.998622, 10.00102 
1.2750661e+3, 1.5514106e+2, -1579566.4, -1381697.5, 42345.35, -0.09338547, 0.028523603, -1373016.1, 46600.723, 0.00017466526, 9.998373, 10.001017 
1.2750663e+3, 1.6514108e+2, -1502920.4, -1353073.4, 13743.345, -0.11273289, -0.034167755, -1351823.4, -30209.889, 0.0000047674703, 9.998486, 10.0004835 
1.2750675e+3, 1.7514034e+2, -1313635.6, -1202650.1, 58204.293, -0.026347235, -0.20503022, -1177724.0, 45893.508, 0.0, 9.999073, 10.000564 
1.2750679e+3, 1.8514106e+2, -1263071.6, -1264771.0, 41901.547, -0.008999351, -0.12008773, -1222011.1, -96399.25, 0.0, 9.999333, 9.999339 
1.2750679e+3, 1.951428e+2, -1153973.9, -1152155.6, 47128.37, -0.045430463, 0.07550288, -1105927.6, -78327.22, 0.0, 9.999371, 9.999421 
1.2750693e+3, 2.0514268e+2, -1034260.6, -1110913.8, 80801.836, -0.042308293, 0.15793367, -983156.44, -53552.2, 0.0, 9.999809, 9.998818 
1.2750721e+3, 2.1514042e+2, -807936.8, -940893.56, 74107.42, 0.00019609135, 0.004042855, -774859.75, 56766.086, 0.0, 10.000641, 9.998912 
1.2750739e+3, 2.2513923e+2, -689408.5, -836730.5, 2952.2048, 0.00992379, 0.0038295332, -689349.4, 44287.684, 0.0, 10.000812, 9.998875 
1.2750746e+3, 2.351387e+2, -661318.0, -763176.5, 40072.207, -0.012574757, 0.019178385, -647443.2, -11801.08, 0.0, 10.00029, 9.998959 
1.2750767e+3, 2.451374e+2, -568566.06, -692319.6, 91913.91, -0.008169391, 0.01318205, -519641.66, 18011.47, 0.0, 10.00034, 9.998753 
1.2750798e+3, 2.5513512e+2, -370230.8, -532058.06, 100335.055, 0.026404727, -0.13885236, -322248.6, 117423.52, 0.0, 10.000968, 9.998876 
1.2750815e+3, 2.651338e+2, -217122.69, -422639.78, 3262.3008, 0.012041411, -0.14469387, -217070.9, 124611.125, 0.00000020123079, 10.001444, 9.9987135 
1.2750815e+3, 2.7513278e+2, -65561.0, -292637.63, 39114.344, -0.057740714, -0.16398343, -59012.344, 184676.61, 0.0000077157165, 10.001785, 9.998768 
1.2750812e+3, 2.8513163e+2, -35528.74, -353315.34, -15575.982, -0.09967056, -0.09146165, -34767.12, 110932.414, 0.000060411407, 10.001834, 9.997661 
1.2750806e+3, 2.9513016e+2, 43165.445, -251952.58, 16382.932, -0.10802262, -0.061942983, 44072.13, 91787.34, 0.00024271311, 10.001643, 9.997775 
1.2750822e+3, 3.0512643e+2, 125440.375, -248712.4, 81906.766, -0.080308646, -0.16969627, 142585.17, 142585.17, 0.0006225909, 10.002191, 9.997189 
1.2750854e+3, 3.151253e+2, 259561.97, -105446.01, -28903.975, -0.052840058, -0.06465278, 261836.63, 261836.63, 0.0011840137, 10.002719, 9.997911 
1.2850618e+3, 1.2513691e+2, -1965361.1, -1710716.5, -8462.373, -0.11191556, -0.030134656, -1710435.6, 3221.8777, 0.0047468157, 9.997637, 10.001142 
1.2850626e+3, 1.3513881e+2, -1838443.4, -1622663.8, 45941.594, -0.02039488, 0.038970046, -1613289.6, 2351.3435, 0.0026545508, 9.997989, 10.000914 
1.2850651e+3, 1.4514008e+2, -1740623.4, -1524686.8, 80878.78, 0.06320141, 0.07645359, -1497753.1, 19875.416, 0.0010215283, 9.998016, 10.0008745 
1.2850659e+3, 1.5514086e+2, -1566249.6, -1383901.9, 10332.291, 0.030670544, 0.021713799, -1383318.4, 36300.715, 0.00019628371, 9.99852, 10.000924 
1.285066e+3, 1.6514109e+2, -1432188.6, -1322370.8, 8646.823, -0.004238399, -0.015495142, -1321694.0, -79.548836, 0.0000059623408, 9.998963, 10.000481 
1.2850662e+3, 1.7514068e+2, -1268324.5, -1178454.3, -27309.65, -0.077358894, -0.15069115, -1170806.4, 52809.438, 0.0, 9.999368, 10.000591 
1.2850668e+3, 1.8514124e+2, -1194873.9, -1231679.5, -15117.143, -0.07832145, -0.0812555, -1189460.9, -63849.453, 0.0, 9.999825, 9.999318 
1.2850682e+3, 1.9514231e+2, -990142.0, -1073777.6, -20907.158, -0.012010976, 0.04908868, -985206.9, 42398.93, 0.0, 10.000521, 9.999398 
1.28507e+3, 2.0514207e+2, -909412.5, -1035480.6, 84893.15, 0.018480014, 0.11604207, -866710.4, 62899.184, 0.0, 10.000601, 9.998959 
1.2850726e+3, 2.1514022e+2, -878930.2, -954295.5, 102680.89, 0.012874704, -0.010980292, -807235.75, 24389.955, 0.0, 10.000075, 9.99909 
1.2850747e+3, 2.2513923e+2, -766819.56, -885346.94, 79059.21, 0.03972023, 0.0029980692, -727277.7, 6357.615, 0.0, 10.000325, 9.998773 
1.2850764e+3, 2.3513868e+2, -520091.66, -704344.9, 35549.32, 0.095844306, 0.027253862, -513470.78, 122171.31, 0.0, 10.001304, 9.998868 
1.2850787e+3, 2.4513732e+2, -391113.78, -623672.56, 114002.81, 0.10274053, 0.025233185, -344551.1, 193103.53, 0.0, 10.00164, 9.99859 
1.2850814e+3, 2.5513488e+2, -332271.25, -531053.44, 92558.945, 0.066426545, -0.12543447, -295847.22, 143827.94, 0.0, 10.001311, 9.998712 
1.285083e+3, 2.6513338e+2, -232919.45, -420271.47, 28903.777, 0.037075736, -0.14231683, -228561.69, 113124.66, 0.00000014147287, 10.001289, 9.998805 
1.2850839e+3, 2.7513233e+2, -72357.484, -286087.63, -6419.883, 0.014278694, -0.17186879, -72164.82, 171528.64, 0.000007879153, 10.001694, 9.998858 
1.2850837e+3, 2.8513125e+2, 36906.074, -335788.13, -40110.72, -0.038334288, -0.08707751, 41174.063, 186877.33, 0.00006527563, 10.002418, 9.9974985 
1.2850828e+3, 2.9512984e+2, 276695.66, -155190.13, -73117.68, -0.115359046, -0.036233895, 288738.56, 336457.03, 0.000269289, 10.003321, 9.997629 
1.2850846e+3, 3.0512545e+2, 270681.38, -261909.64, 56772.87, -0.11172363, -0.16565602, 276665.97, 276665.97, 0.0006978728, 10.003508, 9.996486 
1.2850893e+3, 3.1512368e+2, 275378.13, -121196.016, -51629.867, 0.07247002, -0.051724162, 281989.56, 281989.56, 0.0013327466, 10.0028515, 9.997765 
1.29506e+3, 1.2513728e+2, -2011001.5, -1795054.1, 29774.389, -0.12964372, -0.1365109, -1791024.1, -77376.305, 0.0050962004, 9.997614, 10.000573 
1.2950614e+3, 1.3513829e+2, -1896332.4, -1730769.5, 68263.15, 0.012345413, -0.08510234, -1706254.0, -90614.6, 0.0028611089, 9.9979515, 10.000191 
1.2950617e+3, 1.4513841e+2, -1771652.1, -1587462.0, 71181.83, -0.12911527, -0.09806408, -1563159.6, -45519.945, 0.00111182, 9.998014, 10.000442 
1.2950651e+3, 1.5513973e+2, -1599770.8, -1447099.0, 49902.46, 0.07031857, -0.06049099, -1432235.0, -12606.304, 0.000219555, 9.998496, 10.000504 
1.295066e+3, 1.6514088e+2, -1463939.4, -1390117.0, 753.2254, 0.056385152, 0.038363975, -1390109.4, -68490.55, 0.0000074533, 9.998961, 10.000015 
1.2950645e+3, 1.7514183e+2, -1305983.0, -1253091.0, 4898.568, -0.20631273, 0.085697904, -1252641.1, -29030.459, 0.0, 9.999345, 10.000092 
1.2950654e+3, 1.8514162e+2, -1181684.4, -1196258.0, -9505.886, -0.24258994, 0.089775465, -1176993.8, -51380.39, 0.0, 9.999784, 9.999581 
1.2950689e+3, 1.9513983e+2, -986697.4, -1042671.3, 21223.855, -0.037347503, -0.09417463, -979559.94, 48071.23, 0.0, 10.000408, 9.999666 
1.295071e+3, 2.051395e+2, -871820.5, -910837.25, 44161.695, 0.009735857, -0.09774181, -843050.2, 86581.77, 0.0, 10.000404, 9.999904 
1.2950718e+3, 2.1514022e+2, -848360.1, -834738.25, 99804.945, -0.091977015, -0.06424408, -741512.1, 90107.36, 0.0, 9.999836, 10.000022 
1.2950745e+3, 2.2513987e+2, -854284.4, -1001393.4, 96140.6, -0.03591804, 0.0020285172, -806788.1, -73164.914, 0.0, 10.000044, 9.998112 
1.2950787e+3, 2.3513822e+2, -604678.25, -815357.5, 92592.01, 0.17465846, -0.020463184, -569769.1, 65875.78, 0.0, 10.001025, 9.998239 
1.2950812e+3, 2.4513717e+2, -438973.22, -646487.9, 82395.53, 0.16080374, 0.040968325, -410236.75, 127420.06, 0.0, 10.001326, 9.99858 
1.2950817e+3, 2.5513622e+2, -377145.72, -552741.25, 100792.28, -0.06005391, 0.04037446, -331274.0, 108389.945, 0.0, 10.001024, 9.998692 
1.2950835e+3, 2.6513457e+2, -288207.44, -492975.5, 23329.191, -0.07791682, 0.03039651, -285583.2, 56094.344, 0.000000052302592, 10.001089, 9.998411 
1.2950867e+3, 2.7513215e+2, -131223.44, -354233.2, 30393.979, 0.09620226, -0.10551615, -127155.26, 116543.555, 0.000007172051, 10.001452, 9.998511 
1.2950873e+3, 2.851305e+2, -29400.225, -414805.13, -24190.691, 0.041790444, -0.03860883, -27887.785, 117826.73, 0.00006969282, 10.00216, 9.997082 
1.2950854e+3, 2.9512912e+2, 204386.92, -241846.47, -11987.693, -0.22609475, 0.057519507, 204708.72, 252438.95, 0.0003009035, 10.003052, 9.997163 
1.2950869e+3, 3.051246e+2, 263378.03, -237724.73, 16506.553, -0.26653722, -0.07500217, 263921.2, 263921.2, 0.00078697875, 10.003337, 9.996734 
1.2950927e+3, 3.1512222e+2, 288230.38, -2008.3123, -14763.677, 0.045395553, -0.056049187, 288979.44, 288979.44, 0.0015033553, 10.002464, 9.998766 
1.3050577e+3, 1.2513681e+2, -1918411.3, -1734013.8, -21746.668, -0.1342487, -0.07153752, -1731483.8, -17829.875, 0.0054552136, 9.998205, 10.000695 
1.3050602e+3, 1.351372e+2, -1758025.8, -1675557.9, -90708.05, 0.056528952, -0.065233596, -1617151.6, -1500.9415, 0.003073975, 9.998976, 10.000066 
1.3050605e+3, 1.4513697e+2, -1675575.5, -1566505.3, -18801.547, -0.07003169, -0.10033107, -1563355.3, -45700.5, 0.0012055306, 9.998758, 10.000231 
1.3050634e+3, 1.5513803e+2, -1628804.3, -1480548.6, -61382.527, 0.073079824, -0.070617035, -1458433.3, -38786.504, 0.000244213, 9.998369, 10.000333 
1.3050649e+3, 1.6513942e+2, -1531142.8, -1385239.8, -13768.591, 0.071652345, 0.04374901, -1383951.8, -62316.914, 0.000009295233, 9.998382, 10.000317 
1.3050643e+3, 1.7514092e+2, -1333107.4, -1227736.9, 4805.855, -0.14788774, 0.11864714, -1227518.1, -3897.352, 0.0, 9.999027, 10.000409 
1.3050656e+3, 1.8514088e+2, -1224933.9, -1198712.4, 48561.34, -0.18033928, 0.11593597, -1161523.1, -35902.188, 0.0, 9.999384, 9.999773 
1.3050689e+3, 1.9513904e+2, -1114816.0, -1080041.6, 37882.62, -0.010720277, -0.09374478, -1055746.6, -28108.648, 0.0, 9.999417, 9.999894 
1.3050713e+3, 2.0513862e+2, -903906.44, -922983.44, 66423.01, 0.032322906, -0.11626607, -846340.56, 83298.12, 0.0, 10.000165, 9.999939 
1.3050729e+3, 2.151393e+2, -591042.4, -705952.0, 12397.497, -0.053277716, -0.09245607, -589720.0, 241906.7, 0.0, 10.001589, 10.000064 
1.3050757e+3, 2.2513886e+2, -579354.56, -883987.25, 21113.797, 0.0057169623, -0.029652953, -577898.2, 155732.94, 0.0, 10.001976, 9.997991 
1.30508e+3, 2.3513706e+2, -573391.56, -815126.4, 18066.732, 0.2063802, -0.057452902, -572048.75, 63605.465, 0.0, 10.00128, 9.998122 
1.3050826e+3, 2.4513613e+2, -450211.03, -645846.4, 67386.26, 0.19725864, 0.016042707, -429246.53, 108418.81, 0.0, 10.001207, 9.998648 
1.3050835e+3, 2.551356e+2, -258481.67, -493105.66, 53030.35, -0.011279112, 0.05327746, -247052.38, 192616.8, 0.0, 10.001807, 9.998738 
1.3050856e+3, 2.6513404e+2, -155632.83, -474152.06, 19050.375, -0.028418079, 0.06913768, -154497.48, 187185.83, 0.000000026393016, 10.00219, 9.998016 
1.3050887e+3, 2.7513117e+2, -26125.838, -353170.0, -19731.55, 0.12323823, -0.06440168, -24939.676, 218770.7, 0.0000066700077, 10.002362, 9.998095 
1.3050899e+3, 2.8512916e+2, 5379.667, -385198.38, -7125.5684, 0.085075825, -0.022458635, 5509.62, 151239.84, 0.00007506801, 10.002349, 9.997182 
1.3050891e+3, 2.9512748e+2, 105865.14, -278975.06, -3264.5845, -0.123221084, 0.033757735, 105892.83, 153640.38, 0.00033561388, 10.002323, 9.99725 
1.3050906e+3, 3.0512354e+2, 176614.38, -257020.1, 68100.76, -0.19256583, -0.053958964, 187057.84, 187057.84, 0.0008838964, 10.002654, 9.996932 
1.305096e+3, 3.1512097e+2, 440938.7, 139260.64, -34566.215, 0.12305244, -0.06754333, 444848.63, 444848.63, 0.0016900786, 10.003218, 9.999394 
1.3150558e+3, 1.2513523e+2, -1853246.6, -1613432.0, 2519.01, -0.25026947, 0.11757017, -1613405.6, 100272.805, 0.005819013, 9.998254, 10.001508 
1.3150582e+3, 1.3513553e+2, -1728309.9, -1621320.6, -51347.406, -0.064172596, 0.07840963, -1600665.1, 15009.908, 0.0032902497, 9.998994, 10.000436 
1.315061e+3, 1.4513573e+2, -1662915.4, -1541882.4, -65732.47, 0.041992437, 0.060313158, -1513051.3, 4622.1475, 0.0013013786, 9.998776, 10.00039 
1.3150604e+3, 1.5513602e+2, -1622917.5, -1464168.1, -62056.668, -0.09738181, 0.0009523006, -1442788.8, -23117.395, 0.00026992275, 9.998354, 10.000455 
1.3150619e+3, 1.651368e+2, -1460078.8, -1248031.4, -12029.799, -0.103311315, 0.0021667203, -1247351.1, 74310.836, 0.00001153221, 9.998411, 10.00125 
1.3150647e+3, 1.7513788e+2, -1267410.5, -1090084.6, 45244.242, -0.045192502, -0.06304613, -1079207.8, 144439.45, 0.0, 9.999012, 10.001362 
1.3150667e+3, 1.85139e+2, -1223221.5, -1173705.5, 26729.473, -0.044981636, -0.007785489, -1162029.6, -36395.113, 0.0, 9.999299, 9.999982 
1.3150679e+3, 1.9513981e+2, -1120059.1, -1061438.6, 53667.684, -0.082098104, 0.02936914, -1029599.0, -1971.6776, 0.0, 9.999293, 10.000082 
1.3150708e+3, 2.0513943e+2, -995824.44, -1069894.4, 103010.484, -0.06926971, 0.04523295, -923393.7, 6236.498, 0.0, 9.99998, 9.999019 
1.3150752e+3, 2.151375e+2, -690046.8, -860809.25, 84928.414, -0.012926264, -0.09722111, -655000.5, 176646.03, 0.0, 10.001362, 9.999112 
1.3150781e+3, 2.251362e+2, -592917.3, -840073.75, -23666.2, 0.015404923, -0.09653192, -590671.56, 142987.23, 0.0, 10.00168, 9.998429 
1.31508e+3, 2.3513515e+2, -585820.75, -773954.7, 13641.762, 0.035372503, -0.092586875, -584836.75, 50833.688, 0.0, 10.001002, 9.998537 
1.3150826e+3, 2.4513423e+2, -482234.66, -648692.5, 69410.49, 0.049195368, -0.04149591, -457089.8, 80589.805, 0.0, 10.000931, 9.998763 
1.3150862e+3, 2.551332e+2, -289229.9, -496587.72, 96098.04, 0.055382803, -0.06846414, -251543.5, 188145.23, 0.0, 10.001542, 9.998845 
1.3150886e+3, 2.6513177e+2, -225994.84, -558224.4, 7120.9272, 0.02255637, -0.02340143, -225842.28, 115861.234, 0.000000066602475, 10.00193, 9.997559 
1.3150896e+3, 2.751295e+2, -97085.836, -435625.22, 11913.1875, -0.056873817, -0.0527519, -96667.125, 147060.75, 0.0000067822207, 10.002102, 9.997644 
1.3150913e+3, 2.8512737e+2, 18775.787, -320110.47, -25360.3, -0.0644834, -0.023931742, 20663.096, 166411.52, 0.000081610815, 10.002172, 9.997722 
1.3150932e+3, 2.9512504e+2, 100078.37, -222740.36, 21937.254, 0.0071174377, -0.09478048, 101562.305, 149331.11, 0.00036944333, 10.0020275, 9.997783 
1.3150948e+3, 3.0512235e+2, 144743.38, -273881.84, 76920.76, -0.065359645, -0.08375427, 158429.81, 158429.81, 0.0009769672, 10.002445, 9.996912 
1.3150987e+3, 3.151196e+2, 390495.5, 143018.02, 59784.156, -0.0032590535, -0.112267315, 404181.0, 404181.0, 0.0018700527, 10.002776, 9.999622 
1.3250554e+3, 1.2513264e+2, -1957103.3, -1662682.5, 98155.91, -0.062731735, 0.10506121, -1632959.4, 80744.22, 0.006183249, 9.99749, 10.001559 
1.3250564e+3, 1.3513339e+2, -1870530.6, -1651868.1, 9989.146, -0.07809236, 0.082459636, -1651412.8, -35715.906, 0.0035072896, 9.997864, 10.000764 
1.3250604e+3, 1.4513451e+2, -1736976.1, -1560501.9, 32561.848, 0.14022183, 0.12924838, -1554685.5, -36999.58, 0.0013982238, 9.998186, 10.000546 
1.325059e+3, 1.5513471e+2, -1490203.1, -1382659.8, 6532.6543, -0.112330586, 0.04424405, -1382264.5, 37418.91, 0.00029637254, 9.999181, 10.000617 
1.3250604e+3, 1.6513503e+2, -1349093.5, -1223391.3, 42723.69, -0.11566396, 0.0044316393, -1210245.1, 111432.93, 0.000014169166, 9.999307, 10.000975 
1.3250642e+3, 1.7513527e+2, -1330562.1, -1159093.0, -32100.94, 0.034985863, -0.1144509, -1153280.4, 70391.96, 0.0, 9.998732, 10.001026 
1.3250668e+3, 1.8513632e+2, -1242480.6, -1162973.5, -36909.67, 0.06739607, -0.05768994, -1148480.8, -22820.494, 0.0, 9.999085, 10.000156 
1.3250685e+3, 1.9513784e+2, -941649.5, -957813.44, -51231.773, -0.0008543195, 0.031777203, -897866.1, 129779.08, 0.0, 10.000437, 10.000239 
1.3250718e+3, 2.051376e+2, -882368.5, -1042899.5, 47668.754, -0.0070306524, 0.06574685, -869280.6, 60366.85, 0.0, 10.000899, 9.998754 
1.3250765e+3, 2.1513534e+2, -827432.94, -954234.0, 43831.12, 0.036754202, -0.081257395, -813756.9, 17912.36, 0.0, 10.000555, 9.998856 
1.3250796e+3, 2.2513391e+2, -685887.2, -842135.3, -19373.281, 0.044316575, -0.09585689, -683520.9, 50161.215, 0.0, 10.00088, 9.998798 
1.3250813e+3, 2.3513302e+2, -435684.84, -653525.56, -28006.963, 0.031999085, -0.111078754, -432141.72, 203547.28, 0.0, 10.001856, 9.998946 
1.3250841e+3, 2.4513198e+2, -342707.84, -613195.44, 44620.57, 0.057627477, -0.07770884, -335537.2, 202161.58, 0.0, 10.002026, 9.998476 
1.3250881e+3, 2.5513047e+2, -326401.56, -541141.44, 2558.7925, 0.11164559, -0.12689415, -326371.1, 113343.375, 0.0, 10.001409, 9.998593 
1.3250905e+3, 2.651292e+2, -272530.75, -561863.2, -19261.604, 0.0632142, -0.05984746, -271254.1, 70474.51, 0.0000000978673, 10.001538, 9.997714 
1.3250914e+3, 2.7512777e+2, -33168.563, -383372.0, -13341.701, -0.088242635, -0.01813415, -32661.02, 211084.2, 0.000006920427, 10.002457, 9.997828 
1.3250937e+3, 2.8512573e+2, 128889.79, -235142.33, -20431.596, -0.0553012, -0.0055222674, 130032.94, 275797.5, 0.000086783395, 10.002824, 9.997986 
1.325097e+3, 2.9512268e+2, 231528.92, -130941.305, -46766.332, 0.15831687, -0.16774993, 237465.55, 285255.66, 0.0003950438, 10.002818, 9.998032 
1.3250986e+3, 3.0512077e+2, 210022.55, -242014.1, 64249.203, 0.07184838, -0.093086764, 218977.08, 218977.08, 0.0010503886, 10.002919, 9.996891 
1.3251019e+3, 3.1511822e+2, 415768.25, 141491.34, -10689.608, 0.033801634, -0.09694659, 416184.22, 416184.22, 0.002014152, 10.002998, 9.999498 
1.3350517e+3, 1.251286e+2, -1997596.5, -1747254.8, -92644.23, -0.26261613, -0.15762968, -1716699.3, -2965.0923, 0.0065457188, 9.997488, 10.00098 
1.3350542e+3, 1.3513085e+2, -1857225.0, -1621454.0, 27894.875, -0.12567449, -0.050439507, -1618198.6, -2483.506, 0.0037237175, 9.997852, 10.0009775 
1.335058e+3, 1.4513312e+2, -1704654.5, -1507654.8, 44912.074, 0.045084473, 0.082986645, -1497898.9, 19795.047, 0.0014951822, 9.998232, 10.000897 
1.3350584e+3, 1.5513419e+2, -1466788.3, -1338093.5, 62738.195, -0.13096046, 0.0530186, -1312570.6, 107111.46, 0.00032323142, 9.999185, 10.000927 
1.33506e+3, 1.6513424e+2, -1464898.8, -1458859.5, -1169.5118, -0.13125066, 0.053050485, -1458640.9, -136958.73, 0.000017128494, 9.999286, 9.99937 
1.3350625e+3, 1.751332e+2, -1446522.5, -1388706.6, -35541.496, -0.04964995, -0.038124096, -1371801.1, -148106.1, 0.00000000003443261, 9.998687, 9.999469 
1.3350657e+3, 1.8513305e+2, -1244926.0, -1156372.3, -6194.1724, 0.0057233404, -0.029813685, -1155941.1, -30245.248, 0.0, 9.999028, 10.0002365 
1.3350701e+3, 1.951333e+2, -953822.6, -953921.44, 15500.092, 0.0853544, -0.07485292, -938371.9, 89317.81, 0.0, 10.000302, 10.000336 
1.3350737e+3, 2.0513324e+2, -886323.1, -1005053.75, 13197.296, 0.0714622, -0.043418176, -884873.9, 44815.145, 0.0, 10.000699, 9.999113 
1.3350764e+3, 2.1513265e+2, -839001.25, -922349.5, 49910.234, -0.049091823, -0.05909581, -815654.1, 16041.939, 0.0, 10.00031, 9.999199 
1.3350795e+3, 2.2513188e+2, -704146.06, -819051.8, 2362.3416, -0.06765184, -0.040132068, -704097.56, 29604.697, 0.0, 10.000614, 9.999081 
1.3350835e+3, 2.3513068e+2, -456014.9, -636447.0, 28400.232, 0.037923176, -0.119196415, -451650.25, 184059.86, 0.0, 10.0015955, 9.9991865 
1.3350865e+3, 2.451293e+2, -427380.03, -727330.75, 2653.5679, 0.057970148, -0.09735769, -427356.56, 110366.92, 0.0, 10.001767, 9.997812 
1.3350888e+3, 2.5512737e+2, -407459.84, -652622.8, -251.76491, -0.0070040063, -0.12337486, -407459.56, 32286.678, 0.0, 10.001168, 9.99794 
1.3350911e+3, 2.651264e+2, -257175.36, -477310.28, -4653.188, -0.068351835, -0.02704074, -257077.05, 84680.88, 0.00000008871969, 10.00131, 9.998406 
1.3350938e+3, 2.7512607e+2, -26911.666, -299582.9, 42325.508, -0.12947682, 0.046626702, -20492.777, 223269.48, 0.000006673535, 10.002162, 9.998541 
1.3350968e+3, 2.8512415e+2, 88586.51, -266152.75, -42416.51, -0.05760617, 0.043207865, 93587.77, 239367.27, 0.00008871381, 10.002593, 9.997886 
1.3351001e+3, 2.9512045e+2, 183865.25, -166467.22, -20775.998, 0.15161388, -0.17462242, 185093.03, 232904.67, 0.00040777776, 10.002545, 9.997923 
1.3351016e+3, 3.0511895e+2, 183753.5, -248274.69, 55989.637, 0.037163362, -0.053305775, 190891.66, 190891.66, 0.0010944825, 10.002714, 9.996941 
1.3351043e+3, 3.151165e+2, 308451.3, 28734.908, 85493.76, -0.091377586, -0.061677717, 332512.3, 332512.3, 0.0021082137, 10.002529, 9.998949 
1.3450494e+3, 1.2512659e+2, -2065983.0, -1782768.6, -99364.49, -0.19264723, -0.16161464, -1751384.9, -37634.82, 0.0069055543, 9.997064, 10.000921 
1.3450526e+3, 1.35128e+2, -1844729.5, -1607441.1, -21321.666, -0.054756526, -0.14421265, -1605540.5, 10196.852, 0.0039389143, 9.997938, 10.001019 
1.3450558e+3, 1.4512983e+2, -1724374.8, -1519143.1, 14380.092, -0.0024978232, -0.05292515, -1518140.5, -420.64725, 0.0015916337, 9.9981165, 10.000872 
1.3450575e+3, 1.5513135e+2, -1571939.1, -1392066.0, -35348.39, -0.08890337, -0.03474088, -1385368.8, 34335.945, 0.0003501717, 9.998488, 10.00089 
1.34506e+3, 1.6513169e+2, -1486647.5, -1521933.4, -34989.09, -0.051880833, 0.018530615, -1465104.9, -143401.22, 0.000020254476, 9.99934, 9.998925 
1.3450626e+3, 1.751307e+2, -1200430.6, -1317537.3, -26223.283, 0.00048148734, -0.020466749, -1194826.8, 28891.121, 0.0000000014653116, 10.000578, 9.999052 
1.345066e+3, 1.8513018e+2, -1017790.3, -1086838.6, 61377.605, 0.05332151, -0.011614621, -981893.44, 143829.95, 0.0, 10.000749, 9.999885 
1.3450707e+3, 1.9512968e+2, -1019557.25, -1025062.75, 14007.897, 0.13806099, -0.09591238, -1008034.2, 19690.566, 0.0, 10.000016, 9.999986 
1.3450745e+3, 2.0512952e+2, -978447.44, -1031948.1, 22166.51, 0.12549186, -0.06579231, -970456.8, -40731.367, 0.0, 9.999978, 9.999271 
1.3450773e+3, 2.1512945e+2, -777275.06, -867931.94, 1806.4373, -0.005700656, -0.050346356, -777239.1, 54488.41, 0.0, 10.000624, 9.999409 
1.3450807e+3, 2.2512895e+2, -650872.94, -805674.0, -13662.607, -0.029424455, -0.010422133, -649676.4, 84055.32, 0.0, 10.001034, 9.998976 
1.345085e+3, 2.3512773e+2, -510873.3, -672154.56, -49534.246, 0.069751896, -0.078236245, -496874.88, 138866.11, 0.0, 10.001264, 9.999102 
1.3450883e+3, 2.4512625e+2, -468373.75, -742568.3, -54952.23, 0.092417724, -0.06326779, -457770.63, 79984.99, 0.0, 10.001476, 9.997854 
1.3450904e+3, 2.551242e+2, -331132.03, -608459.56, -45245.65, 0.034026876, -0.10003427, -323936.94, 115841.48, 0.0, 10.0016775, 9.998004 
1.345093e+3, 2.6512328e+2, -193408.36, -409293.06, 16165.068, -0.024657166, -0.020952675, -192204.66, 149583.9, 0.000000062099474, 10.001593, 9.998736 
1.345096e+3, 2.751229e+2, -129379.51, -315485.28, -9085.584, -0.07859965, 0.018179094, -128937.01, 114854.36, 0.0000065347235, 10.001294, 9.998854 
1.3450992e+3, 2.85121e+2, -19392.893, -321365.25, -42856.184, -0.019684944, -0.00045545676, -13428.51, 132379.97, 0.00008986311, 10.001851, 9.997867 
1.345103e+3, 2.9511765e+2, 297736.34, -99508.62, -66124.19, 0.14946556, -0.18496649, 308454.0, 356292.8, 0.00041373618, 10.0032835, 9.99802 
1.3451047e+3, 3.0511653e+2, 368709.13, -111061.43, 34843.49, 0.04740949, -0.055025302, 371226.44, 371226.44, 0.0011153643, 10.003733, 9.997409 
1.345108e+3, 3.1511453e+2, 381798.53, 62942.668, 39990.01, 0.025074812, -0.06487461, 386737.47, 386737.47, 0.0021561384, 10.003023, 9.998937 
1.3550477e+3, 1.2512639e+2, -2025888.9, -1695949.4, 19736.271, -0.15010503, 0.03818292, -1694773.0, 18979.975, 0.0072628423, 9.997069, 10.001513 
1.3550514e+3, 1.3512497e+2, -1861362.4, -1637487.9, 16111.94, -0.0053528184, -0.20703337, -1636334.3, -20572.32, 0.004152666, 9.99793, 10.000815 
1.3550524e+3, 1.4512472e+2, -1769766.8, -1600727.4, -723.5367, -0.1848407, -0.2798357, -1600724.3, -82961.04, 0.0016872559, 9.998067, 10.000332 
1.3550559e+3, 1.5512623e+2, -1605067.9, -1460220.5, -2266.8572, -0.13496715, -0.21574396, -1460185.1, -40434.137, 0.0003769789, 9.998485, 10.000422 
1.35506e+3, 1.651273e+2, -1433537.4, -1415329.9, -11429.982, -0.029541785, -0.105251156, -1409821.3, -88078.41, 0.000023370363, 9.999349, 9.999656 
1.3550639e+3, 1.7512763e+2, -1161292.3, -1223004.5, 35640.35, 0.052446, -0.08463029, -1145006.8, 78735.51, 0.0000000068048798, 10.000514, 9.999734 
1.3550672e+3, 1.8512763e+2, -1090786.9, -1209444.9, 12834.858, 0.051999856, -0.01666239, -1089414.5, 36329.22, 0.0, 10.000632, 9.999093 
1.3550699e+3, 1.95127e+2, -1094698.6, -1149951.8, 6505.1636, 0.011402203, -0.037507206, -1093943.1, -66192.59, 0.0, 9.999883, 9.999191 
1.3550736e+3, 2.0512642e+2, -1008427.06, -1054010.5, 26076.074, 0.0023450768, -0.00546178, -996586.06, -66829.62, 0.0, 9.9998045, 9.999203 
1.3550785e+3, 2.1512562e+2, -819062.5, -898233.56, 41806.52, 0.025377015, -0.05608977, -801073.75, 30690.535, 0.0, 10.000377, 9.999321 
1.3550825e+3, 2.2512498e+2, -726554.6, -891603.3, -29205.107, 0.015536005, -0.0024306155, -721539.2, 12232.378, 0.0, 10.000733, 9.998527 
1.3550858e+3, 2.3512419e+2, -581362.0, -752050.2, -23304.36, -0.020992283, 0.014361595, -578237.44, 57543.82, 0.0, 10.000985, 9.998683 
1.3550892e+3, 2.4512295e+2, -459760.13, -660612.44, -67285.31, 0.0039958875, 0.039835952, -439303.16, 98490.38, 0.0, 10.0012, 9.998551 
1.3550928e+3, 2.55121e+2, -320450.34, -524430.8, -17312.07, 0.07854304, -0.062111538, -318991.5, 120819.78, 0.0, 10.001415, 9.998706 
1.3550955e+3, 2.6511964e+2, -232404.47, -438168.3, -14034.578, 0.03907577, -0.058529448, -231451.63, 110371.12, 0.000000036385206, 10.001364, 9.9986515 
1.3550973e+3, 2.7511835e+2, -174934.58, -349337.22, 4347.7637, -0.09744444, -0.10064489, -174826.27, 69006.24, 0.0000068750182, 10.001039, 9.998744 
1.3551004e+3, 2.8511646e+2, -48444.71, -330214.44, -8898.653, -0.12126371, -0.11046486, -48163.96, 97685.445, 0.00009120505, 10.00163, 9.997911 
1.3551047e+3, 2.9511395e+2, 252368.95, -118047.445, 12860.978, -0.04100981, -0.21517015, 252814.95, 300689.06, 0.00041573873, 10.0029545, 9.9980545 
1.3551077e+3, 3.0511317e+2, 382217.84, -1839.0547, -8977.453, -0.063060835, -0.0994753, 382427.6, 382427.6, 0.001116627, 10.003416, 9.998299 
1.3551119e+3, 3.1511182e+2, 324662.22, 66056.04, 79023.8, 0.035538666, -0.13194333, 346898.06, 346898.06, 0.0021578383, 10.00254, 9.999176 
1.3650447e+3, 1.2512222e+2, -2050240.4, -1658018.0, -1125.5251, -0.12412024, 0.04423528, -1658014.8, 55779.73, 0.0076198755, 9.99665, 10.0019865 
1.365049e+3, 1.351212e+2, -1921756.0, -1643445.9, -98487.94, 0.010557449, -0.19406144, -1612119.3, 3678.6318, 0.004366158, 9.997356, 10.001074 
1.365051e+3, 1.4512105e+2, -1818988.6, -1624896.0, -31218.244, -0.12901558, -0.27040848, -1619998.4, -102200.72, 0.0017823466, 9.997727, 10.000324 
1.365055e+3, 1.551223e+2, -1598459.6, -1457580.8, -30567.143, -0.0637777, -0.23138538, -1451234.4, -31446.133, 0.0004035849, 9.998537, 10.000408 
1.3650599e+3, 1.6512333e+2, -1435903.6, -1391179.3, 8369.758, 0.044862416, -0.1366544, -1389664.3, -67883.99, 0.000026350568, 9.9992285, 9.999877 
1.3650645e+3, 1.7512384e+2, -1234754.3, -1230685.9, -25977.275, 0.1042218, -0.11866219, -1206663.3, 17113.018, 0.000000016360648, 9.9999, 9.999975 
1.3650678e+3, 1.8512386e+2, -1156881.8, -1280116.0, -48980.29, 0.086232014, -0.041013587, -1139785.9, -14008.044, 0.0, 10.000369, 9.998724 
1.36507e+3, 1.9512312e+2, -998659.94, -1134508.6, -63259.04, 0.014958052, -0.039118316, -973765.0, 54022.46, 0.0, 10.000713, 9.998878 
1.3650739e+3, 2.0512237e+2, -860560.9, -997838.25, 24174.63, 0.019261092, -0.005560788, -856428.1, 73367.88, 0.0, 10.00087, 9.999086 
1.3650797e+3, 2.1512125e+2, -757426.9, -882209.7, 1865.2964, 0.09300529, -0.07252309, -757399.0, 74407.62, 0.0, 10.000846, 9.999216 
1.365084e+3, 2.251206e+2, -709286.7, -878287.1, -14244.587, 0.09833746, -0.019523444, -708094.5, 25720.092, 0.0, 10.000821, 9.998579 
1.365087e+3, 2.3512003e+2, -608778.7, -765434.0, -15459.889, 0.030756153, 0.015337729, -607267.6, 28555.424, 0.0, 10.000774, 9.998705 
1.3650906e+3, 2.451191e+2, -463968.9, -621496.0, -7050.399, 0.038877066, 0.05149324, -463653.97, 74178.08, 0.0, 10.000999, 9.998911 
1.3650945e+3, 2.551175e+2, -272636.53, -461186.53, -27094.352, 0.106246285, -0.05167036, -268820.34, 171024.55, 0.0, 10.001569, 9.999063 
1.3650976e+3, 2.6511595e+2, -152671.88, -440625.72, -15435.297, 0.08690245, -0.06446977, -151846.84, 190010.78, 0.000000033203506, 10.002102, 9.998276 
1.3651e+3, 2.751141e+2, 48160.945, -277131.3, -60762.344, -0.01611464, -0.12696853, 59140.348, 303014.03, 0.0000069323874, 10.002735, 9.998417 
1.365103e+3, 2.8511223e+2, 71923.82, -278348.56, -42462.43, -0.057778586, -0.114962704, 76997.91, 222888.75, 0.00008948749, 10.00251, 9.997833 
1.365107e+3, 2.9511032e+2, 55511.93, -214582.67, -72720.09, -0.028345266, -0.1518664, 73846.45, 121756.73, 0.00040625827, 10.0016165, 9.99803 
1.3651107e+3, 3.051089e+2, 227297.42, -92046.37, -63054.07, -0.032080375, -0.092583135, 239296.52, 239296.52, 0.0010895476, 10.002418, 9.99818 
1.3651161e+3, 3.1510708e+2, 591172.5, 144734.95, -114493.63, 0.12536451, -0.13896827, 618823.06, 618823.06, 0.002106843, 10.004539, 9.99881 
1.3750437e+3, 1.2511404e+2, -2044649.9, -1646467.6, -63206.516, 0.030375568, -0.15501408, -1636675.1, 77199.72, 0.0079810945, 9.996665, 10.002048 
1.3750447e+3, 1.3511668e+2, -1860241.4, -1520164.3, -64459.152, -0.20393892, -0.11268606, -1508356.5, 107488.92, 0.0045821774, 9.997369, 10.00191 
1.3750502e+3, 1.451189e+2, -1780028.0, -1550407.8, -31876.582, -0.009225853, -0.021273019, -1546064.8, -28242.61, 0.0018779465, 9.99775, 10.00083 
1.3750544e+3, 1.5511955e+2, -1568027.4, -1394690.1, 18649.248, -0.019391777, -0.08892359, -1392706.4, 27110.3, 0.00043006244, 9.998531, 10.000847 
1.3750592e+3, 1.6511975e+2, -1458807.9, -1435403.5, 10150.894, 0.0044236607, -0.07958573, -1431614.4, -109798.98, 0.000029160963, 9.9992075, 9.999588 
1.375064e+3, 1.7511944e+2, -1257507.6, -1270862.4, 18375.098, 0.011071335, -0.11916513, -1244634.3, -20815.19, 0.000000027808229, 9.999856, 9.999728 
1.3750677e+3, 1.8511899e+2, -1163548.8, -1275945.0, -56294.32, -0.002271481, -0.081934944, -1140202.6, -14377.878, 0.0, 10.000303, 9.998779 
1.375071e+3, 1.951179e+2, -1022362.44, -1146897.0, -36339.17, 0.0037410685, -0.113307305, -1012534.3, 15302.843, 0.0, 10.000558, 9.998869 
1.3750751e+3, 2.0511717e+2, -892012.9, -1016451.25, 3744.1655, 0.013064299, -0.07447725, -891900.4, 37945.41, 0.0, 10.000671, 9.999054 
1.3750802e+3, 2.151165e+2, -800535.1, -909187.06, 20454.809, 0.03769204, -0.096446015, -796811.9, 35041.375, 0.0, 10.000576, 9.999163 
1.3750847e+3, 2.25116e+2, -721415.7, -828134.56, -34083.73, 0.05650398, -0.04706358, -711459.06, 22399.645, 0.0, 10.000507, 9.999072 
1.3750885e+3, 2.3511535e+2, -620474.4, -716304.75, 3959.3167, 0.068925776, -0.06705027, -620311.06, 15554.217, 0.0, 10.000474, 9.99918 
1.375092e+3, 2.451147e+2, -505438.66, -648891.0, -9188.17, 0.04099458, -0.023579696, -504852.53, 33018.496, 0.0, 10.000737, 9.998853 
1.375095e+3, 2.551138e+2, -313342.47, -487766.06, 11400.676, -0.023314318, -0.053113177, -312600.47, 127277.63, 0.0, 10.001319, 9.999002 
1.3750988e+3, 2.651124e+2, -228241.48, -550663.0, -10459.211, -0.03516398, -0.014326887, -227902.56, 113989.16, 0.000000022673568, 10.001892, 9.997622 
1.3751031e+3, 2.7511004e+2, -35773.477, -389857.66, -16051.661, 0.0059197024, -0.06554467, -35047.297, 208868.89, 0.0000066245593, 10.002475, 9.997766 
1.3751066e+3, 2.851082e+2, 37124.945, -312504.72, -96743.66, 0.008921313, -0.011676024, 62108.91, 208042.89, 0.00008473701, 10.002333, 9.997686 
1.3751091e+3, 2.9510683e+2, 7867.342, -253978.75, -78171.83, -0.006005132, 0.018118996, 29429.307, 77375.66, 0.0003829078, 10.001357, 9.997887 
1.3751133e+3, 3.0510378e+2, 112954.67, -279085.3, 7642.163, -0.04926559, -0.0213218, 113103.586, 113103.586, 0.0010286879, 10.002206, 9.9969845 
1.3751195e+3, 3.151002e+2, 438151.66, -33052.72, 37678.855, -0.0579838, -0.13120885, 441145.53, 441145.53, 0.0019990886, 10.003974, 9.99783 
1.3850424e+3, 1.2510987e+2, -1882695.6, -1630820.0, 75840.19, 0.17693934, -0.16810444, -1609747.4, 104165.93, 0.008351057, 9.998052, 10.001496 
1.385043e+3, 1.3511242e+2, -1792318.1, -1523196.1, -12600.622, -0.12532398, -0.0929334, -1522607.4, 93279.11, 0.004803759, 9.997998, 10.0015955 
1.3850492e+3, 1.4511436e+2, -1765962.8, -1556312.9, 20282.945, 0.11272752, -0.008078592, -1554368.6, -36501.703, 0.0019753822, 9.997898, 10.000726 
1.3850535e+3, 1.5511474e+2, -1545937.8, -1391160.8, -14253.232, 0.036236577, -0.09449354, -1389859.1, 30004.207, 0.00045665295, 9.998721, 10.000781 
1.3850588e+3, 1.6511497e+2, -1460456.3, -1421360.3, 4614.613, 0.03929104, -0.08487697, -1420823.0, -98961.15, 0.00003186285, 9.999169, 9.999686 
1.385064e+3, 1.7511493e+2, -1323455.1, -1286986.3, -4226.865, 0.065041125, -0.11004729, -1286502.8, -62639.79, 0.000000039188958, 9.99936, 9.999845 
1.3850683e+3, 1.8511444e+2, -1248836.6, -1296923.4, -23406.217, 0.07003271, -0.09174872, -1239325.1, -113456.664, 0.0, 9.999597, 9.9990015 
1.3850717e+3, 1.951132e+2, -1068099.9, -1137697.4, -15742.811, 0.06475308, -0.16629858, -1064704.5, -36823.266, 0.0, 10.000084, 9.999176 
1.3850759e+3, 2.0511259e+2, -972660.06, -1057319.9, 54606.5, 0.060449786, -0.12736824, -945898.06, -16010.146, 0.0, 10.000138, 9.999023 
1.3850807e+3, 2.1511236e+2, -893245.2, -951039.7, 32410.223, 0.06499977, -0.10277223, -878720.4, -46829.008, 0.0, 9.999941, 9.999173 
1.3850853e+3, 2.2511183e+2, -728102.94, -832888.4, 27315.973, 0.08382367, -0.06100237, -721409.6, 12487.255, 0.0, 10.000444, 9.999075 
1.3850899e+3, 2.3511066e+2, -430885.0, -625994.5, -6486.2563, 0.10881592, -0.13402288, -430669.6, 205238.03, 0.0, 10.001758, 9.99919 
1.3850936e+3, 2.451098e+2, -334746.53, -614684.56, -29059.658, 0.07680867, -0.088513225, -331761.75, 206153.92, 0.0, 10.002118, 9.998417 
1.3850965e+3, 2.5510904e+2, -292992.78, -527466.8, -81730.04, -0.021938939, -0.062031332, -267316.16, 172607.39, 0.0, 10.0016575, 9.998568 
1.3851006e+3, 2.6510754e+2, -268492.2, -572902.6, -39930.44, -0.025501467, -0.01080227, -263341.53, 78597.66, 0.0000000049794013, 10.001623, 9.997603 
1.385106e+3, 2.751049e+2, -90133.945, -419285.13, -39564.152, 0.059232198, -0.08336887, -85445.1, 158521.19, 0.0000064670485, 10.00209, 9.99776 
1.3851099e+3, 2.8510305e+2, 96225.19, -304114.63, -75494.88, 0.0814248, -0.024527939, 109988.61, 255973.2, 0.00007994395, 10.002817, 9.997528 
1.3851124e+3, 2.9510167e+2, 384264.63, -80980.04, -103409.99, 0.055251155, 0.021554409, 406214.03, 454210.8, 0.00035497686, 10.003972, 9.997821 
1.3851169e+3, 3.0509818e+2, 355886.13, -245634.47, 52713.902, 0.006394986, -0.024279078, 360470.72, 360470.72, 0.0009532209, 10.0042305, 9.996238 
1.3851231e+3, 3.1509426e+2, 321197.72, -134023.08, 48689.16, -0.029621359, -0.08775262, 326347.13, 326347.13, 0.0018633218, 10.003328, 9.997445 
1.3950375e+3, 1.2510811e+2, -1953831.3, -1773334.9, -119502.57, -0.2023632, -0.13201323, -1713831.3, 93.9189, 0.008733579, 9.998051, 10.000505 
1.3950436e+3, 1.3510838e+2, -1893973.3, -1729596.8, -13664.558, 0.1026372, -0.14868848, -1728468.6, -112546.33, 0.005033633, 9.99799, 10.0001745 
1.3950472e+3, 1.4510752e+2, -1809961.1, -1653657.9, 19678.846, 0.053061534, -0.23659241, -1651218.4, -133287.38, 0.002076125, 9.997924, 10.000043 
1.3950516e+3, 1.5510795e+2, -1595258.1, -1486778.6, 35238.152, -0.06999761, -0.25437054, -1476337.0, -56409.023, 0.00048381835, 9.9986925, 10.000138 
1.3950576e+3, 1.6510886e+2, -1434101.4, -1364693.9, -13303.848, -0.024459334, -0.16500424, -1362231.3, -40310.832, 0.000034571214, 9.999161, 10.000081 
1.3950643e+3, 1.7510998e+2, -1315037.6, -1246978.6, 16312.533, 0.13334991, -0.10578196, -1243270.9, -19359.842, 0.00000005013657, 9.999265, 10.000168 
1.3950689e+3, 1.8511017e+2, -1208556.1, -1202010.8, -30399.727, 0.14120507, -0.068863176, -1174708.1, -48798.723, 0.0, 9.999547, 9.999674 
1.395072e+3, 1.9510911e+2, -1046051.7, -1057885.0, 18294.977, 0.0447718, -0.1891705, -1032740.44, -4822.3345, 0.0, 9.999933, 9.9998 
1.3950759e+3, 2.0510876e+2, -999498.75, -1074725.8, 26131.014, 0.0043279342, -0.15512869, -991312.6, -61391.29, 0.0, 9.9999695, 9.998981 
1.3950804e+3, 2.1510877e+2, -935074.5, -979970.5, 40701.25, 0.02274862, -0.102389626, -911041.25, -79119.2, 0.0, 9.999695, 9.99909 
1.3950855e+3, 2.2510795e+2, -786653.4, -904101.4, 58085.78, 0.016972708, -0.065588936, -762779.1, -28848.795, 0.0, 10.000215, 9.998697 
1.3950908e+3, 2.3510608e+2, -495170.7, -700972.2, 63097.89, 0.005077055, -0.17576653, -477365.56, 158582.83, 0.0, 10.001498, 9.9988 
1.3950951e+3, 2.4510464e+2, -434976.13, -757344.5, -66042.07, -0.01371554, -0.12843339, -421971.06, 115992.8, 0.0, 10.00184, 9.997572 
1.3950983e+3, 2.551032e+2, -398370.78, -674065.06, -78541.29, -0.030387465, -0.0810395, -377565.56, 62415.47, 0.0, 10.001358, 9.997701 
1.3951024e+3, 2.6510134e+2, -265370.1, -512944.75, -40267.344, -0.026948195, -0.045419097, -258985.38, 83014.5, 0.0000000011462398, 10.001389, 9.998131 
1.3951077e+3, 2.7509895e+2, -92995.484, -362558.9, 851.4906, 0.0007182144, -0.15634461, -92992.8, 151029.56, 0.0000063015364, 10.001817, 9.998284 
1.3951121e+3, 2.8509697e+2, 41318.715, -356349.84, -51625.914, -0.0023861788, -0.11977043, 47911.563, 193952.17, 0.000075522126, 10.002555, 9.997293 
1.395116e+3, 2.9509494e+2, 316847.84, -145777.66, -33608.613, -0.024730487, -0.1161964, 319276.66, 367336.84, 0.00033167924, 10.003656, 9.997527 
1.3951209e+3, 3.050921e+2, 296716.5, -306208.88, 646.54596, -0.032845836, -0.063842244, 296717.2, 296717.2, 0.0008929241, 10.003965, 9.995949 
1.3951264e+3, 3.1509003e+2, 250918.16, -136915.31, 69129.445, -0.097259685, 0.07681984, 262871.72, 262871.72, 0.0017527872, 10.002746, 9.997697 
1.4050357e+3, 1.2510388e+2, -2037007.0, -1832345.4, -171167.16, -0.15069549, -0.11043654, -1735252.5, -21284.654, 0.009133226, 9.997545, 10.000338 
1.405043e+3, 1.3510357e+2, -1749524.5, -1706067.4, -114586.414, 0.19901842, -0.1497203, -1611167.6, 4802.661, 0.005275387, 9.999162, 9.999772 
1.4050451e+3, 1.451023e+2, -1621543.1, -1585011.5, 8879.236, 0.011668631, -0.24979751, -1582967.8, -64985.06, 0.0021822979, 9.999315, 9.999845 
1.4050509e+3, 1.5510261e+2, -1597882.0, -1512605.1, 10843.05, -0.0021881373, -0.25584468, -1511248.0, -91267.32, 0.00051218417, 9.998781, 9.999919 
1.4050573e+3, 1.6510345e+2, -1496482.4, -1400443.0, 19628.986, 0.05131475, -0.16030027, -1396586.0, -74611.84, 0.000037386584, 9.998742, 10.00004 
1.4050636e+3, 1.7510463e+2, -1277114.0, -1223219.4, -16593.36, 0.1335853, -0.10246882, -1218520.3, 5444.7324, 0.00000006103049, 9.999497, 10.000215 
1.4050685e+3, 1.8510503e+2, -1162761.6, -1183998.9, -62796.23, 0.12651107, -0.045216896, -1109692.6, 16269.171, 0.0, 9.999892, 9.999621 
1.405072e+3, 1.9510438e+2, -1022040.56, -1047711.7, -110124.125, 0.052156717, -0.12519734, -924006.5, 103960.87, 0.0, 10.000106, 9.999779 
1.4050762e+3, 2.0510392e+2, -906025.8, -1026222.94, -84339.83, 0.02153942, -0.103072554, -862562.6, 67408.3, 0.0, 10.000591, 9.999027 
1.405081e+3, 2.1510333e+2, -658886.75, -834237.6, -97673.35, 0.019791342, -0.113535695, -615310.25, 216665.08, 0.0, 10.001537, 9.9992075 
1.4050862e+3, 2.2510235e+2, -615046.1, -851424.25, -35857.887, 0.016312143, -0.0824155, -609726.3, 124258.9, 0.0, 10.001551, 9.998408 
1.405092e+3, 2.3510069e+2, -625289.44, -784867.06, -65289.87, 0.018891798, -0.14370462, -601981.06, 34021.984, 0.0, 10.000718, 9.998589 
1.4050968e+3, 2.4509926e+2, -550147.7, -778985.25, -103594.016, 0.023278445, -0.1005041, -510218.22, 27799.785, 0.0, 10.0008955, 9.997882 
1.4051004e+3, 2.5509775e+2, -268406.53, -569565.6, -64672.3, 0.01836867, -0.09351338, -255105.94, 184927.42, 0.0, 10.002079, 9.998067 
1.4051047e+3, 2.6509583e+2, -128718.84, -462022.56, 18720.371, 0.022134421, -0.078175664, -127670.69, 214381.38, 0.0000000047036606, 10.002397, 9.997992 
1.4051099e+3, 2.750934e+2, -84263.36, -367315.4, -39395.54, 0.039350532, -0.1718054, -78882.52, 165192.34, 0.000006310061, 10.001939, 9.998182 
1.4051147e+3, 2.8509137e+2, -135.7288, -397288.3, -26733.84, 0.020203523, -0.12996267, 1655.746, 147750.55, 0.00007178299, 10.002355, 9.997105 
1.4051194e+3, 2.9508895e+2, 280782.66, -188613.78, -43642.72, -0.02976995, -0.14125289, 284805.9, 332924.97, 0.0003184308, 10.003511, 9.997307 
1.405125e+3, 3.0508655e+2, 283491.22, -267226.16, -10241.521, -0.0026723845, -0.054786637, 283681.63, 283681.63, 0.00086333806, 10.003662, 9.996366 
1.40513e+3, 3.150844e+2, 319990.22, -23503.98, 23767.396, -0.004572661, 0.03479174, 321626.97, 321626.97, 0.0016972373, 10.002834, 9.998448 
1.4150356e+3, 1.2509784e+2, -1978913.3, -1721767.4, 68888.56, -0.0038054793, -0.058542315, -1704475.1, 9559.435, 0.009556688, 9.997579, 10.001088 
1.4150405e+3, 1.3509804e+2, -1711001.4, -1617817.8, -48518.277, -0.000103453254, -0.10411965, -1597142.8, 18887.03, 0.0055341963, 9.999128, 10.000398 
1.415043e+3, 1.4509867e+2, -1596735.6, -1544158.1, -40523.43, -0.20147593, -0.063940555, -1522143.1, -4121.1016, 0.0022969088, 9.999358, 10.000105 
1.415051e+3, 1.5509868e+2, -1592351.4, -1497598.1, 6551.868, 0.09411763, -0.1110013, -1497147.3, -77125.0, 0.0005425403, 9.998765, 10.000031 
1.415057e+3, 1.6509889e+2, -1507766.1, -1431670.8, 22179.639, 0.10470862, -0.07134823, -1425677.9, -103656.28, 0.000040406845, 9.998774, 9.999815 
1.4150612e+3, 1.7509912e+2, -1307578.1, -1264926.5, 29340.79, -0.083627015, -0.08160873, -1249980.1, -25958.05, 0.00000007226826, 9.999406, 9.999978 
1.4150661e+3, 1.8509921e+2, -1226916.3, -1299103.9, -75707.61, -0.13289768, -0.0038712213, -1179138.6, -53115.125, 0.0, 9.999819, 9.998864 
1.4150713e+3, 1.9509883e+2, -1100385.1, -1176849.3, -85976.13, -0.055461716, 0.023303153, -1044523.7, -16493.94, 0.0, 9.999963, 9.998963 
1.4150766e+3, 2.0509793e+2, -912334.9, -1001184.2, -73157.555, -0.042235248, 0.0286247, -871169.94, 58867.504, 0.0, 10.000422, 9.999282 
1.4150818e+3, 2.150962e+2, -685129.9, -826074.2, -44927.992, -0.07351905, -0.12086289, -672026.6, 160023.0, 0.0, 10.00126, 9.999402 
1.4150873e+3, 2.2509511e+2, -669458.3, -896811.44, -88376.57, -0.06064356, -0.10397627, -639146.06, 94914.586, 0.0, 10.001262, 9.998232 
1.415093e+3, 2.3509434e+2, -684648.4, -839088.6, -78149.055, 0.0060816878, -0.052609105, -652003.94, -15931.107, 0.0, 10.000428, 9.998354 
1.4150979e+3, 2.4509367e+2, -477214.3, -573277.75, -74988.54, 0.0129627595, 0.0015087632, -436193.66, 101884.305, 0.0, 10.000655, 9.999409 
1.4151022e+3, 2.5509274e+2, -195881.98, -367229.78, -888.7869, -0.033895787, -0.09176983, -195877.38, 244202.48, 0.0, 10.001852, 9.999565 
1.415107e+3, 2.6509094e+2, -223852.47, -605314.4, -20333.031, -0.03055402, -0.09435018, -222771.72, 119323.59, 0.000000079284355, 10.002164, 9.99712 
1.4151119e+3, 2.7508813e+2, -186870.88, -519938.9, -32556.2, 0.017898655, -0.13937886, -183718.45, 60407.43, 0.000007370644, 10.0016775, 9.997262 
1.415117e+3, 2.8508595e+2, -32565.395, -413286.66, -647.8671, -0.028953288, -0.06559592, -32564.293, 113585.664, 0.00007207351, 10.002131, 9.997101 
1.4151222e+3, 2.9508364e+2, 229802.56, -221522.45, 28321.057, -0.13470297, -0.06841009, 231572.78, 279747.34, 0.00031949472, 10.003189, 9.997239 
1.4151281e+3, 3.0508134e+2, 298309.4, -154159.73, -51031.688, -0.079091035, -0.014036334, 303993.6, 303993.6, 0.00086619053, 10.003338, 9.997277 
1.415133e+3, 3.1507757e+2, 306381.97, 83467.45, 42334.785, -0.047683574, -0.18654864, 314151.2, 314151.2, 0.0016971829, 10.0023, 9.999415 
1.4250335e+3, 1.2509151e+2, -1996054.1, -1696343.8, 179034.77, 0.06829393, -0.013633678, -1612725.1, 101375.414, 0.010011913, 9.997355, 10.001372 
1.4250383e+3, 1.350918e+2, -1831917.3, -1604272.1, -47551.32, -0.078242294, -0.10244152, -1594738.8, 21355.086, 0.0058154534, 9.998028, 10.001015 
1.4250429e+3, 1.4509308e+2, -1660349.4, -1535241.0, -30059.98, -0.106317736, -0.04973353, -1528393.3, -10314.138, 0.002423067, 9.998762, 10.000444 
1.4250503e+3, 1.5509361e+2, -1519915.3, -1428156.8, -19678.264, 0.14449494, -0.07439384, -1424114.6, -4041.394, 0.00057589856, 9.999121, 10.000324 
1.425056e+3, 1.6509385e+2, -1437244.5, -1436211.3, 68846.01, 0.10523047, -0.029430626, -1367879.9, -45807.707, 0.00004378684, 9.999414, 9.999471 
1.4250608e+3, 1.750937e+2, -1235157.5, -1265427.9, 28071.453, -0.093457155, -0.05094687, -1218401.0, 5676.2153, 0.00000008454083, 10.00004, 9.999665 
1.4250663e+3, 1.8509336e+2, -1156177.9, -1277045.0, -31153.791, -0.12180926, 0.0026665984, -1148620.5, -22537.707, 0.0, 10.000341, 9.998771 
1.4250717e+3, 1.9509265e+2, -1028303.5, -1144733.6, -24240.11, -0.030742597, 0.0049577937, -1023458.44, 4632.6445, 0.0, 10.000471, 9.998937 
1.4250772e+3, 2.0509176e+2, -902127.3, -1010941.44, 54833.203, -0.014936838, 0.0203907, -879289.25, 50809.574, 0.0, 10.000549, 9.999153 
1.4250828e+3, 2.1509029e+2, -774198.75, -885116.06, 15663.44, -0.053711608, -0.09239587, -772029.2, 60080.957, 0.0, 10.000689, 9.999281 
1.4250885e+3, 2.2508933e+2, -741070.44, -914533.3, -22988.996, -0.02369258, -0.063909106, -738075.44, -3955.609, 0.0, 10.000684, 9.998405 
1.4250939e+3, 2.3508869e+2, -634321.6, -793126.1, -21147.578, 0.06338302, -0.016875243, -631553.7, 4575.798, 0.0, 10.000665, 9.998572 
1.4250991e+3, 2.4508789e+2, -457190.75, -555257.8, 23997.088, 0.07658281, 0.009920261, -451633.56, 86501.35, 0.0, 10.000762, 9.999483 
1.4251041e+3, 2.5508657e+2, -294691.56, -408581.34, -49895.25, 0.015972478, -0.12622628, -275924.8, 164215.03, 0.00000000006254562, 10.001133, 9.999636 
1.425109e+3, 2.6508477e+2, -268496.53, -629372.4, -68331.12, 0.0059858426, -0.12987268, -255991.48, 86163.72, 0.00000036239143, 10.001863, 9.997096 
1.4251144e+3, 2.7508247e+2, 2078.788, -426160.63, -54847.29, 0.04075925, -0.12558062, 8991.825, 253173.48, 0.000010087366, 10.002958, 9.997289 
1.4251195e+3, 2.8508037e+2, 109066.07, -322225.0, 53515.395, -0.006579673, -0.05286695, 115607.16, 261812.0, 0.00007872079, 10.003, 9.997315 
1.425125e+3, 2.9507795e+2, 108176.26, -250406.34, 38427.98, -0.10520613, -0.09182565, 112248.2, 160478.98, 0.00033532444, 10.002227, 9.9974985 
1.4251316e+3, 3.0507612e+2, 228228.39, -175543.89, -1960.9031, -0.02030196, -0.010324855, 228237.9, 228237.9, 0.00089838944, 10.002754, 9.99744 
1.4251369e+3, 3.1507224e+2, 581840.1, 203913.67, -36051.664, 0.025950074, -0.21619837, 585248.5, 585248.5, 0.0017503061, 10.004209, 9.9993515 
1.4350307e+3, 1.250851e+2, -1997202.4, -1726461.9, -13146.645, -0.03785907, 0.027600091, -1725825.0, -11661.409, 0.010506618, 9.997443, 10.001125 
1.4350355e+3, 1.3508514e+2, -1802000.4, -1539945.6, 11919.169, -0.18841478, -0.1281963, -1539404.6, 76754.84, 0.006123269, 9.998015, 10.001456 
1.4350443e+3, 1.4508562e+2, -1609390.9, -1445021.4, -36340.016, 0.10960928, -0.21141684, -1437345.5, 80806.65, 0.002563054, 9.99882, 10.001043 
1.4350484e+3, 1.5508768e+2, -1493909.8, -1362784.6, 10856.063, -0.0069017773, -0.13725206, -1361892.0, 58239.15, 0.0006133788, 9.999068, 10.000804 
1.4350536e+3, 1.6508853e+2, -1472477.0, -1507145.3, 66341.18, -0.11704967, -0.028459888, -1421242.8, -99118.445, 0.000047750204, 9.999404, 9.99899 
1.4350617e+3, 1.7508806e+2, -1276336.4, -1342144.5, 66805.016, -0.04623924, -0.028033795, -1234771.8, -10638.766, 0.00000010052836, 9.999996, 9.999166 
1.4350681e+3, 1.8508731e+2, -1116743.9, -1176959.6, -49516.086, -0.0036061283, -0.026535837, -1088900.8, 37239.766, 0.0, 10.000265, 9.999492 
1.4350726e+3, 1.9508597e+2, -1005055.56, -1059437.0, -2844.3713, -0.02885927, -0.16167763, -1004907.2, 23243.15, 0.0, 10.000312, 9.9996 
1.4350776e+3, 2.0508549e+2, -960116.2, -1090746.3, 37293.58, -0.06756553, -0.116477914, -950219.1, -20064.287, 0.0, 10.000369, 9.99869 
1.4350836e+3, 2.150855e+2, -849466.7, -980534.25, 38568.92, -0.07829361, -0.03162975, -838959.44, -6801.8384, 0.0, 10.000422, 9.998754 
1.4350894e+3, 2.2508502e+2, -747510.7, -856037.8, -43253.484, -0.03811907, 0.04552095, -732381.2, 1781.544, 0.0, 10.000386, 9.998942 
1.4350946e+3, 2.3508382e+2, -643357.44, -737953.75, -2295.6912, 0.048938204, -0.02120327, -643301.75, -7129.486, 0.0, 10.000361, 9.99909 
1.4351001e+3, 2.4508193e+2, -588866.7, -769190.75, 15750.538, 0.063067235, -0.061743278, -587501.3, -49312.473, 0.0, 10.000499, 9.998144 
1.4351057e+3, 2.5507912e+2, -433657.4, -627054.94, -15335.039, 0.020301916, -0.20934533, -432449.0, 7765.5376, 0.000000006122379, 10.000834, 9.99828 
1.435111e+3, 2.650774e+2, -238857.0, -514647.72, -43539.277, -0.02048959, -0.18360141, -232146.69, 110084.55, 0.0000008787704, 10.001628, 9.998002 
1.4351167e+3, 2.7507648e+2, 26692.42, -317887.3, 9245.151, -0.04907161, -0.12896109, 26940.291, 271182.22, 0.000014147242, 10.002708, 9.99816 
1.4351222e+3, 2.8507477e+2, 96180.016, -294022.97, 4514.252, -0.0820564, -0.0810794, 96232.234, 242491.95, 0.000090681104, 10.002762, 9.9976225 
1.4351276e+3, 2.9507172e+2, 75287.305, -251674.48, 36581.12, -0.11735179, -0.21040764, 79330.086, 127619.69, 0.0003649261, 10.001927, 9.997642 
1.4351347e+3, 3.0507082e+2, 165328.14, -234549.98, 35324.31, -0.013646464, -0.020945385, 168424.64, 168424.64, 0.000963626, 10.002475, 9.997155 
1.4351407e+3, 3.1506827e+2, 441051.34, 41784.695, 68118.72, -0.090023644, -0.06901769, 452353.13, 452353.13, 0.0018674937, 10.003661, 9.998498 
1.4450294e+3, 1.2507921e+2, -1848595.8, -1692769.0, 22470.107, 0.04311494, 0.036723513, -1689593.5, 24628.645, 0.011047917, 9.998589, 10.000814 
1.4450344e+3, 1.3507986e+2, -1844258.9, -1574501.4, 38630.832, -0.066650555, -0.05359553, -1569078.3, 47134.84, 0.00646129, 9.997759, 10.001348 
1.4450431e+3, 1.450796e+2, -1784531.4, -1551217.4, -6533.5205, 0.17644727, -0.19262876, -1551034.5, -32819.984, 0.0027186894, 9.99773, 10.000824 
1.445047e+3, 1.5508182e+2, -1562588.3, -1412107.5, -66597.93, -0.026488176, -0.087486155, -1386867.0, 33326.504, 0.0006559602, 9.99867, 10.000655 
1.4450528e+3, 1.650827e+2, -1501005.8, -1482450.9, 33121.664, -0.12210667, 0.0129113225, -1457331.9, -135146.33, 0.000052490832, 9.999057, 9.999325 
1.4450619e+3, 1.7508203e+2, -1349215.4, -1332513.0, 59269.387, 0.01884081, -0.04043829, -1281009.4, -56816.87, 0.00000012546444, 9.999326, 9.999545 
1.4450689e+3, 1.8508127e+2, -1205537.0, -1227173.1, -19304.688, 0.083429806, -0.057952292, -1194225.9, -68027.24, 0.0, 9.9996805, 9.999435 
1.4450732e+3, 1.9508009e+2, -1022891.56, -1068129.1, -65804.26, 0.02463265, -0.17145713, -975927.25, 52279.535, 0.0, 10.000191, 9.999596 
1.4450784e+3, 2.0507966e+2, -957805.4, -1100546.3, -10322.007, -0.01523662, -0.11482477, -957062.8, -26851.426, 0.0, 10.000448, 9.998583 
1.4450847e+3, 2.150797e+2, -835623.7, -974357.1, -22332.988, -0.008754509, -0.020505054, -832117.2, 98.17145, 0.0, 10.000549, 9.998725 
1.4450905e+3, 2.2507912e+2, -658720.2, -795509.44, -53232.184, 0.018033247, 0.040628213, -640445.94, 93774.64, 0.0, 10.000902, 9.999117 
1.4450955e+3, 2.3507763e+2, -462391.7, -630921.0, -73958.72, 0.054751847, -0.07223694, -434538.44, 201691.84, 0.0, 10.001498, 9.999282 
1.4451012e+3, 2.4507575e+2, -446379.7, -739547.44, 1142.427, 0.079429865, -0.10597174, -446375.25, 91872.086, 0.0, 10.001648, 9.997791 
1.4451073e+3, 2.5507313e+2, -354908.66, -629223.7, 4123.474, 0.09479508, -0.1977742, -354846.7, 85427.91, 0.000000012932129, 10.001526, 9.997939 
1.4451134e+3, 2.650717e+2, -227578.69, -495097.13, 48355.418, 0.057671852, -0.13554144, -219106.5, 123183.914, 0.0000016431604, 10.001648, 9.998125 
1.4451192e+3, 2.750711e+2, -39157.51, -331076.0, -1317.7793, -0.02946808, -0.058654886, -39151.563, 205146.05, 0.000019343763, 10.002179, 9.998317 
1.445125e+3, 2.8506938e+2, 93958.35, -286879.4, -32713.219, -0.06365735, -0.024884747, 96747.92, 243063.0, 0.000107424436, 10.002721, 9.9976845 
1.4451309e+3, 2.9506624e+2, 268178.8, -143008.5, -52045.473, -0.033622526, -0.17182863, 274664.1, 323008.97, 0.00041044338, 10.0032015, 9.99776 
1.4451385e+3, 3.0506518e+2, 323930.56, -159215.44, 43593.633, 0.058855243, -0.002462095, 327832.44, 327832.44, 0.0010681947, 10.003563, 9.997161 
1.4451443e+3, 3.1506297e+2, 422215.8, -9146.559, -4488.5645, -0.07004772, -0.018512491, 422262.53, 422262.53, 0.0020588713, 10.003726, 9.998106 
1.4550282e+3, 1.2507422e+2, -1859974.5, -1740623.4, -44443.676, -0.03915722, 0.009133225, -1725891.9, -11619.347, 0.011640448, 9.998694, 10.000434 
1.4550348e+3, 1.3507617e+2, -1906358.8, -1686917.5, 30326.344, 0.15859297, 0.10903646, -1682803.6, -66550.54, 0.0068325973, 9.997691, 10.00061 
1.4550386e+3, 1.4507523e+2, -1863609.4, -1717945.5, 9410.957, -0.118737556, 0.00638956, -1717340.0, -199075.69, 0.0028915813, 9.997743, 9.999671 
1.4550455e+3, 1.55076e+2, -1631337.1, -1548693.1, -15201.341, -0.080499955, 0.064036705, -1545985.8, -125725.08, 0.00070428615, 9.998648, 9.999726 
1.4550528e+3, 1.6507635e+2, -1406908.9, -1297313.5, 15503.162, -0.07151232, 0.09400116, -1295162.6, 27093.037, 0.000058062662, 9.999097, 10.00058 
1.455061e+3, 1.7507572e+2, -1276275.0, -1163838.1, 86911.86, -0.03984743, -0.07796598, -1116547.1, 107707.28, 0.00000016567238, 9.999253, 10.00074 
1.455068e+3, 1.850753e+2, -1265115.3, -1339547.4, -21135.357, -0.018679375, -0.08347881, -1259532.5, -133276.5, 0.0, 9.999626, 9.998695 
1.4550734e+3, 1.9507495e+2, -1095819.1, -1191209.9, -29512.607, -0.016315954, -0.035270188, -1087426.8, -59165.484, 0.0, 10.000059, 9.998823 
1.4550792e+3, 2.050742e+2, -972129.9, -1080207.9, -27789.734, -0.014646257, 0.017445834, -965403.06, -35133.527, 0.0, 10.000244, 9.998815 
1.4550857e+3, 2.1507274e+2, -861528.3, -960841.6, -337.5768, 0.007483842, -0.06336954, -861527.2, -29242.775, 0.0, 10.000269, 9.99895 
1.4550912e+3, 2.2507149e+2, -702194.1, -818042.75, -50980.484, -0.012084655, -0.08089381, -682954.75, 51339.95, 0.0, 10.000612, 9.999101 
1.455096e+3, 2.3507024e+2, -516799.8, -662948.0, -31562.457, -0.070613265, -0.16559786, -510274.84, 126027.81, 0.0, 10.00116, 9.999223 
1.455102e+3, 2.450694e+2, -445882.4, -675438.1, -20418.402, -0.0401244, -0.11812572, -444080.38, 94229.52, 0.0, 10.001367, 9.99837 
1.4551091e+3, 2.5506866e+2, -350676.5, -565070.0, 20814.225, 0.09046055, -0.08134215, -348674.47, 91645.016, 0.000000017460069, 10.001283, 9.9985 
1.4551155e+3, 2.650677e+2, -306684.25, -607670.5, 49375.707, 0.076287515, 0.032408208, -298791.3, 43540.727, 0.000002726617, 10.001423, 9.997458 
1.4551213e+3, 2.7506617e+2, -129333.07, -452092.25, 40729.32, -0.07069321, 0.079010375, -124272.734, 120077.695, 0.000025176965, 10.001899, 9.997614 
1.4551276e+3, 2.850641e+2, 51843.88, -305244.84, -34400.926, -0.11130034, 0.11670884, 55127.766, 201499.66, 0.00012773158, 10.002429, 9.997698 
1.4551345e+3, 2.9506132e+2, 229042.73, -154712.63, -7407.6025, -0.037242953, 0.0017433754, 229185.67, 277583.66, 0.00046832126, 10.002898, 9.997829 
1.4551419e+3, 3.050592e+2, 290942.63, -158437.31, 35196.94, 0.028364409, 0.04805617, 293682.66, 293682.66, 0.0012042039, 10.003266, 9.997307 
1.4551473e+3, 3.15056e+2, 317644.16, -113566.14, 48527.996, -0.21542251, -0.0775469, 323037.97, 323037.97, 0.0023127608, 10.003235, 9.997628 
1.4650258e+3, 1.2506735e+2, -2099321.3, -1900107.4, -27801.068, -0.0504521, -0.021586312, -1896300.4, -181961.4, 0.012283002, 9.99726, 10.000026 
1.4650337e+3, 1.3506946e+2, -1795933.1, -1625072.1, -95647.016, 0.2531167, 0.08485691, -1582257.9, 34062.32, 0.00723705, 9.99842, 10.000677 
1.465037e+3, 1.450697e+2, -1786997.6, -1711213.3, 39006.563, -0.065290466, 0.11684057, -1694724.1, -176403.8, 0.0030819494, 9.998371, 9.999432 
1.465045e+3, 1.5506954e+2, -1590360.6, -1535402.1, 39800.2, 0.010513735, 0.09044089, -1514516.5, -94191.47, 0.0007585455, 9.998935, 9.99969 
1.4650531e+3, 1.6506958e+2, -1391101.0, -1300579.0, 77081.78, 0.048282508, 0.09278256, -1256452.3, 65870.58, 0.00006440502, 9.999239, 10.000488 
1.4650609e+3, 1.7506923e+2, -1250600.3, -1163569.5, 9295.674, 0.01409411, -0.045250505, -1162587.8, 61732.004, 0.00000022299002, 9.999459, 10.000647 
1.4650679e+3, 1.850689e+2, -1226090.6, -1313959.1, -59596.168, 0.00809064, -0.034048762, -1195984.9, -69664.09, 0.0, 9.999903, 9.998716 
1.4650741e+3, 1.9506858e+2, -969292.94, -1119374.8, -50472.676, 0.027609479, 0.0087274, -953898.06, 74428.336, 0.0, 10.000906, 9.998891 
1.4650804e+3, 2.0506777e+2, -833245.25, -998149.4, -16739.22, 0.04008367, 0.04302989, -831563.2, 98771.805, 0.0, 10.001121, 9.998963 
1.4650865e+3, 2.150662e+2, -786887.0, -903212.8, -26041.742, 0.050630793, -0.06366362, -781323.2, 51025.953, 0.0, 10.000684, 9.999146 
1.4650923e+3, 2.250649e+2, -705986.25, -836878.25, -20553.87, 0.02909182, -0.08766329, -702834.56, 31524.99, 0.0, 10.00066, 9.998945 
1.4650975e+3, 2.350636e+2, -524644.44, -682869.5, -52706.008, -0.026264396, -0.16355729, -508695.3, 127674.17, 0.0, 10.00116, 9.999086 
1.4651038e+3, 2.4506292e+2, -410332.44, -663139.5, -39379.492, -0.0050422275, -0.09233421, -404340.34, 134035.81, 0.0, 10.00164, 9.998323 
1.4651108e+3, 2.550626e+2, -219335.66, -498662.06, -83685.234, 0.08353276, -0.007172865, -196182.92, 244198.86, 0.000000044837254, 10.0021925, 9.998508 
1.4651175e+3, 2.6506135e+2, -149907.38, -537714.94, -13794.614, 0.08554149, 0.080536835, -149417.31, 192978.66, 0.0000038968087, 10.00252, 9.9974165 
1.4651243e+3, 2.7505884e+2, -21679.408, -406923.56, -10408.853, 0.0071106395, 0.035531867, -21398.379, 223023.25, 0.000030518888, 10.002646, 9.997576 
1.4651307e+3, 2.8505656e+2, 41744.86, -327663.38, -37509.625, -0.025214573, 0.06358903, 45515.098, 191960.23, 0.00014669458, 10.002429, 9.997547 
1.465137e+3, 2.9505453e+2, 76265.32, -239591.13, -84986.52, -0.004547737, 0.044371672, 97680.43, 146146.69, 0.0005255453, 10.001911, 9.997715 
1.4651449e+3, 3.0505225e+2, 199403.23, -158040.56, 32236.809, 0.060136817, 0.05757328, 202287.31, 202287.31, 0.0013467413, 10.0024605, 9.997679 
1.4651522e+3, 3.1504965e+2, 420471.44, -26084.467, -10768.911, -0.045924403, -0.036191355, 420730.97, 420730.97, 0.0025879922, 10.00378, 9.997957 
1.4750236e+3, 1.2505849e+2, -2121124.5, -1953476.1, 177843.25, -0.098455064, -0.03848765, -1840692.3, -126269.59, 0.012969953, 9.997319, 9.999611 
1.4750299e+3, 1.3505958e+2, -1743978.4, -1503824.6, -73530.805, 0.002495532, -0.12022939, -1483099.4, 133316.34, 0.0076708426, 9.998374, 10.001525 
1.4750382e+3, 1.4506298e+2, -1705724.8, -1570164.9, 20662.654, 0.16124265, 0.13759793, -1567085.3, -48702.0, 0.0032881629, 9.99847, 10.0003605 
1.4750452e+3, 1.550626e+2, -1533948.1, -1412227.3, 76576.22, 0.094061516, 0.0006401191, -1375272.0, 45113.086, 0.00081847684, 9.998903, 10.000557 
1.4750528e+3, 1.6506256e+2, -1481491.8, -1495411.5, 63800.445, 0.055664435, 0.019116195, -1424272.8, -101886.984, 0.000071419374, 9.999267, 9.999137 
1.4750607e+3, 1.7506269e+2, -1359082.1, -1369428.5, 34244.727, 0.025733808, 0.06488572, -1329622.0, -105235.414, 0.0000002932695, 9.999383, 9.999265 
1.4750682e+3, 1.8506226e+2, -1177140.4, -1209796.8, -44710.746, 0.0032412556, 0.098285794, -1145869.6, -19478.336, 0.0, 9.999877, 9.999449 
1.4750752e+3, 1.9506095e+2, -937718.4, -1023088.56, 4133.6465, 0.0024136903, -0.0313841, -937518.7, 90884.13, 0.0, 10.000765, 9.999624 
1.4750811e+3, 2.050603e+2, -846588.06, -982786.25, -57128.188, -0.017905148, -0.026945464, -825798.94, 104609.164, 0.0, 10.000934, 9.999155 
1.4750865e+3, 2.1506011e+2, -815585.6, -899980.7, -27622.533, -0.041612837, -0.01521128, -807348.7, 25060.201, 0.0, 10.00042, 9.999292 
1.4750926e+3, 2.2505939e+2, -764637.8, -904256.44, -23036.646, -0.019855421, 0.026388457, -760935.06, -26519.857, 0.0, 10.000408, 9.998613 
1.4750996e+3, 2.3505773e+2, -580925.3, -747017.7, -15455.707, 0.036697738, -0.054510973, -579499.3, 56931.34, 0.0, 10.000923, 9.998767 
1.4751059e+3, 2.4505629e+2, -491135.1, -771872.44, -41017.938, 0.013052817, -0.01143235, -485264.78, 53181.0, 0.0, 10.001389, 9.997697 
1.4751115e+3, 2.5505483e+2, -305776.28, -614267.94, -44807.688, -0.07814165, 0.019945957, -299399.88, 141063.05, 0.000000082863835, 10.001917, 9.9978485 
1.4751188e+3, 2.650526e+2, -146791.31, -467040.34, -23896.814, -0.07058087, 0.0126939025, -145017.95, 197465.23, 0.0000048986644, 10.002241, 9.998032 
1.4751276e+3, 2.7504918e+2, -17133.336, -332360.28, 22478.844, 0.037145033, -0.18861231, -15538.4375, 228971.98, 0.00003489947, 10.002372, 9.998214 
1.4751339e+3, 2.8504694e+2, -39622.844, -436610.94, -77776.23, 0.012418762, -0.16012222, -24929.113, 121603.88, 0.00016199093, 10.002169, 9.996923 
1.475138e+3, 2.9504573e+2, -7574.5366, -347770.1, -80053.53, -0.13122773, -0.040825825, 10321.892, 58873.316, 0.0005774686, 10.001627, 9.997107 
1.4751469e+3, 3.0504408e+2, 204489.75, -78205.57, 65965.914, -0.028734295, 0.0313081, 219124.98, 219124.98, 0.0014808617, 10.002161, 9.998368 
1.475158e+3, 3.150436e+2, 419968.16, 102347.79, 95273.484, 0.086726606, 0.07260796, 446354.4, 446354.4, 0.0028432787, 10.003227, 9.9991045 
1.4850235e+3, 1.250497e+2, -2148225.8, -1966025.0, 181377.75, 0.19603145, -0.0005203565, -1854154.5, -139644.63, 0.013700781, 9.997113, 9.999633 
1.4850266e+3, 1.3505006e+2, -1723623.5, -1434683.8, -133921.28, -0.14468125, -0.20462501, -1382160.1, 234349.56, 0.00813248, 9.998208, 10.002105 
1.4850381e+3, 1.4505498e+2, -1668070.4, -1512454.9, -29843.18, 0.30109644, 0.15720712, -1506928.0, 11533.302, 0.0035089266, 9.998608, 10.000671 
1.485045e+3, 1.5505406e+2, -1454276.0, -1335857.9, -63788.88, 0.16259204, -0.06241947, -1308034.0, 112432.555, 0.0008836724, 9.999316, 10.000865 
1.4850524e+3, 1.6505395e+2, -1476648.3, -1481903.0, -30164.744, 0.084229924, -0.06618966, -1448996.8, -126529.164, 0.00007901186, 9.999303, 9.999197 
1.4850602e+3, 1.7505458e+2, -1411109.4, -1383065.9, 2760.9707, 0.051697705, 0.025291586, -1382796.6, -158331.69, 0.00000037325287, 9.999011, 9.999346 
1.4850679e+3, 1.8505454e+2, -1277347.4, -1225372.6, 34941.418, 0.036483537, 0.07585012, -1207814.0, -81347.57, 0.0, 9.99903, 9.99976 
1.4850755e+3, 1.9505353e+2, -1085085.0, -1055714.1, 14273.629, 0.021411661, -0.05557913, -1049920.4, -21445.486, 0.0, 9.99958, 9.999976 
1.4850819e+3, 2.0505314e+2, -953853.9, -1043339.5, -54522.71, 0.0065924684, -0.03891921, -928065.56, 2412.5315, 0.0, 10.000252, 9.9990635 
1.4850876e+3, 2.1505311e+2, -722032.3, -861807.0, -85708.91, 0.0017242065, 0.0011057684, -681329.2, 151148.77, 0.0, 10.001093, 9.999229 
1.4850941e+3, 2.2505245e+2, -619764.6, -858577.44, -39119.45, 0.033325315, 0.06315914, -613519.8, 120964.89, 0.0, 10.001527, 9.998376 
1.4851011e+3, 2.3505089e+2, -479363.5, -723584.8, -65661.02, 0.07379116, 0.020037375, -462829.34, 173671.08, 0.0, 10.001744, 9.998528 
1.4851078e+3, 2.4504909e+2, -408081.44, -743483.75, -31254.342, 0.042403482, 0.043294072, -405193.88, 133325.06, 0.0, 10.001999, 9.997604 
1.485114e+3, 2.550469e+2, -259629.19, -599385.0, -35106.844, -0.04966871, 0.010048817, -256039.55, 184502.34, 0.00000011463164, 10.002266, 9.997783 
1.4851214e+3, 2.6504442e+2, -99215.59, -421425.97, 15359.422, -0.034775306, -0.025844354, -98485.08, 244078.38, 0.000005857849, 10.002488, 9.998219 
1.4851303e+3, 2.7504137e+2, 44469.23, -282410.84, -23032.346, 0.073973395, -0.20751727, 46084.14, 290671.2, 0.000039275426, 10.002723, 9.998383 
1.4851369e+3, 2.8503925e+2, 98029.586, -381701.94, -80873.836, 0.066715114, -0.16774286, 111296.516, 257904.16, 0.00017769585, 10.0031595, 9.996826 
1.4851417e+3, 2.9503798e+2, 295690.44, -216849.63, -88773.01, -0.038452026, -0.04078444, 310630.6, 359256.84, 0.00063044037, 10.003758, 9.996996 
1.4851502e+3, 3.0503577e+2, 370350.47, -44253.883, 77167.23, 0.03774651, 0.002094635, 384247.22, 384247.22, 0.0016053733, 10.003463, 9.997999 
1.4851612e+3, 3.150348e+2, 260303.58, 40072.184, -65288.99, 0.15534268, 0.034860007, 278203.97, 278203.97, 0.0030593355, 10.002041, 9.999254 
1.4950217e+3, 1.2504035e+2, -2054416.0, -1804964.9, -186241.88, 0.19668803, 0.035343632, -1705542.0, 9064.594, 0.014485426, 9.997251, 10.000671 
1.495023e+3, 1.3504152e+2, -1709984.5, -1387689.0, -79993.32, -0.35855877, -0.12556934, -1368926.9, 247668.89, 0.008627366, 9.998144, 10.002452 
1.4950359e+3, 1.45046e+2, -1665874.3, -1550470.1, -35484.258, 0.15796095, 0.18593709, -1540432.5, -21881.303, 0.0037456865, 9.998762, 10.000346 
1.4950436e+3, 1.5504411e+2, -1486878.9, -1406437.8, -21190.027, 0.053753532, -0.08720332, -1401197.3, 19370.234, 0.0009542572, 9.999313, 10.000391 
1.4950508e+3, 1.6504392e+2, -1364427.9, -1266267.1, -66491.2, -0.04797606, -0.14785343, -1232703.9, 89863.055, 0.00008722728, 9.999368, 10.000646 
1.4950585e+3, 1.7504492e+2, -1319538.5, -1180245.1, 6647.9844, -0.051182467, -0.16275595, -1179928.6, 44626.21, 0.0000004647829, 9.998957, 10.000762 
1.4950663e+3, 1.8504581e+2, -1282996.4, -1234994.9, 32743.248, -0.059498556, -0.087302566, -1218398.1, -91852.35, 0.0, 9.999016, 9.999705 
1.4950743e+3, 1.9504638e+2, -1113814.3, -1081550.3, 48900.105, -0.07827358, -0.05419567, -1046189.94, -17648.047, 0.0, 9.999437, 9.999869 
1.4950821e+3, 2.050463e+2, -1001667.25, -1102859.1, -44084.168, -0.04952008, 0.015483456, -985156.06, -54611.855, 0.0, 10.000075, 9.998742 
1.4950895e+3, 2.1504526e+2, -781681.6, -926489.94, -37515.266, 0.047912795, -0.015514681, -772539.75, 60015.92, 0.0, 10.000843, 9.998903 
1.4950961e+3, 2.2504422e+2, -674364.8, -912858.7, -52503.426, 0.04284154, 0.038229883, -663318.06, 71248.766, 0.0, 10.001263, 9.9981365 
1.4951017e+3, 2.35043e+2, -533238.7, -774434.25, -39224.344, -0.06568161, 0.04901093, -527020.1, 109559.41, 0.0, 10.00148, 9.998306 
1.4951089e+3, 2.4504133e+2, -420335.06, -702653.3, -36352.68, -0.07913446, 0.07452439, -415729.25, 122866.36, 0.0, 10.001712, 9.998023 
1.4951171e+3, 2.5503877e+2, -271120.53, -562569.25, -2128.0876, 0.013371401, -0.036682524, -271104.97, 169513.86, 0.00000015644366, 10.001997, 9.998169 
1.4951248e+3, 2.6503676e+2, -175036.17, -502955.9, 4633.4097, 0.027215162, -0.027056595, -174970.72, 167666.9, 0.000006865855, 10.002173, 9.997804 
1.4951321e+3, 2.7503505e+2, -30268.12, -363737.3, 8272.55, -0.04228047, -0.031457517, -30063.023, 214591.03, 0.00004412461, 10.002421, 9.997964 
1.4951396e+3, 2.8503326e+2, 87225.23, -339770.56, -77339.766, -0.03495464, 0.03828234, 100801.75, 247473.08, 0.00019465707, 10.002875, 9.997253 
1.4951469e+3, 2.950311e+2, 282585.38, -174751.45, -33822.723, 0.07395273, 0.028877003, 285073.22, 333765.22, 0.00068079715, 10.00345, 9.9974375 
1.4951542e+3, 3.0502728e+2, 203655.16, -302010.94, 9046.936, 0.059353113, -0.028663222, 203816.97, 203816.97, 0.0017061009, 10.003104, 9.99639 
1.4951608e+3, 3.150233e+2, 102661.62, -168772.11, -58900.227, -0.16915345, -0.1392172, 114891.72, 114891.72, 0.003210883, 10.00154, 9.998057 
1.5050192e+3, 1.250332e+2, -2066506.0, -1774186.1, -95079.625, 0.2515249, 0.07899551, -1745981.9, -31303.635, 0.015336173, 9.997013, 10.001005 
1.5050225e+3, 1.3503413e+2, -1750857.0, -1470037.5, 31899.092, -0.2084518, -0.0529013, -1466459.6, 150208.84, 0.0091627855, 9.998118, 10.001905 
1.5050344e+3, 1.450368e+2, -1720382.5, -1589271.4, 59592.6, 0.16227405, 0.112754226, -1566233.4, -47591.69, 0.0040015904, 9.998466, 10.000219 
1.5050426e+3, 1.5503593e+2, -1620436.5, -1475461.9, 51194.332, 0.08642542, -0.04954774, -1459206.5, -38556.74, 0.001031135, 9.998435, 10.000337 
1.5050499e+3, 1.6503611e+2, -1480201.3, -1298269.1, 10033.032, -0.010657731, -0.08164536, -1297717.5, 24928.363, 0.000096309515, 9.998436, 10.000892 
1.5050575e+3, 1.7503682e+2, -1307566.9, -1139045.8, -42120.082, -0.028820707, -0.15506718, -1129104.8, 95530.67, 0.000000575819, 9.998863, 10.001094 
1.5050659e+3, 1.8503778e+2, -1240566.8, -1201773.4, 10004.69, -0.015308462, -0.09597388, -1199345.1, -72720.21, 0.0, 9.999271, 9.999794 
1.5050747e+3, 1.9503874e+2, -1029563.25, -1028464.6, 2200.7893, -0.02035383, -0.032511, -1026745.6, 1871.0558, 0.0, 9.999965, 9.999969 
1.5050827e+3, 2.0503852e+2, -943408.44, -1095704.6, -33431.504, -0.00033130366, 0.025739428, -936392.9, -5772.3086, 0.0, 10.00058, 9.998544 
1.5050904e+3, 2.1503682e+2, -734687.6, -927207.56, -60529.387, 0.051331155, -0.048103917, -717238.3, 115400.53, 0.0, 10.00127, 9.9986925 
1.5050976e+3, 2.250355e+2, -610324.56, -888803.7, -46030.453, 0.049854077, -0.0048209685, -602913.4, 131739.42, 0.0, 10.001747, 9.998059 
1.505104e+3, 2.3503444e+2, -460313.25, -746841.25, -63984.01, -0.017368918, 0.026554497, -446674.34, 189989.7, 0.0, 10.002021, 9.99823 
1.5051112e+3, 2.4503286e+2, -367954.97, -639304.5, -36359.914, -0.009688543, 0.05135048, -363167.34, 175510.9, 0.0, 10.001923, 9.998348 
1.5051192e+3, 2.550305e+2, -316190.06, -545158.4, -53074.324, 0.061833594, -0.07119846, -304485.84, 136212.36, 0.00000020302433, 10.001533, 9.998503 
1.505127e+3, 2.6502886e+2, -252955.53, -550661.9, 23995.09, 0.062266603, -0.037471253, -251033.94, 91679.9, 0.0000077496, 10.001666, 9.997728 
1.5051347e+3, 2.750277e+2, -49375.117, -385932.06, 17393.594, -0.0073911706, 0.018073382, -48478.586, 196248.72, 0.000048509926, 10.002311, 9.997882 
1.5051426e+3, 2.8502586e+2, 72203.21, -322736.9, -22145.713, 0.007392345, 0.08241407, 73441.125, 220185.84, 0.00020995413, 10.002682, 9.997455 
1.5051503e+3, 2.9502332e+2, 222666.03, -171376.44, -57595.695, 0.11718637, 0.011402161, 230912.02, 279679.53, 0.00072207913, 10.00294, 9.997676 
1.5051576e+3, 3.0501974e+2, 206492.02, -359758.6, 28531.123, 0.088437535, -0.012096316, 207925.95, 207925.95, 0.0017713133, 10.003353, 9.995893 
1.5051638e+3, 3.150152e+2, 343257.1, -92499.97, -23532.732, -0.084595814, -0.118721746, 344524.25, 344524.25, 0.0032800343, 10.003348, 9.997733 
1.5150157e+3, 1.2502839e+2, -2052483.0, -1802128.0, -39090.383, 0.08865008, 0.105610944, -1796166.5, -81443.086, 0.016257107, 9.997247, 10.00071 
1.5150248e+3, 1.3502821e+2, -1885440.6, -1723809.4, 103566.89, 0.16432776, 0.019945795, -1673258.0, -56533.684, 0.009740974, 9.998036, 10.000189 
1.5150328e+3, 1.4502785e+2, -1694724.6, -1574468.3, 30909.186, 0.09332335, -0.027022514, -1566989.0, -48260.492, 0.0042781597, 9.998609, 10.0002575 
1.5150416e+3, 1.5502955e+2, -1608419.1, -1458467.0, 65712.164, 0.09564625, 0.054748606, -1433746.0, -13032.602, 0.0011151112, 9.99846, 10.000443 
1.5150492e+3, 1.6503054e+2, -1520228.5, -1406232.4, -611.67566, 0.015104405, 0.13598306, -1406229.0, -83524.57, 0.000106548556, 9.998532, 10.000105 
1.5150568e+3, 1.7503035e+2, -1368062.3, -1261130.5, -10803.231, -0.023614263, 0.048511755, -1260050.0, -35343.957, 0.0000007145684, 9.9988365, 10.000274 
1.5150657e+3, 1.8503049e+2, -1220440.5, -1156827.5, 14225.71, -0.0021260476, 0.052509412, -1153791.1, -27087.965, 0.0, 9.999258, 10.000107 
1.5150756e+3, 1.950307e+2, -1030662.7, -995209.56, 43624.79, 0.045960333, 0.008529085, -965847.3, 62851.324, 0.0, 9.999819, 10.000264 
1.5150836e+3, 2.0502992e+2, -983449.75, -1133726.0, -29178.691, -0.007676462, 0.007407041, -977983.06, -47277.547, 0.0, 10.00038, 9.998383 
1.51509e+3, 2.1502796e+2, -782325.1, -965088.7, -16199.884, -0.13500604, -0.0812209, -780900.25, 51825.746, 0.0, 10.001002, 9.998564 
1.5150979e+3, 2.2502647e+2, -651638.2, -904764.5, -53912.492, -0.112236574, -0.052511122, -640633.94, 94107.21, 0.0, 10.001444, 9.998099 
1.515107e+3, 2.3502523e+2, -499543.78, -764148.25, -32658.613, 0.06807607, -0.038823303, -495572.53, 141180.95, 0.0, 10.001746, 9.998245 
1.5151143e+3, 2.450238e+2, -398331.94, -639405.8, -71182.98, 0.07816285, -0.007916563, -378882.56, 159883.58, 0.0, 10.001641, 9.998487 
1.5151198e+3, 2.5502196e+2, -340293.84, -539712.9, -47233.473, -0.0652747, -0.09694683, -329672.1, 111109.37, 0.00000026346208, 10.001283, 9.998665 
1.5151274e+3, 2.6502055e+2, -273767.4, -521601.44, 32700.494, -0.091171496, -0.06578579, -269525.34, 73268.92, 0.000008336701, 10.001367, 9.998071 
1.5151376e+3, 2.750193e+2, -71612.586, -358251.13, 68469.55, 0.010557775, -0.049648985, -56097.063, 188709.48, 0.00005112129, 10.0020075, 9.998217 
1.5151456e+3, 2.8501734e+2, 10753.07, -375996.34, -32989.973, 0.0013383274, -0.005947541, 13546.953, 160372.92, 0.00022272031, 10.00236, 9.99724 
1.5151516e+3, 2.950145e+2, 160373.17, -231212.94, -20423.441, -0.09848078, -0.090379335, 161435.48, 210289.7, 0.0007570034, 10.002639, 9.997407 
1.5151598e+3, 3.050127e+2, 197943.14, -286085.5, 13107.521, -0.05622308, 0.046703905, 198297.84, 198297.84, 0.0018118907, 10.002994, 9.996556 
1.5151694e+3, 3.1501007e+2, 307403.75, -24101.207, 50713.043, 0.0699436, 0.05355921, 314988.22, 314988.22, 0.0032889545, 10.00278, 9.998457 
1.5250115e+3, 1.2501937e+2, -2062767.3, -1768444.9, -133406.64, -0.0127185825, 0.044194933, -1716976.4, -2163.101, 0.017244658, 9.997048, 10.001017 
1.5250243e+3, 1.3502021e+2, -1828283.1, -1702694.6, -13103.838, 0.30810705, 0.06018388, -1701342.0, -84539.07, 0.010359608, 9.998484, 10.0001 
1.5250315e+3, 1.4501877e+2, -1706829.4, -1591506.0, -23704.12, 0.11643071, -0.07841469, -1586823.9, -68006.266, 0.0045741852, 9.998595, 10.0001335 
1.52504e+3, 1.5502132e+2, -1598432.3, -1446787.9, -46022.594, 0.10167404, 0.086665094, -1433913.5, -13118.07, 0.0012060112, 9.998496, 10.000498 
1.5250482e+3, 1.650225e+2, -1526790.0, -1431903.3, -24471.744, 0.054126006, 0.19565842, -1425963.8, -103177.87, 0.000118081814, 9.99862, 9.999877 
1.5250564e+3, 1.7502223e+2, -1286530.1, -1240266.5, -32598.53, 0.027812349, 0.12317167, -1223426.5, 1362.9502, 0.0000008766353, 9.999502, 10.000087 
1.5250656e+3, 1.8502215e+2, -1172549.3, -1132149.5, 17105.617, 0.06390436, 0.11365986, -1125879.8, 909.2185, 0.0, 9.99957, 10.000142 
1.5250757e+3, 1.95022e+2, -1132066.8, -1042545.94, -12971.817, 0.126605, 0.03489559, -1040704.1, -11917.301, 0.0, 9.999101, 10.000303 
1.5250842e+3, 2.0502137e+2, -1059838.8, -1131968.9, 962.59814, 0.06393637, 0.029053537, -1059825.9, -129034.375, 0.0, 9.999659, 9.998751 
1.5250914e+3, 2.1502008e+2, -711154.8, -888964.8, 15394.032, -0.124867246, -0.031389467, -709831.9, 122972.63, 0.0, 10.0012865, 9.998955 
1.5250996e+3, 2.2501877e+2, -592383.0, -858328.44, -8874.263, -0.092449024, -0.015083769, -592087.25, 142729.8, 0.0, 10.001756, 9.998278 
1.5251093e+3, 2.3501718e+2, -582874.94, -782364.1, -14404.222, 0.1531135, -0.05183429, -581840.25, 54991.066, 0.0, 10.001068, 9.998449 
1.5251166e+3, 2.450157e+2, -464818.06, -691765.44, 1224.4075, 0.16926937, -0.02758877, -464811.47, 74033.34, 0.0, 10.00129, 9.998283 
1.5251218e+3, 2.5501412e+2, -179444.55, -479860.34, -41099.57, -0.040206954, -0.069031365, -173923.23, 266936.2, 0.0000003530132, 10.002481, 9.998485 
1.5251295e+3, 2.6501262e+2, -74267.39, -417063.94, 34025.26, -0.06865007, -0.04091636, -70922.75, 271950.03, 0.000008619123, 10.002668, 9.998171 
1.52514e+3, 2.750111e+2, -89688.234, -345234.22, 7959.376, 0.07600557, -0.07224529, -89440.56, 155446.08, 0.000051931653, 10.001797, 9.998396 
1.5251482e+3, 2.8500894e+2, -35894.8, -399252.84, -14642.99, 0.060064714, -0.05631561, -35305.656, 111601.5, 0.00023518385, 10.002022, 9.997267 
1.5251544e+3, 2.9500604e+2, 255767.44, -191688.61, -25618.838, -0.09855185, -0.13757485, 257229.45, 306166.16, 0.000791527, 10.003282, 9.997409 
1.525163e+3, 3.0500498e+2, 333883.5, -166505.78, 18538.691, -0.03546159, 0.048834044, 334569.4, 334569.4, 0.0018473582, 10.003679, 9.99706 
1.5251735e+3, 3.1500292e+2, 347628.2, 2280.4163, -42031.332, 0.20268172, 0.06648211, 352670.1, 352670.1, 0.0032843088, 10.002998, 9.998545 
1.5350091e+3, 1.2500769e+2, -1995010.1, -1663824.3, -62641.67, -0.056409027, 0.031589143, -1652372.0, 62561.242, 0.018294634, 9.997186, 10.0016775 
1.5350205e+3, 1.350103e+2, -1723821.0, -1492356.8, 43007.543, 0.045518503, 0.07785733, -1484624.0, 132278.38, 0.011016667, 9.9985075, 10.001542 
1.5350299e+3, 1.4500982e+2, -1691651.6, -1606495.4, -60112.168, 0.028417103, -0.021012926, -1575409.6, -56503.15, 0.0048880493, 9.998783, 9.999948 
1.5350373e+3, 1.550115e+2, -1610800.4, -1458116.6, -36894.586, -0.052269448, 0.064882085, -1449668.8, -28775.3, 0.0013030368, 9.998444, 10.000447 
1.5350461e+3, 1.6501231e+2, -1493569.3, -1385447.8, -17525.688, -0.05721454, 0.12387513, -1382678.0, -59790.55, 0.00013086536, 9.998702, 10.000162 
1.5350558e+3, 1.7501251e+2, -1274441.0, -1204661.4, 14279.935, -0.019354938, 0.07301606, -1201852.1, 23033.205, 0.0000010420176, 9.999456, 10.000353 
1.5350652e+3, 1.8501279e+2, -1193539.0, -1177692.3, -25849.691, 0.015456186, 0.10218486, -1158578.9, -31697.06, 0.0, 9.999571, 9.999831 
1.5350746e+3, 1.9501263e+2, -1163109.8, -1086815.0, -16484.03, 0.07753514, 0.04846992, -1083405.8, -54524.29, 0.0, 9.999007, 10.000047 
1.5350841e+3, 2.0501278e+2, -1025343.56, -1012927.0, 42438.207, 0.049133137, 0.086899035, -976245.4, -45366.5, 0.0, 9.999457, 9.9996605 
1.5350933e+3, 2.1501309e+2, -695207.8, -783579.25, 92786.35, -0.07250908, 0.095459655, -636623.5, 196251.78, 0.0, 10.000983, 9.999819 
1.535102e+3, 2.2501232e+2, -619066.44, -835689.2, -55099.938, -0.0633871, 0.10770093, -605856.8, 129024.21, 0.0, 10.001416, 9.998596 
1.53511e+3, 2.3501019e+2, -596468.9, -749850.1, -21104.865, 0.09356497, -0.02013485, -593617.9, 43280.906, 0.0, 10.000801, 9.998803 
1.5351176e+3, 2.4500841e+2, -555131.94, -800787.1, 27799.717, 0.1001912, -0.014860846, -552025.25, -13109.284, 0.0, 10.000967, 9.997684 
1.5351248e+3, 2.550068e+2, -268455.5, -595056.75, 24449.4, -0.019888612, 0.00040761154, -266635.34, 174298.64, 0.0000004707298, 10.002198, 9.997826 
1.5351328e+3, 2.6500505e+2, -120121.6, -447966.72, -20083.346, -0.04949267, 0.040380917, -118895.91, 224054.61, 0.0000086272985, 10.002388, 9.998094 
1.5351415e+3, 2.7500287e+2, -128189.414, -373425.47, -7555.508, 0.013127995, -0.045821622, -127956.85, 117011.7, 0.000052741245, 10.001573, 9.99831 
1.53515e+3, 2.850005e+2, -58240.832, -383011.1, 13698.028, 0.002173491, -0.06523409, -57664.11, 89326.336, 0.00024875673, 10.001748, 9.997514 
1.5351583e+3, 2.949979e+2, 225382.33, -179061.84, 52729.418, -0.07443155, -0.144284, 232143.89, 281160.03, 0.00082812813, 10.002955, 9.997651 
1.535167e+3, 3.049966e+2, 293352.53, -169840.19, -24526.62, -0.044673804, 0.0043854746, 294647.63, 294647.63, 0.0018930162, 10.00334, 9.997195 
1.5351748e+3, 3.1499362e+2, 225259.69, -112555.81, -1480.7478, -0.028176572, -0.09796108, 225266.19, 225266.19, 0.0033105733, 10.002422, 9.998021 
1.5450081e+3, 1.249975e+2, -1934803.6, -1639150.9, 132244.42, 0.12292867, 0.008610841, -1588631.0, 126402.24, 0.019406972, 9.997618, 10.001641 
1.5450183e+3, 1.3500106e+2, -1801646.0, -1501688.9, 59595.168, 0.016979378, 0.1163796, -1490282.4, 126712.04, 0.0117135905, 9.997807, 10.001828 
1.5450282e+3, 1.4500089e+2, -1878926.6, -1661378.1, -20690.607, 0.061061814, 0.019573322, -1659427.8, -140432.73, 0.0052204016, 9.997356, 10.000264 
1.5450358e+3, 1.550021e+2, -1594789.8, -1408422.1, 2446.1929, -0.041694026, 0.020316577, -1408390.1, 12594.414, 0.0014059248, 9.998353, 10.000847 
1.5450451e+3, 1.6500285e+2, -1476676.5, -1387797.0, 75046.94, -0.0335599, 0.057928707, -1345019.0, -22040.77, 0.00014487762, 9.998882, 10.000048 
1.5450552e+3, 1.7500341e+2, -1322675.9, -1243052.5, 35099.96, 0.006800209, 0.05219028, -1229788.9, -4815.413, 0.000001197513, 9.999189, 10.0002165 
1.5450647e+3, 1.8500355e+2, -1227251.3, -1211707.1, 7293.8833, 0.043179132, 0.08753467, -1208820.6, -81848.97, 0.0, 9.99944, 9.999647 
1.5450741e+3, 1.9500305e+2, -1036152.8, -1038774.9, -10784.801, 0.089842096, 0.013725658, -1026599.7, 2375.4944, 0.0, 9.999964, 9.999901 
1.545084e+3, 2.0500338e+2, -937967.4, -931971.3, 82249.56, 0.087985836, 0.05915066, -852665.2, 78305.836, 0.0, 9.999904, 10.0 
1.5450944e+3, 2.150044e+2, -909542.25, -851167.44, 51685.645, 0.020852653, 0.10835503, -820997.4, 11963.176, 0.0, 9.999359, 10.000143 
1.5451035e+3, 2.25004e+2, -828895.1, -900173.94, -78449.445, 0.034891993, 0.1290028, -778369.1, -43406.4, 0.0, 9.99985, 9.998889 
1.5451114e+3, 2.3500201e+2, -473032.94, -651416.8, -95018.66, 0.123304434, -0.014573171, -431903.16, 205076.3, 0.0, 10.001519, 9.999114 
1.5451194e+3, 2.4500032e+2, -375214.13, -728648.56, 3020.248, 0.13731472, -0.00957481, -375188.3, 163807.75, 0.000000000009610117, 10.002243, 9.9975815 
1.5451276e+3, 2.5499877e+2, -301378.88, -622646.06, 4636.9805, 0.08192157, 0.023503155, -301311.97, 139702.02, 0.0000005675007, 10.002, 9.997751 
1.545136e+3, 2.64997e+2, -177676.77, -491271.88, -8531.603, 0.05309637, 0.07375582, -177444.83, 165586.53, 0.000008574752, 10.002088, 9.997936 
1.5451437e+3, 2.7499464e+2, 2362.7063, -338863.94, -43875.875, 0.03402649, -0.0073066386, 7914.074, 252966.39, 0.00005426492, 10.002582, 9.998073 
1.5451524e+3, 2.8499225e+2, 87258.68, -287631.25, 29309.174, 0.027811361, -0.02586321, 89536.26, 236610.97, 0.00026286932, 10.002673, 9.997689 
1.5451618e+3, 2.9498988e+2, 151435.45, -193038.08, 8651.575, 0.01805477, -0.09469291, 151652.6, 200750.38, 0.0008685198, 10.002386, 9.9978 
1.5451707e+3, 3.0498853e+2, 257719.63, -124177.484, -21418.752, 0.038086157, 0.0053798445, 258917.16, 258917.16, 0.001960017, 10.002803, 9.99778 
1.545178e+3, 3.149863e+2, 411100.2, -25511.238, -56098.547, -0.0022146937, -0.06534853, 418192.84, 418192.84, 0.0033962065, 10.003686, 9.998022 
1.5550049e+3, 1.2498846e+2, -1938991.1, -1685683.8, 19750.57, -0.056560036, -0.03664282, -1684153.0, 30963.67, 0.020587768, 9.9978, 10.001221 
1.5550166e+3, 1.349928e+2, -1862225.4, -1606442.3, 37660.58, 0.033280972, 0.22448121, -1601012.6, 16063.369, 0.012455585, 9.997741, 10.001135 
1.5550257e+3, 1.4499192e+2, -1795715.6, -1516376.8, -19432.7, 0.02606074, 0.04260801, -1515031.3, 4052.4744, 0.0055746003, 9.997458, 10.001217 
1.5550345e+3, 1.5499327e+2, -1535329.1, -1282898.3, 58962.387, -0.028415266, -0.03393297, -1269805.0, 151262.02, 0.001515748, 9.998349, 10.001711 
1.5550442e+3, 1.649944e+2, -1493097.1, -1447396.1, 65775.98, -0.052651238, 0.023720821, -1400614.6, -77558.87, 0.00016035176, 9.998982, 9.999596 
1.5550543e+3, 1.7499492e+2, -1364203.5, -1316500.3, 59399.21, -0.033659775, 0.066658154, -1276342.9, -51289.13, 0.0000013687348, 9.999135, 9.999741 
1.555064e+3, 1.8499461e+2, -1237739.5, -1218009.3, 4651.815, -0.013891554, 0.07748808, -1216967.5, -89910.38, 0.0, 9.999382, 9.999628 
1.5550736e+3, 1.9499332e+2, -1070535.5, -1062690.4, 25853.56, 0.009948806, -0.068604834, -1040463.5, -11396.317, 0.0, 9.999775, 9.999823 
1.5550837e+3, 2.0499319e+2, -977540.1, -981665.75, 41281.234, 0.014671076, -0.04894592, -938270.2, -7202.804, 0.0, 9.999745, 9.999745 
1.555094e+3, 2.1499407e+2, -956162.75, -901084.25, 50042.7, 0.016134357, 0.013811794, -871503.56, -38444.3, 0.0, 9.999143, 9.999914 
1.5551037e+3, 2.2499399e+2, -860217.2, -898210.75, -34145.97, 0.033366248, 0.065945536, -840139.3, -105078.98, 0.0, 9.99956, 9.999042 
1.5551127e+3, 2.3499258e+2, -503918.56, -659702.6, -14110.432, 0.08670245, -0.03297952, -502650.8, 134422.92, 0.0, 10.00127, 9.999183 
1.5551215e+3, 2.4499133e+2, -386077.84, -681531.75, -21970.436, 0.101611, -0.010071939, -384453.03, 154633.05, 0.0, 10.001941, 9.998052 
1.5551302e+3, 2.5499007e+2, -303301.66, -568588.9, 14824.943, 0.10490154, 0.0013591984, -302475.78, 138623.23, 0.0000005355393, 10.001747, 9.998245 
1.5551384e+3, 2.6498842e+2, -244391.8, -563153.9, -5187.013, 0.06743261, 0.057888635, -244307.42, 98808.34, 0.000008556659, 10.001806, 9.997572 
1.5551461e+3, 2.7498627e+2, -66734.59, -414505.72, 1628.4146, -0.0073873154, 0.02892098, -66726.97, 178411.31, 0.000056489618, 10.002297, 9.997683 
1.5551548e+3, 2.8498417e+2, 36177.934, -321133.63, 2425.2869, -0.033260588, 0.061652888, 36194.395, 183354.66, 0.00027893353, 10.002367, 9.997602 
1.5551643e+3, 2.949819e+2, 105421.664, -213967.8, 23034.436, -0.00858097, 0.003348978, 107074.37, 156257.44, 0.0009153457, 10.002077, 9.997797 
1.5551737e+3, 3.0498052e+2, 265251.9, -28236.912, -7240.621, 0.023463093, 0.059735533, 265430.44, 265430.44, 0.0020539248, 10.002479, 9.998585 
1.5551817e+3, 3.1498042e+2, 345710.66, -2474.9119, 23751.867, -0.049914017, 0.11317091, 347323.44, 347323.44, 0.0035508792, 10.003048, 9.998468 
1.5650034e+3, 1.2498012e+2, -1926334.3, -1728723.5, 44726.43, 0.0097577525, -0.05203404, -1719071.6, -3877.3674, 0.021849003, 9.998097, 10.0007925 
1.565014e+3, 1.3498391e+2, -1982265.8, -1685646.1, 39114.938, 0.059294004, 0.18990575, -1680574.8, -63414.63, 0.013250772, 9.9970045, 10.000954 
1.5650235e+3, 1.4498252e+2, -1867219.3, -1548998.5, 89360.83, 0.07797806, -0.046151027, -1525622.0, -6448.4023, 0.0059556314, 9.996973, 10.001218 
1.5650336e+3, 1.5498443e+2, -1577746.3, -1321452.3, 46546.92, 0.06612679, -0.050805014, -1313260.5, 107890.664, 0.0016345053, 9.998138, 10.001538 
1.5650436e+3, 1.6498566e+2, -1548683.4, -1485401.5, 39207.418, 0.0121036135, 0.02699767, -1466660.1, -143521.31, 0.00017771397, 9.9986315, 9.999518 
1.5650536e+3, 1.7498568e+2, -1384862.9, -1333993.0, 34734.246, -0.008197139, 0.025584431, -1316376.8, -91235.3, 0.0000016137079, 9.998995, 9.999702 
1.5650637e+3, 1.8498528e+2, -1256892.0, -1225589.0, 40558.336, 0.023192976, 0.026802748, -1197767.0, -70621.5, 0.0, 9.999228, 9.999659 
1.5650737e+3, 1.9498436e+2, -1098254.4, -1077380.1, 32203.432, 0.061924204, -0.08586308, -1053964.8, -24812.719, 0.0, 9.999558, 9.999841 
1.5650837e+3, 2.049841e+2, -988954.4, -1003138.75, 73353.234, 0.062200204, -0.07081983, -922351.25, 8802.461, 0.0, 9.999792, 9.999549 
1.5650937e+3, 2.1498439e+2, -799480.25, -835826.0, 42664.18, 0.027605446, -0.050731793, -771279.8, 61871.9, 0.0, 10.00032, 9.999766 
1.5651038e+3, 2.2498424e+2, -710318.1, -849631.5, 21813.65, 0.05211449, 0.013390896, -706982.44, 28172.215, 0.0, 10.000659, 9.998866 
1.5651143e+3, 2.3498346e+2, -583320.94, -708604.3, -6732.674, 0.1370199, -0.00947016, -582960.2, 54204.438, 0.0, 10.000758, 9.999095 
1.5651235e+3, 2.4498259e+2, -473772.9, -665414.44, -13975.542, 0.16153017, 0.028901834, -472759.1, 66414.49, 0.0, 10.001074, 9.998583 
1.565132e+3, 2.549814e+2, -284409.75, -497234.56, -9816.736, 0.12301012, -0.00320619, -283957.9, 157226.08, 0.00000039469393, 10.001606, 9.998796 
1.5651405e+3, 2.6498e+2, -205659.06, -543595.1, 26140.307, 0.08410276, 0.04290337, -203648.98, 139549.92, 0.000008163994, 10.002063, 9.997587 
1.5651488e+3, 2.749781e+2, -51448.863, -404643.53, 15251.562, 0.039453804, 0.04238665, -50791.496, 194429.0, 0.000058543963, 10.002387, 9.997709 
1.5651578e+3, 2.8497618e+2, 74741.47, -318636.34, 56684.266, 0.019302592, 0.10739002, 82746.555, 229987.47, 0.00029613846, 10.00269, 9.997493 
1.5651672e+3, 2.949742e+2, 241192.25, -162483.33, 24472.156, 0.024875127, 0.09395094, 242670.42, 291931.9, 0.00096601876, 10.003048, 9.997711 
1.5651767e+3, 3.04972e+2, 404294.34, 53637.64, 31434.13, 0.06101918, 0.061434094, 407089.94, 407089.94, 0.0021664368, 10.003354, 9.998726 
1.565186e+3, 3.1497222e+2, 411531.44, 34768.633, -70759.766, 0.057713024, 0.14892423, 424382.5, 424382.5, 0.0037575373, 10.003415, 9.9985695 
1.5750024e+3, 1.2497196e+2, -1923905.4, -1763267.6, -47844.305, 0.0061379923, -0.07747096, -1750097.5, -34825.98, 0.023204513, 9.998244, 10.000494 
1.5750098e+3, 1.3497458e+2, -1950561.6, -1621972.3, 16807.938, -0.0965928, 0.029349228, -1621114.6, -3869.2336, 0.014108494, 9.997018, 10.001379 
1.5750207e+3, 1.4497304e+2, -1903366.4, -1664314.4, 108846.766, 0.042158373, -0.21519212, -1622180.0, -102919.09, 0.0063687824, 9.99714, 10.00035 
1.5750326e+3, 1.5497561e+2, -1676030.1, -1514135.9, 100114.586, 0.10666253, -0.024761407, -1466337.6, -45100.586, 0.00176415, 9.9981, 10.000233 
1.5750425e+3, 1.6497658e+2, -1509065.1, -1419550.9, 26873.668, -0.012022151, 0.07449724, -1412102.8, -88874.7, 0.00019721544, 9.998692, 9.999942 
1.5750523e+3, 1.749757e+2, -1357096.6, -1269239.1, 65365.086, -0.07127865, -0.06671903, -1234413.0, -9176.893, 0.0000019795527, 9.998962, 10.000161 
1.575063e+3, 1.8497571e+2, -1244624.3, -1200191.9, 31814.588, -0.015047443, -0.057371117, -1183604.4, -56369.11, 0.0, 9.999221, 9.999838 
1.5750739e+3, 1.9497639e+2, -1112889.6, -1068716.6, 58423.637, 0.09488098, -0.02245895, -1028344.0, 883.48285, 0.0, 9.999393, 9.999978 
1.5750837e+3, 2.0497625e+2, -1034755.06, -1056392.4, 70207.7, 0.05450973, 0.008207505, -974537.4, -43308.8, 0.0, 9.999599, 9.999279 
1.575093e+3, 2.1497503e+2, -859536.3, -901883.44, 76195.79, -0.09586029, -0.09288476, -801626.94, 31613.463, 0.0, 10.000065, 9.999439 
1.5751036e+3, 2.2497454e+2, -768876.5, -906936.0, 9026.086, -0.075845934, -0.033921763, -768288.9, -33041.168, 0.0, 10.000384, 9.998601 
1.5751152e+3, 2.3497458e+2, -645320.0, -772171.4, 12593.767, 0.12453835, 0.053692173, -644081.8, -6829.2334, 0.0, 10.00048, 9.998792 
1.5751249e+3, 2.4497405e+2, -482362.0, -607468.94, -12547.039, 0.14883916, 0.11280368, -481116.06, 58142.996, 0.0, 10.000746, 9.999136 
1.5751328e+3, 2.5497276e+2, -288702.9, -441747.66, 27778.164, 0.002591459, 0.009531539, -283817.06, 157452.11, 0.00000029448665, 10.001328, 9.999307 
1.5751415e+3, 2.6497155e+2, -229524.1, -527361.9, 18357.113, -0.04097657, 0.041879043, -228396.94, 114884.195, 0.000007127328, 10.001778, 9.997839 
1.5751512e+3, 2.7497e+2, -65003.746, -375628.72, 47764.57, 0.011167571, 0.045763627, -57824.934, 187474.48, 0.000059012113, 10.002147, 9.998025 
1.5751605e+3, 2.8496832e+2, 23254.188, -372850.47, 49172.168, 0.0015540698, 0.12713908, 29267.111, 176584.64, 0.00030982727, 10.002457, 9.997232 
1.5751697e+3, 2.949668e+2, 170779.97, -228902.89, 68673.64, -0.056502644, 0.18040152, 182250.31, 231583.3, 0.0010139579, 10.002707, 9.997417 
1.5751794e+3, 3.0496293e+2, 312156.47, -48611.754, 19036.889, -0.03797626, 0.028812306, 313158.22, 313158.22, 0.002282277, 10.002995, 9.998177 
1.5751892e+3, 3.1496185e+2, 307181.3, -26266.572, -7860.6265, -0.01863755, 0.022723604, 307366.53, 307366.53, 0.0039791334, 10.002785, 9.998424 
1.5850003e+3, 1.249637e+2, -2093122.3, -1849664.5, -60141.99, 0.057856523, -0.011910041, -1835617.9, -120264.19, 0.024665277, 9.997114, 10.000424 
1.5850079e+3, 1.3496521e+2, -1819392.1, -1580495.1, -89168.21, -0.024659354, 0.0050137406, -1550883.5, 66453.54, 0.0150364665, 9.997999, 10.001189 
1.5850188e+3, 1.4496365e+2, -1720378.0, -1618983.4, 35795.21, 0.09483039, -0.21851932, -1607620.1, -88267.58, 0.0068181083, 9.998567, 9.999978 
1.585031e+3, 1.549658e+2, -1657675.1, -1558868.6, 41255.04, 0.13561794, -0.022900233, -1543908.4, -122574.484, 0.0019058621, 9.998431, 9.999775 
1.5850411e+3, 1.6496655e+2, -1553230.4, -1409511.8, 29833.422, 0.027287044, 0.06578601, -1403564.9, -80238.33, 0.0002187055, 9.9982815, 10.000197 
1.5850517e+3, 1.7496575e+2, -1386106.8, -1246611.4, 10149.342, 0.010492411, -0.09523974, -1245876.8, -20544.375, 0.000002466339, 9.998636, 10.000464 
1.585063e+3, 1.8496594e+2, -1286199.5, -1236303.0, -2712.5576, 0.07953201, -0.07561831, -1236156.0, -108826.13, 0.0, 9.999009, 9.99969 
1.5850736e+3, 1.9496685e+2, -1072469.0, -1063965.0, -34111.777, 0.12756248, -0.0025125933, -1033841.2, -4519.7124, 0.0, 9.999729, 9.9998455 
1.5850836e+3, 2.0496665e+2, -979378.4, -1052966.4, 4740.1865, 0.06564094, 0.036137857, -979074.3, -47750.605, 0.0, 10.000041, 9.999107 
1.5850933e+3, 2.1496506e+2, -860368.75, -923059.9, -9428.039, -0.072268546, -0.08669047, -858981.56, -25642.996, 0.0, 10.000096, 9.999296 
1.585104e+3, 2.2496451e+2, -780315.06, -873111.9, -15791.318, -0.03785575, -0.043561906, -777701.44, -42355.574, 0.0, 10.000176, 9.998929 
1.5851158e+3, 2.3496483e+2, -611130.7, -723422.3, -7175.6865, 0.14974058, 0.047100067, -610674.0, 26673.13, 0.0, 10.000578, 9.999094 
1.5851259e+3, 2.449645e+2, -473617.47, -585661.1, 7019.538, 0.18703723, 0.10620345, -473179.4, 66172.266, 0.0, 10.000749, 9.999276 
1.5851341e+3, 2.5496346e+2, -363568.34, -466629.9, -25587.127, 0.06036304, 0.021571504, -357565.47, 83794.58, 0.00000023115544, 10.00077, 9.999412 
1.5851435e+3, 2.6496238e+2, -271310.84, -520815.2, 8398.413, 0.008633064, 0.04938366, -271028.47, 72342.92, 0.0000061293663, 10.001385, 9.998065 
1.5851536e+3, 2.749608e+2, 43949.74, -294176.34, -9714.601, 0.017909741, 0.029737355, 44228.617, 289618.3, 0.000060026516, 10.002787, 9.998263 
1.5851636e+3, 2.8495932e+2, 174811.47, -257807.94, 10742.816, 0.022211174, 0.09854287, 175078.06, 322482.9, 0.0003212461, 10.003324, 9.997588 
1.5851732e+3, 2.9495803e+2, 231531.52, -159145.63, 23714.816, 0.025935767, 0.14247428, 232965.78, 282381.5, 0.0010570007, 10.002937, 9.997774 
1.5851831e+3, 3.0495375e+2, 298741.6, -147407.11, 55780.574, 0.022691885, -0.028303484, 305609.94, 305609.94, 0.0023875397, 10.003263, 9.997395 
1.585193e+3, 3.1495225e+2, 476842.94, 32434.408, -79996.5, 0.03931045, 0.012578233, 490804.25, 490804.25, 0.004173247, 10.004025, 9.998255 
1.5949976e+3, 1.2495581e+2, -2050784.4, -1830620.1, -73085.92, -0.020627651, 0.13430047, -1808567.4, -93131.12, 0.026239868, 9.997365, 10.000453 
1.5950084e+3, 1.349562e+2, -1896344.1, -1742270.8, -15752.208, 0.17795645, 0.12678148, -1740676.8, -123245.25, 0.016040104, 9.998017, 10.000061 
1.5950173e+3, 1.4495417e+2, -1684827.1, -1595515.1, 9277.853, 0.016139986, -0.076662935, -1594561.5, -75110.93, 0.0073062, 9.998762, 10.000054 
1.5950285e+3, 1.549553e+2, -1620484.0, -1497260.4, 49650.734, -0.010774654, -0.026009861, -1479744.4, -58305.383, 0.002060233, 9.9984865, 10.000176 
1.5950394e+3, 1.6495602e+2, -1536401.3, -1398017.4, 15644.03, -0.039490182, 0.037143074, -1396270.9, -72840.42, 0.00024185247, 9.998377, 10.000232 
1.5950517e+3, 1.7495596e+2, -1396636.8, -1257330.9, 37846.367, 0.1033178, -0.046146687, -1247712.9, -22283.938, 0.0000030340082, 9.99859, 10.000411 
1.5950629e+3, 1.8495594e+2, -1316866.4, -1296986.3, 3878.8704, 0.1330981, -0.02565994, -1296256.1, -168826.78, 0.0, 9.998993, 9.999281 
1.5950724e+3, 1.9495578e+2, -1127060.3, -1137462.8, 10608.259, 0.010312952, -0.019631142, -1120446.8, -91013.43, 0.0, 9.999569, 9.999414 
1.5950826e+3, 2.0495549e+2, -1002050.06, -1059300.8, -10229.062, -0.06682279, 0.03227428, -1000277.3, -68840.195, 0.0, 9.999865, 9.999146 
1.5950938e+3, 2.1495478e+2, -901346.6, -937172.8, 9651.8, -0.05207813, -0.010120104, -898911.8, -65468.54, 0.0, 9.999798, 9.99934 
1.595105e+3, 2.2495444e+2, -763887.2, -777248.2, -18077.05, -0.006180628, 0.011898743, -751295.7, -15849.515, 0.0, 9.999894, 9.999725 
1.5951158e+3, 2.3495431e+2, -598536.6, -633017.44, 30675.457, 0.0686635, -0.025184447, -580588.75, 56858.56, 0.0, 10.000294, 9.999853 
1.5951261e+3, 2.4495412e+2, -545246.75, -664754.75, -5759.0303, 0.10786526, 0.028553711, -544969.9, -5520.02, 0.0, 10.000453, 9.998871 
1.595136e+3, 2.549536e+2, -431860.13, -537533.2, -6229.964, 0.13522801, 0.030036809, -431494.1, 9962.317, 0.00000009760233, 10.000484, 9.99905 
1.5951459e+3, 2.6495245e+2, -304095.9, -531344.8, 44523.86, 0.069550425, 0.068030275, -295683.94, 47785.566, 0.0000054247644, 10.001127, 9.998118 
1.5951557e+3, 2.7495056e+2, 2801.75, -312042.7, 66909.91, -0.091578364, 0.0031639012, 16431.252, 261921.78, 0.0000627863, 10.002487, 9.998285 
1.595166e+3, 2.849491e+2, 179928.66, -156496.67, -23563.07, -0.09049192, 0.029939713, 181570.98, 329074.47, 0.0003316825, 10.002945, 9.998464 
1.595177e+3, 2.949476e+2, 242836.92, -49088.824, 37686.24, 0.07344792, -0.035914075, 247623.55, 297136.16, 0.0010854213, 10.002577, 9.998702 
1.5951867e+3, 3.0494425e+2, 160908.55, -341617.94, 64696.113, 0.040639922, -0.103915386, 169103.98, 169103.98, 0.002452569, 10.00289, 9.996232 
1.5951964e+3, 3.149436e+2, 357163.38, -62228.01, 8280.84, -0.08713177, 0.13449705, 357326.8, 357326.8, 0.0042847013, 10.003402, 9.997891 
1.6049947e+3, 1.2494498e+2, -2106916.8, -1781878.8, -60627.53, 0.0048731277, 0.107614115, -1770938.5, -55395.027, 0.027939666, 9.996689, 10.001121 
1.6050069e+3, 1.3494541e+2, -1838512.9, -1714994.4, -12068.329, 0.21781667, 0.10543402, -1713826.3, -96288.23, 0.01712635, 9.998443, 10.000042 
1.6050164e+3, 1.449444e+2, -1732597.6, -1615189.9, 46931.926, 0.08459757, 0.012828831, -1598735.5, -79188.53, 0.007836914, 9.998464, 10.000043 
1.6050272e+3, 1.5494487e+2, -1628056.8, -1478089.0, 16932.193, 0.04077262, -0.016294325, -1476201.1, -54659.504, 0.0022287087, 9.998367, 10.000349 
1.6050382e+3, 1.6494547e+2, -1554723.6, -1405867.8, 29990.664, 0.034165382, 0.021835478, -1400052.6, -76518.03, 0.00026665046, 9.998246, 10.0002365 
1.6050501e+3, 1.7494577e+2, -1396572.5, -1254682.9, 18744.932, 0.10503707, -0.025186652, -1252248.3, -26718.518, 0.0000036433328, 9.998577, 10.000434 
1.6050617e+3, 1.8494587e+2, -1324048.5, -1295176.3, 52454.42, 0.12930939, 0.0040393993, -1255207.8, -127678.664, 0.0, 9.998914, 9.99933 
1.6050726e+3, 1.9494544e+2, -1112632.1, -1121499.6, 57501.746, 0.068397336, -0.026969995, -1059393.5, -29857.97, 0.0, 9.999606, 9.999509 
1.6050833e+3, 2.049452e+2, -998809.56, -1019263.1, 71139.72, 0.0261043, 0.010205842, -937165.3, -5627.2485, 0.0, 9.999747, 9.999475 
1.605094e+3, 2.1494503e+2, -913719.44, -898565.6, 70530.9, 0.0047101816, -0.008649349, -835205.8, -1668.088, 0.0, 9.999555, 9.999711 
1.605105e+3, 2.2494458e+2, -791133.94, -805509.8, 81462.43, 0.034685552, -0.011327453, -716542.94, 18997.797, 0.0, 9.999753, 9.9996 
1.6051164e+3, 2.3494373e+2, -583761.06, -627303.94, 28088.057, 0.107208036, -0.113818794, -569994.75, 67553.19, 0.0, 10.000405, 9.99982 
1.6051272e+3, 2.4494343e+2, -434070.6, -636907.3, 6525.464, 0.13830242, -0.058665473, -433860.88, 105690.97, 0.0, 10.001333, 9.998643 
1.6051374e+3, 2.5494334e+2, -128709.84, -417480.38, -17222.523, 0.13927431, 0.01928055, -127686.305, 313869.38, 0.000000007673713, 10.00267, 9.998828 
1.605148e+3, 2.6494238e+2, -54506.32, -394902.22, 55440.6, 0.09616542, 0.078910306, -45704.26, 297863.53, 0.0000049768487, 10.002762, 9.998278 
1.6051586e+3, 2.7494058e+2, -124945.37, -361910.06, 31568.816, 0.00373297, 0.014685287, -120811.82, 124776.15, 0.00006482946, 10.001538, 9.998423 
1.6051692e+3, 2.849392e+2, -14261.3125, -232712.94, -18447.525, 0.019468276, 0.03609658, -12714.433, 134885.73, 0.00033743004, 10.001486, 9.998667 
1.60518e+3, 2.9493794e+2, 279503.47, -6119.085, -56630.625, 0.132772, -0.029660434, 290321.9, 339929.72, 0.0010902435, 10.0027, 9.998953 
1.6051903e+3, 3.049352e+2, 261890.69, -293802.2, 42089.164, 0.07963126, -0.05137165, 265060.5, 265060.5, 0.0024558213, 10.003591, 9.9962225 
1.6052014e+3, 3.1493345e+2, 474790.84, 26778.49, -24449.715, 0.053066052, 0.088372774, 476121.2, 476121.2, 0.004284109, 10.004033, 9.998218 
1.6149917e+3, 1.249314e+2, -1990332.6, -1620450.0, 7953.494, -0.06861926, -0.067106664, -1620279.0, 95394.195, 0.02978273, 9.997004, 10.002104 
1.6150028e+3, 1.3493319e+2, -1749577.9, -1547815.3, 32850.02, -0.07668879, -0.03755371, -1542601.5, 75051.766, 0.018308382, 9.998506, 10.001172 
1.6150156e+3, 1.4493486e+2, -1720006.1, -1622635.3, 15660.757, 0.09628348, 0.08824108, -1620178.5, -100541.914, 0.008418617, 9.998594, 9.999934 
1.615027e+3, 1.5493454e+2, -1636978.3, -1505506.9, 30938.639, 0.13478184, 0.000051926854, -1498590.1, -76948.234, 0.0024150687, 9.998403, 10.000146 
1.6150373e+3, 1.6493474e+2, -1528428.4, -1390987.8, 17233.172, 0.06409714, 0.007160242, -1388859.9, -65219.516, 0.0002938315, 9.9984045, 10.000265 
1.6150469e+3, 1.749352e+2, -1394760.6, -1252410.9, 44145.715, -0.119152136, -0.02835092, -1239831.9, -14197.738, 0.000004294035, 9.998569, 10.00046 
1.6150588e+3, 1.8493569e+2, -1289144.6, -1219426.8, 58034.984, -0.09970493, 0.011845734, -1186586.3, -58957.246, 0.0, 9.998901, 9.999853 
1.6150734e+3, 1.9493584e+2, -1093380.8, -1056592.6, 99242.65, 0.15370895, -0.016479956, -974053.8, 55574.246, 0.0, 9.9994955, 10.0000105 
1.6150849e+3, 2.0493586e+2, -990991.3, -954365.7, 40566.293, 0.16866067, -0.005148525, -928170.25, 3455.7607, 0.0, 9.999539, 10.000017 
1.6150932e+3, 2.149357e+2, -913605.9, -842218.06, 77615.79, -0.038692836, -0.08002374, -792482.1, 41141.633, 0.0, 9.999317, 10.00021 
1.615104e+3, 2.2493482e+2, -906733.9, -965597.9, 86331.85, -0.06365667, -0.102284774, -844955.0, -109324.21, 0.0, 9.999425, 9.998652 
1.615117e+3, 2.3493297e+2, -695764.4, -787588.3, 72181.27, 0.10574175, -0.20927623, -656130.75, -18481.143, 0.0, 10.00011, 9.9988575 
1.6151285e+3, 2.449323e+2, -480190.3, -673543.4, 37606.754, 0.09844171, -0.1360069, -473133.44, 66525.086, 0.0, 10.001062, 9.998525 
1.6151384e+3, 2.549327e+2, -179661.34, -456080.3, 56161.29, -0.073163904, -0.009955691, -168686.55, 272971.78, 0.00000000987263, 10.002375, 9.998704 
1.6151492e+3, 2.6493225e+2, -100906.11, -407706.97, -9391.82, -0.073297694, 0.10073088, -100618.875, 243047.11, 0.000004852571, 10.002412, 9.99835 
1.6151614e+3, 2.749306e+2, -156346.9, -364343.97, 10429.029, 0.11728367, 0.03984786, -155825.3, 89859.59, 0.00006465758, 10.001286, 9.998516 
1.6151725e+3, 2.8492957e+2, -93844.91, -331627.3, 4108.4634, 0.15270971, 0.11742636, -93773.94, 53922.086, 0.0003366383, 10.001201, 9.998125 
1.615182e+3, 2.9492915e+2, 194863.47, -104799.164, 16693.982, 0.02249276, 0.17986514, 195790.61, 245489.84, 0.0010768002, 10.002364, 9.998437 
1.6151929e+3, 3.0492628e+2, 265106.06, -187900.28, 35466.797, -0.05085602, 0.12733606, 267866.03, 267866.03, 0.0024103972, 10.003191, 9.997121 
1.6152063e+3, 3.1492195e+2, 438572.2, 128105.33, 67230.89, 0.08639906, -0.09130465, 452505.56, 452505.56, 0.004189569, 10.003337, 9.999214 
1.62499e+3, 1.2491985e+2, -2065270.1, -1688347.3, 97333.586, 0.09748906, -0.083151884, -1664696.5, 51085.74, 0.03179242, 9.996643, 10.001774 
1.6250008e+3, 1.349212e+2, -1795738.3, -1555255.0, 20242.316, -0.08735302, -0.121374294, -1553563.0, 64205.355, 0.019603958, 9.998101, 10.00131 
1.6250144e+3, 1.4492401e+2, -1785797.6, -1641085.6, -36704.49, 0.1498006, 0.10610167, -1632308.3, -112566.31, 0.009062119, 9.998114, 10.000023 
1.6250253e+3, 1.5492357e+2, -1707009.4, -1522208.5, -29230.521, 0.1658374, -0.008177002, -1517695.3, -95945.52, 0.002624408, 9.997864, 10.000281 
1.6250357e+3, 1.649238e+2, -1579826.1, -1402733.0, 36638.465, 0.0820815, -0.007475574, -1395452.3, -71703.695, 0.00032476612, 9.998006, 10.000376 
1.6250454e+3, 1.749247e+2, -1353456.5, -1212467.6, 29045.531, -0.12437202, -0.014970591, -1206718.3, 19020.148, 0.000005034694, 9.998779, 10.000623 
1.6250578e+3, 1.8492538e+2, -1261609.5, -1173654.6, 69407.914, -0.08741011, 0.02553435, -1135464.8, -7734.2554, 0.0, 9.998954, 10.000149 
1.6250728e+3, 1.9492568e+2, -1166862.3, -1046202.9, 59602.867, 0.19681576, -0.021193597, -1021725.9, 8000.6543, 0.0, 9.998825, 10.000396 
1.6250849e+3, 2.0492588e+2, -1039712.3, -986156.06, 13243.415, 0.23989645, -0.011998329, -983060.2, -51337.387, 0.0, 9.999217, 9.999966 
1.6250938e+3, 2.1492572e+2, -787980.56, -791987.25, -25377.27, 0.038641594, -0.07664695, -764527.7, 69194.09, 0.0, 10.000193, 10.000149 
1.6251047e+3, 2.2492497e+2, -685655.1, -853549.94, 39026.543, 0.00020391519, -0.08393011, -677026.94, 58700.84, 0.0, 10.000912, 9.998704 
1.6251178e+3, 2.3492339e+2, -504280.1, -691014.5, 56982.2, 0.110934146, -0.16905536, -488265.38, 149477.66, 0.0, 10.001397, 9.998901 
1.6251296e+3, 2.4492246e+2, -425567.44, -669892.5, 86712.93, 0.09424838, -0.11491625, -397920.72, 141833.33, 0.0, 10.001534, 9.998322 
1.6251402e+3, 2.5492203e+2, -343643.3, -561100.6, 53075.66, -0.065811045, -0.047042932, -331380.44, 110381.625, 0.000000011745934, 10.001347, 9.998482 
1.6251515e+3, 2.6492122e+2, -226287.39, -483738.28, -11460.497, -0.038205944, 0.04626339, -225778.23, 117994.63, 0.0000048598445, 10.001619, 9.998216 
1.625164e+3, 2.7491966e+2, -2334.0042, -307671.38, -52570.234, 0.18908823, 0.014501954, 6463.5825, 252253.36, 0.00006306325, 10.002413, 9.998363 
1.6251752e+3, 2.849184e+2, 122773.375, -254860.73, 12692.475, 0.23034924, 0.094232485, 123199.49, 271002.5, 0.00033149842, 10.002828, 9.997854 
1.6251849e+3, 2.949175e+2, 254400.48, -111449.24, -22106.78, 0.059164703, 0.14067273, 255731.47, 305544.34, 0.0010554205, 10.002931, 9.998112 
1.6251962e+3, 3.0491504e+2, 301393.7, -135319.81, 29497.576, -0.026419371, 0.12766288, 303377.1, 303377.1, 0.002341055, 10.003257, 9.997467 
1.6252106e+3, 3.149112e+2, 497127.9, 147839.33, -55582.45, 0.18694022, -0.067137755, 505759.47, 505759.47, 0.004036234, 10.003708, 9.999205 
1.6349863e+3, 1.2490968e+2, -2127584.3, -1856730.3, -66325.2, -0.054586653, -0.021418782, -1841361.1, -125484.28, 0.03398967, 9.996812, 10.000525 
1.6350003e+3, 1.3490935e+2, -1854540.1, -1679593.9, 80370.51, 0.010657081, -0.15421192, -1648277.4, -30393.154, 0.02102759, 9.998125, 10.000432 
1.6350123e+3, 1.4491178e+2, -1731456.9, -1581881.3, -82646.43, 0.07096484, 0.067464985, -1545207.6, -25343.658, 0.009775217, 9.998319, 10.000344 
1.6350216e+3, 1.5491204e+2, -1669261.8, -1455810.1, -26513.857, -0.029782018, -0.020551302, -1452566.1, -30701.998, 0.002860367, 9.997908, 10.000723 
1.6350324e+3, 1.6491273e+2, -1548639.0, -1359392.1, 42047.637, -0.09158298, -0.009550106, -1350470.4, -26612.414, 0.00036087315, 9.998088, 10.000639 
1.6350453e+3, 1.7491412e+2, -1344779.4, -1190400.6, 69752.52, -0.05610906, 0.012863683, -1163553.4, 62290.188, 0.000005927034, 9.998759, 10.000786 
1.635058e+3, 1.8491492e+2, -1245536.8, -1145679.1, 41900.773, -0.0046068407, 0.046040535, -1130426.9, -2592.9607, 0.0, 9.998973, 10.000335 
1.6350706e+3, 1.9491483e+2, -1169691.4, -1028645.44, 69847.57, 0.0567796, -0.056065418, -999910.3, 29921.8, 0.0, 9.99872, 10.000572 
1.6350828e+3, 2.0491494e+2, -1108955.1, -1084795.4, 31781.217, 0.08351713, -0.03356313, -1062875.6, -131044.85, 0.0, 9.999022, 9.999387 
1.6350947e+3, 2.1491504e+2, -863920.25, -895863.9, 32484.41, 0.08982803, -0.016421942, -843693.5, -9860.928, 0.0, 9.999954, 9.999555 
1.6351065e+3, 2.2491504e+2, -677530.0, -752836.1, 40658.55, 0.046293154, 0.041084368, -659767.6, 76064.03, 0.0, 10.000558, 9.99956 
1.6351181e+3, 2.3491487e+2, -484149.56, -580176.2, 92196.21, -0.020682432, 0.0031267093, -428213.75, 209615.23, 0.0, 10.001106, 9.999796 
1.6351302e+3, 2.4491368e+2, -505592.8, -752269.56, 58215.08, -0.03525854, 0.006025768, -492544.4, 47295.57, 0.0, 10.001182, 9.997921 
1.6351424e+3, 2.5491124e+2, -406745.84, -630106.7, 65524.523, 0.0008465869, -0.0877292, -388942.75, 52924.59, 0.000000006263202, 10.001097, 9.998121 
1.6351542e+3, 2.649094e+2, -290461.34, -566685.56, -1025.6611, 0.029309388, -0.05699834, -290457.56, 53429.234, 0.000005059976, 10.001384, 9.997766 
1.6351655e+3, 2.749079e+2, -67078.71, -386149.72, 6617.386, 0.07020827, -0.04742178, -66941.53, 178958.97, 0.000060994436, 10.00216, 9.997948 
1.6351767e+3, 2.8490582e+2, 56008.47, -311772.72, -1923.1036, 0.06971746, -0.02271868, 56018.523, 203939.2, 0.0003219481, 10.002495, 9.997615 
1.6351882e+3, 2.9490298e+2, 182512.33, -173103.8, 13437.274, 0.036721453, -0.14159623, 183019.34, 232968.39, 0.0010251604, 10.002578, 9.997849 
1.6351995e+3, 3.0490145e+2, 221621.28, -201606.44, 25196.24, -0.053148802, -0.031632546, 223116.03, 223116.03, 0.0022564982, 10.002843, 9.997206 
1.635214e+3, 3.1490102e+2, 350766.13, -5369.858, 44255.48, 0.07239899, 0.12554914, 356183.2, 356183.2, 0.0038541702, 10.00308, 9.998441 
1.6449828e+3, 1.2489766e+2, -1973901.0, -1779501.0, -64319.973, -0.10997743, -0.05832245, -1760146.8, -44153.773, 0.036383986, 9.99789, 10.000533 
1.644998e+3, 1.3489744e+2, -2047262.8, -1764953.6, 54288.35, 0.057429418, -0.18859845, -1754873.8, -136873.27, 0.022584815, 9.996774, 10.000506 
1.6450098e+3, 1.4490035e+2, -1958446.1, -1636863.0, 4185.7197, 0.072224125, 0.052828982, -1636808.5, -116832.82, 0.010560797, 9.996524, 10.000839 
1.6450194e+3, 1.5490133e+2, -1590552.0, -1361789.0, 29121.83, -0.05288877, -0.015684208, -1358140.0, 63827.87, 0.0031241647, 9.998195, 10.001232 
1.6450308e+3, 1.649023e+2, -1469548.4, -1339774.4, 103959.65, -0.07287943, 0.0012861285, -1282113.8, 41845.508, 0.0004029895, 9.998728, 10.000463 
1.6450445e+3, 1.7490341e+2, -1412281.0, -1246166.4, 65508.01, 0.03301453, 0.020868111, -1223441.8, 2506.5166, 0.0000070009137, 9.998407, 10.000576 
1.6450575e+3, 1.84904e+2, -1301634.5, -1180456.5, 55455.652, 0.07920514, 0.048371222, -1158909.3, -30968.225, 0.0, 9.998628, 10.00025 
1.6450694e+3, 1.9490375e+2, -1038319.2, -974839.4, 24187.275, 0.034754194, -0.06282569, -966673.8, 63266.914, 0.0, 9.999668, 10.000474 
1.6450821e+3, 2.049038e+2, -949253.4, -1018230.06, 33935.2, 0.06256797, -0.036293086, -935357.4, -3416.9453, 0.0, 10.000173, 9.999275 
1.6450953e+3, 2.1490401e+2, -829458.7, -882896.44, 29906.453, 0.15022358, -0.00080961396, -816074.06, 17867.621, 0.0, 10.000231, 9.999489 
1.6451077e+3, 2.2490416e+2, -678834.06, -755676.9, 66223.49, 0.13190858, 0.07214824, -640693.4, 95246.52, 0.0, 10.000541, 9.999571 
1.6451193e+3, 2.3490404e+2, -486455.5, -585233.5, 18418.164, 0.009042297, 0.045455292, -483133.0, 154803.95, 0.0, 10.001091, 9.999793 
1.6451319e+3, 2.449029e+2, -454184.9, -724914.1, -9516.742, 0.009464742, 0.0529658, -453850.78, 86096.664, 0.0, 10.001522, 9.997946 
1.6451448e+3, 2.549004e+2, -290111.9, -578173.94, -16410.018, 0.10331233, -0.04343548, -289180.1, 152794.52, 0.000000005166704, 10.001909, 9.998093 
1.6451569e+3, 2.6489824e+2, -145325.05, -487437.4, 1056.633, 0.12741897, -0.042055514, -145321.78, 198673.69, 0.000005473011, 10.002361, 9.997823 
1.6451679e+3, 2.748963e+2, 64662.54, -310079.53, -12865.004, 0.06813672, -0.0861642, 65103.676, 311115.44, 0.000058881178, 10.003045, 9.998024 
1.6451794e+3, 2.848938e+2, 161715.92, -291486.03, 10953.995, 0.056440435, -0.09259041, 161980.53, 310015.34, 0.0003079229, 10.003342, 9.99737 
1.6451915e+3, 2.9489064e+2, 229153.53, -180842.75, -25031.59, 0.1048949, -0.20943865, 230676.14, 280742.25, 0.0009851817, 10.003022, 9.997594 
1.6452034e+3, 3.048891e+2, 309790.16, -164619.84, 81523.59, 0.043160535, -0.090681, 323408.4, 323408.4, 0.002165473, 10.003435, 9.9971895 
1.6452183e+3, 3.1488958e+2, 505755.94, 27023.518, 18757.111, 0.16128337, 0.16403699, 506489.75, 506489.75, 0.0036801414, 10.004341, 9.998049 
1.6549815e+3, 1.2488439e+2, -1865924.3, -1615026.0, 50780.81, -0.1220861, -0.13616653, -1605137.9, 110987.54, 0.03897044, 9.998112, 10.0015955 
1.6549937e+3, 1.3488592e+2, -1965130.6, -1598080.5, 13228.167, -0.08721263, -0.183321, -1597604.4, 20508.373, 0.024272982, 9.996781, 10.0016575 
1.6550057e+3, 1.448899e+2, -1894107.0, -1524768.5, 36482.97, -0.047388334, 0.06435962, -1521199.3, -1123.7988, 0.0114189135, 9.996616, 10.001562 
1.6550179e+3, 1.5489155e+2, -1549989.9, -1284233.1, 106671.06, -0.059766874, 0.011356821, -1246713.8, 175346.22, 0.0034161112, 9.998226, 10.001752 
1.6550305e+3, 1.6489255e+2, -1493783.5, -1420979.6, 68352.45, -0.04045386, 0.038235888, -1379940.3, -55889.027, 0.00045137366, 9.998848, 9.99985 
1.655043e+3, 1.7489263e+2, -1453209.6, -1323111.0, 66804.24, 0.00461491, 0.006108752, -1294917.5, -68865.69, 0.000008273259, 9.998376, 10.000058 
1.6550559e+3, 1.8489265e+2, -1329373.8, -1243175.6, 76752.9, 0.0069502876, 0.02213569, -1198248.9, -70197.234, 0.0, 9.998639, 9.999821 
1.655069e+3, 1.9489239e+2, -1086924.9, -1050141.3, 76173.53, -0.015290455, -0.043131318, -990170.7, 39882.133, 0.0, 9.99955, 10.00002 
1.655082e+3, 2.0489244e+2, -956047.1, -985667.4, 19096.697, 0.00094970746, -0.009495697, -946690.7, -14639.133, 0.0, 9.999972, 9.999594 
1.655095e+3, 2.1489255e+2, -840006.94, -847339.94, 47674.305, 0.07857246, -0.02177456, -795858.4, 38191.746, 0.0, 9.999985, 9.999851 
1.655108e+3, 2.2489211e+2, -776896.94, -889562.44, 65071.844, 0.09186371, 0.011561404, -747161.56, -11107.046, 0.0, 10.00024, 9.998798 
1.6551211e+3, 2.348909e+2, -580504.44, -716965.56, 60325.45, 0.044031963, -0.04586304, -557660.5, 80406.47, 0.0, 10.000818, 9.9990225 
1.655134e+3, 2.4489012e+2, -483249.0, -707473.1, -8516.965, 0.0361078, 0.023926124, -482925.97, 57149.895, 0.0, 10.001192, 9.998222 
1.655147e+3, 2.5488952e+2, -315127.4, -555689.6, 16990.299, 0.097445354, 0.0824318, -313933.34, 128150.32, 0.00000000856411, 10.001607, 9.998382 
1.6551593e+3, 2.6488772e+2, -166851.25, -469680.44, 6292.8374, 0.09841539, 0.088975854, -166720.55, 177379.4, 0.0000057188686, 10.00208, 9.998086 
1.6551709e+3, 2.748845e+2, 53039.75, -279434.22, 36714.52, 0.024106242, -0.11001476, 57045.8, 303172.0, 0.00005720022, 10.002794, 9.998361 
1.6551825e+3, 2.848821e+2, 92622.61, -352188.28, -24481.064, 0.0056013693, -0.11606165, 93965.914, 242113.47, 0.0002952708, 10.002984, 9.997126 
1.6551945e+3, 2.9488015e+2, 169536.55, -240967.13, -5098.175, 0.07728455, -0.08965669, 169599.86, 219767.34, 0.00095047243, 10.002736, 9.997324 
1.6552071e+3, 3.048775e+2, 243828.34, -194035.38, 94245.49, 0.04076274, -0.065648876, 263252.03, 263252.03, 0.0020977922, 10.003004, 9.997182 
1.6552228e+3, 3.1487614e+2, 393400.2, -60329.105, 125474.945, 0.11484482, 0.0011794806, 425787.4, 425787.4, 0.003564112, 10.003712, 9.997751 
1.6649806e+3, 1.24872155e+2, -2104446.5, -1716825.8, 120501.945, 0.077519536, -0.10734015, -1682418.8, 33830.332, 0.041736465, 9.996416, 10.001696 
1.6649899e+3, 1.3487503e+2, -1808512.8, -1462296.9, -48278.004, -0.17776705, -0.079265386, -1455690.8, 162530.6, 0.026087236, 9.997566, 10.002237 
1.665003e+3, 1.4487812e+2, -1814271.1, -1484705.5, -3503.25, 0.0052512405, 0.053255398, -1484668.3, 35523.086, 0.012349877, 9.997178, 10.001552 
1.6650161e+3, 1.5487997e+2, -1703444.3, -1351180.6, -3129.1934, 0.0013306126, 0.016210897, -1351152.9, 71020.35, 0.003737191, 9.997157, 10.001794 
1.6650295e+3, 1.6488102e+2, -1644263.5, -1492364.5, -4898.877, 0.03718533, 0.047540735, -1492206.6, -168043.53, 0.00050616945, 9.9978285, 9.999843 
1.6650422e+3, 1.7488062e+2, -1308197.4, -1260244.8, -7366.0005, 0.04034722, -0.031842947, -1259138.9, -32971.367, 0.000009797576, 9.99938, 10.000012 
1.6650552e+3, 1.8488045e+2, -1186287.8, -1187185.8, 57646.813, 0.035850428, -0.023832599, -1129088.3, -918.865, 0.0, 9.999702, 9.99968 
1.6650686e+3, 1.9488053e+2, -1138086.1, -1084811.6, 43846.793, 0.015050305, -0.044944014, -1060145.0, -29976.629, 0.0, 9.99926, 9.999907 
1.665082e+3, 2.048805e+2, -1011796.2, -1012122.3, 36551.695, 0.03286725, -0.013126812, -975407.2, -43239.93, 0.0, 9.999596, 9.999597 
1.6650954e+3, 2.1488023e+2, -712872.56, -786845.7, 4911.7114, 0.088388756, -0.060037225, -712547.9, 121619.69, 0.0, 10.000861, 9.999847 
1.6651091e+3, 2.2487941e+2, -639211.9, -868571.9, 39902.28, 0.12180163, -0.04228432, -632468.25, 103707.88, 0.0, 10.001394, 9.998364 
1.6651228e+3, 2.348779e+2, -549489.7, -745451.9, 15168.185, 0.11688901, -0.090434454, -548322.56, 89871.984, 0.0, 10.001227, 9.998605 
1.6651359e+3, 2.4487714e+2, -423804.06, -635123.25, 6493.848, 0.11158459, -0.019244721, -423604.7, 116598.42, 0.0, 10.00138, 9.998656 
1.6651487e+3, 2.5487694e+2, -245473.38, -474449.6, 11685.307, 0.106093094, 0.040028412, -244878.58, 197325.36, 0.0000000057748837, 10.001852, 9.998845 
1.6651616e+3, 2.6487544e+2, -151507.22, -485363.38, 37570.69, 0.12138169, 0.0642447, -147331.4, 196885.84, 0.0000055479773, 10.002291, 9.997872 
1.6651745e+3, 2.7487242e+2, 29773.742, -330942.5, -19975.72, 0.13076268, -0.08253774, 30876.586, 277121.16, 0.000055377644, 10.002787, 9.998025 
1.6651869e+3, 2.8487012e+2, 121566.18, -352448.72, -79624.664, 0.14283802, -0.05657023, 134583.97, 282850.84, 0.00028510438, 10.0032425, 9.99698 
1.6651984e+3, 2.9486832e+2, 282738.78, -195751.14, -115599.89, 0.15373532, -0.0024193968, 309203.25, 359488.44, 0.000926934, 10.003597, 9.997189 
1.6652109e+3, 3.048647e+2, 401598.28, -106737.58, 61285.727, 0.08314906, -0.07244146, 408882.6, 408882.6, 0.00206355, 10.00402, 9.997298 
1.6652271e+3, 3.148629e+2, 460286.34, 3575.2043, 17198.826, 0.18265179, -0.057116017, 460933.1, 460933.1, 0.0035217702, 10.004029, 9.998033 
1.674978e+3, 1.2486018e+2, -2123891.8, -1800891.0, -79833.29, 0.08347901, -0.08184708, -1782236.6, -65864.836, 0.044670317, 9.9966, 10.001023 
1.674986e+3, 1.3486478e+2, -1806284.6, -1476515.3, -21152.906, -0.36596024, 0.11302196, -1475164.0, 143161.98, 0.028026333, 9.997641, 10.002106 
1.675001e+3, 1.4486504e+2, -1847745.8, -1577993.3, -40570.336, 0.033545565, 0.010656428, -1572023.6, -51700.727, 0.013357116, 9.997278, 10.000862 
1.6750135e+3, 1.548667e+2, -1733899.8, -1420314.4, 15205.911, -0.021204688, 0.004209455, -1419578.8, 2727.6775, 0.004090086, 9.997178, 10.001312 
1.6750273e+3, 1.6486768e+2, -1587898.9, -1403088.0, 31977.418, -0.018250963, 0.021822086, -1397711.4, -73416.06, 0.0005678562, 9.997937, 10.00041 
1.6750415e+3, 1.7486751e+2, -1278838.5, -1188864.4, 63036.973, 0.0002269994, -0.08360308, -1156408.0, 69886.28, 0.000011659807, 9.999336, 10.000526 
1.6750549e+3, 1.848677e+2, -1177511.3, -1170482.0, 19795.105, -0.011807336, -0.070735514, -1153891.9, -25600.488, 0.0, 9.999698, 9.999804 
1.6750678e+3, 1.9486816e+2, -1148257.0, -1075804.3, 41189.6, -0.019631568, -0.06395853, -1057176.9, -26889.57, 0.0, 9.9991255, 10.000039 
1.6750816e+3, 2.0486805e+2, -1054422.0, -1065730.9, 64574.19, -0.0059960056, -0.036428712, -995255.1, -62967.617, 0.0, 9.999435, 9.9993105 
1.675096e+3, 2.1486706e+2, -770290.7, -852680.8, 72096.69, 0.02826742, -0.12306613, -728449.8, 105844.38, 0.0, 10.000619, 9.999517 
1.6751102e+3, 2.248661e+2, -704489.75, -922598.0, 17964.736, 0.047765564, -0.09165449, -703020.0, 33284.434, 0.0, 10.001043, 9.99816 
1.6751239e+3, 2.3486505e+2, -605043.8, -798443.8, 25083.611, 0.080459274, -0.073864065, -601843.5, 36476.34, 0.0, 10.000959, 9.998368 
1.6751371e+3, 2.4486403e+2, -428616.6, -566030.44, 3439.7183, 0.06157358, -0.048613183, -428530.53, 111798.7, 0.0, 10.001045, 9.999287 
1.6751495e+3, 2.5486287e+2, -240927.31, -395326.94, 51951.063, -0.017999822, -0.15303941, -225074.86, 217259.06, 0.0000000017385277, 10.001557, 9.999524 
1.6751634e+3, 2.6486164e+2, -257083.42, -630596.0, 35984.477, 0.023799552, -0.099265456, -253648.25, 90697.625, 0.0000048816705, 10.001963, 9.99704 
1.6751786e+3, 2.7485994e+2, -69736.5, -481345.5, 24941.316, 0.22000366, -0.027996453, -68230.695, 178138.19, 0.000051551386, 10.002529, 9.997124 
1.6751917e+3, 2.8485763e+2, 43358.97, -423203.28, -80875.05, 0.255952, 0.065259, 56980.367, 205374.84, 0.0002714196, 10.002856, 9.996677 
1.6752023e+3, 2.9485473e+2, 225753.55, -244841.69, -68813.66, 0.13835531, 0.030109653, 235609.53, 286031.66, 0.0008994481, 10.003283, 9.99701 
1.6752142e+3, 3.0485037e+2, 343258.0, -106417.414, 43307.637, -0.03093046, -0.1265218, 347390.9, 347390.9, 0.002033432, 10.003526, 9.997528 
1.6752301e+3, 3.148493e+2, 431544.6, 76995.28, 86966.59, 0.012870138, -0.061147984, 451727.5, 451727.5, 0.0035096947, 10.003478, 9.998794 
1.6849758e+3, 1.2484972e+2, -2101695.0, -1828234.3, 23668.117, 0.20314848, 0.022069855, -1826200.9, -109724.33, 0.04776628, 9.99695, 10.000642 
1.6849841e+3, 1.3485321e+2, -1897737.4, -1546090.4, -1151.3727, -0.27272224, 0.121682115, -1546086.6, 72353.14, 0.030093629, 9.99715, 10.001839 
1.6849993e+3, 1.448523e+2, -1882457.9, -1652460.3, 36049.83, 0.16089162, -0.059307463, -1646942.1, -126495.055, 0.0144471, 9.997275, 10.0003605 
1.685012e+3, 1.548537e+2, -1569199.6, -1393343.4, 62758.59, 0.053557467, -0.044557273, -1373243.8, 49189.277, 0.004479329, 9.998536, 10.00085 
1.6850258e+3, 1.6485456e+2, -1470067.6, -1344080.6, 96617.875, 0.02173516, -0.016264716, -1291734.6, 32688.307, 0.0006375465, 9.9987335, 10.000431 
1.6850404e+3, 1.748546e+2, -1439361.1, -1256277.3, 58642.184, 0.027566439, -0.108133145, -1239104.8, -12685.597, 0.00001399049, 9.998197, 10.000603 
1.6850543e+3, 1.8485492e+2, -1385656.8, -1273997.8, 15871.787, 0.035569288, -0.08653343, -1271785.5, -143370.66, 0.0, 9.998279, 9.999775 
1.6850676e+3, 1.9485539e+2, -1130972.0, -1073771.8, -6146.6743, 0.033927307, -0.07708971, -1073118.8, -42707.33, 0.0, 9.999257, 9.999993 
1.6850817e+3, 2.0485516e+2, -967783.7, -1027252.6, 76990.96, 0.05037368, -0.05541087, -914984.9, 17428.082, 0.0, 10.000043, 9.999282 
1.685097e+3, 2.1485414e+2, -764920.56, -849238.6, 63692.207, 0.07370074, -0.14327253, -730698.44, 103721.7, 0.0, 10.000659, 9.999518 
1.6851115e+3, 2.2485334e+2, -694683.44, -910161.75, 38365.902, 0.09646338, -0.10371277, -688056.2, 48372.348, 0.0, 10.001054, 9.998266 
1.6851251e+3, 2.3485251e+2, -567279.6, -773804.44, 38458.875, 0.10802238, -0.06698891, -560350.3, 78090.15, 0.0, 10.001171, 9.998465 
1.6851385e+3, 2.4485123e+2, -375150.13, -568390.0, 54787.58, 0.0899721, -0.057384398, -360697.6, 179754.36, 0.0, 10.001536, 9.999016 
1.6851516e+3, 2.548493e+2, -162626.14, -395682.8, -13110.035, 0.0169496, -0.21357143, -161891.0, 280573.6, 0.0000000018399801, 10.002245, 9.9991865 
1.6851658e+3, 2.648479e+2, -169090.89, -570341.3, -6469.117, 0.06027176, -0.16459961, -168986.63, 175491.66, 0.0000039092515, 10.002479, 9.99721 
1.685181e+3, 2.7484685e+2, -86738.586, -454755.84, 14168.748, 0.22997376, -0.048283815, -86193.89, 160301.13, 0.000046409757, 10.002297, 9.997396 
1.6851945e+3, 2.8484476e+2, 74698.16, -419812.5, 37650.34, 0.27543694, 0.05298395, 77548.3, 226066.9, 0.00025645504, 10.003094, 9.996615 
1.6852066e+3, 2.948416e+2, 442074.5, -149283.45, 12797.744, 0.19385009, 0.000038230577, 442351.34, 492899.94, 0.0008664291, 10.0047865, 9.996965 
1.6852187e+3, 3.04837e+2, 503752.34, -94278.82, 81530.305, 0.018631382, -0.15066558, 514668.22, 514668.22, 0.0019907402, 10.004859, 9.997001 
1.6852337e+3, 3.148353e+2, 340463.1, 9654.681, -14267.254, 0.06269434, -0.06949592, 341077.28, 341077.28, 0.0034830796, 10.002882, 9.998667 
1.6949713e+3, 1.2484154e+2, -2100565.0, -1859975.6, 165723.53, -0.049658637, 0.28266126, -1775489.6, -58933.918, 0.051028147, 9.997099, 10.00035 
1.6949835e+3, 1.3484015e+2, -1922230.6, -1596901.4, -2080.915, -0.08760795, -0.062426515, -1596888.1, 21676.348, 0.032295942, 9.997154, 10.001479 
1.6949977e+3, 1.4483978e+2, -1879055.4, -1682605.6, 54404.453, 0.20285937, -0.16649218, -1668545.3, -147980.08, 0.015627254, 9.997423, 10.000088 
1.6950111e+3, 1.5484108e+2, -1597793.0, -1467647.3, 122722.83, 0.07497739, -0.11072336, -1393812.4, 28739.55, 0.004910431, 9.998597, 10.000311 
1.6950247e+3, 1.6484173e+2, -1478324.3, -1387125.9, 54585.664, -0.028058361, -0.057718154, -1361599.3, -37054.313, 0.0007170378, 9.99884, 10.000084 
1.6950385e+3, 1.7484197e+2, -1464724.9, -1304473.6, 54070.777, -0.020676393, -0.099416226, -1287936.1, -61394.574, 0.000016975888, 9.998178, 10.000278 
1.6950527e+3, 1.8484218e+2, -1393344.6, -1299595.9, 30206.422, -0.00058767997, -0.062386334, -1290706.1, -162166.77, 0.0, 9.998312, 9.999586 
1.6950668e+3, 1.9484213e+2, -1161216.5, -1110482.1, 41635.94, 0.01590271, -0.08607292, -1087094.4, -56553.13, 0.0, 9.999145, 9.999794 
1.6950819e+3, 2.048419e+2, -989025.0, -1018849.44, 78033.01, 0.032911353, -0.061975107, -924492.1, 8050.976, 0.0, 9.999812, 9.999456 
1.6950978e+3, 2.148414e+2, -787028.0, -844509.8, 103388.8, 0.07102789, -0.11319227, -708459.6, 126086.57, 0.0, 10.000427, 9.999671 
1.6951126e+3, 2.248409e+2, -711434.44, -857875.2, 23348.244, 0.075827055, -0.07658546, -707801.94, 28748.227, 0.0, 10.000693, 9.998792 
1.695126e+3, 2.3484015e+2, -578264.06, -718191.6, 64542.64, 0.05142843, -0.08642687, -553040.25, 85517.36, 0.0, 10.000848, 9.998995 
1.6951399e+3, 2.4483858e+2, -519435.34, -779078.75, 65195.414, 0.03263446, -0.07213614, -503984.47, 36588.426, 0.0, 10.001157, 9.997757 
1.6951546e+3, 2.5483602e+2, -295053.53, -604772.5, 35100.367, 0.05664605, -0.15870321, -291125.44, 151472.42, 0.0000000033657745, 10.001963, 9.99789 
1.6951683e+3, 2.6483417e+2, -145343.75, -437268.16, -28988.053, 0.039967455, -0.1407003, -142493.08, 202122.13, 0.0000030031388, 10.002128, 9.998286 
1.6951814e+3, 2.7483302e+2, -46882.723, -307747.25, 30046.752, 0.010423101, -0.15017714, -43466.63, 203158.45, 0.000041455987, 10.002029, 9.998529 
1.6951957e+3, 2.848312e+2, 31579.475, -422974.3, 74593.414, 0.03551724, -0.09091964, 43507.438, 192149.63, 0.00024337543, 10.002725, 9.996773 
1.6952112e+3, 2.9482833e+2, 400502.75, -158609.8, 100600.66, 0.13006507, -0.12377639, 418052.88, 468722.53, 0.0008331997, 10.004435, 9.997082 
1.6952236e+3, 3.0482405e+2, 324798.28, -326073.75, -7966.143, 0.010484228, -0.17844579, 324895.78, 324895.78, 0.0019314516, 10.004297, 9.995659 
1.6952363e+3, 3.1482157e+2, 194458.73, -128471.71, -20370.475, -0.026226316, -0.06004304, 195738.63, 195738.63, 0.0034112176, 10.002204, 9.998022 
1.7049675e+3, 1.2482827e+2, -2194914.5, -1902980.3, 135495.56, -0.09318208, 0.23018572, -1849785.6, -133104.27, 0.054460447, 9.996453, 10.000377 
1.7049813e+3, 1.3482589e+2, -1909929.9, -1614139.6, -138026.31, -0.014364159, -0.18058181, -1559737.4, 58964.848, 0.034638863, 9.997338, 10.00129 
1.7049965e+3, 1.448275e+2, -1767408.0, -1610188.6, -22416.309, 0.32273751, -0.088261954, -1607055.0, -86370.48, 0.016903277, 9.99814, 10.000234 
1.70501e+3, 1.548281e+2, -1655020.4, -1487774.8, 46318.7, 0.14265235, -0.109483615, -1475803.6, -53125.94, 0.00538814, 9.998188, 10.00036 
1.7050235e+3, 1.6482843e+2, -1555309.0, -1440785.1, 24714.842, 0.009012512, -0.08135292, -1435679.1, -111005.21, 0.0008082668, 9.998387, 9.999929 
1.7050377e+3, 1.748289e+2, -1327631.8, -1249815.6, 1207.4033, 0.021538828, -0.08545188, -1249796.9, -23127.822, 0.000020835996, 9.999168, 10.000183 
1.7050523e+3, 1.8482904e+2, -1218353.4, -1242352.0, 42466.32, 0.06368105, -0.04023922, -1186223.6, -57555.414, 0.0, 9.999632, 9.999355 
1.705067e+3, 1.9482847e+2, -1047050.0, -1086786.9, 17571.447, 0.08098558, -0.0871454, -1040394.7, -9719.945, 0.0, 10.000056, 9.999536 
1.7050824e+3, 2.0482811e+2, -955735.44, -999862.25, 64463.273, 0.098288395, -0.062847234, -909664.4, 23014.008, 0.0, 10.000039, 9.99946 
1.7050983e+3, 2.1482798e+2, -891800.3, -894265.94, 39036.47, 0.10257499, -0.07913362, -853977.2, -19298.158, 0.0, 9.999725, 9.999653 
1.7051134e+3, 2.2482765e+2, -739255.25, -845694.94, 4323.275, 0.101616494, -0.037009314, -739079.94, -2398.742, 0.0, 10.000384, 9.999021 
1.7051277e+3, 2.348269e+2, -389679.84, -596201.9, -16161.708, 0.090269245, -0.07457469, -388422.75, 250264.13, 0.0, 10.00201, 9.99926 
1.7051423e+3, 2.4482532e+2, -347296.84, -738449.56, 12287.264, 0.10389315, -0.055068173, -346911.22, 193791.08, 0.0, 10.002522, 9.997383 
1.7051572e+3, 2.5482273e+2, -332457.0, -657357.25, 11374.13, 0.1308146, -0.10592867, -332059.3, 110670.51, 0.0000000026261497, 10.001873, 9.997565 
1.705171e+3, 2.6482067e+2, -138251.67, -427631.78, 2900.9514, 0.103504874, -0.09722702, -138222.6, 206526.89, 0.0000021613648, 10.002139, 9.998358 
1.7051841e+3, 2.748191e+2, 146905.02, -212065.33, -56024.78, 0.019140508, -0.15366688, 155445.64, 402207.16, 0.000036656253, 10.003334, 9.998574 
1.7051986e+3, 2.8481713e+2, 158755.06, -332378.6, -9873.064, 0.040354893, -0.11838814, 158953.45, 307732.3, 0.00022921336, 10.003482, 9.997018 
1.7052145e+3, 2.9481447e+2, 131042.75, -259825.8, -28816.371, 0.14906426, -0.15237832, 133155.78, 183960.66, 0.00079328316, 10.00249, 9.997303 
1.7052273e+3, 3.0481088e+2, 121889.58, -418520.66, -56273.156, 0.048801083, -0.1490374, 127687.125, 127687.125, 0.0018438259, 10.002856, 9.995709 
1.7052405e+3, 3.1480813e+2, 508619.03, 43531.465, -76453.586, 0.08939752, -0.062339973, 520864.47, 520864.47, 0.0032717832, 10.004299, 9.998163 
1.7149651e+3, 1.2480967e+2, -2126444.5, -1814387.9, -5836.6934, -0.07345614, -0.16696295, -1814278.8, -97423.04, 0.058051143, 9.996637, 10.000918 
1.7149772e+3, 1.3481095e+2, -1923033.5, -1636485.8, -57684.8, -0.19667543, -0.19092804, -1625309.3, -6461.353, 0.037118543, 9.997331, 10.001128 
1.7149952e+3, 1.4481567e+2, -1693032.4, -1506048.6, -33193.945, 0.3152409, 0.18970172, -1500330.8, 20472.273, 0.018276531, 9.998337, 10.00086 
1.7150082e+3, 1.5481469e+2, -1608016.5, -1400267.1, 65028.01, 0.096772745, -0.0527598, -1381591.4, 41219.453, 0.005915651, 9.998221, 10.000949 
1.715022e+3, 1.6481473e+2, -1542068.4, -1430353.3, 28526.52, -0.040969335, -0.08344765, -1423490.5, -98681.28, 0.0009130136, 9.998462, 9.999963 
1.715037e+3, 1.7481561e+2, -1331356.5, -1245925.9, 44075.44, 0.009043985, -0.054572977, -1227263.4, -463.2894, 0.000025810483, 9.999125, 10.000227 
1.7150521e+3, 1.848156e+2, -1239942.5, -1284832.9, 40013.82, 0.05127284, -0.010491097, -1216508.6, -87708.68, 0.0, 9.999617, 9.999072 
1.7150675e+3, 1.9481447e+2, -1082100.1, -1134171.8, 49302.797, 0.082697175, -0.08720459, -1052380.9, -21569.557, 0.0, 9.999946, 9.999261 
1.7150825e+3, 2.0481384e+2, -999677.44, -1046595.44, 34546.24, 0.065320365, -0.06546251, -981378.0, -48560.023, 0.0, 9.999848, 9.999233 
1.7150974e+3, 2.148137e+2, -947519.0, -943461.9, 43016.332, 0.01841541, -0.061151266, -902426.3, -67605.84, 0.0, 9.999443, 9.999451 
1.7151132e+3, 2.2481339e+2, -792191.75, -876045.75, 47568.97, 0.015902245, -0.006460765, -770709.94, -33886.63, 0.0, 10.000034, 9.998987 
1.7151298e+3, 2.348127e+2, -435373.44, -627605.25, 63257.945, 0.07561791, -0.026290711, -416424.88, 222403.31, 0.0, 10.001727, 9.999188 
1.715145e+3, 2.4481145e+2, -368640.13, -688786.0, -29759.158, 0.09840661, -0.000034091212, -365897.38, 174942.81, 0.0, 10.002131, 9.997906 
1.7151588e+3, 2.548093e+2, -340668.6, -607064.56, 5842.654, 0.0935086, -0.062702894, -340540.5, 102321.91, 0.0000000000058928205, 10.001583, 9.998051 
1.7151733e+3, 2.6480705e+2, -247553.61, -582119.56, 27236.566, 0.078826286, -0.048972405, -245350.83, 99533.52, 0.0000014626683, 10.001827, 9.997447 
1.7151882e+3, 2.7480474e+2, 39985.973, -366147.9, 10385.357, 0.07615652, -0.08437637, 40251.367, 287157.6, 0.000032258973, 10.003036, 9.997662 
1.715203e+3, 2.848024e+2, 111120.08, -338723.16, -65220.164, 0.072061405, -0.05091439, 120385.14, 269314.22, 0.00021422842, 10.003081, 9.9971695 
1.7152165e+3, 2.9479975e+2, 101410.055, -250008.06, -31607.87, 0.05519861, -0.109029464, 104230.35, 155185.45, 0.00074612966, 10.0021715, 9.997526 
1.7152295e+3, 3.0479708e+2, 116417.94, -302277.8, -21663.242, -0.065761566, -0.07911845, 117535.805, 117535.805, 0.001733619, 10.002349, 9.996738 
1.7152452e+3, 3.1479418e+2, 453241.5, 123774.695, 38880.023, 0.064373784, -0.11716891, 457767.5, 457767.5, 0.0030849238, 10.003507, 9.999079 
1.7249626e+3, 1.2479375e+2, -2131300.5, -1764661.5, 7909.0483, 0.032735467, -0.24376912, -1764490.9, -47483.406, 0.06177432, 9.996369, 10.001378 
1.7249759e+3, 1.3479596e+2, -1936089.9, -1650209.3, -53756.355, -0.045091443, -0.1966218, -1640435.1, -21442.2, 0.039721623, 9.997267, 10.001044 
1.7249925e+3, 1.4480098e+2, -1835070.6, -1583437.6, -37218.66, 0.2757528, 0.22582087, -1578048.1, -57101.344, 0.019743169, 9.997384, 10.000799 
1.7250058e+3, 1.5479985e+2, -1635418.9, -1394135.4, -25736.14, 0.06867207, -0.039991543, -1391420.9, 31535.959, 0.006494274, 9.997923, 10.001158 
1.7250207e+3, 1.6480017e+2, -1563433.0, -1428065.3, -16430.064, 0.0120109, -0.058330674, -1426099.6, -101146.72, 0.001032908, 9.998248, 10.000092 
1.7250368e+3, 1.7480111e+2, -1349890.1, -1241084.4, -28722.523, 0.0987383, -0.03657248, -1233967.6, -7024.6826, 0.00003215152, 9.998921, 10.000361 
1.7250523e+3, 1.8480098e+2, -1287509.3, -1290790.1, 6880.6543, 0.1409329, -0.020491388, -1282076.3, -153132.83, 0.0, 9.999215, 9.999223 
1.7250673e+3, 1.9479984e+2, -1134547.6, -1138590.0, 11178.814, 0.108985454, -0.11211574, -1125208.8, -94255.52, 0.0, 9.999503, 9.999442 
1.7250824e+3, 2.0479922e+2, -1010790.1, -1066124.8, 40934.133, 0.07857672, -0.09127066, -989050.1, -56091.06, 0.0, 9.9998255, 9.999122 
1.7250974e+3, 2.1479891e+2, -813161.06, -896000.4, 25649.959, 0.043594956, -0.08745018, -805862.06, 29101.322, 0.0, 10.0004225, 9.999318 
1.7251138e+3, 2.247984e+2, -716776.94, -841879.94, 90031.43, 0.06775373, -0.04166805, -669700.2, 67268.09, 0.0, 10.000594, 9.998933 
1.7251313e+3, 2.3479764e+2, -633742.56, -730167.94, 61497.906, 0.13240953, -0.065449715, -603811.44, 35162.742, 0.0, 10.00042, 9.999099 
1.725147e+3, 2.447964e+2, -515822.06, -742413.7, -18260.965, 0.15994462, -0.04000584, -514359.84, 26626.027, 0.0, 10.001018, 9.998078 
1.7251611e+3, 2.5479454e+2, -209177.84, -519255.44, -37268.605, 0.13737442, -0.09258312, -204761.39, 238243.64, 0.0000000000049057277, 10.002368, 9.998272 
1.725176e+3, 2.647926e+2, -90930.01, -509798.53, 43755.094, 0.12564191, -0.060775667, -86408.16, 258616.63, 0.0000011502509, 10.002939, 9.997397 
1.7251915e+3, 2.747904e+2, -20552.45, -407240.47, 44022.426, 0.13127112, -0.07295001, -15604.05, 231442.77, 0.000029351942, 10.002679, 9.997552 
1.7252062e+3, 2.8478834e+2, 57993.082, -325030.44, 14794.561, 0.1432623, -0.018253703, 58563.684, 207631.17, 0.00020332959, 10.002575, 9.997486 
1.7252198e+3, 2.9478619e+2, 204029.14, -164017.81, -8536.202, 0.13543916, -0.055266567, 204227.02, 255316.08, 0.00070578046, 10.002755, 9.997811 
1.7252329e+3, 3.04784e+2, 259219.39, -191705.72, 73891.3, 0.026859289, -0.0137468735, 271018.9, 271018.9, 0.0016366786, 10.0030985, 9.997169 
1.72525e+3, 3.1478062e+2, 419667.44, 86157.69, 2812.116, 0.22010635, -0.12932463, 419691.16, 419691.16, 0.002919125, 10.003273, 9.998992 
1.7349574e+3, 1.247791e+2, -2116217.3, -1761077.5, 85738.12, -0.2063893, -0.1719827, -1741462.0, -24310.955, 0.06561491, 9.996504, 10.001325 
1.7349774e+3, 1.3478073e+2, -1944834.9, -1674068.0, -41388.348, 0.321009, -0.21046638, -1667882.8, -48743.8, 0.042436883, 9.997287, 10.000872 
1.7349876e+3, 1.4478302e+2, -1867307.8, -1677627.3, -46810.145, -0.024932351, 0.0034306785, -1666704.3, -145584.88, 0.021297567, 9.997501, 10.000092 
1.7350024e+3, 1.5478358e+2, -1646964.6, -1425491.0, 6885.321, -0.109580964, -0.07071047, -1425277.1, -2161.4646, 0.0071235094, 9.997955, 10.000923 
1.7350192e+3, 1.6478482e+2, -1520713.8, -1375849.3, -14452.622, -0.016564239, -0.001478761, -1374421.4, -49317.336, 0.0011691477, 9.998391, 10.000384 
1.7350367e+3, 1.7478542e+2, -1335322.9, -1216246.4, 10129.197, 0.15340337, -0.035423815, -1215390.9, 11707.031, 0.00004011834, 9.998934, 10.000529 
1.7350522e+3, 1.8478522e+2, -1251419.3, -1216560.1, -5720.005, 0.1473046, -0.05736071, -1215645.6, -86547.74, 0.0, 9.999216, 9.999731 
1.7350662e+3, 1.9478446e+2, -1120240.0, -1073764.6, 34387.04, 0.0071769087, -0.1642666, -1055499.9, -24398.29, 0.0, 9.999348, 9.999962 
1.7350814e+3, 2.0478415e+2, -1042014.44, -1080544.3, 44049.96, -0.03933132, -0.1442238, -1013200.94, -80098.016, 0.0, 9.999606, 9.9991255 
1.7350979e+3, 2.1478382e+2, -848279.6, -917461.5, 64379.82, 0.022460116, -0.14466406, -809786.4, 25319.902, 0.0, 10.000199, 9.999274 
1.7351146e+3, 2.2478293e+2, -776252.6, -892672.7, 66466.836, 0.06107835, -0.1250884, -746109.7, -8995.343, 0.0, 10.000282, 9.998732 
1.7351317e+3, 2.347814e+2, -682369.2, -773951.6, 73597.13, 0.10416498, -0.20880003, -641480.7, -2353.1436, 0.0, 10.000163, 9.998922 
1.735148e+3, 2.4478002e+2, -572755.0, -772697.5, 16437.453, 0.11499396, -0.18806271, -571412.6, -30271.492, 0.0, 10.000652, 9.998042 
1.7351635e+3, 2.5477865e+2, -255810.81, -541930.4, 36947.11, 0.09973805, -0.18816489, -251116.78, 192039.77, 0.000000000000012544113, 10.002059, 9.998262 
1.7351785e+3, 2.647773e+2, -107402.45, -447912.25, 17390.58, 0.062830225, -0.12532975, -106516.586, 238654.03, 0.0000010511417, 10.002534, 9.9980135 
1.7351934e+3, 2.7477604e+2, -27280.732, -336932.34, 59538.168, 0.024356943, -0.11529877, -16227.596, 230955.84, 0.000029114979, 10.002334, 9.998189 
1.7352083e+3, 2.8477475e+2, 10655.625, -335566.56, -3033.8994, 0.06575779, -0.020385167, 10682.209, 159878.63, 0.00019954766, 10.002194, 9.997599 
1.7352232e+3, 2.9477313e+2, 151955.48, -177241.52, 24933.213, 0.1787567, -0.021401972, 153833.2, 205046.27, 0.0006844002, 10.00235, 9.997914 
1.735237e+3, 3.0477107e+2, 165916.67, -261191.44, 53870.695, 0.08126824, 0.0381729, 172606.55, 172606.55, 0.0015865881, 10.002592, 9.996917 
1.7352535e+3, 3.1476617e+2, 245958.81, -70445.78, 76502.65, 0.17243949, -0.22101113, 263485.34, 263485.34, 0.0028417592, 10.002454, 9.998275 
1.7449555e+3, 1.2476436e+2, -2165105.5, -1821699.8, 135155.5, -0.025692634, -0.05885122, -1774887.4, -57590.844, 0.06957688, 9.99637, 10.000966 
1.7449759e+3, 1.3476524e+2, -1881605.8, -1624369.9, -84127.9, 0.45542562, -0.17634095, -1599299.5, 19989.906, 0.045260757, 9.997652, 10.001041 
1.7449847e+3, 1.447658e+2, -1712854.8, -1602604.1, -7019.665, -0.09796892, -0.1493966, -1602158.9, -80873.2, 0.022935338, 9.998572, 10.000073 
1.745001e+3, 1.5476738e+2, -1630990.5, -1421707.9, 2685.4988, -0.043003846, -0.11896165, -1421673.4, 1598.6979, 0.0078018596, 9.998094, 10.00086 
1.745018e+3, 1.6476895e+2, -1610655.4, -1409448.9, 36475.77, 0.0786478, -0.019250397, -1403040.4, -77782.84, 0.0013223152, 9.997733, 10.00048 
1.7450354e+3, 1.7476958e+2, -1423970.6, -1240928.3, 20525.584, 0.17277747, -0.061777066, -1238654.8, -11403.379, 0.000049909977, 9.998256, 10.000693 
1.7450513e+3, 1.8476966e+2, -1293394.1, -1221873.8, 27855.541, 0.16788892, -0.07044784, -1212304.9, -83055.77, 0.0000000000000006446772, 9.998884, 9.999837 
1.7450662e+3, 1.9476919e+2, -1033630.94, -1020099.2, -1893.7645, 0.060891546, -0.16047302, -1019839.2, 11411.454, 0.0, 9.999903, 10.000043 
1.7450818e+3, 2.047688e+2, -946310.94, -1049526.1, 9126.007, 0.019676814, -0.14361374, -945510.25, -12257.667, 0.0, 10.000314, 9.999006 
1.7450981e+3, 2.1476826e+2, -849976.75, -925781.56, -16010.702, 0.03579222, -0.15320604, -846733.9, -11476.487, 0.0, 10.000221, 9.99921 
1.745115e+3, 2.2476718e+2, -734224.5, -872006.25, 30268.814, 0.07005231, -0.15098785, -727868.1, 9398.598, 0.0, 10.00054, 9.99877 
1.7451325e+3, 2.3476548e+2, -511476.44, -683758.7, 23678.945, 0.120889276, -0.25310338, -508281.22, 131000.03, 0.0, 10.001302, 9.998999 
1.7451493e+3, 2.4476428e+2, -412980.28, -687198.7, 21114.842, 0.14939958, -0.22147802, -411363.97, 129929.24, 0.0, 10.001754, 9.998085 
1.7451656e+3, 2.547633e+2, -286638.25, -553002.44, 392.368, 0.13348785, -0.18127413, -286637.7, 156667.61, 0.0, 10.001868, 9.998268 
1.7451811e+3, 2.647621e+2, -201187.19, -453691.56, -32769.03, 0.11064176, -0.12209893, -197003.86, 148313.7, 0.0000010008785, 10.001692, 9.998385 
1.7451955e+3, 2.747607e+2, -156945.98, -358785.3, -52802.164, 0.06860583, -0.16327445, -143967.25, 103363.24, 0.000030147008, 10.001238, 9.99857 
1.7452109e+3, 2.847593e+2, -45294.133, -358710.75, -38042.664, 0.12538287, -0.10077389, -40742.594, 108601.17, 0.00019899277, 10.001749, 9.997677 
1.7452267e+3, 2.9475757e+2, 273325.44, -129193.375, -68158.6, 0.2586531, -0.11611833, 284553.56, 335915.75, 0.00068156485, 10.003161, 9.997888 
1.7452407e+3, 3.047555e+2, 332203.88, -144262.08, -3082.7783, 0.16917278, -0.06471647, 332223.8, 332223.8, 0.0015937911, 10.003554, 9.997275 
1.7452574e+3, 3.147522e+2, 363561.56, -15107.738, -36068.824, 0.3093125, -0.20033857, 366966.56, 366966.56, 0.0028815179, 10.0032215, 9.998299 
1.7549549e+3, 1.24748275e+2, -2157547.0, -1849537.4, 3874.9055, 0.17182972, -0.005039437, -1849488.6, -132032.38, 0.07366958, 9.996545, 10.000693 
1.7549703e+3, 1.3474925e+2, -1836665.1, -1535700.5, -3373.4243, 0.088904046, -0.121600404, -1535662.8, 83783.836, 0.048192136, 9.997661, 10.001664 
1.7549838e+3, 1.4474988e+2, -1638188.6, -1484086.5, -31603.566, -0.111327834, -0.18797454, -1477857.0, 43583.15, 0.024652572, 9.998716, 10.000831 
1.7550012e+3, 1.5475132e+2, -1622138.1, -1418378.8, -4892.984, 0.12864344, -0.17778741, -1418261.4, 5164.495, 0.008527423, 9.998144, 10.000869 
1.7550166e+3, 1.6475229e+2, -1601287.8, -1407580.9, 20960.166, 0.101934, -0.13112098, -1405338.9, -79922.59, 0.0014925194, 9.997817, 10.00045 
1.7550322e+3, 1.7475349e+2, -1421798.3, -1224528.0, 55733.934, 0.008101767, -0.12396962, -1209870.8, 17533.771, 0.00006156021, 9.998215, 10.000821 
1.7550492e+3, 1.847543e+2, -1314472.1, -1262363.3, 45355.207, 0.029283972, -0.056726146, -1236111.6, -106714.66, 0.0000000010737394, 9.99887, 9.999565 
1.755067e+3, 1.9475403e+2, -1076336.0, -1084042.9, 49619.613, 0.11891423, -0.09355897, -1030420.4, 979.93463, 0.0, 9.999795, 9.999657 
1.755083e+3, 2.0475325e+2, -992937.25, -1103738.0, -12569.294, 0.075931884, -0.081093796, -991529.3, -58121.44, 0.0, 10.00013, 9.998721 
1.7550978e+3, 2.14752e+2, -901776.44, -978532.25, -4838.553, -0.05622824, -0.13878025, -901472.6, -66053.53, 0.0, 9.999979, 9.998966 
1.7551143e+3, 2.24751e+2, -762706.7, -853984.5, 40561.664, -0.075028144, -0.13101625, -747286.94, -9859.65, 0.0, 10.000211, 9.999051 
1.7551331e+3, 2.3474999e+2, -531978.44, -664002.44, 70582.25, 0.028724646, -0.19480117, -501349.66, 138084.72, 0.0, 10.001027, 9.9992695 
1.7551507e+3, 2.4474911e+2, -472343.94, -723949.44, 11863.979, 0.067719534, -0.14033847, -471785.75, 69656.92, 0.0, 10.001384, 9.998011 
1.7551671e+3, 2.5474823e+2, -334405.0, -583624.8, 25517.625, 0.07257997, -0.08724504, -331819.1, 111634.76, 0.0, 10.0015745, 9.998198 
1.7551827e+3, 2.6474658e+2, -246512.4, -473982.13, -70475.72, 0.081262685, -0.06786123, -226447.25, 119022.04, 0.00000094846536, 10.001369, 9.9984045 
1.7551972e+3, 2.7474424e+2, -194019.13, -365268.84, -46562.934, 0.091581404, -0.21021484, -182177.45, 65311.21, 0.000030605133, 10.000942, 9.998666 
1.7552128e+3, 2.847421e+2, -97128.92, -385309.8, -3517.0479, 0.11549479, -0.23424992, -97086.01, 52422.508, 0.00020047408, 10.001402, 9.99766 
1.7552294e+3, 2.947397e+2, 202718.69, -170847.83, 10480.552, 0.17027171, -0.3150903, 203012.5, 254546.42, 0.00069770816, 10.002725, 9.997805 
1.7552435e+3, 3.0473784e+2, 293394.38, -101418.08, -48175.426, 0.060734864, -0.26533705, 299187.78, 299187.78, 0.001653074, 10.0030365, 9.997808 
1.755261e+3, 3.1473893e+2, 256963.61, -28042.068, 31343.768, 0.27484003, -0.04249371, 260369.95, 260369.95, 0.0030124856, 10.002381, 9.998587 
1.764951e+3, 1.2473008e+2, -2116312.8, -1837775.5, 30376.037, 0.14610505, -0.12965709, -1834501.4, -116864.65, 0.07790593, 9.9968195, 10.000657 
1.7649676e+3, 1.3473335e+2, -1969248.5, -1533213.4, 28835.459, 0.13688503, -0.06707292, -1531314.6, 88288.56, 0.05123237, 9.996438, 10.002282 
1.7649819e+3, 1.4473422e+2, -1906753.5, -1604720.9, -28849.355, -0.06855423, -0.15018487, -1601990.0, -80396.28, 0.026445003, 9.996844, 10.000906 
1.765e+3, 1.5473534e+2, -1712331.5, -1461598.0, -67190.125, 0.22383396, -0.16629906, -1444727.8, -21145.363, 0.009296644, 9.997561, 10.000848 
1.7650153e+3, 1.6473605e+2, -1542573.4, -1385007.9, 21034.895, 0.17621127, -0.14058217, -1382248.0, -56673.063, 0.0016790463, 9.998262, 10.000379 
1.7650309e+3, 1.7473689e+2, -1272161.0, -1165208.1, 3641.043, 0.00942674, -0.16258845, -1165084.4, 62481.574, 0.000074904594, 9.999297, 10.000702 
1.7650484e+3, 1.8473768e+2, -1222918.1, -1236909.8, 10933.687, 0.03683444, -0.08282827, -1216933.8, -87374.54, 0.000000009428086, 9.999567, 9.999415 
1.765067e+3, 1.9473791e+2, -1140653.1, -1127277.9, -5911.11, 0.17310922, -0.054286975, -1125040.0, -93479.77, 0.0, 9.999404, 9.999562 
1.7650837e+3, 2.0473737e+2, -1028521.2, -1078128.1, -1990.5765, 0.15002395, -0.031480156, -1028441.44, -94875.836, 0.0, 9.99971, 9.999096 
1.7650983e+3, 2.1473601e+2, -782845.7, -878189.56, 18988.336, -0.01961841, -0.13455686, -779203.2, 56372.316, 0.0, 10.000621, 9.999343 
1.7651151e+3, 2.2473504e+2, -688326.4, -832787.3, 94901.08, -0.045507688, -0.13405661, -641294.75, 96288.02, 0.0, 10.000806, 9.998898 
1.765134e+3, 2.347343e+2, -645817.2, -733335.4, 47385.605, 0.060955346, -0.15299284, -625076.25, 14512.704, 0.0, 10.000332, 9.999118 
1.7651519e+3, 2.4473335e+2, -571876.6, -727167.94, 32387.844, 0.1132161, -0.11837016, -565392.5, -23795.316, 0.0, 10.00046, 9.998457 
1.7651688e+3, 2.5473204e+2, -357338.25, -548165.75, 54866.1, 0.10718353, -0.14881915, -342688.03, 100920.82, 0.0, 10.001177, 9.998653 
1.7651846e+3, 2.6473036e+2, -194943.8, -455141.3, 1905.4474, 0.122043915, -0.15465564, -194929.84, 150693.69, 0.0000007067664, 10.001771, 9.998329 
1.7651992e+3, 2.7472824e+2, -8644.076, -284598.38, -34549.5, 0.13466576, -0.26470536, -4384.2344, 243257.95, 0.000029110019, 10.002268, 9.998572 
1.7652152e+3, 2.847263e+2, 56635.086, -319982.7, 58213.945, 0.16434196, -0.25964808, 65427.95, 215089.67, 0.0002034409, 10.002523, 9.997563 
1.7652324e+3, 2.9472417e+2, 178074.33, -200355.66, 5406.9004, 0.22505033, -0.2923471, 178151.56, 229837.7, 0.0007263894, 10.002653, 9.997633 
1.7652467e+3, 3.0472174e+2, 325899.4, -77467.055, -34269.918, 0.08923845, -0.29006135, 328790.25, 328790.25, 0.0017327985, 10.003191, 9.997907 
1.765264e+3, 3.1472287e+2, 484379.97, 94356.3, -73297.1, 0.2833624, -0.0645924, 497699.78, 497699.78, 0.0031529672, 10.003828, 9.998759 
1.7749457e+3, 1.2471307e+2, -2087183.3, -1854084.5, 8537.307, -0.17753229, -0.15465918, -1853772.3, -135966.88, 0.08231803, 9.997089, 10.000448 
1.7749687e+3, 1.3471831e+2, -1933139.6, -1474183.0, 53105.074, 0.5487764, 0.035338767, -1468118.4, 151633.34, 0.054393712, 9.996481, 10.002695 
1.7749779e+3, 1.4471835e+2, -1936663.8, -1696174.0, -22116.264, -0.2163998, -0.094881795, -1694157.0, -172406.22, 0.02831169, 9.9969635, 10.000225 
1.7749964e+3, 1.5471941e+2, -1713636.4, -1476328.6, -27054.75, 0.07158214, -0.09923588, -1473283.4, -49541.035, 0.010105246, 9.997597, 10.000737 
1.7750135e+3, 1.6472033e+2, -1544376.8, -1402846.1, 37518.555, 0.13323271, -0.048768546, -1393515.4, -67782.29, 0.0018804772, 9.998325, 10.000224 
1.7750306e+3, 1.7471978e+2, -1300018.6, -1217602.1, 58195.582, 0.028815731, -0.17529751, -1187502.3, 40233.195, 0.00008970714, 9.999279, 10.000348 
1.7750481e+3, 1.847198e+2, -1226083.5, -1243569.9, -12680.357, 0.0019553248, -0.15119696, -1219424.3, -89688.16, 0.000000028818846, 9.999568, 9.999369 
1.7750658e+3, 1.947207e+2, -1154002.3, -1130485.0, 4490.6436, 0.0740411, -0.05663306, -1129656.6, -97925.07, 0.0, 9.999295, 9.999594 
1.775083e+3, 2.0472097e+2, -990456.7, -950230.7, 11418.092, 0.06760083, -0.0030288785, -947215.6, -13488.066, 0.0, 9.999508, 10.000064 
1.7750993e+3, 2.1472019e+2, -758862.6, -761066.3, 67459.766, -0.0008950826, -0.14888844, -692495.7, 143231.89, 0.0, 10.000341, 10.000273 
1.7751166e+3, 2.2471929e+2, -786881.94, -965725.4, 61640.89, -0.011814651, -0.15141138, -767695.0, -29961.299, 0.0, 10.000487, 9.99814 
1.7751348e+3, 2.3471819e+2, -728539.25, -860559.75, 49435.152, 0.06559198, -0.13677445, -712080.2, -72332.78, 0.0, 10.000121, 9.99835 
1.7751525e+3, 2.447167e+2, -552735.2, -605499.25, 39772.402, 0.10235568, -0.16421567, -531390.3, 10369.351, 0.0, 10.000117, 9.999452 
1.7751701e+3, 2.5471482e+2, -327325.44, -416528.7, 101402.164, 0.09248344, -0.3602108, -261149.34, 182620.9, 0.0, 10.000888, 9.999692 
1.7751862e+3, 2.6471353e+2, -268996.4, -522894.88, 4827.6777, 0.06434538, -0.37039346, -268904.66, 76875.42, 0.00000032366296, 10.001411, 9.998034 
1.7752007e+3, 2.7471274e+2, -87026.44, -357815.63, 7489.8823, 0.03065518, -0.30997938, -86819.43, 160971.19, 0.00002512301, 10.001906, 9.998232 
1.7752172e+3, 2.847118e+2, -32669.996, -417786.0, 35782.902, 0.06955583, -0.15972513, -29373.459, 120430.57, 0.00020101898, 10.00214, 9.997077 
1.7752354e+3, 2.9471064e+2, 94072.85, -285058.88, 37179.434, 0.20965281, -0.061491366, 97684.44, 149505.7, 0.0007432089, 10.002276, 9.997227 
1.7752497e+3, 3.047071e+2, 223563.33, -172940.78, -29347.691, 0.0273267, -0.13189015, 225723.75, 225723.75, 0.0017748435, 10.002703, 9.997482 
1.775266e+3, 3.1470612e+2, 349898.78, 56478.504, 39470.914, 0.021619767, -0.076353826, 355115.66, 355115.66, 0.0031990055, 10.002871, 9.998925 
1.7849423e+3, 1.2469733e+2, -2118898.0, -1880669.1, 68646.24, -0.19209121, -0.026896808, -1862304.4, -144344.02, 0.08696164, 9.996982, 10.000275 
1.7849654e+3, 1.347016e+2, -1880311.9, -1443619.3, -59496.992, 0.5761578, 0.060156066, -1435658.3, 184258.25, 0.057701517, 9.99688, 10.002696 
1.7849754e+3, 1.4470139e+2, -2058939.0, -1735899.3, 2433.9487, -0.109575, -0.09819433, -1735881.0, -213962.61, 0.030258754, 9.996055, 10.000385 
1.7849942e+3, 1.5470286e+2, -1629637.1, -1399987.4, 2678.2117, 0.07957477, -0.093790315, -1399956.1, 23949.33, 0.0109521225, 9.998015, 10.001056 
1.785012e+3, 1.647042e+2, -1477157.0, -1378056.0, 84863.914, 0.13103777, -0.015201064, -1329335.8, -3443.7095, 0.0020959692, 9.998825, 10.000142 
1.7850298e+3, 1.7470375e+2, -1433563.9, -1291748.0, 74026.125, 0.06462307, -0.12621413, -1260148.4, -32253.72, 0.000105867584, 9.99842, 10.000241 
1.7850475e+3, 1.8470354e+2, -1390347.0, -1291058.5, 59119.76, 0.058683537, -0.1313574, -1263503.6, -133607.23, 0.0000000562377, 9.998305, 9.999659 
1.7850651e+3, 1.9470407e+2, -1185912.4, -1106201.9, 70829.71, 0.09962763, -0.10667314, -1064784.1, -32891.676, 0.0, 9.9989, 9.9999485 
1.7850825e+3, 2.0470433e+2, -1022026.25, -979256.44, 98867.61, 0.108296454, -0.06711645, -899487.4, 34400.543, 0.0, 9.99936, 9.999935 
1.7851001e+3, 2.1470386e+2, -838382.25, -815658.2, 33564.25, 0.07401178, -0.16598226, -791585.0, 44301.504, 0.0, 9.999865, 10.000131 
1.7851174e+3, 2.2470301e+2, -830941.25, -966494.6, 24814.705, 0.06349901, -0.16196194, -826541.44, -88649.13, 0.0, 10.0001, 9.99833 
1.7851348e+3, 2.3470178e+2, -725214.8, -837792.7, 42894.188, 0.07695639, -0.17486188, -710734.0, -70828.18, 0.0, 10.000063, 9.998542 
1.7851527e+3, 2.447004e+2, -536527.0, -584335.75, 93360.0, 0.112576045, -0.20560463, -464059.66, 77857.08, 0.0, 10.000195, 9.999543 
1.7851712e+3, 2.5469878e+2, -368689.72, -426280.63, 45691.836, 0.15062976, -0.38272765, -343476.66, 100448.586, 0.0, 10.000586, 9.999753 
1.785188e+3, 2.646977e+2, -315323.88, -564818.5, -48644.453, 0.13479106, -0.36873993, -306175.06, 39759.297, 0.00000018370703, 10.0011425, 9.997896 
1.7852025e+3, 2.746968e+2, -97074.61, -391887.38, -68954.21, 0.03328402, -0.29649475, -81744.01, 166203.45, 0.000020759246, 10.001907, 9.998033 
1.785219e+3, 2.8469592e+2, 28579.848, -353097.25, 27653.072, 0.04997303, -0.14421831, 30572.947, 180533.36, 0.00019262578, 10.002425, 9.997372 
1.7852376e+3, 2.946951e+2, 186417.55, -210786.16, 23623.346, 0.21087432, -0.03689112, 187817.58, 239789.83, 0.00073903677, 10.002775, 9.997495 
1.7852527e+3, 3.0469146e+2, 256110.53, -193573.84, 34891.426, 0.06018058, -0.11681663, 258801.69, 258801.69, 0.0017591724, 10.003092, 9.997145 
1.7852692e+3, 3.146892e+2, 367900.47, 21575.414, 4827.7124, 0.092650495, -0.13260879, 367967.75, 367967.75, 0.0031190799, 10.003125, 9.998591 
1.7949417e+3, 1.2468012e+2, -2098338.3, -1889943.9, 91459.016, -0.069318846, -0.03883383, -1855498.4, -137370.03, 0.09190124, 9.99721, 10.000101 
1.7949566e+3, 1.3468292e+2, -1875229.3, -1482117.6, -125863.91, -0.030186238, -0.02951478, -1445272.8, 174827.83, 0.06119029, 9.997052, 10.002368 
1.7949739e+3, 1.4468342e+2, -1986486.0, -1592432.9, 26405.904, 0.08142493, -0.15995938, -1590671.3, -68576.35, 0.03230053, 9.996098, 10.001344 
1.7949928e+3, 1.5468577e+2, -1586430.0, -1304821.6, 94631.7, 0.108860716, -0.13960668, -1275976.3, 148094.88, 0.011841973, 9.998002, 10.00172 
1.79501e+3, 1.6468762e+2, -1459771.8, -1372717.8, 51577.418, -0.0077564307, -0.0372816, -1348755.3, -22702.256, 0.0023264778, 9.99894, 10.0001335 
1.7950277e+3, 1.7468853e+2, -1422306.1, -1278084.6, 68775.49, -0.02053552, -0.017068423, -1250545.9, -22500.217, 0.00012352158, 9.9984455, 10.000334 
1.7950459e+3, 1.8468872e+2, -1337881.1, -1184066.1, 56882.242, 0.027018506, -0.024035752, -1165316.1, -35274.348, 0.000000085167756, 9.998322, 10.000378 
1.7950642e+3, 1.9468804e+2, -1156469.4, -1019568.6, 104010.11, 0.097386055, -0.19246349, -963505.75, 68537.21, 0.0, 9.998793, 10.000593 
1.7950821e+3, 2.0468752e+2, -1134028.8, -1167060.3, 97054.96, 0.09152023, -0.20378153, -1052094.3, -118048.555, 0.0, 9.99916, 9.998748 
1.7951e+3, 2.1468711e+2, -957275.44, -1011040.25, 68941.8, 0.059158478, -0.17385039, -910160.3, -74108.79, 0.0, 9.999634, 9.998908 
1.7951173e+3, 2.2468624e+2, -814769.0, -852507.5, 5551.526, 0.011216462, -0.15597862, -813969.25, -75910.71, 0.0, 9.999761, 9.999274 
1.795134e+3, 2.3468493e+2, -696800.56, -710595.1, 58864.367, -0.044407807, -0.27762067, -644430.75, -4364.5957, 0.0, 9.999774, 9.99955 
1.7951518e+3, 2.4468417e+2, -651715.9, -740312.7, 91445.02, -0.019106405, -0.2574586, -594404.56, -52333.395, 0.0, 9.999837, 9.998646 
1.795172e+3, 2.5468382e+2, -478032.4, -582885.44, 78245.71, 0.12941894, -0.21473984, -436273.3, 7801.521, 0.0, 10.000292, 9.998815 
1.7951895e+3, 2.646826e+2, -370594.25, -596856.9, -38988.684, 0.14378667, -0.16112547, -364064.3, -17975.793, 0.00000013255313, 10.000785, 9.997849 
1.7952041e+3, 2.7468038e+2, -143698.53, -404700.22, -21379.303, -0.02670356, -0.2304154, -141958.89, 106154.195, 0.0000188634, 10.001565, 9.998097 
1.7952205e+3, 2.8467885e+2, 27645.414, -264030.38, 17795.17, -0.09012922, -0.18840829, 28727.088, 178855.94, 0.00018772876, 10.0020275, 9.998178 
1.795239e+3, 2.946779e+2, 180308.23, -107712.336, 67179.74, 0.030477071, -0.1769773, 195206.98, 247342.8, 0.00073121197, 10.0023, 9.99842 
1.7952551e+3, 3.0467495e+2, 133143.34, -336600.9, 11723.86, -0.05072562, -0.20138511, 133435.77, 133435.77, 0.0017175064, 10.002583, 9.99642 
1.7952728e+3, 3.1467244e+2, 241056.92, -68740.625, 90531.65, 0.06845581, -0.1878803, 265572.78, 265572.78, 0.002974606, 10.00242, 9.998285 
1.8049407e+3, 1.2466261e+2, -2305087.8, -1927576.6, 187872.75, 0.21589175, -0.12989861, -1850015.0, -131718.4, 0.097200245, 9.995591, 10.000604 
1.804952e+3, 1.3466588e+2, -1873547.6, -1502317.3, -96051.8, -0.1977127, -0.03707436, -1478937.4, 141327.4, 0.06490086, 9.997186, 10.00215 
1.804972e+3, 1.4466561e+2, -1728310.1, -1476482.6, 82705.59, 0.21933845, -0.23826101, -1451749.4, 70517.76, 0.034457777, 9.997867, 10.001311 
1.8049909e+3, 1.546689e+2, -1663584.3, -1355317.4, 63857.44, 0.1612594, -0.11420195, -1342612.9, 81622.016, 0.0127833225, 9.997516, 10.001608 
1.8050082e+3, 1.6467085e+2, -1674899.5, -1461937.9, 17535.615, 0.0024577072, -0.0040018, -1460503.6, -134287.0, 0.0025744103, 9.997402, 10.000266 
1.8050262e+3, 1.7467153e+2, -1470523.5, -1275545.8, 4486.333, 0.024235062, -0.025623098, -1275442.6, -47230.566, 0.00014305822, 9.998014, 10.000547 
1.805045e+3, 1.8467179e+2, -1278656.3, -1156150.4, 27300.29, 0.10140563, -0.03869223, -1150342.0, -20134.576, 0.00000010953618, 9.99872, 10.000383 
1.8050638e+3, 1.9467129e+2, -1028780.94, -955590.2, -11817.236, 0.13199912, -0.18442538, -953729.5, 78475.77, 0.0, 9.999669, 10.00061 
1.805082e+3, 2.0467074e+2, -1032774.6, -1152478.9, 2033.455, 0.12546313, -0.1850877, -1032740.06, -98531.14, 0.0, 9.999989, 9.998464 
1.8051001e+3, 2.1467008e+2, -961853.6, -1043336.9, 9390.902, 0.10964207, -0.15137088, -960785.4, -124565.74, 0.0, 9.99973, 9.998645 
1.8051177e+3, 2.2466914e+2, -770011.06, -797009.44, 1509.2393, 0.08020541, -0.14176178, -769926.94, -31699.342, 0.0, 9.999931, 9.99956 
1.8051347e+3, 2.3466788e+2, -526213.6, -595425.06, -33521.97, 0.012530669, -0.28677964, -512639.72, 127593.32, 0.0, 10.000816, 9.999827 
1.8051527e+3, 2.4466719e+2, -487862.13, -707084.7, 5954.533, 0.025009442, -0.25285798, -487700.5, 54536.9, 0.0, 10.001131, 9.99828 
1.8051723e+3, 2.5466686e+2, -446214.56, -620546.7, -4919.4873, 0.13070239, -0.15870227, -446075.88, -1832.3376, 0.0, 10.000697, 9.998398 
1.8051903e+3, 2.6466563e+2, -351674.28, -550822.75, -26976.281, 0.16154411, -0.09993445, -348084.8, -1826.8682, 0.00000007008213, 10.000766, 9.998169 
1.8052062e+3, 2.7466324e+2, -131150.64, -373455.34, -37737.082, 0.05456848, -0.21097806, -125409.41, 122872.78, 0.000018211349, 10.001524, 9.998344 
1.8052231e+3, 2.846614e+2, 21532.232, -261364.36, 6654.3706, -0.00089317095, -0.2125574, 21688.672, 171988.42, 0.00018396454, 10.001949, 9.998238 
1.8052413e+3, 2.9466003e+2, 175162.72, -111349.08, -55105.313, 0.03554967, -0.24131177, 185395.73, 237706.81, 0.0007180549, 10.002246, 9.998432 
1.8052581e+3, 3.0465773e+2, 190963.19, -277610.63, -56531.77, -0.005168941, -0.21680172, 197687.05, 197687.05, 0.0016647228, 10.002878, 9.996665 
1.8052772e+3, 3.1465608e+2, 408009.0, 13049.973, -23805.262, 0.20910102, -0.11374747, 409438.63, 409438.63, 0.0028336896, 10.003479, 9.998378 
1.8149368e+3, 1.246449e+2, -2202741.0, -1781339.4, 42741.5, 0.18204512, -0.26574734, -1777048.0, -58583.938, 0.10291468, 9.995828, 10.001516 
1.814951e+3, 1.3465013e+2, -1880477.0, -1520274.9, -11488.383, -0.055338252, 0.034523025, -1519908.9, 100503.39, 0.06887483, 9.997202, 10.002008 
1.8149693e+3, 1.446476e+2, -1761511.6, -1570709.9, 44326.367, 0.1039324, -0.3530175, -1560915.0, -38476.25, 0.036753505, 9.997979, 10.000595 
1.8149881e+3, 1.5465204e+2, -1708278.0, -1462446.1, 62776.973, 0.07036995, -0.034212504, -1447342.9, -22943.514, 0.01378539, 9.997571, 10.000843 
1.8150057e+3, 1.6465384e+2, -1636652.5, -1406101.6, 15030.637, -0.03716259, 0.07848915, -1405125.9, -78742.13, 0.002842686, 9.9974985, 10.000603 
1.815025e+3, 1.7465274e+2, -1451452.6, -1242859.1, 42220.496, 0.06029137, -0.14731766, -1234637.5, -6243.597, 0.00016504708, 9.998027, 10.0007715 
1.8150443e+3, 1.8465276e+2, -1326801.8, -1253110.0, 41480.19, 0.11624762, -0.16336633, -1234474.1, -104081.664, 0.00000012908751, 9.998706, 9.999726 
1.815063e+3, 1.9465388e+2, -1084070.5, -1054773.1, 36719.785, 0.061650395, -0.08284806, -1029887.94, 2491.3564, 0.0, 9.999594, 9.999969 
1.8150812e+3, 2.0465393e+2, -1023501.56, -1083109.0, -23487.486, 0.034125566, -0.01990826, -1015358.94, -80980.695, 0.0, 9.999781, 9.999036 
1.8150999e+3, 2.1465261e+2, -958523.5, -975315.3, 17201.748, 0.08790403, -0.11006127, -947778.0, -111385.695, 0.0, 9.999468, 9.999237 
1.8151182e+3, 2.2465155e+2, -851275.4, -882479.75, 16776.32, 0.10428704, -0.12597094, -843967.44, -105566.14, 0.0, 9.999573, 9.9991455 
1.8151365e+3, 2.3465066e+2, -600680.6, -685171.75, 17782.924, 0.089859694, -0.19049808, -597090.4, 43315.273, 0.0, 10.000533, 9.999349 
1.8151543e+3, 2.4464941e+2, -538161.3, -733073.9, -21870.195, 0.046561517, -0.18288884, -535737.5, 6678.295, 0.0, 10.000794, 9.998256 
1.8151718e+3, 2.5464788e+2, -476547.06, -622348.75, -766.4942, 0.0015954224, -0.22430238, -476543.03, -32111.018, 0.0, 10.000439, 9.9985 
1.81519e+3, 2.646467e+2, -376052.16, -519113.25, -18209.791, 0.018936219, -0.18652304, -373770.7, -27327.072, 0.0000000874347, 10.00041, 9.998558 
1.8152086e+3, 2.7464554e+2, -156859.23, -338109.2, 13722.798, 0.10467052, -0.22235762, -155826.14, 92627.32, 0.00001648955, 10.001161, 9.998751 
1.8152264e+3, 2.8464386e+2, -96263.46, -420509.8, -5017.3804, 0.09014936, -0.18327454, -96185.84, 54284.84, 0.00017264318, 10.001565, 9.997335 
1.8152435e+3, 2.946416e+2, 67233.336, -255351.56, -14034.22, 0.0034414844, -0.22430848, 67842.75, 120338.586, 0.000683164, 10.001891, 9.997614 
1.8152608e+3, 3.0463985e+2, 166606.94, -212509.94, -56593.05, -0.057142954, -0.13846323, 174874.63, 174874.63, 0.0015936061, 10.0023985, 9.997338 
1.8152794e+3, 3.146378e+2, 335517.16, 92739.57, 48577.723, 0.02746162, -0.15761973, 344876.34, 344876.34, 0.002724428, 10.002569, 9.999325 
1.8249325e+3, 1.24627486e+2, -2243611.0, -1644617.8, -34777.203, 0.24195048, -0.31564105, -1642605.4, 76028.84, 0.10907774, 9.994814, 10.003005 
1.824948e+3, 1.3463345e+2, -1898424.1, -1608996.6, -50218.32, -0.06970062, 0.1254493, -1600530.9, 20043.412, 0.07313931, 9.997392, 10.001283 
1.8249677e+3, 1.4462885e+2, -1846783.4, -1641098.3, -38439.08, 0.18096958, -0.42291152, -1634149.4, -111528.62, 0.039204508, 9.997553, 10.000309 
1.8249854e+3, 1.5463315e+2, -1751726.9, -1527219.4, -30057.813, 0.08468677, -0.07617198, -1523264.8, -98681.484, 0.014855209, 9.997488, 10.000431 
1.8250033e+3, 1.646348e+2, -1596978.0, -1381735.3, -9776.068, -0.01906128, 0.04309026, -1381292.1, -54722.875, 0.0031336718, 9.997747, 10.000645 
1.8250237e+3, 1.7463407e+2, -1389924.6, -1202480.8, -34135.926, 0.110829756, -0.15397994, -1196457.8, 32117.7, 0.00019006866, 9.99842, 10.000855 
1.8250437e+3, 1.846343e+2, -1346518.5, -1252325.3, 10435.515, 0.1970295, -0.15588427, -1251183.0, -120611.06, 0.00000015151502, 9.998525, 9.999817 
1.8250623e+3, 1.9463527e+2, -1272869.5, -1130541.3, 25454.744, 0.12188739, -0.100007534, -1126125.8, -93565.164, 0.0, 9.998262, 10.000079 
1.825081e+3, 2.0463537e+2, -1183612.1, -1115128.0, 16883.78, 0.09493157, -0.05737282, -1111191.8, -176633.28, 0.0, 9.998492, 9.999417 
1.8250996e+3, 2.1463424e+2, -948739.1, -923406.1, 9167.909, 0.14112629, -0.1715336, -920436.4, -83867.41, 0.0, 9.999344, 9.999631 
1.8251185e+3, 2.2463341e+2, -821048.06, -921066.56, 50464.457, 0.17769125, -0.16358083, -800010.94, -61434.53, 0.0, 9.999977, 9.998702 
1.8251377e+3, 2.3463279e+2, -654712.0, -757884.8, 18016.375, 0.1806032, -0.1553668, -651656.44, -11075.0, 0.0, 10.000351, 9.998944 
1.8251558e+3, 2.4463142e+2, -520121.3, -725171.0, -750.4899, 0.12511183, -0.14339621, -520118.56, 22475.91, 0.0, 10.0009165, 9.998245 
1.8251729e+3, 2.5462916e+2, -295131.3, -535219.56, -21678.666, 0.0059229033, -0.25682968, -293189.56, 151427.56, 0.0, 10.001681, 9.998488 
1.8251911e+3, 2.646279e+2, -161009.34, -405029.22, -25734.629, 0.024118856, -0.2293021, -158324.88, 188304.02, 0.00000011582431, 10.001858, 9.998637 
1.8252103e+3, 2.7462745e+2, -114084.43, -314340.16, -67389.23, 0.16354251, -0.19425866, -93518.89, 155113.03, 0.000015405387, 10.001436, 9.998787 
1.8252288e+3, 2.8462592e+2, -114425.65, -423506.88, -8915.174, 0.18510063, -0.14143972, -114168.72, 36478.973, 0.00016033741, 10.001434, 9.99737 
1.8252459e+3, 2.9462332e+2, 73945.734, -261975.52, -10124.375, 0.06676258, -0.20717, 74250.6, 126927.125, 0.00064014964, 10.001971, 9.997538 
1.8252644e+3, 3.0462134e+2, 252876.02, -155344.22, 24889.3, 0.051000435, -0.14439662, 254387.92, 254387.92, 0.0015227208, 10.002907, 9.997496 
1.8252838e+3, 3.1461915e+2, 576723.94, 194629.61, -61146.17, 0.15491107, -0.18215536, 586270.56, 586270.56, 0.0026626869, 10.00422, 9.999285 
1.834927e+3, 1.2461044e+2, -2075366.1, -1365238.3, -133192.94, 0.11091671, -0.26636052, -1341078.3, 377728.44, 0.11569034, 9.994962, 10.00511 
1.8349425e+3, 1.3461587e+2, -1958854.5, -1762146.8, 15027.059, -0.40749553, 0.24712174, -1761005.4, -140255.06, 0.07769921, 9.997495, 10.000178 
1.8349662e+3, 1.4460944e+2, -1821125.8, -1621527.1, -80998.945, 0.22366971, -0.4433808, -1592793.5, -69980.76, 0.04181763, 9.99769, 10.000378 
1.8349831e+3, 1.5461215e+2, -1754736.3, -1549539.6, -16037.967, 0.04831408, -0.24356031, -1548293.6, -123506.18, 0.015997248, 9.997541, 10.000256 
1.8350007e+3, 1.6461362e+2, -1597502.3, -1408130.4, -5464.474, -0.11278917, -0.11611173, -1407972.8, -81198.555, 0.0034491862, 9.997852, 10.000415 
1.8350217e+3, 1.7461522e+2, -1389080.4, -1215397.5, 1810.661, 0.03207511, -0.06882858, -1215378.6, 13380.74, 0.00021871291, 9.9984665, 10.000749 
1.8350421e+3, 1.8461603e+2, -1293677.9, -1136835.6, -19507.676, 0.14804864, -0.04675739, -1134445.8, -3696.546, 0.00000018976193, 9.998507, 10.000617 
1.8350615e+3, 1.9461526e+2, -1234012.6, -1028215.75, 27990.484, 0.16217406, -0.24391536, -1024476.7, 8274.599, 0.0, 9.998164, 10.000831 
1.8350802e+3, 2.0461485e+2, -1192794.6, -1089599.6, 28525.514, 0.13513617, -0.3039664, -1082239.5, -147487.61, 0.0, 9.9983, 9.999687 
1.835099e+3, 2.1461491e+2, -964651.56, -902320.56, 52514.71, 0.11656256, -0.32453728, -872419.9, -35669.742, 0.0, 9.999109, 9.999889 
1.8351182e+3, 2.2461474e+2, -900232.9, -1008395.2, 48386.777, 0.11959053, -0.24146755, -881746.5, -142993.72, 0.0, 9.999642, 9.99827 
1.8351379e+3, 2.3461416e+2, -724182.4, -840405.0, 49753.53, 0.14907967, -0.18677285, -705793.1, -65031.082, 0.0, 10.000082, 9.998515 
1.8351567e+3, 2.4461295e+2, -573401.06, -750449.75, 9236.556, 0.09824124, -0.1375334, -572920.5, -30144.46, 0.0, 10.000546, 9.998255 
1.8351746e+3, 2.5461078e+2, -348522.8, -565720.8, 27482.615, -0.012639154, -0.23887806, -345099.3, 99698.414, 0.0, 10.001341, 9.9984455 
1.8351927e+3, 2.6460943e+2, -243453.22, -500120.72, -55314.152, -0.028037684, -0.19024038, -232040.03, 114771.43, 0.000000090536304, 10.001518, 9.998154 
1.8352112e+3, 2.746089e+2, -177703.16, -387489.2, -56967.973, 0.065292306, -0.12423886, -163231.63, 85585.914, 0.00001528185, 10.001178, 9.998409 
1.8352295e+3, 2.846074e+2, -119738.42, -351369.06, -16411.49, 0.08376661, -0.087788805, -118581.414, 32251.07, 0.00015301355, 10.001073, 9.998038 
1.8352479e+3, 2.9460493e+2, 68897.45, -180071.38, 37959.18, 0.028114805, -0.21827613, 74556.305, 127412.44, 0.0006077412, 10.001589, 9.998272 
1.835268e+3, 3.0460238e+2, 119469.836, -310720.44, 47784.36, 0.07445376, -0.20593973, 124713.67, 124713.67, 0.0014712461, 10.002387, 9.996677 
1.8352877e+3, 3.1460044e+2, 374703.1, -43111.24, 25922.582, 0.055043496, -0.16036947, 376305.28, 376305.28, 0.0026389663, 10.003466, 9.997992 
1.8449235e+3, 1.2459214e+2, -2028202.0, -1304342.8, -76760.82, 0.25898308, -0.30896056, -1296292.3, 422694.25, 0.12272786, 9.995106, 10.005529 
1.8449402e+3, 1.3459791e+2, -2256889.5, -1980141.8, 77477.48, -0.29764277, 0.31204408, -1959927.8, -339000.13, 0.08254445, 9.995833, 9.999468 
1.8449634e+3, 1.4459029e+2, -1856944.1, -1645560.8, -26778.436, 0.18624756, -0.4563762, -1642221.1, -119220.016, 0.04459436, 9.99746, 10.000329 
1.8449813e+3, 1.5459287e+2, -1610585.0, -1474631.6, 12359.265, 0.08372141, -0.27453035, -1473517.3, -48542.57, 0.017215712, 9.998514, 10.000297 
1.8449996e+3, 1.6459413e+2, -1516148.6, -1401848.8, 55290.867, -0.029826427, -0.15527752, -1379480.1, -52518.14, 0.0037916328, 9.998572, 10.000116 
1.84502e+3, 1.7459527e+2, -1452119.8, -1277759.5, 11267.018, 0.047638156, -0.11998554, -1277034.5, -48082.63, 0.00025177147, 9.998193, 10.000455 
1.8450405e+3, 1.8459593e+2, -1339256.6, -1167629.4, -14867.299, 0.15135306, -0.09480905, -1166351.0, -35407.082, 0.00000025167606, 9.998228, 10.000537 
1.84506e+3, 1.945954e+2, -1118200.8, -982546.9, -64261.863, 0.18963282, -0.26118144, -956938.94, 76006.2, 0.0, 9.998995, 10.000742 
1.8450794e+3, 2.045952e+2, -1036416.9, -1006564.44, -64767.086, 0.1821206, -0.29900405, -955025.9, -20081.268, 0.0, 9.999345, 9.999761 
1.8450984e+3, 2.1459545e+2, -907850.3, -866148.7, -88500.63, 0.14000802, -0.3017499, -796075.8, 40865.45, 0.0, 9.999477, 9.999969 
1.8451181e+3, 2.245954e+2, -852685.6, -952587.9, -35033.066, 0.13926229, -0.22567153, -841625.0, -102682.086, 0.0, 9.999835, 9.998549 
1.845138e+3, 2.3459461e+2, -640878.56, -771234.44, -14714.026, 0.14708129, -0.21759164, -639238.4, 1715.4467, 0.0, 10.000518, 9.998769 
1.8451576e+3, 2.4459371e+2, -530025.9, -702153.8, 838.8939, 0.13711454, -0.16773297, -530021.75, 12943.274, 0.0, 10.000749, 9.998473 
1.8451765e+3, 2.5459248e+2, -452331.47, -593267.25, -8829.063, 0.09970777, -0.19011581, -451780.53, -6802.6953, 0.0, 10.000531, 9.998643 
1.8451948e+3, 2.645913e+2, -363209.38, -565924.56, -32368.764, 0.08402576, -0.13495973, -358166.3, -11175.707, 0.00000009817215, 10.000733, 9.998079 
1.8452124e+3, 2.7459e+2, -144727.84, -385428.88, -50474.523, 0.06754376, -0.1325065, -134571.94, 114433.016, 0.000013983738, 10.001467, 9.9982815 
1.8452309e+3, 2.8458834e+2, 20069.076, -304554.7, 20616.557, 0.08788286, -0.09237386, 21373.176, 172395.05, 0.00014297613, 10.002113, 9.997869 
1.8452509e+3, 2.9458657e+2, 218950.55, -124254.195, -48933.555, 0.13324896, -0.12574972, 225791.06, 278830.22, 0.0005747027, 10.002681, 9.998143 
1.845272e+3, 3.0458346e+2, 251090.44, -234738.63, 27755.867, 0.22095342, -0.17382528, 252671.02, 252671.02, 0.0014161514, 10.003223, 9.996807 
1.8452914e+3, 3.1458044e+2, 422469.88, -17106.236, -71208.35, 0.09010869, -0.22925173, 433717.34, 433717.34, 0.0025925788, 10.003749, 9.998042 
1.8549177e+3, 1.24575056e+2, -2125442.3, -1557815.4, -59151.69, 0.07288916, -0.23021354, -1551716.8, 167432.8, 0.13014582, 9.995396, 10.003455 
1.8549402e+3, 1.3457955e+2, -2295215.5, -2065206.5, 165667.58, 0.09342811, 0.29348963, -1978538.6, -357431.84, 0.08765755, 9.995842, 9.998887 
1.8549587e+3, 1.4457144e+2, -1840130.1, -1650327.3, 6149.564, -0.1001664, -0.4760039, -1650128.1, -126942.44, 0.04753598, 9.997626, 10.000222 
1.8549797e+3, 1.5457529e+2, -1582110.5, -1441563.6, 62765.6, 0.030224852, -0.17903318, -1417614.6, 7530.2134, 0.01851746, 9.998615, 10.000482 
1.8549992e+3, 1.6457628e+2, -1530912.3, -1454349.4, 13136.652, 0.01805238, -0.081508845, -1452158.1, -125024.805, 0.0041650403, 9.998667, 9.999708 
1.8550183e+3, 1.7457418e+2, -1490561.3, -1357429.1, 12441.432, 0.01758969, -0.3183347, -1356276.4, -127123.05, 0.00029041685, 9.998182, 9.999917 
1.855038e+3, 1.8457389e+2, -1406798.4, -1304247.9, -8095.6807, 0.035104193, -0.3144985, -1303612.8, -172455.56, 0.0000003514084, 9.998217, 9.999605 
1.855058e+3, 1.9457561e+2, -1199191.4, -1124248.6, -24459.168, 0.0585603, -0.16036955, -1116972.4, -83829.71, 0.0, 9.9988785, 9.9998255 
1.8550779e+3, 2.0457633e+2, -1081891.4, -1051541.4, -77532.75, 0.06060099, -0.047007143, -987712.5, -52575.387, 0.0, 9.999133, 9.999553 
1.8550976e+3, 2.1457583e+2, -955637.44, -909831.5, -66813.69, 0.07815245, -0.11227784, -862104.3, -24961.75, 0.0, 9.999239, 9.999782 
1.8551174e+3, 2.245752e+2, -828828.75, -828618.8, -25895.123, 0.06608349, -0.13039294, -802828.44, -63680.293, 0.0, 9.999509, 9.99956 
1.8551376e+3, 2.3457423e+2, -610424.4, -643057.7, 29005.29, 0.024497783, -0.2457969, -593461.3, 47694.793, 0.0, 10.000234, 9.999789 
1.8551579e+3, 2.4457388e+2, -565028.2, -690882.0, -22422.357, 0.057908215, -0.20221022, -561152.75, -17993.191, 0.0, 10.000384, 9.998723 
1.8551783e+3, 2.545742e+2, -473096.0, -568884.8, 1162.4054, 0.2000089, -0.10300848, -473081.88, -27923.838, 0.0, 10.000247, 9.99894 
1.855197e+3, 2.6457328e+2, -397714.06, -555052.1, -27734.926, 0.19185866, -0.050805405, -392968.22, -45799.992, 0.00000008466028, 10.000385, 9.99832 
1.8552135e+3, 2.7457055e+2, -177579.1, -377386.38, 24.882372, 0.012445404, -0.21579097, -177579.1, 71616.31, 0.000011476472, 10.001151, 9.998483 
1.8552326e+3, 2.8456876e+2, -123711.88, -513432.13, 17870.357, -0.0046436233, -0.13887982, -122894.164, 28321.43, 0.00012753624, 10.001722, 9.996629 
1.8552543e+3, 2.9456833e+2, 90695.85, -303136.66, -148.02968, 0.18415, 0.07568586, 90695.91, 143920.9, 0.0005324824, 10.00231, 9.997092 
1.8552758e+3, 3.0456463e+2, 221878.25, -175273.33, 20211.922, 0.23918778, -0.014138658, 222904.22, 222904.22, 0.0013398622, 10.002713, 9.997455 
1.8552949e+3, 3.1456092e+2, 380960.78, 108281.42, -25720.238, 0.011679006, -0.20978846, 383365.63, 383365.63, 0.002484606, 10.002881, 9.9993 
1.8649127e+3, 1.2455414e+2, -2113618.8, -1634831.1, -191521.77, 0.00640815, -0.18149242, -1567647.0, 151709.31, 0.1378835, 9.9959345, 10.002605 
1.8649386e+3, 1.3455781e+2, -2041652.3, -1880696.0, 3414.5642, 0.29446658, 0.18845809, -1880623.6, -259301.08, 0.09301642, 9.997347, 9.999407 
1.8649554e+3, 1.445525e+2, -1917113.0, -1658285.8, -74833.41, -0.13447255, -0.3358569, -1638207.1, -114833.02, 0.050644647, 9.996987, 10.000469 
1.8649781e+3, 1.5455577e+2, -1797171.0, -1508237.3, -54842.797, 0.094086684, -0.12969643, -1498177.8, -72840.01, 0.01991141, 9.996991, 10.000806 
1.8649983e+3, 1.6455652e+2, -1706812.5, -1541480.8, -50674.88, 0.1372016, -0.069422096, -1527184.9, -199857.25, 0.0045744055, 9.9974575, 9.999686 
1.865017e+3, 1.745544e+2, -1412929.9, -1315371.3, -45254.402, 0.05480375, -0.31492496, -1297612.0, -68264.4, 0.0003360051, 9.998704, 9.999935 
1.8650366e+3, 1.8455394e+2, -1297630.6, -1286890.0, 8732.688, 0.045924198, -0.314901, -1282008.5, -150655.39, 0.00000050835786, 9.999113, 9.999297 
1.865057e+3, 1.9455537e+2, -1216850.8, -1168440.1, 3949.5735, 0.07305715, -0.15850879, -1168120.0, -134777.89, 0.0, 9.998902, 9.999521 
1.865077e+3, 2.0455602e+2, -1114381.9, -1086232.4, 16909.473, 0.09122906, -0.032821033, -1078306.4, -142968.13, 0.0, 9.998982, 9.999389 
1.8650968e+3, 2.1455547e+2, -913876.1, -909297.7, -3961.0464, 0.08383957, -0.08600938, -907011.94, -69666.84, 0.0, 9.999593, 9.999617 
1.8651173e+3, 2.2455499e+2, -786639.6, -780814.06, 33777.402, 0.089569226, -0.094077386, -749824.06, -10474.413, 0.0, 9.999693, 9.999804 
1.865138e+3, 2.3455451e+2, -732820.6, -672029.1, -10735.553, 0.0863734, -0.17906214, -670188.94, -28836.46, 0.0, 9.999286, 10.0000515 
1.8651584e+3, 2.4455439e+2, -661640.4, -690721.2, -44926.75, 0.13513498, -0.14673278, -628959.7, -85606.99, 0.0, 9.999513, 9.999151 
1.8651788e+3, 2.5455442e+2, -409269.94, -493229.3, -40924.73, 0.22540493, -0.11600085, -392622.6, 52728.945, 0.0, 10.00049, 9.999347 
1.865198e+3, 2.6455337e+2, -275518.53, -513626.28, -32127.463, 0.21989499, -0.08931154, -271259.8, 76102.7, 0.000000065173005, 10.001298, 9.998168 
1.8652157e+3, 2.7455094e+2, -74228.03, -351214.3, -81471.92, 0.08330221, -0.20115373, -52041.293, 197347.48, 0.000009433609, 10.001959, 9.9982815 
1.8652354e+3, 2.845493e+2, 7131.339, -453290.44, 1625.1508, 0.08982154, -0.097610265, 7137.075, 158545.31, 0.00011541344, 10.002645, 9.996583 
1.8652576e+3, 2.945485e+2, 246394.17, -236563.02, 7338.165, 0.23250178, 0.0939003, 246505.64, 299926.28, 0.0004967766, 10.003423, 9.997003 
1.8652786e+3, 3.045444e+2, 342317.2, -132459.47, 60718.305, 0.2284196, -0.026718823, 349959.34, 349959.34, 0.0012631787, 10.0035925, 9.997317 
1.8652986e+3, 3.1454247e+2, 417522.84, 121522.65, -172999.34, 0.093103014, -0.02374874, 497190.9, 497190.9, 0.0023412905, 10.003094, 9.999297 
1.8749093e+3, 1.2453044e+2, -2064339.6, -1565223.9, -129984.49, -0.02253274, -0.13931039, -1533401.0, 186196.03, 0.14588223, 9.996057, 10.003075 
1.8749352e+3, 1.3453285e+2, -1937616.6, -1687499.6, 14552.431, 0.17381588, -0.017500574, -1686655.8, -65081.69, 0.0986057, 9.997438, 10.000695 
1.8749529e+3, 1.4453349e+2, -1858821.8, -1568719.5, -101520.38, -0.1488918, -0.040333066, -1536722.0, -13155.78, 0.053927336, 9.997112, 10.001026 
1.8749757e+3, 1.5453419e+2, -1757395.3, -1434191.0, -36040.563, 0.123395644, -0.13760562, -1430220.9, -4666.3354, 0.021407956, 9.997018, 10.001307 
1.8749964e+3, 1.645349e+2, -1655297.6, -1455964.3, -21128.63, 0.15638167, -0.13491467, -1453749.3, -126204.37, 0.0050250688, 9.997553, 10.00023 
1.8750156e+3, 1.7453589e+2, -1378088.8, -1243655.4, 15508.193, 0.007697582, -0.114372626, -1241889.6, -12355.015, 0.00038988978, 9.998695, 10.0004425 
1.8750355e+3, 1.845359e+2, -1276146.8, -1234799.0, -20939.945, -0.024541892, -0.11171307, -1226046.9, -94513.33, 0.000000733184, 9.999085, 9.999669 
1.8750563e+3, 1.9453469e+2, -1213025.0, -1130414.5, 9363.359, 0.0868842, -0.25194055, -1129366.6, -95822.62, 0.0, 9.998779, 9.999843 
1.8750766e+3, 2.0453417e+2, -1140906.8, -1108101.0, 17689.057, 0.095109574, -0.25216037, -1100380.1, -164831.05, 0.0, 9.998831, 9.999317 
1.875096e+3, 2.1453446e+2, -957244.75, -943237.44, 32456.596, 0.0070638824, -0.21356598, -917037.44, -79489.016, 0.0, 9.9993515, 9.999501 
1.8751165e+3, 2.2453482e+2, -882717.56, -903921.2, 1211.4355, 0.021977536, -0.09738906, -882648.56, -143101.64, 0.0, 9.999352, 9.999127 
1.8751384e+3, 2.3453529e+2, -815762.94, -785339.0, -9223.79, 0.17906658, -0.025086118, -782761.0, -141216.25, 0.0, 9.999032, 9.999392 
1.8751588e+3, 2.4453485e+2, -669874.0, -633351.25, -28841.66, 0.18863252, -0.014289346, -617475.9, -73928.28, 0.0, 9.999186, 9.999711 
1.8751776e+3, 2.5453305e+2, -408947.97, -420574.7, 14853.28, 0.028044416, -0.23162085, -398810.94, 46748.074, 0.0, 10.000188, 9.999991 
1.8751974e+3, 2.645317e+2, -372123.66, -638292.75, -25796.357, -0.007147609, -0.23496655, -369646.6, -22074.73, 0.00000004605578, 10.000957, 9.997486 
1.8752183e+3, 2.7453116e+2, -167172.88, -475897.03, -32391.723, 0.11289205, -0.08574282, -163810.9, 85773.375, 0.000008319171, 10.0016575, 9.997577 
1.8752392e+3, 2.845299e+2, 9003.105, -357983.7, 10951.562, 0.1404645, 0.04953748, 9329.629, 160929.75, 0.00010877433, 10.002249, 9.997432 
1.87526e+3, 2.94527e+2, 232965.39, -150967.3, 68028.05, 0.09539498, -0.059260838, 244662.73, 298290.53, 0.00047285456, 10.002947, 9.997818 
1.8752798e+3, 3.0452245e+2, 193801.1, -305636.72, 16759.867, -0.056167133, -0.21875772, 194362.88, 194362.88, 0.0011966277, 10.00303, 9.996392 
1.875303e+3, 3.1452414e+2, 211546.11, -95320.89, -125158.805, 0.15514915, 0.23481518, 256119.1, 256119.1, 0.002193649, 10.002242, 9.998195 
1.8849064e+3, 1.2450987e+2, -2046637.8, -1575574.6, 60977.145, 0.10045501, -0.00022219853, -1567809.4, 151991.14, 0.15411249, 9.996165, 10.002966 
1.8849322e+3, 1.3450971e+2, -2163013.0, -1750373.0, 118645.34, 0.23916183, -0.18453524, -1718691.6, -96889.35, 0.10442951, 9.995645, 10.001144 
1.8849507e+3, 1.445139e+2, -1886327.4, -1557510.5, 10982.037, -0.052585468, 0.110796906, -1557144.1, -33384.414, 0.057399224, 9.996859, 10.001198 
1.8849733e+3, 1.5451342e+2, -1601370.1, -1333101.9, 6164.898, 0.15636805, -0.12631945, -1332960.3, 92799.89, 0.023018045, 9.998027, 10.001492 
1.8849945e+3, 1.6451403e+2, -1566370.3, -1412308.8, 20594.754, 0.18488154, -0.14352733, -1409603.3, -81851.14, 0.005521801, 9.998153, 10.000242 
1.8850143e+3, 1.7451596e+2, -1510366.1, -1305974.3, -11445.56, 0.066263326, -0.031498153, -1305335.3, -75601.39, 0.0004532519, 9.997772, 10.000466 
1.8850347e+3, 1.8451634e+2, -1441797.5, -1290247.0, -34644.242, 0.071430385, -0.004159265, -1282702.9, -150973.83, 0.0000010252129, 9.997839, 9.999879 
1.8850559e+3, 1.9451472e+2, -1191956.4, -1090813.1, -38088.953, 0.17975873, -0.21256296, -1078074.0, -44332.332, 0.0, 9.998793, 10.000093 
1.8850763e+3, 2.0451403e+2, -1048988.5, -1061926.6, 7762.4565, 0.17883117, -0.24893568, -1045352.9, -109605.5, 0.0, 9.999453, 9.999338 
1.8850958e+3, 2.1451417e+2, -861748.6, -898234.0, -4892.844, 0.036172144, -0.22045523, -861103.9, -23356.547, 0.0, 9.999994, 9.999511 
1.8851165e+3, 2.2451434e+2, -741657.3, -859033.0, 2525.7908, 0.05808814, -0.11388876, -741603.0, -1855.6567, 0.0, 10.00045, 9.998886 
1.8851389e+3, 2.3451446e+2, -551660.0, -691319.1, -13196.169, 0.24486592, -0.04426512, -550424.0, 91324.43, 0.0, 10.001004, 9.999081 
1.8851596e+3, 2.4451378e+2, -415324.63, -549746.5, -11278.096, 0.2714592, -0.024014836, -414384.97, 129369.6, 0.0, 10.001115, 9.999345 
1.8851784e+3, 2.545119e+2, -361411.22, -445826.6, -88441.78, 0.07407752, -0.20977911, -305621.78, 140146.97, 0.0, 10.000722, 9.999558 
1.8851985e+3, 2.6451036e+2, -361105.53, -626478.06, -85153.414, 0.019642262, -0.2108468, -336131.56, 11652.283, 0.000000017635879, 10.001031, 9.997511 
1.8852198e+3, 2.7450952e+2, -68476.85, -410197.8, -75990.41, 0.09127195, -0.096038185, -52340.42, 197457.3, 0.000007223604, 10.002301, 9.997686 
1.8852413e+3, 2.845084e+2, 101473.19, -255753.1, -1636.8727, 0.13704282, 0.019251117, 101480.69, 253291.88, 0.00010058898, 10.002657, 9.997931 
1.8852633e+3, 2.9450586e+2, 138346.84, -149759.72, -25935.785, 0.1880937, -0.100734815, 140663.0, 194496.73, 0.00044370364, 10.002076, 9.998254 
1.8852824e+3, 3.0450204e+2, 173620.45, -268229.38, 25144.947, -0.053006172, -0.2293842, 175046.8, 175046.8, 0.0011208182, 10.0026245, 9.996887 
1.8853062e+3, 3.145036e+2, 465819.47, 11969.431, -108472.08, 0.19547912, 0.17044923, 490412.16, 490412.16, 0.0020397787, 10.004011, 9.998109 
1.8949023e+3, 1.2449098e+2, -2053850.0, -1672923.9, -97659.82, -0.04136896, 0.09345086, -1649345.8, 70635.08, 0.16258536, 9.996528, 10.002059 
1.8949287e+3, 1.3448873e+2, -2163479.5, -1758215.9, 164249.95, 0.2828372, -0.2763474, -1700007.4, -78003.07, 0.110513955, 9.995659, 10.001099 
1.8949482e+3, 1.4449376e+2, -1878302.9, -1557133.6, 49831.383, -0.042916853, 0.101330444, -1549579.6, -25624.994, 0.06108175, 9.996937, 10.00116 
1.8949708e+3, 1.5449333e+2, -1617768.1, -1374560.4, 62055.367, 0.045167025, -0.10091903, -1359641.9, 66313.72, 0.024752133, 9.998059, 10.00119 
1.8949915e+3, 1.6449375e+2, -1569495.0, -1458728.0, -16337.198, 0.017635863, -0.10059558, -1456368.6, -128417.77, 0.0060684755, 9.998316, 9.999846 
1.8950126e+3, 1.7449449e+2, -1533942.1, -1360791.4, -14685.433, 0.08197607, -0.07199467, -1359554.6, -129607.97, 0.0005270964, 9.997793, 10.000082 
1.895034e+3, 1.844951e+2, -1423664.0, -1256563.5, -20059.281, 0.15666541, -0.01275214, -1254189.3, -122247.88, 0.0000013718216, 9.997867, 10.00009 
1.8950553e+3, 1.9449568e+2, -1194752.9, -1068413.1, 7272.049, 0.19591172, -0.025320577, -1067995.9, -34062.48, 0.0, 9.998678, 10.000298 
1.8950759e+3, 2.0449562e+2, -1070378.9, -1067793.1, 10990.185, 0.14751077, -0.00943101, -1058020.0, -122087.74, 0.0, 9.999272, 9.999393 
1.895096e+3, 2.1449465e+2, -888749.94, -902648.0, 32790.215, 0.032039486, -0.10134356, -862180.5, -24239.45, 0.0, 9.999764, 9.999596 
1.895117e+3, 2.244935e+2, -787947.75, -871950.9, 3157.305, 0.021634389, -0.13575087, -787829.25, -47878.203, 0.0, 10.000092, 9.998969 
1.895139e+3, 2.344922e+2, -586867.94, -698193.7, 27752.55, 0.13162188, -0.22045451, -580333.06, 61629.082, 0.0, 10.00072, 9.999167 
1.8951604e+3, 2.4449135e+2, -566628.25, -788550.7, -43018.656, 0.19083637, -0.15290742, -558581.06, -14609.404, 0.0, 10.000776, 9.997875 
1.8951806e+3, 2.5449082e+2, -508848.6, -688131.5, -85253.94, 0.20916356, -0.05004056, -474781.4, -28800.357, 0.0, 10.000446, 9.998028 
1.8952008e+3, 2.6448905e+2, -364749.0, -558141.8, -58036.344, 0.11532077, -0.024014954, -348669.47, -668.9819, 0.0000000071100716, 10.0007, 9.99814 
1.8952201e+3, 2.744859e+2, -66855.38, -319034.75, -6572.0283, -0.13885051, -0.22204423, -66684.22, 183346.25, 0.0000064443307, 10.001932, 9.998486 
1.8952419e+3, 2.8448462e+2, 49373.215, -266382.06, -45986.59, -0.12586476, -0.17060363, 55934.367, 207976.86, 0.0000894982, 10.002227, 9.998068 
1.8952668e+3, 2.944847e+2, 72547.12, -188543.38, -14013.002, 0.29434547, -0.042588666, 73297.055, 127338.445, 0.00040238924, 10.001649, 9.998197 
1.8952854e+3, 3.0448294e+2, 207571.22, -65166.508, 57361.664, -0.055783555, -0.036557775, 219144.33, 219144.33, 0.0010279405, 10.002091, 9.998518 
1.8953079e+3, 3.1448126e+2, 334412.7, -524.0115, 63939.97, -0.118910685, -0.14856353, 346203.84, 346203.84, 0.0018812018, 10.00298, 9.998483 
1.9048986e+3, 1.2446985e+2, -2110542.3, -1730685.1, -155207.69, -0.036116306, 0.050885476, -1675333.6, 44851.055, 0.1713416, 9.9964, 10.001639 
1.904924e+3, 1.3446844e+2, -1864889.1, -1637219.4, 116854.17, 0.1630218, -0.2363316, -1587918.5, 34282.484, 0.11689223, 9.997869, 10.00085 
1.9049467e+3, 1.444719e+2, -1771398.6, -1560990.9, 4074.555, 0.07248884, 0.031153476, -1560912.0, -36744.47, 0.06499328, 9.997854, 10.000721 
1.904969e+3, 1.5447202e+2, -1660287.1, -1418099.5, -19945.111, 0.08904417, -0.094250366, -1416467.9, 9696.596, 0.026617203, 9.99781, 10.001037 
1.90499e+3, 1.6447279e+2, -1630165.4, -1488443.6, -51337.5, 0.051190346, -0.05184198, -1471801.4, -143644.05, 0.0066676727, 9.997914, 9.999838 
1.9050111e+3, 1.7447269e+2, -1392589.5, -1287759.6, -54853.227, 0.12161664, -0.10620622, -1264304.9, -34144.055, 0.0006122247, 9.998761, 10.000105 
1.9050328e+3, 1.84473e+2, -1230316.1, -1164171.6, -8650.64, 0.20170422, -0.07777624, -1163059.0, -30900.412, 0.0000017786746, 9.999211, 10.000082 
1.9050545e+3, 1.944742e+2, -1055874.0, -1003778.9, -33294.434, 0.20856516, -0.017329423, -987553.56, 46591.047, 0.0, 9.999652, 10.000285 
1.9050756e+3, 2.0447457e+2, -1007692.5, -1020541.44, -22930.217, 0.17948002, 0.03802702, -990303.75, -54163.96, 0.0, 9.999675, 9.9994955 
1.9050962e+3, 2.1447358e+2, -924310.8, -908080.3, -42125.547, 0.09968578, -0.06450865, -873295.5, -35146.727, 0.0, 9.999506, 9.999662 
1.9051175e+3, 2.2447225e+2, -818017.1, -878687.4, -14605.129, 0.09252775, -0.124408685, -814684.3, -74524.305, 0.0, 9.999818, 9.999068 
1.9051398e+3, 2.3447056e+2, -567523.6, -684784.1, -20039.02, 0.14267752, -0.25943637, -564193.6, 77980.13, 0.0, 10.000794, 9.999239 
1.9051613e+3, 2.4446972e+2, -507371.13, -786026.6, -44157.117, 0.18993254, -0.18340072, -500541.16, 43642.184, 0.0, 10.001321, 9.997617 
1.9051817e+3, 2.5446954e+2, -372205.72, -648702.25, -35152.637, 0.21940988, -0.017182164, -367806.56, 78384.74, 0.0, 10.001511, 9.997777 
1.9052021e+3, 2.6446792e+2, -239654.63, -476655.78, 82774.76, 0.16295043, 0.027094744, -213607.47, 134602.0, 0.000000016068412, 10.001451, 9.9983425 
1.9052225e+3, 2.7446473e+2, -159222.6, -353739.97, 48507.207, -0.043941297, -0.19358557, -147797.33, 102441.29, 0.000006020835, 10.001194, 9.998629 
1.9052444e+3, 2.8446314e+2, -55006.266, -317135.47, 18493.746, -0.024428252, -0.17947921, -53707.926, 98544.85, 0.00007835106, 10.001492, 9.998081 
1.9052689e+3, 2.9446298e+2, 216539.25, -110644.516, -12101.053, 0.3070763, -0.07725151, 216986.2, 271240.5, 0.00035568743, 10.002607, 9.998261 
1.9052877e+3, 3.0446225e+2, 369738.4, 51445.453, 71754.51, -0.061213896, 0.011457135, 385166.6, 385166.6, 0.0009266064, 10.00305, 9.998863 
1.9053127e+3, 3.1445876e+2, 261495.77, -67856.85, -94473.01, 0.11758585, -0.3012738, 286670.53, 286670.53, 0.0017278214, 10.002532, 9.998281 
1.9148971e+3, 1.2444558e+2, -2144684.5, -1812641.8, -208249.84, 0.07659236, -0.23211214, -1712334.3, 8087.038, 0.18042894, 9.996489, 10.000977 
1.9149184e+3, 1.3444811e+2, -1903551.1, -1724752.6, 155564.8, -0.22151965, -0.1143335, -1634728.8, -12329.625, 0.12358676, 9.99792, 10.000193 
1.9149451e+3, 1.4444806e+2, -1786597.9, -1645703.4, -31418.703, 0.051266614, -0.09484226, -1639014.6, -114613.54, 0.069141634, 9.9980755, 10.000036 
1.9149674e+3, 1.544495e+2, -1647538.6, -1397198.0, -12989.32, 0.11353112, -0.09692409, -1396525.9, 29861.584, 0.028615344, 9.997834, 10.00117 
1.9149889e+3, 1.6445123e+2, -1582519.3, -1421314.5, -42144.934, 0.10075945, 0.010285633, -1410961.1, -82590.78, 0.0073205116, 9.998045, 10.000235 
1.9150095e+3, 1.7445065e+2, -1373514.1, -1245062.3, -12479.906, 0.03748599, -0.12298431, -1243861.0, -13485.617, 0.00070924795, 9.998747, 10.000402 
1.9150308e+3, 1.8445013e+2, -1246120.0, -1204555.1, -16057.834, 0.020761145, -0.17687586, -1199074.1, -66694.8, 0.0000023137907, 9.999235, 9.9998 
1.915053e+3, 1.9445045e+2, -1090951.9, -1049898.6, -4034.6978, 0.07850349, -0.17838645, -1049505.9, -15131.605, 0.0, 9.999534, 10.00003 
1.9150747e+3, 2.044508e+2, -1035530.2, -1039614.75, -46513.926, 0.094204456, -0.10964968, -991013.75, -54643.26, 0.0, 9.999498, 9.999453 
1.9150959e+3, 2.1445087e+2, -958532.3, -927875.3, -35268.406, 0.09026598, -0.10654402, -904748.4, -66376.79, 0.0, 9.999275, 9.9996395 
1.9151177e+3, 2.2445048e+2, -860326.56, -879825.44, 5142.574, 0.09540358, -0.08025258, -859053.4, -118677.99, 0.0, 9.999446, 9.999242 
1.9151407e+3, 2.344496e+2, -603052.0, -679298.44, 33432.336, 0.1344281, -0.14896907, -590469.2, 51913.273, 0.0, 10.00047, 9.999429 
1.9151619e+3, 2.444488e+2, -504119.0, -692183.8, -53117.48, 0.08794636, -0.11473305, -490153.44, 54236.86, 0.0, 10.000942, 9.998446 
1.9151808e+3, 2.5444803e+2, -354085.47, -537568.5, -9121.779, -0.047545332, -0.09785582, -353633.1, 92766.66, 0.0, 10.001201, 9.998687 
1.9152021e+3, 2.6444712e+2, -312822.72, -549329.1, 51259.234, -0.026500512, -0.01742109, -302190.97, 46219.18, 0.000000038925435, 10.0011, 9.998022 
1.9152261e+3, 2.7444586e+2, -230883.4, -432846.4, 58104.17, 0.17948702, -0.005042675, -215360.16, 35063.363, 0.0000054500297, 10.000902, 9.998224 
1.9152486e+3, 2.8444377e+2, -123637.9, -378109.63, 34108.92, 0.20274012, -0.007888286, -119145.32, 33298.55, 0.00006657065, 10.001141, 9.997834 
1.9152693e+3, 2.9444054e+2, 130119.23, -176482.6, 57696.156, 0.041402414, -0.19016252, 140617.02, 195090.58, 0.00030471265, 10.0021305, 9.998038 
1.9152887e+3, 3.044401e+2, 224278.78, -130288.52, 25008.994, -0.30743116, -0.012396869, 226034.08, 226034.08, 0.00081498816, 10.002533, 9.997854 
1.9153172e+3, 3.144378e+2, 88320.97, -204935.2, -793.9048, 0.25229838, -0.12843873, 88323.12, 88323.12, 0.0015623597, 10.001644, 9.997728 
1.9248962e+3, 1.2442257e+2, -2009257.5, -1810241.0, -106696.51, 0.2959609, -0.15344296, -1763851.9, -43207.223, 0.18987963, 9.997675, 10.000426 
1.9249167e+3, 1.3442573e+2, -2071328.8, -1762994.6, -7795.946, -0.110863954, -0.038895283, -1762797.8, -140180.42, 0.13060497, 9.996555, 10.000605 
1.9249427e+3, 1.4442477e+2, -2124511.8, -1794087.4, -20517.21, 0.1517268, -0.12546936, -1792818.3, -268189.5, 0.07352615, 9.995741, 10.00012 
1.9249651e+3, 1.5442674e+2, -1683358.8, -1368014.6, -15157.502, 0.13041633, -0.1111316, -1367287.6, 59321.875, 0.030745408, 9.997418, 10.001559 
1.9249871e+3, 1.6442855e+2, -1555600.9, -1402390.4, -26200.723, 0.12604761, -0.02057446, -1398033.6, -69441.9, 0.008026891, 9.998217, 10.000273 
1.9250084e+3, 1.7442846e+2, -1410138.5, -1263392.3, -55580.086, 0.07990205, -0.10524105, -1244717.8, -14125.723, 0.0008187495, 9.998501, 10.000397 
1.92503e+3, 1.8442808e+2, -1312268.9, -1247243.5, -20232.57, 0.06941858, -0.14222114, -1241462.1, -108867.37, 0.0000031359323, 9.998796, 9.99972 
1.9250524e+3, 1.9442774e+2, -1078936.5, -1049297.3, -21746.041, 0.06563049, -0.20953779, -1037801.25, -3205.2388, 0.0, 9.999604, 9.999994 
1.9250742e+3, 2.0442787e+2, -989251.6, -1017333.94, -51421.145, 0.09309674, -0.16698119, -949989.06, -13394.346, 0.0, 9.999808, 9.99946 
1.9250958e+3, 2.1442828e+2, -911622.7, -902348.0, -69742.516, 0.14287147, -0.12737134, -837088.8, 1504.0659, 0.0, 9.999589, 9.999662 
1.925118e+3, 2.244284e+2, -833797.1, -846133.2, 37432.61, 0.17544945, -0.05877872, -802027.75, -61435.297, 0.0, 9.999565, 9.999408 
1.9251409e+3, 2.3442802e+2, -676249.06, -693204.1, 28548.71, 0.15938023, -0.092996165, -654945.75, -12350.314, 0.0, 9.999888, 9.999613 
1.9251625e+3, 2.4442726e+2, -559933.25, -671531.4, -44400.08, 0.10961387, -0.08650825, -544423.8, 178.24411, 0.0, 10.000329, 9.998888 
1.9251822e+3, 2.5442606e+2, -343358.28, -494417.4, -67886.734, -0.012680288, -0.15319578, -317333.3, 129279.766, 0.0, 10.00107, 9.999064 
1.9252038e+3, 2.644252e+2, -245371.78, -530068.8, 5065.479, 0.025704844, -0.081311546, -245281.69, 103340.445, 0.000000047147957, 10.001637, 9.997888 
1.925228e+3, 2.7442446e+2, -75698.125, -377562.16, -16967.717, 0.2151212, 0.0006240521, -74747.37, 175884.72, 0.0000044268, 10.00206, 9.998047 
1.9252507e+3, 2.844224e+2, 40171.39, -306598.03, 30854.62, 0.2485978, 0.014729356, 42895.355, 195548.44, 0.000054025306, 10.002323, 9.99774 
1.9252719e+3, 2.9441884e+2, 199213.0, -165527.5, 10297.097, 0.099315874, -0.18216614, 199503.47, 254189.72, 0.00025237876, 10.002683, 9.997849 
1.9252928e+3, 3.044172e+2, 309828.38, -138184.83, 46887.875, -0.16953999, -0.09803656, 314682.9, 314682.9, 0.00069601834, 10.003317, 9.997428 
1.9253206e+3, 3.1441683e+2, 463711.44, -14124.815, -20155.385, 0.34003928, 0.038008485, 464560.1, 464560.1, 0.0013738653, 10.004083, 9.997909 
1.9348903e+3, 1.2439587e+2, -2026635.9, -1895198.5, 256164.89, -0.15823862, -0.21019885, -1696456.6, 24446.709, 0.1997211, 9.997852, 9.999802 
1.934917e+3, 1.344016e+2, -1970871.5, -1552752.9, -80039.89, 0.22589383, 0.011311684, -1537954.6, 84898.05, 0.13795441, 9.996506, 10.002156 
1.9349395e+3, 1.444022e+2, -2036012.0, -1662249.1, 13801.921, 0.17223915, -0.049100637, -1661740.1, -136891.48, 0.07814733, 9.995945, 10.000934 
1.9349617e+3, 1.5440382e+2, -1635036.5, -1291741.0, 58393.348, 0.0023689468, -0.12835784, -1282080.3, 144750.05, 0.033007, 9.997491, 10.002077 
1.9349839e+3, 1.6440469e+2, -1556577.6, -1433000.0, -36012.297, -0.08419107, -0.14088911, -1423271.4, -94449.55, 0.008786739, 9.998331, 10.000013 
1.9350074e+3, 1.7440599e+2, -1424471.0, -1299679.9, -33229.637, 0.09894348, -0.06197213, -1291383.0, -60570.867, 0.00094156526, 9.998522, 10.000143 
1.9350302e+3, 1.8440674e+2, -1287925.8, -1207096.6, -10403.996, 0.15134549, 0.01169258, -1205778.9, -72973.19, 0.0000044945964, 9.998838, 9.999977 
1.9350518e+3, 1.9440618e+2, -1082320.8, -1030909.9, 21652.605, 0.022357015, -0.09874169, -1023005.7, 11803.145, 0.0, 9.999486, 10.000184 
1.9350734e+3, 2.0440584e+2, -1012613.94, -1018811.2, -78052.99, -0.01468581, -0.11501628, -937598.06, -786.5898, 0.0, 9.999603, 9.99955 
1.935095e+3, 2.1440588e+2, -946022.75, -911982.06, -63805.746, 0.10954051, -0.11977585, -862965.56, -24153.264, 0.0, 9.999328, 9.999721 
1.9351174e+3, 2.2440588e+2, -882652.94, -859328.25, 31268.168, 0.1405938, -0.07053571, -837618.3, -96805.586, 0.0, 9.99919, 9.9994955 
1.9351402e+3, 2.3440576e+2, -710029.1, -695859.44, 56524.33, 0.061478987, -0.0906652, -645977.7, -3164.0688, 0.0, 9.999602, 9.999727 
1.9351627e+3, 2.4440509e+2, -611960.44, -694859.0, -37778.406, 0.051537123, -0.08293409, -597327.2, -52508.04, 0.0, 9.999961, 9.998911 
1.9351852e+3, 2.544036e+2, -384594.16, -511181.1, -24225.816, 0.15729357, -0.1805105, -380116.28, 66715.42, 0.0, 10.000781, 9.999088 
1.9352068e+3, 2.6440212e+2, -311268.5, -570806.6, 283.01868, 0.13034552, -0.16634545, -311268.22, 37577.914, 0.00000001782158, 10.001235, 9.997798 
1.9352274e+3, 2.744006e+2, -137234.34, -407763.28, 17439.615, -0.075131916, -0.15763573, -136114.73, 114748.93, 0.0000033385966, 10.00167, 9.998013 
1.9352502e+3, 2.843993e+2, -26153.77, -355160.06, 13104.471, -0.07872676, -0.06103232, -25632.639, 127245.48, 0.00004416703, 10.001928, 9.997603 
1.9352764e+3, 2.9439786e+2, 137964.25, -194647.34, 46374.176, 0.22619843, -0.039543208, 144308.9, 199201.5, 0.00021030588, 10.002278, 9.997837 
1.9352989e+3, 3.043938e+2, 222723.5, -201662.69, 46748.797, 0.07444238, -0.19116178, 227812.16, 227812.16, 0.00059174973, 10.002811, 9.997236 
1.935321e+3, 3.1439394e+2, 367953.44, 32320.889, 92066.61, -0.099724755, 0.0086294925, 391549.2, 391549.2, 0.0011892852, 10.003104, 9.998664 
1.9448866e+3, 1.2436884e+2, -2107094.3, -2014253.0, 403303.22, -0.27667934, -0.3805154, -1654707.6, 66458.21, 0.20999403, 9.997656, 9.999132 
1.944916e+3, 1.3437651e+2, -1874130.9, -1413666.8, -111674.57, 0.48930186, -0.055446826, -1388012.0, 235083.05, 0.14565058, 9.996639, 10.003241 
1.9449344e+3, 1.4437781e+2, -1835104.1, -1550534.3, 51058.168, 0.03155901, -0.12135021, -1541650.6, -16566.81, 0.083007626, 9.997224, 10.001109 
1.9449592e+3, 1.5437986e+2, -1663384.9, -1318316.0, -5804.392, 0.03880328, -0.14875095, -1318218.5, 108843.66, 0.03539992, 9.997336, 10.001977 
1.9449824e+3, 1.6438062e+2, -1685984.1, -1467811.0, -78869.12, 0.0018071473, -0.17682973, -1442286.3, -113231.32, 0.009600047, 9.997328, 10.000261 
1.9450058e+3, 1.7438222e+2, -1424742.0, -1265130.1, -65711.7, 0.103225, -0.09867363, -1241558.1, -10515.671, 0.0010784023, 9.998378, 10.000447 
1.945029e+3, 1.8438342e+2, -1297854.5, -1193346.8, -13146.104, 0.1729567, -0.000730404, -1191718.4, -58686.816, 0.0000066792873, 9.998711, 10.0001335 
1.9450514e+3, 1.9438322e+2, -1226107.6, -1080948.0, -24044.492, 0.09189317, -0.08832928, -1077068.9, -42036.48, 0.0, 9.998456, 10.00033 
1.9450733e+3, 2.0438303e+2, -1129180.3, -1070409.8, -83173.19, 0.068833165, -0.09884387, -1011583.44, -74549.17, 0.0, 9.998791, 9.99959 
1.9450949e+3, 2.1438286e+2, -821925.56, -848237.6, -104224.14, 0.12769274, -0.12230018, -730030.4, 109006.555, 0.0, 10.000162, 9.99976 
1.9451173e+3, 2.2438279e+2, -681254.8, -775190.1, -7126.054, 0.15439148, -0.07979109, -680717.3, 60321.45, 0.0, 10.000605, 9.999393 
1.9451402e+3, 2.343826e+2, -657259.44, -689812.6, -30150.41, 0.10384193, -0.09051313, -639272.7, 3768.5725, 0.0, 10.000016, 9.999585 
1.9451633e+3, 2.4438207e+2, -606564.8, -671023.25, -60893.535, 0.13293858, -0.06900955, -569897.4, -24851.572, 0.0, 9.999932, 9.999084 
1.9451866e+3, 2.5438088e+2, -386726.34, -494894.94, -75669.44, 0.23409785, -0.14998916, -347800.0, 99254.734, 0.0, 10.000703, 9.999234 
1.9452086e+3, 2.6437917e+2, -277824.78, -541323.1, -15966.748, 0.1892117, -0.17115779, -276860.78, 72209.555, 0.000000002142629, 10.001382, 9.99794 
1.9452289e+3, 2.74377e+2, -80508.85, -376716.53, -25001.576, -0.08354526, -0.23591644, -78413.4, 172679.48, 0.0000030022966, 10.001996, 9.9980955 
1.9452523e+3, 2.843758e+2, 29585.58, -344933.22, 12374.0205, -0.07470149, -0.12434935, 29993.97, 183100.47, 0.00003904193, 10.002365, 9.997474 
1.9452792e+3, 2.9437557e+2, 166652.72, -195751.77, -11659.352, 0.28452486, 0.036636394, 167027.44, 222138.95, 0.00018459432, 10.002504, 9.99774 
1.945303e+3, 3.043706e+2, 225264.17, -188180.84, 56009.688, 0.21412718, -0.20415282, 232717.48, 232717.48, 0.0005147773, 10.002807, 9.997307 
1.9453241e+3, 3.1437078e+2, 451036.94, 96459.06, 8512.485, -0.08259182, 0.012752464, 451241.2, 451241.2, 0.0010277403, 10.003516, 9.998923 
1.9548878e+3, 1.2434601e+2, -2056900.1, -2024790.4, -2036.6333, -0.02944688, -0.24419497, -2024661.8, -303273.88, 0.22070916, 9.998064, 9.998818 
1.9549136e+3, 1.3435061e+2, -1809292.8, -1335722.3, -81068.586, 0.5413401, -0.24834879, -1322228.9, 301114.16, 0.15369554, 9.996793, 10.003816 
1.9549271e+3, 1.4435172e+2, -1838867.0, -1607966.6, 55330.156, -0.49075556, -0.34689587, -1595392.8, -70059.625, 0.08810495, 9.997438, 10.00061 
1.9549574e+3, 1.5435486e+2, -1711332.4, -1429054.8, 8151.1094, 0.07369715, -0.18757825, -1428819.6, -1514.8184, 0.037922986, 9.997394, 10.001167 
1.954982e+3, 1.6435638e+2, -1612274.3, -1353196.8, -70263.375, 0.174943, -0.13145809, -1335367.8, -6076.999, 0.010466628, 9.997486, 10.000976 
1.9550031e+3, 1.743572e+2, -1364823.8, -1154704.5, -12998.209, -0.041992784, -0.2055827, -1153903.5, 77378.38, 0.0012294218, 9.9984255, 10.001187 
1.955026e+3, 1.8435818e+2, -1289149.1, -1185189.1, -36184.18, -0.057206042, -0.17139286, -1173835.0, -40562.613, 0.000009908067, 9.998759, 10.000161 
1.9550505e+3, 1.9435883e+2, -1242423.5, -1090413.4, -22908.377, 0.12132202, -0.17220527, -1087036.0, -51768.81, 0.0, 9.998353, 10.000313 
1.9550732e+3, 2.0435913e+2, -1164435.0, -1094158.5, -55183.645, 0.15322138, -0.12888221, -1063875.5, -126609.68, 0.0, 9.998575, 9.999531 
1.9550945e+3, 2.143591e+2, -865039.3, -870520.8, -38305.625, 0.044874284, -0.13723633, -829376.5, 9891.643, 0.0, 9.999882, 9.999736 
1.955117e+3, 2.2435898e+2, -753500.3, -842104.5, -41408.87, 0.024254285, -0.08629425, -737161.06, 4110.503, 0.0, 10.0002365, 9.999117 
1.9551407e+3, 2.3435856e+2, -720352.9, -752157.8, -36918.832, 0.1327745, -0.091443785, -696057.25, -52779.1, 0.0, 9.999732, 9.9992895 
1.9551638e+3, 2.4435824e+2, -654183.9, -681419.94, -50175.746, 0.1469107, -0.038009573, -615811.0, -70529.43, 0.0, 9.999553, 9.999194 
1.955186e+3, 2.543578e+2, -415726.03, -486558.97, -27337.695, 0.0709681, -0.06411611, -406402.4, 40880.414, 0.0, 10.000418, 9.99942 
1.9552086e+3, 2.6435643e+2, -311592.06, -530331.56, -14133.411, 0.014318816, -0.07682101, -310682.66, 38611.19, 0.00000003752054, 10.001024, 9.998191 
1.955232e+3, 2.743537e+2, -106251.305, -359551.3, 16177.923, 0.00034517195, -0.22642393, -105222.22, 146097.0, 0.0000033251551, 10.001699, 9.998352 
1.9552559e+3, 2.8435218e+2, -59902.734, -422457.22, -4052.4407, 0.016686954, -0.14719918, -59857.445, 93478.42, 0.000036409245, 10.001906, 9.997159 
1.9552802e+3, 2.9435238e+2, 85043.62, -250378.98, 23167.363, 0.098375365, 0.08165561, 86636.2, 141975.45, 0.00016708692, 10.002033, 9.997579 
1.9553041e+3, 3.0434796e+2, 152875.52, -224830.33, 48218.332, 0.008408081, -0.101326674, 158933.95, 158933.95, 0.00045041234, 10.002295, 9.997316 
1.9553304e+3, 3.1434712e+2, 348009.78, 58858.86, 70420.875, 0.105721556, 0.0026181561, 364248.4, 364248.4, 0.00087258307, 10.002811, 9.998979 
1.9648863e+3, 1.24325074e+2, -2178035.3, -1886456.0, 42824.734, 0.11796453, -0.124762535, -1880296.4, -158701.97, 0.23177752, 9.99648, 10.000471 
1.964909e+3, 1.3432658e+2, -1706163.9, -1415740.0, -41960.605, 0.36599395, -0.29404292, -1409799.0, 213779.08, 0.1620495, 9.998214, 10.002438 
1.964926e+3, 1.4432721e+2, -1755669.3, -1584150.1, 35717.973, -0.3534804, -0.36030224, -1577009.3, -51437.094, 0.093428105, 9.998114, 10.000419 
1.9649552e+3, 1.5433037e+2, -1643276.6, -1409202.3, -11601.443, 0.10293821, -0.1873768, -1408628.6, 18915.73, 0.04057487, 9.997936, 10.001017 
1.9649799e+3, 1.6433176e+2, -1554662.6, -1304656.5, -19406.166, 0.20903482, -0.15342934, -1303159.1, 26372.107, 0.011385711, 9.997789, 10.001163 
1.9650015e+3, 1.7433234e+2, -1417552.0, -1155023.0, -34298.2, -0.015286836, -0.27211323, -1150616.1, 80906.305, 0.0013940044, 9.997961, 10.001404 
1.9650245e+3, 1.8433328e+2, -1367278.1, -1228275.3, -60723.266, -0.038688544, -0.24964847, -1205485.0, -71972.516, 0.000014255441, 9.9982395, 10.000119 
1.965049e+3, 1.9433407e+2, -1133518.6, -1044494.9, -82693.516, 0.11862741, -0.23143375, -995094.4, 40412.89, 0.0, 9.999123, 10.000258 
1.9650725e+3, 2.0433454e+2, -1017096.8, -1025605.25, -68608.15, 0.17602809, -0.16728102, -952611.1, -15106.023, 0.0, 9.999582, 9.999516 
1.9650947e+3, 2.1433467e+2, -906529.6, -898987.1, -81218.016, 0.09784944, -0.15915309, -821452.9, 18053.16, 0.0, 9.999591, 9.999692 
1.9651175e+3, 2.2433464e+2, -830405.3, -866943.3, -64857.18, 0.091447316, -0.100350186, -781293.25, -39784.6, 0.0, 9.999676, 9.999213 
1.9651406e+3, 2.3433423e+2, -653591.5, -711598.3, -76139.09, 0.12592731, -0.110071495, -601118.75, 42396.53, 0.0, 10.000152, 9.999367 
1.9651636e+3, 2.4433383e+2, -472139.84, -595485.2, -17273.58, 0.13323748, -0.06834602, -469766.47, 75753.164, 0.0, 10.000762, 9.999228 
1.9651867e+3, 2.5433356e+2, -260014.63, -415353.5, -38934.54, 0.081872, -0.07816344, -250802.3, 196717.63, 0.0, 10.001472, 9.999428 
1.9652104e+3, 2.6433235e+2, -195374.94, -464744.56, -16817.855, 0.078166366, -0.0720292, -194328.98, 155200.23, 0.00000006167767, 10.001804, 9.998257 
1.9652346e+3, 2.7432972e+2, -96418.914, -350307.8, -53541.875, 0.10140578, -0.21248761, -85589.54, 165964.13, 0.000003603985, 10.001764, 9.998369 
1.9652583e+3, 2.843279e+2, -59279.555, -387100.44, -24858.697, 0.10271085, -0.17783667, -57405.234, 96167.305, 0.00003430298, 10.001769, 9.997465 
1.9652817e+3, 2.9432768e+2, 96732.89, -219906.1, -10330.705, 0.068050176, -0.012638428, 97069.586, 152648.23, 0.00015136057, 10.002005, 9.997814 
1.9653064e+3, 3.0432445e+2, 211869.56, -237545.56, 90253.15, -0.010526578, -0.066209964, 229317.16, 229317.16, 0.00039140973, 10.002853, 9.996984 
1.9653344e+3, 3.14322e+2, 512527.56, 102307.414, -75079.95, 0.2046969, -0.068434276, 525837.1, 525837.1, 0.00072701665, 10.004036, 9.998731 
1.9748826e+3, 1.24306485e+2, -1847339.1, -1396782.9, 84108.61, -0.025557272, 0.007515653, -1381593.8, 340187.34, 0.24301729, 9.996894, 10.004358 
1.9749023e+3, 1.3430437e+2, -1912124.8, -1855732.1, -11939.308, -0.17642316, -0.19134453, -1853308.5, -229507.83, 0.17062773, 9.998406, 9.999061 
1.9749306e+3, 1.4430429e+2, -1711013.6, -1533339.0, -3980.3298, 0.20927809, -0.167413, -1533249.9, -7448.4756, 0.09895461, 9.9982815, 10.000692 
1.9749522e+3, 1.5430643e+2, -1600026.4, -1336770.4, -6010.1987, -0.024124611, -0.14276403, -1336633.3, 91147.516, 0.04335473, 9.997995, 10.001513 
1.9749753e+3, 1.6430664e+2, -1544154.8, -1321639.8, -31626.834, -0.080708385, -0.23982762, -1317231.8, 12545.288, 0.012356995, 9.997963, 10.00096 
1.9750002e+3, 1.7430751e+2, -1433175.9, -1193080.8, -17119.824, 0.035412043, -0.2998144, -1191866.3, 39898.484, 0.0015709848, 9.997992, 10.001127 
1.975024e+3, 1.8430859e+2, -1367416.9, -1242597.8, -51150.836, 0.038029645, -0.24229328, -1224314.3, -90560.984, 0.000019593592, 9.998291, 10.000003 
1.9750465e+3, 1.9430885e+2, -1153024.3, -1061152.5, -36240.152, -0.07303953, -0.26699665, -1048578.0, -12824.245, 0.0, 9.999022, 10.000194 
1.9750701e+3, 2.0430917e+2, -1050391.6, -1041686.6, -80188.29, -0.05618317, -0.21687654, -965732.8, -27979.576, 0.0, 9.999356, 9.999512 
1.9750948e+3, 2.1430975e+2, -943865.8, -914907.9, -66413.49, 0.13919199, -0.16579829, -861413.4, -21664.648, 0.0, 9.999329, 9.999707 
1.975118e+3, 2.2431003e+2, -867554.8, -858023.3, -67299.19, 0.15098383, -0.08872774, -795321.3, -53574.14, 0.0, 9.9993, 9.999457 
1.9751392e+3, 2.3430957e+2, -669180.75, -687264.2, -37907.13, -0.05058661, -0.13685906, -639251.94, 4501.181, 0.0, 9.999903, 9.999654 
1.9751625e+3, 2.4430892e+2, -534185.8, -643153.1, -11637.844, -0.0903398, -0.13043204, -532956.75, 12802.742, 0.0, 10.000406, 9.999074 
1.9751887e+3, 2.543082e+2, -305686.72, -453321.78, 2586.8096, 0.10314162, -0.1701675, -305641.4, 142123.53, 0.0, 10.001223, 9.999288 
1.9752134e+3, 2.64307e+2, -275930.53, -541478.94, -37560.527, 0.16095193, -0.14283425, -270720.03, 79055.87, 0.000000055759365, 10.001415, 9.997914 
1.9752364e+3, 2.743051e+2, -162645.1, -410475.0, -33806.05, 0.06302341, -0.18638463, -158116.42, 93678.96, 0.0000036492006, 10.001439, 9.998104 
1.9752593e+3, 2.8430316e+2, -70994.68, -331935.34, -42556.375, -0.011770249, -0.17823182, -64229.62, 89584.61, 0.00003270768, 10.001411, 9.998026 
1.9752832e+3, 2.9430142e+2, 102445.164, -147044.97, 28794.982, -0.0188625, -0.23729514, 105725.414, 161555.33, 0.00013942833, 10.001736, 9.9984455 
1.9753084e+3, 3.0430022e+2, 35129.387, -460033.03, 107225.09, -0.13029893, -0.062365834, 57351.21, 57351.21, 0.00034788318, 10.002268, 9.995722 
1.9753385e+3, 3.142959e+2, 355867.56, 10369.732, 14077.686, 0.14473492, -0.14637536, 356440.25, 356440.25, 0.0006200004, 10.0031, 9.998512 
1.9848819e+3, 1.242823e+2, -1974477.0, -1331842.5, 28688.525, 0.31101367, -0.19409442, -1330564.4, 391453.8, 0.25424254, 9.995313, 10.005783 
1.984899e+3, 1.3428214e+2, -1995451.6, -2008420.1, 20647.613, -0.3214663, -0.09091506, -1980294.0, -356275.34, 0.17932345, 9.998292, 9.998087 
1.9849305e+3, 1.4428064e+2, -1714317.1, -1566127.5, 66532.17, 0.39731368, -0.14967819, -1540640.3, -14606.635, 0.104643695, 9.998402, 10.000418 
1.9849509e+3, 1.5428263e+2, -1580137.9, -1356352.1, -11288.121, 0.04429881, -0.112939395, -1355784.1, 72231.016, 0.046255346, 9.998261, 10.001258 
1.9849737e+3, 1.6428274e+2, -1506477.0, -1326470.3, -15135.597, -0.05243097, -0.19810648, -1325206.5, 4806.0854, 0.013380272, 9.998337, 10.000741 
1.9849989e+3, 1.7428327e+2, -1327594.0, -1169801.0, -28910.232, 0.060468838, -0.26770863, -1164671.0, 67332.086, 0.0017591557, 9.998841, 10.000879 
1.985023e+3, 1.8428412e+2, -1284922.1, -1226718.9, -26145.89, 0.08113674, -0.21010844, -1216698.6, -82704.836, 0.0000256483, 9.998949, 9.999793 
1.985046e+3, 1.9428432e+2, -1170475.5, -1096375.8, -52813.527, -0.029731464, -0.22509387, -1068912.3, -32916.336, 0.0, 9.998982, 9.999981 
1.9850698e+3, 2.0428431e+2, -1055780.4, -1034329.25, -63969.23, -0.0070693437, -0.19725809, -980192.6, -42194.945, 0.0, 9.999276, 9.999607 
1.9850947e+3, 2.1428446e+2, -799061.8, -831221.9, -80985.586, 0.14817509, -0.19637102, -732575.3, 107419.55, 0.0, 10.000278, 9.999822 
1.985118e+3, 2.2428443e+2, -670730.94, -790034.94, -74713.305, 0.15837409, -0.14760536, -634777.3, 107218.09, 0.0, 10.00075, 9.999227 
1.9851394e+3, 2.3428383e+2, -602968.7, -687312.8, -119052.79, -0.03259322, -0.18076386, -518839.34, 125163.91, 0.0, 10.000487, 9.999371 
1.9851632e+3, 2.4428323e+2, -543780.06, -642293.2, -63141.598, -0.044774823, -0.15334791, -512954.97, 33054.94, 0.0, 10.000371, 9.999067 
1.9851898e+3, 2.5428253e+2, -389461.8, -495233.7, -77308.8, 0.13030632, -0.18553774, -348680.4, 99335.46, 0.0, 10.00068, 9.999247 
1.9852151e+3, 2.6428148e+2, -296528.9, -524688.9, -68170.28, 0.20851803, -0.1499404, -277712.56, 72313.31, 0.00000004684117, 10.001156, 9.998154 
1.9852386e+3, 2.742801e+2, -80587.93, -345609.25, -71638.25, 0.14273398, -0.1630163, -62462.89, 189578.1, 0.000003631824, 10.001899, 9.998324 
1.9852622e+3, 2.842784e+2, 106833.97, -226419.38, -36805.703, 0.08693811, -0.14773816, 110850.516, 264907.16, 0.000030883682, 10.002565, 9.998184 
1.9852859e+3, 2.942761e+2, 292576.38, -48045.613, -65029.883, 0.02387486, -0.2645711, 304569.3, 360644.7, 0.00012822116, 10.003046, 9.998477 
1.985311e+3, 3.0427438e+2, 217525.58, -332751.75, 95803.67, -0.1255797, -0.15955439, 233728.0, 233728.0, 0.0003141248, 10.003309, 9.996099 
1.9853427e+3, 3.1427073e+2, 375556.84, 32138.648, 13568.102, 0.27168667, -0.20603603, 376092.06, 376092.06, 0.00054966006, 10.003099, 9.998686 
1.9948784e+3, 1.2425558e+2, -2069138.4, -1535794.6, -73074.055, 0.30611333, -0.39346737, -1525963.9, 196311.25, 0.26535824, 9.995611, 10.003809 
1.9948986e+3, 1.3425955e+2, -1874648.1, -1779697.8, 96132.49, -0.23394084, -0.013872687, -1719956.5, -95721.56, 0.18805622, 9.998371, 9.999622 
1.9949256e+3, 1.4425611e+2, -1736748.8, -1660333.6, 17698.092, 0.00073603005, -0.3188083, -1656433.8, -130163.07, 0.11045076, 9.998609, 9.999674 
1.9949506e+3, 1.5425877e+2, -1647273.0, -1493895.4, -5239.661, 0.16035332, -0.10890878, -1493716.5, -65466.984, 0.04926506, 9.998286, 10.000273 
1.9949743e+3, 1.6425982e+2, -1500576.5, -1343100.5, -13999.784, 0.11234981, -0.039068673, -1341865.6, -11625.574, 0.014456319, 9.998457, 10.000568 
1.9949965e+3, 1.7425956e+2, -1336966.3, -1187638.5, -1804.5295, -0.075688206, -0.17662287, -1187616.6, 44621.504, 0.0019582892, 9.998841, 10.0007515 
1.9950208e+3, 1.8425979e+2, -1302918.5, -1273820.5, -41813.867, -0.09010722, -0.15861496, -1244096.8, -109861.484, 0.000032105352, 9.99899, 9.999451 
1.9950464e+3, 1.9426033e+2, -1210719.0, -1151939.6, -41363.215, 0.10670837, -0.103624366, -1130588.1, -94353.266, 0.0, 9.998871, 9.999648 
1.9950709e+3, 2.0426008e+2, -1076885.9, -1037108.6, -50370.42, 0.1375056, -0.08773589, -1002842.5, -64604.863, 0.0, 9.99909, 9.999679 
1.9950935e+3, 2.1425869e+2, -822851.5, -830611.3, -29105.018, -0.017112179, -0.25595883, -797368.94, 42876.953, 0.0, 10.000058, 9.99993 
1.9951168e+3, 2.242577e+2, -772558.0, -919891.7, -95407.63, -0.075733505, -0.27651063, -725686.8, 16567.553, 0.0, 10.000396, 9.9985075 
1.9951406e+3, 2.3425715e+2, -693325.9, -818415.6, -109793.1, 0.022973983, -0.23084858, -629512.6, 14751.88, 0.0, 10.0002365, 9.998591 
1.9951649e+3, 2.4425673e+2, -604929.06, -681352.4, -71111.05, 0.05758302, -0.14118882, -562413.3, -16142.179, 0.0, 9.9999895, 9.998985 
1.9951896e+3, 2.542565e+2, -427520.63, -510639.3, -45976.277, 0.031494785, -0.13164245, -407104.2, 41169.2, 0.0, 10.000407, 9.9992695 
1.995215e+3, 2.6425576e+2, -317079.7, -477271.7, -58715.113, 0.052787505, -0.092367746, -297863.9, 52416.297, 0.000000042002604, 10.000773, 9.998663 
1.995241e+3, 2.7425456e+2, -84832.86, -279947.53, -24643.947, 0.17010066, -0.14519429, -81768.336, 170523.31, 0.0000035134383, 10.001592, 9.998917 
1.995266e+3, 2.8425327e+2, 61.39527, -348679.28, -44247.742, 0.15397893, -0.09328491, 5587.9097, 159890.8, 0.00002820436, 10.002133, 9.997552 
1.9952889e+3, 2.9425126e+2, 183197.69, -175578.05, -25377.482, -0.017508944, -0.12523633, 184983.84, 241303.31, 0.00011358975, 10.00261, 9.997808 
1.9953135e+3, 3.0424687e+2, 224890.86, -145212.55, 62269.285, -0.25152358, -0.32833344, 235086.69, 235086.69, 0.00027761882, 10.002608, 9.997708 
1.9953449e+3, 3.1424654e+2, 257638.53, -9293.088, 114766.88, 0.11313962, -0.24395481, 300197.03, 300197.03, 0.0004902181, 10.002289, 9.998758 
2.0048739e+3, 1.2423013e+2, -1832362.9, -1590236.9, -72762.98, 0.19529326, -0.3442932, -1570053.0, 152469.98, 0.27641812, 9.998051, 10.0021305 
2.0048988e+3, 1.3423568e+2, -1940219.9, -1732468.6, -31312.848, -0.0012289225, 0.10926515, -1727851.6, -103382.62, 0.1968332, 9.997584, 10.000311 
2.0049226e+3, 1.4422987e+2, -1920754.6, -1763201.8, -100705.48, -0.08163131, -0.46746418, -1714121.5, -187593.13, 0.11636926, 9.997407, 9.999541 
2.0049495e+3, 1.5423344e+2, -1541133.9, -1473074.4, -77377.32, 0.18458751, -0.14746489, -1422574.4, 5923.295, 0.05238356, 9.999113, 10.000027 
2.0049736e+3, 1.6423504e+2, -1367122.1, -1330821.9, -57332.49, 0.17230327, 0.010566628, -1288835.1, 41648.19, 0.015589432, 9.999555, 10.00014 
2.0049958e+3, 1.7423429e+2, -1349561.3, -1244586.3, -102171.68, -0.032682467, -0.13780846, -1182208.6, 50279.76, 0.0021699998, 9.998917, 10.000343 
2.0050201e+3, 1.8423413e+2, -1373216.1, -1301471.8, -94086.22, -0.012806748, -0.14050637, -1236651.1, -102160.95, 0.00003871999, 9.998513, 9.999477 
2.0050462e+3, 1.9423473e+2, -1166303.6, -1127662.9, -98296.305, 0.18141846, -0.079630956, -1046806.25, -10318.467, 0.0, 9.999192, 9.999653 
2.0050707e+3, 2.0423445e+2, -1001775.2, -1014751.25, -57783.746, 0.20881005, -0.058529854, -950116.4, -11626.117, 0.0, 9.999693, 9.9995365 
2.0050938e+3, 2.1423283e+2, -811148.9, -844064.56, -86370.63, 0.01623237, -0.23008832, -739682.06, 100818.99, 0.0, 10.000228, 9.999761 
2.0051174e+3, 2.2423169e+2, -749680.5, -908170.4, -139956.33, -0.03596804, -0.25209627, -668091.56, 74419.2, 0.0, 10.000579, 9.99849 
2.0051414e+3, 2.3423122e+2, -602500.75, -770391.6, -143894.0, 0.05529932, -0.19291481, -519855.9, 124663.125, 0.0, 10.000888, 9.998594 
2.0051658e+3, 2.4423073e+2, -447390.03, -613252.25, -40273.09, 0.110827155, -0.10865398, -438128.47, 108397.25, 0.0, 10.001067, 9.998947 
2.0051908e+3, 2.5423005e+2, -346626.28, -477292.6, -54435.92, 0.0944222, -0.13720214, -326920.06, 121611.805, 0.0, 10.000972, 9.999226 
2.0052165e+3, 2.6422915e+2, -269852.38, -466455.72, -35095.348, 0.11280753, -0.10855483, -263775.4, 86764.71, 0.000000029896977, 10.00113, 9.998571 
2.0052426e+3, 2.7422786e+2, -72997.7, -297971.2, -84090.58, 0.16289479, -0.1555334, -45040.535, 207512.73, 0.0000031274246, 10.001732, 9.998748 
2.005268e+3, 2.8422663e+2, -21068.492, -368127.88, -91331.3, 0.19174963, -0.0845306, 1498.6272, 156063.22, 0.000025154262, 10.002024, 9.997476 
2.0052925e+3, 2.9422495e+2, 64659.125, -252728.27, -100954.69, 0.13164812, -0.06215257, 94049.29, 150628.31, 0.00009776422, 10.001877, 9.997636 
2.0053174e+3, 3.0422008e+2, 259482.27, -26676.62, 44285.6, -0.08084806, -0.34598556, 266179.13, 266179.13, 0.00024035286, 10.002375, 9.998659 
2.0053478e+3, 3.1422007e+2, 411874.63, 8738.573, -16146.778, 0.1321174, -0.30099943, 412520.3, 412520.3, 0.000433908, 10.003534, 9.998325 
2.0148695e+3, 1.2420385e+2, -1928858.4, -1771840.5, 10249.793, -0.14829524, -0.33498546, -1771174.3, -48391.867, 0.28771394, 9.998196, 10.00043 
2.014899e+3, 1.3421078e+2, -1966738.6, -1809647.0, -58321.656, 0.21551803, 0.28111956, -1790362.1, -165643.42, 0.20582092, 9.997669, 9.999747 
2.0149213e+3, 1.4420162e+2, -1857701.6, -1684356.5, -71263.82, -0.03417207, -0.6119302, -1658820.9, -132010.7, 0.12247417, 9.997618, 9.999986 
2.014947e+3, 1.5420656e+2, -1489486.8, -1375427.4, -6644.719, -0.032175213, -0.2203201, -1375041.6, 53718.574, 0.055639356, 9.999139, 10.000705 
2.0149714e+3, 1.6420856e+2, -1388541.9, -1401613.4, -95958.59, -0.077741995, -0.033644583, -1298896.8, 31844.164, 0.016791714, 9.999669, 9.999602 
2.014996e+3, 1.742076e+2, -1396240.9, -1334163.8, -115265.01, 0.06030488, -0.13702351, -1245831.4, -13078.487, 0.0023981123, 9.998894, 9.999741 
2.0150205e+3, 1.842073e+2, -1340053.5, -1252986.8, -98742.05, 0.12750423, -0.13695753, -1188607.5, -53850.383, 0.000045425786, 9.998588, 9.999781 
2.0150442e+3, 1.9420752e+2, -1157660.0, -1089739.6, -64170.703, 0.050329205, -0.14531258, -1051097.0, -14342.079, 0.0, 9.999104, 9.999958 
2.0150691e+3, 2.042075e+2, -1057127.3, -1084885.5, -54946.625, 0.019198535, -0.09917915, -1014334.0, -75579.08, 0.0, 9.999495, 9.999153 
2.0150952e+3, 2.1420692e+2, -882722.4, -933032.94, -50619.223, 0.10244403, -0.11792817, -851352.5, -10592.324, 0.0, 9.999971, 9.999275 
2.0151195e+3, 2.2420633e+2, -770564.6, -869982.44, -144123.28, 0.07887429, -0.078598544, -667818.6, 74946.68, 0.0, 10.0002165, 9.99893 
2.0151414e+3, 2.3420577e+2, -595418.75, -707507.0, -115367.14, -0.06715264, -0.08478683, -523203.28, 121566.625, 0.0, 10.000662, 9.999141 
2.0151654e+3, 2.4420479e+2, -509419.47, -651491.7, -56933.21, -0.07018852, -0.07522829, -489419.78, 57358.152, 0.0, 10.00069, 9.998861 
2.0151928e+3, 2.542031e+2, -395031.6, -513392.4, -43973.234, 0.15636812, -0.1911405, -380483.0, 68309.34, 0.0, 10.000706, 9.999104 
2.0152184e+3, 2.6420152e+2, -373498.4, -597236.0, -35627.71, 0.17573643, -0.19549312, -367962.06, -17154.09, 0.0000000091701935, 10.00077, 9.9978485 
2.0152426e+3, 2.7420005e+2, -170601.25, -423066.34, -39434.97, -0.034870893, -0.18284786, -164584.89, 88239.8, 0.0000023642951, 10.0014105, 9.998039 
2.0152684e+3, 2.841988e+2, -82327.875, -391350.66, -117966.08, -0.030522112, -0.08249569, -42443.363, 112394.92, 0.000021595964, 10.001584, 9.997525 
2.015296e+3, 2.9419702e+2, 28282.615, -262572.7, -80026.945, 0.2583064, -0.084738344, 48847.473, 105702.37, 0.000083873885, 10.001573, 9.997724 
2.0153219e+3, 3.0419347e+2, 164653.6, -77421.83, 56829.95, 0.085734844, -0.24033526, 177331.14, 177331.14, 0.00020823602, 10.001786, 9.99857 
2.0153488e+3, 3.1419373e+2, 202833.9, -140190.83, 145980.13, -0.18654695, -0.18122901, 256547.4, 256547.4, 0.00038362973, 10.002401, 9.997802 
2.0248672e+3, 1.2417821e+2, -2032340.8, -1822447.3, 105092.71, -0.13011171, -0.29243028, -1778873.6, -55840.094, 0.29983783, 9.997508, 10.000396 
2.0248984e+3, 1.3418388e+2, -2011885.0, -1894314.3, -40928.95, 0.40611434, 0.22604093, -1881469.4, -256484.67, 0.21537028, 9.997647, 9.999161 
2.0249195e+3, 1.4417644e+2, -1650125.1, -1572459.1, -3705.0376, -0.006660302, -0.47032166, -1572282.8, -45223.016, 0.12892798, 9.998991, 10.00009 
2.0249456e+3, 1.5418014e+2, -1574783.3, -1392000.4, -25905.709, -0.02954772, -0.22115639, -1388399.8, 40618.953, 0.05909158, 9.998471, 10.000899 
2.0249704e+3, 1.6418147e+2, -1632452.8, -1530059.4, -102630.016, -0.039425567, -0.10425704, -1466565.0, -135560.1, 0.018083457, 9.998087, 9.999459 
2.0249955e+3, 1.7418106e+2, -1348052.0, -1323931.8, -115779.484, 0.10844103, -0.13526167, -1219585.9, 13427.58, 0.0026487417, 9.999338, 9.99957 
2.0250201e+3, 1.84181e+2, -1159757.4, -1176184.9, -65523.79, 0.18166235, -0.10061386, -1101934.5, 33081.477, 0.000052423693, 9.999863, 9.999689 
2.0250438e+3, 1.941806e+2, -1067440.1, -1062622.1, -92204.945, 0.0651751, -0.1615343, -972794.7, 64223.496, 0.0, 9.999773, 9.999824 
2.0250688e+3, 2.0418033e+2, -1024581.9, -1089747.9, -50782.234, 0.049061056, -0.12408185, -996828.4, -57808.066, 0.0, 9.999815, 9.998955 
2.0250957e+3, 2.1418016e+2, -845774.3, -941381.3, -64017.508, 0.14525193, -0.08121124, -813681.5, 27342.295, 0.0, 10.0003395, 9.999031 
2.0251206e+3, 2.2417954e+2, -701984.8, -821427.1, -132738.39, 0.15001501, -0.040906094, -616151.5, 126877.73, 0.0, 10.000615, 9.999065 
2.0251426e+3, 2.3417838e+2, -573615.56, -677773.3, -160043.02, 0.0007201257, -0.1215572, -457391.22, 187645.34, 0.0, 10.000725, 9.999306 
2.0251669e+3, 2.4417707e+2, -507194.3, -690243.9, -99661.42, 0.0064104768, -0.13832901, -463407.66, 83639.32, 0.0, 10.000891, 9.998491 
2.0251939e+3, 2.541753e+2, -346449.9, -543472.9, -141600.8, 0.18896325, -0.21570492, -272464.16, 176600.33, 0.0, 10.001275, 9.998625 
2.02522e+3, 2.6417363e+2, -249809.86, -520341.88, -79713.516, 0.21807669, -0.206006, -228069.06, 123012.36, 0.000000001074916, 10.001555, 9.997993 
2.0252444e+3, 2.7417222e+2, -120089.695, -375585.5, -63253.25, 0.012077347, -0.20245303, -105287.6, 147808.97, 0.0000018159459, 10.001684, 9.99822 
2.0252703e+3, 2.8417102e+2, -12985.838, -361769.06, -76886.445, 0.0064594103, -0.105357684, 3211.0078, 158320.69, 0.000018189116, 10.0020485, 9.997511 
2.0252976e+3, 2.9416943e+2, 179966.22, -178916.0, -97866.64, 0.22421408, -0.08660082, 204919.31, 262045.39, 0.000072171526, 10.00258, 9.997799 
2.0253253e+3, 3.0416644e+2, 282729.7, -85732.266, 70288.1, 0.23554505, -0.17023255, 295682.56, 295682.56, 0.00017993047, 10.002803, 9.998066 
2.0253517e+3, 3.141665e+2, 164326.94, -131180.61, -9871.03, -0.071591035, -0.05518481, 164656.3, 164656.3, 0.00033599298, 10.001928, 9.998129 
2.034867e+3, 1.24153495e+2, -1886638.8, -1643327.6, -29106.258, -0.043009534, -0.19867523, -1639894.3, 83379.18, 0.3135409, 9.997842, 10.001745 
2.0348966e+3, 1.3415481e+2, -2010292.6, -1934813.5, 30765.791, 0.41858283, -0.06707485, -1923862.1, -298593.1, 0.22593072, 9.997824, 9.998806 
2.034917e+3, 1.4415427e+2, -1624368.8, -1582610.5, -12862.632, -0.24055542, -0.04402044, -1578966.5, -51688.906, 0.13594478, 9.999258, 9.999891 
2.0349452e+3, 1.5415424e+2, -1582275.9, -1425483.9, -44084.293, 0.047191717, -0.14857672, -1413939.0, 15333.8125, 0.06282382, 9.998553, 10.000614 
2.0349704e+3, 1.641537e+2, -1601066.1, -1496010.1, -93361.6, 0.08924013, -0.2107408, -1441414.0, -110137.32, 0.019494196, 9.99822, 9.999626 
2.0349938e+3, 1.7415464e+2, -1322022.6, -1281505.3, -55519.355, -0.033129677, -0.13312285, -1242663.9, -9392.868, 0.0029308582, 9.999382, 9.999837 
2.0350184e+3, 1.8415512e+2, -1187819.8, -1242187.3, -81295.73, -0.04451905, -0.040208265, -1129283.4, 5984.4272, 0.00006041413, 9.999896, 9.999222 
2.0350441e+3, 1.9415398e+2, -1119958.8, -1145651.8, -84914.04, 0.079992555, -0.11960467, -1046924.94, -9647.547, 0.0, 9.999665, 9.999306 
2.0350695e+3, 2.0415303e+2, -1058092.8, -1112817.0, -53098.305, 0.09254869, -0.11949305, -1025721.2, -86434.95, 0.0, 9.99962, 9.998889 
2.0350948e+3, 2.1415246e+2, -882576.7, -957901.94, -30208.988, 0.0073510786, -0.11622313, -871958.3, -30665.344, 0.0, 10.000086, 9.99904 
2.0351198e+3, 2.2415131e+2, -768302.56, -864287.94, -140457.89, -0.010929725, -0.12529656, -667864.4, 75438.27, 0.0, 10.000222, 9.998953 
2.0351446e+3, 2.3414919e+2, -629709.44, -722967.56, -135749.92, 0.105155654, -0.28937817, -532803.44, 112514.71, 0.0, 10.000431, 9.999131 
2.0351693e+3, 2.441476e+2, -613113.5, -826777.6, -102879.98, 0.12771027, -0.29042438, -571630.44, -24297.473, 0.0, 10.000534, 9.997726 
2.035194e+3, 2.5414664e+2, -436196.0, -675952.75, -110203.45, 0.051495705, -0.20887499, -393238.2, 56109.543, 0.0, 10.001039, 9.997832 
2.03522e+3, 2.6414546e+2, -261824.39, -448159.8, -89636.94, 0.030146804, -0.13681933, -225705.58, 125655.35, 0.000000023664393, 10.001156, 9.9986725 
2.0352474e+3, 2.7414396e+2, -102977.805, -274247.97, -38031.957, 0.12073108, -0.23799716, -94912.31, 158460.5, 0.0000019634658, 10.001398, 9.999051 
2.0352733e+3, 2.8414282e+2, -94441.875, -411464.53, -81360.33, 0.07371826, -0.17149025, -74780.97, 80602.14, 0.000016146072, 10.001558, 9.997397 
2.035297e+3, 2.9414204e+2, 116378.85, -214391.14, -49613.17, -0.13425252, -0.0611206, 123660.195, 181053.83, 0.00006227005, 10.002159, 9.997761 
2.0353268e+3, 3.0413878e+2, 87557.336, -311147.03, 20703.088, 0.053403065, -0.11399194, 88629.48, 88629.48, 0.00015437642, 10.002067, 9.996849 
2.0353568e+3, 3.141364e+2, 122334.625, 2256.0916, -5267.084, 0.1746111, -0.13719714, 122565.22, 122565.22, 0.00029131802, 10.001046, 9.999434 
2.0448649e+3, 1.2412709e+2, -1902075.5, -1469935.3, -82234.83, 0.057847355, -0.17146696, -1454815.3, 268717.5, 0.3294151, 9.996615, 10.004175 
2.0448928e+3, 1.341255e+2, -2116045.5, -2010974.0, -22592.04, 0.31580144, -0.27502063, -2006322.3, -380768.22, 0.23787552, 9.9972515, 9.998566 
2.0449166e+3, 1.4412853e+2, -1825087.8, -1671238.8, -29450.537, -0.1139954, 0.113180906, -1665793.9, -138266.72, 0.14372098, 9.997848, 9.999964 
2.0449445e+3, 1.5412705e+2, -1515960.5, -1396940.8, -104340.75, 0.10900758, -0.13697287, -1336332.3, 93205.91, 0.06692591, 9.99902, 10.000612 
2.0449698e+3, 1.641259e+2, -1411875.4, -1398607.6, -102930.375, 0.15667915, -0.2642411, -1302097.6, 29450.555, 0.021061258, 9.999473, 9.999704 
2.0449935e+3, 1.7412718e+2, -1284679.8, -1259288.0, -109067.54, 0.00049527164, -0.15911569, -1162179.9, 71358.05, 0.003256253, 9.999608, 9.999892 
2.0450184e+3, 1.8412772e+2, -1224602.6, -1285673.1, -122257.21, -0.0038824521, -0.049295906, -1129125.1, 6408.401, 0.00007088071, 9.999761, 9.998992 
2.0450445e+3, 1.9412632e+2, -1021147.8, -1121192.4, -137041.64, 0.12619369, -0.13082762, -925284.4, 112261.65, 0.0, 10.000459, 9.999086 
2.0450701e+3, 2.0412502e+2, -928403.56, -1077801.4, -74183.52, 0.154163, -0.14150098, -897826.06, 41732.89, 0.0, 10.00061, 9.998662 
2.0450953e+3, 2.1412404e+2, -859912.7, -962599.9, -99001.89, 0.037745114, -0.1596999, -799732.56, 41837.82, 0.0, 10.000316, 9.998892 
2.0451204e+3, 2.2412296e+2, -754518.25, -858678.3, -175949.28, 0.039194815, -0.15539175, -623103.1, 120477.24, 0.0, 10.000309, 9.998965 
2.045146e+3, 2.341213e+2, -572914.2, -691604.1, -189042.75, 0.18806534, -0.2733875, -434120.38, 211472.0, 0.0, 10.000798, 9.999178 
2.045171e+3, 2.4411991e+2, -523765.3, -786731.25, -90179.766, 0.22905111, -0.2542043, -495811.28, 51794.336, 0.0, 10.001151, 9.99771 
2.0451954e+3, 2.5411892e+2, -391251.44, -653197.7, -77748.54, 0.09119824, -0.17106731, -369913.06, 79707.81, 0.0, 10.001345, 9.997836 
2.0452215e+3, 2.6411775e+2, -232886.67, -437140.4, -26451.982, 0.067932114, -0.102777205, -229516.6, 122117.58, 0.00000011200642, 10.001329, 9.998671 
2.0452492e+3, 2.7411622e+2, -148638.16, -303020.88, -76919.58, 0.19341767, -0.19811104, -116856.46, 136789.05, 0.000002326167, 10.001092, 9.999004 
2.0452753e+3, 2.8411478e+2, -122902.18, -396700.97, -84687.52, 0.14345048, -0.17062715, -98825.11, 56832.73, 0.000014696717, 10.001219, 9.997668 
2.0452985e+3, 2.9411337e+2, 73196.2, -199777.63, -78309.7, -0.15812491, -0.13896947, 94065.84, 151738.8, 0.00005375532, 10.001721, 9.998072 
2.0453294e+3, 3.041112e+2, 123784.945, -276308.06, 77710.29, 0.13794775, -0.1100828, 138348.53, 138348.53, 0.00013254509, 10.002222, 9.997007 
2.0453599e+3, 3.1410837e+2, 355909.47, 114755.93, -82490.86, 0.3199702, -0.17064379, 381426.84, 381426.84, 0.00025431596, 10.002574, 9.999491 
2.0548609e+3, 1.2409812e+2, -1618913.3, -1085536.5, -135311.86, -0.12134214, -0.2470249, -1053173.0, 670647.1, 0.3476065, 9.997013, 10.008087 
2.0548862e+3, 1.3409616e+2, -2085275.9, -1972485.6, 15511.238, -0.11476453, -0.3580039, -1970391.4, -344553.5, 0.2513395, 9.997348, 9.998786 
2.0549175e+3, 1.4409894e+2, -1770805.5, -1606448.0, -10207.293, 0.12086006, -0.032299235, -1605816.5, -78005.57, 0.15236652, 9.998054, 10.000308 
2.0549427e+3, 1.540986e+2, -1484771.4, -1354900.5, -48295.484, -0.013183002, -0.18930417, -1338909.6, 90904.49, 0.071473114, 9.999099, 10.000874 
2.0549677e+3, 1.6409808e+2, -1395380.6, -1411013.6, -117758.23, -0.04168773, -0.26101235, -1285179.8, 46639.656, 0.022826005, 9.999661, 9.9995365 
2.0549941e+3, 1.7409869e+2, -1293858.5, -1286494.9, -95807.25, 0.060984977, -0.20518126, -1194298.8, 39515.707, 0.0036400491, 9.999636, 9.999696 
2.0550197e+3, 1.8409866e+2, -1217750.6, -1291101.9, -117803.62, 0.09227833, -0.13234188, -1131045.6, 4768.9956, 0.00008593674, 9.999831, 9.998928 
2.0550445e+3, 1.9409737e+2, -1026752.56, -1119149.6, -100763.086, 0.05451234, -0.20859627, -962102.06, 75724.42, 0.0, 10.000386, 9.999143 
2.0550698e+3, 2.0409606e+2, -988469.8, -1151091.4, -98551.51, 0.036984604, -0.20660631, -942015.75, -2175.245, 0.0, 10.000389, 9.998265 
2.0550962e+3, 2.1409477e+2, -928059.6, -1045787.0, -94607.3, 0.076315716, -0.21543011, -875498.56, -33640.98, 0.0, 10.00006, 9.998444 
2.0551215e+3, 2.240942e+2, -805508.2, -872240.9, -176278.03, 0.0913429, -0.13943562, -659466.44, 84398.68, 0.0, 9.999919, 9.999057 
2.055146e+3, 2.3409447e+2, -600260.0, -682758.6, -153449.13, 0.103719905, -0.083302796, -482612.7, 163248.39, 0.0, 10.000518, 9.999373 
2.0551714e+3, 2.4409379e+2, -538833.2, -723638.6, -98667.016, 0.11740284, -0.033608194, -496056.6, 51810.473, 0.0, 10.000754, 9.99833 
2.0551978e+3, 2.5409174e+2, -390732.66, -578731.1, -52259.24, 0.15480946, -0.12304794, -377182.44, 72705.45, 0.0, 10.0010395, 9.998491 
2.0552239e+3, 2.640901e+2, -344886.25, -568164.25, -52041.992, 0.13215442, -0.10804946, -333352.06, 18552.33, 0.00000017468948, 10.000904, 9.99797 
2.0552495e+3, 2.7408874e+2, -249371.72, -451697.5, -64635.758, 0.07195147, -0.10062144, -230485.83, 23431.12, 0.0000023499456, 10.000825, 9.9981165 
2.0552751e+3, 2.840866e+2, -179848.39, -390876.97, -83091.3, -0.021209652, -0.10874474, -151059.19, 4877.1934, 0.000012296112, 10.00071, 9.997942 
2.0553012e+3, 2.940833e+2, 44597.773, -167365.14, -31067.756, -0.08343697, -0.3294279, 49057.59, 107023.49, 0.000044415407, 10.001331, 9.998475 
2.0553328e+3, 3.040827e+2, 90422.71, -170529.5, 61260.42, 0.19221862, -0.21657304, 104088.38, 104088.38, 0.00011238728, 10.001515, 9.998052 
2.0553604e+3, 3.1408164e+2, 96455.99, -173376.4, -121963.414, 0.022367774, -0.21850568, 143411.88, 143411.88, 0.00022372513, 10.001552, 9.997979 
2.0648594e+3, 1.2406976e+2, -1693489.3, -1091420.5, -61223.445, 0.114530005, -0.2816354, -1085257.8, 638838.9, 0.36771804, 9.995911, 10.008731 
2.0648836e+3, 1.3406909e+2, -1880813.9, -1871889.6, 63118.074, -0.16214082, -0.27685413, -1813076.1, -186976.55, 0.26616043, 9.998718, 9.998794 
2.0649162e+3, 1.4406915e+2, -1819485.5, -1647658.1, 25985.14, 0.20782013, -0.22552079, -1643814.4, -115715.516, 0.1618756, 9.997768, 10.000173 
2.0649414e+3, 1.5407024e+2, -1613870.9, -1410595.4, -42233.395, 0.014701834, -0.24011578, -1402170.0, 27919.498, 0.07651462, 9.99818, 10.000912 
2.0649673e+3, 1.6407059e+2, -1532533.8, -1483256.0, -84815.79, -0.01470795, -0.22720255, -1419572.8, -87486.08, 0.024829434, 9.998775, 9.999444 
2.0649938e+3, 1.7407033e+2, -1331479.3, -1320875.0, -99689.695, 0.11160748, -0.23933692, -1226346.5, 7742.437, 0.0041003036, 9.999474, 9.999517 
2.06502e+3, 1.840697e+2, -1258759.3, -1330953.8, -92018.59, 0.17037332, -0.2104426, -1196011.0, -59915.414, 0.000108260756, 9.999652, 9.998722 
2.065045e+3, 1.9406848e+2, -1113443.9, -1174856.3, -123086.55, 0.10030409, -0.26354843, -1017291.25, 20817.566, 0.0, 9.99986, 9.999 
2.0650703e+3, 2.0406753e+2, -1027795.2, -1139102.4, -92718.42, 0.08790971, -0.23137406, -975309.8, -35189.727, 0.0, 9.999979, 9.998545 
2.0650966e+3, 2.140669e+2, -878589.3, -989746.44, -68560.54, 0.116191134, -0.20083669, -845909.6, -3780.1406, 0.0, 10.000265, 9.998734 
2.0651221e+3, 2.2406653e+2, -736138.5, -866139.3, -82646.56, 0.12647378, -0.107065335, -695993.7, 48141.516, 0.0, 10.000497, 9.998829 
2.0651464e+3, 2.3406638e+2, -597317.1, -713829.94, -127284.57, 0.09564899, -0.06557539, -515590.78, 130546.79, 0.0, 10.00067, 9.999088 
2.065172e+3, 2.4406561e+2, -500660.2, -682373.8, -76715.87, 0.11995869, -0.019259913, -472604.06, 75541.05, 0.0, 10.000911, 9.99854 
2.065199e+3, 2.5406379e+2, -332288.66, -519400.72, -97971.3, 0.18595608, -0.111409, -290378.44, 159783.69, 0.0, 10.001305, 9.998767 
2.0652254e+3, 2.6406214e+2, -258838.36, -531699.7, -69840.41, 0.19282992, -0.10968086, -242001.25, 110176.68, 0.00000012472299, 10.001501, 9.997947 
2.065251e+3, 2.7406076e+2, -151749.6, -400604.75, -65225.58, 0.10676575, -0.098576955, -135690.17, 118501.77, 0.0000018192295, 10.00149, 9.998145 
2.0652771e+3, 2.84059e+2, -64372.23, -310096.94, -7658.9014, 0.073400006, -0.08452017, -64133.742, 92074.13, 0.000008845643, 10.001369, 9.998198 
2.0653039e+3, 2.9405612e+2, -3401.5945, -172515.08, -28788.713, 0.09404924, -0.27387848, 1364.8553, 59597.074, 0.000033872344, 10.0009165, 9.998649 
2.065334e+3, 3.0405477e+2, 112646.61, -52375.695, 118688.914, 0.21278487, -0.29266545, 174687.0, 174687.0, 0.00009226976, 10.001124, 9.999097 
2.0653623e+3, 3.1405497e+2, 183938.17, -82742.38, -235501.11, 0.073766984, -0.2706882, 321227.53, 321227.53, 0.0001939828, 10.001887, 9.998476 
2.0748565e+3, 1.2404265e+2, -1900095.1, -1439711.5, -57153.824, 0.10357391, -0.30486748, -1432722.3, 291633.34, 0.38886976, 9.996225, 10.004921 
2.074884e+3, 1.3404416e+2, -1909824.0, -1968769.1, 80144.36, -0.024671338, -0.07306398, -1853904.9, -227563.89, 0.28190908, 9.99886, 9.998071 
2.0749119e+3, 1.4403917e+2, -1828165.0, -1711044.9, -21825.23, -0.0690722, -0.4422976, -1707110.0, -178719.08, 0.17213808, 9.997962, 9.999646 
2.0749402e+3, 1.540419e+2, -1605700.5, -1407285.1, -10219.817, 0.029998656, -0.28249627, -1406760.1, 23604.549, 0.08207624, 9.998245, 10.000898 
2.074967e+3, 1.6404328e+2, -1507755.5, -1471124.5, -73455.734, 0.027836235, -0.17190008, -1413735.3, -81383.984, 0.027111659, 9.9989395, 9.99945 
2.074993e+3, 1.7404215e+2, -1337256.5, -1338193.8, -65276.516, 0.013722939, -0.2591861, -1272447.0, -38085.25, 0.0046569863, 9.999502, 9.999381 
2.075019e+3, 1.8404086e+2, -1274258.3, -1385138.8, -103165.49, 0.04249331, -0.26878977, -1212580.0, -76204.06, 0.00014131474, 9.999745, 9.998305 
2.0750454e+3, 1.9403957e+2, -1155343.1, -1247128.4, -107047.516, 0.12236026, -0.2863526, -1084765.5, -46371.844, 0.0000000002137382, 9.999792, 9.998538 
2.075071e+3, 2.0403923e+2, -990827.3, -1023185.44, -104103.02, 0.10964085, -0.20947272, -901653.6, 38745.707, 0.0, 9.9998, 9.999429 
2.0750959e+3, 2.1404018e+2, -836869.6, -853723.4, -42794.0, 0.010004406, -0.12428458, -801680.7, 40707.895, 0.0, 10.000044, 9.999777 
2.0751211e+3, 2.240397e+2, -837591.8, -983006.8, -87762.78, -0.036431912, -0.07361972, -796331.4, -51938.066, 0.0, 10.000105, 9.998208 
2.0751464e+3, 2.34037e+2, -698114.0, -848893.25, -103947.08, 0.01837281, -0.21021724, -645095.7, 1326.5953, 0.0, 10.000368, 9.998298 
2.0751727e+3, 2.440353e+2, -580596.6, -747658.0, -77677.34, 0.036963504, -0.20439206, -550060.94, -1620.3823, 0.0, 10.000484, 9.998294 
2.075199e+3, 2.5403488e+2, -387300.06, -567578.56, -65183.28, 0.036205903, -0.13993491, -366201.06, 84244.21, 0.0, 10.001026, 9.998567 
2.0752259e+3, 2.6403382e+2, -290925.9, -486106.34, -89637.78, 0.04909954, -0.09264186, -256006.58, 96449.07, 0.000000021824269, 10.001037, 9.998478 
2.075253e+3, 2.7403194e+2, -155463.05, -322985.84, -46969.87, 0.12606318, -0.19387117, -143192.47, 111280.67, 0.00000084431264, 10.001141, 9.998841 
2.0752798e+3, 2.8403127e+2, -135322.78, -335388.16, -47734.156, 0.17604871, -0.11542397, -124517.35, 31961.521, 0.000005133315, 10.000865, 9.998257 
2.0753062e+3, 2.9403126e+2, -65875.99, -230043.4, -19636.625, 0.18244657, -0.020641726, -63559.867, -5081.7935, 0.000023723636, 10.000589, 9.998414 
2.0753327e+3, 3.0402726e+2, 45898.266, 5033.693, 115272.52, -0.061602656, -0.31758744, 142535.33, 142535.33, 0.00007270888, 10.000352, 9.999829 
2.0753637e+3, 3.140293e+2, 139081.38, 115785.14, -128345.055, -0.02860161, -0.23521425, 256305.8, 256305.8, 0.00016093491, 10.000743, 10.000339 
2.0848528e+3, 1.2401424e+2, -1889517.8, -1626190.0, -144302.5, 0.041610356, -0.32559162, -1562511.6, 162123.03, 0.40993002, 9.997674, 10.002321 
2.084885e+3, 1.340166e+2, -1869335.6, -1893932.8, 47380.99, 0.19892901, -0.065302834, -1832683.0, -206072.1, 0.29801235, 9.9988985, 9.998565 
2.08491e+3, 1.4401145e+2, -1565647.9, -1600828.9, 9565.923, -0.13922058, -0.47175837, -1563215.1, -34553.42, 0.18298064, 9.999872, 9.999466 
2.0849392e+3, 1.5401386e+2, -1468517.8, -1392740.9, -28714.371, 0.050393, -0.30579218, -1383089.4, 47549.31, 0.088167645, 9.999412, 10.000453 
2.0849667e+3, 1.6401522e+2, -1506989.4, -1488234.8, -61953.137, 0.13623561, -0.1607687, -1434953.3, -102327.984, 0.029713616, 9.998993, 9.999328 
2.0849927e+3, 1.7401372e+2, -1327181.6, -1339226.4, -83899.17, 0.0604394, -0.2827609, -1249089.0, -14449.359, 0.005333032, 9.999562, 9.999372 
2.0850188e+3, 1.8401237e+2, -1272059.8, -1385983.0, -83095.54, 0.06687486, -0.2989158, -1228276.8, -91621.87, 0.00018960002, 9.999769, 9.9983015 
2.0850451e+3, 1.9401164e+2, -1104194.4, -1227603.6, -83794.71, 0.12482588, -0.2530891, -1061836.4, -23168.684, 0.000000020895914, 10.000179, 9.9984865 
2.085071e+3, 2.0401151e+2, -912084.94, -969569.44, -67172.64, 0.12735824, -0.15471531, -867763.6, 72907.72, 0.0, 10.000324, 9.999521 
2.0850964e+3, 2.1401204e+2, -767755.1, -805088.1, -113016.68, 0.03088493, -0.12304599, -671873.8, 170790.3, 0.0, 10.0004835, 9.999877 
2.0851219e+3, 2.2401129e+2, -762741.9, -957409.06, -149159.98, 0.012700066, -0.09994725, -681967.25, 62703.977, 0.0, 10.0006485, 9.99813 
2.0851476e+3, 2.3400864e+2, -625094.0, -823891.9, -147606.92, 0.06999888, -0.22137456, -546538.06, 100162.19, 0.0, 10.0008955, 9.998222 
2.0851739e+3, 2.4400696e+2, -510193.78, -691867.9, -51360.473, 0.11302298, -0.21885805, -496679.16, 52038.855, 0.0, 10.000869, 9.998489 
2.0852004e+3, 2.5400648e+2, -441470.4, -572973.9, -42754.016, 0.105795726, -0.17604366, -428792.56, 21929.701, 0.0, 10.000561, 9.9987545 
2.0852272e+3, 2.6400563e+2, -351622.75, -482649.84, -23837.777, 0.12660389, -0.12933293, -347420.72, 5309.1895, 0.0, 10.000473, 9.998776 
2.0852539e+3, 2.740043e+2, -205695.8, -317408.5, -44363.48, 0.1653885, -0.20919394, -190221.58, 64521.207, 0.000000115745564, 10.00066, 9.999112 
2.0852813e+3, 2.8400362e+2, -91811.61, -315710.88, -23006.787, 0.2396145, -0.1462749, -89471.99, 67277.0, 0.0000020138657, 10.0011425, 9.998263 
2.0853083e+3, 2.9400346e+2, 127698.81, -127227.23, -48977.56, 0.2834449, -0.056549743, 136784.77, 195534.8, 0.000014504671, 10.001897, 9.998486 
2.0853333e+3, 3.0400118e+2, 257352.88, 109705.44, 104867.95, -0.07933813, -0.19342719, 311775.9, 311775.9, 0.000053405533, 10.001724, 9.999919 
2.0853652e+3, 3.1400234e+2, -111.24406, -33323.92, -268461.63, 0.11586201, -0.17493835, 252257.16, 252257.16, 0.000125829, 10.000004, 9.999725 
2.094849e+3, 1.2398511e+2, -1947892.0, -1740004.9, -232971.88, -0.20506121, -0.26009586, -1588840.3, 136088.3, 0.42994058, 9.997857, 10.001299 
2.0948863e+3, 1.3398643e+2, -1717122.0, -1618155.0, 111315.28, 0.36866868, -0.23760323, -1545820.1, 81089.87, 0.31401625, 9.99906, 10.000563 
2.0949094e+3, 1.4398587e+2, -1526177.1, -1574179.3, -18016.24, -0.25216788, -0.31677935, -1520167.6, 8745.022, 0.19429262, 10.000112, 9.99954 
2.0949376e+3, 1.5398599e+2, -1519085.1, -1516556.3, -42528.26, -0.099620946, -0.30428967, -1475273.6, -44361.125, 0.094824284, 9.999502, 9.999531 
2.094966e+3, 1.6398637e+2, -1493045.4, -1506385.0, -71628.32, 0.09263298, -0.18860556, -1427777.0, -94867.484, 0.032688897, 9.99919, 9.999111 
2.0949931e+3, 1.7398511e+2, -1312025.9, -1318728.3, -54395.62, 0.10549254, -0.29482967, -1260878.4, -25955.99, 0.0061590113, 9.999605, 9.999494 
2.0950188e+3, 1.839843e+2, -1228476.5, -1320659.8, -88617.45, 0.03741603, -0.2842961, -1174680.8, -37749.164, 0.00026052183, 9.999874, 9.9987 
2.0950443e+3, 1.939848e+2, -1090261.3, -1182847.4, -59073.367, -0.041639566, -0.15129702, -1061502.9, -22573.088, 0.00000016154512, 10.000111, 9.998827 
2.09507e+3, 2.0398442e+2, -1002236.25, -1109107.6, -77205.13, -0.05348914, -0.060618065, -961778.3, -20842.635, 0.0, 10.00012, 9.998661 
2.0950972e+3, 2.1398243e+2, -878130.3, -967913.7, -94729.164, 0.035190057, -0.18124534, -818194.2, 24761.81, 0.0, 10.000207, 9.998887 
2.0951235e+3, 2.2398122e+2, -789476.6, -922941.4, -154947.16, 0.07766915, -0.17337127, -687502.6, 57466.805, 0.0, 10.000259, 9.998555 
2.0951489e+3, 2.3398106e+2, -626457.94, -758632.94, -121591.305, 0.088025115, -0.101801604, -554154.7, 92818.38, 0.0, 10.000603, 9.998812 
2.0951751e+3, 2.4398035e+2, -534161.4, -643061.0, -76851.4, 0.12831844, -0.062396675, -494425.63, 54554.19, 0.0, 10.000446, 9.999028 
2.0952027e+3, 2.539785e+2, -438694.3, -510421.13, -37636.484, 0.23350777, -0.2122734, -422570.34, 28423.873, 0.0, 10.000311, 9.999306 
2.0952287e+3, 2.6397747e+2, -410613.5, -507880.22, -37410.61, 0.20511949, -0.2190851, -397889.25, -44886.914, 0.0, 10.00007, 9.998793 
2.0952539e+3, 2.7397743e+2, -261747.0, -359007.28, -18483.547, 0.058579788, -0.1631765, -258352.8, -3348.7468, 0.0, 10.000347, 9.998973 
2.095281e+3, 2.8397587e+2, -191459.42, -384905.5, -19248.78, 0.058487196, -0.16543688, -189562.67, -32543.566, 0.00000039293647, 10.000566, 9.998063 
2.0953098e+3, 2.939729e+2, 74508.84, -136733.11, 9807.764, 0.20423533, -0.34810045, 74963.234, 134009.52, 0.000007667558, 10.001465, 9.998629 
2.0953342e+3, 3.0397508e+2, 74164.33, -57876.82, 23550.96, -0.19202231, -0.032153584, 78239.14, 78239.14, 0.000037309022, 10.000872, 9.999151 
2.095367e+3, 3.1397364e+2, -305624.78, -409529.78, -98333.92, 0.18963717, -0.16674897, -246362.97, -246362.97, 0.0000961441, 9.998988, 9.997592 
2.1048509e+3, 1.23958856e+2, -1648049.9, -1709343.5, -30115.336, 0.054206934, 0.075554386, -1635729.8, 89458.57, 0.44859928, 10.000939, 9.999609 
2.1048862e+3, 1.3395663e+2, -1696518.9, -1557064.1, 86471.5, 0.49946678, -0.35365093, -1515709.4, 111494.875, 0.3298663, 9.998881, 10.001205 
2.1049087e+3, 1.4395878e+2, -1747527.3, -1702638.9, -83640.47, -0.24276625, -0.18170278, -1638483.6, -109303.68, 0.20615475, 9.998677, 9.999343 
2.104937e+3, 1.5395813e+2, -1568300.9, -1539696.6, -115000.375, -0.060154043, -0.24200872, -1438112.4, -6924.798, 0.10215144, 9.999193, 9.999502 
2.1049656e+3, 1.639577e+2, -1501040.3, -1518087.0, -39938.105, 0.13593054, -0.20171267, -1468726.1, -135533.19, 0.036114734, 9.999192, 9.999006 
2.1049927e+3, 1.739568e+2, -1272099.8, -1305354.8, -58276.66, 0.10800731, -0.26725262, -1228124.9, 7077.668, 0.007176738, 9.999909, 9.999423 
2.1050191e+3, 1.8395638e+2, -1128711.5, -1235757.6, -84308.47, 0.0609403, -0.22971559, -1082371.5, 54835.453, 0.0003661867, 10.000402, 9.999025 
2.1050449e+3, 1.9395667e+2, -936697.06, -1066956.6, -88240.516, -0.0007618004, -0.15200187, -892153.3, 147050.75, 0.00000091193453, 10.000989, 9.999194 
2.1050711e+3, 2.0395598e+2, -909831.56, -1107394.3, -85395.08, 0.0069513423, -0.10066893, -878037.0, 63175.195, 0.0, 10.000878, 9.998339 
2.1050975e+3, 2.1395347e+2, -936993.56, -1054605.4, -90737.51, 0.06345872, -0.23024948, -887672.56, -44433.023, 0.0, 9.999981, 9.998445 
2.1051238e+3, 2.2395235e+2, -841314.44, -886095.0, -58880.805, 0.11851447, -0.20947522, -800710.5, -55458.24, 0.0, 9.99966, 9.999083 
2.1051499e+3, 2.3395309e+2, -580879.94, -666120.8, -58197.188, 0.1328837, -0.10739744, -551365.7, 95879.36, 0.0, 10.00063, 9.99942 
2.1051764e+3, 2.4395278e+2, -421465.06, -584460.06, -32449.266, 0.19974412, -0.062084414, -415242.56, 134004.5, 0.0, 10.001176, 9.999095 
2.1052036e+3, 2.539508e+2, -349984.4, -469985.97, -68787.43, 0.28444734, -0.22206903, -318706.47, 132557.28, 0.0, 10.000924, 9.999297 
2.1052298e+3, 2.6394984e+2, -297058.16, -452922.34, -43309.27, 0.2708696, -0.22417693, -285832.5, 67439.664, 0.0, 10.000824, 9.998817 
2.1052548e+3, 2.7394986e+2, -168687.16, -318410.06, -54175.063, 0.11166295, -0.15102541, -151140.95, 104132.055, 0.0, 10.000985, 9.998957 
2.1052822e+3, 2.8394842e+2, -93316.68, -299766.44, 14059.105, 0.11747684, -0.15638034, -92363.664, 64923.44, 0.00000006547354, 10.001118, 9.998353 
2.1053113e+3, 2.9394522e+2, 48691.906, -126168.33, 5427.6, 0.2383712, -0.38059798, 48860.215, 108176.28, 0.000004738257, 10.001229, 9.998794 
2.105337e+3, 3.039473e+2, 112051.65, -156697.88, 22330.764, -0.015724424, -0.031790502, 113894.51, 113894.51, 0.00002905632, 10.001604, 9.998122 
2.1053682e+3, 3.139437e+2, 206251.44, -93489.48, -168165.16, 0.2811743, -0.2689369, 281637.88, 281637.88, 0.00007991688, 10.002173, 9.998227 
2.1148537e+3, 1.2392794e+2, -1841261.6, -2311083.8, 107915.67, 0.09898581, -0.07844018, -1817659.6, -92172.22, 0.46656317, 10.00127, 9.995244 
2.114884e+3, 1.339266e+2, -1711193.1, -1603264.4, 51740.895, 0.34613466, -0.45423397, -1582467.3, 45031.984, 0.34608045, 9.998995, 10.000661 
2.1149072e+3, 1.4393015e+2, -1738773.3, -1753416.6, -58207.484, -0.3434321, -0.06799493, -1687428.8, -157964.86, 0.21890919, 9.998964, 9.998859 
2.1149375e+3, 1.5393032e+2, -1485545.3, -1407411.5, -90549.8, 0.012727006, -0.1108897, -1347860.5, 83603.27, 0.110347085, 9.999354, 10.000381 
2.1149646e+3, 1.6392902e+2, -1467314.1, -1493682.6, -43869.1, 0.058943816, -0.21964039, -1434690.9, -101213.21, 0.040102176, 9.999381, 9.999084 
2.1149912e+3, 1.7392874e+2, -1285897.9, -1345595.9, -20732.057, -0.07692028, -0.19849242, -1279404.4, -43923.324, 0.008443992, 9.999948, 9.999132 
2.1150188e+3, 1.8392853e+2, -1106381.0, -1200601.3, -82853.95, -0.06641455, -0.13485688, -1058180.4, 79301.57, 0.00052604213, 10.000449, 9.999242 
2.1150471e+3, 1.9392723e+2, -930764.94, -1026920.0, -57903.867, 0.09756464, -0.24765489, -903580.9, 135910.45, 0.0000034897541, 10.000875, 9.999517 
2.1150732e+3, 2.0392604e+2, -935221.7, -1099567.9, -132591.83, 0.10871563, -0.27065048, -861404.3, 80097.87, 0.0, 10.000622, 9.998514 
2.1150967e+3, 2.1392517e+2, -966056.56, -1047410.56, -113125.11, -0.03204817, -0.2536507, -886517.5, -43003.297, 0.0, 9.999716, 9.998612 
2.1151218e+3, 2.2392476e+2, -866136.7, -849712.25, -46055.25, -0.07321141, -0.19324812, -811142.75, -65623.55, 0.0, 9.999277, 9.999517 
2.1151501e+3, 2.3392464e+2, -586643.5, -617298.1, -5635.7134, 0.060806263, -0.22757661, -585640.25, 61877.316, 0.0, 10.000363, 9.999884 
2.1151772e+3, 2.4392417e+2, -517584.8, -682927.5, -53194.668, 0.11783597, -0.20472874, -501949.38, 47571.83, 0.0, 10.000744, 9.998619 
2.1152031e+3, 2.539231e+2, -427470.9, -571387.56, -64234.523, 0.11651774, -0.22129269, -402971.6, 48561.918, 0.0, 10.000673, 9.998713 
2.1152295e+3, 2.6392233e+2, -370757.7, -497335.97, -53471.297, 0.11911347, -0.1638717, -351193.38, 2348.8618, 0.0, 10.000371, 9.998721 
2.1152566e+3, 2.739217e+2, -199945.89, -320300.97, -24342.35, 0.14147851, -0.17117345, -195208.97, 60340.1, 0.0, 10.000714, 9.999068 
2.1152839e+3, 2.8392076e+2, -141473.8, -287463.3, -1441.4698, 0.12447997, -0.15004143, -141459.58, 16097.983, 0.00000005479561, 10.000633, 9.998672 
2.1153122e+3, 2.939196e+2, 376.5606, -151306.84, 42076.477, 0.16153707, -0.21778652, 11266.593, 70833.92, 0.0000044706885, 10.000885, 9.998793 
2.1153404e+3, 3.039176e+2, -151105.39, -452571.47, 9494.97, 0.096781634, -0.18183503, -150806.64, -150806.64, 0.000027145721, 10.000605, 9.996535 
2.1153688e+3, 3.1391278e+2, 168885.1, 126269.72, -19269.16, 0.048036143, -0.43540722, 176305.77, 176305.77, 0.00007500438, 10.00098, 10.0002775 
2.1248537e+3, 1.2390025e+2, -1682039.0, -1622683.1, -57070.97, 0.05272081, 0.014959157, -1588034.8, 137726.95, 0.48543465, 9.999545, 10.001484 
2.1248828e+3, 1.3389723e+2, -1522237.4, -1504083.4, -31825.926, 0.25776938, -0.4806246, -1480065.4, 147723.7, 0.3637423, 10.000597, 10.000884 
2.1249065e+3, 1.4390144e+2, -1780408.9, -1757400.9, 40084.813, -0.2646498, -0.040781662, -1727202.0, -197455.52, 0.23315269, 9.998596, 9.999011 
2.1249373e+3, 1.5390165e+2, -1353128.6, -1322970.9, -45407.18, 0.03719258, -0.10165599, -1290204.4, 141541.42, 0.1197026, 10.000167, 10.000645 
2.1249646e+3, 1.6390039e+2, -1259683.0, -1381800.0, -35764.754, 0.07198149, -0.22933996, -1249979.5, 83779.63, 0.044803485, 10.000759, 9.999214 
2.1249914e+3, 1.7390046e+2, -1267298.4, -1335590.9, -24661.627, -0.04658117, -0.17374447, -1259323.8, -23564.953, 0.01004214, 10.000062, 9.999159 
2.1250193e+3, 1.8390037e+2, -1238312.5, -1252081.6, -31832.434, 0.00015978502, -0.10278245, -1212628.6, -74870.375, 0.0007722133, 9.999488, 9.999351 
2.1250479e+3, 1.9389863e+2, -1060238.1, -1082215.9, -49478.316, 0.1398437, -0.270681, -1020543.06, 19228.482, 0.000010944595, 9.999934, 9.999606 
2.1250743e+3, 2.0389749e+2, -955190.8, -1082862.3, -124261.15, 0.16205539, -0.3013296, -879327.44, 62454.195, 0.0, 10.000395, 9.998722 
2.1250972e+3, 2.138974e+2, -734375.7, -905663.6, -140181.95, -0.00809034, -0.23148167, -655745.9, 188039.83, 0.0, 10.00121, 9.998837 
2.1251222e+3, 2.2389708e+2, -583608.4, -727129.8, -55193.703, -0.030676628, -0.16904661, -564837.6, 180951.72, 0.0, 10.001261, 9.999409 
2.1251506e+3, 2.3389623e+2, -627103.9, -652761.9, -86837.086, 0.094468646, -0.25879818, -552153.25, 95641.1, 0.0, 10.00015, 9.999745 
2.1251777e+3, 2.4389555e+2, -663208.4, -744372.6, -103046.55, 0.15781942, -0.25353748, -593040.8, -43240.78, 0.0, 9.999736, 9.9986725 
2.1252033e+3, 2.5389484e+2, -453402.9, -581743.0, -109639.445, 0.10964751, -0.23024288, -390535.16, 61274.074, 0.0, 10.000504, 9.998725 
2.12523e+3, 2.638941e+2, -279194.25, -448490.13, -51190.133, 0.13521436, -0.16807058, -264919.47, 88898.4, 0.0, 10.001, 9.998741 
2.1252576e+3, 2.7389306e+2, -168381.1, -303595.4, -75270.68, 0.17972831, -0.20716201, -134813.14, 121015.95, 0.0, 10.000961, 9.999048 
2.1252851e+3, 2.838926e+2, -67772.35, -239695.31, -25226.994, 0.17694606, -0.14753184, -64147.13, 93686.77, 0.000000117451826, 10.001039, 9.9988365 
2.1253133e+3, 2.938926e+2, 65871.04, -101215.64, -45096.58, 0.17476936, -0.10452554, 77265.52, 137098.72, 0.0000050467984, 10.001233, 9.998983 
2.1253428e+3, 3.0388916e+2, 13069.644, -375900.94, 45414.766, 0.2743322, -0.22227013, 18301.727, 18301.727, 0.00002697455, 10.001627, 9.996642 
2.1253707e+3, 3.1388685e+2, 250829.98, 228339.77, -41543.215, 0.13560253, -0.21295084, 282623.13, 282623.13, 0.00007158717, 10.001132, 10.000996 
2.1348824e+3, 1.338699e+2, -1480949.3, -1429476.5, -116137.664, 0.123830475, -0.24947757, -1336257.8, 291802.16, 0.38411817, 10.0007105, 10.001676 
2.134906e+3, 1.4387211e+2, -1709435.5, -1661585.0, 17743.824, -0.26063597, -0.13286996, -1655723.4, -125690.51, 0.24951555, 9.998805, 9.999564 
2.134936e+3, 1.5387192e+2, -1352062.1, -1351232.9, 17005.75, -0.15086575, -0.22027011, -1334636.8, 97399.05, 0.13052814, 10.000311, 10.000359 
2.134965e+3, 1.6387182e+2, -1211930.1, -1332963.9, -69174.4, -0.04493076, -0.22928827, -1180537.3, 153499.97, 0.050404422, 10.000996, 9.999443 
2.1349926e+3, 1.7387195e+2, -1240633.9, -1288662.8, -44172.52, 0.04882985, -0.19545549, -1214370.0, 21665.936, 0.012084308, 10.000098, 9.999462 
2.1350197e+3, 1.838718e+2, -1232375.6, -1260678.9, -37795.85, 0.055149008, -0.14589104, -1206168.9, -68131.93, 0.001155736, 9.999575, 9.99925 
2.1350466e+3, 1.9387084e+2, -1082441.9, -1113919.8, -20161.922, -0.018740907, -0.218487, -1072603.1, -32557.97, 0.000030850606, 9.999867, 9.999423 
2.135073e+3, 2.0387018e+2, -980565.8, -1075377.1, -111408.555, -0.053169496, -0.20015216, -906896.44, 35155.285, 0.0, 10.000143, 9.998894 
2.1350989e+3, 2.1386983e+2, -759663.75, -890300.3, -95659.95, 0.0021988759, -0.17578317, -709148.94, 134908.03, 0.0, 10.000925, 9.999078 
2.1351248e+3, 2.2386926e+2, -690355.44, -842430.06, -100870.68, 0.04144918, -0.12939909, -640073.44, 105989.71, 0.0, 10.000819, 9.998821 
2.1351509e+3, 2.3386797e+2, -716665.9, -780633.2, -113120.484, 0.08634253, -0.19351839, -631094.44, 16980.049, 0.0, 9.999906, 9.998984 
2.1351773e+3, 2.4386683e+2, -698885.7, -730678.1, -96791.92, 0.09503494, -0.20093545, -616693.3, -66609.24, 0.0, 9.999363, 9.998943 
2.1352041e+3, 2.538658e+2, -455277.28, -531789.56, -61742.094, 0.10805027, -0.25547814, -420899.97, 31192.348, 0.0, 10.00027, 9.999177 
2.1352312e+3, 2.6386485e+2, -355098.13, -502860.25, -63692.695, 0.10137541, -0.24226245, -331433.44, 22668.701, 0.0, 10.000574, 9.998568 
2.1352579e+3, 2.738636e+2, -232884.64, -372747.94, -57595.64, 0.07558159, -0.2743098, -212219.97, 43897.047, 0.00000000014169585, 10.000681, 9.99871 
2.1352848e+3, 2.8386322e+2, -169553.4, -305453.7, -40182.85, 0.014210929, -0.17497922, -158561.27, -438.63556, 0.000000256191, 10.000451, 9.998647 
2.1353137e+3, 2.9386386e+2, 12420.708, -117529.96, 446.4468, 0.082521476, -0.06795184, 12422.242, 72538.77, 0.0000052967753, 10.000826, 9.999061 
2.1353437e+3, 3.0386078e+2, -31788.354, -219155.03, 23153.295, 0.14035551, -0.23521505, -28969.656, -28969.656, 0.000025200057, 10.000642, 9.998152 
2.1353704e+3, 3.1386137e+2, 9531.066, 86830.96, -24697.59, -0.07130453, -0.09566316, 94048.1, 94048.1, 0.00006359548, 9.999715, 10.000647 
2.1448821e+3, 1.338422e+2, -1622174.8, -1504493.8, -48990.68, 0.12033133, -0.16155137, -1486768.8, 141561.58, 0.40760165, 9.999192, 10.001602 
2.1449073e+3, 1.4384371e+2, -1710384.5, -1643259.9, 22366.967, 0.0017454618, -0.12120352, -1636489.6, -106178.195, 0.26811564, 9.998728, 9.9997225 
2.1449357e+3, 1.5384305e+2, -1505991.3, -1419943.1, 47626.906, -0.13261704, -0.2620454, -1398784.6, 33533.258, 0.14296411, 9.999189, 10.000369 
2.1449651e+3, 1.6384324e+2, -1422205.5, -1427997.9, -44661.496, -0.044509057, -0.24065396, -1380346.4, -46030.18, 0.057087187, 9.999505, 9.999489 
2.1449937e+3, 1.738435e+2, -1182771.9, -1245078.1, -70815.12, 0.1107734, -0.2073469, -1136560.3, 99753.734, 0.014719365, 10.000474, 9.999566 
2.1450205e+3, 1.838434e+2, -1077148.5, -1174575.8, -45915.39, 0.13355215, -0.16439433, -1058920.0, 79395.06, 0.0017550356, 10.000588, 9.9993515 
2.1450464e+3, 1.9384277e+2, -1041591.4, -1079835.3, -34671.16, -0.011553803, -0.21665765, -1021118.6, 19201.547, 0.00008036648, 10.00009, 9.99954 
2.1450728e+3, 2.0384239e+2, -1013605.7, -1060046.8, -53795.324, -0.033429738, -0.18879579, -978233.3, -35909.887, 0.000000018813253, 9.999773, 9.999185 
2.1450998e+3, 2.1384218e+2, -846756.06, -900595.25, -55816.953, 0.07252191, -0.18324153, -811706.3, 32619.467, 0.0, 10.000164, 9.999391 
2.1451262e+3, 2.2384149e+2, -761904.25, -905327.4, -52903.156, 0.14905871, -0.15259421, -744501.9, 1830.8113, 0.0, 10.000462, 9.998566 
2.1451516e+3, 2.3383982e+2, -609358.06, -763363.44, -75949.96, 0.13256279, -0.21545903, -578204.3, 70144.83, 0.0, 10.000816, 9.998663 
2.1451777e+3, 2.4383858e+2, -453408.75, -598357.56, 1874.1127, 0.13934328, -0.22204694, -453384.53, 96975.695, 0.0, 10.000978, 9.99908 
2.1452051e+3, 2.5383782e+2, -356602.03, -462049.03, -8972.246, 0.15175249, -0.2661569, -355844.06, 96520.195, 0.0, 10.000849, 9.999376 
2.145232e+3, 2.6383674e+2, -350190.22, -547289.5, -9656.233, 0.14503627, -0.26074737, -349718.28, 4656.5347, 0.0, 10.000766, 9.998191 
2.145258e+3, 2.738349e+2, -255769.39, -433168.22, -56009.63, 0.054245457, -0.30583254, -239565.69, 16831.229, 0.00000000016893417, 10.000717, 9.998289 
2.1452855e+3, 2.8383443e+2, -144931.78, -283880.72, 4410.796, 0.032761756, -0.19972895, -144791.9, 13612.019, 0.0000002738674, 10.000536, 9.998765 
2.145315e+3, 2.9383528e+2, -63536.582, -114533.266, 11619.09, 0.15458141, -0.08170877, -61014.063, -618.80493, 0.0000047479944, 10.000143, 9.999402 
2.1453448e+3, 3.038332e+2, 20429.846, -58885.51, 83620.2, 0.23091324, -0.25014362, 73319.83, 73319.83, 0.000021563434, 10.000305, 9.999459 
2.1453719e+3, 3.1383437e+2, 87227.945, 70332.99, -148291.6, 0.100311935, -0.14910294, 227312.47, 227312.47, 0.000054127682, 10.000381, 10.000227 
2.1548803e+3, 1.3381341e+2, -1681043.6, -1614987.8, -93898.625, -0.08835018, -0.2559901, -1548477.8, 80128.65, 0.43279883, 9.999444, 10.000397 
2.1549089e+3, 1.4381604e+2, -1655080.8, -1636463.8, -15032.947, 0.17768566, -0.040395595, -1628090.8, -97506.805, 0.28823382, 9.99917, 9.999562 
2.154936e+3, 1.5381515e+2, -1477882.4, -1396959.6, 64592.97, -0.06663821, -0.22182791, -1361201.8, 71389.516, 0.15688464, 9.999328, 10.000497 
2.154964e+3, 1.6381466e+2, -1406815.5, -1451368.8, -30372.084, -0.1544991, -0.2704416, -1391426.4, -56830.37, 0.06501248, 9.999747, 9.999209 
2.1549931e+3, 1.7381498e+2, -1195159.0, -1274440.9, -31648.307, -0.021380436, -0.20534052, -1184075.0, 52519.453, 0.018139776, 10.000498, 9.999342 
2.1550207e+3, 1.8381497e+2, -1038592.9, -1117865.1, -79584.86, 0.026990863, -0.15354247, -989320.2, 149274.02, 0.0026903055, 10.000683, 9.9997015 
2.155047e+3, 1.9381438e+2, -1018603.2, -1013111.94, -45190.26, 0.0009853777, -0.2507348, -970584.0, 70013.13, 0.00019736934, 10.000015, 10.000032 
2.1550734e+3, 2.0381416e+2, -1013003.3, -1015049.0, -61793.35, -0.00021188408, -0.2527869, -952224.4, -9627.699, 0.0000007869328, 9.999579, 9.99959 
2.1551001e+3, 2.1381433e+2, -851585.4, -862085.9, -30160.924, 0.05013905, -0.24771309, -826221.1, 18372.215, 0.0, 9.999947, 9.9997635 
2.1551262e+3, 2.2381368e+2, -822550.2, -942202.2, -55559.14, 0.07149367, -0.23072709, -800730.8, -54131.746, 0.0, 10.000076, 9.998496 
2.1551521e+3, 2.3381165e+2, -652677.3, -792626.44, -45417.62, 0.07859053, -0.32567453, -639230.06, 9390.283, 0.0, 10.00055, 9.9985895 
2.1551785e+3, 2.4381053e+2, -524846.2, -640666.4, -15883.001, 0.07985792, -0.31407908, -522707.56, 27923.53, 0.0, 10.000537, 9.998996 
2.1552056e+3, 2.5381058e+2, -398277.38, -494669.0, 470.0013, 0.104440436, -0.27001032, -398275.1, 54352.902, 0.0, 10.000616, 9.999264 
2.1552321e+3, 2.6380944e+2, -451509.25, -660332.94, -24624.645, 0.045706015, -0.23415095, -448644.78, -94005.56, 0.0, 10.000359, 9.997604 
2.155258e+3, 2.7380654e+2, -334335.03, -539948.9, -37917.46, -0.057509463, -0.33146995, -327565.53, -70892.63, 0.0, 10.000469, 9.997676 
2.1552856e+3, 2.8380552e+2, -210210.34, -283933.44, -25265.168, -0.02778181, -0.2592918, -202382.94, -43697.62, 0.000000100631844, 9.999998, 9.999004 
2.1553157e+3, 2.9380664e+2, -105739.86, -101670.375, 33508.855, 0.19207644, -0.15013973, -70134.54, -9462.575, 0.0000031808167, 9.999719, 9.999691 
2.1553445e+3, 3.0380508e+2, -83703.984, -25864.479, 60392.8, 0.10723138, -0.3100692, 12175.775, 12175.775, 0.000016664693, 9.999301, 10.000135 
2.1553728e+3, 3.1380725e+2, -154612.5, -189613.52, 30698.09, 0.07758413, -0.21445447, -136776.9, -136776.9, 0.000045618737, 9.999383, 9.998902 
2.1648796e+3, 1.3378465e+2, -1639888.3, -1711273.6, -104038.52, -0.12184114, -0.3667696, -1565590.1, 63294.453, 0.45757636, 10.000531, 9.999118 
2.164909e+3, 1.4378697e+2, -1591672.5, -1578859.9, -1436.7065, 0.2801034, -0.07590911, -1578700.8, -47831.313, 0.3088363, 9.999498, 9.999811 
2.164936e+3, 1.5378697e+2, -1365370.3, -1337530.5, 49231.8, -0.022782221, -0.20027842, -1300288.5, 132579.34, 0.17204043, 10.000132, 10.000575 
2.1649641e+3, 1.6378674e+2, -1382837.6, -1415317.8, -17263.555, -0.117710575, -0.23146743, -1375376.0, -40506.945, 0.07433442, 9.999767, 9.999461 
2.1649934e+3, 1.7378683e+2, -1271463.1, -1269245.8, 16082.406, 0.008046447, -0.22948764, -1254233.9, -17366.232, 0.022589553, 9.999742, 9.99977 
2.1650213e+3, 1.8378681e+2, -1181213.9, -1184626.8, -1443.1349, 0.08291252, -0.20194264, -1180685.5, -41818.41, 0.00413868, 9.999736, 9.99969 
2.1650477e+3, 1.9378641e+2, -979212.9, -1012037.56, -52519.56, 0.04508967, -0.26250878, -940600.94, 100268.6, 0.00045452762, 10.000388, 9.999865 
2.1650739e+3, 2.0378612e+2, -870595.06, -943120.7, -81389.1, 0.059314135, -0.26282084, -817755.8, 125114.84, 0.000007502901, 10.000528, 9.999624 
2.1651003e+3, 2.1378598e+2, -794942.3, -824537.6, -103159.16, 0.0871572, -0.29260546, -705524.9, 139345.08, 0.0, 10.000304, 9.99984 
2.1651267e+3, 2.2378552e+2, -772478.4, -873424.06, -87808.89, 0.1178925, -0.27767298, -721669.9, 25203.568, 0.0, 10.000228, 9.998892 
2.1651529e+3, 2.3378433e+2, -618477.8, -732208.8, -68284.695, 0.12168482, -0.33262154, -586481.1, 62404.69, 0.0, 10.000574, 9.999 
2.1651794e+3, 2.4378341e+2, -499888.2, -669986.1, -6897.3306, 0.13717887, -0.3062777, -499608.97, 51286.02, 0.0, 10.000863, 9.998648 
2.1652064e+3, 2.5378275e+2, -356153.0, -513351.66, -45881.496, 0.1034661, -0.28886533, -343741.53, 109159.31, 0.0, 10.001096, 9.998896 
2.1652332e+3, 2.637817e+2, -280533.94, -549707.4, -26805.27, 0.0665673, -0.23828903, -277890.53, 77021.375, 0.0, 10.001402, 9.997866 
2.16526e+3, 2.7377957e+2, -109546.95, -394154.66, -7642.4614, 0.04270841, -0.28147012, -109341.875, 147593.97, 0.0, 10.0018635, 9.998004 
2.1652879e+3, 2.83778e+2, 21201.41, -220928.28, 26083.72, 0.11543369, -0.26676014, 23979.438, 182932.13, 0.0000000029805467, 10.001763, 9.9986 
2.1653157e+3, 2.9377726e+2, -5337.7046, -109787.016, -30686.078, 0.1798891, -0.28402153, 3010.3245, 63969.453, 0.000001345268, 10.000655, 9.999181 
2.165344e+3, 3.0377778e+2, 104831.05, 101885.13, 45276.582, 0.12091575, -0.23178273, 148658.63, 148658.63, 0.000010778314, 10.0004225, 10.000474 
2.165375e+3, 3.1377822e+2, 167381.88, -80318.35, -87199.88, 0.24150726, -0.31990066, 195000.14, 195000.14, 0.00003608632, 10.001798, 9.998489 
2.1748815e+3, 1.3375801e+2, -1774968.5, -1965406.3, -360895.8, -0.08645998, -0.2480257, -1496941.6, 132202.81, 0.48078975, 10.000976, 9.997185 
2.1749075e+3, 1.4375713e+2, -1547184.8, -1570907.5, 39395.4, 0.056105137, -0.23650986, -1517903.9, 13257.775, 0.32934, 9.999907, 9.999679 
2.1749353e+3, 1.5375862e+2, -1376574.8, -1378013.6, 66699.93, -0.15305065, -0.18209727, -1310590.4, 122556.01, 0.18832743, 10.000224, 10.00021 
2.1749641e+3, 1.6375934e+2, -1300825.4, -1294622.4, -36331.23, -0.17573099, -0.122169144, -1261260.5, 73876.3, 0.0852701, 9.999983, 10.00021 
2.1749939e+3, 1.7375922e+2, -1173842.4, -1085608.6, 28733.387, 0.037233695, -0.26771474, -1077076.6, 160055.8, 0.028395085, 9.99982, 10.001015 
2.1750218e+3, 1.8375899e+2, -1213502.6, -1275794.8, 2075.3032, 0.09203536, -0.3036358, -1213433.5, -74300.93, 0.006367479, 9.999838, 9.999012 
2.1750474e+3, 1.9375864e+2, -1056501.1, -1157044.0, -19400.47, -0.027339915, -0.2668917, -1052887.5, -11747.655, 0.0009868387, 10.000324, 9.998893 
2.1750735e+3, 2.0375802e+2, -927574.06, -1018045.94, -101523.336, -0.07339311, -0.22598512, -861664.7, 81483.21, 0.000047582707, 10.00033, 9.999212 
2.1751006e+3, 2.1375702e+2, -846628.9, -873733.44, -100708.63, 0.036196936, -0.3199446, -758564.75, 86591.984, 0.00000000032497088, 10.000049, 9.999627 
2.175127e+3, 2.2375679e+2, -786713.7, -796959.1, -89943.54, 0.09270379, -0.30263016, -701747.1, 45410.527, 0.0, 9.999783, 9.999628 
2.1751535e+3, 2.3375748e+2, -601458.2, -625873.6, -40217.66, 0.109821975, -0.25520545, -571636.3, 77512.89, 0.0, 10.000282, 9.999861 
2.1751802e+3, 2.4375683e+2, -616352.6, -794626.56, -15645.568, 0.07871115, -0.22516504, -614989.94, -63834.46, 0.0, 10.000374, 9.998018 
2.1752065e+3, 2.537541e+2, -454426.44, -648998.6, -20751.238, 0.0016781312, -0.3381618, -452237.9, 946.8255, 0.0, 10.000804, 9.998099 
2.1752341e+3, 2.6375318e+2, -294443.4, -452706.38, -25636.889, -0.007387334, -0.27469894, -290394.13, 64801.195, 0.0, 10.000888, 9.998766 
2.1752636e+3, 2.7375385e+2, -84012.945, -255673.03, 31173.387, 0.18024378, -0.1544441, -78527.18, 178660.66, 0.0, 10.001519, 9.999108 
2.1752907e+3, 2.8375158e+2, -142396.03, -422551.53, -26275.691, 0.1853997, -0.21958171, -139952.95, 19257.309, 0.0, 10.001194, 9.997479 
2.1753137e+3, 2.9374677e+2, -158605.52, -352938.38, -49999.414, -0.10464821, -0.5198507, -146495.89, -85236.0, 0.00000028754212, 10.000336, 9.99766 
2.1753433e+3, 3.0374983e+2, -52722.277, -31027.438, 50142.395, -0.07311717, -0.08693181, 9427.443, 9427.443, 0.0000061263827, 9.999657, 9.999893 
2.1753784e+3, 3.1374997e+2, 14464.825, -99288.37, 110583.5, 0.3258694, -0.21099398, 81941.19, 81941.19, 0.000027574106, 10.000572, 9.9989195 
2.1849075e+3, 1.4372925e+2, -1699311.6, -1748497.3, -62480.168, 0.13650028, -0.27524647, -1656758.5, -125326.78, 0.34983045, 9.999199, 9.998771 
2.1849363e+3, 1.5373012e+2, -1316263.6, -1341128.0, 59372.008, -0.08839946, -0.24134403, -1268036.1, 165386.67, 0.2059314, 10.000685, 10.000331 
2.1849641e+3, 1.6373123e+2, -1372296.1, -1315097.6, 7508.7827, -0.12210461, -0.15891597, -1314128.4, 21280.934, 0.09816949, 9.999435, 10.000314 
2.1849944e+3, 1.737312e+2, -1129206.3, -1058510.1, -26784.178, 0.11145501, -0.29642546, -1049508.6, 187895.73, 0.036017943, 10.0001745, 10.001022 
2.1850222e+3, 1.8373103e+2, -1144631.0, -1241402.4, -73316.88, 0.14807002, -0.32821375, -1105172.9, 34231.367, 0.009796201, 10.000255, 9.999067 
2.1850476e+3, 1.9373082e+2, -1190804.8, -1213866.6, -45495.547, 0.020927051, -0.28789234, -1155401.6, -113990.89, 0.0020521113, 9.999315, 9.998999 
2.185074e+3, 2.0373042e+2, -1131772.1, -1097959.6, -5770.9766, 0.02124889, -0.24029675, -1097001.8, -153584.56, 0.00020967671, 9.998861, 9.999372 
2.185101e+3, 2.1372962e+2, -852474.5, -860102.7, -7107.258, 0.1126387, -0.32862484, -848222.56, -2798.3616, 0.00000086887735, 9.999933, 9.999784 
2.1851277e+3, 2.2372948e+2, -682364.06, -768266.5, 15346.059, 0.16163121, -0.30316466, -679704.94, 67719.88, 0.0, 10.000569, 9.999456 
2.1851541e+3, 2.3373023e+2, -557620.3, -622902.06, -41566.53, 0.12614015, -0.22736809, -537410.44, 112006.36, 0.0, 10.000676, 9.999689 
2.1851806e+3, 2.4372956e+2, -546809.56, -742718.1, -8108.5313, 0.09350086, -0.19769175, -546474.5, 4949.0957, 0.0, 10.000762, 9.99819 
2.1852075e+3, 2.537266e+2, -422245.25, -614367.9, 20961.477, 0.012205823, -0.3517164, -419984.84, 33469.52, 0.0, 10.000919, 9.998288 
2.1852353e+3, 2.6372585e+2, -290643.9, -424463.53, 52038.07, 0.05203429, -0.29262152, -272790.03, 82672.47, 0.0, 10.000768, 9.999035 
2.1852648e+3, 2.7372727e+2, -240185.7, -302275.1, 12981.125, 0.24570501, -0.117133014, -237580.98, 19867.04, 0.0, 10.000304, 9.999387 
2.1852922e+3, 2.8372547e+2, -214148.95, -462784.1, -2361.895, 0.26731816, -0.15720035, -214126.52, -54660.55, 0.0, 10.000686, 9.997468 
2.1853156e+3, 2.937201e+2, 120422.97, -252013.08, 9355.3, -0.035229553, -0.487588, 120657.82, 182178.66, 0.000000027227998, 10.002363, 9.997395 
2.1853457e+3, 3.0372268e+2, 285105.16, -33212.402, 148269.45, 0.0883772, -0.02294108, 343467.3, 343467.3, 0.0000044959556, 10.002603, 9.998504 
2.185379e+3, 3.1372038e+2, -10554.8955, -22340.91, -40244.1, 0.38412037, -0.22248998, 24225.371, 24225.371, 0.000025056477, 9.999875, 9.99986 
2.1949072e+3, 1.4370146e+2, -1699138.4, -1749122.4, -304032.56, 0.08815932, -0.16097651, -1419072.4, 112625.05, 0.371045, 9.999433, 9.998847 
2.1949385e+3, 1.5370072e+2, -1243203.6, -1217370.9, 30540.424, 0.01351528, -0.37963098, -1197127.8, 236576.28, 0.22535217, 10.000862, 10.001366 
2.1949634e+3, 1.6370226e+2, -1379021.3, -1364843.5, -24951.695, -0.20129688, -0.3325037, -1345993.3, -10305.5, 0.113554515, 9.999608, 9.999872 
2.1949947e+3, 1.7370237e+2, -1226653.0, -1259252.9, 12008.159, 0.08854388, -0.3202775, -1222707.4, 14979.515, 0.046104282, 10.0001745, 9.9995985 
2.195022e+3, 1.8370245e+2, -1067812.5, -1096524.9, -107757.19, 0.048913054, -0.2911926, -973459.4, 166227.33, 0.015073848, 10.000324, 10.000036 
2.1950476e+3, 1.9370303e+2, -1104207.8, -1016634.6, -75823.42, 0.039538603, -0.30617765, -972862.9, 68819.016, 0.004138987, 9.999249, 10.000384 
2.1950743e+3, 2.0370345e+2, -1119542.9, -1025231.7, 1591.6056, 0.10272842, -0.28110874, -1025204.9, -81527.28, 0.00072646124, 9.998665, 9.999961 
2.1951018e+3, 2.1370356e+2, -863915.4, -815471.44, 42002.797, 0.15375526, -0.3230049, -791206.94, 54468.03, 0.000022642807, 9.999651, 10.000217 
2.1951282e+3, 2.2370341e+2, -817533.6, -948254.2, 8759.179, 0.11449614, -0.28065744, -816949.3, -69272.49, 0.000000000011542125, 10.0001335, 9.99843 
2.195154e+3, 2.3370251e+2, -677909.1, -815420.0, -23261.797, 0.018117744, -0.25445148, -674080.6, -24391.457, 0.0, 10.000427, 9.998485 
2.1951804e+3, 2.4370153e+2, -567457.44, -668541.8, -18883.287, -0.05325791, -0.2188517, -564045.1, -12345.289, 0.0, 10.000274, 9.998927 
2.1952082e+3, 2.5370005e+2, -388486.2, -485502.7, 39759.953, -0.028798005, -0.33030227, -374273.6, 79438.14, 0.0, 10.000667, 9.999294 
2.1952361e+3, 2.636994e+2, -400668.06, -531091.06, 16884.463, 0.0025311732, -0.29728526, -398517.7, -42799.91, 0.0, 10.00027, 9.998526 
2.195264e+3, 2.7369955e+2, -333719.44, -415732.4, 13392.857, 0.08105481, -0.18713847, -331587.78, -73868.55, 0.0, 9.999983, 9.998742 
2.195292e+3, 2.8369895e+2, -241556.83, -390688.4, 30161.324, 0.1117817, -0.107935086, -235687.78, -75961.16, 0.0, 10.000161, 9.998203 
2.1953206e+3, 2.9369694e+2, 108532.87, -171041.7, 98495.76, 0.169267, -0.19321023, 139748.22, 201493.42, 0.000000020729713, 10.0019245, 9.998154 
2.1953498e+3, 3.036955e+2, -11749.502, -434454.22, 59080.43, 0.19046502, -0.05539618, -3647.2712, -3647.2712, 0.0000055230016, 10.00173, 9.996133 
2.195376e+3, 3.136878e+2, -220403.31, -165771.92, -108700.914, 0.042242933, -0.56702197, -81007.13, -81007.13, 0.000029811183, 9.998727, 9.999372 
2.2049075e+3, 1.4367309e+2, -1421516.8, -1754472.0, -156147.89, 0.012645095, -0.27049053, -1359746.8, 172225.72, 0.39437363, 10.002589, 9.997166 
2.2049402e+3, 1.5367173e+2, -1408115.1, -1295365.6, -11199.229, 0.19379787, -0.48142585, -1294264.0, 139721.95, 0.24751917, 9.999418, 10.001397 
2.2049634e+3, 1.636744e+2, -1443071.0, -1369020.6, -64198.348, -0.12891695, -0.34935126, -1331935.8, 4023.0361, 0.13222682, 9.999027, 10.00015 
2.2049941e+3, 1.7367424e+2, -1372255.9, -1355126.9, 59040.027, 0.09152687, -0.35531887, -1304033.4, -66072.484, 0.059555795, 9.9992, 9.999453 
2.2050223e+3, 1.8367432e+2, -1229413.5, -1154399.8, -14917.795, 0.1084346, -0.32286844, -1151542.0, -11581.05, 0.023171267, 9.999106, 10.000235 
2.2050476e+3, 1.9367526e+2, -981099.5, -929936.3, -97929.32, 0.107962556, -0.32338262, -854302.44, 187650.5, 0.008108057, 9.999974, 10.00066 
2.205074e+3, 2.036761e+2, -888478.7, -914761.7, -47524.613, 0.16911265, -0.2712642, -852312.06, 91633.234, 0.0021629941, 10.000253, 9.999963 
2.2051015e+3, 2.1367642e+2, -819549.56, -805828.75, -68141.836, 0.17284079, -0.28345105, -744202.8, 101738.52, 0.00023583506, 9.999984, 10.0001335 
2.2051284e+3, 2.2367604e+2, -844929.44, -953735.4, -63319.16, 0.14393817, -0.26083484, -815851.9, -67906.21, 0.0000019906881, 9.999908, 9.9985075 
2.2051546e+3, 2.3367476e+2, -681124.5, -811314.44, -41383.03, 0.0451479, -0.27821362, -669083.8, -19122.959, 0.0, 10.000365, 9.998558 
2.2051811e+3, 2.436737e+2, -519450.22, -645856.6, 16432.756, 0.017464979, -0.2531178, -517348.9, 34623.285, 0.0, 10.00059, 9.998941 
2.2052094e+3, 2.5367284e+2, -403766.06, -477216.22, -30509.588, 0.039725184, -0.3045881, -392746.34, 61232.344, 0.0, 10.000553, 9.999386 
2.205237e+3, 2.6367205e+2, -344228.22, -519400.06, -55853.684, 0.06470498, -0.2810398, -327934.75, 28051.05, 0.0, 10.000708, 9.998405 
2.2052641e+3, 2.7367103e+2, -151297.84, -359112.72, -53118.664, 0.053584173, -0.26826665, -138507.61, 119490.49, 0.0, 10.001325, 9.998506 
2.2052927e+3, 2.836706e+2, -28057.596, -246276.11, 19830.092, 0.12682752, -0.17788188, -26270.223, 133732.75, 0.0, 10.00145, 9.998573 
2.205323e+3, 2.936696e+2, 29835.68, -157784.22, -6931.341, 0.28476706, -0.18276016, 30091.4, 92102.22, 0.00000007580395, 10.001168, 9.998614 
2.2053517e+3, 3.0366722e+2, -77683.76, -463168.1, 26100.998, 0.2757669, -0.18413013, -75924.5, -75924.5, 0.0000083740215, 10.001209, 9.9962225 
2.205378e+3, 3.1366172e+2, 259493.94, 115276.805, -120843.76, 0.2296308, -0.44208515, 328108.0, 328108.0, 0.000042885644, 10.001724, 9.999878 
2.2149108e+3, 1.4364871e+2, -1554164.0, -2208061.3, -126428.22, -0.016636966, -0.14318718, -1530571.0, 1641.5884, 0.4221777, 10.002583, 9.993961 
2.214941e+3, 1.5364271e+2, -1501407.0, -1458048.6, -31330.992, 0.27944726, -0.55983824, -1441627.8, -7355.44, 0.27423543, 9.999422, 9.999974 
2.2149634e+3, 1.6364723e+2, -1338197.0, -1218777.3, -64294.637, -0.11757054, -0.20093906, -1190742.8, 145483.34, 0.15564767, 9.999261, 10.00121 
2.2149925e+3, 1.7364669e+2, -1273352.0, -1158523.8, 59005.297, -0.041112415, -0.39135972, -1133609.3, 104617.61, 0.07778218, 9.9992285, 10.000827 
2.2150217e+3, 1.8364665e+2, -1268550.4, -1248622.5, -12109.301, 0.09706878, -0.4170385, -1242904.8, -102678.15, 0.035576556, 9.999157, 9.999567 
2.2150476e+3, 1.9364749e+2, -1065285.0, -1070558.4, -55618.777, 0.08229055, -0.33685902, -1012240.44, 29984.324, 0.0154146915, 9.999837, 9.999749 
2.2150733e+3, 2.036482e+2, -960283.44, -1016194.8, -63525.215, 0.013830409, -0.22360675, -918834.7, 25387.578, 0.005714695, 10.000042, 9.999367 
2.2151001e+3, 2.1364811e+2, -891447.56, -901895.3, -65466.395, 0.009339525, -0.22066526, -830996.94, 15227.166, 0.0013616167, 9.999755, 9.99958 
2.2151272e+3, 2.2364765e+2, -849622.8, -857197.94, -66191.92, 0.011368149, -0.21212004, -787110.2, -38881.996, 0.00013056793, 9.999455, 9.999387 
2.2151552e+3, 2.3364674e+2, -643144.0, -661910.75, -9159.701, 0.053096842, -0.30872282, -639414.5, 10819.665, 0.0000045921656, 10.000062, 9.999729 
2.215183e+3, 2.4364586e+2, -652886.7, -786791.4, -5199.2573, 0.06846438, -0.29976466, -652685.1, -100442.875, 0.000000030624218, 10.000032, 9.99823 
2.2152105e+3, 2.5364476e+2, -520186.94, -637755.2, -16820.41, 0.06568729, -0.28405085, -517827.78, -63571.242, 0.0, 10.000224, 9.99843 
2.2152376e+3, 2.6364344e+2, -413695.94, -540988.2, -54826.965, 0.021576757, -0.26537514, -393337.16, -37066.48, 0.0, 10.000203, 9.99849 
2.2152652e+3, 2.736417e+2, -183635.11, -339839.28, -13863.081, -0.0075800214, -0.356715, -182414.31, 75870.14, 0.0, 10.000976, 9.998792 
2.2152936e+3, 2.8364056e+2, -149156.75, -345978.94, -8282.257, 0.024025002, -0.33468485, -148808.84, 11484.819, 0.0, 10.000823, 9.998176 
2.215323e+3, 2.936383e+2, -50655.793, -223603.98, 11616.719, 0.1355579, -0.44005576, -49879.0, 12437.364, 0.00000027397763, 10.000754, 9.998348 
2.215351e+3, 3.036375e+2, -28575.54, -181805.63, 19969.158, 0.01549313, -0.37456754, -26015.889, -26015.889, 0.000015050563, 10.000493, 9.998468 
2.2153807e+3, 3.1363958e+2, 110027.78, 109802.42, 74491.52, 0.25961623, -0.12750527, 184406.72, 184406.72, 0.00007034586, 10.000504, 10.00039 
2.2249082e+3, 1.4361589e+2, -1875189.1, -1219375.6, 55168.547, -0.16363457, -0.30167267, -1214767.1, 317768.7, 0.45833316, 9.994265, 10.006513 
2.2249414e+3, 1.5361635e+2, -1407612.5, -1426222.8, 4273.146, 0.35603544, -0.48387235, -1406678.3, 27851.904, 0.30885017, 10.000206, 9.999816 
2.2249639e+3, 1.6361955e+2, -1263574.8, -1248319.1, 15554.788, -0.015549607, -0.19656774, -1238622.5, 97873.8, 0.18666483, 10.000137, 10.000576 
2.2249922e+3, 1.7361884e+2, -1191003.4, -1118004.0, -11515.68, -0.017764036, -0.39473915, -1116230.5, 122269.15, 0.103338934, 9.999822, 10.000854 
2.2250213e+3, 1.8361887e+2, -1285404.9, -1280101.8, -83939.61, 0.16343038, -0.41001797, -1198771.9, -58272.29, 0.054786276, 9.999126, 9.9993725 
2.2250469e+3, 1.936196e+2, -1153671.3, -1142361.9, -97171.75, 0.07044673, -0.3173765, -1050680.4, -8180.973, 0.028543482, 9.99933, 9.9994955 
2.2250727e+3, 2.0362014e+2, -1027594.75, -1050023.4, -38347.664, -0.0069589755, -0.20993541, -998855.3, -54356.355, 0.013685946, 9.999576, 9.999366 
2.2251004e+3, 2.1362016e+2, -833972.25, -870816.06, -32455.988, 0.042811543, -0.19704337, -815074.44, 31425.18, 0.005262215, 10.000139, 9.999618 
2.225128e+3, 2.236198e+2, -719253.1, -768099.8, -2253.9673, 0.107524045, -0.192439, -719149.3, 29352.549, 0.001420654, 10.000206, 9.999648 
2.2251552e+3, 2.3361883e+2, -704770.94, -655652.06, -31343.342, 0.11390763, -0.32564616, -640392.25, 10113.988, 0.0002619265, 9.999454, 10.000076 
2.2251828e+3, 2.4361801e+2, -764644.25, -834828.5, 8897.796, 0.1311966, -0.3284541, -763533.8, -211020.8, 0.000035642544, 9.999229, 9.998293 
2.225211e+3, 2.5361744e+2, -508488.2, -632352.3, 46082.168, 0.1201836, -0.26285967, -493224.72, -38700.484, 0.0000011567587, 10.000252, 9.998483 
2.2252388e+3, 2.6361632e+2, -319200.63, -487731.9, 68717.6, 0.10493934, -0.22690314, -294733.53, 61803.574, 0.0, 10.000809, 9.998575 
2.2252665e+3, 2.736144e+2, -172687.64, -313054.0, 48074.863, 0.060749475, -0.34080562, -157801.02, 100750.24, 0.0, 10.001, 9.998962 
2.2252949e+3, 2.836131e+2, -137917.31, -342176.13, 68675.63, 0.099550456, -0.3494094, -116974.55, 43587.332, 0.0, 10.000878, 9.998199 
2.2253239e+3, 2.936103e+2, -33186.477, -215964.72, 71965.266, 0.1543665, -0.49084938, -8252.894, 54338.086, 0.00000073017384, 10.00088, 9.998343 
2.2253528e+3, 3.0361053e+2, 129393.18, -67078.78, 84574.055, 0.11644224, -0.35967666, 160783.89, 160783.89, 0.00002755439, 10.001384, 9.998855 
2.2253816e+3, 3.1361115e+2, 360189.06, 227177.6, -139201.52, 0.23632237, -0.23314266, 447956.06, 447956.06, 0.000118261974, 10.002159, 10.000453 
2.2349411e+3, 1.5359314e+2, -1389430.5, -1327211.0, -29088.727, 0.2596102, -0.16398995, -1315730.0, 119024.414, 0.35698506, 9.999923, 10.000951 
2.2349644e+3, 1.6359076e+2, -1423820.5, -1601422.5, -15357.536, -0.08541872, -0.39496726, -1422502.4, -85726.82, 0.23053116, 10.000156, 9.998004 
2.2349924e+3, 1.7359045e+2, -1298951.0, -1316903.5, -26355.92, 0.007612505, -0.38663337, -1280084.8, -41303.035, 0.14104874, 9.999731, 9.999429 
2.2350203e+3, 1.8359084e+2, -1274223.6, -1252764.9, -101601.62, 0.07087308, -0.31324318, -1161327.6, -20546.682, 0.08532412, 9.999111, 9.999566 
2.2350451e+3, 1.9359149e+2, -1145316.1, -1096050.0, -81442.93, -0.07506783, -0.26235348, -1035596.4, 7181.496, 0.05187056, 9.999204, 9.999879 
2.2350715e+3, 2.0359205e+2, -1031456.4, -994881.6, -36847.715, -0.1243716, -0.19556415, -972032.9, -27258.836, 0.030293982, 9.999308, 9.999872 
2.2351016e+3, 2.1359235e+2, -829684.7, -799776.6, -1827.468, 0.12307231, -0.21476752, -799665.4, 47104.57, 0.015773455, 9.999868, 10.000239 
2.2351296e+3, 2.2359218e+2, -818587.8, -847905.75, -37320.523, 0.21597864, -0.2114677, -793150.56, -44381.137, 0.0069356123, 9.999677, 9.999345 
2.2351545e+3, 2.335909e+2, -768310.6, -729894.2, -43642.094, 0.062202606, -0.34269676, -701420.25, -50642.234, 0.002541045, 9.999207, 9.999677 
2.2351807e+3, 2.4359018e+2, -796143.56, -780359.8, 16922.44, -0.033048447, -0.3356752, -769579.5, -216795.23, 0.00075579167, 9.998734, 9.998895 
2.2352107e+3, 2.5359088e+2, -491778.4, -514142.16, 97053.51, 0.045262583, -0.24464281, -405264.75, 49517.67, 0.00014769337, 9.999904, 9.999453 
2.2352394e+3, 2.6359066e+2, -433791.53, -569754.75, 48544.355, 0.06574929, -0.15875608, -418238.4, -61451.777, 0.000007045108, 10.000166, 9.998304 
2.235268e+3, 2.735888e+2, -247128.28, -382435.56, 67289.94, 0.08001639, -0.24391392, -219362.05, 39440.42, 0.00000000065814787, 10.000642, 9.998645 
2.235296e+3, 2.835873e+2, -226873.27, -365552.4, 30482.303, 0.08115999, -0.26517126, -220468.88, -59652.887, 0.0, 10.000236, 9.9983225 
2.2353247e+3, 2.9358506e+2, -120026.836, -257000.98, 91363.805, 0.10994548, -0.3791874, -74330.62, -11490.675, 0.0000012574419, 10.000332, 9.998296 
2.2353555e+3, 3.0358517e+2, -164641.81, -447114.5, 82538.12, 0.18486899, -0.15411352, -142292.58, -142292.58, 0.000044073433, 10.00045, 9.996669 
2.2353816e+3, 3.1358007e+2, 89840.2, 7773.653, -1667.3943, -0.047284443, -0.38737848, 89874.06, 89874.06, 0.00018419352, 10.000801, 9.999561 
2.2449407e+3, 1.5356281e+2, -1537149.4, -1401622.0, -136418.94, 0.2387446, -0.34375593, -1317063.6, 117991.4, 0.42759266, 9.998867, 10.00084 
2.2449653e+3, 1.6356269e+2, -1297455.3, -1486102.0, -65623.586, 0.009973381, -0.41876423, -1276872.8, 60179.73, 0.29616648, 10.000973, 9.998431 
2.2449932e+3, 1.7356347e+2, -1243918.3, -1323307.9, -34467.316, 0.09908255, -0.2901031, -1231042.4, 8007.3965, 0.19952731, 10.0002575, 9.999144 
2.2450203e+3, 1.835638e+2, -1219324.9, -1197494.8, -15828.3545, 0.17824297, -0.21214232, -1189182.9, -48133.324, 0.13536815, 9.99937, 9.999808 
2.2450455e+3, 1.935636e+2, -1039967.1, -1010102.94, -23343.295, 0.0036532993, -0.2823052, -997324.44, 45726.516, 0.09319166, 9.999759, 10.000235 
2.245072e+3, 2.0356385e+2, -956203.9, -959573.75, 32048.748, -0.021985658, -0.2680746, -925795.75, 19251.51, 0.06306426, 9.999785, 9.999913 
2.2451021e+3, 2.1356438e+2, -898806.7, -837684.0, -13327.253, 0.23453218, -0.25648993, -834904.5, 12135.244, 0.0400799, 9.999393, 10.000222 
2.2451301e+3, 2.23564e+2, -843850.0, -889376.44, -39299.5, 0.33320093, -0.25691786, -821197.2, -72155.69, 0.023131557, 9.999588, 9.999126 
2.245155e+3, 2.335623e+2, -588256.4, -666788.2, -75438.7, 0.13047597, -0.4083846, -542476.3, 108580.71, 0.011994159, 10.000538, 9.999488 
2.2451812e+3, 2.4356154e+2, -469089.16, -627838.44, -407.95767, 0.034571324, -0.39072296, -469088.13, 83977.27, 0.0054928027, 10.000928, 9.998921 
2.2452107e+3, 2.535628e+2, -419888.94, -466086.5, -4702.6855, 0.0566819, -0.24588253, -419415.1, 35641.844, 0.002050329, 10.00031, 9.999604 
2.2452398e+3, 2.6356295e+2, -471091.5, -579068.6, -39293.32, 0.10975258, -0.13048112, -458306.34, -101248.836, 0.0004876709, 9.999849, 9.998405 
2.2452696e+3, 2.73561e+2, -221164.03, -345090.8, -2855.0188, 0.17289704, -0.23927197, -221098.3, 37976.582, 0.000047167257, 10.000689, 9.998896 
2.2452979e+3, 2.8355983e+2, -95659.23, -292553.34, -9845.808, 0.21816623, -0.25498798, -95168.1, 65918.28, 0.00000034188096, 10.00108, 9.9984255 
2.2453265e+3, 2.9355842e+2, 182907.86, -128901.37, -7055.8354, 0.16035116, -0.2580908, 183067.44, 246170.72, 0.0000013302117, 10.002443, 9.998185 
2.2453576e+3, 3.0355805e+2, 150086.92, -330493.75, 71456.42, 0.28325024, -0.080670364, 160486.56, 160486.56, 0.0000584347, 10.00269, 9.996407 
2.2453845e+3, 3.1355235e+2, 210511.86, 177578.48, -26607.805, 0.17669883, -0.30891845, 225336.17, 225336.17, 0.00025945, 10.001034, 10.000625 
2.254966e+3, 1.635363e+2, -1242197.4, -1244506.4, -58159.22, -0.14644572, -0.1721749, -1185181.3, 152136.45, 0.39765337, 10.000531, 10.00068 
2.2549944e+3, 1.7353752e+2, -1208743.6, -1216066.6, -64543.125, 0.10090011, -0.11462872, -1147758.3, 91548.74, 0.29298013, 10.000187, 10.000017 
2.2550215e+3, 1.8353742e+2, -1271465.8, -1230351.0, -64224.49, 0.23306654, -0.12401832, -1183474.1, -42166.47, 0.21888196, 9.999057, 9.999714 
2.2550468e+3, 1.9353546e+2, -1070702.9, -1002459.44, -8878.701, 0.13297316, -0.40077657, -1001323.2, 42000.094, 0.16615056, 9.999443, 10.000444 
2.255073e+3, 2.0353523e+2, -1048781.9, -1063195.6, 9134.0625, 0.048135873, -0.4443482, -1044353.94, -99031.82, 0.12546477, 9.999412, 9.999355 
2.2551014e+3, 2.1353596e+2, -987503.3, -958325.2, -15105.467, 0.19512475, -0.35413024, -951913.9, -104602.15, 0.0914258, 9.999137, 9.99949 
2.2551292e+3, 2.235352e+2, -961356.0, -1005912.44, -21998.05, 0.21637388, -0.32814595, -952325.5, -203007.17, 0.062582165, 9.999045, 9.998585 
2.2551562e+3, 2.3353288e+2, -645986.6, -716289.44, -26153.977, 0.18050104, -0.52250224, -637324.2, 14020.391, 0.039919913, 10.000223, 9.999296 
2.2551829e+3, 2.4353199e+2, -637267.1, -782476.94, -42612.066, 0.08101717, -0.47678405, -625686.2, -72329.15, 0.023601582, 10.000121, 9.998229 
2.2552104e+3, 2.535334e+2, -519695.34, -575462.4, -18479.15, -0.023557097, -0.27239785, -514127.88, -58781.246, 0.012405956, 9.999919, 9.999021 
2.2552387e+3, 2.635332e+2, -554469.5, -601684.06, -54105.16, -0.015777344, -0.15160742, -519045.7, -161695.6, 0.005154125, 9.999239, 9.998529 
2.25527e+3, 2.7353114e+2, -250095.92, -272210.94, 37455.535, 0.14455564, -0.3521032, -222099.81, 37268.17, 0.0013586987, 10.000151, 9.999638 
2.2552994e+3, 2.8353062e+2, -267638.97, -428786.06, -18275.18, 0.20068072, -0.32111874, -265592.4, -104219.09, 0.00015517221, 10.000177, 9.997903 
2.2553286e+3, 2.9353076e+2, 65487.457, -215196.36, 70421.195, 0.107293636, -0.11385057, 82164.64, 145541.42, 0.0000026982873, 10.001841, 9.997843 
2.2553587e+3, 3.0352947e+2, 92037.42, -241057.89, -14340.59, 0.02621941, -0.07499751, 92653.68, 92653.68, 0.000065484004, 10.00186, 9.997389 
2.2553867e+3, 3.1352407e+2, 188138.66, 404304.7, 119988.57, 0.20872897, -0.3664631, 457712.22, 457712.22, 0.00034262822, 9.999958, 10.002675 
2.2649959e+3, 1.7350756e+2, -1155100.6, -1417523.1, -152170.16, 0.17483754, -0.4434319, -1085383.6, 154216.55, 0.44342524, 10.001443, 9.99824 
2.2650169e+3, 1.8351181e+2, -1390855.0, -1501153.3, 48633.594, -0.14949584, -0.13313112, -1372474.3, -230915.23, 0.3585124, 9.998924, 9.9979725 
2.2650467e+3, 1.9350924e+2, -1137900.8, -1157507.0, -51907.605, 0.17326625, -0.28851694, -1094878.8, -51297.617, 0.29413474, 9.999536, 9.999219 
2.265075e+3, 2.0350704e+2, -893471.4, -980074.0, -53878.723, 0.2564999, -0.47545636, -867650.2, 77949.125, 0.24160613, 10.000438, 9.999537 
2.2650988e+3, 2.1350597e+2, -774175.9, -847670.25, -60023.67, -0.04176782, -0.5655573, -740544.1, 107062.734, 0.1940874, 10.000626, 9.999631 
2.2651255e+3, 2.2350559e+2, -663658.06, -838954.06, 34095.09, -0.13759199, -0.5208617, -657260.06, 92350.195, 0.14888066, 10.001058, 9.998795 
2.2651553e+3, 2.3350668e+2, -516463.44, -645137.56, 16315.65, 0.02489819, -0.3569293, -514426.88, 137176.95, 0.108788945, 10.00122, 9.999318 
2.2651841e+3, 2.4350639e+2, -469911.44, -758079.9, 26469.55, 0.12539704, -0.22117567, -467500.28, 86109.54, 0.07581198, 10.0014715, 9.997777 
2.2652128e+3, 2.5350466e+2, -245201.25, -520591.13, 9854.327, 0.12383919, -0.27165562, -244849.08, 210778.64, 0.048806984, 10.002092, 9.998429 
2.2652403e+3, 2.6350257e+2, -194653.89, -531134.2, -37581.438, 0.09073535, -0.25778857, -190507.52, 167141.69, 0.026684597, 10.002085, 9.997692 
2.2652695e+3, 2.735007e+2, -110439.12, -293797.44, -90878.71, 0.03551599, -0.35314134, -73029.125, 186638.19, 0.010897145, 10.001406, 9.998939 
2.2652979e+3, 2.8350022e+2, -345150.22, -420508.03, -138444.44, 0.1098833, -0.29513675, -239348.94, -77675.52, 0.002788968, 9.999395, 9.998372 
2.265331e+3, 2.9350066e+2, 39471.99, -149131.2, 62462.26, 0.21333483, -0.10598787, 58282.395, 121954.38, 0.0003034348, 10.001347, 9.998546 
2.265362e+3, 3.034985e+2, 232021.98, -237498.14, -53847.094, 0.15859178, -0.21570048, 238118.3, 238118.3, 0.000074942734, 10.003134, 9.996825 
2.2653903e+3, 3.1349307e+2, 628249.9, 329888.5, -168173.06, 0.37541783, -0.24130432, 703873.7, 703873.7, 0.00045627946, 10.004052, 10.000319 
2.2750762e+3, 2.0348175e+2, -875967.3, -1093749.1, 79579.82, 0.25845653, -0.05239822, -849987.25, 95867.055, 0.4526298, 10.001576, 9.998157 
2.2750999e+3, 2.1347961e+2, -800920.7, -799279.3, -103721.91, -0.039300807, -0.34512776, -696374.9, 151498.52, 0.38963944, 10.000311, 10.00029 
2.2751324e+3, 2.234814e+2, -1118085.9, -1060917.0, -283625.84, 0.37474024, -0.17555861, -804438.8, -54583.504, 0.32267725, 9.997861, 9.998744 
2.2751573e+3, 2.3348439e+2, -935472.75, -828720.0, -64182.297, 0.07310694, 0.13168404, -798619.4, -146791.66, 0.25840095, 9.998178, 9.9994335 
2.2751844e+3, 2.4348292e+2, -838707.06, -1111902.8, 46213.74, -0.11588785, 0.21540023, -831101.25, -277259.13, 0.20062341, 9.999672, 9.996178 
2.2752178e+3, 2.5347617e+2, -428019.84, -679984.94, 46458.465, 0.34561318, -0.31701767, -419726.6, 36178.258, 0.14660953, 10.001158, 9.997726 
2.2752441e+3, 2.6347154e+2, -652981.56, -1086437.4, -108258.336, 0.1875451, -0.3828337, -627447.56, -269497.38, 0.09444842, 10.000385, 9.994653 
2.2752683e+3, 2.7347067e+2, -346549.8, -640455.4, -125032.82, -0.28839365, -0.20269513, -300556.16, -40591.96, 0.04983968, 10.000815, 9.996789 
2.2752938e+3, 2.8346938e+2, -511651.84, -438512.47, -231711.13, -0.31215107, -0.12636988, -240502.98, -78523.61, 0.019500945, 9.998054, 9.998857 
2.2753325e+3, 2.9346833e+2, -5758.417, -17667.637, 148502.17, 0.19109099, -0.2747887, 136908.48, 200895.42, 0.004786881, 10.000443, 9.999846 
2.2753662e+3, 3.0346504e+2, -184865.1, -745803.9, -91626.38, 0.2020884, -0.48709017, -170277.77, -170277.77, 0.0007184054, 10.001717, 9.99396 
2.275393e+3, 3.1346092e+2, -167570.73, -797107.44, 13843.605, 0.15521458, -0.04580353, -167266.47, -167266.47, 0.0007782504, 10.002027, 9.99344 
2.2851837e+3, 2.434374e+2, -911405.75, -432741.97, 110120.07, -0.04701217, -0.5425794, -408623.34, 145663.88, 0.45869297, 9.994499, 10.004807 
2.2852156e+3, 2.5343287e+2, -169183.19, -425508.22, -493636.8, -0.109462865, -0.78119606, 212657.16, 668989.3, 0.36361384, 10.003775, 9.999352 
2.2852527e+3, 2.6344034e+2, 449473.44, -117815.78, -434336.2, 0.5452215, 0.08349646, 684579.44, 1042838.94, 0.26167578, 10.007993, 9.99832 
2.2852778e+3, 2.734382e+2, 376444.16, -72265.195, -306866.13, 0.38230535, -0.052085865, 532223.44, 792504.06, 0.16408452, 10.005629, 9.998758 
2.2852962e+3, 2.8343475e+2, -342041.03, -387042.72, -313829.78, 0.1041101, -0.22495915, -49906.51, 112407.24, 0.0825175, 9.999195, 9.998777 
2.2853315e+3, 2.934346e+2, 258991.19, 167767.47, 175708.5, 0.021753224, -0.30514237, 394911.47, 459226.03, 0.030766664, 10.001829, 10.000621 
2.2853693e+3, 3.034356e+2, 490616.94, 82777.36, -15898.78, 0.25681925, -0.326917, 491235.78, 491235.78, 0.009050835, 10.003989, 9.998665 
2.285395e+3, 3.1343365e+2, -90050.484, -112514.336, 190597.75, 0.27289158, -0.09008127, 89646.01, 89646.01, 0.0039692665, 9.999701, 9.999258 
2.2952776e+3, 2.7339992e+2, -759005.25, -250310.72, 822881.8, -0.24645722, -0.32810578, 356635.84, 617284.75, 0.4347033, 9.995689, 10.003922 
2.2953027e+3, 2.833957e+2, -1681081.8, -1699920.5, -509133.8, 0.71096104, -0.69407785, -1181280.3, -1018596.8, 0.2542763, 9.992983, 9.992621 
2.2953291e+3, 2.9340354e+2, 57796.76, 50949.88, 405969.28, -0.5223781, -0.19865593, 460357.06, 524972.8, 0.12200517, 10.000817, 10.000329 
2.2953713e+3, 3.0341387e+2, -277857.94, 94861.875, -131920.48, -0.1341759, 0.6137203, 136828.55, 136828.55, 0.05450564, 9.99723, 10.001882 
2.2953989e+3, 3.1340995e+2, 302158.47, 1619304.9, -208297.02, 0.48382443, -0.8807417, 1651460.5, 1651460.5, 0.03240071, 9.996005, 10.013061 
2.305333e+3, 2.9337853e+2, 2051.3735, -44984.723, -323165.63, -0.7592468, -0.2783891, 302553.6, 367405.72, 0.36533615, 10.000544, 10.000854 
2.3053935e+3, 3.0337393e+2, 204546.97, -74638.36, 50586.22, 1.3584079, -1.326189, 213430.16, 213430.16, 0.22076449, 10.002151, 9.998537 
2.3053955e+3, 3.1338397e+2, -230318.11, -1242324.0, 172997.23, -0.05131949, 0.02380818, -201562.2, -201562.2, 0.17469957, 10.002212, 9.9912615 
2.3454896e+3, 2.870945e+2, -262577.47, -173291.34, -882966.8, -0.10799987, 0.39907584, 666160.25, 792636.3, 0.4797204, 10.000137, 10.001341 
2.3595259e+3, 1.7753498e+2, -1469925.1, -1944809.1, 212095.9, 0.16136378, -0.8051769, -1388991.0, -188858.88, 0.43665826, 9.9997635, 9.994294 
2.3591626e+3, 1.875382e+2, -1959439.1, -1519483.9, 205020.58, 0.5259852, 0.48068964, -1438756.3, -336648.6, 0.3777607, 9.99371, 9.999356 
2.3587884e+3, 1.975287e+2, -1815489.6, -1611184.5, 584987.8, 0.53406465, 0.08801594, -1119497.1, -115290.66, 0.3336402, 9.994599, 9.99777 
2.3584095e+3, 2.0751052e+2, -1146796.4, -971561.75, 288260.9, -0.6028845, -0.90214765, -757896.56, 148493.06, 0.3010987, 9.997714, 10.000071 
2.3580477e+3, 2.175087e+2, -1080462.6, -1032615.25, 117516.27, 0.102766044, -0.58132833, -936612.25, -128201.586, 0.27833992, 9.9974165, 9.999247 
2.3576802e+3, 2.2751057e+2, -76198.12, -382100.6, -14826.061, -0.21565597, 0.2472934, -75481.234, 634907.1, 0.2613125, 10.004868, 10.000151 
2.3573124e+3, 2.3750453e+2, -902417.56, -771858.56, -214500.73, -0.83463037, 0.04355047, -612923.94, -483.25204, 0.24582523, 9.996839, 10.000081 
2.3569617e+3, 2.4749967e+2, -734717.3, -595763.8, 9387.755, 0.24220939, 0.16497111, -595132.44, -80646.71, 0.23021871, 9.997611, 9.999998 
2.356603e+3, 2.574855e+2, -1290235.4, -1117909.9, -104966.75, 0.4228849, -0.6573644, -1068271.1, -651647.56, 0.21018559, 9.993976, 9.997735 
2.356227e+3, 2.674769e+2, 97101.125, -61480.195, -62524.89, -0.0948674, -0.84388316, 118787.55, 437495.88, 0.17676438, 10.002148, 10.000699 
2.3558602e+3, 2.7747e+2, -389690.22, -1235570.9, 497886.63, -0.5494419, -0.68081504, -159354.47, 61423.324, 0.13598362, 10.002107, 9.99161 
2.3554935e+3, 2.8746453e+2, 832273.56, 196225.3, 79129.07, -0.047924064, -0.043571375, 841970.0, 964807.25, 0.12728246, 10.007486, 9.998493 
2.3551401e+3, 2.9746705e+2, -232997.06, -31383.496, 743236.9, 0.88936406, 0.39549878, 617851.75, 642671.6, 0.18642835, 9.997969, 10.001564 
2.3547742e+3, 3.0745277e+2, -501283.6, -82433.97, -491579.38, -0.297091, -0.37315893, 242471.67, 242471.67, 0.31093287, 9.996638, 10.001825 
2.3702398e+3, 1.5791824e+2, -1283613.1, -1237352.5, 377257.97, -0.24666785, -0.25919613, -882516.44, 509865.84, 0.4091861, 9.999972, 10.001794 
2.369886e+3, 1.6791363e+2, -1236015.8, -1401573.3, -15602.95, 0.42312112, -0.011905802, -1234558.1, 59867.77, 0.319146, 10.000721, 9.998247 
2.3695163e+3, 1.7790386e+2, -1195318.6, -1490803.5, -82059.05, -0.19656684, -0.2688472, -1174059.5, 22464.771, 0.25440267, 10.000549, 9.997251 
2.369147e+3, 1.8789522e+2, -646015.75, -689920.8, -241736.89, -0.21231107, -0.42012998, -425236.66, 673372.56, 0.20803185, 10.002429, 10.001751 
2.3687786e+3, 1.9789201e+2, -364038.22, -691397.0, -325483.5, 0.106634304, -0.30814424, -163395.72, 837244.5, 0.17323136, 10.0045185, 9.999919 
2.3684074e+3, 2.0789008e+2, -370684.22, -705548.75, -152971.3, -0.21123642, 0.22017725, -311326.3, 591334.8, 0.14628568, 10.004039, 9.999031 
2.368039e+3, 2.1788833e+2, -440663.34, -800100.94, -66265.07, -0.21055199, 0.7519301, -428836.03, 375845.4, 0.12553912, 10.002907, 9.998163 
2.3676787e+3, 2.2787583e+2, -294409.1, -533540.25, 107725.12, 0.1647907, 0.2707854, -253037.97, 453767.5, 0.108313076, 10.002646, 9.99947 
2.3673171e+3, 2.3785678e+2, -365614.38, -651430.0, 54687.13, 0.38067275, -0.92605287, -355508.06, 253484.7, 0.092006706, 10.001766, 9.998379 
2.3669507e+3, 2.478567e+2, -218577.89, -101956.58, 29986.111, 0.083466105, -0.3491552, -94698.195, 416297.34, 0.07587349, 10.000364, 10.002304 
2.3665881e+3, 2.5786245e+2, -640722.6, -721494.9, 33457.156, -0.07018416, 0.77583045, -628664.3, -215722.94, 0.059167173, 9.998642, 9.998 
2.3662221e+3, 2.6785615e+2, 26361.973, 228163.77, -151419.69, -0.06964844, 0.6899845, 309221.4, 624221.8, 0.040480375, 10.000262, 10.003111 
2.3658615e+3, 2.77844e+2, -328806.8, -543844.1, 66844.305, 0.022806384, -0.11108124, -309722.06, -92607.44, 0.022793092, 10.000089, 9.997039 
2.3654902e+3, 2.8783312e+2, -3007.315, -314019.25, -218261.31, -0.15628031, -0.28340304, 109479.46, 228699.48, 0.018052138, 10.001767, 9.997001 
2.3651196e+3, 2.9782638e+2, -441625.0, -439007.72, 325690.9, -0.41119465, -0.46289206, -114622.836, -93335.164, 0.038636025, 9.997981, 9.99777 
2.36477e+3, 3.078267e+2, -443776.28, -136076.33, 50354.508, 0.36086223, 0.30981243, -128045.51, -128045.51, 0.08557751, 9.997067, 10.0000925 
2.3805891e+3, 1.4828877e+2, -1161674.8, -1729984.0, 195544.64, -0.9363033, -0.3587492, -1100892.4, 385862.1, 0.3896837, 10.005531, 9.995035 
2.3802453e+3, 1.582813e+2, -1859709.8, -2168845.8, 31411.076, 0.7514097, -0.17010449, -1856550.4, -467719.66, 0.27836242, 9.998664, 9.994761 
2.3798828e+3, 1.682751e+2, -1332730.8, -1151812.8, 80988.64, 0.66327435, -0.025353963, -1120855.1, 170039.13, 0.19862524, 9.998633, 10.001149 
2.379513e+3, 1.7827143e+2, -1319718.4, -1408571.0, -4859.1143, -0.1293234, 0.035942513, -1319453.5, -126520.5, 0.1461588, 9.999301, 9.998329 
2.3791447e+3, 1.8826425e+2, -1038431.06, -1205859.9, -163447.47, -0.12302319, 0.15281026, -938506.75, 156495.28, 0.11113541, 10.000799, 9.9982195 
2.3787794e+3, 1.9825466e+2, -928550.8, -1138999.1, -239301.06, 0.28786996, -0.08671582, -772361.25, 224732.23, 0.08556882, 10.000759, 9.998218 
2.3784108e+3, 2.0824754e+2, -525192.5, -454770.66, -160735.38, 0.32289943, -0.25120988, -325434.75, 573723.75, 0.065839775, 10.0011635, 10.002056 
2.3780386e+3, 2.1824056e+2, -826273.0, -882997.75, -72237.99, -0.059140272, -0.53675985, -777029.0, 24193.375, 0.050802168, 9.99955, 9.999156 
2.377672e+3, 2.2823685e+2, -679089.4, -753673.56, 74201.27, -0.22539158, -0.1768614, -633336.1, 69927.19, 0.03888462, 10.00004, 9.998997 
2.3773105e+3, 2.3823276e+2, -881150.44, -1053896.8, 17190.455, -0.042669997, 0.17206323, -879456.4, -274146.16, 0.028499532, 9.9989, 9.99696 
2.376946e+3, 2.4822423e+2, -492504.03, -423339.53, -53755.582, 0.08047439, 0.037682675, -394003.13, 113394.79, 0.019239584, 9.999413, 10.000241 
2.3765843e+3, 2.5821394e+2, -913022.6, -921008.2, -6630.585, 0.15068133, -0.3063884, -909275.5, -499773.72, 0.01143259, 9.997273, 9.997242 
2.3762192e+3, 2.6821026e+2, -169076.03, -5079.2285, -193388.13, 0.15811671, -0.056068376, 122976.43, 434513.38, 0.005417436, 9.999709, 10.001553 
2.3758554e+3, 2.7820665e+2, -383358.28, -383589.78, -93679.91, -0.03992314, 0.023621123, -289794.03, -76223.87, 0.0017240121, 9.99896, 9.998707 
2.3754846e+3, 2.8819776e+2, 278096.0, 221325.73, -281608.9, -0.32773137, -0.20290828, 532746.75, 648393.75, 0.0009965353, 10.001928, 10.000657 
2.3751196e+3, 2.981938e+2, -107309.84, -268650.47, 167917.69, -0.2442093, -0.31484187, -1689.9315, 15985.745, 0.0037784507, 10.000148, 9.997987 
2.374769e+3, 3.081833e+2, -58354.195, -388712.63, 166911.48, 0.24979423, -0.15107058, 11293.368, 11293.368, 0.011109938, 10.001467, 9.996376 
2.3909675e+3, 1.3866228e+2, -1775241.9, -2480362.3, 148933.05, 1.0690962, 0.21199441, -1745075.3, -163981.25, 0.4278292, 10.001726, 9.992151 
2.3905906e+3, 1.4865267e+2, -1394093.6, -1406971.5, -154071.17, -0.41625896, 0.061239664, -1246326.9, 236868.7, 0.29985446, 10.000278, 10.000147 
2.3902358e+3, 1.5864378e+2, -1478129.8, -1569388.1, 29797.81, 0.41534516, -0.22365838, -1469261.9, -83983.74, 0.19614406, 9.999212, 9.99874 
2.3898731e+3, 1.6863915e+2, -1076465.8, -998801.3, 126738.7, 0.27743286, -0.103663415, -905079.25, 382245.13, 0.12585048, 10.000209, 10.001619 
2.3895076e+3, 1.7863563e+2, -961401.06, -1096741.0, 9477.296, -0.11251074, 0.0013237662, -960740.6, 228620.5, 0.083471425, 10.001146, 9.999702 
2.3891416e+3, 1.8862806e+2, -927622.94, -1047009.1, -135329.66, 0.113260515, -0.04285277, -839406.0, 252027.52, 0.057587944, 10.000971, 9.999271 
2.3887752e+3, 1.986188e+2, -942021.94, -1076314.8, -71439.38, 0.470238, -0.26910043, -911126.4, 82395.35, 0.03970386, 10.000089, 9.998978 
2.3884039e+3, 2.0861204e+2, -688008.4, -594240.6, -86701.0, 0.21450582, -0.371141, -542559.0, 353026.28, 0.026570952, 10.000054, 10.001544 
2.388031e+3, 2.186057e+2, -686710.25, -771462.4, -65551.95, -0.18484527, -0.50183207, -651030.0, 146615.02, 0.017417854, 10.000238, 9.999608 
2.3876667e+3, 2.2860196e+2, -502489.34, -618287.94, 80759.45, -0.20114109, -0.18130575, -461018.53, 238665.67, 0.011141793, 10.001062, 9.999449 
2.3873053e+3, 2.3859791e+2, -379473.97, -736457.3, 85691.02, -0.039572705, 0.17282887, -359970.13, 241758.28, 0.0065593217, 10.002034, 9.997594 
2.3869415e+3, 2.4858789e+2, -147106.55, -365956.16, 27561.86, 0.11049205, -0.064370215, -143688.8, 360141.0, 0.0032030866, 10.002165, 9.99933 
2.386579e+3, 2.58576e+2, -386707.63, -660078.0, 142327.6, 0.2785615, -0.47593063, -326060.66, 79888.2, 0.0011282732, 10.000798, 9.997312 
2.3862137e+3, 2.6857224e+2, -108056.836, -149474.67, 42299.258, 0.17994903, -0.12760012, -81669.195, 226320.16, 0.00023273825, 10.000811, 10.000039 
2.385849e+3, 2.785693e+2, -226940.16, -227139.81, 54829.93, -0.02785867, 0.16330312, -172209.97, 37809.875, 0.000018977813, 9.999555, 9.999496 
2.385481e+3, 2.885609e+2, 178925.28, 278309.84, -199786.63, -0.17687447, -0.13014312, 434491.34, 546583.56, 0.000039610317, 10.00077, 10.001567 
2.3851196e+3, 2.985573e+2, -223416.3, -453880.66, -27188.047, 0.37651327, -0.11825107, -220252.34, -206137.88, 0.00031053094, 9.999852, 9.996807 
2.3847641e+3, 3.085429e+2, -477479.75, -476170.56, -110241.67, 0.4661927, -0.35411403, -366581.53, -366581.53, 0.0010092406, 9.998268, 9.997096 
2.4013188e+3, 1.2902026e+2, -1541019.3, -2029124.1, -12565.598, -0.23151007, -0.4422531, -1540696.0, 134876.28, 0.4904393, 10.0040455, 9.994494 
2.4009551e+3, 1.3901538e+2, -1747419.1, -2067391.3, -118558.46, 0.08013092, -0.07561015, -1708278.0, -130625.05, 0.36336115, 10.000298, 9.995868 
2.40059e+3, 1.4901085e+2, -1240530.5, -958944.9, 11448.59, 0.124683, -0.09384855, -958480.2, 521212.16, 0.24041095, 9.999771, 10.004046 
2.4002247e+3, 1.5900622e+2, -1520599.4, -1309376.0, 62920.61, -0.0040833442, -0.36632523, -1292053.4, 89671.28, 0.14389461, 9.997972, 10.001073 
2.399863e+3, 1.6900317e+2, -1297784.5, -1078261.9, 196723.14, -0.09382979, -0.18437044, -962751.0, 321002.34, 0.08188297, 9.998684, 10.0016 
2.3995022e+3, 1.7899907e+2, -1399195.9, -1327528.0, 103.08047, -0.10556654, -0.124956645, -1327527.9, -141733.1, 0.047678713, 9.998198, 9.999494 
2.3991367e+3, 1.8899225e+2, -1047620.0, -926014.44, -178042.08, 0.23173939, -0.21489374, -798679.06, 289180.5, 0.028905774, 9.999459, 10.000773 
2.3987696e+3, 1.9898523e+2, -1156096.3, -1214896.3, -146532.89, 0.5490805, -0.35812905, -1036043.06, -46117.195, 0.017015342, 9.998985, 9.998508 
2.3983963e+3, 2.0898008e+2, -859678.25, -840436.44, -121955.86, 0.11803166, -0.18444328, -727722.56, 164255.31, 0.00915297, 9.999797, 9.999853 
2.3980235e+3, 2.1897464e+2, -994272.75, -1084995.6, -83608.91, -0.32915172, -0.07015474, -944512.7, -150479.27, 0.0045936005, 9.999034, 9.998018 
2.3976606e+3, 2.2896715e+2, -587560.5, -604299.75, 76517.45, -0.24443473, -0.13594568, -518956.28, 177149.42, 0.0022051786, 10.000344, 9.9998455 
2.3973003e+3, 2.3895827e+2, -694801.0, -897021.06, 36890.164, -0.11117813, -0.3295401, -688281.44, -90090.15, 0.0009056362, 10.000013, 9.997466 
2.3969366e+3, 2.4895199e+2, -300852.06, -388430.22, -53054.145, 0.08596862, -0.2365592, -275849.97, 224403.52, 0.00023937336, 10.001121, 9.999557 
2.3965737e+3, 2.5894547e+2, -659473.8, -867516.06, 59317.984, 0.25122428, -0.1625303, -643749.3, -241430.08, 0.000025130046, 9.999348, 9.996596 
2.3962069e+3, 2.6894003e+2, -182938.67, -285247.38, 30561.363, 0.01277026, 0.11377367, -174504.73, 129875.09, 0.00000030344088, 10.000826, 9.999068 
2.3958406e+3, 2.7893502e+2, -377547.8, -398666.44, 19365.986, -0.32848424, 0.23304302, -366049.47, -159613.02, 0.0000000068303647, 9.999006, 9.9986105 
2.3954783e+3, 2.8892577e+2, 30519.404, 37466.58, -115486.3, 0.05222275, -0.025396276, 149531.52, 258055.2, 0.0000039429096, 10.000593, 9.999963 
2.3951186e+3, 2.989192e+2, -359583.16, -583808.44, 28236.53, 0.5145909, -0.06538503, -356082.0, -345500.7, 0.00006190627, 9.999239, 9.9962 
2.3947556e+3, 3.0891016e+2, 132140.1, 508324.9, 234008.34, -0.051596556, -0.19044556, 620463.5, 620463.5, 0.0002690841, 9.999229, 10.003429 
2.411309e+3, 1.2939389e+2, -1999669.6, -1960099.3, 37514.305, -0.6644348, 0.14139095, -1937472.4, -265547.88, 0.44510007, 9.99785, 9.998447 
2.4109495e+3, 1.3938509e+2, -1538953.8, -1771523.4, 146594.11, -0.0035739355, -0.026619917, -1468123.6, 105902.95, 0.31930807, 10.000822, 9.997943 
2.4105845e+3, 1.4937915e+2, -1207063.8, -1144743.0, 84758.14, 0.101819895, -0.04940184, -1085598.9, 390480.44, 0.20041417, 10.000953, 10.001743 
2.4102183e+3, 1.5937284e+2, -1319581.4, -1310735.4, 70548.58, -0.02236923, -0.23348536, -1244471.4, 133660.55, 0.110025235, 9.999708, 10.0002365 
2.4098569e+3, 1.6936816e+2, -1313026.8, -1135722.9, 139822.58, 0.041127235, -0.15025882, -1058816.6, 221360.8, 0.054970514, 9.998693, 10.001194 
2.4094959e+3, 1.7936333e+2, -1487392.9, -1323757.1, -21571.123, 0.105490156, -0.102240704, -1320961.3, -138735.19, 0.027314784, 9.997234, 10.000019 
2.4091287e+3, 1.8935727e+2, -1029200.56, -914887.2, -165041.77, 0.12759253, -0.14834975, -797385.1, 286899.4, 0.013986388, 9.999407, 10.000939 
2.40876e+3, 1.9935073e+2, -733251.0, -973286.8, -174602.75, 0.1272918, -0.22838381, -641395.3, 344952.44, 0.006556314, 10.001584, 9.998959 
2.4083906e+3, 2.0934522e+2, -526410.5, -767222.44, -199770.84, 0.0712375, -0.055133175, -413565.56, 474839.9, 0.002469395, 10.002408, 9.999139 
2.4080217e+3, 2.1933936e+2, -449261.97, -855259.4, -105380.65, -0.034201, 0.11706806, -423539.1, 366927.84, 0.00078321603, 10.00272, 9.997869 
2.4076577e+3, 2.2933048e+2, -397247.72, -620573.1, -22084.938, -0.06634428, -0.035691258, -395084.66, 297467.3, 0.00023610769, 10.001859, 9.999105 
2.4072954e+3, 2.3932068e+2, -550761.7, -760310.5, -80681.23, -0.05146397, -0.27235427, -523297.16, 71347.35, 0.000047296035, 10.000492, 9.998223 
2.4069309e+3, 2.4931455e+2, -358039.8, -314968.66, -162601.77, 0.082959585, -0.25515357, -172482.55, 324217.1, 0.0000020598873, 10.000241, 10.00052 
2.4065672e+3, 2.5930896e+2, -482413.5, -599461.44, -8405.123, 0.22444114, -0.1917094, -481813.03, -83062.07, 0.0, 9.999714, 9.998259 
2.4062012e+3, 2.693029e+2, -211108.16, -308459.53, 32128.021, -0.0063390573, -0.025405841, -201461.19, 99354.95, 0.0, 10.000662, 9.9990015 
2.4058354e+3, 2.7929702e+2, -115804.88, -254434.44, -3816.0176, -0.24019453, 0.054040156, -115699.92, 87181.12, 0.0, 10.000606, 9.998839 
2.4054736e+3, 2.892889e+2, 103818.42, 38952.15, -89208.586, 0.14672036, -0.09760677, 166306.72, 271266.7, 0.00000028208012, 10.001134, 9.999749 
2.4051143e+3, 2.992832e+2, -296949.34, -461818.5, 176099.58, 0.7201555, 0.005226813, -184944.94, -177932.05, 0.000017512673, 9.999182, 9.99708 
2.4047504e+3, 3.0927378e+2, -21350.744, 578641.5, -69756.445, 0.134971, -0.27723512, 586644.75, 586644.75, 0.0001005609, 9.997569, 10.00475 
2.4213116e+3, 1.2975885e+2, -1863009.6, -1617280.5, 110236.11, 0.39649844, 0.07088918, -1575076.3, 93277.17, 0.41411307, 9.99752, 10.00121 
2.4209446e+3, 1.3975443e+2, -1560012.8, -1860183.9, -16454.447, 0.04714613, 0.02314978, -1559113.4, 11286.303, 0.28877336, 10.000843, 9.997211 
2.4205789e+3, 1.4974736e+2, -1345733.6, -1438736.6, -46415.883, 0.095690995, 0.046154313, -1326532.5, 145933.34, 0.17287979, 10.000978, 9.999186 
2.4202137e+3, 1.5973933e+2, -1566600.8, -1716384.0, -49355.367, 0.15838905, -0.06919045, -1551800.0, -177259.28, 0.08747846, 9.999236, 9.997663 
2.4198519e+3, 1.6973309e+2, -1263546.4, -1137998.0, 54691.56, 0.29072258, -0.0729718, -1117514.9, 159087.64, 0.038149297, 9.999279, 10.000759 
2.4194899e+3, 1.7972757e+2, -1503948.5, -1418912.0, -36163.63, 0.39092833, -0.071413994, -1405612.6, -226954.36, 0.01570925, 9.997662, 9.999085 
2.4191204e+3, 1.8972197e+2, -1045280.1, -928248.7, -87307.17, 0.0060423696, -0.06667896, -881661.44, 199052.47, 0.0064830934, 9.999419, 10.00075 
2.4187505e+3, 1.9971569e+2, -1115048.1, -1284738.4, -147010.56, -0.31078234, -0.10222059, -1030155.8, -47379.06, 0.0021827125, 9.999628, 9.997729 
2.4183857e+3, 2.097091e+2, -717099.4, -931787.2, -174228.03, 0.017622616, 0.022558164, -619801.8, 265044.75, 0.00044835047, 10.00147, 9.998408 
2.4180217e+3, 2.1970221e+2, -813952.94, -1183180.5, -101741.46, 0.35208142, 0.14643347, -787774.0, -854.8503, 0.000068581576, 10.001035, 9.996393 
2.4176553e+3, 2.2969384e+2, -580692.2, -782020.56, -47544.344, 0.1681868, 0.13532169, -570029.2, 118970.64, 0.0000096515805, 10.001176, 9.998202 
2.4172898e+3, 2.3968479e+2, -840472.44, -948022.5, -106815.42, -0.022556288, 0.024851654, -774659.44, -183574.47, 0.00000040342232, 9.998913, 9.997653 
2.4169238e+3, 2.496772e+2, -341480.1, -173154.38, -163041.45, 0.0050383112, -0.19466689, -73834.53, 419313.75, 0.0, 9.999895, 10.001598 
2.4165589e+3, 2.5966996e+2, -634981.06, -621560.9, -47592.0, 0.01509348, -0.42472523, -580208.25, -184999.53, 0.0, 9.998552, 9.998676 
2.4161953e+3, 2.6966354e+2, -273766.4, -279340.0, 46112.953, -0.025194196, -0.37225205, -230356.13, 66916.2, 0.0, 10.000113, 9.999392 
2.4158315e+3, 2.7965716e+2, -372054.66, -480749.13, -14298.417, -0.1568136, -0.34051237, -370205.22, -170867.8, 0.0, 9.999383, 9.997872 
2.415466e+3, 2.896511e+2, 75070.21, 112337.17, -86239.83, -0.12745844, -0.30056792, 181933.6, 283328.84, 0.0000000009564638, 10.000718, 10.000381 
2.4151048e+3, 2.9964662e+2, -532190.9, -660878.1, 138014.27, 0.119333446, -0.14929056, -444258.28, -440820.22, 0.0000015325257, 9.998058, 9.996251 
2.414745e+3, 3.0963692e+2, -389112.94, -169634.05, -161238.03, 0.12181033, -0.25315815, -84333.89, -84333.89, 0.000021924814, 9.997426, 9.999735 
2.4313049e+3, 1.3011882e+2, -1612702.8, -1622008.6, 144767.75, 0.29854763, -0.4191599, -1472513.1, 192302.23, 0.3927152, 10.000073, 10.00007 
2.4309419e+3, 1.4011453e+2, -1314268.0, -1663223.1, -42570.207, 0.044802144, -0.25462496, -1309149.8, 257709.06, 0.26710206, 10.002851, 9.99765 
2.4305752e+3, 1.5010777e+2, -1186030.0, -1428942.5, -193227.36, 0.12421318, -0.17232265, -1079257.4, 389670.97, 0.15331793, 10.002405, 9.99876 
2.4302088e+3, 1.6010061e+2, -1290598.6, -1476860.3, -108923.92, 0.21129598, -0.14825043, -1240419.4, 130581.44, 0.07196278, 10.0006, 9.998701 
2.4298462e+3, 1.7009528e+2, -965653.3, -940821.56, 17930.242, 0.2823179, -0.13139467, -931428.1, 341624.72, 0.027363949, 10.001075, 10.001299 
2.4294831e+3, 1.8008979e+2, -935606.4, -1072154.1, -49392.695, 0.269325, -0.15582272, -919613.06, 255493.34, 0.009079448, 10.001123, 9.999804 
2.4291143e+3, 1.9008452e+2, -845253.2, -840290.4, -117336.98, -0.004389524, -0.11986509, -725408.56, 351751.66, 0.002868925, 10.000741, 10.000757 
2.4287452e+3, 2.0007892e+2, -957840.6, -1107524.8, -118106.9, -0.2540939, -0.07633165, -892859.3, 86358.14, 0.00059867656, 10.000118, 9.998745 
2.4283811e+3, 2.1007189e+2, -640331.0, -848946.56, -86536.94, 0.040191364, -0.053877298, -609107.44, 272181.38, 0.000045539302, 10.001595, 9.999019 
2.4280179e+3, 2.2006457e+2, -490309.88, -907669.5, 1795.664, 0.35026458, -0.0110955415, -490302.16, 293060.97, 0.0000022398012, 10.002597, 9.997553 
2.4276511e+3, 2.3005667e+2, -453732.44, -699583.56, 40908.906, 0.2036882, 0.00014135514, -447104.03, 238336.22, 0.000000052409952, 10.001891, 9.998467 
2.4272847e+3, 2.400485e+2, -530142.5, -748396.4, 31318.322, 0.048729476, -0.01114094, -525737.4, 61781.438, 0.0, 10.00075, 9.998138 
2.4269189e+3, 2.500404e+2, -322598.3, -326626.1, -99027.59, 0.110196486, -0.16284327, -225564.14, 264026.44, 0.0, 10.000611, 10.000259 
2.426554e+3, 2.600325e+2, -355816.56, -465041.7, -90688.93, 0.18369071, -0.33000028, -304565.94, 87094.69, 0.0, 10.0002, 9.998976 
2.42619e+3, 2.7002585e+2, -186239.23, -221948.38, -51347.363, 0.039507505, -0.33637598, -149730.8, 143995.08, 0.0, 10.000486, 9.999658 
2.4258265e+3, 2.8001952e+2, -178644.02, -268833.2, -105727.13, -0.054846294, -0.32055774, -108796.234, 86991.51, 0.0, 10.000058, 9.999031 
2.4254598e+3, 2.9001355e+2, 96871.73, 197942.95, -161144.45, -0.1706052, -0.35967812, 316290.1, 414129.63, 0.0, 10.000331, 10.001271 
2.4250966e+3, 3.000084e+2, -312167.63, -425378.66, 83397.03, -0.016596522, -0.35395727, -267980.06, -267980.06, 0.000000086511356, 9.998839, 9.997549 
2.424741e+3, 3.1000215e+2, -182308.3, -241198.69, -360174.53, 0.49556234, -0.06366402, 149622.63, 149622.63, 0.0000026170453, 9.999344, 9.998431 
2.4416465e+3, 1.2049107e+2, -1617040.0, -1536378.3, 131973.42, -0.5878867, -0.085560866, -1438710.8, 320454.47, 0.49458465, 10.000289, 10.002211 
2.4412972e+3, 1.3047968e+2, -1756703.8, -1760734.5, 177155.86, 0.11036844, -0.6456214, -1581551.9, 79720.82, 0.3775347, 9.999635, 9.999018 
2.440939e+3, 1.404746e+2, -1772710.3, -1996232.6, -50703.418, 0.18160847, -0.45396328, -1761746.5, -198423.28, 0.25111946, 9.999581, 9.996865 
2.4405713e+3, 1.5046836e+2, -1366972.6, -1526715.6, -207682.73, 0.20505103, -0.32683364, -1224332.1, 241059.48, 0.13882844, 10.001118, 9.998588 
2.4402039e+3, 1.6046202e+2, -1383899.0, -1537245.8, -88860.34, 0.31151557, -0.21012978, -1343205.6, 24254.91, 0.060861234, 10.000139, 9.998443 
2.4398406e+3, 1.7045711e+2, -1085416.6, -942087.75, 37081.414, 0.25769755, -0.21573862, -933062.5, 336444.22, 0.02025213, 10.000092, 10.001687 
2.4394765e+3, 1.8045199e+2, -1332153.3, -1308053.6, -83949.33, 0.1706411, -0.22913428, -1235293.6, -63738.934, 0.0052852775, 9.998708, 9.999348 
2.4391086e+3, 1.9044718e+2, -977591.2, -903263.3, -154108.83, 0.037712272, -0.1622847, -781900.6, 291704.34, 0.0012089658, 9.9999485, 10.0006695 
2.4387412e+3, 2.0044212e+2, -1092202.9, -1169300.9, -115955.164, -0.013619414, -0.061493475, -1008556.8, -32899.816, 0.00012403581, 9.999391, 9.998625 
2.4383764e+3, 2.1043518e+2, -739361.56, -759094.44, -58844.625, 0.08705968, -0.1473827, -689561.94, 188161.66, 0.000001917801, 10.000531, 10.000018 
2.4380122e+3, 2.204276e+2, -912200.5, -1127021.4, -33925.305, 0.21072167, -0.21816577, -906970.2, -127173.77, 0.000000018702426, 9.999942, 9.997263 
2.4376455e+3, 2.3041983e+2, -569659.44, -713696.56, -31061.064, 0.12937109, -0.24258976, -563246.75, 118626.305, 0.0, 10.000981, 9.998743 
2.4372791e+3, 2.404119e+2, -835883.44, -1081409.5, -40537.523, 0.057846814, -0.24148087, -829363.6, -245412.06, 0.0, 9.999567, 9.996408 
2.4369146e+3, 2.504043e+2, -540285.0, -701952.25, -104890.41, 0.27513555, -0.14200914, -488694.78, -2668.025, 0.0, 10.000437, 9.997711 
2.4365503e+3, 2.6039663e+2, -670956.2, -856819.9, -70620.04, 0.3966488, -0.044584706, -647168.2, -259065.61, 0.0, 9.999219, 9.996742 
2.4361843e+3, 2.7038994e+2, -291819.3, -291004.4, -23297.842, 0.029602842, -0.0015871722, -268110.47, 22060.064, 0.0, 9.999937, 9.999415 
2.435819e+3, 2.8038326e+2, -358436.53, -305356.63, -127061.33, -0.2524025, -0.036380354, -202093.06, -9857.295, 0.0, 9.99871, 9.999444 
2.4354546e+3, 2.9037592e+2, 59106.805, 308821.16, -146368.42, -0.13520703, -0.35821834, 376351.7, 470645.88, 0.0, 9.999628, 10.002342 
2.4350901e+3, 3.003695e+2, -484384.03, -376384.63, 92487.34, -0.18537453, -0.5557572, -323286.8, -323286.8, 0.0, 9.997193, 9.998685 
2.4347322e+3, 3.103655e+2, -71630.16, 148141.97, 105113.38, -0.012237546, -0.3744925, 190320.92, 190320.92, 0.00000012758136, 9.99884, 10.001248 
2.4516504e+3, 1.2085003e+2, -1759127.9, -1833680.6, -59623.832, 0.19467938, -0.20221287, -1726086.9, 29572.707, 0.48542795, 9.999816, 9.999182 
2.4512893e+3, 1.3084422e+2, -1551743.1, -1508490.8, 83172.984, -0.093976654, -0.26148412, -1444178.4, 213536.94, 0.3659335, 10.000193, 10.001062 
2.4509314e+3, 1.4084056e+2, -1579684.5, -1663795.6, -11482.135, 0.004964947, -0.100744, -1578145.1, -18393.959, 0.23856215, 9.999716, 9.999136 
2.450565e+3, 1.5083455e+2, -1228225.4, -1321697.6, -110659.85, 0.069081716, -0.08929339, -1154837.1, 306974.38, 0.1275105, 10.001357, 10.000011 
2.4501982e+3, 1.6082782e+2, -1099762.3, -1338234.5, -18433.652, 0.16430295, -0.09622577, -1098345.8, 265532.84, 0.052560914, 10.001785, 9.999052 
2.4498333e+3, 1.7082123e+2, -1150292.3, -1121113.3, 5284.9575, 0.13271506, -0.16581188, -1120185.6, 145756.08, 0.01541553, 10.0000925, 10.000526 
2.4494682e+3, 1.8081501e+2, -1363633.0, -1276629.1, -74755.8, 0.060127806, -0.18935542, -1233639.1, -65638.195, 0.0031067657, 9.998149, 9.999874 
2.449103e+3, 1.9081058e+2, -898129.0, -834340.3, -76351.87, 0.087256156, -0.11187836, -783488.94, 286556.88, 0.00048131414, 10.000215, 10.001112 
2.4487378e+3, 2.0080563e+2, -699666.6, -895494.75, -78655.65, 0.13173538, -0.026594069, -671986.6, 300109.22, 0.000015932997, 10.001584, 9.999455 
2.448371e+3, 2.10799e+2, -783921.94, -784619.9, -132681.92, 0.14725871, -0.082399935, -651588.5, 222572.81, 0.0000000054715246, 10.000173, 10.00006 
2.4480051e+3, 2.2079185e+2, -994001.25, -1077433.8, -80606.61, 0.16238117, -0.1114647, -944955.9, -168724.2, 0.0, 9.998831, 9.998173 
2.4476404e+3, 2.3078406e+2, -616405.9, -746709.5, -72344.234, 0.17684439, -0.15172412, -584200.4, 94108.59, 0.0, 10.00057, 9.998789 
2.4472754e+3, 2.407763e+2, -364910.94, -743309.7, -109918.11, 0.17965747, -0.14345087, -335299.0, 245086.42, 0.0, 10.002103, 9.997568 
2.4469094e+3, 2.50769e+2, -174872.86, -462200.03, -57383.668, 0.22855529, -0.084494, -163836.38, 318618.53, 0.0, 10.002473, 9.998493 
2.4465437e+3, 2.607618e+2, -243450.14, -568844.3, 81231.22, 0.24889508, 0.023036366, -224298.8, 160225.44, 0.0, 10.001646, 9.997593 
2.4461775e+3, 2.7075422e+2, -524770.4, -477524.88, 80805.7, 0.04925257, 0.027034482, -416959.75, -130356.86, 0.0, 9.998548, 9.998854 
2.4458125e+3, 2.8074688e+2, -678420.44, -421462.97, 42012.57, -0.06814659, -0.008575796, -414768.34, -226092.25, 0.0, 9.99617, 9.999893 
2.4454488e+3, 2.9073983e+2, 85618.29, 309944.28, -28286.902, -0.030836986, -0.291416, 313456.2, 404188.38, 0.0, 9.999654, 10.002411 
2.4450852e+3, 3.0073372e+2, 127240.305, -6293.432, 73507.71, -0.072870076, -0.45568246, 159777.0, 159777.0, 0.0, 10.000861, 9.9995 
2.4447237e+3, 3.1073016e+2, -143734.08, 293020.75, -76830.266, -0.15389101, -0.23712651, 306141.9, 306141.9, 0.000000000000427524, 9.997374, 10.00301 
2.4616472e+3, 1.21213675e+2, -1722418.0, -1922561.9, -56811.504, 0.4041249, 0.20555294, -1707416.4, 44692.04, 0.47724348, 10.000849, 9.998044 
2.4612825e+3, 1.3120836e+2, -1598799.5, -1392884.3, 86417.41, -0.16650824, 0.03939218, -1361423.8, 292737.47, 0.3557266, 9.998837, 10.002872 
2.4609238e+3, 1.412068e+2, -1983883.3, -1707527.3, -19182.797, -0.019346865, 0.26520061, -1706202.1, -150026.5, 0.22774403, 9.996447, 10.000381 
2.460559e+3, 1.5120086e+2, -1376277.4, -1234461.0, -84197.36, 0.033227984, 0.11731614, -1195291.1, 262937.8, 0.11809006, 9.999633, 10.001416 
2.4601933e+3, 1.6119395e+2, -1299108.1, -1519560.9, -73945.586, 0.13114287, 0.017887443, -1276602.4, 83690.305, 0.04605504, 10.000848, 9.998211 
2.4598262e+3, 1.711861e+2, -1206862.8, -1287204.8, -69451.33, 0.05599602, -0.09109539, -1166801.6, 95567.125, 0.012013259, 10.000429, 9.999147 
2.4594599e+3, 1.8117903e+2, -1398739.0, -1379030.4, -43439.22, 0.02535533, -0.0910843, -1344341.8, -179904.34, 0.0018483637, 9.998435, 9.998999 
2.4590974e+3, 1.9117436e+2, -892755.8, -791259.4, 5991.185, 0.15734659, -0.07679556, -790907.0, 275576.06, 0.00018026956, 10.000164, 10.001373 
2.458734e+3, 2.0116937e+2, -1019379.75, -1146344.4, -115198.445, 0.2727175, 0.0006632871, -951330.0, 17202.86, 0.0000007906511, 9.999975, 9.998492 
2.458365e+3, 2.1116287e+2, -857727.8, -887731.5, -217866.0, 0.18993627, 0.0029687418, -654347.75, 216253.31, 0.0, 10.000087, 9.999371 
2.4579974e+3, 2.2115594e+2, -1154076.0, -1239483.9, -97354.75, 0.14082961, 0.06375863, -1090471.1, -317798.06, 0.0, 9.998335, 9.997267 
2.4576356e+3, 2.3114876e+2, -720243.8, -772511.75, -9901.646, 0.25978693, 0.06997923, -718430.94, -43685.816, 0.0, 10.000037, 9.998745 
2.4572724e+3, 2.4114166e+2, -646179.44, -803360.25, -86641.01, 0.30737647, 0.12187224, -607795.0, -30981.291, 0.0, 10.000048, 9.998097 
2.4569029e+3, 2.5113443e+2, -191054.52, -231633.31, -76573.99, -0.0060829995, -0.023112731, -132127.53, 346746.88, 0.0, 10.001398, 10.000551 
2.4565342e+3, 2.61127e+2, -527357.25, -733822.94, -51040.73, -0.23481797, -0.09822909, -515428.6, -134488.75, 0.0, 9.999935, 9.997262 
2.4561699e+3, 2.7111822e+2, -621999.4, -615181.06, -64103.48, 0.06897339, -0.17121735, -554396.1, -271365.6, 0.0, 9.998366, 9.99795 
2.4558064e+3, 2.8111053e+2, -897194.94, -694186.7, 78648.67, 0.25081918, -0.13174696, -667282.5, -482172.97, 0.0, 9.995549, 9.998295 
2.4554421e+3, 2.9110548e+2, -87952.03, 92859.21, 124754.73, -0.086774655, -0.12766308, 156521.48, 243674.13, 0.0, 9.99916, 10.001103 
2.4550807e+3, 3.0109885e+2, -381722.66, -579601.7, -14295.087, -0.141463, -0.13051939, -380695.3, -380695.3, 0.0, 9.998952, 9.996454 
2.4547166e+3, 3.110931e+2, -541478.56, -23047.54, -106996.914, -0.20814623, 0.022069369, -1832.9856, -1832.9856, 0.0, 9.995457, 10.001651 
2.471646e+3, 1.2157822e+2, -1408386.8, -1507780.5, -101306.05, 0.48663864, 0.36476305, -1345244.4, 403297.66, 0.46785307, 10.003176, 10.001205 
2.471274e+3, 1.3156897e+2, -1615370.4, -1455150.8, 11368.143, -0.3214038, -0.15371247, -1454348.3, 196282.94, 0.34520847, 9.998902, 10.002172 
2.4709168e+3, 1.4156976e+2, -2050615.6, -1665191.0, -3320.16, 0.21055166, 0.34862888, -1665162.4, -112542.07, 0.21743059, 9.995519, 10.001145 
2.4705535e+3, 1.5156348e+2, -1332837.4, -1099185.0, 22320.46, 0.14527714, 0.0698493, -1097071.9, 357602.25, 0.109704144, 9.999359, 10.002589 
2.4701892e+3, 1.6155678e+2, -1003631.0, -1220457.8, -33917.098, 0.101191774, -0.118375376, -998449.4, 358283.72, 0.040704507, 10.002197, 9.999651 
2.469822e+3, 1.7155007e+2, -901399.4, -1097870.5, -68737.305, 0.083504856, -0.15328045, -879738.94, 379058.66, 0.00953522, 10.002272, 9.999636 
2.469455e+3, 1.8154356e+2, -918637.5, -1102865.8, 17533.273, 0.048918184, -0.10785222, -916983.7, 243877.14, 0.0011160366, 10.001435, 9.999466 
2.4690916e+3, 1.9153775e+2, -786432.75, -816473.4, 35399.79, 0.11727365, -0.13555732, -762998.5, 299920.5, 0.00006263998, 10.001156, 10.000765 
2.4687278e+3, 2.0153199e+2, -898735.06, -1103060.3, -101095.86, 0.16832978, -0.06246831, -857170.25, 107808.2, 0.0000000031066179, 10.000746, 9.99844 
2.4683596e+3, 2.1152563e+2, -615181.0, -873653.1, -206435.0, 0.16643648, 0.046103448, -500865.5, 366185.2, 0.0, 10.002064, 9.998583 
2.4679925e+3, 2.2151901e+2, -439583.63, -769234.3, -96842.27, 0.14706247, 0.17409448, -413239.34, 355883.22, 0.0, 10.002514, 9.998546 
2.4676292e+3, 2.3151217e+2, -465076.47, -534951.9, 9386.426, 0.20552425, 0.1178462, -463837.53, 207349.06, 0.0, 10.001086, 9.999999 
2.4672654e+3, 2.4150522e+2, -590037.4, -667851.1, -20050.703, 0.21535435, 0.0993921, -585174.7, -11924.332, 0.0, 9.999805, 9.999179 
2.4668965e+3, 2.514974e+2, -410482.47, -373343.4, -122416.98, -0.05697832, -0.085019335, -268095.56, 207223.11, 0.0, 9.999914, 10.00035 
2.4665283e+3, 2.6148957e+2, -420646.22, -614206.1, -168337.25, -0.22263375, -0.18757606, -323251.53, 54137.934, 0.0, 10.000185, 9.998004 
2.466165e+3, 2.714823e+2, -36820.25, -321256.38, -175181.28, 0.16315593, -0.14376312, 46604.02, 326070.84, 0.0, 10.002195, 9.99819 
2.4658011e+3, 2.8147584e+2, 170547.31, -140549.05, 8192.168, 0.36228707, 0.00012313486, 170762.88, 352297.22, 0.0, 10.002607, 9.998706 
2.465434e+3, 2.914696e+2, -109192.125, -15636.469, 48132.656, -0.198295, -0.039099995, 4704.386, 88294.35, 0.0, 9.9993105, 10.000365 
2.4650738e+3, 3.014616e+2, -708653.1, -730832.2, 14032.875, -0.087211415, -0.09314494, -701856.94, -701856.94, 0.0, 9.996534, 9.996617 
2.4647087e+3, 3.1145406e+2, 30285.486, 212201.72, -98406.96, -0.14394726, -0.033036295, 255248.48, 255248.48, 0.0, 9.999261, 10.001555 
2.4816425e+3, 1.21941596e+2, -1659522.8, -1652501.8, -131505.81, 0.4920584, 0.25969198, -1524459.5, 220522.27, 0.45571712, 10.000283, 10.000792 
2.4812669e+3, 1.3193078e+2, -1427545.5, -1437247.9, -12936.197, -0.3493993, -0.3602721, -1418580.8, 228504.73, 0.33319858, 10.001412, 10.001037 
2.4809107e+3, 1.4193262e+2, -1473043.3, -1435704.1, 107409.43, 0.5293465, 0.3455573, -1345353.8, 203708.89, 0.20679392, 9.999939, 10.000761 
2.4805479e+3, 1.5192607e+2, -1288272.0, -1021266.5, 138458.39, 0.26719898, -0.018674301, -962431.75, 488686.16, 0.10179194, 9.999485, 10.003097 
2.4801849e+3, 1.6191941e+2, -1546152.4, -1443916.0, -49538.445, 0.1509729, -0.24721615, -1423850.4, -70675.02, 0.036105353, 9.99837, 9.999897 
2.4798182e+3, 1.7191392e+2, -1130870.5, -1112625.1, -109881.28, 0.17003146, -0.25326762, -1011488.44, 243738.03, 0.0076701324, 10.000446, 10.000341 
2.4794511e+3, 1.8190812e+2, -1136912.8, -1316754.9, -26072.898, 0.15852514, -0.14987764, -1133209.1, 24073.654, 0.000687035, 10.000579, 9.998361 
2.4790856e+3, 1.9190134e+2, -953085.25, -1002043.0, -18613.14, 0.0641969, -0.20363767, -946812.5, 112539.945, 0.000019881356, 10.000635, 9.999651 
2.4787207e+3, 2.0189458e+2, -1221580.0, -1410640.3, -119585.625, 0.058057237, -0.11303762, -1163674.4, -202249.7, 0.0, 9.999344, 9.996938 
2.4783547e+3, 2.1188843e+2, -914556.6, -1097610.6, -160614.13, 0.13688746, 0.073192626, -821221.3, 42278.24, 0.0, 10.000499, 9.997682 
2.4779885e+3, 2.2188231e+2, -820148.44, -925001.06, -113778.07, 0.17449395, 0.29114175, -747299.2, 18269.346, 0.0, 9.999925, 9.998662 
2.4776223e+3, 2.318754e+2, -548850.5, -411143.03, -57691.566, 0.056791853, 0.07355569, -390168.28, 277458.4, 0.0, 9.99987, 10.001385 
2.4772564e+3, 2.4186803e+2, -939554.2, -945441.06, -74908.74, -0.027517859, -0.053561006, -867531.06, -297840.34, 0.0, 9.998064, 9.99807 
2.47689e+3, 2.5185925e+2, -617949.75, -616735.1, -109178.34, -0.038864236, -0.23350175, -508162.38, -36387.645, 0.0, 9.999278, 9.998888 
2.4765244e+3, 2.6185137e+2, -690403.25, -823824.8, -113133.516, -0.020262085, -0.21876413, -625776.6, -251924.58, 0.0, 9.998869, 9.997167 
2.4761607e+3, 2.7184677e+2, -138366.67, -298726.22, -86431.37, 0.14388928, 0.043099552, -100651.67, 175253.33, 0.0, 10.001355, 9.998702 
2.4757949e+3, 2.8184134e+2, -112323.3, -357837.9, -85925.09, 0.07409924, 0.28435865, -85239.086, 92723.22, 0.0, 10.001113, 9.9979315 
2.4754249e+3, 2.918313e+2, -265333.5, -112085.97, -88286.086, -0.4615297, -0.12191134, -71809.625, 8242.091, 0.0, 9.998488, 10.0000305 
2.4750642e+3, 3.0182323e+2, -921667.7, -757498.94, 30980.045, -0.165438, -0.19563136, -751847.3, -751847.3, 0.0, 9.994877, 9.997224 
2.4747032e+3, 3.118196e+2, -44682.64, 340795.56, 67775.45, -0.25261045, 0.04072046, 352364.75, 352364.75, 0.0, 9.998107, 10.003002 
2.4916355e+3, 1.2230697e+2, -1938432.4, -2360588.0, -155401.47, 0.24851146, 0.107449956, -1887396.8, -146008.22, 0.43991777, 10.000337, 9.995303 
2.4912657e+3, 1.3229793e+2, -1121832.1, -1220549.0, 94570.984, -0.21453793, -0.33675244, -1064513.9, 578963.8, 0.31901658, 10.003947, 10.002002 
2.4909072e+3, 1.4229621e+2, -1016254.06, -1302446.6, 107165.914, 0.39099583, 0.015191032, -980573.75, 564917.06, 0.19536594, 10.004157, 9.999873 
2.4905407e+3, 1.5228951e+2, -1373664.9, -1299907.5, 37875.84, 0.17732635, -0.11697434, -1283922.0, 163631.77, 0.094030365, 9.999837, 10.000855 
2.4901755e+3, 1.6228276e+2, -1746047.8, -1492971.1, -39385.848, 0.08105563, -0.21274944, -1486983.3, -137367.22, 0.032013185, 9.996675, 10.0004015 
2.4898118e+3, 1.722772e+2, -1151995.9, -1028617.0, -16188.132, 0.16132398, -0.29293016, -1026528.4, 225136.2, 0.0062260167, 9.999788, 10.001282 
2.4894468e+3, 1.8227157e+2, -939755.4, -1215956.4, -18837.188, 0.16046572, -0.21990547, -938476.6, 215241.33, 0.00043419475, 10.001751, 9.998508 
2.4890809e+3, 1.9226529e+2, -925098.5, -1111153.8, -68278.68, 0.0845078, -0.12835519, -902730.6, 153057.3, 0.0000058323185, 10.001184, 9.998698 
2.4887149e+3, 2.0225856e+2, -1055891.8, -1260666.6, -135651.1, 0.06760383, 0.019560335, -988325.06, -30462.736, 0.000000000090419006, 10.00004, 9.997658 
2.4883491e+3, 2.1225095e+2, -986689.9, -1076912.0, -124324.2, 0.2177737, 0.016795624, -899545.44, -39600.242, 0.0, 9.999584, 9.998354 
2.4879827e+3, 2.2224411e+2, -863701.1, -842137.06, -49030.98, 0.25369683, 0.10540288, -802716.56, -40699.324, 0.0, 9.999054, 9.999653 
2.4876155e+3, 2.322389e+2, -645478.6, -481219.97, -52825.566, 0.06753595, 0.07713383, -465698.03, 198364.8, 0.0, 9.999223, 10.001272 
2.4872491e+3, 2.4223274e+2, -649058.2, -694019.8, -63106.953, -0.048540987, 0.07076409, -604547.44, -38429.535, 0.0, 9.999463, 9.9991045 
2.4868838e+3, 2.5222415e+2, -418636.06, -483235.53, -39619.36, -0.0070795454, -0.13961856, -399818.6, 68381.85, 0.0, 10.000355, 9.999326 
2.486519e+3, 2.6221642e+2, -372603.72, -633018.56, 10230.846, 0.07232927, -0.12296826, -372202.38, -1924.9803, 0.0, 10.0007, 9.997627 
2.486155e+3, 2.7221182e+2, -309633.84, -435109.53, -7321.8247, 0.15149468, 0.1830119, -309208.03, -36876.41, 0.0, 10.0002, 9.998423 
2.4857894e+3, 2.8220573e+2, -289913.38, -413094.22, -54953.875, 0.07543349, 0.38758337, -268961.03, -94565.24, 0.0, 9.999576, 9.9983425 
2.4854185e+3, 2.9219425e+2, -5977.162, -20714.268, -112723.67, -0.37660033, -0.14297158, 99618.54, 176117.72, 0.0, 10.000231, 9.999896 
2.4850571e+3, 3.0218613e+2, -64736.44, -222935.73, 112986.71, -0.06178014, -0.23476161, -5913.098, -5913.098, 0.0, 10.000178, 9.998325 
2.4846976e+3, 3.1218427e+2, 28459.797, 374930.63, -53946.37, -0.06725476, 0.17478655, 383135.9, 383135.9, 0.0, 9.998368, 10.003216 
2.5016302e+3, 1.2267308e+2, -1918903.0, -2552156.8, -85029.23, 0.23863511, 0.087377034, -1907684.5, -169893.56, 0.42027465, 10.001522, 9.993407 
2.5012645e+3, 1.3266544e+2, -1385125.3, -1296558.4, 69579.3, 0.025994949, -0.2636454, -1258365.8, 381501.44, 0.30251706, 10.001128, 10.00247 
2.5009033e+3, 1.4266056e+2, -1676768.3, -1820566.5, -69822.63, 0.33139655, -0.18019243, -1648444.3, -106530.72, 0.18302314, 9.999629, 9.998089 
2.5005338e+3, 1.5265347e+2, -1438060.5, -1564950.5, -128158.0, 0.10940748, -0.18714453, -1358502.9, 85483.125, 0.08629053, 10.000458, 9.998637 
2.500167e+3, 1.6264676e+2, -1404324.3, -1386324.6, -8296.121, 0.0697183, -0.11694445, -1383084.3, -37032.79, 0.028287582, 9.999364, 9.999795 
2.4998052e+3, 1.7264058e+2, -1126733.6, -983382.75, 23982.393, 0.16829415, -0.33519405, -979476.94, 268626.2, 0.0050760456, 9.999803, 10.001566 
2.4994424e+3, 1.8263473e+2, -1367814.8, -1525518.0, -73130.31, 0.21205418, -0.2675962, -1339122.8, -188964.48, 0.00028139996, 9.9994545, 9.997444 
2.4990757e+3, 1.9262949e+2, -1087635.9, -1248480.3, -114377.914, 0.12704079, -0.03205278, -1028236.7, 23986.146, 0.0000014559199, 10.000525, 9.998005 
2.4987093e+3, 2.0262294e+2, -1103611.8, -1270598.5, -154479.72, 0.1506573, 0.18064809, -1011505.8, -57209.418, 0.0, 9.9998455, 9.997654 
2.4983433e+3, 2.1261354e+2, -939826.25, -910626.5, -134948.44, 0.31411755, -0.12404812, -789490.5, 66897.34, 0.0, 9.999529, 9.999441 
2.4979763e+3, 2.2260614e+2, -1071723.3, -1026170.5, -67640.33, 0.35927007, -0.12663174, -977574.75, -219114.38, 0.0, 9.998171, 9.998803 
2.4976087e+3, 2.326029e+2, -782702.5, -622641.0, -51725.95, 0.12275624, 0.092605725, -607380.1, 53114.066, 0.0, 9.998746, 10.000482 
2.4972422e+3, 2.425985e+2, -876640.1, -786525.7, -60582.36, -0.052519925, 0.30508775, -756082.06, -193545.08, 0.0, 9.997944, 9.999188 
2.4968772e+3, 2.525906e+2, -484964.4, -375850.72, -30065.908, -0.058784854, 0.038953092, -368114.63, 96495.47, 0.0, 9.99943, 10.000464 
2.4965124e+3, 2.625834e+2, -641493.9, -834293.94, -43877.24, -0.035025313, 0.06093908, -631978.0, -265297.34, 0.0, 9.999307, 9.996892 
2.4961486e+3, 2.725774e+2, -429114.16, -571746.0, -23856.676, 0.11288541, 0.2699105, -425229.66, -156480.02, 0.0, 9.99977, 9.997682 
2.4957837e+3, 2.8257003e+2, -495418.13, -579746.4, -74258.23, 0.12767345, 0.42443115, -452188.47, -281362.0, 0.0, 9.998599, 9.997637 
2.4954146e+3, 2.925589e+2, -136892.81, -102098.15, -67534.43, -0.20315129, -0.07863779, -49756.215, 23170.89, 0.0, 9.999509, 9.999638 
2.4950507e+3, 3.0255038e+2, -309682.7, -404099.75, 51527.785, -0.19134001, -0.16600342, -287007.3, -287007.3, 0.0, 9.998928, 9.997655 
2.4946915e+3, 3.125472e+2, -312803.8, 17588.47, 35207.813, -0.08777197, 0.15314734, 21298.68, 21298.68, 0.0, 9.997129, 10.001271 
2.51163e+3, 1.23035304e+2, -1385546.8, -1535263.5, -130079.625, 0.39348653, -0.25859383, -1310323.5, 423913.66, 0.39734322, 10.003182, 10.000528 
2.5112608e+3, 1.3303037e+2, -1577207.6, -1569492.4, -44977.06, 0.20684572, -0.21170856, -1528207.9, 108082.12, 0.28406283, 10.000166, 10.000284 
2.5108957e+3, 1.4302544e+2, -1851687.8, -1833353.5, -47980.793, 0.28829217, -0.009128622, -1793672.0, -255330.16, 0.16993596, 9.99804, 9.998766 
2.5105277e+3, 1.5301967e+2, -1138082.8, -1306622.8, 9127.556, -0.03669113, 0.020293089, -1137589.9, 302811.97, 0.078587286, 10.002062, 9.999737 
2.5101614e+3, 1.6301301e+2, -875181.75, -1216567.8, -3486.3958, -0.14858441, 0.06815162, -875146.1, 467321.38, 0.024857625, 10.003336, 9.999089 
2.5097993e+3, 1.7300424e+2, -1131272.5, -1184348.0, -59297.188, 0.14843549, -0.21138106, -1092845.6, 151701.7, 0.0041356636, 10.000518, 9.999894 
2.5094363e+3, 1.8299682e+2, -1353262.5, -1361615.8, -81657.48, 0.26949102, -0.24305291, -1275674.9, -129056.89, 0.00018434241, 9.998758, 9.998941 
2.509071e+3, 1.929923e+2, -863068.8, -988102.44, -5372.304, 0.1495398, -0.056337215, -862838.44, 185832.48, 0.00000026313862, 10.001286, 9.999515 
2.5087044e+3, 2.029866e+2, -594819.2, -895633.6, -110658.305, 0.09444031, 0.1275482, -558497.75, 392234.3, 0.0, 10.002661, 9.998908 
2.508337e+3, 2.1297823e+2, -570300.06, -715176.8, -144373.05, 0.22903518, -0.07456723, -481211.7, 371600.4, 0.0, 10.001881, 9.999729 
2.5079697e+3, 2.2297062e+2, -602039.44, -810271.06, -67910.29, 0.2745139, -0.09888881, -581849.5, 173035.7, 0.0, 10.001191, 9.998906 
2.507602e+3, 2.3296478e+2, -549658.25, -611602.2, -82755.71, 0.11591888, -0.053367734, -492268.66, 164674.61, 0.0, 10.000558, 9.999775 
2.5072357e+3, 2.4295923e+2, -557782.44, -628715.44, -66256.19, 0.0024131453, 0.08887588, -518097.38, 40900.46, 0.0, 9.999996, 9.999314 
2.5068712e+3, 2.5295243e+2, -404879.94, -395954.28, -115252.69, 0.009443614, -0.007870311, -285078.06, 175983.95, 0.0, 10.000087, 10.000104 
2.506507e+3, 2.6294565e+2, -418251.94, -611174.7, -148757.11, 0.040994473, 0.043610547, -337418.4, 25710.139, 0.0, 10.000253, 9.997979 
2.5061426e+3, 2.7293864e+2, -224194.3, -404528.13, -116062.055, 0.11643512, 0.09092094, -167390.22, 97813.51, 0.0, 10.000827, 9.998362 
2.5057775e+3, 2.829313e+2, -146131.94, -364416.9, -98108.41, 0.13767326, 0.20401436, -108518.36, 58760.836, 0.0, 10.0006695, 9.998133 
2.505409e+3, 2.9292274e+2, -109879.25, -155324.84, -138439.23, -0.058749117, -0.015976807, 7689.601, 77049.43, 0.0, 9.999762, 9.999245 
2.5050455e+3, 3.0291545e+2, -273178.66, -390575.2, 46036.105, -0.0027918248, 0.054431703, -257279.28, -257279.28, 0.0, 9.999054, 9.997703 
2.5046867e+3, 3.1290957e+2, -35206.625, 62951.754, -17503.207, 0.24045494, 0.11657447, 65979.47, 65979.47, 0.0, 9.999209, 10.000607 
2.5216258e+3, 1.23399526e+2, -1600698.4, -1417752.1, -148488.9, 0.36703402, -0.51536095, -1334822.6, 395841.5, 0.3720952, 9.999347, 10.003448 
2.521255e+3, 1.3339564e+2, -1581050.4, -1791765.8, -90108.27, 0.24387108, -0.20855291, -1547772.8, 84937.33, 0.26429757, 10.001354, 9.997941 
2.5208893e+3, 1.4339125e+2, -1503693.6, -1612917.4, 102194.945, 0.3781833, 0.17523849, -1442433.8, 92326.74, 0.15642525, 10.000516, 9.999007 
2.5205228e+3, 1.5338627e+2, -1238615.6, -1241185.0, 126525.89, -0.07665855, 0.15801796, -1113367.9, 323445.03, 0.071005836, 10.001011, 10.000596 
2.520157e+3, 1.6337945e+2, -1410135.4, -1652677.0, -31386.297, -0.19408682, 0.22446309, -1406139.6, -67258.34, 0.021693112, 10.00056, 9.997364 
2.5197938e+3, 1.7336845e+2, -1291256.0, -1419840.5, -87198.66, 0.18576646, -0.12252918, -1247210.4, -6224.026, 0.00335279, 10.000385, 9.998256 
2.51943e+3, 1.8336004e+2, -1266106.9, -1260238.6, 59166.105, 0.39645985, -0.16244784, -1203934.0, -60866.31, 0.00011963712, 9.999209, 9.999373 
2.5190657e+3, 1.9335568e+2, -973694.94, -873268.94, 111617.75, 0.18343018, -0.13412891, -801089.7, 244022.86, 0.00000002568285, 9.999859, 10.000923 
2.5186998e+3, 2.0335087e+2, -1056603.4, -1174697.1, -113522.26, 0.06400937, 0.06975052, -987690.0, -40529.17, 0.0, 9.99982, 9.99833 
2.5183305e+3, 2.1334381e+2, -835120.25, -877417.0, -168304.5, 0.09354664, -0.007424842, -686640.6, 162588.06, 0.0, 10.0002365, 9.999372 
2.5179625e+3, 2.233359e+2, -959354.8, -1099474.9, -68316.516, 0.119118206, 0.009226947, -931560.1, -180256.05, 0.0, 9.999464, 9.997667 
2.5175956e+3, 2.3332624e+2, -685120.75, -754767.25, -84610.47, 0.052596573, -0.284317, -628447.6, 24947.85, 0.0, 10.000131, 9.998923 
2.5172296e+3, 2.4331829e+2, -807027.6, -931572.75, -68047.625, 0.030747397, -0.24972807, -777059.5, -221587.47, 0.0, 9.999243, 9.997565 
2.516866e+3, 2.5331223e+2, -579451.25, -606594.8, -83249.24, 0.09126586, -0.18074323, -508674.75, -51142.566, 0.0, 9.999567, 9.9988575 
2.5165015e+3, 2.6330563e+2, -588640.06, -660483.25, -131447.31, 0.07535979, -0.038692493, -488294.44, -128697.086, 0.0, 9.9991045, 9.998147 
2.516136e+3, 2.73297e+2, -244052.81, -265111.3, -77578.35, -0.011521929, -0.29905114, -176292.44, 85389.07, 0.0, 10.000205, 9.999536 
2.51577e+3, 2.8328997e+2, -309127.25, -449967.44, -152529.39, -0.07500791, -0.22551157, -211546.73, -47794.35, 0.0, 9.999768, 9.997928 
2.5154033e+3, 2.9328597e+2, -190707.08, -197931.22, -143050.23, -0.04549261, 0.010555356, -51223.324, 14573.102, 0.0, 9.999383, 9.999072 
2.51504e+3, 3.0328137e+2, -355547.88, -437370.28, 48770.26, 0.070586324, 0.3669106, -332801.7, -332801.7, 0.0, 9.998645, 9.997547 
2.5146756e+3, 3.1326783e+2, -117279.73, 17899.207, 157390.89, -0.42667514, -0.35655117, 121599.64, 121599.64, 0.0, 9.998805, 10.000456 
2.5316098e+3, 1.237708e+2, -1600784.4, -1361393.5, -10181.624, -0.6280423, -0.29627147, -1360961.3, 366065.97, 0.34545994, 9.998821, 10.004179 
2.5312483e+3, 1.3376324e+2, -1451428.4, -1787656.6, 72596.42, -0.08231415, -0.26664287, -1436423.4, 192682.73, 0.24384509, 10.002649, 9.997409 
2.530885e+3, 1.4375734e+2, -1221342.8, -1508191.9, 127334.37, 0.22021385, 0.036324076, -1172974.1, 358195.56, 0.14280653, 10.0028515, 9.998645 
2.5305203e+3, 1.5375015e+2, -1290910.3, -1350271.4, 117627.82, 0.16445304, -0.08593027, -1199276.3, 233967.7, 0.06363834, 10.000914, 9.999877 
2.530155e+3, 1.6374327e+2, -1399965.3, -1536801.4, 34364.574, 0.15114689, -0.021285448, -1391820.0, -56506.54, 0.0187796, 9.999997, 9.998473 
2.5297886e+3, 1.7373548e+2, -991277.4, -1195888.0, 75368.6, 0.16179012, -0.106344864, -966512.6, 270876.06, 0.0026956536, 10.001899, 9.99915 
2.529423e+3, 1.8372858e+2, -893315.7, -1091640.5, 145662.95, 0.15382493, -0.03015871, -816265.5, 323192.25, 0.00007576087, 10.00173, 9.999314 
2.5290585e+3, 1.9372277e+2, -1123103.9, -1060866.9, 105738.836, 0.13864297, -0.020509087, -981762.6, 59757.094, 0.00000000011876218, 9.999181, 10.00002 
2.528693e+3, 2.037167e+2, -1256497.6, -1189070.0, -71412.65, 0.14516091, 0.087334685, -1143813.0, -200233.22, 0.0, 9.997967, 9.999143 
2.528325e+3, 2.1370941e+2, -881990.1, -875442.3, -78132.55, 0.19325252, -0.014966898, -800515.1, 45130.316, 0.0, 9.9996395, 9.999736 
2.5279573e+3, 2.2370154e+2, -701617.44, -943321.94, 42502.04, 0.16515899, -0.017763129, -694361.56, 53357.42, 0.0, 10.000987, 9.998008 
2.5275907e+3, 2.3369217e+2, -358790.4, -666381.2, 24298.934, 0.046323165, -0.19883978, -356882.7, 292927.2, 0.0, 10.002505, 9.998464 
2.527225e+3, 2.436835e+2, -239144.3, -640854.4, 25933.072, 0.024393223, -0.19906397, -237477.06, 314416.5, 0.0, 10.002895, 9.99783 
2.5268605e+3, 2.5367603e+2, -293523.47, -523066.63, 18579.531, 0.11942607, -0.19908032, -292029.34, 161936.38, 0.0, 10.001633, 9.998479 
2.5264955e+3, 2.6366848e+2, -302807.34, -520734.13, 36643.094, 0.096931934, -0.11331212, -296811.03, 59228.86, 0.0, 10.000878, 9.998299 
2.5261298e+3, 2.7365947e+2, -140351.7, -281863.66, -34048.414, -0.07400896, -0.33867928, -132585.69, 125544.4, 0.0, 10.000994, 9.999125 
2.525764e+3, 2.836523e+2, -80398.5, -314557.4, -148982.92, -0.07517529, -0.2559531, -7995.748, 152207.23, 0.0, 10.001171, 9.998166 
2.525399e+3, 2.9364845e+2, 182344.48, -50147.98, -210272.67, 0.10866612, 0.019250149, 306364.3, 368610.7, 0.0, 10.002009, 9.998853 
2.525036e+3, 3.0364323e+2, 106308.05, -212772.66, 16548.635, 0.25789928, 0.3423759, 107164.02, 107164.02, 0.0, 10.001783, 9.997585 
2.52467e+3, 3.1363147e+2, -50481.375, 46560.664, 696.53864, -0.27972212, -0.15578988, 46565.66, 46565.66, 0.0, 9.999235, 10.000499 
2.5416085e+3, 1.2414155e+2, -1698062.6, -1504312.1, -107841.68, -0.06938046, 0.08343833, -1456223.1, 267173.78, 0.31815657, 9.998819, 10.002498 
2.5412425e+3, 1.3413055e+2, -1862419.6, -2012499.6, -17948.91, -0.15593106, -0.2736935, -1860302.9, -234795.1, 0.22319712, 9.999553, 9.997276 
2.54088e+3, 1.4412309e+2, -1672767.4, -1819802.8, 6404.281, 0.14530009, -0.1003018, -1672489.0, -144904.38, 0.12934339, 9.999818, 9.997896 
2.5405172e+3, 1.5411443e+2, -1398145.8, -1505259.9, -11314.001, 0.40348142, -0.3201908, -1396963.8, 32708.809, 0.05657354, 10.000626, 9.998924 
2.540152e+3, 1.64108e+2, -1360451.9, -1439097.8, 25743.83, 0.48861223, -0.17247586, -1352774.4, -21037.07, 0.016116831, 10.000086, 9.999034 
2.5397834e+3, 1.7410357e+2, -1118436.6, -1139224.8, 38439.586, 0.11950065, -0.07989031, -1089010.6, 144769.55, 0.0021455006, 10.000592, 10.000115 
2.539416e+3, 1.8409814e+2, -1250369.1, -1438937.4, -3160.9429, -0.041545335, 0.16155358, -1250316.1, -114479.36, 0.000046550977, 10.000136, 9.997682 
2.5390512e+3, 1.9409056e+2, -1164745.9, -1247402.9, -30347.295, 0.121340595, 0.105903015, -1154800.6, -116880.67, 0.0, 9.999708, 9.998465 
2.538686e+3, 2.0408317e+2, -1146381.5, -1140842.3, -66838.125, 0.27851197, 0.18757488, -1076716.4, -136723.6, 0.0, 9.99895, 9.998912 
2.5383195e+3, 2.1407512e+2, -823860.7, -786802.9, -69605.23, 0.32820562, -0.079634644, -733302.56, 108758.41, 0.0, 9.999961, 10.000106 
2.537953e+3, 2.2406745e+2, -896253.44, -1125565.3, 33500.363, 0.27007592, -0.03639136, -891459.56, -147327.92, 0.0, 10.00018, 9.997116 
2.5375864e+3, 2.3405956e+2, -637072.9, -841021.5, 35238.586, 0.007511896, -0.06004813, -631155.94, 15056.917, 0.0, 10.000922, 9.99797 
2.53722e+3, 2.4405149e+2, -618497.44, -869386.9, -66583.12, -0.07656541, 0.050714366, -601922.1, -53630.367, 0.0, 10.00069, 9.997254 
2.5368547e+3, 2.5404185e+2, -463655.38, -615640.0, -42507.008, 0.02309575, -0.19001652, -452574.84, -2194.5066, 0.0, 10.000637, 9.998261 
2.5364894e+3, 2.640331e+2, -575774.75, -830543.8, 5597.002, -0.000713138, -0.12879544, -575651.8, -223184.95, 0.0, 9.999924, 9.996585 
2.5361234e+3, 2.7402508e+2, -360981.53, -545879.0, -7820.3677, -0.15859789, -0.14740388, -360651.34, -106095.79, 0.0, 10.000266, 9.997627 
2.535759e+3, 2.840178e+2, -284598.66, -527214.3, -139406.8, -0.13419873, 0.06696463, -221109.72, -64477.047, 0.0, 10.000366, 9.997076 
2.5353956e+3, 2.9400998e+2, 69940.984, -161606.9, -139230.55, 0.12434964, -0.01962007, 135243.69, 193953.31, 0.0, 10.0015745, 9.99827 
2.5350323e+3, 3.040016e+2, -31103.953, -276708.97, -50290.18, 0.2614879, 0.027482595, -21205.45, -21205.45, 0.0, 10.000966, 9.997503 
2.534667e+3, 3.1399676e+2, -63656.734, 207219.7, 28266.21, -0.07175797, 0.20025031, 210137.86, 210137.86, 0.0, 9.998508, 10.001941 
2.551606e+3, 1.2450132e+2, -1639905.0, -1588360.9, -81300.34, 0.1578465, -0.22760363, -1528845.5, 191034.31, 0.29081753, 9.999886, 10.001135 
2.5512373e+3, 1.344955e+2, -1914624.5, -1989629.3, -75265.375, 0.011195872, -0.086513884, -1868035.8, -246091.22, 0.2027681, 9.998871, 9.997836 
2.550872e+3, 1.4448844e+2, -1662128.5, -1683413.1, 2886.1821, -0.05621465, 0.047248624, -1661744.1, -137726.47, 0.11625642, 9.999221, 9.999147 
2.5505072e+3, 1.5448241e+2, -1231358.4, -1346307.8, 32115.027, -0.09099069, 0.014305989, -1222994.6, 203081.31, 0.04988728, 10.001352, 9.999744 
2.5501427e+3, 1.6447592e+2, -1136956.0, -1318023.8, -35649.883, -0.02929414, 0.10838091, -1130189.9, 197948.25, 0.013707004, 10.001515, 9.999204 
2.5497773e+3, 1.7446852e+2, -1183451.3, -1227685.8, -53568.855, 0.08226728, -0.022699859, -1147613.4, 82595.055, 0.0016894786, 10.000311, 9.999698 
2.549412e+3, 1.844618e+2, -1139316.6, -1309950.5, -31992.006, 0.08995133, 0.074491404, -1133515.6, -1239.7628, 0.000027889511, 10.000461, 9.998439 
2.5490463e+3, 1.9445494e+2, -729168.9, -1022096.44, -9031.408, 0.07275522, 0.08341616, -728890.7, 305458.53, 0.0, 10.002516, 9.998718 
2.5486806e+3, 2.0444791e+2, -458094.75, -800667.25, -68755.586, 0.11978403, 0.17332174, -444810.38, 491607.56, 0.0, 10.0035095, 9.999087 
2.5483143e+3, 2.144398e+2, -314260.3, -622993.06, -108683.8, 0.21403112, -0.01863669, -279838.06, 558650.75, 0.0, 10.003624, 9.999542 
2.547948e+3, 2.2443187e+2, -559867.2, -979271.6, -93424.29, 0.22271755, 0.030418798, -539997.8, 200567.98, 0.0, 10.002466, 9.997056 
2.5475812e+3, 2.3442371e+2, -812044.6, -1014389.2, -124420.01, 0.10411002, 0.068383254, -752854.3, -110199.18, 0.0, 9.999992, 9.9972925 
2.547215e+3, 2.4441561e+2, -681422.6, -782798.4, -120303.47, 0.0017924786, 0.14883538, -601564.8, -56829.316, 0.0, 9.999559, 9.998481 
2.5468487e+3, 2.5440645e+2, -276033.8, -484755.97, -98665.91, -0.07217833, -0.08402771, -236776.67, 210039.52, 0.0, 10.001506, 9.998876 
2.5464833e+3, 2.643985e+2, -239596.44, -596639.9, -27586.516, -0.07549154, -0.0071559153, -237477.58, 111416.87, 0.0, 10.001873, 9.997267 
2.546119e+3, 2.7439195e+2, -304697.78, -539412.06, -24596.059, -0.014227294, 0.15283704, -302148.03, -51176.85, 0.0, 10.000669, 9.997532 
2.545755e+3, 2.8438434e+2, -190007.23, -394236.84, 29717.453, 0.035010308, 0.30982623, -185770.92, -32721.47, 0.0, 10.000473, 9.998011 
2.54539e+3, 2.9437417e+2, 119551.19, -106547.03, 35987.95, 0.06307499, -0.015415575, 125141.17, 180283.66, 0.0, 10.001648, 9.9987 
2.545027e+3, 3.043651e+2, 207395.44, -45508.316, 119201.43, 0.2435269, -0.095495164, 254722.33, 254722.33, 0.0, 10.001927, 9.998713 
2.544659e+3, 3.1436008e+2, -12547.807, -17871.383, 15633.254, -0.18105541, 0.049357653, 648.64386, 648.64386, 0.0, 9.999678, 9.99995 
2.5615966e+3, 1.24868445e+2, -1949751.0, -1924458.0, -477395.1, -0.115817465, 0.15236785, -1459541.9, 256750.89, 0.26403108, 9.998898, 9.999233 
2.5612316e+3, 1.3486053e+2, -1602158.9, -1854255.9, -113631.46, 0.13825156, 0.068895064, -1558500.8, 59879.89, 0.18292536, 10.00134, 9.997557 
2.560865e+3, 1.4485435e+2, -1422451.3, -1483473.0, 36199.066, -0.1077598, 0.2930049, -1405619.9, 114824.62, 0.1037245, 10.000709, 9.999773 
2.5604975e+3, 1.5485011e+2, -1401379.9, -1373469.3, -1225.1191, -0.51336634, 0.3190728, -1373415.6, 49066.363, 0.043632858, 9.99994, 10.000188 
2.560133e+3, 1.648432e+2, -1484185.4, -1545694.9, -122183.05, -0.43369263, 0.37660977, -1388945.9, -64400.01, 0.011545959, 9.999551, 9.99851 
2.5597715e+3, 1.7483255e+2, -1312790.6, -1381097.9, -138307.39, 0.115446284, -0.04758156, -1204482.3, 22164.16, 0.0013158798, 9.99996, 9.998752 
2.5594077e+3, 1.8482463e+2, -1206796.0, -1283636.5, -6748.821, 0.275623, -0.033354286, -1206207.8, -77484.484, 0.000016496271, 9.99996, 9.998796 
2.5590414e+3, 1.9481853e+2, -1029823.06, -1132934.5, -5746.2026, 0.017204333, -0.03537168, -1029503.8, 1281.5507, 0.0, 10.000453, 9.998918 
2.5586754e+3, 2.0481203e+2, -939389.2, -1105729.1, -113526.05, -0.048539877, 0.15239166, -881827.44, 51020.426, 0.0, 10.000716, 9.998287 
2.5583094e+3, 2.148044e+2, -780786.3, -936316.9, -119664.945, 0.029439341, 0.043392524, -715838.1, 119080.02, 0.0, 10.000994, 9.998605 
2.557943e+3, 2.2479643e+2, -911841.2, -1268559.6, -174875.11, 0.14799345, 0.21073478, -840413.9, -103412.96, 0.0, 10.000711, 9.995853 
2.557576e+3, 2.3478684e+2, -975564.06, -1203883.1, -178697.58, 0.2271971, 0.15225035, -877673.56, -238563.72, 0.0, 9.999454, 9.996199 
2.557209e+3, 2.4477859e+2, -729638.0, -710904.7, -37702.32, 0.11925499, 0.24257737, -681422.94, -140229.66, 0.0, 9.998965, 9.999204 
2.556842e+3, 2.5477073e+2, -396763.78, -459935.9, -12585.0, -0.2297314, 0.016974363, -394348.94, 48910.957, 0.0, 10.000447, 9.999513 
2.5564775e+3, 2.647647e+2, -422169.0, -628452.4, -101841.195, -0.21527544, 0.24793223, -380362.97, -35044.242, 0.0, 10.000575, 9.997583 
2.5561154e+3, 2.747595e+2, -374438.0, -528513.0, -50984.875, 0.17512384, 0.4596429, -359094.6, -111713.766, 0.0, 10.000128, 9.997817 
2.5557506e+3, 2.847515e+2, -192960.14, -266354.2, 32025.92, 0.1746753, 0.51087606, -180950.58, -31492.725, 0.0, 10.000007, 9.999065 
2.5553828e+3, 2.9474047e+2, 96579.89, -29645.012, 88606.65, -0.2373489, -0.026670763, 142253.1, 193804.2, 0.0, 10.00117, 9.999418 
2.5550202e+3, 3.047322e+2, 125281.81, -110018.35, 16277.663, -0.09263816, -0.04456371, 126402.53, 126402.53, 0.0, 10.001654, 9.9983015 
2.5546542e+3, 3.1473124e+2, -226737.75, -451114.13, 46424.406, -0.17819391, 0.5059054, -217511.7, -217511.7, 0.0, 9.999846, 9.996791 
2.5715926e+3, 1.2523012e+2, -1698717.4, -1767810.3, 127080.125, 0.011551282, 0.08144364, -1601571.8, 111190.52, 0.23823552, 10.000209, 9.999486 
2.5712273e+3, 1.3522536e+2, -1284712.0, -1581775.3, -35535.8, -0.017431626, 0.25012153, -1280520.3, 334293.34, 0.16394834, 10.00329, 9.998569 
2.5708622e+3, 1.4521813e+2, -1232910.1, -1407051.9, -50609.18, -0.03217818, 0.32008663, -1219270.4, 297613.9, 0.09188186, 10.002104, 9.999725 
2.570495e+3, 1.5521131e+2, -1487856.3, -1480375.9, -95979.34, -0.17158043, 0.17293535, -1388063.9, 30882.611, 0.03784501, 9.99948, 9.999754 
2.570129e+3, 1.6520426e+2, -1511929.3, -1512959.5, -111104.84, -0.17415078, 0.20842744, -1401338.4, -80327.24, 0.009625426, 9.999092, 9.998982 
2.5697643e+3, 1.7519577e+2, -1155115.6, -1313711.0, -87378.8, -0.044270635, 0.024152774, -1116416.9, 106672.99, 0.0010124295, 10.000967, 9.998783 
2.5693998e+3, 1.8518825e+2, -1033809.0, -1163556.8, -80494.89, 0.015390388, 0.056715593, -995299.9, 129862.555, 0.000009793076, 10.000876, 9.99922 
2.569035e+3, 1.9518118e+2, -1192905.1, -1210561.3, -79690.875, 0.015750907, -0.007972314, -1121554.8, -94321.27, 0.0, 9.999183, 9.999056 
2.5686693e+3, 2.051744e+2, -1138921.4, -1090731.6, -125571.44, 0.009741211, 0.072091244, -986964.3, -57665.652, 0.0, 9.998721, 9.999399 
2.5683033e+3, 2.1516731e+2, -929963.44, -965174.3, -86515.56, 0.043158464, -0.005906916, -859280.2, -27916.262, 0.0, 9.999604, 9.999158 
2.5679374e+3, 2.2516035e+2, -753887.5, -1042157.2, -72760.11, 0.10659187, 0.16305877, -736563.75, -3127.1912, 0.0, 10.000987, 9.997309 
2.5675708e+3, 2.3515248e+2, -430530.78, -863800.25, -22477.1, 0.21020891, 0.2242764, -429367.84, 206158.4, 0.0, 10.002645, 9.997073 
2.5672045e+3, 2.4514428e+2, -237396.44, -568954.25, 88138.45, 0.15314196, 0.32613048, -215422.77, 322188.44, 0.0, 10.002649, 9.998411 
2.5668383e+3, 2.5513548e+2, -358379.4, -583394.25, -17032.795, -0.09534429, 0.1673391, -357097.4, 82595.98, 0.0, 10.0012, 9.99833 
2.5664732e+3, 2.6512834e+2, -350719.47, -517159.75, -116726.02, -0.102019064, 0.3045076, -290584.97, 51178.15, 0.0, 10.000632, 9.998317 
2.5661102e+3, 2.751218e+2, -187624.72, -397822.7, -117666.47, 0.2086177, 0.36059186, -134954.27, 108877.86, 0.0, 10.001114, 9.99823 
2.5657454e+3, 2.851144e+2, -41809.586, -155037.45, -39103.043, 0.21193238, 0.41733494, -29618.105, 116283.61, 0.0, 10.000831, 9.999405 
2.5653785e+3, 2.9510564e+2, -117742.64, -161659.67, -99004.18, -0.11405818, 0.11570916, -38291.08, 9685.62, 0.0, 9.999716, 9.999222 
2.5650138e+3, 3.0509675e+2, -170630.45, -262969.5, -129574.125, -0.13908033, 0.03904086, -79246.07, -79246.07, 0.0, 9.9995165, 9.998315 
2.5646514e+3, 3.150937e+2, -84852.31, -112772.195, -4767.408, 0.16569953, 0.41125417, -84060.7, -84060.7, 0.0, 9.999377, 9.999418 
2.5815853e+3, 1.2559474e+2, -1888596.3, -1801881.3, 60480.8, -0.20718011, 0.4296151, -1770822.4, -61623.97, 0.21373183, 9.998657, 9.999814 
2.5812227e+3, 1.3559005e+2, -1629219.1, -1640198.5, 1694.1272, -0.07423738, 0.3734456, -1628963.6, -17719.2, 0.14603193, 9.9999895, 9.9996605 
2.580859e+3, 1.4558199e+2, -1554790.1, -1584368.1, -70013.12, 0.16420035, 0.32421008, -1498021.1, 15300.145, 0.080827504, 9.999941, 9.999411 
2.5804925e+3, 1.5557317e+2, -1470507.1, -1563202.4, -110974.27, 0.26909652, 0.00775905, -1396590.9, 18812.408, 0.032553293, 10.000129, 9.998812 
2.580125e+3, 1.655662e+2, -1370512.4, -1420628.4, 27999.69, 0.14177677, 0.105339006, -1357995.4, -40528.76, 0.007938516, 10.000079, 9.999058 
2.5797573e+3, 1.7555963e+2, -1351291.3, -1433484.4, 28453.004, -0.1951481, 0.06748895, -1342402.8, -122877.29, 0.00076767127, 9.999836, 9.99844 
2.579392e+3, 1.8555246e+2, -1227628.6, -1275783.0, -60289.945, -0.19057366, 0.1809621, -1186786.0, -65190.945, 0.000005913737, 9.999809, 9.998879 
2.5790283e+3, 1.9554429e+2, -1281957.9, -1300650.5, -94576.72, 0.08339151, 0.0007436754, -1196266.8, -172588.83, 0.0, 9.998976, 9.998451 
2.5786632e+3, 2.0553719e+2, -1087264.0, -998511.0, -70382.52, 0.17568126, 0.0629941, -959683.1, -33937.01, 0.0, 9.998904, 9.999887 
2.578297e+3, 2.1552989e+2, -1005987.1, -962056.8, -58495.402, 0.0939791, -0.14076927, -921538.5, -93725.56, 0.0, 9.999002, 9.999432 
2.5779313e+3, 2.255244e+2, -864224.2, -914395.56, -43240.363, 0.0702366, 0.09352025, -839319.7, -109451.23, 0.0, 9.9997015, 9.998725 
2.5775656e+3, 2.3551929e+2, -660974.44, -844353.8, 2714.1807, 0.08642031, 0.25053224, -660934.3, -29008.695, 0.0, 10.00072, 9.998066 
2.5772005e+3, 2.4551152e+2, -639724.5, -1012816.1, 864.4373, 0.114295214, 0.4742484, -639722.5, -105714.445, 0.0, 10.001154, 9.996011 
2.576835e+3, 2.5550056e+2, -672989.1, -1017795.5, -37368.266, 0.09783268, 0.30000392, -668985.8, -232865.16, 0.0, 10.000405, 9.995685 
2.576469e+3, 2.654907e+2, -425492.7, -524123.34, -91261.12, 0.0297262, 0.2874099, -371074.75, -32858.12, 0.0, 10.000095, 9.998511 
2.576103e+3, 2.7548134e+2, -310492.44, -467364.63, -64896.73, -0.047862407, 0.011086092, -287125.75, -46821.87, 0.0, 10.000418, 9.998065 
2.5757387e+3, 2.854749e+2, -181733.64, -285341.8, -75858.0, 0.05731065, 0.20461573, -141678.6, 687.6914, 0.0, 10.000251, 9.998755 
2.5753754e+3, 2.9546922e+2, -260797.38, -336154.25, -72566.016, 0.19550379, 0.269788, -216710.97, -172288.31, 0.0, 9.999281, 9.9982195 
2.5750074e+3, 3.054608e+2, -176421.27, -183170.72, -106037.79, -0.12185853, 0.26137242, -73704.516, -73704.516, 0.0, 9.999222, 9.998975 
2.5746444e+3, 3.154521e+2, -30818.268, 138789.63, -61081.527, -0.0043942938, -0.007973067, 158497.22, 158497.22, 0.0, 9.998913, 10.0013485 
2.591577e+3, 1.259578e+2, -1725909.6, -1523458.4, 39915.727, -0.43631104, 0.22667629, -1515872.8, 189763.56, 0.19077115, 9.998637, 10.002097 
2.591216e+3, 1.3595404e+2, -1738446.6, -1579986.0, 69199.25, -0.022066446, 0.22963388, -1554021.4, 53650.55, 0.12932457, 9.99863, 10.000858 
2.5908527e+3, 1.4594766e+2, -1574012.1, -1544668.6, 47604.23, 0.14483258, 0.26949647, -1509526.5, 207.9109, 0.07062259, 9.999485, 9.999953 
2.5904864e+3, 1.5594207e+2, -1174588.0, -1367120.4, 57669.535, 0.105633944, 0.28306523, -1158635.9, 253153.97, 0.027766839, 10.001851, 9.999385 
2.5901192e+3, 1.6593452e+2, -1043336.2, -1195365.4, 73413.24, 0.012537165, 0.26136765, -1013673.3, 300184.22, 0.0064744665, 10.0018835, 9.999815 
2.5897527e+3, 1.7592531e+2, -1255777.0, -1336293.1, 112489.86, -0.07653669, -0.04867341, -1176558.4, 39379.383, 0.0005723583, 10.000062, 9.999081 
2.5893873e+3, 1.8591793e+2, -1219244.5, -1346068.8, 74682.05, -0.046904057, 0.05015478, -1184684.6, -66673.89, 0.0000035552432, 10.000062, 9.998327 
2.5890228e+3, 1.9591092e+2, -980110.3, -1239748.6, 45262.58, 0.07772267, 0.11674009, -972445.94, 47641.01, 0.0, 10.0012, 9.997885 
2.588657e+3, 2.0590356e+2, -713179.4, -863068.7, 4336.9326, 0.128372, 0.19419965, -713054.0, 209105.44, 0.0, 10.001557, 9.999589 
2.5882918e+3, 2.1589561e+2, -670726.8, -874440.94, -31183.023, 0.14392024, 0.040894486, -666060.44, 158172.53, 0.0, 10.001429, 9.998953 
2.5879255e+3, 2.2588845e+2, -656464.0, -800275.0, -67644.336, 0.093333125, 0.11023238, -629646.9, 96656.51, 0.0, 10.000935, 9.998953 
2.5875592e+3, 2.3588146e+2, -706651.25, -873548.3, -86783.54, 0.017236495, 0.11769249, -669704.44, -41329.492, 0.0, 10.000272, 9.998148 
2.5871944e+3, 2.4587382e+2, -518106.84, -797331.0, -8514.236, 0.010527922, 0.25743604, -517847.47, 12605.164, 0.0, 10.001222, 9.997499 
2.5868303e+3, 2.5586465e+2, -177327.0, -662259.25, 62602.58, 0.06319744, 0.18957433, -169375.67, 263169.53, 0.0, 10.003197, 9.996826 
2.5864646e+3, 2.658556e+2, 51326.438, -304276.88, 50307.055, 0.038600795, 0.21062925, 58306.35, 392940.25, 0.0, 10.003271, 9.998555 
2.586098e+3, 2.758464e+2, -119738.79, -422895.44, 20711.309, 0.0050752554, 0.03167306, -118330.36, 118391.55, 0.0, 10.00177, 9.997814 
2.5857338e+3, 2.8583902e+2, -91299.53, -278241.56, 10476.317, 0.13584901, 0.16365042, -90714.266, 48081.688, 0.0, 10.000936, 9.998509 
2.5853702e+3, 2.9583222e+2, -169102.86, -372099.2, -47002.582, 0.3178068, 0.19803998, -158747.9, -117880.33, 0.0, 10.000118, 9.997628 
2.5850016e+3, 3.0582556e+2, 109230.41, 54445.895, -10438.417, -0.054990213, 0.35544348, 111151.91, 111151.91, 0.0, 10.0007715, 9.99988 
2.5846428e+3, 3.1581575e+2, 186596.33, 282431.66, 193523.84, 0.46897343, -0.045029543, 433881.94, 433881.94, 0.0, 10.000155, 10.0018015 
2.6015717e+3, 1.2632318e+2, -1637856.6, -1573292.6, 77397.484, -0.30864778, 0.10873816, -1521714.6, 180336.11, 0.16949552, 9.999992, 10.00094 
2.60121e+3, 1.363184e+2, -1579986.8, -1581359.8, 19653.766, 0.09598284, 0.011948598, -1561007.5, 43088.918, 0.11391175, 10.00017, 10.000058 
2.600846e+3, 1.4631423e+2, -1506169.3, -1443579.0, 94931.36, 0.14438905, 0.28041232, -1374917.4, 131221.31, 0.061296463, 9.999855, 10.000388 
2.6004797e+3, 1.5631096e+2, -1475432.0, -1534487.4, 74002.67, -0.060087387, 0.45760953, -1425283.6, -17109.512, 0.023481611, 9.99998, 9.999062 
2.600114e+3, 1.6630302e+2, -1231816.6, -1235953.4, -12953.896, -0.024768932, 0.39474848, -1220767.0, 89478.07, 0.005220199, 10.000471, 10.000194 
2.599749e+3, 1.7629172e+2, -1321968.8, -1399279.0, -15527.338, 0.19200456, -0.18284269, -1318966.8, -106623.97, 0.00041937284, 9.999846, 9.998749 
2.5993833e+3, 1.862842e+2, -1263156.1, -1455971.3, 60217.484, 0.18384102, -0.03696432, -1245895.1, -131476.5, 0.0000020172258, 10.000253, 9.997423 
2.5990167e+3, 1.962782e+2, -1219231.5, -1504170.0, 39191.145, 0.03606235, 0.18611059, -1213939.4, -197450.06, 0.0, 10.0003195, 9.9964485 
2.5986516e+3, 2.0627087e+2, -919023.8, -1054595.0, -6828.088, 0.07048016, 0.38339874, -918680.8, -117.33297, 0.0, 10.000724, 9.998604 
2.5982872e+3, 2.1626219e+2, -994393.44, -1174241.3, -20610.912, 0.2098897, 0.22423802, -992061.6, -171416.75, 0.0, 10.000022, 9.997505 
2.5979203e+3, 2.2625275e+2, -796654.75, -948026.2, -72536.67, 0.11771931, 0.188122, -767507.75, -44771.38, 0.0, 10.000459, 9.998112 
2.5975516e+3, 2.3624209e+2, -834094.9, -1031448.56, -79564.484, -0.102137595, -0.12712826, -806013.56, -181172.05, 0.0, 9.999953, 9.997166 
2.5971872e+3, 2.4623476e+2, -457852.53, -494905.2, 53039.258, -0.17405826, -0.036353964, -420197.13, 106712.69, 0.0, 10.000579, 9.999844 
2.5968248e+3, 2.5622857e+2, -344926.88, -546603.2, 111177.86, -0.1805991, -0.0805694, -295668.9, 133295.6, 0.0, 10.001289, 9.998522 
2.5964603e+3, 2.6622212e+2, -225882.73, -517829.78, -42377.074, -0.06399842, 0.16453604, -219855.98, 111174.06, 0.0, 10.001848, 9.997729 
2.5960952e+3, 2.7621457e+2, -328467.22, -659418.3, -21433.24, 0.1483065, 0.20464379, -327084.94, -93974.5, 0.0, 10.000996, 9.996557 
2.5957292e+3, 2.8620505e+2, -249886.48, -479771.56, -49233.254, 0.19699532, 0.25304666, -239786.22, -104579.23, 0.0, 10.000485, 9.997321 
2.5953615e+3, 2.9619437e+2, -361136.03, -592492.4, -73290.016, -0.0022208716, -0.0011111891, -339873.1, -302559.4, 0.0, 9.999469, 9.9964075 
2.5949967e+3, 3.0618817e+2, 84587.78, 93665.414, -13509.501, -0.013222333, 0.21895635, 103378.17, 103378.17, 0.0, 10.000532, 10.000196 
2.5946298e+3, 3.1618208e+2, -66018.836, -136193.94, 146704.08, -0.42213014, 0.15391715, 49735.32, 49735.32, 0.0, 9.999834, 9.999039 
2.61157e+3, 1.2669025e+2, -1456181.0, -1542771.9, 37427.082, -0.119874254, 0.033282895, -1442246.4, 256204.03, 0.14988421, 10.001617, 10.000417 
2.611206e+3, 1.3668546e+2, -1411885.4, -1614761.9, 34456.754, 0.102233276, 0.10481653, -1406193.0, 194307.9, 0.09979623, 10.001832, 9.999085 
2.6108396e+3, 1.4667973e+2, -1354239.3, -1324360.9, 58233.105, 0.037972987, 0.22714949, -1279181.3, 223373.52, 0.05285716, 10.000639, 10.000904 
2.610473e+3, 1.566731e+2, -1519192.9, -1537065.0, 64035.105, -0.14663486, 0.07553619, -1463473.4, -58858.03, 0.019694533, 9.999442, 9.99937 
2.6101086e+3, 1.6666622e+2, -1296216.3, -1346658.4, -6910.3643, 0.022301994, 0.13266474, -1295286.6, 11392.847, 0.004163879, 10.000255, 9.999563 
2.6097462e+3, 1.766585e+2, -1078070.0, -1340339.3, -30837.389, 0.36978838, 0.0069581573, -1074493.0, 134258.8, 0.00030229846, 10.001641, 9.998326 
2.6093793e+3, 1.8665066e+2, -937423.56, -1234153.4, 12796.755, 0.25050163, 0.09294364, -936872.7, 173958.1, 0.0000010444409, 10.002069, 9.998143 
2.6090106e+3, 1.966425e+2, -947822.5, -1302801.6, 39757.758, -0.11512589, 0.08169304, -943424.1, 69492.67, 0.0, 10.001689, 9.99724 
2.608645e+3, 2.0663497e+2, -732339.5, -950807.1, 23976.693, -0.10436995, 0.19790833, -729739.06, 185252.33, 0.0, 10.001793, 9.998847 
2.6082814e+3, 2.1662715e+2, -703300.6, -1036786.7, 47039.188, 0.10628243, 0.1508166, -696792.6, 120272.77, 0.0, 10.001856, 9.997605 
2.6079157e+3, 2.2661816e+2, -441828.5, -868295.6, 47495.27, 0.09633699, 0.19434887, -436603.0, 282552.2, 0.0, 10.0031395, 9.99743 
2.6075494e+3, 2.36608e+2, -143361.52, -752002.1, 11038.871, -0.023412138, 0.052897785, -143161.38, 478096.94, 0.0, 10.004719, 9.996858 
2.607184e+3, 2.4660012e+2, -53805.285, -218822.42, 19160.12, -0.075349644, 0.052010093, -51609.816, 471720.44, 0.0, 10.00292, 10.000624 
2.60682e+3, 2.5659326e+2, -553034.6, -595168.3, -13418.174, -0.07844001, -0.08361276, -549124.3, -123736.43, 0.0, 9.999471, 9.999112 
2.606455e+3, 2.6658663e+2, -482392.8, -626298.7, -64181.156, -0.00796717, 0.096102946, -457927.66, -130472.72, 0.0, 9.999889, 9.997982 
2.6060906e+3, 2.7657968e+2, -160062.95, -561258.2, -56213.926, 0.17268889, 0.21491419, -152335.33, 77196.805, 0.0, 10.001949, 9.996811 
2.605725e+3, 2.8657043e+2, 101335.63, -280165.16, -8031.538, 0.21998213, 0.24910334, 101504.64, 233129.72, 0.0, 10.002735, 9.9976015 
2.6053566e+3, 2.9655966e+2, 74067.37, -399090.66, 30788.254, 0.06539223, 0.023047347, 76062.336, 109791.305, 0.0, 10.002421, 9.996337 
2.6049933e+3, 3.0655062e+2, 213239.4, 24399.898, 85296.63, 0.1802385, 0.021655332, 246061.97, 246061.97, 0.0, 10.001777, 9.99917 
2.6046318e+3, 3.165427e+2, -153291.13, -236998.08, -104562.75, 0.41628587, -0.09139876, -82516.53, -82516.53, 0.0, 9.99938, 9.998548 
2.6215667e+3, 1.2705724e+2, -1966563.6, -1851684.0, 107696.26, 0.069908984, -0.0114047285, -1787067.1, -92214.8, 0.13183987, 9.998397, 9.999547 
2.6212016e+3, 1.3705342e+2, -1537479.1, -1787595.5, 37114.055, 0.14895278, 0.21465868, -1532088.0, 64808.684, 0.08692974, 10.001542, 9.997943 
2.620834e+3, 1.470456e+2, -1235770.8, -1290772.0, 26166.89, 0.035607014, 0.18587627, -1225311.0, 273656.56, 0.045284748, 10.0016, 10.000684 
2.6204666e+3, 1.570356e+2, -1510489.8, -1594836.0, -8038.2275, -0.10900091, -0.30234846, -1509730.6, -108676.5, 0.01638905, 9.999834, 9.998799 
2.6201037e+3, 1.6702995e+2, -1375068.4, -1469737.4, 41827.258, 0.12062319, -0.053407557, -1359235.9, -56125.92, 0.0032885466, 10.000216, 9.998684 
2.6197428e+3, 1.7702557e+2, -1349600.8, -1580401.0, 14308.547, 0.52038616, 0.22595805, -1348717.1, -143558.27, 0.00021471751, 10.00035, 9.997286 
2.6193753e+3, 1.8701716e+2, -1064941.4, -1212553.1, 6810.2725, 0.30978963, 0.24861668, -1064627.9, 42614.99, 0.00000047553752, 10.000919, 9.998808 
2.6190048e+3, 1.970067e+2, -1185963.9, -1400478.1, 4061.7976, -0.20529011, -0.08312058, -1185887.0, -176542.48, 0.0, 10.000108, 9.99731 
2.6186386e+3, 2.0699887e+2, -876527.94, -991452.1, -12189.165, -0.2612859, -0.0076867444, -875249.4, 36170.285, 0.0, 10.000818, 9.998979 
2.618275e+3, 2.1699183e+2, -978746.94, -1221456.1, 7181.394, -0.078415886, -0.023154682, -978534.6, -165047.84, 0.0, 10.000339, 9.997042 
2.617912e+3, 2.2698441e+2, -675747.0, -1040964.1, 76645.23, 0.04585686, 0.24218157, -660314.2, 55250.5, 0.0, 10.001976, 9.996735 
2.6175487e+3, 2.3697634e+2, -553433.0, -1046679.44, 40410.125, 0.09893941, 0.35196477, -550144.25, 67507.664, 0.0, 10.00251, 9.995849 
2.617182e+3, 2.4696766e+2, -274812.34, -372127.34, -110256.93, 0.08683826, 0.33564982, -202953.69, 316778.75, 0.0, 10.001761, 10.000058 
2.616814e+3, 2.569584e+2, -778996.0, -805308.94, -100784.64, 0.04829584, -0.005597304, -690512.75, -268700.22, 0.0, 9.998503, 9.998092 
2.6164487e+3, 2.669508e+2, -519369.34, -581001.56, 4345.2134, 0.003464893, 0.084928125, -519064.5, -195174.98, 0.0, 9.999471, 9.998432 
2.6160842e+3, 2.7694342e+2, -267512.84, -580000.4, 30482.406, -0.06593076, 0.085028775, -264567.13, -38597.535, 0.0, 10.001168, 9.997022 
2.61572e+3, 2.8693616e+2, 115453.84, -108970.59, -21246.42, 0.07989721, 0.22658026, 117447.55, 245487.36, 0.0, 10.002261, 9.998953 
2.6153558e+3, 2.9692814e+2, -4919.6377, -409600.9, 57613.117, 0.26210976, 0.12719321, 3122.7212, 33235.96, 0.0, 10.001852, 9.996528 
2.61499e+3, 3.0691406e+2, -90678.82, -433461.5, 9458.199, 0.26105547, -0.21957906, -90418.04, -90418.04, 0.0, 10.001099, 9.99634 
2.6146153e+3, 3.1691006e+2, -143460.16, -75217.34, -133704.61, -0.7007982, 0.2891909, 28651.076, 28651.076, 0.0, 9.998875, 9.999906 
2.6315585e+3, 1.2742822e+2, -2064426.8, -1946695.3, 223343.08, -0.10419544, 0.2981368, -1774590.6, -83372.13, 0.11528824, 9.997759, 9.99927 
2.6311967e+3, 1.3742104e+2, -1410891.6, -1754573.3, 183489.34, -0.030164974, 0.22263674, -1331341.1, 261953.7, 0.07524984, 10.002434, 9.997834 
2.63083e+3, 1.47413e+2, -1116663.0, -1358731.3, -4709.081, -0.04367233, 0.23919766, -1116571.5, 378797.84, 0.038529176, 10.002908, 9.999615 
2.6304623e+3, 1.5740389e+2, -1275926.5, -1545827.9, -25797.334, -0.05518589, -0.027028672, -1273482.9, 123966.88, 0.013527696, 10.001597, 9.998346 
2.6300976e+3, 1.6739643e+2, -1198428.9, -1356666.8, 38485.844, 0.07517282, 0.033578098, -1189565.1, 109955.64, 0.0025719018, 10.001169, 9.999075 
2.629735e+3, 1.7738968e+2, -1257949.9, -1501403.8, 59011.023, 0.26302493, 0.07336702, -1244400.3, -42811.965, 0.00015054179, 10.000653, 9.997741 
2.629369e+3, 1.8738194e+2, -1107242.1, -1308357.5, 15223.537, 0.20059393, 0.17896315, -1106096.3, -2430.208, 0.0000001940375, 10.0008135, 9.998236 
2.6290008e+3, 1.973732e+2, -1108586.5, -1395364.0, -9772.638, -0.032850366, 0.08978867, -1108253.8, -102500.02, 0.0, 10.000563, 9.997186 
2.628635e+3, 2.073643e+2, -852452.75, -1028030.8, -31333.234, -0.11707602, 0.075379714, -847028.7, 60810.277, 0.0, 10.001076, 9.998679 
2.6282698e+3, 2.1735539e+2, -715689.0, -1076848.5, -15517.952, -0.10799464, -0.06081749, -715023.5, 94899.6, 0.0, 10.001877, 9.997369 
2.627907e+3, 2.2734775e+2, -544766.8, -882461.9, 72941.695, 0.001285866, 0.09570735, -529685.06, 182314.95, 0.0, 10.002311, 9.997723 
2.6275453e+3, 2.3734036e+2, -489296.72, -930670.6, 63700.96, 0.14437705, 0.21486665, -480287.03, 133789.78, 0.0, 10.002366, 9.996786 
2.627178e+3, 2.473317e+2, -274773.56, -527262.8, -133845.36, 0.14220017, 0.22960289, -217028.28, 299133.2, 0.0, 10.0022745, 9.998822 
2.6268086e+3, 2.5732237e+2, -315425.84, -638516.75, -141249.42, 0.08477898, 0.02964265, -262382.56, 155867.66, 0.0, 10.001762, 9.997731 
2.6264435e+3, 2.673149e+2, -144106.56, -315863.63, 38649.14, 0.025053378, 0.09706093, -135810.38, 184515.44, 0.0, 10.001601, 9.999257 
2.6260796e+3, 2.77308e+2, -170739.25, -427565.63, 27892.006, -0.03418367, 0.09647618, -167745.02, 54653.7, 0.0, 10.00123, 9.998084 
2.6257154e+3, 2.8730163e+2, 11279.631, -93302.95, -65547.164, 0.07774995, 0.23500991, 42838.266, 167298.38, 0.0, 10.001146, 9.999648 
2.625351e+3, 2.9729518e+2, -120699.48, -371437.28, -70996.266, 0.29634017, 0.24302442, -101992.59, -75473.02, 0.0, 10.000554, 9.997461 
2.6249838e+3, 3.0728114e+2, -132578.38, -510054.25, -2310.4731, 0.2383873, -0.14080127, -132564.23, -132564.23, 0.0, 10.000969, 9.995912 
2.624615e+3, 3.1727678e+2, 284094.97, 581099.56, 33206.516, -0.0136813745, 0.39268845, 584766.9, 584766.9, 0.0, 9.999736, 10.004045 
2.641551e+3, 1.2779626e+2, -1887520.0, -1851928.0, 122982.0, -0.11130758, 0.5282628, -1745461.1, -57848.586, 0.10017185, 9.999032, 9.999287 
2.6411915e+3, 1.3778701e+2, -1805200.6, -1995938.6, 16087.343, -0.09709511, 0.19819468, -1803853.4, -214145.81, 0.06469282, 9.9999075, 9.997354 
2.6408258e+3, 1.4777954e+2, -1523774.4, -1659125.1, -191858.38, -0.025663227, 0.31523788, -1388005.4, 103773.484, 0.032530583, 10.000598, 9.998557 
2.6404586e+3, 1.5777153e+2, -1573373.0, -1823863.6, -179491.6, 0.0696518, 0.23224398, -1479749.4, -85896.52, 0.011066901, 10.000242, 9.997043 
2.6400924e+3, 1.6776243e+2, -1186964.4, -1298167.3, -61806.453, 0.05804457, 0.13142413, -1159430.0, 136506.94, 0.0019930317, 10.001111, 9.999445 
2.6397267e+3, 1.7775309e+2, -1285712.6, -1572716.1, -62088.64, 0.020399228, -0.13890342, -1272856.6, -74832.57, 0.00010503105, 10.0008, 9.997169 
2.6393622e+3, 1.8774654e+2, -1126517.0, -1358864.9, -60183.656, 0.11005194, 0.121614285, -1111853.4, -11762.182, 0.00000008640195, 10.001123, 9.997598 
2.6389977e+3, 1.9774032e+2, -1255956.4, -1598817.4, -69110.875, 0.21888715, 0.3267778, -1242549.9, -240392.16, 0.0, 10.000333, 9.9958315 
2.6386315e+3, 2.0773022e+2, -880407.0, -1106120.8, -44335.938, 0.09608643, 0.27092654, -872010.6, 32244.39, 0.0, 10.0012245, 9.998038 
2.6382655e+3, 2.1771875e+2, -971946.7, -1276341.6, -47278.754, -0.08278583, -0.09228177, -964772.44, -158409.44, 0.0, 10.000533, 9.996642 
2.6379025e+3, 2.2771038e+2, -614697.06, -759121.9, 20867.584, -0.033637524, -0.0757321, -611742.44, 96699.04, 0.0, 10.0012665, 9.9990015 
2.637541e+3, 2.3770295e+2, -806612.4, -1085259.5, 5277.5903, 0.09573345, -0.117897026, -806512.44, -196000.48, 0.0, 10.000314, 9.996689 
2.6371732e+3, 2.4769472e+2, -564497.06, -829713.7, -189701.25, 0.0836515, 0.033144526, -465650.16, 46948.242, 0.0, 10.001114, 9.9972515 
2.636803e+3, 2.5768593e+2, -663660.25, -952739.94, -142851.39, -0.015794965, 0.011213443, -604980.3, -190287.9, 0.0, 10.000116, 9.996353 
2.6364386e+3, 2.6767918e+2, -223980.39, -252195.81, 21398.299, 0.0038467585, 0.14289537, -212457.75, 104303.445, 0.0, 10.000741, 10.000058 
2.6360753e+3, 2.7767307e+2, -350775.8, -507014.2, 28734.502, 0.0358887, 0.12407693, -345658.72, -126835.766, 0.0, 10.000078, 9.998085 
2.6357096e+3, 2.8766683e+2, -112664.086, -172900.67, -89157.44, 0.0387854, 0.29214495, -48675.207, 72210.94, 0.0, 10.000474, 9.999394 
2.6353422e+3, 2.9766053e+2, -234629.73, -410571.2, -64479.5, -0.057950098, 0.31738245, -213529.58, -190579.75, 0.0, 9.99978, 9.997563 
2.634976e+3, 3.0765226e+2, 6862.7637, -183534.77, -1892.4459, -0.06759766, 0.345841, 6881.572, 6881.572, 0.0, 10.000894, 9.998144 
2.6346081e+3, 3.1764406e+2, 170305.02, 301992.53, 135381.77, -0.2035782, 0.29204074, 386693.2, 386693.2, 0.0, 9.999992, 10.001979 
2.6515457e+3, 1.2815195e+2, -1615837.1, -1613199.3, -77174.57, -0.17773256, 0.17266132, -1537332.4, 146791.66, 0.08643013, 10.000307, 10.000423 
2.6511857e+3, 1.3814615e+2, -1790668.4, -1876325.8, -89076.61, -0.03935639, 0.11778184, -1734659.1, -148476.83, 0.055199515, 9.999326, 9.998545 
2.65082e+3, 1.4813952e+2, -1604102.8, -1635415.4, -250320.84, 0.013037746, 0.21643655, -1368949.1, 119299.055, 0.027235242, 9.999663, 9.999222 
2.6504532e+3, 1.5813163e+2, -1507799.1, -1720302.0, -181206.13, 0.060945317, 0.10081663, -1403991.0, -13665.142, 0.0089680515, 10.000239, 9.997788 
2.6500878e+3, 1.6812396e+2, -1105600.6, -1275500.6, -93486.195, 0.052753408, 0.11658072, -1064232.9, 228165.69, 0.0015322798, 10.001744, 9.999296 
2.649723e+3, 1.7811605e+2, -949613.9, -1362201.8, -127154.06, -0.018791622, 0.02373385, -913574.7, 280898.06, 0.00007382683, 10.002779, 9.997692 
2.649358e+3, 1.8810871e+2, -786595.1, -1115676.3, -144012.8, 0.048198216, 0.13068855, -732473.2, 364070.47, 0.000000036839044, 10.003032, 9.998409 
2.648993e+3, 1.9810148e+2, -834980.9, -1327703.9, -101507.43, 0.124085486, 0.19267331, -814888.3, 183726.86, 0.0, 10.002776, 9.996558 
2.6486275e+3, 2.0809154e+2, -723304.7, -1182582.8, -111061.06, 0.08527169, 0.19501692, -697858.1, 202856.6, 0.0, 10.002816, 9.996794 
2.6482618e+3, 2.1808073e+2, -688841.3, -1152785.9, -136667.02, -0.02267431, 0.029246768, -651575.8, 151246.5, 0.0, 10.002371, 9.99664 
2.6478988e+3, 2.2807333e+2, -456686.16, -591506.2, -97107.99, 0.025382986, 0.06590515, -405884.2, 299008.47, 0.0, 10.001841, 9.999947 
2.6475358e+3, 2.3806679e+2, -559239.2, -823415.7, -137476.02, 0.12907708, 0.046179183, -500678.63, 106275.09, 0.0, 10.001216, 9.998113 
2.6471674e+3, 2.4805894e+2, -547142.2, -744416.56, -251031.8, 0.07983563, 0.11825047, -376064.22, 132970.39, 0.0, 10.000763, 9.998071 
2.646797e+3, 2.5805053e+2, -553275.1, -789641.7, -116997.1, -0.00423878, 0.09729991, -505158.66, -94035.22, 0.0, 10.0001955, 9.997493 
2.6464325e+3, 2.6804453e+2, -240830.27, -206456.22, 73892.92, 0.013009858, 0.21470183, -147777.86, 165406.08, 0.0, 10.000283, 10.000619 
2.6460704e+3, 2.7803907e+2, -256920.89, -364568.7, 34857.348, 0.13909425, 0.24055773, -246619.55, -31382.365, 0.0, 10.00014, 9.9990635 
2.6457044e+3, 2.880322e+2, -105965.78, -133717.3, -34665.43, 0.118128195, 0.27431768, -82502.17, 34803.805, 0.0, 10.000257, 9.999792 
2.6453355e+3, 2.980252e+2, -171921.75, -289377.6, 16751.172, -0.057761844, 0.2227735, -169579.45, -150202.88, 0.0, 9.999696, 9.998442 
2.6449695e+3, 3.080199e+2, 43017.027, -10084.035, 47736.168, -0.116173945, 0.43328732, 71089.5, 71089.5, 0.0, 10.000386, 9.999611 
2.6446053e+3, 3.1800827e+2, 192791.83, 244558.42, 52501.58, 0.06269456, -0.06844088, 277210.25, 277210.25, 0.0, 10.000266, 10.001501 
2.661542e+3, 1.285093e+2, -1455767.0, -1454119.1, -13389.677, -0.048618823, -0.037001356, -1441528.0, 239092.14, 0.073999934, 10.001259, 10.001012 
2.6611808e+3, 1.385058e+2, -1720872.6, -1852305.3, -115704.68, 0.107550554, 0.035153084, -1653524.3, -70871.53, 0.04671151, 9.999957, 9.998357 
2.6608145e+3, 1.484998e+2, -1426879.3, -1448235.8, -203989.88, 0.09826729, 0.16101144, -1233288.3, 251426.94, 0.022592498, 10.000642, 9.999988 
2.6604477e+3, 1.5849239e+2, -1477924.3, -1705016.9, -176523.22, 0.13079098, 0.019254956, -1381582.0, 5210.6865, 0.0071954923, 10.000592, 9.997713 
2.6600838e+3, 1.6848561e+2, -1194528.6, -1375846.0, -59135.926, 0.12333119, 0.1572962, -1176946.6, 111912.91, 0.001170623, 10.001472, 9.998699 
2.65972e+3, 1.7847894e+2, -1276057.3, -1567608.4, -125751.17, 0.092648774, 0.22139484, -1229313.0, -38389.13, 0.00005271245, 10.000914, 9.997144 
2.6593542e+3, 1.8847033e+2, -869763.4, -1052119.6, -163850.4, 0.035853904, 0.14713988, -773430.44, 319572.28, 0.000000014947995, 10.0021, 9.99926 
2.6589882e+3, 1.9846135e+2, -1088815.4, -1498984.1, -130488.7, 0.021611465, -0.046650033, -1050821.8, -55736.477, 0.0, 10.001389, 9.996042 
2.6586232e+3, 2.084522e+2, -940601.75, -1385030.8, -99761.71, 0.041440915, 0.10673105, -919235.3, -22054.18, 0.0, 10.001987, 9.99567 
2.6582584e+3, 2.1844292e+2, -1079404.6, -1469131.9, -85116.6, 0.055044405, 0.1806813, -1061626.1, -262345.2, 0.0, 10.000474, 9.995303 
2.6578945e+3, 2.2843683e+2, -570963.9, -564691.2, -60012.332, 0.09533591, 0.34732008, -507733.28, 193609.02, 0.0, 10.000876, 10.000484 
2.657531e+3, 2.384314e+2, -831068.2, -911950.44, -140297.1, 0.13526002, 0.3558479, -725499.9, -122104.984, 0.0, 9.999345, 9.998357 
2.6571614e+3, 2.4842405e+2, -537984.06, -547524.56, -270643.78, 0.06803636, 0.35393012, -272068.47, 233397.8, 0.0, 10.00012, 9.999676 
2.6567903e+3, 2.5841612e+2, -701881.44, -782917.44, -112210.86, -0.06925161, 0.20335752, -623097.4, -215553.34, 0.0, 9.999006, 9.998071 
2.656426e+3, 2.684109e+2, -337466.0, -204805.14, 74481.266, -0.039710343, 0.3501952, -171400.0, 138194.83, 0.0, 9.999602, 10.000864 
2.6560643e+3, 2.7840593e+2, -443176.75, -443536.38, 50461.086, 0.0694571, 0.38015735, -392895.16, -181252.81, 0.0, 9.998985, 9.999027 
2.6556987e+3, 2.883978e+2, -117476.65, -21112.385, -49715.016, 0.15451783, 0.21310768, -62.295197, 113656.71, 0.0, 9.99983, 10.000687 
2.6553306e+3, 2.9838935e+2, -285637.9, -342061.63, 35334.793, 0.013768376, -0.07397799, -268634.1, -252835.19, 0.0, 9.999057, 9.99835 
2.6549637e+3, 3.0838344e+2, -23970.805, -61491.82, 52547.258, -0.0955187, 0.083241805, 13064.483, 13064.483, 0.0, 10.000094, 9.99934 
2.6546013e+3, 3.1837773e+2, -140569.3, -240731.44, -5596.628, 0.18433118, 0.20779051, -140257.55, -140257.55, 0.0, 9.999475, 9.998518 
2.67154e+3, 1.2887356e+2, -1301218.1, -1424035.6, -99274.36, -0.014235821, 0.110536516, -1245894.6, 431158.6, 0.062782116, 10.002477, 10.000699 
2.6711747e+3, 1.3886677e+2, -1549432.5, -1765790.4, -99358.73, -0.0007620471, -0.045560896, -1510727.6, 68387.41, 0.039146993, 10.001035, 9.99849 
2.670809e+3, 1.4886199e+2, -1281143.0, -1390989.0, -146560.23, 0.035213087, 0.20370707, -1179552.6, 301615.22, 0.018543638, 10.001694, 9.999887 
2.6704437e+3, 1.5885687e+2, -1213713.0, -1569248.9, -124666.09, 0.094330445, 0.33895192, -1174356.4, 208869.63, 0.005710664, 10.002274, 9.99786 
2.67008e+3, 1.6884837e+2, -1115203.9, -1396125.5, -75580.62, 0.1713512, 0.31981024, -1096160.3, 189150.94, 0.0008890518, 10.002125, 9.998281 
2.6697165e+3, 1.7883936e+2, -1188676.5, -1499008.6, -110879.07, 0.19286323, 0.20127879, -1153131.6, 34267.59, 0.000037964888, 10.001223, 9.997483 
2.6693502e+3, 1.888316e+2, -849227.56, -1012443.25, -139243.25, 0.047770757, 0.17565833, -769439.9, 320031.16, 0.0000000057994387, 10.00196, 9.999664 
2.668983e+3, 1.9882388e+2, -800295.0, -1173477.9, -129581.68, -0.09744625, 0.07309024, -759713.0, 231828.63, 0.0, 10.002389, 9.997829 
2.6686186e+3, 2.0881577e+2, -698270.44, -986131.0, -36419.625, -0.013835225, 0.104598425, -693734.2, 199885.27, 0.0, 10.002396, 9.998255 
2.668254e+3, 2.1880734e+2, -705715.25, -1103536.1, 78189.734, 0.08889705, 0.082728334, -690899.25, 104803.38, 0.0, 10.002041, 9.997118 
2.667889e+3, 2.2880079e+2, -614037.6, -741518.7, 74814.336, 0.06490269, 0.24742632, -579492.6, 118280.28, 0.0, 10.001092, 9.999247 
2.6675233e+3, 2.387947e+2, -687256.3, -848603.06, -54051.215, 0.036042817, 0.34294623, -670822.9, -70984.23, 0.0, 10.000165, 9.998448 
2.667155e+3, 2.4878761e+2, -272089.63, -324840.34, -175223.28, 0.008228815, 0.30760086, -121267.76, 380637.97, 0.0, 10.001422, 10.000625 
2.6667854e+3, 2.5878036e+2, -75674.414, -358577.34, -92608.664, -0.03140824, 0.16271281, -48055.242, 355917.66, 0.0, 10.002623, 9.999274 
2.6664206e+3, 2.6877514e+2, -177141.69, -165387.48, 7558.493, 0.03714771, 0.28345364, -161690.08, 144334.2, 0.0, 10.000714, 10.000679 
2.6660576e+3, 2.7877012e+2, -554690.9, -435294.8, -37196.54, 0.20821713, 0.33735004, -424654.8, -216580.25, 0.0, 9.99781, 9.999701 
2.6656923e+3, 2.887628e+2, -266172.97, -40101.36, -86482.61, 0.2340787, 0.18633221, -10812.414, 99330.48, 0.0, 9.998429, 10.001331 
2.6653242e+3, 2.9875505e+2, -192708.11, -211190.05, -36542.01, 0.11396572, -0.07002902, -164256.7, -152041.5, 0.0, 9.999146, 9.999276 
2.6649576e+3, 3.0874935e+2, 150188.23, 75538.54, 38643.617, -0.13419472, 0.033544425, 166589.3, 166589.3, 0.0, 10.0010395, 9.999842 
2.664597e+3, 3.1874734e+2, 90406.45, -188025.5, -119395.77, 0.3490828, 0.53863204, 134592.88, 134592.88, 0.0, 10.001171, 9.998105 
2.6815373e+3, 1.2923756e+2, -1828213.3, -1657010.8, -116886.06, 0.17439182, 0.30846497, -1597733.0, 75756.27, 0.05267765, 9.998735, 10.00077 
2.68117e+3, 1.3922845e+2, -1537588.1, -1803855.3, -109289.59, 0.031503644, -0.12595743, -1498475.5, 77095.164, 0.03242507, 10.001436, 9.997972 
2.680804e+3, 1.4922474e+2, -1300427.8, -1444621.9, -89823.5, 0.016125577, 0.25257218, -1257345.6, 220269.48, 0.015032841, 10.001795, 9.999377 
2.6804394e+3, 1.5922116e+2, -1535299.6, -1815440.0, -98356.34, 0.11098818, 0.5723498, -1504216.0, -124555.22, 0.0044764117, 10.000566, 9.996951 
2.680076e+3, 1.6921124e+2, -1308190.3, -1478889.1, -32268.29, 0.23566455, 0.44263825, -1302294.1, -20533.871, 0.00066900725, 10.000948, 9.998207 
2.6797128e+3, 1.7920049e+2, -1432212.3, -1649406.6, -24279.172, 0.3316136, 0.15694378, -1429531.3, -245665.47, 0.000027210404, 9.999856, 9.997087 
2.6793456e+3, 1.8919407e+2, -998016.94, -1048887.5, -18513.252, 0.07810449, 0.2531591, -991992.8, 93934.87, 0.000000001728097, 10.000918, 9.999862 
2.678978e+3, 1.991884e+2, -1074926.0, -1217328.9, -52849.4, -0.17642143, 0.3185968, -1057455.5, -69475.15, 0.0, 10.000284, 9.998508 
2.678614e+3, 2.0918083e+2, -624322.1, -608692.6, -23220.805, -0.044925272, 0.16092823, -592006.9, 298035.63, 0.0, 10.001503, 10.001229 
2.6782498e+3, 2.1917287e+2, -928364.4, -1147375.3, 33072.176, 0.124688454, -0.08207833, -923479.2, -131369.8, 0.0, 10.000369, 9.997612 
2.6778826e+3, 2.2916526e+2, -833018.56, -1045013.25, 23054.316, -0.00001471888, 0.059304483, -830540.4, -136346.14, 0.0, 10.000518, 9.997394 
2.6775154e+3, 2.3915792e+2, -1078408.0, -1224479.5, -33449.543, -0.14948116, 0.1902427, -1071112.6, -474833.38, 0.0, 9.998437, 9.996678 
2.6771486e+3, 2.491509e+2, -415964.13, -331865.53, -85567.51, -0.110964485, 0.16858335, -278573.66, 219770.45, 0.0, 10.00033, 10.000991 
2.6767814e+3, 2.5914416e+2, -452480.56, -605021.75, -69093.48, -0.061450444, 0.021374013, -425838.03, -25433.979, 0.0, 10.000465, 9.998579 
2.6764154e+3, 2.6913834e+2, -332937.63, -314649.06, -101874.695, 0.108736984, 0.13948947, -221509.08, 80954.016, 0.0, 10.000059, 9.999918 
2.6760507e+3, 2.791327e+2, -712279.6, -604624.0, -82836.57, 0.29353473, 0.18761657, -559662.5, -355140.22, 0.0, 9.997218, 9.9988165 
2.675684e+3, 2.8912744e+2, -280565.06, -4760.641, -58788.25, 0.22575128, 0.22830197, 7247.3813, 113821.85, 0.0, 9.998216, 10.001634 
2.6753163e+3, 2.9912242e+2, -277725.4, -219350.69, 14373.991, -0.030147707, 0.19612998, -216003.25, -207379.9, 0.0, 9.998512, 9.9995165 
2.674951e+3, 3.0911788e+2, 206825.69, 211575.1, 95897.36, -0.2721881, 0.32057056, 305127.16, 305127.16, 0.0, 10.001018, 10.00077 
2.6745903e+3, 3.1911016e+2, 101148.72, -6451.081, -134826.27, 0.05200449, 0.15468583, 192512.7, 192512.7, 0.0, 10.000621, 9.999596 
2.6915297e+3, 1.2959856e+2, -1809572.5, -1445259.0, -6884.776, 0.09568381, 0.25189874, -1445129.0, 224827.92, 0.043619167, 9.997859, 10.002686 
2.6911676e+3, 1.3959171e+2, -1299831.6, -1555217.6, -13565.541, 0.09048226, -0.11185826, -1299113.1, 272897.53, 0.02648621, 10.002406, 9.999247 
2.6907998e+3, 1.4958687e+2, -1262817.1, -1482588.0, -112629.15, -0.009599202, 0.15395579, -1215349.0, 258717.38, 0.012009438, 10.002171, 9.999004 
2.690433e+3, 1.59582e+2, -1420049.0, -1642780.8, -82468.2, -0.024932945, 0.37643713, -1392838.8, -16713.813, 0.003455713, 10.000665, 9.998136 
2.6900697e+3, 1.6957481e+2, -1166595.9, -1197926.3, 54086.707, 0.13926984, 0.33822012, -1125951.5, 152242.95, 0.00049606664, 10.000817, 10.000291 
2.6897064e+3, 1.7956726e+2, -1197828.5, -1387777.1, 126722.55, 0.23681055, 0.2140545, -1134440.1, 45826.0, 0.00001910138, 10.000636, 9.99856 
2.6893404e+3, 1.8956077e+2, -1004140.94, -1086344.3, 114993.12, 0.10831985, 0.29391387, -923124.75, 159207.08, 0.0000000002885943, 10.000847, 9.999719 
2.688974e+3, 1.9955477e+2, -973728.3, -1117983.0, 89863.58, -0.054213215, 0.36245894, -930626.2, 53765.74, 0.0, 10.000583, 9.999085 
2.68861e+3, 2.0954737e+2, -589619.7, -582764.75, 70609.03, 0.030045953, 0.20404758, -515500.06, 370953.53, 0.0, 10.001565, 10.001431 
2.6882455e+3, 2.1953975e+2, -562126.44, -872016.0, 14909.117, 0.14164776, -0.014069382, -561410.8, 227106.5, 0.0, 10.002293, 9.998603 
2.687878e+3, 2.2953267e+2, -630418.8, -879640.3, 13850.201, 0.058947984, 0.11329253, -629651.44, 60943.215, 0.0, 10.001471, 9.998172 
2.6875097e+3, 2.3952588e+2, -720133.6, -911447.2, 67572.16, -0.038977057, 0.256737, -698674.1, -106002.56, 0.0, 10.0001135, 9.998078 
2.6871422e+3, 2.4951896e+2, -516046.44, -397471.28, 65755.04, -0.06722637, 0.21563873, -368222.2, 126512.6, 0.0, 9.999573, 10.000998 
2.686775e+3, 2.595118e+2, -599393.1, -676683.75, 54156.69, -0.04144508, 0.08519589, -571507.2, -174708.39, 0.0, 9.999291, 9.9987 
2.6864102e+3, 2.695041e+2, -243409.2, -380278.13, 1282.6838, 0.14801988, 0.087346986, -243397.19, 55480.766, 0.0, 10.001035, 9.99906 
2.686045e+3, 2.7949682e+2, 29487.455, -243563.44, -6451.38, 0.3672378, 0.08510542, 29639.797, 230593.84, 0.0, 10.002185, 9.998917 
2.685677e+3, 2.8949308e+2, 148358.63, 216522.42, 7315.851, 0.17673141, 0.26050988, 217298.78, 320291.4, 0.0, 10.001026, 10.00182 
2.6853088e+3, 2.9948968e+2, -193640.48, -147266.64, 78123.336, -0.06806324, 0.4048213, -88961.914, -83935.56, 0.0, 9.998852, 9.999858 
2.6849473e+3, 3.0948344e+2, -38785.676, 113138.14, 129317.18, -0.011763191, 0.33329767, 187153.38, 187153.38, 0.0, 9.999185, 10.000995 
2.684584e+3, 3.194734e+2, 53963.18, 66532.86, -231931.66, 0.0041429317, -0.085149, 292264.8, 292264.8, 0.0, 9.999817, 10.000476 
2.701524e+3, 1.2996112e+2, -1273291.4, -1111651.5, 240507.14, 0.16734527, 0.23261002, -938748.06, 727659.3, 0.03555016, 10.001481, 10.00322 
2.7011642e+3, 1.3995631e+2, -1603277.0, -1730396.0, -8728.24, 0.20493795, 0.013428336, -1602680.5, -34240.367, 0.021269776, 10.000466, 9.998964 
2.7007955e+3, 1.4994995e+2, -1466629.4, -1577128.3, -149384.0, 0.036599386, 0.11668351, -1362605.3, 107904.664, 0.009415533, 10.000819, 9.998977 
2.7004275e+3, 1.5994342e+2, -1560492.3, -1655653.9, -78503.43, -0.01398182, 0.1653714, -1516275.9, -143692.84, 0.0026134893, 9.999586, 9.99855 
2.7000636e+3, 1.6993904e+2, -1060352.3, -910704.2, 28358.848, 0.073648214, 0.231464, -905510.4, 369110.9, 0.0003600524, 10.000654, 10.002263 
2.6996997e+3, 1.7993471e+2, -1322272.8, -1401905.9, 57172.105, 0.15151994, 0.25924295, -1292418.6, -115760.055, 0.000012952271, 9.999751, 9.998846 
2.6993352e+3, 1.8992819e+2, -1098609.1, -1144866.0, 49513.19, 0.16774178, 0.32073435, -1067088.9, 11638.615, 0.000000000007316074, 10.000459, 9.999406 
2.6989704e+3, 1.9992152e+2, -1262980.1, -1359345.6, 49457.117, 0.15997903, 0.35606325, -1242115.1, -261317.61, 0.0, 9.99918, 9.998091 
2.6986057e+3, 2.0991434e+2, -838703.5, -766124.9, 51756.69, 0.14130363, 0.26109287, -739202.9, 143658.42, 0.0, 10.000243, 10.000757 
2.6982412e+3, 2.1990722e+2, -1021219.6, -1130068.3, -26617.025, 0.13233612, 0.13986702, -1015059.5, -230135.78, 0.0, 9.999491, 9.998137 
2.6978734e+3, 2.2990157e+2, -720640.9, -725322.6, -65080.934, 0.14994466, 0.27460805, -657858.7, 29123.957, 0.0, 10.00022, 9.9997015 
2.697505e+3, 2.3989618e+2, -962888.4, -1024569.2, 4957.797, 0.13303098, 0.41518763, -962492.44, -373452.56, 0.0, 9.998595, 9.997991 
2.697136e+3, 2.4988922e+2, -578690.3, -466840.2, -3184.3428, 0.00866141, 0.37420386, -466749.63, 24353.906, 0.0, 9.999422, 10.000526 
2.6967677e+3, 2.5988168e+2, -888769.1, -974211.5, 34399.785, -0.09577077, 0.24727029, -876641.0, -483468.4, 0.0, 9.998162, 9.997157 
2.6964042e+3, 2.698716e+2, -416237.66, -566763.2, 54598.688, 0.108198464, 0.110519096, -398519.22, -103243.4, 0.0, 10.000441, 9.99798 
2.6960403e+3, 2.7986243e+2, -217659.28, -447007.9, 7331.7476, 0.26246572, -0.010473271, -217425.14, -20054.414, 0.0, 10.001009, 9.998055 
2.69567e+3, 2.8986007e+2, 74161.38, 202387.64, -66821.805, 0.023293227, 0.31591132, 230879.3, 330273.25, 0.0, 10.000589, 10.001874 
2.6953003e+3, 2.998574e+2, -364639.63, -319225.0, 69251.19, -0.24812177, 0.55076087, -269053.3, -267634.22, 0.0, 9.998196, 9.998979 
2.6949447e+3, 3.0984607e+2, -141181.64, -29127.518, 156858.5, 0.4419463, 0.03937544, 81409.58, 81409.58, 0.0, 9.998956, 10.000121 
2.694576e+3, 3.198411e+2, -110647.6, -222222.78, 35566.156, -0.26539963, 0.23426875, -100274.73, -100274.73, 0.0, 9.99972, 9.998542 
2.7115232e+3, 1.3032733e+2, -1132628.6, -1452206.6, 84990.4, 0.17058255, 0.19891316, -1111431.8, 551386.25, 0.028415078, 10.004135, 9.999583 
2.7111563e+3, 1.4032397e+2, -1642169.4, -1831316.9, -70880.67, -0.10952043, 0.4598007, -1618555.8, -53704.17, 0.016713178, 10.000458, 9.998301 
2.7107897e+3, 1.5031691e+2, -1398578.8, -1380663.4, -110847.35, 0.016400343, 0.39033484, -1278412.4, 188510.88, 0.0071980846, 10.000461, 10.00056 
2.7104238e+3, 1.6030934e+2, -1361258.9, -1447466.6, 6872.204, 0.16643795, 0.2196176, -1360714.4, 8284.847, 0.0019202423, 10.00034, 9.999648 
2.7100587e+3, 1.7030388e+2, -999708.6, -926220.9, 72222.85, 0.09866385, 0.18699919, -881932.4, 389112.9, 0.00025324232, 10.001217, 10.001928 
2.7096933e+3, 1.8029878e+2, -1078754.1, -1265779.8, 10844.245, -0.0049231113, 0.19016151, -1078127.4, 94960.99, 0.000008369746, 10.001219, 9.999097 
2.7093285e+3, 1.9029248e+2, -1061732.8, -1152930.8, -25545.871, 0.07803118, 0.2831293, -1055064.5, 20091.049, 0.0, 10.0007715, 9.999236 
2.708964e+3, 2.0028606e+2, -1115277.6, -1257708.3, -21629.252, 0.16402447, 0.36520076, -1112065.5, -134841.44, 0.0, 9.9999075, 9.998479 
2.7086e+3, 2.1027856e+2, -946201.25, -882779.2, -23671.441, 0.21230043, 0.27054206, -874918.44, 4376.333, 0.0, 9.999596, 10.000375 
2.708235e+3, 2.2027151e+2, -967314.5, -959703.25, -94593.06, 0.21009798, 0.17101565, -868839.25, -87479.7, 0.0, 9.999057, 9.999567 
2.707867e+3, 2.3026639e+2, -647871.75, -548552.8, -114905.266, 0.1447732, 0.22775047, -473035.28, 210371.75, 0.0, 9.999966, 10.001129 
2.7074987e+3, 2.4026114e+2, -555950.2, -754794.06, -67260.23, 0.095028676, 0.28801963, -535336.0, 50120.71, 0.0, 10.000905, 9.998753 
2.7071312e+3, 2.5025338e+2, -328544.28, -486008.78, -118982.16, 0.10864879, 0.2363466, -264603.75, 222928.34, 0.0, 10.001643, 9.999373 
2.706764e+3, 2.6024547e+2, -309563.28, -631945.0, -115211.66, 0.1362991, 0.17076626, -272622.3, 116986.875, 0.0, 10.001752, 9.99778 
2.7063987e+3, 2.7023748e+2, -268678.44, -409048.84, -28998.594, 0.11415125, 0.14440052, -262923.66, 28767.55, 0.0, 10.000954, 9.99887 
2.706033e+3, 2.8022966e+2, -363379.16, -490686.22, -27894.729, 0.1425745, 0.10716689, -357535.28, -163763.06, 0.0, 9.999727, 9.998403 
2.7056637e+3, 2.9022557e+2, 41009.777, 57790.34, -157839.48, -0.016052974, 0.33261418, 207462.39, 303275.06, 0.0, 10.000843, 10.000799 
2.7052948e+3, 3.0022117e+2, 42588.316, -165657.73, -93015.52, -0.14085717, 0.4918131, 78084.39, 78084.39, 0.0, 10.001055, 9.998684 
2.7049398e+3, 3.102096e+2, 64518.02, 29726.248, 8396.75, 0.60899425, -0.012965975, 66438.51, 66438.51, 0.0, 10.000465, 9.999835 
2.7045685e+3, 3.2020834e+2, -568644.4, -486327.34, -71554.85, -0.2336678, 0.6084216, -444938.2, -444938.2, 0.0, 9.996717, 9.998175 
2.7215216e+3, 1.3069455e+2, -1597597.1, -1940202.3, 65562.36, 0.23720929, 0.22529341, -1585479.5, 73738.7, 0.02219124, 10.002216, 9.997036 
2.7211496e+3, 1.4069125e+2, -1622474.0, -1945056.5, 23445.36, -0.19525225, 0.70876443, -1620778.9, -59517.55, 0.01278431, 10.001204, 9.997158 
2.7207845e+3, 1.5068425e+2, -1186807.5, -1144436.8, -11450.046, 0.07719673, 0.5788481, -1141540.5, 321788.78, 0.00532732, 10.00149, 10.001638 
2.7204204e+3, 1.6067642e+2, -1420664.0, -1491167.4, 47820.97, 0.41021073, 0.31204367, -1396505.9, -31103.39, 0.0013580795, 10.000179, 9.9994 
2.720054e+3, 1.7066938e+2, -1069342.4, -1041889.25, 103152.42, 0.1981961, 0.1652443, -951554.06, 315908.53, 0.00016970174, 10.001228, 10.001079 
2.719688e+3, 1.8066286e+2, -1289862.6, -1491610.8, 19494.842, -0.039618, 0.12053928, -1287996.1, -118476.93, 0.0000049540654, 10.000431, 9.997916 
2.719322e+3, 1.906565e+2, -1050264.9, -1164841.8, -26482.904, 0.0065669343, 0.22528857, -1044439.8, 27146.635, 0.0, 10.000987, 9.998996 
2.7189577e+3, 2.0065e+2, -1295697.1, -1443974.5, 1755.8759, 0.14380497, 0.33738667, -1295676.4, -322020.8, 0.0, 9.99928, 9.997448 
2.7185938e+3, 2.1064253e+2, -991901.44, -914566.25, -1129.4429, 0.28595424, 0.26933253, -914549.75, -38820.117, 0.0, 9.999561, 10.000054 
2.718229e+3, 2.2063547e+2, -1171685.3, -1073074.1, -48500.39, 0.34814534, 0.18878515, -1053218.0, -275420.66, 0.0, 9.997891, 9.999327 
2.7178597e+3, 2.3062997e+2, -605744.25, -387755.63, -61478.336, 0.11880495, 0.09971347, -371612.63, 308229.44, 0.0, 9.999793, 10.002249 
2.717491e+3, 2.4062423e+2, -883112.9, -1018098.44, -43400.24, -0.07339129, 0.05136596, -870363.2, -288472.4, 0.0, 9.999329, 9.997648 
2.7171272e+3, 2.5061515e+2, -546523.4, -747484.0, -82451.92, 0.18726616, -0.020703243, -517024.4, -33039.715, 0.0, 10.000971, 9.997821 
2.716762e+3, 2.6060674e+2, -556173.7, -788669.1, -105641.05, 0.3732266, -0.024802657, -515343.2, -129270.74, 0.0, 10.000333, 9.997399 
2.716393e+3, 2.7060297e+2, -230678.06, -172012.77, -67566.77, 0.07214385, 0.21651459, -127686.25, 160425.58, 0.0, 10.0004015, 10.000728 
2.7160236e+3, 2.8059852e+2, -574360.1, -688656.8, -39811.242, -0.1934113, 0.40525654, -561860.25, -371702.44, 0.0, 9.998805, 9.997483 
2.7156574e+3, 2.9058957e+2, -187104.7, -310651.5, -124799.21, -0.09662211, 0.3150721, -109627.26, -17378.885, 0.0, 10.000441, 9.998431 
2.7152908e+3, 3.005811e+2, -150255.3, -399518.06, -99302.64, -0.11217462, 0.26552013, -115531.74, -115531.74, 0.0, 10.00043, 9.997355 
2.7149314e+3, 3.1057414e+2, 28334.402, 46385.316, -55749.3, 0.33773467, 0.20969543, 93835.016, 93835.016, 0.0, 10.00013, 10.000055 
2.7145615e+3, 3.2056996e+2, -686567.25, -546181.2, -325147.78, -0.086024836, 0.51466686, -283736.1, -283736.1, 0.0, 9.996046, 9.998031 
2.731515e+3, 1.3106379e+2, -1408623.5, -1618183.8, 44837.33, -0.1716683, 0.2629735, -1399433.3, 256160.47, 0.016854309, 10.002435, 9.999156 
2.7311495e+3, 1.4105527e+2, -1311693.6, -1772418.9, 109681.9, 0.041706458, 0.09117747, -1286915.0, 270762.4, 0.009467287, 10.003151, 9.997424 
2.7307808e+3, 1.5104975e+2, -1126688.4, -1300902.0, 37208.65, 0.076007634, 0.25381795, -1119074.1, 340660.8, 0.0037924994, 10.002678, 9.999986 
2.7304137e+3, 1.610438e+2, -1230770.0, -1464948.6, 78954.96, 0.16740182, 0.325586, -1206636.9, 155158.1, 0.0009170214, 10.001668, 9.99886 
2.7300504e+3, 1.7103638e+2, -974743.94, -1067522.5, 151803.1, 0.2170659, 0.21449506, -862400.3, 401461.97, 0.0001065257, 10.002043, 10.000568 
2.729686e+3, 1.8102928e+2, -999429.25, -1274797.9, 64466.45, 0.17039424, 0.14759974, -985084.3, 180842.75, 0.0000025959862, 10.00196, 9.998687 
2.729318e+3, 1.9102213e+2, -801172.5, -980141.1, 42597.59, 0.035515293, 0.13138294, -791550.8, 276448.5, 0.0, 10.002294, 9.999714 
2.7289513e+3, 2.0101526e+2, -824917.56, -1101043.6, 75294.0, -0.020386912, 0.15718158, -805721.0, 164348.53, 0.0, 10.001881, 9.99856 
2.7285877e+3, 2.1100897e+2, -698337.2, -786721.0, 91578.36, 0.22002068, 0.21008323, -640845.7, 231287.84, 0.0, 10.001533, 10.000047 
2.7282235e+3, 2.2100274e+2, -655464.6, -820510.56, 71750.34, 0.3907662, 0.25436136, -628634.25, 145561.1, 0.0, 10.0012455, 9.999464 
2.727855e+3, 2.3099571e+2, -402409.5, -401854.72, -3447.654, 0.19387595, 0.10004901, -398673.3, 277584.6, 0.0, 10.001538, 10.001351 
2.727487e+3, 2.4098893e+2, -501179.4, -796181.25, -53005.234, 0.032816168, 0.019224845, -491944.63, 86375.086, 0.0, 10.001626, 9.998086 
2.7271217e+3, 2.5098112e+2, -360046.63, -638648.5, -20879.639, 0.1376403, 0.0656507, -358490.5, 121912.664, 0.0, 10.002047, 9.998119 
2.726756e+3, 2.6097372e+2, -243539.63, -557865.06, -19053.705, 0.2534242, 0.15294819, -242388.84, 140093.56, 0.0, 10.002004, 9.998189 
2.7263868e+3, 2.7096897e+2, -114432.875, -133868.17, -82852.61, 0.03820453, 0.3090036, -40729.984, 243800.11, 0.0, 10.001189, 10.000653 
2.7260178e+3, 2.8096384e+2, -336058.94, -488334.53, -81037.65, -0.098791175, 0.43537316, -301002.9, -114422.414, 0.0, 9.99995, 9.998328 
2.7256522e+3, 2.909545e+2, -183180.75, -267401.75, -8371.722, 0.0042126505, 0.25832832, -182356.66, -93685.41, 0.0, 10.000161, 9.99891 
2.7252856e+3, 3.0094567e+2, -245117.72, -391747.03, 136145.66, 0.016342184, 0.16043818, -163801.6, -163801.6, 0.0, 9.999448, 9.997894 
2.724922e+3, 3.1093985e+2, -187035.58, -98095.8, 126448.47, 0.09227811, 0.24501789, -8525.442, -8525.442, 0.0, 9.998674, 9.99985 
2.7245536e+3, 3.2093453e+2, -244983.47, -41749.55, -297775.7, 0.10568954, 0.42612034, 171270.38, 171270.38, 0.0, 9.997568, 10.000859 
2.74151e+3, 1.3143194e+2, -1623184.0, -1476546.0, 10230.559, -0.21747102, 0.31657, -1475835.6, 176147.47, 0.012358647, 10.000061, 10.001181 
2.741149e+3, 1.4141966e+2, -1596271.9, -1960846.3, -92090.15, 0.34961808, -0.38085097, -1574330.8, -20238.408, 0.0067449408, 10.001526, 9.996848 
2.7407768e+3, 1.5141529e+2, -1258182.1, -1530787.6, -120178.54, 0.08138323, -0.02799928, -1212767.1, 243374.52, 0.0025850076, 10.00251, 9.9984455 
2.7404076e+3, 1.6141085e+2, -1370285.4, -1659665.5, 8914.47, -0.00568551, 0.32423076, -1370011.0, -11820.16, 0.0005889778, 10.00135, 9.997651 
2.7400464e+3, 1.7140344e+2, -1078153.6, -1164472.3, 113604.39, 0.28009573, 0.23423837, -999786.44, 260474.8, 0.00006228534, 10.001598, 10.000086 
2.739684e+3, 1.8139593e+2, -1277657.5, -1448124.9, 33844.043, 0.43155566, 0.17842554, -1271184.1, -108851.7, 0.0000011486238, 10.000371, 9.998224 
2.739314e+3, 1.913884e+2, -901488.7, -937747.1, -1308.8171, 0.08767363, 0.03775421, -901441.5, 162964.42, 0.0, 10.001381, 10.00034 
2.7389452e+3, 2.0138156e+2, -1060346.1, -1236518.3, 8716.259, -0.1480365, 0.015282707, -1059915.9, -93442.53, 0.0, 10.000524, 9.998245 
2.7385816e+3, 2.1137634e+2, -817650.6, -853028.0, 34320.55, 0.1300545, 0.14598675, -796728.56, 71798.79, 0.0, 10.000802, 9.999899 
2.7382177e+3, 2.2137073e+2, -1079876.6, -1209330.4, 62336.207, 0.35768777, 0.30900958, -1054740.5, -284155.75, 0.0, 9.999266, 9.997716 
2.737851e+3, 2.313622e+2, -623847.6, -678496.9, 9402.398, 0.29196092, 0.13057195, -622275.2, 50392.543, 0.0, 10.00089, 9.999689 
2.7374834e+3, 2.4135444e+2, -790632.94, -1028500.75, -13778.484, 0.15622579, 0.095594406, -789837.5, -215092.78, 0.0, 10.000176, 9.997163 
2.7371153e+3, 2.513493e+2, -436885.38, -553877.8, 15037.628, -0.0394686, 0.3074536, -434983.44, 41819.42, 0.0, 10.001108, 9.999081 
2.7367473e+3, 2.6134378e+2, -607763.4, -835834.7, -27278.969, -0.18759613, 0.5328187, -604546.0, -225682.53, 0.0, 10.000097, 9.997154 
2.7363804e+3, 2.7133512e+2, -326209.47, -374013.84, -95261.86, -0.040783584, 0.3844371, -251896.9, 29051.586, 0.0, 10.000408, 9.999326 
2.7360135e+3, 2.813269e+2, -448085.3, -479895.75, -67854.16, 0.08563271, 0.27783498, -394297.2, -211270.55, 0.0, 9.999067, 9.9987755 
2.7356476e+3, 2.913207e+2, -51775.164, 100720.29, 12959.865, 0.16096945, 0.1695456, 101813.84, 186892.06, 0.0, 9.999885, 10.001523 
2.7352795e+3, 3.0131456e+2, -333896.16, -414350.06, 104621.07, 0.003715546, 0.16159138, -262034.86, -262034.86, 0.0, 9.998879, 9.9979925 
2.7349097e+3, 3.1130695e+2, -292635.6, -209336.19, 94275.2, -0.3679625, 0.07522674, -147920.33, -147920.33, 0.0, 9.9983425, 9.999169 
2.734545e+3, 3.2130322e+2, 75144.73, 707793.1, -193547.19, 0.014483537, 0.28613424, 762307.9, 762307.9, 0.0, 9.997346, 10.006059 
2.7515075e+3, 1.3179618e+2, -1588034.4, -1447049.9, -19254.51, -0.023159355, 0.3560957, -1444467.5, 203959.22, 0.00868548, 10.000018, 10.001528 
2.7511442e+3, 1.4178701e+2, -1419875.0, -1759449.8, -133327.22, 0.1833075, -0.06278952, -1373783.0, 176716.2, 0.0045926278, 10.002117, 9.997975 
2.7507734e+3, 1.5178087e+2, -1133168.4, -1389813.1, -147307.72, 0.089213945, 0.024896313, -1066129.1, 386433.0, 0.0016782226, 10.002884, 9.999326 
2.7504048e+3, 1.6177471e+2, -1129170.5, -1451655.8, -10510.452, 0.06407866, 0.14184928, -1128828.3, 225796.34, 0.0003582281, 10.002514, 9.998539 
2.750041e+3, 1.7176747e+2, -1053611.4, -1143767.3, 76984.234, 0.17122322, 0.055150177, -1009478.44, 247212.52, 0.000033741435, 10.001699, 10.0002 
2.7496764e+3, 1.8176068e+2, -1201221.5, -1392641.0, 26080.932, 0.18876131, 0.07385861, -1197731.5, -38976.273, 0.00000040337267, 10.000703, 9.998454 
2.749309e+3, 1.9175443e+2, -915061.5, -1032073.9, -19739.05, 0.033626024, 0.12085938, -911821.44, 149000.88, 0.0, 10.001506, 9.9997 
2.7489412e+3, 2.0174849e+2, -784300.75, -990140.44, -85497.9, -0.08341409, 0.20696138, -753420.8, 209463.83, 0.0, 10.001768, 9.999371 
2.7485752e+3, 2.1174236e+2, -678257.06, -673935.25, -42210.42, 0.03618454, 0.14206503, -633830.44, 231113.0, 0.0, 10.001093, 10.001067 
2.7482098e+3, 2.2173642e+2, -766298.6, -907154.8, 80796.26, 0.15065269, 0.15686141, -729543.94, 37456.785, 0.0, 10.000591, 9.999205 
2.7478445e+3, 2.3173012e+2, -398465.1, -524046.75, 134570.97, 0.12883171, 0.17026483, -312756.66, 356306.4, 0.0, 10.002103, 10.000261 
2.7474782e+3, 2.417239e+2, -288709.03, -628391.0, 115551.125, 0.076914705, 0.24027619, -253128.44, 317997.4, 0.0, 10.002788, 9.998693 
2.7471095e+3, 2.517179e+2, -406924.13, -471770.94, 98479.89, -0.065679915, 0.32543612, -335667.4, 137522.11, 0.0, 10.000896, 9.999846 
2.7467412e+3, 2.6171187e+2, -629911.44, -715835.4, 108309.28, -0.14275981, 0.45375746, -556354.6, -181102.1, 0.0, 9.999228, 9.998451 
2.7463743e+3, 2.7170345e+2, -378228.13, -374431.34, 109007.12, -0.0011017928, 0.3164092, -267306.1, 10025.944, 0.0, 9.999804, 9.999683 
2.7460077e+3, 2.8169507e+2, -290635.63, -343757.72, 173650.9, 0.17511229, 0.1904524, -141526.17, 37884.656, 0.0, 9.999773, 9.999376 
2.7456415e+3, 2.9168817e+2, -89006.52, 82863.15, 90404.805, 0.21622477, 0.04021796, 121659.32, 203131.19, 0.0, 9.999602, 10.0015545 
2.7452725e+3, 3.0168244e+2, -310489.78, -305993.9, 58627.31, 0.046630137, 0.064627245, -249571.45, -249571.45, 0.0, 9.998534, 9.998928 
2.7448994e+3, 3.1167775e+2, -287206.9, -115532.305, 102336.19, -0.5360817, 0.19722077, -67800.38, -67800.38, 0.0, 9.997899, 10.000067 
2.7445382e+3, 3.216724e+2, 155486.16, 811815.44, -143922.56, 0.25729412, 0.18545581, 841988.25, 841988.25, 0.0, 9.997526, 10.006663 
2.7615052e+3, 1.3216266e+2, -1142911.5, -1180106.0, 230932.36, 0.2657224, 0.4779084, -929828.8, 715017.0, 0.0058229626, 10.003095, 10.001754 
2.7611387e+3, 1.4215608e+2, -1620359.3, -1875101.6, 23116.033, 0.10505985, 0.3039209, -1618278.6, -71388.67, 0.0029696852, 10.000985, 9.997682 
2.7607706e+3, 1.5214762e+2, -1098606.3, -1283331.6, -40523.71, 0.16859561, 0.10545466, -1090107.5, 358865.66, 0.0010279784, 10.002926, 9.999941 
2.760403e+3, 1.6213945e+2, -1137543.1, -1488554.4, 21405.69, 0.23524442, -0.0014566119, -1136242.6, 214809.69, 0.0002033788, 10.002702, 9.998175 
2.760035e+3, 1.721322e+2, -896805.94, -1081947.3, 51608.684, 0.06822298, -0.09450187, -883391.75, 369724.63, 0.000016580547, 10.002892, 10.00002 
2.7596688e+3, 1.8212591e+2, -1215756.0, -1482694.5, 37925.203, -0.04407592, 0.012104139, -1210472.4, -55297.01, 0.00000009587778, 10.0011215, 9.997601 
2.7593037e+3, 1.9212092e+2, -1146573.3, -1208154.5, 39065.582, 0.038779948, 0.23031646, -1127622.6, -70386.51, 0.0, 10.000327, 9.999013 
2.7589378e+3, 2.0211561e+2, -1212615.5, -1184442.4, -4424.5835, 0.06517648, 0.43893427, -1183763.9, -224467.78, 0.0, 9.998913, 9.999393 
2.7585688e+3, 2.1210827e+2, -731006.56, -541405.7, -32161.633, -0.03474204, 0.117200345, -536098.7, 325263.7, 0.0, 10.00019, 10.002352 
2.7582014e+3, 2.2210221e+2, -917889.8, -887687.1, 110160.875, -0.089689344, 0.007035784, -791597.3, -28180.041, 0.0, 9.999402, 9.999841 
2.7578375e+3, 2.320991e+2, -523581.44, -452078.88, 178279.02, -0.131834, 0.20303823, -306001.75, 359445.94, 0.0, 10.000843, 10.001287 
2.757472e+3, 2.4209507e+2, -688895.56, -818822.25, 39161.645, -0.14907177, 0.4305405, -678004.6, -110516.88, 0.0, 10.000236, 9.998553 
2.757104e+3, 2.5208667e+2, -529965.3, -488010.8, -8690.747, -0.038353354, 0.20216104, -486281.8, -16711.22, 0.0, 9.999962, 10.000122 
2.756736e+3, 2.62079e+2, -781205.8, -753232.0, 71465.26, 0.019747473, 0.13091454, -694397.75, -322753.5, 0.0, 9.998181, 9.99868 
2.756368e+3, 2.7207348e+2, -398274.97, -255899.94, 96840.16, 0.020690575, 0.16202308, -206897.28, 66794.39, 0.0, 9.999286, 10.000697 
2.7560002e+3, 2.8206667e+2, -578778.9, -666027.3, 120315.55, 0.037740644, 0.18781495, -494423.03, -318668.9, 0.0, 9.998717, 9.997655 
2.7556327e+3, 2.920561e+2, -349454.03, -309372.66, 58514.66, 0.06201014, -0.13088997, -267561.94, -189701.13, 0.0, 9.999008, 9.999133 
2.7552637e+3, 3.0204952e+2, -378267.72, -262404.06, 879.3696, -0.095586464, -0.0519578, -262397.38, -262397.38, 0.0, 9.99784, 9.99955 
2.7548927e+3, 3.120528e+2, -185744.13, 196909.44, 61398.246, -0.368565, 0.6489252, 206519.67, 206519.67, 0.0, 9.997518, 10.002391 
2.7545285e+3, 3.220392e+2, -441477.94, -310563.28, 85906.336, 0.042165853, -0.097137414, -268018.03, -268018.03, 0.0, 9.997199, 9.999055 
2.771505e+3, 1.3253424e+2, -854651.9, -1092717.4, 59264.082, 0.22226578, 0.4675622, -840714.6, 800487.56, 0.0036893375, 10.005208, 10.001357 
2.7711344e+3, 1.4252713e+2, -1592319.1, -1946739.5, 132539.23, 0.0630779, 0.35425285, -1548237.5, -4979.811, 0.001804221, 10.001511, 9.996929 
2.7707672e+3, 1.525188e+2, -1122867.6, -1458525.5, 113649.91, 0.13172472, 0.311964, -1088007.5, 357337.44, 0.00058557204, 10.003415, 9.998514 
2.7704006e+3, 1.6251025e+2, -887523.94, -1439523.8, 74109.82, 0.17999296, 0.29094693, -877747.3, 469684.38, 0.00010501939, 10.004588, 9.997623 
2.7700332e+3, 1.7250176e+2, -639470.06, -1062915.1, 78829.984, 0.030105427, 0.17177486, -625270.94, 624238.0, 0.0000068884756, 10.004943, 9.999249 
2.7696654e+3, 1.8249471e+2, -722853.5, -1052776.3, -36075.348, -0.051892936, 0.20195608, -718954.94, 432619.22, 0.00000000965895, 10.003562, 9.999405 
2.769298e+3, 1.9248979e+2, -1092440.1, -974484.9, 35523.934, 0.11107193, 0.2625916, -964612.56, 89012.945, 0.0, 9.999692, 10.000995 
2.7689308e+3, 2.0248467e+2, -1384445.4, -1209607.4, 181238.48, 0.17657636, 0.36917692, -1095806.5, -140128.06, 0.0, 9.997362, 10.000005 
2.7685633e+3, 2.1247797e+2, -762816.94, -673844.75, 150193.4, 0.03273418, 0.23161069, -561687.7, 296055.03, 0.0, 10.0003605, 10.001448 
2.7681965e+3, 2.2247185e+2, -500048.56, -643688.94, 114202.414, -0.07448121, 0.18534744, -436960.16, 322840.28, 0.0, 10.001943, 10.000318 
2.7678317e+3, 2.3246685e+2, -617105.5, -528804.06, 110573.74, -0.10218239, 0.21218088, -453892.44, 207954.42, 0.0, 10.000114, 10.001228 
2.7674657e+3, 2.4246159e+2, -789796.25, -775498.4, -10872.56, -0.10030968, 0.3042939, -769635.0, -205738.63, 0.0, 9.99896, 9.99952 
2.7670977e+3, 2.5245446e+2, -406327.25, -401880.78, -54139.48, -0.037544597, 0.18714398, -349918.9, 116047.01, 0.0, 10.000563, 10.000489 
2.7667296e+3, 2.6244736e+2, -270228.9, -438641.1, -26765.656, 0.05035145, 0.1348042, -266077.38, 101956.13, 0.0, 10.001323, 9.999309 
2.7663618e+3, 2.724409e+2, -203097.83, -184255.45, -86717.51, 0.07029139, 0.09406401, -106448.87, 163640.5, 0.0, 10.000663, 10.000566 
2.7659938e+3, 2.8243414e+2, -424529.88, -512025.06, -68044.67, 0.09779481, 0.102914095, -387382.9, -215231.67, 0.0, 9.999302, 9.998447 
2.7656242e+3, 2.9242513e+2, -472192.9, -375839.38, -18646.584, 0.000041143754, -0.09730958, -372356.72, -298114.56, 0.0, 9.997944, 9.999288 
2.7652547e+3, 3.0241898e+2, -472529.72, -284123.9, 67866.125, -0.11057308, 0.01683341, -262223.4, -262223.4, 0.0, 9.996995, 9.999799 
2.7648878e+3, 3.12421e+2, 97145.43, 326559.1, -63557.63, -0.04427774, 0.597766, 342990.47, 342990.47, 0.0, 9.999451, 10.002337 
2.7645195e+3, 3.224039e+2, -192559.61, -556315.6, -3811.2598, -0.12980717, -0.38028508, -192519.69, -192519.69, 0.0, 10.000412, 9.995794 
2.7815032e+3, 1.3290507e+2, -1329724.3, -1410109.5, -98809.65, 0.23371601, 0.43063918, -1263245.5, 374318.84, 0.0021714207, 10.002475, 10.000417 
2.781131e+3, 1.4289762e+2, -1383904.8, -2037265.0, 58187.395, 0.16989538, 0.361928, -1378763.1, 160867.63, 0.0010072395, 10.003764, 9.995254 
2.7807644e+3, 1.5289016e+2, -1036775.3, -1548351.3, 144096.16, 0.13038276, 0.4964156, -998979.94, 442734.06, 0.00030058212, 10.004532, 9.997402 
2.7803987e+3, 1.6288193e+2, -1124634.3, -1642898.1, 145836.34, 0.1658326, 0.6173929, -1086415.3, 257385.7, 0.000046417692, 10.00346, 9.996758 
2.7800316e+3, 1.7287244e+2, -958122.94, -1269105.8, 170483.06, 0.08002104, 0.4303693, -882871.94, 363018.34, 0.0000020738605, 10.003094, 9.998686 
2.7796632e+3, 1.828647e+2, -985377.0, -1064721.6, -20429.086, 0.037607834, 0.41272485, -980426.0, 167535.16, 0.00000000000031198744, 10.001415, 10.000308 
2.779292e+3, 1.928597e+2, -839157.25, -615725.1, -93210.98, 0.20021793, 0.24254139, -581946.3, 468057.2, 0.0, 10.0005455, 10.002972 
2.7789232e+3, 2.0285481e+2, -1275014.0, -1298176.9, 202386.86, 0.29503763, 0.29885688, -1083877.5, -131829.06, 0.0, 9.998907, 9.998595 
2.7785584e+3, 2.1284889e+2, -865603.6, -900473.6, 247404.13, 0.13455985, 0.36899483, -635020.94, 219089.86, 0.0, 10.000584, 9.999712 
2.7781928e+3, 2.2284247e+2, -873613.75, -975476.06, 104736.97, 0.022233305, 0.4602789, -808081.1, -51906.047, 0.0, 10.000155, 9.998861 
2.7778265e+3, 2.3283394e+2, -773196.44, -645007.8, 57966.508, 0.03839012, 0.15604952, -622683.4, 35569.426, 0.0, 9.999344, 10.000725 
2.7774596e+3, 2.4282709e+2, -1017651.9, -916387.9, 30774.588, 0.009763691, 0.13031162, -907768.9, -347452.94, 0.0, 9.997717, 9.9991045 
2.777091e+3, 2.5282255e+2, -558364.5, -441774.34, 22053.11, -0.089070424, 0.23132189, -437742.4, 24618.781, 0.0, 9.999516, 10.000681 
2.7767232e+3, 2.628164e+2, -651759.3, -751694.94, -31965.63, -0.102056965, 0.32812062, -642409.5, -277988.97, 0.0, 9.999428, 9.99801 
2.776356e+3, 2.7280658e+2, -410452.0, -393133.13, -86475.3, 0.070146315, 0.012978696, -314884.78, -48371.906, 0.0, 9.9998, 9.999488 
2.775987e+3, 2.8279907e+2, -481147.25, -382328.8, -118323.39, 0.11165751, -0.032385916, -303512.88, -134931.2, 0.0, 9.998402, 9.999729 
2.775615e+3, 2.927956e+2, -389542.63, -53573.773, -63727.594, -0.0938235, 0.06914255, -41891.914, 28719.422, 0.0, 9.997471, 10.001653 
2.7752447e+3, 3.0279037e+2, -687610.5, -581253.25, 113331.625, -0.23383814, 0.21290947, -509243.9, -509243.9, 0.0, 9.996511, 9.997962 
2.7748835e+3, 3.1278104e+2, -172351.28, -108691.266, 39261.15, 0.21179035, -0.09209225, -89978.35, -89978.35, 0.0, 9.999016, 9.999546 
2.7745125e+3, 3.2277238e+2, -186552.53, -390948.84, 33501.35, -0.38228267, -0.07939751, -181201.61, -181201.61, 0.0, 9.999892, 9.997184 
2.7914974e+3, 1.3327076e+2, -1465514.1, -1727994.9, 19372.074, -0.05740998, 0.097140156, -1464092.1, 169881.9, 0.0011689387, 10.002398, 9.998411 
2.791133e+3, 1.4326535e+2, -845612.3, -1613174.1, 26783.17, 0.28426448, 0.3530963, -844678.9, 691350.56, 0.0005049565, 10.006648, 9.996816 
2.790763e+3, 1.5325938e+2, -744299.44, -1196536.9, 140556.66, 0.052598406, 0.4527237, -704174.2, 733921.1, 0.00013439951, 10.00556, 9.999371 
2.790395e+3, 1.6325268e+2, -930491.0, -1325302.3, 162583.92, -0.002407519, 0.54798496, -872157.44, 468006.88, 0.000016423304, 10.003728, 9.99883 
2.7900273e+3, 1.7324452e+2, -1011561.25, -1136895.9, 251611.86, 0.046576302, 0.36565796, -814930.06, 427309.5, 0.0000003300107, 10.001925, 10.0002 
2.7896583e+3, 1.8323725e+2, -1075365.0, -1192952.0, 121133.34, 0.055334717, 0.34177873, -999510.94, 144796.2, 0.0, 10.001019, 9.999671 
2.7892873e+3, 1.9323076e+2, -580810.1, -728972.5, -9059.138, 0.1408346, 0.26095158, -580258.25, 466111.25, 0.0, 10.003172, 10.001045 
2.7889183e+3, 2.0322481e+2, -497356.03, -844035.25, 170410.13, 0.17752206, 0.31571984, -427619.06, 520808.06, 0.0, 10.00382, 9.999339 
2.7885532e+3, 2.1321903e+2, -555081.0, -711226.25, 271607.13, 0.074572004, 0.3735229, -350548.3, 499936.94, 0.0, 10.002461, 10.0001335 
2.788188e+3, 2.2321261e+2, -662402.25, -834810.0, 173786.3, 0.033773355, 0.43894568, -554614.44, 197933.5, 0.0, 10.0012665, 9.999329 
2.787821e+3, 2.3320436e+2, -569392.7, -595025.06, 129267.44, 0.10417333, 0.22496273, -452307.66, 202316.66, 0.0, 10.000778, 10.000451 
2.7874532e+3, 2.4319714e+2, -652700.8, -717489.44, 115520.21, 0.08762485, 0.18915774, -565118.8, -8426.907, 0.0, 10.000024, 9.999373 
2.7870837e+3, 2.5319117e+2, -603110.06, -507130.75, 72592.625, -0.111890115, 0.21293785, -468099.2, -9348.432, 0.0, 9.999297, 10.000388 
2.7867156e+3, 2.6318488e+2, -659350.8, -652661.8, 44030.883, -0.12853983, 0.28414437, -611848.56, -251036.83, 0.0, 9.998798, 9.999026 
2.78635e+3, 2.731768e+2, -425214.34, -368709.78, 61095.023, 0.15956296, 0.13019334, -329650.9, -66761.94, 0.0, 9.999381, 9.999939 
2.7859813e+3, 2.8316972e+2, -307369.3, -299559.8, 33061.867, 0.28220206, 0.1255241, -270172.9, -105217.41, 0.0, 9.999522, 9.999758 
2.7856076e+3, 2.9316485e+2, -28956.893, 59133.48, -121856.85, -0.03858205, 0.17577802, 144660.94, 211659.39, 0.0, 10.000151, 10.001149 
2.7852374e+3, 3.0315816e+2, -184580.33, -373999.94, 31419.637, -0.17996839, 0.2050893, -179504.66, -179504.66, 0.0, 9.999992, 9.997726 
2.784877e+3, 3.1314638e+2, -138994.25, -200051.81, 63705.938, 0.31000385, -0.26382867, -98879.89, -98879.89, 0.0, 9.9995575, 9.998725 
2.7845055e+3, 3.231429e+2, -482794.78, -302126.75, 11869.179, -0.28786644, 0.26709652, -301350.3, -301350.3, 0.0, 9.996733, 9.999349 
2.801494e+3, 1.3363834e+2, -1306120.0, -1782331.8, 182645.55, -0.074822314, 0.03585662, -1244136.3, 386233.56, 0.0005685035, 10.004204, 9.997062 
2.8011337e+3, 1.4363378e+2, -1418660.6, -1756893.1, 74273.46, 0.43618068, 0.35636687, -1403069.4, 129351.38, 0.00022583413, 10.002303, 9.997832 
2.800761e+3, 1.536286e+2, -1028651.9, -1129124.4, 94134.25, 0.011608802, 0.33984646, -972187.9, 462287.44, 0.00005282333, 10.002841, 10.00106 
2.8003907e+3, 1.6362315e+2, -1134319.3, -1268362.4, 81987.38, -0.09338125, 0.41114667, -1095445.5, 241083.33, 0.000004777361, 10.001859, 10.0000105 
2.8000227e+3, 1.7361698e+2, -937096.4, -922192.25, 114454.42, 0.06412181, 0.2374391, -814947.56, 423635.66, 0.00000002399446, 10.001796, 10.001643 
2.7996537e+3, 1.8361041e+2, -1241965.3, -1526715.0, 102873.48, 0.14071442, 0.2977717, -1208688.4, -68042.65, 0.0, 10.001138, 9.997264 
2.7992833e+3, 1.9360228e+2, -908835.6, -1158264.8, 51236.4, 0.10453586, 0.26869056, -898721.06, 144009.95, 0.0, 10.002236, 9.998479 
2.7989143e+3, 2.0359522e+2, -843340.8, -1031671.2, 178819.3, 0.07315245, 0.38137394, -735408.44, 209394.11, 0.0, 10.0016575, 9.99906 
2.7985483e+3, 2.1358892e+2, -746937.44, -710824.8, 208241.7, 0.014104496, 0.2831118, -519858.1, 327002.97, 0.0, 10.000821, 10.000887 
2.7981824e+3, 2.2358295e+2, -1020979.06, -1048148.4, 125425.15, 0.023977239, 0.37307972, -908405.06, -159487.8, 0.0, 9.999218, 9.998779 
2.7978155e+3, 2.3357633e+2, -763418.5, -708385.94, 99777.35, 0.1470203, 0.3188634, -632400.25, 18580.297, 0.0, 9.999711, 10.0001335 
2.7974468e+3, 2.4356909e+2, -935336.94, -979687.4, 86543.2, 0.11718701, 0.3672734, -868173.06, -315123.25, 0.0, 9.998803, 9.998108 
2.7970758e+3, 2.5355992e+2, -767005.0, -667030.44, 68752.86, -0.14996216, 0.12061818, -632013.7, -176875.28, 0.0, 9.9986515, 9.999543 
2.7967072e+3, 2.6355353e+2, -789451.75, -630403.75, 59105.082, -0.19021918, 0.20564814, -610844.56, -253644.28, 0.0, 9.9977, 9.999665 
2.7963433e+3, 2.735503e+2, -451293.44, -223879.19, 87008.26, 0.2215258, 0.37635508, -194408.98, 64822.473, 0.0, 9.998654, 10.001236 
2.7959755e+3, 2.8354412e+2, -613662.6, -748126.0, 24050.068, 0.35945866, 0.51450366, -609490.44, -448198.63, 0.0, 9.998839, 9.996971 
2.795602e+3, 2.9353234e+2, -299415.75, -404820.9, -95629.24, 0.0017003226, 0.14734136, -242928.08, -179519.63, 0.0, 9.999813, 9.998105 
2.7952307e+3, 3.035235e+2, -269776.34, -368187.78, -10291.736, -0.26217204, 0.12528849, -268711.56, -268711.56, 0.0, 9.999362, 9.998003 
2.794868e+3, 3.1351843e+2, -151081.58, -61265.11, 61327.293, 0.017539531, 0.2003434, -30161.592, -30161.592, 0.0, 9.998964, 9.999897 
2.7944985e+3, 3.2351127e+2, -519567.66, -152373.14, -62221.184, -0.15199889, 0.22203541, -142116.25, -142116.25, 0.0, 9.996003, 10.000621 
2.8114954e+3, 1.3401085e+2, -966697.6, -1404517.3, -158175.77, 0.014067504, 0.44368196, -915531.4, 711198.5, 0.00025074946, 10.005409, 9.999185 
2.8111273e+3, 1.4400294e+2, -1525552.5, -1625089.8, 49072.69, 0.28164503, 0.26908553, -1505428.1, 23375.408, 0.00009142473, 10.000691, 9.999558 
2.8107554e+3, 1.5399806e+2, -1219252.0, -1134828.1, 136722.84, -0.071241476, 0.20948201, -1033949.2, 396903.5, 0.000018191195, 10.0010605, 10.00195 
2.810386e+3, 1.6399355e+2, -1114576.5, -1174725.9, 90661.766, -0.15304972, 0.3001593, -1049131.4, 283765.3, 0.000001253609, 10.00155, 10.00082 
2.8100187e+3, 1.7398965e+2, -793734.9, -841973.06, 112877.99, 0.040068086, 0.36274472, -702427.94, 532503.5, 0.0000000065346386, 10.002632, 10.001845 
2.80965e+3, 1.83984e+2, -938444.5, -1284819.0, 41948.734, 0.13629818, 0.4764265, -933436.56, 203549.5, 0.0, 10.0027275, 9.998161 
2.809279e+3, 1.9397484e+2, -881274.25, -1119055.6, 90540.21, 0.11205654, 0.33079103, -850724.25, 188354.47, 0.0, 10.002194, 9.998818 
2.8089097e+3, 2.0396686e+2, -910954.56, -1083248.1, 208791.6, 0.077342875, 0.34878743, -771235.94, 169923.06, 0.0, 10.001186, 9.998931 
2.8085423e+3, 2.1395984e+2, -915824.0, -909293.9, 176851.5, 0.0010921228, 0.30285305, -735677.3, 107550.17, 0.0, 10.000049, 9.999961 
2.808175e+3, 2.2395341e+2, -901704.4, -925374.56, 114377.63, -0.012031165, 0.38038057, -798551.1, -53262.254, 0.0, 9.999638, 9.999445 
2.8078085e+3, 2.3394698e+2, -601331.8, -617321.8, 116331.68, 0.094773844, 0.34583423, -492720.72, 154628.56, 0.0, 10.000645, 10.00035 
2.8074408e+3, 2.439399e+2, -506808.56, -669427.94, 116158.305, 0.10499868, 0.35158074, -446329.63, 103086.305, 0.0, 10.001131, 9.99915 
2.8070703e+3, 2.5393113e+2, -369508.34, -435654.9, 139955.42, -0.06495627, 0.12180364, -258771.48, 192727.77, 0.0, 10.001025, 10.000065 
2.8067014e+3, 2.6392454e+2, -358498.2, -446319.0, 148218.44, -0.08357876, 0.17637797, -247822.61, 105741.17, 0.0, 10.000588, 9.999608 
2.8063357e+3, 2.7392033e+2, -299532.8, -238262.45, 52971.74, 0.18890874, 0.34718558, -207705.16, 47903.07, 0.0, 9.999865, 10.000657 
2.805968e+3, 2.8391403e+2, -473947.63, -675602.06, 47658.92, 0.30569467, 0.4969381, -463251.3, -305578.47, 0.0, 9.999622, 9.997154 
2.8055963e+3, 2.9390305e+2, -153750.38, -405313.94, 62557.684, 0.06416373, 0.27362925, -139052.56, -79269.03, 0.0, 10.000939, 9.997663 
2.8052253e+3, 3.03894e+2, -37929.074, -188163.42, 188597.47, -0.14736079, 0.26517773, 89960.14, 89960.14, 0.0, 10.000601, 9.998629 
2.80486e+3, 3.1388882e+2, -128794.43, -15785.685, 137980.66, -0.027192013, 0.31744245, 76811.945, 76811.945, 0.0, 9.998887, 10.000277 
2.80449e+3, 3.2388067e+2, -209824.64, 125449.11, -167090.88, -0.009947579, 0.18087459, 194500.81, 194500.81, 0.0, 9.997461, 10.001875 
2.8214955e+3, 1.3438313e+2, -1060436.9, -1241702.1, -152382.16, 0.19938125, 0.64354295, -973771.5, 649316.75, 0.000107460386, 10.004178, 10.000765 
2.8211212e+3, 1.4437398e+2, -1435070.3, -1545491.4, 153659.33, 0.22891842, 0.27711713, -1327003.8, 198164.1, 0.00003510944, 10.001348, 9.999706 
2.82075e+3, 1.5436858e+2, -1125481.1, -1053868.4, 155603.08, -0.06269938, 0.11617104, -930005.06, 497215.22, 0.0000055355054, 10.001701, 10.002141 
2.8203815e+3, 1.6436459e+2, -1220754.1, -1266921.4, 109866.98, -0.097619295, 0.27704433, -1131572.0, 197686.92, 0.0000002527922, 10.001138, 10.000366 
2.820015e+3, 1.7436197e+2, -1007614.06, -965885.5, 80512.66, 0.06376242, 0.46763197, -903577.6, 327706.34, 0.0, 10.001406, 10.001568 
2.819646e+3, 1.8435697e+2, -1132178.0, -1321335.1, -22209.824, 0.145502, 0.65277106, -1129605.1, 3727.067, 0.0, 10.001287, 9.998568 
2.8192753e+3, 1.9434735e+2, -880257.7, -1030409.4, 5108.397, 0.15985164, 0.34387982, -880084.06, 155341.72, 0.0, 10.001912, 9.999536 
2.818905e+3, 2.0433886e+2, -1072358.5, -1332460.0, 111658.016, 0.1340582, 0.35226393, -1031001.25, -93490.66, 0.0, 10.001015, 9.997226 
2.8185362e+3, 2.1433094e+2, -1024094.9, -1118483.3, 101371.164, 0.035157595, 0.31745443, -959470.44, -119878.055, 0.0, 10.000155, 9.99839 
2.818168e+3, 2.24324e+2, -1001421.4, -986991.56, 134027.38, -0.048110284, 0.44536743, -859985.06, -118324.664, 0.0, 9.999188, 9.999179 
2.8178018e+3, 2.3431699e+2, -731830.7, -625592.6, 140095.7, -0.006017553, 0.2846657, -528883.6, 114840.3, 0.0, 9.999694, 10.00067 
2.8174344e+3, 2.4431068e+2, -716992.9, -684820.44, 87048.35, 0.017845929, 0.32642257, -612384.44, -66603.24, 0.0, 9.9994955, 9.999772 
2.8170654e+3, 2.5430372e+2, -505896.44, -379920.06, 114692.19, 0.017170575, 0.13691087, -312057.9, 135787.64, 0.0, 9.999686, 10.001044 
2.8166962e+3, 2.6429653e+2, -705076.44, -825685.9, 92787.8, -0.012861538, 0.18436985, -654718.44, -304801.38, 0.0, 9.999317, 9.997541 
2.816327e+3, 2.7428812e+2, -514798.84, -540351.2, 48952.703, -0.010993276, 0.08422836, -476982.56, -224974.95, 0.0, 9.999394, 9.998739 
2.8159583e+3, 2.84282e+2, -493724.1, -572194.06, 78784.555, -0.008248869, 0.3329241, -444945.5, -290873.0, 0.0, 9.999175, 9.998018 
2.8155905e+3, 2.9427728e+2, -137616.44, -202072.61, 130134.96, 0.015802938, 0.54769814, -35778.285, 20342.084, 0.0, 10.000345, 9.999285 
2.815221e+3, 3.04269e+2, -172624.64, -331333.84, 113890.08, -0.088370904, 0.5604767, -113169.65, -113169.65, 0.0, 10.000097, 9.997873 
2.814853e+3, 3.1425604e+2, -309344.03, -198057.4, 85295.086, 0.0041774646, -0.09575958, -151860.5, -151860.5, 0.0, 9.998098, 9.999398 
2.8144777e+3, 3.2425323e+2, -281007.5, 128283.484, -59106.297, -0.45985988, 0.3309967, 136648.16, 136648.16, 0.0, 9.997018, 10.002033 
2.8314936e+3, 1.3475682e+2, -1157868.1, -1502604.3, -217508.53, 0.13030571, 0.2872842, -1052710.1, 566709.25, 0.000050640916, 10.004156, 9.999113 
2.8311175e+3, 1.4475134e+2, -1285626.0, -1632492.0, 234231.42, 0.16283405, 0.5056314, -1167608.6, 353863.97, 0.00001538915, 10.00297, 9.998358 
2.8307465e+3, 1.547434e+2, -1149257.9, -1333289.6, 200353.67, -0.07505302, 0.32574248, -1020800.4, 402748.9, 0.0000020566958, 10.002564, 9.999869 
2.830377e+3, 1.6473623e+2, -1179296.4, -1342489.8, 73681.93, -0.1271927, 0.3296223, -1150952.0, 174665.27, 0.00000005936716, 10.001718, 9.999602 
2.8300083e+3, 1.7472932e+2, -1154860.8, -1199496.5, 45165.953, -0.07923635, 0.23974013, -1126799.6, 100881.54, 0.0, 10.000964, 10.000231 
2.829639e+3, 1.8472284e+2, -1083383.4, -1264942.4, -40969.285, -0.054025576, 0.32614237, -1074566.8, 55176.69, 0.0, 10.001371, 9.998957 
2.8292695e+3, 1.9471538e+2, -702055.25, -965128.56, -36787.145, -0.020893889, 0.25529256, -697007.94, 334809.7, 0.0, 10.003116, 9.999457 
2.828901e+3, 2.0470844e+2, -597602.94, -990076.9, -1857.7654, 0.0842585, 0.35607237, -597594.2, 336294.16, 0.0, 10.003616, 9.9984 
2.8285334e+3, 2.1470119e+2, -575307.9, -867801.3, 60952.508, 0.21481714, 0.36940846, -563114.4, 272849.34, 0.0, 10.002912, 9.998867 
2.828165e+3, 2.2469406e+2, -513072.1, -659638.5, 125393.26, 0.18591419, 0.4075569, -441117.9, 296915.38, 0.0, 10.002003, 10.000126 
2.8277957e+3, 2.346862e+2, -568929.7, -566155.5, 116562.54, 0.01028973, 0.18376148, -450971.78, 189132.75, 0.0, 10.000702, 10.0006895 
2.8274268e+3, 2.4468043e+2, -624396.9, -565347.1, 52675.215, -0.050092652, 0.24499808, -534486.56, 7672.5767, 0.0, 9.999709, 10.000518 
2.8270584e+3, 2.5467575e+2, -554622.2, -421261.88, 21351.969, 0.011203741, 0.3010529, -417926.66, 26280.459, 0.0, 9.999287, 10.001018 
2.82669e+3, 2.646695e+2, -517658.47, -610244.9, 103727.74, 0.025299147, 0.3777121, -450362.47, -104091.54, 0.0, 9.99996, 9.998728 
2.8263208e+3, 2.746607e+2, -112740.055, -315894.75, 139140.9, -0.061812896, 0.21021213, -42043.926, 206317.48, 0.0, 10.001943, 9.999078 
2.8259522e+3, 2.8465438e+2, -23073.703, -242382.13, 187013.88, -0.0459532, 0.38132164, 84062.84, 234489.67, 0.0, 10.001885, 9.998974 
2.8255844e+3, 2.9465014e+2, -164706.22, -191588.34, 137824.98, 0.03963026, 0.6262411, -39668.434, 12801.253, 0.0, 9.999949, 9.999559 
2.825215e+3, 3.04642e+2, -279927.75, -316728.16, 144127.14, 0.0008996363, 0.60855025, -153031.02, -153031.02, 0.0, 9.998964, 9.998551 
2.8248465e+3, 3.1462824e+2, -123238.836, -156563.08, 139758.98, 0.14716302, -0.13159573, 847.76245, 847.76245, 0.0, 9.999424, 9.999095 
2.8244695e+3, 3.2462737e+2, 78681.32, 235928.64, 10818.774, -0.45500556, 0.531703, 236669.48, 236669.48, 0.0, 9.999628, 10.001579 
2.84149e+3, 1.351312e+2, -1794418.4, -1959384.5, -295792.75, 0.14535855, 0.106297195, -1569823.6, 45921.676, 0.000026719768, 10.000479, 9.997743 
2.8411144e+3, 1.4512819e+2, -1253374.3, -1814882.8, 172297.25, 0.15113534, 0.7169362, -1204721.0, 313059.97, 0.000008259606, 10.004135, 9.996491 
2.840743e+3, 1.5511797e+2, -1156241.4, -1561467.1, 158504.9, -0.009642767, 0.47615653, -1101607.6, 318271.53, 0.0000013335809, 10.003554, 9.997779 
2.840373e+3, 1.6510783e+2, -1144715.5, -1476978.8, 89283.555, -0.073686376, 0.36651772, -1122243.6, 199731.11, 0.000000073245815, 10.002774, 9.9980955 
2.8400025e+3, 1.7509656e+2, -1024892.3, -1317051.4, 48249.535, -0.1456942, -0.038613543, -1017130.25, 206949.16, 0.0, 10.00275, 9.998515 
2.839633e+3, 1.850887e+2, -1022855.4, -1285119.0, 61084.13, -0.17967138, 0.034824364, -1009326.1, 116828.96, 0.0, 10.002152, 9.998367 
2.8392643e+3, 1.950828e+2, -915516.25, -1134676.8, 47679.16, -0.17751722, 0.12472118, -905592.8, 122623.33, 0.0, 10.002048, 9.998746 
2.8388974e+3, 2.0507732e+2, -795551.4, -962697.9, 9963.1045, 0.028702147, 0.3697163, -794959.6, 135313.63, 0.0, 10.0018835, 9.999364 
2.8385317e+3, 2.1507126e+2, -752463.44, -846842.75, 36978.76, 0.4392516, 0.35450542, -739700.7, 92635.63, 0.0, 10.001383, 9.999688 
2.8381625e+3, 2.2506438e+2, -760940.1, -782438.4, 76633.99, 0.42988175, 0.38951728, -694305.06, 40097.61, 0.0, 10.000482, 9.99996 
2.8377897e+3, 2.3505554e+2, -752031.25, -683713.4, 78893.79, 0.026223073, 0.033672445, -631901.0, 4582.6206, 0.0, 9.999698, 10.000323 
2.837419e+3, 2.4505042e+2, -807179.2, -725770.94, 44259.58, -0.16065948, 0.22737518, -706344.06, -167807.36, 0.0, 9.998924, 9.999769 
2.8370503e+3, 2.550476e+2, -737879.06, -595335.75, 21535.986, -0.076268606, 0.497708, -592153.06, -151577.75, 0.0, 9.998548, 10.000155 
2.8366825e+3, 2.650433e+2, -553524.75, -406032.13, 163675.97, -0.053925093, 0.73459166, -300255.9, 42365.13, 0.0, 9.99894, 10.000551 
2.8363162e+3, 2.7503633e+2, -171980.22, -142211.28, 216327.81, -0.08160065, 0.5221665, 59743.523, 304429.03, 0.0, 10.000786, 10.000784 
2.8359476e+3, 2.8502932e+2, -214131.78, -387096.0, 92023.86, -0.07254282, 0.5722442, -174330.3, -27576.164, 0.0, 10.000925, 9.998403 
2.835577e+3, 2.950212e+2, -323424.72, -350436.78, 77133.73, -0.04160143, 0.4608531, -258623.52, -209787.9, 0.0, 9.999326, 9.998752 
2.835207e+3, 3.0501407e+2, -269244.06, -156912.39, 142550.42, -0.07442109, 0.52774245, -59861.953, -59861.953, 0.0, 9.998541, 9.999793 
2.8348404e+3, 3.150066e+2, -175065.6, -73163.016, 179678.8, 0.20430551, 0.28957203, 62648.926, 62648.926, 0.0, 9.998735, 9.999965 
2.8344646e+3, 3.2500163e+2, -112415.58, -50216.24, 159812.31, -0.38173875, 0.52920884, 81494.305, 81494.305, 0.0, 9.999336, 9.9996605 
2.851482e+3, 1.3550417e+2, -1785931.9, -1812737.0, 25717.84, -0.080034666, 0.19256845, -1770333.9, -158245.28, 0.000013315561, 9.999706, 9.99925 
2.8511116e+3, 1.4549933e+2, -951073.7, -1547044.3, 89714.836, -0.07012181, 0.54330254, -937861.3, 576276.9, 0.0000038169696, 10.005555, 9.997705 
2.850742e+3, 1.5548913e+2, -944075.6, -1438803.8, 168315.16, 0.011187292, 0.2690817, -892242.44, 523992.0, 0.0000005153316, 10.004771, 9.998108 
2.8503728e+3, 1.6547993e+2, -844793.9, -1390889.9, 153613.33, 0.075683825, 0.26575857, -804549.25, 513774.9, 0.00000002542409, 10.004981, 9.997657 
2.850003e+3, 1.7547078e+2, -640751.44, -1233481.4, 150320.34, 0.034476377, 0.18916924, -604808.75, 615606.75, 0.0, 10.005711, 9.997714 
2.8496322e+3, 1.8546267e+2, -625088.8, -1055859.1, 73551.39, -0.017044187, 0.2628909, -612876.56, 509618.7, 0.0, 10.004603, 9.998787 
2.8492615e+3, 1.9545476e+2, -886321.4, -1118880.8, 102967.8, -0.05837341, 0.18789141, -847284.2, 177288.2, 0.0, 10.002069, 9.998891 
2.8488925e+3, 2.0544815e+2, -884626.25, -991164.1, 96736.73, 0.03916508, 0.30145, -827461.6, 99177.91, 0.0, 10.001071, 9.99961 
2.848525e+3, 2.1544175e+2, -767984.94, -867133.75, 84042.37, 0.27472925, 0.30501816, -719985.06, 108721.62, 0.0, 10.001144, 9.999736 
2.8481558e+3, 2.2543593e+2, -591756.94, -610973.94, 106739.766, 0.28098533, 0.39798117, -494194.06, 236570.06, 0.0, 10.001203, 10.000793 
2.847784e+3, 2.3542947e+2, -479880.56, -514270.16, 114501.445, 0.016312225, 0.28749478, -381290.03, 251534.45, 0.0, 10.001272, 10.000775 
2.8474134e+3, 2.4542366e+2, -433450.25, -526484.1, 105350.9, -0.10304027, 0.37439385, -364803.66, 170079.14, 0.0, 10.001236, 10.00009 
2.8470436e+3, 2.554181e+2, -375864.22, -427755.7, 100067.695, -0.09245833, 0.4233365, -298433.34, 138510.13, 0.0, 10.000892, 10.00024 
2.8466758e+3, 2.654132e+2, -377410.56, -261844.77, 234739.9, -0.045635287, 0.5699518, -77880.516, 261112.72, 0.0, 9.999827, 10.001143 
2.8463104e+3, 2.7540803e+2, -430839.34, -222521.14, 169743.36, 0.02736403, 0.5394595, -127527.22, 113514.24, 0.0, 9.998735, 10.001262 
2.845942e+3, 2.8540128e+2, -441905.34, -433417.8, 41563.37, 0.056932453, 0.55169797, -395882.13, -252775.47, 0.0, 9.998997, 9.999067 
2.845571e+3, 2.953921e+2, -177464.63, -259039.61, 29493.072, 0.019259205, 0.33293504, -167918.63, -122721.04, 0.0, 10.000141, 9.999042 
2.8452e+3, 3.0538538e+2, 52144.715, -11118.705, 113245.41, -0.07997472, 0.42238075, 138093.14, 138093.14, 0.0, 10.000661, 9.999828 
2.8448325e+3, 3.1538105e+2, 107933.625, 19539.934, -4521.18, 0.08895142, 0.52041346, 108164.27, 108164.27, 0.0, 10.00079, 9.999658 
2.84446e+3, 3.2537368e+2, -242198.05, -274065.78, -135572.47, -0.12926447, 0.5663794, -121626.3, -121626.3, 0.0, 9.99895, 9.998383 
2.861476e+3, 1.3587514e+2, -1571618.8, -1571019.5, 247561.72, -0.07477614, 0.2904908, -1323757.3, 284694.16, 0.0000059672575, 10.000816, 10.000266 
2.8611085e+3, 1.4586867e+2, -1319308.4, -1633709.8, -122313.086, -0.17987753, 0.3724995, -1277329.4, 233183.86, 0.0000015122073, 10.002792, 9.998367 
2.860741e+3, 1.5585944e+2, -1175404.3, -1506584.9, -62065.867, 0.13341291, 0.08127027, -1164154.8, 248445.14, 0.0000000966577, 10.003105, 9.998391 
2.860373e+3, 1.6585197e+2, -1165325.1, -1565426.4, 36901.97, 0.30222586, 0.23719938, -1161950.0, 152726.08, 0.00000000026919006, 10.00299, 9.997386 
2.860004e+3, 1.7584549e+2, -1142836.4, -1530705.3, 82788.43, 0.2735209, 0.41732, -1125904.8, 90842.82, 0.0, 10.002601, 9.997142 
2.8596318e+3, 1.8583779e+2, -910062.94, -1158293.6, -7919.4375, 0.1907684, 0.5555875, -909810.5, 209013.77, 0.0, 10.0026655, 9.998971 
2.859259e+3, 1.9582817e+2, -864843.94, -1105746.9, 19236.885, 0.13550575, 0.25565848, -863317.5, 157597.11, 0.0, 10.002372, 9.998794 
2.8588876e+3, 2.0582049e+2, -855325.4, -1029416.75, 117089.125, 0.09825738, 0.30356053, -796471.06, 126520.25, 0.0, 10.001608, 9.999052 
2.8585175e+3, 2.158129e+2, -959007.25, -1049678.5, 110573.29, 0.059959143, 0.21214151, -884836.5, -59765.92, 0.0, 10.000289, 9.998895 
2.8581476e+3, 2.2580834e+2, -801034.7, -690902.6, 143513.28, 0.03642002, 0.47211212, -592253.56, 134864.61, 0.0, 9.999826, 10.000819 
2.8577787e+3, 2.3580498e+2, -715868.56, -637449.5, 133231.7, 0.0217008, 0.61236423, -537777.5, 91374.17, 0.0, 9.999872, 10.000518 
2.8574082e+3, 2.457982e+2, -622372.4, -584794.5, 93576.08, -0.055721454, 0.61553234, -508139.7, 23075.713, 0.0, 10.000036, 10.000118 
2.857037e+3, 2.55788e+2, -559289.6, -541871.9, 96298.5, -0.15885727, 0.13939708, -453889.28, -20578.67, 0.0, 9.999911, 9.999826 
2.8566688e+3, 2.657818e+2, -516867.56, -437564.22, 173743.36, -0.07583883, 0.23508264, -299005.3, 36365.453, 0.0, 9.999421, 10.000086 
2.856304e+3, 2.757774e+2, -589097.5, -439060.88, 137929.89, 0.13875362, 0.3391902, -357068.34, -119652.49, 0.0, 9.998288, 9.999981 
2.855936e+3, 2.8577125e+2, -478011.03, -355904.53, 63919.55, 0.16638869, 0.43987983, -328565.44, -189089.69, 0.0, 9.998534, 9.999738 
2.8555652e+3, 2.9576266e+2, -261813.77, -258063.3, 88165.45, 0.036180496, 0.18338384, -171753.14, -130195.42, 0.0, 9.999521, 9.9992895 
2.8551927e+3, 3.0575565e+2, -142058.48, -273175.63, 89124.71, -0.27619836, 0.32011104, -96977.37, -96977.37, 0.0, 10.000207, 9.99818 
2.8548214e+3, 3.1575015e+2, -195675.6, -356971.44, 9673.71, -0.50936115, 0.44961697, -195097.48, -195097.48, 0.0, 9.999839, 9.997483 
2.854457e+3, 3.257421e+2, -312578.3, -242637.48, -166033.34, 0.21565561, 0.51387817, -107931.73, -107931.73, 0.0, 9.998366, 9.998836 
2.8714743e+3, 1.3624007e+2, -1460133.8, -1596983.4, 47268.176, 0.0948359, 0.26924098, -1445394.8, 159479.33, 0.0000021514043, 10.00166, 9.999806 
2.871104e+3, 1.4623232e+2, -1374766.1, -1570447.5, -212744.6, -0.21514434, 0.22514123, -1238442.3, 268507.03, 0.00000043033984, 10.001889, 9.999288 
2.8707388e+3, 1.5622708e+2, -1206232.1, -1450499.4, -155263.67, 0.2332048, 0.28838608, -1130822.3, 278182.7, 0.000000019645139, 10.002452, 9.999144 
2.8703701e+3, 1.6622126e+2, -1085844.5, -1199300.3, -127658.26, 0.37434512, 0.3974921, -1002877.44, 308185.88, 0.0, 10.002046, 10.000384 
2.8699976e+3, 1.7621496e+2, -1244898.1, -1287917.6, 19547.92, 0.14159168, 0.357357, -1237342.5, -24216.877, 0.0, 10.000532, 9.99985 
2.8696263e+3, 1.862089e+2, -877112.75, -1002646.9, 67585.234, 0.03525444, 0.44612762, -847643.9, 267540.8, 0.0, 10.002072, 10.00042 
2.869256e+3, 1.9620186e+2, -404561.0, -786796.7, 131752.13, 0.06685207, 0.33185884, -363548.16, 653704.56, 0.0, 10.004853, 9.999916 
2.868885e+3, 2.0619515e+2, -375827.16, -679224.06, 91927.52, 0.10946754, 0.3697707, -350147.22, 569172.3, 0.0, 10.004367, 10.000129 
2.8685126e+3, 2.1618803e+2, -683312.4, -827379.5, 138698.4, 0.09280436, 0.29622486, -599057.5, 222334.72, 0.0, 10.001713, 9.9997635 
2.8681415e+3, 2.2618236e+2, -658908.2, -646636.6, 248281.14, 0.04059254, 0.41287374, -404415.47, 319033.06, 0.0, 10.000666, 10.0008135 
2.8677723e+3, 2.3617747e+2, -630168.2, -629771.3, 229065.5, -0.003167212, 0.47035754, -400904.16, 224591.6, 0.0, 10.000367, 10.000421 
2.867403e+3, 2.4617009e+2, -504538.63, -583469.56, 195671.7, 0.018858796, 0.4381482, -344392.13, 183173.36, 0.0, 10.000928, 9.999746 
2.867034e+3, 2.5616005e+2, -246501.75, -453208.63, 132188.53, 0.051969904, 0.0844674, -182058.45, 247601.06, 0.0, 10.0021715, 9.999397 
2.8666654e+3, 2.661531e+2, -125584.836, -350836.9, 159301.03, 0.07986733, 0.15747482, -43117.45, 288611.7, 0.0, 10.002384, 9.999319 
2.866298e+3, 2.7614748e+2, -130635.28, -329772.16, 82849.12, 0.13689075, 0.27623427, -100674.38, 133115.02, 0.0, 10.001716, 9.999149 
2.8659293e+3, 2.861413e+2, -95340.04, -95278.0, 57407.418, 0.1646976, 0.3664521, -37901.594, 97947.27, 0.0, 10.00077, 10.000454 
2.8655595e+3, 2.9613402e+2, -160097.64, -160846.56, 39641.504, 0.12310419, 0.20730984, -120828.83, -82913.805, 0.0, 9.999917, 9.999788 
2.8651872e+3, 3.0612707e+2, -144790.02, -238562.52, 135646.33, -0.18044928, 0.30216894, -48155.38, -48155.38, 0.0, 9.999992, 9.998544 
2.864815e+3, 3.1612048e+2, -86285.11, -314843.84, 123631.73, -0.5201834, 0.35332662, -32205.994, -32205.994, 0.0, 10.000516, 9.997496 
2.864453e+3, 3.261116e+2, 174679.75, 15563.472, -71368.86, 0.48304227, 0.32874513, 202000.11, 202000.11, 0.0, 10.001498, 9.999122 
2.8814718e+3, 1.3660541e+2, -1327782.6, -1479336.3, 74153.766, 0.23757552, 0.27252525, -1297536.3, 303757.22, 0.00000033823923, 10.002528, 10.000096 
2.8811005e+3, 1.4659737e+2, -1423541.8, -1521736.4, -62967.88, -0.08005384, 0.1742695, -1392792.4, 110579.66, 0.000000039050374, 10.001374, 9.999804 
2.8807357e+3, 1.5659486e+2, -1369689.8, -1487964.1, -58086.38, 0.36673462, 0.47197425, -1345934.1, 59474.047, 0.0000000006124831, 10.001233, 9.999464 
2.8803656e+3, 1.6659029e+2, -1089997.0, -906002.9, -106409.98, 0.41053393, 0.55091584, -857335.25, 450116.94, 0.0, 10.000876, 10.002866 
2.8799903e+3, 1.7658369e+2, -1246369.9, -1071865.9, -25733.72, 0.040173125, 0.18834347, -1068150.1, 141359.16, 0.0, 9.999688, 10.001679 
2.87962e+3, 1.8657947e+2, -1071893.1, -938561.8, 129431.68, -0.10134022, 0.30964965, -859636.0, 251913.73, 0.0, 10.000292, 10.001619 
2.879253e+3, 1.965756e+2, -891267.8, -935668.6, 124088.336, 0.004767053, 0.3527327, -787409.6, 226180.56, 0.0, 10.001341, 10.000524 
2.878882e+3, 2.0657055e+2, -765933.75, -786621.25, -57895.07, 0.12617117, 0.5011517, -717465.6, 198174.67, 0.0, 10.0015135, 10.000707 
2.8785086e+3, 2.1656404e+2, -913008.7, -926936.9, -10706.927, 0.21275564, 0.38341978, -907200.3, -89495.99, 0.0, 10.000262, 9.999728 
2.8781363e+3, 2.265568e+2, -780677.4, -709519.0, 155154.95, 0.11368102, 0.3513062, -585916.1, 133856.64, 0.0, 10.000053, 10.000605 
2.8777653e+3, 2.3654887e+2, -853836.2, -846545.8, 152248.48, -0.03758218, 0.09676916, -697898.9, -76052.375, 0.0, 9.999495, 9.999308 
2.877398e+3, 2.4654159e+2, -677306.5, -778251.8, 188433.3, 0.094242394, 0.19446598, -532703.25, -8786.496, 0.0, 10.000347, 9.99867 
2.8770325e+3, 2.5653365e+2, -557940.56, -782185.44, 163226.88, 0.3496282, 0.13465557, -472036.6, -46041.277, 0.0, 10.000936, 9.997727 
2.8766626e+3, 2.665261e+2, -357258.84, -569218.06, 125320.36, 0.23061804, 0.2838632, -299113.88, 28960.871, 0.0, 10.001411, 9.998235 
2.876291e+3, 2.7651814e+2, -412893.72, -618651.5, 80583.28, -0.06360128, 0.2529434, -385090.8, -154929.69, 0.0, 10.000577, 9.997681 
2.8759217e+3, 2.8651205e+2, -148340.66, -73453.46, 21086.229, -0.0328147, 0.39699525, -67924.37, 64294.316, 0.0, 10.000265, 10.000819 
2.8755534e+3, 2.9650623e+2, -284303.75, -238166.06, 45804.73, 0.13272022, 0.32783645, -209948.98, -175680.36, 0.0, 9.999209, 9.9995985 
2.8751838e+3, 3.0649924e+2, -106654.58, -27290.05, 126556.76, 0.08500317, 0.33582133, 65659.87, 65659.87, 0.0, 9.999572, 10.000173 
2.8748152e+3, 3.1649134e+2, -239781.11, -330240.34, 167610.67, 0.03255647, 0.09787775, -111404.68, -111404.68, 0.0, 9.999332, 9.997956 
2.8744438e+3, 3.2648337e+2, -13542.76, -99017.59, 123191.6, -0.047258347, 0.088602096, 74114.06, 74114.06, 0.0, 10.000642, 9.9986 
2.8914675e+3, 1.3697533e+2, -1057659.3, -1145976.1, -100380.06, 0.0043046167, 0.38394213, -992154.0, 605518.44, 0.0000000032251708, 10.003295, 10.002107 
2.8910983e+3, 1.4696656e+2, -1382555.8, -1461200.3, -6155.5723, 0.123973176, 0.13062716, -1382076.9, 117675.23, 0.0, 10.001374, 10.00026 
2.8907278e+3, 1.5696256e+2, -1389107.5, -1459369.0, 37197.53, 0.06626449, 0.2871567, -1373073.5, 28727.379, 0.0, 10.00077, 9.999956 
2.8903574e+3, 1.6695833e+2, -1062888.4, -843166.5, -68751.84, 0.14762619, 0.34603378, -823427.1, 480413.4, 0.0, 10.00071, 10.003441 
2.889985e+3, 1.7695351e+2, -1080437.6, -935325.8, -19000.242, 0.10932714, 0.15402171, -932879.25, 273001.3, 0.0, 10.000394, 10.002355 
2.8896144e+3, 1.8694948e+2, -1093940.3, -906680.56, 74651.83, 0.0068540457, 0.23000352, -880563.0, 227357.73, 0.0, 9.999791, 10.002152 
2.8892455e+3, 1.9694573e+2, -1236462.9, -1045780.7, 55321.45, -0.07542527, 0.28563392, -1030893.0, -20930.822, 0.0, 9.998553, 10.00118 
2.8888744e+3, 2.06941e+2, -1061381.3, -930450.4, -119021.195, 0.013943689, 0.4131364, -860078.56, 51932.305, 0.0, 9.999294, 10.000848 
2.888502e+3, 2.169352e+2, -796839.94, -858225.44, -75212.04, 0.13398615, 0.38473433, -746299.1, 67769.92, 0.0, 10.000795, 10.000002 
2.8881317e+3, 2.2692797e+2, -547913.8, -684747.9, 26825.586, 0.17658745, 0.36110452, -542842.75, 173296.77, 0.0, 10.001924, 9.999923 
2.8877628e+3, 2.369197e+2, -398576.38, -646853.75, -10159.367, 0.16993524, 0.1756495, -398161.34, 220057.73, 0.0, 10.002521, 9.99929 
2.8873944e+3, 2.4691328e+2, -285505.3, -483364.9, 73330.414, 0.20038949, 0.26563802, -261291.06, 258989.72, 0.0, 10.002514, 9.999696 
2.887027e+3, 2.5690684e+2, -302017.66, -574293.1, 111192.54, 0.249823, 0.3065303, -262379.2, 159963.94, 0.0, 10.002161, 9.998635 
2.8866574e+3, 2.6689938e+2, -224616.6, -494784.3, 133926.06, 0.16525353, 0.41170087, -169479.95, 154941.56, 0.0, 10.002226, 9.9983635 
2.8862867e+3, 2.7689108e+2, -105096.46, -446361.97, 103458.33, -0.02734777, 0.3888025, -76181.82, 150329.23, 0.0, 10.002493, 9.997974 
2.8859165e+3, 2.8688425e+2, 47970.09, -8656.34, 44323.77, 0.011387982, 0.44671407, 72251.88, 200826.36, 0.0, 10.001541, 10.000741 
2.8855467e+3, 2.9687783e+2, -197791.67, -188240.44, 40259.52, 0.19117923, 0.3610912, -152474.28, -121845.94, 0.0, 9.999568, 9.999853 
2.8851786e+3, 3.0687064e+2, -88607.266, 26158.084, 150504.28, 0.29127264, 0.30848092, 129847.79, 129847.79, 0.0, 9.999463, 10.000657 
2.8848127e+3, 3.168629e+2, -94443.43, -179762.02, 77069.11, 0.48887777, 0.09724061, -49014.91, -49014.91, 0.0, 9.999858, 9.998875 
2.8844365e+3, 3.268592e+2, 216869.1, 97071.78, 9216.027, -0.26074547, 0.50131774, 217573.94, 217573.94, 0.0, 10.001642, 9.999773 
2.9014644e+3, 1.3734612e+2, -1328246.5, -1183117.0, -10032.717, 0.06456947, 0.38321438, -1182426.6, 411613.4, 0.000000008553674, 10.0011425, 10.002878 
2.9010946e+3, 1.4733768e+2, -1422453.3, -1462784.3, 127604.88, 0.28651428, 0.13075137, -1313430.4, 182683.28, 0.0, 10.00115, 10.000322 
2.9007196e+3, 1.5733153e+2, -1459906.1, -1500878.3, 125214.49, -0.13995932, 0.05502713, -1353512.9, 44667.67, 0.0, 10.000461, 9.999774 
2.9003498e+3, 1.6732784e+2, -1148826.1, -874821.44, 30693.041, 0.004848963, 0.1851396, -871425.4, 428788.88, 0.0, 10.000245, 10.003376 
2.8999805e+3, 1.7732441e+2, -1316030.1, -1109094.4, 58424.984, 0.29180592, 0.1247049, -1093738.5, 108503.125, 0.0, 9.999158, 10.001733 
2.8996092e+3, 1.8732028e+2, -1144898.3, -931020.5, 113110.805, 0.14860262, 0.23191923, -882299.56, 221985.17, 0.0, 9.999568, 10.002014 
2.8992373e+3, 1.9731556e+2, -1173980.6, -1060364.9, 58916.023, -0.10818305, 0.16504079, -1035330.06, -28992.621, 0.0, 9.999314, 10.000634 
2.898866e+3, 2.073108e+2, -953372.56, -890769.9, -46922.223, -0.0975203, 0.31686407, -865666.75, 42721.668, 0.0, 10.000229, 10.000585 
2.8984952e+3, 2.1730529e+2, -927917.75, -1021824.6, -9305.202, 0.047049142, 0.31783894, -927004.6, -116558.78, 0.0, 10.00047, 9.998979 
2.8981277e+3, 2.2729866e+2, -745025.56, -859308.25, 88235.22, 0.2399912, 0.44720632, -697045.1, 15469.207, 0.0, 10.001119, 9.999007 
2.897761e+3, 2.3729104e+2, -765914.9, -937656.56, 68561.58, 0.4353129, 0.38673303, -741901.75, -127308.96, 0.0, 10.000627, 9.998158 
2.8973904e+3, 2.4728541e+2, -347152.16, -321183.2, 86975.766, 0.23273242, 0.516089, -246228.05, 270417.75, 0.0, 10.001465, 10.00119 
2.8970188e+3, 2.5727993e+2, -439696.88, -552623.2, 105155.92, -0.10792527, 0.46931696, -376804.03, 41891.477, 0.0, 10.001017, 9.999253 
2.8966507e+3, 2.6727298e+2, -327320.1, -498120.84, 142128.4, -0.07748633, 0.58399755, -246908.2, 73858.86, 0.0, 10.0014515, 9.998654 
2.8962836e+3, 2.7726504e+2, -342809.0, -586034.3, 121551.25, 0.07363984, 0.5427967, -292478.8, -69627.516, 0.0, 10.001075, 9.99768 
2.8959122e+3, 2.8725696e+2, -75588.87, -77845.28, -48933.195, 0.07908565, 0.49235347, -27770.879, 97154.18, 0.0, 10.000897, 10.000521 
2.8955388e+3, 2.972485e+2, -369579.4, -369747.16, 11021.389, 0.04436325, 0.2206789, -358641.6, -331643.7, 0.0, 9.998955, 9.9988575 
2.8951696e+3, 3.072433e+2, -36247.87, -10021.818, 184196.17, 0.068753876, 0.4132724, 161527.5, 161527.5, 0.0, 10.000311, 9.999773 
2.894803e+3, 3.172399e+2, -251982.67, -616912.1, 181989.58, 0.06412134, 0.7200634, -176739.06, -176739.06, 0.0, 10.000536, 9.995419 
2.894431e+3, 3.2723072e+2, -95014.266, 125608.914, 131125.88, -0.4251431, 0.5196235, 186652.64, 186652.64, 0.0, 9.999245, 10.00073 
2.9114604e+3, 1.3771997e+2, -1485065.5, -1425813.8, 46654.125, 0.14971465, 0.12771553, -1400173.9, 190196.67, 0.000000011355019, 10.000541, 10.001621 
2.9110882e+3, 1.4771597e+2, -1394871.8, -1480969.5, 205089.03, 0.15206218, 0.40256476, -1228362.3, 264045.3, 0.0, 10.001319, 10.000203 
2.9107156e+3, 1.5770768e+2, -1331536.8, -1422341.8, 208093.53, -0.08513401, 0.15215616, -1163950.3, 230543.97, 0.0, 10.001123, 10.000055 
2.9103446e+3, 1.6770355e+2, -1130173.3, -897338.44, 76529.26, 0.063489944, 0.23422949, -874437.0, 422094.72, 0.0, 10.000415, 10.003171 
2.909973e+3, 1.7770033e+2, -1316082.0, -1152904.6, 148162.89, 0.20867234, 0.2598681, -1065351.5, 133206.25, 0.0, 9.999172, 10.001478 
2.9096022e+3, 1.8769474e+2, -1061535.4, -1054426.0, 236805.86, 0.06238402, 0.3153153, -821148.1, 279468.8, 0.0, 10.000696, 10.00069 
2.909232e+3, 1.9768843e+2, -744823.3, -943891.4, 144257.31, -0.17942457, 0.25772327, -669094.1, 333592.84, 0.0, 10.002487, 9.999962 
2.9088628e+3, 2.0768318e+2, -487942.34, -697820.75, -17886.807, -0.029646516, 0.39368057, -486428.88, 418314.22, 0.0, 10.003416, 10.000429 
2.9084933e+3, 2.1767788e+2, -432729.38, -725573.0, 10998.692, 0.20995702, 0.4642375, -432316.84, 374481.75, 0.0, 10.003445, 9.999635 
2.908123e+3, 2.2767153e+2, -487284.88, -610652.44, 118232.375, 0.25163338, 0.516669, -415612.8, 293249.2, 0.0, 10.00219, 10.000267 
2.907753e+3, 2.3766443e+2, -703975.3, -804207.9, 211706.7, 0.21356054, 0.43652973, -536533.9, 74398.625, 0.0, 10.000398, 9.999254 
2.9073846e+3, 2.4765748e+2, -343890.88, -499993.34, 260336.42, 0.0869306, 0.48735717, -150157.19, 362843.97, 0.0, 10.002009, 9.999809 
2.9070157e+3, 2.5765052e+2, 71911.555, -326219.84, 105935.25, -0.08067112, 0.4459293, 98344.03, 513413.1, 0.0, 10.004375, 9.999258 
2.906646e+3, 2.6764455e+2, -119865.375, -262493.97, 56772.01, -0.0856396, 0.5579917, -100027.1, 217102.39, 0.0, 10.002083, 10.000041 
2.906276e+3, 2.776384e+2, -684958.0, -628821.8, 108923.2, -0.012740609, 0.5841538, -544408.44, -325215.4, 0.0, 9.998008, 9.99891 
2.9059073e+3, 2.8762984e+2, -247817.84, -271846.25, 68240.15, 0.23238929, 0.4977461, -190542.38, -69268.91, 0.0, 10.000149, 9.999552 
2.9055336e+3, 2.9762107e+2, 203736.17, 8880.0625, -89713.93, 0.13006182, 0.3003747, 238749.86, 262103.03, 0.0, 10.002225, 9.999899 
2.9214558e+3, 1.3809581e+2, -1637400.5, -1615398.1, -83764.68, 0.2828155, 0.18248266, -1541915.3, 44768.69, 0.00000000463828, 10.000196, 10.000372 
2.9210824e+3, 1.4809331e+2, -1538821.3, -1531041.9, 134364.27, 0.12520352, 0.6049014, -1400511.0, 88200.195, 0.0, 10.000377, 10.00022 
2.9207116e+3, 1.5808412e+2, -1464971.9, -1532537.5, 125598.92, 0.093037225, 0.24830805, -1368691.8, 22112.977, 0.0, 10.000506, 9.999555 
2.920339e+3, 1.6807942e+2, -1114124.1, -974147.1, -39144.77, 0.14878851, 0.3228484, -963943.94, 328904.06, 0.0, 10.000929, 10.002381 
2.919965e+3, 1.780756e+2, -1302359.9, -1297413.5, 24978.09, 0.14279634, 0.34142554, -1274786.5, -79905.17, 0.0, 10.000032, 10.000054 
2.9195958e+3, 1.8806921e+2, -1132857.8, -1212455.6, 229301.69, -0.022018414, 0.42284408, -939926.75, 157023.22, 0.0, 10.000906, 9.999404 
2.9192284e+3, 1.9806156e+2, -1102838.5, -1315560.6, 154846.28, -0.14706999, 0.33323556, -1021343.06, -22308.723, 0.0, 10.000966, 9.998131 
2.9188603e+3, 2.0805602e+2, -757862.44, -836999.06, 2884.6855, 0.10092467, 0.51940036, -757757.44, 143335.8, 0.0, 10.001781, 10.000194 
2.9184917e+3, 2.1805081e+2, -819545.5, -930138.0, 22836.406, 0.42668182, 0.59522575, -815015.56, -11868.534, 0.0, 10.001028, 9.999366 
2.918118e+3, 2.2804475e+2, -502525.97, -426991.0, 32729.56, 0.18607709, 0.5730148, -414782.4, 290421.38, 0.0, 10.001397, 10.001843 
2.9177427e+3, 2.3803794e+2, -801302.7, -861204.2, 138299.27, -0.20894216, 0.34998867, -689748.2, -82481.63, 0.0, 9.9999485, 9.999029 
2.9173777e+3, 2.4802916e+2, -615284.94, -881975.2, 322834.06, -0.12649614, 0.36458063, -399341.16, 110015.28, 0.0, 10.0013895, 9.997403 
2.9170153e+3, 2.5801975e+2, -414579.56, -747230.44, 155010.86, 0.072029985, 0.26895005, -353545.13, 57909.438, 0.0, 10.001975, 9.997493 
2.9166412e+3, 2.6801538e+2, -142252.17, -13817.73, -94780.98, -0.0756537, 0.46258047, 36452.098, 349949.56, 0.0, 10.001037, 10.002127 
2.9162642e+3, 2.7801198e+2, -729530.94, -574557.7, 60796.69, -0.3674246, 0.5407121, -553553.6, -338023.9, 0.0, 9.997524, 9.999471 
2.9159024e+3, 2.8800336e+2, -402950.6, -540689.8, 231344.27, 0.3569164, 0.5267161, -230442.5, -112826.29, 0.0, 10.00005, 9.997684 
2.9155287e+3, 2.9799607e+2, 170094.81, 288958.16, -339254.9, 0.028737077, 0.53232574, 573947.75, 593635.56, 0.0, 10.000878, 10.002433 
2.9314503e+3, 1.3846971e+2, -1695696.4, -1729545.4, -364503.13, 0.24843232, 0.41405204, -1347725.1, 235298.17, 0.0, 9.999989, 9.999772 
2.9310772e+3, 1.4846179e+2, -1476156.9, -1372574.9, 89521.37, 0.21488652, 0.23005702, -1320942.6, 164159.13, 0.0, 10.00009, 10.001534 
2.9307064e+3, 1.5845709e+2, -1374588.3, -1458453.4, 100874.01, 0.05872636, 0.23654301, -1307278.4, 79868.45, 0.0, 10.00081, 9.999991 
2.9303336e+3, 1.6845086e+2, -1089752.3, -1199159.4, -96291.59, 0.07572848, 0.2670099, -1033710.44, 255496.34, 0.0, 10.001968, 10.000411 
2.9299593e+3, 1.7844419e+2, -984702.6, -1220200.4, -44086.043, -0.048595037, 0.20309998, -976720.1, 214550.9, 0.0, 10.002382, 9.999507 
2.929591e+3, 1.8843865e+2, -895974.2, -1026397.44, 124915.625, -0.05506372, 0.32510203, -820272.8, 273057.38, 0.0, 10.002096, 10.000169 
2.929225e+3, 1.9843294e+2, -986438.75, -1104024.9, 99550.08, 0.009810105, 0.38011205, -929616.75, 65775.984, 0.0, 10.000921, 9.99966 
2.928855e+3, 2.0842698e+2, -800047.2, -745861.2, 5591.8975, 0.08400851, 0.38467777, -745290.1, 152161.56, 0.0, 10.000836, 10.001365 
2.9284832e+3, 2.1842094e+2, -813047.5, -869728.0, 91497.95, 0.12152188, 0.3071857, -745601.3, 53909.05, 0.0, 10.000563, 10.000095 
2.9281121e+3, 2.2841564e+2, -411050.94, -588949.9, 64894.99, 0.057531606, 0.45181635, -389894.25, 311672.34, 0.0, 10.002672, 10.000268 
2.9277408e+3, 2.3841013e+2, -60796.004, -504511.8, 27910.184, -0.081584334, 0.53029484, -59047.316, 544577.8, 0.0, 10.004767, 9.999276 
2.9273742e+3, 2.4840234e+2, -287875.2, -550553.7, 222057.17, -0.05477076, 0.5024705, -161223.38, 344481.5, 0.0, 10.002733, 9.999105 
2.9270092e+3, 2.5839368e+2, -618339.7, -695152.0, 196001.73, 0.06270444, 0.36816385, -457016.78, -49223.688, 0.0, 9.9997, 9.999034 
2.9266363e+3, 2.6838884e+2, -132932.27, -90464.09, -23530.781, 0.013795704, 0.49959043, -80003.01, 229837.05, 0.0, 10.001247, 10.001602 
2.926261e+3, 2.7838477e+2, 236491.67, -72116.77, -33332.035, -0.13804884, 0.5709348, 240050.73, 451929.06, 0.0, 10.003754, 10.0000105 
2.9258963e+3, 2.8837582e+2, -148025.02, -349163.97, 202020.28, 0.3261584, 0.44692436, -22925.682, 91042.57, 0.0, 10.001303, 9.998524 
2.9255223e+3, 2.9837054e+2, 22261.945, 281406.4, -333230.38, 0.062196027, 0.62003, 509369.44, 525390.44, 0.0, 9.99929, 10.003256 
2.9414445e+3, 1.3884057e+2, -1706857.5, -1748980.9, -373391.53, 0.33985183, 0.4217564, -1353934.1, 225458.92, 0.0, 10.000078, 9.999567 
2.9410723e+3, 1.4883108e+2, -1322695.8, -1186194.8, 109749.4, 0.36309895, 0.0071267006, -1125205.0, 356280.22, 0.0, 10.000851, 10.002362 
2.9407012e+3, 1.5882961e+2, -1553468.8, -1582190.0, 27591.576, 0.1131982, 0.2546228, -1536724.4, -153228.73, 0.0, 9.999909, 9.999535 
2.9403284e+3, 1.688219e+2, -1311976.5, -1457349.9, -80341.62, 0.030953206, 0.24575008, -1276320.5, 9250.571, 0.0, 10.001266, 9.99889 
2.9399538e+3, 1.7881262e+2, -1230988.4, -1461768.9, 19352.717, -0.13975345, 0.039681293, -1229376.8, -41713.6, 0.0, 10.001383, 9.99826 
2.939587e+3, 1.88808e+2, -987629.2, -990071.06, 128807.35, -0.019605896, 0.2458708, -860037.0, 229674.31, 0.0, 10.001244, 10.000782 
2.9392216e+3, 1.9880405e+2, -1196686.4, -1145304.8, 68303.625, 0.24279043, 0.39719895, -1098020.1, -106267.336, 0.0, 9.9993925, 10.000077 
2.9388484e+3, 2.0879741e+2, -807849.25, -605596.0, -60874.836, 0.03288174, 0.21257855, -588687.25, 305126.9, 0.0, 10.000323, 10.002493 
2.9384735e+3, 2.1879011e+2, -1033394.0, -1096450.5, 12139.201, -0.25712654, -0.08632596, -1031137.75, -235256.1, 0.0, 9.999707, 9.998935 
2.938107e+3, 2.2878587e+2, -759156.94, -1004446.3, 111623.35, -0.041391976, 0.34476763, -715965.9, -18029.137, 0.0, 10.001554, 9.997815 
2.9377416e+3, 2.3878202e+2, -587531.3, -876857.9, 75343.04, 0.23481438, 0.7637134, -569087.2, 30903.709, 0.0, 10.001875, 9.998024 
2.9373717e+3, 2.4877627e+2, -342353.0, -219187.47, 100380.766, 0.07314423, 0.7687173, -163004.64, 339043.47, 0.0, 10.001042, 10.002087 
2.9370004e+3, 2.5876984e+2, -828481.1, -699239.0, 142454.72, -0.13140501, 0.5671463, -607433.6, -203325.05, 0.0, 9.998059, 9.9997425 
2.936632e+3, 2.6876336e+2, -372941.53, -423303.84, 79723.195, 0.10981064, 0.63349617, -314517.2, -8345.258, 0.0, 10.000628, 9.999597 
2.936263e+3, 2.787565e+2, -66347.62, -311442.13, 18129.564, 0.31224295, 0.58513296, -65013.84, 143225.75, 0.0, 10.002235, 9.999071 
2.9358873e+3, 2.8874722e+2, -35427.273, 25106.11, 43608.41, -0.048242785, 0.2727922, 47922.05, 158250.94, 0.0, 10.000895, 10.00121 
2.9355147e+3, 2.9874334e+2, -220531.08, -110508.69, 205755.0, -0.075302176, 0.41381502, 47462.17, 59827.78, 0.0, 9.999111, 10.000551 
2.9514378e+3, 1.3920948e+2, -1489825.1, -1531091.4, -240637.27, 0.12242817, 0.12039629, -1268938.0, 306844.84, 0.0, 10.000898, 10.000742 
2.9510668e+3, 1.4920658e+2, -1343050.4, -1422468.5, 14116.654, 0.27909264, 0.46352705, -1340615.8, 137197.81, 0.0, 10.001612, 10.000427 
2.9506946e+3, 1.5920083e+2, -1539067.8, -1593738.9, -69942.55, 0.02618854, 0.47466168, -1491308.8, -111439.11, 0.0, 9.999932, 9.999515 
2.950323e+3, 1.6919366e+2, -1193797.9, -1215211.1, -79085.77, 0.029586617, 0.37999988, -1124697.3, 157239.53, 0.0, 10.001085, 10.000743 
2.94995e+3, 1.7918605e+2, -1039851.94, -1244258.4, 67437.37, -0.13571543, 0.21253097, -1019608.06, 164399.92, 0.0, 10.001932, 9.999572 
2.949581e+3, 1.8918021e+2, -1009713.0, -1082913.3, 108152.734, -0.07824523, 0.2954483, -932135.25, 153930.66, 0.0, 10.001277, 10.000205 
2.949214e+3, 1.9917473e+2, -1151191.3, -1210054.8, 47134.02, 0.075554594, 0.38465583, -1125054.6, -136933.25, 0.0, 9.999893, 9.999448 
2.948843e+3, 2.0916799e+2, -781135.75, -817772.44, -109116.96, 0.06500775, 0.3436004, -688810.2, 201379.66, 0.0, 10.001289, 10.000669 
2.9484707e+3, 2.1916078e+2, -582392.7, -857445.0, -156590.14, -0.05094783, 0.22060965, -511510.8, 280751.9, 0.0, 10.002488, 9.999303 
2.9481027e+3, 2.2915576e+2, -639479.8, -761344.3, 1411.2825, 0.006949455, 0.41726544, -639463.5, 54856.027, 0.0, 10.001426, 9.999616 
2.9477352e+3, 2.3915133e+2, -716488.4, -721886.8, 73381.19, 0.12237375, 0.63029975, -645756.75, -49385.016, 0.0, 9.999831, 10.000135 
2.9473653e+3, 2.4914713e+2, -481168.34, -230691.86, 74498.56, 0.07556299, 0.6812465, -210208.95, 288203.34, 0.0, 9.9996395, 10.002818 
2.9469946e+3, 2.5914234e+2, -447326.44, -391895.9, 58603.484, 0.021641847, 0.59941316, -354784.44, 45672.117, 0.0, 9.999916, 10.001049 
2.9466268e+3, 2.6913586e+2, -287561.13, -313322.4, 142275.28, 0.16871615, 0.56691647, -157584.63, 144934.98, 0.0, 10.000806, 10.000307 
2.946258e+3, 2.79129e+2, -90549.24, -265073.03, 130429.15, 0.2741117, 0.4916279, -20883.125, 183704.17, 0.0, 10.001649, 9.99972 
2.9458824e+3, 2.8912207e+2, 240233.72, 93012.63, 1551.0989, -0.058258545, 0.4234634, 240250.06, 346904.38, 0.0, 10.002866, 10.000845 
2.9455113e+3, 2.991177e+2, 153199.14, -135889.77, 213300.98, 0.08885254, 0.61689657, 266318.06, 275016.72, 0.0, 10.002233, 9.998973 
2.961433e+3, 1.3958083e+2, -1438134.6, -1506437.1, -74610.195, 0.17342082, 0.124349505, -1390231.1, 181917.5, 0.00000000001490612, 10.001406, 10.000638 
2.961062e+3, 1.4958042e+2, -1348950.1, -1584366.8, -42479.254, 0.24841452, 0.8096825, -1341519.6, 132637.86, 0.0, 10.00236, 9.99892 
2.960688e+3, 1.5957119e+2, -1637769.3, -1699801.8, -9774.749, 0.057510816, 0.60789573, -1636265.5, -260014.86, 0.0, 9.99961, 9.998912 
2.9603177e+3, 1.6956499e+2, -1277280.8, -1072446.0, -27600.066, 0.10687857, 0.5120051, -1068792.3, 209513.48, 0.0, 9.999836, 10.002263 
2.9599464e+3, 1.7955925e+2, -1411600.1, -1375076.1, 19278.01, 0.010898919, 0.37743896, -1366783.6, -186428.19, 0.0, 9.99932, 9.999894 
2.959575e+3, 1.8955229e+2, -1193640.0, -1205211.8, 39732.45, -0.12316057, 0.34873155, -1159274.4, -76852.27, 0.0, 10.0003605, 9.999702 
2.9592055e+3, 1.995449e+2, -1379572.6, -1550562.8, 74851.195, -0.07830413, 0.32362482, -1351436.3, -366940.53, 0.0, 9.999495, 9.997255 
2.9588383e+3, 2.0953871e+2, -1049704.8, -1189848.0, 42082.152, 0.15658082, 0.56113255, -1038039.4, -151472.36, 0.0, 10.000709, 9.998273 
2.9584703e+3, 2.1953228e+2, -972496.0, -1114042.4, -7190.207, 0.31858644, 0.6956956, -972131.7, -183491.33, 0.0, 10.000346, 9.998485 
2.9580975e+3, 2.2952537e+2, -606897.4, -427312.28, 20040.6, 0.049311124, 0.525654, -425103.06, 265602.56, 0.0, 10.000395, 10.002343 
2.9577252e+3, 2.3951936e+2, -903064.9, -700485.44, 57821.742, -0.18890288, 0.3192361, -685143.4, -92383.08, 0.0, 9.998226, 10.001033 
2.9573575e+3, 2.4951647e+2, -546470.6, -270736.9, 77243.58, 0.016967623, 0.46775913, -250572.61, 244214.78, 0.0, 9.999361, 10.002597 
2.9569906e+3, 2.5951335e+2, -620243.4, -469862.25, 94103.33, 0.24706294, 0.5413062, -424599.28, -27781.96, 0.0, 9.998885, 10.000947 
2.9566202e+3, 2.6950765e+2, -244301.94, -76514.1, 162487.78, 0.06701474, 0.44564736, 22459.334, 321330.75, 0.0, 10.000316, 10.002078 
2.956248e+3, 2.79502e+2, -328427.47, -450387.28, 130953.09, -0.25599074, 0.3513123, -244952.31, -44026.516, 0.0, 10.000477, 9.998967 
2.9558808e+3, 2.8949985e+2, 969.7654, -292898.9, 25821.656, 0.16726264, 0.91665053, 3221.411, 106171.69, 0.0, 10.002539, 9.99827 
2.9555094e+3, 2.9948825e+2, -82127.6, -357042.1, -30003.813, 0.2514213, 0.59741306, -78891.125, -73820.26, 0.0, 10.001245, 9.997897 
2.9714298e+3, 1.3995494e+2, -1461657.1, -1834531.6, 56480.29, 0.16092703, 0.5296757, -1453289.8, 115197.27, 0.00000010737005, 10.00245, 9.99794 
2.9710582e+3, 1.4994878e+2, -1135672.4, -1287675.3, -126774.414, 0.25830024, 0.57577527, -1063863.1, 406684.88, 0.0, 10.002861, 10.0007715 
2.9706824e+3, 1.5994237e+2, -1485154.5, -1604509.5, -17023.574, 0.056344315, 0.5404681, -1482773.9, -110166.22, 0.0, 10.00041, 9.999227 
2.9703125e+3, 1.6993573e+2, -1464592.1, -1400444.1, -41287.227, 0.2582711, 0.5402056, -1380236.5, -105564.016, 0.0, 9.999452, 10.000267 
2.9699418e+3, 1.7992881e+2, -1464834.9, -1393828.3, -46780.676, 0.25599533, 0.4634089, -1370604.0, -193864.7, 0.0, 9.998744, 10.00009 
2.9695705e+3, 1.899222e+2, -1017341.8, -928204.44, 32566.38, 0.0009819778, 0.32667807, -917574.06, 161224.9, 0.0, 10.000564, 10.001585 
2.9691997e+3, 1.9991563e+2, -884868.6, -1080439.6, 96892.54, -0.1796297, 0.21366553, -844994.5, 135865.08, 0.0, 10.00166, 9.9994955 
2.9688317e+3, 2.0991112e+2, -880993.4, -998727.7, 150565.48, -0.008401846, 0.4923844, -778196.3, 104714.47, 0.0, 10.0012665, 9.999375 
2.9684627e+3, 2.199066e+2, -864327.75, -958664.75, 196722.5, 0.12158156, 0.7584437, -709197.94, 75764.92, 0.0, 10.000451, 9.999571 
2.9680905e+3, 2.2989887e+2, -627264.94, -529746.7, 151920.95, -0.06872292, 0.5593045, -418951.97, 268084.8, 0.0, 10.000481, 10.001721 
2.9677176e+3, 2.3989113e+2, -564799.25, -549328.56, 100559.11, -0.27662402, 0.27629462, -456207.72, 132901.78, 0.0, 10.000417, 10.001061 
2.9673505e+3, 2.498871e+2, -280496.16, -227747.47, 113489.53, -0.074396074, 0.3672255, -137607.95, 353542.3, 0.0, 10.001392, 10.001962 
2.9669842e+3, 2.5988364e+2, -97178.26, -207267.02, 50217.797, 0.16383712, 0.4830585, -77712.836, 315472.84, 0.0, 10.00221, 10.0011835 
2.9666138e+3, 2.6987877e+2, 22690.166, 26823.475, 43984.04, -0.048939556, 0.4652559, 68789.38, 364022.13, 0.0, 10.002073, 10.0020485 
2.966242e+3, 2.798736e+2, -71961.94, -270013.66, -38032.35, -0.33445144, 0.43650123, -64909.617, 132373.1, 0.0, 10.001805, 9.999633 
2.9658785e+3, 2.8987035e+2, 105640.55, -189103.2, -7983.2485, 0.34627265, 0.8273373, 105856.62, 205174.0, 0.0, 10.00292, 9.998868 
2.9655048e+3, 2.9985717e+2, 263818.47, -154390.3, -124262.484, 0.17617641, 0.345957, 297954.3, 299408.88, 0.0, 10.003324, 9.998339 
2.9814267e+3, 1.4032765e+2, -1543036.3, -1972613.5, 180964.6, 0.18415168, 0.77620244, -1476964.9, 87874.01, 0.00000019973128, 10.002468, 9.996983 
2.981055e+3, 1.5031806e+2, -1180797.9, -1134875.5, -143411.03, 0.3792793, 0.39936846, -1012599.2, 454329.94, 0.000000000008976791, 10.001948, 10.002244 
2.9806772e+3, 1.603138e+2, -1511713.1, -1661153.5, -82903.93, 0.12984952, 0.45875248, -1474826.1, -105863.586, 0.0, 10.000546, 9.998792 
2.9803067e+3, 1.7030658e+2, -1515966.3, -1607333.8, -650.9185, 0.37118652, 0.53258055, -1515961.6, -244923.95, 0.0, 10.00004, 9.998533 
2.9799366e+3, 1.8029848e+2, -1627982.4, -1559210.5, 143723.02, 0.48180872, 0.4946559, -1445817.3, -272696.22, 0.0, 9.998159, 9.99924 
2.9795656e+3, 1.902926e+2, -1118965.9, -784540.7, 168680.75, 0.14176704, 0.34310707, -714238.56, 360931.56, 0.0, 9.999188, 10.003205 
2.9791945e+3, 2.0028755e+2, -1228375.9, -1095725.1, 96650.375, -0.16758218, 0.20324355, -1044831.3, -67620.22, 0.0, 9.998816, 10.000747 
2.978824e+3, 2.1028341e+2, -929057.1, -855773.75, 54831.188, -0.18490721, 0.34991026, -826467.94, 52783.95, 0.0, 10.000255, 10.000841 
2.978454e+3, 2.2028014e+2, -1094178.0, -1120315.5, 84532.58, -0.1067294, 0.60394156, -1021709.9, -240423.95, 0.0, 9.999238, 9.999041 
2.978083e+3, 2.3027334e+2, -850389.4, -794668.3, 74809.59, -0.13860558, 0.5908011, -742699.75, -59345.62, 0.0, 9.999852, 10.000118 
2.977712e+3, 2.4026485e+2, -988100.7, -979652.7, 89879.45, -0.23012945, 0.3997306, -893898.0, -308459.0, 0.0, 9.998695, 9.998905 
2.9773444e+3, 2.502584e+2, -522953.88, -423335.88, 111724.41, -0.18248616, 0.3556364, -350820.4, 136686.27, 0.0, 10.000291, 10.001086 
2.9769772e+3, 2.6025307e+2, -585731.7, -645008.56, 44763.85, -0.11881846, 0.4102115, -561683.6, -172120.73, 0.0, 9.999905, 9.999274 
2.976608e+3, 2.70249e+2, -243946.88, -186803.42, 16588.336, -0.1895902, 0.5650929, -182337.05, 109267.13, 0.0, 10.000793, 10.001135 
2.9762384e+3, 2.802438e+2, -353622.22, -400767.25, -12864.804, -0.28621155, 0.5800831, -350340.2, -156684.17, 0.0, 10.000057, 9.999556 
2.975875e+3, 2.902348e+2, 142242.06, 115844.55, 9023.942, 0.37351358, 0.21351562, 145032.02, 240775.84, 0.0, 10.002125, 10.001313 
2.9754996e+3, 3.0023023e+2, 138033.28, -161218.36, 59798.375, -0.1382721, 0.3845805, 149540.11, 149540.11, 0.0, 10.002538, 9.998603 
2.9914215e+3, 1.4069599e+2, -1353282.6, -1526262.3, -93743.445, -0.14245667, 0.3060263, -1312225.0, 249005.4, 0.000000019519112, 10.002163, 10.000316 
2.991052e+3, 1.5068941e+2, -1354530.5, -1355935.5, -133298.03, 0.51079154, 0.2661952, -1221933.1, 241359.39, 0.0, 10.001338, 10.001135 
2.9906696e+3, 1.6068162e+2, -1370092.8, -1508740.9, -108302.66, -0.1756068, 0.062296066, -1310827.1, 54536.15, 0.0, 10.00107, 9.999638 
2.9902953e+3, 1.7067534e+2, -1320889.9, -1268466.4, -3835.0957, -0.16819842, 0.058569804, -1268187.4, -762.60175, 0.0, 10.000283, 10.000783 
2.9899225e+3, 1.806703e+2, -1423776.4, -1356392.9, 236086.77, -0.27254313, 0.16680615, -1151605.9, 17868.031, 0.0, 9.999021, 10.000242 
2.9895538e+3, 1.9066669e+2, -1340212.5, -1099767.3, 238425.64, -0.2727446, 0.38305035, -952968.8, 118534.195, 0.0, 9.998498, 10.001461 
2.9891872e+3, 2.0066208e+2, -1551855.3, -1380661.3, 94481.63, -0.13584405, 0.5045654, -1338768.5, -365226.47, 0.0, 9.997032, 9.999708 
2.9888222e+3, 2.1065196e+2, -1059407.3, -1004915.4, 26023.523, 0.24154373, 0.15722723, -994484.2, -118842.85, 0.0, 9.99967, 10.000176 
2.9884547e+3, 2.206417e+2, -655432.94, -874371.5, -88384.27, 0.4373059, -0.21831831, -624206.44, 153536.06, 0.0, 10.0019, 9.999505 
2.9880813e+3, 2.3063669e+2, -641025.75, -701720.56, -102061.164, 0.25246063, -0.065332085, -564895.7, 114895.86, 0.0, 10.0011635, 10.000225 
2.9877093e+3, 2.406333e+2, -667040.2, -815898.5, -15291.497, 0.13945928, 0.25766423, -665485.6, -83660.055, 0.0, 10.000647, 9.9991865 
2.9873425e+3, 2.5062877e+2, -545521.9, -584831.44, -9380.019, 0.24150212, 0.5033203, -543398.4, -59524.12, 0.0, 10.0007, 9.999872 
2.9869747e+3, 2.60623e+2, -560722.1, -574063.6, -102327.59, 0.2834545, 0.60238457, -464848.06, -78913.164, 0.0, 9.99964, 9.999984 
2.9866022e+3, 2.7061668e+2, -505890.34, -252871.13, -41781.6, -0.062127195, 0.49212837, -246150.17, 41848.19, 0.0, 9.99864, 10.001865 
2.9862306e+3, 2.8061098e+2, -472225.72, -350394.88, 34361.84, -0.3604468, 0.42883846, -341371.6, -151317.16, 0.0, 9.998554, 10.000812 
2.9858688e+3, 2.906029e+2, 28114.857, 86301.98, 1072.0082, 0.29831046, 0.106837206, 86321.72, 178454.7, 0.0, 10.001104, 10.001876 
2.9854962e+3, 3.0060285e+2, 87746.74, -191848.45, -78805.516, -0.080464944, 0.760471, 108428.67, 108428.67, 0.0, 10.001932, 9.999008 
3.0014244e+3, 1.410788e+2, -1349024.1, -1708524.0, 124895.19, 0.5246557, 0.6906415, -1309893.3, 247580.78, 0.000000013810121, 10.002845, 9.998754 
3.0010468e+3, 1.5106934e+2, -1459846.0, -1703687.3, 310138.1, 0.60290956, 0.6313846, -1248524.5, 211043.83, 0.0, 10.00198, 9.998287 
3.000661e+3, 1.6106057e+2, -1469370.1, -1744177.6, 95804.85, -0.48904306, 0.56472236, -1439267.5, -77614.28, 0.0, 10.001124, 9.997918 
3.0002943e+3, 1.7105636e+2, -1266063.6, -1185369.9, -51412.496, 0.3929682, 0.72611266, -1160363.0, 103328.87, 0.0, 10.000431, 10.001088 
2.999926e+3, 1.8104978e+2, -1333821.8, -1607380.6, 26543.041, 0.72571397, 0.6571909, -1331270.1, -165516.58, 0.0, 10.000814, 9.997622 
2.999553e+3, 1.9103949e+2, -546220.4, -1074843.3, -119074.36, 0.27961785, 0.40885141, -520636.6, 547215.9, 0.0, 10.005471, 9.998123 
2.999181e+3, 2.0102859e+2, -228671.2, -1234813.3, -252422.22, -0.11328121, 0.22837521, -168894.63, 801063.7, 0.0, 10.008221, 9.995254 
2.9988137e+3, 2.1102466e+2, -484814.53, -920253.4, -263733.9, 0.009024348, 0.658715, -360543.72, 511455.75, 0.0, 10.00455, 9.998199 
2.9984462e+3, 2.2101639e+2, -860800.1, -1134403.1, -484123.8, 0.044181895, 0.612934, -494520.56, 279560.9, 0.0, 10.001218, 9.997975 
2.9980725e+3, 2.3100552e+2, -418567.78, -469328.88, -319822.94, -0.06500567, 0.04340554, -123119.91, 553062.75, 0.0, 10.002276, 10.001063 
2.9977044e+3, 2.4100573e+2, -350595.53, -837438.2, -11349.731, 0.13669185, 0.65600145, -350331.1, 227845.64, 0.0, 10.003635, 9.997488 
2.997333e+3, 2.5099427e+2, 192545.17, -392166.1, 15367.687, -0.12496258, 0.2762584, 192948.8, 673240.4, 0.0, 10.00656, 9.998151 
2.996964e+3, 2.6098526e+2, -873125.75, -819255.56, -32627.033, -0.18212135, 0.11142332, -803882.0, -421499.63, 0.0, 9.998048, 9.998914 
2.9965967e+3, 2.7098247e+2, 107737.33, 131118.28, -152520.78, 0.20996758, 0.27386186, 272395.97, 556804.8, 0.0, 10.002724, 10.002247 
2.996225e+3, 2.8097966e+2, -706175.0, -565697.06, -164478.48, -0.17278963, 0.43010804, -457087.84, -270652.5, 0.0, 9.997488, 9.999734 
2.9958588e+3, 2.9097253e+2, 371482.9, 137837.53, 626054.9, -0.13713284, 0.23077406, 891521.44, 980027.3, 0.0, 10.004329, 10.000392 
2.9954913e+3, 3.0096743e+2, 504278.28, -40962.227, -106292.836, -0.12025717, 0.5594598, 524266.9, 524266.9, 0.0, 10.005364, 9.998157 
