coord_x,coord_y,stress_xx,stress_yy,tau_xy,velocity_x,velocity_y,stress_1,eps,damage,lx,ly
5.0010026e+0, 1.24696806e+2, -1572182.5, -1633112.1, 62594.77, 0.05495068, 0.24372262, -1533032.6, 184957.89, 0.0027102246, 10.000723, 10.000206 
4.9993682e+0, 1.34699e+2, -1594116.8, -1536685.8, 15956.985, -0.054294053, 0.28488326, -1532550.0, 87415.29, 0.0016001622, 9.999728, 10.000662 
4.9989748e+0, 1.4469594e+2, -1582069.3, -1528848.0, 34262.277, -0.076388456, -0.054451466, -1512076.3, 9916.521, 0.00071385584, 9.999371, 10.000199 
4.9998632e+0, 1.5469801e+2, -1425394.9, -1403211.5, 7822.372, -0.0073349825, 0.052087355, -1400730.6, 23240.215, 0.00020880907, 9.99978, 10.000194 
5.000378e+0, 1.6469912e+2, -1364961.4, -1472269.0, 18640.504, 0.024912471, 0.21530084, -1361815.5, -35853.797, 0.00003056022, 10.000173, 9.998859 
5.000433e+0, 1.7469811e+2, -1231076.5, -1376674.6, 11032.7, 0.013798611, 0.1693997, -1230245.3, -2267.897, 0.0000010193884, 10.000503, 9.998684 
5.000198e+0, 1.8469751e+2, -1101373.6, -1191786.0, 8753.216, -0.006169038, 0.21579844, -1100534.0, 29452.791, 0.0, 10.000426, 9.999312 
4.999613e+0, 1.9469711e+2, -1089396.4, -1149118.1, -12680.7705, -0.03760872, 0.18038681, -1086815.4, -54823.77, 0.0, 9.999892, 9.999196 
4.999631e+0, 2.0469756e+2, -947999.8, -905345.2, -3363.4902, -0.024043486, 0.2613265, -905081.6, 28904.152, 0.0, 9.999657, 10.000302 
5.0002754e+0, 2.146984e+2, -836098.6, -809003.0, -46245.426, 0.03393135, 0.24690403, -774361.8, 61611.805, 0.0, 9.999787, 10.000231 
5.000332e+0, 2.2469822e+2, -817011.1, -908711.5, -30370.19, 0.03243705, 0.28042582, -807865.06, -69890.54, 0.0, 9.999938, 9.998801 
4.999761e+0, 2.3469648e+2, -703643.0, -816090.3, -13595.973, -0.03311904, 0.16270103, -702022.5, -62028.81, 0.0, 10.000094, 9.99869 
4.9995995e+0, 2.4469571e+2, -565147.4, -646735.4, 7900.2754, -0.051280763, 0.20061107, -564389.44, -22386.842, 0.0, 10.000146, 9.999154 
4.999896e+0, 2.5469542e+2, -493123.4, -581692.2, -8623.822, -0.017475996, 0.19433059, -492291.53, -48285.465, 0.000000000017365094, 10.0000515, 9.998978 
5.0000733e+0, 2.6469505e+2, -412471.28, -479583.66, 14832.469, 0.009223325, 0.26289657, -409339.34, -63328.117, 0.000000288742, 9.999881, 9.999081 
5.000123e+0, 2.7469453e+2, -357948.66, -407294.66, 24856.75, 0.027468607, 0.23665482, -347598.6, -99580.2, 0.0000033591298, 9.9996, 9.999038 
5.0000554e+0, 2.8469488e+2, -227730.19, -194231.39, 33348.76, 0.031415522, 0.33105212, -173662.13, -23648.428, 0.000018802597, 9.999396, 9.99992 
4.9997577e+0, 2.9469457e+2, -121388.234, -69349.0, -13773.979, 0.0031763907, 0.23106696, -65928.125, -13915.659, 0.000081046455, 9.9993305, 10.000143 
4.9995986e+0, 3.0469579e+2, -260008.81, -416588.2, -1179.2982, -0.012667484, 0.4552952, -259999.94, -259999.94, 0.0003038914, 9.999353, 9.997412 
4.9995685e+0, 3.1468996e+2, -75704.47, -11282.431, 45327.527, -0.011975252, 0.09220989, 12113.514, 12113.514, 0.00078894256, 9.999158, 10.000315 
1.5002969e+1, 1.2469593e+2, -1663080.3, -1720920.3, -20822.324, 0.16503443, -0.055253666, -1656364.1, 61627.543, 0.0026043395, 10.000357, 9.999799 
1.4998193e+1, 1.3470042e+2, -1660319.3, -1617760.0, -6013.346, -0.14953692, 0.33009338, -1616926.6, 3023.5645, 0.0015429672, 9.999539, 10.00022 
1.4996906e+1, 1.4469841e+2, -1630572.5, -1564650.3, 33886.79, -0.22901903, 0.12587899, -1550338.3, -28367.824, 0.0006869522, 9.999122, 10.00009 
1.4999574e+1, 1.5469857e+2, -1467577.0, -1438186.1, 40794.188, -0.022125095, 0.09220643, -1409521.1, 14445.949, 0.0001968844, 9.999584, 10.000062 
1.500114e+1, 1.6469887e+2, -1380476.5, -1443547.6, 17138.535, 0.07846777, 0.16587518, -1376120.3, -50155.03, 0.000026649353, 9.999946, 9.999178 
1.5001334e+1, 1.7469886e+2, -1235014.5, -1334255.4, 38515.742, 0.0458812, 0.22322448, -1221820.5, 6149.5386, 0.00000066228677, 10.00031, 9.999084 
1.5000556e+1, 1.8469866e+2, -1143512.1, -1210956.8, -24760.693, -0.018617582, 0.28658238, -1135398.0, -5423.1777, 0.0, 10.000174, 9.99931 
1.4998826e+1, 1.9469805e+2, -1127743.3, -1166219.0, -16750.88, -0.11027933, 0.26879352, -1121472.5, -89491.375, 0.0, 9.999659, 9.999202 
1.499887e+1, 2.0469731e+2, -1028124.2, -1009573.7, -11472.73, -0.07293487, 0.2572643, -1004095.9, -70108.305, 0.0, 9.999424, 9.999709 
1.5000805e+1, 2.1469624e+2, -913333.4, -909095.0, -25068.977, 0.10055676, 0.1480287, -886055.8, -50059.844, 0.0, 9.999559, 9.999663 
1.5000986e+1, 2.2469598e+2, -786470.94, -784602.0, -40668.23, 0.10050569, 0.1550446, -744857.5, -6860.313, 0.0, 9.999712, 9.999773 
1.4999254e+1, 2.3469652e+2, -671882.6, -686130.4, 8091.0825, -0.0992918, 0.20411366, -668226.2, -28234.594, 0.0, 9.999854, 9.999706 
1.4998807e+1, 2.4469641e+2, -594297.6, -654316.3, -10231.682, -0.15135577, 0.2532804, -592601.3, -50608.28, 0.0, 9.999949, 9.999208 
1.4999679e+1, 2.5469536e+2, -521713.34, -574602.3, 1074.802, -0.050176296, 0.19855917, -521691.5, -77686.46, 0.0, 9.999799, 9.999159 
1.5000226e+1, 2.6469505e+2, -388719.03, -376668.1, -9389.833, 0.02980106, 0.22082806, -371536.72, -25528.846, 0.00000013049092, 9.999687, 9.999892 
1.500039e+1, 2.7469552e+2, -344256.5, -315801.13, 25547.883, 0.0853934, 0.2496396, -300786.34, -52785.203, 0.0000024373799, 9.999358, 9.999797 
1.5000126e+1, 2.8469443e+2, -311407.88, -316186.2, 17556.094, 0.09296609, 0.19544253, -296079.1, -146069.0, 0.000015368285, 9.999209, 9.999187 
1.4999261e+1, 2.946908e+2, -218500.53, -199237.66, 7154.948, 0.0076606018, -0.12134569, -196870.84, -144826.6, 0.000069496324, 9.999043, 9.999406 
1.499887e+1, 3.0469364e+2, -183198.8, -178802.47, -19528.242, -0.022382375, 0.2285793, -161349.06, -161349.06, 0.00026841622, 9.999107, 9.999184 
1.4998661e+1, 3.14693e+2, -90661.58, 93595.59, 95219.7, -0.03040413, 0.25628605, 133960.28, 133960.28, 0.0007052667, 9.998665, 10.001295 
2.5003114e+1, 1.2469723e+2, -1706374.8, -1773452.4, -27519.783, 0.16824295, -0.0584241, -1696529.4, 21446.91, 0.0024837567, 10.000228, 9.999472 
2.4998727e+1, 1.3470101e+2, -1530265.9, -1615492.1, -48394.973, -0.09512877, 0.29271987, -1508396.9, 111547.29, 0.0014731403, 10.000737, 9.999638 
2.4997336e+1, 1.4469951e+2, -1407279.3, -1473158.9, 54774.535, -0.16776454, 0.17582451, -1376302.9, 145657.52, 0.00065158884, 10.000758, 9.9999075 
2.4999481e+1, 1.5469925e+2, -1369587.3, -1413275.8, 39003.668, -0.019006716, 0.109315895, -1346727.4, 77232.9, 0.0001815959, 10.000377, 9.999835 
2.5000903e+1, 1.6469932e+2, -1322577.6, -1403186.1, 70659.89, 0.052634083, 0.16699056, -1281535.4, 44424.43, 0.000022322774, 10.000296, 9.999273 
2.5001565e+1, 1.7469928e+2, -1194544.6, -1296716.1, 60434.6, 0.037035212, 0.1961454, -1166497.0, 61466.035, 0.00000035252413, 10.00053, 9.999217 
2.5001037e+1, 1.8469888e+2, -1092612.5, -1210309.5, 3022.7732, -0.0010974541, 0.24399821, -1092534.9, 37433.46, 0.0, 10.000617, 9.999092 
2.4999304e+1, 1.9469793e+2, -1035339.75, -1143298.1, -18486.617, -0.05492864, 0.20211473, -1032261.9, -284.3279, 0.0, 10.000388, 9.998991 
2.4999294e+1, 2.0469695e+2, -930465.3, -1017675.8, 48694.836, -0.010092098, 0.19955201, -908705.4, 25281.797, 0.0, 10.000337, 9.999207 
2.500116e+1, 2.1469563e+2, -824128.56, -927397.75, 28755.38, 0.14448234, 0.10908449, -816661.5, 19338.46, 0.0, 10.000439, 9.999107 
2.5001323e+1, 2.2469528e+2, -698571.2, -743649.3, 16572.88, 0.13989909, 0.13670953, -693134.06, 44868.938, 0.0, 10.00032, 9.9997425 
2.499964e+1, 2.346958e+2, -668842.06, -692051.8, -23299.771, -0.040845867, 0.17334108, -654417.1, -14420.224, 0.0, 9.999897, 9.999633 
2.4999076e+1, 2.4469575e+2, -637615.6, -646830.2, -30630.836, -0.09153508, 0.22124079, -611247.5, -69250.44, 0.0, 9.999554, 9.999431 
2.4999705e+1, 2.546948e+2, -575674.6, -575194.94, -22467.547, 0.0059029516, 0.14327332, -552965.94, -108958.94, 0.0, 9.99933, 9.999363 
2.5000006e+1, 2.6469463e+2, -440859.53, -392774.6, -7450.7246, 0.067221746, 0.16841146, -391646.6, -45639.164, 0.00000003137998, 9.9993105, 9.9999485 
2.4999909e+1, 2.7469528e+2, -315262.13, -296132.8, -45116.324, 0.101668805, 0.2016488, -259578.44, -11579.944, 0.0000016497497, 9.999549, 9.999829 
2.4999586e+1, 2.8469384e+2, -275652.13, -345451.8, -22365.14, 0.105047554, 0.13168874, -269100.8, -119089.26, 0.000012071121, 9.999669, 9.998751 
2.4999082e+1, 2.9468971e+2, -185098.92, -239915.84, -26913.182, 0.07307303, -0.20039476, -174094.58, -122041.96, 0.00005739791, 9.999553, 9.998863 
2.4998537e+1, 3.0469304e+2, -130011.664, -78367.55, -41461.168, 0.048220955, 0.19661862, -55344.883, -55344.883, 0.00023072664, 9.999166, 9.999846 
2.4997161e+1, 3.146933e+2, -150273.17, 45067.375, -44970.46, -0.005098778, 0.21532762, 54923.027, 54923.027, 0.000617959, 9.998372, 10.001078 
3.500103e+1, 1.24700494e+2, -1740117.5, -1791654.0, -62106.297, -0.13445176, 0.15722631, -1698645.9, 19300.523, 0.0023583595, 10.000027, 9.999439 
3.5000527e+1, 1.3470078e+2, -1559138.6, -1650293.9, -19425.85, -0.026265692, 0.20173949, -1555171.5, 64775.395, 0.0013953737, 10.000653, 9.999432 
3.4999835e+1, 1.4469904e+2, -1426223.1, -1477542.1, 22995.14, -0.037090123, 0.069883004, -1417427.0, 104537.18, 0.0006105934, 10.000615, 9.999942 
3.4999156e+1, 1.5470003e+2, -1375096.0, -1400331.0, 40541.484, -0.1280269, 0.12685429, -1345253.9, 78697.42, 0.00016453842, 10.000289, 9.999959 
3.4999388e+1, 1.6470033e+2, -1321342.3, -1375415.6, 60705.277, -0.16547665, 0.18756652, -1281925.1, 44021.535, 0.000017966355, 10.000181, 9.999527 
3.5000774e+1, 1.7469916e+2, -1190993.3, -1272148.8, 85528.57, -0.13172142, 0.08920841, -1136904.8, 91053.4, 0.00000014192928, 10.000454, 9.999428 
3.5001287e+1, 1.84698e+2, -1121260.1, -1230242.6, -19700.65, -0.070975296, 0.054707766, -1117808.3, 12161.204, 0.0, 10.000458, 9.999027 
3.5000682e+1, 1.9469678e+2, -1059643.8, -1159712.8, -12105.49, 0.010317311, -0.0020307445, -1058200.3, -26219.057, 0.0, 10.00025, 9.998942 
3.5000575e+1, 2.0469642e+2, -962866.5, -1045696.8, 34828.484, 0.055271327, 0.065637045, -950168.44, -16182.973, 0.0, 10.000175, 9.999092 
3.500102e+1, 2.1469665e+2, -856190.6, -952963.94, 47557.094, 0.05549998, 0.14863789, -836732.25, -746.95056, 0.0, 10.000269, 9.999013 
3.5001016e+1, 2.2469607e+2, -778271.4, -857925.44, -9371.5, 0.04681292, 0.19391724, -777183.7, -39191.375, 0.0, 10.000115, 9.999052 
3.5000533e+1, 2.3469447e+2, -746007.44, -801094.1, -24248.686, 0.02592275, 0.096705094, -736854.25, -96845.88, 0.0, 9.999694, 9.998976 
3.5000104e+1, 2.4469377e+2, -617502.25, -572517.7, -52828.582, 0.02601854, 0.083242714, -537592.56, 4421.8887, 0.0, 9.999411, 10.000014 
3.4999654e+1, 2.546938e+2, -557994.2, -497186.3, -14913.937, 0.035715505, 0.050055437, -493725.44, -49714.04, 0.0, 9.999156, 9.999983 
3.4999087e+1, 2.6469395e+2, -485279.1, -463104.28, -11749.627, 0.014415829, 0.09304142, -458036.7, -112027.805, 0.0000000045955626, 9.999215, 9.999511 
3.4998244e+1, 2.7469394e+2, -365233.16, -366674.63, -17855.568, -0.054707803, 0.11434087, -348083.78, -100074.734, 0.0000011896407, 9.999406, 9.999413 
3.499812e+1, 2.846932e+2, -278712.7, -329081.13, -39659.777, -0.042334963, 0.12748644, -256916.67, -106899.09, 0.000009641755, 9.999581, 9.998905 
3.4998834e+1, 2.9469135e+2, -207531.17, -251550.31, -17155.02, 0.05188046, 0.015783846, -201635.27, -149597.33, 0.0000464018, 9.999411, 9.998855 
3.4998086e+1, 3.0469376e+2, -140766.25, -91065.5, -82736.2, 0.05611874, 0.3281957, -29528.262, -29528.262, 0.00019513248, 9.999105, 9.9997835 
3.499428e+1, 3.146914e+2, -248975.66, -142867.22, -27346.367, -0.20487651, 0.08283313, -136234.14, -136234.14, 0.00053834624, 9.99828, 9.999829 
4.50011e+1, 1.24701686e+2, -1736368.9, -1755345.9, -20592.355, -0.09404989, 0.19920288, -1723184.1, -5248.9834, 0.0022337737, 9.999928, 9.999718 
4.500162e+1, 1.3470091e+2, -1668984.0, -1712662.5, -34710.508, 0.07612196, 0.1448123, -1649813.9, -29869.447, 0.0013153872, 9.999947, 9.999337 
4.5001107e+1, 1.4469944e+2, -1518967.3, -1538568.0, 42603.84, 0.07612787, 0.051805515, -1485051.1, 36907.2, 0.00056916923, 10.000029, 9.999824 
4.4999382e+1, 1.5469994e+2, -1379799.8, -1422203.3, 7414.1865, -0.119700424, 0.07840421, -1378540.8, 45409.5, 0.00014812649, 10.000321, 9.999814 
4.4999373e+1, 1.6470021e+2, -1291156.3, -1338442.0, 49662.21, -0.17714985, 0.13415328, -1259796.3, 66149.51, 0.000013959289, 10.000308, 9.999716 
4.5001447e+1, 1.7469944e+2, -1246768.4, -1277472.1, 39307.46, -0.07413733, 0.05809917, -1219921.3, 8031.6177, 0.000000037538413, 9.999984, 9.9996195 
4.5002174e+1, 1.8469837e+2, -1162133.6, -1245422.1, -22242.922, 0.00048804173, 0.023614902, -1156565.6, -26602.918, 0.0, 10.000153, 9.9990835 
4.5001245e+1, 1.94697e+2, -985498.4, -1120966.4, -31498.074, 0.029288484, -0.052597042, -978532.8, 53442.5, 0.0, 10.000738, 9.998984 
4.5000884e+1, 2.046966e+2, -868834.56, -1015521.6, 37546.477, 0.045722917, 0.016231991, -859782.6, 74197.43, 0.0, 10.0008745, 9.998969 
4.500118e+1, 2.14697e+2, -844675.0, -961517.25, 19287.498, 0.051550947, 0.12864631, -841573.44, -5594.666, 0.0, 10.000402, 9.998894 
4.5001325e+1, 2.2469638e+2, -784256.1, -880245.6, 13449.973, 0.07697184, 0.18396084, -782407.1, -44420.48, 0.0, 10.000152, 9.998892 
4.500134e+1, 2.3469445e+2, -698069.9, -798882.4, 12254.083, 0.12862961, 0.07340187, -696601.75, -56595.37, 0.0, 10.0001135, 9.998802 
4.500064e+1, 2.446936e+2, -545505.06, -550118.0, 7133.931, 0.12353383, 0.059583467, -540314.0, 1700.1627, 0.0, 9.999962, 9.999899 
4.4999066e+1, 2.5469354e+2, -489194.97, -482519.8, -39137.277, 0.044568475, 0.029037844, -446578.06, -2565.7766, 0.0, 9.999697, 9.999825 
4.4998056e+1, 2.6469347e+2, -459767.2, -453101.0, -10567.719, -0.009500221, 0.06287477, -445353.22, -99341.26, 0.000000013083459, 9.999407, 9.999482 
4.4997773e+1, 2.7469334e+2, -394656.34, -385041.63, -10127.311, -0.020938853, 0.06835427, -378638.56, -130623.97, 0.0000010541644, 9.999224, 9.999378 
4.4997758e+1, 2.8469315e+2, -332228.7, -300004.13, 16724.068, 0.005437574, 0.116372034, -292893.6, -142876.23, 0.000008106713, 9.998978, 9.999404 
4.4997922e+1, 2.946927e+2, -286334.28, -238672.19, 34505.902, 0.07104252, 0.09608862, -220567.86, -168545.22, 0.000037622078, 9.99865, 9.999315 
4.4997108e+1, 3.0469388e+2, -176584.95, -119932.836, 36786.863, 0.07196586, 0.26996326, -101830.03, -101830.03, 0.00016443121, 9.998905, 9.999673 
4.4994155e+1, 3.1469157e+2, -82970.97, -127638.055, 40975.12, -0.099868536, 0.03194269, -58638.168, -58638.168, 0.00047154687, 9.999695, 9.999245 
5.5001825e+1, 1.2470104e+2, -1706658.1, -1709584.0, -72377.63, -0.11078412, 0.065575264, -1635728.6, 82211.164, 0.0021078985, 9.9999695, 10.000022 
5.500148e+1, 1.3470142e+2, -1657495.4, -1710390.3, -18845.273, 0.014188846, 0.12517121, -1651468.1, -31531.457, 0.0012334009, 10.000023, 9.999321 
5.500073e+1, 1.4470072e+2, -1537912.4, -1577864.4, 30650.707, -0.019883053, 0.12146375, -1521302.8, 639.83844, 0.00052778376, 10.000025, 9.9995575 
5.4999655e+1, 1.5469913e+2, -1403582.9, -1472372.4, 34210.625, -0.16967459, -0.03008615, -1389466.1, 34489.66, 0.00013278752, 10.000318, 9.999474 
5.5000186e+1, 1.6469906e+2, -1302046.9, -1341010.3, 22567.559, -0.16693859, 0.010687948, -1291715.3, 34240.54, 0.0000106646075, 10.000226, 9.999732 
5.500297e+1, 1.7470011e+2, -1246432.5, -1266010.4, 41720.953, 0.039028663, 0.106193826, -1213367.5, 14579.773, 0.000000007551507, 9.999943, 9.999711 
5.500324e+1, 1.8470003e+2, -1161679.6, -1222792.3, -17731.203, 0.054509748, 0.15191683, -1156907.8, -26959.646, 0.0, 10.000057, 9.999287 
5.50005e+1, 1.9469857e+2, -983231.06, -1095546.4, 3199.8118, -0.15589435, 0.051523924, -983140.0, 48820.39, 0.0, 10.00065, 9.999201 
5.4999715e+1, 2.0469755e+2, -899594.75, -1039895.2, 8407.852, -0.18982713, 0.0500412, -899092.7, 34877.617, 0.0, 10.000715, 9.998874 
5.500113e+1, 2.1469672e+2, -872145.8, -985923.75, 15782.981, -0.028440963, 0.051968277, -869997.0, -34016.6, 0.0, 10.000267, 9.998789 
5.500176e+1, 2.2469623e+2, -776405.0, -833455.4, -1165.9297, 0.07204107, 0.10539296, -776381.2, -38395.016, 0.0, 10.000023, 9.999275 
5.500162e+1, 2.3469593e+2, -690625.4, -753029.3, 26154.555, 0.11261395, 0.11654895, -681113.44, -41124.1, 0.0, 9.999982, 9.999181 
5.500015e+1, 2.4469528e+2, -618884.1, -679504.06, -13544.997, 0.04391216, 0.14805958, -615995.3, -73999.12, 0.0, 9.999867, 9.999053 
5.499732e+1, 2.5469404e+2, -575045.1, -615332.9, -34993.81, -0.13787794, 0.08457256, -554811.5, -110801.95, 0.0, 9.999518, 9.998989 
5.499651e+1, 2.646934e+2, -440412.7, -404967.66, -31842.002, -0.14255068, 0.08534906, -386248.4, -40232.496, 0.000000016276152, 9.99936, 9.999843 
5.4998106e+1, 2.7469334e+2, -380622.8, -337437.94, -1350.5956, 0.05158461, 0.060285416, -337395.75, -89379.78, 0.00000094951764, 9.999131, 9.999758 
5.499795e+1, 2.8469354e+2, -277341.0, -174367.7, -9674.222, 0.09071691, 0.08710865, -173466.7, -23454.861, 0.0000068871877, 9.998934, 10.000282 
5.4995775e+1, 2.946937e+2, -236134.03, -111848.766, 37669.62, -0.05360421, 0.03887784, -101322.92, -49315.906, 0.00003070153, 9.998548, 10.000236 
5.499515e+1, 3.0469337e+2, -186087.67, -121899.76, 57946.85, -0.049308248, 0.011169018, -87752.8, -87752.8, 0.00013855331, 9.998841, 9.999692 
5.49959e+1, 3.146935e+2, -93833.52, -117059.875, 116971.11, 0.030451488, 0.032837268, 12099.486, 12099.486, 0.0004144919, 9.999566, 9.999376 
6.5002894e+1, 1.24701545e+2, -1707106.0, -1680028.3, -43533.363, 0.030925784, 0.05976111, -1647977.0, 69958.54, 0.0019834668, 9.999797, 10.000331 
6.500227e+1, 1.3470162e+2, -1536843.5, -1652524.8, -34138.42, 0.066494904, 0.09632533, -1527520.4, 92412.57, 0.001149572, 10.000825, 9.999349 
6.5001523e+1, 1.4470138e+2, -1417334.8, -1540708.0, 36831.676, 0.02429264, 0.14242162, -1407175.6, 114758.51, 0.00048384682, 10.000962, 9.999352 
6.500067e+1, 1.5469937e+2, -1403984.0, -1492619.4, 6708.597, -0.09140845, -0.027312012, -1403479.1, 20473.629, 0.00011744106, 10.00043, 9.999263 
6.5001154e+1, 1.646991e+2, -1310873.5, -1350831.4, 28875.78, -0.07831494, 0.0054173274, -1295738.8, 30216.836, 0.000008467286, 10.000181, 9.999689 
6.500341e+1, 1.7470013e+2, -1232459.6, -1267683.5, 10927.106, 0.092319906, 0.10348147, -1229345.3, -1397.6138, 0.000000004638606, 10.0000725, 9.99964 
6.500354e+1, 1.8470038e+2, -1134632.9, -1168725.5, -488.9544, 0.08955746, 0.17046736, -1134625.9, -4681.131, 0.0, 10.000078, 9.999638 
6.500114e+1, 1.9469963e+2, -1028863.56, -1078525.4, 834.5178, -0.12157449, 0.10267234, -1028849.56, 3099.924, 0.0, 10.000173, 9.999546 
6.5000457e+1, 2.0469849e+2, -954537.4, -1087103.9, 20113.191, -0.1623317, 0.08185897, -951552.94, -17592.883, 0.0, 10.000421, 9.99869 
6.5001655e+1, 2.1469672e+2, -826583.94, -983387.5, -4244.1494, -0.012202893, 0.0086807795, -826469.1, 9509.8955, 0.0, 10.0006695, 9.998605 
6.5002054e+1, 2.2469608e+2, -689970.3, -774985.6, -14730.353, 0.08409816, 0.050007276, -687490.4, 50495.94, 0.0, 10.00053, 9.999436 
6.5001607e+1, 2.346966e+2, -684945.75, -727933.3, -32062.387, 0.12641557, 0.12075839, -667839.25, -27857.275, 0.0, 9.999912, 9.999386 
6.4999944e+1, 2.4469627e+2, -667748.75, -718776.8, -19371.838, 0.062201817, 0.17996095, -661227.9, -119241.54, 0.0, 9.99958, 9.998946 
6.499702e+1, 2.5469488e+2, -578982.94, -631424.8, -11743.142, -0.10902925, 0.11403243, -576473.4, -132470.89, 0.0, 9.999532, 9.998897 
6.4996165e+1, 2.6469412e+2, -447776.22, -392556.25, 34758.42, -0.097820126, 0.10275023, -375776.38, -29766.22, 0.00000000394634, 9.999246, 9.999988 
6.499772e+1, 2.7469406e+2, -411113.03, -328763.66, 19739.244, 0.12559468, 0.06542321, -324276.63, -76267.88, 0.0000007712445, 9.998841, 9.999948 
6.499732e+1, 2.8469437e+2, -304762.9, -205712.05, 6713.1006, 0.15139425, 0.09920153, -205259.14, -55255.684, 0.000006042053, 9.998824, 10.00012 
6.4994776e+1, 2.9469463e+2, -159220.77, -80897.24, -56965.195, -0.023606896, 0.077285, -50931.03, 1067.2604, 0.000026519589, 9.999123, 10.00016 
6.499427e+1, 3.046934e+2, -103963.81, -83754.67, -25469.38, -0.035331495, -0.041874636, -66458.664, -66458.664, 0.00012024143, 9.999401, 9.999693 
6.499649e+1, 3.146942e+2, -100079.7, -102857.14, -15617.37, 0.16045102, 0.053453054, -85789.43, -85789.43, 0.00036921015, 9.999418, 9.999573 
7.500344e+1, 1.24703005e+2, -1660717.9, -1589606.0, -65764.29, 0.019127965, 0.1857373, -1550401.1, 167523.27, 0.0018629195, 9.999832, 10.000929 
7.5003344e+1, 1.3470145e+2, -1522723.3, -1632582.4, 10707.684, 0.04622125, 0.04292191, -1521689.3, 98245.23, 0.0010666472, 10.000865, 9.999465 
7.50027e+1, 1.4470139e+2, -1436510.5, -1567730.6, 778.2893, -0.0017031002, 0.1097047, -1436505.9, 85427.27, 0.0004391749, 10.000908, 9.999193 
7.500196e+1, 1.5470055e+2, -1412680.8, -1521971.6, 4115.377, -0.04989052, 0.074651785, -1412526.0, 11416.395, 0.00010226521, 10.000465, 9.999052 
7.5001776e+1, 1.6470021e+2, -1328400.3, -1370381.0, 8153.8657, -0.07260246, 0.114063, -1326872.1, -925.57294, 0.000007138289, 10.000116, 9.999582 
7.500232e+1, 1.7469953e+2, -1248765.5, -1290486.5, 19431.26, -0.06282611, 0.05177144, -1241117.5, -13163.938, 0.00000003688298, 10.000025, 9.999506 
7.500262e+1, 1.8469942e+2, -1116579.1, -1113985.6, -11274.999, -0.04562488, 0.07111154, -1103933.1, 26020.014, 0.0, 9.999995, 10.000061 
7.50027e+1, 1.9469997e+2, -1002229.75, -1013315.5, 18192.967, -0.020788774, 0.08821518, -988754.0, 43190.29, 0.0, 10.000126, 10.00002 
7.5002664e+1, 2.0469931e+2, -987095.6, -1129084.0, 17102.72, -0.017276006, 0.10186394, -985064.6, -51114.617, 0.0, 10.000312, 9.998453 
7.500234e+1, 2.1469696e+2, -861716.44, -1030927.1, 18710.996, -0.046168316, -0.00822698, -859672.1, -23696.809, 0.0, 10.000552, 9.998338 
7.5001734e+1, 2.2469598e+2, -711126.8, -788741.0, -49123.33, -0.032059155, 0.013747291, -687331.3, 50655.727, 0.0, 10.0004015, 9.999403 
7.5000876e+1, 2.3469642e+2, -708665.5, -745265.8, -39194.746, 0.027874274, 0.08026848, -683709.1, -43724.125, 0.0, 9.999767, 9.999341 
7.499953e+1, 2.4469659e+2, -637530.06, -633311.5, -34495.93, 0.032330174, 0.15910852, -600860.44, -58875.6, 0.0, 9.999485, 9.999574 
7.499772e+1, 2.5469616e+2, -556666.3, -553611.2, 756.097, -0.026094545, 0.124497384, -553434.3, -109444.23, 0.0, 9.999391, 9.999498 
7.4996454e+1, 2.646958e+2, -468844.94, -410474.53, 6706.11, -0.0248033, 0.1290943, -409713.97, -63721.273, 0.00000000015133415, 9.999146, 9.9999075 
7.499605e+1, 2.7469558e+2, -439096.56, -355631.78, 22627.287, 0.036050677, 0.082883686, -349892.22, -101899.625, 0.00000065427645, 9.998711, 9.999824 
7.499545e+1, 2.8469568e+2, -387673.47, -371117.47, 5030.3394, 0.045873694, 0.15485528, -369708.88, -219716.94, 0.0000058927376, 9.998788, 9.999005 
7.4994445e+1, 2.9469553e+2, -250729.97, -249697.86, -27921.252, -0.012027374, 0.20643538, -222287.89, -170291.3, 0.000025865007, 9.999014, 9.9990635 
7.49939e+1, 3.0469388e+2, -120724.664, -98260.086, -27377.488, -0.04646747, 0.10471196, -79900.3, -79900.3, 0.00011203884, 9.999328, 9.999618 
7.499496e+1, 3.146933e+2, -98713.555, -61321.063, 31558.873, -0.006096202, 0.07100683, -43336.086, -43336.086, 0.00034091447, 9.999257, 9.999927 
8.500415e+1, 1.2470331e+2, -1551276.1, -1520843.9, -4779.1255, 0.087620296, 0.18383579, -1520111.0, 197809.36, 0.0017451695, 10.000537, 10.001051 
8.500423e+1, 1.347015e+2, -1590431.8, -1682664.6, -11474.9, 0.08395835, 0.0367706, -1589025.6, 30908.518, 0.0009891815, 10.0005, 9.999286 
8.500363e+1, 1.447015e+2, -1489071.0, -1593447.6, -10913.372, 0.03367803, 0.11699198, -1487942.1, 33990.67, 0.000399723, 10.000524, 9.999215 
8.500296e+1, 1.5470096e+2, -1369885.3, -1499523.8, -24065.143, 0.0001123355, 0.11060699, -1365562.1, 58376.94, 0.00008899464, 10.000749, 9.999072 
8.500252e+1, 1.6470046e+2, -1251003.9, -1352178.0, 11771.642, -0.030905576, 0.143148, -1249652.4, 76291.945, 0.000006071428, 10.000737, 9.999407 
8.500249e+1, 1.7469905e+2, -1217668.5, -1290620.3, -12392.342, -0.05218493, 0.027760567, -1215620.9, 12336.628, 0.000000076650345, 10.000316, 9.99936 
8.500271e+1, 1.8469866e+2, -1089946.5, -1102439.5, -18773.104, -0.034889396, 0.025250368, -1076407.9, 53552.047, 0.0, 10.000176, 10.000058 
8.5003304e+1, 1.9469948e+2, -988597.6, -1007085.7, -49672.22, 0.03222301, 0.069392346, -947316.56, 84633.164, 0.0, 10.0002165, 10.000019 
8.500342e+1, 2.0469925e+2, -968307.4, -1058480.1, -18882.617, 0.042762738, 0.10006717, -964512.94, -30562.045, 0.0, 10.000181, 9.999001 
8.5002816e+1, 2.1469757e+2, -900972.1, -989481.1, 12839.37, -0.018533513, 0.004915919, -899147.25, -63179.566, 0.0, 10.000026, 9.99888 
8.500177e+1, 2.2469674e+2, -815760.8, -843453.7, -23117.219, -0.025765909, 0.017062169, -802660.44, -64683.027, 0.0, 9.999718, 9.999347 
8.500034e+1, 2.346968e+2, -799626.5, -793832.3, -45810.89, 0.036307678, 0.055928137, -750827.0, -110847.06, 0.0, 9.999185, 9.999277 
8.49991e+1, 2.4469705e+2, -651889.3, -610177.9, 5009.1807, 0.06106848, 0.13141748, -609584.75, -67605.34, 0.0, 9.999254, 9.999833 
8.49981e+1, 2.546973e+2, -441678.75, -464383.34, -14337.431, 0.052020293, 0.13771723, -434743.44, 9233.895, 0.0, 10.0000515, 9.999778 
8.499677e+1, 2.646971e+2, -332025.22, -393004.4, -35475.344, 0.047832288, 0.16214052, -315737.53, 30240.795, 0.0000000019213902, 10.000253, 9.999511 
8.499537e+1, 2.746963e+2, -347032.66, -358949.03, -73186.01, 0.06750968, 0.09694388, -279562.72, -31578.129, 0.0000006294421, 9.999513, 9.999429 
8.499459e+1, 2.8469577e+2, -365691.53, -398031.9, -14144.543, 0.075817704, 0.14344087, -360378.2, -210386.8, 0.0000062489003, 9.999097, 9.998671 
8.499437e+1, 2.9469526e+2, -220004.77, -268288.88, -12608.081, 0.0753254, 0.19056943, -216910.78, -164908.72, 0.000027811611, 9.999371, 9.99876 
8.499388e+1, 3.0469483e+2, -80921.15, -89568.016, 35140.902, 0.018094532, 0.23165554, -49838.723, -49838.723, 0.00011222166, 9.999621, 9.999551 
8.499472e+1, 3.146931e+2, -87333.664, -13978.058, 41104.29, 0.06855562, 0.08246607, 4433.3745, 4433.3745, 0.00032900518, 9.999155, 10.000292 
9.500401e+1, 1.2470266e+2, -1587369.5, -1585833.4, -56799.605, -0.058655363, 0.06630303, -1529796.6, 188124.94, 0.0016362383, 10.000492, 10.000625 
9.500432e+1, 1.3470176e+2, -1616781.1, -1763860.4, -211.33594, -0.00036239115, 0.06617974, -1616780.8, 3151.372, 0.0009229167, 10.000599, 9.998684 
9.5003885e+1, 1.447017e+2, -1475538.1, -1560293.6, -17708.486, -0.037581947, 0.1610055, -1471986.9, 49946.094, 0.00036888671, 10.000506, 9.999449 
9.50032e+1, 1.547007e+2, -1355144.6, -1470957.4, 921.4351, -0.09250031, 0.085163444, -1355137.4, 68804.36, 0.00007923838, 10.000754, 9.999267 
9.5003015e+1, 1.647e+2, -1276133.3, -1391902.6, -15748.29, -0.09021909, 0.09990539, -1274029.3, 51918.367, 0.0000051224774, 10.000679, 9.999165 
9.500339e+1, 1.746988e+2, -1234758.1, -1326786.9, -11709.871, -0.03292513, 0.03109098, -1233291.5, -5332.9824, 0.00000007826353, 10.000313, 9.999114 
9.500329e+1, 1.8469816e+2, -1133594.5, -1177022.4, -30833.498, -0.027393753, 0.039751146, -1117596.4, 12368.389, 0.0, 10.000104, 9.999579 
9.500254e+1, 1.9469814e+2, -1033613.4, -1083851.1, -33043.72, -0.102038465, 0.043002035, -1017225.06, 14740.646, 0.0, 10.00014, 9.999529 
9.500231e+1, 2.0469834e+2, -899797.1, -889120.7, -38066.242, -0.118069686, 0.081418216, -856020.2, 77942.11, 0.0, 10.000057, 10.000225 
9.5002586e+1, 2.1469843e+2, -828690.0, -811798.0, 23067.818, -0.07719321, 0.036056172, -795678.56, 40278.707, 0.0, 9.999901, 10.000163 
9.5001674e+1, 2.2469826e+2, -841828.94, -869623.1, -54033.223, -0.04141557, 0.05093619, -799934.3, -61975.617, 0.0, 9.999597, 9.999224 
9.4999504e+1, 2.346975e+2, -828818.56, -831352.75, -53216.973, -0.00081476336, 0.02454771, -776853.6, -136884.27, 0.0, 9.999074, 9.999077 
9.499819e+1, 2.446975e+2, -672595.06, -628396.75, 20227.15, 0.012635288, 0.087604575, -620537.44, -78565.88, 0.0, 9.9991455, 9.999761 
9.4997793e+1, 2.5469813e+2, -458662.47, -483322.75, 34492.414, -0.021089656, 0.13571464, -434362.6, 9603.371, 0.0, 9.999966, 9.999696 
9.4996756e+1, 2.6469776e+2, -391299.16, -492337.4, -74646.68, -0.010807767, 0.17754774, -351683.34, -5713.6826, 0.0000000017799018, 10.000165, 9.998863 
9.4995165e+1, 2.7469605e+2, -414514.0, -467151.7, -88433.05, 0.06032172, 0.08782176, -348566.47, -100579.9, 0.0000005677249, 9.999379, 9.998746 
9.4994235e+1, 2.846947e+2, -345307.0, -342755.25, -20909.957, 0.09532315, 0.0684873, -323082.28, -173080.39, 0.0000064583187, 9.999041, 9.999074 
9.499405e+1, 2.946938e+2, -212310.03, -223442.11, 23090.197, 0.0641275, 0.027894566, -194124.48, -142108.95, 0.000029725905, 9.999242, 9.99913 
9.499375e+1, 3.0469626e+2, -84321.74, -81607.17, 14779.424, 0.010679675, 0.33978373, -68122.836, -68122.836, 0.0001135958, 9.999561, 9.999624 
9.4994795e+1, 3.1469372e+2, -89740.625, 13096.933, 58735.914, 0.0866308, 0.09896048, 39740.94, 39740.94, 0.00032168903, 9.999016, 10.000544 
1.0500482e+2, 1.2470231e+2, -1657861.0, -1668113.5, -54040.95, 0.0064963712, 0.01628346, -1608703.8, 109218.52, 0.0015480418, 10.000192, 10.000212 
1.0500466e+2, 1.3470167e+2, -1668878.1, -1823899.0, -30773.084, -0.001451807, 0.07987835, -1662992.8, -43060.11, 0.00087241904, 10.000388, 9.998377 
1.0500451e+2, 1.4470148e+2, -1449391.6, -1522250.8, 5013.9663, -0.019026246, 0.1608984, -1449048.3, 72887.72, 0.0003471946, 10.000596, 9.999656 
1.05004534e+2, 1.5470038e+2, -1313294.6, -1437697.1, -11912.546, -0.033357427, 0.06303247, -1312164.1, 111780.24, 0.000073446034, 10.000985, 9.999385 
1.0500435e+2, 1.6469976e+2, -1245120.1, -1368625.8, -17028.441, -0.024137434, 0.076753095, -1242815.3, 83133.48, 0.000004420773, 10.000863, 9.999228 
1.0500415e+2, 1.74699e+2, -1256054.5, -1334525.6, -21078.918, 0.028709091, 0.042789817, -1250750.8, -22795.299, 0.000000050630582, 10.000163, 9.999131 
1.05003595e+2, 1.8469834e+2, -1194857.3, -1230039.0, 25246.613, 0.015337418, 0.060796965, -1181677.5, -51715.348, 0.0, 9.999798, 9.999355 
1.050025e+2, 1.9469786e+2, -1128528.9, -1153006.6, 8905.238, -0.0833779, 0.04138196, -1125632.0, -93663.15, 0.0, 9.999607, 9.999299 
1.0500202e+2, 2.0469795e+2, -976955.9, -903623.0, -908.3424, -0.11163716, 0.07219832, -903611.75, 30354.969, 0.0, 9.9994335, 10.000427 
1.0500228e+2, 2.1469842e+2, -926000.94, -832108.44, -50108.9, -0.05017467, 0.042062793, -810389.94, 25567.52, 0.0, 9.999122, 10.000398 
1.0500139e+2, 2.246984e+2, -863278.5, -855513.4, -116294.86, -0.0072637605, 0.049322117, -743036.3, -5080.1245, 0.0, 9.999338, 9.999461 
1.0499933e+2, 2.3469764e+2, -657089.0, -720121.3, -112334.41, 0.030573476, 0.0026918119, -571933.5, 68031.7, 0.0, 10.000139, 9.999334 
1.0499803e+2, 2.4469738e+2, -560638.9, -606845.9, -13512.157, 0.044410225, 0.042327244, -556977.7, -15008.408, 0.0, 10.000056, 9.999473 
1.04997694e+2, 2.5469744e+2, -634003.8, -598753.44, -44043.418, 0.033262867, 0.06691372, -568939.56, -124969.766, 0.0, 9.998913, 9.999406 
1.0499653e+2, 2.6469705e+2, -600236.3, -580989.56, -101562.42, 0.032360137, 0.11334311, -488595.63, -142621.22, 0.00000000014537505, 9.998699, 9.998952 
1.04994655e+2, 2.7469578e+2, -375814.22, -437214.4, -87011.32, 0.06922541, 0.06205131, -314245.88, -66259.07, 0.00000042821608, 9.999618, 9.99883 
1.0499363e+2, 2.8469434e+2, -217208.7, -292639.94, 14084.836, 0.094556436, 0.03198711, -214664.53, -64661.1, 0.0000059800022, 9.999949, 9.998993 
1.0499362e+2, 2.9469284e+2, -186141.95, -227231.05, -15796.078, 0.097577825, -0.059963193, -180771.38, -128748.2, 0.000029321069, 9.999476, 9.999001 
1.0499364e+2, 3.046964e+2, -137845.67, -115022.14, -19963.877, 0.07268212, 0.37165067, -103438.586, -103438.586, 0.000109980174, 9.999235, 9.999551 
1.0499474e+2, 3.1469342e+2, -50357.316, 48400.69, -44591.254, 0.18375474, 0.09023368, 65554.88, 65554.88, 0.0003078243, 9.999216, 10.000693 
1.1500558e+2, 1.24702096e+2, -1681143.6, -1733586.0, -99692.26, -0.019032534, 0.026239628, -1604281.9, 113642.234, 0.0014882531, 10.000251, 9.999741 
1.150048e+2, 1.347012e+2, -1663854.3, -1825536.3, -14396.01, -0.06700344, 0.07075851, -1662582.5, -42645.746, 0.000840427, 10.000433, 9.998344 
1.1500514e+2, 1.4470065e+2, -1450633.0, -1506850.6, 1743.9309, -0.05659836, 0.11149355, -1450579.0, 71364.08, 0.00033535642, 10.000518, 9.999799 
1.1500627e+2, 1.5469997e+2, -1303488.8, -1415003.1, 21422.506, 0.0007487167, 0.037979823, -1299514.9, 124432.7, 0.0000716502, 10.000986, 9.999534 
1.1500603e+2, 1.6469976e+2, -1227745.4, -1327400.6, -55455.613, 0.019201636, 0.073270984, -1203020.1, 122927.5, 0.0000041980056, 10.000833, 9.999532 
1.15004435e+2, 1.7469952e+2, -1233704.3, -1284214.3, -33662.52, 0.0025679758, 0.055092547, -1216876.3, 11072.862, 0.000000024917117, 10.000145, 9.999485 
1.15003325e+2, 1.8469915e+2, -1215169.4, -1242157.1, 3538.8804, -0.021416493, 0.0852383, -1214713.1, -84760.42, 0.0, 9.999673, 9.999336 
1.1500267e+2, 1.9469854e+2, -1140346.0, -1160958.0, 16548.252, -0.06600175, 0.05991765, -1131156.9, -99197.15, 0.0, 9.999537, 9.99928 
1.1500207e+2, 2.0469807e+2, -1054291.0, -1037791.5, -27736.783, -0.08152366, 0.07563394, -1017103.6, -83139.18, 0.0, 9.999316, 9.999564 
1.1500144e+2, 2.1469738e+2, -1007127.56, -970968.9, -50053.984, -0.07674379, 0.014640113, -935829.25, -99859.69, 0.0, 9.998989, 9.999511 
1.1500054e+2, 2.2469711e+2, -843133.94, -779674.3, -101413.33, -0.053058587, 0.017781507, -705142.94, 32827.297, 0.0, 9.999197, 10.000046 
1.14999376e+2, 2.3469712e+2, -631527.4, -636609.9, -66818.234, -0.0112717515, -0.019952439, -567202.06, 72766.07, 0.0, 10.0, 9.999976 
1.1499825e+2, 2.4469657e+2, -615207.5, -689516.3, -68256.73, 0.029264389, -0.014955579, -574648.1, -32674.666, 0.0, 9.999936, 9.99896 
1.14997275e+2, 2.5469524e+2, -692689.3, -687978.4, -76224.414, 0.0670299, -0.0763471, -614073.0, -170083.83, 0.0, 9.998776, 9.9988575 
1.14995666e+2, 2.6469496e+2, -553090.7, -467624.78, -81594.664, 0.0464023, -0.029575909, -418250.22, -72257.48, 0.0, 9.99863, 9.999771 
1.14993416e+2, 2.746955e+2, -332006.78, -321097.7, -33646.2, -0.05031233, 0.017120823, -292466.78, -44480.945, 0.0000002594802, 9.999498, 9.999694 
1.1499233e+2, 2.8469464e+2, -270251.0, -381170.94, -13469.548, -0.0641629, 0.02728403, -268638.75, -118641.94, 0.000005001763, 9.999866, 9.998425 
1.149926e+2, 2.9469234e+2, -261499.94, -346541.44, -19390.723, 0.008374167, -0.07590088, -257287.25, -205261.39, 0.000026475647, 9.999322, 9.998258 
1.1499311e+2, 3.0469516e+2, -161810.45, -142868.33, -23993.809, 0.06420169, 0.33342785, -126543.96, -126543.96, 0.000100772006, 9.999163, 9.999387 
1.1499362e+2, 3.146921e+2, -62841.113, 55248.133, -8534.135, 0.07639553, 0.046064407, 55861.695, 55861.695, 0.00028477798, 9.999084, 10.000801 
1.2500675e+2, 1.2470189e+2, -1538908.5, -1654779.9, -120113.88, 0.037462413, 0.10396836, -1463488.0, 254441.8, 0.0014562852, 10.001213, 9.9998045 
1.2500563e+2, 1.3470064e+2, -1535910.4, -1718978.8, -50232.47, -0.0458973, 0.07540691, -1523032.9, 96909.66, 0.0008261713, 10.001122, 9.998743 
1.2500584e+2, 1.447e+2, -1444247.6, -1499122.4, 11250.221, -0.025187938, 0.08379761, -1442030.8, 79917.86, 0.00033346904, 10.000538, 9.999842 
1.2500685e+2, 1.5469979e+2, -1483107.1, -1498897.1, -15041.826, 0.03228184, 0.054576367, -1474014.3, -50064.414, 0.00007407354, 9.99974, 9.999555 
1.2500657e+2, 1.6469978e+2, -1395199.8, -1364426.4, -66520.49, 0.065630674, 0.0859232, -1311536.3, 14411.889, 0.000004716059, 9.999479, 9.999942 
1.2500492e+2, 1.7469949e+2, -1273386.5, -1259892.8, -64726.04, 0.07067943, 0.025587281, -1201562.9, 26385.332, 0.000000012759114, 9.999662, 9.999899 
1.2500371e+2, 1.8469922e+2, -1164558.9, -1197911.1, 26310.453, 0.04807015, 0.036479138, -1150084.8, -20135.352, 0.0, 9.9999275, 9.99951 
1.2500304e+2, 1.9469902e+2, -1031661.25, -1093098.9, 24147.906, -0.0075944713, 0.033276223, -1023306.2, 8645.784, 0.0, 10.000209, 9.999423 
1.2500235e+2, 2.0469843e+2, -944575.25, -1022343.4, 17528.027, -0.022716768, 0.046735376, -940807.25, -6849.3936, 0.0, 10.000237, 9.99922 
1.2500162e+2, 2.1469714e+2, -902529.06, -960022.06, 5091.913, 0.007055803, -0.034860432, -902081.6, -66111.79, 0.0, 9.999885, 9.999147 
1.2500045e+2, 2.2469667e+2, -803398.5, -781168.5, -5305.4453, 0.008992377, -0.02587696, -779967.2, -41993.566, 0.0, 9.999554, 9.999856 
1.2499884e+2, 2.3469697e+2, -754442.94, -711494.44, -59996.254, -0.015739236, -0.016898409, -669245.1, -29275.6, 0.0, 9.999241, 9.999812 
1.2499758e+2, 2.4469653e+2, -695569.06, -710329.0, -62162.0, 0.010634807, -0.0040141596, -640350.5, -98376.83, 0.0, 9.9993, 9.9991255 
1.249969e+2, 2.5469503e+2, -532929.7, -595555.0, -43638.66, 0.11169709, -0.095586516, -510531.84, -66542.555, 0.0, 9.999791, 9.999012 
1.2499542e+2, 2.6469478e+2, -393686.6, -399165.75, -9030.264, 0.11026807, -0.048053812, -386989.5, -40997.227, 0.0, 9.999763, 9.999686 
1.2499312e+2, 2.746956e+2, -386556.78, -354275.1, -62148.785, -0.0025187156, 0.03292659, -306205.38, -58221.008, 0.00000012209664, 9.999174, 9.999608 
1.2499199e+2, 2.8469488e+2, -361448.3, -420459.47, -26677.764, -0.041588284, 0.05876202, -351176.0, -201182.13, 0.000003888246, 9.999233, 9.998453 
1.2499242e+2, 2.946926e+2, -157834.86, -287693.66, -12426.082, 0.036192894, -0.049505867, -156656.5, -104636.0, 0.00002250982, 10.0000105, 9.998322 
1.2499293e+2, 3.0469415e+2, -79211.66, -149217.6, 18580.03, 0.108205974, 0.24878514, -74586.03, -74586.03, 0.000088219014, 9.999879, 9.999027 
1.24992386e+2, 3.146919e+2, -179286.64, -40393.207, -47901.367, 0.094318815, 0.07512529, -25475.313, -25475.313, 0.00025421134, 9.99845, 10.000455 
1.350074e+2, 1.24701545e+2, -1510529.0, -1586951.4, -180139.11, -0.09579406, 0.23366748, -1364593.0, 353347.75, 0.0014504807, 10.001174, 10.000291 
1.3500658e+2, 1.3470003e+2, -1467281.3, -1583376.1, -42917.516, -0.10309399, 0.08879853, -1453138.5, 166811.38, 0.0008289551, 10.001161, 9.99965 
1.350061e+2, 1.4469966e+2, -1451421.4, -1522228.0, -37266.527, -0.09762877, 0.083560124, -1435422.5, 86528.945, 0.0003411424, 10.000559, 9.99968 
1.350059e+2, 1.5469983e+2, -1498528.5, -1527689.8, -30829.832, -0.073941864, 0.11215571, -1479005.3, -55053.797, 0.00008049032, 9.999716, 9.999375 
1.3500549e+2, 1.6469973e+2, -1375856.3, -1291609.5, -76229.13, -0.021065114, 0.118614085, -1246639.5, 79310.98, 0.0000062176173, 9.999352, 10.000496 
1.3500497e+2, 1.7469892e+2, -1242858.6, -1181941.0, -40221.83, 0.07443332, -0.05044004, -1161946.5, 66006.29, 0.000000017143847, 9.999616, 10.00045 
1.3500415e+2, 1.8469875e+2, -1149360.6, -1155252.1, 23820.732, 0.06176974, -0.07570979, -1128304.3, 1646.8218, 0.0, 9.999865, 9.999839 
1.3500299e+2, 1.9469924e+2, -1018519.3, -1049862.8, 50993.793, -0.07210252, -0.043959513, -980843.4, 51102.137, 0.0, 10.000133, 9.999757 
1.3500237e+2, 2.0469902e+2, -951371.56, -1010908.8, -10964.646, -0.07396317, -0.01610718, -949416.5, -15469.523, 0.0, 10.000122, 9.999359 
1.350023e+2, 2.146977e+2, -913580.4, -949212.94, 7867.776, 0.05377389, -0.11622216, -911920.44, -75961.66, 0.0, 9.999736, 9.999296 
1.3500068e+2, 2.2469713e+2, -889984.7, -934775.75, -31682.672, 0.043138225, -0.077782825, -873581.3, -135615.33, 0.0, 9.999431, 9.998863 
1.3499719e+2, 2.3469715e+2, -844627.94, -869318.94, -56941.953, -0.13737911, 0.003656051, -798708.56, -158738.48, 0.0, 9.999105, 9.998795 
1.3499561e+2, 2.4469711e+2, -649297.44, -592320.25, -57555.836, -0.14934328, 0.067354985, -556588.3, -14617.269, 0.0, 9.999204, 9.999981 
1.3499616e+2, 2.5469685e+2, -488679.06, -472169.84, -8440.53, 0.024260981, 0.0040106685, -468618.47, -24648.111, 0.0, 9.999654, 9.999923 
1.3499537e+2, 2.646966e+2, -479859.72, -557311.7, -43864.3, 0.09741558, 0.056239273, -460072.66, -114099.36, 0.0, 9.999678, 9.998637 
1.349932e+2, 2.7469605e+2, -482413.16, -521315.94, -70402.2, 0.051928356, 0.1070825, -428824.63, -180840.94, 0.000000046518082, 9.999041, 9.998521 
1.349922e+2, 2.8469494e+2, -316579.6, -320630.97, -12099.051, 0.020608626, 0.121430516, -306337.84, -156341.97, 0.0000029362805, 9.999199, 9.999155 
1.3499263e+2, 2.9469332e+2, -113598.45, -176766.22, 34689.176, 0.013234507, 0.00091746094, -98268.8, -46259.38, 0.000019015239, 9.999915, 9.999134 
1.3499261e+2, 3.0469328e+2, -124551.84, -220054.23, -41814.734, 0.0612734, 0.11266895, -108831.41, -108831.41, 0.000075927965, 9.999797, 9.99857 
1.3499014e+2, 3.1469265e+2, -262987.13, -179363.7, -59417.37, -0.047650132, 0.16480415, -148521.14, -148521.14, 0.0002226974, 9.998307, 9.999568 
1.450076e+2, 1.2470099e+2, -1755282.3, -1675658.5, -66156.48, -0.08233929, 0.24097076, -1638258.5, 79688.47, 0.0014659849, 9.999379, 10.000543 
1.4500736e+2, 1.346998e+2, -1657026.9, -1612595.6, -12122.846, -0.05162875, 0.073072635, -1609503.3, 10447.7, 0.0008466132, 9.999597, 10.000195 
1.4500715e+2, 1.4469981e+2, -1578028.4, -1594888.1, 5773.1206, 0.00022268693, 0.083440974, -1576241.0, -54293.05, 0.00035647568, 9.999736, 9.99958 
1.4500628e+2, 1.5469956e+2, -1474606.8, -1525372.3, -12372.571, -0.006016046, 0.07983544, -1471751.9, -47799.156, 0.00008921642, 9.999917, 9.999296 
1.4500542e+2, 1.6469944e+2, -1287177.9, -1267442.6, -29008.613, 0.014102165, 0.09178662, -1246669.3, 79284.44, 0.000008328298, 10.00004, 10.000327 
1.450048e+2, 1.7469908e+2, -1189762.3, -1175690.5, -79835.79, 0.08116736, -0.013872252, -1102581.1, 125372.49, 0.0000000715251, 10.000057, 10.000278 
1.4500411e+2, 1.8469915e+2, -1149522.3, -1135141.4, -36033.992, 0.08388906, -0.015162615, -1105587.4, 24362.96, 0.0, 9.999781, 10.000029 
1.4500326e+2, 1.946995e+2, -1152934.9, -1097126.6, -50215.17, 0.0031189043, -0.012589713, -1067583.4, -35637.938, 0.0, 9.999124, 9.999938 
1.4500262e+2, 2.0469937e+2, -1098948.4, -1053286.4, -76626.414, 0.0023811883, 0.0029296998, -996162.0, -62216.63, 0.0, 9.998984, 9.999612 
1.4500214e+2, 2.1469851e+2, -953051.9, -940197.25, -81016.31, 0.091660894, -0.07943373, -865353.7, -29400.998, 0.0, 9.99935, 9.999539 
1.4500031e+2, 2.2469799e+2, -854254.3, -920011.8, -52591.266, 0.05976433, -0.043134935, -825110.06, -87151.47, 0.0, 9.9997, 9.998836 
1.4499703e+2, 2.3469768e+2, -710718.9, -814017.6, -37433.92, -0.10423761, 0.011634638, -698579.9, -58614.613, 0.0, 10.000062, 9.998722 
1.4499539e+2, 2.4469744e+2, -550302.25, -562757.0, -13076.974, -0.12034605, 0.06658062, -542045.56, -77.73617, 0.0, 9.999958, 9.9998255 
1.4499566e+2, 2.5469708e+2, -542081.0, -513623.03, -74729.67, 0.03512104, 0.01277913, -451779.75, -7812.334, 0.0, 9.999359, 9.99978 
1.4499502e+2, 2.6469657e+2, -527757.3, -613522.5, -86005.66, 0.11296116, 0.058652513, -474536.38, -128563.07, 0.0, 9.999483, 9.998355 
1.4499338e+2, 2.7469558e+2, -298973.6, -470005.16, -80062.74, 0.10744944, 0.099703446, -267344.2, -19355.53, 0.00000002138944, 10.000442, 9.998218 
1.4499225e+2, 2.846945e+2, -152011.42, -203287.27, 2857.3245, 0.06815576, 0.11115665, -151852.69, -1852.5248, 0.0000023054517, 10.000155, 9.999502 
1.4499184e+2, 2.9469335e+2, -282109.2, -203326.48, -16698.586, 0.02349913, -0.0004169239, -199933.25, -147927.27, 0.000016570593, 9.998531, 9.999605 
1.4499195e+2, 3.0469275e+2, -323340.1, -285854.72, -35245.21, 0.10198973, 0.017950851, -264678.56, -264678.56, 0.0000664134, 9.998324, 9.998818 
1.4499003e+2, 3.1469285e+2, -91232.305, -82436.86, -45754.363, 0.070144415, 0.124864325, -40869.355, -40869.355, 0.0001967113, 9.999439, 9.999685 
1.550066e+2, 1.2470065e+2, -1746126.0, -1683019.5, -109983.18, -0.20294747, 0.16208543, -1600152.9, 117791.734, 0.0014879738, 9.999471, 10.000462 
1.5500751e+2, 1.3470006e+2, -1647514.8, -1598099.5, 2536.158, -0.03395996, 0.04395792, -1597969.8, 21975.2, 0.0008684092, 9.999609, 10.000298 
1.550084e+2, 1.447005e+2, -1579441.3, -1583842.0, -6515.799, 0.11221903, 0.089459606, -1574764.4, -52826.434, 0.00037251608, 9.999684, 9.999677 
1.5500744e+2, 1.5469909e+2, -1475019.5, -1512347.9, 10233.194, 0.076078646, -0.040516842, -1472398.3, -48445.492, 0.00009664872, 9.99987, 9.9994 
1.5500596e+2, 1.6469899e+2, -1359804.9, -1404194.9, -42290.31, 0.027748685, 0.014884316, -1334239.1, -8283.131, 0.000009881803, 9.999974, 9.999427 
1.5500401e+2, 1.7470013e+2, -1265391.6, -1315652.0, -62732.39, -0.037068296, 0.15066141, -1222943.1, 5006.3506, 0.00000020107916, 9.999984, 9.999357 
1.5500315e+2, 1.8470047e+2, -1162866.1, -1143186.8, -74832.23, -0.022272717, 0.22682638, -1077550.0, 52397.11, 0.0, 9.999693, 10.000016 
1.550034e+2, 1.9469975e+2, -1166340.5, -1101633.1, -58381.785, 0.0730672, 0.12040179, -1067239.6, -35287.754, 0.0, 9.999032, 9.999948 
1.5500264e+2, 2.0469947e+2, -1091714.0, -1012285.8, -76551.96, 0.07458601, 0.10515412, -965759.5, -31806.67, 0.0, 9.998866, 9.999956 
1.5500057e+2, 2.1469954e+2, -948655.8, -895722.44, -52739.14, -0.032386, 0.08113719, -863181.44, -27230.238, 0.0, 9.999199, 9.999918 
1.5499897e+2, 2.2469932e+2, -814468.5, -811316.75, -53488.68, -0.07455524, 0.08633168, -759380.75, -21429.574, 0.0, 9.999579, 9.999643 
1.5499793e+2, 2.3469855e+2, -672279.25, -705185.9, -8282.066, -0.05098415, 0.012277937, -670312.4, -30356.996, 0.0, 9.999929, 9.9995365 
1.5499653e+2, 2.4469745e+2, -644656.1, -737632.8, -49547.617, -0.032559004, -0.0044911527, -623202.3, -81238.04, 0.0, 9.999866, 9.998669 
1.5499493e+2, 2.5469568e+2, -649023.1, -705290.94, -80791.586, -0.007675331, -0.07672117, -591607.06, -147625.63, 0.0, 9.99922, 9.998536 
1.5499385e+2, 2.646947e+2, -506465.47, -549355.1, -64743.81, 0.014899885, -0.038124934, -459707.34, -113714.88, 0.0, 9.999403, 9.99883 
1.5499327e+2, 2.7469423e+2, -286194.25, -414340.13, -25691.617, 0.021459848, 0.000021447651, -281235.3, -33235.406, 0.000000019825112, 10.000314, 9.998661 
1.5499176e+2, 2.8469342e+2, -161350.39, -211805.0, -67248.14, -0.030780043, 0.020178916, -114753.4, 35253.98, 0.0000019865888, 10.000106, 9.999468 
1.549896e+2, 2.9469246e+2, -293379.75, -205630.19, -60299.492, -0.10137404, -0.06885023, -174932.69, -122920.43, 0.000014949104, 9.998429, 9.999645 
1.5499045e+2, 3.0469257e+2, -267623.2, -144552.67, -6203.6943, 0.091445975, -0.033692718, -144240.75, -144240.75, 0.000059797247, 9.998242, 9.999809 
1.5499103e+2, 3.146924e+2, -40758.5, 68550.36, 41248.03, 0.1612924, -0.049022388, 82368.6, 82368.6, 0.00017773658, 9.999267, 10.00079 
1.6500744e+2, 1.2470003e+2, -1715194.9, -1684306.6, -71387.92, -0.066435225, 0.0707126, -1626711.4, 91233.375, 0.0014964563, 9.999756, 10.000307 
1.6500786e+2, 1.3469955e+2, -1532850.3, -1578228.0, -33578.043, 0.0052625, -0.011995495, -1515014.3, 104933.4, 0.0008776996, 10.000529, 9.999999 
1.6500887e+2, 1.447006e+2, -1451822.4, -1492260.8, -43886.44, 0.16280733, 0.09818144, -1423721.5, 98214.67, 0.00037921302, 10.000454, 9.999925 
1.6500796e+2, 1.5469937e+2, -1467918.4, -1481029.1, -49842.582, 0.15758905, -0.037915666, -1424201.9, -254.13454, 0.00009882513, 9.999802, 9.999648 
1.650064e+2, 1.6469927e+2, -1430623.5, -1477387.3, -28111.244, 0.09995925, 0.020731134, -1417441.0, -91489.02, 0.000009884257, 9.999652, 9.999076 
1.6500404e+2, 1.7470026e+2, -1288620.9, -1367613.6, -37383.906, -0.023454098, 0.17780727, -1273734.1, -45784.73, 0.0000002904704, 9.99999, 9.998996 
1.6500282e+2, 1.8470055e+2, -1120313.5, -1104365.1, -16515.172, -0.025876658, 0.2573257, -1093999.9, 35949.33, 0.0, 9.999923, 10.000151 
1.6500287e+2, 1.9469981e+2, -1100154.9, -1049559.0, -17926.092, 0.10705719, 0.1311539, -1043851.56, -11897.997, 0.0, 9.999408, 10.000105 
1.6500206e+2, 2.046998e+2, -1031560.75, -958138.3, 25297.648, 0.12208806, 0.12278271, -950266.06, -16314.375, 0.0, 9.999193, 10.000165 
1.6500019e+2, 2.1470046e+2, -913526.75, -856529.75, 7722.0557, 0.011163698, 0.13945518, -855502.1, -19558.129, 0.0, 9.99935, 10.000116 
1.6499901e+2, 2.2470021e+2, -813946.94, -821307.0, 564.3974, -0.023803253, 0.13691014, -813903.94, -75960.13, 0.0, 9.999624, 9.999554 
1.6499849e+2, 2.3469885e+2, -668328.94, -708454.5, -52288.813, 0.019376015, 0.013403833, -632386.06, 7567.1055, 0.0, 9.999989, 9.99948 
1.64997e+2, 2.4469747e+2, -637535.4, -752985.3, -93644.664, 0.028011302, -0.019511241, -585253.56, -43288.57, 0.0, 10.000004, 9.998494 
1.6499452e+2, 2.546959e+2, -593916.4, -691214.4, -79593.47, 0.016427003, -0.057635717, -549281.7, -105300.55, 0.0, 9.999668, 9.998406 
1.6499318e+2, 2.646949e+2, -489822.44, -533887.0, 28166.527, 0.014086163, -0.01736994, -476094.75, -130103.1, 0.0, 9.999463, 9.998913 
1.6499309e+2, 2.7469411e+2, -403204.66, -450495.9, 5814.5093, 0.026171857, -0.025149744, -402500.25, -154500.14, 0.000000024295247, 9.999426, 9.998825 
1.6499147e+2, 2.8469306e+2, -283675.63, -274096.7, -62077.734, -0.017928276, -0.033484675, -216623.94, -66614.99, 0.0000019697127, 9.999289, 9.999436 
1.6498885e+2, 2.9469213e+2, -183692.28, -148202.61, -87259.016, -0.044364884, -0.11424545, -76902.43, -24888.373, 0.000013995548, 9.999161, 9.999696 
1.6498975e+2, 3.0469307e+2, -154889.8, -103737.305, 12338.386, 0.17332342, 0.0031685503, -100916.72, -100916.72, 0.000055183133, 9.999027, 9.999731 
1.6499044e+2, 3.1469142e+2, -82574.62, 75077.24, -53509.453, 0.21553732, -0.15061662, 91523.49, 91523.49, 0.00016346599, 9.998815, 10.001067 
1.7500907e+2, 1.246992e+2, -1732198.8, -1718267.9, -89195.3, 0.0467327, -0.032100737, -1635766.5, 82180.36, 0.0014785845, 9.999746, 10.000075 
1.7500778e+2, 1.3469842e+2, -1586530.8, -1673973.1, 3317.3386, -0.08999143, -0.085660025, -1586405.1, 33552.66, 0.00086354057, 10.00048, 9.9993515 
1.7500813e+2, 1.4470026e+2, -1435885.8, -1451665.6, -84187.51, 0.002814018, 0.12243207, -1359219.3, 162721.84, 0.00037008742, 10.000405, 10.000235 
1.7500745e+2, 1.5470046e+2, -1442630.4, -1423597.1, -57371.773, 0.08815359, 0.08783748, -1374958.0, 48980.008, 0.000094032526, 9.99978, 10.000053 
1.7500627e+2, 1.6470033e+2, -1418206.4, -1446370.4, -31437.375, 0.08668283, 0.11359521, -1397841.1, -71900.375, 0.000008393363, 9.999617, 9.999313 
1.7500441e+2, 1.746996e+2, -1279125.5, -1336955.8, -9473.008, -0.020811556, 0.07764671, -1277613.3, -49660.496, 0.00000020811186, 9.999944, 9.999229 
1.750027e+2, 1.8469949e+2, -1108512.6, -1063780.3, -47906.594, -0.062846854, 0.08973634, -1033276.0, 96679.19, 0.0, 9.9998455, 10.000471 
1.7500117e+2, 1.9469982e+2, -1092808.9, -1006470.3, -22667.484, -0.03817812, 0.036577508, -1000880.94, 31068.465, 0.0, 9.99929, 10.000458 
1.7500041e+2, 2.0470044e+2, -1047316.3, -965273.06, 13166.392, 0.00880158, 0.071503796, -963211.94, -29270.777, 0.0, 9.999074, 10.000176 
1.7500053e+2, 2.1470115e+2, -935130.0, -869879.2, 28531.041, 0.0814429, 0.09170575, -859163.6, -23231.59, 0.0, 9.999214, 10.00009 
1.749999e+2, 2.2470063e+2, -897063.4, -965261.5, -38.460888, 0.074477084, 0.1084425, -897063.4, -159126.55, 0.0, 9.999497, 9.998627 
1.7499824e+2, 2.3469852e+2, -756146.2, -859352.3, -24052.857, -0.034562834, 0.005112023, -750815.8, -110856.29, 0.0, 9.999846, 9.998514 
1.7499629e+2, 2.446975e+2, -597762.4, -649825.2, -119451.42, -0.07252541, 0.021049526, -501538.78, 40431.055, 0.0, 9.999915, 9.999242 
1.7499402e+2, 2.5469762e+2, -561402.0, -589649.75, -78583.9, -0.032150276, 0.071622215, -495682.8, -51715.684, 0.0, 9.999522, 9.999173 
1.7499278e+2, 2.6469705e+2, -507377.38, -564886.1, 10846.651, -0.004929837, 0.12528151, -505399.6, -159427.97, 0.0, 9.99943, 9.998717 
1.7499238e+2, 2.746952e+2, -431122.63, -489201.75, 17638.87, -0.022079285, 0.03167538, -426185.34, -178195.81, 0.000000035492793, 9.999333, 9.99861 
1.749909e+2, 2.8469348e+2, -285844.97, -271980.78, -82425.61, -0.038710576, -0.034301043, -196196.28, -46191.813, 0.0000021240596, 9.999266, 9.9994545 
1.749889e+2, 2.9469246e+2, -200475.27, -153267.66, -75021.375, 0.0073538013, -0.13031025, -98224.484, -46213.45, 0.000013429294, 9.999047, 9.999704 
1.7498948e+2, 3.0469424e+2, -229851.11, -256334.52, -5297.334, 0.21170908, 0.1248826, -228830.81, -228830.81, 0.000050919698, 9.999011, 9.998693 
1.7498729e+2, 3.1469038e+2, -132920.08, 6646.534, 24374.604, -0.053394984, -0.14465459, 10780.96, 10780.96, 0.00014908816, 9.998688, 10.000645 
1.8501015e+2, 1.24699906e+2, -1607719.4, -1681223.9, 24921.373, 0.14356686, -0.08921915, -1600066.6, 117867.6, 0.0014297328, 10.000702, 9.999865 
1.8500803e+2, 1.3469857e+2, -1679054.0, -1781983.3, 63414.3, -0.08207694, -0.14278783, -1648848.6, -28895.205, 0.00082590414, 10.000123, 9.998776 
1.8500824e+2, 1.4470012e+2, -1487740.4, -1468625.0, 10459.295, 0.0026554458, 0.063824385, -1464014.3, 57926.46, 0.00034715154, 10.000004, 10.000308 
1.8500732e+2, 1.5470073e+2, -1309821.4, -1346952.5, -14394.362, 0.064457186, 0.058033954, -1304894.9, 119038.27, 0.0000844504, 10.00062, 10.000178 
1.8500623e+2, 1.6470076e+2, -1276872.5, -1343886.3, 21642.844, 0.08541155, 0.07740352, -1270490.5, 55442.883, 0.000006352812, 10.000475, 9.999584 
1.850049e+2, 1.7469978e+2, -1312350.1, -1322816.8, 18795.44, 0.058962673, -0.011679488, -1298073.0, -70127.125, 0.000000056960435, 9.999602, 9.999481 
1.8500313e+2, 1.8469962e+2, -1208682.9, -1159016.4, -10553.964, 0.025525473, 0.0029570526, -1156866.8, -26917.281, 0.0, 9.9993725, 10.000043 
1.8500072e+2, 1.9470027e+2, -1053910.5, -1037579.2, -73999.46, -0.028377265, 0.025684334, -971296.25, 60647.844, 0.0, 9.999777, 10.000012 
1.849997e+2, 2.0470072e+2, -931872.25, -920255.0, -42125.9, -0.0013017411, 0.07338185, -883539.1, 50399.21, 0.0, 9.999897, 10.000092 
1.850002e+2, 2.1470082e+2, -872069.56, -848227.9, -58775.08, 0.11314348, 0.038720816, -800176.94, 35757.07, 0.0, 9.999664, 10.000026 
1.8499987e+2, 2.2470035e+2, -894862.2, -953998.9, -19643.31, 0.1294971, 0.05583744, -888931.94, -150993.52, 0.0, 9.999473, 9.998716 
1.8499844e+2, 2.3469898e+2, -825561.75, -884188.9, 7335.784, 0.034635648, 0.018780205, -824657.75, -184702.72, 0.0, 9.9993305, 9.998593 
1.8499649e+2, 2.4469824e+2, -651642.9, -666201.3, -43792.33, -0.0154776, 0.056932345, -614528.9, -72565.664, 0.0, 9.999499, 9.999331 
1.8499403e+2, 2.5469813e+2, -483024.6, -540447.44, -82672.59, 0.002221238, 0.07359282, -424219.72, 19743.266, 0.0, 9.999999, 9.999284 
1.8499275e+2, 2.6469767e+2, -409559.53, -487974.53, 10479.353, 0.02789287, 0.12029725, -408183.22, -62217.25, 0.0, 10.000003, 9.9989605 
1.8499252e+2, 2.7469635e+2, -371427.28, -430666.38, 22708.252, 0.052192066, 0.05865703, -363724.16, -115746.85, 0.000000044067633, 9.999633, 9.998866 
1.8499114e+2, 2.8469446e+2, -259793.7, -319506.34, -41841.67, 0.04414144, -0.013190999, -238248.4, -88254.125, 0.000002141611, 9.999676, 9.998943 
1.8498904e+2, 2.9469255e+2, -96521.23, -167704.63, -113834.58, 0.07645199, -0.14302763, -12843.986, 39168.004, 0.000012353572, 10.000012, 9.999154 
1.8498905e+2, 3.0469486e+2, -180554.27, -240739.84, -29925.742, 0.26050475, 0.19420889, -168207.38, -168207.38, 0.00004451732, 9.999377, 9.998627 
1.8498552e+2, 3.1469035e+2, -259527.4, -81517.09, 70425.984, -0.044803713, -0.12839131, -57024.504, -57024.504, 0.00012893318, 9.997871, 10.000468 
1.9500975e+2, 1.2470237e+2, -1636793.9, -1719704.9, -45332.74, -0.043635592, -0.07452477, -1616819.6, 101085.43, 0.0013506947, 10.000622, 9.999637 
1.9500822e+2, 1.3469996e+2, -1725896.8, -1865134.8, 49342.582, -0.11011216, -0.18086948, -1710184.1, -90249.59, 0.00077082973, 10.000083, 9.99822 
1.9500865e+2, 1.447002e+2, -1502021.3, -1485786.5, 14075.463, 0.0016644486, -0.07222443, -1477655.5, 44279.18, 0.0003170448, 9.999944, 10.000222 
1.9500712e+2, 1.547004e+2, -1320926.4, -1359555.5, 21790.268, -0.055538192, -0.11316648, -1311122.8, 112808.77, 0.000073711046, 10.000578, 10.000111 
1.9500583e+2, 1.6470075e+2, -1263330.1, -1307730.8, -21857.07, -0.035862237, -0.07107204, -1254376.3, 71551.85, 0.0000047225935, 10.000423, 9.999867 
1.9500512e+2, 1.7470086e+2, -1298011.3, -1281583.3, 3316.7056, 0.08284454, -0.08399038, -1280939.0, -53010.47, 0.0000000036456946, 9.999546, 9.999797 
1.9500363e+2, 1.8470095e+2, -1305951.1, -1339901.0, -10838.146, 0.106378436, 0.0015137797, -1302786.3, -172854.69, 0.0, 9.999277, 9.998853 
1.9500113e+2, 1.9470105e+2, -1156732.6, -1228146.9, -43916.727, 0.0037650804, 0.09345282, -1135838.8, -103900.4, 0.0, 9.999675, 9.998757 
1.9499949e+2, 2.047007e+2, -964110.06, -949364.4, -61796.84, -0.042021964, 0.13120385, -894502.1, 39441.15, 0.0, 9.999741, 9.999963 
1.949988e+2, 2.1469958e+2, -899828.6, -870945.06, -53361.605, -0.025495552, -0.015122168, -830105.5, 5843.6865, 0.0, 9.999515, 9.999942 
1.949985e+2, 2.2469945e+2, -844647.3, -811814.1, -40175.74, 0.01991948, -0.008340888, -784830.3, -46882.688, 0.0, 9.999317, 9.999764 
1.9499862e+2, 2.3470029e+2, -773138.0, -734077.5, 15784.443, 0.09014445, 0.065656975, -728496.44, -88557.21, 0.0, 9.999162, 9.9997015 
1.9499722e+2, 2.4469975e+2, -705654.7, -751247.3, -39399.95, 0.07977836, 0.091101326, -682931.44, -140986.56, 0.0, 9.999383, 9.998804 
1.9499409e+2, 2.5469753e+2, -546639.8, -635315.7, -50078.445, -0.024634665, -0.045874123, -524092.03, -80124.15, 0.0, 9.999842, 9.998707 
1.9499266e+2, 2.646969e+2, -372943.13, -400805.0, -17194.873, -0.013795423, -0.016257172, -364744.13, -18771.127, 0.0, 9.999949, 9.999592 
1.9499306e+2, 2.7469754e+2, -339757.38, -347399.63, 27593.264, 0.108755335, 0.053846214, -315721.9, -67758.43, 0.000000036761158, 9.999549, 9.999487 
1.9499177e+2, 2.8469583e+2, -344840.78, -482107.88, -41492.71, 0.10790444, 0.024344254, -333273.28, -183293.48, 0.0000018181237, 9.999619, 9.997852 
1.9498883e+2, 2.9469246e+2, -197415.13, -341894.06, -86043.3, 0.01647703, -0.14170167, -157306.97, -105290.4, 0.000010151812, 9.99987, 9.998022 
1.9498804e+2, 3.046949e+2, -120536.14, -102626.125, -98800.56, 0.18963586, 0.22129701, -12375.57, -12375.57, 0.00003534469, 9.999334, 9.999586 
1.949843e+2, 3.1469166e+2, -253117.23, -26350.215, 101526.49, -0.021405978, -0.08116653, 12461.705, 12461.705, 0.000103030594, 9.997727, 10.000895 
2.050108e+2, 1.2470408e+2, -1715791.0, -1736999.6, -89908.305, 0.047634486, -0.02179894, -1635863.8, 82026.87, 0.0012481128, 10.000003, 9.999818 
2.0500866e+2, 1.347017e+2, -1619789.1, -1806899.0, -6669.169, -0.09461263, -0.13186556, -1619551.8, 366.01828, 0.0007037624, 10.000764, 9.998311 
2.0500931e+2, 1.4470103e+2, -1427174.1, -1458656.5, 11802.193, 0.054532558, -0.11104547, -1423241.0, 98684.97, 0.00028324383, 10.00051, 10.000134 
2.050075e+2, 1.547014e+2, -1488817.4, -1450371.1, -22302.443, -0.009901039, -0.12469587, -1440150.6, -16228.703, 0.000063005726, 9.999477, 10.000015 
2.0500591e+2, 1.6470198e+2, -1391063.6, -1335845.9, -29932.637, -0.009127184, -0.07042877, -1322733.6, 3182.265, 0.0000035155435, 9.999405, 10.000168 
2.0500487e+2, 1.7470233e+2, -1171453.4, -1188886.5, -36981.758, 0.07773847, -0.08215619, -1142174.8, 85737.31, 0.0000000004928599, 10.000277, 10.000088 
2.0500346e+2, 1.8470249e+2, -1133548.3, -1285839.6, 14835.332, 0.10383548, 0.002707137, -1132116.5, -2202.2322, 0.0, 10.000579, 9.998595 
2.0500146e+2, 1.9470231e+2, -1092564.9, -1230093.0, 25046.172, 0.049702127, 0.09689639, -1088145.6, -56221.594, 0.0, 10.000246, 9.998467 
2.0499974e+2, 2.047016e+2, -961025.3, -1003810.25, 53498.426, 0.003890457, 0.13503651, -924800.8, 9133.026, 0.0, 10.000002, 9.999465 
2.0499842e+2, 2.147e+2, -898892.75, -925554.44, 5305.588, -0.019702077, -0.0075331824, -897875.75, -61929.492, 0.0, 9.999766, 9.999444 
2.0499787e+2, 2.246997e+2, -793013.94, -753414.8, 4127.1343, 0.021973386, -0.0068167793, -752989.25, -15042.968, 0.0, 9.999522, 10.000064 
2.0499824e+2, 2.3470064e+2, -740760.8, -686235.75, -26611.203, 0.14099559, 0.044954866, -675401.0, -35466.344, 0.0, 9.999232, 10.0 
2.0499705e+2, 2.4470018e+2, -723801.4, -741987.56, -39938.94, 0.14360255, 0.055389944, -691933.44, -149994.97, 0.0, 9.999184, 9.9989605 
2.0499411e+2, 2.5469804e+2, -591575.44, -639851.06, -24200.012, 0.02104288, -0.0869274, -581533.25, -137572.31, 0.0, 9.999469, 9.998852 
2.0499265e+2, 2.6469764e+2, -419201.66, -444590.34, 17207.246, 0.010922925, -0.035105273, -410512.94, -64547.945, 0.0, 9.999717, 9.999403 
2.0499283e+2, 2.746986e+2, -305684.25, -352132.13, -35446.934, 0.12390192, 0.08502832, -286530.88, -38576.758, 0.00000002096579, 9.999873, 9.999293 
2.0499158e+2, 2.8469682e+2, -308417.1, -458776.75, -53571.52, 0.12470041, 0.055149816, -291282.7, -141310.95, 0.0000012828043, 9.999863, 9.9978895 
2.0498882e+2, 2.9469293e+2, -205005.81, -337441.66, -37230.215, 0.043693796, -0.16301107, -195257.28, -143245.48, 0.000007381431, 9.999789, 9.99809 
2.0498736e+2, 3.0469558e+2, -74680.45, -66411.97, -43771.316, 0.18892053, 0.21126425, -26580.086, -26580.086, 0.00002618385, 9.999588, 9.999725 
2.0498368e+2, 3.146928e+2, -78813.875, 24870.418, 62632.49, 0.09285861, -0.057310667, 54332.863, 54332.863, 0.000078949044, 9.999098, 10.00058 
2.1501222e+2, 1.2470502e+2, -1683948.0, -1659464.5, -103966.414, 0.11620597, 0.07116743, -1567021.6, 150869.66, 0.0011286415, 9.999945, 10.000383 
2.1500899e+2, 1.3470387e+2, -1557785.4, -1690559.5, 35201.977, -0.17361453, 0.0061714044, -1549029.8, 70872.734, 0.00062779407, 10.000807, 9.99909 
2.1500975e+2, 1.4470284e+2, -1446546.4, -1491662.0, -43567.594, 0.0051763617, -0.040299032, -1420043.1, 101869.73, 0.00024660726, 10.000475, 9.999924 
2.1500805e+2, 1.5470386e+2, -1501561.8, -1481901.5, -45049.58, 0.060041588, 0.030747764, -1445622.0, -21718.848, 0.000052325075, 9.999492, 9.999793 
2.1500601e+2, 1.6470444e+2, -1385217.9, -1306977.3, -12970.849, 0.028506331, 0.08716525, -1304883.0, 21013.734, 0.000002586899, 9.999332, 10.000398 
2.1500376e+2, 1.747042e+2, -1162760.0, -1153599.0, 11883.368, -0.09415882, -0.015662445, -1145443.9, 82453.555, 0.000000000052014764, 10.000207, 10.000357 
2.1500212e+2, 1.8470411e+2, -1104230.0, -1201370.8, -8786.295, -0.11654088, 0.0019258899, -1103441.8, 26456.695, 0.0, 10.00047, 9.999229 
2.150013e+2, 1.9470401e+2, -1052578.5, -1134397.9, 28719.477, -0.02667393, 0.03316884, -1043504.06, -11602.193, 0.0, 10.000183, 9.999156 
2.150001e+2, 2.047034e+2, -1036428.3, -1132868.6, 30308.793, 0.010387876, 0.08718346, -1027694.0, -93783.87, 0.0, 9.999885, 9.998634 
2.1499859e+2, 2.14702e+2, -980279.75, -1061614.4, 8584.96, -0.010207016, 0.052297838, -979383.5, -143457.52, 0.0, 9.999623, 9.998577 
2.1499749e+2, 2.2470094e+2, -851068.9, -833304.06, -20246.607, 0.0055943104, 0.044372156, -820077.1, -82141.33, 0.0, 9.999353, 9.999594 
2.1499689e+2, 2.3470005e+2, -798475.8, -762580.0, -21558.18, 0.05263544, -0.043546543, -752476.5, -112535.35, 0.0, 9.99905, 9.999558 
2.1499564e+2, 2.4469964e+2, -683116.44, -635173.0, -43992.68, 0.05232933, -0.04369297, -609044.8, -67101.75, 0.0, 9.999085, 9.999744 
2.149937e+2, 2.546997e+2, -553144.56, -527337.25, 2349.9858, 0.0000010724559, -0.04575121, -527125.0, -83183.164, 0.0, 9.999329, 9.999694 
2.1499231e+2, 2.6469985e+2, -503049.25, -598888.7, 9100.322, -0.026684053, 0.06680263, -502192.78, -156250.81, 0.0, 9.999633, 9.99838 
2.1499136e+2, 2.746994e+2, -403090.06, -522528.28, -13969.367, -0.043540582, 0.15523756, -401477.97, -153528.02, 0.00000000626477, 9.999736, 9.998188 
2.1499011e+2, 2.8469723e+2, -223111.1, -272488.03, -71119.19, -0.042046368, 0.07978977, -172517.03, -22546.098, 0.00000075455597, 9.9998255, 9.999186 
2.149887e+2, 2.9469407e+2, -126938.555, -158085.77, -24368.326, 0.012890096, -0.2037026, -113592.4, -61595.098, 0.0000049684672, 9.999716, 9.999358 
2.1498671e+2, 3.0469698e+2, -131442.88, -187715.1, -73411.8, 0.1347794, 0.17602192, -80960.086, -80960.086, 0.000019575336, 9.999595, 9.998894 
2.1498296e+2, 3.1469378e+2, -184529.48, -176096.89, 111551.06, 0.03859761, -0.045557868, -68682.484, -68682.484, 0.00006230811, 9.999015, 9.999246 
2.2501318e+2, 1.2470622e+2, -1653731.6, -1668489.3, 86081.32, 0.21949668, 0.03323112, -1574713.4, 143166.31, 0.0009987325, 10.000238, 10.00018 
2.250099e+2, 1.3470614e+2, -1613952.0, -1696076.8, 96607.26, -0.12758476, 0.054511108, -1550042.6, 69838.266, 0.0005469882, 10.000348, 9.999259 
2.2501083e+2, 1.4470491e+2, -1465158.9, -1515449.1, 6280.828, 0.077849306, -0.013783325, -1464386.4, 57506.586, 0.00020906689, 10.000416, 9.999797 
2.2500838e+2, 1.5470555e+2, -1346525.1, -1423869.4, -20430.814, 0.09478559, 0.037007652, -1341460.0, 82426.54, 0.000042237294, 10.000635, 9.999646 
2.2500604e+2, 1.6470595e+2, -1251103.4, -1276204.9, 42072.863, 0.0510083, 0.09682686, -1219749.1, 106133.2, 0.0000020119714, 10.0004015, 10.000084 
2.2500385e+2, 1.7470565e+2, -1271103.0, -1243472.8, -9393.016, -0.06815135, 0.021337762, -1240582.0, -12697.143, 0.0, 9.999631, 10.000007 
2.2500226e+2, 1.8470536e+2, -1205562.5, -1208104.6, -31270.063, -0.09983927, 0.015591379, -1175537.8, -45650.51, 0.0, 9.999592, 9.999609 
2.2500136e+2, 1.9470492e+2, -1022311.6, -1075066.9, -44875.633, -0.03248342, -0.02424093, -996635.44, 35255.113, 0.0, 10.000214, 9.999551 
2.2500026e+2, 2.0470442e+2, -959856.9, -1110247.8, -17900.752, 0.01631594, 0.02784489, -957755.5, -23858.572, 0.0, 10.000462, 9.998525 
2.24999e+2, 2.1470359e+2, -910883.0, -1044408.5, -7616.045, 0.049422715, 0.062330727, -910450.0, -74540.48, 0.0, 10.000161, 9.9984455 
2.2499762e+2, 2.247026e+2, -797249.1, -832312.3, 25313.658, 0.06780524, 0.078045346, -783988.9, -46069.137, 0.0, 9.999821, 9.999379 
2.2499621e+2, 2.3470119e+2, -766856.75, -770017.7, 11084.912, 0.074112795, -0.039000817, -757240.2, -117310.51, 0.0, 9.999369, 9.999352 
2.2499487e+2, 2.4470049e+2, -672273.4, -663189.0, 11171.288, 0.065610476, -0.044048708, -655671.75, -113737.0, 0.0, 9.999299, 9.999448 
2.2499357e+2, 2.5470042e+2, -522067.97, -550287.2, -56205.88, 0.046470836, -0.032183852, -478227.75, -34291.777, 0.0, 9.999687, 9.99937 
2.2499214e+2, 2.6470038e+2, -493958.47, -581792.9, -38779.676, 0.00094152626, 0.07415475, -479287.4, -133349.28, 0.0, 9.999646, 9.998488 
2.2499056e+2, 2.7469987e+2, -462963.22, -535383.8, -1027.5916, -0.06414136, 0.14173512, -462948.66, -215002.23, 0.00000000006385136, 9.999254, 9.998331 
2.249895e+2, 2.8469792e+2, -301761.63, -266269.63, -8658.723, -0.03875225, 0.060798727, -264269.88, -114305.27, 0.00000032397858, 9.999088, 9.999586 
2.2498894e+2, 2.946952e+2, -191169.81, -151328.97, -66260.375, 0.1055183, -0.2155073, -102059.37, -50073.92, 0.000003287384, 9.999122, 9.999682 
2.2498603e+2, 3.0469775e+2, -184736.94, -275435.94, -102553.05, 0.12647538, 0.1387239, -117953.91, -117953.91, 0.00001601569, 9.999497, 9.998332 
2.2498214e+2, 3.14695e+2, -38307.434, -136082.47, 76728.16, 0.018020123, 0.007925232, 3784.1663, 3784.1663, 0.000054019332, 10.000138, 9.998978 
2.35013e+2, 1.2470761e+2, -1728462.8, -1820609.9, 66054.484, 0.10080392, -0.15173115, -1694000.9, 23856.137, 0.0008678289, 10.000229, 9.9991455 
2.3501086e+2, 1.3470836e+2, -1644923.5, -1773159.6, 103097.7, -0.100786075, 0.016614284, -1587632.1, 32222.027, 0.00046623294, 10.000384, 9.998726 
2.3501197e+2, 1.4470701e+2, -1478480.4, -1514662.3, -2711.0947, 0.115500614, -0.0420702, -1478278.4, 43590.434, 0.00017258529, 10.000302, 9.999857 
2.3500803e+2, 1.5470636e+2, -1349408.5, -1421728.8, 5537.6694, -0.039318528, -0.11953397, -1348986.9, 74886.234, 0.000033446406, 10.000602, 9.99968 
2.3500556e+2, 1.6470632e+2, -1332192.6, -1421589.6, -1984.0432, -0.07210182, -0.05754926, -1332148.6, -6274.1714, 0.0000017722703, 10.000309, 9.999132 
2.3500484e+2, 1.7470655e+2, -1342969.3, -1380523.6, -23978.012, 0.03221502, 0.01448766, -1331291.1, -103414.78, 0.0000000001389195, 9.999577, 9.999097 
2.350034e+2, 1.8470617e+2, -1220644.1, -1209701.9, -22833.338, 0.026377033, 0.04412538, -1191693.3, -61812.04, 0.0, 9.99947, 9.999658 
2.3500115e+2, 1.9470493e+2, -1029000.44, -1071844.9, -8253.586, -0.106420435, -0.07916582, -1027465.5, 4425.7056, 0.0, 10.000137, 9.999612 
2.349997e+2, 2.0470452e+2, -938300.7, -1025349.7, -41872.973, -0.11091847, -0.05376754, -921428.75, 12466.902, 0.0, 10.000295, 9.999184 
2.349992e+2, 2.147047e+2, -886958.94, -956381.56, -2143.3552, 0.024872735, 0.013363678, -886892.8, -50995.56, 0.0, 9.999994, 9.99913 
2.3499793e+2, 2.2470465e+2, -822842.94, -845134.0, -1935.1956, 0.08789921, 0.08650251, -822676.2, -84778.18, 0.0, 9.999652, 9.999373 
2.3499583e+2, 2.3470406e+2, -788396.2, -784338.44, 10618.8545, 0.06619259, 0.058445938, -775556.4, -135656.23, 0.0, 9.999235, 9.999323 
2.3499426e+2, 2.447026e+2, -782634.44, -870272.1, 11000.066, 0.04095373, 0.047388405, -781274.9, -239360.31, 0.0, 9.999203, 9.998073 
2.3499323e+2, 2.5470006e+2, -641973.44, -764591.3, -27648.328, 0.010026967, -0.04807788, -636027.5, -192083.52, 0.0, 9.9995365, 9.99797 
2.3499176e+2, 2.6469925e+2, -419121.0, -405933.78, -67459.7, -0.031846423, -0.0071373717, -344746.22, 1206.6758, 0.0, 9.999561, 9.999738 
2.3499002e+2, 2.746999e+2, -386442.0, -348997.56, 1793.629, -0.0759693, 0.045004457, -348911.84, -100968.125, 0.0, 9.999132, 9.999674 
2.3498923e+2, 2.8469884e+2, -342079.22, -337822.03, -20315.732, -0.00958542, 0.008485974, -319523.7, -169571.58, 0.00000009734078, 9.999038, 9.999118 
2.3498905e+2, 2.9469636e+2, -252186.02, -256613.81, -49100.92, 0.160326, -0.19220866, -205249.11, -153272.56, 0.0000024854203, 9.999019, 9.999017 
2.3498483e+2, 3.0469784e+2, -193757.33, -288108.16, -87466.586, 0.023354454, 0.10104069, -141555.06, -141555.06, 0.000014818684, 9.999476, 9.998255 
2.3498048e+2, 3.146967e+2, 13746.028, -13563.307, 144017.69, -0.23390815, 0.12541912, 144754.92, 144754.92, 0.00005156838, 10.00007, 9.99986 
2.4501456e+2, 1.24709144e+2, -1491013.8, -1723259.9, -16199.665, 0.1601114, -0.15138784, -1489889.3, 227953.77, 0.00074233726, 10.001969, 9.998962 
2.4501179e+2, 1.3470994e+2, -1607905.6, -1743612.1, -13956.985, -0.043721158, 0.01286202, -1606485.1, 13354.233, 0.00038816038, 10.000606, 9.998819 
2.4501266e+2, 1.447087e+2, -1553802.4, -1563270.9, -32350.879, 0.18859847, -0.036458578, -1525841.1, -3988.285, 0.00013769997, 9.999824, 9.999751 
2.4500845e+2, 1.5470771e+2, -1454528.3, -1486345.5, -67756.45, -0.013126167, -0.13791823, -1400837.9, 23022.547, 0.000025817635, 9.999949, 9.99954 
2.4500579e+2, 1.6470735e+2, -1346835.0, -1471906.4, -36768.566, -0.07516279, -0.08126493, -1336826.6, -10961.545, 0.0000016011192, 10.000384, 9.998764 
2.450052e+2, 1.7470737e+2, -1158138.3, -1332209.5, -43883.934, 0.048870113, 0.007902669, -1147700.8, 80168.67, 0.0000000006420841, 10.0010195, 9.998742 
2.4500382e+2, 1.8470702e+2, -1052587.0, -1142960.5, -12259.298, 0.067451365, 0.06538838, -1050953.5, 78921.37, 0.0, 10.000696, 9.9995165 
2.4500145e+2, 1.9470602e+2, -1174835.0, -1156530.1, -39843.105, -0.035670616, -0.021651894, -1124801.8, -92918.18, 0.0, 9.999215, 9.999463 
2.449997e+2, 2.0470564e+2, -1113959.4, -1062567.8, -39384.227, -0.059888702, -0.0062497174, -1041238.1, -107350.75, 0.0, 9.998893, 9.999596 
2.449989e+2, 2.1470569e+2, -898348.56, -912402.94, -50240.773, 0.020468358, 0.004900973, -854645.94, -18757.982, 0.0, 9.999717, 9.9995575 
2.4499753e+2, 2.2470573e+2, -742658.8, -819566.25, -52430.83, 0.061744988, 0.070525914, -716091.9, 21795.434, 0.0, 10.00026, 9.999256 
2.449956e+2, 2.3470551e+2, -619544.4, -715344.94, -71190.43, 0.06564151, 0.09152293, -581639.56, 58247.805, 0.0, 10.000459, 9.999205 
2.4499412e+2, 2.4470416e+2, -652733.94, -817252.2, -2995.3706, 0.06802816, 0.101091035, -652679.4, -110777.95, 0.0, 10.000131, 9.998001 
2.4499315e+2, 2.547014e+2, -696224.6, -795508.06, 31221.975, 0.07393173, -0.007607615, -687222.4, -243289.66, 0.0, 9.999194, 9.997927 
2.449915e+2, 2.6470032e+2, -526144.56, -420731.03, 38121.0, 0.0383011, -0.008561537, -408390.03, -62446.504, 0.0, 9.99865, 10.000084 
2.4498938e+2, 2.7470085e+2, -445086.1, -331995.94, 5994.7583, -0.014925929, -0.006015151, -331679.06, -83745.234, 0.0, 9.998539, 10.000074 
2.4498853e+2, 2.8470048e+2, -381690.8, -376522.44, 16015.818, 0.036294017, 0.011829992, -362883.66, -212947.48, 0.00000009803459, 9.99884, 9.998956 
2.4498843e+2, 2.946991e+2, -178301.4, -240309.03, -15282.153, 0.1783063, -0.06066979, -174739.63, -122787.17, 0.0000023443192, 9.999605, 9.998849 
2.4498373e+2, 3.0469924e+2, -154565.61, -233334.08, -3870.9482, -0.026030244, 0.097267225, -154375.84, -154375.84, 0.000014153015, 9.999594, 9.998577 
2.449809e+2, 3.146982e+2, -160491.36, 18104.486, 180243.52, -0.09998621, 0.09185344, 129957.86, 129957.86, 0.00004937861, 9.998409, 10.000864 
2.550168e+2, 1.2471093e+2, -1453320.8, -1637281.3, -76916.26, 0.11722061, 0.03743672, -1425399.0, 292437.53, 0.00062344765, 10.001932, 9.999577 
2.550124e+2, 1.3471076e+2, -1548701.3, -1618184.8, -55577.066, -0.07673892, 0.025858065, -1517900.6, 101937.03, 0.0003143659, 10.0006, 9.999683 
2.5501266e+2, 1.4470989e+2, -1587306.1, -1616266.9, -48804.566, 0.16583066, -0.013041577, -1550879.0, -29033.168, 0.00010539114, 9.999758, 9.9994135 
2.5500903e+2, 1.5470952e+2, -1485935.5, -1538675.0, -49322.867, 0.014819411, -0.02042841, -1456375.8, -32526.45, 0.000019009012, 9.9999, 9.9992 
2.5500625e+2, 1.6470903e+2, -1340786.3, -1438893.0, -28428.313, -0.09858598, 0.027017806, -1333143.9, -7289.533, 0.0000013062046, 10.000297, 9.999034 
2.550045e+2, 1.7470819e+2, -1146090.4, -1296824.0, -2981.962, -0.15641347, 0.0057273065, -1146031.4, 81832.17, 0.000000000635992, 10.000976, 9.999004 
2.5500304e+2, 1.8470797e+2, -1089016.8, -1197419.9, -77565.75, -0.11124142, 0.07903004, -1048591.4, 81276.164, 0.0, 10.000601, 9.999189 
2.550018e+2, 1.947081e+2, -1209074.8, -1207724.3, -79950.87, 0.043283872, 0.13467619, -1128445.8, -96577.18, 0.0, 9.999122, 9.999157 
2.55e+2, 2.0470767e+2, -1137039.1, -1068406.6, -22288.92, 0.051910173, 0.15860243, -1061803.5, -127930.516, 0.0, 9.998716, 9.9996395 
2.549977e+2, 2.1470638e+2, -914147.3, -912096.7, -5199.6943, -0.10224313, 0.028220166, -907822.2, -71939.16, 0.0, 9.999577, 9.999625 
2.54996e+2, 2.2470567e+2, -775109.4, -854750.4, -58995.094, -0.14444797, 0.027659826, -743753.4, -5864.433, 0.0, 10.000122, 9.999082 
2.5499505e+2, 2.3470539e+2, -653370.25, -751880.75, -48963.684, -0.06438502, 0.05546647, -633173.94, 6718.6616, 0.0, 10.00031, 9.999026 
2.5499406e+2, 2.4470499e+2, -583028.94, -645538.1, -51801.58, 0.021353658, 0.10905663, -553783.5, -11886.7705, 0.0, 10.000021, 9.999229 
2.5499293e+2, 2.5470424e+2, -630366.25, -624018.0, 7959.4053, 0.10127137, 0.07508894, -618623.1, -174719.06, 0.0, 9.999043, 9.999177 
2.5499088e+2, 2.6470345e+2, -578765.4, -502602.0, 17960.287, 0.08163557, 0.06744863, -498579.22, -152668.38, 0.0, 9.998543, 9.999569 
2.5498816e+2, 2.747025e+2, -502654.75, -423043.97, 17110.754, -0.023948776, -0.020971889, -419522.13, -171603.44, 0.0, 9.998413, 9.999515 
2.5498697e+2, 2.8470257e+2, -380217.06, -354812.38, 29134.125, -0.03356833, 0.059972446, -335731.9, -185813.31, 0.00000013920514, 9.998769, 9.999134 
2.549866e+2, 2.947033e+2, -187301.0, -220027.83, 27742.234, -0.0017628247, 0.18032928, -171455.83, -119541.695, 0.0000022917138, 9.999446, 9.999061 
2.5498232e+2, 3.0470186e+2, -109519.89, -127841.336, -53387.082, -0.15730499, 0.12572284, -64513.285, -64513.285, 0.0000129202135, 9.999546, 9.999318 
2.5498244e+2, 3.1469893e+2, -110899.18, 139950.28, 150518.45, 0.14329551, -0.12951308, 210451.98, 210451.98, 0.000045825393, 9.998327, 10.00174 
2.6501852e+2, 1.2471318e+2, -1667316.0, -1738262.3, 72828.67, 0.18683416, 0.13232045, -1621780.8, 96039.08, 0.00051409315, 10.000404, 9.999633 
2.6501328e+2, 1.3471249e+2, -1556084.6, -1628611.0, -54288.723, -0.029309213, 0.064857714, -1527061.6, 92764.03, 0.0002486299, 10.000532, 9.99966 
2.6501313e+2, 1.4471194e+2, -1477139.4, -1576573.0, 1931.2676, 0.20416155, 0.06565661, -1477101.9, 44728.496, 0.00007773356, 10.000579, 9.99929 
2.6501015e+2, 1.5471165e+2, -1312288.3, -1471882.6, -13066.566, 0.08638191, 0.07893097, -1311225.6, 112607.305, 0.000013419433, 10.001147, 9.999067 
2.650074e+2, 1.6471098e+2, -1245204.0, -1376496.6, 22499.193, -0.030029798, 0.106140226, -1241455.4, 84383.35, 0.0000010267595, 10.000891, 9.999167 
2.6500484e+2, 1.7470974e+2, -1328165.4, -1367945.8, 5387.8765, -0.14391886, 0.027362837, -1327448.5, -99598.84, 0.0000000012219834, 9.999659, 9.999142 
2.65003e+2, 1.8470916e+2, -1263178.8, -1304102.0, -42141.645, -0.11375185, 0.07046877, -1236793.8, -106937.6, 0.0, 9.999509, 9.998986 
2.6500192e+2, 1.9470914e+2, -1033265.2, -1147701.5, -68886.65, 0.086798616, 0.13393809, -1000932.9, 30927.082, 0.0, 10.000437, 9.99894 
2.650001e+2, 2.047087e+2, -849767.56, -923461.7, 36198.383, 0.1025347, 0.16424243, -834961.6, 98902.56, 0.0, 10.000648, 9.999711 
2.6499754e+2, 2.1470761e+2, -859530.0, -878941.94, 27527.805, -0.086791776, 0.048082314, -840047.1, -4176.3374, 0.0, 9.999919, 9.999694 
2.6499563e+2, 2.2470677e+2, -869796.0, -900716.94, 7022.553, -0.1524262, 0.030964972, -868275.8, -130397.96, 0.0, 9.999461, 9.99909 
2.6499462e+2, 2.3470604e+2, -807061.3, -828530.9, -3585.3247, -0.073519066, 0.01584619, -806478.44, -166591.36, 0.0, 9.999256, 9.999014 
2.6499358e+2, 2.4470596e+2, -665454.94, -615636.2, -10082.627, 0.021723216, 0.07331569, -613672.94, -71784.945, 0.0, 9.999167, 9.999842 
2.6499227e+2, 2.547064e+2, -555747.94, -515613.47, -23176.104, 0.13114858, 0.09672892, -505024.13, -61142.324, 0.0, 9.999254, 9.999813 
2.6499012e+2, 2.6470587e+2, -497037.25, -521520.3, 8401.717, 0.11903324, 0.10707341, -494431.4, -148545.03, 0.0, 9.99935, 9.999052 
2.649874e+2, 2.747043e+2, -382424.56, -419668.44, -23015.322, 0.014821354, 0.010287403, -371441.06, -123538.18, 0.0, 9.99949, 9.99901 
2.6498625e+2, 2.8470418e+2, -316568.8, -308036.97, 14902.41, 0.005775545, 0.0903985, -296801.94, -146896.8, 0.00000017298198, 9.999133, 9.999278 
2.649857e+2, 2.9470503e+2, -340441.06, -266539.8, -15263.267, 0.03606843, 0.20199749, -263511.5, -211613.4, 0.000002277503, 9.998268, 9.999311 
2.649814e+2, 3.047034e+2, -269253.94, -209450.06, -88741.555, -0.13506761, 0.11540862, -145708.05, -145708.05, 0.000011809922, 9.998444, 9.9993105 
2.6498246e+2, 3.1470007e+2, -14365.024, 179481.66, -20893.916, 0.2925526, -0.17362258, 181708.16, 181708.16, 0.000042458643, 9.9989805, 10.001715 
2.7501905e+2, 1.2471589e+2, -1700740.6, -1808021.9, 58214.88, 0.11994102, 0.13081297, -1675221.3, 42571.49, 0.00042131313, 10.000393, 9.9991665 
2.7501372e+2, 1.3471529e+2, -1610988.0, -1745357.6, -45493.723, -0.076364495, 0.1510658, -1597034.3, 22767.74, 0.0001952308, 10.000544, 9.998853 
2.750134e+2, 1.44715e+2, -1476002.3, -1565382.6, 473.24252, 0.13094568, 0.21461295, -1475999.8, 45805.633, 0.000056360343, 10.000542, 9.999387 
2.7501154e+2, 1.5471429e+2, -1308885.6, -1452912.0, 25978.607, 0.07193668, 0.1725529, -1304343.0, 119466.766, 0.000009372096, 10.001104, 9.999218 
2.75009e+2, 1.6471332e+2, -1252118.0, -1377419.3, -35394.086, 0.004895883, 0.16320029, -1242811.4, 83005.516, 0.0000008660051, 10.000833, 9.9991865 
2.750057e+2, 1.7471193e+2, -1338475.8, -1374518.3, -26121.393, -0.061560456, 0.069135666, -1324762.3, -96933.71, 0.000000004874734, 9.9995985, 9.999125 
2.750032e+2, 1.8471053e+2, -1291446.3, -1334939.5, -23962.572, -0.07525228, 0.039471105, -1280833.6, -150991.66, 0.0, 9.999392, 9.99883 
2.7500138e+2, 1.9470902e+2, -1057881.4, -1175436.9, -16980.438, -0.043189276, -0.03066338, -1055477.8, -23619.0, 0.0, 10.000342, 9.998793 
2.749996e+2, 2.0470871e+2, -861342.44, -917406.25, -3711.763, -0.038616464, 0.01576622, -861097.8, 72763.51, 0.0, 10.00052, 9.999813 
2.749979e+2, 2.1470936e+2, -875372.75, -871101.6, 15112.305, -0.07076275, 0.06045735, -857974.75, -22123.168, 0.0, 9.999745, 9.999828 
2.7499604e+2, 2.24709e+2, -889089.06, -898664.5, -15071.76, -0.087373264, 0.07870477, -878062.8, -140208.69, 0.0, 9.99928, 9.999193 
2.7499396e+2, 2.3470733e+2, -823954.4, -825804.75, 1884.3763, -0.09644932, -0.04091971, -822780.3, -182907.83, 0.0, 9.999089, 9.999117 
2.7499223e+2, 2.4470696e+2, -681576.9, -620459.7, -20240.145, -0.05874925, -0.017585577, -614364.6, -72488.18, 0.0, 9.999047, 9.999865 
2.7499074e+2, 2.5470778e+2, -573899.7, -524509.44, -4104.158, 0.018416788, 0.042061966, -524170.7, -80303.41, 0.0, 9.999122, 9.99982 
2.749888e+2, 2.647075e+2, -548498.25, -604408.1, -3812.7744, 0.020253086, 0.10254511, -548239.44, -202368.56, 0.0, 9.999257, 9.998523 
2.7498668e+2, 2.7470604e+2, -444590.94, -517122.78, -4739.898, -0.038770508, 0.07024833, -444282.5, -196393.58, 0.00000000009324417, 9.999355, 9.998405 
2.749859e+2, 2.8470504e+2, -312729.44, -286397.3, -33293.598, 0.024797002, 0.08818489, -263761.03, -113861.86, 0.00000023612336, 9.999076, 9.999451 
2.7498534e+2, 2.9470408e+2, -334035.25, -235114.17, -26434.756, 0.1257327, -0.0039206827, -228493.14, -176586.81, 0.0000024951785, 9.9981785, 9.999574 
2.749804e+2, 3.0470395e+2, -318385.78, -288963.25, -73177.375, -0.10643378, 0.07006898, -229033.06, -229033.06, 0.0000116764495, 9.998379, 9.998778 
2.7497995e+2, 3.1470186e+2, -114429.46, 25645.074, 7977.7456, 0.07404004, -0.028806997, 26097.973, 26097.973, 0.000040637482, 9.998773, 10.000749 
2.850197e+2, 1.247172e+2, -1715091.5, -1785827.3, 40890.49, 0.17102857, 0.11348829, -1696395.4, 21385.217, 0.00034670465, 10.000209, 9.999385 
2.8501523e+2, 1.347167e+2, -1506080.9, -1692702.8, -84080.76, -0.00077385653, 0.14552282, -1473787.3, 146001.05, 0.00015383656, 10.001287, 9.9988365 
2.850144e+2, 1.4471638e+2, -1357821.3, -1483627.0, 8193.893, 0.15612634, 0.19657521, -1357289.9, 164501.67, 0.00004093297, 10.001246, 9.999608 
2.8501233e+2, 1.5471582e+2, -1411053.0, -1471029.4, 9057.676, 0.09432768, 0.1449153, -1409715.0, 14078.562, 0.0000066741927, 10.000262, 9.9995 
2.8500983e+2, 1.6471496e+2, -1376395.1, -1458527.6, -24842.332, 0.051233437, 0.13987395, -1369465.8, -43665.72, 0.00000074756446, 10.000076, 9.999002 
2.8500694e+2, 1.7471358e+2, -1172294.9, -1321568.3, -60369.152, 0.046149686, 0.070640594, -1150936.5, 76877.12, 0.000000006090155, 10.000845, 9.998901 
2.8500408e+2, 1.8471219e+2, -1073394.5, -1211457.8, -13554.056, 0.014912074, 0.044397835, -1072076.5, 57750.57, 0.0, 10.0008135, 9.998988 
2.8500125e+2, 1.947106e+2, -1119287.3, -1188528.6, -10669.684, -0.054348376, -0.04887412, -1117680.4, -85837.98, 0.0, 9.999842, 9.998945 
2.8499934e+2, 2.0471029e+2, -1000995.06, -994387.6, 27399.697, -0.06699876, -0.005769291, -970093.2, -36248.273, 0.0, 9.999619, 9.99971 
2.8499833e+2, 2.1471113e+2, -830112.94, -863020.2, -2207.1494, -0.0117437, 0.0697867, -829965.56, 5869.939, 0.0, 10.00012, 9.9997015 
2.8499633e+2, 2.2471099e+2, -771120.1, -801615.25, -18869.059, -0.01047875, 0.09953633, -762108.06, -24271.791, 0.0, 9.99993, 9.999538 
2.8499317e+2, 2.3470962e+2, -813340.4, -777202.5, -11663.283, -0.0718641, -0.023865309, -773765.2, -133915.72, 0.0, 9.99899, 9.999489 
2.8499115e+2, 2.4470909e+2, -717248.9, -682619.8, 32894.68, -0.059378, -0.018828936, -662761.06, -120905.99, 0.0, 9.99898, 9.99947 
2.849904e+2, 2.5470936e+2, -473554.0, -517922.25, -12160.987, 0.03825031, 0.021695606, -470439.4, -26585.803, 0.0, 10.000002, 9.999433 
2.8498858e+2, 2.6470917e+2, -409209.56, -524370.9, -6975.1616, 0.03700953, 0.106410034, -408788.63, -62931.887, 0.0, 10.000149, 9.99865 
2.8498608e+2, 2.747083e+2, -446404.0, -502099.13, 15340.968, -0.018906068, 0.12371076, -442458.0, -194590.69, 0.0000000018932573, 9.99925, 9.998569 
2.849851e+2, 2.8470695e+2, -359365.53, -305571.63, 49698.65, 0.06410259, 0.089756794, -275958.4, -126078.195, 0.00000028816427, 9.998744, 9.99948 
2.8498474e+2, 2.9470482e+2, -217951.9, -165671.69, 15650.268, 0.22200811, -0.11939305, -161344.83, -109447.82, 0.0000027347362, 9.9989395, 9.999673 
2.8498006e+2, 3.0470586e+2, -201860.1, -274807.72, 14030.996, -0.011244189, 0.07904035, -199254.39, -199254.39, 0.000012525966, 9.999332, 9.998421 
2.849789e+2, 3.147043e+2, -106370.18, 124.859665, 41591.145, 0.09968283, 0.0683081, 14443.024, 14443.024, 0.00004059471, 9.998948, 10.000482 
2.9501933e+2, 1.24717355e+2, -1649891.9, -1664842.0, 43226.58, 0.02763259, 0.1010057, -1613498.9, 104281.99, 0.00028489743, 10.000255, 10.000197 
2.9501745e+2, 1.3471669e+2, -1459318.3, -1600285.4, -35605.52, 0.05465048, 0.04367994, -1450835.5, 168950.05, 0.000121053716, 10.001307, 9.999462 
2.9501587e+2, 1.4471601e+2, -1331411.9, -1427765.9, -48812.64, 0.12946908, 0.0094584, -1311005.4, 210784.48, 0.000029834508, 10.00123, 10.000004 
2.95012e+2, 1.5471622e+2, -1389237.4, -1417572.8, -15294.518, -0.0013999634, -0.008155447, -1382556.9, 41227.92, 0.000004731658, 10.000228, 9.999886 
2.9500934e+2, 1.647159e+2, -1415334.8, -1519122.9, -10660.554, -0.03654385, 0.04158694, -1414251.1, -88462.586, 0.00000054097734, 10.000002, 9.998614 
2.9500803e+2, 1.7471488e+2, -1208342.5, -1379002.4, -12768.2295, 0.035566542, 0.046351623, -1207392.5, 20410.387, 0.0000000012704189, 10.000787, 9.998525 
2.9500535e+2, 1.8471429e+2, -1053968.4, -1153259.8, -63528.81, 0.023768151, 0.09673021, -1022987.75, 106822.04, 0.0, 10.000729, 9.999434 
2.9500106e+2, 1.9471385e+2, -1101389.9, -1127487.6, -33489.977, -0.092355944, 0.073127754, -1078496.5, -46685.055, 0.0, 9.99974, 9.9994135 
2.949987e+2, 2.0471342e+2, -1048261.3, -1055098.5, 31497.21, -0.11613914, 0.096277475, -1019997.75, -86182.39, 0.0, 9.999458, 9.999371 
2.9499832e+2, 2.1471281e+2, -882829.5, -929713.44, 33070.64, -0.05376388, 0.06463949, -865735.1, -29911.34, 0.0, 9.999938, 9.99933 
2.9499608e+2, 2.2471267e+2, -757390.3, -729568.06, -67799.54, -0.05535523, 0.0869388, -674267.25, 63557.297, 0.0, 9.999748, 10.000118 
2.9499185e+2, 2.347129e+2, -796985.5, -701577.25, -31348.516, -0.12957488, 0.06199507, -692198.9, -52380.418, 0.0, 9.9988165, 10.00009 
2.949901e+2, 2.447124e+2, -786222.2, -802585.9, 53507.387, -0.09591487, 0.07646966, -740274.75, -198451.28, 0.0, 9.998876, 9.998701 
2.9499078e+2, 2.5471094e+2, -549521.7, -648351.1, 39298.906, 0.044124827, 0.029347818, -535799.9, -91957.78, 0.0, 9.999879, 9.998603 
2.9498908e+2, 2.6471063e+2, -358401.94, -399535.56, -51365.477, 0.037455212, 0.100041635, -323638.78, 22207.436, 0.0, 10.00007, 9.999541 
2.9498503e+2, 2.7471122e+2, -399523.94, -371231.13, -5178.7466, -0.08623049, 0.16553505, -370313.0, -122474.89, 0.0000000016821552, 9.999112, 9.999532 
2.949834e+2, 2.8471005e+2, -370523.16, -321771.5, 40330.797, -0.017299913, 0.10958072, -299022.44, -149176.03, 0.00000022409213, 9.998709, 9.999391 
2.9498357e+2, 2.9470724e+2, -246232.39, -211932.81, 50402.727, 0.16162461, -0.15207472, -175842.11, -123971.39, 0.0000026534976, 9.998867, 9.999403 
2.9497996e+2, 3.0470896e+2, -213832.52, -282839.56, 228.49707, 0.009981384, 0.13375269, -213831.75, -213831.75, 0.00001292508, 9.999271, 9.998386 
2.9497814e+2, 3.147071e+2, -92589.81, 52098.258, 72588.55, 0.053242337, 0.08885767, 82237.18, 82237.18, 0.000040888393, 9.998848, 10.000883 
3.050203e+2, 1.24718495e+2, -1592041.9, -1605621.8, 160132.23, 0.100909114, 0.08582545, -1438555.8, 279213.53, 0.00023189843, 10.000533, 10.000473 
3.0501845e+2, 1.3471818e+2, -1640421.1, -1649158.1, 65.01375, 0.10859494, 0.030964246, -1640420.6, -20651.412, 0.000094942065, 9.999893, 9.99981 
3.0501586e+2, 1.4471729e+2, -1556875.6, -1531586.9, -15075.513, 0.09476956, -0.044851035, -1524555.1, -2778.9224, 0.000021738364, 9.999689, 10.00002 
3.050122e+2, 1.547178e+2, -1368359.0, -1408488.0, -51867.17, -0.000141009, -0.029836746, -1332810.8, 90959.484, 0.0000030875526, 10.000379, 9.999869 
3.050098e+2, 1.6471785e+2, -1295977.1, -1434197.6, 12130.823, -0.013177142, 0.042868927, -1294920.5, 30850.768, 0.0000002653173, 10.000673, 9.99888 
3.050088e+2, 1.7471722e+2, -1239495.4, -1363050.1, 30635.902, 0.061515126, 0.060488865, -1232316.1, -4534.552, 0.0, 10.000419, 9.998819 
3.050062e+2, 1.8471698e+2, -1089505.3, -1155151.8, 183.18683, 0.06117334, 0.12270858, -1089504.8, 40279.93, 0.0, 10.000417, 9.999574 
3.0500177e+2, 1.947168e+2, -968077.75, -1057625.4, -27135.898, -0.031893026, 0.11322824, -960496.5, 71286.766, 0.0, 10.0006075, 9.999489 
3.0499896e+2, 2.0471622e+2, -954561.4, -1040355.75, 63619.996, -0.067896664, 0.13162963, -920727.4, 13061.977, 0.0, 10.00023, 9.999104 
3.0499795e+2, 2.147151e+2, -1007415.75, -1025926.1, 39849.363, -0.039354745, 0.07669368, -975760.94, -139956.08, 0.0, 9.999226, 9.999019 
3.049955e+2, 2.2471493e+2, -846423.7, -758355.94, -37896.137, -0.04358123, 0.10604149, -744294.2, -6488.05, 0.0, 9.999066, 10.0002575 
3.049916e+2, 2.3471569e+2, -638972.1, -609647.9, -63268.06, -0.074528866, 0.11738398, -559365.25, 80428.29, 0.0, 9.999823, 10.000244 
3.0498993e+2, 2.4471532e+2, -652641.75, -731689.06, 73414.26, -0.035166185, 0.13716868, -608788.06, -66992.04, 0.0, 9.999802, 9.998728 
3.049905e+2, 2.5471354e+2, -655481.2, -690378.1, 94107.42, 0.07525789, 0.0573985, -577218.4, -133401.14, 0.0, 9.999142, 9.998657 
3.049888e+2, 2.6471296e+2, -512359.84, -468262.5, 19291.754, 0.06600975, 0.09078302, -461014.16, -115190.76, 0.0, 9.998989, 9.99959 
3.0498484e+2, 2.7471322e+2, -338774.44, -335272.3, -30780.125, -0.026205583, 0.12300132, -306193.5, -58376.7, 0.00000000014964384, 9.999506, 9.999585 
3.0498296e+2, 2.8471214e+2, -244901.64, -277868.44, 13593.615, 0.03381044, 0.074978195, -240019.44, -90194.336, 0.00000013461268, 9.999661, 9.999227 
3.0498272e+2, 2.9470977e+2, -201090.03, -206996.42, -6783.3765, 0.18140471, -0.12194589, -196644.88, -144798.3, 0.0000024184974, 9.999281, 9.99922 
3.0497906e+2, 3.0471152e+2, -261735.84, -279401.88, -28067.613, 0.03340902, 0.16501278, -241144.16, -241144.16, 0.00001259153, 9.998806, 9.998657 
3.0497718e+2, 3.1470972e+2, -245717.36, -6112.819, 17885.318, 0.14419784, 0.094208606, -4785.1235, -4785.1235, 0.000039642433, 9.9977, 10.001067 
3.150219e+2, 1.2472084e+2, -1605675.9, -1634887.3, 66532.65, 0.13219298, 0.091202095, -1552164.6, 165579.33, 0.0001887222, 10.000543, 10.000263 
3.150177e+2, 1.3472137e+2, -1647136.4, -1645465.0, -15214.846, 0.008166705, 0.11833883, -1631062.9, -11324.988, 0.00007509751, 9.999839, 9.999857 
3.1501386e+2, 1.4472029e+2, -1596275.0, -1606147.5, -9080.073, -0.120082505, 0.04591765, -1590876.3, -69126.72, 0.00001598166, 9.999649, 9.999527 
3.1501248e+2, 1.5472052e+2, -1408034.1, -1485657.5, -10175.465, -0.04989314, 0.07963612, -1406722.4, 17027.916, 0.00000170519, 10.00036, 9.999346 
3.1501096e+2, 1.647207e+2, -1238267.8, -1301700.0, -17726.555, -0.0027170493, 0.14847112, -1233650.0, 92099.59, 0.000000057148895, 10.000612, 9.999824 
3.1500885e+2, 1.7472059e+2, -1177607.4, -1220452.9, 31806.21, -0.008216467, 0.1156212, -1160682.1, 67067.76, 0.0, 10.000358, 9.999827 
3.1500617e+2, 1.847203e+2, -1118963.1, -1191240.6, -7926.9785, -0.014093829, 0.13193199, -1118103.9, 11647.45, 0.0, 10.000306, 9.99938 
3.1500283e+2, 1.9471948e+2, -996846.44, -1091644.6, -4754.1895, -0.018246397, 0.07946898, -996608.6, 35148.86, 0.0, 10.000501, 9.999304 
3.1499967e+2, 2.0471881e+2, -997510.8, -1088812.6, 11926.404, -0.047349833, 0.111129336, -995978.6, -62213.242, 0.0, 10.00006, 9.998853 
3.1499678e+2, 2.1471809e+2, -1050424.5, -1072913.3, 17789.438, -0.10917642, 0.12194233, -1040623.7, -204846.39, 0.0, 9.999049, 9.99878 
3.1499416e+2, 2.2471789e+2, -882835.06, -800984.0, -24704.734, -0.11317484, 0.16932175, -794105.5, -56325.758, 0.0, 9.99892, 10.00004 
3.1499192e+2, 2.3471805e+2, -677601.5, -652779.44, -19229.035, -0.05427939, 0.14803864, -642304.0, -2530.3467, 0.0, 9.9996605, 10.000031 
3.1499022e+2, 2.4471785e+2, -609481.7, -625340.3, 35799.984, -0.017936442, 0.15697303, -580743.4, -38970.348, 0.0, 9.9997225, 9.999497 
3.1498906e+2, 2.547171e+2, -620731.3, -584239.06, 81389.1, -0.011973834, 0.10057105, -519075.94, -75296.32, 0.0, 9.99899, 9.999462 
3.1498736e+2, 2.6471612e+2, -574693.8, -580722.2, 23134.094, -0.0066759675, 0.08965482, -554378.4, -208590.14, 0.0, 9.998917, 9.998854 
3.1498516e+2, 2.7471438e+2, -409099.3, -459157.7, 4085.595, 0.022966336, -0.0029285345, -408768.03, -160964.28, 0.00000000001473293, 9.999403, 9.998788 
3.1498343e+2, 2.84713e+2, -271093.38, -318115.5, -14747.46, 0.07916737, -0.02223676, -266850.94, -117033.65, 0.000000108201135, 9.999604, 9.998973 
3.1498158e+2, 2.947122e+2, -238337.16, -257862.67, -1781.9061, 0.09660261, -0.044719875, -238175.88, -186348.36, 0.0000023186144, 9.99916, 9.998933 
3.14977e+2, 3.0471334e+2, -217418.67, -178581.33, -76358.086, -0.0878686, 0.16794604, -119211.414, -119211.414, 0.000012381474, 9.998767, 9.999367 
3.149753e+2, 3.147118e+2, -244523.69, 6589.117, 35404.22, 0.10798365, 0.04306591, 11485.27, 11485.27, 0.000038038284, 9.997649, 10.001178 
3.2502252e+2, 1.2472261e+2, -1659504.3, -1687857.9, 32267.264, 0.16866699, 0.07293246, -1638436.8, 79290.51, 0.0001575099, 10.0002575, 10.000046 
3.250184e+2, 1.3472393e+2, -1561979.0, -1603601.4, -77541.43, 0.08425174, 0.17359345, -1502504.5, 117210.57, 0.00006189271, 10.000381, 9.999894 
3.2501402e+2, 1.4472322e+2, -1507386.5, -1571308.9, 13619.652, -0.08486302, 0.13973668, -1504605.6, 17118.51, 0.000012633238, 10.000272, 9.999482 
3.2501307e+2, 1.5472318e+2, -1405488.9, -1486692.6, 20840.414, -0.019068494, 0.1502576, -1400452.8, 23275.16, 0.0000008198343, 10.000366, 9.999346 
3.250116e+2, 1.6472338e+2, -1271694.0, -1254729.5, 23804.78, 0.034583922, 0.19498889, -1237940.9, 87785.05, 0.000000004124255, 10.000146, 10.000359 
3.2500923e+2, 1.7472367e+2, -1251538.1, -1199773.1, 3004.3662, 0.03950327, 0.15019584, -1199599.4, 28120.518, 0.0, 9.999618, 10.000326 
3.250065e+2, 1.8472342e+2, -1213256.3, -1246012.8, 4283.5723, 0.027817322, 0.15011719, -1212705.4, -82984.86, 0.0, 9.999704, 9.999286 
3.2500345e+2, 1.9472241e+2, -1022621.94, -1111744.0, -18202.88, 0.006409801, 0.08833112, -1019047.44, 12682.907, 0.0, 10.0003805, 9.99921 
3.250002e+2, 2.0472173e+2, -931961.0, -1045957.9, -4584.2896, -0.010241532, 0.11680326, -931776.94, 1961.1998, 0.0, 10.00044, 9.998969 
3.2499686e+2, 2.1472123e+2, -954786.44, -1011540.4, 2119.9614, -0.026224246, 0.13630319, -954707.4, -118961.77, 0.0, 9.999635, 9.998922 
3.2499397e+2, 2.2472076e+2, -840721.44, -834762.5, 50735.535, -0.043421704, 0.17343241, -786919.06, -49168.797, 0.0, 9.999448, 9.999546 
3.2499167e+2, 2.3472011e+2, -664291.75, -702372.0, 7558.1807, -0.05565419, 0.11595315, -662846.44, -23092.176, 0.0, 9.999997, 9.999519 
3.249898e+2, 2.4471962e+2, -579394.44, -612627.3, 3369.4119, -0.035239138, 0.12284871, -579056.25, -37299.32, 0.0, 9.999912, 9.999506 
3.249884e+2, 2.547192e+2, -581608.5, -561223.8, -31751.61, 0.019574597, 0.09405229, -538068.75, -94309.35, 0.0, 9.999212, 9.99952 
3.2498682e+2, 2.6471844e+2, -552511.75, -561908.06, -16261.236, 0.048403185, 0.09820618, -540283.56, -194517.75, 0.0, 9.999034, 9.998933 
3.2498518e+2, 2.7471682e+2, -389879.78, -437795.34, 2045.385, 0.08602512, 0.010148677, -389792.63, -142011.66, 0.00000000010851988, 9.999489, 9.998892 
3.2498327e+2, 2.8471568e+2, -336686.6, -349766.53, 9412.137, 0.13664581, 0.009292493, -331765.34, -181972.48, 0.00000014604628, 9.999139, 9.99899 
3.2498065e+2, 2.9471523e+2, -419800.2, -337300.63, 13443.726, 0.16437253, 0.020770771, -335165.2, -283365.7, 0.0000023415487, 9.997878, 9.999006 
3.2497534e+2, 3.047162e+2, -275990.25, -139379.7, 17959.566, -0.0823468, 0.17957641, -137058.1, -137058.1, 0.000012312151, 9.998122, 9.99992 
3.249742e+2, 3.1471464e+2, 15419.664, 101169.625, 43258.094, 0.1563704, -0.0035696053, 119200.52, 119200.52, 0.000036624067, 9.999621, 10.000847 
3.3502108e+2, 1.2472376e+2, -1687444.8, -1725547.5, -53578.51, -0.07474631, 0.037781004, -1649631.3, 68088.56, 0.00013854062, 10.000189, 9.999811 
3.350202e+2, 1.34726e+2, -1566435.9, -1595684.9, -70509.586, 0.18758506, 0.22314875, -1509050.1, 110649.85, 0.000055370125, 10.0003395, 9.999952 
3.350161e+2, 1.4472616e+2, -1478037.4, -1497689.6, -5303.3096, 0.051657192, 0.24865818, -1476697.6, 45001.887, 0.000011804474, 10.0002165, 10.000014 
3.3501348e+2, 1.5472604e+2, -1366545.4, -1396919.0, 39343.62, -0.049749505, 0.1955733, -1339559.3, 84141.32, 0.00000057438905, 10.000332, 9.999978 
3.350113e+2, 1.6472615e+2, -1279437.9, -1258634.8, -9906.942, -0.043257266, 0.19435771, -1254671.8, 71026.11, 0.00000000201948, 10.000089, 10.000361 
3.350095e+2, 1.747264e+2, -1259074.6, -1208440.4, 83.669365, 0.06604857, 0.1499913, -1208440.3, 19251.957, 0.0, 9.999582, 10.000285 
3.3500674e+2, 1.8472622e+2, -1237415.1, -1265297.1, 11128.906, 0.04927065, 0.1645811, -1233517.9, -103824.74, 0.0, 9.999573, 9.999218 
3.3500308e+2, 1.9472536e+2, -1042124.75, -1127141.0, 21009.229, -0.097313076, 0.12184075, -1037216.3, -5512.3584, 0.0, 10.000275, 9.999155 
3.350001e+2, 2.0472482e+2, -917014.8, -977448.6, -48781.8, -0.09007861, 0.14142793, -889849.44, 43859.805, 0.0, 10.000284, 9.999514 
3.3499777e+2, 2.1472442e+2, -941919.4, -939845.44, -13554.92, 0.07541423, 0.11305045, -927287.9, -91577.266, 0.0, 9.999444, 9.999505 
3.349945e+2, 2.2472347e+2, -923156.2, -964660.44, 54798.188, 0.04027078, 0.11222631, -885312.3, -147593.6, 0.0, 9.999276, 9.998734 
3.3499038e+2, 2.3472175e+2, -751591.94, -835819.56, 39870.094, -0.20860972, 0.03226034, -735712.7, -95976.664, 0.0, 9.999802, 9.998694 
3.349882e+2, 2.4472058e+2, -632156.3, -705421.0, -36323.22, -0.21365835, 0.042235017, -617200.8, -75452.7, 0.0, 9.999833, 9.998907 
3.3498812e+2, 2.5471988e+2, -645558.75, -660009.25, -45135.12, 0.038060937, 0.041231353, -607074.25, -163318.03, 0.0, 9.999069, 9.998909 
3.3498678e+2, 2.6471996e+2, -502730.28, -443682.47, -16023.162, 0.115039, 0.12450429, -439614.66, -93859.45, 0.0, 9.998973, 9.99977 
3.3498424e+2, 2.7472052e+2, -348007.16, -318248.94, 33798.5, 0.013488728, 0.1635798, -296199.4, -48450.715, 0.000000000044508567, 9.9993515, 9.999776 
3.349821e+2, 2.8472015e+2, -310236.2, -289550.38, -50757.273, 0.071853384, 0.17190234, -248092.94, -98341.805, 0.00000018851506, 9.999102, 9.999427 
3.3497956e+2, 2.947191e+2, -399435.94, -284463.2, -14525.827, 0.22320516, 0.078378946, -282656.38, -230895.4, 0.0000023038672, 9.997812, 9.999411 
3.3497366e+2, 3.0471984e+2, -267824.78, -114125.32, 64788.848, -0.09201304, 0.18850794, -90459.01, -90459.01, 0.000011796056, 9.998092, 10.000106 
3.3497304e+2, 3.1471786e+2, -66519.67, -41817.484, 113231.625, 0.002370482, -0.05009044, 59734.676, 59734.676, 0.000034748333, 9.999495, 9.999936 
3.450214e+2, 1.24726705e+2, -1684251.6, -1739397.4, 42504.906, -0.04892065, 0.0714024, -1661159.6, 56531.82, 0.00012841672, 10.000284, 9.999669 
3.4502125e+2, 1.3472804e+2, -1422470.9, -1541090.9, 1498.4767, 0.22119798, 0.17660554, -1422451.9, 197227.75, 0.00005393956, 10.001363, 9.999855 
3.4501728e+2, 1.4472824e+2, -1332260.8, -1414362.8, 47360.12, 0.11213054, 0.20737167, -1310636.6, 211041.38, 0.00001321429, 10.0011835, 10.000106 
3.450139e+2, 1.5472832e+2, -1422805.1, -1420317.8, 8630.195, -0.012566036, 0.1672213, -1412842.1, 10834.586, 0.00000089811203, 9.999942, 9.999997 
3.4501135e+2, 1.6472825e+2, -1365668.4, -1329662.9, -20591.084, -0.012731802, 0.16102162, -1320314.4, 5361.3423, 0.0000000015154811, 9.999603, 10.000115 
3.450096e+2, 1.7472798e+2, -1188081.1, -1198412.5, -52799.75, 0.09749417, 0.0874128, -1140195.0, 87480.83, 0.0, 10.000175, 10.000068 
3.4500688e+2, 1.8472803e+2, -1113988.9, -1173904.6, -3085.7415, 0.081214815, 0.11964996, -1113830.4, 15844.804, 0.0, 10.000273, 9.999515 
3.450034e+2, 1.9472808e+2, -1094555.6, -1121625.8, 8507.489, -0.060448237, 0.13849686, -1092104.0, -60426.4, 0.0, 9.999766, 9.999448 
3.4500042e+2, 2.0472783e+2, -970561.5, -984770.56, -41753.367, -0.054930322, 0.16463138, -935312.56, -1632.9055, 0.0, 9.999844, 9.99967 
3.4499794e+2, 2.14727e+2, -776564.2, -845065.5, -70353.89, 0.106848374, 0.08043954, -732566.7, 103117.15, 0.0, 10.000515, 9.999637 
3.449948e+2, 2.2472602e+2, -741297.2, -894502.9, 34439.402, 0.08262185, 0.07539821, -733911.5, 3780.9626, 0.0, 10.000593, 9.9985895 
3.4499094e+2, 2.3472464e+2, -733420.94, -844750.94, 44859.246, -0.13413294, 0.046295602, -717595.06, -77886.89, 0.0, 9.999987, 9.998552 
3.4498858e+2, 2.447235e+2, -663473.9, -729703.44, 28341.53, -0.14388473, 0.06986104, -653001.6, -111280.914, 0.0, 9.999671, 9.998816 
3.4498778e+2, 2.5472233e+2, -555087.25, -633919.56, 25657.664, 0.07252384, 0.03758952, -547472.06, -103739.34, 0.0, 9.999753, 9.998768 
3.44986e+2, 2.6472232e+2, -447239.28, -423974.56, 73274.91, 0.12499343, 0.12258347, -361414.44, -15681.273, 0.0, 9.999395, 9.999699 
3.4498328e+2, 2.747232e+2, -464088.75, -378370.8, 21058.98, 0.027468456, 0.20489697, -373476.53, -125752.03, 0.0, 9.998588, 9.99973 
3.44981e+2, 2.8472283e+2, -376557.06, -291311.78, -77995.07, 0.0903533, 0.20057978, -245052.92, -95326.07, 0.00000016974016, 9.998548, 9.999666 
3.4497857e+2, 2.9472128e+2, -134907.55, -128422.79, -84420.15, 0.2679722, 0.039157286, -47182.773, 4556.1465, 0.0000020169734, 9.999525, 9.999649 
3.4497264e+2, 3.0472225e+2, -48710.203, -58650.023, 19618.742, -0.07388764, 0.17688642, -33441.66, -33441.66, 0.0000103175025, 9.99978, 9.999691 
3.4497264e+2, 3.147205e+2, -236026.86, -181758.77, -60044.137, 0.077119745, -0.00021244885, -143002.33, -143002.33, 0.000031962787, 9.998563, 9.999422 
3.5502252e+2, 1.2473133e+2, -1697274.3, -1758398.1, -14097.227, -0.050658587, 0.16567661, -1694179.6, 23463.656, 0.00012227354, 10.000249, 9.999554 
3.55021e+2, 1.3473009e+2, -1427402.8, -1551103.1, 55089.11, 0.025666518, 0.029551227, -1406426.4, 213227.84, 0.00005490219, 10.001379, 9.99977 
3.550171e+2, 1.4472967e+2, -1370739.3, -1496852.9, -15430.112, -0.07191557, 0.02679403, -1368878.9, 152779.25, 0.000015641235, 10.001185, 9.999546 
3.5501382e+2, 1.5472993e+2, -1466316.4, -1517819.4, -23597.223, -0.052830152, 0.07008339, -1457139.9, -33482.656, 0.0000017221555, 9.999965, 9.999324 
3.5501125e+2, 1.6472964e+2, -1403433.8, -1388657.0, -18847.248, -0.019462222, 0.09398067, -1375801.6, -50141.34, 0.000000007086625, 9.999522, 9.999745 
3.55009e+2, 1.7472848e+2, -1219353.0, -1250405.9, -15520.864, -0.01184626, -0.033303104, -1212925.6, 14744.612, 0.0, 10.000119, 9.999737 
3.5500646e+2, 1.8472886e+2, -1087462.0, -1089712.1, -32818.773, -0.01952354, 0.016244423, -1055749.0, 73917.43, 0.0, 10.000149, 10.000152 
3.550039e+2, 1.9473076e+2, -1064740.9, -1032502.6, 5413.7886, -0.017481877, 0.15377441, -1031617.8, 31.34907, 0.0, 9.999648, 10.000116 
3.5500082e+2, 2.0473096e+2, -1015358.6, -1040850.4, -32067.354, -0.025463402, 0.20488721, -993596.94, -59949.66, 0.0, 9.999681, 9.999366 
3.5499713e+2, 2.1472904e+2, -823060.44, -904415.4, -29515.246, -0.05758678, 0.043227788, -813480.5, 22184.37, 0.0, 10.000352, 9.99931 
3.5499442e+2, 2.247284e+2, -725675.1, -826309.0, 1356.673, -0.040896866, 0.06568642, -725656.8, 12014.709, 0.0, 10.0004425, 9.999128 
3.5499287e+2, 2.3472896e+2, -721265.2, -778153.94, 36687.727, 0.031691566, 0.17341529, -703286.8, -63618.06, 0.0, 9.999812, 9.999093 
3.5499042e+2, 2.4472848e+2, -661782.56, -693803.4, 18201.725, 0.041106887, 0.22115591, -653551.75, -111878.34, 0.0, 9.999539, 9.999122 
3.5498694e+2, 2.547266e+2, -556763.25, -601821.06, 43588.84, -0.020688467, 0.08692926, -530225.5, -86536.67, 0.0, 9.999609, 9.999055 
3.5498396e+2, 2.6472557e+2, -521929.75, -566574.75, 30949.719, -0.047696304, 0.098429136, -506092.34, -160393.38, 0.0, 9.999335, 9.99875 
3.5498172e+2, 2.7472505e+2, -551487.9, -535724.1, 7652.073, -0.018626666, 0.13814642, -532620.6, -284913.44, 0.0, 9.99848, 9.998702 
3.5497957e+2, 2.8472367e+2, -387259.88, -302472.47, -56117.51, 0.058047686, 0.09277782, -274535.53, -124815.2, 0.00000011654808, 9.998503, 9.999612 
3.5497716e+2, 2.947217e+2, -153129.42, -143478.3, -25736.896, 0.13224877, -0.111770555, -122118.49, -70383.25, 0.0000016052002, 9.999432, 9.999592 
3.549718e+2, 3.047233e+2, -100687.08, -170322.13, -30052.42, -0.1676891, 0.13422914, -89511.04, -89511.04, 0.000008325357, 9.9997835, 9.998928 
3.5497192e+2, 3.1472355e+2, -262365.38, -214970.72, -115091.19, 0.0718553, 0.22815636, -121162.54, -121162.54, 0.000028551576, 9.998461, 9.99925 
3.6502415e+2, 1.24734625e+2, -1594686.8, -1699795.0, -56245.8, 0.07218811, 0.18592644, -1570263.4, 147349.13, 0.000118926524, 10.000898, 9.999658 
3.6502114e+2, 1.3473307e+2, -1620805.4, -1651411.8, -4794.957, -0.01712239, 0.027478686, -1620071.8, -446.4979, 0.000056465244, 10.00008, 9.999708 
3.6501792e+2, 1.447326e+2, -1548513.0, -1598569.5, -30916.385, -0.041089907, 0.026840912, -1533764.0, -12134.717, 0.00001794202, 10.000025, 9.9994135 
3.6501476e+2, 1.547326e+2, -1330533.9, -1463441.1, -32695.088, 0.0054360107, 0.058503736, -1322926.4, 100704.49, 0.000002788093, 10.000943, 9.999229 
3.65012e+2, 1.6473235e+2, -1182525.6, -1289001.1, 43499.344, 0.03477033, 0.09504143, -1167014.1, 158619.98, 0.00000008230677, 10.001076, 9.9996805 
3.6500904e+2, 1.7473157e+2, -1205881.6, -1248808.1, 31186.773, -0.016594285, 0.012495979, -1189486.1, 38155.27, 0.0, 10.000241, 9.999686 
3.650063e+2, 1.847318e+2, -1136310.3, -1103323.3, 24455.09, -0.02374133, 0.04687961, -1090319.5, 39318.707, 0.0, 9.999778, 10.0002365 
3.650041e+2, 1.9473292e+2, -1059966.6, -1019100.1, -8732.027, 0.044701744, 0.09967861, -1017312.5, 14313.6045, 0.0, 9.99964, 10.000212 
3.6500114e+2, 2.0473313e+2, -1025848.3, -1025879.94, 2296.0837, 0.05368357, 0.13843755, -1023568.0, -89944.37, 0.0, 9.9995165, 9.999554 
3.649974e+2, 2.1473207e+2, -957050.75, -946494.7, 12138.908, -0.008734236, 0.042833697, -938536.0, -102901.664, 0.0, 9.999333, 9.999514 
3.6499456e+2, 2.247319e+2, -887725.75, -898818.8, 56018.453, -0.0046520643, 0.09630273, -836979.9, -99342.266, 0.0, 9.999303, 9.999182 
3.6499298e+2, 2.3473243e+2, -773429.6, -797009.1, 24474.033, 0.09033532, 0.20040616, -758053.6, -118418.42, 0.0, 9.999428, 9.999148 
3.6499044e+2, 2.4473193e+2, -657517.7, -675641.6, 20032.053, 0.10435339, 0.23440328, -644593.25, -102953.61, 0.0, 9.999476, 9.999291 
3.649868e+2, 2.547301e+2, -573564.94, -582305.1, 10335.477, 0.030154116, 0.085669585, -566713.6, -123060.43, 0.0, 9.999377, 9.9993 
3.6498356e+2, 2.6472896e+2, -532699.7, -580027.25, 37358.125, -0.012112692, 0.07901317, -512141.28, -166477.53, 0.0, 9.999313, 9.998657 
3.6498085e+2, 2.7472812e+2, -433137.6, -489081.66, 50970.43, 0.009957711, 0.097436495, -402968.25, -155292.33, 0.0, 9.999346, 9.998601 
3.6497843e+2, 2.847268e+2, -301699.22, -278643.47, 78257.39, 0.07107907, 0.06898145, -211069.45, -61380.273, 0.000000055764154, 9.999139, 9.999483 
3.649761e+2, 2.947253e+2, -284946.38, -223236.67, 73459.99, 0.13637546, -0.07759711, -174414.72, -122714.555, 0.0000011855267, 9.998591, 9.999451 
3.6497158e+2, 3.0472624e+2, -287296.2, -277807.2, 95946.875, -0.0947148, 0.118052416, -186487.58, -186487.58, 0.0000067298934, 9.998608, 9.998743 
3.649714e+2, 3.1472704e+2, -175831.28, -135238.27, -37364.168, 0.16822198, 0.28372765, -113013.84, -113013.84, 0.00002565761, 9.998916, 9.999575 
3.7502512e+2, 1.2473689e+2, -1565781.8, -1641545.0, -145054.42, 0.0017804437, 0.18738684, -1453744.1, 263852.13, 0.0001191897, 10.0009, 10.000051 
3.750212e+2, 1.3473697e+2, -1616323.8, -1643040.4, -26531.506, -0.062816106, 0.17944327, -1599977.5, 19615.549, 0.00005856906, 10.000083, 9.999758 
3.750192e+2, 1.4473699e+2, -1532160.4, -1546378.4, -17791.883, 0.043752734, 0.20548905, -1520109.9, 1481.5503, 0.000020069963, 9.999949, 9.999807 
3.750162e+2, 1.547363e+2, -1298343.9, -1399733.0, 19574.549, 0.016726501, 0.12666371, -1294696.0, 128901.875, 0.0000038584762, 10.000953, 9.999664 
3.7501314e+2, 1.6473636e+2, -1179703.1, -1268874.0, 176.99219, 0.00984401, 0.16383667, -1179702.9, 145894.36, 0.00000020238203, 10.001015, 9.999846 
3.7500924e+2, 1.7473726e+2, -1204799.8, -1237052.9, 15386.789, -0.05295922, 0.23463692, -1198636.9, 28951.625, 0.0, 10.000194, 9.999791 
3.7500593e+2, 1.8473679e+2, -1182978.3, -1172432.8, 4557.7925, -0.07011462, 0.21275444, -1170735.9, -41144.676, 0.0, 9.999659, 9.999818 
3.7500346e+2, 1.9473447e+2, -1107865.0, -1089600.9, 2546.3865, -0.013111407, -0.03682586, -1089252.5, -57642.977, 0.0, 9.999519, 9.9997835 
3.7500092e+2, 2.0473425e+2, -1002828.94, -944089.25, -17960.283, 0.05211788, -0.04857611, -939033.0, -5423.3213, 0.0, 9.999368, 10.000189 
3.7499815e+2, 2.1473615e+2, -937163.4, -861234.06, 18713.078, 0.10896807, 0.08546244, -856872.7, -21280.568, 0.0, 9.999146, 10.000189 
3.749948e+2, 2.247365e+2, -940516.5, -972802.0, 43197.957, 0.06435981, 0.17957197, -910543.6, -172953.05, 0.0, 9.999142, 9.998755 
3.7499085e+2, 2.3473492e+2, -826782.0, -874617.8, 42316.227, -0.09527707, 0.11403894, -802092.0, -162482.8, 0.0, 9.999275, 9.9986925 
3.749883e+2, 2.4473381e+2, -664546.0, -665037.75, 3004.0884, -0.08622655, 0.10479768, -661777.75, -120157.66, 0.0, 9.999368, 9.999417 
3.7498707e+2, 2.547329e+2, -585987.9, -577222.9, 22411.055, 0.08235182, 0.038070895, -558769.8, -115144.49, 0.0, 9.999239, 9.999405 
3.7498432e+2, 2.647325e+2, -489387.78, -474251.97, 25499.145, 0.102232926, 0.062421735, -455221.38, -109592.93, 0.0, 9.999243, 9.999419 
3.749801e+2, 2.7473232e+2, -389667.4, -378434.72, 69362.06, -0.03210336, 0.06906082, -314462.0, -66829.76, 0.0, 9.999253, 9.999408 
3.7497702e+2, 2.847323e+2, -312426.3, -292685.47, 46328.863, -0.017471964, 0.12851371, -255187.25, -105553.805, 0.00000003400916, 9.999099, 9.999408 
3.7497482e+2, 2.947323e+2, -314331.34, -261593.38, 71336.52, 0.10859835, 0.14845987, -211908.27, -160275.72, 0.000000899484, 9.998484, 9.999245 
3.7497142e+2, 3.0473116e+2, -274793.28, -235730.97, 103338.01, -0.0023249376, 0.13461298, -150094.6, -150094.6, 0.000005766145, 9.998547, 9.99906 
3.749702e+2, 3.1473047e+2, -148093.58, -54936.24, 1921.4795, 0.08278719, 0.112554066, -54896.62, -54896.62, 0.000023929499, 9.998818, 10.0001745 
3.85026e+2, 1.2474e+2, -1630725.5, -1657648.0, 4087.2434, 0.039784014, 0.15608342, -1630118.8, 87448.74, 0.00012316402, 10.000406, 10.000174 
3.850222e+2, 1.3474068e+2, -1444659.9, -1571262.3, 36573.81, -0.016201431, 0.21459162, -1434853.8, 184704.64, 0.000061385945, 10.001293, 9.99968 
3.8502118e+2, 1.4474064e+2, -1366035.9, -1444818.8, 57954.68, 0.20383951, 0.23268645, -1335352.8, 186204.17, 0.000022093489, 10.001008, 9.999986 
3.8501638e+2, 1.547401e+2, -1492249.5, -1470268.0, 32524.574, 0.02221697, 0.1467391, -1446927.4, -23365.717, 0.000004863891, 9.99954, 9.99985 
3.8501292e+2, 1.6474012e+2, -1436625.9, -1416435.3, 33882.625, -0.01970559, 0.1791188, -1391176.0, -65614.33, 0.00000029520132, 9.9993305, 9.999659 
3.850101e+2, 1.7474088e+2, -1178678.4, -1243665.5, 1118.3646, 0.007946801, 0.25332925, -1178659.1, 48896.098, 0.0, 10.000443, 9.999632 
3.850068e+2, 1.8474036e+2, -1033188.44, -1081916.0, 6628.4917, 0.009631211, 0.22865263, -1032302.8, 97254.65, 0.0, 10.000598, 9.999989 
3.8500324e+2, 1.9473802e+2, -1076217.5, -1059126.6, 17083.037, 0.0163092, -0.042515792, -1048570.94, -16997.03, 0.0, 9.99965, 9.999936 
3.8500038e+2, 2.0473771e+2, -1004910.9, -983697.0, 44610.76, 0.06146686, -0.055997595, -948449.5, -14874.809, 0.0, 9.999523, 9.999842 
3.8499808e+2, 2.1473943e+2, -799631.56, -839744.4, -20645.148, 0.13915354, 0.0989182, -790904.6, 44655.71, 0.0, 10.000271, 9.999804 
3.849948e+2, 2.247396e+2, -754557.1, -854442.94, 1272.5352, 0.10164016, 0.1811379, -754540.94, -16980.383, 0.0, 10.000299, 9.999002 
3.849905e+2, 2.3473787e+2, -764338.2, -812051.2, 23493.305, -0.06189545, 0.0718973, -754712.3, -115133.625, 0.0, 9.999576, 9.998969 
3.849878e+2, 2.4473691e+2, -681146.8, -643471.75, 50706.25, -0.05543479, 0.04874628, -608216.94, -66629.68, 0.0, 9.999148, 9.99965 
3.8498658e+2, 2.547364e+2, -592934.8, -561377.44, 45755.05, 0.12750456, -0.0023409883, -528756.8, -85167.86, 0.0, 9.9991045, 9.999574 
3.8498384e+2, 2.6473632e+2, -491452.88, -457435.2, 67236.8, 0.14306007, 0.03835118, -405089.25, -59500.082, 0.0, 9.999141, 9.999594 
3.8497958e+2, 2.747366e+2, -373426.34, -347713.84, 35429.39, -0.00036107053, 0.070504434, -322880.25, -75291.58, 0.0, 9.999267, 9.999614 
3.8497615e+2, 2.8473693e+2, -288768.7, -299623.38, 1691.1936, -0.019226575, 0.1683664, -288511.3, -138924.47, 0.000000026095549, 9.99935, 9.999234 
3.8497326e+2, 2.947371e+2, -202676.72, -224570.17, -6979.3706, 0.07029111, 0.21773833, -200641.06, -149054.44, 0.00000066980994, 9.999331, 9.999085 
3.849706e+2, 3.04735e+2, -132651.73, -118845.164, 83248.875, 0.040768165, 0.09906888, -42213.836, -42213.836, 0.000005131084, 9.999305, 9.999496 
3.8496882e+2, 3.1473476e+2, -96542.22, 17725.75, -66129.69, 0.07323576, 0.072472684, 47984.145, 47984.145, 0.000023471404, 9.998972, 10.000595 
3.9502615e+2, 1.2474421e+2, -1665329.1, -1701830.4, 33358.836, -0.061661735, 0.10239765, -1645554.9, 71968.805, 0.0001272644, 10.000324, 9.999905 
3.950238e+2, 1.3474426e+2, -1472507.1, -1610422.3, 84660.555, -0.017945364, 0.12694734, -1432274.1, 187246.48, 0.00006380605, 10.001243, 9.999429 
3.9502332e+2, 1.447437e+2, -1390907.0, -1483460.4, -13279.894, 0.27460474, 0.11563537, -1389039.3, 132485.83, 0.000023677207, 10.000937, 9.99976 
3.9501473e+2, 1.547439e+2, -1506407.0, -1499581.6, -8449.862, -0.13641742, 0.122260444, -1493881.4, -70357.89, 0.000005569423, 9.999535, 9.999653 
3.9501092e+2, 1.6474341e+2, -1474016.6, -1475585.6, 54449.164, -0.18895735, 0.13404107, -1420346.3, -94817.11, 0.00000035120044, 9.999259, 9.999288 
3.950112e+2, 1.7474231e+2, -1216934.4, -1301052.5, 58830.73, 0.04008052, 0.06147988, -1186674.5, 40867.39, 0.0, 10.000357, 9.99928 
3.950085e+2, 1.8474247e+2, -1000129.94, -985955.0, -41086.3, 0.09302598, 0.08472214, -951349.4, 178188.52, 0.0, 10.000473, 10.000712 
3.95003e+2, 1.9474366e+2, -1041552.6, -953510.4, -4973.324, -0.0073811426, 0.09737041, -953230.3, 78288.164, 0.0, 9.99951, 10.000728 
3.9499906e+2, 2.0474361e+2, -1118414.6, -1179386.4, 55833.64, -0.047543876, 0.12867166, -1085286.1, -151768.52, 0.0, 9.999352, 9.998581 
3.949967e+2, 2.1474192e+2, -921873.25, -1043292.6, 24985.84, -0.052792244, 0.07347063, -916932.6, -81393.47, 0.0, 10.000063, 9.998503 
3.9499423e+2, 2.2474119e+2, -710996.1, -728209.6, -36208.902, -0.015850147, 0.087870695, -682385.1, 55162.293, 0.0, 10.000141, 9.9999485 
3.949916e+2, 2.3474127e+2, -717411.2, -677077.5, 13334.002, 0.059033718, 0.06308197, -673067.94, -33524.1, 0.0, 9.999414, 9.999974 
3.9498854e+2, 2.4474117e+2, -674878.3, -605442.94, 35098.195, 0.07357278, 0.060218483, -590792.6, -49250.8, 0.0, 9.999038, 9.999971 
3.9498493e+2, 2.547405e+2, -588185.5, -522382.5, 59603.867, 0.018521246, -0.035589315, -487202.22, -43657.56, 0.0, 9.998974, 9.999909 
3.9498165e+2, 2.6474044e+2, -531329.06, -522877.53, 58716.88, -0.017086606, 0.010353407, -468234.53, -122689.21, 0.0, 9.999061, 9.9991865 
3.9497882e+2, 2.7474087e+2, -420847.2, -424002.0, 56183.254, -0.037317663, 0.102999076, -366219.22, -118673.76, 0.0, 9.99916, 9.999147 
3.949753e+2, 2.8474072e+2, -316373.63, -334533.3, -12275.447, -0.06748692, 0.18380529, -310184.88, -160634.67, 0.000000010243951, 9.999269, 9.999029 
3.949709e+2, 2.9473963e+2, -233700.33, -252157.03, 12527.4, -0.13733979, 0.1334635, -227369.17, -175806.39, 0.0000005130985, 9.999186, 9.998964 
3.9496884e+2, 3.0473784e+2, -91212.16, -29443.705, 62886.582, -0.10004802, 0.013368176, 9733.167, 9733.167, 0.0000059963604, 9.999285, 10.000122 
3.9496636e+2, 3.1473958e+2, -95510.195, 48145.56, -15795.016, -0.1379615, 0.13348441, 49861.723, 49861.723, 0.000027747768, 9.998857, 10.000858 
4.0502813e+2, 1.24749266e+2, -1368221.4, -1588521.5, 118149.45, 0.020338953, 0.12696868, -1316840.3, 400634.1, 0.0001282802, 10.00246, 9.999663 
4.050243e+2, 1.3474914e+2, -1624255.9, -1698163.0, 49955.246, -0.026406027, 0.1420087, -1599071.8, 20401.072, 0.00006493345, 10.000251, 9.999308 
4.050239e+2, 1.4474818e+2, -1595586.4, -1610781.1, 23978.516, 0.3166584, 0.10985306, -1578030.5, -56549.02, 0.00002457309, 9.999646, 9.999513 
4.0501502e+2, 1.5474826e+2, -1335686.8, -1447167.1, -7776.2334, -0.116694756, 0.12855732, -1335146.9, 88335.195, 0.000005781208, 10.0008135, 9.999406 
4.050112e+2, 1.6474773e+2, -1227314.9, -1332699.9, 113969.11, -0.15798888, 0.13796811, -1154446.8, 171041.03, 0.0000003430959, 10.000852, 9.999495 
4.0501156e+2, 1.7474662e+2, -1297859.3, -1318208.4, 127174.79, 0.085906185, 0.04140622, -1180452.6, 47045.6, 0.0, 9.999696, 9.999478 
4.0500897e+2, 1.8474677e+2, -1173583.3, -1126258.8, 32352.553, 0.14910161, 0.079811044, -1109838.8, 19655.617, 0.0, 9.999544, 10.000192 
4.0500355e+2, 1.9474795e+2, -944642.5, -968543.5, -51969.1, 0.06045361, 0.14705808, -903267.56, 128210.72, 0.0, 10.000449, 10.000174 
4.049993e+2, 2.0474757e+2, -942630.3, -1095597.1, 29644.752, -0.00907618, 0.17590855, -937086.2, -3605.0237, 0.0, 10.000565, 9.998565 
4.049963e+2, 2.1474521e+2, -958776.44, -1063526.3, 64940.098, -0.07755439, 0.052641127, -927722.7, -92215.47, 0.0, 9.999818, 9.998477 
4.0499377e+2, 2.2474435e+2, -814956.1, -772370.0, 35055.473, -0.029791191, 0.050877377, -752647.44, -15131.563, 0.0, 9.999406, 10.000001 
4.049918e+2, 2.3474486e+2, -725141.44, -681835.44, -14194.45, 0.14746164, 0.06613865, -677597.6, -38089.418, 0.0, 9.999352, 9.99998 
4.0498862e+2, 2.4474496e+2, -625862.94, -580976.44, 4826.705, 0.17072661, 0.08309297, -580463.3, -38959.027, 0.0, 9.999365, 9.999984 
4.0498418e+2, 2.5474444e+2, -509961.13, -472916.75, -16987.178, 0.02600033, -0.0043750596, -466306.56, -22800.703, 0.0, 9.999486, 9.999992 
4.0498078e+2, 2.6474416e+2, -467484.38, -500969.44, 11976.626, -0.026315548, 0.018743025, -463641.66, -118133.53, 0.0, 9.999525, 9.999107 
4.049786e+2, 2.7474388e+2, -392418.66, -423080.9, 10461.839, 0.025753437, 0.04656707, -389189.25, -141674.86, 0.0, 9.9993925, 9.99904 
4.0497512e+2, 2.8474355e+2, -329587.06, -342108.88, -6699.124, 0.0038417892, 0.116088405, -326678.6, -177157.73, 0.0000000008315615, 9.999167, 9.999028 
4.049704e+2, 2.9474288e+2, -271962.16, -260204.88, 1827.81, -0.077821404, 0.10284854, -259927.28, -208396.9, 0.0000007104038, 9.998867, 9.999058 
4.0496838e+2, 3.0474147e+2, -206837.86, -63233.76, 63603.465, -0.015898814, 0.0037886132, -39114.31, -39114.31, 0.000009515816, 9.998392, 10.000323 
4.0496433e+2, 3.147433e+2, -272328.4, -18710.855, -47548.4, -0.14456694, 0.11568632, -10089.517, -10089.517, 0.000039448827, 9.997519, 10.001057 
4.1503108e+2, 1.2475488e+2, -1366441.5, -1597798.5, 78512.18, -0.01557442, 0.21599412, -1342314.1, 375108.2, 0.00012596608, 10.002496, 9.999581 
4.1502312e+2, 1.3475533e+2, -1604706.4, -1680995.8, -24097.492, -0.20812818, 0.27203235, -1597732.3, 21682.418, 0.00006410072, 10.00032, 9.999397 
4.150225e+2, 1.4475407e+2, -1614703.8, -1638016.4, 49561.66, 0.16583234, 0.21338235, -1575446.1, -54019.695, 0.00002430965, 9.999611, 9.999338 
4.150169e+2, 1.547533e+2, -1357868.9, -1474232.4, 53847.79, -0.048135716, 0.16680616, -1336774.6, 86662.18, 0.0000053776803, 10.000749, 9.999247 
4.1501334e+2, 1.6475314e+2, -1193660.8, -1241316.6, 57970.836, -0.06351358, 0.19095737, -1154811.8, 170624.81, 0.0000002359893, 10.000756, 10.000167 
4.1501078e+2, 1.7475389e+2, -1258611.8, -1219345.3, 99487.08, -0.0023859541, 0.20920447, -1137572.8, 89850.336, 0.0, 9.999623, 10.000191 
4.1500765e+2, 1.8475331e+2, -1309179.8, -1384636.6, 49403.137, 0.028880015, 0.22091717, -1284746.3, -155319.47, 0.0, 9.999447, 9.998462 
4.1500443e+2, 1.9475088e+2, -1087912.8, -1236856.4, -4496.6475, 0.073167905, 0.10183402, -1087777.1, -56323.79, 0.0, 10.000334, 9.99838 
4.1500074e+2, 2.0474958e+2, -880018.5, -938564.5, -10864.259, 0.04699918, 0.077921145, -878067.44, 55398.12, 0.0, 10.000434, 9.999714 
4.149964e+2, 2.1474937e+2, -898442.94, -891317.25, 49420.836, -0.07674609, 0.04496365, -845331.0, -9866.891, 0.0, 9.999615, 9.999757 
4.1499302e+2, 2.2474913e+2, -903689.2, -913861.9, 18642.518, -0.07287428, 0.08250843, -889451.6, -151986.28, 0.0, 9.999223, 9.999119 
4.1499057e+2, 2.3474856e+2, -813231.2, -827789.3, -1137.3633, 0.062187947, 0.08127229, -813142.9, -173670.33, 0.0, 9.999196, 9.999053 
4.1498744e+2, 2.4474825e+2, -656386.75, -620060.25, -2367.7993, 0.08790966, 0.115498036, -619906.56, -78431.64, 0.0, 9.999257, 9.999765 
4.149837e+2, 2.5474796e+2, -541468.56, -510930.72, 3897.613, -0.0020241183, 0.07450332, -510441.1, -66966.82, 0.0, 9.999363, 9.99979 
4.1498074e+2, 2.6474723e+2, -457747.6, -457629.75, -4579.5835, -0.014033456, 0.041519642, -453108.7, -107628.79, 0.0, 9.999437, 9.999442 
4.149785e+2, 2.7474567e+2, -386557.13, -379988.0, 20478.297, 0.037877645, -0.092129365, -362532.53, -115037.414, 0.0, 9.999276, 9.999384 
4.149752e+2, 2.8474557e+2, -312083.7, -311522.78, -34523.344, 0.057267673, -0.026861211, -277278.75, -127780.695, 0.00000000001177225, 9.999173, 9.999245 
4.149711e+2, 2.9474688e+2, -270014.88, -235172.0, 5200.5464, 0.05949216, 0.13738115, -234412.34, -182923.19, 0.0000013022876, 9.998765, 9.999286 
4.1496867e+2, 3.0474597e+2, -216535.05, -72582.805, 22252.041, 0.13954611, 0.0752065, -69221.58, -69221.58, 0.000014575742, 9.998358, 10.000267 
4.1496187e+2, 3.1474662e+2, -273564.3, 17561.074, 28480.537, -0.21549222, 0.07209401, 20321.133, 20321.133, 0.000055427667, 9.9973755, 10.001362 
4.2503333e+2, 1.2475954e+2, -1620789.0, -1723982.5, 128577.93, 0.062290363, 0.24251524, -1533841.5, 183536.36, 0.00012015749, 10.000754, 9.9995575 
4.2502373e+2, 1.3475983e+2, -1547985.5, -1644379.8, -107501.08, -0.18408853, 0.27279, -1478371.6, 140999.39, 0.00006079175, 10.000667, 9.999477 
4.2502227e+2, 1.4475861e+2, -1488787.6, -1610509.1, 55728.207, 0.14316641, 0.2270763, -1467127.6, 54255.35, 0.00002257458, 10.000621, 9.999037 
4.250181e+2, 1.5475774e+2, -1435352.1, -1543007.9, 7297.8003, 0.03143917, 0.20052004, -1434859.6, -11463.908, 0.0000044461326, 10.000361, 9.998955 
4.2501476e+2, 1.6475749e+2, -1252600.0, -1274407.9, -18082.229, 0.03350786, 0.23393701, -1242388.5, 83008.05, 0.00000009724189, 10.000388, 10.000112 
4.250112e+2, 1.7475793e+2, -1100855.3, -1146413.4, -61913.816, 0.03303678, 0.22770204, -1057663.0, 169721.2, 0.0, 10.0007305, 10.000156 
4.2500764e+2, 1.8475707e+2, -1153319.9, -1318505.9, -35076.438, 0.034865703, 0.21511027, -1146180.1, -16790.129, 0.0, 10.00054, 9.998398 
4.2500442e+2, 1.9475435e+2, -1181003.3, -1291536.1, 14556.929, 0.082324795, 0.0749079, -1179118.3, -147698.63, 0.0, 9.999716, 9.99831 
4.2500094e+2, 2.0475323e+2, -1002703.5, -977263.0, 58524.402, 0.079920314, 0.060450073, -930092.44, 3337.751, 0.0, 9.999514, 9.999887 
4.2499688e+2, 2.147536e+2, -839159.6, -847638.5, 9675.704, 0.0025613478, 0.07201936, -832835.3, 2587.1777, 0.0, 9.999955, 9.999897 
4.2499325e+2, 2.2475334e+2, -792797.3, -880147.56, -8770.008, -0.0027723163, 0.10930691, -791925.5, -54501.953, 0.0, 10.000076, 9.998932 
4.2499e+2, 2.3475222e+2, -735291.7, -807722.8, -6002.667, 0.06187117, 0.073298536, -734797.56, -95361.76, 0.0, 9.99982, 9.998883 
4.2498666e+2, 2.4475159e+2, -642428.3, -653046.1, 44615.71, 0.07549608, 0.101257145, -602806.75, -61364.555, 0.0, 9.99952, 9.999417 
4.2498338e+2, 2.5475115e+2, -589856.25, -578199.5, 10430.636, 0.04599434, 0.07934212, -572079.3, -128633.99, 0.0, 9.999207, 9.999413 
4.249804e+2, 2.6475033e+2, -513927.1, -457155.75, 17068.65, 0.043052554, 0.051618442, -452419.16, -106967.44, 0.0, 9.998929, 9.999703 
4.2497766e+2, 2.7474892e+2, -456772.1, -381293.3, 9799.817, 0.0673846, -0.09222046, -380041.7, -132577.47, 0.0, 9.998656, 9.999681 
4.2497414e+2, 2.8474918e+2, -363310.5, -290421.4, -5170.2993, 0.068282284, -0.026714308, -290056.5, -140594.13, 0.0000000012455732, 9.998658, 9.9996195 
4.2497018e+2, 2.94751e+2, -216569.05, -170052.2, 9660.609, 0.0929138, 0.1485793, -168125.69, -116678.17, 0.0000019825331, 9.998968, 9.999634 
4.2496744e+2, 3.0474997e+2, -168442.1, -82941.836, 32029.93, 0.17071712, 0.07452016, -72273.89, -72273.89, 0.000019679212, 9.998841, 9.999964 
4.2496073e+2, 3.1475064e+2, -173559.06, 15404.605, 14112.857, -0.09621519, 0.105386734, 16452.816, 16452.816, 0.00007104561, 9.998268, 10.000924 
4.3503428e+2, 1.2476326e+2, -1622895.0, -1710397.1, 155725.34, 0.004827893, 0.20262247, -1504891.5, 212449.27, 0.00011272219, 10.000706, 9.999668 
4.350258e+2, 1.3476275e+2, -1541333.6, -1628049.8, -93683.125, -0.086146146, 0.1436679, -1481461.6, 137879.36, 0.00005585788, 10.000671, 9.999585 
4.350228e+2, 1.447617e+2, -1530181.3, -1688729.6, 34400.773, 0.0871333, 0.13767837, -1523039.0, -1687.097, 0.000019900395, 10.000578, 9.998526 
4.3501812e+2, 1.547616e+2, -1466867.3, -1614007.4, 13136.543, -0.042274367, 0.23624828, -1465703.6, -42344.33, 0.0000034951138, 10.000374, 9.998466 
4.35015e+2, 1.647607e+2, -1316957.5, -1387616.1, -21301.51, -0.017586416, 0.2633194, -1311032.5, 14336.111, 0.000000032016867, 10.000308, 9.99937 
4.3501246e+2, 1.7475876e+2, -1165705.9, -1261000.5, -34188.098, 0.048729446, 0.09361183, -1154709.4, 72672.375, 0.0, 10.00065, 9.999406 
4.350084e+2, 1.8475807e+2, -1060004.1, -1094729.4, -79060.86, 0.028706064, 0.06115035, -996421.8, 132961.92, 0.0, 10.000412, 9.999996 
4.3500316e+2, 1.9475853e+2, -1082992.4, -1055999.4, -889.16547, -0.04745332, 0.07236724, -1055970.1, -24594.182, 0.0, 9.999583, 9.99999 
4.3499953e+2, 2.0475857e+2, -1086685.6, -1114824.1, 59016.73, -0.04512697, 0.13015336, -1040084.4, -106709.945, 0.0, 9.999354, 9.999019 
4.3499732e+2, 2.1475786e+2, -929992.9, -998344.44, 40294.53, 0.019298242, 0.12519982, -911332.75, -75949.96, 0.0, 9.999793, 9.9989395 
4.3499407e+2, 2.2475708e+2, -783268.5, -823057.0, -31341.832, 0.042322576, 0.13649288, -766040.06, -28650.387, 0.0, 9.999915, 9.999401 
4.3498963e+2, 2.347559e+2, -722596.4, -743240.5, -700.87225, 0.012669141, 0.043992516, -722572.6, -83174.875, 0.0, 9.999653, 9.999406 
4.349858e+2, 2.4475497e+2, -700658.6, -743498.5, 18781.58, 0.008460812, 0.04356477, -693590.6, -152184.42, 0.0, 9.999397, 9.99885 
4.349827e+2, 2.54754e+2, -652240.0, -673994.6, 13358.602, 0.02584333, 0.024892922, -645890.4, -202472.38, 0.0, 9.99907, 9.998815 
4.3497935e+2, 2.647537e+2, -506135.44, -429801.44, -5198.0186, 0.012619304, 0.06479852, -429449.1, -84027.07, 0.0, 9.998875, 9.99992 
4.3497553e+2, 2.747538e+2, -451202.97, -349709.13, 16811.62, -0.04657098, 0.04762915, -346996.9, -99576.49, 0.0, 9.998562, 9.999947 
4.3497133e+2, 2.8475446e+2, -339815.75, -226099.19, -5346.4746, -0.1116626, 0.114096396, -225848.38, -76435.016, 0.000000012355592, 9.998603, 10.000083 
4.349673e+2, 2.947553e+2, -202688.31, -116934.79, 37304.16, -0.13352516, 0.14979094, -102978.31, -51574.645, 0.0000027662056, 9.998875, 10.00004 
4.3496427e+2, 3.0475357e+2, -213514.75, -178068.27, -1156.2507, -0.06177887, 0.014849529, -178030.6, -178030.6, 0.000024180765, 9.998838, 9.999314 
4.349598e+2, 3.1475514e+2, -285068.84, -188456.23, 80777.82, -0.09033654, 0.2043644, -142642.64, -142642.64, 0.00008333817, 9.998156, 9.9995775 
4.4503507e+2, 1.2476726e+2, -1691095.5, -1740215.8, 249189.52, 0.055484217, 0.19476132, -1465258.8, 252042.0, 0.00010688196, 10.0002775, 9.999653 
4.4502774e+2, 1.3476644e+2, -1474027.5, -1591645.0, -110225.65, 0.03314413, 0.1042637, -1407903.6, 211401.75, 0.000051033883, 10.001145, 9.999608 
4.4502303e+2, 1.4476566e+2, -1389852.5, -1602490.4, 53906.93, 0.022372792, 0.11687538, -1376967.0, 144346.8, 0.000017295639, 10.001455, 9.9986925 
4.4501904e+2, 1.547661e+2, -1370164.8, -1547364.8, 42543.78, -0.008045338, 0.24933493, -1360479.8, 62834.875, 0.0000027656245, 10.000944, 9.998648 
4.4501597e+2, 1.6476524e+2, -1310173.4, -1394055.4, 103695.54, 0.05576816, 0.274128, -1240258.1, 85064.98, 0.000000035556127, 10.000366, 9.999314 
4.450128e+2, 1.747628e+2, -1303374.0, -1336738.1, 115836.29, 0.07805887, 0.059673563, -1203024.8, 24316.85, 0.0, 9.999724, 9.999344 
4.4500858e+2, 1.847621e+2, -1149903.0, -1113444.8, 78197.39, 0.049953405, 0.020188188, -1051379.9, 77963.55, 0.0, 9.999713, 10.000191 
4.4500366e+2, 1.94763e+2, -963559.5, -976752.5, 12898.34, 0.014277118, 0.056116372, -955668.7, 75661.664, 0.0, 10.000324, 10.000168 
4.4499984e+2, 2.0476301e+2, -956775.75, -1078098.6, 67585.06, 0.009278297, 0.11607229, -926621.1, 6707.7954, 0.0, 10.000382, 9.998765 
4.4499707e+2, 2.147618e+2, -944524.4, -1031730.4, 69598.484, 0.023985038, 0.08806848, -905998.4, -70655.32, 0.0, 9.999819, 9.99869 
4.4499385e+2, 2.2476083e+2, -805091.2, -829784.06, 41491.62, 0.046993416, 0.09352414, -774148.0, -36796.14, 0.0, 9.999751, 9.999431 
4.449902e+2, 2.3475987e+2, -640283.0, -702904.75, 7265.688, 0.08498745, 0.01903635, -639451.06, -93.16564, 0.0, 10.000215, 9.999411 
4.4498625e+2, 2.4475902e+2, -587079.4, -702654.2, 31592.424, 0.08431366, 0.03011961, -579007.3, -37641.047, 0.0, 10.000232, 9.998731 
4.4498217e+2, 2.5475803e+2, -566851.5, -644861.6, 33382.563, 0.043455727, 0.02182931, -554516.6, -111137.06, 0.0, 9.999708, 9.998707 
4.449783e+2, 2.6475793e+2, -453384.47, -410692.0, 55002.086, 0.010374852, 0.08862233, -373039.16, -27656.488, 0.0, 9.999273, 9.99985 
4.4497445e+2, 2.747585e+2, -389972.56, -330083.47, 21645.543, -0.024917293, 0.12388627, -323079.3, -75701.99, 0.0, 9.99903, 9.999852 
4.449702e+2, 2.8475878e+2, -325362.66, -258933.13, -5335.3457, -0.08893748, 0.18263148, -258507.34, -109133.766, 0.00000003062236, 9.998859, 9.9997425 
4.449662e+2, 2.9475856e+2, -270802.5, -179511.47, -60827.832, -0.10804005, 0.1412842, -149107.4, -97732.78, 0.0000032986038, 9.9985485, 9.999763 
4.4496235e+2, 3.0475706e+2, -251258.97, -192432.53, -65430.02, -0.10990945, 0.041142277, -150108.55, -150108.55, 0.000027227657, 9.998559, 9.999341 
4.4495958e+2, 3.1475836e+2, -180078.13, -175859.25, 43689.293, 0.04328044, 0.19983032, -134228.5, -134228.5, 0.000091368296, 9.999047, 9.999222 
4.5503482e+2, 1.24771476e+2, -1709845.3, -1782363.6, 247074.88, -0.07954841, 0.2019232, -1496383.1, 220875.14, 0.000102696926, 10.000283, 9.999362 
4.5502892e+2, 1.3477086e+2, -1477944.4, -1614984.4, -61058.56, -0.0016919496, 0.14921322, -1454686.6, 164577.77, 0.000047349753, 10.001193, 9.999429 
4.5502254e+2, 1.4477031e+2, -1336012.3, -1478813.3, 26888.057, -0.21797471, 0.15341118, -1331117.4, 190152.86, 0.000015080613, 10.0014105, 9.99956 
4.5502043e+2, 1.5477115e+2, -1314298.3, -1421469.8, 40093.508, -0.004330943, 0.23815309, -1300959.3, 122303.59, 0.0000021144335, 10.00091, 9.999525 
4.5501727e+2, 1.6477112e+2, -1270135.3, -1296837.0, 61476.78, 0.11282921, 0.26725933, -1220576.3, 104683.9, 0.00000004449902, 10.000298, 10.000015 
4.5501196e+2, 1.7477006e+2, -1259230.3, -1240302.0, 107777.61, -0.01694174, 0.1212834, -1141573.8, 85689.99, 0.0, 9.999697, 10.00002 
4.5500776e+2, 1.8476911e+2, -1255167.8, -1307841.0, 85743.86, -0.036494024, 0.08317517, -1191807.0, -62537.363, 0.0, 9.999612, 9.998901 
4.5500538e+2, 1.9476782e+2, -1081582.5, -1183753.6, 48217.164, 0.120561816, 0.033247508, -1062421.1, -31138.793, 0.0, 10.000167, 9.9988165 
4.5500144e+2, 2.0476666e+2, -956932.56, -1040659.94, 32283.057, 0.10347074, 0.029560128, -945930.7, -12637.998, 0.0, 10.000216, 9.9991045 
4.549957e+2, 2.1476546e+2, -945297.44, -983758.3, 62992.535, -0.12546869, -0.036970124, -898665.4, -63362.977, 0.0, 9.999611, 9.999115 
4.5499223e+2, 2.247647e+2, -860400.75, -908850.75, 45028.344, -0.11743275, -0.011682061, -833494.56, -96185.13, 0.0, 9.999588, 9.998974 
4.5499122e+2, 2.3476413e+2, -692885.6, -779648.1, 40478.5, 0.13594899, -0.0026074275, -676933.56, -37617.168, 0.0, 10.000068, 9.998958 
4.5498767e+2, 2.4476373e+2, -581216.56, -656952.06, -5.2703185, 0.17131089, 0.06136201, -581216.56, -39894.277, 0.0, 10.000096, 9.999114 
4.5498142e+2, 2.547632e+2, -557422.4, -591808.2, 29917.117, -0.03317219, 0.062183492, -540109.8, -96779.69, 0.0, 9.999564, 9.9991455 
4.549769e+2, 2.6476294e+2, -501088.16, -486965.8, 34772.81, -0.08678738, 0.11430334, -458544.5, -113210.15, 0.0, 9.999181, 9.999365 
4.5497406e+2, 2.7476278e+2, -444760.34, -417715.72, 32270.746, -0.0037673325, 0.1252506, -396248.7, -148912.4, 0.0, 9.99892, 9.999296 
4.5497036e+2, 2.847622e+2, -408835.03, -425361.47, -29846.332, 0.0066720415, 0.17940205, -386129.16, -236786.08, 0.000000022691747, 9.998818, 9.998624 
4.5496628e+2, 2.9476064e+2, -350367.94, -337709.13, -56361.883, 0.002802583, 0.12031199, -287322.38, -235961.86, 0.0000033720132, 9.998496, 9.998712 
4.5496112e+2, 3.0476022e+2, -203441.25, -81723.875, -55365.34, -0.12373656, 0.14131866, -60308.02, -60308.02, 0.000028360193, 9.998525, 10.000107 
4.549593e+2, 3.1475994e+2, -151061.78, -93680.88, 101050.55, 0.034456316, 0.060671058, -17326.797, -17326.797, 0.00009465621, 9.998955, 9.999826 
4.650358e+2, 1.2477558e+2, -1688735.3, -1765531.8, 224919.78, 0.00070705765, 0.22567342, -1498959.5, 218259.78, 0.00009773488, 10.000358, 9.999441 
4.6503064e+2, 1.3477544e+2, -1555854.9, -1639545.4, -52745.766, 0.09481656, 0.20052962, -1530371.5, 88849.85, 0.000043477085, 10.000559, 9.9995775 
4.6502236e+2, 1.44775e+2, -1418759.0, -1471555.3, 43106.203, -0.330074, 0.18596748, -1394610.1, 126614.836, 0.000012657647, 10.000644, 9.999982 
4.6502134e+2, 1.5477559e+2, -1331988.8, -1380761.0, -17118.557, 0.024374317, 0.20310616, -1326580.1, 96636.484, 0.0000014631825, 10.000583, 9.999965 
4.6501836e+2, 1.6477571e+2, -1229080.4, -1294346.9, -6334.0034, 0.18540175, 0.23160592, -1228471.3, 96740.99, 0.000000030371112, 10.000674, 9.99984 
4.650125e+2, 1.7477514e+2, -1094340.1, -1180273.8, -59438.145, 0.012833004, 0.15174213, -1063965.0, 163249.3, 0.0, 10.000926, 9.999833 
4.6500808e+2, 1.8477418e+2, -1111210.9, -1288105.4, -49606.332, -0.012796159, 0.14300576, -1098249.6, 30972.879, 0.0, 10.000784, 9.99849 
4.6500582e+2, 1.9477244e+2, -1113261.8, -1247225.0, -42874.82, 0.16363873, 0.09071471, -1100714.8, -69473.945, 0.0, 10.000125, 9.998423 
4.6500185e+2, 2.0477106e+2, -974401.0, -1022154.2, 4536.2563, 0.14725213, 0.071121834, -973973.9, -40720.625, 0.0, 9.999966, 9.999356 
4.6499592e+2, 2.1476981e+2, -818273.5, -899425.75, -8204.825, -0.094178766, -0.024801346, -817452.3, 17809.453, 0.0, 10.00037, 9.999337 
4.6499223e+2, 2.2476918e+2, -774694.25, -869813.0, 9699.112, -0.10007024, 0.004973945, -773715.3, -36447.996, 0.0, 10.000203, 9.998931 
4.6499103e+2, 2.34769e+2, -787216.06, -830641.3, 5606.3223, 0.14870986, 0.059190754, -786503.94, -147231.7, 0.0, 9.999459, 9.998892 
4.6498728e+2, 2.4476887e+2, -716433.3, -692009.4, -1361.1149, 0.18757835, 0.13938917, -691933.75, -150658.11, 0.0, 9.999028, 9.999381 
4.6498096e+2, 2.5476855e+2, -631503.4, -598032.94, -10341.406, 0.0054124733, 0.13049448, -595095.56, -151815.5, 0.0, 9.998922, 9.999406 
4.6497628e+2, 2.6476806e+2, -541106.6, -523737.25, 36411.15, -0.046699926, 0.15444838, -494989.38, -149704.11, 0.0, 9.9989605, 9.999232 
4.6497327e+2, 2.7476722e+2, -436672.47, -429308.97, 37658.285, 0.029367909, 0.110408895, -395152.88, -147859.6, 0.0, 9.999032, 9.999174 
4.649698e+2, 2.847663e+2, -372707.53, -436661.84, 62050.984, 0.061407533, 0.15040289, -334878.78, -185575.27, 0.00000001636591, 9.999197, 9.998359 
4.6496642e+2, 2.9476488e+2, -205181.88, -284813.4, 55617.04, 0.12391266, 0.12826453, -176597.72, -125276.93, 0.0000038591365, 9.999579, 9.998542 
4.6496034e+2, 3.0476505e+2, -95890.1, -59000.188, 70994.34, -0.083474495, 0.22537349, -4093.8457, -4093.8457, 0.000029778155, 9.999348, 9.999902 
4.6495846e+2, 3.147633e+2, -246340.14, -105964.37, 82370.16, 0.11458029, 0.028190285, -67934.04, -67934.04, 0.00009717631, 9.998138, 10.000155 
4.7503704e+2, 1.2477951e+2, -1668970.9, -1684014.8, 91890.75, 0.008902735, 0.2725834, -1584294.6, 132889.83, 0.00009217974, 10.000221, 10.000051 
4.7503242e+2, 1.3478024e+2, -1514428.0, -1540893.4, -26764.574, 0.1764215, 0.26559398, -1497803.6, 121372.664, 0.00003847725, 10.000535, 10.000249 
4.750219e+2, 1.4477979e+2, -1421515.9, -1476444.5, 24222.814, -0.4865721, 0.21955642, -1412360.1, 108817.48, 0.000009911169, 10.00062, 9.9999695 
4.750213e+2, 1.5477942e+2, -1325707.1, -1377023.6, -4449.356, -0.07714755, 0.14020255, -1325324.3, 97851.945, 0.0000009593812, 10.0006075, 9.999986 
4.7501895e+2, 1.6477893e+2, -1313950.9, -1454486.5, -11366.301, 0.13940054, 0.15944174, -1313037.5, 12142.566, 0.000000014696447, 10.0006075, 9.998777 
4.7501397e+2, 1.7477794e+2, -1181939.9, -1346381.8, -33103.41, 0.03685028, 0.1526626, -1175526.0, 51667.76, 0.0, 10.000862, 9.998729 
4.7500905e+2, 1.8477733e+2, -1086096.6, -1213741.4, -86516.38, -0.0239403, 0.20974831, -1042409.06, 86792.6, 0.0, 10.000684, 9.999051 
4.7500467e+2, 1.9477691e+2, -1085854.3, -1168096.3, -51466.07, 0.0029643183, 0.22760674, -1061098.9, -29893.256, 0.0, 10.000025, 9.999018 
4.7500074e+2, 2.047762e+2, -988791.56, -1016331.4, 5532.6895, 0.009772768, 0.24035217, -987721.6, -54510.855, 0.0, 9.999817, 9.999464 
4.7499728e+2, 2.147749e+2, -837667.5, -895094.8, 22939.607, -0.023484446, 0.12874795, -829629.25, 5591.0303, 0.0, 10.000186, 9.99945 
4.7499338e+2, 2.2477432e+2, -772208.4, -836236.6, -31564.773, -0.035884235, 0.14165658, -759264.3, -22039.094, 0.0, 10.000065, 9.999236 
4.7498912e+2, 2.3477435e+2, -787900.8, -795729.4, -7455.7524, -0.018751087, 0.18620764, -783394.25, -144167.42, 0.0, 9.999296, 9.999214 
4.749847e+2, 2.4477431e+2, -725384.56, -683609.75, -18266.639, -0.003898787, 0.25159222, -676749.1, -135521.16, 0.0, 9.998904, 9.999501 
4.7498032e+2, 2.5477389e+2, -644496.94, -599102.4, 1958.2806, 0.012254605, 0.22081207, -599018.0, -155786.69, 0.0, 9.998796, 9.999464 
4.74976e+2, 2.647732e+2, -534096.2, -484057.6, 24745.549, -0.001587232, 0.20660867, -473887.3, -128650.62, 0.0, 9.99886, 9.999548 
4.749716e+2, 2.7477175e+2, -427322.5, -383306.0, 57149.51, -0.07393562, 0.07488354, -344073.5, -96825.32, 0.0, 9.998927, 9.999536 
4.7496814e+2, 2.8477103e+2, -341260.94, -368787.44, 60681.84, -0.06171276, 0.08691048, -292801.1, -143545.8, 0.0000000367379, 9.999176, 9.99884 
4.749661e+2, 2.947709e+2, -187110.97, -229806.81, 87104.03, 0.09060594, 0.14458409, -118776.98, -67518.46, 0.000004901276, 9.999483, 9.998976 
4.7495955e+2, 3.0477124e+2, -186734.94, -222391.4, 14110.797, -0.12208391, 0.29184592, -181826.4, -181826.4, 0.000032907166, 9.999258, 9.998814 
4.7495615e+2, 3.1476834e+2, -255219.17, -102777.68, 40082.523, -0.0067700753, 0.092512526, -92881.0, -92881.0, 0.00010232853, 9.998063, 10.000203 
4.8503715e+2, 1.2478365e+2, -1819449.3, -1717708.9, 59513.844, 0.075700626, 0.30249298, -1690286.9, 26859.508, 0.00008688649, 9.999018, 10.000415 
4.850344e+2, 1.347845e+2, -1503994.1, -1494237.5, -13840.09, 0.34290317, 0.27440125, -1484441.1, 134693.63, 0.000032757685, 10.000415, 10.0006485 
4.8502338e+2, 1.4478414e+2, -1395344.0, -1467094.6, 29253.617, -0.4015478, 0.21839607, -1384928.8, 136205.53, 0.000007215262, 10.000826, 9.999926 
4.8502213e+2, 1.5478323e+2, -1352882.9, -1401323.3, -44669.492, -0.037001792, 0.09279109, -1326289.9, 96848.516, 0.00000059770906, 10.000468, 9.999885 
4.850194e+2, 1.6478269e+2, -1391105.3, -1499942.8, 21689.969, 0.15684983, 0.11277028, -1386942.0, -61797.785, 0.0000000048834687, 10.000122, 9.9986925 
4.8501456e+2, 1.7478216e+2, -1341627.9, -1428370.6, 51211.91, 0.07219431, 0.15891413, -1317889.4, -90734.31, 0.0, 9.999807, 9.99866 
4.850096e+2, 1.8478192e+2, -1167816.6, -1198413.8, 61544.355, 0.010082241, 0.232773, -1119697.9, 9461.401, 0.0, 9.999913, 9.999508 
4.8500484e+2, 1.9478177e+2, -991452.56, -1063818.8, 60305.84, 0.0067336485, 0.22769658, -957307.75, 73850.93, 0.0, 10.000448, 9.999506 
4.8500088e+2, 2.0478131e+2, -921462.8, -1018483.25, 121000.375, 0.020358985, 0.25504923, -839610.7, 93550.89, 0.0, 10.000413, 9.999179 
4.8499787e+2, 2.1478023e+2, -946935.2, -978282.56, 85203.7, 0.058167685, 0.19644552, -875975.5, -40804.36, 0.0, 9.999559, 9.99919 
4.849938e+2, 2.2477962e+2, -865679.06, -861094.44, 40007.195, 0.04147531, 0.20980132, -823313.94, -86137.19, 0.0, 9.999334, 9.999423 
4.8498842e+2, 2.3477922e+2, -703566.6, -738646.4, 24373.99, -0.03126146, 0.19639756, -691077.56, -51896.68, 0.0, 9.999784, 9.99938 
4.84984e+2, 2.447789e+2, -572022.5, -614037.3, 33863.086, -0.011724332, 0.227677, -553179.94, -11996.2705, 0.0, 9.999979, 9.999462 
4.8498055e+2, 2.5477847e+2, -494717.8, -529221.1, 9024.837, 0.113590464, 0.20418194, -492499.8, -49313.223, 0.0, 9.999851, 9.9994335 
4.8497614e+2, 2.6477793e+2, -467799.97, -463018.94, 30607.783, 0.110558584, 0.20847471, -434708.44, -89517.39, 0.0, 9.999361, 9.99945 
4.8497057e+2, 2.7477664e+2, -497335.97, -429986.28, -1389.0743, -0.037080426, 0.103555836, -429957.63, -182755.44, 0.0, 9.998492, 9.999429 
4.8496684e+2, 2.8477588e+2, -435477.75, -371802.3, 46673.926, -0.056010474, 0.099357285, -347141.4, -197932.3, 0.00000008825205, 9.998338, 9.999224 
4.849654e+2, 2.9477578e+2, -242822.67, -216728.88, 29735.348, 0.11475159, 0.12187566, -197304.05, -146094.33, 0.0000056092463, 9.998924, 9.999334 
4.8495874e+2, 3.0477574e+2, -230292.8, -244236.25, -17229.05, -0.09922723, 0.21495482, -218678.36, -218678.36, 0.000035389916, 9.99896, 9.998798 
4.8495558e+2, 3.147741e+2, -192591.16, -30194.432, 8892.476, 0.13233, 0.14278798, -29708.951, -29708.951, 0.00010599746, 9.998301, 10.0005865 
4.9503472e+2, 1.2478788e+2, -1804202.0, -1697355.1, -94427.16, -0.15270065, 0.31521484, -1642286.4, 74819.766, 0.00007926606, 9.999064, 10.000531 
4.9503604e+2, 1.3478827e+2, -1488839.1, -1465272.1, 51201.734, 0.43500015, 0.22081076, -1424515.4, 194581.25, 0.000026309035, 10.000424, 10.000839 
4.9502632e+2, 1.447881e+2, -1420416.6, -1501674.8, 90.5688, -0.23638713, 0.18371122, -1420416.5, 100678.09, 0.0000047383246, 10.0007515, 9.999723 
4.9502328e+2, 1.5478714e+2, -1373580.3, -1435658.5, -42058.777, -0.0051008044, 0.07309239, -1352347.4, 70755.17, 0.0000002991547, 10.000437, 9.999661 
4.950192e+2, 1.6478707e+2, -1329889.5, -1363105.4, -5846.163, 0.091589265, 0.10698999, -1328890.6, -3787.397, 0.0000000005507737, 10.000074, 9.999658 
4.9501392e+2, 1.7478772e+2, -1279776.6, -1287435.5, 51685.055, -0.008360292, 0.1719401, -1231779.4, -4680.9146, 0.0, 9.999751, 9.999655 
4.9500942e+2, 1.8478781e+2, -1157036.5, -1151483.1, 67750.24, -0.033033043, 0.20905262, -1086452.8, 42643.8, 0.0, 9.99981, 9.999879 
4.950059e+2, 1.9478692e+2, -982096.8, -1020061.94, 93411.25, 0.034071002, 0.09514407, -905758.9, 125342.29, 0.0, 10.00034, 9.999859 
4.9500185e+2, 2.0478636e+2, -983443.2, -1113252.1, 74174.14, 0.051561564, 0.12082056, -949786.0, -16680.072, 0.0, 10.000258, 9.998607 
4.949973e+2, 2.1478589e+2, -1010763.2, -1080217.9, 68640.05, 0.0127797285, 0.18206404, -968565.56, -133452.2, 0.0, 9.999414, 9.998567 
4.9499282e+2, 2.2478504e+2, -893125.25, -877119.4, 44116.137, -0.011276214, 0.20641242, -840286.2, -103163.95, 0.0, 9.999167, 9.999388 
4.949886e+2, 2.3478355e+2, -729575.56, -751064.06, 59488.906, -0.025374873, 0.079539016, -679868.44, -40733.344, 0.0, 9.999608, 9.999377 
4.949847e+2, 2.447827e+2, -608505.94, -656081.1, 16277.693, 0.028402837, 0.06996391, -603469.7, -62327.414, 0.0, 9.999843, 9.999237 
4.949812e+2, 2.5478223e+2, -527155.9, -571040.44, 21189.146, 0.16036336, 0.066193625, -518595.0, -75448.15, 0.0, 9.99974, 9.999201 
4.9497628e+2, 2.64782e+2, -519966.2, -546822.0, -17458.404, 0.15635607, 0.14512384, -511369.0, -166218.58, 0.0, 9.999266, 9.998915 
4.949697e+2, 2.747818e+2, -560579.1, -522090.1, -17751.883, -0.006515985, 0.19594166, -515152.94, -267997.13, 0.0, 9.998336, 9.998866 
4.949655e+2, 2.8478104e+2, -423626.47, -328729.28, 56140.188, -0.06368138, 0.2079557, -302672.16, -153509.14, 0.00000018947561, 9.998262, 9.999554 
4.9496394e+2, 2.9477954e+2, -230086.14, -175195.1, 71586.15, 0.031584397, 0.059579924, -125973.59, -74799.42, 0.000005650319, 9.998865, 9.999643 
4.9495757e+2, 3.047786e+2, -152141.86, -86981.97, -48208.496, -0.14365989, -0.009460039, -61376.766, -61376.766, 0.00003451672, 9.99897, 9.999876 
4.9495566e+2, 3.1478047e+2, -150999.64, 73218.336, 10307.682, 0.23506968, 0.1554616, 73691.2, 73691.2, 0.00010176044, 9.99822, 10.001334 
5.0503516e+2, 1.2479332e+2, -1497085.1, -1555666.6, -51012.74, -0.10761945, 0.2786215, -1467552.0, 249498.08, 0.000066640154, 10.00122, 10.000451 
5.0503653e+2, 1.3479333e+2, -1495815.4, -1490145.4, 137630.66, 0.45642895, 0.16286798, -1355320.5, 263724.28, 0.0000195532, 10.0004635, 10.000649 
5.050283e+2, 1.4479344e+2, -1511535.5, -1568878.4, 109826.61, -0.07241035, 0.17746784, -1426699.5, 94342.2, 0.0000028130235, 10.00024, 9.999505 
5.050245e+2, 1.5479304e+2, -1302127.5, -1421731.1, 30686.469, 0.05066787, 0.14467092, -1294713.9, 128333.74, 0.00000011765629, 10.001032, 9.999465 
5.0501966e+2, 1.647931e+2, -1153995.5, -1251105.4, 46399.33, 0.08494029, 0.18995646, -1135390.4, 189657.1, 0.000000000026416515, 10.001152, 9.999911 
5.05014e+2, 1.747934e+2, -1152327.5, -1198566.0, 19729.682, -0.0063891294, 0.19355935, -1145053.4, 81989.98, 0.0, 10.000487, 9.999918 
5.050094e+2, 1.847933e+2, -1126644.5, -1137613.4, 46958.402, -0.013087047, 0.19656636, -1084851.4, 44190.793, 0.0, 10.00001, 9.999888 
5.050064e+2, 1.9479242e+2, -1074305.1, -1064122.3, 21279.32, 0.08466308, 0.08859299, -1047333.8, -16287.027, 0.0, 9.999701, 9.999872 
5.050024e+2, 2.0479183e+2, -1019970.7, -1108372.9, 34443.99, 0.103542626, 0.10114438, -1008135.0, -75083.484, 0.0, 9.999937, 9.998775 
5.0499755e+2, 2.1479124e+2, -819216.1, -967642.2, 50428.684, 0.04345246, 0.1339992, -803703.9, 31355.096, 0.0, 10.00067, 9.998717 
5.0499284e+2, 2.2479036e+2, -703995.7, -805291.94, 69901.92, 0.015089782, 0.15712227, -668321.7, 68746.16, 0.0, 10.000542, 9.999225 
5.049885e+2, 2.34789e+2, -780707.1, -787513.6, 40934.363, 0.027094025, 0.060959216, -743034.75, -103954.97, 0.0, 9.999332, 9.99925 
5.049844e+2, 2.4478821e+2, -745531.6, -724223.44, 51048.055, 0.07378918, 0.06262547, -682729.5, -141642.5, 0.0, 9.998901, 9.999226 
5.049808e+2, 2.5478765e+2, -584700.5, -597252.6, 46618.37, 0.17467362, 0.0496363, -543937.6, -100844.93, 0.0, 9.999337, 9.999213 
5.049759e+2, 2.6478735e+2, -468742.25, -558077.2, 42594.633, 0.17635633, 0.13377368, -451688.7, -106590.78, 0.0, 9.999756, 9.998615 
5.0496954e+2, 2.7478707e+2, -331906.34, -447722.78, 23608.164, 0.06930289, 0.21010537, -327278.9, -80173.695, 0.00000000061010413, 10.000043, 9.998562 
5.049652e+2, 2.847864e+2, -229069.81, -208435.02, 132454.25, 0.032094054, 0.23340595, -85896.94, 63214.81, 0.00000027597625, 9.99949, 9.999791 
5.04963e+2, 2.9478508e+2, -334907.53, -201721.16, 104931.22, 0.09643131, 0.08123548, -144035.58, -92915.85, 0.0000049916057, 9.998047, 9.999863 
5.049564e+2, 3.0478385e+2, -227083.25, -113601.81, 19512.545, -0.11952398, -0.029368857, -110340.46, -110340.46, 0.000030276777, 9.998421, 9.999956 
5.0495523e+2, 3.1478575e+2, 127530.71, 165010.9, -82558.82, 0.2827247, 0.119612575, 230929.83, 230929.83, 0.000090633286, 10.0003195, 10.000952 
5.1503706e+2, 1.24800056e+2, -1518578.1, -1607514.4, -236668.78, -0.119879216, 0.20333949, -1322236.1, 394741.25, 0.000052165007, 10.001237, 10.00009 
5.1503545e+2, 1.347997e+2, -1532074.8, -1574361.6, 122649.14, 0.26452854, 0.1030009, -1428760.0, 190218.63, 0.000013925394, 10.000499, 10.000054 
5.15029e+2, 1.448002e+2, -1531636.6, -1608633.8, 117064.74, -0.07353365, 0.19975647, -1446902.5, 74072.78, 0.000001645238, 10.000225, 9.999245 
5.1502526e+2, 1.5480086e+2, -1326102.4, -1461178.5, 77285.805, -0.0071183313, 0.2997241, -1291002.9, 131971.7, 0.00000003629146, 10.000987, 9.99922 
5.150203e+2, 1.6480072e+2, -1200586.1, -1325012.4, 9955.429, 0.0015107807, 0.35793543, -1199794.6, 125183.12, 0.0, 10.001058, 9.999445 
5.150142e+2, 1.7479926e+2, -1197899.5, -1274619.6, 10531.078, -0.06989534, 0.23113516, -1196480.1, 30508.97, 0.0, 10.000418, 9.999423 
5.1500916e+2, 1.8479855e+2, -1162051.5, -1190457.5, 20796.123, -0.07320295, 0.21471965, -1151071.0, -22076.947, 0.0, 9.999916, 9.999568 
5.1500565e+2, 1.9479832e+2, -1106629.6, -1115828.6, 25711.334, 0.011413217, 0.19841261, -1085109.6, -54114.793, 0.0, 9.999624, 9.999554 
5.15002e+2, 2.0479761e+2, -992650.4, -1012851.56, 46899.09, 0.0437493, 0.17962477, -954776.56, -21777.426, 0.0, 9.99977, 9.999511 
5.1499826e+2, 2.147961e+2, -786286.5, -862498.0, 92111.7, 0.017445434, 0.0386861, -724709.7, 110300.13, 0.0, 10.000507, 9.999518 
5.1499355e+2, 2.2479543e+2, -742200.75, -855250.6, 9320.856, -0.00029651355, 0.05416899, -741437.44, -4422.346, 0.0, 10.000404, 9.998955 
5.149876e+2, 2.3479547e+2, -821506.8, -843284.8, 10531.286, -0.022662845, 0.13042586, -817247.25, -178230.81, 0.0, 9.999198, 9.9989395 
5.1498264e+2, 2.4479534e+2, -740341.7, -688050.94, 52389.594, -0.022785492, 0.20074232, -655645.06, -114626.31, 0.0, 9.9987955, 9.999521 
5.1497877e+2, 2.5479472e+2, -583343.9, -562836.1, 79887.59, 0.00023278614, 0.14785872, -492547.03, -49522.344, 0.0, 9.999194, 9.99952 
5.149745e+2, 2.647939e+2, -488695.53, -575703.2, 40038.457, 0.02692132, 0.17048962, -473075.25, -128041.43, 0.0, 9.9996605, 9.998541 
5.1496977e+2, 2.7479246e+2, -349821.66, -466305.6, 56392.51, 0.053659897, 0.14008878, -326994.25, -79943.23, 0.0000000018853024, 9.999956, 9.998483 
5.1496565e+2, 2.8479192e+2, -226500.44, -195158.4, 64240.01, 0.08906184, 0.17863198, -144705.61, 4349.83, 0.00000034894228, 9.99946, 9.999892 
5.1496184e+2, 2.9479238e+2, -344590.88, -200536.6, 72897.4, 0.13272312, 0.1858132, -170084.75, -119037.74, 0.000004315403, 9.9979515, 9.999915 
5.149545e+2, 3.0479148e+2, -298149.03, -245051.39, 84319.85, -0.18226871, 0.15113337, -183199.55, -183199.55, 0.000026122347, 9.99837, 9.999076 
5.149535e+2, 3.147894e+2, 1704.9109, -66533.02, 12000.323, -0.0038289304, 0.007827925, 3753.7703, 3753.7703, 0.000081293096, 10.000211, 9.999412 
5.250393e+2, 1.2480721e+2, -1705437.8, -1764346.9, -200406.94, 0.046476092, 0.10705078, -1532332.5, 184568.06, 0.000041919076, 10.00024, 9.999489 
5.250347e+2, 1.3480668e+2, -1472228.8, -1636165.1, 123834.29, 0.11350774, 0.07244345, -1405692.0, 213215.56, 0.000010470756, 10.001304, 9.999236 
5.250305e+2, 1.4480695e+2, -1413885.3, -1569090.1, 145729.83, 0.020761818, 0.1944429, -1326383.8, 194524.78, 0.0000009776196, 10.001106, 9.99909 
5.2502614e+2, 1.5480754e+2, -1473375.4, -1546451.8, 81563.1, 0.03573771, 0.29912943, -1420540.4, 2367.6035, 0.000000005050013, 10.0000305, 9.999092 
5.250209e+2, 1.6480713e+2, -1387232.5, -1435389.8, 70255.06, 0.01914764, 0.34745964, -1337044.4, -12130.942, 0.0, 9.999863, 9.99927 
5.2501494e+2, 1.7480525e+2, -1169366.8, -1281887.1, 59568.313, -0.03612725, 0.19653405, -1143690.4, 83238.78, 0.0, 10.000689, 9.999253 
5.2501e+2, 1.848044e+2, -1039937.25, -1165838.0, 90951.15, -0.021643072, 0.19336301, -992276.3, 136660.14, 0.0, 10.000911, 9.999263 
5.2500623e+2, 1.9480443e+2, -1024567.6, -1108183.9, 62027.824, 0.0767032, 0.23815472, -991573.56, 39363.285, 0.0, 10.000353, 9.999255 
5.2500236e+2, 2.0480374e+2, -944326.94, -973855.4, 119823.53, 0.09554956, 0.23212685, -838361.44, 94579.625, 0.0, 10.00002, 9.999662 
5.249985e+2, 2.1480201e+2, -865898.6, -886587.75, 93381.805, 0.02708843, 0.054587405, -782290.1, 52662.22, 0.0, 9.999883, 9.99966 
5.249936e+2, 2.2480127e+2, -823267.1, -889356.94, -7902.8467, 0.00028588087, 0.05322426, -822335.25, -85377.805, 0.0, 9.999853, 9.998969 
5.249876e+2, 2.3480126e+2, -707257.6, -790717.8, -16765.908, 0.017508153, 0.12604548, -704015.56, -65056.434, 0.0, 9.999997, 9.998912 
5.249823e+2, 2.4480113e+2, -584298.1, -634300.3, 66190.766, 0.010361354, 0.20637827, -538544.2, 2417.779, 0.0, 9.999954, 9.99934 
5.249779e+2, 2.5480068e+2, -526927.7, -555396.6, 27428.104, -0.016626013, 0.18960814, -510260.38, -67292.62, 0.0, 9.999673, 9.999342 
5.249736e+2, 2.6479986e+2, -483112.75, -534827.6, 19499.875, -0.009480874, 0.2024803, -476584.22, -131607.77, 0.0, 9.999538, 9.99887 
5.2496946e+2, 2.7479827e+2, -386219.3, -435286.34, 35621.055, 0.05835941, 0.12112191, -367500.63, -120508.7, 0.00000000009174081, 9.999531, 9.998877 
5.249656e+2, 2.8479767e+2, -267454.38, -287616.38, 33039.883, 0.14834298, 0.1589783, -242991.77, -93994.12, 0.00000033351301, 9.999492, 9.999239 
5.249616e+2, 2.94798e+2, -181823.27, -195488.72, -51443.81, 0.2548716, 0.2196043, -136760.4, -85766.17, 0.0000041082662, 9.999383, 9.999255 
5.2495414e+2, 3.0479732e+2, -170489.55, -184393.38, 55491.027, -0.082049906, 0.24644986, -121516.66, -121516.66, 0.000024723933, 9.999239, 9.999086 
5.249525e+2, 3.1479403e+2, -253014.73, -180316.94, -46658.01, -0.017906424, -0.018534862, -157520.16, -157520.16, 0.00007789345, 9.998414, 9.999507 
5.350407e+2, 1.2481465e+2, -1748706.4, -1864875.4, -203678.45, 0.06560256, -0.018266091, -1594992.1, 121828.58, 0.000035694404, 10.000295, 9.998771 
5.3503394e+2, 1.3481434e+2, -1553937.6, -1796927.1, 169096.34, -0.13033608, 0.0794046, -1467214.8, 151616.1, 0.000008273398, 10.001268, 9.9981575 
5.350323e+2, 1.4481379e+2, -1426572.3, -1579111.1, 89156.195, 0.043019783, 0.17818, -1385513.8, 135326.34, 0.00000061502607, 10.001036, 9.999049 
5.350265e+2, 1.5481319e+2, -1483176.9, -1558808.0, 56198.12, 0.034562487, 0.15863493, -1453255.9, -30409.021, 0.00000000036285042, 9.999996, 9.99902 
5.350209e+2, 1.6481239e+2, -1389233.6, -1427874.0, 82180.27, 0.002661267, 0.16898933, -1324133.0, 721.40515, 0.0, 9.99981, 9.99935 
5.35016e+2, 1.7481123e+2, -1169656.6, -1274068.6, 106132.12, -0.03702718, 0.08529563, -1103585.5, 123278.97, 0.0, 10.0006485, 9.9993305 
5.3501153e+2, 1.8481076e+2, -1077443.5, -1223231.8, 56920.035, 0.0048630354, 0.13176003, -1057852.9, 71016.9, 0.0, 10.000823, 9.998909 
5.350076e+2, 1.9481066e+2, -1068101.4, -1175949.9, 56319.223, 0.14402342, 0.19748694, -1044053.4, -13179.779, 0.0, 10.000248, 9.998843 
5.3500295e+2, 2.0481025e+2, -996843.8, -1039659.44, 100653.57, 0.12137493, 0.25756535, -915346.6, 17530.912, 0.0, 9.999843, 9.99929 
5.349977e+2, 2.1480927e+2, -918491.94, -954277.4, 101332.25, -0.06610333, 0.19305834, -833484.8, 1399.3605, 0.0, 9.999707, 9.999276 
5.3499264e+2, 2.2480807e+2, -833263.25, -876444.3, -16531.613, -0.10743752, 0.15824597, -827661.06, -90767.59, 0.0, 9.9997, 9.999135 
5.3498775e+2, 2.3480639e+2, -717528.8, -770650.2, 4572.982, 0.0067483666, 0.040238034, -717138.06, -78230.01, 0.0, 9.999817, 9.999135 
5.349829e+2, 2.4480551e+2, -651986.8, -744158.7, 42763.965, 0.047545794, 0.069792196, -635202.5, -94284.78, 0.0, 9.99983, 9.998643 
5.34978e+2, 2.548053e+2, -595089.0, -670508.5, 34194.535, -0.012235414, 0.14682317, -581894.0, -138969.58, 0.0, 9.99956, 9.998606 
5.3497297e+2, 2.6480505e+2, -438159.7, -423110.13, 3319.7961, -0.05788008, 0.21836987, -422410.34, -77483.37, 0.0, 9.99946, 9.999676 
5.34968e+2, 2.748044e+2, -343470.9, -324203.03, 52238.15, -0.07686838, 0.14866544, -280717.9, -33788.785, 0.0, 9.999423, 9.999701 
5.349646e+2, 2.848033e+2, -369267.3, -487110.53, 17541.63, 0.060736813, 0.16162226, -366711.6, -217770.84, 0.00000019037492, 9.999446, 9.997889 
5.3496206e+2, 2.9480162e+2, -295200.97, -411640.7, -29988.873, 0.31391737, 0.1660519, -287931.25, -236967.69, 0.0000040138116, 9.999298, 9.997815 
5.3495497e+2, 3.048012e+2, -113871.63, -66964.625, 20340.42, 0.039389532, 0.2504329, -59373.004, -59373.004, 0.000024880646, 9.999234, 9.999893 
5.349511e+2, 3.147994e+2, -136840.73, 53226.05, -59584.9, -0.07613471, 0.041991416, 70360.86, 70360.86, 0.00007745561, 9.998426, 10.001112 
5.4504186e+2, 1.2482099e+2, -1780722.4, -1881866.9, -249412.47, 0.18372339, -0.0018700634, -1576806.6, 139954.25, 0.00003031358, 10.000074, 9.998797 
5.450341e+2, 1.3482103e+2, -1553780.3, -1793664.9, 66705.25, -0.2173614, 0.13895781, -1536479.1, 82287.77, 0.000006366235, 10.001263, 9.998189 
5.4503447e+2, 1.4482003e+2, -1387261.5, -1547874.8, 9459.598, 0.15940537, 0.18570767, -1386706.3, 134072.92, 0.00000037085837, 10.00125, 9.999168 
5.4502654e+2, 1.5481879e+2, -1371479.8, -1487609.9, -46325.45, 0.019561637, 0.09109361, -1355264.3, 67525.21, 0.00000000007720086, 10.000683, 9.999183 
5.450205e+2, 1.6481802e+2, -1319893.6, -1372014.8, 66987.95, -0.02946859, 0.08663386, -1274075.5, 50720.125, 0.0, 10.000221, 9.999517 
5.4501694e+2, 1.7481767e+2, -1281034.3, -1305295.6, 62759.902, 0.04387759, 0.06648502, -1229243.5, -2444.9714, 0.0, 9.999822, 9.999501 
5.450129e+2, 1.848173e+2, -1211604.5, -1305735.1, 48340.883, 0.113780834, 0.1224658, -1191201.4, -62398.316, 0.0, 9.999959, 9.998771 
5.4500836e+2, 1.9481666e+2, -1008232.9, -1158885.9, 37425.91, 0.18937019, 0.14666651, -999447.6, 31364.453, 0.0, 10.000694, 9.998747 
5.4500324e+2, 2.0481613e+2, -900818.3, -1035502.9, 100679.805, 0.13779864, 0.21692865, -847035.0, 85783.23, 0.0, 10.000679, 9.998926 
5.4499763e+2, 2.148154e+2, -945672.75, -1002917.7, 74715.414, -0.035246164, 0.21551973, -894285.0, -59460.66, 0.0, 9.999687, 9.99895 
5.4499257e+2, 2.2481418e+2, -864883.8, -897427.56, 10399.177, -0.06369969, 0.19673444, -861844.6, -125009.83, 0.0, 9.999496, 9.999093 
5.449882e+2, 2.3481213e+2, -673550.0, -758774.0, -17120.682, 0.06548825, 0.047243424, -670239.2, -31386.066, 0.0, 10.000152, 9.999063 
5.4498345e+2, 2.44811e+2, -587986.1, -704517.25, 40298.113, 0.11002381, 0.052662127, -575408.06, -34543.79, 0.0, 10.00023, 9.998723 
5.4497814e+2, 2.548107e+2, -571393.5, -650914.25, 57343.887, 0.053618327, 0.112707645, -541374.1, -98504.12, 0.0, 9.999688, 9.998681 
5.4497284e+2, 2.6481044e+2, -436853.8, -446713.78, 74089.72, -0.014354779, 0.19208212, -367530.25, -22657.963, 0.0, 9.99958, 9.999451 
5.449677e+2, 2.7480987e+2, -275653.78, -314420.25, 10337.61, -0.06648819, 0.15079032, -273069.4, -26194.354, 0.0, 9.999992, 9.999493 
5.4496413e+2, 2.848086e+2, -298360.44, -460783.16, -4793.1323, 0.053094666, 0.15848428, -298219.1, -149329.56, 0.00000011177434, 9.999976, 9.997818 
5.449616e+2, 2.948065e+2, -269483.3, -399740.7, 20440.127, 0.3341556, 0.129873, -266351.13, -215434.61, 0.0000045059896, 9.999506, 9.997785 
5.4495496e+2, 3.048062e+2, -104879.266, -64347.695, 121338.46, 0.12500075, 0.22828805, 38405.727, 38405.727, 0.000026381855, 9.999304, 9.9998665 
5.449505e+2, 3.1480575e+2, -75240.875, 129418.38, -112033.25, 0.021948434, 0.14894296, 178821.42, 178821.42, 0.00007890932, 9.9986725, 10.0014925 
5.55042e+2, 1.248266e+2, -1714841.6, -1741401.4, -136331.83, 0.12638173, 0.20216073, -1591144.5, 125573.04, 0.000026661766, 10.000065, 9.99976 
5.5503505e+2, 1.3482682e+2, -1484292.8, -1647911.8, 114662.54, -0.29010716, 0.25996357, -1425246.6, 193468.92, 0.0000052899522, 10.001247, 9.999205 
5.550367e+2, 1.4482556e+2, -1371028.5, -1493138.3, -33493.26, 0.22292842, 0.2078881, -1362445.0, 158281.89, 0.00000021782215, 10.001174, 9.999575 
5.5502594e+2, 1.548244e+2, -1353089.4, -1437299.0, -48883.254, -0.14505723, 0.088713266, -1330677.6, 92058.06, 0.00000000000011946363, 10.000634, 9.999554 
5.5501914e+2, 1.6482413e+2, -1310105.9, -1344915.9, 36410.746, -0.21878442, 0.10488311, -1287154.0, 37582.37, 0.0, 10.000189, 9.999721 
5.550174e+2, 1.7482448e+2, -1277691.8, -1285671.8, 60955.527, 0.07283208, 0.13600571, -1220595.8, 6136.3076, 0.0, 9.9997635, 9.999668 
5.550138e+2, 1.8482402e+2, -1214840.0, -1286624.5, 60305.195, 0.18019743, 0.16529617, -1180554.1, -51817.68, 0.0, 9.999847, 9.998958 
5.550083e+2, 1.9482243e+2, -1011505.0, -1143647.8, 80883.484, 0.07995601, 0.08060215, -973137.06, 57615.668, 0.0, 10.000592, 9.998908 
5.550029e+2, 2.0482132e+2, -944224.6, -1087952.6, 50654.414, 0.00942562, 0.099508554, -928166.5, 4597.522, 0.0, 10.0005245, 9.998636 
5.5499774e+2, 2.1482038e+2, -993720.7, -1061398.3, 52830.953, -0.020849925, 0.1079652, -964820.5, -130047.52, 0.0, 9.999507, 9.998635 
5.54993e+2, 2.2481948e+2, -914494.75, -958258.3, 19932.617, -0.0010514453, 0.15440877, -906777.2, -169994.63, 0.0, 9.999316, 9.998764 
5.5498856e+2, 2.3481841e+2, -724817.56, -818108.4, 23527.701, 0.0587211, 0.13618588, -719219.8, -80424.875, 0.0, 9.999951, 9.998751 
5.549836e+2, 2.4481764e+2, -549349.56, -594354.3, 8636.957, 0.07275966, 0.15108295, -547748.94, -6947.432, 0.0, 10.0000925, 9.999554 
5.5497795e+2, 2.548169e+2, -529233.5, -532983.0, 55603.445, 0.03021621, 0.08400949, -475473.22, -32668.492, 0.0, 9.99955, 9.999562 
5.5497277e+2, 2.6481602e+2, -537669.1, -635977.4, 75037.48, -0.011539834, 0.113680474, -497119.6, -152306.55, 0.0, 9.999498, 9.998188 
5.549682e+2, 2.7481458e+2, -386251.25, -522069.6, 42043.156, -0.051241957, 0.11900455, -374290.0, -127458.72, 0.0, 9.999896, 9.998116 
5.5496395e+2, 2.8481334e+2, -216173.06, -279945.44, -38069.918, 0.007503695, 0.14550233, -198399.94, -49554.305, 0.00000024371042, 9.9999275, 9.999086 
5.549595e+2, 2.9481238e+2, -185261.84, -212607.05, 23970.223, 0.13406542, 0.09571962, -171338.94, -120483.36, 0.0000058589785, 9.999441, 9.999109 
5.549535e+2, 3.048122e+2, -172243.47, -185906.63, 92525.78, 0.01835789, 0.17633559, -86297.41, -86297.41, 0.000029984647, 9.999238, 9.999056 
5.5494976e+2, 3.1481278e+2, -159336.52, -20035.607, -117899.67, 0.0068918085, 0.28759602, 47250.125, 47250.125, 0.00008416486, 9.998557, 10.000525 
5.650432e+2, 1.2483164e+2, -1377925.1, -1576024.6, 108943.984, 0.13908498, 0.22450882, -1329734.8, 386934.47, 0.000022362967, 10.002361, 9.99977 
5.650352e+2, 1.3483188e+2, -1692012.0, -1720968.4, 93936.81, -0.30173895, 0.25853267, -1611444.3, 7222.0513, 0.000004259607, 9.999715, 9.999419 
5.6503713e+2, 1.448308e+2, -1738511.5, -1636383.0, -16871.889, 0.28950378, 0.19622658, -1633667.9, -112992.33, 0.00000013010742, 9.998475, 9.99991 
5.6502634e+2, 1.5483026e+2, -1547091.4, -1486754.4, -60602.633, -0.07722081, 0.10402828, -1449226.4, -26548.03, 0.0, 9.999104, 9.99996 
5.6501967e+2, 1.6483024e+2, -1372206.5, -1392485.0, 56585.605, -0.1610326, 0.12951522, -1324858.9, -181.92043, 0.0, 9.999824, 9.9995775 
5.65018e+2, 1.7483026e+2, -1140999.9, -1232542.0, 28794.436, 0.119132675, 0.14167981, -1132695.9, 93979.66, 0.0, 10.000745, 9.999557 
5.6501436e+2, 1.8482971e+2, -1049838.5, -1215137.0, 31256.893, 0.20152627, 0.1708336, -1044125.5, 84555.516, 0.0, 10.001026, 9.998866 
5.650085e+2, 1.9482832e+2, -1035402.1, -1159318.0, 6204.257, 0.0608062, 0.109673254, -1035092.25, -4396.1597, 0.0, 10.000463, 9.998845 
5.650031e+2, 2.048271e+2, -962394.6, -1068976.8, -1252.6104, 0.00013629385, 0.10746472, -962379.94, -29671.945, 0.0, 10.000287, 9.998876 
5.649983e+2, 2.1482584e+2, -835671.4, -954927.0, 13964.645, 0.04874881, 0.058536652, -834058.0, 660.6763, 0.0, 10.00047, 9.998897 
5.649935e+2, 2.2482513e+2, -757760.56, -877152.9, 66423.57, 0.074980296, 0.108900286, -728149.8, 8576.055, 0.0, 10.000377, 9.998807 
5.649887e+2, 2.3482475e+2, -723889.25, -811397.4, 68958.92, 0.07957942, 0.15557408, -685974.75, -47242.4, 0.0, 9.999937, 9.998799 
5.649835e+2, 2.4482413e+2, -572655.9, -613751.56, 61132.45, 0.058637533, 0.1878271, -528710.4, 12027.367, 0.0, 9.999993, 9.999448 
5.6497777e+2, 2.548229e+2, -375642.88, -472705.28, -115.500046, 0.014400681, 0.08713011, -375642.72, 67102.43, 0.0, 10.000678, 9.999421 
5.649728e+2, 2.648217e+2, -407388.5, -606995.56, 34247.53, 0.004629413, 0.1063377, -401675.97, -56918.78, 0.0, 10.000533, 9.9978895 
5.6496876e+2, 2.748202e+2, -466513.22, -589016.9, 50719.832, 0.041670848, 0.1336703, -448239.66, -201462.67, 0.0, 9.999474, 9.997852 
5.6496394e+2, 2.848191e+2, -299557.72, -279210.8, 27930.885, 0.0630214, 0.16108605, -259658.3, -110868.05, 0.00000046127252, 9.999151, 9.999474 
5.649582e+2, 2.9481837e+2, -130769.0, -145961.47, -6358.0894, 0.05751955, 0.09382975, -128459.266, -77663.305, 0.000007820285, 9.999621, 9.999488 
5.6495297e+2, 3.048182e+2, -94234.03, -179803.03, 69192.87, 0.0155309, 0.17394504, -55666.418, -55666.418, 0.00003595913, 9.999899, 9.998786 
5.649493e+2, 3.1481904e+2, -33512.563, 9327.628, -165117.31, 0.06837081, 0.33075154, 154408.44, 154408.44, 0.000094486146, 9.99955, 10.000251 
5.75045e+2, 1.2483579e+2, -1442380.4, -1695682.3, 110930.266, 0.0010183861, 0.034202337, -1400668.6, 315950.75, 0.000015098279, 10.002311, 9.998964 
5.750342e+2, 1.3483608e+2, -1741898.8, -1819808.1, -3228.5867, -0.4137624, 0.13421707, -1741765.1, -123144.6, 0.0000026568694, 9.999691, 9.998751 
5.750352e+2, 1.4483567e+2, -1714746.5, -1576084.1, -19472.037, 0.21070994, 0.15238906, -1573401.6, -52775.52, 0.000000050157187, 9.998433, 10.000342 
5.7502747e+2, 1.5483637e+2, -1524651.0, -1429551.0, -22184.15, 0.086271174, 0.14222266, -1424630.6, -2012.672, 0.0, 9.999061, 10.000377 
5.750215e+2, 1.6483627e+2, -1406875.9, -1447942.8, 72615.766, 0.00756888, 0.15813388, -1351946.3, -27328.49, 0.0, 9.999749, 9.99923 
5.750183e+2, 1.7483504e+2, -1176515.9, -1294216.4, 78058.93, 0.04062717, 0.07916836, -1137608.5, 89020.53, 0.0, 10.000688, 9.999163 
5.750141e+2, 1.848345e+2, -1084244.1, -1262659.0, -2153.8806, 0.042139243, 0.14328016, -1084218.1, 44417.875, 0.0, 10.000928, 9.998586 
5.750087e+2, 1.9483434e+2, -1074553.0, -1207960.8, -258.904, -0.010429335, 0.2366274, -1074552.5, -43910.348, 0.0, 10.000326, 9.998575 
5.750036e+2, 2.0483352e+2, -932462.4, -965079.6, -11150.08, -0.012455231, 0.24980228, -929015.1, 3634.4023, 0.0, 10.000104, 9.999678 
5.74999e+2, 2.148318e+2, -807719.56, -851720.9, 35254.938, 0.033751253, 0.07471428, -788163.75, 46496.71, 0.0, 10.000276, 9.9997 
5.749937e+2, 2.248311e+2, -748289.2, -820012.4, 35597.81, 0.031491287, 0.06090547, -733621.0, 3043.6326, 0.0, 10.000208, 9.999283 
5.749878e+2, 2.3483115e+2, -715478.2, -754448.1, 68810.97, -0.024761941, 0.1053681, -663446.6, -24781.707, 0.0, 9.999763, 9.999275 
5.749824e+2, 2.4483047e+2, -667505.9, -790586.2, 70872.04, -0.075881146, 0.1637154, -635184.25, -94511.22, 0.0, 9.999892, 9.998291 
5.749773e+2, 2.5482866e+2, -477133.56, -654685.4, 43381.57, -0.13473234, 0.12147819, -467100.94, -24408.434, 0.0, 10.000544, 9.998242 
5.7497275e+2, 2.6482752e+2, -362082.94, -501925.06, -19592.352, -0.0905977, 0.16804123, -359389.84, -14684.723, 0.0, 10.000474, 9.998647 
5.7496876e+2, 2.7482674e+2, -418164.44, -476250.06, 24057.535, 0.058119338, 0.18715452, -409494.53, -162781.0, 0.0, 9.9994, 9.998672 
5.7496357e+2, 2.8482574e+2, -336380.03, -338573.6, 29535.596, 0.075130135, 0.20553187, -307920.88, -159196.86, 0.0000006054728, 9.999082, 9.9991 
5.74957e+2, 2.948244e+2, -176563.69, -217551.31, 32791.23, -0.06268685, 0.11730766, -158388.89, -107650.6, 0.000009307056, 9.999526, 9.999042 
5.749529e+2, 3.0482435e+2, -81145.96, -140256.83, 50134.203, -0.014657132, 0.21751934, -52503.78, -52503.78, 0.000040671366, 9.999852, 9.9990835 
5.749484e+2, 3.1482404e+2, -23346.58, 51088.03, -122448.48, -0.054793585, 0.23296475, 141850.25, 141850.25, 0.000103750725, 9.999461, 10.0005865 
5.850465e+2, 1.2484059e+2, -1657786.8, -1784581.3, 88350.17, 0.01926965, 0.036158767, -1612441.4, 104131.18, 0.000008007214, 10.000734, 9.999132 
5.8503497e+2, 1.3484088e+2, -1695389.5, -1761887.9, -117203.94, -0.30050907, 0.108996466, -1606809.9, 11762.955, 0.0000012151539, 9.9998455, 9.999083 
5.8503413e+2, 1.4484078e+2, -1577734.6, -1522790.6, 15633.069, 0.21448763, 0.15026313, -1518654.0, 1921.2891, 0.000000012980553, 9.999468, 10.000181 
5.850278e+2, 1.5484163e+2, -1373452.0, -1370028.6, -68704.15, 0.17177536, 0.16670346, -1303014.8, 119552.125, 0.0, 10.000181, 10.0002165 
5.850224e+2, 1.6484144e+2, -1311192.6, -1408699.0, 37228.867, 0.096184395, 0.18317762, -1298603.6, 25964.805, 0.0, 10.000429, 9.999176 
5.8501875e+2, 1.7483999e+2, -1251601.8, -1332196.9, 39509.71, 0.048797894, 0.086243436, -1235464.4, -8882.073, 0.0, 10.000176, 9.999149 
5.8501434e+2, 1.8483946e+2, -1190148.0, -1293153.1, -2907.345, 0.020405674, 0.14350842, -1190066.0, -61477.04, 0.0, 10.000104, 9.998783 
5.850089e+2, 1.9483955e+2, -1086429.3, -1196550.3, 4241.571, 0.00023541151, 0.24457447, -1086266.1, -55673.934, 0.0, 10.000153, 9.998754 
5.8500385e+2, 2.0483907e+2, -947532.56, -952836.6, 21693.59, 0.020247292, 0.27092293, -928329.5, 4266.792, 0.0, 9.999911, 9.999852 
5.849992e+2, 2.1483773e+2, -927532.25, -893797.6, -8180.3906, 0.086928286, 0.11493057, -891918.6, -57314.97, 0.0, 9.999373, 9.99985 
5.8499384e+2, 2.2483702e+2, -867086.94, -873884.6, -10023.94, 0.075954035, 0.092371374, -859901.25, -123293.766, 0.0, 9.999387, 9.999311 
5.849877e+2, 2.3483668e+2, -683060.5, -740688.8, -43954.29, -0.021818025, 0.097864404, -659317.7, -20706.846, 0.0, 9.999988, 9.99927 
5.849822e+2, 2.4483591e+2, -643632.9, -790136.44, 15248.132, -0.085067995, 0.1531321, -642062.7, -101442.766, 0.0, 10.000107, 9.998181 
5.849776e+2, 2.5483438e+2, -586223.1, -715904.5, 37606.277, -0.11605101, 0.14799178, -576106.9, -133469.13, 0.0, 9.999842, 9.998147 
5.849733e+2, 2.6483336e+2, -422752.44, -475940.1, 19006.273, -0.046549074, 0.18789682, -416658.8, -72010.31, 0.0, 9.999837, 9.9991255 
5.849693e+2, 2.7483255e+2, -273655.66, -348638.66, 9510.623, 0.14337942, 0.1563445, -272468.16, -25813.664, 0.0, 10.000169, 9.9991665 
5.849635e+2, 2.8483176e+2, -206459.16, -281258.88, 51649.164, 0.12863998, 0.17075084, -180090.8, -31428.494, 0.00000055145284, 10.0, 9.999043 
5.84956e+2, 2.948307e+2, -240613.3, -256173.4, 45721.5, -0.08525913, 0.120100684, -202014.64, -151339.98, 0.000008783807, 9.999117, 9.998969 
5.8495265e+2, 3.048304e+2, -193899.53, -167938.05, 126726.84, 0.036105357, 0.18761367, -53528.867, -53528.867, 0.000039667964, 9.998962, 9.999315 
5.849482e+2, 3.148298e+2, 2964.0796, 114989.555, -78021.81, 0.0018846358, 0.14328516, 155022.8, 155022.8, 0.00010388018, 9.999429, 10.001027 
5.9504753e+2, 1.24846004e+2, -1558702.0, -1577248.0, 75433.69, -0.02853486, 0.23505293, -1491973.5, 224555.39, 0.0000033727015, 10.000746, 10.000542 
5.950371e+2, 1.3484631e+2, -1604685.9, -1569666.4, -145013.36, -0.10153861, 0.17765358, -1441109.5, 177413.3, 0.00000044999516, 9.999837, 10.000406 
5.9503335e+2, 1.4484614e+2, -1635194.4, -1632374.3, 19614.568, 0.14358157, 0.18074246, -1614119.1, -93595.734, 0.000000014541682, 9.999427, 9.999445 
5.9502697e+2, 1.5484604e+2, -1436530.0, -1491916.1, -27029.736, 0.030180654, 0.17796808, -1425525.4, -2999.6155, 0.0, 10.00014, 9.999401 
5.9502184e+2, 1.6484584e+2, -1301174.5, -1368390.0, 12628.559, -0.03174684, 0.21952942, -1298880.3, 25647.996, 0.0, 10.000358, 9.999481 
5.950189e+2, 1.7484516e+2, -1237926.0, -1285793.1, 45089.91, 0.011817012, 0.16921929, -1210811.4, 15723.208, 0.0, 10.000108, 9.999497 
5.950146e+2, 1.8484458e+2, -1159656.1, -1206112.1, -18782.201, 0.0032148315, 0.17226857, -1153012.5, -24472.49, 0.0, 10.000001, 9.999431 
5.9500873e+2, 1.9484389e+2, -1062261.9, -1111416.1, 19885.584, -0.063098826, 0.12601821, -1055224.5, -24677.55, 0.0, 10.000008, 9.999405 
5.950034e+2, 2.0484367e+2, -1000227.56, -1024900.44, -12860.719, -0.04285102, 0.16799939, -994743.06, -62194.625, 0.0, 9.999747, 9.999438 
5.949988e+2, 2.1484365e+2, -983823.1, -968282.6, -13015.816, 0.07478211, 0.1867325, -960894.1, -126346.74, 0.0, 9.999194, 9.999424 
5.9499353e+2, 2.2484297e+2, -920159.06, -953087.2, -4190.5615, 0.078316554, 0.21130262, -919634.1, -183080.72, 0.0, 9.999242, 9.998844 
5.9498763e+2, 2.3484129e+2, -743449.3, -825070.5, -5539.0107, -0.051752448, 0.13017672, -743075.1, -104504.95, 0.0, 9.999805, 9.998784 
5.949825e+2, 2.448404e+2, -593317.9, -659300.44, -8364.839, -0.1077951, 0.15020323, -592274.0, -51695.21, 0.0, 9.999988, 9.999142 
5.949781e+2, 2.5484008e+2, -534312.06, -577999.9, 40656.066, -0.084725596, 0.16669166, -510003.25, -67422.35, 0.0, 9.99971, 9.99916 
5.949739e+2, 2.648393e+2, -418507.25, -449423.75, 15071.443, 0.0030688052, 0.16834664, -412376.0, -67789.195, 0.0, 9.999763, 9.999346 
5.9496987e+2, 2.748377e+2, -276367.25, -331602.47, 40390.684, 0.14684217, 0.039347738, -255054.9, -8455.14, 0.0, 10.0000725, 9.999333 
5.949635e+2, 2.848371e+2, -198626.83, -246935.08, 6899.953, 0.08805706, 0.052192915, -197660.63, -49055.31, 0.0000003359344, 9.999928, 9.99931 
5.949546e+2, 2.948372e+2, -236654.25, -216399.1, 28857.096, -0.18111286, 0.09109081, -195944.0, -145337.98, 0.000006914508, 9.998992, 9.999296 
5.949519e+2, 3.048364e+2, -186876.16, -148462.94, 133617.69, 0.031611055, 0.07789129, -32678.508, -32678.508, 0.000035638073, 9.998927, 9.999471 
5.9494776e+2, 3.1483626e+2, 38711.508, 206416.95, 36429.152, -0.069593325, 0.06984539, 213988.3, 213988.3, 0.00009897654, 9.999354, 10.001689 
6.050482e+2, 1.2485128e+2, -1680261.0, -1645694.0, 223158.58, 0.011907905, 0.26645035, -1439150.6, 277327.3, 0.0000011596172, 9.999956, 10.00046 
6.050391e+2, 1.3485138e+2, -1567531.9, -1556020.1, -178349.06, 0.11649464, 0.2002981, -1383334.1, 235140.61, 0.00000014603442, 10.000136, 10.000341 
6.050329e+2, 1.4485101e+2, -1528791.4, -1582874.3, 31647.982, 0.13220161, 0.18511783, -1514205.5, 6271.467, 0.0000000031309833, 10.000134, 9.999471 
6.050273e+2, 1.5485045e+2, -1394165.0, -1468555.3, 8892.942, 0.04949032, 0.13929328, -1393116.6, 29365.377, 0.0, 10.0004015, 9.9994545 
6.050225e+2, 1.6485038e+2, -1316246.4, -1368154.0, 70783.83, 0.007915845, 0.18875779, -1266808.3, 57674.68, 0.0, 10.0001955, 9.999579 
6.05019e+2, 1.7485052e+2, -1332204.4, -1320409.1, 57487.14, 0.050612893, 0.20908113, -1268517.9, -42035.32, 0.0, 9.999398, 9.999614 
6.050144e+2, 1.848501e+2, -1245359.6, -1214399.0, 32102.11, 0.032511372, 0.20632377, -1194239.6, -65753.3, 0.0, 9.99929, 9.999708 
6.050087e+2, 1.948488e+2, -1051869.1, -1072952.0, 11216.126, -0.049350098, 0.0731253, -1047018.25, -16521.174, 0.0, 9.999949, 9.999694 
6.050035e+2, 2.0484859e+2, -935008.06, -1015047.9, -21225.627, -0.02630684, 0.11073445, -929727.6, 2770.805, 0.0, 10.000289, 9.999254 
6.049987e+2, 2.1484913e+2, -851487.1, -928932.06, -35268.555, 0.112763196, 0.20924784, -837833.06, -3339.2769, 0.0, 10.0002, 9.99922 
6.0499364e+2, 2.2484845e+2, -786210.4, -904404.75, 51081.543, 0.12469254, 0.25160006, -767193.56, -30692.549, 0.0, 10.00025, 9.998676 
6.0498816e+2, 2.3484617e+2, -653661.56, -792883.94, 42186.035, -0.0039682556, 0.12475075, -641876.3, -3352.8286, 0.0, 10.000496, 9.998652 
6.0498303e+2, 2.4484517e+2, -528219.8, -579659.56, 29380.285, -0.051303625, 0.12006354, -514892.1, 25640.031, 0.0, 10.000239, 9.999567 
6.049784e+2, 2.5484523e+2, -539173.75, -533648.1, 7928.4873, -0.0044461945, 0.13554326, -528014.9, -85486.33, 0.0, 9.99948, 9.999579 
6.04974e+2, 2.6484466e+2, -491871.72, -482618.94, 11116.548, 0.06707523, 0.13631177, -475204.5, -130672.234, 0.0, 9.999247, 9.999369 
6.0496974e+2, 2.7484304e+2, -351719.5, -368128.84, -10401.204, 0.16497193, 0.005852928, -346676.47, -100129.49, 0.0, 9.999537, 9.999346 
6.049632e+2, 2.848427e+2, -238087.05, -254348.0, -54775.395, 0.09425917, 0.038055792, -190842.0, -42291.664, 0.00000016006682, 9.999611, 9.999418 
6.0495424e+2, 2.948434e+2, -154691.08, -161172.02, -78222.54, -0.13271037, 0.12561323, -79641.91, -29097.822, 0.0000052467194, 9.999486, 9.999445 
6.0495174e+2, 3.0484203e+2, -118625.48, -126179.016, 68631.234, 0.109346375, 0.051952116, -53667.17, -53667.17, 0.000031333126, 9.999457, 9.999368 
6.0494757e+2, 3.1484184e+2, -10752.43, 132717.66, -61828.08, -0.001288398, 0.058312356, 155685.45, 155685.45, 0.00009226463, 9.99922, 10.0012665 
6.150477e+2, 1.24856435e+2, -1775630.4, -1839320.4, 142886.81, -0.10687527, 0.1416003, -1661082.9, 55337.07, 0.000000319301, 9.999944, 9.999131 
6.1504054e+2, 1.348561e+2, -1677134.4, -1781813.3, -161213.08, 0.20498943, 0.18385938, -1559977.3, 58451.246, 0.000000018009526, 10.000135, 9.998792 
6.150324e+2, 1.4485538e+2, -1475289.0, -1475431.4, 15449.542, 0.018631216, 0.17738615, -1459910.5, 60525.4, 0.0, 10.000142, 10.000205 
6.150285e+2, 1.5485476e+2, -1336695.1, -1356250.1, 30381.875, 0.09037152, 0.04700048, -1314556.3, 107880.625, 0.0, 10.000414, 10.000226 
6.150237e+2, 1.6485508e+2, -1326488.5, -1374808.3, 24876.402, 0.076794796, 0.093772866, -1315970.8, 8462.055, 0.0, 10.000134, 9.999562 
6.150185e+2, 1.7485605e+2, -1344580.0, -1337286.8, 42794.05, 0.027030133, 0.20266923, -1297984.3, -71557.84, 0.0, 9.999352, 9.999524 
6.150134e+2, 1.8485595e+2, -1270674.0, -1239027.0, 42627.414, -0.02895599, 0.24404645, -1209380.9, -80953.0, 0.0, 9.999171, 9.999593 
6.1500853e+2, 1.9485444e+2, -1075491.1, -1100910.1, 53827.414, -0.09197901, 0.098188095, -1032893.06, -2452.1597, 0.0, 9.999855, 9.99955 
6.1500365e+2, 2.0485395e+2, -953927.0, -1019285.9, -38154.895, -0.06611966, 0.11507478, -936369.56, -3924.8599, 0.0, 10.000139, 9.999296 
6.149987e+2, 2.1485426e+2, -877153.4, -938789.0, -24133.713, 0.0638802, 0.18256852, -868828.2, -34385.93, 0.0, 10.000011, 9.999245 
6.1499375e+2, 2.2485349e+2, -803773.0, -900323.7, 48921.797, 0.08016669, 0.21051987, -783318.06, -46868.223, 0.0, 10.000077, 9.998787 
6.149887e+2, 2.3485135e+2, -672778.56, -788063.94, 67831.61, -0.024277758, 0.08505836, -641405.5, -2935.01, 0.0, 10.000306, 9.9987755 
6.149835e+2, 2.4485023e+2, -552985.2, -603462.6, -15810.234, -0.056395408, 0.06731158, -548442.06, -7962.081, 0.0, 10.000118, 9.999462 
6.14978e+2, 2.548499e+2, -568461.94, -565591.7, -5785.652, -0.022065073, 0.05115985, -561065.8, -118585.16, 0.0, 9.9993515, 9.999425 
6.1497295e+2, 2.6484948e+2, -519395.94, -519890.97, 7434.456, 0.009249908, 0.08647707, -512204.88, -167719.9, 0.0, 9.999161, 9.999151 
6.149683e+2, 2.7484864e+2, -386835.47, -409308.6, 17995.611, 0.03736536, 0.053183775, -376856.4, -130360.31, 0.0, 9.999403, 9.999125 
6.149623e+2, 2.8484863e+2, -251343.42, -269247.6, -75620.76, 0.0021772196, 0.13611239, -184146.72, -35649.805, 0.00000012615395, 9.999551, 9.999343 
6.1495435e+2, 2.9484946e+2, -168966.89, -168603.17, -63975.855, -0.117245555, 0.23297396, -104808.914, -54321.316, 0.000004351736, 9.999396, 9.99943 
6.149517e+2, 3.0484733e+2, -153442.4, -200890.64, 48670.777, 0.12819368, 0.10931355, -123021.55, -123021.55, 0.000027327982, 9.999456, 9.998869 
6.1494654e+2, 3.1484672e+2, -129797.484, -90271.15, 22908.943, -0.10263944, 0.13662517, -79778.695, -79778.695, 0.00008384043, 9.999118, 9.999789 
6.250475e+2, 1.2486143e+2, -1974382.3, -1939906.5, 59739.44, -0.03791488, 0.12555885, -1894967.8, -178597.11, 0.00000004128188, 9.99859, 9.999107 
6.2504256e+2, 1.3486096e+2, -1483345.0, -1694412.9, -118619.336, 0.34217742, 0.16140412, -1430108.9, 188271.73, 0.000000000001578113, 10.00147, 9.998764 
6.2503296e+2, 1.4486009e+2, -1253253.6, -1392784.6, 39663.47, -0.0046554822, 0.1546362, -1242767.0, 277623.1, 0.0, 10.001772, 9.999989 
6.25029e+2, 1.548601e+2, -1416208.4, -1408152.9, -44888.19, 0.13438524, 0.10463614, -1367112.1, 55274.29, 0.0, 9.999954, 10.000076 
6.2502396e+2, 1.648604e+2, -1410057.9, -1396803.6, -18293.834, 0.13652492, 0.15095808, -1383973.5, -59590.867, 0.0, 9.9995165, 9.99969 
6.2501854e+2, 1.748607e+2, -1175984.1, -1234261.9, -28791.441, 0.05747929, 0.1798165, -1164159.4, 62222.44, 0.0, 10.000459, 9.999678 
6.250135e+2, 1.8486069e+2, -1066352.6, -1132534.8, 9118.332, 0.005661886, 0.2158081, -1065119.4, 63262.734, 0.0, 10.0005, 9.9997015 
6.2500876e+2, 1.9485997e+2, -1121975.0, -1107476.3, 13442.456, -0.026922433, 0.13714269, -1099453.0, -69066.05, 0.0, 9.999446, 9.999706 
6.25004e+2, 2.0485955e+2, -1071561.3, -1050851.8, -15613.015, 0.003501811, 0.14004137, -1042471.8, -110082.53, 0.0, 9.999212, 9.999532 
6.249991e+2, 2.148591e+2, -881903.3, -906851.7, -14305.971, 0.117678165, 0.10912794, -875396.8, -41004.273, 0.0, 9.999836, 9.999544 
6.2499416e+2, 2.2485846e+2, -787175.4, -856312.7, 93062.8, 0.121270776, 0.11705132, -722468.25, 13929.841, 0.0, 10.00003, 9.999118 
6.249891e+2, 2.348573e+2, -730416.94, -783893.56, 101417.484, 0.018009003, 0.060242783, -652272.25, -13863.01, 0.0, 9.999758, 9.999083 
6.249838e+2, 2.448565e+2, -611434.44, -651315.9, 47098.81, -0.017333094, 0.06750821, -580229.0, -39812.754, 0.0, 9.999785, 9.999302 
6.2497807e+2, 2.5485584e+2, -455671.13, -527098.0, 19915.121, 0.016438123, 0.034032494, -450493.72, -8072.405, 0.0, 10.000189, 9.999287 
6.249727e+2, 2.648554e+2, -375876.2, -489383.5, 62756.074, 0.018657222, 0.09061454, -348017.2, -3590.1304, 0.0, 10.000298, 9.998817 
6.249676e+2, 2.748548e+2, -320464.7, -416664.5, 31569.47, -0.00069207407, 0.116888404, -311030.0, -64592.613, 0.0, 10.000015, 9.998784 
6.2496185e+2, 2.8485447e+2, -190864.44, -279212.6, -32458.914, -0.015247939, 0.20196645, -180221.27, -31778.89, 0.000000116905284, 10.000138, 9.998994 
6.249552e+2, 2.9485428e+2, -6557.6743, -139427.98, -79270.01, -0.02241335, 0.23997577, 30435.232, 80877.984, 0.000004287332, 10.000696, 9.9990225 
6.2495226e+2, 3.0485225e+2, -20357.225, -138208.1, 31738.152, 0.20505665, 0.1471243, -12353.464, -12353.464, 0.000025852014, 10.000401, 9.998828 
6.24946e+2, 3.148513e+2, -178103.92, -154991.08, 18320.97, -0.0425357, 0.14458944, -144886.28, -144886.28, 0.00007870898, 9.998983, 9.999395 
6.3504654e+2, 1.2486635e+2, -1876370.1, -1753237.3, -3507.388, -0.065257505, 0.23502092, -1753137.5, -36808.746, 0.000000010756334, 9.998654, 10.000362 
6.350448e+2, 1.3486579e+2, -1389332.5, -1501838.8, -9493.887, 0.38632497, 0.12817922, -1388537.0, 229795.48, 0.0, 10.001471, 10.000093 
6.350343e+2, 1.4486514e+2, -1329349.3, -1531023.8, -50069.008, -0.087246925, 0.12270928, -1317602.9, 202736.6, 0.0, 10.001696, 9.999072 
6.350285e+2, 1.548665e+2, -1488958.1, -1556734.8, -93997.16, 0.047519308, 0.30590835, -1422927.0, -597.1217, 0.0, 9.999943, 9.9990635 
6.3502306e+2, 1.6486633e+2, -1404688.3, -1379094.8, -725.5433, 0.05682019, 0.3493182, -1379074.3, -54741.613, 0.0, 9.999479, 9.999834 
6.3501894e+2, 1.7486432e+2, -1168637.1, -1214882.4, 22457.2, 0.010130574, 0.13082471, -1159526.5, 66823.93, 0.0, 10.000426, 9.999835 
6.3501424e+2, 1.8486406e+2, -1050356.0, -1072937.0, -45270.934, -0.0024644958, 0.111699596, -1014988.9, 113362.016, 0.0, 10.000393, 10.000158 
6.350089e+2, 1.9486524e+2, -1109315.8, -1053160.8, -13382.142, 0.0026956517, 0.17743118, -1050134.8, -19797.904, 0.0, 9.999324, 10.000138 
6.3500386e+2, 2.0486523e+2, -1065715.5, -997626.2, -8444.11, 0.048140377, 0.17854968, -996594.6, -64261.086, 0.0, 9.999035, 9.99998 
6.349994e+2, 2.1486366e+2, -877818.1, -852790.5, 25316.438, 0.13508716, -0.012484844, -837063.94, -2719.1301, 0.0, 9.999638, 10.00001 
6.349944e+2, 2.2486338e+2, -775781.25, -788241.44, 69309.766, 0.1164963, -0.021799829, -712422.1, 23923.748, 0.0, 9.999843, 9.999672 
6.349887e+2, 2.3486401e+2, -721849.06, -719189.3, 108717.24, -0.01935637, 0.04413686, -611793.8, 26546.25, 0.0, 9.999558, 9.99962 
6.3498336e+2, 2.44864e+2, -651245.75, -701962.44, 48656.13, -0.07025871, 0.116073005, -621736.4, -81395.71, 0.0, 9.999653, 9.999016 
6.349782e+2, 2.5486302e+2, -498367.7, -580557.7, 49701.938, -0.03229647, 0.08430761, -474971.75, -32621.371, 0.0, 10.00004, 9.998991 
6.3497275e+2, 2.648624e+2, -420053.53, -558297.3, 36034.508, -0.034242395, 0.15802345, -411224.66, -66866.12, 0.0, 10.000204, 9.998386 
6.34967e+2, 2.7486166e+2, -368816.75, -488793.75, 38374.234, -0.09332246, 0.20673679, -357592.88, -111222.984, 0.0, 9.999897, 9.998343 
6.349615e+2, 2.848602e+2, -242762.13, -371228.4, -28299.246, -0.09455518, 0.230912, -236804.5, -88417.85, 0.0000001448745, 10.000077, 9.998393 
6.349563e+2, 2.9485807e+2, -76557.25, -248498.64, -35789.98, -0.02619654, 0.142755, -69405.0, -18996.973, 0.000005079309, 10.000563, 9.998331 
6.349527e+2, 3.04857e+2, -1629.0864, -108884.03, -27204.469, 0.17330427, 0.17897253, 4876.534, 4876.534, 0.000027855136, 10.000408, 9.99904 
6.349448e+2, 3.148558e+2, -166118.17, -109686.92, 38629.844, -0.1378621, 0.105416395, -90065.46, -90065.46, 0.00008149468, 9.998879, 9.999763 
6.4504725e+2, 1.24871045e+2, -1682374.9, -1608560.0, 18897.71, 0.09653392, 0.27087653, -1604003.3, 112282.65, 0.0000000047013002, 9.999771, 10.000813 
6.4504504e+2, 1.3487105e+2, -1615665.5, -1533297.0, 8370.112, 0.36937416, 0.15672, -1532455.1, 85826.05, 0.0, 9.999619, 10.00075 
6.450345e+2, 1.4487062e+2, -1591033.8, -1657532.0, -47076.5, -0.1379337, 0.13748935, -1566648.6, -46363.34, 0.0, 9.999902, 9.999066 
6.4502925e+2, 1.5487184e+2, -1344671.1, -1489769.3, -58393.305, 0.087878235, 0.3089299, -1324090.5, 98187.766, 0.0, 10.000933, 9.999049 
6.4502376e+2, 1.6487166e+2, -1227925.9, -1303194.1, 101128.52, 0.12531713, 0.35761976, -1157655.9, 166625.61, 0.0, 10.000731, 9.999757 
6.4501894e+2, 1.7486984e+2, -1343503.1, -1304783.0, 80365.11, 0.03847778, 0.16483872, -1241478.9, -15181.822, 0.0, 9.999252, 9.9997835 
6.4501405e+2, 1.8486954e+2, -1260888.8, -1164176.3, 25014.146, 0.023569753, 0.14159434, -1158089.5, -29791.938, 0.0, 9.998913, 10.000241 
6.45009e+2, 1.9487053e+2, -1052268.9, -1012666.3, -5210.788, 0.07147415, 0.17955437, -1011992.2, 18293.336, 0.0, 9.999681, 10.000236 
6.45004e+2, 2.0487061e+2, -906417.56, -916107.3, 19319.416, 0.10883097, 0.18162195, -891344.8, 40936.957, 0.0, 10.000115, 10.000011 
6.4499927e+2, 2.1486937e+2, -808623.56, -819875.75, -13047.373, 0.1437072, 0.021578701, -800040.94, 34249.387, 0.0, 10.000114, 10.000003 
6.4499426e+2, 2.2486931e+2, -749772.5, -770716.94, 4077.4785, 0.12125004, 0.032359187, -749006.7, -12717.023, 0.0, 9.999968, 9.999741 
6.449889e+2, 2.3487012e+2, -697532.0, -695817.8, -25132.318, 0.044773586, 0.10134565, -671528.0, -33245.395, 0.0, 9.999657, 9.999733 
6.4498377e+2, 2.4487004e+2, -631584.0, -694159.7, -27780.646, 0.004447042, 0.16459681, -621030.56, -80747.12, 0.0, 9.999814, 9.998993 
6.449788e+2, 2.548688e+2, -433217.88, -548573.25, -32337.605, 0.015907146, 0.110249825, -424771.16, 17523.826, 0.0, 10.000498, 9.998989 
6.449734e+2, 2.648679e+2, -368459.44, -521955.3, -19852.414, -0.0011312946, 0.15081745, -365933.38, -21628.758, 0.0, 10.000514, 9.998486 
6.449675e+2, 2.7486688e+2, -363305.4, -474501.0, -15397.818, -0.033458564, 0.1662868, -361212.6, -114896.086, 0.000000000000000000046744374, 9.999889, 9.998448 
6.449621e+2, 2.8486532e+2, -290891.7, -421883.94, 19807.83, -0.024601879, 0.18807426, -287962.0, -139627.72, 0.00000034821963, 9.999856, 9.998151 
6.449572e+2, 2.9486316e+2, -134698.17, -313466.97, 4404.1323, 0.035077795, 0.11932765, -134589.73, -84230.88, 0.0000068469953, 10.000308, 9.998009 
6.449531e+2, 3.0486262e+2, -90149.336, -118854.97, -6769.886, 0.21605392, 0.21223266, -88632.85, -88632.85, 0.00003364889, 9.999686, 9.999299 
6.4494437e+2, 3.1486186e+2, -254055.88, -69599.78, 10063.668, -0.008152365, 0.15439276, -69052.34, -69052.34, 0.000093661416, 9.997927, 10.000484 
6.55048e+2, 1.24875374e+2, -1695773.5, -1634937.8, -133907.2, 0.12664542, 0.21574417, -1528037.0, 188206.66, 0.000000001405694, 9.999766, 10.00063 
6.5504265e+2, 1.3487686e+2, -1607064.1, -1518674.9, 10547.717, 0.13672708, 0.24389239, -1517433.6, 100791.95, 0.0, 9.999636, 10.000834 
6.550332e+2, 1.448766e+2, -1542103.1, -1546502.1, -29371.793, -0.30323288, 0.19690096, -1514848.6, 5377.944, 0.0, 9.999857, 9.999856 
6.5503085e+2, 1.5487616e+2, -1295084.0, -1378586.5, -4143.76, 0.11087769, 0.12254865, -1294878.9, 127352.29, 0.0, 10.00089, 9.99984 
6.5502554e+2, 1.6487637e+2, -1251644.6, -1336195.0, 28279.027, 0.19268955, 0.18164816, -1243058.3, 81171.3, 0.0, 10.00066, 9.999561 
6.550181e+2, 1.7487718e+2, -1365640.6, -1340551.9, 40362.645, -0.0078051765, 0.2721043, -1310829.1, -84606.68, 0.0, 9.99921, 9.999556 
6.550125e+2, 1.8487716e+2, -1296029.6, -1214936.1, 36879.86, -0.052755788, 0.30333182, -1200672.6, -72450.63, 0.0, 9.998817, 9.999938 
6.550087e+2, 1.948759e+2, -1086435.3, -1058767.4, 41184.465, 0.04051695, 0.14450644, -1029155.56, 1076.7831, 0.0, 9.999576, 9.99997 
6.5500385e+2, 2.0487565e+2, -960349.8, -993729.2, 4306.4043, 0.057306625, 0.14886951, -959803.2, -27569.033, 0.0, 9.999967, 9.999555 
6.5499824e+2, 2.1487609e+2, -869679.9, -898703.8, 2002.8108, -0.0011044758, 0.2049959, -869542.3, -35311.84, 0.0, 9.999913, 9.999559 
6.5499336e+2, 2.2487622e+2, -807161.5, -839954.7, -21817.113, 0.0069157737, 0.27650875, -796266.44, -60036.523, 0.0, 9.99976, 9.999361 
6.5498906e+2, 2.3487563e+2, -752950.3, -763857.9, -22215.135, 0.06582827, 0.24485317, -735529.3, -97292.92, 0.0, 9.999461, 9.999356 
6.549845e+2, 2.448747e+2, -632227.3, -663596.8, -19674.531, 0.070144475, 0.22680248, -622750.6, -82506.64, 0.0, 9.999679, 9.999266 
6.549795e+2, 2.5487307e+2, -435168.03, -515696.88, 10382.876, 0.008371183, 0.10295692, -433850.88, 8404.883, 0.0, 10.000344, 9.999285 
6.549741e+2, 2.6487184e+2, -336666.13, -441846.72, -58372.99, -0.013701161, 0.06342449, -310687.06, 33578.332, 0.0, 10.000445, 9.999072 
6.549682e+2, 2.7487057e+2, -335433.7, -398234.97, -18295.62, 0.01591487, -0.0001759862, -330492.47, -84216.375, 0.0000000002377775, 9.999799, 9.99902 
6.549628e+2, 2.8487e+2, -294715.88, -405017.0, 21427.129, 0.02407499, 0.08235232, -290699.66, -142415.4, 0.0000008000927, 9.9997635, 9.998302 
6.549576e+2, 2.948697e+2, -147892.38, -304869.28, 38637.74, -0.008582577, 0.17914656, -138897.63, -88603.62, 0.000010270006, 10.000166, 9.998129 
6.5495276e+2, 3.048692e+2, -76786.75, -91643.305, -81316.94, 0.18070029, 0.26603758, -2559.509, -2559.509, 0.00004390313, 9.999676, 9.999499 
6.549438e+2, 3.1486896e+2, -193193.69, 77436.195, 8960.415, 0.06877779, 0.23295999, 77732.55, 77732.55, 0.00011355634, 9.99784, 10.001539 
6.65048e+2, 1.2488065e+2, -1761305.3, -1701395.5, -106622.18, 0.17731556, 0.19405077, -1620600.3, 95590.08, 0.00000000035571668, 9.999471, 10.000308 
6.6504186e+2, 1.3488227e+2, -1591426.3, -1552647.1, 14940.87, 0.09096223, 0.26518455, -1547558.4, 70615.25, 0.0, 9.999898, 10.000488 
6.650339e+2, 1.4488217e+2, -1551920.5, -1513381.8, -13875.436, -0.19269979, 0.2343974, -1508905.9, 11267.591, 0.0, 9.999637, 10.000182 
6.650314e+2, 1.548813e+2, -1515257.0, -1444957.3, -58670.684, 0.17545047, 0.081663735, -1411712.9, 10466.882, 0.0, 9.999226, 10.000175 
6.650258e+2, 1.648815e+2, -1413810.3, -1398234.6, -14576.569, 0.22078988, 0.11406334, -1389496.0, -65319.277, 0.0, 9.999477, 9.999704 
6.6501784e+2, 1.748826e+2, -1198748.3, -1245923.6, -10612.712, 0.0031938714, 0.22075507, -1196470.8, 29694.855, 0.0, 10.000283, 9.999689 
6.650122e+2, 1.8488258e+2, -1086282.0, -1148971.1, 47925.09, -0.034264214, 0.25948998, -1060361.5, 67804.02, 0.0, 10.000428, 9.999611 
6.650088e+2, 1.9488096e+2, -1066498.5, -1090436.1, 15357.136, 0.093529426, 0.10036211, -1058996.9, -28816.078, 0.0, 9.9998865, 9.999605 
6.650041e+2, 2.048807e+2, -993519.9, -1013897.5, 19773.871, 0.101223946, 0.12568893, -981464.2, -49280.426, 0.0, 9.999753, 9.999529 
6.6499805e+2, 2.1488161e+2, -863302.4, -899728.56, 17399.922, -0.0026285136, 0.22970533, -856326.7, -22150.227, 0.0, 9.999972, 9.999531 
6.6499317e+2, 2.2488165e+2, -756046.0, -824686.25, 43925.297, 0.00042679263, 0.30035016, -734622.94, 1553.9474, 0.0, 10.000166, 9.999275 
6.6498923e+2, 2.3488054e+2, -637177.2, -720416.3, 35371.95, 0.106730916, 0.22963414, -624176.56, 14011.741, 0.0, 10.000321, 9.999247 
6.6498494e+2, 2.4487944e+2, -552684.06, -616697.8, 76796.81, 0.13272084, 0.19619349, -501491.22, 38705.97, 0.0, 10.0001545, 9.999369 
6.649801e+2, 2.54878e+2, -542740.1, -560694.8, 56780.063, 0.07957519, 0.08115586, -494232.1, -52025.633, 0.0, 9.999541, 9.999374 
6.649746e+2, 2.648768e+2, -467066.9, -488161.9, -9395.156, 0.044427693, 0.033749912, -463489.3, -119274.19, 0.0, 9.999474, 9.999225 
6.6496825e+2, 2.7487558e+2, -292758.63, -354476.2, -34166.867, 0.04279696, -0.04515579, -277577.88, -31352.934, 0.0000000023427176, 10.000009, 9.999209 
6.6496265e+2, 2.8487536e+2, -206247.33, -315313.88, 43796.47, 0.02996881, 0.042641215, -190837.72, -42608.918, 0.0000014418595, 10.000155, 9.998738 
6.649576e+2, 2.9487562e+2, -171501.17, -257696.42, 47400.89, 0.008720812, 0.14869788, -150534.38, -100302.35, 0.000014823799, 9.999756, 9.998648 
6.649524e+2, 3.0487502e+2, -102857.664, -101288.13, -70933.94, 0.19559146, 0.19557089, -31134.623, -31134.623, 0.000057815294, 9.999482, 9.999526 
6.6494334e+2, 3.148754e+2, -33919.547, 138760.4, -51016.32, 0.18897822, 0.22884905, 152706.31, 152706.31, 0.00014076945, 9.998986, 10.001411 
6.750461e+2, 1.2488695e+2, -1809685.5, -1796875.4, -170413.23, -0.038633704, 0.19758022, -1632746.9, 83378.086, 0.0000000023126079, 9.99946, 9.999656 
6.7504203e+2, 1.348873e+2, -1648212.3, -1665744.4, 39579.438, 0.089599684, 0.21319634, -1616439.8, 1685.7789, 0.0, 9.99989, 9.999713 
6.7503613e+2, 1.4488737e+2, -1568577.6, -1533626.5, -50585.434, 0.025753325, 0.2496715, -1497583.1, 22542.463, 0.0, 9.9995775, 10.000071 
6.750304e+2, 1.5488745e+2, -1518860.6, -1451532.1, -56123.83, 0.11694097, 0.20226637, -1419750.5, 2372.012, 0.0, 9.999227, 10.000127 
6.750241e+2, 1.648872e+2, -1384849.4, -1330537.3, -832.55225, 0.07153444, 0.16693641, -1330524.5, -6403.3965, 0.0, 9.999439, 10.000192 
6.7501783e+2, 1.748863e+2, -1171579.5, -1175005.1, 34765.574, -0.06152258, 0.021757025, -1138484.6, 87640.086, 0.0, 10.000223, 10.000203 
6.7501277e+2, 1.848859e+2, -1127695.0, -1212550.0, 8233.451, -0.053895038, 0.017063618, -1126903.5, 1223.5939, 0.0, 10.000328, 9.999227 
6.7500883e+2, 1.9488582e+2, -1117455.1, -1157803.0, 9363.324, 0.08175956, 0.054843202, -1115388.1, -85258.01, 0.0, 9.999729, 9.999219 
6.7500407e+2, 2.0488594e+2, -994031.44, -979915.2, 12590.801, 0.10311403, 0.12173478, -972539.1, -40409.633, 0.0, 9.999588, 9.999847 
6.7499834e+2, 2.1488595e+2, -865852.25, -860955.44, 39532.62, 0.00026819506, 0.101242445, -823795.5, 10332.503, 0.0, 9.999781, 9.999889 
6.749933e+2, 2.2488569e+2, -770052.75, -810821.5, 34244.195, -0.023143034, 0.11292479, -750585.06, -14455.131, 0.0, 9.99998, 9.999461 
6.749891e+2, 2.3488481e+2, -653430.6, -705956.5, 58948.324, 0.026968073, 0.04774197, -615159.5, 22979.104, 0.0, 10.000117, 9.999443 
6.749847e+2, 2.4488431e+2, -585774.2, -645936.4, 41968.543, 0.06506872, 0.069129385, -564219.75, -24077.203, 0.0, 9.9999895, 9.999246 
6.7498004e+2, 2.5488377e+2, -577985.56, -597178.44, 50239.84, 0.08214012, 0.05524283, -536433.8, -94288.164, 0.0, 9.99938, 9.999203 
6.7497426e+2, 2.6488298e+2, -504917.03, -535520.7, -6249.3857, 0.032787785, 0.07708053, -503690.06, -159538.03, 0.0, 9.999347, 9.998959 
6.749673e+2, 2.748818e+2, -327449.53, -401212.94, 4244.2134, -0.094930656, 0.027735123, -327206.13, -81042.41, 0.0000000015372758, 9.999899, 9.998944 
6.7496157e+2, 2.8488135e+2, -155590.16, -199131.88, 15174.97, -0.13180661, 0.06281963, -150823.3, -2655.0156, 0.0000017821444, 10.000111, 9.999555 
6.749568e+2, 2.948811e+2, -127983.36, -138148.33, 54808.965, -0.0930349, 0.04039517, -78021.734, -27851.19, 0.000019076204, 9.999632, 9.999528 
6.7495114e+2, 3.0487993e+2, -134237.56, -146809.78, -98044.59, 0.08831029, -0.004278353, -42277.77, -42277.77, 0.000073988194, 9.999407, 9.999246 
6.7494166e+2, 3.1488112e+2, -134646.88, -37928.15, -12911.9, 0.041001648, 0.14243008, -36234.086, -36234.086, 0.00017626988, 9.998862, 10.000248 
6.8504596e+2, 1.2489326e+2, -1730648.1, -1799371.3, -55260.47, -0.009818795, 0.106620245, -1699937.1, 16119.867, 0.0000000036242784, 10.000142, 9.999329 
6.850419e+2, 1.3489333e+2, -1665446.0, -1726369.1, 104946.64, 0.09582508, 0.14768611, -1586629.4, 31433.396, 0.0, 10.000016, 9.999226 
6.850374e+2, 1.448936e+2, -1532106.0, -1553169.4, 59585.844, 0.1816415, 0.24348557, -1482128.3, 37934.457, 0.0, 9.999981, 9.999746 
6.8503004e+2, 1.5489367e+2, -1373434.6, -1421427.3, 4675.419, 0.107822455, 0.2285507, -1372983.4, 49077.203, 0.0, 10.000379, 9.999793 
6.850235e+2, 1.6489312e+2, -1267836.6, -1291098.3, 60321.48, 0.03271379, 0.18692484, -1218034.9, 106028.0, 0.0, 10.000308, 10.00005 
6.850183e+2, 1.7489165e+2, -1257817.5, -1239953.8, 14271.337, -0.0031202498, 0.0015909205, -1232049.8, -5976.9565, 0.0, 9.999719, 10.000014 
6.850134e+2, 1.8489121e+2, -1201538.5, -1239164.0, 12101.264, 0.018963229, -0.00058737624, -1197982.5, -69907.35, 0.0, 9.999773, 9.99931 
6.8500876e+2, 1.948915e+2, -1012208.94, -1096127.4, 20725.533, 0.08076655, 0.06281218, -1007369.4, 22703.68, 0.0, 10.000394, 9.999318 
6.850039e+2, 2.0489146e+2, -882529.4, -930035.6, 49301.887, 0.09691636, 0.11106511, -851556.94, 80515.69, 0.0, 10.000411, 9.999765 
6.849987e+2, 2.1489072e+2, -858796.8, -869385.7, 11850.715, 0.0625743, 0.025575923, -851111.6, -17034.07, 0.0, 9.99989, 9.999766 
6.849938e+2, 2.2489022e+2, -808192.06, -839946.25, 21212.42, 0.047267217, 0.023947256, -797572.94, -61491.176, 0.0, 9.999747, 9.999374 
6.849893e+2, 2.3488975e+2, -683419.44, -731263.94, -5999.9556, 0.053651333, 0.0062633227, -682678.5, -44590.965, 0.0, 9.999939, 9.999358 
6.8498474e+2, 2.4488954e+2, -582159.2, -632435.6, -12198.706, 0.08213199, 0.058964413, -579355.75, -39266.754, 0.0, 9.999982, 9.999328 
6.849801e+2, 2.5488937e+2, -484451.8, -537406.1, -17386.133, 0.12913994, 0.07096723, -479253.78, -37164.836, 0.0, 9.99999, 9.999302 
6.849742e+2, 2.6488873e+2, -437823.7, -515112.7, -11069.796, 0.07699844, 0.10594274, -436269.47, -92174.71, 0.0, 9.999843, 9.998863 
6.8496716e+2, 2.7488732e+2, -412035.28, -453660.53, -21040.24, -0.056405347, 0.046467986, -403253.03, -157143.63, 0.00000000039754933, 9.999349, 9.998855 
6.8496126e+2, 2.8488675e+2, -348858.25, -256367.27, -14414.429, -0.094227284, 0.055934392, -254172.88, -106058.31, 0.000001935021, 9.998628, 9.999873 
6.84956e+2, 2.9488647e+2, -356913.38, -210519.08, -48250.563, -0.034384552, 0.00097500056, -196046.73, -145932.2, 0.000022833043, 9.99788, 9.999878 
6.849501e+2, 3.0488557e+2, -268804.8, -219782.6, -132792.17, 0.11013108, -0.033738732, -109258.33, -109258.33, 0.00009092674, 9.998529, 9.999163 
6.849418e+2, 3.1488556e+2, 7398.862, -8332.851, -67821.59, 0.13373913, 0.016794356, 67809.21, 67809.21, 0.00021663251, 9.99998, 9.999929 
6.950469e+2, 1.2489965e+2, -1719443.3, -1775425.3, -60563.01, -0.01755607, -0.0701778, -1680715.6, 35270.156, 0.00000000017840025, 10.000159, 9.99947 
6.95041e+2, 1.3490051e+2, -1677967.6, -1754495.8, 110219.35, -0.0341308, 0.073850214, -1599559.3, 18424.947, 0.0, 10.000032, 9.99902 
6.950372e+2, 1.4490078e+2, -1572476.8, -1632587.5, 56110.53, 0.12556976, 0.20357102, -1538879.0, -18893.635, 0.0, 9.999956, 9.999216 
6.9502985e+2, 1.5489984e+2, -1415953.3, -1511299.8, 37230.066, 0.014200195, 0.14261185, -1403138.4, 18856.861, 0.0, 10.000374, 9.999185 
6.9502336e+2, 1.648992e+2, -1336031.6, -1414869.1, 23955.1, -0.039481394, 0.16463667, -1329323.5, -5320.9253, 0.0, 10.000241, 9.999225 
6.950187e+2, 1.748988e+2, -1325799.3, -1364529.0, 12130.697, 0.038595505, 0.16932365, -1322313.5, -96305.32, 0.0, 9.999651, 9.999189 
6.950138e+2, 1.8489859e+2, -1176797.8, -1160566.0, 22303.928, 0.043585654, 0.20151329, -1144947.3, -16938.586, 0.0, 9.99966, 9.999898 
6.950082e+2, 1.9489814e+2, -991488.8, -1020918.9, 58547.89, -0.048443582, 0.12957105, -945835.06, 84173.086, 0.0, 10.000266, 9.999887 
6.9500315e+2, 2.0489733e+2, -940807.4, -1022434.94, 12566.511, -0.0508965, 0.09922518, -938916.56, -6903.6904, 0.0, 10.000277, 9.9992 
6.949987e+2, 2.1489584e+2, -928403.94, -967961.9, 6270.443, 0.042700805, -0.0013780498, -927433.8, -93408.086, 0.0, 9.999692, 9.999186 
6.9499415e+2, 2.248953e+2, -860864.3, -905252.25, 13304.333, 0.08057546, 0.038091242, -857182.06, -121150.13, 0.0, 9.999556, 9.999016 
6.9498944e+2, 2.3489533e+2, -735445.6, -796541.06, 14965.97, 0.048902337, 0.10574118, -731976.56, -93941.67, 0.0, 9.999759, 9.998992 
6.949847e+2, 2.4489526e+2, -575926.06, -594149.6, -25512.738, 0.04748303, 0.17323613, -557946.8, -17911.277, 0.0, 9.999865, 9.999649 
6.9497985e+2, 2.5489473e+2, -475331.97, -495001.3, 519.4599, 0.07404076, 0.116516784, -475318.25, -33281.203, 0.0, 9.999877, 9.999651 
6.949741e+2, 2.6489386e+2, -449616.03, -511781.38, -41977.484, 0.05467581, 0.10500766, -428466.13, -84421.78, 0.0, 9.999731, 9.998935 
6.949674e+2, 2.748922e+2, -428738.56, -456916.28, -23219.414, -0.003810649, 0.012824905, -415667.97, -169606.23, 0.0000000054780975, 9.99922, 9.998891 
6.949611e+2, 2.8489158e+2, -374226.38, -293110.5, -59999.91, -0.00796344, 0.02748501, -261246.52, -113178.89, 0.000002364329, 9.998559, 9.999651 
6.949547e+2, 2.9489174e+2, -390184.66, -251163.9, -52780.14, 0.0062822057, 0.03445302, -233396.36, -183332.55, 0.000027093956, 9.997761, 9.999653 
6.949491e+2, 3.0489185e+2, -266478.22, -207291.89, -83729.92, 0.12067294, 0.10462916, -148079.33, -148079.33, 0.00010798756, 9.99849, 9.999266 
6.949433e+2, 3.1488937e+2, 23292.191, 44849.926, 53615.633, 0.2060775, -0.104086794, 88759.445, 88759.445, 0.00025661878, 9.999891, 10.000335 
7.0504737e+2, 1.2490634e+2, -1747158.3, -1759302.0, -100282.984, 0.048820272, -0.055000234, -1652763.5, 63157.9, 0.0, 9.999816, 9.999765 
7.050404e+2, 1.3490717e+2, -1677230.4, -1743458.4, -11657.837, -0.07937543, 0.07619387, -1675238.3, -57321.414, 0.0, 9.999967, 9.999137 
7.050372e+2, 1.4490694e+2, -1595406.5, -1653242.3, 14298.273, 0.14464538, 0.15232593, -1592064.8, -72143.53, 0.0, 9.999842, 9.999123 
7.0503014e+2, 1.5490562e+2, -1467360.5, -1539126.4, -2661.7517, 0.03394142, 0.06330322, -1467262.0, -45327.234, 0.0, 10.000054, 9.999128 
7.050238e+2, 1.6490518e+2, -1353439.0, -1450851.1, 40725.945, -0.016741026, 0.12069994, -1338655.8, -14714.306, 0.0, 10.000253, 9.998961 
7.05019e+2, 1.7490542e+2, -1252657.3, -1352028.1, 36404.42, 0.07686063, 0.21378344, -1240747.8, -14804.321, 0.0, 10.000266, 9.998961 
7.0501405e+2, 1.8490525e+2, -1081269.4, -1116906.3, 99437.28, 0.07964349, 0.26035386, -998066.7, 129877.49, 0.0, 10.00032, 9.999885 
7.0500875e+2, 1.9490418e+2, -969136.6, -1014028.56, 60565.37, -0.02591395, 0.13052231, -926991.7, 102956.445, 0.0, 10.000421, 9.999873 
7.050036e+2, 2.0490295e+2, -949576.56, -1064111.9, 5364.9717, -0.027803449, 0.07651213, -949325.8, -17369.268, 0.0, 10.000352, 9.998889 
7.0499885e+2, 2.1490134e+2, -899966.56, -988262.75, -9892.748, 0.08139739, -0.007678673, -898871.75, -64900.043, 0.0, 10.000012, 9.998899 
7.049943e+2, 2.2490071e+2, -816799.5, -863475.94, 75671.37, 0.13871033, 0.031035786, -760949.2, -24971.023, 0.0, 9.999788, 9.999181 
7.049899e+2, 2.3490077e+2, -721579.5, -769270.0, 85595.09, 0.12755172, 0.08386736, -656570.3, -18591.348, 0.0, 9.999777, 9.999164 
7.049849e+2, 2.4490048e+2, -605947.5, -626778.6, 69176.27, 0.10080113, 0.12850201, -546407.06, -6425.696, 0.0, 9.99973, 9.999497 
7.049795e+2, 2.5489953e+2, -525551.8, -535086.56, 28520.242, 0.06993077, 0.043503474, -501403.25, -59414.797, 0.0, 9.999598, 9.999517 
7.0497364e+2, 2.648988e+2, -473964.7, -488374.84, -5467.6104, 0.0584762, 0.038921285, -472125.0, -128130.51, 0.0, 9.999408, 9.999256 
7.049673e+2, 2.74898e+2, -412001.56, -408258.25, -1069.0925, 0.080977775, -0.0026050666, -407974.44, -161971.31, 0.000000016182126, 9.999164, 9.999248 
7.0496106e+2, 2.8489754e+2, -254061.8, -268836.38, 20137.19, 0.09856113, 0.027070126, -239999.64, -91992.54, 0.0000030357212, 9.999514, 9.999369 
7.0495445e+2, 2.948973e+2, -42402.82, -116702.16, -10140.058, 0.09303959, 0.019806955, -41043.805, 8964.069, 0.000031540207, 10.000279, 9.999372 
7.0494854e+2, 3.0489695e+2, -74581.68, -164274.69, -25529.617, 0.15353243, 0.08422018, -67824.21, -67824.21, 0.00012311795, 10.000018, 9.998822 
7.049435e+2, 3.1489462e+2, -173989.58, -29173.063, 13418.726, 0.32023066, -0.07282905, -27940.178, -27940.178, 0.0002906225, 9.99846, 10.000502 
7.150467e+2, 1.24913365e+2, -1697656.1, -1656906.0, -84697.24, -0.073993124, 0.17159146, -1590167.5, 125695.93, 0.0, 9.99982, 10.000461 
7.1503973e+2, 1.3491313e+2, -1634842.0, -1668994.3, 917.19604, -0.18388197, 0.13854267, -1634817.4, -16955.387, 0.0, 10.000012, 9.99963 
7.150368e+2, 1.4491199e+2, -1569274.5, -1597620.3, 1014.745, 0.07906544, 0.08129617, -1569238.3, -49367.523, 0.0, 9.999843, 9.999498 
7.150305e+2, 1.5491109e+2, -1442983.1, -1485434.1, 22328.23, 0.022706866, -0.0051484373, -1433401.6, -11523.341, 0.0, 10.000038, 9.999504 
7.150242e+2, 1.6491105e+2, -1343537.0, -1408463.8, 24857.615, -0.033197492, 0.055174265, -1335113.1, -11233.311, 0.0, 10.000171, 9.999289 
7.1501863e+2, 1.7491147e+2, -1242771.9, -1314588.1, 50655.85, -0.020830674, 0.1354446, -1216588.1, 9290.944, 0.0, 10.000205, 9.999246 
7.150138e+2, 1.8491112e+2, -1134703.0, -1208338.4, 86990.73, -0.0057459753, 0.17994142, -1077059.5, 50822.793, 0.0, 10.0002365, 9.999302 
7.1500975e+2, 1.9490966e+2, -1034153.94, -1110848.9, 80975.5, 0.0069581117, 0.07202042, -982904.75, 46987.477, 0.0, 10.000263, 9.999287 
7.1500474e+2, 2.0490849e+2, -978646.94, -1078369.3, -21392.795, 0.02571826, 0.0534618, -974251.4, -42349.453, 0.0, 10.000165, 9.998878 
7.149988e+2, 2.1490729e+2, -937900.6, -1007987.94, -9491.842, 0.04685755, 0.00982386, -936637.94, -102723.375, 0.0, 9.999777, 9.998872 
7.149939e+2, 2.2490662e+2, -793624.1, -778861.0, 57367.934, 0.09196852, 0.012501285, -728401.7, 7517.572, 0.0, 9.999622, 9.9998455 
7.149902e+2, 2.3490614e+2, -702277.94, -685439.44, 99925.49, 0.1506915, -0.053126596, -593579.1, 44339.777, 0.0, 9.999585, 9.999835 
7.149851e+2, 2.4490528e+2, -676911.44, -734268.4, 48245.863, 0.11225852, -0.0677359, -649464.0, -109538.14, 0.0, 9.99956, 9.998844 
7.1497834e+2, 2.5490364e+2, -596881.75, -644011.56, 39158.59, -0.032421593, -0.14933603, -574744.4, -132800.92, 0.0, 9.999438, 9.998845 
7.1497226e+2, 2.6490358e+2, -437969.63, -404310.44, -31637.955, -0.052995354, -0.086043775, -385304.38, -41359.438, 0.0, 9.99936, 9.999862 
7.149666e+2, 2.749047e+2, -385421.97, -326970.34, 8071.707, 0.052488927, 0.0028820513, -325876.2, -79942.71, 0.000000020828322, 9.999047, 9.9998665 
7.1496093e+2, 2.849046e+2, -287673.1, -316898.22, 35065.293, 0.09904883, 0.05320419, -264297.5, -116364.195, 0.0000037854625, 9.999433, 9.999073 
7.1495485e+2, 2.94903e+2, -85276.29, -177288.66, 42635.555, 0.04982, -0.053685106, -68558.0, -18610.81, 0.000035842306, 10.0001745, 9.998999 
7.149479e+2, 3.0490106e+2, -146338.03, -319226.6, -94143.86, 0.046063125, -0.07891512, -104971.195, -104971.195, 0.000135526, 10.0000305, 9.997761 
7.149413e+2, 3.1490043e+2, -213903.67, -86912.41, 231.62764, 0.18119584, 0.03488695, -86911.984, -86911.984, 0.00031586387, 9.998337, 10.000176 
7.2504693e+2, 1.249199e+2, -1761574.1, -1683383.3, 79123.19, 0.011312428, 0.26404232, -1634223.8, 81578.85, 0.0, 9.999329, 10.000544 
7.2503996e+2, 1.3491884e+2, -1608138.9, -1622805.8, 26923.707, -0.15001838, 0.13042931, -1587567.8, 30237.965, 0.0, 10.000073, 9.999911 
7.250369e+2, 1.4491719e+2, -1496871.9, -1574265.6, 25619.256, 0.08689412, 0.0130988, -1489159.8, 30658.357, 0.0, 10.000379, 9.999418 
7.250311e+2, 1.5491702e+2, -1385580.3, -1462444.3, -17244.008, 0.064485155, 0.009355487, -1381888.9, 39930.82, 0.0, 10.000447, 9.9994755 
7.2502476e+2, 1.6491705e+2, -1300428.8, -1388933.8, -16039.259, 0.00969382, 0.078929216, -1297611.8, 26208.762, 0.0, 10.000429, 9.999325 
7.2501874e+2, 1.749169e+2, -1228135.1, -1300706.1, -39781.086, -0.024878828, 0.09766327, -1210576.8, 15247.36, 0.0, 10.000254, 9.999332 
7.2501403e+2, 1.8491644e+2, -1150693.0, -1203825.9, 43032.063, 0.0072475383, 0.12074962, -1126687.4, 1140.6223, 0.0, 10.00007, 9.999411 
7.250106e+2, 1.9491531e+2, -1087669.6, -1121768.6, 57573.74, 0.0904879, 0.03189261, -1044674.0, -14838.352, 0.0, 9.999829, 9.999417 
7.250057e+2, 2.0491463e+2, -1009227.25, -1068636.0, 22872.682, 0.12536295, 0.043652415, -1001441.5, -69600.36, 0.0, 9.9998665, 9.999093 
7.2499937e+2, 2.1491398e+2, -867144.5, -952816.5, 24130.035, 0.11914042, 0.039448563, -860815.7, -26967.234, 0.0, 10.000172, 9.999067 
7.2499394e+2, 2.2491331e+2, -733340.2, -763267.44, 94584.36, 0.120395616, 0.04051127, -652543.1, 83310.11, 0.0, 10.000093, 9.999735 
7.2498953e+2, 2.3491234e+2, -705683.6, -700819.9, 44209.523, 0.1381933, -0.06401523, -658975.4, -21117.082, 0.0, 9.999616, 9.999723 
7.249844e+2, 2.4491143e+2, -704557.6, -728062.3, 33435.78, 0.11507884, -0.0846302, -680868.94, -141003.64, 0.0, 9.999301, 9.999 
7.2497827e+2, 2.549103e+2, -610259.44, -635738.94, 56097.145, 0.034727, -0.13499664, -565473.6, -123596.06, 0.0, 9.99928, 9.998977 
7.249722e+2, 2.6491013e+2, -447084.63, -422335.8, 20425.1, 0.014630674, -0.07970226, -410829.03, -66949.664, 0.0, 9.999377, 9.999722 
7.249661e+2, 2.7491063e+2, -307022.8, -306755.28, -34060.188, 0.0821271, -0.03714606, -272828.6, -26954.717, 0.000000011844985, 9.999657, 9.999715 
7.2496057e+2, 2.849105e+2, -253698.25, -323575.0, 20275.215, 0.113409325, 0.027507799, -248241.39, -100366.555, 0.000004675658, 9.999784, 9.998848 
7.24955e+2, 2.9490936e+2, -159611.67, -237131.47, -6003.445, 0.08684761, -0.009850349, -159149.5, -109263.77, 0.000040333267, 9.999779, 9.998772 
7.249475e+2, 3.0490664e+2, -162085.98, -327476.53, -101640.414, 0.022639262, -0.0973912, -113749.64, -113749.64, 0.00014552829, 9.999932, 9.997758 
7.249411e+2, 3.149068e+2, -5229.987, -16008.416, -6314.8066, 0.26287302, 0.09585512, -2317.3694, -2317.3694, 0.00033116215, 9.999903, 9.999911 
7.350477e+2, 1.24926135e+2, -1791922.3, -1740826.6, 100516.79, 0.07854965, 0.25279403, -1662661.8, 53075.51, 0.0, 9.999318, 10.000144 
7.350407e+2, 1.3492432e+2, -1621672.9, -1651724.3, 59602.22, -0.11963395, 0.058718067, -1575231.5, 42516.31, 0.0, 10.000067, 9.999721 
7.3503685e+2, 1.4492233e+2, -1544230.5, -1648561.6, 7033.6235, 0.002792794, -0.06070779, -1543758.5, -23992.912, 0.0, 10.000288, 9.99894 
7.3503137e+2, 1.5492317e+2, -1428660.4, -1548252.9, 4189.231, 0.013969358, 0.08519985, -1428513.9, -6752.551, 0.0, 10.000432, 9.998892 
7.350252e+2, 1.6492315e+2, -1312162.1, -1407753.9, -39719.86, -0.026695864, 0.18442875, -1297812.1, 25951.967, 0.0, 10.000406, 9.999204 
7.350189e+2, 1.7492189e+2, -1247763.6, -1324577.1, -28842.85, -0.06451121, 0.10405771, -1238139.3, -12362.449, 0.0, 10.000177, 9.9992075 
7.350141e+2, 1.8492137e+2, -1118414.6, -1101604.0, 19685.193, -0.020247474, 0.089158975, -1088604.8, 39175.375, 0.0, 9.999927, 10.000175 
7.350106e+2, 1.9492124e+2, -1057650.1, -1021223.0, 61976.184, 0.08655294, 0.022920966, -974839.5, 54937.496, 0.0, 9.999678, 10.000173 
7.35006e+2, 2.0492144e+2, -998241.6, -1013526.4, 17293.996, 0.14544132, 0.06394849, -986976.6, -55203.7, 0.0, 9.999722, 9.999542 
7.3500013e+2, 2.1492161e+2, -863505.5, -896273.44, 50949.082, 0.15088108, 0.09444938, -826370.8, 7400.438, 0.0, 9.999963, 9.999553 
7.34994e+2, 2.2492105e+2, -829871.2, -913801.6, 61130.3, 0.090393834, 0.12679122, -797687.94, -61909.92, 0.0, 9.99988, 9.998802 
7.3498756e+2, 2.3491937e+2, -803193.75, -851642.0, 43030.824, -0.047184817, 0.046471767, -778037.1, -140240.45, 0.0, 9.999403, 9.998786 
7.349826e+2, 2.4491899e+2, -651299.0, -592149.2, 17558.365, -0.030304015, 0.07590768, -587329.75, -47530.43, 0.0, 9.999186, 9.99999 
7.349789e+2, 2.5491953e+2, -566378.2, -503108.97, 70499.61, 0.1386756, 0.09537291, -457471.7, -15682.391, 0.0, 9.999101, 9.999973 
7.349732e+2, 2.6491868e+2, -531773.0, -570519.3, 18539.56, 0.14706765, 0.077105954, -524331.4, -180535.78, 0.0, 9.999257, 9.99876 
7.349654e+2, 2.749159e+2, -391250.66, -458763.56, -426.7303, 0.007276429, -0.11125899, -391247.97, -145424.97, 0.000000051096855, 9.99956, 9.998717 
7.3495936e+2, 2.8491524e+2, -259028.75, -341516.16, 5038.781, -0.020678839, -0.04109857, -258722.1, -110891.28, 0.0000058850314, 9.999801, 9.99872 
7.349547e+2, 2.9491645e+2, -181054.66, -266635.53, 16761.46, 0.030554958, 0.16234793, -177888.94, -128066.5, 0.000044056193, 9.999704, 9.99861 
7.349469e+2, 3.049138e+2, -97217.8, -187248.02, -108182.234, -0.06257354, 0.041276332, -25058.867, -25058.867, 0.00015023243, 9.999908, 9.998731 
7.349414e+2, 3.1491324e+2, -34899.605, -52951.168, 22776.625, 0.21861868, 0.07009667, -19425.605, -19425.605, 0.0003329124, 9.999797, 9.999706 
7.450472e+2, 1.2493043e+2, -1704647.5, -1717828.3, 111625.52, 0.09025606, 0.1509446, -1599417.9, 116272.2, 0.0, 10.000024, 9.999941 
7.450418e+2, 1.3492964e+2, -1567081.0, -1603499.9, 9870.503, -0.015160242, 0.043693285, -1564577.9, 53115.254, 0.0, 10.000376, 9.9998865 
7.4503744e+2, 1.4492826e+2, -1537423.3, -1620345.5, 9319.392, 0.04575205, -0.03502904, -1536388.8, -16682.34, 0.0, 10.000226, 9.999157 
7.4503165e+2, 1.5492919e+2, -1501611.6, -1552463.9, 20163.74, 0.038846705, 0.09195214, -1494586.8, -72884.86, 0.0, 9.999813, 9.9991455 
7.4502563e+2, 1.6492917e+2, -1373072.0, -1416280.9, 66681.66, 0.008244186, 0.17203517, -1324582.3, -878.70776, 0.0, 9.999907, 9.999383 
7.4502e+2, 1.7492785e+2, -1177267.6, -1266166.3, 68263.37, 0.008624143, 0.0641145, -1140257.5, 85457.66, 0.0, 10.000558, 9.999422 
7.450149e+2, 1.8492734e+2, -1038311.1, -1080904.8, 100955.78, 0.043471202, 0.046606533, -956430.3, 171288.06, 0.0, 10.00054, 10.00003 
7.450104e+2, 1.9492723e+2, -1053349.5, -1041300.06, 47126.277, 0.09650976, 0.00091057114, -999814.94, 29902.113, 0.0, 9.999781, 9.999995 
7.450055e+2, 2.0492756e+2, -1006001.6, -979007.3, 22982.68, 0.14422217, 0.045988586, -965851.56, -34139.45, 0.0, 9.999496, 9.999874 
7.4500024e+2, 2.14928e+2, -874865.3, -867824.2, 12474.943, 0.18566482, 0.06791933, -858382.56, -24675.857, 0.0, 9.999729, 9.999857 
7.4499416e+2, 2.2492762e+2, -864697.56, -960760.3, 51459.055, 0.13233422, 0.114789285, -842336.9, -106624.47, 0.0, 9.999777, 9.998522 
7.449872e+2, 2.3492602e+2, -793013.9, -883754.1, 48359.5, -0.0264466, 0.069604024, -772073.44, -134340.42, 0.0, 9.999611, 9.99847 
7.449821e+2, 2.4492572e+2, -598983.3, -548451.7, 60117.934, -0.0040559843, 0.11743322, -508506.1, 31229.395, 0.0, 9.999462, 10.000164 
7.4497885e+2, 2.5492647e+2, -495220.56, -445659.97, 17278.6, 0.20821413, 0.13900682, -440230.78, 1491.5336, 0.0, 9.999487, 10.000184 
7.449732e+2, 2.6492542e+2, -510916.0, -592357.94, 258.74518, 0.21880674, 0.10616267, -510915.2, -167185.2, 0.0, 9.999546, 9.998467 
7.449653e+2, 2.7492213e+2, -400582.34, -487261.2, -627.50916, 0.044796735, -0.104688786, -400577.8, -154815.22, 0.00000017449423, 9.99963, 9.998472 
7.449591e+2, 2.8492123e+2, -322991.06, -369221.84, 49437.203, 0.0017956333, -0.049226914, -291532.13, -143758.64, 0.0000070145306, 9.999353, 9.998747 
7.4495435e+2, 2.9492238e+2, -313212.56, -319113.56, 37262.85, 0.07974405, 0.14629754, -278783.6, -229017.67, 0.00004543542, 9.998749, 9.998711 
7.449466e+2, 3.0492055e+2, -119871.85, -138197.63, -9309.706, -0.054133557, 0.075004175, -115972.23, -115972.23, 0.00014809403, 9.999492, 9.999266 
7.449425e+2, 3.149195e+2, 153453.78, 36144.293, -2522.8308, 0.2993148, 0.00042114442, 153508.02, 153508.02, 0.00032280377, 10.001107, 9.999676 
7.550451e+2, 1.2493263e+2, -1707316.5, -1710758.0, 82238.27, -0.20558871, -0.07466329, -1626781.0, 88881.85, 0.0, 9.999973, 10.000015 
7.5504297e+2, 1.3493477e+2, -1536661.1, -1542807.8, 36280.227, 0.026962297, 0.06734294, -1503324.3, 114317.945, 0.0, 10.000377, 10.00031 
7.550384e+2, 1.4493497e+2, -1480391.6, -1488248.8, -26067.166, 0.07514407, 0.08049712, -1457958.6, 61682.32, 0.0, 10.0001745, 10.000087 
7.5503135e+2, 1.5493521e+2, -1444531.1, -1419976.8, 18981.9, -0.012085396, 0.050378006, -1409647.8, 11992.045, 0.0, 9.999757, 10.000085 
7.550255e+2, 1.6493519e+2, -1342317.5, -1338990.5, 71543.766, -0.030873181, 0.051968995, -1269090.9, 54547.81, 0.0, 9.999846, 9.999943 
7.550213e+2, 1.7493473e+2, -1149838.5, -1195468.4, 107743.586, 0.05293869, -0.020042514, -1062520.8, 163118.58, 0.0, 10.000501, 9.999934 
7.550159e+2, 1.8493427e+2, -1119770.9, -1228490.1, 54541.69, 0.0628948, -0.006763569, -1097125.5, 30517.72, 0.0, 10.000445, 9.999066 
7.5500935e+2, 1.9493341e+2, -1140875.8, -1187557.6, 34311.31, -0.016511893, -0.031708706, -1122718.9, -93064.16, 0.0, 9.999634, 9.999062 
7.550038e+2, 2.0493314e+2, -1022493.06, -972713.25, 15873.295, -0.007058608, -0.006792813, -968082.5, -36424.918, 0.0, 9.999318, 10.00001 
7.549993e+2, 2.1493317e+2, -897629.44, -858550.44, 36013.348, 0.08900564, -0.0385629, -837117.3, -3463.1287, 0.0, 9.999499, 10.000029 
7.549941e+2, 2.2493306e+2, -866061.6, -921244.44, 30984.604, 0.11780124, 0.009339155, -852164.1, -116508.48, 0.0, 9.99959, 9.998886 
7.54988e+2, 2.3493241e+2, -799216.9, -845191.2, 58781.254, 0.06975996, 0.025141219, -759087.94, -121422.28, 0.0, 9.999393, 9.99884 
7.549825e+2, 2.4493189e+2, -667055.6, -657381.7, 46344.254, 0.0607451, 0.06349369, -615622.7, -75951.35, 0.0, 9.999319, 9.999484 
7.549774e+2, 2.5493103e+2, -561864.94, -556646.75, 33973.203, 0.08882502, -0.0073283627, -525182.6, -83505.555, 0.0, 9.999368, 9.999478 
7.5497174e+2, 2.649303e+2, -489301.56, -532648.2, -11829.476, 0.08449192, 0.007507315, -486283.4, -142600.34, 0.0, 9.999483, 9.998908 
7.5496536e+2, 2.749294e+2, -389889.6, -435871.28, 20545.98, 0.053347103, -0.008649177, -382046.75, -136354.36, 0.0000002213921, 9.999502, 9.998889 
7.5495934e+2, 2.849285e+2, -320538.4, -349146.94, 13594.132, 0.056651145, 0.015404179, -315109.13, -167406.86, 0.000006961638, 9.999282, 9.998923 
7.549534e+2, 2.9492712e+2, -308063.4, -294128.84, 39639.33, 0.058804527, -0.054530464, -260849.14, -211132.38, 0.00004401986, 9.998673, 9.998926 
7.5494576e+2, 3.0492666e+2, -123604.47, -122063.695, 45178.355, -0.11530468, -0.010885525, -77649.16, -77649.16, 0.0001416952, 9.999413, 9.9994 
7.549433e+2, 3.149268e+2, 140884.19, 42651.15, 61885.56, 0.1848947, 0.017300451, 170775.61, 170775.61, 0.0003069929, 10.000984, 9.999769 
7.650459e+2, 1.2493761e+2, -1642829.3, -1683777.3, 150770.61, -0.12762971, -0.11698305, -1511148.9, 204461.63, 0.00000000032551553, 10.000376, 10.00002 
7.6504296e+2, 1.3493994e+2, -1744709.5, -1625151.9, 34943.633, 0.07820274, 0.024810186, -1615687.9, 1901.847, 0.0, 9.998851, 10.00048 
7.6503754e+2, 1.4494088e+2, -1691271.3, -1542575.0, 35969.195, 0.07024112, 0.08056987, -1534331.1, -14749.976, 0.0, 9.998492, 10.000542 
7.650317e+2, 1.5494126e+2, -1391775.3, -1343076.0, 16779.92, 0.05150409, 0.015881391, -1337854.3, 83722.664, 0.0, 9.999868, 10.000575 
7.650263e+2, 1.6494136e+2, -1280095.5, -1301634.9, 56397.992, 0.049466383, 0.0006161114, -1233448.1, 90125.94, 0.0, 10.000252, 9.999997 
7.650217e+2, 1.7494091e+2, -1279067.3, -1252973.4, 24443.799, 0.09457451, -0.07468153, -1238312.5, -12737.328, 0.0, 9.999596, 9.999973 
7.650161e+2, 1.8494073e+2, -1252788.5, -1279607.1, 18078.604, 0.08895301, -0.046393577, -1243689.0, -116111.984, 0.0, 9.999489, 9.9991665 
7.650094e+2, 1.949403e+2, -1089991.1, -1155145.0, 43639.645, 0.015824797, -0.03736017, -1068110.0, -38525.65, 0.0, 9.999945, 9.999135 
7.650037e+2, 2.0493996e+2, -923472.7, -961403.6, 88474.47, 0.016529325, -0.005423542, -851953.8, 79634.7, 0.0, 10.000166, 9.99968 
7.64999e+2, 2.1493931e+2, -826068.1, -868061.1, 44174.973, 0.08626275, -0.070706464, -798153.7, 35439.66, 0.0, 10.00016, 9.999657 
7.649939e+2, 2.2493897e+2, -771195.56, -846488.8, 36512.285, 0.123440444, -0.037945375, -756397.75, -20801.223, 0.0, 10.00013, 9.999139 
7.6498824e+2, 2.349387e+2, -674544.56, -752045.3, 22349.967, 0.12243431, -0.012700621, -668561.1, -30960.38, 0.0, 10.000123, 9.999118 
7.649826e+2, 2.4493797e+2, -612311.5, -685801.06, 40151.93, 0.1181963, 0.016271405, -594628.75, -55019.965, 0.0, 9.999929, 9.998997 
7.64977e+2, 2.5493652e+2, -581662.56, -621862.25, 15259.951, 0.11043898, -0.06611124, -576526.1, -134902.31, 0.0, 9.999472, 9.998983 
7.649712e+2, 2.649361e+2, -478288.4, -481814.53, 17844.834, 0.09514322, -0.013885957, -462119.75, -118491.53, 0.0, 9.999368, 9.999314 
7.649652e+2, 2.7493647e+2, -345654.25, -369274.56, 12178.666, 0.08729625, 0.05727934, -340499.75, -94875.03, 0.00000016204108, 9.999612, 9.999299 
7.6495934e+2, 2.8493568e+2, -227128.88, -305584.94, 23984.465, 0.10882353, 0.07483546, -220377.64, -72744.81, 0.000006290961, 9.999932, 9.9989 
7.6495355e+2, 2.9493344e+2, -80088.086, -176488.13, 324.62003, 0.14402792, -0.085389726, -80086.99, -30431.732, 0.000041719115, 10.000239, 9.998956 
7.6494616e+2, 3.0493313e+2, -1795.0896, -93746.09, 44720.188, -0.04844528, -0.013179935, 16367.087, 16367.087, 0.00013461517, 10.000357, 9.999156 
7.649432e+2, 3.149334e+2, -45056.332, -21255.412, -53410.594, 0.15904456, 0.05639259, 21564.44, 21564.44, 0.00029005748, 9.999574, 10.0000305 
7.7504873e+2, 1.24945216e+2, -1652837.0, -1685703.4, 909.41833, 0.029452963, 0.008287909, -1652811.9, 62722.74, 0.0000000023621072, 10.000303, 10.000043 
7.750412e+2, 1.349451e+2, -1755070.8, -1643554.3, -17860.498, -0.019251443, -0.076203205, -1640763.5, -23226.99, 0.0, 9.998844, 10.0003605 
7.750344e+2, 1.4494595e+2, -1675758.5, -1508030.0, 63368.45, -0.13827798, -0.03862489, -1486781.0, 32747.023, 0.0, 9.998478, 10.000787 
7.750322e+2, 1.5494744e+2, -1380271.4, -1315583.9, 86971.016, 0.08109861, -0.0091128955, -1255137.1, 166374.98, 0.0, 9.999852, 10.0007715 
7.750275e+2, 1.6494781e+2, -1319572.0, -1366734.4, 14214.527, 0.115761615, 0.015082676, -1315619.1, 7889.2476, 0.0, 10.000185, 9.999582 
7.7502066e+2, 1.7494658e+2, -1314070.6, -1311009.0, 17903.06, -0.002463661, -0.09960051, -1294571.5, -69050.305, 0.0, 9.999539, 9.9996 
7.750148e+2, 1.8494675e+2, -1190254.0, -1127386.8, 20630.105, -0.018272186, -0.070853814, -1121221.5, 6297.429, 0.0, 9.999382, 10.000272 
7.7501e+2, 1.9494802e+2, -1031914.06, -1002450.56, 76958.984, 0.05393487, -0.0024280294, -938826.0, 90678.35, 0.0, 9.999802, 10.000256 
7.750047e+2, 2.0494813e+2, -1008493.75, -1092262.9, 72293.28, 0.07342607, 0.05663154, -966828.1, -35324.063, 0.0, 9.999973, 9.998871 
7.74999e+2, 2.1494663e+2, -915692.4, -1001070.4, 57724.563, 0.04438222, -0.010610514, -886586.7, -53064.566, 0.0, 9.999943, 9.998844 
7.7499324e+2, 2.2494562e+2, -794548.44, -848413.6, 19173.371, 0.01707934, -0.008929702, -788420.75, -52887.844, 0.0, 9.999925, 9.999229 
7.749873e+2, 2.3494472e+2, -693765.56, -750737.8, 37270.977, -0.013580427, -0.054071534, -675341.3, -37801.57, 0.0, 9.999941, 9.99922 
7.749819e+2, 2.4494392e+2, -654191.56, -732168.56, 7361.5444, 0.029767603, -0.02627071, -653502.7, -113954.08, 0.0, 9.999763, 9.998758 
7.749771e+2, 2.5494298e+2, -624363.8, -667485.94, 15119.725, 0.14266253, -0.031081477, -619590.75, -178028.9, 0.0, 9.999295, 9.998753 
7.749712e+2, 2.6494288e+2, -471095.88, -444248.9, 12922.723, 0.13127935, 0.046379633, -439039.44, -95474.79, 0.0, 9.9992695, 9.999622 
7.7496415e+2, 2.7494308e+2, -337942.22, -330632.72, 38801.992, -0.00982643, 0.07592822, -295313.72, -49751.984, 0.00000014054619, 9.999511, 9.999618 
7.749586e+2, 2.8494257e+2, -254722.45, -341256.44, 21381.857, 0.0058081592, 0.11347161, -249727.48, -102160.23, 0.0000059856334, 9.999845, 9.998693 
7.749546e+2, 2.9494104e+2, -106533.59, -219570.08, 34059.508, 0.17334512, 0.04378493, -97064.25, -47480.62, 0.0000396548, 10.000182, 9.998688 
7.7494746e+2, 3.0493996e+2, -48062.16, -169008.44, 7547.592, 0.01612226, 0.07298301, -47592.977, -47592.977, 0.00012692052, 10.000283, 9.9986725 
7.749413e+2, 3.149392e+2, -50342.52, 3852.0596, -54692.203, -0.060356777, 0.097777255, 37791.645, 37791.645, 0.00027215088, 9.99942, 10.000281 
7.8505045e+2, 1.24951884e+2, -1764693.0, -1727331.4, 7491.0747, 0.23625492, 0.034626473, -1725885.4, -10417.062, 0.0000000040597263, 9.999531, 10.000106 
7.850407e+2, 1.3495108e+2, -1555955.8, -1559394.1, -45085.254, -0.015429563, -0.10616843, -1512556.9, 104919.75, 0.0, 10.000298, 10.000216 
7.85033e+2, 1.4495175e+2, -1458486.4, -1421820.6, 79691.53, -0.19721708, -0.069984354, -1358380.4, 161089.31, 0.0, 10.000062, 10.000609 
7.850321e+2, 1.5495309e+2, -1512833.4, -1401137.3, 35775.27, 0.1350286, -0.03433983, -1390661.3, 30794.209, 0.0, 9.999048, 10.000567 
7.850279e+2, 1.6495356e+2, -1482845.3, -1443082.5, 644.2632, 0.20116647, 0.009062146, -1443072.1, -119620.45, 0.0, 9.999047, 9.999604 
7.850206e+2, 1.7495273e+2, -1253488.5, -1279031.5, -1590.9813, 0.022716748, -0.06738916, -1253389.9, -27927.697, 0.0, 9.999948, 9.999619 
7.8501475e+2, 1.8495299e+2, -1057374.6, -1030902.3, 9264.984, 0.007976843, -0.04501617, -1027981.9, 99476.91, 0.0, 10.000162, 10.000552 
7.850105e+2, 1.94954e+2, -1051754.5, -978177.9, -28438.346, 0.14434141, -0.03142912, -968467.6, 60977.113, 0.0, 9.999539, 10.000538 
7.8500515e+2, 2.0495418e+2, -1081491.5, -1136022.5, 8542.377, 0.15640604, 0.025639934, -1080184.8, -148741.27, 0.0, 9.999498, 9.998806 
7.849989e+2, 2.1495315e+2, -924859.75, -1011161.8, 20398.012, 0.04923183, 0.013105966, -920281.44, -86822.805, 0.0, 9.999906, 9.998795 
7.8499293e+2, 2.2495227e+2, -775018.9, -814908.94, 32668.26, 0.0075270156, 0.018202001, -756688.4, -21219.918, 0.0, 9.999951, 9.999443 
7.849874e+2, 2.3495117e+2, -733204.7, -748189.06, 28216.93, 0.025911635, -0.06811241, -711502.2, -74026.16, 0.0, 9.999577, 9.999415 
7.849819e+2, 2.449506e+2, -669816.1, -714107.9, 55583.53, 0.074688695, -0.036409188, -632129.2, -92647.125, 0.0, 9.999552, 9.998976 
7.8497666e+2, 2.5495028e+2, -524352.06, -597078.3, 64379.25, 0.15141927, -0.0017630312, -486776.25, -45286.754, 0.0, 9.999878, 9.998954 
7.849707e+2, 2.6495004e+2, -401145.6, -455837.13, 87070.58, 0.13120206, 0.073016815, -337227.6, 6266.8066, 0.0, 9.999951, 9.999211 
7.8496397e+2, 2.7494946e+2, -330312.06, -372971.28, 25499.127, 0.021022119, 0.0633627, -318397.75, -72896.91, 0.0000001311964, 9.999764, 9.9992 
7.8495854e+2, 2.8494883e+2, -292627.8, -363449.7, 22545.729, 0.040139508, 0.1110031, -286059.66, -138551.39, 0.0000058891046, 9.999596, 9.99867 
7.8495455e+2, 2.94948e+2, -238115.23, -291302.22, 13196.428, 0.20515591, 0.119517215, -235021.02, -185503.6, 0.000037489564, 9.999304, 9.998631 
7.849481e+2, 3.0494618e+2, -145625.83, -224421.95, 49504.035, 0.09845843, 0.086105004, -121755.76, -121755.76, 0.00011865352, 9.99963, 9.998607 
7.849416e+2, 3.149457e+2, 64545.832, 60800.78, -62984.137, -0.00057445036, 0.13103707, 125685.27, 125685.27, 0.00025448482, 10.000186, 10.000299 
7.950501e+2, 1.2495815e+2, -1749013.1, -1720461.0, -46631.363, 0.16110672, -0.005992745, -1685969.4, 29437.123, 0.0000000034592607, 9.999625, 10.000115 
7.9504085e+2, 1.3495788e+2, -1559488.1, -1582880.9, -6914.012, -0.07415217, -0.07343879, -1557597.5, 59812.246, 0.0, 10.000356, 10.000029 
7.9503286e+2, 1.4495832e+2, -1512714.1, -1521742.5, 18190.217, -0.2640206, -0.019354392, -1498486.4, 20919.512, 0.0, 10.000016, 9.99994 
7.950309e+2, 1.5495822e+2, -1559134.3, -1492232.3, 16240.896, 0.06510061, -0.06864174, -1488498.1, -67091.33, 0.0, 9.999034, 9.999943 
7.9502684e+2, 1.6495866e+2, -1455409.5, -1382641.3, 17276.158, 0.15648994, -0.01785892, -1378747.9, -55344.637, 0.0, 9.99902, 10.00004 
7.9502094e+2, 1.749594e+2, -1222450.9, -1216553.1, 48063.383, 0.02504411, 0.020177051, -1171348.3, 54049.336, 0.0, 9.999942, 10.000055 
7.9501545e+2, 1.8495941e+2, -1119470.8, -1128959.1, -29725.084, 0.023726901, 0.026137155, -1094113.6, 33283.426, 0.0, 10.000037, 9.999935 
7.950103e+2, 1.9495821e+2, -1109018.8, -1069476.1, -37025.574, 0.13727811, -0.12447879, -1047273.6, -17867.793, 0.0, 9.999426, 9.999961 
7.950046e+2, 2.0495814e+2, -1054814.3, -1040730.44, 6662.505, 0.121969216, -0.09985288, -1038078.1, -106671.46, 0.0, 9.999327, 9.999542 
7.949982e+2, 2.1495885e+2, -901840.44, -919149.5, 51428.758, -0.03589921, -0.016954571, -858343.1, -24939.563, 0.0, 9.999714, 9.999518 
7.949927e+2, 2.2495894e+2, -786541.0, -786996.1, 5759.9697, -0.038698465, 0.03663195, -781004.1, -45600.902, 0.0, 9.999729, 9.999742 
7.9498804e+2, 2.3495813e+2, -736784.3, -716342.75, 32150.277, 0.10795236, -0.049984172, -692827.75, -55419.0, 0.0, 9.999403, 9.999718 
7.949822e+2, 2.4495809e+2, -648128.6, -629899.7, 52618.99, 0.11499796, -0.016575925, -585611.6, -46202.87, 0.0, 9.999388, 9.999632 
7.949751e+2, 2.5495836e+2, -503862.53, -516142.0, 93412.49, -0.022048514, 0.017623339, -416388.22, 25018.934, 0.0, 9.999715, 9.999588 
7.9496914e+2, 2.6495767e+2, -489428.1, -621887.9, 66431.86, -0.052291702, 0.06692142, -461851.84, -118434.7, 0.0, 9.999868, 9.998112 
7.9496425e+2, 2.7495563e+2, -423601.47, -547670.94, 41004.973, 0.032068998, 0.020283671, -411274.16, -165832.25, 0.000000103459534, 9.999677, 9.998044 
7.949589e+2, 2.8495452e+2, -290693.03, -344887.72, -1271.4342, 0.07587985, 0.07726674, -290663.22, -143208.63, 0.0000054454867, 9.999534, 9.998827 
7.9495275e+2, 2.9495424e+2, -242385.83, -274834.06, 27198.037, 0.053563748, 0.12191407, -226940.47, -177483.45, 0.00003447301, 9.999192, 9.9988 
7.9494745e+2, 3.04952e+2, -135877.67, -183792.92, 67666.45, 0.036655013, 0.017123742, -88052.875, -88052.875, 0.0001104858, 9.999542, 9.998924 
7.949431e+2, 3.1495112e+2, 20770.922, -757.30304, 2976.9575, 0.052842025, -0.007013923, 21174.996, 21174.996, 0.000240168, 10.000058, 9.999935 
8.050487e+2, 1.2496371e+2, -1850424.1, -1761748.8, -63709.535, 0.11724681, -0.04291181, -1728467.4, -13114.479, 0.0000000057252847, 9.998907, 10.000195 
8.050416e+2, 1.349642e+2, -1654463.5, -1653342.1, -54083.645, 0.01722021, -0.010832985, -1599816.3, 17534.055, 0.0, 9.999793, 9.999843 
8.050341e+2, 1.4496459e+2, -1535330.8, -1531104.5, -17360.668, -0.11466914, 0.049270187, -1515728.8, 3618.294, 0.0, 9.999861, 9.999949 
8.050301e+2, 1.549639e+2, -1502261.3, -1471262.1, -15825.068, 0.07707116, -0.055335727, -1464610.6, -43258.313, 0.0, 9.999446, 9.999895 
8.0502564e+2, 1.6496426e+2, -1430575.9, -1323257.1, 77515.4, 0.1437604, -0.02961061, -1282640.5, 40707.957, 0.0, 9.999013, 10.000447 
8.050209e+2, 1.7496549e+2, -1388065.8, -1255468.6, 69567.99, 0.10485196, 0.020292696, -1225667.3, -329.8062, 0.0, 9.998644, 10.000419 
8.050155e+2, 1.8496567e+2, -1315878.0, -1230729.5, 24998.256, 0.10398151, 0.031979308, -1223933.0, -96597.695, 0.0, 9.998734, 9.999861 
8.050094e+2, 1.9496444e+2, -1153578.0, -1106529.8, 19681.451, 0.12568069, -0.110130414, -1099382.4, -70036.27, 0.0, 9.999193, 9.999827 
8.0500364e+2, 2.049644e+2, -1015459.4, -986272.5, 103479.37, 0.09861227, -0.09030319, -896362.6, 34984.27, 0.0, 9.999443, 9.999864 
8.049982e+2, 2.1496524e+2, -929671.9, -895801.8, 81381.805, 0.021428015, -0.023955273, -829611.7, 3729.4985, 0.0, 9.99937, 9.999842 
8.049929e+2, 2.2496556e+2, -826430.56, -792914.25, 31427.61, 0.03912241, 0.02969029, -774055.94, -38717.523, 0.0, 9.999402, 9.999851 
8.049877e+2, 2.3496507e+2, -722493.44, -695850.7, 12605.947, 0.14292207, -0.037362907, -690831.7, -53490.02, 0.0, 9.999455, 9.999824 
8.049816e+2, 2.4496518e+2, -633025.3, -619729.06, 43624.67, 0.1244655, 0.005490209, -582248.9, -42908.543, 0.0, 9.999457, 9.999679 
8.0497473e+2, 2.549655e+2, -552225.0, -533879.4, 7228.7095, -0.0056421347, 0.036656395, -531373.4, -90034.97, 0.0, 9.999347, 9.999653 
8.049691e+2, 2.6496476e+2, -527620.2, -642539.9, 34774.098, -0.021349521, 0.077811025, -517917.0, -174568.34, 0.0, 9.999604, 9.998107 
8.0496466e+2, 2.7496248e+2, -339539.4, -503419.3, 63870.305, 0.09106361, 0.009021731, -317587.25, -72212.38, 0.00000004701224, 10.000221, 9.998093 
8.049593e+2, 2.8496134e+2, -136650.83, -292360.34, 80646.086, 0.11779019, 0.063064344, -102411.195, 44977.16, 0.000004093495, 10.000683, 9.998635 
8.0495274e+2, 2.9496098e+2, 18934.59, -166452.88, 44555.777, 0.05045215, 0.118381195, 29087.08, 78478.914, 0.000029631305, 10.001069, 9.998638 
8.0494803e+2, 3.049591e+2, 70233.34, -82336.11, 87904.64, 0.09012299, 0.05907429, 110338.414, 110338.414, 0.00010221737, 10.000939, 9.998967 
8.0494416e+2, 3.1495813e+2, -46548.12, -78450.164, -42780.81, 0.17676732, 0.022427151, -16841.365, -16841.365, 0.00023173698, 9.999791, 9.999543 
8.1504524e+2, 1.24968864e+2, -1839160.0, -1756788.8, -97349.32, -0.20412189, -0.04871461, -1692271.3, 23032.969, 0.000000004999778, 9.99898, 10.000196 
8.150426e+2, 1.349702e+2, -1659985.1, -1671885.3, -9922.65, 0.0926416, 0.08031739, -1654365.3, -37068.555, 0.0, 9.999834, 9.999689 
8.1503636e+2, 1.449708e+2, -1493690.8, -1453158.5, -54078.996, 0.07477864, 0.14509518, -1415673.0, 103618.06, 0.0, 9.999887, 10.000479 
8.150294e+2, 1.5497029e+2, -1460484.9, -1385200.6, -15825.298, 0.017280947, 0.005315962, -1382009.4, 39281.516, 0.0, 9.999446, 10.000487 
8.150237e+2, 1.6497047e+2, -1422517.3, -1293088.5, 45840.293, 0.020098945, -0.02848358, -1278497.9, 44788.496, 0.0, 9.998956, 10.000679 
8.1501997e+2, 1.7497101e+2, -1375819.5, -1217169.1, 72388.875, 0.11331409, -0.07666985, -1189104.3, 36176.645, 0.0, 9.998595, 10.000698 
8.1501454e+2, 1.8497188e+2, -1304332.8, -1189339.6, 27636.566, 0.10262819, -0.029217629, -1183042.5, -55769.902, 0.0, 9.998648, 10.000193 
8.1500727e+2, 1.9497272e+2, -1145942.6, -1067583.9, 54568.563, -0.040398873, 0.0050180736, -1039586.25, -10321.521, 0.0, 9.999084, 10.000147 
8.150019e+2, 2.0497301e+2, -1058671.6, -1031336.1, 84299.05, -0.04417066, 0.052681223, -959604.0, -28340.906, 0.0, 9.99925, 9.999648 
8.149985e+2, 2.1497239e+2, -971981.1, -935637.94, 95396.445, 0.08869468, -0.0073184925, -856697.75, -23426.785, 0.0, 9.999162, 9.999668 
8.149932e+2, 2.2497217e+2, -864419.4, -817682.1, 16046.454, 0.101663075, 0.0016146929, -812703.25, -77429.46, 0.0, 9.999173, 9.999791 
8.149858e+2, 2.3497191e+2, -759229.5, -720076.1, 30207.145, -0.020840857, -0.035384744, -703656.75, -66381.37, 0.0, 9.999234, 9.999763 
8.1497973e+2, 2.4497186e+2, -701125.25, -716196.5, 23090.764, -0.033252675, 0.022765094, -684371.6, -145094.17, 0.0, 9.999265, 9.999111 
8.1497514e+2, 2.549717e+2, -618118.6, -631874.3, 18997.768, 0.068268046, 0.06306609, -604792.0, -163508.95, 0.0, 9.99918, 9.999063 
8.1497014e+2, 2.649713e+2, -459719.5, -472357.72, 42919.555, 0.09684194, 0.10719092, -422656.38, -79367.34, 0.0, 9.999487, 9.999328 
8.149647e+2, 2.749701e+2, -284056.03, -340962.06, 107230.74, 0.043172807, 0.028676352, -201567.6, 43731.926, 0.000000004527389, 10.0000305, 9.999297 
8.1495935e+2, 2.8496918e+2, -187511.1, -382321.3, 80278.484, 0.018862233, 0.07067748, -158692.63, -11382.908, 0.0000024308686, 10.000606, 9.998057 
8.1495404e+2, 2.9496825e+2, -44998.55, -272989.6, 83842.12, 0.024350818, 0.13089907, -17486.197, 31835.047, 0.00002455122, 10.000956, 9.997963 
8.149496e+2, 3.0496737e+2, 51344.527, -113024.83, 34304.27, 0.11326747, 0.22042088, 58216.594, 58216.594, 0.00009685274, 10.000916, 9.99876 
8.149432e+2, 3.1496626e+2, -103494.56, -137554.69, -13213.762, 0.025928516, 0.18511236, -98969.43, -98969.43, 0.00023260372, 9.999565, 9.999239 
8.250453e+2, 1.2497426e+2, -1737178.0, -1671960.9, -31596.746, -0.103904575, -0.065357685, -1659163.8, 56089.72, 0.0000000017683296, 9.9995165, 10.000517 
8.2504195e+2, 1.3497621e+2, -1717182.9, -1682802.3, 35079.645, 0.08508052, 0.10328115, -1660927.4, -43689.34, 0.0, 9.999351, 9.999855 
8.250363e+2, 1.4497669e+2, -1567129.4, -1464093.0, 24368.25, 0.12268326, 0.13698569, -1458620.5, 60612.195, 0.0, 9.99929, 10.000685 
8.250297e+2, 1.5497626e+2, -1413305.3, -1342246.0, -5571.821, 0.09832481, -0.014758587, -1341811.8, 79419.98, 0.0, 9.999695, 10.000651 
8.250236e+2, 1.6497646e+2, -1331536.3, -1264244.1, 42279.586, 0.089324094, -0.04980815, -1243856.6, 79370.875, 0.0, 9.9996195, 10.000563 
8.2501876e+2, 1.74977e+2, -1337448.3, -1219598.9, 6906.19, 0.1250734, -0.08442655, -1219195.5, 6027.401, 0.0, 9.998916, 10.000539 
8.2501304e+2, 1.8497813e+2, -1249291.9, -1117798.1, 21121.463, 0.09272187, -0.02301092, -1114488.8, 12723.385, 0.0, 9.998824, 10.000598 
8.250065e+2, 1.9497946e+2, -1081250.4, -992570.2, 19499.05, -0.034014974, 0.018660532, -988472.1, 40726.855, 0.0, 9.999333, 10.00054 
8.250015e+2, 2.0497993e+2, -1006645.2, -1002507.4, 74310.21, -0.021041691, 0.060891427, -930237.25, 957.9504, 0.0, 9.999595, 9.999668 
8.249984e+2, 2.1497922e+2, -914174.5, -909998.8, 65516.363, 0.14056697, -0.008431977, -846537.06, -13333.254, 0.0, 9.999564, 9.999651 
8.249929e+2, 2.2497898e+2, -798064.0, -799915.75, 33292.313, 0.13623537, 0.007473572, -765684.7, -30477.512, 0.0, 9.999669, 9.999691 
8.249851e+2, 2.3497881e+2, -671299.6, -691542.1, 11579.76, -0.037534628, -0.00993167, -666041.3, -28831.89, 0.0, 9.999878, 9.999662 
8.249792e+2, 2.4497867e+2, -607090.25, -664157.44, 49560.914, -0.036094334, 0.041023877, -578436.0, -39223.477, 0.0, 9.999886, 9.999165 
8.249752e+2, 2.5497827e+2, -530550.6, -579810.7, 59067.66, 0.14262803, 0.048629407, -491183.56, -49964.125, 0.0, 9.99975, 9.99914 
8.2497054e+2, 2.6497805e+2, -398597.8, -419181.47, 119219.28, 0.17647825, 0.10213149, -289226.94, 53995.32, 0.0, 9.999805, 9.999537 
8.249649e+2, 2.7497762e+2, -272028.16, -309611.6, 72846.19, 0.07051089, 0.07135857, -215588.92, 29636.64, 0.0, 10.000005, 9.999518 
8.249596e+2, 2.8497663e+2, -235360.4, -396376.4, 68771.555, 0.012429677, 0.09542227, -209986.1, -62750.543, 0.000001518397, 10.000244, 9.998136 
8.249546e+2, 2.949748e+2, -108332.89, -293715.75, 86088.64, 0.023267874, 0.054699097, -74521.53, -25266.355, 0.000022026383, 10.000462, 9.998062 
8.2495064e+2, 3.049743e+2, -19253.934, -167399.77, 73461.164, 0.1603678, 0.1844678, 10996.397, 10996.397, 0.00009707927, 10.000529, 9.998562 
8.249438e+2, 3.1497303e+2, 19067.621, -61793.477, -9799.188, 0.10939282, 0.14988132, 20238.195, 20238.195, 0.00024343749, 10.000312, 9.999394 
8.350476e+2, 1.2498048e+2, -1702090.3, -1586927.8, -84620.52, 0.09659937, -0.038230464, -1542155.5, 173039.23, 0.000000000051048894, 9.999472, 10.0011215 
8.350394e+2, 1.3498244e+2, -1662102.1, -1570138.3, 43796.56, -0.14534615, 0.063662484, -1552618.4, 64554.223, 0.0, 9.99937, 10.000613 
8.350336e+2, 1.4498238e+2, -1593005.0, -1515931.8, 17742.156, -0.12911008, 0.02203508, -1512043.6, 7127.1563, 0.0, 9.999278, 10.000335 
8.350303e+2, 1.5498176e+2, -1435797.9, -1385926.1, 25185.45, 0.15694001, -0.11854845, -1375420.4, 45754.594, 0.0, 9.999682, 10.000354 
8.350247e+2, 1.6498221e+2, -1375928.0, -1335532.5, -1832.9319, 0.20044522, -0.093616426, -1335449.5, -12277.582, 0.0, 9.999531, 10.000119 
8.350169e+2, 1.749836e+2, -1375593.9, -1284258.4, -1788.802, 0.010157492, 0.0045074443, -1284223.4, -59061.336, 0.0, 9.998863, 10.000116 
8.350108e+2, 1.8498458e+2, -1233145.8, -1065142.1, 22557.168, -0.0511967, 0.052577645, -1062166.1, 64986.71, 0.0, 9.998738, 10.001006 
8.350065e+2, 1.9498461e+2, -1069430.6, -931940.8, 54352.703, 0.0011113582, -0.07869737, -913049.7, 116099.25, 0.0, 9.999186, 10.001025 
8.350018e+2, 2.0498511e+2, -1020432.5, -988943.75, 56232.59, 0.028056303, -0.0672111, -946293.0, -15149.782, 0.0, 9.999405, 9.999856 
8.3499706e+2, 2.1498573e+2, -929005.8, -894302.2, 81095.125, 0.025138006, -0.02636996, -828723.25, 4415.8677, 0.0, 9.999365, 9.999852 
8.349915e+2, 2.2498609e+2, -836953.0, -835813.7, 24349.957, 0.0042679673, 0.04490526, -812026.7, -76888.695, 0.0, 9.999469, 9.999544 
8.349852e+2, 2.3498583e+2, -710807.2, -730017.56, 37315.535, -0.048077814, 0.033774015, -681880.44, -44737.2, 0.0, 9.999681, 9.999496 
8.349795e+2, 2.4498568e+2, -582467.0, -576325.56, 29315.146, -0.02765562, 0.059632648, -549920.75, -10776.113, 0.0, 9.999722, 9.999848 
8.349745e+2, 2.5498527e+2, -505638.03, -496174.06, 72498.055, 0.06706549, -0.0035607342, -428253.72, 12892.535, 0.0, 9.999605, 9.999785 
8.3496964e+2, 2.649852e+2, -471040.97, -543987.3, 112585.51, 0.083665855, 0.07113974, -389168.1, -46020.613, 0.0, 9.999693, 9.998736 
8.349647e+2, 2.7498507e+2, -349150.66, -438203.9, 100888.47, 0.013317793, 0.15331, -283399.88, -38247.773, 0.0, 9.999867, 9.998702 
8.349595e+2, 2.8498375e+2, -189590.97, -279900.0, 61246.375, -0.052205227, 0.14436921, -158653.13, -11487.705, 0.0000012583888, 10.000156, 9.998978 
8.349541e+2, 2.9498076e+2, -76891.16, -188943.67, 114711.69, -0.11822954, -0.09334972, -5254.9116, 43936.94, 0.000022671806, 10.000296, 9.998864 
8.349506e+2, 3.049799e+2, -35906.73, -184161.33, 59962.92, 0.078351274, -0.03969282, -14690.395, -14690.395, 0.0001036696, 10.000456, 9.99848 
8.3494484e+2, 3.1498057e+2, 30623.377, 7313.8076, 66011.89, 0.10051974, 0.131258, 86001.445, 86001.445, 0.00026239955, 10.000136, 9.9999485 
8.450481e+2, 1.24987684e+2, -1659825.6, -1567036.4, -8388.913, 0.2107255, 0.047194444, -1566284.0, 148841.5, 0.0, 9.999749, 10.001125 
8.4503907e+2, 1.3498822e+2, -1633951.8, -1543518.8, 4299.637, -0.10377343, -0.009457883, -1543314.8, 73799.13, 0.0, 9.999502, 10.000734 
8.450333e+2, 1.4498788e+2, -1616395.1, -1545134.0, 21140.992, -0.07401699, -0.07670232, -1539334.1, -20219.352, 0.0, 9.999197, 10.000172 
8.450299e+2, 1.5498835e+2, -1513211.1, -1447852.1, 2043.098, 0.17467357, -0.09265742, -1447788.4, -26676.494, 0.0, 9.99925, 10.000145 
8.4502405e+2, 1.6498917e+2, -1420165.8, -1352457.5, 10004.657, 0.20592672, -0.019246882, -1351010.1, -27903.88, 0.0, 9.99923, 10.000138 
8.450159e+2, 1.7499024e+2, -1355027.0, -1275035.4, 6988.3916, 0.023468386, 0.046264656, -1274429.5, -49330.09, 0.0, 9.999024, 10.000097 
8.450099e+2, 1.8499094e+2, -1207070.3, -1076493.8, 78939.414, -0.019382132, 0.07951221, -1039341.8, 87751.22, 0.0, 9.999027, 10.000782 
8.4500617e+2, 1.949908e+2, -1088218.9, -974692.9, 28735.068, 0.06461234, -0.04486643, -967834.0, 61257.99, 0.0, 9.999191, 10.000734 
8.450016e+2, 2.0499128e+2, -1030045.1, -957001.3, 22262.781, 0.082135744, -0.03496355, -950750.8, -19664.738, 0.0, 9.999191, 10.000178 
8.4499615e+2, 2.1499208e+2, -974452.75, -884696.5, 19220.625, 0.033180762, -0.005321269, -880753.75, -47675.063, 0.0, 9.998922, 10.0001335 
8.449908e+2, 2.2499253e+2, -905363.94, -861460.7, 22992.428, 0.020059748, 0.05913899, -851623.56, -116547.555, 0.0, 9.998985, 9.999588 
8.449855e+2, 2.3499241e+2, -759506.06, -743098.4, 12630.553, 0.039034754, 0.05736096, -736241.2, -99161.24, 0.0, 9.999331, 9.999559 
8.4497994e+2, 2.4499224e+2, -575442.8, -577304.56, 14621.862, 0.04957789, 0.07912692, -561722.25, -22641.01, 0.0, 9.99979, 9.999811 
8.4497434e+2, 2.549916e+2, -404745.16, -446353.22, -29735.225, 0.06027201, -0.0025450774, -389258.8, 51825.367, 0.0, 10.000309, 9.999783 
8.4496933e+2, 2.6499116e+2, -399127.66, -533791.2, 26529.854, 0.06669815, 0.04493982, -394089.53, -51000.83, 0.0, 10.000279, 9.998524 
8.4496504e+2, 2.7499056e+2, -384441.94, -481078.5, 26449.354, 0.07463887, 0.10258596, -377676.4, -132578.06, 0.0000000050987805, 9.999717, 9.99849 
8.4496003e+2, 2.849896e+2, -262347.13, -266074.06, 40617.94, 0.029444918, 0.1144925, -223549.94, -76441.38, 0.0000017149706, 9.999437, 9.9994135 
8.4495443e+2, 2.949877e+2, -179543.11, -177881.89, 25881.049, -0.060810335, -0.062206063, -152818.13, -103694.26, 0.0000255943, 9.999339, 9.999387 
8.4495074e+2, 3.049867e+2, -127235.05, -240158.83, 9745.407, 0.08826972, -0.044308465, -126400.18, -126400.18, 0.000114914044, 9.999861, 9.998393 
8.449457e+2, 3.14987e+2, 110194.94, 62579.793, -14798.144, 0.17162034, 0.10028679, 114419.23, 114419.23, 0.00028702893, 10.0005665, 10.000136 
8.550461e+2, 1.24995746e+2, -1721616.5, -1680156.1, -50767.44, -0.052539144, 0.15760307, -1646049.5, 68997.71, 0.0, 9.999701, 10.000367 
8.5504043e+2, 1.349937e+2, -1672032.6, -1605954.1, 4229.8384, 0.042065844, -0.11064669, -1605684.5, 11376.403, 0.0, 9.999462, 10.000307 
8.550348e+2, 1.4499344e+2, -1617021.8, -1547943.0, 2800.8884, 0.12250433, -0.15032175, -1547829.6, -28767.064, 0.0, 9.999187, 10.00017 
8.550279e+2, 1.549961e+2, -1509399.5, -1441254.9, 25321.307, 0.0073357546, 0.056323826, -1432876.1, -11835.242, 0.0, 9.999256, 10.000188 
8.550213e+2, 1.6499738e+2, -1405919.1, -1312698.8, -16313.296, -0.027299998, 0.16182563, -1309926.4, 13103.799, 0.0, 9.999184, 10.000436 
8.550152e+2, 1.7499688e+2, -1336262.3, -1225401.6, 14126.061, 0.020751862, 0.033672184, -1223629.9, 1404.8099, 0.0, 9.998982, 10.000456 
8.5500985e+2, 1.8499728e+2, -1284070.1, -1217691.9, 69233.16, 0.03439325, 0.06183348, -1174103.6, -47071.395, 0.0, 9.998932, 9.9998665 
8.5500515e+2, 1.949982e+2, -1162595.8, -1110254.5, 50109.918, 0.004433611, 0.1353325, -1079892.8, -50866.492, 0.0, 9.999101, 9.999848 
8.550003e+2, 2.0499867e+2, -1030965.7, -922546.5, -5730.296, 0.007197152, 0.17222676, -922244.5, 8777.159, 0.0, 9.999031, 10.000499 
8.5499537e+2, 2.1499823e+2, -979687.9, -844554.44, 25493.768, 0.030829381, 0.04475322, -839904.8, -6882.023, 0.0, 9.998704, 10.000513 
8.549904e+2, 2.2499828e+2, -923464.56, -849651.0, 19658.291, 0.054266553, 0.040515557, -844742.06, -109720.67, 0.0, 9.998766, 9.999779 
8.549854e+2, 2.3499854e+2, -772723.25, -727817.06, 44069.195, 0.07693313, 0.0551953, -700810.7, -63790.8, 0.0, 9.999142, 9.999759 
8.5498005e+2, 2.4499834e+2, -656516.3, -702719.7, 17997.438, 0.054566428, 0.1031096, -650333.25, -111310.91, 0.0, 9.999612, 9.999036 
8.5497427e+2, 2.5499716e+2, -486705.72, -572728.2, 6163.4927, -0.0120365955, 0.048369285, -486266.34, -45232.703, 0.0, 10.00012, 9.999006 
8.5496944e+2, 2.6499578e+2, -388907.1, -482257.16, -12139.939, 0.012697827, 0.018972747, -387354.2, -44306.867, 0.0, 10.000145, 9.998948 
8.5496545e+2, 2.7499393e+2, -374569.8, -430506.13, 26019.426, 0.111552, -0.09460598, -364338.13, -119272.34, 0.0000001292932, 9.999592, 9.998899 
8.549606e+2, 2.849941e+2, -267070.38, -257151.34, 24570.367, 0.11229744, 0.007990764, -237044.95, -89980.31, 0.0000031613251, 9.999353, 9.999515 
8.549549e+2, 2.9499558e+2, -188645.52, -175278.52, 43004.33, 0.010063087, 0.15602703, -138441.42, -89390.03, 0.000030116835, 9.999234, 9.99946 
8.5495037e+2, 3.0499455e+2, -147669.13, -244704.27, 27342.17, 0.039469525, 0.1724782, -140495.14, -140495.14, 0.00012742863, 9.99973, 9.998413 
8.549458e+2, 3.1499252e+2, 45613.195, -20424.732, 80058.17, 0.038744066, 0.08705041, 99194.25, 99194.25, 0.00031382052, 10.000374, 9.999653 
8.650465e+2, 1.2500268e+2, -1701866.1, -1714450.1, -23919.252, 0.022239774, 0.16619632, -1683425.1, 31555.326, 0.00000000000000000000885557, 10.000014, 9.999982 
8.650408e+2, 1.3500078e+2, -1667996.5, -1649261.8, -24145.352, 0.14018036, -0.055634506, -1632730.4, -15735.5205, 0.0, 9.999644, 9.999941 
8.6503506e+2, 1.450006e+2, -1596409.5, -1518549.1, 40082.992, 0.22678605, -0.07738993, -1501602.6, 17393.566, 0.0, 9.9992485, 10.000338 
8.6502695e+2, 1.5500312e+2, -1510370.6, -1436502.1, 31551.652, 0.0065088333, 0.1017727, -1424860.3, -3884.9617, 0.0, 9.999206, 10.00026 
8.650204e+2, 1.6500412e+2, -1363628.8, -1298086.6, 25075.39, -0.044757918, 0.17852145, -1289593.8, 33372.703, 0.0, 9.999496, 10.0003805 
8.650152e+2, 1.750033e+2, -1171210.4, -1158134.8, -9022.732, 0.073914476, 0.0271791, -1153530.3, 71442.83, 0.0, 10.000154, 10.000355 
8.6500996e+2, 1.8500362e+2, -1117070.1, -1141388.5, 73710.7, 0.10312004, 0.05445229, -1054522.5, 72448.42, 0.0, 10.00012, 9.999805 
8.6500454e+2, 1.9500476e+2, -1127652.5, -1102520.9, 86922.94, 0.030019859, 0.15766867, -1027260.2, 1702.5144, 0.0, 9.999399, 9.99975 
8.6499953e+2, 2.0500521e+2, -980174.44, -903159.0, 94421.81, 0.018005943, 0.20077506, -839694.56, 91264.03, 0.0, 9.999408, 10.000443 
8.649949e+2, 2.1500456e+2, -791861.8, -767251.5, 58574.582, 0.055030882, 0.05714083, -719703.5, 113259.17, 0.0, 10.000043, 10.0004015 
8.6499006e+2, 2.2500452e+2, -721077.3, -729192.1, 58469.402, 0.08716403, 0.0419994, -666524.7, 68436.805, 0.0, 10.000076, 9.999969 
8.649851e+2, 2.3500487e+2, -702650.94, -673407.75, 46124.734, 0.11745934, 0.0480456, -639642.5, -2685.1968, 0.0, 9.999544, 9.999934 
8.6498e+2, 2.4500467e+2, -691547.9, -728370.0, 94979.49, 0.107195534, 0.09077858, -613211.44, -74251.91, 0.0, 9.999415, 9.998948 
8.6497474e+2, 2.550035e+2, -548190.25, -613082.3, 101843.234, 0.0558748, 0.045568567, -473749.47, -32777.027, 0.0, 9.999749, 9.998908 
8.6497e+2, 2.650023e+2, -383079.28, -440325.0, 121338.21, 0.07381639, 0.025388477, -287033.66, 55950.457, 0.0000000005766255, 10.000033, 9.999281 
8.6496586e+2, 2.750008e+2, -245130.73, -331864.5, 110469.19, 0.1648374, -0.08490492, -169821.05, 75176.72, 0.000000514823, 10.000334, 9.999214 
8.649609e+2, 2.850009e+2, -165488.48, -269307.5, 110445.76, 0.16762625, 0.01965045, -95361.68, 51636.52, 0.0000054394536, 10.000322, 9.998974 
8.649553e+2, 2.9500198e+2, -120034.24, -197474.2, 45573.97, 0.10284556, 0.18945673, -98952.69, -49961.953, 0.000035908153, 9.999956, 9.998966 
8.6495036e+2, 3.0500078e+2, -54985.74, -188944.53, 89267.55, 0.056126874, 0.20526794, -10363.459, -10363.459, 0.00014009468, 10.000297, 9.998528 
8.649464e+2, 3.1499907e+2, 100196.71, 10282.647, 94896.48, 0.05758946, 0.14048618, 160246.72, 160246.72, 0.00033844914, 10.000755, 9.999664 
8.7504834e+2, 1.2500884e+2, -1709190.3, -1725299.9, -70289.95, 0.12840405, 0.11040822, -1646495.1, 68426.625, 0.0000000055054987, 9.999994, 9.999915 
8.7503994e+2, 1.3500954e+2, -1675423.9, -1648410.4, -24833.883, 0.05375966, 0.14697723, -1633647.9, -16733.037, 0.0, 9.999598, 9.999955 
8.750334e+2, 1.4500952e+2, -1593632.0, -1510618.5, 17979.303, 0.08880754, 0.13822609, -1506891.8, 12022.687, 0.0, 9.99923, 10.000404 
8.7502676e+2, 1.5500951e+2, -1504185.3, -1414810.6, 46099.563, 0.020679198, 0.050797634, -1395294.3, 25619.287, 0.0, 9.999178, 10.000415 
8.750207e+2, 1.6500965e+2, -1399290.0, -1365150.4, 31969.342, 0.000517491, 0.051055025, -1345979.1, -23066.879, 0.0, 9.999453, 9.999948 
8.7501544e+2, 1.7500979e+2, -1207462.0, -1224931.8, 30631.883, 0.045269452, 0.039884336, -1184344.0, 40567.77, 0.0, 10.0001135, 9.999915 
8.750099e+2, 1.8501024e+2, -1079908.0, -1043754.1, 30702.797, 0.051941514, 0.07110419, -1026201.9, 100704.42, 0.0, 10.000032, 10.00052 
8.75004e+2, 1.950105e+2, -1094715.5, -999511.6, 77972.664, 0.0056320643, 0.010703602, -955758.9, 73142.12, 0.0, 9.999256, 10.000523 
8.7499887e+2, 2.0501095e+2, -1041582.4, -991017.0, 103444.77, -0.02034501, 0.03926317, -909810.06, 21086.455, 0.0, 9.99923, 9.999929 
8.749943e+2, 2.1501131e+2, -856185.9, -855822.56, 96980.23, -0.035229076, 0.04866154, -759023.8, 73872.21, 0.0, 9.999846, 9.999889 
8.749894e+2, 2.2501157e+2, -744296.6, -731327.94, 20994.822, -0.014652738, 0.085935764, -715838.9, 19054.555, 0.0, 9.999872, 10.000054 
8.74984e+2, 2.3501141e+2, -729914.7, -675556.25, 43597.727, 0.028889243, 0.032295287, -651359.7, -14467.442, 0.0, 9.99931, 10.000032 
8.749794e+2, 2.450112e+2, -671274.1, -651313.1, 91034.37, 0.077203974, 0.036566526, -569713.75, -30820.389, 0.0, 9.999252, 9.99956 
8.749753e+2, 2.5501063e+2, -529603.6, -535801.3, 132771.33, 0.117974944, -0.009514806, -399895.0, 41004.68, 0.0, 9.999581, 9.999518 
8.749708e+2, 2.6501083e+2, -383572.78, -428983.97, 117318.766, 0.115608245, 0.072094604, -286782.63, 56115.46, 0.0000000691861, 9.999966, 9.999396 
8.749656e+2, 2.750113e+2, -254995.6, -321965.53, 141118.23, 0.073823534, 0.14285167, -143444.02, 101449.555, 0.000001269736, 10.000198, 9.999347 
8.7496054e+2, 2.850101e+2, -257102.7, -445104.75, 81582.26, 0.060937133, 0.17333022, -226637.44, -79730.28, 0.000008255043, 10.000252, 9.9978075 
8.749553e+2, 2.9500678e+2, -211298.38, -372244.8, 55791.555, 0.062590696, 0.018009685, -193850.02, -144906.34, 0.000042714033, 9.999884, 9.997807 
8.749505e+2, 3.0500528e+2, -49757.617, -157909.39, 100194.86, 0.002634506, 0.04517494, 10022.591, 10022.591, 0.00015288098, 10.000214, 9.9987755 
8.749467e+2, 3.1500486e+2, 99950.6, 28402.508, 149741.06, -0.06767586, 0.09015339, 218131.64, 218131.64, 0.00035815634, 10.000662, 9.99984 
8.85049e+2, 1.2501575e+2, -1842024.5, -1787074.8, 34042.69, 0.26084977, 0.059842944, -1770802.9, -55949.586, 0.00000006865043, 9.999083, 9.999934 
8.850395e+2, 1.3501702e+2, -1655690.6, -1649706.1, 204.2335, 0.057272688, 0.1630199, -1649699.3, -32856.07, 0.0, 9.99977, 9.999872 
8.850326e+2, 1.450171e+2, -1539618.4, -1482211.8, 64474.707, 0.083376095, 0.17090318, -1440339.8, 78502.57, 0.0, 9.999626, 10.000392 
8.850266e+2, 1.5501651e+2, -1511841.4, -1420965.5, 42982.324, 0.09806352, 0.029610379, -1403856.8, 16989.023, 0.0, 9.999156, 10.000369 
8.8502073e+2, 1.6501659e+2, -1440878.4, -1378541.4, 107092.62, 0.08614386, 0.023390068, -1298173.8, 24670.652, 0.0, 9.999148, 10.0 
8.850152e+2, 1.7501725e+2, -1284441.5, -1258786.9, 107677.37, 0.047738083, 0.062174637, -1163175.5, 61663.098, 0.0, 9.999573, 9.999948 
8.850096e+2, 1.8501754e+2, -1110730.1, -1064556.4, 94398.664, 0.041054063, 0.07751501, -990462.44, 136371.6, 0.0, 9.999842, 10.000466 
8.85004e+2, 1.950169e+2, -997653.4, -962233.75, 47029.477, 0.049680077, -0.066148, -929690.1, 99145.84, 0.0, 9.999956, 10.0004425 
8.8499886e+2, 2.0501728e+2, -990007.1, -977580.3, 99444.516, 0.043024752, -0.036059055, -884155.3, 46676.836, 0.0, 9.999636, 9.999826 
8.849942e+2, 2.1501844e+2, -1003282.8, -940150.94, 95178.87, 0.025279533, 0.06553341, -871440.1, -38615.074, 0.0, 9.998894, 9.999775 
8.8498914e+2, 2.2501881e+2, -877479.3, -801197.9, 70043.695, 0.029532563, 0.1220883, -759583.75, -24761.86, 0.0, 9.998977, 10.0 
8.849837e+2, 2.3501806e+2, -651316.4, -648715.3, 43698.63, 0.04832802, 0.013477156, -606297.9, 30528.438, 0.0, 9.999882, 9.999942 
8.849793e+2, 2.4501763e+2, -530620.8, -593398.44, 92738.914, 0.10177253, 0.0072979797, -464102.72, 74726.69, 0.0, 10.000267, 9.99946 
8.8497585e+2, 2.5501713e+2, -437344.8, -504717.03, 45005.023, 0.17771569, -0.024996456, -414815.22, 26020.037, 0.00000000006372724, 10.000249, 9.999411 
8.849713e+2, 2.6501742e+2, -371269.22, -444325.28, 21541.152, 0.16602978, 0.080344036, -365390.66, -22557.088, 0.00000025387644, 10.000147, 9.999198 
8.849658e+2, 2.7501807e+2, -285446.0, -356678.38, -16587.686, 0.07822439, 0.19000348, -281772.7, -36944.11, 0.0000021793016, 10.000074, 9.999166 
8.849608e+2, 2.8501672e+2, -217513.53, -421995.94, 4874.942, 0.052642174, 0.21067211, -217397.38, -70553.43, 0.000011106664, 10.000527, 9.997811 
8.8495624e+2, 2.9501295e+2, 34568.6, -254249.95, 29392.684, 0.08810099, 0.013577545, 37529.5, 86413.15, 0.000049522223, 10.001583, 9.997788 
8.849513e+2, 3.050114e+2, 110209.39, -63101.543, 108158.46, 0.026889056, 0.02627691, 162144.77, 162144.77, 0.00016467013, 10.00123, 9.998946 
8.849472e+2, 3.150113e+2, -119741.11, -38464.152, 78528.45, 0.009610306, 0.09014224, 9317.975, 9317.975, 0.00037312726, 9.998985, 10.000198 
8.950475e+2, 1.2502338e+2, -1854808.4, -1791313.3, 21846.275, 0.12214667, 0.01537274, -1784523.0, -69747.58, 0.00000033567557, 9.999009, 9.999928 
8.950391e+2, 1.3502358e+2, -1665122.9, -1662737.6, 33991.88, 0.004675014, 0.02318556, -1629917.5, -13141.05, 0.00000000007521531, 9.999756, 9.999782 
8.9503217e+2, 1.4502382e+2, -1556644.8, -1510022.3, 25597.184, 0.03473226, 0.05668596, -1498712.3, 20063.234, 0.0, 9.999594, 10.000219 
8.950261e+2, 1.5502435e+2, -1531995.6, -1452919.9, 46035.85, 0.09528338, 0.049513012, -1431773.8, -11003.79, 0.0, 9.999119, 10.000166 
8.9502e+2, 1.6502507e+2, -1416448.3, -1316938.9, 104969.94, 0.061819997, 0.09804269, -1250529.0, 72232.984, 0.0, 9.999102, 10.000443 
8.9501417e+2, 1.7502575e+2, -1262803.4, -1192698.3, 141205.33, -0.049427986, 0.08780456, -1082259.9, 142493.7, 0.0, 9.999491, 10.000435 
8.9500874e+2, 1.8502559e+2, -1187278.3, -1200074.4, 81825.75, -0.06320652, 0.07601764, -1111600.8, 15152.655, 0.0, 9.999731, 9.999594 
8.9500386e+2, 1.9502416e+2, -1084272.5, -1100768.8, 65453.367, 0.01142665, -0.05684908, -1026549.6, 2216.0908, 0.0, 9.999782, 9.999573 
8.9499897e+2, 2.0502444e+2, -991155.94, -942538.2, 54470.773, 0.065748096, -0.0120723555, -907198.25, 23565.027, 0.0, 9.999467, 10.000153 
8.94994e+2, 2.1502599e+2, -1010520.6, -902790.5, 85989.72, 0.09708221, 0.09648024, -855187.94, -22438.383, 0.0, 9.998674, 10.0001335 
8.94989e+2, 2.250263e+2, -926824.25, -859506.94, 89097.85, 0.09160302, 0.14330012, -797922.06, -63175.52, 0.0, 9.998774, 9.999706 
8.949837e+2, 2.3502503e+2, -699281.25, -699621.44, 93473.625, 0.03292912, 0.010312423, -605977.56, 30779.75, 0.0, 9.99967, 9.999695 
8.9497924e+2, 2.4502416e+2, -609656.0, -723013.6, 74048.336, 0.039051946, 0.009567855, -573084.4, -34318.16, 0.0, 10.000113, 9.998651 
8.949756e+2, 2.5502315e+2, -524847.0, -638553.7, 60934.453, 0.099454254, 0.012306514, -498361.84, -57584.043, 0.0000000002378373, 10.000045, 9.998595 
8.949711e+2, 2.6502234e+2, -422291.53, -523503.2, 3931.3557, 0.09637613, 0.06947782, -422139.06, -79350.625, 0.00000030747992, 10.000032, 9.99871 
8.949657e+2, 2.750212e+2, -344748.25, -446191.03, 2647.4573, 0.029961484, 0.0563892, -344679.2, -99876.81, 0.0000026197797, 9.999937, 9.998616 
8.9496106e+2, 2.8502062e+2, -145724.81, -266224.2, 28156.451, -0.006330816, 0.12784658, -139470.28, 7339.379, 0.000013171274, 10.0004835, 9.998907 
8.9495736e+2, 2.9502034e+2, 98841.87, -98156.71, 88616.38, -0.0091767125, 0.16661863, 132837.77, 181650.27, 0.000055655084, 10.001473, 9.998917 
8.949525e+2, 3.0501914e+2, 95994.54, -51052.848, 11994.788, -0.012862216, 0.14946899, 96966.54, 96966.54, 0.00017580122, 10.0010805, 9.99909 
8.9494675e+2, 3.1501657e+2, -113934.29, 42171.023, 21463.201, -0.005384161, -0.049833145, 45068.27, 45068.27, 0.00038747952, 9.998729, 10.000856 
9.050463e+2, 1.250311e+2, -1904812.6, -1768639.9, 48324.19, 0.15203317, 0.034924183, -1753233.9, -38532.777, 0.0000010657902, 9.998413, 10.000386 
9.0503895e+2, 1.3503131e+2, -1752376.0, -1667190.9, 34753.793, 0.070251614, 0.0053089103, -1654811.1, -38111.13, 0.000000007369457, 9.998975, 10.00013 
9.050321e+2, 1.4503177e+2, -1596806.3, -1552901.9, 61815.777, 0.089202665, 0.052140027, -1509256.1, 9440.225, 0.0, 9.999386, 10.000033 
9.050252e+2, 1.5503249e+2, -1433554.1, -1428596.0, 43477.906, 0.07151277, 0.0772372, -1387526.5, 33163.527, 0.0, 9.999862, 9.9999895 
9.050192e+2, 1.6503307e+2, -1302993.9, -1278820.0, 122753.86, 0.04457846, 0.12973441, -1167559.5, 155124.34, 0.0, 9.99995, 10.000306 
9.0501434e+2, 1.7503314e+2, -1245637.6, -1198692.1, 74359.695, 0.02478525, 0.07497294, -1144188.4, 80492.78, 0.0, 9.999668, 10.000312 
9.0500915e+2, 1.850329e+2, -1190752.0, -1216646.1, 60743.56, 0.016096547, 0.065931834, -1141591.0, -14909.097, 0.0, 9.99976, 9.99947 
9.0500367e+2, 1.9503193e+2, -1024675.3, -1092970.1, 70904.625, 0.003869749, -0.008906976, -980123.9, 48566.273, 0.0, 10.000244, 9.999419 
9.0499866e+2, 2.0503187e+2, -891664.25, -908028.6, 67666.03, 0.058009867, 0.021001913, -831687.5, 99002.56, 0.0, 10.000219, 10.000015 
9.049939e+2, 2.1503234e+2, -866156.5, -850954.8, 23085.994, 0.17256564, 0.034290344, -834250.6, -1564.8702, 0.0, 9.999739, 9.999973 
9.049891e+2, 2.2503226e+2, -801286.44, -834974.9, 91873.266, 0.18248475, 0.06674235, -724726.0, 9960.675, 0.0, 9.999812, 9.999369 
9.049842e+2, 2.3503132e+2, -598904.1, -691524.06, 59334.875, 0.07828495, 0.0053340937, -569946.3, 66749.734, 0.0, 10.000543, 9.999331 
9.049799e+2, 2.450305e+2, -515398.13, -694469.1, 59761.04, 0.0596352, 0.03755218, -497286.1, 41419.12, 0.0, 10.000845, 9.998485 
9.049761e+2, 2.5502944e+2, -433187.44, -609615.7, 59286.574, 0.12536313, 0.046769742, -415115.97, 25601.506, 0.0, 10.000756, 9.99844 
9.0497154e+2, 2.6502812e+2, -349400.47, -533595.9, 65996.6, 0.11947851, 0.08408797, -328195.3, 14537.814, 0.0000002007212, 10.000746, 9.998296 
9.049661e+2, 2.7502605e+2, -242780.2, -437593.9, 37326.09, 0.049679644, 0.020716099, -235873.44, 8883.042, 0.0000025589381, 10.000828, 9.9982395 
9.049617e+2, 2.8502545e+2, -160741.48, -239733.45, 74428.65, 0.033413783, 0.092660904, -115978.6, 30784.988, 0.000014749117, 10.000224, 9.999229 
9.0495837e+2, 2.9502612e+2, -256664.4, -226499.89, 38935.1, 0.089877516, 0.19435762, -199827.9, -151072.2, 0.00006245814, 9.9988575, 9.999296 
9.0495366e+2, 3.0502483e+2, -165240.0, -191473.44, -36727.414, 0.10806206, 0.1576691, -139357.34, -139357.34, 0.00018874744, 9.999331, 9.998983 
9.049471e+2, 3.150223e+2, 231215.78, 182030.4, -120135.09, 0.054521132, -0.021563472, 329249.53, 329249.53, 0.0004049675, 10.001163, 10.000683 
9.1504425e+2, 1.250392e+2, -1840151.0, -1623127.6, 17150.64, 0.030630983, 0.13623612, -1621780.6, 92846.91, 0.000002613721, 9.99839, 10.001387 
9.1503865e+2, 1.3504016e+2, -1695888.0, -1541128.0, 67595.305, 0.10584354, 0.09335181, -1515761.8, 100852.695, 0.00000007607973, 9.998948, 10.001002 
9.1503185e+2, 1.4504072e+2, -1619295.6, -1583626.5, 57732.895, 0.07908107, 0.11952391, -1541036.3, -22429.09, 0.0, 9.999321, 9.999853 
9.150235e+2, 1.5504101e+2, -1449138.5, -1451796.3, 78582.72, -0.1270413, 0.11900743, -1371873.4, 48731.54, 0.0, 9.999831, 9.99984 
9.1501796e+2, 1.6504084e+2, -1359648.6, -1392697.1, 91991.6, -0.118358344, 0.13850352, -1282708.9, 39898.438, 0.0, 9.999929, 9.999536 
9.1501534e+2, 1.7503974e+2, -1306970.6, -1315508.9, 80539.516, 0.12252444, 0.043946695, -1230587.3, -5968.718, 0.0, 9.99962, 9.999532 
9.1501045e+2, 1.8503965e+2, -1158823.9, -1129812.0, 63286.1, 0.12738639, 0.058299758, -1079390.6, 47227.066, 0.0, 9.999667, 10.000113 
9.150031e+2, 1.9504026e+2, -1005304.06, -1013099.8, 106843.22, -0.1115278, 0.077146634, -902287.6, 126320.65, 0.0, 10.00008, 10.000045 
9.149974e+2, 2.0503977e+2, -967593.94, -1025007.94, 34378.08, -0.11930204, 0.067104444, -951513.2, -20901.82, 0.0, 10.000042, 9.999297 
9.149933e+2, 2.1503773e+2, -949678.8, -972030.75, 19581.695, 0.108278535, -0.09783128, -938308.3, -105677.16, 0.0, 9.999519, 9.999245 
9.1498893e+2, 2.2503687e+2, -854782.06, -909481.2, 101086.76, 0.15986077, -0.08665593, -777410.4, -42769.645, 0.0, 9.99964, 9.998948 
9.1498464e+2, 2.3503692e+2, -658355.3, -768041.4, 104862.664, 0.04025946, -0.007835112, -594860.1, 41782.61, 0.0, 10.000339, 9.998904 
9.1498065e+2, 2.4503683e+2, -506846.3, -640323.8, 40701.957, 0.022280652, 0.0942354, -495414.03, 43231.145, 0.0, 10.000681, 9.998939 
9.149771e+2, 2.550361e+2, -425037.1, -558592.9, 73105.266, 0.105607, 0.09201365, -392801.53, 47851.277, 0.0, 10.000602, 9.998869 
9.1497236e+2, 2.6503482e+2, -385238.75, -583209.94, 52939.867, 0.09328027, 0.13075465, -371971.16, -29304.324, 0.00000011562638, 10.000644, 9.998002 
9.149667e+2, 2.750327e+2, -281285.03, -486425.25, 60203.035, -0.014289817, 0.08577673, -264922.25, -20231.383, 0.0000025826089, 10.000696, 9.99797 
9.149623e+2, 2.8503126e+2, -206288.4, -306950.47, 5637.262, 0.030109754, 0.110275365, -205973.69, -59268.406, 0.000017159802, 10.000114, 9.998816 
9.14959e+2, 2.9503033e+2, -309785.88, -307409.5, 9788.199, 0.22255833, 0.09366539, -298737.63, -250025.14, 0.00007135739, 9.998737, 9.998798 
9.149546e+2, 3.0502847e+2, -213603.47, -264542.84, 24497.8, 0.2366456, 0.049002394, -203734.13, -203734.13, 0.00020564985, 9.999223, 9.998523 
9.1494715e+2, 3.150285e+2, 154769.94, 77129.195, 8271.191, -0.13079639, 0.1663332, 155641.31, 155641.31, 0.00042848263, 10.000961, 10.000037 
9.250426e+2, 1.250459e+2, -1893139.8, -1633519.5, 47151.465, 0.068026364, 0.14754787, -1625221.3, 89341.945, 0.0000053718704, 9.9979515, 10.001539 
9.250376e+2, 1.3504732e+2, -1689432.8, -1520654.4, -13218.409, 0.124158904, 0.13372225, -1519625.4, 96919.234, 0.00000033393198, 9.998906, 10.001186 
9.250313e+2, 1.4504766e+2, -1617987.5, -1583728.5, -11424.782, 0.104350254, 0.13043912, -1580268.1, -61729.33, 0.0, 9.999344, 9.999838 
9.250236e+2, 1.5504748e+2, -1472970.4, -1468991.4, -20586.676, -0.07983234, 0.08375363, -1450298.4, -29757.656, 0.0, 9.999699, 9.999781 
9.2501825e+2, 1.6504705e+2, -1386163.4, -1432868.8, 32943.81, -0.06550004, 0.09371642, -1369134.9, -46589.242, 0.0, 9.999861, 9.999287 
9.250152e+2, 1.750461e+2, -1288255.6, -1337679.1, 24169.064, 0.14497423, 0.03802996, -1278401.3, -53844.66, 0.0, 9.999876, 9.99926 
9.250103e+2, 1.8504615e+2, -1120482.5, -1080429.6, 53460.355, 0.14990488, 0.06961745, -1043367.8, 83186.76, 0.0, 9.999813, 10.000376 
9.250034e+2, 1.9504687e+2, -1055577.3, -1004411.7, 31049.598, -0.054462, 0.071590796, -989763.2, 38780.2, 0.0, 9.999605, 10.000326 
9.2499787e+2, 2.0504634e+2, -997205.56, -1090006.3, -4815.443, -0.06403488, 0.06663339, -996956.4, -66409.33, 0.0, 10.000057, 9.99885 
9.249937e+2, 2.1504422e+2, -728448.2, -912692.6, -24316.957, 0.12549141, -0.060547046, -725292.9, 107275.99, 0.0, 10.001239, 9.998828 
9.249896e+2, 2.2504315e+2, -592078.94, -813957.44, 97202.055, 0.16739535, -0.03771682, -555519.9, 179061.7, 0.0, 10.001571, 9.998671 
9.249854e+2, 2.3504283e+2, -577848.56, -764312.8, 74306.016, 0.06057843, 0.03192753, -551859.9, 84728.055, 0.0, 10.001023, 9.998604 
9.2498136e+2, 2.4504253e+2, -496936.0, -618433.8, 31760.771, 0.033969007, 0.12299506, -489134.34, 49457.574, 0.0, 10.000676, 9.999099 
9.2497736e+2, 2.5504184e+2, -410271.88, -531655.6, 7159.9946, 0.08516531, 0.11263877, -409850.97, 30746.533, 0.0, 10.000623, 9.999049 
9.2497295e+2, 2.650407e+2, -354699.0, -568271.94, 33604.527, 0.0891353, 0.15243365, -349536.28, -6926.8037, 0.00000007319143, 10.000821, 9.99803 
9.249683e+2, 2.7503866e+2, -199360.3, -445001.97, 34223.125, 0.06450141, 0.11177969, -194681.4, 49950.566, 0.0000027897247, 10.001219, 9.998011 
9.249638e+2, 2.850369e+2, -41484.992, -275825.2, -3447.1763, 0.11016598, 0.121926, -41434.297, 105215.44, 0.000020180585, 10.001457, 9.998378 
9.249591e+2, 2.9503515e+2, 73830.05, -173344.31, -39841.715, 0.2350592, 0.071193025, 80093.375, 128758.59, 0.00008285034, 10.001578, 9.998348 
9.2495483e+2, 3.0503297e+2, 58329.67, -153085.0, 58160.17, 0.2544875, 0.019864785, 73273.266, 73273.266, 0.0002292469, 10.001136, 9.998377 
9.2494833e+2, 3.1503323e+2, -57377.402, -91935.31, 20446.158, -0.026050726, 0.17144732, -47886.83, -47886.83, 0.0004645645, 9.999748, 9.99947 
9.3504035e+2, 1.25051e+2, -1946201.8, -1715507.5, 34474.445, -0.03218275, 0.04398832, -1710465.9, 4043.96, 0.000009857008, 9.997861, 10.001011 
9.350353e+2, 1.3505301e+2, -1714916.4, -1573534.3, 34693.47, -0.03132378, 0.12664852, -1565479.8, 51008.79, 0.0000009955157, 9.99893, 10.000799 
9.350301e+2, 1.4505284e+2, -1614918.1, -1582997.1, -17690.434, -0.000010166467, 0.09233282, -1575131.4, -56642.55, 0.00000000002439963, 9.999366, 9.999837 
9.350252e+2, 1.5505189e+2, -1476042.9, -1463117.4, 9329.724, 0.07119439, -0.031776454, -1458230.6, -37733.79, 0.0, 9.999649, 9.999845 
9.350198e+2, 1.6505176e+2, -1374213.5, -1394157.3, 12868.068, 0.06137051, -0.011116621, -1367905.8, -45407.535, 0.0, 9.999793, 9.99959 
9.3501353e+2, 1.7505226e+2, -1271409.5, -1296784.4, 41886.48, -0.0439394, 0.051866718, -1240331.1, -15836.368, 0.0, 9.9998455, 9.999559 
9.3500835e+2, 1.8505248e+2, -1147790.5, -1117411.9, 32041.264, -0.0573332, 0.09428198, -1097142.0, 29349.883, 0.0, 9.99973, 10.000166 
9.350042e+2, 1.9505186e+2, -1091523.8, -1047020.94, 38658.547, 0.024063984, -0.016305298, -1024667.3, 3827.4636, 0.0, 9.99947, 10.000102 
9.3499964e+2, 2.0505172e+2, -1022717.75, -1109920.3, 22887.818, 0.07765695, 0.03314975, -1017075.5, -86579.34, 0.0, 9.9999075, 9.998787 
9.3499494e+2, 2.1505181e+2, -761665.0, -942108.4, 37787.77, 0.09368624, 0.13436413, -754071.2, 78427.58, 0.0, 10.001058, 9.998719 
9.3499047e+2, 2.2505106e+2, -636758.7, -857437.0, 61267.88, 0.07014032, 0.20578724, -620889.75, 113619.46, 0.0, 10.00136, 9.998474 
9.349862e+2, 2.3504908e+2, -621330.1, -806385.0, 68698.59, 0.004085848, 0.1281608, -598615.1, 37915.973, 0.0, 10.000816, 9.998418 
9.349815e+2, 2.4504773e+2, -531523.2, -652408.6, 12358.95, -0.048471157, 0.12953454, -530272.56, 8271.929, 0.0, 10.000513, 9.998945 
9.349766e+2, 2.550466e+2, -447188.3, -571041.06, 23047.902, -0.084171176, 0.09321487, -443038.38, -2485.515, 0.0, 10.000453, 9.998867 
9.3497294e+2, 2.6504558e+2, -347488.34, -513387.5, 35761.383, -0.019794432, 0.13060918, -340107.94, 2454.664, 0.00000003612581, 10.00066, 9.998479 
9.349706e+2, 2.7504417e+2, -196632.64, -397969.25, 70058.29, 0.14099845, 0.10838518, -174654.0, 69924.39, 0.0000027030533, 10.001056, 9.998406 
9.349657e+2, 2.850426e+2, -85669.82, -352169.63, -13330.398, 0.13161744, 0.14331128, -85004.69, 61590.05, 0.000022488803, 10.00138, 9.997893 
9.3495834e+2, 2.950408e+2, 28417.62, -251803.52, -11438.794, -0.053963386, 0.12646005, 28883.783, 77496.59, 0.00009525127, 10.001502, 9.997848 
9.3495387e+2, 3.0503833e+2, 58748.566, -132865.73, -4485.3286, 0.009907995, 0.072996505, 58853.5, 58853.5, 0.00025879213, 10.001067, 9.998545 
9.349498e+2, 3.1503737e+2, -111423.18, -156401.02, 42908.133, 0.07220213, 0.083629236, -85467.7, -85467.7, 0.0005142612, 9.999564, 9.999108 
9.450386e+2, 1.2505625e+2, -1802149.8, -1693752.6, 40784.313, -0.029579697, 0.012603329, -1680121.6, 34334.23, 0.000016753027, 9.99903, 10.000602 
9.450345e+2, 1.3505815e+2, -1772055.6, -1653720.3, -17729.186, 0.021433124, 0.12817076, -1651121.1, -34682.09, 0.000002343361, 9.998749, 10.000338 
9.450299e+2, 1.4505796e+2, -1708516.5, -1612791.9, -23691.637, 0.09192322, 0.106211595, -1607249.1, -88808.29, 0.0000000053592455, 9.998642, 9.999989 
9.450252e+2, 1.5505724e+2, -1552315.3, -1494760.8, -27534.96, 0.14630915, -0.0069180503, -1483709.6, -63263.18, 0.0, 9.999072, 9.999926 
9.450196e+2, 1.6505726e+2, -1437768.8, -1398288.9, 110.76168, 0.10252774, 0.013823575, -1398288.6, -75842.97, 0.0, 9.999251, 9.999815 
9.450128e+2, 1.7505781e+2, -1350526.1, -1311699.9, -13517.785, -0.059257023, 0.059111346, -1307457.1, -83016.63, 0.0, 9.999209, 9.999758 
9.450077e+2, 1.8505792e+2, -1217201.0, -1184561.6, 4696.7905, -0.069738016, 0.09607003, -1183899.3, -57460.23, 0.0, 9.999422, 9.999837 
9.450043e+2, 1.950571e+2, -1041877.75, -1057831.1, -28878.854, 0.07582944, -0.00091675424, -1019894.2, 8551.516, 0.0, 9.999983, 9.999766 
9.450003e+2, 2.0505694e+2, -932647.9, -1041228.44, 13595.595, 0.1362165, 0.049361523, -930971.44, -523.7341, 0.0, 10.000408, 9.999018 
9.449958e+2, 2.150572e+2, -817431.5, -941092.0, 18663.248, 0.11415035, 0.14291778, -814676.2, 17771.19, 0.0, 10.000554, 9.998962 
9.449913e+2, 2.2505662e+2, -755810.1, -919728.94, 59483.836, 0.06358992, 0.22418949, -736499.25, -2043.6329, 0.0, 10.000586, 9.998411 
9.4498664e+2, 2.3505487e+2, -659936.6, -830566.8, 43846.605, -0.010803905, 0.17689346, -649328.94, -12853.022, 0.0, 10.000592, 9.998352 
9.4498223e+2, 2.4505322e+2, -512966.94, -660029.25, 37029.797, -0.024710553, 0.16133212, -504169.25, 34322.883, 0.0, 10.00071, 9.998794 
9.4497836e+2, 2.5505137e+2, -388775.0, -553002.56, 17094.361, 0.03569689, 0.061842006, -387014.53, 53492.883, 0.0, 10.000901, 9.998761 
9.449747e+2, 2.650503e+2, -305096.16, -472590.72, 51425.082, 0.091402486, 0.08875411, -290567.56, 51949.99, 0.000000027783642, 10.000855, 9.998671 
9.449715e+2, 2.7504954e+2, -263913.25, -410872.72, 29854.758, 0.15500471, 0.11723899, -258079.81, -13552.528, 0.000002329391, 10.000497, 9.998597 
9.4496644e+2, 2.8504834e+2, -211183.25, -409430.6, 2090.9246, 0.111817636, 0.1826115, -211161.19, -64621.117, 0.000023981273, 10.000514, 9.997919 
9.449596e+2, 2.950466e+2, -69730.14, -297898.38, 3140.2126, -0.029309256, 0.1747568, -69686.93, -21129.268, 0.00010679835, 10.000824, 9.997867 
9.449551e+2, 3.050444e+2, 71849.87, -136527.2, 30527.648, 0.03866781, 0.14969808, 76230.15, 76230.15, 0.00028981623, 10.001224, 9.998445 
9.449512e+2, 3.1504264e+2, 146919.88, -52036.223, 11834.723, 0.17069161, 0.09127296, 147621.39, 147621.39, 0.00057081727, 10.001438, 9.998927 
9.5503634e+2, 1.2506181e+2, -1846124.3, -1762799.5, -21372.584, -0.24093354, 0.05919336, -1757637.4, -43237.754, 0.00002677623, 9.998971, 10.000133 
9.550348e+2, 1.3506287e+2, -1818104.0, -1725720.4, -15994.835, 0.14217722, 0.13508591, -1723029.5, -106634.73, 0.0000047533053, 9.998675, 9.999859 
9.550303e+2, 1.4506301e+2, -1701642.5, -1585684.6, -30757.854, 0.2232637, 0.15940316, -1578031.3, -59635.813, 0.000000046136613, 9.998576, 10.000212 
9.5502305e+2, 1.5506367e+2, -1532429.1, -1459107.1, 5037.2617, -0.013385246, 0.16121656, -1458762.8, -38374.72, 0.0, 9.999097, 10.000157 
9.550172e+2, 1.6506374e+2, -1433927.6, -1389905.0, -18489.182, -0.09650248, 0.17318305, -1383170.0, -60784.152, 0.0, 9.999246, 9.999877 
9.550126e+2, 1.7506285e+2, -1351697.4, -1304245.6, 324.01614, -0.032983232, 0.06417095, -1304243.4, -79850.88, 0.0, 9.999165, 9.99983 
9.55008e+2, 1.8506259e+2, -1258736.1, -1257803.9, 9697.659, -0.017975878, 0.0835573, -1248561.1, -122166.305, 0.0, 9.999352, 9.999374 
9.550034e+2, 1.9506253e+2, -1087673.5, -1130898.9, 8240.247, -0.052020617, 0.10811372, -1086155.9, -57759.09, 0.0, 9.999878, 9.999319 
9.5499945e+2, 2.050619e+2, -917715.75, -971963.44, 1041.7806, -0.022635706, 0.10630989, -917695.75, 12706.422, 0.0, 10.000244, 9.999575 
9.549961e+2, 2.1506038e+2, -812952.7, -878174.5, 39121.918, 0.057183098, -0.033814948, -794632.3, 37782.113, 0.0, 10.000324, 9.999508 
9.549917e+2, 2.2505991e+2, -782961.7, -925126.2, 43421.04, 0.023366157, 0.02751173, -770748.8, -36328.773, 0.0, 10.000364, 9.99848 
9.5498633e+2, 2.3506013e+2, -689050.1, -841687.1, 63128.414, -0.12473339, 0.17035624, -666324.6, -29901.81, 0.0, 10.000377, 9.998382 
9.5498323e+2, 2.4505895e+2, -549626.4, -686397.0, 30538.72, -0.031470753, 0.2064705, -543117.3, -4681.9746, 0.0, 10.000505, 9.998703 
9.549822e+2, 2.5505608e+2, -421933.5, -582719.6, 42752.742, 0.29600427, 0.015860735, -411272.5, 29188.504, 0.0, 10.000738, 9.99863 
9.549779e+2, 2.6505485e+2, -333314.78, -497891.47, 21290.639, 0.2907591, 0.037954103, -330605.13, 11868.904, 0.000000030362223, 10.000718, 9.998561 
9.5497024e+2, 2.7505472e+2, -292593.78, -433616.06, 37303.95, -0.056784004, 0.13832802, -283333.97, -38855.16, 0.000002140531, 10.000348, 9.998507 
9.549652e+2, 2.850541e+2, -190039.25, -339824.78, -2336.9841, -0.09832245, 0.23498301, -190002.8, -43516.21, 0.000025889522, 10.000403, 9.998451 
9.5496273e+2, 2.9505277e+2, -50708.258, -231349.22, 39583.387, 0.15353903, 0.21474022, -42415.18, 6084.003, 0.00011778403, 10.0007105, 9.998375 
9.549584e+2, 3.0505136e+2, 30169.768, -199823.6, 34762.13, 0.20976175, 0.26434427, 35309.02, 35309.02, 0.00031950467, 10.001124, 9.998057 
9.5495105e+2, 3.1504893e+2, 116044.914, -79289.43, 83665.195, -0.05899702, 0.17584586, 146980.78, 146980.78, 0.00062882464, 10.001284, 9.998813 
9.6503526e+2, 1.2506671e+2, -1995302.8, -1838748.9, -31178.059, -0.17365785, 0.08857848, -1832768.3, -118416.97, 0.000040530904, 9.997916, 10.000152 
9.650337e+2, 1.3506728e+2, -1859558.5, -1735564.0, -31566.473, 0.19766703, 0.10981699, -1727990.4, -111639.75, 0.000008656152, 9.998322, 9.999986 
9.650294e+2, 1.4506768e+2, -1712453.5, -1543864.4, 39668.47, 0.29424262, 0.13154978, -1534996.9, -16647.959, 0.00000019058375, 9.998343, 10.000583 
9.6502185e+2, 1.5506923e+2, -1607968.4, -1454711.0, 40514.195, -0.005038241, 0.1890065, -1444660.0, -24327.543, 0.0, 9.9984455, 10.00048 
9.650163e+2, 1.6506942e+2, -1509808.1, -1435058.6, 47248.508, -0.084298946, 0.20162006, -1412189.8, -89860.59, 0.0, 9.998788, 9.999779 
9.6501267e+2, 1.7506789e+2, -1325138.0, -1306562.6, 15599.287, 0.052757397, 0.040503237, -1297695.5, -73353.22, 0.0, 9.999422, 9.999687 
9.6500844e+2, 1.850674e+2, -1215900.8, -1253390.0, 59716.71, 0.07762163, 0.05164155, -1172055.9, -45708.836, 0.0, 9.999687, 9.999262 
9.650034e+2, 1.9506755e+2, -1143329.0, -1175204.5, 54486.027, -0.013888619, 0.111940645, -1102497.6, -74150.08, 0.0, 9.999545, 9.999193 
9.6499926e+2, 2.0506701e+2, -980857.5, -996305.7, 79555.47, -0.033261076, 0.12263852, -908652.06, 21700.49, 0.0, 9.99982, 9.999595 
9.649961e+2, 2.150654e+2, -777663.7, -858580.94, 37770.035, 0.023441758, -0.027835144, -762773.6, 69591.87, 0.0, 10.000575, 9.999509 
9.649923e+2, 2.2506481e+2, -689926.7, -847803.06, 46308.566, 0.02888661, 0.006944666, -677345.94, 57025.496, 0.0, 10.000852, 9.998782 
9.6498793e+2, 2.3506488e+2, -624520.06, -770272.4, 51737.094, -0.007069056, 0.10374332, -608022.5, 28351.441, 0.0, 10.00064, 9.998743 
9.6498495e+2, 2.4506405e+2, -519360.75, -665784.1, 79980.35, 0.09153084, 0.15057817, -484143.63, 54239.527, 0.0, 10.000668, 9.998782 
9.649833e+2, 2.5506213e+2, -395148.5, -565147.25, 73268.19, 0.33246046, 0.049607456, -367928.8, 72472.67, 0.0, 10.000894, 9.9986925 
9.649787e+2, 2.6506108e+2, -293654.25, -484854.66, 79753.15, 0.29652312, 0.09147477, -264755.6, 77657.766, 0.000000012060779, 10.001015, 9.998503 
9.649711e+2, 2.7506036e+2, -207409.92, -403546.56, 59643.6, -0.017274572, 0.1406003, -190696.9, 53726.816, 0.0000023356135, 10.000975, 9.99841 
9.649664e+2, 2.8505942e+2, -56910.53, -258371.63, 67170.375, -0.041838214, 0.20327689, -36568.777, 109865.2, 0.000028869204, 10.001251, 9.998584 
9.649645e+2, 2.950581e+2, 116094.695, -137064.84, 31450.35, 0.22519547, 0.17276618, 119943.305, 168388.69, 0.00012892728, 10.001812, 9.998476 
9.649602e+2, 3.0505696e+2, 140625.14, -201614.67, 29255.447, 0.25198156, 0.26223817, 143107.95, 143107.95, 0.00034703137, 10.0020895, 9.997588 
9.6495324e+2, 3.1505436e+2, 142271.98, -78663.0, 12263.792, 0.040888373, 0.20385353, 142950.66, 142950.66, 0.0006841425, 10.001493, 9.998716 
9.750344e+2, 1.2507069e+2, -1947182.3, -1721870.4, -76864.23, -0.12903382, 0.08528834, -1698146.5, 16167.256, 0.000058506626, 9.997852, 10.000979 
9.750307e+2, 1.3507162e+2, -1790893.8, -1593116.4, -6321.2397, 0.03561432, 0.048948646, -1592914.6, 23390.516, 0.00001444443, 9.998332, 10.000951 
9.7502655e+2, 1.4507224e+2, -1690788.5, -1499584.0, 26486.047, 0.1281921, 0.029944286, -1495982.9, 22315.234, 0.0000005546723, 9.998344, 10.00089 
9.7502106e+2, 1.5507406e+2, -1591219.6, -1410806.0, 64298.324, 0.037046425, 0.082055494, -1390235.9, 30042.283, 0.0, 9.998411, 10.000795 
9.7501636e+2, 1.6507433e+2, -1537778.3, -1486574.9, 50630.164, 0.0073297536, 0.105378106, -1455441.5, -133166.89, 0.0, 9.998749, 9.99945 
9.750126e+2, 1.7507288e+2, -1350846.9, -1355250.5, 53200.234, 0.061751805, -0.016162308, -1299803.0, -75513.17, 0.0, 9.999395, 9.999369 
9.750084e+2, 1.8507235e+2, -1213431.6, -1225660.8, 40448.207, 0.079962686, -0.0050836024, -1178638.4, -52342.754, 0.0, 9.999589, 9.999499 
9.750039e+2, 1.9507235e+2, -1146617.4, -1147257.5, 66729.77, 0.05297336, 0.012269114, -1080206.9, -51910.56, 0.0, 9.999401, 9.999449 
9.749995e+2, 2.0507246e+2, -1050406.4, -1102320.8, 90155.79, -0.018681541, 0.10916026, -982545.4, -52248.75, 0.0, 9.999643, 9.9989605 
9.7499543e+2, 2.1507227e+2, -849374.2, -964006.56, 81540.55, -0.13357976, 0.1664689, -807020.9, 25279.5, 0.0, 10.000382, 9.998883 
9.749925e+2, 2.2507131e+2, -678026.2, -774986.8, 19555.621, -0.06258167, 0.16174288, -674230.7, 60079.44, 0.0, 10.000643, 9.99938 
9.7499084e+2, 2.3506916e+2, -619603.6, -701419.6, 58139.77, 0.19199136, -0.023530068, -589422.25, 46907.027, 0.0, 10.000395, 9.99933 
9.749871e+2, 2.4506867e+2, -526806.75, -643055.9, 71381.945, 0.20973858, 0.016198678, -492877.84, 45456.434, 0.0, 10.000497, 9.999025 
9.7498107e+2, 2.5506943e+2, -398581.34, -537510.3, 100596.33, -0.0069561764, 0.15952851, -345796.34, 94532.64, 0.0, 10.000742, 9.998957 
9.749767e+2, 2.6506883e+2, -313428.0, -499511.03, 62534.824, -0.032069754, 0.23379992, -294365.4, 47971.535, 0.0000000034767167, 10.000896, 9.99846 
9.749739e+2, 2.7506644e+2, -225719.55, -416171.78, 80434.75, 0.1247689, 0.11904417, -196295.1, 48066.6, 0.0000028342504, 10.00086, 9.998379 
9.7496986e+2, 2.850645e+2, -94724.375, -314392.13, 74913.375, 0.13427092, 0.095498376, -71609.04, 74771.76, 0.000032313746, 10.00116, 9.998244 
9.749645e+2, 2.9506263e+2, 72977.375, -197772.83, 80273.01, -0.012963558, 0.04447476, 94987.7, 143384.73, 0.0001399921, 10.001695, 9.998115 
9.7496e+2, 3.050609e+2, 79359.56, -298573.34, -3774.6133, -0.0070640882, 0.12876005, 79397.26, 79397.26, 0.00037284024, 10.001964, 9.996981 
9.749567e+2, 3.15058e+2, 102343.95, -116227.59, 44967.367, 0.14870957, 0.0966222, 111233.66, 111233.66, 0.00073526404, 10.0013075, 9.99854 
9.850336e+2, 1.2507483e+2, -2066226.4, -1718540.6, 15160.2705, 0.07126208, 0.047574244, -1717880.9, -3608.9868, 0.00008108169, 9.99677, 10.00152 
9.850281e+2, 1.3507622e+2, -1885786.3, -1588533.1, -1463.1497, 0.0003507122, 0.0062855016, -1588525.9, 27729.44, 0.000022462764, 9.997438, 10.001422 
9.850241e+2, 1.4507678e+2, -1758997.6, -1562362.5, 28170.7, 0.07472775, -0.029948821, -1558406.3, -40158.184, 0.0000013019285, 9.997982, 10.00064 
9.850202e+2, 1.5507796e+2, -1553467.1, -1422963.0, -17584.56, 0.09916431, -0.018932333, -1420635.1, -399.4651, 0.0, 9.99878, 10.000538 
9.85016e+2, 1.6507839e+2, -1498615.5, -1458075.5, -2601.6606, 0.096327156, 0.02799173, -1457909.3, -135676.9, 0.0, 9.998977, 9.999535 
9.8501164e+2, 1.7507789e+2, -1450960.9, -1390818.6, -2231.1838, 0.07565211, -0.005408153, -1390736.0, -166496.47, 0.0, 9.998667, 9.99947 
9.850077e+2, 1.8507761e+2, -1289207.3, -1254036.5, 30159.463, 0.0859739, 0.022216512, -1236710.0, -110466.84, 0.0, 9.999056, 9.99955 
9.8500407e+2, 1.9507715e+2, -1057498.9, -1102426.0, 2551.7446, 0.110489786, -0.008288712, -1057354.4, -29107.021, 0.0, 10.000019, 9.999455 
9.8500013e+2, 2.0507705e+2, -950118.56, -1071564.3, 65105.617, 0.047984403, 0.075838484, -921813.25, 8436.344, 0.0, 10.000383, 9.998823 
9.8499584e+2, 2.1507697e+2, -904107.0, -1005298.1, 63442.625, -0.103963554, 0.15365297, -873555.3, -41301.887, 0.0, 10.000064, 9.998757 
9.84993e+2, 2.2507606e+2, -756157.5, -813983.75, 24864.469, -0.043814916, 0.16189264, -746936.5, -12673.477, 0.0, 10.000098, 9.999381 
9.8499155e+2, 2.35074e+2, -613822.25, -700200.6, -10261.018, 0.22943997, -0.012796467, -612620.06, 23661.617, 0.0, 10.000432, 9.999327 
9.8498785e+2, 2.450736e+2, -494037.97, -608661.3, 15828.711, 0.24161597, 0.02902356, -491892.28, 46393.727, 0.0, 10.000668, 9.999165 
9.849818e+2, 2.5507435e+2, -374703.47, -512865.44, -2868.0696, -0.010695358, 0.15550995, -374643.97, 65637.22, 0.0, 10.000853, 9.999067 
9.8497754e+2, 2.6507387e+2, -266146.16, -442698.5, -5781.9385, -0.043873534, 0.2234355, -265957.0, 76330.37, 0.00000001775074, 10.001084, 9.998764 
9.849752e+2, 2.750719e+2, -130002.555, -337967.22, -2188.8423, 0.15203959, 0.12380546, -129979.516, 114327.59, 0.000003544514, 10.00138, 9.998675 
9.849716e+2, 2.8507e+2, -29482.406, -296175.25, 55075.277, 0.1718085, 0.09958496, -18556.328, 127768.53, 0.00003520851, 10.001641, 9.998163 
9.8496646e+2, 2.9506785e+2, 79139.336, -207689.48, 45933.453, 0.023770522, 0.026522506, 86315.68, 134659.77, 0.00014922032, 10.001765, 9.998034 
9.849621e+2, 3.0506572e+2, 115876.76, -291457.34, 25844.783, 0.0043561417, 0.08360662, 117510.02, 117510.02, 0.00039592202, 10.002281, 9.996861 
9.849594e+2, 3.1506354e+2, 325884.6, 455.8688, 39105.484, 0.2362229, 0.13477755, 330517.78, 330517.78, 0.0007798097, 10.002821, 9.998606 
9.950315e+2, 1.2507917e+2, -2064711.9, -1705452.9, -16067.956, 0.10860858, -0.024640834, -1704735.6, 9489.779, 0.000108580556, 9.996742, 10.001613 
9.9502546e+2, 1.3508117e+2, -1888840.0, -1582067.9, 34842.105, -0.03829254, -0.014666997, -1578160.4, 38040.195, 0.000033028722, 9.9974, 10.001472 
9.950217e+2, 1.4508131e+2, -1817964.9, -1685220.1, 33138.813, -0.011867033, -0.050995182, -1677407.1, -159208.81, 0.0000026281716, 9.997974, 9.999809 
9.950187e+2, 1.5508096e+2, -1604022.1, -1531152.1, 26982.459, 0.034945384, -0.11088032, -1522248.8, -102043.88, 0.00000000019976186, 9.99879, 9.999796 
9.9501467e+2, 1.6508166e+2, -1470641.3, -1386692.6, -31956.27, 0.027566465, -0.027144186, -1375912.4, -53711.453, 0.0, 9.998928, 10.000043 
9.950096e+2, 1.75083e+2, -1420966.0, -1319032.3, 3479.486, -0.031643003, 0.07259565, -1318913.5, -94723.17, 0.0, 9.998629, 9.999979 
9.9500585e+2, 1.8508312e+2, -1321943.8, -1300203.8, 48331.86, -0.036543604, 0.12900445, -1261534.6, -135344.6, 0.0, 9.998963, 9.999279 
9.9500346e+2, 1.9508177e+2, -1092052.8, -1144138.6, 54770.086, 0.015603345, 0.034766678, -1057449.1, -29246.799, 0.0, 9.999891, 9.99923 
9.9500054e+2, 2.0508066e+2, -954138.1, -1029316.3, 34130.31, 0.023892425, 0.008644685, -940955.0, -10742.226, 0.0, 10.000175, 9.999208 
9.94997e+2, 2.1507943e+2, -909241.0, -960734.44, 66178.95, -0.018208938, -0.06846106, -863976.8, -31751.934, 0.0, 9.999836, 9.999166 
9.949934e+2, 2.250792e+2, -829821.6, -909816.06, 20932.014, -0.035776347, 0.014679254, -824675.44, -90446.18, 0.0, 9.999856, 9.998839 
9.9498963e+2, 2.3507957e+2, -685243.6, -794140.25, 19895.895, -0.034739595, 0.1370562, -681722.44, -45492.613, 0.0, 10.000205, 9.998788 
9.9498683e+2, 2.4507892e+2, -523200.5, -631037.5, 6215.8193, 0.04271686, 0.18365227, -522843.4, 15394.71, 0.0, 10.000496, 9.999096 
9.949849e+2, 2.5507686e+2, -404454.1, -532221.4, 21580.428, 0.18816712, 0.03636914, -400907.5, 39350.5, 0.0, 10.000664, 9.999027 
9.949807e+2, 2.6507628e+2, -254832.31, -378416.66, -10239.843, 0.13596399, 0.07048475, -253989.63, 88274.11, 0.000000028595345, 10.000918, 9.999282 
9.949744e+2, 2.7507675e+2, -118100.59, -277169.13, 29707.314, -0.10379595, 0.1603854, -112733.6, 131526.31, 0.000003781716, 10.001236, 9.999158 
9.949709e+2, 2.8507596e+2, -26479.99, -267374.4, 45024.418, -0.086803876, 0.21297137, -18339.766, 127927.36, 0.000036350866, 10.001541, 9.998407 
9.949702e+2, 2.950738e+2, 86684.2, -169061.17, 75732.695, 0.1754857, 0.117746204, 107428.016, 155714.27, 0.00015456251, 10.001667, 9.998344 
9.949662e+2, 3.0507168e+2, 116832.18, -265475.7, 39473.004, 0.14797837, 0.13980566, 120865.19, 120865.19, 0.00041193186, 10.00219, 9.99708 
9.949602e+2, 3.1507054e+2, 315525.47, 34307.97, 102784.12, -0.046287786, 0.27333823, 349087.3, 349087.3, 0.0008105773, 10.002603, 9.998936 
1.00502856e+3, 1.2508322e+2, -2021667.5, -1694094.0, -43395.527, 0.14253932, -0.0036388389, -1688442.6, 25742.977, 0.00014134821, 9.997078, 10.001532 
1.00502394e+3, 1.350849e+2, -1758264.4, -1530711.3, -53613.875, 0.032235038, -0.017655188, -1518712.0, 97452.17, 0.000046426092, 9.998346, 10.001367 
1.00502096e+3, 1.4508496e+2, -1740760.6, -1639729.0, -9396.063, 0.095627986, -0.057902753, -1638862.5, -120699.83, 0.00000474816, 9.998507, 9.999844 
1.0050176e+3, 1.5508476e+2, -1713667.0, -1583927.0, -1249.6693, 0.08952209, -0.10198041, -1583915.0, -163747.0, 0.000000004412824, 9.998053, 9.999786 
1.0050134e+3, 1.6508554e+2, -1557803.4, -1419861.3, -9191.093, 0.053822856, -0.013725457, -1419251.5, -97088.37, 0.0, 9.99827, 10.000146 
1.0050085e+3, 1.7508692e+2, -1343755.3, -1270891.1, -36591.39, -0.011537544, 0.07803331, -1255687.8, -31535.574, 0.0, 9.999092, 10.000095 
1.0050053e+3, 1.8508704e+2, -1217162.3, -1256089.5, 53353.01, -0.015934968, 0.13224421, -1179833.4, -53681.594, 0.0, 9.999719, 9.999211 
1.00500375e+3, 1.9508563e+2, -1049606.9, -1131785.5, 39206.72, 0.041777685, 0.03978731, -1033902.75, -5737.7, 0.0, 10.000224, 9.999148 
1.0050011e+3, 2.050845e+2, -928825.1, -994533.75, 8964.508, 0.06129982, 0.0045994767, -927624.06, 2551.4365, 0.0, 10.00024, 9.999421 
1.0049973e+3, 2.1508327e+2, -914037.0, -947623.4, -8500.246, 0.0352386, -0.09168525, -912008.25, -79821.305, 0.0, 9.999709, 9.999333 
1.0049936e+3, 2.250832e+2, -812472.25, -899646.1, 35775.805, 0.0029648156, 0.00071634125, -799670.06, -65480.293, 0.0, 9.999988, 9.998841 
1.0049902e+3, 2.350839e+2, -554501.7, -734075.3, 34108.734, -0.03936754, 0.15734379, -548241.2, 87946.86, 0.0, 10.001121, 9.998761 
1.0049876e+3, 2.4508314e+2, -415970.4, -581651.56, 35000.4, 0.042707127, 0.19720063, -408879.97, 129317.484, 0.0, 10.001245, 9.999075 
1.00498594e+3, 2.550807e+2, -443488.13, -544889.4, 18673.953, 0.25165033, 0.013100046, -440158.5, 61.5953, 0.0, 10.000396, 9.999055 
1.004982e+3, 2.6508003e+2, -323193.25, -408259.72, 39334.41, 0.20846155, 0.034516305, -307793.16, 34432.758, 0.000000017098808, 10.000428, 9.999312 
1.0049757e+3, 2.750806e+2, -122327.305, -269089.8, 9967.301, -0.07737917, 0.12585697, -121653.47, 122566.89, 0.000003428396, 10.001163, 9.999242 
1.0049726e+3, 2.8508002e+2, -9494.032, -242314.67, 29269.143, -0.06843032, 0.1870177, -5870.835, 140354.63, 0.00003625069, 10.001601, 9.998537 
1.00497246e+3, 2.9507816e+2, 99000.445, -149025.25, 7045.4463, 0.24626878, 0.10507633, 99200.414, 147443.3, 0.00015744341, 10.001687, 9.998467 
1.00496866e+3, 3.050759e+2, 123181.125, -205611.7, 18923.086, 0.19892323, 0.0884645, 124266.625, 124266.625, 0.00042211023, 10.001954, 9.997636 
1.0049627e+3, 3.1507537e+2, 267180.5, 57733.023, 41887.676, -0.008768793, 0.23460104, 275247.0, 275247.0, 0.0008305699, 10.002009, 9.999428 
1.0150238e+3, 1.2508714e+2, -2043886.3, -1722610.1, -62414.066, -0.11902509, 0.11004379, -1710911.0, 3239.8694, 0.0001798155, 9.997024, 10.00135 
1.01502284e+3, 1.3508749e+2, -1773531.8, -1560192.4, 7713.4883, 0.051955216, -0.015677202, -1559913.9, 56230.85, 0.000062927356, 9.998345, 10.001157 
1.01502106e+3, 1.4508776e+2, -1695718.4, -1539094.8, -50177.344, 0.20594312, -0.06250112, -1524398.5, -6257.9756, 0.000007860604, 9.998477, 10.000547 
1.0150163e+3, 1.5508941e+2, -1669942.1, -1487268.3, -906.15137, 0.11925107, 0.008184898, -1487263.8, -67139.52, 0.000000028517778, 9.998034, 10.000453 
1.015012e+3, 1.6509011e+2, -1580748.0, -1462869.5, 3681.6182, 0.040727794, 0.07153927, -1462754.6, -140636.58, 0.0, 9.998244, 9.999865 
1.0150081e+3, 1.7508966e+2, -1363879.9, -1310997.5, 9689.667, -0.0061997874, 0.0064720614, -1309278.0, -85153.734, 0.0, 9.999081, 9.999826 
1.01500556e+3, 1.850894e+2, -1224768.1, -1250312.6, 53878.293, 0.000319264, 0.030208569, -1182168.9, -56040.723, 0.0, 9.999625, 9.999296 
1.0150044e+3, 1.9508888e+2, -1063292.5, -1127187.8, 72693.28, 0.05128675, 0.016528869, -1015836.4, 12297.622, 0.0, 10.000085, 9.999244 
1.0150012e+3, 2.0508873e+2, -953040.3, -1007349.1, -28930.621, 0.020750262, 0.07562351, -940516.75, -10380.516, 0.0, 10.000078, 9.999411 
1.01499595e+3, 2.150886e+2, -941132.06, -956592.5, -14047.006, -0.08785944, 0.08949374, -932828.7, -100690.43, 0.0, 9.999514, 9.999359 
1.0149932e+3, 2.2508821e+2, -817227.0, -857083.25, 59285.52, -0.06684028, 0.12672015, -774609.94, -40466.688, 0.0, 9.999762, 9.999243 
1.0149927e+3, 2.3508714e+2, -556682.0, -686247.3, 91273.66, 0.07439709, 0.062436946, -509537.56, 126617.44, 0.0, 10.000898, 9.999194 
1.01498984e+3, 2.4508648e+2, -442825.88, -592377.0, -16650.715, 0.10748787, 0.08797637, -440994.44, 97167.55, 0.0, 10.00105, 9.999098 
1.0149845e+3, 2.5508583e+2, -464814.47, -554745.8, 3548.398, 0.03211518, 0.081158854, -464674.7, -24506.807, 0.0, 10.000242, 9.999066 
1.014981e+3, 2.6508495e+2, -367075.34, -466115.53, 53657.05, 0.03117374, 0.09938123, -343579.56, -1404.2762, 0.000000011022683, 10.000288, 9.9989805 
1.01497896e+3, 2.7508348e+2, -165006.1, -322638.75, 60245.594, 0.0897782, 0.020956255, -144617.86, 99569.99, 0.0000031084232, 10.001014, 9.998943 
1.0149761e+3, 2.8508216e+2, -32765.057, -263362.72, 16083.315, 0.09731129, 0.025138546, -31648.71, 114551.25, 0.000035475467, 10.001488, 9.998444 
1.0149726e+3, 2.950807e+2, 66043.76, -177635.5, 32567.504, 0.053080842, -0.008512297, 70321.29, 118535.875, 0.00015874387, 10.001526, 9.998344 
1.0149688e+3, 3.050784e+2, 170570.8, -79631.336, 12092.085, -0.0073656994, -0.06994864, 171153.84, 171153.84, 0.00042931808, 10.001842, 9.998549 
1.01496585e+3, 3.1507805e+2, 277111.66, 151652.47, 88682.08, 0.038493387, 0.0027398018, 323007.63, 323007.63, 0.00084597926, 10.001722, 10.000196 
1.0250221e+3, 1.2509057e+2, -2011394.8, -1776174.4, 79188.234, 0.0012734041, 0.06641455, -1751999.8, -37885.934, 0.00022439056, 9.997528, 10.000749 
1.025021e+3, 1.35091e+2, -1793634.5, -1641101.4, 70491.7, 0.042792365, 0.017561132, -1613513.9, 2598.6753, 0.0000828242, 9.998517, 10.000526 
1.0250193e+3, 1.4509152e+2, -1618857.8, -1471409.0, -24299.453, 0.17713095, 0.010323038, -1467507.8, 50599.89, 0.000012107546, 9.998837, 10.000863 
1.02501504e+3, 1.5509322e+2, -1533429.0, -1387815.1, -38429.117, 0.15791978, 0.05237302, -1378295.6, 41792.72, 0.00000009714164, 9.998798, 10.00078 
1.02501124e+3, 1.6509366e+2, -1471537.6, -1409025.4, 36908.4, 0.11150471, 0.07487634, -1391916.5, -69833.63, 0.0, 9.999027, 9.999832 
1.025008e+3, 1.7509271e+2, -1283206.5, -1271553.1, 21853.113, 0.05141165, -0.035381675, -1254763.3, -30670.514, 0.0, 9.999669, 9.999795 
1.0250057e+3, 1.8509242e+2, -1173297.8, -1219688.1, 83982.71, 0.045032687, -0.016100945, -1109365.9, 16731.014, 0.0, 9.999934, 9.999365 
1.0250044e+3, 1.950924e+2, -1105873.8, -1141946.8, 72576.25, 0.06747637, 0.01304609, -1049126.4, -21027.115, 0.0, 9.999754, 9.999313 
1.02500126e+3, 2.0509253e+2, -974847.75, -1029437.1, -9033.2295, 0.02758194, 0.102975376, -973391.75, -43291.98, 0.0, 10.000002, 9.999295 
1.0249962e+3, 2.1509244e+2, -784696.06, -897049.06, -41254.367, -0.06921885, 0.13740641, -771175.25, 60927.098, 0.0, 10.000674, 9.999209 
1.0249938e+3, 2.2509189e+2, -667162.7, -770356.1, 57706.484, -0.027184702, 0.1609779, -641349.7, 92758.7, 0.0, 10.000725, 9.999371 
1.02499366e+3, 2.3509054e+2, -667668.5, -727025.3, 37727.83, 0.13586745, 0.058078285, -649344.9, -13223.501, 0.0, 10.000083, 9.999305 
1.0249908e+3, 2.4508993e+2, -551613.6, -645228.9, -58016.51, 0.15810758, 0.08501747, -523876.84, 14250.447, 0.0, 10.000324, 9.999068 
1.0249854e+3, 2.5508967e+2, -304460.88, -484803.4, -81784.0, 0.043162107, 0.11905104, -272896.84, 167233.4, 0.0, 10.001376, 9.998998 
1.024982e+3, 2.650886e+2, -155048.48, -388755.38, 10381.483, 0.04906225, 0.13364938, -154588.23, 187551.66, 0.00000001218603, 10.001855, 9.998755 
1.0249811e+3, 2.7508646e+2, -72257.04, -299201.7, -12891.945, 0.18131465, 0.008682924, -71527.04, 172632.11, 0.0000027111198, 10.001756, 9.998743 
1.0249784e+3, 2.8508508e+2, -35414.38, -243793.11, -29959.191, 0.18656139, 0.008035875, -31192.596, 114978.79, 0.00003356842, 10.001372, 9.998642 
1.0249739e+3, 2.9508412e+2, -56066.66, -214345.1, -30916.395, 0.07286287, 0.0065332837, -50242.125, -2061.6948, 0.00015737157, 10.0005865, 9.998552 
1.0249702e+3, 3.0508167e+2, 84420.78, -112141.016, 14547.282, -0.0065692193, -0.08365283, 85491.57, 85491.57, 0.00043278775, 10.001228, 9.998606 
1.02496885e+3, 3.150806e+2, 436987.8, 207676.48, -45908.668, 0.1184481, -0.088470355, 445837.3, 445837.3, 0.00085735595, 10.002895, 10.0000105 
1.0350224e+3, 1.2509331e+2, -2077897.3, -1923504.3, 49509.72, 0.18636945, -0.15068997, -1908991.9, -194915.42, 0.00027553758, 9.997564, 9.999721 
1.03501804e+3, 1.3509554e+2, -1873118.3, -1804438.9, 114907.81, -0.1427737, 0.08852877, -1718849.3, -102782.26, 0.000106410545, 9.998509, 9.99941 
1.0350153e+3, 1.4509629e+2, -1617480.1, -1467761.4, -49426.984, -0.15456444, 0.16242817, -1452915.9, 65147.55, 0.000017580353, 9.998838, 10.000888 
1.0350132e+3, 1.550962e+2, -1527219.3, -1376986.6, -23502.258, 0.05926596, 0.023522831, -1373395.8, 46664.063, 0.00000023822265, 9.998803, 10.000856 
1.0350106e+3, 1.6509622e+2, -1472416.1, -1396711.6, 39861.72, 0.108205326, -0.009534709, -1379593.5, -57536.324, 0.0, 9.998975, 9.999939 
1.0350078e+3, 1.7509604e+2, -1286154.3, -1261470.9, 61359.234, 0.032422762, -0.05306068, -1211224.5, 12833.243, 0.0, 9.999605, 9.999893 
1.0350054e+3, 1.8509619e+2, -1181280.5, -1214407.8, 57072.72, -0.017651075, 0.0022919243, -1138416.4, -12359.021, 0.0, 9.99984, 9.999448 
1.0350033e+3, 1.9509627e+2, -1117113.1, -1139841.4, 77995.64, -0.047263492, 0.03048299, -1049658.0, -21597.996, 0.0, 9.9996395, 9.999386 
1.0350006e+3, 2.050959e+2, -1028305.94, -1095614.9, -2170.5776, -0.05457742, 0.08532129, -1028236.0, -98169.875, 0.0, 9.999805, 9.998936 
1.0349974e+3, 2.1509467e+2, -831048.94, -957485.5, 2010.8815, -0.031782534, 0.039464053, -831017.0, 1062.7257, 0.0, 10.00051, 9.998878 
1.0349949e+3, 2.2509417e+2, -707869.5, -802907.7, 17366.094, -0.013914248, 0.08891127, -704795.6, 29290.262, 0.0, 10.000509, 9.9992485 
1.0349927e+3, 2.3509407e+2, -707045.1, -758260.7, 30323.545, -0.0009465265, 0.12229574, -692963.1, -56875.543, 0.0, 9.999869, 9.99919 
1.0349903e+3, 2.4509352e+2, -600462.94, -695327.9, -30735.125, 0.050338056, 0.17396365, -591375.6, -53281.93, 0.0, 10.000107, 9.998828 
1.034988e+3, 2.5509223e+2, -345374.78, -527318.7, -22206.398, 0.14173879, 0.12698908, -342703.7, 97403.234, 0.0, 10.0012, 9.998787 
1.0349851e+3, 2.6509106e+2, -183429.7, -417259.4, -10029.09, 0.13752261, 0.14565979, -183000.33, 159118.39, 0.00000000560088, 10.001725, 9.998621 
1.0349818e+3, 2.750895e+2, -106303.234, -330163.2, 2441.8687, 0.042866237, 0.09475723, -106276.6, 137857.19, 0.0000022721786, 10.0015955, 9.998603 
1.0349788e+3, 2.8508875e+2, -16428.727, -176682.23, -75425.516, 0.052069373, 0.13683525, 13486.806, 159626.38, 0.000031172072, 10.001252, 9.999162 
1.0349756e+3, 2.9508856e+2, -44179.938, -152938.8, -33128.51, 0.14333878, 0.16440219, -34883.465, 13254.565, 0.00015322318, 10.00043, 9.99905 
1.03497244e+3, 3.0508578e+2, 1746.7443, -252453.63, 69008.164, 0.061312277, 0.057736713, 19272.229, 19272.229, 0.00043103905, 10.001103, 9.997696 
1.03497036e+3, 3.1508338e+2, 318081.1, 32266.93, 66013.8, -0.08902376, 0.007325738, 332591.47, 332591.47, 0.00086192216, 10.002623, 9.9989195 
1.04502074e+3, 1.2509607e+2, -1974579.9, -1856240.1, -44448.8, 0.25549552, -0.18381184, -1841404.8, -127357.414, 0.0003338259, 9.998172, 9.999902 
1.0450169e+3, 1.3509828e+2, -1900687.4, -1802476.8, 75046.125, -0.08319537, 0.037785668, -1761897.9, -145861.77, 0.00013404706, 9.9982195, 9.999574 
1.0450139e+3, 1.450991e+2, -1709878.9, -1554642.3, -14412.13, -0.14629984, 0.12999234, -1553315.6, -35283.016, 0.000024406929, 9.998412, 10.000478 
1.0450122e+3, 1.5509886e+2, -1509990.3, -1405207.8, -67470.57, 0.066107795, 0.014497914, -1372175.8, 47858.133, 0.0000004785213, 9.999116, 10.00049 
1.0450099e+3, 1.6509889e+2, -1394680.9, -1349076.6, 13940.656, 0.12389303, -0.0043182992, -1345152.8, -23120.71, 0.0, 9.999443, 10.000059 
1.0450075e+3, 1.7509887e+2, -1297681.8, -1255349.6, 5847.7563, 0.055149548, -0.045308564, -1254556.6, -30526.623, 0.0, 9.999456, 10.000021 
1.0450051e+3, 1.8509918e+2, -1242265.8, -1238035.9, 18879.973, 0.0059657623, 0.018914148, -1221152.8, -95124.93, 0.0, 9.9994135, 9.999484 
1.0450028e+3, 1.9509947e+2, -1152104.0, -1151058.6, -2965.973, -0.02896217, 0.066903636, -1148569.6, -120540.74, 0.0, 9.999387, 9.999425 
1.0450005e+3, 2.0509891e+2, -1040585.44, -1091428.5, -7109.5503, -0.030550366, 0.09634236, -1039610.0, -109573.9, 0.0, 9.999677, 9.99902 
1.044998e+3, 2.1509716e+2, -873287.3, -963177.06, -4542.436, 0.0033058152, -0.01313783, -873058.3, -41005.305, 0.0, 10.000174, 9.998986 
1.0449956e+3, 2.2509657e+2, -718254.56, -826622.5, 23174.242, 0.016402973, 0.030465506, -713506.8, 20552.621, 0.0, 10.000503, 9.999102 
1.04499295e+3, 2.3509672e+2, -602654.5, -726976.1, -861.62695, 0.0075430213, 0.10560588, -602648.56, 33410.76, 0.0, 10.000643, 9.999047 
1.0449909e+3, 2.45096e+2, -484566.97, -662028.1, 12978.234, 0.052570216, 0.15622264, -483622.88, 54444.8, 0.0, 10.000986, 9.998646 
1.0449894e+3, 2.5509414e+2, -308714.72, -527289.75, -8438.032, 0.1569838, 0.071730316, -308389.44, 131697.4, 0.0, 10.001529, 9.998634 
1.04498684e+3, 2.6509312e+2, -211519.84, -413852.03, 8.249897, 0.16064571, 0.10269052, -211519.84, 130578.15, 0.0000000009945924, 10.00144, 9.998799 
1.0449831e+3, 2.7509224e+2, -232658.47, -378785.47, 2908.7039, 0.07247591, 0.10855404, -232600.6, 11506.372, 0.0000020282196, 10.000628, 9.998757 
1.04498014e+3, 2.850916e+2, -60697.152, -222739.03, -22753.186, 0.08317515, 0.16771914, -57562.88, 88548.8, 0.00002862313, 10.001058, 9.998936 
1.0449774e+3, 2.9509112e+2, 263496.4, -21706.576, -78740.72, 0.19185355, 0.1796479, 283791.47, 331904.66, 0.00014660136, 10.002634, 9.99888 
1.0449747e+3, 3.0508813e+2, 237936.47, -187993.8, 48085.82, 0.116070196, 0.08495164, 243297.67, 243297.67, 0.00042212423, 10.002929, 9.99726 
1.044973e+3, 3.1508556e+2, 126084.125, -130302.38, 13799.251, -0.017459124, 0.06481264, 126824.69, 126824.69, 0.00085377786, 10.001561, 9.99833 
1.0550164e+3, 1.2509876e+2, -1866601.4, -1630151.5, -94373.55, -0.08836257, -0.058620192, -1597103.5, 116923.63, 0.00039971265, 9.998174, 10.001445 
1.0550171e+3, 1.3509941e+2, -1800126.4, -1584644.9, 92697.555, 0.07479294, -0.1431213, -1550255.8, 65762.49, 0.00016604259, 9.998189, 10.0010805 
1.05501465e+3, 1.4510024e+2, -1779806.3, -1694855.8, -11230.573, 0.037396494, -0.07833573, -1693396.1, -175383.72, 0.000032768716, 9.998389, 9.999527 
1.0550114e+3, 1.5510127e+2, -1582447.0, -1551589.8, -26447.854, 0.036941618, 0.026373273, -1536399.3, -116389.72, 0.0000008393984, 9.999092, 9.999501 
1.05500855e+3, 1.6510177e+2, -1384808.6, -1319725.9, -4539.693, 0.006027195, 0.09366549, -1319410.8, 2596.0796, 0.0, 9.999405, 10.000275 
1.05500646e+3, 1.7510134e+2, -1286213.1, -1226622.0, 21743.666, -0.023724956, -0.010111642, -1219531.8, 4476.3037, 0.0, 9.999433, 10.000228 
1.0550045e+3, 1.8510154e+2, -1264172.3, -1258389.8, -2669.613, -0.029181486, 0.036603697, -1257345.8, -131339.17, 0.0, 9.999304, 9.999397 
1.05500266e+3, 1.9510202e+2, -1174037.4, -1170550.0, 12278.872, -0.0154915005, 0.10999775, -1159891.6, -131886.08, 0.0, 9.999268, 9.999351 
1.05500035e+3, 2.0510162e+2, -1031011.8, -1030308.6, -7486.4, -0.033877987, 0.13378827, -1023165.56, -93156.31, 0.0, 9.999497, 9.99953 
1.0549977e+3, 2.1509996e+2, -867367.8, -907757.94, 28936.428, -0.08461421, -0.017434658, -852276.06, -20254.213, 0.0, 9.999978, 9.999468 
1.0549955e+3, 2.2509907e+2, -768502.06, -876023.0, 13173.762, -0.06309939, -0.014827656, -766911.5, -32882.043, 0.0, 10.000271, 9.998867 
1.054994e+3, 2.3509856e+2, -647951.94, -771650.6, 20747.244, 0.028878389, 0.011344828, -644564.8, -8528.738, 0.0, 10.000435, 9.998836 
1.0549919e+3, 2.4509746e+2, -522835.9, -696496.1, 15357.714, 0.029343022, 0.04253949, -521488.22, 16560.123, 0.0, 10.000795, 9.9985 
1.0549891e+3, 2.5509548e+2, -345488.97, -561808.25, 25565.23, -0.055134647, -0.041798934, -342508.66, 97560.766, 0.0, 10.001349, 9.998481 
1.0549867e+3, 2.6509473e+2, -203374.14, -357395.63, -46154.547, -0.018490223, 0.0040861308, -190602.39, 151475.45, 0.000000000012280949, 10.001276, 9.99926 
1.0549846e+3, 2.7509484e+2, -223665.9, -321426.97, -4612.2314, 0.12557045, 0.05220332, -223448.78, 20628.451, 0.0000016155456, 10.000467, 9.999223 
1.054982e+3, 2.85094e+2, -149011.27, -376173.22, 22472.88, 0.14404103, 0.11715242, -146809.39, -724.3771, 0.000025306648, 10.000932, 9.997945 
1.0549791e+3, 2.9509178e+2, 173483.27, -178856.84, 6801.784, 0.049843714, 0.059364226, 173614.52, 221719.77, 0.00013793015, 10.002506, 9.997868 
1.0549768e+3, 3.050887e+2, 228239.48, -183861.77, -9982.046, -0.004425672, 0.00013596917, 228481.13, 228481.13, 0.00040720604, 10.002823, 9.997337 
1.0549757e+3, 3.150874e+2, 80153.875, -166043.69, 14722.078, 0.022014773, 0.097974524, 81031.09, 81031.09, 0.0008331317, 10.001308, 9.998205 
1.0650144e+3, 1.25101e+2, -1789674.5, -1562368.1, -16517.207, -0.0946197, 0.0009048327, -1561174.3, 152834.14, 0.00047318285, 9.998601, 10.001701 
1.0650165e+3, 1.351011e+2, -1668056.4, -1482106.1, -1453.4258, 0.17208353, -0.16873968, -1482094.9, 133906.4, 0.00020250746, 9.998957, 10.001408 
1.0650137e+3, 1.4510185e+2, -1716340.0, -1668340.4, -68428.82, 0.089768894, -0.12405976, -1619824.6, -101830.39, 0.000042863663, 9.998827, 9.999513 
1.0650105e+3, 1.5510306e+2, -1649504.3, -1583660.9, -54210.348, 0.071107484, 0.0013596696, -1553158.6, -133168.8, 0.0000013547858, 9.998624, 9.999514 
1.0650077e+3, 1.6510367e+2, -1499405.1, -1392726.0, 29183.488, 0.02550456, 0.087156355, -1385264.4, -63277.613, 0.0, 9.998689, 10.000125 
1.0650056e+3, 1.7510335e+2, -1357952.3, -1276966.4, -10448.081, -0.014439673, 0.011304712, -1275640.1, -51651.61, 0.0, 9.999008, 10.000094 
1.0650042e+3, 1.8510331e+2, -1249808.4, -1247532.4, -4127.4707, 0.007804656, 0.038759336, -1244388.9, -118399.94, 0.0, 9.9993725, 9.999442 
1.06500305e+3, 1.9510324e+2, -1088733.8, -1125477.0, -13078.946, 0.079724275, 0.05287639, -1084553.8, -56562.38, 0.0, 9.999824, 9.999395 
1.0650011e+3, 2.0510286e+2, -941482.9, -980873.56, -11747.119, 0.060932092, 0.07309699, -938245.7, -8251.26, 0.0, 10.0000925, 9.999577 
1.06499806e+3, 2.1510187e+2, -826065.25, -879176.8, -47485.746, -0.03950342, -0.016305657, -798214.2, 33787.176, 0.0, 10.000236, 9.999534 
1.0649961e+3, 2.25101e+2, -747783.9, -876361.7, -43394.336, -0.028358309, -0.010971167, -734509.0, -499.76376, 0.0, 10.000452, 9.998778 
1.0649952e+3, 2.3509991e+2, -614347.6, -760759.06, -54583.684, 0.09739051, -0.032556053, -596238.2, 39783.332, 0.0, 10.000695, 9.998778 
1.0649931e+3, 2.4509896e+2, -528623.25, -651703.2, -11057.632, 0.08005836, -0.006094486, -527637.75, 10393.945, 0.0, 10.000539, 9.998933 
1.0649895e+3, 2.5509778e+2, -516184.0, -603248.44, 8945.601, -0.07741794, -0.05231896, -515274.38, -75230.52, 0.0, 9.999976, 9.998871 
1.0649873e+3, 2.6509717e+2, -335747.13, -451364.63, -24358.238, -0.038934827, 0.0039814105, -330824.9, 11226.043, 0.0, 10.000497, 9.9989805 
1.06498644e+3, 2.7509695e+2, -26472.334, -250741.14, -84942.79, 0.19398952, 0.04638226, 2068.0708, 246123.27, 0.00000091217555, 10.0019455, 9.998985 
1.0649841e+3, 2.8509572e+2, 56083.266, -315644.78, -11825.106, 0.1940056, 0.10204515, 56459.06, 202527.0, 0.000020761427, 10.002493, 9.997616 
1.0649806e+3, 2.9509303e+2, 104079.62, -249268.0, -13897.159, -0.017397048, 0.028476266, 104625.34, 152719.63, 0.00012637535, 10.002162, 9.997556 
1.0649786e+3, 3.0509022e+2, 133167.02, -152343.94, -184.92476, -0.038493164, -0.021469282, 133167.14, 133167.14, 0.00038601994, 10.001834, 9.998023 
1.06497854e+3, 3.150897e+2, 109774.164, -73801.43, 8598.219, 0.1877547, 0.075092025, 110176.01, 110176.01, 0.0008001297, 10.001184, 9.99888 
1.0750146e+3, 1.2510253e+2, -1869944.6, -1718073.6, -8553.843, -0.012973105, -0.0343199, -1717593.4, -3599.7463, 0.00055371417, 9.998578, 10.00063 
1.0750144e+3, 1.3510333e+2, -1742993.4, -1626382.0, 18637.875, 0.045691043, -0.034071643, -1623475.6, -7490.802, 0.00024334127, 9.998922, 10.000426 
1.0750104e+3, 1.45104e+2, -1645165.9, -1526829.5, -103231.09, -0.16309182, -0.00006633812, -1467012.3, 50965.254, 0.00005483326, 9.9988365, 10.000486 
1.0750089e+3, 1.551043e+2, -1578214.4, -1441163.4, -45680.063, 0.018372575, -0.06560206, -1427333.5, -7359.2534, 0.000002073113, 9.998634, 10.000492 
1.07500695e+3, 1.651047e+2, -1546192.8, -1474043.8, 20651.607, 0.046516266, -0.01919477, -1468550.6, -146579.7, 0.0000000000166348, 9.998632, 9.999589 
1.0750046e+3, 1.7510492e+2, -1402780.5, -1353940.0, 18788.5, -0.042947557, 0.00776054, -1347548.6, -123577.78, 0.0, 9.998945, 9.999592 
1.0750035e+3, 1.8510456e+2, -1256748.6, -1233885.1, -4387.649, -0.017910035, 0.020443052, -1233072.0, -107097.72, 0.0, 9.999258, 9.99959 
1.0750037e+3, 1.9510321e+2, -1099688.6, -1110788.8, 18407.518, 0.1156691, -0.109906174, -1086012.6, -58026.92, 0.0, 9.999671, 9.999565 
1.0750021e+3, 2.0510273e+2, -1000618.1, -1065581.0, -27147.21, 0.12251815, -0.082333885, -990767.4, -60776.727, 0.0, 9.999923, 9.999082 
1.07499905e+3, 2.1510278e+2, -886742.94, -959579.0, -27026.844, 0.0049954513, -0.020714423, -877809.9, -45817.41, 0.0, 10.000033, 9.999083 
1.07499704e+3, 2.2510228e+2, -774003.7, -873098.6, -49126.535, -0.006715781, 0.036331467, -753777.5, -19778.016, 0.0, 10.000208, 9.9989195 
1.0749961e+3, 2.3510088e+2, -637892.6, -756114.06, -25312.225, 0.08090511, -0.0311485, -632701.06, 3313.8547, 0.0, 10.000467, 9.998921 
1.0749937e+3, 2.4510059e+2, -498302.3, -534150.8, -45936.527, 0.07013301, 0.007661622, -466916.9, 71100.25, 0.0, 10.000313, 9.999843 
1.0749901e+3, 2.5510097e+2, -474811.28, -476924.28, 7415.6646, -0.0395618, 0.025429048, -468377.22, -28366.957, 0.0, 9.999805, 9.999814 
1.07498825e+3, 2.6510042e+2, -441653.72, -626681.44, 13862.594, -0.01720547, 0.09401779, -440620.88, -98603.6, 0.000000000031670343, 10.000313, 9.997869 
1.074988e+3, 2.7509853e+2, -128698.34, -428544.13, -8148.8374, 0.13048199, 0.08306906, -128477.05, 115564.55, 0.00000057346807, 10.001798, 9.997841 
1.07498586e+3, 2.8509685e+2, 69121.82, -263584.3, -42042.645, 0.078593545, 0.13124748, 74352.34, 220413.25, 0.000016841232, 10.002386, 9.998019 
1.0749817e+3, 2.9509506e+2, 112923.45, -194865.31, -1521.5469, -0.16699536, 0.10286914, 112930.98, 161009.34, 0.000114238224, 10.002008, 9.998002 
1.07498e+3, 3.050929e+2, 202581.9, 16263.024, -29372.117, -0.13003291, 0.033271354, 207102.58, 207102.58, 0.0003625103, 10.00173, 9.99923 
1.07498035e+3, 3.150922e+2, 158391.14, 70179.55, 45362.152, 0.1706828, -0.010381814, 177554.97, 177554.97, 0.00076317973, 10.000998, 9.999965 
1.0850142e+3, 1.251043e+2, -1780676.9, -1763711.9, 68990.48, 0.050205797, -0.03900314, -1702684.4, 11290.773, 0.00064071716, 9.999522, 9.999885 
1.08501315e+3, 1.3510518e+2, -1852671.3, -1757088.5, 6318.9653, 0.06194404, 0.03857627, -1756672.5, -140703.58, 0.00028839763, 9.998474, 9.99976 
1.08500876e+3, 1.451054e+2, -1724637.4, -1538347.4, -57512.04, -0.1757181, 0.05216649, -1522022.6, -4056.5452, 0.00006873226, 9.998224, 10.000674 
1.0850081e+3, 1.5510507e+2, -1481173.6, -1373547.6, -106964.92, 0.045497682, -0.09433305, -1307622.0, 112343.74, 0.0000030594845, 9.999238, 10.000649 
1.08500674e+3, 1.6510527e+2, -1389736.9, -1424730.1, -31249.533, 0.10969653, -0.06775117, -1371419.3, -49455.49, 0.000000000186287, 9.999807, 9.999362 
1.0850049e+3, 1.7510568e+2, -1266694.1, -1316829.0, -48305.46, 0.035649642, 0.0014280675, -1237339.1, -13375.958, 0.0, 9.999988, 9.999346 
1.08500354e+3, 1.8510531e+2, -1164683.5, -1176662.6, -36432.65, 0.03962479, 0.020562088, -1133751.4, -7784.282, 0.0, 9.999834, 9.999713 
1.085003e+3, 1.9510388e+2, -1142131.3, -1116352.4, -50090.74, 0.11414786, -0.12813269, -1077519.3, -49540.76, 0.0, 9.999332, 9.999691 
1.0850016e+3, 2.0510352e+2, -1091962.8, -1103147.0, -32107.193, 0.1206025, -0.09744524, -1064964.4, -134981.86, 0.0, 9.99928, 9.9991255 
1.0849993e+3, 2.1510379e+2, -940573.5, -983563.2, -31943.492, 0.05692699, -0.016626956, -923566.2, -91582.83, 0.0, 9.999664, 9.999093 
1.0849976e+3, 2.2510354e+2, -776944.75, -855238.8, 1144.9465, 0.03874143, 0.057576373, -776928.0, -42939.785, 0.0, 10.000105, 9.999097 
1.0849963e+3, 2.3510246e+2, -609838.7, -725305.25, -13971.87, 0.06461527, 0.0076065715, -608172.1, 27828.041, 0.0, 10.000582, 9.999087 
1.0849942e+3, 2.4510212e+2, -418687.47, -523600.8, -63585.992, 0.07322693, 0.04638298, -388713.1, 149289.78, 0.0, 10.000962, 9.999622 
1.08499154e+3, 2.551022e+2, -302705.97, -417752.6, -127751.76, 0.06720223, 0.054413375, -220124.17, 219875.81, 0.0, 10.001092, 9.999613 
1.0849899e+3, 2.6510143e+2, -332670.34, -551757.8, -51178.074, 0.08201933, 0.10439908, -321304.9, 20703.492, 0.000000020287489, 10.000959, 9.998065 
1.08498916e+3, 2.750995e+2, -289204.53, -484860.56, -14407.471, 0.11997534, 0.065278366, -288149.3, -44117.32, 0.0000009682407, 10.000593, 9.998033 
1.0849869e+3, 2.850982e+2, -162630.25, -302796.06, 20458.309, 0.05807496, 0.110709295, -159705.23, -13658.496, 0.000016002106, 10.000495, 9.998655 
1.0849838e+3, 2.950973e+2, -61648.98, -199800.23, 31288.75, -0.08068196, 0.10916589, -54893.027, -6837.737, 0.00010691048, 10.000485, 9.998694 
1.0849821e+3, 3.0509555e+2, 120076.336, 3717.4321, 29281.023, -0.04642681, 0.03442841, 127029.266, 127029.266, 0.00034615427, 10.001052, 9.999492 
1.08498156e+3, 3.150948e+2, 301590.6, 161067.17, -29611.86, 0.16270125, -0.027885515, 307575.66, 307575.66, 0.00073994894, 10.0019045, 10.000167 
1.0950128e+3, 1.2510628e+2, -1799352.8, -1793235.9, 51807.63, -0.1093594, -0.020937718, -1744396.5, -30443.682, 0.000734217, 9.99948, 9.999704 
1.09501205e+3, 1.3510688e+2, -1864290.4, -1791502.6, -22891.254, 0.075045355, 0.04958043, -1784902.0, -168950.86, 0.00033773432, 9.998503, 9.9995165 
1.095008e+3, 1.451062e+2, -1781260.0, -1648448.0, -42657.813, -0.11121083, 0.022460775, -1635927.1, -117968.54, 0.0000845864, 9.998199, 9.999928 
1.0950072e+3, 1.5510538e+2, -1543269.3, -1485072.4, -51815.594, 0.0070183785, -0.09617409, -1454743.8, -34779.484, 0.0000043925156, 9.999177, 9.999909 
1.0950065e+3, 1.6510536e+2, -1386854.5, -1415090.6, -45227.523, 0.06767228, -0.057711747, -1353592.8, -31627.953, 0.0000000006358386, 9.999782, 9.999446 
1.0950057e+3, 1.7510562e+2, -1261993.9, -1305971.6, -24947.516, 0.08833621, -0.011835896, -1250727.8, -26762.36, 0.0, 9.99997, 9.999433 
1.0950038e+3, 1.8510573e+2, -1170443.3, -1170466.3, -75654.016, 0.04200693, 0.046825793, -1094800.8, 31165.01, 0.0, 9.99976, 9.999788 
1.0950009e+3, 1.9510539e+2, -1155461.1, -1109779.4, -51477.914, -0.05970844, -0.001308013, -1076302.5, -48334.07, 0.0, 9.999189, 9.999802 
1.0949992e+3, 2.0510523e+2, -1081776.5, -1046253.7, -35687.82, -0.07891383, 0.018356139, -1024151.75, -94181.53, 0.0, 9.999116, 9.999599 
1.0949984e+3, 2.1510486e+2, -933568.4, -926948.06, -1147.4191, -0.021317476, -0.012745984, -926754.8, -94780.42, 0.0, 9.9994755, 9.999576 
1.0949972e+3, 2.2510475e+2, -807839.4, -864498.06, 265.57043, -0.027847912, 0.048094157, -807838.1, -73862.055, 0.0, 9.999872, 9.999143 
1.0949956e+3, 2.3510444e+2, -640365.9, -735167.9, 20079.678, -0.09526485, 0.068781234, -636288.25, -308.95175, 0.0, 10.000351, 9.999129 
1.09499425e+3, 2.4510343e+2, -543405.4, -727284.7, -75740.69, -0.051443852, 0.10266888, -516225.1, 21765.445, 0.0, 10.000732, 9.998329 
1.0949933e+3, 2.5510138e+2, -421756.84, -616572.9, -103798.07, 0.10378489, 0.028574837, -376818.94, 63193.72, 0.0, 10.000889, 9.998342 
1.0949916e+3, 2.6510036e+2, -259904.28, -353122.94, -77746.58, 0.12620455, 0.040906075, -215866.17, 126156.38, 0.00000010014453, 10.00076, 9.999523 
1.094989e+3, 2.7509984e+2, -207740.63, -282375.47, -3204.4868, 0.016111068, -0.0018809765, -207603.3, 36422.2, 0.0000018117424, 10.000448, 9.999495 
1.0949872e+3, 2.8509954e+2, -128055.91, -197917.67, 3808.53, -0.010878605, 0.031598043, -127848.89, 18178.172, 0.000017402066, 10.000357, 9.999438 
1.09498605e+3, 2.9509935e+2, -28935.484, -100206.81, 52939.688, 0.06370877, 0.012775645, -754.9201, 47274.12, 0.00010435712, 10.000346, 9.999445 
1.0949844e+3, 3.0509797e+2, 45606.992, -115247.414, 46669.688, 0.053308092, -0.022542905, 58166.855, 58166.855, 0.00033796718, 10.000913, 9.998734 
1.0949812e+3, 3.150973e+2, 208531.05, 19028.31, 55444.152, -0.12830581, 0.00036152007, 223560.72, 223560.72, 0.00073108607, 10.001683, 9.999299 
1.1050123e+3, 1.25107e+2, -1861950.4, -1789820.6, 76532.63, -0.06414175, -0.04299272, -1741281.0, -27337.2, 0.00083503575, 9.998942, 9.999946 
1.10501096e+3, 1.3510746e+2, -1716574.4, -1695071.6, -85549.28, 0.075450145, -0.013192968, -1619600.8, -3657.894, 0.0003918232, 9.999427, 9.999711 
1.10500805e+3, 1.4510687e+2, -1600645.0, -1591165.6, 4082.075, 0.013457433, -0.031705633, -1589650.0, -71700.19, 0.000102570426, 9.999521, 9.99971 
1.1050069e+3, 1.551065e+2, -1511407.9, -1497084.4, 2426.102, 0.061979625, -0.08096233, -1496684.6, -76732.21, 0.0000061708192, 9.999474, 9.999703 
1.1050061e+3, 1.6510649e+2, -1456578.1, -1435875.4, 54726.31, 0.08995431, -0.039689958, -1390530.1, -68576.62, 0.0000000015512864, 9.999266, 9.999537 
1.1050055e+3, 1.7510635e+2, -1378663.1, -1345761.5, 36133.496, 0.119557746, -0.044796765, -1322510.3, -98552.84, 0.0, 9.999126, 9.999548 
1.10500365e+3, 1.8510662e+2, -1241174.6, -1233775.6, 7124.6973, 0.07607071, 0.034853887, -1229447.3, -103489.82, 0.0, 9.999406, 9.99952 
1.1050006e+3, 1.9510683e+2, -1044575.8, -1085580.3, -32049.92, -0.042156436, 0.06828767, -1027031.5, 926.164, 0.0, 10.000074, 9.999539 
1.104999e+3, 2.0510669e+2, -885089.8, -947488.3, -972.71375, -0.062376507, 0.10202901, -885074.6, 44885.215, 0.0, 10.000443, 9.999643 
1.1049987e+3, 2.1510586e+2, -766470.94, -842217.5, -35410.68, 0.0067877816, 0.023169663, -752495.4, 79471.77, 0.0, 10.000593, 9.999623 
1.1049978e+3, 2.251055e+2, -680605.7, -789589.7, -12630.74, 0.0055086454, 0.049857643, -679161.0, 54808.71, 0.0, 10.000691, 9.999254 
1.10499635e+3, 2.3510519e+2, -576664.7, -690833.5, -21255.215, -0.061505567, 0.058436684, -572835.94, 63135.395, 0.0, 10.000739, 9.999238 
1.1049952e+3, 2.4510409e+2, -560635.8, -761956.4, -48410.465, -0.019623207, 0.09127863, -549599.8, -11616.3955, 0.0, 10.000743, 9.998071 
1.1049944e+3, 2.5510192e+2, -462216.03, -662236.1, -43318.523, 0.1355432, 0.029212082, -453237.53, -13228.896, 0.0, 10.000732, 9.998088 
1.1049924e+3, 2.6510084e+2, -262242.3, -325034.13, -6714.112, 0.1511477, 0.031557992, -261532.42, 80486.88, 0.00000018749917, 10.000608, 9.999801 
1.1049895e+3, 2.7510035e+2, -218051.06, -253091.47, -58955.023, 0.03662619, -0.03172902, -174068.0, 69951.98, 0.0000025365616, 10.000239, 9.999799 
1.1049878e+3, 2.8510037e+2, -119811.02, -179718.81, -55935.88, 0.03434358, 0.01140546, -86313.69, 59704.34, 0.000019295574, 10.000339, 9.999589 
1.1049876e+3, 2.951007e+2, 43670.992, -52047.324, -95700.945, 0.17174998, 0.038387123, 102812.625, 150828.06, 0.00010487227, 10.000784, 9.9995775 
1.1049862e+3, 3.0509946e+2, 84125.37, -95190.914, -48850.324, 0.14805305, 0.009141635, 96569.805, 96569.805, 0.00033641586, 10.001126, 9.998773 
1.1049828e+3, 3.150986e+2, 89704.17, -21160.523, -38782.5, -0.07766621, -0.00253503, 101924.08, 101924.08, 0.0007307893, 10.000789, 9.999434 
1.1150115e+3, 1.2510696e+2, -1822308.1, -1707772.9, 58059.19, -0.1298233, -0.09951053, -1683490.3, 30452.922, 0.000944546, 9.99895, 10.000509 
1.1150093e+3, 1.3510698e+2, -1688429.9, -1638693.9, -52796.35, -0.076135345, -0.14790395, -1605202.0, 10741.463, 0.00045159098, 9.999427, 10.000106 
1.1150083e+3, 1.4510742e+2, -1565785.0, -1514940.5, -22949.77, 0.033801347, -0.11105631, -1506114.0, 11825.856, 0.00012308804, 9.999513, 10.000234 
1.11500695e+3, 1.5510872e+2, -1481147.0, -1429722.6, 15462.776, 0.067215465, -0.045258258, -1425431.3, -5503.3125, 0.000008505592, 9.999459, 10.000173 
1.1150051e+3, 1.6510887e+2, -1457363.6, -1430857.1, 27466.932, 0.0306561, -0.008253475, -1413613.1, -91685.6, 0.0000000033697685, 9.9992285, 9.9995985 
1.1150037e+3, 1.7510794e+2, -1377550.3, -1337516.9, 47286.805, -0.0094397105, -0.09917337, -1306184.6, -82246.305, 0.0, 9.999088, 9.999635 
1.11500256e+3, 1.851079e+2, -1295265.1, -1329226.5, 13926.387, -0.004870467, -0.022040704, -1290284.8, -164342.1, 0.0, 9.999331, 9.998901 
1.1150016e+3, 1.9510826e+2, -1111466.6, -1190478.6, 7644.911, 0.02386928, 0.0895207, -1110733.8, -82788.51, 0.0, 9.999933, 9.998886 
1.1150006e+3, 2.0510803e+2, -936084.0, -1017529.7, -18011.617, 0.027108464, 0.16783239, -932278.56, -2328.4116, 0.0, 10.000289, 9.999232 
1.1149995e+3, 2.1510679e+2, -828431.5, -918323.4, -12907.436, 0.0042896187, 0.08209897, -826614.9, 5346.855, 0.0, 10.000368, 9.999207 
1.1149987e+3, 2.2510582e+2, -697598.1, -774193.2, -27529.27, 0.0029330926, 0.060621668, -688730.44, 45238.47, 0.0, 10.000478, 9.999463 
1.1149983e+3, 2.3510483e+2, -594990.44, -674850.5, -2257.5405, 0.034483656, -0.019394377, -594926.7, 41048.008, 0.0, 10.000511, 9.999458 
1.1149968e+3, 2.4510422e+2, -543053.7, -678461.6, -63920.164, 0.034622874, 0.016563527, -517646.88, 20333.38, 0.0, 10.000536, 9.998745 
1.11499414e+3, 2.5510362e+2, -442818.16, -583123.44, -24091.678, 0.010501527, 0.04139181, -438796.66, 1192.5984, 0.0, 10.000557, 9.998717 
1.1149918e+3, 2.651026e+2, -351190.56, -470612.25, -37895.8, 0.00618922, 0.06945201, -340180.28, 1820.0583, 0.00000020790911, 10.000441, 9.9988785 
1.1149899e+3, 2.7510083e+2, -301029.06, -392272.06, -50578.63, 0.023257697, -0.035933934, -278536.56, -34519.426, 0.0000030041283, 10.000091, 9.998914 
1.1149886e+3, 2.8510067e+2, -182176.34, -264022.8, -54871.492, 0.051469505, 0.05560886, -154648.2, -8628.723, 0.000021785861, 10.000158, 9.999091 
1.1149879e+3, 2.9510155e+2, -14899.056, -135890.19, -48910.46, 0.07619904, 0.19169122, 2399.6372, 50412.324, 0.00010887074, 10.000626, 9.999076 
1.11498706e+3, 3.0510017e+2, 119272.85, 11402.798, -68981.63, 0.091304675, 0.13057388, 152901.81, 152901.81, 0.00034133886, 10.000988, 9.999568 
1.1149852e+3, 3.1509835e+2, 114892.48, 78361.055, 16146.391, 0.003457059, -0.05785241, 121005.9, 121005.9, 0.0007375019, 10.000582, 10.000221 
1.12501144e+3, 1.2510715e+2, -1955311.1, -1695876.5, 82428.54, 0.05723123, -0.115372695, -1671902.5, 42040.43, 0.0010643419, 9.997704, 10.00121 
1.1250076e+3, 1.3510768e+2, -1695223.0, -1566218.3, -32722.14, -0.14657098, -0.17770666, -1558393.0, 57541.566, 0.00051804923, 9.999057, 10.000788 
1.1250082e+3, 1.4510863e+2, -1571168.5, -1523483.9, 1576.7799, 0.07981679, -0.12152289, -1523431.8, -5506.669, 0.00014661087, 9.999506, 10.000171 
1.12500645e+3, 1.5510982e+2, -1499541.6, -1440855.1, -45959.08, 0.089700624, -0.064717226, -1415670.8, 4245.3364, 0.00001150662, 9.999356, 10.000131 
1.1250045e+3, 1.651102e+2, -1405251.6, -1392153.0, 4566.7334, 0.035167575, -0.010850767, -1390718.0, -68803.59, 0.0000000061074554, 9.999525, 9.9997225 
1.12500295e+3, 1.7510967e+2, -1220416.5, -1245412.1, -7421.794, -0.035284337, -0.07357366, -1218378.9, 5542.311, 0.0, 10.000099, 9.999778 
1.1250022e+3, 1.8510959e+2, -1165303.3, -1269343.1, 17146.48, -0.0075424197, -0.006746355, -1162550.3, -36625.266, 0.0, 10.000232, 9.998882 
1.1250022e+3, 1.9510943e+2, -1101706.5, -1196375.0, 23862.174, 0.09327823, 0.054132316, -1096031.9, -68100.41, 0.0, 10.000009, 9.998828 
1.12500146e+3, 2.05109e+2, -991887.5, -1071281.4, 65015.426, 0.103464, 0.13018973, -955408.0, -25469.395, 0.0, 10.000044, 9.998972 
1.1250001e+3, 2.1510793e+2, -829182.06, -941690.8, 39795.746, 0.03175246, 0.08980944, -816528.8, 15421.323, 0.0, 10.0004835, 9.9989805 
1.1249994e+3, 2.2510685e+2, -699091.5, -792154.8, 36553.305, 0.029306564, 0.074705884, -686451.0, 47508.145, 0.0, 10.000523, 9.9993305 
1.1249993e+3, 2.3510556e+2, -634936.56, -707022.9, 1417.0918, 0.10128792, -0.023038594, -634908.75, 1059.2084, 0.0, 10.000274, 9.999355 
1.1249978e+3, 2.4510503e+2, -561772.56, -653713.8, -44199.676, 0.107342154, 0.0092496555, -543970.9, -5998.273, 0.0, 10.00027, 9.999046 
1.124995e+3, 2.551049e+2, -431970.63, -544270.1, -65577.336, 0.054456197, 0.057989396, -401788.56, 38187.754, 0.0, 10.000504, 9.999016 
1.12499245e+3, 2.6510403e+2, -334294.8, -492895.1, -41558.945, 0.022941723, 0.10103505, -324064.72, 17921.496, 0.00000016860811, 10.000699, 9.998598 
1.1249902e+3, 2.7510202e+2, -209751.8, -380589.84, -49882.637, 0.016031103, 0.0013658489, -196253.23, 47753.02, 0.0000038179373, 10.000865, 9.998615 
1.124989e+3, 2.8510138e+2, -77278.43, -244112.69, 25950.955, 0.045859437, 0.07368128, -73334.99, 72677.945, 0.000026510976, 10.000998, 9.99882 
1.1249889e+3, 2.9510167e+2, 9093.263, -148549.56, 5902.3535, 0.10991723, 0.17233948, 9313.945, 57324.516, 0.00011807009, 10.000901, 9.998844 
1.1249885e+3, 3.0509987e+2, 111200.914, -20400.955, -12619.983, 0.15027651, 0.09549275, 112400.18, 112400.18, 0.0003550206, 10.001077, 9.999309 
1.12498716e+3, 3.1509805e+2, 177408.08, 74484.13, -70600.195, 0.121478744, -0.0585009, 213311.55, 213311.55, 0.0007557848, 10.001153, 9.999936 
1.1350095e+3, 1.2510723e+2, -1900707.8, -1578312.6, -1186.8091, 0.004949172, -0.123941384, -1578308.3, 135637.78, 0.0011953667, 9.997703, 10.002009 
1.1350055e+3, 1.3510957e+2, -1624444.0, -1411180.3, 29932.262, -0.30483127, -0.1123333, -1407058.8, 208857.06, 0.00059164723, 9.999033, 10.00186 
1.1350071e+3, 1.4511074e+2, -1611985.5, -1605306.8, -23297.209, -0.02209324, -0.05992238, -1585110.8, -67207.54, 0.00017336896, 9.999495, 9.999617 
1.1350053e+3, 1.551101e+2, -1540060.6, -1522013.8, -30728.273, -0.009150715, -0.12632553, -1499011.4, -79097.4, 0.000015247707, 9.999343, 9.999583 
1.1350036e+3, 1.651106e+2, -1396888.9, -1369957.1, 5636.8926, -0.0546599, -0.044537894, -1368824.9, -46912.21, 0.000000009421829, 9.999503, 9.999884 
1.1350027e+3, 1.7511171e+2, -1214204.4, -1227897.6, 27579.393, -0.1030847, 0.04103645, -1192634.5, 31269.69, 0.0, 10.00008, 9.999905 
1.1350022e+3, 1.8511175e+2, -1130091.4, -1182233.4, -11998.934, -0.07120859, 0.082022205, -1127462.8, -1558.572, 0.0, 10.000166, 9.9995165 
1.13500185e+3, 1.951104e+2, -1081689.8, -1114058.4, 32789.57, 0.025746677, -0.038519684, -1061307.9, -33392.28, 0.0, 9.999831, 9.999481 
1.1350011e+3, 2.0510975e+2, -1033255.0, -1117466.6, 61934.438, 0.030474551, -0.0077684033, -1000469.06, -70545.37, 0.0, 9.99987, 9.998742 
1.13500014e+3, 2.1510938e+2, -880949.5, -993222.3, 69600.516, -0.036007572, 0.04780863, -847668.2, -15736.436, 0.0, 10.000246, 9.998743 
1.1349994e+3, 2.251087e+2, -761101.8, -872269.75, 6974.641, -0.047490187, 0.10694688, -760665.94, -26726.129, 0.0, 10.000306, 9.998884 
1.1349988e+3, 2.3510733e+2, -703250.5, -793873.1, 9146.622, -0.005955873, 0.043933894, -702336.5, -66385.05, 0.0, 10.000032, 9.998878 
1.1349978e+3, 2.4510647e+2, -599869.6, -682548.8, -52385.75, 0.047106005, 0.07400314, -574476.7, -36516.21, 0.0, 10.000053, 9.99895 
1.1349966e+3, 2.5510582e+2, -462886.56, -566573.6, -39014.363, 0.12974402, 0.077527985, -449846.56, -9876.984, 0.0, 10.0003195, 9.998952 
1.1349939e+3, 2.6510516e+2, -334415.1, -458778.56, -49405.805, 0.06911387, 0.12658437, -317177.06, 24799.514, 0.00000020663475, 10.000547, 9.99891 
1.13499e+3, 2.7510396e+2, -212672.67, -356090.22, -19511.906, -0.13408917, 0.076359026, -210065.47, 33921.73, 0.0000055002247, 10.000727, 9.998857 
1.1349887e+3, 2.8510246e+2, -104726.19, -261822.23, 3907.9224, -0.13179934, 0.056649443, -104629.03, 41370.105, 0.000033703815, 10.00084, 9.998768 
1.1349901e+3, 2.951007e+2, -18659.367, -166626.7, 24410.496, 0.09350238, -0.04726367, -14736.325, 33276.656, 0.00013271971, 10.00073, 9.998803 
1.1349901e+3, 3.0509833e+2, -10880.365, -226144.98, -21594.637, 0.1680206, -0.11164757, -8735.435, -8735.435, 0.00037893685, 10.000881, 9.997988 
1.1349873e+3, 3.1509763e+2, 55698.285, -122133.484, -17130.576, -0.049455564, -0.020475717, 57333.445, 57333.445, 0.00079122034, 10.0009165, 9.998696 
1.1450092e+3, 1.251093e+2, -1745293.4, -1565712.6, 42648.785, 0.15679006, -0.01712342, -1556098.6, 157829.55, 0.0013373722, 9.998997, 10.001494 
1.14500515e+3, 1.351109e+2, -1598987.0, -1433964.1, 6652.705, -0.24391575, -0.052810755, -1433696.4, 182209.78, 0.000672049, 9.999319, 10.001585 
1.14500694e+3, 1.4511175e+2, -1603130.0, -1577736.9, -56504.28, 0.020838851, -0.029216282, -1532520.3, -14624.196, 0.0002032588, 9.999467, 9.999814 
1.145005e+3, 1.5511115e+2, -1482691.6, -1473909.4, -56949.746, 0.03724276, -0.108884506, -1421181.8, -1276.9293, 0.000019742625, 9.999656, 9.999763 
1.1450033e+3, 1.651115e+2, -1408353.0, -1383119.1, 39693.47, -0.017462553, -0.043051757, -1354085.6, -32181.809, 0.000000013934886, 9.999467, 9.99981 
1.1450022e+3, 1.7511241e+2, -1369240.4, -1306446.5, 14925.463, -0.100061364, 0.028083852, -1303079.4, -79181.99, 0.0, 9.999044, 9.999861 
1.1450018e+3, 1.8511245e+2, -1219640.1, -1166761.3, 8027.2036, -0.06399724, 0.046035368, -1165569.6, -39673.598, 0.0, 9.999309, 10.000026 
1.1450021e+3, 1.9511135e+2, -988235.0, -999927.06, 1420.431, 0.06194945, -0.10466562, -988064.94, 39837.55, 0.0, 10.000215, 10.000053 
1.1450016e+3, 2.051109e+2, -964281.56, -1094529.1, 55424.195, 0.07473507, -0.07973086, -943889.56, -13982.188, 0.0, 10.000354, 9.998683 
1.1450004e+3, 2.1511066e+2, -951274.2, -1033031.7, 49572.85, -0.0047212164, -0.008927956, -927899.2, -95984.71, 0.0, 9.999754, 9.998721 
1.14499964e+3, 2.2510996e+2, -818928.4, -900388.94, 64828.34, -0.026516313, 0.05151402, -783097.1, -49174.094, 0.0, 9.999942, 9.998856 
1.1449993e+3, 2.3510846e+2, -569678.25, -725969.0, 58065.508, 0.0002772, -0.022711476, -550467.06, 85469.62, 0.0, 10.0009575, 9.99889 
1.1449983e+3, 2.4510765e+2, -461923.1, -636927.5, 21585.328, 0.058068495, 0.020951573, -459300.03, 78645.74, 0.0, 10.001072, 9.998778 
1.1449971e+3, 2.551073e+2, -464325.22, -578764.4, -3804.0378, 0.15782377, 0.06951855, -464198.9, -24246.19, 0.0, 10.000362, 9.99884 
1.1449947e+3, 2.651066e+2, -373871.72, -500500.0, 23514.475, 0.12152718, 0.12697369, -369646.16, -27685.402, 0.00000038376965, 10.00036, 9.998716 
1.1449916e+3, 2.7510503e+2, -184013.8, -359329.38, -17818.871, -0.043751832, 0.059654158, -182221.05, 61753.676, 0.0000075917305, 10.000994, 9.998705 
1.14499025e+3, 2.8510308e+2, -59225.523, -296708.5, 2783.6301, -0.06631575, 0.025754897, -59192.9, 86798.555, 0.000041535674, 10.001391, 9.99827 
1.144991e+3, 2.9510072e+2, 48128.926, -187295.7, -50905.504, 0.09093105, -0.08323483, 58664.65, 106675.86, 0.00014998692, 10.001421, 9.998328 
1.1449914e+3, 3.0509824e+2, 93290.29, -204967.95, -24623.873, 0.17966463, -0.12705618, 95309.54, 95309.54, 0.00040888134, 10.001686, 9.997751 
1.1449897e+3, 3.1509805e+2, 157815.45, -86038.24, -7733.1025, 0.076981805, 0.03448609, 158060.44, 158060.44, 0.0008408799, 10.001685, 9.998561 
1.15500756e+3, 1.2511261e+2, -1860168.5, -1795687.8, -74412.69, 0.015461735, 0.123638004, -1746831.3, -32934.51, 0.001489488, 9.998968, 9.999922 
1.15500614e+3, 1.3511188e+2, -1706074.5, -1649354.8, 34352.56, -0.114474066, 0.006238989, -1633168.3, -17264.928, 0.00075867696, 9.999304, 10.000099 
1.1550071e+3, 1.4511168e+2, -1548455.0, -1472086.0, -69916.63, 0.039448798, -0.039519276, -1430606.3, 87297.28, 0.0002361324, 9.99948, 10.000546 
1.1550055e+3, 1.551128e+2, -1422256.9, -1358238.8, -34698.56, 0.07399343, -0.021945672, -1343040.1, 76849.375, 0.000024990082, 9.999682, 10.000552 
1.15500316e+3, 1.6511293e+2, -1422440.3, -1407220.3, 3746.1309, -0.012967534, -0.012316787, -1406348.1, -84460.48, 0.000000023716384, 9.9994545, 9.999645 
1.155001e+3, 1.7511186e+2, -1392834.8, -1337532.9, 16911.943, -0.16017784, -0.120135024, -1332771.1, -108871.31, 0.0, 9.998979, 9.999673 
1.15500085e+3, 1.8511184e+2, -1214112.1, -1136426.1, 23182.752, -0.13013266, -0.113762796, -1130034.0, -4134.52, 0.0, 9.9992285, 10.000272 
1.1550026e+3, 1.9511229e+2, -989222.4, -972314.3, 47376.617, 0.05127573, -0.13566145, -932643.4, 95248.53, 0.0, 10.000085, 10.000305 
1.15500234e+3, 2.0511244e+2, -963293.44, -1055914.5, 8350.826, 0.084593035, -0.080598734, -962546.56, -32656.646, 0.0, 10.000192, 9.999027 
1.1550003e+3, 2.1511188e+2, -962581.1, -1004230.75, 43051.74, -0.011909899, -0.076320305, -935582.06, -103684.766, 0.0, 9.99952, 9.999035 
1.15499966e+3, 2.2511077e+2, -830415.5, -871763.7, 85087.4, -0.041349012, -0.088958725, -763526.56, -29618.72, 0.0, 9.999716, 9.99916 
1.1550003e+3, 2.3510884e+2, -581846.75, -701051.3, 112453.44, -0.008817054, -0.23417294, -514176.8, 121747.47, 0.0, 10.000744, 9.999165 
1.1549991e+3, 2.4510849e+2, -502702.8, -673212.1, -26839.68, 0.008456333, -0.15006761, -498577.8, 39351.31, 0.0, 10.000861, 9.998631 
1.1549962e+3, 2.5510934e+2, -505487.4, -622150.9, -14263.372, 0.0028868003, 0.030908795, -503768.88, -63842.824, 0.0, 10.000171, 9.998638 
1.1549946e+3, 2.6510826e+2, -447820.16, -607355.9, 32368.61, 0.044091184, 0.096363254, -441502.97, -99563.58, 0.0000005356376, 10.000167, 9.998069 
1.15499474e+3, 2.7510503e+2, -249280.86, -455201.75, 27079.02, 0.12891464, -0.07480175, -245779.45, -1807.9093, 0.000008957139, 10.000825, 9.998124 
1.15499355e+3, 2.8510317e+2, -142465.22, -430582.72, -11022.783, 0.0908907, -0.03158079, -142044.13, 3946.597, 0.000047577858, 10.001226, 9.997429 
1.15499124e+3, 2.9510206e+2, -29288.932, -330706.28, -20640.123, -0.0750399, 0.06664912, -27882.127, 20121.143, 0.00016516355, 10.001328, 9.9973955 
1.1549917e+3, 3.0509967e+2, 110390.336, -119134.62, -35220.95, 0.02018818, 0.049826417, 115673.44, 115673.44, 0.00043860512, 10.001493, 9.99842 
1.154993e+3, 3.1509882e+2, 174157.1, 6930.281, 48721.82, 0.16811095, 0.07518371, 187316.7, 187316.7, 0.0008954558, 10.001435, 9.999313 
1.1650068e+3, 1.2511441e+2, -1722373.5, -1775595.8, -51574.832, 0.0052054, 0.10598274, -1690949.1, 22927.191, 0.0016512593, 10.000122, 9.999492 
1.1650067e+3, 1.3511302e+2, -1724942.8, -1730963.8, 77542.125, 0.028188802, -0.0074540414, -1650352.8, -34460.645, 0.0008513687, 9.999509, 9.999435 
1.1650064e+3, 1.451124e+2, -1558064.0, -1445835.5, 46369.074, 0.03930305, -0.07502231, -1429156.3, 88740.86, 0.00027198074, 9.999301, 10.000798 
1.1650053e+3, 1.5511414e+2, -1400661.5, -1321406.0, 794.70874, 0.09202936, -0.021659093, -1321398.0, 98477.67, 0.00003101119, 9.999725, 10.000776 
1.1650033e+3, 1.6511443e+2, -1349339.4, -1365339.4, 40019.496, 0.0316659, -0.012481501, -1316528.1, 5343.1523, 0.00000004774233, 9.999908, 9.999723 
1.16500095e+3, 1.7511302e+2, -1253090.6, -1267588.1, 35575.273, -0.09205159, -0.15912277, -1224033.1, -147.61, 0.0, 9.999893, 9.999731 
1.1650007e+3, 1.8511292e+2, -1171262.5, -1148645.9, 88782.336, -0.076309994, -0.14570285, -1070454.6, 55431.83, 0.0, 9.999662, 9.999977 
1.1650022e+3, 1.9511372e+2, -1112460.9, -1064088.6, 40442.51, 0.04561443, -0.104377866, -1041151.8, -13273.622, 0.0, 9.999375, 10.000022 
1.1650022e+3, 2.0511393e+2, -980540.75, -1014256.56, 20013.066, 0.08342278, -0.049154043, -971231.7, -41356.23, 0.0, 9.999887, 9.999445 
1.16500124e+3, 2.1511324e+2, -692589.56, -820495.4, 15671.409, 0.04802095, -0.10345937, -690697.44, 141183.8, 0.0, 10.001177, 9.999482 
1.1650007e+3, 2.2511223e+2, -619061.3, -794364.4, 67061.34, 0.018969426, -0.11875009, -596349.75, 137540.45, 0.0, 10.001251, 9.998961 
1.1650009e+3, 2.3511052e+2, -679969.25, -770168.75, 28992.74, 0.0010963627, -0.22155306, -671454.0, -35548.004, 0.0, 10.000149, 9.998985 
1.1649996e+3, 2.4510993e+2, -622804.0, -733247.56, -82453.484, 0.012996855, -0.15308368, -578788.6, -40875.36, 0.0, 10.000047, 9.998608 
1.1649971e+3, 2.5511009e+2, -396032.44, -571787.56, -96635.82, 0.048550695, -0.037663564, -353292.44, 86622.82, 0.0, 10.000928, 9.998619 
1.16499595e+3, 2.6510888e+2, -266987.47, -557426.25, 15136.662, 0.101468146, 0.03248042, -266200.72, 75729.63, 0.00000056359414, 10.001573, 9.997736 
1.1649965e+3, 2.751061e+2, -115337.4, -429081.94, -7946.1865, 0.18143687, -0.054370213, -115136.28, 128824.195, 0.00000928475, 10.001924, 9.997779 
1.1649956e+3, 2.851043e+2, -21802.76, -392024.88, 5724.171, 0.14339612, 0.017638002, -21714.275, 124266.25, 0.000050789153, 10.00212, 9.997267 
1.1649935e+3, 2.951029e+2, 64885.65, -299154.63, 4265.9683, -0.0056308284, 0.10553408, 64935.633, 112931.06, 0.00017624088, 10.002048, 9.997257 
1.1649939e+3, 3.0510026e+2, 177529.31, -136015.22, 20696.795, 0.071739905, 0.088431485, 178889.6, 178889.6, 0.00046429865, 10.002144, 9.998007 
1.1649948e+3, 3.15099e+2, 214533.42, 3139.0662, -34362.85, 0.20092523, 0.120456144, 219978.94, 219978.94, 0.00094360544, 10.001799, 9.999133 
1.17500745e+3, 1.2511489e+2, -1684342.0, -1666701.5, -45569.473, -0.023146302, -0.0719622, -1629106.5, 84758.67, 0.0018234614, 10.000028, 10.0002775 
1.1750069e+3, 1.3511442e+2, -1718120.4, -1717038.5, 68565.78, 0.0632451, -0.1001521, -1649011.5, -33139.93, 0.0009506097, 9.999522, 9.999523 
1.17500424e+3, 1.4511403e+2, -1579299.9, -1482604.6, 44047.16, -0.14814176, -0.13687679, -1465548.5, 52327.133, 0.00031097958, 9.999275, 10.000552 
1.1750039e+3, 1.5511525e+2, -1422944.5, -1365350.4, 35768.52, -0.05077966, -0.10919464, -1348227.3, 71635.234, 0.00003785508, 9.999714, 10.000478 
1.1750029e+3, 1.6511592e+2, -1337755.5, -1334562.3, 20340.129, -0.031800766, -0.054167114, -1315756.1, 6098.7705, 0.00000010132158, 9.999881, 9.999945 
1.17500186e+3, 1.7511584e+2, -1243486.1, -1232112.4, 52091.25, -0.030877458, -0.10004559, -1185398.5, 38456.18, 0.0, 9.999827, 10.000004 
1.1750011e+3, 1.851159e+2, -1237058.3, -1267111.8, 58422.293, -0.046560723, -0.04510985, -1191761.1, -65905.88, 0.0, 9.999585, 9.999203 
1.1750005e+3, 1.9511575e+2, -1184888.8, -1187291.6, 50252.934, -0.09179937, -0.0211681, -1135823.0, -107962.44, 0.0, 9.999254, 9.999239 
1.1750009e+3, 2.0511547e+2, -977622.0, -969700.75, 49320.563, -0.06998324, 0.0043691145, -924182.0, 5681.0166, 0.0, 9.999724, 9.999826 
1.17500246e+3, 2.1511474e+2, -697067.7, -783571.5, 78948.414, 0.03442162, -0.090057835, -650299.75, 181566.44, 0.0, 10.000971, 9.999838 
1.1750022e+3, 2.2511421e+2, -694945.25, -893736.94, 5423.7827, 0.016245563, -0.046364907, -694797.4, 39074.03, 0.0, 10.001006, 9.998395 
1.175e+3, 2.3511356e+2, -754060.1, -862244.0, 5467.905, -0.12422587, 0.010045766, -753784.5, -117903.1, 0.0, 9.999893, 9.998469 
1.174999e+3, 2.4511208e+2, -653903.0, -746379.8, -66913.58, -0.0757245, 0.013738223, -618806.2, -80909.05, 0.0, 9.999818, 9.998632 
1.1749994e+3, 2.551095e+2, -414051.88, -568583.6, -46893.08, 0.15356314, -0.15290388, -400935.34, 38986.12, 0.0, 10.0007515, 9.998725 
1.17499866e+3, 2.6510838e+2, -299120.94, -586686.94, 10090.972, 0.17354614, -0.07378833, -298767.25, 43167.586, 0.0000005132723, 10.001406, 9.997622 
1.1749966e+3, 2.7510822e+2, -141495.7, -456770.94, 26063.063, -0.034937095, 0.10889599, -139355.66, 104586.64, 0.000009286575, 10.0018015, 9.997651 
1.1749961e+3, 2.8510645e+2, -17993.809, -344430.75, -11993.143, -0.05122151, 0.17625594, -17553.78, 128406.94, 0.000051726838, 10.001956, 9.99767 
1.1749973e+3, 2.9510292e+2, 86499.516, -229950.83, 24551.865, 0.12903203, 0.0054759574, 88393.05, 136384.64, 0.00018255804, 10.001933, 9.99779 
1.1749975e+3, 3.0509958e+2, 53656.094, -343780.88, -1072.641, 0.19082552, -0.04529807, 53658.99, 53658.99, 0.0004800074, 10.001954, 9.996663 
1.17499426e+3, 3.150987e+2, 107029.58, -148973.36, -4043.1445, -0.111409515, 0.15806784, 107093.414, 107093.414, 0.0009690312, 10.001515, 9.998212 
1.1850071e+3, 1.2511511e+2, -1783662.1, -1695901.6, 33525.0, -0.00021433977, -0.21087076, -1684560.5, 29296.867, 0.0020081834, 9.999223, 10.000481 
1.1850067e+3, 1.3511564e+2, -1669049.8, -1699190.9, -913.7245, 0.09108017, -0.14436309, -1669022.1, -53166.37, 0.0010574218, 9.999854, 9.999498 
1.18500344e+3, 1.4511581e+2, -1520526.0, -1502097.4, 11198.325, -0.17657234, -0.100305535, -1496809.8, 21046.623, 0.00035351914, 9.999861, 10.00015 
1.1850033e+3, 1.5511632e+2, -1471769.3, -1425914.5, -46891.188, -0.06330834, -0.108214706, -1396645.6, 23207.53, 0.00004562391, 9.999537, 10.000154 
1.18500255e+3, 1.6511698e+2, -1369273.9, -1321902.0, -17302.22, -0.024879668, -0.048736837, -1316255.5, 5590.6377, 0.00000019883093, 9.999556, 10.000188 
1.1850017e+3, 1.751175e+2, -1196257.3, -1176735.5, -24768.277, -0.02779205, -0.062355407, -1159874.1, 63964.434, 0.0, 10.000024, 10.000281 
1.185001e+3, 1.8511745e+2, -1150464.0, -1246448.3, 23424.355, -0.03540357, -0.024011668, -1145052.5, -19213.16, 0.0, 10.000261, 9.999024 
1.1850004e+3, 1.951165e+2, -1046387.6, -1137140.0, 22269.85, -0.062833026, -0.060190704, -1041217.4, -13365.51, 0.0, 10.000271, 9.999096 
1.1850008e+3, 2.0511593e+2, -931549.0, -952751.44, 87843.91, -0.051216315, -0.053934142, -853668.94, 76188.234, 0.0, 10.000054, 9.999797 
1.18500255e+3, 2.1511537e+2, -889065.6, -872202.5, 58044.68, 0.017060727, -0.1282216, -821980.2, 9878.804, 0.0, 9.999643, 9.999868 
1.18500255e+3, 2.2511522e+2, -830713.1, -942777.1, 15354.986, 0.011025568, -0.056276467, -828647.25, -94786.375, 0.0, 10.000007, 9.998536 
1.1850008e+3, 2.3511504e+2, -574256.3, -761903.56, 27704.385, -0.07338925, 0.03376082, -570251.5, 65614.95, 0.0, 10.001064, 9.998594 
1.18500024e+3, 2.4511337e+2, -415428.13, -655990.6, 22577.53, -0.012998797, 0.022766292, -413327.5, 124556.234, 0.0, 10.001569, 9.99841 
1.18500076e+3, 2.551099e+2, -316147.1, -556225.75, -13581.331, 0.18442887, -0.2018934, -315381.25, 124534.555, 0.0, 10.001567, 9.998429 
1.1850001e+3, 2.6510864e+2, -240233.45, -532053.1, 71752.695, 0.17556418, -0.1330149, -223545.23, 118384.45, 0.0000005059796, 10.001718, 9.997833 
1.18499815e+3, 2.7510908e+2, -97713.66, -416921.34, 67006.52, -0.055573042, 0.089319125, -84218.51, 159711.78, 0.000009353779, 10.002031, 9.997808 
1.18499815e+3, 2.8510723e+2, 24617.22, -334918.38, 49891.23, -0.05135676, 0.14824946, 31412.002, 177360.94, 0.000051580555, 10.002316, 9.99755 
1.1850004e+3, 2.9510316e+2, 164192.88, -209177.33, 4963.369, 0.21376602, -0.06547544, 164258.84, 212244.89, 0.00018437536, 10.002553, 9.997628 
1.1850004e+3, 3.0509958e+2, 175026.52, -286316.38, 25460.494, 0.26663536, -0.13069181, 176427.38, 176427.38, 0.00048100852, 10.0027685, 9.9966755 
1.1849961e+3, 3.1509855e+2, 272451.44, -58213.777, 50482.79, -0.11594427, 0.05618702, 279986.94, 279986.94, 0.00096257555, 10.002567, 9.998343 
1.19500674e+3, 1.2511472e+2, -1810091.9, -1746198.9, 81908.66, -0.040077604, -0.35005835, -1690227.3, 23628.758, 0.0022081332, 9.999211, 10.00013 
1.1950055e+3, 1.3511653e+2, -1664703.6, -1693271.9, 33119.293, -0.051592115, -0.16195744, -1642919.4, -27073.549, 0.0011730703, 9.999858, 9.999536 
1.1950033e+3, 1.4511769e+2, -1560830.0, -1581075.4, -23174.102, -0.22179556, 0.0053300196, -1545664.1, -27824.086, 0.00040013902, 9.999846, 9.999613 
1.1950032e+3, 1.5511747e+2, -1507148.5, -1503490.0, -41603.06, -0.075792894, -0.021459498, -1463676.0, -43829.684, 0.00005450229, 9.99955, 9.999619 
1.195002e+3, 1.6511771e+2, -1349873.9, -1280821.5, -21662.818, -0.08847082, 0.005316073, -1274588.3, 47255.64, 0.00000035173326, 9.999546, 10.000479 
1.19500026e+3, 1.7511809e+2, -1185350.3, -1145960.5, 8278.553, -0.21677177, -0.046046957, -1144291.3, 79545.016, 0.0, 9.999981, 10.000519 
1.1950001e+3, 1.851176e+2, -1135013.4, -1196410.8, 5233.0522, -0.18879849, -0.080894835, -1134570.6, -8732.269, 0.0, 10.000187, 9.999401 
1.1950016e+3, 1.9511601e+2, -1039081.25, -1092602.8, 38442.36, -0.010627572, -0.22132237, -1019002.4, 8849.896, 0.0, 10.000142, 9.999463 
1.1950017e+3, 2.0511536e+2, -980638.7, -1012983.25, 51899.047, -0.0009682452, -0.22519846, -942450.56, -12592.782, 0.0, 9.999881, 9.999462 
1.19500086e+3, 2.1511526e+2, -945501.6, -937239.4, 59946.063, -0.1438667, -0.22095318, -881282.25, -49423.695, 0.0, 9.99942, 9.999528 
1.1950014e+3, 2.2511528e+2, -812732.7, -849001.4, 35490.44, -0.13554749, -0.15194209, -791011.94, -57153.65, 0.0, 9.999763, 9.999296 
1.195003e+3, 2.351151e+2, -553003.0, -663068.06, 80528.664, 0.018942684, -0.14360167, -510498.63, 125361.44, 0.0, 10.000834, 9.999379 
1.1950028e+3, 2.4511395e+2, -485874.28, -750635.8, 3924.9114, 0.06219298, -0.113030456, -485816.13, 52055.707, 0.0, 10.001346, 9.997873 
1.1950006e+3, 2.5511155e+2, -380731.44, -639708.5, 5270.459, -0.009578226, -0.17904113, -380624.22, 59272.336, 0.0, 10.001356, 9.997954 
1.195e+3, 2.651099e+2, -244840.14, -496961.44, 67336.18, -0.035374336, -0.14145617, -227983.17, 113929.86, 0.0000006389743, 10.001521, 9.998174 
1.19500086e+3, 2.7510867e+2, -92734.414, -367242.66, 99174.5, -0.019564327, -0.121241726, -60653.73, 183271.03, 0.000009301616, 10.001868, 9.998226 
1.19500145e+3, 2.8510672e+2, -45784.1, -450331.34, 44915.707, 0.015591699, -0.06146158, -40857.242, 105087.86, 0.00005191434, 10.002177, 9.996829 
1.195002e+3, 2.9510358e+2, 91602.984, -328707.03, 39699.293, 0.07784969, -0.11135724, 95319.805, 143298.31, 0.00018470343, 10.002408, 9.996882 
1.1950022e+3, 3.0510026e+2, 222276.39, -131918.19, 10262.985, 0.14585775, -0.16681431, 222573.52, 222573.52, 0.00047307427, 10.002545, 9.997833 
1.1949994e+3, 3.1509846e+2, 310046.2, 94535.77, 91706.164, -0.10550799, -0.18249291, 343787.3, 343787.3, 0.0009340092, 10.002267, 9.999525 
1.2050065e+3, 1.2511586e+2, -1908128.6, -1790106.1, 82430.17, 0.064483695, -0.25379437, -1747741.5, -33893.863, 0.0024257244, 9.998539, 10.000159 
1.2050043e+3, 1.3511749e+2, -1787589.4, -1690233.0, -2180.9314, -0.09997247, -0.12436419, -1690184.3, -74346.336, 0.0012988481, 9.998775, 10.000068 
1.2050034e+3, 1.4511888e+2, -1671278.9, -1617053.8, 21357.404, -0.14728108, 0.028368348, -1609652.1, -91823.44, 0.00045139206, 9.998999, 9.999781 
1.2050026e+3, 1.5511861e+2, -1485599.9, -1471560.1, 10797.953, -0.07316454, -0.021654723, -1465700.8, -45866.97, 0.00006471426, 9.999597, 9.999815 
1.2050015e+3, 1.6511862e+2, -1357710.9, -1320055.5, 72665.36, -0.079187416, -0.01232125, -1263818.4, 58015.566, 0.00000057087306, 9.999655, 10.000148 
1.2050005e+3, 1.7511854e+2, -1299909.8, -1231436.1, 21956.443, -0.14008604, -0.077992655, -1225000.5, -1168.136, 0.0, 9.999341, 10.000231 
1.2050007e+3, 1.8511826e+2, -1190709.1, -1176129.6, 49991.406, -0.109979875, -0.098846726, -1132899.3, -7066.9893, 0.0, 9.999616, 9.999806 
1.2050019e+3, 1.9511743e+2, -952415.6, -1001071.5, 51536.53, 0.002148175, -0.20496261, -919753.56, 108083.516, 0.0, 10.000537, 9.99989 
1.2050021e+3, 2.0511702e+2, -869390.3, -1004113.44, 70482.375, 0.006356148, -0.1883369, -839256.5, 90583.97, 0.0, 10.000809, 9.9990835 
1.20500125e+3, 2.1511659e+2, -821525.9, -923725.4, 38391.37, -0.0902703, -0.18001479, -808711.0, 23135.543, 0.0, 10.000433, 9.9991455 
1.2050019e+3, 2.2511615e+2, -729154.0, -806506.3, 61282.97, -0.06325192, -0.13788588, -695363.3, 38487.55, 0.0, 10.000329, 9.99932 
1.2050044e+3, 2.3511541e+2, -596888.7, -686095.44, 15849.561, 0.08712061, -0.18325253, -594156.4, 41700.313, 0.0, 10.000537, 9.999373 
1.2050044e+3, 2.4511443e+2, -551329.5, -778825.3, -54383.734, 0.11111902, -0.13617036, -538997.4, -1131.061, 0.0, 10.000901, 9.997871 
1.2050019e+3, 2.5511283e+2, -374975.8, -639720.7, -54582.97, -0.008395698, -0.120170504, -364163.88, 75719.67, 0.00000000020898414, 10.001415, 9.997912 
1.2050016e+3, 2.6511094e+2, -221783.69, -503968.88, 38104.25, -0.028000219, -0.1015372, -216728.92, 125173.31, 0.00000074892756, 10.001741, 9.998022 
1.20500326e+3, 2.7510843e+2, -106075.97, -391763.75, -4944.4497, 0.052893978, -0.19434924, -105990.414, 137934.47, 0.000009032264, 10.001832, 9.9980755 
1.2050043e+3, 2.8510624e+2, -47519.543, -452975.03, -13154.203, 0.095555596, -0.15014166, -47093.23, 98854.3, 0.000052136886, 10.002175, 9.996818 
1.2050046e+3, 2.9510394e+2, 123358.65, -312043.84, -11435.773, 0.10042669, -0.10872393, 123658.805, 171633.22, 0.0001849306, 10.002645, 9.996879 
1.205005e+3, 3.0510116e+2, 304617.72, -76614.48, -27939.195, 0.16100474, -0.120074816, 306654.4, 306654.4, 0.0004665325, 10.0030365, 9.997976 
1.2050026e+3, 3.150988e+2, 394638.13, 156786.83, -95148.86, -0.03095805, -0.2037769, 428016.8, 428016.8, 0.00090609276, 10.002777, 9.999699 
1.21500455e+3, 1.2511735e+2, -1870882.8, -1699034.9, -40274.73, -0.067986555, -0.03835281, -1690064.3, 23779.041, 0.0026624324, 9.998505, 10.0007925 
1.21500246e+3, 1.3511865e+2, -1725255.3, -1558605.5, 14098.287, -0.18100058, -0.030837439, -1557421.3, 58409.34, 0.0014356553, 9.99877, 10.000975 
1.2150034e+3, 1.4511947e+2, -1599621.4, -1468314.1, 20749.338, -0.099395014, -0.033693135, -1465113.3, 52708.14, 0.0005075534, 9.9990015, 10.000796 
1.21500134e+3, 1.5511978e+2, -1422723.9, -1340744.1, 53428.984, -0.19408149, -0.12293673, -1314392.9, 105422.82, 0.000076397075, 9.999591, 10.000719 
1.2150008e+3, 1.6511966e+2, -1425268.9, -1455275.5, 43142.484, -0.15409441, -0.12122645, -1394595.4, -72778.65, 0.0000008702971, 9.999641, 9.999219 
1.2150023e+3, 1.7511885e+2, -1374803.8, -1371568.5, 27590.371, 0.0684064, -0.16494013, -1345548.4, -121721.66, 0.0, 9.999276, 9.9993 
1.2150023e+3, 1.8511939e+2, -1165261.6, -1104727.4, 65965.99, 0.059271365, -0.08741369, -1062416.3, 63405.418, 0.0, 9.999537, 10.000336 
1.2150011e+3, 1.9512083e+2, -937193.94, -940114.6, 103938.945, -0.17016688, -0.019382956, -834705.1, 193100.81, 0.0, 10.000411, 10.000371 
1.21500134e+3, 2.051209e+2, -927657.06, -1081366.9, 36641.19, -0.17329878, 0.049774647, -919369.44, 10435.847, 0.0, 10.000625, 9.998639 
1.2150032e+3, 2.151195e+2, -886894.5, -998500.25, 38955.844, 0.036592633, -0.0005897595, -874642.1, -42820.53, 0.0, 10.0001745, 9.998753 
1.2150042e+3, 2.2511801e+2, -816553.8, -934636.25, 49460.297, 0.09341554, -0.008231455, -798574.4, -64737.383, 0.0, 10.000092, 9.99856 
1.21500425e+3, 2.3511611e+2, -678806.0, -806062.6, 42146.27, 0.0032849202, -0.09218516, -666113.5, -30258.713, 0.0, 10.0003195, 9.998654 
1.2150044e+3, 2.4511485e+2, -561303.3, -739984.4, -49877.504, -0.01043018, -0.057728685, -548323.25, -10456.577, 0.0, 10.000646, 9.99826 
1.21500425e+3, 2.5511384e+2, -377192.53, -598949.1, -18395.504, 0.05384281, -0.027490618, -375676.9, 64199.69, 0.00000000018849695, 10.00122, 9.998282 
1.21500455e+3, 2.6511177e+2, -296715.6, -613532.9, 24611.135, 0.06323076, -0.008237529, -294815.16, 47081.59, 0.00000061447383, 10.00154, 9.997371 
1.21500514e+3, 2.7510828e+2, -172345.97, -493902.13, 19165.225, 0.018046526, -0.13442943, -171207.73, 72723.0, 0.000008322687, 10.00167, 9.997458 
1.2150061e+3, 2.8510585e+2, -45261.36, -387761.34, -10977.94, 0.03429148, -0.112316854, -44909.85, 101045.9, 0.000050710027, 10.001934, 9.997373 
1.2150078e+3, 2.9510424e+2, 140662.73, -236990.11, 32002.21, 0.119022794, -0.060217027, 143355.39, 191329.5, 0.00018357177, 10.002484, 9.997463 
1.2150086e+3, 3.051021e+2, 212331.5, -228888.23, -48416.047, 0.17156889, 0.012731691, 217581.81, 217581.81, 0.00046227945, 10.00287, 9.997014 
1.21500455e+3, 3.150993e+2, 293564.28, 17271.906, -65051.438, -0.17841387, -0.018759852, 308114.06, 308114.06, 0.0008888424, 10.002482, 9.99888 
1.22500345e+3, 1.251184e+2, -1940629.5, -1697911.1, 51926.945, 0.02675405, 0.03203708, -1687268.6, 26567.688, 0.0029179724, 9.997853, 10.001117 
1.2250018e+3, 1.3511916e+2, -1659712.8, -1501569.1, 52340.31, -0.1285642, -0.042161953, -1485815.5, 130009.74, 0.0015834377, 9.999102, 10.00121 
1.2250029e+3, 1.4511953e+2, -1552045.9, -1455070.0, 9810.866, -0.052485492, -0.095354386, -1454087.4, 63731.676, 0.00056846405, 9.999392, 10.000692 
1.22500084e+3, 1.5512046e+2, -1501946.1, -1375588.1, -83855.305, -0.17157584, -0.11680779, -1333775.3, 86033.16, 0.00008951281, 9.999074, 10.000708 
1.2250008e+3, 1.6512051e+2, -1443658.6, -1464364.3, -37913.44, -0.11119888, -0.10220479, -1414710.0, -92902.62, 0.0000012652538, 9.999469, 9.999271 
1.2250031e+3, 1.7511936e+2, -1172085.5, -1263299.0, -8996.342, 0.16001356, -0.18667848, -1171206.6, 52612.035, 0.0, 10.000599, 9.999421 
1.22500315e+3, 1.8511978e+2, -1046062.44, -1089320.5, 47780.61, 0.14548977, -0.10906708, -1015243.4, 110571.836, 0.0, 10.000511, 9.999984 
1.225001e+3, 1.9512126e+2, -1124861.9, -1071321.3, -16246.929, -0.14967011, 0.0007749655, -1066776.8, -38974.94, 0.0, 9.99928, 10.000029 
1.2250014e+3, 2.0512132e+2, -1082546.0, -1127645.8, -22846.313, -0.17616409, 0.07091887, -1072995.3, -143193.08, 0.0, 9.999457, 9.998875 
1.22500375e+3, 2.1511975e+2, -755196.06, -907602.75, -6405.4146, 0.048645727, -0.016362421, -754927.3, 76890.66, 0.0, 10.000986, 9.998974 
1.22500524e+3, 2.2511822e+2, -603028.0, -873960.2, 59415.125, 0.120682344, -0.020897727, -590571.1, 143262.7, 0.0, 10.001726, 9.998187 
1.2250056e+3, 2.3511633e+2, -509146.63, -770204.0, 38883.098, 0.036417834, -0.06727209, -503478.25, 132375.02, 0.0, 10.001661, 9.9982605 
1.2250058e+3, 2.4511485e+2, -399057.94, -668605.0, -7420.873, 0.031885106, -0.032897282, -398853.78, 139014.2, 0.0, 10.001762, 9.998232 
1.22500636e+3, 2.5511348e+2, -257401.03, -542596.8, -38951.766, 0.10499259, -0.034898985, -252176.73, 187704.28, 0.0, 10.002037, 9.998289 
1.22500695e+3, 2.651114e+2, -187024.08, -570008.75, 38310.06, 0.12104492, -0.012614557, -183229.52, 158671.97, 0.0000003685213, 10.00236, 9.997259 
1.2250077e+3, 2.7510825e+2, -35278.617, -437084.6, 29292.354, 0.06956598, -0.09358929, -33154.383, 210778.55, 0.0000073761885, 10.002698, 9.997333 
1.2250088e+3, 2.851059e+2, 107498.266, -297771.03, 36826.184, 0.06326032, -0.062458716, 110817.42, 256774.05, 0.000049087277, 10.002872, 9.997546 
1.2250104e+3, 2.9510427e+2, 184594.39, -206122.14, 16905.79, 0.122498415, -0.03148972, 185324.52, 233299.19, 0.00018153466, 10.002707, 9.997585 
1.2250116e+3, 3.051023e+2, 223883.08, -263290.16, -14119.365, 0.19466682, 0.07067342, 224291.95, 224291.95, 0.00045750884, 10.003136, 9.996632 
1.2250089e+3, 3.15099e+2, 441359.47, 18830.697, -72390.77, -0.040259097, 0.02934711, 453417.88, 453417.88, 0.0008772591, 10.003762, 9.998277 
1.23500146e+3, 1.2511939e+2, -1920478.0, -1681262.1, 9916.272, -0.038659107, -0.02309686, -1680851.8, 32971.52, 0.0031899144, 9.997934, 10.0012 
1.2350013e+3, 1.3511899e+2, -1684860.0, -1567485.1, 106891.13, -0.11723702, -0.17231457, -1504230.3, 111591.58, 0.0017411282, 9.999137, 10.000746 
1.23500146e+3, 1.4511894e+2, -1635404.1, -1639675.8, -26162.117, -0.196167, -0.17989026, -1611290.8, -93467.89, 0.0006337289, 9.999432, 9.9994135 
1.23500064e+3, 1.5512052e+2, -1583722.4, -1554752.1, -84062.664, -0.14172608, -0.0070372587, -1483935.8, -64122.34, 0.00010392506, 9.999093, 9.999482 
1.2350007e+3, 1.6512099e+2, -1351254.0, -1273586.6, -21354.475, -0.09085865, 0.043059442, -1268102.5, 53704.992, 0.0000017603737, 9.999474, 10.000575 
1.23500235e+3, 1.7512001e+2, -1086866.4, -1087120.8, 46833.242, -0.013023041, -0.15404281, -1040160.1, 183648.48, 0.0, 10.000589, 10.000639 
1.2350024e+3, 1.8511938e+2, -1144510.1, -1278484.4, -16509.285, -0.0062023187, -0.17671268, -1142505.8, -16692.17, 0.0, 10.000447, 9.998715 
1.2350013e+3, 1.951188e+2, -1227643.4, -1255572.0, -44788.76, -0.077556394, -0.14845505, -1194692.5, -166867.83, 0.0, 9.999153, 9.998822 
1.23500146e+3, 2.0511825e+2, -1044822.3, -1007526.0, 13563.569, -0.13706632, -0.1272341, -1003115.0, -73284.26, 0.0, 9.999276, 9.999788 
1.23500265e+3, 2.1511738e+2, -724917.06, -795431.5, 67366.555, -0.18418026, -0.23451918, -684139.25, 147696.25, 0.0, 10.00077, 9.99985 
1.2350049e+3, 2.251168e+2, -639054.6, -898061.94, 40848.656, -0.11901231, -0.18358211, -632765.0, 101076.33, 0.0, 10.001502, 9.998136 
1.2350077e+3, 2.3511615e+2, -546481.5, -796090.0, 56784.727, 0.051239304, -0.1031946, -534170.44, 101680.96, 0.0, 10.001435, 9.998197 
1.23500854e+3, 2.4511456e+2, -461775.75, -742739.3, -13028.8955, 0.085488066, -0.0552664, -461172.88, 76696.11, 0.0, 10.001522, 9.997838 
1.2350076e+3, 2.5511178e+2, -312521.84, -610066.1, -8768.805, 0.0036596458, -0.15884268, -312263.66, 127632.945, 0.0, 10.001827, 9.997931 
1.2350084e+3, 2.6510978e+2, -204263.89, -545059.44, 36114.703, -0.00044200313, -0.12750919, -200478.78, 141437.88, 0.00000016286783, 10.002106, 9.997552 
1.2350108e+3, 2.7510813e+2, -45085.31, -412033.6, 63522.754, 0.06507931, -0.08534753, -34399.977, 209533.11, 0.000006622681, 10.002507, 9.997595 
1.23501174e+3, 2.851063e+2, 68308.266, -330560.44, 19194.742, 0.036803737, -0.011012588, 69229.85, 215181.81, 0.000048750662, 10.002669, 9.997419 
1.2350116e+3, 2.9510397e+2, 152967.84, -234606.17, 38133.61, -0.065741025, -0.03527222, 156684.2, 204660.8, 0.00018217463, 10.002541, 9.997474 
1.2350137e+3, 3.051017e+2, 198029.22, -273025.38, 3895.331, 0.059037622, 0.039027948, 198061.42, 198061.42, 0.00045752534, 10.002951, 9.996655 
1.2350148e+3, 3.150978e+2, 366990.22, -63324.266, -10200.935, 0.08866342, -0.06613717, 367231.9, 367231.9, 0.00087459444, 10.003463, 9.997851 
1.2449994e+3, 1.2511897e+2, -1813894.1, -1659195.1, 25977.83, -0.064646065, -0.10240335, -1654949.3, 58874.582, 0.003475539, 9.998827, 10.000906 
1.24500126e+3, 1.351189e+2, -1752477.0, -1651024.6, 27461.443, -0.024925457, -0.1759789, -1644068.3, -28246.941, 0.0019075654, 9.99889, 10.000297 
1.2450007e+3, 1.4511877e+2, -1702996.8, -1681902.5, -34517.81, -0.1733166, -0.16213438, -1656356.4, -138532.94, 0.0007030745, 9.999012, 9.999321 
1.2450005e+3, 1.5511961e+2, -1518025.3, -1539534.9, -43815.883, -0.08047, -0.05481687, -1483663.6, -63843.156, 0.00011956255, 9.9995985, 9.999347 
1.2450009e+3, 1.651199e+2, -1282068.8, -1248461.4, 66087.31, -0.043222822, -0.011092495, -1197074.9, 124741.63, 0.0000023468863, 10.000007, 10.000475 
1.24500245e+3, 1.7511937e+2, -1125381.1, -1114031.1, -10609.137, -0.03576218, -0.15259476, -1107674.5, 116139.89, 0.0, 10.000383, 10.00054 
1.2450028e+3, 1.8511866e+2, -1151077.9, -1291886.9, -102648.53, -0.013883599, -0.1730907, -1097009.4, 28810.86, 0.0, 10.000453, 9.998616 
1.24500185e+3, 1.9511743e+2, -1075355.6, -1195655.6, -75836.11, 0.008858678, -0.20172939, -1038711.3, -10874.03, 0.0, 10.000254, 9.998704 
1.2450019e+3, 2.0511675e+2, -887165.0, -921673.6, 89001.57, -0.047849696, -0.19207788, -813760.6, 116083.695, 0.0, 10.000313, 9.999877 
1.2450034e+3, 2.1511629e+2, -748580.06, -794661.1, 43353.316, -0.17330755, -0.2696056, -722525.0, 109320.18, 0.0, 10.00055, 9.999961 
1.24500565e+3, 2.251161e+2, -720955.1, -889113.6, 8365.327, -0.1437188, -0.20452091, -720540.0, 13306.703, 0.0, 10.000762, 9.998538 
1.24500856e+3, 2.3511584e+2, -587278.75, -765190.9, 20782.55, 0.02758271, -0.12597203, -584883.3, 50969.164, 0.0, 10.00097, 9.998613 
1.2450101e+3, 2.4511436e+2, -456397.53, -771486.44, 34233.95, 0.095095254, -0.07561028, -452720.97, 85148.54, 0.0, 10.0017, 9.997547 
1.2450105e+3, 2.5511143e+2, -177547.48, -572740.56, 8877.917, 0.06538909, -0.16607967, -177348.14, 262551.7, 0.0, 10.002892, 9.997659 
1.2450115e+3, 2.6510936e+2, -42448.97, -471833.75, 47899.453, 0.052695863, -0.1246761, -37170.496, 304750.4, 0.000000050542315, 10.003203, 9.997538 
1.245013e+3, 2.751078e+2, -30833.168, -412495.4, 19753.28, 0.053150892, -0.07365438, -29813.543, 214123.22, 0.0000061370592, 10.002595, 9.997571 
1.2450141e+3, 2.8510576e+2, 9769.962, -368628.97, 7054.8384, 0.035113655, -0.011848806, 9901.445, 155859.11, 0.000049451548, 10.002332, 9.997313 
1.2450147e+3, 2.9510295e+2, 125170.95, -250136.75, -17493.83, 0.008839618, -0.07215126, 125984.61, 173971.5, 0.00018750013, 10.002396, 9.997418 
1.245017e+3, 3.0510098e+2, 199687.78, -212076.81, 33281.85, 0.12008449, 0.0047978195, 202360.52, 202360.52, 0.000470274, 10.002672, 9.997229 
1.2450182e+3, 3.150983e+2, 305007.38, -81327.586, -11392.829, 0.12308954, -0.03028767, 305343.06, 305343.06, 0.0008945071, 10.0029745, 9.997979 
1.2549983e+3, 1.2511721e+2, -1854278.8, -1761387.5, 97113.88, -0.14205414, -0.21223617, -1700184.1, 13653.22, 0.0037739007, 9.998895, 10.000175 
1.255001e+3, 1.351191e+2, -1774820.3, -1705865.8, 41816.836, 0.030270878, -0.050343353, -1686145.9, -70324.81, 0.0020822603, 9.998923, 9.9999075 
1.2550007e+3, 1.4511928e+2, -1621803.4, -1520477.6, -32595.125, -0.13117406, -0.043065142, -1510897.9, 6920.4487, 0.0007764397, 9.999039, 10.000414 
1.255e+3, 1.5511788e+2, -1442525.9, -1384593.6, -4990.0854, -0.14436081, -0.26943702, -1384167.0, 35661.137, 0.00013646827, 9.999606, 10.000405 
1.2550007e+3, 1.6511735e+2, -1395791.6, -1489108.0, 58783.63, -0.1101632, -0.27410156, -1367399.8, -45566.53, 0.0000030208696, 10.000019, 9.998822 
1.2550034e+3, 1.7511758e+2, -1238215.4, -1345298.8, 17698.457, -0.02990065, -0.17865339, -1235366.1, -11531.358, 0.0, 10.000364, 9.998963 
1.2550037e+3, 1.8511766e+2, -1079778.9, -1131654.3, -130586.164, -0.0028990805, -0.101636514, -972579.44, 153255.98, 0.0, 10.000397, 9.999748 
1.255002e+3, 1.9511715e+2, -1011750.3, -1042185.4, -66742.0, -0.026204446, -0.16933013, -958513.0, 69326.68, 0.0, 10.000155, 9.999806 
1.2550026e+3, 2.0511684e+2, -967897.9, -1046121.2, 79501.47, -0.044571437, -0.13708706, -918408.1, 11434.335, 0.0, 10.000127, 9.999117 
1.2550053e+3, 2.151165e+2, -834533.25, -920279.0, 69586.35, -0.060123052, -0.12315171, -795672.75, 36173.453, 0.0, 10.00032, 9.999215 
1.255007e+3, 2.251161e+2, -700556.06, -785339.1, -1550.8071, -0.10579433, -0.084828794, -700527.75, 33322.434, 0.0, 10.000503, 9.999372 
1.2550078e+3, 2.3511529e+2, -561176.75, -661447.2, 47208.63, -0.1708684, -0.14474404, -542448.4, 93409.23, 0.0, 10.000754, 9.99943 
1.2550102e+3, 2.4511413e+2, -501406.8, -811678.44, 61486.684, -0.08350605, -0.09576591, -489666.22, 48204.23, 0.0, 10.00147, 9.997383 
1.2550145e+3, 2.5511226e+2, -223971.36, -622569.44, 70304.74, 0.14927368, -0.061799247, -211934.48, 227957.33, 0.0, 10.002681, 9.997422 
1.2550157e+3, 2.6511005e+2, -94723.4, -526911.9, 6706.153, 0.13247143, -0.010406475, -94619.37, 247296.28, 0.00000007625481, 10.002977, 9.997266 
1.2550141e+3, 2.751072e+2, -75592.17, -461270.5, 18158.469, -0.11858451, -0.062098872, -74739.125, 169205.5, 0.0000061507535, 10.002405, 9.997328 
1.2550154e+3, 2.8510436e+2, -29521.8, -409168.84, -5168.8, -0.09906747, -0.05885117, -29451.441, 116522.1, 0.000051588533, 10.002156, 9.997115 
1.2550193e+3, 2.9510117e+2, 90962.04, -288153.1, 6567.361, 0.19148342, -0.14589001, 91075.766, 139082.28, 0.00020006, 10.002253, 9.997223 
1.255021e+3, 3.0509996e+2, 257867.53, -62022.31, 31826.814, 0.22695962, -0.034006994, 261003.34, 261003.34, 0.0005036429, 10.002543, 9.998318 
1.2550178e+3, 3.151005e+2, 303074.3, -20053.602, 41651.22, -0.2696136, 0.13412738, 308356.8, 308356.8, 0.0009532297, 10.00269, 9.998537 
1.2649979e+3, 1.2511593e+2, -1909654.9, -1779172.1, 116442.19, -0.029023044, -0.20500468, -1710939.9, 2909.3228, 0.004085261, 9.998489, 10.000265 
1.2649992e+3, 1.351178e+2, -1858364.6, -1707612.0, 9278.253, 0.01708542, -0.061242595, -1707043.1, -91210.03, 0.0022650692, 9.998223, 10.000221 
1.2650003e+3, 1.4511806e+2, -1694856.9, -1536937.9, 714.9224, -0.03654943, -0.07164515, -1536934.6, -19105.451, 0.00085386867, 9.998458, 10.0005865 
1.2649997e+3, 1.551169e+2, -1440829.4, -1362495.9, -81600.52, -0.114359565, -0.288149, -1311149.3, 108686.57, 0.00015477135, 9.999542, 10.000587 
1.2650006e+3, 1.6511658e+2, -1454140.5, -1509975.5, 16910.604, -0.08703106, -0.2833816, -1449418.3, -127579.016, 0.0000038088367, 9.999605, 9.998867 
1.2650032e+3, 1.7511688e+2, -1446522.8, -1444477.6, 65110.88, 0.005248096, -0.18249042, -1380381.3, -156540.25, 0.0, 9.998936, 9.998972 
1.265004e+3, 1.8511719e+2, -1210984.9, -1179918.6, 4827.4575, 0.034675196, -0.08939685, -1179185.8, -53346.06, 0.0, 9.999429, 9.999881 
1.2650028e+3, 1.951171e+2, -877730.75, -962289.7, -45039.14, -0.00035763855, -0.12580197, -858235.8, 169603.34, 0.0, 10.001021, 9.999933 
1.2650035e+3, 2.0511669e+2, -826989.75, -1026104.6, 74327.21, -0.011064603, -0.089955136, -802304.6, 127538.6, 0.0, 10.001303, 9.998682 
1.265006e+3, 2.1511565e+2, -864726.94, -982667.8, 51574.613, -0.0065311748, -0.10548337, -845355.5, -13500.733, 0.0, 10.000319, 9.998781 
1.265008e+3, 2.2511488e+2, -709167.1, -806051.6, 33550.457, -0.059871513, -0.075938284, -698683.25, 35179.71, 0.0, 10.000497, 9.999243 
1.265009e+3, 2.3511413e+2, -423668.75, -607343.5, -22486.271, -0.16091126, -0.11693934, -420955.97, 214914.58, 0.0, 10.00174, 9.999334 
1.265012e+3, 2.4511312e+2, -351354.13, -682543.5, 5720.95, -0.0868681, -0.07301474, -351255.3, 186625.69, 0.0, 10.00224, 9.9979105 
1.2650168e+3, 2.5511155e+2, -280766.3, -592979.56, 36077.97, 0.15754169, -0.061286796, -276651.53, 163246.1, 0.0, 10.00203, 9.9979515 
1.2650186e+3, 2.651096e+2, -215761.42, -589781.4, 22396.514, 0.16364755, -0.005026279, -214425.1, 127493.71, 0.00000015326442, 10.002177, 9.997218 
1.2650172e+3, 2.75107e+2, -45232.7, -445838.9, 6680.4155, -0.05999991, -0.026631525, -45121.33, 198826.08, 0.0000068361555, 10.002627, 9.997314 
1.2650184e+3, 2.8510416e+2, 64344.65, -373387.66, 35573.12, -0.04018954, -0.021009482, 67216.72, 213193.75, 0.000055437977, 10.002823, 9.997051 
1.2650222e+3, 2.9510075e+2, 182738.47, -254862.58, 19729.592, 0.23055924, -0.117309764, 183626.2, 231637.52, 0.00021969865, 10.00291, 9.997149 
1.2650238e+3, 3.0509898e+2, 347077.1, -6857.136, 46637.703, 0.23000152, -0.065461375, 353119.38, 353119.38, 0.00055763865, 10.003122, 9.998408 
1.2650211e+3, 3.1510013e+2, 353765.03, -95.024925, -97912.484, -0.22417353, 0.16243885, 379050.47, 379050.47, 0.001054668, 10.003084, 9.998476 
1.2749976e+3, 1.251157e+2, -1814665.5, -1602495.8, -12922.391, 0.007205314, -0.024136964, -1601711.6, 112142.2, 0.0044096503, 9.998572, 10.001434 
1.2749954e+3, 1.3511509e+2, -1800766.3, -1589071.1, 8350.175, -0.22581752, -0.21387607, -1588742.3, 27114.139, 0.0024558255, 9.998218, 10.00104 
1.2749988e+3, 1.4511515e+2, -1738992.4, -1642114.8, 21082.791, -0.07898615, -0.24748136, -1637725.5, -119870.16, 0.00093550276, 9.998508, 9.999841 
1.2749994e+3, 1.5511683e+2, -1487208.9, -1468012.5, -24142.287, -0.12147149, -0.109416865, -1451630.4, -31788.521, 0.00017466526, 9.999575, 9.999848 
1.2750004e+3, 1.6511755e+2, -1325565.1, -1258580.3, -28330.652, -0.11549679, -0.048793744, -1248205.0, 73629.13, 0.0000047674703, 9.9996605, 10.000569 
1.2750018e+3, 1.7511721e+2, -1329553.1, -1203136.9, 57897.39, -0.06392871, -0.18437074, -1180628.1, 43205.707, 0.0, 9.998932, 10.000631 
1.2750028e+3, 1.8511724e+2, -1289473.1, -1321785.0, 49479.62, -0.048241284, -0.15107605, -1253578.6, -127745.44, 0.0, 9.999345, 9.998942 
1.2750037e+3, 1.9511734e+2, -957833.5, -1102890.3, 32101.89, -0.05725554, -0.07918047, -951046.75, 76788.53, 0.0, 10.000912, 9.999018 
1.2750044e+3, 2.0511626e+2, -861301.44, -1058126.8, 17915.19, -0.09225967, -0.059644688, -859684.06, 70162.81, 0.0, 10.001135, 9.998545 
1.2750053e+3, 2.151137e+2, -910118.8, -1022705.06, 30829.563, -0.14625953, -0.21209216, -902229.56, -70358.68, 0.0, 10.000085, 9.998621 
1.2750079e+3, 2.2511248e+2, -817151.9, -971728.0, 63292.16, -0.14148533, -0.167763, -794543.3, -60658.656, 0.0, 10.000251, 9.998222 
1.2750119e+3, 2.3511225e+2, -530647.4, -773831.44, 41756.938, -0.08208904, -0.056225117, -523677.13, 112214.92, 0.0, 10.001503, 9.998305 
1.2750147e+3, 2.4511123e+2, -303707.9, -525248.25, -16794.986, -0.058024555, -0.01984277, -302441.9, 235460.2, 0.0, 10.001996, 9.999104 
1.2750171e+3, 2.5510928e+2, -226165.9, -427436.34, 48479.563, -0.058016904, -0.17111383, -215097.44, 224819.39, 0.0, 10.001808, 9.999193 
1.2750193e+3, 2.6510808e+2, -243810.95, -593968.56, 23419.746, -0.005423325, -0.10487513, -242251.52, 99677.945, 0.00000020123079, 10.001948, 9.997296 
1.2750216e+3, 2.7510718e+2, -71826.64, -452680.25, 44180.387, 0.0880832, 0.030189363, -66768.73, 177176.39, 0.0000077157165, 10.002424, 9.997363 
1.2750228e+3, 2.8510508e+2, 42765.07, -382449.84, 20559.344, 0.06910569, 0.10734601, 43756.813, 189725.4, 0.000060411407, 10.002665, 9.997065 
1.2750228e+3, 2.951017e+2, 153513.7, -266395.8, 48976.91, -0.04596307, 0.010449588, 159150.55, 207151.58, 0.00024271311, 10.0027, 9.99717 
1.2750247e+3, 3.050979e+2, 237856.66, -190148.31, 36346.734, -0.023348015, -0.080568455, 240921.33, 240921.33, 0.0006225909, 10.00294, 9.997234 
1.275027e+3, 3.1509763e+2, 234093.94, -157114.33, -53773.785, -0.008044222, 0.112849176, 241350.84, 241350.84, 0.0011840118, 10.002718, 9.99756 
1.2849978e+3, 1.251143e+2, -1852462.6, -1619034.8, 33361.613, 0.19649135, -0.055055916, -1614360.4, 99505.945, 0.0047468157, 9.998263, 10.001473 
1.2849937e+3, 1.3511369e+2, -1681239.1, -1547694.1, -1248.4175, -0.23295315, -0.23298398, -1547682.5, 68186.65, 0.0026545508, 9.999073, 10.000911 
1.2849978e+3, 1.4511396e+2, -1659169.4, -1623421.3, 47144.887, -0.05386876, -0.23493509, -1590875.9, -73008.63, 0.0010215283, 9.999171, 9.999644 
1.2849993e+3, 1.5511554e+2, -1544464.9, -1510303.1, 4912.445, -0.07043112, -0.08292536, -1509610.8, -89754.72, 0.00019628371, 9.99926, 9.999704 
1.2850003e+3, 1.6511625e+2, -1330832.8, -1233177.4, -23774.188, -0.060203753, -0.031827576, -1227697.1, 94151.2, 0.0000059623408, 9.999482, 10.000847 
1.2850012e+3, 1.75116e+2, -1171472.8, -1093119.5, -80827.79, -0.049306653, -0.18412319, -1042474.44, 181370.6, 0.0, 9.999865, 10.000943 
1.2850027e+3, 1.8511584e+2, -1174888.8, -1286836.5, -32423.324, -0.03563436, -0.17406258, -1166176.1, -40330.527, 0.0, 10.000242, 9.998743 
1.2850048e+3, 1.9511545e+2, -986067.3, -1136585.0, -31788.996, -0.021600617, -0.1309736, -979628.94, 48224.39, 0.0, 10.00083, 9.998821 
1.285006e+3, 2.0511429e+2, -808320.0, -1043595.44, -29463.857, -0.051633157, -0.10146514, -804686.3, 125179.6, 0.0, 10.001542, 9.998452 
1.2850067e+3, 2.1511212e+2, -584868.8, -870799.4, -44077.02, -0.12415141, -0.20730522, -578228.44, 253657.53, 0.0, 10.00235, 9.99857 
1.2850092e+3, 2.2511072e+2, -541637.75, -872231.25, 61996.668, -0.11583775, -0.16532466, -530393.9, 203507.42, 0.0, 10.002284, 9.997926 
1.2850137e+3, 2.3510973e+2, -569915.94, -822029.0, 58920.15, -0.030880623, -0.09751073, -556825.6, 79089.74, 0.0, 10.001367, 9.9980345 
1.2850165e+3, 2.4510865e+2, -409182.75, -547922.94, 26183.414, -0.032410514, -0.06773512, -404405.8, 133520.03, 0.0, 10.001154, 9.99935 
1.2850182e+3, 2.5510725e+2, -245170.58, -407535.66, -20458.008, -0.108395815, -0.18596502, -242632.55, 197302.58, 0.0, 10.001562, 9.999442 
1.2850209e+3, 2.6510626e+2, -200041.45, -526242.1, -21014.031, -0.039208665, -0.1355985, -198693.28, 143252.23, 0.00000014147287, 10.002034, 9.9977255 
1.2850247e+3, 2.7510524e+2, -10047.553, -375466.9, -11101.963, 0.16586073, -0.052141063, -9710.569, 234250.78, 0.000007879153, 10.002635, 9.997797 
1.2850262e+3, 2.851037e+2, 117727.68, -339678.72, 5640.9287, 0.14920098, 0.059680738, 117797.234, 263776.47, 0.00006527563, 10.00316, 9.997116 
1.2850253e+3, 2.951014e+2, 278477.03, -199094.95, -10786.667, -0.07165527, 0.06406637, 278720.53, 326722.66, 0.000269289, 10.003529, 9.997231 
1.2850276e+3, 3.050967e+2, 317409.84, -214235.53, 34345.645, -0.059764303, -0.09440794, 319619.47, 319619.47, 0.0006978728, 10.00373, 9.996708 
1.2850316e+3, 3.1509498e+2, 362922.22, -110968.05, -77203.695, 0.16429734, 0.011645881, 375182.63, 375182.63, 0.0013327203, 10.003602, 9.997478 
1.2949942e+3, 1.2511212e+2, -1935974.5, -1781649.8, -72731.79, -0.05643251, -0.281974, -1752774.6, -38891.824, 0.0050962004, 9.998238, 10.000366 
1.2949944e+3, 1.3511387e+2, -1769332.9, -1713765.6, 39508.684, -0.11457869, -0.116059765, -1693249.5, -77380.375, 0.0028611089, 9.999018, 9.999796 
1.2949969e+3, 1.4511451e+2, -1639139.3, -1581536.1, 25213.39, -0.11106926, -0.030558933, -1572059.3, -54195.125, 0.00111182, 9.999174, 9.999929 
1.2949985e+3, 1.5511315e+2, -1529578.6, -1473759.1, 27774.35, -0.09881375, -0.20534977, -1462294.1, -42416.56, 0.000219555, 9.999237, 9.999969 
1.2950002e+3, 1.6511276e+2, -1405143.8, -1388913.4, -30731.787, -0.08033054, -0.22211032, -1365243.4, -43362.746, 0.0000074533, 9.999485, 9.999774 
1.295001e+3, 1.7511334e+2, -1252050.1, -1255930.3, -51628.047, -0.08994064, -0.18353452, -1202325.6, 21547.914, 0.0, 9.999841, 9.999836 
1.295003e+3, 1.8511306e+2, -1146564.9, -1224936.4, -29400.086, -0.07922916, -0.15608746, -1136762.0, -10885.743, 0.0, 10.000221, 9.99918 
1.2950058e+3, 1.9511145e+2, -968792.5, -1082416.3, 5622.5156, -0.025120039, -0.27834314, -968515.0, 59377.86, 0.0, 10.000737, 9.999241 
1.295008e+3, 2.0511077e+2, -836020.7, -1057600.9, -18361.15, -0.028456477, -0.21893004, -834509.5, 95390.68, 0.0, 10.001362, 9.998437 
1.2950097e+3, 2.151108e+2, -618912.44, -886484.44, -64.99884, -0.085030615, -0.10726942, -618912.4, 212988.67, 0.0, 10.002117, 9.99857 
1.2950118e+3, 2.2510947e+2, -552158.9, -831499.3, 10776.705, -0.1272117, -0.07917465, -551743.75, 182170.14, 0.0, 10.002016, 9.998334 
1.295014e+3, 2.3510659e+2, -576497.44, -779355.6, 45191.867, -0.15219866, -0.24367778, -566885.25, 69055.56, 0.0, 10.0011215, 9.998446 
1.2950167e+3, 2.4510539e+2, -506427.7, -676951.1, 24253.479, -0.15619701, -0.20717472, -503045.22, 34907.063, 0.0, 10.000856, 9.998599 
1.2950198e+3, 2.5510544e+2, -336643.28, -532717.44, 14146.992, -0.13412705, -0.10858768, -335627.8, 104325.34, 0.0, 10.001302, 9.998699 
1.295023e+3, 2.651041e+2, -175329.48, -435357.8, -16104.927, -0.073108315, -0.09138031, -174335.83, 167631.23, 0.000000052302592, 10.00185, 9.9984455 
1.2950264e+3, 2.7510127e+2, 10166.926, -283245.6, 31352.697, 0.024832975, -0.2594376, 13479.726, 257474.5, 0.000007172051, 10.002412, 9.998541 
1.2950286e+3, 2.851001e+2, 83868.36, -355287.0, 3419.8237, 0.043247372, -0.15463498, 83894.984, 229903.39, 0.00006969282, 10.002922, 9.997124 
1.29503e+3, 2.9509988e+2, 241065.08, -221588.38, 28972.486, -0.010145463, 0.05696097, 242872.34, 290886.2, 0.0003009035, 10.003294, 9.997188 
1.2950319e+3, 3.0509531e+2, 302749.34, -212112.14, 15176.124, -0.03221829, -0.08688261, 303196.3, 303196.3, 0.0007869782, 10.003588, 9.996791 
1.2950346e+3, 3.150926e+2, 370589.16, -11534.905, -29256.354, 0.014678271, -0.10266194, 372816.13, 372816.13, 0.0015032826, 10.003256, 9.9983225 
1.3049914e+3, 1.2511119e+2, -1958442.8, -1804128.8, -93613.57, -0.13482827, -0.2395775, -1759973.4, -46081.613, 0.0054552136, 9.998148, 10.000248 
1.3049945e+3, 1.3511251e+2, -1848957.8, -1747463.4, 5890.421, 0.030971007, -0.115209974, -1747122.6, -131240.75, 0.003073975, 9.998471, 9.999819 
1.3049962e+3, 1.4511321e+2, -1699802.6, -1599507.6, 78102.35, -0.07258824, -0.033613667, -1556839.4, -38963.758, 0.0012055306, 9.998684, 10.000046 
1.3049981e+3, 1.5511172e+2, -1461561.6, -1424609.8, 34934.016, -0.087102056, -0.2390744, -1403566.8, 16322.347, 0.000244213, 9.9996195, 10.00012 
1.3050002e+3, 1.6511121e+2, -1379521.8, -1442723.9, 16679.197, -0.043410692, -0.24258874, -1375390.1, -53496.207, 0.000009295233, 9.999992, 9.999146 
1.3050017e+3, 1.7511164e+2, -1258555.4, -1321755.8, -8664.945, -0.017019726, -0.15702496, -1257389.0, -33497.586, 0.0, 10.000109, 9.999241 
1.3050036e+3, 1.8511115e+2, -1138859.5, -1217635.4, 54335.16, -0.01401135, -0.120447405, -1111137.6, 14758.878, 0.0, 10.000237, 9.999234 
1.3050064e+3, 1.9510947e+2, -1025402.5, -1098835.8, 27904.996, -0.012388281, -0.25605288, -1016001.94, 11910.632, 0.0, 10.000302, 9.99934 
1.3050091e+3, 2.0510891e+2, -933972.94, -1096583.3, 45011.754, -0.016137253, -0.19435246, -922344.8, 7573.7085, 0.0, 10.000646, 9.998518 
1.3050118e+3, 2.151092e+2, -739762.8, -934974.3, 31925.191, -0.028542364, -0.0643234, -734674.4, 97243.055, 0.0, 10.0012455, 9.99866 
1.305014e+3, 2.251078e+2, -605332.75, -837614.4, 26302.918, -0.0598528, -0.054856837, -602391.5, 131538.17, 0.0, 10.001554, 9.998512 
1.3050157e+3, 2.3510452e+2, -508845.28, -727801.44, 6197.511, -0.10532405, -0.27757162, -508670.0, 127287.71, 0.0, 10.001492, 9.99862 
1.3050184e+3, 2.4510309e+2, -427276.06, -676108.94, 56591.188, -0.10820021, -0.26203138, -415010.34, 122961.05, 0.0, 10.001537, 9.998286 
1.3050218e+3, 2.5510302e+2, -297325.34, -551251.6, 46534.36, -0.069043055, -0.13966496, -289066.13, 150908.66, 0.0, 10.001712, 9.998388 
1.3050252e+3, 2.6510173e+2, -168219.9, -423118.4, 42879.5, -0.021126652, -0.10691086, -161199.97, 180788.86, 0.000000026393016, 10.00186, 9.9985285 
1.3050285e+3, 2.7509895e+2, -46059.547, -307422.16, -30.888407, 0.028160531, -0.28003266, -46059.543, 197956.48, 0.0000066700077, 10.001987, 9.998592 
1.3050312e+3, 2.8509772e+2, 14882.81, -356393.0, 3404.0952, 0.05144564, -0.19506912, 14914.019, 160943.55, 0.00007506801, 10.002312, 9.9974 
1.3050337e+3, 2.9509753e+2, 212263.4, -204945.23, 7066.9277, 0.057218045, -0.005868411, 212383.08, 260417.06, 0.00033561388, 10.00296, 9.997454 
1.3050357e+3, 3.050934e+2, 266506.06, -248374.67, 15902.83, 0.013967303, -0.11037042, 266996.78, 266996.78, 0.0008838956, 10.003424, 9.99662 
1.3050386e+3, 3.1509054e+2, 452014.38, 70791.5, -111873.09, 0.09182468, -0.118855, 482419.47, 482419.47, 0.0016899819, 10.00362, 9.998728 
1.314989e+3, 1.2511007e+2, -1888543.5, -1673583.8, 21614.465, -0.27064824, -0.087990105, -1671431.9, 42475.215, 0.005819013, 9.9982, 10.001122 
1.3149935e+3, 1.3510966e+2, -1771051.0, -1592769.8, 26344.871, 0.05281171, -0.24056382, -1588958.3, 26949.143, 0.0032902497, 9.998487, 10.000879 
1.3149947e+3, 1.4511006e+2, -1689625.6, -1580759.0, 82285.92, -0.11977799, -0.2495568, -1536531.5, -18629.596, 0.0013013786, 9.998706, 10.000161 
1.3149972e+3, 1.5511143e+2, -1462101.6, -1418410.6, 81740.79, -0.16622996, -0.17245276, -1355646.5, 64242.26, 0.00026992275, 9.999592, 10.000178 
1.315e+3, 1.6511168e+2, -1393049.6, -1482385.1, -520.14056, -0.08507144, -0.09060468, -1393046.6, -71158.86, 0.00001153221, 10.000025, 9.998864 
1.3150027e+3, 1.7511068e+2, -1275645.8, -1359357.5, 10893.792, 0.045131907, -0.120997846, -1274251.4, -50351.61, 0.0, 10.000105, 9.998987 
1.3150047e+3, 1.8511005e+2, -1167051.1, -1257125.5, 37165.938, 0.023084909, -0.076551214, -1153696.1, -27788.943, 0.0, 10.000165, 9.998993 
1.3150059e+3, 1.9510944e+2, -1060791.4, -1143168.0, 43927.71, -0.12362744, -0.08181991, -1041762.44, -13849.11, 0.0, 10.00018, 9.999092 
1.3150087e+3, 2.0510864e+2, -949604.9, -1088875.5, 52231.03, -0.15659083, -0.038495816, -932193.3, -2272.1362, 0.0, 10.000475, 9.998652 
1.3150129e+3, 2.1510735e+2, -762420.6, -938403.94, 72720.54, -0.0847236, -0.0782436, -736259.7, 95674.73, 0.0, 10.001048, 9.998735 
1.3150159e+3, 2.251057e+2, -648445.7, -861949.25, 6513.3984, -0.052600656, -0.09501576, -648247.1, 85701.79, 0.0, 10.0012865, 9.998469 
1.3150182e+3, 2.3510344e+2, -550464.9, -754054.2, 23363.525, -0.037157606, -0.21307456, -547818.1, 88149.414, 0.0, 10.001241, 9.998559 
1.3150209e+3, 2.4510168e+2, -456604.56, -675221.8, 44488.902, -0.037943926, -0.23080705, -447897.78, 90085.695, 0.0, 10.001274, 9.99842 
1.3150239e+3, 2.551002e+2, -323209.72, -549333.7, 71437.82, -0.057086244, -0.26546142, -302531.75, 137466.77, 0.0, 10.001469, 9.998521 
1.3150272e+3, 2.6509914e+2, -244746.19, -526639.6, 31354.693, -0.032062218, -0.18385693, -241300.77, 100710.34, 0.000000066602475, 10.001628, 9.997925 
1.3150308e+3, 2.7509815e+2, -123988.664, -409813.3, 29509.818, 0.028910605, -0.120592885, -120973.74, 123051.48, 0.0000067822207, 10.001751, 9.997994 
1.3150337e+3, 2.850967e+2, 27178.227, -297169.3, 13001.508, 0.027346345, -0.04845204, 27698.559, 173739.28, 0.000081610815, 10.002154, 9.99789 
1.3150361e+3, 2.9509452e+2, 206666.67, -154616.06, 55483.563, -0.029146615, -0.11641115, 214995.48, 263056.56, 0.00036944333, 10.002692, 9.997933 
1.3150385e+3, 3.0509105e+2, 199535.42, -342835.44, 13143.326, -0.074603416, -0.14883916, 199853.73, 199853.73, 0.000976967, 10.003236, 9.996058 
1.3150428e+3, 3.1508866e+2, 390410.38, 37221.73, -36601.8, 0.10041397, -0.056142565, 394163.63, 394163.63, 0.0018699723, 10.003235, 9.998673 
1.3249877e+3, 1.251075e+2, -1970300.3, -1697802.9, 140702.27, -0.17928939, -0.09910722, -1638192.3, 75738.586, 0.006183249, 9.997536, 10.001296 
1.3249911e+3, 1.351072e+2, -1816305.1, -1571319.8, -30285.01, 0.01304753, -0.27107534, -1567631.4, 48297.305, 0.0035072896, 9.998003, 10.001252 
1.324994e+3, 1.4510754e+2, -1763231.0, -1637314.9, 53457.7, -0.04202705, -0.29726508, -1617681.0, -99757.47, 0.0013982238, 9.998286, 9.999973 
1.3249972e+3, 1.5510921e+2, -1537347.1, -1471989.5, 4049.9548, -0.09378664, -0.17497781, -1471739.5, -51831.426, 0.00029637254, 9.99915, 10.000018 
1.3250005e+3, 1.6510937e+2, -1412001.1, -1482374.1, -53846.61, -0.024796568, -0.09937189, -1382863.9, -60955.94, 0.000014169166, 9.999854, 9.99894 
1.325003e+3, 1.7510787e+2, -1216753.4, -1330237.5, -54286.906, 0.06262896, -0.18613228, -1194966.9, 28957.639, 0.0, 10.000484, 9.999012 
1.3250051e+3, 1.8510719e+2, -1081137.0, -1220130.5, 11529.003, 0.037219774, -0.1442509, -1080187.3, 45744.87, 0.0, 10.000776, 9.998955 
1.3250068e+3, 1.9510698e+2, -960913.94, -1101869.5, -1198.9628, -0.07462066, -0.10291883, -960903.75, 67030.36, 0.0, 10.000884, 9.999041 
1.3250098e+3, 2.0510608e+2, -890359.94, -1059002.0, 46584.008, -0.11294545, -0.06896421, -878347.7, 51595.55, 0.0, 10.000905, 9.99864 
1.3250135e+3, 2.1510425e+2, -788580.3, -948505.5, 24979.938, -0.093565635, -0.16001923, -784769.3, 47192.625, 0.0, 10.000887, 9.998734 
1.325017e+3, 2.2510275e+2, -688668.7, -876050.6, -14364.426, -0.04553601, -0.1622849, -687573.94, 46401.62, 0.0, 10.000997, 9.998515 
1.3250202e+3, 2.3510137e+2, -544938.2, -740053.4, -26920.59, 0.051319815, -0.19462311, -541292.06, 94694.51, 0.0, 10.001247, 9.998651 
1.3250233e+3, 2.4509983e+2, -404820.56, -657495.8, 38335.297, 0.06925607, -0.19255501, -399132.47, 138868.6, 0.0, 10.001664, 9.998348 
1.3250263e+3, 2.5509778e+2, -216833.06, -502253.06, 13181.325, 0.001968928, -0.27730578, -216225.63, 223796.27, 0.0, 10.002226, 9.998468 
1.3250294e+3, 2.6509663e+2, -119034.266, -469119.25, 9611.617, -0.012217788, -0.20050539, -118770.58, 223264.73, 0.0000000978673, 10.002521, 9.997879 
1.3250327e+3, 2.75096e+2, 1092.305, -350138.63, 8398.855, 0.020817282, -0.09470595, 1293.029, 245338.5, 0.000006920427, 10.002625, 9.997974 
1.3250363e+3, 2.8509447e+2, 135819.38, -212852.9, 55136.188, 0.047187712, -0.04592816, 144330.4, 290391.4, 0.000086783395, 10.002791, 9.998158 
1.32504e+3, 2.9509178e+2, 293185.1, -84503.11, 32009.213, 0.07419446, -0.18759461, 295878.7, 343963.56, 0.0003950438, 10.003172, 9.998185 
1.3250425e+3, 3.0508897e+2, 240248.33, -302491.03, 44276.066, 0.01393926, -0.17516838, 243836.6, 243836.6, 0.0010503886, 10.003451, 9.9962225 
1.3250467e+3, 3.1508633e+2, 445375.44, 93767.305, -7395.582, 0.16304815, -0.11799282, 445530.94, 445530.94, 0.0020140882, 10.003482, 9.9989395 
1.3349858e+3, 1.251038e+2, -1987770.5, -1730720.0, 45107.203, -0.19074225, -0.23856148, -1723034.4, -9074.935, 0.0065457188, 9.997524, 10.001072 
1.3349871e+3, 1.3510516e+2, -1847142.4, -1630980.9, -12189.58, -0.23346901, -0.20851056, -1630295.6, -14350.123, 0.0037237175, 9.997986, 10.00085 
1.3349931e+3, 1.4510551e+2, -1775067.8, -1676122.4, 61676.656, -0.0048862207, -0.19916703, -1646528.3, -128586.414, 0.0014951822, 9.998333, 9.999694 
1.3349976e+3, 1.551051e+2, -1556703.6, -1516133.1, 53728.426, -0.010215339, -0.25172782, -1478988.1, -59042.082, 0.00032323142, 9.999154, 9.99972 
1.3350008e+3, 1.651044e+2, -1392452.6, -1436433.4, -50976.6, -0.012652127, -0.2641368, -1358925.5, -36972.21, 0.000017128494, 9.999833, 9.999265 
1.3350023e+3, 1.7510329e+2, -1202938.8, -1285942.4, -16202.775, -0.09965224, -0.3481244, -1199888.1, 24076.434, 0.00000000003443261, 10.000422, 9.999343 
1.3350047e+3, 1.8510273e+2, -1080530.8, -1208793.4, -3258.385, -0.1110836, -0.31500316, -1080448.0, 45521.52, 0.0, 10.000722, 9.999066 
1.3350087e+3, 1.9510229e+2, -968408.1, -1093955.8, 18367.16, -0.0000011521415, -0.3083344, -965776.25, 62197.03, 0.0, 10.0007715, 9.999155 
1.3350119e+3, 2.0510137e+2, -927581.1, -1094658.8, 26783.225, -0.021253731, -0.27562925, -923392.6, 6590.641, 0.0, 10.000727, 9.998483 
1.3350138e+3, 2.1509975e+2, -834004.9, -990767.56, 42026.33, -0.18730895, -0.32719466, -823448.9, 8552.424, 0.0, 10.000658, 9.998561 
1.335017e+3, 2.2509883e+2, -714290.1, -873159.7, -18060.33, -0.18270147, -0.26970664, -712262.9, 21748.082, 0.0, 10.0007515, 9.998649 
1.3350214e+3, 2.3509838e+2, -569763.56, -740559.3, 2155.5488, 0.01528326, -0.22764006, -569736.4, 66278.305, 0.0, 10.00102, 9.9987545 
1.3350251e+3, 2.4509749e+2, -457306.88, -710886.94, 42741.895, 0.05863758, -0.15118147, -450296.38, 87728.33, 0.0, 10.001434, 9.998086 
1.3350283e+3, 2.5509578e+2, -269839.5, -558664.75, 52632.582, -0.047740486, -0.1753647, -260547.23, 179497.42, 0.0, 10.002001, 9.998185 
1.3350312e+3, 2.6509425e+2, -119623.09, -422692.8, -4035.561, -0.11101057, -0.14549606, -119569.37, 222491.61, 0.00000008871969, 10.002313, 9.9983 
1.335034e+3, 2.7509257e+2, -4410.984, -300620.7, 32735.098, -0.13938308, -0.1945448, -836.45764, 243240.22, 0.000006673535, 10.002373, 9.998433 
1.3350385e+3, 2.8509098e+2, 104735.125, -232438.13, 49239.41, -0.042287465, -0.17257679, 111778.71, 257869.58, 0.00008871381, 10.002594, 9.99812 
1.3350447e+3, 2.9508927e+2, 253607.33, -107858.37, 70904.664, 0.19163908, -0.21172488, 267018.34, 315124.16, 0.00040777776, 10.002919, 9.99815 
1.3350472e+3, 3.0508724e+2, 276851.4, -181869.13, 35482.16, 0.10201792, -0.16238391, 279579.72, 279579.72, 0.0010944809, 10.003261, 9.997138 
1.3350491e+3, 3.1508324e+2, 419250.44, 132728.53, 81584.91, -0.015790079, -0.34085324, 440852.44, 440852.44, 0.002108087, 10.003078, 9.999405 
1.3449855e+3, 1.2509988e+2, -1982486.8, -1768403.4, -59755.023, 0.026043003, -0.27271414, -1752854.0, -38857.758, 0.0069055543, 9.997748, 10.000695 
1.3449855e+3, 1.3510133e+2, -1634028.4, -1568935.3, -81699.42, -0.26127586, -0.19461016, -1513538.3, 102444.945, 0.0039389143, 9.999647, 10.000465 
1.3449922e+3, 1.4510168e+2, -1548338.9, -1539198.4, 357.7336, -0.0007177264, -0.1777092, -1539184.4, -21204.633, 0.0015916337, 9.999781, 9.999937 
1.3449976e+3, 1.5510093e+2, -1579840.0, -1500889.0, -3536.428, 0.09230676, -0.2871658, -1500730.9, -80744.46, 0.0003501717, 9.998889, 9.999955 
1.3450012e+3, 1.6510038e+2, -1509112.1, -1452639.8, -18301.754, 0.09656439, -0.31170934, -1447227.3, -125235.86, 0.000020254476, 9.99885, 9.999636 
1.3450025e+3, 1.7509988e+2, -1292059.6, -1284567.4, -19076.148, -0.07309278, -0.3698475, -1268873.0, -44876.62, 0.0000000014653116, 9.999625, 9.999736 
1.3450052e+3, 1.8509968e+2, -1148250.0, -1228151.6, 11828.947, -0.108238295, -0.33014777, -1146535.6, -20537.17, 0.0, 10.000196, 9.999181 
1.3450095e+3, 1.9509934e+2, -976079.94, -1083892.6, -989.3506, 0.012311883, -0.32445404, -976070.9, 51930.477, 0.0, 10.000665, 9.9992695 
1.345013e+3, 2.0509847e+2, -911621.3, -1107201.6, 32516.283, 0.01685322, -0.28295022, -906357.0, 23654.535, 0.0, 10.000898, 9.998318 
1.3450153e+3, 2.1509686e+2, -803552.06, -987892.94, 9613.544, -0.10909656, -0.3206669, -803052.06, 28978.428, 0.0, 10.000906, 9.998454 
1.3450186e+3, 2.2509594e+2, -645892.9, -829036.8, -784.08856, -0.10271373, -0.26447102, -645889.5, 88150.94, 0.0, 10.00118, 9.99875 
1.345023e+3, 2.350954e+2, -456707.22, -670054.75, -13472.397, 0.05151061, -0.23868549, -455859.84, 180184.53, 0.0, 10.001743, 9.998888 
1.3450268e+3, 2.4509458e+2, -415173.66, -687777.7, 54095.73, 0.07429, -0.16180068, -404831.25, 133222.14, 0.0, 10.001717, 9.998117 
1.3450299e+3, 2.550932e+2, -396320.28, -613082.0, 50832.26, -0.03201173, -0.15737312, -384991.78, 55078.62, 0.0, 10.001118, 9.998242 
1.3450333e+3, 2.6509166e+2, -230865.05, -465284.9, 56517.32, -0.09211363, -0.13712624, -217950.52, 124135.4, 0.000000062099474, 10.001505, 9.998395 
1.3450369e+3, 2.7508944e+2, 80550.48, -252858.38, 25004.256, -0.105684996, -0.24289642, 82415.26, 326519.6, 0.0000065347235, 10.002908, 9.9985075 
1.3450418e+3, 2.8508747e+2, 167494.7, -253557.5, 20536.623, 0.011561344, -0.2399158, 168494.0, 314616.22, 0.00008986311, 10.003229, 9.997675 
1.345048e+3, 2.950858e+2, 171346.36, -183809.44, -35611.188, 0.2572746, -0.23315413, 174881.86, 223020.67, 0.00041373618, 10.002513, 9.997818 
1.3450508e+3, 3.050842e+2, 208483.56, -198010.17, -48504.4, 0.16493806, -0.13893008, 214191.16, 214191.16, 0.001115336, 10.002676, 9.997321 
1.3450533e+3, 3.1508037e+2, 469440.22, 131467.69, -106872.05, 0.09473918, -0.32002208, 500398.94, 500398.94, 0.0021558118, 10.00353, 9.999165 
1.3549834e+3, 1.2509549e+2, -2018678.8, -1841264.0, -131384.28, -0.025173862, -0.25300768, -1771444.3, -57401.01, 0.0072628423, 9.997757, 10.000191 
1.3549863e+3, 1.3509583e+2, -1668369.0, -1633567.4, -3516.909, -0.18800141, -0.23747936, -1633215.5, -17175.13, 0.004152666, 9.999631, 10.000028 
1.3549903e+3, 1.450961e+2, -1510141.9, -1449311.4, -59160.152, -0.19552518, -0.23509024, -1413205.9, 104831.055, 0.0016872559, 9.999739, 10.000571 
1.3549966e+3, 1.5509667e+2, -1532575.9, -1402737.1, -19445.975, 0.071418405, -0.28218877, -1399887.3, 20141.904, 0.0003769789, 9.998885, 10.000629 
1.355001e+3, 1.6509727e+2, -1475844.0, -1386497.8, -10524.514, 0.16264784, -0.252458, -1385274.8, -63251.816, 0.000023370363, 9.998856, 10.00009 
1.3550034e+3, 1.7509754e+2, -1270499.8, -1227395.3, 25066.266, 0.021808395, -0.27574643, -1215889.8, 8131.926, 0.0000000068048798, 9.999566, 10.00016 
1.3550058e+3, 1.850979e+2, -1156383.5, -1220792.3, 11209.079, -0.10019957, -0.20205954, -1154488.6, -28469.395, 0.0, 10.0001, 9.999273 
1.3550086e+3, 1.9509809e+2, -989110.5, -1080816.3, 34731.16, -0.175042, -0.15718316, -977441.7, 50576.79, 0.0, 10.000535, 9.9993515 
1.3550125e+3, 2.0509735e+2, -949881.06, -1145538.6, 13334.581, -0.13831766, -0.09510915, -948976.44, -18948.342, 0.0, 10.000723, 9.998137 
1.3550176e+3, 2.1509552e+2, -850936.2, -1032267.3, 23862.475, 0.00962084, -0.13978212, -847848.56, -15798.502, 0.0, 10.00067, 9.998263 
1.3550217e+3, 2.2509398e+2, -678384.75, -831894.75, -1401.2396, 0.060961057, -0.14109996, -678371.94, 55693.047, 0.0, 10.000906, 9.998858 
1.3550247e+3, 2.3509245e+2, -485631.3, -670979.75, 23661.406, 0.024000783, -0.22629768, -482658.4, 153417.33, 0.0, 10.001493, 9.998999 
1.3550279e+3, 2.4509121e+2, -429781.63, -659808.94, 13299.019, -0.023801846, -0.21163183, -429015.3, 109071.016, 0.0, 10.001465, 9.998432 
1.3550307e+3, 2.5508997e+2, -406307.47, -580242.1, 47923.668, -0.09218617, -0.22712703, -393977.28, 46122.105, 0.0, 10.000889, 9.998579 
1.355035e+3, 2.6508856e+2, -280562.66, -522035.25, 91902.055, -0.09853394, -0.19262482, -249564.86, 92547.49, 0.000000036385206, 10.001301, 9.998107 
1.355041e+3, 2.750866e+2, 20480.287, -319099.25, 100067.164, -0.030680247, -0.2438573, 47774.266, 291903.38, 0.0000068750182, 10.00266, 9.998174 
1.3550456e+3, 2.8508413e+2, 76022.836, -393560.6, -24442.63, 0.037638977, -0.23049967, 77291.69, 223445.38, 0.00009120505, 10.003016, 9.996813 
1.3550493e+3, 2.9508114e+2, 71291.01, -329844.72, -37540.89, 0.096832976, -0.2707921, 74774.086, 122960.484, 0.00041573873, 10.002246, 9.996945 
1.3550526e+3, 3.0507952e+2, 132709.14, -290551.5, -31770.225, 0.054125447, -0.10742439, 135080.55, 135080.55, 0.0011165407, 10.002421, 9.996799 
1.3550583e+3, 3.1507716e+2, 317012.53, -76085.94, -8071.061, 0.16472407, -0.08895113, 317178.2, 317178.2, 0.0021572434, 10.003087, 9.99794 
1.3649812e+3, 1.2509196e+2, -1834008.0, -1736359.6, 7175.6807, -0.07356497, -0.19103707, -1735835.1, -21754.438, 0.0076198755, 9.998922, 10.000356 
1.364987e+3, 1.350915e+2, -1825780.0, -1718763.0, 65605.695, 0.0018610966, -0.2588483, -1687611.9, -71528.06, 0.004366158, 9.998537, 9.999991 
1.3649894e+3, 1.4509161e+2, -1748913.6, -1554946.1, 12378.988, -0.16861098, -0.27130088, -1554159.4, -36078.06, 0.0017823466, 9.998055, 10.00065 
1.364995e+3, 1.5509279e+2, -1599918.1, -1423438.8, -21388.023, 0.06074582, -0.27020645, -1420883.8, -815.05206, 0.0004035849, 9.998381, 10.00072 
1.3650002e+3, 1.6509381e+2, -1459710.8, -1380204.9, 24098.838, 0.18595488, -0.20058794, -1373470.6, -51411.383, 0.000026350568, 9.998969, 10.000081 
1.365004e+3, 1.7509446e+2, -1227619.5, -1203816.9, -14422.106, 0.12118169, -0.18780345, -1197019.5, 27035.945, 0.000000016360648, 9.99985, 10.000186 
1.3650067e+3, 1.8509497e+2, -1164230.4, -1198374.1, -32770.996, -0.0035217549, -0.11015707, -1144351.1, -18299.152, 0.0, 9.999951, 9.999492 
1.3650087e+3, 1.9509512e+2, -1142501.6, -1121769.0, -35418.293, -0.16402934, -0.092475384, -1095231.1, -67179.88, 0.0, 9.999371, 9.999619 
1.365013e+3, 2.0509452e+2, -1057074.5, -1161616.6, 30534.684, -0.11604104, -0.05079819, -1048809.4, -118750.695, 0.0, 9.999819, 9.998473 
1.3650197e+3, 2.1509291e+2, -741283.7, -943768.7, 47634.555, 0.12779394, -0.103133224, -730637.44, 101438.984, 0.0, 10.001257, 9.9986 
1.3650241e+3, 2.250914e+2, -557243.4, -792501.0, 49988.84, 0.18027547, -0.110474564, -547062.06, 187028.73, 0.0, 10.001821, 9.998686 
1.3650264e+3, 2.3508967e+2, -492857.8, -699937.8, 12195.381, 0.042946246, -0.19636776, -492142.06, 143962.75, 0.0, 10.001537, 9.998788 
1.3650294e+3, 2.4508822e+2, -381008.6, -641324.5, 12505.44, -0.024766356, -0.18991375, -380409.22, 157708.14, 0.0, 10.001825, 9.998381 
1.3650328e+3, 2.5508675e+2, -140136.97, -457325.06, -21848.586, -0.038416456, -0.22366753, -138639.06, 301492.13, 0.0, 10.002739, 9.998529 
1.365038e+3, 2.650851e+2, -74773.39, -472574.8, 50831.63, -0.009016638, -0.18864726, -68380.78, 273765.72, 0.000000033203506, 10.002933, 9.997662 
1.3650443e+3, 2.75083e+2, -26484.643, -383837.84, 10440.25, 0.06334798, -0.21300578, -26179.885, 217986.47, 0.0000069323874, 10.002527, 9.9977865 
1.365049e+3, 2.8508028e+2, 47486.414, -434173.3, -58999.59, 0.08729808, -0.19294293, 54608.11, 200802.27, 0.00008948749, 10.002971, 9.996542 
1.3650523e+3, 2.950769e+2, 369193.88, -209062.19, -68550.67, 0.07399047, -0.24196845, 377209.25, 425440.0, 0.00040625758, 10.00441, 9.996724 
1.3650559e+3, 3.0507505e+2, 438065.47, -143307.25, 3594.478, 0.05526599, -0.09462344, 438087.7, 438087.7, 0.0010893871, 10.004524, 9.996816 
1.3650621e+3, 3.1507358e+2, 288880.1, -134222.34, 9750.755, 0.26071036, 0.032710638, 289104.7, 289104.7, 0.00210587, 10.003037, 9.997612 
1.3749814e+3, 1.25089e+2, -1787751.6, -1629909.4, 140445.5, -0.019465663, -0.122604534, -1547729.6, 166381.84, 0.0079810945, 9.998903, 10.001085 
1.3749872e+3, 1.3508831e+2, -1794797.5, -1654570.5, 52776.36, 0.12673207, -0.26325473, -1636927.3, -20813.754, 0.0045821774, 9.998536, 10.000425 
1.3749889e+3, 1.4508834e+2, -1779880.0, -1624678.3, -5826.1353, -0.082204826, -0.2808752, -1624459.8, -106348.09, 0.0018779465, 9.998073, 10.000169 
1.3749924e+3, 1.5508927e+2, -1635169.4, -1498447.5, 8295.576, -0.069386, -0.25532922, -1497946.0, -77841.1, 0.00043006244, 9.99838, 10.000211 
1.3749978e+3, 1.6509008e+2, -1493953.0, -1448735.5, 35871.81, 0.014843906, -0.15521531, -1428942.0, -106842.25, 0.000029160963, 9.998954, 9.999621 
1.3750039e+3, 1.7509075e+2, -1261925.6, -1268810.3, 35321.28, 0.08797661, -0.098228976, -1229879.3, -5782.4478, 0.000000027808229, 9.999812, 9.999764 
1.3750075e+3, 1.8509094e+2, -1146955.0, -1149115.6, -74101.16, 0.036574144, -0.051021047, -1073926.3, 52169.844, 0.0, 9.999902, 9.99985 
1.375009e+3, 1.9509028e+2, -1140425.6, -1085933.6, -44146.93, -0.0884352, -0.14540085, -1061301.9, -33200.383, 0.0, 9.999235, 9.999931 
1.3750136e+3, 2.0508976e+2, -1014392.25, -1032861.25, 66787.53, -0.06752479, -0.15769358, -956203.8, -26098.89, 0.0, 9.999646, 9.999441 
1.3750209e+3, 2.1508916e+2, -712023.2, -826357.5, 119480.48, 0.099305965, -0.20778102, -636737.8, 195370.6, 0.0, 10.001011, 9.999527 
1.3750255e+3, 2.2508837e+2, -635873.3, -887562.8, 23081.37, 0.10547867, -0.15962072, -633774.1, 100342.05, 0.0, 10.001535, 9.998168 
1.3750273e+3, 2.3508716e+2, -572231.5, -795205.8, 21233.668, -0.03850161, -0.14442916, -570227.44, 65903.375, 0.0, 10.001251, 9.998263 
1.375031e+3, 2.4508561e+2, -451035.16, -731817.8, 25571.896, -0.07460301, -0.09524886, -448725.22, 89421.38, 0.0, 10.001578, 9.997883 
1.3750362e+3, 2.5508362e+2, -208174.05, -546555.8, 28560.635, -0.0039352905, -0.13511264, -205780.36, 234384.72, 0.0, 10.002513, 9.998029 
1.3750415e+3, 2.6508138e+2, -141259.97, -566586.2, 19274.24, 0.032161374, -0.1040498, -140388.31, 201798.75, 0.000000022673568, 10.002739, 9.9971075 
1.3750468e+3, 2.7507856e+2, -99224.43, -478675.22, 16224.87, 0.0321532, -0.14948823, -98531.94, 145684.77, 0.0000066245593, 10.002294, 9.997245 
1.3750517e+3, 2.8507584e+2, 50727.164, -394319.7, -23711.871, 0.017084124, -0.12000627, 51986.953, 198231.4, 0.00008473701, 10.002813, 9.996896 
1.3750564e+3, 2.950732e+2, 355931.72, -175576.6, 10487.643, 0.008778108, -0.13117407, 356138.56, 404409.63, 0.00038290335, 10.004143, 9.997087 
1.3750601e+3, 3.050707e+2, 438543.75, -91834.88, -59511.824, -0.012000723, -0.08975249, 445139.34, 445139.34, 0.0010283956, 10.004312, 9.997261 
1.3750637e+3, 3.1506932e+2, 248555.98, -93357.95, 24633.014, 0.05456365, -0.0056653563, 250321.53, 250321.53, 0.0019973381, 10.00254, 9.998107 
1.3849808e+3, 1.2508498e+2, -1958345.1, -1668875.0, 128221.1, 0.11539987, -0.03869186, -1620248.0, 93907.586, 0.008351057, 9.997553, 10.001473 
1.3849853e+3, 1.3508455e+2, -1851399.8, -1613981.9, -64950.477, 0.11481, -0.20549025, -1597375.0, 18778.451, 0.004803759, 9.997866, 10.001037 
1.3849883e+3, 1.450848e+2, -1750298.4, -1621020.6, -17154.285, 0.051495254, -0.23002447, -1618783.0, -100633.88, 0.0019753822, 9.998315, 10.000086 
1.384992e+3, 1.550855e+2, -1427425.8, -1404066.3, -11811.474, -0.01641042, -0.2178631, -1399134.9, 21009.475, 0.00045665295, 9.999833, 10.000162 
1.3849972e+3, 1.6508612e+2, -1345697.6, -1377829.1, 53693.57, 0.018084142, -0.13409626, -1305717.9, 16422.803, 0.00003186285, 10.000011, 9.999581 
1.385003e+3, 1.7508651e+2, -1386736.1, -1330998.9, 42366.684, 0.081305206, -0.0997782, -1308156.6, -84017.68, 0.000000039188958, 9.998986, 9.999725 
1.3850072e+3, 1.8508632e+2, -1286276.4, -1250331.0, -25518.469, 0.0744234, -0.07655066, -1237091.4, -110949.76, 0.0, 9.999062, 9.999579 
1.3850099e+3, 1.9508526e+2, -980285.06, -1031200.1, -65604.38, 0.017372163, -0.18788478, -935372.0, 92779.46, 0.0, 10.000411, 9.99975 
1.3850148e+3, 2.0508485e+2, -830640.4, -907155.1, 40568.973, 0.03355126, -0.19855031, -813135.2, 117018.445, 0.0, 10.000762, 9.999757 
1.3850217e+3, 2.1508478e+2, -793549.6, -824033.56, 7674.0137, 0.122602955, -0.22699688, -791726.8, 40424.0, 0.0, 10.000285, 9.999883 
1.3850264e+3, 2.2508438e+2, -787555.44, -957332.0, -60201.11, 0.11625367, -0.1636384, -768375.5, -34220.8, 0.0, 10.000455, 9.99822 
1.3850291e+3, 2.3508336e+2, -545474.0, -776551.9, -50058.605, 0.015473203, -0.13315293, -535095.9, 101072.19, 0.0, 10.001389, 9.998337 
1.3850334e+3, 2.450817e+2, -411723.06, -745297.56, 35889.94, 0.0071228156, -0.08484831, -407905.28, 130280.04, 0.0, 10.001989, 9.997587 
1.3850392e+3, 2.5507924e+2, -251969.55, -602354.56, 10461.992, 0.0757337, -0.13931622, -251657.45, 188550.98, 0.0, 10.002344, 9.997727 
1.3850446e+3, 2.6507682e+2, -176805.45, -591706.3, 29034.879, 0.09488448, -0.111032985, -174783.45, 167449.61, 0.0000000049794013, 10.002526, 9.997041 
1.3850494e+3, 2.7507406e+2, -49474.234, -464459.0, 24710.145, 0.06182301, -0.13990982, -48008.055, 196254.78, 0.0000064670485, 10.002649, 9.997185 
1.3850547e+3, 2.8507164e+2, 71600.695, -344542.75, 75271.34, 0.049449686, -0.09466313, 84797.17, 231084.69, 0.00007994395, 10.002772, 9.997277 
1.3850604e+3, 2.9506937e+2, 234434.63, -181082.5, 69590.7, 0.06826857, -0.10757086, 245779.88, 294089.22, 0.00035496187, 10.003066, 9.997574 
1.3850643e+3, 3.050665e+2, 320456.0, -146410.55, -33449.438, 0.044474624, -0.13306111, 322840.38, 322840.38, 0.00095268304, 10.003479, 9.997286 
1.3850667e+3, 3.1506482e+2, 450185.22, 35980.355, -38719.613, 0.047195718, -0.0758379, 453773.6, 453773.6, 0.001860375, 10.003752, 9.998414 
1.39498e+3, 1.250788e+2, -1957834.3, -1657776.3, -69576.89, 0.19124237, -0.022513155, -1642428.0, 71795.51, 0.008733579, 9.997531, 10.00155 
1.3949804e+3, 1.3508013e+2, -1795799.9, -1491971.8, -53494.586, -0.1818562, -0.103199586, -1482828.1, 133376.9, 0.005033633, 9.997842, 10.001884 
1.3949874e+3, 1.4508103e+2, -1721706.6, -1566099.8, 10585.399, 0.07708934, -0.12488106, -1565383.0, -47190.07, 0.002076125, 9.998334, 10.000453 
1.3949929e+3, 1.5508153e+2, -1407918.4, -1356669.9, 62616.727, 0.05831297, -0.16529998, -1314637.1, 105549.305, 0.00048381835, 9.9998045, 10.000502 
1.3949978e+3, 1.6508177e+2, -1325734.9, -1336860.9, -7554.2734, 0.033712555, -0.15161428, -1321916.4, 266.61935, 0.000034571214, 10.000012, 9.999864 
1.3950014e+3, 1.7508149e+2, -1384519.0, -1306381.8, 17093.014, -0.019233624, -0.20723458, -1302806.3, -78621.88, 0.00000005013657, 9.998902, 9.999937 
1.3950054e+3, 1.8508108e+2, -1336312.3, -1343751.3, 2562.3872, -0.036624394, -0.18366803, -1335515.0, -209326.16, 0.0, 9.999017, 9.998959 
1.3950105e+3, 1.9508024e+2, -1047464.06, -1138861.6, -365.95096, 0.010386937, -0.20972884, -1047462.56, -19263.373, 0.0, 10.00027, 9.999083 
1.3950159e+3, 2.0507985e+2, -876950.7, -967062.1, 3391.3452, 0.039836857, -0.16476065, -876823.25, 53380.227, 0.0, 10.000604, 9.999419 
1.3950217e+3, 2.1507971e+2, -855047.94, -894019.2, 4315.5903, 0.05617333, -0.16640785, -854575.75, -22371.656, 0.0, 10.000039, 9.999518 
1.3950266e+3, 2.2507933e+2, -765267.2, -866496.06, -41732.93, 0.061030444, -0.12090253, -750280.9, -16073.806, 0.0, 10.000246, 9.998948 
1.3950312e+3, 2.3507844e+2, -527034.75, -689404.0, 5146.5576, 0.06867885, -0.15191387, -526871.8, 109342.75, 0.0, 10.001166, 9.999045 
1.3950364e+3, 2.4507667e+2, -458977.8, -784658.5, 32017.328, 0.06951694, -0.14442386, -455860.06, 82371.42, 0.0, 10.00174, 9.997437 
1.395042e+3, 2.5507364e+2, -307171.88, -648388.94, 42150.84, 0.070923604, -0.23843525, -302042.06, 138219.34, 0.0, 10.002061, 9.997542 
1.3950472e+3, 2.650714e+2, -184941.05, -559144.9, 16640.787, 0.05038433, -0.20223947, -184202.48, 158082.36, 0.0000000011462398, 10.002308, 9.997374 
1.3950521e+3, 2.7506968e+2, -62404.594, -433729.63, 50177.184, 0.017316299, -0.16235164, -55743.633, 188559.94, 0.0000063015364, 10.002397, 9.99752 
1.3950576e+3, 2.8506786e+2, 60761.25, -309266.8, 68264.52, 0.027969807, -0.08882137, 72953.3, 219275.13, 0.000075522126, 10.00253, 9.997631 
1.3950641e+3, 2.9506546e+2, 211954.6, -158522.4, 105320.375, 0.0867777, -0.14993525, 239802.19, 288147.06, 0.00033164787, 10.002779, 9.997863 
1.3950683e+3, 3.050624e+2, 265901.03, -211002.38, -40903.258, 0.07200664, -0.18840806, 269383.8, 269383.8, 0.0008920203, 10.003265, 9.996947 
1.3950701e+3, 3.1506085e+2, 389238.75, 31451.9, 22719.988, -0.046471164, -0.09441452, 390675.72, 390675.72, 0.0017485601, 10.003252, 9.998617 
1.4049797e+3, 1.2507442e+2, -1945315.9, -1725717.5, 22114.877, 0.418932, 0.004400295, -1723512.5, -9245.132, 0.009133226, 9.997904, 10.000901 
1.4049795e+3, 1.3507564e+2, -1617630.0, -1462389.3, -19916.357, -0.11711817, -0.038907364, -1459874.9, 156378.31, 0.005275387, 9.99928, 10.001399 
1.4049865e+3, 1.4507632e+2, -1557166.3, -1480718.0, 16059.77, 0.11979655, -0.06513332, -1477481.4, 40762.934, 0.0021822979, 9.999451, 10.000495 
1.4049925e+3, 1.5507694e+2, -1546718.0, -1422840.6, -1764.3202, 0.09659184, -0.09454335, -1422815.5, -2579.7615, 0.00051218417, 9.9988575, 10.0005 
1.4049976e+3, 1.6507696e+2, -1475192.9, -1413699.0, -69548.586, 0.06364562, -0.099953614, -1368404.0, -46171.02, 0.000037386584, 9.99899, 9.999832 
1.4050013e+3, 1.7507623e+2, -1195548.4, -1208778.9, -98919.484, 0.024035366, -0.20763175, -1103023.3, 121213.836, 0.00000006103049, 10.000166, 9.999994 
1.4050058e+3, 1.850757e+2, -1114229.8, -1238904.6, -39300.117, 0.017722998, -0.19780031, -1102875.6, 23366.033, 0.0, 10.000564, 9.998927 
1.4050111e+3, 1.950751e+2, -1036059.6, -1132454.3, -34024.426, 0.047613926, -0.19935207, -1025260.0, 2989.4614, 0.0, 10.00035, 9.999085 
1.4050165e+3, 2.0507473e+2, -928600.25, -1029295.8, 8315.6, 0.061851736, -0.13852897, -927918.2, 2336.2222, 0.0, 10.000404, 9.999098 
1.4050218e+3, 2.1507435e+2, -743578.9, -868194.75, -20870.4, 0.050524544, -0.13413104, -740176.5, 92082.51, 0.0, 10.000926, 9.999271 
1.4050275e+3, 2.2507377e+2, -606655.06, -777493.1, -27536.805, 0.06857987, -0.09656023, -602326.2, 131937.45, 0.0, 10.001299, 9.999044 
1.405033e+3, 2.350728e+2, -457875.2, -635609.4, -66266.95, 0.12004807, -0.15027815, -435888.0, 200383.0, 0.0, 10.001568, 9.999211 
1.4050388e+3, 2.4507104e+2, -437527.56, -767091.75, -27600.43, 0.14671993, -0.15209357, -435232.06, 103055.4, 0.0, 10.001852, 9.997507 
1.4050445e+3, 2.5506824e+2, -277279.25, -618308.6, -30865.1, 0.1391247, -0.23108695, -274508.3, 165807.63, 0.0, 10.002207, 9.997676 
1.4050499e+3, 2.650662e+2, -155028.47, -497963.88, -18131.61, 0.11349989, -0.20040654, -154072.48, 188264.34, 0.0000000047036606, 10.002317, 9.9977865 
1.4050548e+3, 2.750648e+2, -53064.863, -376385.38, -26233.938, 0.07741098, -0.16764115, -50950.098, 193400.64, 0.000006310061, 10.002258, 9.997971 
1.4050604e+3, 2.850633e+2, 57406.555, -302564.6, 36786.01, 0.07382245, -0.09216857, 61127.316, 207493.0, 0.00007178299, 10.002462, 9.997706 
1.4050668e+3, 2.95061e+2, 221431.11, -151474.22, 20374.818, 0.10381061, -0.1496802, 222541.05, 270929.56, 0.0003183702, 10.002823, 9.997895 
1.405072e+3, 3.0505812e+2, 275406.13, -212104.33, -77023.15, 0.115144156, -0.16654743, 287285.75, 287285.75, 0.0008620041, 10.003361, 9.996888 
1.4050743e+3, 3.1505582e+2, 539767.44, 140643.2, -72261.15, 0.03276422, -0.14284863, 552447.4, 552447.4, 0.0016920328, 10.004113, 9.998961 
1.414975e+3, 1.2507166e+2, -2019227.9, -1888438.8, -61128.723, 0.054692183, -0.0016920746, -1864317.0, -150028.3, 0.009556688, 9.997933, 9.999781 
1.414982e+3, 1.3507134e+2, -1753340.1, -1731660.1, 45697.96, 0.17441146, -0.0124256285, -1695534.1, -79238.44, 0.0055341963, 9.999238, 9.999566 
1.4149852e+3, 1.4507064e+2, -1575743.9, -1528739.1, -31887.268, -0.006316739, -0.06826462, -1512628.9, 5674.9, 0.0022969088, 9.99949, 10.000146 
1.4149904e+3, 1.5507166e+2, -1581043.6, -1490409.1, -10048.447, -0.035132498, -0.014430266, -1489308.5, -69015.484, 0.0005425403, 9.998841, 10.000045 
1.414996e+3, 1.6507182e+2, -1478442.4, -1427557.3, -50981.055, -0.037324984, 0.023560267, -1396022.8, -73733.3, 0.000040406845, 9.999017, 9.999731 
1.4150022e+3, 1.7507094e+2, -1215487.5, -1230640.6, -38881.992, 0.07170697, -0.08385853, -1183450.8, 40844.04, 0.00000007226826, 10.00008, 9.999893 
1.4150073e+3, 1.8507037e+2, -1082315.8, -1158252.3, -66502.945, 0.08580246, -0.103409804, -1043705.75, 82592.61, 0.0, 10.0005045, 9.999506 
1.4150113e+3, 1.9506976e+2, -1019749.1, -1068688.8, -28251.678, -0.0029189915, -0.157888, -1006843.44, 21459.633, 0.0, 10.000221, 9.999586 
1.4150162e+3, 2.0506929e+2, -963473.2, -1067542.9, 4614.858, -0.042512506, -0.12125021, -963268.94, -32961.215, 0.0, 10.000252, 9.99891 
1.4150223e+3, 2.1506868e+2, -796758.2, -922026.56, 14596.096, -0.017950619, -0.120413564, -795079.94, 37235.07, 0.0, 10.000675, 9.999028 
1.4150283e+3, 2.2506772e+2, -678678.7, -866668.7, -37458.953, 0.0062184962, -0.08731665, -671489.5, 62835.234, 0.0, 10.00104, 9.998553 
1.4150341e+3, 2.3506624e+2, -537365.25, -735861.25, -40261.81, 0.03804734, -0.13671471, -529509.7, 106829.055, 0.0, 10.001295, 9.9986515 
1.4150403e+3, 2.4506484e+2, -438758.13, -724025.2, -28882.666, 0.07890151, -0.096384555, -435863.2, 102489.805, 0.0, 10.001645, 9.997903 
1.415047e+3, 2.5506312e+2, -276768.4, -575160.5, 2125.3416, 0.13287392, -0.10925251, -276753.25, 163617.77, 0.0, 10.002018, 9.998064 
1.4150527e+3, 2.6506135e+2, -158134.7, -455289.5, -38796.383, 0.14107133, -0.0926216, -153152.98, 189235.25, 0.000000079284355, 10.00211, 9.9981785 
1.4150575e+3, 2.7505925e+2, -66768.0, -345920.6, -5205.8335, 0.098121054, -0.16523163, -66670.95, 177735.34, 0.000007370644, 10.002007, 9.998302 
1.4150627e+3, 2.8505766e+2, 25395.004, -321505.75, 34264.164, 0.02440155, -0.11123233, 28746.965, 175168.5, 0.00007207351, 10.002255, 9.997673 
1.4150687e+3, 2.9505593e+2, 173183.55, -187261.55, 59581.664, -0.041473996, -0.11303859, 182777.08, 231217.56, 0.00031938194, 10.00254, 9.997788 
1.4150746e+3, 3.0505347e+2, 231238.8, -232808.67, -58281.547, 0.010408798, -0.0810408, 238446.66, 238446.66, 0.00086451345, 10.00308, 9.996863 
1.4150788e+3, 3.150498e+2, 472031.2, 129084.88, 2947.3765, 0.016056132, -0.20042804, 472056.5, 472056.5, 0.0016914787, 10.003601, 9.999104 
1.4249721e+3, 1.2506488e+2, -1947007.8, -1853653.8, -138537.73, -0.031121183, -0.11542023, -1754141.0, -39788.152, 0.010011913, 9.998466, 9.999762 
1.4249822e+3, 1.3506512e+2, -1957974.8, -1861585.1, -68921.28, 0.34552062, -0.028757479, -1825679.5, -209324.17, 0.0058154534, 9.998008, 9.999263 
1.424984e+3, 1.4506441e+2, -1760126.5, -1647406.6, -42452.727, -0.018444879, -0.059777495, -1633206.9, -114841.945, 0.002423067, 9.998357, 9.999875 
1.4249898e+3, 1.5506499e+2, -1505468.3, -1482274.5, -53010.59, 0.001984677, -0.022822674, -1439607.1, -19247.797, 0.00057589856, 9.999489, 9.999779 
1.4249957e+3, 1.6506505e+2, -1359921.9, -1374473.9, -34667.53, 0.012352836, 0.020218557, -1331775.0, -9417.7295, 0.00004378684, 9.999846, 9.999685 
1.4250025e+3, 1.7506444e+2, -1263932.4, -1254550.4, -55293.21, 0.115779586, -0.06338103, -1203749.6, 20610.889, 0.00000008454083, 9.999743, 9.999884 
1.4250079e+3, 1.8506405e+2, -1184208.3, -1186367.8, -77049.61, 0.13549954, -0.07473553, -1108230.9, 18131.295, 0.0, 9.999702, 9.999704 
1.4250116e+3, 1.9506371e+2, -1050744.6, -1054054.5, -95522.87, 0.038295563, -0.12549037, -956862.44, 71501.48, 0.0, 9.999882, 9.999847 
1.4250167e+3, 2.0506331e+2, -947482.56, -1039635.44, 1844.3114, -0.01770209, -0.1041001, -947445.7, -17079.1, 0.0, 10.00027, 9.999091 
1.4250231e+3, 2.1506247e+2, -739004.75, -874405.25, 4092.937, -0.018339606, -0.1429502, -738881.1, 93492.8, 0.0, 10.000966, 9.999219 
1.4250295e+3, 2.2506136e+2, -636625.94, -870727.25, 2617.4722, 0.003428624, -0.12530883, -636596.6, 97788.586, 0.0, 10.00143, 9.998348 
1.4250356e+3, 2.3505981e+2, -475419.2, -726217.44, -10299.408, 0.03845602, -0.16061987, -474996.94, 161405.0, 0.0, 10.001797, 9.998489 
1.4250422e+3, 2.4505877e+2, -383806.47, -649486.44, 41525.746, 0.09002506, -0.09453845, -377467.25, 160945.84, 0.0, 10.001827, 9.998324 
1.425049e+3, 2.5505793e+2, -294149.66, -536508.5, 34749.285, 0.15580834, -0.06316419, -289265.72, 151156.44, 0.00000000006254562, 10.001695, 9.998487 
1.4250551e+3, 2.650562e+2, -176228.42, -484333.2, 18905.951, 0.18151681, -0.052845024, -175072.64, 167366.06, 0.00000036239143, 10.002063, 9.997998 
1.4250605e+3, 2.750535e+2, 58108.332, -300685.4, -21789.02, 0.16177891, -0.17410193, 59426.703, 303890.06, 0.000010087366, 10.002916, 9.998173 
1.4250657e+3, 2.8505173e+2, 130032.51, -247586.28, 27417.428, 0.07122246, -0.14353877, 132012.8, 278493.47, 0.00007872079, 10.00287, 9.997896 
1.4250706e+3, 2.9505032e+2, 137745.4, -174934.67, 17101.068, -0.056617282, -0.13249083, 138677.9, 187174.3, 0.00033516844, 10.002166, 9.998054 
1.4250773e+3, 3.0504873e+2, 174775.75, -240496.9, 9420.046, 0.024693679, -0.035796057, 174989.31, 174989.31, 0.0008965645, 10.002562, 9.9970875 
1.4250833e+3, 3.15045e+2, 501982.8, 145972.1, 22135.453, 0.10436591, -0.186027, 503353.84, 503353.84, 0.0017444047, 10.003751, 9.999174 
1.4349736e+3, 1.250553e+2, -1865086.6, -1695908.0, 112674.805, 0.19377092, -0.22389431, -1639603.9, 74843.99, 0.010506618, 9.998501, 10.00083 
1.4349796e+3, 1.350572e+2, -1885493.3, -1706667.4, -65486.98, 0.25240988, -0.08233035, -1685250.6, -68819.984, 0.006123269, 9.997988, 10.000327 
1.4349821e+3, 1.4505774e+2, -1751253.9, -1642977.5, -20824.691, -0.08679227, -0.04261471, -1639110.4, -120684.23, 0.002563054, 9.998409, 9.999887 
1.4349903e+3, 1.5505719e+2, -1516143.6, -1495870.0, 6360.144, 0.063244574, -0.11348135, -1494040.0, -73607.69, 0.0006133788, 9.999446, 9.999713 
1.4349964e+3, 1.6505682e+2, -1363338.4, -1377054.8, -62334.273, 0.051278513, -0.10908583, -1307486.3, 14949.023, 0.000047750204, 9.99983, 9.999676 
1.4350016e+3, 1.7505646e+2, -1272879.9, -1265405.3, -46323.13, 0.019687345, -0.16252095, -1222668.9, 1767.6876, 0.00000010052836, 9.999704, 9.999832 
1.4350069e+3, 1.8505663e+2, -1195036.8, -1192909.9, -93120.43, 0.021484083, -0.11376468, -1100846.9, 25587.414, 0.0, 9.999637, 9.999689 
1.4350118e+3, 1.95057e+2, -1074592.1, -1070241.3, -73383.61, 0.028152114, -0.09111946, -999000.9, 29430.074, 0.0, 9.999739, 9.999806 
1.4350171e+3, 2.0505682e+2, -928772.44, -963829.4, 7034.6104, -0.022949675, -0.0784625, -927413.5, 3016.8035, 0.0, 10.000106, 9.999689 
1.4350235e+3, 2.1505575e+2, -738750.2, -816646.9, 45968.41, -0.094528906, -0.19859363, -717448.5, 114986.87, 0.0, 10.000714, 9.999736 
1.4350303e+3, 2.2505476e+2, -669347.0, -873536.6, -1172.0105, -0.08945856, -0.19959553, -669340.3, 65104.24, 0.0, 10.001158, 9.998455 
1.4350371e+3, 2.3505357e+2, -510598.06, -729544.56, 21494.695, -0.00995147, -0.2100103, -508507.8, 127951.99, 0.0, 10.001511, 9.998599 
1.4350437e+3, 2.4505287e+2, -391626.8, -608551.1, 15227.554, 0.040911864, -0.13767272, -390563.1, 147905.06, 0.0, 10.001576, 9.99873 
1.4350502e+3, 2.5505242e+2, -310810.06, -503644.78, 47075.363, 0.07286948, -0.105127476, -299931.6, 140540.08, 0.000000006122379, 10.00141, 9.99885 
1.4350568e+3, 2.650507e+2, -246951.28, -584280.1, 34931.21, 0.097214825, -0.07733991, -243372.05, 99116.555, 0.0000008787704, 10.001853, 9.997419 
1.4350633e+3, 2.7504754e+2, -16638.38, -405534.22, 31103.434, 0.12356643, -0.18583079, -14166.476, 230355.06, 0.000014147242, 10.002696, 9.997568 
1.4350687e+3, 2.8504547e+2, 126205.8, -207269.77, -17723.45, 0.056061875, -0.17689623, 127145.11, 273688.13, 0.000090681104, 10.002661, 9.99827 
1.4350727e+3, 2.95044e+2, 111331.22, -163659.08, 15270.884, -0.10278666, -0.20918003, 112176.65, 160734.44, 0.0003647409, 10.001874, 9.998277 
1.43508e+3, 3.0504388e+2, 184386.38, -152252.44, 37969.934, -0.0106397895, -0.0068467003, 188615.9, 188615.9, 0.0009617202, 10.002295, 9.99781 
1.4350867e+3, 3.150416e+2, 443128.88, 141121.67, 112165.13, 0.016332261, -0.089490525, 480229.25, 480229.25, 0.001861219, 10.003262, 9.999376 
1.4449723e+3, 1.2504652e+2, -1905968.3, -1661395.1, 211424.33, 0.24980484, -0.18081066, -1539439.5, 175096.14, 0.011047917, 9.997955, 10.001339 
1.4449759e+3, 1.350488e+2, -1722887.8, -1546303.8, -135435.25, 0.06687749, -0.08290474, -1472922.6, 143589.89, 0.00646129, 9.998718, 10.001083 
1.444982e+3, 1.4504983e+2, -1638926.3, -1566227.6, -52259.633, 0.027230574, -0.04337655, -1538919.0, -20415.822, 0.0027186894, 9.999102, 10.000062 
1.4449903e+3, 1.5504956e+2, -1571164.9, -1496958.4, -59356.45, 0.15065028, -0.10784547, -1464062.8, -43555.66, 0.0006559602, 9.998962, 9.999935 
1.4449961e+3, 1.6504936e+2, -1492847.6, -1421208.0, -81787.34, 0.105827115, -0.1048214, -1367740.5, -45231.676, 0.000052490832, 9.998864, 9.999843 
1.445001e+3, 1.7504908e+2, -1326484.4, -1263955.6, -82896.68, 0.026133921, -0.16837864, -1206623.6, 17885.824, 0.00000012546444, 9.999237, 10.000062 
1.4450064e+3, 1.8504931e+2, -1191619.0, -1207046.1, -76428.21, 0.032838322, -0.11960982, -1122516.1, 3990.5952, 0.0, 9.999712, 9.999565 
1.4450121e+3, 1.9504972e+2, -995454.1, -1041679.06, -99521.125, 0.0756553, -0.086141236, -916396.94, 112106.68, 0.0, 10.000314, 9.999725 
1.4450179e+3, 2.050494e+2, -863384.44, -924672.8, -12171.879, 0.0325961, -0.08474664, -861055.56, 69448.33, 0.0, 10.00054, 9.999749 
1.4450245e+3, 2.1504813e+2, -760049.25, -810877.1, -49499.676, -0.06530792, -0.23078875, -729820.7, 102689.266, 0.0, 10.000524, 9.999863 
1.4450315e+3, 2.2504734e+2, -720296.25, -885866.7, -71379.516, -0.05044646, -0.22254243, -693772.56, 40744.297, 0.0, 10.000747, 9.998573 
1.445039e+3, 2.3504667e+2, -543433.1, -731805.0, -81131.7, 0.065386444, -0.19388571, -513307.6, 123220.05, 0.0, 10.001211, 9.998731 
1.4450458e+3, 2.4504611e+2, -389098.47, -581121.3, -70677.89, 0.1061795, -0.12660089, -365889.28, 172645.11, 0.0, 10.001484, 9.99896 
1.4450516e+3, 2.5504535e+2, -244614.22, -447540.7, -85236.125, 0.0715969, -0.14506453, -213563.36, 226976.45, 0.000000012932129, 10.001736, 9.999086 
1.4450584e+3, 2.6504394e+2, -208614.72, -557854.4, -16616.021, 0.08707272, -0.105567105, -207825.94, 134728.53, 0.0000016431604, 10.00209, 9.997486 
1.4450662e+3, 2.7504164e+2, -8563.309, -389325.25, -16024.292, 0.15232465, -0.1354946, -7890.12, 236690.47, 0.000019343763, 10.002706, 9.997667 
1.4450718e+3, 2.8503954e+2, 145057.56, -207996.53, -65096.85, 0.10531364, -0.12527035, 156677.8, 303279.97, 0.00010742439, 10.002841, 9.998171 
1.4450754e+3, 2.9503757e+2, 188882.36, -128979.41, -97115.61, -0.039419677, -0.20242932, 216205.25, 264826.44, 0.0004102239, 10.002432, 9.99823 
1.4450827e+3, 3.0503735e+2, 273676.28, -84926.43, 10672.089, 0.03366915, -0.02034811, 273993.6, 273993.6, 0.001066146, 10.002799, 9.998037 
1.4450902e+3, 3.1503552e+2, 518643.84, 158052.8, -47403.168, 0.027944745, -0.079192154, 524771.3, 524771.3, 0.0020519032, 10.003879, 9.999185 
1.4549704e+3, 1.2503798e+2, -1903373.0, -1677754.4, 23134.516, 0.18608314, -0.07031313, -1675406.6, 39214.727, 0.011640448, 9.998043, 10.001182 
1.4549708e+3, 1.3504018e+2, -1702493.3, -1487288.3, -80418.484, -0.3550307, -0.034909066, -1460557.5, 156041.89, 0.0068325973, 9.998646, 10.001528 
1.4549828e+3, 1.4504081e+2, -1620743.6, -1531267.9, -73872.3, 0.13999334, -0.06051761, -1489642.5, 28951.537, 0.0028915813, 9.999112, 10.000297 
1.4549893e+3, 1.5504198e+2, -1550228.4, -1446728.6, -50705.535, 0.1088915, -0.016802361, -1426027.9, -5442.963, 0.00070428615, 9.998935, 10.000291 
1.4549947e+3, 1.6504268e+2, -1453052.8, -1346447.8, -94736.64, 0.022487935, 0.03251226, -1291048.0, 31529.934, 0.000058062662, 9.998895, 10.000344 
1.4550003e+3, 1.7504247e+2, -1303826.6, -1202424.0, -52254.48, 0.0008226066, -0.07291741, -1180316.4, 44261.234, 0.00000016567238, 9.999175, 10.000516 
1.4550065e+3, 1.8504222e+2, -1210244.8, -1234160.5, -72747.04, 0.019999882, -0.086602606, -1148479.4, -21900.8, 0.0, 9.99966, 9.999408 
1.4550124e+3, 1.9504179e+2, -1029486.94, -1083159.5, -61338.582, 0.04447787, -0.112255864, -989370.94, 39211.117, 0.0, 10.000181, 9.999512 
1.4550185e+3, 2.0504099e+2, -925750.2, -1008131.2, -32946.03, 0.003926066, -0.12317031, -914195.06, 16392.713, 0.0, 10.00035, 9.999263 
1.4550251e+3, 2.150395e+2, -831866.1, -898790.25, -33045.14, -0.06829465, -0.24493857, -818299.56, 14299.126, 0.0, 10.000267, 9.999381 
1.4550327e+3, 2.2503898e+2, -739836.3, -866642.56, -72322.18, -0.028496312, -0.20083223, -707060.2, 27543.59, 0.0, 10.000489, 9.998829 
1.4550412e+3, 2.3503917e+2, -575955.75, -723530.6, -44908.836, 0.11944277, -0.10847381, -563363.8, 73241.016, 0.0, 10.0008955, 9.998937 
1.4550479e+3, 2.4503858e+2, -420097.28, -588571.8, -76296.086, 0.12902492, -0.054665595, -390681.5, 147929.44, 0.0, 10.001227, 9.999037 
1.4550531e+3, 2.5503698e+2, -271759.6, -453445.6, -55489.707, 0.01521485, -0.16824968, -256152.81, 184472.0, 0.000000017460069, 10.001514, 9.999157 
1.4550601e+3, 2.6503605e+2, -194180.1, -480637.7, -10032.825, 0.0005988878, -0.11659738, -193829.14, 148805.39, 0.000002726617, 10.0018835, 9.998114 
1.4550686e+3, 2.7503556e+2, -7474.965, -321119.5, 27606.195, 0.08922382, -0.029480403, -5063.676, 239578.6, 0.000025176965, 10.002429, 9.998261 
1.4550747e+3, 2.850339e+2, 80381.766, -279277.03, -98329.125, 0.07304443, 0.013984468, 105509.016, 252168.19, 0.00012773139, 10.002572, 9.997811 
1.4550784e+3, 2.9503098e+2, 132684.92, -191819.44, -87129.86, -0.034410976, -0.12395712, 154599.47, 203286.63, 0.00046808438, 10.002196, 9.997917 
1.4550854e+3, 3.0502918e+2, 213940.23, -156282.11, 38119.17, -0.0014464215, -0.06670683, 217824.34, 217824.34, 0.00120209, 10.002571, 9.997658 
1.4550932e+3, 3.1502652e+2, 376220.84, -29918.707, 35672.24, -0.1418687, -0.16707958, 379330.22, 379330.22, 0.0023053363, 10.00341, 9.99812 
1.4649689e+3, 1.2503032e+2, -1953587.9, -1708139.5, 43117.65, 0.25990105, -0.041403446, -1700785.4, 13912.339, 0.012283002, 9.997749, 10.001108 
1.4649697e+3, 1.3503273e+2, -1722878.3, -1493414.4, 5452.0576, -0.3039726, 0.015169824, -1493285.0, 123389.27, 0.00723705, 9.998516, 10.001535 
1.464983e+3, 1.4503294e+2, -1732676.4, -1563021.4, 14677.366, 0.30156413, -0.05912162, -1561760.9, -43088.445, 0.0030819494, 9.998222, 10.0005245 
1.4649872e+3, 1.5503408e+2, -1658997.9, -1455799.4, -1742.9714, 0.079562, -0.054551665, -1455784.5, -35122.79, 0.0007585455, 9.997984, 10.000697 
1.4649928e+3, 1.6503514e+2, -1527919.4, -1376496.3, 15093.285, -0.018652303, 0.005530251, -1375006.5, -52355.582, 0.00006440502, 9.998348, 10.000398 
1.465e+3, 1.7503555e+2, -1245285.3, -1171806.1, -12149.964, 0.049941853, -0.043791097, -1169849.3, 54796.84, 0.00000022299002, 9.999545, 10.00055 
1.4650069e+3, 1.8503533e+2, -1139493.9, -1205207.6, -20234.451, 0.09103801, -0.048793748, -1133763.1, -7116.016, 0.0, 10.000211, 9.999318 
1.465013e+3, 1.9503452e+2, -966304.1, -1054071.5, -40113.313, 0.07677326, -0.110951506, -950733.2, 77920.914, 0.0, 10.000655, 9.999463 
1.4650194e+3, 2.0503362e+2, -850155.5, -1030429.44, 20223.734, 0.032954782, -0.102948636, -847914.6, 82747.54, 0.0, 10.001108, 9.998753 
1.4650264e+3, 2.1503238e+2, -661204.06, -867867.06, -10105.255, -0.024146024, -0.15012701, -660711.1, 171962.64, 0.0, 10.0016575, 9.998924 
1.465034e+3, 2.2503175e+2, -577738.9, -757483.8, -31164.012, 0.021514397, -0.106835544, -572489.0, 162190.52, 0.0, 10.001473, 9.999101 
1.4650422e+3, 2.3503141e+2, -582144.8, -695450.7, -39321.098, 0.16357054, -0.09678309, -569836.1, 66846.27, 0.0, 10.000704, 9.999223 
1.465049e+3, 2.450305e+2, -486356.94, -639198.6, -6926.866, 0.15321214, -0.08280879, -486043.66, 52646.87, 0.0, 10.000859, 9.998866 
1.4650545e+3, 2.5502884e+2, -206150.8, -433274.84, -40769.29, -0.013847594, -0.18298571, -199054.34, 241651.16, 0.000000044837254, 10.00203, 9.999037 
1.4650616e+3, 2.6502806e+2, -87975.87, -375855.0, -316.62595, -0.039318945, -0.13636981, -87975.52, 254737.98, 0.0000038968087, 10.002384, 9.998594 
1.4650705e+3, 2.750278e+2, -40641.25, -285747.22, -4246.4185, 0.07582139, -0.066961564, -40567.703, 204149.38, 0.000030518888, 10.001962, 9.998739 
1.4650773e+3, 2.8502643e+2, 54244.832, -304935.03, -68736.91, 0.08978256, -0.015828144, 66949.74, 213680.97, 0.00014669454, 10.002446, 9.997699 
1.4650817e+3, 2.9502392e+2, 367265.22, -86044.61, -98181.516, 0.011317529, -0.09476763, 387616.5, 436372.25, 0.00052534003, 10.003856, 9.997838 
1.4650892e+3, 3.0502146e+2, 414200.66, -100884.29, 53781.406, 0.037949804, -0.08365635, 419756.22, 419756.22, 0.0013448142, 10.004138, 9.997269 
1.4650969e+3, 3.1501874e+2, 286270.47, -129177.98, -18220.6, -0.06254896, -0.14510067, 287068.06, 287068.06, 0.0025808995, 10.003025, 9.997616 
1.4749628e+3, 1.25023e+2, -1934441.4, -1681009.5, -158914.02, -0.2192902, -0.13243963, -1604475.4, 110294.42, 0.012969953, 9.997812, 10.001257 
1.4749722e+3, 1.3502648e+2, -1767875.6, -1571970.6, 28501.049, 0.051762205, 0.07636428, -1567908.4, 48828.508, 0.0076708426, 9.998469, 10.001003 
1.474982e+3, 1.4502615e+2, -1686205.6, -1492750.3, -25456.182, 0.33073086, -0.043986607, -1489456.6, 29282.064, 0.0032881629, 9.998315, 10.000972 
1.4749841e+3, 1.5502603e+2, -1629618.3, -1389373.5, 5097.193, -0.08354308, -0.21359865, -1389265.4, 31470.404, 0.00081847684, 9.997954, 10.001173 
1.47499e+3, 1.6502693e+2, -1547727.6, -1426509.3, 39279.17, -0.18202604, -0.17625095, -1414894.3, -92168.18, 0.000071419374, 9.99838, 10.000038 
1.475e+3, 1.750285e+2, -1283048.9, -1232804.6, 47790.984, 0.028662099, -0.0725886, -1203935.1, 20778.09, 0.0000002932695, 9.999477, 10.000158 
1.4750077e+3, 1.8502885e+2, -1145193.1, -1218290.9, -24868.783, 0.09749572, 0.0023830927, -1137534.9, -10824.105, 0.0, 10.000198, 9.999241 
1.4750135e+3, 1.9502777e+2, -986378.6, -1072123.5, -8003.216, 0.029870179, -0.08009047, -985638.0, 43082.75, 0.0, 10.000542, 9.999401 
1.4750202e+3, 2.0502716e+2, -902738.3, -1100505.5, 18717.928, -0.03630044, -0.020545738, -900982.4, 29745.715, 0.0, 10.000938, 9.998351 
1.4750277e+3, 2.1502683e+2, -729699.8, -950385.6, 24036.162, -0.08393171, 0.060632266, -727112.2, 105622.38, 0.0, 10.001404, 9.998478 
1.4750351e+3, 2.250257e+2, -593227.56, -737630.6, -79939.555, -0.049155198, 0.065837815, -557710.06, 177034.11, 0.0, 10.001234, 9.999361 
1.4750421e+3, 2.3502347e+2, -594718.7, -672276.6, -51149.51, 0.061907303, -0.14218214, -569309.8, 67450.1, 0.0, 10.0004835, 9.999495 
1.4750488e+3, 2.450219e+2, -545885.5, -712577.44, 16541.883, 0.0199442, -0.18751876, -544259.8, -5487.326, 0.0, 10.000642, 9.9984665 
1.4750554e+3, 2.5502083e+2, -274300.4, -514730.97, 19182.488, -0.16272573, -0.19246042, -272779.56, 168004.1, 0.000000082863835, 10.001771, 9.998603 
1.4750628e+3, 2.650198e+2, -97576.34, -337196.88, -30579.045, -0.18255533, -0.16319796, -93735.58, 249057.45, 0.0000048986644, 10.002126, 9.998982 
1.4750716e+3, 2.7501845e+2, -46082.46, -241202.11, 6226.9795, -0.041006826, -0.24939305, -45883.938, 198920.45, 0.00003489947, 10.001722, 9.999155 
1.4750789e+3, 2.8501728e+2, 6789.8647, -348982.0, -34513.652, -0.012071528, -0.19332372, 10107.125, 156923.63, 0.00016199093, 10.002207, 9.997512 
1.475085e+3, 2.950162e+2, 311768.16, -131177.08, -22602.135, -0.08613595, -0.116645366, 312918.5, 361747.63, 0.0005773318, 10.003553, 9.997671 
1.475093e+3, 3.050139e+2, 349699.63, -164948.13, -2148.9734, -0.018175393, -0.06778209, 349708.63, 349708.63, 0.0014793195, 10.003832, 9.996975 
1.4751007e+3, 3.150118e+2, 223316.69, -149697.17, -6850.5347, -0.057026982, -0.04334497, 223442.45, 223442.45, 0.0028372656, 10.002552, 9.997702 
1.4849606e+3, 1.2501673e+2, -1910438.0, -1702575.9, -89151.12, -0.22253984, -0.16826992, -1669577.8, 45253.14, 0.013700781, 9.998094, 10.000981 
1.4849722e+3, 1.3501965e+2, -1745961.8, -1625454.1, 47089.81, 0.22034699, 0.04270918, -1609236.0, 7568.691, 0.00813248, 9.998853, 10.000469 
1.4849801e+3, 1.4501932e+2, -1632331.8, -1488508.4, 4771.3184, 0.2969165, -0.037684567, -1488350.4, 30456.691, 0.0035089266, 9.998824, 10.000734 
1.484983e+3, 1.5501921e+2, -1415804.1, -1307131.4, -58895.363, -0.061026175, -0.18406633, -1281335.9, 139468.47, 0.0008836724, 9.999535, 10.000961 
1.4849894e+3, 1.6501987e+2, -1383522.4, -1371764.3, 1346.2583, -0.14247966, -0.14771143, -1371612.0, -48814.68, 0.00007901186, 9.999657, 9.999788 
1.484999e+3, 1.7502093e+2, -1301429.1, -1266073.5, -21119.592, 0.012467335, -0.06737619, -1256209.6, -31420.645, 0.00000037325287, 9.999484, 9.999926 
1.4850073e+3, 1.8502113e+2, -1228351.9, -1251336.4, -41886.7, 0.08235872, 0.0017544891, -1196409.5, -69621.97, 0.0, 9.999588, 9.999313 
1.4850141e+3, 1.9502033e+2, -1027642.44, -1080160.6, -50174.41, 0.05739628, -0.060539883, -997271.06, 31523.074, 0.0, 10.000201, 9.999512 
1.4850213e+3, 2.0501974e+2, -963655.06, -1116933.6, 27161.38, 0.0078857085, -0.010240362, -958984.3, -28183.555, 0.0, 10.000484, 9.998447 
1.4850289e+3, 2.1501915e+2, -853918.06, -994682.75, 33450.742, -0.057874307, 0.03668755, -846373.4, -13564.07, 0.0, 10.000491, 9.998609 
1.4850363e+3, 2.2501798e+2, -664266.56, -804572.1, -39655.035, -0.0176653, 0.044226434, -653834.4, 80985.32, 0.0, 10.000891, 9.999061 
1.4850438e+3, 2.3501605e+2, -420437.78, -619659.7, -89000.586, 0.10809333, -0.10032494, -386469.38, 250364.2, 0.0, 10.0018215, 9.999208 
1.4850505e+3, 2.4501438e+2, -359497.9, -640587.75, 6188.21, 0.0625956, -0.13315341, -359361.75, 179486.05, 0.0, 10.001995, 9.998314 
1.4850569e+3, 2.550128e+2, -335794.34, -559063.56, -9998.053, -0.1451575, -0.16931538, -335347.5, 105516.53, 0.00000011463164, 10.001414, 9.998473 
1.4850646e+3, 2.6501173e+2, -201106.28, -367925.8, -36723.52, -0.17906092, -0.15017901, -193379.86, 149494.53, 0.000005857849, 10.001348, 9.999137 
1.4850733e+3, 2.7501076e+2, -19637.684, -213160.55, -67765.234, -0.051876847, -0.20913993, 1731.7534, 246613.69, 0.000039275426, 10.001851, 9.999282 
1.485081e+3, 2.8500974e+2, 24485.697, -297706.9, -32888.348, -0.012035982, -0.1628413, 27808.56, 174699.89, 0.00017769585, 10.00214, 9.997896 
1.4850882e+3, 2.950085e+2, 138391.92, -176451.6, -19371.87, -0.044949714, -0.13213004, 139579.36, 188482.48, 0.0006303682, 10.002175, 9.998039 
1.4850964e+3, 3.050061e+2, 172207.69, -234585.77, 42314.22, 0.027501753, -0.120809205, 176562.55, 176562.55, 0.0016042597, 10.002516, 9.997145 
1.4851043e+3, 3.1500468e+2, 325128.22, -27497.363, -21328.291, 0.046082646, -0.04658872, 326413.53, 326413.53, 0.003054721, 10.002929, 9.99836 
1.4949611e+3, 1.250121e+2, -1916504.8, -1734053.5, 29611.348, -0.0744203, -0.083843894, -1729368.0, -14492.656, 0.014485426, 9.998187, 10.000707 
1.4949697e+3, 1.3501272e+2, -1790930.0, -1703260.8, 71225.664, 0.036487687, -0.05335318, -1663461.9, -46589.586, 0.008627366, 9.998801, 9.999953 
1.4949769e+3, 1.4501272e+2, -1679654.8, -1623734.0, -2090.1177, 0.02432389, -0.027134256, -1623656.0, -104781.56, 0.0037456865, 9.998957, 9.999752 
1.4949834e+3, 1.5501386e+2, -1492330.6, -1466537.5, -17671.137, -0.0050528008, 0.05415853, -1457557.4, -36692.082, 0.0009542572, 9.999526, 9.999877 
1.4949903e+3, 1.6501409e+2, -1382533.0, -1386020.3, -26830.678, -0.069512896, 0.10972828, -1357389.4, -34526.227, 0.00008722728, 9.999717, 9.999661 
1.4949974e+3, 1.7501281e+2, -1318042.4, -1289713.8, -13796.227, -0.13129024, -0.030625954, -1284105.3, -59231.414, 0.0000004647829, 9.99944, 9.999782 
1.4950053e+3, 1.8501227e+2, -1211871.1, -1217605.4, -40112.73, -0.10925831, -0.042603098, -1174523.3, -47646.42, 0.0, 9.99958, 9.999555 
1.4950141e+3, 1.9501233e+2, -1032907.2, -1061130.9, -13260.106, 0.0058897627, -0.042220123, -1027654.8, 1218.4941, 0.0, 10.00007, 9.999709 
1.495022e+3, 2.0501147e+2, -943574.5, -1037481.4, 7681.5996, 0.013955414, -0.05888484, -942950.3, -12071.019, 0.0, 10.000318, 9.999074 
1.4950295e+3, 2.1500944e+2, -844204.06, -920368.75, 48721.813, -0.06721968, -0.22082685, -820447.25, 12450.101, 0.0, 10.000262, 9.999227 
1.4950375e+3, 2.2500868e+2, -762517.56, -953454.4, -23825.246, -0.01839414, -0.15632832, -759589.56, -24684.365, 0.0, 10.000644, 9.998162 
1.4950463e+3, 2.3500909e+2, -519511.38, -767204.56, -36998.12, 0.15714823, 0.018957527, -514103.03, 122801.08, 0.0, 10.001569, 9.998319 
1.4950535e+3, 2.4500795e+2, -392822.72, -650006.5, -29764.682, 0.12607478, 0.07868255, -389422.9, 149493.92, 0.0, 10.001735, 9.998376 
1.4950591e+3, 2.5500485e+2, -366821.44, -570497.1, -10218.162, -0.101723924, -0.11747557, -366310.1, 74636.664, 0.00000015644366, 10.001178, 9.998512 
1.4950661e+3, 2.6500374e+2, -260951.31, -426613.94, -35682.22, -0.17806503, -0.08744072, -253592.56, 89365.37, 0.000006865855, 10.001074, 9.998861 
1.4950748e+3, 2.7500445e+2, -79551.26, -272738.25, -28160.736, -0.11029359, 0.045253273, -75529.99, 169422.13, 0.00004412461, 10.001584, 9.998997 
1.4950828e+3, 2.8500354e+2, 56381.918, -175053.92, -48694.46, -0.07426687, 0.07101489, 66209.95, 213168.19, 0.00019465707, 10.00189, 9.998863 
1.4950907e+3, 2.950008e+2, 170340.06, -51119.758, 12260.413, -0.04568763, -0.15306194, 171016.75, 219995.3, 0.0006807664, 10.001914, 9.99903 
1.4950989e+3, 3.0499804e+2, 148776.83, -204131.84, 43464.18, -0.010063511, -0.23964249, 154051.05, 154051.05, 0.0017053906, 10.0021925, 9.997502 
1.4951067e+3, 3.1499708e+2, 311644.4, 54539.83, 45639.176, -0.0752268, -0.15953341, 319505.56, 319505.56, 0.0032076885, 10.0024605, 9.999149 
1.5049602e+3, 1.2500499e+2, -2062669.1, -1816295.5, -22477.938, 0.08214061, -0.005962656, -1814261.6, -99314.26, 0.015336173, 9.997237, 10.000608 
1.5049675e+3, 1.350054e+2, -1853083.8, -1688950.5, -31245.217, -0.008543104, -0.04275099, -1683203.8, -66258.5, 0.0091627855, 9.99815, 10.000385 
1.5049748e+3, 1.4500563e+2, -1757343.4, -1673476.6, -12526.808, -0.031505633, -0.010596466, -1671645.6, -152700.22, 0.0040015904, 9.998502, 9.999625 
1.5049832e+3, 1.5500724e+2, -1637733.8, -1543444.5, 994.831, 0.07519368, 0.13177504, -1543434.0, -122501.766, 0.001031135, 9.998578, 9.999803 
1.5049905e+3, 1.6500722e+2, -1528093.5, -1481784.5, 63026.38, 0.041062728, 0.17497398, -1437794.0, -114861.82, 0.000096309515, 9.998802, 9.999458 
1.5049973e+3, 1.7500496e+2, -1312838.9, -1305774.4, 34970.1, -0.08240192, -0.046382844, -1274158.6, -49207.85, 0.000000575819, 9.999534, 9.999631 
1.5050054e+3, 1.8500395e+2, -1187576.1, -1226596.0, 32839.066, -0.078006364, -0.086865604, -1168888.8, -41931.168, 0.0, 9.999853, 9.999345 
1.5050143e+3, 1.9500409e+2, -1051497.1, -1088383.5, -7232.769, 0.019835554, -0.06003653, -1050129.6, -21175.752, 0.0, 10.000032, 9.999524 
1.5050226e+3, 2.0500322e+2, -952532.1, -1034366.0, 6359.2754, 0.03759221, -0.07342785, -952040.9, -21081.082, 0.0, 10.000229, 9.999141 
1.5050302e+3, 2.1500112e+2, -797666.94, -892462.2, -33288.457, -0.019585755, -0.24509092, -787145.1, 45832.35, 0.0, 10.000555, 9.999282 
1.5050389e+3, 2.250002e+2, -719137.9, -957132.1, -41856.813, 0.031562015, -0.1860869, -711991.0, 22996.516, 0.0, 10.001072, 9.997919 
1.5050481e+3, 2.3500033e+2, -503166.63, -785298.25, -46734.293, 0.17802097, -0.016264588, -495626.72, 141364.78, 0.0, 10.001807, 9.998072 
1.5050556e+3, 2.4499942e+2, -356716.7, -604865.3, -28930.139, 0.16431624, 0.0693606, -353388.53, 185614.1, 0.0, 10.001872, 9.998613 
1.5050611e+3, 2.5499728e+2, -328799.1, -523265.0, -37207.81, -0.01874741, -0.056636333, -321923.13, 119099.87, 0.00000020302433, 10.001325, 9.998757 
1.5050681e+3, 2.6499632e+2, -235934.75, -431533.6, 28932.748, -0.097458094, -0.018534796, -231744.8, 111287.49, 0.0000077496, 10.0013075, 9.99872 
1.5050767e+3, 2.7499628e+2, -50249.71, -277112.9, 15352.738, -0.07259688, 0.058017645, -49215.445, 195817.11, 0.000048509926, 10.001836, 9.998859 
1.5050852e+3, 2.8499502e+2, 60241.508, -172082.67, -19799.795, -0.02293013, 0.058308613, 61916.863, 208959.2, 0.00020995413, 10.001933, 9.998851 
1.5050936e+3, 2.9499242e+2, 148113.58, -53725.18, -89677.6, 0.064114675, -0.15019667, 182200.84, 231263.63, 0.0007220719, 10.001772, 9.999049 
1.5051016e+3, 3.0499032e+2, 127020.87, -189775.97, -41624.195, 0.07174725, -0.18966083, 132398.61, 132398.61, 0.0017709631, 10.001913, 9.997753 
1.505109e+3, 3.1498903e+2, 249329.55, 69495.016, -106189.9, -0.02480042, -0.15193091, 298557.56, 298557.56, 0.0032780797, 10.001818, 9.999585 
1.5149587e+3, 1.249959e+2, -2025894.4, -1786566.3, -96997.68, 0.12563466, 0.08567262, -1752191.3, -37148.934, 0.016257107, 9.997427, 10.00073 
1.5149656e+3, 1.3499804e+2, -1782988.0, -1516616.9, 33676.86, -0.06343417, 0.08681636, -1512425.1, 104595.57, 0.009740974, 9.998054, 10.001613 
1.5149736e+3, 1.4499843e+2, -1687523.5, -1564731.4, -35338.69, -0.064985566, 0.04341558, -1555287.4, -36271.66, 0.0042781597, 9.998632, 10.000316 
1.5149817e+3, 1.5499942e+2, -1583018.9, -1437924.9, 18351.557, 0.03133301, 0.04991113, -1435639.8, -14634.786, 0.0011151112, 9.998602, 10.000517 
1.5149896e+3, 1.6499925e+2, -1527647.3, -1502599.8, 66276.1, 0.021571979, 0.0526647, -1447674.5, -124670.16, 0.000106548556, 9.998885, 9.999275 
1.5149982e+3, 1.7499745e+2, -1331449.9, -1340056.9, 76900.53, 0.027237192, -0.10910986, -1258732.5, -33713.64, 0.0000007145684, 9.999503, 9.999414 
1.5150066e+3, 1.849963e+2, -1230251.0, -1313644.0, 20152.797, 0.018690715, -0.12317859, -1225636.3, -98607.61, 0.0, 9.999846, 9.998752 
1.515014e+3, 1.9499564e+2, -1112741.9, -1186500.6, 13617.3125, -0.03908613, -0.1160318, -1110308.1, -81272.29, 0.0, 9.999911, 9.998908 
1.5150219e+3, 2.0499504e+2, -1016508.25, -1126151.4, -2241.3892, -0.07218214, -0.043617688, -1016462.44, -85420.664, 0.0, 10.000049, 9.998601 
1.5150307e+3, 2.1499433e+2, -871609.75, -985258.44, -5017.1147, -0.055839043, -0.024406461, -871388.7, -38340.305, 0.0, 10.000293, 9.998773 
1.5150397e+3, 2.2499263e+2, -734583.6, -925805.06, -31174.314, -0.022412516, -0.03614115, -729629.75, 5435.8535, 0.0, 10.000793, 9.998272 
1.5150487e+3, 2.3498975e+2, -516120.3, -755022.1, -472.40222, 0.035627972, -0.19918114, -516119.38, 120976.26, 0.0, 10.001561, 9.9984 
1.5150563e+3, 2.4498889e+2, -369582.25, -575571.2, -68794.54, 0.02313634, -0.14284074, -348719.75, 190384.94, 0.0, 10.001619, 9.998941 
1.5150625e+3, 2.549899e+2, -338768.9, -489833.7, -39757.297, -0.048777137, 0.009844171, -328944.5, 112149.945, 0.00000026346208, 10.001082, 9.999108 
1.5150698e+3, 2.649891e+2, -270546.97, -436387.75, 34470.17, -0.09093664, 0.04655321, -263667.7, 79432.14, 0.000008336701, 10.001028, 9.998821 
1.5150787e+3, 2.749864e+2, -86179.914, -282601.88, 59844.523, -0.09287374, -0.15819976, -69383.23, 175739.4, 0.00005112129, 10.001554, 9.998957 
1.5150873e+3, 2.849845e+2, -62337.977, -362786.8, -44428.16, -0.03543486, -0.16771382, -55905.965, 91235.414, 0.00022272031, 10.001653, 9.997674 
1.5150961e+3, 2.949833e+2, 22960.16, -250220.27, -69489.17, 0.09973067, -0.124348015, 39620.17, 88777.53, 0.0007570033, 10.001496, 9.997828 
1.5151042e+3, 3.0498254e+2, 93785.02, -176248.7, -57644.527, 0.10046553, 0.02108995, 105575.67, 105575.67, 0.001811775, 10.001588, 9.997989 
1.5151109e+3, 3.149805e+2, 196182.2, 85343.39, -39263.375, -0.10269304, -0.05064175, 208681.31, 208681.31, 0.0032877466, 10.001319, 9.999915 
1.5249573e+3, 1.2498602e+2, -1824313.5, -1756252.0, -3503.6858, 0.1692124, 0.020907294, -1756072.1, -40934.87, 0.017244658, 9.999132, 10.000098 
1.5249641e+3, 1.349886e+2, -1702553.8, -1434745.9, -1462.5306, -0.014007337, 0.02823917, -1434737.9, 182373.72, 0.010359608, 9.998442, 10.001977 
1.5249726e+3, 1.4498986e+2, -1740018.3, -1565966.4, -51074.297, 0.013619641, 0.046226665, -1552086.0, -32988.086, 0.0045741852, 9.998187, 10.000511 
1.524981e+3, 1.549904e+2, -1437163.5, -1334599.9, -76931.09, 0.066129655, -0.02299798, -1293425.1, 127665.445, 0.0012060112, 9.999449, 10.000817 
1.5249893e+3, 1.649902e+2, -1387203.6, -1436153.4, -10548.214, 0.066315114, -0.035734516, -1385027.4, -61936.77, 0.000118081814, 9.999895, 9.999233 
1.5249985e+3, 1.749892e+2, -1256078.1, -1300590.8, -26916.373, 0.080276005, -0.111285895, -1243408.3, -18309.23, 0.0000008766353, 10.000044, 9.999413 
1.5250069e+3, 1.8498845e+2, -1201730.9, -1284257.0, -32702.455, 0.06687863, -0.09257359, -1190343.4, -63237.53, 0.0, 9.999967, 9.998909 
1.525014e+3, 1.9498774e+2, -1101842.6, -1167230.6, -18116.816, -0.012762116, -0.099722005, -1097158.6, -68045.81, 0.0, 9.999911, 9.999059 
1.5250224e+3, 2.049871e+2, -1000890.44, -1138498.3, 60849.6, -0.030290512, -0.030589988, -977843.06, -46723.535, 0.0, 10.000216, 9.998441 
1.5250319e+3, 2.1498632e+2, -789271.9, -964624.6, 52329.254, 0.013078563, -0.0036344456, -774842.94, 58284.64, 0.0, 10.000913, 9.998621 
1.525041e+3, 2.249847e+2, -697637.9, -886378.94, 55326.355, 0.0333956, -0.012210939, -682615.5, 52528.594, 0.0, 10.000942, 9.998479 
1.5250495e+3, 2.3498203e+2, -680129.44, -810040.75, 41393.08, 0.022954104, -0.17455755, -668061.56, -30890.514, 0.0, 10.00032, 9.998623 
1.5250571e+3, 2.4498107e+2, -523589.4, -652042.9, -206.82689, 0.013796549, -0.13776147, -523589.1, 15591.184, 0.0, 10.0006075, 9.998882 
1.5250643e+3, 2.5498167e+2, -224787.28, -436179.3, -38931.125, 0.006337207, -0.017480677, -217845.47, 223327.72, 0.0000003530132, 10.001899, 9.999064 
1.5250722e+3, 2.6498055e+2, -140896.33, -394470.8, 17736.748, 0.009134332, -0.0040096226, -139661.72, 203519.38, 0.000008619123, 10.001981, 9.998658 
1.5250808e+3, 2.7497765e+2, -204656.8, -347877.28, -17674.285, 0.014659734, -0.21481045, -202507.92, 42697.395, 0.000051931653, 10.000784, 9.998867 
1.5250891e+3, 2.849758e+2, -202071.95, -459974.6, -23874.033, 0.03202131, -0.20583594, -199880.56, -52655.813, 0.00023518385, 10.000805, 9.997436 
1.5250973e+3, 2.949748e+2, 79961.086, -259953.67, -18952.898, 0.075949095, -0.1109312, 81014.59, 130256.16, 0.000791527, 10.002005, 9.997557 
1.525106e+3, 3.0497435e+2, 232371.7, -83900.22, 41440.37, 0.102640614, 0.06973239, 237711.38, 237711.38, 0.0018473114, 10.002412, 9.998242 
1.5251137e+3, 3.1497175e+2, 260848.2, 95982.58, -18026.541, 0.059128106, -0.08029198, 262796.22, 262796.22, 0.0032831845, 10.001818, 9.999764 
1.5349555e+3, 1.24976344e+2, -1914267.5, -1975574.3, -26377.441, -0.016785387, -0.120531045, -1904480.8, -189258.36, 0.018294634, 9.99926, 9.998533 
1.534963e+3, 1.3497736e+2, -1742779.5, -1519713.5, -24444.992, -0.011112626, -0.20882134, -1517066.0, 100149.83, 0.011016667, 9.998456, 10.001381 
1.5349714e+3, 1.4498024e+2, -1732879.9, -1592334.8, -35218.598, 0.010608474, 0.018567158, -1584003.4, -64814.43, 0.0048880493, 9.998351, 10.000259 
1.5349805e+3, 1.5498039e+2, -1457979.3, -1361228.4, -17936.672, 0.03283781, -0.06926808, -1358010.1, 63176.8, 0.0013030368, 9.999387, 10.000666 
1.5349893e+3, 1.6498032e+2, -1373270.1, -1427373.4, -29535.115, 0.02300377, -0.065006144, -1360270.4, -37081.996, 0.00013086536, 9.999968, 9.999265 
1.5349974e+3, 1.7498021e+2, -1260502.4, -1300265.6, -8849.773, -0.059382953, -0.05234418, -1258621.6, -33430.484, 0.0000010420176, 10.000003, 9.999434 
1.5350056e+3, 1.8498035e+2, -1141203.1, -1162504.9, -58261.26, -0.089850456, 0.014830059, -1092627.1, 34561.77, 0.0, 9.999975, 9.999743 
1.535014e+3, 1.949804e+2, -1051575.5, -1043349.9, -7717.297, -0.039825816, -0.009357742, -1038717.9, -9532.82, 0.0, 9.99982, 9.999955 
1.5350235e+3, 2.0497938e+2, -1011143.6, -1114245.3, 68936.84, 0.008226196, -0.036121827, -976614.44, -45421.15, 0.0, 10.000021, 9.998697 
1.5350334e+3, 2.1497713e+2, -813783.5, -952753.4, 93769.125, 0.04760274, -0.18011948, -766560.25, 66654.95, 0.0, 10.000648, 9.998825 
1.5350422e+3, 2.2497644e+2, -734635.56, -897634.06, 14075.1875, 0.040450227, -0.1080025, -733429.1, 1793.9047, 0.0, 10.000654, 9.99854 
1.5350498e+3, 2.3497708e+2, -706387.7, -811324.06, 36900.53, 0.0035605775, 0.049638797, -694711.06, -57492.297, 0.0, 10.000084, 9.998732 
1.5350577e+3, 2.449758e+2, -604525.0, -747790.0, 32392.37, -0.016926587, 0.07544926, -597541.44, -58310.64, 0.0, 10.000309, 9.998362 
1.5350664e+3, 2.549725e+2, -304162.25, -538323.2, 29755.158, 0.0032859119, -0.14488687, -300440.38, 140820.22, 0.0000004707298, 10.001642, 9.998482 
1.5350747e+3, 2.649706e+2, -203676.83, -466273.56, -47146.28, 0.03525771, -0.16128537, -195468.8, 147807.98, 0.0000086272985, 10.001728, 9.998285 
1.5350826e+3, 2.7496997e+2, -260875.1, -417790.94, -47252.15, 0.08172259, -0.108873986, -247744.75, -2463.1082, 0.000052741245, 10.000583, 9.998483 
1.53509e+3, 2.8496864e+2, -192662.3, -386513.6, 3731.5513, 0.013237909, -0.05574977, -192590.48, -45295.426, 0.00024875673, 10.0005665, 9.99806 
1.5350974e+3, 2.9496673e+2, 81264.62, -189677.73, 55076.227, -0.17056628, -0.11890029, 92032.39, 141349.28, 0.00082812813, 10.001716, 9.998177 
1.5351067e+3, 3.0496573e+2, 193687.6, -92256.59, 2865.2039, -0.09503267, -0.027998842, 193716.3, 193716.3, 0.001892961, 10.0021105, 9.998323 
1.5351169e+3, 3.149626e+2, 138818.44, -24733.148, 20136.258, 0.12683591, -0.25025246, 141261.11, 141261.11, 0.0033092082, 10.001274, 9.999181 
1.5449542e+3, 1.24968134e+2, -2172422.0, -2061861.9, 10571.031, 0.040149596, -0.11729319, -2060860.1, -345560.63, 0.019406972, 9.997324, 9.998871 
1.5449615e+3, 1.3496774e+2, -1693193.5, -1531168.5, -21414.979, -0.007622914, -0.32396212, -1528385.9, 88920.6, 0.0117135905, 9.998903, 10.001096 
1.5449703e+3, 1.4497143e+2, -1729862.0, -1636715.3, 31533.635, 0.05896191, 0.021550247, -1627044.1, -107771.82, 0.0052204016, 9.998591, 9.999838 
1.5449798e+3, 1.5497084e+2, -1625903.3, -1482251.0, 4626.8086, 0.093156524, -0.10440777, -1482102.1, -60822.77, 0.0014059248, 9.998397, 10.000321 
1.5449889e+3, 1.6497077e+2, -1580369.9, -1488812.8, 30373.84, 0.08228794, -0.100731626, -1479652.8, -156370.94, 0.00014487762, 9.99839, 9.999595 
1.5449968e+3, 1.7497148e+2, -1417469.1, -1342725.1, 35162.38, -0.057353187, -0.0400686, -1328783.8, -103506.836, 0.000001197513, 9.998767, 9.999742 
1.5450053e+3, 1.8497187e+2, -1268314.5, -1193917.3, 11621.41, -0.0745017, 0.022931365, -1192144.1, -64872.242, 0.0, 9.998998, 9.999987 
1.5450145e+3, 1.9497168e+2, -1093573.4, -1031961.5, -18485.41, 0.048096202, -0.048800863, -1026840.9, 2427.7378, 0.0, 9.999416, 10.000219 
1.545024e+3, 2.0497079e+2, -1041586.7, -1092638.4, 76536.06, 0.09944468, -0.09057433, -986432.06, -55157.477, 0.0, 9.999674, 9.999012 
1.5450338e+3, 2.149691e+2, -908480.06, -964315.8, 69328.68, 0.06024577, -0.20788473, -861659.25, -28368.398, 0.0, 9.999859, 9.999129 
1.545043e+3, 2.2496855e+2, -750067.56, -915014.7, 21308.486, 0.05213007, -0.1299339, -747359.4, -12062.025, 0.0, 10.000621, 9.99842 
1.5450515e+3, 2.3496899e+2, -422161.1, -680957.9, -15810.611, 0.07100753, 0.020521192, -421198.75, 216096.56, 0.0, 10.002104, 9.998633 
1.5450597e+3, 2.4496756e+2, -330223.63, -630920.25, 2217.801, 0.06170356, 0.040546626, -330207.28, 209101.69, 0.000000000009610117, 10.002225, 9.998265 
1.5450679e+3, 2.549641e+2, -408917.1, -601252.56, 4868.373, 0.032188218, -0.1801129, -408793.94, 32545.553, 0.0000005675007, 10.000945, 9.99841 
1.5450762e+3, 2.6496217e+2, -333818.8, -548441.0, -8547.281, 0.062279753, -0.19129086, -333478.94, 9877.741, 0.000008574752, 10.000941, 9.9981 
1.5450844e+3, 2.7496132e+2, -26385.89, -336151.84, -33374.363, 0.13832031, -0.13021451, -22830.914, 222533.28, 0.00005426492, 10.0023155, 9.998223 
1.545092e+3, 2.8496e+2, 85164.99, -238871.31, 31648.945, 0.072723106, -0.07411034, 88227.234, 235605.38, 0.00026286932, 10.002447, 9.998136 
1.5450989e+3, 2.9495823e+2, 29748.834, -205520.19, -8298.191, -0.15717433, -0.12722413, 30041.156, 79438.89, 0.0008685198, 10.001348, 9.998219 
1.5451084e+3, 3.049569e+2, 102424.72, -112384.39, -27955.803, -0.07678151, -0.079669096, 106003.34, 106003.34, 0.001959959, 10.001367, 9.998551 
1.5451196e+3, 3.1495425e+2, 267887.75, -7508.315, -83869.375, 0.22750346, -0.26638773, 291418.8, 291418.8, 0.0033945085, 10.002335, 9.998798 
1.5549512e+3, 1.2496086e+2, -1959780.4, -1656155.0, -71959.25, -0.088607304, -0.007063002, -1639964.1, 75409.914, 0.020587768, 9.997483, 10.001586 
1.554959e+3, 1.3496e+2, -1692357.1, -1509768.3, 10245.613, -0.18763326, -0.2794795, -1509195.1, 108186.1, 0.012455585, 9.998835, 10.001282 
1.5549688e+3, 1.4496349e+2, -1750367.8, -1701663.8, -10550.434, -0.01529926, 0.060073704, -1699476.5, -180128.8, 0.0055746003, 9.998674, 9.999357 
1.5549785e+3, 1.5496191e+2, -1664286.3, -1557960.0, 15607.107, 0.09539512, -0.11637541, -1555716.5, -134350.34, 0.001515748, 9.99839, 9.999803 
1.5549877e+3, 1.6496179e+2, -1518153.4, -1382127.3, 25623.396, 0.07907039, -0.12179176, -1377460.6, -54092.133, 0.00016035176, 9.998479, 10.000288 
1.5549959e+3, 1.7496313e+2, -1377955.0, -1246718.5, 60607.184, -0.044671778, -0.064566575, -1223011.6, 2343.585, 0.0000013687348, 9.99871, 10.000428 
1.555005e+3, 1.8496317e+2, -1299036.8, -1246289.8, 6574.4106, -0.03435688, -0.05558434, -1245482.6, -118130.125, 0.0, 9.998952, 9.999649 
1.5550147e+3, 1.9496168e+2, -1146586.4, -1101346.0, 13500.1, 0.10920303, -0.2182086, -1097623.8, -68261.016, 0.0, 9.999255, 9.999817 
1.555024e+3, 2.0496139e+2, -1038701.2, -1058921.4, 64313.4, 0.089889884, -0.19310653, -983708.06, -52344.97, 0.0, 9.999536, 9.99932 
1.5550324e+3, 2.1496224e+2, -912834.4, -929225.1, 93277.37, -0.07838028, -0.088022955, -827393.0, 5961.438, 0.0, 9.999654, 9.999478 
1.5550424e+3, 2.2496113e+2, -818859.44, -995701.25, 59090.6, -0.08839031, -0.064728744, -800932.06, -65565.92, 0.0, 10.000352, 9.997995 
1.5550539e+3, 2.3495774e+2, -490586.8, -772720.2, 56313.508, 0.08004503, -0.25505036, -479762.03, 157639.39, 0.0, 10.001878, 9.998118 
1.5550624e+3, 2.4495624e+2, -340055.84, -588332.06, -60037.15, 0.08259834, -0.23564996, -326300.03, 213115.66, 0.0, 10.001952, 9.99869 
1.5550682e+3, 2.5495654e+2, -408892.78, -549748.7, -26125.049, -0.054403197, -0.1245612, -404203.4, 37206.496, 0.0000005355393, 10.000723, 9.998871 
1.5550762e+3, 2.6495513e+2, -377867.6, -583196.25, 28934.848, -0.06479662, -0.10042792, -373868.0, -30446.408, 0.000008556659, 10.000699, 9.997973 
1.5550864e+3, 2.7495176e+2, -75461.88, -376080.06, 42872.992, 0.05363477, -0.2865191, -69467.055, 175985.81, 0.000056489618, 10.002054, 9.998069 
1.5550947e+3, 2.8494978e+2, -2046.8845, -353322.47, -24401.123, 0.052995693, -0.25345185, -359.97772, 147113.83, 0.00027893353, 10.002165, 9.997483 
1.5551016e+3, 2.949491e+2, -52344.73, -306506.44, -25862.215, -0.06361679, -0.13761973, -49739.82, -254.7325, 0.0009153457, 10.001061, 9.997657 
1.5551107e+3, 3.0494782e+2, 70344.45, -107764.61, -8217.688, -0.021408593, -0.07238934, 70722.805, 70722.805, 0.0020538478, 10.001079, 9.9987135 
1.5551208e+3, 3.1494626e+2, 162593.11, -77746.08, -3640.3162, 0.067386694, -0.16963929, 162648.23, 162648.23, 0.003548839, 10.00174, 9.998582 
1.5649492e+3, 1.2495254e+2, -1955645.6, -1632341.8, 14918.667, -0.009481642, -0.050813343, -1631654.8, 83799.41, 0.021849003, 9.997418, 10.001798 
1.5649584e+3, 1.349523e+2, -1780457.9, -1612982.0, -8035.951, -0.10623879, -0.19229338, -1612597.3, 4859.9473, 0.013250772, 9.998495, 10.000739 
1.5649673e+3, 1.4495483e+2, -1692894.4, -1649048.1, -24407.404, -0.031935554, 0.060404886, -1638163.5, -118730.16, 0.0059556314, 9.998964, 9.999575 
1.5649769e+3, 1.5495339e+2, -1593972.9, -1512027.0, 8233.824, 0.06362369, -0.11682407, -1511207.9, -89759.08, 0.0016345053, 9.998817, 9.999906 
1.5649861e+3, 1.6495334e+2, -1496522.8, -1383327.4, 69687.09, 0.067881554, -0.11776542, -1350149.9, -26699.902, 0.00017771397, 9.998665, 10.000204 
1.5649958e+3, 1.749546e+2, -1326560.8, -1230725.9, 22288.803, 0.055245467, -0.06119894, -1225795.6, -357.74258, 0.0000016137079, 9.999074, 10.000376 
1.5650053e+3, 1.8495443e+2, -1242837.9, -1226206.4, -14134.053, 0.098810494, -0.06595924, -1218123.3, -90686.36, 0.0, 9.999362, 9.99959 
1.5650147e+3, 1.9495268e+2, -1082394.1, -1081769.9, -16762.84, 0.15307426, -0.2512175, -1065316.3, -35867.316, 0.0, 9.999719, 9.999737 
1.5650241e+3, 2.049522e+2, -973244.06, -1051782.0, 63094.477, 0.11933861, -0.2299852, -938196.4, -6744.61, 0.0, 10.000145, 9.999048 
1.5650335e+3, 2.1495296e+2, -733657.5, -861655.56, 7594.1226, 0.0017388494, -0.108316734, -733208.5, 100236.66, 0.0, 10.001024, 9.999253 
1.5650436e+3, 2.249518e+2, -701033.6, -918639.1, 1932.8677, -0.01590265, -0.08721482, -701016.5, 34440.676, 0.0, 10.001042, 9.998208 
1.5650547e+3, 2.3494852e+2, -723508.94, -851988.75, 25561.361, 0.067423806, -0.28935614, -718610.2, -81120.57, 0.0, 10.000127, 9.998415 
1.5650633e+3, 2.4494731e+2, -559698.1, -673188.2, -49059.188, 0.070697345, -0.26715118, -541431.2, -1930.5596, 0.0, 10.000341, 9.998885 
1.5650699e+3, 2.54948e+2, -253784.63, -449884.7, -67180.49, -0.005676019, -0.13837112, -232977.5, 208514.23, 0.00000039469393, 10.00168, 9.999088 
1.5650782e+3, 2.6494667e+2, -153402.3, -477915.25, 28022.88, -0.008388748, -0.11692725, -151000.19, 192502.86, 0.000008163994, 10.002246, 9.997954 
1.5650882e+3, 2.7494305e+2, -92484.79, -386511.9, 8715.404, 0.0533377, -0.3213613, -92226.68, 153310.16, 0.000058543963, 10.001941, 9.998054 
1.5650965e+3, 2.8494102e+2, -44166.82, -371209.25, -25654.615, 0.05183898, -0.29282105, -42166.594, 105391.38, 0.00029613846, 10.001859, 9.99753 
1.5651035e+3, 2.9494047e+2, 104804.5, -225015.34, -25202.67, -0.008784346, -0.16180238, 106719.21, 156286.36, 0.00096601876, 10.002104, 9.997734 
1.5651128e+3, 3.0493876e+2, 250023.7, -33981.523, 84256.8, 0.03660906, -0.1390915, 273139.06, 273139.06, 0.002166349, 10.00235, 9.9986105 
1.5651233e+3, 3.1493858e+2, 256515.36, -54130.703, -7400.1655, 0.11603134, -0.08007626, 256691.55, 256691.55, 0.0037553748, 10.00241, 9.9984455 
1.5749462e+3, 1.2494226e+2, -2102280.3, -1961715.9, 26475.074, -0.14199369, -0.3237253, -1956894.6, -241346.03, 0.023204513, 9.997516, 9.999485 
1.5749589e+3, 1.3494499e+2, -1864047.3, -1786625.3, 49848.184, 0.069066666, -0.028408544, -1762222.3, -144690.78, 0.014108494, 9.998501, 9.999537 
1.5749656e+3, 1.4494577e+2, -1599400.5, -1493252.6, -50214.617, -0.15390189, 0.04589415, -1473262.5, 46264.043, 0.0063687824, 9.999122, 10.000573 
1.574974e+3, 1.5494528e+2, -1554448.6, -1419288.3, 10791.787, -0.12722912, -0.09971963, -1418432.0, 3095.4612, 0.00176415, 9.998781, 10.000559 
1.5749834e+3, 1.6494538e+2, -1538672.8, -1486254.6, 60176.95, -0.10977167, -0.08120938, -1446827.0, -123300.766, 0.00019721544, 9.998721, 9.999472 
1.5749957e+3, 1.7494594e+2, -1381333.3, -1337113.1, 53700.855, 0.09876904, -0.026169065, -1301148.8, -75624.7, 0.0000019795527, 9.999044, 9.999658 
1.5750058e+3, 1.8494587e+2, -1219031.9, -1183572.6, -19097.04, 0.16750811, -0.0026570044, -1175244.0, -47720.902, 0.0, 9.999379, 9.999879 
1.5750134e+3, 1.9494495e+2, -1084864.6, -1053131.4, 9394.958, 0.040743385, -0.12946108, -1050558.5, -21033.473, 0.0, 9.999575, 10.000002 
1.5750235e+3, 2.0494337e+2, -1063953.5, -1205029.4, 75121.71, 0.024406958, -0.18154694, -1031443.5, -99905.08, 0.0, 9.999981, 9.998079 
1.5750363e+3, 2.1494101e+2, -839232.3, -1028956.5, 53604.824, 0.15629785, -0.2735383, -825134.3, 8430.616, 0.0, 10.000797, 9.998219 
1.5750463e+3, 2.2494036e+2, -662122.75, -781597.4, -45952.918, 0.11275758, -0.20348482, -646492.8, 89079.22, 0.0, 10.0008, 9.999263 
1.5750533e+3, 2.3494129e+2, -687495.1, -718209.94, 5145.679, -0.10294529, -0.090520486, -686656.0, -49095.188, 0.0, 9.999873, 9.999456 
1.575062e+3, 2.449407e+2, -608259.7, -703858.3, -16350.372, -0.12688825, -0.053683646, -605540.6, -65976.19, 0.0, 10.000037, 9.998818 
1.5750724e+3, 2.5493842e+2, -298563.16, -484501.44, -788.719, 0.050392173, -0.22015367, -298559.8, 143025.28, 0.00000029448665, 10.001427, 9.99897 
1.5750816e+3, 2.6493672e+2, -194798.94, -501719.84, -618.7642, 0.09200694, -0.228072, -194797.69, 148803.42, 0.000007127328, 10.001978, 9.997924 
1.5750897e+3, 2.7493516e+2, -123544.2, -397529.78, 17276.0, -0.012468919, -0.22745319, -122459.17, 123157.15, 0.000059012113, 10.001716, 9.998087 
1.5750973e+3, 2.849336e+2, -32844.688, -302412.13, -35102.82, -0.09815839, -0.18213935, -28348.621, 119282.734, 0.00030982727, 10.001654, 9.998102 
1.5751046e+3, 2.9493228e+2, 96203.336, -168695.31, 12658.027, -0.15267509, -0.19055313, 96806.82, 146450.45, 0.0010139579, 10.001785, 9.998274 
1.5751143e+3, 3.049297e+2, 173520.08, -109337.61, 73465.336, -0.07993499, -0.2609649, 191462.73, 191462.73, 0.002282176, 10.002015, 9.998235 
1.5751258e+3, 3.1493106e+2, 166608.05, -90540.09, 50695.33, 0.057215445, -0.02287243, 176241.47, 176241.47, 0.0039773253, 10.001806, 9.998457 
1.5849435e+3, 1.2493301e+2, -2030109.9, -1961758.0, 24290.164, -0.16871448, -0.30423075, -1954005.4, -238365.47, 0.024665277, 9.998169, 9.999149 
1.584957e+3, 1.3493599e+2, -1887004.3, -1731893.6, 74935.09, 0.049712937, -0.03900239, -1701606.0, -83988.48, 0.0150364665, 9.998052, 10.000122 
1.5849642e+3, 1.4493635e+2, -1703626.5, -1551944.1, 11325.521, -0.14358564, -0.039993487, -1551103.3, -31487.193, 0.0068181083, 9.998437, 10.000502 
1.584973e+3, 1.5493636e+2, -1522284.9, -1428777.1, -37921.27, -0.10969871, -0.11380393, -1415331.8, 6281.342, 0.0019058621, 9.999085, 10.000356 
1.5849826e+3, 1.6493645e+2, -1483765.0, -1472425.0, 35561.742, -0.08662321, -0.078173935, -1442084.1, -118471.98, 0.0002187055, 9.99917, 9.999342 
1.584995e+3, 1.7493646e+2, -1377859.5, -1344003.1, 34713.098, 0.13571902, -0.06710554, -1322310.5, -96695.62, 0.000002466339, 9.999125, 9.999566 
1.5850057e+3, 1.8493633e+2, -1240431.1, -1218812.3, 11169.042, 0.21479458, -0.032827374, -1214078.5, -86463.09, 0.0, 9.999352, 9.999644 
1.5850133e+3, 1.9493584e+2, -1005364.06, -1039022.56, -31827.0, 0.050166037, -0.09129574, -986190.8, 43424.727, 0.0, 10.000227, 9.999779 
1.5850239e+3, 2.0493433e+2, -991613.25, -1184955.9, 75837.41, 0.036655683, -0.122769624, -965416.1, -33786.645, 0.0, 10.000505, 9.997981 
1.5850374e+3, 2.149316e+2, -912919.2, -1077577.5, 95096.69, 0.20818593, -0.24188358, -869464.9, -35805.754, 0.0, 10.000296, 9.998143 
1.5850474e+3, 2.2493091e+2, -736650.2, -782390.8, 8720.207, 0.1727496, -0.18866271, -735044.1, 621.8954, 0.0, 10.000172, 9.999559 
1.5850537e+3, 2.3493211e+2, -591352.4, -645609.1, -33964.234, -0.091771096, -0.06919676, -575012.2, 62638.863, 0.0, 10.000415, 9.999713 
1.5850623e+3, 2.4493147e+2, -565192.7, -685296.0, -21833.074, -0.10971269, -0.048418496, -561346.9, -21691.488, 0.0, 10.000362, 9.998781 
1.5850736e+3, 2.549289e+2, -499838.9, -591429.6, -44199.215, 0.1110322, -0.23259856, -481988.47, -40308.56, 0.00000023115544, 10.000088, 9.998887 
1.5850833e+3, 2.6492742e+2, -395480.44, -540565.1, 5191.7163, 0.15342492, -0.23407514, -395294.9, -51601.11, 0.0000061293663, 10.000361, 9.998425 
1.5850914e+3, 2.7492672e+2, -134500.6, -341661.53, 18918.324, 0.004076576, -0.19957699, -132787.11, 112913.0, 0.000060026516, 10.001395, 9.99861 
1.5850991e+3, 2.8492564e+2, 29088.154, -226334.84, -3879.458, -0.07592282, -0.1569151, 29147.063, 176856.0, 0.0003212461, 10.00189, 9.998497 
1.585107e+3, 2.949242e+2, 126152.13, -110073.33, -16942.41, -0.08276472, -0.21472779, 127361.08, 177080.52, 0.0010570007, 10.001787, 9.998668 
1.5851165e+3, 3.04921e+2, 174961.63, -162055.88, 95392.914, -0.04812039, -0.34719735, 200089.16, 200089.16, 0.0023874303, 10.002216, 9.997803 
1.5851279e+3, 3.149218e+2, 343891.75, 11759.617, -15373.459, 0.0628036, -0.10906749, 344601.8, 344601.8, 0.0041719265, 10.002927, 9.998644 
1.5949437e+3, 1.2492576e+2, -1893951.8, -1735626.5, 87691.66, -0.053116553, 0.062443655, -1696651.3, 19067.328, 0.026239868, 9.998372, 10.000621 
1.594952e+3, 1.349255e+2, -1733942.5, -1417651.9, 103369.836, -0.2707711, -0.22785763, -1386865.3, 230848.42, 0.016040104, 9.998061, 10.002294 
1.5949629e+3, 1.4492637e+2, -1762555.6, -1719389.3, 15514.66, -0.19245054, -0.21934314, -1714391.6, -194688.08, 0.0073062, 9.998611, 9.999276 
1.5949732e+3, 1.5492688e+2, -1589171.1, -1579412.4, -1805.102, -0.03135279, -0.14040574, -1579089.1, -157386.25, 0.002060233, 9.999126, 9.999306 
1.5949829e+3, 1.6492699e+2, -1440092.3, -1405179.4, 9953.46, -0.016658217, -0.07282796, -1402541.1, -78837.586, 0.00024185247, 9.999264, 9.999762 
1.5949935e+3, 1.7492634e+2, -1357906.6, -1294063.9, 46223.14, 0.04691078, -0.1656336, -1269811.0, -44102.457, 0.0000030340082, 9.999087, 9.9999275 
1.595004e+3, 1.8492584e+2, -1291434.1, -1326005.0, 24805.158, 0.08261814, -0.15039107, -1278485.8, -150771.94, 0.0, 9.999352, 9.998909 
1.5950137e+3, 1.9492538e+2, -1079528.4, -1158033.8, 17122.32, 0.042014398, -0.13301992, -1075956.5, -46235.965, 0.0, 10.000086, 9.999026 
1.5950243e+3, 2.0492518e+2, -954847.6, -1070882.9, 52022.402, 0.0068378607, -0.0375809, -934939.8, -3216.1482, 0.0, 10.000342, 9.998838 
1.595036e+3, 2.14925e+2, -893338.25, -969596.9, 101479.86, 0.022838015, 0.007100785, -823060.9, 10664.607, 0.0, 10.000015, 9.999015 
1.595046e+3, 2.2492371e+2, -812289.8, -882275.06, 947.77563, 0.010008375, -0.014517365, -812277.0, -76540.28, 0.0, 9.999913, 9.999 
1.5950547e+3, 2.3492114e+2, -671240.8, -752386.44, -3364.342, -0.03671323, -0.21998516, -671101.56, -33342.57, 0.0, 10.000155, 9.999105 
1.5950637e+3, 2.4491979e+2, -618413.4, -729284.1, -43668.58, -0.036746662, -0.23233974, -603279.44, -63507.926, 0.0, 10.00008, 9.998609 
1.5950732e+3, 2.5491944e+2, -549807.9, -626634.2, -36632.42, 0.035462875, -0.17995816, -535140.9, -93364.66, 0.00000009760233, 9.999813, 9.998765 
1.5950827e+3, 2.6491886e+2, -368117.16, -431309.25, 28408.434, 0.035776217, -0.13297968, -357223.8, -13442.642, 0.0000054247644, 10.000125, 9.999291 
1.5950926e+3, 2.7491784e+2, -113146.58, -238414.22, 79956.055, -0.041388363, -0.2239828, -74212.86, 171574.72, 0.0000627863, 10.001133, 9.999448 
1.5951017e+3, 2.8491697e+2, -8159.1743, -224945.95, -26665.607, -0.04915031, -0.20862798, -4927.3804, 142864.63, 0.0003316825, 10.00156, 9.998662 
1.5951101e+3, 2.949158e+2, 93226.29, -102416.25, 5699.43, 0.018656688, -0.25635308, 93392.18, 143190.39, 0.0010854213, 10.001471, 9.998873 
1.5951191e+3, 3.0491233e+2, 80289.91, -273712.8, 103319.82, -0.05257161, -0.3944643, 108238.46, 108238.46, 0.0024525027, 10.001876, 9.997191 
1.5951292e+3, 3.149111e+2, 267177.53, -1045.8566, 64056.89, -0.16603631, -0.30282706, 281690.3, 281690.3, 0.0042836345, 10.002337, 9.998828 
1.604943e+3, 1.24916464e+2, -1932800.8, -1684803.4, 166635.06, 0.08196066, 0.12605548, -1601093.4, 114717.38, 0.027939666, 9.997834, 10.001253 
1.60495e+3, 1.3491501e+2, -1759515.8, -1415157.4, -5076.6475, -0.26069885, -0.2925825, -1415082.6, 202732.06, 0.01712635, 9.997845, 10.002416 
1.6049623e+3, 1.4491597e+2, -1862616.8, -1763646.1, -49758.715, -0.06550708, -0.27452487, -1742955.0, -223152.75, 0.007836914, 9.997943, 9.999279 
1.6049731e+3, 1.5491657e+2, -1558164.1, -1545808.9, -24579.752, 0.047277715, -0.20089701, -1526642.4, -104841.336, 0.0022287087, 9.999282, 9.999449 
1.604983e+3, 1.6491674e+2, -1379957.3, -1370151.5, 14789.962, 0.06909478, -0.13742435, -1359473.0, -35672.082, 0.00026665046, 9.999668, 9.999793 
1.604993e+3, 1.7491615e+2, -1278849.0, -1249908.1, -10964.364, 0.074537426, -0.22421485, -1246223.4, -20418.545, 0.0000036433328, 9.999616, 9.999966 
1.6050036e+3, 1.8491587e+2, -1247158.4, -1327713.8, 35055.336, 0.103198096, -0.18039931, -1234039.8, -106230.09, 0.0, 9.999744, 9.998711 
1.6050145e+3, 1.9491561e+2, -1048291.2, -1163380.6, 35535.535, 0.10754749, -0.12871574, -1038203.3, -8385.7295, 0.0, 10.000361, 9.998863 
1.6050252e+3, 2.0491552e+2, -923508.1, -1003876.2, 69223.36, 0.07825589, -0.034224384, -883650.75, 48169.188, 0.0, 10.000355, 9.999291 
1.605036e+3, 2.1491556e+2, -872461.56, -902234.0, 50356.336, 0.020455392, -0.012034067, -834837.25, -1019.8152, 0.0, 9.999936, 9.999507 
1.6050461e+3, 2.249144e+2, -826997.75, -912230.94, 7232.8423, 0.019796709, -0.03393699, -826388.3, -90560.96, 0.0, 9.999901, 9.9987955 
1.605056e+3, 2.34912e+2, -652299.06, -752859.7, -3216.7832, 0.06564448, -0.20770787, -652196.3, -14345.717, 0.0, 10.0003395, 9.998989 
1.605065e+3, 2.4491078e+2, -511696.3, -675803.94, 3762.153, 0.06214214, -0.20105508, -511610.13, 28252.367, 0.0, 10.000807, 9.998632 
1.6050737e+3, 2.5491053e+2, -318004.66, -512936.72, -8069.1377, 0.024570493, -0.13595046, -317671.22, 124194.34, 0.000000007673713, 10.001387, 9.998795 
1.6050833e+3, 2.649099e+2, -162528.66, -328304.84, 71670.68, 0.015144627, -0.09890781, -135839.73, 208031.0, 0.0000049768487, 10.001514, 9.999338 
1.6050942e+3, 2.7490884e+2, -112797.484, -238618.14, 11228.965, 0.024078988, -0.18928015, -111803.2, 134074.44, 0.00006482946, 10.001123, 9.999471 
1.605104e+3, 2.8490782e+2, -40202.797, -265288.16, -87820.45, 0.05910122, -0.1789519, -9992.944, 137890.81, 0.00033743004, 10.001396, 9.998488 
1.6051129e+3, 2.9490644e+2, 222394.22, -57022.01, -126508.15, 0.118495144, -0.22954123, 271160.7, 321052.97, 0.0010902435, 10.002408, 9.998746 
1.6051218e+3, 3.0490318e+2, 226096.81, -210099.73, 16503.605, 0.007567088, -0.33785588, 226720.33, 226720.33, 0.0024557933, 10.002907, 9.9971285 
1.6051324e+3, 3.1490055e+2, 349228.78, 66287.086, -66576.875, -0.09204182, -0.37443027, 364111.66, 364111.66, 0.004283157, 10.002739, 9.999113 
1.6149394e+3, 1.2490469e+2, -1907642.9, -1715263.9, -53278.367, -0.15486303, -0.1578009, -1701494.3, 14425.891, 0.02978273, 9.998163, 10.000885 
1.6149502e+3, 1.3490488e+2, -1889167.5, -1691103.6, -14074.242, -0.05216681, -0.2120247, -1690108.6, -72191.7, 0.018308382, 9.997884, 10.000484 
1.6149618e+3, 1.4490573e+2, -1760558.6, -1578384.9, -21972.004, 0.040002238, -0.16288602, -1575772.3, -55865.754, 0.008418617, 9.998046, 10.000504 
1.6149722e+3, 1.5490545e+2, -1469824.9, -1366855.1, 43187.133, -0.015928928, -0.29931504, -1351140.1, 70766.734, 0.0024150687, 9.9993, 10.00067 
1.6149826e+3, 1.6490558e+2, -1380865.5, -1413485.1, -10448.964, 0.0029543955, -0.28394398, -1377805.4, -53900.1, 0.0002938315, 9.99983, 9.999421 
1.6149932e+3, 1.7490594e+2, -1305621.6, -1308073.3, -1218.2887, 0.09173768, -0.24067608, -1305119.1, -79215.625, 0.000004294035, 9.999611, 9.999576 
1.6150041e+3, 1.8490635e+2, -1223484.5, -1276765.3, 39693.06, 0.12000468, -0.12438759, -1202320.6, -74417.555, 0.0, 9.999739, 9.99906 
1.6150153e+3, 1.9490649e+2, -1039741.75, -1121456.5, 73047.305, 0.11203501, -0.06901759, -996901.9, 33004.582, 0.0, 10.000257, 9.999202 
1.6150261e+3, 2.0490548e+2, -949818.9, -1015403.1, 32550.363, 0.09045816, -0.085496746, -936406.56, -4489.59, 0.0, 10.00017, 9.9993 
1.6150364e+3, 2.1490324e+2, -907857.7, -923464.44, 48512.023, 0.071860835, -0.2936541, -866525.44, -32590.104, 0.0, 9.999715, 9.999467 
1.6150466e+3, 2.2490294e+2, -860154.75, -907697.94, 6188.675, 0.062312186, -0.23520735, -859362.4, -123424.12, 0.0, 9.999597, 9.998969 
1.6150565e+3, 2.3490451e+2, -681714.3, -745944.5, 31274.791, 0.06838822, -0.029338485, -669002.06, -31074.945, 0.0, 10.00006, 9.999167 
1.6150656e+3, 2.4490428e+2, -534035.44, -668665.9, 7302.3867, 0.021759357, 0.05776852, -533640.56, 6289.542, 0.0, 10.000561, 9.998804 
1.6150743e+3, 2.549021e+2, -343808.1, -507793.38, 34583.7, -0.06530498, -0.09989232, -336812.97, 105135.695, 0.00000000987263, 10.001127, 9.998955 
1.6150844e+3, 2.6490057e+2, -273882.1, -485154.94, 39006.965, -0.06703479, -0.11306563, -266910.38, 77051.74, 0.000004852571, 10.0012045, 9.998402 
1.6150957e+3, 2.7489945e+2, -213644.16, -388608.38, 19914.31, 0.034733403, -0.12026633, -211406.14, 34566.81, 0.00006465758, 10.000884, 9.998544 
1.615106e+3, 2.8489807e+2, -119762.234, -369707.9, -69983.59, 0.07352346, -0.067460254, -101501.3, 46483.72, 0.0003366383, 10.001133, 9.997899 
1.6151148e+3, 2.9489636e+2, 138897.97, -160956.22, -62311.902, 0.040573455, -0.1058124, 151331.3, 201330.05, 0.0010768002, 10.002103, 9.99818 
1.6151243e+3, 3.0489337e+2, 194241.92, -183720.84, -10122.431, -0.05473906, -0.17605828, 194512.83, 194512.83, 0.0024103601, 10.002538, 9.997465 
1.615136e+3, 3.1489024e+2, 279579.72, 89191.016, -808.16046, -0.05848887, -0.30674246, 279583.16, 279583.16, 0.0041886293, 10.002082, 9.99955 
1.6249378e+3, 1.24894075e+2, -2030948.6, -1788006.3, -82183.73, -0.07811783, -0.2320284, -1762816.5, -46794.77, 0.03179242, 9.997387, 10.000721 
1.6249503e+3, 1.3489488e+2, -1747922.0, -1721121.1, -55.09237, 0.11374767, -0.15091349, -1721121.0, -103104.18, 0.019603958, 9.999251, 9.999609 
1.6249609e+3, 1.448955e+2, -1601459.5, -1474165.0, 31019.758, 0.11186838, -0.09427776, -1467008.4, 53001.785, 0.009062119, 9.999046, 10.000725 
1.6249716e+3, 1.5489522e+2, -1562831.1, -1375457.0, -3472.3347, 0.04094641, -0.25759378, -1375392.6, 46615.69, 0.002624408, 9.998523, 10.000974 
1.6249824e+3, 1.648953e+2, -1554951.5, -1489553.4, -42779.484, 0.05314045, -0.26465708, -1468407.1, -144400.86, 0.00032476612, 9.998603, 9.999496 
1.6249926e+3, 1.7489573e+2, -1322568.0, -1300287.8, -35575.195, 0.10171318, -0.22518872, -1274149.3, -48145.285, 0.000005034694, 9.999434, 9.999708 
1.6250038e+3, 1.8489623e+2, -1225420.6, -1255907.9, 50956.992, 0.13321567, -0.114653505, -1187476.0, -59473.55, 0.0, 9.999636, 9.99926 
1.6250154e+3, 1.9489661e+2, -1133917.8, -1131842.6, 41139.68, 0.15422495, -0.05831845, -1091727.5, -61724.094, 0.0, 9.99949, 9.999493 
1.6250265e+3, 2.0489585e+2, -1020231.8, -1038017.2, 25620.615, 0.15015143, -0.07247855, -1002004.44, -69992.99, 0.0, 9.999618, 9.999417 
1.6250367e+3, 2.1489371e+2, -843764.5, -882740.06, 21356.164, 0.117660366, -0.27942246, -834341.06, -312.00134, 0.0, 10.000087, 9.999579 
1.625047e+3, 2.2489354e+2, -741845.0, -839200.4, 21276.45, 0.10492195, -0.21927553, -737398.25, -1367.4788, 0.0, 10.000349, 9.999079 
1.625057e+3, 2.3489523e+2, -623115.25, -709768.56, 3755.2424, 0.09899128, -0.010314755, -622952.8, 15065.183, 0.0, 10.000411, 9.999254 
1.6250667e+3, 2.448949e+2, -507245.13, -653577.2, 13400.142, 0.0642677, 0.06397527, -506028.16, 33992.984, 0.0, 10.000735, 9.998823 
1.625076e+3, 2.5489244e+2, -302112.22, -487775.28, -12936.45, -0.01800567, -0.11972043, -301215.2, 140826.4, 0.000000011745934, 10.001404, 9.998962 
1.6250862e+3, 2.6489058e+2, -223514.67, -521763.63, 10143.619, -0.013095348, -0.13598959, -223170.08, 120888.266, 0.0000048598445, 10.001817, 9.997858 
1.6250977e+3, 2.748891e+2, -89229.39, -393144.4, -22158.262, 0.09601601, -0.11993776, -87622.34, 158451.84, 0.00006306325, 10.0020075, 9.997972 
1.6251083e+3, 2.8488728e+2, 27192.523, -336595.53, -21082.514, 0.13906474, -0.062243987, 28410.238, 176502.19, 0.00033149842, 10.002329, 9.997536 
1.6251178e+3, 2.9488516e+2, 221795.52, -164498.52, -59580.06, 0.0876391, -0.10280554, 230776.06, 280888.16, 0.0010554205, 10.0028715, 9.997778 
1.6251275e+3, 3.0488253e+2, 241142.83, -144370.66, -8116.657, -0.0028074388, -0.12554637, 241313.64, 241313.64, 0.0023409713, 10.002763, 9.997643 
1.6251391e+3, 3.148797e+2, 238595.47, 40386.453, -84784.68, 0.08564902, -0.23217085, 269913.9, 269913.9, 0.0040352517, 10.001859, 9.999356 
1.6349362e+3, 1.24884605e+2, -1991303.0, -1730609.3, 66385.64, -0.0776267, -0.11740128, -1714677.8, 1438.0547, 0.03398967, 9.997501, 10.001053 
1.6349494e+3, 1.3488494e+2, -1734309.1, -1698696.6, 56998.516, 0.061427847, -0.11547813, -1656787.9, -38672.54, 0.02102759, 9.99928, 9.999746 
1.6349594e+3, 1.4488511e+2, -1623753.5, -1569926.4, -27251.953, -0.008438614, -0.069349624, -1558538.4, -38424.023, 0.009775217, 9.999236, 9.999987 
1.6349708e+3, 1.5488598e+2, -1605403.0, -1470931.6, -12383.501, 0.063912176, -0.052998073, -1469800.8, -47696.22, 0.002860367, 9.998546, 10.000313 
1.6349813e+3, 1.6488601e+2, -1502847.6, -1397748.4, -33099.543, 0.05031169, -0.060351126, -1388192.9, -64090.28, 0.00036087315, 9.998666, 10.000099 
1.6349912e+3, 1.7488544e+2, -1289275.4, -1225103.6, 5183.3555, -0.027447462, -0.17604999, -1224687.6, 1419.3553, 0.000005927034, 9.999408, 10.0002365 
1.6350023e+3, 1.8488546e+2, -1209829.8, -1230887.8, 24033.64, -0.011100922, -0.15013728, -1194119.9, -66011.42, 0.0, 9.999661, 9.999423 
1.6350147e+3, 1.948858e+2, -1138068.1, -1118703.3, 49259.406, 0.10308649, -0.11053268, -1078183.8, -48074.156, 0.0, 9.999392, 9.999636 
1.635026e+3, 2.0488632e+2, -1026951.4, -1011079.25, 26579.9, 0.112029515, -0.016838294, -991275.94, -59169.75, 0.0, 9.99944, 9.999692 
1.6350362e+3, 2.148868e+2, -855151.2, -859170.4, 57090.86, 0.024614045, 0.010900556, -800034.56, 34065.71, 0.0, 9.999876, 9.999846 
1.6350465e+3, 2.2488612e+2, -793710.56, -873002.8, 8722.909, -0.01588788, 0.012158587, -792762.3, -56656.883, 0.0, 10.000036, 9.998993 
1.6350569e+3, 2.3488416e+2, -667614.5, -737967.06, 22593.998, 0.02350664, -0.14178674, -660983.4, -22860.354, 0.0, 10.000141, 9.999186 
1.6350675e+3, 2.448827e+2, -570887.56, -710562.7, 20048.344, 0.03890128, -0.16868271, -568066.9, -27931.352, 0.0, 10.00042, 9.998579 
1.635078e+3, 2.5488162e+2, -351180.34, -532592.25, 31515.32, 0.022251772, -0.18914978, -345861.38, 96282.96, 0.000000006263202, 10.001173, 9.998759 
1.6350888e+3, 2.6488015e+2, -272673.2, -576735.9, 269.2906, 0.02115739, -0.14419948, -272672.94, 71485.08, 0.000005059976, 10.0015955, 9.997593 
1.6350996e+3, 2.7487805e+2, -140433.92, -446097.8, 12951.038, 0.05954633, -0.17304286, -139886.16, 106293.086, 0.000060994436, 10.001763, 9.997729 
1.6351104e+3, 2.848756e+2, -45768.004, -408948.38, -17707.898, 0.075267166, -0.15251496, -44906.65, 103297.51, 0.0003219481, 10.002008, 9.997184 
1.6351208e+3, 2.9487273e+2, 143760.7, -241956.78, -8680.602, 0.07388213, -0.2249886, 143955.97, 194189.4, 0.0010251604, 10.002532, 9.997399 
1.6351303e+3, 3.048706e+2, 177251.75, -186569.2, -60755.496, -0.020411208, -0.17325588, 187129.31, 187129.31, 0.0022563916, 10.002382, 9.997535 
1.6351415e+3, 3.148689e+2, 111830.336, -86130.33, -39515.62, 0.062227294, -0.17121077, 119426.69, 119426.69, 0.003853191, 10.001288, 9.998752 
1.6449343e+3, 1.24872595e+2, -1958890.3, -1689324.9, 77218.35, 0.004249124, -0.13547201, -1668772.3, 47461.234, 0.036383986, 9.997644, 10.001278 
1.6449475e+3, 1.3487348e+2, -1854778.0, -1727654.0, -17850.096, 0.002725559, -0.10310923, -1725195.1, -106967.85, 0.022584815, 9.998337, 10.000009 
1.6449586e+3, 1.4487325e+2, -1682595.3, -1608876.4, -75473.74, 0.02301123, -0.10473419, -1561742.4, -41512.22, 0.010560797, 9.998867, 9.999905 
1.6449703e+3, 1.5487434e+2, -1490151.3, -1426482.3, -51391.44, 0.14017072, -0.058340013, -1397864.1, 24354.441, 0.0031241647, 9.99937, 10.000226 
1.6449809e+3, 1.6487464e+2, -1374966.6, -1319156.5, -12636.749, 0.113692135, -0.04772631, -1316428.5, 7786.2954, 0.0004029895, 9.999483, 10.000243 
1.6449903e+3, 1.748742e+2, -1255469.5, -1197896.4, -39427.566, -0.05249211, -0.1584239, -1177864.9, 48353.07, 0.0000070009137, 9.999592, 10.000344 
1.6450015e+3, 1.8487428e+2, -1201401.9, -1185901.9, -19124.238, -0.051615357, -0.14633754, -1173017.0, -44798.645, 0.0, 9.999558, 9.9997635 
1.6450141e+3, 1.9487467e+2, -1080546.4, -1051963.4, -17002.813, 0.09603704, -0.14079003, -1044043.5, -13825.676, 0.0, 9.99963, 9.999963 
1.6450258e+3, 2.0487545e+2, -960970.2, -968778.0, 15347.861, 0.12557106, -0.04033136, -949037.5, -16825.898, 0.0, 9.999858, 9.999769 
1.6450362e+3, 2.1487655e+2, -779282.3, -804935.56, -4160.5835, 0.019413933, 0.036940657, -778624.44, 55575.926, 0.0, 10.000346, 9.999972 
1.6450468e+3, 2.2487578e+2, -707617.25, -835657.25, -36412.484, -0.0052951323, 0.02321338, -697986.5, 38219.19, 0.0, 10.000633, 9.998977 
1.6450576e+3, 2.348729e+2, -587619.2, -704808.25, -51452.273, 0.06195466, -0.21486449, -568235.2, 69995.13, 0.0, 10.000704, 9.999159 
1.6450687e+3, 2.4487115e+2, -515587.03, -710327.4, 1099.3103, 0.09802014, -0.2576448, -515580.8, 24664.89, 0.0, 10.000913, 9.998342 
1.6450797e+3, 2.5487033e+2, -347533.22, -564076.8, -27537.121, 0.070475146, -0.22402602, -344086.28, 98167.65, 0.000000005166704, 10.001335, 9.998469 
1.6450907e+3, 2.6486903e+2, -266608.84, -545814.6, -30108.008, 0.07626646, -0.15481845, -263399.06, 80867.24, 0.000005473011, 10.001534, 9.997821 
1.6451018e+3, 2.7486715e+2, -140125.9, -411208.5, -34277.273, 0.1087313, -0.18598063, -135858.84, 110425.78, 0.000058881178, 10.001654, 9.997999 
1.6451126e+3, 2.8486475e+2, -68952.33, -438658.38, 11807.132, 0.12788345, -0.1684101, -68575.63, 79734.02, 0.0003079229, 10.001917, 9.997046 
1.6451238e+3, 2.948617e+2, 68057.695, -298004.66, -10321.325, 0.14538845, -0.23910838, 68348.48, 118691.2, 0.0009851817, 10.002088, 9.997242 
1.6451333e+3, 3.0485985e+2, 228174.72, -136239.11, -6644.599, 0.046802472, -0.16171326, 228295.83, 228295.83, 0.0021654046, 10.002582, 9.997798 
1.6451441e+3, 3.148597e+2, 375586.44, 30768.309, -52633.066, 0.11724859, -0.029534398, 383441.4, 383441.4, 0.003679341, 10.003158, 9.998648 
1.6549335e+3, 1.2485866e+2, -1933138.3, -1691997.8, -78330.89, 0.07378999, -0.22207843, -1668787.3, 47581.44, 0.03897044, 9.997857, 10.001176 
1.6549443e+3, 1.3486095e+2, -1824990.0, -1663630.4, 29164.23, -0.19989224, -0.07094752, -1658521.0, -40172.773, 0.024272982, 9.998324, 10.00046 
1.6549581e+3, 1.4486009e+2, -1624044.8, -1507058.5, -78859.484, 0.028521143, -0.19986004, -1467366.9, 52989.383, 0.0114189135, 9.998954, 10.000563 
1.6549699e+3, 1.5486045e+2, -1454616.0, -1358781.4, -19340.277, 0.12743057, -0.27141693, -1355025.5, 67324.17, 0.0034161112, 9.9994, 10.000677 
1.6549805e+3, 1.6486123e+2, -1378676.3, -1355944.5, -31657.645, 0.079156294, -0.21655363, -1333674.3, -9332.26, 0.00045137366, 9.999597, 9.999941 
1.6549897e+3, 1.7486212e+2, -1275361.5, -1230289.4, -22536.863, -0.10068839, -0.17474617, -1220954.0, 5382.106, 0.000008273259, 9.9995575, 10.000134 
1.6550006e+3, 1.848628e+2, -1168502.3, -1124835.5, -31985.896, -0.13348709, -0.11333793, -1107941.8, 20389.633, 0.0, 9.999576, 10.000181 
1.6550131e+3, 1.9486319e+2, -1065576.4, -1001096.2, -2497.3145, -0.0027868592, -0.1479258, -1000999.56, 29328.803, 0.0, 9.999534, 10.000366 
1.6550249e+3, 2.048633e+2, -995873.6, -998737.25, 17477.584, 0.027372507, -0.12897353, -979769.3, -47442.23, 0.0, 9.999678, 9.99965 
1.6550362e+3, 2.148629e+2, -820745.25, -835639.94, 28763.701, -0.026982268, -0.1916716, -798480.44, 35849.152, 0.0, 10.000111, 9.999875 
1.6550475e+3, 2.2486229e+2, -744023.8, -845541.06, -52306.754, -0.01568135, -0.18864532, -721896.0, 14437.782, 0.0, 10.000351, 9.999046 
1.6550586e+3, 2.3486133e+2, -619851.1, -711994.3, -29420.764, 0.070080794, -0.24148095, -611258.5, 27082.615, 0.0, 10.000448, 9.999235 
1.6550696e+3, 2.448602e+2, -582973.9, -781558.6, 4845.247, 0.06584914, -0.2081847, -582855.75, -42503.426, 0.0, 10.00062, 9.9979925 
1.6550805e+3, 2.5485858e+2, -412424.0, -633225.75, 6659.63, -0.0063709514, -0.22201903, -412223.3, 30146.803, 0.00000000856411, 10.001066, 9.998116 
1.655092e+3, 2.6485726e+2, -272232.03, -498018.38, -43587.8, 0.0070932456, -0.16426998, -264109.66, 80274.05, 0.0000057188686, 10.001269, 9.998281 
1.6551036e+3, 2.7485615e+2, -134032.17, -348548.6, -7003.942, 0.09973403, -0.16926664, -133803.75, 112589.445, 0.00005720022, 10.001429, 9.998542 
1.6551149e+3, 2.8485444e+2, -110420.23, -450187.88, -3334.908, 0.13021225, -0.11603556, -110387.5, 38023.92, 0.0002952708, 10.001595, 9.997124 
1.6551259e+3, 2.9485175e+2, 32640.969, -310265.44, 27212.0, 0.12202852, -0.16252474, 34787.0, 85229.586, 0.00095047243, 10.001812, 9.997295 
1.6551356e+3, 3.0484992e+2, 192423.98, -106355.58, -3751.807, -0.011937745, -0.10352686, 192471.1, 192471.1, 0.0020977776, 10.002164, 9.998193 
1.6551462e+3, 3.1485116e+2, 297511.3, 5788.6143, 37827.977, -0.052655563, 0.12955202, 302336.7, 302336.7, 0.00356369, 10.002567, 9.99876 
1.6649333e+3, 1.2484618e+2, -1792174.8, -1699200.9, -15065.852, 0.20439242, -0.2277078, -1696820.5, 19668.934, 0.041736465, 9.999132, 10.000511 
1.664943e+3, 1.3484804e+2, -1746327.4, -1657309.1, 24113.281, -0.16417293, -0.09389056, -1651197.0, -32722.668, 0.026087236, 9.998981, 10.000192 
1.6649567e+3, 1.4484729e+2, -1780883.9, -1559957.1, -94211.64, 0.059056852, -0.20250157, -1525237.9, -4756.04, 0.012349877, 9.997813, 10.000727 
1.6649689e+3, 1.5484774e+2, -1649258.9, -1420970.0, -84093.02, 0.1615453, -0.29261038, -1393337.9, 29136.736, 0.003737191, 9.997951, 10.000934 
1.66498e+3, 1.6484883e+2, -1578838.3, -1428425.4, -52606.168, 0.15877548, -0.22864613, -1411852.6, -87388.88, 0.00050616945, 9.998141, 10.0001335 
1.6649894e+3, 1.7484994e+2, -1418671.8, -1281036.3, -47138.473, -0.014794765, -0.18424061, -1266439.9, -39984.23, 0.000009797576, 9.9984865, 10.000302 
1.6650005e+3, 1.8485074e+2, -1263261.9, -1166338.4, -9076.62, -0.06802226, -0.119134024, -1165495.8, -37046.223, 0.0, 9.998926, 10.000199 
1.6650127e+3, 1.9485132e+2, -998314.06, -961723.06, -41287.68, -0.0046690805, -0.13831139, -934858.9, 95585.72, 0.0, 9.999979, 10.000409 
1.6650246e+3, 2.0485133e+2, -907962.75, -946275.1, -18033.604, 0.020507216, -0.13658439, -900809.8, 31633.922, 0.0, 10.000237, 9.999743 
1.6650364e+3, 2.148506e+2, -867888.9, -850066.0, -23463.816, 0.0027841975, -0.23912795, -833878.4, 570.41504, 0.0, 9.999742, 9.999959 
1.665048e+3, 2.2485015e+2, -810351.0, -873882.44, -47941.617, 0.03228398, -0.22432455, -784606.2, -48154.22, 0.0, 9.999893, 9.999054 
1.6650595e+3, 2.3484993e+2, -562026.4, -677707.8, -68591.36, 0.0993969, -0.20754093, -530143.5, 108310.54, 0.0, 10.000827, 9.999268 
1.6650707e+3, 2.4484913e+2, -494827.38, -721552.9, -6272.4, 0.10417587, -0.15160656, -494653.97, 45808.27, 0.0, 10.001125, 9.998186 
1.6650818e+3, 2.5484753e+2, -445212.7, -626892.75, 4550.4834, 0.043751296, -0.18056063, -445098.78, -2619.62, 0.0000000057748837, 10.000732, 9.998338 
1.6650935e+3, 2.6484594e+2, -328005.16, -548937.9, 9396.627, 0.060802177, -0.14640583, -327606.25, 16889.063, 0.0000055479773, 10.000983, 9.998071 
1.6651055e+3, 2.7484435e+2, -77859.414, -363226.16, -51828.098, 0.13465574, -0.17204784, -68737.99, 177773.4, 0.000055377644, 10.001959, 9.998207 
1.665117e+3, 2.848429e+2, 30981.12, -328368.44, -49221.313, 0.16526845, -0.09609694, 37601.168, 186128.53, 0.00028510438, 10.002333, 9.997583 
1.6651279e+3, 2.9484153e+2, 94358.69, -221414.72, -49687.71, 0.14372337, -0.05759409, 101992.62, 152536.94, 0.000926934, 10.002024, 9.997772 
1.665138e+3, 3.0483916e+2, 212502.02, -96679.88, -7339.6, 0.025829967, -0.07867736, 212676.16, 212676.16, 0.00206355, 10.002282, 9.998205 
1.6651496e+3, 3.1483957e+2, 320217.8, 36367.387, -73392.08, 0.06423023, 0.06828423, 338071.06, 338071.06, 0.003521676, 10.002634, 9.998932 
1.6749306e+3, 1.2483548e+2, -1841835.9, -1833087.0, 7879.5215, -0.067336254, -0.15614581, -1828449.1, -111856.64, 0.044670317, 9.999268, 9.999518 
1.674944e+3, 1.3483484e+2, -1815605.6, -1819422.0, -11138.519, -0.006751745, -0.18230014, -1806213.0, -187608.48, 0.028026333, 9.999049, 9.99905 
1.6749536e+3, 1.4483495e+2, -1789592.8, -1600485.3, -124954.23, -0.08115964, -0.11967456, -1538342.0, -17735.75, 0.013357116, 9.997903, 10.000408 
1.6749665e+3, 1.5483628e+2, -1649343.9, -1424601.0, -60930.105, 0.09831433, -0.11741387, -1409145.1, 13447.559, 0.004090086, 9.997956, 10.000911 
1.674979e+3, 1.6483738e+2, -1516466.1, -1322687.1, -58007.254, 0.18838659, -0.089963764, -1306650.0, 17931.014, 0.0005678562, 9.998236, 10.000817 
1.6749893e+3, 1.7483775e+2, -1381775.4, -1193135.9, -24310.43, 0.073135555, -0.17866342, -1190053.3, 36522.266, 0.000011659807, 9.99844, 10.00093 
1.6750002e+3, 1.8483831e+2, -1290034.1, -1226025.5, 9465.721, -0.021076553, -0.1488225, -1224655.0, -96084.35, 0.0, 9.998933, 9.999796 
1.6750127e+3, 1.9483902e+2, -1045006.1, -1029952.94, 10956.251, -0.04199969, -0.11245487, -1024187.06, 6379.6357, 0.0, 9.999852, 10.000008 
1.6750246e+3, 2.0483951e+2, -905858.7, -910181.8, -52914.11, -0.042644423, -0.059474315, -855062.0, 77500.086, 0.0, 10.000091, 10.000067 
1.6750361e+3, 2.1483956e+2, -879173.75, -824590.7, -24938.232, -0.03219412, -0.11392536, -814912.7, 19645.97, 0.0, 9.999518, 10.000248 
1.6750476e+3, 2.2483936e+2, -864667.94, -913035.6, -28231.527, -0.024717372, -0.085379794, -851678.2, -115117.836, 0.0, 9.999577, 9.998935 
1.6750596e+3, 2.3483871e+2, -609493.25, -718080.1, -18188.707, 0.014015746, -0.098248444, -606527.56, 32041.182, 0.0, 10.000575, 9.999109 
1.6750716e+3, 2.4483798e+2, -489184.25, -637323.5, -39180.08, 0.050566565, -0.062866785, -479460.16, 61115.37, 0.0, 10.000815, 9.998909 
1.675083e+3, 2.548371e+2, -430802.7, -532908.44, 10843.335, 0.07704562, -0.09877522, -429663.84, 12917.411, 0.0000000017385277, 10.00046, 9.999109 
1.6750948e+3, 2.648351e+2, -441809.5, -715363.6, 28327.156, 0.07349898, -0.10075251, -438906.94, -94305.46, 0.0000048816705, 10.000676, 9.99708 
1.675107e+3, 2.7483156e+2, -185466.67, -536106.3, 10165.054, 0.061808884, -0.21121684, -185172.23, 61468.49, 0.000051551386, 10.001726, 9.99714 
1.6751185e+3, 2.8483e+2, 16378.624, -269940.1, -74081.75, 0.043779287, -0.118379824, 34410.79, 183069.16, 0.0002714196, 10.001961, 9.998162 
1.6751294e+3, 2.9483065e+2, 101536.76, -139092.33, -30416.52, 0.0333012, 0.051534317, 105321.99, 155973.77, 0.0008994481, 10.001718, 9.998492 
1.67514e+3, 3.048272e+2, 118517.14, -176656.11, -11945.117, -0.033467896, -0.104380906, 118999.75, 118999.75, 0.002033432, 10.001813, 9.997872 
1.6751534e+3, 3.148244e+2, 264709.53, 31829.172, 3981.0974, 0.115904026, -0.24203396, 264777.6, 264777.6, 0.003509679, 10.002178, 9.999111 
1.6849299e+3, 1.24823466e+2, -1958752.1, -1805811.4, -22257.758, 0.011547379, -0.07526535, -1802638.0, -85925.766, 0.04776628, 9.998137, 10.000225 
1.6849422e+3, 1.3482203e+2, -1996008.3, -1858158.0, -67069.64, -0.0046033286, -0.23312081, -1830911.4, -212181.7, 0.030093629, 9.997626, 9.999456 
1.6849521e+3, 1.4482301e+2, -1818248.6, -1617359.6, -11529.083, -0.0038510268, -0.10435099, -1616700.1, -95978.25, 0.0144471, 9.997699, 10.000402 
1.6849649e+3, 1.5482445e+2, -1495916.8, -1347845.3, 30062.877, 0.0852171, -0.09379248, -1341974.4, 80733.92, 0.004479329, 9.998991, 10.000949 
1.6849773e+3, 1.6482535e+2, -1368466.1, -1280684.3, 14259.9, 0.15306336, -0.07210346, -1278425.9, 46273.246, 0.0006375465, 9.999369, 10.000565 
1.6849884e+3, 1.7482552e+2, -1285214.3, -1170238.5, -48428.08, 0.118284635, -0.16173698, -1152559.0, 74137.39, 0.00001399049, 9.999201, 10.000716 
1.685e+3, 1.8482594e+2, -1284334.1, -1215508.1, 11602.018, 0.06922312, -0.1390463, -1213605.0, -84912.3, 0.0, 9.9989395, 9.999859 
1.6850123e+3, 1.9482657e+2, -1194684.5, -1098850.9, 19474.248, 0.0061761914, -0.11857815, -1095044.8, -64355.547, 0.0, 9.998799, 10.000044 
1.6850245e+3, 2.0482701e+2, -1047051.6, -975414.56, -19980.594, -0.007521774, -0.07125697, -970218.6, -37533.87, 0.0, 9.999117, 10.000085 
1.6850363e+3, 2.148273e+2, -812732.0, -783666.7, -52724.7, 0.017250098, -0.106627025, -743508.44, 91170.79, 0.0, 9.999954, 10.000309 
1.685048e+3, 2.2482719e+2, -744969.1, -851141.3, -12876.927, 0.027102454, -0.07491299, -743429.7, -6749.9097, 0.0, 10.000349, 9.999015 
1.68506e+3, 2.3482645e+2, -659459.5, -737356.7, -13592.776, 0.0157037, -0.09996756, -657155.75, -18467.13, 0.0, 10.000188, 9.999191 
1.6850722e+3, 2.4482577e+2, -529657.3, -663137.9, -24397.287, 0.0591584, -0.060821414, -525337.8, 15357.779, 0.0, 10.000562, 9.998838 
1.6850846e+3, 2.5482497e+2, -272883.88, -473824.9, -80446.71, 0.13994308, -0.08078766, -244645.44, 198056.5, 0.0000000018399801, 10.00159, 9.998972 
1.6850966e+3, 2.6482308e+2, -264584.63, -601401.7, -18928.428, 0.13870141, -0.074482016, -263524.22, 81197.234, 0.0000039092515, 10.001767, 9.99734 
1.6851082e+3, 2.748199e+2, -247842.14, -519950.0, 16428.996, 0.05431134, -0.1794589, -246853.8, -97.19608, 0.000046409757, 10.001146, 9.997505 
1.68512e+3, 2.848184e+2, -66218.055, -293722.97, 15690.144, 0.04100083, -0.108028136, -65141.066, 83631.484, 0.00025645504, 10.001294, 9.998347 
1.6851318e+3, 2.9481882e+2, 171639.48, -85159.39, -20796.676, 0.1072168, 0.023475, 173312.78, 224079.66, 0.0008664291, 10.002093, 9.998703 
1.6851431e+3, 3.048152e+2, 251514.5, -187397.67, 30724.135, 0.04872113, -0.12818651, 253654.78, 253654.78, 0.0019907402, 10.002999, 9.99726 
1.685157e+3, 3.148119e+2, 475182.2, 96630.25, -50755.816, 0.18114544, -0.23205253, 481869.34, 481869.34, 0.0034830444, 10.003717, 9.998872 
1.6949306e+3, 1.2480899e+2, -1777622.6, -1476340.0, -69390.1, 0.17938721, -0.08559683, -1461126.6, 255733.7, 0.051028147, 9.998279, 10.002512 
1.6949365e+3, 1.3480935e+2, -1852238.1, -1559286.9, -83048.32, -0.37752017, -0.25529066, -1537381.6, 81470.5, 0.032295942, 9.99761, 10.001535 
1.694952e+3, 1.4481136e+2, -1769868.8, -1547119.5, 13471.564, 0.14692739, -0.16598323, -1546307.8, -25477.791, 0.015627254, 9.997821, 10.000829 
1.6949633e+3, 1.5481235e+2, -1488787.3, -1343048.4, 90665.625, -0.013612297, -0.20376752, -1299598.4, 123221.58, 0.004910431, 9.999036, 10.00096 
1.6949745e+3, 1.648129e+2, -1427035.8, -1423903.0, -12700.127, -0.12195117, -0.16496663, -1412673.0, -87856.39, 0.0007170378, 9.999458, 9.999537 
1.6949867e+3, 1.7481335e+2, -1360937.5, -1321588.5, -39505.84, -0.010536201, -0.12670596, -1297129.1, -70312.17, 0.000016975888, 9.999176, 9.999687 
1.6949992e+3, 1.8481375e+2, -1244283.5, -1142993.3, -13118.825, 0.043284215, -0.078093834, -1141321.8, -12506.924, 0.0, 9.998975, 10.000342 
1.6950114e+3, 1.948139e+2, -1174242.3, -1032889.2, 23920.51, -0.009455363, -0.15468578, -1028951.0, 1861.2819, 0.0, 9.998696, 10.000545 
1.6950236e+3, 2.0481391e+2, -1101120.5, -1038932.56, -9127.45, -0.03184309, -0.16009536, -1037620.56, -104809.84, 0.0, 9.998902, 9.999758 
1.6950364e+3, 2.1481372e+2, -867165.94, -852699.0, -5021.65, 0.009569412, -0.2070873, -851126.75, -16315.636, 0.0, 9.999749, 9.999943 
1.6950485e+3, 2.248135e+2, -765481.44, -813760.25, -34895.38, 0.010095684, -0.18792208, -747189.75, -10378.038, 0.0, 10.000021, 9.999421 
1.6950598e+3, 2.3481308e+2, -677050.8, -698191.75, 1882.0114, -0.035361685, -0.22482288, -676884.56, -38070.285, 0.0, 9.999876, 9.999603 
1.6950722e+3, 2.448123e+2, -651461.25, -829340.25, -40.808075, -0.020811183, -0.16836429, -651461.25, -110637.32, 0.0, 10.000194, 9.997879 
1.6950859e+3, 2.5481105e+2, -381247.44, -637691.6, -20021.213, 0.09543945, -0.13154304, -379693.72, 63148.508, 0.0000000033657745, 10.0013275, 9.997977 
1.6950981e+3, 2.6480997e+2, -213313.13, -417467.03, -55603.72, 0.08212933, -0.066083156, -199151.19, 145703.97, 0.0000030031388, 10.001444, 9.998751 
1.6951087e+3, 2.7480906e+2, -181893.17, -322676.4, 15348.933, -0.039213303, -0.09674095, -180239.19, 66623.125, 0.000041455987, 10.000894, 9.998976 
1.6951211e+3, 2.848077e+2, -128432.78, -344277.25, 22721.361, -0.013405667, -0.0798771, -126066.9, 22807.22, 0.00024337543, 10.000959, 9.998162 
1.695135e+3, 2.9480562e+2, 118309.96, -139729.86, 32399.467, 0.18073735, -0.17027272, 122315.85, 173209.34, 0.0008331997, 10.00183, 9.998466 
1.6951464e+3, 3.0480278e+2, 105229.766, -367083.3, 40842.656, 0.06843986, -0.18160385, 108735.56, 108735.56, 0.0019314514, 10.002507, 9.996243 
1.6951588e+3, 3.148025e+2, 355134.78, 9086.453, 39445.793, -0.06251417, 0.10545569, 359574.25, 359574.25, 0.0034111522, 10.0030575, 9.998562 
1.704929e+3, 1.2479575e+2, -2021194.0, -1518430.8, 28741.64, 0.31472632, -0.104538195, -1516793.0, 200199.5, 0.054460447, 9.996296, 10.003176 
1.7049336e+3, 1.3479695e+2, -1773051.6, -1493338.4, -99734.99, -0.42257237, -0.20249006, -1461419.1, 157555.88, 0.034638863, 9.998031, 10.001809 
1.7049514e+3, 1.4479873e+2, -1612905.5, -1465772.3, -81226.78, 0.26836172, -0.15737869, -1429749.5, 91205.02, 0.016903277, 9.998905, 10.000866 
1.7049623e+3, 1.5479943e+2, -1627856.1, -1417361.0, -56585.152, 0.0452857, -0.21674025, -1403114.1, 19832.975, 0.00538814, 9.998134, 10.000873 
1.704973e+3, 1.6480005e+2, -1638836.0, -1488425.8, -81432.36, -0.11659452, -0.18329978, -1452784.0, -127841.19, 0.0008082668, 9.997846, 9.9998665 
1.7049852e+3, 1.7480099e+2, -1436897.9, -1313070.5, -34812.832, -0.035625655, -0.1293471, -1303954.4, -77017.2, 0.000020835996, 9.998462, 10.000092 
1.7049979e+3, 1.848017e+2, -1266320.3, -1154853.9, 58520.645, 0.046221692, -0.07166951, -1129773.4, -841.45386, 0.0, 9.998833, 10.000342 
1.7050107e+3, 1.9480184e+2, -1101586.3, -1003566.5, 26011.648, 0.04842773, -0.1451103, -997091.5, 33838.37, 0.0, 9.999212, 10.000516 
1.7050235e+3, 2.048017e+2, -1024660.2, -1013092.3, 32257.084, 0.0418369, -0.15830569, -986104.75, -53174.71, 0.0, 9.99948, 9.999641 
1.7050362e+3, 2.1480131e+2, -874315.94, -869694.1, 17500.46, 0.024273967, -0.21380882, -854352.6, -19420.307, 0.0, 9.999777, 9.999801 
1.7050485e+3, 2.2480094e+2, -746543.06, -803341.94, -4352.6416, 0.014066526, -0.202775, -746211.44, -9277.154, 0.0, 10.000142, 9.99943 
1.7050603e+3, 2.3480043e+2, -581444.94, -645357.3, -36666.117, 0.00512551, -0.2528875, -564763.7, 74173.77, 0.0, 10.00051, 9.999647 
1.7050731e+3, 2.4479966e+2, -577261.5, -791714.6, 34025.563, 0.03365848, -0.20114882, -571992.4, -31044.906, 0.0, 10.000698, 9.997899 
1.705087e+3, 2.5479844e+2, -466716.78, -666409.9, 54957.234, 0.09336706, -0.16212125, -452591.28, -9625.007, 0.0000000026261497, 10.000713, 9.998065 
1.7050993e+3, 2.6479775e+2, -245191.47, -408460.03, 34408.36, 0.08943513, -0.07372986, -238236.3, 106739.2, 0.0000021613648, 10.001101, 9.998995 
1.7051107e+3, 2.747976e+2, -30505.916, -227772.53, -22193.225, 0.019075805, -0.051427826, -28039.924, 218934.92, 0.000036656253, 10.001816, 9.999204 
1.7051233e+3, 2.8479615e+2, 22494.852, -304122.88, -10428.924, 0.06775697, -0.035901777, 22827.51, 171815.14, 0.00022921336, 10.002145, 9.997857 
1.7051372e+3, 2.9479307e+2, 126318.945, -171740.9, -56776.207, 0.2230129, -0.18748373, 136767.72, 187785.61, 0.00079328316, 10.0020685, 9.998116 
1.7051491e+3, 3.0479062e+2, 153157.45, -313208.84, 54819.645, 0.07116694, -0.15586331, 159514.64, 159514.64, 0.0018438247, 10.002687, 9.996512 
1.7051621e+3, 3.147906e+2, 473811.13, 113992.56, 47653.86, -0.04911956, 0.1307515, 480015.38, 480015.38, 0.0032716861, 10.003693, 9.99894 
1.7149243e+3, 1.2478355e+2, -2054383.5, -1626895.9, -123168.766, 0.11451592, -0.1809523, -1593947.6, 123163.234, 0.058051143, 9.996453, 10.002344 
1.714934e+3, 1.3478546e+2, -1901533.8, -1748574.4, 12355.493, -0.22320437, -0.032215014, -1747582.8, -128490.336, 0.037118543, 9.998011, 10.00003 
1.7149496e+3, 1.4478531e+2, -1612764.6, -1507230.6, -120060.59, 0.14659575, -0.065176114, -1428853.0, 92240.93, 0.018276531, 9.999068, 10.000507 
1.7149614e+3, 1.5478557e+2, -1642259.1, -1453105.8, -69904.85, 0.10933458, -0.1469367, -1430075.4, -6984.2583, 0.005915651, 9.99815, 10.000621 
1.7149727e+3, 1.6478677e+2, -1508020.4, -1230654.3, -82201.13, 0.017734485, -0.12581407, -1208123.1, 116954.33, 0.0009130136, 9.997908, 10.001602 
1.7149834e+3, 1.7478868e+2, -1320556.1, -1056624.5, 544.1763, -0.08912859, -0.15691851, -1056623.4, 170431.98, 0.000025810483, 9.998407, 10.001873 
1.7149958e+3, 1.8478994e+2, -1301312.5, -1227060.9, 56347.855, -0.087955005, -0.10943359, -1196707.8, -67664.945, 0.0, 9.998826, 9.999852 
1.7150103e+3, 1.9479038e+2, -1152060.6, -1087122.0, 55488.45, 0.04361294, -0.10043802, -1055301.1, -24259.467, 0.0, 9.999119, 9.999988 
1.7150234e+3, 2.0479035e+2, -1049785.8, -1023962.8, 26808.453, 0.0456146, -0.07556068, -1007118.6, -74076.31, 0.0, 9.999304, 9.999654 
1.7150351e+3, 2.1478984e+2, -911106.94, -881495.0, 43106.297, -0.079136916, -0.14663608, -850722.75, -15677.679, 0.0, 9.999503, 9.999851 
1.7150477e+3, 2.2478925e+2, -818540.44, -881280.75, -5676.9834, -0.10385348, -0.14377064, -818030.94, -80980.836, 0.0, 9.999825, 9.999054 
1.715061e+3, 2.3478842e+2, -644398.9, -724101.5, -5897.5645, -0.0034328112, -0.18251173, -643964.8, -4905.8745, 0.0, 10.000275, 9.9992285 
1.715074e+3, 2.4478771e+2, -557316.4, -666432.7, 16468.854, 0.029618554, -0.15456812, -554884.94, -13817.683, 0.0, 10.00035, 9.9989195 
1.7150868e+3, 2.5478688e+2, -437401.34, -540419.6, 72876.97, -0.004100948, -0.18300919, -399667.88, 43409.098, 0.0000000000058928205, 10.000434, 9.999064 
1.7150998e+3, 2.6478606e+2, -350376.88, -557067.25, 42694.117, 0.00054615375, -0.11300205, -341905.16, 3181.3774, 0.0000014626683, 10.000802, 9.998117 
1.7151132e+3, 2.747853e+2, -132507.0, -377519.25, 23834.533, 0.06791723, -0.057486415, -130209.94, 116885.97, 0.000032258973, 10.001544, 9.998306 
1.715126e+3, 2.847837e+2, -70883.89, -415054.63, -31653.955, 0.091503665, 0.012600675, -67996.836, 81116.72, 0.00021422842, 10.001784, 9.997272 
1.715138e+3, 2.9478097e+2, 48534.33, -269598.66, -27486.703, 0.053497653, -0.056735713, 50891.715, 102033.875, 0.00074612966, 10.001785, 9.9975815 
1.71515e+3, 3.0477837e+2, 163536.58, -171986.34, 74883.82, -0.12791196, -0.07177961, 179490.92, 179490.92, 0.001733618, 10.0022135, 9.997699 
1.715166e+3, 3.1477574e+2, 437117.22, 223547.92, 139989.14, -0.097705856, -0.17817637, 506400.5, 506400.5, 0.0030848195, 10.002941, 10.000039 
1.7249204e+3, 1.2477126e+2, -2019733.8, -1637650.4, -139263.06, 0.07847845, -0.15155955, -1592279.0, 124952.56, 0.06177432, 9.996796, 10.002096 
1.7249338e+3, 1.3477291e+2, -1817664.5, -1753839.4, 90592.22, -0.056072373, -0.01606866, -1689703.3, -70485.19, 0.039721623, 9.998772, 9.999607 
1.7249484e+3, 1.4477283e+2, -1671286.9, -1532342.4, -23963.545, 0.14775157, -0.017238114, -1528325.5, -7106.2725, 0.019743169, 9.998635, 10.000548 
1.7249595e+3, 1.547728e+2, -1610496.4, -1404578.0, 19840.92, 0.11192411, -0.15029944, -1402683.6, 20533.691, 0.006494274, 9.998195, 10.000958 
1.7249714e+3, 1.647741e+2, -1466028.0, -1211561.1, 55277.363, 0.08695224, -0.13577892, -1200072.1, 125129.33, 0.001032908, 9.998193, 10.001607 
1.7249829e+3, 1.7477597e+2, -1214762.0, -1008093.0, -29163.217, -0.005035378, -0.17098539, -1004056.56, 223122.47, 0.00003215152, 9.999129, 10.0018635 
1.7249957e+3, 1.8477705e+2, -1233856.1, -1223060.8, -24264.855, -0.003304773, -0.12863584, -1203600.4, -74431.86, 0.0, 9.999409, 9.999597 
1.7250098e+3, 1.9477747e+2, -1134456.3, -1101558.3, -38588.02, 0.09418752, -0.0936627, -1076059.6, -44890.668, 0.0, 9.999348, 9.999772 
1.725023e+3, 2.0477764e+2, -1019368.3, -973077.56, -9986.32, 0.08391474, -0.055944227, -971015.1, -37846.996, 0.0, 9.999355, 9.999989 
1.7250349e+3, 2.1477728e+2, -862498.5, -823587.2, 1621.3639, -0.053522535, -0.1427824, -823519.75, 11648.794, 0.0, 9.999672, 10.000181 
1.7250478e+3, 2.2477694e+2, -808969.5, -870269.7, 13316.695, -0.06502857, -0.13106905, -806201.6, -69030.2, 0.0, 9.999896, 9.999077 
1.7250617e+3, 2.3477665e+2, -665669.0, -733778.25, 2352.2085, 0.042128026, -0.11643411, -665587.9, -26411.059, 0.0, 10.000151, 9.9992075 
1.725075e+3, 2.4477604e+2, -520825.63, -634284.75, 40157.99, 0.08118181, -0.082132325, -508050.47, 33133.15, 0.0, 10.000513, 9.999063 
1.7250878e+3, 2.54775e+2, -353591.13, -478788.03, 3768.996, 0.033356633, -0.15019633, -353477.78, 89715.19, 0.0000000000049057277, 10.000908, 9.999253 
1.7251012e+3, 2.6477385e+2, -298870.53, -553178.75, 12259.39, 0.035488766, -0.11715356, -298280.94, 46924.094, 0.0000011502509, 10.0012665, 9.997908 
1.725115e+3, 2.747724e+2, -143748.64, -413557.03, 1154.9232, 0.100925304, -0.09999856, -143743.69, 103477.64, 0.000029351942, 10.001601, 9.998031 
1.7251283e+3, 2.847707e+2, -26279.057, -404641.97, 20434.3, 0.13197157, -0.018200185, -25178.658, 124061.95, 0.00020332959, 10.002164, 9.997142 
1.7251408e+3, 2.9476845e+2, 221941.92, -200010.3, -6020.01, 0.09521788, -0.021582922, 222027.8, 273293.25, 0.00070578046, 10.003069, 9.997419 
1.7251529e+3, 3.0476615e+2, 312033.25, -95794.81, 96902.0, -0.08107675, -0.0056108036, 333886.66, 333886.66, 0.0016366781, 10.003157, 9.997804 
1.7251693e+3, 3.1476256e+2, 282429.28, 90623.85, 711.54266, 0.005785282, -0.19786635, 282431.9, 282431.9, 0.002919005, 10.002022, 9.99963 
1.7349169e+3, 1.2475919e+2, -2016309.5, -1644700.6, 19593.111, -0.05334373, -0.002790631, -1643670.5, 73681.33, 0.06561491, 9.996887, 10.001969 
1.7349328e+3, 1.3475904e+2, -1755617.9, -1632554.3, 123480.23, -0.07797241, -0.17229678, -1556124.0, 63230.45, 0.042436883, 9.998796, 10.000444 
1.734947e+3, 1.4476086e+2, -1623625.4, -1454503.3, -73337.18, 0.084006585, -0.031065848, -1427131.6, 94202.48, 0.021297567, 9.998723, 10.001047 
1.7349559e+3, 1.5476114e+2, -1546380.3, -1274850.5, 15195.986, -0.10233712, -0.22382835, -1274002.6, 149322.95, 0.0071235094, 9.998209, 10.001844 
1.7349684e+3, 1.6476212e+2, -1561877.6, -1447103.0, 70001.26, -0.08797164, -0.2050164, -1413972.5, -88658.94, 0.0011691477, 9.998334, 9.999927 
1.7349833e+3, 1.7476282e+2, -1341497.3, -1278902.9, 17559.123, 0.08910476, -0.17621408, -1274313.6, -47004.926, 0.00004011834, 9.99915, 9.999999 
1.7349969e+3, 1.8476306e+2, -1236633.9, -1230810.6, -48216.117, 0.13052405, -0.117078505, -1185418.3, -56109.375, 0.0, 9.999416, 9.999537 
1.7350091e+3, 1.9476311e+2, -1157255.9, -1113393.8, -29641.258, 0.056084134, -0.12366338, -1098452.4, -67140.26, 0.0, 9.999192, 9.999765 
1.7350219e+3, 2.0476346e+2, -999995.06, -890397.1, -15874.505, -0.0074906074, -0.10113655, -888144.1, 45164.414, 0.0, 9.999166, 10.000647 
1.7350349e+3, 2.1476376e+2, -846037.06, -744849.7, 29060.83, -0.046243332, -0.18990745, -737097.4, 98203.875, 0.0, 9.999476, 10.0008135 
1.7350481e+3, 2.247642e+2, -830864.2, -848349.8, 6640.279, -0.053625803, -0.14798361, -828628.4, -91331.91, 0.0, 9.999607, 9.999364 
1.7350616e+3, 2.347648e+2, -679650.3, -706340.4, 29682.469, -0.004370989, -0.076497406, -660450.94, -21156.973, 0.0, 9.999901, 9.9995165 
1.7350753e+3, 2.4476443e+2, -611622.1, -742047.3, 41510.63, 0.029099032, -0.0059056696, -599531.4, -58232.32, 0.0, 10.000178, 9.998482 
1.7350893e+3, 2.547629e+2, -434027.1, -581617.9, 40766.95, 0.052578073, -0.063060194, -423515.3, 19798.262, 0.000000000000012544113, 10.000641, 9.998674 
1.7351027e+3, 2.6476106e+2, -329633.9, -534114.8, 8972.526, 0.024796093, -0.08377744, -329240.97, 16089.869, 0.0000010511417, 10.000917, 9.998202 
1.7351155e+3, 2.7475888e+2, -164792.67, -384978.94, 37273.2, -0.037008375, -0.1764759, -158654.17, 88696.766, 0.000029114979, 10.001308, 9.998355 
1.7351295e+3, 2.84757e+2, -77365.85, -434829.13, 30276.484, 0.010966322, -0.12769452, -74819.625, 74550.82, 0.00019954766, 10.001833, 9.997097 
1.7351447e+3, 2.9475507e+2, 160182.63, -235498.89, 53239.5, 0.15817754, -0.10185963, 167220.88, 218613.5, 0.0006844002, 10.002672, 9.997367 
1.7351572e+3, 3.0475348e+2, 163991.02, -277294.2, 31757.22, -0.012305131, 0.040629696, 166264.72, 166264.72, 0.0015865878, 10.002644, 9.996784 
1.735171e+3, 3.1475e+2, 58618.52, -177490.27, 22203.777, -0.105277486, -0.061812654, 60688.426, 60688.426, 0.0028415923, 10.001239, 9.998126 
1.7449155e+3, 1.24746844e+2, -2043238.6, -1753266.9, 79849.16, 0.12877561, 0.06384398, -1732733.0, -15261.837, 0.06957688, 9.997178, 10.001046 
1.744932e+3, 1.3474613e+2, -1953634.4, -1618857.6, 137066.36, 0.043590557, -0.2401235, -1569898.9, 49579.883, 0.045260757, 9.996976, 10.001422 
1.7449452e+3, 1.4474888e+2, -1710068.8, -1506433.1, -19150.871, 0.070803225, -0.058302265, -1504647.8, 16802.422, 0.022935338, 9.998192, 10.000917 
1.7449544e+3, 1.5474968e+2, -1372914.3, -1214195.6, -62850.113, -0.11450523, -0.18184026, -1192322.3, 231115.33, 0.0078018596, 9.999509, 10.001614 
1.7449673e+3, 1.6475026e+2, -1391036.1, -1430450.9, 20198.822, -0.08599202, -0.1657751, -1382523.5, -57093.152, 0.0013223152, 9.999793, 9.999343 
1.7449832e+3, 1.7474988e+2, -1302664.3, -1319359.4, 31378.295, 0.1406108, -0.18501233, -1278542.1, -51106.39, 0.000049909977, 9.999679, 9.999473 
1.744997e+3, 1.8474968e+2, -1183402.3, -1179199.0, 51136.25, 0.200014, -0.15548213, -1130121.3, -681.7196, 0.0000000000000006446772, 9.999691, 9.999744 
1.7450088e+3, 1.9474971e+2, -1013832.0, -1018558.7, 50921.156, 0.06422615, -0.18723643, -965219.4, 66221.61, 0.0, 10.000079, 9.99997 
1.7450213e+3, 2.0475022e+2, -879333.56, -854408.5, 70807.625, -0.004384884, -0.14915507, -794975.06, 138460.94, 0.0, 10.000074, 10.000464 
1.7450349e+3, 2.1475108e+2, -812624.0, -744856.06, 16478.39, -0.0048470297, -0.1637727, -741061.6, 94364.1, 0.0, 9.999773, 10.000673 
1.7450485e+3, 2.2475149e+2, -772614.94, -834345.9, 3154.9321, 0.0061283475, -0.113706924, -772454.1, -35032.24, 0.0, 10.000043, 9.999268 
1.7450622e+3, 2.3475136e+2, -533418.94, -644076.0, -30274.994, 0.02385081, -0.10174256, -525677.5, 113747.55, 0.0, 10.000938, 9.999449 
1.7450763e+3, 2.4475071e+2, -433519.5, -679543.7, -3694.752, 0.06629391, -0.046101034, -433464.03, 107968.8, 0.0, 10.001545, 9.998239 
1.745091e+3, 2.547492e+2, -279774.7, -535170.94, -22785.67, 0.11832417, -0.06821058, -277757.75, 165690.11, 0.0, 10.001861, 9.998395 
1.7451048e+3, 2.6474732e+2, -184260.1, -489775.0, -37802.12, 0.10251288, -0.06757996, -179652.23, 165813.95, 0.0000010008785, 10.002001, 9.9979925 
1.7451173e+3, 2.7474496e+2, -79712.516, -370207.5, -86810.24, 0.00063428207, -0.15428472, -55747.566, 191740.9, 0.000030147008, 10.001978, 9.998141 
1.7451318e+3, 2.84743e+2, -41241.215, -403024.56, -55961.33, 0.046298575, -0.11067514, -32782.77, 116725.79, 0.00019899277, 10.0019865, 9.997257 
1.7451476e+3, 2.94741e+2, 55850.23, -284134.97, -71784.71, 0.22137558, -0.10629305, 70385.484, 121916.27, 0.00068156485, 10.001888, 9.997438 
1.7451599e+3, 3.0473933e+2, 74911.695, -266480.9, -14609.441, 0.056642678, 0.0053147306, 75535.74, 75535.74, 0.0015937911, 10.001778, 9.9972925 
1.7451732e+3, 3.1473714e+2, 194217.3, -96730.61, -5283.967, -0.007689141, -0.016735721, 194313.22, 194313.22, 0.002881364, 10.002059, 9.9983 
1.754913e+3, 1.2473237e+2, -2113672.0, -1939756.9, -272278.94, 0.06366123, -0.10195566, -1740886.8, -23279.277, 0.07366958, 9.997325, 9.999708 
1.7549297e+3, 1.3473414e+2, -1869785.4, -1444881.4, 174189.19, 0.09188372, -0.232896, -1382601.4, 236990.75, 0.048192136, 9.996955, 10.00268 
1.7549427e+3, 1.4473735e+2, -1736787.0, -1597758.6, 24201.557, -0.06400211, -0.061847635, -1593666.3, -72103.9, 0.024652572, 9.998338, 10.000226 
1.754955e+3, 1.5473844e+2, -1465033.6, -1419997.3, -4830.072, -0.0528315, -0.017121734, -1419485.0, 4068.3806, 0.008527423, 9.999559, 10.000178 
1.7549677e+3, 1.647382e+2, -1340582.9, -1338027.4, -16180.471, -0.08405381, -0.032463558, -1323074.3, 2480.2366, 0.0014925194, 9.999858, 9.999942 
1.7549819e+3, 1.7473707e+2, -1256016.5, -1205746.0, 40918.35, 0.007814021, -0.20416522, -1182859.5, 44701.707, 0.00006156021, 9.99962, 10.000274 
1.7549956e+3, 1.847369e+2, -1149701.9, -1109068.5, 46980.297, 0.04554011, -0.23886311, -1078200.0, 51360.04, 0.0000000010737394, 9.999686, 10.000228 
1.7550083e+3, 1.9473729e+2, -1000056.4, -970518.44, 77198.07, -0.022147134, -0.27584815, -906689.3, 124866.12, 0.0, 9.999992, 10.000344 
1.755021e+3, 2.0473793e+2, -976855.44, -1019342.75, 41870.984, -0.0728577, -0.19152366, -951147.3, -17596.693, 0.0, 9.999912, 9.999408 
1.7550343e+3, 2.1473894e+2, -918751.6, -913001.2, 18302.88, -0.06024626, -0.08831583, -897349.06, -61804.348, 0.0, 9.999544, 9.99963 
1.7550483e+3, 2.2473857e+2, -848885.8, -922526.56, 19510.326, -0.04158332, -0.038219586, -844036.2, -106486.42, 0.0, 9.999743, 9.998806 
1.755063e+3, 2.347365e+2, -601482.1, -730133.1, 20591.074, -0.018368162, -0.1796925, -598266.8, 41301.96, 0.0, 10.000695, 9.998977 
1.7550777e+3, 2.4473491e+2, -488604.72, -718364.0, -5135.19, 0.00744187, -0.18802652, -488490.0, 53094.555, 0.0, 10.001221, 9.998128 
1.7550926e+3, 2.5473374e+2, -324590.78, -567081.44, 6638.6475, 0.07281864, -0.17061625, -324409.2, 119188.766, 0.0, 10.001598, 9.998301 
1.7551069e+3, 2.6473227e+2, -282086.22, -627042.44, -58786.383, 0.093635604, -0.08308838, -272343.22, 73271.7, 0.00000094846536, 10.00171, 9.997195 
1.7551203e+3, 2.7473056e+2, -175235.05, -498987.56, -66185.73, 0.057471592, -0.0305746, -162227.14, 85407.64, 0.000030605133, 10.001684, 9.997396 
1.755134e+3, 2.8472874e+2, -70448.266, -385191.22, -74001.78, 0.04739294, 0.04573633, -53917.344, 95737.26, 0.00020047408, 10.001648, 9.997541 
1.7551485e+3, 2.9472622e+2, 17349.398, -274120.9, -50583.277, 0.085051805, -0.03054404, 25878.313, 77557.664, 0.00069770816, 10.001514, 9.997682 
1.7551604e+3, 3.0472398e+2, 116339.555, -69895.836, -35686.688, -0.10099564, -0.06374897, 122943.695, 122943.695, 0.001653074, 10.001316, 9.998855 
1.7551757e+3, 3.1472442e+2, 165995.77, 46770.215, 79859.11, -0.029919647, -0.011885087, 206038.19, 206038.19, 0.0030124004, 10.001248, 9.999648 
1.7649087e+3, 1.2471786e+2, -2120808.5, -1940034.0, -263502.53, -0.06670827, -0.2946129, -1751847.3, -34099.59, 0.07790593, 9.997233, 9.999752 
1.7649284e+3, 1.3472225e+2, -1693797.0, -1353736.5, 154401.61, 0.22830169, -0.16939603, -1294092.8, 325613.28, 0.05123237, 9.998101, 10.002785 
1.7649406e+3, 1.4472449e+2, -1728303.4, -1633200.1, 4639.821, -0.083378784, -0.09016915, -1632974.3, -111287.7, 0.026445003, 9.998566, 9.999884 
1.7649549e+3, 1.5472525e+2, -1576314.8, -1518561.8, -2900.5957, 0.011413891, -0.02996688, -1518416.5, -94733.64, 0.009296644, 9.999022, 9.999758 
1.7649679e+3, 1.6472505e+2, -1381514.9, -1341012.1, 26492.502, -0.005478189, -0.027414437, -1327917.3, -2232.9475, 0.0016790463, 9.999516, 10.000077 
1.7649819e+3, 1.7472398e+2, -1151542.8, -1143921.8, -890.417, 0.030319871, -0.20715098, -1143819.1, 83870.055, 0.000074904594, 10.00028, 10.000378 
1.7649956e+3, 1.8472388e+2, -1078126.6, -1094051.1, -26813.889, 0.05555018, -0.23387207, -1058117.8, 71569.54, 0.000000009428086, 10.000255, 10.000067 
1.7650083e+3, 1.9472446e+2, -1040517.1, -1005856.44, -73275.73, -0.009791377, -0.23283626, -947889.56, 83791.734, 0.0, 9.99978, 10.0002165 
1.7650212e+3, 2.0472488e+2, -999748.25, -1067422.6, -60584.344, -0.040631097, -0.1454556, -964192.25, -30513.297, 0.0, 9.999931, 9.999063 
1.765035e+3, 2.1472517e+2, -756230.44, -873188.06, -63247.508, -0.011503554, -0.07439497, -728569.75, 107110.45, 0.0, 10.000845, 9.9992695 
1.7650492e+3, 2.2472428e+2, -624242.5, -829449.3, 14112.564, 0.0008889348, -0.052486204, -623276.5, 114413.42, 0.0, 10.001364, 9.998656 
1.7650639e+3, 2.3472191e+2, -483117.78, -686097.3, -2073.8682, -0.030677948, -0.20569879, -483096.6, 156613.89, 0.0, 10.00158, 9.998846 
1.7650788e+3, 2.4472018e+2, -438046.47, -734980.2, -8633.754, -0.0072144815, -0.20592995, -437795.63, 103932.445, 0.0, 10.001691, 9.997812 
1.7650943e+3, 2.5471905e+2, -342994.56, -616861.2, -39612.6, 0.08169157, -0.15043366, -337380.03, 106363.305, 0.0, 10.001602, 9.997978 
1.765109e+3, 2.6471755e+2, -271702.53, -604294.3, -39845.21, 0.13456699, -0.05367061, -266995.6, 78765.27, 0.0000007067664, 10.001727, 9.997331 
1.7651227e+3, 2.747157e+2, -100603.836, -445487.66, -26761.299, 0.121238776, -0.03253192, -98539.64, 149241.72, 0.000029110019, 10.002134, 9.997539 
1.7651364e+3, 2.847138e+2, 38916.688, -309793.06, 18756.54, 0.09391512, 0.023731584, 39922.668, 189723.3, 0.0002034409, 10.002324, 9.99773 
1.76515e+3, 2.9471156e+2, 155859.31, -192184.14, -24811.615, 0.067018636, -0.035922617, 157619.2, 209441.44, 0.0007263894, 10.002422, 9.997806 
1.765162e+3, 3.0470872e+2, 278080.66, 22365.902, -18769.59, -0.098646946, -0.13984953, 279451.03, 279451.03, 0.0017327985, 10.002333, 9.999009 
1.7651786e+3, 3.147091e+2, 251058.48, 103705.76, -85800.12, 0.1303268, -0.09623404, 290474.4, 290474.4, 0.003152883, 10.001696, 9.999855 
1.7749056e+3, 1.2470592e+2, -2008362.3, -1758599.0, -133174.89, -0.20204256, -0.29288736, -1700913.0, 16953.836, 0.08231803, 9.997415, 10.000938 
1.7749284e+3, 1.3471094e+2, -1767790.1, -1513875.3, 198790.61, 0.3820417, -0.020635732, -1404960.1, 214856.11, 0.054393712, 9.998148, 10.001627 
1.7749386e+3, 1.4470983e+2, -1717176.9, -1633201.9, -2835.1443, -0.20681591, -0.19241016, -1633106.3, -111279.164, 0.02831169, 9.998662, 9.999839 
1.7749533e+3, 1.5471007e+2, -1533395.5, -1436014.8, 26368.047, -0.08420556, -0.23448987, -1429333.5, -5507.0244, 0.010105246, 9.99904, 10.0003195 
1.7749679e+3, 1.6471082e+2, -1398451.3, -1389605.5, 35672.086, -0.0070806327, -0.15543708, -1358083.1, -32263.62, 0.0018804772, 9.999572, 9.999717 
1.774983e+3, 1.7471066e+2, -1193569.4, -1226507.5, 41184.42, 0.07179964, -0.19172613, -1165683.3, 62136.652, 0.00008970714, 10.000262, 9.999818 
1.7749964e+3, 1.847106e+2, -1134848.6, -1214327.8, -61846.098, 0.058802776, -0.14037117, -1101075.1, 28746.258, 0.000000028818846, 10.000265, 9.999236 
1.775008e+3, 1.9471112e+2, -1108567.1, -1124113.5, -75651.91, -0.041606713, -0.06956855, -1040290.06, -8470.297, 0.0, 9.9996805, 9.999454 
1.7750213e+3, 2.0471099e+2, -1005398.44, -1036398.8, -45801.598, -0.06802086, -0.01625372, -972545.3, -38723.14, 0.0, 9.999753, 9.999355 
1.7750362e+3, 2.1470974e+2, -775740.5, -853927.0, -15397.56, 0.007589949, -0.12817399, -772817.44, 63015.19, 0.0, 10.000595, 9.999516 
1.7750506e+3, 2.2470854e+2, -664921.75, -852408.2, 8136.259, -0.023156226, -0.14750741, -664569.3, 73273.54, 0.0, 10.001086, 9.998635 
1.7750645e+3, 2.3470734e+2, -508718.25, -698914.6, 24419.629, -0.15030748, -0.19156875, -505633.03, 134219.95, 0.0, 10.001387, 9.998857 
1.7750794e+3, 2.4470618e+2, -513854.66, -815340.9, -28333.152, -0.14208834, -0.11533166, -511215.06, 30651.547, 0.0, 10.001371, 9.997408 
1.7750953e+3, 2.5470507e+2, -412913.9, -698560.0, -23459.525, 0.01560852, -0.015170057, -411000.03, 32884.113, 0.0, 10.00134, 9.997539 
1.7751104e+3, 2.6470324e+2, -258132.95, -499340.25, -37711.953, 0.07263818, 0.023145242, -252374.3, 93529.62, 0.00000032366296, 10.001405, 9.998204 
1.775124e+3, 2.7470043e+2, -86668.664, -334867.06, 11855.563, 0.0313777, -0.13774712, -86103.66, 161823.92, 0.00002512301, 10.001805, 9.998446 
1.7751381e+3, 2.846983e+2, -26145.05, -365371.13, -1945.7465, -0.0066787973, -0.14072703, -26133.89, 123812.51, 0.00020101898, 10.001976, 9.997519 
1.775152e+3, 2.9469687e+2, 93453.18, -239571.61, 3524.472, -0.020369409, -0.10981315, 93490.48, 145450.88, 0.0007432089, 10.002074, 9.997642 
1.7751645e+3, 3.046935e+2, 120031.91, -195933.72, -58826.125, -0.14227673, -0.20070428, 130628.69, 130628.69, 0.0017748394, 10.001875, 9.997724 
1.7751813e+3, 3.1469315e+2, 72304.266, -54728.33, -24220.572, 0.16107881, -0.097816154, 76765.586, 76765.586, 0.0031987038, 10.000858, 9.999132 
1.7849046e+3, 1.24694526e+2, -1886718.8, -1659857.8, -90892.336, -0.07000912, -0.16178668, -1627933.9, 90044.28, 0.08696164, 9.998106, 10.001298 
1.7849264e+3, 1.3469806e+2, -1790087.8, -1627031.3, 127371.47, 0.36298722, 0.059424594, -1557330.0, 62611.19, 0.057701517, 9.998509, 10.0006075 
1.7849377e+3, 1.4469436e+2, -1767436.5, -1660333.5, -5300.134, -0.12715822, -0.31321654, -1660071.9, -138094.44, 0.030258754, 9.998338, 9.999806 
1.7849529e+3, 1.5469533e+2, -1463743.0, -1393237.5, -39280.574, -0.040515218, -0.2918631, -1375710.4, 48259.426, 0.0109521225, 9.99947, 10.000407 
1.7849678e+3, 1.6469687e+2, -1361201.4, -1360581.4, -22256.516, 0.025289236, -0.14696626, -1338632.8, -12676.796, 0.0020959692, 9.999784, 9.999805 
1.784983e+3, 1.7469709e+2, -1313661.1, -1272178.5, -12987.154, 0.10293119, -0.15353876, -1268448.0, -40494.375, 0.000105867584, 9.999406, 9.999907 
1.7849965e+3, 1.8469694e+2, -1240552.3, -1300382.4, -28867.45, 0.10299406, -0.09971954, -1228895.1, -98938.37, 0.0000000562377, 9.999688, 9.99893 
1.7850086e+3, 1.9469696e+2, -933338.2, -1071774.6, -32989.426, -0.0065726344, -0.048380103, -925878.7, 106081.62, 0.0, 10.001009, 9.999173 
1.785022e+3, 2.0469631e+2, -798001.06, -947570.6, 15365.233, -0.018100597, -0.02667642, -796438.94, 137528.19, 0.0, 10.001224, 9.999257 
1.7850372e+3, 2.1469453e+2, -809223.4, -879710.4, -17914.234, 0.074886456, -0.18622307, -804931.8, 31049.592, 0.0, 10.0004015, 9.999434 
1.7850518e+3, 2.2469337e+2, -754404.06, -872284.0, 56424.89, 0.045272153, -0.2045754, -731749.4, 6241.0283, 0.0, 10.000387, 9.998838 
1.785066e+3, 2.3469299e+2, -505912.06, -674242.25, 51401.426, -0.12245223, -0.18338181, -491457.3, 148535.56, 0.0, 10.001323, 9.99906 
1.785081e+3, 2.446922e+2, -440379.53, -743900.1, 31579.385, -0.117659725, -0.09382313, -437128.72, 104873.71, 0.0, 10.001741, 9.997708 
1.7850971e+3, 2.546909e+2, -350807.2, -635072.3, 51735.332, 0.05804777, -0.04470283, -341684.3, 102336.15, 0.0, 10.001639, 9.997819 
1.7851125e+3, 2.6468903e+2, -204837.95, -480360.56, 78332.63, 0.12535404, -0.021360947, -184124.72, 161915.31, 0.00000018370703, 10.001768, 9.998178 
1.7851262e+3, 2.7468625e+2, -32925.535, -325514.53, 24843.13, 0.04753545, -0.17243035, -30831.148, 217233.25, 0.000020759246, 10.002192, 9.998356 
1.7851402e+3, 2.8468412e+2, 24526.154, -330921.3, 14418.128, 0.017434925, -0.17325547, 25110.041, 175193.39, 0.00019262578, 10.002296, 9.997588 
1.7851546e+3, 2.946828e+2, 108263.34, -228383.11, -14771.116, 0.05387076, -0.12940542, 108910.22, 161005.22, 0.00073903677, 10.002153, 9.997677 
1.7851675e+3, 3.0467927e+2, 187520.83, -202644.94, 9263.932, -0.034160282, -0.22135703, 187740.67, 187740.67, 0.0017591042, 10.002521, 9.997358 
1.7851841e+3, 3.1467777e+2, 389734.1, 56029.59, 14688.727, 0.27912685, -0.17618753, 390379.38, 390379.38, 0.003118364, 10.003185, 9.998798 
1.7949048e+3, 1.2468073e+2, -1898818.8, -1730822.1, -216009.31, 0.04463066, -0.21519183, -1583053.9, 135057.13, 0.09190124, 9.998319, 10.000728 
1.7949212e+3, 1.3468347e+2, -1826349.4, -1738289.5, 117522.016, -0.054843046, 0.047228705, -1656820.1, -36737.5, 0.06119029, 9.998634, 9.999782 
1.7949378e+3, 1.4467813e+2, -1769863.5, -1673845.3, 2746.3877, -0.0018025838, -0.4561863, -1673766.8, -151630.16, 0.03230053, 9.998384, 9.999687 
1.7949533e+3, 1.5468115e+2, -1498823.4, -1460411.3, 18394.365, 0.015299812, -0.18959889, -1453023.5, -28911.79, 0.011841973, 9.999458, 9.999945 
1.7949672e+3, 1.6468313e+2, -1311114.5, -1280336.1, -56315.125, -0.070145056, 0.0059619863, -1237345.4, 88748.63, 0.0023264778, 9.999873, 10.000322 
1.7949817e+3, 1.7468308e+2, -1263547.5, -1172708.9, -18066.467, -0.0039913603, -0.09280616, -1169247.6, 58844.813, 0.00012352158, 9.999414, 10.000593 
1.794996e+3, 1.8468268e+2, -1218162.0, -1256854.6, -1311.4082, 0.023614498, -0.11744091, -1218117.6, -88022.07, 0.000000085167756, 9.999707, 9.999215 
1.7950095e+3, 1.9468196e+2, -936609.56, -1053380.8, 26360.748, -0.047330167, -0.16208634, -930934.5, 101169.03, 0.0, 10.000904, 9.999348 
1.7950232e+3, 2.0468098e+2, -854802.1, -1025254.75, -32921.582, -0.059914175, -0.1596935, -848664.6, 85448.51, 0.0, 10.001043, 9.998816 
1.7950377e+3, 2.1467958e+2, -869754.5, -958585.4, -34535.906, 0.053182703, -0.23608555, -857907.5, -21781.64, 0.0, 10.000192, 9.9990015 
1.7950526e+3, 2.2467874e+2, -779104.1, -852305.1, 72627.64, 0.049315944, -0.21415079, -734375.9, 3757.0127, 0.0, 10.000084, 9.999121 
1.795068e+3, 2.3467866e+2, -526940.06, -651324.75, 103310.9, -0.08274871, -0.19403338, -468546.2, 171586.11, 0.0, 10.001041, 9.99935 
1.7950834e+3, 2.4467796e+2, -429073.47, -642291.1, 15029.207, -0.09441041, -0.15250933, -428019.3, 114118.85, 0.0, 10.001404, 9.9985695 
1.7950991e+3, 2.5467643e+2, -327573.47, -521813.28, 63671.55, 0.061476097, -0.21730755, -308562.66, 135590.06, 0.0, 10.0013685, 9.998722 
1.7951144e+3, 2.6467475e+2, -317793.94, -639990.06, 75447.234, 0.11490145, -0.17612353, -301001.94, 45169.113, 0.00000013255313, 10.001443, 9.99724 
1.7951283e+3, 2.7467296e+2, -144773.1, -480222.56, 58308.27, 0.014488331, -0.13973425, -134926.89, 113266.266, 0.0000188634, 10.001877, 9.997436 
1.7951426e+3, 2.8467122e+2, -16323.864, -334446.13, -11357.702, -0.018755842, -0.06095182, -15918.884, 134292.08, 0.00018772876, 10.00194, 9.997741 
1.7951575e+3, 2.9466954e+2, 66384.836, -215386.08, 10880.455, 0.088091336, -0.07861583, 66804.36, 119029.1, 0.00073121197, 10.001743, 9.997954 
1.7951706e+3, 3.04666e+2, 121750.92, -234252.94, 12146.269, -0.003746859, -0.17861849, 122164.85, 122164.85, 0.0017173345, 10.0020485, 9.997379 
1.7951864e+3, 3.1466335e+2, 321125.16, 82994.61, 117968.48, 0.108684525, -0.27844873, 369669.88, 369669.88, 0.002973509, 10.002502, 9.999286 
1.8049051e+3, 1.24665275e+2, -1786061.8, -1693408.1, -201333.89, 0.20361575, -0.29491985, -1533139.9, 185124.33, 0.097200245, 9.999228, 10.000553 
1.8049194e+3, 1.3466828e+2, -1750507.5, -1722311.0, 40124.62, -0.11407255, 0.025730662, -1693879.9, -73646.45, 0.06490086, 9.999263, 9.99958 
1.8049374e+3, 1.446636e+2, -1689843.6, -1637866.1, 13057.248, 0.09645296, -0.40609115, -1634770.4, -112490.305, 0.034457777, 9.998922, 9.99968 
1.8049528e+3, 1.5466644e+2, -1578387.3, -1505292.9, 28205.492, 0.056449767, -0.15469646, -1495674.6, -71418.61, 0.0127833225, 9.99893, 9.999893 
1.8049663e+3, 1.6466813e+2, -1427543.1, -1322333.3, -20052.45, -0.07961098, 0.007555287, -1318641.0, 7599.905, 0.0025744103, 9.999016, 10.00045 
1.8049808e+3, 1.7466822e+2, -1232470.3, -1134928.3, -53105.793, -0.023677528, -0.09250821, -1111596.4, 116641.945, 0.00014305822, 9.999535, 10.000787 
1.8049957e+3, 1.8466802e+2, -1201423.6, -1206591.6, -5404.4365, 0.045758057, -0.12805331, -1198017.3, -67778.125, 0.00000010953618, 9.999632, 9.9996 
1.8050103e+3, 1.9466737e+2, -1124088.1, -1098005.9, 3533.8445, 0.018093864, -0.20368731, -1097535.6, -65291.254, 0.0, 9.999428, 9.999754 
1.8050243e+3, 2.0466663e+2, -1038027.1, -1130369.6, -14427.934, 0.014010229, -0.19210072, -1035825.4, -101573.82, 0.0, 9.99985, 9.998685 
1.8050385e+3, 2.1466568e+2, -744683.56, -913088.56, -25769.23, 0.073974565, -0.20658694, -740828.6, 95432.984, 0.0, 10.001113, 9.998877 
1.8050537e+3, 2.2466485e+2, -598492.7, -794723.5, 98555.38, 0.08187336, -0.16514982, -557540.5, 180729.36, 0.0, 10.001458, 9.998844 
1.8050697e+3, 2.3466417e+2, -566573.4, -704083.4, 52332.504, 0.006080563, -0.17316976, -548922.7, 91353.516, 0.0, 10.000919, 9.999038 
1.8050854e+3, 2.4466316e+2, -494388.16, -641207.2, -51505.54, -0.0011976566, -0.16132519, -478121.72, 64162.62, 0.0, 10.000794, 9.998895 
1.8051003e+3, 2.5466156e+2, -347559.66, -500720.53, -77988.445, 0.07798399, -0.25857094, -314838.84, 129457.96, 0.0, 10.00107, 9.999042 
1.8051158e+3, 2.646601e+2, -314767.03, -616391.8, -6019.726, 0.12164802, -0.21795359, -314646.94, 31664.713, 0.00000007008213, 10.001387, 9.997418 
1.8051305e+3, 2.7465877e+2, -139866.81, -469595.8, 11927.426, 0.07041289, -0.13994513, -139435.92, 108893.46, 0.000018211349, 10.001867, 9.997519 
1.8051454e+3, 2.846571e+2, 25345.098, -305179.25, 2126.2983, 0.07512659, -0.06419439, 25358.775, 175706.03, 0.00018396454, 10.002173, 9.997832 
1.8051603e+3, 2.946549e+2, 181874.78, -155736.14, -34998.42, 0.18168059, -0.13062842, 185464.72, 237831.0, 0.0007180549, 10.002498, 9.998013 
1.805174e+3, 3.0465195e+2, 231214.42, -199698.0, 11335.201, 0.107518464, -0.1749121, 231512.39, 231512.39, 0.0016645552, 10.002904, 9.99719 
1.8051895e+3, 3.146499e+2, 375709.6, 55605.68, -8119.1196, 0.16783826, -0.16592938, 375915.38, 375915.38, 0.002832551, 10.003004, 9.998905 
1.8149036e+3, 1.24649994e+2, -1756654.1, -1683745.1, -33055.77, 0.048373118, -0.21418506, -1670989.8, 47430.367, 0.10291468, 9.999393, 10.000501 
1.8149209e+3, 1.3465227e+2, -1726861.5, -1675080.1, 44577.668, 0.06759414, -0.0052638086, -1649419.9, -29024.408, 0.06887483, 9.9992695, 9.999904 
1.8149358e+3, 1.446505e+2, -1651317.4, -1575842.9, -15254.288, -0.017135533, -0.17995788, -1572876.4, -50465.4, 0.036753505, 9.998996, 10.000072 
1.8149509e+3, 1.5465102e+2, -1539529.6, -1435035.8, 41321.145, -0.06709936, -0.20329705, -1420670.5, 3733.846, 0.01378539, 9.998965, 10.000363 
1.8149649e+3, 1.6465178e+2, -1431456.4, -1348559.5, -21364.768, -0.18385975, -0.15026937, -1343377.1, -16980.28, 0.002842686, 9.999092, 10.000232 
1.81498e+3, 1.7465256e+2, -1259589.8, -1192785.6, -19760.633, -0.08276741, -0.14918575, -1187378.3, 41012.902, 0.00016504708, 9.999532, 10.000394 
1.8149956e+3, 1.8465306e+2, -1165100.4, -1131645.3, -31443.89, 0.019829443, -0.115907654, -1112756.4, 17629.83, 0.00000012908751, 9.99963, 10.000117 
1.8150103e+3, 1.9465327e+2, -1089992.5, -1014079.5, 8162.795, 0.058345005, -0.16508737, -1013211.7, 19170.38, 0.0, 9.999365, 10.000362 
1.8150248e+3, 2.0465322e+2, -1054892.4, -1122950.6, 15811.8545, 0.042998344, -0.124291085, -1051398.1, -117015.6, 0.0, 9.999673, 9.998817 
1.815039e+3, 2.1465267e+2, -774083.6, -917164.75, 37970.63, 0.01100588, -0.108400084, -764631.44, 71758.38, 0.0, 10.000868, 9.998965 
1.8150544e+3, 2.2465153e+2, -710102.94, -948737.44, 65602.15, -0.0069131944, -0.062142506, -693257.56, 45145.406, 0.0, 10.001124, 9.997946 
1.8150708e+3, 2.346496e+2, -671511.94, -860897.9, 49065.863, 0.003266535, -0.101478115, -659554.94, -19131.328, 0.0, 10.000656, 9.998087 
1.8150862e+3, 2.4464776e+2, -563492.56, -712974.3, -54330.38, -0.0139945, -0.10525735, -545832.2, -3391.1667, 0.0, 10.000488, 9.998543 
1.8151006e+3, 2.5464606e+2, -398708.25, -548765.06, -48557.92, -0.033303697, -0.19101283, -384365.9, 60088.21, 0.0, 10.000826, 9.998819 
1.8151161e+3, 2.6464486e+2, -294179.75, -497809.66, -4595.6685, -0.0098324185, -0.16437672, -294076.1, 52387.508, 0.0000000874347, 10.001055, 9.998395 
1.8151325e+3, 2.746439e+2, -117506.61, -341591.25, 51561.38, 0.057378113, -0.16074438, -106211.76, 142260.25, 0.00001648955, 10.001532, 9.998549 
1.8151481e+3, 2.8464204e+2, -41533.01, -364081.5, -6958.5684, 0.094968036, -0.14219113, -41382.96, 109106.7, 0.00017264318, 10.001816, 9.997604 
1.8151629e+3, 2.9463923e+2, 123758.23, -200761.22, 3657.2468, 0.14091896, -0.26248816, 123799.44, 176316.89, 0.000683164, 10.002166, 9.997862 
1.815177e+3, 3.046371e+2, 107059.63, -348647.06, -5499.517, 0.068922795, -0.17732303, 107125.99, 107125.99, 0.0015935485, 10.002447, 9.996384 
1.8151914e+3, 3.1463513e+2, 200457.52, -85617.76, 42128.11, -0.021994278, -0.09301816, 206532.4, 206532.4, 0.0027236447, 10.002128, 9.998312 
1.824903e+3, 1.2463515e+2, -1840056.4, -1806322.9, 133682.05, 0.08725114, -0.06068091, -1688447.8, 30119.818, 0.10907774, 9.999177, 9.999742 
1.8249202e+3, 1.346356e+2, -1721837.8, -1628442.9, -9279.879, 0.09554239, -0.07888552, -1627529.8, -6967.7583, 0.07313931, 9.999062, 10.000339 
1.8249352e+3, 1.446362e+2, -1712328.0, -1556040.0, -90.801155, 0.066883996, -0.0632068, -1556040.0, -33486.934, 0.039204508, 9.998397, 10.000487 
1.8249503e+3, 1.5463558e+2, -1534974.6, -1394398.8, 12721.95, -0.0033032806, -0.2326448, -1393256.6, 31297.438, 0.014855209, 9.998859, 10.000686 
1.8249643e+3, 1.6463569e+2, -1466712.4, -1393303.9, -28408.955, -0.12871061, -0.24742496, -1383594.0, -57041.918, 0.0031336718, 9.998967, 9.999979 
1.8249793e+3, 1.7463692e+2, -1388345.8, -1281778.1, -54209.89, -0.060580067, -0.17624275, -1259049.6, -30505.637, 0.00019006866, 9.998775, 10.000145 
1.824995e+3, 1.8463786e+2, -1255640.4, -1146372.4, -34381.15, 0.04900545, -0.09720413, -1136454.6, -5918.91, 0.00000015151502, 9.998889, 10.00037 
1.8250102e+3, 1.9463833e+2, -1036260.06, -952960.4, -52806.54, 0.09346683, -0.14846458, -927355.2, 105173.34, 0.0, 9.999617, 10.0006485 
1.8250251e+3, 2.0463842e+2, -970690.5, -1080016.9, -11033.975, 0.08690144, -0.1063421, -969588.0, -35060.457, 0.0, 10.000249, 9.998815 
1.8250401e+3, 2.146379e+2, -779855.4, -917006.06, -26199.855, 0.040098842, -0.0917488, -775020.9, 61514.715, 0.0, 10.000831, 9.998961 
1.8250558e+3, 2.2463672e+2, -703974.5, -957989.56, 21213.184, 0.026295474, -0.045122895, -702215.2, 36334.195, 0.0, 10.001188, 9.997869 
1.8250719e+3, 2.3463473e+2, -584629.9, -821259.6, 36851.746, 0.030116357, -0.087810285, -579023.56, 61546.797, 0.0, 10.001253, 9.998078 
1.8250874e+3, 2.4463281e+2, -436461.28, -686228.44, 24752.002, 0.018194636, -0.08473564, -434031.97, 108556.32, 0.0, 10.0015, 9.998235 
1.8251021e+3, 2.5463098e+2, -259588.95, -519045.4, -6596.299, -0.0071459813, -0.1493568, -259421.36, 185181.56, 0.0, 10.001932, 9.998484 
1.8251178e+3, 2.6462942e+2, -159877.28, -422323.7, 17307.338, 0.018896554, -0.14799865, -158740.84, 187874.58, 0.00000011582431, 10.001946, 9.998478 
1.8251342e+3, 2.7462775e+2, -110851.05, -334837.28, -43696.973, 0.06906326, -0.2151746, -102628.17, 146000.75, 0.000015405387, 10.0015545, 9.998592 
1.82515e+3, 2.846259e+2, -101711.01, -377230.25, -76170.805, 0.1216951, -0.2043656, -82054.93, 68591.69, 0.00016033741, 10.001354, 9.99773 
1.8251649e+3, 2.9462403e+2, 17968.234, -250745.36, -94326.27, 0.17410584, -0.2292686, 47773.535, 100440.76, 0.00064014964, 10.001426, 9.997883 
1.82518e+3, 3.0462232e+2, 80529.99, -303135.25, 7737.9585, 0.16903202, -0.1282054, 80685.99, 80685.99, 0.0015227182, 10.001998, 9.996922 
1.8251948e+3, 3.1461996e+2, 368468.56, 22869.666, 8251.4795, 0.09818307, -0.11833056, 368665.47, 368665.47, 0.0026622775, 10.003092, 9.99865 
1.8349028e+3, 1.2462033e+2, -1930101.0, -2025995.5, 162345.06, 0.055645756, 0.120419756, -1808770.8, -90060.29, 0.11569034, 9.999303, 9.99816 
1.8349169e+3, 1.346183e+2, -1657769.8, -1525151.4, -28491.973, -0.18283737, -0.19140173, -1519289.3, 101443.06, 0.07769921, 9.99914, 10.00107 
1.8349348e+3, 1.446208e+2, -1669423.9, -1496532.5, -17403.83, 0.14298126, -0.05303191, -1494798.0, 27907.287, 0.04181763, 9.998512, 10.000847 
1.8349506e+3, 1.5462007e+2, -1524227.0, -1386725.9, 44969.887, 0.10189006, -0.2439929, -1373324.6, 51381.07, 0.015997248, 9.998906, 10.000721 
1.8349643e+3, 1.6461973e+2, -1469358.4, -1421862.4, -54510.008, -0.071080945, -0.28880003, -1386151.9, -59444.38, 0.0034491862, 9.9990635, 9.99974 
1.8349783e+3, 1.7462108e+2, -1390978.4, -1298974.6, -51618.66, -0.088781014, -0.19220363, -1275834.1, -47134.902, 0.00021871291, 9.998811, 10.000014 
1.8349934e+3, 1.846221e+2, -1262570.5, -1157321.3, -27375.348, -0.046763055, -0.096900165, -1150626.8, -19936.305, 0.00000018976193, 9.998879, 10.000297 
1.8350089e+3, 1.9462228e+2, -1059282.4, -981309.0, -13761.425, -0.015029215, -0.16402252, -978951.5, 53734.39, 0.0, 9.99953, 10.000497 
1.8350247e+3, 2.0462205e+2, -999515.7, -1100530.5, -6184.498, -0.011570374, -0.14659779, -999138.44, -64449.863, 0.0, 10.000078, 9.998757 
1.835041e+3, 2.1462132e+2, -814783.8, -937916.6, 6589.077, 0.017975997, -0.14602599, -814432.25, 22266.955, 0.0, 10.000608, 9.998924 
1.8350571e+3, 2.2462045e+2, -695244.1, -869146.56, 10769.102, 0.011503917, -0.10122687, -694579.8, 44129.145, 0.0, 10.000881, 9.9986315 
1.8350728e+3, 2.3461927e+2, -562128.6, -719457.94, 55553.07, -0.04148281, -0.1425472, -544490.25, 96228.66, 0.0, 10.001013, 9.9989 
1.8350884e+3, 2.4461803e+2, -502052.8, -744579.75, 23606.166, -0.053819552, -0.106208, -499776.5, 42952.75, 0.0, 10.001162, 9.998003 
1.8351045e+3, 2.546165e+2, -329069.0, -590349.1, 28713.049, 0.0119455205, -0.11039841, -325950.84, 118790.99, 0.0, 10.001624, 9.998143 
1.83512e+3, 2.6461405e+2, -277323.88, -599548.94, -9856.858, 0.01791755, -0.12303312, -277022.66, 69741.555, 0.000000090536304, 10.001648, 9.997411 
1.8351348e+3, 2.7461034e+2, -213396.9, -493505.0, -33510.074, -0.05224966, -0.29461217, -209443.8, 39356.04, 0.00001528185, 10.001317, 9.997618 
1.83515e+3, 2.8460848e+2, -131448.25, -364820.78, -97289.23, -0.033289198, -0.24924748, -96210.6, 54608.8, 0.00015301355, 10.001027, 9.997975 
1.8351659e+3, 2.94609e+2, -12272.539, -227720.92, -61678.184, 0.09917583, -0.0703898, 4135.054, 56953.324, 0.0006077412, 10.001065, 9.998206 
1.8351825e+3, 3.0460766e+2, 94145.41, -155851.45, 26909.004, 0.18028551, -0.007939213, 97009.016, 97009.016, 0.0014712458, 10.001496, 9.998171 
1.8351978e+3, 3.1460485e+2, 324453.1, 100881.266, 81759.73, 0.021197906, -0.19677626, 351161.75, 351161.75, 0.0026387856, 10.002396, 9.999502 
1.844903e+3, 1.2460166e+2, -2134456.3, -2182457.8, 109692.47, 0.20790268, 0.041012835, -2046169.5, -327277.2, 0.12272786, 9.998188, 9.997623 
1.8449162e+3, 1.3460074e+2, -1583538.1, -1322109.3, -44916.016, -0.13394149, -0.30897728, -1314607.5, 306296.44, 0.08254445, 9.99894, 10.002668 
1.8449347e+3, 1.4460623e+2, -1532871.1, -1429179.1, -10571.291, 0.25605264, 0.04400853, -1428112.4, 94736.42, 0.04459436, 9.999407, 10.000908 
1.8449496e+3, 1.5460533e+2, -1579814.8, -1407070.3, 14129.128, 0.13892639, -0.17034823, -1405922.3, 18930.314, 0.017215712, 9.998494, 10.000777 
1.8449634e+3, 1.6460475e+2, -1574002.5, -1461512.5, -8127.2046, -0.022470813, -0.24776557, -1460928.4, -134071.94, 0.0037916328, 9.998317, 9.999831 
1.844978e+3, 1.746055e+2, -1272618.0, -1228589.0, -19888.05, -0.021339398, -0.21613497, -1220935.8, 7915.4424, 0.00025177147, 9.999586, 10.000122 
1.8449932e+3, 1.8460615e+2, -1115112.6, -1133450.0, 18856.506, 0.012363781, -0.14256005, -1103313.9, 27531.48, 0.00000025167606, 10.000095, 9.999872 
1.8450087e+3, 1.9460629e+2, -1025732.3, -1016711.9, -21505.89, -0.011111824, -0.17180207, -999248.4, 33594.92, 0.0, 9.999973, 10.000038 
1.8450245e+3, 2.0460595e+2, -1016742.3, -1100804.5, 11755.645, -0.013347362, -0.14175448, -1015129.3, -80281.91, 0.0, 9.999931, 9.998832 
1.8450415e+3, 2.146052e+2, -860697.56, -950849.3, 2099.5444, 0.029115414, -0.15138341, -860648.7, -23790.836, 0.0, 10.000265, 9.99901 
1.845058e+3, 2.2460443e+2, -726334.56, -856817.0, 17434.88, 0.04987654, -0.11221162, -724045.1, 14820.49, 0.0, 10.000562, 9.998857 
1.845074e+3, 2.346034e+2, -564794.8, -698295.6, -11857.569, 0.0046902257, -0.15966776, -563749.8, 77122.984, 0.0, 10.000892, 9.999092 
1.8450902e+3, 2.4460216e+2, -480297.13, -728777.75, -18723.674, 0.00911047, -0.13844159, -478894.16, 63988.4, 0.0, 10.001312, 9.99802 
1.8451066e+3, 2.5460052e+2, -288439.97, -573542.25, -30702.09, 0.06449475, -0.14976498, -285171.22, 159725.27, 0.0, 10.00191, 9.998118 
1.8451221e+3, 2.64598e+2, -233475.4, -592961.3, -21159.656, 0.06811996, -0.16121389, -232234.22, 114685.61, 0.00000009817215, 10.002018, 9.997276 
1.8451364e+3, 2.7459443e+2, -184796.17, -498998.66, -18795.918, -0.015279015, -0.30351093, -183675.78, 65279.367, 0.000013983738, 10.001603, 9.997438 
1.8451515e+3, 2.845926e+2, -54263.336, -317713.25, -3222.3086, -0.005603944, -0.25006422, -54223.926, 96750.81, 0.00014297613, 10.001513, 9.998068 
1.8451671e+3, 2.9459307e+2, 109017.74, -151767.61, -41150.95, 0.09520147, -0.077056356, 115357.1, 168330.11, 0.0005747027, 10.001821, 9.998369 
1.8451844e+3, 3.0459127e+2, 190182.34, -108077.7, 69647.83, 0.22131285, -0.07468379, 205644.5, 205644.5, 0.0014161514, 10.002138, 9.998197 
1.845201e+3, 3.1458852e+2, 339210.03, 99963.95, -103567.9, 0.11761625, -0.24183016, 377814.63, 377814.63, 0.0025925355, 10.002501, 9.999449 
1.8549006e+3, 1.2458094e+2, -2073977.0, -2126023.8, -75492.195, 0.07717834, -0.13525073, -2020148.8, -301052.94, 0.13014582, 9.998428, 9.997921 
1.8549179e+3, 1.3458282e+2, -1437579.4, -1026776.6, 21873.16, 0.09294207, -0.45443663, -1025615.25, 595462.8, 0.08765755, 9.998954, 10.004904 
1.8549347e+3, 1.4459242e+2, -1522631.8, -1438801.3, -52110.26, 0.24323915, 0.21315227, -1413840.8, 109143.164, 0.04753598, 9.999547, 10.000779 
1.8549466e+3, 1.545913e+2, -1564984.5, -1395212.6, -10599.6, -0.039401524, -0.020685077, -1394553.4, 30441.373, 0.01851746, 9.998568, 10.000829 
1.8549606e+3, 1.6459066e+2, -1536161.0, -1400338.9, 10742.324, -0.17592025, -0.1311378, -1399494.5, -72495.125, 0.0041650403, 9.998391, 10.000213 
1.8549782e+3, 1.7459014e+2, -1254714.6, -1190035.1, 42011.152, 0.00797374, -0.25751552, -1169357.9, 59642.42, 0.00029041685, 9.999572, 10.000397 
1.8549944e+3, 1.8458995e+2, -1167006.1, -1241185.1, -3835.504, 0.067602284, -0.24649625, -1166808.4, -35807.004, 0.0000003514084, 10.000096, 9.999134 
1.8550086e+3, 1.9459032e+2, -1092995.1, -1132300.6, -16073.349, -0.030361364, -0.1739317, -1087259.3, -54258.527, 0.0, 9.999867, 9.999298 
1.8550241e+3, 2.045902e+2, -1038065.06, -1100499.3, 5807.1924, -0.083260484, -0.08822709, -1037529.5, -102525.48, 0.0, 9.999742, 9.998925 
1.8550411e+3, 2.1458943e+2, -885511.25, -949075.1, 28764.807, -0.049279746, -0.112850614, -874427.06, -37414.594, 0.0, 10.000039, 9.999129 
1.8550584e+3, 2.2458848e+2, -784086.2, -911853.8, 15127.077, -0.013911316, -0.086800046, -782319.6, -43298.63, 0.0, 10.000273, 9.998624 
1.8550755e+3, 2.3458716e+2, -620903.06, -757978.0, 17286.893, 0.02568405, -0.13744877, -618756.56, 22274.914, 0.0, 10.000642, 9.998807 
1.855092e+3, 2.4458541e+2, -522442.84, -739346.25, -9904.291, 0.034348704, -0.15354331, -521991.53, 21054.783, 0.0, 10.00098, 9.998106 
1.8551084e+3, 2.545831e+2, -316770.13, -565496.5, 9665.949, 0.02401915, -0.2534076, -316395.06, 128671.79, 0.0, 10.001632, 9.9983 
1.8551241e+3, 2.6458126e+2, -232956.88, -515624.7, -54374.9, 0.020211346, -0.24218, -222857.95, 124225.22, 0.00000008466028, 10.001693, 9.997963 
1.8551388e+3, 2.7457973e+2, -181869.94, -420889.88, -11718.307, 0.029520504, -0.24762003, -181296.8, 67800.28, 0.000011476472, 10.001304, 9.998115 
1.8551536e+3, 2.8457803e+2, -132627.64, -395743.63, -13988.323, 0.01528829, -0.1970677, -131886.06, 19227.676, 0.00012753624, 10.0011425, 9.997716 
1.8551682e+3, 2.9457632e+2, 47412.65, -198812.81, -5832.8784, -0.01613857, -0.22007364, 47550.746, 100682.04, 0.0005324824, 10.001479, 9.99821 
1.8551855e+3, 3.045733e+2, 29841.514, -336446.53, 57008.016, 0.064420246, -0.27426055, 38508.98, 38508.98, 0.0013398622, 10.001689, 9.996841 
1.8552044e+3, 3.1457263e+2, 160092.89, -80115.875, -67075.13, 0.15941735, -0.08894185, 177553.53, 177553.53, 0.0024846024, 10.001713, 9.998569 
1.8648985e+3, 1.2456478e+2, -2120070.3, -2074381.1, 5231.7085, 0.062513515, -0.08768726, -2073789.8, -354533.88, 0.1378835, 9.997843, 9.998527 
1.8649162e+3, 1.3456677e+2, -1477035.6, -991629.9, 73243.79, 0.080973566, -0.46771494, -980818.75, 640416.06, 0.09301642, 9.998415, 10.005443 
1.8649344e+3, 1.4457713e+2, -1721915.3, -1553185.1, -52414.32, 0.349793, 0.2588486, -1538228.9, -15095.25, 0.050644647, 9.998282, 10.000568 
1.8649456e+3, 1.5457574e+2, -1505102.1, -1389627.4, -70079.78, -0.018255284, 0.01654063, -1356564.0, 68586.58, 0.01991141, 9.999088, 10.000621 
1.8649597e+3, 1.645751e+2, -1372320.0, -1317181.6, -9561.393, -0.14556044, -0.08090882, -1315570.6, 11585.227, 0.0045744055, 9.999487, 10.000251 
1.8649784e+3, 1.7457482e+2, -1240686.8, -1171046.9, -24611.094, 0.067195654, -0.19415465, -1163227.3, 65925.305, 0.0003360051, 9.999625, 10.000486 
1.8649949e+3, 1.8457462e+2, -1233083.6, -1292266.5, -44781.0, 0.13658346, -0.18418555, -1209000.3, -77847.164, 0.00000050835786, 9.999718, 9.998969 
1.8650089e+3, 1.9457461e+2, -1072050.3, -1142790.1, -46562.52, -0.0035467662, -0.13096868, -1048947.1, -15790.84, 0.0, 10.000088, 9.999129 
1.8650244e+3, 2.0457424e+2, -952830.25, -1065822.0, 33961.496, -0.049336597, -0.062028993, -943408.25, -8246.74, 0.0, 10.0003395, 9.99888 
1.8650419e+3, 2.1457316e+2, -802603.0, -917232.06, 15442.181, -0.0017752097, -0.11323444, -800559.2, 36612.316, 0.0, 10.000617, 9.999077 
1.8650591e+3, 2.2457197e+2, -735077.75, -887698.25, 23191.318, 0.041697532, -0.10955741, -731631.56, 7550.0645, 0.0, 10.00062, 9.998626 
1.865076e+3, 2.3457064e+2, -656203.3, -773843.06, 5805.9375, 0.055278424, -0.15640232, -655917.44, -14725.282, 0.0, 10.000411, 9.998815 
1.865093e+3, 2.4456897e+2, -588348.56, -756488.3, 33496.176, 0.058602806, -0.16927357, -581921.3, -38715.004, 0.0, 10.000456, 9.998246 
1.8651097e+3, 2.545668e+2, -430983.6, -607029.25, 25081.787, 0.032133292, -0.26706865, -427479.84, 17746.084, 0.0, 10.000791, 9.998424 
1.8651257e+3, 2.645652e+2, -283662.2, -490172.38, -33546.5, 0.059189104, -0.25831097, -278349.4, 68890.39, 0.000000065173005, 10.001128, 9.998412 
1.8651411e+3, 2.7456424e+2, -117665.93, -341908.25, -54784.145, 0.13314936, -0.24913253, -104997.44, 144250.27, 0.000009433609, 10.001529, 9.998556 
1.865156e+3, 2.8456274e+2, -29729.482, -370188.28, -8214.202, 0.12687504, -0.19143915, -29531.414, 121730.484, 0.00011541344, 10.001965, 9.997481 
1.8651702e+3, 2.9456052e+2, 175859.44, -171924.25, -48306.56, -0.0068715177, -0.2306351, 182444.47, 235728.8, 0.0004967766, 10.002514, 9.997889 
1.8651868e+3, 3.0455655e+2, 172947.64, -294162.6, 80555.87, 0.0008172688, -0.35157076, 186449.69, 186449.69, 0.0012631787, 10.002773, 9.996605 
1.8652071e+3, 3.1455666e+2, 310769.16, -19650.982, -79748.55, 0.22530775, -0.060577217, 329009.9, 329009.9, 0.0023412816, 10.00275, 9.998493 
1.8748964e+3, 1.2455194e+2, -2020642.4, -1890291.4, -170266.33, -0.0238793, -0.0116639, -1773152.6, -53767.645, 0.14588223, 9.997952, 9.999734 
1.8749112e+3, 1.3455267e+2, -1560410.5, -1176845.5, 69556.3, -0.3016068, -0.36709175, -1164621.5, 456752.06, 0.0986057, 9.998462, 10.004043 
1.8749335e+3, 1.445604e+2, -1731010.6, -1597935.5, -46458.76, 0.36485988, 0.17978422, -1583321.0, -60023.42, 0.053927336, 9.9983835, 10.000216 
1.8749458e+3, 1.5455844e+2, -1531995.9, -1453735.8, -22652.66, 0.059841204, -0.071625106, -1447651.9, -22330.46, 0.021407956, 9.999117, 10.000164 
1.8749604e+3, 1.6455804e+2, -1371137.6, -1333334.4, -18790.35, -0.08886132, -0.114807464, -1325583.8, 1742.6755, 0.0050250688, 9.999572, 10.0001 
1.8749778e+3, 1.7455955e+2, -1252785.5, -1194885.5, -6653.4263, 0.015700176, -0.029821405, -1194130.9, 35177.367, 0.00038988978, 9.999611, 10.0003395 
1.874994e+3, 1.8455997e+2, -1204853.5, -1229111.0, -52313.496, 0.02562056, 0.029258393, -1163281.1, -31978.66, 0.000000733184, 9.999702, 9.999412 
1.8750086e+3, 1.9455914e+2, -1060402.6, -1089860.5, -20866.965, -0.063835196, -0.042454146, -1049590.0, -16279.33, 0.0, 9.999971, 9.999549 
1.8750249e+3, 2.0455803e+2, -981181.75, -1094375.0, 24507.61, -0.07316058, -0.062050626, -976103.4, -40782.566, 0.0, 10.000199, 9.998757 
1.8750429e+3, 2.1455649e+2, -847880.9, -958429.1, 38533.465, 0.03090678, -0.14342824, -835775.06, 1559.2094, 0.0, 10.00039, 9.998904 
1.87506e+3, 2.2455503e+2, -777431.56, -906149.3, -1199.2855, 0.042111702, -0.15844147, -777420.4, -38074.13, 0.0, 10.000307, 9.998655 
1.8750758e+3, 2.3455368e+2, -686726.4, -778898.0, 13021.122, -0.039129775, -0.21781434, -684922.2, -43565.78, 0.0, 10.000159, 9.998898 
1.8750922e+3, 2.4455252e+2, -621380.9, -754478.3, 28449.05, -0.0770152, -0.19276577, -615555.0, -72189.3, 0.0, 10.000146, 9.998417 
1.8751097e+3, 2.5455138e+2, -458397.16, -597133.9, 55995.94, -0.058952503, -0.2056001, -438616.7, 6759.235, 0.0, 10.00051, 9.998626 
1.8751267e+3, 2.6454982e+2, -323379.13, -505923.9, -34451.594, 0.010717901, -0.20646745, -317093.53, 30296.28, 0.00000004605578, 10.000824, 9.99846 
1.875143e+3, 2.7454796e+2, -153571.27, -350157.5, -17597.68, 0.14537375, -0.29334188, -152008.42, 97397.75, 0.000008319171, 10.001238, 9.998645 
1.8751584e+3, 2.845467e+2, -102212.54, -437402.7, -6203.1436, 0.12196641, -0.2068914, -102097.78, 49321.293, 0.00010877433, 10.001604, 9.997197 
1.8751726e+3, 2.9454538e+2, 85550.43, -259891.19, 3166.1917, -0.05594031, -0.124114394, 85579.445, 139014.45, 0.00047285456, 10.002097, 9.997483 
1.875188e+3, 3.0454054e+2, 148141.36, -226719.08, 56089.594, -0.20661858, -0.33448482, 156354.0, 156354.0, 0.0011966277, 10.00228, 9.9973 
1.8752101e+3, 3.1453985e+2, 230585.16, 21710.395, -22356.473, 0.17104413, -0.212786, 232951.23, 232951.23, 0.0021936095, 10.001915, 9.999159 
1.884896e+3, 1.2453925e+2, -1826873.8, -1691146.3, -107627.91, 0.1164231, 0.011427557, -1631773.0, 87734.555, 0.15411249, 9.998724, 10.000844 
1.8849093e+3, 1.3453922e+2, -1811894.9, -1537077.8, 44123.86, -0.30024537, -0.1936304, -1530167.1, 91338.28, 0.10442951, 9.997824, 10.001632 
1.884932e+3, 1.4454217e+2, -1756455.8, -1612693.6, -41606.74, 0.39942715, 0.0013928888, -1601520.4, -78043.82, 0.057399224, 9.998259, 10.000148 
1.8849452e+3, 1.5454154e+2, -1598206.3, -1472039.1, -21004.43, 0.11332785, -0.12482987, -1468634.3, -43148.16, 0.023018045, 9.998659, 10.000224 
1.8849601e+3, 1.6454178e+2, -1480258.0, -1397124.8, 29801.445, -0.028669886, -0.10295304, -1387545.4, -60060.883, 0.005521801, 9.99886, 10.000007 
1.8849774e+3, 1.7454314e+2, -1280396.4, -1218306.8, 18541.033, 0.038875338, -0.027505467, -1213191.5, 16277.889, 0.0004532519, 9.99945, 10.000262 
1.8849939e+3, 1.845434e+2, -1202217.6, -1231866.5, -7024.6724, 0.058327395, 0.021665093, -1200637.5, -69172.08, 0.0000010252129, 9.999737, 9.999368 
1.885009e+3, 1.9454226e+2, -1051975.9, -1085980.8, -32923.902, -0.008573201, -0.08245337, -1031923.44, 1552.5149, 0.0, 10.000028, 9.999535 
1.8850255e+3, 2.0454119e+2, -1001749.7, -1082028.1, 22729.547, -0.0018567847, -0.10605575, -995760.94, -60276.19, 0.0, 9.99997, 9.998948 
1.8850434e+3, 2.1454006e+2, -933089.7, -977955.7, 28210.426, 0.0773953, -0.16255051, -919480.1, -81986.57, 0.0, 9.999707, 9.999103 
1.8850607e+3, 2.2453874e+2, -821875.4, -924144.0, 51199.39, 0.09559857, -0.17679513, -800648.8, -61144.92, 0.0, 10.000014, 9.998652 
1.8850769e+3, 2.3453705e+2, -542383.06, -716921.5, 29163.81, 0.011090964, -0.26222822, -537639.0, 103878.016, 0.0, 10.00119, 9.998822 
1.8850936e+3, 2.4453583e+2, -410517.8, -668454.0, 40589.938, -0.024880024, -0.2317917, -404281.22, 139246.42, 0.0, 10.001675, 9.9982605 
1.8851109e+3, 2.54535e+2, -346089.25, -568687.0, -4889.0664, -0.030912848, -0.19551978, -345981.9, 99554.945, 0.0, 10.001387, 9.998399 
1.8851279e+3, 2.645335e+2, -287479.47, -491661.2, -79416.49, 0.03198529, -0.17812265, -260227.66, 87323.83, 0.000000017635879, 10.001117, 9.998397 
1.885144e+3, 2.7453145e+2, -188480.16, -362394.44, -108073.1, 0.1362303, -0.27861872, -136724.16, 112845.87, 0.000007223604, 10.001022, 9.998636 
1.8851599e+3, 2.8453034e+2, -142926.63, -431052.1, -23635.154, 0.15347198, -0.18649675, -141000.69, 10580.896, 0.00010058898, 10.00123, 9.997416 
1.885176e+3, 2.9452938e+2, 77969.7, -246538.34, -23178.203, 0.10304342, -0.08554383, 79616.86, 133210.48, 0.00044370364, 10.001957, 9.997648 
1.8851906e+3, 3.0452517e+2, 230706.56, -116044.57, 71596.63, -0.16073139, -0.27576116, 244908.08, 244908.08, 0.0011208182, 10.002484, 9.998001 
1.8852119e+3, 3.1452402e+2, 295863.94, 60407.742, -98807.33, 0.16294205, -0.26665196, 331832.9, 331832.9, 0.002039731, 10.002281, 9.999281 
1.8948954e+3, 1.24525644e+2, -1728957.0, -1585688.0, -60154.695, 0.07529064, -0.11876634, -1563780.6, 155853.11, 0.16258536, 9.999034, 10.001547 
1.8949094e+3, 1.3452671e+2, -2032580.6, -1989046.6, 64106.176, -0.10565427, 0.09419349, -1943112.9, -321485.66, 0.110513955, 9.9978285, 9.998472 
1.8949296e+3, 1.4452238e+2, -1724384.6, -1553669.3, -34165.145, 0.27520007, -0.29188806, -1547085.8, -23414.373, 0.06108175, 9.998301, 10.000528 
1.8949431e+3, 1.545249e+2, -1567478.0, -1409211.6, 5732.672, 0.006748968, -0.14787054, -1409004.3, 16641.371, 0.024752133, 9.998662, 10.000658 
1.8949583e+3, 1.6452613e+2, -1453552.8, -1375775.6, 29888.705, -0.15470606, -0.049543396, -1365616.8, -37984.863, 0.0060684755, 9.998998, 10.000089 
1.894977e+3, 1.7452542e+2, -1273519.3, -1207628.6, 50799.92, 0.0010834152, -0.1907569, -1180026.3, 49611.01, 0.0005270964, 9.999461, 10.000332 
1.8949942e+3, 1.8452473e+2, -1222548.0, -1279442.1, -13608.849, 0.07583197, -0.22466287, -1219460.4, -87816.81, 0.0000013718216, 9.99977, 9.999018 
1.8950096e+3, 1.9452417e+2, -1095682.1, -1151827.1, -12707.767, 0.015521693, -0.23383284, -1092939.8, -59289.79, 0.0, 9.999929, 9.9991255 
1.8950258e+3, 2.0452392e+2, -993933.6, -1033289.3, -1899.9312, -0.017597068, -0.17545147, -993842.1, -58190.348, 0.0, 9.999818, 9.999365 
1.8950427e+3, 2.1452397e+2, -927910.2, -921296.9, 33688.13, 0.0137360925, -0.16365273, -890753.5, -53104.44, 0.0, 9.999502, 9.999595 
1.8950604e+3, 2.2452301e+2, -873850.94, -961018.44, 75012.76, 0.042407278, -0.1613561, -830679.5, -91023.91, 0.0, 9.999708, 9.998547 
1.8950787e+3, 2.3452085e+2, -589989.44, -754175.06, 92467.79, 0.055006687, -0.28314245, -548431.44, 93241.72, 0.0, 10.000927, 9.99869 
1.8950962e+3, 2.4451908e+2, -505040.84, -795301.4, 15005.136, 0.030243427, -0.26593333, -504267.2, 39423.035, 0.0, 10.00136, 9.99755 
1.8951125e+3, 2.5451767e+2, -436856.6, -693203.56, 688.2544, -0.015815454, -0.21853253, -436854.75, 8853.347, 0.0, 10.00111, 9.997679 
1.8951285e+3, 2.6451603e+2, -348738.03, -547359.9, -100506.87, -0.034322336, -0.16206096, -306753.9, 40972.082, 0.0000000071100716, 10.000806, 9.998164 
1.8951434e+3, 2.745144e+2, -245284.56, -405504.22, -91849.06, -0.044567876, -0.20879428, -203518.08, 46223.563, 0.0000064443307, 10.000711, 9.998485 
1.8951602e+3, 2.845134e+2, -147091.1, -361857.84, -20814.91, 0.022610065, -0.126766, -145092.34, 6658.931, 0.0000894982, 10.000883, 9.998061 
1.8951799e+3, 2.945124e+2, 56299.844, -199813.95, 34874.73, 0.27078065, -0.10623459, 60963.766, 114725.74, 0.00040238924, 10.001557, 9.998166 
1.8951938e+3, 3.0451024e+2, 197651.86, -63220.844, 50758.047, -0.13396212, -0.14413358, 207179.86, 207179.86, 0.0010279405, 10.001995, 9.998581 
1.8952121e+3, 3.1450912e+2, 103856.21, -108551.08, 9575.019, -0.11558451, -0.19956142, 104286.97, 104286.97, 0.0018811835, 10.001382, 9.998514 
1.9048934e+3, 1.2450798e+2, -1955952.8, -1565994.4, -178038.48, 0.08293049, -0.29872033, -1496938.4, 222867.73, 0.1713416, 9.996982, 10.002713 
1.9049075e+3, 1.3451156e+2, -1965460.9, -2049615.6, -11086.974, -0.09428405, 0.21995245, -1964024.8, -342248.72, 0.11689223, 9.998763, 9.997564 
1.9049272e+3, 1.4450428e+2, -1605339.4, -1508231.4, -28774.998, 0.1905544, -0.40003338, -1500345.3, 23503.664, 0.06499328, 9.999116, 10.000486 
1.9049421e+3, 1.5450802e+2, -1514996.3, -1349969.4, -39444.348, 0.04219282, -0.16227761, -1341026.1, 84782.11, 0.026617203, 9.998812, 10.001038 
1.9049579e+3, 1.6450994e+2, -1516652.4, -1428063.3, 30621.346, -0.051260877, -0.009147111, -1418509.1, -90721.234, 0.0066676727, 9.998676, 9.9998865 
1.9049767e+3, 1.7450833e+2, -1298624.5, -1240774.9, -1497.4188, 0.048910636, -0.21411552, -1240736.1, -10931.454, 0.0006122247, 9.999405, 10.00012 
1.9049944e+3, 1.8450747e+2, -1214536.5, -1243237.0, -46802.816, 0.12209884, -0.2657857, -1179933.4, -48120.008, 0.0000017786746, 9.999695, 9.999311 
1.9050102e+3, 1.9450788e+2, -1087031.9, -1114664.3, -26215.3, 0.09367177, -0.20195939, -1071214.8, -37405.816, 0.0, 9.999847, 9.999437 
1.9050264e+3, 2.0450783e+2, -973337.3, -1058302.5, 16409.277, 0.06920929, -0.12183583, -970278.4, -34469.297, 0.0, 10.000144, 9.999013 
1.9050431e+3, 2.1450698e+2, -749503.75, -879109.25, -50196.754, 0.04006624, -0.16021468, -732336.3, 105480.336, 0.0, 10.00094, 9.999174 
1.9050609e+3, 2.2450577e+2, -658825.9, -871362.75, -5997.323, 0.058015235, -0.15582578, -658656.75, 81170.43, 0.0, 10.001221, 9.998445 
1.9050801e+3, 2.3450415e+2, -592162.2, -770206.3, -14920.77, 0.10631232, -0.21531712, -590920.44, 50920.246, 0.0, 10.000947, 9.998582 
1.905098e+3, 2.4450259e+2, -605549.8, -811588.25, -52321.8, 0.121467166, -0.18520789, -593024.56, -49168.832, 0.0, 10.000559, 9.99781 
1.9051142e+3, 2.545008e+2, -543519.5, -708018.6, -29213.043, 0.08752048, -0.20145062, -538485.7, -92609.984, 0.0, 10.0002365, 9.997987 
1.9051297e+3, 2.64499e+2, -382203.16, -555987.7, -16146.031, 0.03747811, -0.18135397, -380715.78, -32821.992, 0.000000016068412, 10.000517, 9.998253 
1.9051442e+3, 2.744975e+2, -109777.38, -344568.7, -29173.646, -0.078670554, -0.220459, -106206.76, 143700.98, 0.000006020835, 10.001595, 9.998505 
1.9051614e+3, 2.844963e+2, 51973.75, -265464.16, 66162.195, 0.0024470007, -0.16174848, 65211.598, 217130.7, 0.00007835106, 10.002234, 9.998081 
1.9051829e+3, 2.9449493e+2, 199760.11, -121071.58, 24215.9, 0.36819065, -0.17369522, 201577.6, 255510.75, 0.00035568743, 10.002509, 9.998241 
1.9051968e+3, 3.0449414e+2, 289479.53, -23510.658, 21964.035, -0.035643112, -0.08092816, 291013.34, 291013.34, 0.00092660607, 10.002656, 9.998539 
1.905215e+3, 3.1449196e+2, 233418.36, -123884.43, -133869.78, 0.015029727, -0.22303267, 278009.97, 278009.97, 0.001727788, 10.00252, 9.997906 
1.9148906e+3, 1.2448865e+2, -1899998.9, -1472873.9, -162489.7, 0.013516447, -0.30513355, -1418086.1, 301915.16, 0.18042894, 9.997016, 10.003461 
1.9149041e+3, 1.3449317e+2, -1881656.1, -1880112.1, 51136.453, -0.3617046, 0.1393548, -1829741.9, -207784.05, 0.12358676, 9.998789, 9.99871 
1.9149244e+3, 1.4448749e+2, -1597507.1, -1540488.4, -64500.42, -0.0796182, -0.32770506, -1498477.6, 25534.738, 0.069141634, 9.999321, 10.000169 
1.9149414e+3, 1.5449092e+2, -1480098.8, -1284991.1, -42642.39, 0.056438893, -0.15906656, -1276078.5, 149895.66, 0.028615344, 9.998836, 10.001486 
1.9149588e+3, 1.6449328e+2, -1533537.3, -1490228.8, 33999.766, 0.109364495, 0.029336749, -1471573.1, -143621.72, 0.0073205116, 9.998789, 9.999404 
1.9149764e+3, 1.7449193e+2, -1347458.3, -1336815.9, 35467.98, 0.042299785, -0.0865577, -1306272.1, -76301.61, 0.00070924795, 9.999383, 9.999467 
1.9149935e+3, 1.8449166e+2, -1148796.6, -1116779.5, -61824.688, 0.023696318, -0.08321981, -1068924.4, 63050.043, 0.0000023137907, 9.999728, 10.000169 
1.9150104e+3, 1.9449344e+2, -1032076.6, -975128.75, -9336.356, 0.09786674, 0.018099437, -973637.2, 60315.58, 0.0, 9.999736, 10.000451 
1.9150272e+3, 2.0449282e+2, -1084756.8, -1255039.1, 28832.557, 0.09332045, 0.04920336, -1080007.3, -144049.86, 0.0, 9.999986, 9.997742 
1.915044e+3, 2.1448906e+2, -876879.9, -1094784.8, -7762.941, 0.015085802, -0.14654498, -876603.7, -38606.625, 0.0, 10.000724, 9.997797 
1.9150618e+3, 2.2448698e+2, -711090.06, -905048.06, -27370.92, -0.013636193, -0.15323439, -707301.56, 32717.316, 0.0, 10.000896, 9.998372 
1.9150805e+3, 2.3448704e+2, -635367.4, -789458.4, -9073.95, 0.03935871, -0.042523943, -634834.9, 7183.546, 0.0, 10.000659, 9.998586 
1.9150984e+3, 2.4448623e+2, -574661.4, -671064.3, -79468.13, 0.08023582, 0.010112143, -529918.94, 14105.997, 0.0, 10.000225, 9.998939 
1.915115e+3, 2.5448427e+2, -496561.3, -546315.25, -23310.232, 0.12180675, -0.1439844, -487346.78, -41306.184, 0.0, 9.999965, 9.999225 
1.9151309e+3, 2.6448253e+2, -406880.2, -533927.44, 2055.3513, 0.06143235, -0.20501071, -406846.94, -58792.434, 0.000000038925435, 10.000194, 9.998567 
1.9151455e+3, 2.7448085e+2, -137835.9, -329785.25, 28604.266, -0.13205445, -0.2869426, -133663.98, 116403.695, 0.0000054500297, 10.001292, 9.998749 
1.915163e+3, 2.84479e+2, -47013.918, -391990.84, 56194.063, -0.109084636, -0.26847506, -38091.13, 113993.93, 0.00006657065, 10.001893, 9.997378 
1.9151843e+3, 2.9447696e+2, 83355.27, -260132.64, 60880.086, 0.22074339, -0.27742252, 93826.5, 147934.77, 0.00030471265, 10.002077, 9.997493 
1.9151993e+3, 3.0447704e+2, 165650.61, -172878.63, -7844.382, -0.09125137, -0.015517664, 165832.28, 165832.28, 0.000814986, 10.002193, 9.997725 
1.9152173e+3, 3.1447446e+2, 76916.46, -225381.25, -31234.146, -0.048386782, -0.14498958, 80109.914, 80109.914, 0.0015623207, 10.001633, 9.997595 
1.9248897e+3, 1.24472596e+2, -1830119.4, -1496705.9, 28941.813, 0.2053039, -0.07917007, -1494212.3, 225945.3, 0.18987963, 9.997697, 10.002935 
1.9249047e+3, 1.3447444e+2, -1774745.4, -1766021.3, 71162.69, -0.19411632, 0.015303728, -1699087.1, -76947.305, 0.13060497, 9.999217, 9.999304 
1.9249223e+3, 1.4447089e+2, -1668149.5, -1614724.1, -46722.75, -0.18473169, -0.23962376, -1587616.9, -63443.36, 0.07352615, 9.999046, 9.999761 
1.9249408e+3, 1.5447311e+2, -1369273.8, -1244781.5, -98215.195, 0.08366155, -0.17513706, -1190748.6, 235399.13, 0.030745408, 9.999693, 10.00134 
1.9249587e+3, 1.644749e+2, -1418041.3, -1410145.0, -5655.1387, 0.21063264, -0.045926828, -1407196.1, -79065.555, 0.008026891, 9.999482, 9.999611 
1.9249755e+3, 1.7447469e+2, -1450976.4, -1363557.9, 28519.654, 0.07112434, -0.0730763, -1355076.4, -124938.55, 0.0008187495, 9.9985695, 9.999679 
1.9249928e+3, 1.8447483e+2, -1305789.1, -1185458.0, 13277.893, 0.0518803, -0.045028854, -1184010.4, -51873.324, 0.0000031359323, 9.9985895, 10.000251 
1.9250108e+3, 1.9447578e+2, -943690.0, -918855.06, -26564.695, 0.15520003, -0.041144233, -901948.9, 132173.89, 0.0, 10.000248, 10.000587 
1.9250283e+3, 2.0447496e+2, -926653.44, -1197452.3, 30785.262, 0.1643148, -0.0360465, -923197.8, 12932.091, 0.0, 10.001146, 9.9975815 
1.9250453e+3, 2.1447174e+2, -788288.3, -1072196.8, 54308.492, 0.041118156, -0.15535417, -778254.3, 59910.973, 0.0, 10.001419, 9.997622 
1.9250628e+3, 2.2446993e+2, -681338.2, -906485.1, 73824.82, 0.010242921, -0.119720645, -659290.3, 80896.17, 0.0, 10.001194, 9.998211 
1.9250813e+3, 2.3446968e+2, -672477.1, -823606.7, 42752.758, 0.06731359, -0.021227617, -661221.2, -19029.592, 0.0, 10.000483, 9.998435 
1.9250989e+3, 2.4446891e+2, -555024.0, -618511.44, -11784.561, 0.12302562, 0.024359304, -552907.1, -8708.786, 0.0, 10.000148, 9.999342 
1.9251153e+3, 2.544676e+2, -403083.1, -464777.7, -45676.93, 0.14770354, -0.10416584, -378812.9, 67393.43, 0.0, 10.000411, 9.99959 
1.9251317e+3, 2.644662e+2, -335704.44, -495186.47, -936.06476, 0.115831695, -0.15022162, -335698.94, 12517.294, 0.000000047147957, 10.000684, 9.99859 
1.9251476e+3, 2.7446437e+2, -173603.06, -347931.47, -33613.24, -0.028802102, -0.24655877, -167346.45, 82885.164, 0.0000044268, 10.001057, 9.998739 
1.9251654e+3, 2.8446236e+2, -104210.53, -409306.78, 36016.79, -0.029745666, -0.24806619, -100016.39, 52234.04, 0.000054025306, 10.001477, 9.997444 
1.9251856e+3, 2.9446042e+2, 110081.125, -251322.02, 48368.65, 0.1527458, -0.24618103, 116442.6, 170714.17, 0.00025237876, 10.002255, 9.99747 
1.9252017e+3, 3.0445933e+2, 226414.97, -157028.45, 66614.58, -0.080051444, -0.09717182, 237658.06, 237658.06, 0.0006960178, 10.002652, 9.9976225 
1.9252208e+3, 3.1445822e+2, 235101.88, -101597.31, 19631.725, 0.11203141, -0.05432143, 236242.67, 236242.67, 0.0013738545, 10.002414, 9.998118 
1.9348855e+3, 1.2445429e+2, -1937882.1, -1708091.9, 67285.37, -0.06805917, -0.18035495, -1689839.8, 30488.615, 0.1997211, 9.99783, 10.001113 
1.9349077e+3, 1.3445537e+2, -1774002.8, -1755392.9, 82153.625, 0.15303448, -0.15830693, -1682018.9, -59697.258, 0.13795441, 9.999186, 9.99939 
1.9349208e+3, 1.4445478e+2, -1679228.5, -1681843.9, -51207.824, -0.3070068, -0.10826427, -1629311.6, -104982.766, 0.07814733, 9.999221, 9.999224 
1.93494e+3, 1.5445463e+2, -1419127.4, -1365502.9, -64001.645, -0.0034269043, -0.20054345, -1322924.1, 103404.84, 0.033007, 9.999758, 10.000466 
1.9349572e+3, 1.6445465e+2, -1331780.4, -1260321.1, -55685.383, 0.056791373, -0.2420793, -1229888.3, 98439.03, 0.008786739, 9.999597, 10.000595 
1.9349737e+3, 1.7445643e+2, -1367603.5, -1196531.1, 3482.2021, -0.00027186336, -0.18168674, -1196460.3, 33847.67, 0.00094156526, 9.998586, 10.000825 
1.9349916e+3, 1.844569e+2, -1337898.3, -1260853.4, 52674.402, 0.02660877, -0.15996975, -1234118.1, -101816.62, 0.0000044945964, 9.998626, 9.999717 
1.9350111e+3, 1.9445512e+2, -1010798.75, -1034288.06, 48855.668, 0.12877093, -0.35966, -972295.9, 62021.21, 0.0, 10.000139, 9.999853 
1.9350293e+3, 2.0445436e+2, -886093.44, -1074597.0, 25289.736, 0.108715, -0.35164934, -882759.5, 53565.426, 0.0, 10.000975, 9.99851 
1.9350463e+3, 2.1445505e+2, -756011.0, -945446.56, 77563.54, -0.017814672, -0.18032554, -728305.06, 110016.27, 0.0, 10.001164, 9.998614 
1.9350637e+3, 2.2445439e+2, -756412.3, -976525.5, 33542.836, -0.04922943, -0.06585778, -751414.2, -11082.136, 0.0, 10.000829, 9.997904 
1.9350816e+3, 2.3445196e+2, -734971.4, -893808.25, 32275.865, 0.04074407, -0.14978622, -728663.4, -86301.914, 0.0, 10.000229, 9.998073 
1.9350989e+3, 2.4445069e+2, -624806.56, -692451.25, -21452.748, 0.06497581, -0.120423056, -618576.8, -74200.52, 0.0, 9.999839, 9.998988 
1.9351149e+3, 2.5445077e+2, -464990.03, -533246.06, -20327.225, 0.031971734, -0.07605377, -459395.03, -13021.473, 0.0, 10.000159, 9.999241 
1.935132e+3, 2.6444995e+2, -415295.0, -575047.56, -6305.4053, 0.037055966, -0.025221014, -415046.5, -66665.89, 0.00000001782158, 10.000328, 9.998208 
1.9351499e+3, 2.7444795e+2, -248300.42, -418109.8, -2410.9468, 0.07528601, -0.10158316, -248266.19, 2134.3723, 0.0000033385966, 10.00072, 9.9984045 
1.9351679e+3, 2.8444645e+2, -108175.87, -344584.22, 35472.645, 0.038717683, -0.06693727, -102967.984, 49446.32, 0.00004416703, 10.001151, 9.998054 
1.9351861e+3, 2.9444525e+2, 106819.53, -164095.77, 97979.16, -0.040528018, -0.06508383, 138540.5, 192964.3, 0.00021030588, 10.001866, 9.998252 
1.9352034e+3, 3.0444118e+2, 176713.47, -148082.25, 34788.207, -0.22651507, -0.26617223, 180397.78, 180397.78, 0.00059174973, 10.002173, 9.997913 
1.9352229e+3, 3.144413e+2, 185566.4, 17458.314, 87256.11, 0.012009517, -0.14085226, 222668.1, 222668.1, 0.0011892852, 10.001539, 9.999321 
1.9448817e+3, 1.2443305e+2, -1843799.4, -1836534.8, -42704.305, -0.26795343, -0.2999826, -1797308.5, -76772.03, 0.20999403, 9.999248, 9.999501 
1.9449069e+3, 1.3443545e+2, -1862143.9, -1675361.5, -81014.79, 0.22507149, -0.22855178, -1645118.9, -22601.51, 0.14565058, 9.998023, 10.00052 
1.944921e+3, 1.4443734e+2, -1776995.8, -1708011.4, -81013.29, -0.16070357, -0.012120681, -1654453.3, -129953.04, 0.083007626, 9.998426, 9.999451 
1.9449393e+3, 1.5443629e+2, -1584829.1, -1464428.8, -90220.88, 0.018194942, -0.18228883, -1416167.5, 10341.519, 0.03539992, 9.998683, 10.000304 
1.9449559e+3, 1.6443548e+2, -1452691.5, -1291837.9, -62239.98, 0.026334876, -0.3109281, -1270567.6, 57946.8, 0.009600047, 9.998651, 10.00084 
1.9449732e+3, 1.7443734e+2, -1227978.6, -1095286.1, -95993.11, 0.047718395, -0.2700954, -1044942.56, 185549.06, 0.0010784023, 9.999397, 10.001131 
1.9449916e+3, 1.8443805e+2, -1205041.8, -1233118.5, -17164.748, 0.121125974, -0.22651456, -1196905.8, -64422.773, 0.0000066792873, 9.999719, 9.999374 
1.9450112e+3, 1.9443633e+2, -1090391.1, -1112374.4, -28001.268, 0.14623037, -0.3798212, -1071301.4, -36800.41, 0.0, 9.999805, 9.999466 
1.9450296e+3, 2.0443587e+2, -1014859.56, -1051911.6, -39882.613, 0.111748934, -0.35551232, -989410.2, -52903.56, 0.0, 9.999739, 9.999261 
1.945047e+3, 2.1443705e+2, -903208.7, -922233.56, -33617.2, 0.017220214, -0.21082845, -877784.0, -39287.934, 0.0, 9.999758, 9.99945 
1.9450647e+3, 2.2443688e+2, -831103.44, -980473.3, -29324.13, 0.0048418934, -0.10798118, -825552.8, -85051.53, 0.0, 10.000156, 9.998201 
1.9450825e+3, 2.344348e+2, -585137.56, -796827.8, -11709.116, 0.06288859, -0.18051247, -584491.9, 58035.598, 0.0, 10.001127, 9.998317 
1.9450997e+3, 2.444337e+2, -408275.9, -614236.94, -10187.14, 0.09097009, -0.13320431, -407773.25, 136768.28, 0.0, 10.001464, 9.998741 
1.9451158e+3, 2.5443366e+2, -335332.34, -506003.4, -42275.59, 0.06017506, -0.06987699, -325434.6, 121107.68, 0.0, 10.001207, 9.998922 
1.945133e+3, 2.6443267e+2, -271201.38, -538575.25, 29261.291, 0.07493921, -0.0033783384, -268036.47, 80516.266, 0.000000002142629, 10.0014305, 9.997937 
1.9451515e+3, 2.7443075e+2, -36581.184, -357562.75, 6301.1626, 0.10484652, -0.039774094, -36457.53, 214116.0, 0.0000030022966, 10.002302, 9.998084 
1.9451699e+3, 2.8442937e+2, 38362.59, -257531.77, 34370.195, 0.082044914, 0.016574625, 42302.465, 194889.28, 0.00003904193, 10.002078, 9.998211 
1.9451876e+3, 2.944284e+2, -57074.805, -218285.5, 7862.0635, -0.0044775587, 0.026006997, -56692.29, -2099.1694, 0.00018459432, 10.0006075, 9.998498 
1.9452056e+3, 3.0442327e+2, -26454.867, -227225.19, 9413.465, -0.11902962, -0.3070644, -26014.467, -26014.467, 0.0005147773, 10.000726, 9.998044 
1.9452251e+3, 3.1442413e+2, 421001.72, 162687.33, -47641.465, 0.044734325, -0.09198237, 429508.2, 429508.2, 0.0010277403, 10.002969, 9.999646 
1.9548845e+3, 1.2441237e+2, -1872450.9, -2001292.0, -54347.844, -0.029344358, -0.09420679, -1852588.0, -131840.1, 0.22070916, 9.999623, 9.998228 
1.954902e+3, 1.3441485e+2, -1686568.1, -1385329.5, -61411.05, -0.09979203, -0.18763407, -1373291.3, 249434.4, 0.15369554, 9.998149, 10.002759 
1.9549222e+3, 1.4441864e+2, -1680737.4, -1549417.9, -70611.195, 0.056270048, 0.037831314, -1518655.9, 6031.345, 0.08810495, 9.998607, 10.000453 
1.9549382e+3, 1.5441811e+2, -1545075.4, -1393148.4, -71943.97, -0.0032185146, -0.133982, -1364486.9, 62201.22, 0.037922986, 9.99872, 10.000791 
1.9549543e+3, 1.6441742e+2, -1467838.6, -1356863.6, -62266.402, -0.069934554, -0.25227663, -1328948.6, -257.14056, 0.010466628, 9.998791, 10.000327 
1.9549733e+3, 1.7441751e+2, -1265616.8, -1185813.1, -56050.305, 0.08753893, -0.32863468, -1156912.4, 73776.03, 0.0012294218, 9.99944, 10.000492 
1.9549923e+3, 1.8441822e+2, -1207271.4, -1251512.5, -27056.033, 0.16119887, -0.2421085, -1194444.1, -61762.027, 0.000009908067, 9.999782, 9.999215 
1.9550104e+3, 1.9441928e+2, -1114946.6, -1140347.9, -14402.235, 0.06991692, -0.09989291, -1108444.9, -73769.6, 0.0, 9.999709, 9.999319 
1.9550286e+3, 2.0441918e+2, -1005200.75, -986167.9, -56980.1, -0.00019331968, -0.058756612, -937915.0, -1237.3591, 0.0, 9.999538, 9.999808 
1.9550468e+3, 2.1441767e+2, -895336.3, -848241.5, -19359.285, 0.0009707796, -0.2486109, -841305.06, -2614.4678, 0.0, 9.999516, 10.000069 
1.9550651e+3, 2.2441725e+2, -815314.94, -873236.44, -8949.189, -0.0040721796, -0.2444594, -813963.75, -73268.63, 0.0, 9.999828, 9.9991 
1.9550832e+3, 2.3441812e+2, -564659.8, -683695.06, 38896.605, -0.0051482874, -0.11450115, -553076.8, 89613.266, 0.0, 10.000836, 9.9992285 
1.9551006e+3, 2.4441792e+2, -484927.13, -685404.7, -31673.953, 0.010994046, -0.010908515, -480041.94, 64652.855, 0.0, 10.001085, 9.998432 
1.9551174e+3, 2.544162e+2, -398844.66, -572982.56, -34161.203, 0.07977114, -0.08166938, -392382.9, 54330.465, 0.0, 10.000937, 9.998583 
1.9551346e+3, 2.644146e+2, -332812.16, -594032.0, 41312.895, 0.051239472, -0.053952947, -326434.1, 22297.002, 0.00000003752054, 10.001111, 9.997715 
1.9551522e+3, 2.74413e+2, -93601.88, -408516.28, 58133.29, -0.08475293, -0.04156965, -83213.18, 167536.17, 0.0000033251551, 10.002021, 9.997867 
1.9551705e+3, 2.8441146e+2, -55629.598, -353931.44, -35476.156, -0.097235695, 0.035345476, -51468.566, 101296.67, 0.000036409245, 10.001658, 9.997749 
1.9551893e+3, 2.944103e+2, -133847.84, -286100.56, -19487.258, 0.07220388, 0.064946264, -131393.19, -76617.38, 0.00016708692, 10.000234, 9.998202 
1.9552079e+3, 3.0440572e+2, -103790.48, -295452.1, 56397.844, -0.0065729325, -0.18747912, -88426.586, -88426.586, 0.00045041234, 10.000307, 9.997791 
1.9552284e+3, 3.1440645e+2, 298318.13, 81339.07, 68525.71, 0.0067654923, 0.032660834, 318147.53, 318147.53, 0.00087258307, 10.0022745, 9.999397 
1.9648856e+3, 1.2439371e+2, -2064176.4, -2151468.5, 65625.09, 0.19172005, 0.10469443, -2029008.6, -308074.6, 0.23177752, 9.998649, 9.997608 
1.9648999e+3, 1.3439463e+2, -1602176.1, -1253510.0, -4080.8574, -0.11087753, -0.21934356, -1253462.3, 369462.84, 0.1620495, 9.998335, 10.003711 
1.9649218e+3, 1.4439954e+2, -1744828.8, -1524239.3, -28374.13, 0.19603528, 0.03987025, -1520648.0, 4226.7153, 0.093428105, 9.997952, 10.000912 
1.9649373e+3, 1.5439935e+2, -1550375.6, -1352030.8, -84564.34, 0.056450594, -0.13850166, -1320871.6, 106000.14, 0.04057487, 9.998509, 10.001159 
1.9649535e+3, 1.6439892e+2, -1465156.0, -1405878.5, -29390.377, -0.006321149, -0.2331862, -1393777.0, -64903.074, 0.011385711, 9.999036, 9.999866 
1.9649729e+3, 1.7439929e+2, -1244686.3, -1231504.3, -43161.55, 0.09690791, -0.23091513, -1194433.4, 36438.332, 0.0013940044, 9.99984, 9.999978 
1.9649918e+3, 1.8440008e+2, -1176013.9, -1197297.9, -1632.6415, 0.15545826, -0.1254111, -1175889.4, -43024.145, 0.000014255441, 9.9998255, 9.999568 
1.9650102e+3, 1.9440092e+2, -1163771.3, -1120146.3, 19661.38, 0.10073151, -0.047418766, -1112592.9, -77734.516, 0.0, 9.99918, 9.999716 
1.9650283e+3, 2.0440073e+2, -1075750.6, -1023517.4, 30885.607, 0.05891007, -0.034887224, -1009186.56, -72325.89, 0.0, 9.99905, 9.999788 
1.9650465e+3, 2.1439932e+2, -879243.8, -851836.4, -7651.746, 0.025500117, -0.20940629, -849844.9, -10970.751, 0.0, 9.999638, 9.999995 
1.965065e+3, 2.2439913e+2, -792007.75, -787686.4, -4539.9565, 0.019848036, -0.2085146, -784819.1, -43943.305, 0.0, 9.999676, 9.999763 
1.9650832e+3, 2.3440035e+2, -745082.4, -696813.94, -11761.247, 0.0010461768, -0.11146895, -694100.7, -51235.957, 0.0, 9.999263, 9.999904 
1.965101e+3, 2.4440016e+2, -662950.5, -776240.9, -32142.814, 0.027742801, -0.04140354, -654466.25, -109598.38, 0.0, 9.999841, 9.998432 
1.9651186e+3, 2.5439838e+2, -307226.7, -540176.1, -45251.26, 0.09122801, -0.11083839, -298745.28, 148142.47, 0.0, 10.001591, 9.998517 
1.9651365e+3, 2.6439682e+2, -173172.64, -505073.84, 58331.707, 0.07951272, -0.07434687, -163219.33, 185685.6, 0.00000006167767, 10.002181, 9.997803 
1.9651541e+3, 2.7439526e+2, -181573.73, -442411.53, 46312.035, -0.054051146, -0.05896197, -173595.05, 77326.99, 0.000003603985, 10.001401, 9.997919 
1.9651723e+3, 2.843934e+2, -100382.14, -404574.47, 5762.168, -0.042663034, -0.0050056507, -100273.03, 52668.938, 0.00003430298, 10.001475, 9.997492 
1.9651914e+3, 2.9439178e+2, 206501.02, -164963.52, -16801.99, 0.13997012, 0.018125447, 207259.45, 262218.97, 0.00015136057, 10.002747, 9.997841 
1.9652101e+3, 3.043887e+2, 276000.84, -143259.31, 111054.74, 0.07182628, -0.0550663, 303600.44, 303600.44, 0.00039140973, 10.003026, 9.997547 
1.9652306e+3, 3.1438828e+2, 204393.98, 17684.86, -28738.307, 0.042894777, 0.092765786, 208717.28, 208717.28, 0.00072701665, 10.001646, 9.999302 
1.9748813e+3, 1.24376066e+2, -1999034.9, -2104011.0, -140000.75, -0.21376272, 0.17166026, -1902006.4, -180902.36, 0.24301729, 9.999009, 9.9977665 
1.9749005e+3, 1.3437475e+2, -1607116.1, -1304512.8, -15881.18, 0.0734356, -0.33009902, -1303681.6, 319434.5, 0.17062773, 9.9985, 10.003252 
1.9749187e+3, 1.4437988e+2, -1719947.1, -1507148.0, -37352.53, 0.030180348, -0.028493954, -1500782.0, 24281.982, 0.09895461, 9.998082, 10.000988 
1.9749361e+3, 1.5438004e+2, -1526786.6, -1313356.9, -52315.1, 0.053437617, -0.19198298, -1301223.4, 125836.67, 0.04335473, 9.998546, 10.00142 
1.9749539e+3, 1.6437998e+2, -1464369.6, -1436731.5, -17376.707, 0.0510112, -0.24910934, -1428348.9, -99286.875, 0.012356995, 9.999182, 9.999583 
1.9749716e+3, 1.7438264e+2, -1268967.5, -1284531.0, -2936.131, -0.057743758, 0.024033418, -1268432.0, -37390.2, 0.0015709848, 9.999857, 9.999605 
1.9749899e+3, 1.8438353e+2, -1108433.1, -1072675.6, -42655.918, -0.06809562, 0.12151656, -1044303.1, 88730.7, 0.000019593592, 9.99988, 10.000405 
1.9750096e+3, 1.9438109e+2, -1107263.0, -984571.9, 7588.26, 0.08714163, -0.22242919, -984104.3, 50947.02, 0.0, 9.9991, 10.000687 
1.9750282e+3, 2.0438038e+2, -1146142.4, -1123531.4, 38098.953, 0.10722259, -0.28715608, -1095095.9, -158038.67, 0.0, 9.998855, 9.999195 
1.9750458e+3, 2.1438214e+2, -963240.06, -969489.44, 27569.205, -0.040141363, -0.07754499, -938619.0, -99573.54, 0.0, 9.999394, 9.999304 
1.9750635e+3, 2.2438274e+2, -824304.94, -776057.3, -34135.152, -0.1080878, 0.023958072, -758382.0, -17340.428, 0.0, 9.999328, 10.000012 
1.9750822e+3, 2.3438148e+2, -751666.25, -662482.75, -8166.4146, -0.04883495, -0.16055682, -661741.1, -18690.05, 0.0, 9.999048, 10.000243 
1.9751006e+3, 2.4438053e+2, -695396.8, -773686.7, 10615.005, -0.02878071, -0.19439782, -693983.06, -148923.6, 0.0, 9.999534, 9.9986 
1.9751191e+3, 2.5438014e+2, -325029.72, -526401.56, 34944.383, -0.043993372, -0.14262868, -319138.16, 127926.836, 0.0, 10.0013685, 9.998717 
1.9751379e+3, 2.6437923e+2, -214879.48, -510130.56, 14985.247, -0.03235119, -0.06046469, -214120.88, 134954.2, 0.000000055759365, 10.001828, 9.997935 
1.9751567e+3, 2.7437755e+2, -210051.2, -429984.28, 35715.695, 0.036381792, -0.08343469, -204396.6, 46695.582, 0.0000036492006, 10.001099, 9.998141 
1.9751751e+3, 2.8437537e+2, -171012.55, -474802.56, 25964.559, 0.04819023, -0.0654779, -168809.36, -15693.485, 0.00003270768, 10.001135, 9.997182 
1.9751933e+3, 2.9437274e+2, 142561.36, -235532.08, 61000.902, 0.019831385, -0.114507906, 152159.48, 207305.17, 0.00013942833, 10.002475, 9.997488 
1.9752115e+3, 3.0437204e+2, 133804.45, -300988.84, 44330.97, -0.13115343, 0.109459005, 138278.34, 138278.34, 0.00034788318, 10.00247, 9.996716 
1.9752333e+3, 3.1436995e+2, 100760.38, 8563.25, -41300.04, 0.08853549, 0.14103925, 116555.04, 116555.04, 0.0006200004, 10.000824, 9.999602 
1.9848798e+3, 1.24355644e+2, -1942510.8, -1875611.9, -69295.61, -0.22186868, -0.13103847, -1832114.9, -110813.03, 0.25424254, 9.998514, 9.999599 
1.9849e+3, 1.3435556e+2, -1678853.6, -1460235.0, -55563.465, 0.17136599, -0.37843072, -1446923.8, 176378.9, 0.17932345, 9.998617, 10.001951 
1.9849165e+3, 1.4436062e+2, -1821758.0, -1561994.6, -52703.375, 0.050765593, -0.012076502, -1551708.9, -26455.82, 0.104643695, 9.997431, 10.000916 
1.9849345e+3, 1.543613e+2, -1574475.4, -1328361.0, -91286.17, 0.06222064, -0.12667838, -1298198.6, 129047.945, 0.046255346, 9.998189, 10.001502 
1.9849528e+3, 1.6436154e+2, -1520200.1, -1408924.8, -15682.526, 0.0778513, -0.18332466, -1406756.8, -77510.92, 0.013380272, 9.9985695, 10.000062 
1.9849712e+3, 1.74364e+2, -1421675.9, -1302996.6, 35036.45, -0.0060171545, 0.018471593, -1293425.1, -62200.332, 0.0017591557, 9.998572, 10.000096 
1.9849898e+3, 1.8436481e+2, -1270773.9, -1170596.1, 19379.365, -0.012715153, 0.08986129, -1166977.9, -33761.043, 0.0000256483, 9.99884, 10.000232 
1.9850087e+3, 1.943624e+2, -1010229.6, -963164.2, -46495.055, 0.06976293, -0.23371513, -934585.7, 100650.45, 0.0, 9.999844, 10.000481 
1.9850275e+3, 2.0436184e+2, -960286.9, -1028753.9, -13099.23, 0.095795356, -0.27234837, -957866.25, -20624.86, 0.0, 10.0001135, 9.999242 
1.9850458e+3, 2.143641e+2, -905094.1, -934373.3, -2388.2434, 0.015121028, -0.017017717, -904900.6, -65675.98, 0.0, 9.999775, 9.999359 
1.9850639e+3, 2.2436461e+2, -786792.1, -805849.44, -30593.096, -0.028215932, 0.09323006, -764278.1, -23056.164, 0.0, 9.999786, 9.999586 
1.9850817e+3, 2.3436266e+2, -615257.75, -650956.25, -94280.9, -0.033589713, -0.11272951, -537151.4, 106088.45, 0.0, 10.00022, 9.999755 
1.9851007e+3, 2.4436162e+2, -514638.22, -634080.1, -31722.674, -0.032173015, -0.14945455, -506735.8, 38513.215, 0.0, 10.000599, 9.999018 
1.98512e+3, 2.5436163e+2, -334035.63, -480814.75, -20933.979, -0.0649996, -0.09872385, -331108.34, 116139.74, 0.0, 10.001116, 9.99914 
1.9851393e+3, 2.6436085e+2, -247897.75, -489134.1, -47568.14, -0.037560094, -0.040205088, -238856.86, 110398.48, 0.00000004684117, 10.001444, 9.99826 
1.985158e+3, 2.743591e+2, -122349.875, -356002.13, -64015.383, 0.049144447, -0.09477414, -105960.71, 145311.73, 0.000003631824, 10.001569, 9.998416 
1.9851771e+3, 2.8435722e+2, -47404.637, -393082.13, 23273.17, 0.11256273, -0.06946302, -45844.777, 107448.11, 0.000030883682, 10.001913, 9.9973545 
1.9851968e+3, 2.9435486e+2, 145081.69, -223882.95, 35377.082, 0.13207316, -0.098455325, 148443.1, 203762.89, 0.00012822116, 10.002487, 9.997544 
1.9852147e+3, 3.0435377e+2, 179176.13, -251444.33, 48395.18, -0.06677313, 0.07492493, 184548.0, 184548.0, 0.0003141248, 10.002617, 9.996993 
1.9852346e+3, 3.1435168e+2, 285266.6, 102241.85, -65466.004, 0.108262196, 0.08632358, 306272.28, 306272.28, 0.00054966006, 10.001997, 9.999701 
1.9948803e+3, 1.2433783e+2, -1685245.8, -1474846.5, -62898.77, -0.14329126, -0.24031079, -1457476.9, 263997.88, 0.26535824, 9.998804, 10.002826 
1.9948971e+3, 1.3433692e+2, -1810812.1, -1721369.5, -107969.67, -0.01037624, -0.37345567, -1649225.8, -25739.516, 0.18805622, 9.998688, 9.999877 
1.9949149e+3, 1.4434165e+2, -1809837.6, -1578511.6, -70595.914, 0.09204687, 0.08009685, -1558669.3, -33226.465, 0.11045076, 9.997608, 10.000719 
1.9949318e+3, 1.54343e+2, -1578588.9, -1339494.3, -51680.043, -0.04958515, 0.047449786, -1328801.8, 98631.164, 0.04926506, 9.998214, 10.001406 
1.9949502e+3, 1.6434339e+2, -1412003.9, -1209784.0, -27683.805, -0.09956174, -0.048844248, -1206062.6, 123365.15, 0.014456319, 9.99867, 10.001393 
1.9949713e+3, 1.7434327e+2, -1320988.4, -1091396.3, 42296.74, 0.12334636, -0.24842899, -1083852.0, 147569.4, 0.0019582892, 9.998568, 10.001548 
1.9949909e+3, 1.8434379e+2, -1348888.0, -1340318.9, 38339.496, 0.16214776, -0.22822082, -1306025.3, -172609.75, 0.000032105352, 9.998875, 9.99905 
1.9950074e+3, 1.9434479e+2, -1120709.8, -1164751.3, 1217.4741, -0.07448783, -0.07641527, -1120676.1, -85262.88, 0.0, 9.999736, 9.999143 
1.9950256e+3, 2.0434529e+2, -944132.6, -957503.2, -42920.227, -0.14049198, 0.033448286, -907380.2, 30031.867, 0.0, 9.999942, 9.999815 
1.9950463e+3, 2.143451e+2, -883528.1, -844376.5, -2098.7883, 0.053918682, -0.027994858, -844264.3, -4851.738, 0.0, 9.9995775, 10.000071 
1.995065e+3, 2.2434469e+2, -911962.5, -993232.7, -28915.842, 0.08147873, 0.0024112181, -902724.4, -161306.38, 0.0, 9.999472, 9.998451 
1.9950816e+3, 2.343439e+2, -736527.2, -850785.2, -59177.83, -0.0894818, 0.036433168, -711402.06, -67971.52, 0.0, 9.99999, 9.998494 
1.9951001e+3, 2.4434324e+2, -533371.8, -591897.06, -27900.682, -0.16881722, 0.081501074, -522202.4, 23235.275, 0.0, 10.000245, 9.999481 
1.995121e+3, 2.543427e+2, -327084.75, -407812.2, 16891.055, -0.099515855, 0.014580494, -323693.03, 123744.96, 0.0, 10.00086, 9.999764 
1.9951403e+3, 2.643416e+2, -283942.84, -476628.75, -57532.742, -0.09857549, -0.0094070155, -268071.78, 81374.586, 0.000000042002604, 10.001075, 9.998522 
1.9951579e+3, 2.7433982e+2, -146427.64, -336352.28, -41130.563, -0.1592263, -0.093980566, -137902.92, 113560.62, 0.0000035134383, 10.001285, 9.998682 
1.9951777e+3, 2.843386e+2, -84530.51, -387798.1, 20536.908, -0.059975266, -0.024908405, -83146.09, 70329.945, 0.00002820436, 10.0015545, 9.997564 
1.9952011e+3, 2.943375e+2, 108088.625, -214973.56, 77761.305, 0.27052876, 0.040219225, 125831.38, 181318.72, 0.00011358975, 10.002108, 9.997788 
1.9952184e+3, 3.0433375e+2, 159989.2, -131313.89, 4126.104, 0.016695295, -0.12481033, 160047.64, 160047.64, 0.00027761882, 10.00197, 9.998112 
1.9952331e+3, 3.1433353e+2, 137520.66, -24639.53, 16607.828, -0.317306, -0.06191531, 139204.1, 139204.1, 0.0004902181, 10.001284, 9.999141 
2.0048797e+3, 1.2432176e+2, -1914044.9, -1504130.4, -30867.053, 0.040802393, -0.117706135, -1501819.1, 219811.98, 0.27641812, 9.996811, 10.003517 
2.0048964e+3, 1.3431981e+2, -1883074.9, -1827281.1, -54110.477, 0.07511718, -0.3108663, -1794299.6, -170645.98, 0.1968332, 9.998501, 9.999225 
2.0049115e+3, 1.4432347e+2, -1703582.0, -1572800.0, 64062.168, -0.04476158, 0.08464535, -1546649.0, -21027.922, 0.11636926, 9.99853, 10.000309 
2.0049305e+3, 1.5432413e+2, -1564964.8, -1387210.8, 48655.785, -0.017486727, 0.022997774, -1374764.0, 52853.77, 0.05238356, 9.99852, 10.000924 
2.0049495e+3, 1.6432434e+2, -1429961.1, -1222276.8, 41227.23, -0.009914486, -0.06430195, -1214392.0, 115221.734, 0.015589432, 9.998527, 10.001391 
2.0049703e+3, 1.743241e+2, -1254878.6, -1058332.5, -22348.828, 0.15299062, -0.28718698, -1055823.4, 175784.66, 0.0021699998, 9.998966, 10.001604 
2.00499e+3, 1.8432462e+2, -1319188.3, -1341007.8, 2086.2856, 0.19511117, -0.262469, -1318990.5, -185387.83, 0.00003871999, 9.999171, 9.998892 
2.0050074e+3, 1.943262e+2, -1134122.5, -1195718.0, 20928.957, -0.041937567, -0.028981479, -1127684.1, -92087.086, 0.0, 9.999772, 9.998913 
2.0050259e+3, 2.0432672e+2, -935979.1, -955318.5, -6604.9976, -0.09963202, 0.096347764, -933938.6, 3657.6013, 0.0, 10.000027, 9.999786 
2.0050463e+3, 2.143257e+2, -814606.2, -814972.0, -50634.41, 0.08289193, -0.042780623, -764154.4, 75448.56, 0.0, 10.0000725, 10.000041 
2.0050654e+3, 2.2432481e+2, -794098.0, -959553.94, -23867.395, 0.12398915, -0.043251492, -790723.9, -49112.03, 0.0, 10.000406, 9.998222 
2.0050825e+3, 2.3432414e+2, -564186.2, -790112.9, -18072.545, -0.064138584, 0.028294692, -562749.6, 80873.86, 0.0, 10.001311, 9.99826 
2.0051011e+3, 2.4432349e+2, -379997.8, -536083.4, 24914.594, -0.13129164, 0.0934738, -376117.38, 169513.58, 0.0, 10.001341, 9.999349 
2.0051219e+3, 2.5432277e+2, -439665.56, -475615.25, -19338.248, -0.059962567, 0.019846983, -431238.44, 16395.695, 0.0, 10.000134, 9.999646 
2.0051412e+3, 2.6432166e+2, -421797.6, -524782.25, -53291.72, -0.05938806, -0.003622747, -399185.5, -49543.234, 0.000000029896977, 10.000026, 9.998706 
2.0051591e+3, 2.743199e+2, -108293.6, -306238.16, -69061.11, -0.16168647, -0.10519776, -86580.555, 165078.64, 0.0000031274246, 10.00145, 9.998832 
2.0051797e+3, 2.8431895e+2, 41648.77, -265171.13, 14301.645, -0.034821555, -0.04299802, 42313.96, 195981.56, 0.000025154262, 10.002142, 9.99813 
2.0052035e+3, 2.943186e+2, 104878.8, -158267.8, 30617.852, 0.33487648, 0.043617826, 108394.305, 164064.31, 0.00009776422, 10.001828, 9.998313 
2.0052212e+3, 3.0431435e+2, 255658.28, -7543.316, 7954.8623, 0.117842376, -0.22773105, 255898.48, 255898.48, 0.00024035286, 10.002264, 9.998844 
2.0052361e+3, 3.14314e+2, 419455.72, 25686.553, -61747.79, -0.22610922, -0.22480237, 428911.47, 428911.47, 0.000433908, 10.003538, 9.998443 
2.0148773e+3, 1.2430464e+2, -2064367.4, -1756650.4, -12434.93, 0.025212217, -0.111709714, -1756148.6, -34350.35, 0.28771394, 9.996928, 10.001149 
2.0148978e+3, 1.343044e+2, -1836626.4, -1755898.6, -11370.575, 0.33062088, -0.19771916, -1754327.6, -130524.445, 0.20582092, 9.998593, 9.99968 
2.0149055e+3, 1.4430586e+2, -1722446.6, -1654234.9, 34224.547, -0.56253237, -0.013699282, -1640023.9, -114233.75, 0.12247417, 9.998705, 9.99967 
2.0149297e+3, 1.543046e+2, -1612067.5, -1482921.6, 55715.91, 0.012817787, -0.19789144, -1462207.3, -34405.117, 0.055639356, 9.998526, 10.000243 
2.0149505e+3, 1.6430454e+2, -1501778.6, -1392270.6, 40229.914, 0.1721501, -0.21976916, -1379080.3, -49277.406, 0.016791714, 9.998624, 10.00017 
2.0149678e+3, 1.7430659e+2, -1347309.5, -1241572.1, 3930.6926, -0.032706168, -0.082855985, -1241426.1, -9642.426, 0.0023981123, 9.99894, 10.000356 
2.0149869e+3, 1.8430747e+2, -1254386.4, -1226644.6, -394.0289, -0.086392775, 0.0067777177, -1226639.0, -92862.125, 0.000045425786, 9.999243, 9.99965 
2.015008e+3, 1.9430664e+2, -1085538.0, -1077317.4, 51490.652, 0.023680564, -0.085616745, -1029773.25, 6014.6313, 0.0, 9.999693, 9.999765 
2.0150277e+3, 2.0430616e+2, -1006087.8, -1062678.0, -19439.129, 0.0408908, -0.07563886, -1000053.75, -62259.914, 0.0, 9.999856, 9.999135 
2.0150454e+3, 2.1430591e+2, -905166.6, -948031.8, -34916.617, -0.024830872, -0.05821192, -885629.44, -45833.938, 0.0, 9.999835, 9.999243 
2.015064e+3, 2.2430496e+2, -809088.56, -917584.4, -6182.314, -0.076248996, -0.043542385, -808737.44, -66933.414, 0.0, 10.000079, 9.998673 
2.0150839e+3, 2.3430313e+2, -553369.44, -722632.94, 32120.13, -0.08483864, -0.1439759, -547479.1, 96342.086, 0.0, 10.0011, 9.998832 
2.0151031e+3, 2.44302e+2, -485896.44, -672091.0, -26933.35, -0.09760432, -0.12354358, -482078.78, 63753.89, 0.0, 10.000991, 9.998581 
2.0151219e+3, 2.5430164e+2, -534865.7, -616754.6, -50185.184, -0.08992674, -0.0749241, -511041.3, -63203.54, 0.0, 9.999899, 9.998791 
2.015141e+3, 2.643008e+2, -463345.84, -536498.4, -22285.352, -0.11128784, -0.031816352, -457091.5, -107245.17, 0.0000000091701935, 9.999708, 9.998778 
2.0151612e+3, 2.742993e+2, -140203.22, -299372.0, 6474.4316, -0.11967745, -0.121582024, -139940.3, 111919.0, 0.0000023642951, 10.001147, 9.999021 
2.0151821e+3, 2.8429845e+2, 18583.959, -210101.23, -14316.332, -0.037235975, -0.0871448, 19476.717, 173342.06, 0.000021595964, 10.00171, 9.998712 
2.0152038e+3, 2.9429784e+2, 104393.92, -96724.375, 41315.555, 0.1537169, -0.09151002, 112550.54, 168419.44, 0.000083873885, 10.001538, 9.998884 
2.0152225e+3, 3.0429494e+2, 172363.36, -46618.08, 24602.648, -0.021892231, -0.25792113, 175093.44, 175093.44, 0.00020823602, 10.001726, 9.998812 
2.0152412e+3, 3.142953e+2, 224349.77, -116367.164, 95759.484, -0.14861858, -0.20147918, 249418.75, 249418.75, 0.00038362973, 10.002499, 9.997921 
2.0248748e+3, 1.24285646e+2, -2133192.0, -1960715.3, -36523.336, 0.080947556, -0.05649845, -1953299.9, -231316.42, 0.29983783, 9.99722, 9.999586 
2.0248954e+3, 1.342859e+2, -1919302.0, -1700134.3, -122259.195, 0.28945947, -0.19234271, -1645535.5, -21552.22, 0.21537028, 9.997642, 10.000499 
2.0249055e+3, 1.4428702e+2, -1637455.4, -1655157.4, -65042.84, -0.44390166, -0.07306526, -1580664.1, -54691.215, 0.12892798, 9.999462, 9.999299 
2.0249291e+3, 1.5428537e+2, -1566852.1, -1517748.8, -80536.59, 0.08449413, -0.24518108, -1458104.6, -30116.668, 0.05909158, 9.999091, 9.999726 
2.0249495e+3, 1.6428496e+2, -1562047.5, -1478626.0, -16550.922, 0.23222129, -0.24700049, -1475462.3, -145468.88, 0.018083457, 9.998499, 9.999614 
2.0249665e+3, 1.7428716e+2, -1379242.1, -1315820.6, -23241.865, -0.03992964, -0.03926576, -1308215.3, -76238.96, 0.0026487417, 9.999021, 9.999784 
2.0249858e+3, 1.842881e+2, -1216648.0, -1167245.6, 13629.105, -0.09834405, 0.068703376, -1163735.0, -29765.912, 0.000052423693, 9.999314, 10.000019 
2.0250079e+3, 1.9428687e+2, -1065325.3, -1027258.7, 5259.3994, 0.054233097, -0.106919974, -1026545.44, 9434.961, 0.0, 9.999634, 10.000139 
2.0250282e+3, 2.042861e+2, -971631.7, -1071878.4, -32565.12, 0.10093796, -0.1356109, -961981.8, -23994.299, 0.0, 10.000209, 9.998891 
2.025046e+3, 2.142858e+2, -700458.25, -885297.6, -45474.316, -0.018105568, -0.09328794, -689876.44, 150114.61, 0.0, 10.0013895, 9.998917 
2.0250647e+3, 2.2428489e+2, -571828.5, -764925.8, 7564.456, -0.073050946, -0.0775161, -571532.56, 170466.31, 0.0, 10.001541, 9.999012 
2.0250846e+3, 2.3428324e+2, -615205.2, -707672.06, 5204.282, -0.06689221, -0.19806975, -614913.2, 29098.29, 0.0, 10.000484, 9.999222 
2.0251042e+3, 2.4428204e+2, -613706.75, -775549.2, -19606.51, -0.05775935, -0.18769245, -611365.4, -65342.516, 0.0, 10.000309, 9.998187 
2.0251225e+3, 2.5428113e+2, -345192.7, -582681.8, -44847.184, -0.07966857, -0.14188099, -337006.0, 111029.57, 0.0, 10.0014515, 9.998275 
2.0251422e+3, 2.6428005e+2, -154593.6, -381583.25, 37173.76, -0.05476874, -0.09806182, -148660.77, 201386.73, 0.000000001074916, 10.001812, 9.998826 
2.0251636e+3, 2.7427885e+2, -141470.03, -286607.88, 18378.309, 0.014040723, -0.16595156, -139179.0, 112877.94, 0.0000018159459, 10.001108, 9.999113 
2.0251843e+3, 2.8427806e+2, -80022.625, -267881.2, 2858.8838, 0.063675076, -0.12330389, -79979.13, 74083.43, 0.000018189116, 10.001047, 9.998642 
2.0252042e+3, 2.942774e+2, 131335.13, -77413.08, -33470.414, 0.04310504, -0.12585558, 136570.42, 192639.34, 0.000072171526, 10.001708, 9.998922 
2.0252252e+3, 3.042752e+2, 262566.75, -56178.336, -17072.906, 0.04436262, -0.20983, 263478.63, 263478.63, 0.00017993047, 10.0025, 9.998413 
2.0252454e+3, 3.1427592e+2, 308861.22, -35216.137, -94498.6, 0.045765202, -0.050722215, 333106.22, 333106.22, 0.00033599298, 10.00281, 9.998365 
2.034874e+3, 1.24263026e+2, -2175728.3, -2124368.3, 74211.46, 0.16941366, -0.13997135, -2071519.3, -349315.06, 0.3135409, 9.997486, 9.998369 
2.0348884e+3, 1.3426407e+2, -1802942.4, -1522539.8, -25408.064, -0.22298402, -0.3059957, -1520256.0, 103940.484, 0.22593072, 9.997777, 10.001866 
2.0349114e+3, 1.4426678e+2, -1601694.9, -1644227.5, -63069.902, 0.11368581, -0.099026725, -1556402.4, -30231.129, 0.13594478, 9.999728, 9.999245 
2.0349285e+3, 1.5426646e+2, -1576652.9, -1556965.1, -96154.08, 0.0662743, -0.1155158, -1470152.4, -41976.688, 0.06282382, 9.999172, 9.999412 
2.0349461e+3, 1.6426553e+2, -1543316.9, -1465986.8, -30707.402, -0.017840944, -0.15492158, -1455276.4, -125090.05, 0.019494196, 9.998611, 9.999645 
2.0349662e+3, 1.7426573e+2, -1362756.4, -1290998.9, 9050.769, -0.0059405216, -0.15851083, -1289875.0, -57688.54, 0.0029308582, 9.999057, 9.999935 
2.0349866e+3, 1.8426645e+2, -1212838.6, -1168148.3, 12580.258, -0.018002233, -0.08586649, -1164850.3, -30670.172, 0.00006041413, 9.999353, 9.999997 
2.0350066e+3, 1.9426692e+2, -1083759.8, -1040375.75, 27817.354, -0.07764348, -0.08317992, -1026792.44, 9381.842, 0.0, 9.999531, 10.000099 
2.0350267e+3, 2.042666e+2, -990861.7, -1065851.3, -8284.53, -0.10266158, -0.07359026, -989957.4, -51780.18, 0.0, 10.000018, 9.999023 
2.0350474e+3, 2.1426527e+2, -724495.7, -877329.3, 12166.596, -0.029248292, -0.14854768, -723533.2, 116657.58, 0.0, 10.001145, 9.999089 
2.035067e+3, 2.2426452e+2, -608052.06, -750634.9, -38579.145, -0.046042703, -0.13784803, -598282.94, 143914.1, 0.0, 10.001171, 9.99928 
2.0350847e+3, 2.3426439e+2, -640529.7, -693816.44, -16346.822, -0.14611141, -0.13296977, -635914.7, 8279.854, 0.0, 10.000211, 9.999443 
2.0351033e+3, 2.4426341e+2, -671151.7, -820539.1, 1548.5883, -0.20009, -0.10465345, -671135.6, -124932.234, 0.0, 9.999989, 9.998034 
2.0351234e+3, 2.5426123e+2, -388126.0, -622747.25, 11303.014, -0.16497919, -0.17490906, -387582.72, 60645.594, 0.0, 10.001234, 9.998107 
2.035144e+3, 2.642594e+2, -220538.95, -432067.66, -418.61472, -0.08636096, -0.18571417, -220538.13, 129708.47, 0.000000023664393, 10.001454, 9.998642 
2.0351656e+3, 2.7425805e+2, -186589.0, -327578.6, 9194.714, 0.08199867, -0.25869623, -185991.89, 66264.516, 0.0000019634658, 10.000876, 9.998942 
2.0351858e+3, 2.842573e+2, -189722.28, -395057.6, 1572.5657, 0.065972224, -0.17618057, -189710.23, -35446.28, 0.000016146072, 10.000636, 9.997958 
2.0352042e+3, 2.9425713e+2, 38350.207, -188241.03, 16694.715, -0.16975966, -0.058544833, 39573.63, 95844.305, 0.00006227005, 10.001346, 9.998341 
2.0352277e+3, 3.042549e+2, 89403.87, -244510.38, -22907.129, 0.0056909197, -0.07381721, 90968.016, 90968.016, 0.00015437642, 10.001804, 9.997431 
2.0352498e+3, 3.1425396e+2, 295010.16, 142517.47, -52550.246, 0.12807974, 0.0020569537, 311365.3, 311365.3, 0.00029131802, 10.00199, 9.999948 
2.0448738e+3, 1.242401e+2, -2140928.5, -2092689.3, 131561.44, 0.41180244, -0.18415302, -1983054.8, -260623.56, 0.3294151, 9.997679, 9.998517 
2.044885e+3, 1.3424163e+2, -1835998.5, -1471572.4, -92991.09, -0.29241645, -0.3439904, -1449215.3, 175202.73, 0.23787552, 9.997239, 10.002627 
2.0449117e+3, 1.4424586e+2, -1925369.1, -1732851.1, -124380.14, 0.30459446, -0.05019774, -1671832.6, -145455.3, 0.14372098, 9.997223, 9.999845 
2.0449272e+3, 1.5424612e+2, -1715987.1, -1559497.4, -160529.1, 0.08956504, -0.064471215, -1459159.4, -30783.201, 0.06692591, 9.997938, 9.99999 
2.0449443e+3, 1.6424535e+2, -1544513.8, -1455368.1, -3861.3713, -0.022358188, -0.12734452, -1455201.1, -124816.016, 0.021061258, 9.998534, 9.999767 
2.0449659e+3, 1.7424509e+2, -1266753.5, -1240115.4, 6836.6826, 0.04262147, -0.18437761, -1238463.3, -6074.3286, 0.003256253, 9.999685, 9.9999895 
2.0449868e+3, 1.8424563e+2, -1138304.4, -1149093.9, -7533.829, 0.058807097, -0.11941604, -1134432.9, -49.21977, 0.00007088071, 9.999951, 9.999837 
2.0450062e+3, 1.9424637e+2, -1107156.6, -1066154.1, -33764.89, -0.05912944, -0.076737724, -1047153.94, -10778.431, 0.0, 9.999456, 9.9999485 
2.0450266e+3, 2.0424613e+2, -1082191.5, -1080544.3, -7687.6636, -0.067898326, -0.058756467, -1073636.3, -135259.05, 0.0, 9.999245, 9.999309 
2.0450488e+3, 2.1424486e+2, -909844.7, -921319.56, -463.21744, 0.068244174, -0.16562994, -909826.0, -69436.35, 0.0, 9.999683, 9.99949 
2.0450686e+3, 2.2424436e+2, -758760.7, -831376.1, -62974.086, 0.07332632, -0.15014216, -722377.4, 20016.188, 0.0, 10.000153, 9.999231 
2.0450853e+3, 2.3424447e+2, -567019.9, -668610.06, -95389.59, -0.10945614, -0.11129035, -509744.06, 134645.98, 0.0, 10.000743, 9.999369 
2.045104e+3, 2.4424346e+2, -505706.38, -752780.0, -23569.129, -0.18183652, -0.07640595, -503478.13, 42921.414, 0.0, 10.00117, 9.997936 
2.0451249e+3, 2.5424102e+2, -365499.53, -618639.3, -38230.375, -0.13039158, -0.15682581, -359851.8, 88574.29, 0.0, 10.001426, 9.998039 
2.0451461e+3, 2.642391e+2, -211482.94, -473991.2, -52960.598, -0.029926231, -0.15570223, -201200.95, 149244.72, 0.00000011200642, 10.00169, 9.998244 
2.0451675e+3, 2.7423778e+2, -46997.14, -313759.25, -103973.34, 0.12937132, -0.17767262, -11260.003, 241196.73, 0.000002326167, 10.002051, 9.998474 
2.0451874e+3, 2.842366e+2, 7869.285, -309401.72, -64635.34, 0.10641913, -0.10918016, 20531.623, 175000.7, 0.000014696717, 10.002013, 9.997888 
2.0452054e+3, 2.9423553e+2, 30962.488, -192095.9, -55346.555, -0.16658288, -0.068530895, 43940.332, 100424.21, 0.00005375532, 10.001306, 9.99833 
2.04523e+3, 3.0423412e+2, 85955.69, -255613.52, 48933.242, 0.094538175, 0.0024819444, 92827.62, 92827.62, 0.00013254509, 10.0018015, 9.997354 
2.0452528e+3, 3.142326e+2, 562421.7, 250110.06, -134704.52, 0.15162739, 0.044883605, 612493.8, 612493.8, 0.00025431596, 10.003848, 9.999811 
2.0548698e+3, 1.24218576e+2, -1961116.5, -1810849.0, 30504.213, 0.13791391, 0.021264752, -1804892.8, -82244.52, 0.3476065, 9.998058, 10.00027 
2.0548846e+3, 1.3421878e+2, -1790847.1, -1419858.8, -90910.234, -0.11246754, -0.26909605, -1398779.0, 225866.7, 0.2513395, 9.997329, 10.003081 
2.0549054e+3, 1.4422405e+2, -1817879.4, -1545421.4, -114831.86, -0.102677256, 0.043158103, -1503480.0, 23113.113, 0.15236652, 9.997364, 10.001086 
2.0549245e+3, 1.5422447e+2, -1606581.5, -1351598.9, -116882.89, -0.0022413032, -0.09391306, -1306128.8, 122459.695, 0.071473114, 9.9979925, 10.001449 
2.054944e+3, 1.6422448e+2, -1514806.9, -1437866.3, 16681.207, 0.026432622, -0.15809825, -1434405.4, -103816.445, 0.022826005, 9.998711, 9.999808 
2.0549653e+3, 1.742252e+2, -1269143.1, -1252736.9, 58323.742, -0.030452784, -0.11013584, -1202042.3, 30541.6, 0.0036400491, 9.99971, 9.999896 
2.054986e+3, 1.8422554e+2, -1153586.6, -1200727.3, -39372.535, -0.058982767, -0.039807748, -1131268.4, 3312.9243, 0.00008593674, 10.000023, 9.999455 
2.0550062e+3, 1.9422494e+2, -1132782.5, -1110780.9, -43725.59, -0.03390588, -0.09939298, -1076693.5, -40106.844, 0.0, 9.999407, 9.999672 
2.055027e+3, 2.0422453e+2, -1079881.3, -1031304.5, -9450.815, 0.018286318, -0.10623004, -1029530.56, -90940.914, 0.0, 9.999055, 9.999738 
2.0550494e+3, 2.1422441e+2, -910207.9, -867327.75, 29427.953, 0.12868161, -0.14850537, -852357.94, -11768.547, 0.0, 9.999445, 9.999975 
2.0550694e+3, 2.242241e+2, -836792.6, -909077.6, -57198.586, 0.09770926, -0.12297232, -805274.56, -62683.016, 0.0, 9.999798, 9.998866 
2.0550865e+3, 2.3422335e+2, -631965.25, -743266.5, -58376.387, -0.097546555, -0.12877136, -606963.56, 37635.207, 0.0, 10.000488, 9.99898 
2.0551054e+3, 2.4422215e+2, -564805.6, -789104.7, -28319.168, -0.18785399, -0.09212248, -561285.4, -14673.871, 0.0, 10.000809, 9.997856 
2.0551267e+3, 2.542203e+2, -413059.75, -648286.25, -10700.59, -0.114750855, -0.10868274, -412573.97, 36057.64, 0.0, 10.00114, 9.99797 
2.0551477e+3, 2.642189e+2, -318439.1, -602715.6, -55291.93, -0.062104113, -0.023214417, -308063.47, 42584.0, 0.00000017468948, 10.001298, 9.997545 
2.0551687e+3, 2.7421784e+2, -140669.75, -450259.5, -70354.96, 0.007151061, 0.05672582, -125431.47, 127228.34, 0.0000023499456, 10.001795, 9.9976635 
2.0551884e+3, 2.8421578e+2, -46394.906, -309049.8, -100725.49, -0.033770714, 0.073897935, -12215.485, 142464.36, 0.000012296112, 10.001554, 9.9981 
2.0552073e+3, 2.942124e+2, 4149.251, -169602.89, -55733.805, -0.15554975, -0.16840795, 20489.984, 77200.586, 0.000044415407, 10.000976, 9.998637 
2.0552316e+3, 3.0421188e+2, 19650.82, -237135.66, 90497.805, 0.043066833, -0.04475637, 48339.332, 48339.332, 0.00011238728, 10.001174, 9.997762 
2.0552537e+3, 3.1421113e+2, 262457.34, -134556.8, -116201.56, -0.21599519, 0.020822825, 293967.38, 293967.38, 0.00022372513, 10.002876, 9.997614 
2.0648667e+3, 1.2419588e+2, -2090436.1, -1852782.6, 13893.982, 0.09288264, 0.09230687, -1851973.1, -129097.87, 0.36771804, 9.997089, 10.000411 
2.064885e+3, 1.3419633e+2, -1578492.5, -1271670.4, -55585.43, 0.17805655, -0.26790884, -1261910.8, 362957.7, 0.26616043, 9.998425, 10.0039425 
2.0649016e+3, 1.4420289e+2, -1888465.1, -1564844.4, -39662.39, -0.17154884, 0.1169264, -1560054.4, -33252.652, 0.1618756, 9.996801, 10.001209 
2.0649226e+3, 1.5420243e+2, -1643758.8, -1343826.6, -135436.8, 0.047403704, -0.12942523, -1291721.0, 137084.02, 0.07651462, 9.997608, 10.001703 
2.0649433e+3, 1.6420285e+2, -1572606.6, -1442131.5, -11713.314, 0.123360634, -0.17973834, -1441088.4, -110287.04, 0.024829434, 9.998241, 9.999987 
2.0649642e+3, 1.7420442e+2, -1453935.5, -1326945.1, 11475.588, -0.03780699, -0.05651921, -1325916.5, -93128.75, 0.0041003036, 9.9984, 10.000002 
2.0649853e+3, 1.8420471e+2, -1360592.4, -1294066.6, -48002.1, -0.05961778, 0.0020683776, -1268929.0, -134143.36, 0.000108260756, 9.998588, 9.999492 
2.0650066e+3, 1.9420335e+2, -1106014.6, -1086245.6, -55524.652, 0.07068082, -0.14129555, -1039732.5, -2934.5918, 0.0, 9.999543, 9.999767 
2.0650278e+3, 2.0420292e+2, -915438.8, -944219.56, 12622.45, 0.14680186, -0.15942226, -910687.4, 28113.75, 0.0, 10.00015, 9.999801 
2.0650491e+3, 2.1420361e+2, -752669.9, -790068.6, -12171.614, 0.10956449, -0.120995864, -749057.5, 91735.81, 0.0, 10.000529, 9.999983 
2.0650691e+3, 2.2420344e+2, -709442.8, -889794.75, -83115.77, 0.055821, -0.06276522, -676981.4, 65814.05, 0.0, 10.000846, 9.998497 
2.0650879e+3, 2.3420197e+2, -569724.3, -757173.5, -116859.99, -0.033268493, -0.10141096, -513647.2, 131164.66, 0.0, 10.001111, 9.998578 
2.0651074e+3, 2.4420053e+2, -496978.97, -741926.7, -66780.125, -0.07025867, -0.071693204, -479955.75, 66871.29, 0.0, 10.001208, 9.997987 
2.0651282e+3, 2.5419894e+2, -402307.0, -619403.25, -67661.88, -0.06859199, -0.081303164, -382945.66, 65896.93, 0.0, 10.001113, 9.998175 
2.0651491e+3, 2.641973e+2, -311625.66, -604875.9, -30690.432, -0.04937186, -0.02928087, -308448.16, 42411.055, 0.00000012472299, 10.001349, 9.99752 
2.0651701e+3, 2.7419558e+2, -94637.09, -422880.6, -24347.432, -0.012270316, -0.0046349256, -92840.95, 160036.14, 0.0000018192295, 10.002097, 9.997705 
2.0651904e+3, 2.8419372e+2, 71202.04, -245779.36, -35861.08, -0.001213575, 0.020717192, 75208.48, 230103.0, 0.000008845643, 10.002313, 9.998185 
2.0652094e+3, 2.941911e+2, 99439.66, -124213.414, -72233.734, -0.048342343, -0.14339536, 120740.45, 177657.1, 0.000033872344, 10.001636, 9.998636 
2.0652328e+3, 3.0418956e+2, 161076.27, -113364.26, 183838.02, 0.039020915, -0.14723547, 253259.19, 253259.19, 0.00009226976, 10.001821, 9.998344 
2.0652579e+3, 3.1418902e+2, 259998.11, -142308.25, -163134.52, -0.06511114, -0.11181965, 317834.25, 317834.25, 0.0001939828, 10.002822, 9.997622 
2.074863e+3, 1.2417328e+2, -2192302.0, -2135546.0, -220853.05, -0.11691905, 0.09380223, -1941255.1, -218155.52, 0.38886976, 9.997394, 9.998328 
2.0748863e+3, 1.3417399e+2, -1520467.5, -1178589.1, -86624.59, 0.3985086, -0.3741158, -1157893.1, 467195.1, 0.28190908, 9.998544, 10.004856 
2.0749e+3, 1.4418238e+2, -1926421.0, -1682397.5, -77634.29, -0.10346842, 0.19773056, -1659792.6, -132789.89, 0.17213808, 9.996966, 10.000325 
2.0749211e+3, 1.5417992e+2, -1692838.5, -1448802.4, -93683.59, 0.089927725, -0.16617885, -1416986.0, 12041.037, 0.08207624, 9.997655, 10.000895 
2.0749417e+3, 1.6418022e+2, -1526076.8, -1380587.0, -16672.813, 0.08059468, -0.20206437, -1378700.8, -47676.266, 0.027111659, 9.998389, 10.000339 
2.0749621e+3, 1.7418274e+2, -1427238.3, -1273761.1, 23718.188, -0.111058384, -0.021746388, -1270179.4, -37178.27, 0.0046569863, 9.998418, 10.000353 
2.0749839e+3, 1.8418323e+2, -1321587.4, -1233557.8, -33631.184, -0.116459, 0.020215856, -1222179.8, -87183.9, 0.00014131474, 9.998672, 9.999867 
2.0750071e+3, 1.9418152e+2, -1089919.6, -1038422.7, -11487.223, 0.12564479, -0.19580656, -1035976.44, 1033.5824, 0.0000000002137382, 9.999476, 10.00013 
2.0750283e+3, 2.0418112e+2, -965282.3, -1010026.4, 8832.354, 0.1377406, -0.21450129, -963601.94, -24588.875, 0.0, 9.999978, 9.9994335 
2.0750473e+3, 2.1418229e+2, -812140.7, -864649.9, 16253.158, -0.12768418, -0.08853403, -807516.94, 33486.164, 0.0, 10.000313, 9.999575 
2.0750673e+3, 2.2418216e+2, -796388.56, -983330.3, -82667.36, -0.2199895, 0.015399117, -765076.8, -22070.01, 0.0, 10.000483, 9.998024 
2.0750889e+3, 2.3418018e+2, -646802.9, -846113.8, -90795.03, -0.05131504, -0.028452992, -611643.8, 33386.074, 0.0, 10.000822, 9.998099 
2.0751096e+3, 2.441784e+2, -535708.1, -729661.0, -82400.93, -0.016331742, -0.020862114, -505427.53, 41620.387, 0.0, 10.000815, 9.998258 
2.0751289e+3, 2.5417668e+2, -415465.6, -588247.75, -55942.72, -0.1358938, -0.07676513, -398934.34, 50126.766, 0.0, 10.000867, 9.998505 
2.0751494e+3, 2.6417422e+2, -331544.0, -547638.8, -24465.549, -0.18155356, -0.14981431, -328808.72, 22272.836, 0.000000021824269, 10.00094, 9.998106 
2.0751719e+3, 2.741709e+2, -93955.63, -344405.97, 20333.89, -0.08419795, -0.35426372, -92315.48, 160795.36, 0.00000084431264, 10.001781, 9.998393 
2.075193e+3, 2.8416988e+2, -14090.339, -309319.8, -81082.27, -0.024682887, -0.27500317, 6712.3975, 161831.4, 0.000005133315, 10.001843, 9.997965 
2.0752117e+3, 2.9417107e+2, 22286.117, -221876.27, -76171.94, -0.020618934, -0.027828543, 44100.656, 101208.33, 0.000023723636, 10.001349, 9.998106 
2.0752332e+3, 3.0416706e+2, 89272.86, -82964.11, 188889.47, -0.16640703, -0.26813507, 210749.23, 210749.23, 0.00007270888, 10.00112, 9.998857 
2.075263e+3, 3.1416738e+2, 213151.25, 27864.74, -54696.215, 0.1071597, -0.24148715, 228092.61, 228092.61, 0.00016093491, 10.001782, 9.999238 
2.0848599e+3, 1.24153726e+2, -1991333.1, -1915746.0, 81339.055, -0.18929844, 0.074367225, -1863849.0, -140559.77, 0.40993002, 9.998263, 9.999404 
2.0848829e+3, 1.3415344e+2, -1778485.8, -1413891.3, -100402.77, 0.2876064, -0.36280322, -1388070.8, 237217.58, 0.29801235, 9.997295, 10.003283 
2.0848997e+3, 1.4416039e+2, -1806359.0, -1637369.4, -57072.57, 0.14169057, 0.14800273, -1619900.3, -92682.234, 0.18298064, 9.997881, 10.000179 
2.0849197e+3, 1.541582e+2, -1463457.9, -1376619.9, -42110.902, 0.10653316, -0.1610271, -1359553.0, 69686.14, 0.088167645, 9.99938, 10.000598 
2.0849404e+3, 1.6415851e+2, -1358149.9, -1322007.1, 16204.189, 0.059227105, -0.17083775, -1315806.0, 15430.332, 0.029713616, 9.999611, 10.000177 
2.0849614e+3, 1.7416002e+2, -1347530.3, -1247877.6, -17584.023, -0.04753762, -0.08047267, -1244865.9, -11643.791, 0.005333032, 9.998985, 10.000282 
2.0849834e+3, 1.8416038e+2, -1298426.4, -1200362.0, -29659.324, -0.020423131, -0.058076587, -1192089.5, -56871.41, 0.00018960002, 9.998743, 10.000069 
2.0850065e+3, 1.9415982e+2, -1050828.4, -998534.06, -41786.63, 0.1397546, -0.17579815, -975388.25, 61833.14, 0.000000020895914, 9.999675, 10.000302 
2.0850281e+3, 2.0415972e+2, -981945.2, -1048916.3, -31331.658, 0.12969384, -0.15620397, -969572.75, -30350.645, 0.0, 10.000038, 9.999121 
2.0850474e+3, 2.1416001e+2, -890663.5, -940182.3, -57359.664, -0.13392276, -0.083514586, -852947.6, -11725.353, 0.0, 9.999955, 9.999215 
2.0850676e+3, 2.2415961e+2, -835795.0, -971470.44, -93833.84, -0.21128006, 0.0010271574, -787845.2, -44616.38, 0.0, 10.000059, 9.998322 
2.0850894e+3, 2.3415826e+2, -666570.56, -815822.4, -69597.55, -0.06513698, -0.012961354, -639153.1, 6091.3345, 0.0, 10.000488, 9.998481 
2.0851104e+3, 2.441567e+2, -539806.4, -731721.3, -14971.661, 0.013779875, -0.005923688, -538645.44, 8614.236, 0.0, 10.000778, 9.998261 
2.0851308e+3, 2.541546e+2, -402102.9, -590078.4, -46620.754, -0.02544769, -0.09310704, -391175.47, 58101.42, 0.0, 10.000984, 9.998437 
2.0851517e+3, 2.641522e+2, -284359.1, -501463.6, -9.105145, -0.054868598, -0.16661029, -284359.1, 66937.41, 0.0, 10.001161, 9.998318 
2.0851731e+3, 2.7414945e+2, -154906.94, -352046.84, -20758.754, -0.09425232, -0.33519086, -152744.77, 100574.54, 0.000000115745564, 10.001263, 9.99859 
2.0851946e+3, 2.8414804e+2, -22772.146, -352667.0, -112135.875, -0.021661233, -0.28988785, 11734.955, 167066.11, 0.0000020138657, 10.0019245, 9.997636 
2.0852153e+3, 2.9414803e+2, 273176.66, -131074.06, -159789.33, 0.13704774, -0.11414073, 328708.6, 386040.6, 0.000014504671, 10.003219, 9.997827 
2.0852359e+3, 3.0414554e+2, 449675.94, 98660.82, 130638.98, -0.11009874, -0.20256983, 492959.25, 492959.25, 0.000053405533, 10.003496, 9.998991 
2.0852657e+3, 3.141458e+2, 246974.27, -27372.979, -209562.72, 0.19906197, -0.16808349, 360266.47, 360266.47, 0.000125829, 10.002187, 9.998721 
2.0948601e+3, 1.2413419e+2, -1694364.4, -1415310.6, 226920.45, -0.09677223, -0.28568265, -1288453.1, 435020.06, 0.42994058, 9.998382, 10.004505 
2.0948748e+3, 1.3413478e+2, -2042331.6, -1899692.4, -123937.2, -0.28831154, -0.22430924, -1828019.3, -202551.48, 0.31401625, 9.997393, 9.999256 
2.0948999e+3, 1.4413668e+2, -1740654.9, -1553167.9, -19099.314, 0.32210636, -0.035318915, -1551242.0, -23792.945, 0.19429262, 9.99809, 10.000663 
2.0949177e+3, 1.5413724e+2, -1436163.4, -1345543.4, 15209.868, -0.07241277, -0.10481176, -1343058.6, 86383.32, 0.094824284, 9.999465, 10.0007925 
2.0949385e+3, 1.6413766e+2, -1374697.4, -1402104.1, -27319.283, -0.14011203, -0.07514629, -1357837.3, -26400.285, 0.032688897, 9.999803, 9.999535 
2.0949614e+3, 1.7413634e+2, -1376129.5, -1316654.5, -34186.203, 0.018713666, -0.21695378, -1301081.9, -67631.59, 0.0061590113, 9.9990225, 9.999794 
2.0949832e+3, 1.8413623e+2, -1283381.1, -1192291.3, -18019.576, 0.039103918, -0.21842745, -1188856.1, -53404.574, 0.00026052183, 9.998838, 10.00008 
2.0950049e+3, 1.941383e+2, -1061908.1, -1007823.75, 2062.5818, -0.028387502, -0.0708035, -1007745.25, 29686.045, 0.00000016154512, 9.999614, 10.000269 
2.0950267e+3, 2.0413877e+2, -1039677.56, -1124721.0, -47069.313, -0.059419747, 0.022651484, -1018767.3, -79339.22, 0.0, 9.999848, 9.998691 
2.0950483e+3, 2.141367e+2, -961997.25, -1025761.8, -49187.957, -0.04455998, -0.092326544, -935262.7, -93811.414, 0.0, 9.999697, 9.998746 
2.0950691e+3, 2.2413571e+2, -814227.06, -845235.5, -92323.84, -0.100301675, -0.092362426, -736114.7, 7347.63, 0.0, 9.999707, 9.999357 
2.0950887e+3, 2.3413613e+2, -622801.56, -661939.5, -38734.8, -0.22166358, -0.047311332, -598973.2, 46483.48, 0.0, 10.000217, 9.999667 
2.0951097e+3, 2.4413536e+2, -619312.9, -804405.44, -22274.91, -0.17780995, -0.013977457, -616669.94, -69206.36, 0.0, 10.000382, 9.997953 
2.0951335e+3, 2.5413263e+2, -467149.84, -671067.6, -23977.924, 0.11666322, -0.12097275, -464368.3, -14877.826, 0.0, 10.000748, 9.997996 
2.095155e+3, 2.64131e+2, -355136.38, -560120.9, -13834.989, 0.124071516, -0.08584379, -354206.84, -2701.235, 0.0, 10.000794, 9.998086 
2.0951736e+3, 2.7413073e+2, -217208.97, -415116.78, 553.0319, -0.20322682, 0.0153788375, -217207.42, 36299.098, 0.0, 10.000983, 9.998287 
2.0951954e+3, 2.8412792e+2, -139304.2, -468571.44, -86907.836, -0.19166674, -0.03133772, -117773.37, 37759.094, 0.00000039293647, 10.001396, 9.997091 
2.09522e+3, 2.941223e+2, 200622.05, -192097.55, -81372.51, 0.23293765, -0.37543154, 216814.95, 274401.9, 0.000007667558, 10.002833, 9.997594 
2.0952395e+3, 3.0412352e+2, 290534.16, -25201.348, 66872.6, -0.12397978, -0.069619216, 304113.7, 304113.7, 0.000037309022, 10.002674, 9.9985075 
2.0952664e+3, 3.1412366e+2, -34313.848, -349290.25, -30838.639, -0.038785227, 0.017692884, -31322.906, -31322.906, 0.0000961441, 10.001161, 9.996962 
2.1048601e+3, 1.2411442e+2, -1834653.5, -1343117.3, 196208.39, 0.19326945, -0.1707871, -1274402.1, 449263.16, 0.44859928, 9.996146, 10.00659 
2.1048719e+3, 1.341139e+2, -2033714.1, -2075881.8, -237588.22, -0.3431842, -0.11970991, -1816276.1, -190604.66, 0.3298663, 9.998206, 9.997671 
2.1048994e+3, 1.4411257e+2, -1543765.0, -1502205.6, -58429.047, 0.4004894, -0.14357905, -1460971.1, 66713.93, 0.20615475, 9.999643, 10.000333 
2.104917e+3, 1.541146e+2, -1554078.1, -1387138.5, -104595.266, -0.04518446, -0.07253096, -1336789.8, 92874.11, 0.10215144, 9.998644, 10.000877 
2.1049374e+3, 1.64115e+2, -1617999.3, -1514699.3, -91300.49, -0.13042367, -0.05354494, -1461451.8, -129792.9, 0.036114734, 9.9981365, 9.999542 
2.104961e+3, 1.7411304e+2, -1299862.1, -1274672.6, -81162.72, 0.060326498, -0.26271847, -1205133.3, 28543.24, 0.007176738, 9.999529, 9.999824 
2.1049832e+3, 1.8411288e+2, -1140553.8, -1171449.0, -40741.26, 0.09984228, -0.25377938, -1112429.9, 23248.516, 0.0003661867, 10.000022, 9.999654 
2.1050042e+3, 1.9411492e+2, -1090170.3, -1073981.3, -85594.016, -0.052628033, -0.058021795, -996099.8, 41561.047, 0.00000091193453, 9.999645, 9.999801 
2.105026e+3, 2.0411524e+2, -1085033.9, -1117729.3, -107360.1, -0.07426077, 0.030501232, -992783.94, -53124.14, 0.0, 9.999365, 9.998997 
2.1050486e+3, 2.141128e+2, -967896.6, -997027.94, -74065.08, 0.036761884, -0.15426353, -906978.56, -65294.566, 0.0, 9.999464, 9.99909 
2.10507e+3, 2.2411177e+2, -822775.6, -840940.06, -70106.055, 0.03803232, -0.17643094, -761165.94, -17471.873, 0.0, 9.99964, 9.999403 
2.1050894e+3, 2.3411253e+2, -611880.7, -654182.25, -137846.22, -0.14748646, -0.09667664, -493572.03, 152113.94, 0.0, 10.000307, 9.9996605 
2.1051109e+3, 2.4411203e+2, -530052.6, -740263.8, -138125.61, -0.11790131, -0.041792195, -461590.16, 86100.66, 0.0, 10.000879, 9.99817 
2.1051347e+3, 2.5410968e+2, -389363.8, -609453.4, -120725.09, 0.16007477, -0.13032857, -336055.0, 113659.5, 0.0, 10.001169, 9.998228 
2.1051565e+3, 2.6410845e+2, -254041.13, -489910.78, -44402.266, 0.19149184, -0.07735243, -245959.34, 105766.79, 0.0, 10.001377, 9.998297 
2.1051756e+3, 2.7410838e+2, -128932.02, -354696.97, -34325.75, -0.120933846, 0.033397872, -123828.445, 129896.51, 0.0, 10.001502, 9.99846 
2.1051975e+3, 2.8410572e+2, -65737.12, -421377.22, -16671.43, -0.11427806, -0.012708029, -64957.313, 90792.59, 0.00000006547354, 10.001892, 9.9971485 
2.1052223e+3, 2.9409984e+2, 163623.97, -216740.75, -36162.773, 0.22651894, -0.37533778, 167031.58, 224839.19, 0.000004738257, 10.002649, 9.997494 
2.1052432e+3, 3.0410108e+2, 295384.1, -102048.46, 84161.445, -0.029757155, -0.028431615, 312471.7, 312471.7, 0.00002905632, 10.003014, 9.997822 
2.1052678e+3, 3.1409928e+2, 251640.17, -98435.99, -68807.39, -0.041388012, -0.059365, 264678.66, 264678.66, 0.00007991688, 10.002604, 9.997993 
2.114853e+3, 1.240901e+2, -2035641.1, -1636328.6, 269105.28, -0.26153156, -0.0030153152, -1500902.4, 223005.77, 0.46656317, 9.996333, 10.003318 
2.1148731e+3, 1.3409032e+2, -1933799.6, -1898213.6, -129693.17, -0.10894683, -0.07339609, -1785098.6, -159194.7, 0.34608045, 9.998334, 9.99882 
2.1148975e+3, 1.4408793e+2, -1578802.8, -1642568.4, -85404.19, 0.17547072, -0.18968797, -1519524.3, 8403.223, 0.21890919, 9.999931, 9.999162 
2.114917e+3, 1.5409027e+2, -1536074.8, -1385974.1, -139938.55, 0.04709223, -0.060220107, -1302231.0, 127674.29, 0.110347085, 9.998798, 10.000833 
2.1149366e+3, 1.6409023e+2, -1542174.9, -1396997.3, -73193.84, -0.10677096, -0.12427132, -1366501.3, -34596.918, 0.040102176, 9.9983, 10.000273 
2.1149597e+3, 1.7409001e+2, -1257276.0, -1197646.1, -18950.756, -0.060583416, -0.21615115, -1192133.1, 41768.668, 0.008443992, 9.999564, 10.00034 
2.1149825e+3, 1.8409017e+2, -1193622.8, -1294986.3, -69602.516, -0.028059155, -0.16302747, -1158204.9, -22304.87, 0.00052604213, 10.000078, 9.998777 
2.1150039e+3, 1.9408964e+2, -1171925.5, -1219818.1, -92657.64, -0.07153731, -0.1304816, -1100169.9, -62258.934, 0.0000034897541, 9.999548, 9.99884 
2.1150254e+3, 2.04089e+2, -1049206.1, -989152.1, -122444.94, -0.09782197, -0.12893182, -893106.2, 46812.31, 0.0, 9.999135, 9.9999895 
2.1150476e+3, 2.1408837e+2, -923991.25, -840316.75, -59727.92, -0.029180614, -0.2520549, -809230.9, 32688.896, 0.0, 9.999207, 10.000281 
2.1150698e+3, 2.2408792e+2, -949449.7, -1023338.06, -61072.38, 0.0066365628, -0.2337643, -915016.6, -171093.4, 0.0, 9.999287, 9.9983225 
2.1150915e+3, 2.3408736e+2, -737583.3, -863558.8, -96472.74, 0.015919592, -0.15674566, -685356.25, -39422.938, 0.0, 10.000077, 9.998335 
2.115113e+3, 2.4408661e+2, -541098.44, -673411.8, -137577.19, -0.008977259, -0.0853294, -454598.0, 93344.48, 0.0, 10.000499, 9.998804 
2.1151343e+3, 2.5408554e+2, -366398.4, -504979.8, -94763.78, -0.028179051, -0.13413873, -318295.0, 131655.83, 0.0, 10.000932, 9.99905 
2.115156e+3, 2.6408434e+2, -282264.88, -445105.03, -51605.52, -0.037912603, -0.14527656, -267288.06, 84671.58, 0.0, 10.000946, 9.998804 
2.1151784e+3, 2.7408263e+2, -121179.56, -282155.22, -7807.3354, -0.018917115, -0.25727978, -120801.79, 133170.58, 0.0, 10.001259, 9.99907 
2.1152005e+3, 2.84081e+2, -115418.54, -421337.3, -8480.73, -0.056880478, -0.2485681, -115183.61, 40803.465, 0.00000005479561, 10.001449, 9.997363 
2.1152227e+3, 2.9407972e+2, 107180.52, -266557.7, 23728.361, -0.0669034, -0.18071164, 108680.99, 166684.08, 0.0000044706885, 10.002338, 9.997308 
2.1152456e+3, 3.0407763e+2, 70083.08, -328712.97, 43490.746, -0.14362071, -0.075988375, 74770.87, 74770.87, 0.000027145721, 10.002055, 9.99669 
2.1152702e+3, 3.14073e+2, 264123.38, 203730.38, 35609.418, -0.14722714, -0.33876312, 280615.84, 280615.84, 0.00007500438, 10.001501, 10.0005665 
2.1248515e+3, 1.24067344e+2, -1736337.0, -1203523.1, 39458.17, -0.0003864965, 0.17872742, -1200616.8, 523513.72, 0.48543465, 9.995232, 10.0091505 
2.1248724e+3, 1.3406454e+2, -1935195.0, -1804724.5, -117097.875, 0.035234492, -0.22885263, -1735916.6, -109759.81, 0.3637423, 9.997966, 9.999614 
2.1248958e+3, 1.4406492e+2, -1905270.6, -1802413.9, -45944.41, 0.13032192, -0.104431584, -1784880.1, -256725.95, 0.23315269, 9.997682, 9.999145 
2.124916e+3, 1.5406646e+2, -1508332.5, -1371084.3, -111952.16, 0.08838836, -0.055941094, -1308397.5, 121742.58, 0.1197026, 9.9989395, 10.000896 
2.124936e+3, 1.6406614e+2, -1365763.0, -1315420.3, -27753.676, -0.033111036, -0.15337497, -1303123.5, 29018.457, 0.044803485, 9.9995, 10.000283 
2.124959e+3, 1.7406642e+2, -1295212.3, -1225735.0, -45110.9, -0.055656403, -0.18322213, -1203537.1, 30597.314, 0.01004214, 9.999342, 10.000263 
2.1249819e+3, 1.8406674e+2, -1326788.4, -1327643.8, -80785.36, -0.014889089, -0.12059048, -1246429.6, -110299.31, 0.0007722133, 9.999023, 9.999058 
2.1250036e+3, 1.9406576e+2, -1203152.5, -1203541.4, -36398.57, -0.01853807, -0.16651578, -1166947.9, -128803.76, 0.000010944595, 9.999178, 9.999141 
2.1250254e+3, 2.040652e+2, -992890.44, -974853.1, -4549.817, -0.025379254, -0.1679239, -973770.44, -33619.645, 0.0, 9.999598, 9.999849 
2.1250473e+3, 2.1406534e+2, -719942.2, -758039.3, -73847.23, -0.051279888, -0.19815163, -662726.3, 179420.06, 0.0, 10.000703, 10.000101 
2.1250698e+3, 2.2406498e+2, -675165.2, -897819.75, -79522.69, 0.0016739944, -0.16086128, -649680.1, 94469.6, 0.0, 10.001187, 9.998273 
2.1250927e+3, 2.3406367e+2, -634660.8, -816290.75, -48250.063, 0.09823645, -0.15188958, -622638.9, 23526.887, 0.0, 10.000793, 9.998316 
2.1251145e+3, 2.4406272e+2, -521938.44, -623865.7, -25551.91, 0.106836066, -0.11694351, -515891.63, 32284.238, 0.0, 10.000485, 9.999141 
2.1251348e+3, 2.5406206e+2, -424688.5, -495169.22, -55303.79, -0.023173327, -0.15316251, -394351.47, 55828.08, 0.0, 10.000391, 9.999377 
2.1251567e+3, 2.640609e+2, -310150.22, -457597.34, -8387.499, -0.03086844, -0.17335004, -309674.63, 42513.18, 0.0, 10.000759, 9.998801 
2.1251804e+3, 2.7405882e+2, -70810.75, -262804.2, -50648.484, 0.05386662, -0.3155103, -58268.816, 195937.31, 0.0, 10.001652, 9.999004 
2.1252029e+3, 2.8405783e+2, 56142.25, -286662.38, -36176.293, 0.009793305, -0.26112995, 59918.35, 216133.11, 0.000000117451826, 10.002358, 9.99788 
2.1252242e+3, 2.9405814e+2, 203468.69, -158205.14, -23940.494, -0.14552155, -0.07238249, 205046.5, 263259.63, 0.0000050467984, 10.002714, 9.997884 
2.1252488e+3, 3.040545e+2, 184243.61, -327242.4, 68329.22, -0.045091305, -0.140932, 193214.34, 193214.34, 0.00002697455, 10.002948, 9.996343 
2.1252735e+3, 3.1405118e+2, 330750.1, 238821.42, -67375.25, 0.042684797, -0.20506081, 366346.44, 366346.44, 0.00007158717, 10.001804, 10.00075 
2.1348701e+3, 1.3403744e+2, -1895926.3, -1729504.8, -149015.3, -0.015160635, -0.44266862, -1642041.5, -15619.809, 0.38411817, 9.998011, 10.000076 
2.1348931e+3, 1.4404318e+2, -1812552.3, -1653097.6, -58584.246, 0.021544356, 0.10081014, -1633887.9, -105518.86, 0.24951555, 9.997858, 10.000079 
2.1349138e+3, 1.5404303e+2, -1470867.9, -1331304.1, -56484.51, -0.07508634, -0.056377824, -1311308.5, 119061.1, 0.13052814, 9.999063, 10.001126 
2.1349353e+3, 1.640427e+2, -1380661.6, -1396948.6, -46833.74, -0.10973864, -0.14025496, -1341268.6, -8896.909, 0.050404422, 9.999717, 9.999611 
2.1349588e+3, 1.7404228e+2, -1341816.5, -1328506.1, -44925.215, -0.062500745, -0.16804586, -1289745.8, -55371.285, 0.012084308, 9.999369, 9.999541 
2.1349812e+3, 1.840425e+2, -1220061.4, -1126558.1, -92033.25, -0.049280025, -0.13887024, -1070082.6, 66288.11, 0.001155736, 9.999107, 10.000398 
2.1350032e+3, 1.9404328e+2, -1104651.9, -987606.9, -20319.445, -0.031888153, -0.15982576, -984179.7, 54181.16, 0.000030850606, 9.999122, 10.000654 
2.1350251e+3, 2.0404369e+2, -1113710.0, -1174689.6, 18495.248, -0.064804494, -0.08956273, -1108538.9, -168180.78, 0.0, 9.999382, 9.998581 
2.1350473e+3, 2.1404342e+2, -865813.3, -999791.94, -19363.635, -0.14991389, -0.004988513, -863070.9, -20704.398, 0.0, 10.000446, 9.998563 
2.1350698e+3, 2.2404283e+2, -667732.6, -783880.94, -99433.31, -0.15958671, 0.048539016, -610656.5, 133717.6, 0.0, 10.00078, 9.999244 
2.1350925e+3, 2.3404144e+2, -590455.25, -665217.44, -49818.953, -0.03210134, -0.073067896, -565552.5, 80831.19, 0.0, 10.000543, 9.999475 
2.1351145e+3, 2.4404016e+2, -587762.56, -674265.1, -45218.61, 0.02489027, -0.12525357, -568440.7, -20047.73, 0.0, 10.000119, 9.998967 
2.135136e+3, 2.5403893e+2, -472271.84, -548375.9, -43913.617, 0.030688858, -0.19372465, -452217.38, -1814.349, 0.0, 10.000193, 9.999104 
2.1351582e+3, 2.6403773e+2, -416537.78, -589911.5, 8004.8354, 0.009438195, -0.17899446, -416168.97, -63754.105, 0.0, 10.000396, 9.998061 
2.1351814e+3, 2.7403623e+2, -169156.1, -409201.72, 1897.9968, -0.041568276, -0.17823632, -169141.08, 85290.61, 0.00000000014169585, 10.001398, 9.998123 
2.135204e+3, 2.8403527e+2, 13160.229, -237589.84, -38876.953, -0.16069056, -0.097742304, 19049.494, 175490.31, 0.000000256191, 10.0018015, 9.998463 
2.1352266e+3, 2.9403487e+2, 220998.4, -40000.57, 24810.1, -0.20195858, -0.07486492, 223335.88, 281776.6, 0.0000052967753, 10.0023575, 9.998862 
2.1352518e+3, 3.0403045e+2, 63197.027, -343156.5, 25873.69, -0.10685871, -0.29744625, 64837.85, 64837.85, 0.000025200057, 10.002029, 9.996634 
2.1352752e+3, 3.140294e+2, 6008.936, -109436.68, -79997.02, -0.059082773, -0.15015714, 46934.223, 46934.223, 0.00006359548, 10.000527, 9.998913 
2.144869e+3, 1.3401365e+2, -1894876.0, -1709108.8, -21146.316, 0.08351058, -0.38294396, -1706732.0, -80077.07, 0.40760165, 9.997907, 10.0002365 
2.1448912e+3, 1.4401983e+2, -1831131.8, -1643145.4, -60247.574, 0.06863084, 0.1797056, -1625494.1, -96893.766, 0.26811564, 9.99765, 10.000247 
2.1449131e+3, 1.5401888e+2, -1505049.5, -1349231.3, -77630.74, -0.023940897, -0.059668124, -1317156.9, 113450.266, 0.14296411, 9.998857, 10.0011 
2.144936e+3, 1.6401869e+2, -1442964.8, -1425324.8, -81521.11, 0.009791264, -0.12284296, -1352147.9, -19540.166, 0.057087187, 9.999311, 9.999604 
2.1449582e+3, 1.7401858e+2, -1348126.5, -1321960.0, -59108.656, -0.019023625, -0.12986295, -1274504.0, -39894.645, 0.014719365, 9.99932, 9.999598 
2.1449803e+3, 1.840188e+2, -1181751.9, -1083242.1, -73714.69, -0.036737397, -0.11265313, -1043840.94, 92764.45, 0.0017550356, 9.999269, 10.000618 
2.1450026e+3, 1.9401956e+2, -988238.2, -901579.75, -121422.5, 0.0009672173, -0.16038024, -815987.1, 222605.75, 0.00008036648, 9.9998045, 10.000905 
2.1450251e+3, 2.0401996e+2, -1032117.5, -1164988.0, -59642.074, -0.005411303, -0.09256267, -1009273.3, -68683.836, 0.000000018813253, 10.0000725, 9.99832 
2.1450476e+3, 2.140196e+2, -908057.7, -1057769.9, -30460.742, -0.13142432, 0.01434726, -902097.4, -59496.273, 0.0, 10.000301, 9.998246 
2.1450703e+3, 2.2401896e+2, -747659.0, -784096.7, -99002.0, -0.13758922, 0.06731361, -665213.44, 79396.14, 0.0, 10.000067, 9.999591 
2.1450925e+3, 2.3401774e+2, -737767.2, -688521.4, -141163.45, -0.009130046, -0.07288895, -569849.5, 76766.164, 0.0, 9.999336, 9.999898 
2.145115e+3, 2.4401665e+2, -666162.94, -711861.2, -89358.13, 0.08796919, -0.1296212, -596778.9, -48156.37, 0.0, 9.99957, 9.998982 
2.1451375e+3, 2.540156e+2, -323904.8, -481646.1, -93164.086, 0.11113408, -0.17251079, -280709.38, 169922.56, 0.0, 10.001224, 9.999068 
2.1451598e+3, 2.6401448e+2, -188509.22, -485265.06, -7705.824, 0.08552817, -0.14376168, -188309.27, 164334.2, 0.0, 10.00196, 9.998038 
2.1451826e+3, 2.7401316e+2, -179826.83, -412694.2, 2069.0984, -0.056059252, -0.1234902, -179808.44, 74850.55, 0.00000000016893417, 10.001321, 9.998138 
2.1452053e+3, 2.8401217e+2, -89575.69, -303244.84, 19257.37, -0.13411413, -0.044551138, -87853.95, 68814.375, 0.0000002738674, 10.001116, 9.998358 
2.1452297e+3, 2.9401103e+2, 102769.32, -90049.016, -29088.727, -0.080637835, -0.07806389, 107062.09, 165737.63, 0.0000047479944, 10.001521, 9.998915 
2.1452546e+3, 3.0400723e+2, 205222.52, -161409.58, -15041.8955, 0.014665558, -0.31086776, 205838.61, 205838.61, 0.000021563434, 10.002404, 9.997746 
2.1452776e+3, 3.140073e+2, 340080.22, -18977.033, -208211.69, 0.050287616, -0.12911704, 435474.56, 435474.56, 0.000054127682, 10.0030365, 9.998339 
2.1548675e+3, 1.3399307e+2, -1900684.9, -1771792.8, -62197.965, 0.030018229, -0.048595402, -1746673.9, -119816.01, 0.43279883, 9.998149, 9.999676 
2.1548887e+3, 1.4399448e+2, -1811827.1, -1699121.1, -73569.74, -0.060208708, 0.08438397, -1662801.8, -133950.03, 0.28823382, 9.998038, 9.999682 
2.1549135e+3, 1.5399402e+2, -1514937.6, -1397511.5, -32501.299, 0.09043211, -0.06726255, -1389116.0, 41736.793, 0.15688464, 9.998983, 10.000647 
2.154937e+3, 1.6399413e+2, -1376000.1, -1334978.4, -92385.29, 0.11582169, -0.105702214, -1260854.5, 71995.375, 0.06501248, 9.999532, 10.000135 
2.1549575e+3, 1.739952e+2, -1297832.0, -1217956.5, -56509.81, -0.07497994, -0.060826067, -1188696.1, 46143.793, 0.018139776, 9.9993305, 10.000303 
2.1549788e+3, 1.839955e+2, -1228709.3, -1200725.0, -74746.37, -0.16963731, -0.03665675, -1138672.4, -1836.8448, 0.0026903055, 9.999346, 9.999779 
2.1550022e+3, 1.939946e+2, -1065692.1, -1044586.3, -92322.79, -0.06784371, -0.1555073, -962215.3, 76624.914, 0.00019736934, 9.999734, 9.999955 
2.1550255e+3, 2.0399402e+2, -1008973.3, -1078532.3, -67306.9, -0.04792678, -0.16460276, -967991.1, -27146.158, 0.0000007869328, 9.9999, 9.998999 
2.1550481e+3, 2.1399373e+2, -878367.8, -950304.5, -12110.955, -0.14139584, -0.13588747, -876383.6, -33532.04, 0.0, 10.000095, 9.999086 
2.1550706e+3, 2.2399329e+2, -822728.5, -859659.75, -136765.75, -0.14247875, -0.09528216, -703187.44, 41669.707, 0.0, 9.999718, 9.999239 
2.1550925e+3, 2.3399247e+2, -799404.44, -765834.44, -153159.9, 0.019214114, -0.15448296, -628542.5, 18320.277, 0.0, 9.999113, 9.999474 
2.155115e+3, 2.4399203e+2, -716582.6, -723944.44, -48819.973, 0.101745784, -0.12941152, -671305.0, -122439.13, 0.0, 9.9991865, 9.999077 
2.1551387e+3, 2.5399187e+2, -349097.28, -480659.97, -15491.629, 0.09143758, -0.09881068, -347297.75, 103570.1, 0.0, 10.000992, 9.9991865 
2.1551614e+3, 2.63991e+2, -208714.03, -431063.4, -33756.234, -0.0060515953, -0.0765295, -203702.25, 149173.44, 0.0, 10.0015545, 9.998601 
2.1551831e+3, 2.7398917e+2, -168911.52, -335555.8, -5748.967, -0.14961576, -0.1740548, -168713.42, 86178.445, 0.0, 10.001077, 9.998788 
2.1552068e+3, 2.839878e+2, -225923.16, -458975.06, 14013.268, -0.1521807, -0.13558088, -225083.58, -68178.69, 0.000000100631844, 10.000611, 9.997511 
2.1552327e+3, 2.9398635e+2, -31385.277, -276664.88, 21718.31, 0.030518332, -0.096516855, -29477.072, 29442.615, 0.0000031808167, 10.001132, 9.997817 
2.1552566e+3, 3.039834e+2, 160305.7, -16202.466, -10369.244, -0.09477327, -0.24760158, 160912.77, 160912.77, 0.000016664693, 10.001449, 9.999168 
2.1552795e+3, 3.1398612e+2, 174395.45, -130323.84, -15937.188, -0.14839974, -0.008073261, 175226.72, 175226.72, 0.000045618737, 10.002078, 9.998015 
2.1648645e+3, 1.3396889e+2, -1960295.0, -1799784.5, -108658.61, -0.015685013, 0.0372934, -1744956.1, -117858.64, 0.45757636, 9.997799, 9.999715 
2.1648876e+3, 1.4396802e+2, -1699781.6, -1581986.6, -92271.71, 0.032323692, -0.043856658, -1531417.3, -2305.7693, 0.3088363, 9.998557, 10.000241 
2.1649133e+3, 1.539691e+2, -1533655.3, -1380452.4, -21344.38, 0.17906626, -0.089509375, -1377534.3, 53562.54, 0.17204043, 9.998734, 10.000895 
2.1649368e+3, 1.6396989e+2, -1550021.0, -1434881.9, -82851.83, 0.22191076, -0.062397722, -1391562.0, -58474.64, 0.07433442, 9.998365, 10.000004 
2.1649572e+3, 1.7397071e+2, -1360083.0, -1257579.4, -114813.97, -0.004048066, -0.03575855, -1183097.4, 51983.75, 0.022589553, 9.9989, 10.000265 
2.1649785e+3, 1.8397087e+2, -1254434.5, -1214510.9, -102743.51, -0.116100766, -0.019986926, -1129808.0, 7271.167, 0.00413868, 9.999213, 9.99974 
2.1650018e+3, 1.9396988e+2, -1077692.0, -1064771.1, -90176.125, -0.08066926, -0.13527171, -980824.3, 58260.45, 0.00045452762, 9.999731, 9.9998255 
2.1650249e+3, 2.0396933e+2, -997112.1, -996867.7, -30559.896, -0.039501898, -0.16405858, -966429.75, -25341.965, 0.000007502901, 9.999633, 9.999689 
2.1650483e+3, 2.1396942e+2, -979974.4, -910927.06, -9457.551, -0.05612643, -0.17364874, -909655.06, -66567.91, 0.0, 9.999018, 9.999875 
2.165071e+3, 2.2396913e+2, -907537.06, -915651.0, -80912.914, -0.026354333, -0.1532844, -830579.5, -85489.57, 0.0, 9.999211, 9.999092 
2.1650925e+3, 2.3396806e+2, -572387.7, -688760.1, -110863.98, 0.04496943, -0.214207, -505368.25, 141731.6, 0.0, 10.000806, 9.999188 
2.1651152e+3, 2.4396758e+2, -402812.22, -590597.44, 12947.166, 0.10941703, -0.16780858, -401923.75, 147181.08, 0.0, 10.001398, 9.998934 
2.1651395e+3, 2.5396785e+2, -425394.34, -518459.1, -213.35368, 0.104393244, -0.08175535, -425393.84, 25710.014, 0.0, 10.000499, 9.999148 
2.1651626e+3, 2.6396728e+2, -370453.94, -497788.8, -21710.662, 0.039246015, -0.03640638, -366854.03, -13745.115, 0.0, 10.00038, 9.9987135 
2.1651848e+3, 2.7396503e+2, -103649.7, -291151.97, -60537.957, -0.092467524, -0.18366301, -85802.81, 169324.72, 0.0, 10.0014715, 9.998902 
2.165209e+3, 2.8396308e+2, 9807.329, -356530.03, -2797.6697, -0.06540442, -0.20771472, 9828.693, 166974.17, 0.0000000029805467, 10.002253, 9.997435 
2.1652344e+3, 2.9396155e+2, 147350.86, -198993.1, 19888.28, 0.05113666, -0.15192497, 148489.17, 207651.7, 0.000001345268, 10.002411, 9.997726 
2.1652588e+3, 3.0396107e+2, 354678.7, 100664.92, 37239.547, -0.03517118, -0.0760945, 360025.63, 360025.63, 0.000010778314, 10.002666, 9.999388 
2.1652833e+3, 3.1396002e+2, 318755.5, -127908.52, -145994.66, -0.049615726, -0.20056868, 362241.1, 362241.1, 0.00003608632, 10.003362, 9.997416 
2.1748619e+3, 1.3394289e+2, -1923905.6, -1745881.8, -241962.98, -0.1756248, 0.08691168, -1577077.5, 50279.14, 0.48078975, 9.998178, 9.999968 
2.1748883e+3, 1.4394112e+2, -1580666.4, -1453324.8, -40820.402, 0.12671192, -0.2085195, -1441363.0, 88009.91, 0.32934, 9.998946, 10.001204 
2.1749116e+3, 1.5394425e+2, -1484317.8, -1312672.5, -17734.852, 0.104567476, -0.10963912, -1310859.3, 120478.11, 0.18832743, 9.998805, 10.001437 
2.1749346e+3, 1.6394576e+2, -1578849.6, -1541602.0, -84796.69, 0.096102364, 0.006630618, -1473408.0, -140086.19, 0.0852701, 9.998555, 9.999178 
2.1749568e+3, 1.7394522e+2, -1391679.0, -1340646.3, -81345.94, 0.040677737, -0.04481713, -1280908.6, -45576.41, 0.028395085, 9.998974, 9.999645 
2.1749787e+3, 1.8394499e+2, -1209356.6, -1143941.5, -99386.63, -0.06724028, -0.05853063, -1072018.9, 65316.723, 0.006367479, 9.9993105, 10.000175 
2.1750008e+3, 1.9394518e+2, -1047261.4, -989363.1, -63060.098, -0.17760094, -0.10818503, -948924.7, 90403.88, 0.0009868387, 9.999681, 10.000359 
2.1750237e+3, 2.0394567e+2, -975315.94, -915114.8, -63942.3, -0.18607453, -0.09239173, -874542.44, 66777.57, 0.000047582707, 9.999463, 10.0003395 
2.1750481e+3, 2.1394654e+2, -959747.7, -815679.5, -23064.973, -0.013158983, -0.10085219, -812076.94, 31232.297, 0.00000000032497088, 9.998783, 10.000643 
2.1750712e+3, 2.2394629e+2, -975286.25, -957550.4, -41763.84, 0.033105858, -0.11556775, -923723.4, -178413.39, 0.0, 9.998796, 9.9990015 
2.1750925e+3, 2.339441e+2, -628527.25, -736291.8, -36591.05, -0.068935804, -0.26929814, -617277.3, 30053.453, 0.0, 10.000522, 9.998991 
2.175115e+3, 2.4394292e+2, -500226.06, -681372.0, -26644.295, -0.09770221, -0.26752618, -496388.34, 52955.0, 0.0, 10.000932, 9.998526 
2.1751392e+3, 2.539433e+2, -488203.4, -591552.75, -20445.818, 0.014696376, -0.13509949, -484305.56, -32962.68, 0.0, 10.000256, 9.99876 
2.1751633e+3, 2.63943e+2, -462589.2, -581848.9, -3524.1526, 0.024240201, -0.0251402, -462485.13, -109138.766, 0.0, 9.999947, 9.998332 
2.175187e+3, 2.7394062e+2, -175812.45, -371029.44, 917.01025, -0.042128973, -0.14746769, -175808.14, 79558.32, 0.0, 10.001196, 9.998474 
2.1752112e+3, 2.8393778e+2, -33801.63, -323557.56, -9086.596, -0.121052355, -0.25441334, -33516.957, 123875.6, 0.0, 10.001745, 9.997895 
2.1752346e+3, 2.9393616e+2, 132455.45, -153224.19, 41844.266, -0.22334935, -0.28333524, 138458.34, 197867.14, 0.00000028754212, 10.002082, 9.998195 
2.1752612e+3, 3.0393857e+2, 141040.89, -150178.8, 21727.541, -0.13487196, 0.1358107, 142653.03, 142653.03, 0.0000061263827, 10.001905, 9.997994 
2.1752886e+3, 3.1393212e+2, 100580.23, -314274.47, 16713.033, 0.09313335, -0.41560853, 101252.445, 101252.445, 0.000027574106, 10.002268, 9.996634 
2.1848874e+3, 1.4391798e+2, -1937954.8, -1562655.9, -51286.66, 0.31816015, -0.20546061, -1555773.5, -26176.396, 0.34983045, 9.996279, 10.001452 
2.184911e+3, 1.539199e+2, -1437787.4, -1364545.3, -13305.421, 0.15617801, -0.12005188, -1362203.0, 69372.16, 0.2059314, 9.99946, 10.00072 
2.1849328e+3, 1.6392139e+2, -1512732.8, -1524019.6, -86354.516, 0.051397823, 0.034006197, -1431837.5, -98276.53, 0.09816949, 9.999097, 9.999029 
2.1849565e+3, 1.7392026e+2, -1416021.6, -1365407.0, -64069.88, 0.10908292, -0.056446843, -1321827.4, -86250.805, 0.036017943, 9.998926, 9.9994755 
2.1849786e+3, 1.8391977e+2, -1275103.0, -1166100.8, -48688.723, 0.024022272, -0.09231118, -1147520.0, -9937.628, 0.009796201, 9.99877, 10.0002985 
2.1850002e+3, 1.9392052e+2, -1175326.3, -1032668.6, -62138.51, -0.13612114, -0.10977663, -1009398.3, 30172.203, 0.0020521113, 9.998679, 10.000551 
2.1850231e+3, 2.0392133e+2, -1107399.5, -971395.06, -73022.43, -0.1240726, -0.07340532, -939614.6, 1944.4324, 0.00020967671, 9.998546, 10.000392 
2.1850474e+3, 2.1392207e+2, -929072.8, -797655.25, -119751.84, 0.04252137, -0.0955743, -726769.2, 116780.72, 0.00000086887735, 9.998985, 10.000673 
2.1850708e+3, 2.2392192e+2, -875584.06, -887471.6, -90601.78, 0.09826931, -0.11067525, -790731.3, -45181.754, 0.0, 9.999358, 9.999225 
2.185093e+3, 2.3392034e+2, -716613.44, -744713.44, -73096.97, -0.023470884, -0.2279379, -656228.44, -8665.193, 0.0, 9.999776, 9.999291 
2.185116e+3, 2.4391912e+2, -578574.44, -743106.94, -37818.637, -0.04675745, -0.23811963, -570297.94, -20722.592, 0.0, 10.000484, 9.998324 
2.1851404e+3, 2.5391838e+2, -293244.94, -531371.44, -59479.67, 0.030552143, -0.18565051, -279214.66, 172370.95, 0.0, 10.0017185, 9.998479 
2.1851648e+3, 2.639178e+2, -129162.06, -436503.44, -3396.47, 0.07051172, -0.0862881, -129124.53, 224467.6, 0.0, 10.002268, 9.998233 
2.1851893e+3, 2.7391618e+2, -69976.3, -331196.78, -7800.786, 0.020390093, -0.11323451, -69743.55, 185861.8, 0.0, 10.001951, 9.998401 
2.1852134e+3, 2.8391346e+2, -4697.032, -325705.9, 2661.8896, -0.049548678, -0.20439063, -4674.9604, 152955.95, 0.0, 10.001978, 9.997788 
2.1852371e+3, 2.9391044e+2, 169980.86, -174969.77, -49733.41, -0.19289616, -0.34370804, 177008.05, 236670.03, 0.000000027227998, 10.002481, 9.997871 
2.1852647e+3, 3.0391288e+2, 253062.8, -168158.14, -33822.984, -0.0045725973, 0.1261892, 255761.4, 255761.4, 0.0000044959556, 10.002896, 9.99744 
2.1852918e+3, 3.1390667e+2, 279955.47, -31073.338, -123507.03, 0.19189054, -0.32663995, 323032.9, 323032.9, 0.000025056477, 10.002511, 9.998539 
2.1948835e+3, 1.4389655e+2, -1840395.8, -1437310.4, -252224.58, 0.18673012, -0.03772669, -1315996.0, 213808.06, 0.371045, 9.996422, 10.00293 
2.1949111e+3, 1.538953e+2, -1524643.8, -1565603.6, 21620.145, 0.16671953, -0.12196314, -1515343.5, -83526.28, 0.22535217, 9.99962, 9.999147 
2.1949309e+3, 1.6389658e+2, -1446555.1, -1422009.5, -136682.64, -0.1267422, 0.03106471, -1297049.8, 36756.633, 0.113554515, 9.999265, 9.999664 
2.1949553e+3, 1.738955e+2, -1408885.5, -1348034.0, -59882.152, 0.07148502, -0.07341906, -1311291.4, -75473.61, 0.046104282, 9.998921, 9.999598 
2.1949773e+3, 1.8389477e+2, -1264716.1, -1160834.6, -59417.008, -0.03454431, -0.13635895, -1133856.3, 3967.7192, 0.015073848, 9.998838, 10.000305 
2.1949998e+3, 1.9389585e+2, -1178925.0, -1027484.06, -60755.34, -0.094107874, -0.1230564, -1006123.1, 33687.395, 0.004138987, 9.99863, 10.000613 
2.1950227e+3, 2.0389637e+2, -1181005.0, -1082247.4, -79934.97, -0.06924103, -0.08886654, -1037669.44, -95865.42, 0.00072646124, 9.99837, 9.999713 
2.195046e+3, 2.1389584e+2, -1022872.44, -930489.5, -94134.97, -0.03864717, -0.16187385, -871823.7, -28012.762, 0.000022642807, 9.998729, 9.999876 
2.195069e+3, 2.2389589e+2, -895366.44, -835533.06, -87238.164, -0.028851345, -0.1390009, -773224.44, -27414.72, 0.000000000011542125, 9.998958, 9.999771 
2.1950935e+3, 2.3389664e+2, -696280.5, -652315.5, -44995.383, 0.031951774, -0.098902985, -624219.94, 23578.178, 0.0, 9.999558, 10.000027 
2.1951176e+3, 2.4389607e+2, -654885.5, -795333.44, -11911.019, 0.03583562, -0.07771365, -653882.5, -104080.805, 0.0, 10.000043, 9.998171 
2.1951419e+3, 2.5389308e+2, -350310.88, -590706.5, -911.9118, -0.00082474056, -0.2309548, -350307.44, 101525.32, 0.0, 10.001464, 9.998194 
2.1951662e+3, 2.638914e+2, -206529.25, -474366.53, -26919.95, -0.044910967, -0.22339363, -203850.36, 149999.0, 0.0, 10.001764, 9.998198 
2.1951905e+3, 2.7389133e+2, -112805.86, -339754.3, -3979.6526, -0.063690364, -0.10743137, -112736.1, 143111.95, 0.0, 10.001632, 9.998475 
2.1952154e+3, 2.838894e+2, -136762.69, -479658.56, -632.506, -0.09473787, -0.08958072, -136761.52, 21106.127, 0.0, 10.001489, 9.996955 
2.1952412e+3, 2.938845e+2, 35114.89, -365511.16, -3718.4946, -0.050853517, -0.31780472, 35149.402, 95069.89, 0.000000020729713, 10.002107, 9.9967375 
2.1952681e+3, 3.0388352e+2, 127364.445, -227937.2, -43328.598, -0.01576817, -0.10986751, 132572.0, 132572.0, 0.0000055230016, 10.002087, 9.997384 
2.195292e+3, 3.1388152e+2, 272355.38, 244244.5, -113395.73, -0.0946838, -0.20110945, 372563.44, 372563.44, 0.000029811183, 10.001365, 10.000929 
2.2048797e+3, 1.438722e+2, -1330633.6, -1209222.4, -64635.715, -0.02023615, -0.24167886, -1181254.8, 348782.97, 0.39437363, 10.000519, 10.003236 
2.2049099e+3, 1.5387198e+2, -1812090.9, -1860839.9, 40823.117, 0.15968704, -0.030151378, -1788919.3, -356874.8, 0.24751917, 9.998351, 9.99773 
2.2049305e+3, 1.6387078e+2, -1509182.3, -1386898.6, -130781.516, -0.02969733, -0.08325633, -1303672.4, 30386.125, 0.13222682, 9.998517, 10.000295 
2.2049539e+3, 1.7387097e+2, -1369334.5, -1288566.8, -44649.344, 0.05774206, -0.11104876, -1268747.5, -32692.316, 0.059555795, 9.998942, 10.000038 
2.2049764e+3, 1.838708e+2, -1296638.6, -1203761.4, -10937.106, 0.002675866, -0.12872395, -1202490.8, -64435.582, 0.023171267, 9.998729, 10.000076 
2.2049993e+3, 1.9387127e+2, -1169083.4, -1055340.4, -67344.87, 0.0015909825, -0.14713116, -1024066.0, 15983.503, 0.008108057, 9.998836, 10.000345 
2.2050223e+3, 2.0387149e+2, -1111134.6, -1089640.3, -48493.918, 0.03810744, -0.11251912, -1050716.9, -108669.25, 0.0021629941, 9.999021, 9.999358 
2.2050452e+3, 2.1387088e+2, -910252.44, -924241.8, -54884.285, -0.008425981, -0.15146023, -861918.94, -17862.77, 0.00023583506, 9.999684, 9.99947 
2.205069e+3, 2.238706e+2, -711969.6, -781450.6, -31056.434, 0.005458686, -0.123971, -700111.8, 45947.51, 0.0000019906881, 10.000361, 9.999474 
2.2050945e+3, 2.3387116e+2, -472498.88, -581686.2, -98536.17, 0.0939242, -0.07152703, -414443.34, 233607.88, 0.0, 10.001244, 9.999718 
2.2051191e+3, 2.4387047e+2, -454125.44, -687633.7, -89948.49, 0.13551734, -0.04416769, -423494.84, 126561.39, 0.0, 10.001362, 9.998282 
2.2051433e+3, 2.5386778e+2, -489774.9, -625494.5, -82734.74, 0.045793217, -0.18589254, -450630.06, 1452.6887, 0.0, 10.000423, 9.998433 
2.2051673e+3, 2.63866e+2, -415036.72, -588482.6, -53381.55, -0.015150825, -0.19585614, -399924.22, -45824.52, 0.0, 10.000376, 9.998091 
2.2051921e+3, 2.7386528e+2, -91042.125, -359810.63, -68135.09, -0.0667282, -0.12140498, -74756.15, 181349.5, 0.0, 10.001867, 9.998244 
2.2052178e+3, 2.838639e+2, 11671.112, -374139.22, -35674.523, -0.022323096, -0.056541372, 14942.078, 173062.89, 0.0, 10.00236, 9.997259 
2.2052446e+3, 2.9385996e+2, -1042.1703, -338726.94, -7923.508, 0.12352924, -0.20615655, -856.35364, 59307.664, 0.00000007580395, 10.001673, 9.997133 
2.2052705e+3, 3.0385786e+2, 43352.1, -297511.78, 77981.01, 0.08874628, -0.13866451, 60345.035, 60345.035, 0.0000083740215, 10.001586, 9.997179 
2.205295e+3, 3.1385767e+2, 436900.47, 341399.88, -169842.83, 0.016090745, 0.01498987, 565577.7, 565577.7, 0.000042885644, 10.002354, 10.00113 
2.2148798e+3, 1.4384918e+2, -1385280.4, -1318611.9, 101955.23, -0.18521532, -0.37908968, -1244680.0, 285576.97, 0.4221777, 10.000525, 10.00212 
2.2149073e+3, 1.5384945e+2, -1924310.9, -2083272.3, 51556.598, 0.0078385025, 0.13964747, -1909053.8, -476792.9, 0.27423543, 9.998324, 9.996224 
2.2149314e+3, 1.6384381e+2, -1430242.0, -1277958.4, -117230.12, 0.1228924, -0.29952917, -1214312.9, 120006.66, 0.15564767, 9.998727, 10.001028 
2.214952e+3, 1.7384672e+2, -1299044.3, -1152315.8, -29206.791, -0.08791058, -0.16044213, -1146715.8, 89572.875, 0.07778218, 9.998963, 10.001002 
2.2149749e+3, 1.8384793e+2, -1330943.6, -1287279.1, -30084.986, -0.068516545, -0.06738525, -1271939.5, -133663.84, 0.035576556, 9.998777, 9.999482 
2.2149986e+3, 1.9384675e+2, -1236752.5, -1164370.3, -53686.11, 0.014530238, -0.1779846, -1135815.8, -95527.64, 0.0154146915, 9.99871, 9.999649 
2.2150213e+3, 2.0384648e+2, -1142226.9, -1112461.4, -35890.496, -0.0019849248, -0.15415236, -1088490.3, -146198.5, 0.005714695, 9.998835, 9.9992895 
2.2150451e+3, 2.1384703e+2, -941363.4, -939590.3, -18312.115, -0.022562208, -0.07598313, -922143.25, -77856.01, 0.0013616167, 9.999471, 9.999464 
2.2150694e+3, 2.2384629e+2, -868949.6, -1005262.8, -15599.684, -0.022085475, -0.036534406, -867187.2, -120890.89, 0.00013056793, 9.999926, 9.998146 
2.2150952e+3, 2.338437e+2, -613031.2, -808723.56, -50977.703, 0.024563355, -0.15407355, -600547.9, 47776.164, 0.0000045921656, 10.000961, 9.998295 
2.2151199e+3, 2.4384223e+2, -510697.25, -682111.1, -138116.38, 0.038595363, -0.13884877, -433856.3, 116483.3, 0.000000030624218, 10.000858, 9.998552 
2.2151437e+3, 2.538422e+2, -494509.16, -565264.75, -106033.195, 0.029550908, -0.06571893, -418107.6, 34230.49, 0.0, 10.00014, 9.998973 
2.2151677e+3, 2.6384106e+2, -500825.78, -659005.06, -26932.045, -0.043331366, -0.030507904, -496366.0, -142017.52, 0.0, 9.999936, 9.99781 
2.2151937e+3, 2.738381e+2, -166289.39, -433209.22, 1943.0262, -0.14061297, -0.15268572, -166275.23, 90102.555, 0.0, 10.001532, 9.99789 
2.21522e+3, 2.8383687e+2, -11461.166, -276352.53, -71935.55, -0.095653385, -0.09146547, 6813.362, 165204.05, 0.0, 10.0017605, 9.998204 
2.215247e+3, 2.9383627e+2, 37446.504, -169741.97, -10811.443, 0.15307161, -0.039199896, 38009.137, 98407.24, 0.00000027397763, 10.001312, 9.998453 
2.2152717e+3, 3.0383503e+2, -73881.945, -381839.47, 80410.35, -0.013019161, 0.042339634, -54150.363, -54150.363, 0.000015050563, 10.000953, 9.996874 
2.2152966e+3, 3.138332e+2, 84088.33, -113716.195, 33662.402, -0.107498124, 0.09323865, 89660.055, 89660.055, 0.00007034586, 10.001234, 9.998507 
2.224884e+3, 1.4381818e+2, -1894758.9, -1709610.4, 345883.63, 0.3140333, -0.19264168, -1444126.8, 86438.21, 0.45833316, 9.997388, 10.000136 
2.2249062e+3, 1.5382129e+2, -1497049.8, -1544027.3, -209739.08, 0.03248651, -0.017837193, -1309488.3, 123048.555, 0.30885017, 9.999998, 9.999251 
2.2249292e+3, 1.6381848e+2, -1542527.3, -1319025.3, -105809.7, 0.108511925, -0.3235436, -1276880.3, 57684.85, 0.18666483, 9.997868, 10.001123 
2.2249505e+3, 1.7382215e+2, -1301422.9, -1110381.9, -100998.016, -0.090590246, -0.14136474, -1066888.9, 169639.33, 0.103338934, 9.998772, 10.001434 
2.2249748e+3, 1.8382373e+2, -1281146.0, -1328520.0, -100152.484, 0.028803444, -0.012258391, -1201917.5, -63404.613, 0.054786276, 9.999378, 9.998921 
2.2249985e+3, 1.9382147e+2, -977687.06, -1121612.5, -140756.16, 0.07019675, -0.15979928, -891564.56, 148972.88, 0.028543482, 10.000834, 9.998927 
2.2250214e+3, 2.038204e+2, -823424.4, -982525.8, -137118.05, 0.036050513, -0.16916959, -744451.6, 198097.86, 0.013685946, 10.001138, 9.999079 
2.2250447e+3, 2.1382107e+2, -903405.94, -938639.4, -169138.25, -0.0036072435, -0.06050297, -750969.44, 93573.734, 0.005262215, 9.999816, 9.999311 
2.2250691e+3, 2.2382039e+2, -977141.7, -1075228.5, -64039.22, 0.0068553705, 0.001703086, -945523.6, -198972.38, 0.001420654, 9.999227, 9.9980135 
2.2250952e+3, 2.3381768e+2, -784864.44, -902416.94, -18392.691, 0.012878842, -0.118207045, -782053.9, -133473.19, 0.0002619265, 9.9998, 9.99822 
2.2251204e+3, 2.4381603e+2, -577598.94, -729265.56, -61543.15, 0.039677933, -0.10642854, -555768.25, -5169.9453, 0.000035642544, 10.000452, 9.998431 
2.2251448e+3, 2.53816e+2, -295403.0, -484915.75, -99615.31, 0.060969993, -0.026879271, -252674.9, 199923.2, 0.0000011567587, 10.001523, 9.998887 
2.2251692e+3, 2.6381487e+2, -218129.17, -483787.4, 1718.6099, 0.040847316, 0.0021671455, -218118.06, 136490.2, 0.0, 10.0017, 9.998174 
2.2251953e+3, 2.7381223e+2, -224445.67, -402179.3, 43839.02, -0.06597989, -0.12678897, -214220.77, 42412.293, 0.0, 10.000918, 9.998395 
2.2252217e+3, 2.8381127e+2, -151799.95, -314582.47, 2794.8022, -0.027276257, -0.08077888, -151751.98, 6890.0864, 0.0, 10.000648, 9.998499 
2.225248e+3, 2.9381055e+2, 121354.73, -100670.695, -38356.74, 0.12815925, -0.047961425, 127794.39, 188444.5, 0.00000073017384, 10.001773, 9.998706 
2.225274e+3, 3.0381024e+2, 214133.6, -197599.25, 55871.406, 0.063100725, 0.0771105, 221580.55, 221580.55, 0.00002755439, 10.0027075, 9.99732 
2.2252993e+3, 3.138063e+2, 317295.53, 3119.1558, -46659.457, -0.042458422, -0.068386964, 324078.66, 324078.66, 0.000118261974, 10.002752, 9.998629 
2.2349073e+3, 1.5378809e+2, -1147570.3, -797999.06, -286699.1, 0.06345669, -0.4084852, -637007.4, 795858.94, 0.35698506, 9.9997225, 10.006707 
2.2349241e+3, 1.63794e+2, -1594337.4, -1422861.1, -115492.32, -0.29973084, -0.22348922, -1364760.9, -29957.816, 0.23053116, 9.997877, 10.000327 
2.2349498e+3, 1.7379694e+2, -1328561.4, -1146275.8, -69821.31, -0.0924062, -0.073713735, -1122605.5, 114171.37, 0.14104874, 9.998674, 10.00123 
2.2349751e+3, 1.8379813e+2, -1324096.1, -1410576.6, -68473.664, 0.071322374, 0.031710267, -1286352.6, -147584.63, 0.08532412, 9.99935, 9.99837 
2.2349992e+3, 1.9379538e+2, -1045635.25, -1237360.3, -79668.46, 0.028398486, -0.08977893, -1016851.5, 23946.701, 0.05187056, 10.000712, 9.998187 
2.2350222e+3, 2.037934e+2, -891610.8, -1064615.0, -189205.83, -0.056332327, -0.12471464, -770070.94, 172748.53, 0.030293982, 10.000897, 9.998636 
2.235044e+3, 2.1379285e+2, -956940.44, -995962.5, -210200.52, -0.086505815, -0.10921207, -765347.4, 79477.94, 0.015773455, 9.999584, 9.999031 
2.2350676e+3, 2.237927e+2, -971718.0, -953836.44, -62583.97, -0.10631052, -0.022293646, -899557.8, -152731.5, 0.0069356123, 9.998767, 9.999057 
2.2350943e+3, 2.3379296e+2, -731284.1, -733996.06, 18424.703, -0.09894052, 0.020766756, -714165.56, -65342.957, 0.002541045, 9.999555, 9.999487 
2.23512e+3, 2.4379194e+2, -695693.4, -856852.2, -43018.05, -0.08892337, 0.055589624, -684929.5, -134096.63, 0.00075579167, 9.999965, 9.99778 
2.2351457e+3, 2.537892e+2, -394889.0, -609993.0, -46868.504, -0.011592471, -0.06766781, -385120.56, 67741.64, 0.00014769337, 10.001178, 9.998186 
2.2351709e+3, 2.6378748e+2, -266115.75, -436480.38, -49307.82, 0.0028372533, -0.084476, -252874.05, 102004.68, 0.000007045108, 10.001097, 9.998772 
2.235197e+3, 2.7378732e+2, -205010.14, -287656.5, 23920.086, -0.011102348, -0.059879374, -198586.33, 58288.438, 0.00000000065814787, 10.0006075, 9.999317 
2.2352225e+3, 2.8378645e+2, -276311.6, -430746.6, -692.75916, -0.0640988, -0.045836486, -276308.47, -117427.0, 0.0, 10.000084, 9.997948 
2.2352475e+3, 2.9378283e+2, -28249.383, -278142.56, 23359.846, -0.14030063, -0.23371862, -26084.477, 34835.277, 0.0000012574419, 10.001244, 9.997715 
2.2352764e+3, 3.0378285e+2, 86902.15, -234178.45, 37460.473, -0.03137967, -0.022481794, 91214.734, 91214.734, 0.000044073433, 10.001785, 9.997488 
2.2353029e+3, 3.1377986e+2, 258690.52, 201381.97, 47426.742, 0.0037363996, -0.13878378, 285447.1, 285447.1, 0.00018419352, 10.001483, 10.0005665 
2.2449104e+3, 1.5377015e+2, -1267431.6, -1187098.5, -78486.41, 0.31800818, 0.16280232, -1139097.8, 293950.75, 0.42759266, 10.000718, 10.002253 
2.2449234e+3, 1.6376874e+2, -1294075.8, -1338738.4, -88662.51, -0.2426344, -0.17368402, -1224975.5, 110075.83, 0.29616648, 10.00037, 9.999837 
2.2449495e+3, 1.737707e+2, -1166069.8, -1146980.8, -97709.95, -0.02538985, -0.058835227, -1058350.3, 178686.47, 0.19952731, 10.000256, 10.000525 
2.2449753e+3, 1.8377137e+2, -1226665.6, -1310950.4, -74770.164, 0.13801993, 0.017511405, -1182979.3, -43945.742, 0.13536815, 9.999798, 9.998825 
2.2449997e+3, 1.9376989e+2, -1108051.4, -1199002.9, -14128.652, 0.039619602, -0.04301745, -1105907.1, -64857.453, 0.09319166, 9.999965, 9.998821 
2.2450233e+3, 2.0376833e+2, -1017118.1, -1197265.4, -75015.01, -0.0058994927, -0.048216537, -989971.8, -46905.754, 0.06306426, 10.000265, 9.998052 
2.2450455e+3, 2.1376637e+2, -825176.0, -1023064.0, -163155.98, 0.05137814, -0.08550606, -733306.5, 111779.53, 0.0400799, 10.000875, 9.998249 
2.2450691e+3, 2.2376525e+2, -636899.7, -797375.5, -33320.305, 0.05899709, -0.04552303, -630256.3, 116840.36, 0.023131557, 10.001076, 9.999042 
2.2450948e+3, 2.3376566e+2, -587712.44, -648829.7, -74960.02, -0.032865077, -0.00052929035, -537321.5, 111769.09, 0.011994159, 10.000471, 9.999643 
2.2451204e+3, 2.4376476e+2, -659699.1, -842393.56, -121753.31, -0.038056515, 0.04450554, -598835.4, -47736.152, 0.0054928027, 10.000154, 9.99782 
2.2451468e+3, 2.5376233e+2, -543631.44, -668945.5, -90932.58, 0.033278916, -0.053761013, -495859.16, -42732.76, 0.002050329, 10.000079, 9.998325 
2.2451721e+3, 2.637608e+2, -397507.7, -497297.22, -60259.223, 0.07399308, -0.053368066, -369167.8, -14026.7, 0.0004876709, 10.00016, 9.998818 
2.2451985e+3, 2.737606e+2, -34476.254, -184078.58, -54496.24, 0.034998525, -0.048172947, -16729.84, 240406.98, 0.000047167257, 10.001669, 9.999533 
2.2452237e+3, 2.8375965e+2, 32221.62, -273779.97, -76609.21, -0.011423568, -0.06182017, 50329.605, 209472.7, 0.00000034188096, 10.002144, 9.998046 
2.2452493e+3, 2.937558e+2, 138519.33, -222262.16, -45655.164, -0.13401145, -0.24389245, 144207.1, 205390.23, 0.0000013302117, 10.002443, 9.99755 
2.2452788e+3, 3.0375513e+2, 154812.6, -244332.4, 17488.926, 0.04055406, -0.09277095, 155577.42, 155577.42, 0.0000584347, 10.002369, 9.99715 
2.2453062e+3, 3.1375277e+2, 345378.2, 347861.25, -171916.66, 0.18632084, -0.07251509, 518540.84, 518540.84, 0.00025945, 10.001512, 10.001569 
2.2549266e+3, 1.6374382e+2, -1419454.8, -1534987.9, -139501.14, -0.08760975, -0.05179405, -1326232.8, 9066.828, 0.39765337, 9.999944, 9.998562 
2.2549504e+3, 1.7374319e+2, -1253219.9, -1313360.9, -124091.85, -0.03982034, -0.103502035, -1155607.1, 81703.0, 0.29298013, 10.000238, 9.999295 
2.2549748e+3, 1.8374309e+2, -1202750.4, -1183233.0, -114155.82, 0.0028196697, -0.07954583, -1078419.5, 60893.426, 0.21888196, 9.999501, 9.999891 
2.254999e+3, 1.9374447e+2, -1021363.8, -955749.06, -6549.6533, -0.05368153, -0.047789767, -955101.7, 86195.38, 0.16615056, 9.999669, 10.000727 
2.2550234e+3, 2.037448e+2, -1129030.5, -1342102.0, -64862.555, -0.04710504, 0.042728763, -1110838.5, -167545.69, 0.12546477, 9.999901, 9.99721 
2.2550483e+3, 2.137414e+2, -954382.94, -1235071.1, -129409.1, 0.22863086, -0.020113675, -903826.1, -58498.2, 0.0914258, 10.000623, 9.996883 
2.2550727e+3, 2.2373804e+2, -806271.56, -1039804.8, -61934.94, 0.26985466, -0.064686626, -790862.6, -43500.51, 0.062582165, 10.000586, 9.99761 
2.2550967e+3, 2.337357e+2, -705295.0, -830759.06, -84439.55, 0.081811495, -0.18007961, -662835.06, -13449.918, 0.039919913, 10.000186, 9.998529 
2.2551209e+3, 2.4373448e+2, -736579.4, -818176.5, -147720.89, -0.038347535, -0.12510966, -624126.56, -72728.695, 0.023601582, 9.999396, 9.998334 
2.255147e+3, 2.5373536e+2, -531844.2, -552496.1, -85531.53, 0.027598314, 0.0039729956, -456017.6, -2626.5596, 0.012405956, 9.999714, 9.999281 
2.2551721e+3, 2.6373464e+2, -535980.2, -641726.06, -51163.047, 0.023069248, 0.07843467, -515278.66, -159881.19, 0.005154125, 9.999582, 9.99809 
2.255199e+3, 2.73732e+2, -145441.36, -285099.44, 13948.8955, -0.10402684, -0.120866254, -144061.78, 113357.125, 0.0013586987, 10.001147, 9.999071 
2.2552249e+3, 2.8373075e+2, -89569.54, -318469.63, -109191.734, -0.1496381, -0.14623313, -45837.258, 113590.79, 0.00015517221, 10.001299, 9.998122 
2.2552529e+3, 2.9372957e+2, 85055.77, -193918.63, -11334.688, -0.058187544, -0.08275151, 85515.54, 146954.16, 0.0000026982873, 10.001922, 9.997954 
2.2552805e+3, 3.037273e+2, -42963.6, -462748.2, -38351.137, -0.09677168, -0.088324174, -39488.645, -39488.645, 0.000065484004, 10.00161, 9.995988 
2.2553053e+3, 3.1372184e+2, 141266.88, 201638.06, 12213.153, -0.11357037, -0.22059144, 204015.19, 204015.19, 0.00034262822, 10.000404, 10.001075 
2.2649461e+3, 1.7371589e+2, -1226221.3, -1421637.3, 150331.11, -0.51865166, -0.47446647, -1144635.4, 92929.91, 0.44342524, 10.000492, 9.998643 
2.2649771e+3, 1.8372166e+2, -888634.1, -1317891.6, 142632.61, 0.046454985, 0.026448973, -845562.4, 293954.88, 0.3585124, 10.003934, 9.99691 
2.2649993e+3, 1.9371903e+2, -1149516.5, -1339862.5, -155917.66, -0.026909295, 0.014317058, -1062019.8, -20472.97, 0.29413474, 10.000214, 9.997652 
2.265022e+3, 2.037163e+2, -1206883.9, -1284582.3, -243025.9, -0.121390134, -0.076681525, -999621.6, -56046.344, 0.24160613, 9.998806, 9.9981985 
2.2650449e+3, 2.1371388e+2, -848578.94, -1029881.5, -121244.34, -0.16671398, -0.16801834, -787843.8, 57753.637, 0.1940874, 10.000687, 9.998329 
2.2650701e+3, 2.237115e+2, -631028.8, -989268.25, 58059.543, -0.119075306, -0.18560712, -621854.1, 125766.34, 0.14888066, 10.002061, 9.99728 
2.2650962e+3, 2.3370941e+2, -633997.75, -888627.4, 14556.138, -0.01170268, -0.18180788, -633168.4, 16474.438, 0.108788945, 10.001087, 9.997711 
2.2651218e+3, 2.4370763e+2, -536406.56, -763331.7, 12030.958, 0.05987668, -0.112296864, -535770.5, 15890.874, 0.07581198, 10.000864, 9.998032 
2.2651482e+3, 2.5370756e+2, -179881.47, -415625.56, -34183.105, 0.070708245, -0.05521769, -175024.94, 278637.03, 0.048806984, 10.002258, 9.9990835 
2.2651729e+3, 2.6370633e+2, -134247.22, -509842.16, -35675.207, -0.003948427, 0.008744808, -130888.71, 224784.7, 0.026684597, 10.002557, 9.997609 
2.2651994e+3, 2.737038e+2, -31268.908, -296887.2, -3788.223, -0.18221428, -0.11712922, -31214.893, 226480.95, 0.010897145, 10.002134, 9.998567 
2.2652258e+3, 2.837025e+2, -163327.08, -345677.28, -120229.164, -0.13590504, -0.12177646, -103611.65, 56095.652, 0.002788968, 10.000703, 9.998257 
2.2652566e+3, 2.9370165e+2, 244958.81, -71191.69, 5818.236, 0.09177856, -0.04040968, 245065.86, 306779.4, 0.0003034348, 10.002845, 9.998365 
2.2652838e+3, 3.0369884e+2, 242520.27, -286569.25, -35853.715, -0.0043163383, -0.18109694, 244938.84, 244938.84, 0.000074942734, 10.003443, 9.996339 
2.2653067e+3, 3.136941e+2, 175693.19, 65335.113, 18772.88, -0.08533098, -0.09606888, 178799.2, 178799.2, 0.00045627946, 10.0011425, 9.999903 
2.2750244e+3, 2.0368628e+2, -902773.3, -1034142.3, -63522.855, 0.1687509, -0.006434243, -877081.6, 66797.96, 0.4526298, 10.000882, 9.998898 
2.2750472e+3, 2.1368888e+2, -643493.06, -585283.25, -67763.266, -0.059759133, -0.006170095, -540638.9, 305206.34, 0.38963944, 10.001011, 10.00224 
2.2750743e+3, 2.236906e+2, -996758.4, -1186744.4, -182196.28, 0.044104822, 0.11674754, -886278.4, -138454.8, 0.32267725, 9.999492, 9.997099 
2.2750984e+3, 2.3368707e+2, -1029013.6, -1142746.3, -73806.6, 0.07917999, 0.0057384465, -992707.06, -342846.6, 0.25840095, 9.998683, 9.997047 
2.275123e+3, 2.4368261e+2, -920317.7, -1204823.6, 52624.207, -0.015080313, -0.045647558, -910895.94, -358990.8, 0.20062341, 9.999354, 9.995693 
2.2751506e+3, 2.536786e+2, -415117.44, -673530.9, 35187.324, 0.02388082, -0.29296523, -410411.78, 43530.688, 0.14660953, 10.001265, 9.997723 
2.2751738e+3, 2.636763e+2, -507777.7, -853263.94, -93333.305, -0.22661269, -0.20458008, -484175.97, -128211.45, 0.09444842, 10.00069, 9.996104 
2.2752005e+3, 2.736769e+2, -166351.23, -428142.47, -17123.563, -0.34696737, 0.012381679, -165235.95, 92723.82, 0.04983968, 10.001558, 9.997891 
2.2752261e+3, 2.836755e+2, -361424.78, -495120.56, -180929.36, -0.23185207, 0.06794881, -235389.08, -75414.76, 0.019500945, 9.9996395, 9.997707 
2.2752593e+3, 2.936722e+2, 129697.41, -105334.375, 106789.08, 0.051471964, -0.15816265, 170970.34, 232976.55, 0.004786881, 10.002032, 9.998485 
2.2752866e+3, 3.0366948e+2, 82682.3, -261161.13, -167897.45, -0.11762837, -0.37002498, 151065.86, 151065.86, 0.0007184054, 10.0020275, 9.997136 
2.2753066e+3, 3.1367025e+2, -282096.16, -414903.88, 60656.934, -0.25337142, 0.18980479, -258562.61, -258562.61, 0.0007782504, 9.99936, 9.997349 
2.2851291e+3, 2.4365774e+2, -437261.1, -436750.06, -390064.3, 0.449666, 0.48374936, -46941.184, 505226.38, 0.45869297, 10.000323, 10.00258 
2.2851416e+3, 2.5364888e+2, -1034026.25, -648901.06, -268012.56, -0.70311016, -0.3087721, -511446.84, -57204.992, 0.36361384, 9.995464, 10.00084 
2.2851811e+3, 2.6365414e+2, -732185.4, -788606.6, 66881.16, 0.5089778, 0.2779243, -687808.6, -331626.63, 0.26167566, 9.998123, 9.997881 
2.2852106e+3, 2.7365118e+2, 412527.63, -80904.02, 208926.6, 0.31869617, 0.10156207, 489105.84, 747315.0, 0.1640845, 10.006072, 9.998469 
2.2852309e+3, 2.83647e+2, 522940.6, -19748.318, -46664.242, 0.0014092057, -0.12322027, 526923.9, 687173.6, 0.0825175, 10.005849, 9.998139 
2.2852598e+3, 2.9364702e+2, 402236.1, 94399.54, 352507.25, -0.15883225, -0.06834249, 632963.4, 695214.44, 0.030766662, 10.003497, 9.999303 
2.2852898e+3, 3.0364802e+2, 321203.56, 177518.42, 77772.54, 0.02137811, -0.07545887, 355237.9, 355237.9, 0.009050684, 10.002054, 10.000245 
2.2853085e+3, 3.1364658e+2, 8242.579, 206358.78, 71810.57, 0.0065231794, -0.019344607, 229649.64, 229649.64, 0.0039681573, 9.999208, 10.001689 
2.295211e+3, 2.7362192e+2, -793000.7, -491887.78, -797571.3, -0.29398283, -0.2588803, 169212.84, 427703.88, 0.43463793, 9.996516, 10.001156 
2.2952385e+3, 2.8361487e+2, -748127.9, -982817.5, -467995.56, 0.050810188, -0.92196375, -382989.88, -222434.6, 0.25420952, 9.9982395, 9.995003 
2.295258e+3, 2.936294e+2, 256388.73, 134849.42, 348170.75, -0.7616159, 0.2564815, 549053.44, 611470.6, 0.12187824, 10.002372, 10.00015 
2.2952929e+3, 3.0363762e+2, -690034.5, -447713.84, -50105.266, -0.030204762, 1.0138557, -437762.13, -437762.13, 0.05426911, 9.995892, 9.998757 
2.2953142e+3, 3.13622e+2, 31309.557, 1085548.3, -265951.97, 0.45550948, -1.1731693, 1148840.0, 1148840.0, 0.032002695, 9.995867, 10.00935 
2.3052765e+3, 2.9361805e+2, -31776.807, -687706.9, -614738.56, 0.23190656, 0.5470485, 337011.0, 399536.78, 0.36344, 10.003562, 9.994758 
2.305305e+3, 3.035973e+2, 397264.3, 125195.43, 118253.8, 0.4567795, -1.8135253, 441477.84, 441477.84, 0.21833463, 10.003414, 9.999494 
2.3053077e+3, 3.1361634e+2, -259113.38, -1290806.4, 485719.38, -0.37866086, 0.6126058, -66425.54, -66425.54, 0.17175896, 10.002369, 9.990704 
2.344145e+3, 2.8890294e+2, -812054.1, 41573.938, -639239.25, 0.02175769, -0.048557043, 383393.13, 492146.22, 0.47591275, 9.992397, 10.006228 
2.3575571e+3, 1.7928568e+2, -1252520.8, -1008042.5, 182908.8, 0.045535903, 0.2683834, -910286.06, 272725.6, 0.43658438, 9.997512, 10.002917 
2.3572543e+3, 1.8928914e+2, -869428.44, -1143907.5, 189385.6, 0.119881034, 1.1836463, -772784.25, 312183.53, 0.37772894, 10.003036, 9.997705 
2.356951e+3, 1.992699e+2, -1084614.9, -1557480.3, -70743.92, 0.19937412, -0.23930655, -1074257.9, -87111.89, 0.33363485, 10.00093, 9.995087 
2.3566352e+3, 2.0925646e+2, -928349.75, -1456013.5, -182828.4, -0.4318778, -0.5813456, -871193.3, 18093.94, 0.30109754, 10.001818, 9.994507 
2.3563357e+3, 2.1926236e+2, -1137180.5, -1410813.3, 554982.1, 0.89056104, 0.8646214, -702399.25, 88843.734, 0.2783399, 9.998757, 9.996083 
2.3560236e+3, 2.2925897e+2, -128195.88, -407477.94, 363321.8, 0.3540638, 1.1046096, 121396.125, 814667.6, 0.2613125, 10.004389, 10.000121 
2.355708e+3, 2.3923695e+2, -1075327.5, -867062.06, 106112.26, -0.76535034, -0.8150866, -822522.56, -227045.1, 0.24582522, 9.995819, 9.999872 
2.355406e+3, 2.4923477e+2, -816869.44, -632037.25, 200774.9, 0.14521196, -0.5551216, -503430.06, -5935.281, 0.2302187, 9.997088, 9.999984 
2.3550938e+3, 2.592367e+2, -1302882.4, -891782.44, 259647.42, 0.029237242, 0.06716493, -766171.44, -366697.84, 0.21018535, 9.993057, 9.999659 
2.3547731e+3, 2.692345e+2, 245096.8, 264285.63, 90658.45, -0.29371777, 0.084021255, 345855.94, 647344.1, 0.1767482, 10.002115, 10.003407 
2.3544656e+3, 2.792264e+2, 55617.137, -962565.9, 471951.8, -0.21257807, -0.2386736, 240724.92, 444285.75, 0.1357966, 10.005326, 9.99204 
2.354155e+3, 2.8921714e+2, 1223026.8, 332884.53, 110860.95, 0.13423985, -0.111391135, 1236625.9, 1342284.0, 0.12680466, 10.0108385, 9.9979315 
2.3538567e+3, 2.9921657e+2, -154210.3, 82012.914, 728077.3, 0.38807806, -0.16658808, 701496.7, 709169.4, 0.1857282, 9.998118, 10.00235 
2.353565e+3, 3.0921704e+2, -489465.25, -245949.5, -287198.56, 0.1341654, 0.3883886, -55765.074, -55765.074, 0.30996144, 9.997442, 9.999698 
2.3681603e+3, 1.59612e+2, -1298769.1, -1844716.0, 66317.23, -0.5757862, 0.44867685, -1290828.9, 84974.54, 0.40917933, 10.002272, 9.995303 
2.3678643e+3, 1.6959323e+2, -1016577.75, -1387325.9, -144344.83, 0.53495705, -0.6484781, -967007.2, 310978.03, 0.31914386, 10.003502, 9.997126 
2.3675545e+3, 1.7958668e+2, -1399749.5, -1804616.8, 37804.57, 0.26888773, -0.61968553, -1396249.8, -216203.27, 0.25440213, 10.000069, 9.995315 
2.3672508e+3, 1.8958e+2, -1219878.9, -1371339.6, 228523.64, 0.18780024, -0.43259758, -1054864.3, 27248.158, 0.20803183, 9.9997, 9.997666 
2.3669475e+3, 1.9957644e+2, -993504.7, -1185821.3, 62056.83, 0.2587616, -0.15434793, -975218.8, 8928.197, 0.17323136, 10.000167, 9.998171 
2.3666306e+3, 2.0956624e+2, -688292.06, -745117.94, -70573.37, -0.44990364, -0.6556115, -640626.75, 245615.1, 0.14628568, 10.000883, 10.000241 
2.366315e+3, 2.1955627e+2, -586887.7, -828839.5, -62419.79, -0.81340843, -1.2230076, -571733.56, 216601.45, 0.12553912, 10.001562, 9.998611 
2.3660134e+3, 2.2955987e+2, -606456.6, -875321.6, 95087.734, -0.22406213, -0.18295117, -576226.5, 114077.19, 0.108313076, 10.00108, 9.99777 
2.3657107e+3, 2.3956273e+2, -625036.7, -765895.0, -25367.566, 0.23860851, 0.76417685, -620607.44, -28327.736, 0.092006706, 9.999772, 9.998542 
2.365396e+3, 2.4955608e+2, -112316.84, 59334.445, -174069.16, -0.055807505, 0.4002611, 167586.39, 661925.6, 0.07587349, 10.000621, 10.003405 
2.3650847e+3, 2.5954658e+2, -187699.86, -447164.28, -144169.6, -0.164271, -0.25700086, -123485.375, 272939.56, 0.059167173, 10.001647, 9.998469 
2.364775e+3, 2.6954198e+2, 179402.23, 156666.47, -271960.75, 0.11779276, -0.2876969, 440232.6, 738696.56, 0.040480368, 10.00202, 10.001757 
2.364471e+3, 2.795372e+2, -420446.9, -826057.7, -7850.9326, 0.4035944, -0.3764256, -420295.0, -219788.05, 0.022792675, 10.000484, 9.994922 
2.3641565e+3, 2.8952825e+2, -23957.502, -761542.44, -196115.2, 0.016509598, -0.20569056, 24944.967, 127548.77, 0.018048033, 10.003527, 9.993079 
2.3638442e+3, 2.995219e+2, -90104.5, -385520.9, 365184.63, -0.45983303, -0.17774557, 156113.08, 160791.42, 0.038622376, 10.000897, 9.996761 
2.3635504e+3, 3.0952144e+2, -945483.1, -9982.789, 180670.84, -0.30007052, 0.18421283, 23697.172, 23697.172, 0.08553699, 9.991979, 10.003459 
2.378456e+3, 1.4991722e+2, -1295436.6, -1573931.3, 171572.5, -0.7703458, 0.61245525, -1213715.8, 257094.25, 0.38968346, 10.002737, 9.997596 
2.3781683e+3, 1.5990393e+2, -1403090.4, -1656991.0, -68013.65, 0.22856782, -0.22930487, -1386019.1, -13073.327, 0.27836236, 10.000536, 9.997392 
2.3778619e+3, 1.6990104e+2, -1078077.6, -974757.75, -129938.96, 0.42768908, -0.09625468, -886586.06, 388382.3, 0.19862524, 10.0003605, 10.001819 
2.377552e+3, 1.7990151e+2, -1344449.1, -1428944.1, 14437.053, 0.30422994, 0.1554288, -1342050.5, -165092.22, 0.1461588, 9.999184, 9.998244 
2.3772436e+3, 1.898965e+2, -1317195.9, -1435974.8, 245128.8, -0.15539174, 0.36761948, -1124364.8, -45352.133, 0.11113541, 9.999182, 9.997407 
2.376938e+3, 1.9988903e+2, -1321616.0, -1403672.3, 72983.805, -0.35590807, 0.237934, -1278918.8, -297828.47, 0.08556882, 9.9983, 9.997544 
2.3766352e+3, 2.098827e+2, -859300.6, -840752.94, -53862.59, 0.3185377, 0.12781931, -795371.6, 87770.164, 0.065839775, 9.999724, 9.999937 
2.3763281e+3, 2.1987529e+2, -957637.44, -1157259.5, -38524.08, 0.66417354, -0.16488466, -950460.8, -165256.77, 0.050802168, 9.999573, 9.997263 
2.3760146e+3, 2.2986782e+2, -909742.6, -985155.4, 31355.885, 0.1449844, -0.22700572, -898408.6, -211125.73, 0.03888462, 9.998965, 9.997942 
2.3757043e+3, 2.3986115e+2, -1138344.6, -1147570.6, -59805.523, -0.1083315, -0.24467143, -1082974.5, -493619.47, 0.028499532, 9.997048, 9.997203 
2.3753947e+3, 2.4985774e+2, -394077.16, -278081.03, -179901.94, 0.08756533, -0.13642064, -147059.3, 344327.78, 0.019239584, 9.999657, 10.00117 
2.3750868e+3, 2.5985268e+2, -535777.7, -775748.7, -181996.89, 0.23761772, -0.20157607, -437773.75, -44340.22, 0.01143259, 10.00004, 9.996915 
2.374772e+3, 2.6984763e+2, -122142.586, -280699.84, -411469.5, 0.01672972, -0.0896194, 217616.08, 513097.38, 0.005417436, 10.001354, 9.998869 
2.3744604e+3, 2.7984133e+2, -568070.0, -830580.5, -190159.16, -0.3276317, -0.18307565, -468265.84, -270724.3, 0.0017240121, 9.999275, 9.995475 
2.3741531e+3, 2.898315e+2, 206948.33, -315937.88, -194728.2, -0.29795328, -0.28707105, 271498.44, 371139.25, 0.0009965353, 10.00366, 9.996118 
2.3738515e+3, 2.9982775e+2, 258224.61, -86777.22, 74361.81, 0.035800252, -0.20042893, 273570.03, 275250.13, 0.0037784507, 10.00266, 9.998024 
2.3735441e+3, 3.098222e+2, -463100.75, 155577.47, -39618.656, -0.47238556, -0.19010437, 158104.22, 158104.22, 0.011109927, 9.995475, 10.003047 
2.3887661e+3, 1.4021304e+2, -1308396.4, -1016293.75, -114059.59, -0.113511674, -0.5109426, -977032.94, 588872.6, 0.42782903, 9.999529, 10.006131 
2.3884624e+3, 1.5021636e+2, -1352514.4, -1344778.9, 200223.3, 0.05366328, 0.050834388, -1148386.0, 319490.66, 0.29985446, 10.000444, 10.000653 
2.3881608e+3, 1.6021015e+2, -1615466.0, -1532302.0, 130593.39, -0.030213071, -0.20377038, -1436830.4, -66889.93, 0.19614406, 9.997876, 9.999641 
2.387855e+3, 1.702088e+2, -1061304.6, -970543.0, -48894.645, 0.10827817, 0.005201554, -949214.7, 322733.66, 0.12585048, 10.000209, 10.001857 
2.3875481e+3, 1.8020761e+2, -840773.3, -1059456.0, -8418.423, 0.22132966, 0.14798626, -840449.75, 333504.84, 0.083471425, 10.002189, 9.999467 
2.3872413e+3, 1.9020133e+2, -923218.6, -1097403.6, 127347.59, -0.033788946, 0.084826134, -856030.5, 219987.63, 0.057587944, 10.001244, 9.998798 
2.3869346e+3, 2.001941e+2, -985107.8, -1153656.5, 66685.25, -0.26545155, -0.089194305, -961915.44, 16175.5, 0.03970386, 10.000061, 9.998457 
2.3866299e+3, 2.1019062e+2, -525700.2, -697736.6, -29128.518, 0.10806647, 0.061946012, -520902.1, 359216.84, 0.026570952, 10.001994, 9.999902 
2.3863243e+3, 2.201865e+2, -323899.22, -802469.8, -47201.05, 0.49620992, 0.14571464, -319288.25, 462865.47, 0.017417854, 10.003706, 9.997726 
2.386012e+3, 2.3017713e+2, -504361.78, -799634.6, -63146.152, 0.26838723, -0.10967949, -491424.4, 192828.17, 0.011141793, 10.001812, 9.997866 
2.3857005e+3, 2.4016711e+2, -689886.6, -856448.94, -32286.086, 0.03129293, -0.42885262, -683847.3, -97489.25, 0.0065593217, 9.999793, 9.997855 
2.3853908e+3, 2.5016394e+2, -268413.34, -257102.52, 1814.7985, 0.10050451, -0.2936612, -256818.47, 231568.25, 0.0032030866, 10.000636, 10.000823 
2.3850833e+3, 2.6016086e+2, -375762.28, -685244.06, 104332.164, 0.1915314, -0.11220688, -343875.34, 46538.84, 0.0011282732, 10.001049, 9.997018 
2.3847693e+3, 2.7015477e+2, 1734.3713, -420250.2, -36332.117, -0.045736846, 0.040180497, 4839.651, 297314.84, 0.00023273825, 10.002981, 9.99715 
2.3844573e+3, 2.80147e+2, 40455.16, -429491.38, 164115.98, -0.34086323, -0.03874971, 92093.99, 286647.22, 0.000018977813, 10.002855, 9.996515 
2.3841514e+3, 2.9013735e+2, 33022.188, -200497.9, 147370.22, -0.30405438, -0.28190622, 104280.46, 200927.97, 0.000039610317, 10.001545, 9.997915 
2.3838513e+3, 3.0013445e+2, -318026.63, -445075.25, 89325.06, 0.36868218, -0.094186075, -271941.16, -271941.16, 0.00031053094, 9.998986, 9.99729 
2.3835394e+3, 3.1012568e+2, 162619.38, 411473.88, -484937.8, -0.15903668, -0.2989618, 787693.0, 787693.0, 0.0010092406, 10.000185, 10.002304 
2.399089e+3, 1.3052067e+2, -2829306.3, -1786364.3, -215907.45, -0.07020251, -0.5426359, -1743434.6, -82548.2, 0.4904385, 9.990243, 10.002911 
2.3987666e+3, 1.4052722e+2, -1429128.4, -1477859.1, -142828.42, 0.20322083, 0.07578015, -1308602.0, 254224.58, 0.36336115, 10.001095, 9.999965 
2.3984575e+3, 1.5052395e+2, -1279290.0, -1233837.1, 185592.5, -0.055264495, 0.10064458, -1069584.8, 395274.22, 0.24041095, 10.000825, 10.001071 
2.3981506e+3, 1.6051897e+2, -1660548.3, -1561273.0, 110941.63, -0.4293379, -0.107347846, -1489370.8, -122463.61, 0.14389461, 9.997873, 9.999303 
2.3978475e+3, 1.7051499e+2, -1182853.9, -1121808.1, 58448.11, -0.22145768, -0.09143858, -1086393.0, 182549.8, 0.08188297, 9.999911, 10.000686 
2.3975444e+3, 1.8050978e+2, -1065208.9, -1237633.4, -1849.5907, 0.07456355, -0.24203283, -1065189.1, 105800.49, 0.047678713, 10.000862, 9.998827 
2.3972398e+3, 1.9050315e+2, -942945.9, -963098.4, 59696.313, 0.15551448, -0.42838156, -892481.4, 180567.73, 0.028905774, 10.000551, 10.000013 
2.3969333e+3, 2.0049748e+2, -1183873.1, -1246682.8, 31020.35, 0.08789623, -0.56129086, -1171135.9, -196035.02, 0.017015342, 9.998888, 9.998346 
2.3966223e+3, 2.1049543e+2, -740512.8, -790177.5, 27212.55, -0.36037067, -0.27014422, -728505.44, 148619.0, 0.00915297, 10.00062, 9.999836 
2.3963125e+3, 2.2049253e+2, -763951.2, -1097681.4, -94764.95, -0.5541038, -0.050869364, -738919.56, 40237.79, 0.0045936005, 10.001155, 9.996916 
2.3960055e+3, 2.3048651e+2, -690992.94, -914296.94, -168872.17, -0.051159635, 0.04756385, -600199.94, 81024.586, 0.0022051786, 10.00073, 9.997564 
2.395698e+3, 2.4047934e+2, -862797.44, -890868.5, -79076.14, 0.28812525, -0.009851047, -796520.9, -213220.14, 0.0009056362, 9.998512, 9.998234 
2.3953852e+3, 2.50476e+2, -250812.6, -40626.535, 7756.9927, -0.050930742, -0.050620537, -40340.652, 444984.94, 0.00023937336, 10.0000925, 10.002452 
2.395075e+3, 2.6047215e+2, -555631.2, -765034.3, 104544.89, -0.3241362, -0.11144183, -512373.13, -125017.086, 0.000025130046, 9.99988, 9.997037 
2.3947683e+3, 2.7046567e+2, -3097.627, -440315.9, 39636.277, -0.019885382, 0.031256765, 466.5675, 289889.22, 0.00000030344088, 10.003117, 9.996918 
2.3944616e+3, 2.804589e+2, -19152.957, -441687.28, 123815.93, 0.13624068, 0.013433927, 14455.766, 205948.97, 0.0000000068303647, 10.002436, 9.996657 
2.3941492e+3, 2.904503e+2, -40500.48, -228156.16, 122297.99, -0.28252, -0.15285859, 19815.967, 113395.484, 0.0000039429096, 10.001109, 9.997905 
2.3938401e+3, 3.004452e+2, -744518.3, -1021472.25, 187153.48, -0.54617524, -0.005082769, -650181.44, -650181.44, 0.00006190627, 9.997717, 9.993931 
2.3935398e+3, 3.1043738e+2, 307198.0, 220650.72, 6944.428, -0.19980726, 0.12295015, 307751.7, 307751.7, 0.0002690841, 10.00206, 10.000117 
2.4090749e+3, 1.3084696e+2, -2254189.8, -1767949.0, -234122.63, -0.52906066, 0.5329484, -1673547.6, -15856.852, 0.44510007, 9.994818, 10.001241 
2.408767e+3, 1.4083618e+2, -1228976.5, -1548182.5, 30830.42, 0.326126, -0.23139533, -1226026.1, 333766.38, 0.31930807, 10.003746, 9.998031 
2.408458e+3, 1.5083155e+2, -1064577.3, -1357403.4, 138403.67, 0.086356506, -0.090718865, -1009514.9, 452324.9, 0.20041417, 10.003696, 9.998594 
2.408149e+3, 1.608264e+2, -1168763.1, -1449721.6, 51483.848, -0.31575552, -0.062137414, -1159626.1, 204265.94, 0.110025235, 10.0019045, 9.9981575 
2.4078438e+3, 1.70821e+2, -1030377.75, -1150411.9, 5280.9956, -0.23440105, -0.09322459, -1030145.9, 235799.72, 0.054970514, 10.001397, 9.999774 
2.4075395e+3, 1.8081513e+2, -1102968.9, -1276987.3, -42931.855, -0.10776548, -0.20709723, -1092953.6, 75048.59, 0.027314784, 10.00052, 9.998756 
2.4072346e+3, 1.908094e+2, -836346.44, -960263.3, -44729.734, -0.010928383, -0.28971055, -821887.6, 248165.38, 0.013986388, 10.001368, 9.999695 
2.406929e+3, 2.0080397e+2, -767604.06, -988252.7, -127603.01, -0.016654778, -0.3590946, -709245.3, 262856.53, 0.006556314, 10.001411, 9.998928 
2.4066186e+3, 2.1080084e+2, -913103.1, -837490.9, -164655.22, -0.2604702, -0.22198774, -706357.25, 167778.27, 0.002469395, 9.999284, 10.000161 
2.4063088e+3, 2.2079743e+2, -1135775.3, -1129233.0, -192675.3, -0.46173516, -0.08387144, -939801.06, -163627.92, 0.00078321603, 9.997807, 9.998347 
2.406001e+3, 2.3079254e+2, -624085.5, -763589.75, -175069.31, -0.15013066, -0.019562533, -505384.4, 172841.17, 0.00023610769, 10.000444, 9.998821 
2.4056931e+3, 2.4078713e+2, -182611.97, -465966.34, -30999.582, 0.12622792, -0.0026528032, -179260.19, 401020.84, 0.000047296035, 10.002557, 9.999251 
2.405381e+3, 2.507836e+2, -28596.225, 13737.876, -88269.01, -0.13237149, -0.049790468, 83342.305, 565650.1, 0.0000020598873, 10.001773, 10.002062 
2.4050713e+3, 2.607794e+2, -360578.47, -574390.7, -60582.824, -0.33400694, -0.12745866, -344605.8, 39735.816, 0.0, 10.00071, 9.997953 
2.4047676e+3, 2.7077302e+2, -35495.84, -431491.56, -70608.76, 0.05158209, -0.039460883, -23282.5, 263127.06, 0.0, 10.002752, 9.997171 
2.4044628e+3, 2.8076681e+2, 248249.8, -218794.08, -96485.59, 0.35027075, -0.0128978975, 267397.53, 455873.0, 0.0, 10.003747, 9.997572 
2.4041474e+3, 2.9075992e+2, 345690.88, 12661.763, -133576.16, -0.2036948, -0.10618695, 392646.9, 483191.13, 0.00000028208012, 10.0034, 9.998513 
2.4038355e+3, 3.0075562e+2, -261134.27, -778215.5, 186153.67, -0.5409394, 0.11816132, -201089.83, -201089.83, 0.000017512673, 10.000845, 9.99414 
2.4035403e+3, 3.1074584e+2, 93683.82, -4746.9854, 109984.6, 0.04556014, 0.1361754, 164962.27, 164962.27, 0.0001005609, 10.001067, 9.999113 
2.4190664e+3, 1.3115211e+2, -2079584.9, -1621326.1, -5091.9033, -0.41880143, 0.02657519, -1621269.5, 33433.797, 0.41411307, 9.995647, 10.001915 
2.4187675e+3, 1.4114307e+2, -1540007.1, -1995726.6, -68043.67, 0.47979224, -0.63837194, -1530064.5, 26714.295, 0.28877336, 10.001672, 9.9958935 
2.4184597e+3, 1.5113857e+2, -1352477.8, -1790485.3, 32582.514, 0.3639269, -0.2698048, -1350067.3, 108759.29, 0.17287979, 10.002382, 9.9961 
2.4181505e+3, 1.611334e+2, -1425207.3, -1857187.5, -18972.02, 0.10267459, -0.010052137, -1424375.6, -63492.75, 0.08747846, 10.001119, 9.995792 
2.417842e+3, 1.711274e+2, -1180118.0, -1313478.0, -25579.908, -0.09280588, 0.009525606, -1175379.9, 87567.164, 0.038149297, 10.000792, 9.998827 
2.4175344e+3, 1.8112186e+2, -1371723.9, -1534124.4, -43986.695, -0.20958121, 0.007868783, -1360575.3, -195570.4, 0.01570925, 9.999344, 9.997492 
2.417229e+3, 1.9111715e+2, -993475.44, -1118729.1, 7849.2856, -0.2689129, 0.09414018, -992985.5, 74063.91, 0.0064830934, 10.000701, 9.998849 
2.4169238e+3, 2.0111188e+2, -1030824.0, -1209350.4, -159072.25, -0.20421463, 0.10367604, -937681.3, 31417.66, 0.0021827125, 10.000095, 9.99802 
2.4166171e+3, 2.1110639e+2, -964233.94, -852805.06, -234638.02, 0.13415931, 0.0030358904, -667357.5, 203793.77, 0.00044835047, 9.998926, 10.000199 
2.4163096e+3, 2.2110116e+2, -1250934.1, -1066316.8, -169861.69, 0.31165004, -0.10909727, -965302.2, -192101.14, 0.000068581576, 9.9966545, 9.999306 
2.4159968e+3, 2.3109703e+2, -552288.3, -415773.75, -83091.29, -0.13150974, -0.20212118, -376498.63, 298740.47, 0.0000096515805, 9.999846, 10.00138 
2.4156858e+3, 2.4109249e+2, -485462.22, -681485.5, -66049.44, -0.409184, -0.29412028, -465284.13, 111996.984, 0.00000040342232, 10.000976, 9.998488 
2.4153776e+3, 2.5108865e+2, -250219.83, -330491.88, -150278.38, -0.18856311, -0.19910236, -134810.06, 344504.78, 0.0, 10.001379, 9.999834 
2.4150708e+3, 2.610841e+2, -631581.5, -829328.94, -78268.76, -0.034928836, -0.15802231, -604352.06, -222994.53, 0.0, 9.999497, 9.996796 
2.4147652e+3, 2.7107716e+2, -101555.04, -404955.8, -4247.46, -0.014302206, -0.15938327, -101495.59, 181936.5, 0.0, 10.002182, 9.997557 
2.414459e+3, 2.810705e+2, 30579.395, -354275.38, -111425.26, -0.042270783, -0.20535064, 60511.824, 246014.48, 0.0, 10.002478, 9.997253 
2.4141477e+3, 2.910658e+2, 407402.66, 219970.69, -164858.39, -0.14533314, -0.17210844, 503320.47, 590865.0, 0.0000000009564638, 10.003221, 9.999953 
2.4138391e+3, 3.010625e+2, -264173.56, -569742.25, 165766.72, -0.18950365, -0.03733966, -191521.3, -191521.3, 0.0000015325257, 10.000061, 9.995934 
2.4135324e+3, 3.1105435e+2, 5929.511, -16097.62, 82343.195, -0.6525751, -0.13109234, 77992.42, 77992.42, 0.000021924814, 10.000306, 9.99943 
2.4290693e+3, 1.3145603e+2, -1667527.8, -1568683.1, -120857.73, 0.3886265, 0.19527598, -1487533.0, 164197.75, 0.3927152, 9.999103, 10.001012 
2.4287573e+3, 1.414475e+2, -1547221.3, -1754544.6, -215159.64, -0.29832363, -0.33921626, -1412053.6, 141752.39, 0.26710206, 10.000662, 9.998171 
2.4284546e+3, 1.5144366e+2, -1250608.6, -1457919.3, -102653.17, 0.06441469, -0.17723306, -1208380.1, 247459.69, 0.15331793, 10.001838, 9.998797 
2.4281499e+3, 1.6143925e+2, -1292208.1, -1678762.6, -42254.668, 0.26933238, -0.0143571105, -1287643.1, 70239.72, 0.07196278, 10.001478, 9.99688 
2.4278384e+3, 1.7143288e+2, -1263725.1, -1474961.6, -77235.31, -0.101404674, 0.027124189, -1238498.0, 21455.992, 0.027363949, 10.000688, 9.997778 
2.427528e+3, 1.814266e+2, -1262905.5, -1418974.6, -16293.56, -0.42923704, 0.030383987, -1261222.6, -99200.88, 0.009079448, 9.99973, 9.998088 
2.4272251e+3, 1.9142228e+2, -933382.56, -990085.3, 99738.31, -0.30612925, 0.076158255, -858044.3, 206015.81, 0.002868925, 10.000583, 9.9998255 
2.4269214e+3, 2.0141762e+2, -849057.44, -1044603.25, -38141.62, -0.11804836, 0.0941448, -841881.2, 124220.96, 0.00059867656, 10.000849, 9.99883 
2.426614e+3, 2.1141154e+2, -749741.7, -803592.6, -145129.73, 0.26949927, -0.041157804, -629060.9, 239099.81, 0.000045539302, 10.000424, 9.999917 
2.4263057e+3, 2.2140595e+2, -754635.3, -759195.2, -45630.26, 0.46861547, -0.14895442, -711228.06, 58986.234, 0.0000022398012, 9.99964, 9.9999895 
2.425993e+3, 2.314027e+2, -563808.9, -393938.38, -54556.047, -0.076671354, -0.1742017, -377926.3, 294319.56, 0.000000052409952, 9.999609, 10.001678 
2.4256817e+3, 2.4139908e+2, -561979.9, -623363.94, -132688.28, -0.4736651, -0.19424991, -456480.22, 117799.734, 0.0, 9.999967, 9.999369 
2.4253757e+3, 2.5139424e+2, -109914.195, -306869.84, -141456.36, -0.15160128, -0.19488858, -36032.555, 440291.3, 0.0, 10.002437, 9.999533 
2.4250701e+3, 2.6138908e+2, 70529.305, -385517.88, 889.7414, 0.12631643, -0.18093653, 70531.04, 448904.16, 0.0, 10.003707, 9.997837 
2.424763e+3, 2.7138278e+2, -96835.59, -339745.63, 61616.977, -0.008530415, -0.18727235, -82099.664, 198340.14, 0.0, 10.001781, 9.998252 
2.424456e+3, 2.813769e+2, -253381.39, -393797.72, -17669.979, -0.08851755, -0.1875211, -251191.95, -68690.33, 0.0, 9.999959, 9.998216 
2.4241465e+3, 2.9137245e+2, 260564.94, 153602.14, -157475.38, -0.09168261, -0.15053827, 373392.75, 457934.66, 0.0, 10.001998, 10.000174 
2.4238387e+3, 3.0136856e+2, 175261.9, -159151.89, 19458.238, -0.025644794, -0.121578194, 176390.3, 176390.3, 0.000000086511356, 10.002052, 9.997842 
2.4235302e+3, 3.113635e+2, 56102.816, 58998.793, -445103.7, -0.48116815, -0.007012644, 502656.88, 502656.88, 0.0000026170453, 10.000212, 10.000095 
2.4393569e+3, 1.2175503e+2, -1841891.1, -2189602.0, 382044.16, -0.55687356, -0.4151792, -1596004.4, 150793.2, 0.49455583, 10.001482, 9.99604 
2.4390726e+3, 1.3175948e+2, -1584858.4, -1606830.1, 11422.81, 1.1490468, 0.4890321, -1579995.9, 68766.78, 0.3775347, 10.000588, 9.999678 
2.4387464e+3, 1.417514e+2, -1539944.5, -1545897.3, -56345.86, -1.0255468, 0.063323654, -1486496.5, 64344.098, 0.25111946, 9.99978, 9.999941 
2.4384485e+3, 1.5174854e+2, -1138807.1, -1052780.6, -34641.016, -0.23934983, -0.014254365, -1040565.8, 412290.03, 0.13882844, 10.001081, 10.002256 
2.4381487e+3, 1.6174462e+2, -1426410.4, -1710299.5, -94593.234, 0.46686763, -0.041641146, -1397779.0, -42892.375, 0.060861234, 10.000506, 9.997082 
2.4378344e+3, 1.7173749e+2, -1361591.9, -1629710.6, -115659.24, -0.104459144, -0.028864387, -1318594.8, -61626.555, 0.02025213, 10.000552, 9.99674 
2.4375224e+3, 1.8173067e+2, -1305855.9, -1403563.8, 2186.4304, -0.5305832, -0.03302307, -1305806.9, -146764.3, 0.0052852775, 9.999374, 9.998374 
2.4372222e+3, 1.9172674e+2, -915711.1, -799667.9, 112925.78, -0.19675405, -0.09990137, -730729.9, 330342.03, 0.0012089658, 10.000026, 10.001381 
2.4369204e+3, 2.0172271e+2, -1079146.6, -1150434.3, -83117.91, 0.17729644, -0.12851207, -1024352.25, -61248.332, 0.00012403581, 9.999438, 9.998737 
2.4366096e+3, 2.1171738e+2, -862929.25, -872444.06, -187577.25, 0.2710385, -0.19590975, -680049.1, 185108.5, 0.000001917801, 9.999906, 9.999572 
2.4362989e+3, 2.2171235e+2, -1053247.1, -1100941.4, -64956.84, 0.29007387, -0.18867014, -1007898.3, -240688.23, 0.000000018702426, 9.998591, 9.998091 
2.4359885e+3, 2.3170982e+2, -716891.5, -642200.94, -53277.523, -0.0068761893, 0.0030343297, -614483.44, 54758.93, 0.0, 9.999355, 10.000038 
2.4356797e+3, 2.4170649e+2, -781132.7, -770180.4, -81868.73, -0.23141657, 0.1001556, -693604.9, -122325.45, 0.0, 9.998743, 9.998938 
2.435374e+3, 2.5170076e+2, -109897.83, -167345.75, -52371.008, -0.08888887, -0.09492709, -78890.82, 394438.66, 0.0, 10.001991, 10.000649 
2.4350686e+3, 2.616952e+2, -118648.86, -474272.13, -37731.12, 0.028858729, -0.20475039, -114689.72, 260689.16, 0.0, 10.002539, 9.997773 
2.4347608e+3, 2.7169126e+2, -125181.07, -266678.7, -29353.348, 0.012924865, -0.04890656, -119333.45, 158085.03, 0.0, 10.001314, 9.998942 
2.4344526e+3, 2.816866e+2, -540828.4, -664808.06, -30645.129, -0.029498216, 0.04562672, -533667.2, -354200.8, 0.0, 9.998666, 9.996985 
2.4341418e+3, 2.916796e+2, -15950.084, -201034.03, -78512.67, -0.300837, -0.035927426, 12867.969, 94408.16, 0.0, 10.001154, 9.9981165 
2.4338327e+3, 3.0167347e+2, -216437.48, -472966.28, -23185.21, -0.5758895, -0.0377189, -214358.83, -214358.83, 0.0, 10.000028, 9.996655 
2.4335328e+3, 3.116686e+2, -57401.582, 75136.86, -155519.6, -0.0964152, -0.028416665, 177917.8, 177917.8, 0.00000012758136, 9.9993105, 10.000547 
2.4493676e+3, 1.2206728e+2, -1498244.5, -1853352.0, 200911.7, 0.38855422, 0.07693445, -1407673.5, 336056.9, 0.4854093, 10.004215, 9.997285 
2.4490635e+3, 1.3206366e+2, -1339859.3, -1459100.5, 108104.305, 0.4393596, 0.1285204, -1276024.8, 369745.6, 0.3659335, 10.002812, 10.000305 
2.4487484e+3, 1.4205703e+2, -1389854.3, -1481933.9, 142081.84, -0.53785175, -0.14154796, -1286539.0, 261294.1, 0.23856215, 10.001041, 9.999932 
2.4484463e+3, 1.5205356e+2, -1150341.1, -1132879.0, 83895.57, -0.17308408, -0.18914324, -1057261.4, 392597.25, 0.1275105, 10.00126, 10.001538 
2.448143e+3, 1.6204931e+2, -1303065.3, -1603275.1, -47328.83, 0.17664811, -0.19494939, -1295780.5, 56115.76, 0.052560914, 10.001063, 9.997567 
2.4478318e+3, 1.720432e+2, -1127332.0, -1476604.0, -33959.652, -0.07542538, -0.11257589, -1124060.8, 129906.38, 0.01541553, 10.001826, 9.997262 
2.4475217e+3, 1.8203722e+2, -957397.2, -1171266.9, 91607.336, -0.31585047, -0.05659501, -923523.75, 232509.14, 0.0031067657, 10.00138, 9.999039 
2.4472184e+3, 1.9203272e+2, -929484.75, -843275.94, 113592.945, -0.13943957, -0.15741865, -764884.06, 293185.4, 0.00048131414, 9.999999, 10.001157 
2.4469146e+3, 2.020282e+2, -1085388.8, -1089073.0, -90023.33, 0.059259504, -0.2188013, -997188.7, -37080.42, 0.000015932997, 9.999026, 9.999354 
2.4466042e+3, 2.120238e+2, -715016.9, -771244.2, -177668.36, 0.15077753, -0.21777919, -563251.6, 298902.88, 0.0000000054715246, 10.000756, 9.999877 
2.4462941e+3, 2.2201975e+2, -525468.4, -787497.8, -43685.625, 0.1547504, -0.12500739, -518376.97, 245822.06, 0.0, 10.001807, 9.998727 
2.4459846e+3, 2.3201726e+2, -487156.94, -593225.06, -688.9428, -0.015274104, 0.10407398, -487152.47, 179080.17, 0.0, 10.001053, 9.999637 
2.4456763e+3, 2.4201381e+2, -531746.8, -639740.75, 43840.43, -0.14597602, 0.25239563, -516190.53, 52082.293, 0.0, 10.000201, 9.999192 
2.4453712e+3, 2.5200754e+2, -319710.38, -319275.28, 19184.527, -0.076874256, 0.04543195, -300307.06, 170024.44, 0.0, 10.000568, 10.000408 
2.4450657e+3, 2.62002e+2, -239280.39, -397705.8, -78230.59, -0.032539707, -0.06730825, -207161.7, 165220.3, 0.0, 10.000976, 9.999093 
2.4447575e+3, 2.7199835e+2, 114474.28, -75521.875, -103687.625, -0.048815586, 0.03164122, 160102.52, 434516.53, 0.0, 10.002528, 9.999726 
2.4444492e+3, 2.8199396e+2, 152785.6, -307077.78, -59659.56, -0.06551927, 0.11828277, 160399.36, 336855.78, 0.0, 10.003152, 9.997314 
2.4441387e+3, 2.9198653e+2, 110287.52, -228847.22, -41015.387, -0.3425573, 0.05588722, 115177.47, 193714.84, 0.0, 10.002216, 9.997484 
2.4438305e+3, 3.0198002e+2, -74438.38, -359328.38, 82469.09, -0.503784, 0.07786575, -52287.727, -52287.727, 0.0, 10.000588, 9.997211 
2.443532e+3, 3.119757e+2, 366275.34, 413620.63, -19395.13, 0.14068131, 0.17845275, 420551.34, 420551.34, 0.000000000000427524, 10.001409, 10.00192 
2.4593596e+3, 1.2237376e+2, -1657574.9, -1954522.0, -2333.7322, -0.40652835, -0.05195621, -1657556.5, 83163.22, 0.47723737, 10.001921, 9.997317 
2.4590547e+3, 1.3236855e+2, -1308928.1, -1344418.9, 11884.609, -0.27348813, -0.29061952, -1305316.0, 337452.47, 0.3557266, 10.002493, 10.001612 
2.4587539e+3, 1.4236346e+2, -1403855.8, -1608575.9, 52133.797, 0.3376708, -0.43163246, -1391344.1, 153469.86, 0.22774403, 10.001576, 9.998614 
2.4584451e+3, 1.5235865e+2, -1282274.8, -1383696.0, 9631.383, 0.03877768, -0.44700062, -1281368.3, 165491.34, 0.11809006, 10.001276, 9.999494 
2.4581373e+3, 1.6235407e+2, -1451179.5, -1706012.6, -100369.05, -0.08069214, -0.34515756, -1416395.8, -67490.03, 0.04605504, 10.00027, 9.997216 
2.45783e+3, 1.7235003e+2, -1133812.3, -1355946.8, -63821.12, 0.042427205, -0.16641846, -1116781.6, 134172.11, 0.012013259, 10.001365, 9.998259 
2.4575225e+3, 1.8234557e+2, -1151327.3, -1352823.5, 6872.9106, 0.09222877, -0.013201878, -1151093.1, 1910.4248, 0.0018483637, 10.000546, 9.998168 
2.4572143e+3, 1.9233957e+2, -1071790.1, -1042587.7, 25695.299, -0.09817402, -0.18001518, -1027634.8, 27424.697, 0.00018026956, 9.999641, 9.999921 
2.4569067e+3, 2.0233417e+2, -1287423.0, -1250440.8, -88723.75, -0.16663365, -0.24094774, -1178301.8, -221190.63, 0.0000007906511, 9.99805, 9.998711 
2.4565986e+3, 2.1233065e+2, -775824.56, -761975.2, -124687.15, -0.016310873, -0.18756443, -644020.6, 215129.45, 0.0, 10.000275, 10.000165 
2.4562903e+3, 2.2232737e+2, -767936.4, -908501.5, -78208.33, 0.07467894, -0.040923335, -733070.56, 28116.959, 0.0, 10.000384, 9.998554 
2.4559802e+3, 2.323251e+2, -564925.1, -564260.8, -62403.023, -0.0700506, 0.16089243, -502189.06, 161026.89, 0.0, 10.000507, 9.999985 
2.4556716e+3, 2.4232177e+2, -845301.1, -963496.06, 17080.998, -0.16628812, 0.3437087, -842882.1, -277627.44, 0.0, 9.9989805, 9.997515 
2.4553664e+3, 2.5231516e+2, -517413.25, -595369.1, 14169.035, -0.14537631, 0.24194986, -514917.8, -47593.42, 0.0, 10.000054, 9.998722 
2.4550608e+3, 2.6230896e+2, -486303.8, -559599.06, -60721.49, -0.1803628, 0.16773312, -452027.9, -82641.78, 0.0, 9.999587, 9.998626 
2.4547532e+3, 2.7230373e+2, 97051.53, 12079.303, -41228.79, -0.29137477, 0.015323507, 113767.47, 385196.94, 0.0, 10.002107, 10.000474 
2.4544458e+3, 2.8229898e+2, -14290.462, -372646.0, -69999.23, -0.32988128, 0.01866332, -1102.526, 172368.58, 0.0, 10.002102, 9.997345 
2.454138e+3, 2.9229414e+2, 52374.688, -175480.13, -72013.445, -0.2352169, 0.12237153, 73226.33, 148748.69, 0.0, 10.001585, 9.99811 
2.4538328e+3, 3.0228752e+2, -496132.94, -682100.2, 81244.0, -0.040866815, 0.14829703, -465639.7, -465639.7, 0.0, 9.998405, 9.996013 
2.4535252e+3, 3.1228217e+2, 65278.473, 331452.75, 164448.23, -0.4240233, 0.13543673, 409920.34, 409920.34, 0.0, 9.999385, 10.002211 
2.4693605e+3, 1.22672655e+2, -1688180.0, -1949266.6, -69261.28, -0.17456034, -0.55389756, -1670944.1, 66846.0, 0.4678526, 10.001403, 9.997607 
2.4690521e+3, 1.3267502e+2, -1154913.6, -1200152.4, -30575.797, -0.4452901, -0.11483617, -1139500.0, 500267.7, 0.34520847, 10.003533, 10.002575 
2.4687527e+3, 1.4267085e+2, -1196754.4, -1567560.1, -81424.8, 0.24551408, -0.19484507, -1179662.3, 362145.56, 0.21743059, 10.003631, 9.99793 
2.4684434e+3, 1.5266454e+2, -1234645.9, -1516218.9, -149941.23, 0.08005904, -0.23247007, -1169755.0, 274118.72, 0.109704144, 10.002315, 9.998064 
2.4681348e+3, 1.6265908e+2, -1219883.4, -1430101.4, -168017.92, -0.054457724, -0.17896082, -1126805.8, 219124.33, 0.040704507, 10.001138, 9.998712 
2.4678265e+3, 1.7265522e+2, -899416.6, -1064337.4, -116033.414, -0.0881613, -0.13535684, -839527.2, 408441.5, 0.00953522, 10.002153, 9.999953 
2.4675183e+3, 1.8265125e+2, -880345.56, -1096211.0, -82390.734, -0.09973278, -0.056776863, -852492.75, 297515.5, 0.0011160366, 10.001788, 9.999348 
2.4672109e+3, 1.9264625e+2, -978444.25, -984628.44, -48446.2, -0.000450803, -0.1414638, -932991.56, 119063.85, 0.00006263998, 10.000158, 10.0001135 
2.4669033e+3, 2.0264159e+2, -1068071.1, -1053862.6, -24116.965, 0.0125075085, -0.14680536, -1035825.4, -81724.5, 0.0000000031066179, 9.999052, 9.999606 
2.4665944e+3, 2.1263777e+2, -663066.6, -691866.44, -31367.463, -0.05539268, -0.13916041, -642951.7, 213189.48, 0.0, 10.00085, 10.000444 
2.4662858e+3, 2.2263382e+2, -501691.75, -767988.0, -49928.836, -0.10897, -0.05342539, -492638.22, 265545.47, 0.0, 10.002017, 9.998776 
2.4659772e+3, 2.3262993e+2, -302697.22, -518352.78, -116613.18, -0.09693104, 0.047986988, -251699.73, 408527.22, 0.0, 10.00252, 9.999414 
2.4656692e+3, 2.4262583e+2, -298217.3, -654193.25, -62614.13, -0.12634043, 0.19804324, -287525.0, 274747.7, 0.0, 10.002414, 9.998006 
2.4653615e+3, 2.5262052e+2, -371244.5, -545588.06, -3474.4487, -0.2494013, 0.23631386, -371175.3, 93156.91, 0.0, 10.001037, 9.998633 
2.4650554e+3, 2.6261497e+2, -379565.9, -442544.34, 35584.54, -0.32250732, 0.23790145, -363538.5, 2851.5515, 0.0, 9.999848, 9.999338 
2.4647507e+3, 2.7260947e+2, -150269.14, -108019.62, -5819.41, -0.23445228, 0.054579135, -107232.71, 161204.95, 0.0, 10.000252, 10.000609 
2.4644448e+3, 2.82605e+2, -126098.77, -273393.72, -120040.414, -0.17779422, 0.04405013, -58914.254, 111561.73, 0.0, 10.000552, 9.998789 
2.464136e+3, 2.926009e+2, 107972.03, -51979.69, -138767.6, -0.15526025, 0.13817494, 188160.42, 260674.44, 0.0, 10.001424, 9.999117 
2.4638318e+3, 3.0259395e+2, -18817.627, -450163.0, 91249.414, 0.22260554, 0.10348122, -308.41296, -308.41296, 0.0, 10.001502, 9.996164 
2.4635203e+3, 3.1258544e+2, 315965.28, 330823.4, -9014.768, -0.60541743, -0.08101066, 335075.8, 335075.8, 0.0, 10.001299, 10.001422 
2.479364e+3, 1.2297575e+2, -1742578.8, -2025444.6, -2406.6467, 0.40532544, -0.6166641, -1742558.3, -7735.8423, 0.45571712, 10.000767, 9.997373 
2.4790508e+3, 1.329812e+2, -1326485.6, -1273245.3, -16354.723, -0.45430893, 0.0886337, -1268622.6, 368151.5, 0.33319858, 10.001654, 10.002617 
2.4787498e+3, 1.4297813e+2, -1574695.5, -1888483.1, -149109.47, 0.07723872, 0.15804324, -1515142.4, 23666.137, 0.20679392, 10.000963, 9.996968 
2.4784416e+3, 1.5297076e+2, -1436038.6, -1728682.5, -169687.23, 0.14654236, 0.093350835, -1358298.4, 82590.67, 0.10179194, 10.001295, 9.997081 
2.4781333e+3, 1.6296433e+2, -1281054.6, -1346443.0, -96645.33, 0.16251643, 0.07278725, -1211723.3, 131232.69, 0.036105353, 10.000339, 9.99964 
2.477822e+3, 1.7296006e+2, -892396.94, -860324.2, -65863.3, -0.25959954, -0.10592711, -808573.1, 436417.6, 0.0076701324, 10.001477, 10.001623 
2.4775127e+3, 1.8295631e+2, -996765.2, -1109371.3, -132608.16, -0.36927763, -0.11515159, -909002.44, 238019.63, 0.000687035, 10.000937, 9.999625 
2.4772082e+3, 1.9295354e+2, -968391.25, -900294.7, -133794.92, 0.18576401, -0.063265726, -796283.7, 252764.11, 0.000019881356, 10.00003, 10.000676 
2.4769022e+3, 2.0295006e+2, -1172423.1, -1121394.5, -18981.645, 0.45543563, 0.017847013, -1115108.1, -164027.31, 0.0, 9.998547, 9.999321 
2.4765909e+3, 2.1294549e+2, -762033.06, -718191.4, 4164.857, -0.032543603, -0.08506715, -717799.2, 135326.13, 0.0, 10.000215, 10.000457 
2.4762812e+3, 2.2294016e+2, -853827.56, -1122427.5, -56597.934, -0.29902297, -0.08857233, -842388.75, -87209.69, 0.0, 10.000507, 9.997024 
2.4759749e+3, 2.3293285e+2, -520937.38, -788379.7, -111312.445, -0.11542486, -0.2038183, -480670.6, 176584.58, 0.0, 10.001768, 9.9978895 
2.4756673e+3, 2.4292706e+2, -552265.25, -770947.0, -111391.164, -0.08197031, -0.14227673, -505518.28, 53798.277, 0.0, 10.000812, 9.997939 
2.4753565e+3, 2.5292417e+2, -413009.38, -431663.78, -60690.617, -0.42419675, 0.0131475115, -360933.4, 100416.266, 0.0, 10.000328, 9.999664 
2.4750493e+3, 2.629206e+2, -686332.2, -716984.06, 21022.777, -0.4849493, 0.18414326, -675641.94, -312253.4, 0.0, 9.998465, 9.9980955 
2.4747497e+3, 2.7291575e+2, -350499.78, -315447.88, 3947.0989, 0.063156486, 0.15925886, -315008.9, -49571.754, 0.0, 9.999503, 9.999506 
2.4744453e+3, 2.829111e+2, -343961.88, -373473.9, -124918.74, 0.21865448, 0.19895884, -232930.64, -65450.94, 0.0, 9.999144, 9.998774 
2.4741313e+3, 2.929055e+2, 76829.44, 95683.766, -103478.39, -0.31755656, -0.0038531553, 190163.52, 259687.58, 0.0, 10.000663, 10.000429 
2.4738275e+3, 3.028993e+2, -436819.2, -882870.0, 70939.89, -0.029213239, 0.030518357, -425808.72, -425808.72, 0.0, 9.999783, 9.9939995 
2.4735217e+3, 3.1289086e+2, -144139.3, -193086.8, -38968.883, -0.33259112, 0.02863743, -122596.33, -122596.33, 0.0, 9.999549, 9.998653 
2.4893609e+3, 1.2328781e+2, -1722520.1, -1962941.3, 76468.266, 0.27919134, 0.15965874, -1700259.8, 31516.61, 0.43991777, 10.000874, 9.997767 
2.4890476e+3, 1.3328396e+2, -1596965.1, -1476915.8, -71976.05, -0.3884354, 0.0058501, -1443220.0, 190598.3, 0.31901658, 9.999332, 10.001622 
2.4887444e+3, 1.4328249e+2, -1879802.5, -1786093.8, -121923.64, 0.007876627, 0.22051011, -1702331.5, -166497.53, 0.19536594, 9.997656, 9.99929 
2.4884373e+3, 1.5327635e+2, -1411823.4, -1402048.0, 18764.836, 0.087057285, 0.019425685, -1387544.8, 50348.47, 0.094030365, 9.999959, 10.000031 
2.4881299e+3, 1.6327101e+2, -1170112.0, -1263709.3, 117856.91, 0.09645733, -0.047439463, -1090102.3, 249843.06, 0.032013185, 10.000927, 9.99993 
2.4878198e+3, 1.7326789e+2, -970332.9, -995373.94, 64870.227, -0.20301948, -0.016659496, -916785.94, 325189.66, 0.0062260167, 10.0012865, 10.000798 
2.4875104e+3, 1.8326443e+2, -914880.75, -1036699.3, -99511.54, -0.3161865, 0.05606756, -859117.44, 284890.28, 0.00043419475, 10.001235, 9.999998 
2.4872044e+3, 1.9326039e+2, -741993.5, -795112.0, -144175.3, 0.121143445, -0.010324755, -621951.56, 424092.75, 0.0000058323185, 10.00148, 10.000747 
2.4868973e+3, 2.032562e+2, -822336.06, -998147.2, -36793.035, 0.3167918, 0.030816847, -814946.75, 133137.39, 0.000000000090419006, 10.001047, 9.99897 
2.4865875e+3, 2.1325147e+2, -735824.94, -824443.3, -64587.17, -0.013750301, 0.011706354, -701809.1, 148323.22, 0.0, 10.000768, 9.9995165 
2.4862783e+3, 2.2324573e+2, -777606.3, -972225.44, -134240.58, -0.2611466, -0.009231278, -709115.75, 43073.85, 0.0, 10.000418, 9.998099 
2.4859712e+3, 2.3323813e+2, -635067.94, -784015.75, -68015.97, -0.17802885, -0.21486624, -608682.9, 45582.082, 0.0, 10.000615, 9.998537 
2.4856633e+3, 2.4323244e+2, -459725.88, -566165.4, -14000.154, -0.16386348, -0.20945276, -457915.22, 98406.47, 0.0, 10.00064, 9.999427 
2.485353e+3, 2.5323066e+2, -305436.47, -316114.75, -12490.194, -0.37646982, -0.009943527, -297192.1, 161148.05, 0.0, 10.000634, 10.000379 
2.485046e+3, 2.632272e+2, -385235.22, -580200.06, 81530.48, -0.36727452, 0.16255559, -355634.84, 4741.326, 0.0, 10.000393, 9.99814 
2.4847455e+3, 2.7322093e+2, -294136.7, -398680.66, 80469.17, 0.12626445, 0.082815334, -250452.19, 11989.666, 0.0, 10.000182, 9.998694 
2.4844417e+3, 2.8321517e+2, -139136.77, -232652.94, -25573.125, 0.2897136, 0.07132769, -132600.36, 31896.863, 0.0, 10.000185, 9.999286 
2.4841285e+3, 2.9320982e+2, 221409.78, 178757.58, -122142.625, -0.27410263, -0.11358253, 324074.1, 390613.38, 0.0, 10.00143, 10.000703 
2.4838245e+3, 3.0320457e+2, -81307.06, -642592.25, 53017.953, -0.03469335, -0.015191238, -76342.984, -76342.984, 0.0, 10.001842, 9.9946575 
2.4835208e+3, 3.1319705e+2, -8285.364, -212224.64, -1771.1656, -0.03818443, 0.14897572, -8269.983, -8269.983, 0.0, 10.000577, 9.998138 
2.4993557e+3, 1.2359408e+2, -1818250.4, -1940798.3, 208269.89, 0.08649246, 0.29286796, -1662427.9, 66358.09, 0.42027465, 9.999989, 9.998486 
2.4990442e+3, 1.335873e+2, -1690766.6, -1605427.4, -134006.44, -0.17746341, -0.045420755, -1507461.3, 123394.63, 0.30251706, 9.999381, 10.0004425 
2.4987383e+3, 1.4358667e+2, -1641123.1, -1413455.9, -49674.637, 0.07504592, 0.2432852, -1403089.4, 129769.414, 0.18302314, 9.998087, 10.001831 
2.4984321e+3, 1.5358186e+2, -1173491.9, -931760.3, 4390.731, 0.03329959, -0.19675086, -931680.56, 503212.4, 0.08629053, 10.000063, 10.00351 
2.498126e+3, 1.6357844e+2, -1340124.8, -1472087.6, 3270.6726, 0.077564195, -0.23595005, -1340043.6, -3121.489, 0.028287582, 10.000311, 9.998759 
2.4978183e+3, 1.7357692e+2, -1206091.9, -1321557.0, -10501.152, -0.003311967, 0.08441612, -1205144.5, 33802.14, 0.0050760456, 10.000532, 9.998913 
2.4975096e+3, 1.8357347e+2, -1174111.5, -1249181.8, -131831.08, -0.06551333, 0.29979113, -1074576.1, 66408.555, 0.00028139996, 10.000007, 9.999087 
2.4971992e+3, 1.9356711e+2, -839745.9, -853547.44, -182013.9, -0.06571711, 0.006713893, -664502.0, 378540.13, 0.0000014559199, 10.001045, 10.000492 
2.4968904e+3, 2.0356135e+2, -1035899.56, -1295415.6, -70209.57, 0.00588893, -0.017489579, -1018122.75, -73024.95, 0.0, 10.000565, 9.997146 
2.4965842e+3, 2.1355668e+2, -920821.94, -1052700.5, -71771.945, 0.046539128, 0.09093538, -889297.4, -42147.332, 0.0, 10.0003, 9.998113 
2.4962763e+3, 2.2355172e+2, -904809.2, -923729.56, -128045.55, -0.032018807, 0.19367857, -785874.9, -36674.2, 0.0, 9.999225, 9.999003 
2.4959658e+3, 2.335457e+2, -612776.44, -539055.4, -56646.004, -0.28504235, -0.06396444, -508332.84, 142922.19, 0.0, 9.999877, 10.000533 
2.4956575e+3, 2.4354139e+2, -674235.3, -647409.94, -29209.24, -0.35809118, -0.051891457, -628681.06, -75388.07, 0.0, 9.99917, 9.999567 
2.4953508e+3, 2.535398e+2, -417639.38, -323386.16, -19036.938, -0.18801314, 0.110574864, -319686.34, 135619.1, 0.0, 9.9997835, 10.000694 
2.4950442e+3, 2.635353e+2, -656043.06, -806024.7, 66639.11, -0.1308369, 0.1953473, -630712.44, -273363.88, 0.0, 9.999086, 9.99719 
2.4947387e+3, 2.735252e+2, -417383.53, -524137.7, 92964.52, -0.15237837, -0.22236373, -363562.13, -104113.46, 0.0, 9.999676, 9.998064 
2.4944335e+3, 2.835177e+2, -439022.28, -575194.2, -9648.69, -0.13637199, -0.29292363, -438342.0, -276818.72, 0.0, 9.999123, 9.997412 
2.4941267e+3, 2.935144e+2, -6413.064, -110755.63, -61029.285, -0.1793133, -0.13888764, 21705.232, 85260.664, 0.0, 10.000731, 9.999004 
2.493822e+3, 3.0351037e+2, -110433.836, -356544.8, 337.66107, -0.08837585, 0.07677601, -110433.375, -110433.375, 0.0, 10.000532, 9.9972105 
2.4935156e+3, 3.1350404e+2, -95588.47, 44912.574, 116332.43, -0.33196583, -0.03738036, 110560.43, 110560.43, 0.0, 9.998999, 10.0005665 
2.5093508e+3, 1.2390283e+2, -1558731.4, -1375230.6, 101078.51, -0.13728264, 0.20420684, -1330470.9, 395281.9, 0.39734322, 9.999561, 10.004037 
2.5090405e+3, 1.3389483e+2, -1635433.6, -1808112.8, -20953.854, -0.14681628, -0.06716685, -1632927.4, -5090.792, 0.28406283, 10.000623, 9.998239 
2.508733e+3, 1.4389071e+2, -1433779.3, -1467117.3, 38632.734, -0.09962162, 0.07813949, -1408372.9, 121506.2, 0.16993596, 10.000353, 10.000264 
2.508428e+3, 1.53887e+2, -1123763.3, -1088501.4, -55534.902, -0.050161894, -0.07093047, -1047865.9, 384044.44, 0.078587286, 10.001185, 10.001805 
2.508122e+3, 1.6388395e+2, -1204328.0, -1272333.4, -213283.5, -0.023328643, -0.033855405, -1022353.75, 311583.22, 0.024857625, 10.000618, 10.000017 
2.5078136e+3, 1.738814e+2, -1257815.5, -1195097.1, -122268.97, -0.054807264, 0.05588738, -1100230.0, 135733.25, 0.0041356636, 9.999468, 10.000332 
2.5075045e+3, 1.8387748e+2, -1249897.1, -1264145.3, -117175.21, -0.14050768, 0.14596537, -1139629.6, -1627.4713, 0.00018434241, 9.999309, 9.999338 
2.5071952e+3, 1.9387168e+2, -715727.56, -868714.44, -140429.95, -0.19619319, -0.021411713, -632309.06, 407748.34, 0.00000026313862, 10.002109, 9.999945 
2.506887e+3, 2.0386626e+2, -550200.7, -936820.0, -107299.086, -0.16910492, -0.015469572, -522418.25, 419693.56, 0.0, 10.003269, 9.998334 
2.506581e+3, 2.1386144e+2, -585379.06, -826815.0, -29693.707, 0.03417172, 0.029408623, -581780.75, 262384.3, 0.0, 10.00222, 9.99882 
2.5062734e+3, 2.2385733e+2, -493256.8, -580755.25, -21426.395, 0.036224082, 0.14339167, -488291.72, 257914.89, 0.0, 10.001221, 10.000464 
2.505962e+3, 2.3385385e+2, -477206.75, -389758.34, -24511.813, -0.26128387, 0.07087848, -383356.34, 264878.22, 0.0, 10.000256, 10.001458 
2.5056526e+3, 2.4384983e+2, -564901.7, -619686.25, -25647.201, -0.38430244, 0.08134796, -554769.06, -4499.9756, 0.0, 9.999922, 9.999415 
2.5053465e+3, 2.5384483e+2, -298650.06, -367973.53, -111874.72, -0.20029327, 0.004113307, -216190.55, 236124.67, 0.0, 10.000936, 9.999893 
2.5050408e+3, 2.638393e+2, -269231.22, -524470.8, -71217.9, -0.1040626, 0.0020882394, -250704.52, 103663.07, 0.0, 10.001231, 9.998112 
2.5047344e+3, 2.7383178e+2, -274918.03, -409128.16, -5678.4985, -0.16991256, -0.1975731, -274678.2, -18236.535, 0.0, 10.00038, 9.99857 
2.5044286e+3, 2.838251e+2, -334445.13, -506847.88, 39481.246, -0.16467641, -0.20766777, -325833.8, -167325.69, 0.0, 9.999608, 9.997677 
2.5041234e+3, 2.938204e+2, -205747.95, -294637.28, 58702.965, -0.07034703, -0.13953039, -176562.69, -116006.664, 0.0, 9.9995, 9.998433 
2.5038195e+3, 3.0381647e+2, -132376.9, -150300.31, 136958.44, 0.054171596, 0.059894677, -4087.2854, -4087.2854, 0.0, 9.999268, 9.99927 
2.503513e+3, 3.1381175e+2, 53046.336, 304686.38, 59468.066, -0.068982385, -0.100114055, 318032.2, 318032.2, 0.0, 9.99895, 10.002423 
2.519347e+3, 1.24211535e+2, -1618453.4, -1355063.1, -129070.77, -0.025944298, -0.026990194, -1302359.6, 420358.34, 0.3720952, 9.998626, 10.004492 
2.5190356e+3, 1.3420291e+2, -1769863.3, -2146387.0, -101791.164, -0.24053243, -0.1468523, -1744106.5, -119295.96, 0.26429757, 10.000929, 9.995738 
2.518729e+3, 1.4419603e+2, -1554605.3, -1830190.3, 48161.027, -0.11160332, -0.018095843, -1546431.1, -19544.742, 0.15642525, 10.0008955, 9.997325 
2.5184247e+3, 1.541928e+2, -1372267.8, -1528864.3, -13702.974, -0.057843737, 0.15716092, -1371077.6, 57847.69, 0.071005836, 10.001003, 9.998556 
2.518118e+3, 1.6418923e+2, -1204526.5, -1111058.8, -193714.28, -0.012169228, 0.27394024, -958520.75, 372438.28, 0.021693112, 10.000078, 10.001362 
2.5178075e+3, 1.7418452e+2, -1091027.0, -831299.1, -185889.28, -0.13107738, -0.0790369, -734404.44, 498588.4, 0.00335279, 9.999639, 10.002687 
2.5174987e+3, 1.841803e+2, -1333196.3, -1395523.6, -56317.793, -0.19534534, -0.10943782, -1299994.8, -164966.2, 0.00011963712, 9.999194, 9.998464 
2.5171918e+3, 1.9417606e+2, -944087.9, -1067454.0, -39660.52, -0.23936556, -0.07856352, -932437.7, 104635.8, 0.00000002568285, 10.000946, 9.999091 
2.5168854e+3, 2.041716e+2, -791936.4, -959476.56, -108853.19, -0.17712903, 0.025866317, -738351.3, 200768.89, 0.0, 10.001267, 9.99912 
2.516578e+3, 2.1416607e+2, -673987.4, -701765.25, -82402.04, -0.01278142, -0.17431447, -604311.94, 236865.02, 0.0, 10.0009165, 10.000272 
2.5162694e+3, 2.2416303e+2, -774258.6, -728087.5, -66700.22, 0.03161981, -0.031066803, -680590.75, 62615.504, 0.0, 9.999524, 10.000203 
2.5159585e+3, 2.3416294e+2, -612906.6, -440967.13, -76651.18, -0.15402676, 0.1972406, -411757.88, 233443.8, 0.0, 9.999406, 10.001455 
2.515649e+3, 2.4415797e+2, -928396.8, -1066405.9, -20943.215, -0.30848336, 0.233651, -925288.6, -378040.8, 0.0, 9.998748, 9.99689 
2.515341e+3, 2.54146e+2, -570667.5, -731001.56, -76100.83, -0.4187693, -0.35708523, -540299.06, -90932.77, 0.0, 10.000185, 9.997726 
2.515035e+3, 2.6414013e+2, -429655.0, -528285.44, -110803.01, -0.35106003, -0.29712653, -357688.3, -6262.9326, 0.0, 9.999979, 9.998638 
2.5147316e+3, 2.741414e+2, -295794.06, -252651.14, -34296.32, -0.03368954, 0.20702799, -233706.36, 19709.158, 0.0, 9.999671, 9.999904 
2.5144267e+3, 2.841376e+2, -425139.56, -416531.8, 10067.081, 0.07901015, 0.36064282, -409887.2, -254436.55, 0.0, 9.998603, 9.998728 
2.5141194e+3, 2.9412782e+2, -228909.22, -144872.03, 91529.4, -0.026579784, -0.22808251, -86177.21, -28638.193, 0.0, 9.998812, 9.999733 
2.5138146e+3, 3.04123e+2, -302294.03, -257992.66, 140937.17, 0.030326918, -0.17036071, -137476.11, -137476.11, 0.0, 9.998375, 9.998911 
2.5135058e+3, 3.1411785e+2, -160105.05, 156816.02, 195866.02, -0.41809094, -0.3627209, 250294.44, 250294.44, 0.0, 9.997885, 10.001853 
2.529342e+3, 1.2451271e+2, -1953655.4, -1755705.3, -463532.53, -0.09919356, -0.25374618, -1380698.9, 339080.6, 0.34545994, 9.997856, 10.001396 
2.5290325e+3, 1.345103e+2, -1558383.6, -1818891.5, -77090.836, -0.289343, 0.07421681, -1537280.1, 84528.38, 0.24384509, 10.001517, 9.997783 
2.5287277e+3, 1.445056e+2, -1362935.0, -1639151.8, 47637.406, -0.08065699, 0.29050192, -1354950.1, 168908.42, 0.14280653, 10.002, 9.998107 
2.5284222e+3, 1.5449965e+2, -1283391.4, -1447131.4, 105165.47, -0.05349105, 0.1797706, -1231985.5, 193933.77, 0.06363834, 10.001455, 9.998932 
2.5281146e+3, 1.6449454e+2, -1099959.3, -1184887.9, -48699.902, -0.051021703, 0.19065319, -1077810.1, 250158.11, 0.0187796, 10.001218, 10.000327 
2.527804e+3, 1.7448953e+2, -812288.3, -877176.25, -157330.97, -0.17257886, -0.020369442, -684090.94, 545920.0, 0.0026956536, 10.002138, 10.001249 
2.527495e+3, 1.8448552e+2, -912305.2, -997449.94, -124125.03, -0.22891822, -0.031343237, -823654.75, 308390.63, 0.00007576087, 10.0011835, 10.000236 
2.5271887e+3, 1.9448215e+2, -1146847.4, -1005193.0, -22588.566, -0.1357114, -0.044694956, -1001678.1, 32398.467, 0.00000000011876218, 9.9987545, 10.000614 
2.5268817e+3, 2.0447838e+2, -1238628.4, -1083139.3, -22615.832, -0.06886989, 0.023768418, -1079916.6, -143803.1, 0.0, 9.997714, 9.999989 
2.5265735e+3, 2.1447358e+2, -935639.6, -811792.5, -42020.406, -0.027668022, -0.10167915, -798881.3, 39280.758, 0.0, 9.998908, 10.000537 
2.5262648e+3, 2.2447017e+2, -739989.7, -696070.1, -95046.78, -0.01834774, -0.010630417, -620479.3, 119715.016, 0.0, 9.999585, 10.000398 
2.5259554e+3, 2.3446853e+2, -534963.8, -475504.16, -144363.69, -0.026158668, 0.13639198, -357840.84, 284365.06, 0.0, 10.000097, 10.000959 
2.5256464e+3, 2.4446309e+2, -625093.9, -842528.3, -11902.544, -0.13152409, 0.1279548, -624444.25, -80187.664, 0.0, 10.00034, 9.997683 
2.5253376e+3, 2.544522e+2, -496063.72, -678878.5, 73560.97, -0.35810664, -0.3581063, -470140.25, -23776.809, 0.0, 10.000501, 9.997973 
2.525031e+3, 2.6444647e+2, -276845.34, -405893.88, 73819.76, -0.36888224, -0.29865763, -243325.05, 105096.6, 0.0, 10.000646, 9.999203 
2.5247276e+3, 2.7444738e+2, -128525.54, -179475.98, 2461.4385, -0.03353821, 0.20295162, -128406.91, 122010.49, 0.0, 10.000684, 9.999982 
2.5244227e+3, 2.8444433e+2, -79555.77, -108536.305, -8362.656, 0.16929448, 0.37354773, -77315.77, 75129.0, 0.0, 10.000309, 10.000008 
2.5241157e+3, 2.944353e+2, -18316.232, 49459.785, -26838.674, 0.113144465, -0.2190943, 58800.375, 113322.46, 0.0, 9.999791, 10.000624 
2.5238103e+3, 3.0442992e+2, -226836.52, -296127.75, 31248.457, 0.14135532, -0.22705118, -214826.11, -214826.11, 0.0, 9.999135, 9.998315 
2.5235018e+3, 3.144269e+2, -216458.44, 20875.508, -37494.863, -0.2448239, -0.07571229, 26658.186, 26658.186, 0.0, 9.997828, 10.00104 
2.5393385e+3, 1.24818385e+2, -1606198.3, -1492298.5, -139014.3, 0.13495873, 0.18782072, -1399021.0, 317777.7, 0.31815657, 9.999859, 10.0021305 
2.5390315e+3, 1.3481788e+2, -1433867.1, -1452426.6, -1659.9155, -0.07185629, 0.38002703, -1433719.9, 185086.86, 0.22319712, 10.001191, 10.000716 
2.5387263e+3, 1.4481527e+2, -1373187.6, -1494870.5, 7673.827, 0.017024022, 0.58383965, -1372705.6, 148124.83, 0.12934339, 10.0012665, 9.999472 
2.53842e+3, 1.5480682e+2, -1253395.4, -1310331.3, 44544.836, 0.030360825, 0.08339797, -1228998.8, 193907.27, 0.05657354, 10.001112, 10.0001 
2.5381124e+3, 1.6480063e+2, -1381119.6, -1601968.5, -8087.6235, 0.02409194, 0.06272023, -1380823.9, -55857.777, 0.016116831, 10.000581, 9.997708 
2.537802e+3, 1.7479618e+2, -1121437.4, -1323677.6, -80470.125, -0.16021053, 0.13239798, -1093326.3, 133689.39, 0.0021455006, 10.001334, 9.998529 
2.5374925e+3, 1.8479261e+2, -925060.2, -812001.4, -148681.64, -0.14346002, 0.23181982, -709465.4, 419583.13, 0.000046550977, 10.000343, 10.001906 
2.537185e+3, 1.9478944e+2, -1015498.9, -708382.06, -131300.66, 0.09722256, 0.010330212, -659900.75, 371168.56, 0.0, 9.998714, 10.002668 
2.536877e+3, 2.0478642e+2, -1327046.3, -1191899.6, -19779.379, 0.16496278, 0.09196794, -1189064.3, -255970.06, 0.0, 9.997555, 9.99925 
2.5365677e+3, 2.147829e+2, -1047991.94, -903398.0, -31341.305, -0.02987879, 0.09823575, -896896.94, -61766.906, 0.0, 9.998449, 10.00006 
2.5362593e+3, 2.2477797e+2, -991024.94, -952070.25, -99059.336, -0.03966927, 0.12938593, -870591.56, -133414.08, 0.0, 9.9985895, 9.999088 
2.535952e+3, 2.3477122e+2, -749526.06, -672733.8, -128951.76, 0.095524944, -0.16899422, -576583.25, 62657.258, 0.0, 9.999186, 9.999981 
2.5356442e+3, 2.4476686e+2, -723627.06, -707875.3, -17670.111, 0.08943865, -0.08392383, -696405.4, -155126.75, 0.0, 9.999066, 9.999156 
2.535336e+3, 2.5476357e+2, -489056.44, -442602.44, 79513.54, -0.12677935, -0.0477604, -382992.88, 60312.266, 0.0, 9.99966, 9.999945 
2.5350285e+3, 2.647576e+2, -577015.1, -731927.2, 60088.133, -0.26875758, -0.027885672, -556440.44, -211076.47, 0.0, 9.999523, 9.997457 
2.5347218e+3, 2.7474922e+2, -353674.72, -452813.56, 20742.049, -0.26182872, -0.34035665, -349509.97, -102057.32, 0.0, 9.999958, 9.99842 
2.5344163e+3, 2.8474507e+2, -254648.88, -258563.9, -48764.902, -0.10567902, -0.15797694, -207802.2, -58309.39, 0.0, 9.9995, 9.999351 
2.5341117e+3, 2.9474336e+2, -116401.0, -17150.805, -25968.678, 0.1336416, -0.021896746, -10766.773, 40734.867, 0.0, 9.999292, 10.000383 
2.5338057e+3, 3.047377e+2, -468979.66, -551464.5, -30139.176, 0.1446164, 0.025716102, -459140.7, -459140.7, 0.0, 9.998225, 9.996955 
2.5334957e+3, 3.1473303e+2, -395386.97, -44837.47, -14855.163, -0.30144525, 0.108995765, -44209.082, -44209.082, 0.0, 9.996621, 10.001149 
2.5493348e+3, 1.2512411e+2, -1333208.5, -1593429.4, 385483.34, -0.23210403, -0.08690616, -1056469.9, 657322.44, 0.29081753, 10.003795, 9.99952 
2.54903e+3, 1.3512227e+2, -1409132.6, -1617287.8, 67568.12, -0.028322507, 0.19078925, -1389123.1, 226698.56, 0.2027681, 10.00222, 9.998841 
2.5487217e+3, 1.4511846e+2, -1218359.1, -1226305.4, -4126.655, -0.2214502, 0.27756146, -1216603.9, 301255.34, 0.11625642, 10.001427, 10.001495 
2.548417e+3, 1.551147e+2, -1102895.6, -1065949.9, 58112.504, 0.031746265, 0.07550945, -1023444.75, 396441.25, 0.04988728, 10.001282, 10.001824 
2.548109e+3, 1.651105e+2, -1269434.8, -1408282.3, 68259.83, 0.036993627, 0.11672549, -1241498.0, 80425.96, 0.013707004, 10.000734, 9.998972 
2.5477985e+3, 1.7510557e+2, -1123345.9, -1237685.6, 155341.11, -0.19918312, 0.09038902, -1014988.5, 208987.5, 0.0016894786, 10.000905, 9.999355 
2.5474894e+3, 1.8510124e+2, -940205.9, -1040911.1, 29869.887, -0.15745364, 0.19426192, -932012.8, 194007.58, 0.000027889511, 10.001127, 9.999968 
2.547182e+3, 1.9509712e+2, -751896.06, -844177.2, -129255.695, 0.18663897, 0.14044033, -660792.4, 367267.44, 0.0, 10.001585, 10.000394 
2.5468734e+3, 2.050929e+2, -694113.06, -818803.9, -91296.2, 0.18372317, 0.18109092, -645905.56, 284191.78, 0.0, 10.001504, 9.999932 
2.5465623e+3, 2.1508798e+2, -618735.1, -692129.44, -77537.9, -0.15755054, 0.04568215, -569648.8, 262491.53, 0.0, 10.00123, 10.000222 
2.5462538e+3, 2.2508283e+2, -665361.2, -780997.7, -142845.98, -0.15913256, 0.035640378, -569075.8, 165112.67, 0.0, 10.000696, 9.999268 
2.5459477e+3, 2.3507673e+2, -642222.06, -675878.2, -145962.5, 0.1554272, -0.13472362, -512120.75, 124127.305, 0.0, 10.000077, 9.999575 
2.5456405e+3, 2.4507244e+2, -514895.47, -563393.44, -49760.35, 0.16377279, -0.04570833, -483790.1, 54497.105, 0.0, 10.000124, 9.999728 
2.5453317e+3, 2.5506964e+2, -333020.13, -376789.44, -118585.07, -0.13201141, 0.053082775, -234317.23, 205991.69, 0.0, 10.000556, 10.000083 
2.545024e+3, 2.6506397e+2, -441859.56, -565856.06, -164785.67, -0.24959923, 0.03304785, -327795.06, 14568.297, 0.0, 9.999934, 9.998436 
2.5447172e+3, 2.7505478e+2, -532232.9, -522296.2, -99000.01, -0.18446244, -0.37101623, -428139.94, -183682.98, 0.0, 9.998564, 9.998685 
2.5444117e+3, 2.8505003e+2, -300144.7, -220158.28, 206.05501, -0.0504987, -0.287777, -220157.75, -73656.68, 0.0, 9.9987545, 10.000042 
2.5441068e+3, 2.9504937e+2, 56222.906, 70623.45, -8020.568, 0.12467891, -0.041065756, 74201.555, 122701.63, 0.0, 10.000326, 10.000566 
2.543801e+3, 3.0504462e+2, -46009.793, -272457.9, 14805.179, 0.20653334, 0.054885104, -45045.934, -45045.934, 0.0, 10.0006275, 9.997795 
2.543487e+3, 3.1503758e+2, -190651.81, -150702.1, -45176.71, -0.50702685, -0.0839436, -121281.305, -121281.305, 0.0, 9.998664, 9.999542 
2.5593334e+3, 1.2543906e+2, -1674543.6, -2031315.0, -264263.34, -0.3040492, 0.31307092, -1534093.1, 176600.16, 0.26403108, 10.002049, 9.996756 
2.559027e+3, 1.3542669e+2, -1627348.1, -2097652.0, 35507.645, -0.07820007, -0.13503852, -1624682.5, -11848.916, 0.18292536, 10.002032, 9.995581 
2.5587177e+3, 1.4542194e+2, -1222216.9, -1081175.8, 25370.82, -0.30964887, -0.03528508, -1076750.8, 438132.4, 0.1037245, 10.000743, 10.002867 
2.558414e+3, 1.5542342e+2, -1179380.9, -965424.6, -21297.885, 0.06835913, 0.10659938, -963325.1, 453533.2, 0.043632858, 10.000149, 10.003046 
2.558106e+3, 1.6542146e+2, -1270613.4, -1192679.1, -501.69827, 0.112925835, 0.2174836, -1192675.9, 126194.695, 0.011545959, 9.999926, 10.000792 
2.5577947e+3, 1.7541593e+2, -1069999.6, -1043366.0, 35769.484, -0.19293267, -0.079867445, -1018514.8, 202406.39, 0.0013158798, 10.000666, 10.000754 
2.5574857e+3, 1.8541065e+2, -1303491.8, -1665854.0, -35540.273, -0.13261762, 0.07046002, -1300038.9, -177059.1, 0.000016496271, 10.000741, 9.995821 
2.5571793e+3, 1.9540493e+2, -1188731.6, -1525420.6, -136679.9, 0.23431034, 0.24609739, -1140232.3, -115181.695, 0.0, 10.0007305, 9.996111 
2.55687e+3, 2.0539854e+2, -859680.4, -844490.44, -94988.4, 0.16626397, 0.27466077, -756793.8, 170317.84, 0.0, 10.000296, 10.000302 
2.5565568e+3, 2.1539104e+2, -816406.9, -747465.44, -97462.81, -0.3345276, -0.19200441, -678557.06, 150613.61, 0.0, 9.999857, 10.000469 
2.5562483e+3, 2.253869e+2, -872505.94, -920305.44, -179505.83, -0.29548657, -0.07558238, -715315.8, 15890.965, 0.0, 9.9995775, 9.998796 
2.555943e+3, 2.353846e+2, -808866.44, -798836.8, -179572.3, 0.15768723, 0.1209876, -624209.3, 9023.911, 0.0, 9.99922, 9.999096 
2.5556356e+3, 2.4537918e+2, -812851.25, -893994.5, -47995.145, 0.1228201, 0.21354201, -790577.1, -255289.02, 0.0, 9.999023, 9.9979315 
2.5553253e+3, 2.5537065e+2, -623817.7, -710350.75, -103747.64, -0.38520557, -0.12982865, -554676.2, -117304.2, 0.0, 9.999519, 9.998247 
2.5550184e+3, 2.6536664e+2, -490301.1, -363392.3, -234430.94, -0.34672856, 0.022401927, -183979.83, 155429.27, 0.0, 9.99882, 10.000272 
2.5547147e+3, 2.75365e+2, -507226.56, -301120.28, -126445.875, 0.14688928, 0.13882455, -241052.27, 369.30142, 0.0, 9.9979515, 10.000448 
2.554409e+3, 2.853595e+2, -371905.44, -202566.19, 40224.39, 0.21180035, 0.03863744, -193497.1, -50029.164, 0.0, 9.998167, 10.000391 
2.5541013e+3, 2.953515e+2, -5681.431, 45313.582, 61608.82, -0.08465551, -0.5050587, 86492.68, 132027.86, 0.0, 9.999957, 10.000525 
2.5537962e+3, 3.053486e+2, -37721.156, -176922.42, -73746.4, 0.036596414, -0.24178089, -5917.7495, -5917.7495, 0.0, 10.0005, 9.998404 
2.5534844e+3, 3.1534463e+2, -346839.22, -444281.63, -7960.626, -0.36349237, -0.18927382, -346193.16, -346193.16, 0.0, 9.998776, 9.997363 
2.5693345e+3, 1.2574115e+2, -1662099.6, -1924347.1, 58905.41, -0.024928795, -0.12231963, -1649476.1, 58262.72, 0.23823552, 10.001303, 9.997818 
2.5690246e+3, 1.3573718e+2, -1523513.8, -1778273.3, 50070.523, -0.12711895, 0.03193559, -1514026.1, 95761.36, 0.16394834, 10.001673, 9.997962 
2.5687152e+3, 1.4573215e+2, -1450458.8, -1406972.3, 42142.03, -0.24648184, 0.10976482, -1381294.9, 130544.93, 0.09188186, 9.999987, 10.000746 
2.5684085e+3, 1.5572955e+2, -1494955.9, -1358618.5, -94646.12, -0.007192747, 0.099830545, -1310147.4, 103714.84, 0.03784501, 9.99892, 10.000874 
2.5681004e+3, 1.657262e+2, -1324481.5, -1246767.5, -118709.47, -0.020071834, 0.17391929, -1160717.3, 155174.53, 0.009625426, 9.999627, 10.000578 
2.5677907e+3, 1.7572121e+2, -946993.9, -1051054.3, -162641.02, -0.2976837, -0.011789039, -828263.3, 389674.16, 0.0010124295, 10.001705, 10.00025 
2.5674823e+3, 1.8571655e+2, -1024655.6, -1326928.0, -274580.72, -0.24147981, 0.11298792, -862364.44, 257621.7, 0.000009793076, 10.001695, 9.997718 
2.5671744e+3, 1.9571158e+2, -1136930.4, -1354203.4, -110727.09, 0.13048904, 0.23679942, -1090446.4, -68402.68, 0.0, 10.000321, 9.997539 
2.5668648e+3, 2.0570515e+2, -990996.4, -987031.75, 9672.736, 0.088450365, 0.22781083, -979140.25, -55035.54, 0.0, 9.999615, 9.999688 
2.566553e+3, 2.1569738e+2, -905575.4, -914241.06, -52695.13, -0.27042007, -0.13124475, -857035.25, -30865.023, 0.0, 9.999622, 9.999506 
2.5662452e+3, 2.2569242e+2, -730434.9, -884444.2, -145948.28, -0.2200638, -0.04126576, -642422.5, 85794.125, 0.0, 10.0005245, 9.998638 
2.5659397e+3, 2.3568922e+2, -437000.03, -707785.9, -176625.11, 0.17976771, 0.15421784, -349844.8, 280408.34, 0.0, 10.001923, 9.998512 
2.5656316e+3, 2.4568368e+2, -407937.7, -609577.06, -44994.0, 0.11429322, 0.21781644, -398353.25, 133955.67, 0.0, 10.001347, 9.998761 
2.5653207e+3, 2.5567558e+2, -590649.1, -650530.3, 8407.08, -0.3427688, -0.08190065, -589491.2, -155104.02, 0.0, 9.9994545, 9.998714 
2.5650138e+3, 2.6567167e+2, -372978.16, -201308.44, -62811.453, -0.29072446, 0.01086572, -180781.17, 155640.31, 0.0, 9.999049, 10.001279 
2.56471e+3, 2.7567053e+2, -161442.66, -61817.137, -90622.2, 0.22710705, 0.13861722, -8219.575, 230205.98, 0.0, 9.999892, 10.001151 
2.5644043e+3, 2.8566563e+2, -154818.0, -124239.73, 35089.71, 0.26376778, 0.06753552, -101252.95, 39214.836, 0.0, 9.9997015, 10.000183 
2.5640965e+3, 2.956573e+2, -212570.36, -126711.28, -44146.258, -0.08839922, -0.4357749, -108062.92, -65519.586, 0.0, 9.99874, 9.9999485 
2.5637904e+3, 3.0565393e+2, -281663.44, -225163.36, -165071.64, -0.053550158, -0.23221426, -85941.875, -85941.875, 0.0, 9.998359, 9.999159 
2.563479e+3, 3.1565532e+2, -339655.25, -241595.03, -222114.61, -0.32885292, 0.33577517, -63163.39, -63163.39, 0.0, 9.9977045, 9.999348 
2.5793356e+3, 1.2604707e+2, -1632088.6, -1534385.9, -44251.35, 0.34227782, 0.0526745, -1517323.4, 187425.42, 0.21373183, 9.999739, 10.001501 
2.5790223e+3, 1.3604891e+2, -1343537.1, -1359608.8, -67046.49, -0.034843225, 0.3228644, -1284046.6, 322682.78, 0.14603193, 10.001531, 10.001175 
2.5787124e+3, 1.4604332e+2, -1528448.8, -1757035.5, -56542.01, -0.0662708, 0.34550917, -1515227.5, -6440.144, 0.080827504, 10.000899, 9.997792 
2.5784028e+3, 1.56035e+2, -1555988.5, -1739139.6, -144143.67, -0.03252479, 0.058171604, -1476790.9, -65916.09, 0.032553293, 10.000122, 9.997627 
2.5780946e+3, 1.660296e+2, -1339937.4, -1393720.5, -76.37821, -0.12904246, 0.15315846, -1339937.3, -27007.197, 0.007938516, 10.000201, 9.999218 
2.577787e+3, 1.7602517e+2, -1180932.1, -1289600.0, -68906.04, -0.3702375, 0.12215211, -1147515.3, 67458.8, 0.00076767127, 10.000713, 9.999033 
2.5774786e+3, 1.8602155e+2, -907326.6, -858545.44, -284240.3, -0.29312968, 0.22272427, -597651.1, 519354.4, 0.000005913737, 10.000857, 10.001278 
2.577169e+3, 1.9601811e+2, -998113.25, -942459.4, -193713.8, 0.01983967, 0.10735947, -774584.06, 244449.02, 0.0, 9.999958, 10.000467 
2.5768596e+3, 2.0601289e+2, -1162996.9, -1292531.4, -20557.602, 0.089923516, 0.19960362, -1159812.5, -238730.83, 0.0, 9.999491, 9.997605 
2.5765502e+3, 2.1600562e+2, -1154528.9, -1269019.4, -64890.785, -0.044349853, 0.048619796, -1125241.9, -302089.47, 0.0, 9.999002, 9.997339 
2.576243e+3, 2.259988e+2, -960886.75, -1076716.5, -86359.19, 0.0054498054, 0.10260031, -914820.7, -189598.97, 0.0, 9.999531, 9.997718 
2.5759372e+3, 2.3599173e+2, -700490.4, -918351.7, -117980.0, 0.19225755, -0.027905995, -648843.44, -21547.482, 0.0, 10.000686, 9.997597 
2.5756288e+3, 2.459877e+2, -457960.78, -425238.28, -112047.555, 0.1328076, 0.14215702, -328363.72, 200968.52, 0.0, 10.000275, 10.000483 
2.5753182e+3, 2.5598457e+2, -662236.4, -528424.75, -41633.117, -0.116624475, 0.12713127, -516528.9, -85174.62, 0.0, 9.99842, 10.000013 
2.5750092e+3, 2.6597878e+2, -578843.4, -393587.53, -41157.137, -0.19105119, 0.024628462, -384855.5, -51451.95, 0.0, 9.998142, 10.000378 
2.5747022e+3, 2.7597123e+2, -380199.4, -300899.6, -44277.805, -0.12224424, -0.4316793, -281113.5, -45643.164, 0.0, 9.99908, 9.999877 
2.5743967e+3, 2.8596884e+2, -344878.7, -353210.4, -3808.727, -0.056939412, -0.11428253, -343400.03, -205901.98, 0.0, 9.999103, 9.9988575 
2.5740916e+3, 2.9596835e+2, -408972.03, -369930.53, -41392.49, -0.070240416, 0.2757512, -343686.7, -304172.9, 0.0, 9.9981165, 9.998565 
2.573783e+3, 3.0596313e+2, -293353.2, -58178.58, -165955.94, -0.16652997, 0.2811988, 27625.73, 27625.73, 0.0, 9.997653, 10.000604 
2.5734746e+3, 3.1595847e+2, -457120.2, -247701.94, -196983.19, -0.20827149, 0.08820389, -129327.266, -129327.266, 0.0, 9.996817, 9.99971 
2.589329e+3, 1.2635334e+2, -1742753.0, -1557498.8, 40387.75, 0.051264368, -0.049393374, -1549076.6, 152667.39, 0.19077115, 9.998697, 10.001792 
2.589021e+3, 1.3635328e+2, -1301202.0, -1409029.8, -44722.133, 0.018134082, 0.15915893, -1285067.5, 318678.66, 0.12932457, 10.002104, 10.000522 
2.588711e+3, 1.4634834e+2, -1161742.6, -1488896.5, -134225.55, -0.06739015, 0.2233398, -1113721.1, 392078.0, 0.07062259, 10.003171, 9.998599 
2.5883996e+3, 1.5634282e+2, -1010216.06, -1409182.8, -61132.777, -0.20873244, 0.18416257, -1001059.0, 406800.8, 0.027766839, 10.003587, 9.998262 
2.5880912e+3, 1.6633788e+2, -985618.94, -1169122.6, 84356.805, -0.25188, 0.26947176, -952733.4, 357176.7, 0.0064744665, 10.002306, 9.999799 
2.587785e+3, 1.7633277e+2, -1268089.6, -1307976.5, 108046.945, -0.20172663, 0.17609909, -1178161.0, 33798.41, 0.0005723583, 9.999855, 9.999377 
2.5874764e+3, 1.863283e+2, -1010167.75, -978102.56, -131407.08, -0.1276377, 0.2184287, -861753.6, 252246.23, 0.0000035552432, 10.000358, 10.000729 
2.5871658e+3, 1.9632381e+2, -652376.1, -844431.6, -206411.36, -0.031813722, 0.098614976, -520748.5, 495290.16, 0.0, 10.002452, 10.000009 
2.5868568e+3, 2.0631875e+2, -610392.06, -939885.5, -123250.77, 0.04798701, 0.16476306, -569390.75, 348695.84, 0.0, 10.00283, 9.998461 
2.586549e+3, 2.163129e+2, -629879.7, -969761.6, -46366.348, 0.12724683, 0.14552547, -623668.0, 196477.05, 0.0, 10.002251, 9.997901 
2.5862405e+3, 2.2630635e+2, -580081.1, -827446.7, 39990.99, 0.089983575, 0.1659112, -573776.56, 148434.73, 0.0, 10.001757, 9.99838 
2.585932e+3, 2.3629896e+2, -554460.8, -801601.06, 76595.336, 0.009354055, 0.010405953, -532647.25, 91639.04, 0.0, 10.001367, 9.99811 
2.5856233e+3, 2.4629463e+2, -313893.5, -295312.1, -6875.746, -0.023776205, 0.10111835, -293044.56, 233278.53, 0.0, 10.00088, 10.001132 
2.585314e+3, 2.5629184e+2, -362410.78, -342307.4, -44274.543, -0.034967765, 0.11811815, -306957.84, 121381.81, 0.0, 10.000185, 10.000481 
2.585005e+3, 2.662857e+2, -371424.25, -343140.4, -11320.789, -0.08842353, -0.025121832, -339167.3, -8774.122, 0.0, 9.999674, 10.000023 
2.5846967e+3, 2.7627695e+2, -398640.53, -390375.3, -26004.111, -0.12799011, -0.4944098, -368177.47, -135703.45, 0.0, 9.999154, 9.999301 
2.5843912e+3, 2.8627494e+2, -352402.78, -338487.34, 45197.566, -0.086348586, -0.12924339, -299715.1, -165213.17, 0.0, 9.998857, 9.99912 
2.5840858e+3, 2.9627642e+2, -357868.78, -344213.88, 32769.008, -0.04751687, 0.49103218, -317568.63, -281065.0, 0.0, 9.998316, 9.998702 
2.583777e+3, 3.0627096e+2, 35492.98, 308149.03, -22452.41, -0.1393156, 0.37365916, 309985.56, 309985.56, 0.0, 9.999007, 10.002485 
2.5834763e+3, 3.1626633e+2, -210770.55, -221286.0, -131798.28, 0.637404, 0.09249361, -84125.164, -84125.164, 0.0, 9.998769, 9.99902 
2.599324e+3, 1.266619e+2, -1620807.5, -1840301.6, 144225.63, 0.013466506, -0.05703645, -1549321.4, 149394.61, 0.16949552, 10.001441, 9.998323 
2.5990194e+3, 1.366561e+2, -1515217.5, -1768952.6, 26695.018, 0.11381711, -0.1724369, -1512439.4, 88340.234, 0.11391175, 10.001616, 9.998083 
2.5987098e+3, 1.4665286e+2, -1248802.1, -1345534.3, -74924.15, -0.04252353, 0.07688797, -1207989.1, 294827.5, 0.061296463, 10.001815, 10.000184 
2.598397e+3, 1.5665162e+2, -1148655.4, -1366983.8, -64200.7, -0.3380199, 0.296681, -1131176.3, 273657.1, 0.023481611, 10.002227, 9.999159 
2.598089e+3, 1.6664776e+2, -1027170.0, -1096511.5, -9344.814, -0.21321733, 0.4150848, -1025932.7, 280937.66, 0.005220199, 10.001677, 10.000607 
2.597784e+3, 1.7664208e+2, -1294652.6, -1327810.1, -18793.447, 0.15881011, 0.17587833, -1286170.5, -77247.64, 0.00041937284, 9.999766, 9.999296 
2.5974748e+3, 1.8663599e+2, -1234424.9, -1368672.3, -59536.94, 0.16433759, 0.20495825, -1211825.5, -100842.766, 0.0000020172258, 10.000122, 9.998112 
2.5971633e+3, 1.966291e+2, -1029331.0, -1293069.0, -128348.21, -0.028618425, 0.08201127, -977181.8, 35870.227, 0.0, 10.001112, 9.997533 
2.596855e+3, 2.0662418e+2, -706214.9, -784210.4, -113149.47, 0.07059125, 0.17701551, -625531.25, 289568.75, 0.0, 10.001456, 10.000133 
2.5965482e+3, 2.1661979e+2, -839395.94, -925354.75, -50192.62, 0.3195634, 0.11399596, -816295.6, 845.79614, 0.0, 10.000352, 9.999066 
2.5962377e+3, 2.2661524e+2, -698330.75, -765197.5, 35943.41, 0.08859483, 0.23621824, -682675.2, 36509.555, 0.0, 10.000546, 9.999347 
2.595925e+3, 2.366098e+2, -732018.0, -839544.9, 58855.387, -0.36172462, 0.14964882, -706066.56, -84829.74, 0.0, 10.000057, 9.99844 
2.5956163e+3, 2.4660403e+2, -550798.75, -516169.2, -39168.234, -0.34921733, 0.14114839, -490659.28, 32628.1, 0.0, 9.999837, 10.000077 
2.5953087e+3, 2.5659764e+2, -652434.7, -632062.8, -61174.594, -0.13124195, -0.13264626, -580231.94, -154890.78, 0.0, 9.998925, 9.999083 
2.595001e+3, 2.6659268e+2, -566991.75, -510934.9, -45120.203, 0.004420774, -0.04512888, -485846.25, -158458.8, 0.0, 9.998789, 9.99925 
2.5946942e+3, 2.765876e+2, -589440.7, -583545.44, -35220.77, 0.12190396, -0.09973093, -551149.1, -321710.78, 0.0, 9.998363, 9.998348 
2.5943872e+3, 2.865832e+2, -414907.97, -288413.78, 1966.4309, 0.08030235, 0.037554417, -288383.22, -156897.97, 0.0, 9.998193, 9.999758 
2.5940788e+3, 2.9657918e+2, -459803.53, -329029.66, 14326.255, -0.17267892, 0.023635149, -327478.63, -293948.9, 0.0, 9.997467, 9.999189 
2.593772e+3, 3.06573e+2, 52938.41, 446655.34, -13644.735, -0.10824341, -0.25762767, 447127.66, 447127.66, 0.0, 9.99874, 10.0034895 
2.59346e+3, 3.1657466e+2, -254870.4, -258431.83, 101939.24, -0.60451245, -0.023908515, -154696.33, -154696.33, 0.0, 9.998722, 9.998729 
2.6093265e+3, 1.2697239e+2, -1117108.5, -1518541.6, -8829.336, 0.13551074, 0.11431555, -1116914.4, 578764.94, 0.14988421, 10.005042, 9.999009 
2.6090157e+3, 1.3696714e+2, -1562804.5, -1816871.6, 44111.89, -0.029223282, 0.08636562, -1555363.5, 42374.266, 0.09979623, 10.001219, 9.998005 
2.6087055e+3, 1.4696254e+2, -1477875.6, -1421650.0, 32635.463, -0.1270016, 0.1915027, -1406688.5, 93094.555, 0.05285716, 9.999937, 10.000554 
2.608396e+3, 1.5695797e+2, -1375110.9, -1489877.8, 24873.264, -0.17911771, 0.09801868, -1369952.0, 31873.057, 0.019694533, 10.0005665, 9.999165 
2.6080877e+3, 1.6695353e+2, -1110236.6, -1231089.1, -32872.71, -0.11647386, 0.20214057, -1101873.8, 201995.08, 0.004163879, 10.00146, 9.999779 
2.60778e+3, 1.7694874e+2, -989064.56, -1236403.0, -95264.125, 0.022489067, 0.15611517, -956627.0, 249290.0, 0.00030229846, 10.0020485, 9.998833 
2.6074705e+3, 1.869433e+2, -922897.06, -1085676.3, -73239.37, 0.049933486, 0.18539537, -894795.7, 213174.64, 0.0000010444409, 10.001578, 9.999401 
2.6071602e+3, 1.9693698e+2, -1047763.5, -1190404.4, 29851.486, -0.013531012, 0.046910193, -1041768.25, -31736.379, 0.0, 10.000338, 9.998664 
2.6068515e+3, 2.0693253e+2, -908475.06, -835017.8, 36553.703, 0.104242556, 0.116529174, -819927.9, 92146.86, 0.0, 9.999711, 10.000674 
2.6065436e+3, 2.1692859e+2, -951714.0, -920958.8, 55509.07, 0.31521073, 0.092031494, -878736.7, -64624.965, 0.0, 9.999137, 9.999732 
2.606233e+3, 2.2692434e+2, -705036.0, -666869.8, 151366.02, 0.07550577, 0.15736973, -533388.7, 182761.22, 0.0, 9.999908, 10.000393 
2.6059213e+3, 2.3691957e+2, -521736.75, -684348.5, 151515.1, -0.3763328, 0.09145704, -431090.7, 187101.73, 0.0, 10.001064, 9.999092 
2.6056126e+3, 2.469132e+2, -440933.97, -604238.1, 6620.222, -0.3345531, 0.06744593, -440666.03, 79586.62, 0.0, 10.001127, 9.998856 
2.605305e+3, 2.569056e+2, -439348.88, -667261.44, -63468.38, -0.04304837, -0.14834933, -422866.4, -541.32117, 0.0, 10.00082, 9.997978 
2.6049972e+3, 2.669007e+2, -399806.9, -442171.84, -24762.484, 0.10694794, -0.014391689, -388402.9, -64028.547, 0.0, 9.999846, 9.999282 
2.6046896e+3, 2.7689686e+2, -584490.6, -578487.6, 3953.3772, 0.24031316, 0.10263262, -576525.44, -350110.1, 0.0, 9.998243, 9.9984865 
2.6043817e+3, 2.8689167e+2, -381159.0, -222555.5, 101312.32, 0.14717981, 0.13005562, -173198.97, -44732.465, 0.0, 9.998172, 10.00022 
2.6040724e+3, 2.9688567e+2, -287679.44, -221083.66, 75228.03, -0.15049613, -0.07145677, -172113.66, -141589.78, 0.0, 9.998447, 9.999484 
2.6037678e+3, 3.0687767e+2, 19934.455, 376715.3, 1037.5072, 0.042544764, -0.53297776, 376718.3, 376718.3, 0.0, 9.9985075, 10.003193 
2.6034617e+3, 3.168796e+2, -434884.9, -324617.3, 13662.549, 0.14002642, -0.215472, -322949.72, -322949.72, 0.0, 9.997252, 9.998985 
2.6193285e+3, 1.2728155e+2, -1559370.9, -1629858.8, -114944.85, 0.33030647, 0.17634115, -1474388.1, 218269.19, 0.13183987, 10.001169, 9.999864 
2.619011e+3, 1.3728032e+2, -1489273.0, -1733292.4, -110162.555, -0.11814596, 0.45171937, -1446898.5, 147776.5, 0.08692974, 10.001752, 9.998255 
2.6187018e+3, 1.4727342e+2, -1280762.9, -1394304.1, 13491.412, -0.09570398, 0.34857854, -1279181.9, 217555.03, 0.045284748, 10.001635, 9.99995 
2.6183954e+3, 1.5726388e+2, -1377659.4, -1593961.5, -32011.654, 0.1506174, -0.20267951, -1373021.3, 25799.178, 0.01638905, 10.001026, 9.998245 
2.618086e+3, 1.6725868e+2, -1245231.3, -1453109.4, -13472.133, 0.028310394, -0.05522154, -1244361.8, 56511.67, 0.0032885466, 10.001297, 9.998304 
2.617775e+3, 1.7725496e+2, -1211899.0, -1446869.0, -63040.15, -0.2201132, 0.13507587, -1196054.4, 6862.9756, 0.00021471751, 10.0010195, 9.997888 
2.617466e+3, 1.872509e+2, -828127.9, -754181.25, -105905.84, -0.11871013, 0.18436308, -678980.3, 425974.63, 0.00000047553752, 10.001057, 10.001904 
2.617157e+3, 1.9724654e+2, -1020814.8, -1002506.7, -63883.117, 0.11050246, -0.026078101, -947125.1, 59866.477, 0.0, 9.999879, 10.000157 
2.6168472e+3, 2.0724264e+2, -967271.75, -906143.06, -38198.227, 0.17523009, 0.067112535, -887786.25, 21241.217, 0.0, 9.999591, 10.000201 
2.6165366e+3, 2.1723858e+2, -1146627.8, -1073287.9, -5603.689, 0.18449944, 0.04115221, -1072862.3, -261795.72, 0.0, 9.998177, 9.9991255 
2.6162282e+3, 2.2723398e+2, -772828.0, -585644.1, 151330.34, 0.06378605, 0.04215296, -501302.56, 211803.55, 0.0, 9.99912, 10.0012665 
2.6159203e+3, 2.3722889e+2, -793983.7, -827047.44, 136377.84, -0.13596503, -0.16309695, -673139.4, -57990.203, 0.0, 9.999422, 9.998856 
2.6156113e+3, 2.4722278e+2, -741887.25, -972781.6, -21883.191, -0.09604485, -0.02482127, -739831.56, -222617.9, 0.0, 10.0001745, 9.996717 
2.6153022e+3, 2.572158e+2, -787546.2, -1060500.5, -83293.5, 0.06600533, 0.0076500513, -764136.44, -344845.47, 0.0, 9.999545, 9.995848 
2.614992e+3, 2.6721025e+2, -489365.25, -438181.13, -90617.28, 0.083954334, 0.13625647, -369611.38, -48262.746, 0.0, 9.999116, 9.9996 
2.6146814e+3, 2.7720505e+2, -717457.75, -643920.1, -17303.66, 0.02510641, 0.04913462, -640052.0, -416651.3, 0.0, 9.997431, 9.998388 
2.614374e+3, 2.872014e+2, -433328.53, -202267.67, 124873.59, -0.05444078, 0.21519786, -147678.45, -22242.604, 0.0, 9.997766, 10.000495 
2.6140675e+3, 2.9719794e+2, -419210.5, -360010.3, 124534.516, -0.15841079, 0.22250445, -261606.47, -234137.69, 0.0, 9.99797, 9.998746 
2.613763e+3, 3.07189e+2, -292602.8, -85210.37, -46470.22, 0.15034382, -0.13789953, -75273.91, -75273.91, 0.0, 9.997772, 10.000361 
2.613448e+3, 3.1719348e+2, -557439.2, -259829.63, -71283.93, -0.5928823, 0.6603403, -243636.64, -243636.64, 0.0, 9.996009, 10.000027 
2.629321e+3, 1.2758844e+2, -2155799.3, -1892271.5, -662.0619, 0.081729285, 0.06749794, -1892269.8, -202619.0, 0.11528824, 9.9967985, 10.000101 
2.629011e+3, 1.3758783e+2, -1224384.3, -1607345.8, 8096.498, -0.077838935, 0.38374877, -1224213.1, 367447.16, 0.07524984, 10.00362, 9.998255 
2.6287007e+3, 1.4758092e+2, -940455.3, -1379332.1, -73826.664, -0.16399698, 0.35649946, -928369.25, 565355.9, 0.038529176, 10.004668, 9.998629 
2.628391e+3, 1.5757118e+2, -1048578.5, -1464701.0, -124360.89, -0.15450229, -0.079601645, -1014245.2, 381569.8, 0.013527696, 10.003353, 9.998059 
2.6280814e+3, 1.6756667e+2, -972322.3, -1097029.5, -57078.7, -0.15054233, -0.00032499342, -950142.2, 347715.22, 0.0025719018, 10.0021, 10.000425 
2.627772e+3, 1.77564e+2, -1169808.4, -1285754.1, 52479.63, -0.1874357, 0.12916641, -1149583.0, 50301.137, 0.00015054179, 10.000559, 9.9992695 
2.6274636e+3, 1.8755965e+2, -884636.25, -971164.0, -52691.797, -0.027817398, 0.20092647, -859722.5, 242205.08, 0.0000001940375, 10.001385, 10.000292 
2.6271552e+3, 1.9755447e+2, -700357.56, -963683.75, -179283.3, 0.17640352, 0.07732497, -609584.94, 394393.3, 0.0, 10.00241, 9.999261 
2.6268435e+3, 2.0754999e+2, -604649.1, -749880.9, -252701.52, 0.1422018, 0.13160673, -414337.03, 491682.38, 0.0, 10.002091, 10.000106 
2.6265308e+3, 2.1754554e+2, -687725.1, -869060.6, -191836.77, 0.006893461, 0.09746029, -566209.06, 241850.6, 0.0, 10.001259, 9.999087 
2.6262227e+3, 2.2754028e+2, -681818.9, -681641.4, -125242.69, -0.044909816, 0.08162187, -556487.4, 153621.28, 0.0, 10.000225, 10.000122 
2.625916e+3, 2.375347e+2, -850202.6, -884315.1, -258640.47, -0.07338612, -0.06595118, -608056.6, 4104.668, 0.0, 9.998982, 9.998733 
2.6256076e+3, 2.475297e+2, -742744.5, -806197.94, -279051.06, -0.014331567, 0.050088935, -493622.38, 20590.742, 0.0, 9.999313, 9.998339 
2.625298e+3, 2.575246e+2, -597709.7, -806864.94, -119750.945, 0.07569747, 0.13696831, -543300.6, -127031.96, 0.0, 9.999999, 9.997419 
2.6249874e+3, 2.6751888e+2, -290089.9, -344705.47, -97880.82, 0.08359477, 0.18053922, -215778.94, 102547.62, 0.0, 10.000411, 9.999652 
2.624676e+3, 2.7751294e+2, -249028.8, -373569.22, -76812.67, 0.04349554, 0.047372837, -212416.42, 7968.4707, 0.0, 10.000317, 9.9988985 
2.6243678e+3, 2.8751016e+2, -191320.92, -50833.086, 67798.47, -0.040168304, 0.23731099, -23450.982, 98960.46, 0.0, 9.999133, 10.000932 
2.6240614e+3, 2.9750827e+2, -473595.16, -344433.2, 57725.258, -0.096163444, 0.38502765, -322394.84, -297965.75, 0.0, 9.997305, 9.999213 
2.6237568e+3, 3.074986e+2, -374707.66, -324067.63, -11946.621, 0.2193648, 0.015123942, -321390.75, -321390.75, 0.0, 9.9979925, 9.998651 
2.623447e+3, 3.1749812e+2, -63613.81, 334067.72, 23615.201, 0.06787662, 0.51185256, 335465.13, 335465.13, 0.0, 9.9976845, 10.003361 
2.6393136e+3, 1.2789564e+2, -1592811.6, -1633658.5, 206336.92, -0.031499274, -0.011853733, -1405889.8, 280750.34, 0.10017185, 10.000806, 10.00007 
2.6390117e+3, 1.3789451e+2, -1343750.8, -1725724.4, 87309.77, 0.080044866, 0.24915908, -1324740.1, 263912.13, 0.06469282, 10.003034, 9.997719 
2.6387003e+3, 1.4788808e+2, -1262721.8, -1692427.9, -103887.85, -0.17591953, 0.36443654, -1238923.4, 251793.95, 0.032530583, 10.00311, 9.997141 
2.6383862e+3, 1.5787913e+2, -1344286.1, -1670601.1, -142967.28, -0.5054224, 0.1302639, -1290510.4, 102296.13, 0.011066901, 10.001647, 9.997424 
2.6380774e+3, 1.6787574e+2, -882497.3, -719920.3, -93267.984, -0.31372708, 0.14581223, -677488.44, 617343.6, 0.0019930317, 10.001337, 10.003337 
2.6377702e+3, 1.7787404e+2, -1191850.1, -1218003.5, -32662.186, 0.032587945, 0.09686911, -1169744.1, 27094.69, 0.00010503105, 10.000122, 9.999937 
2.6374623e+3, 1.8786882e+2, -1144318.5, -1423819.9, -20001.773, 0.18619719, 0.24401577, -1142894.4, -43998.1, 0.00000008640195, 10.001215, 9.997153 
2.637154e+3, 1.9786218e+2, -994621.75, -1413583.6, -153961.0, 0.27373114, 0.26143247, -944129.1, 56843.16, 0.0, 10.001884, 9.996369 
2.6368403e+3, 2.0785649e+2, -638764.25, -773038.8, -258864.69, 0.09976733, 0.3041314, -438472.38, 464552.97, 0.0, 10.001941, 10.0 
2.6365256e+3, 2.17851e+2, -976352.4, -1149520.4, -225167.48, -0.13998573, 0.1707434, -821695.44, -16623.086, 0.0, 9.999964, 9.997789 
2.636217e+3, 2.2784477e+2, -990355.94, -1116814.9, -155605.39, -0.18495607, 0.26486808, -885624.06, -178485.66, 0.0, 9.999438, 9.997459 
2.6359096e+3, 2.3783831e+2, -1162912.3, -1171648.0, -258106.58, -0.1532068, 0.24774943, -909136.56, -299926.88, 0.0, 9.99753, 9.997446 
2.6356012e+3, 2.4783508e+2, -540243.75, -198248.03, -242160.78, -0.105777755, 0.30183747, -72796.72, 438439.47, 0.0, 9.99861, 10.002814 
2.635292e+3, 2.578324e+2, -607795.8, -502476.1, -99623.06, -0.06540007, 0.17759961, -442451.38, -29197.775, 0.0, 9.9987, 10.00013 
2.634983e+3, 2.6782674e+2, -437604.47, -456576.06, -103746.79, 0.08775288, 0.14971957, -342910.72, -27603.574, 0.0, 9.999719, 9.999161 
2.634674e+3, 2.7782017e+2, -470052.38, -564412.25, -81150.78, 0.24539071, -0.018417269, -423363.28, -205991.31, 0.0, 9.999286, 9.998075 
2.6343644e+3, 2.8781748e+2, -281601.8, -67475.35, -18976.182, 0.108636916, 0.2021588, -65806.664, 53590.316, 0.0, 9.998492, 10.001094 
2.6340535e+3, 2.978157e+2, -636758.75, -425552.0, 14908.456, -0.18774334, 0.3251208, -424504.84, -403091.94, 0.0, 9.996285, 9.999139 
2.6337492e+3, 3.0780447e+2, -388446.53, -275537.63, 39082.35, 0.08121001, -0.24218373, -263329.6, -263329.6, 0.0, 9.997776, 9.999024 
2.633438e+3, 3.1780347e+2, -278709.56, -133867.6, 121132.64, -0.30226725, 0.1762515, -65157.73, -65157.73, 0.0, 9.9978895, 10.000009 
2.6493147e+3, 1.2820475e+2, -925634.75, -1306549.5, 91183.234, -0.09319942, 0.13502379, -904932.44, 778680.75, 0.08643013, 10.005682, 10.00015 
2.649009e+3, 1.3820207e+2, -1315896.0, -1671125.3, 53804.72, -0.117882475, 0.258767, -1307925.4, 277712.78, 0.055199515, 10.002885, 9.998232 
2.648698e+3, 1.4819618e+2, -1456264.5, -1660441.4, -90902.69, -0.1625781, 0.32386166, -1421658.6, 66037.42, 0.027235242, 10.001088, 9.998367 
2.6483855e+3, 1.5818842e+2, -1590098.5, -1718077.8, -7402.4707, -0.21907188, 0.12087294, -1589671.8, -199898.98, 0.0089680515, 9.999519, 9.998151 
2.6480752e+3, 1.6818391e+2, -1137425.0, -989251.1, -34824.36, -0.16738553, 0.0917765, -981474.7, 310335.88, 0.0015322798, 10.000251, 10.001987 
2.647766e+3, 1.7818032e+2, -1075209.0, -1217584.3, -105211.984, -0.09361835, -0.0034900042, -1019364.2, 174473.58, 0.00007382683, 10.001077, 9.999495 
2.6474586e+3, 1.8817537e+2, -879763.5, -1227747.6, 686.3739, 0.039651502, 0.13514689, -879762.1, 216129.45, 0.000000036839044, 10.002671, 9.997837 
2.6471516e+3, 1.9816975e+2, -622080.94, -1187380.5, -3796.5776, 0.12887643, 0.22975595, -622055.44, 375900.63, 0.0, 10.004111, 9.996879 
2.6468378e+3, 2.0816328e+2, -498338.0, -852768.25, -205948.98, 0.014850795, 0.26028568, -403854.44, 496165.1, 0.0, 10.003446, 9.998757 
2.646522e+3, 2.181566e+2, -737570.75, -1074965.3, -191219.05, -0.19318098, 0.1561292, -651271.0, 150810.63, 0.0, 10.001649, 9.9975195 
2.6462123e+3, 2.2815034e+2, -742059.44, -950443.5, 601.8291, -0.21645574, 0.22661428, -742057.7, -37911.22, 0.0, 10.000828, 9.997987 
2.6459044e+3, 2.3814425e+2, -691177.1, -868604.56, 69770.26, -0.16988055, 0.24584068, -667028.06, -60815.914, 0.0, 10.000262, 9.998265 
2.6455963e+3, 2.4814089e+2, -427281.8, -170683.42, -59641.027, -0.035722103, 0.28553072, -157498.58, 350742.94, 0.0, 9.999341, 10.002732 
2.6452878e+3, 2.581382e+2, -607736.25, -443680.28, -201865.66, 0.10470268, 0.19890223, -307813.03, 102447.4, 0.0, 9.998242, 10.000817 
2.6449785e+3, 2.68133e+2, -500683.4, -408427.84, -191435.73, 0.15338662, 0.123168625, -257640.89, 54666.797, 0.0, 9.99881, 9.999971 
2.6446694e+3, 2.7812707e+2, -349645.78, -397195.03, -116236.164, 0.25703785, -0.035582498, -254777.75, -40413.703, 0.0, 9.999474, 9.9991665 
2.6443586e+3, 2.8812447e+2, -253379.33, -53031.168, -87061.11, 0.14257427, 0.13388999, -20485.682, 95902.43, 0.0, 9.998571, 10.0011835 
2.6440462e+3, 2.9812256e+2, -522694.03, -321076.7, -39571.55, -0.15162657, 0.26375115, -313588.1, -295182.75, 0.0, 9.996698, 9.99968 
2.6437426e+3, 3.0811214e+2, -430090.9, -201797.16, 66591.055, 0.12365041, -0.3017232, -183793.06, -183793.06, 0.0, 9.99697, 9.999963 
2.643432e+3, 3.1811172e+2, -352341.28, -152502.23, 113393.72, -0.3013586, 0.11531656, -101285.9, -101285.9, 0.0, 9.9971285, 10.00029 
2.659317e+3, 1.285147e+2, -1069032.0, -1395127.0, 88414.26, -0.010930026, 0.31462422, -1046602.9, 633974.7, 0.073999934, 10.004681, 9.999852 
2.6590058e+3, 1.385105e+2, -1463990.5, -1763002.9, -29072.695, -0.2472262, 0.27062914, -1461190.0, 121425.766, 0.04671151, 10.001911, 9.998039 
2.658696e+3, 1.4850529e+2, -1289313.5, -1351378.5, -105450.69, -0.02755959, 0.2888929, -1210424.0, 274239.88, 0.022592498, 10.001426, 10.00031 
2.6583862e+3, 1.584991e+2, -1451401.3, -1635473.0, -39626.816, 0.3410259, 0.07769651, -1443232.9, -56511.195, 0.0071954923, 10.000528, 9.998229 
2.6580736e+3, 1.6849236e+2, -1212503.1, -1359244.0, 29308.676, 0.11987271, 0.01778724, -1206865.8, 81919.8, 0.001170623, 10.001227, 9.998959 
2.6577613e+3, 1.7848577e+2, -1223400.1, -1469364.6, -33792.234, -0.21525407, -0.11159069, -1218842.0, -27993.762, 0.00005271245, 10.000974, 9.99779 
2.6574546e+3, 1.8848129e+2, -803066.1, -954435.7, 81567.74, -0.17366089, -0.013065197, -767478.75, 325414.34, 0.000000014947995, 10.002255, 9.999883 
2.6571497e+3, 1.9847734e+2, -909790.75, -1298911.3, -3298.4358, -0.0029242844, 0.06260887, -909762.75, 85171.64, 0.0, 10.002141, 9.997052 
2.6568356e+3, 2.0847046e+2, -800320.6, -1180229.6, -260779.7, -0.049997456, 0.15072556, -667647.25, 229358.48, 0.0, 10.00236, 9.996914 
2.656519e+3, 2.1846268e+2, -1039172.94, -1336490.6, -218627.02, -0.15512933, 0.08067762, -923451.0, -124365.766, 0.0, 10.000282, 9.996309 
2.656209e+3, 2.2845706e+2, -657799.1, -624169.3, -3338.8203, -0.18182893, 0.08708476, -623841.0, 77294.5, 0.0, 10.000335, 10.000365 
2.6559e+3, 2.3845199e+2, -920507.8, -985957.94, 29258.686, -0.15220256, -0.022203248, -909335.25, -306155.4, 0.0, 9.998877, 9.998082 
2.655593e+3, 2.4844715e+2, -811934.6, -784413.6, -113779.82, 0.15820234, 0.123640664, -683565.25, -178332.73, 0.0, 9.998661, 9.998791 
2.655285e+3, 2.5844237e+2, -1027056.2, -922604.44, -208275.4, 0.45104328, 0.17269292, -760106.8, -352820.75, 0.0, 9.99672, 9.998223 
2.6549733e+3, 2.6843837e+2, -484889.1, -147923.4, -147333.77, 0.19112265, 0.15115479, -92590.016, 216732.19, 0.0, 9.998038, 10.002031 
2.6546606e+3, 2.7843434e+2, -451609.44, -336383.28, -85176.05, -0.1366093, -0.029495161, -291165.3, -79809.18, 0.0, 9.998476, 10.000015 
2.6543504e+3, 2.8843135e+2, -327974.75, -81468.375, -149721.75, -0.090398185, 0.067428894, -10793.868, 102590.266, 0.0, 9.998194, 10.001083 
2.6540393e+3, 2.984289e+2, -683592.06, -440291.84, -58358.77, -0.1258055, 0.14084363, -427017.9, -411609.53, 0.0, 9.995934, 9.999191 
2.653736e+3, 3.084234e+2, -462805.5, -135026.67, 71622.336, 0.20062138, 0.03388604, -120060.01, -120060.01, 0.0, 9.996501, 10.000578 
2.6534253e+3, 3.1842282e+2, -440041.06, -23889.205, 71869.29, -0.29447684, 0.31954172, -11827.026, -11827.026, 0.0, 9.995922, 10.001716 
2.669315e+3, 1.2882595e+2, -1295121.1, -1630552.4, 7426.722, -0.2954119, 0.22366668, -1294956.8, 382567.13, 0.062782116, 10.003513, 9.998705 
2.6690057e+3, 1.3881978e+2, -1624884.8, -1856938.5, 1551.6821, -0.012868555, 0.13323629, -1624874.4, -45290.426, 0.039146993, 10.000762, 9.997993 
2.6686943e+3, 1.488151e+2, -1122711.9, -1152079.8, 10806.395, 0.06294659, 0.13139987, -1119164.1, 362460.56, 0.018543638, 10.002097, 10.001374 
2.668383e+3, 1.5881033e+2, -926267.1, -1347898.0, 67881.445, 0.117881514, 0.007108017, -915607.9, 468058.0, 0.005710664, 10.003937, 9.998585 
2.6680723e+3, 1.6880399e+2, -823676.1, -1340780.8, 113481.914, 0.04631116, 0.0718735, -799867.94, 485863.53, 0.0008890518, 10.004511, 9.997535 
2.667761e+3, 1.787974e+2, -817237.06, -1341924.6, 102478.914, -0.11028993, 0.095107116, -797931.75, 389869.4, 0.000037964888, 10.0039215, 9.997259 
2.667453e+3, 1.887922e+2, -830356.75, -972013.9, 118110.914, -0.12726958, 0.14712235, -763465.06, 326388.25, 0.0000000057994387, 10.001969, 9.999957 
2.6671454e+3, 1.9878735e+2, -1230883.4, -1361405.9, -9125.267, -0.09242317, 0.13802236, -1230248.5, -238347.11, 0.0, 9.999382, 9.9979925 
2.6668325e+3, 2.0878103e+2, -925338.4, -1140002.5, -123763.1, -0.05756868, 0.19461006, -868848.94, 25115.79, 0.0, 10.001015, 9.997887 
2.6665178e+3, 2.1877398e+2, -520900.78, -988331.8, 2507.135, -0.059016343, 0.15310614, -520887.34, 275148.25, 0.0, 10.003239, 9.997332 
2.6662067e+3, 2.2876765e+2, -412955.9, -560786.9, 72872.18, -0.0765584, 0.100288846, -383074.22, 315017.66, 0.0, 10.002126, 10.000009 
2.6658964e+3, 2.3876172e+2, -690323.44, -862239.44, -22157.625, -0.064197935, -0.025888374, -687513.5, -87370.18, 0.0, 10.00024, 9.998313 
2.665588e+3, 2.4875614e+2, -676999.1, -746845.1, -14337.377, 0.21284808, 0.049529016, -674170.6, -171968.11, 0.0, 9.99964, 9.998585 
2.665279e+3, 2.5875083e+2, -623366.44, -681844.56, 119176.836, 0.48633534, 0.10301491, -529894.3, -125632.2, 0.0, 9.999173, 9.998704 
2.664967e+3, 2.687478e+2, -339621.28, -70902.734, 155438.05, 0.15537092, 0.18121882, 196.98752, 306488.2, 0.0, 9.998856, 10.002243 
2.664654e+3, 2.78745e+2, -428489.53, -266103.28, 35518.05, -0.23454462, 0.1396829, -258674.44, -50358.63, 0.0, 9.998241, 10.000656 
2.664343e+3, 2.887408e+2, -404016.38, -164463.92, -100823.91, -0.15120767, 0.12667464, -127677.69, -17320.855, 0.0, 9.99775, 10.000821 
2.6640323e+3, 2.9873675e+2, -541724.25, -339115.78, -24512.176, -0.029323973, 0.0971298, -336192.4, -323794.88, 0.0, 9.996612, 9.999623 
2.6637274e+3, 3.087345e+2, -409466.34, -62135.688, 131068.81, 0.17022766, 0.27216262, -18226.475, -18226.475, 0.0, 9.9966135, 10.00106 
2.6634187e+3, 3.1873226e+2, -415466.13, 189729.34, -46115.14, -0.0987005, 0.36935994, 193223.1, 193223.1, 0.0, 9.995055, 10.003653 
2.6793137e+3, 1.2913771e+2, -1545789.8, -1872397.8, -58348.863, -0.327882, 0.16025762, -1535678.8, 138786.11, 0.05267765, 10.002233, 9.997632 
2.6790065e+3, 1.391298e+2, -1341497.6, -1767119.8, -25734.87, 0.40673643, -0.036633193, -1339947.3, 236597.44, 0.03242507, 10.003085, 9.997434 
2.6786926e+3, 1.4912565e+2, -944726.75, -1020659.8, 77823.78, 0.13322431, -0.020683989, -896102.3, 582476.56, 0.015032841, 10.0031395, 10.00172 
2.6783788e+3, 1.5912196e+2, -1188916.0, -1535448.1, 48632.723, -0.22044672, -0.07970279, -1182220.1, 198387.97, 0.0044764117, 10.00246, 9.997973 
2.6780707e+3, 1.6911687e+2, -1096323.4, -1548102.0, 78387.2, -0.057841923, 0.18027739, -1083109.0, 199557.69, 0.00066900725, 10.003102, 9.996742 
2.6777634e+3, 1.7911154e+2, -1140984.1, -1605981.9, 49077.832, 0.1768978, 0.40371552, -1135860.8, 48869.7, 0.000027210404, 10.002285, 9.996223 
2.677452e+3, 1.891055e+2, -962827.6, -1111084.0, 40267.965, 0.046109587, 0.43976647, -952596.44, 134196.5, 0.000000001728097, 10.001497, 9.9991865 
2.6771402e+3, 1.9909944e+2, -1326729.1, -1420424.3, -15039.704, -0.09917517, 0.3679371, -1324374.1, -335520.94, 0.0, 9.998922, 9.997781 
2.676829e+3, 2.0909406e+2, -795415.8, -842820.3, -21012.352, -0.000288434, 0.36713564, -787442.94, 103459.57, 0.0, 10.000957, 9.999919 
2.6765183e+3, 2.1908854e+2, -767162.8, -1117174.5, 14239.446, 0.13321276, 0.3057413, -766584.44, 26368.176, 0.0, 10.001694, 9.9971895 
2.6762056e+3, 2.2908087e+2, -688306.7, -942980.7, -11514.208, 0.09871029, 0.2492534, -687787.1, 7239.529, 0.0, 10.001358, 9.997719 
2.6758933e+3, 2.3907313e+2, -1031461.2, -1151889.8, -67274.055, 0.057996295, 0.12511773, -1001389.44, -404287.94, 0.0, 9.998568, 9.997114 
2.675582e+3, 2.490677e+2, -616140.94, -424253.28, -20638.924, 0.109261185, 0.06077292, -422058.53, 77092.2, 0.0, 9.998959, 10.001023 
2.67527e+3, 2.5906318e+2, -826360.9, -748836.56, 110855.4, 0.14728081, -0.040262185, -670161.8, -268969.9, 0.0, 9.997789, 9.998874 
2.6749596e+3, 2.690615e+2, -567878.06, -390853.44, 127185.414, -0.0020568524, 0.28292033, -324412.34, -21198.473, 0.0, 9.998277, 10.000279 
2.6746485e+3, 2.7905965e+2, -740050.56, -644447.44, 4841.007, -0.15817875, 0.520185, -644202.94, -438964.97, 0.0, 9.997169, 9.998573 
2.6743364e+3, 2.890531e+2, -535756.1, -299274.9, -146232.5, -0.12210327, 0.36548135, -229460.23, -122155.875, 0.0, 9.997225, 10.000108 
2.6740238e+3, 2.990464e+2, -716398.4, -493793.9, -42328.03, -0.13152091, 0.1179463, -486016.97, -476645.97, 0.0, 9.995821, 9.998931 
2.6737177e+3, 3.0904466e+2, -455573.06, -71804.4, 118651.33, -0.027254997, 0.34047532, -38083.47, -38083.47, 0.0, 9.996331, 10.001091 
2.673411e+3, 3.190391e+2, -579496.6, 178275.52, -185611.08, 0.007246736, 0.07868493, 221297.17, 221297.17, 0.0, 9.993811, 10.004141 
2.689315e+3, 1.2945032e+2, -1567714.0, -1710419.9, 55560.22, -0.049674165, 0.22076447, -1548633.6, 122769.35, 0.043619167, 10.001315, 9.999147 
2.689004e+3, 1.3944261e+2, -809491.06, -1500283.5, 84303.86, -0.071273506, -0.07518387, -799351.5, 774126.75, 0.02648621, 10.006736, 9.99753 
2.6886898e+3, 1.4943886e+2, -888742.1, -1287892.1, -44854.02, -0.17899778, 0.16556704, -883763.8, 591753.06, 0.012009438, 10.004718, 9.999139 
2.6883766e+3, 1.5943521e+2, -1422087.9, -1723919.0, -101452.36, -0.24868251, 0.33649904, -1391157.1, -13603.093, 0.003455713, 10.001035, 9.997399 
2.688068e+3, 1.6942786e+2, -1279976.1, -1501366.5, 29428.508, -0.088674426, 0.27566206, -1276131.1, 3496.5388, 0.00049606664, 10.001091, 9.998102 
2.68776e+3, 1.7942055e+2, -1164327.9, -1469982.0, 84586.85, 0.051807087, 0.17883989, -1142480.8, 39220.707, 0.00001910138, 10.001324, 9.997669 
2.6874495e+3, 1.8941595e+2, -756736.25, -926310.56, 114383.055, 0.05368644, 0.25814566, -699142.44, 384604.63, 0.0000000002885943, 10.002389, 10.000093 
2.6871383e+3, 1.9941182e+2, -693491.8, -1057472.9, 132101.52, -0.0019746856, 0.328329, -650601.56, 335185.9, 0.0, 10.002877, 9.998395 
2.686827e+3, 2.0940608e+2, -537670.75, -792465.0, 62984.645, -0.00037802145, 0.3310853, -522951.38, 364892.53, 0.0, 10.002961, 9.999331 
2.6865152e+3, 2.1940012e+2, -605668.06, -1005824.0, -50596.664, 0.022844406, 0.28436968, -599369.6, 190532.48, 0.0, 10.00254, 9.997559 
2.6862022e+3, 2.2939344e+2, -733593.7, -940845.44, -62465.21, 0.09640206, 0.29960734, -716222.75, -24254.887, 0.0, 10.000822, 9.998067 
2.685889e+3, 2.3938675e+2, -885333.25, -969565.4, 51931.777, 0.15748067, 0.27449, -860586.2, -266553.2, 0.0, 9.998936, 9.998235 
2.6855767e+3, 2.4938071e+2, -377047.3, -304651.0, 81747.51, 0.08723651, 0.11341288, -251445.8, 244638.94, 0.0, 10.000417, 10.001247 
2.6852646e+3, 2.5937524e+2, -151638.8, -384014.84, 33488.547, -0.011825021, -0.0708952, -146908.9, 251222.16, 0.0, 10.002065, 9.999377 
2.6849532e+3, 2.693734e+2, -314277.72, -332989.75, 45043.492, -0.09942493, 0.25320002, -277628.84, 22526.635, 0.0, 10.0001955, 9.999809 
2.6846418e+3, 2.7937165e+2, -676180.94, -619759.94, 39904.2, -0.12957315, 0.57285124, -599101.5, -396920.5, 0.0, 9.997519, 9.998582 
2.68433e+3, 2.8936425e+2, -419551.16, -273293.13, -13618.384, -0.063907996, 0.35746148, -272035.9, -167780.1, 0.0, 9.998047, 9.9999075 
2.6840177e+3, 2.993568e+2, -326682.88, -308069.78, 95589.82, -0.036148276, 0.081762396, -221334.53, -215004.47, 0.0, 9.99839, 9.998967 
2.6837096e+3, 3.0935577e+2, -278990.75, -27088.916, 194753.05, -0.087483, 0.40572226, 78892.02, 78892.02, 0.0, 9.99762, 10.000803 
2.6834032e+3, 3.1934807e+2, -180553.22, 373432.25, -284275.56, 0.14926264, -0.02963228, 493349.53, 493349.53, 0.0, 9.996422, 10.004226 
2.6993164e+3, 1.2976375e+2, -1162261.0, -1347005.4, 256165.11, 0.31303927, 0.32226476, -982322.4, 686011.44, 0.03555016, 10.003507, 10.000634 
2.6990002e+3, 1.3975663e+2, -1386085.3, -1880433.3, 66627.54, -0.5755553, -0.023638088, -1377262.8, 193138.08, 0.021269776, 10.003094, 9.996677 
2.6986867e+3, 1.4975291e+2, -1252810.1, -1787224.6, -133868.3, -0.42629588, 0.44001335, -1221152.1, 251296.67, 0.009415533, 10.003622, 9.99622 
2.6983753e+3, 1.5974867e+2, -1330103.0, -1797408.8, -69046.125, -0.04730161, 0.8137833, -1320114.6, 54386.65, 0.0026134893, 10.00227, 9.996286 
2.6980647e+3, 1.6973822e+2, -1040462.0, -1163830.1, 81387.96, -0.07443947, 0.32883772, -1000023.94, 276571.22, 0.0003600524, 10.001895, 9.99996 
2.6977545e+3, 1.7972799e+2, -1230874.5, -1343139.9, 98399.234, -0.1398122, -0.23968254, -1173723.1, 4961.583, 0.000012952271, 10.000324, 9.99898 
2.697447e+3, 1.8972588e+2, -771422.0, -754850.3, 126250.78, 0.061355386, -0.075190105, -636613.75, 444087.1, 0.000000000007316074, 10.001675, 10.001542 
2.6971388e+3, 1.9972461e+2, -965426.6, -1263591.4, 109535.67, 0.2339876, 0.1799202, -929512.75, 53198.76, 0.0, 10.001434, 9.997675 
2.6968247e+3, 2.0971763e+2, -810754.2, -1147462.6, 36067.098, -0.015878372, 0.20722361, -806934.1, 77853.36, 0.0, 10.0021305, 9.997258 
2.6965103e+3, 2.197102e+2, -924856.94, -1247605.3, -83019.27, -0.24731244, 0.18065286, -904754.3, -117886.15, 0.0, 10.000887, 9.996658 
2.6961967e+3, 2.2970626e+2, -698337.7, -691193.44, -139045.67, -0.008709356, 0.32860494, -555674.0, 133232.17, 0.0, 10.000267, 9.99993 
2.6958838e+3, 2.3970248e+2, -1089100.5, -1104707.6, 48146.28, 0.24224606, 0.44072193, -1048129.5, -457189.13, 0.0, 9.99784, 9.997803 
2.6955727e+3, 2.4969491e+2, -568340.6, -581649.9, 148413.4, 0.11558003, 0.24237679, -426432.72, 66575.23, 0.0, 10.000006, 9.999484 
2.6952618e+3, 2.596874e+2, -491658.16, -674843.4, 21659.805, -0.06432643, -0.005828937, -489131.94, -94056.7, 0.0, 10.000445, 9.998118 
2.6949474e+3, 2.6968375e+2, -378235.25, -265096.75, -59401.965, -0.19733347, 0.09920672, -239637.52, 57474.89, 0.0, 9.999471, 10.000548 
2.6946336e+3, 2.7968067e+2, -826792.56, -652510.2, 17843.299, -0.2944078, 0.1986917, -650702.06, -451556.9, 0.0, 9.996474, 9.998831 
2.694324e+3, 2.8967488e+2, -445752.34, -213857.67, 40683.902, -0.01787322, 0.08846621, -206927.17, -105724.44, 0.0, 9.997727, 10.000406 
2.694014e+3, 2.996693e+2, -493309.88, -478449.44, 131828.89, 0.14875709, -0.015871145, -353841.53, -350582.97, 0.0, 9.99777, 9.998081 
2.6937017e+3, 3.096689e+2, -416182.38, -240642.14, 166515.77, -0.22678661, 0.47661167, -140180.77, -140180.77, 0.0, 9.997409, 9.999414 
2.6933932e+3, 3.196614e+2, -402672.4, -55552.15, -103555.11, -0.15711798, 0.22218737, -27006.414, -27006.414, 0.0, 9.996447, 10.001258 
2.7093175e+3, 1.3007548e+2, -931154.8, -1406957.3, -50142.82, 0.1435761, 0.19001709, -925927.9, 739352.0, 0.028415078, 10.005827, 9.999111 
2.7089974e+3, 1.400713e+2, -1993754.8, -2115919.3, -23809.76, -0.49306858, 0.26283342, -1989278.3, -421952.84, 0.016713178, 9.998585, 9.997253 
2.7086857e+3, 1.5006591e+2, -1212569.9, -1501741.8, 109195.266, -0.37090164, 0.35911497, -1175968.9, 293410.22, 0.0071980846, 10.002661, 9.998688 
2.708376e+3, 1.6005985e+2, -631096.06, -1388246.9, 210608.73, -0.124783725, 0.3858559, -576456.3, 794983.4, 0.0019202423, 10.006684, 9.996995 
2.7080637e+3, 1.7005163e+2, -783825.8, -1225397.9, 159487.67, -0.08836789, 0.2520115, -732246.7, 541272.44, 0.00025324232, 10.0044365, 9.998347 
2.7077517e+3, 1.800436e+2, -1183120.1, -1377922.3, 106249.8, -0.12146266, 0.07210273, -1136382.5, 39212.598, 0.000008369746, 10.0008135, 9.998517 
2.7074432e+3, 1.9003959e+2, -979116.4, -900874.44, 100098.734, 0.040274106, 0.08812954, -832523.5, 245106.23, 0.0, 10.000422, 10.001152 
2.7071348e+3, 2.0003632e+2, -1087314.1, -1273817.8, 23408.916, 0.15592988, 0.17254868, -1084420.9, -104761.86, 0.0, 10.000272, 9.998191 
2.7068207e+3, 2.1002994e+2, -910546.0, -1162512.4, 35936.746, -0.10349743, 0.22134428, -905520.75, -23790.771, 0.0, 10.00114, 9.99772 
2.7065063e+3, 2.2002344e+2, -705322.0, -1020504.8, -10354.369, -0.37319875, 0.25268197, -704982.25, 78819.81, 0.0, 10.001714, 9.99786 
2.7061927e+3, 2.3001915e+2, -331516.4, -484443.94, -125992.96, -0.11729774, 0.32862836, -260599.94, 425240.97, 0.0, 10.002554, 10.000322 
2.7058795e+3, 2.4001497e+2, -286687.84, -658509.25, -13049.701, 0.1677436, 0.38565862, -286230.38, 301646.5, 0.0, 10.002951, 9.998425 
2.705569e+3, 2.5000766e+2, -485168.84, -599484.06, 131051.77, 0.12290107, 0.2374969, -399352.47, 90591.67, 0.0, 10.000738, 9.999053 
2.7052575e+3, 2.6000038e+2, -749188.9, -725500.94, 68248.484, 0.015362016, 0.06506168, -668076.3, -276065.0, 0.0, 9.998269, 9.998813 
2.7049422e+3, 2.699959e+2, -393356.84, -232885.14, -33395.734, -0.20907165, 0.04402384, -226212.61, 67840.18, 0.0, 9.999084, 10.000996 
2.704627e+3, 2.7999172e+2, -271452.66, -323066.06, 18710.78, -0.33009878, 0.01054732, -265383.34, -69290.59, 0.0, 9.999875, 9.999476 
2.7043188e+3, 2.899869e+2, -17509.145, -22830.117, 26130.623, 0.02962408, -0.0006595341, 6096.0825, 104236.65, 0.0, 10.000683, 10.000339 
2.70401e+3, 2.9998255e+2, -47102.566, -253336.08, 41137.086, 0.27684492, 0.038736776, -39199.84, -39014.66, 0.0, 10.000664, 9.99827 
2.703695e+3, 3.0998126e+2, -121187.16, -150520.77, 91786.66, -0.24619754, 0.47463742, -42902.867, -42902.867, 0.0, 9.999566, 9.999049 
2.703387e+3, 3.1997418e+2, -328302.88, -166340.31, 36426.348, -0.017290985, 0.35605055, -158524.94, -158524.94, 0.0, 9.997491, 10.000015 
2.7193174e+3, 1.3038737e+2, -1499291.1, -1877892.0, -328919.9, 0.113558486, 0.080674574, -1309088.0, 353137.66, 0.02219124, 10.002774, 9.997281 
2.7189952e+3, 1.403858e+2, -1629295.1, -1881911.8, -71850.305, -0.12351161, 0.5341942, -1610289.1, -46036.844, 0.01278431, 10.000866, 9.9977665 
2.718686e+3, 1.5037867e+2, -900117.0, -952750.7, 241902.78, -0.18694748, 0.16070795, -683103.75, 783204.3, 0.00532732, 10.003195, 10.002186 
2.7183777e+3, 1.6037111e+2, -963010.06, -1544604.3, 122562.85, -0.12806332, -0.22547263, -938236.9, 430132.8, 0.0013580795, 10.004514, 9.996949 
2.718064e+3, 1.7036673e+2, -1088460.0, -1662334.6, -29042.262, -0.010445028, 0.1983258, -1086994.0, 183429.56, 0.00016970174, 10.003692, 9.995669 
2.71775e+3, 1.8036231e+2, -1353109.0, -1714206.4, 42607.76, 0.07400357, 0.63207644, -1348149.6, -175671.78, 0.0000049540654, 10.000835, 9.996196 
2.7174392e+3, 1.9035462e+2, -1001569.2, -1051643.0, 100522.84, 0.03477748, 0.40312818, -923012.25, 151538.33, 0.0, 10.000909, 9.999842 
2.717129e+3, 2.0034727e+2, -1229016.8, -1378179.5, 50075.12, 0.0061399885, 0.18519428, -1213765.5, -237146.1, 0.0, 9.999609, 9.997745 
2.7168164e+3, 2.1034318e+2, -885807.8, -935485.56, 65588.55, -0.1736067, 0.3216104, -840512.4, 38153.344, 0.0, 10.000592, 9.999439 
2.7165034e+3, 2.2033903e+2, -979678.7, -1162282.6, 8513.478, -0.324862, 0.45406267, -979282.6, -198570.67, 0.0, 10.000019, 9.997686 
2.7161893e+3, 2.3033203e+2, -500650.8, -642760.4, -85239.234, -0.19300488, 0.29786256, -460734.8, 222039.1, 0.0, 10.001828, 9.999537 
2.7158758e+3, 2.4032527e+2, -620098.44, -889470.75, -25067.605, -0.033084456, 0.16685669, -617785.5, -32952.445, 0.0, 10.00115, 9.997656 
2.715564e+3, 2.503197e+2, -574627.56, -572253.75, 37007.023, 0.08822893, 0.14044364, -536414.6, -49528.676, 0.0, 9.999962, 9.999534 
2.7152523e+3, 2.6031452e+2, -983018.4, -884300.7, 40254.117, 0.12750596, 0.14015584, -869967.4, -481031.97, 0.0, 9.996967, 9.998361 
2.714937e+3, 2.7031016e+2, -482666.3, -273590.16, 14771.344, -0.16755958, 0.12252014, -272551.7, 18422.7, 0.0, 9.998581, 10.000924 
2.714622e+3, 2.803057e+2, -500353.6, -578665.8, 49491.78, -0.39403418, 0.10385961, -476401.56, -283386.28, 0.0, 9.999035, 9.998123 
2.714314e+3, 2.903007e+2, -139673.38, -227682.94, 30089.41, -0.10978233, 0.17453992, -130369.68, -35301.383, 0.0, 10.000522, 9.998974 
2.7140042e+3, 3.00296e+2, -168820.7, -355171.38, -1496.0032, 0.018091813, 0.28053415, -168808.69, -168808.69, 0.0, 10.000121, 9.997806 
2.7136925e+3, 3.1029123e+2, -66238.2, 19593.404, 12965.285, -0.051732924, 0.26006168, 21509.117, 21509.117, 0.0, 9.999412, 10.000224 
2.7133808e+3, 3.2028496e+2, -396546.5, -167425.06, 55775.57, -0.08947378, 0.110331856, -154568.86, -154568.86, 0.0, 9.997039, 10.00016 
2.7293146e+3, 1.3070256e+2, -1863124.1, -1975311.5, -294158.03, 0.103520066, 0.462988, -1619759.3, 39385.125, 0.016854309, 9.999898, 9.997972 
2.7289948e+3, 1.406957e+2, -953586.06, -1522746.5, -19902.604, -0.23308386, 0.33758697, -952890.94, 608324.5, 0.009467287, 10.005363, 9.998075 
2.7286854e+3, 1.5069012e+2, -833662.2, -972580.06, 103555.35, -0.17953889, 0.14922969, -778428.5, 684829.0, 0.0037924994, 10.003885, 10.001698 
2.728377e+3, 1.6068436e+2, -1328285.5, -1643346.6, -91849.71, -0.076057754, -0.04099464, -1303464.1, 61838.51, 0.0009170214, 10.001611, 9.997663 
2.728062e+3, 1.7067887e+2, -1066660.1, -1515317.9, -108180.95, -0.0828267, 0.15735796, -1041937.6, 225425.19, 0.0001065257, 10.00317, 9.996957 
2.727747e+3, 1.8067364e+2, -788643.7, -1350904.3, 59858.523, -0.11773545, 0.40176103, -782341.75, 387079.6, 0.0000025959862, 10.0042095, 9.997081 
2.7274364e+3, 1.9066647e+2, -633603.7, -932352.4, 142028.3, -0.053436916, 0.26119962, -576859.8, 494630.16, 0.0, 10.003563, 9.999469 
2.727126e+3, 2.0065977e+2, -793992.8, -1088974.1, 116026.88, -0.026227957, 0.13973367, -753824.9, 219729.55, 0.0, 10.002136, 9.998532 
2.726814e+3, 2.1065634e+2, -700494.3, -798932.44, 111140.84, -0.12577079, 0.30566952, -628161.75, 247433.1, 0.0, 10.0015545, 9.999975 
2.726501e+3, 2.206529e+2, -735457.56, -922988.25, 20094.12, -0.22032256, 0.4669188, -733328.6, 44305.156, 0.0, 10.001027, 9.9988575 
2.7261865e+3, 2.3064591e+2, -616935.1, -649818.06, -15896.022, -0.13171276, 0.25434354, -610507.3, 69187.13, 0.0, 10.000696, 10.000064 
2.7258724e+3, 2.4063899e+2, -678237.56, -853981.9, 72455.055, -0.029594537, 0.07868015, -652218.3, -70463.766, 0.0, 10.000335, 9.998308 
2.7255592e+3, 2.5063354e+2, -410297.2, -543044.5, 86479.47, -0.020729529, 0.10739462, -367656.34, 116152.4, 0.0, 10.001181, 9.999221 
2.7252463e+3, 2.606286e+2, -241165.8, -499622.44, 60657.79, -0.004296237, 0.17343028, -227637.95, 158219.92, 0.0, 10.001793, 9.998702 
2.724933e+3, 2.7062407e+2, -61115.49, -130088.97, 28081.033, -0.09206878, 0.18484703, -51128.87, 236769.03, 0.0, 10.001634, 10.000495 
2.72462e+3, 2.8061926e+2, -225550.2, -460607.5, 38775.777, -0.15063758, 0.18520124, -219318.83, -29376.943, 0.0, 10.000846, 9.99809 
2.724309e+3, 2.9061288e+2, -252326.11, -362343.66, 43438.31, -0.17576142, 0.18034089, -237243.14, -145235.0, 0.0, 9.9999485, 9.998377 
2.7239972e+3, 3.0060732e+2, -302888.06, -383772.72, 44780.316, -0.20101121, 0.24855901, -282990.88, -282990.88, 0.0, 9.9989195, 9.998203 
2.72369e+3, 3.106025e+2, 65295.234, 89989.18, -27021.99, 0.20360361, 0.20200278, 107351.39, 107351.39, 0.0, 10.000116, 10.000467 
2.7233744e+3, 3.205969e+2, 127095.68, 129524.43, -121096.23, -0.11694548, 0.12134637, 249412.38, 249412.38, 0.0, 10.000196, 10.000777 
2.7393124e+3, 1.3101697e+2, -1637256.3, -1718246.4, -14545.066, 0.27875367, 0.81229186, -1634723.3, 21345.682, 0.012358647, 10.000898, 9.999188 
2.738995e+3, 1.4100464e+2, -1273532.6, -1742776.6, -7576.4365, -0.2779427, 0.07121828, -1273410.3, 284774.78, 0.0067449408, 10.00349, 9.997411 
2.7386847e+3, 1.5100153e+2, -1087563.8, -1271416.4, -25062.021, -0.15237986, 0.2288437, -1084208.6, 376001.16, 0.0025850076, 10.002884, 10.000086 
2.7383754e+3, 1.6099812e+2, -1406385.0, -1626586.8, -126412.76, 0.07534915, 0.37117258, -1348848.1, 13389.065, 0.0005889778, 10.0008955, 9.998099 
2.7380598e+3, 1.7098998e+2, -997557.5, -1208882.0, -74488.45, -0.14431326, 0.07489354, -973940.8, 290373.0, 0.00006228534, 10.002492, 9.999374 
2.7377447e+3, 1.8098238e+2, -981030.4, -1376817.3, 34144.637, -0.3209538, -0.10183015, -978106.3, 188279.9, 0.0000011486238, 10.002712, 9.997598 
2.7374345e+3, 1.909777e+2, -788666.1, -1000844.5, 72849.55, -0.10259938, -0.03559995, -766062.0, 302369.03, 0.0, 10.002605, 9.999373 
2.7371246e+3, 2.0097356e+2, -1027222.2, -1258158.3, 72706.234, 0.09465695, 0.115119606, -1006238.5, -35766.195, 0.0, 10.000922, 9.997919 
2.7368116e+3, 2.109696e+2, -819940.06, -887598.3, 72756.49, 0.0045411214, 0.22863363, -773532.56, 98986.75, 0.0, 10.000903, 9.999647 
2.7364984e+3, 2.2096564e+2, -995670.2, -1045318.56, -11637.756, -0.07769562, 0.35903063, -993077.6, -218513.64, 0.0, 9.999338, 9.998809 
2.7361837e+3, 2.3096046e+2, -655021.25, -522774.25, -64349.348, 0.030024175, 0.19661431, -496631.0, 179975.63, 0.0, 9.999936, 10.001239 
2.735869e+3, 2.4095502e+2, -958173.6, -1086339.1, 58945.508, 0.07292613, 0.110972345, -935186.44, -356533.84, 0.0, 9.998951, 9.997361 
2.735553e+3, 2.5094867e+2, -577176.06, -734726.5, 104601.25, -0.24240418, 0.11154692, -525004.94, -44287.145, 0.0, 10.000611, 9.998117 
2.735239e+3, 2.6094282e+2, -563847.56, -823723.9, 59115.49, -0.4557871, 0.19907378, -551032.2, -168254.98, 0.0, 10.000449, 9.997084 
2.7349305e+3, 2.7093777e+2, -218595.8, -310491.34, 13748.971, -0.032750748, 0.22952488, -216582.84, 68239.85, 0.0, 10.001077, 9.999475 
2.734621e+3, 2.8093198e+2, -438774.63, -655220.8, 6206.5166, 0.2543927, 0.22955054, -438596.78, -251721.13, 0.0, 9.999938, 9.997153 
2.734304e+3, 2.9092285e+2, -298352.44, -339201.4, 8899.5625, -0.19684657, -0.08821343, -296497.75, -207532.42, 0.0, 9.999572, 9.998666 
2.7339885e+3, 3.0091596e+2, -512933.94, -605404.1, 59826.793, -0.56257, -0.13825862, -483558.66, -483558.66, 0.0, 9.998127, 9.997043 
2.7336857e+3, 3.1091714e+2, -74819.1, -120876.45, 30925.598, 0.23072003, 0.51124007, -59289.867, -59289.867, 0.0, 9.999907, 9.999039 
2.7333724e+3, 3.209048e+2, 75125.84, 68431.98, -119754.805, -0.023185892, -0.15064357, 191580.48, 191580.48, 0.0, 10.000157, 10.000315 
2.749308e+3, 1.3132101e+2, -1297214.9, -1419322.5, -53808.848, -0.03226282, 0.15564239, -1276887.1, 376190.1, 0.008685479, 10.002541, 10.000542 
2.748995e+3, 1.4131685e+2, -1482158.3, -1834468.9, -7833.121, -0.13366096, 0.15229039, -1481984.3, 73132.414, 0.0045926278, 10.001912, 9.997568 
2.7486828e+3, 1.5131284e+2, -1340018.6, -1537277.6, -31192.81, -0.1103764, 0.3159588, -1335203.6, 121957.41, 0.0016782226, 10.001655, 9.998924 
2.7483714e+3, 1.6130833e+2, -1335993.6, -1498488.4, -105167.414, -0.039324295, 0.42466745, -1284345.1, 74862.54, 0.0003582281, 10.00092, 9.998967 
2.7480572e+3, 1.7130195e+2, -1054379.1, -1061740.9, -60670.348, -0.14083308, 0.16883379, -997278.1, 263985.38, 0.000033741435, 10.001345, 10.000939 
2.747743e+3, 1.8129584e+2, -1099363.8, -1308515.1, -17203.227, -0.26199806, 0.008756297, -1097958.3, 65358.836, 0.00000040337267, 10.001295, 9.998744 
2.747432e+3, 1.9129092e+2, -923432.5, -1062919.1, 9388.048, -0.114926115, 0.024001064, -922803.5, 142559.61, 0.0, 10.001566, 9.99948 
2.7471206e+3, 2.0128654e+2, -923401.8, -1175124.4, -15287.586, -0.002736619, 0.14419594, -922476.75, 44929.063, 0.0, 10.001361, 9.9983 
2.7468067e+3, 2.1128218e+2, -873027.4, -938219.7, -13892.008, -0.106684506, 0.22943678, -870190.5, -735.1034, 0.0, 10.000507, 9.999548 
2.746493e+3, 2.2127785e+2, -890544.2, -962229.75, -90216.72, -0.17174666, 0.31991532, -829310.94, -57808.12, 0.0, 9.999765, 9.999221 
2.746179e+3, 2.3127297e+2, -531065.94, -515492.13, -188760.23, -0.004468774, 0.23158917, -334358.25, 339187.06, 0.0, 10.000856, 10.000953 
2.745865e+3, 2.4126807e+2, -460569.8, -718183.25, -119940.414, 0.06809908, 0.18667741, -413374.06, 162213.69, 0.0, 10.001669, 9.998613 
2.7455497e+3, 2.5126195e+2, -374497.66, -558704.2, -403.8331, -0.25965443, 0.13486838, -374496.75, 103149.586, 0.0, 10.001556, 9.998949 
2.7452356e+3, 2.6125607e+2, -403364.3, -688489.0, 34521.375, -0.4637879, 0.1728645, -399244.16, -19541.0, 0.0, 10.001165, 9.997699 
2.744927e+3, 2.7125058e+2, -294634.56, -431342.22, -14417.455, -0.023574581, 0.2127404, -293130.6, -11374.91, 0.0, 10.000785, 9.998837 
2.7446175e+3, 2.8124413e+2, -350931.9, -570634.25, -9514.123, 0.331147, 0.1971571, -350520.7, -166703.73, 0.0, 10.000246, 9.997598 
2.7443007e+3, 2.9123393e+2, -98984.05, -215100.31, -27340.121, -0.086567536, -0.23530222, -92868.75, -6952.5093, 0.0, 10.000787, 9.998966 
2.7439848e+3, 3.0122682e+2, -127872.36, -396786.06, 63991.82, -0.44557738, -0.31023818, -113421.19, -113421.19, 0.0, 10.0005865, 9.997316 
2.7436808e+3, 3.11232e+2, -19761.047, -144217.48, 107744.63, 0.15134957, 0.7767659, 42434.438, 42434.438, 0.0, 10.000414, 9.998677 
2.7433696e+3, 3.212144e+2, -5388.813, -51419.02, -32823.668, 0.13956627, -0.33133203, 11684.586, 11684.586, 0.0, 9.999839, 9.999634 
2.759305e+3, 1.3162576e+2, -1237114.5, -1230477.8, -7584.2866, -0.17495166, -0.4737255, -1225517.6, 424559.78, 0.0058229333, 10.002386, 10.001825 
2.7589953e+3, 1.4163104e+2, -1637784.5, -1963214.6, -32085.508, 0.14739977, 0.38770148, -1634651.3, -82621.49, 0.0029696852, 10.0012, 9.996991 
2.758681e+3, 1.5162453e+2, -1419399.6, -1646171.9, 11752.737, -0.011838804, 0.3653777, -1418792.3, 35316.195, 0.0010279784, 10.001571, 9.998145 
2.758367e+3, 1.6161813e+2, -1373681.1, -1518155.3, -6412.3306, -0.087644845, 0.34906727, -1373397.0, -17215.928, 0.0002033788, 10.000715, 9.998936 
2.7580544e+3, 1.7161489e+2, -1011759.1, -949472.9, -9505.94, -0.05182314, 0.32640228, -948054.44, 310150.84, 0.000016580547, 10.00125, 10.001752 
2.7577418e+3, 1.816113e+2, -1206603.0, -1346731.4, 1836.9978, -0.030315902, 0.36027402, -1206578.9, -46346.21, 0.00000009587778, 10.00062, 9.998788 
2.7574292e+3, 1.9160484e+2, -984164.1, -1069755.6, 2544.793, -0.06024066, 0.19454508, -984088.5, 78203.9, 0.0, 10.001156, 9.999601 
2.757116e+3, 2.01599e+2, -1108495.1, -1313733.4, -23751.428, -0.116771504, 0.18314575, -1105782.4, -141434.1, 0.0, 10.000411, 9.997796 
2.7568007e+3, 2.1159442e+2, -935542.7, -965993.7, -46286.906, -0.27505457, 0.23535062, -902041.44, -35644.273, 0.0, 10.000181, 9.999471 
2.756486e+3, 2.2158988e+2, -1156468.1, -1218661.4, -63453.355, -0.33477455, 0.34976566, -1116901.3, -348455.84, 0.0, 9.998713, 9.997906 
2.7561736e+3, 2.3158433e+2, -709930.44, -744203.4, -128562.586, -0.1604776, 0.29863325, -597367.3, 73132.15, 0.0, 10.000403, 9.999527 
2.755861e+3, 2.4157919e+2, -656273.6, -774979.44, -101099.664, -0.03997112, 0.3269395, -598392.1, -25845.56, 0.0, 10.000354, 9.998801 
2.7555478e+3, 2.515739e+2, -344724.03, -313283.47, -12360.417, -0.10666396, 0.14337766, -309006.06, 165582.83, 0.0, 10.0008545, 10.0009165 
2.7552348e+3, 2.615684e+2, -630914.75, -824735.56, 17927.207, -0.19228242, 0.0871248, -629270.56, -252634.69, 0.0, 9.999848, 9.997384 
2.7549216e+3, 2.715624e+2, -453614.4, -563582.6, -40249.543, -0.16800451, 0.11423658, -440456.9, -161759.17, 0.0, 10.000101, 9.99821 
2.7546093e+3, 2.8155577e+2, -565427.4, -744641.94, -24728.227, -0.06299699, 0.14540815, -562077.94, -381311.94, 0.0, 9.999208, 9.996886 
2.7542987e+3, 2.9154652e+2, -170594.14, -266372.2, -15198.507, 0.116125435, -0.19539046, -168240.23, -85381.37, 0.0, 10.000413, 9.998782 
2.7539867e+3, 3.0154064e+2, -189294.36, -380984.22, 32272.643, 0.07829051, -0.14224438, -184006.84, -184006.84, 0.0, 10.000082, 9.99765 
2.7536735e+3, 3.1154618e+2, -18756.668, -18131.05, 83580.09, -0.14642346, 0.8611146, 65136.82, 65136.82, 0.0, 9.999954, 9.999746 
2.753363e+3, 3.215305e+2, -300705.8, -458575.4, 145948.14, -0.13811326, -0.062401008, -213714.23, -213714.23, 0.0, 9.999146, 9.99711 
2.769305e+3, 1.3194206e+2, -1321849.6, -1409033.6, -106071.75, -0.07982215, -0.17073576, -1250761.8, 396223.88, 0.0036893368, 10.002379, 10.00058 
2.768989e+3, 1.4194511e+2, -1600645.3, -1791105.3, -8190.787, -0.19375588, 0.52377623, -1600293.6, -51332.73, 0.001804221, 10.000795, 9.998344 
2.7686772e+3, 1.5193889e+2, -1249533.0, -1330440.0, 158953.38, -0.09687984, 0.33431196, -1125966.1, 325060.22, 0.00058557204, 10.00173, 10.000225 
2.7683657e+3, 1.6193274e+2, -1177954.0, -1451222.6, 156308.9, -0.008415144, 0.23154537, -1106979.5, 246110.73, 0.00010501939, 10.002095, 9.998742 
2.768052e+3, 1.7192915e+2, -1021111.7, -1152171.5, 86009.41, -0.026035301, 0.34233913, -978513.0, 276610.75, 0.0000068884756, 10.001913, 10.000115 
2.7677387e+3, 1.8192522e+2, -1098375.8, -1289099.6, 25023.895, -0.06916708, 0.4667038, -1095147.1, 62012.51, 0.00000000965895, 10.001253, 9.998901 
2.7674255e+3, 1.9191824e+2, -938701.94, -1017622.6, 61650.297, -0.11715297, 0.23926292, -904964.75, 154259.34, 0.0, 10.001251, 9.99997 
2.767112e+3, 2.0191194e+2, -922110.25, -1106031.5, 29041.348, -0.18385808, 0.135123, -917633.56, 43649.11, 0.0, 10.001082, 9.998921 
2.7667975e+3, 2.1190742e+2, -672907.9, -789660.44, 42425.08, -0.21909697, 0.15804292, -659119.94, 204206.1, 0.0, 10.00167, 10.000034 
2.7664834e+3, 2.2190261e+2, -661712.44, -997600.0, 43784.64, -0.24860284, 0.23937981, -656098.75, 109274.7, 0.0, 10.002055, 9.997841 
2.7661696e+3, 2.3189574e+2, -500359.38, -805374.94, 6931.6797, -0.22427529, 0.19981858, -500201.94, 167241.94, 0.0, 10.002378, 9.99824 
2.7658567e+3, 2.4188955e+2, -348276.06, -598272.94, -16446.434, -0.1686363, 0.21588413, -347198.75, 222306.06, 0.0, 10.002192, 9.999174 
2.765545e+3, 2.5188485e+2, -298427.47, -280284.78, -63708.758, -0.053551648, 0.11248878, -225004.78, 246537.3, 0.0, 10.00102, 10.001117 
2.7652323e+3, 2.6188007e+2, -496222.88, -601956.3, -96379.734, 0.0061351284, 0.07502438, -439162.63, -65580.74, 0.0, 10.000023, 9.998821 
2.7649176e+3, 2.7187446e+2, -312526.8, -393847.84, -42008.445, -0.14401484, 0.051167324, -294723.78, -19084.523, 0.0, 10.0005455, 9.999218 
2.7646044e+3, 2.8186858e+2, -247595.73, -542468.06, 113897.96, -0.139275, 0.09892358, -208725.25, -31024.3, 0.0, 10.001032, 9.997419 
2.764297e+3, 2.918617e+2, 120240.4, -206708.0, 89347.61, 0.26161742, 0.049733818, 143063.83, 222838.64, 0.0, 10.002521, 9.998272 
2.7639863e+3, 3.018565e+2, 250534.23, -114545.89, 61379.785, 0.35162714, 0.18740204, 260577.53, 260577.53, 0.0, 10.00275, 9.998194 
2.7636674e+3, 3.118567e+2, 238503.16, 158362.56, 6917.7, -0.3515297, 0.6195933, 239095.9, 239095.9, 0.0, 10.001439, 10.000236 
2.7633578e+3, 3.2184514e+2, -245649.78, -451822.38, 122296.555, -0.18570079, 0.09254247, -188788.48, -188788.48, 0.0, 9.9995165, 9.996959 
2.779305e+3, 1.322604e+2, -1460987.6, -1643593.6, -95151.6, 0.09343416, 0.2779579, -1420419.3, 223458.02, 0.00217142, 10.002224, 9.999006 
2.7789825e+3, 1.4225894e+2, -1531194.1, -1661871.4, 39397.906, -0.47466314, 0.5785624, -1520235.1, 25661.508, 0.0010072395, 10.00082, 9.999265 
2.7786744e+3, 1.5225394e+2, -996320.06, -950105.3, 139183.77, -0.11756502, 0.278294, -832123.8, 615812.2, 0.00030058212, 10.002288, 10.002628 
2.7783656e+3, 1.622487e+2, -1242034.0, -1591309.6, 75137.375, 0.20323923, 0.15116175, -1226556.1, 123425.53, 0.000046417692, 10.002203, 9.997724 
2.7780497e+3, 1.7224374e+2, -1167310.0, -1463563.4, 27407.736, 0.04710073, 0.2981632, -1164795.6, 87240.46, 0.0000020738605, 10.002044, 9.997884 
2.7777347e+3, 1.8223865e+2, -1224645.4, -1427864.8, 42263.61, -0.12036697, 0.4882909, -1216206.3, -62116.355, 0.00000000000031198744, 10.000829, 9.998119 
2.7774215e+3, 1.9223176e+2, -946447.7, -966527.1, 39880.34, -0.17112488, 0.2110444, -915362.75, 140790.7, 0.0, 10.001074, 10.000344 
2.7771088e+3, 2.0222563e+2, -1019395.5, -1141421.8, 24798.912, -0.14329696, 0.09876478, -1014548.25, -56339.91, 0.0, 10.000506, 9.998917 
2.7767965e+3, 2.122209e+2, -681010.2, -721756.94, 20039.986, -0.018887684, 0.022762822, -672806.0, 187440.88, 0.0, 10.00143, 10.0005665 
2.7764833e+3, 2.222156e+2, -935797.94, -1276470.0, 26799.738, 0.01657945, 0.07355141, -933702.56, -171407.73, 0.0, 10.000904, 9.99645 
2.776167e+3, 2.3220704e+2, -716947.3, -1041985.56, 308.9333, -0.2149518, -0.04611288, -716947.0, -52563.094, 0.0, 10.001557, 9.99695 
2.7758527e+3, 2.4219982e+2, -699013.25, -951568.25, -49111.65, -0.31689653, 0.005215972, -689799.2, -123340.64, 0.0, 10.000738, 9.997412 
2.7755406e+3, 2.5219542e+2, -527975.44, -547530.25, -109563.23, -0.08099284, 0.056132015, -427754.22, 40746.543, 0.0, 10.000247, 9.999623 
2.7752286e+3, 2.621912e+2, -648788.2, -563059.9, -93983.64, 0.078742765, 0.15087467, -502627.06, -132087.36, 0.0, 9.998664, 9.999682 
2.7749148e+3, 2.7218652e+2, -244065.31, -70861.03, -11368.842, 0.0022793927, -0.044378046, -70117.99, 202463.73, 0.0, 9.999878, 10.001698 
2.7746025e+3, 2.8218275e+2, -398762.4, -618332.0, 158479.5, -0.018397914, 0.057526525, -315755.97, -141136.06, 0.0, 10.00017, 9.9972725 
2.7742943e+3, 2.921804e+2, -9073.389, -335240.4, 161729.28, 0.19033827, 0.5001685, 57522.426, 134178.69, 0.0, 10.002092, 9.997515 
2.7739823e+3, 3.0217496e+2, 81402.38, -307207.06, 32517.7, 0.056783058, 0.7179219, 84104.58, 84104.58, 0.0, 10.002238, 9.997082 
2.7736622e+3, 3.1216046e+2, 98782.164, 9913.505, -49824.324, -0.5821129, -0.25879273, 121107.65, 121107.65, 0.0, 10.000947, 9.999429 
2.7733538e+3, 3.221588e+2, -216490.3, -100613.25, 44600.85, -0.16108675, 0.17102683, -85434.69, -85434.69, 0.0, 9.998439, 9.999883 
2.7892986e+3, 1.3257813e+2, -1429115.8, -1687084.0, -107758.336, -0.43919528, 0.3531025, -1390026.1, 250736.55, 0.0011689387, 10.002588, 9.998605 
2.7889833e+3, 1.4257342e+2, -1415675.1, -1761106.0, 142846.92, -0.22290869, 0.4499352, -1364256.9, 178556.34, 0.0005049565, 10.002236, 9.997918 
2.7886736e+3, 1.5256713e+2, -949390.44, -1140562.0, 148351.97, -0.0736598, 0.21564476, -868496.9, 576369.7, 0.00013439951, 10.003494, 10.000761 
2.7883634e+3, 1.6256128e+2, -957105.9, -1392680.3, -74956.84, 0.076313905, 0.12526025, -944567.7, 402350.34, 0.000016423304, 10.003832, 9.998314 
2.7880475e+3, 1.725561e+2, -926721.4, -1226431.3, -18395.373, -0.049149305, 0.15317419, -925596.5, 323373.4, 0.0000003300107, 10.003103, 9.999025 
2.7877316e+3, 1.8255128e+2, -994696.0, -1290873.5, 67928.766, -0.1928293, 0.28756797, -979859.6, 171159.42, 0.0, 10.002175, 9.998455 
2.7874187e+3, 1.9254568e+2, -810601.56, -993189.06, 58216.188, -0.17388742, 0.23173802, -793619.4, 259455.92, 0.0, 10.002241, 9.999704 
2.7871063e+3, 2.0254031e+2, -768395.8, -1001472.7, -6904.511, -0.13473912, 0.24218832, -768191.5, 186935.86, 0.0, 10.002101, 9.999097 
2.7867937e+3, 2.1253511e+2, -525209.25, -699639.56, -37410.152, -0.06611848, 0.17306131, -517524.44, 339649.28, 0.0, 10.002686, 10.0001335 
2.7864802e+3, 2.2252937e+2, -573721.6, -1000735.75, -70923.836, -0.05328913, 0.17355368, -562249.94, 196976.77, 0.0, 10.002805, 9.997461 
2.7861646e+3, 2.3252146e+2, -597042.06, -913703.2, -5654.2554, -0.22214232, 0.05682614, -596941.1, 64364.566, 0.0, 10.001911, 9.997734 
2.7858496e+3, 2.4251437e+2, -613411.9, -858666.9, 25420.824, -0.27440718, 0.06601268, -610804.75, -47428.477, 0.0, 10.001031, 9.997902 
2.7855375e+3, 2.5250867e+2, -442941.22, -565630.0, 9419.664, -0.0014701993, 0.061195776, -442222.22, 23209.33, 0.0, 10.001012, 9.999156 
2.7852252e+3, 2.6250368e+2, -286049.34, -392845.97, 50615.87, 0.1684008, 0.124268785, -265872.2, 101607.79, 0.0, 10.001029, 9.999754 
2.784911e+3, 2.724994e+2, -28048.191, -31532.45, -73403.19, 0.02329374, 0.04416237, 43633.535, 313154.47, 0.0, 10.001459, 10.001293 
2.7845988e+3, 2.8249606e+2, -225502.94, -474337.7, -36070.113, -0.011614268, 0.1867945, -220379.83, -48823.68, 0.0, 10.00102, 9.997848 
2.7842903e+3, 2.9249418e+2, -289737.88, -440766.5, 15418.692, 0.110113956, 0.64993984, -288179.84, -214592.58, 0.0, 9.999973, 9.99782 
2.783978e+3, 3.0248818e+2, -281359.78, -444154.7, -41755.01, -0.023850715, 0.77076596, -271274.88, -271274.88, 0.0, 9.999422, 9.997536 
2.783659e+3, 3.1247053e+2, 61193.11, -49620.188, -96172.96, -0.49210358, -0.50016, 116778.06, 116778.06, 0.0, 10.000665, 9.999255 
2.783351e+3, 3.2247445e+2, 228677.55, 220633.47, -93074.32, 0.045464065, 0.49787125, 317816.7, 317816.7, 0.0, 10.000858, 10.000991 
2.799293e+3, 1.328958e+2, -1614135.0, -1806462.3, -169836.63, -0.74875313, 0.39678437, -1515127.1, 122519.88, 0.0005685035, 10.001469, 9.9982815 
2.7989852e+3, 1.4288826e+2, -1493790.1, -2078165.3, 148173.58, 0.21577337, 0.29062054, -1458366.6, 81356.95, 0.00022583413, 10.002995, 9.995316 
2.7986735e+3, 1.528801e+2, -1175379.0, -1594481.9, 188587.72, 0.024429373, 0.14605038, -1103013.5, 338787.3, 0.00005282333, 10.0034895, 9.997592 
2.7983612e+3, 1.6287294e+2, -1087257.3, -1381666.8, -54357.53, -0.04321485, 0.10621088, -1077541.6, 266324.94, 0.000004777361, 10.002753, 9.998823 
2.798045e+3, 1.7286791e+2, -901626.94, -991592.25, -80057.13, -0.10983182, -0.061494794, -854780.5, 391128.7, 0.00000002399446, 10.002389, 10.000912 
2.7977294e+3, 1.8286374e+2, -1162496.3, -1448726.0, 27665.568, -0.14697191, 0.05631441, -1159846.8, -11898.801, 0.0, 10.001496, 9.997645 
2.797417e+3, 1.9285998e+2, -974112.3, -1178405.0, 29815.56, -0.08492441, 0.25458992, -969849.8, 80142.67, 0.0, 10.0017, 9.998634 
2.797104e+3, 2.0285572e+2, -1032717.1, -1284999.0, 18941.34, -0.06507277, 0.5043061, -1031302.94, -79262.07, 0.0, 10.001044, 9.997638 
2.79679e+3, 2.1284945e+2, -765021.1, -926740.56, -5051.196, -0.19193886, 0.4011346, -764863.5, 89242.766, 0.0, 10.001565, 9.999082 
2.7964762e+3, 2.2284374e+2, -787468.2, -983805.8, -64845.336, -0.25297937, 0.4392918, -767984.8, -11821.84, 0.0, 10.001034, 9.998365 
2.7961615e+3, 2.3283817e+2, -592350.2, -671624.4, -41188.363, -0.1908064, 0.34028044, -574824.56, 83387.78, 0.0, 10.0010805, 9.999746 
2.7958477e+3, 2.4283206e+2, -782116.1, -937998.9, 10156.367, -0.08248857, 0.34129182, -781457.1, -221190.42, 0.0, 10.00001, 9.99781 
2.795535e+3, 2.5282392e+2, -566460.9, -624763.56, 6486.708, 0.14693597, 0.062130954, -565747.9, -103406.9, 0.0, 10.00027, 9.999061 
2.7952215e+3, 2.6281747e+2, -697888.5, -912219.94, 54651.727, 0.18389991, 0.099574454, -684757.5, -320353.22, 0.0, 9.999729, 9.9967785 
2.794906e+3, 2.728132e+2, -398824.94, -589284.5, -53543.75, -0.1660668, 0.32422754, -384804.34, -118346.805, 0.0, 10.000665, 9.997802 
2.7945924e+3, 2.8280818e+2, -376366.28, -572071.2, -92544.586, -0.3265233, 0.5392892, -339535.38, -171020.72, 0.0, 10.000221, 9.997527 
2.7942836e+3, 2.9280034e+2, -311241.8, -297544.44, -47618.836, -0.08869829, 0.26926413, -256284.31, -185690.84, 0.0, 9.999262, 9.999122 
2.7939728e+3, 3.0279475e+2, -395323.5, -382027.9, -55321.938, -0.043014273, 0.31122804, -332955.78, -332955.78, 0.0, 9.998304, 9.998429 
2.7936596e+3, 3.1279254e+2, -5563.8564, 38245.54, -33637.04, -0.0637644, 0.46574673, 56481.42, 56481.42, 0.0, 9.999827, 10.000186 
2.793346e+3, 3.2278568e+2, -120320.8, -403307.9, 29497.08, -0.236721, 0.47131282, -117278.875, -117278.875, 0.0, 10.000698, 9.996658 
2.8092927e+3, 1.3320933e+2, -1683240.8, -1769961.0, -117941.19, -0.5322959, 0.39518148, -1600941.8, 33634.62, 0.00025074874, 10.000569, 9.99904 
2.8089842e+3, 1.4320138e+2, -1133153.4, -1779682.4, 69970.56, 0.031464636, 0.16935441, -1125667.5, 410986.75, 0.00009142473, 10.004907, 9.996458 
2.8086725e+3, 1.5319556e+2, -1171630.8, -1546302.1, 208667.06, 0.010758079, 0.20628336, -1078544.3, 360165.75, 0.000018191195, 10.003247, 9.998093 
2.8083602e+3, 1.631893e+2, -1243126.0, -1506904.4, 12128.471, 0.0120098945, 0.25981426, -1242569.5, 98199.836, 0.000001253609, 10.001815, 9.998439 
2.8080434e+3, 1.7318314e+2, -1062083.8, -1202224.3, -76451.64, -0.04086229, 0.10991469, -1028449.2, 214377.27, 0.0000000065346386, 10.001748, 9.999835 
2.8077272e+3, 1.8317762e+2, -1106818.1, -1327296.6, -42549.14, -0.10863498, 0.13066047, -1098891.8, 45986.37, 0.0, 10.00143, 9.998504 
2.807414e+3, 1.9317223e+2, -919100.3, -1088994.6, 47230.516, -0.1377207, 0.117222734, -906853.1, 140078.98, 0.0, 10.001736, 9.999264 
2.8071007e+3, 2.0316756e+2, -927067.4, -1137715.5, 50264.715, -0.13526843, 0.2582213, -915688.0, 33292.85, 0.0, 10.001273, 9.998536 
2.8067866e+3, 2.13163e+2, -1001044.3, -1023368.75, 90034.16, -0.15650462, 0.32805872, -921483.06, -70452.41, 0.0, 9.99976, 9.999336 
2.8064728e+3, 2.2315829e+2, -944054.3, -1012222.9, 96668.21, -0.18223366, 0.4479178, -875637.5, -122557.9, 0.0, 9.999665, 9.99885 
2.8061596e+3, 2.3315257e+2, -336654.3, -557999.9, 40846.137, -0.144108, 0.37147138, -329357.3, 325774.4, 0.0, 10.002765, 9.999758 
2.805846e+3, 2.4314635e+2, -123175.086, -630922.9, -61785.24, -0.061600946, 0.35176677, -115764.91, 441423.94, 0.0, 10.004411, 9.997839 
2.8055316e+3, 2.531383e+2, -162447.86, -511041.38, -123014.234, 0.07749807, 0.15697837, -123409.53, 335854.3, 0.0, 10.003215, 9.998503 
2.805217e+3, 2.631315e+2, -369911.2, -814720.9, -25454.83, 0.07958688, 0.20508373, -368459.25, -7127.269, 0.0, 10.002089, 9.9963665 
2.804902e+3, 2.7312607e+2, -358621.72, -699056.6, 21830.277, -0.2038415, 0.43756363, -357227.56, -93829.43, 0.0, 10.00133, 9.996802 
2.8045887e+3, 2.8311977e+2, -222908.84, -389847.94, 101792.766, -0.3163582, 0.5542294, -174738.98, -9271.828, 0.0, 10.000639, 9.998646 
2.804279e+3, 2.9311034e+2, -31243.066, -77817.016, 92503.14, -0.10145362, 0.0740854, 40859.24, 108413.695, 0.0, 10.0006275, 10.000077 
2.803968e+3, 3.0310565e+2, -63394.797, -147232.33, 89400.17, -0.0055935793, 0.14108376, -6573.631, -6573.631, 0.0, 10.000196, 9.999125 
2.8036568e+3, 3.1311068e+2, 76079.57, 84229.516, 7428.9443, 0.10267465, 1.0286664, 88627.71, 88627.71, 0.0, 10.000263, 10.000329 
2.8033412e+3, 3.2309625e+2, -338046.72, -610631.6, 92091.4, -0.3155762, 0.31339806, -309850.7, -309850.7, 0.0, 9.999488, 9.995875 
2.8192928e+3, 1.3352157e+2, -1522686.6, -1565216.4, 199660.88, -0.15765256, 0.33070427, -1343161.4, 288357.53, 0.00010745089, 10.001328, 9.999991 
2.8189826e+3, 1.4351481e+2, -1283782.5, -1700723.8, 52175.21, -0.110524416, 0.13714093, -1277352.6, 256230.33, 0.00003510944, 10.003347, 9.997698 
2.8186718e+3, 1.5351172e+2, -1149757.5, -1359235.4, 102142.92, 0.06343393, 0.27776337, -1108197.4, 327414.7, 0.0000055355054, 10.002769, 9.999559 
2.818359e+3, 1.6350706e+2, -1374910.9, -1729527.3, -1112.5421, 0.21532345, 0.47452718, -1374907.4, -37248.895, 0.0000002527922, 10.001714, 9.996951 
2.818042e+3, 1.7349978e+2, -1176765.8, -1464637.3, -59399.45, 0.14727257, 0.3871303, -1164990.9, 74742.81, 0.0, 10.001992, 9.997906 
2.8177252e+3, 1.8349254e+2, -1070934.9, -1242251.4, 31091.193, 0.0060383594, 0.33461764, -1065466.8, 76336.414, 0.0, 10.001471, 9.999053 
2.8174105e+3, 1.9348402e+2, -908409.2, -959422.5, 74749.98, -0.17630725, -0.1189285, -854933.9, 188942.86, 0.0, 10.001319, 10.000351 
2.8170964e+3, 2.0347834e+2, -1028602.94, -1132313.0, 3879.0308, -0.18895532, -0.14644036, -1028458.06, -82530.836, 0.0, 10.000509, 9.998873 
2.8167832e+3, 2.1347637e+2, -946639.4, -918364.1, -1475.1233, 0.026748572, 0.08022574, -918287.4, -70338.54, 0.0, 9.999943, 9.999898 
2.8164703e+3, 2.2347282e+2, -1066307.4, -1223118.9, 159139.03, 0.06963391, 0.35478345, -967307.75, -217321.52, 0.0, 9.999626, 9.997371 
2.816158e+3, 2.3346515e+2, -585389.56, -811326.2, 139042.72, -0.09532584, 0.17721738, -519207.9, 132855.58, 0.0, 10.001796, 9.99841 
2.815844e+3, 2.4345852e+2, -475510.6, -945696.2, -96843.57, -0.21443015, 0.26344278, -456345.06, 97785.71, 0.0, 10.002784, 9.996406 
2.815527e+3, 2.5345203e+2, -390949.0, -732179.1, -172294.14, -0.22299537, 0.29553846, -319087.75, 137109.61, 0.0, 10.002238, 9.997406 
2.8152117e+3, 2.6344556e+2, -509562.78, -821239.75, -59312.293, -0.20055984, 0.43294168, -498657.22, -140393.16, 0.0, 10.001049, 9.996753 
2.814899e+3, 2.7343783e+2, -389353.6, -561961.8, 7053.8887, -0.14203715, 0.2822476, -389065.8, -128722.35, 0.0, 10.00061, 9.998023 
2.814587e+3, 2.8343156e+2, -319267.06, -371552.22, 90887.79, -0.106421344, 0.31878713, -250836.8, -88432.14, 0.0, 9.999889, 9.999065 
2.814276e+3, 2.9342616e+2, -87118.945, -25104.637, 115331.35, -0.022566952, 0.15380828, 63315.023, 127764.11, 0.0, 10.000052, 10.000652 
2.813962e+3, 3.0342206e+2, -241543.64, -410760.97, 77976.63, -0.18180282, 0.32419518, -211091.53, -211091.53, 0.0, 9.9998255, 9.997479 
2.813647e+3, 3.1342e+2, -185611.4, -237720.31, 6724.8135, -0.44377798, 0.6537587, -184757.55, -184757.55, 0.0, 9.999367, 9.998536 
2.8133386e+3, 3.2341146e+2, -67452.9, 281560.3, 147957.97, -0.10642465, 0.34392396, 335842.1, 335842.1, 0.0, 9.998278, 10.002508 
2.8292894e+3, 1.338348e+2, -1458863.8, -1647398.8, 182660.02, -0.39650032, 0.2304023, -1347580.6, 280867.3, 0.000050640916, 10.002138, 9.999084 
2.8289834e+3, 1.4383104e+2, -1393927.5, -1617284.5, 35458.156, 0.088802226, 0.3748967, -1388433.6, 142053.16, 0.00001538915, 10.00198, 9.998931 
2.8286672e+3, 1.5382592e+2, -1170850.9, -1292485.5, 95136.625, -0.19179733, 0.23423727, -1118753.5, 313779.9, 0.0000020566958, 10.002225, 10.000317 
2.8283533e+3, 1.6382135e+2, -1142760.6, -1454065.0, 7384.0034, -0.18453227, 0.33323115, -1142585.6, 191992.4, 0.00000005936716, 10.002547, 9.998452 
2.8280398e+3, 1.738167e+2, -881220.1, -1230441.1, 90659.36, 0.07827194, 0.42712432, -859087.25, 377541.4, 0.0, 10.003553, 9.998792 
2.8277248e+3, 1.8381092e+2, -789378.7, -1154315.8, 134768.27, 0.12098548, 0.49504313, -745005.3, 393681.06, 0.0, 10.003522, 9.998709 
2.8274083e+3, 1.9380248e+2, -894598.75, -1081161.9, 97043.45, -0.11192507, 0.17660356, -853273.94, 187489.05, 0.0, 10.001873, 9.999296 
2.8270936e+3, 2.0379558e+2, -806906.4, -1061734.3, 29417.107, -0.172598, 0.09546387, -803554.56, 139270.72, 0.0, 10.002067, 9.998668 
2.826782e+3, 2.1379049e+2, -169549.5, -639922.25, -749.82764, 0.005118212, 0.115492575, -169548.31, 675323.56, 0.0, 10.005554, 9.999181 
2.826469e+3, 2.2378522e+2, -122689.945, -750971.0, 7975.5093, 0.060699444, 0.23686068, -122588.72, 624334.9, 0.0, 10.005908, 9.99763 
2.826155e+3, 2.3377803e+2, -709738.7, -945078.3, 17290.42, -0.10667374, 0.16480954, -708475.1, -59476.97, 0.0, 10.001074, 9.997929 
2.8258404e+3, 2.4377167e+2, -947557.8, -1065053.6, -76203.72, -0.20910311, 0.2562587, -910085.56, -359021.56, 0.0, 9.998975, 9.997461 
2.8255248e+3, 2.537656e+2, -444633.7, -730603.3, -45927.945, -0.18024425, 0.312476, -437438.5, 15687.546, 0.0, 10.001604, 9.997798 
2.8252098e+3, 2.637592e+2, -166423.92, -544646.9, 70311.695, -0.15157148, 0.40089786, -153775.92, 201414.81, 0.0, 10.002861, 9.997779 
2.8248957e+3, 2.7375126e+2, -156061.3, -421622.25, 33974.85, -0.14856775, 0.21851632, -151783.6, 105484.484, 0.0, 10.0020275, 9.998324 
2.8245834e+3, 2.8374502e+2, -112662.34, -259094.9, 89577.95, -0.039617613, 0.22840066, -70185.78, 89140.375, 0.0, 10.001161, 9.9992285 
2.8242734e+3, 2.937407e+2, -17318.484, -84499.414, 4370.8096, 0.12977634, 0.23999545, -17035.313, 44325.348, 0.0, 10.000799, 9.999912 
2.823958e+3, 3.0373576e+2, -249296.14, -439035.3, -44192.79, -0.14330646, 0.35986432, -239508.0, -239508.0, 0.0, 9.9997835, 9.997327 
2.8236383e+3, 3.13729e+2, -411347.38, -466208.88, -57317.387, -0.7586473, 0.2967141, -375235.0, -375235.0, 0.0, 9.998194, 9.997573 
2.8233358e+3, 3.2372597e+2, -26158.0, 687699.75, -44928.508, 0.2920863, 0.4301125, 690516.3, 690516.3, 0.0, 9.996736, 10.006109 
2.8392863e+3, 1.3414876e+2, -1507069.6, -1836802.6, 132245.02, -0.47757995, 0.20375316, -1460584.0, 164786.33, 0.000026719768, 10.002446, 9.997683 
2.8389838e+3, 1.441475e+2, -1448281.8, -1566991.3, 25919.207, 0.43223852, 0.64844537, -1442869.3, 84519.734, 0.000008259606, 10.001298, 9.999586 
2.838662e+3, 1.5413967e+2, -1291677.0, -1276145.3, 56047.402, -0.42099085, 0.14993161, -1227328.3, 202130.89, 0.0000013335809, 10.001083, 10.000963 
2.8383467e+3, 1.6413504e+2, -1261245.9, -1319685.0, 4725.0063, -0.6053166, 0.13202268, -1260866.4, 70636.14, 0.000000073245815, 10.001033, 10.000047 
2.838038e+3, 1.7413357e+2, -973413.3, -1100883.6, 37566.336, 0.02879482, 0.3570255, -963166.06, 270355.06, 0.0, 10.002253, 10.000271 
2.837725e+3, 1.8413027e+2, -1072615.8, -1468066.8, 29805.47, 0.2974363, 0.666967, -1070381.9, 65175.527, 0.0, 10.002462, 9.996997 
2.8374067e+3, 1.9412312e+2, -1071954.3, -1403256.6, -5293.422, 0.05169587, 0.63331926, -1071869.8, -34239.203, 0.0, 10.001773, 9.997073 
2.8370917e+3, 2.0411497e+2, -915703.75, -1250680.4, 149245.47, -0.100192405, 0.60934585, -858856.3, 80851.89, 0.0, 10.00203, 9.997343 
2.8367814e+3, 2.1410462e+2, -478948.38, -940417.94, 135402.61, -0.08967426, 0.1913348, -442152.97, 399647.75, 0.0, 10.004214, 9.997709 
2.8364682e+3, 2.2409694e+2, -419971.7, -902853.06, -121821.34, -0.09426393, 0.17094426, -390979.3, 352893.72, 0.0, 10.004042, 9.997446 
2.8361505e+3, 2.3409145e+2, -855886.8, -1022953.5, -151833.8, -0.14480151, 0.2271968, -766124.6, -120193.164, 0.0, 10.000213, 9.99778 
2.8358355e+3, 2.4408585e+2, -943359.25, -924804.6, 3581.2803, -0.1066255, 0.36380738, -924137.4, -376150.13, 0.0, 9.998534, 9.998618 
2.8355247e+3, 2.5407895e+2, -483785.9, -599867.75, 49588.38, 0.13023782, 0.15904011, -465487.1, -15436.372, 0.0, 10.000819, 9.999052 
2.8352103e+3, 2.6407278e+2, -357257.3, -660529.06, 36230.65, 0.088452876, 0.22775307, -352989.06, -879.97626, 0.0, 10.001818, 9.997422 
2.8348914e+3, 2.7406627e+2, -338282.75, -578841.2, 7000.0, -0.31403852, 0.19731219, -338079.22, -83906.164, 0.0, 10.001204, 9.997592 
2.834578e+3, 2.8406006e+2, -343718.84, -565020.8, 66290.68, -0.29081604, 0.3360413, -325381.1, -169147.4, 0.0, 10.000545, 9.997381 
2.834271e+3, 2.9405314e+2, -268322.0, -441246.97, -5392.5425, 0.26369366, 0.2538968, -268154.0, -209854.05, 0.0, 10.000204, 9.997728 
2.833955e+3, 3.0404618e+2, -305098.63, -364490.44, -130004.86, 0.0398874, 0.2637421, -201441.2, -201441.2, 0.0, 9.999137, 9.998091 
2.8336307e+3, 3.1403783e+2, -556271.2, -443495.47, -107706.39, -0.8522978, -0.08284823, -378309.25, -378309.25, 0.0, 9.996956, 9.998278 
2.8333274e+3, 3.240371e+2, -490007.75, 48154.363, -12051.093, 0.17930809, 0.34630758, 48424.09, 48424.09, 0.0, 9.995563, 10.002171 
2.8492883e+3, 1.3446283e+2, -1316102.5, -1639562.5, -98649.53, -0.26482886, 0.36920515, -1288390.4, 333908.4, 0.000013315561, 10.003191, 9.998757 
2.8489804e+3, 1.4445852e+2, -1417661.3, -1426320.3, -58026.273, 0.37014967, 0.43607602, -1363803.1, 160540.77, 0.0000038169696, 10.000895, 10.000767 
2.848661e+3, 1.5445434e+2, -1480613.1, -1338487.4, 14271.99, -0.15335558, 0.24936928, -1337068.4, 89308.94, 0.0000005153316, 9.999559, 10.0013075 
2.848345e+3, 1.6445018e+2, -1501251.1, -1451799.1, -36238.3, -0.35686234, 0.26198792, -1432655.0, -104239.01, 0.00000002542409, 9.999382, 9.999949 
2.848032e+3, 1.7444609e+2, -1252879.0, -1285134.4, -47116.67, -0.22424957, 0.26837224, -1219206.3, 11254.467, 0.0, 10.000451, 9.999909 
2.8477195e+3, 1.8444191e+2, -1035448.94, -1301547.5, -75533.734, -0.06265275, 0.43254313, -1015503.25, 116999.8, 0.0, 10.00199, 9.998385 
2.847406e+3, 1.9443628e+2, -640570.56, -1071886.9, 34405.01, 0.08954813, 0.44738024, -637843.44, 396712.53, 0.0, 10.004068, 9.998279 
2.8470927e+3, 2.044294e+2, -565191.2, -1036392.9, 203957.14, 0.072819404, 0.46156588, -489173.22, 447446.94, 0.0, 10.004144, 9.9978285 
2.8467798e+3, 2.1441989e+2, -849083.44, -1117676.9, 251240.9, -0.11145034, 0.15367515, -698498.44, 140209.6, 0.0, 10.0015135, 9.99785 
2.8464654e+3, 2.2441256e+2, -819492.9, -1069655.3, 28705.484, -0.18263239, 0.15899473, -816241.3, -75461.51, 0.0, 10.001137, 9.9977 
2.8461477e+3, 2.344073e+2, -343419.3, -787966.44, -3540.8567, -0.1919287, 0.30014965, -343391.1, 299447.06, 0.0, 10.003668, 9.997761 
2.8458327e+3, 2.444013e+2, -113970.26, -534240.06, 102821.22, -0.0810528, 0.3980934, -90163.12, 454735.16, 0.0, 10.004133, 9.99865 
2.845522e+3, 2.5439367e+2, -349358.66, -567024.56, 34562.363, 0.18221863, 0.18765473, -344002.44, 102965.19, 0.0, 10.001735, 9.998892 
2.8452072e+3, 2.6438686e+2, -499710.28, -706086.4, -21556.023, 0.123713724, 0.17793186, -497482.78, -148452.47, 0.0, 10.00065, 9.997719 
2.8448877e+3, 2.7438048e+2, -225532.14, -517880.56, -39291.305, -0.36500373, 0.19325164, -220343.52, 30748.283, 0.0, 10.001834, 9.99777 
2.8445742e+3, 2.8437403e+2, -180767.34, -527641.9, 50621.82, -0.3217084, 0.30410725, -173530.72, -20375.824, 0.0, 10.001736, 9.997115 
2.8442675e+3, 2.9436642e+2, -337926.16, -545934.5, 41049.83, 0.36098453, 0.2560958, -330118.16, -274887.66, 0.0, 9.999962, 9.997156 
2.8439513e+3, 3.043586e+2, -182973.0, -222819.83, -15859.821, 0.18126787, 0.17917487, -177431.22, -177431.22, 0.0, 9.999479, 9.998958 
2.8436255e+3, 3.1435013e+2, 5083.0884, -109172.71, -63771.074, -0.7861931, -0.22300176, 33572.633, 33572.633, 0.0, 10.000418, 9.998972 
2.8433192e+3, 3.2435006e+2, -278721.94, -252778.2, -59611.707, 0.1260728, 0.40130296, -204743.31, -204743.31, 0.0, 9.998514, 9.998788 
2.8592902e+3, 1.3477665e+2, -1266475.1, -1485450.9, -33676.297, 0.08668997, 0.47407523, -1261413.1, 357815.84, 0.0000059672575, 10.003117, 9.999795 
2.8589758e+3, 1.4476955e+2, -1330298.5, -1326289.6, -25774.262, 0.31102636, 0.20134248, -1302442.0, 218856.6, 0.0000015122073, 10.001341, 10.001199 
2.8586605e+3, 1.5476961e+2, -1374667.4, -1272671.4, -26647.441, 0.32640776, 0.39811882, -1266129.1, 157161.08, 0.0000000966577, 10.000295, 10.001373 
2.8583446e+3, 1.6476546e+2, -1474928.1, -1542862.5, 28297.39, 0.113141984, 0.4588466, -1464685.4, -139355.97, 0.00000000026919006, 10.00007, 9.998988 
2.8580254e+3, 1.74757e+2, -1312582.8, -1445534.9, 15156.058, -0.47515595, 0.10958498, -1310876.9, -83459.305, 0.0, 10.000667, 9.998693 
2.8577122e+3, 1.8475126e+2, -934604.8, -994739.6, 38145.03, -0.50172883, 0.08699928, -916101.75, 213368.45, 0.0, 10.001721, 10.000586 
2.857406e+3, 1.947471e+2, -646827.75, -823888.1, 85919.42, 0.16870536, -0.0045395484, -611989.6, 419507.84, 0.0, 10.003095, 10.000414 
2.8570947e+3, 2.0474258e+2, -703530.4, -1034139.7, 103723.07, 0.35179898, 0.1139152, -673683.56, 259852.27, 0.0, 10.002976, 9.998383 
2.8567773e+3, 2.1473628e+2, -1008333.25, -1171466.6, 121845.81, -0.010020985, 0.045507316, -943272.75, -107673.45, 0.0, 10.000374, 9.9980345 
2.856461e+3, 2.247305e+2, -1006779.44, -1210014.8, 99741.22, -0.20781924, 0.22380942, -966008.7, -228347.02, 0.0, 10.000198, 9.9971075 
2.856146e+3, 2.3472457e+2, -565918.06, -976921.2, 75664.44, -0.21546061, 0.30601767, -552431.06, 87298.68, 0.0, 10.002665, 9.996864 
2.855831e+3, 2.4471803e+2, -408302.94, -843089.3, 16758.299, -0.16526799, 0.47754857, -407657.97, 134139.77, 0.0, 10.003053, 9.996914 
2.8555167e+3, 2.5470957e+2, -671843.1, -952329.6, -49768.676, -0.032226097, 0.3134193, -663274.1, -219396.11, 0.0, 10.000673, 9.99666 
2.8552014e+3, 2.6470166e+2, -601837.25, -753884.56, 12961.159, -0.0690877, 0.3194882, -600740.3, -254788.83, 0.0, 10.0000305, 9.997644 
2.8548855e+3, 2.7469352e+2, -353784.78, -598366.3, 13821.908, -0.3121305, 0.111037254, -353006.16, -104979.56, 0.0, 10.001079, 9.997569 
2.8545722e+3, 2.8468683e+2, -255232.02, -479521.2, -24872.229, -0.21283571, 0.18369292, -252506.95, -102416.86, 0.0, 10.001046, 9.997703 
2.854262e+3, 2.9468042e+2, -449012.0, -557399.4, -10619.559, 0.24705876, 0.16154075, -447981.3, -395827.44, 0.0, 9.999145, 9.997425 
2.8539446e+3, 3.0467397e+2, -274736.6, -246159.61, 20459.572, 0.02872947, 0.20659694, -235493.05, -235493.05, 0.0, 9.998932, 9.998981 
2.8536218e+3, 3.1466773e+2, -147753.27, -232381.5, 13732.93, -0.7713093, 0.0015969967, -145580.55, -145580.55, 0.0, 9.999742, 9.998388 
2.853312e+3, 3.2466283e+2, -390130.2, -346467.4, -137115.06, -0.11281435, 0.17910095, -229456.63, -229456.63, 0.0, 9.998125, 9.998268 
2.869287e+3, 1.3509457e+2, -1348724.1, -1785350.1, 19307.46, -0.22408862, 0.3270025, -1347872.0, 268234.4, 0.0000021514043, 10.003513, 9.997625 
2.8689712e+3, 1.4508884e+2, -1206987.8, -1411016.6, 71126.75, 0.025741536, 0.390814, -1184640.0, 333533.78, 0.00000043033984, 10.002724, 9.999985 
2.8686556e+3, 1.5508562e+2, -1218649.3, -1387049.3, 41537.53, 0.09127206, 0.43833998, -1208961.0, 211238.78, 0.000000019645139, 10.002089, 9.999766 
2.8683415e+3, 1.650807e+2, -1132130.1, -1324647.8, 90624.94, 0.08610878, 0.48386174, -1096182.1, 226064.61, 0.0, 10.0021715, 9.999481 
2.868025e+3, 1.750737e+2, -1048031.4, -1286585.4, 148021.36, -0.25625083, 0.28311777, -977210.2, 247108.69, 0.0, 10.002281, 9.999038 
2.867712e+3, 1.8506816e+2, -771734.5, -893971.0, 136982.73, -0.30974835, 0.24683593, -682853.7, 443514.3, 0.0, 10.002573, 10.000945 
2.8674033e+3, 1.9506323e+2, -722634.0, -865747.0, 136106.05, 0.03183079, 0.10418987, -640420.56, 387982.0, 0.0, 10.002376, 10.000577 
2.8670907e+3, 2.0505852e+2, -799222.3, -981407.9, -6189.8784, 0.1504589, 0.1432979, -799012.25, 131430.47, 0.0, 10.001878, 9.999273 
2.8667733e+3, 2.150531e+2, -864510.7, -1020208.75, 18265.227, -0.055072516, 0.12619728, -862396.7, -29899.566, 0.0, 10.000923, 9.998837 
2.866458e+3, 2.2504736e+2, -789255.94, -1067052.0, 133229.92, -0.16189203, 0.24081339, -735688.7, -1130.6343, 0.0, 10.001337, 9.997617 
2.8661454e+3, 2.3504102e+2, -498286.13, -907556.8, 159257.77, -0.14681463, 0.28227836, -443617.28, 193011.34, 0.0, 10.002767, 9.997374 
2.8658304e+3, 2.4503443e+2, -308070.38, -786277.06, 54097.063, -0.13088039, 0.40705994, -302027.03, 236669.88, 0.0, 10.003572, 9.99709 
2.8655136e+3, 2.550266e+2, -169534.86, -716568.56, 69982.88, -0.12195575, 0.36311284, -160723.77, 280048.7, 0.0, 10.004008, 9.996716 
2.8651983e+3, 2.650186e+2, -50439.477, -508919.28, 219261.2, -0.1346793, 0.36556122, 37537.277, 380385.63, 0.0, 10.003743, 9.997606 
2.864884e+3, 2.750097e+2, -145277.11, -535173.56, 163742.6, -0.17853907, 0.159217, -85634.59, 159296.77, 0.0, 10.002482, 9.997389 
2.8645703e+3, 2.8500244e+2, -166391.55, -367316.9, 59475.348, -0.071086064, 0.15638746, -150106.34, -3106.3345, 0.0, 10.001301, 9.998359 
2.8642562e+3, 2.9499617e+2, -216178.45, -391545.9, 29584.988, 0.15702559, 0.13621823, -211321.88, -162260.88, 0.0, 10.000403, 9.997996 
2.8639385e+3, 3.049911e+2, -117463.516, -150590.84, 140223.81, -0.058549833, 0.27908492, 7171.526, 7171.526, 0.0, 9.999829, 9.999253 
2.863619e+3, 3.1498724e+2, -151780.11, -220989.9, 86600.82, -0.5858235, 0.35317135, -93126.23, -93126.23, 0.0, 9.999513, 9.998639 
2.863304e+3, 3.2497722e+2, -380340.34, -294782.6, -241821.98, -0.21682876, -0.0008299117, -91984.78, -91984.78, 0.0, 9.997859, 9.99878 
2.8792834e+3, 1.3541354e+2, -1760862.1, -2215863.5, -114615.57, -0.45136726, 0.22537023, -1733621.1, -120647.24, 0.00000033823923, 10.001773, 9.995457 
2.878967e+3, 1.4540967e+2, -1302998.8, -1636641.1, 18684.617, -0.19266658, 0.6668381, -1301955.6, 213078.1, 0.000000039050374, 10.002923, 9.998299 
2.8786504e+3, 1.5540186e+2, -1320292.5, -1669718.3, 11584.507, -0.19927883, 0.43562454, -1319908.9, 97198.4, 0.0000000006124831, 10.00245, 9.997648 
2.878338e+3, 1.6539648e+2, -1126397.3, -1261064.5, 117566.36, 0.01559129, 0.5162945, -1058247.8, 260911.25, 0.0, 10.002046, 9.999905 
2.8780273e+3, 1.7539237e+2, -1186345.1, -1334214.1, 132571.4, 0.22680105, 0.52813274, -1108485.4, 112714.96, 0.0, 10.001323, 9.9991255 
2.8777137e+3, 1.8538767e+2, -1006724.5, -1062488.0, 143332.75, 0.11239914, 0.5953054, -888586.8, 234655.31, 0.0, 10.001385, 10.0002775 
2.877399e+3, 1.9538167e+2, -977757.9, -1100825.6, 123349.68, -0.15087111, 0.38572508, -901445.56, 123846.06, 0.0, 10.001264, 9.999453 
2.877084e+3, 2.0537616e+2, -908593.06, -986689.5, -12430.717, -0.19978587, 0.3930221, -906662.2, 20678.16, 0.0, 10.001065, 9.999582 
2.8767687e+3, 2.1537018e+2, -993930.7, -1085232.6, -4766.16, -0.09999616, 0.2586331, -993682.56, -164285.33, 0.0, 10.0002, 9.998696 
2.8764558e+3, 2.2536393e+2, -850819.6, -974077.56, 192037.66, -0.045060676, 0.28076527, -710764.2, 20695.46, 0.0, 10.000569, 9.998562 
2.8761446e+3, 2.3535705e+2, -721511.2, -975341.06, 200728.39, 0.016242294, 0.1540924, -610940.8, 22590.066, 0.0, 10.001244, 9.997596 
2.87583e+3, 2.453511e+2, -407624.97, -723326.0, 70851.59, -0.014511264, 0.29594964, -392453.13, 143137.6, 0.0, 10.002518, 9.998019 
2.8755128e+3, 2.5534505e+2, -319389.5, -740377.1, 94957.19, -0.12526387, 0.31486657, -298962.3, 138687.42, 0.0, 10.002887, 9.997091 
2.875197e+3, 2.6533803e+2, -248319.78, -677819.9, 169052.0, -0.13790826, 0.43947798, -189763.84, 149954.06, 0.0, 10.002846, 9.996824 
2.8748834e+3, 2.753294e+2, -431717.47, -811665.9, 127931.21, -0.052652147, 0.31198257, -392657.63, -150854.75, 0.0, 10.001247, 9.996051 
2.8745675e+3, 2.853216e+2, -246538.25, -382071.0, 31920.658, -0.014692111, 0.3090421, -239396.63, -95519.04, 0.0, 10.000711, 9.998511 
2.87425e+3, 2.953139e+2, -351581.38, -505979.63, 34940.105, -0.03939433, 0.11027431, -344042.6, -298092.28, 0.0, 9.999748, 9.997526 
2.8739333e+3, 3.0530974e+2, -225060.56, -231634.14, 100716.69, -0.12542886, 0.3817924, -127577.05, -127577.05, 0.0, 9.999368, 9.99889 
2.8736186e+3, 3.1530783e+2, -496495.97, -539932.6, 72583.64, -0.12695394, 0.69031864, -442451.06, -442451.06, 0.0, 9.997924, 9.997213 
2.873295e+3, 3.2529685e+2, -490005.16, -68679.9, -221914.34, -0.48641124, 0.097090445, 26639.04, 26639.04, 0.0, 9.996222, 10.000979 
2.889285e+3, 1.3573009e+2, -1927596.5, -2158108.0, -103452.3, 0.025453119, 0.3794659, -1887977.3, -278100.75, 0.0000000032251708, 9.999934, 9.99679 
2.8889644e+3, 1.4572404e+2, -1175017.8, -1507670.6, -53500.996, -0.35949638, 0.5051803, -1166624.9, 345326.6, 0.0, 10.003466, 9.998939 
2.8886488e+3, 1.5571779e+2, -1141599.8, -1538411.1, 46890.934, -0.24787359, 0.3983925, -1136134.0, 277873.66, 0.0, 10.003365, 9.998159 
2.8883356e+3, 1.6571279e+2, -1029391.06, -1222840.1, 103479.75, -0.0782947, 0.4832623, -984469.25, 331586.88, 0.0, 10.002638, 9.999924 
2.8880224e+3, 1.757087e+2, -1219741.5, -1349925.4, 122119.75, 0.0051842723, 0.5306545, -1146449.3, 71649.79, 0.0, 10.000941, 9.999258 
2.887709e+3, 1.8570365e+2, -1073497.1, -1043573.44, 167662.33, -0.007266052, 0.5239482, -890206.7, 229937.05, 0.0, 10.000578, 10.000844 
2.8873956e+3, 1.9569764e+2, -1013485.9, -1058277.3, 202719.2, -0.122050345, 0.30527043, -831929.0, 190263.52, 0.0, 10.000625, 10.000103 
2.8870812e+3, 2.0569254e+2, -853323.8, -938471.75, 80480.21, -0.13111211, 0.31040016, -804850.5, 119387.21, 0.0, 10.001194, 9.999898 
2.886766e+3, 2.1568754e+2, -681252.1, -891922.4, 114827.11, -0.08284702, 0.28307968, -630764.44, 195521.94, 0.0, 10.001972, 9.999225 
2.886453e+3, 2.2568153e+2, -623246.2, -845541.06, 245835.25, -0.029889567, 0.28903425, -464599.78, 263746.7, 0.0, 10.001918, 9.998853 
2.8861412e+3, 2.3567455e+2, -711725.5, -912173.94, 229048.6, 0.004169023, 0.16799851, -561933.44, 68483.92, 0.0, 10.000865, 9.998283 
2.8858274e+3, 2.4566884e+2, -516662.78, -729018.5, 126990.05, -0.021711312, 0.26202813, -457310.53, 75164.69, 0.0, 10.001485, 9.998528 
2.8855112e+3, 2.556633e+2, -201195.44, -620863.1, 100249.61, -0.13161716, 0.33065674, -178477.73, 256052.94, 0.0, 10.00327, 9.997797 
2.885196e+3, 2.6565683e+2, -131066.016, -565922.0, 114181.586, -0.0926238, 0.43373865, -102908.24, 233687.13, 0.0, 10.003381, 9.9973345 
2.8848815e+3, 2.7564907e+2, -220392.47, -650762.6, 132435.72, 0.037170652, 0.4002197, -182904.17, 55768.37, 0.0, 10.002353, 9.99665 
2.8845647e+3, 2.8564155e+2, -87864.484, -298422.16, 111860.31, 0.048692804, 0.3861448, -39532.246, 101213.03, 0.0, 10.001585, 9.998734 
2.8842458e+3, 2.9563385e+2, -157623.72, -367974.47, 112869.78, -0.041836888, 0.19896257, -108521.92, -65703.99, 0.0, 10.000729, 9.9980545 
2.8839293e+3, 3.0562878e+2, -86134.91, -163235.69, 231426.02, -0.031688258, 0.35526565, 109929.57, 109929.57, 0.0, 10.000268, 9.998984 
2.8836164e+3, 3.1562573e+2, -217456.7, -352646.6, 194062.58, 0.2430759, 0.61780566, -79553.81, -79553.81, 0.0, 9.9995, 9.997845 
2.8832874e+3, 3.2562068e+2, 92438.21, 461858.3, -211117.58, -0.49879822, 0.563845, 557662.9, 557662.9, 0.0, 9.998925, 10.003582 
2.8992864e+3, 1.3604468e+2, -1688898.8, -1869238.8, 132075.86, 0.55889595, 0.43020976, -1619148.0, -12347.503, 0.000000008553674, 10.000843, 9.998352 
2.8989625e+3, 1.4603734e+2, -1223315.3, -1414279.3, -60767.25, -0.40027466, 0.28861183, -1205618.4, 303260.3, 0.0, 10.002702, 9.999935 
2.8986487e+3, 1.560335e+2, -1254055.9, -1507441.8, 4993.461, -0.10881913, 0.30919248, -1253957.5, 156950.03, 0.0, 10.0023155, 9.998852 
2.898333e+3, 1.6602914e+2, -1123828.0, -1303169.0, 20506.99, -0.09825711, 0.44438487, -1121513.0, 191437.22, 0.0, 10.00227, 9.999495 
2.898015e+3, 1.7602403e+2, -1245211.4, -1430995.6, 25692.223, -0.32984206, 0.4115833, -1241723.9, -26718.01, 0.0, 10.001154, 9.998584 
2.8977028e+3, 1.8601868e+2, -1013724.56, -930087.6, 133059.02, -0.23455876, 0.36045846, -832430.4, 284621.9, 0.0, 10.000697, 10.001516 
2.897394e+3, 1.9601282e+2, -1110152.5, -1054009.8, 145593.55, 0.119489826, 0.051756598, -933806.1, 85289.79, 0.0, 9.999841, 10.000449 
2.8970802e+3, 2.0600872e+2, -971209.2, -978057.9, 65928.62, 0.15539159, 0.118379004, -908616.06, 12516.015, 0.0, 10.000413, 9.999933 
2.8967637e+3, 2.1600512e+2, -922311.94, -1050774.1, 99639.25, 0.019226715, 0.19712813, -867995.06, -44825.203, 0.0, 10.000628, 9.998728 
2.8964496e+3, 2.260001e+2, -793237.1, -930067.0, 189695.28, -0.064027496, 0.32566154, -659996.7, 65224.75, 0.0, 10.000944, 9.998646 
2.8961363e+3, 2.3599361e+2, -953307.44, -1115070.8, 182660.89, -0.106419876, 0.24706003, -834422.1, -207134.28, 0.0, 9.999699, 9.997413 
2.8958228e+3, 2.4598767e+2, -649383.8, -785751.75, 181423.14, -0.13572013, 0.35866436, -523754.97, 5594.9395, 0.0, 10.000719, 9.998397 
2.8955093e+3, 2.5598136e+2, -476670.2, -803094.56, 150603.45, -0.14472222, 0.3265645, -417802.2, 13613.846, 0.0, 10.001757, 9.997199 
2.8951946e+3, 2.6597488e+2, -183567.19, -454463.5, 83009.51, -0.084063075, 0.3933063, -160154.45, 173326.14, 0.0, 10.00255, 9.998446 
2.894879e+3, 2.7596793e+2, -320774.72, -632068.3, 114951.1, 0.011532123, 0.3016989, -282928.16, -47380.348, 0.0, 10.00147, 9.997191 
2.8945613e+3, 2.8596193e+2, -131624.94, -254618.83, 66466.07, 0.020984158, 0.383833, -102570.164, 35036.13, 0.0, 10.001161, 9.999193 
2.8942424e+3, 2.9595593e+2, -289222.94, -437598.88, 108795.29, -0.0046295472, 0.3190345, -231728.44, -192063.31, 0.0, 9.999995, 9.997889 
2.8939232e+3, 3.0595002e+2, 42623.277, 38223.0, 230271.08, -0.2007849, 0.30550066, 270704.72, 270704.72, 0.0, 10.000786, 9.9999 
2.8936046e+3, 3.1594515e+2, -272837.4, -524159.88, 250934.42, -0.51736313, 0.297364, -117858.6, -117858.6, 0.0, 9.99996, 9.996312 
2.8932843e+3, 3.2594287e+2, -336225.0, 296957.44, -178379.31, -0.32676646, 0.44867635, 343751.9, 343751.9, 0.0, 9.996281, 10.003359 
2.909278e+3, 1.3635813e+2, -1428759.9, -1572690.4, 56673.813, -0.11750064, 0.4039605, -1409123.3, 194616.98, 0.000000011355019, 10.001747, 10.000024 
2.9089618e+3, 1.4635468e+2, -1323159.8, -1412084.3, -93072.78, -0.24121968, 0.5547956, -1264474.4, 241293.94, 0.0, 10.001691, 10.000489 
2.9086468e+3, 1.56348e+2, -1323213.4, -1500481.0, -27524.72, -0.08135153, 0.24904478, -1319037.9, 88784.97, 0.0, 10.001548, 9.999319 
2.9083315e+3, 1.6634278e+2, -1175155.0, -1452732.3, -41154.04, -0.054901037, 0.32487988, -1169181.9, 140694.69, 0.0, 10.002399, 9.998427 
2.9080144e+3, 1.7633796e+2, -973661.4, -1380470.3, -59729.633, -0.2687011, 0.44100472, -965072.9, 246861.06, 0.0, 10.00324, 9.997967 
2.9077008e+3, 1.8633303e+2, -717438.94, -787361.9, -64007.645, -0.18517168, 0.4346527, -679466.94, 434510.5, 0.0, 10.002613, 10.001631 
2.90739e+3, 1.9632801e+2, -1001796.4, -975414.3, -56631.277, 0.087062955, 0.21490012, -930458.06, 85554.79, 0.0, 10.000329, 10.000806 
2.9070762e+3, 2.063238e+2, -981403.1, -977819.5, -109055.414, 0.13578911, 0.22960602, -870541.2, 47508.684, 0.0, 10.000179, 10.000097 
2.90676e+3, 2.1631983e+2, -852926.4, -959222.0, -81779.766, -0.01852301, 0.26382756, -808541.5, 11549.059, 0.0, 10.000702, 9.999366 
2.9064462e+3, 2.2631508e+2, -712612.6, -809427.94, -6036.1494, -0.054829303, 0.32868958, -712237.75, 9900.583, 0.0, 10.001057, 9.99946 
2.906133e+3, 2.3630932e+2, -644631.06, -846599.75, 39562.973, -0.06115781, 0.26261654, -637157.7, -12961.765, 0.0, 10.001139, 9.998613 
2.90582e+3, 2.4630399e+2, -523589.8, -693928.2, 105225.27, -0.07130578, 0.3489852, -473384.9, 52866.51, 0.0, 10.00125, 9.998851 
2.905507e+3, 2.5629857e+2, -467111.1, -693277.4, 92009.24, -0.08354329, 0.3785658, -434408.44, -6099.7793, 0.0, 10.001155, 9.998292 
2.9051918e+3, 2.662927e+2, -282080.38, -419325.3, 20846.21, -0.09204199, 0.3907981, -278983.88, 51384.24, 0.0, 10.001283, 9.999387 
2.9048747e+3, 2.7628633e+2, -230650.36, -440303.28, 15361.114, -0.09591268, 0.27766132, -229530.84, 2898.9175, 0.0, 10.001261, 9.99866 
2.9045567e+3, 2.8628182e+2, -197265.1, -185331.73, -17471.25, -0.021761727, 0.37581065, -172836.4, -38361.297, 0.0, 10.000227, 10.000132 
2.9042357e+3, 2.9627818e+2, -451677.2, -330399.2, 162419.31, -0.111148134, 0.4752133, -217668.3, -181155.8, 0.0, 9.997849, 9.999687 
2.91927e+3, 1.3667305e+2, -1438889.1, -1397897.1, 80561.49, -0.60927206, 0.5102719, -1335265.3, 265398.56, 0.00000000463828, 10.000997, 10.001514 
2.918961e+3, 1.466728e+2, -1265539.0, -1361375.3, -56097.29, 0.008325461, 0.88835573, -1239680.1, 262970.25, 0.0, 10.002052, 10.000604 
2.9186445e+3, 1.5666237e+2, -1404293.4, -1578134.9, -34716.793, 0.027190555, 0.19317181, -1397616.8, 7124.303, 0.0, 10.001222, 9.998918 
2.9183304e+3, 1.6665593e+2, -1349952.5, -1686702.5, 12622.573, 0.070538305, 0.2359887, -1349480.0, -42670.348, 0.0, 10.001862, 9.997079 
2.9180157e+3, 1.7665122e+2, -1250900.3, -1661643.1, -2690.781, 0.035716444, 0.48797974, -1250882.6, -42012.207, 0.0, 10.002062, 9.996593 
2.9177e+3, 1.8664727e+2, -853906.9, -852800.2, -84363.414, -0.0074372985, 0.6238274, -768988.3, 341918.84, 0.0, 10.0018215, 10.001475 
2.917385e+3, 1.9664308e+2, -1153328.5, -1140132.6, -86625.08, 0.04236427, 0.4920658, -1059854.5, -46917.71, 0.0, 9.9997425, 9.999952 
2.9170704e+3, 2.0663825e+2, -1033548.7, -990155.7, -40772.785, 0.015460525, 0.48071438, -965666.06, -50686.348, 0.0, 9.999912, 10.0000925 
2.9167554e+3, 2.1663284e+2, -1051110.0, -1083883.4, -32390.58, -0.065796345, 0.35712546, -1031196.94, -214164.7, 0.0, 9.9995985, 9.999026 
2.9164428e+3, 2.2662771e+2, -748619.4, -685979.44, 16045.874, -0.021521684, 0.31886604, -682108.4, 36973.543, 0.0, 10.00031, 10.000614 
2.9161307e+3, 2.3662227e+2, -828837.4, -862505.7, 41522.46, 0.101062894, 0.14682192, -800866.4, -179732.22, 0.0, 9.999713, 9.999147 
2.915818e+3, 2.4661832e+2, -599875.1, -625140.44, 99471.83, 0.09445901, 0.28633124, -512237.03, 10936.797, 0.0, 10.000408, 9.999655 
2.9155043e+3, 2.566149e+2, -652217.44, -740915.3, 95992.82, -0.0025780404, 0.40028936, -590824.0, -165614.42, 0.0, 9.999828, 9.998576 
2.9151872e+3, 2.6661038e+2, -339717.28, -312813.0, 18291.344, -0.18850851, 0.46613917, -303559.78, 23697.154, 0.0, 10.000526, 10.000358 
2.914868e+3, 2.766048e+2, -373567.5, -435903.22, 22126.086, -0.42102462, 0.29949906, -366512.34, -137197.63, 0.0, 10.000107, 9.999202 
2.91455e+3, 2.8660145e+2, -210109.38, -61579.65, -89885.81, -0.21886961, 0.41770536, -19248.076, 112101.914, 0.0, 9.999705, 10.001163 
2.914226e+3, 2.9660067e+2, -445059.34, -28229.924, 432176.94, -0.45163774, 0.60425156, 243161.16, 276520.5, 0.0, 9.996778, 10.002239 
2.929271e+3, 1.3698937e+2, -1443927.4, -1229520.5, 248217.56, -0.25995874, 0.59388167, -1066345.4, 531216.56, 0.0, 10.000111, 10.003154 
2.9289585e+3, 1.4698541e+2, -1230944.6, -1460600.0, -92477.11, -0.072114706, 0.5990187, -1198336.3, 301247.9, 0.0, 10.002659, 9.9997 
2.9286417e+3, 1.5697818e+2, -1428824.3, -1642376.3, -71198.83, -0.025575638, 0.33387822, -1407263.3, -5612.0796, 0.0, 10.001148, 9.998565 
2.9283276e+3, 1.6697247e+2, -1331929.8, -1520384.1, 60251.27, 0.11094413, 0.37778398, -1314313.4, -10603.051, 0.0, 10.00122, 9.998571 
2.9280138e+3, 1.7696734e+2, -1262811.8, -1514644.3, 156315.66, 0.08868115, 0.47264507, -1188005.6, 17762.588, 0.0, 10.001196, 9.998065 
2.9276976e+3, 1.8696247e+2, -968476.56, -1030368.5, 36634.926, 0.017648606, 0.52672046, -951466.6, 156348.36, 0.0, 10.001474, 10.000458 
2.9273808e+3, 1.9695747e+2, -948189.25, -1068475.6, 14457.481, -0.039986037, 0.44655332, -946476.0, 63382.38, 0.0, 10.001151, 9.999791 
2.927066e+3, 2.0695253e+2, -758449.5, -783579.25, 88545.44, -0.021697776, 0.39380676, -681581.9, 230320.36, 0.0, 10.001394, 10.000848 
2.926752e+3, 2.1694732e+2, -735711.4, -845808.3, 141152.61, -0.04255092, 0.25609568, -639252.75, 174697.02, 0.0, 10.001175, 9.999979 
2.926439e+3, 2.2694321e+2, -605408.94, -675107.56, 153413.22, -0.000036027537, 0.3218727, -482936.63, 233055.53, 0.0, 10.001287, 10.000369 
2.9261264e+3, 2.3693937e+2, -544257.7, -670921.1, 114354.836, 0.050742716, 0.37080565, -476868.6, 141165.25, 0.0, 10.00117, 9.999872 
2.925814e+3, 2.4693505e+2, -400307.44, -433988.25, 140284.64, 0.07024834, 0.3851957, -275856.03, 244219.72, 0.0, 10.001228, 10.000641 
2.9255012e+3, 2.5693047e+2, -331806.4, -432046.2, 98129.81, 0.04605441, 0.32355255, -271738.0, 150380.6, 0.0, 10.001165, 10.000127 
2.9251826e+3, 2.6692754e+2, -417036.03, -237984.16, 9181.408, -0.18755814, 0.4209195, -237514.6, 86634.5, 0.0, 9.99937, 10.001498 
2.924861e+3, 2.769247e+2, -689294.25, -425265.88, 14928.36, -0.5130709, 0.4377607, -424424.5, -198244.14, 0.0, 9.997028, 10.00082 
2.9245454e+3, 2.869209e+2, -268398.75, -94434.07, -71589.17, -0.124664485, 0.435171, -68762.35, 59458.63, 0.0, 9.999085, 10.001369 
2.924225e+3, 2.9692036e+2, 273921.1, 331444.6, 404126.56, -0.038922943, 0.65766263, 707831.6, 738059.94, 0.0, 10.001363, 10.0026 
2.939272e+3, 1.3730492e+2, -1427147.3, -1105448.0, 486407.13, 0.2744782, 0.5918736, -753984.75, 840478.94, 0.0, 9.999775, 10.004165 
2.9389554e+3, 1.4729726e+2, -1469560.1, -1662334.8, -90763.21, -0.11744502, 0.23278584, -1433552.4, 62972.625, 0.0, 10.001546, 9.998794 
2.9386386e+3, 1.5729485e+2, -1464827.3, -1714193.8, -63178.664, 0.041174803, 0.5365349, -1449734.1, -51180.29, 0.0, 10.001264, 9.997987 
2.9383248e+3, 1.6729033e+2, -1168625.9, -1192004.4, 93091.13, 0.17596427, 0.5910502, -1086492.9, 214104.6, 0.0, 10.001378, 10.00069 
2.938011e+3, 1.7728451e+2, -1298551.4, -1408868.8, 132156.45, 0.16543323, 0.39700642, -1210504.5, -7852.9297, 0.0, 10.000533, 9.999052 
2.9376942e+3, 1.8727835e+2, -1162426.6, -1283438.8, 35366.574, 0.0456131, 0.3598967, -1152848.6, -48136.53, 0.0, 10.000928, 9.998943 
2.9373774e+3, 1.9727188e+2, -1175044.9, -1311523.0, 38591.61, -0.009245438, 0.2663537, -1164888.3, -158111.92, 0.0, 10.000315, 9.998492 
2.937063e+3, 2.0726703e+2, -786697.44, -679136.3, 103297.89, 0.024688961, 0.189913, -616457.44, 292360.94, 0.0, 10.00082, 10.001768 
2.9367495e+3, 2.1726254e+2, -979397.3, -1001848.6, 128637.875, 0.09603271, 0.03945993, -861496.2, -50641.44, 0.0, 9.999786, 9.999559 
2.9364356e+3, 2.2726063e+2, -814805.8, -875850.3, 163712.19, 0.020404346, 0.38929823, -678794.94, 34086.125, 0.0, 10.000469, 9.999259 
2.9361212e+3, 2.3725948e+2, -861252.3, -955032.0, 136797.75, -0.11315158, 0.7797099, -763531.4, -148625.55, 0.0, 9.999756, 9.998524 
2.9358092e+3, 2.4725336e+2, -501677.72, -385820.4, 152225.03, -0.092443526, 0.6110787, -280874.28, 236089.98, 0.0, 10.000319, 10.001314 
2.9354972e+3, 2.572454e+2, -562299.56, -486706.94, 83788.94, 0.013868403, 0.11939174, -432584.0, -13549.174, 0.0, 9.999548, 10.0004835 
2.9351774e+3, 2.6724452e+2, -435451.6, -102308.766, -88419.12, -0.13905032, 0.31792727, -80296.05, 240745.72, 0.0, 9.998708, 10.002736 
2.9348543e+3, 2.7724588e+2, -880273.44, -470985.38, -11109.864, -0.4372353, 0.62501913, -470684.03, -247655.14, 0.0, 9.995669, 10.001139 
2.9345426e+3, 2.8723925e+2, -399143.47, -246735.56, 75239.58, 0.17117155, 0.3735107, -215850.6, -90754.65, 0.0, 9.998774, 10.00039 
2.934222e+3, 2.9723582e+2, -94986.79, -162802.78, 210279.28, -0.14817195, 0.4380303, 84100.81, 111233.06, 0.0, 10.000502, 9.999516 
2.949269e+3, 1.3762105e+2, -1583184.6, -1316532.3, 388922.78, 0.32869545, 0.549525, -1038717.56, 552636.9, 0.0, 9.999193, 10.003041 
2.9489505e+3, 1.4761259e+2, -1615643.9, -1700375.4, -37196.168, -0.25748137, 0.13351056, -1601632.1, -108202.49, 0.0, 10.000365, 9.999137 
2.948637e+3, 1.5761077e+2, -1298090.1, -1592421.0, 19824.1, 0.09378458, 0.4907776, -1296761.0, 98692.92, 0.0, 10.002109, 9.998475 
2.948323e+3, 1.6760609e+2, -1077567.8, -1182627.1, 50056.57, 0.21452107, 0.5223092, -1057536.9, 239964.61, 0.0, 10.001998, 10.000537 
2.9480064e+3, 1.7760031e+2, -1246459.5, -1329247.4, 30240.559, 0.022647291, 0.36155525, -1236589.9, -37032.445, 0.0, 10.000496, 9.999674 
2.94769e+3, 1.8759575e+2, -1074305.0, -1112886.5, 28183.701, -0.02500936, 0.37401876, -1059442.4, 42159.76, 0.0, 10.00086, 10.000194 
2.9473743e+3, 1.9759138e+2, -946349.0, -1085018.1, 137561.75, -0.00194924, 0.3968306, -861636.44, 142008.83, 0.0, 10.0012245, 9.999655 
2.9470596e+3, 2.0758685e+2, -725735.4, -710716.6, 158292.2, 0.022593115, 0.3518531, -559755.75, 345929.63, 0.0, 10.001336, 10.001385 
2.946745e+3, 2.175821e+2, -792784.0, -882119.2, 125691.43, -0.0028492876, 0.23691949, -704059.2, 103666.984, 0.0, 10.000763, 9.999956 
2.946431e+3, 2.2757846e+2, -762110.6, -851045.3, 196769.17, -0.02497307, 0.39717802, -604846.8, 104921.31, 0.0, 10.000728, 9.999357 
2.9461178e+3, 2.3757546e+2, -654014.2, -762524.8, 203026.14, -0.07905619, 0.6186212, -498118.97, 113689.56, 0.0, 10.000609, 9.999478 
2.945805e+3, 2.4757105e+2, -530200.4, -345323.3, 246279.03, -0.04269137, 0.5549791, -174706.25, 339142.97, 0.0, 9.999679, 10.00203 
2.9454926e+3, 2.5756544e+2, -611065.8, -427762.63, 176225.44, 0.0630538, 0.27107686, -320780.34, 95116.09, 0.0, 9.998623, 10.0014305 
2.9451725e+3, 2.6756322e+2, -331732.6, -136008.02, -77737.9, -0.053978924, 0.3530692, -108889.48, 209028.19, 0.0, 9.99964, 10.002115 
2.944849e+3, 2.7756274e+2, -89596.1, -118019.85, -137186.75, -0.32336724, 0.5531442, 34112.945, 254037.77, 0.0, 10.001057, 10.001015 
2.9445383e+3, 2.8755578e+2, -156733.5, -203627.53, 24969.344, 0.27098852, 0.29060426, -145928.06, -23934.521, 0.0, 10.000582, 9.999918 
2.9442114e+3, 2.9755324e+2, -112799.375, -199853.27, -4304.6978, -0.7956467, 0.5391839, -112587.03, -88568.7, 0.0, 10.000157, 9.999535 
2.9592654e+3, 1.3793603e+2, -1686403.5, -1532882.3, 266253.56, 0.45575014, 0.4464682, -1332545.1, 255712.58, 0.00000000001490612, 9.999304, 10.00149 
2.9589453e+3, 1.4792791e+2, -1552099.6, -1587322.0, -2729.828, -0.31056154, 0.0737994, -1551889.4, -61554.71, 0.0, 10.000523, 9.999816 
2.9586357e+3, 1.5792562e+2, -1503301.0, -1680450.3, 33110.676, 0.26788503, 0.3249791, -1497314.6, -104952.44, 0.0, 10.000722, 9.998522 
2.9583204e+3, 1.6792083e+2, -1332998.4, -1383699.1, 12343.569, 0.27931428, 0.38044173, -1330152.9, -35738.082, 0.0, 10.000663, 9.999762 
2.958001e+3, 1.7791536e+2, -1445760.8, -1431667.5, 50661.344, -0.054991294, 0.30703658, -1387565.1, -191091.52, 0.0, 9.999258, 9.999546 
2.9576853e+3, 1.8791367e+2, -1007930.4, -824580.1, 77382.93, -0.08435216, 0.4506735, -796286.75, 302202.66, 0.0, 10.000347, 10.002352 
2.9573718e+3, 1.9791262e+2, -1049119.1, -1072807.6, 149919.56, 0.11841405, 0.6121102, -910576.7, 89920.31, 0.0, 10.000381, 10.000119 
2.9570562e+3, 2.079088e+2, -882874.56, -894596.75, 139966.95, 0.03316019, 0.67743903, -748646.06, 153887.23, 0.0, 10.000915, 10.00023 
2.9567394e+3, 2.1790366e+2, -1052527.0, -1133020.6, 116700.055, -0.15162827, 0.6159435, -969328.6, -164745.89, 0.0, 9.999731, 9.99866 
2.9564264e+3, 2.2789584e+2, -810072.9, -799847.94, 188681.13, -0.0742206, 0.35162637, -616210.0, 90449.81, 0.0, 10.000181, 9.999916 
2.9561153e+3, 2.3788816e+2, -892202.2, -851462.94, 178476.66, 0.10761042, 0.027263237, -692197.3, -83460.79, 0.0, 9.998998, 9.999628 
2.9558015e+3, 2.4788845e+2, -551815.9, -243325.14, 187404.45, 0.12950397, 0.3438877, -154852.44, 355877.78, 0.0, 9.999173, 10.002901 
2.9554868e+3, 2.578902e+2, -852748.4, -629901.3, 164246.47, 0.12222597, 0.7138214, -542850.44, -130142.234, 0.0, 9.997499, 10.000526 
2.9551676e+3, 2.6788363e+2, -624412.56, -574787.56, -15940.869, -0.034733355, 0.5477207, -570108.2, -255329.7, 0.0, 9.99905, 9.999296 
2.954845e+3, 2.7787504e+2, -451122.06, -570751.75, -116638.96, -0.35356402, 0.19988875, -379855.0, -162983.64, 0.0, 9.999939, 9.998393 
2.9545313e+3, 2.8787187e+2, -189928.98, -160350.11, -30223.215, -0.047637712, 0.34135407, -141491.81, -22590.701, 0.0, 10.000259, 10.000279 
2.95421e+3, 2.9786667e+2, -12209.48, 248255.02, 148402.22, -0.5804655, 0.22214243, 315465.56, 336409.44, 0.0, 9.999302, 10.002986 
2.9692593e+3, 1.3824831e+2, -1610120.5, -1593854.6, 158145.08, 0.1642274, 0.3537383, -1443633.5, 141566.31, 0.00000010737005, 10.00016, 10.000689 
2.9689437e+3, 1.4824225e+2, -1447522.1, -1381312.5, -84014.734, -0.08069001, 0.11091553, -1324115.5, 163142.36, 0.0, 10.000499, 10.001269 
2.9686302e+3, 1.5824084e+2, -1579036.4, -1541450.3, -30898.54, 0.10097013, 0.32037422, -1524078.5, -134805.89, 0.0, 9.999339, 10.000174 
2.9683143e+3, 1.6823791e+2, -1437220.8, -1296253.0, 22337.621, 0.15926735, 0.41010904, -1292798.0, -1492.2836, 0.0, 9.999244, 10.001103 
2.9679963e+3, 1.7823407e+2, -1367233.0, -1272756.3, 128301.62, -0.0547184, 0.39649153, -1183273.1, 10075.6, 0.0, 9.999133, 10.000734 
2.9676813e+3, 1.8823138e+2, -958472.75, -795223.0, 142473.97, -0.09803851, 0.40366566, -712648.44, 382722.97, 0.0, 10.000515, 10.002542 
2.9673675e+3, 1.9822888e+2, -835145.2, -931370.06, 120323.43, -0.041069888, 0.40939957, -753671.56, 243718.64, 0.0, 10.00149, 10.000613 
2.9670528e+3, 2.0822474e+2, -785713.94, -957926.7, 76841.375, -0.013984921, 0.49358293, -756412.75, 143020.1, 0.0, 10.001947, 9.999357 
2.9667372e+3, 2.1822003e+2, -721786.06, -965304.7, 61262.94, -0.06048039, 0.56408304, -707242.5, 94240.47, 0.0, 10.00179, 9.998882 
2.9664233e+3, 2.2821344e+2, -644380.1, -706304.6, 111425.77, -0.016439741, 0.40622604, -559694.8, 143853.61, 0.0, 10.001096, 10.000212 
2.96611e+3, 2.3820637e+2, -658059.75, -660143.44, 83204.01, 0.03831426, 0.13394961, -575891.06, 29726.031, 0.0, 10.0000925, 10.000454 
2.965796e+3, 2.4820514e+2, -295868.88, -120404.29, 64755.273, 0.054783493, 0.26898876, -99094.38, 408531.13, 0.0, 10.000806, 10.003002 
2.9654816e+3, 2.5820595e+2, -166453.19, -243705.33, -46727.375, 0.057050765, 0.5401606, -144454.02, 265159.78, 0.0, 10.001798, 10.001129 
2.9651627e+3, 2.6820058e+2, -247525.14, -433329.16, -63923.523, -0.059022322, 0.48244092, -227657.47, 84015.92, 0.0, 10.001621, 9.999138 
2.9648417e+3, 2.7819285e+2, -265802.22, -469070.9, 11253.913, -0.30157155, 0.2784135, -265181.03, -51421.875, 0.0, 10.000938, 9.998692 
2.9645258e+3, 2.881919e+2, -106681.984, -114091.195, 54141.016, -0.1504428, 0.6519744, -56118.98, 59648.176, 0.0, 10.000693, 10.00046 
2.9642096e+3, 2.9818258e+2, 112389.67, 533137.56, 179406.8, -0.11823116, 0.1180736, 599248.7, 617097.9, 0.0, 9.99906, 10.005105 
2.979255e+3, 1.3856241e+2, -1646397.5, -1649029.4, 249692.03, 0.13325645, 0.46954048, -1398018.0, 184107.22, 0.00000019973128, 10.000145, 10.000324 
2.9789427e+3, 1.4855714e+2, -1376661.8, -1187228.0, -62760.56, 0.21799794, 0.23709245, -1168321.9, 315854.8, 0.000000000008976791, 10.000382, 10.002655 
2.9786238e+3, 1.5855674e+2, -1482212.5, -1344204.9, -54606.766, -0.00636322, 0.39197683, -1325211.9, 60965.832, 0.0, 9.999439, 10.001499 
2.978308e+3, 1.6855602e+2, -1253719.1, -1002110.5, -25918.945, 0.06906189, 0.5279616, -999468.25, 288718.97, 0.0, 9.99974, 10.002857 
2.9779923e+3, 1.7855404e+2, -1395895.0, -1267696.6, 76696.28, 0.09217996, 0.5522137, -1231840.6, -41631.1, 0.0, 9.998968, 10.000857 
2.9776773e+3, 1.8854876e+2, -1091067.4, -938939.9, 97575.62, -0.051328834, 0.33798596, -891283.44, 200971.17, 0.0, 10.000069, 10.001748 
2.977363e+3, 1.9854322e+2, -1126489.5, -1171975.0, 52979.402, -0.17760895, 0.09081261, -1091577.6, -97277.52, 0.0, 10.000062, 9.999631 
2.9770496e+3, 2.0853788e+2, -1006425.25, -1162050.4, 15045.3, -0.016806353, 0.11221179, -1004984.06, -108626.734, 0.0, 10.00086, 9.998484 
2.976737e+3, 2.1853362e+2, -1105963.1, -1236673.6, 29446.79, 0.27874255, 0.28480902, -1099635.5, -301228.4, 0.0, 9.999648, 9.998047 
2.9764208e+3, 2.2853191e+2, -822624.25, -760048.75, 70084.39, 0.12727232, 0.6013944, -714585.3, -14157.17, 0.0, 9.999925, 10.000338 
2.976103e+3, 2.3852901e+2, -978941.06, -913642.75, 85537.01, -0.16493338, 0.761804, -854735.6, -252276.63, 0.0, 9.998499, 9.999455 
2.9757896e+3, 2.4852118e+2, -522685.78, -288742.88, 100600.14, -0.19715597, 0.29783255, -251433.06, 253099.6, 0.0, 9.999702, 10.002321 
2.9754767e+3, 2.5851372e+2, -521444.03, -468259.97, -25942.377, -0.13595739, -0.1724654, -457701.72, -51100.254, 0.0, 9.999756, 10.000557 
2.9751587e+3, 2.6851466e+2, -201142.47, -115256.88, -93982.484, -0.14565958, 0.22790015, -54871.117, 253725.03, 0.0, 10.000856, 10.001624 
2.9748383e+3, 2.785165e+2, -433680.53, -471885.6, 2291.077, -0.2798391, 0.75196815, -433543.63, -222959.69, 0.0, 9.999653, 9.999267 
2.974523e+3, 2.885149e+2, -304584.97, -299459.38, 25392.82, -0.029389216, 1.0901057, -276500.34, -163897.23, 0.0, 9.999903, 9.999535 
2.974203e+3, 2.9850614e+2, -212613.86, 195929.28, 156194.5, -0.31921202, 0.6905866, 248802.81, 263489.66, 0.0, 9.997918, 10.003269 
2.9892555e+3, 1.3888241e+2, -1766905.0, -1754149.4, 295345.28, 0.41255987, 0.7022658, -1465113.0, 113863.97, 0.000000019519112, 9.999498, 9.999999 
2.9889354e+3, 1.4887318e+2, -1543234.8, -1392212.0, 7596.4106, -0.09569435, 0.1945628, -1391830.9, 89244.92, 0.0, 9.999787, 10.001609 
2.98862e+3, 1.5886971e+2, -1496201.5, -1491602.1, -48475.05, 0.016157674, 0.1761673, -1445372.3, -62259.95, 0.0, 9.9999, 10.000296 
2.988303e+3, 1.688679e+2, -1285523.0, -1192261.9, -162049.0, -0.011568787, 0.36064962, -1070267.8, 214863.3, 0.0, 10.000274, 10.00131 
2.9879847e+3, 1.7886674e+2, -1258384.5, -1275181.9, -175943.8, -0.26831454, 0.59652656, -1090639.0, 96504.375, 0.0, 10.000185, 10.0002365 
2.9876724e+3, 1.8886003e+2, -1152365.5, -1099523.5, -177897.36, -0.12834354, 0.33444896, -946095.8, 143113.28, 0.0, 10.000156, 10.000677 
2.9873616e+3, 1.9885255e+2, -1317890.0, -1212341.8, -280152.9, 0.15841715, -0.011163392, -980035.6, 11245.979, 0.0, 9.99843, 10.000181 
2.9870465e+3, 2.0884962e+2, -1192689.4, -943515.0, -202333.45, 0.19173338, 0.047035385, -830487.4, 62824.48, 0.0, 9.998212, 10.001309 
2.98673e+3, 2.1884705e+2, -1103339.8, -963813.94, -46379.19, 0.08605471, 0.14349699, -949804.0, -154464.3, 0.0, 9.998308, 10.000622 
2.9864156e+3, 2.2884573e+2, -758164.5, -614792.06, 82241.14, 0.09030462, 0.363576, -577379.6, 119972.664, 0.0, 9.99972, 10.0015335 
2.986102e+3, 2.3884565e+2, -493269.66, -579987.06, 117710.96, 0.114943735, 0.7035263, -411185.78, 188167.03, 0.0, 10.00123, 10.000511 
2.985787e+3, 2.4884042e+2, -774798.5, -612357.7, 48483.707, 0.0991864, 0.6100948, -598987.25, -97581.98, 0.0, 9.998756, 10.000633 
2.9854718e+3, 2.5883275e+2, -1146089.3, -774045.0, -70004.53, 0.067234926, 0.27643946, -761308.8, -357827.4, 0.0, 9.995286, 10.000705 
2.9851547e+3, 2.6883024e+2, -398897.2, -56246.727, -97263.5, -0.035486992, 0.26767042, -30563.014, 274943.4, 0.0, 9.998749, 10.003168 
2.9848358e+3, 2.788304e+2, 196095.67, -10874.004, -150231.28, -0.23476312, 0.49823096, 275034.94, 482540.44, 0.0, 10.003118, 10.000911 
2.9845166e+3, 2.8882387e+2, -115340.555, -229061.95, -164488.3, -0.17490236, 0.30353406, 1837.6564, 111412.09, 0.0, 10.001163, 9.999648 
2.9841956e+3, 2.9881886e+2, -6690.796, 125143.984, 235579.27, -0.47947773, 0.3553551, 303854.25, 315480.28, 0.0, 9.999719, 10.002227 
2.9992488e+3, 1.3918984e+2, -1575080.4, -1846242.3, -265910.4, 0.13991137, -0.30310282, -1412180.9, 163773.9, 0.000000013810121, 10.001399, 9.998505 
2.9989251e+3, 1.491927e+2, -1235531.4, -1401881.6, -82004.21, -0.61900944, 0.46676102, -1201904.1, 276037.53, 0.0, 10.002611, 10.000073 
2.9986212e+3, 1.591892e+2, -1129174.8, -1569574.9, -23348.693, 0.48905137, 0.58079296, -1127940.4, 252043.16, 0.0, 10.003421, 9.998005 
2.9983023e+3, 1.6918027e+2, -858133.5, -1189756.4, 112626.36, 0.33411556, 0.20363167, -823500.06, 458567.84, 0.0, 10.00407, 9.999339 
2.9979822e+3, 1.7917325e+2, -792065.6, -1275719.3, 349410.75, -0.19741562, 0.03746591, -608959.4, 575174.56, 0.0, 10.004266, 9.998241 
2.9976672e+3, 1.8917523e+2, -950599.6, -1081976.3, 439437.28, -0.20747617, 0.72013575, -571968.1, 514157.22, 0.0, 10.001847, 9.999867 
2.9973558e+3, 1.9917074e+2, -1168135.5, -1265254.6, 427378.53, 0.10550703, 0.85453314, -786566.7, 201614.52, 0.0, 9.9999485, 9.999038 
2.9970443e+3, 2.0916824e+2, -589828.94, -258568.97, 239006.02, 0.57453376, 0.74865854, -133411.81, 756792.0, 0.0, 10.000738, 10.004617 
2.9967254e+3, 2.1916704e+2, -631842.9, -631300.2, 60699.117, 0.21553068, 0.7247682, -570871.8, 221338.34, 0.0, 10.001115, 10.001485 
2.9964066e+3, 2.2916068e+2, -215730.19, -268353.5, -141894.8, -0.34058017, 0.30685034, -97728.18, 596536.75, 0.0, 10.003167, 10.002066 
2.996097e+3, 2.3915775e+2, -171566.67, -492984.1, -299192.7, -0.0925699, 0.22849968, 7347.2837, 603634.25, 0.0, 10.003785, 9.999783 
2.9957783e+3, 2.4915248e+2, 16984.336, -470773.38, 62193.555, -0.19217885, 0.19978821, 24789.676, 523136.13, 0.0, 10.005311, 9.998249 
2.9954648e+3, 2.5915462e+2, -671903.3, -767450.56, 186857.55, 0.23912561, 1.0441971, -526808.94, -126473.93, 0.0, 9.999636, 9.99851 
2.9951513e+3, 2.691451e+2, -6150.9824, 165415.73, 268644.94, 0.24114978, 0.33605027, 361641.03, 664066.0, 0.0, 10.001515, 10.003109 
2.9948348e+3, 2.7914107e+2, -399889.13, -348155.88, -107792.805, -0.22002883, 0.13541815, -263169.56, -58710.44, 0.0, 9.999343, 10.000299 
2.9945087e+3, 2.891449e+2, -295681.66, -256986.47, -118652.47, -0.539193, 0.89126694, -156114.53, -49689.62, 0.0, 9.999973, 9.999772 
2.9941937e+3, 2.991342e+2, 1828.6472, 6913.6934, 233362.36, -0.22816756, 0.370012, 237747.39, 246279.16, 0.0, 10.000655, 10.000725 
